time S11 S22 S12 LE11 LE22 LE12
0.0 0.0 0.0 0.0 0.0 0.0 0.0
0.1 2404823.37501 6864652.86593 -165248.936818 -7.62308904255e-05 0.000472751700543 -2.79885170473e-06
0.2 3817876.03264 13008560.3212 -233826.727995 -0.000228780393355 0.000945652835743 1.07462532683e-05
0.3 4541478.82129 18484853.6636 -269213.038495 -0.000426066963911 0.00141292824326 1.72802553149e-05
0.4 5099497.75415 22958147.2881 1086.39473261 -0.000611688863545 0.0018186028859 4.23399673874e-05
0.5 5556670.18056 24667171.4383 -412287.704696 -0.000817316108845 0.0022368780266 7.37476659832e-05
0.6 5245575.60708 25478559.0903 -465546.410241 -0.00107278698678 0.0025956433092 0.000162727083377
0.7 2573959.61038 16990875.7338 -564155.447556 -0.00117936992042 0.00298530676078 0.000244585394853
0.8 1974807.29544 16283780.7584 -978659.699245 -0.00126010481814 0.00345749372313 0.000350431486768
0.9 2933113.35622 15956947.7919 -765853.305787 -0.00129154071498 0.00385540891767 0.000501407995552
1.0 3342884.37784 14913047.6401 -342530.277712 -0.00133858575355 0.00415705918988 0.000630454842046
1.1 -139939.463254 9618846.51511 1146451.57557 -0.00127678115478 0.00372985741839 0.000610404191379
1.2 -1022693.82739 7463699.63006 1163713.81348 -0.00117244251648 0.00326311210464 0.000559342139113
1.3 -1602921.20394 5572539.00138 1098100.14082 -0.00105086045621 0.00281397785721 0.000499343173283
1.4 -1968493.93759 3886036.51945 1030094.47241 -0.000917545477375 0.0023714438071 0.000437292490317
1.5 -2245427.73767 2324468.57944 966746.447535 -0.000782100755799 0.00193337530908 0.00038363028365
1.6 -2428426.08317 1185362.46258 834974.144013 -0.000656166499377 0.00152431138719 0.000317905929095
1.7 -2664189.27873 -217986.505335 711196.786963 -0.000523957781346 0.00110019346973 0.000255761988588
1.8 -2897832.73752 -1580097.98489 576785.871077 -0.000392157707541 0.000681974345945 0.000186889189083
1.9 -3180150.55239 -3397090.37936 459276.308703 -0.000251044370506 0.000258504503966 0.000124378389751
2.0 -3489586.12202 -5426750.20946 268581.236109 -0.000113476822612 -0.000146526584555 6.01818016739e-05
2.1 -3942749.29447 -8692379.54604 29420.6748657 4.72819061498e-05 -0.000549695986488 6.80646443253e-07
2.2 -4434849.75957 -13923365.3341 57868.9666594 0.000233663482447 -0.0010014824311 -2.36994371345e-05
2.3 -4703705.87828 -19742848.8257 63467.9730571 0.00045926790005 -0.00148439783502 -3.1664615305e-05
2.4 -4850302.66753 -25533692.0899 114162.467139 0.000693371811366 -0.00196906791974 -3.91451225578e-05
2.5 -5096559.54599 -31135786.3806 18822.7632818 0.000914213058393 -0.00243316186538 -6.33715385584e-05
2.6 -5314780.87852 -36229557.6125 134802.038436 0.00116549453893 -0.00289325341762 -4.12639820071e-05
2.7 -5379242.31247 -41750657.1241 173727.617511 0.00141286615551 -0.00337115250758 -3.19164489317e-05
2.8 -5789557.43124 -46049867.9613 -304397.144073 0.00182821495923 -0.00388589194723 -7.41728613715e-05
2.9 -5650006.17897 -50691153.5086 -270466.967399 0.00213433589574 -0.00435979148928 -8.8960865201e-05
3.0 -5512174.52887 -55945880.4485 -259930.655839 0.00241489986214 -0.00484203411306 -9.02517117398e-05
3.1 -6969832.76201 -59809740.2221 -781735.669413 0.00283027656583 -0.00532276913816 -0.000152199080303
3.2 -6558674.48303 -64584752.7949 -810932.191291 0.00316476354179 -0.00580559955675 -0.000150722729837
3.3 -6604702.35877 -69435869.6293 -1012579.28264 0.00344195975581 -0.00625288480141 -0.000181199084543
3.4 -7864010.64363 -74308044.2112 -1038690.40597 0.00376897025224 -0.00671799104724 -0.000180567999919
3.5 -7346281.53705 -78918232.4922 -1029400.4428 0.00411554285962 -0.00719576324617 -0.000184987309456
3.6 -8680953.8213 -82905768.1229 -1256637.17735 0.00452752959094 -0.00767712560204 -0.000173570787511
3.7 -8840566.6336 -86220133.626 -1205269.60173 0.00496632146095 -0.0081227693511 -0.000220565767616
3.8 -7699593.7523 -88278531.9048 -1309962.42395 0.0056753663602 -0.00863104205492 -0.000141260666208
3.9 -7432310.63431 -92194337.5949 -1511234.01986 0.00613153489343 -0.00909861554207 -0.00012800520136
4.0 -7573906.61824 -94680647.6709 -2378425.57774 0.00671917249766 -0.00953824221813 -0.00014222272577
4.1 -7832411.22824 -97188569.0289 -2537566.44418 0.00742506204556 -0.00999638944359 -0.000108797377935
4.2 -8807993.63462 -100104505.264 -2800619.56844 0.00807577629081 -0.0104601346163 -5.25338009736e-05
4.3 -12358273.6301 -100685380.975 -2380829.39029 0.00953021748014 -0.0109337287455 -7.99317199129e-07
4.4 -9959830.27945 -99629596.926 -2965583.2909 0.0108938484455 -0.0113578020579 -0.000100131159549
4.5 -9355233.05364 -101571413.238 -3036877.18695 0.0116599602941 -0.0117973347459 -8.03520490816e-05
4.6 -9000234.75472 -103936948.457 -2874150.89768 0.0124747064996 -0.0122701607374 -6.04673710828e-05
4.7 -10924274.3307 -107009866.77 -2674997.33317 0.0132676457985 -0.0128639299352 4.866172695e-06
4.8 -11165636.5085 -108665291.487 -2657318.82274 0.0139211204103 -0.0132018694348 -2.40562184154e-06
4.9 -11834353.4779 -109578539.234 -2022290.13795 0.0146929480405 -0.0135051620264 5.24798592809e-05
5.0 -11076873.0182 -110083785.627 -2744204.24548 0.01609592191 -0.0140139068222 -4.23367705571e-05
5.1 -11256318.2156 -110919824.056 -3435304.99389 0.0177694186308 -0.014497718189 8.48966410405e-06
5.2 -11900186.4438 -112556137.832 -3559956.21186 0.0187949469664 -0.0149111381525 5.94552415324e-05
5.3 -10877017.0172 -113753263.195 -4322014.44404 0.0197102059353 -0.0153637031134 2.56470355263e-05
5.4 -10708988.828 -115875270.671 -4109118.74902 0.0205867090893 -0.0158375732844 0.000185729147779
5.5 -10566207.6049 -117640093.045 -3412848.77479 0.0216104860948 -0.0162892744457 0.000304458939396
5.6 -10011048.4739 -119414790.073 -3459008.38604 0.0225784538511 -0.0167565852859 0.000362905563384
5.7 -11151264.3463 -120319904.818 -3395365.0092 0.0237739152526 -0.017227454924 0.00018562191437
5.8 -10441624.8517 -122077536.83 -3343731.27186 0.0247804634384 -0.0177164761099 0.00023074185939
5.9 -12809839.2521 -123219919.607 -1339281.53563 0.0256648153189 -0.0181262486355 0.000456729622844
6.0 -11564174.983 -122248515.696 -1027108.32989 0.0270563764312 -0.0185575472871 0.000486439472399
6.1 -8437667.1741 -112290915.302 -228936.925885 0.0281758394178 -0.0182798586402 0.000735185902166
6.2 -6766333.83736 -104445978.085 -542234.132737 0.0290119214282 -0.0179418430569 0.000538240607924
6.3 -4825058.72698 -96984583.0679 -472115.33819 0.0293841929938 -0.0174808372723 0.000571285227191
6.4 -3712276.99027 -90447774.8977 -330881.25738 0.0296279928176 -0.0170310395523 0.000650436024035
6.5 -2474505.73622 -83866596.6971 -65544.5290353 0.0297819532053 -0.0165541147496 0.000745497378848
6.6 -1549860.03454 -77578773.7346 153849.594791 0.0298821901897 -0.0160761981495 0.000806420964804
6.7 -1018201.4934 -71388719.3596 311281.666612 0.0299816183267 -0.0156046433887 0.000826679858086
6.8 -1789230.11057 -66695557.7545 438204.478693 0.0302134117316 -0.0151857822195 0.000818680132022
6.9 -1263659.25117 -60960399.6104 523805.449547 0.0303915594112 -0.0147644232086 0.000781802625229
7.0 -767930.747818 -55580925.9124 473060.910329 0.0305162334068 -0.0142939013265 0.000811988029688
7.1 87725.923065 -49993961.456 620738.76917 0.0305908514886 -0.0137906752225 0.00087565336992
7.2 82986.6010681 -46465019.3181 333977.868062 0.0306462125446 -0.0132952913499 0.000919444223786
7.3 14056.1530948 -43784007.7489 428313.207954 0.0307414062715 -0.0127944881202 0.000952260683236
7.4 379266.289394 -39991148.4996 245197.568242 0.0308047138847 -0.0122993198798 0.000985479317306
7.5 646248.556174 -36835051.3757 -95297.020342 0.0308197036409 -0.0117957276055 0.00107056447161
7.6 1170420.57307 -33265177.2596 -136327.465304 0.0307933451921 -0.0113060348524 0.00114349400338
7.7 1537861.65266 -30093762.5332 -95795.1097901 0.0307452312826 -0.010828089084 0.00123110305283
7.8 1886679.48322 -27067750.917 -86215.1036941 0.0306794608773 -0.0103549064593 0.00133445914456
7.9 2241973.68484 -24172979.138 -70080.268173 0.030575158412 -0.00987589535643 0.00142679045979
8.0 2588067.62365 -21291659.3322 -82583.1288066 0.0303918748609 -0.00935793753525 0.00151589051355
8.1 2752908.62936 -18591536.1439 -135362.479567 0.0301978770766 -0.00882867438487 0.00161069120734
8.2 3002608.87654 -15672563.6421 -237674.582575 0.0300152004714 -0.0083137780961 0.00171032594481
8.3 3012234.14209 -13118196.4995 -147311.30502 0.0298959439471 -0.00787193035779 0.00186724351338
8.4 3078255.1256 -10633316.3533 -123198.191786 0.0298059056215 -0.00745016811755 0.0019869168363
8.5 2397093.8913 -9995070.71064 -296826.646964 0.0297189551301 -0.00692833399003 0.00214084302275
8.6 2556238.50783 -7442084.23293 -298452.177582 0.0295640659265 -0.00644030040176 0.00223508385935
8.7 2298146.49285 -5239665.65625 -355754.304387 0.029470070148 -0.00593255952137 0.00225585939852
8.8 1911973.50449 -3586956.41671 -402734.754379 0.0294708959909 -0.00544039513138 0.00221037928879
8.9 1783170.86169 -2145129.16544 -637058.146064 0.0295288105541 -0.00498585118318 0.0021465858127
9.0 1665495.06317 -892212.161759 -762382.783929 0.0295220708399 -0.00453424072372 0.00209202045694
9.1 1639970.56142 542015.737554 -934409.160357 0.0295351632878 -0.00408377467052 0.00204892765817
9.2 1694253.22616 2398832.82352 -1065273.39637 0.0294988611059 -0.00362929738599 0.0020546801094
9.3 1878824.80331 4338776.15207 -1212380.14669 0.0294836528538 -0.00318889023224 0.0020618858085
9.4 1916759.48926 6129430.27377 -1329517.21165 0.0293773739951 -0.00272112270575 0.00207881214232
9.5 1624791.42078 5783281.3697 -1431842.12731 0.0290987088874 -0.00223012358263 0.00214644691804
9.6 1495301.85183 6296613.1605 -1093616.25479 0.0288884944493 -0.00178168332065 0.0021356809176
9.7 1647824.89236 7475109.83452 -1141852.01765 0.0287478868286 -0.00131783038394 0.00211604644161
9.8 1607689.41376 8249516.31207 -1419243.96863 0.028578745292 -0.000832592601513 0.00209259975007
9.9 1625006.93225 9434688.40396 -1549246.20174 0.0284688106295 -0.000338715395335 0.00215292660972
10.0 1715454.76422 10828242.2333 -1617115.78568 0.0283639740221 0.000162354415924 0.00218667819762
