time zIndex S11 S22 S12 block gridPoints
f i f f f i l
 1.0000e-001 70632 -3.1837e+001  2.8717e+001  9.3391e+000 70072 70482,70534,70508
 1.0000e-001 70609 -4.4011e+001  6.3892e+000  4.6528e+000 70072 70482,70560,70534
 1.0000e-001 70586 -1.1747e+002 -2.5290e+001  7.6421e+000 70072 70456,70560,70482
 1.0000e-001 70951 -5.3626e+001  4.8038e+001  0.0000e+000 69874 70703,70755,70729
 1.0000e-001 70928 -8.1220e+001  4.0125e+001  3.0384e+001 69874 70703,70781,70755
 1.0000e-001 70905 -8.1627e+001  1.3936e+001  2.9992e+001 69874 70703,70807,70781
 1.0000e-001 70882 -9.1325e+001 -7.1865e+000  2.5837e+001 69874 70703,70833,70807
 1.0000e-001 70859 -4.5152e+001  2.1070e+001 -4.1239e-001 69874 70677,70833,70703
 1.0000e-001 71199 -4.0747e+001  1.1492e+001 -4.8724e-001 69698 71222,71052,71026
 1.0000e-001 71176 -2.1257e+001  9.9792e+000  4.6764e+000 69698 71294,71222,71026
 1.0000e-001 71153 -1.1409e+001  1.5423e+001  2.8588e+001 69698 71294,71026,71000
 1.0000e-001 71130 -5.9715e+001 -7.6525e+000 -5.3110e+000 69698 71366,71104,71078
 1.0000e-001 71248 -4.1327e+001  6.3399e+000 -1.8834e+000 69698 71078,71052,71222
 1.0000e-001 71271 -5.2871e+001 -1.9822e+000 -8.1450e+000 69698 71366,71078,71222
 1.0000e-001 71320 -5.9140e+001 -2.5392e+000  1.2720e+000 69698 70974,71222,71294
 1.0000e-001 71343 -6.0465e+001 -5.8618e+000  2.2447e+001 69698 70974,71294,71000
 1.0000e-001 71392 -4.9953e+001 -1.1364e+001 -5.1052e+000 69698 70974,71104,71366
 1.0000e-001 71415 -4.9799e+001 -9.9789e+000 -5.7011e+000 69698 70974,71366,71222
 1.0000e-001 71516 -8.0643e+001 -1.6263e+001  1.0090e+001 69386 71438,71490,71464
 1.0000e-001 71869 -8.5104e+001 -3.2710e+001 -2.7710e+000 69188 71644,71748,71670
 1.0000e-001 71846 -9.0965e+001 -3.1741e+001 -5.8745e+000 69188 71644,71774,71748
 1.0000e-001 71823 -9.1594e+001 -5.8202e+001 -3.4937e+000 69188 71670,71748,71722
 1.0000e-001 71800 -6.2988e+001 -6.3717e+000  8.3654e+000 69188 71670,71722,71696
 1.0000e-001 72019 -8.7312e+001 -2.5919e+001  8.8268e+000 68990 71918,71970,71944
 1.0000e-001 71996 -1.0012e+002  6.2030e+000 -4.9568e+000 68990 71892,71970,71918
 1.0000e-001 72316 -7.5102e+001 -2.4687e+001 -6.8633e-001 68586 72339,72172,72146
 1.0000e-001 72293 -7.5564e+001 -2.5186e+001 -4.3842e-001 68586 72339,72146,72120
 1.0000e-001 72270 -7.5554e+001 -3.0016e+001  2.4702e+000 68586 72411,72068,72198
 1.0000e-001 72247 -8.3159e+001 -4.7204e+001 -5.8159e+000 68586 72042,72198,72068
 1.0000e-001 72224 -6.7299e+001 -2.4759e+000  7.9370e+000 68586 72068,72120,72094
 1.0000e-001 72365 -7.5318e+001 -2.3697e+001  1.4855e+000 68586 72198,72172,72339
 1.0000e-001 72388 -7.7133e+001 -2.7911e+001  1.7960e+000 68586 72411,72198,72339
 1.0000e-001 72437 -7.4327e+001 -2.8115e+001  2.1269e-001 68586 72120,72068,72411
 1.0000e-001 72460 -7.5445e+001 -2.4927e+001 -2.9462e-001 68586 72120,72411,72339
 1.0000e-001 72864 -7.7699e+001 -2.6086e+001 -1.0289e+000 68388 72642,72694,72668
 1.0000e-001 72841 -7.9049e+001 -2.1974e+001  1.6873e+000 68388 72616,72694,72642
 1.0000e-001 72818 -8.4694e+001 -4.1116e+001  2.5737e+000 68388 72616,72720,72694
 1.0000e-001 72795 -6.9156e+001 -1.5342e+001 -3.9911e+000 68388 72590,72720,72616
 1.0000e-001 72772 -9.2982e+001 -3.7376e+001 -2.0205e+001 68388 72590,72746,72720
 1.0000e-001 73321 -5.2362e+001 -2.8091e+001 -6.9948e+000 68048 73073,73203,73177
 1.0000e-001 73298 -4.3352e+001 -3.2805e+001 -1.6676e+001 68048 73047,73203,73073
 1.0000e-001 73275 -7.1806e+001 -1.4620e+001  6.2766e-001 68048 73125,73177,73151
 1.0000e-001 73252 -6.7193e+001 -1.6544e+001 -4.3775e+000 68048 73073,73177,73125
 1.0000e-001 73229 -6.1378e+001  1.0977e+000 -2.0577e+000 68048 73073,73125,73099
 1.0000e-001 73640 -8.2602e+001 -6.2133e+000  1.5964e+000 67850 73444,73496,73470
 1.0000e-001 73617 -7.1086e+001 -8.3473e+000  3.8075e-001 67850 73418,73496,73444
 1.0000e-001 73594 -6.6058e+001  2.4768e+000 -1.4142e+000 67850 73392,73496,73418
 1.0000e-001 73571 -5.9959e+001 -1.1207e+001 -3.1210e-001 67850 73392,73522,73496
 1.0000e-001 73548 -4.3645e+001  1.0825e+001 -1.3345e+001 67850 73366,73522,73392
 1.0000e-001 73790 -7.6036e+001 -3.0742e+001 -6.6016e-001 67602 73689,73741,73715
 1.0000e-001 73767 -7.0659e+001 -1.8644e+001  3.5781e-001 67602 73663,73741,73689
 1.0000e-001 74040 -8.1395e+001 -2.9566e+001 -1.1242e+000 67290 73841,73945,73919
 1.0000e-001 74017 -7.7444e+001 -3.5315e+001 -1.8979e+000 67290 73815,73945,73841
 1.0000e-001 73994 -7.6404e+001 -2.8310e+001  2.8244e+000 67290 73841,73919,73867
 1.0000e-001 73971 -7.4798e+001 -2.4108e+001  2.0649e+000 67290 73867,73919,73893
 1.0000e-001 74143 -1.0101e+002  1.0711e+001  4.9889e-001 67092 74065,74117,74091
 1.0000e-001 74415 -6.9313e+001 -1.5592e+001 -1.2557e+001 66894 74190,74294,74216
 1.0000e-001 74392 -6.7885e+001 -1.1143e+001  2.6144e+000 66894 74190,74320,74294
 1.0000e-001 74369 -5.7459e+001  2.1574e+001 -1.3660e+001 66894 74216,74294,74242
 1.0000e-001 74346 -7.4987e+001  4.9198e-001 -5.9946e+000 66894 74242,74294,74268
 1.0000e-001 75023 -8.5583e+001 -2.7218e+001  9.0832e+000 66532 74654,74836,74810
 1.0000e-001 75000 -6.0881e+001 -2.3733e+001  1.0675e+001 66532 74628,74836,74654
 1.0000e-001 74977 -7.0404e+001 -2.1452e+001  2.5038e-001 66532 74706,74784,74732
 1.0000e-001 74954 -8.5902e+001 -4.4223e+001 -6.8124e+000 66532 74680,74784,74706
 1.0000e-001 74931 -8.6667e+001 -3.8769e+001 -4.3413e+000 66532 74680,74810,74784
 1.0000e-001 74908 -7.3857e+001 -3.4111e+001  5.1212e+000 66532 74654,74810,74680
 1.0000e-001 74885 -7.9221e+001 -1.3978e+001  1.7304e+001 66532 74602,74836,74628
 1.0000e-001 74862 -8.2885e+001 -9.0673e+000  7.3332e+000 66532 74732,74784,74758
 1.0000e-001 75222 -7.3152e+001 -1.5297e+001  2.0426e+000 66242 75072,75150,75124
 1.0000e-001 75199 -6.9573e+001 -1.5610e+001  8.7491e-001 66242 75046,75150,75072
 1.0000e-001 75176 -7.4861e+001 -1.4599e+001  7.2940e-001 66242 75072,75124,75098
 1.0000e-001 75470 -1.0575e+002  3.8816e+000  3.1576e+000 65838 75297,75375,75349
 1.0000e-001 75447 -1.0084e+002  3.2790e-001  5.3602e+000 65838 75271,75375,75297
 1.0000e-001 75424 -7.6110e+001  3.3580e+001  2.3150e+001 65838 75297,75349,75323
 1.0000e-001 75401 -1.0341e+002 -5.7756e-001  5.8854e+000 65838 75245,75375,75271
 1.0000e-001 75671  2.8282e+001  2.5035e+001  1.0855e+001 65640 75495,75573,75521
 1.0000e-001 75648 -6.4201e+000  1.5237e+001  3.5104e+000 65640 75495,75599,75573
 1.0000e-001 75625  6.0823e+000  2.8768e+000 -9.5761e-001 65640 75521,75573,75547
 1.0000e-001 75872 -6.2129e+001 -8.1846e+000  1.1098e+000 65300 75895,75748,75722
 1.0000e-001 75849 -6.6875e+001 -9.5256e+000  7.5972e-001 65300 75895,75722,75696
 1.0000e-001 75826 -5.6972e+001 -1.2043e+000 -1.1966e+001 65300 75967,75774,75748
 1.0000e-001 75921 -5.6283e+001 -5.8109e+000 -4.0457e+000 65300 75967,75748,75895
 1.0000e-001 75944 -6.6386e+001 -1.0704e+001 -3.2184e-001 65300 75800,75895,75696
 1.0000e-001 75993 -7.0767e+001 -8.3690e+000 -8.3189e+000 65300 75800,75774,75967
 1.0000e-001 76016 -6.9978e+001 -1.2394e+001 -1.7217e+000 65300 75800,75967,75895
 1.0000e-001 76371 -6.7891e+001 -2.3619e+001  4.8685e+000 64896 76146,76250,76172
 1.0000e-001 76348 -6.8829e+001 -3.0655e+001  1.5911e+000 64896 76146,76276,76250
 1.0000e-001 76325 -5.3704e+001 -2.1127e+001 -8.3552e-001 64896 76172,76250,76198
 1.0000e-001 76302 -9.3642e+001 -3.8765e+001 -6.0971e+000 64896 76198,76250,76224
 1.0000e-001 76570 -8.6175e+001 -8.4358e+000  1.2121e+001 64442 76446,76498,76472
 1.0000e-001 76547 -7.5569e+001 -1.0236e+000 -2.2878e+000 64442 76420,76498,76446
 1.0000e-001 76524 -7.0510e+001 -4.9201e+000  3.1508e+000 64442 76394,76498,76420
 1.0000e-001 76999 -6.5968e+001 -2.0809e+001  2.3549e+000 63924 77022,76728,76702
 1.0000e-001 76976 -6.6282e+001 -2.1281e+001  2.7267e+000 63924 77022,76702,76832
 1.0000e-001 76953 -7.0509e+001 -2.4702e+001 -1.4851e+000 63924 76728,76806,76754
 1.0000e-001 76930 -8.1503e+001 -2.9740e+001 -1.0506e+000 63924 76676,76832,76702
 1.0000e-001 76907 -6.9514e+001 -1.8700e+001 -1.1242e-003 63924 76754,76806,76780
 1.0000e-001 76884 -8.4603e+001 -2.0517e+001 -8.4875e-001 63924 76676,76858,76832
 1.0000e-001 77048 -6.6498e+001 -2.0303e+001  2.3991e+000 63924 76806,76728,77022
 1.0000e-001 77071 -6.6736e+001 -2.0683e+001  2.7656e+000 63924 76806,77022,76832
 1.0000e-001 77449 -5.1283e+001 -1.6680e+000  1.1544e+000 63320 77472,77253,77201
 1.0000e-001 77426 -5.4958e+001 -4.2217e+000 -1.8426e-001 63320 77472,77201,77175
 1.0000e-001 77403 -6.9682e+001 -8.4732e+000 -1.6732e+000 63320 77175,77305,77279
 1.0000e-001 77380 -6.6989e+001 -1.9035e+001  1.2618e+001 63320 77201,77253,77227
 1.0000e-001 77357 -6.6223e+001 -9.3496e+000  6.0048e+000 63320 77175,77331,77305
 1.0000e-001 77498 -4.7040e+001 -5.0071e+000 -2.2910e+000 63320 77279,77253,77472
 1.0000e-001 77521 -5.2751e+001 -7.5809e+000 -3.7454e+000 63320 77279,77472,77175
 1.0000e-001 77769 -8.4840e+001 -1.6178e+001 -3.1090e+000 62816 77570,77622,77596
 1.0000e-001 77746 -7.6474e+001 -2.4694e+001 -7.6942e+000 62816 77570,77648,77622
 1.0000e-001 77723 -1.0347e+002 -3.1966e+001 -2.0187e+001 62816 77570,77674,77648
 1.0000e-001 77700 -7.6324e+001 -2.1375e+001 -1.6673e+001 62816 77544,77674,77570
 1.0000e-001 78149 -7.2757e+001 -3.2448e+001 -2.6013e+000 62354 77953,78031,78005
 1.0000e-001 78126 -6.8134e+001 -1.3386e+001  7.9781e-001 62354 77901,78031,77953
 1.0000e-001 78103 -7.8606e+001 -1.8840e+001 -1.2803e+001 62354 77875,78031,77901
 1.0000e-001 78080 -8.8431e+001 -1.0307e+001  1.8213e+001 62354 77901,77953,77927
 1.0000e-001 78057 -8.7012e+001 -3.1394e+001 -5.6099e+000 62354 77953,78005,77979
 1.0000e-001 78606 -7.2468e+001 -1.9394e+001 -5.5464e+000 61950 78384,78436,78410
 1.0000e-001 78583 -4.8479e+001 -7.5121e+000 -1.5836e+000 61950 78358,78436,78384
 1.0000e-001 78560 -5.5163e+001 -2.1019e+001  4.8909e+000 61950 78358,78488,78436
 1.0000e-001 78537 -4.8529e+001  1.7604e+001  1.0415e+001 61950 78436,78488,78462
 1.0000e-001 78514 -6.0421e+001 -2.8705e+001  1.1693e+000 61950 78332,78488,78358
 1.0000e-001 78756 -7.8282e+001 -2.1815e+001  3.8659e+000 61339 78779,78655,78629
 1.0000e-001 78733 -7.3616e+001 -1.7458e+001  1.9131e+000 61339 78779,78629,78707
 1.0000e-001 78805 -6.7063e+001 -9.0540e+000 -3.4265e+000 61339 78851,78779,78681
 1.0000e-001 78828 -7.6870e+001 -1.8046e+001  1.5114e+000 61339 78681,78779,78707
 1.0000e-001 78877 -7.5730e+001 -3.0457e+001  9.7409e-001 61339 78655,78779,78851
 1.0000e-001 79206 -4.7085e+001  9.5421e-001 -3.3420e+001 60892 79229,79007,78981
 1.0000e-001 79183 -6.4587e+001 -3.7761e+001 -2.9543e+001 60892 79229,78981,79111
 1.0000e-001 79160 -7.4894e+001 -7.5818e+000 -2.2820e+001 60892 79301,79033,79007
 1.0000e-001 79137 -7.2743e+001 -6.6546e+000 -1.6708e+000 60892 79033,79085,79059
 1.0000e-001 79255 -7.2958e+001 -8.4368e+000 -2.1897e+001 60892 79301,79007,79229
 1.0000e-001 79278 -4.3931e+001 -1.4082e+001 -1.5169e+001 60892 79085,79229,79111
 1.0000e-001 79327 -8.3508e+001 -1.7124e+001 -6.4839e+000 60892 79085,79033,79301
 1.0000e-001 79350 -5.7047e+001 -6.2967e+000 -9.1874e+000 60892 79085,79301,79229
 1.0000e-001 79647 -8.4881e+001 -3.9214e+001 -3.1520e+000 60488 79451,79529,79503
 1.0000e-001 79624 -7.9106e+001 -2.8949e+001 -7.2592e+000 60488 79425,79529,79451
 1.0000e-001 79601 -6.3061e+001 -2.7441e+001 -6.3112e+000 60488 79373,79529,79425
 1.0000e-001 79578 -5.5488e+001 -2.3698e+001 -1.0909e+000 60488 79373,79425,79399
 1.0000e-001 79555 -7.3693e+001  3.4289e+001  1.4389e+001 60488 79451,79503,79477
 1.0000e-001 79870 -9.5537e+001 -3.4070e+001  2.9931e-001 60026 79720,79798,79772
 1.0000e-001 79847 -1.3514e+002 -5.1770e+001 -6.8864e+000 60026 79694,79798,79720
 1.0000e-001 79824 -1.2700e+002 -4.7702e+001 -1.2549e+000 60026 79720,79772,79746
 1.0000e-001 80120 -6.3120e+000  4.2889e+000  1.3443e+001 59629 79921,80025,79973
 1.0000e-001 80097 -1.0564e+001  1.5835e+001  2.0498e+001 59629 79895,80025,79921
 1.0000e-001 80074  3.2734e+000  1.0695e+001 -1.2082e+001 59629 79973,80025,79999
 1.0000e-001 80051 -1.0618e+001  1.3419e+001  1.1400e+001 59629 79921,79973,79947
 1.0000e-001 80321 -6.8000e+001 -2.3990e+001  6.4183e-001 59125 80344,80171,80145
 1.0000e-001 80298 -5.8652e+001 -2.3107e+001 -4.7299e+000 59125 80344,80145,80249
 1.0000e-001 80275 -4.9008e+001 -2.4486e+001 -7.6547e+000 59125 80197,80249,80223
 1.0000e-001 80370 -5.7209e+001 -2.3910e+001 -2.3356e+000 59125 80197,80171,80344
 1.0000e-001 80393 -4.8683e+001 -2.3824e+001 -7.5629e+000 59125 80197,80344,80249
 1.0000e-001 80952 -3.7432e+001 -1.5533e+001 -8.3885e-001 58557 80975,80632,80606
 1.0000e-001 80929 -5.5834e+001 -2.0120e+001  3.2683e+000 58557 81119,80975,80606
 1.0000e-001 80906 -5.5279e+001 -1.9233e+001 -7.9577e+000 58557 81047,80684,80632
 1.0000e-001 80883 -6.5400e+001 -2.3562e+001  9.0568e+000 58557 81119,80606,80580
 1.0000e-001 80860 -5.0588e+001 -4.8807e+000 -5.4249e+000 58557 81191,80736,80710
 1.0000e-001 80837 -5.7196e+001 -7.7331e+000  9.6464e+000 58557 80736,80788,80762
 1.0000e-001 80814 -4.4095e+001  4.5428e+000 -1.2527e+001 58557 80632,80684,80658
 1.0000e-001 81001 -5.2658e+001 -2.3254e+001 -5.3038e+000 58557 81047,80632,80975
 1.0000e-001 81024 -5.0013e+001 -1.0536e+001 -4.0857e+000 58557 81191,80710,80975
 1.0000e-001 81073 -5.2882e+001 -1.2164e+001 -7.9522e+000 58557 80710,80684,81047
 1.0000e-001 81096 -5.1153e+001 -1.7275e+001 -4.7805e+000 58557 80710,81047,80975
 1.0000e-001 81145 -5.5233e+001 -1.4816e+001 -2.2020e+000 58557 80788,80975,81119
 1.0000e-001 81168 -5.7508e+001 -1.6245e+001  3.1154e+000 58557 80788,81119,80580
 1.0000e-001 81217 -5.2442e+001 -1.0028e+001 -3.4049e+000 58557 80788,80736,81191
 1.0000e-001 81240 -5.0828e+001 -1.3413e+001 -1.7417e+000 58557 80788,81191,80975
 1.0000e-001 81537 -2.5476e+001  3.4847e+001 -9.2727e+000 57881 81560,81341,81289
 1.0000e-001 81514 -1.2590e+001  4.1400e+001 -4.4913e+001 57881 81560,81289,81263
 1.0000e-001 81491 -2.6042e+001  9.5393e+000 -2.4348e+001 57881 81632,81419,81367
 1.0000e-001 81468 -3.4001e+001 -3.1441e+000 -4.2230e+000 57881 81367,81419,81393
 1.0000e-001 81445 -6.7541e+001  4.5682e+001  1.3417e-001 57881 81289,81341,81315
 1.0000e-001 81586 -3.8292e+001 -1.2912e+001 -5.1840e-001 57881 81367,81341,81560
 1.0000e-001 81609 -3.0385e+001  3.0523e+001 -1.7351e+001 57881 81632,81367,81560
 1.0000e-001 81658 -3.5190e+001 -4.0914e+001 -2.8352e+001 57881 81263,81419,81632
 1.0000e-001 81681 -3.0713e+001 -3.5448e+000 -2.5908e+001 57881 81263,81632,81560
 1.0000e-001 81929  1.4567e+001  9.0457e+000  1.1449e+001 57477 81704,81808,81782
 1.0000e-001 81906  5.5433e+000 -1.9795e+000  1.6175e+001 57477 81704,81834,81808
 1.0000e-001 81883  1.6655e+001 -1.2391e+000  4.6608e+000 57477 81704,81782,81730
 1.0000e-001 81860  9.0733e+000  8.8605e+000  1.7013e+000 57477 81730,81782,81756
 1.0000e-001 82488 -6.5241e+001 -1.7036e+001  1.6334e+000 56966 82583,82511,82194
 1.0000e-001 82465 -6.4830e+001 -2.0638e+001  1.7792e+000 56966 82511,82116,82324
 1.0000e-001 82442 -6.0945e+001 -1.5541e+001  6.7472e-001 56966 82583,82194,82168
 1.0000e-001 82419 -7.1398e+001 -1.8847e+001 -8.9193e-001 56966 82194,82246,82220
 1.0000e-001 82396 -6.0916e+001 -1.3161e+001  2.4239e+000 56966 82194,82298,82246
 1.0000e-001 82373 -6.4571e+001  5.4091e+000  1.2094e+001 56966 82246,82298,82272
 1.0000e-001 82350 -5.8802e+001 -1.2193e+001  6.3167e+000 56966 82116,82168,82142
 1.0000e-001 82537 -6.5009e+001 -1.9053e+001  4.3559e-001 56966 82298,82194,82511
 1.0000e-001 82560 -7.0620e+001 -2.6651e+001 -3.4916e+000 56966 82298,82511,82324
 1.0000e-001 82609 -6.0425e+001 -1.9324e+001  3.6420e+000 56966 82116,82511,82583
 1.0000e-001 82632 -5.7915e+001 -1.9134e+001  3.2343e+000 56966 82116,82583,82168
 1.0000e-001 83236 -8.1722e+001 -2.2954e+001 -1.3646e+001 56304 82893,82945,82919
 1.0000e-001 83213 -6.6672e+001 -2.4843e+001 -1.1271e+000 56304 83259,82945,82893
 1.0000e-001 83190 -6.5223e+001 -2.2911e+001 -2.1799e-001 56304 83259,82893,83049
 1.0000e-001 83167 -6.4979e+001 -2.9570e+001  5.1328e+000 56304 82971,83049,83023
 1.0000e-001 83144 -6.1033e+001 -1.7246e+001  3.0591e+000 56304 82815,83049,82893
 1.0000e-001 83121 -6.0683e+001 -1.2350e+001  3.6781e+000 56304 82815,82893,82867
 1.0000e-001 83098 -6.1852e+001 -9.5208e+000  5.1305e+000 56304 82971,83023,82997
 1.0000e-001 83075 -5.6713e+001  5.7352e+000  2.1762e+000 56304 82815,82867,82841
 1.0000e-001 83285 -6.7517e+001 -2.2048e+001  1.3580e-002 56304 82971,82945,83259
 1.0000e-001 83308 -6.6606e+001 -2.1265e+001  9.3712e-001 56304 82971,83259,83049
 1.0000e-001 83556 -7.0526e+001 -5.5285e+000 -4.1180e+000 55964 83357,83461,83435
 1.0000e-001 83533 -1.0173e+002  3.4391e+000  2.9320e-001 55964 83331,83461,83357
 1.0000e-001 83510 -2.6748e+001  1.5518e+001 -1.0745e+001 55964 83357,83435,83383
 1.0000e-001 83487 -3.8366e+001  2.5119e+000 -1.6513e+001 55964 83383,83435,83409
 1.0000e-001 83706 -7.1936e+001 -2.0892e+001  2.3477e+000 55503 83579,83631,83605
 1.0000e-001 83683 -6.7014e+001 -2.0782e+001  1.5547e+000 55503 83579,83657,83631
 1.0000e-001 83907 -3.8520e+001  2.8400e+000 -1.2550e+001 55156 83757,83835,83809
 1.0000e-001 83884 -4.2530e+001 -3.5981e+000 -7.1521e+000 55156 83731,83835,83757
 1.0000e-001 83861 -5.3735e+001  3.8263e+001 -5.7321e+000 55156 83757,83809,83783
 1.0000e-001 84240 -3.3897e+001 -1.2607e+001 -1.1037e+001 54652 84093,84145,84119
 1.0000e-001 84217 -6.1564e+001 -7.2958e+000  2.4469e+000 54652 84041,84145,84093
 1.0000e-001 84194 -7.2039e+001 -1.1862e+001 -7.7315e+000 54652 84015,84145,84041
 1.0000e-001 84171 -5.8915e+001 -7.3092e+000 -2.0741e+000 54652 84041,84093,84067
 1.0000e-001 84618  2.6190e+001  6.5058e+000  1.2852e+001 53926 84396,84500,84474
 1.0000e-001 84595 -1.1957e+001  3.2232e+000 -5.9033e+000 53926 84344,84500,84396
 1.0000e-001 84572 -1.5841e+001  9.6866e-002  1.2334e+000 53926 84344,84396,84370
 1.0000e-001 84549  1.8582e+000  1.7461e+001 -3.7847e+001 53926 84396,84474,84422
 1.0000e-001 84526  7.5681e-001  2.0441e+001 -3.7617e+001 53926 84422,84474,84448
 1.0000e-001 85350 -7.9416e+001 -3.0901e+001 -1.6421e+001 53586 85373,84880,85088
 1.0000e-001 85327 -4.1488e+001 -3.1806e+001 -1.5710e+001 53586 84880,85114,85088
 1.0000e-001 85304 -4.9012e+001 -1.5676e+001 -8.8800e+000 53586 85373,85088,85062
 1.0000e-001 85281 -6.6610e+001 -2.5274e+001  1.9099e+001 53586 85010,85062,85036
 1.0000e-001 85258 -6.4497e+001 -2.1662e+001  6.8505e+000 53586 85445,85010,84958
 1.0000e-001 85235 -4.0515e+001 -1.4277e+001  5.7123e-001 53586 85445,84958,84906
 1.0000e-001 85212 -5.7235e+001 -3.9763e+000  3.1893e+000 53586 84958,85010,84984
 1.0000e-001 85189 -4.7538e+001  4.1722e+000 -5.3409e+000 53586 84906,84958,84932
 1.0000e-001 85166 -4.4124e+001 -3.3228e+001 -1.5136e+001 53586 84880,85140,85114
 1.0000e-001 85399 -8.4182e+001 -1.3637e+001  1.4470e+001 53586 84906,84880,85373
 1.0000e-001 85422 -6.4284e+001 -1.4203e+001  1.2979e+001 53586 85517,85373,85062
 1.0000e-001 85471 -6.6230e+001 -2.6510e+001  1.9125e+001 53586 85062,85010,85445
 1.0000e-001 85494 -5.6969e+001 -1.8171e+001  1.1385e+001 53586 85517,85062,85445
 1.0000e-001 85543 -5.3665e+001 -9.5632e+000  1.6554e+001 53586 84906,85373,85517
 1.0000e-001 85566 -4.8618e+001 -1.5142e+001  1.4902e+001 53586 84906,85517,85445
 1.0000e-001 86072 -4.6245e+001 -2.6560e+001 -7.8716e+000 53182 86095,85853,85775
 1.0000e-001 86049 -5.1178e+001 -2.7834e+001 -5.7381e+000 53182 86095,85775,85931
 1.0000e-001 86026 -5.1341e+001 -2.4769e+001 -1.3833e+001 53182 86167,85879,85853
 1.0000e-001 86003 -6.2435e+001 -3.7476e+001 -3.3016e+000 53182 85775,85827,85801
 1.0000e-001 85980 -4.5726e+001 -3.1545e+001 -2.5546e+000 53182 85775,85853,85827
 1.0000e-001 85957 -6.1223e+001 -3.3951e+001 -1.4316e-001 53182 85749,85931,85775
 1.0000e-001 86121 -5.3682e+001 -2.8341e+001 -8.5539e+000 53182 86167,85853,86095
 1.0000e-001 86144 -5.8977e+001 -2.4076e+001 -6.8215e+000 53182 85905,86095,85931
 1.0000e-001 86193 -5.0398e+001 -2.1579e+001 -1.4730e+001 53182 85905,85879,86167
 1.0000e-001 86216 -4.9611e+001 -1.8106e+001 -9.4029e+000 53182 85905,86167,86095
 1.0000e-001 86673 -4.8170e+001 -9.2164e+000  1.6082e+000 52778 86477,86529,86503
 1.0000e-001 86650 -5.1019e+001 -2.0382e+001  1.8228e-001 52778 86425,86529,86477
 1.0000e-001 86627 -4.8353e+001 -2.0417e+001  8.8363e-001 52778 86425,86477,86451
 1.0000e-001 86604 -4.2315e+001 -2.1070e+001  2.0995e+000 52778 86399,86529,86425
 1.0000e-001 86581 -4.6734e+001 -2.1557e+001 -5.6081e-001 52778 86399,86555,86529
 1.0000e-001 87258 -4.5099e+001 -1.8177e+000  1.0868e+001 52238 87281,86987,86961
 1.0000e-001 87235 -5.2256e+001 -1.2245e+001  2.3293e+000 52238 87281,86961,87117
 1.0000e-001 87212 -6.4065e+001 -1.7004e+001 -3.2895e+000 52238 86935,87117,86961
 1.0000e-001 87189 -5.7925e+001 -2.0433e+001 -1.9771e+000 52238 87065,87117,87091
 1.0000e-001 87166 -4.4706e+001 -2.5690e+001  3.4513e+000 52238 86987,87065,87039
 1.0000e-001 87143 -3.8722e+001 -2.9550e+001  8.3115e+000 52238 86987,87039,87013
 1.0000e-001 87307 -5.1161e+001 -1.7508e+001  4.9223e+000 52238 87065,86987,87281
 1.0000e-001 87330 -5.3770e+001 -1.8170e+001 -3.3698e+000 52238 87065,87281,87117
 1.0000e-001 87610 -4.8860e+001 -9.1811e+000  4.9103e+000 51834 87434,87512,87460
 1.0000e-001 87587 -6.8383e+001 -1.9878e+001 -1.2015e+000 51834 87434,87538,87512
 1.0000e-001 87564 -6.8230e+001 -2.7041e+001 -3.3373e+000 51834 87633,87460,87512
 1.0000e-001 87659 -7.6536e+001 -3.0602e+001 -3.7042e+000 51834 87486,87460,87633
 1.0000e-001 88187 -5.7482e+001 -2.5762e+001 -2.4475e+000 51266 87864,87942,87890
 1.0000e-001 88164 -5.7153e+001 -1.1394e+001 -3.1023e+000 51266 87864,88020,87942
 1.0000e-001 88141 -8.1970e+001 -2.6926e+001 -1.4154e+001 51266 87942,88020,87968
 1.0000e-001 88118 -5.1615e+001  7.0344e+000 -2.9384e+000 51266 87864,88046,88020
 1.0000e-001 88095 -5.0155e+001  1.4004e+001 -3.2223e-001 51266 87968,88020,87994
 1.0000e-001 88072 -5.2468e+001 -3.2091e+001 -7.9501e+000 51266 87890,87942,87916
 1.0000e-001 88644 -7.0303e+001 -3.2646e+001 -4.2035e+000 50754 88370,88500,88396
 1.0000e-001 88621 -7.9884e+001 -1.3849e+001 -7.0326e+000 50754 88370,88526,88500
 1.0000e-001 88598 -4.3717e+001 -1.2720e+001  9.1155e+000 50754 88396,88500,88422
 1.0000e-001 88575 -4.8692e+001 -2.3281e+001  7.7395e+000 50754 88422,88500,88474
 1.0000e-001 88552 -6.4427e+001 -3.5011e+001 -3.0065e+000 50754 88422,88474,88448
 1.0000e-001 88914 -2.7320e+001  4.7898e+001 -5.4523e+000 50442 88715,88793,88741
 1.0000e-001 88891 -2.1802e+001  3.6874e+001 -4.6292e+000 50442 88715,88819,88793
 1.0000e-001 88868 -5.9080e+001  1.2304e+001 -1.5371e+001 50442 88689,88819,88715
 1.0000e-001 88845 -4.1825e+000  5.8533e+001 -2.8038e+000 50442 88741,88793,88767
 1.0000e-001 89294 -2.2922e+001  2.0872e+001 -5.3645e+000 49938 89317,89046,89020
 1.0000e-001 89271 -2.4224e+001  1.6411e+001 -4.9433e+000 49938 89317,89020,89150
 1.0000e-001 89248 -2.1280e+001  3.8878e+001  3.8357e+000 49938 89072,89150,89098
 1.0000e-001 89225 -3.1477e+001  1.6437e+001 -8.1287e+000 49938 89020,89176,89150
 1.0000e-001 89202  1.9161e+001  3.9459e+001 -2.8378e+001 49938 89098,89150,89124
 1.0000e-001 89343 -1.5256e+001  5.9591e+001 -3.4238e+000 49938 89072,89046,89317
 1.0000e-001 89366 -3.0726e+001  2.1154e+001 -1.0396e+000 49938 89072,89317,89150
 1.0000e-001 89823 -4.3795e+001 -9.2859e+000 -2.2590e+000 49384 89601,89705,89679
 1.0000e-001 89800 -2.8099e+001  1.4763e-001  1.2776e+001 49384 89549,89705,89601
 1.0000e-001 89777 -9.3752e+000  3.1447e+000  6.6239e+000 49384 89549,89601,89575
 1.0000e-001 89754 -2.4768e+001  2.3917e+000  2.9192e+000 49384 89601,89679,89627
 1.0000e-001 89731 -1.2712e+001  3.2544e+001  3.9705e+000 49384 89627,89679,89653
 1.0000e-001 90329 -1.0516e+001 -7.9364e+000 -3.8432e+000 48894 90058,90110,90084
 1.0000e-001 90306 -1.9217e+001 -1.1625e+001 -2.3386e+000 48894 90058,90162,90110
 1.0000e-001 90283 -1.2442e+001 -9.9324e+000 -8.8514e-002 48894 90032,90162,90058
 1.0000e-001 90260 -1.3469e+001 -7.8275e+000 -7.3128e+000 48894 90006,90162,90032
 1.0000e-001 90237 -9.1493e+000  7.7079e+000 -6.2657e+000 48894 90110,90162,90136
 1.0000e-001 90214 -2.1133e+001 -9.1499e+000 -9.5272e+000 48894 90006,90188,90162
 1.0000e-001 90884 -2.0457e+001  6.4465e-001  8.0593e+000 48490 90564,90642,90616
 1.0000e-001 90861  4.9559e+000  8.0264e-002  1.0642e+001 48490 90564,90694,90642
 1.0000e-001 90838 -1.2418e+001  8.6299e-001  1.9680e+001 48490 90538,90694,90564
 1.0000e-001 90815 -2.3652e+001  1.5210e+001  1.0718e+001 48490 90538,90720,90694
 1.0000e-001 90792 -3.0743e+001 -1.1725e+001  1.9447e+001 48490 90564,90616,90590
 1.0000e-001 90769  9.8632e+000  2.1068e+000 -5.4548e-001 48490 90642,90694,90668
 1.0000e-001 90746 -3.0330e+000  1.2242e+001 -7.6934e+000 48490 90512,90720,90538
 1.0000e-001 91034  5.3827e+000 -5.6239e+000  2.4077e+000 48086 91057,90959,90933
 1.0000e-001 91011  4.8946e+000  1.3226e-001 -1.2663e+000 48086 91129,91057,90933
 1.0000e-001 91083  1.5451e+001 -3.0885e+000  2.3643e+000 48086 90985,90959,91057
 1.0000e-001 91106  5.9943e+000 -3.5664e+000 -2.0830e+000 48086 90985,91057,90907
 1.0000e-001 91155 -9.8750e-001 -2.5774e+000 -1.9877e+000 48086 90907,91057,91129
 1.0000e-001 91791 -6.1165e+001 -2.7296e+001  2.0692e-001 47518 92030,91814,91523
 1.0000e-001 91768 -4.8981e+001 -2.5034e+001 -6.4482e+000 47518 91958,91814,91471
 1.0000e-001 91745 -4.5584e+001 -1.4686e+001 -1.3800e+000 47518 91886,91575,91523
 1.0000e-001 91722 -4.8618e+001 -3.2569e+001  2.1568e+000 47518 91958,91471,91419
 1.0000e-001 91699 -7.6238e+001 -1.9219e+001 -4.8498e+000 47518 92030,91523,91497
 1.0000e-001 91676 -5.4599e+001 -1.4089e+001 -3.3225e+000 47518 91523,91575,91549
 1.0000e-001 91653 -4.6355e+001 -2.8365e+001  1.1090e+000 47518 91419,91471,91445
 1.0000e-001 91840 -4.8492e+001 -2.0482e+001 -5.5261e+000 47518 91886,91523,91814
 1.0000e-001 91863 -6.2659e+001 -4.1706e+001 -4.0774e+000 47518 91601,91814,91627
 1.0000e-001 91912 -4.1102e+001 -1.1668e+001  7.0077e+000 47518 91601,91575,91886
 1.0000e-001 91935 -4.4119e+001 -2.4192e+001  3.1294e+000 47518 91601,91886,91814
 1.0000e-001 91984 -5.9721e+001 -3.1542e+001 -3.6887e+000 47518 91627,91814,91958
 1.0000e-001 92007 -5.4573e+001 -3.5905e+001  3.5087e+000 47518 91627,91958,91419
 1.0000e-001 92056 -6.6503e+001 -3.6626e+001 -1.1652e+001 47518 91471,91814,92030
 1.0000e-001 92079 -7.8358e+001 -3.1691e+001 -1.7991e+001 47518 91471,92030,91497
 1.0000e-001 92229 -7.3777e+001 -4.9205e+001 -5.5348e+000 47128 92252,92128,92102
 1.0000e-001 92206 -6.9996e+001 -5.5127e+001 -1.0801e+001 47128 92324,92252,92102
 1.0000e-001 92278 -6.8958e+001 -5.3891e+001 -8.9371e+000 47128 92454,92252,92154
 1.0000e-001 92301 -6.6889e+001 -4.7624e+001 -9.0433e+000 47128 92154,92252,92180
 1.0000e-001 92350 -5.1734e+001 -4.0653e+001 -4.1632e+000 47128 92180,92252,92324
 1.0000e-001 92480 -5.4917e+001 -4.0669e+001 -3.4571e+000 47128 92128,92252,92454
 1.0000e-001 93340 -4.5226e+001 -1.8297e+001  3.8069e+000 46838 93363,92977,92873
 1.0000e-001 93317 -6.0100e+001 -2.4990e+001  5.5367e+000 46838 93507,93363,92873
 1.0000e-001 93294 -5.5773e+001 -4.1045e+001 -1.2484e+001 46838 93435,93003,92977
 1.0000e-001 93271 -6.4007e+001 -2.2277e+001  7.2359e+000 46838 93507,92873,92847
 1.0000e-001 93248 -4.9972e+001 -1.3979e+001 -1.2654e+001 46838 93579,93029,93003
 1.0000e-001 93225 -3.4491e+001 -2.3261e+001  1.1883e+001 46838 92873,92951,92925
 1.0000e-001 93202 -4.4029e+001 -2.8534e+001  2.9958e+000 46838 92873,92977,92951
 1.0000e-001 93179 -6.5442e+001 -4.7597e+000  1.0168e+000 46838 93055,93107,93081
 1.0000e-001 93156 -9.0251e+001 -2.5806e+001  4.9042e+000 46838 92821,93107,92847
 1.0000e-001 93133 -3.6387e+001 -1.5241e+001  7.7278e+000 46838 92873,92925,92899
 1.0000e-001 93389 -5.4830e+001 -2.4126e+001 -4.2337e+000 46838 93435,92977,93363
 1.0000e-001 93412 -5.8177e+001 -1.3025e+001 -7.3277e-002 46838 93055,93363,93107
 1.0000e-001 93461 -4.9129e+001 -1.8180e+001 -1.0199e+001 46838 93579,93003,93435
 1.0000e-001 93484 -5.6734e+001 -1.2889e+001 -4.3289e+000 46838 93055,93435,93363
 1.0000e-001 93533 -5.8117e+001 -2.0419e+001  4.4507e+000 46838 93107,93363,93507
 1.0000e-001 93556 -6.0317e+001 -1.6478e+001  4.9241e+000 46838 93107,93507,92847
 1.0000e-001 93605 -5.4676e+001 -1.7931e+001 -7.8060e+000 46838 93055,93029,93579
 1.0000e-001 93628 -5.3183e+001 -2.1388e+001 -5.4119e+000 46838 93055,93579,93435
 1.0000e-001 93979 -3.9493e+001  5.7069e+000  5.3672e-001 46476 93780,93884,93858
 1.0000e-001 93956 -3.4277e+001  4.8682e+001 -2.0557e+000 46476 93754,93884,93780
 1.0000e-001 93933 -6.0199e+001 -7.7218e-001 -4.4555e+000 46476 93806,93858,93832
 1.0000e-001 93910 -5.0910e+001 -2.6118e+000  7.9374e+000 46476 93780,93858,93806
 1.0000e-001 94515 -4.4406e+001 -2.3254e+001 -3.5055e+000 46072 94345,94397,94371
 1.0000e-001 94492 -3.6418e+001 -2.0193e+001 -1.7987e+000 46072 94267,94397,94345
 1.0000e-001 94469 -2.8828e+001 -2.6058e+000 -4.3722e+000 46072 94241,94397,94267
 1.0000e-001 94446 -3.4459e+001 -2.1344e+001 -1.4131e+000 46072 94293,94345,94319
 1.0000e-001 94423 -3.3959e+001 -1.5498e+001 -7.0307e-001 46072 94267,94345,94293
 1.0000e-001 95149 -3.1484e+001  9.4818e-001 -4.4533e+000 45346 94803,94881,94855
 1.0000e-001 95126 -3.4109e+001 -7.0636e+000 -4.2394e-001 45346 94803,94959,94881
 1.0000e-001 95103 -3.6816e+001  1.8544e+000  3.6919e+000 45346 95172,94933,94907
 1.0000e-001 95080 -3.1972e+001  1.2491e+001  1.5974e+000 45346 95172,94907,94881
 1.0000e-001 95057 -2.7817e+001 -3.1615e+000  1.2448e+000 45346 94803,94985,94959
 1.0000e-001 95034 -3.3820e+001  7.5899e+000 -1.7916e+000 45346 94803,94855,94829
 1.0000e-001 95011 -1.6272e+001  2.1831e+001 -5.7258e+000 45346 94777,94985,94803
 1.0000e-001 95198 -3.1536e+001 -3.5979e+000  2.7048e+000 45346 94959,94933,95172
 1.0000e-001 95221 -3.0591e+001  1.9214e+000  1.9557e+000 45346 94959,95172,94881
 1.0000e-001 95776 -4.2431e+001  3.4570e+000  7.2897e+000 44720 95799,95560,95534
 1.0000e-001 95753 -4.0422e+001 -8.2392e+000  8.7815e+000 44720 95799,95534,95482
 1.0000e-001 95730 -4.3242e+001  1.4106e+000  1.2784e+001 44720 95943,95871,95430
 1.0000e-001 95707 -4.2807e+001 -7.9506e-001  1.2345e+001 44720 95943,95430,95404
 1.0000e-001 95684 -3.1029e+001  7.3266e+000  7.7962e+000 44720 95430,95482,95456
 1.0000e-001 95661 -4.1154e+001 -7.4752e+000  1.1166e+001 44720 95482,95534,95508
 1.0000e-001 95638 -4.2966e+001 -5.6476e+000  1.5838e+001 44720 95404,95612,95586
 1.0000e-001 95825 -3.9631e+001  2.1911e+001  1.4619e+001 44720 95586,95560,95799
 1.0000e-001 95848 -4.6141e+001  6.7781e-001  1.1928e+001 44720 95871,95586,95799
 1.0000e-001 95897 -4.2634e+001  5.5769e-001  1.0903e+001 44720 95482,95430,95871
 1.0000e-001 95920 -4.0010e+001  4.8147e+000  8.4988e+000 44720 95482,95871,95799
 1.0000e-001 95969 -4.4331e+001 -1.5559e+000  1.3218e+001 44720 95586,95871,95943
 1.0000e-001 95992 -4.3375e+001 -2.9214e+000  1.2392e+001 44720 95586,95943,95404
 1.0000e-001 96449 -4.3272e+001 -1.1455e+001  2.5976e+000 44202 96544,96472,96227
 1.0000e-001 96426 -4.3810e+001 -1.5622e+001 -6.6845e+000 44202 96472,96175,96331
 1.0000e-001 96403 -5.5861e+001 -4.4520e+000  1.2683e+000 44202 96544,96227,96201
 1.0000e-001 96380 -3.0161e+001 -1.8793e+001  4.4668e+000 44202 96253,96305,96279
 1.0000e-001 96357 -3.3886e+001 -5.1837e+000  8.0267e+000 44202 96227,96305,96253
 1.0000e-001 96498 -4.6491e+001 -2.1061e+001  2.3766e+000 44202 96305,96227,96472
 1.0000e-001 96521 -4.7265e+001 -2.4972e+001 -4.7148e+000 44202 96305,96472,96331
 1.0000e-001 96570 -5.5237e+001 -2.2386e+001 -2.0378e+000 44202 96175,96472,96544
 1.0000e-001 96593 -6.3884e+001 -1.0536e+001 -1.4224e+000 44202 96175,96544,96201
 1.0000e-001 96971  2.5228e+000  4.0178e+000  1.7241e+000 43754 96994,96749,96697
 1.0000e-001 96948  3.1843e+000  2.3001e+000  2.8647e+000 43754 96994,96697,96853
 1.0000e-001 96925  3.9550e+000  7.6271e+000  1.2243e+000 43754 96697,96749,96723
 1.0000e-001 96902  3.4761e+000  4.1403e+000  2.6786e+000 43754 96775,96853,96827
 1.0000e-001 96879  5.0101e-001 -4.4245e-001  1.0100e+000 43754 96775,96827,96801
 1.0000e-001 97020  3.4290e+000  6.5775e+000  1.4620e+000 43754 96775,96749,96994
 1.0000e-001 97043  3.3915e+000  3.7822e+000  2.6178e+000 43754 96775,96994,96853
 1.0000e-001 97291 -3.5856e+001  7.6891e+000 -2.9667e+000 43364 97314,97144,97118
 1.0000e-001 97268 -4.2457e+001 -2.3884e+000 -7.4117e+000 43364 97314,97118,97092
 1.0000e-001 97245 -3.4738e+001 -5.3918e+000 -9.6229e+000 43364 97386,97196,97170
 1.0000e-001 97222 -3.9904e+001 -2.7187e+001 -2.1879e+001 43364 97066,97196,97092
 1.0000e-001 97340 -3.7301e+001 -7.3627e+000 -1.6718e+000 43364 97170,97144,97314
 1.0000e-001 97363 -3.4901e+001 -8.3551e+000 -7.5343e+000 43364 97386,97170,97314
 1.0000e-001 97412 -3.3270e+001 -1.6695e+000 -1.0866e+001 43364 97092,97196,97386
 1.0000e-001 97435 -3.3006e+001 -2.9255e+000 -8.4873e+000 43364 97092,97386,97314
 1.0000e-001 97788 -3.4306e+001 -1.1951e+001 -3.4716e+000 42960 97563,97667,97589
 1.0000e-001 97765 -4.8230e+001 -2.8941e+001  3.0795e+000 42960 97563,97693,97667
 1.0000e-001 97742 -5.9376e+001 -1.2814e+001 -5.9009e-001 42960 97589,97641,97615
 1.0000e-001 97719 -5.6263e+001 -1.4977e+001 -2.3844e+000 42960 97589,97667,97641
 1.0000e-001 98215 -1.1070e+001 -3.1433e+000  6.3389e+000 42563 97918,98074,98048
 1.0000e-001 98192 -3.1503e+000  1.0183e+000  7.8826e+000 42563 97892,98074,97918
 1.0000e-001 98169 -7.9302e-001 -8.6689e+000  6.9994e+000 42563 98238,97944,97918
 1.0000e-001 98146  9.0285e+000  1.3965e+001 -9.5090e-001 42563 98238,97918,98048
 1.0000e-001 98123  2.8637e+000 -1.4453e+000 -1.8435e+000 42563 97944,98022,97996
 1.0000e-001 98100  2.4822e+000 -3.4353e-001  1.4106e+000 42563 97944,97996,97970
 1.0000e-001 98264  8.4748e+000  7.3380e+000 -4.2510e+000 42563 98022,97944,98238
 1.0000e-001 98287  1.0626e+001  1.5673e+001 -1.1678e+001 42563 98022,98238,98048
 1.0000e-001 98616 -3.2053e+001 -1.2671e+001 -2.6541e+000 42251 98443,98521,98469
 1.0000e-001 98593 -3.4199e+001 -1.1721e+001 -1.1526e+000 42251 98417,98521,98443
 1.0000e-001 98570 -3.6298e+001 -1.6754e+001 -2.2758e+000 42251 98391,98521,98417
 1.0000e-001 98547 -4.8691e+001 -2.5702e+001  7.9889e+000 42251 98469,98521,98495
 1.0000e-001 98886 -6.0389e+001  1.2112e+000 -9.1680e+000 41847 98661,98765,98687
 1.0000e-001 98863 -8.8659e+001 -3.6228e+001  1.1983e+001 41847 98661,98791,98765
 1.0000e-001 98840 -2.8293e+001  7.4473e+000  4.4799e+000 41847 98687,98765,98739
 1.0000e-001 98817 -6.0949e+001 -7.7630e+000  8.4450e+000 41847 98687,98739,98713
 1.0000e-001 99394 -3.2103e+001  9.3320e+000  1.3808e+001 41236 99417,99149,99123
 1.0000e-001 99371 -4.3390e+001 -4.0079e+000  5.3224e+000 41236 99417,99123,99097
 1.0000e-001 99348 -3.9733e+001 -7.4880e+000  6.6376e+000 41236 99489,99201,99149
 1.0000e-001 99325 -5.0420e+001 -1.2622e+001  5.0872e+000 41236 99149,99201,99175
 1.0000e-001 99302 -6.5404e+001 -1.1973e+001 -1.2438e+000 41236 99097,99253,99227
 1.0000e-001 99279 -9.1270e+001 -3.2918e+001 -1.1084e+001 41236 99071,99253,99097
 1.0000e-001 99443 -4.1602e+001 -5.8647e+000  6.5491e+000 41236 99489,99149,99417
 1.0000e-001 99466 -4.0916e+001 -1.0547e+001  6.1060e-001 41236 99227,99417,99097
 1.0000e-001 99515 -3.9469e+001 -5.8531e+000  5.6423e+000 41236 99227,99201,99489
 1.0000e-001 99538 -3.9914e+001 -2.9775e+000  5.1386e+000 41236 99227,99489,99417
 1.0000e-001 100044 -2.8008e+001 -1.4945e+001  1.1574e+001 40732 99721,99773,99747
 1.0000e-001 100021 -4.2274e+001 -1.5507e+001  4.4057e+000 40732 99721,99799,99773
 1.0000e-001 99998 -3.8425e+001 -1.4745e+001  2.5553e+000 40732 99721,99903,99799
 1.0000e-001 99975 -4.5992e+001 -1.4361e+001 -3.1604e+000 40732 100067,99877,99851
 1.0000e-001 99952 -4.4878e+001 -2.2421e+001 -4.6354e+000 40732 100067,99851,99799
 1.0000e-001 99929 -6.1979e+001 -1.4216e+001 -2.4293e+001 40732 99799,99851,99825
 1.0000e-001 100093 -4.6093e+001 -8.0192e+000 -4.1524e-001 40732 99903,99877,100067
 1.0000e-001 100116 -4.5561e+001 -1.7623e+001 -1.2900e+000 40732 99903,100067,99799
 1.0000e-001 100622 -3.4477e+001  9.7531e+000 -1.3994e+000 40278 100645,100455,100429
 1.0000e-001 100599 -3.1062e+001 -1.3150e+000  2.5112e+000 40278 100717,100645,100429
 1.0000e-001 100576 -3.5774e+001 -3.3247e+000 -3.4152e+000 40278 100717,100429,100377
 1.0000e-001 100553 -3.4278e+001  5.3045e+000  7.2631e+000 40278 100789,100325,100481
 1.0000e-001 100530 -2.9222e+001  1.3619e+001  1.0537e+001 40278 100299,100481,100325
 1.0000e-001 100507 -3.2016e+001  8.5251e+000  2.2102e+000 40278 100377,100429,100403
 1.0000e-001 100671 -3.4023e+001  3.3385e+001  6.2877e+000 40278 100481,100455,100645
 1.0000e-001 100694 -4.0468e+001  6.8193e+000  2.0905e+000 40278 100789,100481,100645
 1.0000e-001 100743 -3.5196e+001 -6.9947e+000 -4.5033e+000 40278 100351,100645,100717
 1.0000e-001 100766 -4.4406e+001 -9.7982e+000 -1.0427e+001 40278 100351,100717,100377
 1.0000e-001 100815 -2.6449e+001  8.6041e+000  8.4165e+000 40278 100351,100325,100789
 1.0000e-001 100838 -3.0937e+001  1.0285e+001  2.3930e+000 40278 100351,100789,100645
 1.0000e-001 101265 -4.6986e+001 -6.5672e+000  2.9914e+000 39824 101288,101046,100994
 1.0000e-001 101242 -5.3678e+001 -1.4910e+001 -5.8253e-002 39824 101288,100994,100968
 1.0000e-001 101219 -5.0732e+001 -1.9808e+001  2.1387e+000 39824 100942,101124,100968
 1.0000e-001 101196 -4.8319e+001 -1.3195e+001  1.0355e+001 39824 101046,101124,101072
 1.0000e-001 101173 -4.9639e+001 -1.2109e+001 -4.8019e+000 39824 100994,101046,101020
 1.0000e-001 101150 -4.4416e+001 -1.5665e+001  1.1646e+001 39824 101072,101124,101098
 1.0000e-001 101314 -4.3898e+001 -1.1171e+001  6.5601e+000 39824 101124,101046,101288
 1.0000e-001 101337 -4.6790e+001 -1.3684e+001  4.9316e+000 39824 101124,101288,100968
 1.0000e-001 101585  1.2209e+001 -3.6899e-001  5.6096e+000 39070 101608,101464,101412
 1.0000e-001 101562 -9.6968e+000  2.8852e+000 -1.0963e+001 39070 101608,101412,101360
 1.0000e-001 101539  1.6007e+001 -1.4166e+000  3.6771e+000 39070 101412,101464,101438
 1.0000e-001 101516 -7.6166e-001  4.8606e+000 -1.5941e+001 39070 101360,101412,101386
 1.0000e-001 101634  2.8742e+001  2.9844e+000  9.8555e+000 39070 101490,101464,101608
 1.0000e-001 101657  1.2918e+001  7.6677e+000 -8.6989e+000 39070 101490,101608,101360
 1.0000e-001 101856 -8.2883e+000  1.0054e+001 -4.8359e-001 38730 101706,101758,101732
 1.0000e-001 101833 -2.9422e+000  2.8918e+001 -7.5266e+000 38730 101706,101784,101758
 1.0000e-001 101810  2.8293e+001  2.1411e+001 -2.7881e+001 38730 101680,101784,101706
 1.0000e-001 102106 -3.7632e+001 -5.3949e+000 -1.6845e+000 38326 101881,101959,101907
 1.0000e-001 102083 -4.3002e+001 -8.1535e+000  4.7133e+000 38326 101881,101985,101959
 1.0000e-001 102060 -3.0880e+001 -6.4849e+000  4.7985e+000 38326 101881,102011,101985
 1.0000e-001 102037 -5.2004e+001 -8.0137e+000 -1.7729e+000 38326 101907,101959,101933
 1.0000e-001 102258 -1.2465e+001  8.2234e+000 -3.3499e+000 38036 102281,102157,102131
 1.0000e-001 102235  8.4817e+000  4.8203e+000 -6.4421e-001 38036 102281,102131,102209
 1.0000e-001 102307  8.3803e+000  5.7647e+000  4.1600e-001 38036 102183,102157,102281
 1.0000e-001 102330  3.6850e+001  9.2531e+000  5.5283e+000 38036 102183,102281,102209
 1.0000e-001 102663 -2.8068e+001  1.6327e+000  8.6894e+000 37596 102438,102542,102464
 1.0000e-001 102640 -3.0217e+001  3.7990e-002  7.1075e+000 37596 102438,102568,102542
 1.0000e-001 102617 -2.9314e+001  1.7261e+001  1.0593e+001 37596 102490,102542,102516
 1.0000e-001 102594 -3.1271e+001  3.5621e+000  7.6191e+000 37596 102464,102542,102490
 1.0000e-001 102862 -4.3061e+001  2.8794e-001  3.8371e-001 37192 102686,102764,102712
 1.0000e-001 102839 -4.5749e+001  1.3840e+000  5.0220e+000 37192 102686,102790,102764
 1.0000e-001 102816 -4.2668e+001 -5.0881e+000  2.8483e+000 37192 102712,102764,102738
 1.0000e-001 103110 -5.3036e+001 -9.9805e+000  2.7862e-002 36609 102911,102963,102937
 1.0000e-001 103087 -3.8355e+001 -4.2983e+000 -1.1889e+000 36609 102911,102989,102963
 1.0000e-001 103064 -4.0427e+001 -5.6422e+000 -1.7676e+000 36609 102885,102989,102911
 1.0000e-001 103041 -5.8391e+001 -7.9158e+000 -2.3043e+000 36609 102885,103015,102989
 1.0000e-001 103718 -2.1474e+001 -8.8972e+000  7.0876e+000 36131 103323,103375,103349
 1.0000e-001 103695 -4.4318e+001 -6.2544e+000  8.0124e+000 36131 103297,103375,103323
 1.0000e-001 103672 -4.5782e+001 -1.8735e+001 -1.8889e+000 36131 103297,103505,103375
 1.0000e-001 103649 -4.3274e+001 -1.0726e+001 -3.6094e+000 36131 103741,103479,103401
 1.0000e-001 103626 -4.8217e+001 -2.2015e+001 -9.2675e+000 36131 103741,103401,103375
 1.0000e-001 103603 -4.1079e+001 -4.7930e+000 -2.5083e+000 36131 103401,103479,103427
 1.0000e-001 103580 -7.0467e+001 -1.2773e+001 -1.4230e+001 36131 103297,103531,103505
 1.0000e-001 103557 -3.0592e+001  1.5580e+001 -8.2787e+000 36131 103427,103479,103453
 1.0000e-001 103767 -3.9737e+001 -1.3217e+000  4.6259e+000 36131 103505,103479,103741
 1.0000e-001 103790 -4.5087e+001 -1.1760e+001 -1.2743e+000 36131 103505,103741,103375
 1.0000e-001 103989 -3.8934e+001  2.1522e+000 -1.9547e+000 35791 103839,103917,103891
 1.0000e-001 103966 -3.1550e+001  7.4986e-001 -8.8737e-001 35791 103813,103917,103839
 1.0000e-001 103943 -4.4425e+001  9.5481e+000 -7.7910e+000 35791 103839,103891,103865
 1.0000e-001 104188  2.3663e+001 -1.0610e+000 -9.0028e+000 35444 104038,104090,104064
 1.0000e-001 104165  2.0659e+001  8.9127e+000  9.3757e+000 35444 104038,104116,104090
 1.0000e-001 104142  3.8631e+000  1.0283e+000  3.7690e+000 35444 104012,104116,104038
 1.0000e-001 104487 -4.0330e+001  1.1984e+000  1.1494e+000 34990 104265,104317,104291
 1.0000e-001 104464 -3.6083e+001  5.8904e+000 -2.9982e+000 34990 104510,104317,104265
 1.0000e-001 104441 -2.6873e+001 -5.7935e-001 -4.2933e+000 34990 104510,104265,104213
 1.0000e-001 104418 -4.0657e+001  1.4282e+000  2.0730e+000 34990 104582,104343,104317
 1.0000e-001 104395 -2.2910e+001  1.0982e+001  4.1386e+000 34990 104213,104265,104239
 1.0000e-001 104536 -4.0954e+001  1.1955e+000 -5.9408e-001 34990 104582,104317,104510
 1.0000e-001 104559 -3.2223e+001 -5.1350e+000 -2.2720e+000 34990 104369,104510,104213
 1.0000e-001 104608 -3.4463e+001  1.8893e+000  2.5439e+000 34990 104369,104343,104582
 1.0000e-001 104631 -3.6080e+001  3.2794e+000 -1.5103e+000 34990 104369,104582,104510
 1.0000e-001 104783 -2.4415e+001 -1.0400e+001 -3.6785e+000 34700 104938,104806,104682
 1.0000e-001 104760 -2.7866e+001 -2.7674e+001 -9.6385e-002 34700 104938,104682,104656
 1.0000e-001 104832 -1.3463e+001  8.4258e+000  2.6889e+000 34700 104708,104682,104806
 1.0000e-001 104964 -3.0506e+001 -7.2396e+000  1.0569e+001 34700 104734,104806,104938
 1.0000e-001 104987 -3.2787e+001 -2.0928e+001  1.4320e+001 34700 104734,104938,104656
 1.0000e-001 105137 -4.1941e+000  4.5033e-001 -7.0870e-001 34388 105036,105088,105062
 1.0000e-001 105114 -4.8911e+000 -4.2394e-001 -1.0195e+000 34388 105010,105088,105036
 1.0000e-001 105385 -4.2356e+001 -2.3800e+000  2.6821e+000 33734 105408,105186,105160
 1.0000e-001 105362 -4.2032e+001 -2.6001e+000  2.3857e+000 33734 105408,105160,105264
 1.0000e-001 105339 -4.1872e+001  1.3016e+000  9.4092e-001 33734 105160,105290,105264
 1.0000e-001 105316 -4.1001e+001 -6.0520e+000  1.0760e+001 33734 105186,105238,105212
 1.0000e-001 105434 -4.2015e+001 -2.3875e+000  2.6125e+000 33734 105238,105186,105408
 1.0000e-001 105457 -4.1190e+001 -2.2525e+000  2.2720e+000 33734 105238,105408,105264
 1.0000e-001 105609 -2.4420e+000 -7.0072e-001 -8.9185e-001 33394 105482,105534,105508
 1.0000e-001 105586  2.4707e+001  2.0077e+000  2.9526e+000 33394 105482,105560,105534
 1.0000e-001 105859 -3.4983e+001 -3.6338e+000 -6.1625e+000 33047 105882,105712,105660
 1.0000e-001 105836 -4.3606e+001  2.7389e-002  3.6209e+000 33047 105882,105660,105634
 1.0000e-001 105813 -1.7065e+001 -3.6928e+000  7.2875e-001 33047 105660,105712,105686
 1.0000e-001 105790 -3.5858e+001  7.5890e+000 -2.2170e+000 33047 105634,105764,105738
 1.0000e-001 105908 -1.5883e+001  1.2919e+001 -1.3770e+001 33047 105738,105712,105882
 1.0000e-001 105931 -3.6458e+001  3.6626e+000 -8.1384e-001 33047 105738,105882,105634
 1.0000e-001 106181 -4.0562e+001 -1.1853e+001  3.0985e+000 32543 106204,106060,106008
 1.0000e-001 106158 -3.2738e+001 -1.3265e+001  4.2593e+000 32543 105956,106086,106060
 1.0000e-001 106135 -3.9969e+001 -9.6476e+000  4.0338e+000 32543 106204,106008,105982
 1.0000e-001 106112 -3.5947e+001 -1.2889e+001  4.1559e+000 32543 106008,106060,106034
 1.0000e-001 106230 -4.0640e+001 -1.2732e+001  1.9741e+000 32543 105956,106060,106204
 1.0000e-001 106253 -4.0656e+001 -1.0901e+001  2.7667e+000 32543 105956,106204,105982
 1.0000e-001 106454 -8.3973e+000  1.5152e+001 -5.3931e+000 31839 106304,106356,106330
 1.0000e-001 106431 -2.3415e+001  9.6169e+000 -4.5472e+000 31839 106278,106356,106304
 1.0000e-001 106408 -1.5721e+001  1.2626e+001 -6.4705e+000 31839 106278,106382,106356
 1.0000e-001 106704 -4.0209e+001 -4.9294e+000 -5.7611e-001 31534 106505,106583,106557
 1.0000e-001 106681 -3.7401e+001 -2.3550e+000  1.2559e+000 31534 106479,106583,106505
 1.0000e-001 106658 -3.9503e+001 -9.0337e+000  6.5598e-001 31534 106505,106557,106531
 1.0000e-001 106635 -3.7659e+001 -2.3032e+000  9.6954e-001 31534 106479,106609,106583
 1.0000e-001 107108 -4.6840e+001 -1.1750e+000 -6.5177e+000 31030 106886,106990,106964
 1.0000e-001 107085 -4.1056e+001 -1.5875e+001 -2.7917e+000 31030 106860,106990,106886
 1.0000e-001 107062 -4.0917e+001 -1.3401e+001  8.0599e-001 31030 106834,106990,106860
 1.0000e-001 107039 -5.8608e+001  8.1828e+000  3.5536e+000 31030 106912,106964,106938
 1.0000e-001 107016 -7.7193e+001 -1.4676e+001 -8.9887e+000 31030 106886,106964,106912
 1.0000e-001 107307 -1.0546e+001  4.9889e+000  2.5232e+000 30718 107330,107157,107131
 1.0000e-001 107284 -4.3875e+000  4.6864e-001  1.2036e+000 30718 107330,107131,107235
 1.0000e-001 107261 -5.9075e-001  2.2769e+000  3.4390e-001 30718 107183,107235,107209
 1.0000e-001 107356 -5.1331e+000  7.9202e+000  4.4360e+000 30718 107183,107157,107330
 1.0000e-001 107379  2.2510e-001  2.5226e+000  2.6180e+000 30718 107183,107330,107235
 1.0000e-001 107759  1.7581e+001  1.8690e+000  3.1837e+000 30264 107782,107615,107537
 1.0000e-001 107736  1.5712e+001 -1.9841e+000 -2.9696e+000 30264 107782,107537,107485
 1.0000e-001 107713 -2.2469e+000 -1.8260e-001 -3.0092e-002 30264 107485,107537,107511
 1.0000e-001 107690  3.6283e+001 -2.5156e+001 -7.0439e+000 30264 107537,107615,107589
 1.0000e-001 107667  4.9414e+001  5.2771e+000  9.3157e+000 30264 107537,107589,107563
 1.0000e-001 107808  2.5115e+001  3.2364e+000  7.3869e+000 30264 107641,107615,107782
 1.0000e-001 107831  1.9824e+001 -2.7071e+000  1.0864e+000 30264 107641,107782,107485
 1.0000e-001 108030 -4.1295e+001  1.3780e+000  4.5750e+000 29874 108053,107854,107932
 1.0000e-001 108007 -2.8897e+001  5.0437e-001  6.6599e+000 29874 107854,107958,107932
 1.0000e-001 107984 -5.2705e+001 -1.6245e+000  5.0337e+000 29874 108053,107932,107906
 1.0000e-001 108079 -3.6285e+001 -1.9494e+000  1.1643e+000 29874 107880,107854,108053
 1.0000e-001 108102 -4.2175e+001 -1.2167e+000  1.9269e+000 29874 107880,108053,107906
 1.0000e-001 108433 -1.9549e+001 -3.7612e+000 -4.3763e+000 29484 108234,108338,108312
 1.0000e-001 108410 -3.1162e+001 -6.3660e-001  8.8044e+000 29484 108208,108338,108234
 1.0000e-001 108387 -3.1469e+001 -9.4504e+000 -2.4334e+000 29484 108234,108312,108260
 1.0000e-001 108364 -2.3479e+001 -8.5477e+000 -8.5838e-001 29484 108260,108312,108286
 1.0000e-001 108762 -2.7829e+001  1.7548e+001  5.3777e+000 29080 108563,108641,108589
 1.0000e-001 108739 -3.6127e+001 -4.0344e+000  4.9098e+000 29080 108537,108641,108563
 1.0000e-001 108716 -3.8100e+001  1.8488e+001  1.2601e+001 29080 108589,108641,108615
 1.0000e-001 108693 -2.3699e+001  7.0610e-001  3.1171e+000 29080 108537,108667,108641
 1.0000e-001 109189 -3.7032e+001 -1.0650e+001  1.5080e+000 28476 108892,108996,108970
 1.0000e-001 109166 -4.3703e+001 -1.2252e+001  2.4527e+000 28476 108892,109022,108996
 1.0000e-001 109143 -3.7732e+001 -1.2533e+001  1.7548e+000 28476 108892,108970,108944
 1.0000e-001 109120 -4.9724e+001 -9.0350e+000  5.3547e+000 28476 108892,109048,109022
 1.0000e-001 109097 -3.6729e+001 -1.4491e+001  4.3771e+000 28476 108892,108944,108918
 1.0000e-001 109074 -5.4308e+001  2.1389e+000  8.1516e-001 28476 108866,109048,108892
 1.0000e-001 109518 -2.0327e+001  1.9127e+001  1.1176e+000 28022 109541,109371,109345
 1.0000e-001 109495 -1.8800e+001  1.3305e+001  4.8075e+000 28022 109541,109345,109319
 1.0000e-001 109472 -3.5880e+001 -5.0131e-001 -2.2820e+000 28022 109293,109397,109319
 1.0000e-001 109449 -3.5096e+001 -1.1923e+000 -9.6108e-001 28022 109293,109423,109397
 1.0000e-001 109567 -2.7841e+001  1.5042e+001  4.7138e+000 28022 109397,109371,109541
 1.0000e-001 109590 -2.0615e+001  1.0207e+001  6.9190e+000 28022 109397,109541,109319
 1.0000e-001 109968 -3.2650e+001 -1.5229e+001 -6.7995e+000 27568 109798,109850,109824
 1.0000e-001 109945 -2.8181e+001 -1.8850e+001 -1.4783e+000 27568 109694,109850,109798
 1.0000e-001 109922 -9.2861e+000 -7.0125e+000 -7.1599e+000 27568 109694,109798,109746
 1.0000e-001 109899 -8.6510e+000  1.1916e-001  3.7007e+001 27568 109746,109798,109772
 1.0000e-001 109876  1.6665e+001  4.2048e+001  4.7422e+000 27568 109694,109746,109720
 1.0000e-001 110167 -3.5005e+001 -5.9897e+000 -5.7257e-001 27007 110017,110095,110069
 1.0000e-001 110144 -3.1718e+001 -5.2389e+000  1.7085e+000 27007 109991,110095,110017
 1.0000e-001 110121 -4.1578e+001 -1.0574e+001 -3.3761e+000 27007 110017,110069,110043
 1.0000e-001 110415 -2.3452e+001  5.7114e+000 -2.5354e+000 26567 110438,110242,110190
 1.0000e-001 110392 -3.0346e+001  2.6029e-001 -1.7359e-001 26567 110438,110190,110320
 1.0000e-001 110369 -3.0223e+001  7.4539e+000 -5.5256e+000 26567 110242,110294,110268
 1.0000e-001 110346 -2.5094e+001  6.5695e-001 -4.7247e+000 26567 110190,110242,110216
 1.0000e-001 110464 -2.6916e+001  8.0687e+000 -5.4424e+000 26567 110294,110242,110438
 1.0000e-001 110487 -3.0269e+001  5.7075e+000 -4.2138e+000 26567 110294,110438,110320
 1.0000e-001 110639 -3.1609e+001  6.6803e+000 -3.4148e+000 26170 110538,110590,110564
 1.0000e-001 110616 -2.7928e+001 -4.5658e+000 -1.0740e-001 26170 110512,110590,110538
 1.0000e-001 111149  1.9802e+001  2.7478e+001  2.8875e-001 25716 111172,110878,110852
 1.0000e-001 111126  3.5237e+000  5.1369e+001 -1.1037e+001 25716 111172,110852,111008
 1.0000e-001 111103 -1.6493e+001  9.9334e+000  5.0268e+000 25716 110878,110930,110904
 1.0000e-001 111080 -2.3922e+000  4.6761e+001 -1.4500e+001 25716 110826,111008,110852
 1.0000e-001 111057 -6.8002e+000  3.7012e+001 -2.8666e+000 25716 110930,111008,110956
 1.0000e-001 111034  3.3097e+001  9.5682e+001 -4.1952e+001 25716 110956,111008,110982
 1.0000e-001 111198  1.3841e+001  1.0936e+001 -2.6720e+000 25716 110930,110878,111172
 1.0000e-001 111221 -6.4040e+000  2.9533e+001 -1.6245e+001 25716 110930,111172,111008
 1.0000e-001 111420 -3.2874e+000  2.5842e+001 -4.1046e+000 25304 111443,111270,111244
 1.0000e-001 111397 -7.2877e+000  6.3963e+001 -6.7427e+000 25304 111443,111244,111348
 1.0000e-001 111374 -6.0842e+000 -1.0595e-001  4.9779e+000 25304 111270,111322,111296
 1.0000e-001 111469 -1.0615e+000 -3.0872e+000 -4.2999e+000 25304 111322,111270,111443
 1.0000e-001 111492 -1.0123e+001  2.8085e+001 -1.0075e+001 25304 111322,111443,111348
 1.0000e-001 111691 -4.8674e+001 -1.2878e+001 -5.9921e+000 24736 111567,111619,111593
 1.0000e-001 111668 -3.9651e+001 -5.0109e+000  1.6561e+000 24736 111541,111619,111567
 1.0000e-001 111645 -4.7241e+001 -3.1609e+000  3.5594e+000 24736 111515,111619,111541
 1.0000e-001 112024 -9.0684e+000 -2.5655e+000  3.0643e+000 24146 111825,111877,111851
 1.0000e-001 112001  9.8437e-001  9.5492e+000  8.9320e+000 24146 111825,111903,111877
 1.0000e-001 111978  1.6856e+001 -1.0561e+001  1.5301e+000 24146 111825,111929,111903
 1.0000e-001 111955 -9.5262e+000 -2.3769e+001 -3.3018e+000 24146 111799,111929,111825
 1.0000e-001 112370 -4.0831e+001 -1.4421e+001  2.2280e+000 23856 112393,112151,112125
 1.0000e-001 112347 -3.9967e+001 -7.0063e+000  8.4861e-001 23856 112465,112393,112125
 1.0000e-001 112324 -3.8218e+001 -5.5481e+000 -9.5241e-001 23856 112465,112125,112073
 1.0000e-001 112301 -4.2892e+001  9.1842e-001 -6.7174e-001 23856 112073,112125,112099
 1.0000e-001 112278 -2.9208e+001  2.3757e+000 -3.0297e+000 23856 112047,112229,112073
 1.0000e-001 112255 -3.1553e+001 -1.8639e+000 -9.2900e+000 23856 112151,112203,112177
 1.0000e-001 112419 -3.9385e+001 -9.2594e+000 -3.2549e+000 23856 112203,112151,112393
 1.0000e-001 112442 -4.0446e+001 -6.1331e+000 -2.5048e+000 23856 112203,112393,112229
 1.0000e-001 112491 -3.7004e+001 -7.1730e+000 -3.1949e+000 23856 112229,112393,112465
 1.0000e-001 112514 -3.4452e+001 -3.1305e+000 -5.2834e+000 23856 112229,112465,112073
 1.0000e-001 112784 -4.8600e+001  8.3497e+000 -6.0246e+000 23494 112611,112663,112637
 1.0000e-001 112761 -3.9681e+001 -3.8245e+000 -3.7991e+000 23494 112585,112663,112611
 1.0000e-001 112738 -4.6829e+001 -6.7230e+000  2.2525e+000 23494 112559,112663,112585
 1.0000e-001 112715 -3.7855e+001  1.7956e+001  2.7336e+000 23494 112559,112689,112663
 1.0000e-001 113117 -2.4159e+001  7.1155e+000 -6.7779e+000 22974 112944,113022,112996
 1.0000e-001 113094 -2.4834e+001 -6.8060e+000 -1.1521e+000 22974 112918,113022,112944
 1.0000e-001 113071 -2.8835e+001 -8.9574e+000 -1.1440e+001 22974 112944,112996,112970
 1.0000e-001 113048 -1.0849e+001  3.1842e+001 -3.8260e+000 22974 112892,113022,112918
 1.0000e-001 113414 -3.5505e+001 -1.8722e-001  1.2810e+000 22370 113192,113296,113218
 1.0000e-001 113391 -4.0737e+001 -8.5206e+000 -1.4210e+000 22370 113140,113296,113192
 1.0000e-001 113368 -3.5588e+001  9.0684e-001  6.7591e+000 22370 113218,113296,113270
 1.0000e-001 113345 -3.0781e+001  7.6587e-001  1.1708e+001 22370 113218,113270,113244
 1.0000e-001 113322 -2.8271e+001  1.2130e+001 -1.1055e+001 22370 113140,113192,113166
 1.0000e-001 113662 -3.5141e+001  2.4562e+000 -1.1941e+000 21916 113685,113515,113489
 1.0000e-001 113639 -3.6443e+001  6.4880e+000 -9.7972e-001 21916 113685,113489,113437
 1.0000e-001 113616 -2.9845e+001  6.6227e+000  2.9241e-001 21916 113757,113567,113541
 1.0000e-001 113593 -3.6842e+001  7.5150e+000 -6.7156e+000 21916 113437,113489,113463
 1.0000e-001 113711 -3.3746e+001  6.9093e+000 -1.9392e+000 21916 113541,113515,113685
 1.0000e-001 113734 -3.3429e+001  7.4341e+000 -4.5036e-001 21916 113757,113541,113685
 1.0000e-001 113783 -3.3908e+001  4.1865e+000 -7.8154e-001 21916 113437,113567,113757
 1.0000e-001 113806 -3.5750e+001  5.8233e+000 -1.4687e+000 21916 113437,113757,113685
 1.0000e-001 114056 -2.5822e+001  1.2373e+001  5.2137e-001 21412 113857,113909,113883
 1.0000e-001 114033 -2.6275e+001  1.1081e+001  5.6683e-001 21412 114079,113909,113857
 1.0000e-001 114010 -2.5605e+001  1.1577e+001  2.0729e-001 21412 114079,113857,113961
 1.0000e-001 113987 -2.2403e+001  9.2742e+000 -7.9098e-001 21412 113831,113961,113857
 1.0000e-001 114105 -2.5695e+001  1.0383e+001  9.3206e-001 21412 113935,113909,114079
 1.0000e-001 114128 -2.5211e+001  1.0926e+001  6.3090e-001 21412 113935,114079,113961
 1.0000e-001 114378 -4.1103e+001 -1.2290e+001 -8.3072e-002 21022 114401,114257,114205
 1.0000e-001 114355 -4.3407e+001 -1.2974e+001 -3.4064e+000 21022 114401,114205,114179
 1.0000e-001 114332 -2.8780e+001 -1.2707e+001 -2.4388e+000 21022 114153,114283,114179
 1.0000e-001 114309 -5.4090e+001 -6.3653e+000  2.1582e+000 21022 114205,114257,114231
 1.0000e-001 114427 -3.6400e+001 -1.1276e+001  1.6490e+000 21022 114283,114257,114401
 1.0000e-001 114450 -3.9847e+001 -1.2346e+001 -1.5672e+000 21022 114283,114401,114179
 1.0000e-001 114651  2.8656e+000  5.0866e+000 -4.6090e+000 20618 114501,114553,114527
 1.0000e-001 114628  2.5559e+001  2.7776e+000  1.2641e+001 20618 114501,114579,114553
 1.0000e-001 114605  2.2301e+001  2.4595e+001  1.8916e+001 20618 114475,114579,114501
 1.0000e-001 114901 -2.3057e+001  1.9569e+001  4.0927e+000 20114 114676,114780,114702
 1.0000e-001 114878 -1.4890e+001  3.0286e+001 -5.6826e+000 20114 114676,114806,114780
 1.0000e-001 114855 -2.0935e+001  4.1999e+000 -1.6137e+000 20114 114702,114780,114754
 1.0000e-001 114832 -2.1511e+001  2.2134e+001 -1.8910e+001 20114 114702,114754,114728
 1.0000e-001 115053 -2.9101e+001  1.6714e+001  3.0894e+000 19460 115147,115076,114926
 1.0000e-001 115030 -3.2570e+001  2.1019e+001  1.9402e+000 19460 115147,114926,115004
 1.0000e-001 115102 -3.2536e+001  8.6128e+000  3.9247e+000 19460 114952,114926,115076
 1.0000e-001 115173 -3.1924e+001  1.0275e+001  1.8958e+000 19460 114978,115076,115147
 1.0000e-001 115196 -3.5088e+001  1.5331e+001  4.7356e-001 19460 114978,115147,115004
 1.0000e-001 115446 -7.2416e+000 -6.1889e-001 -9.4841e-001 19006 115273,115351,115299
 1.0000e-001 115423  4.8374e+000  2.0518e+000  1.1878e-001 19006 115247,115351,115273
 1.0000e-001 115400  1.6109e+001  4.5425e+000 -1.7696e+001 19006 115221,115351,115247
 1.0000e-001 115377 -5.9210e+000 -1.4185e+000 -2.4123e+000 19006 115299,115351,115325
 1.0000e-001 115767 -2.7763e+001 -2.9910e+000 -2.6548e+000 18716 115571,115649,115623
 1.0000e-001 115744 -2.7904e+001  2.6773e+000 -4.6880e+000 18716 115493,115649,115571
 1.0000e-001 115721 -3.2687e+001  2.4401e+000 -2.0886e+000 18716 115493,115571,115545
 1.0000e-001 115698 -3.1689e+001  9.9003e+000 -7.0765e+000 18716 115493,115545,115519
 1.0000e-001 115675 -2.1356e+001  8.2486e-001  1.1453e-001 18716 115571,115623,115597
 1.0000e-001 116039 -3.9064e+001  5.0436e+000  1.4187e+000 18312 115814,115892,115840
 1.0000e-001 116016 -3.7659e+001  8.3608e+000  1.4098e+000 18312 115814,115944,115892
 1.0000e-001 115993 -4.0511e+001  8.5513e+000  6.7126e-001 18312 115892,115944,115918
 1.0000e-001 115970 -2.1985e+001  1.3024e+001 -7.1695e-001 18312 115840,115892,115866
 1.0000e-001 116191  1.5825e+000  6.1176e+000 -2.5840e+000 18000 116090,116142,116116
 1.0000e-001 116168  1.5592e+001  2.8076e+001  3.4791e+000 18000 116064,116142,116090
 1.0000e-001 116343 -4.3997e+001  5.7347e+000 -1.1435e+000 17396 116242,116294,116268
 1.0000e-001 116320 -4.4713e+001  1.9490e+001  5.1520e+000 17396 116216,116294,116242
 1.0000e-001 116566 -3.0120e+001  1.3060e+001  2.9327e+000 16942 116390,116468,116442
 1.0000e-001 116543 -5.7270e+001  2.1781e+001  3.9081e+000 16942 116390,116494,116468
 1.0000e-001 116520 -3.3187e+001  5.9021e+000  1.0854e+000 16942 116390,116442,116416
 1.0000e-001 116767 -2.7369e+001  5.0591e+000 -1.0061e+000 16438 116790,116643,116617
 1.0000e-001 116744 -3.4370e+001  8.4201e+000 -1.7113e+000 16438 116790,116617,116591
 1.0000e-001 116721 -2.7618e+001  7.0198e+000 -9.1260e-002 16438 116643,116695,116669
 1.0000e-001 116816 -2.5716e+001  7.5572e+000 -2.1075e+000 16438 116695,116643,116790
 1.0000e-001 116839 -2.8083e+001  1.2831e+001 -4.2573e+000 16438 116695,116790,116591
 1.0000e-001 117062 -2.1649e+001 -1.3414e+001 -3.2584e+000 16074 116886,116938,116912
 1.0000e-001 117039  1.5757e+001 -4.9511e+000  4.3573e+000 16074 116886,116990,116938
 1.0000e-001 117016  2.5817e+001  6.6113e+000  8.8505e+000 16074 116938,116990,116964
 1.0000e-001 117214 -4.8778e+001 -2.3891e+001 -3.4759e+000 15649 117087,117139,117113
 1.0000e-001 117191 -5.5856e+001 -2.8309e+001  2.5290e-001 15649 117087,117165,117139
 1.0000e-001 117317  1.5412e+001  1.2435e+001  1.7333e+001 421 117239,117291,117265
 2.0000e-001 70632 -4.1116e+001  6.7822e+001  1.5492e+001 70072 70482,70534,70508
 2.0000e-001 70609 -6.1382e+001  3.1066e+001  7.5647e+000 70072 70482,70560,70534
 2.0000e-001 70586 -1.8991e+002 -2.5068e+001  1.4637e+001 70072 70456,70560,70482
 2.0000e-001 70951 -1.3771e+002  5.8603e+001  0.0000e+000 69874 70703,70755,70729
 2.0000e-001 70928 -1.4423e+002  5.8037e+001  1.7747e+001 69874 70703,70781,70755
 2.0000e-001 70905 -1.5032e+002  4.5735e+000  1.4626e+001 69874 70703,70807,70781
 2.0000e-001 70882 -1.4221e+002  2.4889e+001  1.1596e+001 69874 70703,70833,70807
 2.0000e-001 70859  7.9899e+000  8.8762e+001  7.3232e+000 69874 70677,70833,70703
 2.0000e-001 71199 -7.7019e+001 -2.9334e+001  2.1741e+000 69698 71222,71052,71026
 2.0000e-001 71176 -6.8957e+001  7.2634e-001  8.1745e+000 69698 71294,71222,71026
 2.0000e-001 71153 -7.5419e+001 -9.1451e+000  3.0499e-001 69698 71294,71026,71000
 2.0000e-001 71130 -1.2942e+002  7.9697e+000 -5.6403e-001 69698 71366,71104,71078
 2.0000e-001 71248 -6.4718e+001  1.3756e+000  4.7915e-001 69698 71078,71052,71222
 2.0000e-001 71271 -8.9016e+001 -3.8078e-001  1.2990e+001 69698 71366,71078,71222
 2.0000e-001 71320 -5.7893e+001 -6.8658e-001  1.7438e+001 69698 70974,71222,71294
 2.0000e-001 71343 -5.7804e+001 -8.3066e-001  1.0824e+001 69698 70974,71294,71000
 2.0000e-001 71392 -8.3637e+001  4.3414e+001  1.5095e+001 69698 70974,71104,71366
 2.0000e-001 71415 -6.5096e+001  2.1287e+001  2.4717e+001 69698 70974,71366,71222
 2.0000e-001 71516 -1.4657e+002  3.9235e+001  2.4859e+001 69386 71438,71490,71464
 2.0000e-001 71869 -1.1122e+002 -2.5397e+001 -2.4177e+000 69188 71644,71748,71670
 2.0000e-001 71846 -1.1278e+002 -5.5203e+001 -1.5059e+000 69188 71644,71774,71748
 2.0000e-001 71823 -1.2428e+002 -6.5592e+001 -1.2399e+000 69188 71670,71748,71722
 2.0000e-001 71800 -7.2010e+001  4.2491e+001  1.9615e+001 69188 71670,71722,71696
 2.0000e-001 72019 -1.4761e+002  1.1652e+000  2.7133e+001 68990 71918,71970,71944
 2.0000e-001 71996 -1.9906e+002  5.3771e+000  2.5413e+001 68990 71892,71970,71918
 2.0000e-001 72316 -1.3257e+002 -5.1387e+001  2.4641e+000 68586 72339,72172,72146
 2.0000e-001 72293 -1.3721e+002 -5.8628e+001  4.5051e+000 68586 72339,72146,72120
 2.0000e-001 72270 -1.3603e+002 -6.6637e+001  1.4662e+001 68586 72411,72068,72198
 2.0000e-001 72247 -1.6465e+002 -8.0936e+001  8.8030e+000 68586 72042,72198,72068
 2.0000e-001 72224 -1.1871e+002 -3.6159e+001  1.1448e+001 68586 72068,72120,72094
 2.0000e-001 72365 -1.3801e+002 -5.0132e+001  9.4267e+000 68586 72198,72172,72339
 2.0000e-001 72388 -1.4266e+002 -6.0810e+001  1.1821e+001 68586 72411,72198,72339
 2.0000e-001 72437 -1.2824e+002 -6.0822e+001  1.0255e+001 68586 72120,72068,72411
 2.0000e-001 72460 -1.3447e+002 -5.3223e+001  7.4784e+000 68586 72120,72411,72339
 2.0000e-001 72864 -1.3295e+002 -3.1637e+001  3.5790e+000 68388 72642,72694,72668
 2.0000e-001 72841 -1.2979e+002 -2.4862e+001  2.6889e+000 68388 72616,72694,72642
 2.0000e-001 72818 -1.4561e+002 -6.5687e+001  6.7064e-001 68388 72616,72720,72694
 2.0000e-001 72795 -1.2072e+002 -1.4485e+001 -9.1822e+000 68388 72590,72720,72616
 2.0000e-001 72772 -1.6246e+002 -5.6245e+001 -3.6564e+001 68388 72590,72746,72720
 2.0000e-001 73321 -1.0144e+002 -5.5020e+001 -7.6407e+000 68048 73073,73203,73177
 2.0000e-001 73298 -8.8324e+001 -6.6876e+001 -2.7781e+001 68048 73047,73203,73073
 2.0000e-001 73275 -1.3119e+002 -2.4220e+001  1.0893e+001 68048 73125,73177,73151
 2.0000e-001 73252 -1.1613e+002 -3.1409e+001 -6.6214e+000 68048 73073,73177,73125
 2.0000e-001 73229 -1.0655e+002 -2.4617e+000 -2.8001e+000 68048 73073,73125,73099
 2.0000e-001 73640 -1.5589e+002 -1.2925e+000  5.0795e+000 67850 73444,73496,73470
 2.0000e-001 73617 -1.3404e+002 -1.6330e+001  5.5572e+000 67850 73418,73496,73444
 2.0000e-001 73594 -1.2739e+002 -5.1157e-001  5.6534e+000 67850 73392,73496,73418
 2.0000e-001 73571 -1.0547e+002  7.5614e+000  1.3767e+001 67850 73392,73522,73496
 2.0000e-001 73548 -5.9624e+001  4.5331e+001 -3.8187e+001 67850 73366,73522,73392
 2.0000e-001 73790 -1.3377e+002 -5.7783e+001 -6.2898e-001 67602 73689,73741,73715
 2.0000e-001 73767 -1.2963e+002 -4.6674e+001 -1.1124e+000 67602 73663,73741,73689
 2.0000e-001 74040 -1.4288e+002 -5.4637e+001 -5.4155e-001 67290 73841,73945,73919
 2.0000e-001 74017 -1.3751e+002 -5.9536e+001 -1.8490e+000 67290 73815,73945,73841
 2.0000e-001 73994 -1.3526e+002 -5.6976e+001  6.5756e+000 67290 73841,73919,73867
 2.0000e-001 73971 -1.3362e+002 -5.1297e+001  3.2485e+000 67290 73867,73919,73893
 2.0000e-001 74143 -1.7108e+002  7.1764e-001 -8.5230e-001 67092 74065,74117,74091
 2.0000e-001 74415 -1.0659e+002  8.4981e+000 -1.3698e+001 66894 74190,74294,74216
 2.0000e-001 74392 -5.5098e+001  3.1753e+001 -7.2606e+000 66894 74190,74320,74294
 2.0000e-001 74369 -1.1889e+002 -7.4921e+000 -2.0994e+001 66894 74216,74294,74242
 2.0000e-001 74346 -1.0429e+002  5.8850e+001 -2.7064e+001 66894 74242,74294,74268
 2.0000e-001 75023 -1.5790e+002 -3.9341e+001  2.1188e+001 66532 74654,74836,74810
 2.0000e-001 75000 -1.1086e+002 -3.1504e+001  2.4771e+001 66532 74628,74836,74654
 2.0000e-001 74977 -1.1439e+002 -4.9010e+001 -3.6288e+000 66532 74706,74784,74732
 2.0000e-001 74954 -1.3175e+002 -6.6409e+001 -1.3098e+001 66532 74680,74784,74706
 2.0000e-001 74931 -1.5886e+002 -7.2599e+001 -1.5621e+001 66532 74680,74810,74784
 2.0000e-001 74908 -1.1783e+002 -5.1678e+001  1.3278e+001 66532 74654,74810,74680
 2.0000e-001 74885 -1.5069e+002 -1.8148e+001  3.4837e+001 66532 74602,74836,74628
 2.0000e-001 74862 -1.2844e+002 -5.3476e+001  3.3280e+000 66532 74732,74784,74758
 2.0000e-001 75222 -1.3855e+002 -1.7366e+001  4.6859e+000 66242 75072,75150,75124
 2.0000e-001 75199 -1.3143e+002 -2.2871e+001  2.7622e+000 66242 75046,75150,75072
 2.0000e-001 75176 -1.4388e+002 -2.7819e+001  2.7344e+000 66242 75072,75124,75098
 2.0000e-001 75470 -1.6172e+002  6.5221e+000  5.7592e+000 65838 75297,75375,75349
 2.0000e-001 75447 -1.5768e+002 -1.9315e+000  7.6000e+000 65838 75271,75375,75297
 2.0000e-001 75424 -1.1734e+002  5.1174e+001  3.5847e+001 65838 75297,75349,75323
 2.0000e-001 75401 -1.4661e+002  1.6185e+000  5.1162e+000 65838 75245,75375,75271
 2.0000e-001 75671  1.4602e+001 -5.7735e+000  4.7114e+000 65640 75495,75573,75521
 2.0000e-001 75648  2.6113e+001  3.5861e-001  1.8745e+000 65640 75495,75599,75573
 2.0000e-001 75625  1.5524e+001  3.0674e+000  1.0749e+001 65640 75521,75573,75547
 2.0000e-001 75872 -1.0733e+002 -4.3476e+001 -5.3589e+000 65300 75895,75748,75722
 2.0000e-001 75849 -1.1135e+002 -2.7231e+001  3.9942e+000 65300 75895,75722,75696
 2.0000e-001 75826 -9.3807e+001  7.1080e+000 -2.6757e+001 65300 75967,75774,75748
 2.0000e-001 75921 -9.5512e+001 -1.2480e+001 -6.7853e+000 65300 75967,75748,75895
 2.0000e-001 75944 -1.0929e+002 -4.7238e+000  1.1014e+001 65300 75800,75895,75696
 2.0000e-001 75993 -1.2767e+002 -2.2293e+001 -1.4304e+001 65300 75800,75774,75967
 2.0000e-001 76016 -1.2627e+002 -3.4386e+001  3.2259e+000 65300 75800,75967,75895
 2.0000e-001 76371 -1.1154e+002 -4.0787e+001  7.1331e+000 64896 76146,76250,76172
 2.0000e-001 76348 -1.1255e+002 -5.2316e+001  8.2292e-001 64896 76146,76276,76250
 2.0000e-001 76325 -8.7743e+001 -3.3797e+001 -2.5215e+000 64896 76172,76250,76198
 2.0000e-001 76302 -1.7859e+002 -7.2794e+001 -1.3653e+001 64896 76198,76250,76224
 2.0000e-001 76570 -1.5738e+002 -1.6410e+001  2.2258e+001 64442 76446,76498,76472
 2.0000e-001 76547 -1.3718e+002  2.8775e+000 -1.0631e+000 64442 76420,76498,76446
 2.0000e-001 76524 -1.3255e+002 -8.2585e+000  5.9863e+000 64442 76394,76498,76420
 2.0000e-001 76999 -1.1451e+002 -4.0703e+001  6.2968e-001 63924 77022,76728,76702
 2.0000e-001 76976 -1.1811e+002 -4.3639e+001  2.3815e+000 63924 77022,76702,76832
 2.0000e-001 76953 -1.1348e+002 -4.5229e+001 -1.2819e+001 63924 76728,76806,76754
 2.0000e-001 76930 -1.4151e+002 -5.6651e+001 -3.4372e+000 63924 76676,76832,76702
 2.0000e-001 76907 -1.3403e+002 -2.3461e+001 -1.1878e+001 63924 76754,76806,76780
 2.0000e-001 76884 -1.4961e+002 -3.6646e+001 -2.5433e+000 63924 76676,76858,76832
 2.0000e-001 77048 -1.1963e+002 -3.7503e+001  6.3827e-001 63924 76806,76728,77022
 2.0000e-001 77071 -1.2276e+002 -3.9947e+001  2.2661e+000 63924 76806,77022,76832
 2.0000e-001 77449 -9.4171e+001 -1.1954e+001  5.4810e+000 63320 77472,77253,77201
 2.0000e-001 77426 -1.0113e+002 -1.5944e+001  3.8047e+000 63320 77472,77201,77175
 2.0000e-001 77403 -1.3519e+002 -2.1626e+001  9.4926e-001 63320 77175,77305,77279
 2.0000e-001 77380 -1.0026e+002 -3.7356e+001  2.7319e+001 63320 77201,77253,77227
 2.0000e-001 77357 -1.1899e+002 -1.7634e+001  1.0169e+001 63320 77175,77331,77305
 2.0000e-001 77498 -8.5122e+001 -1.6600e+001 -1.4523e+000 63320 77279,77253,77472
 2.0000e-001 77521 -9.6475e+001 -2.1614e+001 -3.1680e+000 63320 77279,77472,77175
 2.0000e-001 77769 -1.1399e+002 -2.3142e+001 -6.4987e+000 62816 77570,77622,77596
 2.0000e-001 77746 -1.2175e+002 -4.3930e+001 -3.5214e+000 62816 77570,77648,77622
 2.0000e-001 77723 -1.3949e+002 -3.9964e+001 -3.8896e+001 62816 77570,77674,77648
 2.0000e-001 77700 -1.1125e+002 -1.4996e+001 -2.7132e+001 62816 77544,77674,77570
 2.0000e-001 78149 -1.2356e+002 -6.4929e+001 -8.6483e+000 62354 77953,78031,78005
 2.0000e-001 78126 -1.1660e+002 -5.4737e+001 -5.4710e+000 62354 77901,78031,77953
 2.0000e-001 78103 -1.1760e+002 -5.5302e+001 -7.3144e+000 62354 77875,78031,77901
 2.0000e-001 78080 -1.3804e+002 -4.6303e+001  1.4204e+001 62354 77901,77953,77927
 2.0000e-001 78057 -1.7660e+002 -6.4165e+001 -1.7630e+001 62354 77953,78005,77979
 2.0000e-001 78606 -1.0797e+002 -5.3202e+001 -8.1349e+000 61950 78384,78436,78410
 2.0000e-001 78583 -9.2752e+001 -4.0197e+001  2.5311e+000 61950 78358,78436,78384
 2.0000e-001 78560 -9.5710e+001 -4.8446e+001  6.5488e+000 61950 78358,78488,78436
 2.0000e-001 78537 -8.3436e+001 -2.7487e+001  1.3387e+000 61950 78436,78488,78462
 2.0000e-001 78514 -1.0617e+002 -6.6946e+001 -2.5316e+000 61950 78332,78488,78358
 2.0000e-001 78756 -1.3770e+002 -4.9611e+001  5.4780e+000 61339 78779,78655,78629
 2.0000e-001 78733 -1.3538e+002 -4.0771e+001  4.2089e+000 61339 78779,78629,78707
 2.0000e-001 78805 -1.2534e+002 -2.6678e+001 -4.6628e+000 61339 78851,78779,78681
 2.0000e-001 78828 -1.4731e+002 -4.2429e+001  2.9196e+000 61339 78681,78779,78707
 2.0000e-001 78877 -1.4084e+002 -6.4177e+001  1.2784e-001 61339 78655,78779,78851
 2.0000e-001 79206 -9.2966e+001 -1.1277e+001 -3.3014e+001 60892 79229,79007,78981
 2.0000e-001 79183 -1.1029e+002 -5.2424e+001 -3.2301e+001 60892 79229,78981,79111
 2.0000e-001 79160 -1.1422e+002 -2.1445e+001 -1.8942e+001 60892 79301,79033,79007
 2.0000e-001 79137 -1.2573e+002 -2.5403e+001  2.4339e+000 60892 79033,79085,79059
 2.0000e-001 79255 -1.1459e+002 -1.8715e+001 -2.0921e+001 60892 79301,79007,79229
 2.0000e-001 79278 -8.5418e+001 -2.7628e+001 -1.8058e+001 60892 79085,79229,79111
 2.0000e-001 79327 -1.2539e+002 -3.7684e+001 -3.8333e+000 60892 79085,79033,79301
 2.0000e-001 79350 -1.0308e+002 -2.3488e+001 -1.0117e+001 60892 79085,79301,79229
 2.0000e-001 79647 -1.5820e+002 -7.3402e+001 -1.3457e+001 60488 79451,79529,79503
 2.0000e-001 79624 -1.5644e+002 -6.9574e+001 -1.3893e+001 60488 79425,79529,79451
 2.0000e-001 79601 -1.3281e+002 -6.0892e+001 -9.8383e+000 60488 79373,79529,79425
 2.0000e-001 79578 -1.3108e+002 -5.9373e+001 -8.7728e+000 60488 79373,79425,79399
 2.0000e-001 79555 -1.4119e+002 -1.5469e+001  1.8706e+000 60488 79451,79503,79477
 2.0000e-001 79870 -1.4225e+002 -5.6186e+001 -2.6123e+000 60026 79720,79798,79772
 2.0000e-001 79847 -2.0304e+002 -7.6866e+001 -1.0467e+001 60026 79694,79798,79720
 2.0000e-001 79824 -1.8038e+002 -7.1392e+001 -8.8576e-001 60026 79720,79772,79746
 2.0000e-001 80120 -3.5071e+001 -2.2816e+000  9.3906e+000 59629 79921,80025,79973
 2.0000e-001 80097 -1.7246e+001  1.6415e+001  1.8491e+001 59629 79895,80025,79921
 2.0000e-001 80074 -2.8325e+001  3.5993e+000 -5.9960e+000 59629 79973,80025,79999
 2.0000e-001 80051 -3.0099e+001  7.2046e+000  6.0842e+000 59629 79921,79973,79947
 2.0000e-001 80321 -9.4263e+001 -2.0205e+001 -1.4181e-001 59125 80344,80171,80145
 2.0000e-001 80298 -8.5128e+001 -2.9162e+001 -6.3165e+000 59125 80344,80145,80249
 2.0000e-001 80275 -7.6023e+001 -3.0172e+001 -1.4290e+000 59125 80197,80249,80223
 2.0000e-001 80370 -8.4784e+001 -1.4058e+001  2.7217e+000 59125 80197,80171,80344
 2.0000e-001 80393 -7.6235e+001 -2.3155e+001 -3.5338e+000 59125 80197,80344,80249
 2.0000e-001 80952 -8.2235e+001 -3.9203e+001  1.4189e+001 58557 80975,80632,80606
 2.0000e-001 80929 -1.1033e+002 -5.2696e+001  2.1967e+001 58557 81119,80975,80606
 2.0000e-001 80906 -1.0497e+002 -4.5314e+001  4.9195e-001 58557 81047,80684,80632
 2.0000e-001 80883 -1.4137e+002 -6.6619e+001  1.6308e+001 58557 81119,80606,80580
 2.0000e-001 80860 -1.0491e+002  1.6771e+001 -3.3982e+000 58557 81191,80736,80710
 2.0000e-001 80837 -1.1480e+002 -4.2726e+001  6.7484e+000 58557 80736,80788,80762
 2.0000e-001 80814 -8.9719e+001 -4.3360e+001 -6.9027e+000 58557 80632,80684,80658
 2.0000e-001 81001 -1.0619e+002 -5.2203e+001  4.4596e+000 58557 81047,80632,80975
 2.0000e-001 81024 -1.1107e+002 -2.2215e+001 -1.0698e+000 58557 81191,80710,80975
 2.0000e-001 81073 -1.0620e+002 -2.6366e+001 -7.4685e+000 58557 80710,80684,81047
 2.0000e-001 81096 -1.1620e+002 -3.9206e+001 -9.1558e-001 58557 80710,81047,80975
 2.0000e-001 81145 -1.2191e+002 -6.7410e+001  3.2720e+000 58557 80788,80975,81119
 2.0000e-001 81168 -1.2694e+002 -6.9255e+001 -7.2360e-001 58557 80788,81119,80580
 2.0000e-001 81217 -1.0717e+002 -1.9714e+001  1.0642e+001 58557 80788,80736,81191
 2.0000e-001 81240 -1.0323e+002 -3.9466e+001  1.6758e+001 58557 80788,81191,80975
 2.0000e-001 81537 -2.2508e+001  6.1404e+001 -8.5964e+000 57881 81560,81341,81289
 2.0000e-001 81514 -2.0579e+001  6.3539e+001 -5.7792e+001 57881 81560,81289,81263
 2.0000e-001 81491 -2.9218e+001  2.0135e+001 -4.1189e+001 57881 81632,81419,81367
 2.0000e-001 81468 -4.2454e+001  9.0307e-001 -2.5945e+000 57881 81367,81419,81393
 2.0000e-001 81445 -1.2214e+002  7.1621e+001  1.5890e+001 57881 81289,81341,81315
 2.0000e-001 81586 -4.5748e+001 -1.9582e+000 -6.4992e+000 57881 81367,81341,81560
 2.0000e-001 81609 -3.7887e+001  5.5097e+001 -2.8609e+001 57881 81632,81367,81560
 2.0000e-001 81658 -4.8965e+001 -5.6677e+001 -4.9720e+001 57881 81263,81419,81632
 2.0000e-001 81681 -4.6238e+001  1.6359e+000 -4.3189e+001 57881 81263,81632,81560
 2.0000e-001 81929  1.3649e+001  1.3780e+001  3.4167e+000 57477 81704,81808,81782
 2.0000e-001 81906  2.6950e+001 -1.6190e+000  9.7588e+000 57477 81704,81834,81808
 2.0000e-001 81883  1.4996e+001  2.5625e-001 -3.7781e+000 57477 81704,81782,81730
 2.0000e-001 81860  1.8596e+001  3.9332e+000 -5.3144e+000 57477 81730,81782,81756
 2.0000e-001 82488 -9.8138e+001 -3.0795e+001  5.3885e+000 56966 82583,82511,82194
 2.0000e-001 82465 -9.6426e+001 -4.0196e+001 -1.5875e+000 56966 82511,82116,82324
 2.0000e-001 82442 -1.0542e+002 -1.7717e+001  2.6654e+000 56966 82583,82194,82168
 2.0000e-001 82419 -1.2391e+002 -3.2826e+001 -8.6698e-002 56966 82194,82246,82220
 2.0000e-001 82396 -8.8119e+001 -1.2217e+001  1.4151e+001 56966 82194,82298,82246
 2.0000e-001 82373 -1.0670e+002 -4.1107e+001  2.3035e+001 56966 82246,82298,82272
 2.0000e-001 82350 -9.7173e+001  1.5698e+001  1.2913e+000 56966 82116,82168,82142
 2.0000e-001 82537 -1.0421e+002 -4.1694e+001  7.9657e+000 56966 82298,82194,82511
 2.0000e-001 82560 -9.8567e+001 -5.1262e+001  1.6685e+000 56966 82298,82511,82324
 2.0000e-001 82609 -1.0471e+002 -4.4836e+001  2.4743e+000 56966 82116,82511,82583
 2.0000e-001 82632 -1.1221e+002 -3.2815e+001  4.0735e-001 56966 82116,82583,82168
 2.0000e-001 83236 -1.5783e+002 -4.4352e+001 -2.4557e+001 56304 82893,82945,82919
 2.0000e-001 83213 -1.2276e+002 -4.4322e+001 -2.7105e+000 56304 83259,82945,82893
 2.0000e-001 83190 -1.1781e+002 -4.9677e+001 -5.6943e+000 56304 83259,82893,83049
 2.0000e-001 83167 -1.1691e+002 -6.7710e+001  5.5073e+000 56304 82971,83049,83023
 2.0000e-001 83144 -1.1924e+002 -5.5261e+001 -4.4183e+000 56304 82815,83049,82893
 2.0000e-001 83121 -1.1260e+002 -6.7682e+000 -4.3449e-001 56304 82815,82893,82867
 2.0000e-001 83098 -9.3804e+001 -5.6695e+001 -6.6009e+000 56304 82971,83023,82997
 2.0000e-001 83075 -1.3664e+002 -5.3118e+001 -8.9872e+000 56304 82815,82867,82841
 2.0000e-001 83285 -1.3099e+002 -5.2391e+001  1.7884e+000 56304 82971,82945,83259
 2.0000e-001 83308 -1.2207e+002 -5.0868e+001 -3.0437e+000 56304 82971,83259,83049
 2.0000e-001 83556 -1.0219e+002 -1.4298e+001 -9.6822e+000 55964 83357,83461,83435
 2.0000e-001 83533 -1.1673e+002  1.4929e+000 -2.4236e+000 55964 83331,83461,83357
 2.0000e-001 83510 -5.1275e+001 -8.4551e+000 -2.6664e-001 55964 83357,83435,83383
 2.0000e-001 83487 -7.6090e+001 -2.3905e+001 -6.9604e+000 55964 83383,83435,83409
 2.0000e-001 83706 -1.2945e+002 -7.1299e+001  8.6256e-001 55503 83579,83631,83605
 2.0000e-001 83683 -1.4072e+002 -7.6933e+001  4.0044e+000 55503 83579,83657,83631
 2.0000e-001 83907 -9.0029e+001 -3.4478e+001 -1.6336e+001 55156 83757,83835,83809
 2.0000e-001 83884 -8.4471e+001 -1.7859e+001 -1.0381e+001 55156 83731,83835,83757
 2.0000e-001 83861 -9.1978e+001 -1.5498e+000 -8.2868e+000 55156 83757,83809,83783
 2.0000e-001 84240 -7.5242e+001 -2.2720e+001 -1.8167e+000 54652 84093,84145,84119
 2.0000e-001 84217 -1.1534e+002 -3.4455e+001  1.6972e+001 54652 84041,84145,84093
 2.0000e-001 84194 -1.1995e+002 -3.1667e+001  1.0469e+001 54652 84015,84145,84041
 2.0000e-001 84171 -1.2988e+002 -4.4659e+001  1.1487e+000 54652 84041,84093,84067
 2.0000e-001 84618 -2.4480e+001 -8.8224e+000 -3.3572e+000 53926 84396,84500,84474
 2.0000e-001 84595 -2.5833e+001 -2.5624e+000 -4.3335e+000 53926 84344,84500,84396
 2.0000e-001 84572 -2.7124e+001 -2.1128e+000 -4.2923e-001 53926 84344,84396,84370
 2.0000e-001 84549 -3.8790e+001 -1.5160e+001 -2.2846e+000 53926 84396,84474,84422
 2.0000e-001 84526 -3.1653e+001 -1.0177e+001  3.1592e-001 53926 84422,84474,84448
 2.0000e-001 85350 -1.4873e+002 -5.8811e+001 -2.1000e+001 53586 85373,84880,85088
 2.0000e-001 85327 -8.9123e+001 -5.8462e+001 -2.0614e+001 53586 84880,85114,85088
 2.0000e-001 85304 -1.0148e+002 -3.4791e+001 -8.2791e+000 53586 85373,85088,85062
 2.0000e-001 85281 -1.3572e+002 -4.9802e+001  4.0035e+001 53586 85010,85062,85036
 2.0000e-001 85258 -1.3217e+002 -4.1388e+001  1.4825e+001 53586 85445,85010,84958
 2.0000e-001 85235 -8.5414e+001 -2.7659e+001  1.0845e+000 53586 85445,84958,84906
 2.0000e-001 85212 -1.2406e+002 -5.9519e+000  9.7489e+000 53586 84958,85010,84984
 2.0000e-001 85189 -1.0147e+002  4.9538e+000 -1.1588e+001 53586 84906,84958,84932
 2.0000e-001 85166 -9.4018e+001 -6.6361e+001 -1.6515e+001 53586 84880,85140,85114
 2.0000e-001 85399 -1.5627e+002 -3.1892e+001  2.7628e+001 53586 84906,84880,85373
 2.0000e-001 85422 -1.2439e+002 -2.9798e+001  2.5925e+001 53586 85517,85373,85062
 2.0000e-001 85471 -1.3621e+002 -5.2238e+001  3.9638e+001 53586 85062,85010,85445
 2.0000e-001 85494 -1.1423e+002 -3.3826e+001  2.3528e+001 53586 85517,85062,85445
 2.0000e-001 85543 -1.0884e+002 -2.5593e+001  3.0837e+001 53586 84906,85373,85517
 2.0000e-001 85566 -1.0211e+002 -3.2163e+001  2.8585e+001 53586 84906,85517,85445
 2.0000e-001 86072 -9.5228e+001 -5.0549e+001 -1.6711e+001 53182 86095,85853,85775
 2.0000e-001 86049 -1.0480e+002 -5.2256e+001 -1.2590e+001 53182 86095,85775,85931
 2.0000e-001 86026 -1.1012e+002 -5.1082e+001 -2.1760e+001 53182 86167,85879,85853
 2.0000e-001 86003 -1.2690e+002 -6.3180e+001 -6.3411e+000 53182 85775,85827,85801
 2.0000e-001 85980 -9.5973e+001 -5.9154e+001 -1.0897e+001 53182 85775,85853,85827
 2.0000e-001 85957 -1.0063e+002 -5.3728e+001 -3.1704e+000 53182 85749,85931,85775
 2.0000e-001 86121 -1.0878e+002 -5.2659e+001 -1.7447e+001 53182 86167,85853,86095
 2.0000e-001 86144 -1.1264e+002 -4.7600e+001 -1.3541e+001 53182 85905,86095,85931
 2.0000e-001 86193 -1.0821e+002 -4.8653e+001 -1.9532e+001 53182 85905,85879,86167
 2.0000e-001 86216 -1.0459e+002 -4.4422e+001 -1.4835e+001 53182 85905,86167,86095
 2.0000e-001 86673 -9.5712e+001 -7.7981e+000  6.7406e+000 52778 86477,86529,86503
 2.0000e-001 86650 -1.0413e+002 -3.8825e+001  3.3697e+000 52778 86425,86529,86477
 2.0000e-001 86627 -9.1051e+001 -3.6453e+001  4.6610e+000 52778 86425,86477,86451
 2.0000e-001 86604 -7.3629e+001 -3.2840e+001  1.1485e+001 52778 86399,86529,86425
 2.0000e-001 86581 -6.7638e+001 -3.2936e+001  1.6593e+001 52778 86399,86555,86529
 2.0000e-001 87258 -9.1074e+001 -1.0168e+001  1.7955e+001 52238 87281,86987,86961
 2.0000e-001 87235 -1.0083e+002 -2.5891e+001  4.7180e+000 52238 87281,86961,87117
 2.0000e-001 87212 -1.0596e+002 -2.6847e+001  2.2338e+000 52238 86935,87117,86961
 2.0000e-001 87189 -1.1560e+002 -3.3493e+001 -2.6713e-001 52238 87065,87117,87091
 2.0000e-001 87166 -9.8995e+001 -5.2530e+001  5.0199e+000 52238 86987,87065,87039
 2.0000e-001 87143 -1.0012e+002 -6.1106e+001  1.2105e+001 52238 86987,87039,87013
 2.0000e-001 87307 -1.0058e+002 -3.4531e+001  9.8223e+000 52238 87065,86987,87281
 2.0000e-001 87330 -1.0330e+002 -3.5011e+001 -3.1758e+000 52238 87065,87281,87117
 2.0000e-001 87610 -8.7331e+001 -8.2731e+000  1.4202e+001 51834 87434,87512,87460
 2.0000e-001 87587 -1.0791e+002 -2.0233e+001  6.1897e+000 51834 87434,87538,87512
 2.0000e-001 87564 -1.3567e+002 -4.9069e+001 -6.2847e+000 51834 87633,87460,87512
 2.0000e-001 87659 -1.5088e+002 -5.5592e+001 -6.9597e+000 51834 87486,87460,87633
 2.0000e-001 88187 -1.0043e+002 -3.6173e+001 -8.2311e+000 51266 87864,87942,87890
 2.0000e-001 88164 -9.4222e+001 -1.4959e+001 -6.2583e+000 51266 87864,88020,87942
 2.0000e-001 88141 -1.5088e+002 -4.7365e+001 -2.5187e+001 51266 87942,88020,87968
 2.0000e-001 88118 -9.7191e+001  1.2751e+001  3.9953e+000 51266 87864,88046,88020
 2.0000e-001 88095 -8.9161e+001  2.6210e+001  1.2571e+000 51266 87968,88020,87994
 2.0000e-001 88072 -9.8677e+001 -3.9876e+001 -1.0501e+001 51266 87890,87942,87916
 2.0000e-001 88644 -1.3751e+002 -6.1966e+001 -8.8408e+000 50754 88370,88500,88396
 2.0000e-001 88621 -1.5113e+002 -1.9766e+001 -1.6453e+001 50754 88370,88526,88500
 2.0000e-001 88598 -8.7045e+001 -2.2547e+001  1.8522e+001 50754 88396,88500,88422
 2.0000e-001 88575 -9.7954e+001 -4.3315e+001  1.4386e+001 50754 88422,88500,88474
 2.0000e-001 88552 -1.2549e+002 -6.4763e+001 -6.1662e+000 50754 88422,88474,88448
 2.0000e-001 88914 -8.0314e+001  1.5838e+000  4.5623e+000 50442 88715,88793,88741
 2.0000e-001 88891 -4.3898e+001  1.1374e+001 -5.1521e+000 50442 88715,88819,88793
 2.0000e-001 88868 -1.1906e+002 -2.4622e+001 -2.1014e+001 50442 88689,88819,88715
 2.0000e-001 88845 -6.0469e+001  1.4638e+001  1.5149e+001 50442 88741,88793,88767
 2.0000e-001 89294 -4.2446e+001 -1.6924e+000 -1.7601e+000 49938 89317,89046,89020
 2.0000e-001 89271 -4.1084e+001 -1.6826e+000 -2.4596e+000 49938 89317,89020,89150
 2.0000e-001 89248 -2.9104e+001 -7.6489e+000 -1.2773e+000 49938 89072,89150,89098
 2.0000e-001 89225 -5.5402e+001 -5.5535e+000 -4.0763e+000 49938 89020,89176,89150
 2.0000e-001 89202 -2.5994e+001 -5.9399e+000 -3.4098e+000 49938 89098,89150,89124
 2.0000e-001 89343 -3.8911e+001 -6.0256e+000  2.8713e-001 49938 89072,89046,89317
 2.0000e-001 89366 -3.8235e+001 -2.1260e+000 -3.1138e+000 49938 89072,89317,89150
 2.0000e-001 89823 -6.4495e+001 -2.7825e+001 -8.7158e+000 49384 89601,89705,89679
 2.0000e-001 89800 -5.0781e+001 -2.5255e+001  7.1998e+000 49384 89549,89705,89601
 2.0000e-001 89777 -4.1888e+001 -1.4279e+001  3.3553e+000 49384 89549,89601,89575
 2.0000e-001 89754 -5.0197e+001 -3.0434e+001 -9.3364e+000 49384 89601,89679,89627
 2.0000e-001 89731 -1.9738e+001  2.4550e+001 -2.8655e+001 49384 89627,89679,89653
 2.0000e-001 90329 -2.3190e+001 -6.8413e+000 -1.1311e+001 48894 90058,90110,90084
 2.0000e-001 90306 -3.6018e+001 -1.2218e+001 -7.6774e+000 48894 90058,90162,90110
 2.0000e-001 90283 -2.6866e+001 -6.5754e+000 -4.2851e+000 48894 90032,90162,90058
 2.0000e-001 90260 -2.8446e+001 -5.7204e+000 -8.7280e+000 48894 90006,90162,90032
 2.0000e-001 90237 -1.3266e+001  4.5479e+001 -1.5087e+001 48894 90110,90162,90136
 2.0000e-001 90214 -1.9885e+001 -7.3279e+000 -1.7887e+000 48894 90006,90188,90162
 2.0000e-001 90884 -1.4409e+001  2.3251e+000  2.6816e+000 48490 90564,90642,90616
 2.0000e-001 90861 -9.1608e+000  4.0167e+000  2.1843e+000 48490 90564,90694,90642
 2.0000e-001 90838 -8.0045e+000  3.5698e+000  1.0709e+000 48490 90538,90694,90564
 2.0000e-001 90815 -2.1180e+001 -2.3697e+000  3.2989e+000 48490 90538,90720,90694
 2.0000e-001 90792 -3.3660e+000  8.4265e+000 -1.5836e+001 48490 90564,90616,90590
 2.0000e-001 90769 -8.1604e+000  2.2984e+000 -2.6682e+000 48490 90642,90694,90668
 2.0000e-001 90746 -6.5418e+000  1.9953e+000  1.0680e+000 48490 90512,90720,90538
 2.0000e-001 91034 -1.9666e+001  2.3481e+000 -7.9159e+000 48086 91057,90959,90933
 2.0000e-001 91011 -2.2686e+001 -2.8481e+000 -9.3831e+000 48086 91129,91057,90933
 2.0000e-001 91083 -1.6523e+001 -1.3920e+000 -4.7023e+000 48086 90985,90959,91057
 2.0000e-001 91106 -2.0552e+001 -7.0167e-001 -6.6329e+000 48086 90985,91057,90907
 2.0000e-001 91155 -2.6700e+001 -1.1968e+000 -6.0778e+000 48086 90907,91057,91129
 2.0000e-001 91791 -1.1569e+002 -5.3780e+001 -2.6710e+000 47518 92030,91814,91523
 2.0000e-001 91768 -1.0056e+002 -5.2200e+001 -8.8194e+000 47518 91958,91814,91471
 2.0000e-001 91745 -8.8561e+001 -2.9013e+001 -5.6235e+000 47518 91886,91575,91523
 2.0000e-001 91722 -9.8723e+001 -6.0767e+001  4.5757e+000 47518 91958,91471,91419
 2.0000e-001 91699 -1.3921e+002 -3.4218e+001 -1.4130e+001 47518 92030,91523,91497
 2.0000e-001 91676 -9.6066e+001 -2.0181e+001 -5.7949e+000 47518 91523,91575,91549
 2.0000e-001 91653 -8.7842e+001 -5.4982e+001  2.5065e-001 47518 91419,91471,91445
 2.0000e-001 91840 -9.4194e+001 -4.0552e+001 -1.2363e+001 47518 91886,91523,91814
 2.0000e-001 91863 -1.2225e+002 -8.0682e+001 -8.2250e+000 47518 91601,91814,91627
 2.0000e-001 91912 -8.0994e+001 -2.3580e+001  1.0970e+001 47518 91601,91575,91886
 2.0000e-001 91935 -8.8038e+001 -4.8950e+001  4.9570e+000 47518 91601,91886,91814
 2.0000e-001 91984 -1.1767e+002 -5.9616e+001 -5.9724e+000 47518 91627,91814,91958
 2.0000e-001 92007 -1.0922e+002 -6.4841e+001  5.1448e+000 47518 91627,91958,91419
 2.0000e-001 92056 -1.2657e+002 -7.4557e+001 -2.0362e+001 47518 91471,91814,92030
 2.0000e-001 92079 -1.4669e+002 -6.2848e+001 -3.3696e+001 47518 91471,92030,91497
 2.0000e-001 92229 -1.2802e+002 -8.0785e+001 -1.5029e+001 47128 92252,92128,92102
 2.0000e-001 92206 -1.3291e+002 -9.8493e+001 -1.5716e+001 47128 92324,92252,92102
 2.0000e-001 92278 -1.3027e+002 -1.0594e+002 -1.7529e+001 47128 92454,92252,92154
 2.0000e-001 92301 -1.2426e+002 -7.8964e+001 -1.5407e+001 47128 92154,92252,92180
 2.0000e-001 92350 -1.0071e+002 -6.7633e+001 -3.0597e+000 47128 92180,92252,92324
 2.0000e-001 92480 -1.1087e+002 -7.1188e+001 -7.0889e+000 47128 92128,92252,92454
 2.0000e-001 93340 -9.9513e+001 -3.3464e+001  9.9927e+000 46838 93363,92977,92873
 2.0000e-001 93317 -1.3071e+002 -4.7058e+001  1.1678e+001 46838 93507,93363,92873
 2.0000e-001 93294 -1.1749e+002 -7.6533e+001 -2.0397e+001 46838 93435,93003,92977
 2.0000e-001 93271 -1.4464e+002 -4.3042e+001  1.4705e+001 46838 93507,92873,92847
 2.0000e-001 93248 -1.0559e+002 -2.8486e+001 -2.0811e+001 46838 93579,93029,93003
 2.0000e-001 93225 -8.0794e+001 -5.7627e+001  2.3152e+001 46838 92873,92951,92925
 2.0000e-001 93202 -9.4771e+001 -5.8522e+001  7.1978e+000 46838 92873,92977,92951
 2.0000e-001 93179 -1.3945e+002 -1.3920e+001  3.3433e+000 46838 93055,93107,93081
 2.0000e-001 93156 -1.9340e+002 -6.8860e+001 -7.1856e+000 46838 92821,93107,92847
 2.0000e-001 93133 -8.8164e+001 -3.6962e+001  1.0036e+001 46838 92873,92925,92899
 2.0000e-001 93389 -1.1837e+002 -4.6007e+001 -5.4609e+000 46838 93435,92977,93363
 2.0000e-001 93412 -1.2241e+002 -2.6691e+001  3.0106e-002 46838 93055,93363,93107
 2.0000e-001 93461 -1.0501e+002 -3.6191e+001 -1.7338e+001 46838 93579,93003,93435
 2.0000e-001 93484 -1.1871e+002 -2.5899e+001 -6.7275e+000 46838 93055,93435,93363
 2.0000e-001 93533 -1.2215e+002 -3.9747e+001  8.3266e+000 46838 93107,93363,93507
 2.0000e-001 93556 -1.2862e+002 -3.0357e+001  9.2128e+000 46838 93107,93507,92847
 2.0000e-001 93605 -1.1168e+002 -3.4802e+001 -1.1612e+001 46838 93055,93029,93579
 2.0000e-001 93628 -1.1002e+002 -4.1163e+001 -8.2077e+000 46838 93055,93579,93435
 2.0000e-001 93979 -1.4082e+002  3.1610e+001  1.7866e+001 46476 93780,93884,93858
 2.0000e-001 93956 -1.5655e+002 -9.0300e+000  1.3315e+001 46476 93754,93884,93780
 2.0000e-001 93933 -3.0591e+002 -1.0785e+001 -3.8144e+000 46476 93806,93858,93832
 2.0000e-001 93910 -2.9438e+002 -3.1405e+001  1.9885e+001 46476 93780,93858,93806
 2.0000e-001 94515 -9.0283e+001 -4.1307e+001 -5.8024e+000 46072 94345,94397,94371
 2.0000e-001 94492 -7.4852e+001 -3.5710e+001 -7.8947e-001 46072 94267,94397,94345
 2.0000e-001 94469 -5.9652e+001  1.0782e+000 -5.7703e+000 46072 94241,94397,94267
 2.0000e-001 94446 -6.5763e+001 -2.8710e+001  1.2586e+000 46072 94293,94345,94319
 2.0000e-001 94423 -6.5924e+001 -1.8716e+001  3.1813e+000 46072 94267,94345,94293
 2.0000e-001 95149 -7.3793e+001 -4.5995e+000 -5.7499e+000 45346 94803,94881,94855
 2.0000e-001 95126 -7.1576e+001 -1.6198e+001  4.6217e-001 45346 94803,94959,94881
 2.0000e-001 95103 -7.3285e+001  1.1189e-001  8.2628e+000 45346 95172,94933,94907
 2.0000e-001 95080 -6.5683e+001  2.3723e+001  4.9860e+000 45346 95172,94907,94881
 2.0000e-001 95057 -6.5478e+001 -1.1931e+001  2.3247e+000 45346 94803,94985,94959
 2.0000e-001 95034 -7.8359e+001  8.8110e+000 -4.9072e-001 45346 94803,94855,94829
 2.0000e-001 95011 -4.2647e+001  3.4206e+001 -2.1505e+001 45346 94777,94985,94803
 2.0000e-001 95198 -6.4390e+001 -1.1780e+001  5.8466e+000 45346 94959,94933,95172
 2.0000e-001 95221 -6.4776e+001  1.1718e+000  4.9439e+000 45346 94959,95172,94881
 2.0000e-001 95776 -8.2524e+001  2.5272e-001  1.6534e+001 44720 95799,95560,95534
 2.0000e-001 95753 -8.3263e+001 -2.1456e+001  2.0342e+001 44720 95799,95534,95482
 2.0000e-001 95730 -9.8896e+001 -5.2379e+000  2.8803e+001 44720 95943,95871,95430
 2.0000e-001 95707 -1.0192e+002 -3.9504e+000  2.8588e+001 44720 95943,95430,95404
 2.0000e-001 95684 -7.5949e+001  2.6382e+000  1.9062e+001 44720 95430,95482,95456
 2.0000e-001 95661 -9.4841e+001 -2.5105e+001  2.2775e+001 44720 95482,95534,95508
 2.0000e-001 95638 -1.0145e+002 -1.7720e+001  3.8198e+001 44720 95404,95612,95586
 2.0000e-001 95825 -8.1263e+001  3.5363e+001  3.0334e+001 44720 95586,95560,95799
 2.0000e-001 95848 -9.3041e+001 -3.5152e+000  2.5242e+001 44720 95871,95586,95799
 2.0000e-001 95897 -9.2481e+001 -6.0163e+000  2.3129e+001 44720 95482,95430,95871
 2.0000e-001 95920 -8.6939e+001  2.5950e+000  1.7636e+001 44720 95482,95871,95799
 2.0000e-001 95969 -9.2486e+001 -5.3210e+000  2.5757e+001 44720 95586,95871,95943
 2.0000e-001 95992 -9.8209e+001 -6.2219e+000  2.5700e+001 44720 95586,95943,95404
 2.0000e-001 96449 -9.5014e+001 -3.8302e+001  6.4057e+000 44202 96544,96472,96227
 2.0000e-001 96426 -9.5818e+001 -3.6517e+001 -7.8531e+000 44202 96472,96175,96331
 2.0000e-001 96403 -1.1490e+002 -3.0389e+001  5.3543e+000 44202 96544,96227,96201
 2.0000e-001 96380 -6.1501e+001 -3.3256e+001  3.8654e+000 44202 96253,96305,96279
 2.0000e-001 96357 -7.6860e+001 -3.0890e+001  1.3109e+001 44202 96227,96305,96253
 2.0000e-001 96498 -9.5797e+001 -4.6241e+001  4.0792e+000 44202 96305,96227,96472
 2.0000e-001 96521 -1.0196e+002 -5.3061e+001 -4.4482e+000 44202 96305,96472,96331
 2.0000e-001 96570 -1.1590e+002 -4.8155e+001 -2.1125e-001 44202 96175,96472,96544
 2.0000e-001 96593 -1.3159e+002 -3.5161e+001  2.0795e+000 44202 96175,96544,96201
 2.0000e-001 96971 -2.1361e+001 -4.5998e+000 -4.3627e+000 43754 96994,96749,96697
 2.0000e-001 96948 -2.1001e+001 -7.7530e+000 -2.3610e+000 43754 96994,96697,96853
 2.0000e-001 96925 -1.2477e+001 -2.3938e+000 -9.1474e+000 43754 96697,96749,96723
 2.0000e-001 96902 -2.1048e+001 -6.6138e+000 -5.3575e+000 43754 96775,96853,96827
 2.0000e-001 96879 -9.6526e+000  1.7110e+000 -1.6078e+000 43754 96775,96827,96801
 2.0000e-001 97020 -1.9963e+001  8.9783e-001 -6.0606e+000 43754 96775,96749,96994
 2.0000e-001 97043 -2.1493e+001 -4.4845e+000 -3.7998e+000 43754 96775,96994,96853
 2.0000e-001 97291 -8.2862e+001 -3.5837e+000 -5.5203e+000 43364 97314,97144,97118
 2.0000e-001 97268 -9.3378e+001 -1.6718e+001 -1.1299e+001 43364 97314,97118,97092
 2.0000e-001 97245 -8.1532e+001 -1.9891e+001 -1.5425e+001 43364 97386,97196,97170
 2.0000e-001 97222 -9.2477e+001 -5.6956e+001 -3.7012e+001 43364 97066,97196,97092
 2.0000e-001 97340 -8.5183e+001 -2.4094e+001 -3.6184e+000 43364 97170,97144,97314
 2.0000e-001 97363 -8.2099e+001 -2.5502e+001 -1.1514e+001 43364 97386,97170,97314
 2.0000e-001 97412 -7.8810e+001 -1.2930e+001 -1.7993e+001 43364 97092,97196,97386
 2.0000e-001 97435 -7.8675e+001 -1.5410e+001 -1.3556e+001 43364 97092,97386,97314
 2.0000e-001 97788 -7.1708e+001 -2.5958e+001 -6.2849e+000 42960 97563,97667,97589
 2.0000e-001 97765 -9.5485e+001 -5.7168e+001  5.5385e+000 42960 97563,97693,97667
 2.0000e-001 97742 -1.2469e+002 -1.2832e+001 -2.2985e+000 42960 97589,97641,97615
 2.0000e-001 97719 -1.2171e+002 -3.5238e+001 -5.3499e+000 42960 97589,97667,97641
 2.0000e-001 98215 -3.9258e+001 -1.1711e+001  6.6438e+000 42563 97918,98074,98048
 2.0000e-001 98192 -1.9698e+001 -2.6452e+000  9.4351e+000 42563 97892,98074,97918
 2.0000e-001 98169 -2.7383e+001 -1.5048e+001  3.3072e+000 42563 98238,97944,97918
 2.0000e-001 98146 -1.3238e+001  1.7544e+001 -4.9375e+000 42563 98238,97918,98048
 2.0000e-001 98123 -3.0133e+001 -6.7260e+000 -7.0636e+000 42563 97944,98022,97996
 2.0000e-001 98100 -2.8930e+001 -9.7044e-001 -2.4241e+000 42563 97944,97996,97970
 2.0000e-001 98264 -1.7290e+001  6.9732e+000 -1.2937e+001 42563 98022,97944,98238
 2.0000e-001 98287 -1.3706e+001  1.8769e+001 -2.0775e+001 42563 98022,98238,98048
 2.0000e-001 98616 -7.3210e+001 -3.2111e+001 -5.1187e+000 42251 98443,98521,98469
 2.0000e-001 98593 -7.9698e+001 -3.2011e+001 -9.5735e-001 42251 98417,98521,98443
 2.0000e-001 98570 -8.2138e+001 -3.8117e+001 -4.3121e+000 42251 98391,98521,98417
 2.0000e-001 98547 -9.9622e+001 -5.6418e+001  1.7809e+001 42251 98469,98521,98495
 2.0000e-001 98886 -1.2429e+002 -2.7592e+000 -1.7985e+001 41847 98661,98765,98687
 2.0000e-001 98863 -1.6204e+002  2.8604e+001 -4.6023e+001 41847 98661,98791,98765
 2.0000e-001 98840 -7.9867e+001 -5.3779e+000  8.1793e-001 41847 98687,98765,98739
 2.0000e-001 98817 -1.1254e+002 -2.2875e+001  8.0228e+000 41847 98687,98739,98713
 2.0000e-001 99394 -6.3609e+001  1.6782e+001  2.8214e+001 41236 99417,99149,99123
 2.0000e-001 99371 -9.5356e+001 -1.3987e+001  1.0048e+001 41236 99417,99123,99097
 2.0000e-001 99348 -8.4910e+001 -1.8876e+001  8.4933e+000 41236 99489,99201,99149
 2.0000e-001 99325 -9.2144e+001 -2.4620e+001  3.6801e+000 41236 99149,99201,99175
 2.0000e-001 99302 -1.2680e+002 -3.1057e+001 -4.2618e+000 41236 99097,99253,99227
 2.0000e-001 99279 -1.6566e+002 -6.0102e+001 -1.7550e+001 41236 99071,99253,99097
 2.0000e-001 99443 -8.5967e+001 -1.6290e+001  8.7576e+000 41236 99489,99149,99417
 2.0000e-001 99466 -8.7232e+001 -2.6709e+001 -2.5289e+000 41236 99227,99417,99097
 2.0000e-001 99515 -8.6290e+001 -1.6063e+001  6.5462e+000 41236 99227,99201,99489
 2.0000e-001 99538 -8.5829e+001 -1.1847e+001  6.4374e+000 41236 99227,99489,99417
 2.0000e-001 100044 -6.7312e+001 -3.9427e+001  2.5313e+001 40732 99721,99773,99747
 2.0000e-001 100021 -9.3305e+001 -3.7254e+001  1.2124e+001 40732 99721,99799,99773
 2.0000e-001 99998 -8.1887e+001 -2.2631e+001  7.0838e+000 40732 99721,99903,99799
 2.0000e-001 99975 -9.1463e+001 -2.5764e+001 -5.8195e+000 40732 100067,99877,99851
 2.0000e-001 99952 -9.0974e+001 -4.4707e+001 -8.0595e+000 40732 100067,99851,99799
 2.0000e-001 99929 -1.1885e+002 -2.7742e+001 -4.4586e+001 40732 99799,99851,99825
 2.0000e-001 100093 -9.3757e+001 -9.9923e+000  1.0262e+000 40732 99903,99877,100067
 2.0000e-001 100116 -9.5265e+001 -3.3227e+001  3.7235e-001 40732 99903,100067,99799
 2.0000e-001 100622 -8.5044e+001  6.5690e+000  1.2478e-001 40278 100645,100455,100429
 2.0000e-001 100599 -8.1186e+001 -1.7736e+001  8.9032e+000 40278 100717,100645,100429
 2.0000e-001 100576 -9.1634e+001 -2.2208e+001 -1.7068e+000 40278 100717,100429,100377
 2.0000e-001 100553 -8.2199e+001  8.7468e-001  1.3302e+001 40278 100789,100325,100481
 2.0000e-001 100530 -7.2922e+001  1.6585e+001  1.9456e+001 40278 100299,100481,100325
 2.0000e-001 100507 -8.0907e+001 -4.5840e+000  6.4786e+000 40278 100377,100429,100403
 2.0000e-001 100671 -8.5667e+001  4.8476e+001  1.3615e+001 40278 100481,100455,100645
 2.0000e-001 100694 -9.4370e+001  2.5133e+000  3.3673e+000 40278 100789,100481,100645
 2.0000e-001 100743 -8.8725e+001 -2.5923e+001 -7.8203e+000 40278 100351,100645,100717
 2.0000e-001 100766 -1.1044e+002 -3.3251e+001 -1.8192e+001 40278 100351,100717,100377
 2.0000e-001 100815 -6.6346e+001  7.4899e+000  1.7476e+001 40278 100351,100325,100789
 2.0000e-001 100838 -7.5945e+001  8.0037e+000  5.8081e+000 40278 100351,100789,100645
 2.0000e-001 101265 -1.0513e+002 -2.3658e+001  5.7219e+000 39824 101288,101046,100994
 2.0000e-001 101242 -1.1768e+002 -3.9776e+001  4.4227e-002 39824 101288,100994,100968
 2.0000e-001 101219 -1.0873e+002 -4.3624e+001  6.9742e+000 39824 100942,101124,100968
 2.0000e-001 101196 -1.0657e+002 -3.0265e+001  2.0503e+001 39824 101046,101124,101072
 2.0000e-001 101173 -1.0047e+002 -3.2647e+001 -1.3169e+001 39824 100994,101046,101020
 2.0000e-001 101150 -9.7882e+001 -3.4416e+001  2.2735e+001 39824 101072,101124,101098
 2.0000e-001 101314 -9.9667e+001 -3.2729e+001  1.2662e+001 39824 101124,101046,101288
 2.0000e-001 101337 -1.0504e+002 -3.7678e+001  9.6869e+000 39824 101124,101288,100968
 2.0000e-001 101585 -2.5826e-001  3.1313e+000 -1.1500e-001 39070 101608,101464,101412
 2.0000e-001 101562 -1.1012e+001  4.8523e+000 -8.3067e+000 39070 101608,101412,101360
 2.0000e-001 101539  5.9828e+000  7.6581e+000  2.1794e+000 39070 101412,101464,101438
 2.0000e-001 101516  7.2407e+000  1.3622e+001 -1.8004e+001 39070 101360,101412,101386
 2.0000e-001 101634  7.8862e+000  4.8500e+000  1.9036e+000 39070 101490,101464,101608
 2.0000e-001 101657  1.3647e-001  7.2986e+000 -7.2689e+000 39070 101490,101608,101360
 2.0000e-001 101856 -3.7134e+001  2.4252e+001 -2.8165e+000 38730 101706,101758,101732
 2.0000e-001 101833 -2.7118e+001  3.0828e+001 -5.7670e+000 38730 101706,101784,101758
 2.0000e-001 101810  1.3742e+001  3.6569e+000 -5.1622e+001 38730 101680,101784,101706
 2.0000e-001 102106 -8.8197e+001 -2.3430e+001 -2.2231e+000 38326 101881,101959,101907
 2.0000e-001 102083 -9.6147e+001 -2.6085e+001  8.0507e+000 38326 101881,101985,101959
 2.0000e-001 102060 -7.3837e+001 -2.4290e+001  8.9289e+000 38326 101881,102011,101985
 2.0000e-001 102037 -1.1127e+002 -2.7235e+001 -2.6164e+000 38326 101907,101959,101933
 2.0000e-001 102258 -6.8086e+000  4.1512e+000 -7.4699e+000 38036 102281,102157,102131
 2.0000e-001 102235  4.3382e+000 -4.0510e+000 -2.7605e+000 38036 102281,102131,102209
 2.0000e-001 102307  1.5142e+000  8.1926e+000 -4.9680e+000 38036 102183,102157,102281
 2.0000e-001 102330  1.8022e+001  6.0452e+000  1.9474e+000 38036 102183,102281,102209
 2.0000e-001 102663 -6.3305e+001 -1.5621e+000  1.7117e+001 37596 102438,102542,102464
 2.0000e-001 102640 -7.1717e+001 -5.5471e+000  1.5902e+001 37596 102438,102568,102542
 2.0000e-001 102617 -6.4282e+001  2.7219e+001  2.2981e+001 37596 102490,102542,102516
 2.0000e-001 102594 -6.6931e+001  5.2032e-001  1.5903e+001 37596 102464,102542,102490
 2.0000e-001 102862 -9.5847e+001 -1.6803e+001 -4.4932e-001 37192 102686,102764,102712
 2.0000e-001 102839 -9.9842e+001 -1.3020e+001  7.6901e+000 37192 102686,102790,102764
 2.0000e-001 102816 -9.2778e+001 -2.5568e+001  3.6077e+000 37192 102712,102764,102738
 2.0000e-001 103110 -1.0366e+002 -3.8024e+001 -3.7566e+000 36609 102911,102963,102937
 2.0000e-001 103087 -7.9606e+001 -2.5082e+001 -8.6321e+000 36609 102911,102989,102963
 2.0000e-001 103064 -9.1546e+001 -2.4368e+001 -7.5694e+000 36609 102885,102989,102911
 2.0000e-001 103041 -1.2822e+002 -2.7329e+001 -9.6576e+000 36609 102885,103015,102989
 2.0000e-001 103718 -5.4959e+001 -2.0774e+001  1.9626e+001 36131 103323,103375,103349
 2.0000e-001 103695 -9.0843e+001 -1.7364e+001  2.1373e+001 36131 103297,103375,103323
 2.0000e-001 103672 -9.4190e+001 -4.6519e+001 -2.1083e+000 36131 103297,103505,103375
 2.0000e-001 103649 -8.4591e+001 -3.4852e+001 -1.5143e+000 36131 103741,103479,103401
 2.0000e-001 103626 -8.5677e+001 -3.7414e+001 -7.7503e-001 36131 103741,103401,103375
 2.0000e-001 103603 -9.1269e+001  6.1756e-001 -2.4088e+000 36131 103401,103479,103427
 2.0000e-001 103580 -1.4133e+002 -3.1430e+001 -2.8875e+001 36131 103297,103531,103505
 2.0000e-001 103557 -6.1285e+001  5.5222e+001 -2.2745e+001 36131 103427,103479,103453
 2.0000e-001 103767 -8.6170e+001 -3.3446e+001  4.1490e-001 36131 103505,103479,103741
 2.0000e-001 103790 -8.6995e+001 -3.5626e+001  1.1006e+000 36131 103505,103741,103375
 2.0000e-001 103989 -9.9101e+001 -2.7535e+001  1.8453e+000 35791 103839,103917,103891
 2.0000e-001 103966 -9.1496e+001 -2.6994e+001  3.3686e+000 35791 103813,103917,103839
 2.0000e-001 103943 -9.0395e+001  2.4403e+001 -3.1628e+001 35791 103839,103891,103865
 2.0000e-001 104188 -1.5355e+001 -5.4378e+000 -1.6034e+001 35444 104038,104090,104064
 2.0000e-001 104165 -3.5495e+000  1.5241e+001  1.0191e+001 35444 104038,104116,104090
 2.0000e-001 104142 -2.4037e+001 -2.3683e+000  2.2879e+000 35444 104012,104116,104038
 2.0000e-001 104487 -8.4544e+001 -1.3382e+001  1.9781e+000 34990 104265,104317,104291
 2.0000e-001 104464 -8.1509e+001 -6.8200e+000 -5.3093e+000 34990 104510,104317,104265
 2.0000e-001 104441 -6.8303e+001 -1.3699e+001 -6.3736e+000 34990 104510,104265,104213
 2.0000e-001 104418 -8.7683e+001 -1.1017e+001  2.7461e+000 34990 104582,104343,104317
 2.0000e-001 104395 -6.1842e+001  5.1096e+000  7.1073e+000 34990 104213,104265,104239
 2.0000e-001 104536 -8.8054e+001 -1.1104e+001 -1.8653e+000 34990 104582,104317,104510
 2.0000e-001 104559 -7.6234e+001 -1.9662e+001 -3.5040e+000 34990 104369,104510,104213
 2.0000e-001 104608 -7.6423e+001 -7.0260e+000  4.7781e+000 34990 104369,104343,104582
 2.0000e-001 104631 -8.0485e+001 -7.8633e+000 -2.2016e+000 34990 104369,104582,104510
 2.0000e-001 104783 -7.8157e+001 -2.7076e+001 -1.8761e-002 34700 104938,104806,104682
 2.0000e-001 104760 -8.6251e+001 -4.9319e+001  6.8956e-002 34700 104938,104682,104656
 2.0000e-001 104832 -4.5265e+001  8.5031e+000  1.3864e+001 34700 104708,104682,104806
 2.0000e-001 104964 -8.0659e+001 -2.0577e+001  1.8663e+001 34700 104734,104806,104938
 2.0000e-001 104987 -8.6861e+001 -3.7994e+001  1.9086e+001 34700 104734,104938,104656
 2.0000e-001 105137 -2.6926e+001  1.3708e+000 -2.0249e+000 34388 105036,105088,105062
 2.0000e-001 105114 -3.1553e+001 -4.4817e+000 -4.0907e+000 34388 105010,105088,105036
 2.0000e-001 105385 -9.2040e+001 -2.0798e+001  4.3853e+000 33734 105408,105186,105160
 2.0000e-001 105362 -9.0684e+001 -2.1905e+001  3.1052e+000 33734 105408,105160,105264
 2.0000e-001 105339 -8.9847e+001 -1.2177e+001 -5.2231e-001 33734 105160,105290,105264
 2.0000e-001 105316 -8.6450e+001 -2.5437e+001  1.7586e+001 33734 105186,105238,105212
 2.0000e-001 105434 -9.0753e+001 -2.0564e+001  4.3144e+000 33734 105238,105186,105408
 2.0000e-001 105457 -8.7471e+001 -2.0547e+001  2.9713e+000 33734 105238,105408,105264
 2.0000e-001 105609  2.5594e-001 -1.0512e+000  4.9686e-001 33394 105482,105534,105508
 2.0000e-001 105586  7.4746e+000 -6.7436e-001  1.8097e+000 33394 105482,105560,105534
 2.0000e-001 105859 -7.8735e+001 -1.6195e+001 -7.9556e+000 33047 105882,105712,105660
 2.0000e-001 105836 -9.3545e+001 -1.0216e+001  8.4563e+000 33047 105882,105660,105634
 2.0000e-001 105813 -5.6661e+001 -1.6218e+001  4.4188e-001 33047 105660,105712,105686
 2.0000e-001 105790 -8.2020e+001  5.9254e+000 -2.7723e+000 33047 105634,105764,105738
 2.0000e-001 105908 -4.5977e+001  1.1474e+001 -2.0946e+001 33047 105738,105712,105882
 2.0000e-001 105931 -8.1249e+001 -4.3909e+000  7.5451e-001 33047 105738,105882,105634
 2.0000e-001 106181 -9.5341e+001 -4.7868e+001  3.8927e+000 32543 106204,106060,106008
 2.0000e-001 106158 -8.7601e+001 -4.9205e+001  2.2487e+000 32543 105956,106086,106060
 2.0000e-001 106135 -9.3487e+001 -4.3077e+001  4.3046e+000 32543 106204,106008,105982
 2.0000e-001 106112 -9.0597e+001 -5.4344e+001  4.2054e+000 32543 106008,106060,106034
 2.0000e-001 106230 -9.4416e+001 -4.9672e+001  1.0415e+000 32543 105956,106060,106204
 2.0000e-001 106253 -9.3012e+001 -4.5325e+001  1.2293e+000 32543 105956,106204,105982
 2.0000e-001 106454 -6.0356e+001 -1.2430e+001 -1.6996e+001 31839 106304,106356,106330
 2.0000e-001 106431 -7.3267e+001 -7.3030e+000  2.0440e+000 31839 106278,106356,106304
 2.0000e-001 106408 -5.0051e+001  1.2318e+001 -6.3886e+000 31839 106278,106382,106356
 2.0000e-001 106704 -8.6167e+001 -3.0148e+001 -1.5473e+000 31534 106505,106583,106557
 2.0000e-001 106681 -8.5660e+001 -2.7346e+001  1.5089e+000 31534 106479,106583,106505
 2.0000e-001 106658 -8.8488e+001 -3.7351e+001  9.4808e-001 31534 106505,106557,106531
 2.0000e-001 106635 -8.5091e+001 -2.5009e+001 -2.3712e+000 31534 106479,106609,106583
 2.0000e-001 107108 -1.1947e+002 -3.5129e+001 -8.6110e+000 31030 106886,106990,106964
 2.0000e-001 107085 -9.8514e+001 -4.4905e+001  2.6081e+000 31030 106860,106990,106886
 2.0000e-001 107062 -8.9360e+001 -4.0423e+001  4.0426e+000 31030 106834,106990,106860
 2.0000e-001 107039 -1.3291e+002 -2.0389e+001  4.5075e+000 31030 106912,106964,106938
 2.0000e-001 107016 -1.5804e+002 -5.2361e+001 -1.1976e+001 31030 106886,106964,106912
 2.0000e-001 107307 -2.7183e+001 -4.2073e+000 -2.5060e+000 30718 107330,107157,107131
 2.0000e-001 107284 -2.4340e+001 -1.8379e+000 -3.6108e+000 30718 107330,107131,107235
 2.0000e-001 107261 -2.0847e+001 -6.9832e+000 -2.1927e+000 30718 107183,107235,107209
 2.0000e-001 107356 -2.3802e+001 -8.4389e+000 -2.0040e+000 30718 107183,107157,107330
 2.0000e-001 107379 -2.0576e+001 -5.4741e+000 -3.3562e+000 30718 107183,107330,107235
 2.0000e-001 107759  6.2427e+000 -1.7661e-002  2.9390e+000 30264 107782,107615,107537
 2.0000e-001 107736  6.2350e+000  3.9772e-001 -3.9868e+000 30264 107782,107537,107485
 2.0000e-001 107713  5.9742e+000 -1.8786e+000 -3.4454e+000 30264 107485,107537,107511
 2.0000e-001 107690 -3.7393e+000  9.7655e+000  6.4502e+000 30264 107537,107615,107589
 2.0000e-001 107667 -1.6844e+000 -1.3267e+000 -6.3380e-002 30264 107537,107589,107563
 2.0000e-001 107808  1.3741e+001  2.6296e+000  4.0386e+000 30264 107641,107615,107782
 2.0000e-001 107831  1.0127e+001  1.2668e+000 -2.8063e+000 30264 107641,107782,107485
 2.0000e-001 108030 -9.0599e+001 -2.9595e+001  7.5517e+000 29874 108053,107854,107932
 2.0000e-001 108007 -7.0115e+001 -2.9391e+001  9.9655e+000 29874 107854,107958,107932
 2.0000e-001 107984 -1.0676e+002 -2.9501e+001  1.2047e+001 29874 108053,107932,107906
 2.0000e-001 108079 -8.3964e+001 -2.8720e+001  3.6301e+000 29874 107880,107854,108053
 2.0000e-001 108102 -9.3115e+001 -2.2848e+001  7.3166e+000 29874 107880,108053,107906
 2.0000e-001 108433 -5.3746e+001 -1.9381e+001 -5.6036e+000 29484 108234,108338,108312
 2.0000e-001 108410 -8.1102e+001 -1.4837e+001  2.0440e+001 29484 108208,108338,108234
 2.0000e-001 108387 -7.6056e+001 -2.9460e+001 -2.3746e+000 29484 108234,108312,108260
 2.0000e-001 108364 -6.2486e+001 -2.5644e+001  8.2609e-001 29484 108260,108312,108286
 2.0000e-001 108762 -7.2779e+001 -2.6518e+001  2.4372e-001 29080 108563,108641,108589
 2.0000e-001 108739 -7.4122e+001 -4.2788e+001  6.0772e+000 29080 108537,108641,108563
 2.0000e-001 108716 -8.0555e+001 -1.7407e+001  7.0626e+000 29080 108589,108641,108615
 2.0000e-001 108693 -6.5568e+001 -4.1811e+001 -3.5080e+000 29080 108537,108667,108641
 2.0000e-001 109189 -8.7707e+001 -3.5568e+001  7.0868e+000 28476 108892,108996,108970
 2.0000e-001 109166 -9.0954e+001 -3.4258e+001  6.7843e+000 28476 108892,109022,108996
 2.0000e-001 109143 -8.5925e+001 -3.4866e+001  6.1821e+000 28476 108892,108970,108944
 2.0000e-001 109120 -1.0797e+002 -3.2446e+001  1.0286e+001 28476 108892,109048,109022
 2.0000e-001 109097 -8.6100e+001 -3.7066e+001  7.1877e+000 28476 108892,108944,108918
 2.0000e-001 109074 -1.1966e+002 -1.1181e+001 -3.2252e-001 28476 108866,109048,108892
 2.0000e-001 109518 -7.4112e+001 -7.5935e+000 -5.5228e+000 28022 109541,109371,109345
 2.0000e-001 109495 -7.8045e+001 -1.8358e+001 -5.7927e+000 28022 109541,109345,109319
 2.0000e-001 109472 -7.7548e+001 -3.7110e+001 -5.1055e+000 28022 109293,109397,109319
 2.0000e-001 109449 -7.7247e+001 -3.8552e+001 -3.0120e+000 28022 109293,109423,109397
 2.0000e-001 109567 -6.1618e+001 -6.3760e+000  1.0462e+001 28022 109397,109371,109541
 2.0000e-001 109590 -7.2476e+001 -2.9999e+001  5.1110e+000 28022 109397,109541,109319
 2.0000e-001 109968 -7.3247e+001 -3.3763e+001 -7.9541e+000 27568 109798,109850,109824
 2.0000e-001 109945 -5.9060e+001 -1.8708e+001  8.4964e-001 27568 109694,109850,109798
 2.0000e-001 109922 -5.1392e+001 -3.8523e+001  5.3941e+000 27568 109694,109798,109746
 2.0000e-001 109899 -5.2538e+001 -3.5729e+001  2.6700e+001 27568 109746,109798,109772
 2.0000e-001 109876 -3.8091e+001 -5.9885e+000  5.8576e+000 27568 109694,109746,109720
 2.0000e-001 110167 -7.7731e+001 -3.0723e+001  5.3531e-001 27007 110017,110095,110069
 2.0000e-001 110144 -7.2930e+001 -2.6564e+001  3.2808e+000 27007 109991,110095,110017
 2.0000e-001 110121 -8.7098e+001 -3.7658e+001 -3.9841e+000 27007 110017,110069,110043
 2.0000e-001 110415 -6.4770e+001 -3.2505e+001 -2.5604e-001 26567 110438,110242,110190
 2.0000e-001 110392 -7.6117e+001 -2.4592e+001 -2.7192e+000 26567 110438,110190,110320
 2.0000e-001 110369 -7.1501e+001 -3.2793e+001 -4.1514e+000 26567 110242,110294,110268
 2.0000e-001 110346 -6.3032e+001 -2.8626e+001 -6.7697e-001 26567 110190,110242,110216
 2.0000e-001 110464 -7.0535e+001 -3.2954e+001 -4.3162e+000 26567 110294,110242,110438
 2.0000e-001 110487 -8.2483e+001 -3.1485e+001 -9.5903e+000 26567 110294,110438,110320
 2.0000e-001 110639 -7.4325e+001 -2.8336e+000 -2.2217e+000 26170 110538,110590,110564
 2.0000e-001 110616 -7.1335e+001 -3.1272e+001  2.4061e+000 26170 110512,110590,110538
 2.0000e-001 111149 -1.0082e-002  4.5425e+000 -5.3783e+000 25716 111172,110878,110852
 2.0000e-001 111126  2.1732e+000  4.9337e+000 -5.5118e+000 25716 111172,110852,111008
 2.0000e-001 111103 -5.1879e-001  7.8128e+000 -3.8658e-002 25716 110878,110930,110904
 2.0000e-001 111080  4.0000e+000  2.4296e+000 -1.0121e+001 25716 110826,111008,110852
 2.0000e-001 111057  3.4034e+000  3.5518e+000 -1.7130e+000 25716 110930,111008,110956
 2.0000e-001 111034  1.8418e+000  2.7004e+000 -1.6500e+000 25716 110956,111008,110982
 2.0000e-001 111198  1.8511e+000  3.3352e+000 -4.7074e+000 25716 110930,110878,111172
 2.0000e-001 111221  4.5156e+000  4.0670e+000 -4.8398e+000 25716 110930,111172,111008
 2.0000e-001 111420 -1.5572e+001  1.5246e+001 -2.7996e+000 25304 111443,111270,111244
 2.0000e-001 111397 -1.6756e+001  2.6637e+001 -3.5995e+000 25304 111443,111244,111348
 2.0000e-001 111374 -1.2226e+001  8.1248e+000 -1.5016e+000 25304 111270,111322,111296
 2.0000e-001 111469 -1.4865e+001  6.3624e+000 -2.8463e+000 25304 111322,111270,111443
 2.0000e-001 111492 -1.7576e+001  1.5645e+001 -4.5852e+000 25304 111322,111443,111348
 2.0000e-001 111691 -8.1889e+001 -3.5080e+001 -7.4009e+000 24736 111567,111619,111593
 2.0000e-001 111668 -8.1205e+001 -3.0657e+001 -8.5677e+000 24736 111541,111619,111567
 2.0000e-001 111645 -8.2395e+001 -2.6062e+001 -5.7171e+000 24736 111515,111619,111541
 2.0000e-001 112024 -1.3399e+001 -3.2806e+000  4.4419e+000 24146 111825,111877,111851
 2.0000e-001 112001 -1.0677e+001  6.8400e+000  3.9110e+000 24146 111825,111903,111877
 2.0000e-001 111978 -2.5349e+001 -8.5465e+000  1.0388e+001 24146 111825,111929,111903
 2.0000e-001 111955 -2.7516e+001  7.5147e-001  1.7046e+001 24146 111799,111929,111825
 2.0000e-001 112370 -9.6111e+001 -5.0767e+001  1.4162e+001 23856 112393,112151,112125
 2.0000e-001 112347 -9.4884e+001 -3.2520e+001  9.9193e+000 23856 112465,112393,112125
 2.0000e-001 112324 -9.0264e+001 -2.8584e+001  5.2315e+000 23856 112465,112125,112073
 2.0000e-001 112301 -1.0637e+002 -9.6492e+000  6.6620e+000 23856 112073,112125,112099
 2.0000e-001 112278 -7.1855e+001 -1.9534e+001 -2.7849e+000 23856 112047,112229,112073
 2.0000e-001 112255 -7.4757e+001 -3.5272e+001 -4.0049e+000 23856 112151,112203,112177
 2.0000e-001 112419 -8.1691e+001 -3.6573e+001  3.5140e+000 23856 112203,112151,112393
 2.0000e-001 112442 -9.4032e+001 -3.8107e+001  1.5599e+000 23856 112203,112393,112229
 2.0000e-001 112491 -8.7221e+001 -3.3093e+001 -8.9806e-001 23856 112229,112393,112465
 2.0000e-001 112514 -8.0444e+001 -2.2255e+001 -6.3372e+000 23856 112229,112465,112073
 2.0000e-001 112784 -1.1698e+002  6.4241e+000 -1.3405e+001 23494 112611,112663,112637
 2.0000e-001 112761 -1.0499e+002 -2.3967e+001 -1.1383e+001 23494 112585,112663,112611
 2.0000e-001 112738 -1.0827e+002 -2.5063e+001  7.5772e-002 23494 112559,112663,112585
 2.0000e-001 112715 -1.0167e+002  5.5884e-001  4.3306e+000 23494 112559,112689,112663
 2.0000e-001 113117 -6.1737e+001 -1.5577e+001 -8.6296e+000 22974 112944,113022,112996
 2.0000e-001 113094 -5.0712e+001 -2.3310e+001 -5.7997e+000 22974 112918,113022,112944
 2.0000e-001 113071 -6.1001e+001 -2.1972e+001 -1.6769e+001 22974 112944,112996,112970
 2.0000e-001 113048 -3.9683e+001  2.7622e+000 -4.6615e+000 22974 112892,113022,112918
 2.0000e-001 113414 -8.4838e+001 -1.8129e+001  2.2087e+000 22370 113192,113296,113218
 2.0000e-001 113391 -9.0543e+001 -3.6581e+001 -2.5820e+000 22370 113140,113296,113192
 2.0000e-001 113368 -8.3463e+001 -1.3066e+001  1.0107e+001 22370 113218,113296,113270
 2.0000e-001 113345 -7.3195e+001 -1.1576e+001  2.0040e+001 22370 113218,113270,113244
 2.0000e-001 113322 -7.4047e+001 -9.4760e+000 -1.5587e+001 22370 113140,113192,113166
 2.0000e-001 113662 -6.9021e+001 -7.5418e+000  1.7176e+000 21916 113685,113515,113489
 2.0000e-001 113639 -7.2404e+001  1.5662e+000  2.0884e+000 21916 113685,113489,113437
 2.0000e-001 113616 -7.1167e+001  2.2920e-001  4.3937e+000 21916 113757,113567,113541
 2.0000e-001 113593 -7.2329e+001  3.9970e+000 -4.5048e+000 21916 113437,113489,113463
 2.0000e-001 113711 -6.6291e+001  6.3560e+000 -3.6885e+000 21916 113541,113515,113685
 2.0000e-001 113734 -7.0627e+001  5.8468e+000  1.3097e+000 21916 113757,113541,113685
 2.0000e-001 113783 -6.8956e+001 -5.2750e+000  2.1396e+000 21916 113437,113567,113757
 2.0000e-001 113806 -7.1373e+001 -2.6045e+000  1.0134e+000 21916 113437,113757,113685
 2.0000e-001 114056 -6.5451e+001 -6.1598e+000 -1.1048e+000 21412 113857,113909,113883
 2.0000e-001 114033 -6.3438e+001 -4.3964e-002 -1.1991e+000 21412 114079,113909,113857
 2.0000e-001 114010 -7.4616e+001 -4.7622e+000 -5.8489e-001 21412 114079,113857,113961
 2.0000e-001 113987 -6.4856e+001 -1.9484e+000  6.4689e-001 21412 113831,113961,113857
 2.0000e-001 114105 -7.2577e+001  3.0460e+000 -6.3821e+000 21412 113935,113909,114079
 2.0000e-001 114128 -8.0180e+001  2.6001e-001 -5.7444e+000 21412 113935,114079,113961
 2.0000e-001 114378 -7.6619e+001 -2.5684e+001 -2.8037e+000 21022 114401,114257,114205
 2.0000e-001 114355 -8.2667e+001 -2.7550e+001 -1.1486e+001 21022 114401,114205,114179
 2.0000e-001 114332 -6.3343e+001 -2.4077e+001 -6.3076e+000 21022 114153,114283,114179
 2.0000e-001 114309 -9.5485e+001 -2.0018e+001 -7.6401e-001 21022 114205,114257,114231
 2.0000e-001 114427 -6.4360e+001 -2.3056e+001  1.7417e+000 21022 114283,114257,114401
 2.0000e-001 114450 -7.3371e+001 -2.5909e+001 -6.6598e+000 21022 114283,114401,114179
 2.0000e-001 114651 -7.0434e+000  9.0016e+000  1.1270e+000 20618 114501,114553,114527
 2.0000e-001 114628 -1.7068e+001  3.9337e+000  2.9584e+000 20618 114501,114579,114553
 2.0000e-001 114605 -2.0268e+001  3.2185e+000  2.4114e+000 20618 114475,114579,114501
 2.0000e-001 114901 -5.9470e+001  4.4684e+000 -3.4302e+000 20114 114676,114780,114702
 2.0000e-001 114878 -4.9224e+001  1.1438e+001 -7.4777e+000 20114 114676,114806,114780
 2.0000e-001 114855 -7.1242e+001  3.9181e+000 -4.1575e+000 20114 114702,114780,114754
 2.0000e-001 114832 -1.2804e+002 -1.4581e+001 -4.1503e+000 20114 114702,114754,114728
 2.0000e-001 115053 -7.6254e+001  1.7222e+000  2.4733e+000 19460 115147,115076,114926
 2.0000e-001 115030 -8.2111e+001  8.9583e+000  5.4745e-001 19460 115147,114926,115004
 2.0000e-001 115102 -7.9094e+001 -5.3393e+000  3.0658e+000 19460 114952,114926,115076
 2.0000e-001 115173 -8.1164e+001 -8.9963e+000  3.8962e-001 19460 114978,115076,115147
 2.0000e-001 115196 -8.6578e+001 -5.4538e-001 -1.9728e+000 19460 114978,115147,115004
 2.0000e-001 115446 -6.4883e+000  6.7709e+000 -8.4335e-001 19006 115273,115351,115299
 2.0000e-001 115423 -8.9385e+000  7.3190e+000 -5.6847e-001 19006 115247,115351,115273
 2.0000e-001 115400 -8.6345e+000  6.2802e+000 -9.2631e+000 19006 115221,115351,115247
 2.0000e-001 115377 -7.3328e+000 -1.0857e-001 -2.0962e+000 19006 115299,115351,115325
 2.0000e-001 115767 -6.5973e+001 -1.7208e+001 -4.0839e+000 18716 115571,115649,115623
 2.0000e-001 115744 -6.5893e+001 -9.8462e+000 -6.4606e+000 18716 115493,115649,115571
 2.0000e-001 115721 -7.1357e+001 -8.9818e+000 -3.4037e+000 18716 115493,115571,115545
 2.0000e-001 115698 -7.0764e+001  6.0447e-001 -1.1474e+001 18716 115493,115545,115519
 2.0000e-001 115675 -5.4341e+001 -9.9931e+000  1.6110e+000 18716 115571,115623,115597
 2.0000e-001 116039 -1.0069e+002 -2.5933e+001  9.8727e+000 18312 115814,115892,115840
 2.0000e-001 116016 -8.9017e+001  1.3562e+000  1.0358e+001 18312 115814,115944,115892
 2.0000e-001 115993 -1.0247e+002 -7.2301e+000  5.5862e+000 18312 115892,115944,115918
 2.0000e-001 115970 -4.5508e+001  1.2162e+000  1.2019e+000 18312 115840,115892,115866
 2.0000e-001 116191 -8.2508e+000  1.6573e+001 -2.9056e-001 18000 116090,116142,116116
 2.0000e-001 116168 -6.4707e+000  1.9135e+001  5.1869e-001 18000 116064,116142,116090
 2.0000e-001 116343 -8.2334e+001 -1.2969e+000 -5.2883e-001 17396 116242,116294,116268
 2.0000e-001 116320 -8.7861e+001  1.9791e+001  9.1721e+000 17396 116216,116294,116242
 2.0000e-001 116566 -8.2898e+001 -3.2180e+001  6.2602e+000 16942 116390,116468,116442
 2.0000e-001 116543 -1.1651e+002 -3.6599e+001  1.1694e+001 16942 116390,116494,116468
 2.0000e-001 116520 -8.9518e+001 -4.7638e+001  2.2733e+000 16942 116390,116442,116416
 2.0000e-001 116767 -5.8083e+001 -2.7633e+000  1.3725e+000 16438 116790,116643,116617
 2.0000e-001 116744 -7.0383e+001  8.4767e+000  1.1979e+000 16438 116790,116617,116591
 2.0000e-001 116721 -5.5923e+001  4.6163e+000 -3.1034e+000 16438 116643,116695,116669
 2.0000e-001 116816 -5.6239e+001  5.5722e+000 -2.3257e+000 16438 116695,116643,116790
 2.0000e-001 116839 -6.0480e+001  1.8637e+001 -6.6372e+000 16438 116695,116790,116591
 2.0000e-001 117062 -1.3513e+001 -4.7548e+000 -2.9842e-001 16074 116886,116938,116912
 2.0000e-001 117039 -2.6751e+001 -1.2026e+001  2.8259e+000 16074 116886,116990,116938
 2.0000e-001 117016 -2.3779e+001 -1.5042e+000  3.8903e+000 16074 116938,116990,116964
 2.0000e-001 117214 -1.2672e+002 -6.7414e+001 -9.3646e+000 15649 117087,117139,117113
 2.0000e-001 117191 -1.3410e+002 -7.4316e+001  2.1606e-001 15649 117087,117165,117139
 2.0000e-001 117317 -1.5585e+001 -2.7982e+001  1.0584e+000 421 117239,117291,117265
 3.0000e-001 70632 -4.0828e+001 -1.1014e+000  6.3584e+000 70072 70482,70534,70508
 3.0000e-001 70609 -4.7794e+001 -3.2215e+000  4.4849e-001 70072 70482,70560,70534
 3.0000e-001 70586 -2.1592e+002 -7.0533e+001 -7.3674e+000 70072 70456,70560,70482
 3.0000e-001 70951 -1.7946e+002  6.7401e+001  0.0000e+000 69874 70703,70755,70729
 3.0000e-001 70928 -1.9583e+002  6.3162e+001  2.1869e+001 69874 70703,70781,70755
 3.0000e-001 70905 -1.9892e+002 -1.1845e+000  1.9910e+001 69874 70703,70807,70781
 3.0000e-001 70882 -1.9223e+002  1.6549e+001  1.5084e+001 69874 70703,70833,70807
 3.0000e-001 70859  1.7628e+001  1.0575e+002  9.1172e+000 69874 70677,70833,70703
 3.0000e-001 71199 -1.0703e+002 -3.5143e+001  8.1819e+000 69698 71222,71052,71026
 3.0000e-001 71176 -9.4661e+001 -8.1673e+000  1.4949e+001 69698 71294,71222,71026
 3.0000e-001 71153 -1.0362e+002 -2.2011e+001  3.7717e+000 69698 71294,71026,71000
 3.0000e-001 71130 -1.4098e+002  8.0018e+000  1.8923e+001 69698 71366,71104,71078
 3.0000e-001 71248 -1.0278e+002 -4.8513e+000  1.5076e+001 69698 71078,71052,71222
 3.0000e-001 71271 -1.0945e+002  1.7105e+000  2.9581e+001 69698 71366,71078,71222
 3.0000e-001 71320 -7.8193e+001 -9.1511e+000  2.7269e+001 69698 70974,71222,71294
 3.0000e-001 71343 -7.8155e+001 -9.8750e+000  1.7893e+001 69698 70974,71294,71000
 3.0000e-001 71392 -1.0591e+002  3.6014e+001  3.1169e+001 69698 70974,71104,71366
 3.0000e-001 71415 -9.0982e+001  1.9306e+001  3.8602e+001 69698 70974,71366,71222
 3.0000e-001 71516 -1.7138e+002 -2.3993e+001  1.6846e+001 69386 71438,71490,71464
 3.0000e-001 71869 -1.4446e+002 -3.5008e+001  4.5867e-001 69188 71644,71748,71670
 3.0000e-001 71846 -1.2951e+002 -5.9554e+001  9.6371e+000 69188 71644,71774,71748
 3.0000e-001 71823 -1.6280e+002 -8.1038e+001  4.5692e+000 69188 71670,71748,71722
 3.0000e-001 71800 -1.0235e+002  5.5559e+001  2.7964e+001 69188 71670,71722,71696
 3.0000e-001 72019 -2.4807e+002 -5.3463e+001  3.8336e+001 68990 71918,71970,71944
 3.0000e-001 71996 -3.0629e+002 -1.8446e+001  2.3278e+001 68990 71892,71970,71918
 3.0000e-001 72316 -1.8039e+002 -6.5528e+001  6.6178e+000 68586 72339,72172,72146
 3.0000e-001 72293 -1.8758e+002 -8.2772e+001  8.5661e+000 68586 72339,72146,72120
 3.0000e-001 72270 -1.8550e+002 -8.5650e+001  2.4040e+001 68586 72411,72068,72198
 3.0000e-001 72247 -2.1748e+002 -9.0173e+001  2.3231e+001 68586 72042,72198,72068
 3.0000e-001 72224 -1.5984e+002 -5.2983e+001  1.6012e+001 68586 72068,72120,72094
 3.0000e-001 72365 -1.8874e+002 -6.3217e+001  1.8071e+001 68586 72198,72172,72339
 3.0000e-001 72388 -1.9539e+002 -7.8593e+001  1.9795e+001 68586 72411,72198,72339
 3.0000e-001 72437 -1.7197e+002 -7.8018e+001  2.0299e+001 68586 72120,72068,72411
 3.0000e-001 72460 -1.8213e+002 -6.9884e+001  1.5772e+001 68586 72120,72411,72339
 3.0000e-001 72864 -1.4353e+002 -4.0566e+001  2.1407e+000 68388 72642,72694,72668
 3.0000e-001 72841 -1.5194e+002 -4.9934e+001  7.4272e+000 68388 72616,72694,72642
 3.0000e-001 72818 -1.6536e+002 -5.8183e+001 -3.6153e+000 68388 72616,72720,72694
 3.0000e-001 72795 -1.7776e+002 -4.6339e+001  3.7285e+000 68388 72590,72720,72616
 3.0000e-001 72772 -2.1722e+002  8.3727e+000 -5.3506e+001 68388 72590,72746,72720
 3.0000e-001 73321 -1.4605e+002 -9.9692e+001 -5.2990e+000 68048 73073,73203,73177
 3.0000e-001 73298 -1.4058e+002 -7.3457e+001  2.3369e+001 68048 73047,73203,73073
 3.0000e-001 73275 -1.8519e+002 -6.6188e+001  6.4778e-001 68048 73125,73177,73151
 3.0000e-001 73252 -1.6953e+002 -6.3517e+001 -3.6757e+000 68048 73073,73177,73125
 3.0000e-001 73229 -1.5646e+002 -3.2929e+001  1.7140e+000 68048 73073,73125,73099
 3.0000e-001 73640 -2.6050e+002 -4.3559e+001  5.2673e+000 67850 73444,73496,73470
 3.0000e-001 73617 -2.0461e+002 -5.8068e+001  5.3652e-001 67850 73418,73496,73444
 3.0000e-001 73594 -1.9662e+002 -3.7429e+001  3.2015e+000 67850 73392,73496,73418
 3.0000e-001 73571 -1.6128e+002 -3.8487e+001  1.5321e+001 67850 73392,73522,73496
 3.0000e-001 73548 -1.2500e+002 -8.7032e+000 -2.5960e+001 67850 73366,73522,73392
 3.0000e-001 73790 -1.8687e+002 -8.9505e+001 -1.2830e+000 67602 73689,73741,73715
 3.0000e-001 73767 -1.7681e+002 -6.6164e+001  1.2341e-001 67602 73663,73741,73689
 3.0000e-001 74040 -2.0562e+002 -8.5713e+001 -2.3345e+000 67290 73841,73945,73919
 3.0000e-001 74017 -1.8117e+002 -8.4428e+001 -1.0343e+001 67290 73815,73945,73841
 3.0000e-001 73994 -1.8988e+002 -8.2999e+001  1.0413e+001 67290 73841,73919,73867
 3.0000e-001 73971 -1.8682e+002 -7.3877e+001  6.9264e+000 67290 73867,73919,73893
 3.0000e-001 74143 -2.2497e+002  7.2433e-001 -3.9971e+000 67092 74065,74117,74091
 3.0000e-001 74415 -1.3875e+002 -4.4446e+000 -1.6111e+001 66894 74190,74294,74216
 3.0000e-001 74392 -8.9209e+001  1.9696e+001 -2.6109e+000 66894 74190,74320,74294
 3.0000e-001 74369 -1.5221e+002 -1.4865e+001 -2.6749e+001 66894 74216,74294,74242
 3.0000e-001 74346 -1.4295e+002  5.6073e+001 -3.0408e+001 66894 74242,74294,74268
 3.0000e-001 75023 -1.8987e+002 -5.5981e+001  1.2003e+001 66532 74654,74836,74810
 3.0000e-001 75000 -1.2608e+002 -4.6401e+001  1.6346e+001 66532 74628,74836,74654
 3.0000e-001 74977 -1.5315e+002 -6.4270e+001 -8.3340e+000 66532 74706,74784,74732
 3.0000e-001 74954 -1.8017e+002 -8.9923e+001 -2.3358e+001 66532 74680,74784,74706
 3.0000e-001 74931 -2.1523e+002 -9.7079e+001 -2.6256e+001 66532 74680,74810,74784
 3.0000e-001 74908 -1.5789e+002 -5.4973e+001  1.1081e+001 66532 74654,74810,74680
 3.0000e-001 74885 -1.8152e+002 -5.0630e+001  1.8128e+001 66532 74602,74836,74628
 3.0000e-001 74862 -1.7523e+002 -6.6748e+001  2.8578e+000 66532 74732,74784,74758
 3.0000e-001 75222 -1.9612e+002 -3.9865e+001  4.7804e+000 66242 75072,75150,75124
 3.0000e-001 75199 -1.4794e+002 -3.7120e+001 -1.1392e+001 66242 75046,75150,75072
 3.0000e-001 75176 -2.0845e+002 -3.0733e+001 -5.4381e+000 66242 75072,75124,75098
 3.0000e-001 75470 -2.2636e+002  5.3725e+000  6.0241e+000 65838 75297,75375,75349
 3.0000e-001 75447 -2.1604e+002 -9.1953e+000  1.0692e+001 65838 75271,75375,75297
 3.0000e-001 75424 -1.5604e+002  6.5876e+001  4.3289e+001 65838 75297,75349,75323
 3.0000e-001 75401 -1.8793e+002  2.5165e+000  1.1201e+001 65838 75245,75375,75271
 3.0000e-001 75671  1.3809e+001 -3.4746e+000  3.4848e+000 65640 75495,75573,75521
 3.0000e-001 75648  1.9216e+001  6.3591e-001 -1.4327e-001 65640 75495,75599,75573
 3.0000e-001 75625  3.8229e+000 -4.1399e+000  4.7377e+000 65640 75521,75573,75547
 3.0000e-001 75872 -1.3252e+002 -5.3139e+001 -6.5985e+000 65300 75895,75748,75722
 3.0000e-001 75849 -1.3419e+002 -2.1938e+001  1.0667e+001 65300 75895,75722,75696
 3.0000e-001 75826 -1.1758e+002  2.7523e+001 -3.3134e+001 65300 75967,75774,75748
 3.0000e-001 75921 -1.1891e+002  8.6598e-001 -2.1323e+000 65300 75967,75748,75895
 3.0000e-001 75944 -1.2992e+002  3.3040e+001  2.8357e+001 65300 75800,75895,75696
 3.0000e-001 75993 -1.6912e+002 -1.3007e+001 -1.5454e+001 65300 75800,75774,75967
 3.0000e-001 76016 -1.6666e+002 -3.0412e+001  1.1581e+001 65300 75800,75967,75895
 3.0000e-001 76371 -1.6275e+002 -5.6514e+001  1.0873e+001 64896 76146,76250,76172
 3.0000e-001 76348 -1.6461e+002 -7.3494e+001  2.2266e+000 64896 76146,76276,76250
 3.0000e-001 76325 -1.2864e+002 -4.7544e+001 -2.9388e+000 64896 76172,76250,76198
 3.0000e-001 76302 -2.4789e+002 -9.9034e+001 -1.7790e+001 64896 76198,76250,76224
 3.0000e-001 76570 -2.2136e+002 -2.0351e+001  2.4286e+001 64442 76446,76498,76472
 3.0000e-001 76547 -1.9393e+002  9.6438e+000 -4.3308e+000 64442 76420,76498,76446
 3.0000e-001 76524 -1.9298e+002  1.7477e+001 -5.6213e+000 64442 76394,76498,76420
 3.0000e-001 76999 -1.5340e+002 -5.2824e+001  8.6696e-001 63924 77022,76728,76702
 3.0000e-001 76976 -1.6038e+002 -5.7400e+001  3.1296e+000 63924 77022,76702,76832
 3.0000e-001 76953 -1.5940e+002 -6.2311e+001 -1.9964e+001 63924 76728,76806,76754
 3.0000e-001 76930 -1.9776e+002 -7.6491e+001 -3.7794e+000 63924 76676,76832,76702
 3.0000e-001 76907 -1.8585e+002 -2.7815e+001 -1.7355e+001 63924 76754,76806,76780
 3.0000e-001 76884 -2.1168e+002 -4.5826e+001 -1.9075e+000 63924 76676,76858,76832
 3.0000e-001 77048 -1.6261e+002 -4.8192e+001  5.9946e-001 63924 76806,76728,77022
 3.0000e-001 77071 -1.6891e+002 -5.2102e+001  2.6064e+000 63924 76806,77022,76832
 3.0000e-001 77449 -1.3105e+002 -1.3740e+001  1.3273e+001 63320 77472,77253,77201
 3.0000e-001 77426 -1.3322e+002 -3.0668e+001 -3.0852e+000 63320 77472,77201,77175
 3.0000e-001 77403 -1.5923e+002 -4.4853e+001 -6.3894e+000 63320 77175,77305,77279
 3.0000e-001 77380 -1.4528e+002 -5.0308e+001  4.3330e+001 63320 77201,77253,77227
 3.0000e-001 77357 -1.5492e+002 -4.1076e+001 -1.2934e+001 63320 77175,77331,77305
 3.0000e-001 77498 -1.3599e+002 -4.5885e+001  1.1565e+001 63320 77279,77253,77472
 3.0000e-001 77521 -1.3362e+002 -4.6804e+001 -8.5057e+000 63320 77279,77472,77175
 3.0000e-001 77769 -1.5059e+002 -3.6614e+001 -4.3086e-001 62816 77570,77622,77596
 3.0000e-001 77746 -1.5651e+002 -5.7641e+001  1.6595e+000 62816 77570,77648,77622
 3.0000e-001 77723 -1.8667e+002 -5.6192e+001 -4.2553e+001 62816 77570,77674,77648
 3.0000e-001 77700 -1.4511e+002 -3.1500e+001 -3.2239e+001 62816 77544,77674,77570
 3.0000e-001 78149 -1.7481e+002 -9.5911e+001 -6.6220e+000 62354 77953,78031,78005
 3.0000e-001 78126 -1.7344e+002 -8.0988e+001 -4.6455e+000 62354 77901,78031,77953
 3.0000e-001 78103 -1.7256e+002 -8.0736e+001 -6.2848e+000 62354 77875,78031,77901
 3.0000e-001 78080 -2.0321e+002 -6.7487e+001  2.3079e+001 62354 77901,77953,77927
 3.0000e-001 78057 -2.5701e+002 -9.7578e+001 -1.8546e+001 62354 77953,78005,77979
 3.0000e-001 78606 -1.1759e+002 -7.5475e+001 -3.3899e+001 61950 78384,78436,78410
 3.0000e-001 78583 -1.1115e+002 -5.0229e+001  1.8653e-001 61950 78358,78436,78384
 3.0000e-001 78560 -1.1273e+002 -7.7026e+001  1.3669e+001 61950 78358,78488,78436
 3.0000e-001 78537 -9.0179e+001 -2.4848e+001  8.2042e+000 61950 78436,78488,78462
 3.0000e-001 78514 -1.1153e+002 -7.9054e+001  1.2539e+001 61950 78332,78488,78358
 3.0000e-001 78756 -1.8643e+002 -7.0129e+001  1.0320e+001 61339 78779,78655,78629
 3.0000e-001 78733 -1.7961e+002 -5.2432e+001  6.9630e+000 61339 78779,78629,78707
 3.0000e-001 78805 -1.6379e+002 -3.6276e+001 -8.3504e+000 61339 78851,78779,78681
 3.0000e-001 78828 -2.0391e+002 -6.1144e+001  2.4200e+000 61339 78681,78779,78707
 3.0000e-001 78877 -1.8625e+002 -9.1697e+001  2.6929e+000 61339 78655,78779,78851
 3.0000e-001 79206 -1.3644e+002 -1.0416e+001 -4.2766e+001 60892 79229,79007,78981
 3.0000e-001 79183 -1.6127e+002 -7.1343e+001 -4.3770e+001 60892 79229,78981,79111
 3.0000e-001 79160 -1.6300e+002 -2.3753e+001 -2.0630e+001 60892 79301,79033,79007
 3.0000e-001 79137 -1.6918e+002 -1.4846e+001  1.3336e+001 60892 79033,79085,79059
 3.0000e-001 79255 -1.6379e+002 -1.9133e+001 -2.4052e+001 60892 79301,79007,79229
 3.0000e-001 79278 -1.2677e+002 -3.4510e+001 -2.2223e+001 60892 79085,79229,79111
 3.0000e-001 79327 -1.7814e+002 -4.6745e+001 -2.2896e+000 60892 79085,79033,79301
 3.0000e-001 79350 -1.5135e+002 -2.7885e+001 -1.1314e+001 60892 79085,79301,79229
 3.0000e-001 79647 -2.3361e+002 -1.0148e+002 -1.2857e+001 60488 79451,79529,79503
 3.0000e-001 79624 -2.2965e+002 -9.5349e+001 -1.6544e+001 60488 79425,79529,79451
 3.0000e-001 79601 -1.8159e+002 -7.9623e+001 -9.0033e+000 60488 79373,79529,79425
 3.0000e-001 79578 -1.7918e+002 -7.4936e+001 -8.1063e+000 60488 79373,79425,79399
 3.0000e-001 79555 -2.0309e+002 -2.7451e+001  8.2845e+000 60488 79451,79503,79477
 3.0000e-001 79870 -1.9117e+002 -7.9608e+001 -6.4640e+000 60026 79720,79798,79772
 3.0000e-001 79847 -2.6881e+002 -1.0223e+002 -1.4643e+001 60026 79694,79798,79720
 3.0000e-001 79824 -2.4743e+002 -1.0148e+002 -2.3360e+000 60026 79720,79772,79746
 3.0000e-001 80120 -6.4813e+001 -4.4312e+000  1.9732e+001 59629 79921,80025,79973
 3.0000e-001 80097 -3.2570e+001 -1.1644e-001  1.9500e+001 59629 79895,80025,79921
 3.0000e-001 80074 -5.4940e+001 -8.2874e-001 -9.0092e+000 59629 79973,80025,79999
 3.0000e-001 80051 -4.5107e+001  1.4010e+001  1.2096e+001 59629 79921,79973,79947
 3.0000e-001 80321 -1.1632e+002 -1.4182e+001  1.1729e+000 59125 80344,80171,80145
 3.0000e-001 80298 -1.1126e+002 -2.7397e+001 -2.9730e+000 59125 80344,80145,80249
 3.0000e-001 80275 -1.0695e+002 -3.1215e+001  6.2841e+000 59125 80197,80249,80223
 3.0000e-001 80370 -1.1142e+002 -5.5760e+000  7.4517e+000 59125 80197,80171,80344
 3.0000e-001 80393 -1.0652e+002 -1.8356e+001  3.0842e+000 59125 80197,80344,80249
 3.0000e-001 80952 -1.0666e+002 -5.5894e+001  1.5794e+001 58557 80975,80632,80606
 3.0000e-001 80929 -1.4120e+002 -6.3414e+001  2.3141e+001 58557 81119,80975,80606
 3.0000e-001 80906 -1.3704e+002 -6.1639e+001 -2.8353e+000 58557 81047,80684,80632
 3.0000e-001 80883 -1.6726e+002 -7.4371e+001  2.4578e+001 58557 81119,80606,80580
 3.0000e-001 80860 -1.3614e+002 -6.5838e+000 -1.3320e+000 58557 81191,80736,80710
 3.0000e-001 80837 -1.2718e+002 -1.8323e+001 -6.6689e+000 58557 80736,80788,80762
 3.0000e-001 80814 -1.2501e+002 -6.4653e+001 -8.8098e+000 58557 80632,80684,80658
 3.0000e-001 81001 -1.3456e+002 -7.1452e+001  3.3012e+000 58557 81047,80632,80975
 3.0000e-001 81024 -1.3809e+002 -3.7047e+001  2.5437e+000 58557 81191,80710,80975
 3.0000e-001 81073 -1.3509e+002 -3.9450e+001 -8.6898e+000 58557 80710,80684,81047
 3.0000e-001 81096 -1.4007e+002 -5.4864e+001 -5.5599e-002 58557 80710,81047,80975
 3.0000e-001 81145 -1.4740e+002 -6.7880e+001  7.9698e+000 58557 80788,80975,81119
 3.0000e-001 81168 -1.5262e+002 -7.0267e+001  1.0051e+001 58557 80788,81119,80580
 3.0000e-001 81217 -1.4133e+002 -3.4671e+001  9.6472e+000 58557 80788,80736,81191
 3.0000e-001 81240 -1.3637e+002 -5.1288e+001  1.5966e+001 58557 80788,81191,80975
 3.0000e-001 81537 -4.2656e+001  7.0971e+001 -8.9849e+000 57881 81560,81341,81289
 3.0000e-001 81514 -4.4307e+001  7.1802e+001 -7.1454e+001 57881 81560,81289,81263
 3.0000e-001 81491 -6.4466e+001  2.0240e+001 -5.2448e+001 57881 81632,81419,81367
 3.0000e-001 81468 -7.9487e+001  5.2173e-001 -2.5209e+000 57881 81367,81419,81393
 3.0000e-001 81445 -1.5941e+002  9.4127e+001  1.8029e+001 57881 81289,81341,81315
 3.0000e-001 81586 -7.4316e+001 -4.5041e+000 -1.2621e+001 57881 81367,81341,81560
 3.0000e-001 81609 -7.3740e+001  6.2220e+001 -3.8245e+001 57881 81632,81367,81560
 3.0000e-001 81658 -8.4356e+001 -7.9777e+001 -6.0947e+001 57881 81263,81419,81632
 3.0000e-001 81681 -7.6492e+001 -5.5344e+000 -5.5501e+001 57881 81263,81632,81560
 3.0000e-001 81929  5.9452e+000  8.0719e+000  1.0653e+001 57477 81704,81808,81782
 3.0000e-001 81906  3.9071e+000 -1.0585e+001  1.8583e+001 57477 81704,81834,81808
 3.0000e-001 81883  8.5976e+000 -1.4972e+000  3.6610e+000 57477 81704,81782,81730
 3.0000e-001 81860  3.7737e+000  1.9390e+000  2.7531e+000 57477 81730,81782,81756
 3.0000e-001 82488 -1.4673e+002 -5.9458e+001  1.3720e+001 56966 82583,82511,82194
 3.0000e-001 82465 -1.4376e+002 -6.2491e+001  7.5222e+000 56966 82511,82116,82324
 3.0000e-001 82442 -1.5125e+002 -5.2684e+001  1.2391e+001 56966 82583,82194,82168
 3.0000e-001 82419 -1.7934e+002 -5.5593e+001 -4.4536e-001 56966 82194,82246,82220
 3.0000e-001 82396 -1.2964e+002 -2.4143e+001  2.6221e+001 56966 82194,82298,82246
 3.0000e-001 82373 -1.5687e+002 -6.0741e+001  4.1088e+001 56966 82246,82298,82272
 3.0000e-001 82350 -1.4104e+002 -4.0662e+001  3.2467e+000 56966 82116,82168,82142
 3.0000e-001 82537 -1.5223e+002 -6.5836e+001  1.7613e+001 56966 82298,82194,82511
 3.0000e-001 82560 -1.4386e+002 -7.2061e+001  1.3029e+001 56966 82298,82511,82324
 3.0000e-001 82609 -1.5091e+002 -6.6731e+001  1.1882e+001 56966 82116,82511,82583
 3.0000e-001 82632 -1.5532e+002 -6.0365e+001  1.0835e+001 56966 82116,82583,82168
 3.0000e-001 83236 -2.2584e+002 -6.0680e+001 -4.3496e+001 56304 82893,82945,82919
 3.0000e-001 83213 -1.7734e+002 -6.5091e+001 -6.4748e+000 56304 83259,82945,82893
 3.0000e-001 83190 -1.7131e+002 -7.1136e+001 -9.8745e+000 56304 83259,82893,83049
 3.0000e-001 83167 -1.5918e+002 -9.1444e+001  3.7443e+000 56304 82971,83049,83023
 3.0000e-001 83144 -1.7104e+002 -7.5876e+001 -6.3585e+000 56304 82815,83049,82893
 3.0000e-001 83121 -1.5906e+002 -7.1056e+000 -2.4876e+000 56304 82815,82893,82867
 3.0000e-001 83098 -1.3792e+002 -7.9603e+001 -7.2521e+000 56304 82971,83023,82997
 3.0000e-001 83075 -1.8729e+002 -7.9676e+001 -7.5613e+000 56304 82815,82867,82841
 3.0000e-001 83285 -1.8725e+002 -7.4099e+001 -9.1287e-001 56304 82971,82945,83259
 3.0000e-001 83308 -1.7663e+002 -7.2195e+001 -6.4909e+000 56304 82971,83259,83049
 3.0000e-001 83556 -1.5005e+002 -2.5006e+001 -9.4667e+000 55964 83357,83461,83435
 3.0000e-001 83533 -1.7028e+002  4.3607e+000  3.8150e+000 55964 83331,83461,83357
 3.0000e-001 83510 -5.9351e+001 -8.4305e+000  1.9441e+000 55964 83357,83435,83383
 3.0000e-001 83487 -1.0507e+002 -3.3806e+001 -9.0350e+000 55964 83383,83435,83409
 3.0000e-001 83706 -1.8214e+002 -1.0047e+002  7.6198e-001 55503 83579,83631,83605
 3.0000e-001 83683 -1.9900e+002 -1.0607e+002  4.7678e+000 55503 83579,83657,83631
 3.0000e-001 83907 -1.1731e+002 -4.9669e+001 -2.4119e+001 55156 83757,83835,83809
 3.0000e-001 83884 -1.0382e+002 -1.0467e+001 -1.2178e+001 55156 83731,83835,83757
 3.0000e-001 83861 -1.2620e+002 -1.1384e+001 -1.5942e+001 55156 83757,83809,83783
 3.0000e-001 84240 -1.0258e+002 -2.5587e+001  7.7140e+000 54652 84093,84145,84119
 3.0000e-001 84217 -1.5759e+002 -3.0403e+001  3.3481e+001 54652 84041,84145,84093
 3.0000e-001 84194 -1.7060e+002 -4.4491e+001  2.4122e+001 54652 84015,84145,84041
 3.0000e-001 84171 -2.3379e+002 -6.5006e+001  2.4241e+001 54652 84041,84093,84067
 3.0000e-001 84618 -4.6408e+001 -1.5165e+001 -2.1485e+000 53926 84396,84500,84474
 3.0000e-001 84595 -4.5416e+001 -1.5186e+000 -2.3354e+000 53926 84344,84500,84396
 3.0000e-001 84572 -4.6172e+001 -4.2200e+000 -3.3254e+000 53926 84344,84396,84370
 3.0000e-001 84549 -6.7359e+001 -2.2112e+001 -6.7774e+000 53926 84396,84474,84422
 3.0000e-001 84526 -5.7853e+001 -1.5192e+001 -3.2515e+000 53926 84422,84474,84448
 3.0000e-001 85350 -2.0310e+002 -7.5622e+001 -2.9883e+001 53586 85373,84880,85088
 3.0000e-001 85327 -1.2341e+002 -7.8472e+001 -2.7840e+001 53586 84880,85114,85088
 3.0000e-001 85304 -1.3829e+002 -4.2901e+001 -1.3102e+001 53586 85373,85088,85062
 3.0000e-001 85281 -2.0258e+002 -7.7776e+001  6.4406e+001 53586 85010,85062,85036
 3.0000e-001 85258 -1.9098e+002 -3.8864e+001  2.0780e+001 53586 85445,85010,84958
 3.0000e-001 85235 -1.0242e+002 -1.5134e+001 -1.0711e+001 53586 85445,84958,84906
 3.0000e-001 85212 -1.6353e+002 -2.0441e+001  9.9407e+000 53586 84958,85010,84984
 3.0000e-001 85189 -1.4347e+002 -4.4592e+001 -3.1728e+001 53586 84906,84958,84932
 3.0000e-001 85166 -1.3583e+002 -1.0130e+002 -1.5796e+001 53586 84880,85140,85114
 3.0000e-001 85399 -2.2419e+002 -5.6216e+001  4.6878e+001 53586 84906,84880,85373
 3.0000e-001 85422 -1.6926e+002 -2.6443e+001  3.8387e+001 53586 85517,85373,85062
 3.0000e-001 85471 -1.9921e+002 -6.0505e+001  6.6454e+001 53586 85062,85010,85445
 3.0000e-001 85494 -1.5520e+002 -2.3401e+001  3.3998e+001 53586 85517,85062,85445
 3.0000e-001 85543 -1.4654e+002 -3.3905e+001  4.3826e+001 53586 84906,85373,85517
 3.0000e-001 85566 -1.3826e+002 -3.5756e+001  4.0745e+001 53586 84906,85517,85445
 3.0000e-001 86072 -1.1830e+002 -5.6984e+001 -2.1203e+001 53182 86095,85853,85775
 3.0000e-001 86049 -1.3212e+002 -5.9899e+001 -1.5264e+001 53182 86095,85775,85931
 3.0000e-001 86026 -1.3971e+002 -5.7915e+001 -3.3180e+001 53182 86167,85879,85853
 3.0000e-001 86003 -1.6784e+002 -8.1358e+001 -5.8259e+000 53182 85775,85827,85801
 3.0000e-001 85980 -1.2453e+002 -7.9271e+001 -1.5185e+001 53182 85775,85853,85827
 3.0000e-001 85957 -1.1809e+002 -6.1128e+001  5.7864e+000 53182 85749,85931,85775
 3.0000e-001 86121 -1.3946e+002 -6.2582e+001 -2.3427e+001 53182 86167,85853,86095
 3.0000e-001 86144 -1.4423e+002 -5.1891e+001 -1.6608e+001 53182 85905,86095,85931
 3.0000e-001 86193 -1.3622e+002 -5.2218e+001 -3.0375e+001 53182 85905,85879,86167
 3.0000e-001 86216 -1.3065e+002 -4.3834e+001 -2.0064e+001 53182 85905,86167,86095
 3.0000e-001 86673 -1.4191e+002 -1.8075e+000  1.1463e+001 52778 86477,86529,86503
 3.0000e-001 86650 -1.5237e+002 -4.7779e+001  4.0629e+000 52778 86425,86529,86477
 3.0000e-001 86627 -1.3467e+002 -4.9334e+001  9.8714e+000 52778 86425,86477,86451
 3.0000e-001 86604 -1.0712e+002 -3.9345e+001  1.6033e+001 52778 86399,86529,86425
 3.0000e-001 86581 -9.6123e+001 -3.8767e+001  2.3886e+001 52778 86399,86555,86529
 3.0000e-001 87258 -1.2953e+002  1.5234e+000  2.9807e+001 52238 87281,86987,86961
 3.0000e-001 87235 -1.4518e+002 -2.4043e+001  8.2374e+000 52238 87281,86961,87117
 3.0000e-001 87212 -1.5601e+002 -2.1402e+001  2.8103e+000 52238 86935,87117,86961
 3.0000e-001 87189 -1.7574e+002 -3.7782e+001  1.9368e+000 52238 87065,87117,87091
 3.0000e-001 87166 -1.4528e+002 -6.3157e+001  9.8134e+000 52238 86987,87065,87039
 3.0000e-001 87143 -1.3530e+002 -9.0461e+001  3.6139e+001 52238 86987,87039,87013
 3.0000e-001 87307 -1.4512e+002 -3.8482e+001  1.6659e+001 52238 87065,86987,87281
 3.0000e-001 87330 -1.4936e+002 -3.9240e+001 -4.5636e+000 52238 87065,87281,87117
 3.0000e-001 87610 -1.2058e+002 -2.8458e+000  2.0187e+001 51834 87434,87512,87460
 3.0000e-001 87587 -1.4716e+002 -1.8732e+001  8.8392e+000 51834 87434,87538,87512
 3.0000e-001 87564 -1.8782e+002 -6.2366e+001 -8.3825e+000 51834 87633,87460,87512
 3.0000e-001 87659 -2.1060e+002 -7.2136e+001 -9.3967e+000 51834 87486,87460,87633
 3.0000e-001 88187 -1.4929e+002 -6.5468e+001  4.7187e+000 51266 87864,87942,87890
 3.0000e-001 88164 -1.4061e+002 -2.0558e+000  5.0722e+000 51266 87864,88020,87942
 3.0000e-001 88141 -2.4212e+002 -6.5184e+001 -3.7519e+001 51266 87942,88020,87968
 3.0000e-001 88118 -1.8805e+002 -6.9370e+001  2.8416e+001 51266 87864,88046,88020
 3.0000e-001 88095 -1.2666e+002  1.7853e+001  8.6214e+000 51266 87968,88020,87994
 3.0000e-001 88072 -1.3648e+002 -6.6239e+001 -5.5278e+000 51266 87890,87942,87916
 3.0000e-001 88644 -1.9847e+002 -8.1604e+001 -1.2826e+001 50754 88370,88500,88396
 3.0000e-001 88621 -2.1322e+002 -1.8591e+001 -2.5079e+001 50754 88370,88526,88500
 3.0000e-001 88598 -1.1824e+002 -2.0090e+001  2.9056e+001 50754 88396,88500,88422
 3.0000e-001 88575 -1.3548e+002 -5.5638e+001  2.3805e+001 50754 88422,88500,88474
 3.0000e-001 88552 -1.6898e+002 -8.4496e+001 -6.6009e+000 50754 88422,88474,88448
 3.0000e-001 88914 -1.2008e+002  1.9058e+000  8.8626e+000 50442 88715,88793,88741
 3.0000e-001 88891 -6.1303e+001  1.6719e+001 -6.6368e+000 50442 88715,88819,88793
 3.0000e-001 88868 -1.6101e+002 -3.2769e+001 -2.8442e+001 50442 88689,88819,88715
 3.0000e-001 88845 -8.6661e+001  2.1326e+001  2.1285e+001 50442 88741,88793,88767
 3.0000e-001 89294 -8.7640e+001 -1.3369e+001  1.5404e+000 49938 89317,89046,89020
 3.0000e-001 89271 -8.0562e+001 -1.4647e+001 -2.1377e+000 49938 89317,89020,89150
 3.0000e-001 89248 -5.9199e+001 -1.7228e+001  6.5553e-001 49938 89072,89150,89098
 3.0000e-001 89225 -9.4973e+001 -1.1278e+001 -1.2699e+001 49938 89020,89176,89150
 3.0000e-001 89202 -5.4966e+001 -2.1673e+001 -3.7536e+000 49938 89098,89150,89124
 3.0000e-001 89343 -6.9576e+001 -1.3129e+001  1.0843e+001 49938 89072,89046,89317
 3.0000e-001 89366 -7.4525e+001 -1.5474e+001 -3.4287e+000 49938 89072,89317,89150
 3.0000e-001 89823 -9.6225e+001 -3.5627e+001 -1.6197e+001 49384 89601,89705,89679
 3.0000e-001 89800 -6.8610e+001 -4.0286e+001  2.1248e+001 49384 89549,89705,89601
 3.0000e-001 89777 -6.2061e+001 -1.8885e+001  1.7040e+001 49384 89549,89601,89575
 3.0000e-001 89754 -7.1868e+001 -1.9377e+001 -9.0146e+000 49384 89601,89679,89627
 3.0000e-001 89731 -4.7600e+001  2.0041e+001 -2.8002e+001 49384 89627,89679,89653
 3.0000e-001 90329 -2.1314e+001 -7.8853e+000 -2.6562e+000 48894 90058,90110,90084
 3.0000e-001 90306 -3.9148e+001 -1.5336e+001  2.9370e+000 48894 90058,90162,90110
 3.0000e-001 90283 -6.5785e+001 -1.7334e+001 -5.5442e+000 48894 90032,90162,90058
 3.0000e-001 90260 -5.8056e+001 -1.2452e+001 -1.0543e+001 48894 90006,90162,90032
 3.0000e-001 90237 -1.4710e+001 -2.2739e+000 -1.0147e+001 48894 90110,90162,90136
 3.0000e-001 90214 -4.3485e+001 -1.4367e+001  2.5196e-001 48894 90006,90188,90162
 3.0000e-001 90884 -3.1157e+001  6.7815e-001  4.9723e+000 48490 90564,90642,90616
 3.0000e-001 90861 -2.0721e+001  2.5158e+000  4.8399e+000 48490 90564,90694,90642
 3.0000e-001 90838 -3.2716e+001  2.7641e-001  7.6357e+000 48490 90538,90694,90564
 3.0000e-001 90815 -5.1345e+001 -7.3405e+000  1.0353e+001 48490 90538,90720,90694
 3.0000e-001 90792 -3.0905e+001 -1.6758e+000  2.3045e+000 48490 90564,90616,90590
 3.0000e-001 90769 -1.8202e+001  1.2051e-001 -5.1005e+000 48490 90642,90694,90668
 3.0000e-001 90746 -6.4525e+001 -9.2184e+000  1.6052e+001 48490 90512,90720,90538
 3.0000e-001 91034 -5.4011e+001  2.2594e+001 -1.7126e+001 48086 91057,90959,90933
 3.0000e-001 91011 -7.5322e+001 -1.2776e+001 -2.8164e+001 48086 91129,91057,90933
 3.0000e-001 91083 -3.4065e+001  4.6500e+000 -7.9810e-001 48086 90985,90959,91057
 3.0000e-001 91106 -4.9567e+001  4.3992e-001 -8.0831e+000 48086 90985,91057,90907
 3.0000e-001 91155 -6.1054e+001  8.6585e+000 -1.0339e+001 48086 90907,91057,91129
 3.0000e-001 91791 -1.7008e+002 -7.3279e+001 -4.2165e+000 47518 92030,91814,91523
 3.0000e-001 91768 -1.4771e+002 -6.8752e+001 -1.2747e+001 47518 91958,91814,91471
 3.0000e-001 91745 -1.3040e+002 -3.1679e+001 -4.1579e+000 47518 91886,91575,91523
 3.0000e-001 91722 -1.4581e+002 -7.9891e+001  3.5555e+000 47518 91958,91471,91419
 3.0000e-001 91699 -2.0629e+002 -4.3603e+001 -2.1519e+001 47518 92030,91523,91497
 3.0000e-001 91676 -1.5704e+002 -1.6905e+001 -7.6233e+000 47518 91523,91575,91549
 3.0000e-001 91653 -1.2537e+002 -6.9077e+001 -4.5551e+000 47518 91419,91471,91445
 3.0000e-001 91840 -1.3997e+002 -5.0710e+001 -1.7727e+001 47518 91886,91523,91814
 3.0000e-001 91863 -1.7728e+002 -1.0827e+002 -9.7291e+000 47518 91601,91814,91627
 3.0000e-001 91912 -1.1557e+002 -2.1842e+001  2.2620e+001 47518 91601,91575,91886
 3.0000e-001 91935 -1.2509e+002 -6.2129e+001  9.9279e+000 47518 91601,91886,91814
 3.0000e-001 91984 -1.6824e+002 -7.8309e+001 -8.9919e+000 47518 91627,91814,91958
 3.0000e-001 92007 -1.5808e+002 -8.5013e+001  4.5783e+000 47518 91627,91958,91419
 3.0000e-001 92056 -1.8655e+002 -1.0452e+002 -3.1729e+001 47518 91471,91814,92030
 3.0000e-001 92079 -2.1745e+002 -8.6760e+001 -5.2020e+001 47518 91471,92030,91497
 3.0000e-001 92229 -1.8340e+002 -1.0683e+002 -1.6131e+001 47128 92252,92128,92102
 3.0000e-001 92206 -1.8682e+002 -1.3503e+002 -2.1240e+001 47128 92324,92252,92102
 3.0000e-001 92278 -1.8399e+002 -1.4080e+002 -2.0220e+001 47128 92454,92252,92154
 3.0000e-001 92301 -1.6836e+002 -1.0107e+002 -2.3163e+001 47128 92154,92252,92180
 3.0000e-001 92350 -1.4433e+002 -8.8730e+001 -3.5544e+000 47128 92180,92252,92324
 3.0000e-001 92480 -1.5661e+002 -9.2389e+001 -5.6091e+000 47128 92128,92252,92454
 3.0000e-001 93340 -1.4531e+002 -1.6340e+001  1.4452e+001 46838 93363,92977,92873
 3.0000e-001 93317 -2.0040e+002 -3.8855e+001  1.0804e+001 46838 93507,93363,92873
 3.0000e-001 93294 -1.7092e+002 -9.0890e+001 -3.1167e+001 46838 93435,93003,92977
 3.0000e-001 93271 -2.1002e+002 -5.9396e+001  5.3167e-001 46838 93507,92873,92847
 3.0000e-001 93248 -1.5297e+002 -3.2611e+001 -3.1026e+001 46838 93579,93029,93003
 3.0000e-001 93225 -9.8442e+001 -6.3772e+001  3.4863e+001 46838 92873,92951,92925
 3.0000e-001 93202 -1.2164e+002 -5.2263e+001  2.6857e+000 46838 92873,92977,92951
 3.0000e-001 93179 -2.0522e+002 -6.1913e+001  1.8827e+001 46838 93055,93107,93081
 3.0000e-001 93156 -2.9998e+002 -1.3294e+002 -4.0238e+000 46838 92821,93107,92847
 3.0000e-001 93133 -1.0315e+002 -3.3200e+001  2.1168e+001 46838 92873,92925,92899
 3.0000e-001 93389 -1.8098e+002 -5.0377e+001 -1.1112e+001 46838 93435,92977,93363
 3.0000e-001 93412 -1.7030e+002 -1.4649e+001  3.1573e+000 46838 93055,93363,93107
 3.0000e-001 93461 -1.5375e+002 -3.9946e+001 -2.9141e+001 46838 93579,93003,93435
 3.0000e-001 93484 -1.7195e+002 -1.7796e+001 -1.6519e+001 46838 93055,93435,93363
 3.0000e-001 93533 -1.8774e+002 -7.1642e+001  1.0645e+001 46838 93107,93363,93507
 3.0000e-001 93556 -1.8626e+002 -8.3982e+001  8.2361e+000 46838 93107,93507,92847
 3.0000e-001 93605 -1.5544e+002 -3.7959e+001 -2.0532e+001 46838 93055,93029,93579
 3.0000e-001 93628 -1.5528e+002 -4.3872e+001 -1.8639e+001 46838 93055,93579,93435
 3.0000e-001 93979 -2.0614e+002  4.1209e+001  2.5522e+001 46476 93780,93884,93858
 3.0000e-001 93956 -2.2374e+002 -1.3638e+001  2.1712e+001 46476 93754,93884,93780
 3.0000e-001 93933 -4.4729e+002 -1.4302e+001 -1.3846e+001 46476 93806,93858,93832
 3.0000e-001 93910 -4.2576e+002 -4.9032e+001  2.8710e+001 46476 93780,93858,93806
 3.0000e-001 94515 -1.2500e+002 -5.2612e+001 -1.5756e+000 46072 94345,94397,94371
 3.0000e-001 94492 -8.8713e+001 -3.7641e+001  7.5171e-001 46072 94267,94397,94345
 3.0000e-001 94469 -7.7880e+001  5.6451e+000 -7.4941e-001 46072 94241,94397,94267
 3.0000e-001 94446 -8.0577e+001 -3.1693e+001 -4.0975e+000 46072 94293,94345,94319
 3.0000e-001 94423 -8.5829e+001 -1.7195e+001  2.2730e+000 46072 94267,94345,94293
 3.0000e-001 95149 -9.0047e+001  7.5540e+000 -9.0581e+000 45346 94803,94881,94855
 3.0000e-001 95126 -9.9944e+001  1.1508e+000 -6.3028e+000 45346 94803,94959,94881
 3.0000e-001 95103 -9.2813e+001  7.2939e+000  1.1034e+001 45346 95172,94933,94907
 3.0000e-001 95080 -8.9376e+001  5.7095e+001  9.6815e+000 45346 95172,94907,94881
 3.0000e-001 95057 -7.9430e+001 -3.5653e+001 -2.6000e+001 45346 94803,94985,94959
 3.0000e-001 95034 -1.0003e+002  2.6568e+001  7.9657e-001 45346 94803,94855,94829
 3.0000e-001 95011 -7.1610e+001 -2.0029e+001 -3.6124e+001 45346 94777,94985,94803
 3.0000e-001 95198 -8.5696e+001 -1.6449e+001  4.9861e+000 45346 94959,94933,95172
 3.0000e-001 95221 -9.6129e+001  1.3964e+001  6.0691e+000 45346 94959,95172,94881
 3.0000e-001 95776 -1.0106e+002  5.0910e+000  2.8117e+001 44720 95799,95560,95534
 3.0000e-001 95753 -1.1544e+002 -3.6865e+001  3.8486e+001 44720 95799,95534,95482
 3.0000e-001 95730 -1.3494e+002  6.2001e+000  4.0130e+001 44720 95943,95871,95430
 3.0000e-001 95707 -1.3813e+002  3.7782e+000  3.9029e+001 44720 95943,95430,95404
 3.0000e-001 95684 -1.2822e+002 -2.2482e+001  4.9572e+001 44720 95430,95482,95456
 3.0000e-001 95661 -1.0179e+002 -3.2969e+001  3.4686e+001 44720 95482,95534,95508
 3.0000e-001 95638 -1.3858e+002 -1.9165e+001  5.2060e+001 44720 95404,95612,95586
 3.0000e-001 95825 -1.1415e+002  4.8385e+001  4.4652e+001 44720 95586,95560,95799
 3.0000e-001 95848 -1.2573e+002  6.1186e+000  3.7281e+001 44720 95871,95586,95799
 3.0000e-001 95897 -1.2708e+002  8.2509e+000  3.8336e+001 44720 95482,95430,95871
 3.0000e-001 95920 -1.2459e+002  8.9665e+000  3.2256e+001 44720 95482,95871,95799
 3.0000e-001 95969 -1.2785e+002  4.8473e-001  3.6619e+001 44720 95586,95871,95943
 3.0000e-001 95992 -1.3382e+002 -3.3690e+000  3.4963e+001 44720 95586,95943,95404
 3.0000e-001 96449 -1.3552e+002 -5.2448e+001  9.8931e+000 44202 96544,96472,96227
 3.0000e-001 96426 -1.3653e+002 -5.0823e+001 -5.4181e+000 44202 96472,96175,96331
 3.0000e-001 96403 -1.6163e+002 -4.2300e+001  8.5776e+000 44202 96544,96227,96201
 3.0000e-001 96380 -8.0709e+001 -4.1280e+001  7.4641e+000 44202 96253,96305,96279
 3.0000e-001 96357 -1.0627e+002 -3.8612e+001  2.2694e+001 44202 96227,96305,96253
 3.0000e-001 96498 -1.3688e+002 -6.1098e+001  7.9420e+000 44202 96305,96227,96472
 3.0000e-001 96521 -1.4165e+002 -6.6629e+001  8.7768e-001 44202 96305,96472,96331
 3.0000e-001 96570 -1.6320e+002 -6.4700e+001  1.2384e+000 44202 96175,96472,96544
 3.0000e-001 96593 -1.8403e+002 -4.8128e+001  4.3482e+000 44202 96175,96544,96201
 3.0000e-001 96971 -6.5457e+001 -2.5705e+001 -8.2233e+000 43754 96994,96749,96697
 3.0000e-001 96948 -6.1418e+001 -3.5149e+001 -1.8979e+000 43754 96994,96697,96853
 3.0000e-001 96925 -5.3083e+001 -2.3157e+001 -1.4962e+001 43754 96697,96749,96723
 3.0000e-001 96902 -5.4123e+001 -3.7771e+000 -9.8602e-001 43754 96775,96853,96827
 3.0000e-001 96879 -2.7275e+000 -3.3480e+000  5.0760e+000 43754 96775,96827,96801
 3.0000e-001 97020 -6.0123e+001 -1.0278e+001 -1.0062e+001 43754 96775,96749,96994
 3.0000e-001 97043 -6.0274e+001 -2.5952e+001 -3.5709e+000 43754 96775,96994,96853
 3.0000e-001 97291 -1.1654e+002 -1.3502e+001 -5.7317e+000 43364 97314,97144,97118
 3.0000e-001 97268 -1.3042e+002 -2.9983e+001 -1.2973e+001 43364 97314,97118,97092
 3.0000e-001 97245 -1.1459e+002 -2.9929e+001 -1.9924e+001 43364 97386,97196,97170
 3.0000e-001 97222 -1.2437e+002 -7.6524e+001 -5.3284e+001 43364 97066,97196,97092
 3.0000e-001 97340 -1.2883e+002 -4.2590e+001  2.8743e-001 43364 97170,97144,97314
 3.0000e-001 97363 -1.1677e+002 -4.1725e+001 -1.1889e+001 43364 97386,97170,97314
 3.0000e-001 97412 -1.0919e+002 -1.5660e+001 -2.6960e+001 43364 97092,97196,97386
 3.0000e-001 97435 -1.1058e+002 -2.1380e+001 -1.7896e+001 43364 97092,97386,97314
 3.0000e-001 97788 -1.0418e+002 -2.4054e+001 -9.5559e+000 42960 97563,97667,97589
 3.0000e-001 97765 -1.5363e+002 -8.0503e+001  1.2556e+001 42960 97563,97693,97667
 3.0000e-001 97742 -1.9161e+002  1.7569e+001 -6.2341e+000 42960 97589,97641,97615
 3.0000e-001 97719 -1.9410e+002 -4.2283e+001 -8.8514e+000 42960 97589,97667,97641
 3.0000e-001 98215 -4.7210e+001 -7.3204e+000 -2.2956e+001 42563 97918,98074,98048
 3.0000e-001 98192 -6.8832e+000  3.9235e+001  6.4154e+000 42563 97892,98074,97918
 3.0000e-001 98169 -4.5788e+001 -8.0891e+000 -2.3658e+001 42563 98238,97944,97918
 3.0000e-001 98146 -5.1941e+001 -2.2322e+001 -1.7996e+001 42563 98238,97918,98048
 3.0000e-001 98123 -6.8963e+001 -1.8282e+001 -7.8020e+000 42563 97944,98022,97996
 3.0000e-001 98100 -6.3339e+001 -1.5497e+000 -2.2317e+000 42563 97944,97996,97970
 3.0000e-001 98264 -5.1953e+001 -1.8197e+001 -1.6639e+001 42563 98022,97944,98238
 3.0000e-001 98287 -5.3231e+001 -2.3545e+001 -1.1336e+001 42563 98022,98238,98048
 3.0000e-001 98616 -1.1369e+002 -5.7674e+001  2.3485e-001 42251 98443,98521,98469
 3.0000e-001 98593 -1.1535e+002 -5.9341e+001  1.0689e+000 42251 98417,98521,98443
 3.0000e-001 98570 -1.1132e+002 -5.1361e+001 -1.1026e+001 42251 98391,98521,98417
 3.0000e-001 98547 -1.2157e+002 -6.2032e+001  2.3012e+000 42251 98469,98521,98495
 3.0000e-001 98886 -2.1389e+002 -7.4869e+000 -4.1864e+001 41847 98661,98765,98687
 3.0000e-001 98863 -3.1686e+002 -2.1865e+001 -4.9373e+001 41847 98661,98791,98765
 3.0000e-001 98840 -1.3067e+002 -1.9978e+001 -6.5836e+000 41847 98687,98765,98739
 3.0000e-001 98817 -1.7062e+002 -4.4904e+001  7.2363e+000 41847 98687,98739,98713
 3.0000e-001 99394 -8.7502e+001  4.0846e+001  4.5115e+001 41236 99417,99149,99123
 3.0000e-001 99371 -1.4283e+002 -9.2539e+000  1.6379e+001 41236 99417,99123,99097
 3.0000e-001 99348 -1.2509e+002 -1.4846e+001  1.0789e+001 41236 99489,99201,99149
 3.0000e-001 99325 -1.2035e+002 -2.1256e+001 -2.9680e+000 41236 99149,99201,99175
 3.0000e-001 99302 -1.9380e+002 -3.6805e+001 -7.2383e+000 41236 99097,99253,99227
 3.0000e-001 99279 -2.5402e+002 -8.5670e+001 -3.0286e+001 41236 99071,99253,99097
 3.0000e-001 99443 -1.2418e+002 -1.1525e+001  1.1607e+001 41236 99489,99149,99417
 3.0000e-001 99466 -1.2822e+002 -2.8475e+001 -5.1179e+000 41236 99227,99417,99097
 3.0000e-001 99515 -1.2908e+002 -1.1026e+001  7.8744e+000 41236 99227,99201,99489
 3.0000e-001 99538 -1.2710e+002 -6.0394e+000  8.5542e+000 41236 99227,99489,99417
 3.0000e-001 100044 -7.7129e+001 -3.3009e+001  3.9578e+001 40732 99721,99773,99747
 3.0000e-001 100021 -1.2574e+002 -3.2685e+001  1.5061e+001 40732 99721,99799,99773
 3.0000e-001 99998 -1.2152e+002 -1.6851e+001  1.3571e+001 40732 99721,99903,99799
 3.0000e-001 99975 -1.3688e+002 -2.6475e+001 -7.0449e+000 40732 100067,99877,99851
 3.0000e-001 99952 -1.3518e+002 -6.2423e+001 -1.1804e+001 40732 100067,99851,99799
 3.0000e-001 99929 -1.8194e+002 -3.4941e+001 -7.1159e+001 40732 99799,99851,99825
 3.0000e-001 100093 -1.4039e+002  2.9419e+000  5.7722e+000 40732 99903,99877,100067
 3.0000e-001 100116 -1.4212e+002 -4.0726e+001  3.9546e+000 40732 99903,100067,99799
 3.0000e-001 100622 -1.2784e+002  2.4973e+000 -2.3177e+000 40278 100645,100455,100429
 3.0000e-001 100599 -1.3199e+002 -3.1214e+001  1.0366e+001 40278 100717,100645,100429
 3.0000e-001 100576 -1.5586e+002 -4.1458e+001  5.7035e+000 40278 100717,100429,100377
 3.0000e-001 100553 -1.1326e+002 -3.8183e+001  1.6713e+001 40278 100789,100325,100481
 3.0000e-001 100530 -1.0068e+002  2.2087e+001  3.8665e+001 40278 100299,100481,100325
 3.0000e-001 100507 -1.3013e+002 -3.1245e+001  9.7826e+000 40278 100377,100429,100403
 3.0000e-001 100671 -1.2014e+002  7.3360e+001  2.1163e+001 40278 100481,100455,100645
 3.0000e-001 100694 -1.3382e+002 -1.9433e+001 -3.8654e+000 40278 100789,100481,100645
 3.0000e-001 100743 -1.3772e+002 -1.9200e+001 -3.5307e+001 40278 100351,100645,100717
 3.0000e-001 100766 -1.9552e+002 -4.3372e+001 -3.7853e+001 40278 100351,100717,100377
 3.0000e-001 100815 -9.1805e+001 -2.8321e+001 -1.0073e+000 40278 100351,100325,100789
 3.0000e-001 100838 -9.7706e+001  7.3632e+000 -2.3542e+001 40278 100351,100789,100645
 3.0000e-001 101265 -1.5528e+002 -6.3812e+001  6.5558e+000 39824 101288,101046,100994
 3.0000e-001 101242 -1.6326e+002 -6.3298e+001  2.0225e+000 39824 101288,100994,100968
 3.0000e-001 101219 -1.5742e+002 -4.7703e+001  8.8002e+000 39824 100942,101124,100968
 3.0000e-001 101196 -1.5319e+002 -8.9976e+000  2.8531e+001 39824 101046,101124,101072
 3.0000e-001 101173 -1.4453e+002 -6.7228e+001 -6.8559e+000 39824 100994,101046,101020
 3.0000e-001 101150 -1.1513e+002 -2.5122e+001  3.7124e+001 39824 101072,101124,101098
 3.0000e-001 101314 -1.5033e+002 -6.3115e+001  6.8420e+000 39824 101124,101046,101288
 3.0000e-001 101337 -1.5517e+002 -6.0189e+001  2.8349e+000 39824 101124,101288,100968
 3.0000e-001 101585 -1.2307e+001 -5.2418e+000  1.4907e+000 39070 101608,101464,101412
 3.0000e-001 101562 -2.0845e+001 -4.2688e+000 -4.9206e+000 39070 101608,101412,101360
 3.0000e-001 101539 -7.5748e+000 -2.0883e+000  2.9947e+000 39070 101412,101464,101438
 3.0000e-001 101516 -1.7598e+001 -3.4926e+000 -6.7410e+000 39070 101360,101412,101386
 3.0000e-001 101634 -5.9628e+000 -4.0800e+000  3.3094e+000 39070 101490,101464,101608
 3.0000e-001 101657 -1.2222e+001 -2.6574e+000 -3.8671e+000 39070 101490,101608,101360
 3.0000e-001 101856 -8.6230e+001  2.9920e+001 -5.4851e+000 38730 101706,101758,101732
 3.0000e-001 101833 -6.1467e+001  4.1219e+001 -1.1004e+001 38730 101706,101784,101758
 3.0000e-001 101810 -3.4641e+001  9.9598e+000 -5.5765e+001 38730 101680,101784,101706
 3.0000e-001 102106 -1.2425e+002 -3.8774e+001 -9.2218e-001 38326 101881,101959,101907
 3.0000e-001 102083 -1.3721e+002 -4.0714e+001  1.7188e+001 38326 101881,101985,101959
 3.0000e-001 102060 -1.0480e+002 -3.1116e+001  1.4535e+001 38326 101881,102011,101985
 3.0000e-001 102037 -1.5414e+002 -4.2728e+001 -2.0378e+000 38326 101907,101959,101933
 3.0000e-001 102258 -2.6131e+001  4.0747e+000 -2.0822e+000 38036 102281,102157,102131
 3.0000e-001 102235 -8.8412e+000  3.1567e+000 -7.7211e-001 38036 102281,102131,102209
 3.0000e-001 102307 -7.5840e+000 -6.2830e-001  8.1530e-001 38036 102183,102157,102281
 3.0000e-001 102330  1.5582e+001  3.5044e+000  3.8234e+000 38036 102183,102281,102209
 3.0000e-001 102663 -1.0268e+002 -2.3210e+001  1.2554e+001 37596 102438,102542,102464
 3.0000e-001 102640 -8.4087e+001 -3.6357e+000  3.8701e+001 37596 102438,102568,102542
 3.0000e-001 102617 -9.0628e+001  4.7902e+001  3.3754e+001 37596 102490,102542,102516
 3.0000e-001 102594 -9.2761e+001 -2.5455e+000  1.7280e+001 37596 102464,102542,102490
 3.0000e-001 102862 -1.3642e+002 -1.7283e+001 -1.5593e+000 37192 102686,102764,102712
 3.0000e-001 102839 -1.4381e+002 -9.8220e+000  1.3804e+001 37192 102686,102790,102764
 3.0000e-001 102816 -1.2891e+002 -3.1448e+001  5.0444e+000 37192 102712,102764,102738
 3.0000e-001 103110 -1.4467e+002 -5.2450e+001 -8.8657e+000 36609 102911,102963,102937
 3.0000e-001 103087 -9.6459e+001 -2.7136e+001 -1.8145e+001 36609 102911,102989,102963
 3.0000e-001 103064 -1.1566e+002 -2.2645e+001 -1.4697e+001 36609 102885,102989,102911
 3.0000e-001 103041 -1.6431e+002 -2.7750e+001 -1.6770e+001 36609 102885,103015,102989
 3.0000e-001 103718 -8.4033e+001 -3.3950e+001  2.3152e+001 36131 103323,103375,103349
 3.0000e-001 103695 -1.3878e+002 -3.0968e+001  2.6606e+001 36131 103297,103375,103323
 3.0000e-001 103672 -1.4224e+002 -6.9717e+001 -7.4683e+000 36131 103297,103505,103375
 3.0000e-001 103649 -1.2595e+002 -5.9580e+001 -7.7552e+000 36131 103741,103479,103401
 3.0000e-001 103626 -1.2724e+002 -6.2716e+001 -5.0861e+000 36131 103741,103401,103375
 3.0000e-001 103603 -1.2799e+002 -3.9466e+001 -7.5869e+000 36131 103401,103479,103427
 3.0000e-001 103580 -2.2105e+002 -4.5835e+001 -5.0704e+001 36131 103297,103531,103505
 3.0000e-001 103557 -1.1041e+002 -2.1705e+000 -1.3470e+001 36131 103427,103479,103453
 3.0000e-001 103767 -1.2988e+002 -5.8457e+001 -5.3228e+000 36131 103505,103479,103741
 3.0000e-001 103790 -1.3054e+002 -6.0954e+001 -2.7152e+000 36131 103505,103741,103375
 3.0000e-001 103989 -1.7097e+002 -5.1249e+001  5.9278e+000 35791 103839,103917,103891
 3.0000e-001 103966 -1.6181e+002 -5.3139e+001  7.2119e+000 35791 103813,103917,103839
 3.0000e-001 103943 -1.4684e+002 -1.3845e+001 -1.5494e+001 35791 103839,103891,103865
 3.0000e-001 104188 -2.7038e+001  3.0284e+000 -1.7565e+001 35444 104038,104090,104064
 3.0000e-001 104165 -2.3788e+001  2.0447e+001  8.9963e+000 35444 104038,104116,104090
 3.0000e-001 104142 -3.4807e+001  6.8887e+000  4.2119e+000 35444 104012,104116,104038
 3.0000e-001 104487 -1.2698e+002 -1.8695e+001 -5.3288e+000 34990 104265,104317,104291
 3.0000e-001 104464 -1.2141e+002 -1.3660e+001 -9.2695e+000 34990 104510,104317,104265
 3.0000e-001 104441 -1.0013e+002 -2.2630e+001 -1.0280e+001 34990 104510,104265,104213
 3.0000e-001 104418 -1.3160e+002 -1.9156e+001  6.4991e+000 34990 104582,104343,104317
 3.0000e-001 104395 -9.2199e+001 -6.0999e-001  2.1671e+000 34990 104213,104265,104239
 3.0000e-001 104536 -1.3261e+002 -1.9880e+001 -3.2664e+000 34990 104582,104317,104510
 3.0000e-001 104559 -1.1244e+002 -3.1527e+001 -5.8845e+000 34990 104369,104510,104213
 3.0000e-001 104608 -1.0746e+002 -9.1930e+000  1.1378e+001 34990 104369,104343,104582
 3.0000e-001 104631 -1.1694e+002 -1.3169e+001 -3.4201e+000 34990 104369,104582,104510
 3.0000e-001 104783 -9.6167e+001 -2.2731e+001 -7.7287e+000 34700 104938,104806,104682
 3.0000e-001 104760 -1.0815e+002 -4.5532e+001 -1.2259e+001 34700 104938,104682,104656
 3.0000e-001 104832 -4.4088e+001 -4.4016e-001  5.7278e+000 34700 104708,104682,104806
 3.0000e-001 104964 -9.3488e+001 -1.3673e+001  1.2240e+001 34700 104734,104806,104938
 3.0000e-001 104987 -1.0309e+002 -3.1186e+001  8.1790e+000 34700 104734,104938,104656
 3.0000e-001 105137 -6.4871e+001  2.1630e+000 -2.5822e+000 34388 105036,105088,105062
 3.0000e-001 105114 -7.4967e+001 -1.2714e+001 -7.4500e+000 34388 105010,105088,105036
 3.0000e-001 105385 -1.3273e+002 -2.5837e+001  6.9804e+000 33734 105408,105186,105160
 3.0000e-001 105362 -1.3011e+002 -2.8502e+001  4.4019e+000 33734 105408,105160,105264
 3.0000e-001 105339 -1.3552e+002 -1.7911e+001  7.7134e-001 33734 105160,105290,105264
 3.0000e-001 105316 -1.3125e+002 -3.7271e+001  3.0559e+001 33734 105186,105238,105212
 3.0000e-001 105434 -1.3014e+002 -2.5142e+001  7.0030e+000 33734 105238,105186,105408
 3.0000e-001 105457 -1.2373e+002 -2.5778e+001  4.3968e+000 33734 105238,105408,105264
 3.0000e-001 105609 -1.1801e+001  4.8431e+000 -2.2481e+000 33394 105482,105534,105508
 3.0000e-001 105586 -1.0102e+001  5.9152e-001  1.4856e+000 33394 105482,105560,105534
 3.0000e-001 105859 -1.3264e+002 -2.4104e+001 -1.3220e+001 33047 105882,105712,105660
 3.0000e-001 105836 -1.6051e+002 -1.6085e+001  1.3396e+001 33047 105882,105660,105634
 3.0000e-001 105813 -9.5936e+001 -2.2720e+001 -9.8561e-001 33047 105660,105712,105686
 3.0000e-001 105790 -1.2984e+002  5.9205e+000 -8.5838e+000 33047 105634,105764,105738
 3.0000e-001 105908 -6.9624e+001  1.9958e+001 -3.7460e+001 33047 105738,105712,105882
 3.0000e-001 105931 -1.3653e+002 -1.0034e+001 -2.5974e+000 33047 105738,105882,105634
 3.0000e-001 106181 -1.3732e+002 -6.7319e+001  2.4171e+000 32543 106204,106060,106008
 3.0000e-001 106158 -1.2301e+002 -6.5218e+001  2.5394e+000 32543 105956,106086,106060
 3.0000e-001 106135 -1.3775e+002 -6.3014e+001  8.8578e+000 32543 106204,106008,105982
 3.0000e-001 106112 -1.2622e+002 -7.7057e+001  3.9148e+000 32543 106008,106060,106034
 3.0000e-001 106230 -1.4075e+002 -6.9195e+001  1.6280e+000 32543 105956,106060,106204
 3.0000e-001 106253 -1.4485e+002 -6.6663e+001  7.5476e+000 32543 105956,106204,105982
 3.0000e-001 106454 -8.1380e+001 -1.3797e+001 -1.8340e+001 31839 106304,106356,106330
 3.0000e-001 106431 -9.3504e+001 -7.8343e+000  1.8525e+000 31839 106278,106356,106304
 3.0000e-001 106408 -7.4993e+001  1.9762e+001 -7.8311e+000 31839 106278,106382,106356
 3.0000e-001 106704 -1.1938e+002 -4.1834e+001 -4.5106e+000 31534 106505,106583,106557
 3.0000e-001 106681 -1.1754e+002 -3.7632e+001 -3.7714e-001 31534 106479,106583,106505
 3.0000e-001 106658 -1.2697e+002 -4.6714e+001 -2.2581e+000 31534 106505,106557,106531
 3.0000e-001 106635 -1.1242e+002 -3.0430e+001 -9.8499e+000 31534 106479,106609,106583
 3.0000e-001 107108 -1.8363e+002 -5.5910e+001 -1.4061e+001 31030 106886,106990,106964
 3.0000e-001 107085 -1.5465e+002 -6.6989e+001  1.3444e+000 31030 106860,106990,106886
 3.0000e-001 107062 -1.4432e+002 -6.1539e+001  3.5489e+000 31030 106834,106990,106860
 3.0000e-001 107039 -2.1103e+002 -4.1381e+001  6.5024e+000 31030 106912,106964,106938
 3.0000e-001 107016 -2.4735e+002 -8.4127e+001 -1.8884e+001 31030 106886,106964,106912
 3.0000e-001 107307 -6.7295e+001 -2.5545e+000 -2.8456e+000 30718 107330,107157,107131
 3.0000e-001 107284 -5.9269e+001 -1.5093e+000 -5.3317e+000 30718 107330,107131,107235
 3.0000e-001 107261 -4.7272e+001 -3.2845e+000  2.6466e+000 30718 107183,107235,107209
 3.0000e-001 107356 -5.8828e+001 -7.7761e+000 -9.7417e-001 30718 107183,107157,107330
 3.0000e-001 107379 -5.0662e+001 -6.2945e+000 -4.1471e+000 30718 107183,107330,107235
 3.0000e-001 107759 -1.1731e+001 -7.1651e+000  1.4347e+000 30264 107782,107615,107537
 3.0000e-001 107736 -1.0801e+001 -4.7704e+000 -1.8053e+000 30264 107782,107537,107485
 3.0000e-001 107713 -1.6703e+001 -2.2221e+000 -1.2799e+000 30264 107485,107537,107511
 3.0000e-001 107690 -1.1408e+001 -3.6362e+000  2.8454e+000 30264 107537,107615,107589
 3.0000e-001 107667 -7.4869e+000 -7.5058e+000  2.5674e-001 30264 107537,107589,107563
 3.0000e-001 107808 -8.6917e+000 -5.4172e+000  2.1708e-001 30264 107641,107615,107782
 3.0000e-001 107831 -9.3319e+000 -3.5803e+000 -2.8677e+000 30264 107641,107782,107485
 3.0000e-001 108030 -1.2945e+002 -4.5626e+001  1.2772e+001 29874 108053,107854,107932
 3.0000e-001 108007 -1.0000e+002 -4.4206e+001  1.5522e+001 29874 107854,107958,107932
 3.0000e-001 107984 -1.4994e+002 -4.2158e+001  2.1439e+001 29874 108053,107932,107906
 3.0000e-001 108079 -1.2157e+002 -4.0192e+001  8.6071e+000 29874 107880,107854,108053
 3.0000e-001 108102 -1.3390e+002 -2.9089e+001  1.5270e+001 29874 107880,108053,107906
 3.0000e-001 108433 -8.0764e+001 -2.1586e+001 -1.2636e+001 29484 108234,108338,108312
 3.0000e-001 108410 -1.2287e+002 -1.5126e+001  2.6356e+001 29484 108208,108338,108234
 3.0000e-001 108387 -1.1665e+002 -4.0192e+001 -5.7365e+000 29484 108234,108312,108260
 3.0000e-001 108364 -9.2907e+001 -3.6950e+001 -9.2982e-001 29484 108260,108312,108286
 3.0000e-001 108762 -1.0797e+002 -4.6354e+001  2.9080e+000 29080 108563,108641,108589
 3.0000e-001 108739 -1.0686e+002 -6.1036e+001  1.1117e+001 29080 108537,108641,108563
 3.0000e-001 108716 -1.2638e+002 -2.8577e+001  1.8440e+001 29080 108589,108641,108615
 3.0000e-001 108693 -9.3972e+001 -6.0214e+001 -5.7008e+000 29080 108537,108667,108641
 3.0000e-001 109189 -1.3200e+002 -4.5834e+001  5.5724e+000 28476 108892,108996,108970
 3.0000e-001 109166 -1.5288e+002 -5.0476e+001  8.3955e+000 28476 108892,109022,108996
 3.0000e-001 109143 -1.3655e+002 -4.8451e+001  7.8257e+000 28476 108892,108970,108944
 3.0000e-001 109120 -1.7357e+002 -4.6932e+001  1.3525e+001 28476 108892,109048,109022
 3.0000e-001 109097 -1.3788e+002 -5.6145e+001  1.0269e+001 28476 108892,108944,108918
 3.0000e-001 109074 -1.9519e+002 -8.2494e+000 -6.0810e+000 28476 108866,109048,108892
 3.0000e-001 109518 -1.1626e+002 -1.8090e+001  3.3475e-001 28022 109541,109371,109345
 3.0000e-001 109495 -1.2359e+002 -2.9184e+001 -3.3814e+000 28022 109541,109345,109319
 3.0000e-001 109472 -1.1243e+002 -5.1348e+001 -4.5826e+000 28022 109293,109397,109319
 3.0000e-001 109449 -1.2038e+002 -5.5177e+001 -3.4412e+000 28022 109293,109423,109397
 3.0000e-001 109567 -9.0779e+001 -1.2617e+001  2.1258e+001 28022 109397,109371,109541
 3.0000e-001 109590 -1.1361e+002 -4.3969e+001  1.1209e+001 28022 109397,109541,109319
 3.0000e-001 109968 -1.0657e+002 -4.4860e+001 -1.1033e+001 27568 109798,109850,109824
 3.0000e-001 109945 -9.3144e+001 -3.5347e+001 -1.3129e+000 27568 109694,109850,109798
 3.0000e-001 109922 -6.4381e+001 -5.4261e+001  2.5375e-001 27568 109694,109798,109746
 3.0000e-001 109899 -6.5058e+001 -4.8846e+001  3.7213e+001 27568 109746,109798,109772
 3.0000e-001 109876 -4.4925e+001 -1.3409e+001  6.0982e+000 27568 109694,109746,109720
 3.0000e-001 110167 -1.0172e+002 -2.9192e+001  2.6543e+000 27007 110017,110095,110069
 3.0000e-001 110144 -1.0160e+002 -3.0506e+001  2.9905e+000 27007 109991,110095,110017
 3.0000e-001 110121 -1.1390e+002 -3.4385e+001  1.7910e+000 27007 110017,110069,110043
 3.0000e-001 110415 -9.8334e+001 -5.1059e+001  1.3252e+000 26567 110438,110242,110190
 3.0000e-001 110392 -1.1421e+002 -3.7541e+001 -3.0558e+000 26567 110438,110190,110320
 3.0000e-001 110369 -1.1055e+002 -5.0440e+001 -2.9943e+000 26567 110242,110294,110268
 3.0000e-001 110346 -9.5150e+001 -4.2236e+001  3.7076e+000 26567 110190,110242,110216
 3.0000e-001 110464 -1.0658e+002 -5.2406e+001 -4.3683e+000 26567 110294,110242,110438
 3.0000e-001 110487 -1.2414e+002 -4.9550e+001 -1.2828e+001 26567 110294,110438,110320
 3.0000e-001 110639 -1.1730e+002  5.2977e+000 -8.8375e+000 26170 110538,110590,110564
 3.0000e-001 110616 -1.0109e+002 -3.1822e+001  4.3235e+000 26170 110512,110590,110538
 3.0000e-001 111149 -2.4995e+001  4.8296e+000 -7.0407e-002 25716 111172,110878,110852
 3.0000e-001 111126 -1.7770e+001  5.1080e+000 -4.4391e-002 25716 111172,110852,111008
 3.0000e-001 111103 -3.9659e+001  1.1168e+001  1.5962e+001 25716 110878,110930,110904
 3.0000e-001 111080 -9.3681e+000  5.9571e+000 -3.4632e+000 25716 110826,111008,110852
 3.0000e-001 111057 -1.2313e+001 -1.3076e+000  2.3197e+000 25716 110930,111008,110956
 3.0000e-001 111034 -4.8014e+000  9.0295e-001  2.0941e+000 25716 110956,111008,110982
 3.0000e-001 111198 -1.9004e+001  2.1875e+000  2.1188e+000 25716 110930,110878,111172
 3.0000e-001 111221 -1.0192e+001  3.6805e+000  2.2400e+000 25716 110930,111172,111008
 3.0000e-001 111420 -5.0980e+001  1.7407e+001 -3.9058e+000 25304 111443,111270,111244
 3.0000e-001 111397 -5.5045e+001  3.9347e+001 -4.8934e+000 25304 111443,111244,111348
 3.0000e-001 111374 -4.8051e+001  1.0048e+000 -8.8563e+000 25304 111270,111322,111296
 3.0000e-001 111469 -5.1472e+001  1.9346e+000 -4.6563e+000 25304 111322,111270,111443
 3.0000e-001 111492 -5.8946e+001  1.9470e+001 -7.5396e+000 25304 111322,111443,111348
 3.0000e-001 111691 -1.2316e+002 -4.2081e+001 -1.0215e+001 24736 111567,111619,111593
 3.0000e-001 111668 -1.2475e+002 -4.5164e+001 -1.0781e+001 24736 111541,111619,111567
 3.0000e-001 111645 -1.2233e+002 -3.6355e+001 -5.8197e+000 24736 111515,111619,111541
 3.0000e-001 112024 -1.9233e+001 -4.5640e+000  7.5079e+000 24146 111825,111877,111851
 3.0000e-001 112001 -1.3657e+001  1.1471e+001  7.8639e+000 24146 111825,111903,111877
 3.0000e-001 111978 -2.5822e+001 -1.1560e+001  1.3090e+001 24146 111825,111929,111903
 3.0000e-001 111955 -2.8903e+001 -3.8268e+000  1.8806e+001 24146 111799,111929,111825
 3.0000e-001 112370 -1.3683e+002 -7.0695e+001  2.2570e+001 23856 112393,112151,112125
 3.0000e-001 112347 -1.3415e+002 -4.9079e+001  1.8680e+001 23856 112465,112393,112125
 3.0000e-001 112324 -1.2932e+002 -4.3663e+001  1.4542e+001 23856 112465,112125,112073
 3.0000e-001 112301 -1.4730e+002 -5.9698e+001  2.1494e+001 23856 112073,112125,112099
 3.0000e-001 112278 -1.1272e+002 -2.0707e+001  2.9852e+000 23856 112047,112229,112073
 3.0000e-001 112255 -1.0680e+002 -5.2672e+001 -3.6242e+000 23856 112151,112203,112177
 3.0000e-001 112419 -1.1988e+002 -5.4604e+001  1.0752e+001 23856 112203,112151,112393
 3.0000e-001 112442 -1.3453e+002 -5.9203e+001  7.6494e+000 23856 112203,112393,112229
 3.0000e-001 112491 -1.2766e+002 -5.1235e+001  4.7194e+000 23856 112229,112393,112465
 3.0000e-001 112514 -1.1963e+002 -3.6799e+001 -1.8711e-001 23856 112229,112465,112073
 3.0000e-001 112784 -1.7489e+002  1.1953e+001 -2.1410e+001 23494 112611,112663,112637
 3.0000e-001 112761 -1.6204e+002 -2.8573e+001 -1.9766e+001 23494 112585,112663,112611
 3.0000e-001 112738 -1.5784e+002 -2.6326e+001 -4.1605e+000 23494 112559,112663,112585
 3.0000e-001 112715 -1.5136e+002  1.4353e+001  8.1178e+000 23494 112559,112689,112663
 3.0000e-001 113117 -1.0922e+002 -2.2382e+001 -1.7998e+001 22974 112944,113022,112996
 3.0000e-001 113094 -8.8071e+001 -4.2625e+001 -1.0434e+001 22974 112918,113022,112944
 3.0000e-001 113071 -1.1093e+002 -4.7866e+001 -3.9334e+001 22974 112944,112996,112970
 3.0000e-001 113048 -7.0610e+001  4.4692e+000 -1.2889e+001 22974 112892,113022,112918
 3.0000e-001 113414 -1.3301e+002 -3.2117e+001 -3.4988e-001 22370 113192,113296,113218
 3.0000e-001 113391 -1.4016e+002 -6.3353e+001 -7.9639e+000 22370 113140,113296,113192
 3.0000e-001 113368 -1.3431e+002 -3.2083e+001  1.3026e+001 22370 113218,113296,113270
 3.0000e-001 113345 -1.2023e+002 -3.2756e+001  2.7522e+001 22370 113218,113270,113244
 3.0000e-001 113322 -1.0651e+002 -7.1790e+000 -3.3642e+001 22370 113140,113192,113166
 3.0000e-001 113662 -9.9293e+001  1.5535e+000  1.6827e+001 21916 113685,113515,113489
 3.0000e-001 113639 -1.2747e+002 -2.9245e+001  5.1039e+000 21916 113685,113489,113437
 3.0000e-001 113616 -9.2973e+001 -2.8075e+001 -1.1375e+000 21916 113757,113567,113541
 3.0000e-001 113593 -1.1942e+002 -5.6172e+000 -8.6739e+000 21916 113437,113489,113463
 3.0000e-001 113711 -1.1966e+002 -4.0771e+001  1.0405e+001 21916 113541,113515,113685
 3.0000e-001 113734 -1.0914e+002 -3.8213e+001  3.1806e+000 21916 113757,113541,113685
 3.0000e-001 113783 -1.1574e+002 -2.5307e+001 -2.9397e-001 21916 113437,113567,113757
 3.0000e-001 113806 -1.1737e+002 -2.4843e+001 -4.7910e-001 21916 113437,113757,113685
 3.0000e-001 114056 -1.0623e+002 -2.4256e+001 -1.3035e+000 21412 113857,113909,113883
 3.0000e-001 114033 -9.8458e+001 -6.2319e+000 -3.2380e+000 21412 114079,113909,113857
 3.0000e-001 114010 -1.1555e+002 -1.3029e+001 -2.9265e+000 21412 114079,113857,113961
 3.0000e-001 113987 -1.0201e+002 -1.4124e+001 -3.4007e+000 21412 113831,113961,113857
 3.0000e-001 114105 -1.1239e+002 -2.5673e+000 -1.1068e+001 21412 113935,113909,114079
 3.0000e-001 114128 -1.2397e+002 -6.1012e+000 -1.0604e+001 21412 113935,114079,113961
 3.0000e-001 114378 -1.1220e+002 -3.4094e+001 -6.6273e+000 21022 114401,114257,114205
 3.0000e-001 114355 -1.2230e+002 -4.1769e+001 -1.8222e+001 21022 114401,114205,114179
 3.0000e-001 114332 -9.7611e+001 -3.7018e+001 -6.0598e+000 21022 114153,114283,114179
 3.0000e-001 114309 -1.3258e+002 -3.0264e+001 -5.3741e+000 21022 114205,114257,114231
 3.0000e-001 114427 -9.4861e+001 -3.2432e+001  3.8769e+000 21022 114283,114257,114401
 3.0000e-001 114450 -1.0858e+002 -4.0949e+001 -7.4612e+000 21022 114283,114401,114179
 3.0000e-001 114651 -1.3266e+001  1.7492e+001 -2.4289e+000 20618 114501,114553,114527
 3.0000e-001 114628 -2.2958e+001  7.1405e+000  7.8166e+000 20618 114501,114579,114553
 3.0000e-001 114605 -3.2021e+001  1.1077e+001  8.0723e+000 20618 114475,114579,114501
 3.0000e-001 114901 -1.0086e+002  7.7668e+000 -5.5960e+000 20114 114676,114780,114702
 3.0000e-001 114878 -8.2531e+001  2.6954e+001 -2.1336e+001 20114 114676,114806,114780
 3.0000e-001 114855 -1.1679e+002 -1.3842e-001 -9.2849e+000 20114 114702,114780,114754
 3.0000e-001 114832 -2.1383e+002 -3.2192e+001 -8.8362e+000 20114 114702,114754,114728
 3.0000e-001 115053 -1.2110e+002 -1.3525e+000  2.0401e+000 19460 115147,115076,114926
 3.0000e-001 115030 -1.2898e+002  8.6809e+000 -6.4692e-001 19460 115147,114926,115004
 3.0000e-001 115102 -1.2510e+002 -1.0523e+001  3.0885e+000 19460 114952,114926,115076
 3.0000e-001 115173 -1.2751e+002 -1.6598e+001 -6.6037e-001 19460 114978,115076,115147
 3.0000e-001 115196 -1.3457e+002 -4.7204e+000 -4.0192e+000 19460 114978,115147,115004
 3.0000e-001 115446 -4.9831e+001  1.6263e-001  4.6758e+000 19006 115273,115351,115299
 3.0000e-001 115423 -4.7961e+001 -6.8804e+000  1.4709e+000 19006 115247,115351,115273
 3.0000e-001 115400 -4.6293e+001 -7.5902e+000 -9.1442e+000 19006 115221,115351,115247
 3.0000e-001 115377 -3.3002e+001 -1.6059e+000 -1.1380e+001 19006 115299,115351,115325
 3.0000e-001 115767 -9.5777e+001 -2.4581e+001 -1.5328e+000 18716 115571,115649,115623
 3.0000e-001 115744 -1.0229e+002 -2.3572e+001 -8.4045e+000 18716 115493,115649,115571
 3.0000e-001 115721 -1.1132e+002 -1.3849e+001 -2.7358e+000 18716 115493,115571,115545
 3.0000e-001 115698 -1.1380e+002 -8.7557e+000 -1.3787e+001 18716 115493,115545,115519
 3.0000e-001 115675 -7.1835e+001 -1.2993e+001  2.5764e+000 18716 115571,115623,115597
 3.0000e-001 116039 -1.3802e+002 -2.7829e+001  2.1461e+001 18312 115814,115892,115840
 3.0000e-001 116016 -1.3918e+002 -3.1769e+001  2.3872e+001 18312 115814,115944,115892
 3.0000e-001 115993 -1.2798e+002  4.2496e+001  3.6790e+001 18312 115892,115944,115918
 3.0000e-001 115970 -5.7451e+001  1.5731e+001  3.6943e+000 18312 115840,115892,115866
 3.0000e-001 116191 -4.6253e+001  4.8846e+000  1.5378e-004 18000 116090,116142,116116
 3.0000e-001 116168 -4.5433e+001  5.2392e+000  5.0982e-001 18000 116064,116142,116090
 3.0000e-001 116343 -1.2016e+002 -3.4327e+000  1.2702e+000 17396 116242,116294,116268
 3.0000e-001 116320 -1.3417e+002  2.2324e+001  1.3193e+001 17396 116216,116294,116242
 3.0000e-001 116566 -1.4423e+002 -6.7966e+001  1.6133e+001 16942 116390,116468,116442
 3.0000e-001 116543 -2.2081e+002 -7.0030e+001  2.6288e+001 16942 116390,116494,116468
 3.0000e-001 116520 -1.5776e+002 -9.9603e+001  7.9931e+000 16942 116390,116442,116416
 3.0000e-001 116767 -9.1217e+001  2.9822e+001 -2.0849e+001 16438 116790,116643,116617
 3.0000e-001 116744 -8.7238e+001 -9.4891e+000 -2.8165e+001 16438 116790,116617,116591
 3.0000e-001 116721 -8.4180e+001  3.7172e+000 -6.9598e+000 16438 116643,116695,116669
 3.0000e-001 116816 -8.4522e+001  6.3097e-001 -7.8636e+000 16438 116695,116643,116790
 3.0000e-001 116839 -8.2735e+001 -2.9435e+001 -2.9779e+000 16438 116695,116790,116591
 3.0000e-001 117062 -2.3031e+001 -9.4851e+000 -1.0838e+000 16074 116886,116938,116912
 3.0000e-001 117039 -3.2595e+001 -1.7138e+001  4.4343e+000 16074 116886,116990,116938
 3.0000e-001 117016 -2.4550e+001  3.8693e+000  7.5879e+000 16074 116938,116990,116964
 3.0000e-001 117214 -1.9684e+002 -1.0684e+002 -1.4812e+001 15649 117087,117139,117113
 3.0000e-001 117191 -2.0161e+002 -1.1482e+002  6.7825e-002 15649 117087,117165,117139
 3.0000e-001 117317 -2.6703e+001 -3.6024e+001  5.6934e+000 421 117239,117291,117265
 4.0000e-001 70632 -4.4068e+001 -5.4429e+000  9.5475e+000 70072 70482,70534,70508
 4.0000e-001 70609 -5.0797e+001 -5.7177e+000  3.2939e+000 70072 70482,70560,70534
 4.0000e-001 70586 -2.3411e+002 -7.8152e+001 -7.8760e+000 70072 70456,70560,70482
 4.0000e-001 70951 -2.4312e+002  2.7071e+001  0.0000e+000 69874 70703,70755,70729
 4.0000e-001 70928 -2.5213e+002  2.6003e+001  2.2065e+001 69874 70703,70781,70755
 4.0000e-001 70905 -2.4339e+002 -6.6368e+000  2.5444e+001 69874 70703,70807,70781
 4.0000e-001 70882 -2.5127e+002 -2.3467e+001  2.1283e+001 69874 70703,70833,70807
 4.0000e-001 70859 -2.6030e+001  7.7408e+001 -5.7778e-002 69874 70677,70833,70703
 4.0000e-001 71199 -1.3671e+002 -4.6995e+001  1.3613e+001 69698 71222,71052,71026
 4.0000e-001 71176 -1.3416e+002 -1.5867e+001  1.8012e+001 69698 71294,71222,71026
 4.0000e-001 71153 -1.4428e+002 -3.4267e+001  9.3271e+000 69698 71294,71026,71000
 4.0000e-001 71130 -1.7694e+002  7.2637e-001  1.5949e+001 69698 71366,71104,71078
 4.0000e-001 71248 -1.2848e+002 -1.7876e+001  1.5640e+001 69698 71078,71052,71222
 4.0000e-001 71271 -1.4475e+002 -1.3315e+001  3.2641e+001 69698 71366,71078,71222
 4.0000e-001 71320 -1.2197e+002 -2.1152e+001  3.4953e+001 69698 70974,71222,71294
 4.0000e-001 71343 -1.2252e+002 -2.3176e+001  2.7990e+001 69698 70974,71294,71000
 4.0000e-001 71392 -1.4345e+002  4.0079e+001  3.1019e+001 69698 70974,71104,71366
 4.0000e-001 71415 -1.2482e+002  1.7526e+001  4.1209e+001 69698 70974,71366,71222
 4.0000e-001 71516 -2.1261e+002 -2.4868e+001  1.3081e+001 69386 71438,71490,71464
 4.0000e-001 71869 -1.6389e+002 -3.9517e+001 -5.3561e+000 69188 71644,71748,71670
 4.0000e-001 71846 -1.4326e+002 -6.1177e+001  6.5676e+000 69188 71644,71774,71748
 4.0000e-001 71823 -1.6295e+002 -8.4188e+001 -1.6646e+001 69188 71670,71748,71722
 4.0000e-001 71800 -1.0131e+002 -7.6509e+000  1.1003e+001 69188 71670,71722,71696
 4.0000e-001 72019 -3.3735e+002 -7.9599e+001  5.4773e+001 68990 71918,71970,71944
 4.0000e-001 71996 -4.0463e+002 -2.4685e+001  3.0982e+001 68990 71892,71970,71918
 4.0000e-001 72316 -2.2609e+002 -6.9200e+001  8.8615e+000 68586 72339,72172,72146
 4.0000e-001 72293 -2.3330e+002 -9.3421e+001  9.4271e+000 68586 72339,72146,72120
 4.0000e-001 72270 -2.3056e+002 -9.7200e+001  3.0814e+001 68586 72411,72068,72198
 4.0000e-001 72247 -2.6780e+002 -1.0269e+002  2.9750e+001 68586 72042,72198,72068
 4.0000e-001 72224 -1.9120e+002 -4.4814e+001  1.3900e+001 68586 72068,72120,72094
 4.0000e-001 72365 -2.3299e+002 -6.3562e+001  2.5819e+001 68586 72198,72172,72339
 4.0000e-001 72388 -2.4324e+002 -8.7516e+001  2.5355e+001 68586 72411,72198,72339
 4.0000e-001 72437 -2.1349e+002 -8.7018e+001  2.5208e+001 68586 72120,72068,72411
 4.0000e-001 72460 -2.2630e+002 -7.5529e+001  1.9486e+001 68586 72120,72411,72339
 4.0000e-001 72864 -1.6299e+002 -5.1717e+001  5.7978e+000 68388 72642,72694,72668
 4.0000e-001 72841 -1.6842e+002 -5.6303e+001  9.7112e+000 68388 72616,72694,72642
 4.0000e-001 72818 -1.8743e+002 -6.1226e+001 -8.3680e+000 68388 72616,72720,72694
 4.0000e-001 72795 -2.1601e+002 -5.7892e+001  6.9639e+000 68388 72590,72720,72616
 4.0000e-001 72772 -2.6729e+002  2.2912e+001 -7.1256e+001 68388 72590,72746,72720
 4.0000e-001 73321 -1.6979e+002 -1.1387e+002 -6.2865e+000 68048 73073,73203,73177
 4.0000e-001 73298 -1.6809e+002 -8.2448e+001  2.9672e+001 68048 73047,73203,73073
 4.0000e-001 73275 -2.2195e+002 -7.8049e+001  1.7431e+000 68048 73125,73177,73151
 4.0000e-001 73252 -2.0436e+002 -7.4443e+001 -2.2415e+000 68048 73073,73177,73125
 4.0000e-001 73229 -1.9032e+002 -4.0609e+001  3.4986e+000 68048 73073,73125,73099
 4.0000e-001 73640 -2.9782e+002 -2.1371e+001  2.1523e+000 67850 73444,73496,73470
 4.0000e-001 73617 -2.3115e+002 -2.8450e+001 -6.0875e+000 67850 73418,73496,73444
 4.0000e-001 73594 -2.3458e+002 -3.7461e+001 -7.4652e+000 67850 73392,73496,73418
 4.0000e-001 73571 -1.7969e+002 -2.9612e+001  1.2022e+001 67850 73392,73522,73496
 4.0000e-001 73548 -1.4748e+002 -6.2069e+000 -2.6758e+001 67850 73366,73522,73392
 4.0000e-001 73790 -2.3812e+002 -1.0519e+002 -1.6348e+000 67602 73689,73741,73715
 4.0000e-001 73767 -2.2591e+002 -7.5714e+001 -7.4292e-001 67602 73663,73741,73689
 4.0000e-001 74040 -2.6085e+002 -9.9379e+001 -3.2800e+000 67290 73841,73945,73919
 4.0000e-001 74017 -2.2319e+002 -1.0024e+002 -1.5350e+001 67290 73815,73945,73841
 4.0000e-001 73994 -2.4104e+002 -9.4573e+001  1.2394e+001 67290 73841,73919,73867
 4.0000e-001 73971 -2.3764e+002 -8.4131e+001  8.0018e+000 67290 73867,73919,73893
 4.0000e-001 74143 -2.6792e+002  3.5974e+000 -4.9227e+000 67092 74065,74117,74091
 4.0000e-001 74415 -1.7348e+002 -1.6579e+001 -2.4548e+001 66894 74190,74294,74216
 4.0000e-001 74392 -1.0716e+002  1.6800e+001 -1.9994e+000 66894 74190,74320,74294
 4.0000e-001 74369 -1.8758e+002 -2.2039e+001 -3.7699e+001 66894 74216,74294,74242
 4.0000e-001 74346 -1.8135e+002  5.7011e+001 -3.9901e+001 66894 74242,74294,74268
 4.0000e-001 75023 -2.1070e+002 -8.8250e+001  2.0954e+001 66532 74654,74836,74810
 4.0000e-001 75000 -1.4668e+002 -5.9436e+001  3.3634e+001 66532 74628,74836,74654
 4.0000e-001 74977 -1.5590e+002 -6.5544e+001 -9.9974e+000 66532 74706,74784,74732
 4.0000e-001 74954 -1.9671e+002 -9.6303e+001 -3.4353e+001 66532 74680,74784,74706
 4.0000e-001 74931 -2.6318e+002 -8.1374e+001 -2.7470e+001 66532 74680,74810,74784
 4.0000e-001 74908 -1.9032e+002 -6.7345e+001  3.0406e+001 66532 74654,74810,74680
 4.0000e-001 74885 -2.0027e+002 -7.4905e+001  2.9090e+001 66532 74602,74836,74628
 4.0000e-001 74862 -1.8974e+002 -7.1547e+001  6.9479e+000 66532 74732,74784,74758
 4.0000e-001 75222 -2.2902e+002 -3.2122e+001  1.0026e+001 66242 75072,75150,75124
 4.0000e-001 75199 -2.1909e+002 -9.6356e+000  4.9190e+000 66242 75046,75150,75072
 4.0000e-001 75176 -2.4146e+002 -3.8752e+001  2.4278e+000 66242 75072,75124,75098
 4.0000e-001 75470 -2.8134e+002  8.6656e+000  8.5401e+000 65838 75297,75375,75349
 4.0000e-001 75447 -2.7410e+002 -1.5294e+001  1.1891e+001 65838 75271,75375,75297
 4.0000e-001 75424 -2.0224e+002  7.9214e+001  5.2917e+001 65838 75297,75349,75323
 4.0000e-001 75401 -2.6032e+002 -4.7086e+000  2.4934e+001 65838 75245,75375,75271
 4.0000e-001 75671 -4.3825e-001 -3.3796e+000 -1.2715e+000 65640 75495,75573,75521
 4.0000e-001 75648 -1.3853e+001 -7.1106e+000 -4.2974e+000 65640 75495,75599,75573
 4.0000e-001 75625 -3.0737e+001 -2.6264e+000  4.4263e+000 65640 75521,75573,75547
 4.0000e-001 75872 -1.5909e+002 -6.9176e+001 -3.3960e+000 65300 75895,75748,75722
 4.0000e-001 75849 -1.4945e+002 -3.2982e+001  1.5637e+001 65300 75895,75722,75696
 4.0000e-001 75826 -1.4085e+002  1.9426e+001 -3.1255e+000 65300 75967,75774,75748
 4.0000e-001 75921 -1.5065e+002 -1.1841e+001  7.2555e+000 65300 75967,75748,75895
 4.0000e-001 75944 -1.5116e+002 -7.6433e+000  2.7862e+001 65300 75800,75895,75696
 4.0000e-001 75993 -1.5775e+002 -2.6161e+001  1.2452e+001 65300 75800,75774,75967
 4.0000e-001 76016 -1.5860e+002 -3.7701e+001  2.3648e+001 65300 75800,75967,75895
 4.0000e-001 76371 -1.9539e+002 -4.9159e+001  1.2658e+001 64896 76146,76250,76172
 4.0000e-001 76348 -1.9874e+002 -7.2913e+001  1.8859e+000 64896 76146,76276,76250
 4.0000e-001 76325 -1.5009e+002 -3.8426e+001 -5.6500e+000 64896 76172,76250,76198
 4.0000e-001 76302 -3.2444e+002 -1.1399e+002 -2.7616e+001 64896 76198,76250,76224
 4.0000e-001 76570 -3.3025e+002 -7.5483e+001  4.2145e+001 64442 76446,76498,76472
 4.0000e-001 76547 -2.8446e+002 -2.2935e+001 -3.8118e+000 64442 76420,76498,76446
 4.0000e-001 76524 -2.9204e+002 -4.6889e+001 -3.9763e+000 64442 76394,76498,76420
 4.0000e-001 76999 -1.9674e+002 -5.1074e+001  2.3667e+000 63924 77022,76728,76702
 4.0000e-001 76976 -2.0303e+002 -5.4851e+001  4.0560e+000 63924 77022,76702,76832
 4.0000e-001 76953 -2.0023e+002 -6.4191e+001 -2.2847e+001 63924 76728,76806,76754
 4.0000e-001 76930 -2.5033e+002 -8.1516e+001 -8.1931e+000 63924 76676,76832,76702
 4.0000e-001 76907 -2.3778e+002 -3.3146e+001 -2.3052e+001 63924 76754,76806,76780
 4.0000e-001 76884 -2.7066e+002 -3.9657e+001 -5.1999e+000 63924 76676,76858,76832
 4.0000e-001 77048 -2.0483e+002 -4.7332e+001  2.0405e+000 63924 76806,76728,77022
 4.0000e-001 77071 -2.1058e+002 -5.0599e+001  3.4935e+000 63924 76806,77022,76832
 4.0000e-001 77449 -1.3396e+002 -4.2835e+000  6.1654e+000 63320 77472,77253,77201
 4.0000e-001 77426 -1.2777e+002 -2.8948e+001 -2.0837e+001 63320 77472,77201,77175
 4.0000e-001 77403 -1.7851e+002 -5.3484e+001 -1.5132e+001 63320 77175,77305,77279
 4.0000e-001 77380 -1.7128e+002 -5.7695e+001  4.5190e+001 63320 77201,77253,77227
 4.0000e-001 77357 -2.0567e+002 -6.7779e+001 -5.7409e+000 63320 77175,77331,77305
 4.0000e-001 77498 -1.5572e+002 -5.5697e+001  1.2846e+001 63320 77279,77253,77472
 4.0000e-001 77521 -1.3503e+002 -5.0043e+001 -2.0824e+001 63320 77279,77472,77175
 4.0000e-001 77769 -2.0638e+002 -5.2597e+001  6.0286e+000 62816 77570,77622,77596
 4.0000e-001 77746 -1.9829e+002 -7.7509e+001  1.0184e+000 62816 77570,77648,77622
 4.0000e-001 77723 -2.3898e+002 -8.0085e+001 -4.4672e+001 62816 77570,77674,77648
 4.0000e-001 77700 -1.8447e+002 -4.7258e+001 -3.0875e+001 62816 77544,77674,77570
 4.0000e-001 78149 -1.8901e+002 -1.0257e+002 -1.0489e+001 62354 77953,78031,78005
 4.0000e-001 78126 -1.9023e+002 -8.3141e+001 -8.8657e+000 62354 77901,78031,77953
 4.0000e-001 78103 -1.7685e+002 -7.7286e+001 -7.2334e+000 62354 77875,78031,77901
 4.0000e-001 78080 -2.2499e+002 -6.9062e+001  2.2890e+001 62354 77901,77953,77927
 4.0000e-001 78057 -2.7062e+002 -1.0767e+002 -2.0156e+001 62354 77953,78005,77979
 4.0000e-001 78606 -1.2203e+002 -8.4137e+001 -5.4845e+001 61950 78384,78436,78410
 4.0000e-001 78583 -1.2899e+002 -5.4053e+001 -6.1408e+000 61950 78358,78436,78384
 4.0000e-001 78560 -1.3284e+002 -8.4745e+001  9.3089e+000 61950 78358,78488,78436
 4.0000e-001 78537 -1.0059e+002 -2.1052e+001 -1.7875e+000 61950 78436,78488,78462
 4.0000e-001 78514 -1.3669e+002 -8.3352e+001  1.0247e+001 61950 78332,78488,78358
 4.0000e-001 78756 -2.3081e+002 -7.2480e+001  1.5612e+001 61339 78779,78655,78629
 4.0000e-001 78733 -2.3091e+002 -4.3008e+001  1.4330e+001 61339 78779,78629,78707
 4.0000e-001 78805 -2.0712e+002 -2.4547e+001 -5.5013e+000 61339 78851,78779,78681
 4.0000e-001 78828 -2.6539e+002 -5.7043e+001  7.2809e+000 61339 78681,78779,78707
 4.0000e-001 78877 -2.4213e+002 -1.0844e+002  2.2008e+000 61339 78655,78779,78851
 4.0000e-001 79206 -1.7323e+002 -2.4915e+001 -4.5952e+001 60892 79229,79007,78981
 4.0000e-001 79183 -1.9501e+002 -8.0614e+001 -4.9197e+001 60892 79229,78981,79111
 4.0000e-001 79160 -1.9425e+002 -3.6232e+001 -2.4883e+001 60892 79301,79033,79007
 4.0000e-001 79137 -1.9573e+002 -2.1097e+001  6.3716e+000 60892 79033,79085,79059
 4.0000e-001 79255 -1.9576e+002 -3.1717e+001 -2.8363e+001 60892 79301,79007,79229
 4.0000e-001 79278 -1.6359e+002 -4.6232e+001 -2.8949e+001 60892 79085,79229,79111
 4.0000e-001 79327 -2.0677e+002 -5.5796e+001 -1.0608e+001 60892 79085,79033,79301
 4.0000e-001 79350 -1.8684e+002 -4.0098e+001 -1.8669e+001 60892 79085,79301,79229
 4.0000e-001 79647 -2.8708e+002 -1.0866e+002 -1.9442e+001 60488 79451,79529,79503
 4.0000e-001 79624 -2.8302e+002 -1.0003e+002 -2.0687e+001 60488 79425,79529,79451
 4.0000e-001 79601 -2.2027e+002 -5.2860e+001 -1.2889e-001 60488 79373,79529,79425
 4.0000e-001 79578 -2.2440e+002 -8.8068e+001  4.8052e+000 60488 79373,79425,79399
 4.0000e-001 79555 -2.5384e+002 -2.2395e+001  4.7080e+000 60488 79451,79503,79477
 4.0000e-001 79870 -2.4015e+002 -1.0328e+002 -1.0207e+001 60026 79720,79798,79772
 4.0000e-001 79847 -3.4029e+002 -1.2810e+002 -1.8622e+001 60026 79694,79798,79720
 4.0000e-001 79824 -3.0942e+002 -1.2917e+002 -2.2375e+000 60026 79720,79772,79746
 4.0000e-001 80120 -8.2322e+001 -3.1865e+000  2.6063e+001 59629 79921,80025,79973
 4.0000e-001 80097 -4.6361e+001 -5.4138e-001  2.4645e+001 59629 79895,80025,79921
 4.0000e-001 80074 -6.9897e+001  3.1111e+000 -7.4365e+000 59629 79973,80025,79999
 4.0000e-001 80051 -5.2722e+001  1.6751e+001  1.6845e+001 59629 79921,79973,79947
 4.0000e-001 80321 -1.4582e+002 -1.3071e+001 -3.2726e+000 59125 80344,80171,80145
 4.0000e-001 80298 -1.4443e+002 -3.5552e+001 -6.1472e+000 59125 80344,80145,80249
 4.0000e-001 80275 -1.4374e+002 -4.2077e+001  1.4181e+001 59125 80197,80249,80223
 4.0000e-001 80370 -1.4704e+002  1.5030e+000  9.8951e+000 59125 80197,80171,80344
 4.0000e-001 80393 -1.4522e+002 -1.9528e+001  6.5229e+000 59125 80197,80344,80249
 4.0000e-001 80952 -1.3049e+002 -5.9891e+001  2.4250e+001 58557 80975,80632,80606
 4.0000e-001 80929 -1.6938e+002 -6.7587e+001  3.2308e+001 58557 81119,80975,80606
 4.0000e-001 80906 -1.6472e+002 -6.6218e+001 -4.3316e+000 58557 81047,80684,80632
 4.0000e-001 80883 -2.0854e+002 -8.3966e+001  3.5074e+001 58557 81119,80606,80580
 4.0000e-001 80860 -1.5693e+002  1.0047e+001 -4.4011e-001 58557 81191,80736,80710
 4.0000e-001 80837 -1.2556e+002  3.1706e+000 -2.5229e+001 58557 80736,80788,80762
 4.0000e-001 80814 -1.5633e+002 -7.1820e+001 -8.6347e+000 58557 80632,80684,80658
 4.0000e-001 81001 -1.6169e+002 -7.9315e+001  3.8304e+000 58557 81047,80632,80975
 4.0000e-001 81024 -1.6568e+002 -3.1738e+001  6.2475e-001 58557 81191,80710,80975
 4.0000e-001 81073 -1.6262e+002 -3.5452e+001 -1.3079e+001 58557 80710,80684,81047
 4.0000e-001 81096 -1.7040e+002 -5.6521e+001 -1.3631e+000 58557 80710,81047,80975
 4.0000e-001 81145 -1.7833e+002 -7.3397e+001  9.1810e+000 58557 80788,80975,81119
 4.0000e-001 81168 -1.8570e+002 -7.6800e+001  1.2819e+001 58557 80788,81119,80580
 4.0000e-001 81217 -1.5745e+002 -2.9275e+001  1.4719e+001 58557 80788,80736,81191
 4.0000e-001 81240 -1.5480e+002 -4.9701e+001  2.0124e+001 58557 80788,81191,80975
 4.0000e-001 81537 -8.4071e+001  6.7376e+001 -1.2053e+001 57881 81560,81341,81289
 4.0000e-001 81514 -7.8325e+001  7.1538e+001 -8.7914e+001 57881 81560,81289,81263
 4.0000e-001 81491 -1.2256e+002  1.5446e+001 -5.7199e+001 57881 81632,81419,81367
 4.0000e-001 81468 -1.3540e+002  9.8666e-001 -6.7189e+000 57881 81367,81419,81393
 4.0000e-001 81445 -2.2658e+002  9.7081e+001  2.0601e+001 57881 81289,81341,81315
 4.0000e-001 81586 -1.2083e+002 -2.0904e+001 -1.5835e+001 57881 81367,81341,81560
 4.0000e-001 81609 -1.2846e+002  5.6986e+001 -4.5505e+001 57881 81632,81367,81560
 4.0000e-001 81658 -1.3360e+002 -1.0050e+002 -6.1846e+001 57881 81263,81419,81632
 4.0000e-001 81681 -1.1508e+002 -1.7903e+001 -6.2096e+001 57881 81263,81632,81560
 4.0000e-001 81929 -1.7852e+001  2.4404e+000  1.8766e+001 57477 81704,81808,81782
 4.0000e-001 81906 -1.4282e+001 -1.8215e+001  2.7505e+001 57477 81704,81834,81808
 4.0000e-001 81883 -1.5820e+001 -4.6539e+000  1.3504e+001 57477 81704,81782,81730
 4.0000e-001 81860 -3.1880e+001  7.6370e-001  1.2639e+001 57477 81730,81782,81756
 4.0000e-001 82488 -1.7440e+002 -7.2452e+001  1.6658e+000 56966 82583,82511,82194
 4.0000e-001 82465 -1.6399e+002 -6.8341e+001 -1.4637e+000 56966 82511,82116,82324
 4.0000e-001 82442 -1.6177e+002 -7.6269e+001  1.2148e+000 56966 82583,82194,82168
 4.0000e-001 82419 -2.1653e+002 -7.8837e+001  2.5544e+000 56966 82194,82246,82220
 4.0000e-001 82396 -1.6322e+002 -4.9141e+001  2.0912e+001 56966 82194,82298,82246
 4.0000e-001 82373 -1.8865e+002 -6.4776e+001  4.0722e+001 56966 82246,82298,82272
 4.0000e-001 82350 -1.4468e+002 -4.3183e+001  1.0745e+001 56966 82116,82168,82142
 4.0000e-001 82537 -1.8218e+002 -7.3160e+001  1.0793e+001 56966 82298,82194,82511
 4.0000e-001 82560 -1.6543e+002 -8.1457e+001  4.1606e+000 56966 82298,82511,82324
 4.0000e-001 82609 -1.6106e+002 -6.9557e+001  7.3965e+000 56966 82116,82511,82583
 4.0000e-001 82632 -1.5199e+002 -7.5472e+001  7.7133e+000 56966 82116,82583,82168
 4.0000e-001 83236 -2.8764e+002 -8.3141e+001 -6.8319e+001 56304 82893,82945,82919
 4.0000e-001 83213 -2.2573e+002 -9.6713e+001 -8.7525e+000 56304 83259,82945,82893
 4.0000e-001 83190 -2.1312e+002 -9.3065e+001 -7.5377e+000 56304 83259,82893,83049
 4.0000e-001 83167 -2.0300e+002 -1.1119e+002  1.3799e+001 56304 82971,83049,83023
 4.0000e-001 83144 -2.0781e+002 -8.6746e+001 -2.8345e+000 56304 82815,83049,82893
 4.0000e-001 83121 -1.9064e+002 -4.1896e+001 -7.0845e+000 56304 82815,82893,82867
 4.0000e-001 83098 -1.6894e+002 -9.8594e+001 -4.3238e+000 56304 82971,83023,82997
 4.0000e-001 83075 -1.9726e+002 -7.7981e+001 -2.8491e+000 56304 82815,82867,82841
 4.0000e-001 83285 -2.3847e+002 -9.2088e+001  1.4569e+000 56304 82971,82945,83259
 4.0000e-001 83308 -2.2408e+002 -8.6519e+001  7.1273e-001 56304 82971,83259,83049
 4.0000e-001 83556 -1.9113e+002 -3.9351e+001 -9.5042e+000 55964 83357,83461,83435
 4.0000e-001 83533 -2.1855e+002 -4.7244e+000  6.1175e+000 55964 83331,83461,83357
 4.0000e-001 83510 -7.2731e+001 -2.2660e+001  1.0287e+001 55964 83357,83435,83383
 4.0000e-001 83487 -1.4346e+002 -5.6504e+001 -4.3578e+000 55964 83383,83435,83409
 4.0000e-001 83706 -2.2208e+002 -1.2422e+002 -8.5192e-001 55503 83579,83631,83605
 4.0000e-001 83683 -2.5156e+002 -1.2945e+002  5.0204e+000 55503 83579,83657,83631
 4.0000e-001 83907 -1.4908e+002 -6.8964e+001 -3.1824e+001 55156 83757,83835,83809
 4.0000e-001 83884 -1.2934e+002 -1.1652e+001 -1.4821e+001 55156 83731,83835,83757
 4.0000e-001 83861 -1.8107e+002 -1.6126e+001 -2.3831e+001 55156 83757,83809,83783
 4.0000e-001 84240 -1.2624e+002 -2.9969e+001  9.9010e+000 54652 84093,84145,84119
 4.0000e-001 84217 -1.8466e+002 -2.8576e+001  3.7290e+001 54652 84041,84145,84093
 4.0000e-001 84194 -2.0367e+002 -5.0435e+001  2.4100e+001 54652 84015,84145,84041
 4.0000e-001 84171 -2.9887e+002 -7.8916e+001  2.9130e+001 54652 84041,84093,84067
 4.0000e-001 84618 -8.2059e+001 -2.5889e+001  3.2198e+000 53926 84396,84500,84474
 4.0000e-001 84595 -6.8654e+001 -1.7752e+001  9.6584e+000 53926 84344,84500,84396
 4.0000e-001 84572 -6.1299e+001 -9.4215e+000 -4.1477e-001 53926 84344,84396,84370
 4.0000e-001 84549 -9.5442e+001 -2.8074e+001 -5.9170e+000 53926 84396,84474,84422
 4.0000e-001 84526 -8.5586e+001 -3.3653e+001 -4.0357e+000 53926 84422,84474,84448
 4.0000e-001 85350 -2.6076e+002 -8.9075e+001 -4.0527e+001 53586 85373,84880,85088
 4.0000e-001 85327 -1.4562e+002 -8.3949e+001 -4.1842e+001 53586 84880,85114,85088
 4.0000e-001 85304 -1.7388e+002 -4.5746e+001 -1.9430e+001 53586 85373,85088,85062
 4.0000e-001 85281 -2.9448e+002 -1.0395e+002  7.2586e+001 53586 85010,85062,85036
 4.0000e-001 85258 -2.5012e+002 -4.9760e+001  2.0009e+001 53586 85445,85010,84958
 4.0000e-001 85235 -1.2605e+002 -1.4770e+001 -1.9908e+001 53586 85445,84958,84906
 4.0000e-001 85212 -1.9887e+002 -4.6044e+001  1.8409e+000 53586 84958,85010,84984
 4.0000e-001 85189 -1.7665e+002 -5.5630e+001 -4.5334e+001 53586 84906,84958,84932
 4.0000e-001 85166 -1.7569e+002 -1.2355e+002 -2.1781e+001 53586 84880,85140,85114
 4.0000e-001 85399 -2.8747e+002 -6.3053e+001  6.0592e+001 53586 84906,84880,85373
 4.0000e-001 85422 -2.1598e+002 -2.7916e+001  4.8886e+001 53586 85517,85373,85062
 4.0000e-001 85471 -2.6047e+002 -7.7778e+001  8.6144e+001 53586 85062,85010,85445
 4.0000e-001 85494 -1.9706e+002 -2.6421e+001  4.3235e+001 53586 85517,85062,85445
 4.0000e-001 85543 -1.8535e+002 -3.4086e+001  5.6571e+001 53586 84906,85373,85517
 4.0000e-001 85566 -1.7399e+002 -3.8856e+001  5.2374e+001 53586 84906,85517,85445
 4.0000e-001 86072 -1.3921e+002 -7.2477e+001 -3.3693e+001 53182 86095,85853,85775
 4.0000e-001 86049 -1.5430e+002 -4.4531e+001 -2.7352e+001 53182 86095,85775,85931
 4.0000e-001 86026 -1.5751e+002 -8.0295e+001 -1.8648e+001 53182 86167,85879,85853
 4.0000e-001 86003 -2.0889e+002 -9.3555e+001 -8.1563e+000 53182 85775,85827,85801
 4.0000e-001 85980 -1.3947e+002 -8.7761e+001 -2.1079e+001 53182 85775,85853,85827
 4.0000e-001 85957 -1.2831e+002 -4.8840e+001  1.7615e+001 53182 85749,85931,85775
 4.0000e-001 86121 -1.4677e+002 -6.9387e+001 -3.2150e+001 53182 86167,85853,86095
 4.0000e-001 86144 -1.7353e+002 -7.2527e+001 -3.6598e+001 53182 85905,86095,85931
 4.0000e-001 86193 -1.5839e+002 -8.8771e+001 -1.2110e+001 53182 85905,85879,86167
 4.0000e-001 86216 -1.5599e+002 -9.5731e+001 -2.5223e+001 53182 85905,86167,86095
 4.0000e-001 86673 -1.7186e+002  1.7925e+001  1.9441e+001 52778 86477,86529,86503
 4.0000e-001 86650 -1.8836e+002 -5.6499e+001  7.0387e+000 52778 86425,86529,86477
 4.0000e-001 86627 -1.7740e+002 -6.2903e+001  1.5313e+001 52778 86425,86477,86451
 4.0000e-001 86604 -1.3762e+002 -2.4899e+001  2.4213e+001 52778 86399,86529,86425
 4.0000e-001 86581 -1.1941e+002 -1.9494e+001  2.8263e+001 52778 86399,86555,86529
 4.0000e-001 87258 -1.6479e+002 -3.8562e+001  2.0875e+001 52238 87281,86987,86961
 4.0000e-001 87235 -1.7567e+002 -4.9641e+001  1.3145e+001 52238 87281,86961,87117
 4.0000e-001 87212 -1.7138e+002  6.5033e+000  1.2721e+001 52238 86935,87117,86961
 4.0000e-001 87189 -2.0557e+002 -1.2039e+001  4.5760e+000 52238 87065,87117,87091
 4.0000e-001 87166 -1.7214e+002 -8.5991e+001  1.6407e+000 52238 86987,87065,87039
 4.0000e-001 87143 -1.7420e+002 -1.2510e+002  3.5453e+001 52238 86987,87039,87013
 4.0000e-001 87307 -1.6971e+002 -5.2994e+001  1.0960e+001 52238 87065,86987,87281
 4.0000e-001 87330 -1.7640e+002 -5.5597e+001  3.8790e+000 52238 87065,87281,87117
 4.0000e-001 87610 -1.5300e+002  4.4433e+000  2.5846e+001 51834 87434,87512,87460
 4.0000e-001 87587 -1.8204e+002 -1.3429e+001  1.2271e+001 51834 87434,87538,87512
 4.0000e-001 87564 -2.4464e+002 -7.9168e+001 -1.3162e+001 51834 87633,87460,87512
 4.0000e-001 87659 -2.7677e+002 -9.2948e+001 -1.4602e+001 51834 87486,87460,87633
 4.0000e-001 88187 -1.9270e+002 -7.5700e+001 -4.3235e-001 51266 87864,87942,87890
 4.0000e-001 88164 -1.7527e+002 -4.4241e+000  3.8753e+000 51266 87864,88020,87942
 4.0000e-001 88141 -3.1085e+002 -8.7634e+001 -5.0141e+001 51266 87942,88020,87968
 4.0000e-001 88118 -2.4198e+002 -8.9642e+001  3.8977e+001 51266 87864,88046,88020
 4.0000e-001 88095 -1.7288e+002  8.1318e+000  4.9630e+000 51266 87968,88020,87994
 4.0000e-001 88072 -1.6833e+002 -7.6324e+001 -1.9422e+001 51266 87890,87942,87916
 4.0000e-001 88644 -2.5214e+002 -1.0194e+002 -1.5866e+001 50754 88370,88500,88396
 4.0000e-001 88621 -2.6294e+002 -1.1774e+001 -3.5127e+001 50754 88370,88526,88500
 4.0000e-001 88598 -1.5597e+002 -2.6675e+001  3.6163e+001 50754 88396,88500,88422
 4.0000e-001 88575 -1.7516e+002 -6.9068e+001  3.1654e+001 50754 88422,88500,88474
 4.0000e-001 88552 -2.2377e+002 -1.0974e+002 -9.8832e+000 50754 88422,88474,88448
 4.0000e-001 88914 -1.5874e+002 -7.5825e+000  3.9468e+000 50442 88715,88793,88741
 4.0000e-001 88891 -1.0163e+002  7.7894e+000 -1.1272e+001 50442 88715,88819,88793
 4.0000e-001 88868 -2.1903e+002 -4.8518e+001 -3.6133e+001 50442 88689,88819,88715
 4.0000e-001 88845 -9.9601e+001  2.4822e+001  2.1668e+001 50442 88741,88793,88767
 4.0000e-001 89294 -1.3796e+002 -2.1574e+001  6.0629e+000 49938 89317,89046,89020
 4.0000e-001 89271 -1.2403e+002 -2.5283e+001 -1.1792e+000 49938 89317,89020,89150
 4.0000e-001 89248 -9.8851e+001 -3.3295e+001  2.3268e-001 49938 89072,89150,89098
 4.0000e-001 89225 -1.4132e+002 -1.3538e+001 -2.3473e+001 49938 89020,89176,89150
 4.0000e-001 89202 -9.7646e+001 -3.6844e+001 -1.5733e+000 49938 89098,89150,89124
 4.0000e-001 89343 -1.0020e+002 -1.2981e+001  2.5125e+001 49938 89072,89046,89317
 4.0000e-001 89366 -1.1340e+002 -2.6086e+001 -3.0070e+000 49938 89072,89317,89150
 4.0000e-001 89823 -1.2059e+002 -3.9799e+001 -2.6174e+001 49384 89601,89705,89679
 4.0000e-001 89800 -8.2249e+001 -4.4421e+001  2.5869e+001 49384 89549,89705,89601
 4.0000e-001 89777 -7.3197e+001 -1.3188e+001  1.9821e+001 49384 89549,89601,89575
 4.0000e-001 89754 -8.7506e+001 -2.4606e+001 -1.9024e+001 49384 89601,89679,89627
 4.0000e-001 89731 -6.1478e+001  1.9926e+001 -3.6791e+001 49384 89627,89679,89653
 4.0000e-001 90329 -4.5159e+001 -2.0835e+000 -1.3310e+000 48894 90058,90110,90084
 4.0000e-001 90306 -5.7754e+001 -7.0107e+000  1.0524e+001 48894 90058,90162,90110
 4.0000e-001 90283 -9.7965e+001 -1.8685e+001 -3.2121e+000 48894 90032,90162,90058
 4.0000e-001 90260 -8.1745e+001 -7.7487e+000 -1.5944e+001 48894 90006,90162,90032
 4.0000e-001 90237 -2.1266e+001 -6.0320e+000 -1.0735e+001 48894 90110,90162,90136
 4.0000e-001 90214 -6.6890e+001 -1.1058e+001 -2.8282e+000 48894 90006,90188,90162
 4.0000e-001 90884 -6.2600e+001 -8.6503e+000  1.1255e+001 48490 90564,90642,90616
 4.0000e-001 90861 -5.6073e+001  2.9863e-001  6.7658e+000 48490 90564,90694,90642
 4.0000e-001 90838 -6.8056e+001 -1.4119e+000  1.0213e+001 48490 90538,90694,90564
 4.0000e-001 90815 -1.2027e+002 -1.2210e+001  1.1983e+001 48490 90538,90720,90694
 4.0000e-001 90792 -5.7709e+001 -5.0092e+000  3.8695e+000 48490 90564,90616,90590
 4.0000e-001 90769 -5.0492e+001 -6.0651e-001 -9.8937e+000 48490 90642,90694,90668
 4.0000e-001 90746 -1.2503e+002 -1.6499e+001  8.0964e+000 48490 90512,90720,90538
 4.0000e-001 91034 -8.6822e+001  4.1722e+001 -2.9474e+001 48086 91057,90959,90933
 4.0000e-001 91011 -1.1676e+002 -1.7939e+001 -3.9739e+001 48086 91129,91057,90933
 4.0000e-001 91083 -6.8576e+001  9.8449e+000 -3.3045e+000 48086 90985,90959,91057
 4.0000e-001 91106 -8.1223e+001 -2.5684e+000 -8.9983e+000 48086 90985,91057,90907
 4.0000e-001 91155 -9.0393e+001  1.4532e+001 -1.4629e+001 48086 90907,91057,91129
 4.0000e-001 91791 -2.2104e+002 -9.5708e+001 -7.3996e+000 47518 92030,91814,91523
 4.0000e-001 91768 -1.8614e+002 -8.8188e+001 -1.8928e+001 47518 91958,91814,91471
 4.0000e-001 91745 -1.6856e+002 -3.8070e+001 -6.8889e+000 47518 91886,91575,91523
 4.0000e-001 91722 -1.8319e+002 -1.0410e+002  5.2303e+000 47518 91958,91471,91419
 4.0000e-001 91699 -2.7377e+002 -5.0977e+001 -3.3249e+001 47518 92030,91523,91497
 4.0000e-001 91676 -2.0718e+002 -2.0275e+001 -1.2547e+001 47518 91523,91575,91549
 4.0000e-001 91653 -1.6695e+002 -8.3518e+001 -1.8184e+000 47518 91419,91471,91445
 4.0000e-001 91840 -1.8165e+002 -6.4165e+001 -2.5039e+001 47518 91886,91523,91814
 4.0000e-001 91863 -2.2960e+002 -1.3741e+002 -1.2304e+001 47518 91601,91814,91627
 4.0000e-001 91912 -1.4870e+002 -2.4791e+001  2.9596e+001 47518 91601,91575,91886
 4.0000e-001 91935 -1.6191e+002 -7.9897e+001  1.2736e+001 47518 91601,91886,91814
 4.0000e-001 91984 -2.1657e+002 -1.0179e+002 -1.3677e+001 47518 91627,91814,91958
 4.0000e-001 92007 -2.0151e+002 -1.1144e+002  6.4387e+000 47518 91627,91958,91419
 4.0000e-001 92056 -2.4549e+002 -1.4240e+002 -4.7530e+001 47518 91471,91814,92030
 4.0000e-001 92079 -2.9096e+002 -1.1576e+002 -7.7843e+001 47518 91471,92030,91497
 4.0000e-001 92229 -1.9356e+002 -9.4677e+001 -3.5181e+001 47128 92252,92128,92102
 4.0000e-001 92206 -2.2101e+002 -1.4205e+002 -2.3765e+001 47128 92324,92252,92102
 4.0000e-001 92278 -2.1498e+002 -1.5930e+002 -2.6949e+001 47128 92454,92252,92154
 4.0000e-001 92301 -2.0854e+002 -1.0620e+002 -1.8292e+001 47128 92154,92252,92180
 4.0000e-001 92350 -1.7111e+002 -8.8469e+001 -3.1414e+000 47128 92180,92252,92324
 4.0000e-001 92480 -1.8472e+002 -8.1903e+001 -6.9244e+000 47128 92128,92252,92454
 4.0000e-001 93340 -1.8158e+002 -7.1990e-001  1.8346e+001 46838 93363,92977,92873
 4.0000e-001 93317 -2.5627e+002 -3.0292e+001  9.0378e+000 46838 93507,93363,92873
 4.0000e-001 93294 -2.1402e+002 -8.4344e+001 -3.1039e+001 46838 93435,93003,92977
 4.0000e-001 93271 -2.7368e+002 -6.4013e+001 -7.7184e+000 46838 93507,92873,92847
 4.0000e-001 93248 -1.9882e+002 -4.8311e+001 -2.1712e+001 46838 93579,93029,93003
 4.0000e-001 93225 -1.2261e+002 -2.7576e+001  1.5671e+001 46838 92873,92951,92925
 4.0000e-001 93202 -1.3910e+002 -3.2655e+001 -1.9418e+000 46838 92873,92977,92951
 4.0000e-001 93179 -2.5190e+002 -7.8148e+001  2.3572e+001 46838 93055,93107,93081
 4.0000e-001 93156 -3.7106e+002 -1.6111e+002 -8.3118e+000 46838 92821,93107,92847
 4.0000e-001 93133 -1.1829e+002 -3.7080e+001  2.2599e+001 46838 92873,92925,92899
 4.0000e-001 93389 -2.2887e+002 -5.0246e+001 -1.4045e+001 46838 93435,92977,93363
 4.0000e-001 93412 -2.0784e+002 -5.6835e+000  2.1480e+000 46838 93055,93363,93107
 4.0000e-001 93461 -2.0361e+002 -4.7615e+001 -2.7139e+001 46838 93579,93003,93435
 4.0000e-001 93484 -2.1316e+002 -1.1113e+001 -2.2241e+001 46838 93055,93435,93363
 4.0000e-001 93533 -2.3446e+002 -8.4246e+001  8.5727e+000 46838 93107,93363,93507
 4.0000e-001 93556 -2.3272e+002 -1.0382e+002  4.6777e+000 46838 93107,93507,92847
 4.0000e-001 93605 -1.8609e+002 -4.4030e+001 -1.9374e+001 46838 93055,93029,93579
 4.0000e-001 93628 -1.9145e+002 -4.3309e+001 -2.4566e+001 46838 93055,93579,93435
 4.0000e-001 93979 -2.5444e+002  5.2578e+001  3.0764e+001 46476 93780,93884,93858
 4.0000e-001 93956 -2.8155e+002 -1.4700e+001  2.2514e+001 46476 93754,93884,93780
 4.0000e-001 93933 -5.5505e+002 -1.9462e+001 -1.1733e+001 46476 93806,93858,93832
 4.0000e-001 93910 -5.3249e+002 -6.2038e+001  3.5597e+001 46476 93780,93858,93806
 4.0000e-001 94515 -1.5763e+002 -6.0915e+001 -7.8888e+000 46072 94345,94397,94371
 4.0000e-001 94492 -1.1697e+002 -4.5697e+001  2.5630e+000 46072 94267,94397,94345
 4.0000e-001 94469 -8.9488e+001  3.4405e+001 -4.7568e+000 46072 94241,94397,94267
 4.0000e-001 94446 -7.4774e+001 -2.0218e+001 -2.5417e+001 46072 94293,94345,94319
 4.0000e-001 94423 -1.1235e+002  2.3580e+000  5.2463e+000 46072 94267,94345,94293
 4.0000e-001 95149 -1.3738e+002 -2.3133e+001 -2.7024e+000 45346 94803,94881,94855
 4.0000e-001 95126 -1.2584e+002 -5.7584e+000 -1.1094e+001 45346 94803,94959,94881
 4.0000e-001 95103 -1.0436e+002 -9.1917e+000 -9.1881e+000 45346 95172,94933,94907
 4.0000e-001 95080 -1.1693e+002 -8.3636e+000 -3.5872e+000 45346 95172,94907,94881
 4.0000e-001 95057 -1.1862e+002 -7.0016e+001 -4.4228e+001 45346 94803,94985,94959
 4.0000e-001 95034 -1.4159e+002  1.2658e+001  5.9076e+000 45346 94803,94855,94829
 4.0000e-001 95011 -1.0660e+002 -5.1330e+001 -7.9707e+001 45346 94777,94985,94803
 4.0000e-001 95198 -1.1598e+002 -8.2167e+000 -1.0229e+001 45346 94959,94933,95172
 4.0000e-001 95221 -1.2591e+002 -4.7213e+000 -7.1795e+000 45346 94959,95172,94881
 4.0000e-001 95776 -1.2427e+002 -2.9032e+001  5.6134e+001 44720 95799,95560,95534
 4.0000e-001 95753 -1.4230e+002 -4.0968e+001  6.2279e+001 44720 95799,95534,95482
 4.0000e-001 95730 -1.6050e+002 -3.6055e+001  6.2650e+001 44720 95943,95871,95430
 4.0000e-001 95707 -1.6521e+002 -1.9504e+001  6.5435e+001 44720 95943,95430,95404
 4.0000e-001 95684 -2.3014e+002 -6.0813e+001  5.9455e+001 44720 95430,95482,95456
 4.0000e-001 95661 -8.6104e+001 -2.9894e+001  3.6940e+001 44720 95482,95534,95508
 4.0000e-001 95638 -1.3621e+002  1.1638e+000  6.7612e+001 44720 95404,95612,95586
 4.0000e-001 95825 -1.4138e+002 -1.1019e+001  6.2243e+001 44720 95586,95560,95799
 4.0000e-001 95848 -1.4785e+002 -2.6899e+001  6.2812e+001 44720 95871,95586,95799
 4.0000e-001 95897 -1.5981e+002 -4.3753e+001  4.9723e+001 44720 95482,95430,95871
 4.0000e-001 95920 -1.5476e+002 -2.6344e+001  5.5331e+001 44720 95482,95871,95799
 4.0000e-001 95969 -1.5192e+002 -1.5552e+001  5.9051e+001 44720 95586,95871,95943
 4.0000e-001 95992 -1.6126e+002 -5.8268e+000  6.4822e+001 44720 95586,95943,95404
 4.0000e-001 96449 -1.6181e+002 -5.0739e+001  7.2769e+000 44202 96544,96472,96227
 4.0000e-001 96426 -1.7546e+002 -1.1035e+002  8.8163e+000 44202 96472,96175,96331
 4.0000e-001 96403 -2.0209e+002 -1.8354e+001 -2.5401e-001 44202 96544,96227,96201
 4.0000e-001 96380 -9.4320e+001 -4.4297e+001  8.5306e+000 44202 96253,96305,96279
 4.0000e-001 96357 -1.2780e+002 -4.2222e+001  2.8277e+001 44202 96227,96305,96253
 4.0000e-001 96498 -1.7526e+002 -9.1129e+001  6.2866e+000 44202 96305,96227,96472
 4.0000e-001 96521 -1.6500e+002 -8.5658e+001  8.9015e+000 44202 96305,96472,96331
 4.0000e-001 96570 -1.9376e+002 -1.0946e+002 -9.8315e+000 44202 96175,96472,96544
 4.0000e-001 96593 -2.1492e+002 -5.3101e+001 -1.1999e+001 44202 96175,96544,96201
 4.0000e-001 96971 -9.9190e+001 -4.1451e+001 -1.4241e+001 43754 96994,96749,96697
 4.0000e-001 96948 -9.5267e+001 -5.6640e+001 -4.3580e+000 43754 96994,96697,96853
 4.0000e-001 96925 -8.9489e+001 -4.4123e+001 -1.9918e+001 43754 96697,96749,96723
 4.0000e-001 96902 -8.7772e+001 -1.9133e+001 -9.1771e+000 43754 96775,96853,96827
 4.0000e-001 96879 -3.6606e+001 -1.1974e+001 -1.1000e+000 43754 96775,96827,96801
 4.0000e-001 97020 -9.1568e+001 -1.5512e+001 -2.0098e+001 43754 96775,96749,96994
 4.0000e-001 97043 -9.5680e+001 -4.1100e+001 -9.4023e+000 43754 96775,96994,96853
 4.0000e-001 97291 -1.5518e+002  1.3625e+001 -1.0527e+001 43364 97314,97144,97118
 4.0000e-001 97268 -1.5097e+002 -3.1538e+001 -3.0849e+001 43364 97314,97118,97092
 4.0000e-001 97245 -1.5016e+002 -5.7656e+001 -2.7015e+001 43364 97386,97196,97170
 4.0000e-001 97222 -1.8651e+002 -1.0125e+002 -2.8470e+001 43364 97066,97196,97092
 4.0000e-001 97340 -1.5396e+002 -4.2318e+001 -8.1554e+000 43364 97170,97144,97314
 4.0000e-001 97363 -1.4512e+002 -4.7252e+001 -3.3537e+001 43364 97386,97170,97314
 4.0000e-001 97412 -1.5457e+002 -7.0796e+001 -1.5220e+001 43364 97092,97196,97386
 4.0000e-001 97435 -1.4782e+002 -6.3912e+001 -2.2494e+001 43364 97092,97386,97314
 4.0000e-001 97788 -1.3465e+002 -2.7306e+001 -1.2380e+001 42960 97563,97667,97589
 4.0000e-001 97765 -1.9367e+002 -9.8994e+001  1.5253e+001 42960 97563,97693,97667
 4.0000e-001 97742 -2.4521e+002  5.1798e+001 -9.5262e+000 42960 97589,97641,97615
 4.0000e-001 97719 -2.5418e+002 -5.1873e+001 -1.1642e+001 42960 97589,97667,97641
 4.0000e-001 98215 -5.5915e+001 -9.5027e+000 -3.8382e+001 42563 97918,98074,98048
 4.0000e-001 98192 -1.3092e+001  2.6818e+001 -1.8256e+001 42563 97892,98074,97918
 4.0000e-001 98169 -6.8325e+001 -1.1076e+001 -3.6724e+001 42563 98238,97944,97918
 4.0000e-001 98146 -7.7441e+001 -3.2164e+001 -2.9289e+001 42563 98238,97918,98048
 4.0000e-001 98123 -1.0382e+002 -2.2477e+001 -1.2143e+001 42563 97944,98022,97996
 4.0000e-001 98100 -9.6160e+001 -1.5476e+000 -7.6246e+000 42563 97944,97996,97970
 4.0000e-001 98264 -7.6860e+001 -2.5839e+001 -2.6333e+001 42563 98022,97944,98238
 4.0000e-001 98287 -7.8950e+001 -3.3795e+001 -1.9365e+001 42563 98022,98238,98048
 4.0000e-001 98616 -1.2597e+002 -7.0601e+001  4.6989e+000 42251 98443,98521,98469
 4.0000e-001 98593 -1.2640e+002 -5.6860e+001  6.8308e+000 42251 98417,98521,98443
 4.0000e-001 98570 -1.2694e+002 -5.9356e+001 -3.7181e+000 42251 98391,98521,98417
 4.0000e-001 98547 -1.4824e+002 -7.4694e+001 -2.8031e+000 42251 98469,98521,98495
 4.0000e-001 98886 -2.9501e+002 -3.4437e+001 -3.9569e+001 41847 98661,98765,98687
 4.0000e-001 98863 -3.8375e+002 -2.6998e+001 -5.9781e+001 41847 98661,98791,98765
 4.0000e-001 98840 -2.1444e+002 -4.3749e+001 -5.4016e+000 41847 98687,98765,98739
 4.0000e-001 98817 -2.5842e+002 -6.9698e+001  7.6997e+000 41847 98687,98739,98713
 4.0000e-001 99394 -1.0810e+002  4.9090e+001  6.1562e+001 41236 99417,99149,99123
 4.0000e-001 99371 -1.9374e+002 -1.2406e+001  3.0806e+001 41236 99417,99123,99097
 4.0000e-001 99348 -1.5722e+002 -1.1481e+001  1.1325e+001 41236 99489,99201,99149
 4.0000e-001 99325 -1.3745e+002 -1.8574e+001 -1.3552e+001 41236 99149,99201,99175
 4.0000e-001 99302 -2.5237e+002 -3.6838e+001 -1.0645e+001 41236 99097,99253,99227
 4.0000e-001 99279 -3.3913e+002 -1.0584e+002 -4.3030e+001 41236 99071,99253,99097
 4.0000e-001 99443 -1.5506e+002 -1.0060e+001  1.2049e+001 41236 99489,99149,99417
 4.0000e-001 99466 -1.6696e+002 -3.3075e+001 -3.7298e+000 41236 99227,99417,99097
 4.0000e-001 99515 -1.6049e+002 -9.7403e+000  9.8116e+000 41236 99227,99201,99489
 4.0000e-001 99538 -1.5858e+002 -7.9588e+000  1.0737e+001 41236 99227,99489,99417
 4.0000e-001 100044 -7.7360e+001 -1.6527e+001  5.4590e+001 40732 99721,99773,99747
 4.0000e-001 100021 -1.4873e+002 -1.0818e+001  1.8693e+001 40732 99721,99799,99773
 4.0000e-001 99998 -1.4250e+002 -1.8991e+001  1.5347e+001 40732 99721,99903,99799
 4.0000e-001 99975 -1.8490e+002 -1.5265e+001 -8.3903e+000 40732 100067,99877,99851
 4.0000e-001 99952 -1.7551e+002 -5.7699e+001 -1.8350e+001 40732 100067,99851,99799
 4.0000e-001 99929 -2.4628e+002 -3.6649e+001 -8.1188e+001 40732 99799,99851,99825
 4.0000e-001 100093 -1.8208e+002  1.6173e+001  5.3173e+000 40732 99903,99877,100067
 4.0000e-001 100116 -1.7441e+002 -3.2867e+001 -1.7649e+000 40732 99903,100067,99799
 4.0000e-001 100622 -1.8049e+002 -1.2753e+001  2.8085e+001 40278 100645,100455,100429
 4.0000e-001 100599 -1.9296e+002 -1.4333e+001  2.9220e+001 40278 100717,100645,100429
 4.0000e-001 100576 -2.2490e+002 -2.8395e+001  7.2499e+000 40278 100717,100429,100377
 4.0000e-001 100553 -1.4271e+002 -6.2399e+001  2.4918e+001 40278 100789,100325,100481
 4.0000e-001 100530 -1.4283e+002 -1.5072e+001  4.1288e+001 40278 100299,100481,100325
 4.0000e-001 100507 -1.5887e+002 -3.1495e+001  3.7111e+000 40278 100377,100429,100403
 4.0000e-001 100671 -1.7368e+002 -4.4965e+000  3.1330e+001 40278 100481,100455,100645
 4.0000e-001 100694 -1.6404e+002 -4.2070e+001  3.0291e+000 40278 100789,100481,100645
 4.0000e-001 100743 -2.0920e+002 -2.3575e+001 -2.7286e+001 40278 100351,100645,100717
 4.0000e-001 100766 -2.8151e+002 -5.1227e+001 -4.7928e+001 40278 100351,100717,100377
 4.0000e-001 100815 -1.2043e+002 -5.2293e+001  4.3339e+000 40278 100351,100325,100789
 4.0000e-001 100838 -1.2565e+002 -1.2754e+001 -1.9508e+001 40278 100351,100789,100645
 4.0000e-001 101265 -2.0169e+002 -6.5261e+001  3.5859e+000 39824 101288,101046,100994
 4.0000e-001 101242 -2.0729e+002 -7.8168e+001  1.5423e+000 39824 101288,100994,100968
 4.0000e-001 101219 -2.4967e+002 -5.5678e+001  2.0406e+001 39824 100942,101124,100968
 4.0000e-001 101196 -1.8354e+002 -1.8460e+000  1.6612e+001 39824 101046,101124,101072
 4.0000e-001 101173 -1.7429e+002 -6.6982e+001 -1.8348e+001 39824 100994,101046,101020
 4.0000e-001 101150 -1.1262e+002 -1.4948e+001  2.4937e+001 39824 101072,101124,101098
 4.0000e-001 101314 -1.9982e+002 -7.2736e+001  8.8988e+000 39824 101124,101046,101288
 4.0000e-001 101337 -2.0141e+002 -7.8094e+001  8.7274e+000 39824 101124,101288,100968
 4.0000e-001 101585 -3.1717e+001 -1.0009e+001 -2.6722e-001 39070 101608,101464,101412
 4.0000e-001 101562 -4.1911e+001 -1.1447e+001 -7.4412e+000 39070 101608,101412,101360
 4.0000e-001 101539 -1.8941e+001 -5.8484e+000 -2.3340e-002 39070 101412,101464,101438
 4.0000e-001 101516 -3.6895e+001 -1.7040e+001 -1.0894e+001 39070 101360,101412,101386
 4.0000e-001 101634 -2.3232e+001 -9.5527e+000  3.7592e+000 39070 101490,101464,101608
 4.0000e-001 101657 -3.1469e+001 -1.1491e+001 -4.3069e+000 39070 101490,101608,101360
 4.0000e-001 101856 -1.3528e+002  4.3048e+001 -8.3460e+000 38730 101706,101758,101732
 4.0000e-001 101833 -9.7190e+001  5.7785e+001 -1.5880e+001 38730 101706,101784,101758
 4.0000e-001 101810 -6.4096e+001  1.1501e+001 -7.9728e+001 38730 101680,101784,101706
 4.0000e-001 102106 -1.6057e+002 -4.9361e+001  5.9082e-001 38326 101881,101959,101907
 4.0000e-001 102083 -1.7503e+002 -5.1125e+001  2.1111e+001 38326 101881,101985,101959
 4.0000e-001 102060 -1.3836e+002 -6.4833e+001  3.1857e+001 38326 101881,102011,101985
 4.0000e-001 102037 -1.8225e+002 -3.0375e+001 -1.3559e+001 38326 101907,101959,101933
 4.0000e-001 102258 -5.5457e+001  2.8348e+000 -2.9164e+000 38036 102281,102157,102131
 4.0000e-001 102235 -3.6847e+001  6.1907e+000 -3.7024e+000 38036 102281,102131,102209
 4.0000e-001 102307 -3.4288e+001 -5.3444e+000 -1.4855e-001 38036 102183,102157,102281
 4.0000e-001 102330 -1.0291e+001  1.8386e+000  2.7699e-001 38036 102183,102281,102209
 4.0000e-001 102663 -1.1230e+002 -3.6359e+001  2.3514e+001 37596 102438,102542,102464
 4.0000e-001 102640 -8.5755e+001 -2.0301e+001  3.4863e+001 37596 102438,102568,102542
 4.0000e-001 102617 -9.5625e+001 -8.9819e+000  3.7632e+001 37596 102490,102542,102516
 4.0000e-001 102594 -8.4264e+001  2.1854e+001  3.6809e+001 37596 102464,102542,102490
 4.0000e-001 102862 -1.7421e+002 -1.2485e+001  1.2100e+000 37192 102686,102764,102712
 4.0000e-001 102839 -1.7880e+002 -7.8901e+000  1.0716e+001 37192 102686,102790,102764
 4.0000e-001 102816 -1.6302e+002 -3.1432e+001  1.0063e+001 37192 102712,102764,102738
 4.0000e-001 103110 -1.7067e+002 -5.6136e+001 -1.6897e+001 36609 102911,102963,102937
 4.0000e-001 103087 -1.1485e+002 -2.7819e+001 -2.6808e+001 36609 102911,102989,102963
 4.0000e-001 103064 -1.4290e+002 -1.9511e+001 -2.0878e+001 36609 102885,102989,102911
 4.0000e-001 103041 -2.0369e+002 -2.9797e+001 -2.1188e+001 36609 102885,103015,102989
 4.0000e-001 103718 -4.7434e+001  7.2732e+000  3.4076e+001 36131 103323,103375,103349
 4.0000e-001 103695 -1.7962e+002  2.5588e+001  3.9631e+001 36131 103297,103375,103323
 4.0000e-001 103672 -2.0688e+002 -9.9295e+001 -3.0617e+001 36131 103297,103505,103375
 4.0000e-001 103649 -1.6447e+002 -5.9057e+001 -1.6978e+001 36131 103741,103479,103401
 4.0000e-001 103626 -1.5607e+002 -4.0300e+001 -1.0464e+000 36131 103741,103401,103375
 4.0000e-001 103603 -1.6923e+002 -4.6958e+001 -1.8180e+001 36131 103401,103479,103427
 4.0000e-001 103580 -2.8333e+002 -9.0801e+001 -5.8987e+001 36131 103297,103531,103505
 4.0000e-001 103557 -1.5052e+002 -1.6783e+000 -1.7763e+001 36131 103427,103479,103453
 4.0000e-001 103767 -1.7804e+002 -7.7037e+001 -3.0501e+001 36131 103505,103479,103741
 4.0000e-001 103790 -1.6764e+002 -5.8879e+001 -1.4133e+001 36131 103505,103741,103375
 4.0000e-001 103989 -2.3679e+002 -6.1704e+001  8.5972e+000 35791 103839,103917,103891
 4.0000e-001 103966 -2.2220e+002 -7.8220e+001  7.7013e+000 35791 103813,103917,103839
 4.0000e-001 103943 -1.9202e+002 -1.2008e+001 -1.7904e+001 35791 103839,103891,103865
 4.0000e-001 104188 -4.3348e+001  3.6052e+000 -2.5596e+001 35444 104038,104090,104064
 4.0000e-001 104165 -4.3626e+001  2.8664e+001  1.6015e+001 35444 104038,104116,104090
 4.0000e-001 104142 -7.3734e+001  2.3717e+000  4.3563e+000 35444 104012,104116,104038
 4.0000e-001 104487 -1.6359e+002 -7.5057e+000 -9.4271e+000 34990 104265,104317,104291
 4.0000e-001 104464 -1.5669e+002 -3.7706e+000 -1.0888e+001 34990 104510,104317,104265
 4.0000e-001 104441 -1.1387e+002 -1.5136e+001 -1.0730e+001 34990 104510,104265,104213
 4.0000e-001 104418 -1.6950e+002 -2.5841e+000  4.1474e+000 34990 104582,104343,104317
 4.0000e-001 104395 -1.0380e+002  9.8973e+000 -5.5490e+000 34990 104213,104265,104239
 4.0000e-001 104536 -1.6983e+002 -2.2314e+000 -2.9313e+000 34990 104582,104317,104510
 4.0000e-001 104559 -1.4345e+002 -3.4046e+001 -5.6062e-001 34990 104369,104510,104213
 4.0000e-001 104608 -1.5012e+002  1.7401e+001  1.2509e+001 34990 104369,104343,104582
 4.0000e-001 104631 -1.6223e+002  1.0884e+000  1.9625e+000 34990 104369,104582,104510
 4.0000e-001 104783 -1.4426e+002 -3.5186e+001 -8.9750e+000 34700 104938,104806,104682
 4.0000e-001 104760 -1.6529e+002 -7.4604e+001 -1.7190e+001 34700 104938,104682,104656
 4.0000e-001 104832 -6.6353e+001 -1.3316e-002  1.1599e+001 34700 104708,104682,104806
 4.0000e-001 104964 -1.3927e+002 -1.9436e+001  2.5221e+001 34700 104734,104806,104938
 4.0000e-001 104987 -1.5612e+002 -4.9724e+001  1.7848e+001 34700 104734,104938,104656
 4.0000e-001 105137 -9.8222e+001  5.0120e+000 -4.8264e+000 34388 105036,105088,105062
 4.0000e-001 105114 -1.1486e+002 -8.3625e+000 -1.0933e+001 34388 105010,105088,105036
 4.0000e-001 105385 -1.6780e+002 -1.8606e+001  1.1249e+001 33734 105408,105186,105160
 4.0000e-001 105362 -1.6682e+002 -2.3804e+001  9.4046e+000 33734 105408,105160,105264
 4.0000e-001 105339 -1.7765e+002 -6.7275e+000  3.6674e+000 33734 105160,105290,105264
 4.0000e-001 105316 -1.6850e+002 -2.9212e+001  4.5886e+001 33734 105186,105238,105212
 4.0000e-001 105434 -1.6712e+002 -1.3393e+001  1.4929e+001 33734 105238,105186,105408
 4.0000e-001 105457 -1.6652e+002 -2.3073e+001  1.4885e+001 33734 105238,105408,105264
 4.0000e-001 105609 -4.5052e+001  1.3681e+001 -7.9780e+000 33394 105482,105534,105508
 4.0000e-001 105586 -2.6582e+001  6.7248e+000  1.5794e+000 33394 105482,105560,105534
 4.0000e-001 105859 -1.8132e+002 -2.4188e+001 -2.3574e+001 33047 105882,105712,105660
 4.0000e-001 105836 -2.2351e+002 -1.3935e+001  1.4466e+001 33047 105882,105660,105634
 4.0000e-001 105813 -1.2898e+002 -1.9949e+001 -8.8137e+000 33047 105660,105712,105686
 4.0000e-001 105790 -1.5409e+002  1.7425e+001 -2.1119e+001 33047 105634,105764,105738
 4.0000e-001 105908 -8.5940e+001  3.8295e+001 -6.0015e+001 33047 105738,105712,105882
 4.0000e-001 105931 -1.8695e+002 -7.0226e+000 -1.0393e+001 33047 105738,105882,105634
 4.0000e-001 106181 -1.7030e+002 -7.3202e+001 -1.2863e+000 32543 106204,106060,106008
 4.0000e-001 106158 -1.4857e+002 -7.1186e+001  3.9685e+000 32543 105956,106086,106060
 4.0000e-001 106135 -1.7207e+002 -7.1880e+001  5.4326e+000 32543 106204,106008,105982
 4.0000e-001 106112 -1.5821e+002 -1.0114e+002 -2.1481e+000 32543 106008,106060,106034
 4.0000e-001 106230 -1.7492e+002 -7.3931e+001  2.8311e-002 32543 105956,106060,106204
 4.0000e-001 106253 -1.8037e+002 -7.4228e+001  6.3368e+000 32543 105956,106204,105982
 4.0000e-001 106454 -1.2120e+002 -2.2169e+001 -3.1408e+001 31839 106304,106356,106330
 4.0000e-001 106431 -1.4278e+002 -1.3702e+001  9.5212e-001 31839 106278,106356,106304
 4.0000e-001 106408 -1.1363e+002  2.7945e+001 -1.3826e+001 31839 106278,106382,106356
 4.0000e-001 106704 -1.2821e+002 -2.6933e+001  2.5195e-001 31534 106505,106583,106557
 4.0000e-001 106681 -1.4147e+002 -2.9860e+001  2.3698e+000 31534 106479,106583,106505
 4.0000e-001 106658 -1.5426e+002 -3.8750e+001  6.4268e+000 31534 106505,106557,106531
 4.0000e-001 106635 -1.4091e+002 -2.2911e+001 -9.9860e+000 31534 106479,106609,106583
 4.0000e-001 107108 -2.5243e+002 -7.0956e+001 -2.1735e+001 31030 106886,106990,106964
 4.0000e-001 107085 -2.1313e+002 -8.9289e+001 -6.5424e-001 31030 106860,106990,106886
 4.0000e-001 107062 -1.9860e+002 -8.0415e+001  4.2532e+000 31030 106834,106990,106860
 4.0000e-001 107039 -2.9422e+002 -5.6968e+001  1.0274e+001 31030 106912,106964,106938
 4.0000e-001 107016 -3.4571e+002 -1.1206e+002 -2.8185e+001 31030 106886,106964,106912
 4.0000e-001 107307 -1.0840e+002  4.8547e+000 -2.3498e+000 30718 107330,107157,107131
 4.0000e-001 107284 -9.5335e+001  1.0242e+001 -6.8079e+000 30718 107330,107131,107235
 4.0000e-001 107261 -6.8560e+001  8.8374e+000  1.7150e+001 30718 107183,107235,107209
 4.0000e-001 107356 -9.3745e+001 -8.0818e+000  4.3127e-001 30718 107183,107157,107330
 4.0000e-001 107379 -7.9849e+001 -1.1689e+000 -5.1579e+000 30718 107183,107330,107235
 4.0000e-001 107759 -3.2455e+001 -1.3220e+001  1.6555e+000 30264 107782,107615,107537
 4.0000e-001 107736 -3.2418e+001 -1.2845e+001 -1.8949e+000 30264 107782,107537,107485
 4.0000e-001 107713 -6.1026e+001 -4.4419e+000  1.6176e+000 30264 107485,107537,107511
 4.0000e-001 107690 -2.2618e+001 -8.8038e+000  3.7216e+000 30264 107537,107615,107589
 4.0000e-001 107667 -1.9195e+001 -7.5261e+000  4.1095e+000 30264 107537,107589,107563
 4.0000e-001 107808 -2.8592e+001 -1.1810e+001  2.0905e+000 30264 107641,107615,107782
 4.0000e-001 107831 -3.0400e+001 -1.2330e+001 -1.4093e+000 30264 107641,107782,107485
 4.0000e-001 108030 -1.6134e+002 -4.7640e+001  1.8763e+001 29874 108053,107854,107932
 4.0000e-001 108007 -1.1917e+002 -4.6432e+001  2.3232e+001 29874 107854,107958,107932
 4.0000e-001 107984 -1.8089e+002 -4.3657e+001  2.7614e+001 29874 108053,107932,107906
 4.0000e-001 108079 -1.5387e+002 -4.1271e+001  1.4953e+001 29874 107880,107854,108053
 4.0000e-001 108102 -1.6584e+002 -3.0013e+001  2.1667e+001 29874 107880,108053,107906
 4.0000e-001 108433 -9.5447e+001 -1.9673e+001 -2.1791e+001 29484 108234,108338,108312
 4.0000e-001 108410 -1.5807e+002 -1.1386e+001  3.3567e+001 29484 108208,108338,108234
 4.0000e-001 108387 -1.4726e+002 -4.4100e+001 -1.3566e+001 29484 108234,108312,108260
 4.0000e-001 108364 -1.1700e+002 -4.0409e+001 -7.5486e+000 29484 108260,108312,108286
 4.0000e-001 108762 -1.3448e+002 -5.9659e+001  3.0881e+000 29080 108563,108641,108589
 4.0000e-001 108739 -1.2557e+002 -7.9821e+001  2.3647e+001 29080 108537,108641,108563
 4.0000e-001 108716 -1.6789e+002 -3.6024e+001  2.9919e+001 29080 108589,108641,108615
 4.0000e-001 108693 -7.2351e+001 -6.5498e+001 -6.5542e+000 29080 108537,108667,108641
 4.0000e-001 109189 -1.7225e+002 -4.9840e+001  1.3842e+000 28476 108892,108996,108970
 4.0000e-001 109166 -2.1079e+002 -6.4927e+001  8.9813e+000 28476 108892,109022,108996
 4.0000e-001 109143 -1.8155e+002 -5.8884e+001  5.7465e+000 28476 108892,108970,108944
 4.0000e-001 109120 -2.4048e+002 -5.7752e+001  1.7697e+001 28476 108892,109048,109022
 4.0000e-001 109097 -1.7951e+002 -6.6907e+001  1.3374e+001 28476 108892,108944,108918
 4.0000e-001 109074 -2.6803e+002  1.7685e+000 -8.8715e+000 28476 108866,109048,108892
 4.0000e-001 109518 -1.5220e+002 -1.7369e+001  5.1572e+000 28022 109541,109371,109345
 4.0000e-001 109495 -1.6207e+002 -3.2750e+001  3.1115e-001 28022 109541,109345,109319
 4.0000e-001 109472 -1.3976e+002 -5.9470e+001 -3.7972e-001 28022 109293,109397,109319
 4.0000e-001 109449 -1.6668e+002 -6.7629e+001 -2.9893e+000 28022 109293,109423,109397
 4.0000e-001 109567 -1.1822e+002 -1.0159e+001  3.3593e+001 28022 109397,109371,109541
 4.0000e-001 109590 -1.4869e+002 -5.2841e+001  2.0129e+001 28022 109397,109541,109319
 4.0000e-001 109968 -1.5432e+002 -6.4420e+001 -1.9303e+001 27568 109798,109850,109824
 4.0000e-001 109945 -1.3382e+002 -4.4948e+001 -6.0196e+000 27568 109694,109850,109798
 4.0000e-001 109922 -9.7480e+001 -7.5806e+001 -2.2236e+000 27568 109694,109798,109746
 4.0000e-001 109899 -9.1824e+001 -6.4888e+001  5.2986e+001 27568 109746,109798,109772
 4.0000e-001 109876 -6.3886e+001 -9.4404e+000  1.0995e+001 27568 109694,109746,109720
 4.0000e-001 110167 -1.3855e+002 -3.7107e+001 -4.1451e+000 27007 110017,110095,110069
 4.0000e-001 110144 -1.2714e+002 -3.5381e+001  3.9345e+000 27007 109991,110095,110017
 4.0000e-001 110121 -1.3921e+002 -1.0114e+001  3.1197e+001 27007 110017,110069,110043
 4.0000e-001 110415 -1.1589e+002 -6.0176e+001  1.6706e-001 26567 110438,110242,110190
 4.0000e-001 110392 -1.2915e+002 -2.8001e+001 -1.1371e+001 26567 110438,110190,110320
 4.0000e-001 110369 -1.3950e+002 -5.9938e+001  1.2349e+000 26567 110242,110294,110268
 4.0000e-001 110346 -1.0885e+002 -4.2589e+001  1.8970e+000 26567 110190,110242,110216
 4.0000e-001 110464 -1.2299e+002 -6.6838e+001 -3.7435e+000 26567 110294,110242,110438
 4.0000e-001 110487 -1.4557e+002 -5.7803e+001 -1.9862e+001 26567 110294,110438,110320
 4.0000e-001 110639 -1.5875e+002  1.4614e+001 -2.0668e+001 26170 110538,110590,110564
 4.0000e-001 110616 -1.2995e+002 -3.5308e+001  9.3996e-001 26170 110512,110590,110538
 4.0000e-001 111149 -5.5494e+001  6.6825e+000  1.2742e+001 25716 111172,110878,110852
 4.0000e-001 111126 -4.6566e+001  1.5812e+001  8.6810e+000 25716 111172,110852,111008
 4.0000e-001 111103 -9.3669e+001  6.8099e+000  3.9727e+001 25716 110878,110930,110904
 4.0000e-001 111080 -2.4607e+001  2.3178e+001  7.1513e+000 25716 110826,111008,110852
 4.0000e-001 111057 -3.4058e+001  3.9264e+000  5.8321e+000 25716 110930,111008,110956
 4.0000e-001 111034 -1.2687e+001  1.4087e+001  2.3552e+000 25716 110956,111008,110982
 4.0000e-001 111198 -4.5750e+001 -4.5104e+000  1.5977e+001 25716 110930,110878,111172
 4.0000e-001 111221 -3.5035e+001  5.1721e+000  1.1318e+001 25716 110930,111172,111008
 4.0000e-001 111420 -9.1477e+001  1.9321e+001 -2.2558e+000 25304 111443,111270,111244
 4.0000e-001 111397 -9.9621e+001  4.7663e+001 -2.6285e+000 25304 111443,111244,111348
 4.0000e-001 111374 -8.9901e+001  2.8824e-001 -8.7426e+000 25304 111270,111322,111296
 4.0000e-001 111469 -9.4707e+001  8.6902e-001 -4.1778e+000 25304 111322,111270,111443
 4.0000e-001 111492 -1.0798e+002  2.2989e+001 -7.1619e+000 25304 111322,111443,111348
 4.0000e-001 111691 -1.5635e+002 -5.2139e+001 -1.1157e+001 24736 111567,111619,111593
 4.0000e-001 111668 -1.5627e+002 -5.3699e+001 -1.0341e+001 24736 111541,111619,111567
 4.0000e-001 111645 -1.5052e+002 -3.9672e+001 -2.6606e+000 24736 111515,111619,111541
 4.0000e-001 112024 -2.5851e+001 -4.2294e+000  1.0739e+001 24146 111825,111877,111851
 4.0000e-001 112001 -1.7505e+001  1.9192e+001  1.1445e+001 24146 111825,111903,111877
 4.0000e-001 111978 -3.3414e+001 -1.4405e+001  1.8238e+001 24146 111825,111929,111903
 4.0000e-001 111955 -3.9014e+001 -4.5455e+000  2.5765e+001 24146 111799,111929,111825
 4.0000e-001 112370 -1.5881e+002 -7.4705e+001  2.8641e+001 23856 112393,112151,112125
 4.0000e-001 112347 -1.4474e+002 -3.7944e+001  3.0816e+001 23856 112465,112393,112125
 4.0000e-001 112324 -1.4093e+002 -2.4293e+001  3.3020e+001 23856 112465,112125,112073
 4.0000e-001 112301 -1.6020e+002 -5.1460e+001  4.1918e+001 23856 112073,112125,112099
 4.0000e-001 112278 -1.6340e+002 -6.8702e+001 -1.0450e+001 23856 112047,112229,112073
 4.0000e-001 112255 -1.3413e+002 -6.2096e+001 -7.2947e+000 23856 112151,112203,112177
 4.0000e-001 112419 -1.4604e+002 -5.4183e+001  9.7609e+000 23856 112203,112151,112393
 4.0000e-001 112442 -1.5713e+002 -6.8638e+001  4.3216e+000 23856 112203,112393,112229
 4.0000e-001 112491 -1.5016e+002 -5.0962e+001 -1.2453e-001 23856 112229,112393,112465
 4.0000e-001 112514 -1.3674e+002 -1.6550e+001  1.5634e+000 23856 112229,112465,112073
 4.0000e-001 112784 -2.3958e+002  2.5962e+001 -3.1650e+001 23494 112611,112663,112637
 4.0000e-001 112761 -2.2466e+002 -3.2881e+001 -3.0513e+001 23494 112585,112663,112611
 4.0000e-001 112738 -2.1328e+002 -2.7321e+001 -7.5471e+000 23494 112559,112663,112585
 4.0000e-001 112715 -2.0400e+002  3.9689e+001  1.4577e+001 23494 112559,112689,112663
 4.0000e-001 113117 -1.5438e+002 -2.3488e+001 -3.2800e+001 22974 112944,113022,112996
 4.0000e-001 113094 -1.2711e+002 -6.2050e+001 -1.8144e+001 22974 112918,113022,112944
 4.0000e-001 113071 -1.6414e+002 -8.2350e+001 -6.8290e+001 22974 112944,112996,112970
 4.0000e-001 113048 -9.8068e+001  1.3721e+001 -2.0335e+001 22974 112892,113022,112918
 4.0000e-001 113414 -1.7768e+002 -4.4533e+001 -1.3529e+000 22370 113192,113296,113218
 4.0000e-001 113391 -1.9372e+002 -9.5190e+001 -1.4618e+001 22370 113140,113296,113192
 4.0000e-001 113368 -1.8154e+002 -4.9988e+001  1.4391e+001 22370 113218,113296,113270
 4.0000e-001 113345 -1.6394e+002 -5.1503e+001  3.2690e+001 22370 113218,113270,113244
 4.0000e-001 113322 -1.3928e+002  2.6835e+000 -4.9232e+001 22370 113140,113192,113166
 4.0000e-001 113662 -1.4564e+002 -1.6595e+001  1.2018e+001 21916 113685,113515,113489
 4.0000e-001 113639 -1.8725e+002 -4.6207e+001 -3.0727e+000 21916 113685,113489,113437
 4.0000e-001 113616 -1.2694e+002 -4.4273e+001 -9.4306e+000 21916 113757,113567,113541
 4.0000e-001 113593 -1.7977e+002 -2.4157e+001 -1.6088e+001 21916 113437,113489,113463
 4.0000e-001 113711 -1.6933e+002 -6.0469e+001  5.1232e-001 21916 113541,113515,113685
 4.0000e-001 113734 -1.5572e+002 -5.6191e+001 -5.1340e+000 21916 113757,113541,113685
 4.0000e-001 113783 -1.6553e+002 -4.5395e+001 -1.0446e+001 21916 113437,113567,113757
 4.0000e-001 113806 -1.7140e+002 -4.1492e+001 -1.2075e+001 21916 113437,113757,113685
 4.0000e-001 114056 -1.3970e+002 -3.6031e+001 -2.1298e+000 21412 113857,113909,113883
 4.0000e-001 114033 -1.2910e+002 -1.3414e+001 -5.3098e+000 21412 114079,113909,113857
 4.0000e-001 114010 -1.4795e+002 -2.0258e+001 -5.9519e+000 21412 114079,113857,113961
 4.0000e-001 113987 -1.3324e+002 -2.3247e+001 -7.2566e+000 21412 113831,113961,113857
 4.0000e-001 114105 -1.4450e+002 -1.0833e+001 -1.3857e+001 21412 113935,113909,114079
 4.0000e-001 114128 -1.5715e+002 -1.3558e+001 -1.4158e+001 21412 113935,114079,113961
 4.0000e-001 114378 -1.3663e+002 -4.1546e+001 -3.5697e+000 21022 114401,114257,114205
 4.0000e-001 114355 -1.5010e+002 -5.3797e+001 -1.7779e+001 21022 114401,114205,114179
 4.0000e-001 114332 -1.2423e+002 -4.6354e+001  9.7748e-001 21022 114153,114283,114179
 4.0000e-001 114309 -1.6157e+002 -4.0817e+001 -3.6850e+000 21022 114205,114257,114231
 4.0000e-001 114427 -1.1479e+002 -4.0458e+001  1.1711e+001 21022 114283,114257,114401
 4.0000e-001 114450 -1.3250e+002 -5.3469e+001 -2.2462e+000 21022 114283,114401,114179
 4.0000e-001 114651 -2.0932e+001  2.4464e+001 -5.4988e+000 20618 114501,114553,114527
 4.0000e-001 114628 -3.4099e+001  8.9117e+000  1.0768e+001 20618 114501,114579,114553
 4.0000e-001 114605 -4.3056e+001  1.8559e+001  1.2753e+001 20618 114475,114579,114501
 4.0000e-001 114901 -1.4015e+002  1.3903e+001 -8.6353e+000 20114 114676,114780,114702
 4.0000e-001 114878 -1.1246e+002  4.4047e+001 -3.3874e+001 20114 114676,114806,114780
 4.0000e-001 114855 -1.6012e+002  6.9096e+000 -1.2167e+001 20114 114702,114780,114754
 4.0000e-001 114832 -3.0159e+002 -3.9663e+001 -1.1683e+001 20114 114702,114754,114728
 4.0000e-001 115053 -1.6533e+002 -5.0320e+000  2.0509e+000 19460 115147,115076,114926
 4.0000e-001 115030 -1.7627e+002  9.0235e+000 -1.7181e+000 19460 115147,114926,115004
 4.0000e-001 115102 -1.6998e+002 -1.5250e+001  3.3789e+000 19460 114952,114926,115076
 4.0000e-001 115173 -1.7410e+002 -2.6523e+001 -1.6323e+000 19460 114978,115076,115147
 4.0000e-001 115196 -1.8378e+002 -9.7994e+000 -6.3727e+000 19460 114978,115147,115004
 4.0000e-001 115446 -1.0808e+002 -9.6650e+000  1.2128e+001 19006 115273,115351,115299
 4.0000e-001 115423 -9.2825e+001 -2.6812e+001  4.2130e+000 19006 115247,115351,115273
 4.0000e-001 115400 -9.0420e+001 -2.7498e+001 -8.7643e+000 19006 115221,115351,115247
 4.0000e-001 115377 -6.6218e+001 -6.8344e+000 -2.5423e+001 19006 115299,115351,115325
 4.0000e-001 115767 -1.0916e+002 -2.7217e+001  1.9126e+000 18716 115571,115649,115623
 4.0000e-001 115744 -1.2070e+002 -2.9616e+001 -8.8794e+000 18716 115493,115649,115571
 4.0000e-001 115721 -1.3546e+002 -1.7754e+001  6.3147e-002 18716 115493,115571,115545
 4.0000e-001 115698 -1.3978e+002 -1.5919e+001 -1.2217e+001 18716 115493,115545,115519
 4.0000e-001 115675 -7.6812e+001 -1.3822e+001  2.2046e+000 18716 115571,115623,115597
 4.0000e-001 116039 -1.7759e+002 -5.3342e+001  1.0187e+001 18312 115814,115892,115840
 4.0000e-001 116016 -1.7743e+002 -5.4219e+001  1.2673e+001 18312 115814,115944,115892
 4.0000e-001 115993 -1.8166e+002 -1.4048e+001  1.6952e+001 18312 115892,115944,115918
 4.0000e-001 115970 -9.4360e+001 -1.2426e+001 -2.8566e+000 18312 115840,115892,115866
 4.0000e-001 116191 -8.5680e+001 -6.5854e+000 -1.3318e+000 18000 116090,116142,116116
 4.0000e-001 116168 -8.0764e+001  3.7530e+000  3.7252e-001 18000 116064,116142,116090
 4.0000e-001 116343 -1.4554e+002 -1.3529e+001  6.3428e+000 17396 116242,116294,116268
 4.0000e-001 116320 -1.5947e+002  2.2332e+001  2.2808e+001 17396 116216,116294,116242
 4.0000e-001 116566 -1.8601e+002 -8.6037e+001  2.0077e+001 16942 116390,116468,116442
 4.0000e-001 116543 -2.8375e+002 -9.1382e+001  3.3797e+001 16942 116390,116494,116468
 4.0000e-001 116520 -2.0475e+002 -1.2987e+002  8.8073e+000 16942 116390,116442,116416
 4.0000e-001 116767 -1.0698e+002 -3.9222e+000 -2.2083e+000 16438 116790,116643,116617
 4.0000e-001 116744 -1.0397e+002 -1.8456e+001 -4.5666e+000 16438 116790,116617,116591
 4.0000e-001 116721 -9.6648e+001  2.5975e+000  1.7708e-002 16438 116643,116695,116669
 4.0000e-001 116816 -1.0504e+002 -1.4680e+001  2.5986e+000 16438 116695,116643,116790
 4.0000e-001 116839 -1.0386e+002 -2.6369e+001  4.8186e+000 16438 116695,116790,116591
 4.0000e-001 117062 -2.8967e+001 -6.4655e+000 -2.2521e+000 16074 116886,116938,116912
 4.0000e-001 117039 -4.1887e+001 -1.8053e+001  6.8978e+000 16074 116886,116990,116938
 4.0000e-001 117016 -3.2682e+001  6.2589e+000  1.0492e+001 16074 116938,116990,116964
 4.0000e-001 117214 -2.7639e+002 -1.5104e+002 -2.0785e+001 15649 117087,117139,117113
 4.0000e-001 117191 -2.7951e+002 -1.6073e+002 -4.6894e-002 15649 117087,117165,117139
 4.0000e-001 117317 -3.5786e+001 -4.5820e+001  1.1884e+001 421 117239,117291,117265
 5.0000e-001 70632 -3.6665e+001 -3.2543e+000  8.9309e+000 70072 70482,70534,70508
 5.0000e-001 70609 -4.6393e+001 -6.1523e+000  6.4247e-001 70072 70482,70560,70534
 5.0000e-001 70586 -2.8201e+002 -1.0026e+002 -1.0708e+001 70072 70456,70560,70482
 5.0000e-001 70951 -2.8555e+002  1.6269e+001  0.0000e+000 69874 70703,70755,70729
 5.0000e-001 70928 -2.9402e+002  1.5811e+001  2.4987e+001 69874 70703,70781,70755
 5.0000e-001 70905 -2.8221e+002 -6.4145e+000  2.9785e+001 69874 70703,70807,70781
 5.0000e-001 70882 -2.9751e+002 -4.0740e+001  2.5774e+001 69874 70703,70833,70807
 5.0000e-001 70859 -8.0752e+001  5.5217e+001  8.0687e+000 69874 70677,70833,70703
 5.0000e-001 71199 -1.6334e+002 -5.7981e+001  1.2735e+001 69698 71222,71052,71026
 5.0000e-001 71176 -1.5885e+002 -1.9599e+001  1.8505e+001 69698 71294,71222,71026
 5.0000e-001 71153 -1.6981e+002 -4.0881e+001  1.1126e+001 69698 71294,71026,71000
 5.0000e-001 71130 -2.0209e+002  1.6014e-001  1.8261e+001 69698 71366,71104,71078
 5.0000e-001 71248 -1.5505e+002 -2.3137e+001  1.6823e+001 69698 71078,71052,71222
 5.0000e-001 71271 -1.7134e+002 -1.6617e+001  3.6789e+001 69698 71366,71078,71222
 5.0000e-001 71320 -1.4905e+002 -2.7419e+001  3.8291e+001 69698 70974,71222,71294
 5.0000e-001 71343 -1.4998e+002 -3.0267e+001  3.2604e+001 69698 70974,71294,71000
 5.0000e-001 71392 -1.7026e+002  4.3045e+001  3.4031e+001 69698 70974,71104,71366
 5.0000e-001 71415 -1.5124e+002  1.8989e+001  4.4961e+001 69698 70974,71366,71222
 5.0000e-001 71516 -2.3887e+002 -1.9570e+001  1.5894e+001 69386 71438,71490,71464
 5.0000e-001 71869 -1.7475e+002 -2.9152e+001 -7.1341e+000 69188 71644,71748,71670
 5.0000e-001 71846 -1.3432e+002 -5.6984e+001  1.5291e+001 69188 71644,71774,71748
 5.0000e-001 71823 -1.7003e+002 -8.4473e+001 -2.3991e+001 69188 71670,71748,71722
 5.0000e-001 71800 -9.5500e+001 -5.5913e+000  1.0278e+001 69188 71670,71722,71696
 5.0000e-001 72019 -4.0176e+002 -9.2792e+001  6.9073e+001 68990 71918,71970,71944
 5.0000e-001 71996 -4.8792e+002 -2.3760e+001  3.9059e+001 68990 71892,71970,71918
 5.0000e-001 72316 -2.6923e+002 -7.5310e+001  1.3084e+001 68586 72339,72172,72146
 5.0000e-001 72293 -2.7944e+002 -1.0968e+002  1.3868e+001 68586 72339,72146,72120
 5.0000e-001 72270 -2.7560e+002 -1.0861e+002  4.0538e+001 68586 72411,72068,72198
 5.0000e-001 72247 -3.1645e+002 -1.0500e+002  4.4172e+001 68586 72042,72198,72068
 5.0000e-001 72224 -2.2635e+002 -5.9799e+001  1.0111e+001 68586 72068,72120,72094
 5.0000e-001 72365 -2.7961e+002 -6.8913e+001  3.4406e+001 68586 72198,72172,72339
 5.0000e-001 72388 -2.9175e+002 -9.7302e+001  3.3582e+001 68586 72411,72198,72339
 5.0000e-001 72437 -2.5297e+002 -9.6747e+001  3.5706e+001 68586 72120,72068,72411
 5.0000e-001 72460 -2.6991e+002 -8.4363e+001  2.8138e+001 68586 72120,72411,72339
 5.0000e-001 72864 -1.7943e+002 -7.3670e+001  1.1121e+001 68388 72642,72694,72668
 5.0000e-001 72841 -1.8532e+002 -7.5642e+001  1.6334e+001 68388 72616,72694,72642
 5.0000e-001 72818 -2.1123e+002 -9.2858e+001 -4.6311e+000 68388 72616,72720,72694
 5.0000e-001 72795 -2.3554e+002 -7.2498e+001  9.4953e+000 68388 72590,72720,72616
 5.0000e-001 72772 -2.9529e+002 -1.8811e+001 -6.8133e+001 68388 72590,72746,72720
 5.0000e-001 73321 -1.8230e+002 -1.1075e+002 -9.5152e+000 68048 73073,73203,73177
 5.0000e-001 73298 -1.7569e+002 -9.4639e+001  6.6669e+000 68048 73047,73203,73073
 5.0000e-001 73275 -2.3915e+002 -8.1417e+001  3.3321e+000 68048 73125,73177,73151
 5.0000e-001 73252 -2.1909e+002 -7.9293e+001 -3.8366e+000 68048 73073,73177,73125
 5.0000e-001 73229 -2.0783e+002 -3.4442e+001  2.3853e-001 68048 73073,73125,73099
 5.0000e-001 73640 -3.2496e+002 -7.7362e+000 -2.2581e+001 67850 73444,73496,73470
 5.0000e-001 73617 -2.6541e+002 -6.0117e+001 -1.8540e+001 67850 73418,73496,73444
 5.0000e-001 73594 -2.6226e+002 -4.9580e+001 -1.3593e+001 67850 73392,73496,73418
 5.0000e-001 73571 -2.0974e+002 -3.2168e+001  5.6986e+000 67850 73392,73522,73496
 5.0000e-001 73548 -1.7561e+002 -1.1655e+001 -3.8322e+001 67850 73366,73522,73392
 5.0000e-001 73790 -2.7854e+002 -1.2812e+002 -2.0835e+000 67602 73689,73741,73715
 5.0000e-001 73767 -2.6351e+002 -9.0788e+001 -1.7328e+000 67602 73663,73741,73689
 5.0000e-001 74040 -3.0708e+002 -1.1425e+002 -3.8607e+000 67290 73841,73945,73919
 5.0000e-001 74017 -2.5108e+002 -1.0991e+002 -2.2279e+001 67290 73815,73945,73841
 5.0000e-001 73994 -2.7961e+002 -1.1073e+002  1.8636e+001 67290 73841,73919,73867
 5.0000e-001 73971 -2.7685e+002 -9.9073e+001  9.3404e+000 67290 73867,73919,73893
 5.0000e-001 74143 -3.1127e+002 -2.0329e+000 -2.8900e+000 67092 74065,74117,74091
 5.0000e-001 74415 -2.1521e+002 -3.7333e+001 -3.5680e+001 66894 74190,74294,74216
 5.0000e-001 74392 -1.5100e+002 -3.7519e+000 -8.0852e+000 66894 74190,74320,74294
 5.0000e-001 74369 -2.2109e+002 -2.3297e+001 -4.7182e+001 66894 74216,74294,74242
 5.0000e-001 74346 -2.1471e+002  5.6368e+001 -4.9374e+001 66894 74242,74294,74268
 5.0000e-001 75023 -2.4445e+002 -1.0364e+002  2.7882e+001 66532 74654,74836,74810
 5.0000e-001 75000 -1.6918e+002 -6.5645e+001  4.4588e+001 66532 74628,74836,74654
 5.0000e-001 74977 -1.6951e+002 -6.7285e+001 -1.2442e+001 66532 74706,74784,74732
 5.0000e-001 74954 -2.2511e+002 -1.0110e+002 -4.7355e+001 66532 74680,74784,74706
 5.0000e-001 74931 -3.1121e+002 -8.2274e+001 -3.8992e+001 66532 74680,74810,74784
 5.0000e-001 74908 -2.1753e+002 -7.7960e+001  3.9413e+001 66532 74654,74810,74680
 5.0000e-001 74885 -2.3141e+002 -8.8242e+001  3.6777e+001 66532 74602,74836,74628
 5.0000e-001 74862 -2.1179e+002 -7.4148e+001  8.7246e+000 66532 74732,74784,74758
 5.0000e-001 75222 -2.6732e+002 -2.8674e+001  2.1653e+001 66242 75072,75150,75124
 5.0000e-001 75199 -2.6540e+002 -6.2159e+001  2.3777e+001 66242 75046,75150,75072
 5.0000e-001 75176 -2.9075e+002 -6.9562e+001  1.2215e+001 66242 75072,75124,75098
 5.0000e-001 75470 -3.3635e+002  1.0069e+001  9.5482e+000 65838 75297,75375,75349
 5.0000e-001 75447 -3.3078e+002 -2.1452e+001  1.2205e+001 65838 75271,75375,75297
 5.0000e-001 75424 -2.3641e+002  1.0052e+002  6.6818e+001 65838 75297,75349,75323
 5.0000e-001 75401 -3.2463e+002 -1.3691e+001  2.6189e+001 65838 75245,75375,75271
 5.0000e-001 75671 -1.6886e+001  1.8499e+000 -1.7864e+000 65640 75495,75573,75521
 5.0000e-001 75648 -4.4291e+001 -6.0746e+000 -7.3257e+000 65640 75495,75599,75573
 5.0000e-001 75625 -4.9675e+001 -4.6657e+000 -6.6758e-001 65640 75521,75573,75547
 5.0000e-001 75872 -1.8392e+002 -8.2929e+001 -1.8215e+000 65300 75895,75748,75722
 5.0000e-001 75849 -1.7403e+002 -4.4605e+001  1.8343e+001 65300 75895,75722,75696
 5.0000e-001 75826 -1.6643e+002  1.1199e+001 -6.4830e+000 65300 75967,75774,75748
 5.0000e-001 75921 -1.7483e+002 -2.1074e+001  9.6789e+000 65300 75967,75748,75895
 5.0000e-001 75944 -1.7625e+002 -1.0218e+001  3.4830e+001 65300 75800,75895,75696
 5.0000e-001 75993 -1.9283e+002 -3.6750e+001  1.0819e+001 65300 75800,75774,75967
 5.0000e-001 76016 -1.9284e+002 -5.0253e+001  2.6724e+001 65300 75800,75967,75895
 5.0000e-001 76371 -2.1687e+002 -4.8167e+001  1.5506e+001 64896 76146,76250,76172
 5.0000e-001 76348 -2.2058e+002 -7.7607e+001  1.3597e+000 64896 76146,76276,76250
 5.0000e-001 76325 -1.6345e+002 -3.2807e+001 -6.1681e+000 64896 76172,76250,76198
 5.0000e-001 76302 -3.8850e+002 -1.2935e+002 -3.3796e+001 64896 76198,76250,76224
 5.0000e-001 76570 -3.7789e+002 -8.3738e+001  4.8149e+001 64442 76446,76498,76472
 5.0000e-001 76547 -3.2680e+002 -2.8321e+001 -5.1592e+000 64442 76420,76498,76446
 5.0000e-001 76524 -3.3383e+002 -5.1854e+001 -4.9249e+000 64442 76394,76498,76420
 5.0000e-001 76999 -2.1668e+002 -4.6979e+001  2.6850e+000 63924 77022,76728,76702
 5.0000e-001 76976 -2.2991e+002 -5.4662e+001  5.9763e+000 63924 77022,76702,76832
 5.0000e-001 76953 -2.1330e+002 -5.6884e+001 -3.1578e+001 63924 76728,76806,76754
 5.0000e-001 76930 -2.8825e+002 -8.6499e+001 -7.6606e+000 63924 76676,76832,76702
 5.0000e-001 76907 -2.7544e+002 -1.1603e+001 -3.3238e+001 63924 76754,76806,76780
 5.0000e-001 76884 -3.1402e+002 -3.6890e+001 -3.5107e+000 63924 76676,76858,76832
 5.0000e-001 77048 -2.3328e+002 -3.9332e+001  2.0133e+000 63924 76806,76728,77022
 5.0000e-001 77071 -2.4542e+002 -4.6006e+001  4.8028e+000 63924 76806,77022,76832
 5.0000e-001 77449 -1.5528e+002 -3.2820e+000  7.7367e+000 63320 77472,77253,77201
 5.0000e-001 77426 -1.4575e+002 -3.1082e+001 -2.3454e+001 63320 77472,77201,77175
 5.0000e-001 77403 -2.1259e+002 -5.2171e+001 -1.5547e+001 63320 77175,77305,77279
 5.0000e-001 77380 -2.0185e+002 -6.7326e+001  5.4179e+001 63320 77201,77253,77227
 5.0000e-001 77357 -2.1360e+002 -5.4701e+001 -8.8661e+000 63320 77175,77331,77305
 5.0000e-001 77498 -1.8470e+002 -6.3135e+001  1.8295e+001 63320 77279,77253,77472
 5.0000e-001 77521 -1.5643e+002 -5.4828e+001 -2.0775e+001 63320 77279,77472,77175
 5.0000e-001 77769 -2.5461e+002 -4.0496e+001  4.4841e+000 62816 77570,77622,77596
 5.0000e-001 77746 -2.4322e+002 -9.5457e+001 -3.5455e+000 62816 77570,77648,77622
 5.0000e-001 77723 -2.8467e+002 -9.5398e+001 -5.7950e+001 62816 77570,77674,77648
 5.0000e-001 77700 -2.5094e+002 -6.0773e+001 -4.1057e+001 62816 77544,77674,77570
 5.0000e-001 78149 -2.2684e+002 -1.2081e+002 -1.4257e+001 62354 77953,78031,78005
 5.0000e-001 78126 -2.3388e+002 -9.9950e+001 -1.4280e+001 62354 77901,78031,77953
 5.0000e-001 78103 -2.0339e+002 -8.6109e+001 -4.7715e+000 62354 77875,78031,77901
 5.0000e-001 78080 -2.7736e+002 -8.1045e+001  2.5711e+001 62354 77901,77953,77927
 5.0000e-001 78057 -3.2771e+002 -1.2404e+002 -2.8285e+001 62354 77953,78005,77979
 5.0000e-001 78606 -1.3873e+002 -8.3715e+001 -5.9481e+001 61950 78384,78436,78410
 5.0000e-001 78583 -1.4776e+002 -5.3249e+001 -9.4100e+000 61950 78358,78436,78384
 5.0000e-001 78560 -1.5753e+002 -8.7427e+001  7.5859e+000 61950 78358,78488,78436
 5.0000e-001 78537 -1.1286e+002 -2.8932e+001 -1.6435e+001 61950 78436,78488,78462
 5.0000e-001 78514 -1.6758e+002 -1.0042e+002  1.4390e+000 61950 78332,78488,78358
 5.0000e-001 78756 -2.7499e+002 -7.4857e+001  2.0412e+001 61339 78779,78655,78629
 5.0000e-001 78733 -2.7510e+002 -3.9449e+001  1.8882e+001 61339 78779,78629,78707
 5.0000e-001 78805 -2.4456e+002 -1.7840e+001 -2.3453e+000 61339 78851,78779,78681
 5.0000e-001 78828 -2.9502e+002 -5.1785e+001  1.3292e+001 61339 78681,78779,78707
 5.0000e-001 78877 -2.9259e+002 -1.3072e+002 -4.6026e-001 61339 78655,78779,78851
 5.0000e-001 79206 -2.0644e+002 -1.8891e+001 -6.0919e+001 60892 79229,79007,78981
 5.0000e-001 79183 -2.3781e+002 -9.5118e+001 -6.1344e+001 60892 79229,78981,79111
 5.0000e-001 79160 -2.4019e+002 -3.5445e+001 -3.2370e+001 60892 79301,79033,79007
 5.0000e-001 79137 -2.5558e+002 -2.8360e+001  6.9302e+000 60892 79033,79085,79059
 5.0000e-001 79255 -2.4146e+002 -2.9910e+001 -3.6544e+001 60892 79301,79007,79229
 5.0000e-001 79278 -1.9712e+002 -4.8581e+001 -3.3538e+001 60892 79085,79229,79111
 5.0000e-001 79327 -2.5811e+002 -6.2042e+001 -1.0027e+001 60892 79085,79033,79301
 5.0000e-001 79350 -2.2582e+002 -3.9382e+001 -2.0854e+001 60892 79085,79301,79229
 5.0000e-001 79647 -3.4046e+002 -1.3333e+002 -2.7380e+001 60488 79451,79529,79503
 5.0000e-001 79624 -3.3542e+002 -1.1811e+002 -2.4141e+001 60488 79425,79529,79451
 5.0000e-001 79601 -2.6348e+002 -6.2907e+001 -1.2082e-001 60488 79373,79529,79425
 5.0000e-001 79578 -2.5952e+002 -9.5495e+001  1.0891e+001 60488 79373,79425,79399
 5.0000e-001 79555 -3.1284e+002 -2.3542e+001  2.2393e-001 60488 79451,79503,79477
 5.0000e-001 79870 -2.9385e+002 -1.3269e+002 -1.2711e+001 60026 79720,79798,79772
 5.0000e-001 79847 -4.2418e+002 -1.6076e+002 -2.1562e+001 60026 79694,79798,79720
 5.0000e-001 79824 -3.9160e+002 -1.6878e+002 -1.2966e-001 60026 79720,79772,79746
 5.0000e-001 80120 -1.1245e+002  1.2690e+000  3.1160e+001 59629 79921,80025,79973
 5.0000e-001 80097 -7.1053e+001 -7.6130e-001  2.6690e+001 59629 79895,80025,79921
 5.0000e-001 80074 -9.6108e+001  6.3854e+000 -1.7000e+001 59629 79973,80025,79999
 5.0000e-001 80051 -6.7993e+001  2.5822e+001  1.8887e+001 59629 79921,79973,79947
 5.0000e-001 80321 -1.6784e+002 -1.5192e+001 -3.4726e+000 59125 80344,80171,80145
 5.0000e-001 80298 -1.6945e+002 -4.7226e+001 -5.5213e+000 59125 80344,80145,80249
 5.0000e-001 80275 -1.7295e+002 -4.8447e+001  2.1330e+001 59125 80197,80249,80223
 5.0000e-001 80370 -1.7383e+002  5.0660e+000  1.5978e+001 59125 80197,80171,80344
 5.0000e-001 80393 -1.7451e+002 -2.4606e+001  1.3186e+001 59125 80197,80344,80249
 5.0000e-001 80952 -1.4363e+002 -6.6732e+001  1.9232e+001 58557 80975,80632,80606
 5.0000e-001 80929 -1.8818e+002 -7.2765e+001  2.7737e+001 58557 81119,80975,80606
 5.0000e-001 80906 -1.7985e+002 -7.2884e+001 -1.2034e+001 58557 81047,80684,80632
 5.0000e-001 80883 -2.2454e+002 -8.8276e+001  2.7875e+001 58557 81119,80606,80580
 5.0000e-001 80860 -1.8269e+002  1.6375e+001 -7.4366e+000 58557 81191,80736,80710
 5.0000e-001 80837 -1.5848e+002 -2.0382e+000 -2.5905e+001 58557 80736,80788,80762
 5.0000e-001 80814 -1.6759e+002 -7.0267e+001 -1.7911e+001 58557 80632,80684,80658
 5.0000e-001 81001 -1.7729e+002 -8.7783e+001 -2.8030e+000 58557 81047,80632,80975
 5.0000e-001 81024 -1.8957e+002 -3.2972e+001 -3.6691e+000 58557 81191,80710,80975
 5.0000e-001 81073 -1.7835e+002 -3.5910e+001 -2.3725e+001 58557 80710,80684,81047
 5.0000e-001 81096 -1.8970e+002 -6.0786e+001 -1.0061e+001 58557 80710,81047,80975
 5.0000e-001 81145 -1.9770e+002 -8.1079e+001  6.0625e+000 58557 80788,80975,81119
 5.0000e-001 81168 -2.0417e+002 -8.3930e+001  7.3087e+000 58557 80788,81119,80580
 5.0000e-001 81217 -1.8671e+002 -2.9229e+001  1.0383e+001 58557 80788,80736,81191
 5.0000e-001 81240 -1.8127e+002 -5.4787e+001  1.8723e+001 58557 80788,81191,80975
 5.0000e-001 81537 -1.2500e+002  6.6538e+001 -1.9128e+001 57881 81560,81341,81289
 5.0000e-001 81514 -1.1209e+002  7.3994e+001 -1.0766e+002 57881 81560,81289,81263
 5.0000e-001 81491 -1.7608e+002  9.9624e+000 -6.6293e+001 57881 81632,81419,81367
 5.0000e-001 81468 -1.8815e+002 -3.4924e-001 -6.8397e+000 57881 81367,81419,81393
 5.0000e-001 81445 -2.8319e+002  9.2293e+001  1.8037e+001 57881 81289,81341,81315
 5.0000e-001 81586 -1.6683e+002 -3.6771e+001 -2.1645e+001 57881 81367,81341,81560
 5.0000e-001 81609 -1.7965e+002  5.3470e+001 -5.5875e+001 57881 81632,81367,81560
 5.0000e-001 81658 -1.8020e+002 -1.1978e+002 -6.8031e+001 57881 81263,81419,81632
 5.0000e-001 81681 -1.5348e+002 -2.7876e+001 -7.2226e+001 57881 81263,81632,81560
 5.0000e-001 81929 -3.9731e+001 -6.0500e+000  2.5148e+001 57477 81704,81808,81782
 5.0000e-001 81906 -3.8687e+001 -2.3333e+001  3.2450e+001 57477 81704,81834,81808
 5.0000e-001 81883 -3.2945e+001 -8.3840e+000  1.6336e+001 57477 81704,81782,81730
 5.0000e-001 81860 -4.9519e+001 -5.6591e+000  1.6451e+001 57477 81730,81782,81756
 5.0000e-001 82488 -2.0488e+002 -8.8852e+001  4.2983e+000 56966 82583,82511,82194
 5.0000e-001 82465 -1.9174e+002 -7.5015e+001 -1.4496e+000 56966 82511,82116,82324
 5.0000e-001 82442 -1.9353e+002 -9.9026e+001  5.8445e+000 56966 82583,82194,82168
 5.0000e-001 82419 -2.5611e+002 -9.6224e+001  4.3467e+000 56966 82194,82246,82220
 5.0000e-001 82396 -1.9173e+002 -5.9665e+001  2.8138e+001 56966 82194,82298,82246
 5.0000e-001 82373 -2.2028e+002 -7.5497e+001  5.0872e+001 56966 82246,82298,82272
 5.0000e-001 82350 -1.7696e+002 -5.3357e+001  1.5139e+001 56966 82116,82168,82142
 5.0000e-001 82537 -2.1326e+002 -8.4979e+001  1.6111e+001 56966 82298,82194,82511
 5.0000e-001 82560 -1.8947e+002 -8.9668e+001  1.0919e+001 56966 82298,82511,82324
 5.0000e-001 82609 -1.9351e+002 -7.8654e+001  9.2350e+000 56966 82116,82511,82583
 5.0000e-001 82632 -1.8401e+002 -8.9330e+001  1.0798e+001 56966 82116,82583,82168
 5.0000e-001 83236 -3.4703e+002 -1.4820e+002 -7.1348e+001 56304 82893,82945,82919
 5.0000e-001 83213 -2.8641e+002 -1.4708e+002 -3.6087e+001 56304 83259,82945,82893
 5.0000e-001 83190 -2.5697e+002 -1.1060e+002 -1.8936e+001 56304 83259,82893,83049
 5.0000e-001 83167 -2.2863e+002 -1.1495e+002  2.1692e+001 56304 82971,83049,83023
 5.0000e-001 83144 -2.4662e+002 -9.6213e+001 -1.1195e+001 56304 82815,83049,82893
 5.0000e-001 83121 -2.2823e+002 -5.4900e+001 -1.6936e+001 56304 82815,82893,82867
 5.0000e-001 83098 -1.7765e+002 -9.8703e+001 -5.7417e+000 56304 82971,83023,82997
 5.0000e-001 83075 -2.2963e+002 -9.2749e+001 -7.6206e+000 56304 82815,82867,82841
 5.0000e-001 83285 -3.0209e+002 -9.5583e+001 -1.4368e+001 56304 82971,82945,83259
 5.0000e-001 83308 -2.8223e+002 -8.0239e+001  2.6002e+000 56304 82971,83259,83049
 5.0000e-001 83556 -2.3448e+002 -4.3284e+001 -1.7615e+001 55964 83357,83461,83435
 5.0000e-001 83533 -2.5910e+002  3.1114e-002  2.0113e+000 55964 83331,83461,83357
 5.0000e-001 83510 -8.4909e+001 -2.4691e+001  9.7007e+000 55964 83357,83435,83383
 5.0000e-001 83487 -1.7748e+002 -6.5578e+001 -7.9929e+000 55964 83383,83435,83409
 5.0000e-001 83706 -2.4963e+002 -1.4272e+002 -8.6760e+000 55503 83579,83631,83605
 5.0000e-001 83683 -3.0785e+002 -1.4108e+002 -1.2045e-001 55503 83579,83657,83631
 5.0000e-001 83907 -1.8359e+002 -8.8237e+001 -3.9314e+001 55156 83757,83835,83809
 5.0000e-001 83884 -1.5957e+002 -1.5265e+001 -1.3243e+001 55156 83731,83835,83757
 5.0000e-001 83861 -2.2309e+002 -1.8702e+001 -2.8476e+001 55156 83757,83809,83783
 5.0000e-001 84240 -1.3771e+002 -2.7469e+001  1.0275e+001 54652 84093,84145,84119
 5.0000e-001 84217 -2.1422e+002 -2.0845e+001  4.5998e+001 54652 84041,84145,84093
 5.0000e-001 84194 -2.3520e+002 -4.8034e+001  3.2712e+001 54652 84015,84145,84041
 5.0000e-001 84171 -3.6225e+002 -8.7249e+001  3.1288e+001 54652 84041,84093,84067
 5.0000e-001 84618 -1.1522e+002 -4.1907e+001  1.4196e+000 53926 84396,84500,84474
 5.0000e-001 84595 -9.3099e+001 -2.1396e+001  1.1678e+001 53926 84344,84500,84396
 5.0000e-001 84572 -8.8061e+001 -1.9662e+001  5.9693e-001 53926 84344,84396,84370
 5.0000e-001 84549 -1.3927e+002 -4.8213e+001 -8.6101e+000 53926 84396,84474,84422
 5.0000e-001 84526 -1.5090e+002 -5.6043e+001 -1.2631e+001 53926 84422,84474,84448
 5.0000e-001 85350 -2.8038e+002 -9.7257e+001 -6.4144e+001 53586 85373,84880,85088
 5.0000e-001 85327 -1.4771e+002 -9.0481e+001 -6.5906e+001 53586 84880,85114,85088
 5.0000e-001 85304 -1.5348e+002 -3.7512e+001 -4.3988e+001 53586 85373,85088,85062
 5.0000e-001 85281 -3.1049e+002 -1.4697e+002  7.4689e+001 53586 85010,85062,85036
 5.0000e-001 85258 -2.7843e+002 -4.7510e+001  9.1579e+000 53586 85445,85010,84958
 5.0000e-001 85235 -1.3256e+002 -1.3225e-001 -2.3281e+001 53586 85445,84958,84906
 5.0000e-001 85212 -2.1357e+002 -6.1379e+001 -1.2818e+001 53586 84958,85010,84984
 5.0000e-001 85189 -2.1018e+002 -6.1822e+001 -6.2243e+001 53586 84906,84958,84932
 5.0000e-001 85166 -1.9921e+002 -1.4397e+002 -3.9788e+001 53586 84880,85140,85114
 5.0000e-001 85399 -3.2033e+002 -7.1911e+001  7.3043e+001 53586 84906,84880,85373
 5.0000e-001 85422 -2.1702e+002 -1.5581e+001  5.7127e+001 53586 85517,85373,85062
 5.0000e-001 85471 -2.8287e+002 -6.4658e+001  8.9363e+001 53586 85062,85010,85445
 5.0000e-001 85494 -2.0315e+002 -1.0277e+001  5.2460e+001 53586 85517,85062,85445
 5.0000e-001 85543 -1.9398e+002 -2.7106e+001  6.1915e+001 53586 84906,85373,85517
 5.0000e-001 85566 -1.8618e+002 -2.7151e+001  5.8880e+001 53586 84906,85517,85445
 5.0000e-001 86072 -1.7366e+002 -8.5899e+001 -3.7544e+001 53182 86095,85853,85775
 5.0000e-001 86049 -1.8939e+002 -5.2124e+001 -3.1031e+001 53182 86095,85775,85931
 5.0000e-001 86026 -1.9608e+002 -9.8645e+001 -2.3305e+001 53182 86167,85879,85853
 5.0000e-001 86003 -2.6400e+002 -9.9542e+001 -8.4706e+000 53182 85775,85827,85801
 5.0000e-001 85980 -1.7520e+002 -9.8370e+001 -2.9955e+001 53182 85775,85853,85827
 5.0000e-001 85957 -1.4247e+002 -5.1589e+001  2.6517e+001 53182 85749,85931,85775
 5.0000e-001 86121 -1.8199e+002 -8.6090e+001 -3.7508e+001 53182 86167,85853,86095
 5.0000e-001 86144 -2.0626e+002 -8.6199e+001 -4.0805e+001 53182 85905,86095,85931
 5.0000e-001 86193 -1.9610e+002 -1.0787e+002 -1.3760e+001 53182 85905,85879,86167
 5.0000e-001 86216 -1.9102e+002 -1.1405e+002 -2.7249e+001 53182 85905,86167,86095
 5.0000e-001 86673 -2.0629e+002  2.0768e+001  3.1344e+001 52778 86477,86529,86503
 5.0000e-001 86650 -2.2003e+002 -6.2370e+001  1.1913e+001 52778 86425,86529,86477
 5.0000e-001 86627 -2.0467e+002 -6.5964e+001  1.8936e+001 52778 86425,86477,86451
 5.0000e-001 86604 -1.5865e+002 -2.3880e+001  3.2747e+001 52778 86399,86529,86425
 5.0000e-001 86581 -1.2532e+002 -1.0100e+001  3.2165e+001 52778 86399,86555,86529
 5.0000e-001 87258 -1.9232e+002 -4.3303e+001  2.6686e+001 52238 87281,86987,86961
 5.0000e-001 87235 -2.0436e+002 -5.4011e+001  1.9789e+001 52238 87281,86961,87117
 5.0000e-001 87212 -1.9716e+002  2.3583e+001  1.9709e+001 52238 86935,87117,86961
 5.0000e-001 87189 -2.3681e+002 -3.0295e+000  8.4757e+000 52238 87065,87117,87091
 5.0000e-001 87166 -2.0106e+002 -9.9694e+001  2.7623e+000 52238 86987,87065,87039
 5.0000e-001 87143 -2.1104e+002 -1.4802e+002  4.2698e+001 52238 86987,87039,87013
 5.0000e-001 87307 -1.9635e+002 -5.6251e+001  1.5177e+001 52238 87065,86987,87281
 5.0000e-001 87330 -2.0460e+002 -5.9588e+001  9.0943e+000 52238 87065,87281,87117
 5.0000e-001 87610 -1.9628e+002 -2.9238e+001  1.2695e+001 51834 87434,87512,87460
 5.0000e-001 87587 -1.9236e+002 -2.0574e+001  2.8412e+001 51834 87434,87538,87512
 5.0000e-001 87564 -2.8673e+002 -1.0924e+002 -2.5798e+001 51834 87633,87460,87512
 5.0000e-001 87659 -3.5449e+002 -1.3830e+002 -2.8891e+001 51834 87486,87460,87633
 5.0000e-001 88187 -2.3615e+002 -8.0883e+001 -2.3781e+000 51266 87864,87942,87890
 5.0000e-001 88164 -2.1211e+002  7.3670e+000  4.1807e+000 51266 87864,88020,87942
 5.0000e-001 88141 -3.6996e+002 -9.6798e+001 -7.2016e+001 51266 87942,88020,87968
 5.0000e-001 88118 -2.9320e+002 -1.0038e+002  4.5651e+001 51266 87864,88046,88020
 5.0000e-001 88095 -2.1373e+002 -1.6258e+000 -1.0488e+001 51266 87968,88020,87994
 5.0000e-001 88072 -2.1045e+002 -9.1863e+001 -2.4448e+001 51266 87890,87942,87916
 5.0000e-001 88644 -2.8758e+002 -1.0891e+002 -1.1597e+001 50754 88370,88500,88396
 5.0000e-001 88621 -2.8685e+002 -2.0565e+001 -3.2399e+001 50754 88370,88526,88500
 5.0000e-001 88598 -1.7588e+002 -1.7160e+001  5.4411e+001 50754 88396,88500,88422
 5.0000e-001 88575 -1.9284e+002 -5.6552e+001  5.1358e+001 50754 88422,88500,88474
 5.0000e-001 88552 -2.6496e+002 -1.1514e+002 -6.6825e+000 50754 88422,88474,88448
 5.0000e-001 88914 -1.9747e+002 -1.1675e+001 -9.2620e-001 50442 88715,88793,88741
 5.0000e-001 88891 -1.4418e+002  3.4705e+000 -1.5255e+001 50442 88715,88819,88793
 5.0000e-001 88868 -2.7035e+002 -5.5725e+001 -4.1431e+001 50442 88689,88819,88715
 5.0000e-001 88845 -1.2932e+002  2.3007e+001  1.3913e+001 50442 88741,88793,88767
 5.0000e-001 89294 -2.0008e+002 -3.4860e+001  4.3169e+000 49938 89317,89046,89020
 5.0000e-001 89271 -1.7689e+002 -4.1595e+001 -7.7298e+000 49938 89317,89020,89150
 5.0000e-001 89248 -1.3621e+002 -4.6570e+001 -2.7654e+000 49938 89072,89150,89098
 5.0000e-001 89225 -1.9518e+002 -2.2958e+001 -3.9085e+001 49938 89020,89176,89150
 5.0000e-001 89202 -1.3886e+002 -5.3976e+001 -2.3959e+000 49938 89098,89150,89124
 5.0000e-001 89343 -1.3542e+002 -8.1299e+000  3.6264e+001 49938 89072,89046,89317
 5.0000e-001 89366 -1.6184e+002 -4.1312e+001 -9.4099e+000 49938 89072,89317,89150
 5.0000e-001 89823 -1.5686e+002 -4.7785e+001 -3.1527e+001 49384 89601,89705,89679
 5.0000e-001 89800 -1.1049e+002 -4.0402e+001  2.5668e+001 49384 89549,89705,89601
 5.0000e-001 89777 -8.4374e+001 -1.9043e+001  1.5544e+001 49384 89549,89601,89575
 5.0000e-001 89754 -1.0976e+002 -4.0241e+001 -2.6664e+001 49384 89601,89679,89627
 5.0000e-001 89731 -7.8369e+001  1.9943e+001 -4.1992e+001 49384 89627,89679,89653
 5.0000e-001 90329 -6.7184e+001  2.2121e+000 -2.3995e+000 48894 90058,90110,90084
 5.0000e-001 90306 -7.3466e+001  6.1874e-002  1.0070e+001 48894 90058,90162,90110
 5.0000e-001 90283 -1.3339e+002 -2.2223e+001 -1.0945e+001 48894 90032,90162,90058
 5.0000e-001 90260 -1.2328e+002 -1.3137e+001 -2.6108e+001 48894 90006,90162,90032
 5.0000e-001 90237 -2.9334e+001 -5.7747e+000 -1.6190e+001 48894 90110,90162,90136
 5.0000e-001 90214 -1.1522e+002 -1.8205e+001 -1.4100e+001 48894 90006,90188,90162
 5.0000e-001 90884 -1.0183e+002 -2.2670e+001  1.6356e+001 48490 90564,90642,90616
 5.0000e-001 90861 -9.3667e+001 -6.9818e-001  4.6953e+000 48490 90564,90694,90642
 5.0000e-001 90838 -1.1492e+002 -2.3171e+000  1.2702e+001 48490 90538,90694,90564
 5.0000e-001 90815 -1.8670e+002 -2.0836e+001  1.7258e+001 48490 90538,90720,90694
 5.0000e-001 90792 -9.1483e+001 -1.1032e+001  4.1388e+000 48490 90564,90616,90590
 5.0000e-001 90769 -8.7798e+001  8.7894e-001 -1.0211e+001 48490 90642,90694,90668
 5.0000e-001 90746 -2.0527e+002 -3.3434e+001  8.4952e+000 48490 90512,90720,90538
 5.0000e-001 91034 -1.2135e+002  6.0235e+001 -4.3369e+001 48086 91057,90959,90933
 5.0000e-001 91011 -1.5716e+002 -1.9165e+001 -5.1382e+001 48086 91129,91057,90933
 5.0000e-001 91083 -1.0807e+002  1.7615e+001 -1.0259e+001 48086 90985,90959,91057
 5.0000e-001 91106 -1.1526e+002 -1.1022e+000 -1.3112e+001 48086 90985,91057,90907
 5.0000e-001 91155 -1.2080e+002  2.1679e+001 -2.1020e+001 48086 90907,91057,91129
 5.0000e-001 91791 -2.5875e+002 -1.0374e+002 -1.4448e+001 47518 92030,91814,91523
 5.0000e-001 91768 -2.2084e+002 -9.8563e+001 -2.2424e+001 47518 91958,91814,91471
 5.0000e-001 91745 -1.9725e+002 -2.9666e+001 -9.4087e+000 47518 91886,91575,91523
 5.0000e-001 91722 -2.1844e+002 -1.1954e+002  5.7676e+000 47518 91958,91471,91419
 5.0000e-001 91699 -3.2010e+002 -4.0488e+001 -5.0026e+001 47518 92030,91523,91497
 5.0000e-001 91676 -2.4393e+002  7.1709e+000 -1.3532e+001 47518 91523,91575,91549
 5.0000e-001 91653 -1.9453e+002 -9.8281e+001 -4.1459e+000 47518 91419,91471,91445
 5.0000e-001 91840 -2.1500e+002 -6.4920e+001 -3.3982e+001 47518 91886,91523,91814
 5.0000e-001 91863 -2.7051e+002 -1.5702e+002 -1.3921e+001 47518 91601,91814,91627
 5.0000e-001 91912 -1.7060e+002 -1.1941e+001  3.9556e+001 47518 91601,91575,91886
 5.0000e-001 91935 -1.8822e+002 -8.5930e+001  1.6762e+001 47518 91601,91886,91814
 5.0000e-001 91984 -2.5604e+002 -1.1654e+002 -1.5171e+001 47518 91627,91814,91958
 5.0000e-001 92007 -2.3885e+002 -1.2898e+002  8.3867e+000 47518 91627,91958,91419
 5.0000e-001 92056 -2.9125e+002 -1.6776e+002 -5.9936e+001 47518 91471,91814,92030
 5.0000e-001 92079 -3.4683e+002 -1.3029e+002 -1.0064e+002 47518 91471,92030,91497
 5.0000e-001 92229 -2.3043e+002 -1.1380e+002 -4.1540e+001 47128 92252,92128,92102
 5.0000e-001 92206 -2.6125e+002 -1.6588e+002 -2.8419e+001 47128 92324,92252,92102
 5.0000e-001 92278 -2.5596e+002 -1.9244e+002 -3.7254e+001 47128 92454,92252,92154
 5.0000e-001 92301 -2.4709e+002 -1.2077e+002 -2.5767e+001 47128 92154,92252,92180
 5.0000e-001 92350 -1.9714e+002 -9.6638e+001 -1.8524e+000 47128 92180,92252,92324
 5.0000e-001 92480 -2.1431e+002 -9.7364e+001 -1.1666e+001 47128 92128,92252,92454
 5.0000e-001 93340 -2.2013e+002 -4.1406e+000  3.0042e+001 46838 93363,92977,92873
 5.0000e-001 93317 -3.0131e+002 -3.2887e+001  5.1106e+000 46838 93507,93363,92873
 5.0000e-001 93294 -2.4589e+002 -7.9419e+001 -1.1262e+001 46838 93435,93003,92977
 5.0000e-001 93271 -3.2880e+002 -7.3628e+001 -1.4793e+001 46838 93507,92873,92847
 5.0000e-001 93248 -2.3734e+002 -7.0975e+001 -1.1373e+001 46838 93579,93029,93003
 5.0000e-001 93225 -1.5578e+002 -2.5042e+001  9.6966e+000 46838 92873,92951,92925
 5.0000e-001 93202 -1.6459e+002 -3.6210e+001  3.7148e+000 46838 92873,92977,92951
 5.0000e-001 93179 -2.9726e+002 -9.6761e+001  1.7181e+001 46838 93055,93107,93081
 5.0000e-001 93156 -4.4691e+002 -1.8492e+002 -1.2191e+001 46838 92821,93107,92847
 5.0000e-001 93133 -1.4593e+002 -4.7449e+001  2.5866e+001 46838 92873,92925,92899
 5.0000e-001 93389 -2.7251e+002 -6.5219e+001 -3.4978e+000 46838 93435,92977,93363
 5.0000e-001 93412 -2.4967e+002 -3.1872e+001 -4.2440e+000 46838 93055,93363,93107
 5.0000e-001 93461 -2.3881e+002 -6.7055e+001 -1.4453e+001 46838 93579,93003,93435
 5.0000e-001 93484 -2.4740e+002 -3.2216e+001 -1.4468e+001 46838 93055,93435,93363
 5.0000e-001 93533 -2.7072e+002 -9.7774e+001  3.1058e+000 46838 93107,93363,93507
 5.0000e-001 93556 -2.7120e+002 -1.1874e+002 -1.5186e+000 46838 93107,93507,92847
 5.0000e-001 93605 -2.3140e+002 -6.6972e+001 -1.5177e+001 46838 93055,93029,93579
 5.0000e-001 93628 -2.3356e+002 -6.3721e+001 -1.8162e+001 46838 93055,93579,93435
 5.0000e-001 93979 -2.8546e+002  6.2658e+001  3.4087e+001 46476 93780,93884,93858
 5.0000e-001 93956 -3.2488e+002 -1.7864e+001  1.9721e+001 46476 93754,93884,93780
 5.0000e-001 93933 -6.3626e+002 -2.2809e+001 -1.0371e+001 46476 93806,93858,93832
 5.0000e-001 93910 -6.1377e+002 -7.2866e+001  4.0207e+001 46476 93780,93858,93806
 5.0000e-001 94515 -1.9026e+002 -6.6852e+001 -3.2929e+000 46072 94345,94397,94371
 5.0000e-001 94492 -1.3781e+002 -4.7792e+001  1.3568e+001 46072 94267,94397,94345
 5.0000e-001 94469 -1.0499e+002 -4.1458e+000 -1.4076e+000 46072 94241,94397,94267
 5.0000e-001 94446 -9.4579e+001 -3.4278e+001 -1.7412e+001 46072 94293,94345,94319
 5.0000e-001 94423 -1.3590e+002 -1.7158e+001  1.4802e+001 46072 94267,94345,94293
 5.0000e-001 95149 -1.5805e+002 -4.4113e+001 -4.4614e+000 45346 94803,94881,94855
 5.0000e-001 95126 -1.4684e+002 -2.7043e+001 -1.2748e+001 45346 94803,94959,94881
 5.0000e-001 95103 -1.1616e+002 -1.2555e+001 -3.9422e+000 45346 95172,94933,94907
 5.0000e-001 95080 -1.3214e+002 -2.5394e+001  3.0826e+000 45346 95172,94907,94881
 5.0000e-001 95057 -1.4275e+002 -6.1042e+001 -3.0093e+001 45346 94803,94985,94959
 5.0000e-001 95034 -1.6680e+002 -2.0681e+001  5.1462e+000 45346 94803,94855,94829
 5.0000e-001 95011 -1.3588e+002 -7.4091e+001 -1.2087e+002 45346 94777,94985,94803
 5.0000e-001 95198 -1.3192e+002 -4.7487e+000 -3.4697e+000 45346 94959,94933,95172
 5.0000e-001 95221 -1.4085e+002 -8.9347e+000 -1.6106e-001 45346 94959,95172,94881
 5.0000e-001 95776 -1.4078e+002 -3.0329e+001  6.5314e+001 44720 95799,95560,95534
 5.0000e-001 95753 -1.6848e+002 -4.0182e+001  7.3244e+001 44720 95799,95534,95482
 5.0000e-001 95730 -1.9540e+002 -3.7195e+001  7.2730e+001 44720 95943,95871,95430
 5.0000e-001 95707 -2.0140e+002 -2.2272e+001  7.4902e+001 44720 95943,95430,95404
 5.0000e-001 95684 -2.8334e+002 -7.5069e+001  7.3061e+001 44720 95430,95482,95456
 5.0000e-001 95661 -1.0206e+002 -3.2878e+001  3.0723e+001 44720 95482,95534,95508
 5.0000e-001 95638 -1.7638e+002 -9.6363e+000  7.8750e+001 44720 95404,95612,95586
 5.0000e-001 95825 -1.6779e+002 -1.2741e+001  7.0773e+001 44720 95586,95560,95799
 5.0000e-001 95848 -1.7524e+002 -2.6897e+001  7.3746e+001 44720 95871,95586,95799
 5.0000e-001 95897 -1.9307e+002 -4.5551e+001  5.7772e+001 44720 95482,95430,95871
 5.0000e-001 95920 -1.8748e+002 -2.7110e+001  6.3051e+001 44720 95482,95871,95799
 5.0000e-001 95969 -1.8378e+002 -1.9484e+001  6.7683e+001 44720 95586,95871,95943
 5.0000e-001 95992 -1.9545e+002 -1.1743e+001  7.2515e+001 44720 95586,95943,95404
 5.0000e-001 96449 -2.0029e+002 -4.9301e+001  4.6255e+000 44202 96544,96472,96227
 5.0000e-001 96426 -2.1665e+002 -1.3291e+002  1.2415e+001 44202 96472,96175,96331
 5.0000e-001 96403 -2.4639e+002 -7.6825e+000 -5.4388e+000 44202 96544,96227,96201
 5.0000e-001 96380 -8.6626e+001 -3.1827e+001  8.2893e+000 44202 96253,96305,96279
 5.0000e-001 96357 -1.4729e+002 -3.8159e+001  4.3158e+001 44202 96227,96305,96253
 5.0000e-001 96498 -2.2225e+002 -1.0357e+002  7.7202e+000 44202 96305,96227,96472
 5.0000e-001 96521 -1.9829e+002 -9.0545e+001  1.4299e+001 44202 96305,96472,96331
 5.0000e-001 96570 -2.3427e+002 -1.2727e+002 -1.6087e+001 44202 96175,96472,96544
 5.0000e-001 96593 -2.5550e+002 -5.4300e+001 -2.0379e+001 44202 96175,96544,96201
 5.0000e-001 96971 -1.3222e+002 -7.1233e+001 -1.3847e+001 43754 96994,96749,96697
 5.0000e-001 96948 -1.3597e+002 -8.5070e+001 -5.7259e+000 43754 96994,96697,96853
 5.0000e-001 96925 -1.2634e+002 -6.8825e+001 -1.6946e+001 43754 96697,96749,96723
 5.0000e-001 96902 -1.2853e+002 -4.4264e+001 -2.0598e+001 43754 96775,96853,96827
 5.0000e-001 96879 -8.5834e+001 -3.5980e+001 -1.3133e+001 43754 96775,96827,96801
 5.0000e-001 97020 -1.2781e+002 -4.5811e+001 -2.5926e+001 43754 96775,96749,96994
 5.0000e-001 97043 -1.4175e+002 -6.9752e+001 -1.5745e+001 43754 96775,96994,96853
 5.0000e-001 97291 -1.6903e+002 -2.4410e+001 -1.4681e+001 43364 97314,97144,97118
 5.0000e-001 97268 -1.6055e+002 -4.6967e+001 -2.4746e+001 43364 97314,97118,97092
 5.0000e-001 97245 -1.6347e+002 -5.4542e+001 -1.9354e+001 43364 97386,97196,97170
 5.0000e-001 97222 -1.9005e+002 -9.3748e+001 -3.2606e+001 43364 97066,97196,97092
 5.0000e-001 97340 -1.8616e+002 -5.4684e+001 -6.8118e+000 43364 97170,97144,97314
 5.0000e-001 97363 -1.6322e+002 -5.0413e+001 -2.2265e+001 43364 97386,97170,97314
 5.0000e-001 97412 -1.6544e+002 -5.9505e+001 -1.7787e+001 43364 97092,97196,97386
 5.0000e-001 97435 -1.6583e+002 -5.7770e+001 -2.1094e+001 43364 97092,97386,97314
 5.0000e-001 97788 -1.6496e+002 -2.3823e+001 -1.1675e+001 42960 97563,97667,97589
 5.0000e-001 97765 -2.4182e+002 -9.6404e+001  1.8287e+001 42960 97563,97693,97667
 5.0000e-001 97742 -3.1257e+002  4.3130e+001 -1.2413e+001 42960 97589,97641,97615
 5.0000e-001 97719 -3.1586e+002 -6.5721e+001 -1.7865e+001 42960 97589,97667,97641
 5.0000e-001 98215 -9.1708e+001 -2.2831e+001 -4.8558e+001 42563 97918,98074,98048
 5.0000e-001 98192 -4.5711e+001  6.8943e+000 -3.4753e+001 42563 97892,98074,97918
 5.0000e-001 98169 -1.0351e+002 -1.3640e+001 -4.8499e+001 42563 98238,97944,97918
 5.0000e-001 98146 -1.1881e+002 -4.8951e+001 -3.7818e+001 42563 98238,97918,98048
 5.0000e-001 98123 -1.2521e+002 -2.9099e+001 -2.5734e+001 42563 97944,98022,97996
 5.0000e-001 98100 -1.1814e+002 -1.3649e+000 -8.4298e+000 42563 97944,97996,97970
 5.0000e-001 98264 -1.1628e+002 -3.8100e+001 -3.0808e+001 42563 98022,97944,98238
 5.0000e-001 98287 -1.1999e+002 -5.1051e+001 -2.0723e+001 42563 98022,98238,98048
 5.0000e-001 98616 -1.5224e+002 -7.8046e+001  1.3161e+000 42251 98443,98521,98469
 5.0000e-001 98593 -1.6388e+002 -7.4139e+001  9.3313e+000 42251 98417,98521,98443
 5.0000e-001 98570 -1.5669e+002 -6.0850e+001 -2.0384e+001 42251 98391,98521,98417
 5.0000e-001 98547 -1.5668e+002 -7.2831e+001 -9.9423e+000 42251 98469,98521,98495
 5.0000e-001 98886 -3.5535e+002 -6.0514e+001 -3.9635e+001 41847 98661,98765,98687
 5.0000e-001 98863 -4.4060e+002 -3.7791e+001 -6.9794e+001 41847 98661,98791,98765
 5.0000e-001 98840 -2.7696e+002 -6.5770e+001 -6.3408e+000 41847 98687,98765,98739
 5.0000e-001 98817 -3.0981e+002 -8.6138e+001  4.8492e+000 41847 98687,98739,98713
 5.0000e-001 99394 -1.6077e+002 -3.4099e+001  3.5316e+001 41236 99417,99149,99123
 5.0000e-001 99371 -2.2289e+002 -4.7833e+001  3.9528e+001 41236 99417,99123,99097
 5.0000e-001 99348 -1.8592e+002 -3.0857e+001  4.0760e+000 41236 99489,99201,99149
 5.0000e-001 99325 -1.7756e+002 -5.2958e+001 -3.8327e+001 41236 99149,99201,99175
 5.0000e-001 99302 -3.0857e+002 -4.8513e+000 -1.5678e+001 41236 99097,99253,99227
 5.0000e-001 99279 -4.0602e+002 -1.0268e+002 -6.5004e+001 41236 99071,99253,99097
 5.0000e-001 99443 -1.7530e+002 -3.6078e+001  5.3432e+000 41236 99489,99149,99417
 5.0000e-001 99466 -1.9614e+002 -3.7463e+001  1.6117e+001 41236 99227,99417,99097
 5.0000e-001 99515 -1.9109e+002 -3.5817e+001  6.5406e+000 41236 99227,99201,99489
 5.0000e-001 99538 -1.8687e+002 -4.5982e+001  9.8299e+000 41236 99227,99489,99417
 5.0000e-001 100044 -8.7996e+001 -3.3227e+001  5.3164e+001 40732 99721,99773,99747
 5.0000e-001 100021 -1.7344e+002 -2.2799e+001  1.0054e+001 40732 99721,99799,99773
 5.0000e-001 99998 -1.7398e+002 -1.2900e+001  1.0689e+001 40732 99721,99903,99799
 5.0000e-001 99975 -2.2357e+002 -3.5761e+000 -3.4308e+001 40732 100067,99877,99851
 5.0000e-001 99952 -2.1067e+002 -1.0437e+002 -5.3267e+001 40732 100067,99851,99799
 5.0000e-001 99929 -3.0826e+002 -1.1636e+002 -8.5035e+001 40732 99799,99851,99825
 5.0000e-001 100093 -2.2504e+002  7.3160e+001 -1.9625e-001 40732 99903,99877,100067
 5.0000e-001 100116 -2.1796e+002 -4.4889e+001 -1.1627e+001 40732 99903,100067,99799
 5.0000e-001 100622 -2.0883e+002 -2.2875e+001  3.7830e+001 40278 100645,100455,100429
 5.0000e-001 100599 -2.4634e+002 -4.4003e+001  4.7474e+001 40278 100717,100645,100429
 5.0000e-001 100576 -2.8862e+002 -6.2353e+001  2.2815e+001 40278 100717,100429,100377
 5.0000e-001 100553 -1.9111e+002 -6.9046e+001  2.6285e+001 40278 100789,100325,100481
 5.0000e-001 100530 -1.8163e+002 -2.6725e+001  4.1572e+001 40278 100299,100481,100325
 5.0000e-001 100507 -1.9151e+002 -5.9072e+001  2.1060e+001 40278 100377,100429,100403
 5.0000e-001 100671 -2.2275e+002 -1.3041e+000  4.3349e+001 40278 100481,100455,100645
 5.0000e-001 100694 -2.0989e+002 -4.9280e+001  6.5362e+000 40278 100789,100481,100645
 5.0000e-001 100743 -2.6551e+002 -4.8705e+001 -2.9817e+001 40278 100351,100645,100717
 5.0000e-001 100766 -3.6392e+002 -8.7164e+001 -5.2333e+001 40278 100351,100717,100377
 5.0000e-001 100815 -1.7190e+002 -6.0298e+001  5.7554e+000 40278 100351,100325,100789
 5.0000e-001 100838 -1.7543e+002 -2.1732e+001 -1.5654e+001 40278 100351,100789,100645
 5.0000e-001 101265 -2.4427e+002 -7.4032e+001  5.3414e+000 39824 101288,101046,100994
 5.0000e-001 101242 -2.6353e+002 -9.4743e+001 -3.6989e+000 39824 101288,100994,100968
 5.0000e-001 101219 -2.9330e+002 -5.9474e+001  2.4939e+001 39824 100942,101124,100968
 5.0000e-001 101196 -2.1161e+002  1.3577e+000  1.9959e+001 39824 101046,101124,101072
 5.0000e-001 101173 -2.3121e+002 -9.0499e+001 -3.3033e+001 39824 100994,101046,101020
 5.0000e-001 101150 -1.3165e+002 -1.3569e+001  2.9293e+001 39824 101072,101124,101098
 5.0000e-001 101314 -2.3539e+002 -8.5454e+001  1.4323e+001 39824 101124,101046,101288
 5.0000e-001 101337 -2.4422e+002 -9.0923e+001  8.9646e+000 39824 101124,101288,100968
 5.0000e-001 101585 -6.6696e+001 -2.4289e+001  4.4711e+000 39070 101608,101464,101412
 5.0000e-001 101562 -7.1793e+001 -2.9857e+001  1.7965e+000 39070 101608,101412,101360
 5.0000e-001 101539 -4.9457e+001 -1.8104e+001  5.2943e+000 39070 101412,101464,101438
 5.0000e-001 101516 -8.6434e+001 -4.5062e+001  8.7932e+000 39070 101360,101412,101386
 5.0000e-001 101634 -6.1873e+001 -2.5819e+001  9.3339e+000 39070 101490,101464,101608
 5.0000e-001 101657 -6.7292e+001 -3.3314e+001  6.3170e+000 39070 101490,101608,101360
 5.0000e-001 101856 -1.9351e+002  3.5625e+001 -1.0981e+001 38730 101706,101758,101732
 5.0000e-001 101833 -1.5304e+002  4.7395e+001 -1.7583e+001 38730 101706,101784,101758
 5.0000e-001 101810 -1.3218e+002  2.2527e+000 -7.5185e+001 38730 101680,101784,101706
 5.0000e-001 102106 -1.9258e+002 -6.3902e+001  5.0014e+000 38326 101881,101959,101907
 5.0000e-001 102083 -2.0653e+002 -5.5403e+001  3.0656e+001 38326 101881,101985,101959
 5.0000e-001 102060 -1.5069e+002 -5.4634e+001  3.4873e+001 38326 101881,102011,101985
 5.0000e-001 102037 -2.4080e+002 -5.3391e+001 -7.0584e+000 38326 101907,101959,101933
 5.0000e-001 102258 -8.1802e+001 -1.9520e+000  3.0224e+000 38036 102281,102157,102131
 5.0000e-001 102235 -6.3832e+001  1.1346e+001 -2.8350e+000 38036 102281,102131,102209
 5.0000e-001 102307 -5.6792e+001 -1.9216e+001  4.7954e+000 38036 102183,102157,102281
 5.0000e-001 102330 -3.5638e+001 -5.8190e+000 -1.3662e+000 38036 102183,102281,102209
 5.0000e-001 102663 -1.4973e+002 -3.7445e+001  3.8696e+001 37596 102438,102542,102464
 5.0000e-001 102640 -9.1781e+001 -1.4081e+001  3.8226e+001 37596 102438,102568,102542
 5.0000e-001 102617 -1.2286e+002 -2.0479e+001  6.5682e+001 37596 102490,102542,102516
 5.0000e-001 102594 -1.0866e+002 -7.3458e+000  5.5415e+001 37596 102464,102542,102490
 5.0000e-001 102862 -2.0022e+002 -1.4886e+001 -3.7482e+000 37192 102686,102764,102712
 5.0000e-001 102839 -2.0473e+002  1.7457e+000  1.2693e+001 37192 102686,102790,102764
 5.0000e-001 102816 -2.0401e+002 -5.8046e+001  1.5927e+001 37192 102712,102764,102738
 5.0000e-001 103110 -2.2025e+002 -6.0980e+001 -1.3249e+001 36609 102911,102963,102937
 5.0000e-001 103087 -1.7999e+002 -5.0180e+001 -1.2702e+001 36609 102911,102989,102963
 5.0000e-001 103064 -1.8317e+002 -5.8353e+001 -1.6780e+001 36609 102885,102989,102911
 5.0000e-001 103041 -2.1620e+002 -2.6818e+001 -3.8625e+001 36609 102885,103015,102989
 5.0000e-001 103718 -5.2023e+001  1.6570e+001  3.9505e+001 36131 103323,103375,103349
 5.0000e-001 103695 -2.0382e+002  3.2845e+001  4.7632e+001 36131 103297,103375,103323
 5.0000e-001 103672 -2.3309e+002 -1.0401e+002 -3.1905e+001 36131 103297,103505,103375
 5.0000e-001 103649 -1.8446e+002 -6.3144e+001 -1.4907e+001 36131 103741,103479,103401
 5.0000e-001 103626 -1.7331e+002 -3.8207e+001  4.6298e+000 36131 103741,103401,103375
 5.0000e-001 103603 -1.9772e+002 -5.0830e+001 -1.9278e+001 36131 103401,103479,103427
 5.0000e-001 103580 -3.0401e+002 -1.0127e+002 -5.3668e+001 36131 103297,103531,103505
 5.0000e-001 103557 -1.7655e+002 -1.9321e+000 -2.1664e+001 36131 103427,103479,103453
 5.0000e-001 103767 -2.0060e+002 -8.6537e+001 -3.3029e+001 36131 103505,103479,103741
 5.0000e-001 103790 -1.8705e+002 -6.2526e+001 -1.2908e+001 36131 103505,103741,103375
 5.0000e-001 103989 -3.0493e+002 -9.5040e+001  6.4972e+000 35791 103839,103917,103891
 5.0000e-001 103966 -2.8555e+002 -1.1344e+002  6.0742e+000 35791 103813,103917,103839
 5.0000e-001 103943 -2.6279e+002 -2.9198e+001 -3.1184e+001 35791 103839,103891,103865
 5.0000e-001 104188 -7.4887e+001 -2.8619e+001 -2.9676e+001 35444 104038,104090,104064
 5.0000e-001 104165 -8.7694e+001  3.9811e+000  3.1158e+001 35444 104038,104116,104090
 5.0000e-001 104142 -1.1621e+002  1.3550e+001  2.4396e+001 35444 104012,104116,104038
 5.0000e-001 104487 -1.9399e+002 -3.8098e+001 -2.9473e+001 34990 104265,104317,104291
 5.0000e-001 104464 -1.8239e+002 -4.8410e+001 -9.3434e+000 34990 104510,104317,104265
 5.0000e-001 104441 -1.3973e+002 -1.7236e+001  4.4966e+000 34990 104510,104265,104213
 5.0000e-001 104418 -1.9204e+002 -8.5827e+000  1.2125e+001 34990 104582,104343,104317
 5.0000e-001 104395 -1.2376e+002  1.3536e+001 -1.6256e+001 34990 104213,104265,104239
 5.0000e-001 104536 -1.9258e+002 -8.0608e+000  8.6423e-001 34990 104582,104317,104510
 5.0000e-001 104559 -1.7523e+002 -1.2248e+001  1.2124e+001 34990 104369,104510,104213
 5.0000e-001 104608 -1.5950e+002  3.2215e+001  2.8835e+001 34990 104369,104343,104582
 5.0000e-001 104631 -1.8270e+002 -3.6633e+000  1.2090e+001 34990 104369,104582,104510
 5.0000e-001 104783 -1.8156e+002 -5.6056e+001 -9.7382e+000 34700 104938,104806,104682
 5.0000e-001 104760 -1.8226e+002 -6.5924e+001 -5.9823e+000 34700 104938,104682,104656
 5.0000e-001 104832 -1.2402e+002 -1.4663e+001  9.4167e+000 34700 104708,104682,104806
 5.0000e-001 104964 -1.8708e+002 -5.4984e+001 -1.6470e+000 34700 104734,104806,104938
 5.0000e-001 104987 -1.8723e+002 -6.2834e+001  2.1524e+000 34700 104734,104938,104656
 5.0000e-001 105137 -1.5354e+002  5.6530e+000 -5.0070e+000 34388 105036,105088,105062
 5.0000e-001 105114 -1.7175e+002 -2.1222e+001 -1.3785e+001 34388 105010,105088,105036
 5.0000e-001 105385 -1.9273e+002 -2.5272e+001  1.7547e+001 33734 105408,105186,105160
 5.0000e-001 105362 -1.9749e+002 -2.7769e+001  2.0692e+001 33734 105408,105160,105264
 5.0000e-001 105339 -1.8994e+002  5.7828e+000  7.9618e+000 33734 105160,105290,105264
 5.0000e-001 105316 -2.1123e+002 -3.9988e+001  5.5247e+001 33734 105186,105238,105212
 5.0000e-001 105434 -1.9757e+002 -1.8725e+001  2.3224e+001 33734 105238,105186,105408
 5.0000e-001 105457 -2.1167e+002 -3.2894e+001  2.9270e+001 33734 105238,105408,105264
 5.0000e-001 105609 -6.8156e+001 -4.5114e-001 -1.1248e+001 33394 105482,105534,105508
 5.0000e-001 105586 -4.3308e+001  1.0780e+001 -1.4638e+001 33394 105482,105560,105534
 5.0000e-001 105859 -2.6401e+002 -1.9272e+001 -3.9570e+001 33047 105882,105712,105660
 5.0000e-001 105836 -2.9619e+002 -1.8015e+001 -1.8586e+001 33047 105882,105660,105634
 5.0000e-001 105813 -1.6132e+002 -3.9180e+001  1.7222e+001 33047 105660,105712,105686
 5.0000e-001 105790 -1.7643e+002 -2.1126e+001 -4.8213e+001 33047 105634,105764,105738
 5.0000e-001 105908 -1.8871e+002  1.3936e+001 -6.7590e+001 33047 105738,105712,105882
 5.0000e-001 105931 -2.6740e+002 -2.1776e+001 -4.0774e+001 33047 105738,105882,105634
 5.0000e-001 106181 -2.0831e+002 -8.0301e+001  8.2391e+000 32543 106204,106060,106008
 5.0000e-001 106158 -1.8753e+002 -8.2764e+001  6.4025e+000 32543 105956,106086,106060
 5.0000e-001 106135 -2.0430e+002 -7.2862e+001  5.6078e+000 32543 106204,106008,105982
 5.0000e-001 106112 -2.0159e+002 -1.2099e+002  4.1210e+000 32543 106008,106060,106034
 5.0000e-001 106230 -2.0442e+002 -8.3012e+001  2.6969e+000 32543 105956,106060,106204
 5.0000e-001 106253 -1.9937e+002 -7.5534e+001 -1.0611e-001 32543 105956,106204,105982
 5.0000e-001 106454 -1.8602e+002 -4.6993e+001 -4.6024e+001 31839 106304,106356,106330
 5.0000e-001 106431 -2.0276e+002 -1.9379e+001  1.8276e+001 31839 106278,106356,106304
 5.0000e-001 106408 -1.2691e+002 -4.1095e+001  1.2394e+001 31839 106278,106382,106356
 5.0000e-001 106704 -1.5455e+002 -2.1426e+001  7.6339e+000 31534 106505,106583,106557
 5.0000e-001 106681 -1.6399e+002 -2.4135e+001  8.4137e+000 31534 106479,106583,106505
 5.0000e-001 106658 -1.8994e+002 -3.3325e+001  1.4712e+001 31534 106505,106557,106531
 5.0000e-001 106635 -1.5251e+002 -1.5026e+001  8.1908e-002 31534 106479,106609,106583
 5.0000e-001 107108 -3.3819e+002 -8.5055e+001 -3.1026e+001 31030 106886,106990,106964
 5.0000e-001 107085 -2.8689e+002 -1.0831e+002 -3.5018e+000 31030 106860,106990,106886
 5.0000e-001 107062 -2.6645e+002 -9.6767e+001  1.9986e+000 31030 106834,106990,106860
 5.0000e-001 107039 -3.9618e+002 -7.0314e+001  1.6565e+001 31030 106912,106964,106938
 5.0000e-001 107016 -4.6824e+002 -1.4221e+002 -3.9608e+001 31030 106886,106964,106912
 5.0000e-001 107307 -1.6772e+002  1.2187e+001 -3.2369e+000 30718 107330,107157,107131
 5.0000e-001 107284 -1.4603e+002  1.7985e+001 -1.0277e+001 30718 107330,107131,107235
 5.0000e-001 107261 -1.0757e+002  1.1509e+001  2.5375e+001 30718 107183,107235,107209
 5.0000e-001 107356 -1.4417e+002 -4.8966e+000  1.6450e+000 30718 107183,107157,107330
 5.0000e-001 107379 -1.2173e+002  2.6498e+000 -7.2421e+000 30718 107183,107330,107235
 5.0000e-001 107759 -6.0069e+001 -5.7309e+000  8.4444e+000 30264 107782,107615,107537
 5.0000e-001 107736 -6.6061e+001 -1.9593e+001  6.9381e+000 30264 107782,107537,107485
 5.0000e-001 107713 -1.1750e+002 -4.5213e+000  1.3327e+001 30264 107485,107537,107511
 5.0000e-001 107690 -3.1464e+001  1.7805e+001  1.8665e+001 30264 107537,107615,107589
 5.0000e-001 107667 -2.1134e+001  2.1910e+000  8.6278e+000 30264 107537,107589,107563
 5.0000e-001 107808 -5.5598e+001 -8.5794e+000  1.9873e+001 30264 107641,107615,107782
 5.0000e-001 107831 -6.3165e+001 -2.4645e+001  1.7650e+001 30264 107641,107782,107485
 5.0000e-001 108030 -2.0085e+002 -4.8684e+001  2.6119e+001 29874 108053,107854,107932
 5.0000e-001 108007 -1.5409e+002 -3.0679e+001  2.0621e+001 29874 107854,107958,107932
 5.0000e-001 107984 -2.1910e+002 -4.2437e+001  3.6594e+001 29874 108053,107932,107906
 5.0000e-001 108079 -1.9418e+002 -3.9715e+001  2.3095e+001 29874 107880,107854,108053
 5.0000e-001 108102 -2.0581e+002 -2.6378e+001  3.0876e+001 29874 107880,108053,107906
 5.0000e-001 108433 -1.0063e+002 -2.1258e+001 -2.8141e+001 29484 108234,108338,108312
 5.0000e-001 108410 -1.7701e+002 -8.4752e+000  4.3591e+001 29484 108208,108338,108234
 5.0000e-001 108387 -1.6758e+002 -5.2888e+001 -1.7460e+001 29484 108234,108312,108260
 5.0000e-001 108364 -1.3032e+002 -4.6571e+001 -9.6604e+000 29484 108260,108312,108286
 5.0000e-001 108762 -1.5556e+002 -7.0607e+001  3.2944e+000 29080 108563,108641,108589
 5.0000e-001 108739 -1.4041e+002 -8.5166e+001  2.9189e+001 29080 108537,108641,108563
 5.0000e-001 108716 -2.0262e+002 -3.9927e+001  4.0653e+001 29080 108589,108641,108615
 5.0000e-001 108693 -8.2425e+001 -7.1612e+001 -1.1499e+001 29080 108537,108667,108641
 5.0000e-001 109189 -2.0623e+002 -4.1946e+001  1.0221e+000 28476 108892,108996,108970
 5.0000e-001 109166 -2.5855e+002 -6.9874e+001  1.4051e+001 28476 108892,109022,108996
 5.0000e-001 109143 -2.2372e+002 -6.7052e+001  8.6687e+000 28476 108892,108970,108944
 5.0000e-001 109120 -2.8578e+002 -5.9145e+001  2.4733e+001 28476 108892,109048,109022
 5.0000e-001 109097 -2.2190e+002 -7.7068e+001  1.7089e+001 28476 108892,108944,108918
 5.0000e-001 109074 -3.3365e+002  9.3227e+000 -1.6603e+001 28476 108866,109048,108892
 5.0000e-001 109518 -1.8258e+002 -6.4068e+000  9.8163e+000 28022 109541,109371,109345
 5.0000e-001 109495 -1.9848e+002 -2.9134e+001  1.2867e+000 28022 109541,109345,109319
 5.0000e-001 109472 -1.5998e+002 -6.5985e+001  5.4741e+000 28022 109293,109397,109319
 5.0000e-001 109449 -1.9400e+002 -7.6047e+001  1.8154e+000 28022 109293,109423,109397
 5.0000e-001 109567 -1.2777e+002  5.9037e+000  5.3349e+001 28022 109397,109371,109541
 5.0000e-001 109590 -1.7715e+002 -5.9693e+001  3.1762e+001 28022 109397,109541,109319
 5.0000e-001 109968 -1.7699e+002 -1.0534e+002 -1.4346e+001 27568 109798,109850,109824
 5.0000e-001 109945 -1.5615e+002 -4.8602e+001 -1.1772e+001 27568 109694,109850,109798
 5.0000e-001 109922 -1.5478e+002 -1.0351e+002  3.1342e+000 27568 109694,109798,109746
 5.0000e-001 109899 -1.5041e+002 -8.9849e+001  7.8939e+001 27568 109746,109798,109772
 5.0000e-001 109876 -1.0599e+002 -3.7404e+000  1.9771e+001 27568 109694,109746,109720
 5.0000e-001 110167 -1.6803e+002 -3.3001e+001 -2.8829e+000 27007 110017,110095,110069
 5.0000e-001 110144 -1.5373e+002 -2.8878e+001  6.8677e+000 27007 109991,110095,110017
 5.0000e-001 110121 -1.6176e+002  1.1716e+001  5.1843e+001 27007 110017,110069,110043
 5.0000e-001 110415 -1.3134e+002 -6.4612e+001  3.4830e+000 26567 110438,110242,110190
 5.0000e-001 110392 -1.5602e+002 -1.8049e+001 -1.2974e+001 26567 110438,110190,110320
 5.0000e-001 110369 -1.6719e+002 -6.2205e+001  3.2711e+000 26567 110242,110294,110268
 5.0000e-001 110346 -1.1824e+002 -3.3572e+001  3.6281e+000 26567 110190,110242,110216
 5.0000e-001 110464 -1.4437e+002 -7.3247e+001 -4.3614e+000 26567 110294,110242,110438
 5.0000e-001 110487 -1.8136e+002 -6.0689e+001 -2.8643e+001 26567 110294,110438,110320
 5.0000e-001 110639 -2.4090e+002  1.5546e+001 -3.5280e+001 26170 110538,110590,110564
 5.0000e-001 110616 -1.8480e+002 -3.2242e+001  1.4271e+000 26170 110512,110590,110538
 5.0000e-001 111149 -1.0211e+002  6.7347e+000  2.6319e+001 25716 111172,110878,110852
 5.0000e-001 111126 -8.3496e+001  1.9693e+001  2.0671e+001 25716 111172,110852,111008
 5.0000e-001 111103 -1.5892e+002  8.4815e+000  7.2057e+001 25716 110878,110930,110904
 5.0000e-001 111080 -6.2597e+001  2.7098e+001  1.9772e+001 25716 110826,111008,110852
 5.0000e-001 111057 -6.0169e+001 -3.0513e+000  1.2627e+001 25716 110930,111008,110956
 5.0000e-001 111034 -1.9253e+001  9.4895e+000  1.2048e+001 25716 110956,111008,110982
 5.0000e-001 111198 -8.3540e+001 -1.1477e+001  3.2530e+001 25716 110930,110878,111172
 5.0000e-001 111221 -6.1111e+001  3.3023e+000  2.6118e+001 25716 110930,111172,111008
 5.0000e-001 111420 -1.4931e+002  1.7395e+001 -8.9465e-001 25304 111443,111270,111244
 5.0000e-001 111397 -1.6126e+002  4.9140e+001 -4.2879e-001 25304 111443,111244,111348
 5.0000e-001 111374 -1.4388e+002 -5.8853e+000 -2.0516e+001 25304 111270,111322,111296
 5.0000e-001 111469 -1.5582e+002 -1.8087e+000 -4.1179e+000 25304 111322,111270,111443
 5.0000e-001 111492 -1.7426e+002  2.2420e+001 -6.7312e+000 25304 111322,111443,111348
 5.0000e-001 111691 -1.8305e+002 -5.3626e+001 -1.1501e+001 24736 111567,111619,111593
 5.0000e-001 111668 -1.8603e+002 -5.7826e+001 -1.3312e+001 24736 111541,111619,111567
 5.0000e-001 111645 -1.7676e+002 -3.7704e+001 -2.4299e+000 24736 111515,111619,111541
 5.0000e-001 112024 -4.8015e+001 -9.8776e+000  1.3804e+001 24146 111825,111877,111851
 5.0000e-001 112001 -2.8878e+001  3.5725e+001  1.7913e+001 24146 111825,111903,111877
 5.0000e-001 111978 -5.7477e+001 -2.8527e+001  3.0119e+001 24146 111825,111929,111903
 5.0000e-001 111955 -6.2115e+001 -1.1831e+001  4.2016e+001 24146 111799,111929,111825
 5.0000e-001 112370 -1.9246e+002 -8.2640e+001  3.8210e+001 23856 112393,112151,112125
 5.0000e-001 112347 -1.6981e+002 -3.1932e+001  4.4208e+001 23856 112465,112393,112125
 5.0000e-001 112324 -1.6677e+002 -1.1783e+001  5.1324e+001 23856 112465,112125,112073
 5.0000e-001 112301 -1.9004e+002 -5.2823e+001  6.3272e+001 23856 112073,112125,112099
 5.0000e-001 112278 -2.1465e+002 -9.1015e+001 -1.4862e+001 23856 112047,112229,112073
 5.0000e-001 112255 -1.6254e+002 -7.1557e+001 -1.0793e+001 23856 112151,112203,112177
 5.0000e-001 112419 -1.7837e+002 -5.6812e+001  1.3551e+001 23856 112203,112151,112393
 5.0000e-001 112442 -1.9121e+002 -8.0073e+001  5.4161e+000 23856 112203,112393,112229
 5.0000e-001 112491 -1.8471e+002 -5.3604e+001 -2.5855e-001 23856 112229,112393,112465
 5.0000e-001 112514 -1.6688e+002 -3.2661e+000  6.5688e+000 23856 112229,112465,112073
 5.0000e-001 112784 -3.0220e+002  5.1422e+001 -4.3018e+001 23494 112611,112663,112637
 5.0000e-001 112761 -2.7939e+002 -2.5248e+001 -4.0320e+001 23494 112585,112663,112611
 5.0000e-001 112738 -2.6876e+002 -1.9718e+001 -8.5478e+000 23494 112559,112663,112585
 5.0000e-001 112715 -2.5171e+002  8.6214e+001  2.3169e+001 23494 112559,112689,112663
 5.0000e-001 113117 -1.8537e+002 -2.0676e+001 -4.7457e+001 22974 112944,113022,112996
 5.0000e-001 113094 -1.3958e+002 -5.4635e+001 -3.5318e+001 22974 112918,113022,112944
 5.0000e-001 113071 -2.0412e+002 -9.4186e+001 -7.6347e+001 22974 112944,112996,112970
 5.0000e-001 113048 -1.1908e+002 -9.1109e+000 -3.1051e+001 22974 112892,113022,112918
 5.0000e-001 113414 -2.2987e+002 -7.4157e+001 -7.3462e+000 22370 113192,113296,113218
 5.0000e-001 113391 -2.3964e+002 -1.2352e+002 -1.9181e+001 22370 113140,113296,113192
 5.0000e-001 113368 -2.3265e+002 -7.7951e+001  5.2548e+000 22370 113218,113296,113270
 5.0000e-001 113345 -2.0887e+002 -8.2821e+001  3.0710e+001 22370 113218,113270,113244
 5.0000e-001 113322 -1.9216e+002 -2.4036e+001 -3.5301e+001 22370 113140,113192,113166
 5.0000e-001 113662 -1.8052e+002 -1.2920e+001  1.5834e+001 21916 113685,113515,113489
 5.0000e-001 113639 -2.3791e+002 -5.7763e+001 -5.5251e+000 21916 113685,113489,113437
 5.0000e-001 113616 -1.5585e+002 -5.6275e+001 -1.2662e+001 21916 113757,113567,113541
 5.0000e-001 113593 -2.2725e+002 -2.7536e+001 -2.0480e+001 21916 113437,113489,113463
 5.0000e-001 113711 -2.1458e+002 -7.6366e+001 -4.0810e-001 21916 113541,113515,113685
 5.0000e-001 113734 -1.9518e+002 -7.0158e+001 -8.1063e+000 21916 113757,113541,113685
 5.0000e-001 113783 -2.0764e+002 -6.0087e+001 -1.4976e+001 21916 113437,113567,113757
 5.0000e-001 113806 -2.1692e+002 -5.3586e+001 -1.7691e+001 21916 113437,113757,113685
 5.0000e-001 114056 -1.8242e+002 -3.4840e+001 -1.1642e+001 21412 113857,113909,113883
 5.0000e-001 114033 -1.7007e+002 -1.5032e+001 -1.7175e+001 21412 114079,113909,113857
 5.0000e-001 114010 -1.8914e+002 -2.4358e+001 -1.4197e+001 21412 114079,113857,113961
 5.0000e-001 113987 -1.6677e+002 -4.5414e+001 -2.3444e+001 21412 113831,113961,113857
 5.0000e-001 114105 -1.8587e+002 -6.7794e+000 -2.6331e+001 21412 113935,113909,114079
 5.0000e-001 114128 -1.9901e+002 -1.3775e+001 -2.3675e+001 21412 113935,114079,113961
 5.0000e-001 114378 -1.6066e+002 -4.0454e+001 -4.4044e+000 21022 114401,114257,114205
 5.0000e-001 114355 -1.7954e+002 -5.8315e+001 -2.3907e+001 21022 114401,114205,114179
 5.0000e-001 114332 -1.4738e+002 -4.7559e+001  3.1723e+000 21022 114153,114283,114179
 5.0000e-001 114309 -1.9103e+002 -4.1062e+001 -5.1710e+000 21022 114205,114257,114231
 5.0000e-001 114427 -1.3064e+002 -3.9294e+001  1.7350e+001 21022 114283,114257,114401
 5.0000e-001 114450 -1.5519e+002 -5.8051e+001 -1.8201e+000 21022 114283,114401,114179
 5.0000e-001 114651 -1.6312e+001  4.0447e+001 -1.0143e+001 20618 114501,114553,114527
 5.0000e-001 114628 -2.0527e+001  2.4312e+001  1.2571e+001 20618 114501,114579,114553
 5.0000e-001 114605 -7.3286e+001  4.4335e+001  1.2895e+001 20618 114475,114579,114501
 5.0000e-001 114901 -1.9906e+002  7.4517e+000 -7.2914e+000 20114 114676,114780,114702
 5.0000e-001 114878 -1.6090e+002  3.1067e+001 -1.9435e+001 20114 114676,114806,114780
 5.0000e-001 114855 -2.4587e+002  1.0803e+001 -8.2040e+000 20114 114702,114780,114754
 5.0000e-001 114832 -4.6381e+002 -5.2322e+001 -1.5863e+001 20114 114702,114754,114728
 5.0000e-001 115053 -1.8545e+002  1.7280e+001  4.1969e+000 19460 115147,115076,114926
 5.0000e-001 115030 -2.0975e+002  4.3634e+001 -2.4813e+000 19460 115147,114926,115004
 5.0000e-001 115102 -1.9000e+002 -3.9905e+000  2.4644e+000 19460 114952,114926,115076
 5.0000e-001 115173 -2.0820e+002 -1.7762e+001 -5.6832e+000 19460 114978,115076,115147
 5.0000e-001 115196 -2.3323e+002  1.1379e+001 -1.3209e+001 19460 114978,115147,115004
 5.0000e-001 115446 -1.8073e+002 -2.3784e+001  1.9789e+001 19006 115273,115351,115299
 5.0000e-001 115423 -1.5393e+002 -5.0529e+001  7.4253e+000 19006 115247,115351,115273
 5.0000e-001 115400 -1.5957e+002 -5.4782e+001 -6.6596e+000 19006 115221,115351,115247
 5.0000e-001 115377 -1.1100e+002 -1.2343e+001 -4.0380e+001 19006 115299,115351,115325
 5.0000e-001 115767 -1.2505e+002 -2.2137e+001  3.3807e+000 18716 115571,115649,115623
 5.0000e-001 115744 -1.4027e+002 -2.6252e+001 -1.0556e+001 18716 115493,115649,115571
 5.0000e-001 115721 -1.5931e+002 -1.0845e+001  9.7381e-001 18716 115493,115571,115545
 5.0000e-001 115698 -1.6591e+002 -1.0797e+001 -1.5058e+001 18716 115493,115545,115519
 5.0000e-001 115675 -8.1504e+001 -5.3026e+000  9.9192e-001 18716 115571,115623,115597
 5.0000e-001 116039 -2.2033e+002 -6.3714e+001  1.0692e+001 18312 115814,115892,115840
 5.0000e-001 116016 -2.2136e+002 -6.8489e+001  1.5250e+001 18312 115814,115944,115892
 5.0000e-001 115993 -2.3077e+002 -1.5919e+001  1.9817e+001 18312 115892,115944,115918
 5.0000e-001 115970 -1.1087e+002 -1.2538e+001 -3.0491e+000 18312 115840,115892,115866
 5.0000e-001 116191 -1.4534e+002 -3.2767e+001 -1.4603e+000 18000 116090,116142,116116
 5.0000e-001 116168 -1.4066e+002 -2.1735e+001 -2.8701e-002 18000 116064,116142,116090
 5.0000e-001 116343 -1.7191e+002 -7.5423e+000  9.6110e+000 17396 116242,116294,116268
 5.0000e-001 116320 -1.9175e+002  3.9112e+001  3.0976e+001 17396 116216,116294,116242
 5.0000e-001 116566 -2.4250e+002 -1.1392e+002  2.2914e+001 16942 116390,116468,116442
 5.0000e-001 116543 -3.7564e+002 -1.2172e+002  4.1816e+001 16942 116390,116494,116468
 5.0000e-001 116520 -2.6459e+002 -1.6561e+002  9.6297e+000 16942 116390,116442,116416
 5.0000e-001 116767 -1.2316e+002  2.6415e+000  4.9627e-001 16438 116790,116643,116617
 5.0000e-001 116744 -1.1832e+002 -1.4356e+001 -1.9989e+000 16438 116790,116617,116591
 5.0000e-001 116721 -1.0766e+002  1.7072e+001  1.4106e+000 16438 116643,116695,116669
 5.0000e-001 116816 -1.2132e+002 -9.8861e+000  6.0979e+000 16438 116695,116643,116790
 5.0000e-001 116839 -1.1952e+002 -2.4128e+001  9.0341e+000 16438 116695,116790,116591
 5.0000e-001 117062 -6.1006e+001 -2.6930e+001 -5.1491e+000 16074 116886,116938,116912
 5.0000e-001 117039 -6.6240e+001 -3.9404e+001  9.1311e+000 16074 116886,116990,116938
 5.0000e-001 117016 -4.8116e+001  2.9049e+000  1.6409e+001 16074 116938,116990,116964
 5.0000e-001 117214 -3.4974e+002 -1.8872e+002 -2.6005e+001 15649 117087,117139,117113
 5.0000e-001 117191 -3.5624e+002 -2.0197e+002  4.5365e-002 15649 117087,117165,117139
 5.0000e-001 117317 -2.4018e+001 -7.2092e+001  1.4063e+001 421 117239,117291,117265
 6.0000e-001 70632 -2.2673e+001 -2.4869e+000  1.0399e+001 70072 70482,70534,70508
 6.0000e-001 70609 -3.2300e+001 -3.3690e+000  1.5883e+000 70072 70482,70560,70534
 6.0000e-001 70586 -2.8983e+002 -1.0654e+002 -1.0042e+001 70072 70456,70560,70482
 6.0000e-001 70951 -3.3119e+002 -4.6179e+001  0.0000e+000 69874 70703,70755,70729
 6.0000e-001 70928 -3.5797e+002 -5.5107e+001  1.9970e+001 69874 70703,70781,70755
 6.0000e-001 70905 -3.2252e+002 -1.8310e+001  3.5332e+001 69874 70703,70807,70781
 6.0000e-001 70882 -3.6697e+002 -1.2078e+002  3.0463e+001 69874 70703,70833,70807
 6.0000e-001 70859 -1.6905e+002 -2.5397e+001 -8.4146e+000 69874 70677,70833,70703
 6.0000e-001 71199 -1.9211e+002 -6.4360e+001  2.2359e+001 69698 71222,71052,71026
 6.0000e-001 71176 -1.8690e+002 -2.6244e+001  2.8381e+001 69698 71294,71222,71026
 6.0000e-001 71153 -1.8038e+002 -4.2335e+000  1.8455e+001 69698 71294,71026,71000
 6.0000e-001 71130 -2.1147e+002 -3.5863e+001 -5.2344e-001 69698 71366,71104,71078
 6.0000e-001 71248 -1.7678e+002 -3.1821e+001  1.7989e+001 69698 71078,71052,71222
 6.0000e-001 71271 -1.9528e+002 -4.4680e+001  9.0628e+000 69698 71366,71078,71222
 6.0000e-001 71320 -1.6998e+002 -6.4139e+000  6.6079e+000 69698 70974,71222,71294
 6.0000e-001 71343 -1.6712e+002 -4.5068e-001 -3.2309e+000 69698 70974,71294,71000
 6.0000e-001 71392 -1.9477e+002 -1.3605e+001  7.7106e+000 69698 70974,71104,71366
 6.0000e-001 71415 -1.8478e+002 -2.6278e+001  1.3360e+001 69698 70974,71366,71222
 6.0000e-001 71516 -2.3132e+002 -2.1531e+001  1.8589e+001 69386 71438,71490,71464
 6.0000e-001 71869 -1.8851e+002 -2.3406e+001 -7.7361e+000 69188 71644,71748,71670
 6.0000e-001 71846 -1.4061e+002 -4.7793e+001  1.8330e+001 69188 71644,71774,71748
 6.0000e-001 71823 -1.7724e+002 -8.0182e+001 -3.0232e+001 69188 71670,71748,71722
 6.0000e-001 71800 -9.3999e+001 -4.6906e+000  8.8198e+000 69188 71670,71722,71696
 6.0000e-001 72019 -4.9315e+002 -1.1796e+002  8.2252e+001 68990 71918,71970,71944
 6.0000e-001 71996 -6.0337e+002 -3.5724e+001  4.6418e+001 68990 71892,71970,71918
 6.0000e-001 72316 -3.0368e+002 -7.8573e+001  1.8904e+001 68586 72339,72172,72146
 6.0000e-001 72293 -3.1637e+002 -1.2344e+002  1.9436e+001 68586 72339,72146,72120
 6.0000e-001 72270 -3.1212e+002 -1.1693e+002  5.1619e+001 68586 72411,72068,72198
 6.0000e-001 72247 -3.5777e+002 -1.0536e+002  5.9408e+001 68586 72042,72198,72068
 6.0000e-001 72224 -2.5357e+002 -6.4050e+001  1.2495e+001 68586 72068,72120,72094
 6.0000e-001 72365 -3.1611e+002 -7.0302e+001  4.5686e+001 68586 72198,72172,72339
 6.0000e-001 72388 -3.3077e+002 -1.0467e+002  4.3568e+001 68586 72411,72198,72339
 6.0000e-001 72437 -2.8531e+002 -1.0356e+002  4.6968e+001 68586 72120,72068,72411
 6.0000e-001 72460 -3.0517e+002 -9.0569e+001  3.8087e+001 68586 72120,72411,72339
 6.0000e-001 72864 -1.8755e+002 -7.1661e+001  1.1984e+001 68388 72642,72694,72668
 6.0000e-001 72841 -1.9828e+002 -7.6347e+001  2.1089e+001 68388 72616,72694,72642
 6.0000e-001 72818 -2.3142e+002 -9.7526e+001 -6.1049e+000 68388 72616,72720,72694
 6.0000e-001 72795 -2.6651e+002 -7.8829e+001  1.3546e+001 68388 72590,72720,72616
 6.0000e-001 72772 -3.3919e+002 -2.2759e+001 -7.8283e+001 68388 72590,72746,72720
 6.0000e-001 73321 -2.0409e+002 -1.1844e+002 -1.0448e+001 68048 73073,73203,73177
 6.0000e-001 73298 -1.9004e+002 -1.0931e+002 -5.4992e+000 68048 73047,73203,73073
 6.0000e-001 73275 -2.6521e+002 -8.5341e+001  3.9463e+000 68048 73125,73177,73151
 6.0000e-001 73252 -2.4612e+002 -8.4133e+001 -3.8837e+000 68048 73073,73177,73125
 6.0000e-001 73229 -2.3295e+002 -3.2837e+001  8.6143e-001 68048 73073,73125,73099
 6.0000e-001 73640 -3.5732e+002  5.9091e-001 -2.8389e+001 67850 73444,73496,73470
 6.0000e-001 73617 -3.0333e+002 -6.9383e+001 -1.9143e+001 67850 73418,73496,73444
 6.0000e-001 73594 -2.9955e+002 -5.8671e+001 -1.6344e+001 67850 73392,73496,73418
 6.0000e-001 73571 -2.3683e+002 -3.1455e+001  7.1576e+000 67850 73392,73522,73496
 6.0000e-001 73548 -1.9943e+002 -9.8356e+000 -4.1564e+001 67850 73366,73522,73392
 6.0000e-001 73790 -3.0596e+002 -1.4035e+002 -2.4211e+000 67602 73689,73741,73715
 6.0000e-001 73767 -2.8587e+002 -9.5852e+001  1.8859e+000 67602 73663,73741,73689
 6.0000e-001 74040 -3.4895e+002 -1.2663e+002 -4.6600e+000 67290 73841,73945,73919
 6.0000e-001 74017 -2.8779e+002 -1.2005e+002 -2.4937e+001 67290 73815,73945,73841
 6.0000e-001 73994 -3.1324e+002 -1.2172e+002  2.4454e+001 67290 73841,73919,73867
 6.0000e-001 73971 -3.0876e+002 -1.0658e+002  1.6279e+001 67290 73867,73919,73893
 6.0000e-001 74143 -3.5180e+002 -5.9567e+000 -2.3157e+000 67092 74065,74117,74091
 6.0000e-001 74415 -2.5012e+002 -8.5458e+001 -3.5652e+001 66894 74190,74294,74216
 6.0000e-001 74392 -2.0017e+002 -5.6222e+001 -8.9376e-001 66894 74190,74320,74294
 6.0000e-001 74369 -2.3594e+002 -3.0529e+001 -4.0788e+001 66894 74216,74294,74242
 6.0000e-001 74346 -2.5417e+002 -2.2428e+001 -3.2589e+001 66894 74242,74294,74268
 6.0000e-001 75023 -2.7799e+002 -1.1610e+002  3.0679e+001 66532 74654,74836,74810
 6.0000e-001 75000 -1.8770e+002 -6.2787e+001  5.4056e+001 66532 74628,74836,74654
 6.0000e-001 74977 -1.8387e+002 -6.9384e+001 -1.7195e+001 66532 74706,74784,74732
 6.0000e-001 74954 -2.4913e+002 -1.0375e+002 -5.9386e+001 66532 74680,74784,74706
 6.0000e-001 74931 -3.6399e+002 -8.0581e+001 -4.9492e+001 66532 74680,74810,74784
 6.0000e-001 74908 -2.4630e+002 -7.4797e+001  4.9715e+001 66532 74654,74810,74680
 6.0000e-001 74885 -2.6326e+002 -9.8542e+001  4.0069e+001 66532 74602,74836,74628
 6.0000e-001 74862 -2.3475e+002 -7.6009e+001  8.3073e+000 66532 74732,74784,74758
 6.0000e-001 75222 -2.9478e+002 -2.8371e+001  2.6413e+001 66242 75072,75150,75124
 6.0000e-001 75199 -2.9089e+002 -6.5663e+001  2.8226e+001 66242 75046,75150,75072
 6.0000e-001 75176 -3.2063e+002 -7.0912e+001  1.5561e+001 66242 75072,75124,75098
 6.0000e-001 75470 -4.0384e+002  1.2087e+001  1.2132e+001 65838 75297,75375,75349
 6.0000e-001 75447 -4.0106e+002 -2.3675e+001  1.3572e+001 65838 75271,75375,75297
 6.0000e-001 75424 -2.8734e+002  1.1415e+002  7.5489e+001 65838 75297,75349,75323
 6.0000e-001 75401 -4.0100e+002 -1.7168e+001  3.0929e+001 65838 75245,75375,75271
 6.0000e-001 75671 -6.6668e+001 -2.5801e+000 -1.8619e+000 65640 75495,75573,75521
 6.0000e-001 75648 -1.1505e+002 -1.5517e+001 -1.3332e+001 65640 75495,75599,75573
 6.0000e-001 75625 -1.1850e+002 -9.3002e+000  2.5028e+000 65640 75521,75573,75547
 6.0000e-001 75872 -2.1085e+002 -6.7912e+001 -1.2721e+001 65300 75895,75748,75722
 6.0000e-001 75849 -1.8632e+002 -4.3278e+001 -1.1314e+000 65300 75895,75722,75696
 6.0000e-001 75826 -2.0376e+002 -1.7861e-001 -7.2442e+000 65300 75967,75774,75748
 6.0000e-001 75921 -2.1046e+002 -2.2854e+001  1.7158e+000 65300 75967,75748,75895
 6.0000e-001 75944 -2.0128e+002 -3.2700e+001  2.0249e+001 65300 75800,75895,75696
 6.0000e-001 75993 -2.1776e+002 -3.3027e+001  4.2061e+000 65300 75800,75774,75967
 6.0000e-001 76016 -2.1818e+002 -4.1851e+001  1.3507e+001 65300 75800,75967,75895
 6.0000e-001 76371 -2.5161e+002 -4.7504e+001  2.0127e+001 64896 76146,76250,76172
 6.0000e-001 76348 -2.5620e+002 -8.1159e+001  4.5155e+000 64896 76146,76276,76250
 6.0000e-001 76325 -1.8463e+002 -2.8857e+001 -7.0491e+000 64896 76172,76250,76198
 6.0000e-001 76302 -4.4630e+002 -1.4160e+002 -3.9572e+001 64896 76198,76250,76224
 6.0000e-001 76570 -4.2444e+002 -9.0338e+001  5.6960e+001 64442 76446,76498,76472
 6.0000e-001 76547 -3.6765e+002 -3.1123e+001 -3.7614e+000 64442 76420,76498,76446
 6.0000e-001 76524 -3.7141e+002 -6.0402e+001  9.8903e-001 64442 76394,76498,76420
 6.0000e-001 76999 -2.5095e+002 -4.5482e+001  2.9758e+000 63924 77022,76728,76702
 6.0000e-001 76976 -2.6256e+002 -5.3809e+001  7.4741e+000 63924 77022,76702,76832
 6.0000e-001 76953 -2.4212e+002 -5.8429e+001 -3.8850e+001 63924 76728,76806,76754
 6.0000e-001 76930 -3.2795e+002 -9.0176e+001 -8.7633e+000 63924 76676,76832,76702
 6.0000e-001 76907 -3.2281e+002 -1.2195e-001 -4.1107e+001 63924 76754,76806,76780
 6.0000e-001 76884 -3.6375e+002 -3.3160e+001 -1.9438e+000 63924 76676,76858,76832
 6.0000e-001 77048 -2.6657e+002 -3.6638e+001  2.7478e+000 63924 76806,76728,77022
 6.0000e-001 77071 -2.7691e+002 -4.3665e+001  6.8272e+000 63924 76806,77022,76832
 6.0000e-001 77449 -1.7688e+002  2.1037e+000  1.2029e+001 63320 77472,77253,77201
 6.0000e-001 77426 -1.6598e+002 -3.1553e+001 -2.5389e+001 63320 77472,77201,77175
 6.0000e-001 77403 -2.4491e+002 -6.6061e+001 -1.3728e+001 63320 77175,77305,77279
 6.0000e-001 77380 -2.2067e+002 -6.5802e+001  6.3233e+001 63320 77201,77253,77227
 6.0000e-001 77357 -2.5704e+002 -7.1502e+001 -1.2776e+001 63320 77175,77331,77305
 6.0000e-001 77498 -2.1091e+002 -6.8880e+001  2.3994e+001 63320 77279,77253,77472
 6.0000e-001 77521 -1.7794e+002 -5.9458e+001 -2.2857e+001 63320 77279,77472,77175
 6.0000e-001 77769 -2.8974e+002 -6.0246e+001 -1.5576e+000 62816 77570,77622,77596
 6.0000e-001 77746 -2.6164e+002 -9.2988e+001 -1.7070e+001 62816 77570,77648,77622
 6.0000e-001 77723 -2.9018e+002 -8.5036e+001 -7.8056e+001 62816 77570,77674,77648
 6.0000e-001 77700 -2.8439e+002 -4.3918e+001 -5.4534e+001 62816 77544,77674,77570
 6.0000e-001 78149 -2.5241e+002 -1.3438e+002 -1.4075e+001 62354 77953,78031,78005
 6.0000e-001 78126 -2.6797e+002 -1.1273e+002 -1.6657e+001 62354 77901,78031,77953
 6.0000e-001 78103 -2.1928e+002 -9.0523e+001 -1.0593e+000 62354 77875,78031,77901
 6.0000e-001 78080 -3.2199e+002 -9.2324e+001  3.2199e+001 62354 77901,77953,77927
 6.0000e-001 78057 -3.7416e+002 -1.3986e+002 -2.9932e+001 62354 77953,78005,77979
 6.0000e-001 78606 -1.5419e+002 -8.7628e+001 -6.3201e+001 61950 78384,78436,78410
 6.0000e-001 78583 -1.6483e+002 -5.5694e+001 -1.0435e+001 61950 78358,78436,78384
 6.0000e-001 78560 -1.7583e+002 -9.2977e+001  8.1694e+000 61950 78358,78488,78436
 6.0000e-001 78537 -1.2024e+002 -2.5829e+001 -2.3214e+001 61950 78436,78488,78462
 6.0000e-001 78514 -1.9143e+002 -1.0761e+002  1.4981e+000 61950 78332,78488,78358
 6.0000e-001 78756 -3.1660e+002 -7.9326e+001  2.7597e+001 61339 78779,78655,78629
 6.0000e-001 78733 -3.2077e+002 -3.3989e+001  2.7168e+001 61339 78779,78629,78707
 6.0000e-001 78805 -2.8351e+002 -1.1492e+001  2.7590e+000 61339 78851,78779,78681
 6.0000e-001 78828 -3.4292e+002 -5.0101e+001  2.0091e+001 61339 78681,78779,78707
 6.0000e-001 78877 -3.4306e+002 -1.5034e+002  8.0403e-001 61339 78655,78779,78851
 6.0000e-001 79206 -2.3575e+002 -3.9472e+001 -6.9337e+001 60892 79229,79007,78981
 6.0000e-001 79183 -2.5577e+002 -8.1635e+001 -6.2599e+001 60892 79229,78981,79111
 6.0000e-001 79160 -2.5033e+002 -6.3010e+001 -4.0836e+001 60892 79301,79033,79007
 6.0000e-001 79137 -3.2021e+002 -2.2514e+001  2.6119e+001 60892 79033,79085,79059
 6.0000e-001 79255 -2.5717e+002 -4.6262e+001 -5.3869e+001 60892 79301,79007,79229
 6.0000e-001 79278 -2.3159e+002 -6.1578e+001 -5.2010e+001 60892 79085,79229,79111
 6.0000e-001 79327 -2.7707e+002 -1.1209e+002 -2.0196e+001 60892 79085,79033,79301
 6.0000e-001 79350 -2.5291e+002 -7.7191e+001 -4.2598e+001 60892 79085,79301,79229
 6.0000e-001 79647 -3.9004e+002 -1.5167e+002 -3.9916e+001 60488 79451,79529,79503
 6.0000e-001 79624 -3.8769e+002 -1.3637e+002 -2.9871e+001 60488 79425,79529,79451
 6.0000e-001 79601 -2.9759e+002 -8.1085e+001 -5.2911e+000 60488 79373,79529,79425
 6.0000e-001 79578 -2.8827e+002 -1.0974e+002  9.2263e+000 60488 79373,79425,79399
 6.0000e-001 79555 -3.6789e+002 -1.8442e+001 -9.0376e+000 60488 79451,79503,79477
 6.0000e-001 79870 -3.6386e+002 -1.5316e+002 -9.5760e+000 60026 79720,79798,79772
 6.0000e-001 79847 -5.0955e+002 -1.8783e+002 -2.1063e+001 60026 79694,79798,79720
 6.0000e-001 79824 -4.8454e+002 -1.9909e+002  2.1979e+000 60026 79720,79772,79746
 6.0000e-001 80120 -1.3240e+002 -2.9064e+000  2.1634e+001 59629 79921,80025,79973
 6.0000e-001 80097 -9.9789e+001 -4.2134e+000  1.8281e+001 59629 79895,80025,79921
 6.0000e-001 80074 -1.1671e+002  7.2902e+000 -1.8569e+001 59629 79973,80025,79999
 6.0000e-001 80051 -8.0315e+001  7.0517e+000  1.2615e+001 59629 79921,79973,79947
 6.0000e-001 80321 -1.9668e+002 -3.3341e+001  1.5296e+000 59125 80344,80171,80145
 6.0000e-001 80298 -2.0483e+002 -4.2013e+001  5.3764e+000 59125 80344,80145,80249
 6.0000e-001 80275 -2.0928e+002 -5.5487e+001  2.2951e+001 59125 80197,80249,80223
 6.0000e-001 80370 -2.0738e+002 -2.8171e+001  8.8138e+000 59125 80197,80171,80344
 6.0000e-001 80393 -2.1468e+002 -3.5659e+001  1.2348e+001 59125 80197,80344,80249
 6.0000e-001 80952 -1.5964e+002 -6.8962e+001  2.0993e+001 58557 80975,80632,80606
 6.0000e-001 80929 -2.1002e+002 -7.8200e+001  3.1127e+001 58557 81119,80975,80606
 6.0000e-001 80906 -2.0175e+002 -7.6674e+001 -1.1859e+001 58557 81047,80684,80632
 6.0000e-001 80883 -2.5125e+002 -9.5997e+001  2.9679e+001 58557 81119,80606,80580
 6.0000e-001 80860 -2.0435e+002  2.1630e+001 -7.6803e+000 58557 81191,80736,80710
 6.0000e-001 80837 -1.7875e+002 -6.5022e+000 -3.0423e+001 58557 80736,80788,80762
 6.0000e-001 80814 -1.8562e+002 -7.6546e+001 -1.9660e+001 58557 80632,80684,80658
 6.0000e-001 81001 -1.9912e+002 -9.2803e+001 -1.8235e+000 58557 81047,80632,80975
 6.0000e-001 81024 -2.1211e+002 -3.3566e+001 -3.3992e+000 58557 81191,80710,80975
 6.0000e-001 81073 -2.0021e+002 -3.6731e+001 -2.4690e+001 58557 80710,80684,81047
 6.0000e-001 81096 -2.1271e+002 -6.3663e+001 -9.8514e+000 58557 80710,81047,80975
 6.0000e-001 81145 -2.2158e+002 -8.9777e+001  6.5883e+000 58557 80788,80975,81119
 6.0000e-001 81168 -2.2891e+002 -9.2922e+001  6.6341e+000 58557 80788,81119,80580
 6.0000e-001 81217 -2.0880e+002 -2.9576e+001  1.2467e+001 58557 80788,80736,81191
 6.0000e-001 81240 -2.0271e+002 -5.7978e+001  2.1890e+001 58557 80788,81191,80975
 6.0000e-001 81537 -1.7840e+002  6.5812e+001 -2.5696e+001 57881 81560,81341,81289
 6.0000e-001 81514 -1.4440e+002  8.2780e+001 -1.2798e+002 57881 81560,81289,81263
 6.0000e-001 81491 -2.2933e+002  8.0456e+000 -6.5367e+001 57881 81632,81419,81367
 6.0000e-001 81468 -2.3905e+002  1.7227e+000 -7.7434e+000 57881 81367,81419,81393
 6.0000e-001 81445 -3.5073e+002  7.8056e+001  1.7035e+001 57881 81289,81341,81315
 6.0000e-001 81586 -2.1984e+002 -5.6260e+001 -1.6082e+001 57881 81367,81341,81560
 6.0000e-001 81609 -2.3028e+002  5.1194e+001 -5.6745e+001 57881 81632,81367,81560
 6.0000e-001 81658 -2.2681e+002 -1.3557e+002 -6.4667e+001 57881 81263,81419,81632
 6.0000e-001 81681 -1.9168e+002 -3.6584e+001 -7.3194e+001 57881 81263,81632,81560
 6.0000e-001 81929 -8.4378e+001 -1.6917e+001  2.0993e+001 57477 81704,81808,81782
 6.0000e-001 81906 -8.2434e+001 -2.4789e+001  2.4270e+001 57477 81704,81834,81808
 6.0000e-001 81883 -8.6253e+001 -9.3289e+000  2.6358e+001 57477 81704,81782,81730
 6.0000e-001 81860 -9.6623e+001 -9.6488e+000  2.7158e+001 57477 81730,81782,81756
 6.0000e-001 82488 -2.3418e+002 -1.0654e+002  6.6948e+000 56966 82583,82511,82194
 6.0000e-001 82465 -2.1674e+002 -7.9679e+001 -8.1860e-001 56966 82511,82116,82324
 6.0000e-001 82442 -2.2037e+002 -1.2679e+002  1.0897e+001 56966 82583,82194,82168
 6.0000e-001 82419 -2.8896e+002 -1.1124e+002  7.4533e+000 56966 82194,82246,82220
 6.0000e-001 82396 -2.2097e+002 -7.1265e+001  3.5720e+001 56966 82194,82298,82246
 6.0000e-001 82373 -2.5421e+002 -8.4014e+001  6.3956e+001 56966 82246,82298,82272
 6.0000e-001 82350 -1.9614e+002 -5.8008e+001  1.8456e+001 56966 82116,82168,82142
 6.0000e-001 82537 -2.4338e+002 -9.5410e+001  2.2579e+001 56966 82298,82194,82511
 6.0000e-001 82560 -2.0977e+002 -9.4997e+001  1.9424e+001 56966 82298,82511,82324
 6.0000e-001 82609 -2.2133e+002 -8.5089e+001  1.2306e+001 56966 82116,82511,82583
 6.0000e-001 82632 -2.0805e+002 -1.0423e+002  1.5702e+001 56966 82116,82583,82168
 6.0000e-001 83236 -3.8297e+002 -1.7067e+002 -8.2874e+001 56304 82893,82945,82919
 6.0000e-001 83213 -3.3176e+002 -1.7502e+002 -4.5133e+001 56304 83259,82945,82893
 6.0000e-001 83190 -2.9429e+002 -1.2471e+002 -2.1263e+001 56304 83259,82893,83049
 6.0000e-001 83167 -2.5859e+002 -1.2399e+002  2.8269e+001 56304 82971,83049,83023
 6.0000e-001 83144 -2.8216e+002 -1.0519e+002 -1.3917e+001 56304 82815,83049,82893
 6.0000e-001 83121 -2.5766e+002 -5.9292e+001 -2.3224e+001 56304 82815,82893,82867
 6.0000e-001 83098 -1.9191e+002 -1.0872e+002 -8.1657e+000 56304 82971,83023,82997
 6.0000e-001 83075 -2.5671e+002 -1.0404e+002 -9.9727e+000 56304 82815,82867,82841
 6.0000e-001 83285 -3.4913e+002 -1.0363e+002 -1.7960e+001 56304 82971,82945,83259
 6.0000e-001 83308 -3.2587e+002 -8.3982e+001  6.2556e+000 56304 82971,83259,83049
 6.0000e-001 83556 -2.6243e+002 -6.8395e+001 -2.5352e+001 55964 83357,83461,83435
 6.0000e-001 83533 -2.4415e+002 -1.0662e+001  3.4666e-001 55964 83331,83461,83357
 6.0000e-001 83510 -1.0243e+002 -3.8507e+001 -4.7124e+000 55964 83357,83435,83383
 6.0000e-001 83487 -2.2597e+002 -8.2619e+001 -2.4024e+001 55964 83383,83435,83409
 6.0000e-001 83706 -2.8900e+002 -1.6314e+002 -1.0635e+001 55503 83579,83631,83605
 6.0000e-001 83683 -3.6309e+002 -1.6220e+002  5.1140e-001 55503 83579,83657,83631
 6.0000e-001 83907 -2.1375e+002 -9.7063e+001 -4.4620e+001 55156 83757,83835,83809
 6.0000e-001 83884 -1.8584e+002 -7.7111e+000 -8.2583e+000 55156 83731,83835,83757
 6.0000e-001 83861 -2.7039e+002 -2.6778e+001 -3.6799e+001 55156 83757,83809,83783
 6.0000e-001 84240 -1.6722e+002 -3.1021e+001  1.4320e+001 54652 84093,84145,84119
 6.0000e-001 84217 -2.5325e+002 -2.2656e+001  5.4194e+001 54652 84041,84145,84093
 6.0000e-001 84194 -2.8692e+002 -6.2794e+001  3.1177e+001 54652 84015,84145,84041
 6.0000e-001 84171 -4.4459e+002 -1.0872e+002  3.4538e+001 54652 84041,84093,84067
 6.0000e-001 84618 -1.3736e+002 -5.3033e+001  8.7882e+000 53926 84396,84500,84474
 6.0000e-001 84595 -1.0547e+002 -4.9080e+001  2.4986e+001 53926 84344,84500,84396
 6.0000e-001 84572 -9.6973e+001 -3.6077e+001  1.6929e+001 53926 84344,84396,84370
 6.0000e-001 84549 -1.2504e+002 -3.8652e+001 -1.6616e+001 53926 84396,84474,84422
 6.0000e-001 84526 -2.0904e+002 -7.5643e+001 -4.3758e+001 53926 84422,84474,84448
 6.0000e-001 85350 -3.3688e+002 -1.1791e+002 -7.9851e+001 53586 85373,84880,85088
 6.0000e-001 85327 -1.7113e+002 -1.1377e+002 -7.9847e+001 53586 84880,85114,85088
 6.0000e-001 85304 -1.7268e+002 -4.1677e+001 -5.7044e+001 53586 85373,85088,85062
 6.0000e-001 85281 -3.5185e+002 -1.7259e+002  8.2632e+001 53586 85010,85062,85036
 6.0000e-001 85258 -3.3800e+002 -6.4066e+001 -1.0642e-001 53586 85445,85010,84958
 6.0000e-001 85235 -1.6147e+002  5.7878e-001 -2.1426e+001 53586 85445,84958,84906
 6.0000e-001 85212 -2.6206e+002 -4.4781e+001 -2.8313e+001 53586 84958,85010,84984
 6.0000e-001 85189 -2.6446e+002 -7.7572e+001 -7.3412e+001 53586 84906,84958,84932
 6.0000e-001 85166 -2.2509e+002 -1.7295e+002 -5.0523e+001 53586 84880,85140,85114
 6.0000e-001 85399 -3.8773e+002 -8.7607e+001  9.4422e+001 53586 84906,84880,85373
 6.0000e-001 85422 -2.5571e+002 -1.6374e+001  7.3923e+001 53586 85517,85373,85062
 6.0000e-001 85471 -3.3308e+002 -6.2757e+001  9.6300e+001 53586 85062,85010,85445
 6.0000e-001 85494 -2.4104e+002 -9.3490e+000  6.8800e+001 53586 85517,85062,85445
 6.0000e-001 85543 -2.3115e+002 -2.9638e+001  7.8791e+001 53586 84906,85373,85517
 6.0000e-001 85566 -2.2292e+002 -2.8305e+001  7.5513e+001 53586 84906,85517,85445
 6.0000e-001 86072 -2.0201e+002 -9.3706e+001 -4.0802e+001 53182 86095,85853,85775
 6.0000e-001 86049 -2.1897e+002 -5.0533e+001 -3.3920e+001 53182 86095,85775,85931
 6.0000e-001 86026 -2.2834e+002 -1.1165e+002 -2.5777e+001 53182 86167,85879,85853
 6.0000e-001 86003 -3.1006e+002 -1.1019e+002 -7.7720e+000 53182 85775,85827,85801
 6.0000e-001 85980 -2.0335e+002 -1.0711e+002 -3.1865e+001 53182 85775,85853,85827
 6.0000e-001 85957 -1.5489e+002 -4.6810e+001  3.6999e+001 53182 85749,85931,85775
 6.0000e-001 86121 -2.1045e+002 -9.6648e+001 -4.2030e+001 53182 86167,85853,86095
 6.0000e-001 86144 -2.3662e+002 -9.4364e+001 -4.5558e+001 53182 85905,86095,85931
 6.0000e-001 86193 -2.2795e+002 -1.2220e+002 -1.3673e+001 53182 85905,85879,86167
 6.0000e-001 86216 -2.2045e+002 -1.2856e+002 -2.8913e+001 53182 85905,86167,86095
 6.0000e-001 86673 -2.3544e+002  3.4226e+001  4.0821e+001 52778 86477,86529,86503
 6.0000e-001 86650 -2.4993e+002 -6.2884e+001  1.6215e+001 52778 86425,86529,86477
 6.0000e-001 86627 -2.4139e+002 -6.9217e+001  2.3831e+001 52778 86425,86477,86451
 6.0000e-001 86604 -1.8489e+002 -1.3751e+001  3.9677e+001 52778 86399,86529,86425
 6.0000e-001 86581 -1.3768e+002  6.4120e+000  3.7533e+001 52778 86399,86555,86529
 6.0000e-001 87258 -2.1770e+002 -4.9113e+001  3.1018e+001 52238 87281,86987,86961
 6.0000e-001 87235 -2.3135e+002 -5.7644e+001  2.6974e+001 52238 87281,86961,87117
 6.0000e-001 87212 -2.2289e+002  4.6835e+001  2.6023e+001 52238 86935,87117,86961
 6.0000e-001 87189 -2.6686e+002  1.2573e+001  1.2174e+001 52238 87065,87117,87091
 6.0000e-001 87166 -2.2378e+002 -1.1193e+002  1.9603e+000 52238 86987,87065,87039
 6.0000e-001 87143 -2.3814e+002 -1.6839e+002  4.8060e+001 52238 86987,87039,87013
 6.0000e-001 87307 -2.1916e+002 -5.6783e+001  1.7476e+001 52238 87065,86987,87281
 6.0000e-001 87330 -2.3048e+002 -6.1552e+001  1.4577e+001 52238 87065,87281,87117
 6.0000e-001 87610 -2.2462e+002 -3.0260e+001  1.3973e+001 51834 87434,87512,87460
 6.0000e-001 87587 -2.1674e+002 -1.6370e+001  3.7632e+001 51834 87434,87538,87512
 6.0000e-001 87564 -3.3190e+002 -1.2272e+002 -3.1644e+001 51834 87633,87460,87512
 6.0000e-001 87659 -4.1425e+002 -1.5805e+002 -3.5435e+001 51834 87486,87460,87633
 6.0000e-001 88187 -2.7661e+002 -8.6797e+001 -3.3118e+000 51266 87864,87942,87890
 6.0000e-001 88164 -2.5053e+002 -1.8230e+000  4.3647e+000 51266 87864,88020,87942
 6.0000e-001 88141 -4.3955e+002 -1.1972e+002 -7.2576e+001 51266 87942,88020,87968
 6.0000e-001 88118 -3.5323e+002 -1.2296e+002  6.0368e+001 51266 87864,88046,88020
 6.0000e-001 88095 -2.4808e+002  2.4735e+001  4.9740e+000 51266 87968,88020,87994
 6.0000e-001 88072 -2.4413e+002 -1.0255e+002 -3.1035e+001 51266 87890,87942,87916
 6.0000e-001 88644 -3.3482e+002 -1.1958e+002 -1.1195e+001 50754 88370,88500,88396
 6.0000e-001 88621 -3.2195e+002 -1.8601e+001 -3.6952e+001 50754 88370,88526,88500
 6.0000e-001 88598 -1.9681e+002 -8.0350e+000  6.7893e+001 50754 88396,88500,88422
 6.0000e-001 88575 -2.1794e+002 -5.2103e+001  6.1692e+001 50754 88422,88500,88474
 6.0000e-001 88552 -3.1060e+002 -1.2470e+002 -7.4004e+000 50754 88422,88474,88448
 6.0000e-001 88914 -2.4282e+002 -1.8187e+001 -4.3316e+000 50442 88715,88793,88741
 6.0000e-001 88891 -1.8728e+002 -6.7514e+000 -1.8445e+001 50442 88715,88819,88793
 6.0000e-001 88868 -3.2600e+002 -7.4385e+001 -4.8342e+001 50442 88689,88819,88715
 6.0000e-001 88845 -1.6342e+002  1.7349e+001  2.7750e+000 50442 88741,88793,88767
 6.0000e-001 89294 -2.6503e+002 -4.8497e+001  1.6777e+000 49938 89317,89046,89020
 6.0000e-001 89271 -2.4484e+002 -5.6511e+001 -8.9929e+000 49938 89317,89020,89150
 6.0000e-001 89248 -1.7753e+002 -5.2264e+001  6.6112e+000 49938 89072,89150,89098
 6.0000e-001 89225 -2.4406e+002 -2.8534e+001 -4.2999e+001 49938 89020,89176,89150
 6.0000e-001 89202 -1.4533e+002 -5.5762e+001 -1.9839e+001 49938 89098,89150,89124
 6.0000e-001 89343 -2.0460e+002 -1.2752e+001  3.0859e+001 49938 89072,89046,89317
 6.0000e-001 89366 -2.3357e+002 -5.5084e+001 -9.5117e+000 49938 89072,89317,89150
 6.0000e-001 89823 -1.9922e+002 -6.8828e+001 -3.2618e+001 49384 89601,89705,89679
 6.0000e-001 89800 -1.4875e+002 -4.3747e+001  2.2668e+001 49384 89549,89705,89601
 6.0000e-001 89777 -9.4287e+001 -2.4182e+001  4.5726e+000 49384 89549,89601,89575
 6.0000e-001 89754 -1.3865e+002 -5.4861e+001 -2.4514e+001 49384 89601,89679,89627
 6.0000e-001 89731 -9.0840e+001  2.7501e+001 -5.5479e+001 49384 89627,89679,89653
 6.0000e-001 90329 -8.5912e+001 -2.0780e+001 -2.6278e+001 48894 90058,90110,90084
 6.0000e-001 90306 -1.1058e+002 -2.7650e+001  3.7501e+001 48894 90058,90162,90110
 6.0000e-001 90283 -1.7765e+002 -9.9000e+000  1.7131e+001 48894 90032,90162,90058
 6.0000e-001 90260 -1.1511e+002  3.1902e+001 -3.5063e+001 48894 90006,90162,90032
 6.0000e-001 90237 -2.3778e+001 -8.4830e+000 -9.9589e+000 48894 90110,90162,90136
 6.0000e-001 90214 -1.4370e+002  1.8736e+001 -3.1750e+001 48894 90006,90188,90162
 6.0000e-001 90884 -1.4320e+002 -2.8790e+001  1.9266e+001 48490 90564,90642,90616
 6.0000e-001 90861 -1.3095e+002 -5.6654e-002  4.1351e+000 48490 90564,90694,90642
 6.0000e-001 90838 -1.7071e+002 -9.4681e+000  1.0900e+001 48490 90538,90694,90564
 6.0000e-001 90815 -2.4919e+002 -3.6993e+001  1.9869e+001 48490 90538,90720,90694
 6.0000e-001 90792 -1.3181e+002 -1.5246e+001  6.5131e+000 48490 90564,90616,90590
 6.0000e-001 90769 -1.2469e+002 -9.9428e-001 -1.4780e+001 48490 90642,90694,90668
 6.0000e-001 90746 -2.5138e+002 -4.2759e+001  1.1806e+001 48490 90512,90720,90538
 6.0000e-001 91034 -1.3671e+002 -5.3895e+000 -4.7669e+001 48086 91057,90959,90933
 6.0000e-001 91011 -1.5382e+002 -1.9569e+001 -6.3768e+001 48086 91129,91057,90933
 6.0000e-001 91083 -1.2324e+002 -5.5355e+000 -4.5264e+001 48086 90985,90959,91057
 6.0000e-001 91106 -1.3770e+002  2.3765e+001 -5.2760e+001 48086 90985,91057,90907
 6.0000e-001 91155 -1.5238e+002 -3.6217e-001 -4.3310e+001 48086 90907,91057,91129
 6.0000e-001 91791 -2.9611e+002 -1.0631e+002 -2.1993e+001 47518 92030,91814,91523
 6.0000e-001 91768 -2.5381e+002 -1.0676e+002 -2.7461e+001 47518 91958,91814,91471
 6.0000e-001 91745 -2.2521e+002 -1.9827e+001 -1.6210e+001 47518 91886,91575,91523
 6.0000e-001 91722 -2.5264e+002 -1.3892e+002  9.1986e+000 47518 91958,91471,91419
 6.0000e-001 91699 -3.6479e+002 -2.3296e+001 -6.7702e+001 47518 92030,91523,91497
 6.0000e-001 91676 -2.8595e+002  3.4818e+001 -2.0387e+001 47518 91523,91575,91549
 6.0000e-001 91653 -2.3056e+002 -1.1328e+002 -2.6872e-001 47518 91419,91471,91445
 6.0000e-001 91840 -2.4696e+002 -6.3479e+001 -4.3974e+001 47518 91886,91523,91814
 6.0000e-001 91863 -3.1228e+002 -1.7797e+002 -1.6816e+001 47518 91601,91814,91627
 6.0000e-001 91912 -1.9440e+002  1.1327e+000  4.4512e+001 47518 91601,91575,91886
 6.0000e-001 91935 -2.1816e+002 -9.1477e+001  1.9314e+001 47518 91601,91886,91814
 6.0000e-001 91984 -2.9911e+002 -1.3425e+002 -1.5824e+001 47518 91627,91814,91958
 6.0000e-001 92007 -2.7748e+002 -1.5294e+002  1.4946e+001 47518 91627,91958,91419
 6.0000e-001 92056 -3.3684e+002 -1.8827e+002 -7.1642e+001 47518 91471,91814,92030
 6.0000e-001 92079 -4.0193e+002 -1.3917e+002 -1.2305e+002 47518 91471,92030,91497
 6.0000e-001 92229 -2.5596e+002 -1.2357e+002 -5.0450e+001 47128 92252,92128,92102
 6.0000e-001 92206 -2.9499e+002 -1.7866e+002 -3.0769e+001 47128 92324,92252,92102
 6.0000e-001 92278 -2.8777e+002 -2.1704e+002 -4.9572e+001 47128 92454,92252,92154
 6.0000e-001 92301 -2.8151e+002 -1.2550e+002 -3.0529e+001 47128 92154,92252,92180
 6.0000e-001 92350 -2.1398e+002 -9.2768e+001  2.5252e+000 47128 92180,92252,92324
 6.0000e-001 92480 -2.3858e+002 -1.0618e+002 -1.9670e+001 47128 92128,92252,92454
 6.0000e-001 93340 -2.5321e+002 -5.3508e+000  3.4140e+001 46838 93363,92977,92873
 6.0000e-001 93317 -3.5838e+002 -4.2949e+001  3.3754e+000 46838 93507,93363,92873
 6.0000e-001 93294 -2.8810e+002 -9.4842e+001 -1.3158e+001 46838 93435,93003,92977
 6.0000e-001 93271 -4.0599e+002 -9.2111e+001 -1.9671e+001 46838 93507,92873,92847
 6.0000e-001 93248 -2.8164e+002 -8.3164e+001 -1.8704e+001 46838 93579,93029,93003
 6.0000e-001 93225 -1.9600e+002 -4.4571e+001  4.0439e+000 46838 92873,92951,92925
 6.0000e-001 93202 -1.9618e+002 -5.2490e+001  6.9561e+000 46838 92873,92977,92951
 6.0000e-001 93179 -3.6132e+002 -1.1320e+002  2.7757e+001 46838 93055,93107,93081
 6.0000e-001 93156 -5.4371e+002 -2.2251e+002 -1.9914e+001 46838 92821,93107,92847
 6.0000e-001 93133 -1.8539e+002 -7.1952e+001  2.2626e+001 46838 92873,92925,92899
 6.0000e-001 93389 -3.1636e+002 -8.1083e+001 -5.5965e+000 46838 93435,92977,93363
 6.0000e-001 93412 -2.8064e+002 -3.8733e+001 -4.0972e+000 46838 93055,93363,93107
 6.0000e-001 93461 -2.7947e+002 -8.0480e+001 -1.7365e+001 46838 93579,93003,93435
 6.0000e-001 93484 -2.9209e+002 -4.5242e+001 -1.6492e+001 46838 93055,93435,93363
 6.0000e-001 93533 -3.1114e+002 -1.2001e+002 -2.1835e+000 46838 93107,93363,93507
 6.0000e-001 93556 -3.1725e+002 -1.3887e+002 -7.3664e+000 46838 93107,93507,92847
 6.0000e-001 93605 -2.8556e+002 -8.2936e+001 -2.3267e+001 46838 93055,93029,93579
 6.0000e-001 93628 -2.8352e+002 -8.0773e+001 -2.2009e+001 46838 93055,93579,93435
 6.0000e-001 93979 -3.1442e+002  7.2412e+001  3.7619e+001 46476 93780,93884,93858
 6.0000e-001 93956 -3.6280e+002 -1.6788e+001  1.8664e+001 46476 93754,93884,93780
 6.0000e-001 93933 -7.1600e+002 -2.5213e+001 -9.2047e+000 46476 93806,93858,93832
 6.0000e-001 93910 -6.9340e+002 -8.4461e+001  4.5605e+001 46476 93780,93858,93806
 6.0000e-001 94515 -2.2614e+002 -7.2387e+001 -4.9821e+000 46072 94345,94397,94371
 6.0000e-001 94492 -1.6276e+002 -4.9169e+001  1.4826e+001 46072 94267,94397,94345
 6.0000e-001 94469 -1.2776e+002 -3.9559e+000 -1.2810e+000 46072 94241,94397,94267
 6.0000e-001 94446 -1.1159e+002 -3.5817e+001 -1.9634e+001 46072 94293,94345,94319
 6.0000e-001 94423 -1.5886e+002 -1.7004e+001  1.6873e+001 46072 94267,94345,94293
 6.0000e-001 95149 -1.9095e+002 -4.8865e+001 -1.1783e+001 45346 94803,94881,94855
 6.0000e-001 95126 -1.8233e+002 -3.4336e+001 -1.8909e+001 45346 94803,94959,94881
 6.0000e-001 95103 -1.4156e+002 -1.1709e+001 -7.5748e+000 45346 95172,94933,94907
 6.0000e-001 95080 -1.6251e+002 -3.2825e+001  1.6110e+000 45346 95172,94907,94881
 6.0000e-001 95057 -1.7094e+002 -6.9014e+001 -3.6879e+001 45346 94803,94985,94959
 6.0000e-001 95034 -2.0297e+002 -2.4678e+001  1.0449e-001 45346 94803,94855,94829
 6.0000e-001 95011 -1.6825e+002 -1.1348e+002 -1.8298e+002 45346 94777,94985,94803
 6.0000e-001 95198 -1.6273e+002  5.3710e-001 -6.4393e+000 45346 94959,94933,95172
 6.0000e-001 95221 -1.7323e+002 -7.5446e+000 -2.3013e+000 45346 94959,95172,94881
 6.0000e-001 95776 -1.5967e+002 -2.4408e+001  7.8386e+001 44720 95799,95560,95534
 6.0000e-001 95753 -1.9221e+002 -2.8546e+001  8.6315e+001 44720 95799,95534,95482
 6.0000e-001 95730 -2.2116e+002 -2.8255e+001  8.1385e+001 44720 95943,95871,95430
 6.0000e-001 95707 -2.2781e+002 -1.5564e+001  8.2912e+001 44720 95943,95430,95404
 6.0000e-001 95684 -3.4344e+002 -8.2091e+001  9.0900e+001 44720 95430,95482,95456
 6.0000e-001 95661 -1.1372e+002 -2.2006e+001  3.2137e+001 44720 95482,95534,95508
 6.0000e-001 95638 -2.0185e+002 -8.3088e+000  8.8343e+001 44720 95404,95612,95586
 6.0000e-001 95825 -1.9104e+002 -1.5161e+001  8.0395e+001 44720 95586,95560,95799
 6.0000e-001 95848 -1.9481e+002 -1.8059e+001  8.4268e+001 44720 95871,95586,95799
 6.0000e-001 95897 -2.1840e+002 -3.5697e+001  6.7780e+001 44720 95482,95430,95871
 6.0000e-001 95920 -2.1531e+002 -2.2039e+001  7.4277e+001 44720 95482,95871,95799
 6.0000e-001 95969 -2.0810e+002 -1.4045e+001  7.5632e+001 44720 95586,95871,95943
 6.0000e-001 95992 -2.2085e+002 -8.3496e+000  7.9401e+001 44720 95586,95943,95404
 6.0000e-001 96449 -2.2064e+002 -4.1932e+001  1.1100e+001 44202 96544,96472,96227
 6.0000e-001 96426 -2.4668e+002 -1.5792e+002  2.4757e+001 44202 96472,96175,96331
 6.0000e-001 96403 -2.8960e+002  1.6467e+001 -2.1626e+000 44202 96544,96227,96201
 6.0000e-001 96380 -7.5571e+001 -2.0121e+001  3.5526e+000 44202 96253,96305,96279
 6.0000e-001 96357 -1.5858e+002 -2.3716e+001  5.1898e+001 44202 96227,96305,96253
 6.0000e-001 96498 -2.4623e+002 -1.1314e+002  1.1373e+001 44202 96305,96227,96472
 6.0000e-001 96521 -2.1976e+002 -9.4994e+001  2.6104e+001 44202 96305,96472,96331
 6.0000e-001 96570 -2.7425e+002 -1.4907e+002 -1.9167e+001 44202 96175,96472,96544
 6.0000e-001 96593 -3.0841e+002 -4.6827e+001 -2.3414e+001 44202 96175,96544,96201
 6.0000e-001 96971 -1.5997e+002 -8.1991e+001  9.2050e-001 43754 96994,96749,96697
 6.0000e-001 96948 -1.7870e+002 -9.9384e+001  9.3981e+000 43754 96994,96697,96853
 6.0000e-001 96925 -1.3479e+002 -7.8336e+001 -1.2917e+001 43754 96697,96749,96723
 6.0000e-001 96902 -1.7262e+002 -4.4232e+001 -2.9068e+001 43754 96775,96853,96827
 6.0000e-001 96879 -1.0831e+002 -3.2627e+001 -1.8068e+001 43754 96775,96827,96801
 6.0000e-001 97020 -1.5966e+002 -4.6661e+001 -2.7667e+001 43754 96775,96749,96994
 6.0000e-001 97043 -1.9699e+002 -7.8077e+001 -1.4035e+001 43754 96775,96994,96853
 6.0000e-001 97291 -1.9279e+002 -3.3052e+001 -2.7477e+001 43364 97314,97144,97118
 6.0000e-001 97268 -1.8044e+002 -5.4737e+001 -3.7142e+001 43364 97314,97118,97092
 6.0000e-001 97245 -1.8336e+002 -5.8773e+001 -2.5723e+001 43364 97386,97196,97170
 6.0000e-001 97222 -2.1654e+002 -1.0460e+002 -4.4623e+001 43364 97066,97196,97092
 6.0000e-001 97340 -2.2201e+002 -6.2778e+001 -1.5201e+001 43364 97170,97144,97314
 6.0000e-001 97363 -1.8531e+002 -5.2696e+001 -3.0425e+001 43364 97386,97170,97314
 6.0000e-001 97412 -1.8644e+002 -6.5526e+001 -2.7720e+001 43364 97092,97196,97386
 6.0000e-001 97435 -1.9114e+002 -6.4305e+001 -3.3129e+001 43364 97092,97386,97314
 6.0000e-001 97788 -1.9073e+002 -1.8856e+001 -1.3185e+001 42960 97563,97667,97589
 6.0000e-001 97765 -2.8328e+002 -1.0301e+002  2.1951e+001 42960 97563,97693,97667
 6.0000e-001 97742 -3.6799e+002  5.3360e+001 -1.5172e+001 42960 97589,97641,97615
 6.0000e-001 97719 -3.7112e+002 -7.0655e+001 -2.1700e+001 42960 97589,97667,97641
 6.0000e-001 98215 -1.1926e+002 -2.8559e+001 -6.0480e+001 42563 97918,98074,98048
 6.0000e-001 98192 -5.7016e+001  1.3121e+001 -4.0623e+001 42563 97892,98074,97918
 6.0000e-001 98169 -1.3012e+002 -9.0305e+000 -6.2318e+001 42563 98238,97944,97918
 6.0000e-001 98146 -1.5234e+002 -6.0386e+001 -4.7391e+001 42563 98238,97918,98048
 6.0000e-001 98123 -1.5398e+002 -3.4118e+001 -3.3123e+001 42563 97944,98022,97996
 6.0000e-001 98100 -1.4608e+002 -2.5280e+000 -1.2936e+001 42563 97944,97996,97970
 6.0000e-001 98264 -1.4786e+002 -4.4111e+001 -3.6796e+001 42563 98022,97944,98238
 6.0000e-001 98287 -1.5348e+002 -6.3210e+001 -2.2645e+001 42563 98022,98238,98048
 6.0000e-001 98616 -1.7984e+002 -9.4545e+001 -6.3496e+000 42251 98443,98521,98469
 6.0000e-001 98593 -1.9885e+002 -9.0661e+001  6.4136e+000 42251 98417,98521,98443
 6.0000e-001 98570 -1.9011e+002 -7.4996e+001 -3.4143e+001 42251 98391,98521,98417
 6.0000e-001 98547 -1.8538e+002 -7.6980e+001 -3.8056e+001 42251 98469,98521,98495
 6.0000e-001 98886 -4.0840e+002 -7.6566e+001 -3.8553e+001 41847 98661,98765,98687
 6.0000e-001 98863 -4.8748e+002 -4.3650e+001 -7.4684e+001 41847 98661,98791,98765
 6.0000e-001 98840 -3.3276e+002 -8.1182e+001 -6.4213e+000 41847 98687,98765,98739
 6.0000e-001 98817 -3.7002e+002 -1.0314e+002  4.6507e+000 41847 98687,98739,98713
 6.0000e-001 99394 -1.8883e+002 -4.0982e+001  3.9473e+001 41236 99417,99149,99123
 6.0000e-001 99371 -2.5947e+002 -5.1893e+001  4.8264e+001 41236 99417,99123,99097
 6.0000e-001 99348 -2.1523e+002 -3.2158e+001  5.1881e+000 41236 99489,99201,99149
 6.0000e-001 99325 -2.0680e+002 -5.9263e+001 -4.5648e+001 41236 99149,99201,99175
 6.0000e-001 99302 -3.6661e+002  7.7940e+000 -1.8779e+001 41236 99097,99253,99227
 6.0000e-001 99279 -4.8507e+002 -1.1425e+002 -8.0910e+001 41236 99071,99253,99097
 6.0000e-001 99443 -2.0270e+002 -3.8225e+001  6.7077e+000 41236 99489,99149,99417
 6.0000e-001 99466 -2.2777e+002 -3.5222e+001  2.2069e+001 41236 99227,99417,99097
 6.0000e-001 99515 -2.2141e+002 -3.7878e+001  8.0036e+000 41236 99227,99201,99489
 6.0000e-001 99538 -2.1640e+002 -4.9724e+001  1.1902e+001 41236 99227,99489,99417
 6.0000e-001 100044 -1.0804e+002 -4.3208e+001  7.3854e+001 40732 99721,99773,99747
 6.0000e-001 100021 -2.1486e+002 -1.9071e+001  2.0871e+001 40732 99721,99799,99773
 6.0000e-001 99998 -1.9835e+002 -1.6157e+001  1.2775e+001 40732 99721,99903,99799
 6.0000e-001 99975 -2.3130e+002  8.5089e+000 -5.0868e+001 40732 100067,99877,99851
 6.0000e-001 99952 -2.2815e+002 -1.0959e+002 -6.6682e+001 40732 100067,99851,99799
 6.0000e-001 99929 -3.0610e+002 -1.2250e+002 -8.7055e+001 40732 99799,99851,99825
 6.0000e-001 100093 -2.4341e+002  1.0216e+002 -8.4931e+000 40732 99903,99877,100067
 6.0000e-001 100116 -2.5023e+002 -3.9485e+001 -1.4631e+001 40732 99903,100067,99799
 6.0000e-001 100622 -2.4072e+002 -1.9909e+001  4.3677e+001 40278 100645,100455,100429
 6.0000e-001 100599 -2.9895e+002 -4.6534e+001  5.6329e+001 40278 100717,100645,100429
 6.0000e-001 100576 -3.5235e+002 -6.9640e+001  2.6974e+001 40278 100717,100429,100377
 6.0000e-001 100553 -2.2878e+002 -7.8276e+001  2.9349e+001 40278 100789,100325,100481
 6.0000e-001 100530 -2.1915e+002 -3.4902e+001  4.4968e+001 40278 100299,100481,100325
 6.0000e-001 100507 -2.3730e+002 -6.7190e+001  2.4032e+001 40278 100377,100429,100403
 6.0000e-001 100671 -2.6898e+002  8.0946e-001  4.7554e+001 40278 100481,100455,100645
 6.0000e-001 100694 -2.5234e+002 -5.2287e+001  4.1574e+000 40278 100789,100481,100645
 6.0000e-001 100743 -3.2183e+002 -4.9193e+001 -4.2497e+001 40278 100351,100645,100717
 6.0000e-001 100766 -4.4767e+002 -9.8853e+001 -6.9086e+001 40278 100351,100717,100377
 6.0000e-001 100815 -2.0504e+002 -6.7467e+001  2.0284e+000 40278 100351,100325,100789
 6.0000e-001 100838 -2.0883e+002 -1.6785e+001 -2.5166e+001 40278 100351,100789,100645
 6.0000e-001 101265 -2.8416e+002 -8.8838e+001 -3.3267e-002 39824 101288,101046,100994
 6.0000e-001 101242 -3.0796e+002 -1.1508e+002 -1.1144e+001 39824 101288,100994,100968
 6.0000e-001 101219 -3.5076e+002 -8.4561e+001  1.8613e+001 39824 100942,101124,100968
 6.0000e-001 101196 -2.4644e+002 -2.1294e+001  1.2482e+001 39824 101046,101124,101072
 6.0000e-001 101173 -2.7558e+002 -1.1123e+002 -4.5959e+001 39824 100994,101046,101020
 6.0000e-001 101150 -1.6169e+002 -2.8539e+001  1.8333e+001 39824 101072,101124,101098
 6.0000e-001 101314 -2.7300e+002 -1.0334e+002  1.1345e+001 39824 101124,101046,101288
 6.0000e-001 101337 -2.8372e+002 -1.1034e+002  4.9058e+000 39824 101124,101288,100968
 6.0000e-001 101585 -9.9137e+001 -4.8097e+001  1.0300e+001 39070 101608,101464,101412
 6.0000e-001 101562 -1.0524e+002 -4.4962e+001  5.2680e+000 39070 101608,101412,101360
 6.0000e-001 101539 -8.1391e+001 -4.2821e+001  1.0194e+001 39070 101412,101464,101438
 6.0000e-001 101516 -1.2183e+002 -6.0269e+001  1.3376e+001 39070 101360,101412,101386
 6.0000e-001 101634 -9.5002e+001 -4.6419e+001  1.0156e+001 39070 101490,101464,101608
 6.0000e-001 101657 -9.8838e+001 -4.2129e+001  4.5279e+000 39070 101490,101608,101360
 6.0000e-001 101856 -2.4596e+002  3.0158e+001 -1.1890e+001 38730 101706,101758,101732
 6.0000e-001 101833 -2.0737e+002  3.7848e+001 -1.6913e+001 38730 101706,101784,101758
 6.0000e-001 101810 -1.7456e+002 -7.2652e+000 -7.9105e+001 38730 101680,101784,101706
 6.0000e-001 102106 -2.3261e+002 -8.1724e+001  3.7812e+000 38326 101881,101959,101907
 6.0000e-001 102083 -2.4502e+002 -6.7446e+001  3.0555e+001 38326 101881,101985,101959
 6.0000e-001 102060 -1.8448e+002 -7.2227e+001  3.8221e+001 38326 101881,102011,101985
 6.0000e-001 102037 -2.9511e+002 -4.4828e+001 -2.5774e+001 38326 101907,101959,101933
 6.0000e-001 102258 -1.0451e+002  1.2757e+000  6.6619e+000 38036 102281,102157,102131
 6.0000e-001 102235 -8.8131e+001  2.0398e+001 -2.2188e+000 38036 102281,102131,102209
 6.0000e-001 102307 -7.8817e+001 -2.1297e+001  7.5345e+000 38036 102183,102157,102281
 6.0000e-001 102330 -6.0931e+001 -4.5588e+000 -2.6537e+000 38036 102183,102281,102209
 6.0000e-001 102663 -1.6067e+002 -4.3783e+001  3.0931e+001 37596 102438,102542,102464
 6.0000e-001 102640 -1.1304e+002 -3.0543e+001  1.7116e+001 37596 102438,102568,102542
 6.0000e-001 102617 -1.6572e+002 -1.8122e+001  6.3244e+001 37596 102490,102542,102516
 6.0000e-001 102594 -1.4541e+002 -2.8750e+001  3.7314e+001 37596 102464,102542,102490
 6.0000e-001 102862 -2.2782e+002 -7.1934e+000 -9.7628e+000 37192 102686,102764,102712
 6.0000e-001 102839 -2.3397e+002  5.9079e+000  7.1594e+000 37192 102686,102790,102764
 6.0000e-001 102816 -2.4804e+002 -6.8415e+001  1.7900e+001 37192 102712,102764,102738
 6.0000e-001 103110 -2.4289e+002 -6.5575e+001 -2.3179e+001 36609 102911,102963,102937
 6.0000e-001 103087 -2.0627e+002 -6.1717e+001 -1.7904e+001 36609 102911,102989,102963
 6.0000e-001 103064 -2.1566e+002 -7.5163e+001 -2.4371e+001 36609 102885,102989,102911
 6.0000e-001 103041 -2.4472e+002 -3.2401e+001 -5.2298e+001 36609 102885,103015,102989
 6.0000e-001 103718 -1.0520e+002 -9.8344e+000  2.1421e+001 36131 103323,103375,103349
 6.0000e-001 103695 -2.3386e+002 -1.0343e+001  3.2868e+001 36131 103297,103375,103323
 6.0000e-001 103672 -2.5490e+002 -1.1614e+002 -3.2331e+001 36131 103297,103505,103375
 6.0000e-001 103649 -2.2196e+002 -8.4007e+001 -2.1907e+001 36131 103741,103479,103401
 6.0000e-001 103626 -2.1877e+002 -7.7014e+001 -1.4649e+001 36131 103741,103401,103375
 6.0000e-001 103603 -2.2620e+002 -5.6721e+001 -2.2148e+001 36131 103401,103479,103427
 6.0000e-001 103580 -3.5947e+002 -1.1118e+002 -6.5121e+001 36131 103297,103531,103505
 6.0000e-001 103557 -2.0269e+002 -2.0051e+000 -2.4256e+001 36131 103427,103479,103453
 6.0000e-001 103767 -2.2853e+002 -9.1159e+001 -2.6909e+001 36131 103505,103479,103741
 6.0000e-001 103790 -2.2439e+002 -8.4287e+001 -1.9492e+001 36131 103505,103741,103375
 6.0000e-001 103989 -3.5903e+002 -1.1119e+002  6.6539e+000 35791 103839,103917,103891
 6.0000e-001 103966 -3.3543e+002 -1.2837e+002  7.2670e+000 35791 103813,103917,103839
 6.0000e-001 103943 -3.0710e+002 -3.3295e+001 -3.7575e+001 35791 103839,103891,103865
 6.0000e-001 104188 -9.9680e+001 -3.9126e+001 -3.6182e+001 35444 104038,104090,104064
 6.0000e-001 104165 -1.1970e+002 -2.3673e+000  3.5876e+001 35444 104038,104116,104090
 6.0000e-001 104142 -1.5095e+002  2.3062e+001  3.0259e+001 35444 104012,104116,104038
 6.0000e-001 104487 -2.5209e+002 -4.9475e+001 -3.9818e+001 34990 104265,104317,104291
 6.0000e-001 104464 -2.0736e+002 -5.0279e+001 -1.5307e+001 34990 104510,104317,104265
 6.0000e-001 104441 -1.5146e+002 -1.5650e-001  5.7642e+000 34990 104510,104265,104213
 6.0000e-001 104418 -2.1520e+002  1.3338e+001  7.1030e+000 34990 104582,104343,104317
 6.0000e-001 104395 -1.2763e+002  4.2145e+001 -3.3312e+001 34990 104213,104265,104239
 6.0000e-001 104536 -2.1539e+002  1.4540e+001 -3.9976e+000 34990 104582,104317,104510
 6.0000e-001 104559 -2.0077e+002  6.8113e+000  1.6211e+001 34990 104369,104510,104213
 6.0000e-001 104608 -1.7980e+002  7.5397e+001  3.1722e+001 34990 104369,104343,104582
 6.0000e-001 104631 -2.1189e+002  1.6431e+001  1.5533e+001 34990 104369,104582,104510
 6.0000e-001 104783 -2.1612e+002 -6.0404e+001 -1.4500e+001 34700 104938,104806,104682
 6.0000e-001 104760 -2.1877e+002 -6.9436e+001 -1.3620e+001 34700 104938,104682,104656
 6.0000e-001 104832 -1.4758e+002 -1.3466e+001  7.7391e+000 34700 104708,104682,104806
 6.0000e-001 104964 -2.1827e+002 -5.8166e+001 -6.9627e+000 34700 104734,104806,104938
 6.0000e-001 104987 -2.2021e+002 -6.5260e+001 -5.9810e+000 34700 104734,104938,104656
 6.0000e-001 105137 -2.0173e+002  4.8348e+000 -4.0167e+000 34388 105036,105088,105062
 6.0000e-001 105114 -2.2199e+002 -3.1895e+001 -1.4948e+001 34388 105010,105088,105036
 6.0000e-001 105385 -2.3733e+002 -2.9116e+001  3.3201e+001 33734 105408,105186,105160
 6.0000e-001 105362 -2.3729e+002 -2.9829e+001  3.3019e+001 33734 105408,105160,105264
 6.0000e-001 105339 -2.2111e+002  2.3686e+001  1.2529e+001 33734 105160,105290,105264
 6.0000e-001 105316 -2.3888e+002 -3.6999e+001  4.9565e+001 33734 105186,105238,105212
 6.0000e-001 105434 -2.3713e+002 -2.8389e+001  3.3696e+001 33734 105238,105186,105408
 6.0000e-001 105457 -2.3716e+002 -2.9701e+001  3.3737e+001 33734 105238,105408,105264
 6.0000e-001 105609 -9.6311e+001  4.9110e-001 -1.9846e+001 33394 105482,105534,105508
 6.0000e-001 105586 -5.8353e+001  1.5489e+001 -2.3359e+001 33394 105482,105560,105534
 6.0000e-001 105859 -3.2018e+002 -1.7843e+001 -4.9088e+001 33047 105882,105712,105660
 6.0000e-001 105836 -3.5510e+002 -2.2419e+001 -3.4930e+001 33047 105882,105660,105634
 6.0000e-001 105813 -1.8780e+002 -4.6364e+001  2.5809e+001 33047 105660,105712,105686
 6.0000e-001 105790 -2.1399e+002 -8.8972e+000 -7.9997e+001 33047 105634,105764,105738
 6.0000e-001 105908 -2.3714e+002  2.0062e+000 -7.9073e+001 33047 105738,105712,105882
 6.0000e-001 105931 -3.2345e+002 -3.6440e+001 -6.1751e+001 33047 105738,105882,105634
 6.0000e-001 106181 -2.4389e+002 -9.5100e+001  2.0027e+001 32543 106204,106060,106008
 6.0000e-001 106158 -2.2648e+002 -1.1046e+002  1.5039e+001 32543 105956,106086,106060
 6.0000e-001 106135 -2.3271e+002 -7.9627e+001  6.2920e+000 32543 106204,106008,105982
 6.0000e-001 106112 -2.4521e+002 -1.3181e+002  1.4391e+001 32543 106008,106060,106034
 6.0000e-001 106230 -2.3005e+002 -1.0033e+002  6.0890e+000 32543 105956,106060,106204
 6.0000e-001 106253 -2.1235e+002 -8.2985e+001 -7.5474e+000 32543 105956,106204,105982
 6.0000e-001 106454 -2.2650e+002 -5.2087e+001 -4.5452e+001 31839 106304,106356,106330
 6.0000e-001 106431 -2.4599e+002 -2.5158e+001  1.9719e+001 31839 106278,106356,106304
 6.0000e-001 106408 -1.5718e+002 -4.0922e+001  1.0376e+001 31839 106278,106382,106356
 6.0000e-001 106704 -1.5533e+002 -7.1330e+000  7.0195e+000 31534 106505,106583,106557
 6.0000e-001 106681 -1.8938e+002 -1.6633e+001  1.0182e+001 31534 106479,106583,106505
 6.0000e-001 106658 -1.7607e+002 -3.6190e+001  1.8133e+001 31534 106505,106557,106531
 6.0000e-001 106635 -1.6042e+002 -2.6033e+000  5.6277e+000 31534 106479,106609,106583
 6.0000e-001 107108 -4.0941e+002 -4.8155e+001 -6.1712e+001 31030 106886,106990,106964
 6.0000e-001 107085 -3.2610e+002 -1.1475e+002 -1.5297e+001 31030 106860,106990,106886
 6.0000e-001 107062 -3.1467e+002 -1.0112e+002 -1.4397e+000 31030 106834,106990,106860
 6.0000e-001 107039 -5.5026e+002 -1.8876e+002  3.1406e+001 31030 106912,106964,106938
 6.0000e-001 107016 -6.0324e+002 -1.2848e+002 -6.1015e+001 31030 106886,106964,106912
 6.0000e-001 107307 -2.2080e+002  2.0271e+001 -2.5094e+000 30718 107330,107157,107131
 6.0000e-001 107284 -1.9165e+002  2.8323e+001 -1.1998e+001 30718 107330,107131,107235
 6.0000e-001 107261 -1.3688e+002  2.2786e+001  3.9030e+001 30718 107183,107235,107209
 6.0000e-001 107356 -1.8912e+002 -3.8925e+000  3.8936e+000 30718 107183,107157,107330
 6.0000e-001 107379 -1.5893e+002  6.6175e+000 -8.0979e+000 30718 107183,107330,107235
 6.0000e-001 107759 -8.8407e+001 -1.0907e+001  1.5390e+001 30264 107782,107615,107537
 6.0000e-001 107736 -9.6887e+001 -3.0504e+001  1.3212e+001 30264 107782,107537,107485
 6.0000e-001 107713 -1.7160e+002 -9.0485e+000  2.2787e+001 30264 107485,107537,107511
 6.0000e-001 107690 -4.5606e+001  2.5142e+001  3.1018e+001 30264 107537,107615,107589
 6.0000e-001 107667 -3.4048e+001 -1.8765e+000  1.4155e+001 30264 107537,107589,107563
 6.0000e-001 107808 -8.1984e+001 -1.4729e+001  3.1016e+001 30264 107641,107615,107782
 6.0000e-001 107831 -9.2661e+001 -3.7343e+001  2.7836e+001 30264 107641,107782,107485
 6.0000e-001 108030 -2.3619e+002 -5.4183e+001  2.5612e+001 29874 108053,107854,107932
 6.0000e-001 108007 -1.8438e+002 -3.8362e+001  2.2077e+001 29874 107854,107958,107932
 6.0000e-001 107984 -2.6307e+002 -3.6790e+001  4.8193e+001 29874 108053,107932,107906
 6.0000e-001 108079 -2.2717e+002 -3.0831e+001  2.2797e+001 29874 107880,107854,108053
 6.0000e-001 108102 -2.4574e+002 -2.1308e+000  3.9122e+001 29874 107880,108053,107906
 6.0000e-001 108433 -1.0207e+002 -3.7006e+001 -1.6883e+001 29484 108234,108338,108312
 6.0000e-001 108410 -1.9814e+002 -4.1673e+001  3.7100e+001 29484 108208,108338,108234
 6.0000e-001 108387 -1.9363e+002 -4.4599e+001 -2.8009e+001 29484 108234,108312,108260
 6.0000e-001 108364 -1.4328e+002 -5.1219e+001 -2.0905e+001 29484 108260,108312,108286
 6.0000e-001 108762 -1.7552e+002 -7.4666e+001  3.6669e+000 29080 108563,108641,108589
 6.0000e-001 108739 -1.5618e+002 -7.9130e+001  3.0255e+001 29080 108537,108641,108563
 6.0000e-001 108716 -2.3036e+002 -3.2962e+001  4.8144e+001 29080 108589,108641,108615
 6.0000e-001 108693 -1.1033e+002 -7.1613e+001 -1.3486e+001 29080 108537,108667,108641
 6.0000e-001 109189 -2.3868e+002 -5.9139e+001  8.9906e+000 28476 108892,108996,108970
 6.0000e-001 109166 -2.9909e+002 -5.9717e+001  1.2654e+001 28476 108892,109022,108996
 6.0000e-001 109143 -2.5882e+002 -8.8012e+001  1.7806e+001 28476 108892,108970,108944
 6.0000e-001 109120 -3.5693e+002 -8.0415e+001  7.3749e+000 28476 108892,109048,109022
 6.0000e-001 109097 -2.6389e+002 -1.0164e+002  1.8065e+001 28476 108892,108944,108918
 6.0000e-001 109074 -4.4721e+002 -4.2222e+001 -5.6604e+001 28476 108866,109048,108892
 6.0000e-001 109518 -2.1020e+002 -5.7182e+001  2.4758e+001 28022 109541,109371,109345
 6.0000e-001 109495 -2.2996e+002 -4.0366e+001 -1.5772e+000 28022 109541,109345,109319
 6.0000e-001 109472 -2.0654e+002 -5.8012e+001 -1.7437e+001 28022 109293,109397,109319
 6.0000e-001 109449 -2.1410e+002 -7.4651e+001  9.9147e-001 28022 109293,109423,109397
 6.0000e-001 109567 -1.3024e+002 -2.6303e+001  3.5225e+001 28022 109397,109371,109541
 6.0000e-001 109590 -2.0493e+002 -4.4889e+001  8.0602e+000 28022 109397,109541,109319
 6.0000e-001 109968 -2.1984e+002 -1.2516e+002 -2.4711e+001 27568 109798,109850,109824
 6.0000e-001 109945 -1.8788e+002 -5.2508e+001 -1.6520e+001 27568 109694,109850,109798
 6.0000e-001 109922 -1.9086e+002 -1.1563e+002  1.1368e+000 27568 109694,109798,109746
 6.0000e-001 109899 -1.8136e+002 -9.7362e+001  9.2633e+001 27568 109746,109798,109772
 6.0000e-001 109876 -1.2936e+002  4.4636e+000  2.6269e+001 27568 109694,109746,109720
 6.0000e-001 110167 -2.1906e+002 -4.5155e+001 -1.2561e+001 27007 110017,110095,110069
 6.0000e-001 110144 -2.0040e+002 -4.6383e+001  1.3209e+000 27007 109991,110095,110017
 6.0000e-001 110121 -2.0714e+002 -7.9450e+000  3.0316e+001 27007 110017,110069,110043
 6.0000e-001 110415 -1.5020e+002 -7.0110e+001  9.7126e+000 26567 110438,110242,110190
 6.0000e-001 110392 -1.8757e+002 -8.4855e+000 -1.1936e+001 26567 110438,110190,110320
 6.0000e-001 110369 -1.9279e+002 -7.0420e+001  4.6217e+000 26567 110242,110294,110268
 6.0000e-001 110346 -1.3487e+002 -3.4325e+001  8.9073e+000 26567 110190,110242,110216
 6.0000e-001 110464 -1.6992e+002 -8.0909e+001 -2.6331e+000 26567 110294,110242,110438
 6.0000e-001 110487 -2.2264e+002 -6.4828e+001 -3.5660e+001 26567 110294,110438,110320
 6.0000e-001 110639 -2.9069e+002  3.0124e+001 -4.0829e+001 26170 110538,110590,110564
 6.0000e-001 110616 -2.2113e+002 -2.6847e+001  4.3634e+000 26170 110512,110590,110538
 6.0000e-001 111149 -1.4757e+002  2.6453e+000  4.1785e+001 25716 111172,110878,110852
 6.0000e-001 111126 -1.2295e+002  2.3131e+001  3.2780e+001 25716 111172,110852,111008
 6.0000e-001 111103 -2.2888e+002 -2.1670e+000  1.0117e+002 25716 110878,110930,110904
 6.0000e-001 111080 -9.4420e+001  3.5692e+001  3.5159e+001 25716 110826,111008,110852
 6.0000e-001 111057 -8.7347e+001 -2.4172e+000  2.0177e+001 25716 110930,111008,110956
 6.0000e-001 111034 -3.3118e+001  2.0333e+001  1.4258e+001 25716 110956,111008,110982
 6.0000e-001 111198 -1.2178e+002 -2.4267e+001  5.0191e+001 25716 110930,110878,111172
 6.0000e-001 111221 -9.2152e+001 -1.6723e+000  3.9892e+001 25716 110930,111172,111008
 6.0000e-001 111420 -2.0018e+002  1.4241e+001  1.4680e+000 25304 111443,111270,111244
 6.0000e-001 111397 -2.1636e+002  5.3019e+001  2.5571e+000 25304 111443,111244,111348
 6.0000e-001 111374 -1.9824e+002 -1.5635e+001 -2.7024e+001 25304 111270,111322,111296
 6.0000e-001 111469 -2.0968e+002 -7.3057e+000 -3.0009e+000 25304 111322,111270,111443
 6.0000e-001 111492 -2.3425e+002  2.1954e+001 -5.7478e+000 25304 111322,111443,111348
 6.0000e-001 111691 -2.0880e+002 -7.7032e+001 -1.7188e+001 24736 111567,111619,111593
 6.0000e-001 111668 -2.0687e+002 -5.5468e+001 -2.4715e+001 24736 111541,111619,111567
 6.0000e-001 111645 -2.0560e+002 -2.8527e+001 -9.0298e+000 24736 111515,111619,111541
 6.0000e-001 112024 -5.6215e+001 -6.0773e+000  1.9803e+001 24146 111825,111877,111851
 6.0000e-001 112001 -3.4358e+001  4.4519e+001  2.4947e+001 24146 111825,111903,111877
 6.0000e-001 111978 -5.8535e+001 -3.3624e+001  3.5068e+001 24146 111825,111929,111903
 6.0000e-001 111955 -6.5170e+001 -1.6510e+001  4.7459e+001 24146 111799,111929,111825
 6.0000e-001 112370 -2.2218e+002 -1.0002e+002  3.7757e+001 23856 112393,112151,112125
 6.0000e-001 112347 -2.0207e+002 -5.9573e+001  4.4434e+001 23856 112465,112393,112125
 6.0000e-001 112324 -1.9867e+002 -4.2573e+001  4.9120e+001 23856 112465,112125,112073
 6.0000e-001 112301 -2.4088e+002 -7.0988e+001  6.4082e+001 23856 112073,112125,112099
 6.0000e-001 112278 -2.1826e+002 -8.9614e+001  4.9486e-001 23856 112047,112229,112073
 6.0000e-001 112255 -2.0105e+002 -9.0076e+001 -1.2024e+001 23856 112151,112203,112177
 6.0000e-001 112419 -2.2184e+002 -8.1226e+001  1.5427e+001 23856 112203,112151,112393
 6.0000e-001 112442 -2.2090e+002 -9.5887e+001  1.1437e+001 23856 112203,112393,112229
 6.0000e-001 112491 -2.1213e+002 -7.7168e+001  6.3737e+000 23856 112229,112393,112465
 6.0000e-001 112514 -1.9640e+002 -3.4451e+001  1.0623e+001 23856 112229,112465,112073
 6.0000e-001 112784 -3.7367e+002  1.3074e+002 -6.0752e+001 23494 112611,112663,112637
 6.0000e-001 112761 -3.0685e+002 -5.7544e+001 -5.0979e+001 23494 112585,112663,112611
 6.0000e-001 112738 -3.4201e+002 -7.1404e+001  1.7463e+001 23494 112559,112663,112585
 6.0000e-001 112715 -3.0764e+002  5.6976e+001  3.7292e+001 23494 112559,112689,112663
 6.0000e-001 113117 -2.2439e+002 -1.6526e+001 -5.8155e+001 22974 112944,113022,112996
 6.0000e-001 113094 -1.6877e+002 -4.6241e+001 -4.7999e+001 22974 112918,113022,112944
 6.0000e-001 113071 -2.4496e+002 -9.6623e+001 -8.9305e+001 22974 112944,112996,112970
 6.0000e-001 113048 -1.4827e+002 -8.8069e+000 -3.7931e+001 22974 112892,113022,112918
 6.0000e-001 113414 -2.6468e+002 -7.6216e+001 -6.7695e+000 22370 113192,113296,113218
 6.0000e-001 113391 -2.8367e+002 -1.2819e+002 -2.0967e+001 22370 113140,113296,113192
 6.0000e-001 113368 -2.6927e+002 -8.4515e+001  4.6048e+000 22370 113218,113296,113270
 6.0000e-001 113345 -2.3957e+002 -9.0666e+001  3.6366e+001 22370 113218,113270,113244
 6.0000e-001 113322 -2.3167e+002 -1.1737e+001 -3.0834e+001 22370 113140,113192,113166
 6.0000e-001 113662 -2.0626e+002  2.0116e-001  2.1066e+001 21916 113685,113515,113489
 6.0000e-001 113639 -2.6816e+002 -6.6700e+001 -4.5740e+000 21916 113685,113489,113437
 6.0000e-001 113616 -1.9722e+002 -6.7505e+001 -1.3061e+001 21916 113757,113567,113541
 6.0000e-001 113593 -2.5760e+002 -3.6700e+001 -1.9099e+001 21916 113437,113489,113463
 6.0000e-001 113711 -2.5032e+002 -8.5533e+001  2.8637e+000 21916 113541,113515,113685
 6.0000e-001 113734 -2.2979e+002 -7.9845e+001 -8.8068e+000 21916 113757,113541,113685
 6.0000e-001 113783 -2.4056e+002 -6.9888e+001 -1.4609e+001 21916 113437,113567,113757
 6.0000e-001 113806 -2.4776e+002 -6.4858e+001 -1.6689e+001 21916 113437,113757,113685
 6.0000e-001 114056 -1.5698e+002 -1.5201e+001 -4.4140e+001 21412 113857,113909,113883
 6.0000e-001 114033 -1.7492e+002 -2.5883e+001 -3.0800e+001 21412 114079,113909,113857
 6.0000e-001 114010 -2.1084e+002 -5.4331e+001 -9.1703e+000 21412 114079,113857,113961
 6.0000e-001 113987 -2.0724e+002 -5.8561e+001 -1.1046e+001 21412 113831,113961,113857
 6.0000e-001 114105 -2.0591e+002  1.4463e+001 -5.0156e+001 21412 113935,113909,114079
 6.0000e-001 114128 -2.3209e+002 -1.7387e+001 -3.2157e+001 21412 113935,114079,113961
 6.0000e-001 114378 -1.8337e+002 -5.6283e+001  3.5146e+000 21022 114401,114257,114205
 6.0000e-001 114355 -2.0374e+002 -6.3568e+001 -2.5425e+001 21022 114401,114205,114179
 6.0000e-001 114332 -1.6729e+002 -4.2032e+001 -6.7116e-001 21022 114153,114283,114179
 6.0000e-001 114309 -2.0802e+002 -5.1831e+001  4.9158e+000 21022 114205,114257,114231
 6.0000e-001 114427 -1.4284e+002 -4.7863e+001  1.9323e+001 21022 114283,114257,114401
 6.0000e-001 114450 -1.7277e+002 -5.8154e+001 -8.6781e+000 21022 114283,114401,114179
 6.0000e-001 114651 -1.5324e+001  4.3596e+001 -1.7707e+001 20618 114501,114553,114527
 6.0000e-001 114628 -3.5416e+000  2.8558e+001  1.3203e+001 20618 114501,114579,114553
 6.0000e-001 114605 -9.1527e+001  4.9774e+001  9.8185e+000 20618 114475,114579,114501
 6.0000e-001 114901 -2.6570e+002  1.9760e+000 -1.6656e+001 20114 114676,114780,114702
 6.0000e-001 114878 -2.1428e+002  3.5011e+001 -3.4574e+001 20114 114676,114806,114780
 6.0000e-001 114855 -3.1958e+002  2.5134e+001 -1.0586e+001 20114 114702,114780,114754
 6.0000e-001 114832 -6.4499e+002 -6.9928e+001 -2.1447e+001 20114 114702,114754,114728
 6.0000e-001 115053 -2.4739e+002 -1.7599e+000  1.5884e+001 19460 115147,115076,114926
 6.0000e-001 115030 -2.4813e+002 -1.5876e+001  2.0603e+001 19460 115147,114926,115004
 6.0000e-001 115102 -2.3273e+002 -2.5381e+000  2.7787e+000 19460 114952,114926,115076
 6.0000e-001 115173 -2.5734e+002  3.4471e+001  1.0790e+001 19460 114978,115076,115147
 6.0000e-001 115196 -2.6795e+002  1.1456e+001  1.9303e+001 19460 114978,115147,115004
 6.0000e-001 115446 -2.5759e+002 -4.2432e+001  2.9104e+001 19006 115273,115351,115299
 6.0000e-001 115423 -2.1465e+002 -8.0424e+001  1.1511e+001 19006 115247,115351,115273
 6.0000e-001 115400 -2.1832e+002 -8.4662e+001 -9.4122e+000 19006 115221,115351,115247
 6.0000e-001 115377 -1.5505e+002 -2.2280e+001 -5.7681e+001 19006 115299,115351,115325
 6.0000e-001 115767 -1.4817e+002  1.1038e+001  2.6599e+001 18716 115571,115649,115623
 6.0000e-001 115744 -1.8459e+002 -5.6874e+001  1.2795e+001 18716 115493,115649,115571
 6.0000e-001 115721 -1.8220e+002 -8.5222e-001  1.5570e+001 18716 115493,115571,115545
 6.0000e-001 115698 -1.9795e+002 -2.4190e+001  5.5871e-001 18716 115493,115545,115519
 6.0000e-001 115675 -2.2275e+001  4.8089e+001 -6.8901e+000 18716 115571,115623,115597
 6.0000e-001 116039 -2.5443e+002 -6.8183e+001  1.1613e+001 18312 115814,115892,115840
 6.0000e-001 116016 -2.5680e+002 -7.5251e+001  1.4490e+001 18312 115814,115944,115892
 6.0000e-001 115993 -2.6457e+002 -1.6224e+001  2.0374e+001 18312 115892,115944,115918
 6.0000e-001 115970 -1.1858e+002 -7.9794e+000 -1.1515e+000 18312 115840,115892,115866
 6.0000e-001 116191 -2.0189e+002 -5.5776e+001 -2.1362e+000 18000 116090,116142,116116
 6.0000e-001 116168 -1.9366e+002 -3.9047e+001  8.1348e-001 18000 116064,116142,116090
 6.0000e-001 116343 -2.2069e+002  1.2336e+001 -3.3359e-001 17396 116242,116294,116268
 6.0000e-001 116320 -2.5317e+002  7.1790e+000 -2.2093e+000 17396 116216,116294,116242
 6.0000e-001 116566 -2.9080e+002 -1.2096e+002  1.9517e+001 16942 116390,116468,116442
 6.0000e-001 116543 -4.5655e+002 -1.4877e+002  4.8176e+001 16942 116390,116494,116468
 6.0000e-001 116520 -3.0811e+002 -1.6148e+002  9.1004e+000 16942 116390,116442,116416
 6.0000e-001 116767 -1.5104e+002  5.8450e+000  3.1030e+000 16438 116790,116643,116617
 6.0000e-001 116744 -1.6738e+002 -2.4073e+001 -6.1797e+000 16438 116790,116617,116591
 6.0000e-001 116721 -1.1736e+002 -2.3513e+001 -1.5905e+001 16438 116643,116695,116669
 6.0000e-001 116816 -1.3964e+002 -1.6067e+001  1.2991e+001 16438 116695,116643,116790
 6.0000e-001 116839 -1.4472e+002 -3.0973e+001  1.1707e+001 16438 116695,116790,116591
 6.0000e-001 117062 -7.4703e+001 -2.5501e+001 -6.3997e+000 16074 116886,116938,116912
 6.0000e-001 117039 -7.0314e+001 -3.6385e+001  1.0644e+001 16074 116886,116990,116938
 6.0000e-001 117016 -5.0694e+001  6.2671e+000  1.8638e+001 16074 116938,116990,116964
 6.0000e-001 117214 -4.0821e+002 -2.0338e+002 -2.7928e+001 15649 117087,117139,117113
 6.0000e-001 117191 -4.5028e+002 -2.3265e+002  1.4466e+000 15649 117087,117165,117139
 6.0000e-001 117317 -1.4872e+001 -1.0890e+002  2.2861e+001 421 117239,117291,117265
 7.0000e-001 70632 -6.7783e+000 -8.7489e+000  1.2992e+001 70072 70482,70534,70508
 7.0000e-001 70609 -1.5429e+001  1.0877e+000  1.8092e+000 70072 70482,70560,70534
 7.0000e-001 70586 -3.7372e+002 -1.4113e+002 -1.7689e+001 70072 70456,70560,70482
 7.0000e-001 70951 -4.0356e+002 -7.8656e+001  0.0000e+000 69874 70703,70755,70729
 7.0000e-001 70928 -4.1439e+002 -8.0492e+001  2.2165e+001 69874 70703,70781,70755
 7.0000e-001 70905 -3.6694e+002 -2.1921e+001  4.2814e+001 69874 70703,70807,70781
 7.0000e-001 70882 -4.2120e+002 -1.4645e+002  3.5464e+001 69874 70703,70833,70807
 7.0000e-001 70859 -2.3704e+002 -5.3185e+001 -1.4085e+001 69874 70677,70833,70703
 7.0000e-001 71199 -2.1765e+002 -6.8571e+001  2.6951e+001 69698 71222,71052,71026
 7.0000e-001 71176 -2.1603e+002 -2.9761e+001  3.1985e+001 69698 71294,71222,71026
 7.0000e-001 71153 -2.1080e+002 -1.0344e+001  2.1177e+001 69698 71294,71026,71000
 7.0000e-001 71130 -2.4560e+002 -4.0003e+001  1.0095e+000 69698 71366,71104,71078
 7.0000e-001 71248 -2.0011e+002 -3.6253e+001  2.0096e+001 69698 71078,71052,71222
 7.0000e-001 71271 -2.2461e+002 -5.0449e+001  1.2781e+001 69698 71366,71078,71222
 7.0000e-001 71320 -1.9849e+002 -1.1298e+001  1.2749e+001 69698 70974,71222,71294
 7.0000e-001 71343 -1.9568e+002 -5.6048e+000  2.2079e+000 69698 70974,71294,71000
 7.0000e-001 71392 -2.2361e+002 -1.1830e+001  1.1536e+001 69698 70974,71104,71366
 7.0000e-001 71415 -2.1089e+002 -2.7302e+001  1.8482e+001 69698 70974,71366,71222
 7.0000e-001 71516 -2.7719e+002 -3.2427e+001  2.2473e+001 69386 71438,71490,71464
 7.0000e-001 71869 -2.0753e+002 -2.1151e+001 -8.1179e+000 69188 71644,71748,71670
 7.0000e-001 71846 -1.4728e+002 -5.5268e+001  2.4761e+001 69188 71644,71774,71748
 7.0000e-001 71823 -1.9312e+002 -8.1779e+001 -3.4043e+001 69188 71670,71748,71722
 7.0000e-001 71800 -1.0255e+002 -4.9411e+000  8.7872e+000 69188 71670,71722,71696
 7.0000e-001 72019 -5.3527e+002 -1.3077e+002  9.2351e+001 68990 71918,71970,71944
 7.0000e-001 71996 -6.6483e+002 -3.9140e+001  5.2352e+001 68990 71892,71970,71918
 7.0000e-001 72316 -3.2800e+002 -7.7450e+001  1.7012e+001 68586 72339,72172,72146
 7.0000e-001 72293 -3.4696e+002 -1.2393e+002  2.1951e+001 68586 72339,72146,72120
 7.0000e-001 72270 -3.4329e+002 -1.2762e+002  6.0630e+001 68586 72411,72068,72198
 7.0000e-001 72247 -3.9797e+002 -1.1474e+002  6.9477e+001 68586 72042,72198,72068
 7.0000e-001 72224 -2.8015e+002 -6.6077e+001  1.7085e+001 68586 72068,72120,72094
 7.0000e-001 72365 -3.4818e+002 -7.0158e+001  4.8027e+001 68586 72198,72172,72339
 7.0000e-001 72388 -3.6568e+002 -1.1076e+002  5.0974e+001 68586 72411,72198,72339
 7.0000e-001 72437 -3.1352e+002 -1.1011e+002  5.1257e+001 68586 72120,72068,72411
 7.0000e-001 72460 -3.3621e+002 -9.0328e+001  4.1112e+001 68586 72120,72411,72339
 7.0000e-001 72864 -2.2012e+002 -8.0522e+001  1.3608e+001 68388 72642,72694,72668
 7.0000e-001 72841 -2.3587e+002 -8.9344e+001  2.6290e+001 68388 72616,72694,72642
 7.0000e-001 72818 -2.7445e+002 -1.1286e+002 -5.8653e+000 68388 72616,72720,72694
 7.0000e-001 72795 -3.1607e+002 -9.0325e+001  1.7395e+001 68388 72590,72720,72616
 7.0000e-001 72772 -4.0161e+002 -2.3815e+001 -9.1528e+001 68388 72590,72746,72720
 7.0000e-001 73321 -2.3325e+002 -1.3102e+002 -1.5436e+001 68048 73073,73203,73177
 7.0000e-001 73298 -2.1428e+002 -1.1905e+002 -9.2151e+000 68048 73047,73203,73073
 7.0000e-001 73275 -3.0947e+002 -9.5272e+001  3.3878e+000 68048 73125,73177,73151
 7.0000e-001 73252 -2.8545e+002 -9.3947e+001 -6.6588e+000 68048 73073,73177,73125
 7.0000e-001 73229 -2.7019e+002 -3.8648e+001 -1.0693e+000 68048 73073,73125,73099
 7.0000e-001 73640 -4.1449e+002 -4.6557e+000 -3.3785e+001 67850 73444,73496,73470
 7.0000e-001 73617 -3.3879e+002 -8.4279e+001 -2.5397e+001 67850 73418,73496,73444
 7.0000e-001 73594 -3.3304e+002 -6.4163e+001 -1.5110e+001 67850 73392,73496,73418
 7.0000e-001 73571 -2.7011e+002 -3.8141e+001  8.3901e+000 67850 73392,73522,73496
 7.0000e-001 73548 -2.2932e+002 -1.2044e+001 -4.3027e+001 67850 73366,73522,73392
 7.0000e-001 73790 -3.5408e+002 -1.5429e+002 -3.1326e+000 67602 73689,73741,73715
 7.0000e-001 73767 -3.2961e+002 -9.7391e+001  1.9315e-001 67602 73663,73741,73689
 7.0000e-001 74040 -3.9978e+002 -1.3868e+002 -6.5135e+000 67290 73841,73945,73919
 7.0000e-001 74017 -3.1843e+002 -1.3527e+002 -3.2966e+001 67290 73815,73945,73841
 7.0000e-001 73994 -3.5844e+002 -1.2843e+002  2.5993e+001 67290 73841,73919,73867
 7.0000e-001 73971 -3.5288e+002 -1.1020e+002  1.6963e+001 67290 73867,73919,73893
 7.0000e-001 74143 -3.9912e+002 -4.6524e+000 -3.7968e+000 67092 74065,74117,74091
 7.0000e-001 74415 -2.9576e+002 -1.0981e+002 -4.6430e+001 66894 74190,74294,74216
 7.0000e-001 74392 -2.5391e+002 -8.0992e+001  9.2153e-001 66894 74190,74320,74294
 7.0000e-001 74369 -2.7092e+002 -3.4520e+001 -4.7605e+001 66894 74216,74294,74242
 7.0000e-001 74346 -2.8456e+002 -2.6178e+001 -4.1420e+001 66894 74242,74294,74268
 7.0000e-001 75023 -3.4351e+002 -1.3556e+002  3.6997e+001 66532 74654,74836,74810
 7.0000e-001 75000 -2.1716e+002 -6.5042e+001  6.7970e+001 66532 74628,74836,74654
 7.0000e-001 74977 -2.0836e+002 -7.5093e+001 -1.9668e+001 66532 74706,74784,74732
 7.0000e-001 74954 -2.8445e+002 -1.1288e+002 -6.9438e+001 66532 74680,74784,74706
 7.0000e-001 74931 -4.2803e+002 -8.6153e+001 -5.8442e+001 66532 74680,74810,74784
 7.0000e-001 74908 -2.8553e+002 -7.9167e+001  6.2400e+001 66532 74654,74810,74680
 7.0000e-001 74885 -3.2229e+002 -1.1629e+002  4.7705e+001 66532 74602,74836,74628
 7.0000e-001 74862 -2.6446e+002 -8.2940e+001  8.3942e+000 66532 74732,74784,74758
 7.0000e-001 75222 -3.4441e+002 -3.9170e+001  3.1604e+001 66242 75072,75150,75124
 7.0000e-001 75199 -3.3151e+002 -7.9706e+001  3.0775e+001 66242 75046,75150,75072
 7.0000e-001 75176 -3.7752e+002 -8.6514e+001  1.6454e+001 66242 75072,75124,75098
 7.0000e-001 75470 -4.6067e+002  1.3925e+001  1.4197e+001 65838 75297,75375,75349
 7.0000e-001 75447 -4.5696e+002 -2.9241e+001  1.6084e+001 65838 75271,75375,75297
 7.0000e-001 75424 -3.2814e+002  1.3163e+002  8.7745e+001 65838 75297,75349,75323
 7.0000e-001 75401 -4.5943e+002 -1.9994e+001  4.3247e+001 65838 75245,75375,75271
 7.0000e-001 75671 -8.7197e+001  6.6400e-002 -3.2477e+000 65640 75495,75573,75521
 7.0000e-001 75648 -1.5235e+002 -1.9488e+001 -1.4601e+001 65640 75495,75599,75573
 7.0000e-001 75625 -1.5097e+002 -9.6528e+000  1.2110e+000 65640 75521,75573,75547
 7.0000e-001 75872 -2.4242e+002 -8.6674e+001 -1.4386e+001 65300 75895,75748,75722
 7.0000e-001 75849 -2.1769e+002 -5.7261e+001 -2.3794e-001 65300 75895,75722,75696
 7.0000e-001 75826 -2.3378e+002 -6.1435e+000 -1.5323e+001 65300 75967,75774,75748
 7.0000e-001 75921 -2.3991e+002 -3.2680e+001  8.1548e-001 65300 75967,75748,75895
 7.0000e-001 75944 -2.3257e+002 -3.5065e+001  2.5653e+001 65300 75800,75895,75696
 7.0000e-001 75993 -2.5968e+002 -4.5018e+001 -7.8172e-001 65300 75800,75774,75967
 7.0000e-001 76016 -2.5946e+002 -5.7285e+001  1.4557e+001 65300 75800,75967,75895
 7.0000e-001 76371 -2.9211e+002 -5.7591e+001  2.5048e+001 64896 76146,76250,76172
 7.0000e-001 76348 -2.9607e+002 -9.7012e+001  4.2062e+000 64896 76146,76276,76250
 7.0000e-001 76325 -2.1378e+002 -3.8974e+001 -6.6603e+000 64896 76172,76250,76198
 7.0000e-001 76302 -5.0573e+002 -1.6571e+002 -4.3681e+001 64896 76198,76250,76224
 7.0000e-001 76570 -4.8040e+002 -1.0542e+002  6.7579e+001 64442 76446,76498,76472
 7.0000e-001 76547 -4.1278e+002 -3.2295e+001 -2.1479e+000 64442 76420,76498,76446
 7.0000e-001 76524 -4.1949e+002 -6.3665e+001  6.2950e-001 64442 76394,76498,76420
 7.0000e-001 76999 -2.6477e+002 -5.6372e+001 -1.5448e+001 63924 77022,76728,76702
 7.0000e-001 76976 -2.8856e+002 -8.2487e+001  2.8095e+000 63924 77022,76702,76832
 7.0000e-001 76953 -2.6728e+002 -4.3419e+001 -5.4309e+001 63924 76728,76806,76754
 7.0000e-001 76930 -3.8399e+002 -1.2085e+002 -2.0492e-001 63924 76676,76832,76702
 7.0000e-001 76907 -3.8109e+002  3.7617e+001 -5.7800e+001 63924 76754,76806,76780
 7.0000e-001 76884 -4.0649e+002 -4.1501e+001  4.1415e-001 63924 76676,76858,76832
 7.0000e-001 77048 -3.0181e+002 -2.6224e+001 -1.3554e+001 63924 76806,76728,77022
 7.0000e-001 77071 -3.2119e+002 -4.7199e+001  3.9451e+000 63924 76806,77022,76832
 7.0000e-001 77449 -2.0197e+002 -1.5411e+000  1.2919e+001 63320 77472,77253,77201
 7.0000e-001 77426 -1.8729e+002 -3.8396e+001 -2.8690e+001 63320 77472,77201,77175
 7.0000e-001 77403 -2.7816e+002 -6.8646e+001 -1.6211e+001 63320 77175,77305,77279
 7.0000e-001 77380 -2.5105e+002 -7.8023e+001  7.1084e+001 63320 77201,77253,77227
 7.0000e-001 77357 -2.9024e+002 -7.3275e+001 -1.7867e+001 63320 77175,77331,77305
 7.0000e-001 77498 -2.4244e+002 -8.0494e+001  2.8017e+001 63320 77279,77253,77472
 7.0000e-001 77521 -2.0176e+002 -6.8564e+001 -2.4325e+001 63320 77279,77472,77175
 7.0000e-001 77769 -3.4659e+002 -7.1984e+001 -2.0767e-001 62816 77570,77622,77596
 7.0000e-001 77746 -3.0874e+002 -1.1499e+002 -2.1253e+001 62816 77570,77648,77622
 7.0000e-001 77723 -3.3405e+002 -1.0227e+002 -9.1575e+001 62816 77570,77674,77648
 7.0000e-001 77700 -3.4972e+002 -5.7384e+001 -6.3542e+001 62816 77544,77674,77570
 7.0000e-001 78149 -2.6578e+002 -1.4915e+002 -1.3310e+001 62354 77953,78031,78005
 7.0000e-001 78126 -2.8819e+002 -1.2712e+002 -1.7959e+001 62354 77901,78031,77953
 7.0000e-001 78103 -2.4253e+002 -1.0622e+002 -2.6316e+000 62354 77875,78031,77901
 7.0000e-001 78080 -3.5466e+002 -9.3559e+001  4.4316e+001 62354 77901,77953,77927
 7.0000e-001 78057 -4.1744e+002 -1.5297e+002 -3.4938e+001 62354 77953,78005,77979
 7.0000e-001 78606 -1.7848e+002 -1.0328e+002 -7.8299e+001 61950 78384,78436,78410
 7.0000e-001 78583 -1.9358e+002 -6.3563e+001 -1.1721e+001 61950 78358,78436,78384
 7.0000e-001 78560 -2.0395e+002 -1.0364e+002  8.4257e+000 61950 78358,78488,78436
 7.0000e-001 78537 -1.3946e+002 -2.6688e+001 -2.8148e+001 61950 78436,78488,78462
 7.0000e-001 78514 -2.2079e+002 -1.1969e+002  1.1063e+000 61950 78332,78488,78358
 7.0000e-001 78756 -3.5839e+002 -1.0199e+002  3.7334e+001 61339 78779,78655,78629
 7.0000e-001 78733 -3.4804e+002 -8.4863e+001  3.2667e+001 61339 78779,78629,78707
 7.0000e-001 78805 -3.0868e+002  8.4069e+000 -2.2378e+000 61339 78851,78779,78681
 7.0000e-001 78828 -3.7567e+002 -6.2493e+001  3.9028e+001 61339 78681,78779,78707
 7.0000e-001 78877 -3.8146e+002 -1.6601e+002  1.3189e+001 61339 78655,78779,78851
 7.0000e-001 79206 -2.8070e+002 -4.8117e+001 -8.4863e+001 60892 79229,79007,78981
 7.0000e-001 79183 -3.0120e+002 -8.9493e+001 -7.5954e+001 60892 79229,78981,79111
 7.0000e-001 79160 -2.9878e+002 -7.6748e+001 -5.7415e+001 60892 79301,79033,79007
 7.0000e-001 79137 -3.6570e+002 -2.6573e+001  2.7584e+001 60892 79033,79085,79059
 7.0000e-001 79255 -3.0705e+002 -5.7497e+001 -7.2421e+001 60892 79301,79007,79229
 7.0000e-001 79278 -2.6796e+002 -7.0666e+001 -6.8422e+001 60892 79085,79229,79111
 7.0000e-001 79327 -3.3224e+002 -1.3622e+002 -2.8564e+001 60892 79085,79033,79301
 7.0000e-001 79350 -2.9712e+002 -9.2387e+001 -5.5519e+001 60892 79085,79301,79229
 7.0000e-001 79647 -4.4078e+002 -1.6693e+002 -5.4210e+001 60488 79451,79529,79503
 7.0000e-001 79624 -4.4453e+002 -1.5852e+002 -3.6280e+001 60488 79425,79529,79451
 7.0000e-001 79601 -3.4354e+002 -1.0273e+002 -1.1131e+001 60488 79373,79529,79425
 7.0000e-001 79578 -3.3054e+002 -1.2076e+002  4.0105e+000 60488 79373,79425,79399
 7.0000e-001 79555 -4.3740e+002 -1.4024e+001 -2.3815e+001 60488 79451,79503,79477
 7.0000e-001 79870 -4.0367e+002 -1.6984e+002 -1.0062e+001 60026 79720,79798,79772
 7.0000e-001 79847 -5.8516e+002 -2.1138e+002 -2.3514e+001 60026 79694,79798,79720
 7.0000e-001 79824 -5.5494e+002 -2.2715e+002  5.5890e+000 60026 79720,79772,79746
 7.0000e-001 80120 -1.4886e+002 -3.2997e+000  2.7034e+001 59629 79921,80025,79973
 7.0000e-001 80097 -1.2286e+002 -2.4274e+001  1.3056e+001 59629 79895,80025,79921
 7.0000e-001 80074 -1.2869e+002  8.8158e+000 -2.6282e+001 59629 79973,80025,79999
 7.0000e-001 80051 -8.6245e+001  1.4590e+001  1.4451e+001 59629 79921,79973,79947
 7.0000e-001 80321 -2.1453e+002 -3.1453e+001  2.2139e+000 59125 80344,80171,80145
 7.0000e-001 80298 -2.2528e+002 -4.7336e+001  6.8992e+000 59125 80344,80145,80249
 7.0000e-001 80275 -2.3751e+002 -5.9814e+001  2.5493e+001 59125 80197,80249,80223
 7.0000e-001 80370 -2.2829e+002 -2.1916e+001  1.4018e+001 59125 80197,80171,80344
 7.0000e-001 80393 -2.3787e+002 -3.6012e+001  1.8211e+001 59125 80197,80344,80249
 7.0000e-001 80952 -1.7699e+002 -7.4950e+001  1.8024e+001 58557 80975,80632,80606
 7.0000e-001 80929 -2.3927e+002 -8.7915e+001  3.0814e+001 58557 81119,80975,80606
 7.0000e-001 80906 -2.2737e+002 -8.4121e+001 -1.6029e+001 58557 81047,80684,80632
 7.0000e-001 80883 -2.7991e+002 -1.0576e+002  2.7248e+001 58557 81119,80606,80580
 7.0000e-001 80860 -2.3917e+002  2.6262e+001 -1.2419e+001 58557 81191,80736,80710
 7.0000e-001 80837 -2.1323e+002 -3.8074e+000 -3.9769e+001 58557 80736,80788,80762
 7.0000e-001 80814 -2.0215e+002 -8.3107e+001 -2.8086e+001 58557 80632,80684,80658
 7.0000e-001 81001 -2.2534e+002 -1.0258e+002 -4.5500e+000 58557 81047,80632,80975
 7.0000e-001 81024 -2.4359e+002 -3.6973e+001 -4.1061e+000 58557 81191,80710,80975
 7.0000e-001 81073 -2.2541e+002 -3.8484e+001 -3.0719e+001 58557 80710,80684,81047
 7.0000e-001 81096 -2.4061e+002 -6.9206e+001 -1.3777e+001 58557 80710,81047,80975
 7.0000e-001 81145 -2.5177e+002 -1.0221e+002  6.4510e+000 58557 80788,80975,81119
 7.0000e-001 81168 -2.5867e+002 -1.0507e+002  4.6722e+000 58557 80788,81119,80580
 7.0000e-001 81217 -2.4952e+002 -3.1704e+001  1.0795e+001 58557 80788,80736,81191
 7.0000e-001 81240 -2.3965e+002 -6.6088e+001  2.4212e+001 58557 80788,81191,80975
 7.0000e-001 81537 -2.2589e+002  5.9924e+001 -3.2166e+001 57881 81560,81341,81289
 7.0000e-001 81514 -1.8013e+002  8.2193e+001 -1.4120e+002 57881 81560,81289,81263
 7.0000e-001 81491 -2.8160e+002  4.0114e+000 -6.5772e+001 57881 81632,81419,81367
 7.0000e-001 81468 -2.8961e+002 -9.8185e-004 -1.2274e+001 57881 81367,81419,81393
 7.0000e-001 81445 -3.9665e+002  6.3606e+001  1.1330e+001 57881 81289,81341,81315
 7.0000e-001 81586 -2.6666e+002 -6.9785e+001 -1.6842e+001 57881 81367,81341,81560
 7.0000e-001 81609 -2.7932e+002  4.4549e+001 -5.9894e+001 57881 81632,81367,81560
 7.0000e-001 81658 -2.7184e+002 -1.4536e+002 -6.2292e+001 57881 81263,81419,81632
 7.0000e-001 81681 -2.2955e+002 -4.4605e+001 -7.5249e+001 57881 81263,81632,81560
 7.0000e-001 81929 -1.1205e+002 -3.0696e+001  2.7969e+001 57477 81704,81808,81782
 7.0000e-001 81906 -1.0604e+002 -3.0672e+001  2.7872e+001 57477 81704,81834,81808
 7.0000e-001 81883 -1.0934e+002 -9.3377e+000  3.3792e+001 57477 81704,81782,81730
 7.0000e-001 81860 -1.2601e+002 -1.6291e+001  3.7324e+001 57477 81730,81782,81756
 7.0000e-001 82488 -2.6538e+002 -1.1915e+002  1.9566e+000 56966 82583,82511,82194
 7.0000e-001 82465 -2.4350e+002 -8.5266e+001 -1.1879e+001 56966 82511,82116,82324
 7.0000e-001 82442 -2.5519e+002 -1.4092e+002  7.0318e+000 56966 82583,82194,82168
 7.0000e-001 82419 -3.4636e+002 -1.3564e+002  5.0885e+000 56966 82194,82246,82220
 7.0000e-001 82396 -2.5155e+002 -8.2332e+001  3.8931e+001 56966 82194,82298,82246
 7.0000e-001 82373 -2.9278e+002 -9.3144e+001  7.5678e+001 56966 82246,82298,82272
 7.0000e-001 82350 -2.2428e+002 -6.1161e+001  5.9038e+000 56966 82116,82168,82142
 7.0000e-001 82537 -2.7827e+002 -1.0772e+002  2.2383e+001 56966 82298,82194,82511
 7.0000e-001 82560 -2.3384e+002 -1.0856e+002  1.7376e+001 56966 82298,82511,82324
 7.0000e-001 82609 -2.5668e+002 -9.5469e+001  5.7691e+000 56966 82116,82511,82583
 7.0000e-001 82632 -2.4538e+002 -1.1493e+002  9.5402e+000 56966 82116,82583,82168
 7.0000e-001 83236 -3.6350e+002 -1.5991e+002 -6.1424e+001 56304 82893,82945,82919
 7.0000e-001 83213 -3.4826e+002 -1.6475e+002 -4.4568e+001 56304 83259,82945,82893
 7.0000e-001 83190 -3.2167e+002 -1.2043e+002 -2.3136e+001 56304 83259,82893,83049
 7.0000e-001 83167 -2.7057e+002 -1.2900e+002  2.0494e+001 56304 82971,83049,83023
 7.0000e-001 83144 -3.0858e+002 -1.0306e+002 -1.2918e+001 56304 82815,83049,82893
 7.0000e-001 83121 -2.8779e+002 -5.7231e+001 -1.9538e+001 56304 82815,82893,82867
 7.0000e-001 83098 -2.0281e+002 -1.0585e+002 -1.5850e+001 56304 82971,83023,82997
 7.0000e-001 83075 -2.8910e+002 -1.1242e+002 -5.5853e+000 56304 82815,82867,82841
 7.0000e-001 83285 -3.5638e+002 -1.0149e+002 -2.5856e+001 56304 82971,82945,83259
 7.0000e-001 83308 -3.4409e+002 -8.6858e+001 -2.8058e+000 56304 82971,83259,83049
 7.0000e-001 83556 -3.1027e+002 -7.7621e+001 -2.4590e+001 55964 83357,83461,83435
 7.0000e-001 83533 -2.8520e+002  3.1982e-001  1.0035e+001 55964 83331,83461,83357
 7.0000e-001 83510 -1.2753e+002 -4.0140e+001 -4.2658e+000 55964 83357,83435,83383
 7.0000e-001 83487 -2.5042e+002 -8.5416e+001 -2.4042e+001 55964 83383,83435,83409
 7.0000e-001 83706 -3.4737e+002 -1.9323e+002 -6.9328e+000 55503 83579,83631,83605
 7.0000e-001 83683 -4.2701e+002 -1.9044e+002  4.6280e+000 55503 83579,83657,83631
 7.0000e-001 83907 -2.6510e+002 -1.1903e+002 -5.5693e+001 55156 83757,83835,83809
 7.0000e-001 83884 -2.2871e+002 -6.2662e+000 -1.4059e+001 55156 83731,83835,83757
 7.0000e-001 83861 -3.0920e+002 -3.2428e+001 -4.1977e+001 55156 83757,83809,83783
 7.0000e-001 84240 -1.8335e+002 -3.4430e+001  1.4684e+001 54652 84093,84145,84119
 7.0000e-001 84217 -2.8654e+002 -2.6740e+001  6.2002e+001 54652 84041,84145,84093
 7.0000e-001 84194 -3.1612e+002 -6.4763e+001  4.2879e+001 54652 84015,84145,84041
 7.0000e-001 84171 -4.7249e+002 -1.1211e+002  3.7091e+001 54652 84041,84093,84067
 7.0000e-001 84618 -1.5496e+002 -5.9995e+001  1.4300e+001 53926 84396,84500,84474
 7.0000e-001 84595 -1.2363e+002 -6.1440e+001  3.0482e+001 53926 84344,84500,84396
 7.0000e-001 84572 -1.1625e+002 -4.6911e+001  2.6856e+001 53926 84344,84396,84370
 7.0000e-001 84549 -1.2706e+002 -3.4996e+001 -2.2237e+001 53926 84396,84474,84422
 7.0000e-001 84526 -2.2986e+002 -6.8696e+001 -5.3778e+001 53926 84422,84474,84448
 7.0000e-001 85350 -3.9806e+002 -1.4135e+002 -9.7879e+001 53586 85373,84880,85088
 7.0000e-001 85327 -1.9903e+002 -1.3416e+002 -9.8429e+001 53586 84880,85114,85088
 7.0000e-001 85304 -2.0351e+002 -5.0037e+001 -6.8191e+001 53586 85373,85088,85062
 7.0000e-001 85281 -4.1681e+002 -2.1441e+002  8.7242e+001 53586 85010,85062,85036
 7.0000e-001 85258 -3.8495e+002 -7.7392e+001  2.5244e+000 53586 85445,85010,84958
 7.0000e-001 85235 -1.8460e+002 -3.8487e+000 -2.0904e+001 53586 85445,84958,84906
 7.0000e-001 85212 -3.0001e+002 -9.7624e+001 -2.6154e+001 53586 84958,85010,84984
 7.0000e-001 85189 -2.9778e+002 -8.5405e+001 -7.8573e+001 53586 84906,84958,84932
 7.0000e-001 85166 -2.5132e+002 -2.0316e+002 -6.2925e+001 53586 84880,85140,85114
 7.0000e-001 85399 -4.5637e+002 -9.9038e+001  1.1099e+002 53586 84906,84880,85373
 7.0000e-001 85422 -3.0237e+002 -2.1052e+001  8.6519e+001 53586 85517,85373,85062
 7.0000e-001 85471 -3.7868e+002 -7.3537e+001  1.0970e+002 53586 85062,85010,85445
 7.0000e-001 85494 -2.8086e+002 -1.6223e+001  7.9608e+001 53586 85517,85062,85445
 7.0000e-001 85543 -2.6680e+002 -3.2856e+001  9.4512e+001 53586 84906,85373,85517
 7.0000e-001 85566 -2.5429e+002 -3.5697e+001  8.9663e+001 53586 84906,85517,85445
 7.0000e-001 86072 -2.3133e+002 -1.0869e+002 -4.6481e+001 53182 86095,85853,85775
 7.0000e-001 86049 -2.4776e+002 -6.7923e+001 -3.9946e+001 53182 86095,85775,85931
 7.0000e-001 86026 -2.6077e+002 -1.2935e+002 -3.4969e+001 53182 86167,85879,85853
 7.0000e-001 86003 -3.5071e+002 -1.2851e+002 -1.2925e+001 53182 85775,85827,85801
 7.0000e-001 85980 -2.3619e+002 -1.2750e+002 -4.0269e+001 53182 85775,85853,85827
 7.0000e-001 85957 -1.7568e+002 -6.0440e+001  3.1261e+001 53182 85749,85931,85775
 7.0000e-001 86121 -2.4122e+002 -1.1474e+002 -4.9104e+001 53182 86167,85853,86095
 7.0000e-001 86144 -2.5961e+002 -1.0942e+002 -4.9805e+001 53182 85905,86095,85931
 7.0000e-001 86193 -2.5918e+002 -1.3872e+002 -2.0842e+001 53182 85905,85879,86167
 7.0000e-001 86216 -2.4900e+002 -1.4262e+002 -3.3663e+001 53182 85905,86167,86095
 7.0000e-001 86673 -2.6477e+002 -1.8129e+001  4.1140e+001 52778 86477,86529,86503
 7.0000e-001 86650 -2.7254e+002 -1.0044e+002  1.4866e+001 52778 86425,86529,86477
 7.0000e-001 86627 -2.5448e+002 -1.2265e+002  3.8606e+001 52778 86425,86477,86451
 7.0000e-001 86604 -1.9440e+002 -4.3482e+001  4.2702e+001 52778 86399,86529,86425
 7.0000e-001 86581 -1.5102e+002 -1.9118e+001  2.8681e+001 52778 86399,86555,86529
 7.0000e-001 87258 -2.5279e+002 -5.6928e+001  3.8583e+001 52238 87281,86987,86961
 7.0000e-001 87235 -2.6987e+002 -7.5910e+001  2.4943e+001 52238 87281,86961,87117
 7.0000e-001 87212 -2.5882e+002  3.4174e+001  2.4971e+001 52238 86935,87117,86961
 7.0000e-001 87189 -3.2464e+002 -1.5058e+000  1.0764e+001 52238 87065,87117,87091
 7.0000e-001 87166 -2.7738e+002 -1.3662e+002  6.7099e+000 52238 86987,87065,87039
 7.0000e-001 87143 -2.9605e+002 -2.0724e+002  6.4756e+001 52238 86987,87039,87013
 7.0000e-001 87307 -2.6157e+002 -8.2451e+001  2.3363e+001 52238 87065,86987,87281
 7.0000e-001 87330 -2.7135e+002 -8.6335e+001  1.0626e+001 52238 87065,87281,87117
 7.0000e-001 87610 -2.6518e+002 -4.7143e+001  1.9979e+001 51834 87434,87512,87460
 7.0000e-001 87587 -2.5799e+002 -3.0280e+001  5.0822e+001 51834 87434,87538,87512
 7.0000e-001 87564 -3.8523e+002 -1.5307e+002 -3.1117e+001 51834 87633,87460,87512
 7.0000e-001 87659 -4.6736e+002 -1.8831e+002 -3.4894e+001 51834 87486,87460,87633
 7.0000e-001 88187 -3.3060e+002 -1.1626e+002 -1.0135e+001 51266 87864,87942,87890
 7.0000e-001 88164 -2.9952e+002 -1.3289e+001 -1.1444e+000 51266 87864,88020,87942
 7.0000e-001 88141 -5.0893e+002 -1.4900e+002 -9.5732e+001 51266 87942,88020,87968
 7.0000e-001 88118 -3.9867e+002 -1.3881e+002  5.0715e+001 51266 87864,88046,88020
 7.0000e-001 88095 -3.0596e+002 -2.0806e+001 -1.5137e+001 51266 87968,88020,87994
 7.0000e-001 88072 -3.0187e+002 -1.3718e+002 -3.6094e+001 51266 87890,87942,87916
 7.0000e-001 88644 -3.6835e+002 -1.6946e+002 -1.9959e+001 50754 88370,88500,88396
 7.0000e-001 88621 -3.7190e+002 -6.7124e+001 -4.3480e+001 50754 88370,88526,88500
 7.0000e-001 88598 -2.4584e+002 -7.0427e+001  4.9891e+001 50754 88396,88500,88422
 7.0000e-001 88575 -2.5794e+002 -9.3292e+001  4.5196e+001 50754 88422,88500,88474
 7.0000e-001 88552 -3.8658e+002 -1.8083e+002 -2.4209e+001 50754 88422,88474,88448
 7.0000e-001 88914 -2.7745e+002 -2.1697e+001 -5.2722e+000 50442 88715,88793,88741
 7.0000e-001 88891 -2.1644e+002 -9.8070e+000 -2.0642e+001 50442 88715,88819,88793
 7.0000e-001 88868 -3.6818e+002 -8.4299e+001 -5.3584e+001 50442 88689,88819,88715
 7.0000e-001 88845 -1.8617e+002  1.7950e+001  3.8139e-001 50442 88741,88793,88767
 7.0000e-001 89294 -3.2364e+002 -6.1189e+001 -8.9523e+000 49938 89317,89046,89020
 7.0000e-001 89271 -3.0105e+002 -7.1677e+001 -2.1041e+001 49938 89317,89020,89150
 7.0000e-001 89248 -2.1892e+002 -6.9451e+001  3.6781e-001 49938 89072,89150,89098
 7.0000e-001 89225 -2.9737e+002 -4.2084e+001 -5.5520e+001 49938 89020,89176,89150
 7.0000e-001 89202 -1.7337e+002 -4.7167e+001 -3.1169e+001 49938 89098,89150,89124
 7.0000e-001 89343 -2.5187e+002 -2.7402e+000  2.4735e+001 49938 89072,89046,89317
 7.0000e-001 89366 -2.9170e+002 -6.7762e+001 -1.9764e+001 49938 89072,89317,89150
 7.0000e-001 89823 -2.2664e+002 -9.0524e+001 -2.0751e+001 49384 89601,89705,89679
 7.0000e-001 89800 -1.7419e+002 -6.2332e+001  3.5650e+001 49384 89549,89705,89601
 7.0000e-001 89777 -1.2613e+002 -3.8513e+001  1.8917e+001 49384 89549,89601,89575
 7.0000e-001 89754 -1.5114e+002 -7.9186e+001 -1.2931e+001 49384 89601,89679,89627
 7.0000e-001 89731 -9.4295e+001  1.4267e+001 -5.3778e+001 49384 89627,89679,89653
 7.0000e-001 90329 -1.1936e+002 -2.2235e+001 -2.6271e+001 48894 90058,90110,90084
 7.0000e-001 90306 -1.4357e+002 -2.8554e+001  4.1330e+001 48894 90058,90162,90110
 7.0000e-001 90283 -2.0657e+002 -4.0725e+001  1.9737e+001 48894 90032,90162,90058
 7.0000e-001 90260 -1.4018e+002 -2.0112e-001 -2.2783e+001 48894 90006,90162,90032
 7.0000e-001 90237 -4.0292e+001 -1.0137e+001 -1.5280e+001 48894 90110,90162,90136
 7.0000e-001 90214 -1.7282e+002 -1.2190e+001 -2.3573e+001 48894 90006,90188,90162
 7.0000e-001 90884 -1.7831e+002 -3.8689e+001  2.4227e+001 48490 90564,90642,90616
 7.0000e-001 90861 -1.7000e+002 -3.4792e+000  5.0083e+000 48490 90564,90694,90642
 7.0000e-001 90838 -2.1554e+002 -1.2221e+001  1.5235e+001 48490 90538,90694,90564
 7.0000e-001 90815 -3.1798e+002 -5.0578e+001  2.8194e+001 48490 90538,90720,90694
 7.0000e-001 90792 -1.6491e+002 -1.9505e+001  1.2233e+001 48490 90564,90616,90590
 7.0000e-001 90769 -1.5955e+002 -9.2205e-001 -2.1266e+001 48490 90642,90694,90668
 7.0000e-001 90746 -2.8413e+002 -4.9903e+001  7.0737e+000 48490 90512,90720,90538
 7.0000e-001 91034 -1.7138e+002 -5.1389e+000 -4.9387e+001 48086 91057,90959,90933
 7.0000e-001 91011 -1.7929e+002 -2.3418e+001 -5.0790e+001 48086 91129,91057,90933
 7.0000e-001 91083 -1.7671e+002 -1.0911e+001 -4.6230e+001 48086 90985,90959,91057
 7.0000e-001 91106 -1.6692e+002 -1.5525e+001 -4.1509e+001 48086 90985,91057,90907
 7.0000e-001 91155 -1.4664e+002 -7.3711e+000 -4.5685e+001 48086 90907,91057,91129
 7.0000e-001 91791 -3.2021e+002 -1.0657e+002 -2.0727e+001 47518 92030,91814,91523
 7.0000e-001 91768 -2.5498e+002 -8.9259e+001 -2.4543e+001 47518 91958,91814,91471
 7.0000e-001 91745 -2.4563e+002  2.3428e+001 -8.0705e+000 47518 91886,91575,91523
 7.0000e-001 91722 -2.5868e+002 -1.2725e+002  6.5117e+000 47518 91958,91471,91419
 7.0000e-001 91699 -3.9122e+002 -3.1039e+001 -6.3144e+001 47518 92030,91523,91497
 7.0000e-001 91676 -3.4355e+002  5.5616e+001 -2.4563e+001 47518 91523,91575,91549
 7.0000e-001 91653 -2.4255e+002 -9.7630e+001 -9.8392e-001 47518 91419,91471,91445
 7.0000e-001 91840 -2.7323e+002 -3.2500e+001 -4.1067e+001 47518 91886,91523,91814
 7.0000e-001 91863 -3.2139e+002 -1.6405e+002  4.9635e+000 47518 91601,91814,91627
 7.0000e-001 91912 -2.0844e+002  4.9375e+001  6.9297e+001 47518 91601,91575,91886
 7.0000e-001 91935 -2.4037e+002 -6.9629e+001  4.0009e+001 47518 91601,91886,91814
 7.0000e-001 91984 -2.9220e+002 -1.2167e+002 -9.7376e+000 47518 91627,91814,91958
 7.0000e-001 92007 -2.7583e+002 -1.4294e+002  1.6632e+001 47518 91627,91958,91419
 7.0000e-001 92056 -3.5857e+002 -1.8283e+002 -7.3512e+001 47518 91471,91814,92030
 7.0000e-001 92079 -4.2347e+002 -1.3820e+002 -1.2194e+002 47518 91471,92030,91497
 7.0000e-001 92229 -2.9642e+002 -1.5322e+002 -5.0159e+001 47128 92252,92128,92102
 7.0000e-001 92206 -3.3092e+002 -2.1201e+002 -3.5636e+001 47128 92324,92252,92102
 7.0000e-001 92278 -3.2852e+002 -2.4570e+002 -5.5735e+001 47128 92454,92252,92154
 7.0000e-001 92301 -3.1342e+002 -1.4342e+002 -4.1732e+001 47128 92154,92252,92180
 7.0000e-001 92350 -2.4990e+002 -1.1111e+002  1.8798e-001 47128 92180,92252,92324
 7.0000e-001 92480 -2.6551e+002 -1.3096e+002 -2.1984e+001 47128 92128,92252,92454
 7.0000e-001 93340 -2.9007e+002 -6.7673e+000  3.9931e+001 46838 93363,92977,92873
 7.0000e-001 93317 -4.0573e+002 -4.8717e+001  8.9232e+000 46838 93507,93363,92873
 7.0000e-001 93294 -3.2277e+002 -9.6611e+001 -1.3683e+001 46838 93435,93003,92977
 7.0000e-001 93271 -4.5506e+002 -1.0102e+002 -1.5697e+001 46838 93507,92873,92847
 7.0000e-001 93248 -3.1536e+002 -8.9641e+001 -2.2482e+001 46838 93579,93029,93003
 7.0000e-001 93225 -2.3120e+002 -4.9022e+001  2.9072e+000 46838 92873,92951,92925
 7.0000e-001 93202 -2.2647e+002 -5.2435e+001  9.7268e+000 46838 92873,92977,92951
 7.0000e-001 93179 -4.0074e+002 -1.1933e+002  2.2852e+001 46838 93055,93107,93081
 7.0000e-001 93156 -6.2558e+002 -2.5090e+002 -1.8491e+001 46838 92821,93107,92847
 7.0000e-001 93133 -2.2101e+002 -8.1813e+001  2.2790e+001 46838 92873,92925,92899
 7.0000e-001 93389 -3.6032e+002 -8.4582e+001 -6.6678e+000 46838 93435,92977,93363
 7.0000e-001 93412 -3.2861e+002 -4.3669e+001 -6.7610e+000 46838 93055,93363,93107
 7.0000e-001 93461 -3.1283e+002 -8.5842e+001 -2.1166e+001 46838 93579,93003,93435
 7.0000e-001 93484 -3.2748e+002 -4.5052e+001 -2.0754e+001 46838 93055,93435,93363
 7.0000e-001 93533 -3.5644e+002 -1.3115e+002  3.3204e+000 46838 93107,93363,93507
 7.0000e-001 93556 -3.6237e+002 -1.5176e+002 -2.2029e+000 46838 93107,93507,92847
 7.0000e-001 93605 -3.1972e+002 -8.9105e+001 -2.8269e+001 46838 93055,93029,93579
 7.0000e-001 93628 -3.1740e+002 -8.5991e+001 -2.7039e+001 46838 93055,93579,93435
 7.0000e-001 93979 -3.4778e+002  8.0282e+001  4.2007e+001 46476 93780,93884,93858
 7.0000e-001 93956 -4.0323e+002 -2.0446e+001  2.0073e+001 46476 93754,93884,93780
 7.0000e-001 93933 -7.9203e+002 -2.8120e+001 -5.7747e+000 46476 93806,93858,93832
 7.0000e-001 93910 -7.7048e+002 -9.4659e+001  5.0921e+001 46476 93780,93858,93806
 7.0000e-001 94515 -2.5971e+002 -8.5610e+001 -6.7042e+000 46072 94345,94397,94371
 7.0000e-001 94492 -1.9184e+002 -6.0625e+001  1.4500e+001 46072 94267,94397,94345
 7.0000e-001 94469 -1.4872e+002 -7.7215e+000 -5.6280e+000 46072 94241,94397,94267
 7.0000e-001 94446 -1.3266e+002 -4.8842e+001 -1.7848e+001 46072 94293,94345,94319
 7.0000e-001 94423 -1.8101e+002 -2.9050e+001  1.9412e+001 46072 94267,94345,94293
 7.0000e-001 95149 -2.2986e+002 -6.0007e+001 -1.6838e+001 45346 94803,94881,94855
 7.0000e-001 95126 -2.0971e+002 -4.3567e+001 -2.4247e+001 45346 94803,94959,94881
 7.0000e-001 95103 -1.6873e+002 -2.0685e+001 -5.7474e+000 45346 95172,94933,94907
 7.0000e-001 95080 -1.8962e+002 -3.6525e+001  3.4217e+000 45346 95172,94907,94881
 7.0000e-001 95057 -2.0907e+002 -8.5652e+001 -4.5335e+001 45346 94803,94985,94959
 7.0000e-001 95034 -2.5364e+002 -2.8549e+001  4.0918e+000 45346 94803,94855,94829
 7.0000e-001 95011 -2.0764e+002 -1.5975e+002 -2.4913e+002 45346 94777,94985,94803
 7.0000e-001 95198 -1.8929e+002 -1.0805e+001 -5.2667e+000 45346 94959,94933,95172
 7.0000e-001 95221 -2.0115e+002 -1.5641e+001 -9.4316e-001 45346 94959,95172,94881
 7.0000e-001 95776 -1.7405e+002 -2.5308e+001  8.2172e+001 44720 95799,95560,95534
 7.0000e-001 95753 -2.1518e+002 -2.4687e+001  9.1106e+001 44720 95799,95534,95482
 7.0000e-001 95730 -2.5085e+002 -2.9665e+001  8.8656e+001 44720 95943,95871,95430
 7.0000e-001 95707 -2.5739e+002 -2.0768e+001  8.9373e+001 44720 95943,95430,95404
 7.0000e-001 95684 -3.8089e+002 -9.3551e+001  9.9777e+001 44720 95430,95482,95456
 7.0000e-001 95661 -1.4223e+002 -3.2131e+001  1.1387e+001 44720 95482,95534,95508
 7.0000e-001 95638 -2.3253e+002 -1.8976e+001  9.4129e+001 44720 95404,95612,95586
 7.0000e-001 95825 -2.1565e+002 -1.7513e+001  8.3095e+001 44720 95586,95560,95799
 7.0000e-001 95848 -2.2254e+002 -1.9879e+001  9.1739e+001 44720 95871,95586,95799
 7.0000e-001 95897 -2.4714e+002 -3.8114e+001  7.2894e+001 44720 95482,95430,95871
 7.0000e-001 95920 -2.4202e+002 -2.1524e+001  7.7308e+001 44720 95482,95871,95799
 7.0000e-001 95969 -2.3746e+002 -2.1040e+001  8.2687e+001 44720 95586,95871,95943
 7.0000e-001 95992 -2.4997e+002 -1.8238e+001  8.4908e+001 44720 95586,95943,95404
 7.0000e-001 96449 -2.4258e+002 -3.5668e+001  4.0793e+000 44202 96544,96472,96227
 7.0000e-001 96426 -2.7888e+002 -1.8038e+002  2.2174e+001 44202 96472,96175,96331
 7.0000e-001 96403 -3.1977e+002  3.3439e+001 -1.2141e+001 44202 96544,96227,96201
 7.0000e-001 96380 -1.1781e+002 -3.7987e+001 -8.4268e+000 44202 96253,96305,96279
 7.0000e-001 96357 -1.8797e+002 -3.2694e+001  3.2883e+001 44202 96227,96305,96253
 7.0000e-001 96498 -2.6684e+002 -1.2188e+002 -3.1474e+000 44202 96305,96227,96472
 7.0000e-001 96521 -2.5066e+002 -1.0768e+002  1.1754e+001 44202 96305,96472,96331
 7.0000e-001 96570 -3.0011e+002 -1.6503e+002 -3.0687e+001 44202 96175,96472,96544
 7.0000e-001 96593 -3.3563e+002 -4.3195e+001 -3.7161e+001 44202 96175,96544,96201
 7.0000e-001 96971 -1.9867e+002 -1.0401e+002  4.6284e+000 43754 96994,96749,96697
 7.0000e-001 96948 -2.1498e+002 -1.1894e+002  1.1898e+001 43754 96994,96697,96853
 7.0000e-001 96925 -1.8229e+002 -1.1774e+002 -5.6636e+000 43754 96697,96749,96723
 7.0000e-001 96902 -2.0199e+002 -5.4105e+001 -2.3387e+001 43754 96775,96853,96827
 7.0000e-001 96879 -1.5097e+002 -5.1213e+001 -1.6392e+001 43754 96775,96827,96801
 7.0000e-001 97020 -1.9822e+002 -7.3086e+001 -2.0332e+001 43754 96775,96749,96994
 7.0000e-001 97043 -2.3074e+002 -1.0020e+002 -8.5554e+000 43754 96775,96994,96853
 7.0000e-001 97291 -2.2734e+002 -3.0011e+001 -2.5919e+001 43364 97314,97144,97118
 7.0000e-001 97268 -2.2346e+002 -5.4867e+001 -3.6994e+001 43364 97314,97118,97092
 7.0000e-001 97245 -2.1784e+002 -6.5971e+001 -2.5344e+001 43364 97386,97196,97170
 7.0000e-001 97222 -2.5825e+002 -1.2049e+002 -4.0670e+001 43364 97066,97196,97092
 7.0000e-001 97340 -2.3599e+002 -5.8907e+001 -2.1240e+001 43364 97170,97144,97314
 7.0000e-001 97363 -2.1798e+002 -5.5418e+001 -3.2943e+001 43364 97386,97170,97314
 7.0000e-001 97412 -2.2306e+002 -7.8770e+001 -2.2618e+001 43364 97092,97196,97386
 7.0000e-001 97435 -2.2538e+002 -7.4756e+001 -3.1281e+001 43364 97092,97386,97314
 7.0000e-001 97788 -2.1364e+002 -3.9073e+001 -9.7471e+000 42960 97563,97667,97589
 7.0000e-001 97765 -3.4288e+002 -1.4577e+002  3.6192e+001 42960 97563,97693,97667
 7.0000e-001 97742 -4.0280e+002  9.0680e+001 -1.7829e+001 42960 97589,97641,97615
 7.0000e-001 97719 -4.2319e+002 -9.9564e+001 -1.9768e+001 42960 97589,97667,97641
 7.0000e-001 98215 -1.4777e+002 -3.3184e+001 -7.1510e+001 42563 97918,98074,98048
 7.0000e-001 98192 -7.7516e+001  1.1791e+001 -5.0870e+001 42563 97892,98074,97918
 7.0000e-001 98169 -1.6282e+002 -8.4125e+000 -7.5276e+001 42563 98238,97944,97918
 7.0000e-001 98146 -1.9088e+002 -7.3105e+001 -5.4911e+001 42563 98238,97918,98048
 7.0000e-001 98123 -1.7937e+002 -4.8020e+001 -4.6543e+001 42563 97944,98022,97996
 7.0000e-001 98100 -1.7042e+002 -5.5837e+000 -1.4115e+001 42563 97944,97996,97970
 7.0000e-001 98264 -1.8668e+002 -5.2964e+001 -4.3072e+001 42563 98022,97944,98238
 7.0000e-001 98287 -1.9365e+002 -7.7142e+001 -2.3851e+001 42563 98022,98238,98048
 7.0000e-001 98616 -2.1170e+002 -1.0500e+002 -1.0266e+001 42251 98443,98521,98469
 7.0000e-001 98593 -2.4002e+002 -9.0182e+001  1.0008e+001 42251 98417,98521,98443
 7.0000e-001 98570 -2.3356e+002 -8.1544e+001 -4.5840e+001 42251 98391,98521,98417
 7.0000e-001 98547 -2.1165e+002 -8.2644e+001 -4.6192e+001 42251 98469,98521,98495
 7.0000e-001 98886 -4.7258e+002 -1.0369e+002 -3.2938e+001 41847 98661,98765,98687
 7.0000e-001 98863 -5.3053e+002 -4.8452e+001 -8.0829e+001 41847 98661,98791,98765
 7.0000e-001 98840 -4.1182e+002 -1.0853e+002 -7.1424e+000 41847 98687,98765,98739
 7.0000e-001 98817 -4.3385e+002 -1.2296e+002  1.4606e+000 41847 98687,98739,98713
 7.0000e-001 99394 -2.1770e+002 -2.5819e+001  4.8199e+001 41236 99417,99149,99123
 7.0000e-001 99371 -3.0935e+002 -6.4401e+001  3.8872e+001 41236 99417,99123,99097
 7.0000e-001 99348 -2.6314e+002 -3.7996e+001 -3.2591e+000 41236 99489,99201,99149
 7.0000e-001 99325 -2.3307e+002 -5.9024e+001 -5.8649e+001 41236 99149,99201,99175
 7.0000e-001 99302 -4.0383e+002 -6.1188e+001 -1.7916e+001 41236 99097,99253,99227
 7.0000e-001 99279 -5.3826e+002 -1.6456e+002 -6.5916e+001 41236 99071,99253,99097
 7.0000e-001 99443 -2.4941e+002 -4.6485e+001 -1.9678e+000 41236 99489,99149,99417
 7.0000e-001 99466 -2.7475e+002 -7.0628e+001  1.5530e+000 41236 99227,99417,99097
 7.0000e-001 99515 -2.6821e+002 -4.6334e+001  1.3442e+000 41236 99227,99201,99489
 7.0000e-001 99538 -2.6351e+002 -6.2197e+001  5.4000e+000 41236 99227,99489,99417
 7.0000e-001 100044 -1.5015e+002 -7.8457e+001  5.9834e+001 40732 99721,99773,99747
 7.0000e-001 100021 -2.2192e+002 -4.8419e+001  2.2977e+001 40732 99721,99799,99773
 7.0000e-001 99998 -2.1943e+002 -4.5804e+001  2.1853e+001 40732 99721,99903,99799
 7.0000e-001 99975 -2.4422e+002 -4.6265e+001 -3.4234e+001 40732 100067,99877,99851
 7.0000e-001 99952 -2.4970e+002 -1.1591e+002 -3.8581e+001 40732 100067,99851,99799
 7.0000e-001 99929 -3.2354e+002 -1.0994e+002 -8.2096e+001 40732 99799,99851,99825
 7.0000e-001 100093 -2.5832e+002  1.3133e+001 -7.9844e+000 40732 99903,99877,100067
 7.0000e-001 100116 -2.7255e+002 -7.3530e+001 -6.0342e+000 40732 99903,100067,99799
 7.0000e-001 100622 -2.8970e+002 -1.9922e+001  4.6564e+001 40278 100645,100455,100429
 7.0000e-001 100599 -3.4157e+002 -4.5094e+001  5.8363e+001 40278 100717,100645,100429
 7.0000e-001 100576 -3.9918e+002 -7.0113e+001  2.4027e+001 40278 100717,100429,100377
 7.0000e-001 100553 -2.6134e+002 -8.7359e+001  3.1461e+001 40278 100789,100325,100481
 7.0000e-001 100530 -2.4361e+002 -3.9193e+001  4.9277e+001 40278 100299,100481,100325
 7.0000e-001 100507 -3.0403e+002 -6.8301e+001  2.1579e+001 40278 100377,100429,100403
 7.0000e-001 100671 -3.0896e+002  1.7810e+000  5.1575e+001 40278 100481,100455,100645
 7.0000e-001 100694 -2.8939e+002 -5.8273e+001  1.7936e+000 40278 100789,100481,100645
 7.0000e-001 100743 -3.6725e+002 -5.1236e+001 -4.8461e+001 40278 100351,100645,100717
 7.0000e-001 100766 -5.0318e+002 -1.0460e+002 -8.0055e+001 40278 100351,100717,100377
 7.0000e-001 100815 -2.3232e+002 -7.4275e+001  2.1118e+000 40278 100351,100325,100789
 7.0000e-001 100838 -2.3812e+002 -1.8243e+001 -3.0055e+001 40278 100351,100789,100645
 7.0000e-001 101265 -3.0663e+002 -1.1053e+002  3.6763e+000 39824 101288,101046,100994
 7.0000e-001 101242 -3.2413e+002 -1.2693e+002 -4.7443e+000 39824 101288,100994,100968
 7.0000e-001 101219 -3.8604e+002 -1.0125e+002  1.7623e+001 39824 100942,101124,100968
 7.0000e-001 101196 -2.7301e+002 -3.9296e+001  1.2720e+001 39824 101046,101124,101072
 7.0000e-001 101173 -3.1009e+002 -1.5048e+002 -6.5284e+001 39824 100994,101046,101020
 7.0000e-001 101150 -1.9183e+002 -4.5677e+001  1.8007e+001 39824 101072,101124,101098
 7.0000e-001 101314 -2.9819e+002 -1.1935e+002  1.0846e+001 39824 101124,101046,101288
 7.0000e-001 101337 -3.0657e+002 -1.2303e+002  5.4901e+000 39824 101124,101288,100968
 7.0000e-001 101585 -1.2570e+002 -7.2248e+001  2.3038e+001 39070 101608,101464,101412
 7.0000e-001 101562 -1.2828e+002 -6.2699e+001  1.9322e+001 39070 101608,101412,101360
 7.0000e-001 101539 -1.0957e+002 -7.1871e+001  1.9150e+001 39070 101412,101464,101438
 7.0000e-001 101516 -1.6301e+002 -8.3673e+001  3.7313e+001 39070 101360,101412,101386
 7.0000e-001 101634 -1.2560e+002 -6.8708e+001  1.7932e+001 39070 101490,101464,101608
 7.0000e-001 101657 -1.2498e+002 -5.5762e+001  1.3823e+001 39070 101490,101608,101360
 7.0000e-001 101856 -3.1744e+002  3.7586e+001 -1.5443e+001 38730 101706,101758,101732
 7.0000e-001 101833 -2.8442e+002  2.0896e+001 -1.1338e+001 38730 101706,101784,101758
 7.0000e-001 101810 -2.3566e+002 -2.7766e+001 -8.3273e+001 38730 101680,101784,101706
 7.0000e-001 102106 -2.9063e+002 -8.8320e+001  1.8541e+001 38326 101881,101959,101907
 7.0000e-001 102083 -3.1847e+002 -1.0563e+002  5.0243e+001 38326 101881,101985,101959
 7.0000e-001 102060 -2.2223e+002 -7.9291e+001  4.3469e+001 38326 101881,102011,101985
 7.0000e-001 102037 -3.8613e+002 -5.6362e+001 -1.1646e+001 38326 101907,101959,101933
 7.0000e-001 102258 -8.8040e+001  2.1584e+000  7.2195e+000 38036 102281,102157,102131
 7.0000e-001 102235 -9.2390e+001  2.1596e+001 -2.8989e+000 38036 102281,102131,102209
 7.0000e-001 102307 -8.3371e+001 -1.5196e+001  4.8694e+000 38036 102183,102157,102281
 7.0000e-001 102330 -9.3055e+001 -3.9401e+000 -8.5070e+000 38036 102183,102281,102209
 7.0000e-001 102663 -1.9831e+002 -4.8726e+001  3.7410e+001 37596 102438,102542,102464
 7.0000e-001 102640 -1.3842e+002 -3.6002e+001  1.1774e+001 37596 102438,102568,102542
 7.0000e-001 102617 -1.8837e+002 -1.8954e+001  6.6458e+001 37596 102490,102542,102516
 7.0000e-001 102594 -1.7526e+002 -3.4710e+001  4.6621e+001 37596 102464,102542,102490
 7.0000e-001 102862 -2.1171e+002  3.4802e+001 -8.6382e+000 37192 102686,102764,102712
 7.0000e-001 102839 -2.2464e+002  2.3825e+001  4.5421e+000 37192 102686,102790,102764
 7.0000e-001 102816 -2.0921e+002 -5.2069e+001  3.1104e+001 37192 102712,102764,102738
 7.0000e-001 103110 -2.5203e+002 -6.3536e+001 -1.2308e+001 36609 102911,102963,102937
 7.0000e-001 103087 -2.2931e+002 -5.4264e+001 -1.4285e+001 36609 102911,102989,102963
 7.0000e-001 103064 -2.5980e+002 -8.2550e+001 -2.7247e+001 36609 102885,102989,102911
 7.0000e-001 103041 -2.6892e+002 -2.9952e+001 -5.8937e+001 36609 102885,103015,102989
 7.0000e-001 103718 -1.0527e+002 -1.5765e+000  1.8734e+001 36131 103323,103375,103349
 7.0000e-001 103695 -2.3993e+002 -6.9631e+000  3.2338e+001 36131 103297,103375,103323
 7.0000e-001 103672 -2.6622e+002 -1.2019e+002 -2.7157e+001 36131 103297,103505,103375
 7.0000e-001 103649 -2.3595e+002 -8.7078e+001 -1.4864e+001 36131 103741,103479,103401
 7.0000e-001 103626 -2.3052e+002 -7.4961e+001 -6.0197e+000 36131 103741,103401,103375
 7.0000e-001 103603 -2.4872e+002 -6.0547e+001 -1.8311e+001 36131 103401,103479,103427
 7.0000e-001 103580 -3.4055e+002 -1.1216e+002 -5.4400e+001 36131 103297,103531,103505
 7.0000e-001 103557 -2.2223e+002 -3.8989e+000 -2.6734e+001 36131 103427,103479,103453
 7.0000e-001 103767 -2.4305e+002 -9.8156e+001 -2.3669e+001 36131 103505,103479,103741
 7.0000e-001 103790 -2.3662e+002 -8.6604e+001 -1.4553e+001 36131 103505,103741,103375
 7.0000e-001 103989 -4.3434e+002 -1.2801e+002  1.1037e+001 35791 103839,103917,103891
 7.0000e-001 103966 -4.0746e+002 -1.7885e+002  4.8483e+000 35791 103813,103917,103839
 7.0000e-001 103943 -3.6555e+002 -3.4880e+001 -4.0751e+001 35791 103839,103891,103865
 7.0000e-001 104188 -1.3143e+002 -4.4425e+001 -4.1835e+001 35444 104038,104090,104064
 7.0000e-001 104165 -1.4989e+002 -9.0001e+000  2.5694e+001 35444 104038,104116,104090
 7.0000e-001 104142 -1.7450e+002  2.3982e+001  2.2667e+001 35444 104012,104116,104038
 7.0000e-001 104487 -2.8797e+002 -6.8554e+001 -3.8623e+001 34990 104265,104317,104291
 7.0000e-001 104464 -2.4261e+002 -6.5717e+001 -1.8729e+001 34990 104510,104317,104265
 7.0000e-001 104441 -1.7870e+002 -9.4079e+000  5.0491e+000 34990 104510,104265,104213
 7.0000e-001 104418 -2.6076e+002  7.6360e-001  1.9628e+001 34990 104582,104343,104317
 7.0000e-001 104395 -1.5415e+002  3.4705e+001 -3.4176e+001 34990 104213,104265,104239
 7.0000e-001 104536 -2.6226e+002  5.2538e-001 -3.3615e-001 34990 104582,104317,104510
 7.0000e-001 104559 -2.3302e+002  1.0069e+001  1.4681e+001 34990 104369,104510,104213
 7.0000e-001 104608 -2.0644e+002  5.5978e+001  4.2783e+001 34990 104369,104343,104582
 7.0000e-001 104631 -2.4056e+002  1.0018e+001  1.3040e+001 34990 104369,104582,104510
 7.0000e-001 104783 -2.5360e+002 -6.9013e+001 -1.9822e+001 34700 104938,104806,104682
 7.0000e-001 104760 -2.5626e+002 -6.6348e+001 -2.4526e+001 34700 104938,104682,104656
 7.0000e-001 104832 -1.7831e+002 -1.6557e+001  4.8595e+000 34700 104708,104682,104806
 7.0000e-001 104964 -2.4802e+002 -6.7372e+001 -2.1371e+001 34700 104734,104806,104938
 7.0000e-001 104987 -2.5052e+002 -6.5027e+001 -2.5984e+001 34700 104734,104938,104656
 7.0000e-001 105137 -2.7085e+002  4.8340e+000 -9.4843e+000 34388 105036,105088,105062
 7.0000e-001 105114 -2.8362e+002 -3.4832e+001 -1.9179e+001 34388 105010,105088,105036
 7.0000e-001 105385 -3.0142e+002 -5.7870e+001  2.8969e+001 33734 105408,105186,105160
 7.0000e-001 105362 -2.9592e+002 -6.0406e+001  2.4178e+001 33734 105408,105160,105264
 7.0000e-001 105339 -3.2942e+002  3.0772e+001 -7.1108e+000 33734 105160,105290,105264
 7.0000e-001 105316 -2.7961e+002 -7.5085e+001  7.0884e+001 33734 105186,105238,105212
 7.0000e-001 105434 -2.9582e+002 -5.9616e+001  2.6627e+001 33734 105238,105186,105408
 7.0000e-001 105457 -2.8132e+002 -5.4545e+001  2.0578e+001 33734 105238,105408,105264
 7.0000e-001 105609 -8.8444e+001 -2.4408e+000 -1.9314e+001 33394 105482,105534,105508
 7.0000e-001 105586 -7.1037e+001  1.4163e+001 -2.8587e+001 33394 105482,105560,105534
 7.0000e-001 105859 -3.7106e+002 -4.1225e+001 -5.6278e+001 33047 105882,105712,105660
 7.0000e-001 105836 -4.1049e+002 -4.2533e+001 -3.4406e+001 33047 105882,105660,105634
 7.0000e-001 105813 -2.6477e+002 -6.6650e+001  6.3823e+000 33047 105660,105712,105686
 7.0000e-001 105790 -2.7177e+002 -1.5751e+001 -8.3621e+001 33047 105634,105764,105738
 7.0000e-001 105908 -2.7746e+002 -7.8396e+000 -9.0788e+001 33047 105738,105712,105882
 7.0000e-001 105931 -3.7465e+002 -5.1742e+001 -6.3248e+001 33047 105738,105882,105634
 7.0000e-001 106181 -2.7863e+002 -9.6375e+001  2.0652e+001 32543 106204,106060,106008
 7.0000e-001 106158 -2.5504e+002 -1.1305e+002  1.9458e+001 32543 105956,106086,106060
 7.0000e-001 106135 -2.6902e+002 -7.9138e+001  1.3657e+001 32543 106204,106008,105982
 7.0000e-001 106112 -2.7978e+002 -1.4066e+002  1.3999e+001 32543 106008,106060,106034
 7.0000e-001 106230 -2.6909e+002 -1.0252e+002  7.7114e+000 32543 105956,106060,106204
 7.0000e-001 106253 -2.5660e+002 -8.5006e+001  3.7607e-001 32543 105956,106204,105982
 7.0000e-001 106454 -2.6974e+002 -1.0111e+002 -5.7018e+001 31839 106304,106356,106330
 7.0000e-001 106431 -2.8727e+002 -6.6410e+001  2.0346e+001 31839 106278,106356,106304
 7.0000e-001 106408 -1.8997e+002 -4.7503e+001  1.1289e+000 31839 106278,106382,106356
 7.0000e-001 106704 -1.9058e+002 -3.3706e+001 -2.9326e+000 31534 106505,106583,106557
 7.0000e-001 106681 -1.9215e+002 -3.0904e+001  1.0053e+000 31534 106479,106583,106505
 7.0000e-001 106658 -2.1462e+002 -3.3643e+001 -6.7798e-001 31534 106505,106557,106531
 7.0000e-001 106635 -1.9454e+002 -4.0318e+001  1.6536e+001 31534 106479,106609,106583
 7.0000e-001 107108 -4.9496e+002 -4.9038e+001 -7.5212e+001 31030 106886,106990,106964
 7.0000e-001 107085 -3.9030e+002 -1.2783e+002 -1.7089e+001 31030 106860,106990,106886
 7.0000e-001 107062 -3.7389e+002 -1.1215e+002 -3.0039e+000 31030 106834,106990,106860
 7.0000e-001 107039 -6.6611e+002 -2.3134e+002  4.2324e+001 31030 106912,106964,106938
 7.0000e-001 107016 -7.2843e+002 -1.4534e+002 -7.3365e+001 31030 106886,106964,106912
 7.0000e-001 107307 -2.8640e+002  1.3076e+001 -1.3492e+000 30718 107330,107157,107131
 7.0000e-001 107284 -2.4277e+002  7.3779e+000 -1.3529e+001 30718 107330,107131,107235
 7.0000e-001 107261 -1.9082e+002 -2.7893e+000  2.0515e+001 30718 107183,107235,107209
 7.0000e-001 107356 -2.4277e+002 -2.1005e-001  9.7678e+000 30718 107183,107157,107330
 7.0000e-001 107379 -2.0076e+002 -6.4002e+000 -6.0609e+000 30718 107183,107330,107235
 7.0000e-001 107759 -1.0398e+002 -2.8848e+001  2.1075e+001 30264 107782,107615,107537
 7.0000e-001 107736 -1.0826e+002 -3.8696e+001  1.8229e+001 30264 107782,107537,107485
 7.0000e-001 107713 -1.6176e+002 -2.7802e+001  2.5560e+001 30264 107485,107537,107511
 7.0000e-001 107690 -8.3101e+001  2.5895e+001  4.3151e+001 30264 107537,107615,107589
 7.0000e-001 107667 -7.9138e+001 -3.4144e+001  8.6823e+000 30264 107537,107589,107563
 7.0000e-001 107808 -9.9056e+001 -3.0213e+001  2.9657e+001 30264 107641,107615,107782
 7.0000e-001 107831 -1.0539e+002 -4.2115e+001  2.6319e+001 30264 107641,107782,107485
 7.0000e-001 108030 -2.7170e+002 -6.0063e+001  2.7841e+001 29874 108053,107854,107932
 7.0000e-001 108007 -2.0781e+002 -4.8026e+001  2.8176e+001 29874 107854,107958,107932
 7.0000e-001 107984 -3.0927e+002 -3.8311e+001  5.7043e+001 29874 108053,107932,107906
 7.0000e-001 108079 -2.5886e+002 -3.0732e+001  2.3379e+001 29874 107880,107854,108053
 7.0000e-001 108102 -2.8432e+002  6.4817e+000  4.4564e+001 29874 107880,108053,107906
 7.0000e-001 108433 -1.3405e+002 -5.0745e+001 -1.8007e+001 29484 108234,108338,108312
 7.0000e-001 108410 -2.3852e+002 -5.6907e+001  3.9080e+001 29484 108208,108338,108234
 7.0000e-001 108387 -2.3278e+002 -6.3410e+001 -2.6716e+001 29484 108234,108312,108260
 7.0000e-001 108364 -1.8406e+002 -6.8561e+001 -1.9582e+001 29484 108260,108312,108286
 7.0000e-001 108762 -1.8765e+002 -8.5576e+001  5.7681e+000 29080 108563,108641,108589
 7.0000e-001 108739 -1.6189e+002 -7.8985e+001  3.5461e+001 29080 108537,108641,108563
 7.0000e-001 108716 -2.5826e+002 -3.8812e+001  6.1848e+001 29080 108589,108641,108615
 7.0000e-001 108693 -1.0969e+002 -7.1308e+001 -1.7345e+001 29080 108537,108667,108641
 7.0000e-001 109189 -2.7812e+002 -6.5776e+001  9.1281e+000 28476 108892,108996,108970
 7.0000e-001 109166 -3.6322e+002 -7.6241e+001  1.7792e+001 28476 108892,109022,108996
 7.0000e-001 109143 -3.0349e+002 -9.8580e+001  2.0479e+001 28476 108892,108970,108944
 7.0000e-001 109120 -4.0562e+002 -8.8566e+001  1.5804e+001 28476 108892,109048,109022
 7.0000e-001 109097 -3.1189e+002 -1.1582e+002  1.7864e+001 28476 108892,108944,108918
 7.0000e-001 109074 -5.1111e+002 -4.7206e+001 -5.8490e+001 28476 108866,109048,108892
 7.0000e-001 109518 -2.2975e+002 -5.7040e+001  3.5994e+001 28022 109541,109371,109345
 7.0000e-001 109495 -2.5567e+002 -3.7898e+001  2.5713e+000 28022 109541,109345,109319
 7.0000e-001 109472 -2.1768e+002 -5.7760e+001 -1.1717e+001 28022 109293,109397,109319
 7.0000e-001 109449 -2.2764e+002 -7.6004e+001  7.6673e+000 28022 109293,109423,109397
 7.0000e-001 109567 -1.2635e+002 -1.7893e+001  5.2280e+001 28022 109397,109371,109541
 7.0000e-001 109590 -2.2294e+002 -4.5876e+001  1.6872e+001 28022 109397,109541,109319
 7.0000e-001 109968 -2.3421e+002 -1.4317e+002 -1.4843e+001 27568 109798,109850,109824
 7.0000e-001 109945 -2.1681e+002 -4.3691e+001 -2.8054e+001 27568 109694,109850,109798
 7.0000e-001 109922 -2.1958e+002 -1.4952e+002  1.6797e+000 27568 109694,109798,109746
 7.0000e-001 109899 -2.0710e+002 -1.3304e+002  6.8971e+001 27568 109746,109798,109772
 7.0000e-001 109876 -1.7554e+002 -5.9214e+001  1.6684e+001 27568 109694,109746,109720
 7.0000e-001 110167 -2.2803e+002 -4.1563e+001 -1.4714e+001 27007 110017,110095,110069
 7.0000e-001 110144 -2.0334e+002 -2.8664e+001  9.0923e-001 27007 109991,110095,110017
 7.0000e-001 110121 -2.2450e+002 -5.0982e+000  3.1262e+001 27007 110017,110069,110043
 7.0000e-001 110415 -1.6788e+002 -7.3690e+001  8.8990e+000 26567 110438,110242,110190
 7.0000e-001 110392 -2.0816e+002  4.1575e+000 -1.8928e+001 26567 110438,110190,110320
 7.0000e-001 110369 -2.1850e+002 -7.3509e+001  5.8586e+000 26567 110242,110294,110268
 7.0000e-001 110346 -1.4975e+002 -3.0234e+001  9.8159e+000 26567 110190,110242,110216
 7.0000e-001 110464 -1.8935e+002 -8.8350e+001 -4.0566e+000 26567 110294,110242,110438
 7.0000e-001 110487 -2.5044e+002 -6.7442e+001 -4.4813e+001 26567 110294,110438,110320
 7.0000e-001 110639 -3.4255e+002  2.3826e+001 -4.8948e+001 26170 110538,110590,110564
 7.0000e-001 110616 -2.7262e+002 -3.8174e+001 -3.2904e+000 26170 110512,110590,110538
 7.0000e-001 111149 -1.7827e+002 -1.7751e+001  4.5086e+001 25716 111172,110878,110852
 7.0000e-001 111126 -1.3499e+002 -9.7577e+000  4.2333e+001 25716 111172,110852,111008
 7.0000e-001 111103 -2.1114e+002 -2.9691e+001  8.6358e+001 25716 110878,110930,110904
 7.0000e-001 111080 -1.3234e+002 -1.2375e+001  3.7155e+001 25716 110826,111008,110852
 7.0000e-001 111057 -8.8826e+001 -4.5251e+001  2.4547e+001 25716 110930,111008,110956
 7.0000e-001 111034 -6.9170e+001 -3.9285e+001  2.4184e+001 25716 110956,111008,110982
 7.0000e-001 111198 -1.4125e+002 -3.8952e+001  5.8368e+001 25716 110930,110878,111172
 7.0000e-001 111221 -8.8983e+001 -2.4608e+001  5.5667e+001 25716 110930,111172,111008
 7.0000e-001 111420 -2.6756e+002 -3.5207e+001  4.0682e+000 25304 111443,111270,111244
 7.0000e-001 111397 -2.8147e+002  1.6162e+001  3.2228e+000 25304 111443,111244,111348
 7.0000e-001 111374 -2.9654e+002 -8.9037e+001 -1.8797e+001 25304 111270,111322,111296
 7.0000e-001 111469 -2.7291e+002 -6.9091e+001  7.3783e-001 25304 111322,111270,111443
 7.0000e-001 111492 -2.9584e+002 -2.8689e+001 -4.7957e+000 25304 111322,111443,111348
 7.0000e-001 111691 -2.2708e+002 -8.5341e+001 -1.5105e+001 24736 111567,111619,111593
 7.0000e-001 111668 -2.2563e+002 -5.6365e+001 -2.6718e+001 24736 111541,111619,111567
 7.0000e-001 111645 -2.2354e+002 -2.2764e+001 -7.2923e+000 24736 111515,111619,111541
 7.0000e-001 112024 -6.1917e+001 -8.6128e+000  2.1545e+001 24146 111825,111877,111851
 7.0000e-001 112001 -4.0123e+001  4.7755e+001  2.4818e+001 24146 111825,111903,111877
 7.0000e-001 111978 -6.5416e+001 -3.7148e+001  3.5374e+001 24146 111825,111929,111903
 7.0000e-001 111955 -1.0535e+002 -3.5981e+001  4.2120e+001 24146 111799,111929,111825
 7.0000e-001 112370 -2.5922e+002 -1.0864e+002  3.1648e+001 23856 112393,112151,112125
 7.0000e-001 112347 -2.3302e+002 -6.8320e+001  4.4085e+001 23856 112465,112393,112125
 7.0000e-001 112324 -2.3225e+002 -4.7696e+001  5.4792e+001 23856 112465,112125,112073
 7.0000e-001 112301 -2.8538e+002 -7.9460e+001  7.3055e+001 23856 112073,112125,112099
 7.0000e-001 112278 -2.6569e+002 -1.0528e+002 -1.8924e+000 23856 112047,112229,112073
 7.0000e-001 112255 -2.3649e+002 -9.7846e+001 -1.9606e+001 23856 112151,112203,112177
 7.0000e-001 112419 -2.6307e+002 -9.3915e+001  1.2279e+001 23856 112203,112151,112393
 7.0000e-001 112442 -2.5858e+002 -1.1992e+002  5.5823e+000 23856 112203,112393,112229
 7.0000e-001 112491 -2.5391e+002 -9.2499e+001  1.7707e-001 23856 112229,112393,112465
 7.0000e-001 112514 -2.3764e+002 -4.1756e+001  1.0957e+001 23856 112229,112465,112073
 7.0000e-001 112784 -4.2668e+002  1.5816e+002 -7.0377e+001 23494 112611,112663,112637
 7.0000e-001 112761 -3.4394e+002 -5.8864e+001 -5.7215e+001 23494 112585,112663,112611
 7.0000e-001 112738 -3.9423e+002 -7.9141e+001  2.4671e+001 23494 112559,112663,112585
 7.0000e-001 112715 -3.4576e+002  9.7489e+001  5.0442e+001 23494 112559,112689,112663
 7.0000e-001 113117 -2.7242e+002 -1.8074e+001 -7.0292e+001 22974 112944,113022,112996
 7.0000e-001 113094 -2.0425e+002 -6.6022e+001 -5.3269e+001 22974 112918,113022,112944
 7.0000e-001 113071 -2.9885e+002 -1.1468e+002 -1.0406e+002 22974 112944,112996,112970
 7.0000e-001 113048 -1.9226e+002 -1.9473e+001 -6.5258e+001 22974 112892,113022,112918
 7.0000e-001 113414 -3.1919e+002 -8.9027e+001 -6.6989e+000 22370 113192,113296,113218
 7.0000e-001 113391 -3.4687e+002 -1.5492e+002 -2.5441e+001 22370 113140,113296,113192
 7.0000e-001 113368 -3.2635e+002 -1.0227e+002  9.9313e+000 22370 113218,113296,113270
 7.0000e-001 113345 -2.9114e+002 -1.0636e+002  4.6344e+001 22370 113218,113270,113244
 7.0000e-001 113322 -2.8177e+002 -1.2945e+001 -4.1789e+001 22370 113140,113192,113166
 7.0000e-001 113662 -2.3033e+002  3.5164e+000  2.1384e+001 21916 113685,113515,113489
 7.0000e-001 113639 -3.0215e+002 -7.6176e+001 -8.6594e+000 21916 113685,113489,113437
 7.0000e-001 113616 -2.1327e+002 -7.7555e+001 -1.6009e+001 21916 113757,113567,113541
 7.0000e-001 113593 -2.8668e+002 -3.3457e+001 -2.6325e+001 21916 113437,113489,113463
 7.0000e-001 113711 -2.8186e+002 -9.8053e+001  1.0903e+000 21916 113541,113515,113685
 7.0000e-001 113734 -2.5523e+002 -9.0195e+001 -1.2305e+001 21916 113757,113541,113685
 7.0000e-001 113783 -2.6805e+002 -8.3779e+001 -1.9298e+001 21916 113437,113567,113757
 7.0000e-001 113806 -2.7893e+002 -7.5653e+001 -2.2658e+001 21916 113437,113757,113685
 7.0000e-001 114056 -1.7276e+002  6.1191e-001 -5.8778e+001 21412 113857,113909,113883
 7.0000e-001 114033 -2.0185e+002 -2.8450e+001 -4.0469e+001 21412 114079,113909,113857
 7.0000e-001 114010 -2.4476e+002 -6.3165e+001 -1.3711e+001 21412 114079,113857,113961
 7.0000e-001 113987 -2.4423e+002 -6.1240e+001 -1.2860e+001 21412 113831,113961,113857
 7.0000e-001 114105 -2.3908e+002  2.1198e+001 -6.3656e+001 21412 113935,113909,114079
 7.0000e-001 114128 -2.7036e+002 -1.7892e+001 -4.1448e+001 21412 113935,114079,113961
 7.0000e-001 114378 -2.0625e+002 -6.3740e+001  5.9708e+000 21022 114401,114257,114205
 7.0000e-001 114355 -2.3115e+002 -7.2834e+001 -2.9491e+001 21022 114401,114205,114179
 7.0000e-001 114332 -1.9328e+002 -4.5088e+001  1.8197e+000 21022 114153,114283,114179
 7.0000e-001 114309 -2.3018e+002 -6.0389e+001  6.9101e+000 21022 114205,114257,114231
 7.0000e-001 114427 -1.5679e+002 -5.3438e+001  2.5366e+001 21022 114283,114257,114401
 7.0000e-001 114450 -1.9330e+002 -6.6126e+001 -8.9422e+000 21022 114283,114401,114179
 7.0000e-001 114651 -2.6119e+001  5.5463e+001 -2.1998e+001 20618 114501,114553,114527
 7.0000e-001 114628 -1.8294e+001  3.5535e+001  1.4305e+001 20618 114501,114579,114553
 7.0000e-001 114605 -1.1769e+002  4.7373e+001  6.7825e+000 20618 114475,114579,114501
 7.0000e-001 114901 -3.3371e+002 -4.0743e+000 -2.5691e+001 20114 114676,114780,114702
 7.0000e-001 114878 -2.5890e+002  3.8338e+001 -4.4591e+001 20114 114676,114806,114780
 7.0000e-001 114855 -3.8979e+002  2.9571e+001 -1.5921e+001 20114 114702,114780,114754
 7.0000e-001 114832 -8.0952e+002 -9.4339e+001 -2.8782e+001 20114 114702,114754,114728
 7.0000e-001 115053 -3.0207e+002 -7.1105e+000  1.7610e+001 19460 115147,115076,114926
 7.0000e-001 115030 -3.0394e+002 -2.1588e+001  2.2537e+001 19460 115147,114926,115004
 7.0000e-001 115102 -2.8514e+002 -7.6761e+000  2.5624e+000 19460 114952,114926,115076
 7.0000e-001 115173 -3.1429e+002  3.2522e+001  1.1436e+001 19460 114978,115076,115147
 7.0000e-001 115196 -3.2737e+002  8.0631e+000  2.0629e+001 19460 114978,115147,115004
 7.0000e-001 115446 -2.8995e+002 -2.3821e+001  2.2178e+001 19006 115273,115351,115299
 7.0000e-001 115423 -2.6006e+002 -5.7564e+001  6.6153e+000 19006 115247,115351,115273
 7.0000e-001 115400 -2.2253e+002 -4.7217e+001 -3.9436e+001 19006 115221,115351,115247
 7.0000e-001 115377 -1.8793e+002 -2.5511e+001 -7.0357e+001 19006 115299,115351,115325
 7.0000e-001 115767 -1.5890e+002  1.7887e+001  3.3464e+001 18716 115571,115649,115623
 7.0000e-001 115744 -2.0277e+002 -6.5650e+001  1.7422e+001 18716 115493,115649,115571
 7.0000e-001 115721 -1.9904e+002  4.9686e-001  2.0156e+001 18716 115493,115571,115545
 7.0000e-001 115698 -2.1897e+002 -3.0011e+001  2.0577e+000 18716 115493,115545,115519
 7.0000e-001 115675 -1.1408e+001  6.0055e+001 -8.4745e+000 18716 115571,115623,115597
 7.0000e-001 116039 -2.8581e+002 -7.5206e+001  1.0799e+001 18312 115814,115892,115840
 7.0000e-001 116016 -2.8806e+002 -8.3300e+001  1.6173e+001 18312 115814,115944,115892
 7.0000e-001 115993 -3.0294e+002 -1.8018e+001  2.1014e+001 18312 115892,115944,115918
 7.0000e-001 115970 -1.3238e+002 -8.3638e+000 -2.1374e+000 18312 115840,115892,115866
 7.0000e-001 116191 -2.8184e+002 -3.5062e+001 -4.8880e+000 18000 116090,116142,116116
 7.0000e-001 116168 -2.3770e+002  1.3987e+001  1.7449e+001 18000 116064,116142,116090
 7.0000e-001 116343 -2.4742e+002  1.1781e+001  1.3304e+000 17396 116242,116294,116268
 7.0000e-001 116320 -2.8965e+002  5.0842e+000 -1.1190e+000 17396 116216,116294,116242
 7.0000e-001 116566 -3.3521e+002 -1.3872e+002  1.7329e+001 16942 116390,116468,116442
 7.0000e-001 116543 -5.2711e+002 -1.7504e+002  5.1751e+001 16942 116390,116494,116468
 7.0000e-001 116520 -3.5198e+002 -1.7795e+002  7.2353e+000 16942 116390,116442,116416
 7.0000e-001 116767 -1.8529e+002  4.7963e+000  4.5096e+000 16438 116790,116643,116617
 7.0000e-001 116744 -2.1928e+002 -3.2112e+001 -9.6731e+000 16438 116790,116617,116591
 7.0000e-001 116721 -1.3859e+002 -2.8370e+001 -1.8357e+001 16438 116643,116695,116669
 7.0000e-001 116816 -1.6675e+002 -2.2083e+001  1.6702e+001 16438 116695,116643,116790
 7.0000e-001 116839 -1.7757e+002 -3.4823e+001  1.1506e+001 16438 116695,116790,116591
 7.0000e-001 117062 -7.7090e+001 -2.4369e+001 -5.9755e+000 16074 116886,116938,116912
 7.0000e-001 117039 -8.4999e+001 -4.1636e+001  1.3470e+001 16074 116886,116990,116938
 7.0000e-001 117016 -6.0671e+001  1.5423e+001  2.3216e+001 16074 116938,116990,116964
 7.0000e-001 117214 -4.6138e+002 -2.2733e+002 -3.0932e+001 15649 117087,117139,117113
 7.0000e-001 117191 -5.1534e+002 -2.6293e+002  1.8968e+000 15649 117087,117165,117139
 7.0000e-001 117317 -3.1366e+001 -1.3350e+002  2.6381e+001 421 117239,117291,117265
 8.0000e-001 70632  6.3698e+000 -7.6083e+000  1.5121e+001 70072 70482,70534,70508
 8.0000e-001 70609 -5.0224e+000  1.4766e-001  1.9646e+000 70072 70482,70560,70534
 8.0000e-001 70586 -4.1588e+002 -1.6287e+002 -2.0532e+001 70072 70456,70560,70482
 8.0000e-001 70951 -4.4191e+002 -9.7676e+001  0.0000e+000 69874 70703,70755,70729
 8.0000e-001 70928 -4.6950e+002 -1.0678e+002  2.1326e+001 69874 70703,70781,70755
 8.0000e-001 70905 -4.1728e+002 -2.8153e+001  4.4176e+001 69874 70703,70807,70781
 8.0000e-001 70882 -4.8133e+002 -1.7657e+002  3.9042e+001 69874 70703,70833,70807
 8.0000e-001 70859 -2.8594e+002 -7.8410e+001 -1.1521e+001 69874 70677,70833,70703
 8.0000e-001 71199 -2.4109e+002 -7.6487e+001  2.7120e+001 69698 71222,71052,71026
 8.0000e-001 71176 -2.3738e+002 -3.2777e+001  3.3306e+001 69698 71294,71222,71026
 8.0000e-001 71153 -2.2989e+002 -9.9964e+000  2.5522e+001 69698 71294,71026,71000
 8.0000e-001 71130 -2.6144e+002 -4.4020e+001 -1.6595e-001 69698 71366,71104,71078
 8.0000e-001 71248 -2.2375e+002 -4.2187e+001  2.1220e+001 69698 71078,71052,71222
 8.0000e-001 71271 -2.4559e+002 -5.6488e+001  1.2134e+001 69698 71366,71078,71222
 8.0000e-001 71320 -2.2362e+002 -1.4205e+001  1.1334e+001 69698 70974,71222,71294
 8.0000e-001 71343 -2.2073e+002 -8.1238e+000  3.4094e+000 69698 70974,71294,71000
 8.0000e-001 71392 -2.4627e+002 -1.6202e+001  9.3325e+000 69698 70974,71104,71366
 8.0000e-001 71415 -2.3454e+002 -3.1100e+001  1.6043e+001 69698 70974,71366,71222
 8.0000e-001 71516 -2.9360e+002 -3.2293e+001  2.5274e+001 69386 71438,71490,71464
 8.0000e-001 71869 -2.1353e+002 -1.2439e+001 -8.5980e+000 69188 71644,71748,71670
 8.0000e-001 71846 -1.4204e+002 -4.5275e+001  2.9932e+001 69188 71644,71774,71748
 8.0000e-001 71823 -1.9478e+002 -7.5209e+001 -3.8530e+001 69188 71670,71748,71722
 8.0000e-001 71800 -9.9483e+001 -4.6702e+000  7.1740e+000 69188 71670,71722,71696
 8.0000e-001 72019 -6.0637e+002 -1.1738e+002  7.4670e+001 68990 71918,71970,71944
 8.0000e-001 71996 -7.6271e+002 -5.7992e+001  4.9077e+001 68990 71892,71970,71918
 8.0000e-001 72316 -3.5962e+002 -7.3695e+001  1.8766e+001 68586 72339,72172,72146
 8.0000e-001 72293 -3.8348e+002 -1.2995e+002  2.5437e+001 68586 72339,72146,72120
 8.0000e-001 72270 -3.8034e+002 -1.3438e+002  7.1616e+001 68586 72411,72068,72198
 8.0000e-001 72247 -4.4301e+002 -1.1610e+002  8.3420e+001 68586 72042,72198,72068
 8.0000e-001 72224 -3.1274e+002 -7.6366e+001  1.5967e+001 68586 72068,72120,72094
 8.0000e-001 72365 -3.8405e+002 -6.4388e+001  5.7147e+001 68586 72198,72172,72339
 8.0000e-001 72388 -4.0558e+002 -1.1432e+002  6.0695e+001 68586 72411,72198,72339
 8.0000e-001 72437 -3.4797e+002 -1.1423e+002  5.9653e+001 68586 72120,72068,72411
 8.0000e-001 72460 -3.7310e+002 -9.0123e+001  4.8385e+001 68586 72120,72411,72339
 8.0000e-001 72864 -2.2721e+002 -7.5635e+001  1.9080e+001 68388 72642,72694,72668
 8.0000e-001 72841 -2.4723e+002 -9.0945e+001  3.3822e+001 68388 72616,72694,72642
 8.0000e-001 72818 -2.9664e+002 -1.2125e+002 -7.4671e+000 68388 72616,72720,72694
 8.0000e-001 72795 -3.5330e+002 -9.9500e+001  2.3510e+001 68388 72590,72720,72616
 8.0000e-001 72772 -4.5475e+002 -2.5328e+001 -1.0505e+002 68388 72590,72746,72720
 8.0000e-001 73321 -2.4460e+002 -1.3179e+002 -2.3078e+001 68048 73073,73203,73177
 8.0000e-001 73298 -2.1602e+002 -1.1646e+002 -1.6904e+001 68048 73047,73203,73073
 8.0000e-001 73275 -3.3340e+002 -1.0298e+002  4.5277e-002 68048 73125,73177,73151
 8.0000e-001 73252 -3.1447e+002 -1.0262e+002 -8.6997e+000 68048 73073,73177,73125
 8.0000e-001 73229 -3.0190e+002 -2.9578e+001 -5.0816e+000 68048 73073,73125,73099
 8.0000e-001 73640 -4.4587e+002  6.7093e+000 -4.3087e+001 67850 73444,73496,73470
 8.0000e-001 73617 -3.6324e+002 -9.2672e+001 -3.0872e+001 67850 73418,73496,73444
 8.0000e-001 73594 -3.5872e+002 -7.2617e+001 -1.6097e+001 67850 73392,73496,73418
 8.0000e-001 73571 -2.9286e+002 -4.1243e+001  8.7858e+000 67850 73392,73522,73496
 8.0000e-001 73548 -2.4506e+002 -1.4141e+001 -5.3565e+001 67850 73366,73522,73392
 8.0000e-001 73790 -3.9572e+002 -1.6409e+002 -3.3920e+000 67602 73689,73741,73715
 8.0000e-001 73767 -3.6817e+002 -1.0203e+002  1.7792e+000 67602 73663,73741,73689
 8.0000e-001 74040 -4.4834e+002 -1.4632e+002 -6.3507e+000 67290 73841,73945,73919
 8.0000e-001 74017 -3.3753e+002 -1.6960e+002 -3.9650e+001 67290 73815,73945,73841
 8.0000e-001 73994 -4.0270e+002 -1.3999e+002  3.0764e+001 67290 73841,73919,73867
 8.0000e-001 73971 -3.9628e+002 -1.1831e+002  1.9255e+001 67290 73867,73919,73893
 8.0000e-001 74143 -4.3919e+002  3.9725e+000 -2.2100e+000 67092 74065,74117,74091
 8.0000e-001 74415 -3.3604e+002 -1.2465e+002 -5.3827e+001 66894 74190,74294,74216
 8.0000e-001 74392 -3.1207e+002 -9.9854e+001  8.0642e+000 66894 74190,74320,74294
 8.0000e-001 74369 -3.0677e+002 -3.6410e+001 -5.4988e+001 66894 74216,74294,74242
 8.0000e-001 74346 -3.2261e+002 -2.9977e+001 -4.7816e+001 66894 74242,74294,74268
 8.0000e-001 75023 -3.7523e+002 -1.4757e+002  4.0214e+001 66532 74654,74836,74810
 8.0000e-001 75000 -2.3291e+002 -6.6733e+001  7.5716e+001 66532 74628,74836,74654
 8.0000e-001 74977 -2.1899e+002 -7.6955e+001 -2.6704e+001 66532 74706,74784,74732
 8.0000e-001 74954 -2.9886e+002 -1.1430e+002 -7.9580e+001 66532 74680,74784,74706
 8.0000e-001 74931 -4.6921e+002 -8.4360e+001 -6.7755e+001 66532 74680,74810,74784
 8.0000e-001 74908 -3.0672e+002 -7.8450e+001  7.1443e+001 66532 74654,74810,74680
 8.0000e-001 74885 -3.4944e+002 -1.2634e+002  5.1739e+001 66532 74602,74836,74628
 8.0000e-001 74862 -2.9048e+002 -8.8353e+001  8.9341e+000 66532 74732,74784,74758
 8.0000e-001 75222 -3.7568e+002 -3.0675e+001  3.7699e+001 66242 75072,75150,75124
 8.0000e-001 75199 -3.6190e+002 -8.0391e+001  3.7414e+001 66242 75046,75150,75072
 8.0000e-001 75176 -4.1775e+002 -7.6591e+001  1.5927e+001 66242 75072,75124,75098
 8.0000e-001 75470 -5.0708e+002  1.5967e+001  1.5080e+001 65838 75297,75375,75349
 8.0000e-001 75447 -5.0990e+002 -2.8650e+001  1.4083e+001 65838 75271,75375,75297
 8.0000e-001 75424 -3.6354e+002  1.4534e+002  9.6577e+001 65838 75297,75349,75323
 8.0000e-001 75401 -5.0658e+002 -1.4753e+001  4.7025e+001 65838 75245,75375,75271
 8.0000e-001 75671 -1.2046e+002 -1.1308e+001 -1.0992e+001 65640 75495,75573,75521
 8.0000e-001 75648 -1.8658e+002 -3.2987e+001 -1.9147e+001 65640 75495,75599,75573
 8.0000e-001 75625 -1.7305e+002 -8.6660e+000  3.7711e-001 65640 75521,75573,75547
 8.0000e-001 75872 -2.6639e+002 -8.7334e+001 -1.5743e+001 65300 75895,75748,75722
 8.0000e-001 75849 -2.3491e+002 -6.0067e+001 -3.2585e+000 65300 75895,75722,75696
 8.0000e-001 75826 -2.6155e+002 -9.8214e+000 -1.5066e+001 65300 75967,75774,75748
 8.0000e-001 75921 -2.6669e+002 -3.4369e+001  1.7793e+000 65300 75967,75748,75895
 8.0000e-001 75944 -2.5501e+002 -3.9617e+001  2.7811e+001 65300 75800,75895,75696
 8.0000e-001 75993 -2.8882e+002 -4.5868e+001 -1.2358e+000 65300 75800,75774,75967
 8.0000e-001 76016 -2.8842e+002 -5.7900e+001  1.4449e+001 65300 75800,75967,75895
 8.0000e-001 76371 -3.2662e+002 -5.2698e+001  2.6389e+001 64896 76146,76250,76172
 8.0000e-001 76348 -3.3304e+002 -9.7689e+001  5.9582e+000 64896 76146,76276,76250
 8.0000e-001 76325 -2.3972e+002 -3.3644e+001 -8.7352e+000 64896 76172,76250,76198
 8.0000e-001 76302 -5.6876e+002 -1.7696e+002 -5.0876e+001 64896 76198,76250,76224
 8.0000e-001 76570 -5.4208e+002 -1.1773e+002  7.6225e+001 64442 76446,76498,76472
 8.0000e-001 76547 -4.6788e+002 -3.8092e+001 -3.2378e-001 64442 76420,76498,76446
 8.0000e-001 76524 -4.8027e+002 -6.7608e+001 -3.1515e+000 64442 76394,76498,76420
 8.0000e-001 76999 -2.9228e+002 -5.3932e+001 -2.1488e+001 63924 77022,76728,76702
 8.0000e-001 76976 -3.1913e+002 -8.5881e+001  1.5708e+000 63924 77022,76702,76832
 8.0000e-001 76953 -2.9353e+002 -3.6170e+001 -6.6732e+001 63924 76728,76806,76754
 8.0000e-001 76930 -4.3373e+002 -1.2980e+002  9.8318e-001 63924 76676,76832,76702
 8.0000e-001 76907 -4.2934e+002  6.4126e+001 -7.0158e+001 63924 76754,76806,76780
 8.0000e-001 76884 -4.5734e+002 -2.9409e+001  2.0936e-001 63924 76676,76858,76832
 8.0000e-001 77048 -3.3562e+002 -1.6523e+001 -1.8708e+001 63924 76806,76728,77022
 8.0000e-001 77071 -3.5698e+002 -4.1938e+001  3.5067e+000 63924 76806,77022,76832
 8.0000e-001 77449 -2.2096e+002  5.5926e+000  1.4630e+001 63320 77472,77253,77201
 8.0000e-001 77426 -2.0433e+002 -3.8215e+001 -3.4381e+001 63320 77472,77201,77175
 8.0000e-001 77403 -3.0983e+002 -8.4378e+001 -1.7359e+001 63320 77175,77305,77279
 8.0000e-001 77380 -2.7355e+002 -8.0458e+001  8.1271e+001 63320 77201,77253,77227
 8.0000e-001 77357 -3.1311e+002 -8.5349e+001 -1.8976e+001 63320 77175,77331,77305
 8.0000e-001 77498 -2.6790e+002 -8.7671e+001  3.1916e+001 63320 77279,77253,77472
 8.0000e-001 77521 -2.2104e+002 -7.4264e+001 -2.9770e+001 63320 77279,77472,77175
 8.0000e-001 77769 -3.9794e+002 -8.4235e+001  1.2311e+000 62816 77570,77622,77596
 8.0000e-001 77746 -3.4708e+002 -1.3070e+002 -2.6650e+001 62816 77570,77648,77622
 8.0000e-001 77723 -3.8145e+002 -1.2090e+002 -9.9227e+001 62816 77570,77674,77648
 8.0000e-001 77700 -3.8921e+002 -6.4912e+001 -6.5410e+001 62816 77544,77674,77570
 8.0000e-001 78149 -2.9083e+002 -1.6339e+002 -1.7032e+001 62354 77953,78031,78005
 8.0000e-001 78126 -3.2289e+002 -1.3974e+002 -2.4519e+001 62354 77901,78031,77953
 8.0000e-001 78103 -2.5766e+002 -1.0969e+002 -1.3191e+000 62354 77875,78031,77901
 8.0000e-001 78080 -4.0785e+002 -1.0546e+002  5.3031e+001 62354 77901,77953,77927
 8.0000e-001 78057 -4.6270e+002 -1.6700e+002 -4.1987e+001 62354 77953,78005,77979
 8.0000e-001 78606 -2.0027e+002 -1.0943e+002 -8.2402e+001 61950 78384,78436,78410
 8.0000e-001 78583 -2.0917e+002 -6.6414e+001 -1.4861e+001 61950 78358,78436,78384
 8.0000e-001 78560 -2.2253e+002 -1.1089e+002  7.4635e+000 61950 78358,78488,78436
 8.0000e-001 78537 -1.5554e+002 -3.2477e+001 -3.0841e+001 61950 78436,78488,78462
 8.0000e-001 78514 -2.3552e+002 -1.2476e+002  1.0688e+000 61950 78332,78488,78358
 8.0000e-001 78756 -4.0223e+002 -1.0746e+002  4.3203e+001 61339 78779,78655,78629
 8.0000e-001 78733 -3.8665e+002 -9.3099e+001  3.6688e+001 61339 78779,78629,78707
 8.0000e-001 78805 -3.4278e+002  2.2693e+001 -4.5201e+000 61339 78851,78779,78681
 8.0000e-001 78828 -4.2004e+002 -6.2300e+001  4.5683e+001 61339 78681,78779,78707
 8.0000e-001 78877 -4.2537e+002 -1.7645e+002  1.7263e+001 61339 78655,78779,78851
 8.0000e-001 79206 -3.1748e+002 -5.8872e+001 -9.2062e+001 60892 79229,79007,78981
 8.0000e-001 79183 -3.3936e+002 -1.0438e+002 -8.4046e+001 60892 79229,78981,79111
 8.0000e-001 79160 -3.3597e+002 -8.9819e+001 -6.1705e+001 60892 79301,79033,79007
 8.0000e-001 79137 -4.1208e+002 -3.6808e+001  2.8700e+001 60892 79033,79085,79059
 8.0000e-001 79255 -3.4494e+002 -6.8529e+001 -7.8269e+001 60892 79301,79007,79229
 8.0000e-001 79278 -3.0187e+002 -8.2835e+001 -7.5303e+001 60892 79085,79229,79111
 8.0000e-001 79327 -3.7173e+002 -1.5367e+002 -3.1316e+001 60892 79085,79033,79301
 8.0000e-001 79350 -3.3499e+002 -1.0639e+002 -6.0635e+001 60892 79085,79301,79229
 8.0000e-001 79647 -4.9827e+002 -1.9268e+002 -6.1891e+001 60488 79451,79529,79503
 8.0000e-001 79624 -5.0205e+002 -1.7657e+002 -3.6441e+001 60488 79425,79529,79451
 8.0000e-001 79601 -3.8796e+002 -1.1061e+002 -6.8267e+000 60488 79373,79529,79425
 8.0000e-001 79578 -3.7738e+002 -1.4253e+002  9.7707e+000 60488 79373,79425,79399
 8.0000e-001 79555 -5.0175e+002 -4.6620e+000 -2.6802e+001 60488 79451,79503,79477
 8.0000e-001 79870 -4.5858e+002 -1.9879e+002 -1.0582e+001 60026 79720,79798,79772
 8.0000e-001 79847 -6.5875e+002 -2.4395e+002 -2.5072e+001 60026 79694,79798,79720
 8.0000e-001 79824 -6.2619e+002 -2.6220e+002  7.0695e+000 60026 79720,79772,79746
 8.0000e-001 80120 -1.7710e+002 -4.2741e+000  2.9300e+001 59629 79921,80025,79973
 8.0000e-001 80097 -1.4004e+002 -1.5436e+001  1.9969e+001 59629 79895,80025,79921
 8.0000e-001 80074 -1.5335e+002  1.2521e+001 -2.9969e+001 59629 79973,80025,79999
 8.0000e-001 80051 -1.0687e+002  1.4874e+001  1.5423e+001 59629 79921,79973,79947
 8.0000e-001 80321 -2.3558e+002 -3.8077e+001  5.1106e+000 59125 80344,80171,80145
 8.0000e-001 80298 -2.4930e+002 -5.3727e+001  1.1475e+001 59125 80344,80145,80249
 8.0000e-001 80275 -2.5782e+002 -6.7515e+001  3.7869e+001 59125 80197,80249,80223
 8.0000e-001 80370 -2.5288e+002 -2.8467e+001  1.7768e+001 59125 80197,80171,80344
 8.0000e-001 80393 -2.6520e+002 -4.2099e+001  2.3598e+001 59125 80197,80344,80249
 8.0000e-001 80952 -1.9154e+002 -7.8846e+001  1.9937e+001 58557 80975,80632,80606
 8.0000e-001 80929 -2.6141e+002 -9.2840e+001  3.4049e+001 58557 81119,80975,80606
 8.0000e-001 80906 -2.4787e+002 -9.0804e+001 -1.5561e+001 58557 81047,80684,80632
 8.0000e-001 80883 -3.0158e+002 -1.1070e+002  2.9027e+001 58557 81119,80606,80580
 8.0000e-001 80860 -2.6490e+002  3.4462e+001 -1.3613e+001 58557 81191,80736,80710
 8.0000e-001 80837 -2.4045e+002 -5.3579e+000 -4.3381e+001 58557 80736,80788,80762
 8.0000e-001 80814 -2.2114e+002 -9.1252e+001 -2.8309e+001 58557 80632,80684,80658
 8.0000e-001 81001 -2.4589e+002 -1.0951e+002 -3.8643e+000 58557 81047,80632,80975
 8.0000e-001 81024 -2.6775e+002 -3.6921e+001 -2.5037e+000 58557 81191,80710,80975
 8.0000e-001 81073 -2.4674e+002 -4.3479e+001 -3.1948e+001 58557 80710,80684,81047
 8.0000e-001 81096 -2.6350e+002 -7.5280e+001 -1.4439e+001 58557 80710,81047,80975
 8.0000e-001 81145 -2.7449e+002 -1.0889e+002  9.8566e+000 58557 80788,80975,81119
 8.0000e-001 81168 -2.8108e+002 -1.1157e+002  6.8103e+000 58557 80788,81119,80580
 8.0000e-001 81217 -2.7869e+002 -3.0311e+001  1.2569e+001 58557 80788,80736,81191
 8.0000e-001 81240 -2.6616e+002 -7.0067e+001  2.9084e+001 58557 80788,81191,80975
 8.0000e-001 81537 -2.7362e+002  5.0801e+001 -3.7266e+001 57881 81560,81341,81289
 8.0000e-001 81514 -2.1415e+002  7.9140e+001 -1.5642e+002 57881 81560,81289,81263
 8.0000e-001 81491 -3.3796e+002 -4.9850e+000 -6.7193e+001 57881 81632,81419,81367
 8.0000e-001 81468 -3.4124e+002  1.7822e+000 -1.3887e+001 57881 81367,81419,81393
 8.0000e-001 81445 -4.5674e+002  5.2295e+001  9.6416e+000 57881 81289,81341,81315
 8.0000e-001 81586 -3.1438e+002 -8.4927e+001 -1.8146e+001 57881 81367,81341,81560
 8.0000e-001 81609 -3.3260e+002  3.5964e+001 -6.3450e+001 57881 81632,81367,81560
 8.0000e-001 81658 -3.2017e+002 -1.7051e+002 -6.0601e+001 57881 81263,81419,81632
 8.0000e-001 81681 -2.6806e+002 -6.0721e+001 -7.8716e+001 57881 81263,81632,81560
 8.0000e-001 81929 -1.4947e+002 -4.4559e+001  2.8859e+001 57477 81704,81808,81782
 8.0000e-001 81906 -1.3727e+002 -4.3077e+001  2.8061e+001 57477 81704,81834,81808
 8.0000e-001 81883 -1.4908e+002 -1.1276e+001  4.2555e+001 57477 81704,81782,81730
 8.0000e-001 81860 -1.6416e+002 -1.7663e+001  4.5790e+001 57477 81730,81782,81756
 8.0000e-001 82488 -2.9365e+002 -1.3339e+002  2.8040e-001 56966 82583,82511,82194
 8.0000e-001 82465 -2.6782e+002 -9.3032e+001 -1.3131e+001 56966 82511,82116,82324
 8.0000e-001 82442 -2.7937e+002 -1.6094e+002  6.6126e+000 56966 82583,82194,82168
 8.0000e-001 82419 -3.7757e+002 -1.4841e+002  5.9701e+000 56966 82194,82246,82220
 8.0000e-001 82396 -2.7946e+002 -9.1471e+001  4.5179e+001 56966 82194,82298,82246
 8.0000e-001 82373 -3.2316e+002 -9.6733e+001  8.6105e+001 56966 82246,82298,82272
 8.0000e-001 82350 -2.4157e+002 -6.2232e+001  7.6358e+000 56966 82116,82168,82142
 8.0000e-001 82537 -3.0963e+002 -1.1818e+002  2.5939e+001 56966 82298,82194,82511
 8.0000e-001 82560 -2.5254e+002 -1.1313e+002  2.3142e+001 56966 82298,82511,82324
 8.0000e-001 82609 -2.8106e+002 -1.0352e+002  5.7757e+000 56966 82116,82511,82583
 8.0000e-001 82632 -2.6587e+002 -1.2846e+002  1.0583e+001 56966 82116,82583,82168
 8.0000e-001 83236 -3.8201e+002 -1.7331e+002 -6.9661e+001 56304 82893,82945,82919
 8.0000e-001 83213 -3.8706e+002 -1.8357e+002 -5.6655e+001 56304 83259,82945,82893
 8.0000e-001 83190 -3.5596e+002 -1.2990e+002 -3.0585e+001 56304 83259,82893,83049
 8.0000e-001 83167 -2.9279e+002 -1.3555e+002  1.9285e+001 56304 82971,83049,83023
 8.0000e-001 83144 -3.3879e+002 -1.1154e+002 -1.4433e+001 56304 82815,83049,82893
 8.0000e-001 83121 -3.1192e+002 -5.9603e+001 -2.4323e+001 56304 82815,82893,82867
 8.0000e-001 83098 -2.1336e+002 -1.1064e+002 -2.3510e+001 56304 82971,83023,82997
 8.0000e-001 83075 -3.1227e+002 -1.2361e+002 -7.2672e+000 56304 82815,82867,82841
 8.0000e-001 83285 -3.9557e+002 -1.0639e+002 -3.4664e+001 56304 82971,82945,83259
 8.0000e-001 83308 -3.8225e+002 -8.9323e+001 -6.4455e+000 56304 82971,83259,83049
 8.0000e-001 83556 -3.6448e+002 -9.2889e+001 -3.0321e+001 55964 83357,83461,83435
 8.0000e-001 83533 -3.2794e+002 -2.1336e+001  1.6555e+000 55964 83331,83461,83357
 8.0000e-001 83510 -1.4600e+002 -4.5944e+001 -7.8203e+000 55964 83357,83435,83383
 8.0000e-001 83487 -2.9412e+002 -1.0822e+002 -3.5094e+001 55964 83383,83435,83409
 8.0000e-001 83706 -3.8535e+002 -2.1464e+002 -9.7609e+000 55503 83579,83631,83605
 8.0000e-001 83683 -4.8668e+002 -2.1317e+002  5.4194e+000 55503 83579,83657,83631
 8.0000e-001 83907 -2.9719e+002 -1.3574e+002 -6.3239e+001 55156 83757,83835,83809
 8.0000e-001 83884 -2.5711e+002 -7.5976e+000 -1.1850e+001 55156 83731,83835,83757
 8.0000e-001 83861 -3.5266e+002 -3.3462e+001 -4.7961e+001 55156 83757,83809,83783
 8.0000e-001 84240 -2.0516e+002 -3.5943e+001  2.1664e+001 54652 84093,84145,84119
 8.0000e-001 84217 -3.2381e+002 -3.0106e+001  7.5583e+001 54652 84041,84145,84093
 8.0000e-001 84194 -3.5979e+002 -6.6212e+001  4.7605e+001 54652 84015,84145,84041
 8.0000e-001 84171 -5.4236e+002 -1.2985e+002  4.8654e+001 54652 84041,84093,84067
 8.0000e-001 84618 -1.8373e+002 -7.5840e+001  1.5113e+001 53926 84396,84500,84474
 8.0000e-001 84595 -1.4108e+002 -7.7601e+001  3.7175e+001 53926 84344,84500,84396
 8.0000e-001 84572 -1.2955e+002 -4.9713e+001  3.7061e+001 53926 84344,84396,84370
 8.0000e-001 84549 -1.4420e+002 -4.6992e+001 -1.9086e+001 53926 84396,84474,84422
 8.0000e-001 84526 -2.5864e+002 -9.1316e+001 -5.5257e+001 53926 84422,84474,84448
 8.0000e-001 85350 -4.3815e+002 -1.5541e+002 -1.1549e+002 53586 85373,84880,85088
 8.0000e-001 85327 -2.2405e+002 -1.5779e+002 -1.1111e+002 53586 84880,85114,85088
 8.0000e-001 85304 -2.0940e+002 -4.9624e+001 -8.5279e+001 53586 85373,85088,85062
 8.0000e-001 85281 -3.7975e+002 -2.9287e+002  1.0720e+002 53586 85010,85062,85036
 8.0000e-001 85258 -4.2342e+002 -8.7604e+001 -4.9192e+000 53586 85445,85010,84958
 8.0000e-001 85235 -2.0003e+002 -1.2195e+000 -2.0363e+001 53586 85445,84958,84906
 8.0000e-001 85212 -3.3753e+002 -1.1475e+002 -3.3742e+001 53586 84958,85010,84984
 8.0000e-001 85189 -3.3529e+002 -9.3517e+001 -8.9671e+001 53586 84906,84958,84932
 8.0000e-001 85166 -2.7658e+002 -2.3245e+002 -7.2054e+001 53586 84880,85140,85114
 8.0000e-001 85399 -5.0982e+002 -1.1507e+002  1.2977e+002 53586 84906,84880,85373
 8.0000e-001 85422 -3.2740e+002 -1.9080e+001  9.7940e+001 53586 85517,85373,85062
 8.0000e-001 85471 -4.0955e+002 -6.9304e+001  1.1349e+002 53586 85062,85010,85445
 8.0000e-001 85494 -3.0424e+002 -1.3492e+001  9.0405e+001 53586 85517,85062,85445
 8.0000e-001 85543 -2.8876e+002 -3.2024e+001  1.0647e+002 53586 84906,85373,85517
 8.0000e-001 85566 -2.7532e+002 -3.4741e+001  1.0120e+002 53586 84906,85517,85445
 8.0000e-001 86072 -2.5941e+002 -1.1989e+002 -5.0236e+001 53182 86095,85853,85775
 8.0000e-001 86049 -2.7515e+002 -7.3023e+001 -4.4124e+001 53182 86095,85775,85931
 8.0000e-001 86026 -2.9033e+002 -1.4498e+002 -3.8527e+001 53182 86167,85879,85853
 8.0000e-001 86003 -4.0872e+002 -1.3816e+002 -7.9248e+000 53182 85775,85827,85801
 8.0000e-001 85980 -2.6783e+002 -1.4410e+002 -4.6950e+001 53182 85775,85853,85827
 8.0000e-001 85957 -1.8214e+002 -5.9519e+001  3.6915e+001 53182 85749,85931,85775
 8.0000e-001 86121 -2.6794e+002 -1.2860e+002 -5.4075e+001 53182 86167,85853,86095
 8.0000e-001 86144 -2.8442e+002 -1.2128e+002 -5.4534e+001 53182 85905,86095,85931
 8.0000e-001 86193 -2.8830e+002 -1.5530e+002 -2.2150e+001 53182 85905,85879,86167
 8.0000e-001 86216 -2.7629e+002 -1.5925e+002 -3.6158e+001 53182 85905,86167,86095
 8.0000e-001 86673 -2.9610e+002 -1.6880e+001  4.6638e+001 52778 86477,86529,86503
 8.0000e-001 86650 -3.0434e+002 -1.0803e+002  1.7131e+001 52778 86425,86529,86477
 8.0000e-001 86627 -2.7679e+002 -1.3339e+002  4.6136e+001 52778 86425,86477,86451
 8.0000e-001 86604 -2.1187e+002 -4.2337e+001  4.9796e+001 52778 86399,86529,86425
 8.0000e-001 86581 -1.6479e+002 -1.3689e+001  3.0064e+001 52778 86399,86555,86529
 8.0000e-001 87258 -2.8013e+002 -6.1395e+001  4.1965e+001 52238 87281,86987,86961
 8.0000e-001 87235 -2.9750e+002 -8.1399e+001  2.7442e+001 52238 87281,86961,87117
 8.0000e-001 87212 -2.8551e+002  4.6724e+001  2.6792e+001 52238 86935,87117,86961
 8.0000e-001 87189 -3.6513e+002  8.8924e+000  1.2695e+001 52238 87065,87117,87091
 8.0000e-001 87166 -3.1036e+002 -1.4715e+002  7.4028e+000 52238 86987,87065,87039
 8.0000e-001 87143 -3.3135e+002 -2.2997e+002  7.6282e+001 52238 86987,87039,87013
 8.0000e-001 87307 -2.8950e+002 -8.8821e+001  2.5776e+001 52238 87065,86987,87281
 8.0000e-001 87330 -2.9905e+002 -9.2654e+001  1.2122e+001 52238 87065,87281,87117
 8.0000e-001 87610 -2.9365e+002 -4.8466e+001  2.1321e+001 51834 87434,87512,87460
 8.0000e-001 87587 -2.8745e+002 -2.8120e+001  6.0600e+001 51834 87434,87538,87512
 8.0000e-001 87564 -4.3331e+002 -1.6822e+002 -3.8064e+001 51834 87633,87460,87512
 8.0000e-001 87659 -5.2954e+002 -2.0952e+002 -4.2533e+001 51834 87486,87460,87633
 8.0000e-001 88187 -3.8109e+002 -1.3613e+002 -1.0481e+001 51266 87864,87942,87890
 8.0000e-001 88164 -3.4297e+002 -1.4034e+001  6.4104e-001 51266 87864,88020,87942
 8.0000e-001 88141 -5.8856e+002 -1.7386e+002 -1.1012e+002 51266 87942,88020,87968
 8.0000e-001 88118 -4.6485e+002 -1.5996e+002  6.6076e+001 51266 87864,88046,88020
 8.0000e-001 88095 -3.4866e+002 -2.5314e+001 -1.4801e+001 51266 87968,88020,87994
 8.0000e-001 88072 -3.4288e+002 -1.6038e+002 -4.3793e+001 51266 87890,87942,87916
 8.0000e-001 88644 -4.1186e+002 -1.8806e+002 -2.5243e+001 50754 88370,88500,88396
 8.0000e-001 88621 -4.0378e+002 -7.7992e+001 -5.2562e+001 50754 88370,88526,88500
 8.0000e-001 88598 -2.7511e+002 -7.5950e+001  5.4548e+001 50754 88396,88500,88422
 8.0000e-001 88575 -2.9042e+002 -1.0097e+002  4.6670e+001 50754 88422,88500,88474
 8.0000e-001 88552 -4.4275e+002 -2.0309e+002 -3.2062e+001 50754 88422,88474,88448
 8.0000e-001 88914 -3.2007e+002 -3.1439e+001 -7.0866e+000 50442 88715,88793,88741
 8.0000e-001 88891 -2.5524e+002 -1.9476e+001 -2.3278e+001 50442 88715,88819,88793
 8.0000e-001 88868 -4.2209e+002 -1.0152e+002 -5.9585e+001 50442 88689,88819,88715
 8.0000e-001 88845 -2.2027e+002  8.3448e+000 -8.3678e+000 50442 88741,88793,88767
 8.0000e-001 89294 -3.7679e+002 -7.7246e+001 -9.9028e+000 49938 89317,89046,89020
 8.0000e-001 89271 -3.5137e+002 -8.9117e+001 -2.3483e+001 49938 89317,89020,89150
 8.0000e-001 89248 -2.6591e+002 -8.9465e+001 -1.4131e+000 49938 89072,89150,89098
 8.0000e-001 89225 -3.4489e+002 -4.8924e+001 -6.9646e+001 49938 89020,89176,89150
 8.0000e-001 89202 -2.1921e+002 -5.8368e+001 -3.1886e+001 49938 89098,89150,89124
 8.0000e-001 89343 -2.9566e+002 -9.6740e+000  2.8121e+001 49938 89072,89046,89317
 8.0000e-001 89366 -3.4103e+002 -8.4394e+001 -2.1822e+001 49938 89072,89317,89150
 8.0000e-001 89823 -2.6853e+002 -1.0633e+002 -1.6617e+001 49384 89601,89705,89679
 8.0000e-001 89800 -2.1307e+002 -7.4032e+001  4.2549e+001 49384 89549,89705,89601
 8.0000e-001 89777 -1.5361e+002 -3.9797e+001  2.1401e+001 49384 89549,89601,89575
 8.0000e-001 89754 -1.7570e+002 -9.0975e+001 -6.2559e+000 49384 89601,89679,89627
 8.0000e-001 89731 -1.0922e+002  8.9713e+000 -6.1262e+001 49384 89627,89679,89653
 8.0000e-001 90329 -1.3605e+002 -2.6534e+001 -2.7632e+001 48894 90058,90110,90084
 8.0000e-001 90306 -1.6544e+002 -3.4307e+001  4.7314e+001 48894 90058,90162,90110
 8.0000e-001 90283 -2.4244e+002 -4.3077e+001  2.1247e+001 48894 90032,90162,90058
 8.0000e-001 90260 -1.7182e+002  7.7951e-002 -2.5293e+001 48894 90006,90162,90032
 8.0000e-001 90237 -5.2848e+001 -1.1966e+001 -1.3839e+001 48894 90110,90162,90136
 8.0000e-001 90214 -2.0976e+002 -1.7515e+001 -2.0717e+001 48894 90006,90188,90162
 8.0000e-001 90884 -2.2568e+002 -5.2729e+001  3.0622e+001 48490 90564,90642,90616
 8.0000e-001 90861 -2.0989e+002 -3.8287e+000  4.2514e+000 48490 90564,90694,90642
 8.0000e-001 90838 -2.7051e+002 -1.7014e+001  1.5837e+001 48490 90538,90694,90564
 8.0000e-001 90815 -3.8507e+002 -6.7569e+001  3.4542e+001 48490 90538,90720,90694
 8.0000e-001 90792 -2.0619e+002 -2.6472e+001  1.1915e+001 48490 90564,90616,90590
 8.0000e-001 90769 -1.9935e+002 -4.5890e+000 -2.5975e+001 48490 90642,90694,90668
 8.0000e-001 90746 -3.2506e+002 -6.1266e+001  5.6695e+000 48490 90512,90720,90538
 8.0000e-001 91034 -2.0831e+002 -7.9874e+000 -5.4905e+001 48086 91057,90959,90933
 8.0000e-001 91011 -2.1869e+002 -2.9011e+001 -5.8289e+001 48086 91129,91057,90933
 8.0000e-001 91083 -2.1932e+002 -9.7097e+000 -5.5600e+001 48086 90985,90959,91057
 8.0000e-001 91106 -2.0086e+002 -8.3151e+000 -4.6935e+001 48086 90985,91057,90907
 8.0000e-001 91155 -1.6462e+002 -3.4720e+000 -5.0955e+001 48086 90907,91057,91129
 8.0000e-001 91791 -3.5995e+002 -1.0983e+002 -2.3001e+001 47518 92030,91814,91523
 8.0000e-001 91768 -2.8090e+002 -8.7782e+001 -2.8312e+001 47518 91958,91814,91471
 8.0000e-001 91745 -2.7279e+002  4.6437e+001 -9.9948e+000 47518 91886,91575,91523
 8.0000e-001 91722 -2.8590e+002 -1.3098e+002  5.3155e+000 47518 91958,91471,91419
 8.0000e-001 91699 -4.4239e+002 -2.3479e+001 -7.1412e+001 47518 92030,91523,91497
 8.0000e-001 91676 -3.9662e+002  7.8146e+001 -3.2440e+001 47518 91523,91575,91549
 8.0000e-001 91653 -2.6473e+002 -9.7457e+001 -4.2443e+000 47518 91419,91471,91445
 8.0000e-001 91840 -3.0512e+002 -1.9494e+001 -4.6667e+001 47518 91886,91523,91814
 8.0000e-001 91863 -3.5849e+002 -1.7376e+002  9.3737e+000 47518 91601,91814,91627
 8.0000e-001 91912 -2.3096e+002  7.6155e+001  8.0793e+001 47518 91601,91575,91886
 8.0000e-001 91935 -2.6994e+002 -6.4427e+001  4.8855e+001 47518 91601,91886,91814
 8.0000e-001 91984 -3.2079e+002 -1.2465e+002 -1.1279e+001 47518 91627,91814,91958
 8.0000e-001 92007 -3.0350e+002 -1.4868e+002  1.7366e+001 47518 91627,91958,91419
 8.0000e-001 92056 -4.0392e+002 -1.9706e+002 -8.5005e+001 47518 91471,91814,92030
 8.0000e-001 92079 -4.7904e+002 -1.4611e+002 -1.4060e+002 47518 91471,92030,91497
 8.0000e-001 92229 -3.2757e+002 -1.6027e+002 -5.6520e+001 47128 92252,92128,92102
 8.0000e-001 92206 -3.6920e+002 -2.3159e+002 -3.9117e+001 47128 92324,92252,92102
 8.0000e-001 92278 -3.6694e+002 -2.6807e+002 -6.1747e+001 47128 92454,92252,92154
 8.0000e-001 92301 -3.4743e+002 -1.4757e+002 -4.6934e+001 47128 92154,92252,92180
 8.0000e-001 92350 -2.7722e+002 -1.1127e+002  2.4873e+000 47128 92180,92252,92324
 8.0000e-001 92480 -2.9511e+002 -1.3544e+002 -2.3072e+001 47128 92128,92252,92454
 8.0000e-001 93340 -3.3318e+002 -7.4246e+000  4.8187e+001 46838 93363,92977,92873
 8.0000e-001 93317 -4.6498e+002 -5.4495e+001  9.8218e+000 46838 93507,93363,92873
 8.0000e-001 93294 -3.7365e+002 -1.0742e+002 -9.5677e+000 46838 93435,93003,92977
 8.0000e-001 93271 -5.2267e+002 -1.1302e+002 -1.7588e+001 46838 93507,92873,92847
 8.0000e-001 93248 -3.6999e+002 -1.0268e+002 -2.3106e+001 46838 93579,93029,93003
 8.0000e-001 93225 -2.6600e+002 -5.8375e+001  3.8909e+000 46838 92873,92951,92925
 8.0000e-001 93202 -2.5945e+002 -6.2542e+001  1.3245e+001 46838 92873,92977,92951
 8.0000e-001 93179 -4.9124e+002 -1.5001e+002  3.8861e+001 46838 93055,93107,93081
 8.0000e-001 93156 -7.3025e+002 -2.9032e+002 -2.5039e+001 46838 92821,93107,92847
 8.0000e-001 93133 -2.5177e+002 -9.1564e+001  2.7898e+001 46838 92873,92925,92899
 8.0000e-001 93389 -4.1322e+002 -9.8526e+001 -4.0311e+000 46838 93435,92977,93363
 8.0000e-001 93412 -3.7613e+002 -5.1540e+001 -5.5779e+000 46838 93055,93363,93107
 8.0000e-001 93461 -3.6365e+002 -9.8250e+001 -1.7847e+001 46838 93579,93003,93435
 8.0000e-001 93484 -3.8076e+002 -5.5214e+001 -1.8266e+001 46838 93055,93435,93363
 8.0000e-001 93533 -4.0806e+002 -1.4711e+002  3.0223e+000 46838 93107,93363,93507
 8.0000e-001 93556 -4.1549e+002 -1.6895e+002 -3.0424e+000 46838 93107,93507,92847
 8.0000e-001 93605 -3.8350e+002 -1.0477e+002 -3.1808e+001 46838 93055,93029,93579
 8.0000e-001 93628 -3.7700e+002 -1.0117e+002 -2.6798e+001 46838 93055,93579,93435
 8.0000e-001 93979 -3.8559e+002  8.8549e+001  4.7461e+001 46476 93780,93884,93858
 8.0000e-001 93956 -4.4850e+002 -1.9469e+001  2.1716e+001 46476 93754,93884,93780
 8.0000e-001 93933 -8.7133e+002 -3.2061e+001 -1.1722e+000 46476 93806,93858,93832
 8.0000e-001 93910 -8.4956e+002 -1.0378e+002  5.7976e+001 46476 93780,93858,93806
 8.0000e-001 94515 -2.9622e+002 -1.0326e+002  5.1065e+000 46072 94345,94397,94371
 8.0000e-001 94492 -2.0827e+002 -6.8296e+001  1.8370e+001 46072 94267,94397,94345
 8.0000e-001 94469 -1.9586e+002 -1.1566e+001  1.7336e+001 46072 94241,94397,94267
 8.0000e-001 94446 -1.4996e+002 -4.9730e+001 -1.7287e+001 46072 94293,94345,94319
 8.0000e-001 94423 -2.0033e+002 -2.4714e+001  2.2214e+001 46072 94267,94345,94293
 8.0000e-001 95149 -2.3368e+002 -6.4074e+001 -1.6500e+001 45346 94803,94881,94855
 8.0000e-001 95126 -2.4241e+002 -5.2959e+001 -2.2925e+001 45346 94803,94959,94881
 8.0000e-001 95103 -1.9265e+002 -2.7830e+001 -1.0639e+001 45346 95172,94933,94907
 8.0000e-001 95080 -2.1548e+002 -3.1375e+001 -5.3728e-001 45346 95172,94907,94881
 8.0000e-001 95057 -2.0289e+002 -1.2427e+002 -6.1007e+001 45346 94803,94985,94959
 8.0000e-001 95034 -2.4908e+002 -3.0627e+001 -8.7274e-001 45346 94803,94855,94829
 8.0000e-001 95011 -2.4558e+002 -2.7080e+002 -2.0843e+002 45346 94777,94985,94803
 8.0000e-001 95198 -2.1404e+002 -2.3442e+001 -1.1836e+001 45346 94959,94933,95172
 8.0000e-001 95221 -2.3070e+002 -2.0175e+001 -6.5607e+000 45346 94959,95172,94881
 8.0000e-001 95776 -1.9445e+002 -2.5081e+001  9.2822e+001 44720 95799,95560,95534
 8.0000e-001 95753 -2.4230e+002 -2.0294e+001  1.0238e+002 44720 95799,95534,95482
 8.0000e-001 95730 -2.8561e+002 -3.0230e+001  9.9984e+001 44720 95943,95871,95430
 8.0000e-001 95707 -2.9381e+002 -2.0520e+001  1.0053e+002 44720 95943,95430,95404
 8.0000e-001 95684 -4.4560e+002 -1.0923e+002  1.1487e+002 44720 95430,95482,95456
 8.0000e-001 95661 -1.6104e+002 -3.1339e+001  8.2067e+000 44720 95482,95534,95508
 8.0000e-001 95638 -2.6668e+002 -2.1471e+001  1.0634e+002 44720 95404,95612,95586
 8.0000e-001 95825 -2.4244e+002 -1.8126e+001  9.2995e+001 44720 95586,95560,95799
 8.0000e-001 95848 -2.5009e+002 -1.8544e+001  1.0370e+002 44720 95871,95586,95799
 8.0000e-001 95897 -2.8023e+002 -3.9896e+001  8.1450e+001 44720 95482,95430,95871
 8.0000e-001 95920 -2.7422e+002 -2.0817e+001  8.6102e+001 44720 95482,95871,95799
 8.0000e-001 95969 -2.6876e+002 -2.1464e+001  9.2482e+001 44720 95586,95871,95943
 8.0000e-001 95992 -2.8437e+002 -1.9027e+001  9.4647e+001 44720 95586,95943,95404
 8.0000e-001 96449 -2.7212e+002 -2.9999e+001  4.6702e+000 44202 96544,96472,96227
 8.0000e-001 96426 -3.1620e+002 -2.0198e+002  2.8386e+001 44202 96472,96175,96331
 8.0000e-001 96403 -3.5906e+002  5.0201e+001 -1.4274e+001 44202 96544,96227,96201
 8.0000e-001 96380 -1.2216e+002 -3.2145e+001 -1.4008e+001 44202 96253,96305,96279
 8.0000e-001 96357 -2.0737e+002 -2.5954e+001  3.5968e+001 44202 96227,96305,96253
 8.0000e-001 96498 -2.9870e+002 -1.3057e+002 -5.6879e+000 44202 96305,96227,96472
 8.0000e-001 96521 -2.8316e+002 -1.1487e+002  1.2524e+001 44202 96305,96472,96331
 8.0000e-001 96570 -3.3579e+002 -1.8108e+002 -3.5125e+001 44202 96175,96472,96544
 8.0000e-001 96593 -3.7413e+002 -3.9198e+001 -4.3241e+001 44202 96175,96544,96201
 8.0000e-001 96971 -2.3400e+002 -1.2071e+002  1.8719e+000 43754 96994,96749,96697
 8.0000e-001 96948 -2.5127e+002 -1.3262e+002  7.1465e+000 43754 96994,96697,96853
 8.0000e-001 96925 -2.2079e+002 -1.3228e+002 -6.4367e+000 43754 96697,96749,96723
 8.0000e-001 96902 -2.3912e+002 -7.2796e+001 -2.6721e+001 43754 96775,96853,96827
 8.0000e-001 96879 -1.9429e+002 -7.0630e+001 -2.0636e+001 43754 96775,96827,96801
 8.0000e-001 97020 -2.3523e+002 -9.5595e+001 -2.1894e+001 43754 96775,96749,96994
 8.0000e-001 97043 -2.6706e+002 -1.1752e+002 -1.2302e+001 43754 96775,96994,96853
 8.0000e-001 97291 -2.5334e+002 -3.2237e+001 -2.7874e+001 43364 97314,97144,97118
 8.0000e-001 97268 -2.5251e+002 -6.0215e+001 -4.0326e+001 43364 97314,97118,97092
 8.0000e-001 97245 -2.4021e+002 -7.0193e+001 -2.5645e+001 43364 97386,97196,97170
 8.0000e-001 97222 -2.7470e+002 -1.3197e+002 -4.7059e+001 43364 97066,97196,97092
 8.0000e-001 97340 -2.6702e+002 -6.5536e+001 -2.1118e+001 43364 97170,97144,97314
 8.0000e-001 97363 -2.4218e+002 -5.9481e+001 -3.3680e+001 43364 97386,97170,97314
 8.0000e-001 97412 -2.4567e+002 -8.2903e+001 -2.5889e+001 43364 97092,97196,97386
 8.0000e-001 97435 -2.5115e+002 -7.9823e+001 -3.5117e+001 43364 97092,97386,97314
 8.0000e-001 97788 -2.4785e+002 -2.6389e+001 -1.6976e+001 42960 97563,97667,97589
 8.0000e-001 97765 -3.9735e+002 -1.6699e+002  4.1105e+001 42960 97563,97693,97667
 8.0000e-001 97742 -5.2701e+002  1.0870e+001 -1.0642e+001 42960 97589,97641,97615
 8.0000e-001 97719 -5.1264e+002 -9.6327e+001 -2.5340e+001 42960 97589,97667,97641
 8.0000e-001 98215 -1.8384e+002 -4.6586e+001 -8.1272e+001 42563 97918,98074,98048
 8.0000e-001 98192 -9.9988e+001  1.2956e+001 -5.1743e+001 42563 97892,98074,97918
 8.0000e-001 98169 -1.9458e+002 -7.8831e+000 -8.9711e+001 42563 98238,97944,97918
 8.0000e-001 98146 -2.2914e+002 -8.7428e+001 -6.4160e+001 42563 98238,97918,98048
 8.0000e-001 98123 -2.0715e+002 -5.1414e+001 -5.8254e+001 42563 97944,98022,97996
 8.0000e-001 98100 -1.9780e+002 -3.0206e+000 -1.8932e+001 42563 97944,97996,97970
 8.0000e-001 98264 -2.2432e+002 -6.2616e+001 -5.0109e+001 42563 98022,97944,98238
 8.0000e-001 98287 -2.3298e+002 -9.2488e+001 -2.6009e+001 42563 98022,98238,98048
 8.0000e-001 98616 -2.4338e+002 -1.2077e+002 -1.0050e+001 42251 98443,98521,98469
 8.0000e-001 98593 -2.7452e+002 -1.0015e+002  1.2902e+001 42251 98417,98521,98443
 8.0000e-001 98570 -2.6666e+002 -8.8385e+001 -4.7167e+001 42251 98391,98521,98417
 8.0000e-001 98547 -2.4383e+002 -9.0299e+001 -5.9029e+001 42251 98469,98521,98495
 8.0000e-001 98886 -5.3673e+002 -1.3225e+002 -2.6942e+001 41847 98661,98765,98687
 8.0000e-001 98863 -5.7798e+002 -5.6075e+001 -8.6292e+001 41847 98661,98791,98765
 8.0000e-001 98840 -4.8375e+002 -1.3339e+002 -4.4432e+000 41847 98687,98765,98739
 8.0000e-001 98817 -5.0188e+002 -1.4501e+002  2.2734e+000 41847 98687,98739,98713
 8.0000e-001 99394 -2.4497e+002 -2.3666e+001  4.7118e+001 41236 99417,99149,99123
 8.0000e-001 99371 -3.5089e+002 -6.8249e+001  3.6474e+001 41236 99417,99123,99097
 8.0000e-001 99348 -2.8228e+002 -7.5467e+001 -3.3364e+000 41236 99489,99201,99149
 8.0000e-001 99325 -2.7696e+002 -9.0363e+001 -3.2595e+001 41236 99149,99201,99175
 8.0000e-001 99302 -4.3151e+002 -6.5407e+001 -1.3253e+001 41236 99097,99253,99227
 8.0000e-001 99279 -6.1938e+002 -1.9385e+002 -7.0198e+001 41236 99071,99253,99097
 8.0000e-001 99443 -2.8772e+002 -6.9800e+001 -3.3613e+000 41236 99489,99149,99417
 8.0000e-001 99466 -3.0774e+002 -5.8360e+001 -4.5112e+000 41236 99227,99417,99097
 8.0000e-001 99515 -2.8255e+002 -6.9550e+001 -7.0301e+000 41236 99227,99201,99489
 8.0000e-001 99538 -2.8345e+002 -5.9697e+001 -8.3361e+000 41236 99227,99489,99417
 8.0000e-001 100044 -1.7339e+002 -9.2842e+001  6.5192e+001 40732 99721,99773,99747
 8.0000e-001 100021 -2.5105e+002 -5.7495e+001  2.5282e+001 40732 99721,99799,99773
 8.0000e-001 99998 -2.4803e+002 -5.0805e+001  2.4062e+001 40732 99721,99903,99799
 8.0000e-001 99975 -2.7124e+002 -5.1713e+001 -4.0655e+001 40732 100067,99877,99851
 8.0000e-001 99952 -2.7971e+002 -1.2858e+002 -4.4070e+001 40732 100067,99851,99799
 8.0000e-001 99929 -3.6464e+002 -1.1978e+002 -9.6234e+001 40732 99799,99851,99825
 8.0000e-001 100093 -2.8933e+002  1.4616e+001 -1.1271e+001 40732 99903,99877,100067
 8.0000e-001 100116 -3.0816e+002 -8.1734e+001 -7.5228e+000 40732 99903,100067,99799
 8.0000e-001 100622 -3.3851e+002 -2.4471e+001  5.5401e+001 40278 100645,100455,100429
 8.0000e-001 100599 -3.9493e+002 -5.1644e+001  6.8139e+001 40278 100717,100645,100429
 8.0000e-001 100576 -4.6044e+002 -8.0167e+001  2.6679e+001 40278 100717,100429,100377
 8.0000e-001 100553 -3.0242e+002 -1.0031e+002  3.6938e+001 40278 100789,100325,100481
 8.0000e-001 100530 -2.8207e+002 -4.7850e+001  5.6356e+001 40278 100299,100481,100325
 8.0000e-001 100507 -3.7235e+002 -8.0763e+001  2.3321e+001 40278 100377,100429,100403
 8.0000e-001 100671 -3.5886e+002 -2.4518e+000  6.0365e+001 40278 100481,100455,100645
 8.0000e-001 100694 -3.3471e+002 -6.8343e+001  2.9243e+000 40278 100789,100481,100645
 8.0000e-001 100743 -4.2554e+002 -6.3119e+001 -5.3614e+001 40278 100351,100645,100717
 8.0000e-001 100766 -5.8057e+002 -1.2383e+002 -9.2344e+001 40278 100351,100717,100377
 8.0000e-001 100815 -2.6852e+002 -8.5195e+001  5.2403e+000 40278 100351,100325,100789
 8.0000e-001 100838 -2.7606e+002 -2.3848e+001 -3.1707e+001 40278 100351,100789,100645
 8.0000e-001 101265 -3.5365e+002 -1.2222e+002  2.8606e+000 39824 101288,101046,100994
 8.0000e-001 101242 -3.7216e+002 -1.4439e+002 -5.6373e+000 39824 101288,100994,100968
 8.0000e-001 101219 -4.4768e+002 -1.1760e+002  2.0881e+001 39824 100942,101124,100968
 8.0000e-001 101196 -3.1637e+002 -4.5025e+001  1.3860e+001 39824 101046,101124,101072
 8.0000e-001 101173 -3.5232e+002 -1.6219e+002 -6.9861e+001 39824 100994,101046,101020
 8.0000e-001 101150 -2.1621e+002 -5.1659e+001  1.9805e+001 39824 101072,101124,101098
 8.0000e-001 101314 -3.4506e+002 -1.3445e+002  1.2323e+001 39824 101124,101046,101288
 8.0000e-001 101337 -3.5319e+002 -1.4095e+002  7.6584e+000 39824 101124,101288,100968
 8.0000e-001 101585 -1.6352e+002 -9.2449e+001  2.6413e+001 39070 101608,101464,101412
 8.0000e-001 101562 -1.6181e+002 -8.3410e+001  2.5943e+001 39070 101608,101412,101360
 8.0000e-001 101539 -1.3714e+002 -9.2855e+001  1.9188e+001 39070 101412,101464,101438
 8.0000e-001 101516 -2.0079e+002 -1.1107e+002  4.5715e+001 39070 101360,101412,101386
 8.0000e-001 101634 -1.6670e+002 -8.9528e+001  2.0351e+001 39070 101490,101464,101608
 8.0000e-001 101657 -1.6292e+002 -7.7294e+001  1.9877e+001 39070 101490,101608,101360
 8.0000e-001 101856 -3.7362e+002  4.2273e+001 -1.7863e+001 38730 101706,101758,101732
 8.0000e-001 101833 -3.4636e+002  1.4936e+001 -9.5667e+000 38730 101706,101784,101758
 8.0000e-001 101810 -2.7535e+002 -3.2557e+001 -8.8723e+001 38730 101680,101784,101706
 8.0000e-001 102106 -3.2892e+002 -9.3654e+001  2.3472e+001 38326 101881,101959,101907
 8.0000e-001 102083 -3.6416e+002 -1.1846e+002  6.2023e+001 38326 101881,101985,101959
 8.0000e-001 102060 -2.4778e+002 -8.4077e+001  5.2376e+001 38326 101881,102011,101985
 8.0000e-001 102037 -4.4555e+002 -6.3761e+001 -7.7263e+000 38326 101907,101959,101933
 8.0000e-001 102258 -1.1072e+002  1.6092e+000  5.8019e+000 38036 102281,102157,102131
 8.0000e-001 102235 -1.2333e+002  2.5543e+001 -7.0654e+000 38036 102281,102131,102209
 8.0000e-001 102307 -1.1371e+002 -1.7242e+001  1.5897e+000 38036 102183,102157,102281
 8.0000e-001 102330 -1.3538e+002 -5.4493e+000 -1.5945e+001 38036 102183,102281,102209
 8.0000e-001 102663 -2.2811e+002 -5.5718e+001  4.3254e+001 37596 102438,102542,102464
 8.0000e-001 102640 -1.5419e+002 -3.7785e+001  1.6538e+001 37596 102438,102568,102542
 8.0000e-001 102617 -2.1564e+002 -2.2369e+001  7.6467e+001 37596 102490,102542,102516
 8.0000e-001 102594 -2.0106e+002 -4.1004e+001  5.3981e+001 37596 102464,102542,102490
 8.0000e-001 102862 -2.4086e+002  4.6561e+001 -6.0127e+000 37192 102686,102764,102712
 8.0000e-001 102839 -2.5515e+002  2.9979e+001  5.9818e+000 37192 102686,102790,102764
 8.0000e-001 102816 -2.3279e+002 -5.5544e+001  4.0771e+001 37192 102712,102764,102738
 8.0000e-001 103110 -2.8286e+002 -7.0396e+001 -1.0444e+001 36609 102911,102963,102937
 8.0000e-001 103087 -2.6028e+002 -5.8597e+001 -1.4379e+001 36609 102911,102989,102963
 8.0000e-001 103064 -2.9483e+002 -8.9101e+001 -2.8263e+001 36609 102885,102989,102911
 8.0000e-001 103041 -3.0292e+002 -2.9186e+001 -6.4058e+001 36609 102885,103015,102989
 8.0000e-001 103718 -1.1267e+002  1.5382e+000  1.6959e+001 36131 103323,103375,103349
 8.0000e-001 103695 -2.6800e+002 -5.4450e+000  3.3223e+001 36131 103297,103375,103323
 8.0000e-001 103672 -3.0340e+002 -1.4241e+002 -3.0052e+001 36131 103297,103505,103375
 8.0000e-001 103649 -2.7189e+002 -1.0787e+002 -6.8339e+000 36131 103741,103479,103401
 8.0000e-001 103626 -2.6095e+002 -8.3074e+001  3.2129e+000 36131 103741,103401,103375
 8.0000e-001 103603 -3.0414e+002 -7.0244e+001 -1.6944e+001 36131 103401,103479,103427
 8.0000e-001 103580 -3.6113e+002 -1.2081e+002 -6.4347e+001 36131 103297,103531,103505
 8.0000e-001 103557 -2.7057e+002 -3.2827e+000 -3.3323e+001 36131 103427,103479,103453
 8.0000e-001 103767 -2.7739e+002 -1.2746e+002 -2.4927e+001 36131 103505,103479,103741
 8.0000e-001 103790 -2.6579e+002 -1.0454e+002 -1.4333e+001 36131 103505,103741,103375
 8.0000e-001 103989 -4.8184e+002 -1.3134e+002  1.1370e+001 35791 103839,103917,103891
 8.0000e-001 103966 -4.6893e+002 -1.6932e+002  5.4810e+000 35791 103813,103917,103839
 8.0000e-001 103943 -4.0717e+002 -3.2544e+001 -4.3293e+001 35791 103839,103891,103865
 8.0000e-001 104188 -1.6575e+002 -5.0129e+001 -4.8321e+001 35444 104038,104090,104064
 8.0000e-001 104165 -1.7611e+002 -2.6425e+000  3.2192e+001 35444 104038,104116,104090
 8.0000e-001 104142 -2.0052e+002  4.3456e+001  3.0535e+001 35444 104012,104116,104038
 8.0000e-001 104487 -3.2566e+002 -8.0266e+001 -4.0069e+001 34990 104265,104317,104291
 8.0000e-001 104464 -2.7452e+002 -7.5867e+001 -1.9170e+001 34990 104510,104317,104265
 8.0000e-001 104441 -2.0009e+002 -7.2822e+000  9.4627e+000 34990 104510,104265,104213
 8.0000e-001 104418 -2.9419e+002  4.9282e+000  2.2665e+001 34990 104582,104343,104317
 8.0000e-001 104395 -1.7228e+002  4.0988e+001 -3.8448e+001 34990 104213,104265,104239
 8.0000e-001 104536 -2.9569e+002  4.8529e+000  1.5358e+000 34990 104582,104317,104510
 8.0000e-001 104559 -2.6421e+002  1.5936e+001  2.0724e+001 34990 104369,104510,104213
 8.0000e-001 104608 -2.3543e+002  6.9974e+001  4.9677e+001 34990 104369,104343,104582
 8.0000e-001 104631 -2.7432e+002  1.4265e+001  1.8227e+001 34990 104369,104582,104510
 8.0000e-001 104783 -2.9749e+002 -7.7141e+001 -2.1716e+001 34700 104938,104806,104682
 8.0000e-001 104760 -3.0022e+002 -6.4877e+001 -3.1223e+001 34700 104938,104682,104656
 8.0000e-001 104832 -2.0782e+002 -1.8729e+001  6.7441e+000 34700 104708,104682,104806
 8.0000e-001 104964 -2.8524e+002 -7.5827e+001 -3.0483e+001 34700 104734,104806,104938
 8.0000e-001 104987 -2.8827e+002 -6.5721e+001 -3.9875e+001 34700 104734,104938,104656
 8.0000e-001 105137 -3.2637e+002  7.6974e+000 -1.1161e+001 34388 105036,105088,105062
 8.0000e-001 105114 -3.3901e+002 -3.8263e+001 -2.1881e+001 34388 105010,105088,105036
 8.0000e-001 105385 -3.4914e+002 -6.6254e+001  3.5653e+001 33734 105408,105186,105160
 8.0000e-001 105362 -3.4307e+002 -6.9226e+001  3.0324e+001 33734 105408,105160,105264
 8.0000e-001 105339 -3.8476e+002  3.3844e+001 -4.7108e+000 33734 105160,105290,105264
 8.0000e-001 105316 -3.2972e+002 -8.8666e+001  8.6819e+001 33734 105186,105238,105212
 8.0000e-001 105434 -3.4311e+002 -6.7606e+001  3.3517e+001 33734 105238,105186,105408
 8.0000e-001 105457 -3.2748e+002 -6.2913e+001  2.7008e+001 33734 105238,105408,105264
 8.0000e-001 105609 -1.1231e+002 -5.4552e+000 -2.3172e+001 33394 105482,105534,105508
 8.0000e-001 105586 -1.0784e+002  2.1851e+001 -4.3895e+001 33394 105482,105560,105534
 8.0000e-001 105859 -4.3819e+002 -5.3992e+001 -6.2679e+001 33047 105882,105712,105660
 8.0000e-001 105836 -4.8747e+002 -5.5030e+001 -3.3862e+001 33047 105882,105660,105634
 8.0000e-001 105813 -3.1144e+002 -7.9770e+001  6.3601e+000 33047 105660,105712,105686
 8.0000e-001 105790 -3.2021e+002 -1.9851e+001 -9.5076e+001 33047 105634,105764,105738
 8.0000e-001 105908 -3.2098e+002 -9.6418e+000 -1.0638e+002 33047 105738,105712,105882
 8.0000e-001 105931 -4.4247e+002 -6.4918e+001 -7.0009e+001 33047 105738,105882,105634
 8.0000e-001 106181 -3.1743e+002 -1.1002e+002  2.5648e+001 32543 106204,106060,106008
 8.0000e-001 106158 -2.9418e+002 -1.2982e+002  2.3234e+001 32543 105956,106086,106060
 8.0000e-001 106135 -3.0656e+002 -8.8914e+001  1.9658e+001 32543 106204,106008,105982
 8.0000e-001 106112 -3.2268e+002 -1.6837e+002  1.5895e+001 32543 106008,106060,106034
 8.0000e-001 106230 -3.0774e+002 -1.1781e+002  1.0423e+001 32543 105956,106060,106204
 8.0000e-001 106253 -2.9472e+002 -9.6933e+001  3.8812e+000 32543 105956,106204,105982
 8.0000e-001 106454 -3.1630e+002 -1.1813e+002 -5.9475e+001 31839 106304,106356,106330
 8.0000e-001 106431 -3.3273e+002 -7.8187e+001  2.6423e+001 31839 106278,106356,106304
 8.0000e-001 106408 -2.1584e+002 -4.6970e+001  1.2840e+000 31839 106278,106382,106356
 8.0000e-001 106704 -2.1598e+002 -3.9743e+001 -6.9740e-001 31534 106505,106583,106557
 8.0000e-001 106681 -2.2029e+002 -3.5662e+001  5.8849e+000 31534 106479,106583,106505
 8.0000e-001 106658 -2.4527e+002 -4.3569e+001  3.2857e+000 31534 106505,106557,106531
 8.0000e-001 106635 -2.1911e+002 -4.5469e+001  2.4791e+001 31534 106479,106609,106583
 8.0000e-001 107108 -5.5170e+002 -4.7565e+001 -8.5912e+001 31030 106886,106990,106964
 8.0000e-001 107085 -4.3409e+002 -1.3708e+002 -2.0446e+001 31030 106860,106990,106886
 8.0000e-001 107062 -4.1595e+002 -1.1953e+002 -4.5152e+000 31030 106834,106990,106860
 8.0000e-001 107039 -7.4843e+002 -2.6097e+002  4.8130e+001 31030 106912,106964,106938
 8.0000e-001 107016 -8.1678e+002 -1.5669e+002 -8.3471e+001 31030 106886,106964,106912
 8.0000e-001 107307 -3.4104e+002  1.7628e+001 -1.3555e+000 30718 107330,107157,107131
 8.0000e-001 107284 -2.8925e+002  1.0223e+001 -1.5723e+001 30718 107330,107131,107235
 8.0000e-001 107261 -2.2783e+002 -2.4237e+000  2.6052e+001 30718 107183,107235,107209
 8.0000e-001 107356 -2.8928e+002  2.5708e+000  1.1896e+001 30718 107183,107157,107330
 8.0000e-001 107379 -2.3961e+002 -5.6080e+000 -6.8029e+000 30718 107183,107330,107235
 8.0000e-001 107759 -1.3999e+002 -5.5799e+001  2.8763e+001 30264 107782,107615,107537
 8.0000e-001 107736 -1.3551e+002 -4.5306e+001  2.6229e+001 30264 107782,107537,107485
 8.0000e-001 107713 -1.9534e+002 -2.7822e+001  3.2951e+001 30264 107485,107537,107511
 8.0000e-001 107690 -1.1833e+002 -1.2109e+001  4.6457e+001 30264 107537,107615,107589
 8.0000e-001 107667 -9.3445e+001 -2.4374e+001  3.7438e+001 30264 107537,107589,107563
 8.0000e-001 107808 -1.3952e+002 -5.2589e+001  2.0944e+001 30264 107641,107615,107782
 8.0000e-001 107831 -1.3577e+002 -4.1420e+001  1.8989e+001 30264 107641,107782,107485
 8.0000e-001 108030 -3.0705e+002 -7.1630e+001  3.3071e+001 29874 108053,107854,107932
 8.0000e-001 108007 -2.3539e+002 -5.8928e+001  3.3931e+001 29874 107854,107958,107932
 8.0000e-001 107984 -3.5128e+002 -4.5215e+001  6.8105e+001 29874 108053,107932,107906
 8.0000e-001 108079 -2.9183e+002 -3.5972e+001  2.7886e+001 29874 107880,107854,108053
 8.0000e-001 108102 -3.2189e+002  8.6845e+000  5.3259e+001 29874 107880,108053,107906
 8.0000e-001 108433 -1.5833e+002 -6.1202e+001 -2.0561e+001 29484 108234,108338,108312
 8.0000e-001 108410 -2.7332e+002 -6.5847e+001  4.5401e+001 29484 108208,108338,108234
 8.0000e-001 108387 -2.6806e+002 -7.5739e+001 -2.9925e+001 29484 108234,108312,108260
 8.0000e-001 108364 -2.1268e+002 -7.9389e+001 -2.1320e+001 29484 108260,108312,108286
 8.0000e-001 108762 -2.1462e+002 -1.0552e+002  8.0098e+000 29080 108563,108641,108589
 8.0000e-001 108739 -1.8014e+002 -9.0869e+001  4.5096e+001 29080 108537,108641,108563
 8.0000e-001 108716 -3.0813e+002 -4.8026e+001  8.1705e+001 29080 108589,108641,108615
 8.0000e-001 108693 -1.1276e+002 -7.9541e+001 -1.8228e+001 29080 108537,108667,108641
 8.0000e-001 109189 -3.1898e+002 -7.9145e+001  1.0600e+001 28476 108892,108996,108970
 8.0000e-001 109166 -4.1671e+002 -9.1340e+001  2.0668e+001 28476 108892,109022,108996
 8.0000e-001 109143 -3.4848e+002 -1.1729e+002  2.3800e+001 28476 108892,108970,108944
 8.0000e-001 109120 -4.6153e+002 -9.6950e+001  2.3452e+001 28476 108892,109048,109022
 8.0000e-001 109097 -3.5909e+002 -1.3642e+002  1.8993e+001 28476 108892,108944,108918
 8.0000e-001 109074 -5.8424e+002 -5.6812e+001 -6.1987e+001 28476 108866,109048,108892
 8.0000e-001 109518 -2.5848e+002 -6.5810e+001  4.1168e+001 28022 109541,109371,109345
 8.0000e-001 109495 -2.8741e+002 -4.0057e+001  2.4494e+000 28022 109541,109345,109319
 8.0000e-001 109472 -2.4636e+002 -5.8294e+001 -1.4017e+001 28022 109293,109397,109319
 8.0000e-001 109449 -2.5975e+002 -7.9091e+001  7.0261e+000 28022 109293,109423,109397
 8.0000e-001 109567 -1.4235e+002 -2.0720e+001  5.5049e+001 28022 109397,109371,109541
 8.0000e-001 109590 -2.5122e+002 -4.5751e+001  1.5675e+001 28022 109397,109541,109319
 8.0000e-001 109968 -2.6023e+002 -1.6547e+002 -1.4111e+001 27568 109798,109850,109824
 8.0000e-001 109945 -2.5275e+002 -7.7880e+001 -3.2868e+001 27568 109694,109850,109798
 8.0000e-001 109922 -2.7661e+002 -1.6271e+002 -6.4285e+000 27568 109694,109798,109746
 8.0000e-001 109899 -2.3868e+002 -1.3059e+002  9.2248e+001 27568 109746,109798,109772
 8.0000e-001 109876 -1.9595e+002 -1.4335e+001  3.3550e+001 27568 109694,109746,109720
 8.0000e-001 110167 -2.6184e+002 -4.8483e+001 -1.5138e+001 27007 110017,110095,110069
 8.0000e-001 110144 -2.3350e+002 -3.5617e+001  3.1238e+000 27007 109991,110095,110017
 8.0000e-001 110121 -2.6122e+002 -9.1861e+000  3.6009e+001 27007 110017,110069,110043
 8.0000e-001 110415 -1.8831e+002 -8.8626e+001  1.3263e+001 26567 110438,110242,110190
 8.0000e-001 110392 -2.3515e+002  4.2127e+000 -2.0053e+001 26567 110438,110190,110320
 8.0000e-001 110369 -2.5301e+002 -8.7614e+001  1.0831e+001 26567 110242,110294,110268
 8.0000e-001 110346 -1.6331e+002 -2.8981e+001  1.4067e+001 26567 110190,110242,110216
 8.0000e-001 110464 -2.1338e+002 -1.0642e+002 -1.7855e+000 26567 110294,110242,110438
 8.0000e-001 110487 -2.8537e+002 -8.1457e+001 -5.0294e+001 26567 110294,110438,110320
 8.0000e-001 110639 -3.9830e+002  2.0313e+001 -5.5233e+001 26170 110538,110590,110564
 8.0000e-001 110616 -3.1467e+002 -4.6941e+001 -1.6340e+000 26170 110512,110590,110538
 8.0000e-001 111149 -2.3784e+002 -2.4935e+001  5.8511e+001 25716 111172,110878,110852
 8.0000e-001 111126 -1.7374e+002 -1.1561e+001  5.3888e+001 25716 111172,110852,111008
 8.0000e-001 111103 -2.3228e+002 -4.9110e+001  1.0034e+002 25716 110878,110930,110904
 8.0000e-001 111080 -1.7568e+002 -1.9196e+001  4.4182e+001 25716 110826,111008,110852
 8.0000e-001 111057 -1.0365e+002 -6.7285e+001  2.3103e+001 25716 110930,111008,110956
 8.0000e-001 111034 -1.1244e+002 -6.7041e+001  2.0168e+001 25716 110956,111008,110982
 8.0000e-001 111198 -1.8227e+002 -5.7693e+001  7.8667e+001 25716 110930,110878,111172
 8.0000e-001 111221 -1.0512e+002 -3.5194e+001  7.3966e+001 25716 110930,111172,111008
 8.0000e-001 111420 -3.2711e+002 -4.0794e+001  6.7996e+000 25304 111443,111270,111244
 8.0000e-001 111397 -3.3982e+002  1.8986e+001  4.7791e+000 25304 111443,111244,111348
 8.0000e-001 111374 -3.4851e+002 -1.0217e+002 -1.9286e+001 25304 111270,111322,111296
 8.0000e-001 111469 -3.3009e+002 -8.2341e+001  4.0807e+000 25304 111322,111270,111443
 8.0000e-001 111492 -3.5235e+002 -3.4555e+001 -3.2103e+000 25304 111322,111443,111348
 8.0000e-001 111691 -2.5900e+002 -9.4653e+001 -1.8299e+001 24736 111567,111619,111593
 8.0000e-001 111668 -2.5800e+002 -5.9765e+001 -3.3256e+001 24736 111541,111619,111567
 8.0000e-001 111645 -2.5674e+002 -1.8434e+001 -9.3030e+000 24736 111515,111619,111541
 8.0000e-001 112024 -7.4070e+001 -9.3811e+000  2.5296e+001 24146 111825,111877,111851
 8.0000e-001 112001 -5.2555e+001  5.2025e+001  2.6716e+001 24146 111825,111903,111877
 8.0000e-001 111978 -8.5648e+001 -4.0164e+001  4.0712e+001 24146 111825,111929,111903
 8.0000e-001 111955 -1.4744e+002 -4.7383e+001  4.5134e+001 24146 111799,111929,111825
 8.0000e-001 112370 -2.9486e+002 -1.2553e+002  3.9659e+001 23856 112393,112151,112125
 8.0000e-001 112347 -2.6412e+002 -7.9369e+001  5.4621e+001 23856 112465,112393,112125
 8.0000e-001 112324 -2.6369e+002 -5.5526e+001  6.7635e+001 23856 112465,112125,112073
 8.0000e-001 112301 -3.3250e+002 -8.8063e+001  9.0026e+001 23856 112073,112125,112099
 8.0000e-001 112278 -3.0367e+002 -1.2593e+002  1.5233e+000 23856 112047,112229,112073
 8.0000e-001 112255 -2.7472e+002 -1.2522e+002 -1.6980e+001 23856 112151,112203,112177
 8.0000e-001 112419 -2.9970e+002 -1.0918e+002  1.7823e+001 23856 112203,112151,112393
 8.0000e-001 112442 -2.9431e+002 -1.4068e+002  9.7279e+000 23856 112203,112393,112229
 8.0000e-001 112491 -2.8949e+002 -1.0805e+002  3.4716e+000 23856 112229,112393,112465
 8.0000e-001 112514 -2.7083e+002 -4.9017e+001  1.6645e+001 23856 112229,112465,112073
 8.0000e-001 112784 -4.8193e+002  1.8581e+002 -8.0989e+001 23494 112611,112663,112637
 8.0000e-001 112761 -3.8616e+002 -6.4445e+001 -6.5746e+001 23494 112585,112663,112611
 8.0000e-001 112738 -4.4419e+002 -8.8045e+001  2.8376e+001 23494 112559,112663,112585
 8.0000e-001 112715 -3.9074e+002  1.0808e+002  5.7623e+001 23494 112559,112689,112663
 8.0000e-001 113117 -3.1378e+002 -2.7567e+001 -8.0174e+001 22974 112944,113022,112996
 8.0000e-001 113094 -2.4407e+002 -7.4857e+001 -6.3616e+001 22974 112918,113022,112944
 8.0000e-001 113071 -3.4281e+002 -1.3349e+002 -1.1743e+002 22974 112944,112996,112970
 8.0000e-001 113048 -2.2390e+002 -1.9358e+001 -6.7144e+001 22974 112892,113022,112918
 8.0000e-001 113414 -3.7088e+002 -1.0414e+002 -7.3042e+000 22370 113192,113296,113218
 8.0000e-001 113391 -4.0142e+002 -1.7957e+002 -2.8568e+001 22370 113140,113296,113192
 8.0000e-001 113368 -3.7948e+002 -1.2028e+002  1.2139e+001 22370 113218,113296,113270
 8.0000e-001 113345 -3.3997e+002 -1.2208e+002  5.1924e+001 22370 113218,113270,113244
 8.0000e-001 113322 -3.2700e+002 -1.9648e+001 -4.9792e+001 22370 113140,113192,113166
 8.0000e-001 113662 -2.6523e+002 -6.8726e-001  2.3778e+001 21916 113685,113515,113489
 8.0000e-001 113639 -3.4497e+002 -8.8805e+001 -9.5251e+000 21916 113685,113489,113437
 8.0000e-001 113616 -2.4876e+002 -9.0351e+001 -1.8547e+001 21916 113757,113567,113541
 8.0000e-001 113593 -3.2678e+002 -3.8571e+001 -3.0071e+001 21916 113437,113489,113463
 8.0000e-001 113711 -3.2252e+002 -1.1323e+002  9.9139e-001 21916 113541,113515,113685
 8.0000e-001 113734 -2.9387e+002 -1.0490e+002 -1.4019e+001 21916 113757,113541,113685
 8.0000e-001 113783 -3.0792e+002 -9.6089e+001 -2.1653e+001 21916 113437,113567,113757
 8.0000e-001 113806 -3.1919e+002 -8.7843e+001 -2.5049e+001 21916 113437,113757,113685
 8.0000e-001 114056 -1.9372e+002  6.7167e+000 -6.7704e+001 21412 113857,113909,113883
 8.0000e-001 114033 -2.3099e+002 -3.3424e+001 -4.5040e+001 21412 114079,113909,113857
 8.0000e-001 114010 -2.8150e+002 -7.3183e+001 -1.5275e+001 21412 114079,113857,113961
 8.0000e-001 113987 -2.8146e+002 -7.1815e+001 -1.4667e+001 21412 113831,113961,113857
 8.0000e-001 114105 -2.7483e+002  2.2425e+001 -7.2056e+001 21412 113935,113909,114079
 8.0000e-001 114128 -3.1142e+002 -2.1507e+001 -4.7364e+001 21412 113935,114079,113961
 8.0000e-001 114378 -2.3123e+002 -6.7972e+001  7.3140e+000 21022 114401,114257,114205
 8.0000e-001 114355 -2.6117e+002 -7.9225e+001 -3.5236e+001 21022 114401,114205,114179
 8.0000e-001 114332 -2.1916e+002 -4.5490e+001  2.8467e+000 21022 114153,114283,114179
 8.0000e-001 114309 -2.5883e+002 -6.6042e+001  7.5940e+000 21022 114205,114257,114231
 8.0000e-001 114427 -1.7209e+002 -5.5744e+001  3.0767e+001 21022 114283,114257,114401
 8.0000e-001 114450 -2.1581e+002 -7.1177e+001 -1.0391e+001 21022 114283,114401,114179
 8.0000e-001 114651 -3.7617e+001  6.2291e+001 -2.3931e+001 20618 114501,114553,114527
 8.0000e-001 114628 -3.3668e+001  3.9052e+001  1.5276e+001 20618 114501,114579,114553
 8.0000e-001 114605 -1.4851e+002  4.6758e+001  4.7359e+000 20618 114475,114579,114501
 8.0000e-001 114901 -3.8134e+002 -7.2613e+000 -2.7558e+001 20114 114676,114780,114702
 8.0000e-001 114878 -3.0426e+002  3.9890e+001 -5.1424e+001 20114 114676,114806,114780
 8.0000e-001 114855 -4.4748e+002  2.6126e+001 -1.8397e+001 20114 114702,114780,114754
 8.0000e-001 114832 -9.0203e+002 -1.1094e+002 -2.9621e+001 20114 114702,114754,114728
 8.0000e-001 115053 -3.5041e+002 -1.3525e+001  1.8719e+001 19460 115147,115076,114926
 8.0000e-001 115030 -3.5310e+002 -2.9948e+001  2.4348e+001 19460 115147,114926,115004
 8.0000e-001 115102 -3.2948e+002 -1.1678e+001  7.8186e-001 19460 114952,114926,115076
 8.0000e-001 115173 -3.6513e+002  3.2164e+001  1.1326e+001 19460 114978,115076,115147
 8.0000e-001 115196 -3.8095e+002  4.1320e+000  2.1927e+001 19460 114978,115147,115004
 8.0000e-001 115446 -3.6236e+002 -2.0012e+001  1.9946e+001 19006 115273,115351,115299
 8.0000e-001 115423 -3.0537e+002 -9.1746e+001 -1.3419e+001 19006 115247,115351,115273
 8.0000e-001 115400 -2.8785e+002 -8.6187e+001 -2.9790e+001 19006 115221,115351,115247
 8.0000e-001 115377 -2.4306e+002 -3.3854e+001 -9.1216e+001 19006 115299,115351,115325
 8.0000e-001 115767 -1.8009e+002  2.5085e+001  3.8699e+001 18716 115571,115649,115623
 8.0000e-001 115744 -2.3003e+002 -7.0538e+001  2.0610e+001 18716 115493,115649,115571
 8.0000e-001 115721 -2.2587e+002  4.5173e+000  2.3709e+001 18716 115493,115571,115545
 8.0000e-001 115698 -2.4891e+002 -3.1518e+001  3.5252e+000 18716 115493,115545,115519
 8.0000e-001 115675 -8.5641e+000  7.3864e+001 -1.0534e+001 18716 115571,115623,115597
 8.0000e-001 116039 -3.3040e+002 -8.8277e+001  1.1850e+001 18312 115814,115892,115840
 8.0000e-001 116016 -3.3322e+002 -9.9497e+001  2.0647e+001 18312 115814,115944,115892
 8.0000e-001 115993 -3.5542e+002 -2.1066e+001  2.5312e+001 18312 115892,115944,115918
 8.0000e-001 115970 -1.5516e+002 -1.1555e+001 -3.4186e+000 18312 115840,115892,115866
 8.0000e-001 116191 -3.3379e+002  9.2985e+000  1.0534e+001 18000 116090,116142,116116
 8.0000e-001 116168 -3.3260e+002 -5.5557e+001  2.1850e+001 18000 116064,116142,116090
 8.0000e-001 116343 -2.8045e+002  1.7570e+001  1.5518e+000 17396 116242,116294,116268
 8.0000e-001 116320 -3.2823e+002  7.5294e+000 -2.3452e+000 17396 116216,116294,116242
 8.0000e-001 116566 -3.8487e+002 -1.6072e+002  1.7720e+001 16942 116390,116468,116442
 8.0000e-001 116543 -6.0918e+002 -2.0576e+002  5.8758e+001 16942 116390,116494,116468
 8.0000e-001 116520 -4.0169e+002 -2.0008e+002  7.5977e+000 16942 116390,116442,116416
 8.0000e-001 116767 -2.0753e+002  8.5624e+000  6.6178e+000 16438 116790,116643,116617
 8.0000e-001 116744 -2.4863e+002 -3.4047e+001 -1.0123e+001 16438 116790,116617,116591
 8.0000e-001 116721 -1.5129e+002 -2.8942e+001 -2.1341e+001 16438 116643,116695,116669
 8.0000e-001 116816 -1.8558e+002 -2.2401e+001  2.0698e+001 16438 116695,116643,116790
 8.0000e-001 116839 -1.9869e+002 -3.6366e+001  1.4205e+001 16438 116695,116790,116591
 8.0000e-001 117062 -9.1054e+001 -2.9258e+001 -6.9030e+000 16074 116886,116938,116912
 8.0000e-001 117039 -1.0887e+002 -5.1660e+001  1.4457e+001 16074 116886,116990,116938
 8.0000e-001 117016 -8.3381e+001  1.0847e+001  2.4560e+001 16074 116938,116990,116964
 8.0000e-001 117214 -5.2275e+002 -2.5729e+002 -3.4832e+001 15649 117087,117139,117113
 8.0000e-001 117191 -5.8398e+002 -2.9760e+002  2.1557e+000 15649 117087,117165,117139
 8.0000e-001 117317 -4.7725e+001 -1.4438e+002  2.9683e+001 421 117239,117291,117265
 9.0000e-001 70632  8.3799e+000 -9.8770e+000  1.7608e+001 70072 70482,70534,70508
 9.0000e-001 70609 -4.2592e+000 -3.2954e-001  2.6982e+000 70072 70482,70560,70534
 9.0000e-001 70586 -4.7275e+002 -1.8680e+002 -2.1410e+001 70072 70456,70560,70482
 9.0000e-001 70951 -5.3272e+002 -1.4921e+002  0.0000e+000 69874 70703,70755,70729
 9.0000e-001 70928 -5.3333e+002 -1.4794e+002  1.2379e+001 69874 70703,70781,70755
 9.0000e-001 70905 -4.7198e+002 -4.3302e+001  3.9344e+001 69874 70703,70807,70781
 9.0000e-001 70882 -5.4399e+002 -2.1117e+002  3.6048e+001 69874 70703,70833,70807
 9.0000e-001 70859 -3.0782e+002 -9.7219e+001 -1.1297e+001 69874 70677,70833,70703
 9.0000e-001 71199 -2.7121e+002 -9.3455e+001  3.0772e+001 69698 71222,71052,71026
 9.0000e-001 71176 -2.6810e+002 -4.2671e+001  3.7559e+001 69698 71294,71222,71026
 9.0000e-001 71153 -2.6063e+002 -1.8923e+001  2.8035e+001 69698 71294,71026,71000
 9.0000e-001 71130 -3.0410e+002 -5.5231e+001 -1.4692e+000 69698 71366,71104,71078
 9.0000e-001 71248 -2.4875e+002 -5.2305e+001  2.1912e+001 69698 71078,71052,71222
 9.0000e-001 71271 -2.7962e+002 -6.9466e+001  1.3871e+001 69698 71366,71078,71222
 9.0000e-001 71320 -2.5175e+002 -2.2772e+001  1.4934e+001 69698 70974,71222,71294
 9.0000e-001 71343 -2.4843e+002 -1.5890e+001  5.4207e+000 69698 70974,71294,71000
 9.0000e-001 71392 -2.7929e+002 -1.9976e+001  1.1316e+001 69698 70974,71104,71366
 9.0000e-001 71415 -2.6363e+002 -3.9675e+001  2.0228e+001 69698 70974,71366,71222
 9.0000e-001 71516 -3.1371e+002 -3.0039e+001  2.6233e+001 69386 71438,71490,71464
 9.0000e-001 71869 -2.4004e+002 -5.9346e+000 -9.4672e+000 69188 71644,71748,71670
 9.0000e-001 71846 -1.5247e+002 -4.3960e+001  3.7457e+001 69188 71644,71774,71748
 9.0000e-001 71823 -2.1209e+002 -7.3081e+001 -4.7813e+001 69188 71670,71748,71722
 9.0000e-001 71800 -1.0188e+002 -3.9379e+000  5.8528e+000 69188 71670,71722,71696
 9.0000e-001 72019 -6.9458e+002 -1.4054e+002  8.5464e+001 68990 71918,71970,71944
 9.0000e-001 71996 -8.9103e+002 -7.1796e+001  5.5910e+001 68990 71892,71970,71918
 9.0000e-001 72316 -3.8867e+002 -6.8296e+001  2.0052e+001 68586 72339,72172,72146
 9.0000e-001 72293 -4.2150e+002 -1.2227e+002  3.3963e+001 68586 72339,72146,72120
 9.0000e-001 72270 -4.2175e+002 -1.4343e+002  8.6236e+001 68586 72411,72068,72198
 9.0000e-001 72247 -4.9761e+002 -1.2200e+002  1.0017e+002 68586 72042,72198,72068
 9.0000e-001 72224 -3.4807e+002 -7.0828e+001  1.1389e+001 68586 72068,72120,72094
 9.0000e-001 72365 -4.2269e+002 -6.0072e+001  6.3922e+001 68586 72198,72172,72339
 9.0000e-001 72388 -4.4793e+002 -1.1797e+002  7.4929e+001 68586 72411,72198,72339
 9.0000e-001 72437 -3.9264e+002 -1.1944e+002  6.6238e+001 68586 72120,72068,72411
 9.0000e-001 72460 -4.1647e+002 -8.5756e+001  5.5570e+001 68586 72120,72411,72339
 9.0000e-001 72864 -2.3793e+002 -6.4749e+001  2.1745e+001 68388 72642,72694,72668
 9.0000e-001 72841 -2.6647e+002 -1.0328e+002  3.7333e+001 68388 72616,72694,72642
 9.0000e-001 72818 -3.1841e+002 -1.2905e+002 -8.3848e+000 68388 72616,72720,72694
 9.0000e-001 72795 -3.8601e+002 -1.1325e+002  2.7865e+001 68388 72590,72720,72616
 9.0000e-001 72772 -4.9821e+002 -1.8801e+001 -1.1965e+002 68388 72590,72746,72720
 9.0000e-001 73321 -2.6285e+002 -1.4072e+002 -2.6371e+001 68048 73073,73203,73177
 9.0000e-001 73298 -2.3472e+002 -1.2466e+002 -1.9155e+001 68048 73047,73203,73073
 9.0000e-001 73275 -3.6296e+002 -1.0598e+002  1.1066e+000 68048 73125,73177,73151
 9.0000e-001 73252 -3.4482e+002 -1.0752e+002 -9.6267e+000 68048 73073,73177,73125
 9.0000e-001 73229 -3.2713e+002 -3.1495e+001 -3.7177e+000 68048 73073,73125,73099
 9.0000e-001 73640 -5.0542e+002  1.0440e+001 -4.7907e+001 67850 73444,73496,73470
 9.0000e-001 73617 -4.0418e+002 -9.3480e+001 -3.7378e+001 67850 73418,73496,73444
 9.0000e-001 73594 -4.0323e+002 -7.9319e+001 -1.8626e+001 67850 73392,73496,73418
 9.0000e-001 73571 -3.2767e+002 -3.8319e+001  1.0284e+001 67850 73392,73522,73496
 9.0000e-001 73548 -2.7622e+002 -1.3643e+001 -5.9576e+001 67850 73366,73522,73392
 9.0000e-001 73790 -4.4532e+002 -1.7986e+002 -4.0274e+000 67602 73689,73741,73715
 9.0000e-001 73767 -4.1293e+002 -1.0634e+002  1.6512e+000 67602 73663,73741,73689
 9.0000e-001 74040 -5.0554e+002 -1.5749e+002 -8.0689e+000 67290 73841,73945,73919
 9.0000e-001 74017 -3.7580e+002 -1.8851e+002 -4.6616e+001 67290 73815,73945,73841
 9.0000e-001 73994 -4.5179e+002 -1.4726e+002  3.4877e+001 67290 73841,73919,73867
 9.0000e-001 73971 -4.4473e+002 -1.2321e+002  2.1930e+001 67290 73867,73919,73893
 9.0000e-001 74143 -4.8479e+002  1.2890e+001 -8.0307e+000 67092 74065,74117,74091
 9.0000e-001 74415 -3.7192e+002 -1.3378e+002 -6.0376e+001 66894 74190,74294,74216
 9.0000e-001 74392 -3.3932e+002 -1.0386e+002  8.0567e+000 66894 74190,74320,74294
 9.0000e-001 74369 -3.4148e+002 -4.5335e+001 -6.0323e+001 66894 74216,74294,74242
 9.0000e-001 74346 -3.5264e+002 -3.2311e+001 -5.5169e+001 66894 74242,74294,74268
 9.0000e-001 75023 -4.0912e+002 -1.6373e+002  4.5813e+001 66532 74654,74836,74810
 9.0000e-001 75000 -2.5158e+002 -7.0850e+001  8.6586e+001 66532 74628,74836,74654
 9.0000e-001 74977 -2.3903e+002 -7.9530e+001 -3.2998e+001 66532 74706,74784,74732
 9.0000e-001 74954 -3.3128e+002 -1.2063e+002 -9.4872e+001 66532 74680,74784,74706
 9.0000e-001 74931 -5.2947e+002 -8.5360e+001 -8.1823e+001 66532 74680,74810,74784
 9.0000e-001 74908 -3.4064e+002 -8.2869e+001  8.2751e+001 66532 74654,74810,74680
 9.0000e-001 74885 -3.7957e+002 -1.4079e+002  5.7825e+001 66532 74602,74836,74628
 9.0000e-001 74862 -3.2274e+002 -9.5185e+001  8.4613e+000 66532 74732,74784,74758
 9.0000e-001 75222 -4.2494e+002 -3.1575e+001  4.0792e+001 66242 75072,75150,75124
 9.0000e-001 75199 -4.1027e+002 -9.5303e+001  4.1464e+001 66242 75046,75150,75072
 9.0000e-001 75176 -4.6738e+002 -9.0168e+001  2.0988e+001 66242 75072,75124,75098
 9.0000e-001 75470 -5.6799e+002  1.7921e+001  1.8065e+001 65838 75297,75375,75349
 9.0000e-001 75447 -5.7302e+002 -3.1252e+001  1.6110e+001 65838 75271,75375,75297
 9.0000e-001 75424 -4.0375e+002  1.6519e+002  1.1045e+002 65838 75297,75349,75323
 9.0000e-001 75401 -5.9534e+002 -2.8682e+001  4.7340e+001 65838 75245,75375,75271
 9.0000e-001 75671 -1.6130e+002 -2.2097e+001 -1.6565e+001 65640 75495,75573,75521
 9.0000e-001 75648 -2.2160e+002 -4.2030e+001 -2.3641e+001 65640 75495,75599,75573
 9.0000e-001 75625 -2.1264e+002 -1.3637e+001 -1.1947e+000 65640 75521,75573,75547
 9.0000e-001 75872 -2.9435e+002 -1.0235e+002 -2.0377e+001 65300 75895,75748,75722
 9.0000e-001 75849 -2.6232e+002 -7.2044e+001 -6.3084e+000 65300 75895,75722,75696
 9.0000e-001 75826 -2.8914e+002 -1.8098e+001 -2.1462e+001 65300 75967,75774,75748
 9.0000e-001 75921 -2.9403e+002 -4.3971e+001 -1.8155e+000 65300 75967,75748,75895
 9.0000e-001 75944 -2.8227e+002 -4.3745e+001  2.7552e+001 65300 75800,75895,75696
 9.0000e-001 75993 -3.2192e+002 -5.6729e+001 -6.2650e+000 65300 75800,75774,75967
 9.0000e-001 76016 -3.2132e+002 -7.0000e+001  1.1688e+001 65300 75800,75967,75895
 9.0000e-001 76371 -3.6382e+002 -4.4968e+001  3.0155e+001 64896 76146,76250,76172
 9.0000e-001 76348 -3.7094e+002 -9.6549e+001  6.2700e+000 64896 76146,76276,76250
 9.0000e-001 76325 -2.6608e+002 -3.1903e+001 -9.1093e+000 64896 76172,76250,76198
 9.0000e-001 76302 -6.5427e+002 -2.0339e+002 -6.0716e+001 64896 76198,76250,76224
 9.0000e-001 76570 -5.8754e+002 -1.2728e+002  7.4567e+001 64442 76446,76498,76472
 9.0000e-001 76547 -5.0834e+002 -3.8519e+001 -4.2047e+000 64442 76420,76498,76446
 9.0000e-001 76524 -5.2541e+002 -7.8196e+001 -8.3748e+000 64442 76394,76498,76420
 9.0000e-001 76999 -3.2292e+002 -6.1340e+001 -8.5195e+000 63924 77022,76728,76702
 9.0000e-001 76976 -3.6101e+002 -8.9070e+001  6.5841e+000 63924 77022,76702,76832
 9.0000e-001 76953 -3.3592e+002 -6.8089e+001 -7.7483e+001 63924 76728,76806,76754
 9.0000e-001 76930 -4.9104e+002 -1.4170e+002  1.9347e+000 63924 76676,76832,76702
 9.0000e-001 76907 -4.7660e+002  4.8885e+001 -7.8275e+001 63924 76754,76806,76780
 9.0000e-001 76884 -5.1773e+002 -1.6510e+001  9.5254e-002 63924 76676,76858,76832
 9.0000e-001 77048 -3.7447e+002 -3.1912e+001 -9.1420e+000 63924 76806,76728,77022
 9.0000e-001 77071 -4.0834e+002 -5.5162e+001  4.5488e+000 63924 76806,77022,76832
 9.0000e-001 77449 -2.4592e+002 -2.0018e+000  1.4229e+001 63320 77472,77253,77201
 9.0000e-001 77426 -2.2889e+002 -5.1900e+001 -4.0904e+001 63320 77472,77201,77175
 9.0000e-001 77403 -3.5493e+002 -9.5559e+001 -2.4916e+001 63320 77175,77305,77279
 9.0000e-001 77380 -2.9645e+002 -9.5085e+001  8.8605e+001 63320 77201,77253,77227
 9.0000e-001 77357 -3.6782e+002 -9.9946e+001 -2.8543e+001 63320 77175,77331,77305
 9.0000e-001 77498 -2.9671e+002 -1.0720e+002  3.2312e+001 63320 77279,77253,77472
 9.0000e-001 77521 -2.4676e+002 -9.3398e+001 -3.7030e+001 63320 77279,77472,77175
 9.0000e-001 77769 -4.5143e+002 -9.4337e+001  2.9431e+000 62816 77570,77622,77596
 9.0000e-001 77746 -3.9268e+002 -1.5319e+002 -2.9714e+001 62816 77570,77648,77622
 9.0000e-001 77723 -4.2516e+002 -1.4058e+002 -1.0765e+002 62816 77570,77674,77648
 9.0000e-001 77700 -4.4436e+002 -8.5572e+001 -7.3099e+001 62816 77544,77674,77570
 9.0000e-001 78149 -3.0318e+002 -1.8430e+002 -2.2312e+001 62354 77953,78031,78005
 9.0000e-001 78126 -3.4770e+002 -1.5534e+002 -3.3145e+001 62354 77901,78031,77953
 9.0000e-001 78103 -2.7696e+002 -1.2250e+002 -6.2738e+000 62354 77875,78031,77901
 9.0000e-001 78080 -4.5375e+002 -1.1710e+002  6.2598e+001 62354 77901,77953,77927
 9.0000e-001 78057 -4.6056e+002 -2.1805e+002 -2.4631e+001 62354 77953,78005,77979
 9.0000e-001 78606 -2.1842e+002 -1.1180e+002 -9.0312e+001 61950 78384,78436,78410
 9.0000e-001 78583 -2.3081e+002 -6.3587e+001 -1.3775e+001 61950 78358,78436,78384
 9.0000e-001 78560 -2.4158e+002 -1.1443e+002  1.2160e+001 61950 78358,78488,78436
 9.0000e-001 78537 -1.5875e+002 -2.3088e+001 -3.6458e+001 61950 78436,78488,78462
 9.0000e-001 78514 -2.5589e+002 -1.3431e+002  2.8117e+000 61950 78332,78488,78358
 9.0000e-001 78756 -4.5668e+002 -1.4578e+002  4.5867e+001 61339 78779,78655,78629
 9.0000e-001 78733 -4.3826e+002 -1.0396e+002  3.7081e+001 61339 78779,78629,78707
 9.0000e-001 78805 -3.9058e+002 -4.6049e+001 -9.8554e-001 61339 78851,78779,78681
 9.0000e-001 78828 -4.6797e+002 -1.1076e+002  3.2929e+001 61339 78681,78779,78707
 9.0000e-001 78877 -4.6396e+002 -2.2312e+002  1.7844e+001 61339 78655,78779,78851
 9.0000e-001 79206 -3.5473e+002 -6.9530e+001 -1.0315e+002 60892 79229,79007,78981
 9.0000e-001 79183 -3.7695e+002 -1.1540e+002 -9.4584e+001 60892 79229,78981,79111
 9.0000e-001 79160 -3.8625e+002 -1.0010e+002 -8.1294e+001 60892 79301,79033,79007
 9.0000e-001 79137 -4.9039e+002 -3.6460e+001  2.1924e+001 60892 79033,79085,79059
 9.0000e-001 79255 -3.9166e+002 -8.3885e+001 -9.3608e+001 60892 79301,79007,79229
 9.0000e-001 79278 -3.2951e+002 -9.2088e+001 -8.6712e+001 60892 79085,79229,79111
 9.0000e-001 79327 -4.2240e+002 -1.5982e+002 -4.2934e+001 60892 79085,79033,79301
 9.0000e-001 79350 -3.7005e+002 -1.1258e+002 -6.8632e+001 60892 79085,79301,79229
 9.0000e-001 79647 -5.4365e+002 -2.1701e+002 -7.7225e+001 60488 79451,79529,79503
 9.0000e-001 79624 -5.5020e+002 -1.9891e+002 -4.3414e+001 60488 79425,79529,79451
 9.0000e-001 79601 -4.2128e+002 -1.2456e+002 -9.9908e+000 60488 79373,79529,79425
 9.0000e-001 79578 -4.1721e+002 -1.5449e+002  8.2202e-001 60488 79373,79425,79399
 9.0000e-001 79555 -5.7601e+002 -1.5515e+001 -4.6364e+001 60488 79451,79503,79477
 9.0000e-001 79870 -5.1091e+002 -2.1455e+002 -8.0667e+000 60026 79720,79798,79772
 9.0000e-001 79847 -7.3591e+002 -2.6675e+002 -2.5001e+001 60026 79694,79798,79720
 9.0000e-001 79824 -7.0544e+002 -2.8879e+002  1.0790e+001 60026 79720,79772,79746
 9.0000e-001 80120 -1.9656e+002  8.0942e-001  2.9535e+001 59629 79921,80025,79973
 9.0000e-001 80097 -1.6361e+002 -2.1023e+001  1.4431e+001 59629 79895,80025,79921
 9.0000e-001 80074 -1.7470e+002  1.0567e+001 -3.4102e+001 59629 79973,80025,79999
 9.0000e-001 80051 -1.2104e+002  1.9328e+001  1.5153e+001 59629 79921,79973,79947
 9.0000e-001 80321 -2.5889e+002 -4.1233e+001  4.6022e+000 59125 80344,80171,80145
 9.0000e-001 80298 -2.7345e+002 -5.9752e+001  1.1189e+001 59125 80344,80145,80249
 9.0000e-001 80275 -2.8895e+002 -8.0228e+001  3.6745e+001 59125 80197,80249,80223
 9.0000e-001 80370 -2.7755e+002 -2.9764e+001  1.9103e+001 59125 80197,80171,80344
 9.0000e-001 80393 -2.9057e+002 -4.6017e+001  2.5079e+001 59125 80197,80344,80249
 9.0000e-001 80952 -2.0798e+002 -8.3333e+001  8.9846e+000 58557 80975,80632,80606
 9.0000e-001 80929 -2.8727e+002 -1.0382e+002  2.6018e+001 58557 81119,80975,80606
 9.0000e-001 80906 -2.7039e+002 -9.0094e+001 -2.4833e+001 58557 81047,80684,80632
 9.0000e-001 80883 -3.2897e+002 -1.2312e+002  1.5902e+001 58557 81119,80606,80580
 9.0000e-001 80860 -3.0343e+002  3.3814e+001 -2.4065e+001 58557 81191,80736,80710
 9.0000e-001 80837 -2.8535e+002 -1.0683e+001 -5.3403e+001 58557 80736,80788,80762
 9.0000e-001 80814 -2.3656e+002 -9.1680e+001 -4.0842e+001 58557 80632,80684,80658
 9.0000e-001 81001 -2.6770e+002 -1.1453e+002 -9.4014e+000 58557 81047,80632,80975
 9.0000e-001 81024 -3.0084e+002 -4.2181e+001 -7.7149e+000 58557 81191,80710,80975
 9.0000e-001 81073 -2.6836e+002 -2.9325e+001 -4.5620e+001 58557 80710,80684,81047
 9.0000e-001 81096 -2.8939e+002 -7.0283e+001 -2.2812e+001 58557 80710,81047,80975
 9.0000e-001 81145 -3.0365e+002 -1.2734e+002  6.0083e-001 58557 80788,80975,81119
 9.0000e-001 81168 -3.0986e+002 -1.2969e+002 -6.7613e+000 58557 80788,81119,80580
 9.0000e-001 81217 -3.2449e+002 -3.4262e+001  3.9395e+000 58557 80788,80736,81191
 9.0000e-001 81240 -3.0736e+002 -7.8782e+001  2.5089e+001 58557 80788,81191,80975
 9.0000e-001 81537 -3.1712e+002  5.0293e+001 -3.9492e+001 57881 81560,81341,81289
 9.0000e-001 81514 -2.4516e+002  8.4504e+001 -1.7266e+002 57881 81560,81289,81263
 9.0000e-001 81491 -3.8816e+002 -7.8791e+000 -6.7044e+001 57881 81632,81419,81367
 9.0000e-001 81468 -3.9052e+002  2.7345e-001 -1.3885e+001 57881 81367,81419,81393
 9.0000e-001 81445 -5.0806e+002  4.9639e+001  9.7055e+000 57881 81289,81341,81315
 9.0000e-001 81586 -3.6117e+002 -1.0482e+002 -1.3700e+001 57881 81367,81341,81560
 9.0000e-001 81609 -3.8056e+002  3.2493e+001 -6.4969e+001 57881 81632,81367,81560
 9.0000e-001 81658 -3.6392e+002 -1.8742e+002 -5.8331e+001 57881 81263,81419,81632
 9.0000e-001 81681 -3.0402e+002 -7.0795e+001 -8.0589e+001 57881 81263,81632,81560
 9.0000e-001 81929 -1.8396e+002 -5.6250e+001  3.0919e+001 57477 81704,81808,81782
 9.0000e-001 81906 -1.5930e+002 -5.5255e+001  3.0127e+001 57477 81704,81834,81808
 9.0000e-001 81883 -1.9093e+002 -1.8455e+001  5.5474e+001 57477 81704,81782,81730
 9.0000e-001 81860 -2.0544e+002 -2.0757e+001  5.7301e+001 57477 81730,81782,81756
 9.0000e-001 82488 -3.1027e+002 -1.4508e+002  1.1551e+001 56966 82583,82511,82194
 9.0000e-001 82465 -2.8824e+002 -1.0354e+002 -7.9037e+000 56966 82511,82116,82324
 9.0000e-001 82442 -3.1251e+002 -1.6729e+002  1.8233e+001 56966 82583,82194,82168
 9.0000e-001 82419 -4.2084e+002 -1.6380e+002  1.5070e+001 56966 82194,82246,82220
 9.0000e-001 82396 -2.9925e+002 -9.9250e+001  4.9186e+001 56966 82194,82298,82246
 9.0000e-001 82373 -3.5599e+002 -1.1119e+002  1.0064e+002 56966 82246,82298,82272
 9.0000e-001 82350 -2.8427e+002 -6.8539e+001  8.0888e+000 56966 82116,82168,82142
 9.0000e-001 82537 -3.2525e+002 -1.3187e+002  3.5156e+001 56966 82298,82194,82511
 9.0000e-001 82560 -2.6942e+002 -1.2386e+002  3.4225e+001 56966 82298,82511,82324
 9.0000e-001 82609 -3.1514e+002 -1.1934e+002  9.4254e+000 56966 82116,82511,82583
 9.0000e-001 82632 -3.1181e+002 -1.3626e+002  1.3607e+001 56966 82116,82583,82168
 9.0000e-001 83236 -4.0722e+002 -1.8855e+002 -6.5536e+001 56304 82893,82945,82919
 9.0000e-001 83213 -4.2726e+002 -2.0195e+002 -5.6689e+001 56304 83259,82945,82893
 9.0000e-001 83190 -3.9530e+002 -1.4293e+002 -2.7804e+001 56304 83259,82893,83049
 9.0000e-001 83167 -3.2404e+002 -1.3969e+002  2.0138e+001 56304 82971,83049,83023
 9.0000e-001 83144 -3.7528e+002 -1.1493e+002 -1.3184e+001 56304 82815,83049,82893
 9.0000e-001 83121 -3.5699e+002 -6.3007e+001 -1.6791e+001 56304 82815,82893,82867
 9.0000e-001 83098 -2.4314e+002 -1.2210e+002 -2.4276e+001 56304 82971,83023,82997
 9.0000e-001 83075 -3.3769e+002 -1.1980e+002  1.5176e+001 56304 82815,82867,82841
 9.0000e-001 83285 -4.3353e+002 -1.1685e+002 -3.4573e+001 56304 82971,82945,83259
 9.0000e-001 83308 -4.2180e+002 -9.9167e+001 -2.8829e+000 56304 82971,83259,83049
 9.0000e-001 83556 -4.0025e+002 -1.0651e+002 -3.0576e+001 55964 83357,83461,83435
 9.0000e-001 83533 -3.4740e+002 -1.0722e+001  1.1948e+001 55964 83331,83461,83357
 9.0000e-001 83510 -1.6004e+002 -5.2147e+001 -8.1824e+000 55964 83357,83435,83383
 9.0000e-001 83487 -3.3392e+002 -1.1956e+002 -3.7894e+001 55964 83383,83435,83409
 9.0000e-001 83706 -4.3467e+002 -2.4545e+002 -1.4999e+001 55503 83579,83631,83605
 9.0000e-001 83683 -5.3971e+002 -2.4152e+002  6.4421e-002 55503 83579,83657,83631
 9.0000e-001 83907 -3.2563e+002 -1.4795e+002 -7.0679e+001 55156 83757,83835,83809
 9.0000e-001 83884 -2.7980e+002 -1.1347e+001 -2.8232e+001 55156 83731,83835,83757
 9.0000e-001 83861 -3.8737e+002 -3.4505e+001 -5.4057e+001 55156 83757,83809,83783
 9.0000e-001 84240 -2.3303e+002 -4.4529e+001  2.6825e+001 54652 84093,84145,84119
 9.0000e-001 84217 -3.6020e+002 -4.1133e+001  8.4209e+001 54652 84041,84145,84093
 9.0000e-001 84194 -3.9790e+002 -7.5248e+001  5.3017e+001 54652 84015,84145,84041
 9.0000e-001 84171 -5.9035e+002 -1.4344e+002  6.5260e+001 54652 84041,84093,84067
 9.0000e-001 84618 -2.0803e+002 -8.1895e+001  2.0387e+001 53926 84396,84500,84474
 9.0000e-001 84595 -1.6187e+002 -8.8967e+001  4.4569e+001 53926 84344,84500,84396
 9.0000e-001 84572 -1.5612e+002 -6.9921e+001  4.9885e+001 53926 84344,84396,84370
 9.0000e-001 84549 -1.6867e+002 -4.8298e+001 -2.6993e+001 53926 84396,84474,84422
 9.0000e-001 84526 -2.8347e+002 -9.9362e+001 -6.4080e+001 53926 84422,84474,84448
 9.0000e-001 85350 -4.8065e+002 -1.6547e+002 -1.3610e+002 53586 85373,84880,85088
 9.0000e-001 85327 -2.3070e+002 -1.5797e+002 -1.3508e+002 53586 84880,85114,85088
 9.0000e-001 85304 -2.2651e+002 -4.9472e+001 -1.0713e+002 53586 85373,85088,85062
 9.0000e-001 85281 -3.7596e+002 -3.1534e+002  1.2274e+002 53586 85010,85062,85036
 9.0000e-001 85258 -4.4105e+002 -9.3344e+001  1.7170e+000 53586 85445,85010,84958
 9.0000e-001 85235 -2.1837e+002 -1.0431e+001 -2.1624e+001 53586 85445,84958,84906
 9.0000e-001 85212 -3.6349e+002 -1.1664e+002 -2.4281e+001 53586 84958,85010,84984
 9.0000e-001 85189 -3.5714e+002 -9.6047e+001 -9.3707e+001 53586 84906,84958,84932
 9.0000e-001 85166 -2.9679e+002 -2.4723e+002 -8.8457e+001 53586 84880,85140,85114
 9.0000e-001 85399 -5.6268e+002 -1.2435e+002  1.3777e+002 53586 84906,84880,85373
 9.0000e-001 85422 -3.6163e+002 -2.4566e+001  9.6821e+001 53586 85517,85373,85062
 9.0000e-001 85471 -4.3301e+002 -8.7540e+001  1.1986e+002 53586 85062,85010,85445
 9.0000e-001 85494 -3.3066e+002 -2.7084e+001  8.7814e+001 53586 85517,85062,85445
 9.0000e-001 85543 -3.1231e+002 -2.7560e+001  1.0952e+002 53586 84906,85373,85517
 9.0000e-001 85566 -2.9322e+002 -3.9671e+001  1.0225e+002 53586 84906,85517,85445
 9.0000e-001 86072 -2.8948e+002 -1.4874e+002 -4.3166e+001 53182 86095,85853,85775
 9.0000e-001 86049 -3.0657e+002 -1.3684e+002 -3.6231e+001 53182 86095,85775,85931
 9.0000e-001 86026 -3.2794e+002 -1.6592e+002 -4.8287e+001 53182 86167,85879,85853
 9.0000e-001 86003 -4.9012e+002 -1.9499e+002  2.5499e+000 53182 85775,85827,85801
 9.0000e-001 85980 -3.1094e+002 -2.0028e+002 -4.3977e+001 53182 85775,85853,85827
 9.0000e-001 85957 -2.2008e+002 -1.2048e+002  2.9534e+001 53182 85749,85931,85775
 9.0000e-001 86121 -3.1228e+002 -1.5971e+002 -4.7903e+001 53182 86167,85853,86095
 9.0000e-001 86144 -3.0679e+002 -1.4668e+002 -3.7918e+001 53182 85905,86095,85931
 9.0000e-001 86193 -3.2265e+002 -1.6642e+002 -3.3782e+001 53182 85905,85879,86167
 9.0000e-001 86216 -3.0824e+002 -1.5951e+002 -3.1737e+001 53182 85905,86167,86095
 9.0000e-001 86673 -3.3033e+002 -2.4372e+001  4.7932e+001 52778 86477,86529,86503
 9.0000e-001 86650 -3.4074e+002 -1.2769e+002  1.5489e+001 52778 86425,86529,86477
 9.0000e-001 86627 -3.0400e+002 -1.4977e+002  4.3928e+001 52778 86425,86477,86451
 9.0000e-001 86604 -2.4079e+002 -6.0459e+001  5.0126e+001 52778 86399,86529,86425
 9.0000e-001 86581 -1.9698e+002 -3.6815e+001  3.7966e+001 52778 86399,86555,86529
 9.0000e-001 87258 -3.0904e+002 -6.8517e+001  3.8980e+001 52238 87281,86987,86961
 9.0000e-001 87235 -3.2651e+002 -9.4549e+001  1.8168e+001 52238 87281,86961,87117
 9.0000e-001 87212 -3.2287e+002 -1.9439e+001  1.6298e+001 52238 86935,87117,86961
 9.0000e-001 87189 -3.8824e+002 -3.5914e+001  6.3348e+000 52238 87065,87117,87091
 9.0000e-001 87166 -3.4833e+002 -1.6153e+002  5.7515e+000 52238 86987,87065,87039
 9.0000e-001 87143 -3.7383e+002 -2.5388e+002  8.1786e+001 52238 86987,87039,87013
 9.0000e-001 87307 -3.2357e+002 -1.0761e+002  2.3536e+001 52238 87065,86987,87281
 9.0000e-001 87330 -3.2995e+002 -1.0984e+002  3.2209e+000 52238 87065,87281,87117
 9.0000e-001 87610 -3.2782e+002 -5.3537e+001  2.1340e+001 51834 87434,87512,87460
 9.0000e-001 87587 -3.2110e+002 -3.0504e+001  6.5874e+001 51834 87434,87538,87512
 9.0000e-001 87564 -4.7902e+002 -1.8626e+002 -4.3052e+001 51834 87633,87460,87512
 9.0000e-001 87659 -5.8434e+002 -2.3146e+002 -4.7976e+001 51834 87486,87460,87633
 9.0000e-001 88187 -4.2137e+002 -1.4872e+002 -8.3393e+000 51266 87864,87942,87890
 9.0000e-001 88164 -3.8124e+002 -1.5301e+001  2.7407e+000 51266 87864,88020,87942
 9.0000e-001 88141 -6.5044e+002 -1.9194e+002 -1.1990e+002 51266 87942,88020,87968
 9.0000e-001 88118 -5.1822e+002 -1.7806e+002  7.6222e+001 51266 87864,88046,88020
 9.0000e-001 88095 -3.8263e+002 -2.9125e+001 -1.3415e+001 51266 87968,88020,87994
 9.0000e-001 88072 -3.8309e+002 -1.8134e+002 -4.2975e+001 51266 87890,87942,87916
 9.0000e-001 88644 -4.4757e+002 -2.0498e+002 -2.8752e+001 50754 88370,88500,88396
 9.0000e-001 88621 -4.4629e+002 -8.4757e+001 -5.7410e+001 50754 88370,88526,88500
 9.0000e-001 88598 -3.0518e+002 -8.5546e+001  5.7453e+001 50754 88396,88500,88422
 9.0000e-001 88575 -3.1548e+002 -1.0673e+002  5.4283e+001 50754 88422,88500,88474
 9.0000e-001 88552 -4.9083e+002 -2.2362e+002 -3.4770e+001 50754 88422,88474,88448
 9.0000e-001 88914 -3.7264e+002 -4.3385e+001 -9.3519e+000 50442 88715,88793,88741
 9.0000e-001 88891 -3.0967e+002 -3.2231e+001 -2.4981e+001 50442 88715,88819,88793
 9.0000e-001 88868 -4.7842e+002 -1.1511e+002 -6.1672e+001 50442 88689,88819,88715
 9.0000e-001 88845 -2.8129e+002 -1.5607e+001 -2.8697e+001 50442 88741,88793,88767
 9.0000e-001 89294 -4.3020e+002 -8.7540e+001 -1.1428e+001 49938 89317,89046,89020
 9.0000e-001 89271 -4.0333e+002 -1.0154e+002 -2.5905e+001 49938 89317,89020,89150
 9.0000e-001 89248 -3.0494e+002 -1.0345e+002  1.4515e+000 49938 89072,89150,89098
 9.0000e-001 89225 -3.9418e+002 -5.5514e+001 -7.7781e+001 49938 89020,89176,89150
 9.0000e-001 89202 -2.5227e+002 -7.6300e+001 -3.4830e+001 49938 89098,89150,89124
 9.0000e-001 89343 -3.4144e+002 -1.3064e+000  2.9481e+001 49938 89072,89046,89317
 9.0000e-001 89366 -3.9547e+002 -9.4930e+001 -2.2744e+001 49938 89072,89317,89150
 9.0000e-001 89823 -3.0203e+002 -1.1836e+002 -1.7110e+001 49384 89601,89705,89679
 9.0000e-001 89800 -2.4130e+002 -8.1177e+001  4.7482e+001 49384 89549,89705,89601
 9.0000e-001 89777 -1.8018e+002 -4.8684e+001  2.6153e+001 49384 89549,89601,89575
 9.0000e-001 89754 -1.9630e+002 -9.8515e+001 -4.2164e+000 49384 89601,89679,89627
 9.0000e-001 89731 -1.2278e+002  9.8533e+000 -6.5917e+001 49384 89627,89679,89653
 9.0000e-001 90329 -1.5799e+002 -3.5928e+001 -2.7011e+001 48894 90058,90110,90084
 9.0000e-001 90306 -1.9503e+002 -4.6111e+001  5.7186e+001 48894 90058,90162,90110
 9.0000e-001 90283 -2.8617e+002 -5.1801e+001  2.6506e+001 48894 90032,90162,90058
 9.0000e-001 90260 -1.9275e+002  2.7005e+000 -2.7261e+001 48894 90006,90162,90032
 9.0000e-001 90237 -6.2748e+001 -1.7417e+001 -1.4020e+001 48894 90110,90162,90136
 9.0000e-001 90214 -2.2367e+002 -1.3548e+001 -2.0554e+001 48894 90006,90188,90162
 9.0000e-001 90884 -2.7651e+002 -6.3372e+001  3.5043e+001 48490 90564,90642,90616
 9.0000e-001 90861 -2.5819e+002 -1.4238e+000  1.4573e+000 48490 90564,90694,90642
 9.0000e-001 90838 -3.3758e+002 -2.1827e+001  1.2653e+001 48490 90538,90694,90564
 9.0000e-001 90815 -4.6786e+002 -8.8643e+001  3.9107e+001 48490 90538,90720,90694
 9.0000e-001 90792 -2.5124e+002 -2.8835e+001  1.1364e+001 48490 90564,90616,90590
 9.0000e-001 90769 -2.4715e+002 -3.2829e+000 -3.1420e+001 48490 90642,90694,90668
 9.0000e-001 90746 -3.7884e+002 -7.2236e+001  8.1170e+000 48490 90512,90720,90538
 9.0000e-001 91034 -2.2740e+002 -6.8103e+000 -6.2147e+001 48086 91057,90959,90933
 9.0000e-001 91011 -2.3795e+002 -3.2872e+001 -6.3150e+001 48086 91129,91057,90933
 9.0000e-001 91083 -2.4343e+002 -1.2240e+001 -6.1075e+001 48086 90985,90959,91057
 9.0000e-001 91106 -2.2097e+002 -1.3223e+001 -5.0545e+001 48086 90985,91057,90907
 9.0000e-001 91155 -1.8253e+002 -6.5000e+000 -5.5437e+001 48086 90907,91057,91129
 9.0000e-001 91791 -4.0119e+002 -1.1836e+002 -3.0274e+001 47518 92030,91814,91523
 9.0000e-001 91768 -3.1669e+002 -9.7803e+001 -3.4939e+001 47518 91958,91814,91471
 9.0000e-001 91745 -3.0356e+002  5.0627e+001 -1.4544e+001 47518 91886,91575,91523
 9.0000e-001 91722 -3.1955e+002 -1.4178e+002  5.2612e+000 47518 91958,91471,91419
 9.0000e-001 91699 -4.9183e+002 -1.7815e+001 -8.6122e+001 47518 92030,91523,91497
 9.0000e-001 91676 -4.4012e+002  9.1818e+001 -3.8211e+001 47518 91523,91575,91549
 9.0000e-001 91653 -2.8812e+002 -1.0728e+002 -8.1020e+000 47518 91419,91471,91445
 9.0000e-001 91840 -3.3954e+002 -2.2235e+001 -5.6984e+001 47518 91886,91523,91814
 9.0000e-001 91863 -4.0486e+002 -1.9810e+002  3.2203e-001 47518 91601,91814,91627
 9.0000e-001 91912 -2.5656e+002  8.3609e+001  8.4670e+001 47518 91601,91575,91886
 9.0000e-001 91935 -2.9762e+002 -6.9750e+001  4.7323e+001 47518 91601,91886,91814
 9.0000e-001 91984 -3.6507e+002 -1.3534e+002 -1.8131e+001 47518 91627,91814,91958
 9.0000e-001 92007 -3.4322e+002 -1.6018e+002  1.5932e+001 47518 91627,91958,91419
 9.0000e-001 92056 -4.5151e+002 -2.1903e+002 -9.8077e+001 47518 91471,91814,92030
 9.0000e-001 92079 -5.3554e+002 -1.5980e+002 -1.6192e+002 47518 91471,92030,91497
 9.0000e-001 92229 -3.4034e+002 -1.7268e+002 -6.4076e+001 47128 92252,92128,92102
 9.0000e-001 92206 -3.9697e+002 -2.4260e+002 -3.2889e+001 47128 92324,92252,92102
 9.0000e-001 92278 -3.9597e+002 -2.9940e+002 -6.6528e+001 47128 92454,92252,92154
 9.0000e-001 92301 -3.7956e+002 -1.6238e+002 -4.4662e+001 47128 92154,92252,92180
 9.0000e-001 92350 -3.1344e+002 -1.2778e+002  5.8402e+000 47128 92180,92252,92324
 9.0000e-001 92480 -3.2983e+002 -1.5583e+002 -2.7512e+001 47128 92128,92252,92454
 9.0000e-001 93340 -3.6907e+002 -1.2246e+001  5.1155e+001 46838 93363,92977,92873
 9.0000e-001 93317 -5.1206e+002 -6.3080e+001  8.4449e+000 46838 93507,93363,92873
 9.0000e-001 93294 -4.1864e+002 -1.1975e+002 -1.1599e+001 46838 93435,93003,92977
 9.0000e-001 93271 -5.7081e+002 -1.2698e+002 -2.1785e+001 46838 93507,92873,92847
 9.0000e-001 93248 -4.1856e+002 -1.0989e+002 -3.1029e+001 46838 93579,93029,93003
 9.0000e-001 93225 -2.9342e+002 -5.9146e+001 -3.4149e-001 46838 92873,92951,92925
 9.0000e-001 93202 -2.8614e+002 -6.8223e+001  1.2085e+001 46838 92873,92977,92951
 9.0000e-001 93179 -5.5523e+002 -1.6170e+002  4.5672e+001 46838 93055,93107,93081
 9.0000e-001 93156 -8.0366e+002 -3.2179e+002 -2.7262e+001 46838 92821,93107,92847
 9.0000e-001 93133 -2.7751e+002 -1.0134e+002  2.8254e+001 46838 92873,92925,92899
 9.0000e-001 93389 -4.5685e+002 -1.1149e+002 -6.4553e+000 46838 93435,92977,93363
 9.0000e-001 93412 -4.1692e+002 -5.9096e+001 -5.7371e+000 46838 93055,93363,93107
 9.0000e-001 93461 -4.0762e+002 -1.0770e+002 -1.9814e+001 46838 93579,93003,93435
 9.0000e-001 93484 -4.2950e+002 -6.6273e+001 -1.9100e+001 46838 93055,93435,93363
 9.0000e-001 93533 -4.5338e+002 -1.6509e+002  2.1701e+000 46838 93107,93363,93507
 9.0000e-001 93556 -4.5996e+002 -1.9087e+002 -4.5767e+000 46838 93107,93507,92847
 9.0000e-001 93605 -4.4592e+002 -1.1737e+002 -4.0691e+001 46838 93055,93029,93579
 9.0000e-001 93628 -4.3401e+002 -1.1577e+002 -2.9959e+001 46838 93055,93579,93435
 9.0000e-001 93979 -4.1431e+002  9.7536e+001  4.9910e+001 46476 93780,93884,93858
 9.0000e-001 93956 -4.8638e+002 -2.2883e+001  1.9965e+001 46476 93754,93884,93780
 9.0000e-001 93933 -9.3937e+002 -3.5802e+001  2.3480e+000 46476 93806,93858,93832
 9.0000e-001 93910 -9.1929e+002 -1.1170e+002  6.1201e+001 46476 93780,93858,93806
 9.0000e-001 94515 -3.4931e+002 -1.2902e+002  2.4995e+001 46072 94345,94397,94371
 9.0000e-001 94492 -2.3964e+002 -8.3026e+001  2.8503e+001 46072 94267,94397,94345
 9.0000e-001 94469 -2.3095e+002 -2.5671e+001  2.9840e+001 46072 94241,94397,94267
 9.0000e-001 94446 -1.4610e+002 -4.8544e+001 -2.8678e+001 46072 94293,94345,94319
 9.0000e-001 94423 -2.2968e+002 -2.5536e+001  3.3365e+001 46072 94267,94345,94293
 9.0000e-001 95149 -2.6141e+002 -6.5486e+001 -1.4392e+001 45346 94803,94881,94855
 9.0000e-001 95126 -2.6636e+002 -5.3275e+001 -2.1104e+001 45346 94803,94959,94881
 9.0000e-001 95103 -1.9856e+002 -2.4767e+001 -1.4330e+001 45346 95172,94933,94907
 9.0000e-001 95080 -2.3099e+002 -3.6173e+001  7.3389e-002 45346 95172,94907,94881
 9.0000e-001 95057 -2.2667e+002 -1.2515e+002 -5.9785e+001 45346 94803,94985,94959
 9.0000e-001 95034 -2.6511e+002 -3.3206e+001 -6.7933e+000 45346 94803,94855,94829
 9.0000e-001 95011 -2.7042e+002 -2.7552e+002 -2.1665e+002 45346 94777,94985,94803
 9.0000e-001 95198 -2.2977e+002 -1.5664e+001 -1.5221e+001 45346 94959,94933,95172
 9.0000e-001 95221 -2.5177e+002 -1.4947e+001 -7.9289e+000 45346 94959,95172,94881
 9.0000e-001 95776 -2.1525e+002 -3.1063e+001  1.0297e+002 44720 95799,95560,95534
 9.0000e-001 95753 -2.6877e+002 -2.5338e+001  1.1360e+002 44720 95799,95534,95482
 9.0000e-001 95730 -3.2615e+002 -4.0892e+001  1.1572e+002 44720 95943,95871,95430
 9.0000e-001 95707 -3.3908e+002 -2.2596e+001  1.1718e+002 44720 95943,95430,95404
 9.0000e-001 95684 -5.0941e+002 -1.2743e+002  1.2834e+002 44720 95430,95482,95456
 9.0000e-001 95661 -1.7718e+002 -3.6393e+001  9.8906e+000 44720 95482,95534,95508
 9.0000e-001 95638 -3.0086e+002 -1.6105e+001  1.1909e+002 44720 95404,95612,95586
 9.0000e-001 95825 -2.6858e+002 -1.9036e+001  1.0472e+002 44720 95586,95560,95799
 9.0000e-001 95848 -2.7942e+002 -2.4856e+001  1.1699e+002 44720 95871,95586,95799
 9.0000e-001 95897 -3.1468e+002 -5.1980e+001  9.1275e+001 44720 95482,95430,95871
 9.0000e-001 95920 -3.0541e+002 -2.5991e+001  9.4914e+001 44720 95482,95871,95799
 9.0000e-001 95969 -2.9984e+002 -2.3046e+001  1.0407e+002 44720 95586,95871,95943
 9.0000e-001 95992 -3.2455e+002 -1.6908e+001  1.0863e+002 44720 95586,95943,95404
 9.0000e-001 96449 -3.0526e+002 -3.2238e+001  9.2708e+000 44202 96544,96472,96227
 9.0000e-001 96426 -3.5508e+002 -2.2148e+002  3.6851e+001 44202 96472,96175,96331
 9.0000e-001 96403 -3.9795e+002  5.4265e+001 -1.1035e+001 44202 96544,96227,96201
 9.0000e-001 96380 -1.3178e+002 -2.8254e+001 -1.5073e+001 44202 96253,96305,96279
 9.0000e-001 96357 -2.2984e+002 -2.3618e+001  4.2192e+001 44202 96227,96305,96253
 9.0000e-001 96498 -3.3193e+002 -1.4091e+002 -4.3330e+000 44202 96305,96227,96472
 9.0000e-001 96521 -3.1933e+002 -1.2520e+002  1.6205e+001 44202 96305,96472,96331
 9.0000e-001 96570 -3.7250e+002 -1.9633e+002 -3.3595e+001 44202 96175,96472,96544
 9.0000e-001 96593 -4.1245e+002 -4.2841e+001 -4.2476e+001 44202 96175,96544,96201
 9.0000e-001 96971 -2.6539e+002 -1.4293e+002  1.4034e+001 43754 96994,96749,96697
 9.0000e-001 96948 -2.8763e+002 -1.5567e+002  1.9213e+001 43754 96994,96697,96853
 9.0000e-001 96925 -2.4985e+002 -1.5783e+002  4.1419e+000 43754 96697,96749,96723
 9.0000e-001 96902 -2.7140e+002 -8.2055e+001 -2.4045e+001 43754 96775,96853,96827
 9.0000e-001 96879 -2.3519e+002 -7.9609e+001 -1.8901e+001 43754 96775,96827,96801
 9.0000e-001 97020 -2.6793e+002 -1.1442e+002 -1.5273e+001 43754 96775,96749,96994
 9.0000e-001 97043 -3.0753e+002 -1.3841e+002 -4.7243e+000 43754 96775,96994,96853
 9.0000e-001 97291 -2.8372e+002 -3.8101e+001 -2.7793e+001 43364 97314,97144,97118
 9.0000e-001 97268 -3.0601e+002 -7.7925e+001 -4.5458e+001 43364 97314,97118,97092
 9.0000e-001 97245 -2.6074e+002 -8.9343e+001 -2.4132e+001 43364 97386,97196,97170
 9.0000e-001 97222 -2.8949e+002 -1.4013e+002 -4.8830e+001 43364 97066,97196,97092
 9.0000e-001 97340 -2.9525e+002 -8.6053e+001 -2.1141e+001 43364 97170,97144,97314
 9.0000e-001 97363 -2.6693e+002 -7.8273e+001 -3.3125e+001 43364 97386,97170,97314
 9.0000e-001 97412 -2.6677e+002 -1.0159e+002 -3.2190e+001 43364 97092,97196,97386
 9.0000e-001 97435 -2.7986e+002 -1.0079e+002 -4.2648e+001 43364 97092,97386,97314
 9.0000e-001 97788 -2.8109e+002 -2.8276e+001 -2.0733e+001 42960 97563,97667,97589
 9.0000e-001 97765 -4.4506e+002 -1.8747e+002  4.4388e+001 42960 97563,97693,97667
 9.0000e-001 97742 -5.9593e+002  1.2846e+001 -1.1659e+001 42960 97589,97641,97615
 9.0000e-001 97719 -5.7791e+002 -1.0502e+002 -2.8998e+001 42960 97589,97667,97641
 9.0000e-001 98215 -2.0161e+002 -4.7255e+001 -8.8902e+001 42563 97918,98074,98048
 9.0000e-001 98192 -1.1670e+002  1.4888e+001 -5.7386e+001 42563 97892,98074,97918
 9.0000e-001 98169 -2.2005e+002 -3.8062e+000 -9.7866e+001 42563 98238,97944,97918
 9.0000e-001 98146 -2.6074e+002 -9.7547e+001 -6.7467e+001 42563 98238,97918,98048
 9.0000e-001 98123 -2.3359e+002 -5.4253e+001 -6.1616e+001 42563 97944,98022,97996
 9.0000e-001 98100 -2.2265e+002 -1.4932e+000 -2.1698e+001 42563 97944,97996,97970
 9.0000e-001 98264 -2.5541e+002 -6.8308e+001 -5.1263e+001 42563 98022,97944,98238
 9.0000e-001 98287 -2.6568e+002 -1.0373e+002 -2.2588e+001 42563 98022,98238,98048
 9.0000e-001 98616 -2.5807e+002 -1.3177e+002 -7.3922e+000 42251 98443,98521,98469
 9.0000e-001 98593 -2.9521e+002 -1.1445e+002  1.9218e+001 42251 98417,98521,98443
 9.0000e-001 98570 -2.8206e+002 -8.9714e+001 -4.4505e+001 42251 98391,98521,98417
 9.0000e-001 98547 -2.6354e+002 -1.0259e+002 -5.6846e+001 42251 98469,98521,98495
 9.0000e-001 98886 -5.9662e+002 -1.5736e+002 -2.0206e+001 41847 98661,98765,98687
 9.0000e-001 98863 -6.1244e+002 -5.7958e+001 -9.1129e+001 41847 98661,98791,98765
 9.0000e-001 98840 -5.5283e+002 -1.5796e+002 -1.6280e+000 41847 98687,98765,98739
 9.0000e-001 98817 -5.7476e+002 -1.7047e+002  4.3155e+000 41847 98687,98739,98713
 9.0000e-001 99394 -2.7460e+002 -2.4921e+001  5.2948e+001 41236 99417,99149,99123
 9.0000e-001 99371 -3.9780e+002 -7.6097e+001  4.1246e+001 41236 99417,99123,99097
 9.0000e-001 99348 -3.1565e+002 -8.6686e+001 -4.9472e+000 41236 99489,99201,99149
 9.0000e-001 99325 -3.0797e+002 -1.0098e+002 -3.5035e+001 41236 99149,99201,99175
 9.0000e-001 99302 -4.8250e+002 -7.4000e+001 -1.4888e+001 41236 99097,99253,99227
 9.0000e-001 99279 -7.0574e+002 -2.2168e+002 -7.9428e+001 41236 99071,99253,99097
 9.0000e-001 99443 -3.2460e+002 -7.9156e+001 -5.3106e+000 41236 99489,99149,99417
 9.0000e-001 99466 -3.4704e+002 -6.3779e+001 -6.9461e+000 41236 99227,99417,99097
 9.0000e-001 99515 -3.1420e+002 -7.8960e+001 -9.5330e+000 41236 99227,99201,99489
 9.0000e-001 99538 -3.1647e+002 -6.5556e+001 -1.1860e+001 41236 99227,99489,99417
 9.0000e-001 100044 -1.9239e+002 -1.0250e+002  7.3890e+001 40732 99721,99773,99747
 9.0000e-001 100021 -2.8167e+002 -6.3018e+001  2.8414e+001 40732 99721,99799,99773
 9.0000e-001 99998 -2.7785e+002 -5.7131e+001  2.6767e+001 40732 99721,99903,99799
 9.0000e-001 99975 -3.0182e+002 -5.7573e+001 -4.4176e+001 40732 100067,99877,99851
 9.0000e-001 99952 -3.1201e+002 -1.4063e+002 -4.7366e+001 40732 100067,99851,99799
 9.0000e-001 99929 -4.0112e+002 -1.3152e+002 -1.0142e+002 40732 99799,99851,99825
 9.0000e-001 100093 -3.2179e+002  1.4208e+001 -1.2190e+001 40732 99903,99877,100067
 9.0000e-001 100116 -3.4334e+002 -9.0053e+001 -7.6056e+000 40732 99903,100067,99799
 9.0000e-001 100622 -3.6769e+002 -2.6795e+001  5.8508e+001 40278 100645,100455,100429
 9.0000e-001 100599 -4.3114e+002 -4.9720e+001  6.9930e+001 40278 100717,100645,100429
 9.0000e-001 100576 -5.0114e+002 -8.0238e+001  1.9268e+001 40278 100717,100429,100377
 9.0000e-001 100553 -3.3841e+002 -1.1479e+002  4.1771e+001 40278 100789,100325,100481
 9.0000e-001 100530 -3.1509e+002 -5.1840e+001  6.4907e+001 40278 100299,100481,100325
 9.0000e-001 100507 -4.0952e+002 -8.2592e+001  1.4849e+001 40278 100377,100429,100403
 9.0000e-001 100671 -3.9393e+002 -1.5963e+000  6.3842e+001 40278 100481,100455,100645
 9.0000e-001 100694 -3.7204e+002 -7.7627e+001  5.1920e+000 40278 100789,100481,100645
 9.0000e-001 100743 -4.6765e+002 -7.1492e+001 -6.0389e+001 40278 100351,100645,100717
 9.0000e-001 100766 -6.3340e+002 -1.3552e+002 -1.0870e+002 40278 100351,100717,100377
 9.0000e-001 100815 -3.0403e+002 -9.9444e+001  3.2020e+000 40278 100351,100325,100789
 9.0000e-001 100838 -3.0959e+002 -2.7567e+001 -3.6225e+001 40278 100351,100789,100645
 9.0000e-001 101265 -3.9178e+002 -1.3768e+002  6.6306e+000 39824 101288,101046,100994
 9.0000e-001 101242 -4.0919e+002 -1.5953e+002 -1.2649e+000 39824 101288,100994,100968
 9.0000e-001 101219 -4.9536e+002 -1.2747e+002  2.8180e+001 39824 100942,101124,100968
 9.0000e-001 101196 -3.4888e+002 -4.6836e+001  1.5716e+001 39824 101046,101124,101072
 9.0000e-001 101173 -3.8442e+002 -1.8104e+002 -7.7720e+001 39824 100994,101046,101020
 9.0000e-001 101150 -2.3569e+002 -5.8543e+001  2.4238e+001 39824 101072,101124,101098
 9.0000e-001 101314 -3.8405e+002 -1.4999e+002  1.5948e+001 39824 101124,101046,101288
 9.0000e-001 101337 -3.9157e+002 -1.5665e+002  1.1767e+001 39824 101124,101288,100968
 9.0000e-001 101585 -2.0770e+002 -1.1538e+002  3.2411e+001 39070 101608,101464,101412
 9.0000e-001 101562 -2.1259e+002 -1.0070e+002  2.5998e+001 39070 101608,101412,101360
 9.0000e-001 101539 -1.8222e+002 -1.1603e+002  2.5183e+001 39070 101412,101464,101438
 9.0000e-001 101516 -2.5063e+002 -1.2544e+002  4.5494e+001 39070 101360,101412,101386
 9.0000e-001 101634 -2.0700e+002 -1.0978e+002  2.4632e+001 39070 101490,101464,101608
 9.0000e-001 101657 -2.0672e+002 -8.9806e+001  1.7551e+001 39070 101490,101608,101360
 9.0000e-001 101856 -4.3538e+002  2.8313e+001 -1.9246e+001 38730 101706,101758,101732
 9.0000e-001 101833 -4.1172e+002 -6.2035e-001 -1.0163e+001 38730 101706,101784,101758
 9.0000e-001 101810 -3.3414e+002 -4.8721e+001 -9.2562e+001 38730 101680,101784,101706
 9.0000e-001 102106 -3.5622e+002 -1.0065e+002  2.8670e+001 38326 101881,101959,101907
 9.0000e-001 102083 -3.9850e+002 -1.3220e+002  7.4292e+001 38326 101881,101985,101959
 9.0000e-001 102060 -2.7515e+002 -1.0360e+002  6.8250e+001 38326 101881,102011,101985
 9.0000e-001 102037 -4.9138e+002 -6.4935e+001 -7.5946e+000 38326 101907,101959,101933
 9.0000e-001 102258 -1.6483e+002  2.1318e+000  1.1322e+001 38036 102281,102157,102131
 9.0000e-001 102235 -1.7165e+002  3.5015e+001 -5.7669e+000 38036 102281,102131,102209
 9.0000e-001 102307 -1.5756e+002 -2.6574e+001  7.3455e+000 38036 102183,102157,102281
 9.0000e-001 102330 -1.7325e+002 -7.3228e+000 -1.5199e+001 38036 102183,102281,102209
 9.0000e-001 102663 -2.5105e+002 -5.8202e+001  4.7773e+001 37596 102438,102542,102464
 9.0000e-001 102640 -1.6496e+002 -3.6828e+001  1.7538e+001 37596 102438,102568,102542
 9.0000e-001 102617 -2.4221e+002 -2.1956e+001  8.6285e+001 37596 102490,102542,102516
 9.0000e-001 102594 -2.2365e+002 -4.2732e+001  5.8659e+001 37596 102464,102542,102490
 9.0000e-001 102862 -2.6223e+002  5.2314e+001 -3.8721e-001 37192 102686,102764,102712
 9.0000e-001 102839 -2.7715e+002  3.2692e+001  1.0863e+001 37192 102686,102790,102764
 9.0000e-001 102816 -2.3298e+002 -6.0007e+001  5.1121e+001 37192 102712,102764,102738
 9.0000e-001 103110 -3.0681e+002 -7.4021e+001 -5.7152e+000 36609 102911,102963,102937
 9.0000e-001 103087 -2.8820e+002 -6.0153e+001 -1.2089e+001 36609 102911,102989,102963
 9.0000e-001 103064 -3.2334e+002 -1.0080e+002 -3.1271e+001 36609 102885,102989,102911
 9.0000e-001 103041 -3.3518e+002 -2.7925e+001 -7.4709e+001 36609 102885,103015,102989
 9.0000e-001 103718 -1.2193e+002  6.4215e+000  1.6211e+001 36131 103323,103375,103349
 9.0000e-001 103695 -2.9337e+002 -2.6804e+000  3.4807e+001 36131 103297,103375,103323
 9.0000e-001 103672 -3.3470e+002 -1.5478e+002 -3.0554e+001 36131 103297,103505,103375
 9.0000e-001 103649 -2.9928e+002 -1.1959e+002 -5.2216e+000 36131 103741,103479,103401
 9.0000e-001 103626 -2.8579e+002 -8.9182e+001  8.3451e+000 36131 103741,103401,103375
 9.0000e-001 103603 -3.4149e+002 -7.7561e+001 -1.8776e+001 36131 103401,103479,103427
 9.0000e-001 103580 -3.9426e+002 -1.2944e+002 -6.8328e+001 36131 103297,103531,103505
 9.0000e-001 103557 -3.0444e+002 -3.3494e+000 -3.6481e+001 36131 103427,103479,103453
 9.0000e-001 103767 -3.0742e+002 -1.4412e+002 -2.7524e+001 36131 103505,103479,103741
 9.0000e-001 103790 -2.9287e+002 -1.1587e+002 -1.3278e+001 36131 103505,103741,103375
 9.0000e-001 103989 -5.4537e+002 -1.4603e+002  1.2542e+001 35791 103839,103917,103891
 9.0000e-001 103966 -5.3119e+002 -1.9070e+002  5.4098e+000 35791 103813,103917,103839
 9.0000e-001 103943 -4.5740e+002 -3.5461e+001 -4.7929e+001 35791 103839,103891,103865
 9.0000e-001 104188 -1.8985e+002 -6.8111e+001 -4.2420e+001 35444 104038,104090,104064
 9.0000e-001 104165 -2.1198e+002 -1.9445e+001  4.6857e+001 35444 104038,104116,104090
 9.0000e-001 104142 -2.3789e+002  5.7955e+001  4.8233e+001 35444 104012,104116,104038
 9.0000e-001 104487 -3.9933e+002 -1.0624e+002 -4.4373e+001 34990 104265,104317,104291
 9.0000e-001 104464 -3.0832e+002 -8.1739e+001 -3.0417e+001 34990 104510,104317,104265
 9.0000e-001 104441 -2.0547e+002 -2.3248e+001 -2.2783e+000 34990 104510,104265,104213
 9.0000e-001 104418 -3.4065e+002 -3.8025e+000  2.2945e+001 34990 104582,104343,104317
 9.0000e-001 104395 -1.9644e+002 -6.4334e+000 -1.5611e+001 34990 104213,104265,104239
 9.0000e-001 104536 -3.4259e+002 -4.0495e+000 -2.2281e+000 34990 104582,104317,104510
 9.0000e-001 104559 -2.8919e+002 -6.6094e+000  1.4948e+001 34990 104369,104510,104213
 9.0000e-001 104608 -2.7313e+002  6.0123e+001  4.9999e+001 34990 104369,104343,104582
 9.0000e-001 104631 -3.1373e+002  8.4990e+000  1.2480e+001 34990 104369,104582,104510
 9.0000e-001 104783 -3.2672e+002 -8.2617e+001 -1.8528e+001 34700 104938,104806,104682
 9.0000e-001 104760 -3.2362e+002 -6.3416e+001 -2.3820e+001 34700 104938,104682,104656
 9.0000e-001 104832 -2.3266e+002 -2.4673e+001  1.0557e+001 34700 104708,104682,104806
 9.0000e-001 104964 -3.1838e+002 -8.5648e+001 -3.3675e+001 34700 104734,104806,104938
 9.0000e-001 104987 -3.1652e+002 -7.0341e+001 -3.9045e+001 34700 104734,104938,104656
 9.0000e-001 105137 -3.8586e+002  6.3361e+000 -1.1557e+001 34388 105036,105088,105062
 9.0000e-001 105114 -3.9481e+002 -5.1647e+001 -2.3436e+001 34388 105010,105088,105036
 9.0000e-001 105385 -3.8581e+002 -8.0626e+001  3.0409e+001 33734 105408,105186,105160
 9.0000e-001 105362 -3.8604e+002 -7.7098e+001  3.1345e+001 33734 105408,105160,105264
 9.0000e-001 105339 -4.3455e+002  3.1002e+001 -4.6339e+000 33734 105160,105290,105264
 9.0000e-001 105316 -3.5596e+002 -1.0042e+002  8.3795e+001 33734 105186,105238,105212
 9.0000e-001 105434 -3.8585e+002 -8.4399e+001  2.7634e+001 33734 105238,105186,105408
 9.0000e-001 105457 -3.8512e+002 -7.7113e+001  2.7213e+001 33734 105238,105408,105264
 9.0000e-001 105609 -1.6104e+002 -7.2678e+000 -3.9339e+001 33394 105482,105534,105508
 9.0000e-001 105586 -1.4428e+002  2.3131e+001 -5.9551e+001 33394 105482,105560,105534
 9.0000e-001 105859 -5.0186e+002 -5.6539e+001 -8.2193e+001 33047 105882,105712,105660
 9.0000e-001 105836 -5.4405e+002 -3.9023e+001 -2.8719e+001 33047 105882,105660,105634
 9.0000e-001 105813 -3.6014e+002 -8.8923e+001 -1.1180e+000 33047 105660,105712,105686
 9.0000e-001 105790 -3.8163e+002 -3.5111e+001 -5.5960e+001 33047 105634,105764,105738
 9.0000e-001 105908 -4.0387e+002  3.5607e+001 -1.2255e+002 33047 105738,105712,105882
 9.0000e-001 105931 -5.0640e+002 -1.4997e+001 -5.2311e+001 33047 105738,105882,105634
 9.0000e-001 106181 -3.5492e+002 -1.2012e+002  3.2329e+001 32543 106204,106060,106008
 9.0000e-001 106158 -3.2890e+002 -1.4578e+002  2.6730e+001 32543 105956,106086,106060
 9.0000e-001 106135 -3.4019e+002 -9.1566e+001  2.4114e+001 32543 106204,106008,105982
 9.0000e-001 106112 -3.6361e+002 -1.8540e+002  2.0680e+001 32543 106008,106060,106034
 9.0000e-001 106230 -3.4151e+002 -1.3059e+002  1.1621e+001 32543 105956,106060,106204
 9.0000e-001 106253 -3.2383e+002 -1.0234e+002  2.6773e+000 32543 105956,106204,105982
 9.0000e-001 106454 -3.1969e+002 -1.2429e+002 -6.8239e+001 31839 106304,106356,106330
 9.0000e-001 106431 -3.4213e+002 -8.5838e+001  1.8899e+001 31839 106278,106356,106304
 9.0000e-001 106408 -2.3936e+002 -4.8712e+001 -5.6575e+000 31839 106278,106382,106356
 9.0000e-001 106704 -2.3819e+002 -3.9935e+001  7.1121e+000 31534 106505,106583,106557
 9.0000e-001 106681 -2.3202e+002 -3.6742e+001  8.2693e+000 31534 106479,106583,106505
 9.0000e-001 106658 -2.7029e+002 -4.5500e+001  1.1896e+001 31534 106505,106557,106531
 9.0000e-001 106635 -2.5564e+002 -5.5593e+001  2.5523e+001 31534 106479,106609,106583
 9.0000e-001 107108 -6.2792e+002 -4.6540e+001 -1.0051e+002 31030 106886,106990,106964
 9.0000e-001 107085 -4.9324e+002 -1.5077e+002 -2.5289e+001 31030 106860,106990,106886
 9.0000e-001 107062 -4.7349e+002 -1.3089e+002 -6.7504e+000 31030 106834,106990,106860
 9.0000e-001 107039 -8.5681e+002 -3.0197e+002  5.6288e+001 31030 106912,106964,106938
 9.0000e-001 107016 -9.3303e+002 -1.7180e+002 -9.7128e+001 31030 106886,106964,106912
 9.0000e-001 107307 -4.0405e+002  1.9941e+001 -1.8141e+000 30718 107330,107157,107131
 9.0000e-001 107284 -3.4215e+002  1.1599e+001 -1.9015e+001 30718 107330,107131,107235
 9.0000e-001 107261 -2.6860e+002 -3.1320e+000  3.0159e+001 30718 107183,107235,107209
 9.0000e-001 107356 -3.4218e+002  1.3695e+000  1.3928e+001 30718 107183,107157,107330
 9.0000e-001 107379 -2.8290e+002 -7.8832e+000 -8.4419e+000 30718 107183,107330,107235
 9.0000e-001 107759 -1.9389e+002 -6.0844e+001  2.5149e+001 30264 107782,107615,107537
 9.0000e-001 107736 -1.9389e+002 -6.0871e+001  2.5895e+001 30264 107782,107537,107485
 9.0000e-001 107713 -2.6974e+002 -3.1655e+001  3.3294e+001 30264 107485,107537,107511
 9.0000e-001 107690 -1.3798e+002 -1.4296e+001  4.5345e+001 30264 107537,107615,107589
 9.0000e-001 107667 -1.2247e+002 -2.3581e+001  3.8602e+001 30264 107537,107589,107563
 9.0000e-001 107808 -1.9502e+002 -6.1249e+001  2.4997e+001 30264 107641,107615,107782
 9.0000e-001 107831 -1.9462e+002 -6.1083e+001  2.5741e+001 30264 107641,107782,107485
 9.0000e-001 108030 -3.4254e+002 -7.7816e+001  4.3695e+001 29874 108053,107854,107932
 9.0000e-001 108007 -2.5581e+002 -5.4121e+001  3.9556e+001 29874 107854,107958,107932
 9.0000e-001 107984 -3.9281e+002 -4.9116e+001  8.2209e+001 29874 108053,107932,107906
 9.0000e-001 108079 -3.2517e+002 -3.9258e+001  3.7533e+001 29874 107880,107854,108053
 9.0000e-001 108102 -3.5905e+002  1.0008e+001  6.5470e+001 29874 107880,108053,107906
 9.0000e-001 108433 -1.7760e+002 -6.3452e+001  1.2522e+001 29484 108234,108338,108312
 9.0000e-001 108410 -2.4458e+002 -4.0520e+001  9.0207e+001 29484 108208,108338,108234
 9.0000e-001 108387 -2.7645e+002 -5.5252e+001 -1.1911e+001 29484 108234,108312,108260
 9.0000e-001 108364 -2.4305e+002 -8.2928e+001 -1.2350e+001 29484 108260,108312,108286
 9.0000e-001 108762 -2.3762e+002 -1.2398e+002  8.6536e+000 29080 108563,108641,108589
 9.0000e-001 108739 -1.9499e+002 -9.8348e+001  5.1069e+001 29080 108537,108641,108563
 9.0000e-001 108716 -3.5109e+002 -5.4811e+001  9.8074e+001 29080 108589,108641,108615
 9.0000e-001 108693 -1.2076e+002 -8.6568e+001 -2.1318e+001 29080 108537,108667,108641
 9.0000e-001 109189 -3.3946e+002 -7.7204e+001  2.9934e+001 28476 108892,108996,108970
 9.0000e-001 109166 -4.3223e+002 -6.3974e+001  3.0506e+001 28476 108892,109022,108996
 9.0000e-001 109143 -3.4990e+002 -1.1492e+002  3.2955e+001 28476 108892,108970,108944
 9.0000e-001 109120 -4.8165e+002 -8.8527e+001  2.1534e+001 28476 108892,109048,109022
 9.0000e-001 109097 -3.6578e+002 -1.3725e+002  2.2081e+001 28476 108892,108944,108918
 9.0000e-001 109074 -6.1498e+002 -5.8046e+001 -6.9043e+001 28476 108866,109048,108892
 9.0000e-001 109518 -2.8950e+002 -7.2264e+001  4.5756e+001 28022 109541,109371,109345
 9.0000e-001 109495 -3.2370e+002 -4.1868e+001  1.9045e-001 28022 109541,109345,109319
 9.0000e-001 109472 -2.7084e+002 -5.9616e+001 -1.5540e+001 28022 109293,109397,109319
 9.0000e-001 109449 -2.8675e+002 -8.3472e+001  8.3030e+000 28022 109293,109423,109397
 9.0000e-001 109567 -1.5307e+002 -1.9345e+001  6.1938e+001 28022 109397,109371,109541
 9.0000e-001 109590 -2.8116e+002 -4.8550e+001  1.5700e+001 28022 109397,109541,109319
 9.0000e-001 109968 -2.9214e+002 -1.5277e+002 -3.1098e+001 27568 109798,109850,109824
 9.0000e-001 109945 -2.7858e+002 -6.1599e+001 -4.5504e+001 27568 109694,109850,109798
 9.0000e-001 109922 -2.4539e+002 -1.2604e+002 -3.1771e+001 27568 109694,109798,109746
 9.0000e-001 109899 -2.6476e+002 -1.1050e+002  1.0234e+002 27568 109746,109798,109772
 9.0000e-001 109876 -1.6841e+002 -1.2598e+001  2.8249e+001 27568 109694,109746,109720
 9.0000e-001 110167 -3.1369e+002 -5.7842e+001 -9.9500e+000 27007 110017,110095,110069
 9.0000e-001 110144 -2.8210e+002 -1.6678e+001  5.4017e+000 27007 109991,110095,110017
 9.0000e-001 110121 -3.0117e+002 -1.0584e+001  4.5888e+001 27007 110017,110069,110043
 9.0000e-001 110415 -2.0615e+002 -9.8082e+001  1.9020e+001 26567 110438,110242,110190
 9.0000e-001 110392 -2.5968e+002  1.3367e+001 -2.1225e+001 26567 110438,110190,110320
 9.0000e-001 110369 -2.8164e+002 -9.8098e+001  1.6443e+001 26567 110242,110294,110268
 9.0000e-001 110346 -1.8058e+002 -3.5851e+001  2.1802e+001 26567 110190,110242,110216
 9.0000e-001 110464 -2.3495e+002 -1.1990e+002  1.9332e+000 26567 110294,110242,110438
 9.0000e-001 110487 -3.1928e+002 -8.9772e+001 -5.6023e+001 26567 110294,110438,110320
 9.0000e-001 110639 -4.6012e+002  1.4539e+001 -5.4715e+001 26170 110538,110590,110564
 9.0000e-001 110616 -3.6124e+002 -4.0297e+001  7.2888e+000 26170 110512,110590,110538
 9.0000e-001 111149 -2.8600e+002 -4.6980e+001  8.2569e+001 25716 111172,110878,110852
 9.0000e-001 111126 -2.3043e+002 -8.6861e+000  6.5899e+001 25716 111172,110852,111008
 9.0000e-001 111103 -3.1403e+002 -7.5796e+001  1.4794e+002 25716 110878,110930,110904
 9.0000e-001 111080 -2.1477e+002 -1.6193e+001  4.6605e+001 25716 110826,111008,110852
 9.0000e-001 111057 -1.6389e+002 -9.5068e+001  2.9259e+001 25716 110930,111008,110956
 9.0000e-001 111034 -1.7410e+002 -7.8792e+001  1.2162e+001 25716 110956,111008,110982
 9.0000e-001 111198 -2.2997e+002 -1.0096e+002  1.0197e+002 25716 110930,110878,111172
 9.0000e-001 111221 -1.6314e+002 -5.7114e+001  8.2961e+001 25716 110930,111172,111008
 9.0000e-001 111420 -3.8403e+002 -5.1308e+001  6.9149e+000 25304 111443,111270,111244
 9.0000e-001 111397 -4.0137e+002  2.1176e+001  5.1004e+000 25304 111443,111244,111348
 9.0000e-001 111374 -4.0840e+002 -1.2251e+002 -2.4620e+001 25304 111270,111322,111296
 9.0000e-001 111469 -3.8955e+002 -1.0032e+002  2.9334e+000 25304 111322,111270,111443
 9.0000e-001 111492 -4.1892e+002 -4.2669e+001 -5.3757e+000 25304 111322,111443,111348
 9.0000e-001 111691 -2.8293e+002 -1.0191e+002 -1.9999e+001 24736 111567,111619,111593
 9.0000e-001 111668 -2.8399e+002 -6.2583e+001 -3.9675e+001 24736 111541,111619,111567
 9.0000e-001 111645 -2.8617e+002 -1.4660e+001 -1.1647e+001 24736 111515,111619,111541
 9.0000e-001 112024 -3.9711e+001 -8.3896e+000  1.0076e+001 24146 111825,111877,111851
 9.0000e-001 112001 -4.3838e+001  5.2165e+000  1.9586e+000 24146 111825,111903,111877
 9.0000e-001 111978 -7.0764e+001 -4.0176e+001  1.3599e+001 24146 111825,111929,111903
 9.0000e-001 111955 -8.8135e+001 -9.2219e+001 -1.9112e+001 24146 111799,111929,111825
 9.0000e-001 112370 -3.2539e+002 -1.3976e+002  4.7162e+001 23856 112393,112151,112125
 9.0000e-001 112347 -2.9094e+002 -8.8957e+001  6.4239e+001 23856 112465,112393,112125
 9.0000e-001 112324 -2.9132e+002 -6.2616e+001  7.9803e+001 23856 112465,112125,112073
 9.0000e-001 112301 -3.7951e+002 -9.8381e+001  1.0762e+002 23856 112073,112125,112099
 9.0000e-001 112278 -3.3929e+002 -1.4139e+002  6.8748e+000 23856 112047,112229,112073
 9.0000e-001 112255 -3.0165e+002 -1.3579e+002 -1.7127e+001 23856 112151,112203,112177
 9.0000e-001 112419 -3.3276e+002 -1.2269e+002  2.3248e+001 23856 112203,112151,112393
 9.0000e-001 112442 -3.2530e+002 -1.5595e+002  1.4960e+001 23856 112203,112393,112229
 9.0000e-001 112491 -3.2091e+002 -1.2130e+002  8.4803e+000 23856 112229,112393,112465
 9.0000e-001 112514 -3.0103e+002 -5.6440e+001  2.4370e+001 23856 112229,112465,112073
 9.0000e-001 112784 -5.4663e+002  2.2518e+002 -9.4640e+001 23494 112611,112663,112637
 9.0000e-001 112761 -4.3350e+002 -6.8308e+001 -7.6588e+001 23494 112585,112663,112611
 9.0000e-001 112738 -5.0336e+002 -9.7077e+001  3.3821e+001 23494 112559,112663,112585
 9.0000e-001 112715 -4.4219e+002  1.2767e+002  6.7604e+001 23494 112559,112689,112663
 9.0000e-001 113117 -3.7550e+002 -2.0849e+001 -8.2821e+001 22974 112944,113022,112996
 9.0000e-001 113094 -2.8946e+002 -7.4918e+001 -6.3335e+001 22974 112918,113022,112944
 9.0000e-001 113071 -4.2190e+002 -1.6650e+002 -1.1623e+002 22974 112944,112996,112970
 9.0000e-001 113048 -2.6681e+002 -5.9553e+000 -7.2599e+001 22974 112892,113022,112918
 9.0000e-001 113414 -4.0969e+002 -1.0487e+002  1.5664e+000 22370 113192,113296,113218
 9.0000e-001 113391 -4.5328e+002 -1.7307e+002 -2.0727e+001 22370 113140,113296,113192
 9.0000e-001 113368 -4.2011e+002 -1.2451e+002  2.2368e+001 22370 113218,113296,113270
 9.0000e-001 113345 -3.7531e+002 -1.2689e+002  6.8102e+001 22370 113218,113270,113244
 9.0000e-001 113322 -3.6989e+002  6.1198e+000 -4.4212e+001 22370 113140,113192,113166
 9.0000e-001 113662 -3.0433e+002 -4.5625e+001  3.1366e+001 21916 113685,113515,113489
 9.0000e-001 113639 -3.7344e+002 -1.0041e+002  5.5652e+000 21916 113685,113489,113437
 9.0000e-001 113616 -2.8650e+002 -9.6648e+001 -1.1333e+001 21916 113757,113567,113541
 9.0000e-001 113593 -3.5438e+002 -4.9714e+001 -1.1083e+001 21916 113437,113489,113463
 9.0000e-001 113711 -3.4710e+002 -1.2766e+002  1.2856e+001 21916 113541,113515,113685
 9.0000e-001 113734 -3.2656e+002 -1.2230e+002 -3.3456e-001 21916 113757,113541,113685
 9.0000e-001 113783 -3.4285e+002 -8.9070e+001 -8.7934e+000 21916 113437,113567,113757
 9.0000e-001 113806 -3.4676e+002 -8.8092e+001 -9.1739e+000 21916 113437,113757,113685
 9.0000e-001 114056 -2.8960e+002 -1.0115e+002 -9.8918e+000 21412 113857,113909,113883
 9.0000e-001 114033 -2.7570e+002 -5.5750e+001 -9.5914e+000 21412 114079,113909,113857
 9.0000e-001 114010 -3.1900e+002 -7.4079e+001 -7.0972e+000 21412 114079,113857,113961
 9.0000e-001 113987 -2.9337e+002 -7.6628e+001 -8.2690e+000 21412 113831,113961,113857
 9.0000e-001 114105 -3.1132e+002 -4.3277e+001 -2.9778e+001 21412 113935,113909,114079
 9.0000e-001 114128 -3.4077e+002 -5.4119e+001 -2.7270e+001 21412 113935,114079,113961
 9.0000e-001 114378 -2.5267e+002 -7.0350e+001  8.2830e+000 21022 114401,114257,114205
 9.0000e-001 114355 -2.8770e+002 -8.4071e+001 -4.1292e+001 21022 114401,114205,114179
 9.0000e-001 114332 -2.4235e+002 -4.6068e+001  2.9520e+000 21022 114153,114283,114179
 9.0000e-001 114309 -2.8258e+002 -6.7123e+001  9.0429e+000 21022 114205,114257,114231
 9.0000e-001 114427 -1.8395e+002 -5.6329e+001  3.6024e+001 21022 114283,114257,114401
 9.0000e-001 114450 -2.3484e+002 -7.4743e+001 -1.1924e+001 21022 114283,114401,114179
 9.0000e-001 114651 -1.5569e+002 -2.2358e+001 -1.3049e+001 20618 114501,114553,114527
 9.0000e-001 114628 -7.0310e+001  4.3484e+000  2.3242e+000 20618 114501,114579,114553
 9.0000e-001 114605 -1.6961e+002 -7.3177e+000 -1.5440e+001 20618 114475,114579,114501
 9.0000e-001 114901 -4.5378e+002 -5.5396e+001 -4.5951e+001 20114 114676,114780,114702
 9.0000e-001 114878 -3.6091e+002 -9.6057e+000 -6.0680e+001 20114 114676,114806,114780
 9.0000e-001 114855 -5.1212e+002 -2.5436e+001 -3.7884e+001 20114 114702,114780,114754
 9.0000e-001 114832 -1.1490e+003 -2.0556e+002 -6.4521e+001 20114 114702,114754,114728
 9.0000e-001 115053 -4.0197e+002 -6.6046e+001  3.7752e+000 19460 115147,115076,114926
 9.0000e-001 115030 -4.1352e+002 -5.2110e+001  9.5242e-002 19460 115147,114926,115004
 9.0000e-001 115102 -4.0716e+002 -8.0149e+001  4.5360e+000 19460 114952,114926,115076
 9.0000e-001 115173 -4.1204e+002 -8.6191e+001 -5.2352e-001 19460 114978,115076,115147
 9.0000e-001 115196 -4.2301e+002 -7.0095e+001 -4.9490e+000 19460 114978,115147,115004
 9.0000e-001 115446 -4.4573e+002 -4.9268e+001  3.8667e+001 19006 115273,115351,115299
 9.0000e-001 115423 -3.8211e+002 -1.2608e+002  3.2121e+000 19006 115247,115351,115273
 9.0000e-001 115400 -3.6560e+002 -1.2198e+002 -2.1436e+001 19006 115221,115351,115247
 9.0000e-001 115377 -2.7952e+002 -4.0738e+001 -1.0645e+002 19006 115299,115351,115325
 9.0000e-001 115767 -1.9646e+002  3.9121e+001  4.5828e+001 18716 115571,115649,115623
 9.0000e-001 115744 -2.5501e+002 -7.5628e+001  2.5543e+001 18716 115493,115649,115571
 9.0000e-001 115721 -2.4796e+002  1.3158e+001  2.8004e+001 18716 115493,115571,115545
 9.0000e-001 115698 -2.7496e+002 -3.0583e+001  5.8185e+000 18716 115493,115545,115519
 9.0000e-001 115675  4.2468e+000  9.5120e+001 -1.4072e+001 18716 115571,115623,115597
 9.0000e-001 116039 -3.6674e+002 -1.0828e+002  1.6232e+001 18312 115814,115892,115840
 9.0000e-001 116016 -3.6489e+002 -1.1089e+002  2.9651e+001 18312 115814,115944,115892
 9.0000e-001 115993 -3.9729e+002 -2.7482e+001  3.2214e+001 18312 115892,115944,115918
 9.0000e-001 115970 -1.8359e+002 -2.3976e+001 -5.0522e+000 18312 115840,115892,115866
 9.0000e-001 116191 -4.0111e+002 -6.2078e+001  2.9205e+000 18000 116090,116142,116116
 9.0000e-001 116168 -3.7613e+002 -6.9490e+001  2.1242e+001 18000 116064,116142,116090
 9.0000e-001 116343 -3.1008e+002  2.6992e+001  1.5527e+000 17396 116242,116294,116268
 9.0000e-001 116320 -3.6471e+002  1.1976e+001 -4.5151e+000 17396 116216,116294,116242
 9.0000e-001 116566 -3.8752e+002 -1.8164e+002  3.2869e+001 16942 116390,116468,116442
 9.0000e-001 116543 -6.2297e+002 -2.0728e+002  6.9797e+001 16942 116390,116494,116468
 9.0000e-001 116520 -4.1934e+002 -2.5623e+002  1.3745e+001 16942 116390,116442,116416
 9.0000e-001 116767 -2.2495e+002  1.3934e+001  9.1492e+000 16438 116790,116643,116617
 9.0000e-001 116744 -2.7353e+002 -3.4778e+001 -1.0305e+001 16438 116790,116617,116591
 9.0000e-001 116721 -1.5921e+002 -2.8277e+001 -2.3445e+001 16438 116643,116695,116669
 9.0000e-001 116816 -1.9939e+002 -2.1409e+001  2.5264e+001 16438 116695,116643,116790
 9.0000e-001 116839 -2.1490e+002 -3.6722e+001  1.7417e+001 16438 116695,116790,116591
 9.0000e-001 117062 -5.4012e+001 -6.1411e+000 -9.0712e-001 16074 116886,116938,116912
 9.0000e-001 117039 -5.2736e+001 -8.1550e+000  2.5084e+000 16074 116886,116990,116938
 9.0000e-001 117016 -4.9371e+001 -1.0602e+000  3.8920e+000 16074 116938,116990,116964
 9.0000e-001 117214 -5.9435e+002 -2.9108e+002 -3.9247e+001 15649 117087,117139,117113
 9.0000e-001 117191 -6.6511e+002 -3.3729e+002  2.5008e+000 15649 117087,117165,117139
 9.0000e-001 117317 -1.9514e+001 -5.4161e+001  1.0932e+001 421 117239,117291,117265
 1.0000e+000 70632  1.5206e+001 -6.6578e+000  1.8428e+001 70072 70482,70534,70508
 1.0000e+000 70609  2.1946e+000  4.4276e-001  3.9231e+000 70072 70482,70560,70534
 1.0000e+000 70586 -4.4748e+002 -1.7713e+002 -2.3289e+001 70072 70456,70560,70482
 1.0000e+000 70951 -5.4585e+002 -1.6280e+002  0.0000e+000 69874 70703,70755,70729
 1.0000e+000 70928 -5.6904e+002 -1.7127e+002  1.1578e+001 69874 70703,70781,70755
 1.0000e+000 70905 -5.0573e+002 -5.7485e+001  3.9452e+001 69874 70703,70807,70781
 1.0000e+000 70882 -5.8156e+002 -2.3507e+002  3.8059e+001 69874 70703,70833,70807
 1.0000e+000 70859 -3.2384e+002 -1.1109e+002 -1.2620e+001 69874 70677,70833,70703
 1.0000e+000 71199 -2.8462e+002 -9.6695e+001  3.3389e+001 69698 71222,71052,71026
 1.0000e+000 71176 -2.8708e+002 -4.4859e+001  3.8661e+001 69698 71294,71222,71026
 1.0000e+000 71153 -2.8144e+002 -2.4279e+001  2.7143e+001 69698 71294,71026,71000
 1.0000e+000 71130 -3.1266e+002 -5.4301e+001  1.4012e+000 69698 71366,71104,71078
 1.0000e+000 71248 -2.6158e+002 -5.5972e+001  2.3749e+001 69698 71078,71052,71222
 1.0000e+000 71271 -2.9186e+002 -7.1335e+001  1.8147e+001 69698 71366,71078,71222
 1.0000e+000 71320 -2.6815e+002 -2.5674e+001  1.8867e+001 69698 70974,71222,71294
 1.0000e+000 71343 -2.6486e+002 -1.9124e+001  7.6901e+000 69698 70974,71294,71000
 1.0000e+000 71392 -2.9291e+002 -1.7343e+001  1.3934e+001 69698 70974,71104,71366
 1.0000e+000 71415 -2.7746e+002 -3.7662e+001  2.3163e+001 69698 70974,71366,71222
 1.0000e+000 71516 -3.2916e+002 -3.8989e+001  2.5665e+001 69386 71438,71490,71464
 1.0000e+000 71869 -2.3997e+002  1.0339e+001 -1.1432e+001 69188 71644,71748,71670
 1.0000e+000 71846 -1.1234e+002 -3.8304e+001  5.6097e+001 69188 71644,71774,71748
 1.0000e+000 71823 -2.0730e+002 -6.0787e+001 -5.4513e+001 69188 71670,71748,71722
 1.0000e+000 71800 -9.3060e+001 -3.2629e+000  1.9909e+000 69188 71670,71722,71696
 1.0000e+000 72019 -7.5645e+002 -1.5574e+002  9.5966e+001 68990 71918,71970,71944
 1.0000e+000 71996 -1.0106e+003 -8.2656e+001  6.4775e+001 68990 71892,71970,71918
 1.0000e+000 72316 -4.1386e+002 -6.5258e+001  2.2736e+001 68586 72339,72172,72146
 1.0000e+000 72293 -4.5450e+002 -1.2732e+002  4.0927e+001 68586 72339,72146,72120
 1.0000e+000 72270 -4.5509e+002 -1.4716e+002  9.8653e+001 68586 72411,72068,72198
 1.0000e+000 72247 -5.2527e+002 -1.1844e+002  1.1601e+002 68586 72042,72198,72068
 1.0000e+000 72224 -3.7067e+002 -7.2022e+001  7.4434e+000 68586 72068,72120,72094
 1.0000e+000 72365 -4.5733e+002 -5.8626e+001  7.1052e+001 68586 72198,72172,72339
 1.0000e+000 72388 -4.8409e+002 -1.1971e+002  8.6148e+001 68586 72411,72198,72339
 1.0000e+000 72437 -4.2256e+002 -1.2127e+002  7.7780e+001 68586 72120,72068,72411
 1.0000e+000 72460 -4.4930e+002 -8.5378e+001  6.5844e+001 68586 72120,72411,72339
 1.0000e+000 72864 -2.3621e+002 -6.1259e+001  2.3025e+001 68388 72642,72694,72668
 1.0000e+000 72841 -2.7169e+002 -1.0423e+002  4.3947e+001 68388 72616,72694,72642
 1.0000e+000 72818 -3.3174e+002 -1.3416e+002 -9.0699e+000 68388 72616,72720,72694
 1.0000e+000 72795 -4.0996e+002 -1.1504e+002  3.2771e+001 68388 72590,72720,72616
 1.0000e+000 72772 -5.2740e+002 -1.4710e+001 -1.2282e+002 68388 72590,72746,72720
 1.0000e+000 73321 -2.8286e+002 -1.3711e+002 -2.5629e+001 68048 73073,73203,73177
 1.0000e+000 73298 -2.5312e+002 -1.2054e+002 -1.8454e+001 68048 73047,73203,73073
 1.0000e+000 73275 -3.8676e+002 -1.0753e+002  2.3909e+000 68048 73125,73177,73151
 1.0000e+000 73252 -3.6345e+002 -1.0768e+002 -8.9088e+000 68048 73073,73177,73125
 1.0000e+000 73229 -3.4630e+002 -2.5290e+001 -3.6104e+000 68048 73073,73125,73099
 1.0000e+000 73640 -5.1869e+002  1.6577e+001 -5.6001e+001 67850 73444,73496,73470
 1.0000e+000 73617 -4.1945e+002 -1.0709e+002 -4.0336e+001 67850 73418,73496,73444
 1.0000e+000 73594 -4.1671e+002 -8.7713e+001 -2.0064e+001 67850 73392,73496,73418
 1.0000e+000 73571 -3.4026e+002 -4.6305e+001  9.1747e+000 67850 73392,73522,73496
 1.0000e+000 73548 -2.8620e+002 -1.5142e+001 -6.0868e+001 67850 73366,73522,73392
 1.0000e+000 73790 -4.7667e+002 -1.9397e+002 -4.7119e+000 67602 73689,73741,73715
 1.0000e+000 73767 -4.3883e+002 -1.0799e+002  1.8795e+000 67602 73663,73741,73689
 1.0000e+000 74040 -5.4739e+002 -1.7089e+002 -9.6920e+000 67290 73841,73945,73919
 1.0000e+000 74017 -3.9727e+002 -2.0022e+002 -5.4813e+001 67290 73815,73945,73841
 1.0000e+000 73994 -4.8430e+002 -1.5587e+002  3.9864e+001 67290 73841,73919,73867
 1.0000e+000 73971 -4.7640e+002 -1.2907e+002  2.5724e+001 67290 73867,73919,73893
 1.0000e+000 74143 -5.2405e+002 -1.5160e+001 -9.9353e-002 67092 74065,74117,74091
 1.0000e+000 74415 -3.9503e+002 -1.4251e+002 -6.2174e+001 66894 74190,74294,74216
 1.0000e+000 74392 -3.6117e+002 -1.1082e+002  1.1457e+001 66894 74190,74320,74294
 1.0000e+000 74369 -3.6233e+002 -4.5704e+001 -6.2755e+001 66894 74216,74294,74242
 1.0000e+000 74346 -3.7563e+002 -3.1247e+001 -5.6619e+001 66894 74242,74294,74268
 1.0000e+000 75023 -4.3073e+002 -1.7798e+002  4.9491e+001 66532 74654,74836,74810
 1.0000e+000 75000 -2.7067e+002 -7.4060e+001  9.5008e+001 66532 74628,74836,74654
 1.0000e+000 74977 -2.4484e+002 -7.9958e+001 -3.7162e+001 66532 74706,74784,74732
 1.0000e+000 74954 -3.4790e+002 -1.2239e+002 -1.0731e+002 66532 74680,74784,74706
 1.0000e+000 74931 -5.7192e+002 -7.9452e+001 -9.2099e+001 66532 74680,74810,74784
 1.0000e+000 74908 -3.6499e+002 -8.5338e+001  9.2234e+001 66532 74654,74810,74680
 1.0000e+000 74885 -4.0250e+002 -1.5041e+002  6.3047e+001 66532 74602,74836,74628
 1.0000e+000 74862 -3.3850e+002 -9.5944e+001  9.2019e+000 66532 74732,74784,74758
 1.0000e+000 75222 -4.3803e+002 -3.5386e+001  4.5264e+001 66242 75072,75150,75124
 1.0000e+000 75199 -4.1169e+002 -9.4176e+001  4.1780e+001 66242 75046,75150,75072
 1.0000e+000 75176 -4.8466e+002 -8.4180e+001  2.0727e+001 66242 75072,75124,75098
 1.0000e+000 75470 -6.0956e+002  1.7839e+001  2.0447e+001 65838 75297,75375,75349
 1.0000e+000 75447 -6.2194e+002 -3.8758e+001  1.5278e+001 65838 75271,75375,75297
 1.0000e+000 75424 -4.3799e+002  1.7058e+002  1.1584e+002 65838 75297,75349,75323
 1.0000e+000 75401 -6.3074e+002 -2.6616e+001  5.6628e+001 65838 75245,75375,75271
 1.0000e+000 75671 -1.8510e+002 -2.7846e+001 -2.0779e+001 65640 75495,75573,75521
 1.0000e+000 75648 -2.3654e+002 -4.6541e+001 -2.3800e+001 65640 75495,75599,75573
 1.0000e+000 75625 -2.3313e+002 -2.1496e+001 -7.4230e+000 65640 75521,75573,75547
 1.0000e+000 75872 -3.1674e+002 -1.0806e+002 -2.0709e+001 65300 75895,75748,75722
 1.0000e+000 75849 -2.7948e+002 -7.9014e+001 -7.6891e+000 65300 75895,75722,75696
 1.0000e+000 75826 -3.1544e+002 -2.5951e+001 -2.0215e+001 65300 75967,75774,75748
 1.0000e+000 75921 -3.1931e+002 -5.0004e+001  4.7911e-001 65300 75967,75748,75895
 1.0000e+000 75944 -3.0356e+002 -5.0129e+001  3.1034e+001 65300 75800,75895,75696
 1.0000e+000 75993 -3.4945e+002 -6.2027e+001 -5.6776e+000 65300 75800,75774,75967
 1.0000e+000 76016 -3.4853e+002 -7.5060e+001  1.2999e+001 65300 75800,75967,75895
 1.0000e+000 76371 -3.8859e+002 -4.0235e+001  3.4160e+001 64896 76146,76250,76172
 1.0000e+000 76348 -3.9644e+002 -9.8447e+001  6.8246e+000 64896 76146,76276,76250
 1.0000e+000 76325 -2.8174e+002 -2.8769e+001 -8.7055e+000 64896 76172,76250,76198
 1.0000e+000 76302 -7.1138e+002 -2.1925e+002 -6.6382e+001 64896 76198,76250,76224
 1.0000e+000 76570 -6.3775e+002 -1.4364e+002  8.9663e+001 64442 76446,76498,76472
 1.0000e+000 76547 -5.4605e+002 -3.6673e+001  2.0821e+000 64442 76420,76498,76446
 1.0000e+000 76524 -5.6793e+002 -8.1769e+001 -4.8935e+000 64442 76394,76498,76420
 1.0000e+000 76999 -3.4978e+002 -6.1723e+001 -5.6115e+000 63924 77022,76728,76702
 1.0000e+000 76976 -3.8962e+002 -9.0643e+001  1.0101e+001 63924 77022,76702,76832
 1.0000e+000 76953 -3.6150e+002 -7.2838e+001 -8.4312e+001 63924 76728,76806,76754
 1.0000e+000 76930 -5.3189e+002 -1.4904e+002  3.8666e+000 63924 76676,76832,76702
 1.0000e+000 76907 -5.1801e+002  5.9765e+001 -8.4603e+001 63924 76754,76806,76780
 1.0000e+000 76884 -5.6128e+002 -1.0342e+001  1.8502e+000 63924 76676,76858,76832
 1.0000e+000 77048 -4.0372e+002 -3.0988e+001 -6.2769e+000 63924 76806,76728,77022
 1.0000e+000 77071 -4.3916e+002 -5.5233e+001  7.9511e+000 63924 76806,77022,76832
 1.0000e+000 77449 -2.6535e+002  4.0889e+000  2.0313e+001 63320 77472,77253,77201
 1.0000e+000 77426 -2.4732e+002 -5.0185e+001 -3.9077e+001 63320 77472,77201,77175
 1.0000e+000 77403 -3.8844e+002 -1.0689e+002 -1.9145e+001 63320 77175,77305,77279
 1.0000e+000 77380 -3.1616e+002 -9.6554e+001  1.0263e+002 63320 77201,77253,77227
 1.0000e+000 77357 -3.7185e+002 -9.6779e+001 -2.9875e+001 63320 77175,77331,77305
 1.0000e+000 77498 -3.1947e+002 -1.0959e+002  3.9407e+001 63320 77279,77253,77472
 1.0000e+000 77521 -2.6628e+002 -9.5419e+001 -3.5384e+001 63320 77279,77472,77175
 1.0000e+000 77769 -5.0007e+002 -1.1738e+002  1.2476e+001 62816 77570,77622,77596
 1.0000e+000 77746 -4.1522e+002 -1.6112e+002 -3.2782e+001 62816 77570,77648,77622
 1.0000e+000 77723 -4.5012e+002 -1.4811e+002 -1.1467e+002 62816 77570,77674,77648
 1.0000e+000 77700 -4.7481e+002 -9.1227e+001 -7.8391e+001 62816 77544,77674,77570
 1.0000e+000 78149 -3.2240e+002 -1.9817e+002 -2.4857e+001 62354 77953,78031,78005
 1.0000e+000 78126 -3.7772e+002 -1.6804e+002 -3.8954e+001 62354 77901,78031,77953
 1.0000e+000 78103 -2.9081e+002 -1.2747e+002 -4.9332e+000 62354 77875,78031,77901
 1.0000e+000 78080 -5.0445e+002 -1.3104e+002  7.3433e+001 62354 77901,77953,77927
 1.0000e+000 78057 -4.9127e+002 -2.3666e+002 -2.5799e+001 62354 77953,78005,77979
 1.0000e+000 78606 -2.2971e+002 -1.1437e+002 -9.5807e+001 61950 78384,78436,78410
 1.0000e+000 78583 -2.4301e+002 -6.1920e+001 -1.3265e+001 61950 78358,78436,78384
 1.0000e+000 78560 -2.5738e+002 -1.1353e+002  1.2986e+001 61950 78358,78488,78436
 1.0000e+000 78537 -1.7119e+002 -2.8466e+001 -4.0090e+001 61950 78436,78488,78462
 1.0000e+000 78514 -2.7405e+002 -1.3816e+002  1.3959e+000 61950 78332,78488,78358
 1.0000e+000 78756 -5.0127e+002 -1.5837e+002  5.4960e+001 61339 78779,78655,78629
 1.0000e+000 78733 -4.7915e+002 -1.0812e+002  4.4426e+001 61339 78779,78629,78707
 1.0000e+000 78805 -4.2458e+002 -4.9050e+001  1.8120e+000 61339 78851,78779,78681
 1.0000e+000 78828 -5.1008e+002 -1.1966e+002  3.8512e+001 61339 78681,78779,78707
 1.0000e+000 78877 -5.0680e+002 -2.4762e+002  2.2682e+001 61339 78655,78779,78851
 1.0000e+000 79206 -3.7914e+002 -7.2896e+001 -1.1237e+002 60892 79229,79007,78981
 1.0000e+000 79183 -4.0480e+002 -1.1995e+002 -9.5910e+001 60892 79229,78981,79111
 1.0000e+000 79160 -4.2091e+002 -1.0919e+002 -8.9676e+001 60892 79301,79033,79007
 1.0000e+000 79137 -5.6380e+002 -5.6819e+001  2.3978e+001 60892 79033,79085,79059
 1.0000e+000 79255 -4.2679e+002 -9.1820e+001 -1.0289e+002 60892 79301,79007,79229
 1.0000e+000 79278 -3.5509e+002 -9.7359e+001 -8.9158e+001 60892 79085,79229,79111
 1.0000e+000 79327 -4.6383e+002 -1.7817e+002 -4.1270e+001 60892 79085,79033,79301
 1.0000e+000 79350 -3.9681e+002 -1.2221e+002 -7.0570e+001 60892 79085,79301,79229
 1.0000e+000 79647 -5.9303e+002 -2.3544e+002 -8.7099e+001 60488 79451,79529,79503
 1.0000e+000 79624 -6.0677e+002 -2.2074e+002 -4.0281e+001 60488 79425,79529,79451
 1.0000e+000 79601 -4.6761e+002 -1.4411e+002 -5.5522e+000 60488 79373,79529,79425
 1.0000e+000 79578 -4.5458e+002 -1.6863e+002  1.1507e+001 60488 79373,79425,79399
 1.0000e+000 79555 -6.3970e+002 -1.1829e+001 -5.6329e+001 60488 79451,79503,79477
 1.0000e+000 79870 -5.6124e+002 -2.4270e+002 -9.2334e+000 60026 79720,79798,79772
 1.0000e+000 79847 -7.9963e+002 -2.9169e+002 -2.3979e+001 60026 79694,79798,79720
 1.0000e+000 79824 -7.7344e+002 -3.2272e+002  1.4272e+001 60026 79720,79772,79746
 1.0000e+000 80120 -2.2122e+002 -6.9296e+000  3.6248e+001 59629 79921,80025,79973
 1.0000e+000 80097 -1.7729e+002 -4.1358e+001  1.2818e+001 59629 79895,80025,79921
 1.0000e+000 80074 -1.9307e+002  1.0855e+001 -3.7633e+001 59629 79973,80025,79999
 1.0000e+000 80051 -1.3461e+002  1.8713e+001  1.8489e+001 59629 79921,79973,79947
 1.0000e+000 80321 -2.7833e+002 -4.5682e+001  5.9034e+000 59125 80344,80171,80145
 1.0000e+000 80298 -2.9872e+002 -7.2031e+001  1.5084e+001 59125 80344,80145,80249
 1.0000e+000 80275 -3.2544e+002 -9.0137e+001  4.3736e+001 59125 80197,80249,80223
 1.0000e+000 80370 -3.0501e+002 -2.9627e+001  2.6166e+001 59125 80197,80171,80344
 1.0000e+000 80393 -3.2326e+002 -5.2795e+001  3.4489e+001 59125 80197,80344,80249
 1.0000e+000 80952 -2.2222e+002 -8.7751e+001  1.0608e+001 58557 80975,80632,80606
 1.0000e+000 80929 -3.0647e+002 -1.0670e+002  2.7825e+001 58557 81119,80975,80606
 1.0000e+000 80906 -2.8769e+002 -9.5386e+001 -2.5627e+001 58557 81047,80684,80632
 1.0000e+000 80883 -3.4747e+002 -1.2619e+002  1.4989e+001 58557 81119,80606,80580
 1.0000e+000 80860 -3.2723e+002  4.0705e+001 -2.7516e+001 58557 81191,80736,80710
 1.0000e+000 80837 -3.1171e+002 -9.5519e+000 -5.7345e+001 58557 80736,80788,80762
 1.0000e+000 80814 -2.4886e+002 -9.3689e+001 -4.3766e+001 58557 80632,80684,80658
 1.0000e+000 81001 -2.8523e+002 -1.2100e+002 -9.3522e+000 58557 81047,80632,80975
 1.0000e+000 81024 -3.2170e+002 -4.2009e+001 -7.3411e+000 58557 81191,80710,80975
 1.0000e+000 81073 -2.8586e+002 -3.1131e+001 -4.8300e+001 58557 80710,80684,81047
 1.0000e+000 81096 -3.0893e+002 -7.4354e+001 -2.4168e+001 58557 80710,81047,80975
 1.0000e+000 81145 -3.2407e+002 -1.3367e+002  2.6260e+000 58557 80788,80975,81119
 1.0000e+000 81168 -3.2974e+002 -1.3575e+002 -7.0959e+000 58557 80788,81119,80580
 1.0000e+000 81217 -3.5337e+002 -3.3461e+001  3.3188e+000 58557 80788,80736,81191
 1.0000e+000 81240 -3.3280e+002 -8.2714e+001  2.8299e+001 58557 80788,81191,80975
 1.0000e+000 81537 -3.6458e+002  4.5063e+001 -4.0798e+001 57881 81560,81341,81289
 1.0000e+000 81514 -2.8271e+002  8.3629e+001 -1.8308e+002 57881 81560,81289,81263
 1.0000e+000 81491 -4.4176e+002 -1.3759e+001 -6.5462e+001 57881 81632,81419,81367
 1.0000e+000 81468 -4.4081e+002  1.1794e+000 -1.5196e+001 57881 81367,81419,81393
 1.0000e+000 81445 -5.7289e+002  4.7265e+001  1.2382e+001 57881 81289,81341,81315
 1.0000e+000 81586 -4.1046e+002 -1.2233e+002 -1.0224e+001 57881 81367,81341,81560
 1.0000e+000 81609 -4.3176e+002  2.5473e+001 -6.5342e+001 57881 81632,81367,81560
 1.0000e+000 81658 -4.1053e+002 -2.0071e+002 -5.4150e+001 57881 81263,81419,81632
 1.0000e+000 81681 -3.4416e+002 -8.0356e+001 -8.0216e+001 57881 81263,81632,81560
 1.0000e+000 81929 -2.1411e+002 -6.8053e+001  3.3403e+001 57477 81704,81808,81782
 1.0000e+000 81906 -1.8315e+002 -6.5813e+001  3.1988e+001 57477 81704,81834,81808
 1.0000e+000 81883 -2.2210e+002 -2.2072e+001  6.2803e+001 57477 81704,81782,81730
 1.0000e+000 81860 -2.4415e+002 -3.0228e+001  6.7186e+001 57477 81730,81782,81756
 1.0000e+000 82488 -3.3365e+002 -1.6070e+002  1.4291e+001 56966 82583,82511,82194
 1.0000e+000 82465 -3.0791e+002 -1.0577e+002 -8.8052e+000 56966 82511,82116,82324
 1.0000e+000 82442 -3.4025e+002 -1.9034e+002  2.3660e+001 56966 82583,82194,82168
 1.0000e+000 82419 -4.5252e+002 -1.7715e+002  1.9542e+001 56966 82194,82246,82220
 1.0000e+000 82396 -3.2561e+002 -1.0902e+002  5.6891e+001 56966 82194,82298,82246
 1.0000e+000 82373 -3.8718e+002 -1.1651e+002  1.1448e+002 56966 82246,82298,82272
 1.0000e+000 82350 -3.1326e+002 -7.9505e+001  8.8315e+000 56966 82116,82168,82142
 1.0000e+000 82537 -3.5101e+002 -1.4135e+002  4.3301e+001 56966 82298,82194,82511
 1.0000e+000 82560 -2.7962e+002 -1.2318e+002  4.6772e+001 56966 82298,82511,82324
 1.0000e+000 82609 -3.4404e+002 -1.2568e+002  9.6825e+000 56966 82116,82511,82583
 1.0000e+000 82632 -3.4187e+002 -1.4734e+002  1.5360e+001 56966 82116,82583,82168
 1.0000e+000 83236 -4.3341e+002 -2.0637e+002 -6.5778e+001 56304 82893,82945,82919
 1.0000e+000 83213 -4.6947e+002 -2.2200e+002 -6.2998e+001 56304 83259,82945,82893
 1.0000e+000 83190 -4.3342e+002 -1.5454e+002 -2.9818e+001 56304 83259,82893,83049
 1.0000e+000 83167 -3.5358e+002 -1.5148e+002  2.4408e+001 56304 82971,83049,83023
 1.0000e+000 83144 -4.1100e+002 -1.2350e+002 -1.3382e+001 56304 82815,83049,82893
 1.0000e+000 83121 -3.9022e+002 -6.8489e+001 -1.8183e+001 56304 82815,82893,82867
 1.0000e+000 83098 -2.6094e+002 -1.3305e+002 -2.6724e+001 56304 82971,83023,82997
 1.0000e+000 83075 -3.6408e+002 -1.2801e+002  2.0067e+001 56304 82815,82867,82841
 1.0000e+000 83285 -4.7554e+002 -1.2452e+002 -3.8122e+001 56304 82971,82945,83259
 1.0000e+000 83308 -4.6290e+002 -1.0480e+002 -1.6658e+000 56304 82971,83259,83049
 1.0000e+000 83556 -4.4246e+002 -1.2362e+002 -3.0883e+001 55964 83357,83461,83435
 1.0000e+000 83533 -3.7898e+002 -1.9524e+001  1.5242e+001 55964 83331,83461,83357
 1.0000e+000 83510 -1.8336e+002 -6.1573e+001 -9.6402e+000 55964 83357,83435,83383
 1.0000e+000 83487 -3.6645e+002 -1.3084e+002 -4.0323e+001 55964 83383,83435,83409
 1.0000e+000 83706 -4.8014e+002 -2.7114e+002 -1.4355e+001 55503 83579,83631,83605
 1.0000e+000 83683 -5.9387e+002 -2.6725e+002  2.0415e+000 55503 83579,83657,83631
 1.0000e+000 83907 -3.5538e+002 -1.6463e+002 -7.4023e+001 55156 83757,83835,83809
 1.0000e+000 83884 -3.1067e+002 -2.5155e+001 -2.4132e+001 55156 83731,83835,83757
 1.0000e+000 83861 -4.3448e+002 -4.1034e+001 -5.8447e+001 55156 83757,83809,83783
 1.0000e+000 84240 -2.6049e+002 -4.7932e+001  3.5375e+001 54652 84093,84145,84119
 1.0000e+000 84217 -4.0114e+002 -5.3905e+001  9.8220e+001 54652 84041,84145,84093
 1.0000e+000 84194 -4.3872e+002 -7.6989e+001  6.1794e+001 54652 84015,84145,84041
 1.0000e+000 84171 -6.4170e+002 -1.5985e+002  8.1779e+001 54652 84041,84093,84067
 1.0000e+000 84618 -2.2892e+002 -9.0099e+001  2.6288e+001 53926 84396,84500,84474
 1.0000e+000 84595 -1.7900e+002 -9.9664e+001  5.2600e+001 53926 84344,84500,84396
 1.0000e+000 84572 -1.7032e+002 -7.2903e+001  5.8549e+001 53926 84344,84396,84370
 1.0000e+000 84549 -1.8295e+002 -5.0271e+001 -3.0781e+001 53926 84396,84474,84422
 1.0000e+000 84526 -3.1293e+002 -1.0919e+002 -7.2926e+001 53926 84422,84474,84448
 1.0000e+000 85350 -5.2987e+002 -1.8430e+002 -1.5181e+002 53586 85373,84880,85088
 1.0000e+000 85327 -2.4865e+002 -1.7933e+002 -1.4837e+002 53586 84880,85114,85088
 1.0000e+000 85304 -2.5102e+002 -5.6221e+001 -1.1797e+002 53586 85373,85088,85062
 1.0000e+000 85281 -4.0729e+002 -3.3225e+002  1.4086e+002 53586 85010,85062,85036
 1.0000e+000 85258 -4.7906e+002 -1.0034e+002  7.8325e+000 53586 85445,85010,84958
 1.0000e+000 85235 -2.3772e+002 -1.2599e+001 -2.2427e+001 53586 85445,84958,84906
 1.0000e+000 85212 -3.9773e+002 -1.2185e+002 -1.9401e+001 53586 84958,85010,84984
 1.0000e+000 85189 -3.8461e+002 -1.0630e+002 -9.8555e+001 53586 84906,84958,84932
 1.0000e+000 85166 -3.1397e+002 -2.7525e+002 -9.7239e+001 53586 84880,85140,85114
 1.0000e+000 85399 -6.1984e+002 -1.3616e+002  1.5193e+002 53586 84906,84880,85373
 1.0000e+000 85422 -4.0006e+002 -2.7847e+001  1.0667e+002 53586 85517,85373,85062
 1.0000e+000 85471 -4.7290e+002 -9.8956e+001  1.3535e+002 53586 85062,85010,85445
 1.0000e+000 85494 -3.6397e+002 -3.1375e+001  9.6222e+001 53586 85517,85062,85445
 1.0000e+000 85543 -3.4218e+002 -3.0659e+001  1.2162e+002 53586 84906,85373,85517
 1.0000e+000 85566 -3.2001e+002 -4.5403e+001  1.1318e+002 53586 84906,85517,85445
 1.0000e+000 86072 -3.1377e+002 -1.6221e+002 -4.4989e+001 53182 86095,85853,85775
 1.0000e+000 86049 -3.3325e+002 -1.5461e+002 -3.7079e+001 53182 86095,85775,85931
 1.0000e+000 86026 -3.5873e+002 -1.8040e+002 -5.2547e+001 53182 86167,85879,85853
 1.0000e+000 86003 -5.4115e+002 -2.1693e+002  4.6127e+000 53182 85775,85827,85801
 1.0000e+000 85980 -3.3980e+002 -2.2342e+002 -4.7116e+001 53182 85775,85853,85827
 1.0000e+000 85957 -2.3553e+002 -1.3481e+002  3.5042e+001 53182 85749,85931,85775
 1.0000e+000 86121 -3.4146e+002 -1.7438e+002 -5.0259e+001 53182 86167,85853,86095
 1.0000e+000 86144 -3.3169e+002 -1.5941e+002 -3.7497e+001 53182 85905,86095,85931
 1.0000e+000 86193 -3.5245e+002 -1.7971e+002 -3.6442e+001 53182 85905,85879,86167
 1.0000e+000 86216 -3.3551e+002 -1.7045e+002 -3.2239e+001 53182 85905,86167,86095
 1.0000e+000 86673 -3.6395e+002 -2.5529e+001  5.5650e+001 52778 86477,86529,86503
 1.0000e+000 86650 -3.7494e+002 -1.4268e+002  1.7679e+001 52778 86425,86529,86477
 1.0000e+000 86627 -3.3028e+002 -1.6519e+002  4.8510e+001 52778 86425,86477,86451
 1.0000e+000 86604 -2.6073e+002 -6.4176e+001  5.7514e+001 52778 86399,86529,86425
 1.0000e+000 86581 -2.1436e+002 -3.7773e+001  4.1901e+001 52778 86399,86555,86529
 1.0000e+000 87258 -3.4411e+002 -7.5219e+001  4.1425e+001 52238 87281,86987,86961
 1.0000e+000 87235 -3.6109e+002 -1.0272e+002  1.8977e+001 52238 87281,86961,87117
 1.0000e+000 87212 -3.5575e+002 -1.8359e+001  1.7449e+001 52238 86935,87117,86961
 1.0000e+000 87189 -4.2771e+002 -3.4729e+001  7.1440e+000 52238 87065,87117,87091
 1.0000e+000 87166 -3.8571e+002 -1.7910e+002  6.7306e+000 52238 86987,87065,87039
 1.0000e+000 87143 -4.1689e+002 -2.8206e+002  9.0937e+001 52238 86987,87039,87013
 1.0000e+000 87307 -3.6003e+002 -1.1743e+002  2.6689e+001 52238 87065,86987,87281
 1.0000e+000 87330 -3.6508e+002 -1.1909e+002  4.5774e+000 52238 87065,87281,87117
 1.0000e+000 87610 -3.6404e+002 -5.9129e+001  2.6285e+001 51834 87434,87512,87460
 1.0000e+000 87587 -3.5269e+002 -3.1428e+001  7.6883e+001 51834 87434,87538,87512
 1.0000e+000 87564 -5.3514e+002 -2.0606e+002 -4.6513e+001 51834 87633,87460,87512
 1.0000e+000 87659 -6.5318e+002 -2.5674e+002 -5.2059e+001 51834 87486,87460,87633
 1.0000e+000 88187 -4.6920e+002 -1.7136e+002 -1.1365e+001 51266 87864,87942,87890
 1.0000e+000 88164 -4.1712e+002 -1.5671e+001  4.2498e+000 51266 87864,88020,87942
 1.0000e+000 88141 -7.2226e+002 -2.1719e+002 -1.3553e+002 51266 87942,88020,87968
 1.0000e+000 88118 -5.7118e+002 -1.9208e+002  8.8001e+001 51266 87864,88046,88020
 1.0000e+000 88095 -4.1580e+002 -2.8464e+001 -1.3301e+001 51266 87968,88020,87994
 1.0000e+000 88072 -4.3151e+002 -2.0670e+002 -4.5675e+001 51266 87890,87942,87916
 1.0000e+000 88644 -4.9454e+002 -2.2577e+002 -2.7537e+001 50754 88370,88500,88396
 1.0000e+000 88621 -4.8254e+002 -9.5863e+001 -6.0262e+001 50754 88370,88526,88500
 1.0000e+000 88598 -3.3838e+002 -9.4632e+001  6.7052e+001 50754 88396,88500,88422
 1.0000e+000 88575 -3.5107e+002 -1.1530e+002  6.0451e+001 50754 88422,88500,88474
 1.0000e+000 88552 -5.4668e+002 -2.4560e+002 -3.8321e+001 50754 88422,88474,88448
 1.0000e+000 88914 -4.3322e+002 -5.3749e+001 -1.1022e+001 50442 88715,88793,88741
 1.0000e+000 88891 -3.6515e+002 -4.7915e+001 -2.6741e+001 50442 88715,88819,88793
 1.0000e+000 88868 -5.4272e+002 -1.3948e+002 -6.7225e+001 50442 88689,88819,88715
 1.0000e+000 88845 -3.2199e+002 -2.5816e+001 -4.7255e+001 50442 88741,88793,88767
 1.0000e+000 89294 -4.9397e+002 -1.0203e+002 -9.7098e+000 49938 89317,89046,89020
 1.0000e+000 89271 -4.6430e+002 -1.1868e+002 -2.5749e+001 49938 89317,89020,89150
 1.0000e+000 89248 -3.4392e+002 -1.2393e+002  8.5786e+000 49938 89072,89150,89098
 1.0000e+000 89225 -4.4348e+002 -6.1238e+001 -8.6299e+001 49938 89020,89176,89150
 1.0000e+000 89202 -2.7748e+002 -7.5216e+001 -3.3965e+001 49938 89098,89150,89124
 1.0000e+000 89343 -3.9354e+002  3.2680e+000  3.6165e+001 49938 89072,89046,89317
 1.0000e+000 89366 -4.5737e+002 -1.1023e+002 -2.1319e+001 49938 89072,89317,89150
 1.0000e+000 89823 -3.3758e+002 -1.3172e+002 -1.3343e+001 49384 89601,89705,89679
 1.0000e+000 89800 -2.7448e+002 -9.6723e+001  5.6480e+001 49384 89549,89705,89601
 1.0000e+000 89777 -1.9972e+002 -4.9690e+001  2.9602e+001 49384 89549,89601,89575
 1.0000e+000 89754 -2.1386e+002 -1.0889e+002  1.8467e+000 49384 89601,89679,89627
 1.0000e+000 89731 -1.3109e+002  5.1368e+000 -7.3120e+001 49384 89627,89679,89653
 1.0000e+000 90329 -1.7907e+002 -4.1913e+001 -2.8078e+001 48894 90058,90110,90084
 1.0000e+000 90306 -2.1862e+002 -5.2253e+001  6.6858e+001 48894 90058,90162,90110
 1.0000e+000 90283 -3.2543e+002 -5.6601e+001  3.0874e+001 48894 90032,90162,90058
 1.0000e+000 90260 -2.1639e+002  6.3036e+000 -3.0444e+001 48894 90006,90162,90032
 1.0000e+000 90237 -7.3397e+001 -1.9536e+001 -1.0859e+001 48894 90110,90162,90136
 1.0000e+000 90214 -2.4745e+002 -1.3264e+001 -1.8618e+001 48894 90006,90188,90162
 1.0000e+000 90884 -3.2951e+002 -7.4128e+001  3.7942e+001 48490 90564,90642,90616
 1.0000e+000 90861 -3.1066e+002 -1.5840e+000 -1.6560e+000 48490 90564,90694,90642
 1.0000e+000 90838 -4.1247e+002 -2.9746e+001  1.0158e+001 48490 90538,90694,90564
 1.0000e+000 90815 -5.5178e+002 -1.0763e+002  4.2027e+001 48490 90538,90720,90694
 1.0000e+000 90792 -3.0338e+002 -3.6893e+001  1.4850e+001 48490 90564,90616,90590
 1.0000e+000 90769 -2.9871e+002 -3.1439e+000 -3.6721e+001 48490 90642,90694,90668
 1.0000e+000 90746 -4.3510e+002 -8.5521e+001  2.3869e+000 48490 90512,90720,90538
 1.0000e+000 91034 -2.6013e+002 -8.8036e+000 -6.5057e+001 48086 91057,90959,90933
 1.0000e+000 91011 -2.6898e+002 -3.2805e+001 -6.4800e+001 48086 91129,91057,90933
 1.0000e+000 91083 -2.7995e+002 -1.0798e+001 -6.7034e+001 48086 90985,90959,91057
 1.0000e+000 91106 -2.5079e+002 -1.5807e+001 -5.3347e+001 48086 90985,91057,90907
 1.0000e+000 91155 -1.9944e+002 -4.7360e+000 -6.0675e+001 48086 90907,91057,91129
 1.0000e+000 91791 -4.4299e+002 -1.2657e+002 -3.2746e+001 47518 92030,91814,91523
 1.0000e+000 91768 -3.4763e+002 -1.0428e+002 -3.8337e+001 47518 91958,91814,91471
 1.0000e+000 91745 -3.3492e+002  6.2594e+001 -1.6426e+001 47518 91886,91575,91523
 1.0000e+000 91722 -3.5234e+002 -1.5716e+002  6.7791e+000 47518 91958,91471,91419
 1.0000e+000 91699 -5.4168e+002 -1.6041e+001 -9.3836e+001 47518 92030,91523,91497
 1.0000e+000 91676 -4.9028e+002  1.0885e+002 -4.3430e+001 47518 91523,91575,91549
 1.0000e+000 91653 -3.2023e+002 -1.2019e+002 -6.9698e+000 47518 91419,91471,91445
 1.0000e+000 91840 -3.7516e+002 -1.9163e+001 -6.2098e+001 47518 91886,91523,91814
 1.0000e+000 91863 -4.4575e+002 -2.1650e+002  3.4227e+000 47518 91601,91814,91627
 1.0000e+000 91912 -2.8395e+002  9.8758e+001  9.4409e+001 47518 91601,91575,91886
 1.0000e+000 91935 -3.3115e+002 -7.3454e+001  5.4768e+001 47518 91601,91886,91814
 1.0000e+000 91984 -4.0146e+002 -1.4926e+002 -1.7891e+001 47518 91627,91814,91958
 1.0000e+000 92007 -3.7758e+002 -1.7901e+002  2.0449e+001 47518 91627,91958,91419
 1.0000e+000 92056 -4.9821e+002 -2.3708e+002 -1.0692e+002 47518 91471,91814,92030
 1.0000e+000 92079 -5.9004e+002 -1.7203e+002 -1.7689e+002 47518 91471,92030,91497
 1.0000e+000 92229 -3.6591e+002 -1.8773e+002 -7.1626e+001 47128 92252,92128,92102
 1.0000e+000 92206 -4.3054e+002 -2.5556e+002 -3.2838e+001 47128 92324,92252,92102
 1.0000e+000 92278 -4.2859e+002 -3.3088e+002 -7.6080e+001 47128 92454,92252,92154
 1.0000e+000 92301 -4.1509e+002 -1.7637e+002 -4.7249e+001 47128 92154,92252,92180
 1.0000e+000 92350 -3.3847e+002 -1.3654e+002  8.5679e+000 47128 92180,92252,92324
 1.0000e+000 92480 -3.5952e+002 -1.7203e+002 -3.4050e+001 47128 92128,92252,92454
 1.0000e+000 93340 -4.1187e+002 -1.6887e+001  5.8677e+001 46838 93363,92977,92873
 1.0000e+000 93317 -5.7015e+002 -7.3897e+001  1.4841e+001 46838 93507,93363,92873
 1.0000e+000 93294 -4.5758e+002 -1.2497e+002 -9.4496e+000 46838 93435,93003,92977
 1.0000e+000 93271 -6.3985e+002 -1.4155e+002 -1.6649e+001 46838 93507,92873,92847
 1.0000e+000 93248 -4.5715e+002 -1.1726e+002 -3.7928e+001 46838 93579,93029,93003
 1.0000e+000 93225 -3.3320e+002 -6.7168e+001  4.0819e-001 46838 92873,92951,92925
 1.0000e+000 93202 -3.2237e+002 -7.4920e+001  1.6570e+001 46838 92873,92977,92951
 1.0000e+000 93179 -6.0988e+002 -1.7618e+002  4.6091e+001 46838 93055,93107,93081
 1.0000e+000 93156 -9.1092e+002 -3.6276e+002 -3.2871e+001 46838 92821,93107,92847
 1.0000e+000 93133 -3.1447e+002 -1.1212e+002  3.2674e+001 46838 92873,92925,92899
 1.0000e+000 93389 -5.0708e+002 -1.1996e+002 -5.5362e+000 46838 93435,92977,93363
 1.0000e+000 93412 -4.6700e+002 -6.8276e+001 -7.2030e+000 46838 93055,93363,93107
 1.0000e+000 93461 -4.4334e+002 -1.1617e+002 -2.3081e+001 46838 93579,93003,93435
 1.0000e+000 93484 -4.7037e+002 -7.1698e+001 -2.1581e+001 46838 93055,93435,93363
 1.0000e+000 93533 -5.0232e+002 -1.8014e+002  6.3049e+000 46838 93107,93363,93507
 1.0000e+000 93556 -5.1224e+002 -2.0433e+002 -7.1171e-001 46838 93107,93507,92847
 1.0000e+000 93605 -4.9242e+002 -1.2778e+002 -4.8277e+001 46838 93055,93029,93579
 1.0000e+000 93628 -4.7714e+002 -1.2713e+002 -3.4043e+001 46838 93055,93579,93435
 1.0000e+000 93979 -4.4961e+002  1.0603e+002  5.4893e+001 46476 93780,93884,93858
 1.0000e+000 93956 -5.2917e+002 -2.5472e+001  2.1641e+001 46476 93754,93884,93780
 1.0000e+000 93933 -1.0249e+003 -3.8651e+001  4.0870e+000 46476 93806,93858,93832
 1.0000e+000 93910 -1.0043e+003 -1.2392e+002  6.7620e+001 46476 93780,93858,93806
 1.0000e+000 94515 -3.8168e+002 -1.4275e+002  3.1411e+001 46072 94345,94397,94371
 1.0000e+000 94492 -2.6034e+002 -9.1312e+001  3.2363e+001 46072 94267,94397,94345
 1.0000e+000 94469 -2.5134e+002 -3.2184e+001  3.3662e+001 46072 94241,94397,94267
 1.0000e+000 94446 -1.5288e+002 -5.0948e+001 -3.5380e+001 46072 94293,94345,94319
 1.0000e+000 94423 -2.5115e+002 -2.4068e+001  3.6946e+001 46072 94267,94345,94293
 1.0000e+000 95149 -2.8964e+002 -7.2765e+001 -1.3340e+001 45346 94803,94881,94855
 1.0000e+000 95126 -2.9186e+002 -5.6111e+001 -2.2237e+001 45346 94803,94959,94881
 1.0000e+000 95103 -2.0935e+002 -2.7210e+001 -1.6542e+001 45346 95172,94933,94907
 1.0000e+000 95080 -2.4964e+002 -3.8871e+001  1.3597e+000 45346 95172,94907,94881
 1.0000e+000 95057 -2.4949e+002 -1.2973e+002 -6.1877e+001 45346 94803,94985,94959
 1.0000e+000 95034 -2.9169e+002 -3.8367e+001 -6.5630e+000 45346 94803,94855,94829
 1.0000e+000 95011 -2.9493e+002 -2.8670e+002 -2.2507e+002 45346 94777,94985,94803
 1.0000e+000 95198 -2.4793e+002 -1.6991e+001 -1.7981e+001 45346 94959,94933,95172
 1.0000e+000 95221 -2.7594e+002 -1.4540e+001 -8.8417e+000 45346 94959,95172,94881
 1.0000e+000 95776 -2.3407e+002 -3.1567e+001  1.1548e+002 44720 95799,95560,95534
 1.0000e+000 95753 -2.9372e+002 -2.5668e+001  1.2728e+002 44720 95799,95534,95482
 1.0000e+000 95730 -3.5833e+002 -4.3694e+001  1.3034e+002 44720 95943,95871,95430
 1.0000e+000 95707 -3.7356e+002 -2.0032e+001  1.3240e+002 44720 95943,95430,95404
 1.0000e+000 95684 -5.6976e+002 -1.4302e+002  1.4516e+002 44720 95430,95482,95456
 1.0000e+000 95661 -1.8480e+002 -3.6174e+001  1.0294e+001 44720 95482,95534,95508
 1.0000e+000 95638 -3.2892e+002 -9.6680e+000  1.3506e+002 44720 95404,95612,95586
 1.0000e+000 95825 -2.9376e+002 -1.8779e+001  1.1703e+002 44720 95586,95560,95799
 1.0000e+000 95848 -3.0591e+002 -2.4710e+001  1.3098e+002 44720 95871,95586,95799
 1.0000e+000 95897 -3.4438e+002 -5.6123e+001  1.0260e+002 44720 95482,95430,95871
 1.0000e+000 95920 -3.3360e+002 -2.5800e+001  1.0681e+002 44720 95482,95871,95799
 1.0000e+000 95969 -3.2756e+002 -1.9761e+001  1.1679e+002 44720 95586,95871,95943
 1.0000e+000 95992 -3.5672e+002 -1.0865e+001  1.2290e+002 44720 95586,95943,95404
 1.0000e+000 96449 -3.3300e+002 -3.2434e+001  9.8170e+000 44202 96544,96472,96227
 1.0000e+000 96426 -3.8759e+002 -2.4246e+002  3.9720e+001 44202 96472,96175,96331
 1.0000e+000 96403 -4.3543e+002  6.3635e+001 -1.2554e+001 44202 96544,96227,96201
 1.0000e+000 96380 -1.4635e+002 -3.3374e+001 -1.9563e+001 44202 96253,96305,96279
 1.0000e+000 96357 -2.5540e+002 -2.5547e+001  4.4287e+001 44202 96227,96305,96253
 1.0000e+000 96498 -3.6339e+002 -1.5363e+002 -4.6642e+000 44202 96305,96227,96472
 1.0000e+000 96521 -3.4799e+002 -1.3605e+002  1.7324e+001 44202 96305,96472,96331
 1.0000e+000 96570 -4.0730e+002 -2.1485e+002 -3.7809e+001 44202 96175,96472,96544
 1.0000e+000 96593 -4.5097e+002 -4.4022e+001 -4.7559e+001 44202 96175,96544,96201
 1.0000e+000 96971 -3.0437e+002 -1.6003e+002  1.9047e+001 43754 96994,96749,96697
 1.0000e+000 96948 -3.2812e+002 -1.7154e+002  2.3276e+001 43754 96994,96697,96853
 1.0000e+000 96925 -2.8197e+002 -1.7391e+002  5.4217e+000 43754 96697,96749,96723
 1.0000e+000 96902 -3.1107e+002 -9.7502e+001 -2.2222e+001 43754 96775,96853,96827
 1.0000e+000 96879 -2.7053e+002 -9.2695e+001 -1.5884e+001 43754 96775,96827,96801
 1.0000e+000 97020 -3.0807e+002 -1.3345e+002 -1.1031e+001 43754 96775,96749,96994
 1.0000e+000 97043 -3.4910e+002 -1.5550e+002 -1.2737e+000 43754 96775,96994,96853
 1.0000e+000 97291 -3.1216e+002 -4.0679e+001 -3.2987e+001 43364 97314,97144,97118
 1.0000e+000 97268 -3.3934e+002 -8.3589e+001 -5.1997e+001 43364 97314,97118,97092
 1.0000e+000 97245 -2.8439e+002 -9.4070e+001 -2.5570e+001 43364 97386,97196,97170
 1.0000e+000 97222 -3.1217e+002 -1.4392e+002 -5.2545e+001 43364 97066,97196,97092
 1.0000e+000 97340 -3.2743e+002 -9.1992e+001 -2.4791e+001 43364 97170,97144,97314
 1.0000e+000 97363 -2.9277e+002 -8.1346e+001 -3.6131e+001 43364 97386,97170,97314
 1.0000e+000 97412 -2.9147e+002 -1.0801e+002 -3.7064e+001 43364 97092,97196,97386
 1.0000e+000 97435 -3.0875e+002 -1.0782e+002 -4.9391e+001 43364 97092,97386,97314
 1.0000e+000 97788 -3.1215e+002 -3.1751e+001 -2.2144e+001 42960 97563,97667,97589
 1.0000e+000 97765 -4.9601e+002 -2.0790e+002  5.0191e+001 42960 97563,97693,97667
 1.0000e+000 97742 -6.5954e+002  1.3621e+001 -1.2910e+001 42960 97589,97641,97615
 1.0000e+000 97719 -6.4045e+002 -1.1732e+002 -3.1699e+001 42960 97589,97667,97641
 1.0000e+000 98215 -2.2909e+002 -5.8146e+001 -9.7891e+001 42563 97918,98074,98048
 1.0000e+000 98192 -1.3437e+002  1.6286e+001 -5.8372e+001 42563 97892,98074,97918
 1.0000e+000 98169 -2.4839e+002 -1.1952e+001 -1.0735e+002 42563 98238,97944,97918
 1.0000e+000 98146 -2.9203e+002 -1.1274e+002 -7.4758e+001 42563 98238,97918,98048
 1.0000e+000 98123 -2.7436e+002 -6.2891e+001 -6.2357e+001 42563 97944,98022,97996
 1.0000e+000 98100 -2.5933e+002 -2.0147e+000 -2.4156e+001 42563 97944,97996,97970
 1.0000e+000 98264 -2.8613e+002 -8.1319e+001 -5.7294e+001 42563 98022,97944,98238
 1.0000e+000 98287 -2.9712e+002 -1.1947e+002 -2.6492e+001 42563 98022,98238,98048
 1.0000e+000 98616 -2.8144e+002 -1.3828e+002 -9.0096e+000 42251 98443,98521,98469
 1.0000e+000 98593 -3.2402e+002 -1.2436e+002  2.0714e+001 42251 98417,98521,98443
 1.0000e+000 98570 -3.0831e+002 -9.4171e+001 -5.0180e+001 42251 98391,98521,98417
 1.0000e+000 98547 -2.8000e+002 -1.0496e+002 -6.0639e+001 42251 98469,98521,98495
 1.0000e+000 98886 -6.6517e+002 -1.8914e+002 -1.8726e+001 41847 98661,98765,98687
 1.0000e+000 98863 -6.7140e+002 -7.3508e+001 -9.9062e+001 41847 98661,98791,98765
 1.0000e+000 98840 -6.3151e+002 -1.8937e+002 -4.4317e+000 41847 98687,98765,98739
 1.0000e+000 98817 -6.4153e+002 -1.9602e+002 -3.8382e-001 41847 98687,98739,98713
 1.0000e+000 99394 -3.0366e+002 -2.7958e+001  6.0432e+001 41236 99417,99149,99123
 1.0000e+000 99371 -4.4341e+002 -8.5282e+001  4.7886e+001 41236 99417,99123,99097
 1.0000e+000 99348 -3.4969e+002 -9.7414e+001 -5.0404e+000 41236 99489,99201,99149
 1.0000e+000 99325 -3.3706e+002 -1.1128e+002 -3.8028e+001 41236 99149,99201,99175
 1.0000e+000 99302 -5.3605e+002 -8.4003e+001 -1.4369e+001 41236 99097,99253,99227
 1.0000e+000 99279 -7.8649e+002 -2.4873e+002 -8.6192e+001 41236 99071,99253,99097
 1.0000e+000 99443 -3.6023e+002 -8.8717e+001 -5.4832e+000 41236 99489,99149,99417
 1.0000e+000 99466 -3.8558e+002 -7.0492e+001 -6.9637e+000 41236 99227,99417,99097
 1.0000e+000 99515 -3.4773e+002 -8.8575e+001 -1.0234e+001 41236 99227,99201,99489
 1.0000e+000 99538 -3.5050e+002 -7.3073e+001 -1.2982e+001 41236 99227,99489,99417
 1.0000e+000 100044 -2.1033e+002 -1.1245e+002  8.2403e+001 40732 99721,99773,99747
 1.0000e+000 100021 -3.0958e+002 -6.7856e+001  3.2134e+001 40732 99721,99799,99773
 1.0000e+000 99998 -3.0346e+002 -6.2477e+001  2.9322e+001 40732 99721,99903,99799
 1.0000e+000 99975 -3.2502e+002 -6.1241e+001 -4.9375e+001 40732 100067,99877,99851
 1.0000e+000 99952 -3.3826e+002 -1.5020e+002 -5.1477e+001 40732 100067,99851,99799
 1.0000e+000 99929 -4.3045e+002 -1.3988e+002 -1.0813e+002 40732 99799,99851,99825
 1.0000e+000 100093 -3.4859e+002  1.6451e+001 -1.4623e+001 40732 99903,99877,100067
 1.0000e+000 100116 -3.7468e+002 -9.5915e+001 -8.2062e+000 40732 99903,100067,99799
 1.0000e+000 100622 -4.1648e+002 -3.1876e+001  6.3577e+001 40278 100645,100455,100429
 1.0000e+000 100599 -4.8185e+002 -5.7141e+001  7.5957e+001 40278 100717,100645,100429
 1.0000e+000 100576 -5.5915e+002 -9.0852e+001  1.9822e+001 40278 100717,100429,100377
 1.0000e+000 100553 -3.7537e+002 -1.3097e+002  4.6707e+001 40278 100789,100325,100481
 1.0000e+000 100530 -3.5026e+002 -5.9894e+001  7.2707e+001 40278 100299,100481,100325
 1.0000e+000 100507 -4.6401e+002 -9.7432e+001  1.3164e+001 40278 100377,100429,100403
 1.0000e+000 100671 -4.4096e+002 -5.2754e+000  6.9504e+001 40278 100481,100455,100645
 1.0000e+000 100694 -4.1556e+002 -8.9281e+001  3.5047e+000 40278 100789,100481,100645
 1.0000e+000 100743 -5.2193e+002 -8.1332e+001 -6.8658e+001 40278 100351,100645,100717
 1.0000e+000 100766 -7.0606e+002 -1.5270e+002 -1.2236e+002 40278 100351,100717,100377
 1.0000e+000 100815 -3.3289e+002 -1.1214e+002  5.3334e+000 40278 100351,100325,100789
 1.0000e+000 100838 -3.4150e+002 -3.2623e+001 -4.1443e+001 40278 100351,100789,100645
 1.0000e+000 101265 -4.3520e+002 -1.4517e+002  9.8681e+000 39824 101288,101046,100994
 1.0000e+000 101242 -4.6520e+002 -1.7408e+002 -4.4202e+000 39824 101288,100994,100968
 1.0000e+000 101219 -5.4391e+002 -1.3238e+002  3.2938e+001 39824 100942,101124,100968
 1.0000e+000 101196 -3.7605e+002 -4.2719e+001  1.7520e+001 39824 101046,101124,101072
 1.0000e+000 101173 -4.0230e+002 -1.7628e+002 -7.1487e+001 39824 100994,101046,101020
 1.0000e+000 101150 -2.4815e+002 -5.3661e+001  2.6006e+001 39824 101072,101124,101098
 1.0000e+000 101314 -4.2090e+002 -1.6095e+002  2.2401e+001 39824 101124,101046,101288
 1.0000e+000 101337 -4.3510e+002 -1.6770e+002  1.3488e+001 39824 101124,101288,100968
 1.0000e+000 101585 -2.4763e+002 -1.3494e+002  3.4497e+001 39070 101608,101464,101412
 1.0000e+000 101562 -2.5096e+002 -1.1610e+002  2.8433e+001 39070 101608,101412,101360
 1.0000e+000 101539 -2.2968e+002 -1.3673e+002  2.8280e+001 39070 101412,101464,101438
 1.0000e+000 101516 -2.9723e+002 -1.5196e+002  5.1600e+001 39070 101360,101412,101386
 1.0000e+000 101634 -2.4893e+002 -1.2804e+002  2.3712e+001 39070 101490,101464,101608
 1.0000e+000 101657 -2.4634e+002 -1.0248e+002  1.7049e+001 39070 101490,101608,101360
 1.0000e+000 101856 -5.0063e+002  1.1179e+001 -2.0013e+001 38730 101706,101758,101732
 1.0000e+000 101833 -4.7473e+002 -2.5942e+001 -8.0791e+000 38730 101706,101784,101758
 1.0000e+000 101810 -3.9118e+002 -7.8596e+001 -9.7664e+001 38730 101680,101784,101706
 1.0000e+000 102106 -3.8693e+002 -1.0989e+002  1.8483e+001 38326 101881,101959,101907
 1.0000e+000 102083 -4.2858e+002 -1.1900e+002  7.6490e+001 38326 101881,101985,101959
 1.0000e+000 102060 -2.8612e+002 -9.8043e+001  7.6077e+001 38326 101881,102011,101985
 1.0000e+000 102037 -4.8928e+002 -7.3361e+001 -1.4846e+001 38326 101907,101959,101933
 1.0000e+000 102258 -1.7853e+002 -2.1506e+001  1.0112e+001 38036 102281,102157,102131
 1.0000e+000 102235 -2.0727e+002  2.4051e+001 -1.4570e+001 38036 102281,102131,102209
 1.0000e+000 102307 -1.8955e+002 -5.5779e+001  1.2921e+000 38036 102183,102157,102281
 1.0000e+000 102330 -2.3718e+002 -3.4518e+001 -3.2735e+001 38036 102183,102281,102209
 1.0000e+000 102663 -2.7127e+002 -6.6719e+001  5.3348e+001 37596 102438,102542,102464
 1.0000e+000 102640 -1.8277e+002 -4.0966e+001  3.0449e+001 37596 102438,102568,102542
 1.0000e+000 102617 -2.6704e+002 -2.7532e+001  9.3186e+001 37596 102490,102542,102516
 1.0000e+000 102594 -2.4581e+002 -4.5071e+001  6.3826e+001 37596 102464,102542,102490
 1.0000e+000 102862 -3.1523e+002  5.3826e-001  1.2010e+001 37192 102686,102764,102712
 1.0000e+000 102839 -3.0863e+002  1.1896e+001  8.6032e+000 37192 102686,102790,102764
 1.0000e+000 102816 -2.2536e+002 -6.1196e+001  4.0620e+001 37192 102712,102764,102738
 1.0000e+000 103110 -3.0581e+002 -6.1606e+001 -7.4918e+000 36609 102911,102963,102937
 1.0000e+000 103087 -3.1716e+002 -5.9469e+001 -1.1159e+001 36609 102911,102989,102963
 1.0000e+000 103064 -3.4135e+002 -1.0782e+002 -3.5145e+001 36609 102885,102989,102911
 1.0000e+000 103041 -3.7047e+002 -4.6422e+001 -7.3290e+001 36609 102885,103015,102989
 1.0000e+000 103718 -1.3696e+002  4.3580e+000  1.9499e+001 36131 103323,103375,103349
 1.0000e+000 103695 -3.2510e+002 -4.4091e+000  3.9791e+001 36131 103297,103375,103323
 1.0000e+000 103672 -3.7128e+002 -1.7192e+002 -3.1481e+001 36131 103297,103505,103375
 1.0000e+000 103649 -3.2640e+002 -1.3286e+002 -4.5255e+000 36131 103741,103479,103401
 1.0000e+000 103626 -3.1092e+002 -9.8304e+001  1.3507e+001 36131 103741,103401,103375
 1.0000e+000 103603 -3.7863e+002 -8.6374e+001 -2.1516e+001 36131 103401,103479,103427
 1.0000e+000 103580 -4.2674e+002 -1.4337e+002 -7.0712e+001 36131 103297,103531,103505
 1.0000e+000 103557 -3.3774e+002 -5.0344e+000 -4.1733e+001 36131 103427,103479,103453
 1.0000e+000 103767 -3.3856e+002 -1.6170e+002 -2.9941e+001 36131 103505,103479,103741
 1.0000e+000 103790 -3.2136e+002 -1.2930e+002 -1.1127e+001 36131 103505,103741,103375
 1.0000e+000 103989 -6.0633e+002 -1.6128e+002  1.3874e+001 35791 103839,103917,103891
 1.0000e+000 103966 -5.9176e+002 -2.1272e+002  5.3191e+000 35791 103813,103917,103839
 1.0000e+000 103943 -5.0726e+002 -3.8407e+001 -5.3077e+001 35791 103839,103891,103865
 1.0000e+000 104188 -2.3021e+002 -7.7537e+001 -4.7994e+001 35444 104038,104090,104064
 1.0000e+000 104165 -2.4825e+002 -3.5581e+001  2.9029e+001 35444 104038,104116,104090
 1.0000e+000 104142 -2.8107e+002  6.3200e+000  2.4553e+001 35444 104012,104116,104038
 1.0000e+000 104487 -4.2555e+002 -9.9578e+001 -4.2775e+001 34990 104265,104317,104291
 1.0000e+000 104464 -3.3373e+002 -7.9784e+001 -2.1647e+001 34990 104510,104317,104265
 1.0000e+000 104441 -2.3114e+002 -3.6228e+001  1.8334e+000 34990 104510,104265,104213
 1.0000e+000 104418 -3.6990e+002 -1.5981e+001  2.3369e+001 34990 104582,104343,104317
 1.0000e+000 104395 -2.1496e+002 -5.3356e+000 -1.9092e+001 34990 104213,104265,104239
 1.0000e+000 104536 -3.7107e+002 -1.6198e+001  6.5881e+000 34990 104582,104317,104510
 1.0000e+000 104559 -3.1453e+002 -2.0236e+001  1.8976e+001 34990 104369,104510,104213
 1.0000e+000 104608 -3.2609e+002  1.9817e+001  3.8811e+001 34990 104369,104343,104582
 1.0000e+000 104631 -3.5001e+002 -7.0426e+000  1.3739e+001 34990 104369,104582,104510
 1.0000e+000 104783 -3.6127e+002 -1.0253e+002 -2.4496e+001 34700 104938,104806,104682
 1.0000e+000 104760 -3.5463e+002 -8.9682e+001 -2.2062e+001 34700 104938,104682,104656
 1.0000e+000 104832 -2.5915e+002 -3.0281e+001  9.3030e+000 34700 104708,104682,104806
 1.0000e+000 104964 -3.6311e+002 -1.0789e+002 -3.5340e+001 34700 104734,104806,104938
 1.0000e+000 104987 -3.5774e+002 -9.7891e+001 -3.3138e+001 34700 104734,104938,104656
 1.0000e+000 105137 -4.4289e+002  1.3924e+000 -1.0813e+001 34388 105036,105088,105062
 1.0000e+000 105114 -4.4939e+002 -7.1918e+001 -2.4674e+001 34388 105010,105088,105036
 1.0000e+000 105385 -4.4007e+002 -8.2318e+001  4.5108e+001 33734 105408,105186,105160
 1.0000e+000 105362 -4.3062e+002 -8.0813e+001  3.8151e+001 33734 105408,105160,105264
 1.0000e+000 105339 -5.2389e+002 -1.4492e+001  1.8975e+001 33734 105160,105290,105264
 1.0000e+000 105316 -4.0230e+002 -1.0755e+002  9.3397e+001 33734 105186,105238,105212
 1.0000e+000 105434 -4.3047e+002 -9.1093e+001  3.6890e+001 33734 105238,105186,105408
 1.0000e+000 105457 -4.0404e+002 -7.0820e+001  2.5670e+001 33734 105238,105408,105264
 1.0000e+000 105609 -1.9242e+002 -1.2900e+001 -4.0966e+001 33394 105482,105534,105508
 1.0000e+000 105586 -1.8005e+002 -3.1214e+000 -4.5970e+001 33394 105482,105560,105534
 1.0000e+000 105859 -5.5006e+002 -7.0248e+001 -7.7754e+001 33047 105882,105712,105660
 1.0000e+000 105836 -5.9658e+002 -5.8761e+001 -3.1117e+001 33047 105882,105660,105634
 1.0000e+000 105813 -3.9881e+002 -9.9792e+001  3.8831e+000 33047 105660,105712,105686
 1.0000e+000 105790 -4.5068e+002 -4.2381e+001 -7.0456e+001 33047 105634,105764,105738
 1.0000e+000 105908 -4.4014e+002  8.1803e+000 -1.2130e+002 33047 105738,105712,105882
 1.0000e+000 105931 -5.5418e+002 -4.6225e+001 -6.0601e+001 33047 105738,105882,105634
 1.0000e+000 106181 -3.8840e+002 -1.2596e+002  4.0746e+001 32543 106204,106060,106008
 1.0000e+000 106158 -3.6453e+002 -1.6135e+002  2.8990e+001 32543 105956,106086,106060
 1.0000e+000 106135 -3.6801e+002 -8.3542e+001  3.2876e+001 32543 106204,106008,105982
 1.0000e+000 106112 -4.0134e+002 -2.0364e+002  2.6205e+001 32543 106008,106060,106034
 1.0000e+000 106230 -3.7167e+002 -1.4155e+002  1.1480e+001 32543 105956,106060,106204
 1.0000e+000 106253 -3.4919e+002 -1.0050e+002  2.3153e+000 32543 105956,106204,105982
 1.0000e+000 106454 -3.5654e+002 -1.4038e+002 -7.7156e+001 31839 106304,106356,106330
 1.0000e+000 106431 -3.8482e+002 -1.0181e+002  1.5344e+001 31839 106278,106356,106304
 1.0000e+000 106408 -2.7393e+002 -6.6299e+001 -1.0061e+001 31839 106278,106382,106356
 1.0000e+000 106704 -2.5824e+002 -4.4474e+001  1.0909e+001 31534 106505,106583,106557
 1.0000e+000 106681 -2.5052e+002 -4.3433e+001  8.8965e+000 31534 106479,106583,106505
 1.0000e+000 106658 -2.9545e+002 -5.8165e+001  1.8743e+001 31534 106505,106557,106531
 1.0000e+000 106635 -3.2901e+002 -7.6450e+001  1.1937e+001 31534 106479,106609,106583
 1.0000e+000 107108 -6.9924e+002 -4.9058e+001 -1.1322e+002 31030 106886,106990,106964
 1.0000e+000 107085 -5.4915e+002 -1.6742e+002 -2.9135e+001 31030 106860,106990,106886
 1.0000e+000 107062 -5.2609e+002 -1.4438e+002 -7.7284e+000 31030 106834,106990,106860
 1.0000e+000 107039 -9.5468e+002 -3.3957e+002  6.3782e+001 31030 106912,106964,106938
 1.0000e+000 107016 -1.0386e+003 -1.8813e+002 -1.0914e+002 31030 106886,106964,106912
 1.0000e+000 107307 -4.6411e+002  2.2159e+001 -2.1898e+000 30718 107330,107157,107131
 1.0000e+000 107284 -3.9248e+002  1.2753e+001 -2.2090e+001 30718 107330,107131,107235
 1.0000e+000 107261 -3.0723e+002 -4.2497e+000  3.4907e+001 30718 107183,107235,107209
 1.0000e+000 107356 -3.9248e+002  4.2739e-001  1.5977e+001 30718 107183,107157,107330
 1.0000e+000 107379 -3.2401e+002 -1.0082e+001 -9.8971e+000 30718 107183,107330,107235
 1.0000e+000 107759 -2.2316e+002 -7.5846e+001  4.0254e+001 30264 107782,107615,107537
 1.0000e+000 107736 -2.1808e+002 -6.3575e+001  2.6198e+001 30264 107782,107537,107485
 1.0000e+000 107713 -3.2887e+002 -3.4325e+001  3.9735e+001 30264 107485,107537,107511
 1.0000e+000 107690 -1.8083e+002 -1.4405e+001  6.5684e+001 30264 107537,107615,107589
 1.0000e+000 107667 -1.5247e+002 -1.2578e+001  6.4156e+001 30264 107537,107589,107563
 1.0000e+000 107808 -2.1034e+002 -6.7782e+001  3.3204e+001 30264 107641,107615,107782
 1.0000e+000 107831 -2.1196e+002 -5.7656e+001  1.9914e+001 30264 107641,107782,107485
 1.0000e+000 108030 -3.8295e+002 -1.5435e+002  3.8069e+001 29874 108053,107854,107932
 1.0000e+000 108007 -3.1400e+002 -1.0003e+002  1.2409e+001 29874 107854,107958,107932
 1.0000e+000 107984 -4.2887e+002 -8.8238e+001  1.0696e+002 29874 108053,107932,107906
 1.0000e+000 108079 -3.7089e+002 -6.8972e+001  4.0329e+001 29874 107880,107854,108053
 1.0000e+000 108102 -4.0990e+002  1.8361e+001  8.8344e+001 29874 107880,108053,107906
 1.0000e+000 108433 -2.0965e+002 -6.6027e+001  4.5882e+000 29484 108234,108338,108312
 1.0000e+000 108410 -2.9040e+002 -5.3561e+001  7.4243e+001 29484 108208,108338,108234
 1.0000e+000 108387 -3.2710e+002 -7.0145e+001 -1.4384e+001 29484 108234,108312,108260
 1.0000e+000 108364 -2.7601e+002 -9.2457e+001 -1.0521e+001 29484 108260,108312,108286
 1.0000e+000 108762 -2.6089e+002 -1.4243e+002  7.5437e+000 29080 108563,108641,108589
 1.0000e+000 108739 -2.1026e+002 -1.1048e+002  5.7218e+001 29080 108537,108641,108563
 1.0000e+000 108716 -3.9342e+002 -6.3297e+001  1.1201e+002 29080 108589,108641,108615
 1.0000e+000 108693 -1.3556e+002 -9.9324e+001 -1.8713e+001 29080 108537,108667,108641
 1.0000e+000 109189 -3.8291e+002 -9.1548e+001  2.9342e+001 28476 108892,108996,108970
 1.0000e+000 109166 -4.7996e+002 -8.2270e+001  3.1553e+001 28476 108892,109022,108996
 1.0000e+000 109143 -3.9742e+002 -1.3104e+002  3.4424e+001 28476 108892,108970,108944
 1.0000e+000 109120 -5.3960e+002 -9.5205e+001  3.1651e+001 28476 108892,109048,109022
 1.0000e+000 109097 -4.1259e+002 -1.5608e+002  2.6182e+001 28476 108892,108944,108918
 1.0000e+000 109074 -6.7743e+002 -6.8081e+001 -6.2000e+001 28476 108866,109048,108892
 1.0000e+000 109518 -3.1894e+002 -7.9418e+001  5.0966e+001 28022 109541,109371,109345
 1.0000e+000 109495 -3.5744e+002 -4.5060e+001 -1.9634e-001 28022 109541,109345,109319
 1.0000e+000 109472 -2.9690e+002 -6.3833e+001 -1.7039e+001 28022 109293,109397,109319
 1.0000e+000 109449 -3.1353e+002 -9.0072e+001  9.5862e+000 28022 109293,109423,109397
 1.0000e+000 109567 -1.6603e+002 -2.0112e+001  6.8837e+001 28022 109397,109371,109541
 1.0000e+000 109590 -3.0975e+002 -5.2426e+001  1.7061e+001 28022 109397,109541,109319
 1.0000e+000 109968 -3.4752e+002 -1.6676e+002 -4.1041e+001 27568 109798,109850,109824
 1.0000e+000 109945 -3.1928e+002 -7.6170e+001 -4.1664e+001 27568 109694,109850,109798
 1.0000e+000 109922 -2.8433e+002 -1.3477e+002 -2.9851e+001 27568 109694,109798,109746
 1.0000e+000 109899 -3.1004e+002 -1.1691e+002  1.3085e+002 27568 109746,109798,109772
 1.0000e+000 109876 -1.8552e+002  1.2721e+001  4.5221e+001 27568 109694,109746,109720
 1.0000e+000 110167 -3.3683e+002 -6.9950e+001 -8.2680e+000 27007 110017,110095,110069
 1.0000e+000 110144 -3.0998e+002 -2.0011e+001  1.9835e+000 27007 109991,110095,110017
 1.0000e+000 110121 -3.3335e+002 -2.1573e+001  5.3356e+001 27007 110017,110069,110043
 1.0000e+000 110415 -2.2641e+002 -1.1583e+002  1.4299e+001 26567 110438,110242,110190
 1.0000e+000 110392 -2.9451e+002 -2.1838e+001 -1.8387e+001 26567 110438,110190,110320
 1.0000e+000 110369 -3.2031e+002 -1.0040e+002  1.0341e+001 26567 110242,110294,110268
 1.0000e+000 110346 -1.7875e+002 -1.8686e+000  1.6300e+001 26567 110190,110242,110216
 1.0000e+000 110464 -2.6247e+002 -1.3070e+002 -9.3967e+000 26567 110294,110242,110438
 1.0000e+000 110487 -3.5177e+002 -1.0752e+002 -6.1937e+001 26567 110294,110438,110320
 1.0000e+000 110639 -4.8320e+002  3.0847e+001 -5.7283e+001 26170 110538,110590,110564
 1.0000e+000 110616 -3.9125e+002 -2.8154e+001  1.2202e+000 26170 110512,110590,110538
 1.0000e+000 111149 -3.3100e+002 -5.8545e+001  9.7316e+001 25716 111172,110878,110852
 1.0000e+000 111126 -2.7238e+002 -7.9151e+000  7.4876e+001 25716 111172,110852,111008
 1.0000e+000 111103 -3.5501e+002 -9.3610e+001  1.7118e+002 25716 110878,110930,110904
 1.0000e+000 111080 -2.4963e+002 -1.5012e+001  5.2445e+001 25716 110826,111008,110852
 1.0000e+000 111057 -1.9870e+002 -1.1218e+002  3.2538e+001 25716 110930,111008,110956
 1.0000e+000 111034 -2.1560e+002 -9.1182e+001  9.5444e+000 25716 110956,111008,110982
 1.0000e+000 111198 -2.6876e+002 -1.2565e+002  1.1883e+002 25716 110930,110878,111172
 1.0000e+000 111221 -1.9821e+002 -6.9953e+001  9.3025e+001 25716 110930,111172,111008
 1.0000e+000 111420 -4.3746e+002 -6.0849e+001  7.6355e+000 25304 111443,111270,111244
 1.0000e+000 111397 -4.5830e+002  2.2811e+001  5.8506e+000 25304 111443,111244,111348
 1.0000e+000 111374 -4.6393e+002 -1.4075e+002 -2.7670e+001 25304 111270,111322,111296
 1.0000e+000 111469 -4.4468e+002 -1.1694e+002  2.7184e+000 25304 111322,111270,111443
 1.0000e+000 111492 -4.7959e+002 -5.0463e+001 -6.6119e+000 25304 111322,111443,111348
 1.0000e+000 111691 -3.1097e+002 -1.1078e+002 -2.3360e+001 24736 111567,111619,111593
 1.0000e+000 111668 -3.1241e+002 -6.8205e+001 -4.5070e+001 24736 111541,111619,111567
 1.0000e+000 111645 -3.1677e+002 -1.3936e+001 -1.3228e+001 24736 111515,111619,111541
 1.0000e+000 112024 -5.7651e+001 -1.3306e+001  1.2319e+001 24146 111825,111877,111851
 1.0000e+000 112001 -5.8761e+001  6.7042e+000  5.0697e+000 24146 111825,111903,111877
 1.0000e+000 111978 -9.1345e+001 -5.2792e+001  1.9104e+001 24146 111825,111929,111903
 1.0000e+000 111955 -1.1100e+002 -1.1914e+002 -2.2938e+001 24146 111799,111929,111825
 1.0000e+000 112370 -3.5241e+002 -1.6146e+002  5.4798e+001 23856 112393,112151,112125
 1.0000e+000 112347 -3.1610e+002 -9.3915e+001  6.8520e+001 23856 112465,112393,112125
 1.0000e+000 112324 -3.1968e+002 -6.6416e+001  8.9387e+001 23856 112465,112125,112073
 1.0000e+000 112301 -4.2670e+002 -1.0961e+002  1.2310e+002 23856 112073,112125,112099
 1.0000e+000 112278 -3.7533e+002 -1.5436e+002  1.6233e+001 23856 112047,112229,112073
 1.0000e+000 112255 -3.4358e+002 -1.7035e+002 -1.1527e+001 23856 112151,112203,112177
 1.0000e+000 112419 -3.5753e+002 -1.3376e+002  1.9021e+001 23856 112203,112151,112393
 1.0000e+000 112442 -3.5637e+002 -1.4827e+002  1.5136e+001 23856 112203,112393,112229
 1.0000e+000 112491 -3.5531e+002 -1.3054e+002  1.2094e+001 23856 112229,112393,112465
 1.0000e+000 112514 -3.3714e+002 -6.3603e+001  3.3829e+001 23856 112229,112465,112073
 1.0000e+000 112784 -6.0745e+002  2.5466e+002 -1.0635e+002 23494 112611,112663,112637
 1.0000e+000 112761 -4.7935e+002 -7.3732e+001 -8.5706e+001 23494 112585,112663,112611
 1.0000e+000 112738 -5.5911e+002 -1.0688e+002  3.8385e+001 23494 112559,112663,112585
 1.0000e+000 112715 -4.9115e+002  1.4506e+002  7.7261e+001 23494 112559,112689,112663
 1.0000e+000 113117 -4.2463e+002 -2.1293e+001 -9.6776e+001 22974 112944,113022,112996
 1.0000e+000 113094 -3.3112e+002 -7.3633e+001 -7.8001e+001 22974 112918,113022,112944
 1.0000e+000 113071 -4.7157e+002 -1.7707e+002 -1.3853e+002 22974 112944,112996,112970
 1.0000e+000 113048 -2.9768e+002  2.5431e+000 -7.2514e+001 22974 112892,113022,112918
 1.0000e+000 113414 -4.5459e+002 -1.1916e+002  4.7112e+000 22370 113192,113296,113218
 1.0000e+000 113391 -5.0195e+002 -1.9873e+002 -2.0573e+001 22370 113140,113296,113192
 1.0000e+000 113368 -4.6452e+002 -1.3578e+002  3.3529e+001 22370 113218,113296,113270
 1.0000e+000 113345 -4.1843e+002 -1.3436e+002  7.9269e+001 22370 113218,113270,113244
 1.0000e+000 113322 -4.0509e+002  7.1430e+000 -5.0071e+001 22370 113140,113192,113166
 1.0000e+000 113662 -3.3746e+002 -5.8490e+001  3.3730e+001 21916 113685,113515,113489
 1.0000e+000 113639 -4.1142e+002 -1.1208e+002  6.8444e+000 21916 113685,113489,113437
 1.0000e+000 113616 -3.1723e+002 -1.0745e+002 -1.2191e+001 21916 113757,113567,113541
 1.0000e+000 113593 -3.8926e+002 -5.2523e+001 -1.4248e+001 21916 113437,113489,113463
 1.0000e+000 113711 -3.8150e+002 -1.4175e+002  1.3805e+001 21916 113541,113515,113685
 1.0000e+000 113734 -3.6058e+002 -1.3630e+002  3.0205e-001 21916 113757,113541,113685
 1.0000e+000 113783 -3.7855e+002 -9.8160e+001 -8.9606e+000 21916 113437,113567,113757
 1.0000e+000 113806 -3.8225e+002 -9.7607e+001 -9.1617e+000 21916 113437,113757,113685
 1.0000e+000 114056 -3.2333e+002 -1.1594e+002 -6.5620e+000 21412 113857,113909,113883
 1.0000e+000 114033 -3.0539e+002 -6.2495e+001 -7.6454e+000 21412 114079,113909,113857
 1.0000e+000 114010 -3.5284e+002 -8.1149e+001 -7.0580e+000 21412 114079,113857,113961
 1.0000e+000 113987 -3.2293e+002 -7.8733e+001 -6.0543e+000 21412 113831,113961,113857
 1.0000e+000 114105 -3.4431e+002 -5.2136e+001 -2.9493e+001 21412 113935,113909,114079
 1.0000e+000 114128 -3.7639e+002 -6.1519e+001 -2.8501e+001 21412 113935,114079,113961
 1.0000e+000 114378 -2.8235e+002 -7.6289e+001  8.8954e+000 21022 114401,114257,114205
 1.0000e+000 114355 -3.1820e+002 -8.9485e+001 -4.2466e+001 21022 114401,114205,114179
 1.0000e+000 114332 -2.6414e+002 -4.6820e+001  3.5476e+000 21022 114153,114283,114179
 1.0000e+000 114309 -3.1383e+002 -7.1410e+001  1.0294e+001 21022 114205,114257,114231
 1.0000e+000 114427 -2.1154e+002 -6.1409e+001  3.6643e+001 21022 114283,114257,114401
 1.0000e+000 114450 -2.6388e+002 -7.9553e+001 -1.3010e+001 21022 114283,114401,114179
 1.0000e+000 114651 -1.8709e+002 -2.6262e+001 -1.7840e+001 20618 114501,114553,114527
 1.0000e+000 114628 -8.7143e+001  6.9955e+000 -1.5417e+000 20618 114501,114579,114553
 1.0000e+000 114605 -2.0205e+002 -6.9513e+000 -2.3670e+001 20618 114475,114579,114501
 1.0000e+000 114901 -5.1952e+002 -6.3771e+001 -5.2464e+001 20114 114676,114780,114702
 1.0000e+000 114878 -4.0843e+002 -1.0409e+001 -6.8246e+001 20114 114676,114806,114780
 1.0000e+000 114855 -5.7223e+002 -3.2792e+001 -4.3894e+001 20114 114702,114780,114754
 1.0000e+000 114832 -1.3178e+003 -2.4420e+002 -7.4686e+001 20114 114702,114754,114728
 1.0000e+000 115053 -4.4638e+002 -7.9124e+001  3.0913e+000 19460 115147,115076,114926
 1.0000e+000 115030 -4.6033e+002 -5.9546e+001 -2.2698e+000 19460 115147,114926,115004
 1.0000e+000 115102 -4.5649e+002 -9.8546e+001  6.7332e+000 19460 114952,114926,115076
 1.0000e+000 115173 -4.5684e+002 -1.1056e+002 -1.2111e+000 19460 114978,115076,115147
 1.0000e+000 115196 -4.6818e+002 -8.6586e+001 -8.1984e+000 19460 114978,115147,115004
 1.0000e+000 115446 -5.0988e+002 -6.1882e+001  4.7568e+001 19006 115273,115351,115299
 1.0000e+000 115423 -4.4202e+002 -1.4656e+002  8.6312e+000 19006 115247,115351,115273
 1.0000e+000 115400 -4.2806e+002 -1.4383e+002 -1.8431e+001 19006 115221,115351,115247
 1.0000e+000 115377 -3.1348e+002 -4.5771e+001 -1.2091e+002 19006 115299,115351,115325
 1.0000e+000 115767 -2.1755e+002  4.5905e+001  5.1670e+001 18716 115571,115649,115623
 1.0000e+000 115744 -2.8428e+002 -8.5065e+001  2.8618e+001 18716 115493,115649,115571
 1.0000e+000 115721 -2.7559e+002  1.7080e+001  3.1072e+001 18716 115493,115571,115545
 1.0000e+000 115698 -3.0516e+002 -3.1108e+001  6.9750e+000 18716 115493,115545,115519
 1.0000e+000 115675  7.9529e+000  1.0860e+002 -1.5931e+001 18716 115571,115623,115597
 1.0000e+000 116039 -4.0611e+002 -1.2144e+002  1.7590e+001 18312 115814,115892,115840
 1.0000e+000 116016 -4.0343e+002 -1.2340e+002  3.3491e+001 18312 115814,115944,115892
 1.0000e+000 115993 -4.4126e+002 -3.1059e+001  3.5801e+001 18312 115892,115944,115918
 1.0000e+000 115970 -2.0667e+002 -2.8732e+001 -6.7588e+000 18312 115840,115892,115866
 1.0000e+000 116191 -4.6025e+002 -9.1912e+001  6.9176e-001 18000 116090,116142,116116
 1.0000e+000 116168 -4.2504e+002 -8.1153e+001  2.3073e+001 18000 116064,116142,116090
 1.0000e+000 116343 -3.4490e+002  3.2973e+001  9.2741e-001 17396 116242,116294,116268
 1.0000e+000 116320 -4.0495e+002  1.5301e+001 -6.2729e+000 17396 116216,116294,116242
 1.0000e+000 116566 -4.2360e+002 -2.0233e+002  3.5091e+001 16942 116390,116468,116442
 1.0000e+000 116543 -6.8467e+002 -2.2952e+002  7.5774e+001 16942 116390,116494,116468
 1.0000e+000 116520 -4.5924e+002 -2.8591e+002  1.3672e+001 16942 116390,116442,116416
 1.0000e+000 116767 -2.4427e+002  1.6160e+001  1.1277e+001 16438 116790,116643,116617
 1.0000e+000 116744 -2.9961e+002 -3.6239e+001 -1.0262e+001 16438 116790,116617,116591
 1.0000e+000 116721 -1.7205e+002 -2.9905e+001 -2.4541e+001 16438 116643,116695,116669
 1.0000e+000 116816 -2.1585e+002 -2.1793e+001  2.8623e+001 16438 116695,116643,116790
 1.0000e+000 116839 -2.3354e+002 -3.7002e+001  1.9364e+001 16438 116695,116790,116591
 1.0000e+000 117062 -8.5429e+001 -9.8211e+000 -2.3934e+000 16074 116886,116938,116912
 1.0000e+000 117039 -6.0078e+001 -3.3154e+000  1.7411e+000 16074 116886,116990,116938
 1.0000e+000 117016 -5.4068e+001  2.7363e+000  4.4573e+000 16074 116938,116990,116964
 1.0000e+000 117214 -6.6213e+002 -3.2414e+002 -4.3495e+001 15649 117087,117139,117113
 1.0000e+000 117191 -7.4016e+002 -3.7521e+002  2.7571e+000 15649 117087,117165,117139
 1.0000e+000 117317 -2.8267e+001 -7.6406e+001  1.5453e+001 421 117239,117291,117265
 1.1000e+000 70632  1.4092e+001 -5.0513e+000  1.3610e+001 70072 70482,70534,70508
 1.1000e+000 70609  5.2774e+000 -2.8093e+000  4.6263e+000 70072 70482,70560,70534
 1.1000e+000 70586 -2.6898e+002 -1.1064e+002 -1.3884e+001 70072 70456,70560,70482
 1.1000e+000 70951 -4.3221e+002 -2.0464e+002  0.0000e+000 69874 70703,70755,70729
 1.1000e+000 70928 -4.5984e+002 -2.1592e+002  4.3096e+000 69874 70703,70781,70755
 1.1000e+000 70905 -4.4517e+002 -1.6515e+002  1.1033e+001 69874 70703,70807,70781
 1.1000e+000 70882 -4.7785e+002 -2.4592e+002  2.0795e+001 69874 70703,70833,70807
 1.1000e+000 70859 -2.6972e+002 -1.4563e+002 -2.1088e+001 69874 70677,70833,70703
 1.1000e+000 71199 -2.0074e+002 -6.6659e+001  2.7320e+001 69698 71222,71052,71026
 1.1000e+000 71176 -2.0213e+002 -4.1999e+001  2.9855e+001 69698 71294,71222,71026
 1.1000e+000 71153 -1.9912e+002 -2.9144e+001  2.1223e+001 69698 71294,71026,71000
 1.1000e+000 71130 -2.4057e+002 -4.9827e+001 -2.6059e+000 69698 71366,71104,71078
 1.1000e+000 71248 -1.8739e+002 -4.8015e+001  1.9855e+001 69698 71078,71052,71222
 1.1000e+000 71271 -2.1192e+002 -6.2440e+001  1.2183e+001 69698 71366,71078,71222
 1.1000e+000 71320 -1.8783e+002 -2.8616e+001  1.7010e+001 69698 70974,71222,71294
 1.1000e+000 71343 -1.8582e+002 -2.4546e+001  8.7260e+000 69698 70974,71294,71000
 1.1000e+000 71392 -2.1019e+002 -1.4829e+001  1.0889e+001 69698 70974,71104,71366
 1.1000e+000 71415 -1.9391e+002 -3.5184e+001  1.9980e+001 69698 70974,71366,71222
 1.1000e+000 71516 -2.3227e+002 -1.8339e+001  2.0115e+001 69386 71438,71490,71464
 1.1000e+000 71869 -1.5900e+002  4.7987e+001 -1.8681e+000 69188 71644,71748,71670
 1.1000e+000 71846 -3.5019e+001  2.2912e+000  6.3959e+001 69188 71644,71774,71748
 1.1000e+000 71823 -9.8521e+001  2.2703e+000 -6.1190e+001 69188 71670,71748,71722
 1.1000e+000 71800  1.3989e+001  1.8357e+000 -1.8338e+000 69188 71670,71722,71696
 1.1000e+000 72019 -6.1692e+002 -1.2199e+002  7.7175e+001 68990 71918,71970,71944
 1.1000e+000 71996 -8.1535e+002 -6.2648e+001  5.1876e+001 68990 71892,71970,71918
 1.1000e+000 72316 -3.0889e+002 -6.8158e+000  1.8807e+001 68586 72339,72172,72146
 1.1000e+000 72293 -3.4140e+002 -5.9333e+001  3.2774e+001 68586 72339,72146,72120
 1.1000e+000 72270 -3.4122e+002 -8.0969e+001  8.4388e+001 68586 72411,72068,72198
 1.1000e+000 72247 -3.9523e+002 -4.7446e+001  1.0339e+002 68586 72042,72198,72068
 1.1000e+000 72224 -2.5959e+002 -2.0948e+001 -1.9010e+001 68586 72068,72120,72094
 1.1000e+000 72365 -3.4268e+002  1.0888e+000  6.1797e+001 68586 72198,72172,72339
 1.1000e+000 72388 -3.6743e+002 -5.5634e+001  7.3061e+001 68586 72411,72198,72339
 1.1000e+000 72437 -3.1250e+002 -5.7229e+001  6.4523e+001 68586 72120,72068,72411
 1.1000e+000 72460 -3.3635e+002 -2.3698e+001  5.3838e+001 68586 72120,72411,72339
 1.1000e+000 72864 -1.1064e+002 -1.9552e+001 -8.9455e+000 68388 72642,72694,72668
 1.1000e+000 72841 -1.6966e+002 -7.4438e+001  3.1214e+001 68388 72616,72694,72642
 1.1000e+000 72818 -2.1367e+002 -7.2463e+001 -1.6155e+001 68388 72616,72720,72694
 1.1000e+000 72795 -2.9989e+002 -8.3345e+001  2.8221e+001 68388 72590,72720,72616
 1.1000e+000 72772 -3.9383e+002  2.7306e+000 -9.7022e+001 68388 72590,72746,72720
 1.1000e+000 73321 -2.1207e+002 -8.2189e+001 -1.5938e+001 68048 73073,73203,73177
 1.1000e+000 73298 -1.9606e+002 -6.7908e+001 -5.8290e+000 68048 73047,73203,73073
 1.1000e+000 73275 -2.9051e+002 -6.1344e+001  1.4739e+000 68048 73125,73177,73151
 1.1000e+000 73252 -2.6935e+002 -5.8067e+001 -4.4160e+000 68048 73073,73177,73125
 1.1000e+000 73229 -2.6182e+002 -3.1686e+000 -2.7577e+000 68048 73073,73125,73099
 1.1000e+000 73640 -3.8596e+002 -1.7110e+001 -1.4886e+001 67850 73444,73496,73470
 1.1000e+000 73617 -3.0987e+002 -7.9149e+001 -1.0708e+001 67850 73418,73496,73444
 1.1000e+000 73594 -3.0059e+002 -5.2100e+001 -2.8073e+000 67850 73392,73496,73418
 1.1000e+000 73571 -2.4293e+002 -3.8064e+001  1.8106e+001 67850 73392,73522,73496
 1.1000e+000 73548 -1.9609e+002 -9.0850e+000 -4.1195e+001 67850 73366,73522,73392
 1.1000e+000 73790 -3.6195e+002 -1.2741e+002 -4.9440e+000 67602 73689,73741,73715
 1.1000e+000 73767 -3.2263e+002 -3.7370e+001  1.3978e+000 67602 73663,73741,73689
 1.1000e+000 74040 -4.3328e+002 -1.0639e+002 -1.1849e+001 67290 73841,73945,73919
 1.1000e+000 74017 -2.7622e+002 -1.3992e+002 -5.8781e+001 67290 73815,73945,73841
 1.1000e+000 73994 -3.7959e+002 -8.9541e+001  2.9340e+001 67290 73841,73919,73867
 1.1000e+000 73971 -3.6256e+002 -5.1582e+001  3.3464e+001 67290 73867,73919,73893
 1.1000e+000 74143 -4.4097e+002 -1.4287e+002  2.5388e+001 67092 74065,74117,74091
 1.1000e+000 74415 -3.2496e+002 -1.2764e+002 -5.1787e+001 66894 74190,74294,74216
 1.1000e+000 74392 -2.9471e+002 -1.0003e+002  1.1440e+001 66894 74190,74320,74294
 1.1000e+000 74369 -2.9594e+002 -5.1508e+001 -4.8774e+001 66894 74216,74294,74242
 1.1000e+000 74346 -2.9722e+002 -3.4187e+001 -4.8034e+001 66894 74242,74294,74268
 1.1000e+000 75023 -2.6747e+002 -1.4353e+002  4.3498e+001 66532 74654,74836,74810
 1.1000e+000 75000 -1.7832e+002 -5.9618e+001  7.9932e+001 66532 74628,74836,74654
 1.1000e+000 74977 -1.5375e+002 -4.6560e+001 -1.3617e+001 66532 74706,74784,74732
 1.1000e+000 74954 -2.6089e+002 -2.8108e+001 -1.0105e+002 66532 74680,74784,74706
 1.1000e+000 74931 -4.5631e+002 -1.6745e+001 -9.9792e+001 66532 74680,74810,74784
 1.1000e+000 74908 -2.5257e+002 -4.6656e+001  9.0093e+001 66532 74654,74810,74680
 1.1000e+000 74885 -2.5076e+002 -1.1801e+002  5.3531e+001 66532 74602,74836,74628
 1.1000e+000 74862 -2.2091e+002 -4.6773e+001  1.9767e+001 66532 74732,74784,74758
 1.1000e+000 75222 -3.7073e+002 -5.4100e+001  2.7314e+001 66242 75072,75150,75124
 1.1000e+000 75199 -3.6041e+002 -8.3536e+001  2.6365e+001 66242 75046,75150,75072
 1.1000e+000 75176 -4.0926e+002 -6.4876e+001  1.9181e+000 66242 75072,75124,75098
 1.1000e+000 75470 -4.7961e+002  1.3613e+001  1.4268e+001 65838 75297,75375,75349
 1.1000e+000 75447 -5.0361e+002 -3.7469e+001  3.9320e+000 65838 75271,75375,75297
 1.1000e+000 75424 -3.4893e+002  1.3534e+002  9.2435e+001 65838 75297,75349,75323
 1.1000e+000 75401 -4.7557e+002 -1.0172e+001  4.4850e+001 65838 75245,75375,75271
 1.1000e+000 75671 -2.3556e+002 -7.4110e+001 -5.4737e+001 65640 75495,75573,75521
 1.1000e+000 75648 -2.2186e+002 -8.2518e+001 -3.0273e+001 65640 75495,75599,75573
 1.1000e+000 75625 -2.1746e+002 -2.7948e+001 -2.4556e+001 65640 75521,75573,75547
 1.1000e+000 75872 -2.5020e+002 -6.6215e+001 -9.6168e+000 65300 75895,75748,75722
 1.1000e+000 75849 -2.1276e+002 -5.6162e+001 -6.8317e+000 65300 75895,75722,75696
 1.1000e+000 75826 -2.5667e+002 -2.3693e+001 -9.9637e+000 65300 75967,75774,75748
 1.1000e+000 75921 -2.5644e+002 -3.4962e+001  6.5315e+000 65300 75967,75748,75895
 1.1000e+000 75944 -2.4046e+002 -4.7841e+001  2.7998e+001 65300 75800,75895,75696
 1.1000e+000 75993 -2.8389e+002 -4.0690e+001 -1.9939e+000 65300 75800,75774,75967
 1.1000e+000 76016 -2.8264e+002 -4.9280e+001  1.2110e+001 65300 75800,75967,75895
 1.1000e+000 76371 -2.9380e+002 -4.9594e+000  1.0546e+001 64896 76146,76250,76172
 1.1000e+000 76348 -3.0196e+002 -3.3237e+001  5.0648e+000 64896 76146,76276,76250
 1.1000e+000 76325 -2.2847e+002  8.5045e+000 -1.5740e+001 64896 76172,76250,76198
 1.1000e+000 76302 -6.0088e+002 -1.5393e+002 -6.3732e+001 64896 76198,76250,76224
 1.1000e+000 76570 -5.0500e+002 -7.7362e+001  9.4406e+001 64442 76446,76498,76472
 1.1000e+000 76547 -4.2734e+002 -1.4333e+001  9.6915e-002 64442 76420,76498,76446
 1.1000e+000 76524 -4.2838e+002 -5.0435e+001  9.4524e+000 64442 76394,76498,76420
 1.1000e+000 76999 -2.5418e+002 -1.5433e+001 -1.0142e+001 63924 77022,76728,76702
 1.1000e+000 76976 -2.9804e+002 -4.7255e+001  7.1228e+000 63924 77022,76702,76832
 1.1000e+000 76953 -2.7909e+002 -2.3795e+001 -8.5241e+001 63924 76728,76806,76754
 1.1000e+000 76930 -4.2901e+002 -9.7096e+001  6.9107e+000 63924 76676,76832,76702
 1.1000e+000 76907 -4.2595e+002  1.0789e+002 -8.4012e+001 63924 76754,76806,76780
 1.1000e+000 76884 -4.4280e+002  3.6013e+001  1.4766e-001 63924 76676,76858,76832
 1.1000e+000 77048 -3.1359e+002  1.8289e+001 -1.0883e+001 63924 76806,76728,77022
 1.1000e+000 77071 -3.5263e+002 -8.3800e+000  4.7396e+000 63924 76806,77022,76832
 1.1000e+000 77449 -1.9917e+002  3.8494e+001  1.1524e+001 63320 77472,77253,77201
 1.1000e+000 77426 -1.8036e+002 -1.1797e+001 -4.4185e+001 63320 77472,77201,77175
 1.1000e+000 77403 -2.8680e+002 -5.5465e+001 -2.9167e+001 63320 77175,77305,77279
 1.1000e+000 77380 -2.3758e+002 -5.2987e+001  8.8767e+001 63320 77201,77253,77227
 1.1000e+000 77357 -2.8860e+002 -4.4028e+001 -6.9166e+001 63320 77175,77331,77305
 1.1000e+000 77498 -2.5256e+002 -6.7720e+001  3.1220e+001 63320 77279,77253,77472
 1.1000e+000 77521 -1.9935e+002 -5.2970e+001 -3.9007e+001 63320 77279,77472,77175
 1.1000e+000 77769 -3.9458e+002 -1.5950e+002  8.9583e+000 62816 77570,77622,77596
 1.1000e+000 77746 -3.3548e+002 -1.4500e+002 -1.9932e+001 62816 77570,77648,77622
 1.1000e+000 77723 -3.8749e+002 -1.4334e+002 -9.0281e+001 62816 77570,77674,77648
 1.1000e+000 77700 -3.8046e+002 -9.0986e+001 -6.0045e+001 62816 77544,77674,77570
 1.1000e+000 78149 -2.0409e+002 -1.3207e+002 -2.7534e+001 62354 77953,78031,78005
 1.1000e+000 78126 -2.5871e+002 -1.0432e+002 -4.1752e+001 62354 77901,78031,77953
 1.1000e+000 78103 -1.8026e+002 -6.7375e+001 -8.7192e+000 62354 77875,78031,77901
 1.1000e+000 78080 -3.6905e+002 -7.0751e+001  5.5721e+001 62354 77901,77953,77927
 1.1000e+000 78057 -3.1525e+002 -2.0433e+002  4.1067e+000 62354 77953,78005,77979
 1.1000e+000 78606 -1.7091e+002 -7.2434e+001 -6.1854e+001 61950 78384,78436,78410
 1.1000e+000 78583 -1.6945e+002 -3.5673e+001 -1.0037e+001 61950 78358,78436,78384
 1.1000e+000 78560 -1.7300e+002 -6.2854e+001  3.9563e+000 61950 78358,78488,78436
 1.1000e+000 78537 -1.2860e+002 -1.7884e+001 -2.3328e+001 61950 78436,78488,78462
 1.1000e+000 78514 -1.9996e+002 -6.8894e+001  2.1953e+000 61950 78332,78488,78358
 1.1000e+000 78756 -4.0331e+002 -1.1776e+002  5.0649e+001 61339 78779,78655,78629
 1.1000e+000 78733 -3.7802e+002 -6.9788e+001  3.8991e+001 61339 78779,78629,78707
 1.1000e+000 78805 -3.3010e+002 -3.6585e+001  4.3685e+000 61339 78851,78779,78681
 1.1000e+000 78828 -3.9288e+002 -8.8495e+001  3.1396e+001 61339 78681,78779,78707
 1.1000e+000 78877 -3.9629e+002 -1.9678e+002  2.2908e+001 61339 78655,78779,78851
 1.1000e+000 79206 -3.0767e+002 -7.7753e+001 -1.1001e+002 60892 79229,79007,78981
 1.1000e+000 79183 -3.2926e+002 -1.0554e+002 -8.2914e+001 60892 79229,78981,79111
 1.1000e+000 79160 -3.5402e+002 -1.0880e+002 -9.5027e+001 60892 79301,79033,79007
 1.1000e+000 79137 -4.8672e+002 -4.2870e+001  1.3847e+001 60892 79033,79085,79059
 1.1000e+000 79255 -3.5636e+002 -9.7535e+001 -1.0333e+002 60892 79301,79007,79229
 1.1000e+000 79278 -3.0607e+002 -9.6421e+001 -8.0919e+001 60892 79085,79229,79111
 1.1000e+000 79327 -3.8930e+002 -1.6268e+002 -5.0761e+001 60892 79085,79033,79301
 1.1000e+000 79350 -3.2506e+002 -1.1702e+002 -7.2561e+001 60892 79085,79301,79229
 1.1000e+000 79647 -4.7767e+002 -1.7624e+002 -7.4258e+001 60488 79451,79529,79503
 1.1000e+000 79624 -4.8667e+002 -1.5816e+002 -3.5275e+001 60488 79425,79529,79451
 1.1000e+000 79601 -3.5009e+002 -9.5793e+001 -6.1946e+000 60488 79373,79529,79425
 1.1000e+000 79578 -3.3768e+002 -1.0789e+002  7.2674e+000 60488 79373,79425,79399
 1.1000e+000 79555 -5.2584e+002  4.6990e+000 -5.1177e+001 60488 79451,79503,79477
 1.1000e+000 79870 -4.5717e+002 -2.0791e+002 -1.0038e+001 60026 79720,79798,79772
 1.1000e+000 79847 -6.5467e+002 -2.4716e+002 -2.1664e+001 60026 79694,79798,79720
 1.1000e+000 79824 -6.2922e+002 -2.7227e+002  1.0255e+001 60026 79720,79772,79746
 1.1000e+000 80120 -1.6960e+002  7.4704e+000  2.3709e+001 59629 79921,80025,79973
 1.1000e+000 80097 -1.6328e+002 -3.7212e+001 -2.0319e+000 59629 79895,80025,79921
 1.1000e+000 80074 -1.5255e+002  1.2827e+001 -3.0003e+001 59629 79973,80025,79999
 1.1000e+000 80051 -9.6402e+001  1.5000e+001  1.2708e+001 59629 79921,79973,79947
 1.1000e+000 80321 -2.0462e+002 -3.0457e+001 -3.4078e+000 59125 80344,80171,80145
 1.1000e+000 80298 -2.3877e+002 -5.7094e+001  1.3392e+001 59125 80344,80145,80249
 1.1000e+000 80275 -2.7611e+002 -6.6286e+001  4.7593e+001 59125 80197,80249,80223
 1.1000e+000 80370 -2.4726e+002 -1.4378e+001  2.0842e+001 59125 80197,80171,80344
 1.1000e+000 80393 -2.7835e+002 -3.6891e+001  3.6606e+001 59125 80197,80344,80249
 1.1000e+000 80952 -1.6000e+002 -5.3582e+001  8.4336e+000 58557 80975,80632,80606
 1.1000e+000 80929 -2.2984e+002 -6.0511e+001  2.0503e+001 58557 81119,80975,80606
 1.1000e+000 80906 -2.1485e+002 -6.1268e+001 -1.7996e+001 58557 81047,80684,80632
 1.1000e+000 80883 -2.5774e+002 -7.4950e+001  3.9892e+000 58557 81119,80606,80580
 1.1000e+000 80860 -2.5332e+002  3.6864e+001 -2.0500e+001 58557 81191,80736,80710
 1.1000e+000 80837 -2.5220e+002 -8.2410e+000 -4.5000e+001 58557 80736,80788,80762
 1.1000e+000 80814 -1.8960e+002 -7.3654e+001 -3.0081e+001 58557 80632,80684,80658
 1.1000e+000 81001 -2.1274e+002 -8.0505e+001 -5.7349e+000 58557 81047,80632,80975
 1.1000e+000 81024 -2.4319e+002 -2.1591e+001 -1.7364e+000 58557 81191,80710,80975
 1.1000e+000 81073 -2.1325e+002 -1.2560e+001 -3.4959e+001 58557 80710,80684,81047
 1.1000e+000 81096 -2.3040e+002 -4.5155e+001 -1.6762e+001 58557 80710,81047,80975
 1.1000e+000 81145 -2.4630e+002 -8.9107e+001  2.9321e+000 58557 80788,80975,81119
 1.1000e+000 81168 -2.4915e+002 -8.9790e+001 -1.0474e+001 58557 80788,81119,80580
 1.1000e+000 81217 -2.7854e+002 -1.4678e+001  9.7772e-001 58557 80788,80736,81191
 1.1000e+000 81240 -2.5961e+002 -5.1875e+001  2.2116e+001 58557 80788,81191,80975
 1.1000e+000 81537 -3.8779e+002 -4.0479e+001 -3.4408e+001 57881 81560,81341,81289
 1.1000e+000 81514 -3.1489e+002 -6.9194e+000 -1.2130e+002 57881 81560,81289,81263
 1.1000e+000 81491 -4.5265e+002 -5.8466e+001 -3.2013e+001 57881 81632,81419,81367
 1.1000e+000 81468 -4.3101e+002 -3.6647e+000 -1.6704e+001 57881 81367,81419,81393
 1.1000e+000 81445 -5.0010e+002 -4.6504e+001 -4.5468e+000 57881 81289,81341,81315
 1.1000e+000 81586 -4.0700e+002 -1.2586e+002 -1.2656e+001 57881 81367,81341,81560
 1.1000e+000 81609 -4.3740e+002 -4.7497e+001 -4.1093e+001 57881 81632,81367,81560
 1.1000e+000 81658 -4.0955e+002 -1.7321e+002 -1.4676e+001 57881 81263,81419,81632
 1.1000e+000 81681 -3.5154e+002 -1.0605e+002 -4.3442e+001 57881 81263,81632,81560
 1.1000e+000 81929 -2.5820e+002 -1.2616e+002  4.4099e+001 57477 81704,81808,81782
 1.1000e+000 81906 -2.0490e+002 -7.9638e+001  2.3940e+001 57477 81704,81834,81808
 1.1000e+000 81883 -2.4604e+002 -2.7767e+001  7.1833e+001 57477 81704,81782,81730
 1.1000e+000 81860 -2.7186e+002 -5.7622e+001  8.3817e+001 57477 81730,81782,81756
 1.1000e+000 82488 -2.4580e+002 -1.0991e+002  9.1541e+000 56966 82583,82511,82194
 1.1000e+000 82465 -2.2249e+002 -5.9047e+001 -1.3086e+001 56966 82511,82116,82324
 1.1000e+000 82442 -2.5094e+002 -1.3809e+002  1.7937e+001 56966 82583,82194,82168
 1.1000e+000 82419 -3.4412e+002 -1.2821e+002  2.0189e+001 56966 82194,82246,82220
 1.1000e+000 82396 -2.4227e+002 -7.6175e+001  4.3728e+001 56966 82194,82298,82246
 1.1000e+000 82373 -2.9094e+002 -7.5332e+001  9.1195e+001 56966 82246,82298,82272
 1.1000e+000 82350 -2.2040e+002 -4.7453e+001 -3.2329e+000 56966 82116,82168,82142
 1.1000e+000 82537 -2.5927e+002 -9.1694e+001  3.2975e+001 56966 82298,82194,82511
 1.1000e+000 82560 -2.0190e+002 -8.1270e+001  3.3359e+001 56966 82298,82511,82324
 1.1000e+000 82609 -2.5435e+002 -7.7141e+001  5.3562e+000 56966 82116,82511,82583
 1.1000e+000 82632 -2.5164e+002 -9.8120e+001  1.0774e+001 56966 82116,82583,82168
 1.1000e+000 83236 -3.3472e+002 -1.5592e+002 -5.6410e+001 56304 82893,82945,82919
 1.1000e+000 83213 -3.7370e+002 -1.6545e+002 -6.4784e+001 56304 83259,82945,82893
 1.1000e+000 83190 -3.4002e+002 -9.7456e+001 -3.1290e+001 56304 83259,82893,83049
 1.1000e+000 83167 -2.5465e+002 -7.6128e+001  1.2602e+001 56304 82971,83049,83023
 1.1000e+000 83144 -3.1622e+002 -6.2408e+001 -1.5045e+001 56304 82815,83049,82893
 1.1000e+000 83121 -3.0031e+002 -3.5558e+001 -2.1632e+001 56304 82815,82893,82867
 1.1000e+000 83098 -1.7962e+002 -8.1085e+001 -3.0554e+001 56304 82971,83023,82997
 1.1000e+000 83075 -2.3327e+002 -6.1281e+001  4.3398e+001 56304 82815,82867,82841
 1.1000e+000 83285 -3.7713e+002 -6.7247e+001 -4.2007e+001 56304 82971,82945,83259
 1.1000e+000 83308 -3.6770e+002 -4.8320e+001 -4.6734e+000 56304 82971,83259,83049
 1.1000e+000 83556 -3.8671e+002 -1.1941e+002 -2.6075e+001 55964 83357,83461,83435
 1.1000e+000 83533 -3.1420e+002 -2.1229e+001  1.7430e+001 55964 83331,83461,83357
 1.1000e+000 83510 -1.5706e+002 -6.6239e+001 -5.1578e+000 55964 83357,83435,83383
 1.1000e+000 83487 -3.2175e+002 -1.2669e+002 -3.2024e+001 55964 83383,83435,83409
 1.1000e+000 83706 -3.9354e+002 -2.2205e+002 -1.6159e+001 55503 83579,83631,83605
 1.1000e+000 83683 -5.0696e+002 -2.1375e+002 -9.5920e-001 55503 83579,83657,83631
 1.1000e+000 83907 -3.1337e+002 -1.4650e+002 -7.1413e+001 55156 83757,83835,83809
 1.1000e+000 83884 -2.7154e+002 -1.5631e+001 -2.4804e+001 55156 83731,83835,83757
 1.1000e+000 83861 -3.8685e+002 -4.0598e+001 -5.9054e+001 55156 83757,83809,83783
 1.1000e+000 84240 -1.8316e+002 -3.1889e+001  2.5520e+001 54652 84093,84145,84119
 1.1000e+000 84217 -3.1550e+002 -2.1081e+001  8.4955e+001 54652 84041,84145,84093
 1.1000e+000 84194 -3.5144e+002 -5.0050e+001  5.3445e+001 54652 84015,84145,84041
 1.1000e+000 84171 -5.6166e+002 -1.2692e+002  7.6484e+001 54652 84041,84093,84067
 1.1000e+000 84618 -2.0014e+002 -9.7998e+001  2.8969e+001 53926 84396,84500,84474
 1.1000e+000 84595 -1.4959e+002 -1.1634e+002  5.6211e+001 53926 84344,84500,84396
 1.1000e+000 84572 -1.4268e+002 -9.8212e+001  5.7490e+001 53926 84344,84396,84370
 1.1000e+000 84549 -1.5177e+002 -6.2549e+001 -1.4024e+001 53926 84396,84474,84422
 1.1000e+000 84526 -2.6282e+002 -1.0274e+002 -4.8802e+001 53926 84422,84474,84448
 1.1000e+000 85350 -4.4227e+002 -1.4989e+002 -1.3378e+002 53586 85373,84880,85088
 1.1000e+000 85327 -1.9415e+002 -1.4213e+002 -1.3236e+002 53586 84880,85114,85088
 1.1000e+000 85304 -1.7493e+002 -2.9479e+001 -1.0801e+002 53586 85373,85088,85062
 1.1000e+000 85281 -3.5541e+002 -3.0043e+002  1.2435e+002 53586 85010,85062,85036
 1.1000e+000 85258 -4.1801e+002 -8.7587e+001 -4.6012e+000 53586 85445,85010,84958
 1.1000e+000 85235 -1.8009e+002  5.1458e+000 -1.8629e+001 53586 85445,84958,84906
 1.1000e+000 85212 -3.2407e+002 -1.0476e+002 -3.6618e+001 53586 84958,85010,84984
 1.1000e+000 85189 -3.1987e+002 -8.1482e+001 -9.1466e+001 53586 84906,84958,84932
 1.1000e+000 85166 -2.4944e+002 -2.4043e+002 -7.8677e+001 53586 84880,85140,85114
 1.1000e+000 85399 -5.3033e+002 -1.1113e+002  1.4947e+002 53586 84906,84880,85373
 1.1000e+000 85422 -3.1915e+002 -6.9932e+000  1.0610e+002 53586 85517,85373,85062
 1.1000e+000 85471 -4.0516e+002 -7.1416e+001  1.2399e+002 53586 85062,85010,85445
 1.1000e+000 85494 -2.9136e+002 -1.0587e+001  9.8187e+001 53586 85517,85062,85445
 1.1000e+000 85543 -2.7417e+002 -7.8589e+000  1.1799e+002 53586 84906,85373,85517
 1.1000e+000 85566 -2.5703e+002 -1.9982e+001  1.1154e+002 53586 84906,85517,85445
 1.1000e+000 86072 -2.4087e+002 -1.1136e+002 -3.3567e+001 53182 86095,85853,85775
 1.1000e+000 86049 -2.5563e+002 -1.0706e+002 -2.7572e+001 53182 86095,85775,85931
 1.1000e+000 86026 -2.8297e+002 -1.3109e+002 -3.9203e+001 53182 86167,85879,85853
 1.1000e+000 86003 -4.3648e+002 -1.5629e+002  1.2483e+001 53182 85775,85827,85801
 1.1000e+000 85980 -2.6283e+002 -1.6430e+002 -3.4110e+001 53182 85775,85853,85827
 1.1000e+000 85957 -1.7800e+002 -8.8935e+001  2.1512e+001 53182 85749,85931,85775
 1.1000e+000 86121 -2.6397e+002 -1.2349e+002 -3.8838e+001 53182 86167,85853,86095
 1.1000e+000 86144 -2.4487e+002 -1.1040e+002 -2.5556e+001 53182 85905,86095,85931
 1.1000e+000 86193 -2.7688e+002 -1.3159e+002 -2.2161e+001 53182 85905,85879,86167
 1.1000e+000 86216 -2.5938e+002 -1.2328e+002 -1.9794e+001 53182 85905,86167,86095
 1.1000e+000 86673 -2.9125e+002 -1.6067e+001  4.7580e+001 52778 86477,86529,86503
 1.1000e+000 86650 -2.9619e+002 -1.0587e+002  1.4493e+001 52778 86425,86529,86477
 1.1000e+000 86627 -2.5331e+002 -1.2937e+002  4.5798e+001 52778 86425,86477,86451
 1.1000e+000 86604 -2.0240e+002 -3.3557e+001  4.8541e+001 52778 86399,86529,86425
 1.1000e+000 86581 -1.4918e+002 -1.6736e-001  2.4249e+001 52778 86399,86555,86529
 1.1000e+000 87258 -2.6434e+002 -5.0296e+001  2.8981e+001 52238 87281,86987,86961
 1.1000e+000 87235 -2.7457e+002 -7.0615e+001  1.1588e+001 52238 87281,86961,87117
 1.1000e+000 87212 -2.7218e+002 -5.6758e+000  9.5381e+000 52238 86935,87117,86961
 1.1000e+000 87189 -3.2197e+002 -9.9914e+000  2.6665e+000 52238 87065,87117,87091
 1.1000e+000 87166 -3.0045e+002 -1.2480e+002  6.0965e+000 52238 86987,87065,87039
 1.1000e+000 87143 -3.3832e+002 -2.2372e+002  8.4710e+001 52238 86987,87039,87013
 1.1000e+000 87307 -2.7707e+002 -8.2922e+001  2.0467e+001 52238 87065,86987,87281
 1.1000e+000 87330 -2.7803e+002 -8.2913e+001  3.0450e+000 52238 87065,87281,87117
 1.1000e+000 87610 -2.9970e+002 -3.4924e+001  1.9648e+001 51834 87434,87512,87460
 1.1000e+000 87587 -2.7327e+002  4.6169e+000  8.2430e+001 51834 87434,87538,87512
 1.1000e+000 87564 -4.4827e+002 -1.6003e+002 -4.3504e+001 51834 87633,87460,87512
 1.1000e+000 87659 -5.6264e+002 -2.0913e+002 -4.8855e+001 51834 87486,87460,87633
 1.1000e+000 88187 -4.2238e+002 -1.4187e+002 -1.6094e+001 51266 87864,87942,87890
 1.1000e+000 88164 -3.7717e+002 -1.7001e+001 -1.5894e+000 51266 87864,88020,87942
 1.1000e+000 88141 -6.5367e+002 -1.9600e+002 -1.2200e+002 51266 87942,88020,87968
 1.1000e+000 88118 -5.2105e+002 -1.7492e+002  7.8361e+001 51266 87864,88046,88020
 1.1000e+000 88095 -3.8841e+002 -3.1001e+001 -1.5833e+001 51266 87968,88020,87994
 1.1000e+000 88072 -3.8859e+002 -1.8059e+002 -4.8197e+001 51266 87890,87942,87916
 1.1000e+000 88644 -3.9933e+002 -1.7928e+002 -2.8476e+001 50754 88370,88500,88396
 1.1000e+000 88621 -3.9283e+002 -7.4517e+001 -5.4451e+001 50754 88370,88526,88500
 1.1000e+000 88598 -2.7838e+002 -7.1667e+001  5.2642e+001 50754 88396,88500,88422
 1.1000e+000 88575 -2.8486e+002 -8.1221e+001  4.8780e+001 50754 88422,88500,88474
 1.1000e+000 88552 -4.7495e+002 -2.0426e+002 -4.0478e+001 50754 88422,88474,88448
 1.1000e+000 88914 -3.9653e+002 -7.1457e+001 -9.7809e+000 50442 88715,88793,88741
 1.1000e+000 88891 -3.5176e+002 -6.9158e+001 -1.9865e+001 50442 88715,88819,88793
 1.1000e+000 88868 -4.6875e+002 -1.3035e+002 -4.6851e+001 50442 88689,88819,88715
 1.1000e+000 88845 -3.4724e+002 -9.3223e+001 -9.9628e+001 50442 88741,88793,88767
 1.1000e+000 89294 -4.7881e+002 -1.0937e+002 -1.2199e+001 49938 89317,89046,89020
 1.1000e+000 89271 -4.5389e+002 -1.2669e+002 -2.5847e+001 49938 89317,89020,89150
 1.1000e+000 89248 -3.5649e+002 -1.3365e+002  5.9802e+000 49938 89072,89150,89098
 1.1000e+000 89225 -4.7616e+002 -8.0864e+001 -9.1042e+001 49938 89020,89176,89150
 1.1000e+000 89202 -2.8393e+002 -9.6685e+001 -4.3965e+001 49938 89098,89150,89124
 1.1000e+000 89343 -3.8648e+002  1.2476e+001  2.8687e+001 49938 89072,89046,89317
 1.1000e+000 89366 -4.5350e+002 -1.1549e+002 -1.8863e+001 49938 89072,89317,89150
 1.1000e+000 89823 -3.0322e+002 -1.1877e+002 -1.0216e+001 49384 89601,89705,89679
 1.1000e+000 89800 -2.4464e+002 -7.9505e+001  5.1114e+001 49384 89549,89705,89601
 1.1000e+000 89777 -1.7832e+002 -4.4524e+001  2.8137e+001 49384 89549,89601,89575
 1.1000e+000 89754 -1.9101e+002 -9.4658e+001  4.8157e+000 49384 89601,89679,89627
 1.1000e+000 89731 -1.2400e+002 -1.0147e+000 -5.4840e+001 49384 89627,89679,89653
 1.1000e+000 90329 -1.7586e+002 -5.1269e+001 -1.8017e+001 48894 90058,90110,90084
 1.1000e+000 90306 -2.2340e+002 -6.4691e+001  7.5213e+001 48894 90058,90162,90110
 1.1000e+000 90283 -3.2188e+002 -5.5078e+001  4.2897e+001 48894 90032,90162,90058
 1.1000e+000 90260 -1.9979e+002  1.2518e+001 -1.6650e+001 48894 90006,90162,90032
 1.1000e+000 90237 -8.2716e+001 -2.0651e+001  1.1268e+000 48894 90110,90162,90136
 1.1000e+000 90214 -2.3202e+002 -5.4130e+000 -8.0344e+000 48894 90006,90188,90162
 1.1000e+000 90884 -3.6624e+002 -1.1723e+002  4.6299e+001 48490 90564,90642,90616
 1.1000e+000 90861 -3.4462e+002 -9.8143e+000 -1.2654e+001 48490 90564,90694,90642
 1.1000e+000 90838 -4.7217e+002 -4.6296e+001  9.6683e-001 48490 90538,90694,90564
 1.1000e+000 90815 -5.7595e+002 -1.2570e+002  3.6627e+001 48490 90538,90720,90694
 1.1000e+000 90792 -3.4088e+002 -5.8437e+001  4.3123e+001 48490 90564,90616,90590
 1.1000e+000 90769 -3.5882e+002 -5.5594e+001 -2.6782e+001 48490 90642,90694,90668
 1.1000e+000 90746 -4.9145e+002 -1.0665e+002  1.3302e+001 48490 90512,90720,90538
 1.1000e+000 91034 -2.8357e+002 -2.9356e+001 -5.0318e+001 48086 91057,90959,90933
 1.1000e+000 91011 -2.9081e+002 -3.6362e+001 -5.6727e+001 48086 91129,91057,90933
 1.1000e+000 91083 -3.0269e+002 -1.2860e+001 -6.5327e+001 48086 90985,90959,91057
 1.1000e+000 91106 -2.6785e+002 -8.1808e+000 -4.9096e+001 48086 90985,91057,90907
 1.1000e+000 91155 -1.9109e+002 -1.4521e+000 -5.6437e+001 48086 90907,91057,91129
 1.1000e+000 91791 -3.6507e+002 -8.4890e+001 -2.9511e+001 47518 92030,91814,91523
 1.1000e+000 91768 -2.8118e+002 -5.8203e+001 -2.8407e+001 47518 91958,91814,91471
 1.1000e+000 91745 -2.7062e+002  1.0003e+002 -1.2416e+001 47518 91886,91575,91523
 1.1000e+000 91722 -2.8716e+002 -1.0122e+002  2.8637e+000 47518 91958,91471,91419
 1.1000e+000 91699 -4.5021e+002  1.0354e+001 -8.2621e+001 47518 92030,91523,91497
 1.1000e+000 91676 -4.2601e+002  1.3164e+002 -4.2029e+001 47518 91523,91575,91549
 1.1000e+000 91653 -2.4382e+002 -7.9308e+001 -1.4106e+001 47518 91419,91471,91445
 1.1000e+000 91840 -3.0815e+002  2.3323e+001 -5.3799e+001 47518 91886,91523,91814
 1.1000e+000 91863 -3.6255e+002 -1.5065e+002  1.3904e+001 47518 91601,91814,91627
 1.1000e+000 91912 -2.2328e+002  1.3395e+002  9.2366e+001 47518 91601,91575,91886
 1.1000e+000 91935 -2.6906e+002 -2.9091e+001  5.6749e+001 47518 91601,91886,91814
 1.1000e+000 91984 -3.1778e+002 -9.4760e+001 -1.1284e+001 47518 91627,91814,91958
 1.1000e+000 92007 -3.0231e+002 -1.1855e+002  1.5445e+001 47518 91627,91958,91419
 1.1000e+000 92056 -4.1269e+002 -1.8052e+002 -9.2914e+001 47518 91471,91814,92030
 1.1000e+000 92079 -4.9171e+002 -1.2442e+002 -1.5340e+002 47518 91471,92030,91497
 1.1000e+000 92229 -2.7000e+002 -1.2406e+002 -5.8182e+001 47128 92252,92128,92102
 1.1000e+000 92206 -3.3021e+002 -1.7691e+002 -1.9224e+001 47128 92324,92252,92102
 1.1000e+000 92278 -3.2916e+002 -2.5164e+002 -5.8187e+001 47128 92454,92252,92154
 1.1000e+000 92301 -3.1295e+002 -1.1595e+002 -3.6692e+001 47128 92154,92252,92180
 1.1000e+000 92350 -2.6979e+002 -9.1618e+001  9.1484e+000 47128 92180,92252,92324
 1.1000e+000 92480 -2.9000e+002 -1.2192e+002 -2.8008e+001 47128 92128,92252,92454
 1.1000e+000 93340 -3.7214e+002 -1.5938e+001  4.7634e+001 46838 93363,92977,92873
 1.1000e+000 93317 -5.0708e+002 -6.4343e+001  7.4438e+000 46838 93507,93363,92873
 1.1000e+000 93294 -4.1962e+002 -1.1699e+002 -1.0158e+001 46838 93435,93003,92977
 1.1000e+000 93271 -5.7108e+002 -1.1961e+002 -1.7708e+001 46838 93507,92873,92847
 1.1000e+000 93248 -4.1941e+002 -1.0312e+002 -2.9622e+001 46838 93579,93029,93003
 1.1000e+000 93225 -2.9965e+002 -6.1216e+001 -4.0160e+000 46838 92873,92951,92925
 1.1000e+000 93202 -2.9065e+002 -6.8366e+001  9.7444e+000 46838 92873,92977,92951
 1.1000e+000 93179 -5.5824e+002 -1.5954e+002  4.6589e+001 46838 93055,93107,93081
 1.1000e+000 93156 -8.2253e+002 -3.0627e+002 -3.1464e+001 46838 92821,93107,92847
 1.1000e+000 93133 -2.8467e+002 -1.0358e+002  2.4051e+001 46838 92873,92925,92899
 1.1000e+000 93389 -4.5245e+002 -1.0803e+002 -4.9676e+000 46838 93435,92977,93363
 1.1000e+000 93412 -4.1418e+002 -5.9268e+001 -6.0172e+000 46838 93055,93363,93107
 1.1000e+000 93461 -4.0843e+002 -1.0278e+002 -1.7539e+001 46838 93579,93003,93435
 1.1000e+000 93484 -4.2946e+002 -6.7180e+001 -1.5840e+001 46838 93055,93435,93363
 1.1000e+000 93533 -4.4651e+002 -1.5020e+002 -7.3399e-001 46838 93107,93363,93507
 1.1000e+000 93556 -4.5733e+002 -1.6650e+002 -6.2160e+000 46838 93107,93507,92847
 1.1000e+000 93605 -4.4738e+002 -1.1168e+002 -3.7411e+001 46838 93055,93029,93579
 1.1000e+000 93628 -4.3518e+002 -1.1163e+002 -2.5821e+001 46838 93055,93579,93435
 1.1000e+000 93979 -3.4065e+002  8.1919e+001  4.1062e+001 46476 93780,93884,93858
 1.1000e+000 93956 -4.0392e+002 -2.0492e+001  1.4320e+001 46476 93754,93884,93780
 1.1000e+000 93933 -7.7908e+002 -2.8417e+001  3.9310e+000 46476 93806,93858,93832
 1.1000e+000 93910 -7.6545e+002 -9.4059e+001  5.0343e+001 46476 93780,93858,93806
 1.1000e+000 94515 -3.2781e+002 -1.1202e+002  3.4837e+001 46072 94345,94397,94371
 1.1000e+000 94492 -2.0758e+002 -6.0103e+001  3.0500e+001 46072 94267,94397,94345
 1.1000e+000 94469 -1.9674e+002 -9.3264e+000  2.9680e+001 46072 94241,94397,94267
 1.1000e+000 94446 -1.0870e+002 -1.5454e+001 -3.7490e+001 46072 94293,94345,94319
 1.1000e+000 94423 -2.0503e+002  4.7814e+000  3.2189e+001 46072 94267,94345,94293
 1.1000e+000 95149 -2.3963e+002 -5.6788e+001 -1.9129e+001 45346 94803,94881,94855
 1.1000e+000 95126 -2.4766e+002 -4.9152e+001 -2.3664e+001 45346 94803,94959,94881
 1.1000e+000 95103 -1.6027e+002 -2.2300e+001 -1.9331e+001 45346 95172,94933,94907
 1.1000e+000 95080 -2.0342e+002 -3.0951e+001 -2.0603e-001 45346 95172,94907,94881
 1.1000e+000 95057 -2.0996e+002 -1.1446e+002 -5.8593e+001 45346 94803,94985,94959
 1.1000e+000 95034 -2.4223e+002 -2.9857e+001 -1.3201e+001 45346 94803,94855,94829
 1.1000e+000 95011 -2.5111e+002 -2.5766e+002 -2.0582e+002 45346 94777,94985,94803
 1.1000e+000 95198 -2.0077e+002 -1.3193e+001 -2.1397e+001 45346 94959,94933,95172
 1.1000e+000 95221 -2.3198e+002 -8.3877e+000 -1.1444e+001 45346 94959,95172,94881
 1.1000e+000 95776 -1.7820e+002 -2.8857e+001  8.8896e+001 44720 95799,95560,95534
 1.1000e+000 95753 -2.3731e+002 -5.5516e+001  1.0666e+002 44720 95799,95534,95482
 1.1000e+000 95730 -2.9511e+002 -3.6886e+001  1.0663e+002 44720 95943,95871,95430
 1.1000e+000 95707 -3.1053e+002 -8.8757e+000  1.0963e+002 44720 95943,95430,95404
 1.1000e+000 95684 -4.8974e+002 -1.2219e+002  1.2350e+002 44720 95430,95482,95456
 1.1000e+000 95661 -1.1991e+002 -3.2885e+001  5.3791e+001 44720 95482,95534,95508
 1.1000e+000 95638 -2.6862e+002 -1.7365e+000  1.2342e+002 44720 95404,95612,95586
 1.1000e+000 95825 -2.3825e+002 -6.9992e-001  9.6340e+001 44720 95586,95560,95799
 1.1000e+000 95848 -2.5051e+002 -1.9876e+001  1.0339e+002 44720 95871,95586,95799
 1.1000e+000 95897 -2.7927e+002 -4.4557e+001  8.5028e+001 44720 95482,95430,95871
 1.1000e+000 95920 -2.7085e+002 -2.1501e+001  8.7702e+001 44720 95482,95871,95799
 1.1000e+000 95969 -2.6433e+002 -6.3703e+000  9.3105e+001 44720 95586,95871,95943
 1.1000e+000 95992 -2.9394e+002  5.7741e+000  1.0099e+002 44720 95586,95943,95404
 1.1000e+000 96449 -2.7298e+002 -4.9288e+001  1.9674e+001 44202 96544,96472,96227
 1.1000e+000 96426 -3.1958e+002 -1.8494e+002  5.0669e+001 44202 96472,96175,96331
 1.1000e+000 96403 -3.5412e+002  1.4182e+001  5.6892e+000 44202 96544,96227,96201
 1.1000e+000 96380 -8.6051e+001 -2.6822e+001 -3.5248e+001 44202 96253,96305,96279
 1.1000e+000 96357 -1.9994e+002 -1.3718e+001  3.1506e+001 44202 96227,96305,96253
 1.1000e+000 96498 -2.7634e+002 -1.1364e+002 -2.5424e+000 44202 96305,96227,96472
 1.1000e+000 96521 -2.8879e+002 -1.0121e+002  3.0825e+001 44202 96305,96472,96331
 1.1000e+000 96570 -3.3914e+002 -1.6354e+002 -1.4686e+001 44202 96175,96472,96544
 1.1000e+000 96593 -3.8272e+002 -5.2708e+001 -1.7655e+001 44202 96175,96544,96201
 1.1000e+000 96971 -3.3890e+002 -1.9032e+002  2.2844e+001 43754 96994,96749,96697
 1.1000e+000 96948 -3.5324e+002 -1.9812e+002  2.5923e+001 43754 96994,96697,96853
 1.1000e+000 96925 -3.1856e+002 -2.0406e+002  1.0495e+001 43754 96697,96749,96723
 1.1000e+000 96902 -3.1941e+002 -1.0975e+002 -1.2433e+001 43754 96775,96853,96827
 1.1000e+000 96879 -2.5183e+002 -1.1190e+002 -4.7610e+000 43754 96775,96827,96801
 1.1000e+000 97020 -3.4064e+002 -1.7231e+002  3.8315e+000 43754 96775,96749,96994
 1.1000e+000 97043 -3.6613e+002 -1.8720e+002  1.0390e+001 43754 96775,96994,96853
 1.1000e+000 97291 -2.7286e+002 -3.5726e+001 -3.2504e+001 43364 97314,97144,97118
 1.1000e+000 97268 -3.0236e+002 -7.2324e+001 -4.8640e+001 43364 97314,97118,97092
 1.1000e+000 97245 -2.4329e+002 -7.8228e+001 -1.9852e+001 43364 97386,97196,97170
 1.1000e+000 97222 -2.7144e+002 -1.2346e+002 -4.7532e+001 43364 97066,97196,97092
 1.1000e+000 97340 -2.8843e+002 -7.7902e+001 -2.4638e+001 43364 97170,97144,97314
 1.1000e+000 97363 -2.5350e+002 -6.5427e+001 -3.0833e+001 43364 97386,97170,97314
 1.1000e+000 97412 -2.5066e+002 -9.2308e+001 -3.4126e+001 43364 97092,97196,97386
 1.1000e+000 97435 -2.7104e+002 -9.3091e+001 -4.7010e+001 43364 97092,97386,97314
 1.1000e+000 97788 -2.6490e+002 -9.0809e+000 -2.0803e+001 42960 97563,97667,97589
 1.1000e+000 97765 -4.3652e+002 -1.7440e+002  4.6980e+001 42960 97563,97693,97667
 1.1000e+000 97742 -6.0104e+002  1.4706e+001 -8.9945e+000 42960 97589,97641,97615
 1.1000e+000 97719 -5.7475e+002 -8.9833e+001 -2.9832e+001 42960 97589,97667,97641
 1.1000e+000 98215 -2.3306e+002 -6.6639e+001 -1.0351e+002 42563 97918,98074,98048
 1.1000e+000 98192 -1.2649e+002  1.4961e+001 -6.0890e+001 42563 97892,98074,97918
 1.1000e+000 98169 -2.5207e+002 -1.7548e+001 -1.1503e+002 42563 98238,97944,97918
 1.1000e+000 98146 -2.9631e+002 -1.1974e+002 -8.0783e+001 42563 98238,97918,98048
 1.1000e+000 98123 -2.8062e+002 -6.0326e+001 -6.8509e+001 42563 97944,98022,97996
 1.1000e+000 98100 -2.6697e+002  1.3640e-001 -2.5524e+001 42563 97944,97996,97970
 1.1000e+000 98264 -2.9184e+002 -8.8445e+001 -6.4207e+001 42563 98022,97944,98238
 1.1000e+000 98287 -3.0281e+002 -1.2716e+002 -3.1922e+001 42563 98022,98238,98048
 1.1000e+000 98616 -2.3820e+002 -1.1684e+002 -1.2109e+001 42251 98443,98521,98469
 1.1000e+000 98593 -2.8404e+002 -1.0716e+002  1.9023e+001 42251 98417,98521,98443
 1.1000e+000 98570 -2.7036e+002 -8.2424e+001 -5.3320e+001 42251 98391,98521,98417
 1.1000e+000 98547 -2.2840e+002 -8.3437e+001 -5.9083e+001 42251 98469,98521,98495
 1.1000e+000 98886 -6.5610e+002 -2.2507e+002 -7.0818e+000 41847 98661,98765,98687
 1.1000e+000 98863 -6.4823e+002 -1.9089e+002 -2.9768e+001 41847 98661,98791,98765
 1.1000e+000 98840 -6.6460e+002 -2.2607e+002 -1.0674e+001 41847 98687,98765,98739
 1.1000e+000 98817 -6.3055e+002 -2.1107e+002 -1.3565e+001 41847 98687,98739,98713
 1.1000e+000 99394 -2.6253e+002 -1.4752e+001  4.7599e+001 41236 99417,99149,99123
 1.1000e+000 99371 -3.9233e+002 -6.5781e+001  3.7935e+001 41236 99417,99123,99097
 1.1000e+000 99348 -2.9788e+002 -8.2687e+001 -1.0674e+001 41236 99489,99201,99149
 1.1000e+000 99325 -2.8874e+002 -9.1322e+001 -3.2217e+001 41236 99149,99201,99175
 1.1000e+000 99302 -4.5386e+002 -7.2422e+001 -1.2733e+001 41236 99097,99253,99227
 1.1000e+000 99279 -7.0538e+002 -2.2444e+002 -7.6245e+001 41236 99071,99253,99097
 1.1000e+000 99443 -3.1492e+002 -7.2308e+001 -1.2071e+001 41236 99489,99149,99417
 1.1000e+000 99466 -3.3704e+002 -4.9897e+001 -1.4010e+001 41236 99227,99417,99097
 1.1000e+000 99515 -2.9143e+002 -7.2428e+001 -1.6190e+001 41236 99227,99201,99489
 1.1000e+000 99538 -2.9745e+002 -5.3049e+001 -2.0999e+001 41236 99227,99489,99417
 1.1000e+000 100044 -1.2023e+002 -2.1719e+001  1.0861e+002 40732 99721,99773,99747
 1.1000e+000 100021 -2.7005e+002  6.6719e+000  3.5163e+001 40732 99721,99799,99773
 1.1000e+000 99998 -2.5288e+002 -3.0924e+001  2.4971e+001 40732 99721,99903,99799
 1.1000e+000 99975 -2.3906e+002 -4.2314e+001 -4.4506e+001 40732 100067,99877,99851
 1.1000e+000 99952 -2.6479e+002 -9.6146e+001 -3.4994e+001 40732 100067,99851,99799
 1.1000e+000 99929 -3.3778e+002 -9.1545e+001 -7.5791e+001 40732 99799,99851,99825
 1.1000e+000 100093 -2.6948e+002  1.2602e+001 -2.0192e+001 40732 99903,99877,100067
 1.1000e+000 100116 -3.0886e+002 -6.1655e+001 -4.1417e+000 40732 99903,100067,99799
 1.1000e+000 100622 -3.8500e+002 -3.3669e+001  5.5706e+001 40278 100645,100455,100429
 1.1000e+000 100599 -4.4879e+002 -5.8783e+001  6.7912e+001 40278 100717,100645,100429
 1.1000e+000 100576 -5.2189e+002 -9.0939e+001  1.5135e+001 40278 100717,100429,100377
 1.1000e+000 100553 -3.5267e+002 -1.2841e+002  4.2339e+001 40278 100789,100325,100481
 1.1000e+000 100530 -3.3434e+002 -5.6354e+001  6.8037e+001 40278 100299,100481,100325
 1.1000e+000 100507 -4.2541e+002 -9.3015e+001  1.0850e+001 40278 100377,100429,100403
 1.1000e+000 100671 -4.1052e+002 -2.9036e+000  6.2727e+001 40278 100481,100455,100645
 1.1000e+000 100694 -3.8965e+002 -8.8423e+001  1.9433e+000 40278 100789,100481,100645
 1.1000e+000 100743 -4.8620e+002 -8.2058e+001 -6.7907e+001 40278 100351,100645,100717
 1.1000e+000 100766 -6.5928e+002 -1.4929e+002 -1.1842e+002 40278 100351,100717,100377
 1.1000e+000 100815 -3.1396e+002 -1.1141e+002  1.7973e+000 40278 100351,100325,100789
 1.1000e+000 100838 -3.2074e+002 -3.4659e+001 -4.1835e+001 40278 100351,100789,100645
 1.1000e+000 101265 -3.7956e+002 -1.2371e+002  7.9565e+000 39824 101288,101046,100994
 1.1000e+000 101242 -4.1188e+002 -1.5142e+002 -7.7287e+000 39824 101288,100994,100968
 1.1000e+000 101219 -4.7435e+002 -1.0634e+002  2.9957e+001 39824 100942,101124,100968
 1.1000e+000 101196 -3.1831e+002 -2.5871e+001  1.2918e+001 39824 101046,101124,101072
 1.1000e+000 101173 -3.4532e+002 -1.5449e+002 -7.3507e+001 39824 100994,101046,101020
 1.1000e+000 101150 -2.0330e+002 -3.3172e+001  1.9398e+001 39824 101072,101124,101098
 1.1000e+000 101314 -3.6353e+002 -1.3858e+002  2.0167e+001 39824 101124,101046,101288
 1.1000e+000 101337 -3.7923e+002 -1.4384e+002  9.9044e+000 39824 101124,101288,100968
 1.1000e+000 101585 -2.9668e+002 -1.7232e+002  5.9120e+001 39070 101608,101464,101412
 1.1000e+000 101562 -2.9471e+002 -1.3563e+002  5.3405e+001 39070 101608,101412,101360
 1.1000e+000 101539 -2.6704e+002 -1.7299e+002  5.0930e+001 39070 101412,101464,101438
 1.1000e+000 101516 -3.1783e+002 -1.7943e+002  6.2570e+001 39070 101360,101412,101386
 1.1000e+000 101634 -3.0512e+002 -1.5963e+002  3.5645e+001 39070 101490,101464,101608
 1.1000e+000 101657 -2.9366e+002 -1.1002e+002  2.9511e+001 39070 101490,101608,101360
 1.1000e+000 101856 -5.3851e+002 -4.8059e+001 -2.2937e+001 38730 101706,101758,101732
 1.1000e+000 101833 -5.2809e+002 -9.5639e+001 -6.3332e+000 38730 101706,101784,101758
 1.1000e+000 101810 -4.7029e+002 -1.3329e+002 -6.9053e+001 38730 101680,101784,101706
 1.1000e+000 102106 -3.4614e+002 -9.6630e+001  1.6368e+001 38326 101881,101959,101907
 1.1000e+000 102083 -3.8442e+002 -1.0343e+002  7.0474e+001 38326 101881,101985,101959
 1.1000e+000 102060 -2.4481e+002 -8.2333e+001  6.9842e+001 38326 101881,102011,101985
 1.1000e+000 102037 -4.3882e+002 -6.1476e+001 -1.5183e+001 38326 101907,101959,101933
 1.1000e+000 102258 -2.5005e+002 -4.7812e+001  1.3406e+001 38036 102281,102157,102131
 1.1000e+000 102235 -2.5668e+002  6.0747e+000 -1.4390e+001 38036 102281,102131,102209
 1.1000e+000 102307 -2.3391e+002 -9.6015e+001  7.5679e+000 38036 102183,102157,102281
 1.1000e+000 102330 -2.5346e+002 -6.2928e+001 -2.8785e+001 38036 102183,102281,102209
 1.1000e+000 102663 -2.3070e+002 -4.9173e+001  4.6158e+001 37596 102438,102542,102464
 1.1000e+000 102640 -1.4283e+002 -2.5631e+001  1.8910e+001 37596 102438,102568,102542
 1.1000e+000 102617 -2.3155e+002 -1.6137e+001  8.3934e+001 37596 102490,102542,102516
 1.1000e+000 102594 -2.1099e+002 -3.6988e+001  5.4037e+001 37596 102464,102542,102490
 1.1000e+000 102862 -2.6896e+002  6.0412e+000  1.1464e+001 37192 102686,102764,102712
 1.1000e+000 102839 -2.6089e+002  1.7282e+001  5.6943e+000 37192 102686,102790,102764
 1.1000e+000 102816 -1.7507e+002 -4.9652e+001  3.7422e+001 37192 102712,102764,102738
 1.1000e+000 103110 -2.5556e+002 -4.2420e+001 -9.0893e+000 36609 102911,102963,102937
 1.1000e+000 103087 -2.7847e+002 -4.6159e+001 -1.0660e+001 36609 102911,102989,102963
 1.1000e+000 103064 -2.9661e+002 -9.3021e+001 -3.4219e+001 36609 102885,102989,102911
 1.1000e+000 103041 -3.1390e+002 -2.6810e+001 -7.4073e+001 36609 102885,103015,102989
 1.1000e+000 103718 -1.0510e+002  9.0633e+000  1.1759e+001 36131 103323,103375,103349
 1.1000e+000 103695 -2.5457e+002  4.7893e-001  2.8040e+001 36131 103297,103375,103323
 1.1000e+000 103672 -2.9368e+002 -1.2642e+002 -1.2721e+001 36131 103297,103505,103375
 1.1000e+000 103649 -2.6192e+002 -1.0022e+002  1.0687e+001 36131 103741,103479,103401
 1.1000e+000 103626 -2.4691e+002 -6.6547e+001  2.6771e+001 36131 103741,103401,103375
 1.1000e+000 103603 -3.1414e+002 -6.4862e+001 -6.8384e+000 36131 103401,103479,103427
 1.1000e+000 103580 -3.1935e+002 -9.9227e+001 -4.3121e+001 36131 103297,103531,103505
 1.1000e+000 103557 -2.7936e+002 -4.1487e+000 -3.4140e+001 36131 103427,103479,103453
 1.1000e+000 103767 -2.7198e+002 -1.2783e+002 -1.4178e+001 36131 103505,103479,103741
 1.1000e+000 103790 -2.5557e+002 -9.6432e+001  2.6649e+000 36131 103505,103741,103375
 1.1000e+000 103989 -5.5010e+002 -1.3252e+002  1.4095e+001 35791 103839,103917,103891
 1.1000e+000 103966 -5.4224e+002 -1.8534e+002  4.0262e+000 35791 103813,103917,103839
 1.1000e+000 103943 -4.5113e+002 -2.3039e+001 -4.4026e+001 35791 103839,103891,103865
 1.1000e+000 104188 -2.4708e+002 -9.7656e+001 -3.9766e+001 35444 104038,104090,104064
 1.1000e+000 104165 -2.7527e+002 -5.8682e+001  3.8533e+001 35444 104038,104116,104090
 1.1000e+000 104142 -3.0534e+002 -2.6029e+000  3.6434e+001 35444 104012,104116,104038
 1.1000e+000 104487 -3.8634e+002 -9.2532e+001 -4.2554e+001 34990 104265,104317,104291
 1.1000e+000 104464 -3.0088e+002 -7.3419e+001 -2.3909e+001 34990 104510,104317,104265
 1.1000e+000 104441 -2.0934e+002 -3.5002e+001 -3.1362e+000 34990 104510,104265,104213
 1.1000e+000 104418 -3.3375e+002 -1.7588e+001  2.0385e+001 34990 104582,104343,104317
 1.1000e+000 104395 -1.9499e+002 -6.4972e+000 -1.8666e+001 34990 104213,104265,104239
 1.1000e+000 104536 -3.3525e+002 -1.8240e+001  1.8238e+000 34990 104582,104317,104510
 1.1000e+000 104559 -2.8260e+002 -2.1724e+001  1.2082e+001 34990 104369,104510,104213
 1.1000e+000 104608 -2.8538e+002  1.9239e+001  3.6437e+001 34990 104369,104343,104582
 1.1000e+000 104631 -3.1080e+002 -7.6497e+000  8.5865e+000 34990 104369,104582,104510
 1.1000e+000 104783 -3.6630e+002 -1.0080e+002 -2.6703e+001 34700 104938,104806,104682
 1.1000e+000 104760 -3.5474e+002 -8.3467e+001 -2.0027e+001 34700 104938,104682,104656
 1.1000e+000 104832 -2.5903e+002 -2.9677e+001  7.6827e+000 34700 104708,104682,104806
 1.1000e+000 104964 -3.7183e+002 -1.0962e+002 -4.2023e+001 34700 104734,104806,104938
 1.1000e+000 104987 -3.6224e+002 -9.6329e+001 -3.5733e+001 34700 104734,104938,104656
 1.1000e+000 105137 -4.9017e+002 -3.9066e+000 -7.6167e+000 34388 105036,105088,105062
 1.1000e+000 105114 -4.9676e+002 -1.0694e+002 -2.6411e+001 34388 105010,105088,105036
 1.1000e+000 105385 -3.9912e+002 -7.0166e+001  3.8952e+001 33734 105408,105186,105160
 1.1000e+000 105362 -3.9094e+002 -6.8044e+001  3.3102e+001 33734 105408,105160,105264
 1.1000e+000 105339 -4.7924e+002 -1.2205e+001  1.7418e+001 33734 105160,105290,105264
 1.1000e+000 105316 -3.6621e+002 -9.5039e+001  8.4634e+001 33734 105186,105238,105212
 1.1000e+000 105434 -3.9083e+002 -7.8653e+001  3.1196e+001 33734 105238,105186,105408
 1.1000e+000 105457 -3.6769e+002 -5.9394e+001  2.1342e+001 33734 105238,105408,105264
 1.1000e+000 105609 -2.3971e+002 -2.5513e+001 -6.7527e+001 33394 105482,105534,105508
 1.1000e+000 105586 -2.1890e+002 -1.3324e+001 -7.2553e+001 33394 105482,105560,105534
 1.1000e+000 105859 -5.1683e+002 -6.8887e+001 -7.3618e+001 33047 105882,105712,105660
 1.1000e+000 105836 -5.6181e+002 -5.7008e+001 -2.8329e+001 33047 105882,105660,105634
 1.1000e+000 105813 -3.7817e+002 -9.7139e+001  3.7911e+000 33047 105660,105712,105686
 1.1000e+000 105790 -4.2456e+002 -3.8305e+001 -6.6094e+001 33047 105634,105764,105738
 1.1000e+000 105908 -4.1105e+002  7.2937e+000 -1.1536e+002 33047 105738,105712,105882
 1.1000e+000 105931 -5.2099e+002 -4.4575e+001 -5.6327e+001 33047 105738,105882,105634
 1.1000e+000 106181 -3.4518e+002 -9.8970e+001  4.1395e+001 32543 106204,106060,106008
 1.1000e+000 106158 -3.1947e+002 -1.3856e+002  2.8433e+001 32543 105956,106086,106060
 1.1000e+000 106135 -3.2204e+002 -5.3738e+001  2.9051e+001 32543 106204,106008,105982
 1.1000e+000 106112 -3.5621e+002 -1.6972e+002  2.8410e+001 32543 106008,106060,106034
 1.1000e+000 106230 -3.2442e+002 -1.1559e+002  8.8389e+000 32543 105956,106060,106204
 1.1000e+000 106253 -2.9704e+002 -7.1017e+001 -4.6552e+000 32543 105956,106204,105982
 1.1000e+000 106454 -3.5647e+002 -1.4453e+002 -8.2352e+001 31839 106304,106356,106330
 1.1000e+000 106431 -3.8746e+002 -1.0619e+002  1.0914e+001 31839 106278,106356,106304
 1.1000e+000 106408 -2.8772e+002 -6.5569e+001 -1.4091e+001 31839 106278,106382,106356
 1.1000e+000 106704 -2.1569e+002 -3.0624e+001  1.1625e+001 31534 106505,106583,106557
 1.1000e+000 106681 -2.0442e+002 -2.8886e+001  8.9516e+000 31534 106479,106583,106505
 1.1000e+000 106658 -2.5269e+002 -4.2401e+001  1.8819e+001 31534 106505,106557,106531
 1.1000e+000 106635 -2.8684e+002 -6.1894e+001  9.0959e+000 31534 106479,106609,106583
 1.1000e+000 107108 -6.5982e+002  3.4516e+001 -1.2757e+002 31030 106886,106990,106964
 1.1000e+000 107085 -5.0143e+002 -1.0492e+002 -3.7791e+001 31030 106860,106990,106886
 1.1000e+000 107062 -4.7068e+002 -8.0680e+001 -1.9023e+001 31030 106834,106990,106860
 1.1000e+000 107039 -9.6128e+002 -3.4084e+002  6.7445e+001 31030 106912,106964,106938
 1.1000e+000 107016 -1.0276e+003 -1.1428e+002 -1.1863e+002 31030 106886,106964,106912
 1.1000e+000 107307 -5.1484e+002  2.5528e+001 -4.0132e+000 30718 107330,107157,107131
 1.1000e+000 107284 -4.3322e+002  1.3179e+001 -2.6446e+001 30718 107330,107131,107235
 1.1000e+000 107261 -3.3684e+002 -4.3837e+000  3.8671e+001 30718 107183,107235,107209
 1.1000e+000 107356 -4.3364e+002  2.8147e+000  1.6789e+001 30718 107183,107157,107330
 1.1000e+000 107379 -3.5609e+002 -1.1274e+001 -1.2435e+001 30718 107183,107330,107235
 1.1000e+000 107759 -2.8710e+002 -9.9470e+001  3.8075e+001 30264 107782,107615,107537
 1.1000e+000 107736 -2.8162e+002 -8.6317e+001  2.9779e+001 30264 107782,107537,107485
 1.1000e+000 107713 -3.9509e+002 -5.1394e+001  4.2959e+001 30264 107485,107537,107511
 1.1000e+000 107690 -2.2256e+002 -2.5507e+001  6.9239e+001 30264 107537,107615,107589
 1.1000e+000 107667 -2.0364e+002 -4.9021e+001  5.4117e+001 30264 107537,107589,107563
 1.1000e+000 107808 -2.8072e+002 -9.3356e+001  2.9332e+001 30264 107641,107615,107782
 1.1000e+000 107831 -2.7888e+002 -8.0746e+001  2.1805e+001 30264 107641,107782,107485
 1.1000e+000 108030 -3.4262e+002 -1.3917e+002  3.4129e+001 29874 108053,107854,107932
 1.1000e+000 108007 -2.8447e+002 -8.3393e+001  6.1050e+000 29874 107854,107958,107932
 1.1000e+000 107984 -3.8043e+002 -7.0058e+001  1.0305e+002 29874 108053,107932,107906
 1.1000e+000 108079 -3.3427e+002 -5.0741e+001  3.8832e+001 29874 107880,107854,108053
 1.1000e+000 108102 -3.6932e+002  3.6756e+001  8.6476e+001 29874 107880,108053,107906
 1.1000e+000 108433 -1.9104e+002 -5.9941e+001  5.2836e+000 29484 108234,108338,108312
 1.1000e+000 108410 -2.6070e+002 -4.8553e+001  6.6733e+001 29484 108208,108338,108234
 1.1000e+000 108387 -2.9923e+002 -6.2761e+001 -1.2869e+001 29484 108234,108312,108260
 1.1000e+000 108364 -2.5951e+002 -8.9185e+001 -1.1910e+001 29484 108260,108312,108286
 1.1000e+000 108762 -2.2049e+002 -1.2651e+002  5.8628e+000 29080 108563,108641,108589
 1.1000e+000 108739 -1.6756e+002 -7.8661e+001  5.0945e+001 29080 108537,108641,108563
 1.1000e+000 108716 -3.5594e+002 -4.6832e+001  1.1270e+002 29080 108589,108641,108615
 1.1000e+000 108693 -1.0472e+002 -6.9947e+001 -1.4783e+001 29080 108537,108667,108641
 1.1000e+000 109189 -3.5566e+002 -8.4683e+001  2.8188e+001 28476 108892,108996,108970
 1.1000e+000 109166 -4.4436e+002 -7.1599e+001  2.8523e+001 28476 108892,109022,108996
 1.1000e+000 109143 -3.6809e+002 -1.2092e+002  3.2383e+001 28476 108892,108970,108944
 1.1000e+000 109120 -5.0260e+002 -8.4876e+001  2.8183e+001 28476 108892,109048,109022
 1.1000e+000 109097 -3.8378e+002 -1.4343e+002  2.1895e+001 28476 108892,108944,108918
 1.1000e+000 109074 -6.3468e+002 -6.1476e+001 -6.1158e+001 28476 108866,109048,108892
 1.1000e+000 109518 -2.5530e+002 -5.7046e+001  3.6396e+001 28022 109541,109371,109345
 1.1000e+000 109495 -2.9433e+002 -8.4592e+000 -1.9774e+001 28022 109541,109345,109319
 1.1000e+000 109472 -2.1346e+002  2.1181e+000 -2.1426e+001 28022 109293,109397,109319
 1.1000e+000 109449 -2.5099e+002 -3.4222e+001  8.2523e+000 28022 109293,109423,109397
 1.1000e+000 109567 -9.6590e+001  8.1808e+000  4.1468e+001 28022 109397,109371,109541
 1.1000e+000 109590 -2.4630e+002 -5.9655e+000 -1.0603e+001 28022 109397,109541,109319
 1.1000e+000 109968 -3.7046e+002 -1.7916e+002 -4.8349e+001 27568 109798,109850,109824
 1.1000e+000 109945 -3.3413e+002 -8.0820e+001 -4.3872e+001 27568 109694,109850,109798
 1.1000e+000 109922 -2.8247e+002 -1.5419e+002 -2.9704e+001 27568 109694,109798,109746
 1.1000e+000 109899 -3.2403e+002 -1.4169e+002  1.2908e+002 27568 109746,109798,109772
 1.1000e+000 109876 -1.9680e+002 -1.7697e+001  3.0128e+001 27568 109694,109746,109720
 1.1000e+000 110167 -3.0634e+002 -5.6345e+001 -1.0146e+001 27007 110017,110095,110069
 1.1000e+000 110144 -2.8276e+002 -8.3922e+000 -1.9115e+000 27007 109991,110095,110017
 1.1000e+000 110121 -3.0264e+002 -1.2052e+001  4.6054e+001 27007 110017,110069,110043
 1.1000e+000 110415 -1.9591e+002 -9.3151e+001  1.1843e+001 26567 110438,110242,110190
 1.1000e+000 110392 -2.5690e+002 -5.0637e+000 -1.8952e+001 26567 110438,110190,110320
 1.1000e+000 110369 -2.7993e+002 -7.7157e+001  1.0228e+001 26567 110242,110294,110268
 1.1000e+000 110346 -1.4652e+002  2.4709e+001  1.3525e+001 26567 110190,110242,110216
 1.1000e+000 110464 -2.2820e+002 -1.0744e+002 -9.1756e+000 26567 110294,110242,110438
 1.1000e+000 110487 -3.0957e+002 -8.5385e+001 -5.7945e+001 26567 110294,110438,110320
 1.1000e+000 110639 -4.5635e+002  2.0343e+001 -6.0104e+001 26170 110538,110590,110564
 1.1000e+000 110616 -3.8241e+002 -3.0189e+001 -1.2421e+001 26170 110512,110590,110538
 1.1000e+000 111149 -4.0199e+002 -9.3870e+001  1.3286e+002 25716 111172,110878,110852
 1.1000e+000 111126 -3.4601e+002 -2.2468e+001  1.0044e+002 25716 111172,110852,111008
 1.1000e+000 111103 -4.6753e+002 -1.2951e+002  2.3682e+002 25716 110878,110930,110904
 1.1000e+000 111080 -2.9058e+002 -2.5778e+001  6.5565e+001 25716 110826,111008,110852
 1.1000e+000 111057 -2.6949e+002 -1.5187e+002  5.6875e+001 25716 110930,111008,110956
 1.1000e+000 111034 -2.7762e+002 -1.1637e+002  2.3789e+001 25716 110956,111008,110982
 1.1000e+000 111198 -3.3529e+002 -1.8106e+002  1.5560e+002 25716 110930,110878,111172
 1.1000e+000 111221 -2.6765e+002 -1.0643e+002  1.1791e+002 25716 110930,111172,111008
 1.1000e+000 111420 -4.8858e+002 -8.2511e+001  1.0423e+001 25304 111443,111270,111244
 1.1000e+000 111397 -5.1028e+002 -4.5135e+000  9.4790e+000 25304 111443,111244,111348
 1.1000e+000 111374 -5.0989e+002 -1.5720e+002 -3.2169e+001 25304 111270,111322,111296
 1.1000e+000 111469 -4.9759e+002 -1.3263e+002  5.0415e+000 25304 111322,111270,111443
 1.1000e+000 111492 -5.3311e+002 -7.1214e+001 -3.0465e+000 25304 111322,111443,111348
 1.1000e+000 111691 -2.4612e+002 -8.1146e+001 -2.4929e+001 24736 111567,111619,111593
 1.1000e+000 111668 -2.4843e+002 -2.6172e+001 -5.3283e+001 24736 111541,111619,111567
 1.1000e+000 111645 -2.5693e+002  3.0038e+001 -1.9817e+001 24736 111515,111619,111541
 1.1000e+000 112024 -5.9530e+001 -1.2756e+001  1.2577e+001 24146 111825,111877,111851
 1.1000e+000 112001 -7.0400e+001  3.4953e+000 -2.6783e+000 24146 111825,111903,111877
 1.1000e+000 111978 -1.1262e+002 -6.4129e+001  1.5616e+001 24146 111825,111929,111903
 1.1000e+000 111955 -1.2548e+002 -1.3580e+002 -3.1465e+001 24146 111799,111929,111825
 1.1000e+000 112370 -3.1369e+002 -1.3817e+002  4.9154e+001 23856 112393,112151,112125
 1.1000e+000 112347 -2.8343e+002 -7.8922e+001  5.9694e+001 23856 112465,112393,112125
 1.1000e+000 112324 -2.8868e+002 -5.6317e+001  8.0236e+001 23856 112465,112125,112073
 1.1000e+000 112301 -3.9067e+002 -9.6088e+001  1.1214e+002 23856 112073,112125,112099
 1.1000e+000 112278 -3.3695e+002 -1.3491e+002  2.2551e+001 23856 112047,112229,112073
 1.1000e+000 112255 -3.0395e+002 -1.5250e+002 -9.6898e+000 23856 112151,112203,112177
 1.1000e+000 112419 -3.1459e+002 -1.1297e+002  1.8231e+001 23856 112203,112151,112393
 1.1000e+000 112442 -3.1860e+002 -1.2170e+002  1.5299e+001 23856 112203,112393,112229
 1.1000e+000 112491 -3.2141e+002 -1.1114e+002  1.4313e+001 23856 112229,112393,112465
 1.1000e+000 112514 -3.0838e+002 -5.6637e+001  3.5903e+001 23856 112229,112465,112073
 1.1000e+000 112784 -5.7276e+002  1.6133e+002 -8.3213e+001 23494 112611,112663,112637
 1.1000e+000 112761 -4.4574e+002 -5.3896e+001 -5.4710e+001 23494 112585,112663,112611
 1.1000e+000 112738 -5.4422e+002 -9.4805e+001  3.8970e+001 23494 112559,112663,112585
 1.1000e+000 112715 -4.7354e+002  1.7107e+002  8.1512e+001 23494 112559,112689,112663
 1.1000e+000 113117 -4.1459e+002 -2.9356e+001 -9.9127e+001 22974 112944,113022,112996
 1.1000e+000 113094 -3.3837e+002 -9.1170e+001 -7.5811e+001 22974 112918,113022,112944
 1.1000e+000 113071 -4.6200e+002 -1.7925e+002 -1.3331e+002 22974 112944,112996,112970
 1.1000e+000 113048 -3.0944e+002 -8.2004e+000 -8.4113e+001 22974 112892,113022,112918
 1.1000e+000 113414 -4.3481e+002 -1.2206e+002  3.8871e-001 22370 113192,113296,113218
 1.1000e+000 113391 -4.9091e+002 -1.9519e+002 -2.5386e+001 22370 113140,113296,113192
 1.1000e+000 113368 -4.4229e+002 -1.3309e+002  2.8292e+001 22370 113218,113296,113270
 1.1000e+000 113345 -3.9823e+002 -1.3265e+002  7.2409e+001 22370 113218,113270,113244
 1.1000e+000 113322 -4.0076e+002 -1.0361e+001 -5.9490e+001 22370 113140,113192,113166
 1.1000e+000 113662 -3.1113e+002 -4.8294e+001  3.1371e+001 21916 113685,113515,113489
 1.1000e+000 113639 -3.8058e+002 -1.0122e+002  5.7431e+000 21916 113685,113489,113437
 1.1000e+000 113616 -2.8693e+002 -9.7075e+001 -1.0039e+001 21916 113757,113567,113541
 1.1000e+000 113593 -3.6076e+002 -4.7829e+001 -1.3555e+001 21916 113437,113489,113463
 1.1000e+000 113711 -3.5301e+002 -1.2894e+002  1.3469e+001 21916 113541,113515,113685
 1.1000e+000 113734 -3.3095e+002 -1.2283e+002  7.1181e-001 21916 113757,113541,113685
 1.1000e+000 113783 -3.4809e+002 -9.1149e+001 -8.2646e+000 21916 113437,113567,113757
 1.1000e+000 113806 -3.5357e+002 -8.8872e+001 -9.1857e+000 21916 113437,113757,113685
 1.1000e+000 114056 -3.0512e+002 -1.0289e+002 -1.5027e+001 21412 113857,113909,113883
 1.1000e+000 114033 -2.9270e+002 -6.2505e+001 -1.4794e+001 21412 114079,113909,113857
 1.1000e+000 114010 -3.3436e+002 -8.2984e+001 -8.1448e+000 21412 114079,113857,113961
 1.1000e+000 113987 -3.0808e+002 -7.9660e+001 -6.7320e+000 21412 113831,113961,113857
 1.1000e+000 114105 -3.2731e+002 -4.3906e+001 -3.4852e+001 21412 113935,113909,114079
 1.1000e+000 114128 -3.5601e+002 -5.9280e+001 -2.8979e+001 21412 113935,114079,113961
 1.1000e+000 114378 -2.3558e+002 -5.6785e+001 -1.2947e+000 21022 114401,114257,114205
 1.1000e+000 114355 -2.6434e+002 -6.3991e+001 -4.4658e+001 21022 114401,114205,114179
 1.1000e+000 114332 -2.2625e+002 -1.4279e+001 -1.8913e+000 21022 114153,114283,114179
 1.1000e+000 114309 -2.5589e+002 -6.1943e+001 -3.7905e+000 21022 114205,114257,114231
 1.1000e+000 114427 -1.7616e+002 -4.2886e+001  1.9075e+001 21022 114283,114257,114401
 1.1000e+000 114450 -2.1927e+002 -5.4765e+001 -2.2776e+001 21022 114283,114401,114179
 1.1000e+000 114651 -2.0224e+002 -3.0526e+001 -1.6001e+001 20618 114501,114553,114527
 1.1000e+000 114628 -9.6729e+001  3.5824e+000  1.7979e+000 20618 114501,114579,114553
 1.1000e+000 114605 -2.1988e+002 -1.8610e+001 -2.2806e+001 20618 114475,114579,114501
 1.1000e+000 114901 -5.2467e+002 -6.3663e+001 -5.7279e+001 20114 114676,114780,114702
 1.1000e+000 114878 -4.0097e+002 -9.4850e+000 -6.7983e+001 20114 114676,114806,114780
 1.1000e+000 114855 -5.7209e+002 -2.9131e+001 -4.7210e+001 20114 114702,114780,114754
 1.1000e+000 114832 -1.3762e+003 -2.5811e+002 -7.9567e+001 20114 114702,114754,114728
 1.1000e+000 115053 -4.3183e+002 -7.5473e+001  1.3021e+000 19460 115147,115076,114926
 1.1000e+000 115030 -4.4386e+002 -5.5652e+001 -4.3084e+000 19460 115147,114926,115004
 1.1000e+000 115102 -4.4537e+002 -9.6321e+001  7.5583e+000 19460 114952,114926,115076
 1.1000e+000 115173 -4.3898e+002 -1.1023e+002 -1.4298e+000 19460 114978,115076,115147
 1.1000e+000 115196 -4.4669e+002 -8.4709e+001 -9.2256e+000 19460 114978,115147,115004
 1.1000e+000 115446 -6.0459e+002 -9.8949e+001  7.0202e+001 19006 115273,115351,115299
 1.1000e+000 115423 -5.3313e+002 -1.9917e+002  2.4636e+001 19006 115247,115351,115273
 1.1000e+000 115400 -5.5856e+002 -2.0994e+002  2.5679e+001 19006 115221,115351,115247
 1.1000e+000 115377 -3.5091e+002 -5.4090e+001 -1.3775e+002 19006 115299,115351,115325
 1.1000e+000 115767 -1.9562e+002 -9.8221e+000  2.0541e+001 18716 115571,115649,115623
 1.1000e+000 115744 -2.2501e+002 -6.1209e+001  8.2372e+000 18716 115493,115649,115571
 1.1000e+000 115721 -2.2718e+002 -1.6179e+001  1.2706e+001 18716 115493,115571,115545
 1.1000e+000 115698 -2.4324e+002 -3.3013e+001 -9.6576e+000 18716 115493,115545,115519
 1.1000e+000 115675 -7.0538e+001  3.0524e+001 -4.2379e+000 18716 115571,115623,115597
 1.1000e+000 116039 -3.6925e+002 -1.0590e+002  1.5626e+001 18312 115814,115892,115840
 1.1000e+000 116016 -3.6708e+002 -1.0678e+002  2.7197e+001 18312 115814,115944,115892
 1.1000e+000 115993 -3.9669e+002 -2.7436e+001  2.9969e+001 18312 115892,115944,115918
 1.1000e+000 115970 -1.8479e+002 -2.1040e+001 -5.7497e+000 18312 115840,115892,115866
 1.1000e+000 116191 -5.3234e+002 -1.7451e+002 -1.5915e+000 18000 116090,116142,116116
 1.1000e+000 116168 -4.9434e+002 -1.4841e+002  2.0237e+001 18000 116064,116142,116090
 1.1000e+000 116343 -2.7787e+002  8.6564e+000 -4.3235e+000 17396 116242,116294,116268
 1.1000e+000 116320 -3.3910e+002  8.2489e+000 -3.6442e+000 17396 116216,116294,116242
 1.1000e+000 116566 -4.0204e+002 -1.8793e+002  3.1715e+001 16942 116390,116468,116442
 1.1000e+000 116543 -6.4304e+002 -2.1605e+002  7.0073e+001 16942 116390,116494,116468
 1.1000e+000 116520 -4.3506e+002 -2.6532e+002  1.1868e+001 16942 116390,116442,116416
 1.1000e+000 116767 -2.1210e+002  1.2895e+001  1.0218e+001 16438 116790,116643,116617
 1.1000e+000 116744 -2.6962e+002 -2.9330e+001 -9.7135e+000 16438 116790,116617,116591
 1.1000e+000 116721 -1.4243e+002 -2.0252e+001 -2.5483e+001 16438 116643,116695,116669
 1.1000e+000 116816 -1.8494e+002 -1.7633e+001  2.4184e+001 16438 116695,116643,116790
 1.1000e+000 116839 -2.0340e+002 -2.4549e+001  1.3340e+001 16438 116695,116790,116591
 1.1000e+000 117062 -7.6302e+001 -3.9660e+000 -1.0250e+000 16074 116886,116938,116912
 1.1000e+000 117039 -8.6696e+001 -9.0156e+000  5.5867e-001 16074 116886,116990,116938
 1.1000e+000 117016 -8.5153e+001 -2.5020e+000  1.0748e+000 16074 116938,116990,116964
 1.1000e+000 117214 -5.9045e+002 -2.8710e+002 -3.8514e+001 15649 117087,117139,117113
 1.1000e+000 117191 -6.7811e+002 -3.4024e+002  3.1816e+000 15649 117087,117165,117139
 1.1000e+000 117317 -1.8844e+001 -5.7108e+001  1.0253e+001 421 117239,117291,117265
 1.2000e+000 70632  1.2283e+001 -4.1803e+000  1.0954e+001 70072 70482,70534,70508
 1.2000e+000 70609  2.2166e+000 -1.3287e+001  4.2709e+000 70072 70482,70560,70534
 1.2000e+000 70586 -1.7377e+002 -8.4838e+001 -1.7690e+000 70072 70456,70560,70482
 1.2000e+000 70951 -3.5502e+002 -1.9316e+002  0.0000e+000 69874 70703,70755,70729
 1.2000e+000 70928 -3.9062e+002 -2.0803e+002  2.8000e+000 69874 70703,70781,70755
 1.2000e+000 70905 -3.8797e+002 -1.7496e+002  4.2740e+000 69874 70703,70807,70781
 1.2000e+000 70882 -4.0845e+002 -2.2795e+002  1.6180e+001 69874 70703,70833,70807
 1.2000e+000 70859 -2.2274e+002 -1.4054e+002 -1.5940e+001 69874 70677,70833,70703
 1.2000e+000 71199 -1.6967e+002 -5.6623e+001  2.3767e+001 69698 71222,71052,71026
 1.2000e+000 71176 -1.6927e+002 -4.1666e+001  2.5682e+001 69698 71294,71222,71026
 1.2000e+000 71153 -1.6719e+002 -3.1857e+001  1.8471e+001 69698 71294,71026,71000
 1.2000e+000 71130 -2.0725e+002 -4.7224e+001 -2.1717e+000 69698 71366,71104,71078
 1.2000e+000 71248 -1.6166e+002 -4.6033e+001  1.9046e+001 69698 71078,71052,71222
 1.2000e+000 71271 -1.7977e+002 -5.8137e+001  1.1059e+001 69698 71366,71078,71222
 1.2000e+000 71320 -1.5762e+002 -3.1164e+001  1.5944e+001 69698 70974,71222,71294
 1.2000e+000 71343 -1.5602e+002 -2.7852e+001  9.0407e+000 69698 70974,71294,71000
 1.2000e+000 71392 -1.7761e+002 -1.5390e+001  1.0378e+001 69698 70974,71104,71366
 1.2000e+000 71415 -1.6261e+002 -3.4109e+001  1.8679e+001 69698 70974,71366,71222
 1.2000e+000 71516 -2.0490e+002 -1.8785e+001  1.6889e+001 69386 71438,71490,71464
 1.2000e+000 71869 -1.0232e+002  3.3159e+001 -1.5428e+001 69188 71644,71748,71670
 1.2000e+000 71846  2.2843e+000  1.5014e+001  3.9038e+001 69188 71644,71774,71748
 1.2000e+000 71823 -8.6584e+001 -2.3818e+001 -4.1688e+001 69188 71670,71748,71722
 1.2000e+000 71800 -1.6477e+001  5.5716e+000 -6.8033e+000 69188 71670,71722,71696
 1.2000e+000 72019 -5.3191e+002 -1.0118e+002  6.3517e+001 68990 71918,71970,71944
 1.2000e+000 71996 -6.7505e+002 -5.0853e+001  4.1951e+001 68990 71892,71970,71918
 1.2000e+000 72316 -2.5427e+002  8.8945e+000  1.5446e+001 68586 72339,72172,72146
 1.2000e+000 72293 -2.7829e+002 -3.6204e+001  2.4494e+001 68586 72339,72146,72120
 1.2000e+000 72270 -2.7931e+002 -5.1491e+001  6.6909e+001 68586 72411,72068,72198
 1.2000e+000 72247 -3.1600e+002 -2.4167e+001  8.2061e+001 68586 72042,72198,72068
 1.2000e+000 72224 -2.0218e+002  3.0444e+000 -4.1805e+001 68586 72068,72120,72094
 1.2000e+000 72365 -2.7666e+002  1.8807e+001  5.3262e+001 68586 72198,72172,72339
 1.2000e+000 72388 -2.9852e+002 -3.1731e+001  5.8579e+001 68586 72411,72198,72339
 1.2000e+000 72437 -2.5930e+002 -3.3118e+001  5.0088e+001 68586 72120,72068,72411
 1.2000e+000 72460 -2.7611e+002 -6.1003e+000  4.2498e+001 68586 72120,72411,72339
 1.2000e+000 72864 -6.9361e+001 -4.2822e+000 -1.6903e+001 68388 72642,72694,72668
 1.2000e+000 72841 -1.3273e+002 -5.6459e+001  2.8389e+001 68388 72616,72694,72642
 1.2000e+000 72818 -1.6892e+002 -5.0131e+001 -1.2174e+001 68388 72616,72720,72694
 1.2000e+000 72795 -2.4629e+002 -6.6204e+001  2.7325e+001 68388 72590,72720,72616
 1.2000e+000 72772 -3.2788e+002  1.2478e+001 -8.2309e+001 68388 72590,72746,72720
 1.2000e+000 73321 -1.7969e+002 -6.6390e+001 -1.0734e+001 68048 73073,73203,73177
 1.2000e+000 73298 -1.6970e+002 -5.2679e+001  1.1918e+000 68048 73047,73203,73073
 1.2000e+000 73275 -2.4129e+002 -4.0486e+001  3.9321e+000 68048 73125,73177,73151
 1.2000e+000 73252 -2.2205e+002 -3.9081e+001 -3.4853e+000 68048 73073,73177,73125
 1.2000e+000 73229 -2.0761e+002 -4.3020e+000  2.3158e+000 68048 73073,73125,73099
 1.2000e+000 73640 -3.3294e+002 -1.5658e+001 -1.1050e+001 67850 73444,73496,73470
 1.2000e+000 73617 -2.6207e+002 -7.0627e+001 -7.8512e+000 67850 73418,73496,73444
 1.2000e+000 73594 -2.5290e+002 -4.4335e+001 -7.4432e-001 67850 73392,73496,73418
 1.2000e+000 73571 -1.9821e+002 -2.8277e+001  1.9279e+001 67850 73392,73522,73496
 1.2000e+000 73548 -1.5552e+002 -6.3732e+000 -3.7733e+001 67850 73366,73522,73392
 1.2000e+000 73790 -3.0103e+002 -9.7312e+001 -4.3892e+000 67602 73689,73741,73715
 1.2000e+000 73767 -2.6617e+002 -1.7372e+001  1.1661e+000 67602 73663,73741,73689
 1.2000e+000 74040 -3.6400e+002 -7.9213e+001 -1.0810e+001 67290 73841,73945,73919
 1.2000e+000 74017 -2.2522e+002 -1.1145e+002 -5.2130e+001 67290 73815,73945,73841
 1.2000e+000 73994 -3.1845e+002 -6.4351e+001  2.4049e+001 67290 73841,73919,73867
 1.2000e+000 73971 -3.0160e+002 -2.8292e+001  3.0785e+001 67290 73867,73919,73893
 1.2000e+000 74143 -3.7692e+002 -1.5342e+002  2.3722e+001 67092 74065,74117,74091
 1.2000e+000 74415 -2.8075e+002 -1.1470e+002 -4.6890e+001 66894 74190,74294,74216
 1.2000e+000 74392 -2.3700e+002 -8.3772e+001  7.2176e+000 66894 74190,74320,74294
 1.2000e+000 74369 -2.5845e+002 -5.2974e+001 -4.5769e+001 66894 74216,74294,74242
 1.2000e+000 74346 -2.5847e+002 -2.8521e+001 -4.5539e+001 66894 74242,74294,74268
 1.2000e+000 75023 -1.7779e+002 -1.2049e+002  3.8281e+001 66532 74654,74836,74810
 1.2000e+000 75000 -1.2654e+002 -5.0748e+001  6.8385e+001 66532 74628,74836,74654
 1.2000e+000 74977 -1.4068e+002 -1.1701e+001 -6.4999e+000 66532 74706,74784,74732
 1.2000e+000 74954 -2.2597e+002 -8.9478e+000 -7.4023e+001 66532 74680,74784,74706
 1.2000e+000 74931 -3.7047e+002 -1.6734e+001 -7.9589e+001 66532 74680,74810,74784
 1.2000e+000 74908 -1.9086e+002 -2.9217e+001  8.3170e+001 66532 74654,74810,74680
 1.2000e+000 74885 -1.6683e+002 -9.5905e+001  4.6880e+001 66532 74602,74836,74628
 1.2000e+000 74862 -1.5054e+002 -1.3699e+001 -1.7800e+000 66532 74732,74784,74758
 1.2000e+000 75222 -3.1218e+002 -4.3692e+001  2.4541e+001 66242 75072,75150,75124
 1.2000e+000 75199 -2.9686e+002 -6.8616e+001  2.1562e+001 66242 75046,75150,75072
 1.2000e+000 75176 -3.5270e+002 -5.2015e+001 -2.6803e+000 66242 75072,75124,75098
 1.2000e+000 75470 -4.0044e+002  8.7201e+000  1.0023e+001 65838 75297,75375,75349
 1.2000e+000 75447 -4.2144e+002 -3.2312e+001  9.6361e-001 65838 75271,75375,75297
 1.2000e+000 75424 -2.8821e+002  1.1443e+002  7.8400e+001 65838 75297,75349,75323
 1.2000e+000 75401 -3.9658e+002 -9.3841e+000  3.4246e+001 65838 75245,75375,75271
 1.2000e+000 75671 -2.1212e+002 -7.5466e+001 -5.6774e+001 65640 75495,75573,75521
 1.2000e+000 75648 -1.9276e+002 -8.4765e+001 -2.6709e+001 65640 75495,75599,75573
 1.2000e+000 75625 -1.8933e+002 -2.7707e+001 -2.6275e+001 65640 75521,75573,75547
 1.2000e+000 75872 -2.2070e+002 -5.9872e+001 -4.6108e+000 65300 75895,75748,75722
 1.2000e+000 75849 -1.9146e+002 -5.4444e+001 -3.7728e+000 65300 75895,75722,75696
 1.2000e+000 75826 -2.2775e+002 -2.9818e+001 -1.1878e+001 65300 75967,75774,75748
 1.2000e+000 75921 -2.2514e+002 -3.7251e+001  7.0668e+000 65300 75967,75748,75895
 1.2000e+000 75944 -2.1358e+002 -4.0940e+001  2.6969e+001 65300 75800,75895,75696
 1.2000e+000 75993 -2.5920e+002 -4.0371e+001 -5.4595e+000 65300 75800,75774,75967
 1.2000e+000 76016 -2.5758e+002 -4.9416e+001  1.0133e+001 65300 75800,75967,75895
 1.2000e+000 76371 -2.3794e+002  7.1905e+000  5.2097e+000 64896 76146,76250,76172
 1.2000e+000 76348 -2.4518e+002 -1.2108e+001  4.4118e+000 64896 76146,76276,76250
 1.2000e+000 76325 -1.8810e+002  1.8277e+001 -1.4858e+001 64896 76172,76250,76198
 1.2000e+000 76302 -5.1240e+002 -1.2286e+002 -5.6366e+001 64896 76198,76250,76224
 1.2000e+000 76570 -4.3440e+002 -6.9223e+001  8.7448e+001 64442 76446,76498,76472
 1.2000e+000 76547 -3.6040e+002 -7.3039e+000 -1.1607e+000 64442 76420,76498,76446
 1.2000e+000 76524 -3.5326e+002 -3.5290e+001  1.3259e+001 64442 76394,76498,76420
 1.2000e+000 76999 -2.0644e+002 -9.2640e-001 -1.2109e+001 63924 77022,76728,76702
 1.2000e+000 76976 -2.4407e+002 -3.1309e+001  5.7970e+000 63924 77022,76702,76832
 1.2000e+000 76953 -2.2964e+002 -6.3426e+000 -7.8843e+001 63924 76728,76806,76754
 1.2000e+000 76930 -3.6236e+002 -7.5012e+001  7.4598e+000 63924 76676,76832,76702
 1.2000e+000 76907 -3.6453e+002  1.1905e+002 -7.6689e+001 63924 76754,76806,76780
 1.2000e+000 76884 -3.6896e+002  4.5747e+001 -6.5937e-001 63924 76676,76858,76832
 1.2000e+000 77048 -2.5913e+002  3.2034e+001 -1.1964e+001 63924 76806,76728,77022
 1.2000e+000 77071 -2.9199e+002  6.8955e+000  4.5802e+000 63924 76806,77022,76832
 1.2000e+000 77449 -1.7038e+002  4.1950e+001  1.3123e+001 63320 77472,77253,77201
 1.2000e+000 77426 -1.5379e+002 -1.2545e+000 -3.4824e+001 63320 77472,77201,77175
 1.2000e+000 77403 -2.4634e+002 -4.4505e+001 -1.9950e+001 63320 77175,77305,77279
 1.2000e+000 77380 -2.0722e+002 -4.0784e+001  8.2149e+001 63320 77201,77253,77227
 1.2000e+000 77357 -2.4565e+002 -3.2524e+001 -5.8979e+001 63320 77175,77331,77305
 1.2000e+000 77498 -2.1644e+002 -4.9240e+001  3.0170e+001 63320 77279,77253,77472
 1.2000e+000 77521 -1.7012e+002 -3.6349e+001 -3.0267e+001 63320 77279,77472,77175
 1.2000e+000 77769 -3.4446e+002 -1.5464e+002  6.1757e+000 62816 77570,77622,77596
 1.2000e+000 77746 -2.9497e+002 -1.3188e+002 -1.7384e+001 62816 77570,77648,77622
 1.2000e+000 77723 -3.4810e+002 -1.3483e+002 -7.6004e+001 62816 77570,77674,77648
 1.2000e+000 77700 -3.2523e+002 -8.8224e+001 -5.0836e+001 62816 77544,77674,77570
 1.2000e+000 78149 -1.4116e+002 -1.0252e+002 -2.6789e+001 62354 77953,78031,78005
 1.2000e+000 78126 -2.0422e+002 -7.6284e+001 -4.3857e+001 62354 77901,78031,77953
 1.2000e+000 78103 -1.1583e+002 -3.4744e+001 -8.5139e+000 62354 77875,78031,77901
 1.2000e+000 78080 -3.0410e+002 -4.5116e+001  4.4036e+001 62354 77901,77953,77927
 1.2000e+000 78057 -2.2031e+002 -1.8018e+002  1.4090e+001 62354 77953,78005,77979
 1.2000e+000 78606 -1.3451e+002 -4.7661e+001 -4.6365e+001 61950 78384,78436,78410
 1.2000e+000 78583 -1.3346e+002 -2.0090e+001 -7.5510e+000 61950 78358,78436,78384
 1.2000e+000 78560 -1.3212e+002 -4.3107e+001  4.5438e+000 61950 78358,78488,78436
 1.2000e+000 78537 -9.8177e+001 -1.6229e+001 -1.8438e+001 61950 78436,78488,78462
 1.2000e+000 78514 -1.6420e+002 -5.6635e+001 -7.4299e-001 61950 78332,78488,78358
 1.2000e+000 78756 -3.4871e+002 -9.6285e+001  4.7171e+001 61339 78779,78655,78629
 1.2000e+000 78733 -3.2441e+002 -5.0227e+001  3.5953e+001 61339 78779,78629,78707
 1.2000e+000 78805 -2.8110e+002 -3.2725e+001  7.4949e+000 61339 78851,78779,78681
 1.2000e+000 78828 -3.2634e+002 -7.1608e+001  2.8147e+001 61339 78681,78779,78707
 1.2000e+000 78877 -3.3854e+002 -1.7099e+002  2.1269e+001 61339 78655,78779,78851
 1.2000e+000 79206 -2.7353e+002 -8.4375e+001 -9.3580e+001 60892 79229,79007,78981
 1.2000e+000 79183 -2.9262e+002 -1.1166e+002 -7.2690e+001 60892 79229,78981,79111
 1.2000e+000 79160 -3.1706e+002 -1.0623e+002 -8.3521e+001 60892 79301,79033,79007
 1.2000e+000 79137 -4.4243e+002 -3.7295e+001  6.4477e+000 60892 79033,79085,79059
 1.2000e+000 79255 -3.1612e+002 -1.0152e+002 -8.6652e+001 60892 79301,79007,79229
 1.2000e+000 79278 -2.7426e+002 -9.9524e+001 -6.7117e+001 60892 79085,79229,79111
 1.2000e+000 79327 -3.4019e+002 -1.3783e+002 -4.8964e+001 60892 79085,79033,79301
 1.2000e+000 79350 -2.8737e+002 -1.0742e+002 -6.1278e+001 60892 79085,79301,79229
 1.2000e+000 79647 -4.1706e+002 -1.5097e+002 -6.2030e+001 60488 79451,79529,79503
 1.2000e+000 79624 -4.2528e+002 -1.3817e+002 -2.9856e+001 60488 79425,79529,79451
 1.2000e+000 79601 -3.0452e+002 -9.1973e+001 -7.6538e+000 60488 79373,79529,79425
 1.2000e+000 79578 -2.8781e+002 -9.2024e+001  6.4137e+000 60488 79373,79425,79399
 1.2000e+000 79555 -4.5233e+002  3.3337e+000 -4.0652e+001 60488 79451,79503,79477
 1.2000e+000 79870 -3.8414e+002 -1.9681e+002 -1.7825e+001 60026 79720,79798,79772
 1.2000e+000 79847 -5.5113e+002 -2.1604e+002 -2.0792e+001 60026 79694,79798,79720
 1.2000e+000 79824 -5.2461e+002 -2.4621e+002  7.5818e+000 60026 79720,79772,79746
 1.2000e+000 80120 -1.6001e+002 -1.5539e+001  2.5773e+001 59629 79921,80025,79973
 1.2000e+000 80097 -1.7028e+002 -4.5502e+001  1.0182e+001 59629 79895,80025,79921
 1.2000e+000 80074 -1.4063e+002  2.0170e+000 -1.8123e+001 59629 79973,80025,79999
 1.2000e+000 80051 -8.9612e+001  1.6238e+000  1.2340e+001 59629 79921,79973,79947
 1.2000e+000 80321 -1.8655e+002 -3.0778e+001 -3.5504e+000 59125 80344,80171,80145
 1.2000e+000 80298 -2.1674e+002 -5.7858e+001  1.1065e+001 59125 80344,80145,80249
 1.2000e+000 80275 -2.5275e+002 -6.9822e+001  4.2941e+001 59125 80197,80249,80223
 1.2000e+000 80370 -2.2480e+002 -1.4308e+001  2.0202e+001 59125 80197,80171,80344
 1.2000e+000 80393 -2.5216e+002 -3.7455e+001  3.3816e+001 59125 80197,80344,80249
 1.2000e+000 80952 -1.3179e+002 -3.9638e+001  6.7218e+000 58557 80975,80632,80606
 1.2000e+000 80929 -1.8894e+002 -4.1039e+001  1.5558e+001 58557 81119,80975,80606
 1.2000e+000 80906 -1.7875e+002 -4.5529e+001 -1.7062e+001 58557 81047,80684,80632
 1.2000e+000 80883 -2.1078e+002 -5.2720e+001 -2.9222e-003 58557 81119,80606,80580
 1.2000e+000 80860 -2.0926e+002  3.1918e+001 -1.6122e+001 58557 81191,80736,80710
 1.2000e+000 80837 -2.0996e+002 -7.7101e+000 -3.7453e+001 58557 80736,80788,80762
 1.2000e+000 80814 -1.5841e+002 -6.0310e+001 -2.6955e+001 58557 80632,80684,80658
 1.2000e+000 81001 -1.7572e+002 -6.2417e+001 -6.1819e+000 58557 81047,80632,80975
 1.2000e+000 81024 -2.0074e+002 -1.3523e+001 -1.1984e+000 58557 81191,80710,80975
 1.2000e+000 81073 -1.7632e+002 -3.8675e+000 -3.0306e+001 58557 80710,80684,81047
 1.2000e+000 81096 -1.8877e+002 -3.1757e+001 -1.4517e+001 58557 80710,81047,80975
 1.2000e+000 81145 -2.0327e+002 -6.6792e+001  1.8557e+000 58557 80788,80975,81119
 1.2000e+000 81168 -2.0542e+002 -6.7164e+001 -1.0945e+001 58557 80788,81119,80580
 1.2000e+000 81217 -2.2937e+002 -8.1423e+000  5.0946e-001 58557 80788,80736,81191
 1.2000e+000 81240 -2.1412e+002 -3.7198e+001  1.7199e+001 58557 80788,81191,80975
 1.2000e+000 81537 -3.5930e+002 -7.7998e+001 -2.5013e+001 57881 81560,81341,81289
 1.2000e+000 81514 -3.0304e+002 -5.2326e+001 -8.2086e+001 57881 81560,81289,81263
 1.2000e+000 81491 -4.1386e+002 -8.4211e+001 -1.9822e+001 57881 81632,81419,81367
 1.2000e+000 81468 -3.8658e+002 -1.7259e+001 -9.4035e+000 57881 81367,81419,81393
 1.2000e+000 81445 -4.4139e+002 -8.6651e+001 -2.4832e+000 57881 81289,81341,81315
 1.2000e+000 81586 -3.6714e+002 -1.1484e+002 -1.5000e+001 57881 81367,81341,81560
 1.2000e+000 81609 -4.0095e+002 -7.7327e+001 -2.7904e+001 57881 81632,81367,81560
 1.2000e+000 81658 -3.7743e+002 -1.7474e+002 -4.6465e+000 57881 81263,81419,81632
 1.2000e+000 81681 -3.2969e+002 -1.2287e+002 -2.8697e+001 57881 81263,81632,81560
 1.2000e+000 81929 -2.4216e+002 -1.2558e+002  4.5324e+001 57477 81704,81808,81782
 1.2000e+000 81906 -1.8776e+002 -7.3696e+001  2.2911e+001 57477 81704,81834,81808
 1.2000e+000 81883 -2.2050e+002 -2.5831e+001  6.2176e+001 57477 81704,81782,81730
 1.2000e+000 81860 -2.3753e+002 -6.0418e+001  7.5144e+001 57477 81730,81782,81756
 1.2000e+000 82488 -1.9342e+002 -8.1910e+001  7.8318e+000 56966 82583,82511,82194
 1.2000e+000 82465 -1.7622e+002 -3.7500e+001 -7.9642e+000 56966 82511,82116,82324
 1.2000e+000 82442 -1.9949e+002 -1.0762e+002  1.5988e+001 56966 82583,82194,82168
 1.2000e+000 82419 -2.8018e+002 -1.0129e+002  1.8457e+001 56966 82194,82246,82220
 1.2000e+000 82396 -1.9051e+002 -5.6815e+001  3.5985e+001 56966 82194,82298,82246
 1.2000e+000 82373 -2.2917e+002 -4.9970e+001  7.5598e+001 56966 82246,82298,82272
 1.2000e+000 82350 -1.7450e+002 -3.1557e+001 -4.5883e+000 56966 82116,82168,82142
 1.2000e+000 82537 -2.0296e+002 -6.3872e+001  2.6941e+001 56966 82298,82194,82511
 1.2000e+000 82560 -1.5473e+002 -4.6890e+001  3.2072e+001 56966 82298,82511,82324
 1.2000e+000 82609 -2.0274e+002 -5.1651e+001  3.7204e+000 56966 82116,82511,82583
 1.2000e+000 82632 -2.0116e+002 -7.0429e+001  8.6617e+000 56966 82116,82583,82168
 1.2000e+000 83236 -2.8665e+002 -1.2858e+002 -5.0852e+001 56304 82893,82945,82919
 1.2000e+000 83213 -3.1134e+002 -1.3196e+002 -6.0235e+001 56304 83259,82945,82893
 1.2000e+000 83190 -2.7871e+002 -6.8891e+001 -2.9318e+001 56304 83259,82893,83049
 1.2000e+000 83167 -1.9650e+002 -4.3041e+001  9.6685e+000 56304 82971,83049,83023
 1.2000e+000 83144 -2.5698e+002 -3.3738e+001 -1.6427e+001 56304 82815,83049,82893
 1.2000e+000 83121 -2.4684e+002 -1.9636e+001 -2.1184e+001 56304 82815,82893,82867
 1.2000e+000 83098 -1.3745e+002 -5.5061e+001 -2.5052e+001 56304 82971,83023,82997
 1.2000e+000 83075 -1.6534e+002 -2.9795e+001  5.2551e+001 56304 82815,82867,82841
 1.2000e+000 83285 -3.1625e+002 -4.1252e+001 -3.8048e+001 56304 82971,82945,83259
 1.2000e+000 83308 -3.0563e+002 -2.2966e+001 -3.8314e+000 56304 82971,83259,83049
 1.2000e+000 83556 -3.4530e+002 -1.2275e+002 -2.0496e+001 55964 83357,83461,83435
 1.2000e+000 83533 -2.9425e+002 -2.4371e+001  2.3047e+001 55964 83331,83461,83357
 1.2000e+000 83510 -1.4199e+002 -7.5033e+001 -2.7695e+000 55964 83357,83435,83383
 1.2000e+000 83487 -2.9803e+002 -1.2859e+002 -2.6510e+001 55964 83383,83435,83409
 1.2000e+000 83706 -3.4021e+002 -1.9219e+002 -1.4278e+001 55503 83579,83631,83605
 1.2000e+000 83683 -4.4516e+002 -1.8113e+002 -1.0418e+000 55503 83579,83657,83631
 1.2000e+000 83907 -2.7586e+002 -1.3177e+002 -6.0387e+001 55156 83757,83835,83809
 1.2000e+000 83884 -2.3801e+002 -1.5926e+001 -2.1480e+001 55156 83731,83835,83757
 1.2000e+000 83861 -3.4739e+002 -4.2450e+001 -5.1209e+001 55156 83757,83809,83783
 1.2000e+000 84240 -1.5944e+002 -3.1649e+001  2.0892e+001 54652 84093,84145,84119
 1.2000e+000 84217 -2.8459e+002 -1.3824e+001  7.7515e+001 54652 84041,84145,84093
 1.2000e+000 84194 -3.1677e+002 -4.2056e+001  5.0560e+001 54652 84015,84145,84041
 1.2000e+000 84171 -5.1344e+002 -1.1192e+002  7.0750e+001 54652 84041,84093,84067
 1.2000e+000 84618 -1.8164e+002 -1.0417e+002  3.1060e+001 53926 84396,84500,84474
 1.2000e+000 84595 -1.3718e+002 -1.2590e+002  5.5230e+001 53926 84344,84500,84396
 1.2000e+000 84572 -1.3028e+002 -1.0812e+002  5.6181e+001 53926 84344,84396,84370
 1.2000e+000 84549 -1.4153e+002 -7.1506e+001 -1.3284e+001 53926 84396,84474,84422
 1.2000e+000 84526 -2.5073e+002 -1.0186e+002 -4.6075e+001 53926 84422,84474,84448
 1.2000e+000 85350 -3.8374e+002 -1.2863e+002 -1.1621e+002 53586 85373,84880,85088
 1.2000e+000 85327 -1.6400e+002 -1.1598e+002 -1.1781e+002 53586 84880,85114,85088
 1.2000e+000 85304 -1.3473e+002 -1.8953e+001 -9.9108e+001 53586 85373,85088,85062
 1.2000e+000 85281 -3.3829e+002 -2.8531e+002  1.1476e+002 53586 85010,85062,85036
 1.2000e+000 85258 -3.8819e+002 -7.8141e+001 -9.8544e+000 53586 85445,85010,84958
 1.2000e+000 85235 -1.6406e+002  1.0853e+001 -1.8917e+001 53586 85445,84958,84906
 1.2000e+000 85212 -2.9210e+002 -1.0048e+002 -4.2307e+001 53586 84958,85010,84984
 1.2000e+000 85189 -2.9184e+002 -7.4058e+001 -8.4933e+001 53586 84906,84958,84932
 1.2000e+000 85166 -2.1766e+002 -2.0982e+002 -6.6854e+001 53586 84880,85140,85114
 1.2000e+000 85399 -4.6619e+002 -9.9540e+001  1.3724e+002 53586 84906,84880,85373
 1.2000e+000 85422 -2.6961e+002 -8.2641e-001  9.9359e+001 53586 85517,85373,85062
 1.2000e+000 85471 -3.7610e+002 -6.3852e+001  1.1775e+002 53586 85062,85010,85445
 1.2000e+000 85494 -2.5390e+002 -1.5963e+000  9.4765e+001 53586 85517,85062,85445
 1.2000e+000 85543 -2.4422e+002 -3.3380e+000  1.0584e+002 53586 84906,85373,85517
 1.2000e+000 85566 -2.3461e+002 -9.0957e+000  1.0223e+002 53586 84906,85517,85445
 1.2000e+000 86072 -1.9965e+002 -8.7789e+001 -2.5739e+001 53182 86095,85853,85775
 1.2000e+000 86049 -2.1031e+002 -8.4212e+001 -2.1408e+001 53182 86095,85775,85931
 1.2000e+000 86026 -2.3378e+002 -1.0546e+002 -3.1787e+001 53182 86167,85879,85853
 1.2000e+000 86003 -3.7370e+002 -1.2577e+002  1.5257e+001 53182 85775,85827,85801
 1.2000e+000 85980 -2.1958e+002 -1.3439e+002 -2.7621e+001 53182 85775,85853,85827
 1.2000e+000 85957 -1.4454e+002 -6.8729e+001  1.9270e+001 53182 85749,85931,85775
 1.2000e+000 86121 -2.1771e+002 -9.9351e+001 -3.0777e+001 53182 86167,85853,86095
 1.2000e+000 86144 -1.9853e+002 -8.7247e+001 -1.9106e+001 53182 85905,86095,85931
 1.2000e+000 86193 -2.2835e+002 -1.0546e+002 -1.7225e+001 53182 85905,85879,86167
 1.2000e+000 86216 -2.1316e+002 -9.7810e+001 -1.4482e+001 53182 85905,86167,86095
 1.2000e+000 86673 -2.4440e+002 -1.1102e+001  4.2483e+001 52778 86477,86529,86503
 1.2000e+000 86650 -2.4534e+002 -8.4554e+001  1.1771e+001 52778 86425,86529,86477
 1.2000e+000 86627 -2.0551e+002 -1.0751e+002  4.1822e+001 52778 86425,86477,86451
 1.2000e+000 86604 -1.6208e+002 -2.0322e+001  4.2008e+001 52778 86399,86529,86425
 1.2000e+000 86581 -1.1442e+002  1.1847e+001  1.5578e+001 52778 86399,86555,86529
 1.2000e+000 87258 -2.1927e+002 -3.7506e+001  2.3378e+001 52238 87281,86987,86961
 1.2000e+000 87235 -2.2575e+002 -5.4592e+001  7.9736e+000 52238 87281,86961,87117
 1.2000e+000 87212 -2.2552e+002 -2.5847e+000  5.5229e+000 52238 86935,87117,86961
 1.2000e+000 87189 -2.5672e+002  2.4516e-001 -4.2318e-001 52238 87065,87117,87091
 1.2000e+000 87166 -2.4932e+002 -9.5303e+001  8.2376e+000 52238 86987,87065,87039
 1.2000e+000 87143 -2.8029e+002 -1.8024e+002  7.5897e+001 52238 86987,87039,87013
 1.2000e+000 87307 -2.3089e+002 -6.6306e+001  1.8506e+001 52238 87065,86987,87281
 1.2000e+000 87330 -2.2918e+002 -6.5144e+001  2.8197e+000 52238 87065,87281,87117
 1.2000e+000 87610 -2.5583e+002 -2.2511e+001  1.6544e+001 51834 87434,87512,87460
 1.2000e+000 87587 -2.2526e+002  1.9435e+001  8.0946e+001 51834 87434,87538,87512
 1.2000e+000 87564 -3.8883e+002 -1.3080e+002 -3.9893e+001 51834 87633,87460,87512
 1.2000e+000 87659 -4.9443e+002 -1.7612e+002 -4.4810e+001 51834 87486,87460,87633
 1.2000e+000 88187 -3.7962e+002 -1.2155e+002 -9.2205e+000 51266 87864,87942,87890
 1.2000e+000 88164 -3.4587e+002 -1.7189e+001  7.4076e-001 51266 87864,88020,87942
 1.2000e+000 88141 -5.9207e+002 -1.7624e+002 -1.0667e+002 51266 87942,88020,87968
 1.2000e+000 88118 -4.7635e+002 -1.6399e+002  7.2663e+001 51266 87864,88046,88020
 1.2000e+000 88095 -3.6076e+002 -3.2250e+001 -1.4177e+001 51266 87968,88020,87994
 1.2000e+000 88072 -3.4613e+002 -1.5333e+002 -4.0114e+001 51266 87890,87942,87916
 1.2000e+000 88644 -3.3533e+002 -1.4890e+002 -2.6163e+001 50754 88370,88500,88396
 1.2000e+000 88621 -3.3902e+002 -5.8248e+001 -4.7109e+001 50754 88370,88526,88500
 1.2000e+000 88598 -2.4016e+002 -5.8672e+001  4.4976e+001 50754 88396,88500,88422
 1.2000e+000 88575 -2.4352e+002 -6.2420e+001  4.2387e+001 50754 88422,88500,88474
 1.2000e+000 88552 -4.1878e+002 -1.7492e+002 -3.8352e+001 50754 88422,88474,88448
 1.2000e+000 88914 -3.6375e+002 -8.5525e+001 -7.9807e+000 50442 88715,88793,88741
 1.2000e+000 88891 -3.2450e+002 -1.0252e+002 -1.3307e+001 50442 88715,88819,88793
 1.2000e+000 88868 -4.1630e+002 -1.6376e+002 -4.0095e+001 50442 88689,88819,88715
 1.2000e+000 88845 -3.4152e+002 -1.2051e+002 -1.0272e+002 50442 88741,88793,88767
 1.2000e+000 89294 -4.4411e+002 -1.2490e+002 -1.4606e+001 49938 89317,89046,89020
 1.2000e+000 89271 -4.2073e+002 -1.4375e+002 -2.7653e+001 49938 89317,89020,89150
 1.2000e+000 89248 -3.3691e+002 -1.4502e+002  3.9193e+000 49938 89072,89150,89098
 1.2000e+000 89225 -4.3946e+002 -1.1203e+002 -7.4099e+001 49938 89020,89176,89150
 1.2000e+000 89202 -2.6820e+002 -1.0553e+002 -4.2499e+001 49938 89098,89150,89124
 1.2000e+000 89343 -3.5237e+002  1.3222e+001  2.5123e+001 49938 89072,89046,89317
 1.2000e+000 89366 -4.2528e+002 -1.3079e+002 -1.8882e+001 49938 89072,89317,89150
 1.2000e+000 89823 -2.8333e+002 -1.1381e+002 -9.5730e+000 49384 89601,89705,89679
 1.2000e+000 89800 -2.2838e+002 -7.1786e+001  4.4781e+001 49384 89549,89705,89601
 1.2000e+000 89777 -1.5655e+002 -4.2941e+001  2.0961e+001 49384 89549,89601,89575
 1.2000e+000 89754 -1.8157e+002 -8.9890e+001  4.6614e+000 49384 89601,89679,89627
 1.2000e+000 89731 -1.2504e+002 -7.9358e+000 -4.3816e+001 49384 89627,89679,89653
 1.2000e+000 90329 -1.6460e+002 -5.4961e+001 -1.1931e+001 48894 90058,90110,90084
 1.2000e+000 90306 -2.0427e+002 -6.5693e+001  7.0572e+001 48894 90058,90162,90110
 1.2000e+000 90283 -2.9722e+002 -5.4382e+001  4.0271e+001 48894 90032,90162,90058
 1.2000e+000 90260 -1.8226e+002  1.0884e+001 -2.1462e+001 48894 90006,90162,90032
 1.2000e+000 90237 -8.1185e+001 -2.2850e+001  5.9711e+000 48894 90110,90162,90136
 1.2000e+000 90214 -2.1576e+002 -5.7999e+000 -1.5591e+001 48894 90006,90188,90162
 1.2000e+000 90884 -3.4232e+002 -1.2215e+002  4.4570e+001 48490 90564,90642,90616
 1.2000e+000 90861 -3.2688e+002 -1.1882e+001 -1.6313e+001 48490 90564,90694,90642
 1.2000e+000 90838 -4.5157e+002 -4.9401e+001 -5.1445e+000 48490 90538,90694,90564
 1.2000e+000 90815 -5.3759e+002 -1.2698e+002  3.0903e+001 48490 90538,90720,90694
 1.2000e+000 90792 -3.1421e+002 -5.6304e+001  4.1688e+001 48490 90564,90616,90590
 1.2000e+000 90769 -3.4832e+002 -7.0317e+001 -2.5058e+001 48490 90642,90694,90668
 1.2000e+000 90746 -4.4889e+002 -1.0072e+002  1.6812e+001 48490 90512,90720,90538
 1.2000e+000 91034 -2.8074e+002 -3.7001e+001 -4.4048e+001 48086 91057,90959,90933
 1.2000e+000 91011 -2.8403e+002 -3.2752e+001 -5.0933e+001 48086 91129,91057,90933
 1.2000e+000 91083 -2.9851e+002 -1.3445e+001 -6.3869e+001 48086 90985,90959,91057
 1.2000e+000 91106 -2.6295e+002 -1.1391e+001 -4.7230e+001 48086 90985,91057,90907
 1.2000e+000 91155 -1.7797e+002 -9.8102e-001 -5.6376e+001 48086 90907,91057,91129
 1.2000e+000 91791 -3.0966e+002 -5.9647e+001 -2.7977e+001 47518 92030,91814,91523
 1.2000e+000 91768 -2.3554e+002 -3.4280e+001 -2.5016e+001 47518 91958,91814,91471
 1.2000e+000 91745 -2.2549e+002  1.1201e+002 -1.0844e+001 47518 91886,91575,91523
 1.2000e+000 91722 -2.4285e+002 -7.3988e+001 -9.3221e-001 47518 91958,91471,91419
 1.2000e+000 91699 -3.8502e+002  2.5147e+001 -7.5444e+001 47518 92030,91523,91497
 1.2000e+000 91676 -3.7365e+002  1.3758e+002 -3.9898e+001 47518 91523,91575,91549
 1.2000e+000 91653 -1.9142e+002 -6.7524e+001 -1.9928e+001 47518 91419,91471,91445
 1.2000e+000 91840 -2.6009e+002  4.1198e+001 -4.9008e+001 47518 91886,91523,91814
 1.2000e+000 91863 -3.0487e+002 -1.1486e+002  1.6218e+001 47518 91601,91814,91627
 1.2000e+000 91912 -1.8173e+002  1.4344e+002  8.6481e+001 47518 91601,91575,91886
 1.2000e+000 91935 -2.2436e+002 -7.7654e+000  5.3605e+001 47518 91601,91886,91814
 1.2000e+000 91984 -2.6324e+002 -6.8026e+001 -8.7937e+000 47518 91627,91814,91958
 1.2000e+000 92007 -2.5235e+002 -8.9673e+001  1.1941e+001 47518 91627,91958,91419
 1.2000e+000 92056 -3.5203e+002 -1.4486e+002 -8.3833e+001 47518 91471,91814,92030
 1.2000e+000 92079 -4.2191e+002 -9.4828e+001 -1.3767e+002 47518 91471,92030,91497
 1.2000e+000 92229 -2.1659e+002 -9.2897e+001 -5.0012e+001 47128 92252,92128,92102
 1.2000e+000 92206 -2.7042e+002 -1.3788e+002 -1.4495e+001 47128 92324,92252,92102
 1.2000e+000 92278 -2.6875e+002 -2.0412e+002 -4.6347e+001 47128 92454,92252,92154
 1.2000e+000 92301 -2.5424e+002 -9.0334e+001 -2.9057e+001 47128 92154,92252,92180
 1.2000e+000 92350 -2.2516e+002 -7.3328e+001  6.8845e+000 47128 92180,92252,92324
 1.2000e+000 92480 -2.4464e+002 -9.5311e+001 -2.3057e+001 47128 92128,92252,92454
 1.2000e+000 93340 -3.4290e+002 -1.8352e+001  4.2876e+001 46838 93363,92977,92873
 1.2000e+000 93317 -4.5739e+002 -5.9364e+001  7.5886e+000 46838 93507,93363,92873
 1.2000e+000 93294 -3.8689e+002 -1.1382e+002 -9.6540e+000 46838 93435,93003,92977
 1.2000e+000 93271 -5.0821e+002 -1.0619e+002 -1.3899e+001 46838 93507,92873,92847
 1.2000e+000 93248 -3.8444e+002 -9.4794e+001 -2.2205e+001 46838 93579,93029,93003
 1.2000e+000 93225 -2.7026e+002 -5.8125e+001 -7.4480e+000 46838 92873,92951,92925
 1.2000e+000 93202 -2.6253e+002 -6.7414e+001  5.7571e+000 46838 92873,92977,92951
 1.2000e+000 93179 -5.1340e+002 -1.4472e+002  4.5485e+001 46838 93055,93107,93081
 1.2000e+000 93156 -7.3649e+002 -2.7325e+002 -2.8028e+001 46838 92821,93107,92847
 1.2000e+000 93133 -2.5746e+002 -9.9551e+001  1.8337e+001 46838 92873,92925,92899
 1.2000e+000 93389 -4.1257e+002 -9.9807e+001 -2.2933e+000 46838 93435,92977,93363
 1.2000e+000 93412 -3.8039e+002 -5.4059e+001 -2.8108e+000 46838 93055,93363,93107
 1.2000e+000 93461 -3.7667e+002 -9.4652e+001 -1.3618e+001 46838 93579,93003,93435
 1.2000e+000 93484 -3.9437e+002 -6.1249e+001 -1.1387e+001 46838 93055,93435,93363
 1.2000e+000 93533 -4.0836e+002 -1.3231e+002  1.5326e+000 46838 93107,93363,93507
 1.2000e+000 93556 -4.1625e+002 -1.4751e+002 -3.1581e+000 46838 93107,93507,92847
 1.2000e+000 93605 -4.0404e+002 -1.0078e+002 -2.7678e+001 46838 93055,93029,93579
 1.2000e+000 93628 -3.9541e+002 -1.0085e+002 -1.9443e+001 46838 93055,93579,93435
 1.2000e+000 93979 -2.9532e+002  6.9944e+001  3.5997e+001 46476 93780,93884,93858
 1.2000e+000 93956 -3.4924e+002 -1.5945e+001  1.3011e+001 46476 93754,93884,93780
 1.2000e+000 93933 -6.7986e+002 -2.6550e+001  2.6207e+000 46476 93806,93858,93832
 1.2000e+000 93910 -6.6703e+002 -8.4283e+001  4.4537e+001 46476 93780,93858,93806
 1.2000e+000 94515 -2.9182e+002 -9.6357e+001  3.5333e+001 46072 94345,94397,94371
 1.2000e+000 94492 -1.7337e+002 -4.4597e+001  2.7636e+001 46072 94267,94397,94345
 1.2000e+000 94469 -1.6404e+002 -1.2685e+000  2.6886e+001 46072 94241,94397,94267
 1.2000e+000 94446 -8.3958e+001 -5.1727e+000 -3.5768e+001 46072 94293,94345,94319
 1.2000e+000 94423 -1.7265e+002  1.2880e+001  2.8501e+001 46072 94267,94345,94293
 1.2000e+000 95149 -2.0533e+002 -4.5907e+001 -2.0745e+001 45346 94803,94881,94855
 1.2000e+000 95126 -2.1262e+002 -4.3694e+001 -2.2369e+001 45346 94803,94959,94881
 1.2000e+000 95103 -1.3651e+002 -2.0365e+001 -1.8483e+001 45346 95172,94933,94907
 1.2000e+000 95080 -1.7362e+002 -2.4895e+001 -2.0529e+000 45346 95172,94907,94881
 1.2000e+000 95057 -1.8227e+002 -1.0677e+002 -5.5770e+001 45346 94803,94985,94959
 1.2000e+000 95034 -2.0719e+002 -2.3672e+001 -1.6035e+001 45346 94803,94855,94829
 1.2000e+000 95011 -2.2140e+002 -2.4191e+002 -1.9282e+002 45346 94777,94985,94803
 1.2000e+000 95198 -1.7131e+002 -1.3920e+001 -2.0670e+001 45346 94959,94933,95172
 1.2000e+000 95221 -1.9880e+002 -7.9168e+000 -1.2048e+001 45346 94959,95172,94881
 1.2000e+000 95776 -1.4293e+002 -2.1613e+001  7.5189e+001 44720 95799,95560,95534
 1.2000e+000 95753 -1.9588e+002 -4.7806e+001  9.1553e+001 44720 95799,95534,95482
 1.2000e+000 95730 -2.4780e+002 -2.8015e+001  8.9724e+001 44720 95943,95871,95430
 1.2000e+000 95707 -2.6238e+002 -2.0501e+000  9.2525e+001 44720 95943,95430,95404
 1.2000e+000 95684 -4.1449e+002 -1.0051e+002  1.0454e+002 44720 95430,95482,95456
 1.2000e+000 95661 -8.7362e+001 -2.2851e+001  5.1085e+001 44720 95482,95534,95508
 1.2000e+000 95638 -2.2705e+002  4.1013e+000  1.0383e+002 44720 95404,95612,95586
 1.2000e+000 95825 -1.9622e+002  3.2949e+000  8.1904e+001 44720 95586,95560,95799
 1.2000e+000 95848 -2.0560e+002 -1.2434e+001  8.6759e+001 44720 95871,95586,95799
 1.2000e+000 95897 -2.3290e+002 -3.3860e+001  7.1375e+001 44720 95482,95430,95871
 1.2000e+000 95920 -2.2653e+002 -1.5607e+001  7.4271e+001 44720 95482,95871,95799
 1.2000e+000 95969 -2.1884e+002  5.5536e-001  7.6969e+001 44720 95586,95871,95943
 1.2000e+000 95992 -2.4671e+002  1.1684e+001  8.4329e+001 44720 95586,95943,95404
 1.2000e+000 96449 -2.2257e+002 -3.4204e+001  1.7660e+001 44202 96544,96472,96227
 1.2000e+000 96426 -2.6343e+002 -1.4887e+002  4.8351e+001 44202 96472,96175,96331
 1.2000e+000 96403 -2.9099e+002  1.8517e+001  5.9207e+000 44202 96544,96227,96201
 1.2000e+000 96380 -5.3715e+001 -1.1581e+001 -3.5468e+001 44202 96253,96305,96279
 1.2000e+000 96357 -1.5953e+002 -3.3329e+000  2.6181e+001 44202 96227,96305,96253
 1.2000e+000 96498 -2.2305e+002 -8.4895e+001 -2.2350e+000 44202 96305,96227,96472
 1.2000e+000 96521 -2.3498e+002 -7.2212e+001  3.1128e+001 44202 96305,96472,96331
 1.2000e+000 96570 -2.7872e+002 -1.2861e+002 -1.1043e+001 44202 96175,96472,96544
 1.2000e+000 96593 -3.1608e+002 -3.6799e+001 -1.3437e+001 44202 96175,96544,96201
 1.2000e+000 96971 -3.3004e+002 -1.9206e+002  2.5625e+001 43754 96994,96749,96697
 1.2000e+000 96948 -3.4350e+002 -1.9897e+002  2.8256e+001 43754 96994,96697,96853
 1.2000e+000 96925 -3.0874e+002 -2.0266e+002  1.3021e+001 43754 96697,96749,96723
 1.2000e+000 96902 -3.0510e+002 -1.0861e+002 -1.1691e+001 43754 96775,96853,96827
 1.2000e+000 96879 -2.1640e+002 -1.1015e+002 -1.2559e+000 43754 96775,96827,96801
 1.2000e+000 97020 -3.3181e+002 -1.7606e+002  8.2105e+000 43754 96775,96749,96994
 1.2000e+000 97043 -3.5536e+002 -1.8927e+002  1.4036e+001 43754 96775,96994,96853
 1.2000e+000 97291 -2.3807e+002 -3.1443e+001 -2.9438e+001 43364 97314,97144,97118
 1.2000e+000 97268 -2.6816e+002 -6.6082e+001 -4.4692e+001 43364 97314,97118,97092
 1.2000e+000 97245 -2.0931e+002 -7.0659e+001 -1.7667e+001 43364 97386,97196,97170
 1.2000e+000 97222 -2.3677e+002 -1.1049e+002 -4.4175e+001 43364 97066,97196,97092
 1.2000e+000 97340 -2.5293e+002 -7.1453e+001 -2.1942e+001 43364 97170,97144,97314
 1.2000e+000 97363 -2.1961e+002 -5.9444e+001 -2.7528e+001 43364 97386,97170,97314
 1.2000e+000 97412 -2.1590e+002 -8.2840e+001 -3.2261e+001 43364 97092,97196,97386
 1.2000e+000 97435 -2.3602e+002 -8.4239e+001 -4.3876e+001 43364 97092,97386,97314
 1.2000e+000 97788 -2.3004e+002  7.9341e-001 -1.8697e+001 42960 97563,97667,97589
 1.2000e+000 97765 -3.8591e+002 -1.4874e+002  4.2699e+001 42960 97563,97693,97667
 1.2000e+000 97742 -5.3619e+002  1.3429e+001 -7.6383e+000 42960 97589,97641,97615
 1.2000e+000 97719 -5.1043e+002 -7.2350e+001 -2.6941e+001 42960 97589,97667,97641
 1.2000e+000 98215 -2.1555e+002 -6.5460e+001 -9.9879e+001 42563 97918,98074,98048
 1.2000e+000 98192 -1.1560e+002  1.4087e+001 -5.7349e+001 42563 97892,98074,97918
 1.2000e+000 98169 -2.3683e+002 -2.1394e+001 -1.1101e+002 42563 98238,97944,97918
 1.2000e+000 98146 -2.7753e+002 -1.1533e+002 -7.8253e+001 42563 98238,97918,98048
 1.2000e+000 98123 -2.6691e+002 -5.7198e+001 -6.6609e+001 42563 97944,98022,97996
 1.2000e+000 98100 -2.5414e+002 -6.0914e-004 -2.5201e+001 42563 97944,97996,97970
 1.2000e+000 98264 -2.7455e+002 -8.7005e+001 -6.4218e+001 42563 98022,97944,98238
 1.2000e+000 98287 -2.8437e+002 -1.2249e+002 -3.3401e+001 42563 98022,98238,98048
 1.2000e+000 98616 -2.0199e+002 -1.0246e+002 -1.3738e+001 42251 98443,98521,98469
 1.2000e+000 98593 -2.4334e+002 -9.1970e+001  1.4513e+001 42251 98417,98521,98443
 1.2000e+000 98570 -2.3359e+002 -7.5746e+001 -4.9149e+001 42251 98391,98521,98417
 1.2000e+000 98547 -1.9128e+002 -7.2792e+001 -5.4404e+001 42251 98469,98521,98495
 1.2000e+000 98886 -5.9973e+002 -2.1531e+002 -5.2783e+000 41847 98661,98765,98687
 1.2000e+000 98863 -5.9471e+002 -2.0689e+002 -1.0736e+001 41847 98661,98791,98765
 1.2000e+000 98840 -6.1420e+002 -2.1636e+002 -1.1402e+001 41847 98687,98765,98739
 1.2000e+000 98817 -5.7405e+002 -1.9834e+002 -1.5276e+001 41847 98687,98739,98713
 1.2000e+000 99394 -2.2927e+002 -6.2230e+000  3.8271e+001 41236 99417,99149,99123
 1.2000e+000 99371 -3.4216e+002 -5.1538e+001  2.8975e+001 41236 99417,99123,99097
 1.2000e+000 99348 -2.5955e+002 -7.0399e+001 -1.1787e+001 41236 99489,99201,99149
 1.2000e+000 99325 -2.5506e+002 -7.7382e+001 -2.7098e+001 41236 99149,99201,99175
 1.2000e+000 99302 -3.9270e+002 -6.0963e+001 -1.1209e+001 41236 99097,99253,99227
 1.2000e+000 99279 -6.2031e+002 -1.9615e+002 -6.7175e+001 41236 99071,99253,99097
 1.2000e+000 99443 -2.7576e+002 -5.9718e+001 -1.2976e+001 41236 99489,99149,99417
 1.2000e+000 99466 -2.9410e+002 -3.6299e+001 -1.5557e+001 41236 99227,99417,99097
 1.2000e+000 99515 -2.5422e+002 -5.9684e+001 -1.7721e+001 41236 99227,99201,99489
 1.2000e+000 99538 -2.5961e+002 -3.9986e+001 -2.2220e+001 41236 99227,99489,99417
 1.2000e+000 100044 -8.7859e+001  2.1271e+000  9.8042e+001 40732 99721,99773,99747
 1.2000e+000 100021 -2.2215e+002  2.5475e+001  3.1848e+001 40732 99721,99799,99773
 1.2000e+000 99998 -2.0317e+002 -2.0178e+001  2.0505e+001 40732 99721,99903,99799
 1.2000e+000 99975 -1.8007e+002 -2.9855e+001 -3.6085e+001 40732 100067,99877,99851
 1.2000e+000 99952 -2.0498e+002 -6.9465e+001 -2.5482e+001 40732 100067,99851,99799
 1.2000e+000 99929 -2.6865e+002 -6.7600e+001 -5.8742e+001 40732 99799,99851,99825
 1.2000e+000 100093 -2.0793e+002  1.3401e+001 -1.7099e+001 40732 99903,99877,100067
 1.2000e+000 100116 -2.4485e+002 -4.3341e+001 -1.2082e+000 40732 99903,100067,99799
 1.2000e+000 100622 -3.5828e+002 -3.8113e+001  4.9145e+001 40278 100645,100455,100429
 1.2000e+000 100599 -4.0830e+002 -6.1959e+001  6.0278e+001 40278 100717,100645,100429
 1.2000e+000 100576 -4.7408e+002 -9.1106e+001  1.4080e+001 40278 100717,100429,100377
 1.2000e+000 100553 -3.2213e+002 -1.2521e+002  3.8890e+001 40278 100789,100325,100481
 1.2000e+000 100530 -3.0987e+002 -5.1613e+001  6.4587e+001 40278 100299,100481,100325
 1.2000e+000 100507 -3.7668e+002 -8.8442e+001  1.2283e+001 40278 100377,100429,100403
 1.2000e+000 100671 -3.7288e+002 -2.2108e+000  5.8798e+001 40278 100481,100455,100645
 1.2000e+000 100694 -3.5571e+002 -8.8644e+001  2.0882e+000 40278 100789,100481,100645
 1.2000e+000 100743 -4.4100e+002 -8.1508e+001 -6.1277e+001 40278 100351,100645,100717
 1.2000e+000 100766 -5.9584e+002 -1.4185e+002 -1.0532e+002 40278 100351,100717,100377
 1.2000e+000 100815 -2.8715e+002 -1.0993e+002  1.6541e+000 40278 100351,100325,100789
 1.2000e+000 100838 -2.9304e+002 -3.9544e+001 -3.8100e+001 40278 100351,100789,100645
 1.2000e+000 101265 -3.2411e+002 -1.0466e+002  5.3016e+000 39824 101288,101046,100994
 1.2000e+000 101242 -3.5494e+002 -1.2998e+002 -9.7675e+000 39824 101288,100994,100968
 1.2000e+000 101219 -4.1332e+002 -8.9719e+001  2.4129e+001 39824 100942,101124,100968
 1.2000e+000 101196 -2.6810e+002 -2.2718e+001  8.0046e+000 39824 101046,101124,101072
 1.2000e+000 101173 -2.9777e+002 -1.3479e+002 -6.8661e+001 39824 100994,101046,101020
 1.2000e+000 101150 -1.6556e+002 -2.5319e+001  1.1982e+001 39824 101072,101124,101098
 1.2000e+000 101314 -3.0863e+002 -1.1808e+002  1.6503e+001 39824 101124,101046,101288
 1.2000e+000 101337 -3.2378e+002 -1.2250e+002  6.4732e+000 39824 101124,101288,100968
 1.2000e+000 101585 -2.8698e+002 -1.7366e+002  6.4621e+001 39070 101608,101464,101412
 1.2000e+000 101562 -2.8099e+002 -1.3444e+002  6.1383e+001 39070 101608,101412,101360
 1.2000e+000 101539 -2.5734e+002 -1.7256e+002  5.7987e+001 39070 101412,101464,101438
 1.2000e+000 101516 -2.9432e+002 -1.7024e+002  6.5724e+001 39070 101360,101412,101386
 1.2000e+000 101634 -2.9920e+002 -1.6046e+002  3.8176e+001 39070 101490,101464,101608
 1.2000e+000 101657 -2.8391e+002 -1.0737e+002  3.4852e+001 39070 101490,101608,101360
 1.2000e+000 101856 -5.0847e+002 -5.7581e+001 -2.2293e+001 38730 101706,101758,101732
 1.2000e+000 101833 -5.0853e+002 -1.1189e+002 -2.6771e+000 38730 101706,101784,101758
 1.2000e+000 101810 -4.5990e+002 -1.4221e+002 -5.3825e+001 38730 101680,101784,101706
 1.2000e+000 102106 -3.0168e+002 -8.6315e+001  1.3474e+001 38326 101881,101959,101907
 1.2000e+000 102083 -3.3395e+002 -9.0690e+001  5.9749e+001 38326 101881,101985,101959
 1.2000e+000 102060 -2.1132e+002 -7.2192e+001  5.9278e+001 38326 101881,102011,101985
 1.2000e+000 102037 -3.8442e+002 -5.6626e+001 -1.3774e+001 38326 101907,101959,101933
 1.2000e+000 102258 -2.4811e+002 -5.0954e+001  1.4111e+001 38036 102281,102157,102131
 1.2000e+000 102235 -2.4675e+002  2.7254e+000 -1.3190e+001 38036 102281,102131,102209
 1.2000e+000 102307 -2.2375e+002 -1.0119e+002  9.5826e+000 38036 102183,102157,102281
 1.2000e+000 102330 -2.3261e+002 -6.6007e+001 -2.5516e+001 38036 102183,102281,102209
 1.2000e+000 102663 -1.9749e+002 -4.1227e+001  3.8963e+001 37596 102438,102542,102464
 1.2000e+000 102640 -1.2304e+002 -2.1897e+001  1.4553e+001 37596 102438,102568,102542
 1.2000e+000 102617 -1.9214e+002 -9.0187e+000  7.0612e+001 37596 102490,102542,102516
 1.2000e+000 102594 -1.7765e+002 -3.1215e+001  4.6772e+001 37596 102464,102542,102490
 1.2000e+000 102862 -2.3353e+002  5.8463e+000  8.5526e+000 37192 102686,102764,102712
 1.2000e+000 102839 -2.2658e+002  1.6783e+001  4.3630e+000 37192 102686,102790,102764
 1.2000e+000 102816 -1.5232e+002 -5.0079e+001  3.4654e+001 37192 102712,102764,102738
 1.2000e+000 103110 -2.4028e+002 -2.7967e+001 -2.0892e+001 36609 102911,102963,102937
 1.2000e+000 103087 -2.4959e+002 -4.1756e+001 -1.1531e+001 36609 102911,102989,102963
 1.2000e+000 103064 -2.5838e+002 -7.5770e+001 -2.8888e+001 36609 102885,102989,102911
 1.2000e+000 103041 -2.6856e+002 -1.8785e+001 -6.2879e+001 36609 102885,103015,102989
 1.2000e+000 103718 -7.4932e+001 -3.7404e+000  5.4501e+000 36131 103323,103375,103349
 1.2000e+000 103695 -2.0248e+002 -2.1915e+000  1.5949e+001 36131 103297,103375,103323
 1.2000e+000 103672 -2.3631e+002 -9.7960e+001 -1.3729e+000 36131 103297,103505,103375
 1.2000e+000 103649 -2.1889e+002 -8.1912e+001  1.7129e+001 36131 103741,103479,103401
 1.2000e+000 103626 -2.0802e+002 -5.7254e+001  2.6263e+001 36131 103741,103401,103375
 1.2000e+000 103603 -2.6058e+002 -5.3100e+001  3.1228e+000 36131 103401,103479,103427
 1.2000e+000 103580 -2.4649e+002 -7.0096e+001 -2.8512e+001 36131 103297,103531,103505
 1.2000e+000 103557 -2.2944e+002 -4.4707e+000 -2.8129e+001 36131 103427,103479,103453
 1.2000e+000 103767 -2.2309e+002 -1.0117e+002 -1.1021e+000 36131 103505,103479,103741
 1.2000e+000 103790 -2.1175e+002 -7.8500e+001  8.5795e+000 36131 103505,103741,103375
 1.2000e+000 103989 -4.8587e+002 -1.1152e+002  1.1367e+001 35791 103839,103917,103891
 1.2000e+000 103966 -4.7777e+002 -1.5863e+002  2.6096e+000 35791 103813,103917,103839
 1.2000e+000 103943 -3.9209e+002 -1.7251e+001 -3.7465e+001 35791 103839,103891,103865
 1.2000e+000 104188 -2.3699e+002 -9.7413e+001 -3.1961e+001 35444 104038,104090,104064
 1.2000e+000 104165 -2.6129e+002 -6.1015e+001  3.9868e+001 35444 104038,104116,104090
 1.2000e+000 104142 -2.8774e+002 -5.4438e+000  3.8784e+001 35444 104012,104116,104038
 1.2000e+000 104487 -3.4190e+002 -8.5215e+001 -3.4164e+001 34990 104265,104317,104291
 1.2000e+000 104464 -2.6849e+002 -6.4925e+001 -2.3567e+001 34990 104510,104317,104265
 1.2000e+000 104441 -1.9303e+002 -3.7371e+001 -7.8195e+000 34990 104510,104265,104213
 1.2000e+000 104418 -2.9578e+002 -2.3313e+001  1.5373e+001 34990 104582,104343,104317
 1.2000e+000 104395 -1.7788e+002 -4.2880e+000 -1.5557e+001 34990 104213,104265,104239
 1.2000e+000 104536 -2.9722e+002 -2.3828e+001 -2.4126e+000 34990 104582,104317,104510
 1.2000e+000 104559 -2.5197e+002 -3.0392e+001  5.1255e+000 34990 104369,104510,104213
 1.2000e+000 104608 -2.4955e+002  1.0844e+001  3.0328e+001 34990 104369,104343,104582
 1.2000e+000 104631 -2.7345e+002 -1.3557e+001  3.6255e+000 34990 104369,104582,104510
 1.2000e+000 104783 -3.5201e+002 -1.0192e+002 -2.3376e+001 34700 104938,104806,104682
 1.2000e+000 104760 -3.3720e+002 -8.4289e+001 -1.2590e+001 34700 104938,104682,104656
 1.2000e+000 104832 -2.4981e+002 -3.3157e+001  9.6328e+000 34700 104708,104682,104806
 1.2000e+000 104964 -3.6254e+002 -1.1309e+002 -3.9393e+001 34700 104734,104806,104938
 1.2000e+000 104987 -3.5001e+002 -9.9725e+001 -2.9109e+001 34700 104734,104938,104656
 1.2000e+000 105137 -4.6637e+002 -3.8610e+000 -7.2413e+000 34388 105036,105088,105062
 1.2000e+000 105114 -4.7074e+002 -1.0526e+002 -2.5255e+001 34388 105010,105088,105036
 1.2000e+000 105385 -3.5113e+002 -6.4865e+001  3.1942e+001 33734 105408,105186,105160
 1.2000e+000 105362 -3.4556e+002 -6.3310e+001  2.7981e+001 33734 105408,105160,105264
 1.2000e+000 105339 -4.1123e+002 -1.2690e+001  1.3007e+001 33734 105160,105290,105264
 1.2000e+000 105316 -3.2581e+002 -8.7006e+001  7.6280e+001 33734 105186,105238,105212
 1.2000e+000 105434 -3.4549e+002 -7.0473e+001  2.6779e+001 33734 105238,105186,105408
 1.2000e+000 105457 -3.2987e+002 -5.7446e+001  2.0125e+001 33734 105238,105408,105264
 1.2000e+000 105609 -2.3237e+002 -2.8520e+001 -6.9974e+001 33394 105482,105534,105508
 1.2000e+000 105586 -2.1197e+002 -1.6469e+001 -7.4978e+001 33394 105482,105560,105534
 1.2000e+000 105859 -4.6577e+002 -6.6988e+001 -6.7651e+001 33047 105882,105712,105660
 1.2000e+000 105836 -5.1003e+002 -5.5093e+001 -2.3514e+001 33047 105882,105660,105634
 1.2000e+000 105813 -3.4133e+002 -9.2226e+001  2.5604e+000 33047 105660,105712,105686
 1.2000e+000 105790 -3.7369e+002 -3.7672e+001 -5.9859e+001 33047 105634,105764,105738
 1.2000e+000 105908 -3.6270e+002  7.0667e+000 -1.0816e+002 33047 105738,105712,105882
 1.2000e+000 105931 -4.7031e+002 -4.3214e+001 -5.0568e+001 33047 105738,105882,105634
 1.2000e+000 106181 -2.9438e+002 -7.5881e+001  4.1404e+001 32543 106204,106060,106008
 1.2000e+000 106158 -2.6361e+002 -1.0934e+002  2.5622e+001 32543 105956,106086,106060
 1.2000e+000 106135 -2.7244e+002 -3.0063e+001  3.3225e+001 32543 106204,106008,105982
 1.2000e+000 106112 -3.1613e+002 -1.7587e+002  2.1437e+001 32543 106008,106060,106034
 1.2000e+000 106230 -2.7619e+002 -9.2971e+001  9.5703e+000 32543 105956,106060,106204
 1.2000e+000 106253 -2.5219e+002 -4.8721e+001 -1.2148e-002 32543 105956,106204,105982
 1.2000e+000 106454 -3.3111e+002 -1.3896e+002 -8.2257e+001 31839 106304,106356,106330
 1.2000e+000 106431 -3.6185e+002 -1.0107e+002  9.4169e+000 31839 106278,106356,106304
 1.2000e+000 106408 -2.7552e+002 -6.2786e+001 -1.2999e+001 31839 106278,106382,106356
 1.2000e+000 106704 -1.7106e+002 -2.7913e+001  1.0628e+001 31534 106505,106583,106557
 1.2000e+000 106681 -1.7460e+002 -3.0177e+001  9.4734e+000 31534 106479,106583,106505
 1.2000e+000 106658 -2.1967e+002 -5.8349e+001  2.4792e+001 31534 106505,106557,106531
 1.2000e+000 106635 -2.4717e+002 -5.6629e+001  4.7855e+000 31534 106479,106609,106583
 1.2000e+000 107108 -5.8827e+002  5.9049e+001 -1.2430e+002 31030 106886,106990,106964
 1.2000e+000 107085 -4.3832e+002 -7.3301e+001 -3.9225e+001 31030 106860,106990,106886
 1.2000e+000 107062 -4.1203e+002 -5.1537e+001 -2.1645e+001 31030 106834,106990,106860
 1.2000e+000 107039 -8.8381e+002 -3.1558e+002  6.4831e+001 31030 106912,106964,106938
 1.2000e+000 107016 -9.4295e+002 -8.4072e+001 -1.1457e+002 31030 106886,106964,106912
 1.2000e+000 107307 -4.8610e+002  1.6575e+001 -5.5417e+000 30718 107330,107157,107131
 1.2000e+000 107284 -4.1047e+002  2.4167e+000 -2.6016e+001 30718 107330,107131,107235
 1.2000e+000 107261 -3.2365e+002 -1.1681e+001  3.0876e+001 30718 107183,107235,107209
 1.2000e+000 107356 -4.1143e+002 -1.1074e+000  1.4010e+001 30718 107183,107157,107330
 1.2000e+000 107379 -3.3989e+002 -1.7411e+001 -1.2752e+001 30718 107183,107330,107235
 1.2000e+000 107759 -2.8082e+002 -1.0094e+002  3.6259e+001 30264 107782,107615,107537
 1.2000e+000 107736 -2.7520e+002 -8.7674e+001  3.3147e+001 30264 107782,107537,107485
 1.2000e+000 107713 -3.7608e+002 -5.4499e+001  4.4367e+001 30264 107485,107537,107511
 1.2000e+000 107690 -2.1421e+002 -3.6632e+001  6.3758e+001 30264 107537,107615,107589
 1.2000e+000 107667 -2.0204e+002 -6.5539e+001  4.6144e+001 30264 107537,107589,107563
 1.2000e+000 107808 -2.8001e+002 -9.6726e+001  2.6498e+001 30264 107641,107615,107782
 1.2000e+000 107831 -2.7530e+002 -8.2630e+001  2.4117e+001 30264 107641,107782,107485
 1.2000e+000 108030 -3.2973e+002 -1.2462e+002  3.4689e+001 29874 108053,107854,107932
 1.2000e+000 108007 -2.5921e+002 -6.3681e+001  5.0366e+000 29874 107854,107958,107932
 1.2000e+000 107984 -3.6369e+002 -8.8184e+001  7.5189e+001 29874 108053,107932,107906
 1.2000e+000 108079 -3.2002e+002 -7.7398e+001  3.4070e+001 29874 107880,107854,108053
 1.2000e+000 108102 -3.4635e+002 -2.5736e+001  6.2641e+001 29874 107880,108053,107906
 1.2000e+000 108433 -1.7437e+002 -5.9159e+001  4.8835e+000 29484 108234,108338,108312
 1.2000e+000 108410 -2.3285e+002 -4.6405e+001  6.2291e+001 29484 108208,108338,108234
 1.2000e+000 108387 -2.6117e+002 -6.2026e+001 -9.0902e+000 29484 108234,108312,108260
 1.2000e+000 108364 -2.3760e+002 -8.7885e+001 -1.0836e+001 29484 108260,108312,108286
 1.2000e+000 108762 -1.7991e+002 -1.0510e+002  9.8074e+000 29080 108563,108641,108589
 1.2000e+000 108739 -1.4501e+002 -7.6206e+001  4.0867e+001 29080 108537,108641,108563
 1.2000e+000 108716 -2.9841e+002 -3.4262e+001  1.0308e+002 29080 108589,108641,108615
 1.2000e+000 108693 -5.4695e+001 -4.5798e+001  1.3755e+001 29080 108537,108667,108641
 1.2000e+000 109189 -3.2153e+002 -8.5360e+001  2.8176e+001 28476 108892,108996,108970
 1.2000e+000 109166 -3.9286e+002 -7.0079e+001  2.6687e+001 28476 108892,109022,108996
 1.2000e+000 109143 -3.2858e+002 -1.1241e+002  3.0117e+001 28476 108892,108970,108944
 1.2000e+000 109120 -4.4118e+002 -7.8272e+001  2.8220e+001 28476 108892,109048,109022
 1.2000e+000 109097 -3.4428e+002 -1.3387e+002  1.9004e+001 28476 108892,108944,108918
 1.2000e+000 109074 -5.5189e+002 -5.2369e+001 -4.7543e+001 28476 108866,109048,108892
 1.2000e+000 109518 -2.0814e+002 -5.2498e+001  3.8718e+001 28022 109541,109371,109345
 1.2000e+000 109495 -2.4616e+002  4.7240e+000 -1.9332e+001 28022 109541,109345,109319
 1.2000e+000 109472 -1.6950e+002  2.4284e+001 -2.1335e+001 28022 109293,109397,109319
 1.2000e+000 109449 -2.0383e+002 -1.2061e+001  9.9463e+000 28022 109293,109423,109397
 1.2000e+000 109567 -5.0576e+001  1.4999e+001  3.4260e+001 28022 109397,109371,109541
 1.2000e+000 109590 -1.9960e+002  1.4458e+001 -1.6393e+001 28022 109397,109541,109319
 1.2000e+000 109968 -3.5191e+002 -1.8280e+002 -4.3304e+001 27568 109798,109850,109824
 1.2000e+000 109945 -3.1627e+002 -7.9043e+001 -4.1185e+001 27568 109694,109850,109798
 1.2000e+000 109922 -2.6505e+002 -1.6468e+002 -2.3260e+001 27568 109694,109798,109746
 1.2000e+000 109899 -2.9957e+002 -1.5313e+002  1.1295e+002 27568 109746,109798,109772
 1.2000e+000 109876 -1.9287e+002 -4.2629e+001  2.2269e+001 27568 109694,109746,109720
 1.2000e+000 110167 -2.7459e+002 -5.8893e+001 -5.0426e+000 27007 110017,110095,110069
 1.2000e+000 110144 -2.5467e+002 -1.2575e+001  8.1814e-001 27007 109991,110095,110017
 1.2000e+000 110121 -2.7823e+002 -2.0927e+001  4.6482e+001 27007 110017,110069,110043
 1.2000e+000 110415 -1.5226e+002 -7.5360e+001  1.7105e+001 26567 110438,110242,110190
 1.2000e+000 110392 -2.1326e+002  6.3493e+000 -1.1363e+001 26567 110438,110190,110320
 1.2000e+000 110369 -2.3325e+002 -6.0759e+001  1.3407e+001 26567 110242,110294,110268
 1.2000e+000 110346 -1.1655e+002 -6.0709e+000 -8.5249e+000 26567 110190,110242,110216
 1.2000e+000 110464 -1.8437e+002 -8.7915e+001 -4.1330e+000 26567 110294,110242,110438
 1.2000e+000 110487 -2.6335e+002 -6.7947e+001 -5.0183e+001 26567 110294,110438,110320
 1.2000e+000 110639 -4.1887e+002 -1.5621e-001 -5.7731e+001 26170 110538,110590,110564
 1.2000e+000 110616 -3.5490e+002 -4.2478e+001 -1.6490e+001 26170 110512,110590,110538
 1.2000e+000 111149 -3.8413e+002 -1.0818e+002  1.2019e+002 25716 111172,110878,110852
 1.2000e+000 111126 -3.3373e+002 -4.7337e+001  9.2665e+001 25716 111172,110852,111008
 1.2000e+000 111103 -4.4549e+002 -1.2231e+002  2.2614e+002 25716 110878,110930,110904
 1.2000e+000 111080 -2.9037e+002 -4.9145e+001  6.6522e+001 25716 110826,111008,110852
 1.2000e+000 111057 -2.6423e+002 -1.5498e+002  5.4110e+001 25716 110930,111008,110956
 1.2000e+000 111034 -2.6241e+002 -1.2026e+002  2.4265e+001 25716 110956,111008,110982
 1.2000e+000 111198 -3.2531e+002 -1.8296e+002  1.4025e+002 25716 110930,110878,111172
 1.2000e+000 111221 -2.6451e+002 -1.1911e+002  1.0832e+002 25716 110930,111172,111008
 1.2000e+000 111420 -4.6485e+002 -9.4546e+001  1.1879e+001 25304 111443,111270,111244
 1.2000e+000 111397 -4.8352e+002 -4.7029e+001  1.2940e+001 25304 111443,111244,111348
 1.2000e+000 111374 -4.7826e+002 -1.4315e+002 -3.3284e+001 25304 111270,111322,111296
 1.2000e+000 111469 -4.7567e+002 -1.2089e+002  6.7172e+000 25304 111322,111270,111443
 1.2000e+000 111492 -5.0433e+002 -8.4789e+001  3.1508e+000 25304 111322,111443,111348
 1.2000e+000 111691 -2.0411e+002 -6.4506e+001 -2.2317e+001 24736 111567,111619,111593
 1.2000e+000 111668 -2.0701e+002 -8.3712e+000 -5.1892e+001 24736 111541,111619,111567
 1.2000e+000 111645 -2.1679e+002  4.2537e+001 -2.1326e+001 24736 111515,111619,111541
 1.2000e+000 112024 -5.8145e+001 -1.4640e+001  1.2660e+001 24146 111825,111877,111851
 1.2000e+000 112001 -7.4907e+001  5.2469e+000 -9.1363e+000 24146 111825,111903,111877
 1.2000e+000 111978 -1.1814e+002 -7.6759e+001  9.3847e+000 24146 111825,111929,111903
 1.2000e+000 111955 -1.2696e+002 -1.3020e+002 -2.5812e+001 24146 111799,111929,111825
 1.2000e+000 112370 -2.6615e+002 -1.0383e+002  4.5781e+001 23856 112393,112151,112125
 1.2000e+000 112347 -2.4338e+002 -6.0255e+001  5.4024e+001 23856 112465,112393,112125
 1.2000e+000 112324 -2.4751e+002 -4.5062e+001  6.8742e+001 23856 112465,112125,112073
 1.2000e+000 112301 -3.3739e+002 -8.1034e+001  9.6967e+001 23856 112073,112125,112099
 1.2000e+000 112278 -2.7532e+002 -1.1140e+002  3.2610e+001 23856 112047,112229,112073
 1.2000e+000 112255 -2.6051e+002 -1.0799e+002 -2.2185e+001 23856 112151,112203,112177
 1.2000e+000 112419 -2.8741e+002 -8.7382e+001  1.6602e+001 23856 112203,112151,112393
 1.2000e+000 112442 -2.7191e+002 -7.2621e+001  2.2662e+001 23856 112203,112393,112229
 1.2000e+000 112491 -2.7037e+002 -8.2424e+001  2.3837e+001 23856 112229,112393,112465
 1.2000e+000 112514 -2.6223e+002 -4.6058e+001  3.9319e+001 23856 112229,112465,112073
 1.2000e+000 112784 -5.0529e+002  1.4523e+002 -7.1698e+001 23494 112611,112663,112637
 1.2000e+000 112761 -3.8343e+002 -3.6564e+001 -4.2666e+001 23494 112585,112663,112611
 1.2000e+000 112738 -4.8353e+002 -7.8287e+001  3.8885e+001 23494 112559,112663,112585
 1.2000e+000 112715 -4.1993e+002  1.5825e+002  7.5705e+001 23494 112559,112689,112663
 1.2000e+000 113117 -3.7811e+002 -4.0513e+001 -9.0371e+001 22974 112944,113022,112996
 1.2000e+000 113094 -3.1588e+002 -1.0952e+002 -6.3758e+001 22974 112918,113022,112944
 1.2000e+000 113071 -4.2333e+002 -1.7705e+002 -1.1663e+002 22974 112944,112996,112970
 1.2000e+000 113048 -2.8942e+002 -1.9878e+001 -8.2007e+001 22974 112892,113022,112918
 1.2000e+000 113414 -3.9363e+002 -1.1716e+002 -3.5894e+000 22370 113192,113296,113218
 1.2000e+000 113391 -4.4810e+002 -1.7934e+002 -2.6886e+001 22370 113140,113296,113192
 1.2000e+000 113368 -4.0057e+002 -1.2809e+002  1.9236e+001 22370 113218,113296,113270
 1.2000e+000 113345 -3.5900e+002 -1.2959e+002  6.1554e+001 22370 113218,113270,113244
 1.2000e+000 113322 -3.7014e+002 -2.4404e+001 -6.1232e+001 22370 113140,113192,113166
 1.2000e+000 113662 -2.7815e+002 -3.9890e+001  3.0970e+001 21916 113685,113515,113489
 1.2000e+000 113639 -3.3745e+002 -8.9103e+001  8.5072e+000 21916 113685,113489,113437
 1.2000e+000 113616 -2.6008e+002 -8.5269e+001 -6.1709e+000 21916 113757,113567,113541
 1.2000e+000 113593 -3.2195e+002 -4.6355e+001 -9.4887e+000 21916 113437,113489,113463
 1.2000e+000 113711 -3.1553e+002 -1.1378e+002  1.6413e+001 21916 113541,113515,113685
 1.2000e+000 113734 -2.9627e+002 -1.0880e+002  3.9605e+000 21916 113757,113541,113685
 1.2000e+000 113783 -3.1115e+002 -7.8170e+001 -3.7918e+000 21916 113437,113567,113757
 1.2000e+000 113806 -3.1451e+002 -7.7510e+001 -4.0426e+000 21916 113437,113757,113685
 1.2000e+000 114056 -2.8154e+002 -9.9484e+001 -1.7615e+001 21412 113857,113909,113883
 1.2000e+000 114033 -2.6942e+002 -5.9908e+001 -1.7323e+001 21412 114079,113909,113857
 1.2000e+000 114010 -3.0598e+002 -8.0669e+001 -7.3199e+000 21412 114079,113857,113961
 1.2000e+000 113987 -2.8326e+002 -8.0377e+001 -7.2272e+000 21412 113831,113961,113857
 1.2000e+000 114105 -3.0003e+002 -3.7039e+001 -3.5495e+001 21412 113935,113909,114079
 1.2000e+000 114128 -3.2558e+002 -5.5384e+001 -2.6945e+001 21412 113935,114079,113961
 1.2000e+000 114378 -1.9827e+002 -4.4756e+001 -3.2200e+000 21022 114401,114257,114205
 1.2000e+000 114355 -2.2649e+002 -5.2026e+001 -4.5606e+001 21022 114401,114205,114179
 1.2000e+000 114332 -1.9930e+002 -6.3046e+000 -4.6583e+000 21022 114153,114283,114179
 1.2000e+000 114309 -2.1436e+002 -5.1373e+001 -6.2349e+000 21022 114205,114257,114231
 1.2000e+000 114427 -1.3999e+002 -3.1147e+001  1.6795e+001 21022 114283,114257,114401
 1.2000e+000 114450 -1.8224e+002 -4.2983e+001 -2.4119e+001 21022 114283,114401,114179
 1.2000e+000 114651 -1.8839e+002 -2.8383e+001 -1.4658e+001 20618 114501,114553,114527
 1.2000e+000 114628 -9.2773e+001 -1.1522e+000  6.5319e+000 20618 114501,114579,114553
 1.2000e+000 114605 -2.0714e+002 -2.4380e+001 -1.5831e+001 20618 114475,114579,114501
 1.2000e+000 114901 -4.8154e+002 -5.9119e+001 -5.4750e+001 20114 114676,114780,114702
 1.2000e+000 114878 -3.6434e+002 -9.1585e+000 -6.3113e+001 20114 114676,114806,114780
 1.2000e+000 114855 -5.2210e+002 -2.6929e+001 -4.5104e+001 20114 114702,114780,114754
 1.2000e+000 114832 -1.2674e+003 -2.3864e+002 -7.5424e+001 20114 114702,114754,114728
 1.2000e+000 115053 -3.9192e+002 -6.9503e+001  8.0620e-002 19460 115147,115076,114926
 1.2000e+000 115030 -4.0305e+002 -5.0531e+001 -5.3207e+000 19460 115147,114926,115004
 1.2000e+000 115102 -4.0458e+002 -8.7365e+001  6.3690e+000 19460 114952,114926,115076
 1.2000e+000 115173 -3.9800e+002 -1.0336e+002 -2.1788e+000 19460 114978,115076,115147
 1.2000e+000 115196 -4.0464e+002 -7.8669e+001 -9.7855e+000 19460 114978,115147,115004
 1.2000e+000 115446 -5.6804e+002 -9.5106e+001  6.8082e+001 19006 115273,115351,115299
 1.2000e+000 115423 -5.0919e+002 -1.9289e+002  2.3748e+001 19006 115247,115351,115273
 1.2000e+000 115400 -5.3587e+002 -2.0319e+002  3.2503e+001 19006 115221,115351,115247
 1.2000e+000 115377 -3.2771e+002 -5.0205e+001 -1.2888e+002 19006 115299,115351,115325
 1.2000e+000 115767 -1.6572e+002 -7.8039e+000  1.5212e+001 18716 115571,115649,115623
 1.2000e+000 115744 -1.8721e+002 -4.5662e+001  6.3221e+000 18716 115493,115649,115571
 1.2000e+000 115721 -1.8934e+002 -1.2881e+001  9.9004e+000 18716 115493,115571,115545
 1.2000e+000 115698 -2.0273e+002 -2.4969e+001 -1.0638e+001 18716 115493,115545,115519
 1.2000e+000 115675 -6.3480e+001  2.5759e+001 -3.6880e+000 18716 115571,115623,115597
 1.2000e+000 116039 -3.2329e+002 -8.8622e+001  1.3367e+001 18312 115814,115892,115840
 1.2000e+000 116016 -3.2175e+002 -8.8106e+001  1.9410e+001 18312 115814,115944,115892
 1.2000e+000 115993 -3.3947e+002 -2.1513e+001  2.3652e+001 18312 115892,115944,115918
 1.2000e+000 115970 -1.5641e+002 -1.2156e+001 -5.5777e+000 18312 115840,115892,115866
 1.2000e+000 116191 -5.0057e+002 -1.5958e+002  4.8180e-001 18000 116090,116142,116116
 1.2000e+000 116168 -4.7696e+002 -1.5244e+002  1.5523e+001 18000 116064,116142,116090
 1.2000e+000 116343 -2.3500e+002  1.1378e+001 -4.8499e+000 17396 116242,116294,116268
 1.2000e+000 116320 -2.9458e+002  1.0800e+001 -4.2648e+000 17396 116216,116294,116242
 1.2000e+000 116566 -3.6833e+002 -1.7187e+002  2.7241e+001 16942 116390,116468,116442
 1.2000e+000 116543 -5.8261e+002 -1.9569e+002  6.1005e+001 16942 116390,116494,116468
 1.2000e+000 116520 -3.9779e+002 -2.4090e+002  9.5198e+000 16942 116390,116442,116416
 1.2000e+000 116767 -1.8084e+002  1.6419e+001  1.0717e+001 16438 116790,116643,116617
 1.2000e+000 116744 -2.2811e+002 -2.0455e+001 -6.0979e+000 16438 116790,116617,116591
 1.2000e+000 116721 -1.1669e+002 -1.2562e+001 -2.5382e+001 16438 116643,116695,116669
 1.2000e+000 116816 -1.5803e+002 -1.0282e+001  2.2912e+001 16438 116695,116643,116790
 1.2000e+000 116839 -1.7320e+002 -1.7538e+001  1.4224e+001 16438 116695,116790,116591
 1.2000e+000 117062 -6.2749e+001  6.9405e-001 -8.7455e-001 16074 116886,116938,116912
 1.2000e+000 117039 -1.0300e+002 -1.5776e+001  9.9090e-001 16074 116886,116990,116938
 1.2000e+000 117016 -1.0418e+002 -6.7755e+000  8.5621e-002 16074 116938,116990,116964
 1.2000e+000 117214 -5.0427e+002 -2.3866e+002 -3.2278e+001 15649 117087,117139,117113
 1.2000e+000 117191 -5.9597e+002 -2.9098e+002  3.3939e+000 15649 117087,117165,117139
 1.2000e+000 117317 -1.6323e+001 -4.5097e+001  8.6788e+000 421 117239,117291,117265
 1.3000e+000 70632  1.6335e+001 -5.3674e+000  1.4342e+001 70072 70482,70534,70508
 1.3000e+000 70609  2.2755e+000 -3.1705e+001  9.1484e+000 70072 70482,70560,70534
 1.3000e+000 70586 -8.2338e+001 -6.8040e+001  1.0545e+001 70072 70456,70560,70482
 1.3000e+000 70951 -3.0805e+002 -1.7251e+002  0.0000e+000 69874 70703,70755,70729
 1.3000e+000 70928 -3.3156e+002 -1.8237e+002  1.5066e+000 69874 70703,70781,70755
 1.3000e+000 70905 -3.3546e+002 -1.6817e+002  3.3374e-002 69874 70703,70807,70781
 1.3000e+000 70882 -3.4534e+002 -1.9575e+002  1.0595e+001 69874 70703,70833,70807
 1.3000e+000 70859 -1.8447e+002 -1.2184e+002 -1.2930e+001 69874 70677,70833,70703
 1.3000e+000 71199 -1.4608e+002 -5.0359e+001  2.0394e+001 69698 71222,71052,71026
 1.3000e+000 71176 -1.4508e+002 -4.2147e+001  2.1678e+001 69698 71294,71222,71026
 1.3000e+000 71153 -1.4279e+002 -3.4295e+001  1.8255e+001 69698 71294,71026,71000
 1.3000e+000 71130 -1.8688e+002 -4.9604e+001 -4.6273e+000 69698 71366,71104,71078
 1.3000e+000 71248 -1.3903e+002 -4.5411e+001  1.4559e+001 69698 71078,71052,71222
 1.3000e+000 71271 -1.5896e+002 -5.8050e+001  6.8086e+000 69698 71366,71078,71222
 1.3000e+000 71320 -1.3931e+002 -3.5148e+001  1.3980e+001 69698 70974,71222,71294
 1.3000e+000 71343 -1.3831e+002 -3.2959e+001  1.0554e+001 69698 70974,71294,71000
 1.3000e+000 71392 -1.5513e+002 -2.1346e+001  7.2322e+000 69698 70974,71104,71366
 1.3000e+000 71415 -1.4166e+002 -3.8938e+001  1.4977e+001 69698 70974,71366,71222
 1.3000e+000 71516 -1.6997e+002 -9.4599e+000  1.6175e+001 69386 71438,71490,71464
 1.3000e+000 71869 -8.1888e+001  2.9560e+001 -1.4413e+001 69188 71644,71748,71670
 1.3000e+000 71846  1.0024e+001  1.4153e+001  3.3529e+001 69188 71644,71774,71748
 1.3000e+000 71823 -7.0654e+001 -2.1954e+001 -3.5744e+001 69188 71670,71748,71722
 1.3000e+000 71800 -1.2648e+001  1.8335e+000 -6.8708e+000 69188 71670,71722,71696
 1.3000e+000 72019 -4.4969e+002 -8.1294e+001  5.3832e+001 68990 71918,71970,71944
 1.3000e+000 71996 -5.6060e+002 -3.8066e+001  3.5277e+001 68990 71892,71970,71918
 1.3000e+000 72316 -2.1687e+002  1.4237e+001  1.1119e+001 68586 72339,72172,72146
 1.3000e+000 72293 -2.3871e+002 -2.2811e+001  2.0139e+001 68586 72339,72146,72120
 1.3000e+000 72270 -2.4136e+002 -3.9503e+001  5.6826e+001 68586 72411,72068,72198
 1.3000e+000 72247 -2.7054e+002 -1.6992e+001  6.9273e+001 68586 72042,72198,72068
 1.3000e+000 72224 -1.7072e+002  2.0066e+001 -4.7464e+001 68586 72068,72120,72094
 1.3000e+000 72365 -2.3597e+002  2.3731e+001  4.5439e+001 68586 72198,72172,72339
 1.3000e+000 72388 -2.5584e+002 -2.2185e+001  5.0547e+001 68586 72411,72198,72339
 1.3000e+000 72437 -2.2899e+002 -2.4082e+001  3.9950e+001 68586 72120,72068,72411
 1.3000e+000 72460 -2.4036e+002  1.0159e+000  3.4780e+001 68586 72120,72411,72339
 1.3000e+000 72864 -6.0425e+001 -8.7459e+000 -1.4156e+001 68388 72642,72694,72668
 1.3000e+000 72841 -1.1293e+002 -4.5784e+001  2.5442e+001 68388 72616,72694,72642
 1.3000e+000 72818 -1.4118e+002 -3.8732e+001 -6.8869e+000 68388 72616,72720,72694
 1.3000e+000 72795 -2.0607e+002 -5.8538e+001  2.5918e+001 68388 72590,72720,72616
 1.3000e+000 72772 -2.8101e+002  6.3956e+000 -7.1880e+001 68388 72590,72746,72720
 1.3000e+000 73321 -1.5239e+002 -6.0911e+001 -4.7356e+000 68048 73073,73203,73177
 1.3000e+000 73298 -1.5156e+002 -5.1360e+001  6.1983e+000 68048 73047,73203,73073
 1.3000e+000 73275 -2.0155e+002 -2.6892e+001  8.6089e+000 68048 73125,73177,73151
 1.3000e+000 73252 -1.8752e+002 -2.8358e+001 -5.9032e-002 68048 73073,73177,73125
 1.3000e+000 73229 -1.6448e+002 -1.0608e+001  1.0511e+001 68048 73073,73125,73099
 1.3000e+000 73640 -2.8339e+002 -1.3576e+001 -9.3546e+000 67850 73444,73496,73470
 1.3000e+000 73617 -2.2254e+002 -6.3359e+001 -5.9787e+000 67850 73418,73496,73444
 1.3000e+000 73594 -2.1240e+002 -3.4761e+001  1.2190e+000 67850 73392,73496,73418
 1.3000e+000 73571 -1.6938e+002 -2.5775e+001  1.6699e+001 67850 73392,73522,73496
 1.3000e+000 73548 -1.3460e+002 -4.2859e+000 -2.7652e+001 67850 73366,73522,73392
 1.3000e+000 73790 -2.5564e+002 -8.0176e+001 -3.9787e+000 67602 73689,73741,73715
 1.3000e+000 73767 -2.2307e+002 -7.2795e+000  2.4896e+000 67602 73663,73741,73689
 1.3000e+000 74040 -3.1460e+002 -6.0120e+001 -1.0272e+001 67290 73841,73945,73919
 1.3000e+000 74017 -1.8362e+002 -9.0795e+001 -4.9288e+001 67290 73815,73945,73841
 1.3000e+000 73994 -2.7588e+002 -4.7925e+001  1.9507e+001 67290 73841,73919,73867
 1.3000e+000 73971 -2.5817e+002 -1.3361e+001  3.2476e+001 67290 73867,73919,73893
 1.3000e+000 74143 -3.2073e+002 -1.4404e+002  2.5647e+001 67092 74065,74117,74091
 1.3000e+000 74415 -2.4108e+002 -1.1440e+002 -4.2225e+001 66894 74190,74294,74216
 1.3000e+000 74392 -2.1186e+002 -9.1590e+001  4.4687e+000 66894 74190,74320,74294
 1.3000e+000 74369 -2.1637e+002 -4.9847e+001 -3.9595e+001 66894 74216,74294,74242
 1.3000e+000 74346 -2.1795e+002 -3.6310e+001 -3.8773e+001 66894 74242,74294,74268
 1.3000e+000 75023 -1.2199e+002 -1.1024e+002  3.2890e+001 66532 74654,74836,74810
 1.3000e+000 75000 -9.0899e+001 -4.1023e+001  6.2616e+001 66532 74628,74836,74654
 1.3000e+000 74977 -1.2065e+002 -3.6243e+000 -3.7224e+000 66532 74706,74784,74732
 1.3000e+000 74954 -1.9608e+002 -2.3667e+000 -6.3225e+001 66532 74680,74784,74706
 1.3000e+000 74931 -3.1583e+002 -1.5150e+001 -7.0341e+001 66532 74680,74810,74784
 1.3000e+000 74908 -1.5079e+002 -2.1296e+001  7.7260e+001 66532 74654,74810,74680
 1.3000e+000 74885 -1.1447e+002 -8.4804e+001  4.0711e+001 66532 74602,74836,74628
 1.3000e+000 74862 -1.1208e+002 -1.6917e+001 -8.3820e+000 66532 74732,74784,74758
 1.3000e+000 75222 -2.6156e+002 -3.4706e+001  2.3264e+001 66242 75072,75150,75124
 1.3000e+000 75199 -2.3258e+002 -4.7194e+001  1.4760e+001 66242 75046,75150,75072
 1.3000e+000 75176 -2.9755e+002 -4.4014e+001 -5.4623e-001 66242 75072,75124,75098
 1.3000e+000 75470 -3.3599e+002  1.1867e+001  9.9373e+000 65838 75297,75375,75349
 1.3000e+000 75447 -3.5845e+002 -3.0546e+001  2.4038e-001 65838 75271,75375,75297
 1.3000e+000 75424 -2.5119e+002  9.5610e+001  6.5557e+001 65838 75297,75349,75323
 1.3000e+000 75401 -3.1853e+002 -2.2886e+000  3.1370e+001 65838 75245,75375,75271
 1.3000e+000 75671 -1.8009e+002 -6.8739e+001 -5.4901e+001 65640 75495,75573,75521
 1.3000e+000 75648 -1.6282e+002 -7.9856e+001 -2.3135e+001 65640 75495,75599,75573
 1.3000e+000 75625 -1.6492e+002 -2.7660e+001 -2.7778e+001 65640 75521,75573,75547
 1.3000e+000 75872 -1.9564e+002 -5.6084e+001 -4.2869e+000 65300 75895,75748,75722
 1.3000e+000 75849 -1.6947e+002 -5.3082e+001 -4.5772e+000 65300 75895,75722,75696
 1.3000e+000 75826 -2.0386e+002 -3.3565e+001 -1.1171e+001 65300 75967,75774,75748
 1.3000e+000 75921 -2.0029e+002 -3.7814e+001  6.2579e+000 65300 75967,75748,75895
 1.3000e+000 75944 -1.8937e+002 -3.8814e+001  2.4122e+001 65300 75800,75895,75696
 1.3000e+000 75993 -2.3359e+002 -4.0099e+001 -6.1289e+000 65300 75800,75774,75967
 1.3000e+000 76016 -2.3182e+002 -4.7674e+001  7.9066e+000 65300 75800,75967,75895
 1.3000e+000 76371 -2.0049e+002  1.3133e+001  2.4835e+000 64896 76146,76250,76172
 1.3000e+000 76348 -2.0672e+002  1.1956e+000  5.0782e+000 64896 76146,76276,76250
 1.3000e+000 76325 -1.6105e+002  2.3633e+001 -1.3444e+001 64896 76172,76250,76198
 1.3000e+000 76302 -4.5663e+002 -1.0454e+002 -5.0887e+001 64896 76198,76250,76224
 1.3000e+000 76570 -3.7490e+002 -6.3910e+001  7.6364e+001 64442 76446,76498,76472
 1.3000e+000 76547 -3.0608e+002 -8.0653e-001 -2.2572e+000 64442 76420,76498,76446
 1.3000e+000 76524 -2.9559e+002 -2.8313e+001  1.4968e+001 64442 76394,76498,76420
 1.3000e+000 76999 -1.7264e+002  6.6808e+000 -1.3955e+001 63924 77022,76728,76702
 1.3000e+000 76976 -2.0720e+002 -2.2758e+001  4.0342e+000 63924 77022,76702,76832
 1.3000e+000 76953 -1.9467e+002  4.0096e+000 -7.4430e+001 63924 76728,76806,76754
 1.3000e+000 76930 -3.1341e+002 -6.1291e+001  6.5143e+000 63924 76676,76832,76702
 1.3000e+000 76907 -3.2053e+002  1.2129e+002 -7.2362e+001 63924 76754,76806,76780
 1.3000e+000 76884 -3.1854e+002  4.5668e+001 -9.4672e-001 63924 76676,76858,76832
 1.3000e+000 77048 -2.2186e+002  3.8920e+001 -1.3449e+001 63924 76806,76728,77022
 1.3000e+000 77071 -2.5173e+002  1.4699e+001  3.3155e+000 63924 76806,77022,76832
 1.3000e+000 77449 -1.4785e+002  3.7270e+001  1.3840e+001 63320 77472,77253,77201
 1.3000e+000 77426 -1.3109e+002 -3.6849e-001 -2.8706e+001 63320 77472,77201,77175
 1.3000e+000 77403 -2.1672e+002 -3.9647e+001 -1.2406e+001 63320 77175,77305,77279
 1.3000e+000 77380 -1.7990e+002 -3.4759e+001  7.3748e+001 63320 77201,77253,77227
 1.3000e+000 77357 -2.0628e+002 -2.3881e+001 -5.0595e+001 63320 77175,77331,77305
 1.3000e+000 77498 -1.9219e+002 -4.3355e+001  3.1296e+001 63320 77279,77253,77472
 1.3000e+000 77521 -1.4732e+002 -3.0232e+001 -2.2400e+001 63320 77279,77472,77175
 1.3000e+000 77769 -2.8339e+002 -1.3559e+002  1.3626e-001 62816 77570,77622,77596
 1.3000e+000 77746 -2.5054e+002 -1.1555e+002 -1.5128e+001 62816 77570,77648,77622
 1.3000e+000 77723 -3.0830e+002 -1.2346e+002 -6.4909e+001 62816 77570,77674,77648
 1.3000e+000 77700 -2.7068e+002 -7.5842e+001 -4.0653e+001 62816 77544,77674,77570
 1.3000e+000 78149 -1.0441e+002 -8.1389e+001 -2.8129e+001 62354 77953,78031,78005
 1.3000e+000 78126 -1.6668e+002 -5.7085e+001 -4.5163e+001 62354 77901,78031,77953
 1.3000e+000 78103 -7.6782e+001 -1.5232e+001 -1.2954e+001 62354 77875,78031,77901
 1.3000e+000 78080 -2.5444e+002 -2.8918e+001  3.2002e+001 62354 77901,77953,77927
 1.3000e+000 78057 -1.6898e+002 -1.5943e+002  1.5546e+001 62354 77953,78005,77979
 1.3000e+000 78606 -1.0636e+002 -3.0839e+001 -3.6582e+001 61950 78384,78436,78410
 1.3000e+000 78583 -1.0410e+002 -9.2376e+000 -7.0067e+000 61950 78358,78436,78384
 1.3000e+000 78560 -9.5273e+001 -2.9955e+001  4.3281e+000 61950 78358,78488,78436
 1.3000e+000 78537 -6.9335e+001 -1.3136e+001 -1.4294e+001 61950 78436,78488,78462
 1.3000e+000 78514 -1.2797e+002 -4.7542e+001 -2.9801e+000 61950 78332,78488,78358
 1.3000e+000 78756 -3.0171e+002 -7.9764e+001  4.5744e+001 61339 78779,78655,78629
 1.3000e+000 78733 -2.7387e+002 -3.5367e+001  3.3268e+001 61339 78779,78629,78707
 1.3000e+000 78805 -2.3361e+002 -2.5455e+001  6.4915e+000 61339 78851,78779,78681
 1.3000e+000 78828 -2.7531e+002 -5.9835e+001  2.4389e+001 61339 78681,78779,78707
 1.3000e+000 78877 -2.8350e+002 -1.4680e+002  2.3081e+001 61339 78655,78779,78851
 1.3000e+000 79206 -2.3585e+002 -8.0425e+001 -8.0394e+001 60892 79229,79007,78981
 1.3000e+000 79183 -2.5790e+002 -1.1646e+002 -6.1338e+001 60892 79229,78981,79111
 1.3000e+000 79160 -2.7844e+002 -9.7373e+001 -6.6930e+001 60892 79301,79033,79007
 1.3000e+000 79137 -3.8914e+002 -2.4799e+001  1.2807e+001 60892 79033,79085,79059
 1.3000e+000 79255 -2.7677e+002 -9.5979e+001 -6.7614e+001 60892 79301,79007,79229
 1.3000e+000 79278 -2.4656e+002 -9.8575e+001 -4.9496e+001 60892 79085,79229,79111
 1.3000e+000 79327 -2.9568e+002 -1.1949e+002 -3.9258e+001 60892 79085,79033,79301
 1.3000e+000 79350 -2.5242e+002 -9.7733e+001 -4.6847e+001 60892 79085,79301,79229
 1.3000e+000 79647 -3.6564e+002 -1.3431e+002 -5.1914e+001 60488 79451,79529,79503
 1.3000e+000 79624 -3.7235e+002 -1.2152e+002 -2.3012e+001 60488 79425,79529,79451
 1.3000e+000 79601 -2.7396e+002 -8.5359e+001 -5.5478e+000 60488 79373,79529,79425
 1.3000e+000 79578 -2.4855e+002 -8.1434e+001  1.4736e+001 60488 79373,79425,79399
 1.3000e+000 79555 -3.8669e+002  4.2674e+000 -3.0047e+001 60488 79451,79503,79477
 1.3000e+000 79870 -3.2332e+002 -1.7595e+002 -1.9485e+001 60026 79720,79798,79772
 1.3000e+000 79847 -4.6426e+002 -1.9378e+002 -2.2889e+001 60026 79694,79798,79720
 1.3000e+000 79824 -4.3126e+002 -2.1335e+002  1.3100e+000 60026 79720,79772,79746
 1.3000e+000 80120 -1.3697e+002 -1.7010e+001  2.4460e+001 59629 79921,80025,79973
 1.3000e+000 80097 -1.5148e+002 -3.8752e+001  1.4102e+001 59629 79895,80025,79921
 1.3000e+000 80074 -1.1920e+002  1.3337e+000 -1.2200e+001 59629 79973,80025,79999
 1.3000e+000 80051 -7.8337e+001 -6.8254e+000  1.4464e+001 59629 79921,79973,79947
 1.3000e+000 80321 -1.6276e+002 -2.9546e+001 -8.0788e+000 59125 80344,80171,80145
 1.3000e+000 80298 -1.9129e+002 -5.7009e+001  5.6160e+000 59125 80344,80145,80249
 1.3000e+000 80275 -2.2291e+002 -6.6026e+001  3.8697e+001 59125 80197,80249,80223
 1.3000e+000 80370 -1.9911e+002 -1.3046e+001  1.5441e+001 59125 80197,80171,80344
 1.3000e+000 80393 -2.2492e+002 -3.6667e+001  2.8151e+001 59125 80197,80344,80249
 1.3000e+000 80952 -1.0758e+002 -3.2628e+001  6.6927e+000 58557 80975,80632,80606
 1.3000e+000 80929 -1.5998e+002 -3.3470e+001  1.4751e+001 58557 81119,80975,80606
 1.3000e+000 80906 -1.5129e+002 -3.8283e+001 -1.5064e+001 58557 81047,80684,80632
 1.3000e+000 80883 -1.8013e+002 -4.4114e+001  1.0019e+000 58557 81119,80606,80580
 1.3000e+000 80860 -1.7721e+002  2.9823e+001 -1.3859e+001 58557 81191,80736,80710
 1.3000e+000 80837 -1.8093e+002 -5.2015e+000 -2.8956e+001 58557 80736,80788,80762
 1.3000e+000 80814 -1.3484e+002 -5.2853e+001 -2.3186e+001 58557 80632,80684,80658
 1.3000e+000 81001 -1.4821e+002 -5.3638e+001 -5.1764e+000 58557 81047,80632,80975
 1.3000e+000 81024 -1.6909e+002 -9.7347e+000 -4.6461e-001 58557 81191,80710,80975
 1.3000e+000 81073 -1.4863e+002 -1.1332e+000 -2.6248e+001 58557 80710,80684,81047
 1.3000e+000 81096 -1.5891e+002 -2.6106e+001 -1.2061e+001 58557 80710,81047,80975
 1.3000e+000 81145 -1.7279e+002 -5.6165e+001  2.1047e+000 58557 80788,80975,81119
 1.3000e+000 81168 -1.7481e+002 -5.6499e+001 -9.2116e+000 58557 80788,81119,80580
 1.3000e+000 81217 -1.9560e+002 -5.0640e+000  5.9418e-001 58557 80788,80736,81191
 1.3000e+000 81240 -1.8183e+002 -3.0627e+001  1.5407e+001 58557 80788,81191,80975
 1.3000e+000 81537 -3.2016e+002 -9.5437e+001 -1.8598e+001 57881 81560,81341,81289
 1.3000e+000 81514 -2.7321e+002 -7.4190e+001 -6.1193e+001 57881 81560,81289,81263
 1.3000e+000 81491 -3.6749e+002 -9.8126e+001 -1.2829e+001 57881 81632,81419,81367
 1.3000e+000 81468 -3.4334e+002 -3.8813e+001 -4.0210e+000 57881 81367,81419,81393
 1.3000e+000 81445 -3.8032e+002 -9.3242e+001 -3.2946e+000 57881 81289,81341,81315
 1.3000e+000 81586 -3.2262e+002 -1.0979e+002 -1.3773e+001 57881 81367,81341,81560
 1.3000e+000 81609 -3.5619e+002 -9.0881e+001 -1.9659e+001 57881 81632,81367,81560
 1.3000e+000 81658 -3.3647e+002 -1.7699e+002  3.5559e-001 57881 81263,81419,81632
 1.3000e+000 81681 -2.9494e+002 -1.3079e+002 -2.0332e+001 57881 81263,81632,81560
 1.3000e+000 81929 -2.0406e+002 -1.1826e+002  4.5184e+001 57477 81704,81808,81782
 1.3000e+000 81906 -1.6585e+002 -6.8206e+001  2.3759e+001 57477 81704,81834,81808
 1.3000e+000 81883 -1.7831e+002 -2.4061e+001  5.4721e+001 57477 81704,81782,81730
 1.3000e+000 81860 -1.9673e+002 -5.8775e+001  6.7865e+001 57477 81730,81782,81756
 1.3000e+000 82488 -1.5599e+002 -6.3686e+001  4.8882e+000 56966 82583,82511,82194
 1.3000e+000 82465 -1.4132e+002 -2.3957e+001 -7.6840e+000 56966 82511,82116,82324
 1.3000e+000 82442 -1.6119e+002 -8.7454e+001  1.2380e+001 56966 82583,82194,82168
 1.3000e+000 82419 -2.1699e+002 -7.4914e+001  1.7792e+001 56966 82194,82246,82220
 1.3000e+000 82396 -1.5371e+002 -4.4037e+001  2.8846e+001 56966 82194,82298,82246
 1.3000e+000 82373 -1.8773e+002 -3.6408e+001  6.4123e+001 56966 82246,82298,82272
 1.3000e+000 82350 -1.4109e+002 -2.2967e+001 -5.0737e+000 56966 82116,82168,82142
 1.3000e+000 82537 -1.6329e+002 -4.6305e+001  2.1030e+001 56966 82298,82194,82511
 1.3000e+000 82560 -1.2126e+002 -2.8596e+001  2.7206e+001 56966 82298,82511,82324
 1.3000e+000 82609 -1.6422e+002 -3.5884e+001  1.2630e+000 56966 82116,82511,82583
 1.3000e+000 82632 -1.6250e+002 -5.3368e+001  5.8259e+000 56966 82116,82583,82168
 1.3000e+000 83236 -2.4982e+002 -1.0812e+002 -4.1807e+001 56304 82893,82945,82919
 1.3000e+000 83213 -2.6752e+002 -1.0760e+002 -5.3117e+001 56304 83259,82945,82893
 1.3000e+000 83190 -2.3885e+002 -5.2211e+001 -2.6021e+001 56304 83259,82893,83049
 1.3000e+000 83167 -1.5664e+002 -2.3892e+001  5.8406e+000 56304 82971,83049,83023
 1.3000e+000 83144 -2.1707e+002 -1.8425e+001 -1.2144e+001 56304 82815,83049,82893
 1.3000e+000 83121 -2.0513e+002 -1.0510e+001 -1.9350e+001 56304 82815,82893,82867
 1.3000e+000 83098 -1.0637e+002 -3.8759e+001 -2.4114e+001 56304 82971,83023,82997
 1.3000e+000 83075 -1.2172e+002 -1.4038e+001  5.4601e+001 56304 82815,82867,82841
 1.3000e+000 83285 -2.7200e+002 -2.8193e+001 -3.3735e+001 56304 82971,82945,83259
 1.3000e+000 83308 -2.6254e+002 -1.1952e+001 -3.7218e+000 56304 82971,83259,83049
 1.3000e+000 83556 -2.9784e+002 -1.1559e+002 -1.2785e+001 55964 83357,83461,83435
 1.3000e+000 83533 -2.5163e+002 -3.5153e+001  2.3090e+001 55964 83331,83461,83357
 1.3000e+000 83510 -1.2324e+002 -7.1263e+001 -8.2990e-001 55964 83357,83435,83383
 1.3000e+000 83487 -2.5470e+002 -1.2073e+002 -2.2538e+001 55964 83383,83435,83409
 1.3000e+000 83706 -2.9514e+002 -1.6614e+002 -1.4329e+001 55503 83579,83631,83605
 1.3000e+000 83683 -3.9362e+002 -1.5851e+002 -1.1937e+000 55503 83579,83657,83631
 1.3000e+000 83907 -2.4417e+002 -1.1764e+002 -4.7268e+001 55156 83757,83835,83809
 1.3000e+000 83884 -2.1097e+002 -1.7638e+001 -1.5412e+001 55156 83731,83835,83757
 1.3000e+000 83861 -2.9765e+002 -4.7080e+001 -3.9268e+001 55156 83757,83809,83783
 1.3000e+000 84240 -1.4999e+002 -3.8234e+001  1.8532e+001 54652 84093,84145,84119
 1.3000e+000 84217 -2.5958e+002 -1.7290e+001  6.8588e+001 54652 84041,84145,84093
 1.3000e+000 84194 -2.8780e+002 -4.7905e+001  4.7781e+001 54652 84015,84145,84041
 1.3000e+000 84171 -4.7261e+002 -1.0775e+002  6.5262e+001 54652 84041,84093,84067
 1.3000e+000 84618 -1.6638e+002 -1.0458e+002  2.8237e+001 53926 84396,84500,84474
 1.3000e+000 84595 -1.2355e+002 -1.1903e+002  5.1135e+001 53926 84344,84500,84396
 1.3000e+000 84572 -1.2269e+002 -1.1294e+002  5.5194e+001 53926 84344,84396,84370
 1.3000e+000 84549 -1.2580e+002 -7.4897e+001 -7.2786e+000 53926 84396,84474,84422
 1.3000e+000 84526 -2.2769e+002 -9.7641e+001 -3.7076e+001 53926 84422,84474,84448
 1.3000e+000 85350 -3.3311e+002 -1.1421e+002 -1.0010e+002 53586 85373,84880,85088
 1.3000e+000 85327 -1.3910e+002 -9.7955e+001 -1.0409e+002 53586 84880,85114,85088
 1.3000e+000 85304 -1.0769e+002 -1.5560e+001 -8.6424e+001 53586 85373,85088,85062
 1.3000e+000 85281 -3.0987e+002 -2.5942e+002  1.0369e+002 53586 85010,85062,85036
 1.3000e+000 85258 -3.5124e+002 -6.9654e+001 -1.0786e+001 53586 85445,85010,84958
 1.3000e+000 85235 -1.4719e+002  1.2730e+001 -1.5580e+001 53586 85445,84958,84906
 1.3000e+000 85212 -2.6058e+002 -8.9103e+001 -4.1565e+001 53586 84958,85010,84984
 1.3000e+000 85189 -2.6403e+002 -6.6923e+001 -7.5763e+001 53586 84906,84958,84932
 1.3000e+000 85166 -1.9113e+002 -1.8513e+002 -5.7189e+001 53586 84880,85140,85114
 1.3000e+000 85399 -4.0635e+002 -8.7926e+001  1.2309e+002 53586 84906,84880,85373
 1.3000e+000 85422 -2.2910e+002  1.4688e+000  9.2058e+001 53586 85517,85373,85062
 1.3000e+000 85471 -3.3934e+002 -5.4607e+001  1.0789e+002 53586 85062,85010,85445
 1.3000e+000 85494 -2.2093e+002  3.2248e+000  8.9448e+001 53586 85517,85062,85445
 1.3000e+000 85543 -2.1545e+002 -3.4351e+000  9.5109e+001 53586 84906,85373,85517
 1.3000e+000 85566 -2.1075e+002 -4.6795e+000  9.3310e+001 53586 84906,85517,85445
 1.3000e+000 86072 -1.7028e+002 -7.3147e+001 -2.1755e+001 53182 86095,85853,85775
 1.3000e+000 86049 -1.7761e+002 -6.7508e+001 -1.8816e+001 53182 86095,85775,85931
 1.3000e+000 86026 -1.9773e+002 -8.9965e+001 -2.6731e+001 53182 86167,85879,85853
 1.3000e+000 86003 -3.1908e+002 -1.0321e+002  1.6809e+001 53182 85775,85827,85801
 1.3000e+000 85980 -1.8661e+002 -1.1267e+002 -2.2061e+001 53182 85775,85853,85827
 1.3000e+000 85957 -1.2693e+002 -5.6417e+001  1.4946e+001 53182 85749,85931,85775
 1.3000e+000 86121 -1.8320e+002 -8.4114e+001 -2.6556e+001 53182 86167,85853,86095
 1.3000e+000 86144 -1.6551e+002 -7.3374e+001 -1.6914e+001 53182 85905,86095,85931
 1.3000e+000 86193 -1.9311e+002 -9.0430e+001 -1.3887e+001 53182 85905,85879,86167
 1.3000e+000 86216 -1.7974e+002 -8.4141e+001 -1.2177e+001 53182 85905,86167,86095
 1.3000e+000 86673 -2.1196e+002 -1.0369e+001  3.9826e+001 52778 86477,86529,86503
 1.3000e+000 86650 -2.1100e+002 -7.1363e+001  1.2294e+001 52778 86425,86529,86477
 1.3000e+000 86627 -1.7444e+002 -9.2771e+001  4.0159e+001 52778 86425,86477,86451
 1.3000e+000 86604 -1.3622e+002 -1.1835e+001  3.9760e+001 52778 86399,86529,86425
 1.3000e+000 86581 -8.6736e+001  2.2555e+001  1.0278e+001 52778 86399,86555,86529
 1.3000e+000 87258 -1.7752e+002 -2.9174e+001  1.8631e+001 52238 87281,86987,86961
 1.3000e+000 87235 -1.8255e+002 -4.3726e+001  5.3372e+000 52238 87281,86961,87117
 1.3000e+000 87212 -1.8304e+002  2.2036e+000  2.8218e+000 52238 86935,87117,86961
 1.3000e+000 87189 -2.0721e+002  7.5441e+000 -2.8080e+000 52238 87065,87117,87091
 1.3000e+000 87166 -2.0325e+002 -7.8390e+001  6.0408e+000 52238 86987,87065,87039
 1.3000e+000 87143 -2.3071e+002 -1.5442e+002  6.6580e+001 52238 86987,87039,87013
 1.3000e+000 87307 -1.8757e+002 -5.3980e+001  1.4710e+001 52238 87065,86987,87281
 1.3000e+000 87330 -1.8551e+002 -5.2718e+001  1.1171e+000 52238 87065,87281,87117
 1.3000e+000 87610 -2.1867e+002 -1.6440e+001  1.3217e+001 51834 87434,87512,87460
 1.3000e+000 87587 -1.8839e+002  2.3477e+001  7.3500e+001 51834 87434,87538,87512
 1.3000e+000 87564 -3.3135e+002 -1.1099e+002 -3.4648e+001 51834 87633,87460,87512
 1.3000e+000 87659 -4.3021e+002 -1.5342e+002 -3.9218e+001 51834 87486,87460,87633
 1.3000e+000 88187 -3.3658e+002 -1.1544e+002 -2.0926e+000 51266 87864,87942,87890
 1.3000e+000 88164 -3.1037e+002 -1.8029e+001  4.3877e+000 51266 87864,88020,87942
 1.3000e+000 88141 -5.1469e+002 -1.5314e+002 -9.1074e+001 51266 87942,88020,87968
 1.3000e+000 88118 -4.2153e+002 -1.5268e+002  6.3577e+001 51266 87864,88046,88020
 1.3000e+000 88095 -3.1534e+002 -2.6445e+001 -1.1365e+001 51266 87968,88020,87994
 1.3000e+000 88072 -2.9989e+002 -1.3611e+002 -3.3599e+001 51266 87890,87942,87916
 1.3000e+000 88644 -2.8669e+002 -1.2665e+002 -2.3749e+001 50754 88370,88500,88396
 1.3000e+000 88621 -2.9411e+002 -4.5921e+001 -4.1730e+001 50754 88370,88526,88500
 1.3000e+000 88598 -2.0415e+002 -4.8906e+001  3.7462e+001 50754 88396,88500,88422
 1.3000e+000 88575 -2.0599e+002 -5.1029e+001  3.6078e+001 50754 88422,88500,88474
 1.3000e+000 88552 -3.6117e+002 -1.5005e+002 -3.4555e+001 50754 88422,88474,88448
 1.3000e+000 88914 -3.1487e+002 -9.6413e+001 -5.2893e+000 50442 88715,88793,88741
 1.3000e+000 88891 -2.8521e+002 -1.0578e+002 -9.9855e+000 50442 88715,88819,88793
 1.3000e+000 88868 -3.6549e+002 -1.5445e+002 -3.1323e+001 50442 88689,88819,88715
 1.3000e+000 88845 -3.0741e+002 -1.3067e+002 -8.5052e+001 50442 88741,88793,88767
 1.3000e+000 89294 -3.9127e+002 -1.2115e+002 -1.7726e+001 49938 89317,89046,89020
 1.3000e+000 89271 -3.7101e+002 -1.3906e+002 -2.9149e+001 49938 89317,89020,89150
 1.3000e+000 89248 -3.0232e+002 -1.2688e+002  8.9204e-001 49938 89072,89150,89098
 1.3000e+000 89225 -3.9551e+002 -1.2252e+002 -5.9855e+001 49938 89020,89176,89150
 1.3000e+000 89202 -2.4459e+002 -1.0641e+002 -4.0973e+001 49938 89098,89150,89124
 1.3000e+000 89343 -3.0690e+002  1.5942e+001  1.8307e+001 49938 89072,89046,89317
 1.3000e+000 89366 -3.7704e+002 -1.2542e+002 -1.9729e+001 49938 89072,89317,89150
 1.3000e+000 89823 -2.4696e+002 -1.0204e+002 -5.9938e+000 49384 89601,89705,89679
 1.3000e+000 89800 -1.9837e+002 -5.6910e+001  3.7437e+001 49384 89549,89705,89601
 1.3000e+000 89777 -1.3232e+002 -3.6553e+001  1.6189e+001 49384 89549,89601,89575
 1.3000e+000 89754 -1.5986e+002 -8.2612e+001  5.6289e+000 49384 89601,89679,89627
 1.3000e+000 89731 -1.0992e+002 -7.4249e+000 -3.5542e+001 49384 89627,89679,89653
 1.3000e+000 90329 -1.4607e+002 -5.4414e+001 -6.4351e+000 48894 90058,90110,90084
 1.3000e+000 90306 -1.7988e+002 -6.3742e+001  6.4481e+001 48894 90058,90162,90110
 1.3000e+000 90283 -2.6629e+002 -4.7142e+001  3.6998e+001 48894 90032,90162,90058
 1.3000e+000 90260 -1.6255e+002  1.1129e+001 -1.5847e+001 48894 90006,90162,90032
 1.3000e+000 90237 -7.3066e+001 -2.1616e+001  8.4931e+000 48894 90110,90162,90136
 1.3000e+000 90214 -1.9971e+002 -4.1980e+000 -1.4311e+001 48894 90006,90188,90162
 1.3000e+000 90884 -3.0416e+002 -1.0905e+002  4.2185e+001 48490 90564,90642,90616
 1.3000e+000 90861 -2.8706e+002 -9.7505e+000 -1.2408e+001 48490 90564,90694,90642
 1.3000e+000 90838 -3.9794e+002 -4.4138e+001 -3.8484e+000 48490 90538,90694,90564
 1.3000e+000 90815 -4.7180e+002 -1.1305e+002  2.8381e+001 48490 90538,90720,90694
 1.3000e+000 90792 -2.7867e+002 -5.4132e+001  3.5401e+001 48490 90564,90616,90590
 1.3000e+000 90769 -3.0386e+002 -5.8709e+001 -2.3057e+001 48490 90642,90694,90668
 1.3000e+000 90746 -4.0023e+002 -9.4881e+001  1.2125e+001 48490 90512,90720,90538
 1.3000e+000 91034 -2.5001e+002 -3.0417e+001 -4.1723e+001 48086 91057,90959,90933
 1.3000e+000 91011 -2.5517e+002 -2.9573e+001 -4.9402e+001 48086 91129,91057,90933
 1.3000e+000 91083 -2.6192e+002 -1.1142e+001 -5.7498e+001 48086 90985,90959,91057
 1.3000e+000 91106 -2.3385e+002 -9.9756e+000 -4.4315e+001 48086 90985,91057,90907
 1.3000e+000 91155 -1.6166e+002  3.5899e-002 -5.2446e+001 48086 90907,91057,91129
 1.3000e+000 91791 -2.6680e+002 -4.7390e+001 -2.3805e+001 47518 92030,91814,91523
 1.3000e+000 91768 -2.0112e+002 -2.3261e+001 -2.1234e+001 47518 91958,91814,91471
 1.3000e+000 91745 -1.9387e+002  1.0532e+002 -7.3680e+000 47518 91886,91575,91523
 1.3000e+000 91722 -2.0841e+002 -5.8390e+001 -2.2265e+000 47518 91958,91471,91419
 1.3000e+000 91699 -3.3309e+002  2.4721e+001 -6.4447e+001 47518 92030,91523,91497
 1.3000e+000 91676 -3.2069e+002  1.2759e+002 -3.2152e+001 47518 91523,91575,91549
 1.3000e+000 91653 -1.5947e+002 -5.6413e+001 -2.0094e+001 47518 91419,91471,91445
 1.3000e+000 91840 -2.2442e+002  4.2892e+001 -4.1717e+001 47518 91886,91523,91814
 1.3000e+000 91863 -2.6022e+002 -9.2115e+001  1.7013e+001 47518 91601,91814,91627
 1.3000e+000 91912 -1.5416e+002  1.3357e+002  7.8937e+001 47518 91601,91575,91886
 1.3000e+000 91935 -1.9153e+002 -8.5382e-002  4.9067e+001 47518 91601,91886,91814
 1.3000e+000 91984 -2.2256e+002 -5.3106e+001 -6.6994e+000 47518 91627,91814,91958
 1.3000e+000 92007 -2.1449e+002 -7.2077e+001  9.7605e+000 47518 91627,91958,91419
 1.3000e+000 92056 -3.0320e+002 -1.2025e+002 -7.2910e+001 47518 91471,91814,92030
 1.3000e+000 92079 -3.6403e+002 -7.7638e+001 -1.1906e+002 47518 91471,92030,91497
 1.3000e+000 92229 -1.7887e+002 -7.4316e+001 -4.5917e+001 47128 92252,92128,92102
 1.3000e+000 92206 -2.2871e+002 -1.2003e+002 -1.4119e+001 47128 92324,92252,92102
 1.3000e+000 92278 -2.2448e+002 -1.7091e+002 -3.8527e+001 47128 92454,92252,92154
 1.3000e+000 92301 -2.1250e+002 -7.5327e+001 -2.3826e+001 47128 92154,92252,92180
 1.3000e+000 92350 -1.8694e+002 -6.0655e+001  5.5824e+000 47128 92180,92252,92324
 1.3000e+000 92480 -2.0801e+002 -7.7432e+001 -1.9501e+001 47128 92128,92252,92454
 1.3000e+000 93340 -3.0549e+002 -1.8462e+001  3.7343e+001 46838 93363,92977,92873
 1.3000e+000 93317 -4.0280e+002 -5.3410e+001  7.3977e+000 46838 93507,93363,92873
 1.3000e+000 93294 -3.4667e+002 -1.0511e+002 -9.8518e+000 46838 93435,93003,92977
 1.3000e+000 93271 -4.4373e+002 -9.4016e+001 -1.1410e+001 46838 93507,92873,92847
 1.3000e+000 93248 -3.4208e+002 -8.1092e+001 -1.7796e+001 46838 93579,93029,93003
 1.3000e+000 93225 -2.3618e+002 -5.1588e+001 -8.6861e+000 46838 92873,92951,92925
 1.3000e+000 93202 -2.2983e+002 -6.0231e+001  2.4701e+000 46838 92873,92977,92951
 1.3000e+000 93179 -4.6484e+002 -1.3490e+002  4.5949e+001 46838 93055,93107,93081
 1.3000e+000 93156 -6.3366e+002 -2.3456e+002 -2.1772e+001 46838 92821,93107,92847
 1.3000e+000 93133 -2.2340e+002 -8.9753e+001  1.5958e+001 46838 92873,92925,92899
 1.3000e+000 93389 -3.6492e+002 -8.7958e+001 -1.2061e+000 46838 93435,92977,93363
 1.3000e+000 93412 -3.3754e+002 -4.7970e+001 -2.9838e-001 46838 93055,93363,93107
 1.3000e+000 93461 -3.3689e+002 -8.2187e+001 -1.1608e+001 46838 93579,93003,93435
 1.3000e+000 93484 -3.5199e+002 -5.5245e+001 -8.0787e+000 46838 93055,93435,93363
 1.3000e+000 93533 -3.6227e+002 -1.1582e+002  2.6974e+000 46838 93107,93363,93507
 1.3000e+000 93556 -3.6811e+002 -1.3064e+002 -1.5262e+000 46838 93107,93507,92847
 1.3000e+000 93605 -3.5599e+002 -8.6014e+001 -1.9933e+001 46838 93055,93029,93579
 1.3000e+000 93628 -3.5008e+002 -8.7045e+001 -1.3990e+001 46838 93055,93579,93435
 1.3000e+000 93979 -2.6003e+002  6.5820e+001  3.3391e+001 46476 93780,93884,93858
 1.3000e+000 93956 -3.0801e+002 -1.7965e+001  1.3954e+001 46476 93754,93884,93780
 1.3000e+000 93933 -6.1331e+002 -2.5297e+001 -6.6797e-001 46476 93806,93858,93832
 1.3000e+000 93910 -5.9816e+002 -7.3957e+001  4.0071e+001 46476 93780,93858,93806
 1.3000e+000 94515 -2.5782e+002 -8.5524e+001  3.2949e+001 46072 94345,94397,94371
 1.3000e+000 94492 -1.5239e+002 -3.9166e+001  2.4454e+001 46072 94267,94397,94345
 1.3000e+000 94469 -1.3792e+002  3.0895e+000  2.0462e+001 46072 94241,94397,94267
 1.3000e+000 94446 -7.4888e+001 -1.7435e+000 -3.1128e+001 46072 94293,94345,94319
 1.3000e+000 94423 -1.5267e+002  1.0349e+001  2.4824e+001 46072 94267,94345,94293
 1.3000e+000 95149 -1.8047e+002 -4.0860e+001 -1.9987e+001 45346 94803,94881,94855
 1.3000e+000 95126 -1.8221e+002 -3.8889e+001 -2.1136e+001 45346 94803,94959,94881
 1.3000e+000 95103 -1.1597e+002 -1.9675e+001 -1.4772e+001 45346 95172,94933,94907
 1.3000e+000 95080 -1.4830e+002 -2.0296e+001 -4.8509e-001 45346 95172,94907,94881
 1.3000e+000 95057 -1.6056e+002 -9.9074e+001 -5.2522e+001 45346 94803,94985,94959
 1.3000e+000 95034 -1.8392e+002 -2.2852e+001 -1.4883e+001 45346 94803,94855,94829
 1.3000e+000 95011 -1.9625e+002 -2.2183e+002 -1.7472e+002 45346 94777,94985,94803
 1.3000e+000 95198 -1.4602e+002 -1.5601e+001 -1.7116e+001 45346 94959,94933,95172
 1.3000e+000 95221 -1.7081e+002 -8.2880e+000 -9.5155e+000 45346 94959,95172,94881
 1.3000e+000 95776 -1.2100e+002 -1.8960e+001  6.4935e+001 44720 95799,95560,95534
 1.3000e+000 95753 -1.6695e+002 -4.2029e+001  7.9210e+001 44720 95799,95534,95482
 1.3000e+000 95730 -2.1376e+002 -2.5232e+001  7.7364e+001 44720 95943,95871,95430
 1.3000e+000 95707 -2.2695e+002 -1.9583e+000  7.9894e+001 44720 95943,95430,95404
 1.3000e+000 95684 -3.5527e+002 -8.6857e+001  8.8195e+001 44720 95430,95482,95456
 1.3000e+000 95661 -6.8857e+001 -1.8634e+001  4.4380e+001 44720 95482,95534,95508
 1.3000e+000 95638 -1.9221e+002  1.5574e+000  9.4051e+001 44720 95404,95612,95586
 1.3000e+000 95825 -1.6653e+002  5.0964e+000  7.1771e+001 44720 95586,95560,95799
 1.3000e+000 95848 -1.7497e+002 -1.0900e+001  7.5130e+001 44720 95871,95586,95799
 1.3000e+000 95897 -2.0094e+002 -3.1027e+001  6.0286e+001 44720 95482,95430,95871
 1.3000e+000 95920 -1.9519e+002 -1.4084e+001  6.3424e+001 44720 95482,95871,95799
 1.3000e+000 95969 -1.8770e+002  4.9376e-001  6.5883e+001 44720 95586,95871,95943
 1.3000e+000 95992 -2.1286e+002  1.0422e+001  7.2515e+001 44720 95586,95943,95404
 1.3000e+000 96449 -1.8276e+002 -2.9661e+001  1.3620e+001 44202 96544,96472,96227
 1.3000e+000 96426 -2.1684e+002 -1.2353e+002  4.0769e+001 44202 96472,96175,96331
 1.3000e+000 96403 -2.4277e+002  1.4371e+001  3.8993e+000 44202 96544,96227,96201
 1.3000e+000 96380 -4.2717e+001 -1.0462e+001 -3.1925e+001 44202 96253,96305,96279
 1.3000e+000 96357 -1.3179e+002 -2.8557e+000  2.0066e+001 44202 96227,96305,96253
 1.3000e+000 96498 -1.8262e+002 -6.9588e+001 -2.5822e+000 44202 96305,96227,96472
 1.3000e+000 96521 -1.9131e+002 -5.6645e+001  2.8761e+001 44202 96305,96472,96331
 1.3000e+000 96570 -2.3306e+002 -1.0724e+002 -1.0936e+001 44202 96175,96472,96544
 1.3000e+000 96593 -2.6730e+002 -3.0869e+001 -1.2298e+001 44202 96175,96544,96201
 1.3000e+000 96971 -2.9735e+002 -1.7824e+002  2.5037e+001 43754 96994,96749,96697
 1.3000e+000 96948 -3.0902e+002 -1.8324e+002  2.6696e+001 43754 96994,96697,96853
 1.3000e+000 96925 -2.7833e+002 -1.9145e+002  1.3479e+001 43754 96697,96749,96723
 1.3000e+000 96902 -2.7166e+002 -1.0026e+002 -1.0733e+001 43754 96775,96853,96827
 1.3000e+000 96879 -1.8315e+002 -9.6725e+001  1.1067e+000 43754 96775,96827,96801
 1.3000e+000 97020 -2.9933e+002 -1.6552e+002  1.0006e+001 43754 96775,96749,96994
 1.3000e+000 97043 -3.1946e+002 -1.7549e+002  1.4430e+001 43754 96775,96994,96853
 1.3000e+000 97291 -2.0878e+002 -2.8697e+001 -2.5158e+001 43364 97314,97144,97118
 1.3000e+000 97268 -2.3380e+002 -5.8607e+001 -3.8321e+001 43364 97314,97118,97092
 1.3000e+000 97245 -1.8466e+002 -6.2315e+001 -1.5978e+001 43364 97386,97196,97170
 1.3000e+000 97222 -2.1194e+002 -9.6474e+001 -3.9263e+001 43364 97066,97196,97092
 1.3000e+000 97340 -2.2284e+002 -6.3923e+001 -1.8181e+001 43364 97170,97144,97314
 1.3000e+000 97363 -1.9326e+002 -5.3509e+001 -2.3830e+001 43364 97386,97170,97314
 1.3000e+000 97412 -1.8986e+002 -7.1711e+001 -2.8581e+001 43364 97092,97196,97386
 1.3000e+000 97435 -2.0661e+002 -7.3129e+001 -3.7828e+001 43364 97092,97386,97314
 1.3000e+000 97788 -1.9518e+002  4.5480e+000 -1.4432e+001 42960 97563,97667,97589
 1.3000e+000 97765 -3.3565e+002 -1.2719e+002  4.0035e+001 42960 97563,97693,97667
 1.3000e+000 97742 -4.6526e+002  1.2571e+001 -6.6714e+000 42960 97589,97641,97615
 1.3000e+000 97719 -4.4464e+002 -6.1618e+001 -2.2482e+001 42960 97589,97667,97641
 1.3000e+000 98215 -1.8915e+002 -6.1119e+001 -8.9582e+001 42563 97918,98074,98048
 1.3000e+000 98192 -1.0258e+002  1.3127e+001 -4.8186e+001 42563 97892,98074,97918
 1.3000e+000 98169 -2.0596e+002 -1.9452e+001 -9.9588e+001 42563 98238,97944,97918
 1.3000e+000 98146 -2.4248e+002 -1.0371e+002 -7.1069e+001 42563 98238,97918,98048
 1.3000e+000 98123 -2.3565e+002 -4.6523e+001 -5.7620e+001 42563 97944,98022,97996
 1.3000e+000 98100 -2.2589e+002  4.1856e-002 -2.1420e+001 42563 97944,97996,97970
 1.3000e+000 98264 -2.3912e+002 -7.8299e+001 -5.7464e+001 42563 98022,97944,98238
 1.3000e+000 98287 -2.4793e+002 -1.0984e+002 -3.0617e+001 42563 98022,98238,98048
 1.3000e+000 98616 -1.7355e+002 -9.0667e+001 -1.1728e+001 42251 98443,98521,98469
 1.3000e+000 98593 -2.0838e+002 -8.0288e+001  1.2164e+001 42251 98417,98521,98443
 1.3000e+000 98570 -2.0124e+002 -6.9808e+001 -4.3331e+001 42251 98391,98521,98417
 1.3000e+000 98547 -1.6719e+002 -6.5994e+001 -4.7388e+001 42251 98469,98521,98495
 1.3000e+000 98886 -5.3927e+002 -1.8991e+002 -9.5955e+000 41847 98661,98765,98687
 1.3000e+000 98863 -5.4210e+002 -1.8540e+002 -1.3697e+001 41847 98661,98791,98765
 1.3000e+000 98840 -5.5012e+002 -2.0807e+002 -1.4326e+001 41847 98687,98765,98739
 1.3000e+000 98817 -5.0677e+002 -1.9166e+002 -1.4158e+001 41847 98687,98739,98713
 1.3000e+000 99394 -1.9660e+002 -2.5448e+000  3.2308e+001 41236 99417,99149,99123
 1.3000e+000 99371 -2.9252e+002 -4.2028e+001  2.3481e+001 41236 99417,99123,99097
 1.3000e+000 99348 -2.2252e+002 -5.8380e+001 -1.0392e+001 41236 99489,99201,99149
 1.3000e+000 99325 -2.2315e+002 -6.6979e+001 -2.4866e+001 41236 99149,99201,99175
 1.3000e+000 99302 -3.3975e+002 -5.2093e+001 -1.0566e+001 41236 99097,99253,99227
 1.3000e+000 99279 -5.3038e+002 -1.6706e+002 -5.8550e+001 41236 99071,99253,99097
 1.3000e+000 99443 -2.3651e+002 -4.9215e+001 -1.1457e+001 41236 99489,99149,99417
 1.3000e+000 99466 -2.5185e+002 -3.0098e+001 -1.4380e+001 41236 99227,99417,99097
 1.3000e+000 99515 -2.1788e+002 -4.9194e+001 -1.5487e+001 41236 99227,99201,99489
 1.3000e+000 99538 -2.2253e+002 -3.2276e+001 -1.9402e+001 41236 99227,99489,99417
 1.3000e+000 100044 -7.2971e+001  6.8526e+000  8.4562e+001 40732 99721,99773,99747
 1.3000e+000 100021 -1.8677e+002  2.7615e+001  2.7889e+001 40732 99721,99799,99773
 1.3000e+000 99998 -1.6776e+002 -1.6382e+001  1.6722e+001 40732 99721,99903,99799
 1.3000e+000 99975 -1.4254e+002 -2.3501e+001 -3.0030e+001 40732 100067,99877,99851
 1.3000e+000 99952 -1.6517e+002 -5.3657e+001 -1.9785e+001 40732 100067,99851,99799
 1.3000e+000 99929 -2.1950e+002 -5.0129e+001 -5.1065e+001 40732 99799,99851,99825
 1.3000e+000 100093 -1.6732e+002  1.1151e+001 -1.4951e+001 40732 99903,99877,100067
 1.3000e+000 100116 -2.0029e+002 -3.3329e+001 -3.7657e-001 40732 99903,100067,99799
 1.3000e+000 100622 -3.1612e+002 -3.6819e+001  4.4159e+001 40278 100645,100455,100429
 1.3000e+000 100599 -3.6122e+002 -5.6157e+001  5.3373e+001 40278 100717,100645,100429
 1.3000e+000 100576 -4.1983e+002 -8.2163e+001  1.0953e+001 40278 100717,100429,100377
 1.3000e+000 100553 -2.8894e+002 -1.1512e+002  3.6372e+001 40278 100789,100325,100481
 1.3000e+000 100530 -2.8023e+002 -4.2281e+001  6.1574e+001 40278 100299,100481,100325
 1.3000e+000 100507 -3.3208e+002 -7.6384e+001  1.1016e+001 40278 100377,100429,100403
 1.3000e+000 100671 -3.3023e+002 -2.0234e+000  5.3525e+001 40278 100481,100455,100645
 1.3000e+000 100694 -3.1766e+002 -8.2341e+001  4.6380e+000 40278 100789,100481,100645
 1.3000e+000 100743 -3.9132e+002 -7.6004e+001 -5.3185e+001 40278 100351,100645,100717
 1.3000e+000 100766 -5.2744e+002 -1.2863e+002 -9.3722e+001 40278 100351,100717,100377
 1.3000e+000 100815 -2.5977e+002 -1.0232e+002  1.4231e+000 40278 100351,100325,100789
 1.3000e+000 100838 -2.6358e+002 -3.8241e+001 -3.2716e+001 40278 100351,100789,100645
 1.3000e+000 101265 -2.7842e+002 -8.9706e+001  3.0702e+000 39824 101288,101046,100994
 1.3000e+000 101242 -3.0750e+002 -1.1335e+002 -1.1198e+001 39824 101288,100994,100968
 1.3000e+000 101219 -3.6031e+002 -7.9257e+001  1.8662e+001 39824 100942,101124,100968
 1.3000e+000 101196 -2.3002e+002 -2.2278e+001  6.6628e+000 39824 101046,101124,101072
 1.3000e+000 101173 -2.4965e+002 -1.1418e+002 -6.1565e+001 39824 100994,101046,101020
 1.3000e+000 101150 -1.4000e+002 -1.9129e+001  7.6430e+000 39824 101072,101124,101098
 1.3000e+000 101314 -2.6377e+002 -1.0220e+002  1.3599e+001 39824 101124,101046,101288
 1.3000e+000 101337 -2.7808e+002 -1.0620e+002  4.0565e+000 39824 101124,101288,100968
 1.3000e+000 101585 -2.5383e+002 -1.5879e+002  6.0444e+001 39070 101608,101464,101412
 1.3000e+000 101562 -2.4913e+002 -1.2440e+002  5.7204e+001 39070 101608,101412,101360
 1.3000e+000 101539 -2.3266e+002 -1.5833e+002  5.5448e+001 39070 101412,101464,101438
 1.3000e+000 101516 -2.5380e+002 -1.4739e+002  5.7760e+001 39070 101360,101412,101386
 1.3000e+000 101634 -2.6435e+002 -1.4709e+002  3.7202e+001 39070 101490,101464,101608
 1.3000e+000 101657 -2.5131e+002 -1.0042e+002  3.3849e+001 39070 101490,101608,101360
 1.3000e+000 101856 -4.6239e+002 -6.3656e+001 -2.0859e+001 38730 101706,101758,101732
 1.3000e+000 101833 -4.6483e+002 -1.2123e+002  6.4456e-002 38730 101706,101784,101758
 1.3000e+000 101810 -4.2752e+002 -1.4932e+002 -4.4316e+001 38730 101680,101784,101706
 1.3000e+000 102106 -2.6157e+002 -7.3876e+001  1.2725e+001 38326 101881,101959,101907
 1.3000e+000 102083 -2.8891e+002 -7.7451e+001  5.1774e+001 38326 101881,101985,101959
 1.3000e+000 102060 -1.7866e+002 -6.0752e+001  5.1442e+001 38326 101881,102011,101985
 1.3000e+000 102037 -3.3106e+002 -4.7046e+001 -1.1487e+001 38326 101907,101959,101933
 1.3000e+000 102258 -2.2412e+002 -5.3404e+001  1.4341e+001 38036 102281,102157,102131
 1.3000e+000 102235 -2.2155e+002 -1.5174e+000 -1.1998e+001 38036 102281,102131,102209
 1.3000e+000 102307 -1.9911e+002 -1.0250e+002  1.0172e+001 38036 102183,102157,102281
 1.3000e+000 102330 -2.0600e+002 -6.8163e+001 -2.3591e+001 38036 102183,102281,102209
 1.3000e+000 102663 -1.6654e+002 -3.3818e+001  3.3187e+001 37596 102438,102542,102464
 1.3000e+000 102640 -1.0366e+002 -1.8337e+001  1.0831e+001 37596 102438,102568,102542
 1.3000e+000 102617 -1.6380e+002 -7.1746e+000  6.0672e+001 37596 102490,102542,102516
 1.3000e+000 102594 -1.5042e+002 -2.5497e+001  3.9548e+001 37596 102464,102542,102490
 1.3000e+000 102862 -2.0292e+002  3.9770e+000  8.1580e+000 37192 102686,102764,102712
 1.3000e+000 102839 -1.9654e+002  1.3268e+001  3.9001e+000 37192 102686,102790,102764
 1.3000e+000 102816 -1.3471e+002 -4.5668e+001  3.1461e+001 37192 102712,102764,102738
 1.3000e+000 103110 -2.1333e+002 -2.8182e+001 -1.6774e+001 36609 102911,102963,102937
 1.3000e+000 103087 -2.1204e+002 -3.5317e+001 -1.0209e+001 36609 102911,102989,102963
 1.3000e+000 103064 -2.2255e+002 -6.5668e+001 -2.5480e+001 36609 102885,102989,102911
 1.3000e+000 103041 -2.3052e+002 -1.6133e+001 -5.5129e+001 36609 102885,103015,102989
 1.3000e+000 103718 -6.3435e+001 -1.0426e+001  6.7586e+000 36131 103323,103375,103349
 1.3000e+000 103695 -1.6687e+002 -4.6229e+000  1.3579e+001 36131 103297,103375,103323
 1.3000e+000 103672 -1.9485e+002 -8.1152e+001  2.7597e+000 36131 103297,103505,103375
 1.3000e+000 103649 -1.8646e+002 -6.8908e+001  1.9288e+001 36131 103741,103479,103401
 1.3000e+000 103626 -1.7892e+002 -5.1508e+001  2.2270e+001 36131 103741,103401,103375
 1.3000e+000 103603 -2.2009e+002 -4.3802e+001  8.0431e+000 36131 103401,103479,103427
 1.3000e+000 103580 -1.9957e+002 -5.4755e+001 -2.1814e+001 36131 103297,103531,103505
 1.3000e+000 103557 -1.9213e+002 -2.9397e+000 -2.3307e+001 36131 103427,103479,103453
 1.3000e+000 103767 -1.8540e+002 -8.1324e+001  6.2935e+000 36131 103505,103479,103741
 1.3000e+000 103790 -1.7819e+002 -6.5717e+001  9.6551e+000 36131 103505,103741,103375
 1.3000e+000 103989 -4.2328e+002 -9.8663e+001  1.0285e+001 35791 103839,103917,103891
 1.3000e+000 103966 -4.1730e+002 -1.3717e+002  3.0285e+000 35791 103813,103917,103839
 1.3000e+000 103943 -3.4345e+002 -1.4667e+001 -3.3810e+001 35791 103839,103891,103865
 1.3000e+000 104188 -2.1441e+002 -9.1637e+001 -2.6403e+001 35444 104038,104090,104064
 1.3000e+000 104165 -2.3465e+002 -6.0836e+001  3.4434e+001 35444 104038,104116,104090
 1.3000e+000 104142 -2.5709e+002 -1.6518e+001  3.3306e+001 35444 104012,104116,104038
 1.3000e+000 104487 -2.9998e+002 -7.6358e+001 -2.7268e+001 34990 104265,104317,104291
 1.3000e+000 104464 -2.3582e+002 -5.7402e+001 -1.9604e+001 34990 104510,104317,104265
 1.3000e+000 104441 -1.7290e+002 -3.4745e+001 -6.5877e+000 34990 104510,104265,104213
 1.3000e+000 104418 -2.5931e+002 -2.3226e+001  1.3860e+001 34990 104582,104343,104317
 1.3000e+000 104395 -1.5980e+002 -6.0991e+000 -1.3189e+001 34990 104213,104265,104239
 1.3000e+000 104536 -2.6063e+002 -2.3886e+001 -1.5209e+000 34990 104582,104317,104510
 1.3000e+000 104559 -2.2175e+002 -2.7823e+001  3.9516e+000 34990 104369,104510,104213
 1.3000e+000 104608 -2.1962e+002  3.6646e+000  2.5802e+001 34990 104369,104343,104582
 1.3000e+000 104631 -2.3919e+002 -1.4639e+001  2.6398e+000 34990 104369,104582,104510
 1.3000e+000 104783 -3.1336e+002 -9.3223e+001 -2.1036e+001 34700 104938,104806,104682
 1.3000e+000 104760 -2.9923e+002 -8.1982e+001 -8.0671e+000 34700 104938,104682,104656
 1.3000e+000 104832 -2.2030e+002 -2.5952e+001  1.0126e+001 34700 104708,104682,104806
 1.3000e+000 104964 -3.2700e+002 -1.0351e+002 -3.2025e+001 34700 104734,104806,104938
 1.3000e+000 104987 -3.1478e+002 -9.5273e+001 -1.9535e+001 34700 104734,104938,104656
 1.3000e+000 105137 -4.2082e+002 -4.0664e+000 -5.3681e+000 34388 105036,105088,105062
 1.3000e+000 105114 -4.2599e+002 -1.0547e+002 -2.3586e+001 34388 105010,105088,105036
 1.3000e+000 105385 -3.0787e+002 -6.1188e+001  2.8081e+001 33734 105408,105186,105160
 1.3000e+000 105362 -3.0358e+002 -5.9943e+001  2.5044e+001 33734 105408,105160,105264
 1.3000e+000 105339 -3.5612e+002 -1.3133e+001  1.0657e+001 33734 105160,105290,105264
 1.3000e+000 105316 -2.8716e+002 -7.8898e+001  6.3597e+001 33734 105186,105238,105212
 1.3000e+000 105434 -3.0346e+002 -6.5833e+001  2.3864e+001 33734 105238,105186,105408
 1.3000e+000 105457 -2.9121e+002 -5.5354e+001  1.8645e+001 33734 105238,105408,105264
 1.3000e+000 105609 -2.0980e+002 -2.7133e+001 -6.6864e+001 33394 105482,105534,105508
 1.3000e+000 105586 -1.8910e+002 -2.1226e+001 -6.7016e+001 33394 105482,105560,105534
 1.3000e+000 105859 -4.1105e+002 -5.9556e+001 -6.0532e+001 33047 105882,105712,105660
 1.3000e+000 105836 -4.5149e+002 -4.8677e+001 -2.0792e+001 33047 105882,105660,105634
 1.3000e+000 105813 -3.0110e+002 -8.1065e+001  1.4048e+000 33047 105660,105712,105686
 1.3000e+000 105790 -3.2874e+002 -3.3490e+001 -5.3484e+001 33047 105634,105764,105738
 1.3000e+000 105908 -3.1723e+002  7.0439e+000 -9.7215e+001 33047 105738,105712,105882
 1.3000e+000 105931 -4.1539e+002 -3.8405e+001 -4.5322e+001 33047 105738,105882,105634
 1.3000e+000 106181 -2.5399e+002 -6.5270e+001  3.5521e+001 32543 106204,106060,106008
 1.3000e+000 106158 -2.2573e+002 -9.4261e+001  2.2553e+001 32543 105956,106086,106060
 1.3000e+000 106135 -2.3495e+002 -2.6260e+001  2.7578e+001 32543 106204,106008,105982
 1.3000e+000 106112 -2.7059e+002 -1.4806e+002  1.9427e+001 32543 106008,106060,106034
 1.3000e+000 106230 -2.3775e+002 -7.9849e+001  8.1453e+000 32543 105956,106060,106204
 1.3000e+000 106253 -2.1645e+002 -4.1973e+001 -9.4941e-001 32543 105956,106204,105982
 1.3000e+000 106454 -2.9585e+002 -1.2123e+002 -7.1730e+001 31839 106304,106356,106330
 1.3000e+000 106431 -3.2232e+002 -8.8355e+001  7.1229e+000 31839 106278,106356,106304
 1.3000e+000 106408 -2.4824e+002 -5.4713e+001 -1.2317e+001 31839 106278,106382,106356
 1.3000e+000 106704 -1.4694e+002 -2.3408e+001  9.7169e+000 31534 106505,106583,106557
 1.3000e+000 106681 -1.5245e+002 -2.5570e+001  9.5014e+000 31534 106479,106583,106505
 1.3000e+000 106658 -1.8917e+002 -4.8331e+001  2.1535e+001 31534 106505,106557,106531
 1.3000e+000 106635 -2.1500e+002 -4.9210e+001  6.9386e+000 31534 106479,106609,106583
 1.3000e+000 107108 -5.1445e+002  6.1424e+001 -1.0967e+002 31030 106886,106990,106964
 1.3000e+000 107085 -3.8219e+002 -5.8661e+001 -3.4615e+001 31030 106860,106990,106886
 1.3000e+000 107062 -3.5717e+002 -3.9681e+001 -2.0514e+001 31030 106834,106990,106860
 1.3000e+000 107039 -7.7916e+002 -2.7443e+002  5.7823e+001 31030 106912,106964,106938
 1.3000e+000 107016 -8.3024e+002 -6.5990e+001 -1.0053e+002 31030 106886,106964,106912
 1.3000e+000 107307 -4.3509e+002  1.3317e+001 -7.2780e+000 30718 107330,107157,107131
 1.3000e+000 107284 -3.6757e+002  9.5255e-001 -2.5598e+001 30718 107330,107131,107235
 1.3000e+000 107261 -2.9099e+002 -1.3420e+001  2.4033e+001 30718 107183,107235,107209
 1.3000e+000 107356 -3.6842e+002 -2.7230e+000  1.0191e+001 30718 107183,107157,107330
 1.3000e+000 107379 -3.0438e+002 -1.6875e+001 -1.3743e+001 30718 107183,107330,107235
 1.3000e+000 107759 -2.5638e+002 -9.7468e+001  3.3852e+001 30264 107782,107615,107537
 1.3000e+000 107736 -2.4857e+002 -7.9170e+001  3.2228e+001 30264 107782,107537,107485
 1.3000e+000 107713 -3.3639e+002 -5.2778e+001  4.2440e+001 30264 107485,107537,107511
 1.3000e+000 107690 -2.0217e+002 -3.7980e+001  5.9040e+001 30264 107537,107615,107589
 1.3000e+000 107667 -1.8436e+002 -6.6374e+001  4.1243e+001 30264 107537,107589,107563
 1.3000e+000 107808 -2.5828e+002 -9.2685e+001  1.9801e+001 30264 107641,107615,107782
 1.3000e+000 107831 -2.5031e+002 -7.2511e+001  1.9172e+001 30264 107641,107782,107485
 1.3000e+000 108030 -2.8642e+002 -1.0878e+002  2.9306e+001 29874 108053,107854,107932
 1.3000e+000 108007 -2.3295e+002 -5.4807e+001  1.8051e+000 29874 107854,107958,107932
 1.3000e+000 107984 -3.1070e+002 -7.6531e+001  6.3631e+001 29874 108053,107932,107906
 1.3000e+000 108079 -2.8006e+002 -6.7100e+001  3.0068e+001 29874 107880,107854,108053
 1.3000e+000 108102 -3.0004e+002 -2.3350e+001  5.4121e+001 29874 107880,108053,107906
 1.3000e+000 108433 -1.5376e+002 -5.4455e+001  1.8535e+000 29484 108234,108338,108312
 1.3000e+000 108410 -2.0866e+002 -4.2783e+001  5.5704e+001 29484 108208,108338,108234
 1.3000e+000 108387 -2.2839e+002 -5.9153e+001 -8.4711e+000 29484 108234,108312,108260
 1.3000e+000 108364 -2.0959e+002 -8.2567e+001 -1.0500e+001 29484 108260,108312,108286
 1.3000e+000 108762 -1.5258e+002 -8.6498e+001  1.1362e+001 29080 108563,108641,108589
 1.3000e+000 108739 -1.2590e+002 -6.6413e+001  3.6044e+001 29080 108537,108641,108563
 1.3000e+000 108716 -2.5003e+002 -2.5463e+001  8.8311e+001 29080 108589,108641,108615
 1.3000e+000 108693 -4.7840e+001 -3.9398e+001  1.5368e+001 29080 108537,108667,108641
 1.3000e+000 109189 -2.8327e+002 -7.7462e+001  2.4902e+001 28476 108892,108996,108970
 1.3000e+000 109166 -3.4226e+002 -6.6429e+001  2.4203e+001 28476 108892,109022,108996
 1.3000e+000 109143 -2.9101e+002 -1.0283e+002  2.7329e+001 28476 108892,108970,108944
 1.3000e+000 109120 -3.8769e+002 -7.4508e+001  2.5358e+001 28476 108892,109048,109022
 1.3000e+000 109097 -3.0632e+002 -1.2259e+002  1.5821e+001 28476 108892,108944,108918
 1.3000e+000 109074 -4.8117e+002 -5.0229e+001 -3.9000e+001 28476 108866,109048,108892
 1.3000e+000 109518 -1.7400e+002 -4.6311e+001  3.6664e+001 28022 109541,109371,109345
 1.3000e+000 109495 -2.0786e+002  7.9396e+000 -1.6349e+001 28022 109541,109345,109319
 1.3000e+000 109472 -1.4012e+002  2.8154e+001 -1.8955e+001 28022 109293,109397,109319
 1.3000e+000 109449 -1.6933e+002 -4.9229e+000  1.0551e+001 28022 109293,109423,109397
 1.3000e+000 109567 -3.2137e+001  1.5342e+001  2.9641e+001 28022 109397,109371,109541
 1.3000e+000 109590 -1.6632e+002  1.9091e+001 -1.5716e+001 28022 109397,109541,109319
 1.3000e+000 109968 -3.1622e+002 -1.6550e+002 -3.9443e+001 27568 109798,109850,109824
 1.3000e+000 109945 -2.8647e+002 -7.7015e+001 -3.8280e+001 27568 109694,109850,109798
 1.3000e+000 109922 -2.3882e+002 -1.5414e+002 -2.2283e+001 27568 109694,109798,109746
 1.3000e+000 109899 -2.6484e+002 -1.4200e+002  9.9734e+001 27568 109746,109798,109772
 1.3000e+000 109876 -1.7286e+002 -3.7404e+001  1.5299e+001 27568 109694,109746,109720
 1.3000e+000 110167 -2.4224e+002 -5.3581e+001 -3.5602e+000 27007 110017,110095,110069
 1.3000e+000 110144 -2.2513e+002 -9.7932e+000  7.0991e-001 27007 109991,110095,110017
 1.3000e+000 110121 -2.4445e+002 -1.9849e+001  4.1646e+001 27007 110017,110069,110043
 1.3000e+000 110415 -1.3171e+002 -6.4266e+001  1.6212e+001 26567 110438,110242,110190
 1.3000e+000 110392 -1.8224e+002  4.8593e+000 -7.9472e+000 26567 110438,110190,110320
 1.3000e+000 110369 -1.9583e+002 -5.1855e+001  1.3525e+001 26567 110242,110294,110268
 1.3000e+000 110346 -1.0137e+002 -5.9651e+000 -6.6716e+000 26567 110190,110242,110216
 1.3000e+000 110464 -1.5828e+002 -7.4997e+001 -1.2668e+000 26567 110294,110242,110438
 1.3000e+000 110487 -2.2415e+002 -5.7928e+001 -4.0028e+001 26567 110294,110438,110320
 1.3000e+000 110639 -3.7423e+002 -1.0548e+001 -5.2799e+001 26170 110538,110590,110564
 1.3000e+000 110616 -3.1698e+002 -4.3213e+001 -1.6276e+001 26170 110512,110590,110538
 1.3000e+000 111149 -3.5483e+002 -1.0831e+002  1.0761e+002 25716 111172,110878,110852
 1.3000e+000 111126 -3.0586e+002 -5.6791e+001  8.4475e+001 25716 111172,110852,111008
 1.3000e+000 111103 -4.0667e+002 -1.1424e+002  2.0729e+002 25716 110878,110930,110904
 1.3000e+000 111080 -2.7397e+002 -6.0735e+001  6.1598e+001 25716 110826,111008,110852
 1.3000e+000 111057 -2.3906e+002 -1.4736e+002  5.0052e+001 25716 110930,111008,110956
 1.3000e+000 111034 -2.2797e+002 -1.1793e+002  2.7079e+001 25716 110956,111008,110982
 1.3000e+000 111198 -3.0006e+002 -1.7327e+002  1.2646e+002 25716 110930,110878,111172
 1.3000e+000 111221 -2.4105e+002 -1.1832e+002  9.9736e+001 25716 110930,111172,111008
 1.3000e+000 111420 -4.1859e+002 -8.6568e+001  1.1258e+001 25304 111443,111270,111244
 1.3000e+000 111397 -4.3252e+002 -5.3900e+001  1.2295e+001 25304 111443,111244,111348
 1.3000e+000 111374 -4.3121e+002 -1.2527e+002 -3.0887e+001 25304 111270,111322,111296
 1.3000e+000 111469 -4.2708e+002 -1.0325e+002  7.3580e+000 25304 111322,111270,111443
 1.3000e+000 111492 -4.4820e+002 -7.8729e+001  5.1679e+000 25304 111322,111443,111348
 1.3000e+000 111691 -1.7250e+002 -5.4636e+001 -1.8940e+001 24736 111567,111619,111593
 1.3000e+000 111668 -1.7472e+002 -3.2960e+000 -4.5389e+001 24736 111541,111619,111567
 1.3000e+000 111645 -1.8242e+002  4.0600e+001 -1.9025e+001 24736 111515,111619,111541
 1.3000e+000 112024 -5.2080e+001 -1.1461e+001  1.1033e+001 24146 111825,111877,111851
 1.3000e+000 112001 -6.7696e+001  6.7277e+000 -9.1956e+000 24146 111825,111903,111877
 1.3000e+000 111978 -1.0511e+002 -7.3867e+001  6.6912e+000 24146 111825,111929,111903
 1.3000e+000 111955 -1.1411e+002 -1.1211e+002 -1.7958e+001 24146 111799,111929,111825
 1.3000e+000 112370 -2.3463e+002 -9.1427e+001  4.2419e+001 23856 112393,112151,112125
 1.3000e+000 112347 -2.1575e+002 -5.2239e+001  4.8319e+001 23856 112465,112393,112125
 1.3000e+000 112324 -2.1848e+002 -3.9052e+001  5.9831e+001 23856 112465,112125,112073
 1.3000e+000 112301 -2.9459e+002 -7.1459e+001  8.4004e+001 23856 112073,112125,112099
 1.3000e+000 112278 -2.3801e+002 -9.6218e+001  2.8575e+001 23856 112047,112229,112073
 1.3000e+000 112255 -2.2327e+002 -9.3436e+001 -1.8746e+001 23856 112151,112203,112177
 1.3000e+000 112419 -2.4808e+002 -7.5079e+001  1.6812e+001 23856 112203,112151,112393
 1.3000e+000 112442 -2.3901e+002 -6.4422e+001  2.0919e+001 23856 112203,112393,112229
 1.3000e+000 112491 -2.3688e+002 -7.0765e+001  2.1404e+001 23856 112229,112393,112465
 1.3000e+000 112514 -2.2904e+002 -3.8832e+001  3.3410e+001 23856 112229,112465,112073
 1.3000e+000 112784 -4.3663e+002  1.2694e+002 -6.1256e+001 23494 112611,112663,112637
 1.3000e+000 112761 -3.2822e+002 -2.8119e+001 -3.4950e+001 23494 112585,112663,112611
 1.3000e+000 112738 -4.1921e+002 -6.6007e+001  3.5142e+001 23494 112559,112663,112585
 1.3000e+000 112715 -3.6314e+002  1.3847e+002  6.5314e+001 23494 112559,112689,112663
 1.3000e+000 113117 -3.3699e+002 -4.0521e+001 -8.1497e+001 22974 112944,113022,112996
 1.3000e+000 113094 -2.8476e+002 -1.0512e+002 -5.6425e+001 22974 112918,113022,112944
 1.3000e+000 113071 -3.7668e+002 -1.5972e+002 -1.0384e+002 22974 112944,112996,112970
 1.3000e+000 113048 -2.6028e+002 -1.8082e+001 -7.6425e+001 22974 112892,113022,112918
 1.3000e+000 113414 -3.4978e+002 -1.0962e+002 -5.5426e+000 22370 113192,113296,113218
 1.3000e+000 113391 -4.0017e+002 -1.6243e+002 -2.6170e+001 22370 113140,113296,113192
 1.3000e+000 113368 -3.5499e+002 -1.1716e+002  1.4429e+001 22370 113218,113296,113270
 1.3000e+000 113345 -3.1772e+002 -1.2025e+002  5.3034e+001 22370 113218,113270,113244
 1.3000e+000 113322 -3.3225e+002 -2.8841e+001 -5.7448e+001 22370 113140,113192,113166
 1.3000e+000 113662 -2.4490e+002 -3.1834e+001  2.7632e+001 21916 113685,113515,113489
 1.3000e+000 113639 -2.9672e+002 -7.6790e+001  7.7151e+000 21916 113685,113489,113437
 1.3000e+000 113616 -2.2696e+002 -7.3322e+001 -5.1040e+000 21916 113757,113567,113541
 1.3000e+000 113593 -2.8371e+002 -4.0643e+001 -8.2719e+000 21916 113437,113489,113463
 1.3000e+000 113711 -2.7830e+002 -9.9537e+001  1.5852e+001 21916 113541,113515,113685
 1.3000e+000 113734 -2.6006e+002 -9.4822e+001  4.1489e+000 21916 113757,113541,113685
 1.3000e+000 113783 -2.7361e+002 -6.6794e+001 -2.9430e+000 21916 113437,113567,113757
 1.3000e+000 113806 -2.7669e+002 -6.6181e+001 -3.1774e+000 21916 113437,113757,113685
 1.3000e+000 114056 -2.4996e+002 -7.8935e+001 -2.0474e+001 21412 113857,113909,113883
 1.3000e+000 114033 -2.4372e+002 -5.4397e+001 -1.9120e+001 21412 114079,113909,113857
 1.3000e+000 114010 -2.7258e+002 -7.4307e+001 -5.9566e+000 21412 114079,113857,113961
 1.3000e+000 113987 -2.5442e+002 -7.8179e+001 -7.6740e+000 21412 113831,113961,113857
 1.3000e+000 114105 -2.6833e+002 -2.8217e+001 -3.4276e+001 21412 113935,113909,114079
 1.3000e+000 114128 -2.8896e+002 -4.8836e+001 -2.3232e+001 21412 113935,114079,113961
 1.3000e+000 114378 -1.6840e+002 -3.7476e+001 -2.5956e+000 21022 114401,114257,114205
 1.3000e+000 114355 -1.9258e+002 -4.2982e+001 -3.9296e+001 21022 114401,114205,114179
 1.3000e+000 114332 -1.6854e+002 -3.2265e+000 -4.3250e+000 21022 114153,114283,114179
 1.3000e+000 114309 -1.8214e+002 -4.3327e+001 -5.2513e+000 21022 114205,114257,114231
 1.3000e+000 114427 -1.1793e+002 -2.5427e+001  1.4158e+001 21022 114283,114257,114401
 1.3000e+000 114450 -1.5439e+002 -3.5025e+001 -2.1260e+001 21022 114283,114401,114179
 1.3000e+000 114651 -1.6140e+002 -2.4307e+001 -1.4394e+001 20618 114501,114553,114527
 1.3000e+000 114628 -7.7367e+001 -2.7974e+000  7.5466e+000 20618 114501,114579,114553
 1.3000e+000 114605 -1.8176e+002 -2.4976e+001 -1.2550e+001 20618 114475,114579,114501
 1.3000e+000 114901 -4.3356e+002 -5.3298e+001 -5.0340e+001 20114 114676,114780,114702
 1.3000e+000 114878 -3.2464e+002 -7.6082e+000 -5.7167e+001 20114 114676,114806,114780
 1.3000e+000 114855 -4.6966e+002 -2.3445e+001 -4.1255e+001 20114 114702,114780,114754
 1.3000e+000 114832 -1.1497e+003 -2.1712e+002 -6.8410e+001 20114 114702,114754,114728
 1.3000e+000 115053 -3.4904e+002 -6.0501e+001  4.1365e-001 19460 115147,115076,114926
 1.3000e+000 115030 -3.5717e+002 -4.5440e+001 -3.9366e+000 19460 115147,114926,115004
 1.3000e+000 115102 -3.6018e+002 -7.5327e+001  6.1886e+000 19460 114952,114926,115076
 1.3000e+000 115173 -3.5282e+002 -8.8150e+001 -8.8730e-001 19460 114978,115076,115147
 1.3000e+000 115196 -3.5691e+002 -6.8215e+001 -7.1412e+000 19460 114978,115147,115004
 1.3000e+000 115446 -5.1652e+002 -8.5242e+001  5.9553e+001 19006 115273,115351,115299
 1.3000e+000 115423 -4.6218e+002 -1.7703e+002  1.7828e+001 19006 115247,115351,115273
 1.3000e+000 115400 -4.9123e+002 -1.8717e+002  3.5557e+001 19006 115221,115351,115247
 1.3000e+000 115377 -3.0268e+002 -4.6212e+001 -1.1716e+002 19006 115299,115351,115325
 1.3000e+000 115767 -1.4135e+002 -6.7723e+000  1.2470e+001 18716 115571,115649,115623
 1.3000e+000 115744 -1.5849e+002 -3.7592e+001  5.5826e+000 18716 115493,115649,115571
 1.3000e+000 115721 -1.5999e+002 -1.1237e+001  8.3494e+000 18716 115493,115571,115545
 1.3000e+000 115698 -1.7171e+002 -2.1535e+001 -9.8825e+000 18716 115493,115545,115519
 1.3000e+000 115675 -5.5006e+001  2.1626e+001 -3.3318e+000 18716 115571,115623,115597
 1.3000e+000 116039 -2.8567e+002 -7.7835e+001  1.4130e+001 18312 115814,115892,115840
 1.3000e+000 116016 -2.8346e+002 -7.3966e+001  1.6721e+001 18312 115814,115944,115892
 1.3000e+000 115993 -2.9345e+002 -1.9305e+001  2.1411e+001 18312 115892,115944,115918
 1.3000e+000 115970 -1.3982e+002 -1.0957e+001 -2.4942e+000 18312 115840,115892,115866
 1.3000e+000 116191 -4.6378e+002 -1.7687e+002 -2.9581e+000 18000 116090,116142,116116
 1.3000e+000 116168 -4.3424e+002 -1.4593e+002  1.2305e+001 18000 116064,116142,116090
 1.3000e+000 116343 -1.9981e+002  1.0176e+001 -4.2379e+000 17396 116242,116294,116268
 1.3000e+000 116320 -2.5303e+002  9.1694e+000 -3.9329e+000 17396 116216,116294,116242
 1.3000e+000 116566 -3.2863e+002 -1.4662e+002  2.3634e+001 16942 116390,116468,116442
 1.3000e+000 116543 -5.1074e+002 -1.7124e+002  5.3474e+001 16942 116390,116494,116468
 1.3000e+000 116520 -3.5434e+002 -2.0681e+002  8.1715e+000 16942 116390,116442,116416
 1.3000e+000 116767 -1.5586e+002  1.4835e+001  9.1364e+000 16438 116790,116643,116617
 1.3000e+000 116744 -1.9713e+002 -1.7824e+001 -5.6352e+000 16438 116790,116617,116591
 1.3000e+000 116721 -9.9176e+001 -1.0862e+001 -2.3008e+001 16438 116643,116695,116669
 1.3000e+000 116816 -1.3581e+002 -8.8486e+000  1.9934e+001 16438 116695,116643,116790
 1.3000e+000 116839 -1.4906e+002 -1.5518e+001  1.2403e+001 16438 116695,116790,116591
 1.3000e+000 117062 -5.3901e+001 -4.4556e+000 -1.1695e+000 16074 116886,116938,116912
 1.3000e+000 117039 -9.7292e+001 -2.2994e+001  1.9001e+000 16074 116886,116990,116938
 1.3000e+000 117016 -9.5189e+001 -5.5174e+000  2.2893e+000 16074 116938,116990,116964
 1.3000e+000 117214 -4.2910e+002 -2.0022e+002 -2.7343e+001 15649 117087,117139,117113
 1.3000e+000 117191 -5.1391e+002 -2.4757e+002  3.1581e+000 15649 117087,117165,117139
 1.3000e+000 117317 -1.2028e+001 -4.5065e+001  7.6339e+000 421 117239,117291,117265
 1.4000e+000 70632  2.7066e+001 -2.3289e+000  1.7567e+001 70072 70482,70534,70508
 1.4000e+000 70609  1.0432e+001 -3.8075e+001  1.2824e+001 70072 70482,70560,70534
 1.4000e+000 70586 -3.4498e+001 -5.5883e+001  8.2884e+000 70072 70456,70560,70482
 1.4000e+000 70951 -2.4391e+002 -1.6602e+002  0.0000e+000 69874 70703,70755,70729
 1.4000e+000 70928 -2.6642e+002 -1.7564e+002 -1.7984e-003 69874 70703,70781,70755
 1.4000e+000 70905 -2.7184e+002 -1.6294e+002 -2.1256e+000 69874 70703,70807,70781
 1.4000e+000 70882 -2.7984e+002 -1.8585e+002  7.7897e+000 69874 70703,70833,70807
 1.4000e+000 70859 -1.5351e+002 -1.2913e+002 -8.0461e+000 69874 70677,70833,70703
 1.4000e+000 71199 -1.1946e+002 -4.3199e+001  1.4671e+001 69698 71222,71052,71026
 1.4000e+000 71176 -1.1387e+002 -3.6405e+001  1.7086e+001 69698 71294,71222,71026
 1.4000e+000 71153 -1.1206e+002 -3.0003e+001  1.4142e+001 69698 71294,71026,71000
 1.4000e+000 71130 -1.5622e+002 -4.0980e+001 -4.5592e+000 69698 71366,71104,71078
 1.4000e+000 71248 -1.1600e+002 -3.8216e+001  1.2773e+001 69698 71078,71052,71222
 1.4000e+000 71271 -1.2934e+002 -4.7937e+001  5.5484e+000 69698 71366,71078,71222
 1.4000e+000 71320 -1.0877e+002 -3.0470e+001  1.0712e+001 69698 70974,71222,71294
 1.4000e+000 71343 -1.0797e+002 -2.8718e+001  7.7890e+000 69698 70974,71294,71000
 1.4000e+000 71392 -1.2592e+002 -1.5326e+001  6.3981e+000 69698 70974,71104,71366
 1.4000e+000 71415 -1.1307e+002 -3.1135e+001  1.3327e+001 69698 70974,71366,71222
 1.4000e+000 71516 -1.3759e+002 -4.3651e+000  1.4150e+001 69386 71438,71490,71464
 1.4000e+000 71869 -5.4602e+001  2.3650e+001 -1.3587e+001 69188 71644,71748,71670
 1.4000e+000 71846  1.5041e+001  1.6076e+001  2.2670e+001 69188 71644,71774,71748
 1.4000e+000 71823 -5.0208e+001 -1.8356e+001 -2.7129e+001 69188 71670,71748,71722
 1.4000e+000 71800 -8.9160e+000  2.7014e+000 -6.8441e+000 69188 71670,71722,71696
 1.4000e+000 72019 -3.8115e+002 -7.1493e+001  4.4557e+001 68990 71918,71970,71944
 1.4000e+000 71996 -4.6444e+002 -3.4823e+001  2.8799e+001 68990 71892,71970,71918
 1.4000e+000 72316 -1.7825e+002  1.0475e+001  5.6311e+000 68586 72339,72172,72146
 1.4000e+000 72293 -1.9504e+002 -2.5871e+001  1.0984e+001 68586 72339,72146,72120
 1.4000e+000 72270 -1.9539e+002 -4.0566e+001  4.6712e+001 68586 72411,72068,72198
 1.4000e+000 72247 -2.2482e+002 -1.6324e+001  6.0044e+001 68586 72042,72198,72068
 1.4000e+000 72224 -1.4525e+002 -3.6993e+000 -2.3064e+001 68586 72068,72120,72094
 1.4000e+000 72365 -1.9242e+002  2.0763e+001  3.7633e+001 68586 72198,72172,72339
 1.4000e+000 72388 -2.1153e+002 -2.3657e+001  3.9717e+001 68586 72411,72198,72339
 1.4000e+000 72437 -1.7885e+002 -2.4791e+001  3.1863e+001 68586 72120,72068,72411
 1.4000e+000 72460 -1.9276e+002 -1.3827e+000  2.5571e+001 68586 72120,72411,72339
 1.4000e+000 72864 -4.5817e+001 -1.1905e+000 -1.0885e+001 68388 72642,72694,72668
 1.4000e+000 72841 -9.0323e+001 -3.4349e+001  2.2194e+001 68388 72616,72694,72642
 1.4000e+000 72818 -1.1440e+002 -3.0976e+001 -4.3222e+000 68388 72616,72720,72694
 1.4000e+000 72795 -1.6750e+002 -4.7968e+001  2.2527e+001 68388 72590,72720,72616
 1.4000e+000 72772 -2.3370e+002  8.8651e+000 -6.3265e+001 68388 72590,72746,72720
 1.4000e+000 73321 -1.3133e+002 -5.5020e+001 -7.3744e-001 68048 73073,73203,73177
 1.4000e+000 73298 -1.3490e+002 -4.8286e+001  8.8332e+000 68048 73047,73203,73073
 1.4000e+000 73275 -1.7075e+002 -1.8976e+001  1.0786e+001 68048 73125,73177,73151
 1.4000e+000 73252 -1.5882e+002 -2.1397e+001  1.8455e+000 68048 73073,73177,73125
 1.4000e+000 73229 -1.3256e+002 -1.3838e+001  1.4282e+001 68048 73073,73125,73099
 1.4000e+000 73640 -2.4299e+002 -8.4009e+000 -7.8001e+000 67850 73444,73496,73470
 1.4000e+000 73617 -1.9377e+002 -5.7487e+001 -2.8625e+000 67850 73418,73496,73444
 1.4000e+000 73594 -1.8219e+002 -2.9234e+001 -1.5880e+000 67850 73392,73496,73418
 1.4000e+000 73571 -1.3622e+002 -2.4553e+001  1.4611e+001 67850 73392,73522,73496
 1.4000e+000 73548 -1.0642e+002 -4.1653e+000 -2.2260e+001 67850 73366,73522,73392
 1.4000e+000 73790 -2.1762e+002 -6.6943e+001 -3.4023e+000 67602 73689,73741,73715
 1.4000e+000 73767 -1.9105e+002 -5.1309e+000  2.2418e-001 67602 73663,73741,73689
 1.4000e+000 74040 -2.6370e+002 -4.9763e+001 -8.7423e+000 67290 73841,73945,73919
 1.4000e+000 74017 -1.5804e+002 -8.0006e+001 -3.9808e+001 67290 73815,73945,73841
 1.4000e+000 73994 -2.3168e+002 -3.8437e+001  1.5611e+001 67290 73841,73919,73867
 1.4000e+000 73971 -2.1757e+002 -1.0423e+001  2.5220e+001 67290 73867,73919,73893
 1.4000e+000 74143 -2.6582e+002 -1.6141e+002  2.6177e+001 67092 74065,74117,74091
 1.4000e+000 74415 -1.8625e+002 -9.3200e+001 -3.0700e+001 66894 74190,74294,74216
 1.4000e+000 74392 -1.6399e+002 -7.3457e+001  1.5246e+001 66894 74190,74320,74294
 1.4000e+000 74369 -1.7344e+002 -4.3134e+001 -3.5516e+001 66894 74216,74294,74242
 1.4000e+000 74346 -1.8595e+002 -2.8344e+001 -2.9833e+001 66894 74242,74294,74268
 1.4000e+000 75023 -7.6409e+001 -9.6859e+001  2.7141e+001 66532 74654,74836,74810
 1.4000e+000 75000 -6.0409e+001 -2.8326e+001  5.6475e+001 66532 74628,74836,74654
 1.4000e+000 74977 -1.0258e+002  2.8884e+000 -3.3524e+000 66532 74706,74784,74732
 1.4000e+000 74954 -1.6823e+002  2.6690e+000 -5.4760e+001 66532 74680,74784,74706
 1.4000e+000 74931 -2.6953e+002 -1.3988e+001 -6.3075e+001 66532 74680,74810,74784
 1.4000e+000 74908 -1.1841e+002 -1.2861e+001  6.9651e+001 66532 74654,74810,74680
 1.4000e+000 74885 -6.8302e+001 -7.3927e+001  3.2506e+001 66532 74602,74836,74628
 1.4000e+000 74862 -7.1937e+001 -1.7922e+001 -1.8950e+001 66532 74732,74784,74758
 1.4000e+000 75222 -2.1090e+002 -3.0411e+001  2.0193e+001 66242 75072,75150,75124
 1.4000e+000 75199 -1.9174e+002 -4.0023e+001  1.4656e+001 66242 75046,75150,75072
 1.4000e+000 75176 -2.4043e+002 -3.8153e+001  7.1868e-001 66242 75072,75124,75098
 1.4000e+000 75470 -2.7986e+002  1.1083e+001  6.1785e+000 65838 75297,75375,75349
 1.4000e+000 75447 -2.9508e+002 -2.2716e+001 -3.4774e-001 65838 75271,75375,75297
 1.4000e+000 75424 -2.1039e+002  8.4049e+001  5.6133e+001 65838 75297,75349,75323
 1.4000e+000 75401 -2.5270e+002  5.1694e+000  2.7391e+001 65838 75245,75375,75271
 1.4000e+000 75671 -1.5882e+002 -6.8900e+001 -5.1062e+001 65640 75495,75573,75521
 1.4000e+000 75648 -1.2990e+002 -7.4747e+001 -2.0163e+001 65640 75495,75599,75573
 1.4000e+000 75625 -1.4130e+002 -2.6905e+001 -2.3792e+001 65640 75521,75573,75547
 1.4000e+000 75872 -1.6593e+002 -4.9917e+001 -3.3997e+000 65300 75895,75748,75722
 1.4000e+000 75849 -1.4967e+002 -4.7788e+001 -3.4531e+000 65300 75895,75722,75696
 1.4000e+000 75826 -1.7070e+002 -3.1307e+001 -1.4037e+001 65300 75967,75774,75748
 1.4000e+000 75921 -1.6741e+002 -3.5845e+001  2.6781e+000 65300 75967,75748,75895
 1.4000e+000 75944 -1.6308e+002 -3.3885e+001  1.7690e+001 65300 75800,75895,75696
 1.4000e+000 75993 -1.9908e+002 -3.7800e+001 -9.1244e+000 65300 75800,75774,75967
 1.4000e+000 76016 -1.9747e+002 -4.5383e+001  4.3623e+000 65300 75800,75967,75895
 1.4000e+000 76371 -1.6031e+002  1.0870e+001  2.0493e+000 64896 76146,76250,76172
 1.4000e+000 76348 -1.6491e+002  8.2642e-001  3.0960e+000 64896 76146,76276,76250
 1.4000e+000 76325 -1.2968e+002  2.1449e+001 -1.0397e+001 64896 76172,76250,76198
 1.4000e+000 76302 -3.9041e+002 -9.0633e+001 -4.2635e+001 64896 76198,76250,76224
 1.4000e+000 76570 -3.1880e+002 -6.1914e+001  7.1027e+001 64442 76446,76498,76472
 1.4000e+000 76547 -2.5555e+002 -1.0239e+000  4.0848e-001 64442 76420,76498,76446
 1.4000e+000 76524 -2.4508e+002 -2.6396e+001  1.6901e+001 64442 76394,76498,76420
 1.4000e+000 76999 -1.4667e+002  4.5502e+000 -1.4381e+001 63924 77022,76728,76702
 1.4000e+000 76976 -1.7502e+002 -2.2403e+001  3.1962e+000 63924 77022,76702,76832
 1.4000e+000 76953 -1.7096e+002  5.0265e+000 -6.2288e+001 63924 76728,76806,76754
 1.4000e+000 76930 -2.6600e+002 -5.5301e+001  5.4902e+000 63924 76676,76832,76702
 1.4000e+000 76907 -2.7127e+002  1.0527e+002 -5.9133e+001 63924 76754,76806,76780
 1.4000e+000 76884 -2.6552e+002  3.8930e+001 -2.7351e+000 63924 76676,76858,76832
 1.4000e+000 77048 -1.8868e+002  3.4664e+001 -1.3278e+001 63924 76806,76728,77022
 1.4000e+000 77071 -2.1262e+002  1.2723e+001  3.3391e+000 63924 76806,77022,76832
 1.4000e+000 77449 -1.2177e+002  3.2838e+001  1.7197e+001 63320 77472,77253,77201
 1.4000e+000 77426 -1.0825e+002  2.8336e-001 -1.9425e+001 63320 77472,77201,77175
 1.4000e+000 77403 -1.8277e+002 -3.6693e+001 -5.0386e+000 63320 77175,77305,77279
 1.4000e+000 77380 -1.4687e+002 -2.9540e+001  6.9626e+001 63320 77201,77253,77227
 1.4000e+000 77357 -1.6969e+002 -2.2110e+001 -3.5801e+001 63320 77175,77331,77305
 1.4000e+000 77498 -1.5815e+002 -3.5723e+001  3.1149e+001 63320 77279,77253,77472
 1.4000e+000 77521 -1.2117e+002 -2.4988e+001 -1.4938e+001 63320 77279,77472,77175
 1.4000e+000 77769 -2.3868e+002 -1.3589e+002  6.5296e+000 62816 77570,77622,77596
 1.4000e+000 77746 -1.9968e+002 -9.8320e+001 -1.0959e+001 62816 77570,77648,77622
 1.4000e+000 77723 -2.4999e+002 -1.0607e+002 -5.2442e+001 62816 77570,77674,77648
 1.4000e+000 77700 -2.1673e+002 -6.5681e+001 -3.2038e+001 62816 77544,77674,77570
 1.4000e+000 78149 -8.1777e+001 -6.8029e+001 -2.3299e+001 62354 77953,78031,78005
 1.4000e+000 78126 -1.4251e+002 -4.8596e+001 -4.0369e+001 62354 77901,78031,77953
 1.4000e+000 78103 -6.5286e+001 -1.1135e+001  6.7220e-001 62354 77875,78031,77901
 1.4000e+000 78080 -2.2076e+002 -2.2940e+001  2.8348e+001 62354 77901,77953,77927
 1.4000e+000 78057 -1.4784e+002 -1.2363e+002  4.3732e+000 62354 77953,78005,77979
 1.4000e+000 78606 -8.8849e+001 -2.2360e+001 -2.8963e+001 61950 78384,78436,78410
 1.4000e+000 78583 -8.5726e+001 -4.6864e+000 -5.4332e+000 61950 78358,78436,78384
 1.4000e+000 78560 -7.2311e+001 -2.2420e+001  4.5892e+000 61950 78358,78488,78436
 1.4000e+000 78537 -5.0092e+001 -7.0596e+000 -1.1136e+001 61950 78436,78488,78462
 1.4000e+000 78514 -1.0818e+002 -4.3796e+001 -4.4782e+000 61950 78332,78488,78358
 1.4000e+000 78756 -2.3434e+002 -5.9571e+001  3.8909e+001 61339 78779,78655,78629
 1.4000e+000 78733 -2.1864e+002 -1.6494e+001  3.1033e+001 61339 78779,78629,78707
 1.4000e+000 78805 -1.8557e+002 -1.9912e+001  1.0726e+001 61339 78851,78779,78681
 1.4000e+000 78828 -2.2249e+002 -4.3435e+001  2.1143e+001 61339 78681,78779,78707
 1.4000e+000 78877 -2.2669e+002 -1.1821e+002  1.8721e+001 61339 78655,78779,78851
 1.4000e+000 79206 -1.9691e+002 -8.2746e+001 -6.1942e+001 60892 79229,79007,78981
 1.4000e+000 79183 -2.1312e+002 -1.0918e+002 -4.7979e+001 60892 79229,78981,79111
 1.4000e+000 79160 -2.3415e+002 -9.2856e+001 -5.6696e+001 60892 79301,79033,79007
 1.4000e+000 79137 -3.2705e+002 -1.8848e+001  1.0141e+001 60892 79033,79085,79059
 1.4000e+000 79255 -2.3034e+002 -9.5801e+001 -5.3964e+001 60892 79301,79007,79229
 1.4000e+000 79278 -2.0289e+002 -9.4280e+001 -3.8329e+001 60892 79085,79229,79111
 1.4000e+000 79327 -2.4345e+002 -1.0014e+002 -3.5011e+001 60892 79085,79033,79301
 1.4000e+000 79350 -2.0709e+002 -8.8130e+001 -3.6393e+001 60892 79085,79301,79229
 1.4000e+000 79647 -3.1404e+002 -1.1321e+002 -4.3367e+001 60488 79451,79529,79503
 1.4000e+000 79624 -3.2012e+002 -1.0571e+002 -2.0856e+001 60488 79425,79529,79451
 1.4000e+000 79601 -2.2468e+002 -7.5253e+001 -5.8255e+000 60488 79373,79529,79425
 1.4000e+000 79578 -2.1059e+002 -6.9160e+001  4.5025e+000 60488 79373,79425,79399
 1.4000e+000 79555 -3.3448e+002  5.1396e+000 -2.4762e+001 60488 79451,79503,79477
 1.4000e+000 79870 -2.7138e+002 -1.5199e+002 -2.2222e+001 60026 79720,79798,79772
 1.4000e+000 79847 -3.9153e+002 -1.6219e+002 -2.2707e+001 60026 79694,79798,79720
 1.4000e+000 79824 -3.6171e+002 -1.8208e+002 -1.5799e+000 60026 79720,79772,79746
 1.4000e+000 80120 -1.1463e+002 -2.8379e+001  2.5325e+001 59629 79921,80025,79973
 1.4000e+000 80097 -1.3210e+002 -4.9860e+001  1.5481e+001 59629 79895,80025,79921
 1.4000e+000 80074 -9.6769e+001 -4.0362e+000 -2.4918e+000 59629 79973,80025,79999
 1.4000e+000 80051 -5.9770e+001 -1.4749e+001  1.4809e+001 59629 79921,79973,79947
 1.4000e+000 80321 -1.3588e+002 -2.7828e+001 -1.0498e+001 59125 80344,80171,80145
 1.4000e+000 80298 -1.6136e+002 -5.2295e+001  1.7719e+000 59125 80344,80145,80249
 1.4000e+000 80275 -1.8763e+002 -5.9960e+001  3.2756e+001 59125 80197,80249,80223
 1.4000e+000 80370 -1.6834e+002 -1.3392e+001  1.0454e+001 59125 80197,80171,80344
 1.4000e+000 80393 -1.9137e+002 -3.4431e+001  2.1846e+001 59125 80197,80344,80249
 1.4000e+000 80952 -8.2625e+001 -2.3561e+001  7.3110e+000 58557 80975,80632,80606
 1.4000e+000 80929 -1.3257e+002 -2.5055e+001  1.5237e+001 58557 81119,80975,80606
 1.4000e+000 80906 -1.2443e+002 -3.1292e+001 -1.0068e+001 58557 81047,80684,80632
 1.4000e+000 80883 -1.5286e+002 -3.5247e+001  4.6955e+000 58557 81119,80606,80580
 1.4000e+000 80860 -1.4555e+002  2.5332e+001 -1.0392e+001 58557 81191,80736,80710
 1.4000e+000 80837 -1.4862e+002 -3.2698e+000 -2.6178e+001 58557 80736,80788,80762
 1.4000e+000 80814 -1.1068e+002 -4.7884e+001 -1.7012e+001 58557 80632,80684,80658
 1.4000e+000 81001 -1.2185e+002 -4.3211e+001 -2.4002e+000 58557 81047,80632,80975
 1.4000e+000 81024 -1.3753e+002 -5.9442e+000  1.2644e+000 58557 81191,80710,80975
 1.4000e+000 81073 -1.2247e+002 -2.2102e+000 -1.8890e+001 58557 80710,80684,81047
 1.4000e+000 81096 -1.3044e+002 -2.1731e+001 -7.8370e+000 58557 80710,81047,80975
 1.4000e+000 81145 -1.4371e+002 -4.3703e+001  2.6163e+000 58557 80788,80975,81119
 1.4000e+000 81168 -1.4609e+002 -4.4292e+001 -5.8901e+000 58557 80788,81119,80580
 1.4000e+000 81217 -1.6140e+002 -2.0201e+000  9.3639e-001 58557 80788,80736,81191
 1.4000e+000 81240 -1.4931e+002 -2.2755e+001  1.3507e+001 58557 80788,81191,80975
 1.4000e+000 81537 -2.7885e+002 -9.6890e+001 -1.5296e+001 57881 81560,81341,81289
 1.4000e+000 81514 -2.4149e+002 -8.0063e+001 -4.5096e+001 57881 81560,81289,81263
 1.4000e+000 81491 -3.1628e+002 -9.5874e+001 -9.6897e+000 57881 81632,81419,81367
 1.4000e+000 81468 -2.9439e+002 -4.1575e+001 -9.9645e-002 57881 81367,81419,81393
 1.4000e+000 81445 -3.1597e+002 -9.6923e+001 -5.6412e+000 57881 81289,81341,81315
 1.4000e+000 81586 -2.7769e+002 -9.6404e+001 -1.3790e+001 57881 81367,81341,81560
 1.4000e+000 81609 -3.0750e+002 -9.0200e+001 -1.4976e+001 57881 81632,81367,81560
 1.4000e+000 81658 -2.9129e+002 -1.5984e+002  1.0525e+000 57881 81263,81419,81632
 1.4000e+000 81681 -2.5798e+002 -1.2263e+002 -1.5479e+001 57881 81263,81632,81560
 1.4000e+000 81929 -1.7828e+002 -1.0800e+002  4.2362e+001 57477 81704,81808,81782
 1.4000e+000 81906 -1.4673e+002 -6.2398e+001  2.2854e+001 57477 81704,81834,81808
 1.4000e+000 81883 -1.5381e+002 -1.9266e+001  5.0990e+001 57477 81704,81782,81730
 1.4000e+000 81860 -1.7888e+002 -5.3742e+001  6.4544e+001 57477 81730,81782,81756
 1.4000e+000 82488 -1.2900e+002 -5.2225e+001  7.0254e+000 56966 82583,82511,82194
 1.4000e+000 82465 -1.1941e+002 -2.0399e+001 -4.4429e-001 56966 82511,82116,82324
 1.4000e+000 82442 -1.3404e+002 -7.2190e+001  1.3383e+001 56966 82583,82194,82168
 1.4000e+000 82419 -1.7576e+002 -6.1108e+001  1.6456e+001 56966 82194,82246,82220
 1.4000e+000 82396 -1.2464e+002 -3.5397e+001  2.7099e+001 56966 82194,82298,82246
 1.4000e+000 82373 -1.4843e+002 -2.5253e+001  5.3251e+001 56966 82246,82298,82272
 1.4000e+000 82350 -1.1453e+002 -1.6133e+001 -4.2165e+000 56966 82116,82168,82142
 1.4000e+000 82537 -1.3383e+002 -3.6849e+001  1.9402e+001 56966 82298,82194,82511
 1.4000e+000 82560 -1.0013e+002 -1.6537e+001  2.7911e+001 56966 82298,82511,82324
 1.4000e+000 82609 -1.3674e+002 -2.8755e+001  3.6421e+000 56966 82116,82511,82583
 1.4000e+000 82632 -1.3573e+002 -4.3279e+001  7.4678e+000 56966 82116,82583,82168
 1.4000e+000 83236 -2.2730e+002 -9.8461e+001 -4.5504e+001 56304 82893,82945,82919
 1.4000e+000 83213 -2.2568e+002 -9.6320e+001 -4.7645e+001 56304 83259,82945,82893
 1.4000e+000 83190 -1.9695e+002 -4.3324e+001 -2.1906e+001 56304 83259,82893,83049
 1.4000e+000 83167 -1.2116e+002 -1.2057e+001  7.5792e+000 56304 82971,83049,83023
 1.4000e+000 83144 -1.8054e+002 -1.4070e+001 -1.3801e+001 56304 82815,83049,82893
 1.4000e+000 83121 -1.6987e+002 -7.9716e+000 -2.0379e+001 56304 82815,82893,82867
 1.4000e+000 83098 -8.7658e+001 -3.4155e+001 -1.3410e+001 56304 82971,83023,82997
 1.4000e+000 83075 -1.0683e+002 -1.5155e+001  3.7511e+001 56304 82815,82867,82841
 1.4000e+000 83285 -2.3170e+002 -2.0730e+001 -2.8135e+001 56304 82971,82945,83259
 1.4000e+000 83308 -2.2090e+002 -4.4699e+000  1.4555e-001 56304 82971,83259,83049
 1.4000e+000 83556 -2.4997e+002 -1.0572e+002 -1.1290e+001 55964 83357,83461,83435
 1.4000e+000 83533 -2.1861e+002 -3.1080e+001  2.2185e+001 55964 83331,83461,83357
 1.4000e+000 83510 -1.0456e+002 -7.3726e+001  3.1697e+000 55964 83357,83435,83383
 1.4000e+000 83487 -2.1783e+002 -1.1274e+002 -1.3831e+001 55964 83383,83435,83409
 1.4000e+000 83706 -2.5272e+002 -1.4155e+002 -1.1428e+001 55503 83579,83631,83605
 1.4000e+000 83683 -3.3857e+002 -1.3347e+002 -2.9606e-001 55503 83579,83657,83631
 1.4000e+000 83907 -2.0992e+002 -1.0624e+002 -4.1411e+001 55156 83757,83835,83809
 1.4000e+000 83884 -1.8332e+002 -2.1330e+001 -7.9084e+000 55156 83731,83835,83757
 1.4000e+000 83861 -2.5907e+002 -4.4521e+001 -3.4552e+001 55156 83757,83809,83783
 1.4000e+000 84240 -1.2200e+002 -3.1723e+001  1.0142e+001 54652 84093,84145,84119
 1.4000e+000 84217 -2.1722e+002 -9.2049e+000  5.4117e+001 54652 84041,84145,84093
 1.4000e+000 84194 -2.4420e+002 -4.3180e+001  3.6462e+001 54652 84015,84145,84041
 1.4000e+000 84171 -4.0263e+002 -8.8309e+001  5.0168e+001 54652 84041,84093,84067
 1.4000e+000 84618 -1.3839e+002 -9.8011e+001  2.7118e+001 53926 84396,84500,84474
 1.4000e+000 84595 -1.0146e+002 -1.1135e+002  4.6851e+001 53926 84344,84500,84396
 1.4000e+000 84572 -1.0186e+002 -1.0847e+002  5.0738e+001 53926 84344,84396,84370
 1.4000e+000 84549 -9.7076e+001 -6.8936e+001 -5.6558e+000 53926 84396,84474,84422
 1.4000e+000 84526 -2.0616e+002 -9.5008e+001 -3.7719e+001 53926 84422,84474,84448
 1.4000e+000 85350 -2.9248e+002 -9.8111e+001 -8.3715e+001 53586 85373,84880,85088
 1.4000e+000 85327 -1.2141e+002 -8.6454e+001 -8.6195e+001 53586 84880,85114,85088
 1.4000e+000 85304 -9.7603e+001 -1.3166e+001 -7.2843e+001 53586 85373,85088,85062
 1.4000e+000 85281 -2.7877e+002 -2.3920e+002  8.8380e+001 53586 85010,85062,85036
 1.4000e+000 85258 -3.1411e+002 -6.2641e+001 -1.3011e+001 53586 85445,85010,84958
 1.4000e+000 85235 -1.2965e+002  1.2799e+001 -1.4848e+001 53586 85445,84958,84906
 1.4000e+000 85212 -2.2718e+002 -8.3248e+001 -4.2383e+001 53586 84958,85010,84984
 1.4000e+000 85189 -2.3078e+002 -5.6525e+001 -6.6940e+001 53586 84906,84958,84932
 1.4000e+000 85166 -1.6768e+002 -1.6203e+002 -4.5792e+001 53586 84880,85140,85114
 1.4000e+000 85399 -3.5810e+002 -7.8997e+001  1.0991e+002 53586 84906,84880,85373
 1.4000e+000 85422 -2.0294e+002  2.2563e+000  8.1893e+001 53586 85517,85373,85062
 1.4000e+000 85471 -3.0201e+002 -4.5194e+001  9.3438e+001 53586 85062,85010,85445
 1.4000e+000 85494 -1.9602e+002  4.8658e+000  7.9568e+001 53586 85517,85062,85445
 1.4000e+000 85543 -1.9119e+002 -3.3136e+000  8.4378e+001 53586 84906,85373,85517
 1.4000e+000 85566 -1.8731e+002 -3.3716e+000  8.2870e+001 53586 84906,85517,85445
 1.4000e+000 86072 -1.4299e+002 -6.0920e+001 -1.7059e+001 53182 86095,85853,85775
 1.4000e+000 86049 -1.4944e+002 -5.6408e+001 -1.4458e+001 53182 86095,85775,85931
 1.4000e+000 86026 -1.6428e+002 -7.2911e+001 -2.0394e+001 53182 86167,85879,85853
 1.4000e+000 86003 -2.7393e+002 -8.7008e+001  1.7952e+001 53182 85775,85827,85801
 1.4000e+000 85980 -1.5631e+002 -9.4437e+001 -1.6120e+001 53182 85775,85853,85827
 1.4000e+000 85957 -1.0983e+002 -4.8353e+001  1.3573e+001 53182 85749,85931,85775
 1.4000e+000 86121 -1.5382e+002 -6.8631e+001 -2.0425e+001 53182 86167,85853,86095
 1.4000e+000 86144 -1.4232e+002 -6.0812e+001 -1.3503e+001 53182 85905,86095,85931
 1.4000e+000 86193 -1.6088e+002 -7.3305e+001 -1.0937e+001 53182 85905,85879,86167
 1.4000e+000 86216 -1.5138e+002 -6.8932e+001 -9.8708e+000 53182 85905,86167,86095
 1.4000e+000 86673 -1.7128e+002 -5.2252e+000  3.4240e+001 52778 86477,86529,86503
 1.4000e+000 86650 -1.6749e+002 -5.3136e+001  9.1627e+000 52778 86425,86529,86477
 1.4000e+000 86627 -1.4361e+002 -7.4515e+001  3.3777e+001 52778 86425,86477,86451
 1.4000e+000 86604 -1.1191e+002 -7.8661e+000  2.9762e+001 52778 86399,86529,86425
 1.4000e+000 86581 -7.6933e+001  1.8007e+001  5.4894e+000 52778 86399,86555,86529
 1.4000e+000 87258 -1.4648e+002 -2.0996e+001  1.8037e+001 52238 87281,86987,86961
 1.4000e+000 87235 -1.5012e+002 -3.3949e+001  5.8847e+000 52238 87281,86961,87117
 1.4000e+000 87212 -1.5074e+002  2.8673e+000  3.7860e+000 52238 86935,87117,86961
 1.4000e+000 87189 -1.7149e+002  5.6174e+000  2.6291e-001 52238 87065,87117,87091
 1.4000e+000 87166 -1.6594e+002 -6.0975e+001  9.4277e+000 52238 86987,87065,87039
 1.4000e+000 87143 -1.8932e+002 -1.2506e+002  6.0180e+001 52238 86987,87039,87013
 1.4000e+000 87307 -1.5575e+002 -4.3499e+001  1.5501e+001 52238 87065,86987,87281
 1.4000e+000 87330 -1.5292e+002 -4.1913e+001  2.9813e+000 52238 87065,87281,87117
 1.4000e+000 87610 -1.8686e+002 -1.1346e+001  1.2343e+001 51834 87434,87512,87460
 1.4000e+000 87587 -1.5465e+002  2.8789e+001  7.1561e+001 51834 87434,87538,87512
 1.4000e+000 87564 -2.8790e+002 -9.0888e+001 -3.0438e+001 51834 87633,87460,87512
 1.4000e+000 87659 -3.6916e+002 -1.2575e+002 -3.4171e+001 51834 87486,87460,87633
 1.4000e+000 88187 -2.8034e+002 -9.3169e+001 -6.0412e+000 51266 87864,87942,87890
 1.4000e+000 88164 -2.6314e+002 -1.2238e+001 -3.0166e+000 51266 87864,88020,87942
 1.4000e+000 88141 -4.4517e+002 -1.2572e+002 -7.6550e+001 51266 87942,88020,87968
 1.4000e+000 88118 -3.6169e+002 -1.2557e+002  5.1236e+001 51266 87864,88046,88020
 1.4000e+000 88095 -2.8057e+002 -2.5821e+001 -1.1057e+001 51266 87968,88020,87994
 1.4000e+000 88072 -2.5158e+002 -1.1338e+002 -3.1964e+001 51266 87890,87942,87916
 1.4000e+000 88644 -2.3639e+002 -1.0363e+002 -2.0262e+001 50754 88370,88500,88396
 1.4000e+000 88621 -2.4748e+002 -3.6008e+001 -3.4517e+001 50754 88370,88526,88500
 1.4000e+000 88598 -1.7181e+002 -3.8629e+001  3.3194e+001 50754 88396,88500,88422
 1.4000e+000 88575 -1.7348e+002 -3.9962e+001  3.1661e+001 50754 88422,88500,88474
 1.4000e+000 88552 -3.1365e+002 -1.2874e+002 -3.1078e+001 50754 88422,88474,88448
 1.4000e+000 88914 -2.7274e+002 -8.5913e+001 -4.7668e+000 50442 88715,88793,88741
 1.4000e+000 88891 -2.4372e+002 -9.9846e+001 -8.4822e+000 50442 88715,88819,88793
 1.4000e+000 88868 -3.0339e+002 -1.4242e+002 -2.7067e+001 50442 88689,88819,88715
 1.4000e+000 88845 -2.5821e+002 -1.1448e+002 -7.8306e+001 50442 88741,88793,88767
 1.4000e+000 89294 -3.3795e+002 -1.1376e+002 -1.3528e+001 49938 89317,89046,89020
 1.4000e+000 89271 -3.2315e+002 -1.2825e+002 -2.1960e+001 49938 89317,89020,89150
 1.4000e+000 89248 -2.6155e+002 -1.1894e+002  4.2539e+000 49938 89072,89150,89098
 1.4000e+000 89225 -3.4258e+002 -1.1412e+002 -4.7523e+001 49938 89020,89176,89150
 1.4000e+000 89202 -2.0022e+002 -9.4275e+001 -3.9604e+001 49938 89098,89150,89124
 1.4000e+000 89343 -2.7334e+002 -3.9853e+000  1.3838e+001 49938 89072,89046,89317
 1.4000e+000 89366 -3.2888e+002 -1.1726e+002 -1.4237e+001 49938 89072,89317,89150
 1.4000e+000 89823 -2.1223e+002 -1.0078e+002 -6.1154e+000 49384 89601,89705,89679
 1.4000e+000 89800 -1.6724e+002 -5.3669e+001  3.0889e+001 49384 89549,89705,89601
 1.4000e+000 89777 -1.0570e+002 -3.3660e+001  1.0822e+001 49384 89549,89601,89575
 1.4000e+000 89754 -1.4548e+002 -7.3160e+001  7.3936e+000 49384 89601,89679,89627
 1.4000e+000 89731 -1.0414e+002 -1.2301e+001 -2.8343e+001 49384 89627,89679,89653
 1.4000e+000 90329 -1.2528e+002 -4.7640e+001 -1.7619e+000 48894 90058,90110,90084
 1.4000e+000 90306 -1.5862e+002 -5.7519e+001  5.9940e+001 48894 90058,90162,90110
 1.4000e+000 90283 -2.2762e+002 -4.4214e+001  3.8146e+001 48894 90032,90162,90058
 1.4000e+000 90260 -1.2757e+002  1.1714e+001 -1.1024e+001 48894 90006,90162,90032
 1.4000e+000 90237 -6.6865e+001 -1.9449e+001  1.1830e+001 48894 90110,90162,90136
 1.4000e+000 90214 -1.6832e+002 -1.0885e+000 -1.5472e+001 48894 90006,90188,90162
 1.4000e+000 90884 -2.5958e+002 -9.4922e+001  3.7414e+001 48490 90564,90642,90616
 1.4000e+000 90861 -2.4350e+002 -8.4209e+000 -9.9704e+000 48490 90564,90694,90642
 1.4000e+000 90838 -3.3463e+002 -3.7909e+001 -4.4794e+000 48490 90538,90694,90564
 1.4000e+000 90815 -3.9569e+002 -9.3074e+001  2.1135e+001 48490 90538,90720,90694
 1.4000e+000 90792 -2.3677e+002 -4.4512e+001  3.2440e+001 48490 90564,90616,90590
 1.4000e+000 90769 -2.5975e+002 -5.4301e+001 -1.8550e+001 48490 90642,90694,90668
 1.4000e+000 90746 -3.4772e+002 -8.0041e+001  1.1877e+001 48490 90512,90720,90538
 1.4000e+000 91034 -2.1048e+002 -2.2714e+001 -3.7700e+001 48086 91057,90959,90933
 1.4000e+000 91011 -2.1301e+002 -2.1875e+001 -4.1671e+001 48086 91129,91057,90933
 1.4000e+000 91083 -2.2127e+002 -8.9087e+000 -4.9359e+001 48086 90985,90959,91057
 1.4000e+000 91106 -1.9857e+002 -1.0957e+001 -3.8635e+001 48086 90985,91057,90907
 1.4000e+000 91155 -1.4331e+002 -1.2690e+000 -4.5601e+001 48086 90907,91057,91129
 1.4000e+000 91791 -2.2591e+002 -3.8657e+001 -1.9368e+001 47518 92030,91814,91523
 1.4000e+000 91768 -1.6918e+002 -1.6195e+001 -1.7971e+001 47518 91958,91814,91471
 1.4000e+000 91745 -1.6162e+002  9.6741e+001 -5.9198e+000 47518 91886,91575,91523
 1.4000e+000 91722 -1.7722e+002 -4.7564e+001 -5.0547e+000 47518 91958,91471,91419
 1.4000e+000 91699 -2.8470e+002  2.2019e+001 -5.3858e+001 47518 92030,91523,91497
 1.4000e+000 91676 -2.7677e+002  1.1028e+002 -2.9626e+001 47518 91523,91575,91549
 1.4000e+000 91653 -1.3248e+002 -5.5739e+001 -2.0830e+001 47518 91419,91471,91445
 1.4000e+000 91840 -1.8827e+002  4.2007e+001 -3.5277e+001 47518 91886,91523,91814
 1.4000e+000 91863 -2.1743e+002 -7.3582e+001  1.8450e+001 47518 91601,91814,91627
 1.4000e+000 91912 -1.2713e+002  1.2152e+002  7.0461e+001 47518 91601,91575,91886
 1.4000e+000 91935 -1.6083e+002  3.2396e+000  4.5072e+001 47518 91601,91886,91814
 1.4000e+000 91984 -1.8310e+002 -4.2820e+001 -4.6660e+000 47518 91627,91814,91958
 1.4000e+000 92007 -1.7877e+002 -5.9495e+001  6.7020e+000 47518 91627,91958,91419
 1.4000e+000 92056 -2.5705e+002 -1.0053e+002 -6.3118e+001 47518 91471,91814,92030
 1.4000e+000 92079 -3.1019e+002 -6.4622e+001 -1.0245e+002 47518 91471,92030,91497
 1.4000e+000 92229 -1.4685e+002 -6.1090e+001 -3.8885e+001 47128 92252,92128,92102
 1.4000e+000 92206 -1.9162e+002 -9.9046e+001 -9.4051e+000 47128 92324,92252,92102
 1.4000e+000 92278 -1.8730e+002 -1.4418e+002 -3.0315e+001 47128 92454,92252,92154
 1.4000e+000 92301 -1.8017e+002 -6.5999e+001 -1.5956e+001 47128 92154,92252,92180
 1.4000e+000 92350 -1.5828e+002 -5.3881e+001  5.9576e+000 47128 92180,92252,92324
 1.4000e+000 92480 -1.7720e+002 -6.5706e+001 -1.5182e+001 47128 92128,92252,92454
 1.4000e+000 93340 -2.6687e+002 -1.6452e+001  3.2952e+001 46838 93363,92977,92873
 1.4000e+000 93317 -3.4743e+002 -4.5348e+001  7.5545e+000 46838 93507,93363,92873
 1.4000e+000 93294 -3.0458e+002 -9.4334e+001 -7.8145e+000 46838 93435,93003,92977
 1.4000e+000 93271 -3.7944e+002 -7.9789e+001 -8.5346e+000 46838 93507,92873,92847
 1.4000e+000 93248 -2.9899e+002 -7.0278e+001 -1.0309e+001 46838 93579,93029,93003
 1.4000e+000 93225 -2.0181e+002 -4.2024e+001 -5.4388e+000 46838 92873,92951,92925
 1.4000e+000 93202 -1.9962e+002 -5.3955e+001  2.0006e+000 46838 92873,92977,92951
 1.4000e+000 93179 -4.0387e+002 -1.1678e+002  4.3651e+001 46838 93055,93107,93081
 1.4000e+000 93156 -5.4294e+002 -2.0134e+002 -1.7822e+001 46838 92821,93107,92847
 1.4000e+000 93133 -1.9058e+002 -7.3186e+001  1.5378e+001 46838 92873,92925,92899
 1.4000e+000 93389 -3.1648e+002 -7.5879e+001  1.2638e+000 46838 93435,92977,93363
 1.4000e+000 93412 -2.9262e+002 -3.9885e+001  3.1293e+000 46838 93055,93363,93107
 1.4000e+000 93461 -2.9649e+002 -7.0927e+001 -7.2894e+000 46838 93579,93003,93435
 1.4000e+000 93484 -3.0746e+002 -4.7230e+001 -3.9883e+000 46838 93055,93435,93363
 1.4000e+000 93533 -3.1488e+002 -9.8355e+001  4.1852e+000 46838 93107,93363,93507
 1.4000e+000 93556 -3.1880e+002 -1.1207e+002  5.6172e-001 46838 93107,93507,92847
 1.4000e+000 93605 -3.0603e+002 -7.2838e+001 -1.1206e+001 46838 93055,93029,93579
 1.4000e+000 93628 -3.0318e+002 -7.3447e+001 -8.3092e+000 46838 93055,93579,93435
 1.4000e+000 93979 -2.2812e+002  5.3724e+001  2.8175e+001 46476 93780,93884,93858
 1.4000e+000 93956 -2.6468e+002 -1.2676e+001  1.3716e+001 46476 93754,93884,93780
 1.4000e+000 93933 -5.3147e+002 -2.3689e+001 -1.1502e+000 46476 93806,93858,93832
 1.4000e+000 93910 -5.1841e+002 -6.6560e+001  3.4423e+001 46476 93780,93858,93806
 1.4000e+000 94515 -2.2638e+002 -6.9173e+001  2.4919e+001 46072 94345,94397,94371
 1.4000e+000 94492 -1.2485e+002 -2.5737e+001  2.3600e+001 46072 94267,94397,94345
 1.4000e+000 94469 -1.1558e+002 -2.6695e+000  2.0579e+001 46072 94241,94397,94267
 1.4000e+000 94446 -6.2124e+001 -8.4643e+000 -2.7133e+001 46072 94293,94345,94319
 1.4000e+000 94423 -1.2889e+002  9.6193e+000  2.2228e+001 46072 94267,94345,94293
 1.4000e+000 95149 -1.5739e+002 -3.5986e+001 -2.0026e+001 45346 94803,94881,94855
 1.4000e+000 95126 -1.5662e+002 -3.6819e+001 -1.9532e+001 45346 94803,94959,94881
 1.4000e+000 95103 -1.0236e+002 -2.0706e+001 -1.3018e+001 45346 95172,94933,94907
 1.4000e+000 95080 -1.2830e+002 -1.7288e+001 -1.5831e+000 45346 95172,94907,94881
 1.4000e+000 95057 -1.4363e+002 -9.3597e+001 -4.8692e+001 45346 94803,94985,94959
 1.4000e+000 95034 -1.6296e+002 -2.0277e+001 -1.3855e+001 45346 94803,94855,94829
 1.4000e+000 95011 -1.7600e+002 -2.0553e+002 -1.6000e+002 45346 94777,94985,94803
 1.4000e+000 95198 -1.2619e+002 -1.9282e+001 -1.5418e+001 45346 94959,94933,95172
 1.4000e+000 95221 -1.4708e+002 -1.0956e+001 -9.2150e+000 45346 94959,95172,94881
 1.4000e+000 95776 -9.9880e+001 -1.6018e+001  5.6488e+001 44720 95799,95560,95534
 1.4000e+000 95753 -1.4006e+002 -3.5427e+001  6.8845e+001 44720 95799,95534,95482
 1.4000e+000 95730 -1.7922e+002 -1.9760e+001  6.4075e+001 44720 95943,95871,95430
 1.4000e+000 95707 -1.8996e+002 -8.5251e-001  6.6167e+001 44720 95943,95430,95404
 1.4000e+000 95684 -3.0164e+002 -7.4031e+001  7.4591e+001 44720 95430,95482,95456
 1.4000e+000 95661 -5.7525e+001 -1.6641e+001  3.7595e+001 44720 95482,95534,95508
 1.4000e+000 95638 -1.6254e+002  2.6456e+000  7.5336e+001 44720 95404,95612,95586
 1.4000e+000 95825 -1.3871e+002  3.2028e+000  6.1892e+001 44720 95586,95560,95799
 1.4000e+000 95848 -1.4411e+002 -7.6211e+000  6.3730e+001 44720 95871,95586,95799
 1.4000e+000 95897 -1.6940e+002 -2.4715e+001  5.0097e+001 44720 95482,95430,95871
 1.4000e+000 95920 -1.6611e+002 -1.2567e+001  5.4472e+001 44720 95482,95871,95799
 1.4000e+000 95969 -1.5748e+002  9.5581e-001  5.4473e+001 44720 95586,95871,95943
 1.4000e+000 95992 -1.7813e+002  8.8968e+000  5.9858e+001 44720 95586,95943,95404
 1.4000e+000 96449 -1.4942e+002 -2.3859e+001  1.3000e+001 44202 96544,96472,96227
 1.4000e+000 96426 -1.7874e+002 -1.0150e+002  3.7306e+001 44202 96472,96175,96331
 1.4000e+000 96403 -2.0146e+002  1.2880e+001  4.9580e+000 44202 96544,96227,96201
 1.4000e+000 96380 -3.5865e+001 -5.9240e+000 -2.4755e+001 44202 96253,96305,96279
 1.4000e+000 96357 -1.0688e+002 -7.4489e-001  1.6682e+001 44202 96227,96305,96253
 1.4000e+000 96498 -1.4769e+002 -5.5035e+001 -1.4595e+000 44202 96305,96227,96472
 1.4000e+000 96521 -1.5630e+002 -4.3225e+001  2.7655e+001 44202 96305,96472,96331
 1.4000e+000 96570 -1.9396e+002 -8.7743e+001 -7.9632e+000 44202 96175,96472,96544
 1.4000e+000 96593 -2.2465e+002 -2.4249e+001 -8.6341e+000 44202 96175,96544,96201
 1.4000e+000 96971 -2.6364e+002 -1.6536e+002  3.1934e+001 43754 96994,96749,96697
 1.4000e+000 96948 -2.7854e+002 -1.6998e+002  3.2944e+001 43754 96994,96697,96853
 1.4000e+000 96925 -2.4671e+002 -1.7353e+002  2.1910e+001 43754 96697,96749,96723
 1.4000e+000 96902 -2.4409e+002 -9.3757e+001 -8.2177e+000 43754 96775,96853,96827
 1.4000e+000 96879 -1.5650e+002 -9.5170e+001  2.1228e+000 43754 96775,96827,96801
 1.4000e+000 97020 -2.6688e+002 -1.5304e+002  1.4583e+001 43754 96775,96749,96994
 1.4000e+000 97043 -2.9102e+002 -1.6247e+002  1.8825e+001 43754 96775,96994,96853
 1.4000e+000 97291 -1.7958e+002 -2.4672e+001 -1.9713e+001 43364 97314,97144,97118
 1.4000e+000 97268 -1.9995e+002 -4.9803e+001 -3.0761e+001 43364 97314,97118,97092
 1.4000e+000 97245 -1.5988e+002 -5.3523e+001 -1.2370e+001 43364 97386,97196,97170
 1.4000e+000 97222 -1.8512e+002 -8.5701e+001 -3.2409e+001 43364 97066,97196,97092
 1.4000e+000 97340 -1.9014e+002 -5.3989e+001 -1.4311e+001 43364 97170,97144,97314
 1.4000e+000 97363 -1.6676e+002 -4.5888e+001 -1.9104e+001 43364 97386,97170,97314
 1.4000e+000 97412 -1.6431e+002 -6.1816e+001 -2.2121e+001 43364 97092,97196,97386
 1.4000e+000 97435 -1.7778e+002 -6.2706e+001 -3.0031e+001 43364 97092,97386,97314
 1.4000e+000 97788 -1.6636e+002  3.8010e+000 -1.2820e+001 42960 97563,97667,97589
 1.4000e+000 97765 -2.8574e+002 -1.0669e+002  3.3055e+001 42960 97563,97693,97667
 1.4000e+000 97742 -3.9767e+002  9.8443e+000 -5.9292e+000 42960 97589,97641,97615
 1.4000e+000 97719 -3.7854e+002 -5.3240e+001 -2.0212e+001 42960 97589,97667,97641
 1.4000e+000 98215 -1.6657e+002 -6.0951e+001 -7.5903e+001 42563 97918,98074,98048
 1.4000e+000 98192 -9.0312e+001 -5.1567e+000 -4.7424e+001 42563 97892,98074,97918
 1.4000e+000 98169 -1.7844e+002 -1.9472e+001 -8.5370e+001 42563 98238,97944,97918
 1.4000e+000 98146 -2.1055e+002 -9.3489e+001 -6.1408e+001 42563 98238,97918,98048
 1.4000e+000 98123 -2.0757e+002 -4.3576e+001 -4.6511e+001 42563 97944,98022,97996
 1.4000e+000 98100 -1.9863e+002 -3.7390e+000 -1.7869e+001 42563 97944,97996,97970
 1.4000e+000 98264 -2.0639e+002 -7.0643e+001 -4.8482e+001 42563 98022,97944,98238
 1.4000e+000 98287 -2.1432e+002 -9.8364e+001 -2.5889e+001 42563 98022,98238,98048
 1.4000e+000 98616 -1.4879e+002 -7.8501e+001 -1.2416e+001 42251 98443,98521,98469
 1.4000e+000 98593 -1.8485e+002 -7.5443e+001  1.1161e+001 42251 98417,98521,98443
 1.4000e+000 98570 -1.7508e+002 -5.8528e+001 -3.8173e+001 42251 98391,98521,98417
 1.4000e+000 98547 -1.4074e+002 -5.6216e+001 -4.3415e+001 42251 98469,98521,98495
 1.4000e+000 98886 -4.6914e+002 -1.7223e+002 -8.5402e+000 41847 98661,98765,98687
 1.4000e+000 98863 -4.7490e+002 -1.7555e+002 -7.8104e+000 41847 98661,98791,98765
 1.4000e+000 98840 -4.8601e+002 -1.8376e+002 -1.5774e+001 41847 98687,98765,98739
 1.4000e+000 98817 -4.3488e+002 -1.6254e+002 -1.8228e+001 41847 98687,98739,98713
 1.4000e+000 99394 -1.6787e+002 -1.7902e+000  2.7461e+001 41236 99417,99149,99123
 1.4000e+000 99371 -2.4937e+002 -3.5823e+001  1.9478e+001 41236 99417,99123,99097
 1.4000e+000 99348 -1.9131e+002 -4.9270e+001 -9.1302e+000 41236 99489,99201,99149
 1.4000e+000 99325 -1.9480e+002 -5.8289e+001 -2.2254e+001 41236 99149,99201,99175
 1.4000e+000 99302 -2.9229e+002 -4.4042e+001 -9.5227e+000 41236 99097,99253,99227
 1.4000e+000 99279 -4.5029e+002 -1.4103e+002 -5.0371e+001 41236 99071,99253,99097
 1.4000e+000 99443 -2.0178e+002 -4.1718e+001 -9.8164e+000 41236 99489,99149,99417
 1.4000e+000 99466 -2.1515e+002 -2.5740e+001 -1.2213e+001 41236 99227,99417,99097
 1.4000e+000 99515 -1.8851e+002 -4.1581e+001 -1.3541e+001 41236 99227,99201,99489
 1.4000e+000 99538 -1.9167e+002 -2.7835e+001 -1.6415e+001 41236 99227,99489,99417
 1.4000e+000 100044 -5.8652e+001  1.0633e+001  7.6412e+001 40732 99721,99773,99747
 1.4000e+000 100021 -1.5868e+002  2.8750e+001  2.6199e+001 40732 99721,99799,99773
 1.4000e+000 99998 -1.4168e+002 -1.1874e+001  1.6249e+001 40732 99721,99903,99799
 1.4000e+000 99975 -1.1720e+002 -2.0088e+001 -2.3930e+001 40732 100067,99877,99851
 1.4000e+000 99952 -1.3813e+002 -4.3241e+001 -1.3968e+001 40732 100067,99851,99799
 1.4000e+000 99929 -1.8750e+002 -4.1424e+001 -4.0826e+001 40732 99799,99851,99825
 1.4000e+000 100093 -1.3950e+002  7.8883e+000 -1.1838e+001 40732 99903,99877,100067
 1.4000e+000 100116 -1.6945e+002 -2.7385e+001  1.7131e+000 40732 99903,100067,99799
 1.4000e+000 100622 -2.7552e+002 -3.5028e+001  3.8448e+001 40278 100645,100455,100429
 1.4000e+000 100599 -3.1405e+002 -5.5112e+001  4.7682e+001 40278 100717,100645,100429
 1.4000e+000 100576 -3.6603e+002 -7.8237e+001  9.5412e+000 40278 100717,100429,100377
 1.4000e+000 100553 -2.5378e+002 -1.0165e+002  3.2055e+001 40278 100789,100325,100481
 1.4000e+000 100530 -2.4749e+002 -3.9793e+001  5.3396e+001 40278 100299,100481,100325
 1.4000e+000 100507 -2.8165e+002 -6.8338e+001  1.1757e+001 40278 100377,100429,100403
 1.4000e+000 100671 -2.8770e+002  1.9214e+000  4.8679e+001 40278 100481,100455,100645
 1.4000e+000 100694 -2.7817e+002 -7.3896e+001  5.1729e+000 40278 100789,100481,100645
 1.4000e+000 100743 -3.4115e+002 -7.3975e+001 -4.5577e+001 40278 100351,100645,100717
 1.4000e+000 100766 -4.6054e+002 -1.1990e+002 -8.2055e+001 40278 100351,100717,100377
 1.4000e+000 100815 -2.2904e+002 -9.0811e+001  2.7022e+000 40278 100351,100325,100789
 1.4000e+000 100838 -2.3231e+002 -3.6603e+001 -2.6267e+001 40278 100351,100789,100645
 1.4000e+000 101265 -2.3853e+002 -7.4815e+001  1.8276e+000 39824 101288,101046,100994
 1.4000e+000 101242 -2.6734e+002 -9.5583e+001 -1.2570e+001 39824 101288,100994,100968
 1.4000e+000 101219 -3.0738e+002 -6.4889e+001  1.3522e+001 39824 100942,101124,100968
 1.4000e+000 101196 -1.9555e+002 -1.6741e+001  6.4534e+000 39824 101046,101124,101072
 1.4000e+000 101173 -2.2189e+002 -9.8078e+001 -5.1253e+001 39824 100994,101046,101020
 1.4000e+000 101150 -1.1342e+002 -9.8196e+000  5.4697e+000 39824 101072,101124,101098
 1.4000e+000 101314 -2.2330e+002 -8.5347e+001  1.1190e+001 39824 101124,101046,101288
 1.4000e+000 101337 -2.3779e+002 -8.7809e+001  1.1971e+000 39824 101124,101288,100968
 1.4000e+000 101585 -2.2448e+002 -1.4993e+002  6.2319e+001 39070 101608,101464,101412
 1.4000e+000 101562 -2.2014e+002 -1.1745e+002  5.9186e+001 39070 101608,101412,101360
 1.4000e+000 101539 -2.0466e+002 -1.5249e+002  5.5082e+001 39070 101412,101464,101438
 1.4000e+000 101516 -2.2775e+002 -1.4115e+002  6.1328e+001 39070 101360,101412,101386
 1.4000e+000 101634 -2.3419e+002 -1.3898e+002  4.0651e+001 39070 101490,101464,101608
 1.4000e+000 101657 -2.2201e+002 -9.4996e+001  3.7383e+001 39070 101490,101608,101360
 1.4000e+000 101856 -4.0631e+002 -6.6289e+001 -1.8495e+001 38730 101706,101758,101732
 1.4000e+000 101833 -4.1756e+002 -1.2449e+002  3.1273e+000 38730 101706,101784,101758
 1.4000e+000 101810 -3.8662e+002 -1.4618e+002 -3.1927e+001 38730 101680,101784,101706
 1.4000e+000 102106 -2.2252e+002 -6.2008e+001  1.0613e+001 38326 101881,101959,101907
 1.4000e+000 102083 -2.4572e+002 -6.2233e+001  4.5130e+001 38326 101881,101985,101959
 1.4000e+000 102060 -1.5613e+002 -5.2060e+001  4.6863e+001 38326 101881,102011,101985
 1.4000e+000 102037 -2.8892e+002 -3.9597e+001 -1.0755e+001 38326 101907,101959,101933
 1.4000e+000 102258 -1.9409e+002 -5.7278e+001  1.4777e+001 38036 102281,102157,102131
 1.4000e+000 102235 -1.9448e+002 -9.4918e+000 -9.5943e+000 38036 102281,102131,102209
 1.4000e+000 102307 -1.7378e+002 -1.0103e+002  1.0636e+001 38036 102183,102157,102281
 1.4000e+000 102330 -1.8383e+002 -7.0239e+001 -2.0808e+001 38036 102183,102281,102209
 1.4000e+000 102663 -1.3981e+002 -2.9706e+001  2.7435e+001 37596 102438,102542,102464
 1.4000e+000 102640 -8.8494e+001 -1.7592e+001  8.1392e+000 37596 102438,102568,102542
 1.4000e+000 102617 -1.3565e+002 -2.3599e+000  5.0847e+001 37596 102490,102542,102516
 1.4000e+000 102594 -1.2564e+002 -2.1499e+001  3.3078e+001 37596 102464,102542,102490
 1.4000e+000 102862 -1.7432e+002  4.6646e+000  6.9712e+000 37192 102686,102764,102712
 1.4000e+000 102839 -1.6685e+002  1.6453e+001  2.5444e+000 37192 102686,102790,102764
 1.4000e+000 102816 -1.2213e+002 -4.0713e+001  2.8302e+001 37192 102712,102764,102738
 1.4000e+000 103110 -1.8283e+002 -2.0178e+001 -2.2338e+001 36609 102911,102963,102937
 1.4000e+000 103087 -1.8195e+002 -3.4399e+001 -1.0148e+001 36609 102911,102989,102963
 1.4000e+000 103064 -1.8933e+002 -5.6138e+001 -2.1069e+001 36609 102885,102989,102911
 1.4000e+000 103041 -1.9555e+002 -1.2542e+001 -4.7222e+001 36609 102885,103015,102989
 1.4000e+000 103718 -5.2113e+001 -1.2521e+001  7.1038e+000 36131 103323,103375,103349
 1.4000e+000 103695 -1.3765e+002 -6.7351e+000  1.2296e+001 36131 103297,103375,103323
 1.4000e+000 103672 -1.6085e+002 -6.8364e+001  5.6203e+000 36131 103297,103505,103375
 1.4000e+000 103649 -1.5891e+002 -5.8535e+001  1.8145e+001 36131 103741,103479,103401
 1.4000e+000 103626 -1.5416e+002 -4.7436e+001  1.7848e+001 36131 103741,103401,103375
 1.4000e+000 103603 -1.8335e+002 -3.7489e+001  1.0079e+001 36131 103401,103479,103427
 1.4000e+000 103580 -1.6809e+002 -4.6253e+001 -1.5991e+001 36131 103297,103531,103505
 1.4000e+000 103557 -1.5889e+002 -2.2420e+000 -1.7952e+001 36131 103427,103479,103453
 1.4000e+000 103767 -1.5559e+002 -6.5687e+001  9.7744e+000 36131 103505,103479,103741
 1.4000e+000 103790 -1.5146e+002 -5.5968e+001  9.7173e+000 36131 103505,103741,103375
 1.4000e+000 103989 -3.5795e+002 -8.3345e+001  8.0203e+000 35791 103839,103917,103891
 1.4000e+000 103966 -3.5064e+002 -1.1635e+002  2.2161e+000 35791 103813,103917,103839
 1.4000e+000 103943 -2.8902e+002 -1.2638e+001 -2.8875e+001 35791 103839,103891,103865
 1.4000e+000 104188 -1.8450e+002 -7.7270e+001 -2.4074e+001 35444 104038,104090,104064
 1.4000e+000 104165 -2.0332e+002 -5.3162e+001  2.5571e+001 35444 104038,104116,104090
 1.4000e+000 104142 -2.2604e+002 -2.8287e+001  2.2136e+001 35444 104012,104116,104038
 1.4000e+000 104487 -2.6019e+002 -6.6132e+001 -2.3820e+001 34990 104265,104317,104291
 1.4000e+000 104464 -2.0593e+002 -4.8888e+001 -1.8899e+001 34990 104510,104317,104265
 1.4000e+000 104441 -1.5342e+002 -3.1009e+001 -8.3795e+000 34990 104510,104265,104213
 1.4000e+000 104418 -2.2409e+002 -2.1155e+001  1.0561e+001 34990 104582,104343,104317
 1.4000e+000 104395 -1.4173e+002 -4.6038e+000 -1.1630e+001 34990 104213,104265,104239
 1.4000e+000 104536 -2.2528e+002 -2.1527e+001 -4.6486e+000 34990 104582,104317,104510
 1.4000e+000 104559 -1.9331e+002 -2.9907e+001  9.6761e-001 34990 104369,104510,104213
 1.4000e+000 104608 -1.8404e+002  1.0564e+001  2.4309e+001 34990 104369,104343,104582
 1.4000e+000 104631 -2.0552e+002 -1.2972e+001  1.4646e+000 34990 104369,104582,104510
 1.4000e+000 104783 -2.7422e+002 -8.1226e+001 -2.0312e+001 34700 104938,104806,104682
 1.4000e+000 104760 -2.6248e+002 -8.0322e+001 -5.5086e+000 34700 104938,104682,104656
 1.4000e+000 104832 -1.9093e+002 -2.1524e+001  7.4477e+000 34700 104708,104682,104806
 1.4000e+000 104964 -2.9112e+002 -8.9313e+001 -2.2996e+001 34700 104734,104806,104938
 1.4000e+000 104987 -2.8063e+002 -8.9334e+001 -8.5830e+000 34700 104734,104938,104656
 1.4000e+000 105137 -3.7484e+002 -5.1798e+000 -3.5216e+000 34388 105036,105088,105062
 1.4000e+000 105114 -3.7750e+002 -1.0466e+002 -2.0860e+001 34388 105010,105088,105036
 1.4000e+000 105385 -2.6612e+002 -5.4426e+001  2.3180e+001 33734 105408,105186,105160
 1.4000e+000 105362 -2.6205e+002 -5.4710e+001  1.9985e+001 33734 105408,105160,105264
 1.4000e+000 105339 -2.9697e+002 -1.2288e+001  6.2008e+000 33734 105160,105290,105264
 1.4000e+000 105316 -2.4741e+002 -6.9222e+001  5.6900e+001 33734 105186,105238,105212
 1.4000e+000 105434 -2.6205e+002 -5.7119e+001  2.0454e+001 33734 105238,105186,105408
 1.4000e+000 105457 -2.5103e+002 -5.0460e+001  1.5818e+001 33734 105238,105408,105264
 1.4000e+000 105609 -1.8207e+002 -2.7971e+001 -5.9441e+001 33394 105482,105534,105508
 1.4000e+000 105586 -1.6628e+002 -2.4897e+001 -5.8429e+001 33394 105482,105560,105534
 1.4000e+000 105859 -3.5644e+002 -5.3041e+001 -5.3416e+001 33047 105882,105712,105660
 1.4000e+000 105836 -3.9383e+002 -4.3508e+001 -1.7929e+001 33047 105882,105660,105634
 1.4000e+000 105813 -2.6108e+002 -7.0609e+001 -3.1726e-001 33047 105660,105712,105686
 1.4000e+000 105790 -2.8075e+002 -3.1027e+001 -4.7872e+001 33047 105634,105764,105738
 1.4000e+000 105908 -2.7013e+002  6.2125e+000 -8.6892e+001 33047 105738,105712,105882
 1.4000e+000 105931 -3.6067e+002 -3.5310e+001 -4.0559e+001 33047 105738,105882,105634
 1.4000e+000 106181 -2.1327e+002 -5.6770e+001  2.9452e+001 32543 106204,106060,106008
 1.4000e+000 106158 -1.8885e+002 -8.1706e+001  1.8139e+001 32543 105956,106086,106060
 1.4000e+000 106135 -1.9714e+002 -2.2592e+001  2.4079e+001 32543 106204,106008,105982
 1.4000e+000 106112 -2.2455e+002 -1.2412e+002  1.6985e+001 32543 106008,106060,106034
 1.4000e+000 106230 -2.0009e+002 -6.9721e+001  5.8414e+000 32543 105956,106060,106204
 1.4000e+000 106253 -1.8281e+002 -3.6879e+001 -6.3451e-001 32543 105956,106204,105982
 1.4000e+000 106454 -2.5617e+002 -1.0619e+002 -6.2893e+001 31839 106304,106356,106330
 1.4000e+000 106431 -2.8207e+002 -7.9289e+001  4.4103e+000 31839 106278,106356,106304
 1.4000e+000 106408 -2.1394e+002 -5.0905e+001 -1.2822e+001 31839 106278,106382,106356
 1.4000e+000 106704 -1.2813e+002 -2.3193e+001  6.3487e+000 31534 106505,106583,106557
 1.4000e+000 106681 -1.3222e+002 -2.3267e+001  7.9737e+000 31534 106479,106583,106505
 1.4000e+000 106658 -1.6847e+002 -4.6905e+001  1.7604e+001 31534 106505,106557,106531
 1.4000e+000 106635 -1.8081e+002 -4.1144e+001  5.0415e+000 31534 106479,106609,106583
 1.4000e+000 107108 -4.3895e+002  5.5914e+001 -9.4585e+001 31030 106886,106990,106964
 1.4000e+000 107085 -3.2679e+002 -4.8079e+001 -3.0928e+001 31030 106860,106990,106886
 1.4000e+000 107062 -3.0627e+002 -3.1486e+001 -1.7845e+001 31030 106834,106990,106860
 1.4000e+000 107039 -6.6905e+002 -2.3414e+002  4.9778e+001 31030 106912,106964,106938
 1.4000e+000 107016 -7.1343e+002 -5.4947e+001 -8.6546e+001 31030 106886,106964,106912
 1.4000e+000 107307 -3.8657e+002  6.6645e+000 -7.5964e+000 30718 107330,107157,107131
 1.4000e+000 107284 -3.2527e+002 -6.4823e+000 -2.4024e+001 30718 107330,107131,107235
 1.4000e+000 107261 -2.5976e+002 -2.1599e+001  1.5938e+001 30718 107183,107235,107209
 1.4000e+000 107356 -3.2641e+002 -5.5182e+000  8.4584e+000 30718 107183,107157,107330
 1.4000e+000 107379 -2.6847e+002 -2.0655e+001 -1.3064e+001 30718 107183,107330,107235
 1.4000e+000 107759 -2.2000e+002 -8.7799e+001  2.6385e+001 30264 107782,107615,107537
 1.4000e+000 107736 -2.1215e+002 -6.9552e+001  2.8181e+001 30264 107782,107537,107485
 1.4000e+000 107713 -2.8342e+002 -4.3625e+001  3.5425e+001 30264 107485,107537,107511
 1.4000e+000 107690 -1.6673e+002 -4.9820e+001  4.3222e+001 30264 107537,107615,107589
 1.4000e+000 107667 -1.5622e+002 -6.5226e+001  3.3384e+001 30264 107537,107589,107563
 1.4000e+000 107808 -2.2565e+002 -8.4238e+001  1.1470e+001 30264 107641,107615,107782
 1.4000e+000 107831 -2.1580e+002 -6.3153e+001  1.4237e+001 30264 107641,107782,107485
 1.4000e+000 108030 -2.4092e+002 -8.8508e+001  2.4295e+001 29874 108053,107854,107932
 1.4000e+000 108007 -1.9577e+002 -4.8743e+001  4.6215e+000 29874 107854,107958,107932
 1.4000e+000 107984 -2.6074e+002 -6.1519e+001  5.2960e+001 29874 108053,107932,107906
 1.4000e+000 108079 -2.3585e+002 -5.3443e+001  2.5105e+001 29874 107880,107854,108053
 1.4000e+000 108102 -2.5233e+002 -1.6976e+001  4.5171e+001 29874 107880,108053,107906
 1.4000e+000 108433 -1.3427e+002 -4.9815e+001  2.2158e+000 29484 108234,108338,108312
 1.4000e+000 108410 -1.8331e+002 -3.9620e+001  5.0203e+001 29484 108208,108338,108234
 1.4000e+000 108387 -2.0092e+002 -5.3162e+001 -7.5888e+000 29484 108234,108312,108260
 1.4000e+000 108364 -1.8387e+002 -7.6600e+001 -9.9344e+000 29484 108260,108312,108286
 1.4000e+000 108762 -1.2896e+002 -7.1720e+001  1.2765e+001 29080 108563,108641,108589
 1.4000e+000 108739 -1.0925e+002 -5.7922e+001  3.1481e+001 29080 108537,108641,108563
 1.4000e+000 108716 -2.0592e+002 -1.7309e+001  7.4413e+001 29080 108589,108641,108615
 1.4000e+000 108693 -4.3170e+001 -3.5036e+001  1.4100e+001 29080 108537,108667,108641
 1.4000e+000 109189 -2.4733e+002 -6.7238e+001  2.1629e+001 28476 108892,108996,108970
 1.4000e+000 109166 -2.9797e+002 -5.8430e+001  2.1243e+001 28476 108892,109022,108996
 1.4000e+000 109143 -2.5497e+002 -9.0266e+001  2.4161e+001 28476 108892,108970,108944
 1.4000e+000 109120 -3.3665e+002 -6.3305e+001  2.3507e+001 28476 108892,109048,109022
 1.4000e+000 109097 -2.6792e+002 -1.0581e+002  1.3761e+001 28476 108892,108944,108918
 1.4000e+000 109074 -4.1960e+002 -4.0981e+001 -3.3729e+001 28476 108866,109048,108892
 1.4000e+000 109518 -1.4708e+002 -4.1522e+001  3.2791e+001 28022 109541,109371,109345
 1.4000e+000 109495 -1.7626e+002  7.2928e+000 -1.3802e+001 28022 109541,109345,109319
 1.4000e+000 109472 -1.1676e+002  2.7172e+001 -1.6394e+001 28022 109293,109397,109319
 1.4000e+000 109449 -1.4036e+002 -2.0009e+000  1.0740e+001 28022 109293,109423,109397
 1.4000e+000 109567 -2.3666e+001  1.2650e+001  2.4827e+001 28022 109397,109371,109541
 1.4000e+000 109590 -1.4033e+002  1.8514e+001 -1.4524e+001 28022 109397,109541,109319
 1.4000e+000 109968 -2.7980e+002 -1.4969e+002 -3.7223e+001 27568 109798,109850,109824
 1.4000e+000 109945 -2.5401e+002 -7.4137e+001 -3.5890e+001 27568 109694,109850,109798
 1.4000e+000 109922 -2.0526e+002 -1.4192e+002 -2.2661e+001 27568 109694,109798,109746
 1.4000e+000 109899 -2.2098e+002 -1.3133e+002  7.0791e+001 27568 109746,109798,109772
 1.4000e+000 109876 -1.5147e+002 -5.2452e+001  1.2614e+001 27568 109694,109746,109720
 1.4000e+000 110167 -2.1003e+002 -4.8405e+001 -3.0325e+000 27007 110017,110095,110069
 1.4000e+000 110144 -1.9657e+002 -1.1495e+001 -1.5280e-001 27007 109991,110095,110017
 1.4000e+000 110121 -2.1131e+002 -1.8526e+001  3.6652e+001 27007 110017,110069,110043
 1.4000e+000 110415 -1.1431e+002 -5.4981e+001  1.3988e+001 26567 110438,110242,110190
 1.4000e+000 110392 -1.5506e+002  1.5418e-001 -5.2723e+000 26567 110438,110190,110320
 1.4000e+000 110369 -1.6337e+002 -4.5029e+001  1.1645e+001 26567 110242,110294,110268
 1.4000e+000 110346 -9.0062e+001 -8.2258e+000 -4.1716e+000 26567 110190,110242,110216
 1.4000e+000 110464 -1.3564e+002 -6.3397e+001 -5.2582e-002 26567 110294,110242,110438
 1.4000e+000 110487 -1.8848e+002 -4.9774e+001 -3.1021e+001 26567 110294,110438,110320
 1.4000e+000 110639 -3.2897e+002 -1.1466e+001 -4.6434e+001 26170 110538,110590,110564
 1.4000e+000 110616 -2.8143e+002 -4.3524e+001 -1.5519e+001 26170 110512,110590,110538
 1.4000e+000 111149 -3.1771e+002 -9.6941e+001  9.5842e+001 25716 111172,110878,110852
 1.4000e+000 111126 -2.7025e+002 -5.1100e+001  7.5359e+001 25716 111172,110852,111008
 1.4000e+000 111103 -3.6241e+002 -1.0212e+002  1.8693e+002 25716 110878,110930,110904
 1.4000e+000 111080 -2.4439e+002 -5.8962e+001  5.0207e+001 25716 110826,111008,110852
 1.4000e+000 111057 -2.0408e+002 -1.2554e+002  4.4955e+001 25716 110930,111008,110956
 1.4000e+000 111034 -1.7857e+002 -1.0164e+002  3.0488e+001 25716 110956,111008,110982
 1.4000e+000 111198 -2.6605e+002 -1.5561e+002  1.1375e+002 25716 110930,110878,111172
 1.4000e+000 111221 -2.0893e+002 -1.0617e+002  9.0160e+001 25716 110930,111172,111008
 1.4000e+000 111420 -3.7199e+002 -8.4509e+001  1.1279e+001 25304 111443,111270,111244
 1.4000e+000 111397 -3.8438e+002 -6.9098e+001  1.3546e+001 25304 111443,111244,111348
 1.4000e+000 111374 -3.8053e+002 -1.0775e+002 -2.8681e+001 25304 111270,111322,111296
 1.4000e+000 111469 -3.8160e+002 -8.8881e+001  7.4046e+000 25304 111322,111270,111443
 1.4000e+000 111492 -3.9891e+002 -7.8478e+001  7.8350e+000 25304 111322,111443,111348
 1.4000e+000 111691 -1.4476e+002 -4.5758e+001 -1.5944e+001 24736 111567,111619,111593
 1.4000e+000 111668 -1.4657e+002 -1.4193e+000 -3.8613e+001 24736 111541,111619,111567
 1.4000e+000 111645 -1.5268e+002  3.6490e+001 -1.5832e+001 24736 111515,111619,111541
 1.4000e+000 112024 -3.7876e+001 -6.9164e+000  9.5308e+000 24146 111825,111877,111851
 1.4000e+000 112001 -5.2056e+001  6.6643e+000 -7.9810e+000 24146 111825,111903,111877
 1.4000e+000 111978 -8.2668e+001 -6.3208e+001  4.9613e+000 24146 111825,111929,111903
 1.4000e+000 111955 -9.0410e+001 -9.4228e+001 -1.4919e+001 24146 111799,111929,111825
 1.4000e+000 112370 -2.0243e+002 -7.8647e+001  3.6769e+001 23856 112393,112151,112125
 1.4000e+000 112347 -1.8681e+002 -4.5055e+001  4.1296e+001 23856 112465,112393,112125
 1.4000e+000 112324 -1.8853e+002 -3.3677e+001  5.0333e+001 23856 112465,112125,112073
 1.4000e+000 112301 -2.5042e+002 -6.2001e+001  7.0288e+001 23856 112073,112125,112099
 1.4000e+000 112278 -2.0542e+002 -8.1735e+001  2.2442e+001 23856 112047,112229,112073
 1.4000e+000 112255 -1.8659e+002 -7.7583e+001 -1.5599e+001 23856 112151,112203,112177
 1.4000e+000 112419 -2.0941e+002 -6.3850e+001  1.5911e+001 23856 112203,112151,112393
 1.4000e+000 112442 -2.0552e+002 -5.8575e+001  1.7866e+001 23856 112203,112393,112229
 1.4000e+000 112491 -2.0369e+002 -6.0556e+001  1.7733e+001 23856 112229,112393,112465
 1.4000e+000 112514 -1.9643e+002 -3.2865e+001  2.7100e+001 23856 112229,112465,112073
 1.4000e+000 112784 -3.7129e+002  1.0940e+002 -5.1606e+001 23494 112611,112663,112637
 1.4000e+000 112761 -2.7787e+002 -2.2351e+001 -2.8792e+001 23494 112585,112663,112611
 1.4000e+000 112738 -3.5732e+002 -5.5369e+001  3.0639e+001 23494 112559,112663,112585
 1.4000e+000 112715 -3.0959e+002  1.1670e+002  5.5150e+001 23494 112559,112689,112663
 1.4000e+000 113117 -2.9355e+002 -3.7633e+001 -7.2647e+001 22974 112944,113022,112996
 1.4000e+000 113094 -2.5088e+002 -9.7736e+001 -4.9170e+001 22974 112918,113022,112944
 1.4000e+000 113071 -3.2900e+002 -1.4012e+002 -8.8654e+001 22974 112944,112996,112970
 1.4000e+000 113048 -2.3075e+002 -2.0384e+001 -7.0015e+001 22974 112892,113022,112918
 1.4000e+000 113414 -3.0594e+002 -9.9281e+001 -7.2482e+000 22370 113192,113296,113218
 1.4000e+000 113391 -3.5290e+002 -1.4442e+002 -2.5674e+001 22370 113140,113296,113192
 1.4000e+000 113368 -3.0833e+002 -1.0086e+002  1.0110e+001 22370 113218,113296,113270
 1.4000e+000 113345 -2.7460e+002 -1.0444e+002  4.5342e+001 22370 113218,113270,113244
 1.4000e+000 113322 -2.9675e+002 -3.6912e+001 -5.4478e+001 22370 113140,113192,113166
 1.4000e+000 113662 -2.1339e+002 -2.6957e+001  2.1630e+001 21916 113685,113515,113489
 1.4000e+000 113639 -2.5833e+002 -6.7356e+001  4.1561e+000 21916 113685,113489,113437
 1.4000e+000 113616 -1.9400e+002 -6.4355e+001 -5.6733e+000 21916 113757,113567,113541
 1.4000e+000 113593 -2.4814e+002 -3.8674e+001 -9.4864e+000 21916 113437,113489,113463
 1.4000e+000 113711 -2.4259e+002 -8.7074e+001  1.2011e+001 21916 113541,113515,113685
 1.4000e+000 113734 -2.2517e+002 -8.2334e+001  1.7924e+000 21916 113757,113541,113685
 1.4000e+000 113783 -2.3708e+002 -6.0424e+001 -4.5750e+000 21916 113437,113567,113757
 1.4000e+000 113806 -2.4114e+002 -5.8770e+001 -5.2455e+000 21916 113437,113757,113685
 1.4000e+000 114056 -2.0948e+002 -4.8900e+001 -2.2637e+001 21412 113857,113909,113883
 1.4000e+000 114033 -2.1248e+002 -4.6729e+001 -1.9257e+001 21412 114079,113909,113857
 1.4000e+000 114010 -2.3814e+002 -6.4579e+001 -7.3383e+000 21412 114079,113857,113961
 1.4000e+000 113987 -2.2388e+002 -6.6782e+001 -8.3171e+000 21412 113831,113961,113857
 1.4000e+000 114105 -2.3439e+002 -2.3240e+001 -3.2752e+001 21412 113935,113909,114079
 1.4000e+000 114128 -2.5277e+002 -4.1851e+001 -2.2747e+001 21412 113935,114079,113961
 1.4000e+000 114378 -1.4194e+002 -3.2138e+001 -1.7860e+000 21022 114401,114257,114205
 1.4000e+000 114355 -1.6254e+002 -3.6449e+001 -3.3228e+001 21022 114401,114205,114179
 1.4000e+000 114332 -1.4322e+002 -2.4979e+000 -3.4869e+000 21022 114153,114283,114179
 1.4000e+000 114309 -1.5433e+002 -3.7191e+001 -4.0871e+000 21022 114205,114257,114231
 1.4000e+000 114427 -9.8605e+001 -2.1667e+001  1.2287e+001 21022 114283,114257,114401
 1.4000e+000 114450 -1.2982e+002 -2.9569e+001 -1.8054e+001 21022 114283,114401,114179
 1.4000e+000 114651 -1.3385e+002 -2.0723e+001 -1.1647e+001 20618 114501,114553,114527
 1.4000e+000 114628 -6.4313e+001 -3.5864e+000  6.7922e+000 20618 114501,114579,114553
 1.4000e+000 114605 -1.4765e+002 -2.1956e+001 -9.0021e+000 20618 114475,114579,114501
 1.4000e+000 114901 -3.8391e+002 -4.8079e+001 -4.5740e+001 20114 114676,114780,114702
 1.4000e+000 114878 -2.8445e+002 -7.8974e+000 -4.9996e+001 20114 114676,114806,114780
 1.4000e+000 114855 -4.1381e+002 -2.1493e+001 -3.7473e+001 20114 114702,114780,114754
 1.4000e+000 114832 -1.0207e+003 -1.9287e+002 -6.2984e+001 20114 114702,114754,114728
 1.4000e+000 115053 -3.0554e+002 -5.2009e+001 -2.1154e-001 19460 115147,115076,114926
 1.4000e+000 115030 -3.1271e+002 -3.8663e+001 -4.0679e+000 19460 115147,114926,115004
 1.4000e+000 115102 -3.1674e+002 -6.8093e+001  5.2729e+000 19460 114952,114926,115076
 1.4000e+000 115173 -3.0875e+002 -7.6397e+001 -1.2997e+000 19460 114978,115076,115147
 1.4000e+000 115196 -3.1231e+002 -5.8732e+001 -6.8460e+000 19460 114978,115147,115004
 1.4000e+000 115446 -4.5726e+002 -7.8540e+001  5.3208e+001 19006 115273,115351,115299
 1.4000e+000 115423 -4.1253e+002 -1.6142e+002  1.5546e+001 19006 115247,115351,115273
 1.4000e+000 115400 -4.4132e+002 -1.7104e+002  3.6185e+001 19006 115221,115351,115247
 1.4000e+000 115377 -2.6870e+002 -4.1729e+001 -1.0295e+002 19006 115299,115351,115325
 1.4000e+000 115767 -1.1934e+002 -5.7709e+000  1.0249e+001 18716 115571,115649,115623
 1.4000e+000 115744 -1.3308e+002 -3.0633e+001  4.7867e+000 18716 115493,115649,115571
 1.4000e+000 115721 -1.3446e+002 -9.7246e+000  7.0960e+000 18716 115493,115571,115545
 1.4000e+000 115698 -1.4433e+002 -1.8059e+001 -8.5631e+000 18716 115493,115545,115519
 1.4000e+000 115675 -4.6912e+001  1.8012e+001 -3.0567e+000 18716 115571,115623,115597
 1.4000e+000 116039 -2.4729e+002 -6.6117e+001  1.2031e+001 18312 115814,115892,115840
 1.4000e+000 116016 -2.4627e+002 -6.3849e+001  1.2329e+001 18312 115814,115944,115892
 1.4000e+000 115993 -2.5040e+002 -1.6511e+001  1.7606e+001 18312 115892,115944,115918
 1.4000e+000 115970 -1.1896e+002 -7.1514e+000 -2.7545e+000 18312 115840,115892,115866
 1.4000e+000 116191 -4.1065e+002 -1.5983e+002 -2.2410e+000 18000 116090,116142,116116
 1.4000e+000 116168 -3.8957e+002 -1.3692e+002  8.5284e+000 18000 116064,116142,116090
 1.4000e+000 116343 -1.6868e+002  8.3021e+000 -3.3923e+000 17396 116242,116294,116268
 1.4000e+000 116320 -2.1390e+002  7.4119e+000 -3.1435e+000 17396 116216,116294,116242
 1.4000e+000 116566 -2.8973e+002 -1.2789e+002  2.0438e+001 16942 116390,116468,116442
 1.4000e+000 116543 -4.4430e+002 -1.4938e+002  4.5894e+001 16942 116390,116494,116468
 1.4000e+000 116520 -3.1358e+002 -1.8371e+002  6.0848e+000 16942 116390,116442,116416
 1.4000e+000 116767 -1.3289e+002  1.1991e+001  7.7326e+000 16438 116790,116643,116617
 1.4000e+000 116744 -1.6707e+002 -1.5501e+001 -4.5906e+000 16438 116790,116617,116591
 1.4000e+000 116721 -8.5040e+001 -1.0190e+001 -1.9980e+001 16438 116643,116695,116669
 1.4000e+000 116816 -1.1614e+002 -7.9794e+000  1.6820e+001 16438 116695,116643,116790
 1.4000e+000 116839 -1.2711e+002 -1.3811e+001  1.0633e+001 16438 116695,116790,116591
 1.4000e+000 117062 -3.4709e+001 -2.6494e+000 -8.4721e-001 16074 116886,116938,116912
 1.4000e+000 117039 -7.6765e+001 -2.1156e+001  2.8586e+000 16074 116886,116990,116938
 1.4000e+000 117016 -7.5073e+001 -5.1060e+000  3.0981e+000 16074 116938,116990,116964
 1.4000e+000 117214 -3.6167e+002 -1.6750e+002 -2.2764e+001 15649 117087,117139,117113
 1.4000e+000 117191 -4.3813e+002 -2.0942e+002  2.8615e+000 15649 117087,117165,117139
 1.4000e+000 117317 -1.0019e+001 -3.3135e+001  7.0146e+000 421 117239,117291,117265
 1.5000e+000 70632  2.3986e+001 -5.0043e+000  1.9301e+001 70072 70482,70534,70508
 1.5000e+000 70609  7.6257e+000 -4.1609e+001  1.5093e+001 70072 70482,70560,70534
 1.5000e+000 70586 -2.0530e+001 -5.1687e+001  8.1023e+000 70072 70456,70560,70482
 1.5000e+000 70951 -2.0999e+002 -1.5839e+002  0.0000e+000 69874 70703,70755,70729
 1.5000e+000 70928 -2.0710e+002 -1.5721e+002 -2.7970e-001 69874 70703,70781,70755
 1.5000e+000 70905 -2.1681e+002 -1.4793e+002 -4.2413e+000 69874 70703,70807,70781
 1.5000e+000 70882 -2.1865e+002 -1.5671e+002  6.4280e+000 69874 70703,70833,70807
 1.5000e+000 70859 -1.1086e+002 -1.0793e+002 -9.1070e+000 69874 70677,70833,70703
 1.5000e+000 71199 -9.5831e+001 -3.1204e+001  9.2453e+000 69698 71222,71052,71026
 1.5000e+000 71176 -8.7179e+001 -3.3729e+001  1.1364e+001 69698 71294,71222,71026
 1.5000e+000 71153 -8.4326e+001 -2.5479e+001  9.3845e+000 69698 71294,71026,71000
 1.5000e+000 71130 -1.2936e+002 -3.9652e+001 -7.1940e+000 69698 71366,71104,71078
 1.5000e+000 71248 -9.6366e+001 -3.2804e+001  9.2168e+000 69698 71078,71052,71222
 1.5000e+000 71271 -1.0417e+002 -4.2052e+001 -7.7230e-001 69698 71366,71078,71222
 1.5000e+000 71320 -8.3040e+001 -2.7098e+001  3.3277e+000 69698 70974,71222,71294
 1.5000e+000 71343 -8.2173e+001 -2.5109e+001  1.2070e+000 69698 70974,71294,71000
 1.5000e+000 71392 -9.9976e+001 -2.1751e+001  1.5121e+000 69698 70974,71104,71366
 1.5000e+000 71415 -8.9757e+001 -3.3711e+001  6.7145e+000 69698 70974,71366,71222
 1.5000e+000 71516 -1.1135e+002  1.1466e+000  1.0100e+001 69386 71438,71490,71464
 1.5000e+000 71869 -2.3568e+001  2.2630e+001 -1.3675e+001 69188 71644,71748,71670
 1.5000e+000 71846  3.4895e+001  2.1632e+001  1.6539e+001 69188 71644,71774,71748
 1.5000e+000 71823 -2.8460e+001 -1.3395e+001 -1.8235e+001 69188 71670,71748,71722
 1.5000e+000 71800 -6.1026e+000  3.1420e+000 -7.5650e+000 69188 71670,71722,71696
 1.5000e+000 72019 -2.9704e+002 -5.1070e+001  3.5413e+001 68990 71918,71970,71944
 1.5000e+000 71996 -3.5597e+002 -2.4373e+001  2.3925e+001 68990 71892,71970,71918
 1.5000e+000 72316 -1.3678e+002  1.4985e+001  2.2796e+000 68586 72339,72172,72146
 1.5000e+000 72293 -1.5005e+002 -1.6009e+001  6.0537e+000 68586 72339,72146,72120
 1.5000e+000 72270 -1.5064e+002 -2.9308e+001  3.6870e+001 68586 72411,72068,72198
 1.5000e+000 72247 -1.7065e+002 -2.7855e+000  5.0940e+001 68586 72042,72198,72068
 1.5000e+000 72224 -1.1427e+002 -3.5541e+000 -1.8655e+001 68586 72068,72120,72094
 1.5000e+000 72365 -1.4647e+002  2.5307e+001  3.0780e+001 68586 72198,72172,72339
 1.5000e+000 72388 -1.6369e+002 -1.4841e+001  3.1220e+001 68586 72411,72198,72339
 1.5000e+000 72437 -1.3835e+002 -1.6005e+001  2.3313e+001 68586 72120,72068,72411
 1.5000e+000 72460 -1.4910e+002  4.5879e+000  1.8438e+001 68586 72120,72411,72339
 1.5000e+000 72864 -4.0888e+001 -3.2725e+000 -9.3507e+000 68388 72642,72694,72668
 1.5000e+000 72841 -7.6494e+001 -2.9629e+001  1.7253e+001 68388 72616,72694,72642
 1.5000e+000 72818 -9.3188e+001 -1.8596e+001 -4.1894e+000 68388 72616,72720,72694
 1.5000e+000 72795 -1.4291e+002 -4.5207e+001  2.0319e+001 68388 72590,72720,72616
 1.5000e+000 72772 -1.9989e+002  9.0434e+000 -5.5047e+001 68388 72590,72746,72720
 1.5000e+000 73321 -1.0873e+002 -4.9056e+001  1.4542e-001 68048 73073,73203,73177
 1.5000e+000 73298 -1.1288e+002 -4.2674e+001  9.6423e+000 68048 73047,73203,73073
 1.5000e+000 73275 -1.3703e+002 -1.1668e+001  9.5343e+000 68048 73125,73177,73151
 1.5000e+000 73252 -1.3035e+002 -1.5489e+001  1.2628e+000 68048 73073,73177,73125
 1.5000e+000 73229 -1.0202e+002 -2.0236e+001  1.5031e+001 68048 73073,73125,73099
 1.5000e+000 73640 -1.8911e+002 -4.5311e+000 -7.7141e+000 67850 73444,73496,73470
 1.5000e+000 73617 -1.4908e+002 -4.7785e+001 -2.8883e+000 67850 73418,73496,73444
 1.5000e+000 73594 -1.3874e+002 -1.9622e+001  2.9709e+000 67850 73392,73496,73418
 1.5000e+000 73571 -1.1223e+002 -1.8392e+001  1.2190e+001 67850 73392,73522,73496
 1.5000e+000 73548 -8.9478e+001 -4.4209e+000 -1.7190e+001 67850 73366,73522,73392
 1.5000e+000 73790 -1.6671e+002 -4.3723e+001 -2.9418e+000 67602 73689,73741,73715
 1.5000e+000 73767 -1.4302e+002  1.0052e+001  1.2630e+000 67602 73663,73741,73689
 1.5000e+000 74040 -2.0648e+002 -3.3177e+001 -7.7461e+000 67290 73841,73945,73919
 1.5000e+000 74017 -1.1598e+002 -5.5346e+001 -3.4766e+001 67290 73815,73945,73841
 1.5000e+000 73994 -1.7976e+002 -2.1544e+001  1.2042e+001 67290 73841,73919,73867
 1.5000e+000 73971 -1.6684e+002  3.7431e+000  2.1585e+001 67290 73867,73919,73893
 1.5000e+000 74143 -2.0798e+002 -1.4940e+002  2.8854e+001 67092 74065,74117,74091
 1.5000e+000 74415 -1.4787e+002 -8.2277e+001 -2.2309e+001 66894 74190,74294,74216
 1.5000e+000 74392 -1.0431e+002 -5.9075e+001  2.7788e+000 66894 74190,74320,74294
 1.5000e+000 74369 -1.3842e+002 -4.1684e+001 -2.7257e+001 66894 74216,74294,74242
 1.5000e+000 74346 -1.5394e+002 -3.4605e+001 -2.0314e+001 66894 74242,74294,74268
 1.5000e+000 75023 -4.6263e+001 -8.1678e+001  2.3037e+001 66532 74654,74836,74810
 1.5000e+000 75000 -2.9958e+001 -1.8678e+001  5.0068e+001 66532 74628,74836,74654
 1.5000e+000 74977 -8.3403e+001  9.7024e+000 -1.3523e+000 66532 74706,74784,74732
 1.5000e+000 74954 -1.3935e+002  7.8165e+000 -4.4542e+001 66532 74680,74784,74706
 1.5000e+000 74931 -2.1496e+002 -1.0528e+001 -5.3061e+001 66532 74680,74810,74784
 1.5000e+000 74908 -8.4462e+001 -8.4719e+000  6.0259e+001 66532 74654,74810,74680
 1.5000e+000 74885 -4.0016e+001 -6.4110e+001  2.6279e+001 66532 74602,74836,74628
 1.5000e+000 74862 -3.5579e+001 -1.2278e+001 -2.5378e+001 66532 74732,74784,74758
 1.5000e+000 75222 -1.6997e+002 -2.1486e+001  1.7549e+001 66242 75072,75150,75124
 1.5000e+000 75199 -1.4038e+002 -3.0971e+001  8.5618e+000 66242 75046,75150,75072
 1.5000e+000 75176 -1.9269e+002 -3.9065e+001  4.6354e+000 66242 75072,75124,75098
 1.5000e+000 75470 -2.2454e+002  4.2860e+000  4.6286e+000 65838 75297,75375,75349
 1.5000e+000 75447 -2.4011e+002 -2.4816e+001 -2.0832e+000 65838 75271,75375,75297
 1.5000e+000 75424 -1.6311e+002  6.4570e+001  4.4616e+001 65838 75297,75349,75323
 1.5000e+000 75401 -2.0421e+002 -2.8442e+000  1.7524e+001 65838 75245,75375,75271
 1.5000e+000 75671 -1.1319e+002 -5.0572e+001 -4.3906e+001 65640 75495,75573,75521
 1.5000e+000 75648 -9.9262e+001 -6.2914e+001 -1.1926e+001 65640 75495,75599,75573
 1.5000e+000 75625 -1.1504e+002 -2.9592e+001 -2.8236e+001 65640 75521,75573,75547
 1.5000e+000 75872 -1.4130e+002 -4.2786e+001 -1.4920e+000 65300 75895,75748,75722
 1.5000e+000 75849 -1.2362e+002 -4.3000e+001 -2.9639e+000 65300 75895,75722,75696
 1.5000e+000 75826 -1.4810e+002 -2.8269e+001 -1.4005e+001 65300 75967,75774,75748
 1.5000e+000 75921 -1.4338e+002 -3.0879e+001  4.5067e+000 65300 75967,75748,75895
 1.5000e+000 75944 -1.3861e+002 -2.9814e+001  1.9893e+001 65300 75800,75895,75696
 1.5000e+000 75993 -1.7882e+002 -3.2681e+001 -9.4531e+000 65300 75800,75774,75967
 1.5000e+000 76016 -1.7652e+002 -3.9930e+001  5.3916e+000 65300 75800,75967,75895
 1.5000e+000 76371 -1.3949e+002  9.7576e+000  4.3810e-001 64896 76146,76250,76172
 1.5000e+000 76348 -1.4406e+002  2.2444e+000  3.1986e+000 64896 76146,76276,76250
 1.5000e+000 76325 -1.1309e+002  1.7750e+001 -1.0251e+001 64896 76172,76250,76198
 1.5000e+000 76302 -3.0505e+002 -6.5199e+001 -3.4285e+001 64896 76198,76250,76224
 1.5000e+000 76570 -2.6967e+002 -5.1089e+001  6.1082e+001 64442 76446,76498,76472
 1.5000e+000 76547 -2.1585e+002 -2.0327e+000 -1.1453e+000 64442 76420,76498,76446
 1.5000e+000 76524 -2.0136e+002 -2.0040e+001  1.6827e+001 64442 76394,76498,76420
 1.5000e+000 76999 -1.1737e+002  8.8109e+000 -1.3395e+001 63924 77022,76728,76702
 1.5000e+000 76976 -1.4042e+002 -1.3472e+001  1.2726e+000 63924 77022,76702,76832
 1.5000e+000 76953 -1.4209e+002  7.6277e+000 -5.2666e+001 63924 76728,76806,76754
 1.5000e+000 76930 -2.1490e+002 -3.8938e+001  5.2167e+000 63924 76676,76832,76702
 1.5000e+000 76907 -2.2218e+002  9.4579e+001 -4.8620e+001 63924 76754,76806,76780
 1.5000e+000 76884 -2.1495e+002  3.4543e+001 -1.0944e+000 63924 76676,76858,76832
 1.5000e+000 77048 -1.5184e+002  3.3792e+001 -1.2419e+001 63924 76806,76728,77022
 1.5000e+000 77071 -1.7123e+002  1.5649e+001  1.4799e+000 63924 76806,77022,76832
 1.5000e+000 77449 -1.0090e+002  2.8582e+001  1.7351e+001 63320 77472,77253,77201
 1.5000e+000 77426 -8.7814e+001  1.5494e+000 -1.3769e+001 63320 77472,77201,77175
 1.5000e+000 77403 -1.5749e+002 -3.0841e+001  1.1817e+000 63320 77175,77305,77279
 1.5000e+000 77380 -1.2470e+002 -2.5440e+001  6.1861e+001 63320 77201,77253,77227
 1.5000e+000 77357 -1.4670e+002 -1.8196e+001 -2.6293e+001 63320 77175,77331,77305
 1.5000e+000 77498 -1.3441e+002 -2.9657e+001  3.0935e+001 63320 77279,77253,77472
 1.5000e+000 77521 -1.0015e+002 -1.9202e+001 -8.2831e+000 63320 77279,77472,77175
 1.5000e+000 77769 -1.6666e+002 -1.0900e+002  1.1134e-001 62816 77570,77622,77596
 1.5000e+000 77746 -1.4984e+002 -7.9155e+001 -6.6158e+000 62816 77570,77648,77622
 1.5000e+000 77723 -1.9787e+002 -8.8010e+001 -4.1928e+001 62816 77570,77674,77648
 1.5000e+000 77700 -1.6015e+002 -4.7706e+001 -2.2016e+001 62816 77544,77674,77570
 1.5000e+000 78149 -6.0024e+001 -4.9605e+001 -2.1544e+001 62354 77953,78031,78005
 1.5000e+000 78126 -1.1171e+002 -3.4704e+001 -3.6182e+001 62354 77901,78031,77953
 1.5000e+000 78103 -4.1995e+001 -8.0993e-001  2.7043e+000 62354 77875,78031,77901
 1.5000e+000 78080 -1.7510e+002 -1.4071e+001  1.9483e+001 62354 77901,77953,77927
 1.5000e+000 78057 -1.2241e+002 -9.5890e+001  2.1233e-001 62354 77953,78005,77979
 1.5000e+000 78606 -6.8279e+001 -1.6732e+001 -1.7416e+001 61950 78384,78436,78410
 1.5000e+000 78583 -6.4429e+001 -5.0881e+000 -2.8206e+000 61950 78358,78436,78384
 1.5000e+000 78560 -4.8142e+001 -1.8398e+001  4.9983e+000 61950 78358,78488,78436
 1.5000e+000 78537 -2.9299e+001 -7.2617e+000 -8.9546e+000 61950 78436,78488,78462
 1.5000e+000 78514 -7.7904e+001 -3.5210e+001 -2.0471e+000 61950 78332,78488,78358
 1.5000e+000 78756 -1.8284e+002 -4.4686e+001  3.1501e+001 61339 78779,78655,78629
 1.5000e+000 78733 -1.7516e+002 -7.4773e+000  2.6897e+001 61339 78779,78629,78707
 1.5000e+000 78805 -1.4915e+002 -1.6721e+001  1.2466e+001 61339 78851,78779,78681
 1.5000e+000 78828 -1.7746e+002 -3.1732e+001  1.8066e+001 61339 78681,78779,78707
 1.5000e+000 78877 -1.8171e+002 -9.3404e+001  1.4443e+001 61339 78655,78779,78851
 1.5000e+000 79206 -1.5735e+002 -7.2716e+001 -5.0697e+001 60892 79229,79007,78981
 1.5000e+000 79183 -1.7261e+002 -9.8436e+001 -3.8522e+001 60892 79229,78981,79111
 1.5000e+000 79160 -1.8780e+002 -8.0057e+001 -4.3510e+001 60892 79301,79033,79007
 1.5000e+000 79137 -2.5690e+002 -2.0933e+001  7.0838e+000 60892 79033,79085,79059
 1.5000e+000 79255 -1.8477e+002 -8.2922e+001 -4.0959e+001 60892 79301,79007,79229
 1.5000e+000 79278 -1.6956e+002 -8.4618e+001 -2.8121e+001 60892 79085,79229,79111
 1.5000e+000 79327 -1.9401e+002 -8.4395e+001 -2.8439e+001 60892 79085,79033,79301
 1.5000e+000 79350 -1.6829e+002 -7.6845e+001 -2.8628e+001 60892 79085,79301,79229
 1.5000e+000 79647 -2.6580e+002 -9.5578e+001 -3.2999e+001 60488 79451,79529,79503
 1.5000e+000 79624 -2.6857e+002 -8.8591e+001 -1.8894e+001 60488 79425,79529,79451
 1.5000e+000 79601 -1.9201e+002 -6.8855e+001 -8.7448e+000 60488 79373,79529,79425
 1.5000e+000 79578 -1.6917e+002 -5.1492e+001  6.0560e+000 60488 79373,79425,79399
 1.5000e+000 79555 -2.7822e+002 -9.5657e+000 -1.8612e+001 60488 79451,79503,79477
 1.5000e+000 79870 -2.2124e+002 -1.4333e+002 -2.4449e+001 60026 79720,79798,79772
 1.5000e+000 79847 -3.0758e+002 -1.4119e+002 -2.0186e+001 60026 79694,79798,79720
 1.5000e+000 79824 -2.8050e+002 -1.6053e+002 -3.9802e+000 60026 79720,79772,79746
 1.5000e+000 80120 -8.7015e+001 -2.2571e+001  2.2016e+001 59629 79921,80025,79973
 1.5000e+000 80097 -1.0216e+002 -3.2388e+001  1.8712e+001 59629 79895,80025,79921
 1.5000e+000 80074 -7.8317e+001 -1.3959e+001  3.6436e+000 59629 79973,80025,79999
 1.5000e+000 80051 -4.4831e+001 -2.1905e+001  1.6776e+001 59629 79921,79973,79947
 1.5000e+000 80321 -1.0333e+002 -2.6200e+001 -1.2782e+001 59125 80344,80171,80145
 1.5000e+000 80298 -1.2795e+002 -5.0463e+001 -9.5814e-001 59125 80344,80145,80249
 1.5000e+000 80275 -1.6232e+002 -5.2470e+001  2.0295e+001 59125 80197,80249,80223
 1.5000e+000 80370 -1.3504e+002 -1.1820e+001  8.0662e+000 59125 80197,80171,80344
 1.5000e+000 80393 -1.5726e+002 -3.2695e+001  1.9021e+001 59125 80197,80344,80249
 1.5000e+000 80952 -6.1833e+001 -1.6207e+001  5.0614e+000 58557 80975,80632,80606
 1.5000e+000 80929 -1.0799e+002 -1.8034e+001  1.2579e+001 58557 81119,80975,80606
 1.5000e+000 80906 -9.8411e+001 -3.1575e+001 -3.8374e+000 58557 81047,80684,80632
 1.5000e+000 80883 -1.2543e+002 -2.6641e+001  4.3401e+000 58557 81119,80606,80580
 1.5000e+000 80860 -1.1287e+002  1.9718e+001 -1.1917e+001 58557 81191,80736,80710
 1.5000e+000 80837 -1.2028e+002 -3.3814e+000 -2.1741e+001 58557 80736,80788,80762
 1.5000e+000 80814 -8.5343e+001 -3.5644e+001 -1.0181e+001 58557 80632,80684,80658
 1.5000e+000 81001 -9.9346e+001 -3.4306e+001 -2.2659e+000 58557 81047,80632,80975
 1.5000e+000 81024 -1.0375e+002 -5.4437e+000 -7.3852e-001 58557 81191,80710,80975
 1.5000e+000 81073 -9.9227e+001 -2.2664e+001 -8.0405e+000 58557 80710,80684,81047
 1.5000e+000 81096 -1.0461e+002 -2.8324e+001 -5.2066e+000 58557 80710,81047,80975
 1.5000e+000 81145 -1.1725e+002 -3.3138e+001  1.6499e+000 58557 80788,80975,81119
 1.5000e+000 81168 -1.1922e+002 -3.3617e+001 -4.9376e+000 58557 80788,81119,80580
 1.5000e+000 81217 -1.2862e+002 -1.8239e+000 -2.9339e+000 58557 80788,80736,81191
 1.5000e+000 81240 -1.1713e+002 -1.9662e+001  8.5244e+000 58557 80788,81191,80975
 1.5000e+000 81537 -2.3595e+002 -1.0165e+002 -8.6701e+000 57881 81560,81341,81289
 1.5000e+000 81514 -2.1279e+002 -9.1368e+001 -2.3030e+001 57881 81560,81289,81263
 1.5000e+000 81491 -2.6713e+002 -9.7864e+001 -5.3001e+000 57881 81632,81419,81367
 1.5000e+000 81468 -2.4300e+002 -4.0217e+001 -2.3945e+000 57881 81367,81419,81393
 1.5000e+000 81445 -2.6363e+002 -9.4754e+001 -2.4448e+000 57881 81289,81341,81315
 1.5000e+000 81586 -2.3150e+002 -7.9627e+001 -1.4979e+001 57881 81367,81341,81560
 1.5000e+000 81609 -2.6065e+002 -9.2439e+001 -8.9489e+000 57881 81632,81367,81560
 1.5000e+000 81658 -2.4924e+002 -1.4869e+002  2.5962e+000 57881 81263,81419,81632
 1.5000e+000 81681 -2.2385e+002 -1.1878e+002 -9.7217e+000 57881 81263,81632,81560
 1.5000e+000 81929 -1.4096e+002 -9.8721e+001  3.8807e+001 57477 81704,81808,81782
 1.5000e+000 81906 -1.2373e+002 -4.7372e+001  1.7048e+001 57477 81704,81834,81808
 1.5000e+000 81883 -1.1212e+002 -1.9100e+001  3.8375e+001 57477 81704,81782,81730
 1.5000e+000 81860 -1.3798e+002 -5.7067e+001  5.3228e+001 57477 81730,81782,81756
 1.5000e+000 82488 -1.0040e+002 -3.5374e+001  2.8944e+000 56966 82583,82511,82194
 1.5000e+000 82465 -9.1494e+001 -9.9590e+000 -2.1216e+000 56966 82511,82116,82324
 1.5000e+000 82442 -1.0110e+002 -5.2477e+001  7.9053e+000 56966 82583,82194,82168
 1.5000e+000 82419 -1.4362e+002 -4.5827e+001  1.4612e+001 56966 82194,82246,82220
 1.5000e+000 82396 -9.8675e+001 -2.5005e+001  1.9781e+001 56966 82194,82298,82246
 1.5000e+000 82373 -1.2016e+002 -1.6121e+001  4.3317e+001 56966 82246,82298,82272
 1.5000e+000 82350 -7.7567e+001 -1.0572e+001 -1.0380e+001 56966 82116,82168,82142
 1.5000e+000 82537 -1.0488e+002 -2.2716e+001  1.3707e+001 56966 82298,82194,82511
 1.5000e+000 82560 -7.6329e+001 -6.9238e+000  2.0090e+001 56966 82298,82511,82324
 1.5000e+000 82609 -1.0309e+002 -1.5849e+001  1.7411e+000 56966 82116,82511,82583
 1.5000e+000 82632 -9.9893e+001 -2.9166e+001  4.9310e+000 56966 82116,82583,82168
 1.5000e+000 83236 -1.8808e+002 -8.1683e+001 -4.2841e+001 56304 82893,82945,82919
 1.5000e+000 83213 -1.7866e+002 -7.9164e+001 -4.0785e+001 56304 83259,82945,82893
 1.5000e+000 83190 -1.5252e+002 -3.1845e+001 -1.7897e+001 56304 83259,82893,83049
 1.5000e+000 83167 -9.1430e+001 -1.9038e+000  7.8829e+000 56304 82971,83049,83023
 1.5000e+000 83144 -1.3944e+002 -6.6376e+000 -1.2633e+001 56304 82815,83049,82893
 1.5000e+000 83121 -1.3331e+002 -4.4626e+000 -1.6639e+001 56304 82815,82893,82867
 1.5000e+000 83098 -6.5672e+001 -2.3472e+001 -8.6545e+000 56304 82971,83023,82997
 1.5000e+000 83075 -8.3459e+001 -1.1123e+001  2.9813e+001 56304 82815,82867,82841
 1.5000e+000 83285 -1.8498e+002 -1.1720e+001 -2.2863e+001 56304 82971,82945,83259
 1.5000e+000 83308 -1.7465e+002  3.1371e+000  2.2047e+000 56304 82971,83259,83049
 1.5000e+000 83556 -1.9959e+002 -9.6860e+001 -4.5654e+000 55964 83357,83461,83435
 1.5000e+000 83533 -1.6634e+002 -2.6609e+001  2.7091e+001 55964 83331,83461,83357
 1.5000e+000 83510 -8.4766e+001 -6.9201e+001  4.5514e+000 55964 83357,83435,83383
 1.5000e+000 83487 -1.7508e+002 -1.0095e+002 -9.1490e+000 55964 83383,83435,83409
 1.5000e+000 83706 -2.0932e+002 -1.1603e+002 -1.1080e+001 55503 83579,83631,83605
 1.5000e+000 83683 -2.8682e+002 -1.1040e+002 -5.9087e-001 55503 83579,83657,83631
 1.5000e+000 83907 -1.7045e+002 -8.5772e+001 -2.9566e+001 55156 83757,83835,83809
 1.5000e+000 83884 -1.4914e+002 -2.0712e+001 -7.3428e+000 55156 83731,83835,83757
 1.5000e+000 83861 -2.0927e+002 -4.1334e+001 -2.5043e+001 55156 83757,83809,83783
 1.5000e+000 84240 -1.0186e+002 -2.6536e+001  8.1492e+000 54652 84093,84145,84119
 1.5000e+000 84217 -1.8064e+002 -1.2000e+001  4.4695e+001 54652 84041,84145,84093
 1.5000e+000 84194 -1.9989e+002 -3.2331e+001  3.0479e+001 54652 84015,84145,84041
 1.5000e+000 84171 -3.3318e+002 -7.5815e+001  4.5923e+001 54652 84041,84093,84067
 1.5000e+000 84618 -1.0645e+002 -8.6218e+001  2.4828e+001 53926 84396,84500,84474
 1.5000e+000 84595 -8.0185e+001 -9.8310e+001  3.9009e+001 53926 84344,84500,84396
 1.5000e+000 84572 -8.3336e+001 -1.0779e+002  3.6811e+001 53926 84344,84396,84370
 1.5000e+000 84549 -7.6391e+001 -6.4843e+001  3.5451e-001 53926 84396,84474,84422
 1.5000e+000 84526 -1.6303e+002 -7.1035e+001 -2.3005e+001 53926 84422,84474,84448
 1.5000e+000 85350 -2.5515e+002 -8.7575e+001 -6.3376e+001 53586 85373,84880,85088
 1.5000e+000 85327 -1.1675e+002 -8.2134e+001 -6.3709e+001 53586 84880,85114,85088
 1.5000e+000 85304 -1.0185e+002 -1.8462e+001 -4.8374e+001 53586 85373,85088,85062
 1.5000e+000 85281 -3.0596e+002 -1.5482e+002  7.4183e+001 53586 85010,85062,85036
 1.5000e+000 85258 -2.7668e+002 -4.9910e+001 -2.2391e+000 53586 85445,85010,84958
 1.5000e+000 85235 -1.1100e+002  1.3086e+001 -1.5218e+001 53586 85445,84958,84906
 1.5000e+000 85212 -1.9409e+002 -6.9123e+001 -2.9734e+001 53586 84958,85010,84984
 1.5000e+000 85189 -1.8874e+002 -4.6814e+001 -5.4748e+001 53586 84906,84958,84932
 1.5000e+000 85166 -1.5334e+002 -1.3618e+002 -3.5276e+001 53586 84880,85140,85114
 1.5000e+000 85399 -3.0520e+002 -6.4347e+001  9.1604e+001 53586 84906,84880,85373
 1.5000e+000 85422 -1.8255e+002  7.9711e-001  7.2775e+001 53586 85517,85373,85062
 1.5000e+000 85471 -2.7183e+002 -4.5315e+001  9.2217e+001 53586 85062,85010,85445
 1.5000e+000 85494 -1.7583e+002  5.9043e+000  7.0238e+001 53586 85517,85062,85445
 1.5000e+000 85543 -1.6980e+002 -8.9713e+000  7.5075e+001 53586 84906,85373,85517
 1.5000e+000 85566 -1.6654e+002 -7.0434e+000  7.3749e+001 53586 84906,85517,85445
 1.5000e+000 86072 -1.0941e+002 -4.4259e+001 -1.6557e+001 53182 86095,85853,85775
 1.5000e+000 86049 -1.1760e+002 -3.9118e+001 -1.3223e+001 53182 86095,85775,85931
 1.5000e+000 86026 -1.3113e+002 -5.4508e+001 -1.4645e+001 53182 86167,85879,85853
 1.5000e+000 86003 -2.0335e+002 -5.0445e+001  1.5635e+001 53182 85775,85827,85801
 1.5000e+000 85980 -1.1372e+002 -5.8767e+001 -1.2870e+001 53182 85775,85853,85827
 1.5000e+000 85957 -8.9935e+001 -3.4867e+001  1.0472e+001 53182 85749,85931,85775
 1.5000e+000 86121 -1.1986e+002 -4.8246e+001 -1.8264e+001 53182 86167,85853,86095
 1.5000e+000 86144 -1.1322e+002 -4.4569e+001 -1.3101e+001 53182 85905,86095,85931
 1.5000e+000 86193 -1.2870e+002 -5.7037e+001 -5.4577e+000 53182 85905,85879,86167
 1.5000e+000 86216 -1.2039e+002 -5.5437e+001 -8.0712e+000 53182 85905,86167,86095
 1.5000e+000 86673 -1.3952e+002 -3.1563e+000  3.1703e+001 52778 86477,86529,86503
 1.5000e+000 86650 -1.3539e+002 -4.3472e+001  9.5341e+000 52778 86425,86529,86477
 1.5000e+000 86627 -1.1555e+002 -6.1857e+001  3.0523e+001 52778 86425,86477,86451
 1.5000e+000 86604 -8.8698e+001 -5.8708e+000  2.6773e+001 52778 86399,86529,86425
 1.5000e+000 86581 -5.2919e+001  2.1061e+001  9.3928e-001 52778 86399,86555,86529
 1.5000e+000 87258 -1.1765e+002 -1.5180e+001  1.3953e+001 52238 87281,86987,86961
 1.5000e+000 87235 -1.1964e+002 -2.5432e+001  4.0073e+000 52238 87281,86961,87117
 1.5000e+000 87212 -1.2271e+002  4.4871e+000  1.0116e+000 52238 86935,87117,86961
 1.5000e+000 87189 -1.3549e+002  8.3770e+000 -2.6090e-001 52238 87065,87117,87091
 1.5000e+000 87166 -1.3330e+002 -4.6703e+001  8.4314e+000 52238 86987,87065,87039
 1.5000e+000 87143 -1.5131e+002 -1.0115e+002  5.1948e+001 52238 86987,87039,87013
 1.5000e+000 87307 -1.2543e+002 -3.3715e+001  1.2988e+001 52238 87065,86987,87281
 1.5000e+000 87330 -1.2214e+002 -3.1982e+001  2.6458e+000 52238 87065,87281,87117
 1.5000e+000 87610 -1.5426e+002 -6.0427e+000  9.7161e+000 51834 87434,87512,87460
 1.5000e+000 87587 -1.2590e+002  2.9489e+001  6.2394e+001 51834 87434,87538,87512
 1.5000e+000 87564 -2.3723e+002 -7.2637e+001 -2.5429e+001 51834 87633,87460,87512
 1.5000e+000 87659 -3.1049e+002 -1.0407e+002 -2.8772e+001 51834 87486,87460,87633
 1.5000e+000 88187 -2.3431e+002 -7.2255e+001 -8.8895e-001 51266 87864,87942,87890
 1.5000e+000 88164 -2.2696e+002 -1.4195e+001 -1.3645e+000 51266 87864,88020,87942
 1.5000e+000 88141 -3.7262e+002 -1.0646e+002 -6.3337e+001 51266 87942,88020,87968
 1.5000e+000 88118 -3.0786e+002 -1.0379e+002  4.4202e+001 51266 87864,88046,88020
 1.5000e+000 88095 -2.3752e+002 -2.0306e+001 -9.4383e+000 51266 87968,88020,87994
 1.5000e+000 88072 -2.0134e+002 -8.7426e+001 -2.9197e+001 51266 87890,87942,87916
 1.5000e+000 88644 -1.9786e+002 -8.6976e+001 -1.8863e+001 50754 88370,88500,88396
 1.5000e+000 88621 -2.0963e+002 -2.8788e+001 -3.0766e+001 50754 88370,88526,88500
 1.5000e+000 88598 -1.4376e+002 -3.2044e+001  2.6669e+001 50754 88396,88500,88422
 1.5000e+000 88575 -1.4351e+002 -3.1911e+001  2.6932e+001 50754 88422,88500,88474
 1.5000e+000 88552 -2.6790e+002 -1.0959e+002 -2.6823e+001 50754 88422,88474,88448
 1.5000e+000 88914 -2.2397e+002 -6.8032e+001 -3.4943e+000 50442 88715,88793,88741
 1.5000e+000 88891 -2.0203e+002 -9.0260e+001 -4.1572e+000 50442 88715,88819,88793
 1.5000e+000 88868 -2.4754e+002 -1.3012e+002 -2.1484e+001 50442 88689,88819,88715
 1.5000e+000 88845 -2.0074e+002 -8.6926e+001 -6.3585e+001 50442 88741,88793,88767
 1.5000e+000 89294 -2.8491e+002 -1.0179e+002 -1.1918e+001 49938 89317,89046,89020
 1.5000e+000 89271 -2.6977e+002 -1.1482e+002 -2.0432e+001 49938 89317,89020,89150
 1.5000e+000 89248 -2.1899e+002 -9.8322e+001  3.2776e+000 49938 89072,89150,89098
 1.5000e+000 89225 -2.9548e+002 -1.1152e+002 -3.5745e+001 49938 89020,89176,89150
 1.5000e+000 89202 -1.6817e+002 -9.3874e+001 -3.6618e+001 49938 89098,89150,89124
 1.5000e+000 89343 -2.2181e+002  3.1488e+000  1.4935e+001 49938 89072,89046,89317
 1.5000e+000 89366 -2.7476e+002 -1.0411e+002 -1.2984e+001 49938 89072,89317,89150
 1.5000e+000 89823 -1.7348e+002 -8.0935e+001 -6.0012e+000 49384 89601,89705,89679
 1.5000e+000 89800 -1.3532e+002 -4.4282e+001  2.6814e+001 49384 89549,89705,89601
 1.5000e+000 89777 -8.0245e+001 -2.9547e+001  9.1386e+000 49384 89549,89601,89575
 1.5000e+000 89754 -1.1616e+002 -5.9969e+001  4.5163e+000 49384 89601,89679,89627
 1.5000e+000 89731 -8.6665e+001 -1.7318e+001 -2.2054e+001 49384 89627,89679,89653
 1.5000e+000 90329 -1.0195e+002 -4.0842e+001 -8.1247e-001 48894 90058,90110,90084
 1.5000e+000 90306 -1.3428e+002 -5.0983e+001  5.3050e+001 48894 90058,90162,90110
 1.5000e+000 90283 -1.9326e+002 -3.9447e+001  3.4565e+001 48894 90032,90162,90058
 1.5000e+000 90260 -1.0666e+002  9.7736e+000 -1.0270e+001 48894 90006,90162,90032
 1.5000e+000 90237 -5.6521e+001 -2.0246e+001  1.1982e+001 48894 90110,90162,90136
 1.5000e+000 90214 -1.3728e+002 -7.9258e-001 -1.2062e+001 48894 90006,90188,90162
 1.5000e+000 90884 -2.1883e+002 -8.6853e+001  3.3265e+001 48490 90564,90642,90616
 1.5000e+000 90861 -2.0625e+002 -8.4887e+000 -9.8213e+000 48490 90564,90694,90642
 1.5000e+000 90838 -2.8338e+002 -3.2558e+001 -4.0269e+000 48490 90538,90694,90564
 1.5000e+000 90815 -3.4032e+002 -8.0634e+001  1.7990e+001 48490 90538,90720,90694
 1.5000e+000 90792 -1.9853e+002 -4.1189e+001  2.9505e+001 48490 90564,90616,90590
 1.5000e+000 90769 -2.1589e+002 -3.5753e+001 -1.5151e+001 48490 90642,90694,90668
 1.5000e+000 90746 -2.9526e+002 -6.9103e+001  8.1727e+000 48490 90512,90720,90538
 1.5000e+000 91034 -1.7900e+002 -1.4278e+001 -3.8383e+001 48086 91057,90959,90933
 1.5000e+000 91011 -1.8593e+002 -2.4458e+001 -4.2678e+001 48086 91129,91057,90933
 1.5000e+000 91083 -1.8664e+002 -8.9896e+000 -4.3470e+001 48086 90985,90959,91057
 1.5000e+000 91106 -1.6946e+002 -9.4748e+000 -3.5346e+001 48086 90985,91057,90907
 1.5000e+000 91155 -1.2886e+002 -2.5147e+000 -4.0370e+001 48086 90907,91057,91129
 1.5000e+000 91791 -1.8784e+002 -3.0669e+001 -1.5022e+001 47518 92030,91814,91523
 1.5000e+000 91768 -1.3869e+002 -8.9099e+000 -1.4960e+001 47518 91958,91814,91471
 1.5000e+000 91745 -1.3301e+002  8.6517e+001 -3.3759e+000 47518 91886,91575,91523
 1.5000e+000 91722 -1.4649e+002 -3.5975e+001 -6.1180e+000 47518 91958,91471,91419
 1.5000e+000 91699 -2.3883e+002  1.7429e+001 -4.2720e+001 47518 92030,91523,91497
 1.5000e+000 91676 -2.3127e+002  9.3154e+001 -2.4469e+001 47518 91523,91575,91549
 1.5000e+000 91653 -1.0395e+002 -4.7631e+001 -2.0927e+001 47518 91419,91471,91445
 1.5000e+000 91840 -1.5569e+002  3.9916e+001 -2.8587e+001 47518 91886,91523,91814
 1.5000e+000 91863 -1.7808e+002 -5.5498e+001  1.8378e+001 47518 91601,91814,91627
 1.5000e+000 91912 -1.0326e+002  1.0785e+002  6.1947e+001 47518 91601,91575,91886
 1.5000e+000 91935 -1.3199e+002  6.8335e+000  4.0028e+001 47518 91601,91886,91814
 1.5000e+000 91984 -1.4761e+002 -3.1854e+001 -3.3080e+000 47518 91627,91814,91958
 1.5000e+000 92007 -1.4548e+002 -4.6064e+001  4.6215e+000 47518 91627,91958,91419
 1.5000e+000 92056 -2.1324e+002 -8.0474e+001 -5.3312e+001 47518 91471,91814,92030
 1.5000e+000 92079 -2.5825e+002 -5.1940e+001 -8.5196e+001 47518 91471,92030,91497
 1.5000e+000 92229 -1.1769e+002 -4.8464e+001 -3.0378e+001 47128 92252,92128,92102
 1.5000e+000 92206 -1.5500e+002 -7.6341e+001 -4.7415e+000 47128 92324,92252,92102
 1.5000e+000 92278 -1.5197e+002 -1.1636e+002 -2.3112e+001 47128 92454,92252,92154
 1.5000e+000 92301 -1.4845e+002 -5.4115e+001 -9.7947e+000 47128 92154,92252,92180
 1.5000e+000 92350 -1.3075e+002 -4.4538e+001  6.2594e+000 47128 92180,92252,92324
 1.5000e+000 92480 -1.4491e+002 -5.3350e+001 -1.1171e+001 47128 92128,92252,92454
 1.5000e+000 93340 -2.2238e+002 -9.3936e+000  2.8226e+001 46838 93363,92977,92873
 1.5000e+000 93317 -2.9255e+002 -3.4844e+001  7.2743e+000 46838 93507,93363,92873
 1.5000e+000 93294 -2.5087e+002 -8.3632e+001 -1.1696e+001 46838 93435,93003,92977
 1.5000e+000 93271 -3.1730e+002 -6.5035e+001 -7.0099e+000 46838 93507,92873,92847
 1.5000e+000 93248 -2.4088e+002 -6.1108e+001 -9.2724e+000 46838 93579,93029,93003
 1.5000e+000 93225 -1.7148e+002 -3.7388e+001 -2.4630e+000 46838 92873,92951,92925
 1.5000e+000 93202 -1.6889e+002 -4.5144e+001  3.5079e+000 46838 92873,92977,92951
 1.5000e+000 93179 -3.1254e+002 -9.0308e+001  2.4307e+001 46838 93055,93107,93081
 1.5000e+000 93156 -4.5400e+002 -1.6834e+002 -1.2387e+001 46838 92821,93107,92847
 1.5000e+000 93133 -1.6299e+002 -6.8528e+001  1.5567e+001 46838 92873,92925,92899
 1.5000e+000 93389 -2.6749e+002 -6.2209e+001 -1.0767e+000 46838 93435,92977,93363
 1.5000e+000 93412 -2.4981e+002 -2.9819e+001 -7.2760e-001 46838 93055,93363,93107
 1.5000e+000 93461 -2.4262e+002 -6.0453e+001 -1.1474e+001 46838 93579,93003,93435
 1.5000e+000 93484 -2.5168e+002 -3.1775e+001 -8.7462e+000 46838 93055,93435,93363
 1.5000e+000 93533 -2.6665e+002 -8.2085e+001  5.2135e+000 46838 93107,93363,93507
 1.5000e+000 93556 -2.6879e+002 -9.5438e+001  2.0074e+000 46838 93107,93507,92847
 1.5000e+000 93605 -2.3612e+002 -5.9165e+001 -9.1959e+000 46838 93055,93029,93579
 1.5000e+000 93628 -2.3816e+002 -5.8625e+001 -1.1317e+001 46838 93055,93579,93435
 1.5000e+000 93979 -2.0095e+002  4.7180e+001  2.3931e+001 46476 93780,93884,93858
 1.5000e+000 93956 -2.3109e+002 -1.7968e+001  1.3455e+001 46476 93754,93884,93780
 1.5000e+000 93933 -4.5898e+002 -1.7859e+001 -2.8232e+000 46476 93806,93858,93832
 1.5000e+000 93910 -4.4773e+002 -5.4309e+001  2.7643e+001 46476 93780,93858,93806
 1.5000e+000 94515 -1.7799e+002 -4.8150e+001  8.0155e+000 46072 94345,94397,94371
 1.5000e+000 94492 -1.0183e+002 -1.7050e+001  1.5664e+001 46072 94267,94397,94345
 1.5000e+000 94469 -6.9048e+001  7.0041e-001 -2.0430e+000 46072 94241,94397,94267
 1.5000e+000 94446 -5.6239e+001 -1.1012e+001 -2.3165e+001 46072 94293,94345,94319
 1.5000e+000 94423 -1.0609e+002  4.3567e+000  1.4028e+001 46072 94267,94345,94293
 1.5000e+000 95149 -1.5302e+002 -3.6605e+001 -1.5495e+001 45346 94803,94881,94855
 1.5000e+000 95126 -1.3265e+002 -2.7107e+001 -1.9186e+001 45346 94803,94959,94881
 1.5000e+000 95103 -8.5782e+001 -9.8104e+000 -8.6146e+000 45346 95172,94933,94907
 1.5000e+000 95080 -1.1049e+002 -2.3880e+001  2.1787e+000 45346 95172,94907,94881
 1.5000e+000 95057 -1.4382e+002 -5.8489e+001 -3.4255e+001 45346 94803,94985,94959
 1.5000e+000 95034 -1.7066e+002 -1.9790e+001 -1.1799e+000 45346 94803,94855,94829
 1.5000e+000 95011 -1.4114e+002 -9.8284e+001 -1.5711e+002 45346 94777,94985,94803
 1.5000e+000 95198 -1.0961e+002 -3.9072e-001 -8.7782e+000 45346 94959,94933,95172
 1.5000e+000 95221 -1.2492e+002 -3.3244e+000 -3.5264e+000 45346 94959,95172,94881
 1.5000e+000 95776 -8.3800e+001 -1.1145e+001  5.0082e+001 44720 95799,95560,95534
 1.5000e+000 95753 -1.1327e+002 -2.8983e+001  5.9789e+001 44720 95799,95534,95482
 1.5000e+000 95730 -1.3923e+002 -1.4156e+001  5.4193e+001 44720 95943,95871,95430
 1.5000e+000 95707 -1.4649e+002  2.5027e+000  5.6460e+001 44720 95943,95430,95404
 1.5000e+000 95684 -2.3914e+002 -5.4152e+001  6.0969e+001 44720 95430,95482,95456
 1.5000e+000 95661 -3.9049e+001 -8.0792e+000  4.0367e+001 44720 95482,95534,95508
 1.5000e+000 95638 -1.2329e+002  1.1321e+001  6.3721e+001 44720 95404,95612,95586
 1.5000e+000 95825 -1.1226e+002  4.7297e+000  5.4735e+001 44720 95586,95560,95799
 1.5000e+000 95848 -1.1569e+002 -4.2213e+000  5.4739e+001 44720 95871,95586,95799
 1.5000e+000 95897 -1.3468e+002 -1.9295e+001  4.3177e+001 44720 95482,95430,95871
 1.5000e+000 95920 -1.3255e+002 -8.5880e+000  4.8975e+001 44720 95482,95871,95799
 1.5000e+000 95969 -1.2489e+002  5.4840e+000  4.7936e+001 44720 95586,95871,95943
 1.5000e+000 95992 -1.3897e+002  1.3819e+001  5.3166e+001 44720 95586,95943,95404
 1.5000e+000 96449 -1.1800e+002 -1.8952e+001  1.0205e+001 44202 96544,96472,96227
 1.5000e+000 96426 -1.4118e+002 -7.9680e+001  3.0346e+001 44202 96472,96175,96331
 1.5000e+000 96403 -1.6018e+002  1.0033e+001  3.8431e+000 44202 96544,96227,96201
 1.5000e+000 96380 -3.0599e+001 -7.8860e+000 -1.9192e+001 44202 96253,96305,96279
 1.5000e+000 96357 -8.5595e+001 -1.7907e+000  1.3125e+001 44202 96227,96305,96253
 1.5000e+000 96498 -1.1667e+002 -4.2528e+001 -7.2897e-001 44202 96305,96227,96472
 1.5000e+000 96521 -1.2239e+002 -3.1834e+001  2.4030e+001 44202 96305,96472,96331
 1.5000e+000 96570 -1.5447e+002 -6.8905e+001 -6.5716e+000 44202 96175,96472,96544
 1.5000e+000 96593 -1.7986e+002 -1.8927e+001 -6.9052e+000 44202 96175,96544,96201
 1.5000e+000 96971 -2.2699e+002 -1.4460e+002  3.1534e+001 43754 96994,96749,96697
 1.5000e+000 96948 -2.4001e+002 -1.4603e+002  3.0775e+001 43754 96994,96697,96853
 1.5000e+000 96925 -2.1052e+002 -1.5466e+002  2.1640e+001 43754 96697,96749,96723
 1.5000e+000 96902 -2.0714e+002 -8.2340e+001 -6.9797e+000 43754 96775,96853,96827
 1.5000e+000 96879 -1.1310e+002 -7.8447e+001  5.6575e+000 43754 96775,96827,96801
 1.5000e+000 97020 -2.3080e+002 -1.3797e+002  1.7812e+001 43754 96775,96749,96994
 1.5000e+000 97043 -2.5039e+002 -1.4185e+002  1.9663e+001 43754 96775,96994,96853
 1.5000e+000 97291 -1.6296e+002 -2.3828e+001 -1.6639e+001 43364 97314,97144,97118
 1.5000e+000 97268 -1.7708e+002 -4.1263e+001 -2.4287e+001 43364 97314,97118,97092
 1.5000e+000 97245 -1.4900e+002 -4.5891e+001 -1.0160e+001 43364 97386,97196,97170
 1.5000e+000 97222 -1.7973e+002 -7.4149e+001 -2.3458e+001 43364 97066,97196,97092
 1.5000e+000 97340 -1.6517e+002 -4.2325e+001 -1.4839e+001 43364 97170,97144,97314
 1.5000e+000 97363 -1.5315e+002 -3.7957e+001 -1.6663e+001 43364 97386,97170,97314
 1.5000e+000 97412 -1.5326e+002 -5.4841e+001 -1.5071e+001 43364 97092,97196,97386
 1.5000e+000 97435 -1.6203e+002 -5.4116e+001 -2.2610e+001 43364 97092,97386,97314
 1.5000e+000 97788 -1.3504e+002  4.8381e+000 -1.0119e+001 42960 97563,97667,97589
 1.5000e+000 97765 -2.3641e+002 -8.6564e+001  2.8139e+001 42960 97563,97693,97667
 1.5000e+000 97742 -3.2833e+002  8.6610e+000 -4.6212e+000 42960 97589,97641,97615
 1.5000e+000 97719 -3.1180e+002 -4.3449e+001 -1.6797e+001 42960 97589,97667,97641
 1.5000e+000 98215 -1.3508e+002 -5.3864e+001 -6.1776e+001 42563 97918,98074,98048
 1.5000e+000 98192 -6.9719e+001 -1.0195e+001 -4.0698e+001 42563 97892,98074,97918
 1.5000e+000 98169 -1.4518e+002 -1.9865e+001 -7.1320e+001 42563 98238,97944,97918
 1.5000e+000 98146 -1.6908e+002 -7.4827e+001 -5.1824e+001 42563 98238,97918,98048
 1.5000e+000 98123 -1.7632e+002 -3.8704e+001 -3.8482e+001 42563 97944,98022,97996
 1.5000e+000 98100 -1.6611e+002 -2.1788e-001 -1.6457e+001 42563 97944,97996,97970
 1.5000e+000 98264 -1.6787e+002 -5.8588e+001 -4.3825e+001 42563 98022,97944,98238
 1.5000e+000 98287 -1.7343e+002 -7.9085e+001 -2.5567e+001 42563 98022,98238,98048
 1.5000e+000 98616 -1.2504e+002 -6.3346e+001 -1.1163e+001 42251 98443,98521,98469
 1.5000e+000 98593 -1.5660e+002 -6.1764e+001  9.1435e+000 42251 98417,98521,98443
 1.5000e+000 98570 -1.4882e+002 -5.0167e+001 -3.8294e+001 42251 98391,98521,98417
 1.5000e+000 98547 -1.1398e+002 -4.4258e+001 -3.5420e+001 42251 98469,98521,98495
 1.5000e+000 98886 -4.0552e+002 -1.5450e+002 -9.4439e+000 41847 98661,98765,98687
 1.5000e+000 98863 -4.1842e+002 -1.6583e+002 -4.3984e+000 41847 98661,98791,98765
 1.5000e+000 98840 -4.2619e+002 -1.7118e+002 -1.8340e+001 41847 98687,98765,98739
 1.5000e+000 98817 -3.6498e+002 -1.4620e+002 -2.0661e+001 41847 98687,98739,98713
 1.5000e+000 99394 -1.3944e+002  5.7574e-001  2.2611e+001 41236 99417,99149,99123
 1.5000e+000 99371 -2.0524e+002 -2.7935e+001  1.5229e+001 41236 99417,99123,99097
 1.5000e+000 99348 -1.5849e+002 -3.8301e+001 -7.2350e+000 41236 99489,99201,99149
 1.5000e+000 99325 -1.6561e+002 -4.7970e+001 -1.8925e+001 41236 99149,99201,99175
 1.5000e+000 99302 -2.4404e+002 -3.6404e+001 -8.9128e+000 41236 99097,99253,99227
 1.5000e+000 99279 -3.7182e+002 -1.1597e+002 -4.2650e+001 41236 99071,99253,99097
 1.5000e+000 99443 -1.6719e+002 -3.2413e+001 -7.8990e+000 41236 99489,99149,99417
 1.5000e+000 99466 -1.7782e+002 -2.1566e+001 -1.0650e+001 41236 99227,99417,99097
 1.5000e+000 99515 -1.5570e+002 -3.2388e+001 -1.0562e+001 41236 99227,99201,99489
 1.5000e+000 99538 -1.5849e+002 -2.1575e+001 -1.3016e+001 41236 99227,99489,99417
 1.5000e+000 100044 -4.3876e+001  2.3949e+001  6.9753e+001 40732 99721,99773,99747
 1.5000e+000 100021 -1.3364e+002  3.3226e+001  2.4589e+001 40732 99721,99799,99773
 1.5000e+000 99998 -1.1373e+002 -4.6006e+000  1.3426e+001 40732 99721,99903,99799
 1.5000e+000 99975 -8.7188e+001 -1.4618e+001 -1.7469e+001 40732 100067,99877,99851
 1.5000e+000 99952 -1.0599e+002 -2.9839e+001 -7.9682e+000 40732 100067,99851,99799
 1.5000e+000 99929 -1.4630e+002 -2.8082e+001 -3.0516e+001 40732 99799,99851,99825
 1.5000e+000 100093 -1.0658e+002  6.1213e+000 -8.5834e+000 40732 99903,99877,100067
 1.5000e+000 100116 -1.3292e+002 -1.8784e+001  3.6884e+000 40732 99903,100067,99799
 1.5000e+000 100622 -2.2893e+002 -3.2713e+001  2.9733e+001 40278 100645,100455,100429
 1.5000e+000 100599 -2.6450e+002 -5.0435e+001  3.7951e+001 40278 100717,100645,100429
 1.5000e+000 100576 -3.0868e+002 -7.0048e+001  6.4124e+000 40278 100717,100429,100377
 1.5000e+000 100553 -2.1463e+002 -8.9081e+001  2.5446e+001 40278 100789,100325,100481
 1.5000e+000 100530 -2.1387e+002 -3.7052e+001  4.3148e+001 40278 100299,100481,100325
 1.5000e+000 100507 -2.3078e+002 -5.8015e+001  9.8666e+000 40278 100377,100429,100403
 1.5000e+000 100671 -2.4233e+002 -9.8982e-001  3.8263e+001 40278 100481,100455,100645
 1.5000e+000 100694 -2.3552e+002 -6.5342e+001  2.5898e+000 40278 100789,100481,100645
 1.5000e+000 100743 -2.8712e+002 -6.5005e+001 -4.0806e+001 40278 100351,100645,100717
 1.5000e+000 100766 -3.8797e+002 -1.0375e+002 -7.0763e+001 40278 100351,100717,100377
 1.5000e+000 100815 -1.9387e+002 -7.9892e+001  2.9279e-002 40278 100351,100325,100789
 1.5000e+000 100838 -1.9657e+002 -3.3250e+001 -2.4586e+001 40278 100351,100789,100645
 1.5000e+000 101265 -1.9648e+002 -6.1150e+001  5.9642e-001 39824 101288,101046,100994
 1.5000e+000 101242 -2.2276e+002 -8.1051e+001 -1.2504e+001 39824 101288,100994,100968
 1.5000e+000 101219 -2.5208e+002 -5.0080e+001  1.2934e+001 39824 100942,101124,100968
 1.5000e+000 101196 -1.5673e+002 -1.0850e+001  3.6845e+000 39824 101046,101124,101072
 1.5000e+000 101173 -1.7510e+002 -8.0220e+001 -4.7703e+001 39824 100994,101046,101020
 1.5000e+000 101150 -9.5584e+001 -9.8291e+000  5.0130e+000 39824 101072,101124,101098
 1.5000e+000 101314 -1.8280e+002 -7.1298e+001  9.5449e+000 39824 101124,101046,101288
 1.5000e+000 101337 -1.9592e+002 -7.4089e+001  5.4898e-001 39824 101124,101288,100968
 1.5000e+000 101585 -1.8833e+002 -1.2932e+002  5.7622e+001 39070 101608,101464,101412
 1.5000e+000 101562 -1.8301e+002 -1.0069e+002  5.5972e+001 39070 101608,101412,101360
 1.5000e+000 101539 -1.7762e+002 -1.3179e+002  5.2832e+001 39070 101412,101464,101438
 1.5000e+000 101516 -1.8668e+002 -1.2078e+002  5.6198e+001 39070 101360,101412,101386
 1.5000e+000 101634 -1.9796e+002 -1.1967e+002  3.7871e+001 39070 101490,101464,101608
 1.5000e+000 101657 -1.8602e+002 -8.0803e+001  3.6235e+001 39070 101490,101608,101360
 1.5000e+000 101856 -3.5796e+002 -6.4597e+001 -1.7025e+001 38730 101706,101758,101732
 1.5000e+000 101833 -3.6393e+002 -1.2248e+002  4.1809e+000 38730 101706,101784,101758
 1.5000e+000 101810 -3.4808e+002 -1.4363e+002 -2.4547e+001 38730 101680,101784,101706
 1.5000e+000 102106 -1.9183e+002 -5.3413e+001  8.1385e+000 38326 101881,101959,101907
 1.5000e+000 102083 -2.1132e+002 -5.6825e+001  3.5043e+001 38326 101881,101985,101959
 1.5000e+000 102060 -1.2690e+002 -4.3441e+001  3.4703e+001 38326 101881,102011,101985
 1.5000e+000 102037 -2.4532e+002 -3.5873e+001 -8.9616e+000 38326 101907,101959,101933
 1.5000e+000 102258 -1.6296e+002 -5.8918e+001  1.2095e+001 38036 102281,102157,102131
 1.5000e+000 102235 -1.6311e+002 -1.5745e+001 -9.9540e+000 38036 102281,102131,102209
 1.5000e+000 102307 -1.4437e+002 -9.8603e+001  8.4052e+000 38036 102183,102157,102281
 1.5000e+000 102330 -1.5321e+002 -7.0800e+001 -2.0012e+001 38036 102183,102281,102209
 1.5000e+000 102663 -1.1347e+002 -2.2214e+001  2.1839e+001 37596 102438,102542,102464
 1.5000e+000 102640 -7.1015e+001 -1.2463e+001  5.4051e+000 37596 102438,102568,102542
 1.5000e+000 102617 -1.0747e+002  1.2164e+000  4.1402e+001 37596 102490,102542,102516
 1.5000e+000 102594 -1.0028e+002 -1.7244e+001  2.6959e+001 37596 102464,102542,102490
 1.5000e+000 102862 -1.4842e+002 -1.0935e-001  4.9023e+000 37192 102686,102764,102712
 1.5000e+000 102839 -1.4368e+002  7.9846e+000  2.4688e+000 37192 102686,102790,102764
 1.5000e+000 102816 -1.1382e+002 -3.8340e+001  2.2902e+001 37192 102712,102764,102738
 1.5000e+000 103110 -1.6050e+002 -2.0420e+001 -1.9875e+001 36609 102911,102963,102937
 1.5000e+000 103087 -1.4853e+002 -2.9887e+001 -8.8248e+000 36609 102911,102989,102963
 1.5000e+000 103064 -1.5972e+002 -4.6547e+001 -1.6839e+001 36609 102885,102989,102911
 1.5000e+000 103041 -1.5931e+002 -8.5056e+000 -3.9236e+001 36609 102885,103015,102989
 1.5000e+000 103718 -4.0725e+001 -1.6648e+001  7.7314e+000 36131 103323,103375,103349
 1.5000e+000 103695 -1.0549e+002 -7.9259e+000  1.0114e+001 36131 103297,103375,103323
 1.5000e+000 103672 -1.2421e+002 -5.3886e+001  9.1331e+000 36131 103297,103505,103375
 1.5000e+000 103649 -1.2933e+002 -4.8480e+001  1.8601e+001 36131 103741,103479,103401
 1.5000e+000 103626 -1.2671e+002 -4.2187e+001  1.5050e+001 36131 103741,103401,103375
 1.5000e+000 103603 -1.4652e+002 -3.0391e+001  1.3053e+001 36131 103401,103479,103427
 1.5000e+000 103580 -1.2900e+002 -3.4995e+001 -9.0754e+000 36131 103297,103531,103505
 1.5000e+000 103557 -1.2534e+002 -3.5287e+000 -1.5466e+001 36131 103427,103479,103453
 1.5000e+000 103767 -1.2351e+002 -5.1264e+001  1.3836e+001 36131 103505,103479,103741
 1.5000e+000 103790 -1.2185e+002 -4.6077e+001  1.0417e+001 36131 103505,103741,103375
 1.5000e+000 103989 -2.9703e+002 -6.9946e+001  6.9406e+000 35791 103839,103917,103891
 1.5000e+000 103966 -2.8965e+002 -9.4034e+001  3.0930e+000 35791 103813,103917,103839
 1.5000e+000 103943 -2.4135e+002 -1.0876e+001 -2.4192e+001 35791 103839,103891,103865
 1.5000e+000 104188 -1.5375e+002 -6.4173e+001 -2.0044e+001 35444 104038,104090,104064
 1.5000e+000 104165 -1.6476e+002 -4.4926e+001  1.7334e+001 35444 104038,104116,104090
 1.5000e+000 104142 -1.8737e+002 -3.7695e+001  1.1862e+001 35444 104012,104116,104038
 1.5000e+000 104487 -2.2377e+002 -5.8081e+001 -2.2396e+001 34990 104265,104317,104291
 1.5000e+000 104464 -1.8198e+002 -4.6387e+001 -1.6262e+001 34990 104510,104317,104265
 1.5000e+000 104441 -1.4422e+002 -3.0763e+001 -7.8137e+000 34990 104510,104265,104213
 1.5000e+000 104418 -1.9366e+002 -2.2914e+001  6.2027e+000 34990 104582,104343,104317
 1.5000e+000 104395 -1.3156e+002 -1.7556e+000 -9.9722e+000 34990 104213,104265,104239
 1.5000e+000 104536 -1.9491e+002 -2.3925e+001 -6.3259e+000 34990 104582,104317,104510
 1.5000e+000 104559 -1.7284e+002 -3.0623e+001 -1.0286e+000 34990 104369,104510,104213
 1.5000e+000 104608 -1.5979e+002  6.8889e+000  1.8930e+001 34990 104369,104343,104582
 1.5000e+000 104631 -1.7934e+002 -1.7147e+001  4.2347e-002 34990 104369,104582,104510
 1.5000e+000 104783 -2.3008e+002 -7.1010e+001 -1.9586e+001 34700 104938,104806,104682
 1.5000e+000 104760 -2.1911e+002 -7.5274e+001 -3.3937e+000 34700 104938,104682,104656
 1.5000e+000 104832 -1.6066e+002 -2.4720e+001  2.6959e+000 34700 104708,104682,104806
 1.5000e+000 104964 -2.4881e+002 -7.8149e+001 -1.8259e+001 34700 104734,104806,104938
 1.5000e+000 104987 -2.3881e+002 -8.2355e+001 -2.4139e+000 34700 104734,104938,104656
 1.5000e+000 105137 -3.2049e+002 -5.0210e+000 -3.8365e+000 34388 105036,105088,105062
 1.5000e+000 105114 -3.2255e+002 -9.4064e+001 -1.9315e+001 34388 105010,105088,105036
 1.5000e+000 105385 -2.2663e+002 -4.6546e+001  1.9669e+001 33734 105408,105186,105160
 1.5000e+000 105362 -2.2223e+002 -4.8479e+001  1.5885e+001 33734 105408,105160,105264
 1.5000e+000 105339 -2.4562e+002 -1.3217e+001  4.0168e+000 33734 105160,105290,105264
 1.5000e+000 105316 -2.1421e+002 -5.8662e+001  4.7307e+001 33734 105186,105238,105212
 1.5000e+000 105434 -2.2232e+002 -4.7564e+001  1.8132e+001 33734 105238,105186,105408
 1.5000e+000 105457 -2.1108e+002 -4.3994e+001  1.3480e+001 33734 105238,105408,105264
 1.5000e+000 105609 -1.5782e+002 -2.5015e+001 -5.3257e+001 33394 105482,105534,105508
 1.5000e+000 105586 -1.3840e+002 -2.6262e+001 -4.8035e+001 33394 105482,105560,105534
 1.5000e+000 105859 -2.9794e+002 -5.0234e+001 -4.2602e+001 33047 105882,105712,105660
 1.5000e+000 105836 -3.3211e+002 -4.2217e+001 -1.1721e+001 33047 105882,105660,105634
 1.5000e+000 105813 -2.2176e+002 -6.3053e+001 -9.5544e-001 33047 105660,105712,105686
 1.5000e+000 105790 -2.3563e+002 -2.6693e+001 -4.0512e+001 33047 105634,105764,105738
 1.5000e+000 105908 -2.1927e+002  1.0977e+000 -7.2766e+001 33047 105738,105712,105882
 1.5000e+000 105931 -3.0189e+002 -3.6340e+001 -3.2477e+001 33047 105738,105882,105634
 1.5000e+000 106181 -1.7417e+002 -4.8472e+001  2.4879e+001 32543 106204,106060,106008
 1.5000e+000 106158 -1.5457e+002 -6.5601e+001  1.2889e+001 32543 105956,106086,106060
 1.5000e+000 106135 -1.6092e+002 -2.1342e+001  1.9371e+001 32543 106204,106008,105982
 1.5000e+000 106112 -1.8012e+002 -1.0087e+002  1.5968e+001 32543 106008,106060,106034
 1.5000e+000 106230 -1.6269e+002 -5.8875e+001  5.5664e+000 32543 105956,106060,106204
 1.5000e+000 106253 -1.4787e+002 -3.2553e+001 -7.5433e-001 32543 105956,106204,105982
 1.5000e+000 106454 -2.1361e+002 -8.7802e+001 -5.4669e+001 31839 106304,106356,106330
 1.5000e+000 106431 -2.3675e+002 -6.5997e+001  1.1144e+000 31839 106278,106356,106304
 1.5000e+000 106408 -1.8342e+002 -4.4955e+001 -1.2086e+001 31839 106278,106382,106356
 1.5000e+000 106704 -1.1091e+002 -2.2627e+001  6.8308e+000 31534 106505,106583,106557
 1.5000e+000 106681 -1.1896e+002 -2.5541e+001  6.7938e+000 31534 106479,106583,106505
 1.5000e+000 106658 -1.4523e+002 -3.9121e+001  1.5225e+001 31534 106505,106557,106531
 1.5000e+000 106635 -1.5259e+002 -3.8703e+001  6.1577e+000 31534 106479,106609,106583
 1.5000e+000 107108 -3.6661e+002  4.8434e+001 -7.8629e+001 31030 106886,106990,106964
 1.5000e+000 107085 -2.7228e+002 -3.7367e+001 -2.5314e+001 31030 106860,106990,106886
 1.5000e+000 107062 -2.5138e+002 -2.3000e+001 -1.5815e+001 31030 106834,106990,106860
 1.5000e+000 107039 -5.6102e+002 -1.9403e+002  4.1998e+001 31030 106912,106964,106938
 1.5000e+000 107016 -5.9881e+002 -4.5493e+001 -7.1856e+001 31030 106886,106964,106912
 1.5000e+000 107307 -3.3214e+002  4.4440e+000 -7.4485e+000 30718 107330,107157,107131
 1.5000e+000 107284 -2.7847e+002 -1.0656e+001 -2.1435e+001 30718 107330,107131,107235
 1.5000e+000 107261 -2.2240e+002 -1.7747e+001  1.0162e+001 30718 107183,107235,107209
 1.5000e+000 107356 -2.8008e+002 -1.8405e+000  6.9589e+000 30718 107183,107157,107330
 1.5000e+000 107379 -2.2983e+002 -1.9399e+001 -1.1484e+001 30718 107183,107330,107235
 1.5000e+000 107759 -1.8714e+002 -8.3709e+001  2.3083e+001 30264 107782,107615,107537
 1.5000e+000 107736 -1.7827e+002 -6.3095e+001  2.4987e+001 30264 107782,107537,107485
 1.5000e+000 107713 -2.4215e+002 -4.3234e+001  3.2153e+001 30264 107485,107537,107511
 1.5000e+000 107690 -1.4343e+002 -6.0951e+001  3.3696e+001 30264 107537,107615,107589
 1.5000e+000 107667 -1.3209e+002 -6.6151e+001  2.9541e+001 30264 107537,107589,107563
 1.5000e+000 107808 -1.9325e+002 -7.9732e+001  6.5833e+000 30264 107641,107615,107782
 1.5000e+000 107831 -1.8222e+002 -5.6009e+001  9.5815e+000 30264 107641,107782,107485
 1.5000e+000 108030 -2.0096e+002 -7.4196e+001  2.2667e+001 29874 108053,107854,107932
 1.5000e+000 108007 -1.6516e+002 -4.0904e+001  5.8144e+000 29874 107854,107958,107932
 1.5000e+000 107984 -2.1285e+002 -5.2752e+001  4.4419e+001 29874 108053,107932,107906
 1.5000e+000 108079 -1.9867e+002 -4.6625e+001  2.4306e+001 29874 107880,107854,108053
 1.5000e+000 108102 -2.0961e+002 -1.8977e+001  3.9412e+001 29874 107880,108053,107906
 1.5000e+000 108433 -1.2141e+002 -4.5926e+001 -1.3104e+000 29484 108234,108338,108312
 1.5000e+000 108410 -1.7176e+002 -3.9614e+001  4.1465e+001 29484 108208,108338,108234
 1.5000e+000 108387 -1.8163e+002 -5.1320e+001 -8.4154e+000 29484 108234,108312,108260
 1.5000e+000 108364 -1.6081e+002 -6.3118e+001 -7.4685e+000 29484 108260,108312,108286
 1.5000e+000 108762 -1.0434e+002 -5.7298e+001  1.4765e+001 29080 108563,108641,108589
 1.5000e+000 108739 -9.2076e+001 -5.0885e+001  2.7432e+001 29080 108537,108641,108563
 1.5000e+000 108716 -1.6474e+002 -1.3647e+001  6.3141e+001 29080 108589,108641,108615
 1.5000e+000 108693 -3.8467e+001 -3.2321e+001  1.3427e+001 29080 108537,108667,108641
 1.5000e+000 109189 -2.1746e+002 -6.2803e+001  1.7236e+001 28476 108892,108996,108970
 1.5000e+000 109166 -2.5755e+002 -5.9119e+001  1.8078e+001 28476 108892,109022,108996
 1.5000e+000 109143 -2.2510e+002 -8.0225e+001  2.0148e+001 28476 108892,108970,108944
 1.5000e+000 109120 -2.9209e+002 -6.0813e+001  2.1768e+001 28476 108892,109048,109022
 1.5000e+000 109097 -2.3478e+002 -9.2890e+001  1.2972e+001 28476 108892,108944,108918
 1.5000e+000 109074 -3.5827e+002 -3.2194e+001 -2.5590e+001 28476 108866,109048,108892
 1.5000e+000 109518 -1.1874e+002 -3.2285e+001  2.8172e+001 28022 109541,109371,109345
 1.5000e+000 109495 -1.4379e+002  8.1279e+000 -1.1524e+001 28022 109541,109345,109319
 1.5000e+000 109472 -9.2445e+001  2.4007e+001 -1.3060e+001 28022 109293,109397,109319
 1.5000e+000 109449 -1.1045e+002 -2.4471e-001  1.0354e+001 28022 109293,109423,109397
 1.5000e+000 109567 -1.2651e+001  1.3844e+001  2.2863e+001 28022 109397,109371,109541
 1.5000e+000 109590 -1.1272e+002  1.6689e+001 -1.1204e+001 28022 109397,109541,109319
 1.5000e+000 109968 -2.4139e+002 -1.3651e+002 -3.1050e+001 27568 109798,109850,109824
 1.5000e+000 109945 -2.2069e+002 -7.4798e+001 -3.0331e+001 27568 109694,109850,109798
 1.5000e+000 109922 -1.7253e+002 -1.3253e+002 -1.9846e+001 27568 109694,109798,109746
 1.5000e+000 109899 -1.8026e+002 -1.2272e+002  5.2485e+001 27568 109746,109798,109772
 1.5000e+000 109876 -1.2974e+002 -6.2640e+001  9.3361e+000 27568 109694,109746,109720
 1.5000e+000 110167 -1.7839e+002 -4.2582e+001 -1.5966e+000 27007 110017,110095,110069
 1.5000e+000 110144 -1.6812e+002 -1.6253e+001  9.3950e-001 27007 109991,110095,110017
 1.5000e+000 110121 -1.7823e+002 -1.7622e+001  3.0833e+001 27007 110017,110069,110043
 1.5000e+000 110415 -9.5759e+001 -4.5985e+001  1.4375e+001 26567 110438,110242,110190
 1.5000e+000 110392 -1.2731e+002 -3.5659e+000 -4.6358e-001 26567 110438,110190,110320
 1.5000e+000 110369 -1.3103e+002 -3.6642e+001  1.3359e+001 26567 110242,110294,110268
 1.5000e+000 110346 -7.8481e+001 -1.2980e+001  8.0414e-001 26567 110190,110242,110216
 1.5000e+000 110464 -1.1226e+002 -5.2538e+001  3.5368e+000 26567 110294,110242,110438
 1.5000e+000 110487 -1.5303e+002 -4.2065e+001 -2.0309e+001 26567 110294,110438,110320
 1.5000e+000 110639 -2.7822e+002 -1.3762e+001 -3.7227e+001 26170 110538,110590,110564
 1.5000e+000 110616 -2.4178e+002 -4.5914e+001 -1.2691e+001 26170 110512,110590,110538
 1.5000e+000 111149 -2.7804e+002 -8.4934e+001  8.3224e+001 25716 111172,110878,110852
 1.5000e+000 111126 -2.3258e+002 -4.7892e+001  6.6870e+001 25716 111172,110852,111008
 1.5000e+000 111103 -3.1658e+002 -8.6726e+001  1.6497e+002 25716 110878,110930,110904
 1.5000e+000 111080 -2.1208e+002 -5.4475e+001  4.6492e+001 25716 110826,111008,110852
 1.5000e+000 111057 -1.7118e+002 -1.0957e+002  4.0600e+001 25716 110930,111008,110956
 1.5000e+000 111034 -1.4019e+002 -8.8582e+001  3.0076e+001 25716 110956,111008,110982
 1.5000e+000 111198 -2.3071e+002 -1.3425e+002  9.9790e+001 25716 110930,110878,111172
 1.5000e+000 111221 -1.7603e+002 -9.3227e+001  8.1065e+001 25716 110930,111172,111008
 1.5000e+000 111420 -3.1797e+002 -7.4277e+001  9.8000e+000 25304 111443,111270,111244
 1.5000e+000 111397 -3.2700e+002 -6.6527e+001  1.1790e+001 25304 111443,111244,111348
 1.5000e+000 111374 -3.2612e+002 -9.2593e+001 -2.6222e+001 25304 111270,111322,111296
 1.5000e+000 111469 -3.2548e+002 -7.4577e+001  6.8883e+000 25304 111322,111270,111443
 1.5000e+000 111492 -3.3770e+002 -6.9897e+001  7.8056e+000 25304 111322,111443,111348
 1.5000e+000 111691 -1.1506e+002 -3.6763e+001 -1.2264e+001 24736 111567,111619,111593
 1.5000e+000 111668 -1.1769e+002 -8.9250e-001 -3.2047e+001 24736 111541,111619,111567
 1.5000e+000 111645 -1.2494e+002  2.9492e+001 -1.3512e+001 24736 111515,111619,111541
 1.5000e+000 112024 -2.3509e+001 -3.2051e+000  6.8995e+000 24146 111825,111877,111851
 1.5000e+000 112001 -3.5761e+001  9.4725e+000 -8.5256e+000 24146 111825,111903,111877
 1.5000e+000 111978 -6.2181e+001 -5.7365e+001  2.5455e+000 24146 111825,111929,111903
 1.5000e+000 111955 -7.0826e+001 -7.5781e+001 -8.5630e+000 24146 111799,111929,111825
 1.5000e+000 112370 -1.7114e+002 -6.6413e+001  3.2262e+001 23856 112393,112151,112125
 1.5000e+000 112347 -1.5901e+002 -3.9057e+001  3.5397e+001 23856 112465,112393,112125
 1.5000e+000 112324 -1.5953e+002 -2.9535e+001  4.1599e+001 23856 112465,112125,112073
 1.5000e+000 112301 -2.1004e+002 -5.2739e+001  5.7900e+001 23856 112073,112125,112099
 1.5000e+000 112278 -1.7539e+002 -6.9060e+001  1.6017e+001 23856 112047,112229,112073
 1.5000e+000 112255 -1.5148e+002 -6.6150e+001 -1.1513e+001 23856 112151,112203,112177
 1.5000e+000 112419 -1.7152e+002 -5.3403e+001  1.6452e+001 23856 112203,112151,112393
 1.5000e+000 112442 -1.7270e+002 -5.4225e+001  1.6073e+001 23856 112203,112393,112229
 1.5000e+000 112491 -1.7086e+002 -5.1243e+001  1.5151e+001 23856 112229,112393,112465
 1.5000e+000 112514 -1.6402e+002 -2.7825e+001  2.1473e+001 23856 112229,112465,112073
 1.5000e+000 112784 -3.0659e+002  9.0742e+001 -4.2237e+001 23494 112611,112663,112637
 1.5000e+000 112761 -2.2820e+002 -1.6891e+001 -2.2865e+001 23494 112585,112663,112611
 1.5000e+000 112738 -2.9570e+002 -4.4880e+001  2.6334e+001 23494 112559,112663,112585
 1.5000e+000 112715 -2.5376e+002  1.0285e+002  4.5942e+001 23494 112559,112689,112663
 1.5000e+000 113117 -2.4949e+002 -3.5656e+001 -6.2673e+001 22974 112944,113022,112996
 1.5000e+000 113094 -2.1572e+002 -9.0819e+001 -4.0987e+001 22974 112918,113022,112944
 1.5000e+000 113071 -2.8003e+002 -1.2352e+002 -7.5990e+001 22974 112944,112996,112970
 1.5000e+000 113048 -1.9957e+002 -2.2277e+001 -6.2656e+001 22974 112892,113022,112918
 1.5000e+000 113414 -2.6500e+002 -8.7171e+001 -3.4194e+000 22370 113192,113296,113218
 1.5000e+000 113391 -3.0597e+002 -1.2875e+002 -1.9927e+001 22370 113140,113296,113192
 1.5000e+000 113368 -2.6563e+002 -8.5254e+001  1.0943e+001 22370 113218,113296,113270
 1.5000e+000 113345 -2.3730e+002 -8.7791e+001  4.0517e+001 22370 113218,113270,113244
 1.5000e+000 113322 -2.5395e+002 -3.0985e+001 -4.8355e+001 22370 113140,113192,113166
 1.5000e+000 113662 -1.8243e+002 -2.4807e+001  1.8374e+001 21916 113685,113515,113489
 1.5000e+000 113639 -2.2185e+002 -5.5167e+001  3.7494e+000 21916 113685,113489,113437
 1.5000e+000 113616 -1.5863e+002 -5.1780e+001 -3.9031e+000 21916 113757,113567,113541
 1.5000e+000 113593 -2.1543e+002 -3.5993e+001 -8.2285e+000 21916 113437,113489,113463
 1.5000e+000 113711 -2.0585e+002 -7.2595e+001  1.0341e+001 21916 113541,113515,113685
 1.5000e+000 113734 -1.8979e+002 -6.7845e+001  2.5029e+000 21916 113757,113541,113685
 1.5000e+000 113783 -2.0131e+002 -4.9894e+001 -3.7047e+000 21916 113437,113567,113757
 1.5000e+000 113806 -2.0622e+002 -4.7308e+001 -4.7734e+000 21916 113437,113757,113685
 1.5000e+000 114056 -1.8958e+002 -4.9490e+001 -1.9013e+001 21412 113857,113909,113883
 1.5000e+000 114033 -1.8792e+002 -4.0934e+001 -1.8042e+001 21412 114079,113909,113857
 1.5000e+000 114010 -2.0533e+002 -5.6574e+001 -4.6429e+000 21412 114079,113857,113961
 1.5000e+000 113987 -1.9656e+002 -5.9431e+001 -5.8891e+000 21412 113831,113961,113857
 1.5000e+000 114105 -2.0319e+002 -1.6823e+001 -2.8019e+001 21412 113935,113909,114079
 1.5000e+000 114128 -2.1616e+002 -3.5654e+001 -1.6892e+001 21412 113935,114079,113961
 1.5000e+000 114378 -1.1539e+002 -2.6941e+001 -9.8784e-001 21022 114401,114257,114205
 1.5000e+000 114355 -1.3265e+002 -3.0372e+001 -2.7375e+001 21022 114401,114205,114179
 1.5000e+000 114332 -1.1780e+002 -2.1489e+000 -2.5737e+000 21022 114153,114283,114179
 1.5000e+000 114309 -1.2563e+002 -3.1498e+001 -3.0448e+000 21022 114205,114257,114231
 1.5000e+000 114427 -7.8938e+001 -1.8064e+001  1.0688e+001 21022 114283,114257,114401
 1.5000e+000 114450 -1.0516e+002 -2.4566e+001 -1.4778e+001 21022 114283,114401,114179
 1.5000e+000 114651 -1.0434e+002 -1.6815e+001 -6.7275e+000 20618 114501,114553,114527
 1.5000e+000 114628 -5.1337e+001 -2.9237e+000  5.2815e+000 20618 114501,114579,114553
 1.5000e+000 114605 -1.1429e+002 -1.7038e+001 -6.4019e+000 20618 114475,114579,114501
 1.5000e+000 114901 -3.3123e+002 -3.9819e+001 -4.1662e+001 20114 114676,114780,114702
 1.5000e+000 114878 -2.3990e+002 -4.6404e+000 -4.3375e+001 20114 114676,114806,114780
 1.5000e+000 114855 -3.5936e+002 -1.4554e+001 -3.3741e+001 20114 114702,114780,114754
 1.5000e+000 114832 -9.0441e+002 -1.6762e+002 -5.7438e+001 20114 114702,114754,114728
 1.5000e+000 115053 -2.6576e+002 -4.2293e+001  9.0216e-001 19460 115147,115076,114926
 1.5000e+000 115030 -2.6999e+002 -3.3130e+001 -1.8062e+000 19460 115147,114926,115004
 1.5000e+000 115102 -2.7571e+002 -5.6444e+001  5.8162e+000 19460 114952,114926,115076
 1.5000e+000 115173 -2.6685e+002 -6.0139e+001  6.7931e-001 19460 114978,115076,115147
 1.5000e+000 115196 -2.6805e+002 -4.7590e+001 -3.3737e+000 19460 114978,115147,115004
 1.5000e+000 115446 -3.9381e+002 -6.6360e+001  4.8216e+001 19006 115273,115351,115299
 1.5000e+000 115423 -3.5648e+002 -1.3737e+002  1.5962e+001 19006 115247,115351,115273
 1.5000e+000 115400 -3.8228e+002 -1.4576e+002  3.5978e+001 19006 115221,115351,115247
 1.5000e+000 115377 -2.3047e+002 -3.3225e+001 -8.7498e+001 19006 115299,115351,115325
 1.5000e+000 115767 -9.5512e+001 -4.7264e+000  8.5979e+000 18716 115571,115649,115623
 1.5000e+000 115744 -1.0618e+002 -2.3331e+001  4.1247e+000 18716 115493,115649,115571
 1.5000e+000 115721 -1.0838e+002 -8.2201e+000  6.4526e+000 18716 115493,115571,115545
 1.5000e+000 115698 -1.1663e+002 -1.5067e+001 -6.7339e+000 18716 115493,115545,115519
 1.5000e+000 115675 -3.7057e+001  1.4393e+001 -2.2445e+000 18716 115571,115623,115597
 1.5000e+000 116039 -2.0983e+002 -5.7565e+001  1.1951e+001 18312 115814,115892,115840
 1.5000e+000 116016 -2.0792e+002 -5.2422e+001  1.0714e+001 18312 115814,115944,115892
 1.5000e+000 115993 -2.0765e+002 -1.5753e+001  1.5726e+001 18312 115892,115944,115918
 1.5000e+000 115970 -1.0699e+002 -8.2951e+000 -2.5196e+000 18312 115840,115892,115866
 1.5000e+000 116191 -3.4864e+002 -1.1714e+002  4.1434e-001 18000 116090,116142,116116
 1.5000e+000 116168 -3.3676e+002 -1.1458e+002  8.1601e+000 18000 116064,116142,116090
 1.5000e+000 116343 -1.3776e+002  6.6802e+000 -2.4558e+000 17396 116242,116294,116268
 1.5000e+000 116320 -1.7650e+002  5.4733e+000 -2.4418e+000 17396 116216,116294,116242
 1.5000e+000 116566 -2.4814e+002 -1.0752e+002  1.7252e+001 16942 116390,116468,116442
 1.5000e+000 116543 -3.6941e+002 -1.2348e+002  3.6934e+001 16942 116390,116494,116468
 1.5000e+000 116520 -2.6658e+002 -1.5068e+002  6.1507e+000 16942 116390,116442,116416
 1.5000e+000 116767 -1.0969e+002  1.0710e+001  6.3249e+000 16438 116790,116643,116617
 1.5000e+000 116744 -1.3837e+002 -1.3529e+001 -4.2493e+000 16438 116790,116617,116591
 1.5000e+000 116721 -6.9550e+001 -9.3060e+000 -1.6565e+001 16438 116643,116695,116669
 1.5000e+000 116816 -9.5367e+001 -6.8884e+000  1.4318e+001 16438 116695,116643,116790
 1.5000e+000 116839 -1.0457e+002 -1.2645e+001  9.2454e+000 16438 116695,116790,116591
 1.5000e+000 117062 -1.2838e+001 -1.1003e+000  6.0386e-002 16074 116886,116938,116912
 1.5000e+000 117039 -5.9580e+001 -2.0919e+001  3.1593e+000 16074 116886,116990,116938
 1.5000e+000 117016 -5.7742e+001 -3.0628e+000  3.4040e+000 16074 116938,116990,116964
 1.5000e+000 117214 -2.9540e+002 -1.3552e+002 -1.8595e+001 15649 117087,117139,117113
 1.5000e+000 117191 -3.6117e+002 -1.7117e+002  2.4686e+000 15649 117087,117165,117139
 1.5000e+000 117317 -5.0750e-001 -2.1515e+001  3.4653e+000 421 117239,117291,117265
 1.6000e+000 70632  2.3218e+001 -5.3004e+000  1.8514e+001 70072 70482,70534,70508
 1.6000e+000 70609  7.9712e+000 -4.2850e+001  1.5659e+001 70072 70482,70560,70534
 1.6000e+000 70586  2.1149e+001 -3.3994e+001  3.4909e+000 70072 70456,70560,70482
 1.6000e+000 70951 -1.3437e+002 -1.1899e+002  0.0000e+000 69874 70703,70755,70729
 1.6000e+000 70928 -1.4457e+002 -1.2331e+002  3.9085e-001 69874 70703,70781,70755
 1.6000e+000 70905 -1.4572e+002 -1.1411e+002  4.0864e-002 69874 70703,70807,70781
 1.6000e+000 70882 -1.4987e+002 -1.2607e+002  5.2722e+000 69874 70703,70833,70807
 1.6000e+000 70859 -7.2423e+001 -9.0230e+001 -9.7364e+000 69874 70677,70833,70703
 1.6000e+000 71199 -6.8406e+001 -2.3382e+001  6.7554e+000 69698 71222,71052,71026
 1.6000e+000 71176 -5.9073e+001 -2.7679e+001  8.8242e+000 69698 71294,71222,71026
 1.6000e+000 71153 -5.5402e+001 -1.9136e+001  9.2035e+000 69698 71294,71026,71000
 1.6000e+000 71130 -1.0022e+002 -3.5053e+001 -8.7454e+000 69698 71366,71104,71078
 1.6000e+000 71248 -6.9264e+001 -2.6443e+001  6.5155e+000 69698 71078,71052,71222
 1.6000e+000 71271 -7.6911e+001 -3.5840e+001 -3.8837e+000 69698 71366,71078,71222
 1.6000e+000 71320 -5.7980e+001 -2.1990e+001  4.5858e-001 69698 70974,71222,71294
 1.6000e+000 71343 -5.7370e+001 -2.0520e+001  4.7047e-001 69698 70974,71294,71000
 1.6000e+000 71392 -7.2783e+001 -2.0566e+001 -1.2447e+000 69698 70974,71104,71366
 1.6000e+000 71415 -6.3868e+001 -3.0564e+001  3.0750e+000 69698 70974,71366,71222
 1.6000e+000 71516 -8.3334e+001 -1.0663e+001  1.0419e+001 69386 71438,71490,71464
 1.6000e+000 71869  3.8991e+000  2.1420e+001 -1.3835e+001 69188 71644,71748,71670
 1.6000e+000 71846  5.2697e+001  2.8421e+001  1.1006e+001 69188 71644,71774,71748
 1.6000e+000 71823 -9.3541e+000 -9.6934e+000 -1.0383e+001 69188 71670,71748,71722
 1.6000e+000 71800 -3.1249e+000  4.5180e+000 -7.9626e+000 69188 71670,71722,71696
 1.6000e+000 72019 -2.2842e+002 -3.7814e+001  2.6601e+001 68990 71918,71970,71944
 1.6000e+000 71996 -2.5966e+002 -1.3589e+001  1.6136e+001 68990 71892,71970,71918
 1.6000e+000 72316 -9.9129e+001  2.1204e+001  9.4781e-001 68586 72339,72172,72146
 1.6000e+000 72293 -1.0778e+002 -5.8110e+000  2.0459e+000 68586 72339,72146,72120
 1.6000e+000 72270 -1.0658e+002 -1.5385e+001  2.8251e+001 68586 72411,72068,72198
 1.6000e+000 72247 -1.2358e+002  6.2239e+000  3.9754e+001 68586 72042,72198,72068
 1.6000e+000 72224 -7.8158e+001 -1.9441e+000 -1.2664e+001 68586 72068,72120,72094
 1.6000e+000 72365 -1.0483e+002  3.0497e+001  2.4142e+001 68586 72198,72172,72339
 1.6000e+000 72388 -1.1913e+002 -2.9858e+000  2.2815e+001 68586 72411,72198,72339
 1.6000e+000 72437 -9.2757e+001 -3.6486e+000  1.8129e+001 68586 72120,72068,72411
 1.6000e+000 72460 -1.0400e+002  1.3055e+001  1.3042e+001 68586 72120,72411,72339
 1.6000e+000 72864 -2.5798e+001  1.4176e+000 -7.4439e+000 68388 72642,72694,72668
 1.6000e+000 72841 -5.3054e+001 -1.9048e+001  1.2893e+001 68388 72616,72694,72642
 1.6000e+000 72818 -6.5737e+001 -1.3290e+001 -2.3989e+000 68388 72616,72720,72694
 1.6000e+000 72795 -9.9039e+001 -2.8099e+001  1.4237e+001 68388 72590,72720,72616
 1.6000e+000 72772 -1.4146e+002  7.9247e+000 -3.9935e+001 68388 72590,72746,72720
 1.6000e+000 73321 -9.0381e+001 -4.0405e+001  6.3084e+000 68048 73073,73203,73177
 1.6000e+000 73298 -8.6159e+001 -3.4089e+001  1.2378e+001 68048 73047,73203,73073
 1.6000e+000 73275 -1.0337e+002 -5.6082e+000  1.0325e+001 68048 73125,73177,73151
 1.6000e+000 73252 -9.9446e+001 -8.6023e+000  4.4260e+000 68048 73073,73177,73125
 1.6000e+000 73229 -7.8013e+001 -1.3213e+001  1.4820e+001 68048 73073,73125,73099
 1.6000e+000 73640 -1.4813e+002 -8.2258e+000 -4.5502e+000 67850 73444,73496,73470
 1.6000e+000 73617 -1.1619e+002 -3.7809e+001 -1.9467e+000 67850 73418,73496,73444
 1.6000e+000 73594 -1.0907e+002 -1.8184e+001  2.5426e+000 67850 73392,73496,73418
 1.6000e+000 73571 -8.6913e+001 -1.2922e+001  1.0540e+001 67850 73392,73522,73496
 1.6000e+000 73548 -6.7878e+001 -3.0191e+000 -1.5339e+001 67850 73366,73522,73392
 1.6000e+000 73790 -1.2600e+002 -2.8035e+001 -2.4430e+000 67602 73689,73741,73715
 1.6000e+000 73767 -1.0708e+002  1.6319e+001 -7.1488e-002 67602 73663,73741,73689
 1.6000e+000 74040 -1.5926e+002 -1.8298e+001 -6.6593e+000 67290 73841,73945,73919
 1.6000e+000 74017 -7.8135e+001 -3.9351e+001 -3.0798e+001 67290 73815,73945,73841
 1.6000e+000 73994 -1.3797e+002 -8.8411e+000  9.0846e+000 67290 73841,73919,73867
 1.6000e+000 73971 -1.2620e+002  1.3448e+001  1.9169e+001 67290 73867,73919,73893
 1.6000e+000 74143 -1.4408e+002 -1.1020e+002  1.6989e+001 67092 74065,74117,74091
 1.6000e+000 74415 -9.5467e+001 -6.2011e+001 -1.2904e+001 66894 74190,74294,74216
 1.6000e+000 74392 -7.6409e+001 -4.9573e+001  1.0862e+001 66894 74190,74320,74294
 1.6000e+000 74369 -9.3554e+001 -3.2678e+001 -2.1832e+001 66894 74216,74294,74242
 1.6000e+000 74346 -1.1710e+002 -3.3694e+001 -1.1399e+001 66894 74242,74294,74268
 1.6000e+000 75023 -1.9354e+001 -6.6504e+001  1.6697e+001 66532 74654,74836,74810
 1.6000e+000 75000 -1.5209e+001 -1.3743e+001  3.9328e+001 66532 74628,74836,74654
 1.6000e+000 74977 -6.3281e+001  1.2224e+001  1.1811e-001 66532 74706,74784,74732
 1.6000e+000 74954 -1.0843e+002  1.6573e+001 -3.5697e+001 66532 74680,74784,74706
 1.6000e+000 74931 -1.6367e+002 -4.3493e+000 -4.4997e+001 66532 74680,74810,74784
 1.6000e+000 74908 -5.7616e+001 -7.0227e+000  4.7334e+001 66532 74654,74810,74680
 1.6000e+000 74885 -1.5250e+001 -5.2320e+001  1.8469e+001 66532 74602,74836,74628
 1.6000e+000 74862  5.0156e-001  3.6204e+000 -3.1392e+001 66532 74732,74784,74758
 1.6000e+000 75222 -1.2351e+002 -1.1078e+001  1.3562e+001 66242 75072,75150,75124
 1.6000e+000 75199 -1.0541e+002 -2.3063e+001  8.5433e+000 66242 75046,75150,75072
 1.6000e+000 75176 -1.4441e+002 -2.8668e+001  1.9465e+000 66242 75072,75124,75098
 1.6000e+000 75470 -1.6520e+002 -2.1024e+001  2.8797e+000 65838 75297,75375,75349
 1.6000e+000 75447 -1.6955e+002 -2.7804e+001  1.0207e+000 65838 75271,75375,75297
 1.6000e+000 75424 -1.2624e+002  3.0102e+001  4.1274e+001 65838 75297,75349,75323
 1.6000e+000 75401 -1.4226e+002 -1.0920e+001  1.6863e+001 65838 75245,75375,75271
 1.6000e+000 75671 -8.2049e+001 -4.7354e+001 -3.2698e+001 65640 75495,75573,75521
 1.6000e+000 75648 -6.6689e+001 -5.2454e+001 -1.2438e+001 65640 75495,75599,75573
 1.6000e+000 75625 -9.8501e+001 -2.8998e+001 -1.6417e+001 65640 75521,75573,75547
 1.6000e+000 75872 -1.0662e+002 -3.5458e+001 -1.6758e+000 65300 75895,75748,75722
 1.6000e+000 75849 -9.3696e+001 -3.8131e+001 -4.1629e+000 65300 75895,75722,75696
 1.6000e+000 75826 -1.1399e+002 -3.1077e+001 -1.2663e+001 65300 75967,75774,75748
 1.6000e+000 75921 -1.0896e+002 -3.0492e+001  2.3045e+000 65300 75967,75748,75895
 1.6000e+000 75944 -1.0483e+002 -2.6085e+001  1.3851e+001 65300 75800,75895,75696
 1.6000e+000 75993 -1.3923e+002 -3.0221e+001 -1.0237e+001 65300 75800,75774,75967
 1.6000e+000 76016 -1.3730e+002 -3.5774e+001  1.4167e+000 65300 75800,75967,75895
 1.6000e+000 76371 -9.8166e+001  1.6819e+001 -1.0272e+000 64896 76146,76250,76172
 1.6000e+000 76348 -1.0105e+002  1.3470e+001  1.6704e+000 64896 76146,76276,76250
 1.6000e+000 76325 -7.8997e+001  2.4695e+001 -8.8520e+000 64896 76172,76250,76198
 1.6000e+000 76302 -2.4842e+002 -4.7957e+001 -2.9622e+001 64896 76198,76250,76224
 1.6000e+000 76570 -2.0360e+002 -3.9356e+001  5.0271e+001 64442 76446,76498,76472
 1.6000e+000 76547 -1.5716e+002  3.7082e+000 -3.2592e+000 64442 76420,76498,76446
 1.6000e+000 76524 -1.3889e+002 -1.0511e+001  1.6892e+001 64442 76394,76498,76420
 1.6000e+000 76999 -8.4631e+001  1.2900e+001 -1.1989e+001 63924 77022,76728,76702
 1.6000e+000 76976 -1.0454e+002 -5.8552e+000  2.0232e-001 63924 77022,76702,76832
 1.6000e+000 76953 -1.1109e+002  1.0674e+001 -4.3960e+001 63924 76728,76806,76754
 1.6000e+000 76930 -1.6366e+002 -2.6078e+001  3.2996e+000 63924 76676,76832,76702
 1.6000e+000 76907 -1.6967e+002  8.0379e+001 -3.9692e+001 63924 76754,76806,76780
 1.6000e+000 76884 -1.6429e+002  3.8268e+001 -2.0523e+000 63924 76676,76858,76832
 1.6000e+000 77048 -1.1411e+002  3.3823e+001 -1.1286e+001 63924 76806,76728,77022
 1.6000e+000 77071 -1.3097e+002  1.8491e+001  2.3942e-001 63924 76806,77022,76832
 1.6000e+000 77449 -7.4069e+001  2.5022e+001  1.4315e+001 63320 77472,77253,77201
 1.6000e+000 77426 -6.0820e+001  3.7086e+000 -1.1296e+001 63320 77472,77201,77175
 1.6000e+000 77403 -1.1316e+002 -2.1844e+001  3.0796e+000 63320 77175,77305,77279
 1.6000e+000 77380 -9.9517e+001 -2.2412e+001  5.1755e+001 63320 77201,77253,77227
 1.6000e+000 77357 -1.0252e+002 -1.1340e+001 -1.7583e+001 63320 77175,77331,77305
 1.6000e+000 77498 -1.0532e+002 -2.2071e+001  2.8078e+001 63320 77279,77253,77472
 1.6000e+000 77521 -7.2710e+001 -1.1451e+001 -4.2712e+000 63320 77279,77472,77175
 1.6000e+000 77769 -1.2376e+002 -1.1847e+002  6.5495e+000 62816 77570,77622,77596
 1.6000e+000 77746 -9.9102e+001 -5.8732e+001 -2.7895e+000 62816 77570,77648,77622
 1.6000e+000 77723 -1.4298e+002 -6.8251e+001 -3.0899e+001 62816 77570,77674,77648
 1.6000e+000 77700 -1.0737e+002 -3.3037e+001 -1.3742e+001 62816 77544,77674,77570
 1.6000e+000 78149 -3.6723e+001 -3.5603e+001 -1.8041e+001 62354 77953,78031,78005
 1.6000e+000 78126 -8.3253e+001 -2.6553e+001 -3.1559e+001 62354 77901,78031,77953
 1.6000e+000 78103 -1.8318e+001  4.1153e+000 -2.2001e+000 62354 77875,78031,77901
 1.6000e+000 78080 -1.4082e+002 -1.1526e+001  1.8353e+001 62354 77901,77953,77927
 1.6000e+000 78057 -9.3375e+001 -6.6659e+001 -5.9499e+000 62354 77953,78005,77979
 1.6000e+000 78606 -4.1871e+001 -8.9081e+000 -6.8493e+000 61950 78384,78436,78410
 1.6000e+000 78583 -3.9635e+001 -3.2080e+000  1.4955e-001 61950 78358,78436,78384
 1.6000e+000 78560 -2.0814e+001 -7.8807e+000  3.5686e+000 61950 78358,78488,78436
 1.6000e+000 78537 -1.0825e+001 -4.1950e-001 -3.4641e+000 61950 78436,78488,78462
 1.6000e+000 78514 -4.5657e+001 -1.5913e+001  7.8103e-001 61950 78332,78488,78358
 1.6000e+000 78756 -1.3287e+002 -2.9303e+001  2.0192e+001 61339 78779,78655,78629
 1.6000e+000 78733 -1.3003e+002 -4.3312e+000  1.7960e+001 61339 78779,78629,78707
 1.6000e+000 78805 -1.1305e+002 -1.1547e+001  9.1209e+000 61339 78851,78779,78681
 1.6000e+000 78828 -1.3168e+002 -2.0506e+001  1.2078e+001 61339 78681,78779,78707
 1.6000e+000 78877 -1.3449e+002 -6.1597e+001  8.7640e+000 61339 78655,78779,78851
 1.6000e+000 79206 -1.1334e+002 -6.8333e+001 -3.9844e+001 60892 79229,79007,78981
 1.6000e+000 79183 -1.2969e+002 -9.6824e+001 -2.7842e+001 60892 79229,78981,79111
 1.6000e+000 79160 -1.4218e+002 -7.1818e+001 -3.0861e+001 60892 79301,79033,79007
 1.6000e+000 79137 -1.8804e+002 -2.4833e+001  3.2246e+000 60892 79033,79085,79059
 1.6000e+000 79255 -1.3876e+002 -7.7121e+001 -2.6515e+001 60892 79301,79007,79229
 1.6000e+000 79278 -1.3467e+002 -8.0823e+001 -1.3887e+001 60892 79085,79229,79111
 1.6000e+000 79327 -1.4317e+002 -6.7574e+001 -2.1422e+001 60892 79085,79033,79301
 1.6000e+000 79350 -1.2548e+002 -6.6930e+001 -1.7885e+001 60892 79085,79301,79229
 1.6000e+000 79647 -2.1197e+002 -7.9096e+001 -2.3602e+001 60488 79451,79529,79503
 1.6000e+000 79624 -2.1069e+002 -6.8938e+001 -1.6159e+001 60488 79425,79529,79451
 1.6000e+000 79601 -1.4518e+002 -5.9350e+001 -1.0452e+001 60488 79373,79529,79425
 1.6000e+000 79578 -1.2496e+002 -4.6305e+001  3.1691e+000 60488 79373,79425,79399
 1.6000e+000 79555 -2.1586e+002  2.6689e+000 -8.0627e+000 60488 79451,79503,79477
 1.6000e+000 79870 -1.8300e+002 -1.2371e+002 -1.8598e+001 60026 79720,79798,79772
 1.6000e+000 79847 -2.3163e+002 -1.2168e+002 -1.5847e+001 60026 79694,79798,79720
 1.6000e+000 79824 -2.0949e+002 -1.3023e+002 -6.4038e+000 60026 79720,79772,79746
 1.6000e+000 80120 -6.2852e+001 -3.1198e+001  2.0049e+001 59629 79921,80025,79973
 1.6000e+000 80097 -7.3812e+001 -4.3779e+001  1.4867e+001 59629 79895,80025,79921
 1.6000e+000 80074 -5.3068e+001 -1.6842e+001  6.5343e+000 59629 79973,80025,79999
 1.6000e+000 80051 -2.4571e+001 -2.1752e+001  1.2765e+001 59629 79921,79973,79947
 1.6000e+000 80321 -7.4514e+001 -2.0895e+001 -1.4255e+001 59125 80344,80171,80145
 1.6000e+000 80298 -9.5571e+001 -4.4380e+001 -4.3639e+000 59125 80344,80145,80249
 1.6000e+000 80275 -1.2405e+002 -5.2914e+001  1.9389e+001 59125 80197,80249,80223
 1.6000e+000 80370 -1.0261e+002 -7.2198e+000  5.2341e+000 59125 80197,80171,80344
 1.6000e+000 80393 -1.2152e+002 -2.7599e+001  1.4312e+001 59125 80197,80344,80249
 1.6000e+000 80952 -4.2543e+001 -1.3417e+001  6.1574e+000 58557 80975,80632,80606
 1.6000e+000 80929 -8.2370e+001 -1.3777e+001  1.2429e+001 58557 81119,80975,80606
 1.6000e+000 80906 -7.3707e+001 -3.0694e+001  6.1485e-001 58557 81047,80684,80632
 1.6000e+000 80883 -9.5819e+001 -2.0508e+001  5.1227e+000 58557 81119,80606,80580
 1.6000e+000 80860 -8.4494e+001  1.7965e+001 -1.0810e+001 58557 81191,80736,80710
 1.6000e+000 80837 -9.6288e+001 -3.7202e+000 -1.3833e+001 58557 80736,80788,80762
 1.6000e+000 80814 -5.9818e+001 -2.7570e+001 -5.9690e+000 58557 80632,80684,80658
 1.6000e+000 81001 -7.5520e+001 -2.9341e+001 -4.1833e-001 58557 81047,80632,80975
 1.6000e+000 81024 -7.4395e+001 -4.5287e+000  4.4791e-001 58557 81191,80710,80975
 1.6000e+000 81073 -7.5543e+001 -3.1130e+001 -1.1823e+000 58557 80710,80684,81047
 1.6000e+000 81096 -7.8742e+001 -3.0396e+001 -1.9822e+000 58557 80710,81047,80975
 1.6000e+000 81145 -8.9864e+001 -2.6224e+001  4.1445e+000 58557 80788,80975,81119
 1.6000e+000 81168 -9.1523e+001 -2.6564e+001 -1.8209e+000 58557 80788,81119,80580
 1.6000e+000 81217 -1.0035e+002 -1.1574e+000 -2.8008e+000 58557 80788,80736,81191
 1.6000e+000 81240 -8.8625e+001 -1.7724e+001  8.4535e+000 58557 80788,81191,80975
 1.6000e+000 81537 -1.8274e+002 -9.6947e+001 -5.4184e+000 57881 81560,81341,81289
 1.6000e+000 81514 -1.7132e+002 -9.1938e+001 -1.0937e+001 57881 81560,81289,81263
 1.6000e+000 81491 -2.1198e+002 -9.2037e+001 -5.5276e+000 57881 81632,81419,81367
 1.6000e+000 81468 -1.9183e+002 -4.2327e+001  1.6829e+000 57881 81367,81419,81393
 1.6000e+000 81445 -2.0263e+002 -9.4420e+001 -5.9262e-001 57881 81289,81341,81315
 1.6000e+000 81586 -1.7790e+002 -6.3595e+001 -1.7860e+001 57881 81367,81341,81560
 1.6000e+000 81609 -2.0767e+002 -8.7091e+001 -7.7083e+000 57881 81632,81367,81560
 1.6000e+000 81658 -1.9827e+002 -1.3422e+002  6.0916e-001 57881 81263,81419,81632
 1.6000e+000 81681 -1.7867e+002 -1.0931e+002 -8.6230e+000 57881 81263,81632,81560
 1.6000e+000 81929 -1.1669e+002 -9.3904e+001  3.4190e+001 57477 81704,81808,81782
 1.6000e+000 81906 -1.0070e+002 -4.3074e+001  1.2605e+001 57477 81704,81834,81808
 1.6000e+000 81883 -9.0479e+001 -1.8091e+001  3.5173e+001 57477 81704,81782,81730
 1.6000e+000 81860 -1.1998e+002 -5.2659e+001  4.9100e+001 57477 81730,81782,81756
 1.6000e+000 82488 -6.6655e+001 -2.1666e+001  1.3223e+000 56966 82583,82511,82194
 1.6000e+000 82465 -5.8901e+001  2.3026e+000 -3.4638e+000 56966 82511,82116,82324
 1.6000e+000 82442 -6.7103e+001 -3.8074e+001  6.0712e+000 56966 82583,82194,82168
 1.6000e+000 82419 -9.7846e+001 -2.8681e+001  1.2663e+001 56966 82194,82246,82220
 1.6000e+000 82396 -6.7270e+001 -1.5508e+001  1.3723e+001 56966 82194,82298,82246
 1.6000e+000 82373 -8.4481e+001 -4.7797e+000  3.3804e+001 56966 82246,82298,82272
 1.6000e+000 82350 -4.8978e+001 -7.3756e+000 -9.7686e+000 56966 82116,82168,82142
 1.6000e+000 82537 -6.9576e+001 -9.5464e+000  1.0112e+001 56966 82298,82194,82511
 1.6000e+000 82560 -4.6736e+001  3.0886e+000  1.5214e+001 56966 82298,82511,82324
 1.6000e+000 82609 -6.8876e+001 -2.9246e+000  4.1214e-001 56966 82116,82511,82583
 1.6000e+000 82632 -6.5700e+001 -1.5763e+001  3.4425e+000 56966 82116,82583,82168
 1.6000e+000 83236 -1.4499e+002 -6.3974e+001 -4.4531e+001 56304 82893,82945,82919
 1.6000e+000 83213 -1.3380e+002 -6.4836e+001 -3.5964e+001 56304 83259,82945,82893
 1.6000e+000 83190 -1.1104e+002 -2.2109e+001 -1.5327e+001 56304 83259,82893,83049
 1.6000e+000 83167 -5.9175e+001  5.7998e+000  6.3792e+000 56304 82971,83049,83023
 1.6000e+000 83144 -9.9975e+001  1.6835e-001 -1.1472e+001 56304 82815,83049,82893
 1.6000e+000 83121 -9.6449e+001 -7.1496e+000 -1.5281e+001 56304 82815,82893,82867
 1.6000e+000 83098 -4.5166e+001 -1.5302e+001 -3.4269e+000 56304 82971,83023,82997
 1.6000e+000 83075 -5.7377e+001 -4.7722e+000  1.9456e+001 56304 82815,82867,82841
 1.6000e+000 83285 -1.3861e+002 -4.4657e+000 -2.0747e+001 56304 82971,82945,83259
 1.6000e+000 83308 -1.3024e+002  8.7731e+000  2.0490e+000 56304 82971,83259,83049
 1.6000e+000 83556 -1.4940e+002 -7.9572e+001 -4.1471e+000 55964 83357,83461,83435
 1.6000e+000 83533 -1.2679e+002 -3.3925e+001  1.7029e+001 55964 83331,83461,83357
 1.6000e+000 83510 -5.8814e+001 -6.2462e+001  7.4369e+000 55964 83357,83435,83383
 1.6000e+000 83487 -1.3391e+002 -9.2790e+001 -5.5422e+000 55964 83383,83435,83409
 1.6000e+000 83706 -1.6322e+002 -9.1416e+001 -9.6494e+000 55503 83579,83631,83605
 1.6000e+000 83683 -2.2448e+002 -8.5768e+001 -1.6337e+000 55503 83579,83657,83631
 1.6000e+000 83907 -1.3290e+002 -7.5580e+001 -2.2837e+001 55156 83757,83835,83809
 1.6000e+000 83884 -1.0790e+002 -5.9573e+000 -6.8312e+000 55156 83731,83835,83757
 1.6000e+000 83861 -1.6993e+002 -4.0749e+001 -2.0192e+001 55156 83757,83809,83783
 1.6000e+000 84240 -8.4281e+001 -2.6777e+001  7.9444e+000 54652 84093,84145,84119
 1.6000e+000 84217 -1.4822e+002 -8.9751e+000  3.7981e+001 54652 84041,84145,84093
 1.6000e+000 84194 -1.6221e+002 -2.2200e+001  2.7098e+001 54652 84015,84145,84041
 1.6000e+000 84171 -2.7351e+002 -5.9701e+001  4.5155e+001 54652 84041,84093,84067
 1.6000e+000 84618 -8.2391e+001 -7.9636e+001  2.0884e+001 53926 84396,84500,84474
 1.6000e+000 84595 -5.9087e+001 -9.2245e+001  3.3548e+001 53926 84344,84500,84396
 1.6000e+000 84572 -5.9827e+001 -9.4837e+001  3.2454e+001 53926 84344,84396,84370
 1.6000e+000 84549 -5.8563e+001 -6.1078e+001 -2.8875e+000 53926 84396,84474,84422
 1.6000e+000 84526 -1.2945e+002 -6.2482e+001 -2.1317e+001 53926 84422,84474,84448
 1.6000e+000 85350 -2.0534e+002 -7.0500e+001 -4.5561e+001 53586 85373,84880,85088
 1.6000e+000 85327 -9.5714e+001 -7.1993e+001 -4.3362e+001 53586 84880,85114,85088
 1.6000e+000 85304 -8.5322e+001 -1.6088e+001 -3.2926e+001 53586 85373,85088,85062
 1.6000e+000 85281 -2.5239e+002 -1.2488e+002  6.1940e+001 53586 85010,85062,85036
 1.6000e+000 85258 -2.2423e+002 -4.2102e+001  1.1444e+000 53586 85445,85010,84958
 1.6000e+000 85235 -9.0882e+001  8.4391e+000 -9.6329e+000 53586 85445,84958,84906
 1.6000e+000 85212 -1.5798e+002 -5.6282e+001 -2.1043e+001 53586 84958,85010,84984
 1.6000e+000 85189 -1.5041e+002 -3.3172e+001 -4.0352e+001 53586 84906,84958,84932
 1.6000e+000 85166 -1.1116e+002 -1.0325e+002 -2.6331e+001 53586 84880,85140,85114
 1.6000e+000 85399 -2.4286e+002 -4.8895e+001  7.4182e+001 53586 84906,84880,85373
 1.6000e+000 85422 -1.4812e+002 -1.2000e+000  6.0997e+001 53586 85517,85373,85062
 1.6000e+000 85471 -2.2108e+002 -3.9594e+001  7.7309e+001 53586 85062,85010,85445
 1.6000e+000 85494 -1.4243e+002  2.5389e+000  5.8926e+001 53586 85517,85062,85445
 1.6000e+000 85543 -1.3840e+002 -8.1228e+000  6.2860e+001 53586 84906,85373,85517
 1.6000e+000 85566 -1.3537e+002 -6.7815e+000  6.1653e+001 53586 84906,85517,85445
 1.6000e+000 86072 -8.1274e+001 -3.1748e+001 -1.4615e+001 53182 86095,85853,85775
 1.6000e+000 86049 -8.5198e+001 -2.8390e+001 -1.3010e+001 53182 86095,85775,85931
 1.6000e+000 86026 -9.2962e+001 -3.7629e+001 -1.0242e+001 53182 86167,85879,85853
 1.6000e+000 86003 -1.5039e+002 -2.8006e+001  1.0939e+001 53182 85775,85827,85801
 1.6000e+000 85980 -8.1984e+001 -3.5835e+001 -1.2460e+001 53182 85775,85853,85827
 1.6000e+000 85957 -6.9706e+001 -2.7847e+001  5.7234e+000 53182 85749,85931,85775
 1.6000e+000 86121 -8.5432e+001 -3.2398e+001 -1.4869e+001 53182 86167,85853,86095
 1.6000e+000 86144 -8.1497e+001 -3.2681e+001 -1.2869e+001 53182 85905,86095,85931
 1.6000e+000 86193 -9.2092e+001 -4.0596e+001 -4.7873e+000 53182 85905,85879,86167
 1.6000e+000 86216 -8.7720e+001 -4.1416e+001 -8.8559e+000 53182 85905,86167,86095
 1.6000e+000 86673 -1.0373e+002  1.3295e+000  2.4377e+001 52778 86477,86529,86503
 1.6000e+000 86650 -9.9995e+001 -2.9099e+001  6.9520e+000 52778 86425,86529,86477
 1.6000e+000 86627 -8.9570e+001 -4.6596e+001  2.4702e+001 52778 86425,86477,86451
 1.6000e+000 86604 -6.8051e+001 -5.2130e-001  1.9214e+001 52778 86399,86529,86425
 1.6000e+000 86581 -3.8842e+001  1.7722e+001  5.7762e+000 52778 86399,86555,86529
 1.6000e+000 87258 -8.6982e+001 -7.6878e+000  1.1134e+001 52238 87281,86987,86961
 1.6000e+000 87235 -8.6120e+001 -1.5508e+001  2.6722e+000 52238 87281,86961,87117
 1.6000e+000 87212 -8.7367e+001  3.1364e+000  1.1766e+000 52238 86935,87117,86961
 1.6000e+000 87189 -1.0085e+002  5.5018e+000  3.0375e+000 52238 87065,87117,87091
 1.6000e+000 87166 -1.0059e+002 -3.2532e+001  9.7272e+000 52238 86987,87065,87039
 1.6000e+000 87143 -1.1399e+002 -7.6136e+001  4.4652e+001 52238 86987,87039,87013
 1.6000e+000 87307 -9.3948e+001 -2.3404e+001  1.3085e+001 52238 87065,86987,87281
 1.6000e+000 87330 -8.8640e+001 -2.0810e+001  4.0286e+000 52238 87065,87281,87117
 1.6000e+000 87610 -1.1697e+002 -8.4024e-001  7.8205e+000 51834 87434,87512,87460
 1.6000e+000 87587 -9.3110e+001  2.9728e+001  5.3771e+001 51834 87434,87538,87512
 1.6000e+000 87564 -1.8935e+002 -5.5903e+001 -2.2763e+001 51834 87633,87460,87512
 1.6000e+000 87659 -2.4808e+002 -8.1096e+001 -2.5432e+001 51834 87486,87460,87633
 1.6000e+000 88187 -1.9068e+002 -5.6617e+001  3.8109e+000 51266 87864,87942,87890
 1.6000e+000 88164 -1.8510e+002 -1.0125e+001  3.3567e+000 51266 87864,88020,87942
 1.6000e+000 88141 -3.0013e+002 -8.4309e+001 -4.8462e+001 51266 87942,88020,87968
 1.6000e+000 88118 -2.5258e+002 -9.2025e+001  3.9696e+001 51266 87864,88046,88020
 1.6000e+000 88095 -1.9002e+002 -1.6509e+001 -4.7606e+000 51266 87968,88020,87994
 1.6000e+000 88072 -1.6079e+002 -7.3445e+001 -2.2744e+001 51266 87890,87942,87916
 1.6000e+000 88644 -1.5286e+002 -6.6718e+001 -1.6427e+001 50754 88370,88500,88396
 1.6000e+000 88621 -1.5912e+002 -2.3107e+001 -2.5782e+001 50754 88370,88526,88500
 1.6000e+000 88598 -1.1430e+002 -2.4079e+001  2.0728e+001 50754 88396,88500,88422
 1.6000e+000 88575 -1.1662e+002 -2.6767e+001  1.9025e+001 50754 88422,88500,88474
 1.6000e+000 88552 -2.1688e+002 -8.9265e+001 -2.4218e+001 50754 88422,88474,88448
 1.6000e+000 88914 -1.8411e+002 -7.0282e+001 -2.9566e+000 50442 88715,88793,88741
 1.6000e+000 88891 -1.6956e+002 -9.7352e+001 -1.1355e+000 50442 88715,88819,88793
 1.6000e+000 88868 -1.9852e+002 -1.3117e+002 -1.5774e+001 50442 88689,88819,88715
 1.6000e+000 88845 -1.6941e+002 -8.9219e+001 -5.5524e+001 50442 88741,88793,88767
 1.6000e+000 89294 -2.3350e+002 -9.2838e+001 -1.0369e+001 49938 89317,89046,89020
 1.6000e+000 89271 -2.2112e+002 -1.0322e+002 -1.7320e+001 49938 89317,89020,89150
 1.6000e+000 89248 -1.7741e+002 -8.5244e+001  3.4011e+000 49938 89072,89150,89098
 1.6000e+000 89225 -2.3536e+002 -1.0251e+002 -2.4481e+001 49938 89020,89176,89150
 1.6000e+000 89202 -1.2716e+002 -7.3375e+001 -3.4403e+001 49938 89098,89150,89124
 1.6000e+000 89343 -1.8214e+002 -6.5297e+000  1.1457e+001 49938 89072,89046,89317
 1.6000e+000 89366 -2.2540e+002 -9.4314e+001 -1.1096e+001 49938 89072,89317,89150
 1.6000e+000 89823 -1.3831e+002 -6.4352e+001 -4.9065e+000 49384 89601,89705,89679
 1.6000e+000 89800 -1.0692e+002 -3.2652e+001  2.1101e+001 49384 89549,89705,89601
 1.6000e+000 89777 -5.3047e+001 -2.1756e+001  4.1369e+000 49384 89549,89601,89575
 1.6000e+000 89754 -9.7165e+001 -5.4154e+001  7.6146e-001 49384 89601,89679,89627
 1.6000e+000 89731 -7.2511e+001 -9.5037e+000 -1.3654e+001 49384 89627,89679,89653
 1.6000e+000 90329 -7.9927e+001 -3.7757e+001 -2.8055e+000 48894 90058,90110,90084
 1.6000e+000 90306 -1.0542e+002 -4.5523e+001  4.5090e+001 48894 90058,90162,90110
 1.6000e+000 90283 -1.5719e+002 -3.2612e+001  2.9210e+001 48894 90032,90162,90058
 1.6000e+000 90260 -9.0235e+001  6.0787e+000 -7.4592e+000 48894 90006,90162,90032
 1.6000e+000 90237 -3.9998e+001 -1.9513e+001  1.0404e+001 48894 90110,90162,90136
 1.6000e+000 90214 -1.1591e+002 -1.4592e+000 -1.0914e+001 48894 90006,90188,90162
 1.6000e+000 90884 -1.7886e+002 -8.2816e+001  2.9608e+001 48490 90564,90642,90616
 1.6000e+000 90861 -1.7220e+002 -1.1411e+001 -1.0049e+001 48490 90564,90694,90642
 1.6000e+000 90838 -2.3537e+002 -3.0999e+001 -5.1227e+000 48490 90538,90694,90564
 1.6000e+000 90815 -2.7958e+002 -6.6603e+001  1.1007e+001 48490 90538,90720,90694
 1.6000e+000 90792 -1.5944e+002 -3.6227e+001  2.8559e+001 48490 90564,90616,90590
 1.6000e+000 90769 -1.8880e+002 -6.5505e+001 -2.7391e+001 48490 90642,90694,90668
 1.6000e+000 90746 -2.3761e+002 -5.4591e+001  4.0938e+000 48490 90512,90720,90538
 1.6000e+000 91034 -1.3927e+002 -4.2757e+000 -3.5783e+001 48086 91057,90959,90933
 1.6000e+000 91011 -1.4206e+002 -1.5088e+001 -3.3967e+001 48086 91129,91057,90933
 1.6000e+000 91083 -1.5297e+002 -4.3843e+000 -3.8114e+001 48086 90985,90959,91057
 1.6000e+000 91106 -1.3461e+002 -6.2482e+000 -2.9376e+001 48086 90985,91057,90907
 1.6000e+000 91155 -1.0575e+002 -1.4761e+000 -3.2878e+001 48086 90907,91057,91129
 1.6000e+000 91791 -1.4909e+002 -2.0945e+001 -1.3297e+001 47518 92030,91814,91523
 1.6000e+000 91768 -1.0811e+002 -3.0701e+000 -1.3021e+001 47518 91958,91814,91471
 1.6000e+000 91745 -1.0581e+002  7.5635e+001 -2.6096e+000 47518 91886,91575,91523
 1.6000e+000 91722 -1.1626e+002 -2.8721e+001 -6.6832e+000 47518 91958,91471,91419
 1.6000e+000 91699 -1.9009e+002  1.7778e+001 -3.5671e+001 47518 92030,91523,91497
 1.6000e+000 91676 -1.8591e+002  7.9869e+001 -2.0015e+001 47518 91523,91575,91549
 1.6000e+000 91653 -7.9973e+001 -4.4792e+001 -1.9046e+001 47518 91419,91471,91445
 1.6000e+000 91840 -1.2457e+002  3.7031e+001 -2.3571e+001 47518 91886,91523,91814
 1.6000e+000 91863 -1.3867e+002 -3.9728e+001  1.7174e+001 47518 91601,91814,91627
 1.6000e+000 91912 -8.0795e+001  9.3540e+001  5.2027e+001 47518 91601,91575,91886
 1.6000e+000 91935 -1.0482e+002  9.3023e+000  3.3738e+001 47518 91601,91886,91814
 1.6000e+000 91984 -1.1391e+002 -2.4808e+001 -1.8386e+000 47518 91627,91814,91958
 1.6000e+000 92007 -1.1331e+002 -3.8144e+001  4.0060e+000 47518 91627,91958,91419
 1.6000e+000 92056 -1.6951e+002 -6.0968e+001 -4.3896e+001 47518 91471,91814,92030
 1.6000e+000 92079 -2.0565e+002 -3.7953e+001 -6.9564e+001 47518 91471,92030,91497
 1.6000e+000 92229 -8.7219e+001 -3.1652e+001 -2.7797e+001 47128 92252,92128,92102
 1.6000e+000 92206 -1.2070e+002 -6.0408e+001 -5.7448e+000 47128 92324,92252,92102
 1.6000e+000 92278 -1.1479e+002 -8.6113e+001 -1.6744e+001 47128 92454,92252,92154
 1.6000e+000 92301 -1.1519e+002 -4.2172e+001 -4.7735e+000 47128 92154,92252,92180
 1.6000e+000 92350 -9.7263e+001 -3.3407e+001  4.2617e+000 47128 92180,92252,92324
 1.6000e+000 92480 -1.1359e+002 -3.6176e+001 -8.2567e+000 47128 92128,92252,92454
 1.6000e+000 93340 -1.8712e+002 -1.1736e+001  2.3033e+001 46838 93363,92977,92873
 1.6000e+000 93317 -2.3997e+002 -3.0777e+001  6.6857e+000 46838 93507,93363,92873
 1.6000e+000 93294 -2.0772e+002 -7.6274e+001 -8.4874e+000 46838 93435,93003,92977
 1.6000e+000 93271 -2.5826e+002 -5.4143e+001 -4.4155e+000 46838 93507,92873,92847
 1.6000e+000 93248 -1.9844e+002 -5.3253e+001 -7.0724e+000 46838 93579,93029,93003
 1.6000e+000 93225 -1.4083e+002 -3.5960e+001 -4.4735e+000 46838 92873,92951,92925
 1.6000e+000 93202 -1.3887e+002 -4.3765e+001  6.5919e-001 46838 92873,92977,92951
 1.6000e+000 93179 -2.5891e+002 -7.4562e+001  2.3489e+001 46838 93055,93107,93081
 1.6000e+000 93156 -3.6059e+002 -1.3532e+002 -1.0080e+001 46838 92821,93107,92847
 1.6000e+000 93133 -1.3419e+002 -6.2736e+001  1.0242e+001 46838 92873,92925,92899
 1.6000e+000 93389 -2.2183e+002 -5.5587e+001  1.7666e+000 46838 93435,92977,93363
 1.6000e+000 93412 -2.0556e+002 -2.5948e+001  2.5536e+000 46838 93055,93363,93107
 1.6000e+000 93461 -1.9950e+002 -5.3237e+001 -8.2683e+000 46838 93579,93003,93435
 1.6000e+000 93484 -2.0844e+002 -2.8220e+001 -4.8387e+000 46838 93055,93435,93363
 1.6000e+000 93533 -2.2021e+002 -6.7497e+001  5.1704e+000 46838 93107,93363,93507
 1.6000e+000 93556 -2.2136e+002 -7.8069e+001  2.7292e+000 46838 93107,93507,92847
 1.6000e+000 93605 -1.9567e+002 -5.2459e+001 -6.1671e+000 46838 93055,93029,93579
 1.6000e+000 93628 -1.9684e+002 -5.2401e+001 -7.3101e+000 46838 93055,93579,93435
 1.6000e+000 93979 -1.6344e+002  3.7116e+001  2.0213e+001 46476 93780,93884,93858
 1.6000e+000 93956 -1.8758e+002 -1.6457e+001  1.2018e+001 46476 93754,93884,93780
 1.6000e+000 93933 -3.7486e+002 -1.5224e+001 -2.1778e+000 46476 93806,93858,93832
 1.6000e+000 93910 -3.6568e+002 -4.6014e+001  2.3142e+001 46476 93780,93858,93806
 1.6000e+000 94515 -1.3291e+002 -3.2872e+001  4.1941e+000 46072 94345,94397,94371
 1.6000e+000 94492 -7.7457e+001 -1.0641e+001  1.1999e+001 46072 94267,94397,94345
 1.6000e+000 94469 -4.9454e+001  1.4648e+000 -3.4977e+000 46072 94241,94397,94267
 1.6000e+000 94446 -4.1914e+001 -9.5336e+000 -1.6582e+001 46072 94293,94345,94319
 1.6000e+000 94423 -7.9078e+001  2.0569e+000  1.1433e+001 46072 94267,94345,94293
 1.6000e+000 95149 -1.2172e+002 -2.9077e+001 -1.3112e+001 45346 94803,94881,94855
 1.6000e+000 95126 -1.0014e+002 -2.0208e+001 -1.6393e+001 45346 94803,94959,94881
 1.6000e+000 95103 -6.9648e+001 -7.5148e+000 -6.2212e+000 45346 95172,94933,94907
 1.6000e+000 95080 -8.6092e+001 -1.9207e+001  9.6278e-001 45346 95172,94907,94881
 1.6000e+000 95057 -1.1470e+002 -4.5687e+001 -2.8416e+001 45346 94803,94985,94959
 1.6000e+000 95034 -1.3340e+002 -1.6658e+001 -3.4286e+000 45346 94803,94855,94829
 1.6000e+000 95011 -1.1031e+002 -6.3429e+001 -1.0796e+002 45346 94777,94985,94803
 1.6000e+000 95198 -8.5561e+001 -2.3445e-001 -6.0291e+000 45346 94959,94933,95172
 1.6000e+000 95221 -9.5186e+001 -3.6973e+000 -2.5839e+000 45346 94959,95172,94881
 1.6000e+000 95776 -6.9106e+001 -9.7544e+000  4.0625e+001 44720 95799,95560,95534
 1.6000e+000 95753 -8.9874e+001 -2.4376e+001  4.7840e+001 44720 95799,95534,95482
 1.6000e+000 95730 -1.0923e+002 -1.1983e+001  4.1974e+001 44720 95943,95871,95430
 1.6000e+000 95707 -1.1512e+002  2.0308e+000  4.3958e+001 44720 95943,95430,95404
 1.6000e+000 95684 -1.9136e+002 -4.3618e+001  4.8160e+001 44720 95430,95482,95456
 1.6000e+000 95661 -2.9127e+001 -5.6898e+000  3.5221e+001 44720 95482,95534,95508
 1.6000e+000 95638 -9.3845e+001  1.1296e+001  4.9095e+001 44720 95404,95612,95586
 1.6000e+000 95825 -8.8223e+001  2.9833e+000  4.4582e+001 44720 95586,95560,95799
 1.6000e+000 95848 -8.9590e+001 -3.7656e+000  4.2800e+001 44720 95871,95586,95799
 1.6000e+000 95897 -1.0587e+002 -1.5759e+001  3.3800e+001 44720 95482,95430,95871
 1.6000e+000 95920 -1.0507e+002 -8.5748e+000  3.9374e+001 44720 95482,95871,95799
 1.6000e+000 95969 -9.7608e+001  4.7067e+000  3.6917e+001 44720 95586,95871,95943
 1.6000e+000 95992 -1.0907e+002  1.1832e+001  4.1399e+001 44720 95586,95943,95404
 1.6000e+000 96449 -8.1811e+001 -1.2277e+001  8.8811e+000 44202 96544,96472,96227
 1.6000e+000 96426 -9.9949e+001 -5.7011e+001  2.5107e+001 44202 96472,96175,96331
 1.6000e+000 96403 -1.1648e+002  9.6641e+000  4.2638e+000 44202 96544,96227,96201
 1.6000e+000 96380 -1.9498e+001 -2.5928e+000 -1.5378e+001 44202 96253,96305,96279
 1.6000e+000 96357 -5.9709e+001  2.9858e+000  8.4266e+000 44202 96227,96305,96253
 1.6000e+000 96498 -7.9478e+001 -2.7977e+001 -4.8216e-002 44202 96305,96227,96472
 1.6000e+000 96521 -8.4690e+001 -1.8889e+001  2.1352e+001 44202 96305,96472,96331
 1.6000e+000 96570 -1.1273e+002 -4.9230e+001 -4.4869e+000 44202 96175,96472,96544
 1.6000e+000 96593 -1.3474e+002 -1.1537e+001 -4.0269e+000 44202 96175,96544,96201
 1.6000e+000 96971 -1.9552e+002 -1.3628e+002  2.7373e+001 43754 96994,96749,96697
 1.6000e+000 96948 -2.0516e+002 -1.3806e+002  2.7265e+001 43754 96994,96697,96853
 1.6000e+000 96925 -1.7826e+002 -1.3580e+002  1.7856e+001 43754 96697,96749,96723
 1.6000e+000 96902 -1.6793e+002 -7.1546e+001 -8.1065e+000 43754 96775,96853,96827
 1.6000e+000 96879 -8.1950e+001 -7.1367e+001  2.4960e+000 43754 96775,96827,96801
 1.6000e+000 97020 -1.9822e+002 -1.3096e+002  1.7144e+001 43754 96775,96749,96994
 1.6000e+000 97043 -2.1290e+002 -1.3487e+002  1.8956e+001 43754 96775,96994,96853
 1.6000e+000 97291 -1.3294e+002 -1.9075e+001 -1.2458e+001 43364 97314,97144,97118
 1.6000e+000 97268 -1.4374e+002 -3.5923e+001 -1.9853e+001 43364 97314,97118,97092
 1.6000e+000 97245 -1.2145e+002 -4.0045e+001 -9.1876e+000 43364 97386,97196,97170
 1.6000e+000 97222 -1.4836e+002 -6.4065e+001 -2.0991e+001 43364 97066,97196,97092
 1.6000e+000 97340 -1.3733e+002 -3.8378e+001 -9.8164e+000 43364 97170,97144,97314
 1.6000e+000 97363 -1.2482e+002 -3.4556e+001 -1.3778e+001 43364 97386,97170,97314
 1.6000e+000 97412 -1.2447e+002 -4.6261e+001 -1.3269e+001 43364 97092,97196,97386
 1.6000e+000 97435 -1.3133e+002 -4.6002e+001 -1.8610e+001 43364 97092,97386,97314
 1.6000e+000 97788 -1.0730e+002  4.1471e+000 -7.0556e+000 42960 97563,97667,97589
 1.6000e+000 97765 -1.8963e+002 -6.7680e+001  2.3321e+001 42960 97563,97693,97667
 1.6000e+000 97742 -2.6144e+002  6.9781e+000 -4.2032e+000 42960 97589,97641,97615
 1.6000e+000 97719 -2.4976e+002 -3.5922e+001 -1.3199e+001 42960 97589,97667,97641
 1.6000e+000 98215 -1.0504e+002 -5.6038e+001 -4.8766e+001 42563 97918,98074,98048
 1.6000e+000 98192 -5.8336e+001 -2.2024e+001 -3.1076e+001 42563 97892,98074,97918
 1.6000e+000 98169 -1.1415e+002 -2.1052e+001 -6.0619e+001 42563 98238,97944,97918
 1.6000e+000 98146 -1.3233e+002 -6.2784e+001 -4.3800e+001 42563 98238,97918,98048
 1.6000e+000 98123 -1.5205e+002 -3.3009e+001 -2.9297e+001 42563 97944,98022,97996
 1.6000e+000 98100 -1.4287e+002 -7.0397e-001 -1.2930e+001 42563 97944,97996,97970
 1.6000e+000 98264 -1.3336e+002 -5.0985e+001 -3.9818e+001 42563 98022,97944,98238
 1.6000e+000 98287 -1.3732e+002 -6.6706e+001 -2.4173e+001 42563 98022,98238,98048
 1.6000e+000 98616 -9.8653e+001 -5.3028e+001 -8.0269e+000 42251 98443,98521,98469
 1.6000e+000 98593 -1.2388e+002 -5.1286e+001  8.2301e+000 42251 98417,98521,98443
 1.6000e+000 98570 -1.1894e+002 -4.4844e+001 -2.7825e+001 42251 98391,98521,98417
 1.6000e+000 98547 -9.2413e+001 -3.7335e+001 -2.9872e+001 42251 98469,98521,98495
 1.6000e+000 98886 -3.4327e+002 -1.3437e+002 -8.0853e+000 41847 98661,98765,98687
 1.6000e+000 98863 -3.5478e+002 -1.4841e+002 -1.0352e+000 41847 98661,98791,98765
 1.6000e+000 98840 -3.6824e+002 -1.5492e+002 -1.8841e+001 41847 98687,98765,98739
 1.6000e+000 98817 -3.0494e+002 -1.2938e+002 -2.0838e+001 41847 98687,98739,98713
 1.6000e+000 99394 -1.1339e+002  1.1117e+000  1.7806e+001 41236 99417,99149,99123
 1.6000e+000 99371 -1.6438e+002 -2.2253e+001  1.0958e+001 41236 99417,99123,99097
 1.6000e+000 99348 -1.2869e+002 -3.0524e+001 -5.5838e+000 41236 99489,99201,99149
 1.6000e+000 99325 -1.3757e+002 -4.0488e+001 -1.6508e+001 41236 99149,99201,99175
 1.6000e+000 99302 -1.9748e+002 -2.8281e+001 -9.1844e+000 41236 99097,99253,99227
 1.6000e+000 99279 -2.9772e+002 -9.0048e+001 -3.5239e+001 41236 99071,99253,99097
 1.6000e+000 99443 -1.3553e+002 -2.5936e+001 -6.1302e+000 41236 99489,99149,99417
 1.6000e+000 99466 -1.4345e+002 -1.8590e+001 -9.1073e+000 41236 99227,99417,99097
 1.6000e+000 99515 -1.2652e+002 -2.5873e+001 -8.2157e+000 41236 99227,99201,99489
 1.6000e+000 99538 -1.2872e+002 -1.7420e+001 -1.0161e+001 41236 99227,99489,99417
 1.6000e+000 100044 -2.6888e+001  2.7629e+001  5.5608e+001 40732 99721,99773,99747
 1.6000e+000 100021 -9.7829e+001  3.2527e+001  1.9683e+001 40732 99721,99799,99773
 1.6000e+000 99998 -8.6397e+001 -2.7031e+000  1.2814e+001 40732 99721,99903,99799
 1.6000e+000 99975 -6.3086e+001 -1.1719e+001 -1.2770e+001 40732 100067,99877,99851
 1.6000e+000 99952 -7.9897e+001 -2.0418e+001 -3.7959e+000 40732 100067,99851,99799
 1.6000e+000 99929 -1.1047e+002 -1.9338e+001 -2.0705e+001 40732 99799,99851,99825
 1.6000e+000 100093 -7.9756e+001  2.6975e+000 -6.6356e+000 40732 99903,99877,100067
 1.6000e+000 100116 -1.0273e+002 -1.3506e+001  4.3943e+000 40732 99903,100067,99799
 1.6000e+000 100622 -1.8721e+002 -3.0209e+001  2.3560e+001 40278 100645,100455,100429
 1.6000e+000 100599 -2.1539e+002 -4.5038e+001  3.0385e+001 40278 100717,100645,100429
 1.6000e+000 100576 -2.5235e+002 -6.1388e+001  2.8152e+000 40278 100717,100429,100377
 1.6000e+000 100553 -1.7707e+002 -7.4215e+001  1.7183e+001 40278 100789,100325,100481
 1.6000e+000 100530 -1.8478e+002 -3.7819e+001  2.9048e+001 40278 100299,100481,100325
 1.6000e+000 100507 -1.8727e+002 -4.8215e+001  7.1733e+000 40278 100377,100429,100403
 1.6000e+000 100671 -1.9692e+002 -9.3501e-001  3.1764e+001 40278 100481,100455,100645
 1.6000e+000 100694 -1.9133e+002 -5.5885e+001  1.2122e+000 40278 100789,100481,100645
 1.6000e+000 100743 -2.3524e+002 -5.9190e+001 -3.4113e+001 40278 100351,100645,100717
 1.6000e+000 100766 -3.1820e+002 -9.0609e+001 -6.0386e+001 40278 100351,100717,100377
 1.6000e+000 100815 -1.6368e+002 -6.8163e+001 -3.4306e+000 40278 100351,100325,100789
 1.6000e+000 100838 -1.6415e+002 -3.1648e+001 -2.0496e+001 40278 100351,100789,100645
 1.6000e+000 101265 -1.5643e+002 -4.9065e+001 -8.4412e-001 39824 101288,101046,100994
 1.6000e+000 101242 -1.7735e+002 -6.6223e+001 -1.1175e+001 39824 101288,100994,100968
 1.6000e+000 101219 -2.0362e+002 -4.2317e+001  9.3082e+000 39824 100942,101124,100968
 1.6000e+000 101196 -1.2506e+002 -1.2014e+001  1.5251e+000 39824 101046,101124,101072
 1.6000e+000 101173 -1.4116e+002 -6.1962e+001 -3.3612e+001 39824 100994,101046,101020
 1.6000e+000 101150 -7.4537e+001 -8.7184e+000  1.4537e+000 39824 101072,101124,101098
 1.6000e+000 101314 -1.4542e+002 -5.7621e+001  6.6567e+000 39824 101124,101046,101288
 1.6000e+000 101337 -1.5573e+002 -6.0712e+001 -2.6295e-001 39824 101124,101288,100968
 1.6000e+000 101585 -1.5432e+002 -1.1721e+002  5.4109e+001 39070 101608,101464,101412
 1.6000e+000 101562 -1.5091e+002 -9.0907e+001  5.1500e+001 39070 101608,101412,101360
 1.6000e+000 101539 -1.4726e+002 -1.1809e+002  5.1623e+001 39070 101412,101464,101438
 1.6000e+000 101516 -1.5587e+002 -1.0897e+002  5.2630e+001 39070 101360,101412,101386
 1.6000e+000 101634 -1.6217e+002 -1.0830e+002  3.6468e+001 39070 101490,101464,101608
 1.6000e+000 101657 -1.5234e+002 -7.2598e+001  3.3740e+001 39070 101490,101608,101360
 1.6000e+000 101856 -3.0215e+002 -6.6831e+001 -1.6208e+001 38730 101706,101758,101732
 1.6000e+000 101833 -3.0996e+002 -1.1976e+002  3.2993e+000 38730 101706,101784,101758
 1.6000e+000 101810 -3.1425e+002 -1.4310e+002 -2.0252e+001 38730 101680,101784,101706
 1.6000e+000 102106 -1.5305e+002 -4.5554e+001  7.6420e+000 38326 101881,101959,101907
 1.6000e+000 102083 -1.6726e+002 -4.7039e+001  2.7748e+001 38326 101881,101985,101959
 1.6000e+000 102060 -1.0552e+002 -3.7808e+001  2.7851e+001 38326 101881,102011,101985
 1.6000e+000 102037 -1.9857e+002 -2.5790e+001 -9.9450e+000 38326 101907,101959,101933
 1.6000e+000 102258 -1.3356e+002 -6.6104e+001  9.1965e+000 38036 102281,102157,102131
 1.6000e+000 102235 -1.3544e+002 -3.0711e+001 -8.9655e+000 38036 102281,102131,102209
 1.6000e+000 102307 -1.2012e+002 -9.8023e+001  5.9122e+000 38036 102183,102157,102281
 1.6000e+000 102330 -1.2974e+002 -7.5796e+001 -1.7620e+001 38036 102183,102281,102209
 1.6000e+000 102663 -8.9976e+001 -2.2341e+001  1.8046e+001 37596 102438,102542,102464
 1.6000e+000 102640 -5.9463e+001 -1.5011e+001  6.9564e+000 37596 102438,102568,102542
 1.6000e+000 102617 -8.8999e+001  3.5347e-001  3.4960e+001 37596 102490,102542,102516
 1.6000e+000 102594 -8.1628e+001 -1.4958e+001  2.1502e+001 37596 102464,102542,102490
 1.6000e+000 102862 -1.2121e+002 -7.9864e-001  4.0984e+000 37192 102686,102764,102712
 1.6000e+000 102839 -1.1725e+002  5.8335e+000  2.0047e+000 37192 102686,102790,102764
 1.6000e+000 102816 -1.0341e+002 -3.4423e+001  1.9812e+001 37192 102712,102764,102738
 1.6000e+000 103110 -1.3378e+002 -2.6152e+001 -1.4540e+001 36609 102911,102963,102937
 1.6000e+000 103087 -1.1662e+002 -2.8479e+001 -7.8913e+000 36609 102911,102989,102963
 1.6000e+000 103064 -1.2747e+002 -3.6770e+001 -1.1575e+001 36609 102885,102989,102911
 1.6000e+000 103041 -1.2671e+002 -1.0228e+001 -2.7233e+001 36609 102885,103015,102989
 1.6000e+000 103718 -3.4329e+001 -1.9742e+001  9.9587e+000 36131 103323,103375,103349
 1.6000e+000 103695 -7.8653e+001 -1.0224e+001  1.0359e+001 36131 103297,103375,103323
 1.6000e+000 103672 -9.1951e+001 -4.1364e+001  1.1372e+001 36131 103297,103505,103375
 1.6000e+000 103649 -1.0221e+002 -4.1049e+001  1.6966e+001 36131 103741,103479,103401
 1.6000e+000 103626 -1.0317e+002 -4.2921e+001  8.9793e+000 36131 103741,103401,103375
 1.6000e+000 103603 -1.1222e+002 -2.5752e+001  1.3950e+001 36131 103401,103479,103427
 1.6000e+000 103580 -9.7371e+001 -2.3460e+001 -6.2494e+000 36131 103297,103531,103505
 1.6000e+000 103557 -9.3588e+001 -2.2529e+000 -1.1328e+001 36131 103427,103479,103453
 1.6000e+000 103767 -9.3531e+001 -3.7031e+001  1.8091e+001 36131 103505,103479,103741
 1.6000e+000 103790 -9.5812e+001 -3.9451e+001  1.0057e+001 36131 103505,103741,103375
 1.6000e+000 103989 -2.3586e+002 -5.8549e+001  5.4718e+000 35791 103839,103917,103891
 1.6000e+000 103966 -2.2994e+002 -7.5970e+001  2.8076e+000 35791 103813,103917,103839
 1.6000e+000 103943 -1.9511e+002 -1.0051e+001 -2.0861e+001 35791 103839,103891,103865
 1.6000e+000 104188 -1.2752e+002 -5.6793e+001 -1.7960e+001 35444 104038,104090,104064
 1.6000e+000 104165 -1.3842e+002 -4.5364e+001  7.1632e+000 35444 104038,104116,104090
 1.6000e+000 104142 -1.5872e+002 -5.3226e+001  5.2341e-001 35444 104012,104116,104038
 1.6000e+000 104487 -1.7987e+002 -4.8096e+001 -1.6489e+001 34990 104265,104317,104291
 1.6000e+000 104464 -1.4951e+002 -3.8688e+001 -1.3081e+001 34990 104510,104317,104265
 1.6000e+000 104441 -1.2123e+002 -2.6478e+001 -6.6002e+000 34990 104510,104265,104213
 1.6000e+000 104418 -1.5727e+002 -2.0408e+001  3.7439e+000 34990 104582,104343,104317
 1.6000e+000 104395 -1.1060e+002 -1.5979e+000 -6.7194e+000 34990 104213,104265,104239
 1.6000e+000 104536 -1.5808e+002 -2.0798e+001 -6.1656e+000 34990 104582,104317,104510
 1.6000e+000 104559 -1.4255e+002 -2.8126e+001 -1.2558e+000 34990 104369,104510,104213
 1.6000e+000 104608 -1.2972e+002  6.5785e+000  1.5110e+001 34990 104369,104343,104582
 1.6000e+000 104631 -1.4650e+002 -1.5731e+001  1.6840e-001 34990 104369,104582,104510
 1.6000e+000 104783 -1.8870e+002 -6.2571e+001 -1.7676e+001 34700 104938,104806,104682
 1.6000e+000 104760 -1.8207e+002 -7.6608e+001 -2.5515e+000 34700 104938,104682,104656
 1.6000e+000 104832 -1.2929e+002 -1.4601e+001  3.3940e+000 34700 104708,104682,104806
 1.6000e+000 104964 -2.0781e+002 -6.6360e+001 -7.9702e+000 34700 104734,104806,104938
 1.6000e+000 104987 -2.0130e+002 -7.8217e+001  6.9725e+000 34700 104734,104938,104656
 1.6000e+000 105137 -2.6936e+002 -4.7199e+000 -1.9114e+000 34388 105036,105088,105062
 1.6000e+000 105114 -2.7497e+002 -9.2960e+001 -1.8098e+001 34388 105010,105088,105036
 1.6000e+000 105385 -1.8027e+002 -4.0965e+001  1.5825e+001 33734 105408,105186,105160
 1.6000e+000 105362 -1.7785e+002 -4.2953e+001  1.3552e+001 33734 105408,105160,105264
 1.6000e+000 105339 -1.8944e+002 -1.5279e+001  3.8635e+000 33734 105160,105290,105264
 1.6000e+000 105316 -1.7443e+002 -4.9612e+001  3.6875e+001 33734 105186,105238,105212
 1.6000e+000 105434 -1.7806e+002 -4.0605e+001  1.5682e+001 33734 105238,105186,105408
 1.6000e+000 105457 -1.7222e+002 -4.0581e+001  1.3306e+001 33734 105238,105408,105264
 1.6000e+000 105609 -1.3746e+002 -2.4752e+001 -4.9944e+001 33394 105482,105534,105508
 1.6000e+000 105586 -1.1530e+002 -3.3609e+001 -3.8092e+001 33394 105482,105560,105534
 1.6000e+000 105859 -2.4432e+002 -4.6329e+001 -3.3089e+001 33047 105882,105712,105660
 1.6000e+000 105836 -2.7292e+002 -4.0761e+001 -9.2378e+000 33047 105882,105660,105634
 1.6000e+000 105813 -1.8500e+002 -5.5737e+001 -9.1562e-001 33047 105660,105712,105686
 1.6000e+000 105790 -1.9773e+002 -2.3823e+001 -3.5460e+001 33047 105634,105764,105738
 1.6000e+000 105908 -1.7832e+002 -7.2630e+000 -5.7956e+001 33047 105738,105712,105882
 1.6000e+000 105931 -2.4763e+002 -3.8330e+001 -2.6957e+001 33047 105738,105882,105634
 1.6000e+000 106181 -1.3904e+002 -4.3226e+001  2.0401e+001 32543 106204,106060,106008
 1.6000e+000 106158 -1.2313e+002 -5.7048e+001  1.2128e+001 32543 105956,106086,106060
 1.6000e+000 106135 -1.2931e+002 -2.1669e+001  1.8259e+001 32543 106204,106008,105982
 1.6000e+000 106112 -1.4222e+002 -8.1044e+001  1.4296e+001 32543 106008,106060,106034
 1.6000e+000 106230 -1.3139e+002 -5.1549e+001  5.7519e+000 32543 105956,106060,106204
 1.6000e+000 106253 -1.2158e+002 -3.1121e+001  2.8365e+000 32543 105956,106204,105982
 1.6000e+000 106454 -1.7486e+002 -7.4726e+001 -4.5755e+001 31839 106304,106356,106330
 1.6000e+000 106431 -1.9730e+002 -5.9546e+001 -2.4961e+000 31839 106278,106356,106304
 1.6000e+000 106408 -1.5405e+002 -3.8696e+001 -1.4195e+001 31839 106278,106382,106356
 1.6000e+000 106704 -9.0875e+001 -2.1706e+001  4.9824e+000 31534 106505,106583,106557
 1.6000e+000 106681 -9.8915e+001 -2.2421e+001  7.4880e+000 31534 106479,106583,106505
 1.6000e+000 106658 -1.2295e+002 -3.8056e+001  1.3124e+001 31534 106505,106557,106531
 1.6000e+000 106635 -1.1469e+002 -2.9035e+001  7.9380e+000 31534 106479,106609,106583
 1.6000e+000 107108 -2.9462e+002  4.0461e+001 -6.2684e+001 31030 106886,106990,106964
 1.6000e+000 107085 -2.1840e+002 -2.8041e+001 -1.9761e+001 31030 106860,106990,106886
 1.6000e+000 107062 -1.9924e+002 -1.6224e+001 -1.3093e+001 31030 106834,106990,106860
 1.6000e+000 107039 -4.5084e+002 -1.5404e+002  3.3611e+001 31030 106912,106964,106938
 1.6000e+000 107016 -4.8087e+002 -3.4923e+001 -5.7063e+001 31030 106886,106964,106912
 1.6000e+000 107307 -2.8258e+002  1.3795e-001 -8.3159e+000 30718 107330,107157,107131
 1.6000e+000 107284 -2.3680e+002 -1.3708e+001 -2.0150e+001 30718 107330,107131,107235
 1.6000e+000 107261 -1.9221e+002 -2.2780e+001  3.0973e+000 30718 107183,107235,107209
 1.6000e+000 107356 -2.3840e+002 -3.9440e+000  4.0756e+000 30718 107183,107157,107330
 1.6000e+000 107379 -1.9560e+002 -2.0058e+001 -1.1556e+001 30718 107183,107330,107235
 1.6000e+000 107759 -1.5701e+002 -8.0922e+001  1.9641e+001 30264 107782,107615,107537
 1.6000e+000 107736 -1.4700e+002 -5.7602e+001  2.0677e+001 30264 107782,107537,107485
 1.6000e+000 107713 -2.0152e+002 -4.2202e+001  2.7119e+001 30264 107485,107537,107511
 1.6000e+000 107690 -1.2644e+002 -7.2169e+001  2.4356e+001 30264 107537,107615,107589
 1.6000e+000 107667 -1.1281e+002 -6.7987e+001  2.5286e+001 30264 107537,107589,107563
 1.6000e+000 107808 -1.6292e+002 -7.5952e+001  9.0612e-001 30264 107641,107615,107782
 1.6000e+000 107831 -1.5102e+002 -4.9362e+001  3.1979e+000 30264 107641,107782,107485
 1.6000e+000 108030 -1.6020e+002 -5.7093e+001  1.8660e+001 29874 108053,107854,107932
 1.6000e+000 108007 -1.3326e+002 -3.4563e+001  7.4190e+000 29874 107854,107958,107932
 1.6000e+000 107984 -1.6961e+002 -4.1194e+001  3.4993e+001 29874 108053,107932,107906
 1.6000e+000 108079 -1.5822e+002 -3.6757e+001  1.9703e+001 29874 107880,107854,108053
 1.6000e+000 108102 -1.6659e+002 -1.5943e+001  3.1101e+001 29874 107880,108053,107906
 1.6000e+000 108433 -9.7685e+001 -3.8120e+001 -4.5694e+000 29484 108234,108338,108312
 1.6000e+000 108410 -1.4494e+002 -3.6494e+001  2.8860e+001 29484 108208,108338,108234
 1.6000e+000 108387 -1.4828e+002 -4.5489e+001 -8.4533e+000 29484 108234,108312,108260
 1.6000e+000 108364 -1.3268e+002 -5.8992e+001 -8.8080e+000 29484 108260,108312,108286
 1.6000e+000 108762 -7.9429e+001 -4.3643e+001  1.5276e+001 29080 108563,108641,108589
 1.6000e+000 108739 -7.3781e+001 -4.2971e+001  2.2187e+001 29080 108537,108641,108563
 1.6000e+000 108716 -1.2295e+002 -6.0453e+000  5.1036e+001 29080 108589,108641,108615
 1.6000e+000 108693 -3.4470e+001 -2.9887e+001  1.0111e+001 29080 108537,108667,108641
 1.6000e+000 109189 -1.7768e+002 -5.0351e+001  1.3830e+001 28476 108892,108996,108970
 1.6000e+000 109166 -2.1063e+002 -4.9800e+001  1.5416e+001 28476 108892,109022,108996
 1.6000e+000 109143 -1.8527e+002 -6.5204e+001  1.6886e+001 28476 108892,108970,108944
 1.6000e+000 109120 -2.4206e+002 -5.3715e+001  1.7229e+001 28476 108892,109048,109022
 1.6000e+000 109097 -1.9475e+002 -7.7655e+001  9.8976e+000 28476 108892,108944,108918
 1.6000e+000 109074 -2.9732e+002 -2.9086e+001 -2.2353e+001 28476 108866,109048,108892
 1.6000e+000 109518 -9.3928e+001 -2.5056e+001  2.2409e+001 28022 109541,109371,109345
 1.6000e+000 109495 -1.1412e+002  7.3476e+000 -9.6941e+000 28022 109541,109345,109319
 1.6000e+000 109472 -7.3144e+001  1.9690e+001 -1.1087e+001 28022 109293,109397,109319
 1.6000e+000 109449 -8.5607e+001  6.9558e-002  8.9424e+000 28022 109293,109423,109397
 1.6000e+000 109567 -7.9845e+000  1.2245e+001  1.8370e+001 28022 109397,109371,109541
 1.6000e+000 109590 -8.8915e+001  1.4161e+001 -9.3163e+000 28022 109397,109541,109319
 1.6000e+000 109968 -2.0815e+002 -1.2197e+002 -2.6615e+001 27568 109798,109850,109824
 1.6000e+000 109945 -1.8956e+002 -7.4842e+001 -2.3445e+001 27568 109694,109850,109798
 1.6000e+000 109922 -1.4388e+002 -1.2128e+002 -1.5886e+001 27568 109694,109798,109746
 1.6000e+000 109899 -1.4755e+002 -1.1339e+002  3.7945e+001 27568 109746,109798,109772
 1.6000e+000 109876 -1.1028e+002 -6.4512e+001  5.5801e+000 27568 109694,109746,109720
 1.6000e+000 110167 -1.4715e+002 -3.8381e+001 -1.1194e+000 27007 110017,110095,110069
 1.6000e+000 110144 -1.3925e+002 -1.5262e+001  2.8083e-001 27007 109991,110095,110017
 1.6000e+000 110121 -1.4704e+002 -1.7971e+001  2.5417e+001 27007 110017,110069,110043
 1.6000e+000 110415 -7.8033e+001 -3.6778e+001  1.1900e+001 26567 110438,110242,110190
 1.6000e+000 110392 -1.0194e+002 -8.0862e+000  1.9696e+000 26567 110438,110190,110320
 1.6000e+000 110369 -1.0007e+002 -2.8688e+001  1.0805e+001 26567 110242,110294,110268
 1.6000e+000 110346 -6.5964e+001 -1.3972e+001  1.8970e+000 26567 110190,110242,110216
 1.6000e+000 110464 -9.0575e+001 -4.0937e+001  3.5280e+000 26567 110294,110242,110438
 1.6000e+000 110487 -1.2010e+002 -3.4058e+001 -1.3013e+001 26567 110294,110438,110320
 1.6000e+000 110639 -2.2859e+002 -1.1070e+001 -3.3172e+001 26170 110538,110590,110564
 1.6000e+000 110616 -2.0339e+002 -3.9844e+001 -1.5501e+001 26170 110512,110590,110538
 1.6000e+000 111149 -2.4310e+002 -8.1183e+001  6.9257e+001 25716 111172,110878,110852
 1.6000e+000 111126 -1.9903e+002 -5.3856e+001  5.7480e+001 25716 111172,110852,111008
 1.6000e+000 111103 -2.7473e+002 -7.6017e+001  1.4444e+002 25716 110878,110930,110904
 1.6000e+000 111080 -1.8457e+002 -5.9636e+001  4.1517e+001 25716 110826,111008,110852
 1.6000e+000 111057 -1.4244e+002 -1.0284e+002  3.5772e+001 25716 110930,111008,110956
 1.6000e+000 111034 -1.0493e+002 -8.6363e+001  3.0890e+001 25716 110956,111008,110982
 1.6000e+000 111198 -1.9988e+002 -1.2077e+002  8.4538e+001 25716 110930,110878,111172
 1.6000e+000 111221 -1.4684e+002 -8.8839e+001  7.1201e+001 25716 110930,111172,111008
 1.6000e+000 111420 -2.6818e+002 -6.4824e+001  8.4081e+000 25304 111443,111270,111244
 1.6000e+000 111397 -2.7350e+002 -6.5601e+001  1.0111e+001 25304 111443,111244,111348
 1.6000e+000 111374 -2.7303e+002 -7.6669e+001 -2.3063e+001 25304 111270,111322,111296
 1.6000e+000 111469 -2.7337e+002 -6.0871e+001  6.5476e+000 25304 111322,111270,111443
 1.6000e+000 111492 -2.7997e+002 -6.2544e+001  8.0212e+000 25304 111322,111443,111348
 1.6000e+000 111691 -8.7099e+001 -2.9519e+001 -8.3852e+000 24736 111567,111619,111593
 1.6000e+000 111668 -9.0104e+001 -5.6830e-002 -2.5690e+001 24736 111541,111619,111567
 1.6000e+000 111645 -9.7203e+001  2.3951e+001 -1.0877e+001 24736 111515,111619,111541
 1.6000e+000 112024 -1.7136e+001 -3.9667e+000  5.2455e+000 24146 111825,111877,111851
 1.6000e+000 112001 -2.6777e+001  8.7082e+000 -7.7251e+000 24146 111825,111903,111877
 1.6000e+000 111978 -4.7379e+001 -5.3419e+001  7.5914e-001 24146 111825,111929,111903
 1.6000e+000 111955 -5.7035e+001 -5.9490e+001 -1.7773e+000 24146 111799,111929,111825
 1.6000e+000 112370 -1.3972e+002 -5.4255e+001  2.7716e+001 23856 112393,112151,112125
 1.6000e+000 112347 -1.3068e+002 -3.1821e+001  2.9443e+001 23856 112465,112393,112125
 1.6000e+000 112324 -1.3047e+002 -2.4086e+001  3.3564e+001 23856 112465,112125,112073
 1.6000e+000 112301 -1.6888e+002 -4.3594e+001  4.6237e+001 23856 112073,112125,112099
 1.6000e+000 112278 -1.4133e+002 -5.5926e+001  1.2619e+001 23856 112047,112229,112073
 1.6000e+000 112255 -1.1660e+002 -4.8548e+001 -9.4165e+000 23856 112151,112203,112177
 1.6000e+000 112419 -1.3609e+002 -4.2559e+001  1.5261e+001 23856 112203,112151,112393
 1.6000e+000 112442 -1.4041e+002 -4.5544e+001  1.3882e+001 23856 112203,112393,112229
 1.6000e+000 112491 -1.3862e+002 -4.1083e+001  1.2741e+001 23856 112229,112393,112465
 1.6000e+000 112514 -1.3257e+002 -2.1958e+001  1.6852e+001 23856 112229,112465,112073
 1.6000e+000 112784 -2.4509e+002  7.3026e+001 -3.3647e+001 23494 112611,112663,112637
 1.6000e+000 112761 -1.8241e+002 -1.3168e+001 -1.8147e+001 23494 112585,112663,112611
 1.6000e+000 112738 -2.3706e+002 -3.5765e+001  2.1212e+001 23494 112559,112663,112585
 1.6000e+000 112715 -2.0280e+002  8.3423e+001  3.6367e+001 23494 112559,112689,112663
 1.6000e+000 113117 -2.0915e+002 -3.4483e+001 -5.4500e+001 22974 112944,113022,112996
 1.6000e+000 113094 -1.8526e+002 -8.2068e+001 -3.5694e+001 22974 112918,113022,112944
 1.6000e+000 113071 -2.3406e+002 -1.0632e+002 -6.5525e+001 22974 112944,112996,112970
 1.6000e+000 113048 -1.7072e+002 -2.0208e+001 -5.5198e+001 22974 112892,113022,112918
 1.6000e+000 113414 -2.2054e+002 -7.5734e+001 -5.1000e+000 22370 113192,113296,113218
 1.6000e+000 113391 -2.5662e+002 -1.0772e+002 -1.8729e+001 22370 113140,113296,113192
 1.6000e+000 113368 -2.2234e+002 -7.7200e+001  6.5897e+000 22370 113218,113296,113270
 1.6000e+000 113345 -1.9884e+002 -8.0651e+001  3.1625e+001 22370 113218,113270,113244
 1.6000e+000 113322 -2.1574e+002 -3.2991e+001 -4.3163e+001 22370 113140,113192,113166
 1.6000e+000 113662 -1.5139e+002 -1.9483e+001  1.4161e+001 21916 113685,113515,113489
 1.6000e+000 113639 -1.8375e+002 -4.4814e+001  2.0945e+000 21916 113685,113489,113437
 1.6000e+000 113616 -1.3066e+002 -4.2215e+001 -3.4906e+000 21916 113757,113567,113541
 1.6000e+000 113593 -1.7808e+002 -2.7754e+001 -8.8193e+000 21916 113437,113489,113463
 1.6000e+000 113711 -1.7063e+002 -5.8841e+001  7.6327e+000 21916 113541,113515,113685
 1.6000e+000 113734 -1.5701e+002 -5.4727e+001  1.3322e+000 21916 113757,113541,113685
 1.6000e+000 113783 -1.6642e+002 -4.1585e+001 -3.7322e+000 21916 113437,113567,113757
 1.6000e+000 113806 -1.7103e+002 -3.8808e+001 -4.8850e+000 21916 113437,113757,113685
 1.6000e+000 114056 -1.5754e+002 -3.7921e+001 -1.9051e+001 21412 113857,113909,113883
 1.6000e+000 114033 -1.5760e+002 -3.4347e+001 -1.7931e+001 21412 114079,113909,113857
 1.6000e+000 114010 -1.7063e+002 -4.8407e+001 -4.3643e+000 21412 114079,113857,113961
 1.6000e+000 113987 -1.6397e+002 -5.1459e+001 -5.6926e+000 21412 113831,113961,113857
 1.6000e+000 114105 -1.6923e+002 -1.0808e+001 -2.5895e+001 21412 113935,113909,114079
 1.6000e+000 114128 -1.7928e+002 -2.9048e+001 -1.4677e+001 21412 113935,114079,113961
 1.6000e+000 114378 -9.1123e+001 -2.1531e+001 -1.3942e+000 21022 114401,114257,114205
 1.6000e+000 114355 -1.0524e+002 -2.4808e+001 -2.2626e+001 21022 114401,114205,114179
 1.6000e+000 114332 -9.4123e+001 -3.3931e+000 -2.6628e+000 21022 114153,114283,114179
 1.6000e+000 114309 -9.8424e+001 -2.5680e+001 -3.2305e+000 21022 114205,114257,114231
 1.6000e+000 114427 -6.1591e+001 -1.4570e+001  8.4996e+000 21022 114283,114257,114401
 1.6000e+000 114450 -8.2931e+001 -2.0300e+001 -1.2008e+001 21022 114283,114401,114179
 1.6000e+000 114651 -7.8455e+001 -1.3052e+001 -4.4957e+000 20618 114501,114553,114527
 1.6000e+000 114628 -3.9916e+001 -4.5704e+000  6.4947e+000 20618 114501,114579,114553
 1.6000e+000 114605 -9.2981e+001 -1.7325e+001 -3.3553e+000 20618 114475,114579,114501
 1.6000e+000 114901 -2.8189e+002 -3.3305e+001 -3.6833e+001 20114 114676,114780,114702
 1.6000e+000 114878 -2.0087e+002 -3.7416e+000 -3.6263e+001 20114 114676,114806,114780
 1.6000e+000 114855 -3.0116e+002 -1.1949e+001 -2.9851e+001 20114 114702,114780,114754
 1.6000e+000 114832 -7.5791e+002 -1.4360e+002 -4.6425e+001 20114 114702,114754,114728
 1.6000e+000 115053 -2.2233e+002 -3.4951e+001 -1.6903e-001 19460 115147,115076,114926
 1.6000e+000 115030 -2.2500e+002 -2.8089e+001 -2.2377e+000 19460 115147,114926,115004
 1.6000e+000 115102 -2.2951e+002 -4.3373e+001  3.8482e+000 19460 114952,114926,115076
 1.6000e+000 115173 -2.2226e+002 -4.8800e+001  8.0900e-002 19460 114978,115076,115147
 1.6000e+000 115196 -2.2227e+002 -3.9138e+001 -3.1115e+000 19460 114978,115147,115004
 1.6000e+000 115446 -3.3576e+002 -5.7615e+001  4.1626e+001 19006 115273,115351,115299
 1.6000e+000 115423 -3.0289e+002 -1.1853e+002  1.3921e+001 19006 115247,115351,115273
 1.6000e+000 115400 -3.2725e+002 -1.2606e+002  3.5674e+001 19006 115221,115351,115247
 1.6000e+000 115377 -1.9666e+002 -2.7660e+001 -7.4190e+001 19006 115299,115351,115325
 1.6000e+000 115767 -7.3433e+001 -3.8513e+000  6.3681e+000 18716 115571,115649,115623
 1.6000e+000 115744 -8.1833e+001 -1.8775e+001  2.9378e+000 18716 115493,115649,115571
 1.6000e+000 115721 -8.3104e+001 -6.5214e+000  4.5501e+000 18716 115493,115571,115545
 1.6000e+000 115698 -8.9720e+001 -1.1319e+001 -6.6980e+000 18716 115493,115545,115519
 1.6000e+000 115675 -2.8869e+001  1.0659e+001 -1.9644e+000 18716 115571,115623,115597
 1.6000e+000 116039 -1.7350e+002 -4.6377e+001  1.0397e+001 18312 115814,115892,115840
 1.6000e+000 116016 -1.7234e+002 -4.2373e+001  7.8995e+000 18312 115814,115944,115892
 1.6000e+000 115993 -1.6809e+002 -1.1678e+001  1.3180e+001 18312 115892,115944,115918
 1.6000e+000 115970 -8.8810e+001 -4.7411e+000 -2.9058e+000 18312 115840,115892,115866
 1.6000e+000 116191 -2.9549e+002 -1.0363e+002  5.0076e-001 18000 116090,116142,116116
 1.6000e+000 116168 -2.8678e+002 -1.0295e+002  6.3815e+000 18000 116064,116142,116090
 1.6000e+000 116343 -1.0831e+002  5.2053e+000 -2.3268e+000 17396 116242,116294,116268
 1.6000e+000 116320 -1.4098e+002  5.2934e+000 -1.8062e+000 17396 116216,116294,116242
 1.6000e+000 116566 -2.0810e+002 -8.8764e+001  1.4957e+001 16942 116390,116468,116442
 1.6000e+000 116543 -3.0494e+002 -1.0244e+002  3.0906e+001 16942 116390,116494,116468
 1.6000e+000 116520 -2.2247e+002 -1.2238e+002  6.3088e+000 16942 116390,116442,116416
 1.6000e+000 116767 -8.7239e+001  8.7228e+000  4.8754e+000 16438 116790,116643,116617
 1.6000e+000 116744 -1.0926e+002 -1.0987e+001 -3.4646e+000 16438 116790,116617,116591
 1.6000e+000 116721 -5.4458e+001 -6.6913e+000 -1.4056e+001 16438 116643,116695,116669
 1.6000e+000 116816 -7.5991e+001 -5.6483e+000  1.1389e+001 16438 116695,116643,116790
 1.6000e+000 116839 -8.3036e+001 -1.0833e+001  7.6124e+000 16438 116695,116790,116591
 1.6000e+000 117062 -4.8921e+000 -5.6904e-001 -1.2299e+000 16074 116886,116938,116912
 1.6000e+000 117039 -5.1565e+001 -2.1477e+001  3.3834e+000 16074 116886,116990,116938
 1.6000e+000 117016 -4.9885e+001 -4.1823e+000  3.5708e+000 16074 116938,116990,116964
 1.6000e+000 117214 -2.3507e+002 -1.0734e+002 -1.4771e+001 15649 117087,117139,117113
 1.6000e+000 117191 -2.8858e+002 -1.3619e+002  2.0103e+000 15649 117087,117165,117139
 1.6000e+000 117317 -2.7143e+000 -8.5712e+000  2.0882e+000 421 117239,117291,117265
 1.7000e+000 70632  2.2398e+001 -8.2320e+000  2.0344e+001 70072 70482,70534,70508
 1.7000e+000 70609  4.3667e+000 -4.8475e+001  1.5688e+001 70072 70482,70560,70534
 1.7000e+000 70586 -2.9176e+001 -6.1068e+001  8.7658e+000 70072 70456,70560,70482
 1.7000e+000 70951 -7.4233e+001 -7.3754e+001  0.0000e+000 69874 70703,70755,70729
 1.7000e+000 70928 -9.2134e+001 -8.1481e+001 -5.8970e-001 69874 70703,70781,70755
 1.7000e+000 70905 -9.5482e+001 -7.1657e+001 -1.8585e+000 69874 70703,70807,70781
 1.7000e+000 70882 -1.0010e+002 -8.5012e+001  4.1224e+000 69874 70703,70833,70807
 1.7000e+000 70859 -4.1882e+001 -6.0826e+001 -9.2732e-001 69874 70677,70833,70703
 1.7000e+000 71199 -4.4651e+001 -1.7564e+001  3.3031e+000 69698 71222,71052,71026
 1.7000e+000 71176 -3.3982e+001 -2.6888e+001  5.0784e+000 69698 71294,71222,71026
 1.7000e+000 71153 -2.9725e+001 -1.8191e+001  7.1702e+000 69698 71294,71026,71000
 1.7000e+000 71130 -6.8233e+001 -3.4613e+001 -8.5918e+000 69698 71366,71104,71078
 1.7000e+000 71248 -4.8515e+001 -2.5255e+001  4.5997e+000 69698 71078,71052,71222
 1.7000e+000 71271 -5.1311e+001 -3.3155e+001 -6.5476e+000 69698 71366,71078,71222
 1.7000e+000 71320 -3.6862e+001 -2.2835e+001 -3.0664e+000 69698 70974,71222,71294
 1.7000e+000 71343 -3.6321e+001 -2.1509e+001 -1.6176e+000 69698 70974,71294,71000
 1.7000e+000 71392 -4.7143e+001 -2.6974e+001 -3.8115e+000 69698 70974,71104,71366
 1.7000e+000 71415 -4.1881e+001 -3.3020e+001 -1.2131e+000 69698 70974,71366,71222
 1.7000e+000 71516 -3.4163e+001 -3.0532e-001  7.3005e+000 69386 71438,71490,71464
 1.7000e+000 71869  2.3670e+001  1.8164e+001 -1.6417e+001 69188 71644,71748,71670
 1.7000e+000 71846  6.0722e+001  3.2723e+001  1.9681e+000 69188 71644,71774,71748
 1.7000e+000 71823  2.2314e+000 -1.1092e+001 -5.7901e+000 69188 71670,71748,71722
 1.7000e+000 71800 -3.8894e+000  4.8336e+000 -9.8612e+000 69188 71670,71722,71696
 1.7000e+000 72019 -1.7514e+002 -3.0424e+001  1.9976e+001 68990 71918,71970,71944
 1.7000e+000 71996 -2.0962e+002 -1.3024e+001  1.2504e+001 68990 71892,71970,71918
 1.7000e+000 72316 -6.5590e+001  2.2718e+001 -4.7974e-002 68586 72339,72172,72146
 1.7000e+000 72293 -7.1894e+001  2.3151e+000  6.0960e-001 68586 72339,72146,72120
 1.7000e+000 72270 -6.9679e+001 -1.2748e+001  2.4903e+001 68586 72411,72068,72198
 1.7000e+000 72247 -8.7919e+001  8.4278e+000  3.6277e+001 68586 72042,72198,72068
 1.7000e+000 72224 -4.5529e+001 -3.0780e+000 -8.1810e+000 68586 72068,72120,72094
 1.7000e+000 72365 -7.0152e+001  3.0593e+001  1.9414e+001 68586 72198,72172,72339
 1.7000e+000 72388 -8.3199e+001  1.1925e-001  1.9063e+001 68586 72411,72198,72339
 1.7000e+000 72437 -5.4483e+001 -2.5161e-001  1.4447e+001 68586 72120,72068,72411
 1.7000e+000 72460 -6.6736e+001  1.7000e+001  8.9268e+000 68586 72120,72411,72339
 1.7000e+000 72864 -1.9275e+001  1.8725e+000 -3.3489e+000 68388 72642,72694,72668
 1.7000e+000 72841 -3.5911e+001 -8.4517e+000  9.8348e+000 68388 72616,72694,72642
 1.7000e+000 72818 -4.4380e+001 -6.9189e+000  4.7983e-001 68388 72616,72720,72694
 1.7000e+000 72795 -6.5457e+001 -1.8384e+001  1.0887e+001 68388 72590,72720,72616
 1.7000e+000 72772 -9.1488e+001  2.7803e+000 -2.1800e+001 68388 72590,72746,72720
 1.7000e+000 73321 -6.2061e+001 -2.6100e+001  8.0105e+000 68048 73073,73203,73177
 1.7000e+000 73298 -5.8284e+001 -2.3350e+001  1.0156e+001 68048 73047,73203,73073
 1.7000e+000 73275 -7.6038e+001 -2.7774e+000  9.2292e+000 68048 73125,73177,73151
 1.7000e+000 73252 -6.3429e+001 -1.1706e+000  5.0688e+000 68048 73073,73177,73125
 1.7000e+000 73229 -5.0493e+001 -1.2069e+001  1.1521e+001 68048 73073,73125,73099
 1.7000e+000 73640 -9.8940e+001 -3.1225e+000 -8.3831e-001 67850 73444,73496,73470
 1.7000e+000 73617 -7.6970e+001 -2.6554e+001  1.7332e+000 67850 73418,73496,73444
 1.7000e+000 73594 -6.9850e+001 -9.5113e+000  2.0183e+000 67850 73392,73496,73418
 1.7000e+000 73571 -5.0694e+001 -1.2818e+001  8.3722e+000 67850 73392,73522,73496
 1.7000e+000 73548 -3.6044e+001 -9.2409e-001 -8.8548e+000 67850 73366,73522,73392
 1.7000e+000 73790 -8.8425e+001 -1.7237e+001 -1.9453e+000 67602 73689,73741,73715
 1.7000e+000 73767 -7.2636e+001  1.8414e+001  1.0244e+000 67602 73663,73741,73689
 1.7000e+000 74040 -1.1540e+002 -8.5314e+000 -5.2269e+000 67290 73841,73945,73919
 1.7000e+000 74017 -5.1247e+001 -2.7934e+001 -2.4110e+001 67290 73815,73945,73841
 1.7000e+000 73994 -1.0008e+002 -2.5463e+000  6.3299e+000 67290 73841,73919,73867
 1.7000e+000 73971 -9.0062e+001  1.5452e+001  1.6771e+001 67290 73867,73919,73893
 1.7000e+000 74143 -9.2985e+001 -7.8730e+001  1.5568e+001 67092 74065,74117,74091
 1.7000e+000 74415 -5.1948e+001 -3.8721e+001  8.8224e-001 66894 74190,74294,74216
 1.7000e+000 74392 -4.2636e+001 -3.4974e+001  7.3811e+000 66894 74190,74320,74294
 1.7000e+000 74369 -5.9438e+001 -3.0178e+001 -1.0488e+001 66894 74216,74294,74242
 1.7000e+000 74346 -8.3243e+001 -2.9955e+001  2.3056e-002 66894 74242,74294,74268
 1.7000e+000 75023  4.2433e+001 -4.1382e+001  7.7338e+000 66532 74654,74836,74810
 1.7000e+000 75000 -8.5768e+000  1.9010e+000  2.5954e+001 66532 74628,74836,74654
 1.7000e+000 74977 -4.0504e+001  1.7762e+001  2.6060e+000 66532 74706,74784,74732
 1.7000e+000 74954 -7.1612e+001  2.2338e+001 -2.2204e+001 66532 74680,74784,74706
 1.7000e+000 74931 -9.7446e+001  3.2359e-001 -3.1779e+001 66532 74680,74810,74784
 1.7000e+000 74908 -2.6490e+001 -2.3459e+000  2.9628e+001 66532 74654,74810,74680
 1.7000e+000 74885 -1.8761e+001 -3.5261e+001  6.6250e+000 66532 74602,74836,74628
 1.7000e+000 74862  2.0190e+001  9.2457e+000 -2.7581e+001 66532 74732,74784,74758
 1.7000e+000 75222 -8.0403e+001 -1.1935e+001  1.0491e+001 66242 75072,75150,75124
 1.7000e+000 75199 -5.8213e+001 -1.2495e+001  3.1723e+000 66242 75046,75150,75072
 1.7000e+000 75176 -9.4424e+001 -2.3068e+001  2.6182e+000 66242 75072,75124,75098
 1.7000e+000 75470 -1.0916e+002 -5.0887e+001  7.7077e-002 65838 75297,75375,75349
 1.7000e+000 75447 -1.1455e+002 -2.9131e+001 -2.4009e+000 65838 75271,75375,75297
 1.7000e+000 75424 -1.0679e+002 -1.0137e+001  4.0457e+001 65838 75297,75349,75323
 1.7000e+000 75401 -9.3164e+001 -1.6131e+001  9.8361e+000 65838 75245,75375,75271
 1.7000e+000 75671 -5.8710e+001 -3.8293e+001 -7.2858e+000 65640 75495,75573,75521
 1.7000e+000 75648 -5.7004e+001 -3.5809e+001 -1.0543e+001 65640 75495,75599,75573
 1.7000e+000 75625 -7.6100e+001 -4.6315e+001 -9.6240e+000 65640 75521,75573,75547
 1.7000e+000 75872 -7.9450e+001 -2.7041e+001 -9.4968e-001 65300 75895,75748,75722
 1.7000e+000 75849 -7.2217e+001 -3.2660e+001 -4.6409e+000 65300 75895,75722,75696
 1.7000e+000 75826 -8.5717e+001 -3.0561e+001 -1.2321e+001 65300 75967,75774,75748
 1.7000e+000 75921 -8.0610e+001 -2.7851e+001 -8.5537e-002 65300 75967,75748,75895
 1.7000e+000 75944 -7.9871e+001 -2.6819e+001  6.7722e+000 65300 75800,75895,75696
 1.7000e+000 75993 -1.0461e+002 -2.7311e+001 -1.1260e+001 65300 75800,75774,75967
 1.7000e+000 76016 -1.0242e+002 -3.0533e+001 -1.6844e+000 65300 75800,75967,75895
 1.7000e+000 76371 -6.9917e+001  1.7598e+001 -2.7217e+000 64896 76146,76250,76172
 1.7000e+000 76348 -7.2743e+001  1.7370e+001  2.0433e+000 64896 76146,76276,76250
 1.7000e+000 76325 -5.8514e+001  2.2485e+001 -7.3806e+000 64896 76172,76250,76198
 1.7000e+000 76302 -1.7991e+002 -2.9690e+001 -2.2332e+001 64896 76198,76250,76224
 1.7000e+000 76570 -1.4697e+002 -3.1697e+001  4.0556e+001 64442 76446,76498,76472
 1.7000e+000 76547 -1.0777e+002  7.9114e+000 -2.4650e+000 64442 76420,76498,76446
 1.7000e+000 76524 -9.2933e+001 -9.8236e+000  1.5492e+001 64442 76394,76498,76420
 1.7000e+000 76999 -5.3637e+001  1.5376e+001 -8.4615e+000 63924 77022,76728,76702
 1.7000e+000 76976 -7.1188e+001  5.5521e-001  5.6082e-001 63924 77022,76702,76832
 1.7000e+000 76953 -7.8074e+001  1.4924e+001 -3.1354e+001 63924 76728,76806,76754
 1.7000e+000 76930 -1.1759e+002 -1.4198e+001  4.5791e+000 63924 76676,76832,76702
 1.7000e+000 76907 -1.1781e+002  6.4334e+001 -2.7977e+001 63924 76754,76806,76780
 1.7000e+000 76884 -1.1517e+002  3.4700e+001 -4.4428e-001 63924 76676,76858,76832
 1.7000e+000 77048 -7.9151e+001  3.1676e+001 -8.3045e+000 63924 76806,76728,77022
 1.7000e+000 77071 -9.4320e+001  1.9426e+001  9.9644e-002 63924 76806,77022,76832
 1.7000e+000 77449 -4.9554e+001  2.2341e+001  1.3932e+001 63320 77472,77253,77201
 1.7000e+000 77426 -3.7011e+001  7.0457e+000 -5.5280e+000 63320 77472,77201,77175
 1.7000e+000 77403 -6.9824e+001 -7.0532e+000  5.0847e+000 63320 77175,77305,77279
 1.7000e+000 77380 -6.7821e+001 -1.3832e+001  4.2677e+001 63320 77201,77253,77227
 1.7000e+000 77357 -5.8163e+001  3.4568e+000 -1.4200e+001 63320 77175,77331,77305
 1.7000e+000 77498 -7.5972e+001 -1.2964e+001  2.6266e+001 63320 77279,77253,77472
 1.7000e+000 77521 -4.7252e+001 -3.1404e+000  1.5582e+000 63320 77279,77472,77175
 1.7000e+000 77769 -5.4039e+001 -9.3417e+001 -3.1362e+000 62816 77570,77622,77596
 1.7000e+000 77746 -6.2441e+001 -4.9803e+001  3.1901e+000 62816 77570,77648,77622
 1.7000e+000 77723 -1.0266e+002 -6.0976e+001 -1.5030e+001 62816 77570,77674,77648
 1.7000e+000 77700 -5.7828e+001 -2.9404e+001 -8.3162e-001 62816 77544,77674,77570
 1.7000e+000 78149 -1.5082e+001 -2.5857e+001 -1.5544e+001 62354 77953,78031,78005
 1.7000e+000 78126 -4.4563e+001 -1.1842e+001 -2.3259e+001 62354 77901,78031,77953
 1.7000e+000 78103  2.0675e-001  9.5913e+000  8.0088e-001 62354 77875,78031,77901
 1.7000e+000 78080 -8.6821e+001 -7.5582e+000  1.1808e+001 62354 77901,77953,77927
 1.7000e+000 78057 -5.6301e+001 -4.9371e+001 -6.1195e+000 62354 77953,78005,77979
 1.7000e+000 78606 -1.4901e+001 -6.9661e+000 -2.9691e+000 61950 78384,78436,78410
 1.7000e+000 78583 -1.4594e+001 -5.3918e+000 -8.5732e-001 61950 78358,78436,78384
 1.7000e+000 78560 -4.8723e+000 -2.7872e+000 -1.6895e+000 61950 78358,78488,78436
 1.7000e+000 78537 -6.6731e+000 -3.3944e+000 -2.3557e-001 61950 78436,78488,78462
 1.7000e+000 78514 -3.5141e+001 -2.1725e+000  3.5732e-001 61950 78332,78488,78358
 1.7000e+000 78756 -8.3864e+001 -1.8916e+001  1.6393e+001 61339 78779,78655,78629
 1.7000e+000 78733 -8.3728e+001  2.9786e+000  1.5315e+001 61339 78779,78629,78707
 1.7000e+000 78805 -7.1143e+001 -6.9687e+000  8.9550e+000 61339 78851,78779,78681
 1.7000e+000 78828 -8.6221e+001 -1.2197e+001  9.7423e+000 61339 78681,78779,78707
 1.7000e+000 78877 -8.7809e+001 -4.5431e+001  6.8508e+000 61339 78655,78779,78851
 1.7000e+000 79206 -7.2073e+001 -6.2272e+001 -2.6352e+001 60892 79229,79007,78981
 1.7000e+000 79183 -8.4889e+001 -8.1354e+001 -1.3413e+001 60892 79229,78981,79111
 1.7000e+000 79160 -9.3590e+001 -6.5050e+001 -1.6912e+001 60892 79301,79033,79007
 1.7000e+000 79137 -1.1458e+002 -2.8764e+001  6.1736e+000 60892 79033,79085,79059
 1.7000e+000 79255 -9.0683e+001 -6.8316e+001 -1.4090e+001 60892 79301,79007,79229
 1.7000e+000 79278 -9.9436e+001 -7.2174e+001 -2.7482e+000 60892 79085,79229,79111
 1.7000e+000 79327 -9.3239e+001 -6.1060e+001 -1.2458e+001 60892 79085,79033,79301
 1.7000e+000 79350 -8.3536e+001 -6.1631e+001 -9.7468e+000 60892 79085,79301,79229
 1.7000e+000 79647 -1.6148e+002 -6.1779e+001 -1.4113e+001 60488 79451,79529,79503
 1.7000e+000 79624 -1.6067e+002 -5.6460e+001 -1.0457e+001 60488 79425,79529,79451
 1.7000e+000 79601 -1.1349e+002 -5.3275e+001 -7.9001e+000 60488 79373,79529,79425
 1.7000e+000 79578 -9.9388e+001 -3.2522e+001 -1.1044e+000 60488 79373,79425,79399
 1.7000e+000 79555 -1.5547e+002 -6.1097e+000 -1.5837e+000 60488 79451,79503,79477
 1.7000e+000 79870 -1.3073e+002 -1.0276e+002 -1.9319e+001 60026 79720,79798,79772
 1.7000e+000 79847 -1.5319e+002 -9.0946e+001 -1.2759e+001 60026 79694,79798,79720
 1.7000e+000 79824 -1.3079e+002 -9.8247e+001 -7.0079e+000 60026 79720,79772,79746
 1.7000e+000 80120 -3.6130e+001 -3.2398e+001  1.8428e+001 59629 79921,80025,79973
 1.7000e+000 80097 -3.2146e+001 -4.4523e+001  1.2239e+001 59629 79895,80025,79921
 1.7000e+000 80074 -3.1085e+001 -2.8399e+001  6.2836e+000 59629 79973,80025,79999
 1.7000e+000 80051 -1.8024e+001 -3.7065e+001  1.7586e+001 59629 79921,79973,79947
 1.7000e+000 80321 -5.2603e+001 -1.8675e+001 -1.4568e+001 59125 80344,80171,80145
 1.7000e+000 80298 -7.1721e+001 -4.0343e+001 -5.6030e+000 59125 80344,80145,80249
 1.7000e+000 80275 -9.5626e+001 -4.4737e+001  1.6572e+001 59125 80197,80249,80223
 1.7000e+000 80370 -7.7325e+001 -5.7558e+000  3.5108e+000 59125 80197,80171,80344
 1.7000e+000 80393 -9.4493e+001 -2.4577e+001  1.1737e+001 59125 80197,80344,80249
 1.7000e+000 80952 -2.0097e+001 -6.8688e+000  5.4452e+000 58557 80975,80632,80606
 1.7000e+000 80929 -5.0502e+001 -4.3569e+000  9.6094e+000 58557 81119,80975,80606
 1.7000e+000 80906 -4.3584e+001 -1.8871e+001  1.5350e+000 58557 81047,80684,80632
 1.7000e+000 80883 -5.6214e+001 -7.7738e+000  2.1044e+000 58557 81119,80606,80580
 1.7000e+000 80860 -5.6757e+001  1.5861e+001 -7.3580e+000 58557 81191,80736,80710
 1.7000e+000 80837 -6.9916e+001 -4.1083e-001 -1.0156e+001 58557 80736,80788,80762
 1.7000e+000 80814 -3.5862e+001 -2.1577e+001 -2.3107e+000 58557 80632,80684,80658
 1.7000e+000 81001 -4.4828e+001 -1.8564e+001  1.2108e+000 58557 81047,80632,80975
 1.7000e+000 81024 -4.5522e+001 -2.6180e-001  3.4781e+000 58557 81191,80710,80975
 1.7000e+000 81073 -4.4562e+001 -1.8476e+001  3.5919e-001 58557 80710,80684,81047
 1.7000e+000 81096 -4.6796e+001 -1.8677e+001  2.3845e-001 58557 80710,81047,80975
 1.7000e+000 81145 -5.6181e+001 -1.5444e+001  5.9583e+000 58557 80788,80975,81119
 1.7000e+000 81168 -5.6480e+001 -1.5135e+001 -4.0799e-001 58557 80788,81119,80580
 1.7000e+000 81217 -7.2613e+001  2.4477e+000 -1.5797e+000 58557 80788,80736,81191
 1.7000e+000 81240 -6.1443e+001 -1.0899e+001  8.6147e+000 58557 80788,81191,80975
 1.7000e+000 81537 -1.4396e+002 -9.6025e+001 -4.8335e-003 57881 81560,81341,81289
 1.7000e+000 81514 -1.4363e+002 -9.6100e+001  6.1401e+000 57881 81560,81289,81263
 1.7000e+000 81491 -1.6502e+002 -8.8286e+001 -1.7057e-001 57881 81632,81419,81367
 1.7000e+000 81468 -1.4978e+002 -5.1891e+001  1.2802e+000 57881 81367,81419,81393
 1.7000e+000 81445 -1.5499e+002 -8.8818e+001  1.8488e+000 57881 81289,81341,81315
 1.7000e+000 81586 -1.3758e+002 -5.4253e+001 -1.5071e+001 57881 81367,81341,81560
 1.7000e+000 81609 -1.6214e+002 -8.6272e+001 -1.8464e+000 57881 81632,81367,81560
 1.7000e+000 81658 -1.5676e+002 -1.1180e+002  3.5881e+000 57881 81263,81419,81632
 1.7000e+000 81681 -1.4506e+002 -9.8448e+001 -2.1151e+000 57881 81263,81632,81560
 1.7000e+000 81929 -8.9653e+001 -8.3508e+001  2.7815e+001 57477 81704,81808,81782
 1.7000e+000 81906 -8.0548e+001 -4.0547e+001  9.5906e+000 57477 81704,81834,81808
 1.7000e+000 81883 -6.4320e+001 -1.5417e+001  2.6584e+001 57477 81704,81782,81730
 1.7000e+000 81860 -8.5184e+001 -5.2713e+001  4.0896e+001 57477 81730,81782,81756
 1.7000e+000 82488 -3.9981e+001 -9.7702e+000  1.9468e+000 56966 82583,82511,82194
 1.7000e+000 82465 -3.4922e+001  2.4433e+000 -5.4227e-001 56966 82511,82116,82324
 1.7000e+000 82442 -3.6688e+001 -1.9239e+001  4.2461e+000 56966 82583,82194,82168
 1.7000e+000 82419 -6.3755e+001 -1.9480e+001  1.1162e+001 56966 82194,82246,82220
 1.7000e+000 82396 -3.8786e+001 -9.8827e+000  9.2194e+000 56966 82194,82298,82246
 1.7000e+000 82373 -5.2197e+001 -4.9961e+000  2.3753e+001 56966 82246,82298,82272
 1.7000e+000 82350 -1.0988e+001  2.4684e+000 -1.2869e+001 56966 82116,82168,82142
 1.7000e+000 82537 -4.0840e+001 -3.5000e+000  5.7226e+000 56966 82298,82194,82511
 1.7000e+000 82560 -3.2720e+001 -2.1447e+000  5.6964e+000 56966 82298,82511,82324
 1.7000e+000 82609 -3.7092e+001  5.1306e-001  3.2342e+000 56966 82116,82511,82583
 1.7000e+000 82632 -3.3058e+001 -7.8018e+000  4.9041e+000 56966 82116,82583,82168
 1.7000e+000 83236 -1.1898e+002 -5.2267e+001 -3.6770e+001 56304 82893,82945,82919
 1.7000e+000 83213 -9.3134e+001 -4.7076e+001 -2.8626e+001 56304 83259,82945,82893
 1.7000e+000 83190 -7.2297e+001 -1.3771e+001 -1.2746e+001 56304 83259,82893,83049
 1.7000e+000 83167 -3.5024e+001  1.2529e+001  4.4485e+000 56304 82971,83049,83023
 1.7000e+000 83144 -6.2741e+001  3.3222e+000 -7.9945e+000 56304 82815,83049,82893
 1.7000e+000 83121 -5.4837e+001 -1.0050e+001 -1.5947e+001 56304 82815,82893,82867
 1.7000e+000 83098 -2.5623e+001 -5.9713e+000 -2.5216e+000 56304 82971,83023,82997
 1.7000e+000 83075 -2.4506e+001 -4.9433e+000  1.0394e+001 56304 82815,82867,82841
 1.7000e+000 83285 -1.0050e+002 -1.8489e-001 -1.4286e+001 56304 82971,82945,83259
 1.7000e+000 83308 -8.9934e+001  1.1540e+001  2.6643e+000 56304 82971,83259,83049
 1.7000e+000 83556 -1.0455e+002 -6.1857e+001 -3.3565e+000 55964 83357,83461,83435
 1.7000e+000 83533 -8.0650e+001 -2.8978e+001  1.2449e+001 55964 83331,83461,83357
 1.7000e+000 83510 -4.6311e+001 -5.2456e+001  5.5040e+000 55964 83357,83435,83383
 1.7000e+000 83487 -9.4237e+001 -7.3114e+001 -3.1700e+000 55964 83383,83435,83409
 1.7000e+000 83706 -1.2163e+002 -6.7515e+001 -7.8137e+000 55503 83579,83631,83605
 1.7000e+000 83683 -1.6805e+002 -6.2322e+001 -1.9437e+000 55503 83579,83657,83631
 1.7000e+000 83907 -9.4008e+001 -5.2266e+001 -1.4435e+001 55156 83757,83835,83809
 1.7000e+000 83884 -8.0315e+001 -1.3136e+001 -4.0409e+000 55156 83731,83835,83757
 1.7000e+000 83861 -1.2449e+002 -2.8267e+001 -1.3275e+001 55156 83757,83809,83783
 1.7000e+000 84240 -6.7299e+001 -2.0946e+001  5.3480e+000 54652 84093,84145,84119
 1.7000e+000 84217 -1.1211e+002 -9.3194e+000  2.6617e+001 54652 84041,84145,84093
 1.7000e+000 84194 -1.2004e+002 -1.4318e+001  1.9507e+001 54652 84015,84145,84041
 1.7000e+000 84171 -2.0548e+002 -4.6842e+001  3.3283e+001 54652 84041,84093,84067
 1.7000e+000 84618 -6.0824e+001 -7.3558e+001  2.1113e+001 53926 84396,84500,84474
 1.7000e+000 84595 -4.7323e+001 -8.5693e+001  2.8662e+001 53926 84344,84500,84396
 1.7000e+000 84572 -4.9417e+001 -9.1675e+001  2.7414e+001 53926 84344,84396,84370
 1.7000e+000 84549 -4.5843e+001 -5.8120e+001 -3.7854e+000 53926 84396,84474,84422
 1.7000e+000 84526 -9.4022e+001 -5.0667e+001 -1.4793e+001 53926 84422,84474,84448
 1.7000e+000 85350 -1.5713e+002 -6.0316e+001 -2.9382e+001 53586 85373,84880,85088
 1.7000e+000 85327 -7.2959e+001 -5.6413e+001 -3.0208e+001 53586 84880,85114,85088
 1.7000e+000 85304 -7.7832e+001 -2.2315e+001 -1.5170e+001 53586 85373,85088,85062
 1.7000e+000 85281 -1.9081e+002 -8.9128e+001  5.2072e+001 53586 85010,85062,85036
 1.7000e+000 85258 -1.7340e+002 -3.1130e+001  5.3230e+000 53586 85445,85010,84958
 1.7000e+000 85235 -7.2842e+001  5.2333e+000 -6.9712e+000 53586 85445,84958,84906
 1.7000e+000 85212 -1.2555e+002 -4.0313e+001 -1.0778e+001 53586 84958,85010,84984
 1.7000e+000 85189 -1.1535e+002 -2.6311e+001 -2.8729e+001 53586 84906,84958,84932
 1.7000e+000 85166 -9.1671e+001 -8.0528e+001 -1.7802e+001 53586 84880,85140,85114
 1.7000e+000 85399 -1.8028e+002 -3.9439e+001  5.1759e+001 53586 84906,84880,85373
 1.7000e+000 85422 -1.1677e+002 -4.9741e+000  4.6860e+001 53586 85517,85373,85062
 1.7000e+000 85471 -1.7199e+002 -3.0720e+001  6.1200e+001 53586 85062,85010,85445
 1.7000e+000 85494 -1.1367e+002  1.9382e+000  4.5147e+001 53586 85517,85062,85445
 1.7000e+000 85543 -1.0989e+002 -1.6619e+001  4.7398e+001 53586 84906,85373,85517
 1.7000e+000 85566 -1.0900e+002 -1.1940e+001  4.6861e+001 53586 84906,85517,85445
 1.7000e+000 86072 -5.5225e+001 -2.2344e+001 -1.1771e+001 53182 86095,85853,85775
 1.7000e+000 86049 -5.8056e+001 -1.7070e+001 -1.0635e+001 53182 86095,85775,85931
 1.7000e+000 86026 -6.2103e+001 -2.6047e+001 -7.8745e+000 53182 86167,85879,85853
 1.7000e+000 86003 -9.5483e+001 -2.0816e+001  7.6547e+000 53182 85775,85827,85801
 1.7000e+000 85980 -5.5308e+001 -2.7013e+001 -7.7354e+000 53182 85775,85853,85827
 1.7000e+000 85957 -4.4914e+001 -1.4100e+001 -2.8672e+000 53182 85749,85931,85775
 1.7000e+000 86121 -5.7156e+001 -2.2227e+001 -1.1699e+001 53182 86167,85853,86095
 1.7000e+000 86144 -5.8266e+001 -2.2686e+001 -1.1634e+001 53182 85905,86095,85931
 1.7000e+000 86193 -6.1896e+001 -2.8376e+001 -4.8675e+000 53182 85905,85879,86167
 1.7000e+000 86216 -5.9395e+001 -2.9556e+001 -8.3651e+000 53182 85905,86167,86095
 1.7000e+000 86673 -6.7595e+001  3.2741e+000  1.8473e+001 52778 86477,86529,86503
 1.7000e+000 86650 -6.2889e+001 -1.4423e+001  5.3770e+000 52778 86425,86529,86477
 1.7000e+000 86627 -6.3176e+001 -3.0217e+001  1.8878e+001 52778 86425,86477,86451
 1.7000e+000 86604 -4.2237e+001  5.6077e+000  1.3559e+001 52778 86399,86529,86425
 1.7000e+000 86581 -1.7106e+001  1.8202e+001  8.4182e+000 52778 86399,86555,86529
 1.7000e+000 87258 -5.2190e+001 -1.2785e+000  9.8839e+000 52238 87281,86987,86961
 1.7000e+000 87235 -5.2144e+001 -7.6956e+000  3.1605e+000 52238 87281,86961,87117
 1.7000e+000 87212 -5.0403e+001  3.6075e+000  3.5215e+000 52238 86935,87117,86961
 1.7000e+000 87189 -6.6411e+001  7.6434e+000  3.5516e+000 52238 87065,87117,87091
 1.7000e+000 87166 -5.8171e+001 -2.1228e+001  8.4541e+000 52238 86987,87065,87039
 1.7000e+000 87143 -7.2110e+001 -4.9432e+001  2.9488e+001 52238 86987,87039,87013
 1.7000e+000 87307 -5.7589e+001 -1.3707e+001  1.0577e+001 52238 87065,86987,87281
 1.7000e+000 87330 -5.3989e+001 -1.1904e+001  3.4500e+000 52238 87065,87281,87117
 1.7000e+000 87610 -8.8350e+001  4.8994e-001  5.5883e+000 51834 87434,87512,87460
 1.7000e+000 87587 -6.7533e+001  2.5683e+001  4.2541e+001 51834 87434,87538,87512
 1.7000e+000 87564 -1.4231e+002 -4.0713e+001 -1.7203e+001 51834 87633,87460,87512
 1.7000e+000 87659 -1.8594e+002 -5.9425e+001 -1.9170e+001 51834 87486,87460,87633
 1.7000e+000 88187 -1.3860e+002 -4.2918e+001  1.6312e+000 51266 87864,87942,87890
 1.7000e+000 88164 -1.3795e+002 -7.0589e+000 -5.7371e-001 51266 87864,88020,87942
 1.7000e+000 88141 -2.2744e+002 -6.0893e+001 -3.4156e+001 51266 87942,88020,87968
 1.7000e+000 88118 -1.9026e+002 -6.5959e+001  2.8931e+001 51266 87864,88046,88020
 1.7000e+000 88095 -1.4547e+002 -1.2876e+001 -1.8362e+000 51266 87968,88020,87994
 1.7000e+000 88072 -1.1184e+002 -4.6701e+001 -2.0190e+001 51266 87890,87942,87916
 1.7000e+000 88644 -1.1626e+002 -5.0704e+001 -1.4449e+001 50754 88370,88500,88396
 1.7000e+000 88621 -1.2020e+002 -1.8651e+001 -2.1446e+001 50754 88370,88526,88500
 1.7000e+000 88598 -8.6333e+001 -1.7700e+001  1.4374e+001 50754 88396,88500,88422
 1.7000e+000 88575 -8.7341e+001 -1.9912e+001  1.4133e+001 50754 88422,88500,88474
 1.7000e+000 88552 -1.6347e+002 -6.7234e+001 -1.8603e+001 50754 88422,88474,88448
 1.7000e+000 88914 -1.4014e+002 -7.7113e+001 -8.4492e-001 50442 88715,88793,88741
 1.7000e+000 88891 -1.2980e+002 -9.1829e+001 -3.9784e-001 50442 88715,88819,88793
 1.7000e+000 88868 -1.4852e+002 -1.1213e+002 -9.2001e+000 50442 88689,88819,88715
 1.7000e+000 88845 -1.4521e+002 -1.0454e+002 -5.4363e+001 50442 88741,88793,88767
 1.7000e+000 89294 -1.7116e+002 -8.2862e+001 -9.8238e+000 49938 89317,89046,89020
 1.7000e+000 89271 -1.6289e+002 -9.1545e+001 -1.4585e+001 49938 89317,89020,89150
 1.7000e+000 89248 -1.3484e+002 -7.6923e+001  3.5589e-002 49938 89072,89150,89098
 1.7000e+000 89225 -1.7921e+002 -1.0316e+002 -7.7565e+000 49938 89020,89176,89150
 1.7000e+000 89202 -9.7680e+001 -5.3565e+001 -2.4839e+001 49938 89098,89150,89124
 1.7000e+000 89343 -1.3391e+002 -1.7163e+001  5.8876e+000 49938 89072,89046,89317
 1.7000e+000 89366 -1.6688e+002 -8.4993e+001 -9.8672e+000 49938 89072,89317,89150
 1.7000e+000 89823 -1.0590e+002 -5.9427e+001 -4.3171e+000 49384 89601,89705,89679
 1.7000e+000 89800 -7.9569e+001 -2.9214e+001  1.5436e+001 49384 89549,89705,89601
 1.7000e+000 89777 -4.8051e+001 -1.7586e+001  4.7972e+000 49384 89549,89601,89575
 1.7000e+000 89754 -7.6889e+001 -4.3591e+001  2.9121e+000 49384 89601,89679,89627
 1.7000e+000 89731 -5.6059e+001 -7.2395e+000 -1.0776e+001 49384 89627,89679,89653
 1.7000e+000 90329 -5.8887e+001 -3.0721e+001  1.3277e+000 48894 90058,90110,90084
 1.7000e+000 90306 -8.2137e+001 -3.8566e+001  3.6084e+001 48894 90058,90162,90110
 1.7000e+000 90283 -1.1470e+002 -3.0812e+001  2.6209e+001 48894 90032,90162,90058
 1.7000e+000 90260 -6.7416e+001 -2.2903e+000 -3.1471e+000 48894 90006,90162,90032
 1.7000e+000 90237 -3.2803e+001 -1.2992e+001  1.0267e+001 48894 90110,90162,90136
 1.7000e+000 90214 -8.5781e+001 -2.5812e+000 -1.3096e+001 48894 90006,90188,90162
 1.7000e+000 90884 -1.3999e+002 -7.4778e+001  2.8457e+001 48490 90564,90642,90616
 1.7000e+000 90861 -1.3304e+002 -1.1283e+001 -6.6490e+000 48490 90564,90694,90642
 1.7000e+000 90838 -1.8568e+002 -3.0956e+001 -6.8392e+000 48490 90538,90694,90564
 1.7000e+000 90815 -2.1585e+002 -5.5847e+001  4.4748e+000 48490 90538,90720,90694
 1.7000e+000 90792 -1.2354e+002 -3.4242e+001  2.8505e+001 48490 90564,90616,90590
 1.7000e+000 90769 -1.4510e+002 -6.4575e+001 -3.6003e+001 48490 90642,90694,90668
 1.7000e+000 90746 -1.7369e+002 -4.3090e+001 -1.3076e+000 48490 90512,90720,90538
 1.7000e+000 91034 -1.0622e+002 -8.0149e-001 -2.8035e+001 48086 91057,90959,90933
 1.7000e+000 91011 -1.0385e+002 -8.9142e+000 -2.0392e+001 48086 91129,91057,90933
 1.7000e+000 91083 -1.2537e+002 -2.6762e+000 -3.0102e+001 48086 90985,90959,91057
 1.7000e+000 91106 -1.0232e+002 -1.4876e+001 -1.8831e+001 48086 90985,91057,90907
 1.7000e+000 91155 -6.9642e+001 -1.7739e+000 -2.5513e+001 48086 90907,91057,91129
 1.7000e+000 91791 -1.0763e+002 -1.3841e+001 -9.2530e+000 47518 92030,91814,91523
 1.7000e+000 91768 -7.8056e+001  2.1962e+000 -8.9978e+000 47518 91958,91814,91471
 1.7000e+000 91745 -7.4262e+001  6.2897e+001  4.0505e-001 47518 91886,91575,91523
 1.7000e+000 91722 -8.6210e+001 -1.9445e+001 -6.9587e+000 47518 91958,91471,91419
 1.7000e+000 91699 -1.3747e+002  1.0939e+001 -2.3841e+001 47518 92030,91523,91497
 1.7000e+000 91676 -1.3652e+002  6.1447e+001 -1.3945e+001 47518 91523,91575,91549
 1.7000e+000 91653 -5.4664e+001 -4.2278e+001 -1.7270e+001 47518 91419,91471,91445
 1.7000e+000 91840 -8.9139e+001  3.2427e+001 -1.6961e+001 47518 91886,91523,91814
 1.7000e+000 91863 -9.7402e+001 -2.4836e+001  1.6047e+001 47518 91601,91814,91627
 1.7000e+000 91912 -5.3754e+001  7.7376e+001  4.3651e+001 47518 91601,91575,91886
 1.7000e+000 91935 -7.2214e+001  1.1010e+001  2.8257e+001 47518 91601,91886,91814
 1.7000e+000 91984 -7.8612e+001 -1.6219e+001  7.2826e-001 47518 91627,91814,91958
 1.7000e+000 92007 -8.0427e+001 -2.7193e+001  2.9664e+000 47518 91627,91958,91419
 1.7000e+000 92056 -1.2130e+002 -4.0059e+001 -3.1867e+001 47518 91471,91814,92030
 1.7000e+000 92079 -1.4676e+002 -2.5243e+001 -4.8863e+001 47518 91471,92030,91497
 1.7000e+000 92229 -5.6651e+001 -1.8593e+001 -2.3721e+001 47128 92252,92128,92102
 1.7000e+000 92206 -8.5356e+001 -4.4817e+001 -5.2069e+000 47128 92324,92252,92102
 1.7000e+000 92278 -7.7034e+001 -5.9190e+001 -1.1525e+001 47128 92454,92252,92154
 1.7000e+000 92301 -8.1477e+001 -3.0936e+001 -1.3711e-001 47128 92154,92252,92180
 1.7000e+000 92350 -6.1904e+001 -2.2068e+001  4.0768e+000 47128 92180,92252,92324
 1.7000e+000 92480 -8.0368e+001 -2.2787e+001 -6.2821e+000 47128 92128,92252,92454
 1.7000e+000 93340 -1.4708e+002 -1.4574e+001  1.7767e+001 46838 93363,92977,92873
 1.7000e+000 93317 -1.8624e+002 -2.9126e+001  7.8017e+000 46838 93507,93363,92873
 1.7000e+000 93294 -1.6488e+002 -6.9259e+001 -9.0895e+000 46838 93435,93003,92977
 1.7000e+000 93271 -1.9715e+002 -4.5412e+001 -3.4717e-002 46838 93507,92873,92847
 1.7000e+000 93248 -1.5618e+002 -4.3486e+001 -5.8148e+000 46838 93579,93029,93003
 1.7000e+000 93225 -1.1121e+002 -4.0376e+001  4.0974e-001 46838 92873,92951,92925
 1.7000e+000 93202 -1.1136e+002 -4.4089e+001  1.0480e+000 46838 92873,92977,92951
 1.7000e+000 93179 -2.0775e+002 -5.8604e+001  2.2697e+001 46838 93055,93107,93081
 1.7000e+000 93156 -2.7548e+002 -1.0462e+002 -3.9389e+000 46838 92821,93107,92847
 1.7000e+000 93133 -1.0563e+002 -5.1817e+001  9.0820e+000 46838 92873,92925,92899
 1.7000e+000 93389 -1.7343e+002 -4.7535e+001  1.5277e+000 46838 93435,92977,93363
 1.7000e+000 93412 -1.6204e+002 -2.0662e+001  5.2291e+000 46838 93055,93363,93107
 1.7000e+000 93461 -1.5748e+002 -4.4272e+001 -6.9709e+000 46838 93579,93003,93435
 1.7000e+000 93484 -1.6518e+002 -2.3157e+001 -3.1063e+000 46838 93055,93435,93363
 1.7000e+000 93533 -1.7409e+002 -5.4577e+001  7.1948e+000 46838 93107,93363,93507
 1.7000e+000 93556 -1.7436e+002 -6.2903e+001  5.3902e+000 46838 93107,93507,92847
 1.7000e+000 93605 -1.5273e+002 -4.2840e+001 -3.8318e+000 46838 93055,93029,93579
 1.7000e+000 93628 -1.5406e+002 -4.3438e+001 -4.9244e+000 46838 93055,93579,93435
 1.7000e+000 93979 -1.2349e+002  2.6333e+001  1.3981e+001 46476 93780,93884,93858
 1.7000e+000 93956 -1.3421e+002 -1.0736e+001  1.2185e+001 46476 93754,93884,93780
 1.7000e+000 93933 -2.7965e+002 -1.0449e+001 -2.8457e+000 46476 93806,93858,93832
 1.7000e+000 93910 -2.7350e+002 -3.5295e+001  1.6035e+001 46476 93780,93858,93806
 1.7000e+000 94515 -8.8632e+001 -2.0533e+001 -1.0746e+000 46072 94345,94397,94371
 1.7000e+000 94492 -5.5275e+001 -7.7777e+000  7.0922e+000 46072 94267,94397,94345
 1.7000e+000 94469 -3.4580e+001 -3.8732e+000 -4.9347e+000 46072 94241,94397,94267
 1.7000e+000 94446 -2.8345e+001 -6.4939e+000 -1.0946e+001 46072 94293,94345,94319
 1.7000e+000 94423 -5.3194e+001  1.9796e+000  8.0699e+000 46072 94267,94345,94293
 1.7000e+000 95149 -8.7694e+001 -1.9811e+001 -1.0488e+001 45346 94803,94881,94855
 1.7000e+000 95126 -7.0902e+001 -1.2612e+001 -1.3202e+001 45346 94803,94959,94881
 1.7000e+000 95103 -4.8696e+001 -3.0289e+000 -5.1964e+000 45346 95172,94933,94907
 1.7000e+000 95080 -6.0854e+001 -1.3469e+001  1.1208e-001 45346 95172,94907,94881
 1.7000e+000 95057 -8.7405e+001 -2.7925e+001 -2.0104e+001 45346 94803,94985,94959
 1.7000e+000 95034 -1.0006e+002 -1.1568e+001 -9.6977e-001 45346 94803,94855,94829
 1.7000e+000 95011 -8.4371e+001 -3.4376e+001 -6.1316e+001 45346 94777,94985,94803
 1.7000e+000 95198 -6.0814e+001  3.0428e+000 -4.8939e+000 45346 94959,94933,95172
 1.7000e+000 95221 -6.7415e+001 -6.3699e-001 -2.4208e+000 45346 94959,95172,94881
 1.7000e+000 95776 -4.5100e+001 -5.1248e+000  3.1019e+001 44720 95799,95560,95534
 1.7000e+000 95753 -6.1303e+001 -1.6194e+001  3.6593e+001 44720 95799,95534,95482
 1.7000e+000 95730 -7.6053e+001 -6.6301e+000  3.0968e+001 44720 95943,95871,95430
 1.7000e+000 95707 -8.0936e+001  5.0471e+000  3.2659e+001 44720 95943,95430,95404
 1.7000e+000 95684 -1.4028e+002 -2.9694e+001  3.5483e+001 44720 95430,95482,95456
 1.7000e+000 95661 -9.8718e+000  1.9366e+000  3.0743e+001 44720 95482,95534,95508
 1.7000e+000 95638 -6.4947e+001  1.4985e+001  3.3945e+001 44720 95404,95612,95586
 1.7000e+000 95825 -5.9837e+001  3.3063e+000  3.3581e+001 44720 95586,95560,95799
 1.7000e+000 95848 -5.9818e+001  2.2177e-001  3.1808e+001 44720 95871,95586,95799
 1.7000e+000 95897 -7.3596e+001 -9.4722e+000  2.4804e+001 44720 95482,95430,95871
 1.7000e+000 95920 -7.3505e+001 -4.5062e+000  2.9887e+001 44720 95482,95871,95799
 1.7000e+000 95969 -6.6576e+001  7.6601e+000  2.6854e+001 44720 95586,95871,95943
 1.7000e+000 95992 -7.5984e+001  1.3665e+001  3.0655e+001 44720 95586,95943,95404
 1.7000e+000 96449 -5.2894e+001 -7.6838e+000  6.9762e+000 44202 96544,96472,96227
 1.7000e+000 96426 -6.5440e+001 -3.8751e+001  1.9907e+001 44202 96472,96175,96331
 1.7000e+000 96403 -7.7854e+001  7.6154e+000  3.7822e+000 44202 96544,96227,96201
 1.7000e+000 96380 -1.2825e+001 -2.9663e+000 -9.7365e+000 44202 96253,96305,96279
 1.7000e+000 96357 -3.9956e+001  9.7155e-001  6.3926e+000 44202 96227,96305,96253
 1.7000e+000 96498 -5.1525e+001 -1.7590e+001  1.4619e+000 44202 96305,96227,96472
 1.7000e+000 96521 -5.3235e+001 -9.2665e+000  1.8749e+001 44202 96305,96472,96331
 1.7000e+000 96570 -7.5370e+001 -3.2971e+001 -2.4907e+000 44202 96175,96472,96544
 1.7000e+000 96593 -9.1539e+001 -6.7747e+000 -1.9855e+000 44202 96175,96544,96201
 1.7000e+000 96971 -1.6709e+002 -1.2233e+002  2.1925e+001 43754 96994,96749,96697
 1.7000e+000 96948 -1.6747e+002 -1.2597e+002  2.4158e+001 43754 96994,96697,96853
 1.7000e+000 96925 -1.4739e+002 -1.0647e+002  1.2269e+001 43754 96697,96749,96723
 1.7000e+000 96902 -1.2791e+002 -6.4788e+001 -2.4195e+000 43754 96775,96853,96827
 1.7000e+000 96879 -4.2880e+001 -6.7454e+001  7.2547e+000 43754 96775,96827,96801
 1.7000e+000 97020 -1.6581e+002 -1.1610e+002  1.9314e+001 43754 96775,96749,96994
 1.7000e+000 97043 -1.6860e+002 -1.2230e+002  2.1961e+001 43754 96775,96994,96853
 1.7000e+000 97291 -1.0374e+002 -1.4857e+001 -9.9323e+000 43364 97314,97144,97118
 1.7000e+000 97268 -1.1472e+002 -3.0344e+001 -1.6727e+001 43364 97314,97118,97092
 1.7000e+000 97245 -9.4323e+001 -3.4540e+001 -8.6434e+000 43364 97386,97196,97170
 1.7000e+000 97222 -1.1541e+002 -5.8358e+001 -2.0282e+001 43364 97066,97196,97092
 1.7000e+000 97340 -1.0601e+002 -3.3026e+001 -8.1216e+000 43364 97170,97144,97314
 1.7000e+000 97363 -9.7093e+001 -3.0657e+001 -1.1963e+001 43364 97386,97170,97314
 1.7000e+000 97412 -9.6576e+001 -3.9115e+001 -1.2001e+001 43364 97092,97196,97386
 1.7000e+000 97435 -1.0203e+002 -3.9111e+001 -1.5884e+001 43364 97092,97386,97314
 1.7000e+000 97788 -7.9790e+001  3.9155e+000 -4.1399e+000 42960 97563,97667,97589
 1.7000e+000 97765 -1.4016e+002 -4.6237e+001  1.7405e+001 42960 97563,97693,97667
 1.7000e+000 97742 -1.8584e+002  3.8522e+000 -4.2889e+000 42960 97589,97641,97615
 1.7000e+000 97719 -1.8045e+002 -2.5239e+001 -9.0391e+000 42960 97589,97667,97641
 1.7000e+000 98215 -7.8062e+001 -5.6042e+001 -3.4875e+001 42563 97918,98074,98048
 1.7000e+000 98192 -3.6310e+001 -3.2328e+001 -2.4477e+001 42563 97892,98074,97918
 1.7000e+000 98169 -8.5155e+001 -1.9376e+001 -4.7159e+001 42563 98238,97944,97918
 1.7000e+000 98146 -9.6685e+001 -4.5811e+001 -3.5945e+001 42563 98238,97918,98048
 1.7000e+000 98123 -1.2362e+002 -2.6265e+001 -2.0008e+001 42563 97944,98022,97996
 1.7000e+000 98100 -1.1382e+002  3.7942e+000 -9.4121e+000 42563 97944,97996,97970
 1.7000e+000 98264 -9.7889e+001 -3.8623e+001 -3.3904e+001 42563 98022,97944,98238
 1.7000e+000 98287 -1.0024e+002 -4.8471e+001 -2.3494e+001 42563 98022,98238,98048
 1.7000e+000 98616 -7.2481e+001 -4.2112e+001 -6.4239e+000 42251 98443,98521,98469
 1.7000e+000 98593 -8.7961e+001 -3.7760e+001  3.9595e+000 42251 98417,98521,98443
 1.7000e+000 98570 -8.5687e+001 -3.6146e+001 -2.1691e+001 42251 98391,98521,98417
 1.7000e+000 98547 -6.7845e+001 -3.0036e+001 -2.3397e+001 42251 98469,98521,98495
 1.7000e+000 98886 -2.7905e+002 -1.2023e+002 -5.7800e+000 41847 98661,98765,98687
 1.7000e+000 98863 -2.8810e+002 -1.4247e+002  7.2967e+000 41847 98661,98791,98765
 1.7000e+000 98840 -3.1167e+002 -1.4082e+002 -1.9782e+001 41847 98687,98765,98739
 1.7000e+000 98817 -2.3761e+002 -1.1016e+002 -2.3235e+001 41847 98687,98739,98713
 1.7000e+000 99394 -7.8316e+001  4.4975e+000  1.3366e+001 41236 99417,99149,99123
 1.7000e+000 99371 -1.1421e+002 -1.6068e+001  4.9993e+000 41236 99417,99123,99097
 1.7000e+000 99348 -9.5466e+001 -2.3865e+001 -4.5252e+000 41236 99489,99201,99149
 1.7000e+000 99325 -1.1218e+002 -3.9045e+001 -1.8894e+001 41236 99149,99201,99175
 1.7000e+000 99302 -1.4379e+002 -1.8162e+001 -8.9885e+000 41236 99097,99253,99227
 1.7000e+000 99279 -2.1155e+002 -6.0877e+001 -2.7195e+001 41236 99071,99253,99097
 1.7000e+000 99443 -9.6140e+001 -1.9839e+001 -3.9054e+000 41236 99489,99149,99417
 1.7000e+000 99466 -1.0113e+002 -1.3186e+001 -7.2667e+000 41236 99227,99417,99097
 1.7000e+000 99515 -9.8567e+001 -1.9333e+001 -7.7645e+000 41236 99227,99201,99489
 1.7000e+000 99538 -9.7249e+001 -1.2941e+001 -7.5764e+000 41236 99227,99489,99417
 1.7000e+000 100044 -1.5538e+001  3.2097e+001  4.2635e+001 40732 99721,99773,99747
 1.7000e+000 100021 -6.7227e+001  2.9412e+001  1.6421e+001 40732 99721,99799,99773
 1.7000e+000 99998 -5.6881e+001 -1.9623e-001  1.0342e+001 40732 99721,99903,99799
 1.7000e+000 99975 -3.8120e+001 -6.7142e+000 -7.2419e+000 40732 100067,99877,99851
 1.7000e+000 99952 -5.0537e+001 -1.2097e+001 -5.2626e-001 40732 100067,99851,99799
 1.7000e+000 99929 -6.9987e+001 -1.2960e+001 -9.3091e+000 40732 99799,99851,99825
 1.7000e+000 100093 -5.0342e+001  3.1199e+000 -3.0776e+000 40732 99903,99877,100067
 1.7000e+000 100116 -6.7196e+001 -7.5720e+000  5.0716e+000 40732 99903,100067,99799
 1.7000e+000 100622 -1.4931e+002 -2.7294e+001  1.7006e+001 40278 100645,100455,100429
 1.7000e+000 100599 -1.6910e+002 -3.9724e+001  2.2566e+001 40278 100717,100645,100429
 1.7000e+000 100576 -1.9805e+002 -5.2508e+001  2.3764e+000 40278 100717,100429,100377
 1.7000e+000 100553 -1.3843e+002 -6.2845e+001  1.3882e+001 40278 100789,100325,100481
 1.7000e+000 100530 -1.4524e+002 -2.8214e+001  2.5291e+001 40278 100299,100481,100325
 1.7000e+000 100507 -1.4361e+002 -3.8888e+001  7.2997e+000 40278 100377,100429,100403
 1.7000e+000 100671 -1.5457e+002 -2.3276e+000  2.4323e+001 40278 100481,100455,100645
 1.7000e+000 100694 -1.5114e+002 -4.8145e+001  1.3498e-001 40278 100789,100481,100645
 1.7000e+000 100743 -1.8406e+002 -4.9193e+001 -2.7664e+001 40278 100351,100645,100717
 1.7000e+000 100766 -2.4875e+002 -7.3819e+001 -4.6709e+001 40278 100351,100717,100377
 1.7000e+000 100815 -1.2613e+002 -5.7260e+001 -2.3551e+000 40278 100351,100325,100789
 1.7000e+000 100838 -1.2748e+002 -2.7986e+001 -1.7142e+001 40278 100351,100789,100645
 1.7000e+000 101265 -1.1426e+002 -3.6146e+001 -1.6215e+000 39824 101288,101046,100994
 1.7000e+000 101242 -1.3079e+002 -4.9571e+001 -9.8058e+000 39824 101288,100994,100968
 1.7000e+000 101219 -1.5356e+002 -3.2490e+001  5.6020e+000 39824 100942,101124,100968
 1.7000e+000 101196 -9.0072e+001 -1.0843e+001 -3.6660e-001 39824 101046,101124,101072
 1.7000e+000 101173 -1.0616e+002 -4.9324e+001 -2.9740e+001 39824 100994,101046,101020
 1.7000e+000 101150 -5.5906e+001 -9.0710e+000 -2.2544e-001 39824 101072,101124,101098
 1.7000e+000 101314 -1.0548e+002 -4.2918e+001  4.3449e+000 39824 101124,101046,101288
 1.7000e+000 101337 -1.1359e+002 -4.5166e+001 -1.1366e+000 39824 101124,101288,100968
 1.7000e+000 101585 -1.2192e+002 -9.9229e+001  5.2923e+001 39070 101608,101464,101412
 1.7000e+000 101562 -1.1529e+002 -7.6350e+001  5.3382e+001 39070 101608,101412,101360
 1.7000e+000 101539 -1.1972e+002 -1.0090e+002  5.1009e+001 39070 101412,101464,101438
 1.7000e+000 101516 -1.1644e+002 -9.1464e+001  5.2599e+001 39070 101360,101412,101386
 1.7000e+000 101634 -1.3167e+002 -9.1781e+001  3.6353e+001 39070 101490,101464,101608
 1.7000e+000 101657 -1.2026e+002 -6.0664e+001  3.7039e+001 39070 101490,101608,101360
 1.7000e+000 101856 -2.5115e+002 -6.7417e+001 -1.4849e+001 38730 101706,101758,101732
 1.7000e+000 101833 -2.5416e+002 -1.1727e+002  3.2655e+000 38730 101706,101784,101758
 1.7000e+000 101810 -2.7537e+002 -1.4263e+002 -1.6114e+001 38730 101680,101784,101706
 1.7000e+000 102106 -1.1570e+002 -3.5391e+001  5.0522e+000 38326 101881,101959,101907
 1.7000e+000 102083 -1.2567e+002 -3.7060e+001  1.8768e+001 38326 101881,101985,101959
 1.7000e+000 102060 -7.6670e+001 -2.9576e+001  1.8792e+001 38326 101881,102011,101985
 1.7000e+000 102037 -1.5641e+002 -2.7088e+001 -4.9879e+000 38326 101907,101959,101933
 1.7000e+000 102258 -1.0330e+002 -6.8866e+001  8.4720e+000 38036 102281,102157,102131
 1.7000e+000 102235 -1.0428e+002 -3.8125e+001 -7.2734e+000 38036 102281,102131,102209
 1.7000e+000 102307 -9.1161e+001 -9.6161e+001  5.7985e+000 38036 102183,102157,102281
 1.7000e+000 102330 -9.8690e+001 -7.6737e+001 -1.4536e+001 38036 102183,102281,102209
 1.7000e+000 102663 -6.1175e+001 -1.4291e+001  1.2585e+001 37596 102438,102542,102464
 1.7000e+000 102640 -3.9901e+001 -1.0013e+001  3.0651e+000 37596 102438,102568,102542
 1.7000e+000 102617 -6.0306e+001  1.9430e+000  2.4715e+001 37596 102490,102542,102516
 1.7000e+000 102594 -5.5160e+001 -9.5415e+000  1.5047e+001 37596 102464,102542,102490
 1.7000e+000 102862 -9.2441e+001 -3.2244e+000  2.4676e+000 37192 102686,102764,102712
 1.7000e+000 102839 -9.0296e+001  1.6770e-001  1.2216e+000 37192 102686,102790,102764
 1.7000e+000 102816 -8.8002e+001 -3.6185e+001  1.7703e+001 37192 102712,102764,102738
 1.7000e+000 103110 -9.9260e+001 -2.1553e+001 -1.0131e+001 36609 102911,102963,102937
 1.7000e+000 103087 -8.2128e+001 -2.1260e+001 -5.4694e+000 36609 102911,102989,102963
 1.7000e+000 103064 -9.6186e+001 -3.0548e+001 -9.4882e+000 36609 102885,102989,102911
 1.7000e+000 103041 -9.5337e+001 -7.4397e+000 -2.3148e+001 36609 102885,103015,102989
 1.7000e+000 103718 -2.5174e+001 -2.1815e+001  1.3216e+001 36131 103323,103375,103349
 1.7000e+000 103695 -4.5038e+001 -1.2492e+001  1.1698e+001 36131 103297,103375,103323
 1.7000e+000 103672 -5.4446e+001 -3.3581e+001  1.3455e+001 36131 103297,103505,103375
 1.7000e+000 103649 -6.9506e+001 -3.4675e+001  1.6568e+001 36131 103741,103479,103401
 1.7000e+000 103626 -7.5310e+001 -4.7726e+001  1.3609e+000 36131 103741,103401,103375
 1.7000e+000 103603 -7.5176e+001 -1.8001e+001  1.5208e+001 36131 103401,103479,103427
 1.7000e+000 103580 -6.6515e+001 -1.5069e+001 -6.7806e+000 36131 103297,103531,103505
 1.7000e+000 103557 -6.0232e+001 -1.2149e+000 -7.3417e+000 36131 103427,103479,103453
 1.7000e+000 103767 -5.5269e+001 -2.0727e+001  2.5754e+001 36131 103505,103479,103741
 1.7000e+000 103790 -6.3054e+001 -3.3608e+001  1.0264e+001 36131 103505,103741,103375
 1.7000e+000 103989 -1.7512e+002 -5.1833e+001  7.2030e-001 35791 103839,103917,103891
 1.7000e+000 103966 -1.6386e+002 -5.7105e+001  1.6762e+000 35791 103813,103917,103839
 1.7000e+000 103943 -1.4854e+002 -1.5214e+001 -1.9837e+001 35791 103839,103891,103865
 1.7000e+000 104188 -1.0179e+002 -4.5650e+001 -1.4968e+001 35444 104038,104090,104064
 1.7000e+000 104165 -1.0847e+002 -3.8704e+001  4.4286e-001 35444 104038,104116,104090
 1.7000e+000 104142 -1.2427e+002 -6.1066e+001 -6.7808e+000 35444 104012,104116,104038
 1.7000e+000 104487 -1.3037e+002 -3.6072e+001 -1.0022e+001 34990 104265,104317,104291
 1.7000e+000 104464 -1.1807e+002 -3.1048e+001 -9.8799e+000 34990 104510,104317,104265
 1.7000e+000 104441 -1.0107e+002 -2.4138e+001 -6.1310e+000 34990 104510,104265,104213
 1.7000e+000 104418 -1.2244e+002 -2.0377e+001  2.1569e+000 34990 104582,104343,104317
 1.7000e+000 104395 -9.0956e+001 -2.7208e-001 -5.6352e+000 34990 104213,104265,104239
 1.7000e+000 104536 -1.2309e+002 -2.0671e+001 -5.8180e+000 34990 104582,104317,104510
 1.7000e+000 104559 -1.1323e+002 -2.6670e+001 -2.8169e+000 34990 104369,104510,104213
 1.7000e+000 104608 -1.0061e+002  3.7122e-001  1.0935e+001 34990 104369,104343,104582
 1.7000e+000 104631 -1.1371e+002 -1.6581e+001 -1.0597e+000 34990 104369,104582,104510
 1.7000e+000 104783 -1.4737e+002 -5.1947e+001 -1.4392e+001 34700 104938,104806,104682
 1.7000e+000 104760 -1.4211e+002 -6.9362e+001  4.8256e-001 34700 104938,104682,104656
 1.7000e+000 104832 -1.0011e+002 -1.5233e+001  2.0084e+000 34700 104708,104682,104806
 1.7000e+000 104964 -1.6647e+002 -5.4605e+001 -1.8708e+000 34700 104734,104806,104938
 1.7000e+000 104987 -1.6104e+002 -6.9131e+001  1.2884e+001 34700 104734,104938,104656
 1.7000e+000 105137 -2.2047e+002 -3.9611e+000 -1.5126e+000 34388 105036,105088,105062
 1.7000e+000 105114 -2.2507e+002 -8.5965e+001 -1.6438e+001 34388 105010,105088,105036
 1.7000e+000 105385 -1.3567e+002 -3.3735e+001  1.0013e+001 33734 105408,105186,105160
 1.7000e+000 105362 -1.3505e+002 -3.5732e+001  9.1192e+000 33734 105408,105160,105264
 1.7000e+000 105339 -1.3433e+002 -1.0224e+001 -3.9587e-001 33734 105160,105290,105264
 1.7000e+000 105316 -1.3636e+002 -4.1693e+001  2.9979e+001 33734 105186,105238,105212
 1.7000e+000 105434 -1.3516e+002 -3.1936e+001  1.1234e+001 33734 105238,105186,105408
 1.7000e+000 105457 -1.3424e+002 -3.5192e+001  1.0934e+001 33734 105238,105408,105264
 1.7000e+000 105609 -1.1165e+002 -2.5638e+001 -4.2809e+001 33394 105482,105534,105508
 1.7000e+000 105586 -9.1501e+001 -4.1898e+001 -2.5497e+001 33394 105482,105560,105534
 1.7000e+000 105859 -1.8839e+002 -4.4385e+001 -2.5226e+001 33047 105882,105712,105660
 1.7000e+000 105836 -2.1318e+002 -3.9949e+001 -5.4110e+000 33047 105882,105660,105634
 1.7000e+000 105813 -1.4641e+002 -4.8467e+001 -5.0089e+000 33047 105660,105712,105686
 1.7000e+000 105790 -1.5135e+002 -2.1649e+001 -2.9358e+001 33047 105634,105764,105738
 1.7000e+000 105908 -1.3143e+002 -1.1995e+001 -4.6472e+001 33047 105738,105712,105882
 1.7000e+000 105931 -1.9136e+002 -3.8627e+001 -2.0728e+001 33047 105738,105882,105634
 1.7000e+000 106181 -9.9901e+001 -4.0729e+001  1.4998e+001 32543 106204,106060,106008
 1.7000e+000 106158 -9.1063e+001 -4.8005e+001  3.2521e+000 32543 105956,106086,106060
 1.7000e+000 106135 -9.2008e+001 -2.2089e+001  1.4609e+001 32543 106204,106008,105982
 1.7000e+000 106112 -1.0190e+002 -6.1044e+001  1.1674e+001 32543 106008,106060,106034
 1.7000e+000 106230 -9.4361e+001 -4.8122e+001  2.6418e+000 32543 105956,106060,106204
 1.7000e+000 106253 -8.7179e+001 -3.0787e+001  1.5022e+000 32543 105956,106204,105982
 1.7000e+000 106454 -1.4067e+002 -6.0709e+001 -3.1981e+001 31839 106304,106356,106330
 1.7000e+000 106431 -1.5533e+002 -5.1497e+001 -5.3215e+000 31839 106278,106356,106304
 1.7000e+000 106408 -1.2225e+002 -3.2716e+001 -1.5005e+001 31839 106278,106382,106356
 1.7000e+000 106704 -7.1386e+001 -2.0338e+001  3.9674e+000 31534 106505,106583,106557
 1.7000e+000 106681 -8.2493e+001 -2.2171e+001  6.4416e+000 31534 106479,106583,106505
 1.7000e+000 106658 -9.9654e+001 -3.5790e+001  1.1470e+001 31534 106505,106557,106531
 1.7000e+000 106635 -8.7097e+001 -2.5707e+001  9.4759e+000 31534 106479,106609,106583
 1.7000e+000 107108 -2.2611e+002  3.2868e+001 -4.9226e+001 31030 106886,106990,106964
 1.7000e+000 107085 -1.7062e+002 -1.7468e+001 -1.7985e+001 31030 106860,106990,106886
 1.7000e+000 107062 -1.5178e+002 -5.9059e+000 -1.1531e+001 31030 106834,106990,106860
 1.7000e+000 107039 -3.4958e+002 -1.1934e+002  2.6766e+001 31030 106912,106964,106938
 1.7000e+000 107016 -3.7413e+002 -2.7144e+001 -4.4831e+001 31030 106886,106964,106912
 1.7000e+000 107307 -2.2884e+002 -4.4919e+000 -9.1154e+000 30718 107330,107157,107131
 1.7000e+000 107284 -1.9088e+002 -1.9241e+001 -1.8564e+001 30718 107330,107131,107235
 1.7000e+000 107261 -1.5819e+002 -2.5710e+001 -5.4748e+000 30718 107183,107235,107209
 1.7000e+000 107356 -1.9290e+002 -3.5582e+000  1.4695e+000 30718 107183,107157,107330
 1.7000e+000 107379 -1.5789e+002 -2.0886e+001 -1.1110e+001 30718 107183,107330,107235
 1.7000e+000 107759 -1.2884e+002 -7.4028e+001  1.8733e+001 30264 107782,107615,107537
 1.7000e+000 107736 -1.1839e+002 -4.9588e+001  1.6965e+001 30264 107782,107537,107485
 1.7000e+000 107713 -1.5655e+002 -4.2969e+001  2.2351e+001 30264 107485,107537,107511
 1.7000e+000 107690 -1.0466e+002 -6.8921e+001  2.1817e+001 30264 107537,107615,107589
 1.7000e+000 107667 -9.1235e+001 -6.8192e+001  2.0786e+001 30264 107537,107589,107563
 1.7000e+000 107808 -1.3167e+002 -6.7729e+001 -1.2064e-001 30264 107641,107615,107782
 1.7000e+000 107831 -1.2080e+002 -4.0684e+001 -5.5855e-001 30264 107641,107782,107485
 1.7000e+000 108030 -1.1578e+002 -4.1858e+001  1.4307e+001 29874 108053,107854,107932
 1.7000e+000 108007 -9.7365e+001 -2.6102e+001  6.2014e+000 29874 107854,107958,107932
 1.7000e+000 107984 -1.1878e+002 -3.0607e+001  2.4908e+001 29874 108053,107932,107906
 1.7000e+000 108079 -1.1594e+002 -2.7651e+001  1.5965e+001 29874 107880,107854,108053
 1.7000e+000 108102 -1.1980e+002 -1.4196e+001  2.3247e+001 29874 107880,108053,107906
 1.7000e+000 108433 -8.3024e+001 -3.2788e+001 -7.0688e+000 29484 108234,108338,108312
 1.7000e+000 108410 -1.2093e+002 -3.3551e+001  1.6637e+001 29484 108208,108338,108234
 1.7000e+000 108387 -1.2022e+002 -4.2476e+001 -6.8221e+000 29484 108234,108312,108260
 1.7000e+000 108364 -1.0939e+002 -5.1730e+001 -7.0435e+000 29484 108260,108312,108286
 1.7000e+000 108762 -5.0023e+001 -2.8396e+001  1.6392e+001 29080 108563,108641,108589
 1.7000e+000 108739 -5.3075e+001 -3.7329e+001  1.6714e+001 29080 108537,108641,108563
 1.7000e+000 108716 -7.6879e+001  1.3876e+000  3.9377e+001 29080 108589,108641,108615
 1.7000e+000 108693 -3.4660e+001 -3.3876e+001  1.8251e+000 29080 108537,108667,108641
 1.7000e+000 109189 -1.4352e+002 -4.5290e+001  1.0026e+001 28476 108892,108996,108970
 1.7000e+000 109166 -1.6601e+002 -4.6776e+001  1.1774e+001 28476 108892,109022,108996
 1.7000e+000 109143 -1.4944e+002 -5.3396e+001  1.2644e+001 28476 108892,108970,108944
 1.7000e+000 109120 -1.8942e+002 -4.8268e+001  1.4023e+001 28476 108892,109048,109022
 1.7000e+000 109097 -1.5642e+002 -6.3169e+001  7.8600e+000 28476 108892,108944,108918
 1.7000e+000 109074 -2.2784e+002 -2.3158e+001 -1.4627e+001 28476 108866,109048,108892
 1.7000e+000 109518 -6.6814e+001 -1.6636e+001  1.7075e+001 28022 109541,109371,109345
 1.7000e+000 109495 -8.4142e+001  8.4992e+000 -9.6813e+000 28022 109541,109345,109319
 1.7000e+000 109472 -5.1391e+001  1.5891e+001 -9.6307e+000 28022 109293,109397,109319
 1.7000e+000 109449 -5.1016e+001  2.3124e+000  8.8233e+000 28022 109293,109423,109397
 1.7000e+000 109567  6.5860e+000  1.4522e+001  1.6216e+001 28022 109397,109371,109541
 1.7000e+000 109590 -6.2267e+001  1.2426e+001 -7.7131e+000 28022 109397,109541,109319
 1.7000e+000 109968 -1.6705e+002 -1.0529e+002 -2.1846e+001 27568 109798,109850,109824
 1.7000e+000 109945 -1.5265e+002 -7.4124e+001 -1.7753e+001 27568 109694,109850,109798
 1.7000e+000 109922 -1.1120e+002 -1.0715e+002 -1.3522e+001 27568 109694,109798,109746
 1.7000e+000 109899 -1.0446e+002 -9.9714e+001  1.3880e+001 27568 109746,109798,109772
 1.7000e+000 109876 -8.9991e+001 -7.2936e+001  1.4103e+000 27568 109694,109746,109720
 1.7000e+000 110167 -1.1577e+002 -3.5196e+001  1.0015e+000 27007 110017,110095,110069
 1.7000e+000 110144 -1.1200e+002 -2.1982e+001  1.2506e+000 27007 109991,110095,110017
 1.7000e+000 110121 -1.1609e+002 -1.9737e+001  2.1272e+001 27007 110017,110069,110043
 1.7000e+000 110415 -5.8659e+001 -2.7694e+001  1.1176e+001 26567 110438,110242,110190
 1.7000e+000 110392 -7.5333e+001 -1.2204e+001  5.9507e+000 26567 110438,110190,110320
 1.7000e+000 110369 -6.8556e+001 -2.1641e+001  9.5322e+000 26567 110242,110294,110268
 1.7000e+000 110346 -5.2987e+001 -1.8005e+001  4.6533e+000 26567 110190,110242,110216
 1.7000e+000 110464 -6.7279e+001 -2.9426e+001  5.2141e+000 26567 110294,110242,110438
 1.7000e+000 110487 -8.6184e+001 -2.6073e+001 -4.3464e+000 26567 110294,110438,110320
 1.7000e+000 110639 -1.8058e+002 -1.3845e+001 -2.7456e+001 26170 110538,110590,110564
 1.7000e+000 110616 -1.6547e+002 -3.9673e+001 -1.5950e+001 26170 110512,110590,110538
 1.7000e+000 111149 -2.0653e+002 -7.5460e+001  5.5418e+001 25716 111172,110878,110852
 1.7000e+000 111126 -1.6473e+002 -5.5706e+001  4.7173e+001 25716 111172,110852,111008
 1.7000e+000 111103 -2.3014e+002 -6.8624e+001  1.2050e+002 25716 110878,110930,110904
 1.7000e+000 111080 -1.6053e+002 -6.2446e+001  3.5421e+001 25716 110826,111008,110852
 1.7000e+000 111057 -1.1525e+002 -9.6548e+001  3.3354e+001 25716 110930,111008,110956
 1.7000e+000 111034 -8.1130e+001 -8.4129e+001  3.1090e+001 25716 110956,111008,110982
 1.7000e+000 111198 -1.6748e+002 -1.0711e+002  6.9382e+001 25716 110930,110878,111172
 1.7000e+000 111221 -1.1713e+002 -8.2421e+001  6.0187e+001 25716 110930,111172,111008
 1.7000e+000 111420 -2.2009e+002 -5.9550e+001  7.2404e+000 25304 111443,111270,111244
 1.7000e+000 111397 -2.2132e+002 -7.2612e+001  8.9322e+000 25304 111443,111244,111348
 1.7000e+000 111374 -2.2089e+002 -5.9794e+001 -1.8190e+001 25304 111270,111322,111296
 1.7000e+000 111469 -2.2335e+002 -4.7462e+001  6.4226e+000 25304 111322,111270,111443
 1.7000e+000 111492 -2.2345e+002 -5.8560e+001  9.0520e+000 25304 111322,111443,111348
 1.7000e+000 111691 -5.3316e+001 -2.1155e+001 -3.2007e+000 24736 111567,111619,111593
 1.7000e+000 111668 -5.8986e+001  1.4779e+000 -2.0730e+001 24736 111541,111619,111567
 1.7000e+000 111645 -6.9600e+001  2.0961e+001 -8.2223e+000 24736 111515,111619,111541
 1.7000e+000 112024 -1.3368e+001 -5.1835e+000  4.1559e+000 24146 111825,111877,111851
 1.7000e+000 112001 -1.9114e+001  7.9903e+000 -5.3150e+000 24146 111825,111903,111877
 1.7000e+000 111978 -3.3573e+001 -4.6901e+001  4.8499e-001 24146 111825,111929,111903
 1.7000e+000 111955 -4.6059e+001 -5.0381e+001  1.5237e-001 24146 111799,111929,111825
 1.7000e+000 112370 -1.0837e+002 -4.1547e+001  2.3355e+001 23856 112393,112151,112125
 1.7000e+000 112347 -1.0161e+002 -2.5837e+001  2.4964e+001 23856 112465,112393,112125
 1.7000e+000 112324 -1.0044e+002 -1.9866e+001  2.6636e+001 23856 112465,112125,112073
 1.7000e+000 112301 -1.3055e+002 -3.5452e+001  3.6617e+001 23856 112073,112125,112099
 1.7000e+000 112278 -1.0938e+002 -4.4847e+001  7.8557e+000 23856 112047,112229,112073
 1.7000e+000 112255 -8.4030e+001 -3.6495e+001 -6.6896e+000 23856 112151,112203,112177
 1.7000e+000 112419 -1.0260e+002 -3.3201e+001  1.5852e+001 23856 112203,112151,112393
 1.7000e+000 112442 -1.0752e+002 -4.1474e+001  1.2928e+001 23856 112203,112393,112229
 1.7000e+000 112491 -1.0522e+002 -3.2323e+001  1.0927e+001 23856 112229,112393,112465
 1.7000e+000 112514 -9.9541e+001 -1.6903e+001  1.2400e+001 23856 112229,112465,112073
 1.7000e+000 112784 -1.8446e+002  5.5267e+001 -2.5047e+001 23494 112611,112663,112637
 1.7000e+000 112761 -1.3651e+002 -8.2837e+000 -1.3009e+001 23494 112585,112663,112611
 1.7000e+000 112738 -1.7973e+002 -2.6121e+001  1.6970e+001 23494 112559,112663,112585
 1.7000e+000 112715 -1.5115e+002  7.2674e+001  2.9215e+001 23494 112559,112689,112663
 1.7000e+000 113117 -1.6872e+002 -3.5326e+001 -4.4122e+001 22974 112944,113022,112996
 1.7000e+000 113094 -1.5089e+002 -7.3740e+001 -2.8926e+001 22974 112918,113022,112944
 1.7000e+000 113071 -1.8847e+002 -9.1856e+001 -5.2463e+001 22974 112944,112996,112970
 1.7000e+000 113048 -1.3875e+002 -2.3619e+001 -4.3919e+001 22974 112892,113022,112918
 1.7000e+000 113414 -1.7554e+002 -6.1679e+001 -3.9902e+000 22370 113192,113296,113218
 1.7000e+000 113391 -2.0663e+002 -9.0243e+001 -1.5933e+001 22370 113140,113296,113192
 1.7000e+000 113368 -1.7723e+002 -6.3325e+001  5.6916e+000 22370 113218,113296,113270
 1.7000e+000 113345 -1.5939e+002 -6.6140e+001  2.4827e+001 22370 113218,113270,113244
 1.7000e+000 113322 -1.7392e+002 -3.1583e+001 -3.6635e+001 22370 113140,113192,113166
 1.7000e+000 113662 -1.2110e+002 -1.9155e+001  1.0582e+001 21916 113685,113515,113489
 1.7000e+000 113639 -1.4677e+002 -3.7827e+001  1.2021e+000 21916 113685,113489,113437
 1.7000e+000 113616 -1.0048e+002 -3.5481e+001 -2.2180e+000 21916 113757,113567,113541
 1.7000e+000 113593 -1.4407e+002 -2.8083e+001 -8.8169e+000 21916 113437,113489,113463
 1.7000e+000 113711 -1.3556e+002 -4.8839e+001  5.7467e+000 21916 113541,113515,113685
 1.7000e+000 113734 -1.2383e+002 -4.5074e+001  1.2219e+000 21916 113757,113541,113685
 1.7000e+000 113783 -1.3175e+002 -3.6475e+001 -3.0900e+000 21916 113437,113567,113757
 1.7000e+000 113806 -1.3655e+002 -3.3275e+001 -4.4252e+000 21916 113437,113757,113685
 1.7000e+000 114056 -1.3264e+002 -3.2760e+001 -1.4004e+001 21412 113857,113909,113883
 1.7000e+000 114033 -1.3096e+002 -3.0205e+001 -1.4734e+001 21412 114079,113909,113857
 1.7000e+000 114010 -1.3732e+002 -3.9916e+001 -3.7986e+000 21412 114079,113857,113961
 1.7000e+000 113987 -1.3173e+002 -4.2153e+001 -4.7647e+000 21412 113831,113961,113857
 1.7000e+000 114105 -1.3703e+002 -1.2096e+001 -1.9320e+001 21412 113935,113909,114079
 1.7000e+000 114128 -1.4235e+002 -2.6042e+001 -1.0320e+001 21412 113935,114079,113961
 1.7000e+000 114378 -6.4144e+001 -1.4662e+001 -1.2619e+000 21022 114401,114257,114205
 1.7000e+000 114355 -7.6187e+001 -1.9037e+001 -1.8329e+001 21022 114401,114205,114179
 1.7000e+000 114332 -7.1084e+001 -3.5120e+000 -1.1900e+000 21022 114153,114283,114179
 1.7000e+000 114309 -6.6807e+001 -1.7508e+001 -2.4790e+000 21022 114205,114257,114231
 1.7000e+000 114427 -3.9986e+001 -9.6579e+000  8.2023e+000 21022 114283,114257,114401
 1.7000e+000 114450 -5.7750e+001 -1.5864e+001 -8.3272e+000 21022 114283,114401,114179
 1.7000e+000 114651 -6.1744e+001 -1.0252e+001 -1.7096e+000 20618 114501,114553,114527
 1.7000e+000 114628 -3.1125e+001 -2.6095e+000  5.2922e+000 20618 114501,114579,114553
 1.7000e+000 114605 -6.5528e+001 -1.3004e+001 -1.5971e+000 20618 114475,114579,114501
 1.7000e+000 114901 -2.2771e+002 -2.7797e+001 -2.9799e+001 20114 114676,114780,114702
 1.7000e+000 114878 -1.6056e+002 -3.0573e+000 -2.9674e+001 20114 114676,114806,114780
 1.7000e+000 114855 -2.4361e+002 -1.0072e+001 -2.3964e+001 20114 114702,114780,114754
 1.7000e+000 114832 -6.2255e+002 -1.1901e+002 -3.7987e+001 20114 114702,114754,114728
 1.7000e+000 115053 -1.7861e+002 -2.6913e+001 -1.7274e-001 19460 115147,115076,114926
 1.7000e+000 115030 -1.7995e+002 -2.1336e+001 -1.9226e+000 19460 115147,114926,115004
 1.7000e+000 115102 -1.8740e+002 -3.8084e+001  4.5249e+000 19460 114952,114926,115076
 1.7000e+000 115173 -1.7724e+002 -3.9476e+001  6.5034e-001 19460 114978,115076,115147
 1.7000e+000 115196 -1.7576e+002 -3.1115e+001 -2.2324e+000 19460 114978,115147,115004
 1.7000e+000 115446 -2.7665e+002 -5.1015e+001  3.4219e+001 19006 115273,115351,115299
 1.7000e+000 115423 -2.5021e+002 -1.0293e+002  1.0588e+001 19006 115247,115351,115273
 1.7000e+000 115400 -2.7315e+002 -1.0949e+002  3.4861e+001 19006 115221,115351,115247
 1.7000e+000 115377 -1.6218e+002 -2.3514e+001 -6.0923e+001 19006 115299,115351,115325
 1.7000e+000 115767 -4.7277e+001 -2.5634e+000  5.0815e+000 18716 115571,115649,115623
 1.7000e+000 115744 -5.3332e+001 -1.2202e+001  2.2335e+000 18716 115493,115649,115571
 1.7000e+000 115721 -5.5538e+001 -4.8155e+000  3.9926e+000 18716 115493,115571,115545
 1.7000e+000 115698 -6.0994e+001 -8.9051e+000 -5.1394e+000 18716 115493,115545,115519
 1.7000e+000 115675 -1.7011e+001  7.0637e+000 -9.7288e-001 18716 115571,115623,115597
 1.7000e+000 116039 -1.3759e+002 -3.8933e+001  9.7422e+000 18312 115814,115892,115840
 1.7000e+000 116016 -1.3564e+002 -3.2989e+001  7.0663e+000 18312 115814,115944,115892
 1.7000e+000 115993 -1.2997e+002 -9.7547e+000  1.1722e+001 18312 115892,115944,115918
 1.7000e+000 115970 -7.4164e+001 -5.7979e+000 -2.7708e+000 18312 115840,115892,115866
 1.7000e+000 116191 -2.4314e+002 -9.6379e+001 -2.4735e-001 18000 116090,116142,116116
 1.7000e+000 116168 -2.3719e+002 -9.2245e+001  3.1861e+000 18000 116064,116142,116090
 1.7000e+000 116343 -7.5971e+001  4.6366e+000 -1.6188e+000 17396 116242,116294,116268
 1.7000e+000 116320 -1.0523e+002  3.6169e+000 -1.6522e+000 17396 116216,116294,116242
 1.7000e+000 116566 -1.6293e+002 -6.6352e+001  1.1434e+001 16942 116390,116468,116442
 1.7000e+000 116543 -2.3445e+002 -8.0864e+001  2.4426e+001 16942 116390,116494,116468
 1.7000e+000 116520 -1.7599e+002 -9.6897e+001  3.5694e+000 16942 116390,116442,116416
 1.7000e+000 116767 -6.4267e+001  7.6553e+000  4.5209e+000 16438 116790,116643,116617
 1.7000e+000 116744 -8.1778e+001 -8.5398e+000 -2.2161e+000 16438 116790,116617,116591
 1.7000e+000 116721 -3.7306e+001 -3.6858e+000 -1.0762e+001 16438 116643,116695,116669
 1.7000e+000 116816 -5.5207e+001 -4.1784e+000  9.8790e+000 16438 116695,116643,116790
 1.7000e+000 116839 -6.0802e+001 -8.6667e+000  6.9302e+000 16438 116695,116790,116591
 1.7000e+000 117062 -3.2412e+000 -2.1247e-001 -1.3330e+000 16074 116886,116938,116912
 1.7000e+000 117039 -3.5823e+001 -1.4947e+001  2.0881e+000 16074 116886,116990,116938
 1.7000e+000 117016 -3.4259e+001 -1.9906e+000  2.3781e+000 16074 116938,116990,116964
 1.7000e+000 117214 -1.7486e+002 -7.8976e+001 -1.0935e+001 15649 117087,117139,117113
 1.7000e+000 117191 -2.1709e+002 -1.0144e+002  1.5915e+000 15649 117087,117165,117139
 1.7000e+000 117317 -1.3942e+000 -1.5337e+000  6.4953e-001 421 117239,117291,117265
 1.8000e+000 70632  2.1319e+001 -4.2279e+000  1.8298e+001 70072 70482,70534,70508
 1.8000e+000 70609  3.8634e+000 -4.3832e+001  1.3988e+001 70072 70482,70560,70534
 1.8000e+000 70586 -2.1769e+001 -5.3952e+001  9.2692e+000 70072 70456,70560,70482
 1.8000e+000 70951 -3.4103e+000 -7.3128e+001  0.0000e+000 69874 70703,70755,70729
 1.8000e+000 70928 -1.9177e+001 -7.9912e+001 -3.3601e-001 69874 70703,70781,70755
 1.8000e+000 70905 -1.2498e+001 -5.8542e+001  2.7507e+000 69874 70703,70807,70781
 1.8000e+000 70882 -2.1817e+001 -8.1142e+001  4.3526e+000 69874 70703,70833,70807
 1.8000e+000 70859 -9.1427e+000 -7.8613e+001  6.6942e+000 69874 70677,70833,70703
 1.8000e+000 71199 -2.3078e+001 -2.2153e+001 -1.7433e+000 69698 71222,71052,71026
 1.8000e+000 71176 -5.0007e+000 -2.5791e+001  2.8177e+000 69698 71294,71222,71026
 1.8000e+000 71153 -2.3560e+000 -1.5816e+001 -2.1307e+000 69698 71294,71026,71000
 1.8000e+000 71130 -5.1039e+001 -3.0893e+001 -6.6047e+000 69698 71366,71104,71078
 1.8000e+000 71248 -2.4864e+001 -1.8172e+001  1.8198e+000 69698 71078,71052,71222
 1.8000e+000 71271 -2.6547e+001 -2.4190e+001 -6.9564e+000 69698 71366,71078,71222
 1.8000e+000 71320  3.3130e+000 -1.6161e+001 -7.2610e+000 69698 70974,71222,71294
 1.8000e+000 71343  4.4678e+000 -1.3485e+001 -1.2175e+001 69698 70974,71294,71000
 1.8000e+000 71392 -1.8651e+001 -2.5861e+001 -1.1157e+000 69698 70974,71104,71366
 1.8000e+000 71415 -1.3205e+001 -3.1381e+001  1.2494e+000 69698 70974,71366,71222
 1.8000e+000 71516 -1.5115e+001 -2.2043e+001  2.6123e+000 69386 71438,71490,71464
 1.8000e+000 71869  3.7116e+001  1.2140e+001 -1.2930e+001 69188 71644,71748,71670
 1.8000e+000 71846  5.6069e+001  3.0363e+001 -4.0760e+000 69188 71644,71774,71748
 1.8000e+000 71823  1.4686e+001 -5.9347e+000  1.1907e+000 69188 71670,71748,71722
 1.8000e+000 71800 -1.9480e+000  5.1538e+000 -8.0494e+000 69188 71670,71722,71696
 1.8000e+000 72019 -9.6584e+001 -1.3307e+001  1.0225e+001 68990 71918,71970,71944
 1.8000e+000 71996 -1.0105e+002 -4.3735e+000  6.3242e+000 68990 71892,71970,71918
 1.8000e+000 72316 -2.8158e+001  2.2422e+001 -3.3450e+000 68586 72339,72172,72146
 1.8000e+000 72293 -3.1042e+001  3.0337e+000 -5.0560e+000 68586 72339,72146,72120
 1.8000e+000 72270 -2.8280e+001 -4.6609e-001  1.2513e+001 68586 72411,72068,72198
 1.8000e+000 72247 -3.6716e+001  1.4436e+001  2.0335e+001 68586 72042,72198,72068
 1.8000e+000 72224 -1.3620e+001  5.2205e-002 -3.0934e+000 68586 72068,72120,72094
 1.8000e+000 72365 -2.9232e+001  2.9186e+001  1.1082e+001 68586 72198,72172,72339
 1.8000e+000 72388 -3.8448e+001  7.4502e+000  8.1156e+000 68586 72411,72198,72339
 1.8000e+000 72437 -1.5162e+001  7.7633e+000  7.5390e+000 68586 72120,72068,72411
 1.8000e+000 72460 -2.5235e+001  1.7428e+001  3.0048e+000 68586 72120,72411,72339
 1.8000e+000 72864  6.0246e+000  8.3367e+000 -5.6056e+000 68388 72642,72694,72668
 1.8000e+000 72841 -9.9439e+000 -3.4085e+000  6.4690e+000 68388 72616,72694,72642
 1.8000e+000 72818 -1.4389e+001 -6.9176e+000  3.1056e+000 68388 72616,72720,72694
 1.8000e+000 72795 -1.9799e+001 -7.4625e+000  5.9276e+000 68388 72590,72720,72616
 1.8000e+000 72772 -3.1809e+001 -7.6604e+000 -5.7910e+000 68388 72590,72746,72720
 1.8000e+000 73321 -2.7704e+001 -7.4285e+000  5.6306e+000 68048 73073,73203,73177
 1.8000e+000 73298 -2.3889e+001 -1.4113e+001 -3.5325e+000 68048 73047,73203,73073
 1.8000e+000 73275 -3.0835e+001  3.1015e+000  5.2728e+000 68048 73125,73177,73151
 1.8000e+000 73252 -2.2476e+001  4.3108e+000  2.6709e+000 68048 73073,73177,73125
 1.8000e+000 73229 -1.0508e+001  7.7933e-001  8.4259e+000 68048 73073,73125,73099
 1.8000e+000 73640 -4.4391e+001 -2.2593e+000 -2.5557e-001 67850 73444,73496,73470
 1.8000e+000 73617 -3.3990e+001 -1.8218e+001  2.1839e+000 67850 73418,73496,73444
 1.8000e+000 73594 -2.8927e+001 -3.7217e+000  6.3074e+000 67850 73392,73496,73418
 1.8000e+000 73571 -2.5966e+001 -1.7128e+000  7.4741e+000 67850 73392,73522,73496
 1.8000e+000 73548 -1.4230e+001  9.2512e+000 -5.4756e+000 67850 73366,73522,73392
 1.8000e+000 73790 -4.2708e+001 -2.5207e+000 -1.4969e+000 67602 73689,73741,73715
 1.8000e+000 73767 -2.8722e+001  2.5719e+001  3.5220e+000 67602 73663,73741,73689
 1.8000e+000 74040 -6.3962e+001  3.1988e+000 -4.5393e+000 67290 73841,73945,73919
 1.8000e+000 74017 -1.6052e+001 -1.0720e+001 -1.8735e+001 67290 73815,73945,73841
 1.8000e+000 73994 -5.3243e+001  9.5005e+000  3.0171e+000 67290 73841,73919,73867
 1.8000e+000 73971 -4.4274e+001  2.4694e+001  1.4130e+001 67290 73867,73919,73893
 1.8000e+000 74143 -2.4370e+001 -8.3684e+001  3.2413e+000 67092 74065,74117,74091
 1.8000e+000 74415 -6.1825e+000 -3.8955e+001  7.9518e+000 66894 74190,74294,74216
 1.8000e+000 74392  2.5058e+001 -3.0490e+001 -2.5551e+000 66894 74190,74320,74294
 1.8000e+000 74369 -1.6017e+001 -4.1070e+001 -1.9660e+000 66894 74216,74294,74242
 1.8000e+000 74346 -3.7994e+001 -4.4667e+001  7.7045e+000 66894 74242,74294,74268
 1.8000e+000 75023  7.2507e+001 -1.9699e+001  4.1903e-001 66532 74654,74836,74810
 1.8000e+000 75000  3.9020e+000  1.1001e+001  1.3246e+001 66532 74628,74836,74654
 1.8000e+000 74977 -1.5852e+001  2.3341e+001  2.2385e+000 66532 74706,74784,74732
 1.8000e+000 74954 -2.5944e+001  2.7241e+001 -6.2145e+000 66532 74680,74784,74706
 1.8000e+000 74931 -3.2658e+001  4.4960e+000 -1.6166e+001 66532 74680,74810,74784
 1.8000e+000 74908  6.3332e+000  6.8604e+000  1.6183e+001 66532 74654,74810,74680
 1.8000e+000 74885 -1.0275e+001 -1.8658e+001 -1.8217e+000 66532 74602,74836,74628
 1.8000e+000 74862  3.4241e+001  1.7910e+001 -2.2857e+001 66532 74732,74784,74758
 1.8000e+000 75222 -2.6152e+001 -1.8849e+000  5.8922e+000 66242 75072,75150,75124
 1.8000e+000 75199 -1.1138e+000 -7.1678e-001 -2.5250e+000 66242 75046,75150,75072
 1.8000e+000 75176 -3.5920e+001 -5.2184e+000 -3.1628e-001 66242 75072,75124,75098
 1.8000e+000 75470 -6.3570e+001 -8.3944e+001 -1.0358e+000 65838 75297,75375,75349
 1.8000e+000 75447 -6.5957e+001 -1.0336e+002 -1.9335e+000 65838 75271,75375,75297
 1.8000e+000 75424 -5.6091e+001 -5.1567e+001  2.8989e+001 65838 75297,75349,75323
 1.8000e+000 75401 -5.4324e+001 -9.7951e+001  1.3160e+000 65838 75245,75375,75271
 1.8000e+000 75671 -1.2220e+001 -6.1186e+001  4.7178e+000 65640 75495,75573,75521
 1.8000e+000 75648 -2.9767e+001 -6.5929e+001  5.8204e-001 65640 75495,75599,75573
 1.8000e+000 75625 -4.1049e+001 -7.4728e+001  4.7810e-001 65640 75521,75573,75547
 1.8000e+000 75872 -5.7342e+001 -3.0805e+001 -1.6266e+000 65300 75895,75748,75722
 1.8000e+000 75849 -4.2556e+001 -3.3353e+001 -4.2413e+000 65300 75895,75722,75696
 1.8000e+000 75826 -6.4446e+001 -2.6546e+001 -8.7626e+000 65300 75967,75774,75748
 1.8000e+000 75921 -6.0354e+001 -2.6026e+001  3.0087e+000 65300 75967,75748,75895
 1.8000e+000 75944 -5.4750e+001 -2.7141e+001  1.2741e+001 65300 75800,75895,75696
 1.8000e+000 75993 -8.4167e+001 -2.6150e+001 -6.7324e+000 65300 75800,75774,75967
 1.8000e+000 76016 -8.2470e+001 -3.0298e+001  2.4618e+000 65300 75800,75967,75895
 1.8000e+000 76371 -4.1985e+001  1.6066e+001 -4.1195e+000 64896 76146,76250,76172
 1.8000e+000 76348 -4.4530e+001  2.0821e+001  3.6280e+000 64896 76146,76276,76250
 1.8000e+000 76325 -3.7521e+001  2.0450e+001 -6.0154e+000 64896 76172,76250,76198
 1.8000e+000 76302 -1.2206e+002 -1.5565e+001 -1.6174e+001 64896 76198,76250,76224
 1.8000e+000 76570 -8.2366e+001 -1.7993e+001  2.8869e+001 64442 76446,76498,76472
 1.8000e+000 76547 -5.8457e+001  6.0105e+000  2.3464e+000 64442 76420,76498,76446
 1.8000e+000 76524 -4.6853e+001  2.9391e+000  1.3382e+001 64442 76394,76498,76420
 1.8000e+000 76999 -2.4557e+001  1.5072e+001 -8.3477e+000 63924 77022,76728,76702
 1.8000e+000 76976 -4.0281e+001  3.5086e+000 -1.9875e+000 63924 77022,76702,76832
 1.8000e+000 76953 -5.2853e+001  1.5357e+001 -2.1196e+001 63924 76728,76806,76754
 1.8000e+000 76930 -7.2607e+001 -5.8718e+000  2.0640e+000 63924 76676,76832,76702
 1.8000e+000 76907 -7.5883e+001  3.8816e+001 -2.0366e+001 63924 76754,76806,76780
 1.8000e+000 76884 -7.2958e+001  2.8121e+001 -7.8098e-001 63924 76676,76858,76832
 1.8000e+000 77048 -4.6022e+001  2.7332e+001 -8.5924e+000 63924 76806,76728,77022
 1.8000e+000 77071 -5.9991e+001  1.7593e+001 -2.8008e+000 63924 76806,77022,76832
 1.8000e+000 77449 -3.2970e+001  1.5164e+001  1.3463e+001 63320 77472,77253,77201
 1.8000e+000 77426 -2.4237e+001  4.5866e+000 -6.6277e-002 63320 77472,77201,77175
 1.8000e+000 77403 -4.8146e+001 -1.1331e+001  9.2265e+000 63320 77175,77305,77279
 1.8000e+000 77380 -4.5338e+001 -1.0099e+001  3.3545e+001 63320 77201,77253,77227
 1.8000e+000 77357 -2.5395e+001  2.1867e+000 -4.7023e+000 63320 77175,77331,77305
 1.8000e+000 77498 -5.1452e+001 -9.6324e+000  2.2083e+001 63320 77279,77253,77472
 1.8000e+000 77521 -3.1486e+001 -2.7586e+000  4.9067e+000 63320 77279,77472,77175
 1.8000e+000 77769 -2.4817e+001 -8.2694e+001  4.0111e+000 62816 77570,77622,77596
 1.8000e+000 77746 -3.7418e+001 -5.9083e+001  1.1637e+001 62816 77570,77648,77622
 1.8000e+000 77723 -5.2355e+001 -6.0188e+001 -4.9652e+000 62816 77570,77674,77648
 1.8000e+000 77700 -2.7606e+001 -3.5068e+001  7.3990e+000 62816 77544,77674,77570
 1.8000e+000 78149  4.8052e+000 -8.5555e+000 -9.1691e+000 62354 77953,78031,78005
 1.8000e+000 78126 -1.1136e+001 -7.8484e-001 -1.3304e+001 62354 77901,78031,77953
 1.8000e+000 78103  1.5068e+001  1.2173e+001  5.9723e+000 62354 77875,78031,77901
 1.8000e+000 78080 -3.2778e+001 -2.3534e+000  3.7661e+000 62354 77901,77953,77927
 1.8000e+000 78057 -1.5821e+001 -2.0543e+001 -4.3177e+000 62354 77953,78005,77979
 1.8000e+000 78606  2.5198e+000  4.1886e+000  2.7173e+000 61950 78384,78436,78410
 1.8000e+000 78583  3.7629e+000 -5.4311e-001 -4.9666e+000 61950 78358,78436,78384
 1.8000e+000 78560  5.4404e+000  5.2300e+000 -7.8079e+000 61950 78358,78488,78436
 1.8000e+000 78537 -4.8144e+000 -7.4927e-001 -3.0921e-002 61950 78436,78488,78462
 1.8000e+000 78514 -1.6053e+001  7.3725e+000 -5.4044e+000 61950 78332,78488,78358
 1.8000e+000 78756 -2.6017e+001 -7.0079e+000  8.6979e+000 61339 78779,78655,78629
 1.8000e+000 78733 -3.3902e+001  1.1562e+001  1.0756e+001 61339 78779,78629,78707
 1.8000e+000 78805 -2.6964e+001 -2.4760e+000  8.0551e+000 61339 78851,78779,78681
 1.8000e+000 78828 -4.1913e+001 -2.9683e+000  5.0921e+000 61339 78681,78779,78707
 1.8000e+000 78877 -3.7017e+001 -2.4529e+001  1.8615e+000 61339 78655,78779,78851
 1.8000e+000 79206 -3.1250e+001 -4.7289e+001 -1.3798e+001 60892 79229,79007,78981
 1.8000e+000 79183 -3.8362e+001 -5.6381e+001 -5.0277e+000 60892 79229,78981,79111
 1.8000e+000 79160 -4.1467e+001 -5.2242e+001 -6.0137e+000 60892 79301,79033,79007
 1.8000e+000 79137 -6.0091e+001 -5.1208e+001  3.9209e+000 60892 79033,79085,79059
 1.8000e+000 79255 -4.1518e+001 -5.0637e+001 -7.1481e+000 60892 79301,79007,79229
 1.8000e+000 79278 -4.6404e+001 -5.3455e+001 -8.6093e-001 60892 79085,79229,79111
 1.8000e+000 79327 -4.5030e+001 -5.7720e+001 -1.8053e+000 60892 79085,79033,79301
 1.8000e+000 79350 -3.8732e+001 -5.2818e+001 -4.2601e+000 60892 79085,79301,79229
 1.8000e+000 79647 -1.1320e+002 -4.6857e+001 -5.0881e+000 60488 79451,79529,79503
 1.8000e+000 79624 -1.1181e+002 -4.1400e+001 -2.7166e+000 60488 79425,79529,79451
 1.8000e+000 79601 -7.3015e+001 -5.1185e+001 -5.7027e+000 60488 79373,79529,79425
 1.8000e+000 79578 -6.4445e+001 -3.1764e+001 -3.0743e+000 60488 79373,79425,79399
 1.8000e+000 79555 -9.8569e+001 -4.1749e+000  6.6065e+000 60488 79451,79503,79477
 1.8000e+000 79870 -8.9142e+001 -8.9447e+001 -1.4519e+001 60026 79720,79798,79772
 1.8000e+000 79847 -9.1058e+001 -8.9507e+001 -1.4550e+001 60026 79694,79798,79720
 1.8000e+000 79824 -6.9513e+001 -8.0819e+001 -1.3426e+001 60026 79720,79772,79746
 1.8000e+000 80120 -2.7011e+001 -4.4506e+001  1.3146e+001 59629 79921,80025,79973
 1.8000e+000 80097 -3.5812e+001 -3.6248e+001  1.9771e+001 59629 79895,80025,79921
 1.8000e+000 80074 -2.9002e+001 -5.2658e+001  7.9495e+000 59629 79973,80025,79999
 1.8000e+000 80051 -1.2308e+001 -5.1887e+001  1.3501e+001 59629 79921,79973,79947
 1.8000e+000 80321 -2.9813e+001 -2.3756e+001 -7.4338e+000 59125 80344,80171,80145
 1.8000e+000 80298 -4.3353e+001 -2.8445e+001 -7.2440e-002 59125 80344,80145,80249
 1.8000e+000 80275 -6.2336e+001 -3.5566e+001  6.3823e+000 59125 80197,80249,80223
 1.8000e+000 80370 -4.6157e+001 -2.1093e+001 -6.3493e-001 59125 80197,80171,80344
 1.8000e+000 80393 -5.8512e+001 -2.4425e+001  6.4310e+000 59125 80197,80344,80249
 1.8000e+000 80952 -2.7157e+000 -6.4125e+000  2.7479e+000 58557 80975,80632,80606
 1.8000e+000 80929 -2.0502e+001 -1.3256e-001  4.0603e+000 58557 81119,80975,80606
 1.8000e+000 80906 -2.0076e+001 -1.5708e+001  1.3318e+000 58557 81047,80684,80632
 1.8000e+000 80883 -1.4332e+001  1.7482e+000 -1.9485e+000 58557 81119,80606,80580
 1.8000e+000 80860 -2.6630e+001  3.6428e+000 -3.8554e+000 58557 81191,80736,80710
 1.8000e+000 80837 -3.9143e+001  1.4707e-001 -2.5172e+000 58557 80736,80788,80762
 1.8000e+000 80814 -1.8017e+001 -1.2227e+001  3.8540e-001 58557 80632,80684,80658
 1.8000e+000 81001 -1.9311e+001 -1.4078e+001  4.3831e-001 58557 81047,80632,80975
 1.8000e+000 81024 -1.5536e+001 -3.5269e+000  5.2022e+000 58557 81191,80710,80975
 1.8000e+000 81073 -1.9253e+001 -2.0378e+001  3.8867e+000 58557 80710,80684,81047
 1.8000e+000 81096 -1.5848e+001 -1.7046e+001  2.2709e+000 58557 80710,81047,80975
 1.8000e+000 81145 -2.2236e+001 -6.5416e+000  7.4346e+000 58557 80788,80975,81119
 1.8000e+000 81168 -2.0392e+001 -5.3390e+000  2.0046e+000 58557 80788,81119,80580
 1.8000e+000 81217 -4.0065e+001 -1.2550e+000 -1.4405e+000 58557 80788,80736,81191
 1.8000e+000 81240 -3.0937e+001 -9.6220e+000  6.3480e+000 58557 80788,81191,80975
 1.8000e+000 81537 -1.0162e+002 -1.0092e+002  3.6004e+000 57881 81560,81341,81289
 1.8000e+000 81514 -1.0614e+002 -1.0327e+002  1.6618e+001 57881 81560,81289,81263
 1.8000e+000 81491 -1.1568e+002 -9.4318e+001  2.5478e+000 57881 81632,81419,81367
 1.8000e+000 81468 -9.9755e+001 -5.5620e+001  5.9557e+000 57881 81367,81419,81393
 1.8000e+000 81445 -9.7228e+001 -8.4622e+001  1.3109e-001 57881 81289,81341,81315
 1.8000e+000 81586 -9.1912e+001 -4.6487e+001 -1.3886e+001 57881 81367,81341,81560
 1.8000e+000 81609 -1.1517e+002 -8.8660e+001  3.2070e+000 57881 81632,81367,81560
 1.8000e+000 81658 -1.1363e+002 -1.1778e+002  3.6164e+000 57881 81263,81419,81632
 1.8000e+000 81681 -1.0661e+002 -1.0265e+002  1.1827e+000 57881 81263,81632,81560
 1.8000e+000 81929 -5.3369e+001 -8.2967e+001  2.3423e+001 57477 81704,81808,81782
 1.8000e+000 81906 -4.6654e+001 -5.7648e+001  1.2644e+001 57477 81704,81834,81808
 1.8000e+000 81883 -2.7280e+001 -2.3278e+001  1.7835e+001 57477 81704,81782,81730
 1.8000e+000 81860 -4.2333e+001 -4.0082e+001  2.4604e+001 57477 81730,81782,81756
 1.8000e+000 82488 -1.1683e+001 -7.0985e+000  5.1838e+000 56966 82583,82511,82194
 1.8000e+000 82465 -1.1501e+001  4.5712e+000  2.1676e+000 56966 82511,82116,82324
 1.8000e+000 82442 -1.1498e+001 -1.6223e+001  7.7407e+000 56966 82583,82194,82168
 1.8000e+000 82419 -1.6386e+001 -7.8470e+000 -5.1178e-002 56966 82194,82246,82220
 1.8000e+000 82396 -7.8381e+000 -3.9631e+000  4.1784e-001 56966 82194,82298,82246
 1.8000e+000 82373 -1.1877e+001 -2.8085e+000  4.6574e+000 56966 82246,82298,82272
 1.8000e+000 82350  9.4284e-001  7.0159e-001 -2.9698e+000 56966 82116,82168,82142
 1.8000e+000 82537 -5.7266e+000  1.7060e-001  1.1531e+000 56966 82298,82194,82511
 1.8000e+000 82560 -1.7224e+001 -5.1999e+000 -8.3343e-001 56966 82298,82511,82324
 1.8000e+000 82609 -1.2504e+001  3.4044e+000  4.8934e+000 56966 82116,82511,82583
 1.8000e+000 82632 -1.0434e+001 -3.8128e+000  6.5209e+000 56966 82116,82583,82168
 1.8000e+000 83236 -7.8403e+001 -3.5545e+001 -3.2676e+001 56304 82893,82945,82919
 1.8000e+000 83213 -5.2164e+001 -3.1694e+001 -2.1926e+001 56304 83259,82945,82893
 1.8000e+000 83190 -3.4052e+001 -8.7305e+000 -1.1208e+001 56304 83259,82893,83049
 1.8000e+000 83167 -1.6525e+001  1.4145e+001  1.2593e+000 56304 82971,83049,83023
 1.8000e+000 83144 -2.5534e+001  6.4227e+000 -6.8833e+000 56304 82815,83049,82893
 1.8000e+000 83121 -2.5634e+001 -6.4839e+000 -9.0419e+000 56304 82815,82893,82867
 1.8000e+000 83098 -1.9453e+001 -7.3354e+000  1.0024e+000 56304 82971,83023,82997
 1.8000e+000 83075 -1.4545e+001  5.4070e-001 -5.7231e-001 56304 82815,82867,82841
 1.8000e+000 83285 -6.1983e+001  2.6267e-001 -8.8388e+000 56304 82971,82945,83259
 1.8000e+000 83308 -4.9844e+001  1.0005e+001  1.8691e+000 56304 82971,83259,83049
 1.8000e+000 83556 -5.9283e+001 -5.6303e+001  3.1836e+000 55964 83357,83461,83435
 1.8000e+000 83533 -5.0439e+001 -5.1856e+001  6.7157e+000 55964 83331,83461,83357
 1.8000e+000 83510 -2.9226e+001 -4.6752e+001  3.3002e+000 55964 83357,83435,83383
 1.8000e+000 83487 -5.7770e+001 -6.1288e+001 -2.6707e+000 55964 83383,83435,83409
 1.8000e+000 83706 -7.3288e+001 -4.3774e+001 -7.7099e+000 55503 83579,83631,83605
 1.8000e+000 83683 -1.0525e+002 -3.8354e+001 -4.1154e+000 55503 83579,83657,83631
 1.8000e+000 83907 -5.7734e+001 -4.0136e+001 -1.5251e+000 55156 83757,83835,83809
 1.8000e+000 83884 -5.5579e+001 -3.4988e+001 -1.7044e+000 55156 83731,83835,83757
 1.8000e+000 83861 -7.3849e+001 -3.6693e+001 -3.1288e+000 55156 83757,83809,83783
 1.8000e+000 84240 -5.8249e+001 -2.2853e+001  6.0901e+000 54652 84093,84145,84119
 1.8000e+000 84217 -8.7759e+001 -2.2998e+001  2.0043e+001 54652 84041,84145,84093
 1.8000e+000 84194 -9.4837e+001 -1.4506e+001  8.2724e+000 54652 84015,84145,84041
 1.8000e+000 84171 -1.4582e+002 -4.5291e+001  2.8307e+001 54652 84041,84093,84067
 1.8000e+000 84618 -3.0413e+001 -6.5247e+001  1.5083e+001 53926 84396,84500,84474
 1.8000e+000 84595 -2.9535e+001 -7.2062e+001  1.5890e+001 53926 84344,84500,84396
 1.8000e+000 84572 -3.6983e+001 -9.1000e+001  1.4605e+001 53926 84344,84396,84370
 1.8000e+000 84549 -3.2544e+001 -5.9269e+001 -3.2974e+000 53926 84396,84474,84422
 1.8000e+000 84526 -5.8889e+001 -3.3578e+001 -5.9176e+000 53926 84422,84474,84448
 1.8000e+000 85350 -1.0924e+002 -4.9344e+001 -1.1954e+001 53586 85373,84880,85088
 1.8000e+000 85327 -5.9178e+001 -4.9785e+001 -1.1368e+001 53586 84880,85114,85088
 1.8000e+000 85304 -6.4779e+001 -2.6357e+001  8.7994e-001 53586 85373,85088,85062
 1.8000e+000 85281 -1.4057e+002 -6.9030e+001  5.0176e+001 53586 85010,85062,85036
 1.8000e+000 85258 -1.3009e+002 -2.2747e+001  1.0645e+001 53586 85445,85010,84958
 1.8000e+000 85235 -5.6151e+001  5.0864e-001 -6.6746e+000 53586 85445,84958,84906
 1.8000e+000 85212 -9.7826e+001 -2.9563e+001 -1.4235e-001 53586 84958,85010,84984
 1.8000e+000 85189 -7.9373e+001 -1.6604e+001 -1.8572e+001 53586 84906,84958,84932
 1.8000e+000 85166 -5.5695e+001 -5.1667e+001 -9.7700e+000 53586 84880,85140,85114
 1.8000e+000 85399 -1.1854e+002 -2.9666e+001  3.2125e+001 53586 84906,84880,85373
 1.8000e+000 85422 -8.3642e+001 -1.0221e+001  3.4755e+001 53586 85517,85373,85062
 1.8000e+000 85471 -1.3373e+002 -3.2895e+001  5.3582e+001 53586 85062,85010,85445
 1.8000e+000 85494 -8.4299e+001 -1.6031e+000  3.3883e+001 53586 85517,85062,85445
 1.8000e+000 85543 -8.3231e+001 -2.3081e+001  3.3345e+001 53586 84906,85373,85517
 1.8000e+000 85566 -8.4669e+001 -1.5572e+001  3.3539e+001 53586 84906,85517,85445
 1.8000e+000 86072 -3.2247e+001 -1.9452e+001 -6.5254e+000 53182 86095,85853,85775
 1.8000e+000 86049 -3.5763e+001 -1.5183e+001 -5.0715e+000 53182 86095,85775,85931
 1.8000e+000 86026 -3.2606e+001 -1.6672e+001 -1.5385e+000 53182 86167,85879,85853
 1.8000e+000 86003 -3.0237e+001 -1.7347e+001  2.9321e+000 53182 85775,85827,85801
 1.8000e+000 85980 -3.1626e+001 -2.3127e+001 -1.9016e+000 53182 85775,85853,85827
 1.8000e+000 85957 -2.6018e+001 -1.2224e+001 -1.7687e+000 53182 85749,85931,85775
 1.8000e+000 86121 -3.3123e+001 -1.5385e+001 -4.6662e+000 53182 86167,85853,86095
 1.8000e+000 86144 -4.5034e+001 -1.8891e+001 -7.8330e+000 53182 85905,86095,85931
 1.8000e+000 86193 -3.3914e+001 -1.8382e+001 -3.0698e+000 53182 85905,85879,86167
 1.8000e+000 86216 -3.6067e+001 -2.1279e+001 -6.4191e+000 53182 85905,86167,86095
 1.8000e+000 86673 -2.4748e+001 -1.2939e+000  8.1382e+000 52778 86477,86529,86503
 1.8000e+000 86650 -2.2948e+001 -5.1462e+000  4.4070e+000 52778 86425,86529,86477
 1.8000e+000 86627 -2.5720e+001 -7.8716e+000  6.0280e+000 52778 86425,86477,86451
 1.8000e+000 86604 -1.4625e+001 -2.0872e+000  6.8903e+000 52778 86399,86529,86425
 1.8000e+000 86581 -3.6929e+000  3.8176e+000  3.6703e+000 52778 86399,86555,86529
 1.8000e+000 87258 -1.8774e+001  1.9263e+000  2.9616e+000 52238 87281,86987,86961
 1.8000e+000 87235 -1.6567e+001 -1.0406e+000 -9.4419e-001 52238 87281,86961,87117
 1.8000e+000 87212 -4.5130e+000 -2.4347e+000  5.1520e+000 52238 86935,87117,86961
 1.8000e+000 87189 -2.2492e+001  3.2083e-001  1.6607e+000 52238 87065,87117,87091
 1.8000e+000 87166 -1.8900e+001 -1.2310e+001  3.9323e+000 52238 86987,87065,87039
 1.8000e+000 87143 -2.2215e+001 -1.7645e+001  7.6706e+000 52238 86987,87039,87013
 1.8000e+000 87307 -2.2162e+001 -5.2819e+000  5.4290e+000 52238 87065,86987,87281
 1.8000e+000 87330 -1.7911e+001 -3.2853e+000  1.0701e+000 52238 87065,87281,87117
 1.8000e+000 87610 -4.9634e+001  3.7438e+000  1.0273e+000 51834 87434,87512,87460
 1.8000e+000 87587 -3.7679e+001  2.0146e+001  2.6586e+001 51834 87434,87538,87512
 1.8000e+000 87564 -8.5442e+001 -2.3554e+001 -1.4093e+001 51834 87633,87460,87512
 1.8000e+000 87659 -1.2052e+002 -3.8598e+001 -1.5667e+001 51834 87486,87460,87633
 1.8000e+000 88187 -9.2917e+001 -3.6679e+001  7.8811e+000 51266 87864,87942,87890
 1.8000e+000 88164 -9.3190e+001 -1.0964e+001  5.9853e+000 51266 87864,88020,87942
 1.8000e+000 88141 -1.4616e+002 -4.7881e+001 -2.3772e+001 51266 87942,88020,87968
 1.8000e+000 88118 -1.2905e+002 -4.6303e+001  2.7623e+001 51266 87864,88046,88020
 1.8000e+000 88095 -9.6187e+001 -9.6809e+000 -3.6075e+000 51266 87968,88020,87994
 1.8000e+000 88072 -7.4928e+001 -4.2429e+001 -7.7979e+000 51266 87890,87942,87916
 1.8000e+000 88644 -7.7059e+001 -3.3884e+001 -1.4084e+001 50754 88370,88500,88396
 1.8000e+000 88621 -6.8798e+001 -1.7853e+001 -1.9303e+001 50754 88370,88526,88500
 1.8000e+000 88598 -5.3579e+001 -8.6806e+000  7.6985e+000 50754 88396,88500,88422
 1.8000e+000 88575 -5.9546e+001 -1.8813e+001  4.8570e+000 50754 88422,88500,88474
 1.8000e+000 88552 -1.1394e+002 -5.1739e+001 -1.6860e+001 50754 88422,88474,88448
 1.8000e+000 88914 -1.0590e+002 -7.3534e+001  1.4587e+000 50442 88715,88793,88741
 1.8000e+000 88891 -9.5462e+001 -8.9585e+001  2.1247e+000 50442 88715,88819,88793
 1.8000e+000 88868 -1.0474e+002 -1.0672e+002 -5.2698e+000 50442 88689,88819,88715
 1.8000e+000 88845 -1.1213e+002 -9.4979e+001 -3.8074e+001 50442 88741,88793,88767
 1.8000e+000 89294 -1.2158e+002 -7.2441e+001 -8.1817e+000 49938 89317,89046,89020
 1.8000e+000 89271 -1.1292e+002 -7.9372e+001 -1.3044e+001 49938 89317,89020,89150
 1.8000e+000 89248 -9.1661e+001 -6.4688e+001 -1.3480e+000 49938 89072,89150,89098
 1.8000e+000 89225 -1.2756e+002 -9.4307e+001 -1.4582e+000 49938 89020,89176,89150
 1.8000e+000 89202 -7.1629e+001 -4.6980e+001 -1.3793e+001 49938 89098,89150,89124
 1.8000e+000 89343 -8.7484e+001 -1.7044e+001  6.4487e+000 49938 89072,89046,89317
 1.8000e+000 89366 -1.1592e+002 -7.4093e+001 -9.2633e+000 49938 89072,89317,89150
 1.8000e+000 89823 -7.0550e+001 -4.3990e+001  2.0113e+000 49384 89601,89705,89679
 1.8000e+000 89800 -5.9281e+001 -3.0932e+001  1.0305e+001 49384 89549,89705,89601
 1.8000e+000 89777 -4.1446e+001 -1.8999e+001  3.6510e+000 49384 89549,89601,89575
 1.8000e+000 89754 -5.7536e+001 -5.0353e+001  2.0164e-002 49384 89601,89679,89627
 1.8000e+000 89731 -3.8332e+001 -1.0314e+001 -6.6260e+000 49384 89627,89679,89653
 1.8000e+000 90329 -4.2479e+001 -2.9815e+001  5.2717e+000 48894 90058,90110,90084
 1.8000e+000 90306 -5.8380e+001 -3.5730e+001  2.2011e+001 48894 90058,90162,90110
 1.8000e+000 90283 -8.0045e+001 -2.6541e+001  1.5923e+001 48894 90032,90162,90058
 1.8000e+000 90260 -4.8343e+001 -9.3098e+000  2.4098e+000 48894 90006,90162,90032
 1.8000e+000 90237 -3.2548e+001 -7.1182e+000  9.8091e+000 48894 90110,90162,90136
 1.8000e+000 90214 -6.2916e+001 -1.3045e+001 -1.3681e-001 48894 90006,90188,90162
 1.8000e+000 90884 -1.0498e+002 -6.6039e+001  2.1679e+001 48490 90564,90642,90616
 1.8000e+000 90861 -1.1193e+002 -2.8848e+001  1.4062e-001 48490 90564,90694,90642
 1.8000e+000 90838 -1.3033e+002 -4.3356e+001 -9.7768e+000 48490 90538,90694,90564
 1.8000e+000 90815 -1.6331e+002 -5.4839e+001 -6.0369e+000 48490 90538,90720,90694
 1.8000e+000 90792 -9.3267e+001 -3.2999e+001  2.5394e+001 48490 90564,90616,90590
 1.8000e+000 90769 -1.1599e+002 -7.3541e+001 -4.1154e+001 48490 90642,90694,90668
 1.8000e+000 90746 -1.2798e+002 -4.0050e+001 -3.7100e+000 48490 90512,90720,90538
 1.8000e+000 91034 -7.7581e+001  8.6733e+000 -2.3288e+001 48086 91057,90959,90933
 1.8000e+000 91011 -7.6693e+001 -1.0902e+001 -1.1539e+001 48086 91129,91057,90933
 1.8000e+000 91083 -1.0138e+002 -1.6313e+000 -2.0174e+001 48086 90985,90959,91057
 1.8000e+000 91106 -7.4570e+001 -2.0325e+001 -6.8337e+000 48086 90985,91057,90907
 1.8000e+000 91155 -4.3434e+001 -2.6272e+000 -1.5035e+001 48086 90907,91057,91129
 1.8000e+000 91791 -6.8900e+001 -1.1919e+001 -6.6282e+000 47518 92030,91814,91523
 1.8000e+000 91768 -3.5835e+001  4.3910e+000 -7.2041e+000 47518 91958,91814,91471
 1.8000e+000 91745 -4.7735e+001  4.9309e+001  3.3414e+000 47518 91886,91575,91523
 1.8000e+000 91722 -4.2004e+001 -1.5046e+001 -2.4368e+000 47518 91958,91471,91419
 1.8000e+000 91699 -9.4592e+001  7.2273e+000 -1.8108e+001 47518 92030,91523,91497
 1.8000e+000 91676 -9.0091e+001  4.0970e+001 -7.6970e+000 47518 91523,91575,91549
 1.8000e+000 91653 -3.4053e+001 -3.2267e+001 -4.4968e+000 47518 91419,91471,91445
 1.8000e+000 91840 -5.9089e+001  2.6141e+001 -1.0490e+001 47518 91886,91523,91814
 1.8000e+000 91863 -5.6542e+001 -1.1703e+001  1.7184e+001 47518 91601,91814,91627
 1.8000e+000 91912 -3.1436e+001  6.0656e+001  3.6326e+001 47518 91601,91575,91886
 1.8000e+000 91935 -4.5077e+001  1.0285e+001  2.3888e+001 47518 91601,91886,91814
 1.8000e+000 91984 -4.0165e+001 -1.2193e+001  1.2987e+000 47518 91627,91814,91958
 1.8000e+000 92007 -3.9674e+001 -2.2237e+001  5.7063e+000 47518 91627,91958,91419
 1.8000e+000 92056 -7.9865e+001 -3.2677e+001 -2.6100e+001 47518 91471,91814,92030
 1.8000e+000 92079 -1.0139e+002 -2.1237e+001 -3.9659e+001 47518 91471,92030,91497
 1.8000e+000 92229 -2.0533e+001 -2.2852e+000 -2.1701e+001 47128 92252,92128,92102
 1.8000e+000 92206 -4.5677e+001 -2.4750e+001 -5.2852e+000 47128 92324,92252,92102
 1.8000e+000 92278 -3.4443e+001 -2.9711e+001 -5.4253e+000 47128 92454,92252,92154
 1.8000e+000 92301 -4.6292e+001 -2.2501e+001  6.8653e+000 47128 92154,92252,92180
 1.8000e+000 92350 -2.4815e+001 -1.3970e+001  1.3379e+000 47128 92180,92252,92324
 1.8000e+000 92480 -4.5187e+001 -6.9096e+000 -4.1358e+000 47128 92128,92252,92454
 1.8000e+000 93340 -1.1032e+002 -2.1307e+001  1.1238e+001 46838 93363,92977,92873
 1.8000e+000 93317 -1.3458e+002 -3.1165e+001  9.1154e+000 46838 93507,93363,92873
 1.8000e+000 93294 -1.2210e+002 -6.4304e+001 -1.0996e+001 46838 93435,93003,92977
 1.8000e+000 93271 -1.3738e+002 -3.8973e+001  5.2285e+000 46838 93507,92873,92847
 1.8000e+000 93248 -1.1337e+002 -3.5692e+001 -7.9173e+000 46838 93579,93029,93003
 1.8000e+000 93225 -8.4371e+001 -3.6627e+001  2.5468e+000 46838 92873,92951,92925
 1.8000e+000 93202 -8.6984e+001 -4.0678e+001  2.6254e-001 46838 92873,92977,92951
 1.8000e+000 93179 -1.5139e+002 -4.4262e+001  1.8005e+001 46838 93055,93107,93081
 1.8000e+000 93156 -1.8076e+002 -6.9995e+001  3.6027e+000 46838 92821,93107,92847
 1.8000e+000 93133 -8.4666e+001 -6.1135e+001  9.5465e+000 46838 92873,92925,92899
 1.8000e+000 93389 -1.2781e+002 -4.1801e+001 -6.4456e-002 46838 93435,92977,93363
 1.8000e+000 93412 -1.2193e+002 -1.7440e+001  6.4465e+000 46838 93055,93363,93107
 1.8000e+000 93461 -1.1451e+002 -3.7765e+001 -8.3986e+000 46838 93579,93003,93435
 1.8000e+000 93484 -1.2218e+002 -1.8933e+001 -3.6910e+000 46838 93055,93435,93363
 1.8000e+000 93533 -1.3037e+002 -4.3586e+001  9.3207e+000 46838 93107,93363,93507
 1.8000e+000 93556 -1.2948e+002 -4.8579e+001  8.4377e+000 46838 93107,93507,92847
 1.8000e+000 93605 -1.1165e+002 -3.6082e+001 -5.1244e+000 46838 93055,93029,93579
 1.8000e+000 93628 -1.1267e+002 -3.7828e+001 -5.5727e+000 46838 93055,93579,93435
 1.8000e+000 93979 -9.0343e+001  3.3426e+000  1.1835e+001 46476 93780,93884,93858
 1.8000e+000 93956 -9.9715e+001 -2.8110e+001  1.0133e+001 46476 93754,93884,93780
 1.8000e+000 93933 -2.0161e+002 -1.3271e+001 -3.9878e+000 46476 93806,93858,93832
 1.8000e+000 93910 -1.9823e+002 -4.0638e+001  1.2614e+001 46476 93780,93858,93806
 1.8000e+000 94515 -4.6364e+001 -1.3285e+001 -2.0913e+000 46072 94345,94397,94371
 1.8000e+000 94492 -3.2564e+001 -8.7172e+000  5.1785e+000 46072 94267,94397,94345
 1.8000e+000 94469 -1.5795e+001 -2.2834e+000 -4.2381e+000 46072 94241,94397,94267
 1.8000e+000 94446 -1.6517e+001 -1.6352e+000 -5.6710e+000 46072 94293,94345,94319
 1.8000e+000 94423 -3.1922e+001 -6.0697e-001  5.5396e+000 46072 94267,94345,94293
 1.8000e+000 95149 -5.3246e+001 -1.1245e+001 -8.1963e+000 45346 94803,94881,94855
 1.8000e+000 95126 -4.4794e+001 -7.0570e+000 -9.8625e+000 45346 94803,94959,94881
 1.8000e+000 95103 -3.3395e+001  1.1445e+000 -5.3322e+000 45346 95172,94933,94907
 1.8000e+000 95080 -3.9751e+001 -1.0043e+001 -2.5668e+000 45346 95172,94907,94881
 1.8000e+000 95057 -5.2900e+001 -1.5998e+001 -1.3961e+001 45346 94803,94985,94959
 1.8000e+000 95034 -5.7006e+001 -5.0638e+000 -4.7644e+000 45346 94803,94855,94829
 1.8000e+000 95011 -5.1066e+001 -1.5616e+001 -2.8546e+001 45346 94777,94985,94803
 1.8000e+000 95198 -4.0186e+001  6.9746e+000 -4.4567e+000 45346 94959,94933,95172
 1.8000e+000 95221 -4.2112e+001  1.4844e+000 -3.3689e+000 45346 94959,95172,94881
 1.8000e+000 95776 -2.8440e+001 -1.5133e+000  2.3127e+001 44720 95799,95560,95534
 1.8000e+000 95753 -3.3555e+001 -9.1681e+000  2.5621e+001 44720 95799,95534,95482
 1.8000e+000 95730 -3.9887e+001 -1.7509e+000  1.9792e+001 44720 95943,95871,95430
 1.8000e+000 95707 -4.3646e+001  7.7849e+000  2.1238e+001 44720 95943,95430,95404
 1.8000e+000 95684 -9.3507e+001 -1.7435e+001  2.6419e+001 44720 95430,95482,95456
 1.8000e+000 95661  5.9419e+000  8.9103e+000  2.9940e+001 44720 95482,95534,95508
 1.8000e+000 95638 -3.5835e+001  1.5093e+001  2.1918e+001 44720 95404,95612,95586
 1.8000e+000 95825 -3.1625e+001  1.5333e+000  2.4155e+001 44720 95586,95560,95799
 1.8000e+000 95848 -2.8365e+001  3.1125e+000  2.0212e+001 44720 95871,95586,95799
 1.8000e+000 95897 -3.7687e+001 -1.9849e+000  1.8005e+001 44720 95482,95430,95871
 1.8000e+000 95920 -3.9504e+001 -2.3869e+000  2.2310e+001 44720 95482,95871,95799
 1.8000e+000 95969 -3.2789e+001  1.0234e+001  1.6737e+001 44720 95586,95871,95943
 1.8000e+000 95992 -3.9985e+001  1.5310e+001  1.9928e+001 44720 95586,95943,95404
 1.8000e+000 96449 -2.1143e+001 -5.7204e+000  4.3223e+000 44202 96544,96472,96227
 1.8000e+000 96426 -2.5570e+001 -1.8480e+001  6.2277e+000 44202 96472,96175,96331
 1.8000e+000 96403 -3.6607e+001  2.8266e+000  2.6150e+000 44202 96544,96227,96201
 1.8000e+000 96380  1.4986e-001 -6.7744e-002 -1.8558e+000 44202 96253,96305,96279
 1.8000e+000 96357 -1.4702e+001 -1.3573e+000  6.6651e+000 44202 96227,96305,96253
 1.8000e+000 96498 -2.2546e+001 -1.2458e+001  3.2219e+000 44202 96305,96227,96472
 1.8000e+000 96521 -2.1011e+001 -9.0350e+000  8.6056e+000 44202 96305,96472,96331
 1.8000e+000 96570 -3.5820e+001 -1.9334e+001 -1.4037e+000 44202 96175,96472,96544
 1.8000e+000 96593 -4.6450e+001 -4.8005e+000 -7.3661e-001 44202 96175,96544,96201
 1.8000e+000 96971 -1.3536e+002 -1.0832e+002  1.1779e+001 43754 96994,96749,96697
 1.8000e+000 96948 -1.2649e+002 -1.1464e+002  1.6873e+001 43754 96994,96697,96853
 1.8000e+000 96925 -1.2505e+002 -9.8038e+001  6.8601e+000 43754 96697,96749,96723
 1.8000e+000 96902 -8.9801e+001 -6.3198e+001  8.7550e-001 43754 96775,96853,96827
 1.8000e+000 96879 -3.4889e+001 -5.4392e+001  1.0169e+001 43754 96775,96827,96801
 1.8000e+000 97020 -1.2957e+002 -9.8397e+001  1.5460e+001 43754 96775,96749,96994
 1.8000e+000 97043 -1.2158e+002 -1.0868e+002  1.9692e+001 43754 96775,96994,96853
 1.8000e+000 97291 -7.2588e+001 -1.3023e+001 -8.0818e+000 43364 97314,97144,97118
 1.8000e+000 97268 -8.3476e+001 -2.7555e+001 -1.4454e+001 43364 97314,97118,97092
 1.8000e+000 97245 -6.5279e+001 -3.1444e+001 -9.4851e+000 43364 97386,97196,97170
 1.8000e+000 97222 -8.1114e+001 -4.4496e+001 -1.7205e+001 43364 97066,97196,97092
 1.8000e+000 97340 -7.4112e+001 -3.1051e+001 -6.5515e+000 43364 97170,97144,97314
 1.8000e+000 97363 -6.7443e+001 -2.9849e+001 -1.1038e+001 43364 97386,97170,97314
 1.8000e+000 97412 -6.6411e+001 -3.3477e+001 -1.2450e+001 43364 97092,97196,97386
 1.8000e+000 97435 -7.0360e+001 -3.4006e+001 -1.4306e+001 43364 97092,97386,97314
 1.8000e+000 97788 -5.1133e+001  2.8737e+000 -1.0523e+000 42960 97563,97667,97589
 1.8000e+000 97765 -9.1627e+001 -2.6490e+001  1.2152e+001 42960 97563,97693,97667
 1.8000e+000 97742 -1.2013e+002  1.9813e+000 -3.8408e+000 42960 97589,97641,97615
 1.8000e+000 97719 -1.1874e+002 -1.9165e+001 -5.9442e+000 42960 97589,97667,97641
 1.8000e+000 98215 -5.6916e+001 -5.6957e+001 -2.2717e+001 42563 97918,98074,98048
 1.8000e+000 98192 -3.5154e+001 -2.8069e+001 -3.0058e+000 42563 97892,98074,97918
 1.8000e+000 98169 -6.5486e+001 -2.1381e+001 -3.3523e+001 42563 98238,97944,97918
 1.8000e+000 98146 -7.1291e+001 -3.4693e+001 -2.7884e+001 42563 98238,97918,98048
 1.8000e+000 98123 -9.8506e+001 -1.9818e+001 -1.2466e+001 42563 97944,98022,97996
 1.8000e+000 98100 -8.9660e+001  2.7933e+000 -1.0159e+001 42563 97944,97996,97970
 1.8000e+000 98264 -7.1836e+001 -3.1088e+001 -2.6821e+001 42563 98022,97944,98238
 1.8000e+000 98287 -7.2993e+001 -3.5993e+001 -2.1582e+001 42563 98022,98238,98048
 1.8000e+000 98616 -4.5093e+001 -3.4187e+001 -5.2030e+000 42251 98443,98521,98469
 1.8000e+000 98593 -5.2999e+001 -2.9549e+001  4.0162e-001 42251 98417,98521,98443
 1.8000e+000 98570 -5.2318e+001 -3.0042e+001 -1.3842e+001 42251 98391,98521,98417
 1.8000e+000 98547 -4.6916e+001 -2.4944e+001 -2.1714e+001 42251 98469,98521,98495
 1.8000e+000 98886 -2.1549e+002 -9.9341e+001 -6.4850e+000 41847 98661,98765,98687
 1.8000e+000 98863 -2.2977e+002 -1.3903e+002  1.7795e+001 41847 98661,98791,98765
 1.8000e+000 98840 -2.4966e+002 -1.2245e+002 -2.1171e+001 41847 98687,98765,98739
 1.8000e+000 98817 -1.7771e+002 -9.2987e+001 -2.4056e+001 41847 98687,98739,98713
 1.8000e+000 99394 -5.4377e+001  1.0837e+000  7.5482e+000 41236 99417,99149,99123
 1.8000e+000 99371 -7.3793e+001 -1.1920e+001  1.4261e+000 41236 99417,99123,99097
 1.8000e+000 99348 -6.5493e+001 -1.6900e+001 -2.6647e+000 41236 99489,99201,99149
 1.8000e+000 99325 -8.1699e+001 -3.1002e+001 -1.5491e+001 41236 99149,99201,99175
 1.8000e+000 99302 -9.6367e+001 -1.1185e+001 -8.0347e+000 41236 99097,99253,99227
 1.8000e+000 99279 -1.4229e+002 -3.9248e+001 -1.9816e+001 41236 99071,99253,99097
 1.8000e+000 99443 -6.5073e+001 -1.4401e+001 -2.1056e+000 41236 99489,99149,99417
 1.8000e+000 99466 -6.7288e+001 -1.1077e+001 -4.8462e+000 41236 99227,99417,99097
 1.8000e+000 99515 -6.8171e+001 -1.4051e+001 -4.8052e+000 41236 99227,99201,99489
 1.8000e+000 99538 -6.6845e+001 -1.0249e+001 -4.3907e+000 41236 99227,99489,99417
 1.8000e+000 100044  7.3299e+000  3.3136e+001  3.3338e+001 40732 99721,99773,99747
 1.8000e+000 100021 -3.5534e+001  2.2805e+001  1.1705e+001 40732 99721,99799,99773
 1.8000e+000 99998 -2.7775e+001  3.4107e+000  7.3093e+000 40732 99721,99903,99799
 1.8000e+000 99975 -1.1910e+001 -2.0151e+000 -7.9291e-001 40732 100067,99877,99851
 1.8000e+000 99952 -1.9804e+001 -4.6577e+000  3.5351e+000 40732 100067,99851,99799
 1.8000e+000 99929 -2.4184e+001 -2.8269e+000 -1.2774e+000 40732 99799,99851,99825
 1.8000e+000 100093 -1.9405e+001  3.3633e+000  1.4669e+000 40732 99903,99877,100067
 1.8000e+000 100116 -2.9955e+001 -2.3666e+000  6.6097e+000 40732 99903,100067,99799
 1.8000e+000 100622 -1.0817e+002 -2.3618e+001  9.7854e+000 40278 100645,100455,100429
 1.8000e+000 100599 -1.2176e+002 -3.3536e+001  1.4130e+001 40278 100717,100645,100429
 1.8000e+000 100576 -1.4264e+002 -4.2754e+001 -1.2687e+000 40278 100717,100429,100377
 1.8000e+000 100553 -1.0238e+002 -5.0202e+001  9.8371e+000 40278 100789,100325,100481
 1.8000e+000 100530 -1.1232e+002 -2.7895e+001  1.6859e+001 40278 100299,100481,100325
 1.8000e+000 100507 -1.0571e+002 -3.4242e+001  1.7335e+000 40278 100377,100429,100403
 1.8000e+000 100671 -1.1232e+002 -1.4470e+000  1.6363e+001 40278 100481,100455,100645
 1.8000e+000 100694 -1.1208e+002 -3.9109e+001 -5.4940e-001 40278 100789,100481,100645
 1.8000e+000 100743 -1.3309e+002 -4.1558e+001 -2.1570e+001 40278 100351,100645,100717
 1.8000e+000 100766 -1.7912e+002 -5.8825e+001 -3.6162e+001 40278 100351,100717,100377
 1.8000e+000 100815 -9.2834e+001 -4.5838e+001 -2.0198e+000 40278 100351,100325,100789
 1.8000e+000 100838 -9.4063e+001 -2.3990e+001 -1.3238e+001 40278 100351,100789,100645
 1.8000e+000 101265 -7.3441e+001 -2.6345e+001 -2.9208e+000 39824 101288,101046,100994
 1.8000e+000 101242 -8.4119e+001 -3.6672e+001 -8.0691e+000 39824 101288,100994,100968
 1.8000e+000 101219 -1.0974e+002 -3.1571e+001  2.9491e-001 39824 100942,101124,100968
 1.8000e+000 101196 -5.5911e+001 -2.2820e+001 -7.7243e+000 39824 101046,101124,101072
 1.8000e+000 101173 -6.4848e+001 -3.2343e+001 -1.8791e+001 39824 100994,101046,101020
 1.8000e+000 101150 -2.8583e+001 -2.6306e+001 -5.2101e+000 39824 101072,101124,101098
 1.8000e+000 101314 -6.8202e+001 -3.1739e+001  1.5775e+000 39824 101124,101046,101288
 1.8000e+000 101337 -7.3285e+001 -3.4181e+001 -1.6740e+000 39824 101124,101288,100968
 1.8000e+000 101585 -8.9569e+001 -8.4741e+001  4.3772e+001 39070 101608,101464,101412
 1.8000e+000 101562 -8.6162e+001 -6.3498e+001  4.2164e+001 39070 101608,101412,101360
 1.8000e+000 101539 -9.7330e+001 -8.5659e+001  4.5069e+001 39070 101412,101464,101438
 1.8000e+000 101516 -8.7999e+001 -7.0184e+001  4.2509e+001 39070 101360,101412,101386
 1.8000e+000 101634 -9.6477e+001 -7.7490e+001  2.9155e+001 39070 101490,101464,101608
 1.8000e+000 101657 -8.7995e+001 -4.8571e+001  2.7515e+001 39070 101490,101608,101360
 1.8000e+000 101856 -1.9745e+002 -6.5212e+001 -1.0397e+001 38730 101706,101758,101732
 1.8000e+000 101833 -1.9266e+002 -1.0615e+002  4.0246e+000 38730 101706,101784,101758
 1.8000e+000 101810 -2.3092e+002 -1.3043e+002 -7.8270e+000 38730 101680,101784,101706
 1.8000e+000 102106 -7.3152e+001 -2.6810e+001  1.2601e+000 38326 101881,101959,101907
 1.8000e+000 102083 -7.8873e+001 -2.6963e+001  9.5527e+000 38326 101881,101985,101959
 1.8000e+000 102060 -5.0444e+001 -2.9687e+001  1.3580e+001 38326 101881,102011,101985
 1.8000e+000 102037 -1.0072e+002 -2.7288e+001 -1.8398e+000 38326 101907,101959,101933
 1.8000e+000 102258 -9.2133e+001 -6.0294e+001  4.3644e+000 38036 102281,102157,102131
 1.8000e+000 102235 -8.8854e+001 -3.8875e+001 -6.4062e+000 38036 102281,102131,102209
 1.8000e+000 102307 -7.9534e+001 -7.9671e+001  3.2936e+000 38036 102183,102157,102281
 1.8000e+000 102330 -7.9549e+001 -6.5115e+001 -1.0295e+001 38036 102183,102281,102209
 1.8000e+000 102663 -3.5714e+001 -1.2227e+001  5.3152e+000 37596 102438,102542,102464
 1.8000e+000 102640 -2.5484e+001 -9.4334e+000  2.3602e+000 37596 102438,102568,102542
 1.8000e+000 102617 -3.2061e+001  2.2516e+000  1.5427e+001 37596 102490,102542,102516
 1.8000e+000 102594 -2.8402e+001 -6.6807e+000  8.2982e+000 37596 102464,102542,102490
 1.8000e+000 102862 -6.6024e+001 -8.3642e+000  2.9018e+000 37192 102686,102764,102712
 1.8000e+000 102839 -6.4755e+001 -8.3666e+000  1.0358e+000 37192 102686,102790,102764
 1.8000e+000 102816 -6.9519e+001 -2.8209e+001  1.1980e+001 37192 102712,102764,102738
 1.8000e+000 103110 -7.2416e+001 -2.1661e+001 -9.5816e+000 36609 102911,102963,102937
 1.8000e+000 103087 -4.9968e+001 -2.0175e+001 -4.5641e+000 36609 102911,102989,102963
 1.8000e+000 103064 -6.2782e+001 -2.1707e+001 -4.6559e+000 36609 102885,102989,102911
 1.8000e+000 103041 -6.1842e+001 -1.0725e+001 -1.1124e+001 36609 102885,103015,102989
 1.8000e+000 103718 -1.7905e+001 -2.6160e+001  1.4183e+001 36131 103323,103375,103349
 1.8000e+000 103695 -2.1027e+001 -1.3046e+001  1.0091e+001 36131 103297,103375,103323
 1.8000e+000 103672 -2.6260e+001 -2.1328e+001  1.4758e+001 36131 103297,103505,103375
 1.8000e+000 103649 -4.2019e+001 -2.5460e+001  1.5500e+001 36131 103741,103479,103401
 1.8000e+000 103626 -4.9388e+001 -4.2207e+001 -8.2128e-001 36131 103741,103401,103375
 1.8000e+000 103603 -4.3483e+001 -1.2559e+001  1.5538e+001 36131 103401,103479,103427
 1.8000e+000 103580 -2.4523e+001 -7.1919e+000  2.3434e+000 36131 103297,103531,103505
 1.8000e+000 103557 -3.2352e+001 -1.6090e+000 -3.1363e+000 36131 103427,103479,103453
 1.8000e+000 103767 -2.7359e+001 -8.6323e+000  2.7390e+001 36131 103505,103479,103741
 1.8000e+000 103790 -3.6690e+001 -2.4842e+001  1.0709e+001 36131 103505,103741,103375
 1.8000e+000 103989 -1.1493e+002 -3.8585e+001 -1.1689e+000 35791 103839,103917,103891
 1.8000e+000 103966 -1.0388e+002 -3.9840e+001  6.1738e-001 35791 103813,103917,103839
 1.8000e+000 103943 -9.9856e+001 -1.4341e+001 -1.5186e+001 35791 103839,103891,103865
 1.8000e+000 104188 -8.3854e+001 -4.0845e+001 -1.0140e+001 35444 104038,104090,104064
 1.8000e+000 104165 -8.6661e+001 -3.8922e+001 -5.2411e+000 35444 104038,104116,104090
 1.8000e+000 104142 -1.0126e+002 -7.4169e+001 -1.3820e+001 35444 104012,104116,104038
 1.8000e+000 104487 -8.4634e+001 -2.7387e+001 -3.6144e+000 34990 104265,104317,104291
 1.8000e+000 104464 -8.4488e+001 -2.5250e+001 -5.7089e+000 34990 104510,104317,104265
 1.8000e+000 104441 -7.9447e+001 -2.4034e+001 -4.8675e+000 34990 104510,104265,104213
 1.8000e+000 104418 -8.5782e+001 -2.3308e+001  1.6171e+000 34990 104582,104343,104317
 1.8000e+000 104395 -7.0447e+001 -3.5210e+000 -6.8497e+000 34990 104213,104265,104239
 1.8000e+000 104536 -8.6343e+001 -2.3683e+001 -4.4427e+000 34990 104582,104317,104510
 1.8000e+000 104559 -8.1798e+001 -2.7363e+001 -3.7655e+000 34990 104369,104510,104213
 1.8000e+000 104608 -6.9491e+001 -9.8642e+000  7.4194e+000 34990 104369,104343,104582
 1.8000e+000 104631 -7.8486e+001 -2.0281e+001 -1.7420e+000 34990 104369,104582,104510
 1.8000e+000 104783 -1.1394e+002 -4.5785e+001 -1.1732e+001 34700 104938,104806,104682
 1.8000e+000 104760 -1.1105e+002 -6.6271e+001  1.4781e+000 34700 104938,104682,104656
 1.8000e+000 104832 -7.2663e+001 -1.3876e+001  2.5469e+000 34700 104708,104682,104806
 1.8000e+000 104964 -1.3129e+002 -4.6610e+001  3.5951e+000 34700 104734,104806,104938
 1.8000e+000 104987 -1.2785e+002 -6.3466e+001  1.6781e+001 34700 104734,104938,104656
 1.8000e+000 105137 -1.8199e+002 -4.8453e+000  2.2466e-001 34388 105036,105088,105062
 1.8000e+000 105114 -1.7958e+002 -7.7238e+001 -1.1494e+001 34388 105010,105088,105036
 1.8000e+000 105385 -9.1348e+001 -2.3678e+001  6.3377e+000 33734 105408,105186,105160
 1.8000e+000 105362 -9.0941e+001 -2.6528e+001  5.4311e+000 33734 105408,105160,105264
 1.8000e+000 105339 -8.6992e+001 -1.9477e+001  2.5662e+000 33734 105160,105290,105264
 1.8000e+000 105316 -9.8335e+001 -3.0108e+001  2.1246e+001 33734 105186,105238,105212
 1.8000e+000 105434 -9.1152e+001 -2.0825e+001  8.3802e+000 33734 105238,105186,105408
 1.8000e+000 105457 -9.1132e+001 -2.6268e+001  8.4952e+000 33734 105238,105408,105264
 1.8000e+000 105609 -8.2385e+001 -2.6312e+001 -3.7880e+001 33394 105482,105534,105508
 1.8000e+000 105586 -6.9373e+001 -4.7925e+001 -1.7915e+001 33394 105482,105560,105534
 1.8000e+000 105859 -1.3203e+002 -3.7943e+001 -1.5620e+001 33047 105882,105712,105660
 1.8000e+000 105836 -1.4981e+002 -3.5383e+001 -2.5498e+000 33047 105882,105660,105634
 1.8000e+000 105813 -1.0772e+002 -3.8835e+001 -5.3302e+000 33047 105660,105712,105686
 1.8000e+000 105790 -1.1056e+002 -1.7346e+001 -2.1546e+001 33047 105634,105764,105738
 1.8000e+000 105908 -9.1373e+001 -1.6762e+001 -3.0521e+001 33047 105738,105712,105882
 1.8000e+000 105931 -1.3425e+002 -3.5614e+001 -1.3582e+001 33047 105738,105882,105634
 1.8000e+000 106181 -6.0746e+001 -3.0135e+001  1.0096e+001 32543 106204,106060,106008
 1.8000e+000 106158 -5.2220e+001 -3.5394e+001  8.1627e-001 32543 105956,106086,106060
 1.8000e+000 106135 -5.4616e+001 -1.4954e+001  1.0606e+001 32543 106204,106008,105982
 1.8000e+000 106112 -5.8046e+001 -3.7487e+001  9.8245e+000 32543 106008,106060,106034
 1.8000e+000 106230 -5.6809e+001 -3.6120e+001  3.9917e-001 32543 105956,106060,106204
 1.8000e+000 106253 -5.1699e+001 -2.2186e+001  2.5027e-001 32543 105956,106204,105982
 1.8000e+000 106454 -1.0140e+002 -5.2835e+001 -2.6644e+001 31839 106304,106356,106330
 1.8000e+000 106431 -1.1577e+002 -4.7409e+001 -7.1515e+000 31839 106278,106356,106304
 1.8000e+000 106408 -9.7787e+001 -2.8239e+001 -1.4685e+001 31839 106278,106382,106356
 1.8000e+000 106704 -5.3939e+001 -2.0760e+001  5.6720e+000 31534 106505,106583,106557
 1.8000e+000 106681 -6.0172e+001 -2.2409e+001  6.3479e+000 31534 106479,106583,106505
 1.8000e+000 106658 -7.3362e+001 -2.6553e+001  9.2791e+000 31534 106505,106557,106531
 1.8000e+000 106635 -5.9512e+001 -2.2697e+001  7.2500e+000 31534 106479,106609,106583
 1.8000e+000 107108 -1.5938e+002  2.6216e+001 -3.6169e+001 31030 106886,106990,106964
 1.8000e+000 107085 -1.2048e+002 -9.1721e+000 -1.4307e+001 31030 106860,106990,106886
 1.8000e+000 107062 -1.0730e+002 -7.3516e-001 -9.2788e+000 31030 106834,106990,106860
 1.8000e+000 107039 -2.5017e+002 -8.5474e+001  1.9524e+001 31030 106912,106964,106938
 1.8000e+000 107016 -2.6823e+002 -1.7942e+001 -3.2868e+001 31030 106886,106964,106912
 1.8000e+000 107307 -1.7992e+002 -1.2069e+001 -9.0284e+000 30718 107330,107157,107131
 1.8000e+000 107284 -1.5115e+002 -2.6880e+001 -1.5790e+001 30718 107330,107131,107235
 1.8000e+000 107261 -1.3155e+002 -3.1481e+001 -1.3616e+001 30718 107183,107235,107209
 1.8000e+000 107356 -1.5346e+002 -6.9731e+000 -7.2172e-001 30718 107183,107157,107330
 1.8000e+000 107379 -1.2745e+002 -2.4490e+001 -9.8457e+000 30718 107183,107330,107235
 1.8000e+000 107759 -1.0087e+002 -6.5683e+001  1.5945e+001 30264 107782,107615,107537
 1.8000e+000 107736 -9.0235e+001 -4.0888e+001  1.6108e+001 30264 107782,107537,107485
 1.8000e+000 107713 -1.1331e+002 -4.2114e+001  2.0498e+001 30264 107485,107537,107511
 1.8000e+000 107690 -8.2494e+001 -7.3521e+001  1.3816e+001 30264 107537,107615,107589
 1.8000e+000 107667 -7.9167e+001 -7.0855e+001  1.4749e+001 30264 107537,107589,107563
 1.8000e+000 107808 -1.0608e+002 -6.0094e+001 -3.6321e+000 30264 107641,107615,107782
 1.8000e+000 107831 -9.3966e+001 -3.2109e+001 -2.1280e+000 30264 107641,107782,107485
 1.8000e+000 108030 -7.3584e+001 -2.4215e+001  1.1464e+001 29874 108053,107854,107932
 1.8000e+000 108007 -6.3258e+001 -1.8859e+001  8.8287e+000 29874 107854,107958,107932
 1.8000e+000 107984 -7.2297e+001 -1.9422e+001  1.5289e+001 29874 108053,107932,107906
 1.8000e+000 108079 -7.4700e+001 -1.8040e+001  1.2807e+001 29874 107880,107854,108053
 1.8000e+000 108102 -7.4947e+001 -1.3265e+001  1.5318e+001 29874 107880,108053,107906
 1.8000e+000 108433 -6.3941e+001 -3.0708e+001 -7.6619e+000 29484 108234,108338,108312
 1.8000e+000 108410 -9.6358e+001 -3.3652e+001  8.9588e+000 29484 108208,108338,108234
 1.8000e+000 108387 -9.0011e+001 -4.2060e+001 -4.2077e+000 29484 108234,108312,108260
 1.8000e+000 108364 -8.5647e+001 -5.0745e+001 -5.4223e+000 29484 108260,108312,108286
 1.8000e+000 108762 -2.8316e+001 -1.8634e+001  1.5734e+001 29080 108563,108641,108589
 1.8000e+000 108739 -3.3933e+001 -2.7520e+001  1.2743e+001 29080 108537,108641,108563
 1.8000e+000 108716 -4.2474e+001  4.5801e+000  2.9019e+001 29080 108589,108641,108615
 1.8000e+000 108693 -2.6333e+001 -2.6971e+001  3.5806e+000 29080 108537,108667,108641
 1.8000e+000 109189 -1.0691e+002 -3.7835e+001  6.9636e+000 28476 108892,108996,108970
 1.8000e+000 109166 -1.1721e+002 -4.4218e+001  9.8510e+000 28476 108892,109022,108996
 1.8000e+000 109143 -1.1257e+002 -4.3376e+001  9.6082e+000 28476 108892,108970,108944
 1.8000e+000 109120 -1.3451e+002 -4.0087e+001  1.4849e+001 28476 108892,109048,109022
 1.8000e+000 109097 -1.2029e+002 -5.1674e+001  2.8656e+000 28476 108892,108944,108918
 1.8000e+000 109074 -1.5487e+002 -1.1376e+001 -2.5391e+000 28476 108866,109048,108892
 1.8000e+000 109518 -4.0887e+001 -8.9970e+000  1.1967e+001 28022 109541,109371,109345
 1.8000e+000 109495 -5.3823e+001  9.0537e+000 -7.8369e+000 28022 109541,109345,109319
 1.8000e+000 109472 -3.0791e+001  1.3357e+001 -7.2802e+000 28022 109293,109397,109319
 1.8000e+000 109449 -2.3984e+001  4.2185e+000  8.4684e+000 28022 109293,109423,109397
 1.8000e+000 109567  1.4064e+001  1.4121e+001  1.2146e+001 28022 109397,109371,109541
 1.8000e+000 109590 -3.7345e+001  1.1404e+001 -5.8502e+000 28022 109397,109541,109319
 1.8000e+000 109968 -1.3446e+002 -8.1091e+001 -2.3007e+001 27568 109798,109850,109824
 1.8000e+000 109945 -1.1923e+002 -6.5399e+001 -1.3340e+001 27568 109694,109850,109798
 1.8000e+000 109922 -8.2442e+001 -8.6654e+001 -1.1852e+001 27568 109694,109798,109746
 1.8000e+000 109899 -7.6909e+001 -8.3753e+001 -8.0678e+000 27568 109746,109798,109772
 1.8000e+000 109876 -7.4940e+001 -7.9749e+001 -2.2043e+000 27568 109694,109746,109720
 1.8000e+000 110167 -8.1016e+001 -2.6629e+001  3.3310e+000 27007 110017,110095,110069
 1.8000e+000 110144 -8.0592e+001 -2.3594e+001  3.0640e+000 27007 109991,110095,110017
 1.8000e+000 110121 -7.8519e+001 -1.6490e+001  1.5306e+001 27007 110017,110069,110043
 1.8000e+000 110415 -4.0002e+001 -2.0568e+001  9.7019e+000 26567 110438,110242,110190
 1.8000e+000 110392 -4.6841e+001 -1.4753e+001  7.7591e+000 26567 110438,110190,110320
 1.8000e+000 110369 -3.9419e+001 -1.5725e+001  9.8419e+000 26567 110242,110294,110268
 1.8000e+000 110346 -3.9187e+001 -1.9836e+001  7.5683e+000 26567 110190,110242,110216
 1.8000e+000 110464 -4.3487e+001 -2.0999e+001  7.2454e+000 26567 110294,110242,110438
 1.8000e+000 110487 -5.1008e+001 -1.9766e+001  3.5479e+000 26567 110294,110438,110320
 1.8000e+000 110639 -1.3062e+002 -2.5491e+001 -2.0352e+001 26170 110538,110590,110564
 1.8000e+000 110616 -1.2748e+002 -4.2434e+001 -1.6755e+001 26170 110512,110590,110538
 1.8000e+000 111149 -1.7103e+002 -6.7158e+001  4.0147e+001 25716 111172,110878,110852
 1.8000e+000 111126 -1.3288e+002 -5.8024e+001  3.6830e+001 25716 111172,110852,111008
 1.8000e+000 111103 -1.8363e+002 -5.3041e+001  9.5048e+001 25716 110878,110930,110904
 1.8000e+000 111080 -1.4058e+002 -6.8397e+001  2.6340e+001 25716 110826,111008,110852
 1.8000e+000 111057 -8.8318e+001 -7.9283e+001  2.6761e+001 25716 110930,111008,110956
 1.8000e+000 111034 -6.6318e+001 -7.9315e+001  3.2119e+001 25716 110956,111008,110982
 1.8000e+000 111198 -1.3811e+002 -8.7437e+001  5.2137e+001 25716 110930,110878,111172
 1.8000e+000 111221 -9.2078e+001 -7.2927e+001  4.8712e+001 25716 110930,111172,111008
 1.8000e+000 111420 -1.7168e+002 -5.1950e+001  6.2578e+000 25304 111443,111270,111244
 1.8000e+000 111397 -1.6961e+002 -7.7344e+001  8.2026e+000 25304 111443,111244,111348
 1.8000e+000 111374 -1.7046e+002 -4.3293e+001 -1.6685e+001 25304 111270,111322,111296
 1.8000e+000 111469 -1.7365e+002 -3.2133e+001  6.2164e+000 25304 111322,111270,111443
 1.8000e+000 111492 -1.6820e+002 -5.2776e+001  1.0210e+001 25304 111322,111443,111348
 1.8000e+000 111691 -2.6862e+001 -1.4028e+001 -2.9973e-001 24736 111567,111619,111593
 1.8000e+000 111668 -3.3140e+001  2.4051e+000 -1.5720e+001 24736 111541,111619,111567
 1.8000e+000 111645 -4.2336e+001  1.7095e+001 -6.1432e+000 24736 111515,111619,111541
 1.8000e+000 112024 -1.1087e+001 -2.0664e+000  1.8284e+000 24146 111825,111877,111851
 1.8000e+000 112001 -1.5629e+001  5.0625e+000 -4.6662e+000 24146 111825,111903,111877
 1.8000e+000 111978 -2.2610e+001 -4.1754e+001 -2.1571e+000 24146 111825,111929,111903
 1.8000e+000 111955 -3.5675e+001 -3.9133e+001  1.7283e+000 24146 111799,111929,111825
 1.8000e+000 112370 -7.4693e+001 -2.9221e+001  1.7509e+001 23856 112393,112151,112125
 1.8000e+000 112347 -7.1479e+001 -1.9191e+001  1.7511e+001 23856 112465,112393,112125
 1.8000e+000 112324 -7.0580e+001 -1.5271e+001  1.8422e+001 23856 112465,112125,112073
 1.8000e+000 112301 -9.4089e+001 -2.6204e+001  2.6037e+001 23856 112073,112125,112099
 1.8000e+000 112278 -7.8836e+001 -3.1555e+001  5.1534e+000 23856 112047,112229,112073
 1.8000e+000 112255 -4.7750e+001 -2.3426e+001 -1.7342e+000 23856 112151,112203,112177
 1.8000e+000 112419 -6.2040e+001 -2.2532e+001  1.4973e+001 23856 112203,112151,112393
 1.8000e+000 112442 -7.3468e+001 -3.4361e+001  1.0237e+001 23856 112203,112393,112229
 1.8000e+000 112491 -7.3411e+001 -2.3199e+001  8.4660e+000 23856 112229,112393,112465
 1.8000e+000 112514 -6.9646e+001 -1.3202e+001  9.2260e+000 23856 112229,112465,112073
 1.8000e+000 112784 -1.2648e+002  3.8447e+001 -1.6871e+001 23494 112611,112663,112637
 1.8000e+000 112761 -9.1470e+001 -3.3028e+000 -7.7495e+000 23494 112585,112663,112611
 1.8000e+000 112738 -1.2472e+002 -1.7044e+001  1.2991e+001 23494 112559,112663,112585
 1.8000e+000 112715 -1.0256e+002  5.7273e+001  2.1230e+001 23494 112559,112689,112663
 1.8000e+000 113117 -1.2365e+002 -4.3901e+001 -3.3729e+001 22974 112944,113022,112996
 1.8000e+000 113094 -1.1547e+002 -6.5252e+001 -2.5240e+001 22974 112918,113022,112944
 1.8000e+000 113071 -1.3065e+002 -6.3693e+001 -3.6452e+001 22974 112944,112996,112970
 1.8000e+000 113048 -1.1490e+002 -5.1965e+001 -3.4127e+001 22974 112892,113022,112918
 1.8000e+000 113414 -1.3169e+002 -5.3830e+001 -5.2333e+000 22370 113192,113296,113218
 1.8000e+000 113391 -1.5963e+002 -7.2392e+001 -1.4575e+001 22370 113140,113296,113192
 1.8000e+000 113368 -1.3227e+002 -5.3245e+001  2.8297e+000 22370 113218,113296,113270
 1.8000e+000 113345 -1.2008e+002 -5.4981e+001  1.5889e+001 22370 113218,113270,113244
 1.8000e+000 113322 -1.3776e+002 -3.9700e+001 -3.4849e+001 22370 113140,113192,113166
 1.8000e+000 113662 -8.7500e+001 -1.6530e+001  5.0460e+000 21916 113685,113515,113489
 1.8000e+000 113639 -1.0540e+002 -2.6693e+001 -1.1054e+000 21916 113685,113489,113437
 1.8000e+000 113616 -6.6072e+001 -2.4317e+001 -2.8600e+000 21916 113757,113567,113541
 1.8000e+000 113593 -1.0635e+002 -2.6737e+001 -7.5761e+000 21916 113437,113489,113463
 1.8000e+000 113711 -9.6324e+001 -3.5393e+001  2.6610e+000 21916 113541,113515,113685
 1.8000e+000 113734 -8.6594e+001 -3.2048e+001 -2.2939e-001 21916 113757,113541,113685
 1.8000e+000 113783 -9.3206e+001 -2.5865e+001 -3.9132e+000 21916 113437,113567,113757
 1.8000e+000 113806 -9.7811e+001 -2.2743e+001 -5.2188e+000 21916 113437,113757,113685
 1.8000e+000 114056 -9.5659e+001 -1.1107e+001 -1.6127e+001 21412 113857,113909,113883
 1.8000e+000 114033 -1.0147e+002 -2.6290e+001 -1.5101e+001 21412 114079,113909,113857
 1.8000e+000 114010 -1.0259e+002 -3.4650e+001 -3.1552e+000 21412 114079,113857,113961
 1.8000e+000 113987 -1.0314e+002 -3.8011e+001 -4.6128e+000 21412 113831,113961,113857
 1.8000e+000 114105 -1.0332e+002 -7.6184e+000 -1.7440e+001 21412 113935,113909,114079
 1.8000e+000 114128 -1.0522e+002 -2.1795e+001 -7.6756e+000 21412 113935,114079,113961
 1.8000e+000 114378 -3.7230e+001 -7.9801e+000 -9.4591e-001 21022 114401,114257,114205
 1.8000e+000 114355 -4.6850e+001 -1.2368e+001 -1.3965e+001 21022 114401,114205,114179
 1.8000e+000 114332 -4.5061e+001 -3.0666e+000 -9.5151e-001 21022 114153,114283,114179
 1.8000e+000 114309 -3.7946e+001 -1.0714e+001 -2.0838e+000 21022 114205,114257,114231
 1.8000e+000 114427 -1.8506e+001 -4.5366e+000  7.2334e+000 21022 114283,114257,114401
 1.8000e+000 114450 -3.2444e+001 -1.0241e+001 -5.4014e+000 21022 114283,114401,114179
 1.8000e+000 114651 -3.9058e+001 -5.7969e+000 -4.8025e+000 20618 114501,114553,114527
 1.8000e+000 114628 -2.0447e+001 -3.6768e+000  3.3105e+000 20618 114501,114579,114553
 1.8000e+000 114605 -4.8867e+001 -6.5769e+000 -5.9775e-001 20618 114475,114579,114501
 1.8000e+000 114901 -1.7758e+002 -2.1085e+001 -2.4708e+001 20114 114676,114780,114702
 1.8000e+000 114878 -1.1807e+002 -1.8519e+000 -2.1161e+001 20114 114676,114806,114780
 1.8000e+000 114855 -1.8333e+002 -1.0020e+001 -2.0837e+001 20114 114702,114780,114754
 1.8000e+000 114832 -4.7808e+002 -9.4290e+001 -3.2112e+001 20114 114702,114754,114728
 1.8000e+000 115053 -1.3594e+002 -1.9507e+001 -7.5027e-001 19460 115147,115076,114926
 1.8000e+000 115030 -1.3538e+002 -1.6398e+001 -1.8319e+000 19460 115147,114926,115004
 1.8000e+000 115102 -1.4339e+002 -2.7786e+001  3.5495e+000 19460 114952,114926,115076
 1.8000e+000 115173 -1.3307e+002 -2.8183e+001  6.9794e-001 19460 114978,115076,115147
 1.8000e+000 115196 -1.2995e+002 -2.2790e+001 -1.3334e+000 19460 114978,115147,115004
 1.8000e+000 115446 -2.1624e+002 -3.9622e+001  2.7319e+001 19006 115273,115351,115299
 1.8000e+000 115423 -1.9730e+002 -8.2573e+001  7.7789e+000 19006 115247,115351,115273
 1.8000e+000 115400 -2.1828e+002 -8.8160e+001  3.2930e+001 19006 115221,115351,115247
 1.8000e+000 115377 -1.2741e+002 -1.7546e+001 -4.6774e+001 19006 115299,115351,115325
 1.8000e+000 115767 -2.5874e+001 -1.3817e+000  2.6944e+000 18716 115571,115649,115623
 1.8000e+000 115744 -2.8570e+001 -5.2053e+000  1.2696e+000 18716 115493,115649,115571
 1.8000e+000 115721 -3.0558e+001 -3.0122e+000  2.5210e+000 18716 115493,115571,115545
 1.8000e+000 115698 -3.4107e+001 -5.4104e+000 -3.6649e+000 18716 115493,115545,115519
 1.8000e+000 115675 -9.4456e+000  3.7992e+000 -5.0621e-001 18716 115571,115623,115597
 1.8000e+000 116039 -1.0092e+002 -3.1606e+001  8.8179e+000 18312 115814,115892,115840
 1.8000e+000 116016 -9.8267e+001 -2.3681e+001  5.5000e+000 18312 115814,115944,115892
 1.8000e+000 115993 -9.0588e+001 -8.8253e+000  9.5665e+000 18312 115892,115944,115918
 1.8000e+000 115970 -5.8264e+001 -7.6409e+000 -1.7994e+000 18312 115840,115892,115866
 1.8000e+000 116191 -1.9178e+002 -8.4540e+001 -2.4597e-001 18000 116090,116142,116116
 1.8000e+000 116168 -1.9034e+002 -8.2344e+001  4.0302e-001 18000 116064,116142,116090
 1.8000e+000 116343 -4.4902e+001  2.4623e+000 -9.6932e-001 17396 116242,116294,116268
 1.8000e+000 116320 -6.5695e+001  1.9879e+000 -8.7451e-001 17396 116216,116294,116242
 1.8000e+000 116566 -1.2050e+002 -4.5616e+001  7.9610e+000 16942 116390,116468,116442
 1.8000e+000 116543 -1.6280e+002 -5.5665e+001  1.6041e+001 16942 116390,116494,116468
 1.8000e+000 116520 -1.2856e+002 -6.4500e+001  3.0978e+000 16942 116390,116442,116416
 1.8000e+000 116767 -3.9602e+001  5.8736e+000  3.7255e+000 16438 116790,116643,116617
 1.8000e+000 116744 -5.3997e+001 -6.5594e+000 -1.6347e+000 16438 116790,116617,116591
 1.8000e+000 116721 -1.9106e+001 -5.7520e-001 -6.4829e+000 16438 116643,116695,116669
 1.8000e+000 116816 -3.2310e+001 -3.2119e+000  7.8379e+000 16438 116695,116643,116790
 1.8000e+000 116839 -3.6918e+001 -6.2631e+000  5.3291e+000 16438 116695,116790,116591
 1.8000e+000 117062 -6.5171e+000 -4.3159e+000 -1.2389e+000 16074 116886,116938,116912
 1.8000e+000 117039 -3.0165e+001 -1.4673e+001  7.9885e-001 16074 116886,116990,116938
 1.8000e+000 117016 -2.9065e+001 -5.3056e+000  9.9424e-001 16074 116938,116990,116964
 1.8000e+000 117214 -1.1623e+002 -5.1304e+001 -7.0158e+000 15649 117087,117139,117113
 1.8000e+000 117191 -1.4835e+002 -6.7868e+001  1.2207e+000 15649 117087,117165,117139
 1.8000e+000 117317 -2.2017e+000 -1.3620e+001  1.3939e+000 421 117239,117291,117265
 1.9000e+000 70632  2.3467e+001 -3.6830e+000  1.7796e+001 70072 70482,70534,70508
 1.9000e+000 70609  7.0197e+000 -4.0783e+001  1.3676e+001 70072 70482,70560,70534
 1.9000e+000 70586 -2.0724e+001 -5.2498e+001  1.0885e+001 70072 70456,70560,70482
 1.9000e+000 70951  2.8854e+000 -1.1306e+002  0.0000e+000 69874 70703,70755,70729
 1.9000e+000 70928 -1.5579e+001 -1.2212e+002 -9.6311e+000 69874 70703,70781,70755
 1.9000e+000 70905 -2.3500e+001 -8.1133e+001 -1.2482e+001 69874 70703,70807,70781
 1.9000e+000 70882 -3.5349e+001 -1.1485e+002  1.7104e+000 69874 70703,70833,70807
 1.9000e+000 70859 -2.4716e+000 -1.0559e+002  8.6001e+000 69874 70677,70833,70703
 1.9000e+000 71199 -9.6000e+000 -4.8858e+001 -3.9852e+000 69698 71222,71052,71026
 1.9000e+000 71176  5.1386e+000 -4.5934e+001  4.7274e-001 69698 71294,71222,71026
 1.9000e+000 71153  5.8327e+000 -3.6256e+001 -1.0464e+001 69698 71294,71026,71000
 1.9000e+000 71130 -1.6701e+001 -4.4341e+001  1.3613e+000 69698 71366,71104,71078
 1.9000e+000 71248 -1.0149e+001 -3.5220e+001  2.0300e+000 69698 71078,71052,71222
 1.9000e+000 71271 -3.6241e+000 -3.5476e+001 -2.6105e+000 69698 71366,71078,71222
 1.9000e+000 71320  2.5996e+001 -3.0890e+001 -1.0431e+001 69698 70974,71222,71294
 1.9000e+000 71343  2.7444e+001 -2.7600e+001 -2.0479e+001 69698 70974,71294,71000
 1.9000e+000 71392  2.1639e+000 -4.9120e+001  2.4055e+000 69698 70974,71104,71366
 1.9000e+000 71415  2.7081e+000 -4.8382e+001  2.1026e+000 69698 70974,71366,71222
 1.9000e+000 71516  2.5285e+001 -4.2258e+001 -1.1429e+001 69386 71438,71490,71464
 1.9000e+000 71869  4.7167e+001  4.3122e+000 -7.9706e+000 69188 71644,71748,71670
 1.9000e+000 71846  4.7188e+001  2.2131e+001 -8.9217e+000 69188 71644,71774,71748
 1.9000e+000 71823  2.6275e+001 -4.2426e-001  8.0667e+000 69188 71670,71748,71722
 1.9000e+000 71800  1.0881e+000  4.9094e+000 -5.2827e+000 69188 71670,71722,71696
 1.9000e+000 72019 -1.4911e+001 -1.1132e+000  7.8291e-001 68990 71918,71970,71944
 1.9000e+000 71996  1.1953e+001  2.2329e+000 -7.9917e-001 68990 71892,71970,71918
 1.9000e+000 72316  6.4421e+000  1.8421e+001 -3.5871e+000 68586 72339,72172,72146
 1.9000e+000 72293  8.7435e+000  2.0410e+000 -8.5868e+000 68586 72339,72146,72120
 1.9000e+000 72270  1.1957e+001  1.1863e+001 -3.2017e-001 68586 72411,72068,72198
 1.9000e+000 72247  1.8210e+001  1.9711e+001  3.3350e+000 68586 72042,72198,72068
 1.9000e+000 72224  1.7275e+001  1.5396e+000 -3.6202e-001 68586 72068,72120,72094
 1.9000e+000 72365  1.0606e+001  2.3757e+001  3.7369e+000 68586 72198,72172,72339
 1.9000e+000 72388  6.4715e+000  1.3628e+001 -2.6998e+000 68586 72411,72198,72339
 1.9000e+000 72437  2.1888e+001  1.4598e+001  1.4905e+000 68586 72120,72068,72411
 1.9000e+000 72460  1.5079e+001  1.4850e+001 -1.5543e+000 68586 72120,72411,72339
 1.9000e+000 72864  1.1353e+001  1.2900e+001  4.7531e+000 68388 72642,72694,72668
 1.9000e+000 72841  8.7544e+000  4.2935e-001  3.2893e+000 68388 72616,72694,72642
 1.9000e+000 72818  1.0289e+001 -1.6749e+000  5.6375e+000 68388 72616,72720,72694
 1.9000e+000 72795  1.1932e+001 -7.8630e+000  4.3424e+000 68388 72590,72720,72616
 1.9000e+000 72772  8.3768e+000  5.5585e-001 -1.8519e+000 68388 72590,72746,72720
 1.9000e+000 73321 -3.4592e+000  2.4633e+000  5.8984e+000 68048 73073,73203,73177
 1.9000e+000 73298 -7.7122e+000 -3.5699e+000  1.0712e+000 68048 73047,73203,73073
 1.9000e+000 73275  6.9731e-001  1.3419e+001  7.2387e+000 68048 73125,73177,73151
 1.9000e+000 73252  1.5907e+000  1.0924e+001  3.4162e+000 68048 73073,73177,73125
 1.9000e+000 73229  2.5501e+001  3.4870e+000  1.4884e+001 68048 73073,73125,73099
 1.9000e+000 73640 -5.1586e+000 -2.4156e+001  1.2161e+000 67850 73444,73496,73470
 1.9000e+000 73617  2.7101e+001 -1.0589e+001 -7.0477e+000 67850 73418,73496,73444
 1.9000e+000 73594  1.8366e+001 -2.0276e+001  1.1265e+001 67850 73392,73496,73418
 1.9000e+000 73571 -1.5749e+000 -1.6986e+001  4.7032e+000 67850 73392,73522,73496
 1.9000e+000 73548 -6.6329e+000 -2.9769e+001  4.3312e+000 67850 73366,73522,73392
 1.9000e+000 73790 -1.5502e+000  1.5850e+001 -6.5908e-001 67602 73689,73741,73715
 1.9000e+000 73767  3.8789e+000  2.8014e+001  5.0110e-001 67602 73663,73741,73689
 1.9000e+000 74040 -8.0418e+000  1.5932e+001 -2.1840e+000 67290 73841,73945,73919
 1.9000e+000 74017  1.4139e+001  6.6164e+000 -8.5341e+000 67290 73815,73945,73841
 1.9000e+000 73994 -5.5645e+000  1.9966e+001 -1.0830e+000 67290 73841,73919,73867
 1.9000e+000 73971 -9.9355e-001  2.7513e+001  5.0873e+000 67290 73867,73919,73893
 1.9000e+000 74143 -6.0245e+000 -7.8700e+001  4.2769e+000 67092 74065,74117,74091
 1.9000e+000 74415  1.2862e+001 -6.4044e+001 -1.6805e+000 66894 74190,74294,74216
 1.9000e+000 74392  6.1181e+001 -4.7825e+001 -9.6375e+000 66894 74190,74320,74294
 1.9000e+000 74369  1.4040e+001 -5.0058e+001 -5.6709e+000 66894 74216,74294,74242
 1.9000e+000 74346 -4.3619e+000 -6.3808e+001  2.4025e+000 66894 74242,74294,74268
 1.9000e+000 75023  1.0859e+002 -2.4143e+000 -7.0202e+000 66532 74654,74836,74810
 1.9000e+000 75000  1.4318e+001  2.0302e+001  2.3038e+000 66532 74628,74836,74654
 1.9000e+000 74977 -1.4132e+000  2.5776e+001  3.8244e-001 66532 74706,74784,74732
 1.9000e+000 74954  2.2394e+000  2.7028e+001  2.8727e+000 66532 74680,74784,74706
 1.9000e+000 74931  8.8580e+000  6.2902e+000 -6.3335e+000 66532 74680,74810,74784
 1.9000e+000 74908  2.3945e+001  1.3775e+001  4.4515e+000 66532 74654,74810,74680
 1.9000e+000 74885 -3.1981e+000 -4.3098e+000 -9.8371e+000 66532 74602,74836,74628
 1.9000e+000 74862  4.0534e+001  2.0251e+001 -2.0801e+001 66532 74732,74784,74758
 1.9000e+000 75222 -7.4736e-001 -1.6926e+000  1.2693e+000 66242 75072,75150,75124
 1.9000e+000 75199  2.3773e+001  9.9349e+000 -7.8369e+000 66242 75046,75150,75072
 1.9000e+000 75176  5.1324e+000  5.0746e+000  4.3151e+000 66242 75072,75124,75098
 1.9000e+000 75470 -2.1897e+001 -6.9388e+001 -1.5220e+000 65838 75297,75375,75349
 1.9000e+000 75447 -2.0997e+001 -6.9871e+001 -1.0799e+000 65838 75271,75375,75297
 1.9000e+000 75424 -7.3581e+000 -5.5570e+001  7.5297e+000 65838 75297,75349,75323
 1.9000e+000 75401 -6.7843e+000 -6.3552e+001  1.8827e+000 65838 75245,75375,75271
 1.9000e+000 75671 -9.5973e+000 -7.3197e+001 -4.3476e+000 65640 75495,75573,75521
 1.9000e+000 75648  1.0290e+001 -6.0570e+001 -1.2881e+001 65640 75495,75599,75573
 1.9000e+000 75625 -8.3651e+000 -6.2711e+001  3.1918e+000 65640 75521,75573,75547
 1.9000e+000 75872 -1.4169e+001 -2.2759e+001 -7.3579e+000 65300 75895,75748,75722
 1.9000e+000 75849 -1.1865e+001 -2.5374e+001 -8.9978e+000 65300 75895,75722,75696
 1.9000e+000 75826 -1.0194e+001 -1.7897e+001 -1.0845e+001 65300 75967,75774,75748
 1.9000e+000 75921 -1.1676e+001 -2.2420e+001 -9.8105e+000 65300 75967,75748,75895
 1.9000e+000 75944 -1.6322e+001 -3.9998e+001 -9.9520e+000 65300 75800,75895,75696
 1.9000e+000 75993 -1.2038e+001 -2.3584e+001 -8.9470e+000 65300 75800,75774,75967
 1.9000e+000 76016 -1.2412e+001 -2.5623e+001 -7.7599e+000 65300 75800,75967,75895
 1.9000e+000 76371 -6.3804e+000  1.4033e+001 -4.4282e+000 64896 76146,76250,76172
 1.9000e+000 76348 -7.4594e+000  1.8675e+001  6.5370e-001 64896 76146,76276,76250
 1.9000e+000 76325 -1.1556e+001  1.0081e+001 -2.2574e+000 64896 76172,76250,76198
 1.9000e+000 76302 -3.8161e+001 -2.2630e+000 -6.2120e+000 64896 76198,76250,76224
 1.9000e+000 76570 -1.9959e+001 -1.7651e+001  1.1008e+001 64442 76446,76498,76472
 1.9000e+000 76547 -2.9781e+000  4.4618e+000 -4.0921e+000 64442 76420,76498,76446
 1.9000e+000 76524 -1.8384e+000 -3.5311e+000 -9.3910e-001 64442 76394,76498,76420
 1.9000e+000 76999 -9.7631e+000  6.6287e+000 -9.4603e+000 63924 77022,76728,76702
 1.9000e+000 76976 -1.1153e+001 -4.3660e-001 -2.7892e+000 63924 77022,76702,76832
 1.9000e+000 76953 -2.4021e+001  1.1311e+001 -9.4705e+000 63924 76728,76806,76754
 1.9000e+000 76930 -2.3987e+001 -1.5797e+000  2.4477e+000 63924 76676,76832,76702
 1.9000e+000 76907 -2.1854e+001  2.8516e+001 -5.3299e+000 63924 76754,76806,76780
 1.9000e+000 76884 -1.8226e+001  1.8907e+001 -1.2062e+000 63924 76676,76858,76832
 1.9000e+000 77048 -1.5176e+001  1.5702e+001 -8.0285e+000 63924 76806,76728,77022
 1.9000e+000 77071 -1.5267e+001  1.0313e+001 -1.3149e+000 63924 76806,77022,76832
 1.9000e+000 77449 -9.4721e+000  3.2530e+000  9.0638e+000 63320 77472,77253,77201
 1.9000e+000 77426 -9.1076e+000 -1.0833e+000  4.5772e+000 63320 77472,77201,77175
 1.9000e+000 77403 -1.2448e+001 -7.9290e+000  4.7685e+000 63320 77175,77305,77279
 1.9000e+000 77380 -8.0887e+000 -4.3309e+000  1.6580e+001 63320 77201,77253,77227
 1.9000e+000 77357  8.1390e+000  1.1677e+000  2.5115e+000 63320 77175,77331,77305
 1.9000e+000 77498 -1.1821e+001 -5.6030e+000  9.2483e+000 63320 77279,77253,77472
 1.9000e+000 77521 -9.6600e+000 -5.2016e+000  3.6734e+000 63320 77279,77472,77175
 1.9000e+000 77769 -2.3231e+001 -5.7630e+001  1.1302e+001 62816 77570,77622,77596
 1.9000e+000 77746 -2.9877e+001 -6.8898e+001  1.4603e+001 62816 77570,77648,77622
 1.9000e+000 77723 -1.1597e+001 -5.7643e+001  3.1210e+000 62816 77570,77674,77648
 1.9000e+000 77700 -6.9555e+000 -5.2652e+001  5.8543e+000 62816 77544,77674,77570
 1.9000e+000 78149  1.6485e+001  3.6690e-001 -4.9036e+000 62354 77953,78031,78005
 1.9000e+000 78126  7.2734e+000  4.2117e+000 -7.3520e+000 62354 77901,78031,77953
 1.9000e+000 78103  2.8183e+001  1.4495e+001  7.8277e+000 62354 77875,78031,77901
 1.9000e+000 78080 -5.0143e-001  5.9885e-001 -1.9561e+000 62354 77901,77953,77927
 1.9000e+000 78057  4.9237e+000  7.7785e-001 -7.1498e+000 62354 77953,78005,77979
 1.9000e+000 78606  1.4967e+001  8.2007e+000  6.9241e+000 61950 78384,78436,78410
 1.9000e+000 78583  1.3458e+001  1.3372e+000 -2.3357e+000 61950 78358,78436,78384
 1.9000e+000 78560  1.6799e+001  1.0133e+001 -6.6266e+000 61950 78358,78488,78436
 1.9000e+000 78537  3.3839e+000 -2.6921e+000  2.0508e+000 61950 78436,78488,78462
 1.9000e+000 78514  5.7963e+000  1.3813e+001 -4.0413e+000 61950 78332,78488,78358
 1.9000e+000 78756  2.6382e+001  1.9093e+000  1.5664e+000 61339 78779,78655,78629
 1.9000e+000 78733  1.1524e+001  1.2043e+001  6.6079e+000 61339 78779,78629,78707
 1.9000e+000 78805  1.1513e+001 -5.0386e+000  1.0997e+001 61339 78851,78779,78681
 1.9000e+000 78828  1.4432e+001  4.4533e+000  4.0863e+000 61339 78681,78779,78707
 1.9000e+000 78877  8.6681e+000 -8.4490e+000 -3.2230e+000 61339 78655,78779,78851
 1.9000e+000 79206  9.5060e+000 -2.1401e+001 -1.3263e+001 60892 79229,79007,78981
 1.9000e+000 79183  1.4472e+000 -2.9221e+001 -5.1107e-001 60892 79229,78981,79111
 1.9000e+000 79160  3.4154e+000 -3.1935e+001  1.8927e+000 60892 79301,79033,79007
 1.9000e+000 79137  2.0056e+001 -2.0423e+001  2.1257e+001 60892 79033,79085,79059
 1.9000e+000 79255  5.4205e-001 -2.3861e+001 -4.2948e+000 60892 79301,79007,79229
 1.9000e+000 79278 -1.2844e+001 -2.9916e+001  2.2080e+000 60892 79085,79229,79111
 1.9000e+000 79327 -5.0148e+000 -4.8954e+001  6.1691e+000 60892 79085,79033,79301
 1.9000e+000 79350 -1.5432e+000 -3.6631e+001 -2.8742e+000 60892 79085,79301,79229
 1.9000e+000 79647 -3.8753e+001 -2.1284e+001 -3.9567e+000 60488 79451,79529,79503
 1.9000e+000 79624 -4.3300e+001 -3.1440e+001 -2.9513e+000 60488 79425,79529,79451
 1.9000e+000 79601 -2.7293e+001 -3.3460e+001 -3.3838e+000 60488 79373,79529,79425
 1.9000e+000 79578 -2.9190e+001 -3.9099e+001 -3.4081e+000 60488 79373,79425,79399
 1.9000e+000 79555 -3.5274e+001  9.0973e-001  1.4247e+000 60488 79451,79503,79477
 1.9000e+000 79870 -5.5845e+001 -7.8522e+001  5.0137e+000 60026 79720,79798,79772
 1.9000e+000 79847 -4.1486e+001 -9.6093e+001 -4.1589e+000 60026 79694,79798,79720
 1.9000e+000 79824 -3.7564e+001 -7.5645e+001 -8.0255e+000 60026 79720,79772,79746
 1.9000e+000 80120 -2.1039e+001 -4.4681e+001  6.7405e+000 59629 79921,80025,79973
 1.9000e+000 80097 -2.4151e+001 -4.4081e+001  8.6305e+000 59629 79895,80025,79921
 1.9000e+000 80074 -1.8351e+001 -4.6360e+001 -5.6803e+000 59629 79973,80025,79999
 1.9000e+000 80051  1.0088e+000 -5.6478e+001  7.4390e+000 59629 79921,79973,79947
 1.9000e+000 80321 -8.1284e+000 -3.0909e+001 -9.8723e+000 59125 80344,80171,80145
 1.9000e+000 80298 -1.3043e+001 -3.1909e+001 -7.1197e+000 59125 80344,80145,80249
 1.9000e+000 80275 -1.0211e+001 -2.8161e+001  1.3015e+000 59125 80197,80249,80223
 1.9000e+000 80370 -1.3841e+001 -3.0586e+001 -8.0165e+000 59125 80197,80171,80344
 1.9000e+000 80393 -1.8355e+001 -3.1169e+001 -5.3497e+000 59125 80197,80344,80249
 1.9000e+000 80952  6.8826e+000  1.4522e+000 -3.2593e+000 58557 80975,80632,80606
 1.9000e+000 80929  3.5555e+000  4.0254e+000 -3.3411e+000 58557 81119,80975,80606
 1.9000e+000 80906  4.9008e-001 -3.3769e+000 -4.7447e-001 58557 81047,80684,80632
 1.9000e+000 80883  1.1075e+001  6.6765e+000 -7.8414e+000 58557 81119,80606,80580
 1.9000e+000 80860  4.8100e-001 -3.9111e+000  3.9976e-001 58557 81191,80736,80710
 1.9000e+000 80837 -1.5697e-001  4.9315e-001  2.2101e-001 58557 80736,80788,80762
 1.9000e+000 80814  3.8266e+000  8.9307e-001 -2.0162e+000 58557 80632,80684,80658
 1.9000e+000 81001  2.6687e-001 -9.1107e-001 -1.9757e+000 58557 81047,80632,80975
 1.9000e+000 81024  2.2582e+000 -2.1874e+000  1.3426e+000 58557 81191,80710,80975
 1.9000e+000 81073  5.5921e-001 -1.0274e+001  2.0716e+000 58557 80710,80684,81047
 1.9000e+000 81096  3.2505e+000 -5.7651e+000 -3.1586e-001 58557 80710,81047,80975
 1.9000e+000 81145  3.0437e+000 -5.7626e-003  7.8550e-001 58557 80788,80975,81119
 1.9000e+000 81168  5.1325e+000  1.2130e+000 -3.3842e+000 58557 80788,81119,80580
 1.9000e+000 81217 -6.4773e-001 -1.7227e+000 -3.8120e-001 58557 80788,80736,81191
 1.9000e+000 81240  1.9108e-001 -1.5282e+000  1.6426e-001 58557 80788,81191,80975
 1.9000e+000 81537 -4.8255e+001 -8.2080e+001  2.5160e+000 57881 81560,81341,81289
 1.9000e+000 81514 -5.3267e+001 -8.4546e+001  1.1641e+001 57881 81560,81289,81263
 1.9000e+000 81491 -7.3616e+001 -7.4174e+001  6.3649e-001 57881 81632,81419,81367
 1.9000e+000 81468 -6.4059e+001 -5.2352e+001 -1.8430e+000 57881 81367,81419,81393
 1.9000e+000 81445 -5.4494e+001 -7.9158e+001  3.7201e+000 57881 81289,81341,81315
 1.9000e+000 81586 -4.2246e+001 -3.4138e+001 -1.6745e+001 57881 81367,81341,81560
 1.9000e+000 81609 -7.0819e+001 -7.2301e+001 -1.0037e+000 57881 81632,81367,81560
 1.9000e+000 81658 -6.4930e+001 -9.6409e+001  4.5864e+000 57881 81263,81419,81632
 1.9000e+000 81681 -5.3498e+001 -8.3579e+001 -1.0116e+000 57881 81263,81632,81560
 1.9000e+000 81929 -3.5105e+001 -7.1850e+001  8.6487e+000 57477 81704,81808,81782
 1.9000e+000 81906 -1.3608e+001 -7.4177e+001  9.3721e+000 57477 81704,81834,81808
 1.9000e+000 81883 -2.5213e+001 -3.5830e+001  1.2125e+001 57477 81704,81782,81730
 1.9000e+000 81860 -2.9199e+001 -2.4614e+001  8.4259e+000 57477 81730,81782,81756
 1.9000e+000 82488  8.5110e+000  1.0622e+000  3.6859e+000 56966 82583,82511,82194
 1.9000e+000 82465  6.5892e+000  6.0417e+000  4.9705e+000 56966 82511,82116,82324
 1.9000e+000 82442  9.0183e+000 -4.4859e+000  5.1886e+000 56966 82583,82194,82168
 1.9000e+000 82419  1.5267e+001  4.6696e+000 -2.9630e-002 56966 82194,82246,82220
 1.9000e+000 82396  1.0663e+001  2.6340e+000 -7.9122e-001 56966 82194,82298,82246
 1.9000e+000 82373  1.1114e+001  4.5457e+000 -6.6534e-001 56966 82246,82298,82272
 1.9000e+000 82350  1.1217e+001  1.8839e-001  2.5988e+000 56966 82116,82168,82142
 1.9000e+000 82537  1.2993e+001  5.8914e+000  3.6583e-001 56966 82298,82194,82511
 1.9000e+000 82560  5.0150e+000  7.0963e+000  1.8867e+000 56966 82298,82511,82324
 1.9000e+000 82609  8.4217e+000  7.1668e+000  3.6860e+000 56966 82116,82511,82583
 1.9000e+000 82632  9.8977e+000  2.6371e+000  4.6761e+000 56966 82116,82583,82168
 1.9000e+000 83236 -3.4180e+001 -2.1144e+001 -2.8021e+001 56304 82893,82945,82919
 1.9000e+000 83213 -5.3571e+000 -1.6023e+001 -1.7611e+001 56304 83259,82945,82893
 1.9000e+000 83190  1.2214e+001  2.2438e+000 -9.2436e+000 56304 83259,82893,83049
 1.9000e+000 83167  2.5643e+001  2.5310e+001  8.4746e-001 56304 82971,83049,83023
 1.9000e+000 83144  1.4285e+001  1.1103e+001 -1.1665e+001 56304 82815,83049,82893
 1.9000e+000 83121  7.9676e+000 -1.3505e+000 -9.3593e+000 56304 82815,82893,82867
 1.9000e+000 83098  6.6087e+000  9.9091e-001  9.4004e+000 56304 82971,83023,82997
 1.9000e+000 83075  1.2820e+001  4.0387e+000 -6.0936e+000 56304 82815,82867,82841
 1.9000e+000 83285 -1.6755e+001  9.2807e+000 -4.6803e+000 56304 82971,82945,83259
 1.9000e+000 83308 -3.0065e+000  1.8373e+001  3.0435e+000 56304 82971,83259,83049
 1.9000e+000 83556 -4.5419e+001 -6.4294e+001 -4.6984e+000 55964 83357,83461,83435
 1.9000e+000 83533 -4.8185e+001 -5.6877e+001  2.9646e-001 55964 83331,83461,83357
 1.9000e+000 83510 -4.7708e+001 -7.4715e+001  4.3644e+000 55964 83357,83435,83383
 1.9000e+000 83487 -4.3720e+001 -7.9458e+001  2.5973e+000 55964 83383,83435,83409
 1.9000e+000 83706 -3.4482e+001 -2.0108e+001 -6.2292e+000 55503 83579,83631,83605
 1.9000e+000 83683 -6.0243e+001 -1.6641e+001 -3.0957e+000 55503 83579,83657,83631
 1.9000e+000 83907 -7.3705e+000 -2.0683e+001  5.4974e+000 55156 83757,83835,83809
 1.9000e+000 83884 -8.5482e+000 -1.5313e+001  1.8762e+001 55156 83731,83835,83757
 1.9000e+000 83861 -2.5470e+001 -2.3859e+001  1.9810e+000 55156 83757,83809,83783
 1.9000e+000 84240 -3.5325e+001 -1.1701e+001  6.7334e+000 54652 84093,84145,84119
 1.9000e+000 84217 -3.8334e+001 -1.7465e+001  8.0003e+000 54652 84041,84145,84093
 1.9000e+000 84194 -4.5179e+001 -1.8192e+001  5.0468e-001 54652 84015,84145,84041
 1.9000e+000 84171 -7.5576e+001 -2.9761e+001  2.1202e+001 54652 84041,84093,84067
 1.9000e+000 84618 -7.4336e+000 -6.4347e+001  1.5588e+001 53926 84396,84500,84474
 1.9000e+000 84595 -1.1821e+001 -7.2139e+001  1.3758e+001 53926 84344,84500,84396
 1.9000e+000 84572 -1.9507e+001 -9.0961e+001  1.3184e+001 53926 84344,84396,84370
 1.9000e+000 84549 -1.2037e+001 -6.1407e+001  2.6657e+000 53926 84396,84474,84422
 1.9000e+000 84526 -9.9501e+000 -3.3121e+001  7.8999e+000 53926 84422,84474,84448
 1.9000e+000 85350 -5.7715e+001 -2.8439e+001 -1.0501e+000 53586 85373,84880,85088
 1.9000e+000 85327 -3.0863e+001 -3.0752e+001  7.6505e-002 53586 84880,85114,85088
 1.9000e+000 85304 -4.1947e+001 -1.9275e+001  6.4060e+000 53586 85373,85088,85062
 1.9000e+000 85281 -7.6940e+001 -4.1675e+001  3.6230e+001 53586 85010,85062,85036
 1.9000e+000 85258 -7.3818e+001 -1.2288e+001  1.1338e+001 53586 85445,85010,84958
 1.9000e+000 85235 -3.5743e+001 -3.1026e+000 -4.2206e+000 53586 85445,84958,84906
 1.9000e+000 85212 -5.8118e+001 -1.6808e+001  6.1581e+000 53586 84958,85010,84984
 1.9000e+000 85189 -3.9267e+001 -5.6446e+000 -6.0077e+000 53586 84906,84958,84932
 1.9000e+000 85166 -2.3911e+001 -2.1087e+001 -4.6837e+000 53586 84880,85140,85114
 1.9000e+000 85399 -5.8505e+001 -1.5884e+001  1.3783e+001 53586 84906,84880,85373
 1.9000e+000 85422 -4.7085e+001 -9.5106e+000  1.8290e+001 53586 85517,85373,85062
 1.9000e+000 85471 -7.9480e+001 -2.6170e+001  3.4996e+001 53586 85062,85010,85445
 1.9000e+000 85494 -4.9015e+001 -4.1638e+000  1.8162e+001 53586 85517,85062,85445
 1.9000e+000 85543 -4.9550e+001 -1.7799e+001  1.6616e+001 53586 84906,85373,85517
 1.9000e+000 85566 -5.1412e+001 -1.2735e+001  1.7061e+001 53586 84906,85517,85445
 1.9000e+000 86072 -5.6137e+000 -7.1103e+000  4.5240e-001 53182 86095,85853,85775
 1.9000e+000 86049 -8.8747e+000 -4.7431e+000  1.8238e+000 53182 86095,85775,85931
 1.9000e+000 86026 -6.0904e+000 -4.4411e+000  1.0829e+000 53182 86167,85879,85853
 1.9000e+000 86003 -1.4176e+000  1.5939e+000  6.8365e+000 53182 85775,85827,85801
 1.9000e+000 85980 -4.7807e+000 -5.7861e+000  1.1113e+000 53182 85775,85853,85827
 1.9000e+000 85957 -9.4040e+000 -4.5758e+000  5.7021e-001 53182 85749,85931,85775
 1.9000e+000 86121 -7.9864e+000 -5.3146e+000  1.3042e+000 53182 86167,85853,86095
 1.9000e+000 86144 -1.7365e+001 -5.8852e+000 -3.1086e-001 53182 85905,86095,85931
 1.9000e+000 86193 -6.6616e+000 -4.2214e+000 -5.7968e-001 53182 85905,85879,86167
 1.9000e+000 86216 -8.2746e+000 -4.8347e+000 -5.4885e-001 53182 85905,86167,86095
 1.9000e+000 86673  1.1026e+001  2.0406e+000  3.8864e-001 52778 86477,86529,86503
 1.9000e+000 86650  1.1915e+001  7.3909e+000  1.6252e+000 52778 86425,86529,86477
 1.9000e+000 86627  3.6495e+000  4.0358e+000  2.3657e+000 52778 86425,86477,86451
 1.9000e+000 86604  8.0302e+000  6.6029e+000  5.7275e-001 52778 86399,86529,86425
 1.9000e+000 86581  6.7605e+000  7.1190e+000 -1.7388e+000 52778 86399,86555,86529
 1.9000e+000 87258  2.7538e+000  5.9529e+000 -4.0126e+000 52238 87281,86987,86961
 1.9000e+000 87235  6.5523e+000  6.6206e+000 -4.6827e+000 52238 87281,86961,87117
 1.9000e+000 87212  1.6047e+001  1.8100e+000  2.6982e-001 52238 86935,87117,86961
 1.9000e+000 87189  5.5818e+000  5.9439e+000 -9.6554e-001 52238 87065,87117,87091
 1.9000e+000 87166 -8.2648e-001  3.1866e-001 -1.5072e+000 52238 86987,87065,87039
 1.9000e+000 87143 -1.9158e+000 -1.4520e+000 -2.9290e-001 52238 86987,87039,87013
 1.9000e+000 87307  1.7023e+000  4.6321e+000  6.5804e-003 52238 87065,86987,87281
 1.9000e+000 87330  5.7846e+000  6.4300e+000 -1.0877e+000 52238 87065,87281,87117
 1.9000e+000 87610 -2.1164e+001  7.1979e+000 -2.0120e-001 51834 87434,87512,87460
 1.9000e+000 87587 -6.7607e+000  2.3609e+001  2.3175e+001 51834 87434,87538,87512
 1.9000e+000 87564 -4.1292e+001 -1.0370e+001 -8.7482e+000 51834 87633,87460,87512
 1.9000e+000 87659 -6.6995e+001 -2.1391e+001 -9.8929e+000 51834 87486,87460,87633
 1.9000e+000 88187 -4.4946e+001 -3.8434e+001  7.9590e+000 51266 87864,87942,87890
 1.9000e+000 88164 -4.5232e+001 -9.8804e+000  5.9609e+000 51266 87864,88020,87942
 1.9000e+000 88141 -6.9189e+001 -2.6727e+001 -7.9346e+000 51266 87942,88020,87968
 1.9000e+000 88118 -6.8523e+001 -2.7310e+001  2.1533e+001 51266 87864,88046,88020
 1.9000e+000 88095 -5.2675e+001 -8.3536e+000 -9.1545e-001 51266 87968,88020,87994
 1.9000e+000 88072 -9.0788e+000 -1.4500e+001 -1.5463e+001 51266 87890,87942,87916
 1.9000e+000 88644 -4.1047e+001 -1.7691e+001 -7.7093e+000 50754 88370,88500,88396
 1.9000e+000 88621 -2.4618e+001 -1.4222e+001 -1.1299e+001 50754 88370,88526,88500
 1.9000e+000 88598 -2.2575e+001 -1.9584e+000  4.0437e+000 50754 88396,88500,88422
 1.9000e+000 88575 -2.7099e+001 -6.7617e+000  5.4898e-001 50754 88422,88500,88474
 1.9000e+000 88552 -6.2072e+001 -2.7149e+001 -1.1921e+001 50754 88422,88474,88448
 1.9000e+000 88914 -6.3483e+001 -8.0539e+001  5.8633e-001 50442 88715,88793,88741
 1.9000e+000 88891 -5.4992e+001 -9.2938e+001  1.0067e+000 50442 88715,88819,88793
 1.9000e+000 88868 -5.9070e+001 -1.0496e+002 -4.1709e+000 50442 88689,88819,88715
 1.9000e+000 88845 -5.9050e+001 -8.5515e+001 -1.2933e+001 50442 88741,88793,88767
 1.9000e+000 89294 -7.3769e+001 -8.0535e+001 -6.2499e+000 49938 89317,89046,89020
 1.9000e+000 89271 -6.7220e+001 -8.7699e+001 -1.0041e+001 49938 89317,89020,89150
 1.9000e+000 89248 -6.5625e+001 -7.4544e+001 -2.5453e+000 49938 89072,89150,89098
 1.9000e+000 89225 -9.0245e+001 -1.1309e+002  1.0496e+001 49938 89020,89176,89150
 1.9000e+000 89202 -5.9547e+001 -5.5371e+001 -3.4493e+000 49938 89098,89150,89124
 1.9000e+000 89343 -4.3741e+001 -2.0363e+001  6.0794e+000 49938 89072,89046,89317
 1.9000e+000 89366 -7.2735e+001 -8.1622e+001 -5.4085e+000 49938 89072,89317,89150
 1.9000e+000 89823 -4.8897e+001 -4.2524e+001 -3.2447e-001 49384 89601,89705,89679
 1.9000e+000 89800 -4.5810e+001 -3.1096e+001 -1.7594e+000 49384 89549,89705,89601
 1.9000e+000 89777 -4.2783e+001 -3.5104e+001 -2.2852e+000 49384 89549,89601,89575
 1.9000e+000 89754 -5.1082e+001 -4.4497e+001 -1.1695e+000 49384 89601,89679,89627
 1.9000e+000 89731 -3.7192e+001 -9.4300e+000  1.1297e-002 49384 89627,89679,89653
 1.9000e+000 90329 -3.6415e+001 -3.1735e+001  2.8356e+000 48894 90058,90110,90084
 1.9000e+000 90306 -4.6328e+001 -3.5580e+001  1.1116e+001 48894 90058,90162,90110
 1.9000e+000 90283 -5.6201e+001 -3.0184e+001  8.4986e+000 48894 90032,90162,90058
 1.9000e+000 90260 -4.2380e+001 -2.6671e+001  1.4470e+001 48894 90006,90162,90032
 1.9000e+000 90237 -3.2218e+001 -1.1775e+001  5.2372e+000 48894 90110,90162,90136
 1.9000e+000 90214 -5.1700e+001 -2.8403e+001  1.1987e+001 48894 90006,90188,90162
 1.9000e+000 90884 -7.7477e+001 -6.6160e+001  1.8762e+001 48490 90564,90642,90616
 1.9000e+000 90861 -7.9808e+001 -3.5379e+001  1.2042e+000 48490 90564,90694,90642
 1.9000e+000 90838 -8.5119e+001 -4.5942e+001 -9.8505e+000 48490 90538,90694,90564
 1.9000e+000 90815 -1.2229e+002 -7.1007e+001  1.0123e+000 48490 90538,90720,90694
 1.9000e+000 90792 -6.6297e+001 -3.0924e+001  2.5568e+001 48490 90564,90616,90590
 1.9000e+000 90769 -8.0171e+001 -7.4560e+001 -4.3655e+001 48490 90642,90694,90668
 1.9000e+000 90746 -9.0600e+001 -6.3081e+001 -5.8338e+000 48490 90512,90720,90538
 1.9000e+000 91034 -5.1650e+001  1.4276e+001 -2.1768e+001 48086 91057,90959,90933
 1.9000e+000 91011 -5.1601e+001 -2.2712e+001 -1.7647e+000 48086 91129,91057,90933
 1.9000e+000 91083 -8.2684e+001 -1.1822e+001 -8.5662e+000 48086 90985,90959,91057
 1.9000e+000 91106 -5.2861e+001 -4.1244e+001  6.6830e+000 48086 90985,91057,90907
 1.9000e+000 91155 -3.3286e+001 -1.7501e+001 -2.9748e+000 48086 90907,91057,91129
 1.9000e+000 91791 -2.6695e+001 -2.6622e-003 -8.9509e-001 47518 92030,91814,91523
 1.9000e+000 91768 -3.5931e+000  1.5012e+001 -2.1701e+000 47518 91958,91814,91471
 1.9000e+000 91745 -1.4412e+001  4.3012e+001  4.1472e+000 47518 91886,91575,91523
 1.9000e+000 91722 -9.0353e+000  3.1222e+000 -3.5004e+000 47518 91958,91471,91419
 1.9000e+000 91699 -4.2563e+001  6.0370e+000 -4.9837e+000 47518 92030,91523,91497
 1.9000e+000 91676 -4.6098e+001  2.9930e+001 -5.2992e+000 47518 91523,91575,91549
 1.9000e+000 91653 -4.2917e+000 -2.4467e+000 -5.0205e+000 47518 91419,91471,91445
 1.9000e+000 91840 -2.1299e+001  2.8610e+001 -2.8830e+000 47518 91886,91523,91814
 1.9000e+000 91863 -1.4038e+001  9.8899e+000  1.7910e+001 47518 91601,91814,91627
 1.9000e+000 91912 -5.2397e+000  4.9726e+001  2.5196e+001 47518 91601,91575,91886
 1.9000e+000 91935 -1.5125e+001  1.7263e+001  1.9192e+001 47518 91601,91886,91814
 1.9000e+000 91984 -5.9091e-001  4.9024e+000  3.3463e+000 47518 91627,91814,91958
 1.9000e+000 92007 -3.3233e+000 -9.3534e-001  2.5864e+000 47518 91627,91958,91419
 1.9000e+000 92056 -3.1429e+001 -7.8085e+000 -1.3683e+001 47518 91471,91814,92030
 1.9000e+000 92079 -4.3350e+001 -4.0610e+000 -1.9169e+001 47518 91471,92030,91497
 1.9000e+000 92229  6.5475e+000  1.4785e+001 -1.4396e+001 47128 92252,92128,92102
 1.9000e+000 92206 -9.1972e+000  4.2040e-001 -4.1691e+000 47128 92324,92252,92102
 1.9000e+000 92278 -4.9247e+000 -4.9530e+000 -4.8309e+000 47128 92454,92252,92154
 1.9000e+000 92301 -1.3681e+001  2.7968e-001  4.2647e+000 47128 92154,92252,92180
 1.9000e+000 92350  2.2455e+000  6.5404e+000 -5.0170e-001 47128 92180,92252,92324
 1.9000e+000 92480 -2.8576e+000  1.5121e+001 -9.6574e-001 47128 92128,92252,92454
 1.9000e+000 93340 -7.1645e+001 -2.3388e+001  2.4203e+000 46838 93363,92977,92873
 1.9000e+000 93317 -8.1078e+001 -2.8430e+001  7.4214e+000 46838 93507,93363,92873
 1.9000e+000 93294 -7.6407e+001 -5.1587e+001 -1.1572e+001 46838 93435,93003,92977
 1.9000e+000 93271 -7.8949e+001 -3.1522e+001  5.7052e+000 46838 93507,92873,92847
 1.9000e+000 93248 -6.8109e+001 -2.6085e+001 -6.9934e+000 46838 93579,93029,93003
 1.9000e+000 93225 -5.7887e+001 -2.7253e+001 -3.9540e-001 46838 92873,92951,92925
 1.9000e+000 93202 -6.0684e+001 -3.1764e+001 -2.7555e+000 46838 92873,92977,92951
 1.9000e+000 93179 -9.6338e+001 -2.8115e+001  1.6270e+001 46838 93055,93107,93081
 1.9000e+000 93156 -8.9033e+001 -4.1632e+001  6.2298e+000 46838 92821,93107,92847
 1.9000e+000 93133 -5.8339e+001 -4.2132e+001  3.3614e+000 46838 92873,92925,92899
 1.9000e+000 93389 -7.8483e+001 -3.1591e+001 -1.9196e+000 46838 93435,92977,93363
 1.9000e+000 93412 -7.3509e+001 -1.3081e+001  8.0463e+000 46838 93055,93363,93107
 1.9000e+000 93461 -7.0216e+001 -2.8043e+001 -8.5754e+000 46838 93579,93003,93435
 1.9000e+000 93484 -7.5733e+001 -1.5651e+001 -4.0382e+000 46838 93055,93435,93363
 1.9000e+000 93533 -8.1442e+001 -3.3475e+001  8.1095e+000 46838 93107,93363,93507
 1.9000e+000 93556 -7.9737e+001 -3.6827e+001  7.7276e+000 46838 93107,93507,92847
 1.9000e+000 93605 -6.3646e+001 -2.5865e+001 -2.9088e+000 46838 93055,93029,93579
 1.9000e+000 93628 -6.5702e+001 -2.7390e+001 -4.3984e+000 46838 93055,93579,93435
 1.9000e+000 93979 -6.8571e+001 -2.8205e+001  9.2422e+000 46476 93780,93884,93858
 1.9000e+000 93956 -8.3195e+001 -7.2760e+001  5.9669e+000 46476 93754,93884,93780
 1.9000e+000 93933 -1.3284e+002 -3.6725e+000 -5.3439e+000 46476 93806,93858,93832
 1.9000e+000 93910 -1.4274e+002 -5.6830e+001  6.5070e+000 46476 93780,93858,93806
 1.9000e+000 94515 -2.0071e+001 -6.6171e+000 -1.2381e+000 46072 94345,94397,94371
 1.9000e+000 94492 -1.5723e+001 -5.1768e+000  1.0362e+000 46072 94267,94397,94345
 1.9000e+000 94469 -9.2762e+000 -2.1910e+000 -2.5381e+000 46072 94241,94397,94267
 1.9000e+000 94446 -3.0649e+000  1.5290e+000 -2.5551e+000 46072 94293,94345,94319
 1.9000e+000 94423 -1.1024e+001  4.1952e-001  3.0765e+000 46072 94267,94345,94293
 1.9000e+000 95149 -2.4337e+001 -4.7473e+000 -2.6292e+000 45346 94803,94881,94855
 1.9000e+000 95126 -1.8303e+001 -1.5070e+000 -3.9509e+000 45346 94803,94959,94881
 1.9000e+000 95103 -1.7930e+001  2.4833e+000 -2.6320e+000 45346 95172,94933,94907
 1.9000e+000 95080 -1.8541e+001 -5.7536e+000 -2.3813e+000 45346 95172,94907,94881
 1.9000e+000 95057 -2.3600e+001 -3.7948e+000 -4.8576e+000 45346 94803,94985,94959
 1.9000e+000 95034 -2.6764e+001 -1.5031e+000 -5.4161e-001 45346 94803,94855,94829
 1.9000e+000 95011 -2.2170e+001 -7.6376e-001 -8.9138e+000 45346 94777,94985,94803
 1.9000e+000 95198 -1.9103e+001  6.3361e+000 -1.6607e+000 45346 94959,94933,95172
 1.9000e+000 95221 -1.7414e+001  1.3162e+000 -1.8044e+000 45346 94959,95172,94881
 1.9000e+000 95776 -9.7381e+000 -2.6645e+000  1.2148e+001 44720 95799,95560,95534
 1.9000e+000 95753 -1.3300e+001 -5.9798e+000  1.3528e+001 44720 95799,95534,95482
 1.9000e+000 95730 -1.9990e+001 -3.3028e+000  1.1542e+001 44720 95943,95871,95430
 1.9000e+000 95707 -2.2423e+001  3.4797e-001  1.1937e+001 44720 95943,95430,95404
 1.9000e+000 95684 -4.3085e+001 -5.5588e+000  1.1907e+001 44720 95430,95482,95456
 1.9000e+000 95661  1.1985e+001  6.9660e+000  1.9241e+001 44720 95482,95534,95508
 1.9000e+000 95638 -2.3195e+001  9.1892e+000 -5.6894e-001 44720 95404,95612,95586
 1.9000e+000 95825 -1.2017e+001  1.1323e+000  1.3510e+001 44720 95586,95560,95799
 1.9000e+000 95848 -1.1478e+001 -8.3028e-001  1.1573e+001 44720 95871,95586,95799
 1.9000e+000 95897 -1.7852e+001 -3.4588e+000  9.9001e+000 44720 95482,95430,95871
 1.9000e+000 95920 -1.8181e+001 -3.2847e+000  1.0965e+001 44720 95482,95871,95799
 1.9000e+000 95969 -1.5001e+001  5.4043e-001  9.3050e+000 44720 95586,95871,95943
 1.9000e+000 95992 -1.9667e+001  1.8352e+000  1.0326e+001 44720 95586,95943,95404
 1.9000e+000 96449  2.6609e+000 -8.6185e-001  9.8686e-001 44202 96544,96472,96227
 1.9000e+000 96426  1.1700e+000 -4.3664e-001  1.7653e+000 44202 96472,96175,96331
 1.9000e+000 96403 -4.2930e+000  7.1971e-001  9.7633e-001 44202 96544,96227,96201
 1.9000e+000 96380  5.4079e+000  1.8261e+000 -1.3036e+000 44202 96253,96305,96279
 1.9000e+000 96357  4.2295e+000  2.3354e+000 -5.3016e-001 44202 96227,96305,96253
 1.9000e+000 96498  4.4100e+000  7.8534e-001 -3.3203e-001 44202 96305,96227,96472
 1.9000e+000 96521  2.6617e+000  2.0893e+000  3.5312e+000 44202 96305,96472,96331
 1.9000e+000 96570 -5.0108e+000 -1.7421e+000 -1.0246e+000 44202 96175,96472,96544
 1.9000e+000 96593 -1.1143e+001  7.5812e-001  1.9680e-001 44202 96175,96544,96201
 1.9000e+000 96971 -1.1169e+002 -1.0055e+002  4.7907e+000 43754 96994,96749,96697
 1.9000e+000 96948 -9.5971e+001 -1.0736e+002  1.1084e+001 43754 96994,96697,96853
 1.9000e+000 96925 -1.0197e+002 -9.2875e+001 -1.3364e-002 43754 96697,96749,96723
 1.9000e+000 96902 -5.6243e+001 -5.2687e+001  5.2497e+000 43754 96775,96853,96827
 1.9000e+000 96879 -3.4231e+001 -3.9489e+001  1.1792e+001 43754 96775,96827,96801
 1.9000e+000 97020 -1.0335e+002 -9.2194e+001  1.5158e+001 43754 96775,96749,96994
 1.9000e+000 97043 -8.5756e+001 -1.0251e+002  1.9284e+001 43754 96775,96994,96853
 1.9000e+000 97291 -4.7515e+001 -8.4999e+000 -5.1221e+000 43364 97314,97144,97118
 1.9000e+000 97268 -5.8883e+001 -2.0787e+001 -1.0505e+001 43364 97314,97118,97092
 1.9000e+000 97245 -4.1513e+001 -2.4957e+001 -6.5114e+000 43364 97386,97196,97170
 1.9000e+000 97222 -4.6634e+001 -3.8439e+001 -1.3347e+001 43364 97066,97196,97092
 1.9000e+000 97340 -4.5073e+001 -2.3037e+001 -5.2286e+000 43364 97170,97144,97314
 1.9000e+000 97363 -4.3047e+001 -2.3192e+001 -8.0723e+000 43364 97386,97170,97314
 1.9000e+000 97412 -4.2603e+001 -2.7080e+001 -8.5495e+000 43364 97092,97196,97386
 1.9000e+000 97435 -4.5566e+001 -2.7229e+001 -1.0384e+001 43364 97092,97386,97314
 1.9000e+000 97788 -2.1528e+001  6.0470e+000 -3.8501e-001 42960 97563,97667,97589
 1.9000e+000 97765 -4.5196e+001 -9.9890e+000  7.0020e+000 42960 97563,97693,97667
 1.9000e+000 97742 -6.2381e+001  1.7989e+000 -1.4316e+000 42960 97589,97641,97615
 1.9000e+000 97719 -5.9590e+001 -6.8560e+000 -3.4618e+000 42960 97589,97667,97641
 1.9000e+000 98215 -4.1366e+001 -5.8015e+001 -1.1879e+001 42563 97918,98074,98048
 1.9000e+000 98192 -3.1674e+001 -4.0602e+001  1.2902e+000 42563 97892,98074,97918
 1.9000e+000 98169 -4.8341e+001 -2.6704e+001 -2.2831e+001 42563 98238,97944,97918
 1.9000e+000 98146 -4.8412e+001 -2.6782e+001 -2.0555e+001 42563 98238,97918,98048
 1.9000e+000 98123 -7.0572e+001 -1.3292e+001 -1.1822e+001 42563 97944,98022,97996
 1.9000e+000 98100 -6.6437e+001  6.6286e-001 -5.4800e+000 42563 97944,97996,97970
 1.9000e+000 98264 -5.0777e+001 -2.7456e+001 -2.2807e+001 42563 98022,97944,98238
 1.9000e+000 98287 -5.0504e+001 -2.7655e+001 -2.0800e+001 42563 98022,98238,98048
 1.9000e+000 98616 -2.3023e+001 -1.8741e+001 -1.5984e+000 42251 98443,98521,98469
 1.9000e+000 98593 -2.5693e+001 -1.5532e+001  4.9916e-001 42251 98417,98521,98443
 1.9000e+000 98570 -2.7881e+001 -2.1204e+001 -3.2706e+000 42251 98391,98521,98417
 1.9000e+000 98547 -2.6464e+001 -1.6552e+001 -7.5194e+000 42251 98469,98521,98495
 1.9000e+000 98886 -1.6647e+002 -9.3418e+001 -1.0058e+001 41847 98661,98765,98687
 1.9000e+000 98863 -1.8651e+002 -1.3357e+002  1.3451e+001 41847 98661,98791,98765
 1.9000e+000 98840 -1.8521e+002 -9.7642e+001 -1.8038e+001 41847 98687,98765,98739
 1.9000e+000 98817 -1.2710e+002 -7.2157e+001 -2.2797e+001 41847 98687,98739,98713
 1.9000e+000 99394 -2.6346e+001 -7.1704e-003  7.5259e-001 41236 99417,99149,99123
 1.9000e+000 99371 -3.3754e+001 -4.9837e+000 -1.5969e+000 41236 99417,99123,99097
 1.9000e+000 99348 -2.9646e+001 -1.0244e+001 -2.3867e+000 41236 99489,99201,99149
 1.9000e+000 99325 -3.8231e+001 -1.8954e+001 -1.1253e+001 41236 99149,99201,99175
 1.9000e+000 99302 -4.2321e+001 -4.0261e+000 -4.1840e+000 41236 99097,99253,99227
 1.9000e+000 99279 -6.4994e+001 -1.6550e+001 -9.1681e+000 41236 99071,99253,99097
 1.9000e+000 99443 -3.0930e+001 -7.9296e+000 -2.2214e+000 41236 99489,99149,99417
 1.9000e+000 99466 -3.1048e+001 -2.8650e+000 -3.6128e+000 41236 99227,99417,99097
 1.9000e+000 99515 -3.0567e+001 -7.7191e+000 -4.0943e+000 41236 99227,99201,99489
 1.9000e+000 99538 -3.0352e+001 -3.8710e+000 -4.3114e+000 41236 99227,99489,99417
 1.9000e+000 100044  8.0770e+000  3.1054e+001  1.8416e+001 40732 99721,99773,99747
 1.9000e+000 100021 -1.2218e+001  1.9989e+001  8.1782e+000 40732 99721,99799,99773
 1.9000e+000 99998 -5.6311e+000  6.4674e+000  4.5545e+000 40732 99721,99903,99799
 1.9000e+000 99975  3.3727e+000  1.1045e+000  7.9255e-001 40732 100067,99877,99851
 1.9000e+000 99952 -1.5429e+000  3.3866e+000  3.8627e+000 40732 100067,99851,99799
 1.9000e+000 99929 -8.0661e+000  2.1448e+000  2.1359e+000 40732 99799,99851,99825
 1.9000e+000 100093 -9.3097e-001  1.2557e+000  8.3464e-001 40732 99903,99877,100067
 1.9000e+000 100116 -7.0928e+000  2.4802e+000  4.0969e+000 40732 99903,100067,99799
 1.9000e+000 100622 -6.4233e+001 -1.9618e+001  2.5829e+000 40278 100645,100455,100429
 1.9000e+000 100599 -7.3327e+001 -2.4269e+001  4.7425e+000 40278 100717,100645,100429
 1.9000e+000 100576 -8.6010e+001 -2.9894e+001 -9.0317e+000 40278 100717,100429,100377
 1.9000e+000 100553 -6.9801e+001 -3.5980e+001  5.3698e+000 40278 100789,100325,100481
 1.9000e+000 100530 -8.1929e+001 -2.3633e+001  8.8506e+000 40278 100299,100481,100325
 1.9000e+000 100507 -6.7225e+001 -1.9625e+001 -4.6550e+000 40278 100377,100429,100403
 1.9000e+000 100671 -7.0185e+001 -1.0963e-001  8.1873e+000 40278 100481,100455,100645
 1.9000e+000 100694 -7.4332e+001 -2.9336e+001  2.2659e-001 40278 100789,100481,100645
 1.9000e+000 100743 -8.3138e+001 -3.6779e+001 -1.4972e+001 40278 100351,100645,100717
 1.9000e+000 100766 -1.0896e+002 -4.5457e+001 -2.8648e+001 40278 100351,100717,100377
 1.9000e+000 100815 -6.5989e+001 -3.4129e+001 -2.6328e+000 40278 100351,100325,100789
 1.9000e+000 100838 -6.5541e+001 -2.0564e+001 -8.0649e+000 40278 100351,100789,100645
 1.9000e+000 101265 -3.7038e+001 -1.6390e+001 -2.0178e+000 39824 101288,101046,100994
 1.9000e+000 101242 -4.3987e+001 -2.1816e+001 -5.4876e+000 39824 101288,100994,100968
 1.9000e+000 101219 -5.6093e+001 -1.4593e+001  9.9556e-001 39824 100942,101124,100968
 1.9000e+000 101196 -2.2482e+001 -1.0075e+001 -7.4578e+000 39824 101046,101124,101072
 1.9000e+000 101173 -3.1014e+001 -1.8664e+001 -9.7398e+000 39824 100994,101046,101020
 1.9000e+000 101150 -6.8285e+000 -1.2609e+001 -5.8317e+000 39824 101072,101124,101098
 1.9000e+000 101314 -3.3437e+001 -1.9173e+001  4.5046e-001 39824 101124,101046,101288
 1.9000e+000 101337 -3.6891e+001 -1.9983e+001 -1.9181e+000 39824 101124,101288,100968
 1.9000e+000 101585 -6.1684e+001 -6.9797e+001  3.5464e+001 39070 101608,101464,101412
 1.9000e+000 101562 -6.0067e+001 -5.6422e+001  3.4064e+001 39070 101608,101412,101360
 1.9000e+000 101539 -7.4460e+001 -6.4420e+001  4.3435e+001 39070 101412,101464,101438
 1.9000e+000 101516 -6.5841e+001 -6.6480e+001  3.6338e+001 39070 101360,101412,101386
 1.9000e+000 101634 -6.5453e+001 -6.5129e+001  2.6432e+001 39070 101490,101464,101608
 1.9000e+000 101657 -6.0526e+001 -4.6921e+001  2.4953e+001 39070 101490,101608,101360
 1.9000e+000 101856 -1.4220e+002 -6.0536e+001 -9.9436e+000 38730 101706,101758,101732
 1.9000e+000 101833 -1.3721e+002 -8.9142e+001  1.5129e-002 38730 101706,101784,101758
 1.9000e+000 101810 -1.8446e+002 -1.1168e+002 -6.5921e+000 38730 101680,101784,101706
 1.9000e+000 102106 -4.3521e+001 -2.2974e+001 -7.6864e-001 38326 101881,101959,101907
 1.9000e+000 102083 -4.3475e+001 -1.9087e+001  1.3427e+000 38326 101881,101985,101959
 1.9000e+000 102060 -3.0907e+001 -2.5874e+001  6.2853e+000 38326 101881,102011,101985
 1.9000e+000 102037 -5.4792e+001 -1.9111e+001 -4.5927e+000 38326 101907,101959,101933
 1.9000e+000 102258 -7.1525e+001 -5.0685e+001 -1.6172e+000 38036 102281,102157,102131
 1.9000e+000 102235 -6.2014e+001 -4.7466e+001 -2.7756e+000 38036 102281,102131,102209
 1.9000e+000 102307 -6.0401e+001 -5.5527e+001 -2.2360e-001 38036 102183,102157,102281
 1.9000e+000 102330 -4.8450e+001 -5.0902e+001 -9.6758e-001 38036 102183,102281,102209
 1.9000e+000 102663 -1.2175e+001 -9.9920e+000  1.1818e+000 37596 102438,102542,102464
 1.9000e+000 102640 -6.6043e+000 -8.0840e+000  4.0672e-001 37596 102438,102568,102542
 1.9000e+000 102617 -9.1234e+000 -2.7779e+000  5.2205e+000 37596 102490,102542,102516
 1.9000e+000 102594 -7.5220e+000 -3.6192e+000  3.2210e+000 37596 102464,102542,102490
 1.9000e+000 102862 -3.8394e+001 -1.1675e+001  6.5707e-001 37192 102686,102764,102712
 1.9000e+000 102839 -3.7089e+001 -9.7483e+000 -1.7406e-001 37192 102686,102790,102764
 1.9000e+000 102816 -4.9474e+001 -1.8261e+001  3.4757e+000 37192 102712,102764,102738
 1.9000e+000 103110 -3.6094e+001 -1.2951e+001 -2.9431e+000 36609 102911,102963,102937
 1.9000e+000 103087 -2.6585e+001 -1.2300e+001 -9.5768e-002 36609 102911,102989,102963
 1.9000e+000 103064 -2.9824e+001 -1.2961e+001 -2.6468e-001 36609 102885,102989,102911
 1.9000e+000 103041 -2.3904e+001 -8.7287e+000 -2.1557e+000 36609 102885,103015,102989
 1.9000e+000 103718 -6.8540e+000 -6.9048e+000  5.0585e+000 36131 103323,103375,103349
 1.9000e+000 103695 -8.1999e+000 -4.6894e+000  4.5419e+000 36131 103297,103375,103323
 1.9000e+000 103672 -1.1240e+001 -6.8096e+000  1.0203e+001 36131 103297,103505,103375
 1.9000e+000 103649 -9.3543e+000 -8.2450e+000  1.2056e+001 36131 103741,103479,103401
 1.9000e+000 103626 -1.2670e+001 -1.5764e+001  6.0587e+000 36131 103741,103401,103375
 1.9000e+000 103603 -1.1818e+001 -9.0434e+000  1.1096e+001 36131 103401,103479,103427
 1.9000e+000 103580  9.3814e+000 -1.4208e+000  1.1191e+001 36131 103297,103531,103505
 1.9000e+000 103557 -4.5239e+000 -6.7463e-002  7.3064e-001 36131 103427,103479,103453
 1.9000e+000 103767 -4.2559e+000 -1.2045e+000  1.7390e+001 36131 103505,103479,103741
 1.9000e+000 103790 -8.2458e+000 -8.3925e+000  1.1230e+001 36131 103505,103741,103375
 1.9000e+000 103989 -6.0970e+001 -1.7645e+001 -1.3265e-001 35791 103839,103917,103891
 1.9000e+000 103966 -5.7693e+001 -2.2639e+001 -5.8999e-001 35791 103813,103917,103839
 1.9000e+000 103943 -5.2877e+001 -5.5182e+000 -7.0689e+000 35791 103839,103891,103865
 1.9000e+000 104188 -6.6489e+001 -3.2781e+001 -6.3944e+000 35444 104038,104090,104064
 1.9000e+000 104165 -6.3032e+001 -2.9641e+001 -3.4930e+000 35444 104038,104116,104090
 1.9000e+000 104142 -6.9701e+001 -5.1554e+001 -8.1612e+000 35444 104012,104116,104038
 1.9000e+000 104487 -4.7798e+001 -1.6968e+001  2.4525e+000 34990 104265,104317,104291
 1.9000e+000 104464 -5.5827e+001 -1.7434e+001 -1.9465e-001 34990 104510,104317,104265
 1.9000e+000 104441 -5.7880e+001 -2.3342e+001 -2.2770e+000 34990 104510,104265,104213
 1.9000e+000 104418 -5.6086e+001 -2.3743e+001  3.2205e+000 34990 104582,104343,104317
 1.9000e+000 104395 -5.1781e+001 -9.8106e+000 -4.9201e+000 34990 104213,104265,104239
 1.9000e+000 104536 -5.6622e+001 -2.4437e+001 -4.5974e-001 34990 104582,104317,104510
 1.9000e+000 104559 -5.3973e+001 -2.7134e+001 -2.5994e+000 34990 104369,104510,104213
 1.9000e+000 104608 -4.6891e+001 -2.0635e+001  4.8501e+000 34990 104369,104343,104582
 1.9000e+000 104631 -5.0306e+001 -2.1737e+001 -8.0948e-001 34990 104369,104582,104510
 1.9000e+000 104783 -8.3632e+001 -3.6763e+001 -1.0089e+001 34700 104938,104806,104682
 1.9000e+000 104760 -7.9901e+001 -5.0848e+001  1.2018e+000 34700 104938,104682,104656
 1.9000e+000 104832 -5.1833e+001 -1.3091e+001  6.8649e-001 34700 104708,104682,104806
 1.9000e+000 104964 -9.8268e+001 -3.8478e+001  4.1248e-001 34700 104734,104806,104938
 1.9000e+000 104987 -9.4304e+001 -5.0105e+001  1.1624e+001 34700 104734,104938,104656
 1.9000e+000 105137 -1.3252e+002 -3.6609e+000 -5.5773e-001 34388 105036,105088,105062
 1.9000e+000 105114 -1.2912e+002 -6.8044e+001 -1.0706e+001 34388 105010,105088,105036
 1.9000e+000 105385 -5.4601e+001 -2.0798e+001  5.2657e+000 33734 105408,105186,105160
 1.9000e+000 105362 -5.3066e+001 -2.2613e+001  3.7127e+000 33734 105408,105160,105264
 1.9000e+000 105339 -4.8181e+001 -1.8589e+001  1.9224e+000 33734 105160,105290,105264
 1.9000e+000 105316 -6.0283e+001 -2.6058e+001  1.2805e+001 33734 105186,105238,105212
 1.9000e+000 105434 -5.3208e+001 -1.9699e+001  5.8120e+000 33734 105238,105186,105408
 1.9000e+000 105457 -4.9855e+001 -2.1160e+001  4.4862e+000 33734 105238,105408,105264
 1.9000e+000 105609 -6.2270e+001 -2.8572e+001 -3.0196e+001 33394 105482,105534,105508
 1.9000e+000 105586 -5.2568e+001 -4.7063e+001 -1.3397e+001 33394 105482,105560,105534
 1.9000e+000 105859 -8.7009e+001 -3.4191e+001 -7.0053e+000 33047 105882,105712,105660
 1.9000e+000 105836 -1.0055e+002 -3.2372e+001  2.6434e+000 33047 105882,105660,105634
 1.9000e+000 105813 -7.6784e+001 -3.1386e+001 -6.1506e+000 33047 105660,105712,105686
 1.9000e+000 105790 -7.5294e+001 -1.8189e+001 -1.1695e+001 33047 105634,105764,105738
 1.9000e+000 105908 -5.6040e+001 -1.8336e+001 -1.8286e+001 33047 105738,105712,105882
 1.9000e+000 105931 -8.8638e+001 -3.2587e+001 -5.7601e+000 33047 105738,105882,105634
 1.9000e+000 106181 -2.0560e+001 -7.9010e+000  1.5364e+000 32543 106204,106060,106008
 1.9000e+000 106158 -1.2650e+001 -7.5771e+000  1.4689e+000 32543 105956,106086,106060
 1.9000e+000 106135 -2.0093e+001 -5.8072e+000  2.6705e+000 32543 106204,106008,105982
 1.9000e+000 106112 -1.3297e+001 -1.3557e+001  2.7007e+000 32543 106008,106060,106034
 1.9000e+000 106230 -2.0653e+001 -8.6898e+000  5.5991e-001 32543 105956,106060,106204
 1.9000e+000 106253 -2.0901e+001 -7.0101e+000  1.5455e+000 32543 105956,106204,105982
 1.9000e+000 106454 -6.8473e+001 -4.1282e+001 -2.0743e+001 31839 106304,106356,106330
 1.9000e+000 106431 -8.0557e+001 -3.7941e+001 -6.7972e+000 31839 106278,106356,106304
 1.9000e+000 106408 -6.6183e+001 -2.4280e+001 -1.2401e+001 31839 106278,106382,106356
 1.9000e+000 106704 -3.6845e+001 -1.8297e+001  2.9807e+000 31534 106505,106583,106557
 1.9000e+000 106681 -4.2532e+001 -1.8393e+001  5.2265e+000 31534 106479,106583,106505
 1.9000e+000 106658 -4.7536e+001 -1.9802e+001  4.4244e+000 31534 106505,106557,106531
 1.9000e+000 106635 -3.9342e+001 -1.6926e+001  4.7347e+000 31534 106479,106609,106583
 1.9000e+000 107108 -8.7009e+001  1.2117e+001 -1.9189e+001 31030 106886,106990,106964
 1.9000e+000 107085 -6.6999e+001 -1.0247e+001 -7.7730e+000 31030 106860,106990,106886
 1.9000e+000 107062 -5.7105e+001 -3.8682e+000 -3.9288e+000 31030 106834,106990,106860
 1.9000e+000 107039 -1.3497e+002 -4.6551e+001  1.1273e+001 31030 106912,106964,106938
 1.9000e+000 107016 -1.4581e+002 -1.1794e+001 -1.7467e+001 31030 106886,106964,106912
 1.9000e+000 107307 -1.2919e+002 -1.6132e+001 -9.9144e+000 30718 107330,107157,107131
 1.9000e+000 107284 -1.0667e+002 -3.1114e+001 -1.4827e+001 30718 107330,107131,107235
 1.9000e+000 107261 -9.9391e+001 -3.9932e+001 -2.3597e+001 30718 107183,107235,107209
 1.9000e+000 107356 -1.0916e+002 -8.0746e+000 -3.1462e+000 30718 107183,107157,107330
 1.9000e+000 107379 -8.9326e+001 -2.5887e+001 -9.8998e+000 30718 107183,107330,107235
 1.9000e+000 107759 -7.8727e+001 -5.5401e+001  1.5958e+001 30264 107782,107615,107537
 1.9000e+000 107736 -6.9223e+001 -3.3215e+001  1.5535e+001 30264 107782,107537,107485
 1.9000e+000 107713 -8.5179e+001 -4.2038e+001  2.0324e+001 30264 107485,107537,107511
 1.9000e+000 107690 -6.3184e+001 -6.8229e+001  1.1818e+001 30264 107537,107615,107589
 1.9000e+000 107667 -6.1641e+001 -7.3235e+001  8.5426e+000 30264 107537,107589,107563
 1.9000e+000 107808 -8.2785e+001 -5.0180e+001 -1.5471e+000 30264 107641,107615,107782
 1.9000e+000 107831 -7.2249e+001 -2.5274e+001 -7.6869e-001 30264 107641,107782,107485
 1.9000e+000 108030 -3.2557e+001 -1.6968e+001  3.8029e+000 29874 108053,107854,107932
 1.9000e+000 108007 -2.8946e+001 -8.7515e+000 -1.5482e+000 29874 107854,107958,107932
 1.9000e+000 107984 -2.3108e+001 -1.2797e+001  4.9095e+000 29874 108053,107932,107906
 1.9000e+000 108079 -3.6939e+001 -1.2311e+001  6.9422e+000 29874 107880,107854,108053
 1.9000e+000 108102 -3.2304e+001 -1.0998e+001  7.3440e+000 29874 107880,108053,107906
 1.9000e+000 108433 -4.6710e+001 -2.9933e+001 -5.3712e+000 29484 108234,108338,108312
 1.9000e+000 108410 -7.2641e+001 -3.5980e+001  1.7379e+000 29484 108208,108338,108234
 1.9000e+000 108387 -6.4247e+001 -3.7905e+001 -2.8073e+000 29484 108234,108312,108260
 1.9000e+000 108364 -6.2951e+001 -4.5021e+001 -4.1936e+000 29484 108260,108312,108286
 1.9000e+000 108762 -1.6791e+001 -1.7884e+001  9.3824e+000 29080 108563,108641,108589
 1.9000e+000 108739 -1.7602e+001 -1.1993e+001  5.6062e+000 29080 108537,108641,108563
 1.9000e+000 108716 -2.5777e+001 -3.7346e+000  1.7805e+001 29080 108589,108641,108615
 1.9000e+000 108693 -1.4671e+001 -1.0727e+001  5.7434e+000 29080 108537,108667,108641
 1.9000e+000 109189 -7.0046e+001 -2.8465e+001  2.4387e+000 28476 108892,108996,108970
 1.9000e+000 109166 -7.4924e+001 -3.5395e+001  5.2421e+000 28476 108892,109022,108996
 1.9000e+000 109143 -7.6134e+001 -3.4026e+001  5.3109e+000 28476 108892,108970,108944
 1.9000e+000 109120 -9.0274e+001 -3.8235e+001  5.5019e+000 28476 108892,109048,109022
 1.9000e+000 109097 -8.1481e+001 -4.2523e+001  2.2462e+000 28476 108892,108944,108918
 1.9000e+000 109074 -1.0063e+002 -2.4230e+001 -3.1627e+000 28476 108866,109048,108892
 1.9000e+000 109518 -9.7327e+000  9.5581e-001  9.3022e+000 28022 109541,109371,109345
 1.9000e+000 109495 -1.6545e+001  7.3772e+000 -7.7704e-002 28022 109541,109345,109319
 1.9000e+000 109472  4.2763e-001  9.4799e+000  2.6387e+000 28022 109293,109397,109319
 1.9000e+000 109449 -2.5374e+000  3.1662e+000  9.6403e+000 28022 109293,109423,109397
 1.9000e+000 109567  1.8574e+001  1.2087e+001  1.2413e+001 28022 109397,109371,109541
 1.9000e+000 109590 -7.6798e+000  6.3236e+000  2.8966e+000 28022 109397,109541,109319
 1.9000e+000 109968 -9.2278e+001 -6.0187e+001 -1.5798e+001 27568 109798,109850,109824
 1.9000e+000 109945 -8.4549e+001 -5.9529e+001 -8.6274e+000 27568 109694,109850,109798
 1.9000e+000 109922 -5.7481e+001 -6.7989e+001 -9.5678e+000 27568 109694,109798,109746
 1.9000e+000 109899 -5.3744e+001 -6.7773e+001 -1.7618e+001 27568 109746,109798,109772
 1.9000e+000 109876 -5.9138e+001 -7.9519e+001 -3.3242e+000 27568 109694,109746,109720
 1.9000e+000 110167 -4.8020e+001 -2.1237e+001  3.3729e+000 27007 110017,110095,110069
 1.9000e+000 110144 -5.2368e+001 -2.7396e+001  1.3495e+000 27007 109991,110095,110017
 1.9000e+000 110121 -4.8812e+001 -1.7667e+001  8.4100e+000 27007 110017,110069,110043
 1.9000e+000 110415 -2.2085e+001 -1.5527e+001  5.8012e+000 26567 110438,110242,110190
 1.9000e+000 110392 -1.7219e+001 -1.1557e+001  4.0836e+000 26567 110438,110190,110320
 1.9000e+000 110369 -1.4534e+001 -1.7655e+001  7.1720e+000 26567 110242,110294,110268
 1.9000e+000 110346 -2.1780e+001 -1.4403e+001  6.4791e+000 26567 110190,110242,110216
 1.9000e+000 110464 -1.9610e+001 -1.7010e+001  7.8618e+000 26567 110294,110242,110438
 1.9000e+000 110487 -1.7256e+001 -1.5270e+001  6.9148e+000 26567 110294,110438,110320
 1.9000e+000 110639 -8.7742e+001 -2.7496e+001 -1.2253e+001 26170 110538,110590,110564
 1.9000e+000 110616 -8.9635e+001 -4.3858e+001 -1.1672e+001 26170 110512,110590,110538
 1.9000e+000 111149 -1.4062e+002 -6.3612e+001  2.5354e+001 25716 111172,110878,110852
 1.9000e+000 111126 -1.0656e+002 -6.3321e+001  2.6098e+001 25716 111172,110852,111008
 1.9000e+000 111103 -1.4399e+002 -4.4552e+001  7.0291e+001 25716 110878,110930,110904
 1.9000e+000 111080 -1.2902e+002 -7.4070e+001  2.3033e+001 25716 110826,111008,110852
 1.9000e+000 111057 -6.8060e+001 -6.8714e+001  2.1920e+001 25716 110930,111008,110956
 1.9000e+000 111034 -5.5694e+001 -7.1478e+001  2.7067e+001 25716 110956,111008,110982
 1.9000e+000 111198 -1.1354e+002 -7.4417e+001  3.5418e+001 25716 110930,110878,111172
 1.9000e+000 111221 -7.2302e+001 -6.8486e+001  3.6720e+001 25716 110930,111172,111008
 1.9000e+000 111420 -1.2603e+002 -5.3506e+001  5.7000e+000 25304 111443,111270,111244
 1.9000e+000 111397 -1.2070e+002 -9.1011e+001  7.9038e+000 25304 111443,111244,111348
 1.9000e+000 111374 -1.2018e+002 -3.4412e+001 -1.3286e+001 25304 111270,111322,111296
 1.9000e+000 111469 -1.2674e+002 -2.6291e+001  6.4078e+000 25304 111322,111270,111443
 1.9000e+000 111492 -1.1579e+002 -5.6265e+001  1.1749e+001 25304 111322,111443,111348
 1.9000e+000 111691 -1.6804e+001 -8.7409e+000 -2.2790e+000 24736 111567,111619,111593
 1.9000e+000 111668 -1.6917e+001  2.6493e+000 -7.6189e+000 24736 111541,111619,111567
 1.9000e+000 111645 -2.0669e+001  1.0529e+001 -2.5591e+000 24736 111515,111619,111541
 1.9000e+000 112024 -1.4976e+001 -4.6355e+000 -4.7141e-001 24146 111825,111877,111851
 1.9000e+000 112001 -1.5528e+001  4.0801e+000 -3.6752e+000 24146 111825,111903,111877
 1.9000e+000 111978 -1.9612e+001 -3.8606e+001 -2.4232e+000 24146 111825,111929,111903
 1.9000e+000 111955 -2.5960e+001 -3.6921e+001 -2.1610e-001 24146 111799,111929,111825
 1.9000e+000 112370 -4.2429e+001 -2.2378e+001  1.3099e+001 23856 112393,112151,112125
 1.9000e+000 112347 -4.1887e+001 -1.4423e+001  1.1240e+001 23856 112465,112393,112125
 1.9000e+000 112324 -4.0727e+001 -1.2338e+001  1.0699e+001 23856 112465,112125,112073
 1.9000e+000 112301 -5.7550e+001 -1.7486e+001  1.5765e+001 23856 112073,112125,112099
 1.9000e+000 112278 -4.7041e+001 -1.8446e+001  1.2106e+000 23856 112047,112229,112073
 1.9000e+000 112255 -2.2390e+001 -2.1368e+001  5.4945e+000 23856 112151,112203,112177
 1.9000e+000 112419 -2.5823e+001 -1.5385e+001  1.1903e+001 23856 112203,112151,112393
 1.9000e+000 112442 -4.0916e+001 -2.6082e+001  7.0206e+000 23856 112203,112393,112229
 1.9000e+000 112491 -4.1241e+001 -1.6157e+001  5.5447e+000 23856 112229,112393,112465
 1.9000e+000 112514 -3.8527e+001 -1.0318e+001  4.7939e+000 23856 112229,112465,112073
 1.9000e+000 112784 -5.7303e+001  1.8817e+001 -7.2617e+000 23494 112611,112663,112637
 1.9000e+000 112761 -3.8104e+001  2.7603e+000 -1.7757e+000 23494 112585,112663,112611
 1.9000e+000 112738 -5.9663e+001 -6.2008e+000  8.5000e+000 23494 112559,112663,112585
 1.9000e+000 112715 -4.3284e+001  4.5148e+001  1.2677e+001 23494 112559,112689,112663
 1.9000e+000 113117 -8.6667e+001 -4.7221e+001 -2.2560e+001 22974 112944,113022,112996
 1.9000e+000 113094 -8.1250e+001 -5.6432e+001 -1.8950e+001 22974 112918,113022,112944
 1.9000e+000 113071 -8.9830e+001 -5.4960e+001 -2.2632e+001 22974 112944,112996,112970
 1.9000e+000 113048 -8.5317e+001 -6.0640e+001 -2.3368e+001 22974 112892,113022,112918
 1.9000e+000 113414 -9.1694e+001 -4.3216e+001 -3.8630e+000 22370 113192,113296,113218
 1.9000e+000 113391 -1.1180e+002 -5.8991e+001 -1.1059e+001 22370 113140,113296,113192
 1.9000e+000 113368 -9.3279e+001 -4.5668e+001  1.3062e+000 22370 113218,113296,113270
 1.9000e+000 113345 -8.4001e+001 -4.6988e+001  1.1286e+001 22370 113218,113270,113244
 1.9000e+000 113322 -9.6627e+001 -4.1502e+001 -3.0291e+001 22370 113140,113192,113166
 1.9000e+000 113662 -5.7881e+001 -1.9903e+001 -6.3680e-003 21916 113685,113515,113489
 1.9000e+000 113639 -6.7109e+001 -1.7028e+001 -2.0617e+000 21916 113685,113489,113437
 1.9000e+000 113616 -3.7492e+001 -1.4865e+001 -1.4836e+000 21916 113757,113567,113541
 1.9000e+000 113593 -6.9816e+001 -2.1385e+001 -7.9617e+000 21916 113437,113489,113463
 1.9000e+000 113711 -5.9000e+001 -2.1338e+001 -1.0411e+000 21916 113541,113515,113685
 1.9000e+000 113734 -5.3343e+001 -1.8829e+001 -5.7152e-001 21916 113757,113541,113685
 1.9000e+000 113783 -5.7940e+001 -1.8203e+001 -3.1877e+000 21916 113437,113567,113757
 1.9000e+000 113806 -6.2442e+001 -1.4806e+001 -4.6133e+000 21916 113437,113757,113685
 1.9000e+000 114056 -7.2839e+001 -1.6293e+001 -9.2526e+000 21412 113857,113909,113883
 1.9000e+000 114033 -7.2280e+001 -2.1272e+001 -1.1084e+001 21412 114079,113909,113857
 1.9000e+000 114010 -6.6884e+001 -2.5126e+001 -2.1074e+000 21412 114079,113857,113961
 1.9000e+000 113987 -6.9901e+001 -2.8856e+001 -3.7260e+000 21412 113831,113961,113857
 1.9000e+000 114105 -6.8561e+001 -8.5832e+000 -9.9887e+000 21412 113935,113909,114079
 1.9000e+000 114128 -6.5827e+001 -1.8112e+001 -2.7140e+000 21412 113935,114079,113961
 1.9000e+000 114378 -1.6108e+001 -4.1955e+000  6.7459e-001 21022 114401,114257,114205
 1.9000e+000 114355 -2.0975e+001 -4.7835e+000 -6.9273e+000 21022 114401,114205,114179
 1.9000e+000 114332 -2.1439e+001  1.0035e+000 -9.9283e-001 21022 114153,114283,114179
 1.9000e+000 114309 -2.0034e+001 -5.5530e+000  5.1337e-002 21022 114205,114257,114231
 1.9000e+000 114427 -5.5408e+000 -1.4801e+000  3.7290e+000 21022 114283,114257,114401
 1.9000e+000 114450 -1.3070e+001 -3.0308e+000 -3.6041e+000 21022 114283,114401,114179
 1.9000e+000 114651 -2.9997e+001 -5.2098e+000 -4.9977e+000 20618 114501,114553,114527
 1.9000e+000 114628 -1.5082e+001 -5.6472e+000  4.7010e+000 20618 114501,114579,114553
 1.9000e+000 114605 -3.8310e+001 -6.4055e+000  2.0590e+000 20618 114475,114579,114501
 1.9000e+000 114901 -1.2702e+002 -1.4615e+001 -1.6829e+001 20114 114676,114780,114702
 1.9000e+000 114878 -8.1824e+001  8.1264e-001 -1.5225e+001 20114 114676,114806,114780
 1.9000e+000 114855 -1.2815e+002 -7.7962e+000 -1.4315e+001 20114 114702,114780,114754
 1.9000e+000 114832 -3.4527e+002 -6.8884e+001 -2.3597e+001 20114 114702,114754,114728
 1.9000e+000 115053 -9.4121e+001 -1.3838e+001 -5.0288e-001 19460 115147,115076,114926
 1.9000e+000 115030 -9.3362e+001 -1.0216e+001 -1.7720e+000 19460 115147,114926,115004
 1.9000e+000 115102 -1.0230e+002 -2.1891e+001  4.4885e+000 19460 114952,114926,115076
 1.9000e+000 115173 -9.0477e+001 -2.3896e+001  1.3281e+000 19460 114978,115076,115147
 1.9000e+000 115196 -8.6639e+001 -1.7566e+001 -1.0713e+000 19460 114978,115147,115004
 1.9000e+000 115446 -1.6075e+002 -3.6201e+001  2.2755e+001 19006 115273,115351,115299
 1.9000e+000 115423 -1.4775e+002 -6.9858e+001  7.4634e+000 19006 115247,115351,115273
 1.9000e+000 115400 -1.6453e+002 -7.3507e+001  3.3431e+001 19006 115221,115351,115247
 1.9000e+000 115377 -9.1786e+001 -1.4577e+001 -3.3776e+001 19006 115299,115351,115325
 1.9000e+000 115767 -1.2985e+001 -1.0423e+000 -7.9537e-002 18716 115571,115649,115623
 1.9000e+000 115744 -1.2217e+001  1.0204e+000 -4.7748e-004 18716 115493,115649,115571
 1.9000e+000 115721 -1.3639e+001 -8.7308e-001  6.3333e-001 18716 115493,115571,115545
 1.9000e+000 115698 -1.4697e+001 -7.0729e-001 -2.0783e+000 18716 115493,115545,115519
 1.9000e+000 115675 -6.9341e+000  8.7914e-001 -9.5938e-001 18716 115571,115623,115597
 1.9000e+000 116039 -6.2915e+001 -2.0800e+001  5.6482e+000 18312 115814,115892,115840
 1.9000e+000 116016 -6.1067e+001 -1.5493e+001  3.7694e+000 18312 115814,115944,115892
 1.9000e+000 115993 -5.5186e+001 -6.3813e+000  6.5800e+000 18312 115892,115944,115918
 1.9000e+000 115970 -4.3423e+001 -6.1007e+000 -4.0961e+000 18312 115840,115892,115866
 1.9000e+000 116191 -1.3768e+002 -6.3368e+001  1.4614e+000 18000 116090,116142,116116
 1.9000e+000 116168 -1.4410e+002 -7.5093e+001 -1.0354e+000 18000 116064,116142,116090
 1.9000e+000 116343 -2.1430e+001  1.1279e+000 -9.6745e-001 17396 116242,116294,116268
 1.9000e+000 116320 -2.8002e+001  1.9170e+000 -5.0170e-001 17396 116216,116294,116242
 1.9000e+000 116566 -7.5552e+001 -2.9339e+001  2.8298e+000 16942 116390,116468,116442
 1.9000e+000 116543 -9.4869e+001 -3.5206e+001  6.8683e+000 16942 116390,116494,116468
 1.9000e+000 116520 -7.7746e+001 -3.4513e+001  1.5002e+000 16942 116390,116442,116416
 1.9000e+000 116767 -1.7509e+001  2.4686e+000  1.9278e+000 16438 116790,116643,116617
 1.9000e+000 116744 -2.5996e+001 -3.9139e+000 -1.0403e+000 16438 116790,116617,116591
 1.9000e+000 116721 -6.9795e+000 -1.9242e-001 -2.7489e+000 16438 116643,116695,116669
 1.9000e+000 116816 -1.3401e+001 -2.0852e+000  3.9894e+000 16438 116695,116643,116790
 1.9000e+000 116839 -1.6174e+001 -3.2762e+000  2.4013e+000 16438 116695,116790,116591
 1.9000e+000 117062 -1.0543e+001 -5.4409e+000 -1.9360e+000 16074 116886,116938,116912
 1.9000e+000 117039 -2.8635e+001 -1.3868e+001  3.1565e-001 16074 116886,116990,116938
 1.9000e+000 117016 -2.7312e+001 -5.6576e+000  6.6216e-001 16074 116938,116990,116964
 1.9000e+000 117214 -4.8360e+001 -1.9294e+001 -2.6018e+000 15649 117087,117139,117113
 1.9000e+000 117191 -6.7154e+001 -2.8382e+001  7.2606e-001 15649 117087,117165,117139
 1.9000e+000 117317 -3.8447e+000 -1.5832e+001  2.7727e+000 421 117239,117291,117265
 2.0000e+000 70632  2.0274e+001 -5.4853e+000  1.6863e+001 70072 70482,70534,70508
 2.0000e+000 70609  4.2634e+000 -4.1537e+001  1.2834e+001 70072 70482,70560,70534
 2.0000e+000 70586 -2.3507e+001 -5.2757e+001  8.6203e+000 70072 70456,70560,70482
 2.0000e+000 70951 -4.3094e+001 -1.6280e+002  0.0000e+000 69874 70703,70755,70729
 2.0000e+000 70928 -1.0447e+001 -1.5207e+002 -2.7172e+001 69874 70703,70781,70755
 2.0000e+000 70905  2.5925e+001 -2.4465e+001 -1.0304e+001 69874 70703,70807,70781
 2.0000e+000 70882 -1.6354e+001 -1.2684e+002 -3.1482e+000 69874 70703,70833,70807
 2.0000e+000 70859 -2.7386e+001 -1.3881e+002  1.2006e+001 69874 70677,70833,70703
 2.0000e+000 71199  1.4875e+001 -3.8722e+001  1.0619e+001 69698 71222,71052,71026
 2.0000e+000 71176 -6.5040e+000 -2.7088e+001  6.2874e+000 69698 71294,71222,71026
 2.0000e+000 71153 -1.2149e+001 -2.2185e+001 -1.8625e+001 69698 71294,71026,71000
 2.0000e+000 71130  1.1832e+001 -2.5496e+001  5.7329e+000 69698 71366,71104,71078
 2.0000e+000 71248  3.2221e+001 -1.9950e+001 -1.5516e+000 69698 71078,71052,71222
 2.0000e+000 71271  1.6750e+001 -2.2424e+001  4.4511e+000 69698 71366,71078,71222
 2.0000e+000 71320  3.3254e+001 -7.7214e+000  1.5848e-001 69698 70974,71222,71294
 2.0000e+000 71343  3.5866e+001 -1.8434e+000 -2.2294e+001 69698 70974,71294,71000
 2.0000e+000 71392  1.9487e+001 -2.6645e+001  6.3575e+000 69698 70974,71104,71366
 2.0000e+000 71415  1.9543e+001 -2.6683e+001  6.3917e+000 69698 70974,71366,71222
 2.0000e+000 71516  4.0651e+001 -4.9764e+001 -8.2381e+000 69386 71438,71490,71464
 2.0000e+000 71869  5.4738e+001  1.1839e+000 -6.3545e+000 69188 71644,71748,71670
 2.0000e+000 71846  5.7527e+001  2.5131e+001 -6.2238e+000 69188 71644,71774,71748
 2.0000e+000 71823  3.2606e+001  1.3565e+000  1.1879e+001 69188 71670,71748,71722
 2.0000e+000 71800  6.4426e-001  2.3111e+000 -4.7276e+000 69188 71670,71722,71696
 2.0000e+000 72019  1.4519e+000 -2.8908e+001  4.5966e+000 68990 71918,71970,71944
 2.0000e+000 71996 -3.5865e+000 -1.1457e+001 -2.9679e+000 68990 71892,71970,71918
 2.0000e+000 72316  3.7987e+001  1.9901e+001 -1.0633e+001 68586 72339,72172,72146
 2.0000e+000 72293  3.4854e+001  6.0609e+000 -1.1041e+001 68586 72339,72146,72120
 2.0000e+000 72270  3.5584e+001  2.0088e+001 -7.4362e+000 68586 72411,72068,72198
 2.0000e+000 72247  2.1631e+001  3.5822e+001  1.0342e+000 68586 72042,72198,72068
 2.0000e+000 72224  2.9858e+001 -1.4793e-001  2.2275e+000 68586 72068,72120,72094
 2.0000e+000 72365  3.4301e+001  2.0446e+001 -6.5618e+000 68586 72198,72172,72339
 2.0000e+000 72388  3.3710e+001  1.8947e+001 -8.2547e+000 68586 72411,72198,72339
 2.0000e+000 72437  4.0772e+001  1.9736e+001 -3.6544e+000 68586 72120,72068,72411
 2.0000e+000 72460  3.7500e+001  1.6357e+001 -5.1047e+000 68586 72120,72411,72339
 2.0000e+000 72864  2.8400e+001  1.5982e+001  8.8335e+000 68388 72642,72694,72668
 2.0000e+000 72841  3.2965e+001  3.7725e+000  2.8335e-001 68388 72616,72694,72642
 2.0000e+000 72818  3.2877e+001  6.6629e-001  1.3028e+000 68388 72616,72720,72694
 2.0000e+000 72795  3.4832e+001  9.7347e-002  2.0889e-001 68388 72590,72720,72616
 2.0000e+000 72772  4.0558e+001  1.2876e+000  5.4358e+000 68388 72590,72746,72720
 2.0000e+000 73321  6.4248e+000  1.2774e+001  6.3185e+000 68048 73073,73203,73177
 2.0000e+000 73298  9.3464e+000  1.0650e+001  3.1021e+000 68048 73047,73203,73073
 2.0000e+000 73275  1.8549e+001  2.0057e+001  6.7263e+000 68048 73125,73177,73151
 2.0000e+000 73252  1.2485e+001  1.5948e+001  4.2470e+000 68048 73073,73177,73125
 2.0000e+000 73229  3.4469e+001  9.7064e+000  1.4771e+001 68048 73073,73125,73099
 2.0000e+000 73640  2.6205e+000 -1.8263e+001 -4.3760e+000 67850 73444,73496,73470
 2.0000e+000 73617  1.1102e+001 -2.7575e+001 -3.3183e+000 67850 73418,73496,73444
 2.0000e+000 73594  1.1176e+001 -2.0757e+001  7.7752e+000 67850 73392,73496,73418
 2.0000e+000 73571 -7.5097e+000 -2.6802e+001  9.6612e-001 67850 73392,73522,73496
 2.0000e+000 73548 -1.8705e+001 -3.8315e+001  1.1955e+001 67850 73366,73522,73392
 2.0000e+000 73790  2.2962e+001  2.6543e+001 -5.5231e-001 67602 73689,73741,73715
 2.0000e+000 73767  2.6851e+001  3.6466e+001 -5.4895e-001 67602 73663,73741,73689
 2.0000e+000 74040  2.6094e+001  2.3517e+001 -2.1970e+000 67290 73841,73945,73919
 2.0000e+000 74017  5.6846e+001  2.9443e+001 -1.2662e+001 67290 73815,73945,73841
 2.0000e+000 73994  2.4292e+001  3.1109e+001 -5.6798e+000 67290 73841,73919,73867
 2.0000e+000 73971  2.7007e+001  3.4664e+001 -1.8325e-001 67290 73867,73919,73893
 2.0000e+000 74143 -7.2863e-002 -1.9874e+001 -7.7950e+000 67092 74065,74117,74091
 2.0000e+000 74415 -9.7751e+000 -7.9348e+001 -2.4112e+001 66894 74190,74294,74216
 2.0000e+000 74392 -7.3756e+000 -7.4684e+001 -1.0172e+000 66894 74190,74320,74294
 2.0000e+000 74369  2.6537e+001 -2.3360e+001 -5.9106e+000 66894 74216,74294,74242
 2.0000e+000 74346  3.3758e+001 -6.5726e+001 -9.4338e+000 66894 74242,74294,74268
 2.0000e+000 75023  1.2607e+002  7.6079e+000 -1.1337e+001 66532 74654,74836,74810
 2.0000e+000 75000  1.8120e+001  2.4545e+001 -4.5146e+000 66532 74628,74836,74654
 2.0000e+000 74977  8.6165e+000  2.9675e+001  4.6710e+000 66532 74706,74784,74732
 2.0000e+000 74954  1.0669e+001  3.1400e+001  5.8583e+000 66532 74680,74784,74706
 2.0000e+000 74931  3.2101e+001  1.1958e+001 -2.9201e+000 66532 74680,74810,74784
 2.0000e+000 74908  3.3891e+001  1.7236e+001 -2.7492e+000 66532 74654,74810,74680
 2.0000e+000 74885 -2.7231e+000  3.1410e+000 -1.4718e+001 66532 74602,74836,74628
 2.0000e+000 74862  5.2699e+001  2.5896e+001 -1.7598e+001 66532 74732,74784,74758
 2.0000e+000 75222  2.7026e+001 -7.4733e+000 -4.0063e+000 66242 75072,75150,75124
 2.0000e+000 75199  3.6530e+000 -1.6108e+001  4.4604e+000 66242 75046,75150,75072
 2.0000e+000 75176  2.1287e+001  6.4190e+000 -1.0298e+001 66242 75072,75124,75098
 2.0000e+000 75470 -1.7221e+001 -3.5787e+001 -1.1899e+000 65838 75297,75375,75349
 2.0000e+000 75447 -1.1476e+001 -6.7280e+001  1.6235e+000 65838 75271,75375,75297
 2.0000e+000 75424  1.5403e+001 -2.1981e+001  1.7118e+000 65838 75297,75349,75323
 2.0000e+000 75401 -2.0846e+001 -7.4456e+001 -4.9919e+000 65838 75245,75375,75271
 2.0000e+000 75671  5.6163e+000 -2.3020e+001 -1.5201e+001 65640 75495,75573,75521
 2.0000e+000 75648 -6.2757e+000 -3.4575e+001 -2.5344e+000 65640 75495,75599,75573
 2.0000e+000 75625  7.2973e+000 -3.4918e+000 -1.4249e+000 65640 75521,75573,75547
 2.0000e+000 75872 -1.4965e+000  8.1695e+000 -6.5893e+000 65300 75895,75748,75722
 2.0000e+000 75849 -7.6628e-001  3.6007e+000 -9.1939e+000 65300 75895,75722,75696
 2.0000e+000 75826  6.5433e+000  2.1982e+001 -2.6840e+001 65300 75967,75774,75748
 2.0000e+000 75921  7.0159e+000  1.2746e+001 -1.3715e+001 65300 75967,75748,75895
 2.0000e+000 75944 -7.7660e+000 -1.0953e+001 -7.1315e+000 65300 75800,75895,75696
 2.0000e+000 75993 -1.5915e+001  7.9179e+000 -2.0197e+001 65300 75800,75774,75967
 2.0000e+000 76016 -1.4725e+001  8.2930e-001 -9.0418e+000 65300 75800,75967,75895
 2.0000e+000 76371  1.2765e+001  1.2084e+001 -3.6848e+000 64896 76146,76250,76172
 2.0000e+000 76348  1.2692e+001  1.7016e+001 -1.7100e-001 64896 76146,76276,76250
 2.0000e+000 76325  5.7472e+000  5.7385e+000 -7.1198e-001 64896 76172,76250,76198
 2.0000e+000 76302  1.4753e+001  8.1969e+000 -6.7520e-001 64896 76198,76250,76224
 2.0000e+000 76570  1.1469e+001  1.7719e+001 -1.8617e+001 64442 76446,76498,76472
 2.0000e+000 76547  1.3735e+001  4.5374e+001 -2.3295e+000 64442 76420,76498,76446
 2.0000e+000 76524  1.2196e+001  9.8751e+000  5.8610e+000 64442 76394,76498,76420
 2.0000e+000 76999  9.5188e+000  3.0837e+000 -3.9480e+000 63924 77022,76728,76702
 2.0000e+000 76976  1.0155e+001  2.2046e+000 -2.8381e+000 63924 77022,76702,76832
 2.0000e+000 76953  5.6546e+000  4.7942e+000 -1.1534e+000 63924 76728,76806,76754
 2.0000e+000 76930  1.1802e+001  5.4796e+000  8.8451e-001 63924 76676,76832,76702
 2.0000e+000 76907  8.2878e+000  2.1074e+000 -1.2322e+000 63924 76754,76806,76780
 2.0000e+000 76884  1.7983e+001  1.2236e+001 -1.7022e+000 63924 76676,76858,76832
 2.0000e+000 77048  9.5806e+000  4.4335e+000 -3.6090e+000 63924 76806,76728,77022
 2.0000e+000 77071  1.0362e+001  3.7901e+000 -2.4593e+000 63924 76806,77022,76832
 2.0000e+000 77449  1.3020e+000  1.0624e+000  8.4373e+000 63320 77472,77253,77201
 2.0000e+000 77426 -5.1010e+000  4.5646e+000  1.4091e+001 63320 77472,77201,77175
 2.0000e+000 77403  7.6542e+000  4.0978e+000  9.1484e+000 63320 77175,77305,77279
 2.0000e+000 77380  1.9838e+001  6.0755e+000  9.3071e+000 63320 77201,77253,77227
 2.0000e+000 77357  7.3869e-002  3.1098e+000  7.8814e-001 63320 77175,77331,77305
 2.0000e+000 77498  1.2964e+001  1.0894e+001  2.0549e+000 63320 77279,77253,77472
 2.0000e+000 77521 -4.9420e-002  6.0804e+000  9.3533e+000 63320 77279,77472,77175
 2.0000e+000 77769 -1.3601e+001 -2.3408e+001  9.9480e+000 62816 77570,77622,77596
 2.0000e+000 77746 -7.0115e+000 -4.6338e+001  6.2080e+000 62816 77570,77648,77622
 2.0000e+000 77723  2.2829e+001 -3.0428e+001 -4.7760e+000 62816 77570,77674,77648
 2.0000e+000 77700 -1.6242e+001 -4.5765e+001 -9.6388e+000 62816 77544,77674,77570
 2.0000e+000 78149  2.5362e+001  6.7542e+000 -1.6337e+000 62354 77953,78031,78005
 2.0000e+000 78126  1.5316e+001  8.4831e+000 -4.5320e+000 62354 77901,78031,77953
 2.0000e+000 78103  4.3101e+001  2.1844e+001  1.2975e+001 62354 77875,78031,77901
 2.0000e+000 78080  1.3440e+001  4.5481e+000 -3.9755e+000 62354 77901,77953,77927
 2.0000e+000 78057  1.8345e+001  1.7955e+001 -1.0551e+001 62354 77953,78005,77979
 2.0000e+000 78606  2.0247e+001  1.3616e+001  1.3951e+001 61950 78384,78436,78410
 2.0000e+000 78583  2.5321e+001  6.9698e+000  1.2621e+000 61950 78358,78436,78384
 2.0000e+000 78560  3.1634e+001  2.0109e+001 -5.0704e+000 61950 78358,78488,78436
 2.0000e+000 78537  1.4400e+001 -3.1023e-001  4.9215e+000 61950 78436,78488,78462
 2.0000e+000 78514  1.8701e+001  2.4774e+001 -1.8349e+000 61950 78332,78488,78358
 2.0000e+000 78756  5.2779e+001  1.4630e+001 -1.8834e+000 61339 78779,78655,78629
 2.0000e+000 78733  3.7978e+001  1.9621e+001  3.4030e+000 61339 78779,78629,78707
 2.0000e+000 78805  3.4807e+001 -3.2276e+000  1.3294e+001 61339 78851,78779,78681
 2.0000e+000 78828  5.9562e+001  1.6134e+001  3.4549e+000 61339 78681,78779,78707
 2.0000e+000 78877  3.6243e+001  4.7903e+000 -6.4088e+000 61339 78655,78779,78851
 2.0000e+000 79206 -1.2352e+001 -6.3025e+000  5.8062e+000 60892 79229,79007,78981
 2.0000e+000 79183  4.2942e+000  1.8936e+001 -9.9859e+000 60892 79229,78981,79111
 2.0000e+000 79160  6.6184e+000 -3.4883e-001 -1.1651e+001 60892 79301,79033,79007
 2.0000e+000 79137  1.1888e+001  7.8594e+000 -1.1013e+001 60892 79033,79085,79059
 2.0000e+000 79255  7.2687e+000 -6.4109e-001 -1.1322e+001 60892 79301,79007,79229
 2.0000e+000 79278  2.3924e+001  8.2919e+000 -2.2764e+001 60892 79085,79229,79111
 2.0000e+000 79327  9.1103e+000  3.0150e+000 -1.5383e+001 60892 79085,79033,79301
 2.0000e+000 79350  4.2308e+000  5.7301e-002 -1.4074e+001 60892 79085,79301,79229
 2.0000e+000 79647 -1.3933e+001 -1.9796e+001 -1.0890e+000 60488 79451,79529,79503
 2.0000e+000 79624 -1.6631e+001 -2.3177e+001  2.4998e+000 60488 79425,79529,79451
 2.0000e+000 79601 -2.1815e+001 -3.2366e+001 -1.3190e+000 60488 79373,79529,79425
 2.0000e+000 79578 -2.2287e+001 -1.1946e+001 -6.1779e+000 60488 79373,79425,79399
 2.0000e+000 79555  5.3573e+000 -1.0061e+001  4.7153e+000 60488 79451,79503,79477
 2.0000e+000 79870 -2.7233e+001 -5.4654e+001  1.2579e-001 60026 79720,79798,79772
 2.0000e+000 79847 -2.6377e+001 -7.5975e+001 -1.0374e+001 60026 79694,79798,79720
 2.0000e+000 79824 -1.4150e+001 -5.3581e+001 -1.1926e+001 60026 79720,79772,79746
 2.0000e+000 80120 -2.0194e+001 -3.5962e+001 -2.2601e+000 59629 79921,80025,79973
 2.0000e+000 80097 -2.4147e+001 -3.1538e+001  1.9878e+000 59629 79895,80025,79921
 2.0000e+000 80074 -8.5227e+000 -1.9497e+001 -1.9629e+001 59629 79973,80025,79999
 2.0000e+000 80051  4.1788e+000 -2.9079e+001 -7.1892e+000 59629 79921,79973,79947
 2.0000e+000 80321 -8.5154e+000 -7.7837e+000  1.5778e+001 59125 80344,80171,80145
 2.0000e+000 80298  1.2962e+000 -6.0484e+000  1.0273e+001 59125 80344,80145,80249
 2.0000e+000 80275  1.6729e+001 -5.2041e+000  1.1010e+001 59125 80197,80249,80223
 2.0000e+000 80370  3.0768e+000 -7.9699e+000  1.2387e+001 59125 80197,80171,80344
 2.0000e+000 80393  1.1997e+001 -7.1181e+000  7.0497e+000 59125 80197,80344,80249
 2.0000e+000 80952  1.0681e+001 -2.9430e+000  5.9216e+000 58557 80975,80632,80606
 2.0000e+000 80929  1.9048e+001  8.3161e+000  1.8737e+000 58557 81119,80975,80606
 2.0000e+000 80906  1.3968e+001 -3.8232e+000  4.9965e+000 58557 81047,80684,80632
 2.0000e+000 80883  2.7388e+001  1.1343e+001 -2.4340e+000 58557 81119,80606,80580
 2.0000e+000 80860  1.8380e+001 -1.3437e+001  8.0058e+000 58557 81191,80736,80710
 2.0000e+000 80837  1.9572e+001 -1.2095e+001  1.0194e+000 58557 80736,80788,80762
 2.0000e+000 80814  6.1662e+000 -7.1610e-001  8.8275e+000 58557 80632,80684,80658
 2.0000e+000 81001  1.4829e+001 -1.8178e+000  3.8934e+000 58557 81047,80632,80975
 2.0000e+000 81024  1.8425e+001 -5.4286e+000  6.6652e+000 58557 81191,80710,80975
 2.0000e+000 81073  1.4910e+001 -9.8112e+000  8.1194e+000 58557 80710,80684,81047
 2.0000e+000 81096  1.9038e+001 -5.6764e+000  6.1090e+000 58557 80710,81047,80975
 2.0000e+000 81145  1.9275e+001  5.5272e+000  6.7478e+000 58557 80788,80975,81119
 2.0000e+000 81168  2.1171e+001  6.6615e+000  2.6346e+000 58557 80788,81119,80580
 2.0000e+000 81217  2.0489e+001 -5.8506e+000  5.0446e+000 58557 80788,80736,81191
 2.0000e+000 81240  1.8823e+001 -1.3980e+000  3.1451e+000 58557 80788,81191,80975
 2.0000e+000 81537 -1.8374e+001 -6.4680e+001  2.8398e+000 57881 81560,81341,81289
 2.0000e+000 81514 -3.1042e+001 -7.0408e+001  1.1402e+001 57881 81560,81289,81263
 2.0000e+000 81491 -3.7317e+001 -6.0980e+001 -3.5160e+000 57881 81632,81419,81367
 2.0000e+000 81468 -3.7914e+001 -6.4997e+001 -1.2254e+001 57881 81367,81419,81393
 2.0000e+000 81445 -3.1371e+001 -6.2690e+001  5.9449e+000 57881 81289,81341,81315
 2.0000e+000 81586 -1.7270e+001 -3.1737e+001 -1.5024e+001 57881 81367,81341,81560
 2.0000e+000 81609 -3.6565e+001 -5.9287e+001 -3.7269e+000 57881 81632,81367,81560
 2.0000e+000 81658 -3.4230e+001 -7.2091e+001 -2.0656e+000 57881 81263,81419,81632
 2.0000e+000 81681 -2.9625e+001 -6.5292e+001 -4.0806e+000 57881 81263,81632,81560
 2.0000e+000 81929 -1.3519e+001 -3.2646e+001 -1.6595e+000 57477 81704,81808,81782
 2.0000e+000 81906 -5.1173e+000 -4.5837e+001  3.7845e+000 57477 81704,81834,81808
 2.0000e+000 81883 -1.9001e+001 -2.8700e+001  6.3643e+000 57477 81704,81782,81730
 2.0000e+000 81860 -5.1251e+000 -1.5848e+001  8.4563e-001 57477 81730,81782,81756
 2.0000e+000 82488  1.7996e+001 -7.6033e-001  4.2416e+000 56966 82583,82511,82194
 2.0000e+000 82465  1.3342e+001  2.2675e+000  9.1586e+000 56966 82511,82116,82324
 2.0000e+000 82442  1.4454e+001 -4.9420e+000  5.8526e+000 56966 82583,82194,82168
 2.0000e+000 82419  3.5884e+001  8.8250e+000 -1.3507e+000 56966 82194,82246,82220
 2.0000e+000 82396  2.2069e+001  4.2238e+000  8.0548e-001 56966 82194,82298,82246
 2.0000e+000 82373  2.9462e+001  1.2800e+001 -3.7037e+000 56966 82246,82298,82272
 2.0000e+000 82350  1.6552e+001  1.7900e+000 -7.9153e-001 56966 82116,82168,82142
 2.0000e+000 82537  2.2625e+001  4.9124e+000  1.0987e+000 56966 82298,82194,82511
 2.0000e+000 82560  1.9412e+001  1.7962e+001  9.1383e+000 56966 82298,82511,82324
 2.0000e+000 82609  1.3793e+001  4.3130e+000  2.4941e+000 56966 82116,82511,82583
 2.0000e+000 82632  1.2282e+001  1.7687e+000  3.3681e+000 56966 82116,82583,82168
 2.0000e+000 83236  4.6368e+001 -2.2527e+000 -1.5592e+001 56304 82893,82945,82919
 2.0000e+000 83213  2.1125e+001 -1.9972e+001 -2.6431e+000 56304 83259,82945,82893
 2.0000e+000 83190  2.0683e+001  6.6842e+000  1.0888e+001 56304 83259,82893,83049
 2.0000e+000 83167  4.1115e+001  2.6067e+001  1.0788e+001 56304 82971,83049,83023
 2.0000e+000 83144  1.7163e+001  2.6295e+001 -8.2281e+000 56304 82815,83049,82893
 2.0000e+000 83121  3.7894e+001 -7.1896e-001 -2.7283e+001 56304 82815,82893,82867
 2.0000e+000 83098  2.9249e+001  1.0834e+001  1.6089e+001 56304 82971,83023,82997
 2.0000e+000 83075  4.8892e+001  6.2366e+000 -1.8752e+001 56304 82815,82867,82841
 2.0000e+000 83285  3.4401e+001  1.8083e+001 -5.2008e+000 56304 82971,82945,83259
 2.0000e+000 83308  2.1080e+001  2.0590e+001  1.2644e+001 56304 82971,83259,83049
 2.0000e+000 83556 -4.4087e+001 -8.4527e+001 -1.3835e+000 55964 83357,83461,83435
 2.0000e+000 83533 -4.7792e+001 -5.2526e+001  1.4576e+001 55964 83331,83461,83357
 2.0000e+000 83510 -5.8071e+001 -9.1733e+001  1.1796e+000 55964 83357,83435,83383
 2.0000e+000 83487 -4.0071e+001 -8.7209e+001  3.4340e+000 55964 83383,83435,83409
 2.0000e+000 83706  5.2798e+000 -2.4967e-001 -5.0178e+000 55503 83579,83631,83605
 2.0000e+000 83683 -7.5349e-001  5.4529e+000 -5.4790e+000 55503 83579,83657,83631
 2.0000e+000 83907 -8.7001e+000 -4.9969e+001  6.5590e+000 55156 83757,83835,83809
 2.0000e+000 83884 -7.9106e+000 -3.8875e+001  2.1844e+001 55156 83731,83835,83757
 2.0000e+000 83861 -6.9748e+000 -3.8151e+001  9.8190e+000 55156 83757,83809,83783
 2.0000e+000 84240 -1.6715e+001 -1.2151e+001  1.2549e+001 54652 84093,84145,84119
 2.0000e+000 84217 -1.9180e+001 -2.6449e+001  1.3298e+001 54652 84041,84145,84093
 2.0000e+000 84194 -1.5277e+001 -4.1459e+001  2.4208e+001 54652 84015,84145,84041
 2.0000e+000 84171 -1.1025e+001 -2.3535e+001  1.1494e+001 54652 84041,84093,84067
 2.0000e+000 84618  1.0075e+001 -7.0887e+001  1.3605e+001 53926 84396,84500,84474
 2.0000e+000 84595 -1.5139e+001 -8.4816e+001  1.5403e+000 53926 84344,84500,84396
 2.0000e+000 84572 -1.5038e+001 -7.5974e+001  1.0663e+001 53926 84344,84396,84370
 2.0000e+000 84549 -2.1879e+001 -8.1064e+001  5.5854e+000 53926 84396,84474,84422
 2.0000e+000 84526 -4.1394e+001 -5.8635e+001  4.5030e+000 53926 84422,84474,84448
 2.0000e+000 85350 -1.7392e+001 -2.3589e+001  4.9895e+000 53586 85373,84880,85088
 2.0000e+000 85327 -8.4807e+000 -1.8510e+001  2.5206e+000 53586 84880,85114,85088
 2.0000e+000 85304 -1.3669e+001 -2.1504e+001  6.5325e+000 53586 85373,85088,85062
 2.0000e+000 85281 -2.6383e+001 -2.6968e+001  1.2638e+001 53586 85010,85062,85036
 2.0000e+000 85258 -2.4747e+001 -2.7848e+001  3.7733e+000 53586 85445,85010,84958
 2.0000e+000 85235 -1.4856e+001 -2.4187e+001  2.7727e+000 53586 85445,84958,84906
 2.0000e+000 85212 -1.6932e+001 -1.6022e+001  2.4304e-001 53586 84958,85010,84984
 2.0000e+000 85189 -8.5998e+000 -2.1429e+001  6.2107e+000 53586 84906,84958,84932
 2.0000e+000 85166 -7.0236e+000 -1.9820e+001  3.6139e+000 53586 84880,85140,85114
 2.0000e+000 85399 -1.4083e+001 -1.5501e+001  4.9696e+000 53586 84906,84880,85373
 2.0000e+000 85422 -1.5384e+001 -2.3262e+001  7.9362e+000 53586 85517,85373,85062
 2.0000e+000 85471 -2.5960e+001 -3.0938e+001  1.1442e+001 53586 85062,85010,85445
 2.0000e+000 85494 -1.6131e+001 -2.5258e+001  8.4036e+000 53586 85517,85062,85445
 2.0000e+000 85543 -1.6628e+001 -2.0327e+001  7.9206e+000 53586 84906,85373,85517
 2.0000e+000 85566 -1.6917e+001 -2.1855e+001  8.1092e+000 53586 84906,85517,85445
 2.0000e+000 86072  1.4470e+001  3.2734e+000  8.7489e+000 53182 86095,85853,85775
 2.0000e+000 86049  1.1486e+001 -1.1978e+000  1.0057e+001 53182 86095,85775,85931
 2.0000e+000 86026  9.2716e+000  4.7119e+000  4.7070e+000 53182 86167,85879,85853
 2.0000e+000 86003  2.7261e+001  7.0877e-001  1.9554e+000 53182 85775,85827,85801
 2.0000e+000 85980  1.3553e+001  2.9925e+000  7.0529e+000 53182 85775,85853,85827
 2.0000e+000 85957  1.0867e+001 -4.2159e-001  6.8761e+000 53182 85749,85931,85775
 2.0000e+000 86121  8.4530e+000  2.5371e+000  8.5021e+000 53182 86167,85853,86095
 2.0000e+000 86144  9.7847e+000  5.5568e+000  1.0838e+001 53182 85905,86095,85931
 2.0000e+000 86193  1.0299e+001  6.9974e+000  4.9146e+000 53182 85905,85879,86167
 2.0000e+000 86216  1.1640e+001  9.8910e+000  8.8291e+000 53182 85905,86167,86095
 2.0000e+000 86673  3.3067e+001  3.7811e+000 -2.0651e+001 52778 86477,86529,86503
 2.0000e+000 86650  1.4704e+001  1.1478e+001  4.2351e+000 52778 86425,86529,86477
 2.0000e+000 86627  2.3445e+001  2.1951e+001 -2.4692e+000 52778 86425,86477,86451
 2.0000e+000 86604  3.6284e+001 -2.5584e+000  7.0120e+000 52778 86399,86529,86425
 2.0000e+000 86581  4.8469e+001  1.2131e+001 -1.3097e+001 52778 86399,86555,86529
 2.0000e+000 87258  1.9718e+001  8.2917e+000 -3.2796e+000 52238 87281,86987,86961
 2.0000e+000 87235  2.1941e+001  8.3324e+000 -4.0537e+000 52238 87281,86961,87117
 2.0000e+000 87212  2.6951e+001  2.2403e+000 -1.3164e+000 52238 86935,87117,86961
 2.0000e+000 87189  2.3847e+001  7.9538e+000 -2.6239e+000 52238 87065,87117,87091
 2.0000e+000 87166  1.7501e+001  1.1735e+001  1.0526e-001 52238 86987,87065,87039
 2.0000e+000 87143  1.6145e+001  1.7585e+001 -5.3366e+000 52238 86987,87039,87013
 2.0000e+000 87307  1.8914e+001  7.0139e+000 -1.0215e+000 52238 87065,86987,87281
 2.0000e+000 87330  2.1511e+001  8.1807e+000 -2.0646e+000 52238 87065,87281,87117
 2.0000e+000 87610  6.1526e+000  1.0554e+001 -5.6541e-001 51834 87434,87512,87460
 2.0000e+000 87587  2.1324e+001  2.4749e+001  1.7231e+001 51834 87434,87538,87512
 2.0000e+000 87564  3.4716e+000  3.9773e+000 -1.8018e+000 51834 87633,87460,87512
 2.0000e+000 87659 -2.8014e+000  1.2858e+000 -2.0784e+000 51834 87486,87460,87633
 2.0000e+000 88187 -3.0094e+001 -5.4107e+001  2.2533e-001 51266 87864,87942,87890
 2.0000e+000 88164 -2.6372e+001 -3.9025e+001  1.2557e+000 51266 87864,88020,87942
 2.0000e+000 88141 -2.6348e+001 -4.0455e+001 -1.5650e+000 51266 87942,88020,87968
 2.0000e+000 88118 -2.9963e+001 -4.0235e+001  3.9647e+000 51266 87864,88046,88020
 2.0000e+000 88095 -2.8017e+001 -2.5928e+001 -1.2139e+000 51266 87968,88020,87994
 2.0000e+000 88072 -8.1184e+000 -4.7618e+001 -1.6259e+001 51266 87890,87942,87916
 2.0000e+000 88644  3.0791e+000  1.2155e+000 -3.2467e+000 50754 88370,88500,88396
 2.0000e+000 88621  1.6753e+000  3.6102e+000 -3.6533e+000 50754 88370,88526,88500
 2.0000e+000 88598  1.7614e+000  8.5005e-001 -3.0715e+000 50754 88396,88500,88422
 2.0000e+000 88575  2.8569e+000  4.2165e-001 -1.4870e+000 50754 88422,88500,88474
 2.0000e+000 88552 -1.3326e+001 -7.4533e+000 -4.1705e+000 50754 88422,88474,88448
 2.0000e+000 88914 -3.6479e+001 -8.3906e+001  8.2027e-001 50442 88715,88793,88741
 2.0000e+000 88891 -3.0612e+001 -8.8928e+001  4.6129e-001 50442 88715,88819,88793
 2.0000e+000 88868 -4.1200e+001 -9.8304e+001 -3.6121e+000 50442 88689,88819,88715
 2.0000e+000 88845 -2.5862e+001 -7.2128e+001  1.7234e+001 50442 88741,88793,88767
 2.0000e+000 89294 -3.9086e+001 -8.3160e+001 -4.9056e+000 49938 89317,89046,89020
 2.0000e+000 89271 -3.6217e+001 -8.5431e+001 -6.5148e+000 49938 89317,89020,89150
 2.0000e+000 89248 -3.8257e+001 -7.4497e+001 -3.1413e+000 49938 89072,89150,89098
 2.0000e+000 89225 -4.3559e+001 -1.0836e+002  1.7841e+001 49938 89020,89176,89150
 2.0000e+000 89202 -3.6550e+001 -4.7241e+001  1.3614e+000 49938 89098,89150,89124
 2.0000e+000 89343 -2.6703e+001 -5.7047e+001  1.8007e-001 49938 89072,89046,89317
 2.0000e+000 89366 -3.8579e+001 -8.2406e+001 -4.2366e+000 49938 89072,89317,89150
 2.0000e+000 89823 -3.1820e+001 -4.1479e+001 -4.0693e+000 49384 89601,89705,89679
 2.0000e+000 89800 -2.9760e+001 -2.2560e+001 -1.0174e+001 49384 89549,89705,89601
 2.0000e+000 89777 -4.4509e+001 -5.9054e+001 -1.9669e+000 49384 89549,89601,89575
 2.0000e+000 89754 -4.0116e+001 -4.7229e+001 -6.5943e+000 49384 89601,89679,89627
 2.0000e+000 89731 -3.7735e+001 -4.3438e+001 -8.7808e+000 49384 89627,89679,89653
 2.0000e+000 90329 -3.3429e+001 -4.3002e+001 -1.8501e+000 48894 90058,90110,90084
 2.0000e+000 90306 -3.3645e+001 -4.2837e+001  4.4632e+000 48894 90058,90162,90110
 2.0000e+000 90283 -3.8688e+001 -3.8863e+001  3.2697e+000 48894 90032,90162,90058
 2.0000e+000 90260 -3.2539e+001 -4.3401e+001  2.3646e+001 48894 90006,90162,90032
 2.0000e+000 90237 -3.1988e+001 -2.9433e+001  4.8596e+000 48894 90110,90162,90136
 2.0000e+000 90214 -3.3460e+001 -3.8181e+001  1.5769e+001 48894 90006,90188,90162
 2.0000e+000 90884 -5.7743e+001 -7.5588e+001  4.9833e+000 48490 90564,90642,90616
 2.0000e+000 90861 -5.2597e+001 -6.5164e+001 -4.0821e-001 48490 90564,90694,90642
 2.0000e+000 90838 -4.2888e+001 -6.5481e+001 -5.4618e+000 48490 90538,90694,90564
 2.0000e+000 90815 -5.9366e+001 -8.2475e+001  2.5574e+000 48490 90538,90720,90694
 2.0000e+000 90792 -4.6020e+001 -2.9829e+001  2.0448e+001 48490 90564,90616,90590
 2.0000e+000 90769 -5.6389e+001 -9.3066e+001 -2.3228e+001 48490 90642,90694,90668
 2.0000e+000 90746 -5.2608e+001 -8.2225e+001 -5.0453e-001 48490 90512,90720,90538
 2.0000e+000 91034 -3.5326e+001 -1.4925e+001 -1.7961e+001 48086 91057,90959,90933
 2.0000e+000 91011 -3.3027e+001 -4.0673e+001 -1.1050e+000 48086 91129,91057,90933
 2.0000e+000 91083 -5.3599e+001 -3.8707e+001 -4.1821e+000 48086 90985,90959,91057
 2.0000e+000 91106 -3.8701e+001 -6.6132e+001  3.7238e+000 48086 90985,91057,90907
 2.0000e+000 91155 -3.8512e+001 -4.5036e+001 -3.7759e+000 48086 90907,91057,91129
 2.0000e+000 91791  8.2247e+000  9.0909e+000  2.9500e+000 47518 92030,91814,91523
 2.0000e+000 91768  1.5441e+001  1.8959e+001  4.0542e+000 47518 91958,91814,91471
 2.0000e+000 91745  1.0957e+001  3.0900e+001  7.6750e+000 47518 91886,91575,91523
 2.0000e+000 91722  1.1234e+001  1.4100e+001 -1.4437e+000 47518 91958,91471,91419
 2.0000e+000 91699  4.3854e+000  6.3570e+000  4.1487e+000 47518 92030,91523,91497
 2.0000e+000 91676 -5.3935e+000  1.7352e+001  1.6289e+000 47518 91523,91575,91549
 2.0000e+000 91653  1.1355e+001  7.5273e+000 -1.2252e+000 47518 91419,91471,91445
 2.0000e+000 91840  7.6312e+000  2.4135e+001  3.4886e+000 47518 91886,91523,91814
 2.0000e+000 91863  1.6963e+001  2.2475e+001  1.5235e+001 47518 91601,91814,91627
 2.0000e+000 91912  1.5816e+001  3.4260e+001  1.7429e+001 47518 91601,91575,91886
 2.0000e+000 91935  1.1845e+001  1.9441e+001  1.3618e+001 47518 91601,91886,91814
 2.0000e+000 91984  2.3263e+001  1.4844e+001  6.6874e+000 47518 91627,91814,91958
 2.0000e+000 92007  1.8574e+001  1.2819e+001  2.3519e+000 47518 91627,91958,91419
 2.0000e+000 92056  8.5670e+000  1.0833e+001 -6.4701e-001 47518 91471,91814,92030
 2.0000e+000 92079  6.6267e+000  9.3062e+000  1.1785e-001 47518 91471,92030,91497
 2.0000e+000 92229  2.8800e+001  1.7482e+001  1.1183e-001 47128 92252,92128,92102
 2.0000e+000 92206  2.4468e+001  2.0479e+001  4.9639e+000 47128 92324,92252,92102
 2.0000e+000 92278  2.5026e+001  1.3596e+001  1.9721e+000 47128 92454,92252,92154
 2.0000e+000 92301  2.4915e+001  1.6540e+001  2.8790e+000 47128 92154,92252,92180
 2.0000e+000 92350  1.8109e+001  1.3572e+001  2.3299e+000 47128 92180,92252,92324
 2.0000e+000 92480  1.4802e+001  1.1347e+001 -7.4678e-001 47128 92128,92252,92454
 2.0000e+000 93340 -4.1408e+001 -3.6253e+001 -3.8370e+000 46838 93363,92977,92873
 2.0000e+000 93317 -4.5542e+001 -3.8570e+001 -1.2331e+000 46838 93507,93363,92873
 2.0000e+000 93294 -4.4700e+001 -5.4153e+001 -1.0140e+001 46838 93435,93003,92977
 2.0000e+000 93271 -5.0565e+001 -3.7099e+001 -1.4458e-001 46838 93507,92873,92847
 2.0000e+000 93248 -3.9723e+001 -3.6805e+001 -6.6512e+000 46838 93579,93029,93003
 2.0000e+000 93225 -4.1777e+001 -3.5476e+001 -6.7322e+000 46838 92873,92951,92925
 2.0000e+000 93202 -4.0305e+001 -3.9234e+001 -4.4101e+000 46838 92873,92977,92951
 2.0000e+000 93179 -4.0353e+001 -2.9540e+001  1.4236e+000 46838 93055,93107,93081
 2.0000e+000 93156 -4.4541e+001 -2.9457e+001  4.3016e-001 46838 92821,93107,92847
 2.0000e+000 93133 -4.2586e+001 -5.7272e+001 -1.3100e+000 46838 92873,92925,92899
 2.0000e+000 93389 -4.3351e+001 -4.1404e+001 -4.0195e+000 46838 93435,92977,93363
 2.0000e+000 93412 -3.7965e+001 -2.9685e+001  7.8990e-001 46838 93055,93363,93107
 2.0000e+000 93461 -4.1215e+001 -3.8905e+001 -7.5012e+000 46838 93579,93003,93435
 2.0000e+000 93484 -4.3874e+001 -3.2860e+001 -4.4512e+000 46838 93055,93435,93363
 2.0000e+000 93533 -4.2348e+001 -3.5568e+001 -2.5086e+000 46838 93107,93363,93507
 2.0000e+000 93556 -4.4734e+001 -3.2250e+001 -2.2227e+000 46838 93107,93507,92847
 2.0000e+000 93605 -3.6874e+001 -3.6814e+001 -3.7147e+000 46838 93055,93029,93579
 2.0000e+000 93628 -3.8281e+001 -3.8584e+001 -4.5141e+000 46838 93055,93579,93435
 2.0000e+000 93979 -6.2772e+001 -1.0779e+002 -1.5879e-001 46476 93780,93884,93858
 2.0000e+000 93956 -6.3653e+001 -1.1272e+002 -5.2211e-002 46476 93754,93884,93780
 2.0000e+000 93933 -4.0306e+001 -1.0660e+000 -3.7180e+000 46476 93806,93858,93832
 2.0000e+000 93910 -7.8892e+001 -1.1434e+002 -1.2758e-001 46476 93780,93858,93806
 2.0000e+000 94515 -5.7580e+000 -1.0200e+001  2.2928e+000 46072 94345,94397,94371
 2.0000e+000 94492 -9.9765e+000 -1.1682e+001  5.8717e-001 46072 94267,94397,94345
 2.0000e+000 94469 -5.9368e+000 -1.3371e+001 -2.0646e+000 46072 94241,94397,94267
 2.0000e+000 94446 -4.6543e+000 -1.2353e+001 -4.8910e-001 46072 94293,94345,94319
 2.0000e+000 94423 -6.9419e+000 -9.1924e+000  1.8897e+000 46072 94267,94345,94293
 2.0000e+000 95149 -8.9708e+000 -1.2719e+001 -5.7765e+000 45346 94803,94881,94855
 2.0000e+000 95126 -1.3067e+001 -1.8850e+001 -2.7902e+000 45346 94803,94959,94881
 2.0000e+000 95103 -1.0178e+001 -1.4527e+001 -1.7856e+000 45346 95172,94933,94907
 2.0000e+000 95080 -1.1526e+001 -1.9033e+001 -1.2074e+000 45346 95172,94907,94881
 2.0000e+000 95057 -1.6507e+001 -1.1450e+001  1.0587e+000 45346 94803,94985,94959
 2.0000e+000 95034 -1.0150e+001 -1.5489e+001 -5.4606e+000 45346 94803,94855,94829
 2.0000e+000 95011 -1.6231e+001 -1.0119e+001 -2.0359e-002 45346 94777,94985,94803
 2.0000e+000 95198 -1.1694e+001 -1.2246e+001 -1.3062e+000 45346 94959,94933,95172
 2.0000e+000 95221 -1.1551e+001 -1.4739e+001 -1.1501e+000 45346 94959,95172,94881
 2.0000e+000 95776  1.1244e+001 -7.6223e+000  1.0294e-001 44720 95799,95560,95534
 2.0000e+000 95753  8.4391e+000 -4.1298e+000  1.4039e-001 44720 95799,95534,95482
 2.0000e+000 95730  9.5512e+000 -4.1983e+000 -5.6638e+000 44720 95943,95871,95430
 2.0000e+000 95707  9.1147e+000 -3.4620e+000 -5.5646e+000 44720 95943,95430,95404
 2.0000e+000 95684  2.1420e+000 -6.4787e-001 -3.7069e+000 44720 95430,95482,95456
 2.0000e+000 95661  1.9789e+001  2.5442e+000  4.6494e+000 44720 95482,95534,95508
 2.0000e+000 95638  1.0227e+001 -5.0631e+000 -4.1094e+000 44720 95404,95612,95586
 2.0000e+000 95825  8.8622e+000 -1.7684e+001 -3.8738e+000 44720 95586,95560,95799
 2.0000e+000 95848  1.4375e+001 -3.9721e+000 -4.1870e+000 44720 95871,95586,95799
 2.0000e+000 95897  9.5044e+000 -2.8027e+000 -3.2749e+000 44720 95482,95430,95871
 2.0000e+000 95920  6.0687e+000 -8.9312e+000 -8.3572e-001 44720 95482,95871,95799
 2.0000e+000 95969  1.0908e+001 -3.5700e+000 -6.2833e+000 44720 95586,95871,95943
 2.0000e+000 95992  9.9263e+000 -3.3614e+000 -6.0940e+000 44720 95586,95943,95404
 2.0000e+000 96449  1.2282e+001 -1.3872e+000  4.6439e-001 44202 96544,96472,96227
 2.0000e+000 96426  1.3547e+001  7.5504e+000  3.3850e+000 44202 96472,96175,96331
 2.0000e+000 96403  1.6667e+001 -6.4350e+000  1.8124e+000 44202 96544,96227,96201
 2.0000e+000 96380  8.2487e+000  2.5517e+000  1.3290e+000 44202 96253,96305,96279
 2.0000e+000 96357  1.2486e+001  1.9633e+000 -1.1680e+000 44202 96227,96305,96253
 2.0000e+000 96498  1.5653e+001  7.3717e+000  1.5929e-001 44202 96305,96227,96472
 2.0000e+000 96521  1.4348e+001  8.9494e+000  4.2415e+000 44202 96305,96472,96331
 2.0000e+000 96570  1.5037e+001  8.4641e+000  2.6950e+000 44202 96175,96472,96544
 2.0000e+000 96593  1.6467e+001 -3.2028e-001  3.5677e+000 44202 96175,96544,96201
 2.0000e+000 96971 -7.4131e+001 -7.8630e+001  1.7262e+000 43754 96994,96749,96697
 2.0000e+000 96948 -6.3330e+001 -8.1899e+001  5.1180e+000 43754 96994,96697,96853
 2.0000e+000 96925 -6.8088e+001 -8.0885e+001 -1.8597e+000 43754 96697,96749,96723
 2.0000e+000 96902 -3.7683e+001 -5.0125e+001  2.3838e+000 43754 96775,96853,96827
 2.0000e+000 96879 -3.5849e+001 -4.4308e+001  4.3880e+000 43754 96775,96827,96801
 2.0000e+000 97020 -6.8948e+001 -7.5407e+001  9.7572e+000 43754 96775,96749,96994
 2.0000e+000 97043 -5.5927e+001 -8.0036e+001  1.1512e+001 43754 96775,96994,96853
 2.0000e+000 97291 -3.1550e+001 -1.1867e+001 -3.9859e+000 43364 97314,97144,97118
 2.0000e+000 97268 -4.2754e+001 -1.7385e+001 -6.3855e+000 43364 97314,97118,97092
 2.0000e+000 97245 -2.8321e+001 -1.9371e+001 -4.9366e+000 43364 97386,97196,97170
 2.0000e+000 97222 -3.1716e+001 -3.2914e+001 -1.2607e+001 43364 97066,97196,97092
 2.0000e+000 97340 -2.6014e+001 -1.8049e+001 -5.6781e+000 43364 97170,97144,97314
 2.0000e+000 97363 -2.9458e+001 -1.9313e+001 -5.1884e+000 43364 97386,97170,97314
 2.0000e+000 97412 -2.8495e+001 -1.9367e+001 -6.8855e+000 43364 97092,97196,97386
 2.0000e+000 97435 -3.0466e+001 -1.9963e+001 -7.2126e+000 43364 97092,97386,97314
 2.0000e+000 97788  6.8285e+000  6.5037e+000  3.4380e+000 42960 97563,97667,97589
 2.0000e+000 97765 -5.5278e+000  5.1477e+000  5.2441e+000 42960 97563,97693,97667
 2.0000e+000 97742  6.4926e-001 -6.5835e+000  3.5503e-001 42960 97589,97641,97615
 2.0000e+000 97719  3.4751e-001  1.4383e+000  1.0569e+000 42960 97589,97667,97641
 2.0000e+000 98215 -3.4090e+001 -5.4809e+001 -4.2225e+000 42563 97918,98074,98048
 2.0000e+000 98192 -2.8352e+001 -5.9163e+001 -8.0999e+000 42563 97892,98074,97918
 2.0000e+000 98169 -3.6368e+001 -3.0628e+001 -1.5151e+001 42563 98238,97944,97918
 2.0000e+000 98146 -3.2265e+001 -2.1053e+001 -1.4570e+001 42563 98238,97918,98048
 2.0000e+000 98123 -4.8381e+001 -1.9354e+001 -1.3389e+001 42563 97944,98022,97996
 2.0000e+000 98100 -4.8384e+001 -2.0614e+001 -1.5744e+001 42563 97944,97996,97970
 2.0000e+000 98264 -3.6435e+001 -2.5109e+001 -1.9881e+001 42563 98022,97944,98238
 2.0000e+000 98287 -3.4936e+001 -2.1737e+001 -1.9518e+001 42563 98022,98238,98048
 2.0000e+000 98616 -1.5041e+001 -1.1191e+001 -2.7022e+000 42251 98443,98521,98469
 2.0000e+000 98593 -1.6967e+001 -1.3818e+001 -1.8273e+000 42251 98417,98521,98443
 2.0000e+000 98570 -1.8299e+001 -1.7348e+001 -4.6822e+000 42251 98391,98521,98417
 2.0000e+000 98547 -1.1170e+001 -6.9720e+000 -7.2063e+000 42251 98469,98521,98495
 2.0000e+000 98886 -1.1742e+002 -1.2758e+002 -2.9706e+000 41847 98661,98765,98687
 2.0000e+000 98863 -1.0606e+002 -1.5721e+002  1.8280e+001 41847 98661,98791,98765
 2.0000e+000 98840 -1.3282e+002 -8.5557e+001 -9.1817e+000 41847 98687,98765,98739
 2.0000e+000 98817 -8.3733e+001 -5.6885e+001 -2.3537e+001 41847 98687,98739,98713
 2.0000e+000 99394 -6.7053e-001  1.3279e+000 -1.6681e+000 41236 99417,99149,99123
 2.0000e+000 99371  3.8314e+000  1.9648e+000 -2.2695e+000 41236 99417,99123,99097
 2.0000e+000 99348  1.1974e+000 -1.0148e+000  8.4410e-001 41236 99489,99201,99149
 2.0000e+000 99325 -4.2551e+000 -2.6271e+000  1.7216e+000 41236 99149,99201,99175
 2.0000e+000 99302  4.3518e+000  1.8556e+000  1.3565e-002 41236 99097,99253,99227
 2.0000e+000 99279  2.6892e+000  1.8744e+000  2.4292e-001 41236 99071,99253,99097
 2.0000e+000 99443 -7.6820e-002  7.4842e-002  7.7958e-001 41236 99489,99149,99417
 2.0000e+000 99466  1.9045e+000  1.9867e+000 -3.3024e-001 41236 99227,99417,99097
 2.0000e+000 99515  1.4090e+000  1.1974e-001  1.5519e-001 41236 99227,99201,99489
 2.0000e+000 99538  1.1051e+000  2.0631e+000 -1.8924e-001 41236 99227,99489,99417
 2.0000e+000 100044  1.8354e+001  1.1597e+001  2.9649e+000 40732 99721,99773,99747
 2.0000e+000 100021  1.0528e+001  4.9843e+000 -1.1889e+000 40732 99721,99799,99773
 2.0000e+000 99998  9.0304e+000  5.4067e+000 -4.4740e-001 40732 99721,99903,99799
 2.0000e+000 99975  1.4202e+001  1.6791e+000  2.8695e+000 40732 100067,99877,99851
 2.0000e+000 99952  1.3113e+001  6.4216e+000  3.9631e+000 40732 100067,99851,99799
 2.0000e+000 99929  1.5926e+001  5.4705e+000  6.6598e+000 40732 99799,99851,99825
 2.0000e+000 100093  1.3952e+001 -1.9191e+000  1.3327e+000 40732 99903,99877,100067
 2.0000e+000 100116  1.3100e+001  3.6283e+000  2.0936e+000 40732 99903,100067,99799
 2.0000e+000 100622 -3.8546e+001 -2.0007e+001 -3.5921e+000 40278 100645,100455,100429
 2.0000e+000 100599 -4.3436e+001 -2.5628e+001 -1.2611e+000 40278 100717,100645,100429
 2.0000e+000 100576 -4.8977e+001 -2.8044e+001 -6.3960e+000 40278 100717,100429,100377
 2.0000e+000 100553 -4.4997e+001 -2.6344e+001 -1.6096e+000 40278 100789,100325,100481
 2.0000e+000 100530 -5.4217e+001 -2.9236e+001 -3.2134e+000 40278 100299,100481,100325
 2.0000e+000 100507 -4.3981e+001 -2.3893e+001 -4.5299e+000 40278 100377,100429,100403
 2.0000e+000 100671 -4.2308e+001 -5.2191e+000  7.9209e-001 40278 100481,100455,100645
 2.0000e+000 100694 -4.5995e+001 -2.3626e+001 -3.0052e+000 40278 100789,100481,100645
 2.0000e+000 100743 -4.7312e+001 -2.9794e+001 -1.0113e+001 40278 100351,100645,100717
 2.0000e+000 100766 -5.8840e+001 -3.3797e+001 -1.5116e+001 40278 100351,100717,100377
 2.0000e+000 100815 -4.4718e+001 -2.6103e+001 -5.0206e+000 40278 100351,100325,100789
 2.0000e+000 100838 -4.3882e+001 -2.0562e+001 -6.4170e+000 40278 100351,100789,100645
 2.0000e+000 101265 -4.2292e+000 -1.2462e+001 -2.4260e+000 39824 101288,101046,100994
 2.0000e+000 101242 -8.6684e+000 -1.2530e+001 -4.9465e+000 39824 101288,100994,100968
 2.0000e+000 101219 -5.6581e+000 -1.2493e+001 -5.0290e+000 39824 100942,101124,100968
 2.0000e+000 101196 -2.2543e+000 -1.7492e+001 -3.1171e+000 39824 101046,101124,101072
 2.0000e+000 101173 -1.2163e+001 -1.7249e+001 -5.0443e+000 39824 100994,101046,101020
 2.0000e+000 101150  7.9320e+000 -1.5084e+001 -4.1015e+000 39824 101072,101124,101098
 2.0000e+000 101314 -1.5250e+000 -1.2296e+001 -2.1099e+000 39824 101124,101046,101288
 2.0000e+000 101337 -4.1631e+000 -1.0852e+001 -4.2968e+000 39824 101124,101288,100968
 2.0000e+000 101585 -4.4819e+001 -6.1786e+001  1.9507e+001 39070 101608,101464,101412
 2.0000e+000 101562 -4.1500e+001 -5.8386e+001  2.1298e+001 39070 101608,101412,101360
 2.0000e+000 101539 -5.4636e+001 -6.9356e+001  1.5629e+001 39070 101412,101464,101438
 2.0000e+000 101516 -3.4355e+001 -4.7465e+001  1.8101e+001 39070 101360,101412,101386
 2.0000e+000 101634 -4.8415e+001 -6.0690e+001  1.5894e+001 39070 101490,101464,101608
 2.0000e+000 101657 -4.4842e+001 -5.5889e+001  1.7957e+001 39070 101490,101608,101360
 2.0000e+000 101856 -1.0100e+002 -4.5944e+001 -6.6393e+000 38730 101706,101758,101732
 2.0000e+000 101833 -1.0432e+002 -8.3870e+001  7.1406e+000 38730 101706,101784,101758
 2.0000e+000 101810 -1.2175e+002 -9.8919e+001 -2.5544e+000 38730 101680,101784,101706
 2.0000e+000 102106 -2.0501e+001 -1.8265e+001 -5.2686e+000 38326 101881,101959,101907
 2.0000e+000 102083 -2.0414e+001 -1.7773e+001 -5.1183e+000 38326 101881,101985,101959
 2.0000e+000 102060 -1.5383e+001 -1.4766e+001 -6.3895e+000 38326 101881,102011,101985
 2.0000e+000 102037 -2.8470e+001 -1.6377e+001 -7.4720e+000 38326 101907,101959,101933
 2.0000e+000 102258 -4.5816e+001 -3.3341e+001  3.1559e+000 38036 102281,102157,102131
 2.0000e+000 102235 -4.6168e+001 -2.7084e+001 -6.0749e-002 38036 102281,102131,102209
 2.0000e+000 102307 -4.3831e+001 -3.8317e+001  2.6188e+000 38036 102183,102157,102281
 2.0000e+000 102330 -4.5602e+001 -3.4458e+001 -1.5315e+000 38036 102183,102281,102209
 2.0000e+000 102663  4.4801e+000 -2.2413e+000 -3.0226e+000 37596 102438,102542,102464
 2.0000e+000 102640  7.7264e+000  1.1461e+000  1.4393e+000 37596 102438,102568,102542
 2.0000e+000 102617  6.7436e+000 -3.9434e+000 -1.5440e+000 37596 102490,102542,102516
 2.0000e+000 102594  7.7556e+000 -1.6560e+000 -1.7844e+000 37596 102464,102542,102490
 2.0000e+000 102862 -1.3635e+001 -1.5136e+001 -3.6651e+000 37192 102686,102764,102712
 2.0000e+000 102839 -1.3816e+001 -1.5233e+001 -3.4527e+000 37192 102686,102790,102764
 2.0000e+000 102816 -2.2207e+001 -1.6954e+001 -3.0005e+000 37192 102712,102764,102738
 2.0000e+000 103110 -5.7921e+000 -1.1371e+001 -5.8130e+000 36609 102911,102963,102937
 2.0000e+000 103087 -4.4414e+000 -1.2585e+001 -3.2836e+000 36609 102911,102989,102963
 2.0000e+000 103064 -8.3910e+000 -1.1605e+001 -2.5646e+000 36609 102885,102989,102911
 2.0000e+000 103041 -2.5177e+000 -8.3375e+000 -3.8833e+000 36609 102885,103015,102989
 2.0000e+000 103718  6.1799e+000 -1.6243e+001 -8.9431e-002 36131 103323,103375,103349
 2.0000e+000 103695  6.5473e+000 -1.0853e+001 -1.8037e+000 36131 103297,103375,103323
 2.0000e+000 103672  8.2485e+000 -1.6332e-001  5.3354e+000 36131 103297,103505,103375
 2.0000e+000 103649  5.9609e+000 -2.7615e+000  5.3813e+000 36131 103741,103479,103401
 2.0000e+000 103626  4.9732e+000 -4.9939e+000  3.1210e+000 36131 103741,103401,103375
 2.0000e+000 103603  2.8858e+000 -1.6100e+000  4.2792e+000 36131 103401,103479,103427
 2.0000e+000 103580  2.3152e+001  3.5805e-001  9.1152e+000 36131 103297,103531,103505
 2.0000e+000 103557  4.3601e+000 -6.3987e-001  1.0040e+000 36131 103427,103479,103453
 2.0000e+000 103767  7.9854e+000 -5.1388e-001  6.9510e+000 36131 103505,103479,103741
 2.0000e+000 103790  6.7104e+000 -2.6964e+000  4.6405e+000 36131 103505,103741,103375
 2.0000e+000 103989  2.0602e+000 -1.2247e+000 -1.7127e+000 35791 103839,103917,103891
 2.0000e+000 103966  5.1347e+000  4.4219e+000  7.9350e-002 35791 103813,103917,103839
 2.0000e+000 103943  1.6264e+000 -2.5273e+000 -9.1306e-001 35791 103839,103891,103865
 2.0000e+000 104188 -5.0793e+001 -2.4718e+001 -2.5574e+000 35444 104038,104090,104064
 2.0000e+000 104165 -4.9326e+001 -2.3832e+001 -2.0416e+000 35444 104038,104116,104090
 2.0000e+000 104142 -4.7590e+001 -3.2267e+001 -2.6536e+000 35444 104012,104116,104038
 2.0000e+000 104487 -2.8068e+001 -2.3807e+001  8.2185e-001 34990 104265,104317,104291
 2.0000e+000 104464 -3.5301e+001 -2.3427e+001 -2.4655e+000 34990 104510,104317,104265
 2.0000e+000 104441 -4.3274e+001 -2.3393e+001 -3.1618e+000 34990 104510,104265,104213
 2.0000e+000 104418 -3.0814e+001 -2.4358e+001 -4.6191e+000 34990 104582,104343,104317
 2.0000e+000 104395 -4.1490e+001 -1.8943e+001 -2.3109e+000 34990 104213,104265,104239
 2.0000e+000 104536 -3.0934e+001 -2.4558e+001 -5.1880e+000 34990 104582,104317,104510
 2.0000e+000 104559 -3.6801e+001 -2.5566e+001 -4.3677e+000 34990 104369,104510,104213
 2.0000e+000 104608 -2.8641e+001 -1.8449e+001 -2.3091e+000 34990 104369,104343,104582
 2.0000e+000 104631 -3.1612e+001 -2.4830e+001 -3.1154e+000 34990 104369,104582,104510
 2.0000e+000 104783 -5.9846e+001 -3.0663e+001 -7.5902e+000 34700 104938,104806,104682
 2.0000e+000 104760 -5.4499e+001 -3.1271e+001 -5.5510e-001 34700 104938,104682,104656
 2.0000e+000 104832 -4.5892e+001 -2.2402e+001 -3.3871e+000 34700 104708,104682,104806
 2.0000e+000 104964 -6.8132e+001 -3.4322e+001 -8.1796e+000 34700 104734,104806,104938
 2.0000e+000 104987 -6.3329e+001 -3.5204e+001 -1.3238e+000 34700 104734,104938,104656
 2.0000e+000 105137 -9.9520e+001 -8.8578e+000 -3.6185e+000 34388 105036,105088,105062
 2.0000e+000 105114 -9.0833e+001 -3.9086e+001 -6.7877e+000 34388 105010,105088,105036
 2.0000e+000 105385 -2.7916e+001 -1.8201e+001 -2.9931e+000 33734 105408,105186,105160
 2.0000e+000 105362 -2.6006e+001 -2.0213e+001 -4.8816e+000 33734 105408,105160,105264
 2.0000e+000 105339 -2.1649e+001 -2.3634e+001 -3.8881e+000 33734 105160,105290,105264
 2.0000e+000 105316 -2.7127e+001 -1.9239e+001  1.2007e-001 33734 105186,105238,105212
 2.0000e+000 105434 -2.6047e+001 -1.7342e+001 -2.7092e+000 33734 105238,105186,105408
 2.0000e+000 105457 -2.1572e+001 -1.8284e+001 -4.5086e+000 33734 105238,105408,105264
 2.0000e+000 105609 -4.3873e+001 -2.2259e+001 -1.6216e+001 33394 105482,105534,105508
 2.0000e+000 105586 -4.4013e+001 -2.8887e+001 -1.0978e+001 33394 105482,105560,105534
 2.0000e+000 105859 -5.5280e+001 -3.2409e+001  1.0471e+000 33047 105882,105712,105660
 2.0000e+000 105836 -6.2105e+001 -3.2814e+001  4.0718e+000 33047 105882,105660,105634
 2.0000e+000 105813 -4.8195e+001 -2.9545e+001  6.2313e-001 33047 105660,105712,105686
 2.0000e+000 105790 -5.0297e+001 -2.7482e+001 -3.6025e+000 33047 105634,105764,105738
 2.0000e+000 105908 -3.9473e+001 -2.7791e+001 -4.3857e+000 33047 105738,105712,105882
 2.0000e+000 105931 -5.6000e+001 -3.4957e+001 -5.9782e-001 33047 105738,105882,105634
 2.0000e+000 106181 -8.4973e-001 -1.0969e+001 -1.7555e+000 32543 106204,106060,106008
 2.0000e+000 106158  7.0227e+000 -1.4175e+001 -2.0040e-001 32543 105956,106086,106060
 2.0000e+000 106135  1.9804e-001 -7.9350e+000 -1.1484e+000 32543 106204,106008,105982
 2.0000e+000 106112  2.2602e+000 -8.8370e+000 -6.0443e-001 32543 106008,106060,106034
 2.0000e+000 106230 -3.1008e-001 -1.2130e+001 -3.5289e+000 32543 105956,106060,106204
 2.0000e+000 106253  2.6041e-001 -9.4616e+000 -3.0811e+000 32543 105956,106204,105982
 2.0000e+000 106454 -4.8703e+001 -3.2669e+001 -1.5035e+001 31839 106304,106356,106330
 2.0000e+000 106431 -5.6868e+001 -2.9126e+001 -3.6275e+000 31839 106278,106356,106304
 2.0000e+000 106408 -4.5905e+001 -2.1922e+001 -7.0892e+000 31839 106278,106382,106356
 2.0000e+000 106704 -1.6064e+001 -1.9871e+001 -2.6812e+000 31534 106505,106583,106557
 2.0000e+000 106681 -2.1637e+001 -2.1129e+001 -1.8172e+000 31534 106479,106583,106505
 2.0000e+000 106658 -1.8640e+001 -1.4554e+001 -4.1487e+000 31534 106505,106557,106531
 2.0000e+000 106635 -1.1276e+001 -1.7226e+001 -1.5126e+000 31534 106479,106609,106583
 2.0000e+000 107108 -6.9024e+000 -8.9957e+000 -4.3251e-001 31030 106886,106990,106964
 2.0000e+000 107085 -6.4989e+000 -6.1422e-001 -6.8629e-001 31030 106860,106990,106886
 2.0000e+000 107062 -1.4610e+000  1.3495e+000 -6.2906e-001 31030 106834,106990,106860
 2.0000e+000 107039 -1.0518e+001 -1.7236e+001  1.5159e+000 31030 106912,106964,106938
 2.0000e+000 107016 -8.8928e+000 -9.6338e+000  1.4649e-001 31030 106886,106964,106912
 2.0000e+000 107307 -8.6153e+001 -3.1683e+001 -8.0191e+000 30718 107330,107157,107131
 2.0000e+000 107284 -7.4242e+001 -4.0677e+001 -1.0513e+001 30718 107330,107131,107235
 2.0000e+000 107261 -7.9953e+001 -5.0955e+001 -3.4394e+001 30718 107183,107235,107209
 2.0000e+000 107356 -7.5868e+001 -2.5248e+001 -4.2835e+000 30718 107183,107157,107330
 2.0000e+000 107379 -6.5583e+001 -3.6038e+001 -7.7220e+000 30718 107183,107330,107235
 2.0000e+000 107759 -6.1414e+001 -5.2089e+001  1.7846e+001 30264 107782,107615,107537
 2.0000e+000 107736 -5.1266e+001 -2.8289e+001  1.3472e+001 30264 107782,107537,107485
 2.0000e+000 107713 -5.9304e+001 -4.4798e+001  1.8569e+001 30264 107485,107537,107511
 2.0000e+000 107690 -5.4131e+001 -6.9084e+001  1.1833e+001 30264 107537,107615,107589
 2.0000e+000 107667 -5.1774e+001 -7.9597e+001  5.3568e+000 30264 107537,107589,107563
 2.0000e+000 107808 -6.1335e+001 -4.4951e+001 -2.7995e-001 30264 107641,107615,107782
 2.0000e+000 107831 -5.2158e+001 -1.9273e+001 -3.3381e+000 30264 107641,107782,107485
 2.0000e+000 108030 -9.6303e+000 -1.5117e+001 -3.0197e+000 29874 108053,107854,107932
 2.0000e+000 108007 -9.8956e+000 -1.3769e+001 -4.5649e+000 29874 107854,107958,107932
 2.0000e+000 107984 -1.0615e+000 -1.4101e+001 -4.4489e+000 29874 108053,107932,107906
 2.0000e+000 108079 -1.3333e+001 -1.4227e+001 -6.9384e-001 29874 107880,107854,108053
 2.0000e+000 108102 -8.6903e+000 -1.6160e+001 -2.0024e+000 29874 107880,108053,107906
 2.0000e+000 108433 -2.9536e+001 -2.7940e+001 -2.3305e+000 29484 108234,108338,108312
 2.0000e+000 108410 -4.5248e+001 -3.4391e+001 -2.7397e+000 29484 108208,108338,108234
 2.0000e+000 108387 -3.6366e+001 -2.9909e+001 -2.1436e+000 29484 108234,108312,108260
 2.0000e+000 108364 -3.8873e+001 -3.6778e+001 -4.1318e+000 29484 108260,108312,108286
 2.0000e+000 108762  2.1257e-001 -1.0937e+001  1.5704e+000 29080 108563,108641,108589
 2.0000e+000 108739  3.5430e-001 -4.6712e+000 -1.1626e+000 29080 108537,108641,108563
 2.0000e+000 108716  3.1802e+000 -8.5171e+000 -9.7789e-002 29080 108589,108641,108615
 2.0000e+000 108693  4.3640e+000 -1.4465e+000  4.3347e+000 29080 108537,108667,108641
 2.0000e+000 109189 -3.6741e+001 -2.6185e+001 -1.5981e+000 28476 108892,108996,108970
 2.0000e+000 109166 -3.5954e+001 -2.8640e+001 -7.3511e-001 28476 108892,109022,108996
 2.0000e+000 109143 -3.9837e+001 -2.8569e+001 -1.0680e-001 28476 108892,108970,108944
 2.0000e+000 109120 -4.8077e+001 -3.0214e+001 -9.1804e-002 28476 108892,109048,109022
 2.0000e+000 109097 -4.2049e+001 -2.9244e+001 -2.9810e+000 28476 108892,108944,108918
 2.0000e+000 109074 -5.0381e+001 -2.2947e+001 -2.5082e+000 28476 108866,109048,108892
 2.0000e+000 109518 -1.2116e+000 -1.0824e+001  3.8899e+000 28022 109541,109371,109345
 2.0000e+000 109495 -3.2246e+000 -9.2541e+000  1.2170e+000 28022 109541,109345,109319
 2.0000e+000 109472  3.3904e+000 -7.4480e+000  3.7015e+000 28022 109293,109397,109319
 2.0000e+000 109449  4.8246e+000 -5.9253e+000  2.3676e+000 28022 109293,109423,109397
 2.0000e+000 109567  7.0737e+000 -7.6299e+000  5.0970e+000 28022 109397,109371,109541
 2.0000e+000 109590 -6.0555e-001 -9.7750e+000  2.2762e+000 28022 109397,109541,109319
 2.0000e+000 109968 -6.1308e+001 -5.0906e+001 -3.4992e+000 27568 109798,109850,109824
 2.0000e+000 109945 -6.0512e+001 -5.4703e+001 -1.5672e+000 27568 109694,109850,109798
 2.0000e+000 109922 -4.4859e+001 -6.2181e+001 -1.3849e+000 27568 109694,109798,109746
 2.0000e+000 109899 -5.0027e+001 -6.4990e+001 -4.6195e+000 27568 109746,109798,109772
 2.0000e+000 109876 -5.0908e+001 -7.9035e+001  4.9217e-001 27568 109694,109746,109720
 2.0000e+000 110167 -2.4845e+001 -2.3147e+001 -2.1109e+000 27007 110017,110095,110069
 2.0000e+000 110144 -2.8481e+001 -2.5288e+001 -4.3824e+000 27007 109991,110095,110017
 2.0000e+000 110121 -2.2126e+001 -2.2707e+001 -2.8316e+000 27007 110017,110069,110043
 2.0000e+000 110415 -8.9192e+000 -1.3393e+001 -1.3345e+000 26567 110438,110242,110190
 2.0000e+000 110392 -2.2951e+000 -1.7610e+001 -2.7387e-002 26567 110438,110190,110320
 2.0000e+000 110369 -2.9972e+000 -1.2602e+001  1.2255e+000 26567 110242,110294,110268
 2.0000e+000 110346 -1.0722e+001 -1.6553e+001  6.2459e-001 26567 110190,110242,110216
 2.0000e+000 110464 -5.5178e+000 -1.3156e+001  1.0719e+000 26567 110294,110242,110438
 2.0000e+000 110487  1.2766e+000 -1.3885e+001  3.9846e+000 26567 110294,110438,110320
 2.0000e+000 110639 -5.5180e+001 -3.5602e+001 -6.5989e+000 26170 110538,110590,110564
 2.0000e+000 110616 -5.1649e+001 -3.9075e+001 -4.1510e+000 26170 110512,110590,110538
 2.0000e+000 111149 -1.2075e+002 -7.0915e+001  1.4733e+001 25716 111172,110878,110852
 2.0000e+000 111126 -8.9768e+001 -7.2264e+001  1.6199e+001 25716 111172,110852,111008
 2.0000e+000 111103 -1.2061e+002 -6.8346e+001  3.9850e+001 25716 110878,110930,110904
 2.0000e+000 111080 -1.1850e+002 -8.3141e+001  1.6315e+001 25716 110826,111008,110852
 2.0000e+000 111057 -5.0203e+001 -5.8841e+001  1.8724e+001 25716 110930,111008,110956
 2.0000e+000 111034 -4.4992e+001 -6.2564e+001  2.2789e+001 25716 110956,111008,110982
 2.0000e+000 111198 -9.6679e+001 -7.9045e+001  2.3772e+001 25716 110930,110878,111172
 2.0000e+000 111221 -5.9139e+001 -7.5087e+001  2.5890e+001 25716 110930,111172,111008
 2.0000e+000 111420 -8.6959e+001 -7.1473e+001  6.0569e+000 25304 111443,111270,111244
 2.0000e+000 111397 -7.6895e+001 -1.1047e+002  6.9728e+000 25304 111443,111244,111348
 2.0000e+000 111374 -9.1528e+001 -5.3375e+001 -1.5837e+000 25304 111270,111322,111296
 2.0000e+000 111469 -8.3531e+001 -4.4682e+001  8.3588e+000 25304 111322,111270,111443
 2.0000e+000 111492 -6.6547e+001 -7.5037e+001  1.2798e+001 25304 111322,111443,111348
 2.0000e+000 111691  2.0957e+000 -8.2739e+000  3.8020e+000 24736 111567,111619,111593
 2.0000e+000 111668 -9.1675e-001 -1.0156e+001  9.0529e-001 24736 111541,111619,111567
 2.0000e+000 111645 -1.2671e+000 -9.0895e+000  1.5809e+000 24736 111515,111619,111541
 2.0000e+000 112024 -3.4562e+001 -2.6005e+001 -1.1084e+001 24146 111825,111877,111851
 2.0000e+000 112001 -2.2878e+001 -1.2091e+001 -4.2568e+000 24146 111825,111903,111877
 2.0000e+000 111978 -2.9200e+001 -5.3553e+001 -1.9631e+000 24146 111825,111929,111903
 2.0000e+000 111955 -2.6981e+001 -4.2137e+001  5.4919e+000 24146 111799,111929,111825
 2.0000e+000 112370 -1.6209e+001 -1.6190e+001 -1.5331e+000 23856 112393,112151,112125
 2.0000e+000 112347 -1.7998e+001 -1.7874e+001 -2.6949e+000 23856 112465,112393,112125
 2.0000e+000 112324 -1.8209e+001 -1.8761e+001 -2.8996e+000 23856 112465,112125,112073
 2.0000e+000 112301 -2.5528e+001 -1.8226e+001 -1.0927e+000 23856 112073,112125,112099
 2.0000e+000 112278 -2.1156e+001 -1.6358e+001 -2.2237e+000 23856 112047,112229,112073
 2.0000e+000 112255 -6.8835e+000 -1.3866e+001  5.1435e-001 23856 112151,112203,112177
 2.0000e+000 112419 -8.2448e+000 -1.5737e+001  1.3351e+000 23856 112203,112151,112393
 2.0000e+000 112442 -1.5629e+001 -2.0600e+001 -9.4961e-001 23856 112203,112393,112229
 2.0000e+000 112491 -1.7581e+001 -1.7112e+001 -1.0148e+000 23856 112229,112393,112465
 2.0000e+000 112514 -1.8336e+001 -1.9134e+001 -1.2007e+000 23856 112229,112465,112073
 2.0000e+000 112784  1.4480e+000 -1.2149e+001 -1.2924e-003 23494 112611,112663,112637
 2.0000e+000 112761  1.8764e+000 -8.6941e+000  3.8494e-001 23494 112585,112663,112611
 2.0000e+000 112738  6.3782e-001 -9.2111e+000  4.3125e-001 23494 112559,112663,112585
 2.0000e+000 112715  3.6727e+000  2.6936e+000  2.4252e+000 23494 112559,112689,112663
 2.0000e+000 113117 -5.9446e+001 -4.6758e+001 -1.1376e+001 22974 112944,113022,112996
 2.0000e+000 113094 -5.9662e+001 -5.8223e+001 -6.7338e+000 22974 112918,113022,112944
 2.0000e+000 113071 -5.9876e+001 -4.8563e+001 -1.2152e+001 22974 112944,112996,112970
 2.0000e+000 113048 -5.9129e+001 -5.0110e+001 -1.1747e+001 22974 112892,113022,112918
 2.0000e+000 113414 -5.3785e+001 -3.4117e+001 -3.8737e+000 22370 113192,113296,113218
 2.0000e+000 113391 -6.6295e+001 -4.1078e+001 -7.7913e+000 22370 113140,113296,113192
 2.0000e+000 113368 -5.3481e+001 -3.2666e+001 -8.3318e-001 22370 113218,113296,113270
 2.0000e+000 113345 -4.9577e+001 -3.4017e+001  3.6753e+000 22370 113218,113270,113244
 2.0000e+000 113322 -5.7269e+001 -3.3455e+001 -2.2054e+001 22370 113140,113192,113166
 2.0000e+000 113662 -2.9525e+001 -1.9290e+001 -2.2508e+000 21916 113685,113515,113489
 2.0000e+000 113639 -3.2966e+001 -1.7292e+001 -2.8941e+000 21916 113685,113489,113437
 2.0000e+000 113616 -1.8404e+001 -1.6349e+001 -1.7526e+000 21916 113757,113567,113541
 2.0000e+000 113593 -3.5379e+001 -2.2030e+001 -5.6004e+000 21916 113437,113489,113463
 2.0000e+000 113711 -2.9394e+001 -1.8832e+001 -2.3523e+000 21916 113541,113515,113685
 2.0000e+000 113734 -2.6502e+001 -1.7465e+001 -1.7923e+000 21916 113757,113541,113685
 2.0000e+000 113783 -2.8407e+001 -1.8961e+001 -2.9921e+000 21916 113437,113567,113757
 2.0000e+000 113806 -3.1225e+001 -1.6823e+001 -3.8858e+000 21916 113437,113757,113685
 2.0000e+000 114056 -4.5040e+001 -1.7821e+001 -2.2291e+000 21412 113857,113909,113883
 2.0000e+000 114033 -4.2850e+001 -1.9782e+001 -4.6684e+000 21412 114079,113909,113857
 2.0000e+000 114010 -3.6567e+001 -1.9072e+001 -2.0665e+000 21412 114079,113857,113961
 2.0000e+000 113987 -4.0490e+001 -2.5762e+001 -4.9717e+000 21412 113831,113961,113857
 2.0000e+000 114105 -3.7958e+001 -1.6925e+001 -2.2250e+000 21412 113935,113909,114079
 2.0000e+000 114128 -3.3969e+001 -1.8800e+001 -1.7923e-001 21412 113935,114079,113961
 2.0000e+000 114378 -5.6527e+000 -1.2501e+001 -1.0217e+000 21022 114401,114257,114205
 2.0000e+000 114355 -7.3999e+000 -1.5775e+001 -1.7771e+000 21022 114401,114205,114179
 2.0000e+000 114332 -1.0306e+001 -1.6436e+001  1.5428e+000 21022 114153,114283,114179
 2.0000e+000 114309 -1.6793e-001 -1.4530e+001 -1.7660e+000 21022 114205,114257,114231
 2.0000e+000 114427 -3.9358e+000 -1.3364e+001  2.0540e+000 21022 114283,114257,114401
 2.0000e+000 114450 -5.7644e+000 -1.6460e+001  1.2484e+000 21022 114283,114401,114179
 2.0000e+000 114651 -3.4566e+001 -1.3991e+001 -6.5222e+000 20618 114501,114553,114527
 2.0000e+000 114628 -2.6991e+001 -1.7926e+001  4.1734e+000 20618 114501,114579,114553
 2.0000e+000 114605 -4.0864e+001 -2.2145e+001  1.4595e+000 20618 114475,114579,114501
 2.0000e+000 114901 -7.7104e+001 -1.8316e+001 -1.0187e+001 20114 114676,114780,114702
 2.0000e+000 114878 -4.9701e+001 -8.4684e+000 -9.8918e+000 20114 114676,114806,114780
 2.0000e+000 114855 -6.8648e+001 -1.7158e+001 -9.3551e+000 20114 114702,114780,114754
 2.0000e+000 114832 -1.6698e+002 -4.2581e+001 -1.5721e+001 20114 114702,114754,114728
 2.0000e+000 115053 -6.0035e+001 -2.2129e+001 -2.5304e+000 19460 115147,115076,114926
 2.0000e+000 115030 -5.9017e+001 -1.9735e+001 -3.4112e+000 19460 115147,114926,115004
 2.0000e+000 115102 -6.5135e+001 -2.5268e+001  1.0890e+000 19460 114952,114926,115076
 2.0000e+000 115173 -5.6877e+001 -2.9533e+001 -9.6780e-001 19460 114978,115076,115147
 2.0000e+000 115196 -5.3436e+001 -2.5050e+001 -2.7213e+000 19460 114978,115147,115004
 2.0000e+000 115446 -1.0840e+002 -2.7847e+001  1.7003e+001 19006 115273,115351,115299
 2.0000e+000 115423 -1.0091e+002 -5.5017e+001  4.6808e+000 19006 115247,115351,115273
 2.0000e+000 115400 -1.0257e+002 -5.2244e+001  3.0427e+001 19006 115221,115351,115247
 2.0000e+000 115377 -6.0069e+001 -9.3257e+000 -2.1847e+001 19006 115299,115351,115325
 2.0000e+000 115767 -8.1242e-001 -1.3576e+001  1.2211e+000 18716 115571,115649,115623
 2.0000e+000 115744 -2.2749e+000 -1.5040e+001  2.4457e-001 18716 115493,115649,115571
 2.0000e+000 115721 -3.8606e+000 -1.5165e+001  1.1017e+000 18716 115493,115571,115545
 2.0000e+000 115698 -5.4494e+000 -1.8422e+001  5.0614e-001 18716 115493,115545,115519
 2.0000e+000 115675  9.6024e-001 -1.3786e+001 -5.3163e-001 18716 115571,115623,115597
 2.0000e+000 116039 -2.5342e+001 -1.8761e+001  3.1034e-001 18312 115814,115892,115840
 2.0000e+000 116016 -2.5524e+001 -1.8119e+001 -1.8070e+000 18312 115814,115944,115892
 2.0000e+000 115993 -1.9127e+001 -1.7456e+001  7.6056e-005 18312 115892,115944,115918
 2.0000e+000 115970 -2.7954e+001 -1.7155e+001 -3.0851e+000 18312 115840,115892,115866
 2.0000e+000 116191 -1.0090e+002 -5.7373e+001  4.9311e-001 18000 116090,116142,116116
 2.0000e+000 116168 -9.8754e+001 -5.9439e+001  2.3167e+000 18000 116064,116142,116090
 2.0000e+000 116343 -3.3188e+000 -1.6718e+001  1.5021e+000 17396 116242,116294,116268
 2.0000e+000 116320 -1.0288e+001 -1.8677e+001  7.1608e-001 17396 116216,116294,116242
 2.0000e+000 116566 -3.3777e+001 -1.2198e+001  1.3929e+000 16942 116390,116468,116442
 2.0000e+000 116543 -3.4680e+001 -1.4079e+001  2.0139e+000 16942 116390,116494,116468
 2.0000e+000 116520 -3.6219e+001 -1.7952e+001 -8.6805e-002 16942 116390,116442,116416
 2.0000e+000 116767 -1.2782e+001 -1.5142e+001  2.1142e-001 16438 116790,116643,116617
 2.0000e+000 116744 -1.9413e+001 -1.8516e+001 -1.7808e+000 16438 116790,116617,116591
 2.0000e+000 116721 -7.6468e+000 -1.4942e+001 -2.6037e-001 16438 116643,116695,116669
 2.0000e+000 116816 -9.8873e+000 -1.7514e+001  1.2903e+000 16438 116695,116643,116790
 2.0000e+000 116839 -1.2073e+001 -1.7283e+001 -1.0820e-001 16438 116695,116790,116591
 2.0000e+000 117062 -3.8590e+001 -1.9303e+001 -6.7233e+000 16074 116886,116938,116912
 2.0000e+000 117039 -3.7163e+001 -2.5707e+001  2.7284e+000 16074 116886,116990,116938
 2.0000e+000 117016 -3.2437e+001 -1.6156e+001  4.6860e+000 16074 116938,116990,116964
 2.0000e+000 117214  3.1015e+000 -1.1358e+001 -9.5134e-002 15649 117087,117139,117113
 2.0000e+000 117191  1.8050e+000 -1.1948e+001  4.9990e-002 15649 117087,117165,117139
 2.0000e+000 117317 -2.4220e+001 -4.1016e+001  8.1139e+000 421 117239,117291,117265
 2.1000e+000 70632 -7.5439e+000 -4.9747e+001  3.3987e+000 70072 70482,70534,70508
 2.1000e+000 70609 -1.6373e+001 -7.0690e+001  1.5396e+000 70072 70482,70560,70534
 2.1000e+000 70586 -2.7914e+001 -8.1699e+001  1.5279e+001 70072 70456,70560,70482
 2.1000e+000 70951 -6.3561e+001 -2.2182e+002  0.0000e+000 69874 70703,70755,70729
 2.1000e+000 70928 -8.7434e+000 -2.0367e+002 -4.5669e+001 69874 70703,70781,70755
 2.1000e+000 70905  4.0140e+001 -1.6429e+001 -2.2705e+001 69874 70703,70807,70781
 2.1000e+000 70882 -2.0689e+001 -1.6496e+002 -9.4553e+000 69874 70703,70833,70807
 2.1000e+000 70859 -2.2047e+001 -1.7270e+002  4.8749e+000 69874 70677,70833,70703
 2.1000e+000 71199  2.1252e+001 -4.7801e+001  2.1432e+001 69698 71222,71052,71026
 2.1000e+000 71176  5.7293e+000 -2.8883e+001  1.9860e+001 69698 71294,71222,71026
 2.1000e+000 71153 -4.9123e+000 -2.4597e+001 -1.8534e+001 69698 71294,71026,71000
 2.1000e+000 71130 -3.3635e+001 -2.9231e+001  1.4580e+001 69698 71366,71104,71078
 2.1000e+000 71248  5.1465e+001 -9.1321e+000  2.3507e+000 69698 71078,71052,71222
 2.1000e+000 71271  1.1918e+001 -1.7716e+001  1.4363e+001 69698 71366,71078,71222
 2.1000e+000 71320  6.7394e+001 -6.2255e-001  1.3104e+001 69698 70974,71222,71294
 2.1000e+000 71343  7.0585e+001  7.6138e+000 -2.1282e+001 69698 70974,71294,71000
 2.1000e+000 71392  2.5670e+001 -1.8741e+001  2.4654e+001 69698 70974,71104,71366
 2.1000e+000 71415  3.6648e+001 -2.9513e+001  2.9059e+001 69698 70974,71366,71222
 2.1000e+000 71516 -1.3237e+001 -1.1158e+002 -2.2921e+001 69386 71438,71490,71464
 2.1000e+000 71869  4.3852e+001 -1.1941e+001  5.1947e+000 69188 71644,71748,71670
 2.1000e+000 71846  9.5971e+001  6.0334e+000  3.1298e+001 69188 71644,71774,71748
 2.1000e+000 71823  3.5308e+001  8.8795e+000  1.7116e+001 69188 71670,71748,71722
 2.1000e+000 71800  5.3572e+000 -1.9131e+000  2.1764e+000 69188 71670,71722,71696
 2.1000e+000 72019 -3.4853e+001 -1.2118e+002 -1.1956e+000 68990 71918,71970,71944
 2.1000e+000 71996 -3.6723e+001 -1.1555e+002 -3.6783e+000 68990 71892,71970,71918
 2.1000e+000 72316  1.9169e+001  2.7624e+001  1.4080e+001 68586 72339,72172,72146
 2.1000e+000 72293  3.1863e+001  1.7236e+001  2.4224e+000 68586 72339,72146,72120
 2.1000e+000 72270  3.4946e+001  2.5160e+001  6.9097e+000 68586 72411,72068,72198
 2.1000e+000 72247  4.1747e+001  6.1102e+001  2.4538e+001 68586 72042,72198,72068
 2.1000e+000 72224  2.8004e+001  3.0041e+000  5.2980e+000 68586 72068,72120,72094
 2.1000e+000 72365  3.9872e+001  3.9569e+001  2.1297e+001 68586 72198,72172,72339
 2.1000e+000 72388  3.4173e+001  2.5265e+001  6.5704e+000 68586 72411,72198,72339
 2.1000e+000 72437  3.6378e+001  2.5441e+001  7.3385e+000 68586 72120,72068,72411
 2.1000e+000 72460  3.5395e+001  2.5261e+001  6.8862e+000 68586 72120,72411,72339
 2.1000e+000 72864  2.3310e+000 -1.4720e+001  9.7324e-001 68388 72642,72694,72668
 2.1000e+000 72841  8.8769e-001 -2.0978e+001  4.4322e-001 68388 72616,72694,72642
 2.1000e+000 72818  3.7891e+000 -1.4919e+001  1.3357e+000 68388 72616,72720,72694
 2.1000e+000 72795 -1.5839e+000 -2.8741e+001  3.2668e+000 68388 72590,72720,72616
 2.1000e+000 72772  9.2851e+000 -1.8645e+001  1.0668e+001 68388 72590,72746,72720
 2.1000e+000 73321 -5.5678e+000 -6.0800e+000 -2.4538e+000 68048 73073,73203,73177
 2.1000e+000 73298 -9.2748e-001 -1.7886e+000  1.3522e+000 68048 73047,73203,73073
 2.1000e+000 73275 -1.0928e+001 -3.6612e+000 -1.4924e-001 68048 73125,73177,73151
 2.1000e+000 73252  1.0028e-001 -2.7356e+000 -4.4320e+000 68048 73073,73177,73125
 2.1000e+000 73229  9.4338e+000 -1.6882e+001  4.0325e-001 68048 73073,73125,73099
 2.1000e+000 73640  5.1424e+001 -3.3718e+001  9.1679e-001 67850 73444,73496,73470
 2.1000e+000 73617  1.4007e+001 -2.5070e+001  4.5458e+000 67850 73418,73496,73444
 2.1000e+000 73594  1.8017e+001 -2.1473e+001 -5.4547e+000 67850 73392,73496,73418
 2.1000e+000 73571  2.5629e+000 -4.1360e+001 -1.2169e+001 67850 73392,73522,73496
 2.1000e+000 73548 -1.4461e+001 -8.0047e+001 -9.6406e+000 67850 73366,73522,73392
 2.1000e+000 73790  2.3115e+001 -3.2482e+001 -4.5431e-001 67602 73689,73741,73715
 2.1000e+000 73767  2.7722e+001 -2.3702e+001  1.6506e+000 67602 73663,73741,73689
 2.1000e+000 74040  8.5210e+000 -2.9799e+001 -4.3131e+000 67290 73841,73945,73919
 2.1000e+000 74017  4.9981e+001 -1.8374e+001 -1.8720e+001 67290 73815,73945,73841
 2.1000e+000 73994  2.1636e+001 -8.9161e+000  1.5572e+000 67290 73841,73919,73867
 2.1000e+000 73971  1.9773e+001 -1.5777e+001  6.2476e+000 67290 73867,73919,73893
 2.1000e+000 74143 -3.7215e+000  1.7261e+001 -4.5043e+000 67092 74065,74117,74091
 2.1000e+000 74415 -6.1034e+000 -1.0569e+002 -3.8564e+001 66894 74190,74294,74216
 2.1000e+000 74392 -1.5466e+001 -1.0496e+002 -1.0753e+001 66894 74190,74320,74294
 2.1000e+000 74369  3.1182e+001 -1.6903e+001 -3.1421e+001 66894 74216,74294,74242
 2.1000e+000 74346  9.1055e+000 -6.5876e+001 -2.1931e+001 66894 74242,74294,74268
 2.1000e+000 75023  1.7554e+002  8.3175e+000 -1.8394e+001 66532 74654,74836,74810
 2.1000e+000 75000  1.3153e+000  1.1274e+001 -1.7964e+001 66532 74628,74836,74654
 2.1000e+000 74977  1.0234e+001  1.3251e+001  1.5334e+000 66532 74706,74784,74732
 2.1000e+000 74954  1.3259e+001  1.5130e+001  3.4177e+000 66532 74680,74784,74706
 2.1000e+000 74931  4.0082e+001  4.8443e+000 -1.3308e+000 66532 74680,74810,74784
 2.1000e+000 74908  2.6417e+001  6.3394e+000 -1.3175e+001 66532 74654,74810,74680
 2.1000e+000 74885 -1.5099e+001 -2.4561e+000 -2.4372e+001 66532 74602,74836,74628
 2.1000e+000 74862  2.7689e+001  1.5600e+001 -7.1744e+000 66532 74732,74784,74758
 2.1000e+000 75222  4.6786e-001 -3.2695e+001 -1.1903e+000 66242 75072,75150,75124
 2.1000e+000 75199  1.3162e-001 -3.2570e+001 -1.1149e+000 66242 75046,75150,75072
 2.1000e+000 75176  2.8029e+000 -2.5834e+001 -6.2855e-001 66242 75072,75124,75098
 2.1000e+000 75470 -1.0125e+001 -2.0501e+001 -6.1171e+000 65838 75297,75375,75349
 2.1000e+000 75447 -1.6989e+000 -4.7272e+001 -2.1251e+000 65838 75271,75375,75297
 2.1000e+000 75424  4.1292e+001 -8.2183e+000 -1.1121e+001 65838 75297,75349,75323
 2.1000e+000 75401 -3.0111e+000 -4.4593e+001  8.1471e+000 65838 75245,75375,75271
 2.1000e+000 75671  8.9093e+000  4.7716e+000 -3.3501e+001 65640 75495,75573,75521
 2.1000e+000 75648 -6.5012e+000 -1.7730e+001 -2.9556e+000 65640 75495,75599,75573
 2.1000e+000 75625  1.2707e+001  6.2466e+000 -3.2717e+001 65640 75521,75573,75547
 2.1000e+000 75872  2.8084e+000  2.0716e+001 -8.0144e-001 65300 75895,75748,75722
 2.1000e+000 75849  4.0685e-001  2.5972e+000 -1.0840e+001 65300 75895,75722,75696
 2.1000e+000 75826  4.1430e+000  5.5584e+000 -2.6728e+001 65300 75967,75774,75748
 2.1000e+000 75921  9.2522e+000  6.2638e+000 -1.2510e+001 65300 75967,75748,75895
 2.1000e+000 75944 -7.5440e+000 -1.8228e+001 -1.0369e+001 65300 75800,75895,75696
 2.1000e+000 75993 -2.0671e+001  6.4790e+000 -2.4217e+001 65300 75800,75774,75967
 2.1000e+000 76016 -1.8717e+001  1.1019e+000 -1.3278e+001 65300 75800,75967,75895
 2.1000e+000 76371  3.2875e+001  3.3782e+001 -1.5381e+000 64896 76146,76250,76172
 2.1000e+000 76348  3.1683e+001  3.0994e+001 -1.4444e+000 64896 76146,76276,76250
 2.1000e+000 76325  3.6104e+001  4.9321e+001 -3.2710e+000 64896 76172,76250,76198
 2.1000e+000 76302  1.8645e+000  3.9043e+001 -4.1075e+000 64896 76198,76250,76224
 2.1000e+000 76570  1.3875e+001  1.4991e+001  8.9813e+000 64442 76446,76498,76472
 2.1000e+000 76547  2.3210e+001  3.3238e+001  5.2522e+000 64442 76420,76498,76446
 2.1000e+000 76524  1.1976e+001  7.0496e+000  2.4117e+000 64442 76394,76498,76420
 2.1000e+000 76999  2.7197e+001  4.1480e+000  9.7470e+000 63924 77022,76728,76702
 2.1000e+000 76976  2.7593e+001  2.2838e+001 -8.9419e+000 63924 77022,76702,76832
 2.1000e+000 76953  1.2698e+001 -1.1542e+001  3.0560e+001 63924 76728,76806,76754
 2.1000e+000 76930  2.6030e+001  3.3167e+001  6.5482e+000 63924 76676,76832,76702
 2.1000e+000 76907  3.3984e+001 -5.6516e+001  2.4682e+001 63924 76754,76806,76780
 2.1000e+000 76884  2.3481e+001  4.4859e+001  6.3694e+000 63924 76676,76858,76832
 2.1000e+000 77048  3.8402e+001 -2.0749e+001  5.2114e+000 63924 76806,76728,77022
 2.1000e+000 77071  3.5190e+001 -6.5884e+000 -1.3789e+001 63924 76806,77022,76832
 2.1000e+000 77449 -1.2285e+001  5.9430e+000  7.0247e+000 63320 77472,77253,77201
 2.1000e+000 77426 -6.6208e+000  1.2622e+001  1.1891e+001 63320 77472,77201,77175
 2.1000e+000 77403  1.1287e+001 -1.0571e+000  2.2366e+001 63320 77175,77305,77279
 2.1000e+000 77380 -1.5831e+000 -4.3078e+000  1.9626e+001 63320 77201,77253,77227
 2.1000e+000 77357  1.4904e+000  1.2393e+000  6.5218e-001 63320 77175,77331,77305
 2.1000e+000 77498 -1.7889e+001  1.6410e+001  1.2596e+001 63320 77279,77253,77472
 2.1000e+000 77521 -9.9672e+000  2.0287e+001  1.8273e+001 63320 77279,77472,77175
 2.1000e+000 77769 -1.0821e+001 -3.7823e+001  9.1429e+000 62816 77570,77622,77596
 2.1000e+000 77746 -1.0261e+001 -5.3042e+001  8.7143e+000 62816 77570,77648,77622
 2.1000e+000 77723 -4.6163e+000 -4.2243e+001 -1.7655e+001 62816 77570,77674,77648
 2.1000e+000 77700 -7.8325e+000 -1.7706e+001 -2.8245e+000 62816 77544,77674,77570
 2.1000e+000 78149  7.4849e+000 -8.5172e+000 -7.5846e+000 62354 77953,78031,78005
 2.1000e+000 78126  9.1783e-001 -2.8078e+000 -9.0164e+000 62354 77901,78031,77953
 2.1000e+000 78103  1.5347e+001  4.9228e+000  9.2652e+000 62354 77875,78031,77901
 2.1000e+000 78080  9.3685e+000 -7.6851e+000 -1.7027e+001 62354 77901,77953,77927
 2.1000e+000 78057  5.3990e+000 -1.1930e+001 -5.6079e+000 62354 77953,78005,77979
 2.1000e+000 78606  1.0031e+001 -4.7083e+000  8.9687e+000 61950 78384,78436,78410
 2.1000e+000 78583  1.3397e+001 -1.3229e+001 -5.3393e+000 61950 78358,78436,78384
 2.1000e+000 78560  1.7124e+001 -1.0593e+000 -1.1343e+001 61950 78358,78488,78436
 2.1000e+000 78537  9.0703e-001 -2.6230e+001 -3.7774e+000 61950 78436,78488,78462
 2.1000e+000 78514  1.5154e+001  4.5395e+000 -8.3090e+000 61950 78332,78488,78358
 2.1000e+000 78756  4.1223e+001  3.0609e+000  7.3493e-001 61339 78779,78655,78629
 2.1000e+000 78733  2.6405e+001  1.3717e+001  5.7806e+000 61339 78779,78629,78707
 2.1000e+000 78805  2.5986e+001 -1.7280e+000  8.7281e+000 61339 78851,78779,78681
 2.1000e+000 78828  2.1442e+001  4.9973e+000  2.3702e+000 61339 78681,78779,78707
 2.1000e+000 78877  2.3616e+001 -4.4823e+000 -3.0570e+000 61339 78655,78779,78851
 2.1000e+000 79206 -1.7975e+001 -8.1762e+000 -4.2653e+000 60892 79229,79007,78981
 2.1000e+000 79183 -5.4886e+000  5.2230e+000 -2.2194e+001 60892 79229,78981,79111
 2.1000e+000 79160  3.5409e+000 -9.1348e+000 -1.2600e+001 60892 79301,79033,79007
 2.1000e+000 79137  1.6165e+000 -8.6622e-001  9.7568e-003 60892 79033,79085,79059
 2.1000e+000 79255 -8.4897e-002 -2.6023e+000 -1.7798e+001 60892 79301,79007,79229
 2.1000e+000 79278  2.4905e+001  6.8713e-001 -3.2635e+001 60892 79085,79229,79111
 2.1000e+000 79327 -1.8171e+000 -2.1693e+001 -1.2407e+001 60892 79085,79033,79301
 2.1000e+000 79350 -5.2152e+000 -1.3960e+001 -1.9297e+001 60892 79085,79301,79229
 2.1000e+000 79647 -2.0607e+001 -4.2615e+001  6.6513e+000 60488 79451,79529,79503
 2.1000e+000 79624 -1.5494e+001 -3.2035e+001  4.8084e+000 60488 79425,79529,79451
 2.1000e+000 79601 -2.6983e+001 -5.3144e+001 -4.0232e+000 60488 79373,79529,79425
 2.1000e+000 79578 -6.7577e+000 -3.1064e+001  7.3597e+000 60488 79373,79425,79399
 2.1000e+000 79555 -1.2139e+001 -9.5858e+000  1.5314e+001 60488 79451,79503,79477
 2.1000e+000 79870 -5.4231e+000 -5.7841e+001 -3.5055e-001 60026 79720,79798,79772
 2.1000e+000 79847 -1.2594e+001 -8.0369e+001 -1.1156e+001 60026 79694,79798,79720
 2.1000e+000 79824  8.9414e+000 -5.5738e+001 -1.1078e+001 60026 79720,79772,79746
 2.1000e+000 80120 -2.3658e+001 -2.8640e+001 -1.3514e+001 59629 79921,80025,79973
 2.1000e+000 80097 -4.4274e+001 -2.1428e+001 -6.0746e+000 59629 79895,80025,79921
 2.1000e+000 80074 -1.8858e+001 -2.0276e+001 -1.8268e+001 59629 79973,80025,79999
 2.1000e+000 80051 -1.5301e+001 -2.4705e+001 -1.5674e+001 59629 79921,79973,79947
 2.1000e+000 80321 -2.4626e+000 -2.8690e+001  1.0929e+001 59125 80344,80171,80145
 2.1000e+000 80298  1.4296e+000 -2.3713e+001  9.1532e+000 59125 80344,80145,80249
 2.1000e+000 80275  7.6001e+000 -1.2304e+001  3.1877e+000 59125 80197,80249,80223
 2.1000e+000 80370  2.4320e+000 -3.1579e+001  6.9299e+000 59125 80197,80171,80344
 2.1000e+000 80393  5.8770e+000 -2.7238e+001  5.3196e+000 59125 80197,80344,80249
 2.1000e+000 80952 -2.0274e+001 -4.4748e+001  2.4088e+001 58557 80975,80632,80606
 2.1000e+000 80929  1.0898e+001 -1.5512e+001  1.2052e+001 58557 81119,80975,80606
 2.1000e+000 80906  1.0896e+001 -3.3147e+001  4.8439e+000 58557 81047,80684,80632
 2.1000e+000 80883  2.9227e+001 -6.1621e+000  2.3289e+001 58557 81119,80606,80580
 2.1000e+000 80860  1.1410e+001 -2.7055e+001  1.5691e+001 58557 81191,80736,80710
 2.1000e+000 80837  2.6007e+001 -2.4272e+001 -4.6717e+000 58557 80736,80788,80762
 2.1000e+000 80814 -3.5634e+001 -2.7625e+001  2.7566e+001 58557 80632,80684,80658
 2.1000e+000 81001  1.2271e+001 -3.6536e+001  7.0458e+000 58557 81047,80632,80975
 2.1000e+000 81024  6.6621e+000 -2.3771e+001  1.1762e+001 58557 81191,80710,80975
 2.1000e+000 81073  1.1993e+001 -2.5849e+001  3.3762e+000 58557 80710,80684,81047
 2.1000e+000 81096  1.1288e+001 -3.0903e+001  6.3294e+000 58557 80710,81047,80975
 2.1000e+000 81145  2.1961e+001  3.4309e+000  2.3273e+001 58557 80788,80975,81119
 2.1000e+000 81168  2.4213e+001  3.7903e+000  3.2454e+001 58557 80788,81119,80580
 2.1000e+000 81217  1.7303e+001 -2.4586e+001  1.4512e+001 58557 80788,80736,81191
 2.1000e+000 81240  1.3330e+001 -2.0953e+001  1.1111e+001 58557 80788,81191,80975
 2.1000e+000 81537  8.0921e+000 -6.5708e+001 -2.5678e+000 57881 81560,81341,81289
 2.1000e+000 81514 -5.5091e+000 -7.2086e+001  1.3381e+001 57881 81560,81289,81263
 2.1000e+000 81491 -1.4363e+001 -5.4218e+001 -3.1012e+000 57881 81632,81419,81367
 2.1000e+000 81468 -9.8394e+000 -5.1499e+001 -2.7999e+001 57881 81367,81419,81393
 2.1000e+000 81445 -8.0655e+000 -8.8760e+001  4.8856e+000 57881 81289,81341,81315
 2.1000e+000 81586  1.2132e+001 -2.3038e+001 -2.1601e+001 57881 81367,81341,81560
 2.1000e+000 81609 -1.0896e+001 -5.9929e+001 -6.5848e+000 57881 81632,81367,81560
 2.1000e+000 81658 -5.9201e+000 -5.2564e+001  6.6158e-001 57881 81263,81419,81632
 2.1000e+000 81681  3.8166e-001 -5.6311e+001 -3.9069e+000 57881 81263,81632,81560
 2.1000e+000 81929 -1.5251e+001 -4.9080e+001 -6.0561e+000 57477 81704,81808,81782
 2.1000e+000 81906 -1.4284e+001 -6.1879e+001 -7.2649e-001 57477 81704,81834,81808
 2.1000e+000 81883 -2.1300e+001 -4.4600e+001  2.9141e+000 57477 81704,81782,81730
 2.1000e+000 81860  1.6245e+001 -4.8418e+001  1.4836e+000 57477 81730,81782,81756
 2.1000e+000 82488  3.7617e+000 -1.8841e+001 -4.9401e+000 56966 82583,82511,82194
 2.1000e+000 82465  6.2829e+000 -5.3874e+000 -3.4368e+000 56966 82511,82116,82324
 2.1000e+000 82442  5.0166e+000 -3.0403e+001 -1.8083e+000 56966 82583,82194,82168
 2.1000e+000 82419  4.0599e+000 -2.0698e+001  3.5686e+000 56966 82194,82246,82220
 2.1000e+000 82396  2.2267e+000 -2.2542e+001  5.0970e-001 56966 82194,82298,82246
 2.1000e+000 82373  3.5405e+000 -4.7633e+000  4.8460e+000 56966 82246,82298,82272
 2.1000e+000 82350  7.2686e+000 -3.1309e+001 -7.6364e+000 56966 82116,82168,82142
 2.1000e+000 82537  4.1130e+000 -9.5669e+000 -1.2952e+000 56966 82298,82194,82511
 2.1000e+000 82560  1.5466e+001  3.7630e+000  5.3762e+000 56966 82298,82511,82324
 2.1000e+000 82609  4.0407e+000 -5.9746e+000 -4.7600e+000 56966 82116,82511,82583
 2.1000e+000 82632  7.2215e+000 -1.5452e+001 -2.6707e+000 56966 82116,82583,82168
 2.1000e+000 83236 -7.9182e-002 -1.3313e+001 -2.9788e+000 56304 82893,82945,82919
 2.1000e+000 83213  2.9156e+000 -1.5578e+001  2.9749e+000 56304 83259,82945,82893
 2.1000e+000 83190  9.2761e+000 -1.2936e+001  4.0055e+000 56304 83259,82893,83049
 2.1000e+000 83167  1.3721e+001  2.3051e-001  3.7309e+000 56304 82971,83049,83023
 2.1000e+000 83144  8.2982e+000 -4.4840e+000 -3.3137e+000 56304 82815,83049,82893
 2.1000e+000 83121  1.7030e+000 -2.3586e+001 -1.9596e+000 56304 82815,82893,82867
 2.1000e+000 83098 -2.1229e+001 -1.6294e+001  2.1943e+001 56304 82971,83023,82997
 2.1000e+000 83075  5.2170e+000  6.1531e+000 -6.9634e+000 56304 82815,82867,82841
 2.1000e+000 83285 -2.9348e+000 -1.2118e+001  7.8447e+000 56304 82971,82945,83259
 2.1000e+000 83308  3.9864e+000 -9.2020e+000  8.0151e+000 56304 82971,83259,83049
 2.1000e+000 83556 -5.2718e+001 -1.1080e+002  1.4003e+000 55964 83357,83461,83435
 2.1000e+000 83533 -5.3166e+001 -7.5794e+001  1.8950e+001 55964 83331,83461,83357
 2.1000e+000 83510 -4.5028e+001 -1.1965e+002  1.1779e+001 55964 83357,83435,83383
 2.1000e+000 83487 -3.9792e+001 -1.2547e+002  9.4952e+000 55964 83383,83435,83409
 2.1000e+000 83706  4.7005e+001  2.9269e+001  4.2620e+000 55503 83579,83631,83605
 2.1000e+000 83683  5.5545e+001  2.9865e+001  2.8008e+000 55503 83579,83657,83631
 2.1000e+000 83907  1.6116e+000 -6.4073e+001  4.6825e+000 55156 83757,83835,83809
 2.1000e+000 83884  2.6153e+000 -4.9894e+001  2.5000e+001 55156 83731,83835,83757
 2.1000e+000 83861 -6.5729e+000 -5.3236e+001  6.2504e+000 55156 83757,83809,83783
 2.1000e+000 84240 -1.4470e+001 -4.9469e+001  6.3428e+000 54652 84093,84145,84119
 2.1000e+000 84217 -1.5714e+001 -4.6926e+001  7.0189e+000 54652 84041,84145,84093
 2.1000e+000 84194 -1.3960e+001 -6.8536e+001  1.8085e+001 54652 84015,84145,84041
 2.1000e+000 84171  5.1190e+000 -3.9683e+001  1.1613e+000 54652 84041,84093,84067
 2.1000e+000 84618 -3.5709e+001 -1.0634e+002  6.3272e+000 53926 84396,84500,84474
 2.1000e+000 84595 -4.6902e+001 -1.2637e+002  1.6398e+000 53926 84344,84500,84396
 2.1000e+000 84572 -3.6318e+001 -1.0401e+002 -2.2020e+000 53926 84344,84396,84370
 2.1000e+000 84549 -3.4042e+001 -1.0357e+002  8.7480e-001 53926 84396,84474,84422
 2.1000e+000 84526 -6.0688e+001 -9.2932e+001 -3.6832e+000 53926 84422,84474,84448
 2.1000e+000 85350 -3.3981e+001 -6.7064e+001  8.9498e+000 53586 85373,84880,85088
 2.1000e+000 85327 -1.8275e+001 -7.0586e+001  1.0454e+001 53586 84880,85114,85088
 2.1000e+000 85304 -3.4220e+001 -6.5974e+001  1.2354e+001 53586 85373,85088,85062
 2.1000e+000 85281 -3.7613e+001 -4.1933e+001 -4.7467e+000 53586 85010,85062,85036
 2.1000e+000 85258 -3.1653e+001 -6.4468e+001  2.2667e+000 53586 85445,85010,84958
 2.1000e+000 85235 -2.7309e+001 -5.8121e+001  1.3369e+001 53586 85445,84958,84906
 2.1000e+000 85212 -3.2575e+001 -6.2599e+001  2.4552e+000 53586 84958,85010,84984
 2.1000e+000 85189 -2.5761e+001 -8.6891e+001  1.7247e+001 53586 84906,84958,84932
 2.1000e+000 85166 -4.4617e+001 -7.4851e+001  1.0585e+001 53586 84880,85140,85114
 2.1000e+000 85399 -3.6471e+001 -6.8026e+001  1.4039e+001 53586 84906,84880,85373
 2.1000e+000 85422 -3.2735e+001 -5.9481e+001  1.3607e+001 53586 85517,85373,85062
 2.1000e+000 85471 -2.3095e+001 -4.4349e+001 -7.2879e-001 53586 85062,85010,85445
 2.1000e+000 85494 -3.1358e+001 -5.5573e+001  1.2735e+001 53586 85517,85062,85445
 2.1000e+000 85543 -2.9699e+001 -6.5955e+001  1.3752e+001 53586 84906,85373,85517
 2.1000e+000 85566 -2.9394e+001 -6.3146e+001  1.3501e+001 53586 84906,85517,85445
 2.1000e+000 86072  6.8358e+000 -2.0179e+001  2.3340e+000 53182 86095,85853,85775
 2.1000e+000 86049  9.5872e+000 -2.4168e+001  1.1853e+000 53182 86095,85775,85931
 2.1000e+000 86026 -6.2056e+000 -3.2542e+001  1.6180e+000 53182 86167,85879,85853
 2.1000e+000 86003  3.3644e+001 -2.4386e+001 -9.1686e+000 53182 85775,85827,85801
 2.1000e+000 85980 -1.4649e+001 -4.9179e+001 -1.8383e+001 53182 85775,85853,85827
 2.1000e+000 85957  3.8738e+001 -1.4778e+001  9.3771e+000 53182 85749,85931,85775
 2.1000e+000 86121  5.3647e+000 -2.6737e+001 -6.6272e-001 53182 86167,85853,86095
 2.1000e+000 86144  3.3153e+001 -2.2948e+001  6.7301e+000 53182 85905,86095,85931
 2.1000e+000 86193 -3.0564e+000 -3.4413e+001  1.1226e+001 53182 85905,85879,86167
 2.1000e+000 86216  6.3365e+000 -3.1415e+001  1.0051e+001 53182 85905,86167,86095
 2.1000e+000 86673 -5.6973e-001 -5.8736e+000 -6.3415e-001 52778 86477,86529,86503
 2.1000e+000 86650 -1.5603e+000 -1.7081e+001 -4.2900e+000 52778 86425,86529,86477
 2.1000e+000 86627  4.9778e+000 -1.4915e+001 -4.4789e+000 52778 86425,86477,86451
 2.1000e+000 86604  1.2268e+000 -3.2454e+000 -1.3286e+000 52778 86399,86529,86425
 2.1000e+000 86581  1.7853e-001 -4.4275e+000  2.6564e-002 52778 86399,86555,86529
 2.1000e+000 87258 -7.6717e+000 -4.3859e+001 -1.3435e+001 52238 87281,86987,86961
 2.1000e+000 87235 -1.3859e+000 -3.1733e+001 -2.8135e+000 52238 87281,86961,87117
 2.1000e+000 87212  6.8032e+000 -1.6376e+001  6.1871e-001 52238 86935,87117,86961
 2.1000e+000 87189  2.6769e-002 -9.6589e+000 -5.8022e-002 52238 87065,87117,87091
 2.1000e+000 87166 -7.2938e+000 -2.3107e+001 -9.2137e+000 52238 86987,87065,87039
 2.1000e+000 87143 -1.0354e+001 -2.0827e+001 -1.2017e+001 52238 86987,87039,87013
 2.1000e+000 87307  1.6939e-001 -2.4281e+001 -8.6015e+000 52238 87065,86987,87281
 2.1000e+000 87330  7.8003e-001 -2.4587e+001  1.9690e+000 52238 87065,87281,87117
 2.1000e+000 87610  2.6615e+001  2.6452e+000 -8.7793e-001 51834 87434,87512,87460
 2.1000e+000 87587  2.9417e+001 -1.9120e+000 -1.3809e+001 51834 87434,87538,87512
 2.1000e+000 87564  4.6254e+001  7.6836e+000  7.1619e+000 51834 87633,87460,87512
 2.1000e+000 87659  5.8746e+001  1.3034e+001  7.7052e+000 51834 87486,87460,87633
 2.1000e+000 88187 -2.2147e+001 -9.6320e+001  4.6169e+000 51266 87864,87942,87890
 2.1000e+000 88164 -1.6378e+001 -6.8080e+001  5.9623e+000 51266 87864,88020,87942
 2.1000e+000 88141 -4.6404e-002 -6.0393e+001  8.1485e+000 51266 87942,88020,87968
 2.1000e+000 88118 -1.6768e+001 -9.9011e+001 -2.3008e+000 51266 87864,88046,88020
 2.1000e+000 88095 -1.2495e+001 -7.1338e+001  3.0882e+000 51266 87968,88020,87994
 2.1000e+000 88072 -3.9953e+000 -9.8598e+001 -1.0920e+001 51266 87890,87942,87916
 2.1000e+000 88644  9.9342e+000 -5.3594e+000 -1.0241e+001 50754 88370,88500,88396
 2.1000e+000 88621  5.7751e+000  8.4408e+000 -1.2867e+001 50754 88370,88526,88500
 2.1000e+000 88598  7.7811e+000 -1.1633e+001 -1.7569e+001 50754 88396,88500,88422
 2.1000e+000 88575  2.5877e+000 -2.8719e+001 -1.6218e+001 50754 88422,88500,88474
 2.1000e+000 88552  2.6113e+001 -1.1793e+001 -1.2734e+000 50754 88422,88474,88448
 2.1000e+000 88914 -1.8471e+001 -1.0900e+002  4.5816e+000 50442 88715,88793,88741
 2.1000e+000 88891 -5.1338e+000 -1.0966e+002  1.7951e+000 50442 88715,88819,88793
 2.1000e+000 88868 -1.8767e+001 -1.1960e+002 -2.5341e+000 50442 88689,88819,88715
 2.1000e+000 88845 -1.1634e+001 -9.0649e+001  3.7870e+001 50442 88741,88793,88767
 2.1000e+000 89294 -2.1336e+001 -1.0807e+002  3.0353e+000 49938 89317,89046,89020
 2.1000e+000 89271 -2.1904e+001 -1.1087e+002  3.1803e+000 49938 89317,89020,89150
 2.1000e+000 89248 -2.3485e+001 -8.7621e+001  1.0047e+001 49938 89072,89150,89098
 2.1000e+000 89225 -4.0287e+000 -1.2947e+002  3.3230e+001 49938 89020,89176,89150
 2.1000e+000 89202 -2.7682e+001 -9.4029e+001  1.1511e+001 49938 89098,89150,89124
 2.1000e+000 89343 -1.6632e+001 -7.8544e+001  4.0763e+000 49938 89072,89046,89317
 2.1000e+000 89366 -2.8089e+001 -1.0748e+002  6.2246e+000 49938 89072,89317,89150
 2.1000e+000 89823 -2.4407e+001 -7.0736e+001  2.6768e+000 49384 89601,89705,89679
 2.1000e+000 89800 -3.3194e+001 -6.2712e+001 -1.1811e+001 49384 89549,89705,89601
 2.1000e+000 89777 -4.2512e+001 -9.4508e+001 -5.7949e+000 49384 89549,89601,89575
 2.1000e+000 89754 -4.7580e+001 -7.5565e+001  1.3321e-001 49384 89601,89679,89627
 2.1000e+000 89731 -5.1330e+001 -9.2340e+001 -8.0590e+000 49384 89627,89679,89653
 2.1000e+000 90329 -3.9031e+001 -7.4681e+001 -2.0788e+000 48894 90058,90110,90084
 2.1000e+000 90306 -3.8949e+001 -7.4530e+001  1.1528e+000 48894 90058,90162,90110
 2.1000e+000 90283 -4.1357e+001 -6.6737e+001  1.1789e+000 48894 90032,90162,90058
 2.1000e+000 90260 -4.0183e+001 -6.9700e+001  1.0182e+001 48894 90006,90162,90032
 2.1000e+000 90237 -4.5494e+001 -8.4151e+001  4.0147e+000 48894 90110,90162,90136
 2.1000e+000 90214 -4.8217e+001 -6.8918e+001  4.9280e+000 48894 90006,90188,90162
 2.1000e+000 90884 -4.6122e+001 -9.6436e+001  1.3409e+000 48490 90564,90642,90616
 2.1000e+000 90861 -4.9542e+001 -1.0338e+002  4.9444e+000 48490 90564,90694,90642
 2.1000e+000 90838 -1.9836e+001 -9.4950e+001  1.6041e+000 48490 90538,90694,90564
 2.1000e+000 90815 -3.3761e+001 -1.0982e+002  8.6496e+000 48490 90538,90720,90694
 2.1000e+000 90792 -4.4864e+001 -8.4607e+001  9.2464e+000 48490 90564,90616,90590
 2.1000e+000 90769 -4.1007e+001 -9.0166e+001 -4.2979e+000 48490 90642,90694,90668
 2.1000e+000 90746 -2.2270e+001 -1.0251e+002  1.4545e+001 48490 90512,90720,90538
 2.1000e+000 91034 -2.6050e+001 -7.6489e+001  5.8131e+000 48086 91057,90959,90933
 2.1000e+000 91011 -1.7304e+001 -7.4416e+001  1.6880e+001 48086 91129,91057,90933
 2.1000e+000 91083 -3.2578e+001 -8.3452e+001  9.6274e+000 48086 90985,90959,91057
 2.1000e+000 91106 -2.9080e+001 -1.0076e+002  1.1753e+001 48086 90985,91057,90907
 2.1000e+000 91155 -3.5960e+001 -8.9014e+001  8.0357e+000 48086 90907,91057,91129
 2.1000e+000 91791  1.1500e+001 -2.2275e+001  1.8443e+000 47518 92030,91814,91523
 2.1000e+000 91768 -2.0818e+000 -2.3783e+001  2.1061e+000 47518 91958,91814,91471
 2.1000e+000 91745  2.0574e+000 -4.0927e+001  1.1039e+000 47518 91886,91575,91523
 2.1000e+000 91722 -1.3104e-001 -1.1087e+001 -6.0093e+000 47518 91958,91471,91419
 2.1000e+000 91699  2.1701e+001 -3.5086e+001  9.1587e+000 47518 92030,91523,91497
 2.1000e+000 91676  1.9137e+001 -5.3500e+001  2.8255e+000 47518 91523,91575,91549
 2.1000e+000 91653 -3.1042e+000 -8.3440e+000 -5.1152e+000 47518 91419,91471,91445
 2.1000e+000 91840  5.9809e+000 -3.2491e+001  4.2021e+000 47518 91886,91523,91814
 2.1000e+000 91863  1.0286e+001 -1.2052e+001 -5.5394e+000 47518 91601,91814,91627
 2.1000e+000 91912 -2.5674e+000 -4.4598e+001 -1.1712e+001 47518 91601,91575,91886
 2.1000e+000 91935  4.2070e+000 -2.4695e+001 -9.3140e+000 47518 91601,91886,91814
 2.1000e+000 91984  7.5139e+000 -1.2788e+001 -3.0566e+000 47518 91627,91814,91958
 2.1000e+000 92007  3.4537e+000 -5.9284e+000 -9.9907e+000 47518 91627,91958,91419
 2.1000e+000 92056  1.7708e+001 -9.5955e+000  8.8047e+000 47518 91471,91814,92030
 2.1000e+000 92079  2.7369e+001 -1.7215e+001  1.6763e+001 47518 91471,92030,91497
 2.1000e+000 92229  2.3275e+001  3.8397e+000  4.7417e+000 47128 92252,92128,92102
 2.1000e+000 92206  1.7273e+001  7.5263e+000  1.1363e+001 47128 92324,92252,92102
 2.1000e+000 92278  1.8134e+001  6.8065e+000  1.0504e+001 47128 92454,92252,92154
 2.1000e+000 92301  1.5074e+001 -4.5214e-001  1.1228e+001 47128 92154,92252,92180
 2.1000e+000 92350  8.9490e-001 -7.1578e+000  5.1141e+000 47128 92180,92252,92324
 2.1000e+000 92480  1.3151e-001 -6.0370e+000  4.1898e+000 47128 92128,92252,92454
 2.1000e+000 93340 -3.2099e+001 -5.8295e+001 -8.9708e+000 46838 93363,92977,92873
 2.1000e+000 93317 -2.4668e+001 -5.5833e+001 -5.8655e+000 46838 93507,93363,92873
 2.1000e+000 93294 -2.9445e+001 -6.1509e+001 -5.9916e+000 46838 93435,93003,92977
 2.1000e+000 93271 -2.1411e+001 -5.5894e+001 -6.0857e+000 46838 93507,92873,92847
 2.1000e+000 93248 -2.8381e+001 -5.5523e+001 -4.9464e+000 46838 93579,93029,93003
 2.1000e+000 93225 -3.2676e+001 -5.7911e+001 -6.3147e+000 46838 92873,92951,92925
 2.1000e+000 93202 -3.3851e+001 -5.9258e+001 -8.1768e+000 46838 92873,92977,92951
 2.1000e+000 93179 -1.9626e+001 -4.9524e+001 -7.1426e-001 46838 93055,93107,93081
 2.1000e+000 93156 -4.0939e+000 -5.0173e+001 -4.7932e+000 46838 92821,93107,92847
 2.1000e+000 93133 -3.4923e+001 -6.1149e+001 -7.9385e+000 46838 92873,92925,92899
 2.1000e+000 93389 -2.7519e+001 -5.7819e+001 -4.2686e+000 46838 93435,92977,93363
 2.1000e+000 93412 -2.1846e+001 -5.2073e+001  2.4594e-001 46838 93055,93363,93107
 2.1000e+000 93461 -2.8536e+001 -5.6435e+001 -4.7926e+000 46838 93579,93003,93435
 2.1000e+000 93484 -2.9277e+001 -5.5730e+001 -3.8086e+000 46838 93055,93435,93363
 2.1000e+000 93533 -2.6733e+001 -5.5546e+001 -5.2836e+000 46838 93107,93363,93507
 2.1000e+000 93556 -2.5508e+001 -5.7163e+001 -5.3990e+000 46838 93107,93507,92847
 2.1000e+000 93605 -2.8649e+001 -5.5989e+001 -4.0622e+000 46838 93055,93029,93579
 2.1000e+000 93628 -2.8731e+001 -5.6789e+001 -3.9133e+000 46838 93055,93579,93435
 2.1000e+000 93979 -5.8757e+001 -1.3172e+002 -7.8170e-001 46476 93780,93884,93858
 2.1000e+000 93956 -6.1325e+001 -1.5555e+002  8.7446e-001 46476 93754,93884,93780
 2.1000e+000 93933 -2.4088e+001 -8.9555e+001 -9.1805e+000 46476 93806,93858,93832
 2.1000e+000 93910 -3.1888e+001 -1.1834e+002 -5.8957e+000 46476 93780,93858,93806
 2.1000e+000 94515  3.5235e+001 -1.4268e+001  1.5523e+000 46072 94345,94397,94371
 2.1000e+000 94492 -7.6533e+000 -3.1347e+001 -4.8316e+000 46072 94267,94397,94345
 2.1000e+000 94469 -1.1646e+001 -3.1187e+001 -2.3862e+000 46072 94241,94397,94267
 2.1000e+000 94446 -5.5417e+000 -2.0647e+001  3.5802e+000 46072 94293,94345,94319
 2.1000e+000 94423 -6.4978e-001 -3.3224e+001 -1.9286e+000 46072 94267,94345,94293
 2.1000e+000 95149 -2.3401e+001 -4.8906e+001 -4.0810e+000 45346 94803,94881,94855
 2.1000e+000 95126 -1.1529e+001 -4.8708e+001 -3.4410e+000 45346 94803,94959,94881
 2.1000e+000 95103 -5.8065e-001 -5.4661e+001 -8.5806e+000 45346 95172,94933,94907
 2.1000e+000 95080 -9.7244e+000 -6.9321e+001 -4.6024e+000 45346 95172,94907,94881
 2.1000e+000 95057 -3.3409e+001 -5.6917e+001 -6.5574e+000 45346 94803,94985,94959
 2.1000e+000 95034 -2.4211e+001 -5.3056e+001 -4.2383e+000 45346 94803,94855,94829
 2.1000e+000 95011 -3.3646e+001 -5.3514e+001  2.7214e+000 45346 94777,94985,94803
 2.1000e+000 95198 -1.0239e+001 -4.6884e+001 -7.4483e+000 45346 94959,94933,95172
 2.1000e+000 95221 -1.3384e+001 -5.3849e+001 -5.8427e+000 45346 94959,95172,94881
 2.1000e+000 95776 -8.0771e+000 -5.7248e+001 -9.4039e+000 44720 95799,95560,95534
 2.1000e+000 95753 -1.0260e+001 -4.7954e+001 -1.0501e+001 44720 95799,95534,95482
 2.1000e+000 95730 -1.0612e+001 -5.5495e+001 -1.2709e+001 44720 95943,95871,95430
 2.1000e+000 95707 -1.3062e+001 -5.0952e+001 -1.2077e+001 44720 95943,95430,95404
 2.1000e+000 95684 -1.9543e+001 -4.7758e+001 -1.1568e+001 44720 95430,95482,95456
 2.1000e+000 95661  1.2007e+001 -3.4134e+001 -8.8175e-002 44720 95482,95534,95508
 2.1000e+000 95638 -1.5200e+001 -4.7102e+001 -1.7001e+001 44720 95404,95612,95586
 2.1000e+000 95825 -1.1451e+001 -7.5088e+001 -1.6437e+001 44720 95586,95560,95799
 2.1000e+000 95848 -5.1344e+000 -5.4472e+001 -1.3865e+001 44720 95871,95586,95799
 2.1000e+000 95897 -7.2003e+000 -5.2783e+001 -1.0384e+001 44720 95482,95430,95871
 2.1000e+000 95920 -9.6825e+000 -5.8252e+001 -9.8043e+000 44720 95482,95871,95799
 2.1000e+000 95969 -5.9428e+000 -5.0265e+001 -1.4777e+001 44720 95586,95871,95943
 2.1000e+000 95992 -1.0586e+001 -4.8268e+001 -1.3331e+001 44720 95586,95943,95404
 2.1000e+000 96449 -5.9366e+000 -3.5242e+001 -4.8606e+000 44202 96544,96472,96227
 2.1000e+000 96426 -4.4050e+000 -3.3097e+001  3.9349e+000 44202 96472,96175,96331
 2.1000e+000 96403  9.3857e+000 -4.1989e+001 -3.7997e+000 44202 96544,96227,96201
 2.1000e+000 96380 -9.9362e+000 -5.7661e+001 -9.2294e+000 44202 96253,96305,96279
 2.1000e+000 96357 -1.2526e+001 -4.1615e+001 -6.0590e+000 44202 96227,96305,96253
 2.1000e+000 96498 -5.0938e+000 -2.8239e+001 -2.9839e+000 44202 96305,96227,96472
 2.1000e+000 96521 -1.1164e+000 -2.4134e+001  1.9089e+000 44202 96305,96472,96331
 2.1000e+000 96570  9.5797e+000 -2.5796e+001  3.9591e-001 44202 96175,96472,96544
 2.1000e+000 96593  2.1115e+001 -3.7104e+001 -1.0292e+000 44202 96175,96544,96201
 2.1000e+000 96971 -3.5969e+001 -7.5556e+001 -1.2619e+000 43754 96994,96749,96697
 2.1000e+000 96948 -3.4980e+001 -7.9913e+001  1.5607e+000 43754 96994,96697,96853
 2.1000e+000 96925 -4.2485e+001 -9.1815e+001  9.7278e-001 43754 96697,96749,96723
 2.1000e+000 96902 -3.7894e+001 -7.4672e+001  3.8853e+000 43754 96775,96853,96827
 2.1000e+000 96879 -4.0815e+001 -8.1683e+001  1.6520e+000 43754 96775,96827,96801
 2.1000e+000 97020 -3.3869e+001 -6.8246e+001 -3.0189e+000 43754 96775,96749,96994
 2.1000e+000 97043 -3.5191e+001 -7.5559e+001  4.7544e-002 43754 96775,96994,96853
 2.1000e+000 97291 -3.2355e+001 -6.1968e+001 -4.7450e+000 43364 97314,97144,97118
 2.1000e+000 97268 -3.7243e+001 -6.0179e+001 -3.9384e+000 43364 97314,97118,97092
 2.1000e+000 97245 -3.4791e+001 -6.0527e+001 -8.2144e+000 43364 97386,97196,97170
 2.1000e+000 97222 -3.1096e+001 -4.8567e+001 -3.8972e+000 43364 97066,97196,97092
 2.1000e+000 97340 -2.5315e+001 -6.0152e+001 -7.4204e+000 43364 97170,97144,97314
 2.1000e+000 97363 -3.4218e+001 -6.3387e+001 -6.0503e+000 43364 97386,97170,97314
 2.1000e+000 97412 -3.3375e+001 -5.7317e+001 -7.7023e+000 43364 97092,97196,97386
 2.1000e+000 97435 -3.1700e+001 -5.8040e+001 -5.2330e+000 43364 97092,97386,97314
 2.1000e+000 97788 -1.1291e+001 -3.3811e+001 -1.9233e+000 42960 97563,97667,97589
 2.1000e+000 97765  1.4088e+001 -1.8109e+001 -9.3999e+000 42960 97563,97693,97667
 2.1000e+000 97742  2.2299e+001 -1.9601e+001 -2.0910e+000 42960 97589,97641,97615
 2.1000e+000 97719  1.7359e+001 -2.4341e+001  2.4099e-001 42960 97589,97667,97641
 2.1000e+000 98215 -3.9745e+001 -6.5679e+001  7.8671e-001 42563 97918,98074,98048
 2.1000e+000 98192 -4.1524e+001 -7.7027e+001 -7.0124e+000 42563 97892,98074,97918
 2.1000e+000 98169 -5.1030e+001 -9.2199e+001  5.5264e+000 42563 98238,97944,97918
 2.1000e+000 98146 -4.2085e+001 -7.1487e+001  2.7879e+000 42563 98238,97918,98048
 2.1000e+000 98123 -4.8393e+001 -6.5961e+001 -3.5091e+000 42563 97944,98022,97996
 2.1000e+000 98100 -5.3083e+001 -8.1027e+001 -1.0128e+001 42563 97944,97996,97970
 2.1000e+000 98264 -4.7221e+001 -7.8951e+001 -4.8301e+000 42563 98022,97944,98238
 2.1000e+000 98287 -4.4611e+001 -7.1627e+001 -7.6053e+000 42563 98022,98238,98048
 2.1000e+000 98616 -4.2701e+000 -3.9276e+001 -9.2344e-002 42251 98443,98521,98469
 2.1000e+000 98593 -2.8997e+000 -4.0988e+001 -1.1880e+000 42251 98417,98521,98443
 2.1000e+000 98570 -3.4483e+000 -4.1757e+001  2.4823e+000 42251 98391,98521,98417
 2.1000e+000 98547  7.7681e+000 -2.9518e+001 -8.4271e+000 42251 98469,98521,98495
 2.1000e+000 98886 -7.2841e+001 -1.2252e+002  2.2360e-001 41847 98661,98765,98687
 2.1000e+000 98863 -7.5096e+001 -1.5553e+002  2.1262e+001 41847 98661,98791,98765
 2.1000e+000 98840 -8.0404e+001 -1.0021e+002 -2.7654e+000 41847 98687,98765,98739
 2.1000e+000 98817 -6.0177e+001 -8.7490e+001 -9.9485e+000 41847 98687,98739,98713
 2.1000e+000 99394 -5.9487e+000 -4.3901e+001 -1.2830e+001 41236 99417,99149,99123
 2.1000e+000 99371  5.5169e+000 -3.4605e+001 -7.8535e+000 41236 99417,99123,99097
 2.1000e+000 99348 -9.4676e-001 -3.3360e+001 -6.4543e+000 41236 99489,99201,99149
 2.1000e+000 99325  1.9708e+001 -2.5029e+001 -6.0929e+000 41236 99149,99201,99175
 2.1000e+000 99302  2.5737e+001 -3.0408e+001 -2.8857e-002 41236 99097,99253,99227
 2.1000e+000 99279  2.5554e+001 -3.8467e+001 -4.9531e+000 41236 99071,99253,99097
 2.1000e+000 99443  1.0767e+000 -3.4081e+001 -6.1627e+000 41236 99489,99149,99417
 2.1000e+000 99466  1.8679e+000 -3.0337e+001 -2.7634e+000 41236 99227,99417,99097
 2.1000e+000 99515 -2.1272e+000 -3.3984e+001 -6.2138e+000 41236 99227,99201,99489
 2.1000e+000 99538 -1.2041e+000 -3.5491e+001 -5.5604e+000 41236 99227,99489,99417
 2.1000e+000 100044  1.4296e+001 -3.7002e+001 -7.0336e+000 40732 99721,99773,99747
 2.1000e+000 100021 -4.9819e+000 -7.6803e+001 -1.5334e+001 40732 99721,99799,99773
 2.1000e+000 99998 -1.0822e+001 -5.9164e+001 -1.1914e+001 40732 99721,99903,99799
 2.1000e+000 99975 -1.3625e+001 -4.2587e+001 -5.1535e+000 40732 100067,99877,99851
 2.1000e+000 99952 -8.1606e+000 -4.6474e+001 -8.7362e+000 40732 100067,99851,99799
 2.1000e+000 99929 -7.4927e+000 -4.6126e+001 -8.9276e+000 40732 99799,99851,99825
 2.1000e+000 100093 -9.0713e+000 -4.1682e+001 -4.7377e+000 40732 99903,99877,100067
 2.1000e+000 100116 -2.3931e+000 -4.4702e+001 -8.4281e+000 40732 99903,100067,99799
 2.1000e+000 100622 -2.7470e+001 -6.2323e+001 -2.5992e+000 40278 100645,100455,100429
 2.1000e+000 100599 -3.3114e+001 -6.2587e+001 -2.2283e+000 40278 100717,100645,100429
 2.1000e+000 100576 -3.2390e+001 -6.2273e+001 -6.2929e-001 40278 100717,100429,100377
 2.1000e+000 100553 -3.8716e+001 -6.2021e+001 -3.8058e+000 40278 100789,100325,100481
 2.1000e+000 100530 -4.2114e+001 -5.9397e+001 -3.0853e+000 40278 100299,100481,100325
 2.1000e+000 100507 -2.8410e+001 -6.6019e+001 -2.5345e+000 40278 100377,100429,100403
 2.1000e+000 100671 -3.1826e+001 -5.8501e+001 -1.7649e+000 40278 100481,100455,100645
 2.1000e+000 100694 -3.4166e+001 -6.1687e+001 -2.9917e-001 40278 100789,100481,100645
 2.1000e+000 100743 -3.2019e+001 -6.0387e+001 -1.5239e+000 40278 100351,100645,100717
 2.1000e+000 100766 -3.0991e+001 -6.0247e+001  1.5706e-001 40278 100351,100717,100377
 2.1000e+000 100815 -4.5228e+001 -6.4687e+001 -6.9686e+000 40278 100351,100325,100789
 2.1000e+000 100838 -4.0941e+001 -6.2679e+001 -2.7312e+000 40278 100351,100789,100645
 2.1000e+000 101265 -5.7822e+000 -4.2581e+001 -1.4766e+000 39824 101288,101046,100994
 2.1000e+000 101242 -1.6305e+000 -4.3638e+001  9.7853e-001 39824 101288,100994,100968
 2.1000e+000 101219 -1.0648e+001 -4.3396e+001  2.0359e+000 39824 100942,101124,100968
 2.1000e+000 101196 -1.0543e+001 -6.3489e+001 -5.9101e+000 39824 101046,101124,101072
 2.1000e+000 101173 -1.2149e+001 -4.3444e+001  1.5378e+000 39824 100994,101046,101020
 2.1000e+000 101150  1.0158e+001 -6.2777e+001 -5.7232e+000 39824 101072,101124,101098
 2.1000e+000 101314 -8.4626e+000 -4.3466e+001 -1.2932e+000 39824 101124,101046,101288
 2.1000e+000 101337 -5.8221e+000 -4.5390e+001  9.8403e-001 39824 101124,101288,100968
 2.1000e+000 101585 -4.6123e+001 -9.5347e+001  5.6582e+000 39070 101608,101464,101412
 2.1000e+000 101562 -4.3868e+001 -9.5965e+001  7.4153e+000 39070 101608,101412,101360
 2.1000e+000 101539 -3.0240e+001 -1.0966e+002 -1.1042e+001 39070 101412,101464,101438
 2.1000e+000 101516 -3.9955e+001 -8.0429e+001  6.5381e+000 39070 101360,101412,101386
 2.1000e+000 101634 -4.7649e+001 -9.5713e+001  5.3401e+000 39070 101490,101464,101608
 2.1000e+000 101657 -4.6104e+001 -9.6577e+001  7.3072e+000 39070 101490,101608,101360
 2.1000e+000 101856 -7.1485e+001 -1.0137e+002 -4.1686e+000 38730 101706,101758,101732
 2.1000e+000 101833 -7.5682e+001 -1.0878e+002 -1.2956e+000 38730 101706,101784,101758
 2.1000e+000 101810 -7.6867e+001 -1.0915e+002 -1.1958e+000 38730 101680,101784,101706
 2.1000e+000 102106 -8.6210e+000 -5.1142e+001 -7.9098e+000 38326 101881,101959,101907
 2.1000e+000 102083 -8.9847e+000 -5.2108e+001 -7.9175e+000 38326 101881,101985,101959
 2.1000e+000 102060 -1.4131e+001 -6.6659e+001 -1.7182e-001 38326 101881,102011,101985
 2.1000e+000 102037 -1.0289e+001 -5.3793e+001 -6.5534e+000 38326 101907,101959,101933
 2.1000e+000 102258 -4.0232e+001 -8.1796e+001 -2.0893e+000 38036 102281,102157,102131
 2.1000e+000 102235 -3.9085e+001 -8.2362e+001 -1.7544e+000 38036 102281,102131,102209
 2.1000e+000 102307 -3.9291e+001 -8.1535e+001 -1.8450e+000 38036 102183,102157,102281
 2.1000e+000 102330 -3.7640e+001 -8.1572e+001 -1.3225e+000 38036 102183,102281,102209
 2.1000e+000 102663  9.0202e-001 -3.2599e+001 -5.0829e+000 37596 102438,102542,102464
 2.1000e+000 102640  1.1525e+001 -2.1682e+001  9.2125e+000 37596 102438,102568,102542
 2.1000e+000 102617  2.8474e+000 -3.4538e+001 -1.0377e+001 37596 102490,102542,102516
 2.1000e+000 102594 -1.5534e+000 -3.5796e+001 -6.1519e+000 37596 102464,102542,102490
 2.1000e+000 102862 -1.0117e+001 -5.3466e+001 -5.0270e+000 37192 102686,102764,102712
 2.1000e+000 102839 -7.8193e+000 -5.1980e+001 -7.5760e+000 37192 102686,102790,102764
 2.1000e+000 102816 -1.3456e+001 -5.3766e+001 -4.9696e+000 37192 102712,102764,102738
 2.1000e+000 103110 -3.1716e+000 -3.3836e+001 -1.6060e+001 36609 102911,102963,102937
 2.1000e+000 103087 -1.6004e+001 -5.0813e+001 -4.1330e+000 36609 102911,102989,102963
 2.1000e+000 103064 -1.1919e+001 -4.8424e+001 -3.1329e+000 36609 102885,102989,102911
 2.1000e+000 103041  4.6360e-001 -4.2781e+001 -5.1709e+000 36609 102885,103015,102989
 2.1000e+000 103718 -4.0479e+000 -7.8780e+001 -9.7331e+000 36131 103323,103375,103349
 2.1000e+000 103695 -1.7416e+001 -6.3274e+001 -1.3800e+001 36131 103297,103375,103323
 2.1000e+000 103672 -1.0482e+001 -4.0976e+001 -7.7253e+000 36131 103297,103505,103375
 2.1000e+000 103649 -1.0827e+001 -6.1352e+001 -5.9682e+000 36131 103741,103479,103401
 2.1000e+000 103626 -3.9028e+000 -4.5463e+001  2.9902e+000 36131 103741,103401,103375
 2.1000e+000 103603 -1.3152e+001 -9.0397e+001 -8.1657e+000 36131 103401,103479,103427
 2.1000e+000 103580 -6.8404e+000 -3.6921e+001 -1.0385e+001 36131 103297,103531,103505
 2.1000e+000 103557  4.6128e+000 -5.9774e+001 -2.2664e+001 36131 103427,103479,103453
 2.1000e+000 103767 -1.7099e+001 -7.5144e+001 -1.7614e+001 36131 103505,103479,103741
 2.1000e+000 103790 -9.3246e+000 -6.0250e+001 -8.2940e+000 36131 103505,103741,103375
 2.1000e+000 103989 -1.0835e+001 -4.9319e+001 -1.0021e+000 35791 103839,103917,103891
 2.1000e+000 103966 -1.2970e+001 -4.7144e+001 -9.2101e-001 35791 103813,103917,103839
 2.1000e+000 103943  2.5618e+001 -2.9303e+001 -8.8694e+000 35791 103839,103891,103865
 2.1000e+000 104188 -5.5668e+001 -8.1082e+001 -3.6272e+000 35444 104038,104090,104064
 2.1000e+000 104165 -5.5508e+001 -8.1090e+001 -3.7307e+000 35444 104038,104116,104090
 2.1000e+000 104142 -4.8894e+001 -8.3127e+001 -2.1784e+000 35444 104012,104116,104038
 2.1000e+000 104487 -2.9202e+001 -6.4633e+001 -1.8056e+000 34990 104265,104317,104291
 2.1000e+000 104464 -3.0604e+001 -6.4073e+001 -2.3340e+000 34990 104510,104317,104265
 2.1000e+000 104441 -3.7248e+001 -6.1190e+001 -1.9888e+000 34990 104510,104265,104213
 2.1000e+000 104418 -2.8215e+001 -6.2664e+001 -4.5137e+000 34990 104582,104343,104317
 2.1000e+000 104395 -4.1157e+001 -7.0538e+001 -2.7739e+000 34990 104213,104265,104239
 2.1000e+000 104536 -2.8192e+001 -6.2772e+001 -3.6332e+000 34990 104582,104317,104510
 2.1000e+000 104559 -3.2778e+001 -5.7827e+001 -3.6048e+000 34990 104369,104510,104213
 2.1000e+000 104608 -3.0390e+001 -6.4192e+001 -5.1709e+000 34990 104369,104343,104582
 2.1000e+000 104631 -2.9309e+001 -6.3255e+001 -3.8747e+000 34990 104369,104582,104510
 2.1000e+000 104783 -4.2155e+001 -6.4168e+001 -5.0564e+000 34700 104938,104806,104682
 2.1000e+000 104760 -4.3080e+001 -6.9098e+001 -3.9475e+000 34700 104938,104682,104656
 2.1000e+000 104832 -4.5991e+001 -6.8817e+001 -6.7969e+000 34700 104708,104682,104806
 2.1000e+000 104964 -4.4041e+001 -6.3351e+001 -1.0948e+000 34700 104734,104806,104938
 2.1000e+000 104987 -4.4644e+001 -6.7276e+001  5.4139e-002 34700 104734,104938,104656
 2.1000e+000 105137 -7.1713e+001 -7.2007e+001 -3.7832e+000 34388 105036,105088,105062
 2.1000e+000 105114 -6.6566e+001 -7.7242e+001 -3.4989e+000 34388 105010,105088,105036
 2.1000e+000 105385 -1.4891e+001 -5.1340e+001 -5.9823e+000 33734 105408,105186,105160
 2.1000e+000 105362 -1.4546e+001 -5.3278e+001 -6.6564e+000 33734 105408,105160,105264
 2.1000e+000 105339 -1.1229e+001 -6.0399e+001 -4.2498e+000 33734 105160,105290,105264
 2.1000e+000 105316 -1.8221e+001 -4.8003e+001 -9.4791e+000 33734 105186,105238,105212
 2.1000e+000 105434 -1.4699e+001 -4.9072e+001 -4.3572e+000 33734 105238,105186,105408
 2.1000e+000 105457 -1.4732e+001 -5.3101e+001 -4.2566e+000 33734 105238,105408,105264
 2.1000e+000 105609 -4.5957e+001 -8.0123e+001 -1.7096e+000 33394 105482,105534,105508
 2.1000e+000 105586 -4.6665e+001 -7.7701e+001 -3.8005e+000 33394 105482,105560,105534
 2.1000e+000 105859 -4.2923e+001 -7.4276e+001 -1.3957e+000 33047 105882,105712,105660
 2.1000e+000 105836 -3.9443e+001 -7.1760e+001  2.7095e-001 33047 105882,105660,105634
 2.1000e+000 105813 -5.4218e+001 -8.1138e+001  1.8221e+000 33047 105660,105712,105686
 2.1000e+000 105790 -2.8544e+001 -7.0516e+001  3.7315e+000 33047 105634,105764,105738
 2.1000e+000 105908 -5.1559e+001 -7.0735e+001  9.8980e-001 33047 105738,105712,105882
 2.1000e+000 105931 -4.2869e+001 -6.7071e+001  3.4850e+000 33047 105738,105882,105634
 2.1000e+000 106181  4.0552e-001 -4.7366e+001 -7.5511e-001 32543 106204,106060,106008
 2.1000e+000 106158  1.1336e+001 -6.2456e+001 -3.7296e+000 32543 105956,106086,106060
 2.1000e+000 106135  7.4460e+000 -3.0054e+001 -3.0156e-001 32543 106204,106008,105982
 2.1000e+000 106112  1.1325e+000 -3.6307e+001  1.0046e+000 32543 106008,106060,106034
 2.1000e+000 106230  4.9236e+000 -5.4216e+001 -1.1911e+001 32543 105956,106060,106204
 2.1000e+000 106253  1.0873e+001 -3.8294e+001 -1.2200e+001 32543 105956,106204,105982
 2.1000e+000 106454 -4.5978e+001 -6.5570e+001  4.1804e-001 31839 106304,106356,106330
 2.1000e+000 106431 -4.6591e+001 -6.7822e+001 -4.1877e+000 31839 106278,106356,106304
 2.1000e+000 106408 -4.6213e+001 -7.3473e+001 -2.8210e+000 31839 106278,106382,106356
 2.1000e+000 106704 -1.2641e-001 -4.7750e+001 -5.7091e+000 31534 106505,106583,106557
 2.1000e+000 106681 -1.2465e+001 -5.1072e+001 -4.4343e+000 31534 106479,106583,106505
 2.1000e+000 106658 -5.8506e+000 -4.9344e+001 -4.6882e+000 31534 106505,106557,106531
 2.1000e+000 106635 -1.2732e+001 -5.1334e+001 -4.2974e+000 31534 106479,106609,106583
 2.1000e+000 107108 -2.6590e+001 -6.9968e+001 -3.0396e+000 31030 106886,106990,106964
 2.1000e+000 107085 -4.7818e+001 -9.8027e+001 -1.2451e+001 31030 106860,106990,106886
 2.1000e+000 107062  1.7782e+001 -7.4848e+001 -1.5452e+001 31030 106834,106990,106860
 2.1000e+000 107039 -3.2269e+001 -8.9771e+001  8.8661e+000 31030 106912,106964,106938
 2.1000e+000 107016 -3.4728e+001 -7.2879e+001 -1.6061e+000 31030 106886,106964,106912
 2.1000e+000 107307 -6.0505e+001 -8.0658e+001 -2.8806e+000 30718 107330,107157,107131
 2.1000e+000 107284 -5.9620e+001 -9.6675e+001 -1.3537e+000 30718 107330,107131,107235
 2.1000e+000 107261 -6.9288e+001 -7.5716e+001 -2.1641e+001 30718 107183,107235,107209
 2.1000e+000 107356 -6.2910e+001 -6.1000e+001 -1.3571e+000 30718 107183,107157,107330
 2.1000e+000 107379 -6.4689e+001 -8.0523e+001  1.6494e-001 30718 107183,107330,107235
 2.1000e+000 107759 -5.6608e+001 -8.4630e+001  1.1460e+001 30264 107782,107615,107537
 2.1000e+000 107736 -5.0358e+001 -6.9837e+001  6.1340e+000 30264 107782,107537,107485
 2.1000e+000 107713 -4.6997e+001 -6.7438e+001  4.9852e+000 30264 107485,107537,107511
 2.1000e+000 107690 -6.2847e+001 -9.9181e+001  5.8982e+000 30264 107537,107615,107589
 2.1000e+000 107667 -6.3093e+001 -1.0291e+002  3.4577e+000 30264 107537,107589,107563
 2.1000e+000 107808 -5.3463e+001 -7.9095e+001  7.6796e-001 30264 107641,107615,107782
 2.1000e+000 107831 -4.9202e+001 -6.3842e+001 -3.7287e+000 30264 107641,107782,107485
 2.1000e+000 108030 -1.4041e+001 -6.4261e+001 -1.0342e+001 29874 108053,107854,107932
 2.1000e+000 108007 -2.2216e+001 -5.3769e+001 -1.8673e+001 29874 107854,107958,107932
 2.1000e+000 107984  9.8975e+000 -5.8511e+001 -1.1742e+001 29874 108053,107932,107906
 2.1000e+000 108079 -2.4447e+001 -5.7924e+001 -3.3914e+000 29874 107880,107854,108053
 2.1000e+000 108102 -1.1864e+001 -6.0006e+001 -5.2776e+000 29874 107880,108053,107906
 2.1000e+000 108433 -2.9994e+001 -6.2114e+001 -4.4649e+000 29484 108234,108338,108312
 2.1000e+000 108410 -2.1681e+001 -6.1463e+001 -8.9680e+000 29484 108208,108338,108234
 2.1000e+000 108387 -3.2185e+001 -5.8949e+001 -7.1128e+000 29484 108234,108312,108260
 2.1000e+000 108364 -2.4654e+001 -5.9834e+001 -6.0107e+000 29484 108260,108312,108286
 2.1000e+000 108762 -1.5142e+001 -6.7622e+001  1.2902e+000 29080 108563,108641,108589
 2.1000e+000 108739 -8.0833e+000 -4.4450e+001 -5.5426e-001 29080 108537,108641,108563
 2.1000e+000 108716 -6.5652e+000 -6.6087e+001 -4.3666e+000 29080 108589,108641,108615
 2.1000e+000 108693  3.8040e+000 -3.6253e+001  1.0839e+001 29080 108537,108667,108641
 2.1000e+000 109189 -2.7911e+001 -5.5928e+001 -5.6113e+000 28476 108892,108996,108970
 2.1000e+000 109166 -2.6929e+001 -5.9304e+001 -4.4215e+000 28476 108892,109022,108996
 2.1000e+000 109143 -3.4052e+001 -5.7016e+001 -2.4088e+000 28476 108892,108970,108944
 2.1000e+000 109120 -2.9056e+001 -5.9988e+001 -4.5620e+000 28476 108892,109048,109022
 2.1000e+000 109097 -3.0613e+001 -5.6508e+001  2.4881e+000 28476 108892,108944,108918
 2.1000e+000 109074 -2.9743e+001 -5.4807e+001 -5.6190e+000 28476 108866,109048,108892
 2.1000e+000 109518 -1.6089e+001 -5.9802e+001  5.6160e+000 28022 109541,109371,109345
 2.1000e+000 109495 -2.2222e+001 -5.6310e+001 -2.0793e+000 28022 109541,109345,109319
 2.1000e+000 109472  3.4633e+000 -5.3172e+001 -4.9791e-001 28022 109293,109397,109319
 2.1000e+000 109449  3.1035e+001 -3.7833e+001 -7.2489e+000 28022 109293,109423,109397
 2.1000e+000 109567  8.9303e+000 -5.0532e+001  1.0714e+001 28022 109397,109371,109541
 2.1000e+000 109590 -1.4120e+001 -5.8990e+001  2.0870e+000 28022 109397,109541,109319
 2.1000e+000 109968 -4.3122e+001 -6.9860e+001  4.6726e+000 27568 109798,109850,109824
 2.1000e+000 109945 -5.0773e+001 -7.6456e+001 -5.8842e-001 27568 109694,109850,109798
 2.1000e+000 109922 -4.0971e+001 -7.4086e+001 -2.4648e+000 27568 109694,109798,109746
 2.1000e+000 109899 -5.0632e+001 -7.8941e+001 -6.5342e+000 27568 109746,109798,109772
 2.1000e+000 109876 -5.1017e+001 -1.0017e+002 -1.1341e+000 27568 109694,109746,109720
 2.1000e+000 110167 -1.8820e+001 -6.2146e+001 -5.0038e+000 27007 110017,110095,110069
 2.1000e+000 110144 -1.6517e+001 -5.7024e+001 -4.2790e+000 27007 109991,110095,110017
 2.1000e+000 110121 -7.1478e+000 -5.6575e+001 -3.3709e+000 27007 110017,110069,110043
 2.1000e+000 110415 -8.8967e+000 -5.2313e+001 -1.9806e+000 26567 110438,110242,110190
 2.1000e+000 110392 -2.2033e+000 -6.1579e+001  1.2359e+000 26567 110438,110190,110320
 2.1000e+000 110369 -2.2393e+001 -4.6338e+001  3.9812e+000 26567 110242,110294,110268
 2.1000e+000 110346 -1.4355e+001 -6.2164e+001  3.5455e+000 26567 110190,110242,110216
 2.1000e+000 110464 -5.4272e+000 -5.0787e+001  2.4007e-001 26567 110294,110242,110438
 2.1000e+000 110487  3.3294e+000 -5.3114e+001  5.3561e+000 26567 110294,110438,110320
 2.1000e+000 110639 -3.1848e+001 -6.0730e+001 -4.8215e+000 26170 110538,110590,110564
 2.1000e+000 110616 -3.3881e+001 -4.9959e+001 -7.1315e+000 26170 110512,110590,110538
 2.1000e+000 111149 -9.5275e+001 -1.0297e+002  2.7451e+000 25716 111172,110878,110852
 2.1000e+000 111126 -7.5965e+001 -1.0971e+002  6.4351e+000 25716 111172,110852,111008
 2.1000e+000 111103 -8.8854e+001 -9.9569e+001  1.2614e+001 25716 110878,110930,110904
 2.1000e+000 111080 -8.4648e+001 -1.1414e+002  4.9103e+000 25716 110826,111008,110852
 2.1000e+000 111057 -5.1245e+001 -8.8327e+001  1.2274e+001 25716 110930,111008,110956
 2.1000e+000 111034 -6.0592e+001 -9.3752e+001  1.3943e+001 25716 110956,111008,110982
 2.1000e+000 111198 -8.2083e+001 -1.0280e+002  7.8737e+000 25716 110930,110878,111172
 2.1000e+000 111221 -5.8522e+001 -1.0553e+002  1.2454e+001 25716 110930,111172,111008
 2.1000e+000 111420 -6.6995e+001 -9.8818e+001  1.3630e+000 25304 111443,111270,111244
 2.1000e+000 111397 -5.5968e+001 -1.2327e+002  4.9833e-001 25304 111443,111244,111348
 2.1000e+000 111374 -6.9415e+001 -9.1274e+001  1.6204e+000 25304 111270,111322,111296
 2.1000e+000 111469 -6.0296e+001 -8.5985e+001  4.4260e+000 25304 111322,111270,111443
 2.1000e+000 111492 -4.3754e+001 -1.0414e+002  6.0089e+000 25304 111322,111443,111348
 2.1000e+000 111691  1.1462e+001 -3.4947e+001  9.5417e+000 24736 111567,111619,111593
 2.1000e+000 111668  7.9263e+000 -3.5669e+001  5.4560e+000 24736 111541,111619,111567
 2.1000e+000 111645  6.1746e+000 -3.5577e+001  5.7013e+000 24736 111515,111619,111541
 2.1000e+000 112024 -4.9330e+001 -5.8751e+001 -9.1695e+000 24146 111825,111877,111851
 2.1000e+000 112001 -4.3111e+001 -6.4660e+001 -1.3964e+000 24146 111825,111903,111877
 2.1000e+000 111978 -3.6649e+001 -8.0256e+001 -4.5508e+000 24146 111825,111929,111903
 2.1000e+000 111955 -3.9808e+001 -7.8119e+001 -2.5327e+000 24146 111799,111929,111825
 2.1000e+000 112370 -8.5552e+000 -5.6461e+001 -2.3155e+000 23856 112393,112151,112125
 2.1000e+000 112347 -9.1283e+000 -5.7705e+001 -2.4806e+000 23856 112465,112393,112125
 2.1000e+000 112324 -1.0999e+001 -5.8792e+001 -2.8289e-001 23856 112465,112125,112073
 2.1000e+000 112301 -1.2120e+001 -5.6524e+001 -3.2686e-001 23856 112073,112125,112099
 2.1000e+000 112278 -2.5097e+001 -7.9374e+001 -9.2627e-001 23856 112047,112229,112073
 2.1000e+000 112255  1.5524e+000 -5.1579e+001 -1.2890e+001 23856 112151,112203,112177
 2.1000e+000 112419 -1.0126e+001 -5.7455e+001 -1.8066e+000 23856 112203,112151,112393
 2.1000e+000 112442 -1.0053e+001 -5.3048e+001 -5.6425e-001 23856 112203,112393,112229
 2.1000e+000 112491 -1.2828e+001 -5.8065e+001  8.9830e-001 23856 112229,112393,112465
 2.1000e+000 112514 -1.5235e+001 -6.1286e+001  3.4090e+000 23856 112229,112465,112073
 2.1000e+000 112784 -7.0439e+000 -5.7932e+001  4.2302e-001 23494 112611,112663,112637
 2.1000e+000 112761 -6.7239e-001 -4.5017e+001  3.5204e+000 23494 112585,112663,112611
 2.1000e+000 112738 -1.1595e+001 -4.9705e+001  2.8064e+000 23494 112559,112663,112585
 2.1000e+000 112715  8.6571e-001 -2.0918e+001  5.7793e-001 23494 112559,112689,112663
 2.1000e+000 113117 -5.0370e+001 -6.2646e+001 -3.5294e+000 22974 112944,113022,112996
 2.1000e+000 113094 -5.3372e+001 -7.2617e+001  5.6979e-001 22974 112918,113022,112944
 2.1000e+000 113071 -5.3362e+001 -7.3620e+001 -7.1800e+000 22974 112944,112996,112970
 2.1000e+000 113048 -5.4634e+001 -6.7604e+001 -5.4608e+000 22974 112892,113022,112918
 2.1000e+000 113414 -3.5710e+001 -6.5143e+001 -2.3506e+000 22370 113192,113296,113218
 2.1000e+000 113391 -4.1962e+001 -6.1098e+001 -2.8353e+000 22370 113140,113296,113192
 2.1000e+000 113368 -3.7529e+001 -6.9247e+001 -1.7554e+000 22370 113218,113296,113270
 2.1000e+000 113345 -3.8711e+001 -7.1372e+001 -2.1758e+000 22370 113218,113270,113244
 2.1000e+000 113322 -3.8058e+001 -5.7951e+001 -9.2186e+000 22370 113140,113192,113166
 2.1000e+000 113662 -1.9506e+001 -5.5937e+001 -1.4118e+000 21916 113685,113515,113489
 2.1000e+000 113639 -2.2663e+001 -5.9889e+001 -2.8008e+000 21916 113685,113489,113437
 2.1000e+000 113616 -9.2327e+000 -5.9337e+001 -1.4355e+000 21916 113757,113567,113541
 2.1000e+000 113593 -2.2468e+001 -5.9516e+001 -2.5382e+000 21916 113437,113489,113463
 2.1000e+000 113711 -2.1531e+001 -6.2077e+001 -5.7115e-001 21916 113541,113515,113685
 2.1000e+000 113734 -1.6979e+001 -6.0397e+001 -1.4770e+000 21916 113757,113541,113685
 2.1000e+000 113783 -1.8853e+001 -6.1771e+001 -2.5950e+000 21916 113437,113567,113757
 2.1000e+000 113806 -2.1492e+001 -5.9660e+001 -3.4778e+000 21916 113437,113757,113685
 2.1000e+000 114056 -3.1406e+001 -5.5098e+001 -4.6354e-001 21412 113857,113909,113883
 2.1000e+000 114033 -3.0886e+001 -5.9428e+001 -2.0619e+000 21412 114079,113909,113857
 2.1000e+000 114010 -2.7795e+001 -5.8551e+001 -1.5794e+000 21412 114079,113857,113961
 2.1000e+000 113987 -3.0786e+001 -5.9285e+001 -1.8964e+000 21412 113831,113961,113857
 2.1000e+000 114105 -2.8439e+001 -5.9339e+001 -7.4238e-001 21412 113935,113909,114079
 2.1000e+000 114128 -2.6397e+001 -5.9325e+001 -3.8432e-001 21412 113935,114079,113961
 2.1000e+000 114378 -1.7427e+001 -5.1779e+001 -1.3870e+001 21022 114401,114257,114205
 2.1000e+000 114355 -1.8935e+001 -6.1305e+001 -1.0218e+001 21022 114401,114205,114179
 2.1000e+000 114332 -1.2830e+001 -6.0340e+001 -1.6239e+000 21022 114153,114283,114179
 2.1000e+000 114309 -1.7591e+001 -3.2872e+001 -6.0704e+000 21022 114205,114257,114231
 2.1000e+000 114427 -2.0456e+001 -5.6560e+001 -6.8148e+000 21022 114283,114257,114401
 2.1000e+000 114450 -2.0127e+001 -6.4790e+001 -3.5207e+000 21022 114283,114401,114179
 2.1000e+000 114651 -6.4104e+001 -7.0495e+001 -5.9198e+000 20618 114501,114553,114527
 2.1000e+000 114628 -4.6657e+001 -7.0045e+001  3.8854e+000 20618 114501,114579,114553
 2.1000e+000 114605 -5.9729e+001 -6.7069e+001  3.4502e+000 20618 114475,114579,114501
 2.1000e+000 114901 -5.6447e+001 -6.2017e+001 -1.8613e+000 20114 114676,114780,114702
 2.1000e+000 114878 -4.3672e+001 -5.4646e+001 -5.2849e+000 20114 114676,114806,114780
 2.1000e+000 114855 -4.5628e+001 -6.6712e+001 -3.1368e+000 20114 114702,114780,114754
 2.1000e+000 114832 -6.9538e+001 -6.5074e+001 -1.2248e+001 20114 114702,114754,114728
 2.1000e+000 115053 -4.0855e+001 -6.3313e+001 -1.3086e+000 19460 115147,115076,114926
 2.1000e+000 115030 -3.8937e+001 -6.3459e+001 -1.4181e+000 19460 115147,114926,115004
 2.1000e+000 115102 -4.3511e+001 -6.4270e+001  7.5394e-001 19460 114952,114926,115076
 2.1000e+000 115173 -3.7869e+001 -6.5179e+001  9.0710e-002 19460 114978,115076,115147
 2.1000e+000 115196 -3.4620e+001 -6.4369e+001 -4.2853e-001 19460 114978,115147,115004
 2.1000e+000 115446 -7.4309e+001 -7.4003e+001  2.9341e+000 19006 115273,115351,115299
 2.1000e+000 115423 -7.0330e+001 -7.7840e+001  1.1706e+000 19006 115247,115351,115273
 2.1000e+000 115400 -6.9062e+001 -7.4856e+001  1.9418e+001 19006 115221,115351,115247
 2.1000e+000 115377 -6.5883e+001 -6.7836e+001 -3.0277e+000 19006 115299,115351,115325
 2.1000e+000 115767 -1.2647e+001 -6.1558e+001  3.2352e+000 18716 115571,115649,115623
 2.1000e+000 115744 -1.3365e+001 -6.7845e+001  4.6173e+000 18716 115493,115649,115571
 2.1000e+000 115721 -9.7650e+000 -6.6570e+001  2.7445e+000 18716 115493,115571,115545
 2.1000e+000 115698 -3.4774e+000 -5.8162e+001  9.5482e+000 18716 115493,115545,115519
 2.1000e+000 115675 -9.6204e+000 -6.1799e+001  2.1435e-001 18716 115571,115623,115597
 2.1000e+000 116039 -1.2686e+001 -5.5196e+001 -1.0290e+000 18312 115814,115892,115840
 2.1000e+000 116016 -1.3827e+001 -5.8016e+001 -7.6899e-001 18312 115814,115944,115892
 2.1000e+000 115993 -9.0070e+000 -5.5623e+001  8.4932e-001 18312 115892,115944,115918
 2.1000e+000 115970 -3.6543e+001 -6.4143e+001 -9.6295e-001 18312 115840,115892,115866
 2.1000e+000 116191 -7.6400e+001 -9.7326e+001  4.1872e-001 18000 116090,116142,116116
 2.1000e+000 116168 -7.5879e+001 -9.9626e+001  1.1635e+000 18000 116064,116142,116090
 2.1000e+000 116343 -3.6819e+001 -9.3143e+001 -1.2049e+000 17396 116242,116294,116268
 2.1000e+000 116320 -3.5910e+001 -8.3631e+001  3.1393e+000 17396 116216,116294,116242
 2.1000e+000 116566 -2.4392e+001 -6.1462e+001 -1.5032e+000 16942 116390,116468,116442
 2.1000e+000 116543  4.4664e+000 -5.9994e+001 -5.5255e+000 16942 116390,116494,116468
 2.1000e+000 116520 -2.3887e+001 -6.0341e+001 -1.2079e+000 16942 116390,116442,116416
 2.1000e+000 116767 -3.2600e+000 -5.6812e+001 -4.1286e-003 16438 116790,116643,116617
 2.1000e+000 116744 -1.1251e+001 -5.8012e+001 -1.8261e+000 16438 116790,116617,116591
 2.1000e+000 116721  9.5855e+000 -4.2881e+001 -5.1423e+000 16438 116643,116695,116669
 2.1000e+000 116816 -3.4280e-001 -5.7549e+001  3.4621e-001 16438 116695,116643,116790
 2.1000e+000 116839 -3.0155e+000 -5.5216e+001 -1.6235e+000 16438 116695,116790,116591
 2.1000e+000 117062 -5.4416e+001 -8.3371e+001  9.8605e-001 16074 116886,116938,116912
 2.1000e+000 117039 -4.5694e+001 -8.2848e+001  4.7782e+000 16074 116886,116990,116938
 2.1000e+000 117016 -3.7141e+001 -6.5889e+001  8.3314e+000 16074 116938,116990,116964
 2.1000e+000 117214  5.4721e+000 -5.3288e+001  1.1885e+000 15649 117087,117139,117113
 2.1000e+000 117191 -6.8528e+000 -5.8093e+001  4.9985e-001 15649 117087,117165,117139
 2.1000e+000 117317 -4.4315e+001 -6.1960e+001  5.3388e+000 421 117239,117291,117265
 2.2000e+000 70632 -4.3450e+001 -1.4056e+002  4.8550e-001 70072 70482,70534,70508
 2.2000e+000 70609 -4.4476e+001 -1.4188e+002  2.9504e-002 70072 70482,70560,70534
 2.2000e+000 70586 -6.9893e+001 -1.5385e+002  4.2483e-001 70072 70456,70560,70482
 2.2000e+000 70951 -7.4012e+001 -3.1645e+002  0.0000e+000 69874 70703,70755,70729
 2.2000e+000 70928 -1.8241e+001 -3.0040e+002 -6.9732e+001 69874 70703,70781,70755
 2.2000e+000 70905  5.9445e+001 -1.8888e+001 -3.3270e+001 69874 70703,70807,70781
 2.2000e+000 70882 -2.8953e+001 -2.3417e+002 -1.5400e+001 69874 70703,70833,70807
 2.2000e+000 70859 -4.2940e+001 -2.5220e+002  1.3209e+001 69874 70677,70833,70703
 2.2000e+000 71199 -9.7030e+000 -5.6573e+001  9.4850e+000 69698 71222,71052,71026
 2.2000e+000 71176  2.4013e+000 -6.3821e+001  1.1805e+001 69698 71294,71222,71026
 2.2000e+000 71153 -5.0368e+000 -5.3965e+001 -2.4507e+001 69698 71294,71026,71000
 2.2000e+000 71130 -4.3966e+001 -5.6425e+001  1.5753e+001 69698 71366,71104,71078
 2.2000e+000 71248 -9.0480e+000 -4.0012e+001  1.5488e+001 69698 71078,71052,71222
 2.2000e+000 71271 -4.4041e+000 -4.0564e+001  1.1450e+001 69698 71366,71078,71222
 2.2000e+000 71320  6.1017e+001 -3.2910e+001 -8.0458e-001 69698 70974,71222,71294
 2.2000e+000 71343  6.4305e+001 -2.4736e+001 -3.3634e+001 69698 70974,71294,71000
 2.2000e+000 71392  8.9645e+000 -5.5131e+001  2.2467e+001 69698 70974,71104,71366
 2.2000e+000 71415  1.6225e+001 -6.0128e+001  2.4498e+001 69698 70974,71366,71222
 2.2000e+000 71516 -2.0150e+001 -1.4208e+002 -2.7002e+001 69386 71438,71490,71464
 2.2000e+000 71869 -3.1829e+000 -4.9747e+001  9.1112e-001 69188 71644,71748,71670
 2.2000e+000 71846  1.3674e+001 -4.0893e+001  9.2448e+000 69188 71644,71774,71748
 2.2000e+000 71823  1.3266e+001 -2.2645e+001 -6.1425e+000 69188 71670,71748,71722
 2.2000e+000 71800 -1.7685e+001 -1.1113e+002 -1.7117e+001 69188 71670,71722,71696
 2.2000e+000 72019 -3.2165e+001 -9.2765e+001 -1.6870e-001 68990 71918,71970,71944
 2.2000e+000 71996 -3.1999e+001 -9.6183e+001  1.2379e+000 68990 71892,71970,71918
 2.2000e+000 72316  2.3121e+001  1.3439e+001 -2.3852e+001 68586 72339,72172,72146
 2.2000e+000 72293  1.8256e+001 -1.0610e+001 -2.5082e+001 68586 72339,72146,72120
 2.2000e+000 72270  1.7979e+001  6.3750e+000 -1.5363e+001 68586 72411,72068,72198
 2.2000e+000 72247  4.0959e+000  1.5759e+001 -9.9608e+000 68586 72042,72198,72068
 2.2000e+000 72224  1.4266e+001  3.1496e-001 -4.2236e-001 68586 72068,72120,72094
 2.2000e+000 72365  2.0462e+001  1.8236e+001 -1.1797e+001 68586 72198,72172,72339
 2.2000e+000 72388  1.5569e+001  6.5797e+000 -1.6401e+001 68586 72411,72198,72339
 2.2000e+000 72437  2.3010e+001  7.1561e+000 -1.3535e+001 68586 72120,72068,72411
 2.2000e+000 72460  1.9711e+001  6.1378e+000 -1.5003e+001 68586 72120,72411,72339
 2.2000e+000 72864  7.9016e+000 -4.4170e+001  1.1934e+000 68388 72642,72694,72668
 2.2000e+000 72841  6.3346e-001 -6.0671e+001  3.0761e+000 68388 72616,72694,72642
 2.2000e+000 72818  6.9371e+000 -4.5158e+001  4.1651e+000 68388 72616,72720,72694
 2.2000e+000 72795 -6.8595e+000 -7.5955e+001  9.4642e+000 68388 72590,72720,72616
 2.2000e+000 72772  2.3279e+001 -5.0166e+001  3.0655e+001 68388 72590,72746,72720
 2.2000e+000 73321 -2.0011e+000 -8.8059e+000 -8.7549e-001 68048 73073,73203,73177
 2.2000e+000 73298  6.6209e-002 -6.7203e+000  1.4714e+000 68048 73047,73203,73073
 2.2000e+000 73275  8.9412e+000 -7.7993e+000  3.4060e+000 68048 73125,73177,73151
 2.2000e+000 73252  9.6872e-001 -1.4052e+001 -1.0078e+000 68048 73073,73177,73125
 2.2000e+000 73229  1.0457e+001 -1.9211e+001  3.6096e+000 68048 73073,73125,73099
 2.2000e+000 73640  2.8866e+001 -7.7779e+001 -1.2032e-001 67850 73444,73496,73470
 2.2000e+000 73617  8.8076e+000 -6.7481e+001  4.2507e-001 67850 73418,73496,73444
 2.2000e+000 73594  9.3465e+000 -6.4438e+001  3.4512e+000 67850 73392,73496,73418
 2.2000e+000 73571 -2.0093e+001 -7.7301e+001 -7.4999e+000 67850 73392,73522,73496
 2.2000e+000 73548 -4.0431e+001 -1.1647e+002  3.9685e-001 67850 73366,73522,73392
 2.2000e+000 73790  1.7695e+001 -1.3341e+001 -1.3013e+000 67602 73689,73741,73715
 2.2000e+000 73767  2.7773e+001  1.0338e+001 -4.8917e-003 67602 73663,73741,73689
 2.2000e+000 74040  2.5890e+001 -1.6894e+001 -6.9836e+000 67290 73841,73945,73919
 2.2000e+000 74017  5.2632e+001 -9.8604e+000 -1.6270e+001 67290 73815,73945,73841
 2.2000e+000 73994  3.0090e+001  1.7366e+001 -1.2195e+001 67290 73841,73919,73867
 2.2000e+000 73971  2.9123e+001  1.0064e+001 -2.6046e+000 67290 73867,73919,73893
 2.2000e+000 74143  1.0822e+001  4.6053e+001 -6.3212e-001 67092 74065,74117,74091
 2.2000e+000 74415 -2.2557e+001 -1.5388e+002 -4.4702e+001 66894 74190,74294,74216
 2.2000e+000 74392 -2.1097e+001 -1.4638e+002 -7.8800e+000 66894 74190,74320,74294
 2.2000e+000 74369  2.3610e+001 -4.6400e+001 -3.4934e+001 66894 74216,74294,74242
 2.2000e+000 74346 -5.1505e+000 -1.1403e+002 -2.2606e+001 66894 74242,74294,74268
 2.2000e+000 75023  2.0694e+002 -1.6316e+001 -3.9867e+001 66532 74654,74836,74810
 2.2000e+000 75000 -1.6061e+001 -2.1460e+001 -4.2871e+001 66532 74628,74836,74654
 2.2000e+000 74977  3.0028e+001 -3.0628e+000  5.8599e+000 66532 74706,74784,74732
 2.2000e+000 74954  3.1424e+001 -8.4573e+000  7.9141e+000 66532 74680,74784,74706
 2.2000e+000 74931  9.6668e+001  4.7589e+000  1.3148e+001 66532 74680,74810,74784
 2.2000e+000 74908  2.8942e+001 -2.4129e+001 -3.6011e+001 66532 74654,74810,74680
 2.2000e+000 74885 -3.8289e+001 -4.5406e+001 -5.4362e+001 66532 74602,74836,74628
 2.2000e+000 74862  1.7083e+001  4.6746e+000  1.2853e+001 66532 74732,74784,74758
 2.2000e+000 75222  8.9381e-001 -6.9426e+001 -5.2854e-001 66242 75072,75150,75124
 2.2000e+000 75199 -4.8986e+000 -6.6616e+001  1.1537e+000 66242 75046,75150,75072
 2.2000e+000 75176  6.8261e+000 -5.4217e+001  1.1356e+000 66242 75072,75124,75098
 2.2000e+000 75470  4.5434e+000 -4.3345e+001 -6.3891e+000 65838 75297,75375,75349
 2.2000e+000 75447  9.7588e+000 -1.6673e+001 -4.1891e+000 65838 75271,75375,75297
 2.2000e+000 75424  2.7026e+001 -3.1039e+001 -1.5636e+000 65838 75297,75349,75323
 2.2000e+000 75401  5.8199e+000 -1.4239e+001  8.2772e+000 65838 75245,75375,75271
 2.2000e+000 75671 -5.6079e+000 -7.6448e-001 -1.2513e+001 65640 75495,75573,75521
 2.2000e+000 75648 -1.1278e+001 -3.8502e+000 -1.0903e+001 65640 75495,75599,75573
 2.2000e+000 75625 -2.0979e-001 -3.5182e+001 -3.6776e+001 65640 75521,75573,75547
 2.2000e+000 75872 -1.7843e+000 -5.5716e+000 -2.5858e+000 65300 75895,75748,75722
 2.2000e+000 75849 -1.5400e+000 -1.6694e+001 -8.8766e+000 65300 75895,75722,75696
 2.2000e+000 75826  5.0891e+000 -2.8432e+000 -2.5090e+001 65300 75967,75774,75748
 2.2000e+000 75921  6.5656e+000 -9.4691e+000 -1.2556e+001 65300 75967,75748,75895
 2.2000e+000 75944 -1.0358e+001 -4.1902e+001 -9.2477e+000 65300 75800,75895,75696
 2.2000e+000 75993 -1.5671e+001 -1.2675e+001 -1.9870e+001 65300 75800,75774,75967
 2.2000e+000 76016 -1.4293e+001 -1.8950e+001 -9.3738e+000 65300 75800,75967,75895
 2.2000e+000 76371  1.8202e+001 -1.3612e+001  5.1153e+000 64896 76146,76250,76172
 2.2000e+000 76348  2.1433e+001 -1.1476e+001  8.5354e-001 64896 76146,76276,76250
 2.2000e+000 76325  3.5302e+001  3.6006e+001 -3.0926e+000 64896 76172,76250,76198
 2.2000e+000 76302  9.9528e-002  3.3374e+001  2.1022e+000 64896 76198,76250,76224
 2.2000e+000 76570  4.0066e+000 -8.3122e+000  1.2252e+000 64442 76446,76498,76472
 2.2000e+000 76547  1.0250e+001  6.3554e+000  6.5373e-001 64442 76420,76498,76446
 2.2000e+000 76524  1.1829e+000 -1.6342e+001 -1.2128e+000 64442 76394,76498,76420
 2.2000e+000 76999 -7.3100e+000 -6.1403e+001  7.2238e+000 63924 77022,76728,76702
 2.2000e+000 76976 -4.9244e+000 -1.9941e+001 -3.3062e+001 63924 77022,76702,76832
 2.2000e+000 76953  6.6780e+000 -8.9732e+001  3.9743e+001 63924 76728,76806,76754
 2.2000e+000 76930 -2.5551e+000  9.2942e+000  7.9444e+000 63924 76676,76832,76702
 2.2000e+000 76907 -8.2090e+000 -1.1105e+002  3.2388e+001 63924 76754,76806,76780
 2.2000e+000 76884  6.6090e+000 -9.9329e+000  6.5728e+000 63924 76676,76858,76832
 2.2000e+000 77048  1.9584e+001 -1.1570e+002 -2.6655e+000 63924 76806,76728,77022
 2.2000e+000 77071  1.4283e+001 -8.3566e+001 -4.3623e+001 63924 76806,77022,76832
 2.2000e+000 77449 -7.1456e+000 -1.3492e+001  1.0499e+001 63320 77472,77253,77201
 2.2000e+000 77426 -8.7743e+000 -1.6233e+001  8.2702e+000 63320 77472,77201,77175
 2.2000e+000 77403 -7.8679e+000 -1.3960e+001  4.5185e+000 63320 77175,77305,77279
 2.2000e+000 77380 -2.7930e+000 -7.9163e+000  6.6128e+000 63320 77201,77253,77227
 2.2000e+000 77357 -1.3376e+000 -1.0151e+001  2.1955e-001 63320 77175,77331,77305
 2.2000e+000 77498 -5.6475e+000 -1.7992e+001  8.7313e+000 63320 77279,77253,77472
 2.2000e+000 77521 -7.6776e+000 -1.9081e+001  6.0667e+000 63320 77279,77472,77175
 2.2000e+000 77769 -7.6198e+000 -3.9063e+001  8.6802e-002 62816 77570,77622,77596
 2.2000e+000 77746 -1.4647e+001 -5.4806e+001  3.4493e+000 62816 77570,77648,77622
 2.2000e+000 77723  1.7324e-001 -4.3552e+001 -1.2255e+001 62816 77570,77674,77648
 2.2000e+000 77700 -4.6496e+000 -1.5229e+001  4.9256e+000 62816 77544,77674,77570
 2.2000e+000 78149  1.2000e+001 -1.7463e+001  2.3698e+000 62354 77953,78031,78005
 2.2000e+000 78126  7.3110e-001 -2.6306e+001 -1.9687e+000 62354 77901,78031,77953
 2.2000e+000 78103  4.4537e+000 -2.4092e+001  6.6375e+000 62354 77875,78031,77901
 2.2000e+000 78080  2.3842e+001 -2.3351e+001 -2.0198e+001 62354 77901,77953,77927
 2.2000e+000 78057  1.4113e+001  3.7821e+000 -1.1859e+001 62354 77953,78005,77979
 2.2000e+000 78606  2.4813e+001 -5.5547e+000  1.7462e+001 61950 78384,78436,78410
 2.2000e+000 78583  2.6117e+001 -2.4056e+001 -1.0410e+001 61950 78358,78436,78384
 2.2000e+000 78560  1.7940e+001 -1.2349e+001 -1.6715e+001 61950 78358,78488,78436
 2.2000e+000 78537 -2.4968e+000 -5.5393e+001 -1.0566e+001 61950 78436,78488,78462
 2.2000e+000 78514  1.8596e+001 -3.1886e+000 -1.1944e+001 61950 78332,78488,78358
 2.2000e+000 78756  6.3166e+001 -2.6473e+001 -2.1747e+001 61339 78779,78655,78629
 2.2000e+000 78733  2.0890e+001 -1.5605e+001 -6.3694e+000 61339 78779,78629,78707
 2.2000e+000 78805  5.3472e+000 -6.5046e+001  1.1454e+001 61339 78851,78779,78681
 2.2000e+000 78828  1.3843e+001 -3.2106e+001 -1.2715e+001 61339 78681,78779,78707
 2.2000e+000 78877  2.1867e+001 -1.8732e+001 -2.1813e+001 61339 78655,78779,78851
 2.2000e+000 79206 -8.9365e+000 -2.1208e+001 -6.5239e+000 60892 79229,79007,78981
 2.2000e+000 79183 -6.8580e+000 -1.3984e+001 -4.0514e+000 60892 79229,78981,79111
 2.2000e+000 79160 -6.0219e+000 -2.4194e+001 -5.6430e+000 60892 79301,79033,79007
 2.2000e+000 79137 -3.6826e+000 -1.4429e+001  6.3013e+000 60892 79033,79085,79059
 2.2000e+000 79255 -7.2985e+000 -2.0765e+001 -8.2463e+000 60892 79301,79007,79229
 2.2000e+000 79278 -9.5154e+000 -1.9604e+001 -7.9624e+000 60892 79085,79229,79111
 2.2000e+000 79327 -9.6395e+000 -3.1914e+001 -4.4379e+000 60892 79085,79033,79301
 2.2000e+000 79350 -9.0679e+000 -2.6925e+001 -8.2215e+000 60892 79085,79301,79229
 2.2000e+000 79647 -2.5869e+001 -4.9933e+001  4.0978e+000 60488 79451,79529,79503
 2.2000e+000 79624 -1.9174e+001 -4.1682e+001 -4.7157e+000 60488 79425,79529,79451
 2.2000e+000 79601 -2.1842e+001 -5.2853e+001 -9.3047e+000 60488 79373,79529,79425
 2.2000e+000 79578 -9.7528e+000 -5.3178e+001  6.4532e-001 60488 79373,79425,79399
 2.2000e+000 79555 -3.9269e+000 -5.0308e+001  8.2205e+000 60488 79451,79503,79477
 2.2000e+000 79870 -9.2243e+000 -7.9062e+001 -1.2180e+000 60026 79720,79798,79772
 2.2000e+000 79847  3.4738e+000 -8.8490e+001 -6.3693e+000 60026 79694,79798,79720
 2.2000e+000 79824  1.1448e+001 -7.3279e+001 -9.0975e+000 60026 79720,79772,79746
 2.2000e+000 80120 -3.4397e+001 -5.7323e+001 -1.2870e+001 59629 79921,80025,79973
 2.2000e+000 80097 -4.1747e+001 -4.6182e+001 -4.3083e+000 59629 79895,80025,79921
 2.2000e+000 80074 -2.8029e+001 -4.7249e+001 -2.0854e+001 59629 79973,80025,79999
 2.2000e+000 80051 -1.8806e+001 -4.3975e+001 -1.8580e+001 59629 79921,79973,79947
 2.2000e+000 80321 -1.4991e+001 -3.7899e+001  7.9710e+000 59125 80344,80171,80145
 2.2000e+000 80298 -2.3200e+000 -4.1277e+001  2.1568e-001 59125 80344,80145,80249
 2.2000e+000 80275  1.4523e+001 -3.2729e+001  1.2202e+000 59125 80197,80249,80223
 2.2000e+000 80370 -8.3539e-001 -3.4604e+001  6.9233e+000 59125 80197,80171,80344
 2.2000e+000 80393  1.0811e+001 -3.8751e+001 -7.4588e-001 59125 80197,80344,80249
 2.2000e+000 80952 -1.1449e+001 -5.4071e+001  2.6647e+001 58557 80975,80632,80606
 2.2000e+000 80929  1.2406e+001 -1.6732e+001  1.3836e+001 58557 81119,80975,80606
 2.2000e+000 80906 -1.7690e+001 -4.4704e+001  3.4437e+000 58557 81047,80684,80632
 2.2000e+000 80883  1.5604e+000 -2.2877e+001  1.2535e+000 58557 81119,80606,80580
 2.2000e+000 80860  2.6184e+001 -6.7494e+001  5.6148e+000 58557 81191,80736,80710
 2.2000e+000 80837  1.2397e+001 -1.0522e+002 -2.7969e+001 58557 80736,80788,80762
 2.2000e+000 80814 -3.2126e+001 -4.7225e+001  1.0356e+001 58557 80632,80684,80658
 2.2000e+000 81001 -2.0414e+000 -5.4862e+001  1.1159e+001 58557 81047,80632,80975
 2.2000e+000 81024  3.3756e+001 -5.1747e+001  8.2280e+000 58557 81191,80710,80975
 2.2000e+000 81073 -3.2828e+000 -3.5064e+001  1.4934e+001 58557 80710,80684,81047
 2.2000e+000 81096  2.0282e+001 -4.2329e+001  2.1605e+001 58557 80710,81047,80975
 2.2000e+000 81145  2.5169e+000 -3.5581e+001  6.9779e+000 58557 80788,80975,81119
 2.2000e+000 81168  1.7162e+000 -3.5098e+001 -3.6695e+000 58557 80788,81119,80580
 2.2000e+000 81217  2.1837e+001 -5.1968e+001 -7.6120e-002 58557 80788,80736,81191
 2.2000e+000 81240  2.3696e+001 -4.5999e+001  2.1852e-001 58557 80788,81191,80975
 2.2000e+000 81537  1.3011e+001 -8.9451e+001 -2.0914e+000 57881 81560,81341,81289
 2.2000e+000 81514 -9.6119e+000 -9.9691e+001  1.3272e+001 57881 81560,81289,81263
 2.2000e+000 81491 -8.2861e+000 -8.0359e+001 -7.5770e+000 57881 81632,81419,81367
 2.2000e+000 81468 -8.4969e+000 -9.0632e+001 -3.8458e+001 57881 81367,81419,81393
 2.2000e+000 81445 -4.8795e+000 -1.1711e+002  6.4589e+000 57881 81289,81341,81315
 2.2000e+000 81586  1.1811e+001 -5.8734e+001 -2.2026e+001 57881 81367,81341,81560
 2.2000e+000 81609 -6.2444e+000 -8.7546e+001 -1.0312e+001 57881 81632,81367,81560
 2.2000e+000 81658 -2.9867e+000 -6.8860e+001 -5.2196e+000 57881 81263,81419,81632
 2.2000e+000 81681 -1.6654e+000 -7.8709e+001 -7.4089e+000 57881 81263,81632,81560
 2.2000e+000 81929 -1.1405e+001 -5.1357e+001 -9.6809e+000 57477 81704,81808,81782
 2.2000e+000 81906 -1.9760e+001 -6.0745e+001 -5.6647e+000 57477 81704,81834,81808
 2.2000e+000 81883 -2.1141e+001 -6.2232e+001 -2.8472e+000 57477 81704,81782,81730
 2.2000e+000 81860  2.7503e+001 -6.6445e+001 -4.9175e+000 57477 81730,81782,81756
 2.2000e+000 82488  5.6599e+000 -5.4943e+001 -1.3553e+001 56966 82583,82511,82194
 2.2000e+000 82465  5.9979e+000 -4.1809e+001 -8.3079e+000 56966 82511,82116,82324
 2.2000e+000 82442  3.4129e+000 -6.6471e+001 -1.0039e+001 56966 82583,82194,82168
 2.2000e+000 82419 -1.9036e+000 -6.3027e+001  9.8077e+000 56966 82194,82246,82220
 2.2000e+000 82396 -7.0633e+000 -7.3636e+001 -1.1077e+001 56966 82194,82298,82246
 2.2000e+000 82373  4.3856e+000 -2.6686e+001 -7.1415e+000 56966 82246,82298,82272
 2.2000e+000 82350  7.4431e+000 -6.9278e+001 -2.3014e+001 56966 82116,82168,82142
 2.2000e+000 82537  5.2051e+000 -4.4172e+001 -8.1853e+000 56966 82298,82194,82511
 2.2000e+000 82560  2.4772e+001 -1.6991e+001  5.8602e+000 56966 82298,82511,82324
 2.2000e+000 82609  2.1437e+000 -4.1594e+001 -1.4950e+001 56966 82116,82511,82583
 2.2000e+000 82632  3.0274e+000 -5.0219e+001 -1.2804e+001 56966 82116,82583,82168
 2.2000e+000 83236 -1.9341e-002 -2.2659e+001 -4.8331e+000 56304 82893,82945,82919
 2.2000e+000 83213 -2.0735e+000 -3.4862e+001  1.3294e+001 56304 83259,82945,82893
 2.2000e+000 83190 -1.8908e+000 -3.7118e+001  1.2116e+001 56304 83259,82893,83049
 2.2000e+000 83167 -1.2214e+001 -5.5441e+001  2.0086e+001 56304 82971,83049,83023
 2.2000e+000 83144  5.8124e+000 -4.1193e+001  2.7127e+001 56304 82815,83049,82893
 2.2000e+000 83121  2.8490e+001 -9.1330e+001  1.4773e+000 56304 82815,82893,82867
 2.2000e+000 83098 -1.0748e+001 -7.8662e+001  1.6978e+001 56304 82971,83023,82997
 2.2000e+000 83075  2.7419e+001 -4.1094e+001 -1.3145e+001 56304 82815,82867,82841
 2.2000e+000 83285 -3.3736e+000 -3.8093e+001  1.3628e+001 56304 82971,82945,83259
 2.2000e+000 83308 -2.0318e+000 -3.8204e+001  1.2050e+001 56304 82971,83259,83049
 2.2000e+000 83556 -6.9261e+001 -1.5221e+002  2.7119e-001 55964 83357,83461,83435
 2.2000e+000 83533 -7.3994e+001 -1.0737e+002  2.2364e+001 55964 83331,83461,83357
 2.2000e+000 83510 -5.4582e+001 -1.6527e+002  1.6504e+001 55964 83357,83435,83383
 2.2000e+000 83487 -1.9254e+001 -1.9734e+002  1.9234e+000 55964 83383,83435,83409
 2.2000e+000 83706  2.0879e+001  1.0837e+001  6.4608e+000 55503 83579,83631,83605
 2.2000e+000 83683  2.6646e+001 -1.5979e+001  1.2109e+001 55503 83579,83657,83631
 2.2000e+000 83907 -1.8646e+000 -7.7898e+001  4.2434e-001 55156 83757,83835,83809
 2.2000e+000 83884 -7.9914e+000 -7.3025e+001  3.4660e+001 55156 83731,83835,83757
 2.2000e+000 83861 -1.1117e+001 -6.2969e+001  2.8954e+000 55156 83757,83809,83783
 2.2000e+000 84240 -1.6370e+001 -7.1531e+001  1.5923e+000 54652 84093,84145,84119
 2.2000e+000 84217 -3.2094e+000 -4.9302e+001 -4.0408e+000 54652 84041,84145,84093
 2.2000e+000 84194  1.2895e+000 -8.1781e+001  1.4671e+001 54652 84015,84145,84041
 2.2000e+000 84171 -8.1798e-001 -4.7258e+001  2.3811e-001 54652 84041,84093,84067
 2.2000e+000 84618 -5.3680e+001 -1.4950e+002  7.9666e+000 53926 84396,84500,84474
 2.2000e+000 84595 -7.4512e+001 -1.7846e+002 -1.1500e+000 53926 84344,84500,84396
 2.2000e+000 84572 -6.3574e+001 -1.6046e+002 -1.0807e+001 53926 84344,84396,84370
 2.2000e+000 84549 -5.6376e+001 -1.4775e+002  5.1385e-001 53926 84396,84474,84422
 2.2000e+000 84526 -8.3551e+001 -1.2790e+002 -2.7849e+000 53926 84422,84474,84448
 2.2000e+000 85350 -3.7812e+001 -1.1796e+002  9.0211e-001 53586 85373,84880,85088
 2.2000e+000 85327 -1.3830e+001 -1.3544e+002  8.8547e+000 53586 84880,85114,85088
 2.2000e+000 85304 -4.7038e+001 -1.1660e+002  1.5695e+001 53586 85373,85088,85062
 2.2000e+000 85281 -1.7462e+001 -6.2336e+001 -2.3126e+001 53586 85010,85062,85036
 2.2000e+000 85258 -2.2987e+001 -1.0027e+002 -7.7522e+000 53586 85445,85010,84958
 2.2000e+000 85235 -1.7970e+001 -9.0093e+001  1.2086e+001 53586 85445,84958,84906
 2.2000e+000 85212 -2.2616e+001 -8.3077e+001 -8.9657e+000 53586 84958,85010,84984
 2.2000e+000 85189 -2.5537e+001 -1.7732e+002  1.6472e+001 53586 84906,84958,84932
 2.2000e+000 85166 -3.6270e+001 -1.0220e+002 -1.2362e+001 53586 84880,85140,85114
 2.2000e+000 85399 -3.7316e+001 -1.1090e+002  6.7956e+000 53586 84906,84880,85373
 2.2000e+000 85422 -3.5933e+001 -9.6196e+001  1.1035e+001 53586 85517,85373,85062
 2.2000e+000 85471 -4.9811e+000 -5.7677e+001 -1.9547e+001 53586 85062,85010,85445
 2.2000e+000 85494 -3.0766e+001 -8.4133e+001  8.0636e+000 53586 85517,85062,85445
 2.2000e+000 85543 -2.5591e+001 -1.1533e+002  1.1881e+001 53586 84906,85373,85517
 2.2000e+000 85566 -2.3869e+001 -1.0668e+002  1.0808e+001 53586 84906,85517,85445
 2.2000e+000 86072  2.1248e+001 -4.8448e+001 -2.4667e+000 53182 86095,85853,85775
 2.2000e+000 86049  1.6800e+001 -4.1324e+001 -6.1203e-001 53182 86095,85775,85931
 2.2000e+000 86026 -5.5946e+000 -6.7533e+001  8.3471e+000 53182 86167,85879,85853
 2.2000e+000 86003 -2.4045e-001 -8.4359e+001 -4.0577e+001 53182 85775,85827,85801
 2.2000e+000 85980 -2.6358e+001 -1.0735e+002 -5.3820e+001 53182 85775,85853,85827
 2.2000e+000 85957  4.1398e+001 -3.3874e+001  7.6756e+000 53182 85749,85931,85775
 2.2000e+000 86121  1.5726e+001 -5.2731e+001 -4.3467e+000 53182 86167,85853,86095
 2.2000e+000 86144  3.7749e+001 -5.2912e+001  2.0958e+000 53182 85905,86095,85931
 2.2000e+000 86193 -2.6404e+000 -7.5739e+001  2.4113e+001 53182 85905,85879,86167
 2.2000e+000 86216  1.0030e+001 -7.7436e+001  1.2969e+001 53182 85905,86167,86095
 2.2000e+000 86673  4.0113e+000 -6.0684e+001 -1.2885e+001 52778 86477,86529,86503
 2.2000e+000 86650  8.0612e-002 -6.6769e+001 -1.0767e+001 52778 86425,86529,86477
 2.2000e+000 86627  4.6019e+001 -3.1778e+001 -2.8663e+001 52778 86425,86477,86451
 2.2000e+000 86604  9.6114e+000 -5.0135e+001 -5.7329e+000 52778 86399,86529,86425
 2.2000e+000 86581 -9.2722e-001 -5.2661e+001 -9.4214e+000 52778 86399,86555,86529
 2.2000e+000 87258 -2.0053e+001 -1.4882e+002 -2.6700e+001 52238 87281,86987,86961
 2.2000e+000 87235 -8.3189e+000 -1.1056e+002  1.0701e+001 52238 87281,86961,87117
 2.2000e+000 87212 -1.6307e+001 -4.8320e+001  4.4610e+000 52238 86935,87117,86961
 2.2000e+000 87189  8.5060e+000 -5.3435e+001  1.1230e+001 52238 87065,87117,87091
 2.2000e+000 87166 -1.2852e+001 -6.6344e+001 -1.8483e+001 52238 86987,87065,87039
 2.2000e+000 87143  3.1668e+001 -2.5253e+001 -4.1922e+001 52238 86987,87039,87013
 2.2000e+000 87307  8.6057e+000 -8.0523e+001 -2.0021e+001 52238 87065,86987,87281
 2.2000e+000 87330  5.8588e-001 -8.6770e+001  1.8052e+001 52238 87065,87281,87117
 2.2000e+000 87610  1.9740e+001 -2.1568e+001  1.0643e+001 51834 87434,87512,87460
 2.2000e+000 87587  9.3900e+000 -3.0474e+001 -3.5206e-002 51834 87434,87538,87512
 2.2000e+000 87564  3.9124e+001 -1.4647e+001  1.8603e+001 51834 87633,87460,87512
 2.2000e+000 87659  8.9829e+001  7.0690e+000  2.0769e+001 51834 87486,87460,87633
 2.2000e+000 88187 -3.6692e+001 -1.4631e+002 -9.5128e+000 51266 87864,87942,87890
 2.2000e+000 88164 -2.4718e+000 -9.6863e+001  5.4047e+000 51266 87864,88020,87942
 2.2000e+000 88141 -2.6105e+001 -1.0366e+002  1.1017e+001 51266 87942,88020,87968
 2.2000e+000 88118 -2.4183e+001 -1.8363e+002  5.0557e-001 51266 87864,88046,88020
 2.2000e+000 88095  6.5992e+000 -1.0163e+002  2.2501e+001 51266 87968,88020,87994
 2.2000e+000 88072  2.1298e+000 -1.4701e+002 -4.1420e+001 51266 87890,87942,87916
 2.2000e+000 88644 -2.6644e+001 -4.8216e+001 -1.6639e+001 50754 88370,88500,88396
 2.2000e+000 88621 -3.6193e+001 -5.5713e+001 -1.3366e+001 50754 88370,88526,88500
 2.2000e+000 88598 -2.5498e+001 -5.8324e+001 -3.0912e+001 50754 88396,88500,88422
 2.2000e+000 88575 -4.1318e+001 -8.8376e+001 -3.6901e+001 50754 88422,88500,88474
 2.2000e+000 88552  1.7092e+001 -4.6854e+001 -5.9848e-001 50754 88422,88474,88448
 2.2000e+000 88914 -2.9877e+001 -1.2915e+002  8.4704e+000 50442 88715,88793,88741
 2.2000e+000 88891 -1.1474e+001 -1.3824e+002  6.1137e+000 50442 88715,88819,88793
 2.2000e+000 88868 -2.2365e+001 -1.5379e+002 -6.1332e-001 50442 88689,88819,88715
 2.2000e+000 88845 -4.4584e+001 -1.2549e+002  2.9572e+001 50442 88741,88793,88767
 2.2000e+000 89294 -1.6429e+001 -1.4730e+002  1.2669e+001 49938 89317,89046,89020
 2.2000e+000 89271 -1.8736e+001 -1.4834e+002  1.3827e+001 49938 89317,89020,89150
 2.2000e+000 89248 -2.4887e+001 -1.2915e+002  1.7856e+001 49938 89072,89150,89098
 2.2000e+000 89225  9.2461e+000 -1.6777e+002  4.9291e+001 49938 89020,89176,89150
 2.2000e+000 89202 -2.3960e+001 -1.1519e+002  1.9895e+001 49938 89098,89150,89124
 2.2000e+000 89343 -1.8858e+001 -1.3074e+002  1.0741e+001 49938 89072,89046,89317
 2.2000e+000 89366 -2.3639e+001 -1.4600e+002  1.6027e+001 49938 89072,89317,89150
 2.2000e+000 89823 -2.5024e+000 -8.1894e+001  1.6994e+000 49384 89601,89705,89679
 2.2000e+000 89800 -2.3156e+001 -7.6381e+001 -2.6051e+001 49384 89549,89705,89601
 2.2000e+000 89777 -3.3895e+001 -1.2519e+002 -1.7940e+001 49384 89549,89601,89575
 2.2000e+000 89754 -4.8232e+001 -8.9935e+001 -2.6364e+000 49384 89601,89679,89627
 2.2000e+000 89731 -5.8951e+001 -1.1272e+002  5.3869e-001 49384 89627,89679,89653
 2.2000e+000 90329 -2.3405e+001 -1.0256e+002  4.5122e+000 48894 90058,90110,90084
 2.2000e+000 90306 -3.6745e+001 -1.0853e+002 -5.1030e+000 48894 90058,90162,90110
 2.2000e+000 90283 -4.9772e+001 -9.5941e+001 -7.8451e+000 48894 90032,90162,90058
 2.2000e+000 90260 -4.1350e+001 -9.6657e+001  3.2893e+000 48894 90006,90162,90032
 2.2000e+000 90237 -4.0197e+001 -1.3303e+002 -5.6827e+000 48894 90110,90162,90136
 2.2000e+000 90214 -4.2245e+001 -9.3933e+001 -8.4507e-001 48894 90006,90188,90162
 2.2000e+000 90884 -5.2358e+001 -1.2899e+002 -4.0696e+000 48490 90564,90642,90616
 2.2000e+000 90861 -5.6576e+001 -1.3396e+002 -1.6338e+000 48490 90564,90694,90642
 2.2000e+000 90838 -3.0503e+001 -1.2569e+002 -3.4286e+000 48490 90538,90694,90564
 2.2000e+000 90815 -2.9897e+001 -1.3660e+002  2.5553e+000 48490 90538,90720,90694
 2.2000e+000 90792 -5.2279e+001 -1.3030e+002 -5.5665e+000 48490 90564,90616,90590
 2.2000e+000 90769 -5.0379e+001 -1.3851e+002 -2.5322e+001 48490 90642,90694,90668
 2.2000e+000 90746 -6.6291e+000 -1.1651e+002  2.2266e+001 48490 90512,90720,90538
 2.2000e+000 91034 -5.7482e+000 -1.1772e+002  1.5702e+001 48086 91057,90959,90933
 2.2000e+000 91011  8.6329e+000 -1.0135e+002  2.7069e+001 48086 91129,91057,90933
 2.2000e+000 91083 -1.5744e+001 -1.1698e+002  1.3436e+001 48086 90985,90959,91057
 2.2000e+000 91106 -1.3643e+001 -1.2100e+002  1.4538e+001 48086 90985,91057,90907
 2.2000e+000 91155 -2.9022e+001 -1.2406e+002  1.6591e+001 48086 90907,91057,91129
 2.2000e+000 91791 -8.8045e+000 -3.8421e+001  1.2193e+001 47518 92030,91814,91523
 2.2000e+000 91768 -1.4296e+001 -4.5567e+001  1.9526e+000 47518 91958,91814,91471
 2.2000e+000 91745 -1.6651e+001 -6.8259e+001  3.0332e+000 47518 91886,91575,91523
 2.2000e+000 91722 -1.3460e+001 -3.5498e+001 -6.1179e+000 47518 91958,91471,91419
 2.2000e+000 91699 -8.6795e+000 -4.6835e+001  1.6566e+001 47518 92030,91523,91497
 2.2000e+000 91676  4.0212e+000 -7.2219e+001  7.0485e+000 47518 91523,91575,91549
 2.2000e+000 91653  5.7001e+000 -4.4922e+000 -1.4819e+001 47518 91419,91471,91445
 2.2000e+000 91840 -1.0359e+001 -5.5868e+001  1.2569e+001 47518 91886,91523,91814
 2.2000e+000 91863 -5.4189e+000 -3.2349e+001  8.8215e-001 47518 91601,91814,91627
 2.2000e+000 91912 -2.7020e+001 -7.4976e+001 -1.4623e+001 47518 91601,91575,91886
 2.2000e+000 91935 -2.1052e+001 -4.8592e+001 -5.4928e+000 47518 91601,91886,91814
 2.2000e+000 91984 -3.9913e+000 -3.6838e+001 -1.9841e+000 47518 91627,91814,91958
 2.2000e+000 92007 -8.3555e+000 -3.1154e+001 -8.7579e+000 47518 91627,91958,91419
 2.2000e+000 92056 -5.7345e+000 -3.0964e+001  1.1208e+001 47518 91471,91814,92030
 2.2000e+000 92079 -3.7436e+000 -3.5844e+001  1.5383e+001 47518 91471,92030,91497
 2.2000e+000 92229  1.8169e+001  7.4799e+000  2.9014e+001 47128 92252,92128,92102
 2.2000e+000 92206  3.1752e+001  3.2066e+001  2.3691e+001 47128 92324,92252,92102
 2.2000e+000 92278  2.7557e+001  1.2115e+001  1.6426e+001 47128 92454,92252,92154
 2.2000e+000 92301  5.0546e+001  3.0538e+001  1.1496e+000 47128 92154,92252,92180
 2.2000e+000 92350  9.7508e+000  1.4813e+001  1.5702e+001 47128 92180,92252,92324
 2.2000e+000 92480  1.4926e+000 -6.3317e+000  7.2939e+000 47128 92128,92252,92454
 2.2000e+000 93340 -3.4371e+001 -8.8630e+001 -1.2064e+001 46838 93363,92977,92873
 2.2000e+000 93317 -3.8038e+001 -9.0368e+001 -1.1245e+001 46838 93507,93363,92873
 2.2000e+000 93294 -2.5184e+001 -9.5429e+001 -3.0687e+000 46838 93435,93003,92977
 2.2000e+000 93271 -6.7625e+001 -9.6334e+001 -1.2543e+001 46838 93507,92873,92847
 2.2000e+000 93248 -2.2443e+001 -9.3315e+001 -5.5458e+000 46838 93579,93029,93003
 2.2000e+000 93225 -5.1238e+001 -1.4712e+002  2.4177e+001 46838 92873,92951,92925
 2.2000e+000 93202 -5.9805e+001 -1.1376e+002 -7.4357e-001 46838 92873,92977,92951
 2.2000e+000 93179 -4.7702e+000 -8.4520e+001  3.1500e+000 46838 93055,93107,93081
 2.2000e+000 93156 -3.7658e+001 -7.4936e+001 -5.9058e-001 46838 92821,93107,92847
 2.2000e+000 93133 -4.7602e+001 -1.4668e+002  2.6925e+001 46838 92873,92925,92899
 2.2000e+000 93389 -2.7730e+001 -9.4841e+001 -2.6973e+000 46838 93435,92977,93363
 2.2000e+000 93412  3.6746e-001 -8.8227e+001  2.1712e+000 46838 93055,93363,93107
 2.2000e+000 93461 -2.3118e+001 -9.5225e+001 -5.5810e+000 46838 93579,93003,93435
 2.2000e+000 93484 -2.4439e+001 -9.9509e+001 -3.5140e+000 46838 93055,93435,93363
 2.2000e+000 93533 -1.5625e+001 -9.8087e+001 -1.6988e+001 46838 93107,93363,93507
 2.2000e+000 93556 -2.5647e+001 -8.9789e+001 -1.7052e+001 46838 93107,93507,92847
 2.2000e+000 93605 -2.1207e+001 -9.4170e+001 -2.1774e+000 46838 93055,93029,93579
 2.2000e+000 93628 -2.1671e+001 -9.5660e+001 -2.1787e+000 46838 93055,93579,93435
 2.2000e+000 93979 -7.0426e+001 -1.8251e+002 -1.3150e+000 46476 93780,93884,93858
 2.2000e+000 93956 -6.6337e+001 -1.8579e+002  1.7790e+000 46476 93754,93884,93780
 2.2000e+000 93933 -4.7225e+001 -1.6766e+002 -4.6013e+000 46476 93806,93858,93832
 2.2000e+000 93910 -4.7678e+001 -1.7236e+002 -3.2736e+000 46476 93780,93858,93806
 2.2000e+000 94515  4.0044e+001 -4.2968e+001  9.4998e+000 46072 94345,94397,94371
 2.2000e+000 94492 -2.6236e+001 -6.8921e+001 -2.9794e+000 46072 94267,94397,94345
 2.2000e+000 94469 -3.0496e+001 -6.2780e+001  3.1374e-001 46072 94241,94397,94267
 2.2000e+000 94446 -1.0916e+001 -3.2807e+001  1.5873e+000 46072 94293,94345,94319
 2.2000e+000 94423 -1.5754e+001 -5.3460e+001  1.6084e+000 46072 94267,94345,94293
 2.2000e+000 95149 -4.0367e+001 -9.4749e+001 -9.5968e-001 45346 94803,94881,94855
 2.2000e+000 95126 -3.0560e+001 -8.9209e+001 -3.2578e+000 45346 94803,94959,94881
 2.2000e+000 95103 -1.9362e-001 -1.0179e+002 -1.3382e+001 45346 95172,94933,94907
 2.2000e+000 95080 -2.2320e+001 -1.2430e+002 -3.6948e+000 45346 95172,94907,94881
 2.2000e+000 95057 -5.2709e+001 -9.4103e+001 -4.6978e+000 45346 94803,94985,94959
 2.2000e+000 95034 -3.5215e+001 -1.0226e+002 -5.6798e+000 45346 94803,94855,94829
 2.2000e+000 95011 -6.0268e+001 -1.0685e+002  7.7011e+000 45346 94777,94985,94803
 2.2000e+000 95198 -2.2591e+001 -8.9347e+001 -1.2373e+001 45346 94959,94933,95172
 2.2000e+000 95221 -3.3775e+001 -9.8292e+001 -7.9453e+000 45346 94959,95172,94881
 2.2000e+000 95776  1.2067e+001 -9.9953e+001 -2.2980e+001 44720 95799,95560,95534
 2.2000e+000 95753 -1.1317e+001 -8.6447e+001 -1.9963e+001 44720 95799,95534,95482
 2.2000e+000 95730 -3.1089e+001 -9.8097e+001 -1.8318e+001 44720 95943,95871,95430
 2.2000e+000 95707 -4.0149e+001 -8.8891e+001 -1.7746e+001 44720 95943,95430,95404
 2.2000e+000 95684 -4.6134e+001 -9.3366e+001 -1.5119e+001 44720 95430,95482,95456
 2.2000e+000 95661  3.3525e+001 -6.0616e+001 -3.4266e+000 44720 95482,95534,95508
 2.2000e+000 95638 -4.6471e+001 -9.3094e+001 -2.5836e+001 44720 95404,95612,95586
 2.2000e+000 95825 -1.5767e+001 -1.3020e+002 -3.5694e+001 44720 95586,95560,95799
 2.2000e+000 95848 -9.5215e+000 -9.4806e+001 -2.4288e+001 44720 95871,95586,95799
 2.2000e+000 95897 -1.5688e+001 -9.1509e+001 -1.7450e+001 44720 95482,95430,95871
 2.2000e+000 95920 -1.6979e+001 -9.8799e+001 -2.2262e+001 44720 95482,95871,95799
 2.2000e+000 95969 -1.2756e+001 -8.9416e+001 -2.6763e+001 44720 95586,95871,95943
 2.2000e+000 95992 -2.9748e+001 -8.7813e+001 -2.4620e+001 44720 95586,95943,95404
 2.2000e+000 96449  4.8588e+000 -6.5844e+001 -7.8203e+000 44202 96544,96472,96227
 2.2000e+000 96426  1.1006e+001 -6.2114e+001  7.7616e+000 44202 96472,96175,96331
 2.2000e+000 96403  2.0706e+001 -7.3928e+001 -6.3518e+000 44202 96544,96227,96201
 2.2000e+000 96380 -1.2783e+001 -7.2213e+001 -8.6289e+000 44202 96253,96305,96279
 2.2000e+000 96357 -1.7382e+001 -6.5583e+001 -5.2218e+000 44202 96227,96305,96253
 2.2000e+000 96498 -8.1512e-001 -5.5502e+001  2.8806e+000 44202 96305,96227,96472
 2.2000e+000 96521  2.3215e+001 -3.8624e+001  1.7026e+001 44202 96305,96472,96331
 2.2000e+000 96570  2.0527e+001 -5.3805e+001 -2.1127e+000 44202 96175,96472,96544
 2.2000e+000 96593  3.1870e+001 -6.7386e+001 -3.1627e+000 44202 96175,96544,96201
 2.2000e+000 96971 -2.3807e+001 -1.1167e+002  7.0257e-001 43754 96994,96749,96697
 2.2000e+000 96948 -2.6229e+001 -1.1702e+002  3.7224e+000 43754 96994,96697,96853
 2.2000e+000 96925 -2.3665e+001 -1.2374e+002 -4.3978e-001 43754 96697,96749,96723
 2.2000e+000 96902 -4.4644e+001 -1.3360e+002  8.2496e+000 43754 96775,96853,96827
 2.2000e+000 96879 -3.7128e+001 -1.4153e+002  6.9742e+000 43754 96775,96827,96801
 2.2000e+000 97020 -2.2462e+001 -1.0169e+002 -4.8139e+000 43754 96775,96749,96994
 2.2000e+000 97043 -2.9165e+001 -1.1101e+002 -8.3120e-001 43754 96775,96994,96853
 2.2000e+000 97291 -4.0054e+001 -1.1300e+002 -9.9945e+000 43364 97314,97144,97118
 2.2000e+000 97268 -4.4138e+001 -1.0203e+002 -5.1315e+000 43364 97314,97118,97092
 2.2000e+000 97245 -4.3800e+001 -1.0208e+002 -7.4433e+000 43364 97386,97196,97170
 2.2000e+000 97222 -4.1409e+001 -7.5581e+001  7.7012e+000 43364 97066,97196,97092
 2.2000e+000 97340 -2.2152e+001 -9.5553e+001 -1.7476e+001 43364 97170,97144,97314
 2.2000e+000 97363 -4.2300e+001 -1.0072e+002 -8.1527e+000 43364 97386,97170,97314
 2.2000e+000 97412 -4.4371e+001 -1.0403e+002 -4.4587e+000 43364 97092,97196,97386
 2.2000e+000 97435 -4.2040e+001 -1.0267e+002 -5.2177e+000 43364 97092,97386,97314
 2.2000e+000 97788 -1.1611e+001 -4.7688e+001  9.8822e-001 42960 97563,97667,97589
 2.2000e+000 97765  3.4137e+000 -3.0537e+001 -5.7420e+000 42960 97563,97693,97667
 2.2000e+000 97742  1.3391e+001  1.7784e+001  3.6558e-001 42960 97589,97641,97615
 2.2000e+000 97719  6.9834e+000 -4.5952e+001 -4.5629e-001 42960 97589,97667,97641
 2.2000e+000 98215 -2.9783e+001 -9.5249e+001  1.7414e+000 42563 97918,98074,98048
 2.2000e+000 98192 -3.8700e+001 -9.7948e+001  3.0796e+000 42563 97892,98074,97918
 2.2000e+000 98169 -4.8967e+001 -1.3596e+002  1.0320e+001 42563 98238,97944,97918
 2.2000e+000 98146 -4.0345e+001 -1.1593e+002  9.0932e+000 42563 98238,97918,98048
 2.2000e+000 98123 -5.1789e+001 -1.1400e+002  3.5149e+000 42563 97944,98022,97996
 2.2000e+000 98100 -5.9204e+001 -1.3198e+002  2.5097e+000 42563 97944,97996,97970
 2.2000e+000 98264 -4.6727e+001 -1.2368e+002  3.7618e-001 42563 98022,97944,98238
 2.2000e+000 98287 -4.3959e+001 -1.1656e+002 -1.0383e+000 42563 98022,98238,98048
 2.2000e+000 98616 -2.2448e+001 -7.0017e+001  2.6948e+000 42251 98443,98521,98469
 2.2000e+000 98593 -1.9816e+001 -6.1710e+001  2.1108e+000 42251 98417,98521,98443
 2.2000e+000 98570 -2.4308e+001 -7.2761e+001 -1.9980e+000 42251 98391,98521,98417
 2.2000e+000 98547  6.3129e+000 -5.1269e+001 -9.6114e+000 42251 98469,98521,98495
 2.2000e+000 98886 -5.6054e+001 -1.4953e+002  3.0167e+000 41847 98661,98765,98687
 2.2000e+000 98863 -6.5204e+001 -1.4351e+002 -4.2947e+000 41847 98661,98791,98765
 2.2000e+000 98840 -5.4807e+001 -1.4583e+002  3.6060e+000 41847 98687,98765,98739
 2.2000e+000 98817 -6.7290e+001 -1.5068e+002  3.7544e+000 41847 98687,98739,98713
 2.2000e+000 99394 -2.0409e+001 -7.4965e+001 -1.7597e+001 41236 99417,99149,99123
 2.2000e+000 99371 -2.5297e+001 -6.6702e+001 -9.3521e+000 41236 99417,99123,99097
 2.2000e+000 99348 -2.4661e+001 -6.2331e+001 -1.9029e+001 41236 99489,99201,99149
 2.2000e+000 99325  3.7520e+001 -4.2947e+001 -2.7427e+001 41236 99149,99201,99175
 2.2000e+000 99302 -5.2191e+000 -5.7468e+001 -3.6252e+000 41236 99097,99253,99227
 2.2000e+000 99279 -2.5838e+001 -6.2866e+001 -4.4762e+000 41236 99071,99253,99097
 2.2000e+000 99443 -1.5764e+001 -6.3781e+001 -1.7421e+001 41236 99489,99149,99417
 2.2000e+000 99466 -2.1885e+001 -5.3027e+001 -8.1975e+000 41236 99227,99417,99097
 2.2000e+000 99515 -3.1753e+001 -6.3256e+001 -1.9358e+001 41236 99227,99201,99489
 2.2000e+000 99538 -2.6953e+001 -6.7214e+001 -1.6298e+001 41236 99227,99489,99417
 2.2000e+000 100044  2.6310e+001 -8.1864e+001 -1.3183e+001 40732 99721,99773,99747
 2.2000e+000 100021 -5.3393e+000 -1.3595e+002 -2.7070e+001 40732 99721,99799,99773
 2.2000e+000 99998 -1.2803e+001 -1.0094e+002 -2.2269e+001 40732 99721,99903,99799
 2.2000e+000 99975 -1.6072e+001 -7.4388e+001 -1.0358e+001 40732 100067,99877,99851
 2.2000e+000 99952 -7.8324e+000 -7.7604e+001 -1.5504e+001 40732 100067,99851,99799
 2.2000e+000 99929 -8.1359e+000 -7.7577e+001 -1.5756e+001 40732 99799,99851,99825
 2.2000e+000 100093 -8.7881e+000 -7.5341e+001 -1.0737e+001 40732 99903,99877,100067
 2.2000e+000 100116  1.5972e+000 -7.6599e+001 -1.6277e+001 40732 99903,100067,99799
 2.2000e+000 100622 -2.3713e+001 -1.1346e+002 -4.5737e+000 40278 100645,100455,100429
 2.2000e+000 100599 -3.4430e+001 -1.0384e+002 -7.6324e+000 40278 100717,100645,100429
 2.2000e+000 100576 -2.7657e+001 -1.0090e+002  1.6460e+000 40278 100717,100429,100377
 2.2000e+000 100553 -4.5781e+001 -1.1442e+002 -6.9134e+000 40278 100789,100325,100481
 2.2000e+000 100530 -4.5577e+001 -1.0108e+002 -2.1660e+000 40278 100299,100481,100325
 2.2000e+000 100507 -1.2173e+001 -1.1678e+002 -6.5012e+000 40278 100377,100429,100403
 2.2000e+000 100671 -3.0863e+001 -1.2015e+002 -7.3591e+000 40278 100481,100455,100645
 2.2000e+000 100694 -3.4938e+001 -1.1267e+002  1.2106e+000 40278 100789,100481,100645
 2.2000e+000 100743 -2.8130e+001 -9.4390e+001  1.7891e+000 40278 100351,100645,100717
 2.2000e+000 100766 -1.5585e+001 -9.0782e+001  1.1137e+001 40278 100351,100717,100377
 2.2000e+000 100815 -6.1646e+001 -1.2081e+002 -1.6423e+001 40278 100351,100325,100789
 2.2000e+000 100838 -5.0607e+001 -1.1355e+002 -6.4645e+000 40278 100351,100789,100645
 2.2000e+000 101265 -1.2780e+001 -8.6358e+001  1.2342e+001 39824 101288,101046,100994
 2.2000e+000 101242 -1.2422e+001 -7.0613e+001  1.1141e+001 39824 101288,100994,100968
 2.2000e+000 101219 -2.0386e+001 -6.9835e+001  2.5903e+000 39824 100942,101124,100968
 2.2000e+000 101196 -4.4559e+000 -1.0791e+002 -1.0803e+001 39824 101046,101124,101072
 2.2000e+000 101173  1.7600e+001 -6.7829e+001  2.3716e+001 39824 100994,101046,101020
 2.2000e+000 101150  3.1365e+001 -1.0293e+002 -1.2165e+001 39824 101072,101124,101098
 2.2000e+000 101314 -1.0927e+001 -7.6777e+001  6.1621e+000 39824 101124,101046,101288
 2.2000e+000 101337 -1.2896e+001 -6.8221e+001  3.1668e+000 39824 101124,101288,100968
 2.2000e+000 101585 -4.4007e+001 -1.3100e+002 -4.5235e+000 39070 101608,101464,101412
 2.2000e+000 101562 -4.4028e+001 -1.3735e+002 -3.3669e+000 39070 101608,101412,101360
 2.2000e+000 101539 -2.7358e+001 -1.2560e+002 -4.1496e+000 39070 101412,101464,101438
 2.2000e+000 101516 -5.3377e+001 -1.2841e+002  2.8503e+000 39070 101360,101412,101386
 2.2000e+000 101634 -4.2584e+001 -1.3322e+002 -5.5658e-001 39070 101490,101464,101608
 2.2000e+000 101657 -4.4383e+001 -1.4189e+002  7.0289e-001 39070 101490,101608,101360
 2.2000e+000 101856 -5.5886e+001 -1.3911e+002 -2.9361e+000 38730 101706,101758,101732
 2.2000e+000 101833 -5.4758e+001 -1.3494e+002 -4.5153e+000 38730 101706,101784,101758
 2.2000e+000 101810 -5.5138e+001 -1.3823e+002 -7.9054e+000 38730 101680,101784,101706
 2.2000e+000 102106 -4.7061e+001 -1.0080e+002 -1.3023e+001 38326 101881,101959,101907
 2.2000e+000 102083 -4.4854e+001 -9.8073e+001 -1.4725e+001 38326 101881,101985,101959
 2.2000e+000 102060 -3.9665e+001 -1.1430e+002 -5.1143e+000 38326 101881,102011,101985
 2.2000e+000 102037 -2.6377e+001 -7.5207e+001 -2.6400e+001 38326 101907,101959,101933
 2.2000e+000 102258 -5.0789e+001 -1.3907e+002 -3.5740e+000 38036 102281,102157,102131
 2.2000e+000 102235 -4.3040e+001 -1.4899e+002  1.8173e+000 38036 102281,102131,102209
 2.2000e+000 102307 -4.7325e+001 -1.3163e+002 -1.4171e+000 38036 102183,102157,102281
 2.2000e+000 102330 -3.4998e+001 -1.3581e+002  6.1324e+000 38036 102183,102281,102209
 2.2000e+000 102663  8.1469e+000 -6.0720e+001 -1.1810e+001 37596 102438,102542,102464
 2.2000e+000 102640  2.4571e+001 -4.2306e+001  1.3706e+001 37596 102438,102568,102542
 2.2000e+000 102617  8.6681e+000 -6.7069e+001 -2.2285e+001 37596 102490,102542,102516
 2.2000e+000 102594  1.7501e+000 -6.5775e+001 -1.4422e+001 37596 102464,102542,102490
 2.2000e+000 102862 -4.0546e+001 -9.9443e+001 -7.2178e+000 37192 102686,102764,102712
 2.2000e+000 102839 -3.0579e+001 -9.8725e+001 -2.1465e+001 37192 102686,102790,102764
 2.2000e+000 102816 -2.2030e+001 -9.3754e+001 -9.5448e+000 37192 102712,102764,102738
 2.2000e+000 103110 -5.4459e+000 -5.3396e+001 -2.3609e+001 36609 102911,102963,102937
 2.2000e+000 103087 -2.5349e+001 -8.5175e+001 -1.4367e+000 36609 102911,102989,102963
 2.2000e+000 103064  7.9861e+000 -8.0112e+001 -6.9275e-001 36609 102885,102989,102911
 2.2000e+000 103041  9.9501e+000 -7.2100e+001 -5.2514e+000 36609 102885,103015,102989
 2.2000e+000 103718 -1.7024e+001 -1.3408e+002 -1.5851e+001 36131 103323,103375,103349
 2.2000e+000 103695 -3.8497e+001 -1.1330e+002 -2.1079e+001 36131 103297,103375,103323
 2.2000e+000 103672 -2.7368e+001 -7.7886e+001 -1.1692e+001 36131 103297,103505,103375
 2.2000e+000 103649 -2.9114e+001 -1.1306e+002 -5.0101e+000 36131 103741,103479,103401
 2.2000e+000 103626 -1.4746e+001 -7.9996e+001  1.1565e+001 36131 103741,103401,103375
 2.2000e+000 103603 -2.6377e+001 -1.5029e+002 -5.6647e+000 36131 103401,103479,103427
 2.2000e+000 103580 -1.9855e+001 -7.4386e+001 -1.2749e+001 36131 103297,103531,103505
 2.2000e+000 103557 -1.0521e+001 -1.1525e+002 -9.5392e+000 36131 103427,103479,103453
 2.2000e+000 103767 -3.9728e+001 -1.4117e+002 -2.9458e+001 36131 103505,103479,103741
 2.2000e+000 103790 -2.3851e+001 -1.1026e+002 -1.2109e+001 36131 103505,103741,103375
 2.2000e+000 103989 -6.8243e+001 -1.2620e+002  8.2715e+000 35791 103839,103917,103891
 2.2000e+000 103966 -9.8992e+001 -1.4668e+002 -1.8088e+000 35791 103813,103917,103839
 2.2000e+000 103943  4.4489e-001 -9.3064e+001 -3.4628e+000 35791 103839,103891,103865
 2.2000e+000 104188 -4.7007e+001 -1.2449e+002 -3.1974e+000 35444 104038,104090,104064
 2.2000e+000 104165 -5.3434e+001 -1.2903e+002 -6.4574e+000 35444 104038,104116,104090
 2.2000e+000 104142 -4.1632e+001 -1.3058e+002 -3.4258e+000 35444 104012,104116,104038
 2.2000e+000 104487 -2.3726e+001 -1.1515e+002 -1.8716e+001 34990 104265,104317,104291
 2.2000e+000 104464 -3.1221e+001 -1.2201e+002 -1.2343e+001 34990 104510,104317,104265
 2.2000e+000 104441 -3.8473e+001 -1.0662e+002 -7.9963e+000 34990 104510,104265,104213
 2.2000e+000 104418 -2.2878e+001 -1.0641e+002 -2.0784e+001 34990 104582,104343,104317
 2.2000e+000 104395 -4.5930e+001 -1.2419e+002 -8.5164e+000 34990 104213,104265,104239
 2.2000e+000 104536 -2.2230e+001 -1.0576e+002 -1.5956e+001 34990 104582,104317,104510
 2.2000e+000 104559 -3.6869e+001 -1.0207e+002 -9.1101e+000 34990 104369,104510,104213
 2.2000e+000 104608 -3.2491e+001 -9.6709e+001 -1.7638e+001 34990 104369,104343,104582
 2.2000e+000 104631 -3.4149e+001 -1.1084e+002 -1.0170e+001 34990 104369,104582,104510
 2.2000e+000 104783 -2.6137e+001 -1.0098e+002  7.5886e-002 34700 104938,104806,104682
 2.2000e+000 104760 -3.4438e+001 -1.0832e+002 -6.9703e+000 34700 104938,104682,104656
 2.2000e+000 104832 -5.5130e+001 -1.1820e+002 -8.6458e+000 34700 104708,104682,104806
 2.2000e+000 104964 -1.8113e+001 -9.4897e+001  7.0064e+000 34700 104734,104806,104938
 2.2000e+000 104987 -2.5187e+001 -1.0029e+002  2.6948e-001 34700 104734,104938,104656
 2.2000e+000 105137 -5.1885e+001 -1.1439e+002  6.6339e-001 34388 105036,105088,105062
 2.2000e+000 105114 -5.6524e+001 -1.2651e+002 -2.4751e+000 34388 105010,105088,105036
 2.2000e+000 105385 -5.3055e+001 -1.0163e+002 -1.1397e+001 33734 105408,105186,105160
 2.2000e+000 105362 -4.8393e+001 -1.0593e+002 -1.5893e+001 33734 105408,105160,105264
 2.2000e+000 105339 -6.9042e+001 -1.1759e+002 -1.0609e+001 33734 105160,105290,105264
 2.2000e+000 105316 -4.1980e+001 -1.0123e+002 -3.7290e+000 33734 105186,105238,105212
 2.2000e+000 105434 -4.8524e+001 -1.0012e+002 -1.1138e+001 33734 105238,105186,105408
 2.2000e+000 105457 -3.7462e+001 -1.0124e+002 -1.5630e+001 33734 105238,105408,105264
 2.2000e+000 105609 -5.7921e+001 -1.4015e+002  2.4034e+000 33394 105482,105534,105508
 2.2000e+000 105586 -5.2511e+001 -1.3242e+002 -2.5317e+000 33394 105482,105560,105534
 2.2000e+000 105859 -3.7048e+001 -1.2051e+002 -1.4758e+000 33047 105882,105712,105660
 2.2000e+000 105836 -2.1974e+001 -1.1576e+002 -2.7952e+000 33047 105882,105660,105634
 2.2000e+000 105813 -6.7635e+001 -1.3454e+002  2.1936e+000 33047 105660,105712,105686
 2.2000e+000 105790 -5.3617e+000 -1.1605e+002  1.0681e+001 33047 105634,105764,105738
 2.2000e+000 105908 -7.2687e+001 -1.2071e+002  9.8070e+000 33047 105738,105712,105882
 2.2000e+000 105931 -3.5742e+001 -1.0484e+002  8.8157e+000 33047 105738,105882,105634
 2.2000e+000 106181  1.8545e+001 -7.6154e+001  1.8929e+000 32543 106204,106060,106008
 2.2000e+000 106158  2.2509e+001 -1.0206e+002 -5.2815e+000 32543 105956,106086,106060
 2.2000e+000 106135  3.0058e+001 -4.7706e+001  2.7773e+000 32543 106204,106008,105982
 2.2000e+000 106112  5.1930e+000 -6.1459e+001  3.9243e-001 32543 106008,106060,106034
 2.2000e+000 106230  2.6022e+001 -8.7379e+001 -1.6385e+001 32543 105956,106060,106204
 2.2000e+000 106253  3.5673e+001 -6.1225e+001 -1.6718e+001 32543 105956,106204,105982
 2.2000e+000 106454 -3.5715e+001 -1.0981e+002  1.0090e+001 31839 106304,106356,106330
 2.2000e+000 106431 -4.3793e+001 -1.1993e+002 -3.3942e+000 31839 106278,106356,106304
 2.2000e+000 106408 -5.1294e+001 -1.3025e+002  3.2864e-001 31839 106278,106382,106356
 2.2000e+000 106704 -1.9757e+001 -9.5558e+001 -2.4280e+001 31534 106505,106583,106557
 2.2000e+000 106681 -2.5165e+001 -9.5067e+001 -2.1445e+001 31534 106479,106583,106505
 2.2000e+000 106658 -4.3578e+001 -7.6642e+001 -2.8041e+001 31534 106505,106557,106531
 2.2000e+000 106635 -2.3836e+001 -9.2316e+001 -2.5699e+001 31534 106479,106609,106583
 2.2000e+000 107108 -6.9915e+001 -1.2582e+002 -7.0909e-001 31030 106886,106990,106964
 2.2000e+000 107085 -8.9953e+001 -1.5344e+002 -9.5338e+000 31030 106860,106990,106886
 2.2000e+000 107062 -4.4610e+000 -1.2082e+002 -9.8820e+000 31030 106834,106990,106860
 2.2000e+000 107039 -6.5893e+001 -1.5709e+002  1.8294e+001 31030 106912,106964,106938
 2.2000e+000 107016 -6.6448e+001 -1.2323e+002  2.6681e+000 31030 106886,106964,106912
 2.2000e+000 107307 -5.7419e+001 -1.3742e+002 -7.1482e-001 30718 107330,107157,107131
 2.2000e+000 107284 -5.8540e+001 -1.5048e+002  1.0683e+000 30718 107330,107131,107235
 2.2000e+000 107261 -6.6532e+001 -1.3804e+002 -2.5530e+000 30718 107183,107235,107209
 2.2000e+000 107356 -6.1224e+001 -1.2064e+002  7.8118e-002 30718 107183,107157,107330
 2.2000e+000 107379 -6.4503e+001 -1.3659e+002  2.0088e+000 30718 107183,107330,107235
 2.2000e+000 107759 -4.9959e+001 -1.2198e+002  2.2989e+000 30264 107782,107615,107537
 2.2000e+000 107736 -4.7069e+001 -1.1520e+002  1.2799e+000 30264 107782,107537,107485
 2.2000e+000 107713 -3.9418e+001 -1.2041e+002  1.0383e+000 30264 107485,107537,107511
 2.2000e+000 107690 -6.5111e+001 -1.2971e+002 -9.0533e-001 30264 107537,107615,107589
 2.2000e+000 107667 -6.0313e+001 -1.3371e+002 -3.9720e+000 30264 107537,107589,107563
 2.2000e+000 107808 -5.0295e+001 -1.1999e+002 -3.0517e+000 30264 107641,107615,107782
 2.2000e+000 107831 -4.7553e+001 -1.1258e+002 -3.6973e+000 30264 107641,107782,107485
 2.2000e+000 108030 -1.3687e+001 -1.3046e+002 -3.2080e+001 29874 108053,107854,107932
 2.2000e+000 108007 -3.8473e+001 -1.1714e+002 -4.4322e+001 29874 107854,107958,107932
 2.2000e+000 107984  2.0210e+001 -1.0944e+002 -2.2790e+001 29874 108053,107932,107906
 2.2000e+000 108079 -3.0070e+001 -1.0513e+002 -1.9437e+001 29874 107880,107854,108053
 2.2000e+000 108102 -1.4813e+001 -9.3978e+001 -1.4517e+001 29874 107880,108053,107906
 2.2000e+000 108433 -1.5737e+001 -9.7398e+001 -1.4437e+001 29484 108234,108338,108312
 2.2000e+000 108410  8.0904e+000 -8.9281e+001 -1.6675e+001 29484 108208,108338,108234
 2.2000e+000 108387 -1.8782e+001 -9.3314e+001 -1.7879e+001 29484 108234,108312,108260
 2.2000e+000 108364  2.2535e+001 -7.7803e+001 -7.2624e+000 29484 108260,108312,108286
 2.2000e+000 108762 -3.4114e+001 -1.2334e+002  5.8053e+000 29080 108563,108641,108589
 2.2000e+000 108739 -2.0255e+001 -8.3625e+001  4.8650e+000 29080 108537,108641,108563
 2.2000e+000 108716 -1.9887e+001 -1.2282e+002 -3.8824e+000 29080 108589,108641,108615
 2.2000e+000 108693  4.2934e-001 -6.9726e+001  2.3290e+001 29080 108537,108667,108641
 2.2000e+000 109189 -4.3341e+001 -1.0257e+002 -6.0760e+000 28476 108892,108996,108970
 2.2000e+000 109166 -5.6765e+001 -1.0145e+002 -5.7605e+000 28476 108892,109022,108996
 2.2000e+000 109143 -6.3650e+001 -1.0725e+002  4.4564e+000 28476 108892,108970,108944
 2.2000e+000 109120 -5.7830e+001 -9.5322e+001 -1.6511e+000 28476 108892,109048,109022
 2.2000e+000 109097 -4.3119e+001 -1.0589e+002  3.4053e+001 28476 108892,108944,108918
 2.2000e+000 109074 -5.7786e+001 -9.7361e+001 -1.2195e+000 28476 108866,109048,108892
 2.2000e+000 109518 -4.2214e+001 -1.1391e+002  1.1630e+001 28022 109541,109371,109345
 2.2000e+000 109495 -5.0691e+001 -1.0937e+002  1.0908e+000 28022 109541,109345,109319
 2.2000e+000 109472 -1.3224e+001 -1.0330e+002  6.0367e+000 28022 109293,109397,109319
 2.2000e+000 109449  2.3164e+001 -8.3209e+001 -2.6811e+000 28022 109293,109423,109397
 2.2000e+000 109567 -7.6403e+000 -1.0120e+002  1.9053e+001 28022 109397,109371,109541
 2.2000e+000 109590 -3.9439e+001 -1.1336e+002  7.1060e+000 28022 109397,109541,109319
 2.2000e+000 109968 -3.0619e+001 -1.0711e+002  1.6840e+001 27568 109798,109850,109824
 2.2000e+000 109945 -4.7271e+001 -1.1366e+002  2.9672e+000 27568 109694,109850,109798
 2.2000e+000 109922 -4.7890e+001 -9.7411e+001 -1.5390e+000 27568 109694,109798,109746
 2.2000e+000 109899 -5.7679e+001 -1.0310e+002 -1.0606e+001 27568 109746,109798,109772
 2.2000e+000 109876 -6.5613e+001 -1.3303e+002 -7.6346e+000 27568 109694,109746,109720
 2.2000e+000 110167 -2.2063e+001 -9.9833e+001 -1.2438e+001 27007 110017,110095,110069
 2.2000e+000 110144 -1.6154e+001 -8.9122e+001 -1.0123e+001 27007 109991,110095,110017
 2.2000e+000 110121 -5.0238e+000 -9.2848e+001 -1.1566e+001 27007 110017,110069,110043
 2.2000e+000 110415 -1.0040e+001 -1.0258e+002  2.7014e+000 26567 110438,110242,110190
 2.2000e+000 110392 -5.8128e+000 -1.2390e+002  1.0606e+001 26567 110438,110190,110320
 2.2000e+000 110369 -3.9638e+001 -9.2622e+001  8.6047e+000 26567 110242,110294,110268
 2.2000e+000 110346 -1.8315e+001 -1.1736e+002  1.1381e+001 26567 110190,110242,110216
 2.2000e+000 110464 -7.6501e+000 -9.7557e+001  3.5095e+000 26567 110294,110242,110438
 2.2000e+000 110487  3.6980e+000 -1.0393e+002  1.3466e+001 26567 110294,110438,110320
 2.2000e+000 110639 -7.9948e+000 -8.8470e+001 -7.0346e+000 26170 110538,110590,110564
 2.2000e+000 110616 -1.9049e+001 -5.5793e+001 -1.6908e+001 26170 110512,110590,110538
 2.2000e+000 111149 -5.8925e+001 -1.1840e+002 -6.6071e+000 25716 111172,110878,110852
 2.2000e+000 111126 -5.2974e+001 -1.2952e+002 -1.2095e+000 25716 111172,110852,111008
 2.2000e+000 111103 -3.9431e+001 -1.2382e+002 -2.2882e+001 25716 110878,110930,110904
 2.2000e+000 111080 -4.4913e+001 -1.3162e+002 -8.4984e+000 25716 110826,111008,110852
 2.2000e+000 111057 -4.9009e+001 -1.1185e+002  7.3387e+000 25716 110930,111008,110956
 2.2000e+000 111034 -5.6473e+001 -1.1905e+002  1.1028e+001 25716 110956,111008,110982
 2.2000e+000 111198 -5.7523e+001 -1.1021e+002 -5.7573e+000 25716 110930,110878,111172
 2.2000e+000 111221 -5.0052e+001 -1.1904e+002  6.5037e-001 25716 110930,111172,111008
 2.2000e+000 111420 -5.8411e+001 -1.3365e+002 -1.2435e+000 25304 111443,111270,111244
 2.2000e+000 111397 -5.2448e+001 -1.4316e+002 -2.1021e+000 25304 111443,111244,111348
 2.2000e+000 111374 -5.4116e+001 -1.2713e+002  5.8327e+000 25304 111270,111322,111296
 2.2000e+000 111469 -5.4211e+001 -1.2991e+002  5.2108e-001 25304 111322,111270,111443
 2.2000e+000 111492 -4.5672e+001 -1.3665e+002  7.0060e-001 25304 111322,111443,111348
 2.2000e+000 111691  7.3749e+000 -7.5543e+001  1.9572e+001 24736 111567,111619,111593
 2.2000e+000 111668  1.1792e+000 -8.1577e+001  1.4590e+001 24736 111541,111619,111567
 2.2000e+000 111645  3.2524e+000 -7.8091e+001  1.6443e+001 24736 111515,111619,111541
 2.2000e+000 112024 -4.5386e+001 -1.3196e+002  4.6644e+000 24146 111825,111877,111851
 2.2000e+000 112001 -5.3833e+001 -1.2501e+002 -5.5182e+000 24146 111825,111903,111877
 2.2000e+000 111978 -3.4872e+001 -1.1068e+002 -1.3961e+001 24146 111825,111929,111903
 2.2000e+000 111955 -4.2271e+001 -1.0959e+002 -1.1982e+001 24146 111799,111929,111825
 2.2000e+000 112370 -2.5595e+001 -1.1846e+002 -7.1404e+000 23856 112393,112151,112125
 2.2000e+000 112347 -2.3508e+001 -1.1514e+002 -6.1862e+000 23856 112465,112393,112125
 2.2000e+000 112324 -2.5906e+001 -1.1378e+002 -1.7603e+000 23856 112465,112125,112073
 2.2000e+000 112301 -2.5625e+001 -1.0758e+002 -2.7331e+000 23856 112073,112125,112099
 2.2000e+000 112278 -7.1341e+001 -1.4198e+002 -1.9630e+001 23856 112047,112229,112073
 2.2000e+000 112255 -3.7270e+000 -1.1447e+002 -2.3139e+001 23856 112151,112203,112177
 2.2000e+000 112419 -1.9315e+001 -1.1697e+002 -6.2146e+000 23856 112203,112151,112393
 2.2000e+000 112442 -2.6572e+001 -1.2258e+002 -8.6910e+000 23856 112203,112393,112229
 2.2000e+000 112491 -3.1355e+001 -1.1907e+002 -8.0641e+000 23856 112229,112393,112465
 2.2000e+000 112514 -3.2260e+001 -1.1621e+002 -3.2351e+000 23856 112229,112465,112073
 2.2000e+000 112784 -2.3331e+001 -1.0489e+002  6.0131e-001 23494 112611,112663,112637
 2.2000e+000 112761 -1.2925e+001 -8.5174e+001  5.5656e+000 23494 112585,112663,112611
 2.2000e+000 112738 -3.1110e+001 -9.2994e+001  4.1730e+000 23494 112559,112663,112585
 2.2000e+000 112715 -1.0981e+001 -5.2913e+001 -2.7602e+000 23494 112559,112689,112663
 2.2000e+000 113117 -4.7679e+001 -8.9674e+001 -3.8867e-001 22974 112944,113022,112996
 2.2000e+000 113094 -5.3100e+001 -1.0127e+002  4.4208e+000 22974 112918,113022,112944
 2.2000e+000 113071 -5.1613e+001 -1.0605e+002 -7.0899e+000 22974 112944,112996,112970
 2.2000e+000 113048 -5.5556e+001 -1.0372e+002  1.7165e+000 22974 112892,113022,112918
 2.2000e+000 113414 -2.3155e+001 -1.0821e+002 -1.2649e+000 22370 113192,113296,113218
 2.2000e+000 113391 -2.1198e+001 -9.7337e+001  1.2712e+000 22370 113140,113296,113192
 2.2000e+000 113368 -3.0575e+001 -1.2387e+002  6.0136e+000 22370 113218,113296,113270
 2.2000e+000 113345 -2.9895e+001 -1.2498e+002  7.1436e+000 22370 113218,113270,113244
 2.2000e+000 113322 -2.4093e+001 -1.0113e+002  4.4291e+000 22370 113140,113192,113166
 2.2000e+000 113662 -2.6847e+001 -9.7706e+001 -3.1593e+000 21916 113685,113515,113489
 2.2000e+000 113639 -3.2067e+001 -1.0820e+002 -5.9983e+000 21916 113685,113489,113437
 2.2000e+000 113616 -1.3275e+001 -1.0824e+002 -2.7379e+000 21916 113757,113567,113541
 2.2000e+000 113593 -3.0818e+001 -1.0581e+002 -4.4158e+000 21916 113437,113489,113463
 2.2000e+000 113711 -3.1542e+001 -1.1052e+002 -2.2975e+000 21916 113541,113515,113685
 2.2000e+000 113734 -2.4189e+001 -1.0783e+002 -3.8532e+000 21916 113757,113541,113685
 2.2000e+000 113783 -2.6351e+001 -1.1362e+002 -5.1751e+000 21916 113437,113567,113757
 2.2000e+000 113806 -3.0942e+001 -1.0967e+002 -6.8326e+000 21916 113437,113757,113685
 2.2000e+000 114056 -2.4986e+001 -1.1160e+002 -2.9153e+000 21412 113857,113909,113883
 2.2000e+000 114033 -2.5224e+001 -1.0508e+002 -7.9497e-001 21412 114079,113909,113857
 2.2000e+000 114010 -3.0288e+001 -1.0788e+002  4.9318e-001 21412 114079,113857,113961
 2.2000e+000 113987 -2.7789e+001 -1.0010e+002  3.8919e+000 21412 113831,113961,113857
 2.2000e+000 114105 -2.9351e+001 -1.0200e+002 -3.2535e+000 21412 113935,113909,114079
 2.2000e+000 114128 -3.2891e+001 -1.0443e+002 -2.1408e+000 21412 113935,114079,113961
 2.2000e+000 114378 -3.4866e+001 -1.0274e+002 -1.9352e+001 21022 114401,114257,114205
 2.2000e+000 114355 -4.0184e+001 -1.2128e+002 -1.6158e+001 21022 114401,114205,114179
 2.2000e+000 114332 -2.1164e+001 -1.2199e+002 -1.9724e-002 21022 114153,114283,114179
 2.2000e+000 114309 -3.6174e+001 -6.8835e+001 -5.4005e+000 21022 114205,114257,114231
 2.2000e+000 114427 -3.5322e+001 -1.1051e+002 -4.2946e+000 21022 114283,114257,114401
 2.2000e+000 114450 -3.8467e+001 -1.2707e+002 -1.6462e+000 21022 114283,114401,114179
 2.2000e+000 114651 -9.4261e+001 -1.3742e+002 -4.2735e+000 20618 114501,114553,114527
 2.2000e+000 114628 -7.7781e+001 -1.3198e+002 -2.7780e+000 20618 114501,114579,114553
 2.2000e+000 114605 -8.3130e+001 -1.2556e+002 -1.3532e+000 20618 114475,114579,114501
 2.2000e+000 114901 -3.8450e+001 -1.2324e+002  2.5912e+000 20114 114676,114780,114702
 2.2000e+000 114878 -4.4464e+001 -1.2366e+002  2.7650e-001 20114 114676,114806,114780
 2.2000e+000 114855 -3.0255e+001 -1.1934e+002  4.4429e+000 20114 114702,114780,114754
 2.2000e+000 114832 -3.0569e+001 -1.3404e+002  1.8346e+001 20114 114702,114754,114728
 2.2000e+000 115053 -2.6298e+001 -1.1900e+002  1.3851e+000 19460 115147,115076,114926
 2.2000e+000 115030 -2.9758e+001 -1.1490e+002  2.9980e-001 19460 115147,114926,115004
 2.2000e+000 115102 -2.8172e+001 -1.2360e+002  1.7824e+000 19460 114952,114926,115076
 2.2000e+000 115173 -2.9073e+001 -1.2508e+002  2.1218e-001 19460 114978,115076,115147
 2.2000e+000 115196 -3.2247e+001 -1.2026e+002 -1.1181e+000 19460 114978,115147,115004
 2.2000e+000 115446 -5.3733e+001 -1.3463e+002 -4.6438e+000 19006 115273,115351,115299
 2.2000e+000 115423 -5.2925e+001 -1.2675e+002 -1.0717e+000 19006 115247,115351,115273
 2.2000e+000 115400 -4.9468e+001 -1.2539e+002 -1.5791e+000 19006 115221,115351,115247
 2.2000e+000 115377 -5.7156e+001 -1.3445e+002 -1.3867e+000 19006 115299,115351,115325
 2.2000e+000 115767 -3.2732e+001 -1.1096e+002  4.6706e+000 18716 115571,115649,115623
 2.2000e+000 115744 -3.1340e+001 -1.1964e+002  8.9625e+000 18716 115493,115649,115571
 2.2000e+000 115721 -2.3622e+001 -1.2069e+002  4.6604e+000 18716 115493,115571,115545
 2.2000e+000 115698 -1.1989e+001 -1.0602e+002  1.8107e+001 18716 115493,115545,115519
 2.2000e+000 115675 -2.8561e+001 -1.1132e+002  2.8223e-001 18716 115571,115623,115597
 2.2000e+000 116039 -2.2748e+001 -9.9765e+001 -2.0101e+000 18312 115814,115892,115840
 2.2000e+000 116016 -2.5245e+001 -1.0617e+002 -9.8124e-001 18312 115814,115944,115892
 2.2000e+000 115993 -1.9739e+001 -1.0274e+002  9.6171e-001 18312 115892,115944,115918
 2.2000e+000 115970 -5.9145e+001 -1.1388e+002 -1.2740e+000 18312 115840,115892,115866
 2.2000e+000 116191 -5.2368e+001 -1.4090e+002  6.6873e-002 18000 116090,116142,116116
 2.2000e+000 116168 -5.7054e+001 -1.4326e+002 -2.7582e+000 18000 116064,116142,116090
 2.2000e+000 116343 -6.9287e+001 -1.6740e+002 -2.9201e+000 17396 116242,116294,116268
 2.2000e+000 116320 -6.7575e+001 -1.5517e+002  2.6564e+000 17396 116216,116294,116242
 2.2000e+000 116566 -3.0366e+001 -1.1099e+002 -4.4058e+000 16942 116390,116468,116442
 2.2000e+000 116543  1.8361e+001 -1.1991e+002 -7.9611e+000 16942 116390,116494,116468
 2.2000e+000 116520 -2.6287e+001 -1.0153e+002 -1.9569e+000 16942 116390,116442,116416
 2.2000e+000 116767 -1.1806e+001 -1.1024e+002 -1.8768e+000 16438 116790,116643,116617
 2.2000e+000 116744 -3.0853e+001 -1.1185e+002 -5.9709e+000 16438 116790,116617,116591
 2.2000e+000 116721  7.7364e+000 -8.8083e+001 -6.6743e+000 16438 116643,116695,116669
 2.2000e+000 116816 -5.0953e+000 -1.1128e+002 -1.3694e+000 16438 116695,116643,116790
 2.2000e+000 116839 -1.1393e+001 -1.0468e+002 -6.1591e+000 16438 116695,116790,116591
 2.2000e+000 117062 -4.4006e+001 -1.4052e+002 -5.3918e+000 16074 116886,116938,116912
 2.2000e+000 117039 -4.8307e+001 -1.5162e+002  7.5304e+000 16074 116886,116990,116938
 2.2000e+000 117016 -2.9814e+001 -1.0858e+002  1.4965e+001 16074 116938,116990,116964
 2.2000e+000 117214 -2.7226e+000 -9.7225e+001  1.7598e+000 15649 117087,117139,117113
 2.2000e+000 117191 -2.2431e+001 -1.0497e+002  7.9878e-001 15649 117087,117165,117139
 2.2000e+000 117317 -6.3635e+001 -1.2163e+002 -1.6474e+001 421 117239,117291,117265
 2.3000e+000 70632 -9.6318e+001 -2.3769e+002 -7.7959e+000 70072 70482,70534,70508
 2.3000e+000 70609 -8.8084e+001 -2.1812e+002 -5.8611e+000 70072 70482,70560,70534
 2.3000e+000 70586 -1.0545e+002 -2.2683e+002 -5.2424e+000 70072 70456,70560,70482
 2.3000e+000 70951 -8.9246e+001 -4.0528e+002  0.0000e+000 69874 70703,70755,70729
 2.3000e+000 70928 -1.9999e+001 -3.8279e+002 -6.3099e+001 69874 70703,70781,70755
 2.3000e+000 70905  6.2980e+001 -6.2032e+001 -2.4169e+001 69874 70703,70807,70781
 2.3000e+000 70882 -4.7969e+001 -3.3158e+002 -2.2806e+000 69874 70703,70833,70807
 2.3000e+000 70859 -9.2238e+001 -3.5835e+002  1.5318e+001 69874 70677,70833,70703
 2.3000e+000 71199 -2.0289e+001 -1.0769e+002  1.0315e+001 69698 71222,71052,71026
 2.3000e+000 71176 -9.5606e+000 -1.0785e+002  1.3180e+001 69698 71294,71222,71026
 2.3000e+000 71153 -2.0181e+001 -9.3924e+001 -3.8018e+001 69698 71294,71026,71000
 2.3000e+000 71130 -6.4107e+001 -9.6646e+001  1.8641e+001 69698 71366,71104,71078
 2.3000e+000 71248 -1.3434e+001 -7.6551e+001  1.5246e+001 69698 71078,71052,71222
 2.3000e+000 71271 -1.2675e+001 -7.7122e+001  1.3755e+001 69698 71366,71078,71222
 2.3000e+000 71320  7.4129e+001 -6.4440e+001 -3.6517e+000 69698 70974,71222,71294
 2.3000e+000 71343  7.8987e+001 -5.2042e+001 -4.9771e+001 69698 70974,71294,71000
 2.3000e+000 71392  4.1512e+000 -9.3871e+001  2.7448e+001 69698 70974,71104,71366
 2.3000e+000 71415  1.4079e+001 -1.0129e+002  3.0404e+001 69698 70974,71366,71222
 2.3000e+000 71516 -3.0381e+001 -2.1127e+002 -3.8761e+001 69386 71438,71490,71464
 2.3000e+000 71869 -1.5243e+001 -8.5814e+001  7.2271e+000 69188 71644,71748,71670
 2.3000e+000 71846  1.7016e+001 -8.0468e+001  2.3778e+001 69188 71644,71774,71748
 2.3000e+000 71823  1.0131e+001 -3.7872e+001 -2.1986e+000 69188 71670,71748,71722
 2.3000e+000 71800 -3.3437e+001 -1.5571e+002 -1.8026e+001 69188 71670,71722,71696
 2.3000e+000 72019 -6.8355e+001 -1.7250e+002 -2.9521e+000 68990 71918,71970,71944
 2.3000e+000 71996 -6.0770e+001 -1.9007e+002  4.5444e+000 68990 71892,71970,71918
 2.3000e+000 72316  3.0384e+001  1.0045e+001 -2.0813e+001 68586 72339,72172,72146
 2.3000e+000 72293  1.6555e+001 -4.8220e+000 -1.3301e+001 68586 72339,72146,72120
 2.3000e+000 72270  1.2178e+001  3.7654e+000 -7.1059e+000 68586 72411,72068,72198
 2.3000e+000 72247  1.7536e+000  6.9415e+000 -4.9499e+000 68586 72042,72198,72068
 2.3000e+000 72224  5.0222e+000  1.6767e+000  7.1039e-001 68586 72068,72120,72094
 2.3000e+000 72365  1.5315e+001  8.2906e+000 -1.1794e+001 68586 72198,72172,72339
 2.3000e+000 72388  1.3247e+001  3.6661e+000 -6.6572e+000 68586 72411,72198,72339
 2.3000e+000 72437  9.6125e+000  3.3093e+000 -7.9642e+000 68586 72120,72068,72411
 2.3000e+000 72460  1.1175e+001  3.8433e+000 -7.3033e+000 68586 72120,72411,72339
 2.3000e+000 72864  9.6470e+000 -7.3578e+001  1.5887e+000 68388 72642,72694,72668
 2.3000e+000 72841 -1.5119e+000 -1.0022e+002  3.9871e+000 68388 72616,72694,72642
 2.3000e+000 72818  1.1688e+001 -7.2224e+001  7.8300e+000 68388 72616,72720,72694
 2.3000e+000 72795 -8.6958e+000 -1.2472e+002  1.5218e+001 68388 72590,72720,72616
 2.3000e+000 72772  3.9780e+001 -8.1668e+001  4.8787e+001 68388 72590,72746,72720
 2.3000e+000 73321 -1.5068e+001  1.4411e-001 -5.7809e+000 68048 73073,73203,73177
 2.3000e+000 73298 -2.2651e+000  7.2031e+000 -2.1297e+000 68048 73047,73203,73073
 2.3000e+000 73275 -2.3178e+001 -1.7517e+001 -3.7699e+000 68048 73125,73177,73151
 2.3000e+000 73252  1.8408e+000 -1.1920e+001 -8.7796e+000 68048 73073,73177,73125
 2.3000e+000 73229  7.5596e+000 -2.4025e+001 -5.6996e+000 68048 73073,73125,73099
 2.3000e+000 73640  3.3253e+001 -1.1691e+002 -4.1412e-001 67850 73444,73496,73470
 2.3000e+000 73617  1.4144e+000 -1.0395e+002  1.2937e+000 67850 73418,73496,73444
 2.3000e+000 73594  3.1856e+000 -1.0100e+002 -8.1626e-001 67850 73392,73496,73418
 2.3000e+000 73571 -2.8101e+001 -1.2343e+002 -1.3095e+001 67850 73392,73522,73496
 2.3000e+000 73548 -6.0697e+001 -1.8485e+002  7.6971e-001 67850 73366,73522,73392
 2.3000e+000 73790  7.2673e+000 -5.4172e+001 -1.8861e+000 67602 73689,73741,73715
 2.3000e+000 73767  2.1120e+001 -2.0214e+001 -1.1501e+000 67602 73663,73741,73689
 2.3000e+000 74040  1.4597e+001 -6.0947e+001 -1.1315e+001 67290 73841,73945,73919
 2.3000e+000 74017  4.9991e+001 -5.3062e+001 -2.3482e+001 67290 73815,73945,73841
 2.3000e+000 73994  2.0694e+001 -8.1780e+000 -1.9668e+001 67290 73841,73919,73867
 2.3000e+000 73971  2.0573e+001 -1.7128e+001 -3.2031e+000 67290 73867,73919,73893
 2.3000e+000 74143  1.3307e+000 -3.0477e-001  4.7293e-001 67092 74065,74117,74091
 2.3000e+000 74415 -3.2258e+001 -2.3018e+002 -5.9653e+001 66894 74190,74294,74216
 2.3000e+000 74392 -2.1959e+001 -2.1787e+002 -1.7722e+001 66894 74190,74320,74294
 2.3000e+000 74369  2.4504e+001 -9.0807e+001 -5.0236e+001 66894 74216,74294,74242
 2.3000e+000 74346 -1.6110e+001 -1.7021e+002 -3.2721e+001 66894 74242,74294,74268
 2.3000e+000 75023  2.6250e+002 -3.7818e+001 -6.0562e+001 66532 74654,74836,74810
 2.3000e+000 75000 -3.5340e+001 -5.5105e+001 -6.8901e+001 66532 74628,74836,74654
 2.3000e+000 74977  1.5182e+001 -1.5077e+001  1.0690e+000 66532 74706,74784,74732
 2.3000e+000 74954  9.3911e+000 -3.2271e+001  8.3847e-002 66532 74680,74784,74706
 2.3000e+000 74931  1.0326e+002 -9.2844e+000  9.3893e+000 66532 74680,74810,74784
 2.3000e+000 74908  1.2352e+001 -5.0842e+001 -5.5961e+001 66532 74654,74810,74680
 2.3000e+000 74885 -6.0548e+001 -8.3632e+001 -8.2630e+001 66532 74602,74836,74628
 2.3000e+000 74862 -1.5297e+001 -8.1170e+000  1.7026e+001 66532 74732,74784,74758
 2.3000e+000 75222 -2.5792e+000 -1.0792e+002 -1.6485e+000 66242 75072,75150,75124
 2.3000e+000 75199 -1.0264e+001 -1.0776e+002  8.7534e-001 66242 75046,75150,75072
 2.3000e+000 75176  3.8424e+000 -8.5968e+001 -7.8509e-001 66242 75072,75124,75098
 2.3000e+000 75470 -1.1158e+000 -6.3746e+001 -1.0190e+001 65838 75297,75375,75349
 2.3000e+000 75447  7.0959e+000 -2.8660e+001 -6.7120e+000 65838 75271,75375,75297
 2.3000e+000 75424  3.0197e+001 -4.5236e+001 -2.0772e+000 65838 75297,75349,75323
 2.3000e+000 75401 -1.7816e+000 -2.8169e+001  6.0074e+000 65838 75245,75375,75271
 2.3000e+000 75671 -1.1256e+001 -8.4831e+000 -1.6474e+001 65640 75495,75573,75521
 2.3000e+000 75648 -1.4583e+001 -1.2753e+001 -1.0588e+001 65640 75495,75599,75573
 2.3000e+000 75625 -1.0481e+001 -4.6365e+001 -4.1937e+001 65640 75521,75573,75547
 2.3000e+000 75872  1.2814e+000 -1.9457e+001 -1.5398e+001 65300 75895,75748,75722
 2.3000e+000 75849  7.5782e+000 -4.0971e+001 -2.8109e+001 65300 75895,75722,75696
 2.3000e+000 75826  1.1989e+001 -9.7171e+000 -6.2938e+001 65300 75967,75774,75748
 2.3000e+000 75921  1.6569e+001 -2.2912e+001 -3.2319e+001 65300 75967,75748,75895
 2.3000e+000 75944 -1.4357e+001 -8.2343e+001 -1.9758e+001 65300 75800,75895,75696
 2.3000e+000 75993 -4.1135e+001 -2.9676e+001 -5.1191e+001 65300 75800,75774,75967
 2.3000e+000 76016 -3.7922e+001 -4.4588e+001 -2.6087e+001 65300 75800,75967,75895
 2.3000e+000 76371  5.0868e+000 -9.8136e+000 -3.3225e+000 64896 76146,76250,76172
 2.3000e+000 76348  5.2906e+000 -8.5869e+000 -2.8860e+000 64896 76146,76276,76250
 2.3000e+000 76325 -2.0679e-001 -2.2976e+000 -1.4411e+000 64896 76172,76250,76198
 2.3000e+000 76302  4.5379e-001  8.0452e-001  7.7808e-001 64896 76198,76250,76224
 2.3000e+000 76570  5.4598e+000 -1.7471e+001 -7.0236e+000 64442 76446,76498,76472
 2.3000e+000 76547  1.7652e+001  1.8616e+001 -2.6247e+000 64442 76420,76498,76446
 2.3000e+000 76524  1.9971e+000 -3.3341e+001 -2.5006e+000 64442 76394,76498,76420
 2.3000e+000 76999  2.2698e+001 -8.0066e+001 -9.1115e-001 63924 77022,76728,76702
 2.3000e+000 76976 -1.5147e+000 -5.5778e+001 -3.2559e+001 63924 77022,76702,76832
 2.3000e+000 76953  9.1656e-001 -8.6460e+001  3.6841e+001 63924 76728,76806,76754
 2.3000e+000 76930 -6.0720e+000 -2.9679e+001  8.2233e+000 63924 76676,76832,76702
 2.3000e+000 76907 -2.9556e+001 -1.1733e+002  2.4577e+001 63924 76754,76806,76780
 2.3000e+000 76884  1.7153e+000 -5.4288e+000  3.6782e+000 63924 76676,76858,76832
 2.3000e+000 77048  1.4518e+001 -1.1649e+002 -1.1456e+001 63924 76806,76728,77022
 2.3000e+000 77071 -1.5079e+001 -9.9584e+001 -4.4681e+001 63924 76806,77022,76832
 2.3000e+000 77449 -6.6508e+000 -1.8787e+001  1.0389e+001 63320 77472,77253,77201
 2.3000e+000 77426 -1.6194e+001 -2.0295e+001  1.2106e+001 63320 77472,77201,77175
 2.3000e+000 77403  4.2716e-001 -2.9603e+001  4.1503e+000 63320 77175,77305,77279
 2.3000e+000 77380  3.1661e-003 -4.1731e+000 -1.1787e+000 63320 77201,77253,77227
 2.3000e+000 77357 -1.5253e+000 -2.8599e+001 -2.8139e+000 63320 77175,77331,77305
 2.3000e+000 77498  7.5478e+000 -1.7138e+001  9.3064e-001 63320 77279,77253,77472
 2.3000e+000 77521 -9.3813e+000 -2.4114e+001  3.5350e+000 63320 77279,77472,77175
 2.3000e+000 77769 -8.5173e+000 -8.7364e+001  5.8798e+000 62816 77570,77622,77596
 2.3000e+000 77746 -2.6718e+001 -8.8600e+001  1.5479e+001 62816 77570,77648,77622
 2.3000e+000 77723  4.1168e+000 -6.5182e+001 -1.7247e+001 62816 77570,77674,77648
 2.3000e+000 77700 -3.6995e+000 -2.1265e+001  9.2448e+000 62816 77544,77674,77570
 2.3000e+000 78149 -1.3382e+001 -6.4136e+001 -1.0323e+001 62354 77953,78031,78005
 2.3000e+000 78126 -2.2843e+001 -5.3646e+001 -1.2060e+001 62354 77901,78031,77953
 2.3000e+000 78103 -5.3675e+000 -4.5284e+001  3.9396e-001 62354 77875,78031,77901
 2.3000e+000 78080 -5.9544e+000 -9.3131e+001 -3.5222e+001 62354 77901,77953,77927
 2.3000e+000 78057 -2.2684e+001 -6.0296e+001 -1.4462e+001 62354 77953,78005,77979
 2.3000e+000 78606  1.5483e+001 -3.1829e+001  2.2703e+001 61950 78384,78436,78410
 2.3000e+000 78583  3.1099e+001 -4.3426e+001 -2.9222e+000 61950 78358,78436,78384
 2.3000e+000 78560  2.0873e+001 -1.8516e+001 -1.6031e+001 61950 78358,78488,78436
 2.3000e+000 78537  5.6036e+000 -5.6749e+001 -1.3284e+001 61950 78436,78488,78462
 2.3000e+000 78514  2.1376e+001 -4.0474e+000 -8.4723e+000 61950 78332,78488,78358
 2.3000e+000 78756  1.4090e+001 -7.8503e+001 -7.0836e+000 61339 78779,78655,78629
 2.3000e+000 78733  4.2181e+000 -7.0401e+001 -3.6786e+000 61339 78779,78629,78707
 2.3000e+000 78805 -4.9871e+000 -1.2520e+002  1.1776e+001 61339 78851,78779,78681
 2.3000e+000 78828  2.9083e+001 -8.9008e+001 -9.0948e+000 61339 78681,78779,78707
 2.3000e+000 78877  1.4677e+001 -7.4459e+001 -5.6017e+000 61339 78655,78779,78851
 2.3000e+000 79206 -1.4275e+001 -3.6549e+001 -7.2119e+000 60892 79229,79007,78981
 2.3000e+000 79183 -1.0057e+001 -2.2930e+001 -3.4282e+000 60892 79229,78981,79111
 2.3000e+000 79160 -1.0506e+001 -4.1728e+001 -8.6277e+000 60892 79301,79033,79007
 2.3000e+000 79137 -7.9497e+000 -2.1375e+001  1.3596e+001 60892 79033,79085,79059
 2.3000e+000 79255 -1.2631e+001 -3.6652e+001 -1.2543e+001 60892 79301,79007,79229
 2.3000e+000 79278 -1.1298e+001 -3.3297e+001 -1.1469e+001 60892 79085,79229,79111
 2.3000e+000 79327 -1.6897e+001 -5.4128e+001 -4.6544e+000 60892 79085,79033,79301
 2.3000e+000 79350 -1.3055e+001 -4.5301e+001 -1.0772e+001 60892 79085,79301,79229
 2.3000e+000 79647 -6.0466e+001 -1.3753e+002 -1.4131e+001 60488 79451,79529,79503
 2.3000e+000 79624 -3.8797e+001 -9.3594e+001 -2.3246e+001 60488 79425,79529,79451
 2.3000e+000 79601 -5.6953e+001 -1.0695e+002 -2.9043e+001 60488 79373,79529,79425
 2.3000e+000 79578 -4.0377e+001 -1.0288e+002 -1.6388e+001 60488 79373,79425,79399
 2.3000e+000 79555 -1.3153e+001 -9.4670e+001  3.9617e+000 60488 79451,79503,79477
 2.3000e+000 79870 -1.2618e+001 -9.7815e+001 -2.4899e-001 60026 79720,79798,79772
 2.3000e+000 79847  1.8831e-001 -1.1615e+002 -9.7285e+000 60026 79694,79798,79720
 2.3000e+000 79824  1.4630e+001 -9.1123e+001 -1.3013e+001 60026 79720,79772,79746
 2.3000e+000 80120 -3.8743e+001 -7.4845e+001 -1.2036e+001 59629 79921,80025,79973
 2.3000e+000 80097 -4.1202e+001 -5.6686e+001  9.4157e-002 59629 79895,80025,79921
 2.3000e+000 80074 -3.0026e+001 -6.0123e+001 -2.1376e+001 59629 79973,80025,79999
 2.3000e+000 80051 -2.7748e+001 -5.7764e+001 -1.8242e+001 59629 79921,79973,79947
 2.3000e+000 80321 -3.2513e+000 -5.5331e+001  2.7850e+000 59125 80344,80171,80145
 2.3000e+000 80298  1.4956e+001 -6.6326e+001 -8.9451e+000 59125 80344,80145,80249
 2.3000e+000 80275  3.7076e+001 -4.1076e+001 -7.7435e+000 59125 80197,80249,80223
 2.3000e+000 80370  1.6104e+001 -4.7039e+001  4.7878e+000 59125 80197,80171,80344
 2.3000e+000 80393  3.2976e+001 -5.8736e+001 -6.9538e+000 59125 80197,80344,80249
 2.3000e+000 80952  2.8943e+000 -1.1169e+002  2.8811e+001 58557 80975,80632,80606
 2.3000e+000 80929  6.2202e+000 -1.7464e+001  4.6940e+000 58557 81119,80975,80606
 2.3000e+000 80906 -1.6475e+001 -9.8906e+001 -2.5249e+001 58557 81047,80684,80632
 2.3000e+000 80883  2.0298e+001 -1.3850e+001 -1.2338e+001 58557 81119,80606,80580
 2.3000e+000 80860 -8.2091e+000 -1.3426e+002  4.5472e+000 58557 81191,80736,80710
 2.3000e+000 80837 -1.9859e+001 -9.5857e+001 -1.6779e+001 58557 80736,80788,80762
 2.3000e+000 80814 -2.4335e+001 -6.1395e+001 -2.0386e+001 58557 80632,80684,80658
 2.3000e+000 81001  6.1751e+000 -1.2275e+002 -8.0302e+000 58557 81047,80632,80975
 2.3000e+000 81024  1.3508e+001 -9.3117e+001  1.2708e+001 58557 81191,80710,80975
 2.3000e+000 81073  4.0329e+000 -6.1925e+001 -1.6957e+001 58557 80710,80684,81047
 2.3000e+000 81096  2.8701e+001 -8.8125e+001  1.6896e+000 58557 80710,81047,80975
 2.3000e+000 81145  2.6099e-001 -3.6431e+001  1.2298e+001 58557 80788,80975,81119
 2.3000e+000 81168  4.8962e+000 -3.3502e+001 -3.0344e+000 58557 80788,81119,80580
 2.3000e+000 81217 -2.1596e+001 -9.3712e+001 -1.0641e+001 58557 80788,80736,81191
 2.3000e+000 81240 -1.5306e+001 -7.8943e+001 -8.7670e+000 58557 80788,81191,80975
 2.3000e+000 81537  1.5264e+001 -1.0891e+002  6.0100e-001 57881 81560,81341,81289
 2.3000e+000 81514 -1.0527e+001 -1.2053e+002  1.6999e+001 57881 81560,81289,81263
 2.3000e+000 81491 -1.0190e+001 -1.0057e+002 -6.5299e+000 57881 81632,81419,81367
 2.3000e+000 81468 -6.1266e+000 -1.0238e+002 -4.1499e+001 57881 81367,81419,81393
 2.3000e+000 81445 -1.0399e+001 -1.3090e+002  1.0399e+001 57881 81289,81341,81315
 2.3000e+000 81586  1.3321e+001 -7.4785e+001 -2.2548e+001 57881 81367,81341,81560
 2.3000e+000 81609 -7.8582e+000 -1.0711e+002 -9.3469e+000 57881 81632,81367,81560
 2.3000e+000 81658 -4.3813e+000 -9.0092e+001 -3.9474e+000 57881 81263,81419,81632
 2.3000e+000 81681 -2.3502e+000 -9.8785e+001 -6.4245e+000 57881 81263,81632,81560
 2.3000e+000 81929 -1.8499e+001 -7.3543e+001 -1.0637e+001 57477 81704,81808,81782
 2.3000e+000 81906 -1.2096e+001 -9.3167e+001 -2.5017e+000 57477 81704,81834,81808
 2.3000e+000 81883 -3.1963e+001 -8.1977e+001  1.5928e+000 57477 81704,81782,81730
 2.3000e+000 81860  3.1304e+001 -8.6696e+001 -1.2847e+000 57477 81730,81782,81756
 2.3000e+000 82488  9.6257e+000 -7.9486e+001 -6.3507e+000 56966 82583,82511,82194
 2.3000e+000 82465  1.0353e+001 -6.1242e+001  5.7773e+000 56966 82511,82116,82324
 2.3000e+000 82442  7.9515e+000 -9.7176e+001 -1.1730e+000 56966 82583,82194,82168
 2.3000e+000 82419  2.0622e-001 -8.2653e+001  1.1185e+001 56966 82194,82246,82220
 2.3000e+000 82396 -2.4777e+000 -8.6351e+001  4.3376e+000 56966 82194,82298,82246
 2.3000e+000 82373  5.1496e+000 -4.0993e+001  1.1570e+001 56966 82246,82298,82272
 2.3000e+000 82350  4.4499e+000 -1.1957e+002 -1.5274e+001 56966 82116,82168,82142
 2.3000e+000 82537  5.9254e+000 -6.3097e+001  5.5264e+000 56966 82298,82194,82511
 2.3000e+000 82560  4.6905e+001 -1.0853e+001  3.2185e+001 56966 82298,82511,82324
 2.3000e+000 82609  5.7995e+000 -5.9428e+001 -7.8356e+000 56966 82116,82511,82583
 2.3000e+000 82632  8.4097e+000 -7.3015e+001 -4.6086e+000 56966 82116,82583,82168
 2.3000e+000 83236 -8.5978e-001 -2.1997e+001 -5.3177e+000 56304 82893,82945,82919
 2.3000e+000 83213  4.0274e+000 -3.2145e+001  1.4391e+001 56304 83259,82945,82893
 2.3000e+000 83190  5.5290e+000 -5.3028e+001  3.6755e+000 56304 83259,82893,83049
 2.3000e+000 83167  6.7088e+000 -4.1739e+001 -7.7762e+000 56304 82971,83049,83023
 2.3000e+000 83144  5.5160e+000 -5.0027e+001  1.7141e+000 56304 82815,83049,82893
 2.3000e+000 83121 -7.0827e+000 -7.8082e+001  5.7089e+000 56304 82815,82893,82867
 2.3000e+000 83098 -2.9861e+001 -1.1547e+002  6.2856e+000 56304 82971,83023,82997
 2.3000e+000 83075 -8.6464e+000 -5.4776e+001 -1.7872e+000 56304 82815,82867,82841
 2.3000e+000 83285 -7.6302e+000 -6.2115e+001  1.7291e+001 56304 82971,82945,83259
 2.3000e+000 83308  4.3117e+000 -6.3594e+001  2.9232e+000 56304 82971,83259,83049
 2.3000e+000 83556 -8.0078e+001 -1.7984e+002 -8.1381e-001 55964 83357,83461,83435
 2.3000e+000 83533 -8.3779e+001 -1.2580e+002  2.5365e+001 55964 83331,83461,83357
 2.3000e+000 83510 -4.9426e+001 -1.8767e+002  1.5326e+001 55964 83357,83435,83383
 2.3000e+000 83487 -2.6814e+001 -2.2180e+002  8.1452e-002 55964 83383,83435,83409
 2.3000e+000 83706  7.9190e+000 -4.0151e+001  1.2667e+001 55503 83579,83631,83605
 2.3000e+000 83683  7.5375e+000 -5.8709e+001  1.7268e+001 55503 83579,83657,83631
 2.3000e+000 83907  1.2204e+001 -1.0428e+002  3.4399e+000 55156 83757,83835,83809
 2.3000e+000 83884  1.1476e+001 -8.5675e+001  3.8843e+001 55156 83731,83835,83757
 2.3000e+000 83861  4.7142e+000 -7.0944e+001  1.0785e+001 55156 83757,83809,83783
 2.3000e+000 84240 -2.2094e+001 -1.0993e+002  4.9539e+000 54652 84093,84145,84119
 2.3000e+000 84217 -1.8014e+001 -7.9058e+001  3.8599e+000 54652 84041,84145,84093
 2.3000e+000 84194 -1.6658e+001 -1.2077e+002  2.2981e+001 54652 84015,84145,84041
 2.3000e+000 84171 -4.7940e+000 -7.4707e+001 -4.8646e-001 54652 84041,84093,84067
 2.3000e+000 84618 -5.9109e+001 -1.7546e+002  1.1881e+001 53926 84396,84500,84474
 2.3000e+000 84595 -8.6431e+001 -2.2170e+002  3.0359e-001 53926 84344,84500,84396
 2.3000e+000 84572 -7.3527e+001 -2.0051e+002 -1.1070e+001 53926 84344,84396,84370
 2.3000e+000 84549 -5.7444e+001 -1.6931e+002 -2.2748e+000 53926 84396,84474,84422
 2.3000e+000 84526 -7.6835e+001 -1.3091e+002 -8.4168e-001 53926 84422,84474,84448
 2.3000e+000 85350 -3.4255e+001 -1.3384e+002 -2.7768e+001 53586 85373,84880,85088
 2.3000e+000 85327 -4.0078e+001 -9.4668e+001 -4.6214e+001 53586 84880,85114,85088
 2.3000e+000 85304 -1.1291e+001 -1.1735e+002 -8.9958e+000 53586 85373,85088,85062
 2.3000e+000 85281 -2.0196e+001 -9.6195e+001 -3.8710e+001 53586 85010,85062,85036
 2.3000e+000 85258 -3.0604e+001 -9.7686e+001 -2.4263e+001 53586 85445,85010,84958
 2.3000e+000 85235 -2.5572e+001 -8.1807e+001  8.9231e+000 53586 85445,84958,84906
 2.3000e+000 85212 -2.5341e+001 -9.5116e+001 -2.6305e+001 53586 84958,85010,84984
 2.3000e+000 85189 -3.4199e+001 -1.7002e+002  1.3061e+001 53586 84906,84958,84932
 2.3000e+000 85166 -2.5979e+001 -9.1706e+001 -4.6290e+001 53586 84880,85140,85114
 2.3000e+000 85399 -3.3964e+001 -1.0944e+002 -4.6518e+000 53586 84906,84880,85373
 2.3000e+000 85422 -1.4032e+001 -8.9439e+001  8.1343e+000 53586 85517,85373,85062
 2.3000e+000 85471 -6.4576e+000 -4.1022e+001 -3.2307e+001 53586 85062,85010,85445
 2.3000e+000 85494 -2.1916e+001 -7.0517e+001  7.7762e+000 53586 85517,85062,85445
 2.3000e+000 85543 -2.2254e+001 -1.1689e+002  2.6802e+000 53586 84906,85373,85517
 2.3000e+000 85566 -2.9598e+001 -9.8490e+001  4.3365e+000 53586 84906,85517,85445
 2.3000e+000 86072 -9.1832e+000 -8.7629e+001 -3.9065e+000 53182 86095,85853,85775
 2.3000e+000 86049 -2.7891e+000 -7.4047e+001 -6.6920e+000 53182 86095,85775,85931
 2.3000e+000 86026 -9.2226e+000 -9.9160e+001  2.7047e+001 53182 86167,85879,85853
 2.3000e+000 86003 -4.2877e+000 -1.1082e+002 -2.6532e+001 53182 85775,85827,85801
 2.3000e+000 85980 -4.2895e+001 -1.3263e+002 -3.5791e+001 53182 85775,85853,85827
 2.3000e+000 85957 -6.8207e-001 -7.3515e+001 -5.8530e+000 53182 85749,85931,85775
 2.3000e+000 86121  7.9895e+000 -7.8519e+001 -3.7695e-002 53182 86167,85853,86095
 2.3000e+000 86144  1.7422e+001 -9.6320e+001 -6.3238e+000 53182 85905,86095,85931
 2.3000e+000 86193 -1.2239e+001 -1.1560e+002  3.5987e+001 53182 85905,85879,86167
 2.3000e+000 86216 -1.1316e+001 -1.3085e+002  9.0943e+000 53182 85905,86167,86095
 2.3000e+000 86673  1.9467e+001 -1.0760e+002 -2.2957e+001 52778 86477,86529,86503
 2.3000e+000 86650  7.1750e+000 -9.1138e+001  4.6887e-001 52778 86425,86529,86477
 2.3000e+000 86627 -1.1150e+001 -5.7571e+001 -3.0363e+001 52778 86425,86477,86451
 2.3000e+000 86604 -3.1891e+001 -7.8583e+001 -5.8010e+000 52778 86399,86529,86425
 2.3000e+000 86581 -2.8948e+001 -7.8096e+001 -4.7924e+000 52778 86399,86555,86529
 2.3000e+000 87258 -4.1732e+001 -2.2529e+002 -5.4564e+001 52238 87281,86987,86961
 2.3000e+000 87235 -1.6786e+001 -1.6386e+002  5.2100e+000 52238 87281,86961,87117
 2.3000e+000 87212 -2.6732e+001 -8.8786e+001 -1.7272e+000 52238 86935,87117,86961
 2.3000e+000 87189  1.4639e+001 -8.6347e+001  1.1311e+001 52238 87065,87117,87091
 2.3000e+000 87166 -4.6946e+000 -1.0944e+002 -3.6684e+001 52238 86987,87065,87039
 2.3000e+000 87143  1.1385e+001 -7.4367e+001 -6.1162e+001 52238 86987,87039,87013
 2.3000e+000 87307  3.5159e+000 -1.1767e+002 -3.8286e+001 52238 87065,86987,87281
 2.3000e+000 87330 -3.2960e+000 -1.2682e+002  2.1570e+001 52238 87065,87281,87117
 2.3000e+000 87610  2.6841e+001 -3.6578e+001  4.3318e+000 51834 87434,87512,87460
 2.3000e+000 87587 -5.7768e+000 -4.7670e+001  9.5603e+000 51834 87434,87538,87512
 2.3000e+000 87564  6.0228e+000  2.6316e+001 -2.3296e+000 51834 87633,87460,87512
 2.3000e+000 87659  2.1684e-001  2.3824e+001 -2.5858e+000 51834 87486,87460,87633
 2.3000e+000 88187 -3.4008e+001 -1.6985e+002 -9.1377e+000 51266 87864,87942,87890
 2.3000e+000 88164  5.4771e+000 -9.3738e+001  6.9829e+000 51266 87864,88020,87942
 2.3000e+000 88141 -1.9019e+001 -1.0448e+002  5.2935e+000 51266 87942,88020,87968
 2.3000e+000 88118 -9.8307e+000 -1.8461e+002 -4.5026e+000 51266 87864,88046,88020
 2.3000e+000 88095  3.2970e+001 -9.6628e+001  2.3922e+001 51266 87968,88020,87994
 2.3000e+000 88072  2.3700e+001 -1.5154e+002 -5.1649e+001 51266 87890,87942,87916
 2.3000e+000 88644 -4.5308e+001 -4.7956e+001 -3.2645e+001 50754 88370,88500,88396
 2.3000e+000 88621 -5.3920e+001 -1.0846e+002 -1.7372e+001 50754 88370,88526,88500
 2.3000e+000 88598 -2.6820e+001 -7.9565e+001 -8.6869e+001 50754 88396,88500,88422
 2.3000e+000 88575 -4.1669e+001 -1.6797e+002 -6.6931e+001 50754 88422,88500,88474
 2.3000e+000 88552 -4.5511e+001 -1.1665e+002  4.7344e+001 50754 88422,88474,88448
 2.3000e+000 88914 -3.5272e+001 -1.6202e+002  1.0920e+001 50442 88715,88793,88741
 2.3000e+000 88891 -1.3230e+001 -1.6221e+002  6.1417e+000 50442 88715,88819,88793
 2.3000e+000 88868 -2.8060e+001 -1.7475e+002  6.8727e-001 50442 88689,88819,88715
 2.3000e+000 88845 -5.0525e+001 -1.5662e+002  3.6171e+001 50442 88741,88793,88767
 2.3000e+000 89294 -1.0133e+001 -1.7439e+002  1.5837e+001 49938 89317,89046,89020
 2.3000e+000 89271 -9.3681e+000 -1.7623e+002  1.5343e+001 49938 89317,89020,89150
 2.3000e+000 89248 -2.5558e+001 -1.5827e+002  1.5615e+001 49938 89072,89150,89098
 2.3000e+000 89225  2.4668e+001 -2.0128e+002  6.0225e+001 49938 89020,89176,89150
 2.3000e+000 89202 -1.5631e+001 -1.4131e+002  1.1051e+001 49938 89098,89150,89124
 2.3000e+000 89343 -4.2781e+000 -1.5514e+002  1.7989e+001 49938 89072,89046,89317
 2.3000e+000 89366 -1.2363e+001 -1.7402e+002  1.7201e+001 49938 89072,89317,89150
 2.3000e+000 89823  6.5329e-001 -8.5997e+001 -1.1086e+001 49384 89601,89705,89679
 2.3000e+000 89800 -1.3645e+001 -6.5921e+001 -3.7750e+001 49384 89549,89705,89601
 2.3000e+000 89777 -3.0454e+001 -1.1888e+002 -2.7296e+001 49384 89549,89601,89575
 2.3000e+000 89754 -4.8255e+001 -9.8853e+001 -1.7490e+001 49384 89601,89679,89627
 2.3000e+000 89731 -5.6281e+001 -1.3872e+002 -3.8959e+001 49384 89627,89679,89653
 2.3000e+000 90329  8.3490e+000 -1.1480e+002 -1.9872e+001 48894 90058,90110,90084
 2.3000e+000 90306 -3.3869e+001 -1.3289e+002 -2.0308e+001 48894 90058,90162,90110
 2.3000e+000 90283 -5.3831e+001 -1.1692e+002 -2.4895e+001 48894 90032,90162,90058
 2.3000e+000 90260 -5.0390e+001 -1.2081e+002 -1.0394e+001 48894 90006,90162,90032
 2.3000e+000 90237 -2.3765e+001 -1.5079e+002 -2.8207e+001 48894 90110,90162,90136
 2.3000e+000 90214 -4.0150e+001 -1.1693e+002 -1.0104e+001 48894 90006,90188,90162
 2.3000e+000 90884 -5.6274e+001 -1.6090e+002 -9.5572e+000 48490 90564,90642,90616
 2.3000e+000 90861 -6.5330e+001 -1.6569e+002 -7.6283e+000 48490 90564,90694,90642
 2.3000e+000 90838 -3.6526e+001 -1.5298e+002 -4.9834e+000 48490 90538,90694,90564
 2.3000e+000 90815 -3.5122e+001 -1.7478e+002  7.0648e+000 48490 90538,90720,90694
 2.3000e+000 90792 -4.7991e+001 -1.5095e+002 -1.9053e+001 48490 90564,90616,90590
 2.3000e+000 90769 -6.3377e+001 -1.8967e+002 -4.2129e+001 48490 90642,90694,90668
 2.3000e+000 90746 -7.2465e+000 -1.5036e+002  3.0898e+001 48490 90512,90720,90538
 2.3000e+000 91034  2.3015e+001 -1.2842e+002  1.2591e+001 48086 91057,90959,90933
 2.3000e+000 91011  4.0963e+001 -1.1722e+002  3.1661e+001 48086 91129,91057,90933
 2.3000e+000 91083 -5.3595e+000 -1.3377e+002  1.1399e+001 48086 90985,90959,91057
 2.3000e+000 91106  6.1221e+000 -1.2547e+002  1.6621e+001 48086 90985,91057,90907
 2.3000e+000 91155 -2.0528e+001 -1.4465e+002  2.5078e+001 48086 90907,91057,91129
 2.3000e+000 91791 -6.1372e+000 -6.4506e+001  3.2295e+001 47518 92030,91814,91523
 2.3000e+000 91768 -1.5637e+001 -8.2192e+001  1.9493e+000 47518 91958,91814,91471
 2.3000e+000 91745 -2.2759e+001 -1.1807e+002  1.6785e+001 47518 91886,91575,91523
 2.3000e+000 91722 -2.5299e+001 -6.4197e+001 -3.8690e+001 47518 91958,91471,91419
 2.3000e+000 91699 -1.8159e+001 -7.8011e+001  3.8566e+001 47518 92030,91523,91497
 2.3000e+000 91676 -4.0830e+001 -1.0407e+002  1.5215e+001 47518 91523,91575,91549
 2.3000e+000 91653 -4.8321e+001 -3.5250e+001 -3.1395e+001 47518 91419,91471,91445
 2.3000e+000 91840 -1.1852e+001 -9.7296e+001  3.4175e+001 47518 91886,91523,91814
 2.3000e+000 91863  1.9750e+001 -4.0664e+001  2.2895e+001 47518 91601,91814,91627
 2.3000e+000 91912 -4.2044e+001 -1.2983e+002 -1.3402e+001 47518 91601,91575,91886
 2.3000e+000 91935 -3.2445e+001 -8.5373e+001  3.6186e+000 47518 91601,91886,91814
 2.3000e+000 91984  3.6981e+001 -6.6788e+001 -3.1897e+000 47518 91627,91814,91958
 2.3000e+000 92007  9.8206e+000 -5.4713e+001 -3.6495e+001 47518 91627,91958,91419
 2.3000e+000 92056 -3.5079e+000 -5.4684e+001  2.0413e+001 47518 91471,91814,92030
 2.3000e+000 92079 -8.4769e+000 -6.2321e+001  2.5198e+001 47518 91471,92030,91497
 2.3000e+000 92229  1.3581e+001  7.2994e+000  3.0872e+001 47128 92252,92128,92102
 2.3000e+000 92206  3.0217e+001  2.3515e+001  2.0309e+001 47128 92324,92252,92102
 2.3000e+000 92278  2.6373e+001  1.6214e+001  2.1725e+001 47128 92454,92252,92154
 2.3000e+000 92301  5.6396e+001  2.9476e+001 -1.3308e+000 47128 92154,92252,92180
 2.3000e+000 92350  4.2907e+000  8.6784e+000  1.1865e+001 47128 92180,92252,92324
 2.3000e+000 92480 -3.0684e+000 -5.6695e+000  1.1256e+001 47128 92128,92252,92454
 2.3000e+000 93340 -4.7103e+001 -1.3590e+002 -2.0735e+001 46838 93363,92977,92873
 2.3000e+000 93317 -4.6422e+001 -1.3648e+002 -1.6771e+001 46838 93507,93363,92873
 2.3000e+000 93294 -3.3381e+001 -1.3518e+002 -1.2755e+000 46838 93435,93003,92977
 2.3000e+000 93271 -9.5133e+001 -1.3658e+002 -1.3855e+001 46838 93507,92873,92847
 2.3000e+000 93248 -3.1876e+001 -1.4211e+002  1.7892e+000 46838 93579,93029,93003
 2.3000e+000 93225 -5.1564e+001 -2.1592e+002  3.2912e+001 46838 92873,92951,92925
 2.3000e+000 93202 -6.8181e+001 -1.5787e+002 -1.1377e+001 46838 92873,92977,92951
 2.3000e+000 93179 -1.2442e+001 -1.1898e+002  6.9874e+000 46838 93055,93107,93081
 2.3000e+000 93156 -6.3569e+001 -1.1207e+002 -1.7460e+001 46838 92821,93107,92847
 2.3000e+000 93133 -4.3293e+001 -1.7881e+002  2.9156e+001 46838 92873,92925,92899
 2.3000e+000 93389 -3.1566e+001 -1.3883e+002 -3.1275e+000 46838 93435,92977,93363
 2.3000e+000 93412  7.8186e+000 -1.3151e+002  2.7522e+000 46838 93055,93363,93107
 2.3000e+000 93461 -3.5344e+001 -1.4206e+002 -2.0003e+000 46838 93579,93003,93435
 2.3000e+000 93484 -3.0443e+001 -1.4852e+002 -2.8579e+000 46838 93055,93435,93363
 2.3000e+000 93533 -1.1947e+001 -1.3324e+002 -2.7289e+001 46838 93107,93363,93507
 2.3000e+000 93556 -3.0772e+001 -1.1178e+002 -2.6192e+001 46838 93107,93507,92847
 2.3000e+000 93605 -2.2058e+001 -1.3883e+002  3.6640e+000 46838 93055,93029,93579
 2.3000e+000 93628 -2.5903e+001 -1.3874e+002  4.3827e-002 46838 93055,93579,93435
 2.3000e+000 93979 -7.6184e+001 -2.1379e+002 -1.1774e+000 46476 93780,93884,93858
 2.3000e+000 93956 -7.2489e+001 -2.2591e+002  2.8922e+000 46476 93754,93884,93780
 2.3000e+000 93933 -6.6489e+001 -2.4004e+002 -2.6612e+000 46476 93806,93858,93832
 2.3000e+000 93910 -5.4270e+001 -2.0328e+002 -4.5468e+000 46476 93780,93858,93806
 2.3000e+000 94515  3.9488e-001 -5.3176e+001 -1.1735e+001 46072 94345,94397,94371
 2.3000e+000 94492 -2.8028e+001 -6.8568e+001  4.8059e+000 46072 94267,94397,94345
 2.3000e+000 94469 -1.9817e+001 -1.0440e+002 -4.5527e+000 46072 94241,94397,94267
 2.3000e+000 94446 -4.0016e+001 -7.3162e+001 -4.1229e+000 46072 94293,94345,94319
 2.3000e+000 94423 -4.5301e+001 -8.7212e+001 -2.6434e+000 46072 94267,94345,94293
 2.3000e+000 95149 -3.9296e+001 -1.5439e+002  6.1871e+000 45346 94803,94881,94855
 2.3000e+000 95126 -3.2348e+001 -1.3601e+002 -3.0002e+000 45346 94803,94959,94881
 2.3000e+000 95103 -2.4077e+001 -1.5552e+002 -1.0347e+001 45346 95172,94933,94907
 2.3000e+000 95080 -3.9273e+001 -1.9919e+002 -3.9069e+000 45346 95172,94907,94881
 2.3000e+000 95057 -5.7166e+001 -1.3709e+002 -2.3468e+000 45346 94803,94985,94959
 2.3000e+000 95034 -3.9448e+001 -1.7688e+002  2.6746e+000 45346 94803,94855,94829
 2.3000e+000 95011 -6.2471e+001 -1.4315e+002  1.5109e+001 45346 94777,94985,94803
 2.3000e+000 95198 -4.1226e+001 -1.3417e+002 -5.9730e+000 45346 94959,94933,95172
 2.3000e+000 95221 -4.1596e+001 -1.5799e+002 -3.9951e+000 45346 94959,95172,94881
 2.3000e+000 95776  1.9518e-001 -1.4761e+002 -3.0753e+001 44720 95799,95560,95534
 2.3000e+000 95753 -2.9024e+001 -1.2720e+002 -2.7501e+001 44720 95799,95534,95482
 2.3000e+000 95730 -4.3842e+001 -1.4041e+002 -3.4339e+001 44720 95943,95871,95430
 2.3000e+000 95707 -5.1412e+001 -1.3418e+002 -3.4159e+001 44720 95943,95430,95404
 2.3000e+000 95684 -6.4206e+001 -1.2182e+002 -3.1187e+001 44720 95430,95482,95456
 2.3000e+000 95661  2.4663e+001 -9.6011e+001 -6.9361e+000 44720 95482,95534,95508
 2.3000e+000 95638 -7.7697e+001 -1.3887e+002 -5.2417e+001 44720 95404,95612,95586
 2.3000e+000 95825 -3.3755e+001 -1.9478e+002 -5.0275e+001 44720 95586,95560,95799
 2.3000e+000 95848 -2.0210e+001 -1.3787e+002 -3.7055e+001 44720 95871,95586,95799
 2.3000e+000 95897 -3.1371e+001 -1.3250e+002 -2.9217e+001 44720 95482,95430,95871
 2.3000e+000 95920 -3.7205e+001 -1.4782e+002 -3.0732e+001 44720 95482,95871,95799
 2.3000e+000 95969 -2.7922e+001 -1.3576e+002 -4.1795e+001 44720 95586,95871,95943
 2.3000e+000 95992 -4.2282e+001 -1.3567e+002 -4.0634e+001 44720 95586,95943,95404
 2.3000e+000 96449 -5.4472e+000 -1.0541e+002 -9.5028e+000 44202 96544,96472,96227
 2.3000e+000 96426 -1.2070e+000 -9.5447e+001  1.2955e+001 44202 96472,96175,96331
 2.3000e+000 96403  1.6102e+001 -1.1913e+002 -6.7008e+000 44202 96544,96227,96201
 2.3000e+000 96380 -2.6664e+001 -1.5067e+002 -2.2109e+001 44202 96253,96305,96279
 2.3000e+000 96357 -3.0871e+001 -1.1183e+002 -1.5551e+001 44202 96227,96305,96253
 2.3000e+000 96498 -3.5383e+000 -8.4172e+001 -2.9229e+000 44202 96305,96227,96472
 2.3000e+000 96521  1.2220e+001 -6.7040e+001  1.8606e+001 44202 96305,96472,96331
 2.3000e+000 96570  1.3927e+001 -8.2815e+001 -1.2074e+000 44202 96175,96472,96544
 2.3000e+000 96593  2.7613e+001 -1.0615e+002 -1.5893e+000 44202 96175,96544,96201
 2.3000e+000 96971  4.3980e+000 -1.2721e+002 -5.6744e+000 43754 96994,96749,96697
 2.3000e+000 96948 -3.1067e+000 -1.3208e+002 -3.5757e+000 43754 96994,96697,96853
 2.3000e+000 96925 -3.7416e+000 -1.4075e+002 -2.3101e+000 43754 96697,96749,96723
 2.3000e+000 96902 -3.9434e+001 -1.7595e+002  2.2335e+000 43754 96775,96853,96827
 2.3000e+000 96879 -6.6205e+000 -1.8251e+002  4.3385e+000 43754 96775,96827,96801
 2.3000e+000 97020  3.9401e+000 -1.1627e+002 -1.5775e+001 43754 96775,96749,96994
 2.3000e+000 97043 -9.6962e+000 -1.2533e+002 -1.1799e+001 43754 96775,96994,96853
 2.3000e+000 97291 -4.3417e+001 -1.5447e+002 -1.5898e+001 43364 97314,97144,97118
 2.3000e+000 97268 -4.4454e+001 -1.3766e+002 -8.4393e+000 43364 97314,97118,97092
 2.3000e+000 97245 -4.8133e+001 -1.3693e+002 -9.4864e+000 43364 97386,97196,97170
 2.3000e+000 97222 -4.6599e+001 -9.8543e+001  1.3048e+001 43364 97066,97196,97092
 2.3000e+000 97340 -2.2666e+001 -1.2813e+002 -2.4889e+001 43364 97170,97144,97314
 2.3000e+000 97363 -4.6299e+001 -1.3344e+002 -1.1662e+001 43364 97386,97170,97314
 2.3000e+000 97412 -4.9681e+001 -1.4145e+002 -5.2802e+000 43364 97092,97196,97386
 2.3000e+000 97435 -4.7176e+001 -1.3908e+002 -7.6975e+000 43364 97092,97386,97314
 2.3000e+000 97788 -8.2421e+000 -7.0433e+001  9.4949e+000 42960 97563,97667,97589
 2.3000e+000 97765 -2.0892e+001 -5.7248e+001  7.0812e+000 42960 97563,97693,97667
 2.3000e+000 97742  1.8449e+001  2.1365e+001  2.5171e+000 42960 97589,97641,97615
 2.3000e+000 97719  3.1673e+000 -7.6368e+001  4.0746e+000 42960 97589,97667,97641
 2.3000e+000 98215 -1.0578e+001 -1.3712e+002  7.3672e+000 42563 97918,98074,98048
 2.3000e+000 98192 -3.8495e+001 -1.2218e+002  2.8140e+001 42563 97892,98074,97918
 2.3000e+000 98169 -5.4172e+001 -2.0878e+002  2.0592e+001 42563 98238,97944,97918
 2.3000e+000 98146 -4.3443e+001 -1.8351e+002  2.4855e+001 42563 98238,97918,98048
 2.3000e+000 98123 -5.3608e+001 -1.6032e+002  7.9892e+000 42563 97944,98022,97996
 2.3000e+000 98100 -5.9535e+001 -1.7250e+002  1.0577e+001 42563 97944,97996,97970
 2.3000e+000 98264 -5.7609e+001 -1.9539e+002  8.1567e+000 42563 98022,97944,98238
 2.3000e+000 98287 -5.3257e+001 -1.8655e+002  1.1516e+001 42563 98022,98238,98048
 2.3000e+000 98616 -3.5016e+001 -9.5139e+001  2.2873e+000 42251 98443,98521,98469
 2.3000e+000 98593 -2.9533e+001 -9.4388e+001 -1.1199e+000 42251 98417,98521,98443
 2.3000e+000 98570 -3.0796e+001 -9.7644e+001 -3.5139e+000 42251 98391,98521,98417
 2.3000e+000 98547 -7.0713e+000 -6.8906e+001 -2.2562e+001 42251 98469,98521,98495
 2.3000e+000 98886 -4.5730e+001 -1.8267e+002  1.1648e+001 41847 98661,98765,98687
 2.3000e+000 98863 -4.7065e+001 -1.2199e+002 -3.1818e+001 41847 98661,98791,98765
 2.3000e+000 98840 -5.7013e+001 -1.9505e+002  6.7817e+000 41847 98687,98765,98739
 2.3000e+000 98817 -7.0662e+001 -2.0212e+002  9.4623e+000 41847 98687,98739,98713
 2.3000e+000 99394 -3.4169e+001 -1.0377e+002 -2.1038e+001 41236 99417,99149,99123
 2.3000e+000 99371 -4.9347e+001 -1.0169e+002 -1.5406e+001 41236 99417,99123,99097
 2.3000e+000 99348 -4.7113e+001 -9.4970e+001 -2.8965e+001 41236 99489,99201,99149
 2.3000e+000 99325  4.2600e+001 -6.5817e+001 -3.9154e+001 41236 99149,99201,99175
 2.3000e+000 99302 -1.8454e+001 -1.0560e+002 -3.9358e+000 41236 99097,99253,99227
 2.3000e+000 99279 -5.8328e+001 -1.3386e+002 -1.6551e+001 41236 99071,99253,99097
 2.3000e+000 99443 -3.4001e+001 -9.7135e+001 -2.6604e+001 41236 99489,99149,99417
 2.3000e+000 99466 -4.2950e+001 -8.8144e+001 -1.7288e+001 41236 99227,99417,99097
 2.3000e+000 99515 -5.7522e+001 -9.6258e+001 -2.9488e+001 41236 99227,99201,99489
 2.3000e+000 99538 -5.0446e+001 -1.0212e+002 -2.4983e+001 41236 99227,99489,99417
 2.3000e+000 100044  1.7152e+001 -1.3327e+002 -1.9350e+001 40732 99721,99773,99747
 2.3000e+000 100021 -2.0018e+001 -1.9980e+002 -3.5463e+001 40732 99721,99799,99773
 2.3000e+000 99998 -3.0896e+001 -1.5478e+002 -2.8478e+001 40732 99721,99903,99799
 2.3000e+000 99975 -1.9255e+001 -1.1952e+002 -1.3420e+001 40732 100067,99877,99851
 2.3000e+000 99952 -1.5146e+001 -1.1400e+002 -1.5280e+001 40732 100067,99851,99799
 2.3000e+000 99929 -9.7600e+000 -1.0508e+002 -2.4592e+001 40732 99799,99851,99825
 2.3000e+000 100093 -1.4519e+001 -1.2626e+002 -1.6341e+001 40732 99903,99877,100067
 2.3000e+000 100116 -8.4593e+000 -1.1797e+002 -1.9029e+001 40732 99903,100067,99799
 2.3000e+000 100622 -3.6562e+001 -1.5678e+002 -6.7405e+000 40278 100645,100455,100429
 2.3000e+000 100599 -5.6231e+001 -1.4188e+002 -1.1280e+001 40278 100717,100645,100429
 2.3000e+000 100576 -5.3172e+001 -1.4058e+002  1.5292e+000 40278 100717,100429,100377
 2.3000e+000 100553 -6.4925e+001 -1.6922e+002 -1.6342e+001 40278 100789,100325,100481
 2.3000e+000 100530 -4.3593e+001 -1.2359e+002  1.1529e+000 40278 100299,100481,100325
 2.3000e+000 100507 -5.8184e+001 -1.3916e+002  2.4196e+000 40278 100377,100429,100403
 2.3000e+000 100671 -4.2603e+001 -1.6069e+002 -8.5331e+000 40278 100481,100455,100645
 2.3000e+000 100694 -4.6739e+001 -1.6160e+002 -3.7434e+000 40278 100789,100481,100645
 2.3000e+000 100743 -4.8271e+001 -1.2405e+002 -9.5422e+000 40278 100351,100645,100717
 2.3000e+000 100766 -4.5660e+001 -1.2548e+002  4.0139e+000 40278 100351,100717,100377
 2.3000e+000 100815 -9.3235e+001 -1.8029e+002 -3.9528e+001 40278 100351,100325,100789
 2.3000e+000 100838 -7.1543e+001 -1.5777e+002 -2.3554e+001 40278 100351,100789,100645
 2.3000e+000 101265 -3.3088e+001 -1.3009e+002  6.5518e+000 39824 101288,101046,100994
 2.3000e+000 101242 -2.4115e+001 -1.0478e+002  9.3991e+000 39824 101288,100994,100968
 2.3000e+000 101219 -3.3334e+001 -1.0376e+002 -4.1708e+000 39824 100942,101124,100968
 2.3000e+000 101196 -3.8952e+001 -1.4689e+002 -1.0907e+001 39824 101046,101124,101072
 2.3000e+000 101173 -3.4477e+000 -1.0933e+002  2.2278e+001 39824 100994,101046,101020
 2.3000e+000 101150  1.7711e+001 -1.3646e+002 -1.4305e+001 39824 101072,101124,101098
 2.3000e+000 101314 -3.5451e+001 -1.1535e+002 -3.7323e+000 39824 101124,101046,101288
 2.3000e+000 101337 -3.3526e+001 -1.0419e+002 -4.3711e+000 39824 101124,101288,100968
 2.3000e+000 101585 -3.9280e+001 -1.6214e+002 -1.7175e+001 39070 101608,101464,101412
 2.3000e+000 101562 -3.3792e+001 -1.7106e+002 -1.1535e+001 39070 101608,101412,101360
 2.3000e+000 101539 -3.7794e-002 -1.3787e+002 -6.3401e+000 39070 101412,101464,101438
 2.3000e+000 101516 -5.9140e+001 -1.7676e+002  2.5763e+000 39070 101360,101412,101386
 2.3000e+000 101634 -4.1936e+001 -1.6581e+002 -1.3359e+001 39070 101490,101464,101608
 2.3000e+000 101657 -4.0178e+001 -1.7796e+002 -7.0633e+000 39070 101490,101608,101360
 2.3000e+000 101856 -5.1130e+001 -1.7405e+002 -1.2238e+000 38730 101706,101758,101732
 2.3000e+000 101833 -3.5478e+001 -1.6321e+002 -6.0605e+000 38730 101706,101784,101758
 2.3000e+000 101810 -4.4601e+001 -1.7566e+002 -1.6149e+001 38730 101680,101784,101706
 2.3000e+000 102106 -5.8015e+001 -1.3068e+002 -1.7482e+001 38326 101881,101959,101907
 2.3000e+000 102083 -5.7239e+001 -1.3071e+002 -1.8642e+001 38326 101881,101985,101959
 2.3000e+000 102060 -4.7198e+001 -1.5216e+002 -5.7042e+000 38326 101881,102011,101985
 2.3000e+000 102037 -3.3606e+001 -1.0016e+002 -3.3418e+001 38326 101907,101959,101933
 2.3000e+000 102258 -6.0468e+001 -1.8595e+002 -5.9251e+000 38036 102281,102157,102131
 2.3000e+000 102235 -3.8460e+001 -2.0483e+002  4.7344e+000 38036 102281,102131,102209
 2.3000e+000 102307 -4.5699e+001 -1.7457e+002 -6.7655e-001 38036 102183,102157,102281
 2.3000e+000 102330 -1.2636e+001 -1.8054e+002  1.4734e+001 38036 102183,102281,102209
 2.3000e+000 102663 -3.1039e+001 -8.2747e+001 -7.1333e+000 37596 102438,102542,102464
 2.3000e+000 102640  2.1903e+001 -4.5378e+001  2.8018e+001 37596 102438,102568,102542
 2.3000e+000 102617  3.3504e+001 -9.8213e+001 -3.1854e+001 37596 102490,102542,102516
 2.3000e+000 102594  4.7746e+000 -8.1072e+001  5.8514e+000 37596 102464,102542,102490
 2.3000e+000 102862 -5.1075e+001 -1.2505e+002 -1.1106e+001 37192 102686,102764,102712
 2.3000e+000 102839 -3.9395e+001 -1.2297e+002 -2.7165e+001 37192 102686,102790,102764
 2.3000e+000 102816 -2.3847e+001 -1.1853e+002 -1.3679e+001 37192 102712,102764,102738
 2.3000e+000 103110 -1.2504e+001 -7.5836e+001 -3.1310e+001 36609 102911,102963,102937
 2.3000e+000 103087 -3.0972e+001 -1.1203e+002 -5.3259e+000 36609 102911,102989,102963
 2.3000e+000 103064 -7.2209e+000 -1.1412e+002 -7.7614e+000 36609 102885,102989,102911
 2.3000e+000 103041 -2.1659e+001 -8.5745e+001 -2.6052e+001 36609 102885,103015,102989
 2.3000e+000 103718  1.1862e+001 -2.1309e+002 -5.2273e+000 36131 103323,103375,103349
 2.3000e+000 103695 -5.5834e+001 -1.4397e+002 -2.3450e+001 36131 103297,103375,103323
 2.3000e+000 103672 -4.6415e+001 -1.1335e+002 -1.4708e+001 36131 103297,103505,103375
 2.3000e+000 103649 -4.4127e+001 -1.5511e+002 -4.3501e+000 36131 103741,103479,103401
 2.3000e+000 103626 -2.2263e+001 -1.0476e+002  2.2559e+001 36131 103741,103401,103375
 2.3000e+000 103603 -4.2803e+001 -2.1058e+002 -6.3271e+000 36131 103401,103479,103427
 2.3000e+000 103580 -3.3460e+001 -1.0825e+002 -1.5671e+001 36131 103297,103531,103505
 2.3000e+000 103557 -2.2574e+001 -1.6677e+002 -1.2247e+001 36131 103427,103479,103453
 2.3000e+000 103767 -6.2436e+001 -1.9880e+002 -4.1719e+001 36131 103505,103479,103741
 2.3000e+000 103790 -3.7757e+001 -1.5135e+002 -1.3592e+001 36131 103505,103741,103375
 2.3000e+000 103989 -1.0494e+002 -1.8075e+002  1.1836e+001 35791 103839,103917,103891
 2.3000e+000 103966 -1.4815e+002 -2.2042e+002 -4.6808e+000 35791 103813,103917,103839
 2.3000e+000 103943 -1.3060e+001 -1.3706e+002 -3.4297e+000 35791 103839,103891,103865
 2.3000e+000 104188 -3.4799e+001 -1.6075e+002 -1.3049e+001 35444 104038,104090,104064
 2.3000e+000 104165 -5.4270e+001 -1.6733e+002 -1.1344e+001 35444 104038,104116,104090
 2.3000e+000 104142 -3.3991e+001 -1.5730e+002 -4.4804e+000 35444 104012,104116,104038
 2.3000e+000 104487 -2.8923e+001 -1.3662e+002 -2.1790e+001 34990 104265,104317,104291
 2.3000e+000 104464 -3.5579e+001 -1.4423e+002 -1.3983e+001 34990 104510,104317,104265
 2.3000e+000 104441 -3.7121e+001 -1.2897e+002 -9.1682e+000 34990 104510,104265,104213
 2.3000e+000 104418 -3.1276e+001 -1.2845e+002 -1.8107e+001 34990 104582,104343,104317
 2.3000e+000 104395 -4.2869e+001 -1.4099e+002 -4.1121e+000 34990 104213,104265,104239
 2.3000e+000 104536 -3.0960e+001 -1.2829e+002 -1.5004e+001 34990 104582,104317,104510
 2.3000e+000 104559 -3.9463e+001 -1.2225e+002 -9.6685e+000 34990 104369,104510,104213
 2.3000e+000 104608 -3.7340e+001 -1.2203e+002 -1.5988e+001 34990 104369,104343,104582
 2.3000e+000 104631 -3.8574e+001 -1.3155e+002 -1.1228e+001 34990 104369,104582,104510
 2.3000e+000 104783  1.0135e+001 -1.2049e+002  3.1836e+000 34700 104938,104806,104682
 2.3000e+000 104760 -1.4438e+001 -1.3445e+002 -2.1215e+001 34700 104938,104682,104656
 2.3000e+000 104832 -4.2482e+001 -1.3117e+002 -7.5161e+000 34700 104708,104682,104806
 2.3000e+000 104964  3.7389e+001 -1.0328e+002  1.8176e+001 34700 104734,104806,104938
 2.3000e+000 104987  1.6250e+001 -1.1270e+002 -5.3161e+000 34700 104734,104938,104656
 2.3000e+000 105137 -3.9988e+001 -1.4836e+002  3.6604e+000 34388 105036,105088,105062
 2.3000e+000 105114 -4.5793e+001 -1.6926e+002 -1.2565e+000 34388 105010,105088,105036
 2.3000e+000 105385 -6.3802e+001 -1.3084e+002 -1.0523e+001 33734 105408,105186,105160
 2.3000e+000 105362 -5.3211e+001 -1.3949e+002 -2.0522e+001 33734 105408,105160,105264
 2.3000e+000 105339 -8.2903e+001 -1.4493e+002 -1.7071e+001 33734 105160,105290,105264
 2.3000e+000 105316 -4.4115e+001 -1.2987e+002 -1.5348e+000 33734 105186,105238,105212
 2.3000e+000 105434 -5.3434e+001 -1.2882e+002 -1.0996e+001 33734 105238,105186,105408
 2.3000e+000 105457 -2.7798e+001 -1.2875e+002 -2.1492e+001 33734 105238,105408,105264
 2.3000e+000 105609 -6.3148e+001 -1.8765e+002  6.6448e+000 33394 105482,105534,105508
 2.3000e+000 105586 -5.1713e+001 -1.7396e+002 -1.6696e+000 33394 105482,105560,105534
 2.3000e+000 105859 -6.8975e+001 -1.8632e+002 -4.6523e+000 33047 105882,105712,105660
 2.3000e+000 105836 -6.1540e+001 -1.7774e+002  3.3939e+000 33047 105882,105660,105634
 2.3000e+000 105813 -9.7708e+001 -2.1268e+002  1.3366e+001 33047 105660,105712,105686
 2.3000e+000 105790 -4.8153e+001 -1.4846e+002  4.8893e+000 33047 105634,105764,105738
 2.3000e+000 105908 -8.7819e+001 -1.7051e+002 -1.2442e-001 33047 105738,105712,105882
 2.3000e+000 105931 -6.9139e+001 -1.6288e+002  1.1340e+001 33047 105738,105882,105634
 2.3000e+000 106181 -5.8472e+000 -1.1819e+002 -1.8606e+001 32543 106204,106060,106008
 2.3000e+000 106158  4.6598e+001 -1.4046e+002 -2.1305e+001 32543 105956,106086,106060
 2.3000e+000 106135  4.2703e-001 -6.8711e+001  2.0046e+001 32543 106204,106008,105982
 2.3000e+000 106112  1.7494e+001 -8.7247e+001 -8.1387e+000 32543 106008,106060,106034
 2.3000e+000 106230 -2.0426e+001 -1.3939e+002 -3.8758e+001 32543 105956,106060,106204
 2.3000e+000 106253 -3.7053e+001 -1.0193e+002 -4.2146e+000 32543 105956,106204,105982
 2.3000e+000 106454 -2.7975e+001 -1.3717e+002  1.2755e+001 31839 106304,106356,106330
 2.3000e+000 106431 -3.4323e+001 -1.5075e+002 -8.3192e+000 31839 106278,106356,106304
 2.3000e+000 106408 -3.8609e+001 -1.6316e+002 -4.5564e+000 31839 106278,106382,106356
 2.3000e+000 106704 -3.2059e+001 -1.4472e+002 -2.8924e+001 31534 106505,106583,106557
 2.3000e+000 106681 -4.5785e+001 -1.4340e+002 -2.1661e+001 31534 106479,106583,106505
 2.3000e+000 106658 -6.3362e+001 -1.1379e+002 -3.5695e+001 31534 106505,106557,106531
 2.3000e+000 106635 -4.8681e+001 -1.4118e+002 -2.8052e+001 31534 106479,106609,106583
 2.3000e+000 107108 -1.0650e+002 -1.8232e+002 -5.7705e-001 31030 106886,106990,106964
 2.3000e+000 107085 -1.3251e+002 -2.1892e+002 -1.1986e+001 31030 106860,106990,106886
 2.3000e+000 107062 -1.6778e+001 -1.7343e+002 -1.0494e+001 31030 106834,106990,106860
 2.3000e+000 107039 -9.8004e+001 -2.2952e+002  2.7324e+001 31030 106912,106964,106938
 2.3000e+000 107016 -9.7430e+001 -1.7673e+002  4.7562e+000 31030 106886,106964,106912
 2.3000e+000 107307 -5.2153e+001 -1.8791e+002 -1.1302e+000 30718 107330,107157,107131
 2.3000e+000 107284 -5.4757e+001 -2.0057e+002  1.0462e+000 30718 107330,107131,107235
 2.3000e+000 107261 -6.4701e+001 -1.9351e+002  2.8425e+000 30718 107183,107235,107209
 2.3000e+000 107356 -5.7451e+001 -1.7108e+002 -7.7051e-001 30718 107183,107157,107330
 2.3000e+000 107379 -6.2139e+001 -1.8658e+002  1.6748e+000 30718 107183,107330,107235
 2.3000e+000 107759 -4.2682e+001 -1.5565e+002 -2.1495e+000 30264 107782,107615,107537
 2.3000e+000 107736 -4.0711e+001 -1.5084e+002 -6.0415e+000 30264 107782,107537,107485
 2.3000e+000 107713 -2.5305e+001 -1.7714e+002 -3.0311e+000 30264 107485,107537,107511
 2.3000e+000 107690 -5.4875e+001 -1.9498e+002 -1.7624e+001 30264 107537,107615,107589
 2.3000e+000 107667 -3.7974e+001 -1.6904e+002 -4.7496e+000 30264 107537,107589,107563
 2.3000e+000 107808 -3.9182e+001 -1.5301e+002 -5.1123e+000 30264 107641,107615,107782
 2.3000e+000 107831 -3.9006e+001 -1.4865e+002 -8.7206e+000 30264 107641,107782,107485
 2.3000e+000 108030 -4.8514e+001 -1.8791e+002 -3.9052e+001 29874 108053,107854,107932
 2.3000e+000 108007 -8.6243e+001 -1.8351e+002 -4.7419e+001 29874 107854,107958,107932
 2.3000e+000 107984  3.9622e+000 -1.5736e+002 -2.6396e+001 29874 108053,107932,107906
 2.3000e+000 108079 -7.3559e+001 -1.5110e+002 -1.9983e+001 29874 107880,107854,108053
 2.3000e+000 108102 -4.9466e+001 -1.3601e+002 -1.3547e+001 29874 107880,108053,107906
 2.3000e+000 108433 -3.2865e+001 -1.5097e+002 -3.0751e+001 29484 108234,108338,108312
 2.3000e+000 108410  1.0314e+001 -1.3778e+002 -3.7481e+001 29484 108208,108338,108234
 2.3000e+000 108387 -5.9605e+001 -1.5134e+002 -3.5172e+001 29484 108234,108312,108260
 2.3000e+000 108364 -1.1468e+001 -9.0904e+001 -1.3027e+001 29484 108260,108312,108286
 2.3000e+000 108762 -4.6146e+001 -1.7990e+002  1.1352e+001 29080 108563,108641,108589
 2.3000e+000 108739 -2.5356e+001 -1.2374e+002  1.1501e+001 29080 108537,108641,108563
 2.3000e+000 108716 -2.7519e+001 -1.7691e+002 -9.2329e-001 29080 108589,108641,108615
 2.3000e+000 108693  2.3575e+001 -9.4877e+001  4.0491e+001 29080 108537,108667,108641
 2.3000e+000 109189 -5.2104e+001 -1.4657e+002 -1.7551e+001 28476 108892,108996,108970
 2.3000e+000 109166 -8.2806e+001 -1.5269e+002 -1.3658e+001 28476 108892,109022,108996
 2.3000e+000 109143 -8.0473e+001 -1.5519e+002 -2.9658e+000 28476 108892,108970,108944
 2.3000e+000 109120 -6.9772e+001 -1.4469e+002 -1.0282e+001 28476 108892,109048,109022
 2.3000e+000 109097 -4.7475e+001 -1.3137e+002  3.2208e+001 28476 108892,108944,108918
 2.3000e+000 109074 -6.5340e+001 -1.4338e+002 -7.4770e+000 28476 108866,109048,108892
 2.3000e+000 109518 -6.2534e+001 -1.6725e+002  1.7608e+001 28022 109541,109371,109345
 2.3000e+000 109495 -7.4090e+001 -1.6188e+002  3.5238e+000 28022 109541,109345,109319
 2.3000e+000 109472 -1.8915e+001 -1.5126e+002  1.3378e+001 28022 109293,109397,109319
 2.3000e+000 109449  2.4370e+001 -1.2505e+002 -1.3998e-001 28022 109293,109423,109397
 2.3000e+000 109567 -1.5638e+001 -1.5021e+002  2.8516e+001 28022 109397,109371,109541
 2.3000e+000 109590 -5.8690e+001 -1.6789e+002  1.2240e+001 28022 109397,109541,109319
 2.3000e+000 109968 -1.6383e+001 -1.5270e+002  3.8676e+001 27568 109798,109850,109824
 2.3000e+000 109945 -4.6621e+001 -1.8015e+002  1.8308e+001 27568 109694,109850,109798
 2.3000e+000 109922 -6.4866e+001 -1.4382e+002  1.0355e+001 27568 109694,109798,109746
 2.3000e+000 109899 -3.0776e+001 -1.3552e+002 -3.1973e+001 27568 109746,109798,109772
 2.3000e+000 109876 -7.2191e+001 -1.7247e+002  1.8821e+001 27568 109694,109746,109720
 2.3000e+000 110167 -1.7820e+001 -1.3712e+002 -1.4396e+001 27007 110017,110095,110069
 2.3000e+000 110144 -9.3928e+000 -1.3894e+002 -7.8378e+000 27007 109991,110095,110017
 2.3000e+000 110121 -3.1605e+000 -1.2673e+002 -7.8999e+000 27007 110017,110069,110043
 2.3000e+000 110415 -3.1040e+001 -1.5193e+002 -6.6244e+000 26567 110438,110242,110190
 2.3000e+000 110392 -5.9095e+000 -1.8016e+002  3.1688e+000 26567 110438,110190,110320
 2.3000e+000 110369 -6.2234e+001 -1.3818e+002  1.0523e+001 26567 110242,110294,110268
 2.3000e+000 110346 -4.5012e+001 -1.7122e+002  1.8116e+001 26567 110190,110242,110216
 2.3000e+000 110464 -1.8225e+001 -1.4805e+002  1.9389e+000 26567 110294,110242,110438
 2.3000e+000 110487  1.2070e+001 -1.5470e+002  1.8441e+001 26567 110294,110438,110320
 2.3000e+000 110639  1.9418e+001 -9.4832e+001 -1.0927e+001 26170 110538,110590,110564
 2.3000e+000 110616 -1.1864e+001 -5.4147e+001 -3.3492e+001 26170 110512,110590,110538
 2.3000e+000 111149 -4.0977e+001 -1.4992e+002 -1.3831e+001 25716 111172,110878,110852
 2.3000e+000 111126 -4.2830e+001 -1.6363e+002 -7.3944e+000 25716 111172,110852,111008
 2.3000e+000 111103 -5.9556e+001 -1.5405e+002 -2.6904e+001 25716 110878,110930,110904
 2.3000e+000 111080 -2.0657e+001 -1.6363e+002 -1.9324e+001 25716 110826,111008,110852
 2.3000e+000 111057 -7.0678e+001 -1.8379e+002  1.9095e+001 25716 110930,111008,110956
 2.3000e+000 111034 -5.7787e+001 -1.6380e+002  4.5982e+000 25716 110956,111008,110982
 2.3000e+000 111198 -4.6320e+001 -1.3701e+002 -1.5443e+001 25716 110930,110878,111172
 2.3000e+000 111221 -4.8258e+001 -1.4943e+002 -7.9302e+000 25716 110930,111172,111008
 2.3000e+000 111420 -5.4801e+001 -1.7140e+002 -2.4082e+000 25304 111443,111270,111244
 2.3000e+000 111397 -4.8260e+001 -1.7843e+002 -3.6960e+000 25304 111443,111244,111348
 2.3000e+000 111374 -5.4801e+001 -1.6776e+002  7.1705e+000 25304 111270,111322,111296
 2.3000e+000 111469 -4.9805e+001 -1.6973e+002 -4.0946e-001 25304 111322,111270,111443
 2.3000e+000 111492 -4.0834e+001 -1.7432e+002 -8.1107e-001 25304 111322,111443,111348
 2.3000e+000 111691  1.0721e+001 -1.1497e+002  2.8844e+001 24736 111567,111619,111593
 2.3000e+000 111668  9.7040e-001 -1.2374e+002  2.0644e+001 24736 111541,111619,111567
 2.3000e+000 111645  6.6456e+000 -1.2100e+002  2.1687e+001 24736 111515,111619,111541
 2.3000e+000 112024 -4.5810e+001 -1.9361e+002  8.9760e+000 24146 111825,111877,111851
 2.3000e+000 112001 -5.5832e+001 -1.7467e+002 -6.4294e+000 24146 111825,111903,111877
 2.3000e+000 111978 -2.1344e+001 -1.2918e+002 -2.1515e+001 24146 111825,111929,111903
 2.3000e+000 111955 -4.4770e+001 -1.4040e+002 -2.5358e+001 24146 111799,111929,111825
 2.3000e+000 112370 -4.6633e+001 -1.7512e+002 -1.0173e+001 23856 112393,112151,112125
 2.3000e+000 112347 -4.2297e+001 -1.7699e+002 -5.6021e+000 23856 112465,112393,112125
 2.3000e+000 112324 -4.8862e+001 -1.7624e+002  4.8185e+000 23856 112465,112125,112073
 2.3000e+000 112301 -3.1479e+001 -1.7707e+002  4.2822e-001 23856 112073,112125,112099
 2.3000e+000 112278 -1.1320e+002 -2.0139e+002 -1.2175e+001 23856 112047,112229,112073
 2.3000e+000 112255 -1.9063e+001 -1.6843e+002 -3.8462e+001 23856 112151,112203,112177
 2.3000e+000 112419 -5.1250e+001 -1.8002e+002 -6.3183e+000 23856 112203,112151,112393
 2.3000e+000 112442 -5.0471e+001 -1.8224e+002 -6.8412e+000 23856 112203,112393,112229
 2.3000e+000 112491 -6.0727e+001 -1.8412e+002 -4.0304e+000 23856 112229,112393,112465
 2.3000e+000 112514 -6.5574e+001 -1.8386e+002  7.5190e+000 23856 112229,112465,112073
 2.3000e+000 112784 -3.4599e+001 -1.5641e+002  9.3885e-001 23494 112611,112663,112637
 2.3000e+000 112761 -1.7330e+001 -1.2645e+002  8.9862e+000 23494 112585,112663,112611
 2.3000e+000 112738 -4.6591e+001 -1.3904e+002  6.7549e+000 23494 112559,112663,112585
 2.3000e+000 112715 -1.7105e+001 -8.1844e+001 -4.1764e+000 23494 112559,112689,112663
 2.3000e+000 113117 -3.9777e+001 -9.2548e+001 -3.7742e+000 22974 112944,113022,112996
 2.3000e+000 113094 -5.4306e+001 -1.1054e+002  3.8295e+000 22974 112918,113022,112944
 2.3000e+000 113071 -4.0952e+001 -1.1615e+002 -2.4087e+001 22974 112944,112996,112970
 2.3000e+000 113048 -5.0673e+001 -1.0945e+002  9.7185e+000 22974 112892,113022,112918
 2.3000e+000 113414 -3.4843e+001 -1.6802e+002  1.8065e+000 22370 113192,113296,113218
 2.3000e+000 113391 -2.3392e+001 -1.6347e+002  5.0231e+000 22370 113140,113296,113192
 2.3000e+000 113368 -4.1426e+001 -1.7964e+002  1.8512e+001 22370 113218,113296,113270
 2.3000e+000 113345 -5.3274e+001 -1.8240e+002  7.4913e+000 22370 113218,113270,113244
 2.3000e+000 113322 -1.7755e+001 -1.4320e+002  1.1643e+001 22370 113140,113192,113166
 2.3000e+000 113662 -4.6229e+001 -1.2277e+002  9.2782e+000 21916 113685,113515,113489
 2.3000e+000 113639 -6.3743e+001 -1.7442e+002 -2.4986e+000 21916 113685,113489,113437
 2.3000e+000 113616 -1.0155e+001 -1.7572e+002  7.4371e+000 21916 113757,113567,113541
 2.3000e+000 113593 -5.7671e+001 -1.5688e+002 -1.2167e+001 21916 113437,113489,113463
 2.3000e+000 113711 -6.8455e+001 -1.8311e+002  1.3120e+001 21916 113541,113515,113685
 2.3000e+000 113734 -4.1701e+001 -1.7421e+002  4.0313e+000 21916 113757,113541,113685
 2.3000e+000 113783 -4.7755e+001 -1.9155e+002  2.7735e-001 21916 113437,113567,113757
 2.3000e+000 113806 -6.1284e+001 -1.8000e+002 -4.5853e+000 21916 113437,113757,113685
 2.3000e+000 114056 -3.2777e+001 -1.6713e+002 -3.8964e+000 21412 113857,113909,113883
 2.3000e+000 114033 -2.4805e+001 -1.4615e+002 -5.0968e+000 21412 114079,113909,113857
 2.3000e+000 114010 -3.3154e+001 -1.5182e+002 -1.4052e+000 21412 114079,113857,113961
 2.3000e+000 113987 -3.3401e+001 -1.4954e+002 -4.0631e-001 21412 113831,113961,113857
 2.3000e+000 114105 -3.1799e+001 -1.3888e+002 -9.4139e+000 21412 113935,113909,114079
 2.3000e+000 114128 -3.7805e+001 -1.4474e+002 -6.2919e+000 21412 113935,114079,113961
 2.3000e+000 114378 -5.3909e+001 -1.5301e+002 -2.9003e+001 21022 114401,114257,114205
 2.3000e+000 114355 -6.1593e+001 -1.7799e+002 -2.5536e+001 21022 114401,114205,114179
 2.3000e+000 114332 -3.4201e+001 -1.7877e+002 -3.3022e+000 21022 114153,114283,114179
 2.3000e+000 114309 -5.6190e+001 -1.0506e+002 -9.3416e+000 21022 114205,114257,114231
 2.3000e+000 114427 -5.3376e+001 -1.6321e+002 -8.2325e+000 21022 114283,114257,114401
 2.3000e+000 114450 -5.8435e+001 -1.8564e+002 -5.4605e+000 21022 114283,114401,114179
 2.3000e+000 114651 -1.1525e+002 -1.9711e+002 -1.3253e+001 20618 114501,114553,114527
 2.3000e+000 114628 -9.6052e+001 -1.9250e+002 -8.8722e+000 20618 114501,114579,114553
 2.3000e+000 114605 -9.4318e+001 -1.7314e+002 -2.7554e+000 20618 114475,114579,114501
 2.3000e+000 114901 -2.6692e+001 -1.7895e+002  6.7434e+000 20114 114676,114780,114702
 2.3000e+000 114878 -3.4478e+001 -1.8079e+002  5.4025e+000 20114 114676,114806,114780
 2.3000e+000 114855 -9.9405e+000 -1.7715e+002  8.1581e+000 20114 114702,114780,114754
 2.3000e+000 114832  6.9652e+001 -1.7968e+002  3.5395e+001 20114 114702,114754,114728
 2.3000e+000 115053 -2.6965e+001 -1.6464e+002  2.7253e+000 19460 115147,115076,114926
 2.3000e+000 115030 -3.4408e+001 -1.5806e+002  1.1480e+000 19460 115147,114926,115004
 2.3000e+000 115102 -2.8036e+001 -1.7325e+002  1.3344e+000 19460 114952,114926,115076
 2.3000e+000 115173 -3.4469e+001 -1.7178e+002 -5.9408e-001 19460 114978,115076,115147
 2.3000e+000 115196 -4.2945e+001 -1.6516e+002 -2.0882e+000 19460 114978,115147,115004
 2.3000e+000 115446 -5.7340e+001 -1.8978e+002 -5.7130e+000 19006 115273,115351,115299
 2.3000e+000 115423 -3.9002e+001 -1.7690e+002 -7.9348e-002 19006 115247,115351,115273
 2.3000e+000 115400 -9.7007e+000 -1.6703e+002 -2.0070e+001 19006 115221,115351,115247
 2.3000e+000 115377 -6.2432e+001 -1.9642e+002 -2.9293e+000 19006 115299,115351,115325
 2.3000e+000 115767 -5.0802e+001 -1.6674e+002  6.4252e+000 18716 115571,115649,115623
 2.3000e+000 115744 -4.8873e+001 -1.7907e+002  1.2482e+001 18716 115493,115649,115571
 2.3000e+000 115721 -3.7839e+001 -1.8012e+002  6.3679e+000 18716 115493,115571,115545
 2.3000e+000 115698 -2.1823e+001 -1.5939e+002  2.4349e+001 18716 115493,115545,115519
 2.3000e+000 115675 -4.4097e+001 -1.6674e+002  4.5825e-001 18716 115571,115623,115597
 2.3000e+000 116039 -2.1623e+001 -1.3335e+002 -6.0494e+000 18312 115814,115892,115840
 2.3000e+000 116016 -2.7609e+001 -1.4960e+002 -1.8459e+000 18312 115814,115944,115892
 2.3000e+000 115993 -2.9113e+001 -1.4228e+002 -1.2519e+000 18312 115892,115944,115918
 2.3000e+000 115970 -6.0240e+001 -1.5439e+002  2.6131e+000 18312 115840,115892,115866
 2.3000e+000 116191 -3.6617e+001 -1.9260e+002 -2.2830e+000 18000 116090,116142,116116
 2.3000e+000 116168 -3.8861e+001 -1.7940e+002 -5.9588e+000 18000 116064,116142,116090
 2.3000e+000 116343 -1.0341e+002 -2.4257e+002 -5.3667e+000 17396 116242,116294,116268
 2.3000e+000 116320 -9.8782e+001 -2.2753e+002  1.4530e+000 17396 116216,116294,116242
 2.3000e+000 116566 -5.7563e+001 -1.8220e+002  6.4560e+000 16942 116390,116468,116442
 2.3000e+000 116543 -3.6472e+001 -1.7550e+002  1.9320e+000 16942 116390,116494,116468
 2.3000e+000 116520 -6.5091e+001 -1.9985e+002  1.9127e+000 16942 116390,116442,116416
 2.3000e+000 116767 -2.7187e+001 -1.5584e+002 -5.7372e+000 16438 116790,116643,116617
 2.3000e+000 116744 -5.7268e+001 -1.6070e+002 -1.2666e+001 16438 116790,116617,116591
 2.3000e+000 116721  1.1749e+000 -1.3081e+002 -1.2541e+001 16438 116643,116695,116669
 2.3000e+000 116816 -1.6093e+001 -1.5915e+002 -4.1927e+000 16438 116695,116643,116790
 2.3000e+000 116839 -2.5985e+001 -1.5039e+002 -1.1520e+001 16438 116695,116790,116591
 2.3000e+000 117062 -4.4793e+001 -2.0556e+002 -5.4800e+000 16074 116886,116938,116912
 2.3000e+000 117039 -4.0396e+001 -2.1584e+002  1.0791e+001 16074 116886,116990,116938
 2.3000e+000 117016 -1.7932e+001 -1.6645e+002  1.9923e+001 16074 116938,116990,116964
 2.3000e+000 117214 -1.6232e+000 -1.4417e+002  2.5144e+000 15649 117087,117139,117113
 2.3000e+000 117191 -3.3140e+001 -1.5667e+002  1.2759e+000 15649 117087,117165,117139
 2.3000e+000 117317 -1.0103e+002 -1.8971e+002 -1.9719e+001 421 117239,117291,117265
 2.4000e+000 70632 -1.3507e+002 -3.2797e+002 -1.2479e+001 70072 70482,70534,70508
 2.4000e+000 70609 -1.2221e+002 -2.9749e+002 -9.4836e+000 70072 70482,70560,70534
 2.4000e+000 70586 -1.4096e+002 -3.0675e+002 -8.9943e+000 70072 70456,70560,70482
 2.4000e+000 70951 -1.3662e+002 -5.1523e+002  0.0000e+000 69874 70703,70755,70729
 2.4000e+000 70928 -3.4393e+001 -4.8102e+002 -8.7107e+001 69874 70703,70781,70755
 2.4000e+000 70905  7.5660e+001 -7.6763e+001 -3.5408e+001 69874 70703,70807,70781
 2.4000e+000 70882 -6.4964e+001 -4.1753e+002 -1.0162e+001 69874 70703,70833,70807
 2.4000e+000 70859 -1.0098e+002 -4.4458e+002  1.7942e+001 69874 70677,70833,70703
 2.4000e+000 71199 -2.6595e+001 -1.5330e+002  1.9131e+001 69698 71222,71052,71026
 2.4000e+000 71176 -2.3980e+001 -1.5541e+002  1.9551e+001 69698 71294,71222,71026
 2.4000e+000 71153 -3.5519e+001 -1.3553e+002 -4.2790e+001 69698 71294,71026,71000
 2.4000e+000 71130 -7.9200e+001 -1.4514e+002  1.6525e+001 69698 71366,71104,71078
 2.4000e+000 71248 -1.6727e+001 -1.2246e+002  2.0445e+001 69698 71078,71052,71222
 2.4000e+000 71271 -1.9957e+001 -1.2738e+002  1.4189e+001 69698 71366,71078,71222
 2.4000e+000 71320  7.7485e+001 -1.0081e+002 -3.8499e+000 69698 70974,71222,71294
 2.4000e+000 71343  8.3559e+001 -8.5464e+001 -6.0116e+001 69698 70974,71294,71000
 2.4000e+000 71392 -2.5340e+000 -1.3535e+002  2.8294e+001 69698 70974,71104,71366
 2.4000e+000 71415  1.1275e+001 -1.4697e+002  3.2929e+001 69698 70974,71366,71222
 2.4000e+000 71516 -3.6760e+001 -2.6164e+002 -4.8946e+001 69386 71438,71490,71464
 2.4000e+000 71869 -2.6401e+001 -1.3390e+002  1.3081e+001 69188 71644,71748,71670
 2.4000e+000 71846  2.4721e+001 -1.2743e+002  3.9375e+001 69188 71644,71774,71748
 2.4000e+000 71823  9.3141e+000 -5.9914e+001  1.3445e+000 69188 71670,71748,71722
 2.4000e+000 71800 -5.3807e+001 -2.2049e+002 -2.2180e+001 69188 71670,71722,71696
 2.4000e+000 72019 -1.0333e+002 -2.6953e+002 -2.0028e+000 68990 71918,71970,71944
 2.4000e+000 71996 -9.4331e+001 -2.9523e+002  9.0206e+000 68990 71892,71970,71918
 2.4000e+000 72316  4.3507e+001  5.6640e+000 -2.3067e+001 68586 72339,72172,72146
 2.4000e+000 72293  2.5590e+001 -7.1777e+000 -1.1977e+001 68586 72339,72146,72120
 2.4000e+000 72270  1.8939e+001  5.5320e+000 -1.0003e+001 68586 72411,72068,72198
 2.4000e+000 72247  3.0155e+000  1.1839e+001 -5.9663e+000 68586 72042,72198,72068
 2.4000e+000 72224  6.6057e+000 -9.5812e-001  1.3470e+000 68586 72068,72120,72094
 2.4000e+000 72365  2.2221e+001 -6.2701e-002 -1.7022e+001 68586 72198,72172,72339
 2.4000e+000 72388  2.3265e+001  2.6603e+000 -8.1977e+000 68586 72411,72198,72339
 2.4000e+000 72437  1.2560e+001  2.3492e+000 -8.9256e+000 68586 72120,72068,72411
 2.4000e+000 72460  1.7239e+001 -6.4519e-001 -6.9156e+000 68586 72120,72411,72339
 2.4000e+000 72864  1.5903e+001 -9.7043e+001  2.8479e+000 68388 72642,72694,72668
 2.4000e+000 72841 -1.5939e+000 -1.4072e+002  5.9135e+000 68388 72616,72694,72642
 2.4000e+000 72818  1.5375e+001 -1.0269e+002  1.0125e+001 68388 72616,72720,72694
 2.4000e+000 72795 -1.4168e+001 -1.7432e+002  2.1143e+001 68388 72590,72720,72616
 2.4000e+000 72772  5.3694e+001 -1.1421e+002  6.8176e+001 68388 72590,72746,72720
 2.4000e+000 73321 -1.4081e+001 -1.2706e+001 -6.8767e+000 68048 73073,73203,73177
 2.4000e+000 73298 -1.1449e+000 -4.1052e-001  2.9451e+000 68048 73047,73203,73073
 2.4000e+000 73275 -2.1314e+001 -4.3975e+001 -1.0528e+001 68048 73125,73177,73151
 2.4000e+000 73252  2.8223e+000 -3.3549e+001 -8.6529e+000 68048 73073,73177,73125
 2.4000e+000 73229  9.3798e+000 -5.4550e+001 -4.8735e+000 68048 73073,73125,73099
 2.4000e+000 73640  1.0067e+001 -1.6274e+002 -4.3751e+000 67850 73444,73496,73470
 2.4000e+000 73617 -4.6865e+000 -1.5012e+002 -5.2072e+000 67850 73418,73496,73444
 2.4000e+000 73594 -2.9772e+000 -1.4278e+002  4.4773e-001 67850 73392,73496,73418
 2.4000e+000 73571 -4.3329e+001 -1.7401e+002 -1.5556e+001 67850 73392,73522,73496
 2.4000e+000 73548 -8.5320e+001 -2.4634e+002  7.1347e+000 67850 73366,73522,73392
 2.4000e+000 73790  6.7115e+000 -8.1972e+001 -2.5907e+000 67602 73689,73741,73715
 2.4000e+000 73767  2.5912e+001 -3.5297e+001 -1.3362e+000 67602 73663,73741,73689
 2.4000e+000 74040  1.7136e+001 -9.2419e+001 -1.5478e+001 67290 73841,73945,73919
 2.4000e+000 74017  8.1310e+001 -7.8216e+001 -3.7495e+001 67290 73815,73945,73841
 2.4000e+000 73994  2.8376e+001 -1.7426e+001 -2.5145e+001 67290 73841,73919,73867
 2.4000e+000 73971  2.6848e+001 -3.1516e+001 -5.2308e+000 67290 73867,73919,73893
 2.4000e+000 74143 -4.3738e-001 -1.3680e+000  6.3711e-001 67092 74065,74117,74091
 2.4000e+000 74415 -4.8266e+001 -2.9216e+002 -6.9811e+001 66894 74190,74294,74216
 2.4000e+000 74392 -2.7834e+001 -2.7418e+002 -2.1719e+001 66894 74190,74320,74294
 2.4000e+000 74369  2.3423e+001 -1.1962e+002 -5.6588e+001 66894 74216,74294,74242
 2.4000e+000 74346 -2.9210e+001 -2.2928e+002 -3.3965e+001 66894 74242,74294,74268
 2.4000e+000 75023  3.4255e+002 -5.5096e+001 -8.1372e+001 66532 74654,74836,74810
 2.4000e+000 75000 -5.1556e+001 -7.8219e+001 -9.2562e+001 66532 74628,74836,74654
 2.4000e+000 74977  1.6163e+001 -2.6347e+001  5.1079e+000 66532 74706,74784,74732
 2.4000e+000 74954  4.5367e+000 -5.0206e+001  1.0964e+000 66532 74680,74784,74706
 2.4000e+000 74931  1.3123e+002 -1.6323e+001  1.4928e+001 66532 74680,74810,74784
 2.4000e+000 74908  9.4610e+000 -6.9084e+001 -7.3466e+001 66532 74654,74810,74680
 2.4000e+000 74885 -8.5742e+001 -1.1444e+002 -1.0975e+002 66532 74602,74836,74628
 2.4000e+000 74862 -1.9890e+001 -1.2553e+001  2.4308e+001 66532 74732,74784,74758
 2.4000e+000 75222  2.9021e-001 -1.4814e+002 -2.8437e+000 66242 75072,75150,75124
 2.4000e+000 75199 -1.4149e+001 -1.4198e+002  1.4698e+000 66242 75046,75150,75072
 2.4000e+000 75176  6.9363e+000 -1.1720e+002 -3.3513e+000 66242 75072,75124,75098
 2.4000e+000 75470 -8.4055e+000 -9.3933e+001 -1.7180e+001 65838 75297,75375,75349
 2.4000e+000 75447  8.8477e+000 -5.3265e+001 -9.7214e+000 65838 75271,75375,75297
 2.4000e+000 75424  2.9367e+001 -8.1941e+001 -1.7894e+001 65838 75297,75349,75323
 2.4000e+000 75401 -1.0169e+000 -5.2284e+001  5.2635e+000 65838 75245,75375,75271
 2.4000e+000 75671 -1.4760e+001 -2.5656e+001 -2.7312e+001 65640 75495,75573,75521
 2.4000e+000 75648 -1.4457e+001 -3.1635e+001 -1.5002e+001 65640 75495,75599,75573
 2.4000e+000 75625 -1.9968e+001 -7.0718e+001 -5.6625e+001 65640 75521,75573,75547
 2.4000e+000 75872 -2.4158e+001 -2.6935e+001 -3.1884e+001 65300 75895,75748,75722
 2.4000e+000 75849  1.0179e+001 -5.9499e+001 -5.2885e+001 65300 75895,75722,75696
 2.4000e+000 75826 -3.7815e+001 -5.8657e+001 -4.5090e+001 65300 75967,75774,75748
 2.4000e+000 75921 -3.0644e+001 -5.0630e+001 -3.3382e+001 65300 75967,75748,75895
 2.4000e+000 75944 -2.8029e+001 -1.1473e+002 -3.1126e+001 65300 75800,75895,75696
 2.4000e+000 75993 -5.8652e+001 -4.7220e+001 -4.6280e+001 65300 75800,75774,75967
 2.4000e+000 76016 -5.6680e+001 -4.9839e+001 -3.8008e+001 65300 75800,75967,75895
 2.4000e+000 76371 -3.5897e-001 -3.9568e+001 -2.0067e+000 64896 76146,76250,76172
 2.4000e+000 76348  1.5860e+000 -3.5920e+001 -2.9424e+000 64896 76146,76276,76250
 2.4000e+000 76325  3.6892e-001 -8.3618e+000 -3.1961e+000 64896 76172,76250,76198
 2.4000e+000 76302  8.4069e-002  4.4310e-001  3.5512e+000 64896 76198,76250,76224
 2.4000e+000 76570 -5.0652e+000 -4.9564e+001 -1.3542e+001 64442 76446,76498,76472
 2.4000e+000 76547  1.8102e+000 -1.8365e+001 -3.0165e+000 64442 76420,76498,76446
 2.4000e+000 76524 -4.7121e+000 -5.3654e+001  7.1923e-001 64442 76394,76498,76420
 2.4000e+000 76999  2.0147e+001 -1.1633e+002  3.6984e-001 63924 77022,76728,76702
 2.4000e+000 76976 -7.4094e+000 -8.0056e+001 -4.3772e+001 63924 77022,76702,76832
 2.4000e+000 76953  1.7434e+000 -1.3083e+002  4.6152e+001 63924 76728,76806,76754
 2.4000e+000 76930 -2.2428e+001 -4.2505e+001  2.0059e+001 63924 76676,76832,76702
 2.4000e+000 76907 -4.0164e+001 -1.6758e+002  3.0533e+001 63924 76754,76806,76780
 2.4000e+000 76884  1.0646e+000 -3.8203e+001  1.1953e+001 63924 76676,76858,76832
 2.4000e+000 77048  1.6109e+001 -1.6870e+002 -1.3750e+001 63924 76806,76728,77022
 2.4000e+000 77071 -1.9096e+001 -1.4256e+002 -5.9872e+001 63924 76806,77022,76832
 2.4000e+000 77449 -5.2893e+000 -4.8666e+001  2.0532e+001 63320 77472,77253,77201
 2.4000e+000 77426 -2.1708e+001 -5.8245e+001  1.6416e+001 63320 77472,77201,77175
 2.4000e+000 77403 -6.1016e+000 -6.8100e+001 -1.6239e+000 63320 77175,77305,77279
 2.4000e+000 77380  7.7131e-001 -1.4775e+001 -9.1541e+000 63320 77201,77253,77227
 2.4000e+000 77357  1.8479e-001 -6.4109e+001 -7.1065e+000 63320 77175,77331,77305
 2.4000e+000 77498  1.6274e+001 -5.9702e+001  4.1792e+000 63320 77279,77253,77472
 2.4000e+000 77521 -1.0472e+001 -7.1556e+001 -9.2173e-002 63320 77279,77472,77175
 2.4000e+000 77769 -2.7287e+001 -1.5199e+002  8.1004e+000 62816 77570,77622,77596
 2.4000e+000 77746 -5.1284e+001 -1.3288e+002  2.1433e+001 62816 77570,77648,77622
 2.4000e+000 77723  1.5553e+000 -1.0046e+002 -1.0905e+001 62816 77570,77674,77648
 2.4000e+000 77700 -1.5144e+001 -4.7834e+001  2.1310e+001 62816 77544,77674,77570
 2.4000e+000 78149 -1.8187e+001 -9.0904e+001 -1.1184e+001 62354 77953,78031,78005
 2.4000e+000 78126 -3.3360e+001 -8.3459e+001 -1.4945e+001 62354 77901,78031,77953
 2.4000e+000 78103 -1.8140e+001 -7.6001e+001 -1.2444e+000 62354 77875,78031,77901
 2.4000e+000 78080 -8.8233e+000 -1.3623e+002 -4.7490e+001 62354 77901,77953,77927
 2.4000e+000 78057 -3.4354e+001 -8.7595e+001 -1.6021e+001 62354 77953,78005,77979
 2.4000e+000 78606  2.0634e+001 -4.6240e+001  2.6573e+001 61950 78384,78436,78410
 2.4000e+000 78583  3.2958e+001 -6.5939e+001 -8.7422e+000 61950 78358,78436,78384
 2.4000e+000 78560  1.9745e+001 -3.8244e+001 -2.3457e+001 61950 78358,78488,78436
 2.4000e+000 78537  1.7777e+000 -8.1483e+001 -1.9680e+001 61950 78436,78488,78462
 2.4000e+000 78514  2.2110e+001 -1.1715e+001 -9.7351e+000 61950 78332,78488,78358
 2.4000e+000 78756  1.3003e+001 -1.1613e+002 -9.4705e+000 61339 78779,78655,78629
 2.4000e+000 78733  6.4577e+000 -1.1512e+002 -7.0209e+000 61339 78779,78629,78707
 2.4000e+000 78805 -7.6910e+000 -1.7325e+002  1.2091e+001 61339 78851,78779,78681
 2.4000e+000 78828  3.8409e+001 -1.3083e+002 -1.1021e+001 61339 78681,78779,78707
 2.4000e+000 78877  2.0726e+001 -1.0227e+002 -4.0564e+000 61339 78655,78779,78851
 2.4000e+000 79206 -1.9880e+001 -5.5833e+001 -1.7972e+001 60892 79229,79007,78981
 2.4000e+000 79183 -9.4991e+000 -1.2820e+001  1.6393e+000 60892 79229,78981,79111
 2.4000e+000 79160 -1.1838e+001 -7.4604e+001 -1.8877e+001 60892 79301,79033,79007
 2.4000e+000 79137 -1.7608e+001 -4.9299e+001  3.0694e+001 60892 79033,79085,79059
 2.4000e+000 79255 -1.9207e+001 -5.7680e+001 -3.2039e+001 60892 79301,79007,79229
 2.4000e+000 79278 -2.3495e+001 -4.8006e+001 -2.3574e+001 60892 79085,79229,79111
 2.4000e+000 79327 -3.3913e+001 -1.1721e+002 -4.7084e+000 60892 79085,79033,79301
 2.4000e+000 79350 -2.0059e+001 -8.7105e+001 -2.5511e+001 60892 79085,79301,79229
 2.4000e+000 79647 -8.0091e+001 -1.8676e+002 -2.4566e+001 60488 79451,79529,79503
 2.4000e+000 79624 -5.5308e+001 -1.3130e+002 -2.9201e+001 60488 79425,79529,79451
 2.4000e+000 79601 -5.3565e+001 -1.4532e+002 -3.4815e+001 60488 79373,79529,79425
 2.4000e+000 79578 -4.2162e+001 -1.7262e+002 -1.9205e+001 60488 79373,79425,79399
 2.4000e+000 79555 -1.6447e+001 -1.2428e+002  7.5193e-001 60488 79451,79503,79477
 2.4000e+000 79870 -2.3330e+001 -1.2161e+002 -6.7292e+000 60026 79720,79798,79772
 2.4000e+000 79847  1.7573e+001 -1.2773e+002 -1.1241e+001 60026 79694,79798,79720
 2.4000e+000 79824  4.0883e+001 -9.9054e+001 -1.8006e+001 60026 79720,79772,79746
 2.4000e+000 80120 -3.5753e+001 -8.1847e+001 -3.6899e+000 59629 79921,80025,79973
 2.4000e+000 80097 -4.0846e+001 -5.6939e+001  1.2572e+001 59629 79895,80025,79921
 2.4000e+000 80074 -2.6842e+001 -6.7908e+001 -1.4968e+001 59629 79973,80025,79999
 2.4000e+000 80051 -2.7003e+001 -7.2562e+001 -7.4169e+000 59629 79921,79973,79947
 2.4000e+000 80321  3.2916e+001 -9.8326e+001 -2.3750e-001 59125 80344,80171,80145
 2.4000e+000 80298  1.6853e+001 -1.0870e+002  8.2497e+000 59125 80344,80145,80249
 2.4000e+000 80275 -7.3119e+000 -6.4392e+001  4.7174e+000 59125 80197,80249,80223
 2.4000e+000 80370  1.2841e+001 -9.2918e+001  1.0607e+001 59125 80197,80171,80344
 2.4000e+000 80393 -1.7442e+000 -1.0141e+002  1.8649e+001 59125 80197,80344,80249
 2.4000e+000 80952  7.8061e+000 -1.4864e+002  3.6214e+001 58557 80975,80632,80606
 2.4000e+000 80929  3.6527e+000 -2.0599e+001  4.3882e+000 58557 81119,80975,80606
 2.4000e+000 80906 -3.1338e+001 -1.4063e+002 -3.1676e+001 58557 81047,80684,80632
 2.4000e+000 80883  1.8438e+001 -1.8907e+001 -2.8129e+001 58557 81119,80606,80580
 2.4000e+000 80860 -1.1863e+001 -1.9930e+002  8.5376e+000 58557 81191,80736,80710
 2.4000e+000 80837 -2.9817e+001 -1.5308e+002 -2.4184e+001 58557 80736,80788,80762
 2.4000e+000 80814 -2.8090e+001 -8.9414e+001 -3.1827e+001 58557 80632,80684,80658
 2.4000e+000 81001 -7.0730e-001 -1.6852e+002 -1.0840e+001 58557 81047,80632,80975
 2.4000e+000 81024  1.6853e+001 -1.3565e+002  1.7641e+001 58557 81191,80710,80975
 2.4000e+000 81073 -3.5187e+000 -1.0163e+002 -1.6291e+001 58557 80710,80684,81047
 2.4000e+000 81096  3.4413e+001 -1.2956e+002  5.0509e+000 58557 80710,81047,80975
 2.4000e+000 81145 -1.0926e+001 -5.9792e+001  1.1784e+001 58557 80788,80975,81119
 2.4000e+000 81168 -4.3326e+000 -5.5239e+001 -1.7109e+001 58557 80788,81119,80580
 2.4000e+000 81217 -2.7307e+001 -1.3709e+002 -1.5003e+001 58557 80788,80736,81191
 2.4000e+000 81240 -2.1049e+001 -1.1260e+002 -1.4827e+001 58557 80788,81191,80975
 2.4000e+000 81537  1.7355e+001 -1.5083e+002 -7.8955e-001 57881 81560,81341,81289
 2.4000e+000 81514 -3.9525e+001 -1.7613e+002  2.7517e+001 57881 81560,81289,81263
 2.4000e+000 81491 -4.8004e+001 -1.3194e+002 -1.6932e+001 57881 81632,81419,81367
 2.4000e+000 81468 -4.8829e+001 -1.4189e+002 -4.1357e+001 57881 81367,81419,81393
 2.4000e+000 81445  1.1247e+001 -1.7327e+002  3.9307e+000 57881 81289,81341,81315
 2.4000e+000 81586  6.2143e+000 -9.8044e+001 -4.9360e+001 57881 81367,81341,81560
 2.4000e+000 81609 -3.9945e+001 -1.5315e+002 -2.6367e+001 57881 81632,81367,81560
 2.4000e+000 81658 -2.8982e+001 -1.0162e+002 -8.5942e+000 57881 81263,81419,81632
 2.4000e+000 81681 -2.0922e+001 -1.2829e+002 -1.7307e+001 57881 81263,81632,81560
 2.4000e+000 81929 -3.4728e+001 -1.0102e+002 -5.6347e+000 57477 81704,81808,81782
 2.4000e+000 81906 -1.2392e+001 -1.3211e+002  7.1514e+000 57477 81704,81834,81808
 2.4000e+000 81883 -4.6165e+001 -9.8500e+001  8.8572e+000 57477 81704,81782,81730
 2.4000e+000 81860 -1.8710e+001 -1.0741e+002  9.8407e+000 57477 81730,81782,81756
 2.4000e+000 82488  1.2784e+001 -1.1770e+002 -1.0175e+001 56966 82583,82511,82194
 2.4000e+000 82465  1.0732e+001 -1.0067e+002  6.9924e+000 56966 82511,82116,82324
 2.4000e+000 82442  7.0811e+000 -1.3486e+002 -4.6504e+000 56966 82583,82194,82168
 2.4000e+000 82419 -2.4525e+000 -1.2031e+002  1.6857e+001 56966 82194,82246,82220
 2.4000e+000 82396 -6.7126e+000 -1.2933e+002 -1.2725e+000 56966 82194,82298,82246
 2.4000e+000 82373  4.4370e-001 -7.8161e+001  8.3360e+000 56966 82246,82298,82272
 2.4000e+000 82350 -4.8574e+000 -1.6669e+002 -1.8857e+001 56966 82116,82168,82142
 2.4000e+000 82537  7.9211e+000 -1.0005e+002  3.7052e+000 56966 82298,82194,82511
 2.4000e+000 82560  5.8706e+001 -3.0722e+001  3.9449e+001 56966 82298,82511,82324
 2.4000e+000 82609  4.7109e+000 -9.7630e+001 -1.3474e+001 56966 82116,82511,82583
 2.4000e+000 82632  4.5604e+000 -1.0987e+002 -1.0220e+001 56966 82116,82583,82168
 2.4000e+000 83236 -2.4445e+000 -4.7696e+001 -9.5234e+000 56304 82893,82945,82919
 2.4000e+000 83213  3.1118e-001 -6.2882e+001  1.6811e+001 56304 83259,82945,82893
 2.4000e+000 83190  5.9134e+000 -8.7916e+001  3.7301e+000 56304 83259,82893,83049
 2.4000e+000 83167 -4.4655e-001 -7.8168e+001 -5.1994e+000 56304 82971,83049,83023
 2.4000e+000 83144  3.5126e+000 -9.3972e+001  3.7075e+000 56304 82815,83049,82893
 2.4000e+000 83121 -1.3407e+001 -1.3165e+002  9.0559e+000 56304 82815,82893,82867
 2.4000e+000 83098 -3.8273e+001 -1.7070e+002  7.8256e+000 56304 82971,83023,82997
 2.4000e+000 83075 -2.1926e+001 -1.0444e+002 -5.7534e+000 56304 82815,82867,82841
 2.4000e+000 83285 -1.7972e+001 -9.8976e+001  2.3394e+001 56304 82971,82945,83259
 2.4000e+000 83308  1.2445e+000 -9.9119e+001  5.1673e+000 56304 82971,83259,83049
 2.4000e+000 83556 -7.7032e+001 -2.1876e+002 -7.0237e+000 55964 83357,83461,83435
 2.4000e+000 83533 -8.1576e+001 -1.4642e+002  2.7511e+001 55964 83331,83461,83357
 2.4000e+000 83510 -2.8449e+001 -2.4131e+002  2.7789e+001 55964 83357,83435,83383
 2.4000e+000 83487 -1.9208e+001 -2.7345e+002  1.3665e+001 55964 83383,83435,83409
 2.4000e+000 83706  9.6585e+000 -6.9362e+001  1.3896e+001 55503 83579,83631,83605
 2.4000e+000 83683  3.9440e+000 -9.6618e+001  2.1446e+001 55503 83579,83657,83631
 2.4000e+000 83907 -1.4393e+001 -1.2918e+002  1.4167e+001 55156 83757,83835,83809
 2.4000e+000 83884 -5.2615e+000 -9.6553e+001  3.4507e+001 55156 83731,83835,83757
 2.4000e+000 83861 -1.3128e+001 -6.2417e+001  3.1617e+001 55156 83757,83809,83783
 2.4000e+000 84240 -2.3436e+001 -1.4132e+002  3.2578e+000 54652 84093,84145,84119
 2.4000e+000 84217 -3.4740e+000 -8.6751e+001 -4.7578e+000 54652 84041,84145,84093
 2.4000e+000 84194 -6.1862e+000 -1.5785e+002  2.1904e+001 54652 84015,84145,84041
 2.4000e+000 84171  8.1325e+000 -7.7173e+001  1.2876e+001 54652 84041,84093,84067
 2.4000e+000 84618 -6.8387e+001 -2.0766e+002  1.4722e+001 53926 84396,84500,84474
 2.4000e+000 84595 -9.7406e+001 -2.7269e+002  3.1631e+000 53926 84344,84500,84396
 2.4000e+000 84572 -8.0846e+001 -2.3556e+002 -3.0774e-001 53926 84344,84396,84370
 2.4000e+000 84549 -5.4020e+001 -1.9760e+002  3.9645e+000 53926 84396,84474,84422
 2.4000e+000 84526 -7.4770e+001 -1.3585e+002  8.3725e+000 53926 84422,84474,84448
 2.4000e+000 85350 -4.7806e+001 -1.7355e+002 -3.4447e+001 53586 85373,84880,85088
 2.4000e+000 85327 -6.4366e+001 -1.3083e+002 -5.4902e+001 53586 84880,85114,85088
 2.4000e+000 85304 -2.0653e+001 -1.4914e+002  6.6530e-002 53586 85373,85088,85062
 2.4000e+000 85281 -3.3476e+001 -1.1484e+002 -4.1408e+001 53586 85010,85062,85036
 2.4000e+000 85258 -3.6940e+001 -1.1603e+002 -2.1809e+001 53586 85445,85010,84958
 2.4000e+000 85235 -2.5273e+001 -9.5597e+001  1.4913e+001 53586 85445,84958,84906
 2.4000e+000 85212 -2.2659e+001 -1.3241e+002 -2.5694e+001 53586 84958,85010,84984
 2.4000e+000 85189 -2.9270e+001 -1.8511e+002  2.2233e+001 53586 84906,84958,84932
 2.4000e+000 85166 -2.6619e+001 -1.1244e+002 -6.1613e+001 53586 84880,85140,85114
 2.4000e+000 85399 -3.7627e+001 -1.2093e+002 -7.7707e+000 53586 84906,84880,85373
 2.4000e+000 85422 -1.8933e+001 -1.0762e+002  1.7542e+001 53586 85517,85373,85062
 2.4000e+000 85471 -7.8743e+000 -4.8047e+001 -3.0298e+001 53586 85062,85010,85445
 2.4000e+000 85494 -2.6499e+001 -8.1986e+001  1.6079e+001 53586 85517,85062,85445
 2.4000e+000 85543 -2.6182e+001 -1.4489e+002  1.1403e+001 53586 84906,85373,85517
 2.4000e+000 85566 -3.3955e+001 -1.2063e+002  1.2780e+001 53586 84906,85517,85445
 2.4000e+000 86072 -8.3204e+000 -1.1685e+002 -3.3804e+000 53182 86095,85853,85775
 2.4000e+000 86049  2.0744e+000 -9.8971e+001 -7.9215e+000 53182 86095,85775,85931
 2.4000e+000 86026  6.1508e+000 -1.2199e+002  4.3395e+001 53182 86167,85879,85853
 2.4000e+000 86003 -3.9026e+000 -1.6878e+002 -4.7994e+001 53182 85775,85827,85801
 2.4000e+000 85980 -4.4846e+001 -1.6752e+002 -3.6793e+001 53182 85775,85853,85827
 2.4000e+000 85957 -4.4751e-001 -9.9232e+001 -1.0306e+001 53182 85749,85931,85775
 2.4000e+000 86121  2.1436e+001 -9.6918e+001  5.2768e+000 53182 86167,85853,86095
 2.4000e+000 86144  1.7415e+001 -1.2827e+002 -9.7824e+000 53182 85905,86095,85931
 2.4000e+000 86193 -1.1706e+000 -1.4408e+002  4.7787e+001 53182 85905,85879,86167
 2.4000e+000 86216 -8.1509e+000 -1.6980e+002  9.0143e+000 53182 85905,86167,86095
 2.4000e+000 86673  1.9397e+001 -1.4145e+002 -2.7492e+001 52778 86477,86529,86503
 2.4000e+000 86650  4.9457e+000 -1.3009e+002 -3.4503e+000 52778 86425,86529,86477
 2.4000e+000 86627 -1.1453e+001 -9.8219e+001 -3.2261e+001 52778 86425,86477,86451
 2.4000e+000 86604 -4.8504e+001 -9.7269e+001 -9.0676e+000 52778 86399,86529,86425
 2.4000e+000 86581 -6.8412e+001 -1.1179e+002  2.9553e+000 52778 86399,86555,86529
 2.4000e+000 87258 -5.6075e+001 -3.0026e+002 -7.1181e+001 52238 87281,86987,86961
 2.4000e+000 87235 -2.0363e+001 -2.1802e+002  8.1195e+000 52238 87281,86961,87117
 2.4000e+000 87212 -3.4985e+001 -1.1362e+002 -2.0571e+000 52238 86935,87117,86961
 2.4000e+000 87189  1.9104e+001 -1.1044e+002  1.8071e+001 52238 87065,87117,87091
 2.4000e+000 87166 -1.7342e+001 -1.4250e+002 -4.4647e+001 52238 86987,87065,87039
 2.4000e+000 87143 -2.4092e+001 -9.3165e+001 -8.5328e+001 52238 86987,87039,87013
 2.4000e+000 87307  3.7950e+000 -1.5792e+002 -4.7117e+001 52238 87065,86987,87281
 2.4000e+000 87330 -2.9736e+000 -1.6942e+002  3.1891e+001 52238 87065,87281,87117
 2.4000e+000 87610  2.5471e+001 -6.0444e+001  5.5473e+000 51834 87434,87512,87460
 2.4000e+000 87587 -5.6854e+000 -7.0659e+001  1.1477e+001 51834 87434,87538,87512
 2.4000e+000 87564  5.5626e+000  2.0013e+001 -2.1683e-001 51834 87633,87460,87512
 2.4000e+000 87659 -1.4621e+000  1.6999e+001 -5.2597e-001 51834 87486,87460,87633
 2.4000e+000 88187 -5.6272e+001 -2.2244e+002 -3.4495e+001 51266 87864,87942,87890
 2.4000e+000 88164  8.2724e+000 -1.2169e+002 -6.8043e+000 51266 87864,88020,87942
 2.4000e+000 88141 -2.7053e+001 -1.3830e+002 -1.1447e+001 51266 87942,88020,87968
 2.4000e+000 88118 -1.8151e+001 -2.1064e+002 -7.5890e+000 51266 87864,88046,88020
 2.4000e+000 88095 -6.9971e+000 -1.2790e+002 -3.6529e+000 51266 87968,88020,87994
 2.4000e+000 88072 -1.4539e+001 -2.1305e+002 -6.5716e+001 51266 87890,87942,87916
 2.4000e+000 88644 -6.0175e+001 -7.7202e+001 -4.0060e+001 50754 88370,88500,88396
 2.4000e+000 88621 -7.2243e+001 -1.5180e+002 -2.1039e+001 50754 88370,88526,88500
 2.4000e+000 88598 -4.9174e+001 -1.2806e+002 -1.1832e+002 50754 88396,88500,88422
 2.4000e+000 88575 -6.4336e+001 -2.3367e+002 -9.2258e+001 50754 88422,88500,88474
 2.4000e+000 88552 -7.2638e+001 -1.6897e+002  5.7957e+001 50754 88422,88474,88448
 2.4000e+000 88914 -2.0072e+001 -2.0097e+002  1.3125e+001 50442 88715,88793,88741
 2.4000e+000 88891  3.2973e+000 -1.8915e+002  5.8685e+000 50442 88715,88819,88793
 2.4000e+000 88868 -8.7979e+000 -1.9322e+002  4.0759e+000 50442 88689,88819,88715
 2.4000e+000 88845 -5.4532e+001 -2.0324e+002  3.8725e+001 50442 88741,88793,88767
 2.4000e+000 89294 -2.8730e+001 -2.1345e+002  1.9620e+001 49938 89317,89046,89020
 2.4000e+000 89271 -2.6833e+001 -2.1419e+002  1.8595e+001 49938 89317,89020,89150
 2.4000e+000 89248 -6.8761e+001 -2.0309e+002  8.7968e+000 49938 89072,89150,89098
 2.4000e+000 89225 -3.6861e+001 -2.5166e+002  5.8886e+001 49938 89020,89176,89150
 2.4000e+000 89202 -3.1718e+001 -1.8726e+002 -1.7903e+001 49938 89098,89150,89124
 2.4000e+000 89343 -2.2898e+001 -2.0717e+002  2.2379e+001 49938 89072,89046,89317
 2.4000e+000 89366 -2.6557e+001 -2.1361e+002  1.8962e+001 49938 89072,89317,89150
 2.4000e+000 89823  1.4326e+001 -7.5670e+001  2.5404e-001 49384 89601,89705,89679
 2.4000e+000 89800 -1.2201e+001 -8.3625e+001 -2.9220e+001 49384 89549,89705,89601
 2.4000e+000 89777 -2.4341e+001 -1.2087e+002 -2.1722e+001 49384 89549,89601,89575
 2.4000e+000 89754 -3.8398e+001 -9.0887e+001 -7.2931e+000 49384 89601,89679,89627
 2.4000e+000 89731 -4.0847e+001 -1.0484e+002 -1.5667e+001 49384 89627,89679,89653
 2.4000e+000 90329  1.0360e+001 -1.3669e+002 -3.1503e+001 48894 90058,90110,90084
 2.4000e+000 90306 -3.3132e+001 -1.5551e+002 -3.7072e+001 48894 90058,90162,90110
 2.4000e+000 90283 -6.2315e+001 -1.5760e+002 -4.6349e+001 48894 90032,90162,90058
 2.4000e+000 90260 -6.2667e+001 -1.6475e+002 -2.6664e+001 48894 90006,90162,90032
 2.4000e+000 90237 -2.4029e+001 -1.9916e+002 -4.6959e+001 48894 90110,90162,90136
 2.4000e+000 90214 -3.8173e+001 -1.6020e+002 -1.9412e+001 48894 90006,90188,90162
 2.4000e+000 90884 -5.6484e+001 -1.8641e+002 -9.7945e+000 48490 90564,90642,90616
 2.4000e+000 90861 -7.5814e+001 -1.9549e+002 -6.3241e+000 48490 90564,90694,90642
 2.4000e+000 90838 -3.5598e+001 -1.7973e+002 -5.2075e+000 48490 90538,90694,90564
 2.4000e+000 90815 -3.8001e+001 -1.9496e+002  2.9186e+000 48490 90538,90720,90694
 2.4000e+000 90792 -3.8206e+001 -1.6921e+002 -3.4739e+001 48490 90564,90616,90590
 2.4000e+000 90769 -7.1213e+001 -2.1957e+002 -4.8311e+001 48490 90642,90694,90668
 2.4000e+000 90746 -8.2263e+000 -1.6520e+002  3.4619e+001 48490 90512,90720,90538
 2.4000e+000 91034  2.2236e+001 -1.5619e+002  9.3358e+000 48086 91057,90959,90933
 2.4000e+000 91011  5.0831e+001 -1.2757e+002  3.4077e+001 48086 91129,91057,90933
 2.4000e+000 91083 -1.2612e+001 -1.5463e+002  2.0929e+000 48086 90985,90959,91057
 2.4000e+000 91106  2.4566e+000 -1.4755e+002  9.0353e+000 48086 90985,91057,90907
 2.4000e+000 91155 -2.4560e+001 -1.6843e+002  1.8118e+001 48086 90907,91057,91129
 2.4000e+000 91791 -6.2725e+000 -8.6527e+001  4.2345e+001 47518 92030,91814,91523
 2.4000e+000 91768 -1.8542e+001 -1.0672e+002  8.8168e+000 47518 91958,91814,91471
 2.4000e+000 91745 -3.0071e+001 -1.4447e+002  2.4176e+001 47518 91886,91575,91523
 2.4000e+000 91722 -3.0765e+001 -7.6672e+001 -4.9490e+001 47518 91958,91471,91419
 2.4000e+000 91699 -1.9705e+001 -1.0095e+002  4.8998e+001 47518 92030,91523,91497
 2.4000e+000 91676 -6.1841e+001 -1.2846e+002  1.9933e+001 47518 91523,91575,91549
 2.4000e+000 91653 -5.7345e+001 -3.9334e+001 -4.1244e+001 47518 91419,91471,91445
 2.4000e+000 91840 -1.7078e+001 -1.2042e+002  4.6562e+001 47518 91886,91523,91814
 2.4000e+000 91863  2.9432e+001 -4.8322e+001  3.8162e+001 47518 91601,91814,91627
 2.4000e+000 91912 -5.4480e+001 -1.5880e+002 -1.0706e+001 47518 91601,91575,91886
 2.4000e+000 91935 -4.4777e+001 -1.0810e+002  1.1599e+001 47518 91601,91886,91814
 2.4000e+000 91984  5.6514e+001 -8.1150e+001 -4.0677e-001 47518 91627,91814,91958
 2.4000e+000 92007  1.8220e+001 -6.1616e+001 -4.8230e+001 47518 91627,91958,91419
 2.4000e+000 92056 -3.6669e+000 -7.6201e+001  2.9095e+001 47518 91471,91814,92030
 2.4000e+000 92079 -9.3478e+000 -8.4340e+001  3.4099e+001 47518 91471,92030,91497
 2.4000e+000 92229  2.1872e+001  2.0745e+001  3.0379e+001 47128 92252,92128,92102
 2.4000e+000 92206  2.9470e+001  4.3060e+001  2.9800e+001 47128 92324,92252,92102
 2.4000e+000 92278  2.7748e+001  3.4292e+001  2.4136e+001 47128 92454,92252,92154
 2.4000e+000 92301  3.0405e+001  3.0506e+001  2.0831e+001 47128 92154,92252,92180
 2.4000e+000 92350  1.1751e+001  2.2724e+001  2.2266e+001 47128 92180,92252,92324
 2.4000e+000 92480  9.5784e+000  1.0907e+001  1.5987e+001 47128 92128,92252,92454
 2.4000e+000 93340 -6.5405e+001 -1.8665e+002 -1.9085e+001 46838 93363,92977,92873
 2.4000e+000 93317 -5.4005e+001 -1.8383e+002 -9.8200e+000 46838 93507,93363,92873
 2.4000e+000 93294 -3.4765e+001 -1.7620e+002  3.1167e+000 46838 93435,93003,92977
 2.4000e+000 93271 -9.9280e+001 -1.7843e+002 -4.3077e+000 46838 93507,92873,92847
 2.4000e+000 93248 -2.9917e+001 -1.7844e+002 -3.4217e+000 46838 93579,93029,93003
 2.4000e+000 93225 -7.5628e+001 -2.8815e+002  4.3981e+001 46838 92873,92951,92925
 2.4000e+000 93202 -9.3453e+001 -2.1818e+002 -6.6870e+000 46838 92873,92977,92951
 2.4000e+000 93179 -1.5399e+001 -1.6228e+002  3.5694e+000 46838 93055,93107,93081
 2.4000e+000 93156 -4.3339e+001 -1.1695e+002  8.4625e+000 46838 92821,93107,92847
 2.4000e+000 93133 -6.5829e+001 -2.4662e+002  4.0338e+001 46838 92873,92925,92899
 2.4000e+000 93389 -4.3663e+001 -1.7991e+002  1.6236e+000 46838 93435,92977,93363
 2.4000e+000 93412 -1.1030e+001 -1.7951e+002  4.4559e+000 46838 93055,93363,93107
 2.4000e+000 93461 -3.1264e+001 -1.8149e+002 -3.7576e+000 46838 93579,93003,93435
 2.4000e+000 93484 -3.3809e+001 -1.8991e+002 -1.0979e+000 46838 93055,93435,93363
 2.4000e+000 93533 -2.3553e+001 -1.7170e+002 -2.0128e+001 46838 93107,93363,93507
 2.4000e+000 93556 -4.2584e+001 -1.4754e+002 -1.8519e+001 46838 93107,93507,92847
 2.4000e+000 93605 -2.8143e+001 -1.7977e+002  1.6688e+000 46838 93055,93029,93579
 2.4000e+000 93628 -2.9212e+001 -1.8221e+002  1.3844e+000 46838 93055,93579,93435
 2.4000e+000 93979 -7.3537e+001 -2.4314e+002 -2.3855e+000 46476 93780,93884,93858
 2.4000e+000 93956 -5.9591e+001 -2.3881e+002  6.0254e+000 46476 93754,93884,93780
 2.4000e+000 93933 -5.4654e+001 -2.4131e+002 -4.8667e+000 46476 93806,93858,93832
 2.4000e+000 93910 -5.0457e+001 -2.3313e+002 -3.7957e+000 46476 93780,93858,93806
 2.4000e+000 94515  2.6306e+000 -6.4768e+001 -7.6252e+000 46072 94345,94397,94371
 2.4000e+000 94492 -3.4363e+001 -8.4390e+001  1.2293e+001 46072 94267,94397,94345
 2.4000e+000 94469 -2.5517e+001 -1.2842e+002  1.7010e+000 46072 94241,94397,94267
 2.4000e+000 94446 -3.6712e+001 -5.0948e+001 -3.6904e-001 46072 94293,94345,94319
 2.4000e+000 94423 -5.3516e+001 -9.3901e+001  4.2042e+000 46072 94267,94345,94293
 2.4000e+000 95149 -5.5080e+001 -2.0561e+002  4.7959e+000 45346 94803,94881,94855
 2.4000e+000 95126 -3.8974e+001 -1.8174e+002 -6.7394e+000 45346 94803,94959,94881
 2.4000e+000 95103 -1.3854e+001 -2.0378e+002 -2.7188e+001 45346 95172,94933,94907
 2.4000e+000 95080 -4.4684e+001 -2.9417e+002 -1.4184e+001 45346 95172,94907,94881
 2.4000e+000 95057 -6.7501e+001 -1.8044e+002 -4.7536e+000 45346 94803,94985,94959
 2.4000e+000 95034 -5.3360e+001 -2.3645e+002 -1.2524e+000 45346 94803,94855,94829
 2.4000e+000 95011 -7.6731e+001 -1.9584e+002  1.1279e+001 45346 94777,94985,94803
 2.4000e+000 95198 -4.9440e+001 -1.5935e+002 -1.8030e+001 45346 94959,94933,95172
 2.4000e+000 95221 -4.9158e+001 -2.0803e+002 -1.4275e+001 45346 94959,95172,94881
 2.4000e+000 95776 -5.2039e+001 -2.1936e+002 -2.2601e+001 44720 95799,95560,95534
 2.4000e+000 95753 -4.4397e+001 -1.6619e+002 -3.3315e+001 44720 95799,95534,95482
 2.4000e+000 95730 -4.1480e+001 -2.1487e+002 -5.0700e+001 44720 95943,95871,95430
 2.4000e+000 95707 -5.1573e+001 -1.8960e+002 -4.6424e+001 44720 95943,95430,95404
 2.4000e+000 95684 -6.3897e+001 -1.5243e+002 -6.3589e+001 44720 95430,95482,95456
 2.4000e+000 95661  1.2559e+001 -1.2875e+002 -1.5723e+000 44720 95482,95534,95508
 2.4000e+000 95638 -6.4287e+001 -1.7560e+002 -5.5353e+001 44720 95404,95612,95586
 2.4000e+000 95825 -4.2073e+001 -2.9419e+002 -5.1745e+001 44720 95586,95560,95799
 2.4000e+000 95848 -8.5176e+000 -2.0516e+002 -4.9840e+001 44720 95871,95586,95799
 2.4000e+000 95897 -3.4620e+001 -2.0909e+002 -4.5322e+001 44720 95482,95430,95871
 2.4000e+000 95920 -4.7468e+001 -2.2946e+002 -3.2643e+001 44720 95482,95871,95799
 2.4000e+000 95969 -2.1448e+001 -1.8391e+002 -5.9350e+001 44720 95586,95871,95943
 2.4000e+000 95992 -4.1108e+001 -1.7103e+002 -5.0593e+001 44720 95586,95943,95404
 2.4000e+000 96449 -2.1616e+000 -1.3794e+002 -1.6861e+001 44202 96544,96472,96227
 2.4000e+000 96426 -1.2992e+000 -1.4772e+002  2.2565e+001 44202 96472,96175,96331
 2.4000e+000 96403  1.6891e+001 -1.4695e+002 -1.5415e+001 44202 96544,96227,96201
 2.4000e+000 96380 -2.3124e+001 -1.9044e+002 -2.6792e+001 44202 96253,96305,96279
 2.4000e+000 96357 -3.1398e+001 -1.5140e+002 -1.7795e+001 44202 96227,96305,96253
 2.4000e+000 96498 -5.0079e+000 -1.1947e+002 -5.9155e+000 44202 96305,96227,96472
 2.4000e+000 96521  2.6549e+001 -8.7533e+001  3.2308e+001 44202 96305,96472,96331
 2.4000e+000 96570  1.7031e+001 -1.2536e+002 -1.0238e+001 44202 96175,96472,96544
 2.4000e+000 96593  3.1086e+001 -1.4037e+002 -1.1885e+001 44202 96175,96544,96201
 2.4000e+000 96971  1.7487e+001 -1.4739e+002 -6.2310e+000 43754 96994,96749,96697
 2.4000e+000 96948  1.1911e-001 -1.5267e+002 -5.1027e+000 43754 96994,96697,96853
 2.4000e+000 96925 -1.8251e+000 -1.5768e+002  3.6164e+000 43754 96697,96749,96723
 2.4000e+000 96902 -4.8097e+001 -2.1087e+002 -8.8968e+000 43754 96775,96853,96827
 2.4000e+000 96879  9.0353e-001 -2.1389e+002 -3.7684e+000 43754 96775,96827,96801
 2.4000e+000 97020  1.3720e+001 -1.3361e+002 -2.5773e+001 43754 96775,96749,96994
 2.4000e+000 97043 -1.4008e+001 -1.4424e+002 -2.0973e+001 43754 96775,96994,96853
 2.4000e+000 97291 -5.0168e+001 -1.9890e+002 -2.2103e+001 43364 97314,97144,97118
 2.4000e+000 97268 -5.3743e+001 -1.7749e+002 -1.2587e+001 43364 97314,97118,97092
 2.4000e+000 97245 -5.6222e+001 -1.7980e+002 -1.2981e+001 43364 97386,97196,97170
 2.4000e+000 97222 -6.5242e+001 -1.3005e+002  2.0643e+001 43364 97066,97196,97092
 2.4000e+000 97340 -1.3452e+001 -1.6239e+002 -3.7503e+001 43364 97170,97144,97314
 2.4000e+000 97363 -5.2799e+001 -1.7205e+002 -1.7957e+001 43364 97386,97170,97314
 2.4000e+000 97412 -5.9835e+001 -1.8997e+002 -4.7217e+000 43364 97092,97196,97386
 2.4000e+000 97435 -5.5385e+001 -1.8506e+002 -1.0279e+001 43364 97092,97386,97314
 2.4000e+000 97788 -1.8500e+001 -9.2769e+001  1.3266e+001 42960 97563,97667,97589
 2.4000e+000 97765 -3.9683e+001 -7.6847e+001  1.1030e+001 42960 97563,97693,97667
 2.4000e+000 97742 -5.0338e+000 -5.0334e+001  4.0687e+000 42960 97589,97641,97615
 2.4000e+000 97719 -1.2902e+001 -1.0493e+002  4.6261e+000 42960 97589,97667,97641
 2.4000e+000 98215 -1.4779e+001 -1.6623e+002  5.5985e+000 42563 97918,98074,98048
 2.4000e+000 98192 -4.2805e+001 -1.3572e+002  3.9027e+001 42563 97892,98074,97918
 2.4000e+000 98169 -6.5700e+001 -2.5181e+002  2.4034e+001 42563 98238,97944,97918
 2.4000e+000 98146 -5.4936e+001 -2.2638e+002  2.8091e+001 42563 98238,97918,98048
 2.4000e+000 98123 -4.0964e+001 -1.8462e+002 -1.6636e-001 42563 97944,98022,97996
 2.4000e+000 98100 -5.2934e+001 -1.9846e+002  2.1762e+001 42563 97944,97996,97970
 2.4000e+000 98264 -6.8711e+001 -2.3805e+002  1.1261e+001 42563 98022,97944,98238
 2.4000e+000 98287 -6.4496e+001 -2.2941e+002  1.4463e+001 42563 98022,98238,98048
 2.4000e+000 98616 -3.8755e+001 -1.0505e+002 -6.3037e+000 42251 98443,98521,98469
 2.4000e+000 98593 -3.4289e+001 -1.2581e+002 -1.1901e+001 42251 98417,98521,98443
 2.4000e+000 98570 -3.6302e+001 -1.3013e+002 -9.0543e+000 42251 98391,98521,98417
 2.4000e+000 98547  4.2775e+000 -8.4873e+001 -1.1762e+001 42251 98469,98521,98495
 2.4000e+000 98886 -1.3190e+001 -2.1984e+002  2.2158e+001 41847 98661,98765,98687
 2.4000e+000 98863 -1.1794e+001 -1.0142e+002 -5.9591e+001 41847 98661,98791,98765
 2.4000e+000 98840 -4.8082e+001 -2.1623e+002  7.5028e+000 41847 98687,98765,98739
 2.4000e+000 98817 -4.3265e+001 -2.1121e+002  2.9724e+000 41847 98687,98739,98713
 2.4000e+000 99394 -4.5258e+001 -1.3675e+002 -2.2651e+001 41236 99417,99149,99123
 2.4000e+000 99371 -7.1331e+001 -1.3392e+002 -1.3567e+001 41236 99417,99123,99097
 2.4000e+000 99348 -6.2912e+001 -1.1357e+002 -3.7355e+001 41236 99489,99201,99149
 2.4000e+000 99325 -1.5359e+001 -8.4384e+001 -2.0023e+001 41236 99149,99201,99175
 2.4000e+000 99302 -2.5703e+001 -1.4128e+002 -5.0957e+000 41236 99097,99253,99227
 2.4000e+000 99279 -7.6055e+001 -1.7908e+002 -2.2313e+001 41236 99071,99253,99097
 2.4000e+000 99443 -4.4366e+001 -1.2092e+002 -3.4821e+001 41236 99489,99149,99417
 2.4000e+000 99466 -6.0068e+001 -1.2183e+002 -2.0837e+001 41236 99227,99417,99097
 2.4000e+000 99515 -7.3678e+001 -1.2039e+002 -3.4438e+001 41236 99227,99201,99489
 2.4000e+000 99538 -6.5540e+001 -1.3540e+002 -2.8517e+001 41236 99227,99489,99417
 2.4000e+000 100044  1.8819e+001 -1.6864e+002 -2.6738e+001 40732 99721,99773,99747
 2.4000e+000 100021 -2.9125e+001 -2.4066e+002 -4.8080e+001 40732 99721,99799,99773
 2.4000e+000 99998 -4.1064e+001 -2.0494e+002 -4.0888e+001 40732 99721,99903,99799
 2.4000e+000 99975 -2.0635e+001 -1.5173e+002 -1.7513e+001 40732 100067,99877,99851
 2.4000e+000 99952 -1.4432e+001 -1.4488e+002 -2.0472e+001 40732 100067,99851,99799
 2.4000e+000 99929 -8.0463e+000 -1.3276e+002 -3.3544e+001 40732 99799,99851,99825
 2.4000e+000 100093 -1.3751e+001 -1.6024e+002 -2.1210e+001 40732 99903,99877,100067
 2.4000e+000 100116 -4.8563e+000 -1.4968e+002 -2.5257e+001 40732 99903,100067,99799
 2.4000e+000 100622 -4.2020e+001 -2.0144e+002 -1.1535e+001 40278 100645,100455,100429
 2.4000e+000 100599 -7.0481e+001 -1.6761e+002 -2.2595e+001 40278 100717,100645,100429
 2.4000e+000 100576 -6.3094e+001 -1.6450e+002  6.4808e+000 40278 100717,100429,100377
 2.4000e+000 100553 -6.9964e+001 -2.4273e+002 -1.1978e+001 40278 100789,100325,100481
 2.4000e+000 100530 -8.1752e+001 -1.6361e+002  1.5445e+001 40278 100299,100481,100325
 2.4000e+000 100507 -6.3265e+001 -1.6719e+002  5.2287e+000 40278 100377,100429,100403
 2.4000e+000 100671 -4.5617e+001 -2.2057e+002 -1.8010e+001 40278 100481,100455,100645
 2.4000e+000 100694 -5.5362e+001 -2.2015e+002 -5.4625e+000 40278 100789,100481,100645
 2.4000e+000 100743 -5.2744e+001 -1.2749e+002 -1.9422e+001 40278 100351,100645,100717
 2.4000e+000 100766 -4.6988e+001 -1.3086e+002  1.1291e+001 40278 100351,100717,100377
 2.4000e+000 100815 -9.8811e+001 -2.5243e+002 -5.7972e+001 40278 100351,100325,100789
 2.4000e+000 100838 -6.9990e+001 -1.9697e+002 -4.7521e+001 40278 100351,100789,100645
 2.4000e+000 101265 -4.4931e+001 -1.7655e+002  1.0114e+001 39824 101288,101046,100994
 2.4000e+000 101242 -2.8564e+001 -1.3835e+002  1.6012e+001 39824 101288,100994,100968
 2.4000e+000 101219 -3.4704e+000 -1.2983e+002 -2.3774e+000 39824 100942,101124,100968
 2.4000e+000 101196 -5.5746e+001 -1.8215e+002 -9.5299e+000 39824 101046,101124,101072
 2.4000e+000 101173 -2.7316e+000 -1.4851e+002  2.9798e+001 39824 100994,101046,101020
 2.4000e+000 101150  4.8552e+000 -1.6622e+002 -1.5520e+001 39824 101072,101124,101098
 2.4000e+000 101314 -5.0070e+001 -1.5416e+002 -5.7239e+000 39824 101124,101046,101288
 2.4000e+000 101337 -4.5529e+001 -1.3841e+002 -5.3022e+000 39824 101124,101288,100968
 2.4000e+000 101585 -4.2146e+001 -1.9589e+002 -1.7772e+001 39070 101608,101464,101412
 2.4000e+000 101562 -2.9491e+001 -1.9787e+002 -8.1691e+000 39070 101608,101412,101360
 2.4000e+000 101539  8.1124e+000 -1.5906e+002  1.0360e+000 39070 101412,101464,101438
 2.4000e+000 101516 -6.4802e+001 -1.9914e+002  1.2162e+001 39070 101360,101412,101386
 2.4000e+000 101634 -5.2079e+001 -1.9766e+002 -2.0710e+001 39070 101490,101464,101608
 2.4000e+000 101657 -4.2790e+001 -2.0023e+002 -9.9050e+000 39070 101490,101608,101360
 2.4000e+000 101856 -4.8681e+001 -1.9672e+002 -4.6823e-001 38730 101706,101758,101732
 2.4000e+000 101833 -3.9029e+001 -2.0177e+002  7.2903e-001 38730 101706,101784,101758
 2.4000e+000 101810 -6.2636e+001 -2.1595e+002 -5.7130e+000 38730 101680,101784,101706
 2.4000e+000 102106 -7.4478e+001 -1.7784e+002 -2.1803e+001 38326 101881,101959,101907
 2.4000e+000 102083 -6.9524e+001 -1.6972e+002 -2.4512e+001 38326 101881,101985,101959
 2.4000e+000 102060 -5.3089e+001 -1.9493e+002 -8.8761e+000 38326 101881,102011,101985
 2.4000e+000 102037 -3.8148e+001 -1.2959e+002 -4.7200e+001 38326 101907,101959,101933
 2.4000e+000 102258 -6.1463e+001 -2.0670e+002 -3.9092e+000 38036 102281,102157,102131
 2.4000e+000 102235 -3.3235e+001 -2.3184e+002  1.0334e+001 38036 102281,102131,102209
 2.4000e+000 102307 -4.2804e+001 -1.9128e+002  2.9272e+000 38036 102183,102157,102281
 2.4000e+000 102330 -2.2953e-001 -1.9947e+002  2.3395e+001 38036 102183,102281,102209
 2.4000e+000 102663 -3.7982e+001 -1.0096e+002 -1.4531e+001 37596 102438,102542,102464
 2.4000e+000 102640  2.6286e+001 -5.7050e+001  2.5143e+001 37596 102438,102568,102542
 2.4000e+000 102617  3.0868e+001 -1.0822e+002 -4.0454e+001 37596 102490,102542,102516
 2.4000e+000 102594 -2.7640e+000 -1.0414e+002 -2.1083e+000 37596 102464,102542,102490
 2.4000e+000 102862 -5.9074e+001 -1.5869e+002 -5.5008e+000 37192 102686,102764,102712
 2.4000e+000 102839 -4.1410e+001 -1.6349e+002 -3.4124e+001 37192 102686,102790,102764
 2.4000e+000 102816 -6.0638e+001 -1.3382e+002 -1.6941e+001 37192 102712,102764,102738
 2.4000e+000 103110  1.3912e+001 -7.1729e+001 -4.4904e+001 36609 102911,102963,102937
 2.4000e+000 103087 -1.3221e+001 -1.2912e+002 -3.6373e+000 36609 102911,102989,102963
 2.4000e+000 103064  4.1474e+000 -1.5565e+002 -1.8198e+001 36609 102885,102989,102911
 2.4000e+000 103041 -2.9103e+001 -1.0894e+002 -4.9397e+001 36609 102885,103015,102989
 2.4000e+000 103718  2.8654e+000 -3.1000e+002  5.5663e+000 36131 103323,103375,103349
 2.4000e+000 103695 -7.7397e+001 -1.9151e+002 -2.8223e+001 36131 103297,103375,103323
 2.4000e+000 103672 -5.1372e+001 -1.2378e+002 -2.2496e+001 36131 103297,103505,103375
 2.4000e+000 103649 -8.1254e+001 -2.0762e+002  1.2399e+001 36131 103741,103479,103401
 2.4000e+000 103626 -5.6501e+001 -1.5008e+002  1.6743e+001 36131 103741,103401,103375
 2.4000e+000 103603 -9.6281e+001 -2.4149e+002  5.1680e+000 36131 103401,103479,103427
 2.4000e+000 103580 -5.0357e+001 -1.3979e+002 -7.8901e+000 36131 103297,103531,103505
 2.4000e+000 103557 -7.1849e+001 -2.0851e+002 -2.6191e+001 36131 103427,103479,103453
 2.4000e+000 103767 -7.0973e+001 -2.4708e+002 -3.1184e+001 36131 103505,103479,103741
 2.4000e+000 103790 -4.8199e+001 -1.9591e+002 -2.5473e+001 36131 103505,103741,103375
 2.4000e+000 103989 -9.6144e+001 -2.1270e+002  9.5370e+000 35791 103839,103917,103891
 2.4000e+000 103966 -1.4007e+002 -2.1862e+002  1.3584e-001 35791 103813,103917,103839
 2.4000e+000 103943 -1.7653e+001 -1.7073e+002 -6.6362e+000 35791 103839,103891,103865
 2.4000e+000 104188 -3.6644e+001 -1.9586e+002 -1.3387e+001 35444 104038,104090,104064
 2.4000e+000 104165 -8.1299e+001 -2.0916e+002 -6.6129e+000 35444 104038,104116,104090
 2.4000e+000 104142 -1.0509e+001 -2.0032e+002  1.3864e+001 35444 104012,104116,104038
 2.4000e+000 104487 -2.4547e+001 -1.7200e+002 -3.6897e+001 34990 104265,104317,104291
 2.4000e+000 104464 -3.3652e+001 -1.9065e+002 -1.5786e+001 34990 104510,104317,104265
 2.4000e+000 104441 -4.5988e+001 -1.6073e+002 -7.1132e+000 34990 104510,104265,104213
 2.4000e+000 104418 -2.1158e+001 -1.6262e+002 -2.3885e+001 34990 104582,104343,104317
 2.4000e+000 104395 -4.8221e+001 -1.6489e+002 -3.3410e+000 34990 104213,104265,104239
 2.4000e+000 104536 -2.0567e+001 -1.6191e+002 -2.0469e+001 34990 104582,104317,104510
 2.4000e+000 104559 -4.2217e+001 -1.4961e+002 -9.7950e+000 34990 104369,104510,104213
 2.4000e+000 104608 -2.5921e+001 -1.4245e+002 -1.6544e+001 34990 104369,104343,104582
 2.4000e+000 104631 -3.2890e+001 -1.6721e+002 -1.1143e+001 34990 104369,104582,104510
 2.4000e+000 104783  2.9889e+000 -1.2824e+002  5.8988e-001 34700 104938,104806,104682
 2.4000e+000 104760 -2.4199e+001 -1.7206e+002 -1.3417e+001 34700 104938,104682,104656
 2.4000e+000 104832 -3.7674e+001 -1.5316e+002 -1.1861e+001 34700 104708,104682,104806
 2.4000e+000 104964  1.4280e+001 -1.0752e+002  3.9673e+001 34700 104734,104806,104938
 2.4000e+000 104987 -7.6778e+000 -1.4068e+002  2.6738e+001 34700 104734,104938,104656
 2.4000e+000 105137 -3.7641e+001 -1.7931e+002  6.8565e+000 34388 105036,105088,105062
 2.4000e+000 105114 -4.7525e+001 -2.1249e+002 -1.1044e+000 34388 105010,105088,105036
 2.4000e+000 105385 -7.8750e+001 -1.6030e+002 -1.3067e+001 33734 105408,105186,105160
 2.4000e+000 105362 -6.3043e+001 -1.7588e+002 -2.8496e+001 33734 105408,105160,105264
 2.4000e+000 105339 -1.0537e+002 -1.8921e+002 -2.1496e+001 33734 105160,105290,105264
 2.4000e+000 105316 -4.1318e+001 -1.4588e+002 -9.4964e+000 33734 105186,105238,105212
 2.4000e+000 105434 -6.3440e+001 -1.5386e+002 -1.1239e+001 33734 105238,105186,105408
 2.4000e+000 105457 -2.6643e+001 -1.6008e+002 -2.6185e+001 33734 105238,105408,105264
 2.4000e+000 105609 -6.0109e+001 -2.2481e+002  1.0211e+001 33394 105482,105534,105508
 2.4000e+000 105586 -4.2123e+001 -2.0443e+002 -1.9599e+000 33394 105482,105560,105534
 2.4000e+000 105859 -9.2561e+001 -2.5644e+002 -1.3564e+001 33047 105882,105712,105660
 2.4000e+000 105836 -7.2740e+001 -2.4030e+002 -1.6111e+000 33047 105882,105660,105634
 2.4000e+000 105813 -1.0284e+002 -2.8324e+002  1.2344e+001 33047 105660,105712,105686
 2.4000e+000 105790 -5.4646e+001 -1.8196e+002  4.1810e+000 33047 105634,105764,105738
 2.4000e+000 105908 -1.4117e+002 -2.3191e+002 -4.5098e-001 33047 105738,105712,105882
 2.4000e+000 105931 -9.2130e+001 -2.1145e+002  1.6984e+001 33047 105738,105882,105634
 2.4000e+000 106181  1.7162e+001 -1.7104e+002 -3.3189e+001 32543 106204,106060,106008
 2.4000e+000 106158  3.4778e+001 -2.1082e+002 -7.0661e+001 32543 105956,106086,106060
 2.4000e+000 106135  2.6762e+001 -5.9581e+001  5.7976e+001 32543 106204,106008,105982
 2.4000e+000 106112 -1.3590e+001 -9.6188e+001 -3.3273e+001 32543 106008,106060,106034
 2.4000e+000 106230 -1.9560e+001 -2.2030e+002 -7.6690e+001 32543 105956,106060,106204
 2.4000e+000 106253 -6.2984e+001 -1.3571e+002  5.0732e+000 32543 105956,106204,105982
 2.4000e+000 106454 -3.2377e+001 -1.6066e+002  2.4346e+001 31839 106304,106356,106330
 2.4000e+000 106431 -4.2431e+001 -1.8283e+002 -9.4714e+000 31839 106278,106356,106304
 2.4000e+000 106408 -3.1068e+001 -2.0917e+002 -4.5108e+000 31839 106278,106382,106356
 2.4000e+000 106704 -2.5473e+001 -1.7037e+002 -4.1925e+001 31534 106505,106583,106557
 2.4000e+000 106681 -7.3603e+001 -1.7964e+002 -3.2774e+001 31534 106479,106583,106505
 2.4000e+000 106658 -7.3183e+001 -1.2681e+002 -5.1139e+001 31534 106505,106557,106531
 2.4000e+000 106635 -2.6544e+001 -1.6380e+002 -2.7291e+001 31534 106479,106609,106583
 2.4000e+000 107108 -1.1003e+002 -2.0664e+002 -7.6592e-001 31030 106886,106990,106964
 2.4000e+000 107085 -1.3513e+002 -2.4082e+002 -1.1838e+001 31030 106860,106990,106886
 2.4000e+000 107062 -2.8161e+001 -2.0691e+002 -2.2618e+001 31030 106834,106990,106860
 2.4000e+000 107039 -1.0449e+002 -2.6300e+002  2.9049e+001 31030 106912,106964,106938
 2.4000e+000 107016 -1.0153e+002 -2.0103e+002  5.3299e+000 31030 106886,106964,106912
 2.4000e+000 107307 -4.5831e+001 -2.3583e+002 -4.4294e+000 30718 107330,107157,107131
 2.4000e+000 107284 -5.5717e+001 -2.4856e+002 -9.5805e-002 30718 107330,107131,107235
 2.4000e+000 107261 -7.0590e+001 -2.3159e+002  1.8939e-001 30718 107183,107235,107209
 2.4000e+000 107356 -5.8675e+001 -2.1542e+002 -5.8920e+000 30718 107183,107157,107330
 2.4000e+000 107379 -7.0666e+001 -2.3119e+002 -6.6723e-001 30718 107183,107330,107235
 2.4000e+000 107759 -3.9292e+001 -1.8259e+002  1.4547e+000 30264 107782,107615,107537
 2.4000e+000 107736 -3.8432e+001 -1.8009e+002 -7.4846e+000 30264 107782,107537,107485
 2.4000e+000 107713 -1.3696e+001 -2.1242e+002 -4.7897e+000 30264 107485,107537,107511
 2.4000e+000 107690 -4.6261e+001 -2.2295e+002 -1.4244e+001 30264 107537,107615,107589
 2.4000e+000 107667 -1.3306e+001 -1.9097e+002  5.9384e-001 30264 107537,107589,107563
 2.4000e+000 107808 -2.9883e+001 -1.7846e+002  8.2663e-001 30264 107641,107615,107782
 2.4000e+000 107831 -3.3546e+001 -1.7793e+002 -7.9009e+000 30264 107641,107782,107485
 2.4000e+000 108030 -6.6165e+001 -2.0546e+002 -5.0158e+001 29874 108053,107854,107932
 2.4000e+000 108007 -1.1958e+002 -2.2809e+002 -4.3581e+001 29874 107854,107958,107932
 2.4000e+000 107984  3.2107e+001 -1.7152e+002 -4.6570e+001 29874 108053,107932,107906
 2.4000e+000 108079 -1.1095e+002 -1.6601e+002 -1.9247e+001 29874 107880,107854,108053
 2.4000e+000 108102 -6.0967e+001 -1.6301e+002 -2.0807e+001 29874 107880,108053,107906
 2.4000e+000 108433 -2.7622e+001 -1.9845e+002 -4.1003e+001 29484 108234,108338,108312
 2.4000e+000 108410  1.4852e+001 -1.8002e+002 -3.8216e+001 29484 108208,108338,108234
 2.4000e+000 108387 -5.9415e+001 -1.9322e+002 -5.0110e+001 29484 108234,108312,108260
 2.4000e+000 108364 -2.2219e+000 -9.1134e+001 -1.6685e+001 29484 108260,108312,108286
 2.4000e+000 108762 -6.4231e+001 -1.8041e+002  5.8280e+000 29080 108563,108641,108589
 2.4000e+000 108739 -5.1141e+001 -1.4246e+002  4.8147e+000 29080 108537,108641,108563
 2.4000e+000 108716 -6.2215e+001 -2.1568e+002 -1.3771e+000 29080 108589,108641,108615
 2.4000e+000 108693 -1.3388e+001 -1.2402e+002  1.4135e+001 29080 108537,108667,108641
 2.4000e+000 109189 -5.5816e+001 -1.7804e+002 -2.9522e+001 28476 108892,108996,108970
 2.4000e+000 109166 -9.8063e+001 -1.9092e+002 -2.2526e+001 28476 108892,109022,108996
 2.4000e+000 109143 -9.1684e+001 -1.8338e+002 -1.0660e+001 28476 108892,108970,108944
 2.4000e+000 109120 -9.0200e+001 -1.9385e+002 -2.5509e+001 28476 108892,109048,109022
 2.4000e+000 109097 -4.0159e+001 -1.3875e+002  3.9624e+001 28476 108892,108944,108918
 2.4000e+000 109074 -8.3200e+001 -2.0654e+002 -1.9162e+001 28476 108866,109048,108892
 2.4000e+000 109518 -7.8071e+001 -1.9533e+002  2.6247e+001 28022 109541,109371,109345
 2.4000e+000 109495 -8.3347e+001 -1.8603e+002  1.7325e+001 28022 109541,109345,109319
 2.4000e+000 109472 -6.0202e+001 -1.8165e+002  7.1748e+000 28022 109293,109397,109319
 2.4000e+000 109449 -1.3211e+001 -1.5966e+002  1.2934e+000 28022 109293,109423,109397
 2.4000e+000 109567 -5.4763e+001 -1.8501e+002  2.4350e+001 28022 109397,109371,109541
 2.4000e+000 109590 -7.6524e+001 -1.8343e+002  1.6822e+001 28022 109397,109541,109319
 2.4000e+000 109968 -7.4280e-001 -1.7018e+002  5.9455e+001 27568 109798,109850,109824
 2.4000e+000 109945 -4.7662e+001 -2.2057e+002  3.0216e+001 27568 109694,109850,109798
 2.4000e+000 109922 -8.8063e+001 -1.7747e+002  2.3078e+001 27568 109694,109798,109746
 2.4000e+000 109899 -3.6074e+001 -1.6161e+002 -2.0136e+001 27568 109746,109798,109772
 2.4000e+000 109876 -8.6196e+001 -1.9881e+002  4.3351e+001 27568 109694,109746,109720
 2.4000e+000 110167 -3.1279e+001 -1.7147e+002 -2.6917e+001 27007 110017,110095,110069
 2.4000e+000 110144 -1.2374e+001 -1.8501e+002 -1.0442e+001 27007 109991,110095,110017
 2.4000e+000 110121 -2.7993e+000 -1.5581e+002 -2.0263e+001 27007 110017,110069,110043
 2.4000e+000 110415  3.0130e+000 -1.7406e+002  9.6530e+000 26567 110438,110242,110190
 2.4000e+000 110392 -3.2440e+001 -1.8320e+002  1.4695e+001 26567 110438,110190,110320
 2.4000e+000 110369 -7.2056e+001 -1.7187e+002 -2.9857e+000 26567 110242,110294,110268
 2.4000e+000 110346 -1.4960e+001 -2.0819e+002  2.5200e+001 26567 110190,110242,110216
 2.4000e+000 110464 -1.4629e+001 -1.6661e+002 -4.3859e+000 26567 110294,110242,110438
 2.4000e+000 110487 -3.9209e+001 -1.7283e+002 -6.2441e+000 26567 110294,110438,110320
 2.4000e+000 110639 -9.7561e+000 -9.8762e+001 -1.4845e+001 26170 110538,110590,110564
 2.4000e+000 110616 -2.0800e+001 -5.5433e+001 -2.5654e+001 26170 110512,110590,110538
 2.4000e+000 111149 -6.6278e+001 -1.8425e+002 -1.7767e+001 25716 111172,110878,110852
 2.4000e+000 111126 -5.5323e+001 -1.9888e+002 -1.0537e+001 25716 111172,110852,111008
 2.4000e+000 111103 -5.7019e+001 -1.7947e+002 -2.1425e+001 25716 110878,110930,110904
 2.4000e+000 111080 -1.0449e+001 -1.9442e+002 -2.8348e+001 25716 110826,111008,110852
 2.4000e+000 111057 -8.2503e+001 -2.4091e+002  3.0220e+001 25716 110930,111008,110956
 2.4000e+000 111034 -5.9748e+001 -2.2708e+002  2.3602e+001 25716 110956,111008,110982
 2.4000e+000 111198 -6.1872e+001 -1.7448e+002 -1.5698e+001 25716 110930,110878,111172
 2.4000e+000 111221 -4.8236e+001 -1.8555e+002 -7.0879e+000 25716 110930,111172,111008
 2.4000e+000 111420 -3.8853e+001 -1.7864e+002 -6.3451e+000 25304 111443,111270,111244
 2.4000e+000 111397 -2.6872e+001 -1.9000e+002 -8.8341e+000 25304 111443,111244,111348
 2.4000e+000 111374 -1.8019e+001 -1.6741e+002  6.7972e+000 25304 111270,111322,111296
 2.4000e+000 111469 -2.9292e+001 -1.7685e+002 -2.5680e+000 25304 111322,111270,111443
 2.4000e+000 111492 -1.3046e+001 -1.8400e+002 -3.5523e+000 25304 111322,111443,111348
 2.4000e+000 111691 -4.8234e+001 -1.5275e+002  2.0879e+001 24736 111567,111619,111593
 2.4000e+000 111668 -6.0232e+001 -1.8335e+002  1.9930e+001 24736 111541,111619,111567
 2.4000e+000 111645 -4.8417e+001 -1.7531e+002  2.3473e+001 24736 111515,111619,111541
 2.4000e+000 112024 -4.1176e+001 -2.3705e+002  2.6466e+001 24146 111825,111877,111851
 2.4000e+000 112001 -6.9661e+001 -2.2579e+002 -4.1318e+000 24146 111825,111903,111877
 2.4000e+000 111978 -2.6773e+001 -1.6016e+002 -2.2773e+001 24146 111825,111929,111903
 2.4000e+000 111955 -5.0176e+001 -1.6462e+002 -2.2054e+001 24146 111799,111929,111825
 2.4000e+000 112370 -6.1549e+001 -2.5336e+002 -3.9633e+000 23856 112393,112151,112125
 2.4000e+000 112347 -5.3953e+001 -2.3145e+002 -3.3952e+000 23856 112465,112393,112125
 2.4000e+000 112324 -6.3324e+001 -2.2763e+002  1.3083e+001 23856 112465,112125,112073
 2.4000e+000 112301 -7.7403e+001 -2.1648e+002  1.5155e+001 23856 112073,112125,112099
 2.4000e+000 112278 -1.5452e+002 -2.6816e+002 -1.6742e+001 23856 112047,112229,112073
 2.4000e+000 112255 -1.1896e+001 -2.3242e+002 -5.9820e+001 23856 112151,112203,112177
 2.4000e+000 112419 -5.5103e+001 -2.4240e+002 -1.4196e+001 23856 112203,112151,112393
 2.4000e+000 112442 -6.9441e+001 -2.3140e+002 -1.2888e+001 23856 112203,112393,112229
 2.4000e+000 112491 -8.3465e+001 -2.4510e+002 -7.3081e+000 23856 112229,112393,112465
 2.4000e+000 112514 -8.8194e+001 -2.3776e+002  1.0804e+001 23856 112229,112465,112073
 2.4000e+000 112784 -4.7072e+001 -2.1453e+002  1.0636e+000 23494 112611,112663,112637
 2.4000e+000 112761 -1.9361e+001 -1.6685e+002  1.3949e+001 23494 112585,112663,112611
 2.4000e+000 112738 -6.3057e+001 -1.8570e+002  8.9136e+000 23494 112559,112663,112585
 2.4000e+000 112715 -2.5781e+001 -1.1643e+002 -6.4818e+000 23494 112559,112689,112663
 2.4000e+000 113117 -2.6468e+001 -1.0278e+002 -1.8004e+000 22974 112944,113022,112996
 2.4000e+000 113094 -4.8833e+001 -1.2240e+002  6.6514e+000 22974 112918,113022,112944
 2.4000e+000 113071 -3.3555e+001 -1.3659e+002 -1.8166e+001 22974 112944,112996,112970
 2.4000e+000 113048 -4.3747e+001 -1.1972e+002  1.3991e+001 22974 112892,113022,112918
 2.4000e+000 113414 -4.0359e+001 -2.0973e+002  4.0110e+000 22370 113192,113296,113218
 2.4000e+000 113391 -2.0926e+001 -1.9739e+002  1.0377e+001 22370 113140,113296,113192
 2.4000e+000 113368 -4.9194e+001 -2.2728e+002  1.8032e+001 22370 113218,113296,113270
 2.4000e+000 113345 -6.3177e+001 -2.3459e+002  6.4203e+000 22370 113218,113270,113244
 2.4000e+000 113322 -2.3158e+001 -1.8382e+002  2.9816e+001 22370 113140,113192,113166
 2.4000e+000 113662 -5.6441e+001 -1.4961e+002  5.3021e+000 21916 113685,113515,113489
 2.4000e+000 113639 -8.1900e+001 -2.1017e+002 -9.8155e+000 21916 113685,113489,113437
 2.4000e+000 113616 -8.9533e+000 -2.1161e+002  2.7638e+000 21916 113757,113567,113541
 2.4000e+000 113593 -7.5979e+001 -1.9211e+002 -2.2019e+001 21916 113437,113489,113463
 2.4000e+000 113711 -8.3641e+001 -2.2047e+002  7.7068e+000 21916 113541,113515,113685
 2.4000e+000 113734 -5.0956e+001 -2.0922e+002 -1.9819e+000 21916 113757,113541,113685
 2.4000e+000 113783 -5.8884e+001 -2.3305e+002 -6.9291e+000 21916 113437,113567,113757
 2.4000e+000 113806 -7.7116e+001 -2.1751e+002 -1.3489e+001 21916 113437,113757,113685
 2.4000e+000 114056 -1.5989e+001 -1.9800e+002 -1.0455e+001 21412 113857,113909,113883
 2.4000e+000 114033 -6.3197e+000 -1.7596e+002 -1.2874e+001 21412 114079,113909,113857
 2.4000e+000 114010 -2.4946e+001 -1.8777e+002 -5.9060e+000 21412 114079,113857,113961
 2.4000e+000 113987 -2.3506e+001 -1.8659e+002 -5.3852e+000 21412 113831,113961,113857
 2.4000e+000 114105 -2.1776e+001 -1.6167e+002 -2.2278e+001 21412 113935,113909,114079
 2.4000e+000 114128 -3.5064e+001 -1.7327e+002 -1.6356e+001 21412 113935,114079,113961
 2.4000e+000 114378 -7.4565e+001 -1.9268e+002 -4.6553e+001 21022 114401,114257,114205
 2.4000e+000 114355 -8.9514e+001 -2.3977e+002 -4.0896e+001 21022 114401,114205,114179
 2.4000e+000 114332 -2.3059e+001 -2.5685e+002 -7.7370e+000 21022 114153,114283,114179
 2.4000e+000 114309 -7.7872e+001 -1.4001e+002 -2.4869e+001 21022 114205,114257,114231
 2.4000e+000 114427 -7.2341e+001 -2.1162e+002 -7.1226e+000 21022 114283,114257,114401
 2.4000e+000 114450 -8.2718e+001 -2.5414e+002 -2.6963e+000 21022 114283,114401,114179
 2.4000e+000 114651 -1.2688e+002 -2.4917e+002 -1.2599e+001 20618 114501,114553,114527
 2.4000e+000 114628 -1.0709e+002 -2.4228e+002 -1.1382e+001 20618 114501,114579,114553
 2.4000e+000 114605 -1.0078e+002 -2.1612e+002 -2.7056e+000 20618 114475,114579,114501
 2.4000e+000 114901 -7.7653e+000 -2.2352e+002  1.5445e+001 20114 114676,114780,114702
 2.4000e+000 114878 -2.9618e+001 -2.3171e+002  1.5606e+001 20114 114676,114806,114780
 2.4000e+000 114855  8.2614e+000 -2.2538e+002  1.5427e+001 20114 114702,114780,114754
 2.4000e+000 114832  1.6191e+002 -2.0921e+002  4.7929e+001 20114 114702,114754,114728
 2.4000e+000 115053 -1.7629e+001 -2.0285e+002  4.3835e+000 19460 115147,115076,114926
 2.4000e+000 115030 -3.3989e+001 -1.8664e+002  3.7254e-001 19460 115147,114926,115004
 2.4000e+000 115102 -1.9064e+001 -2.1721e+002  1.7605e+000 19460 114952,114926,115076
 2.4000e+000 115173 -3.3659e+001 -2.2156e+002 -2.6594e+000 19460 114978,115076,115147
 2.4000e+000 115196 -5.1627e+001 -2.0460e+002 -6.7789e+000 19460 114978,115147,115004
 2.4000e+000 115446 -7.6458e+001 -2.5833e+002 -4.6213e+000 19006 115273,115351,115299
 2.4000e+000 115423 -3.4324e+001 -2.3999e+002  3.1920e+000 19006 115247,115351,115273
 2.4000e+000 115400 -2.6107e+001 -2.3742e+002 -3.5610e+000 19006 115221,115351,115247
 2.4000e+000 115377 -8.5127e+001 -2.7248e+002 -7.4659e-001 19006 115299,115351,115325
 2.4000e+000 115767 -1.0199e+002 -2.2953e+002  4.4323e+000 18716 115571,115649,115623
 2.4000e+000 115744 -1.0264e+002 -2.4137e+002  7.7377e+000 18716 115493,115649,115571
 2.4000e+000 115721 -9.4804e+001 -2.3710e+002  3.7744e+000 18716 115493,115571,115545
 2.4000e+000 115698 -7.6432e+001 -2.1824e+002  2.9147e+001 18716 115493,115545,115519
 2.4000e+000 115675 -8.2276e+001 -2.2256e+002  2.2762e+000 18716 115571,115623,115597
 2.4000e+000 116039 -6.4878e+001 -1.9346e+002  1.4567e+000 18312 115814,115892,115840
 2.4000e+000 116016 -6.4074e+001 -1.9184e+002  2.0218e+000 18312 115814,115944,115892
 2.4000e+000 115993 -6.2857e+001 -1.9130e+002  2.4230e+000 18312 115892,115944,115918
 2.4000e+000 115970 -7.8677e+001 -2.0224e+002  6.1449e+000 18312 115840,115892,115866
 2.4000e+000 116191 -1.4242e+001 -2.7099e+002 -2.5862e+000 18000 116090,116142,116116
 2.4000e+000 116168 -3.1014e+001 -2.6218e+002 -1.5563e+001 18000 116064,116142,116090
 2.4000e+000 116343 -1.3565e+002 -2.9748e+002 -5.7664e+000 17396 116242,116294,116268
 2.4000e+000 116320 -1.2625e+002 -2.9011e+002 -2.5266e+000 17396 116216,116294,116242
 2.4000e+000 116566 -7.0411e+001 -2.6198e+002  1.3183e+001 16942 116390,116468,116442
 2.4000e+000 116543 -4.9311e+001 -2.5921e+002  9.7738e+000 16942 116390,116494,116468
 2.4000e+000 116520 -8.6152e+001 -2.9883e+002  3.6988e+000 16942 116390,116442,116416
 2.4000e+000 116767 -4.0437e+000 -2.0558e+002 -5.0808e+000 16438 116790,116643,116617
 2.4000e+000 116744 -3.5701e+001 -1.9056e+002 -8.3298e+000 16438 116790,116617,116591
 2.4000e+000 116721  1.6106e+001 -1.6631e+002 -1.3146e+001 16438 116643,116695,116669
 2.4000e+000 116816  3.6023e+000 -1.9405e+002 -1.0155e+001 16438 116695,116643,116790
 2.4000e+000 116839 -7.1959e+000 -1.7058e+002 -1.9888e+001 16438 116695,116790,116591
 2.4000e+000 117062 -2.7128e+001 -2.5360e+002 -3.7432e+000 16074 116886,116938,116912
 2.4000e+000 117039 -3.8573e+001 -2.7133e+002  1.4574e+001 16074 116886,116990,116938
 2.4000e+000 117016 -1.4017e+001 -2.1255e+002  2.4364e+001 16074 116938,116990,116964
 2.4000e+000 117214  2.3728e+000 -1.9719e+002  1.6584e+000 15649 117087,117139,117113
 2.4000e+000 117191 -4.5252e+001 -2.1694e+002  1.9114e+000 15649 117087,117165,117139
 2.4000e+000 117317 -1.2277e+002 -2.4968e+002 -2.4457e+001 421 117239,117291,117265
 2.5000e+000 70632 -1.7254e+002 -4.1471e+002 -1.7727e+001 70072 70482,70534,70508
 2.5000e+000 70609 -1.5737e+002 -3.7884e+002 -1.4188e+001 70072 70482,70560,70534
 2.5000e+000 70586 -1.7812e+002 -3.9201e+002 -5.3482e+000 70072 70456,70560,70482
 2.5000e+000 70951 -1.7408e+002 -6.2465e+002  0.0000e+000 69874 70703,70755,70729
 2.5000e+000 70928 -5.6693e+001 -5.8656e+002 -1.1540e+002 69874 70703,70781,70755
 2.5000e+000 70905  7.4405e+001 -1.0939e+002 -5.3345e+001 69874 70703,70807,70781
 2.5000e+000 70882 -8.5329e+001 -4.9775e+002 -2.2355e+001 69874 70703,70833,70807
 2.5000e+000 70859 -8.3615e+001 -5.1402e+002  1.9532e+001 69874 70677,70833,70703
 2.5000e+000 71199 -4.3079e+001 -2.1619e+002  2.2704e+001 69698 71222,71052,71026
 2.5000e+000 71176 -4.8106e+001 -2.0301e+002  2.3159e+001 69698 71294,71222,71026
 2.5000e+000 71153 -6.3088e+001 -1.7709e+002 -5.8013e+001 69698 71294,71026,71000
 2.5000e+000 71130 -9.4971e+001 -1.8998e+002  2.2816e+001 69698 71366,71104,71078
 2.5000e+000 71248 -2.0592e+001 -1.6255e+002  1.8865e+001 69698 71078,71052,71222
 2.5000e+000 71271 -3.1413e+001 -1.6744e+002  1.7823e+001 69698 71366,71078,71222
 2.5000e+000 71320  8.4148e+001 -1.3192e+002 -7.1479e+000 69698 70974,71222,71294
 2.5000e+000 71343  9.1994e+001 -1.1193e+002 -8.0233e+001 69698 70974,71294,71000
 2.5000e+000 71392 -1.1452e+001 -1.8458e+002  3.4009e+001 69698 70974,71104,71366
 2.5000e+000 71415  1.6488e+000 -1.9486e+002  3.8046e+001 69698 70974,71366,71222
 2.5000e+000 71516 -4.5993e+001 -3.2800e+002 -6.0453e+001 69386 71438,71490,71464
 2.5000e+000 71869 -3.9999e+001 -1.8233e+002  1.8333e+001 69188 71644,71748,71670
 2.5000e+000 71846  2.8192e+001 -1.7359e+002  5.3370e+001 69188 71644,71774,71748
 2.5000e+000 71823  1.0139e+001 -8.0676e+001  1.3365e+000 69188 71670,71748,71722
 2.5000e+000 71800 -7.4001e+001 -2.9867e+002 -2.9810e+001 69188 71670,71722,71696
 2.5000e+000 72019 -1.4164e+002 -3.5939e+002 -3.3544e+000 68990 71918,71970,71944
 2.5000e+000 71996 -1.2728e+002 -3.9631e+002  1.2532e+001 68990 71892,71970,71918
 2.5000e+000 72316  4.8096e+001 -5.9123e+000 -1.8971e+001 68586 72339,72172,72146
 2.5000e+000 72293  2.7065e+001 -2.1034e+001 -5.9666e+000 68586 72339,72146,72120
 2.5000e+000 72270  1.8365e+001  8.1682e+000 -1.1111e+001 68586 72411,72068,72198
 2.5000e+000 72247  4.4500e+000  1.4344e+001 -7.2481e+000 68586 72042,72198,72068
 2.5000e+000 72224  4.8575e+000  6.6203e-001  1.4476e+000 68586 72068,72120,72094
 2.5000e+000 72365  2.2373e+001 -1.5282e+001 -1.6760e+001 68586 72198,72172,72339
 2.5000e+000 72388  2.8350e+001 -1.0375e+000 -6.9598e+000 68586 72411,72198,72339
 2.5000e+000 72437  6.6004e+000 -1.1042e+000 -3.8229e+000 68586 72120,72068,72411
 2.5000e+000 72460  1.5845e+001 -1.3318e+001  1.7459e-001 68586 72120,72411,72339
 2.5000e+000 72864  1.6553e+001 -1.2692e+002  4.5220e+000 68388 72642,72694,72668
 2.5000e+000 72841 -1.6400e+000 -1.7377e+002  7.2321e+000 68388 72616,72694,72642
 2.5000e+000 72818  1.9332e+001 -1.2709e+002  1.2546e+001 68388 72616,72720,72694
 2.5000e+000 72795 -1.7212e+001 -2.1624e+002  2.6158e+001 68388 72590,72720,72616
 2.5000e+000 72772  6.8300e+001 -1.4294e+002  8.6180e+001 68388 72590,72746,72720
 2.5000e+000 73321 -1.1424e+001 -2.5166e+001 -9.3776e+000 68048 73073,73203,73177
 2.5000e+000 73298  9.7394e-001 -1.2623e+001  9.7107e-001 68048 73047,73203,73073
 2.5000e+000 73275 -1.3873e+001 -6.6734e+001 -1.4342e+001 68048 73125,73177,73151
 2.5000e+000 73252  5.4286e+000 -5.6060e+001 -9.7569e+000 68048 73073,73177,73125
 2.5000e+000 73229  1.7073e+001 -8.0168e+001 -3.4160e+000 68048 73073,73125,73099
 2.5000e+000 73640 -8.3619e+000 -2.0279e+002 -6.3027e+000 67850 73444,73496,73470
 2.5000e+000 73617 -1.5618e+001 -1.8872e+002 -8.6438e+000 67850 73418,73496,73444
 2.5000e+000 73594 -1.4975e+001 -1.8274e+002 -9.9496e-001 67850 73392,73496,73418
 2.5000e+000 73571 -5.6659e+001 -2.1820e+002 -1.7764e+001 67850 73392,73522,73496
 2.5000e+000 73548 -1.0654e+002 -3.0472e+002  8.9018e+000 67850 73366,73522,73392
 2.5000e+000 73790 -4.6499e+000 -1.2354e+002 -3.0644e+000 67602 73689,73741,73715
 2.5000e+000 73767  1.8590e+001 -6.8127e+001 -7.9939e-001 67602 73663,73741,73689
 2.5000e+000 74040  2.8985e+000 -1.3306e+002 -1.8079e+001 67290 73841,73945,73919
 2.5000e+000 74017  8.7719e+001 -1.1335e+002 -4.7237e+001 67290 73815,73945,73841
 2.5000e+000 73994  2.1528e+001 -4.4752e+001 -2.4822e+001 67290 73841,73919,73867
 2.5000e+000 73971  1.8443e+001 -6.2648e+001 -4.7464e+000 67290 73867,73919,73893
 2.5000e+000 74143 -4.2153e+000 -3.9094e+000 -1.8347e+000 67092 74065,74117,74091
 2.5000e+000 74415 -6.3653e+001 -3.6268e+002 -8.0737e+001 66894 74190,74294,74216
 2.5000e+000 74392 -3.2666e+001 -3.3929e+002 -2.8047e+001 66894 74190,74320,74294
 2.5000e+000 74369  1.7750e+001 -1.6518e+002 -6.6229e+001 66894 74216,74294,74242
 2.5000e+000 74346 -4.1290e+001 -2.8378e+002 -4.0838e+001 66894 74242,74294,74268
 2.5000e+000 75023  4.1146e+002 -7.8666e+001 -1.0041e+002 66532 74654,74836,74810
 2.5000e+000 75000 -6.4877e+001 -1.0372e+002 -1.1271e+002 66532 74628,74836,74654
 2.5000e+000 74977  1.8056e+001 -3.2657e+001  5.8417e+000 66532 74706,74784,74732
 2.5000e+000 74954  6.3159e+000 -6.7808e+001  3.9158e+000 66532 74680,74784,74706
 2.5000e+000 74931  1.6361e+002 -2.7703e+001  2.0130e+001 66532 74680,74810,74784
 2.5000e+000 74908  1.0164e+001 -9.5843e+001 -9.0863e+001 66532 74654,74810,74680
 2.5000e+000 74885 -1.0791e+002 -1.5431e+002 -1.3688e+002 66532 74602,74836,74628
 2.5000e+000 74862 -3.3283e+001 -2.3478e+001  3.2635e+001 66532 74732,74784,74758
 2.5000e+000 75222 -1.9447e+000 -1.8158e+002 -3.1284e+000 66242 75072,75150,75124
 2.5000e+000 75199 -1.7038e+001 -1.7031e+002  1.0070e+000 66242 75046,75150,75072
 2.5000e+000 75176  9.9273e+000 -1.4036e+002 -1.7228e+000 66242 75072,75124,75098
 2.5000e+000 75470 -1.7816e+001 -1.0192e+002 -3.4030e+001 65838 75297,75375,75349
 2.5000e+000 75447  2.1439e+001 -9.5932e+001 -1.6425e+001 65838 75271,75375,75297
 2.5000e+000 75424 -5.4892e+000 -8.3756e+001 -2.0003e+001 65838 75297,75349,75323
 2.5000e+000 75401 -6.9886e+000 -9.8279e+001  9.3517e+000 65838 75245,75375,75271
 2.5000e+000 75671 -2.5950e+001 -4.6826e+001 -3.6060e+001 65640 75495,75573,75521
 2.5000e+000 75648 -1.0307e+001 -5.2485e+001 -1.2036e+001 65640 75495,75599,75573
 2.5000e+000 75625 -3.0701e+001 -9.6310e+001 -6.8583e+001 65640 75521,75573,75547
 2.5000e+000 75872 -2.9416e+001 -4.3032e+001 -4.0614e+001 65300 75895,75748,75722
 2.5000e+000 75849  1.6193e+001 -8.9301e+001 -7.0206e+001 65300 75895,75722,75696
 2.5000e+000 75826 -4.6835e+001 -8.6165e+001 -6.3713e+001 65300 75967,75774,75748
 2.5000e+000 75921 -3.6579e+001 -7.6194e+001 -4.4588e+001 65300 75967,75748,75895
 2.5000e+000 75944 -3.6549e+001 -1.6616e+002 -4.0338e+001 65300 75800,75895,75696
 2.5000e+000 75993 -8.1115e+001 -7.1987e+001 -6.4362e+001 65300 75800,75774,75967
 2.5000e+000 76016 -7.8195e+001 -7.7086e+001 -5.0566e+001 65300 75800,75967,75895
 2.5000e+000 76371 -6.2663e+000 -6.9080e+001  5.5360e-001 64896 76146,76250,76172
 2.5000e+000 76348 -2.4519e+000 -6.3906e+001 -2.6059e+000 64896 76146,76276,76250
 2.5000e+000 76325 -7.6866e-002 -1.9592e+001 -3.3129e+000 64896 76172,76250,76198
 2.5000e+000 76302 -2.2301e+000 -6.9578e+000  6.7441e+000 64896 76198,76250,76224
 2.5000e+000 76570 -1.2396e+001 -7.6734e+001 -2.5269e+001 64442 76446,76498,76472
 2.5000e+000 76547 -7.4511e+000 -4.2638e+001 -9.1202e+000 64442 76420,76498,76446
 2.5000e+000 76524 -1.3504e+001 -8.4244e+001 -3.2651e+000 64442 76394,76498,76420
 2.5000e+000 76999  1.4242e+001 -1.5136e+002  3.9646e+000 63924 77022,76728,76702
 2.5000e+000 76976 -1.2175e+001 -1.0448e+002 -4.9923e+001 63924 77022,76702,76832
 2.5000e+000 76953  5.9188e+000 -1.7244e+002  5.5782e+001 63924 76728,76806,76754
 2.5000e+000 76930 -3.6594e+001 -5.8341e+001  3.2090e+001 63924 76676,76832,76702
 2.5000e+000 76907 -4.3378e+001 -2.1656e+002  3.7213e+001 63924 76754,76806,76780
 2.5000e+000 76884  1.3065e+000 -7.0167e+001  2.0631e+001 63924 76676,76858,76832
 2.5000e+000 77048  1.7750e+001 -2.1713e+002 -1.2605e+001 63924 76806,76728,77022
 2.5000e+000 77071 -1.8130e+001 -1.8241e+002 -6.8648e+001 63924 76806,77022,76832
 2.5000e+000 77449 -1.3264e+001 -7.4764e+001  2.0406e+001 63320 77472,77253,77201
 2.5000e+000 77426 -2.7652e+001 -8.6609e+001  1.3341e+001 63320 77472,77201,77175
 2.5000e+000 77403 -1.3447e+001 -9.9795e+001 -2.5029e+000 63320 77175,77305,77279
 2.5000e+000 77380 -3.0845e+000 -3.4785e+001 -1.3801e+001 63320 77201,77253,77227
 2.5000e+000 77357 -5.8136e-001 -9.3113e+001 -7.7897e+000 63320 77175,77331,77305
 2.5000e+000 77498  3.6829e+000 -9.0914e+001  6.4312e+000 63320 77279,77253,77472
 2.5000e+000 77521 -1.8333e+001 -1.0114e+002 -1.5647e+000 63320 77279,77472,77175
 2.5000e+000 77769 -3.6097e+001 -1.8104e+002  1.2079e+001 62816 77570,77622,77596
 2.5000e+000 77746 -7.3067e+001 -1.6923e+002  3.1370e+001 62816 77570,77648,77622
 2.5000e+000 77723  4.3149e+000 -1.2140e+002 -1.7761e+001 62816 77570,77674,77648
 2.5000e+000 77700 -2.0128e+001 -5.0534e+001  2.5402e+001 62816 77544,77674,77570
 2.5000e+000 78149 -3.0642e+001 -1.2268e+002 -1.0319e+001 62354 77953,78031,78005
 2.5000e+000 78126 -4.6087e+001 -1.2469e+002 -1.5169e+001 62354 77901,78031,77953
 2.5000e+000 78103 -1.4369e+001 -1.1018e+002 -1.3002e+000 62354 77875,78031,77901
 2.5000e+000 78080 -3.7243e+000 -1.7795e+002 -6.2303e+001 62354 77901,77953,77927
 2.5000e+000 78057 -4.5851e+001 -1.1200e+002 -1.9995e+001 62354 77953,78005,77979
 2.5000e+000 78606  2.3974e+001 -6.2413e+001  3.7577e+001 61950 78384,78436,78410
 2.5000e+000 78583  4.0970e+001 -9.1925e+001 -1.4065e+001 61950 78358,78436,78384
 2.5000e+000 78560  2.3023e+001 -5.8946e+001 -3.1732e+001 61950 78358,78488,78436
 2.5000e+000 78537  4.7704e+000 -1.2260e+002 -3.3789e+001 61950 78436,78488,78462
 2.5000e+000 78514  2.6888e+001 -2.4428e+001 -1.3948e+001 61950 78332,78488,78358
 2.5000e+000 78756  1.9198e+001 -1.5397e+002 -1.2513e+001 61339 78779,78655,78629
 2.5000e+000 78733  9.5544e+000 -1.5848e+002 -8.6554e+000 61339 78779,78629,78707
 2.5000e+000 78805 -1.0766e+001 -2.2166e+002  1.4755e+001 61339 78851,78779,78681
 2.5000e+000 78828  4.2230e+001 -1.7263e+002 -1.2037e+001 61339 78681,78779,78707
 2.5000e+000 78877  2.6398e+001 -1.2973e+002 -3.4415e+000 61339 78655,78779,78851
 2.5000e+000 79206 -2.0354e+001 -7.3785e+001 -2.4451e+001 60892 79229,79007,78981
 2.5000e+000 79183 -5.8233e+000 -9.6291e+000  6.8224e+000 60892 79229,78981,79111
 2.5000e+000 79160 -1.4415e+001 -9.9558e+001 -2.9164e+001 60892 79301,79033,79007
 2.5000e+000 79137 -1.6458e+001 -6.3526e+001  4.0341e+001 60892 79033,79085,79059
 2.5000e+000 79255 -2.3478e+001 -7.8456e+001 -4.5667e+001 60892 79301,79007,79229
 2.5000e+000 79278 -2.8571e+001 -6.1455e+001 -2.9792e+001 60892 79085,79229,79111
 2.5000e+000 79327 -4.4958e+001 -1.5638e+002 -6.7950e+000 60892 79085,79033,79301
 2.5000e+000 79350 -2.0449e+001 -1.1535e+002 -3.3972e+001 60892 79085,79301,79229
 2.5000e+000 79647 -1.0559e+002 -2.4301e+002 -2.8703e+001 60488 79451,79529,79503
 2.5000e+000 79624 -7.1132e+001 -1.7249e+002 -4.2376e+001 60488 79425,79529,79451
 2.5000e+000 79601 -7.6227e+001 -1.9092e+002 -4.9893e+001 60488 79373,79529,79425
 2.5000e+000 79578 -5.8988e+001 -2.3049e+002 -2.6652e+001 60488 79373,79425,79399
 2.5000e+000 79555 -1.4500e+001 -1.6988e+002  4.0991e+000 60488 79451,79503,79477
 2.5000e+000 79870 -4.8968e+001 -1.7049e+002 -2.0557e+000 60026 79720,79798,79772
 2.5000e+000 79847  5.6189e+001 -1.6674e+002 -3.9926e+000 60026 79694,79798,79720
 2.5000e+000 79824  6.9175e+001 -1.2863e+002 -2.1386e+001 60026 79720,79772,79746
 2.5000e+000 80120 -3.9311e+001 -1.0436e+002 -3.0300e+000 59629 79921,80025,79973
 2.5000e+000 80097 -3.4350e+001 -6.8224e+001  1.8664e+001 59629 79895,80025,79921
 2.5000e+000 80074 -2.5587e+001 -7.6369e+001 -1.0109e+001 59629 79973,80025,79999
 2.5000e+000 80051 -3.3561e+001 -8.1816e+001 -1.0173e+001 59629 79921,79973,79947
 2.5000e+000 80321  5.1837e+001 -1.3351e+002 -2.6697e+000 59125 80344,80171,80145
 2.5000e+000 80298  2.5833e+001 -1.4850e+002  1.1344e+001 59125 80344,80145,80249
 2.5000e+000 80275 -5.6688e+000 -7.9075e+001  1.1649e+001 59125 80197,80249,80223
 2.5000e+000 80370  1.9322e+001 -1.2585e+002  1.4041e+001 59125 80197,80171,80344
 2.5000e+000 80393 -4.3794e+000 -1.3792e+002  2.7381e+001 59125 80197,80344,80249
 2.5000e+000 80952  1.2383e+001 -1.8888e+002  3.2578e+001 58557 80975,80632,80606
 2.5000e+000 80929  5.3951e+000 -4.1613e+001 -4.0863e+000 58557 81119,80975,80606
 2.5000e+000 80906 -4.2539e+001 -1.8072e+002 -3.9412e+001 58557 81047,80684,80632
 2.5000e+000 80883  3.0655e+001 -3.6538e+001 -4.3151e+001 58557 81119,80606,80580
 2.5000e+000 80860 -1.4799e+001 -2.7582e+002  1.1013e+001 58557 81191,80736,80710
 2.5000e+000 80837 -4.6115e+001 -2.2670e+002 -3.0471e+001 58557 80736,80788,80762
 2.5000e+000 80814 -2.1612e+001 -1.0876e+002 -4.7506e+001 58557 80632,80684,80658
 2.5000e+000 81001 -3.2963e+000 -2.1234e+002 -1.4973e+001 58557 81047,80632,80975
 2.5000e+000 81024  2.2997e+001 -1.8590e+002  2.1814e+001 58557 81191,80710,80975
 2.5000e+000 81073 -7.0071e+000 -1.4046e+002 -1.6127e+001 58557 80710,80684,81047
 2.5000e+000 81096  4.5465e+001 -1.6943e+002  7.7232e+000 58557 80710,81047,80975
 2.5000e+000 81145 -1.0185e+001 -8.6792e+001  9.3407e+000 58557 80788,80975,81119
 2.5000e+000 81168 -8.2793e-001 -8.0761e+001 -2.5680e+001 58557 80788,81119,80580
 2.5000e+000 81217 -3.3957e+001 -1.8824e+002 -2.2330e+001 58557 80788,80736,81191
 2.5000e+000 81240 -2.7244e+001 -1.5295e+002 -2.3696e+001 58557 80788,81191,80975
 2.5000e+000 81537 -3.0379e+000 -1.7832e+002 -7.7815e+000 57881 81560,81341,81289
 2.5000e+000 81514 -5.6991e+001 -2.0199e+002  1.5493e+001 57881 81560,81289,81263
 2.5000e+000 81491 -6.4349e+001 -1.6073e+002 -2.2798e+001 57881 81632,81419,81367
 2.5000e+000 81468 -6.7334e+001 -1.7431e+002 -4.2449e+001 57881 81367,81419,81393
 2.5000e+000 81445  3.8720e+001 -1.3758e+002 -2.4479e+001 57881 81289,81341,81315
 2.5000e+000 81586 -1.7460e+001 -1.4633e+002 -4.9708e+001 57881 81367,81341,81560
 2.5000e+000 81609 -5.5536e+001 -1.8523e+002 -3.3254e+001 57881 81632,81367,81560
 2.5000e+000 81658 -4.4173e+001 -1.1979e+002 -1.4023e+001 57881 81263,81419,81632
 2.5000e+000 81681 -3.7450e+001 -1.5331e+002 -2.2676e+001 57881 81263,81632,81560
 2.5000e+000 81929 -4.2748e+001 -1.2353e+002 -2.8052e-001 57477 81704,81808,81782
 2.5000e+000 81906 -1.2064e+001 -1.6086e+002  1.5252e+001 57477 81704,81834,81808
 2.5000e+000 81883 -5.4903e+001 -1.3881e+002  7.4687e+000 57477 81704,81782,81730
 2.5000e+000 81860 -2.8315e+001 -1.3187e+002  3.1028e+000 57477 81730,81782,81756
 2.5000e+000 82488  1.3385e+001 -1.5978e+002 -1.2711e+001 56966 82583,82511,82194
 2.5000e+000 82465  7.4077e+000 -1.5515e+002  1.4347e+001 56966 82511,82116,82324
 2.5000e+000 82442  7.6547e+000 -1.7026e+002 -9.0594e+000 56966 82583,82194,82168
 2.5000e+000 82419 -1.5985e+000 -1.6119e+002  2.2318e+001 56966 82194,82246,82220
 2.5000e+000 82396 -1.6771e+001 -1.7951e+002 -7.1344e+000 56966 82194,82298,82246
 2.5000e+000 82373 -8.6988e+000 -1.2348e+002  3.1038e+000 56966 82246,82298,82272
 2.5000e+000 82350 -5.4250e+000 -2.1879e+002 -2.4197e+001 56966 82116,82168,82142
 2.5000e+000 82537  5.3979e+000 -1.4604e+002  3.2333e+000 56966 82298,82194,82511
 2.5000e+000 82560  6.6699e+001 -5.8673e+001  4.8501e+001 56966 82298,82511,82324
 2.5000e+000 82609  6.0594e+000 -1.4757e+002 -1.5751e+001 56966 82116,82511,82583
 2.5000e+000 82632  4.4062e+000 -1.5461e+002 -1.3666e+001 56966 82116,82583,82168
 2.5000e+000 83236 -4.1052e+000 -8.0448e+001 -1.7985e+001 56304 82893,82945,82919
 2.5000e+000 83213 -6.3980e+000 -1.0275e+002  1.6466e+001 56304 83259,82945,82893
 2.5000e+000 83190  5.0616e+000 -1.2853e+002  2.6751e+000 56304 83259,82893,83049
 2.5000e+000 83167 -7.7254e+000 -1.1516e+002 -3.6118e+000 56304 82971,83049,83023
 2.5000e+000 83144  2.2846e+000 -1.3860e+002  4.6117e+000 56304 82815,83049,82893
 2.5000e+000 83121 -2.2130e+001 -1.9331e+002  1.2257e+001 56304 82815,82893,82867
 2.5000e+000 83098 -4.9115e+001 -2.2476e+002  9.8261e+000 56304 82971,83023,82997
 2.5000e+000 83075 -3.9667e+001 -1.5975e+002 -1.2441e+001 56304 82815,82867,82841
 2.5000e+000 83285 -3.1733e+001 -1.4029e+002  2.7937e+001 56304 82971,82945,83259
 2.5000e+000 83308 -4.5918e+000 -1.3801e+002  7.6982e+000 56304 82971,83259,83049
 2.5000e+000 83556 -8.4787e+001 -2.7161e+002 -9.2140e+000 55964 83357,83461,83435
 2.5000e+000 83533 -8.3613e+001 -1.7379e+002  3.6755e+001 55964 83331,83461,83357
 2.5000e+000 83510 -2.0322e+001 -2.9704e+002  3.2802e+001 55964 83357,83435,83383
 2.5000e+000 83487 -1.0526e+001 -3.2752e+002  1.9450e+001 55964 83383,83435,83409
 2.5000e+000 83706  1.5652e+001 -1.0116e+002  1.8072e+001 55503 83579,83631,83605
 2.5000e+000 83683  8.9802e+000 -1.3496e+002  2.7340e+001 55503 83579,83657,83631
 2.5000e+000 83907 -8.9650e+000 -1.5828e+002  1.6686e+001 55156 83757,83835,83809
 2.5000e+000 83884 -9.8136e-003 -1.2529e+002  3.8999e+001 55156 83731,83835,83757
 2.5000e+000 83861 -9.0751e+000 -6.3223e+001  4.1318e+001 55156 83757,83809,83783
 2.5000e+000 84240 -3.2747e+001 -1.8871e+002  2.0757e+000 54652 84093,84145,84119
 2.5000e+000 84217 -5.6785e+000 -1.1465e+002 -8.9049e+000 54652 84041,84145,84093
 2.5000e+000 84194 -5.8460e+000 -2.0372e+002  2.8650e+001 54652 84015,84145,84041
 2.5000e+000 84171  2.0133e+001 -9.5341e+001  2.1483e+001 54652 84041,84093,84067
 2.5000e+000 84618 -8.5524e+001 -2.4963e+002  1.5831e+001 53926 84396,84500,84474
 2.5000e+000 84595 -1.1847e+002 -3.2998e+002  2.9909e+000 53926 84344,84500,84396
 2.5000e+000 84572 -9.9129e+001 -2.9241e+002 -7.5341e+000 53926 84344,84396,84370
 2.5000e+000 84549 -5.8611e+001 -2.3448e+002  5.3422e+000 53926 84396,84474,84422
 2.5000e+000 84526 -7.9392e+001 -1.6279e+002  1.1204e+001 53926 84422,84474,84448
 2.5000e+000 85350 -6.5916e+001 -2.3949e+002 -5.1880e+001 53586 85373,84880,85088
 2.5000e+000 85327 -9.1094e+001 -1.9500e+002 -7.3715e+001 53586 84880,85114,85088
 2.5000e+000 85304 -3.3133e+001 -2.0314e+002  5.3918e+000 53586 85373,85088,85062
 2.5000e+000 85281 -4.3411e+001 -1.4270e+002 -4.6802e+001 53586 85010,85062,85036
 2.5000e+000 85258 -5.1263e+001 -1.4507e+002 -2.5315e+001 53586 85445,85010,84958
 2.5000e+000 85235 -3.0431e+001 -1.1841e+002  1.5908e+001 53586 85445,84958,84906
 2.5000e+000 85212 -3.0163e+001 -1.5383e+002 -3.1939e+001 53586 84958,85010,84984
 2.5000e+000 85189 -3.1559e+001 -2.3637e+002  2.8555e+001 53586 84906,84958,84932
 2.5000e+000 85166 -3.1734e+001 -1.4638e+002 -9.6071e+001 53586 84880,85140,85114
 2.5000e+000 85399 -4.2038e+001 -1.4772e+002 -2.0761e+001 53586 84906,84880,85373
 2.5000e+000 85422 -2.4216e+001 -1.3800e+002  2.4022e+001 53586 85517,85373,85062
 2.5000e+000 85471 -1.4869e+001 -6.0250e+001 -3.4156e+001 53586 85062,85010,85445
 2.5000e+000 85494 -3.5500e+001 -9.9473e+001  2.1505e+001 53586 85517,85062,85445
 2.5000e+000 85543 -3.5125e+001 -1.9516e+002  1.4922e+001 53586 84906,85373,85517
 2.5000e+000 85566 -4.6793e+001 -1.5867e+002  1.6727e+001 53586 84906,85517,85445
 2.5000e+000 86072 -1.0139e+001 -1.6900e+002 -1.5649e+001 53182 86095,85853,85775
 2.5000e+000 86049  8.1281e-001 -1.1384e+002 -2.0628e+001 53182 86095,85775,85931
 2.5000e+000 86026  4.0242e+001 -1.5743e+002  6.0584e+001 53182 86167,85879,85853
 2.5000e+000 86003 -7.5520e+000 -2.4673e+002 -8.0696e+001 53182 85775,85827,85801
 2.5000e+000 85980 -5.2465e+001 -2.2868e+002 -5.4428e+001 53182 85775,85853,85827
 2.5000e+000 85957 -1.0098e+000 -1.1690e+002 -1.4052e+001 53182 85749,85931,85775
 2.5000e+000 86121  4.3997e+001 -1.2796e+002  2.3134e+000 53182 86167,85853,86095
 2.5000e+000 86144 -2.7175e+001 -1.8176e+002 -3.8900e+001 53182 85905,86095,85931
 2.5000e+000 86193  2.2601e+001 -1.9019e+002  4.9990e+001 53182 85905,85879,86167
 2.5000e+000 86216 -6.5726e+000 -2.3925e+002 -1.1295e+001 53182 85905,86167,86095
 2.5000e+000 86673  2.7501e+001 -1.6857e+002 -3.4778e+001 52778 86477,86529,86503
 2.5000e+000 86650  8.7076e+000 -1.5664e+002 -4.4196e+000 52778 86425,86529,86477
 2.5000e+000 86627 -1.2478e+001 -1.2039e+002 -3.7252e+001 52778 86425,86477,86451
 2.5000e+000 86604 -5.7365e+001 -1.1885e+002 -1.1539e+001 52778 86399,86529,86425
 2.5000e+000 86581 -6.9032e+001 -1.3367e+002  7.0428e+000 52778 86399,86555,86529
 2.5000e+000 87258 -6.4437e+001 -3.5722e+002 -8.0530e+001 52238 87281,86987,86961
 2.5000e+000 87235 -2.3454e+001 -2.6053e+002  1.4438e+001 52238 87281,86961,87117
 2.5000e+000 87212 -4.1826e+001 -1.2714e+002  1.9266e+000 52238 86935,87117,86961
 2.5000e+000 87189  2.1464e+001 -1.3296e+002  2.4835e+001 52238 87065,87117,87091
 2.5000e+000 87166 -1.1563e+001 -1.6354e+002 -4.8380e+001 52238 86987,87065,87039
 2.5000e+000 87143 -2.1620e+001 -9.8501e+001 -1.0129e+002 52238 86987,87039,87013
 2.5000e+000 87307  7.3015e+000 -1.8780e+002 -5.3983e+001 52238 87065,86987,87281
 2.5000e+000 87330 -2.5022e+000 -2.0339e+002  4.0542e+001 52238 87065,87281,87117
 2.5000e+000 87610  2.0406e+001 -9.0979e+001  9.1270e+000 51834 87434,87512,87460
 2.5000e+000 87587 -4.1624e+000 -9.8374e+001  1.5408e+001 51834 87434,87538,87512
 2.5000e+000 87564 -3.9608e-001  6.9550e+000  3.5884e+000 51834 87633,87460,87512
 2.5000e+000 87659  1.3294e+000  7.6911e+000  3.6637e+000 51834 87486,87460,87633
 2.5000e+000 88187 -6.6993e+001 -2.8741e+002 -4.3640e+001 51266 87864,87942,87890
 2.5000e+000 88164  1.3338e+001 -1.5139e+002 -9.9060e+000 51266 87864,88020,87942
 2.5000e+000 88141 -2.2971e+001 -1.6949e+002 -1.6589e+001 51266 87942,88020,87968
 2.5000e+000 88118 -2.0408e+001 -2.6643e+002 -1.0928e+001 51266 87864,88046,88020
 2.5000e+000 88095  1.1586e+000 -1.3798e+002 -6.0536e+000 51266 87968,88020,87994
 2.5000e+000 88072 -1.7347e+001 -2.5887e+002 -7.6650e+001 51266 87890,87942,87916
 2.5000e+000 88644 -7.9399e+001 -1.0230e+002 -4.0253e+001 50754 88370,88500,88396
 2.5000e+000 88621 -8.9353e+001 -1.8794e+002 -1.9233e+001 50754 88370,88526,88500
 2.5000e+000 88598 -6.7580e+001 -1.6425e+002 -1.3624e+002 50754 88396,88500,88422
 2.5000e+000 88575 -8.5892e+001 -2.8725e+002 -1.0756e+002 50754 88422,88500,88474
 2.5000e+000 88552 -8.5482e+001 -2.0665e+002  7.4015e+001 50754 88422,88474,88448
 2.5000e+000 88914 -1.4247e+001 -2.5141e+002  1.9955e+001 50442 88715,88793,88741
 2.5000e+000 88891 -7.4977e+000 -2.4106e+002  1.6609e+001 50442 88715,88819,88793
 2.5000e+000 88868  4.2407e+001 -2.1504e+002  2.7995e+001 50442 88689,88819,88715
 2.5000e+000 88845 -6.9705e+001 -2.5732e+002  5.5859e+001 50442 88741,88793,88767
 2.5000e+000 89294 -3.2611e+001 -2.6198e+002  2.3178e+001 49938 89317,89046,89020
 2.5000e+000 89271 -3.0602e+001 -2.6290e+002  2.2082e+001 49938 89317,89020,89150
 2.5000e+000 89248 -8.8346e+001 -2.5707e+002  7.3929e+000 49938 89072,89150,89098
 2.5000e+000 89225 -4.8164e+001 -3.0691e+002  6.6829e+001 49938 89020,89176,89150
 2.5000e+000 89202 -3.6874e+001 -2.2922e+002 -2.8155e+001 49938 89098,89150,89124
 2.5000e+000 89343 -2.6089e+001 -2.5449e+002  2.6232e+001 49938 89072,89046,89317
 2.5000e+000 89366 -3.0352e+001 -2.6217e+002  2.2552e+001 49938 89072,89317,89150
 2.5000e+000 89823  2.3757e+001 -8.6788e+001  4.4187e+000 49384 89601,89705,89679
 2.5000e+000 89800 -1.1107e+001 -1.0279e+002 -3.1957e+001 49384 89549,89705,89601
 2.5000e+000 89777 -1.9194e+001 -1.2932e+002 -2.6773e+001 49384 89549,89601,89575
 2.5000e+000 89754 -3.8997e+001 -1.0111e+002 -3.1062e+000 49384 89601,89679,89627
 2.5000e+000 89731 -3.7959e+001 -1.0729e+002 -1.2071e+001 49384 89627,89679,89653
 2.5000e+000 90329  2.7689e+001 -1.6774e+002 -3.7196e+001 48894 90058,90110,90084
 2.5000e+000 90306 -3.5752e+001 -1.9523e+002 -4.6067e+001 48894 90058,90162,90110
 2.5000e+000 90283 -7.5817e+001 -1.9731e+002 -5.8764e+001 48894 90032,90162,90058
 2.5000e+000 90260 -7.3605e+001 -2.0284e+002 -4.0594e+001 48894 90006,90162,90032
 2.5000e+000 90237 -1.8616e+001 -2.5259e+002 -6.1985e+001 48894 90110,90162,90136
 2.5000e+000 90214 -3.5694e+001 -1.9993e+002 -2.3280e+001 48894 90006,90188,90162
 2.5000e+000 90884 -5.8242e+001 -2.2618e+002 -1.3364e+001 48490 90564,90642,90616
 2.5000e+000 90861 -8.6084e+001 -2.3409e+002 -1.1265e+001 48490 90564,90694,90642
 2.5000e+000 90838 -4.2983e+001 -2.1381e+002 -5.6698e+000 48490 90538,90694,90564
 2.5000e+000 90815 -4.5965e+001 -2.3667e+002  6.6277e+000 48490 90538,90720,90694
 2.5000e+000 90792 -3.9048e+001 -1.9551e+002 -2.8222e+001 48490 90564,90616,90590
 2.5000e+000 90769 -6.5169e+001 -2.3657e+002 -7.3468e+001 48490 90642,90694,90668
 2.5000e+000 90746 -8.6424e+000 -2.0146e+002  4.2363e+001 48490 90512,90720,90538
 2.5000e+000 91034  2.9492e+001 -1.8860e+002  1.1911e+001 48086 91057,90959,90933
 2.5000e+000 91011  6.1650e+001 -1.5751e+002  4.0349e+001 48086 91129,91057,90933
 2.5000e+000 91083 -1.2754e+001 -1.8744e+002  3.6262e+000 48086 90985,90959,91057
 2.5000e+000 91106  4.4065e+000 -1.7307e+002  1.1373e+001 48086 90985,91057,90907
 2.5000e+000 91155 -3.2317e+001 -2.0447e+002  2.4784e+001 48086 90907,91057,91129
 2.5000e+000 91791 -1.0700e+001 -1.1039e+002  6.2148e+001 47518 92030,91814,91523
 2.5000e+000 91768 -1.7487e+001 -1.3110e+002  1.6713e+001 47518 91958,91814,91471
 2.5000e+000 91745 -3.7123e+001 -1.8445e+002  3.4567e+001 47518 91886,91575,91523
 2.5000e+000 91722 -3.0059e+001 -9.7338e+001 -4.4947e+001 47518 91958,91471,91419
 2.5000e+000 91699 -2.9645e+001 -1.3313e+002  7.2719e+001 47518 92030,91523,91497
 2.5000e+000 91676 -7.0879e+001 -1.7220e+002  2.9260e+001 47518 91523,91575,91549
 2.5000e+000 91653 -6.3409e+001 -5.8696e+001 -3.4021e+001 47518 91419,91471,91445
 2.5000e+000 91840 -1.9622e+001 -1.5246e+002  6.5196e+001 47518 91886,91523,91814
 2.5000e+000 91863  3.1028e+001 -6.5028e+001  5.0578e+001 47518 91601,91814,91627
 2.5000e+000 91912 -7.0652e+001 -2.0378e+002 -1.1905e+001 47518 91601,91575,91886
 2.5000e+000 91935 -5.7978e+001 -1.3635e+002  1.8850e+001 47518 91601,91886,91814
 2.5000e+000 91984  6.1913e+001 -1.0244e+002  6.0360e+000 47518 91627,91814,91958
 2.5000e+000 92007  2.1333e+001 -8.0732e+001 -4.4512e+001 47518 91627,91958,91419
 2.5000e+000 92056 -6.2496e+000 -9.3660e+001  4.3210e+001 47518 91471,91814,92030
 2.5000e+000 92079 -1.3713e+001 -1.0651e+002  5.1388e+001 47518 91471,92030,91497
 2.5000e+000 92229 -2.7608e-001  3.3391e+001  1.4320e+001 47128 92252,92128,92102
 2.5000e+000 92206  1.1688e+001 -2.0385e+001 -1.2569e+001 47128 92324,92252,92102
 2.5000e+000 92278  6.1526e+000  6.7744e+001  3.1886e+001 47128 92454,92252,92154
 2.5000e+000 92301  3.0968e+001  2.8357e+001 -5.7323e-001 47128 92154,92252,92180
 2.5000e+000 92350 -1.0894e+001  9.0247e+000 -1.2591e+001 47128 92180,92252,92324
 2.5000e+000 92480  1.9618e+001  4.6824e+001  3.1323e+001 47128 92128,92252,92454
 2.5000e+000 93340 -7.8071e+001 -2.2460e+002 -2.4333e+001 46838 93363,92977,92873
 2.5000e+000 93317 -6.7058e+001 -2.2241e+002 -1.2462e+001 46838 93507,93363,92873
 2.5000e+000 93294 -4.0985e+001 -2.1245e+002  1.7728e+000 46838 93435,93003,92977
 2.5000e+000 93271 -1.2792e+002 -2.1819e+002 -6.8490e+000 46838 93507,92873,92847
 2.5000e+000 93248 -3.1803e+001 -2.0883e+002 -7.6106e+000 46838 93579,93029,93003
 2.5000e+000 93225 -9.7561e+001 -3.6228e+002  5.8606e+001 46838 92873,92951,92925
 2.5000e+000 93202 -1.1775e+002 -2.6412e+002 -6.7260e+000 46838 92873,92977,92951
 2.5000e+000 93179 -1.4411e+001 -1.9449e+002  5.0507e+000 46838 93055,93107,93081
 2.5000e+000 93156 -4.7034e+001 -1.3481e+002  1.4287e+001 46838 92821,93107,92847
 2.5000e+000 93133 -8.2344e+001 -3.0281e+002  5.4690e+001 46838 92873,92925,92899
 2.5000e+000 93389 -5.0789e+001 -2.1434e+002  1.1831e+000 46838 93435,92977,93363
 2.5000e+000 93412 -7.0432e+000 -2.1694e+002  5.7923e+000 46838 93055,93363,93107
 2.5000e+000 93461 -3.4313e+001 -2.1533e+002 -7.9058e+000 46838 93579,93003,93435
 2.5000e+000 93484 -3.8619e+001 -2.3139e+002 -1.7893e+000 46838 93055,93435,93363
 2.5000e+000 93533 -2.4541e+001 -2.1071e+002 -2.6159e+001 46838 93107,93363,93507
 2.5000e+000 93556 -4.9083e+001 -1.8059e+002 -2.4507e+001 46838 93107,93507,92847
 2.5000e+000 93605 -2.9297e+001 -2.1194e+002  2.7764e+000 46838 93055,93029,93579
 2.5000e+000 93628 -3.1180e+001 -2.1715e+002  2.5689e+000 46838 93055,93579,93435
 2.5000e+000 93979 -8.3339e+001 -2.7440e+002 -1.8931e+000 46476 93780,93884,93858
 2.5000e+000 93956 -6.4771e+001 -2.8213e+002  1.1190e+001 46476 93754,93884,93780
 2.5000e+000 93933 -5.6317e+001 -3.0012e+002 -9.7124e-001 46476 93806,93858,93832
 2.5000e+000 93910 -4.4271e+001 -2.5637e+002 -6.4308e+000 46476 93780,93858,93806
 2.5000e+000 94515  5.1823e+000 -8.0609e+001 -1.1238e+001 46072 94345,94397,94371
 2.5000e+000 94492 -4.5747e+001 -1.0779e+002  1.8012e+001 46072 94267,94397,94345
 2.5000e+000 94469 -3.3174e+001 -1.5558e+002  4.9482e+000 46072 94241,94397,94267
 2.5000e+000 94446 -3.0794e+001 -2.3144e+001 -2.1987e+000 46072 94293,94345,94319
 2.5000e+000 94423 -6.7074e+001 -1.0712e+002  9.0948e+000 46072 94267,94345,94293
 2.5000e+000 95149 -6.1938e+001 -2.3976e+002  2.2500e+000 45346 94803,94881,94855
 2.5000e+000 95126 -4.8590e+001 -2.1175e+002 -1.1705e+001 45346 94803,94959,94881
 2.5000e+000 95103 -1.4933e+001 -2.2699e+002 -4.9471e+001 45346 95172,94933,94907
 2.5000e+000 95080 -5.7059e+001 -3.7861e+002 -3.1980e+001 45346 95172,94907,94881
 2.5000e+000 95057 -8.3536e+001 -2.1246e+002 -1.0515e+001 45346 94803,94985,94959
 2.5000e+000 95034 -6.3763e+001 -2.8038e+002 -2.8020e+000 45346 94803,94855,94829
 2.5000e+000 95011 -8.9589e+001 -2.1669e+002  1.6192e+001 45346 94777,94985,94803
 2.5000e+000 95198 -6.5216e+001 -1.5431e+002 -3.3596e+001 45346 94959,94933,95172
 2.5000e+000 95221 -5.7148e+001 -2.3788e+002 -2.9475e+001 45346 94959,95172,94881
 2.5000e+000 95776 -6.5735e+001 -2.6424e+002 -2.5188e+001 44720 95799,95560,95534
 2.5000e+000 95753 -4.1537e+001 -1.8781e+002 -4.3498e+001 44720 95799,95534,95482
 2.5000e+000 95730 -3.0469e+001 -2.6771e+002 -5.2673e+001 44720 95943,95871,95430
 2.5000e+000 95707 -4.1807e+001 -2.3040e+002 -4.5538e+001 44720 95943,95430,95404
 2.5000e+000 95684 -9.3754e+001 -1.6070e+002 -8.1129e+001 44720 95430,95482,95456
 2.5000e+000 95661  1.8143e+001 -1.3549e+002  1.9752e+001 44720 95482,95534,95508
 2.5000e+000 95638 -3.6014e+001 -1.7805e+002 -7.2289e+001 44720 95404,95612,95586
 2.5000e+000 95825 -4.1624e+001 -3.5779e+002 -6.1857e+001 44720 95586,95560,95799
 2.5000e+000 95848 -5.1711e+000 -2.5469e+002 -5.5295e+001 44720 95871,95586,95799
 2.5000e+000 95897 -2.3209e+001 -2.6365e+002 -5.0564e+001 44720 95482,95430,95871
 2.5000e+000 95920 -3.2644e+001 -2.7535e+002 -3.6668e+001 44720 95482,95871,95799
 2.5000e+000 95969 -9.6687e+000 -2.1919e+002 -6.1016e+001 44720 95586,95871,95943
 2.5000e+000 95992 -3.1709e+001 -1.9798e+002 -4.7103e+001 44720 95586,95943,95404
 2.5000e+000 96449 -1.9292e+001 -1.6728e+002 -2.1981e+001 44202 96544,96472,96227
 2.5000e+000 96426 -2.0373e+001 -1.9337e+002  1.9579e+001 44202 96472,96175,96331
 2.5000e+000 96403  5.6953e+000 -1.7270e+002 -2.2256e+001 44202 96544,96227,96201
 2.5000e+000 96380 -4.8794e+001 -2.5062e+002 -3.6147e+001 44202 96253,96305,96279
 2.5000e+000 96357 -5.6517e+001 -1.9054e+002 -2.5236e+001 44202 96227,96305,96253
 2.5000e+000 96498 -2.5834e+001 -1.5947e+002 -1.1086e+001 44202 96305,96227,96472
 2.5000e+000 96521  7.5082e+000 -1.2921e+002  2.2700e+001 44202 96305,96472,96331
 2.5000e+000 96570  9.8193e+000 -1.6519e+002 -1.4769e+001 44202 96175,96472,96544
 2.5000e+000 96593  3.2064e+001 -1.7352e+002 -1.9596e+001 44202 96175,96544,96201
 2.5000e+000 96971 -2.3558e+001 -1.7350e+002 -2.2594e+001 43754 96994,96749,96697
 2.5000e+000 96948 -1.4401e+001 -1.9509e+002 -8.0281e+000 43754 96994,96697,96853
 2.5000e+000 96925 -1.3115e+001 -2.1466e+002 -3.1856e+001 43754 96697,96749,96723
 2.5000e+000 96902 -4.4799e+001 -2.6419e+002 -1.3210e+001 43754 96775,96853,96827
 2.5000e+000 96879  5.5330e+000 -2.5843e+002 -5.3390e+000 43754 96775,96827,96801
 2.5000e+000 97020 -1.1479e+001 -1.3776e+002 -2.7512e+001 43754 96775,96749,96994
 2.5000e+000 97043 -1.2227e+001 -1.7372e+002 -1.2473e+001 43754 96775,96994,96853
 2.5000e+000 97291 -5.1167e+001 -2.2618e+002 -3.2415e+001 43364 97314,97144,97118
 2.5000e+000 97268 -6.5599e+001 -1.9573e+002 -1.8836e+001 43364 97314,97118,97092
 2.5000e+000 97245 -5.4930e+001 -1.9865e+002 -1.3002e+001 43364 97386,97196,97170
 2.5000e+000 97222 -7.9836e+001 -1.5181e+002  2.2981e+001 43364 97066,97196,97092
 2.5000e+000 97340  5.6696e+000 -1.7130e+002 -5.6175e+001 43364 97170,97144,97314
 2.5000e+000 97363 -5.2139e+001 -1.8394e+002 -2.3172e+001 43364 97386,97170,97314
 2.5000e+000 97412 -6.2000e+001 -2.1688e+002 -4.1699e+000 43364 97092,97196,97386
 2.5000e+000 97435 -6.0120e+001 -2.0972e+002 -1.5637e+001 43364 97092,97386,97314
 2.5000e+000 97788 -1.3371e+001 -1.1037e+002  1.6091e+001 42960 97563,97667,97589
 2.5000e+000 97765 -4.1580e+001 -9.2018e+001  1.3949e+001 42960 97563,97693,97667
 2.5000e+000 97742  6.5544e+000 -6.0871e+001  3.2140e+000 42960 97589,97641,97615
 2.5000e+000 97719 -6.0196e+000 -1.2496e+002  5.6374e+000 42960 97589,97667,97641
 2.5000e+000 98215 -7.3660e+000 -1.6737e+002  7.6216e+000 42563 97918,98074,98048
 2.5000e+000 98192 -4.6633e+001 -1.4693e+002  3.5120e+001 42563 97892,98074,97918
 2.5000e+000 98169 -5.7946e+001 -3.1234e+002  1.8572e+001 42563 98238,97944,97918
 2.5000e+000 98146 -3.9255e+001 -2.6572e+002  4.1340e+001 42563 98238,97918,98048
 2.5000e+000 98123 -7.1964e+001 -2.0986e+002 -5.2564e+000 42563 97944,98022,97996
 2.5000e+000 98100 -9.4246e+001 -2.3087e+002  4.1864e+001 42563 97944,97996,97970
 2.5000e+000 98264 -7.9147e+001 -2.9220e+002 -5.3458e+000 42563 98022,97944,98238
 2.5000e+000 98287 -6.9746e+001 -2.7712e+002  1.4304e+001 42563 98022,98238,98048
 2.5000e+000 98616 -3.3003e+001 -1.1099e+002 -1.7108e+001 42251 98443,98521,98469
 2.5000e+000 98593 -2.8541e+001 -1.2877e+002 -2.2222e+001 42251 98417,98521,98443
 2.5000e+000 98570 -3.9740e+001 -1.5394e+002 -1.5684e+001 42251 98391,98521,98417
 2.5000e+000 98547 -2.6187e+000 -9.9212e+001 -1.6871e+001 42251 98469,98521,98495
 2.5000e+000 98886 -2.0588e+001 -2.3378e+002  1.6774e+001 41847 98661,98765,98687
 2.5000e+000 98863 -2.8608e+001 -1.2514e+002 -6.0101e+001 41847 98661,98791,98765
 2.5000e+000 98840 -5.6267e+001 -2.3160e+002  1.7408e+000 41847 98687,98765,98739
 2.5000e+000 98817 -3.5080e+001 -2.1975e+002 -3.6608e+000 41847 98687,98739,98713
 2.5000e+000 99394 -4.8520e+001 -1.7052e+002 -3.1584e+001 41236 99417,99149,99123
 2.5000e+000 99371 -8.3123e+001 -1.6532e+002 -1.8260e+001 41236 99417,99123,99097
 2.5000e+000 99348 -7.3617e+001 -1.3411e+002 -5.1739e+001 41236 99489,99201,99149
 2.5000e+000 99325 -2.0243e+001 -9.8984e+001 -2.8456e+001 41236 99149,99201,99175
 2.5000e+000 99302 -3.0757e+001 -1.7621e+002 -6.8772e+000 41236 99097,99253,99227
 2.5000e+000 99279 -1.0041e+002 -2.2934e+002 -3.1206e+001 41236 99071,99253,99097
 2.5000e+000 99443 -4.5844e+001 -1.4544e+002 -4.8008e+001 41236 99489,99149,99417
 2.5000e+000 99466 -6.8360e+001 -1.4911e+002 -2.7669e+001 41236 99227,99417,99097
 2.5000e+000 99515 -8.9421e+001 -1.4488e+002 -4.6978e+001 41236 99227,99201,99489
 2.5000e+000 99538 -7.7394e+001 -1.6792e+002 -3.8146e+001 41236 99227,99489,99417
 2.5000e+000 100044  5.9074e+001 -2.2139e+002 -1.4578e+001 40732 99721,99773,99747
 2.5000e+000 100021 -3.2036e+001 -2.8357e+002 -5.8070e+001 40732 99721,99799,99773
 2.5000e+000 99998 -5.6558e+001 -2.4526e+002 -4.4564e+001 40732 99721,99903,99799
 2.5000e+000 99975 -4.8511e+001 -1.8527e+002 -1.8391e+001 40732 100067,99877,99851
 2.5000e+000 99952 -3.8398e+001 -1.7363e+002 -2.3163e+001 40732 100067,99851,99799
 2.5000e+000 99929 -4.0542e+001 -1.7327e+002 -2.4785e+001 40732 99799,99851,99825
 2.5000e+000 100093 -3.7282e+001 -1.9933e+002 -2.4519e+001 40732 99903,99877,100067
 2.5000e+000 100116 -2.2776e+001 -1.8162e+002 -3.1080e+001 40732 99903,100067,99799
 2.5000e+000 100622 -5.5586e+001 -2.3528e+002 -2.0418e+001 40278 100645,100455,100429
 2.5000e+000 100599 -8.3430e+001 -1.9335e+002 -3.4560e+001 40278 100717,100645,100429
 2.5000e+000 100576 -7.6792e+001 -1.9046e+002  3.4908e+000 40278 100717,100429,100377
 2.5000e+000 100553 -7.8066e+001 -3.0188e+002 -1.1121e+001 40278 100789,100325,100481
 2.5000e+000 100530 -9.7789e+001 -1.9001e+002  2.7225e+001 40278 100299,100481,100325
 2.5000e+000 100507 -8.0189e+001 -2.0478e+002 -3.2541e+000 40278 100377,100429,100403
 2.5000e+000 100671 -4.9630e+001 -2.4503e+002 -2.3011e+001 40278 100481,100455,100645
 2.5000e+000 100694 -6.7587e+001 -2.6688e+002 -1.0497e+001 40278 100789,100481,100645
 2.5000e+000 100743 -6.0794e+001 -1.3912e+002 -3.5575e+001 40278 100351,100645,100717
 2.5000e+000 100766 -6.0057e+001 -1.4629e+002  4.8671e+000 40278 100351,100717,100377
 2.5000e+000 100815 -1.0634e+002 -3.1013e+002 -7.5954e+001 40278 100351,100325,100789
 2.5000e+000 100838 -7.2662e+001 -2.2751e+002 -7.1001e+001 40278 100351,100789,100645
 2.5000e+000 101265 -4.2581e+001 -2.1492e+002  1.1166e+001 39824 101288,101046,100994
 2.5000e+000 101242 -2.9522e+001 -1.6978e+002  1.4549e+001 39824 101288,100994,100968
 2.5000e+000 101219 -3.2492e+001 -1.5284e+002 -2.9912e+000 39824 100942,101124,100968
 2.5000e+000 101196 -6.4554e+001 -2.3825e+002 -4.1886e+000 39824 101046,101124,101072
 2.5000e+000 101173 -5.9270e+000 -1.8568e+002  3.6552e+001 39824 100994,101046,101020
 2.5000e+000 101150  4.3503e+000 -2.0574e+002 -1.7879e+001 39824 101072,101124,101098
 2.5000e+000 101314 -4.4907e+001 -1.8833e+002 -7.0953e+000 39824 101124,101046,101288
 2.5000e+000 101337 -4.3313e+001 -1.6763e+002 -9.7038e+000 39824 101124,101288,100968
 2.5000e+000 101585 -2.8953e+001 -2.1317e+002 -1.7714e+001 39070 101608,101464,101412
 2.5000e+000 101562 -1.9326e+001 -2.1363e+002 -1.0591e+001 39070 101608,101412,101360
 2.5000e+000 101539  1.9416e+001 -1.6931e+002  7.6561e+000 39070 101412,101464,101438
 2.5000e+000 101516 -5.8126e+001 -2.0820e+002  1.2396e+001 39070 101360,101412,101386
 2.5000e+000 101634 -3.6698e+001 -2.1425e+002 -2.0455e+001 39070 101490,101464,101608
 2.5000e+000 101657 -2.9387e+001 -2.1485e+002 -1.2444e+001 39070 101490,101608,101360
 2.5000e+000 101856 -5.0675e+001 -2.3075e+002 -1.4170e+000 38730 101706,101758,101732
 2.5000e+000 101833 -4.1182e+001 -2.3394e+002 -8.6986e-001 38730 101706,101784,101758
 2.5000e+000 101810 -7.2329e+001 -2.4960e+002 -6.0482e+000 38730 101680,101784,101706
 2.5000e+000 102106 -9.1559e+001 -2.0978e+002 -2.4083e+001 38326 101881,101959,101907
 2.5000e+000 102083 -8.1573e+001 -1.8799e+002 -2.6473e+001 38326 101881,101985,101959
 2.5000e+000 102060 -6.3016e+001 -2.3783e+002  3.2477e+000 38326 101881,102011,101985
 2.5000e+000 102037 -4.5742e+001 -1.4118e+002 -6.0737e+001 38326 101907,101959,101933
 2.5000e+000 102258 -5.5582e+001 -2.4893e+002 -1.9965e+000 38036 102281,102157,102131
 2.5000e+000 102235 -2.4161e+001 -2.9613e+002  2.3710e+001 38036 102281,102131,102209
 2.5000e+000 102307 -4.3273e+001 -2.1491e+002  7.1125e+000 38036 102183,102157,102281
 2.5000e+000 102330  8.2212e+000 -2.3581e+002  4.2491e+001 38036 102183,102281,102209
 2.5000e+000 102663 -2.7240e+001 -1.2137e+002 -1.2878e+001 37596 102438,102542,102464
 2.5000e+000 102640  4.6076e+001 -7.1738e+001  3.1277e+001 37596 102438,102568,102542
 2.5000e+000 102617 -1.0962e+001 -1.2893e+002 -2.2538e+001 37596 102490,102542,102516
 2.5000e+000 102594 -1.5500e+001 -1.0234e+002 -7.5514e+000 37596 102464,102542,102490
 2.5000e+000 102862 -5.7290e+001 -1.8723e+002 -6.7080e+000 37192 102686,102764,102712
 2.5000e+000 102839 -3.7819e+001 -1.8784e+002 -3.5943e+001 37192 102686,102790,102764
 2.5000e+000 102816 -8.0049e+001 -1.6541e+002 -1.6933e+001 37192 102712,102764,102738
 2.5000e+000 103110  2.7822e+001 -1.0820e+002 -6.4268e+001 36609 102911,102963,102937
 2.5000e+000 103087 -1.0640e+001 -1.6500e+002 -2.6342e+001 36609 102911,102989,102963
 2.5000e+000 103064  2.6579e+000 -1.6575e+002 -2.7483e+001 36609 102885,102989,102911
 2.5000e+000 103041 -3.3710e+001 -1.3184e+002 -5.1344e+001 36609 102885,103015,102989
 2.5000e+000 103718  3.5260e+001 -3.9375e+002  1.4098e+001 36131 103323,103375,103349
 2.5000e+000 103695 -7.8221e+001 -2.2599e+002 -3.4132e+001 36131 103297,103375,103323
 2.5000e+000 103672 -4.5206e+001 -1.4152e+002 -2.8380e+001 36131 103297,103505,103375
 2.5000e+000 103649 -9.0140e+001 -2.4735e+002  1.6084e+001 36131 103741,103479,103401
 2.5000e+000 103626 -5.9459e+001 -1.7589e+002  1.8561e+001 36131 103741,103401,103375
 2.5000e+000 103603 -1.1502e+002 -2.8673e+002  4.9195e+000 36131 103401,103479,103427
 2.5000e+000 103580 -5.4433e+001 -1.6056e+002 -1.3981e+001 36131 103297,103531,103505
 2.5000e+000 103557 -8.7920e+001 -2.5184e+002 -3.1903e+001 36131 103427,103479,103453
 2.5000e+000 103767 -7.4111e+001 -2.9525e+002 -3.8364e+001 36131 103505,103479,103741
 2.5000e+000 103790 -4.6450e+001 -2.3201e+002 -3.4146e+001 36131 103505,103741,103375
 2.5000e+000 103989 -1.1572e+002 -2.5754e+002  1.0522e+001 35791 103839,103917,103891
 2.5000e+000 103966 -1.6975e+002 -2.6744e+002 -1.6074e+000 35791 103813,103917,103839
 2.5000e+000 103943 -2.0310e+001 -2.0634e+002 -9.2553e+000 35791 103839,103891,103865
 2.5000e+000 104188 -2.4748e+001 -2.2008e+002 -1.9162e+001 35444 104038,104090,104064
 2.5000e+000 104165 -9.7474e+001 -2.4101e+002 -7.1664e+000 35444 104038,104116,104090
 2.5000e+000 104142 -2.0614e+001 -2.3139e+002  1.5227e+001 35444 104012,104116,104038
 2.5000e+000 104487 -2.3346e+001 -2.1835e+002 -5.1066e+001 34990 104265,104317,104291
 2.5000e+000 104464 -3.8435e+001 -2.4499e+002 -2.2556e+001 34990 104510,104317,104265
 2.5000e+000 104441 -6.4879e+001 -1.9619e+002 -8.8621e+000 34990 104510,104265,104213
 2.5000e+000 104418 -1.6060e+001 -2.0082e+002 -3.5825e+001 34990 104582,104343,104317
 2.5000e+000 104395 -5.9858e+001 -1.8769e+002 -2.0598e+001 34990 104213,104265,104239
 2.5000e+000 104536 -1.4946e+001 -1.9910e+002 -3.1582e+001 34990 104582,104317,104510
 2.5000e+000 104559 -5.3977e+001 -1.7900e+002 -1.4236e+001 34990 104369,104510,104213
 2.5000e+000 104608 -1.9107e+001 -1.6304e+002 -2.1750e+001 34990 104369,104343,104582
 2.5000e+000 104631 -3.3031e+001 -2.0696e+002 -1.5114e+001 34990 104369,104582,104510
 2.5000e+000 104783  1.2741e+001 -1.4028e+002 -5.3392e+000 34700 104938,104806,104682
 2.5000e+000 104760 -2.5843e+001 -2.1044e+002 -2.1589e+001 34700 104938,104682,104656
 2.5000e+000 104832 -2.3082e+001 -1.6692e+002 -1.7488e+001 34700 104708,104682,104806
 2.5000e+000 104964  2.3095e+001 -1.0975e+002  5.6303e+001 34700 104734,104806,104938
 2.5000e+000 104987 -7.5739e+000 -1.6310e+002  4.1645e+001 34700 104734,104938,104656
 2.5000e+000 105137 -3.7272e+001 -2.0658e+002  6.6630e+000 34388 105036,105088,105062
 2.5000e+000 105114 -4.6977e+001 -2.4452e+002 -2.0684e+000 34388 105010,105088,105036
 2.5000e+000 105385 -8.3437e+001 -1.9812e+002 -2.4411e+001 33734 105408,105186,105160
 2.5000e+000 105362 -7.3084e+001 -2.1031e+002 -3.5071e+001 33734 105408,105160,105264
 2.5000e+000 105339 -1.2242e+002 -2.1763e+002 -2.9836e+001 33734 105160,105290,105264
 2.5000e+000 105316 -8.0745e+000 -1.6226e+002 -2.7203e+001 33734 105186,105238,105212
 2.5000e+000 105434 -7.3471e+001 -1.9149e+002 -2.1416e+001 33734 105238,105186,105408
 2.5000e+000 105457 -5.0040e+001 -2.0004e+002 -3.0908e+001 33734 105238,105408,105264
 2.5000e+000 105609 -7.9625e+001 -2.6100e+002  1.4793e+001 33394 105482,105534,105508
 2.5000e+000 105586 -3.4363e+001 -2.3806e+002  6.6859e+000 33394 105482,105560,105534
 2.5000e+000 105859 -9.8081e+001 -3.0900e+002 -3.0885e+001 33047 105882,105712,105660
 2.5000e+000 105836 -6.6797e+001 -2.8526e+002 -1.4602e+001 33047 105882,105660,105634
 2.5000e+000 105813 -9.4478e+001 -3.4237e+002  8.4703e+000 33047 105660,105712,105686
 2.5000e+000 105790 -6.0684e+001 -2.0194e+002 -2.6918e+000 33047 105634,105764,105738
 2.5000e+000 105908 -1.7441e+002 -2.7469e+002 -1.0156e+001 33047 105738,105712,105882
 2.5000e+000 105931 -9.7190e+001 -2.4227e+002  1.3838e+001 33047 105738,105882,105634
 2.5000e+000 106181 -3.5221e+001 -2.3546e+002 -8.6590e+000 32543 106204,106060,106008
 2.5000e+000 106158 -8.6139e-001 -3.2448e+002 -1.8820e+001 32543 105956,106086,106060
 2.5000e+000 106135 -1.3430e+001 -1.1658e+002  6.1781e+001 32543 106204,106008,105982
 2.5000e+000 106112 -5.4890e+001 -1.2839e+002 -1.2426e+000 32543 106008,106060,106034
 2.5000e+000 106230 -5.3605e+001 -2.8714e+002 -6.4330e+001 32543 105956,106060,106204
 2.5000e+000 106253 -7.3641e+001 -1.9065e+002 -2.4076e+000 32543 105956,106204,105982
 2.5000e+000 106454 -4.0076e+001 -1.9542e+002  2.4100e+001 31839 106304,106356,106330
 2.5000e+000 106431 -5.4459e+001 -2.2158e+002 -1.3554e+001 31839 106278,106356,106304
 2.5000e+000 106408 -1.9545e+001 -2.5113e+002 -1.1150e+001 31839 106278,106382,106356
 2.5000e+000 106704 -1.4590e+001 -1.9145e+002 -5.0481e+001 31534 106505,106583,106557
 2.5000e+000 106681 -6.7839e+001 -2.0302e+002 -4.1706e+001 31534 106479,106583,106505
 2.5000e+000 106658 -6.9587e+001 -1.4077e+002 -6.0920e+001 31534 106505,106557,106531
 2.5000e+000 106635  9.6429e+000 -1.7852e+002 -2.9834e+001 31534 106479,106609,106583
 2.5000e+000 107108 -1.2882e+002 -2.4915e+002 -3.1465e+000 31030 106886,106990,106964
 2.5000e+000 107085 -1.5418e+002 -2.8392e+002 -1.4319e+001 31030 106860,106990,106886
 2.5000e+000 107062 -2.7474e+001 -2.4506e+002 -2.9055e+001 31030 106834,106990,106860
 2.5000e+000 107039 -1.2578e+002 -3.2603e+002  3.5391e+001 31030 106912,106964,106938
 2.5000e+000 107016 -1.2084e+002 -2.4310e+002  4.8552e+000 31030 106886,106964,106912
 2.5000e+000 107307 -4.2810e+001 -2.6335e+002 -6.2470e+000 30718 107330,107157,107131
 2.5000e+000 107284 -5.2289e+001 -2.7487e+002 -2.1679e+000 30718 107330,107131,107235
 2.5000e+000 107261 -7.7105e+001 -2.8006e+002 -8.0953e+000 30718 107183,107235,107209
 2.5000e+000 107356 -5.5030e+001 -2.4425e+002 -7.6799e+000 30718 107183,107157,107330
 2.5000e+000 107379 -6.6441e+001 -2.5858e+002 -2.7378e+000 30718 107183,107330,107235
 2.5000e+000 107759 -2.8552e+001 -1.8830e+002 -9.0431e-001 30264 107782,107615,107537
 2.5000e+000 107736 -3.3690e+001 -2.0006e+002 -4.6686e+000 30264 107782,107537,107485
 2.5000e+000 107713 -5.8512e+001 -2.4821e+002  1.0348e+001 30264 107485,107537,107511
 2.5000e+000 107690 -2.8726e+001 -2.3429e+002 -1.8628e+001 30264 107537,107615,107589
 2.5000e+000 107667  3.9908e+000 -1.7884e+002  9.6614e+000 30264 107537,107589,107563
 2.5000e+000 107808 -2.1842e+001 -1.8960e+002  9.2116e+000 30264 107641,107615,107782
 2.5000e+000 107831 -2.9619e+001 -2.0388e+002  4.8597e+000 30264 107641,107782,107485
 2.5000e+000 108030 -9.3492e+001 -2.3085e+002 -4.5565e+001 29874 108053,107854,107932
 2.5000e+000 108007 -1.4687e+002 -2.5539e+002 -3.7735e+001 29874 107854,107958,107932
 2.5000e+000 107984 -1.6936e+001 -1.9652e+002 -3.6009e+001 29874 108053,107932,107906
 2.5000e+000 108079 -1.2911e+002 -1.9013e+002 -1.9655e+001 29874 107880,107854,108053
 2.5000e+000 108102 -9.1950e+001 -1.7928e+002 -1.6315e+001 29874 107880,108053,107906
 2.5000e+000 108433 -1.6753e+001 -2.4482e+002 -6.0982e+001 29484 108234,108338,108312
 2.5000e+000 108410  1.7656e+001 -2.1518e+002 -3.2633e+001 29484 108208,108338,108234
 2.5000e+000 108387 -7.2932e+001 -2.2810e+002 -8.1743e+001 29484 108234,108312,108260
 2.5000e+000 108364  1.2522e+001 -9.8523e+001 -3.6845e+001 29484 108260,108312,108286
 2.5000e+000 108762 -5.6647e+001 -1.9771e+002  5.6204e-001 29080 108563,108641,108589
 2.5000e+000 108739 -4.8342e+001 -1.6574e+002 -3.6684e+000 29080 108537,108641,108563
 2.5000e+000 108716 -6.1679e+001 -2.5294e+002 -5.0760e+000 29080 108589,108641,108615
 2.5000e+000 108693  1.5680e+001 -1.3811e+002 -1.1964e+000 29080 108537,108667,108641
 2.5000e+000 109189 -6.2042e+001 -2.1299e+002 -3.6115e+001 28476 108892,108996,108970
 2.5000e+000 109166 -9.8473e+001 -2.1585e+002 -3.2964e+001 28476 108892,109022,108996
 2.5000e+000 109143 -1.1535e+002 -1.7943e+002 -4.5661e+000 28476 108892,108970,108944
 2.5000e+000 109120 -1.1321e+002 -2.2327e+002 -3.5697e+001 28476 108892,109048,109022
 2.5000e+000 109097 -7.2338e+001 -1.2149e+002  2.5340e+001 28476 108892,108944,108918
 2.5000e+000 109074 -9.8341e+001 -2.5130e+002 -2.2443e+001 28476 108866,109048,108892
 2.5000e+000 109518 -8.2927e+001 -2.3084e+002  3.4220e+001 28022 109541,109371,109345
 2.5000e+000 109495 -8.8258e+001 -2.1898e+002  2.4282e+001 28022 109541,109345,109319
 2.5000e+000 109472 -7.0602e+001 -2.1706e+002  8.0946e+000 28022 109293,109397,109319
 2.5000e+000 109449 -1.0208e+001 -1.9003e+002  2.2045e+000 28022 109293,109423,109397
 2.5000e+000 109567 -5.8751e+001 -2.1952e+002  2.9811e+001 28022 109397,109371,109541
 2.5000e+000 109590 -8.1487e+001 -2.1443e+002  2.2153e+001 28022 109397,109541,109319
 2.5000e+000 109968  1.9359e+001 -1.8312e+002  7.6698e+001 27568 109798,109850,109824
 2.5000e+000 109945 -3.9085e+001 -2.4862e+002  4.0933e+001 27568 109694,109850,109798
 2.5000e+000 109922 -1.0532e+002 -1.9368e+002  3.3461e+001 27568 109694,109798,109746
 2.5000e+000 109899 -3.2277e+001 -1.7066e+002 -2.2576e+001 27568 109746,109798,109772
 2.5000e+000 109876 -9.4837e+001 -2.1512e+002  7.0070e+001 27568 109694,109746,109720
 2.5000e+000 110167 -5.5380e+001 -2.1321e+002 -4.2623e+001 27007 110017,110095,110069
 2.5000e+000 110144 -3.1673e+000 -2.1847e+002 -3.8338e+000 27007 109991,110095,110017
 2.5000e+000 110121  8.5352e-001 -1.8028e+002 -2.6777e+001 27007 110017,110069,110043
 2.5000e+000 110415  6.2002e+000 -1.8929e+002 -8.8795e+000 26567 110438,110242,110190
 2.5000e+000 110392 -2.4029e+001 -1.9230e+002 -6.3936e+000 26567 110438,110190,110320
 2.5000e+000 110369 -7.1449e+001 -1.7947e+002 -1.3364e+001 26567 110242,110294,110268
 2.5000e+000 110346 -2.1080e+001 -2.2760e+002  4.0828e+001 26567 110190,110242,110216
 2.5000e+000 110464 -8.8413e+000 -1.8438e+002 -2.0608e+001 26567 110294,110242,110438
 2.5000e+000 110487 -3.1696e+001 -1.8822e+002 -2.4241e+001 26567 110294,110438,110320
 2.5000e+000 110639 -6.9944e+000 -9.1315e+001 -1.4914e+001 26170 110538,110590,110564
 2.5000e+000 110616 -2.9424e+000 -5.1078e+001 -1.6588e+001 26170 110512,110590,110538
 2.5000e+000 111149 -9.2821e+001 -1.9949e+002 -3.0875e+001 25716 111172,110878,110852
 2.5000e+000 111126 -6.6020e+001 -2.0489e+002 -2.7491e+001 25716 111172,110852,111008
 2.5000e+000 111103 -6.7942e+001 -2.0953e+002 -3.1018e+001 25716 110878,110930,110904
 2.5000e+000 111080 -7.3036e+001 -2.1064e+002 -3.1716e+001 25716 110826,111008,110852
 2.5000e+000 111057 -9.0375e+001 -2.8549e+002  3.0382e+001 25716 110930,111008,110956
 2.5000e+000 111034 -4.4550e+001 -2.7858e+002  3.5823e+001 25716 110956,111008,110982
 2.5000e+000 111198 -7.3552e+001 -2.0262e+002 -2.3422e+001 25716 110930,110878,111172
 2.5000e+000 111221 -4.0994e+001 -2.0295e+002 -1.9115e+001 25716 110930,111172,111008
 2.5000e+000 111420 -3.4754e+001 -2.0327e+002 -6.4098e+000 25304 111443,111270,111244
 2.5000e+000 111397 -2.5850e+001 -2.2892e+002 -6.4762e+000 25304 111443,111244,111348
 2.5000e+000 111374 -3.8610e+001 -1.7861e+002  1.8955e+001 25304 111270,111322,111296
 2.5000e+000 111469 -3.0359e+001 -1.8784e+002 -4.1554e+000 25304 111322,111270,111443
 2.5000e+000 111492 -1.6342e+001 -2.0738e+002 -1.7928e+000 25304 111322,111443,111348
 2.5000e+000 111691 -5.4674e+001 -1.8013e+002  2.5151e+001 24736 111567,111619,111593
 2.5000e+000 111668 -6.6293e+001 -2.2008e+002  2.8999e+001 24736 111541,111619,111567
 2.5000e+000 111645 -6.0642e+001 -2.2530e+002  2.5340e+001 24736 111515,111619,111541
 2.5000e+000 112024 -4.5147e+001 -2.8568e+002  3.0327e+001 24146 111825,111877,111851
 2.5000e+000 112001 -7.7237e+001 -2.6842e+002 -5.5624e+000 24146 111825,111903,111877
 2.5000e+000 111978 -2.5532e+001 -1.8773e+002 -2.8018e+001 24146 111825,111929,111903
 2.5000e+000 111955 -5.3256e+001 -1.8420e+002 -2.1259e+001 24146 111799,111929,111825
 2.5000e+000 112370 -8.3568e+001 -3.1741e+002 -8.0648e+000 23856 112393,112151,112125
 2.5000e+000 112347 -6.7276e+001 -2.8684e+002 -1.9945e+000 23856 112465,112393,112125
 2.5000e+000 112324 -7.8129e+001 -2.7840e+002  1.9574e+001 23856 112465,112125,112073
 2.5000e+000 112301 -9.1007e+001 -2.6647e+002  2.1258e+001 23856 112073,112125,112099
 2.5000e+000 112278 -1.9497e+002 -3.5383e+002 -2.8722e+001 23856 112047,112229,112073
 2.5000e+000 112255 -2.1128e+001 -3.0075e+002 -1.0445e+002 23856 112151,112203,112177
 2.5000e+000 112419 -9.2243e+001 -3.0612e+002 -2.5065e+001 23856 112203,112151,112393
 2.5000e+000 112442 -9.3405e+001 -2.9291e+002 -2.1478e+001 23856 112203,112393,112229
 2.5000e+000 112491 -1.0651e+002 -3.0800e+002 -1.5908e+001 23856 112229,112393,112465
 2.5000e+000 112514 -1.0859e+002 -2.8897e+002  7.6013e+000 23856 112229,112465,112073
 2.5000e+000 112784 -4.4459e+001 -2.7093e+002  1.5114e+000 23494 112611,112663,112637
 2.5000e+000 112761 -4.9645e+000 -2.0512e+002  1.9726e+001 23494 112585,112663,112611
 2.5000e+000 112738 -6.6424e+001 -2.3164e+002  1.2919e+001 23494 112559,112663,112585
 2.5000e+000 112715 -1.8254e+001 -1.3759e+002 -4.6071e+000 23494 112559,112689,112663
 2.5000e+000 113117 -6.5718e+000 -1.1293e+002 -1.9070e+000 22974 112944,113022,112996
 2.5000e+000 113094 -3.9792e+001 -1.2638e+002  4.3268e+000 22974 112918,113022,112944
 2.5000e+000 113071 -9.1202e+000 -1.3382e+002 -1.6349e+001 22974 112944,112996,112970
 2.5000e+000 113048 -3.4023e+001 -1.2927e+002  1.6935e+001 22974 112892,113022,112918
 2.5000e+000 113414 -2.5848e+001 -2.4160e+002 -8.9046e-001 22370 113192,113296,113218
 2.5000e+000 113391 -4.0824e-001 -2.1640e+002  9.2364e+000 22370 113140,113296,113192
 2.5000e+000 113368 -2.3604e+001 -2.3514e+002  4.5183e+000 22370 113218,113296,113270
 2.5000e+000 113345 -4.4972e+001 -2.5517e+002 -1.0257e+001 22370 113218,113270,113244
 2.5000e+000 113322 -1.0409e+001 -2.1249e+002  3.8176e+001 22370 113140,113192,113166
 2.5000e+000 113662 -4.7098e+001 -1.7538e+002  2.3072e+001 21916 113685,113515,113489
 2.5000e+000 113639 -8.0134e+001 -2.4777e+002  4.3012e+000 21916 113685,113489,113437
 2.5000e+000 113616 -7.4599e+000 -2.4796e+002  1.0220e+001 21916 113757,113567,113541
 2.5000e+000 113593 -6.2257e+001 -2.0584e+002  4.3056e+000 21916 113437,113489,113463
 2.5000e+000 113711 -8.1895e+001 -2.6360e+002  2.4264e+001 21916 113541,113515,113685
 2.5000e+000 113734 -4.8031e+001 -2.5308e+002  9.8005e+000 21916 113757,113541,113685
 2.5000e+000 113783 -5.8012e+001 -2.6126e+002  3.9287e+000 21916 113437,113567,113757
 2.5000e+000 113806 -7.2074e+001 -2.5002e+002 -7.8789e-001 21916 113437,113757,113685
 2.5000e+000 114056 -4.5621e+001 -2.5137e+002 -1.3383e+001 21412 113857,113909,113883
 2.5000e+000 114033 -3.2963e+001 -2.2348e+002 -1.6839e+001 21412 114079,113909,113857
 2.5000e+000 114010 -6.1496e+001 -2.4095e+002 -7.0998e+000 21412 114079,113857,113961
 2.5000e+000 113987 -6.3173e+001 -2.2724e+002 -1.1202e+000 21412 113831,113961,113857
 2.5000e+000 114105 -5.6584e+001 -2.0338e+002 -3.1095e+001 21412 113935,113909,114079
 2.5000e+000 114128 -7.6885e+001 -2.2007e+002 -2.2779e+001 21412 113935,114079,113961
 2.5000e+000 114378 -8.4967e+001 -2.3625e+002 -6.3273e+001 21022 114401,114257,114205
 2.5000e+000 114355 -1.0462e+002 -2.9885e+002 -5.5437e+001 21022 114401,114205,114179
 2.5000e+000 114332 -6.3718e+000 -3.3095e+002 -1.6430e+001 21022 114153,114283,114179
 2.5000e+000 114309 -9.0194e+001 -1.6471e+002 -3.3864e+001 21022 114205,114257,114231
 2.5000e+000 114427 -8.2401e+001 -2.6170e+002 -1.0527e+001 21022 114283,114257,114401
 2.5000e+000 114450 -9.5931e+001 -3.1828e+002 -4.2918e+000 21022 114283,114401,114179
 2.5000e+000 114651 -1.4007e+002 -2.9651e+002 -1.8355e+001 20618 114501,114553,114527
 2.5000e+000 114628 -1.1876e+002 -2.9041e+002 -1.5025e+001 20618 114501,114579,114553
 2.5000e+000 114605 -1.1037e+002 -2.5928e+002 -4.6089e+000 20618 114475,114579,114501
 2.5000e+000 114901  9.3492e+000 -2.6576e+002  1.7860e+001 20114 114676,114780,114702
 2.5000e+000 114878 -1.9791e+001 -2.7967e+002  2.1849e+001 20114 114676,114806,114780
 2.5000e+000 114855  3.9653e+001 -2.7478e+002  1.5681e+001 20114 114702,114780,114754
 2.5000e+000 114832  2.5202e+002 -2.4964e+002  5.7904e+001 20114 114702,114754,114728
 2.5000e+000 115053 -4.9147e+000 -2.4637e+002  2.5409e+000 19460 115147,115076,114926
 2.5000e+000 115030 -1.7586e+001 -2.3377e+002 -5.8840e-001 19460 115147,114926,115004
 2.5000e+000 115102 -6.2206e+000 -2.5771e+002  6.1571e-001 19460 114952,114926,115076
 2.5000e+000 115173 -1.7313e+001 -2.6120e+002 -2.9000e+000 19460 114978,115076,115147
 2.5000e+000 115196 -3.1144e+001 -2.4794e+002 -6.1408e+000 19460 114978,115147,115004
 2.5000e+000 115446 -8.8649e+001 -3.2109e+002 -4.0991e+000 19006 115273,115351,115299
 2.5000e+000 115423 -2.8581e+001 -2.9370e+002  7.5981e+000 19006 115247,115351,115273
 2.5000e+000 115400 -2.6392e+001 -2.9407e+002 -2.0935e+000 19006 115221,115351,115247
 2.5000e+000 115377 -9.2211e+001 -3.2557e+002 -2.1009e+000 19006 115299,115351,115325
 2.5000e+000 115767 -1.2149e+002 -2.9200e+002  5.5007e+000 18716 115571,115649,115623
 2.5000e+000 115744 -1.2190e+002 -3.0465e+002  9.3200e+000 18716 115493,115649,115571
 2.5000e+000 115721 -1.1395e+002 -3.0116e+002  5.2321e+000 18716 115493,115571,115545
 2.5000e+000 115698 -8.6104e+001 -2.7149e+002  4.2488e+001 18716 115493,115545,115519
 2.5000e+000 115675 -9.4020e+001 -2.8173e+002  3.6055e+000 18716 115571,115623,115597
 2.5000e+000 116039 -6.5494e+001 -2.2973e+002  6.1661e+000 18312 115814,115892,115840
 2.5000e+000 116016 -5.9917e+001 -2.1648e+002  5.9859e+000 18312 115814,115944,115892
 2.5000e+000 115993 -6.4720e+001 -2.2188e+002  3.9689e+000 18312 115892,115944,115918
 2.5000e+000 115970 -4.9694e+001 -2.3004e+002  1.4151e+001 18312 115840,115892,115866
 2.5000e+000 116191 -4.5614e+001 -3.5173e+002 -1.6987e+000 18000 116090,116142,116116
 2.5000e+000 116168 -3.0508e+001 -3.3470e+002  5.9246e+000 18000 116064,116142,116090
 2.5000e+000 116343 -1.7680e+002 -3.8600e+002 -1.0986e+001 17396 116242,116294,116268
 2.5000e+000 116320 -1.6478e+002 -3.7882e+002 -7.8768e+000 17396 116216,116294,116242
 2.5000e+000 116566 -1.0813e+002 -3.4882e+002  1.4019e+001 16942 116390,116468,116442
 2.5000e+000 116543 -6.9864e+001 -3.6212e+002  1.3076e+001 16942 116390,116494,116468
 2.5000e+000 116520 -1.2177e+002 -3.8077e+002  5.7994e+000 16942 116390,116442,116416
 2.5000e+000 116767  3.2494e+000 -2.5036e+002 -1.0447e+001 16438 116790,116643,116617
 2.5000e+000 116744 -4.0445e+001 -2.2246e+002 -1.3494e+001 16438 116790,116617,116591
 2.5000e+000 116721  2.7632e+001 -2.0667e+002 -2.8311e+001 16438 116643,116695,116669
 2.5000e+000 116816  1.2432e+001 -2.2905e+002 -1.9837e+001 16438 116695,116643,116790
 2.5000e+000 116839 -2.6481e+000 -1.9166e+002 -3.3967e+001 16438 116695,116790,116591
 2.5000e+000 117062 -3.3240e+001 -3.0471e+002 -3.6070e+000 16074 116886,116938,116912
 2.5000e+000 117039 -3.7328e+001 -3.2023e+002  1.5495e+001 16074 116886,116990,116938
 2.5000e+000 117016 -1.0387e+001 -2.5814e+002  2.6324e+001 16074 116938,116990,116964
 2.5000e+000 117214  2.4968e+001 -2.4676e+002  2.5023e+000 15649 117087,117139,117113
 2.5000e+000 117191 -4.2096e+001 -2.7451e+002  2.6948e+000 15649 117087,117165,117139
 2.5000e+000 117317 -1.4525e+002 -3.0659e+002 -2.6867e+001 421 117239,117291,117265
 2.6000e+000 70632 -2.3531e+002 -5.0050e+002 -1.9328e+001 70072 70482,70534,70508
 2.6000e+000 70609 -2.1789e+002 -4.6116e+002 -1.4714e+001 70072 70482,70560,70534
 2.6000e+000 70586 -2.1742e+002 -4.6477e+002 -8.0085e+000 70072 70456,70560,70482
 2.6000e+000 70951 -2.2975e+002 -7.3519e+002  0.0000e+000 69874 70703,70755,70729
 2.6000e+000 70928 -7.1228e+001 -6.8137e+002 -1.3755e+002 69874 70703,70781,70755
 2.6000e+000 70905  8.0444e+001 -1.3727e+002 -6.5420e+001 69874 70703,70807,70781
 2.6000e+000 70882 -9.7358e+001 -5.6968e+002 -3.1144e+001 69874 70703,70833,70807
 2.6000e+000 70859 -9.0737e+001 -5.8831e+002  2.2998e+001 69874 70677,70833,70703
 2.6000e+000 71199 -5.6809e+001 -2.8072e+002  2.6768e+001 69698 71222,71052,71026
 2.6000e+000 71176 -6.2619e+001 -2.5173e+002  2.9234e+001 69698 71294,71222,71026
 2.6000e+000 71153 -8.0879e+001 -2.2186e+002 -6.6870e+001 69698 71294,71026,71000
 2.6000e+000 71130 -1.1611e+002 -2.3539e+002  2.9937e+001 69698 71366,71104,71078
 2.6000e+000 71248 -2.4769e+001 -2.0515e+002  2.1002e+001 69698 71078,71052,71222
 2.6000e+000 71271 -4.2056e+001 -2.0995e+002  2.4606e+001 69698 71366,71078,71222
 2.6000e+000 71320  9.3979e+001 -1.6801e+002 -5.8360e+000 69698 70974,71222,71294
 2.6000e+000 71343  1.0296e+002 -1.4456e+002 -9.2180e+001 69698 70974,71294,71000
 2.6000e+000 71392 -1.9012e+001 -2.2778e+002  4.3128e+001 69698 70974,71104,71366
 2.6000e+000 71415 -3.2949e+000 -2.4030e+002  4.7962e+001 69698 70974,71366,71222
 2.6000e+000 71516 -6.0057e+001 -4.0264e+002 -7.2763e+001 69386 71438,71490,71464
 2.6000e+000 71869 -3.8016e+001 -2.1432e+002  1.9080e+001 69188 71644,71748,71670
 2.6000e+000 71846  3.9996e+001 -1.9993e+002  5.8879e+001 69188 71644,71774,71748
 2.6000e+000 71823  1.6294e+001 -9.9339e+001  1.8095e+000 69188 71670,71748,71722
 2.6000e+000 71800 -9.0092e+001 -3.6387e+002 -3.8273e+001 69188 71670,71722,71696
 2.6000e+000 72019 -1.6677e+002 -4.2390e+002 -5.4245e+000 68990 71918,71970,71944
 2.6000e+000 71996 -1.4997e+002 -4.6801e+002  1.3574e+001 68990 71892,71970,71918
 2.6000e+000 72316  4.5926e+001 -3.1977e+001 -1.9134e+001 68586 72339,72172,72146
 2.6000e+000 72293  2.2147e+001 -6.1246e+001 -6.9832e+000 68586 72339,72146,72120
 2.6000e+000 72270  1.3367e+001 -1.2332e+001 -1.1438e+001 68586 72411,72068,72198
 2.6000e+000 72247 -2.3172e-001  4.3209e+000 -2.3163e+000 68586 72042,72198,72068
 2.6000e+000 72224 -1.4693e+001 -6.8459e+001  4.8297e+000 68586 72068,72120,72094
 2.6000e+000 72365  1.6865e+001 -4.1497e+001 -1.4429e+001 68586 72198,72172,72339
 2.6000e+000 72388  2.3799e+001 -2.5065e+001 -7.1070e+000 68586 72411,72198,72339
 2.6000e+000 72437  4.9464e+000 -2.4126e+001  1.8545e+000 68586 72120,72068,72411
 2.6000e+000 72460  1.2765e+001 -4.3220e+001  5.2709e+000 68586 72120,72411,72339
 2.6000e+000 72864  2.3775e+001 -1.5604e+002  6.8466e+000 68388 72642,72694,72668
 2.6000e+000 72841 -1.3943e+000 -2.2246e+002  1.0022e+001 68388 72616,72694,72642
 2.6000e+000 72818  2.6017e+001 -1.6118e+002  1.6857e+001 68388 72616,72720,72694
 2.6000e+000 72795 -2.1621e+001 -2.7684e+002  3.4671e+001 68388 72590,72720,72616
 2.6000e+000 72772  6.7082e+001 -1.9156e+002  9.4125e+001 68388 72590,72746,72720
 2.6000e+000 73321 -2.5449e+001 -5.0059e+001  9.1197e+000 68048 73073,73203,73177
 2.6000e+000 73298 -4.7830e+001 -6.0443e+001  7.1930e+000 68048 73047,73203,73073
 2.6000e+000 73275  3.3325e+000 -9.9255e+001  2.0344e+000 68048 73125,73177,73151
 2.6000e+000 73252 -3.7444e+000 -9.6558e+001  9.2231e+000 68048 73073,73177,73125
 2.6000e+000 73229 -6.7043e+000 -9.8341e+001  7.8862e+000 68048 73073,73125,73099
 2.6000e+000 73640 -2.4040e+001 -2.5373e+002 -1.0373e+001 67850 73444,73496,73470
 2.6000e+000 73617 -2.0594e+001 -2.4094e+002 -1.4042e+001 67850 73418,73496,73444
 2.6000e+000 73594 -1.9595e+001 -2.3053e+002 -2.4724e-001 67850 73392,73496,73418
 2.6000e+000 73571 -7.0564e+001 -2.7378e+002 -2.0737e+001 67850 73392,73522,73496
 2.6000e+000 73548 -1.3249e+002 -3.7853e+002  1.4387e+001 67850 73366,73522,73392
 2.6000e+000 73790 -2.8977e+001 -1.6056e+002 -3.3181e+000 67602 73689,73741,73715
 2.6000e+000 73767  3.3378e+000 -9.7518e+001  9.7235e+000 67602 73663,73741,73689
 2.6000e+000 74040 -1.3242e+001 -1.6847e+002 -1.8800e+001 67290 73841,73945,73919
 2.6000e+000 74017  8.5286e+001 -1.4374e+002 -5.2808e+001 67290 73815,73945,73841
 2.6000e+000 73994  8.1034e+000 -7.2687e+001 -2.5142e+001 67290 73841,73919,73867
 2.6000e+000 73971  5.4981e+000 -9.0550e+001 -3.0133e+000 67290 73867,73919,73893
 2.6000e+000 74143 -6.2438e-001 -1.3664e+001 -5.9788e+000 67092 74065,74117,74091
 2.6000e+000 74415 -7.5759e+001 -4.2596e+002 -9.2263e+001 66894 74190,74294,74216
 2.6000e+000 74392 -3.3548e+001 -3.9636e+002 -3.2759e+001 66894 74190,74320,74294
 2.6000e+000 74369  1.5679e+001 -2.0485e+002 -7.5616e+001 66894 74216,74294,74242
 2.6000e+000 74346 -5.0605e+001 -3.3860e+002 -4.7149e+001 66894 74242,74294,74268
 2.6000e+000 75023  4.4055e+002 -1.1480e+002 -1.1745e+002 66532 74654,74836,74810
 2.6000e+000 75000 -9.8116e+001 -1.4294e+002 -1.3115e+002 66532 74628,74836,74654
 2.6000e+000 74977  1.5956e+001 -5.8515e+001 -5.5622e-001 66532 74706,74784,74732
 2.6000e+000 74954  9.9848e+000 -8.8591e+001  7.8562e-001 66532 74680,74784,74706
 2.6000e+000 74931  1.8178e+002 -4.6494e+001  1.7595e+001 66532 74680,74810,74784
 2.6000e+000 74908  6.5104e+000 -1.3338e+002 -1.0670e+002 66532 74654,74810,74680
 2.6000e+000 74885 -1.4108e+002 -2.0253e+002 -1.6003e+002 66532 74602,74836,74628
 2.6000e+000 74862 -3.3881e+001 -3.5504e+001  2.6288e+001 66532 74732,74784,74758
 2.6000e+000 75222 -4.8827e+000 -2.3549e+002 -4.5722e+000 66242 75072,75150,75124
 2.6000e+000 75199 -2.2217e+001 -2.1636e+002 -2.8809e-001 66242 75046,75150,75072
 2.6000e+000 75176  8.6443e+000 -1.7932e+002 -4.5518e+000 66242 75072,75124,75098
 2.6000e+000 75470 -3.2789e+001 -1.1599e+002 -3.4385e+001 65838 75297,75375,75349
 2.6000e+000 75447  9.9561e+000 -1.2865e+002 -1.5013e+001 65838 75271,75375,75297
 2.6000e+000 75424 -8.1590e+000 -9.0332e+001 -1.7018e+001 65838 75297,75349,75323
 2.6000e+000 75401 -9.2396e+000 -1.2689e+002  1.1582e+001 65838 75245,75375,75271
 2.6000e+000 75671 -2.9034e+001 -8.5108e+001 -4.0397e+001 65640 75495,75573,75521
 2.6000e+000 75648 -1.5956e+000 -8.9021e+001 -1.0464e+001 65640 75495,75599,75573
 2.6000e+000 75625 -3.3424e+001 -1.2733e+002 -6.8079e+001 65640 75521,75573,75547
 2.6000e+000 75872 -4.0194e+001 -5.6428e+001 -4.6280e+001 65300 75895,75748,75722
 2.6000e+000 75849  1.3777e+001 -1.1891e+002 -8.5607e+001 65300 75895,75722,75696
 2.6000e+000 75826 -5.9611e+001 -1.1639e+002 -7.9999e+001 65300 75967,75774,75748
 2.6000e+000 75921 -4.6611e+001 -1.0349e+002 -5.5575e+001 65300 75967,75748,75895
 2.6000e+000 75944 -5.1843e+001 -2.2432e+002 -5.2622e+001 65300 75800,75895,75696
 2.6000e+000 75993 -1.0308e+002 -9.8215e+001 -8.1010e+001 65300 75800,75774,75967
 2.6000e+000 76016 -9.9324e+001 -1.0450e+002 -6.3327e+001 65300 75800,75967,75895
 2.6000e+000 76371 -2.7588e+001 -9.2500e+001 -1.7595e+000 64896 76146,76250,76172
 2.6000e+000 76348 -1.8861e+001 -8.6063e+001 -1.2643e+001 64896 76146,76276,76250
 2.6000e+000 76325 -3.1829e+001 -6.7478e+001 -7.9504e-001 64896 76172,76250,76198
 2.6000e+000 76302 -1.4017e+000 -4.6711e+001  8.7732e+000 64896 76198,76250,76224
 2.6000e+000 76570 -1.9951e+001 -1.0901e+002 -3.5967e+001 64442 76446,76498,76472
 2.6000e+000 76547 -1.5577e+001 -7.0910e+001 -1.6028e+001 64442 76420,76498,76446
 2.6000e+000 76524 -2.0582e+001 -1.1698e+002 -7.9897e+000 64442 76394,76498,76420
 2.6000e+000 76999 -1.4165e+001 -2.0092e+002  1.5141e+001 63924 77022,76728,76702
 2.6000e+000 76976 -3.4105e+001 -1.4365e+002 -4.6813e+001 63924 77022,76702,76832
 2.6000e+000 76953  1.0039e+001 -2.2500e+002  6.8203e+001 63924 76728,76806,76754
 2.6000e+000 76930 -5.6623e+001 -9.3856e+001  3.9502e+001 63924 76676,76832,76702
 2.6000e+000 76907 -5.4216e+001 -2.8356e+002  4.3765e+001 63924 76754,76806,76780
 2.6000e+000 76884 -6.0108e+000 -1.0655e+002  2.3991e+001 63924 76676,76858,76832
 2.6000e+000 77048  1.7631e+000 -2.7905e+002 -2.8657e+000 63924 76806,76728,77022
 2.6000e+000 77071 -2.9213e+001 -2.3551e+002 -6.6906e+001 63924 76806,77022,76832
 2.6000e+000 77449 -1.5470e+001 -1.0037e+002  2.3850e+001 63320 77472,77253,77201
 2.6000e+000 77426 -3.7064e+001 -1.1979e+002  1.1639e+001 63320 77472,77201,77175
 2.6000e+000 77403 -1.9670e+001 -1.2585e+002 -1.6813e+001 63320 77175,77305,77279
 2.6000e+000 77380  3.1596e+000 -4.7621e+001 -1.9904e+001 63320 77201,77253,77227
 2.6000e+000 77357 -1.9635e-001 -1.1938e+002 -1.1653e+001 63320 77175,77331,77305
 2.6000e+000 77498  9.3413e+000 -1.2787e+002  3.0008e+000 63320 77279,77253,77472
 2.6000e+000 77521 -2.3198e+001 -1.4333e+002 -1.1036e+001 63320 77279,77472,77175
 2.6000e+000 77769 -5.3278e+001 -2.5371e+002  2.4672e+001 62816 77570,77622,77596
 2.6000e+000 77746 -9.8487e+001 -2.1964e+002  4.8798e+001 62816 77570,77648,77622
 2.6000e+000 77723 -8.6922e+000 -1.6302e+002 -1.1645e+001 62816 77570,77674,77648
 2.6000e+000 77700 -2.6717e+001 -8.8970e+001  3.2898e+001 62816 77544,77674,77570
 2.6000e+000 78149 -3.8842e+001 -1.4732e+002 -6.3740e+000 62354 77953,78031,78005
 2.6000e+000 78126 -6.2218e+001 -1.7100e+002 -1.5926e+001 62354 77901,78031,77953
 2.6000e+000 78103 -2.5297e+001 -1.5321e+002  1.2982e+001 62354 77875,78031,77901
 2.6000e+000 78080 -1.0679e+001 -1.9859e+002 -6.4655e+001 62354 77901,77953,77927
 2.6000e+000 78057 -4.9491e+001 -1.2902e+002 -2.0492e+001 62354 77953,78005,77979
 2.6000e+000 78606  3.7732e+001 -6.1428e+001  4.5971e+001 61950 78384,78436,78410
 2.6000e+000 78583  4.6427e+001 -1.1086e+002 -2.9588e+001 61950 78358,78436,78384
 2.6000e+000 78560  8.2792e+000 -8.3129e+001 -4.5497e+001 61950 78358,78488,78436
 2.6000e+000 78537 -1.2055e+001 -1.7836e+002 -5.5136e+001 61950 78436,78488,78462
 2.6000e+000 78514  5.1440e+000 -5.3863e+001 -2.9958e+001 61950 78332,78488,78358
 2.6000e+000 78756  2.3862e+001 -1.8263e+002 -1.5115e+001 61339 78779,78655,78629
 2.6000e+000 78733  9.8877e+000 -1.9871e+002 -9.1269e+000 61339 78779,78629,78707
 2.6000e+000 78805 -1.6287e+001 -2.5025e+002  1.7372e+001 61339 78851,78779,78681
 2.6000e+000 78828  4.3713e+001 -2.0105e+002 -8.1015e+000 61339 78681,78779,78707
 2.6000e+000 78877  2.4607e+001 -1.4915e+002 -3.1926e+000 61339 78655,78779,78851
 2.6000e+000 79206 -3.1796e+001 -9.6068e+001 -2.7052e+001 60892 79229,79007,78981
 2.6000e+000 79183 -1.1849e+001 -1.3446e+001  9.8003e+000 60892 79229,78981,79111
 2.6000e+000 79160 -1.9594e+001 -1.2861e+002 -3.2539e+001 60892 79301,79033,79007
 2.6000e+000 79137 -3.2652e+001 -8.8370e+001  5.1141e+001 60892 79033,79085,79059
 2.6000e+000 79255 -3.1770e+001 -1.0045e+002 -5.4633e+001 60892 79301,79007,79229
 2.6000e+000 79278 -3.8896e+001 -7.9502e+001 -3.7370e+001 60892 79085,79229,79111
 2.6000e+000 79327 -5.8313e+001 -2.0192e+002 -6.1785e+000 60892 79085,79033,79301
 2.6000e+000 79350 -3.0914e+001 -1.4968e+002 -4.1694e+001 60892 79085,79301,79229
 2.6000e+000 79647 -1.3811e+002 -3.0604e+002 -2.9188e+001 60488 79451,79529,79503
 2.6000e+000 79624 -9.2092e+001 -2.1899e+002 -5.5028e+001 60488 79425,79529,79451
 2.6000e+000 79601 -8.6673e+001 -2.3688e+002 -6.2015e+001 60488 79373,79529,79425
 2.6000e+000 79578 -6.4056e+001 -2.8124e+002 -3.3176e+001 60488 79373,79425,79399
 2.6000e+000 79555 -1.9798e+001 -1.9994e+002  1.5713e+001 60488 79451,79503,79477
 2.6000e+000 79870 -6.1883e+001 -2.0917e+002  8.2084e+000 60026 79720,79798,79772
 2.6000e+000 79847  2.8601e+001 -2.1833e+002  4.5970e-001 60026 79694,79798,79720
 2.6000e+000 79824  2.8256e+001 -1.8070e+002 -1.5997e+001 60026 79720,79772,79746
 2.6000e+000 80120 -5.2668e+001 -1.3797e+002  1.9490e+000 59629 79921,80025,79973
 2.6000e+000 80097 -4.5198e+001 -8.9019e+001  3.0708e+001 59629 79895,80025,79921
 2.6000e+000 80074 -3.1412e+001 -9.5300e+001 -1.0017e+001 59629 79973,80025,79999
 2.6000e+000 80051 -3.9073e+001 -1.0638e+002 -8.7157e+000 59629 79921,79973,79947
 2.6000e+000 80321  6.5175e+001 -1.6806e+002 -7.4691e+000 59125 80344,80171,80145
 2.6000e+000 80298  3.1087e+001 -1.9286e+002  1.0425e+001 59125 80344,80145,80249
 2.6000e+000 80275 -1.3749e+001 -1.0158e+002  1.2341e+001 59125 80197,80249,80223
 2.6000e+000 80370  2.1788e+001 -1.5506e+002  1.7650e+001 59125 80197,80171,80344
 2.6000e+000 80393 -9.2525e+000 -1.7573e+002  3.4564e+001 59125 80197,80344,80249
 2.6000e+000 80952 -7.2427e+000 -2.4393e+002  5.0834e+001 58557 80975,80632,80606
 2.6000e+000 80929 -9.8622e+000 -5.5037e+001  1.3872e+000 58557 81119,80975,80606
 2.6000e+000 80906 -6.2645e+001 -2.3086e+002 -4.7006e+001 58557 81047,80684,80632
 2.6000e+000 80883 -1.1271e+001 -6.2608e+001 -4.1275e+001 58557 81119,80606,80580
 2.6000e+000 80860 -1.3796e+001 -3.6767e+002  1.1819e+001 58557 81191,80736,80710
 2.6000e+000 80837 -4.1206e+001 -2.7666e+002 -3.3981e+001 58557 80736,80788,80762
 2.6000e+000 80814 -4.1439e+001 -1.2463e+002 -5.4653e+001 58557 80632,80684,80658
 2.6000e+000 81001 -1.4219e+001 -2.7169e+002 -1.4930e+001 58557 81047,80632,80975
 2.6000e+000 81024  2.8168e+001 -2.4205e+002  1.8568e+001 58557 81191,80710,80975
 2.6000e+000 81073 -1.8987e+001 -1.7654e+002 -1.9860e+001 58557 80710,80684,81047
 2.6000e+000 81096  4.3905e+001 -2.1535e+002  1.2059e+001 58557 80710,81047,80975
 2.6000e+000 81145 -3.4303e+001 -1.1116e+002 -1.5841e+000 58557 80788,80975,81119
 2.6000e+000 81168 -2.8921e+001 -1.0753e+002 -3.8878e+001 58557 80788,81119,80580
 2.6000e+000 81217 -2.8203e+001 -2.4692e+002 -3.5439e+001 58557 80788,80736,81191
 2.6000e+000 81240 -2.6620e+001 -1.9430e+002 -4.3722e+001 58557 80788,81191,80975
 2.6000e+000 81537 -8.7514e+000 -2.1710e+002  5.3835e-001 57881 81560,81341,81289
 2.6000e+000 81514 -7.4437e+001 -2.4606e+002  2.9577e+001 57881 81560,81289,81263
 2.6000e+000 81491 -8.0039e+001 -1.9903e+002 -1.8769e+001 57881 81632,81419,81367
 2.6000e+000 81468 -7.7328e+001 -2.0161e+002 -4.5249e+001 57881 81367,81419,81393
 2.6000e+000 81445 -3.6215e+000 -2.0972e+002 -1.8933e+000 57881 81289,81341,81315
 2.6000e+000 81586 -2.4760e+001 -1.7272e+002 -5.0967e+001 57881 81367,81341,81560
 2.6000e+000 81609 -7.1057e+001 -2.2394e+002 -2.9439e+001 57881 81632,81367,81560
 2.6000e+000 81658 -5.9361e+001 -1.5669e+002 -9.7714e+000 57881 81263,81419,81632
 2.6000e+000 81681 -5.2629e+001 -1.9101e+002 -1.8558e+001 57881 81263,81632,81560
 2.6000e+000 81929 -5.0661e+001 -1.5541e+002  7.8080e+000 57477 81704,81808,81782
 2.6000e+000 81906 -1.6129e+001 -2.0876e+002  3.0176e+001 57477 81704,81834,81808
 2.6000e+000 81883 -7.0085e+001 -1.7798e+002  2.0989e+001 57477 81704,81782,81730
 2.6000e+000 81860 -3.3870e+001 -1.6570e+002  1.4097e+001 57477 81730,81782,81756
 2.6000e+000 82488  9.3117e+000 -2.0803e+002 -1.3134e+001 56966 82583,82511,82194
 2.6000e+000 82465  4.7145e+000 -1.9636e+002  1.6359e+001 56966 82511,82116,82324
 2.6000e+000 82442  1.0567e+001 -2.2713e+002 -7.9088e+000 56966 82583,82194,82168
 2.6000e+000 82419 -6.0473e-001 -2.0370e+002  2.9155e+001 56966 82194,82246,82220
 2.6000e+000 82396 -3.0391e+001 -2.3401e+002 -1.4242e+001 56966 82194,82298,82246
 2.6000e+000 82373 -1.6103e+001 -1.7220e+002 -8.2938e+000 56966 82246,82298,82272
 2.6000e+000 82350  2.2492e+000 -2.9738e+002 -2.8603e+001 56966 82116,82168,82142
 2.6000e+000 82537  3.4408e+000 -1.8816e+002  2.9458e+000 56966 82298,82194,82511
 2.6000e+000 82560  6.3567e+001 -9.9061e+001  4.9343e+001 56966 82298,82511,82324
 2.6000e+000 82609  8.5275e+000 -1.8672e+002 -1.3323e+001 56966 82116,82511,82583
 2.6000e+000 82632  1.3359e+001 -2.0209e+002 -9.9221e+000 56966 82116,82583,82168
 2.6000e+000 83236 -2.9718e+000 -1.0886e+002 -2.4413e+001 56304 82893,82945,82919
 2.6000e+000 83213 -1.3762e+001 -1.5082e+002  3.4723e+001 56304 83259,82945,82893
 2.6000e+000 83190 -8.7566e+000 -1.7728e+002  2.0774e+001 56304 83259,82893,83049
 2.6000e+000 83167 -3.6405e+001 -1.8130e+002  1.7141e+001 56304 82971,83049,83023
 2.6000e+000 83144 -1.9249e+001 -1.9622e+002  1.5803e+001 56304 82815,83049,82893
 2.6000e+000 83121 -4.2668e+001 -2.7024e+002  1.9146e+001 56304 82815,82893,82867
 2.6000e+000 83098 -5.0736e+001 -2.8322e+002  1.5620e+001 56304 82971,83023,82997
 2.6000e+000 83075 -7.1127e+001 -2.2044e+002 -1.9902e+001 56304 82815,82867,82841
 2.6000e+000 83285 -3.2196e+001 -1.8887e+002  4.1022e+001 56304 82971,82945,83259
 2.6000e+000 83308 -1.3040e+001 -1.8924e+002  2.1820e+001 56304 82971,83259,83049
 2.6000e+000 83556 -9.4605e+001 -3.2042e+002 -1.1464e+001 55964 83357,83461,83435
 2.6000e+000 83533 -1.0348e+002 -2.0675e+002  4.1750e+001 55964 83331,83461,83357
 2.6000e+000 83510 -2.0202e+001 -3.5467e+002  4.1470e+001 55964 83357,83435,83383
 2.6000e+000 83487 -6.5320e+000 -3.8387e+002  2.8696e+001 55964 83383,83435,83409
 2.6000e+000 83706  2.5761e+001 -1.3993e+002  1.7931e+001 55503 83579,83631,83605
 2.6000e+000 83683  9.7363e+000 -1.7741e+002  2.9576e+001 55503 83579,83657,83631
 2.6000e+000 83907 -8.4238e+000 -1.9103e+002  1.8796e+001 55156 83757,83835,83809
 2.6000e+000 83884  4.5970e+000 -1.4522e+002  4.8064e+001 55156 83731,83835,83757
 2.6000e+000 83861 -1.5525e+001 -6.7637e+001  4.9837e+001 55156 83757,83809,83783
 2.6000e+000 84240 -3.5968e+001 -2.3471e+002  2.1605e+000 54652 84093,84145,84119
 2.6000e+000 84217 -2.6397e-001 -1.3728e+002 -1.2492e+001 54652 84041,84145,84093
 2.6000e+000 84194  1.2464e+000 -2.4265e+002  3.4540e+001 54652 84015,84145,84041
 2.6000e+000 84171  3.3259e+001 -1.0894e+002  3.6476e+001 54652 84041,84093,84067
 2.6000e+000 84618 -1.0287e+002 -2.9544e+002  2.1689e+001 53926 84396,84500,84474
 2.6000e+000 84595 -1.4440e+002 -3.8337e+002  4.8994e+000 53926 84344,84500,84396
 2.6000e+000 84572 -1.1528e+002 -3.2285e+002 -6.2911e+000 53926 84344,84396,84370
 2.6000e+000 84549 -7.4185e+001 -2.8143e+002  1.6038e+001 53926 84396,84474,84422
 2.6000e+000 84526 -1.1881e+002 -1.9973e+002  1.7044e+001 53926 84422,84474,84448
 2.6000e+000 85350 -8.8227e+001 -3.1142e+002 -6.2413e+001 53586 85373,84880,85088
 2.6000e+000 85327 -1.0527e+002 -2.8884e+002 -7.4182e+001 53586 84880,85114,85088
 2.6000e+000 85304 -4.6611e+001 -2.6053e+002  1.7484e+001 53586 85373,85088,85062
 2.6000e+000 85281 -5.5267e+001 -1.6789e+002 -5.5722e+001 53586 85010,85062,85036
 2.6000e+000 85258 -6.6296e+001 -1.7473e+002 -2.6250e+001 53586 85445,85010,84958
 2.6000e+000 85235 -2.9767e+001 -1.3555e+002  2.7016e+001 53586 85445,84958,84906
 2.6000e+000 85212 -2.9754e+001 -1.8443e+002 -3.7828e+001 53586 84958,85010,84984
 2.6000e+000 85189 -2.9746e+001 -2.9399e+002  4.5785e+001 53586 84906,84958,84932
 2.6000e+000 85166 -4.8704e+001 -2.0473e+002 -1.1860e+002 53586 84880,85140,85114
 2.6000e+000 85399 -6.1331e+001 -1.9254e+002 -1.5242e+001 53586 84906,84880,85373
 2.6000e+000 85422 -3.3281e+001 -1.6598e+002  4.2600e+001 53586 85517,85373,85062
 2.6000e+000 85471 -1.5383e+001 -5.6422e+001 -3.7927e+001 53586 85062,85010,85445
 2.6000e+000 85494 -4.5680e+001 -1.0905e+002  3.7254e+001 53586 85517,85062,85445
 2.6000e+000 85543 -4.3400e+001 -2.5108e+002  3.1443e+001 53586 84906,85373,85517
 2.6000e+000 85566 -5.7703e+001 -1.9792e+002  3.2706e+001 53586 84906,85517,85445
 2.6000e+000 86072 -6.2826e+000 -1.8686e+002 -2.2600e+001 53182 86095,85853,85775
 2.6000e+000 86049 -1.1122e+001 -1.4092e+002 -2.0711e+001 53182 86095,85775,85931
 2.6000e+000 86026 -7.3084e+000 -1.9585e+002  4.3894e+001 53182 86167,85879,85853
 2.6000e+000 86003 -1.3992e+001 -2.2377e+002 -3.7699e+001 53182 85775,85827,85801
 2.6000e+000 85980 -7.3607e+001 -2.8895e+002 -7.8093e+001 53182 85775,85853,85827
 2.6000e+000 85957 -5.3805e+000 -1.4095e+002 -1.3859e+001 53182 85749,85931,85775
 2.6000e+000 86121  1.7315e+001 -1.5971e+002 -1.0511e+001 53182 86167,85853,86095
 2.6000e+000 86144 -2.0275e+001 -1.9826e+002 -3.2969e+001 53182 85905,86095,85931
 2.6000e+000 86193 -1.6952e+001 -2.2719e+002  5.2406e+001 53182 85905,85879,86167
 2.6000e+000 86216 -2.4161e+001 -2.6335e+002 -2.5648e+000 53182 85905,86167,86095
 2.6000e+000 86673 -1.7742e+001 -1.7599e+002 -3.5740e+001 52778 86477,86529,86503
 2.6000e+000 86650 -3.5252e+001 -1.9246e+002 -2.0854e+001 52778 86425,86529,86477
 2.6000e+000 86627 -1.9874e+001 -1.6481e+002 -3.9249e+001 52778 86425,86477,86451
 2.6000e+000 86604 -9.1311e+001 -1.4218e+002 -2.3665e+001 52778 86399,86529,86425
 2.6000e+000 86581 -1.2714e+002 -1.8138e+002  2.3066e+001 52778 86399,86555,86529
 2.6000e+000 87258 -5.7898e+001 -3.8235e+002 -7.0782e+001 52238 87281,86987,86961
 2.6000e+000 87235 -2.3554e+001 -2.9063e+002  2.1472e+001 52238 87281,86961,87117
 2.6000e+000 87212 -4.1055e+001 -1.7094e+002  9.9604e+000 52238 86935,87117,86961
 2.6000e+000 87189  1.8269e+001 -1.8095e+002  2.8937e+001 52238 87065,87117,87091
 2.6000e+000 87166 -9.9306e+000 -1.5828e+002 -3.4345e+001 52238 86987,87065,87039
 2.6000e+000 87143 -5.4519e+001 -9.0409e+001 -9.7185e+001 52238 86987,87039,87013
 2.6000e+000 87307  1.1807e+001 -2.1822e+002 -5.0574e+001 52238 87065,86987,87281
 2.6000e+000 87330 -2.6982e+000 -2.3560e+002  4.1778e+001 52238 87065,87281,87117
 2.6000e+000 87610  3.0183e+001 -1.0505e+002  8.4403e+000 51834 87434,87512,87460
 2.6000e+000 87587 -1.4787e+000 -1.1556e+002  1.4333e+001 51834 87434,87538,87512
 2.6000e+000 87564  2.8602e+000  1.7069e+001  1.0648e+000 51834 87633,87460,87512
 2.6000e+000 87659  1.1678e+000  1.6340e+001  9.9035e-001 51834 87486,87460,87633
 2.6000e+000 88187 -7.7985e+001 -3.5877e+002 -4.9383e+001 51266 87864,87942,87890
 2.6000e+000 88164  1.7040e+001 -1.7882e+002 -1.0908e+001 51266 87864,88020,87942
 2.6000e+000 88141 -3.0571e+001 -2.0117e+002 -1.7012e+001 51266 87942,88020,87968
 2.6000e+000 88118 -3.0524e+001 -3.4146e+002 -1.1829e+001 51266 87864,88046,88020
 2.6000e+000 88095 -2.7809e+000 -1.6043e+002 -4.6507e+000 51266 87968,88020,87994
 2.6000e+000 88072 -2.2977e+001 -3.0628e+002 -8.1252e+001 51266 87890,87942,87916
 2.6000e+000 88644 -7.3190e+001 -1.0104e+002 -4.0520e+001 50754 88370,88500,88396
 2.6000e+000 88621 -9.1699e+001 -2.0909e+002 -1.3145e+001 50754 88370,88526,88500
 2.6000e+000 88598 -6.0714e+001 -1.7442e+002 -1.5532e+002 50754 88396,88500,88422
 2.6000e+000 88575 -7.7163e+001 -3.1767e+002 -1.1769e+002 50754 88422,88500,88474
 2.6000e+000 88552 -7.6272e+001 -2.2483e+002  9.7451e+001 50754 88422,88474,88448
 2.6000e+000 88914 -4.7181e+001 -2.9265e+002  1.8429e+001 50442 88715,88793,88741
 2.6000e+000 88891 -2.6201e+001 -2.8677e+002  1.2767e+001 50442 88715,88819,88793
 2.6000e+000 88868 -1.0212e+001 -2.8196e+002  1.4905e+001 50442 88689,88819,88715
 2.6000e+000 88845 -8.8294e+001 -2.8729e+002  6.5542e+001 50442 88741,88793,88767
 2.6000e+000 89294 -4.0885e+001 -3.0569e+002  2.3931e+001 49938 89317,89046,89020
 2.6000e+000 89271 -4.6419e+001 -3.0444e+002  2.6935e+001 49938 89317,89020,89150
 2.6000e+000 89248 -1.0886e+002 -3.0025e+002  1.3234e+001 49938 89072,89150,89098
 2.6000e+000 89225 -5.2243e+001 -3.4910e+002  7.7593e+001 49938 89020,89176,89150
 2.6000e+000 89202 -4.5676e+001 -2.6369e+002 -2.9687e+001 49938 89098,89150,89124
 2.6000e+000 89343 -5.5600e+001 -3.0371e+002  1.6577e+001 49938 89072,89046,89317
 2.6000e+000 89366 -5.1798e+001 -3.0336e+002  2.8423e+001 49938 89072,89317,89150
 2.6000e+000 89823  3.7894e+001 -9.5105e+001  5.4456e+000 49384 89601,89705,89679
 2.6000e+000 89800 -9.3692e-001 -1.2198e+002 -3.1061e+001 49384 89549,89705,89601
 2.6000e+000 89777 -1.3747e+001 -1.5427e+002 -2.3825e+001 49384 89549,89601,89575
 2.6000e+000 89754 -4.4547e+001 -1.0054e+002  7.1899e-001 49384 89601,89679,89627
 2.6000e+000 89731 -4.2562e+001 -1.0507e+002 -8.7108e+000 49384 89627,89679,89653
 2.6000e+000 90329  2.5673e+001 -1.8290e+002 -4.2592e+001 48894 90058,90110,90084
 2.6000e+000 90306 -4.1137e+001 -2.1231e+002 -6.0889e+001 48894 90058,90162,90110
 2.6000e+000 90283 -6.6827e+001 -2.3112e+002 -7.0745e+001 48894 90032,90162,90058
 2.6000e+000 90260 -8.5773e+001 -2.4750e+002 -4.6490e+001 48894 90006,90162,90032
 2.6000e+000 90237 -2.6175e+001 -2.9497e+002 -7.7818e+001 48894 90110,90162,90136
 2.6000e+000 90214 -4.3812e+001 -2.4274e+002 -2.9536e+001 48894 90006,90188,90162
 2.6000e+000 90884 -6.5765e+001 -2.6117e+002 -1.7718e+001 48490 90564,90642,90616
 2.6000e+000 90861 -9.9911e+001 -2.7337e+002 -1.3754e+001 48490 90564,90694,90642
 2.6000e+000 90838 -4.9050e+001 -2.4947e+002 -7.1995e+000 48490 90538,90694,90564
 2.6000e+000 90815 -4.6501e+001 -2.7112e+002  4.8690e+000 48490 90538,90720,90694
 2.6000e+000 90792 -4.5709e+001 -2.2270e+002 -2.7463e+001 48490 90564,90616,90590
 2.6000e+000 90769 -8.7691e+001 -2.9155e+002 -6.9907e+001 48490 90642,90694,90668
 2.6000e+000 90746 -1.1925e+001 -2.3090e+002  5.0653e+001 48490 90512,90720,90538
 2.6000e+000 91034 -2.1585e+001 -2.3093e+002  2.9067e+001 48086 91057,90959,90933
 2.6000e+000 91011 -6.5176e+000 -1.9068e+002  2.8925e+001 48086 91129,91057,90933
 2.6000e+000 91083 -4.1596e+000 -2.1780e+002  2.2840e+001 48086 90985,90959,91057
 2.6000e+000 91106 -3.1376e+001 -2.0825e+002  9.8043e+000 48086 90985,91057,90907
 2.6000e+000 91155 -7.8022e+001 -2.2498e+002  1.8668e+001 48086 90907,91057,91129
 2.6000e+000 91791 -1.7186e+001 -1.3017e+002  7.1036e+001 47518 92030,91814,91523
 2.6000e+000 91768 -2.7361e+001 -1.6134e+002  2.2759e+001 47518 91958,91814,91471
 2.6000e+000 91745 -4.9382e+001 -2.4016e+002  3.2857e+001 47518 91886,91575,91523
 2.6000e+000 91722 -1.8370e+001 -8.5451e+001 -2.6883e+001 47518 91958,91471,91419
 2.6000e+000 91699 -2.7691e+001 -1.5507e+002  8.3026e+001 47518 92030,91523,91497
 2.6000e+000 91676 -7.9500e+001 -2.1141e+002  3.1329e+001 47518 91523,91575,91549
 2.6000e+000 91653 -3.8883e+001 -4.0155e+001 -2.0741e+001 47518 91419,91471,91445
 2.6000e+000 91840 -2.3374e+001 -1.9112e+002  7.2118e+001 47518 91886,91523,91814
 2.6000e+000 91863  7.8313e-001 -1.1020e+002  2.1357e+001 47518 91601,91814,91627
 2.6000e+000 91912 -9.5871e+001 -2.6745e+002 -4.0694e+001 47518 91601,91575,91886
 2.6000e+000 91935 -6.9623e+001 -1.5874e+002 -1.9005e+000 47518 91601,91886,91814
 2.6000e+000 91984  3.2545e+001 -9.6251e+001 -6.9820e+000 47518 91627,91814,91958
 2.6000e+000 92007  5.3542e+000 -5.4866e+001 -4.8914e+001 47518 91627,91958,91419
 2.6000e+000 92056 -1.0597e+001 -1.1042e+002  5.8936e+001 47518 91471,91814,92030
 2.6000e+000 92079 -1.1933e+001 -1.2471e+002  6.9318e+001 47518 91471,92030,91497
 2.6000e+000 92229  2.3293e-001  2.7666e+000 -2.6259e+000 47128 92252,92128,92102
 2.6000e+000 92206 -3.0190e+000  5.0078e+000  9.0623e-001 47128 92324,92252,92102
 2.6000e+000 92278 -3.7109e+000 -8.0898e+000 -5.9443e+000 47128 92454,92252,92154
 2.6000e+000 92301 -2.1484e+000  6.5752e+000 -3.4431e+000 47128 92154,92252,92180
 2.6000e+000 92350  1.2211e+000  8.7813e+000  2.5361e+000 47128 92180,92252,92324
 2.6000e+000 92480 -1.1476e+000  1.8298e+000 -3.6989e+000 47128 92128,92252,92454
 2.6000e+000 93340 -8.8439e+001 -2.4928e+002 -2.9181e+001 46838 93363,92977,92873
 2.6000e+000 93317 -7.4613e+001 -2.4656e+002 -1.3555e+001 46838 93507,93363,92873
 2.6000e+000 93294 -3.9422e+001 -2.3936e+002 -2.7976e+000 46838 93435,93003,92977
 2.6000e+000 93271 -1.4177e+002 -2.4486e+002 -9.1113e+000 46838 93507,92873,92847
 2.6000e+000 93248 -2.2524e+001 -2.2320e+002 -1.7167e+001 46838 93579,93029,93003
 2.6000e+000 93225 -1.1164e+002 -4.0208e+002  5.7058e+001 46838 92873,92951,92925
 2.6000e+000 93202 -1.2978e+002 -2.9393e+002 -1.0937e+001 46838 92873,92977,92951
 2.6000e+000 93179 -1.1955e+001 -2.1323e+002  3.9048e+000 46838 93055,93107,93081
 2.6000e+000 93156 -4.9947e+001 -1.4432e+002  2.6793e+001 46838 92821,93107,92847
 2.6000e+000 93133 -9.1002e+001 -3.1584e+002  5.0060e+001 46838 92873,92925,92899
 2.6000e+000 93389 -5.6971e+001 -2.3534e+002 -2.9716e-001 46838 93435,92977,93363
 2.6000e+000 93412 -7.2275e+000 -2.4103e+002  6.1537e+000 46838 93055,93363,93107
 2.6000e+000 93461 -2.6348e+001 -2.3476e+002 -1.6963e+001 46838 93579,93003,93435
 2.6000e+000 93484 -3.7037e+001 -2.5536e+002 -5.6179e+000 46838 93055,93435,93363
 2.6000e+000 93533 -2.7574e+001 -2.3973e+002 -2.7858e+001 46838 93107,93363,93507
 2.6000e+000 93556 -5.3830e+001 -2.0861e+002 -2.6525e+001 46838 93107,93507,92847
 2.6000e+000 93605 -1.9480e+001 -2.2887e+002  4.7114e-001 46838 93055,93029,93579
 2.6000e+000 93628 -2.2137e+001 -2.3819e+002  8.0088e-001 46838 93055,93579,93435
 2.6000e+000 93979 -1.0916e+002 -3.0172e+002  5.4031e-001 46476 93780,93884,93858
 2.6000e+000 93956 -1.0190e+002 -3.3230e+002  9.4816e+000 46476 93754,93884,93780
 2.6000e+000 93933 -7.8391e+001 -3.0704e+002 -5.0010e+000 46476 93806,93858,93832
 2.6000e+000 93910 -7.0486e+001 -2.8238e+002 -6.9895e+000 46476 93780,93858,93806
 2.6000e+000 94515  1.1342e+001 -8.4825e+001 -2.3768e+001 46072 94345,94397,94371
 2.6000e+000 94492 -4.4883e+001 -1.1746e+002  2.2356e+001 46072 94267,94397,94345
 2.6000e+000 94469 -2.4635e+001 -1.8633e+002  2.4382e+000 46072 94241,94397,94267
 2.6000e+000 94446 -2.5136e+001 -4.9322e+001  3.2284e+000 46072 94293,94345,94319
 2.6000e+000 94423 -6.0790e+001 -1.2494e+002  1.5594e+001 46072 94267,94345,94293
 2.6000e+000 95149 -7.0792e+001 -2.8893e+002  7.0321e+000 45346 94803,94881,94855
 2.6000e+000 95126 -4.2905e+001 -2.4258e+002 -1.5771e+001 45346 94803,94959,94881
 2.6000e+000 95103 -1.9025e+001 -2.6318e+002 -5.4641e+001 45346 95172,94933,94907
 2.6000e+000 95080 -6.3999e+001 -4.5973e+002 -3.6473e+001 45346 95172,94907,94881
 2.6000e+000 95057 -8.7404e+001 -2.3291e+002 -9.1035e+000 45346 94803,94985,94959
 2.6000e+000 95034 -6.0491e+001 -3.3615e+002 -6.9373e+000 45346 94803,94855,94829
 2.6000e+000 95011 -8.9618e+001 -2.2908e+002  1.2616e+001 45346 94777,94985,94803
 2.6000e+000 95198 -7.5214e+001 -1.7059e+002 -3.3303e+001 45346 94959,94933,95172
 2.6000e+000 95221 -5.6923e+001 -2.8058e+002 -3.0396e+001 45346 94959,95172,94881
 2.6000e+000 95776 -8.3499e+001 -2.9136e+002 -2.9106e+001 44720 95799,95560,95534
 2.6000e+000 95753 -4.6958e+001 -2.0192e+002 -5.2270e+001 44720 95799,95534,95482
 2.6000e+000 95730 -3.0309e+001 -3.0517e+002 -5.6858e+001 44720 95943,95871,95430
 2.6000e+000 95707 -4.1411e+001 -2.5291e+002 -4.5913e+001 44720 95943,95430,95404
 2.6000e+000 95684 -1.0700e+002 -1.7351e+002 -1.0417e+002 44720 95430,95482,95456
 2.6000e+000 95661 -2.1562e+001 -1.5823e+002  2.4845e+001 44720 95482,95534,95508
 2.6000e+000 95638 -4.0863e+001 -1.8509e+002 -6.6218e+001 44720 95404,95612,95586
 2.6000e+000 95825 -4.6116e+001 -3.8576e+002 -6.6475e+001 44720 95586,95560,95799
 2.6000e+000 95848 -1.0943e+001 -2.8584e+002 -5.9376e+001 44720 95871,95586,95799
 2.6000e+000 95897 -2.9246e+001 -3.0875e+002 -6.4248e+001 44720 95482,95430,95871
 2.6000e+000 95920 -3.3507e+001 -3.0335e+002 -4.3427e+001 44720 95482,95871,95799
 2.6000e+000 95969 -1.0734e+001 -2.3444e+002 -6.3577e+001 44720 95586,95871,95943
 2.6000e+000 95992 -3.2944e+001 -2.0220e+002 -4.3098e+001 44720 95586,95943,95404
 2.6000e+000 96449 -1.9249e+001 -2.1708e+002 -2.7404e+001 44202 96544,96472,96227
 2.6000e+000 96426 -2.0108e+001 -2.3962e+002  8.8647e+000 44202 96472,96175,96331
 2.6000e+000 96403 -1.7968e+001 -2.1565e+002 -2.7988e+001 44202 96544,96227,96201
 2.6000e+000 96380 -5.7299e+001 -3.0804e+002 -5.7191e+001 44202 96253,96305,96279
 2.6000e+000 96357 -7.7207e+001 -2.4924e+002 -3.9036e+001 44202 96227,96305,96253
 2.6000e+000 96498 -2.7070e+001 -2.1038e+002 -1.5323e+001 44202 96305,96227,96472
 2.6000e+000 96521  1.0349e+001 -1.7636e+002  2.3312e+001 44202 96305,96472,96331
 2.6000e+000 96570 -1.6308e+001 -2.2114e+002 -2.7397e+001 44202 96175,96472,96544
 2.6000e+000 96593 -1.4006e+001 -2.1840e+002 -2.8395e+001 44202 96175,96544,96201
 2.6000e+000 96971 -2.0241e+001 -1.9699e+002 -5.5216e+001 43754 96994,96749,96697
 2.6000e+000 96948  3.7506e+000 -2.2804e+002 -3.2324e+001 43754 96994,96697,96853
 2.6000e+000 96925 -5.8904e+001 -2.4356e+002 -3.7642e+001 43754 96697,96749,96723
 2.6000e+000 96902 -3.6526e+001 -2.8566e+002 -7.4703e+000 43754 96775,96853,96827
 2.6000e+000 96879  3.4059e+000 -3.0150e+002 -6.7738e+000 43754 96775,96827,96801
 2.6000e+000 97020  1.0152e+000 -1.4741e+002 -5.2890e+001 43754 96775,96749,96994
 2.6000e+000 97043  1.4583e+001 -1.9858e+002 -3.1183e+001 43754 96775,96994,96853
 2.6000e+000 97291 -4.6302e+001 -2.7355e+002 -4.4568e+001 43364 97314,97144,97118
 2.6000e+000 97268 -6.3894e+001 -2.2673e+002 -2.3709e+001 43364 97314,97118,97092
 2.6000e+000 97245 -5.0297e+001 -2.2619e+002 -1.4313e+001 43364 97386,97196,97170
 2.6000e+000 97222 -8.0588e+001 -1.7187e+002  2.7924e+001 43364 97066,97196,97092
 2.6000e+000 97340  2.6021e+001 -1.9203e+002 -7.5397e+001 43364 97170,97144,97314
 2.6000e+000 97363 -4.8551e+001 -2.0675e+002 -2.8158e+001 43364 97386,97170,97314
 2.6000e+000 97412 -5.9645e+001 -2.4989e+002 -4.4382e+000 43364 97092,97196,97386
 2.6000e+000 97435 -6.0013e+001 -2.4128e+002 -2.0141e+001 43364 97092,97386,97314
 2.6000e+000 97788 -1.2118e+001 -1.3484e+002  1.6895e+001 42960 97563,97667,97589
 2.6000e+000 97765 -3.9835e+001 -1.1334e+002  1.3771e+001 42960 97563,97693,97667
 2.6000e+000 97742  1.0652e+001 -6.4961e+001  3.7709e+000 42960 97589,97641,97615
 2.6000e+000 97719 -3.4274e+000 -1.5058e+002  5.5173e+000 42960 97589,97667,97641
 2.6000e+000 98215 -1.4328e+001 -1.9699e+002  4.2341e+000 42563 97918,98074,98048
 2.6000e+000 98192 -5.4893e+001 -1.6653e+002  3.9642e+001 42563 97892,98074,97918
 2.6000e+000 98169 -7.2297e+001 -3.7690e+002  1.7983e+001 42563 98238,97944,97918
 2.6000e+000 98146 -4.8369e+001 -3.1641e+002  4.5206e+001 42563 98238,97918,98048
 2.6000e+000 98123 -8.4371e+001 -2.4823e+002 -1.5825e+001 42563 97944,98022,97996
 2.6000e+000 98100 -1.0884e+002 -2.6189e+002  4.7742e+001 42563 97944,97996,97970
 2.6000e+000 98264 -9.7592e+001 -3.5046e+002 -1.3385e+001 42563 98022,97944,98238
 2.6000e+000 98287 -8.5990e+001 -3.3087e+002  1.0168e+001 42563 98022,98238,98048
 2.6000e+000 98616 -2.4334e+001 -1.1971e+002 -2.2901e+001 42251 98443,98521,98469
 2.6000e+000 98593 -2.2091e+001 -1.2307e+002 -2.4756e+001 42251 98417,98521,98443
 2.6000e+000 98570 -4.5719e+001 -1.7880e+002 -2.8294e+001 42251 98391,98521,98417
 2.6000e+000 98547  7.6889e+000 -1.0997e+002 -1.8161e+001 42251 98469,98521,98495
 2.6000e+000 98886 -2.5002e+001 -2.8247e+002  2.0526e+001 41847 98661,98765,98687
 2.6000e+000 98863 -3.4526e+001 -1.5080e+002 -7.1738e+001 41847 98661,98791,98765
 2.6000e+000 98840 -6.6740e+001 -2.5772e+002  3.1304e+000 41847 98687,98765,98739
 2.6000e+000 98817 -3.9603e+001 -2.3935e+002 -8.3885e+000 41847 98687,98739,98713
 2.6000e+000 99394 -5.4844e+001 -1.9046e+002 -3.1007e+001 41236 99417,99149,99123
 2.6000e+000 99371 -1.1007e+002 -1.9535e+002 -2.0889e+001 41236 99417,99123,99097
 2.6000e+000 99348 -9.1659e+001 -1.5743e+002 -6.3177e+001 41236 99489,99201,99149
 2.6000e+000 99325 -2.1997e+001 -1.1257e+002 -3.4417e+001 41236 99149,99201,99175
 2.6000e+000 99302 -4.2079e+001 -2.1862e+002 -1.0730e+001 41236 99097,99253,99227
 2.6000e+000 99279 -1.3254e+002 -2.9751e+002 -4.8360e+001 41236 99071,99253,99097
 2.6000e+000 99443 -5.9840e+001 -1.7090e+002 -5.9010e+001 41236 99489,99149,99417
 2.6000e+000 99466 -8.8122e+001 -1.8171e+002 -3.8465e+001 41236 99227,99417,99097
 2.6000e+000 99515 -1.0931e+002 -1.7031e+002 -5.7319e+001 41236 99227,99201,99489
 2.6000e+000 99538 -9.5736e+001 -1.9749e+002 -4.7262e+001 41236 99227,99489,99417
 2.6000e+000 100044  3.7746e+001 -3.2368e+002 -7.6642e+000 40732 99721,99773,99747
 2.6000e+000 100021 -4.9862e+001 -3.2689e+002 -5.1319e+001 40732 99721,99799,99773
 2.6000e+000 99998 -5.8216e+001 -2.8175e+002 -4.5221e+001 40732 99721,99903,99799
 2.6000e+000 99975 -4.7609e+001 -2.0744e+002 -2.7367e+001 40732 100067,99877,99851
 2.6000e+000 99952 -4.2748e+001 -1.9022e+002 -2.8436e+001 40732 100067,99851,99799
 2.6000e+000 99929 -4.2326e+001 -1.9193e+002 -2.6032e+001 40732 99799,99851,99825
 2.6000e+000 100093 -4.0646e+001 -2.2414e+002 -3.4700e+001 40732 99903,99877,100067
 2.6000e+000 100116 -3.2293e+001 -2.0114e+002 -3.7617e+001 40732 99903,100067,99799
 2.6000e+000 100622 -4.9084e+001 -2.6247e+002 -2.7595e+001 40278 100645,100455,100429
 2.6000e+000 100599 -9.4105e+001 -2.1857e+002 -4.1644e+001 40278 100717,100645,100429
 2.6000e+000 100576 -9.0430e+001 -2.1687e+002  8.2610e+000 40278 100717,100429,100377
 2.6000e+000 100553 -7.9174e+001 -3.4883e+002 -1.5480e+001 40278 100789,100325,100481
 2.6000e+000 100530 -1.1397e+002 -2.0780e+002  3.1858e+001 40278 100299,100481,100325
 2.6000e+000 100507 -9.5263e+001 -2.4372e+002 -4.4456e+000 40278 100377,100429,100403
 2.6000e+000 100671 -4.8561e+001 -2.7174e+002 -3.0509e+001 40278 100481,100455,100645
 2.6000e+000 100694 -6.9898e+001 -3.0305e+002 -1.8159e+001 40278 100789,100481,100645
 2.6000e+000 100743 -6.4931e+001 -1.4280e+002 -5.2906e+001 40278 100351,100645,100717
 2.6000e+000 100766 -7.6195e+001 -1.5723e+002  6.6741e-001 40278 100351,100717,100377
 2.6000e+000 100815 -1.0998e+002 -3.5703e+002 -9.8059e+001 40278 100351,100325,100789
 2.6000e+000 100838 -7.0004e+001 -2.5026e+002 -9.5664e+001 40278 100351,100789,100645
 2.6000e+000 101265 -3.6513e+001 -2.2758e+002  2.2949e+001 39824 101288,101046,100994
 2.6000e+000 101242 -3.0257e+001 -1.8727e+002  2.2910e+001 39824 101288,100994,100968
 2.6000e+000 101219 -3.9372e+001 -1.8822e+002 -4.0646e-001 39824 100942,101124,100968
 2.6000e+000 101196 -7.3026e+001 -3.2117e+002  5.0288e+000 39824 101046,101124,101072
 2.6000e+000 101173 -6.9693e+000 -2.0504e+002  4.1789e+001 39824 100994,101046,101020
 2.6000e+000 101150 -5.7380e+001 -2.4669e+002 -3.0265e+001 39824 101072,101124,101098
 2.6000e+000 101314 -3.5341e+001 -2.0342e+002  6.8770e+000 39824 101124,101046,101288
 2.6000e+000 101337 -3.7261e+001 -1.8333e+002  1.8447e+000 39824 101124,101288,100968
 2.6000e+000 101585 -4.6592e+001 -2.3991e+002 -2.7997e+001 39070 101608,101464,101412
 2.6000e+000 101562 -1.9009e+001 -2.4851e+002 -6.0163e+000 39070 101608,101412,101360
 2.6000e+000 101539  3.7411e+001 -1.8159e+002  4.0818e-001 39070 101412,101464,101438
 2.6000e+000 101516 -5.8206e+001 -2.3232e+002  1.8150e+001 39070 101360,101412,101386
 2.6000e+000 101634 -6.7084e+001 -2.4617e+002 -3.0379e+001 39070 101490,101464,101608
 2.6000e+000 101657 -4.8310e+001 -2.5816e+002 -5.7636e+000 39070 101490,101608,101360
 2.6000e+000 101856 -5.6557e+001 -2.3591e+002 -2.0469e+000 38730 101706,101758,101732
 2.6000e+000 101833 -4.5344e+001 -2.5502e+002  4.1018e+000 38730 101706,101784,101758
 2.6000e+000 101810 -8.0901e+001 -2.8132e+002 -1.0986e+001 38730 101680,101784,101706
 2.6000e+000 102106 -1.1720e+002 -2.5801e+002 -3.5092e+001 38326 101881,101959,101907
 2.6000e+000 102083 -1.0059e+002 -2.2472e+002 -4.0763e+001 38326 101881,101985,101959
 2.6000e+000 102060 -8.0657e+001 -3.0440e+002  5.9969e+000 38326 101881,102011,101985
 2.6000e+000 102037 -4.8030e+001 -1.7019e+002 -8.0683e+001 38326 101907,101959,101933
 2.6000e+000 102258 -6.6874e+001 -2.7704e+002 -8.1521e+000 38036 102281,102157,102131
 2.6000e+000 102235 -2.2649e+001 -3.3289e+002  2.3041e+001 38036 102281,102131,102209
 2.6000e+000 102307 -4.5018e+001 -2.3826e+002  3.8143e+000 38036 102183,102157,102281
 2.6000e+000 102330  2.5132e+001 -2.6095e+002  4.7103e+001 38036 102183,102281,102209
 2.6000e+000 102663 -2.7420e+001 -1.1826e+002 -4.5865e+000 37596 102438,102542,102464
 2.6000e+000 102640  1.5870e+001 -9.9858e+001 -3.0989e+000 37596 102438,102568,102542
 2.6000e+000 102617 -1.2811e+001 -1.5733e+002 -3.5748e+001 37596 102490,102542,102516
 2.6000e+000 102594 -2.7142e+001 -1.1690e+002 -4.4045e+000 37596 102464,102542,102490
 2.6000e+000 102862 -7.3811e+001 -2.3437e+002 -1.4323e+001 37192 102686,102764,102712
 2.6000e+000 102839 -5.1611e+001 -2.3185e+002 -4.5987e+001 37192 102686,102790,102764
 2.6000e+000 102816 -9.0248e+001 -2.0586e+002 -2.7433e+001 37192 102712,102764,102738
 2.6000e+000 103110 -2.5432e+001 -1.5718e+002 -6.2995e+001 36609 102911,102963,102937
 2.6000e+000 103087 -2.4660e+001 -2.0123e+002 -2.6604e+001 36609 102911,102989,102963
 2.6000e+000 103064 -1.5047e+001 -2.0658e+002 -2.9942e+001 36609 102885,102989,102911
 2.6000e+000 103041 -4.4339e+001 -1.6034e+002 -6.0115e+001 36609 102885,103015,102989
 2.6000e+000 103718  4.3398e+001 -4.5528e+002  1.0625e+001 36131 103323,103375,103349
 2.6000e+000 103695 -9.7982e+001 -2.6713e+002 -4.2130e+001 36131 103297,103375,103323
 2.6000e+000 103672 -5.8052e+001 -1.6527e+002 -3.5274e+001 36131 103297,103505,103375
 2.6000e+000 103649 -1.1267e+002 -2.8981e+002  2.3270e+001 36131 103741,103479,103401
 2.6000e+000 103626 -7.4306e+001 -2.0041e+002  2.5033e+001 36131 103741,103401,103375
 2.6000e+000 103603 -1.3673e+002 -3.3128e+002  1.2285e+001 36131 103401,103479,103427
 2.6000e+000 103580 -6.9281e+001 -1.9420e+002 -1.2755e+001 36131 103297,103531,103505
 2.6000e+000 103557 -1.0487e+002 -2.9363e+002 -3.5480e+001 36131 103427,103479,103453
 2.6000e+000 103767 -9.1150e+001 -3.4902e+002 -4.5282e+001 36131 103505,103479,103741
 2.6000e+000 103790 -5.6807e+001 -2.7001e+002 -4.1275e+001 36131 103505,103741,103375
 2.6000e+000 103989 -1.4242e+002 -3.0839e+002  1.5549e+001 35791 103839,103917,103891
 2.6000e+000 103966 -2.0922e+002 -3.3275e+002 -2.0285e+000 35791 103813,103917,103839
 2.6000e+000 103943 -2.4924e+001 -2.4325e+002 -1.0212e+001 35791 103839,103891,103865
 2.6000e+000 104188  1.4940e+001 -2.4168e+002 -2.9478e+001 35444 104038,104090,104064
 2.6000e+000 104165 -1.0213e+002 -2.8001e+002 -1.8156e+001 35444 104038,104116,104090
 2.6000e+000 104142  1.3250e-001 -2.6755e+002  1.1968e+001 35444 104012,104116,104038
 2.6000e+000 104487 -7.7082e+000 -2.5244e+002 -7.2702e+001 34990 104265,104317,104291
 2.6000e+000 104464 -3.0109e+001 -2.9449e+002 -2.8183e+001 34990 104510,104317,104265
 2.6000e+000 104441 -7.0685e+001 -2.2077e+002 -7.3687e+000 34990 104510,104265,104213
 2.6000e+000 104418  3.8743e+000 -2.2851e+002 -4.4983e+001 34990 104582,104343,104317
 2.6000e+000 104395 -6.3060e+001 -2.0911e+002 -2.9426e+001 34990 104213,104265,104239
 2.6000e+000 104536  5.4114e+000 -2.2564e+002 -4.1856e+001 34990 104582,104317,104510
 2.6000e+000 104559 -5.2716e+001 -1.9661e+002 -1.5563e+001 34990 104369,104510,104213
 2.6000e+000 104608  8.2090e+000 -1.6463e+002 -2.0598e+001 34990 104369,104343,104582
 2.6000e+000 104631 -1.7416e+001 -2.3576e+002 -1.5609e+001 34990 104369,104582,104510
 2.6000e+000 104783  1.2154e+001 -1.5249e+002 -2.4516e+001 34700 104938,104806,104682
 2.6000e+000 104760 -3.3068e+001 -2.4143e+002 -4.0421e+001 34700 104938,104682,104656
 2.6000e+000 104832 -2.2743e+001 -1.8376e+002 -3.7646e+001 34700 104708,104682,104806
 2.6000e+000 104964  1.9073e+001 -1.1546e+002  5.2856e+001 34700 104734,104806,104938
 2.6000e+000 104987 -1.6531e+001 -1.8333e+002  3.8866e+001 34700 104734,104938,104656
 2.6000e+000 105137 -4.2199e+001 -2.2696e+002  8.1899e+000 34388 105036,105088,105062
 2.6000e+000 105114 -5.1750e+001 -2.8574e+002 -4.0512e+000 34388 105010,105088,105036
 2.6000e+000 105385 -9.8756e+001 -2.2898e+002 -2.3162e+001 33734 105408,105186,105160
 2.6000e+000 105362 -8.7189e+001 -2.3771e+002 -3.4135e+001 33734 105408,105160,105264
 2.6000e+000 105339 -1.4336e+002 -2.5771e+002 -2.3824e+001 33734 105160,105290,105264
 2.6000e+000 105316 -9.8843e+000 -1.9242e+002 -3.1676e+001 33734 105186,105238,105212
 2.6000e+000 105434 -8.7242e+001 -2.2733e+002 -2.4182e+001 33734 105238,105186,105408
 2.6000e+000 105457 -5.8932e+001 -2.2581e+002 -3.5981e+001 33734 105238,105408,105264
 2.6000e+000 105609 -8.5392e+001 -2.9600e+002  1.5870e+001 33394 105482,105534,105508
 2.6000e+000 105586 -3.0518e+001 -2.7602e+002  1.2321e+001 33394 105482,105560,105534
 2.6000e+000 105859 -1.0582e+002 -3.6175e+002 -4.0754e+001 33047 105882,105712,105660
 2.6000e+000 105836 -6.8669e+001 -3.2972e+002 -1.6318e+001 33047 105882,105660,105634
 2.6000e+000 105813 -8.6282e+001 -3.9810e+002  8.7496e+000 33047 105660,105712,105686
 2.6000e+000 105790 -6.1403e+001 -2.2404e+002 -1.5604e+000 33047 105634,105764,105738
 2.6000e+000 105908 -1.9749e+002 -3.1199e+002 -1.6686e+001 33047 105738,105712,105882
 2.6000e+000 105931 -1.0562e+002 -2.7363e+002  1.8725e+001 33047 105738,105882,105634
 2.6000e+000 106181 -3.8174e+001 -2.6671e+002 -7.3833e+000 32543 106204,106060,106008
 2.6000e+000 106158 -4.4977e+000 -3.7719e+002 -9.6233e+000 32543 105956,106086,106060
 2.6000e+000 106135 -1.1738e+001 -1.4123e+002  5.8834e+001 32543 106204,106008,105982
 2.6000e+000 106112 -6.8641e+001 -1.5442e+002 -2.2634e+000 32543 106008,106060,106034
 2.6000e+000 106230 -5.2157e+001 -3.2143e+002 -6.9274e+001 32543 105956,106060,106204
 2.6000e+000 106253 -6.5393e+001 -2.1765e+002 -1.1559e+001 32543 105956,106204,105982
 2.6000e+000 106454 -2.3541e+001 -1.9680e+002  2.9291e+001 31839 106304,106356,106330
 2.6000e+000 106431 -6.8577e+001 -2.5106e+002 -3.4296e+001 31839 106278,106356,106304
 2.6000e+000 106408 -6.6196e+001 -2.8531e+002 -2.5689e+001 31839 106278,106382,106356
 2.6000e+000 106704 -2.6687e+001 -2.2565e+002 -4.5168e+001 31534 106505,106583,106557
 2.6000e+000 106681 -6.8912e+001 -2.3420e+002 -3.7217e+001 31534 106479,106583,106505
 2.6000e+000 106658 -8.8451e+001 -1.4935e+002 -6.2206e+001 31534 106505,106557,106531
 2.6000e+000 106635 -1.8939e+001 -2.1436e+002 -3.7284e+001 31534 106479,106609,106583
 2.6000e+000 107108 -1.5714e+002 -2.9375e+002 -2.1453e+000 31030 106886,106990,106964
 2.6000e+000 107085 -1.8191e+002 -3.2623e+002 -1.3138e+001 31030 106860,106990,106886
 2.6000e+000 107062 -3.5575e+001 -2.8324e+002 -3.3061e+001 31030 106834,106990,106860
 2.6000e+000 107039 -1.5104e+002 -3.8335e+002  4.1648e+001 31030 106912,106964,106938
 2.6000e+000 107016 -1.4353e+002 -2.8482e+002  7.4278e+000 31030 106886,106964,106912
 2.6000e+000 107307 -4.1777e+001 -2.8839e+002 -1.1296e+001 30718 107330,107157,107131
 2.6000e+000 107284 -5.2763e+001 -3.0473e+002 -6.2326e+000 30718 107330,107131,107235
 2.6000e+000 107261 -8.1743e+001 -3.0106e+002 -2.0614e+001 30718 107183,107235,107209
 2.6000e+000 107356 -5.6444e+001 -2.6317e+002 -1.2787e+001 30718 107183,107157,107330
 2.6000e+000 107379 -7.0118e+001 -2.8334e+002 -6.7305e+000 30718 107183,107330,107235
 2.6000e+000 107759 -1.8868e+001 -1.9814e+002 -5.9875e+000 30264 107782,107615,107537
 2.6000e+000 107736 -2.5063e+001 -2.1245e+002 -9.0385e+000 30264 107782,107537,107485
 2.6000e+000 107713 -6.7183e+001 -2.6649e+002  1.0420e+001 30264 107485,107537,107511
 2.6000e+000 107690 -7.7512e+000 -2.4837e+002 -2.4913e+001 30264 107537,107615,107589
 2.6000e+000 107667  3.1844e+001 -1.8903e+002  4.8841e+000 30264 107537,107589,107563
 2.6000e+000 107808 -1.2297e+001 -2.0013e+002  5.8427e+000 30264 107641,107615,107782
 2.6000e+000 107831 -2.0895e+001 -2.1707e+002  2.0668e+000 30264 107641,107782,107485
 2.6000e+000 108030 -9.5331e+001 -2.8445e+002 -5.8111e+001 29874 108053,107854,107932
 2.6000e+000 108007 -1.5739e+002 -3.0657e+002 -5.2947e+001 29874 107854,107958,107932
 2.6000e+000 107984  2.3128e+000 -2.2482e+002 -3.2120e+001 29874 108053,107932,107906
 2.6000e+000 108079 -1.4220e+002 -2.1265e+002 -2.1722e+001 29874 107880,107854,108053
 2.6000e+000 108102 -9.7818e+001 -1.8160e+002 -8.1321e+000 29874 107880,108053,107906
 2.6000e+000 108433  8.5993e+000 -2.7945e+002 -8.0297e+001 29484 108234,108338,108312
 2.6000e+000 108410  3.3244e+001 -2.4268e+002 -3.1463e+001 29484 108208,108338,108234
 2.6000e+000 108387 -7.2627e+001 -2.5617e+002 -1.0882e+002 29484 108234,108312,108260
 2.6000e+000 108364  3.0068e+001 -6.7024e+001 -4.6321e+001 29484 108260,108312,108286
 2.6000e+000 108762 -7.3525e+001 -2.3763e+002  9.5662e+000 29080 108563,108641,108589
 2.6000e+000 108739 -5.5259e+001 -1.7894e+002  5.5916e+000 29080 108537,108641,108563
 2.6000e+000 108716 -7.8205e+001 -2.9742e+002  2.8864e+000 29080 108589,108641,108615
 2.6000e+000 108693  2.7328e+001 -1.4697e+002 -4.9965e+000 29080 108537,108667,108641
 2.6000e+000 109189 -5.7042e+001 -2.4715e+002 -4.0296e+001 28476 108892,108996,108970
 2.6000e+000 109166 -1.0751e+002 -2.4421e+002 -3.8207e+001 28476 108892,109022,108996
 2.6000e+000 109143 -1.3415e+002 -1.9627e+002  6.4095e+000 28476 108892,108970,108944
 2.6000e+000 109120 -1.3529e+002 -2.5488e+002 -4.1144e+001 28476 108892,109048,109022
 2.6000e+000 109097 -8.3564e+001 -1.2763e+002  4.0567e+001 28476 108892,108944,108918
 2.6000e+000 109074 -1.1330e+002 -2.9782e+002 -2.1860e+001 28476 108866,109048,108892
 2.6000e+000 109518 -1.0282e+002 -2.6967e+002  4.3459e+001 28022 109541,109371,109345
 2.6000e+000 109495 -1.1199e+002 -2.5507e+002  2.8483e+001 28022 109541,109345,109319
 2.6000e+000 109472 -8.4573e+001 -2.5453e+002  1.0812e+001 28022 109293,109397,109319
 2.6000e+000 109449 -1.2872e+001 -2.2497e+002  7.2526e+000 28022 109293,109423,109397
 2.6000e+000 109567 -6.2620e+001 -2.5228e+002  4.1811e+001 28022 109397,109371,109541
 2.6000e+000 109590 -1.0002e+002 -2.5181e+002  2.8695e+001 28022 109397,109541,109319
 2.6000e+000 109968 -3.9605e+001 -2.0055e+002  6.9448e+001 27568 109798,109850,109824
 2.6000e+000 109945 -7.3505e+001 -2.7725e+002  6.0839e+001 27568 109694,109850,109798
 2.6000e+000 109922 -1.0275e+002 -2.4201e+002  5.4676e+001 27568 109694,109798,109746
 2.6000e+000 109899 -2.6173e+001 -2.1840e+002 -1.1329e+001 27568 109746,109798,109772
 2.6000e+000 109876 -9.3968e+001 -2.4327e+002  7.2689e+001 27568 109694,109746,109720
 2.6000e+000 110167 -6.1235e+001 -2.5067e+002 -5.3750e+001 27007 110017,110095,110069
 2.6000e+000 110144 -9.3871e-001 -2.6468e+002 -8.1389e+000 27007 109991,110095,110017
 2.6000e+000 110121  2.1437e-001 -2.1049e+002 -3.0661e+001 27007 110017,110069,110043
 2.6000e+000 110415 -1.5212e+001 -2.3552e+002 -1.0183e+001 26567 110438,110242,110190
 2.6000e+000 110392 -3.0315e+001 -2.2774e+002 -1.2501e+001 26567 110438,110190,110320
 2.6000e+000 110369 -8.2214e+001 -2.4620e+002 -1.7241e+001 26567 110242,110294,110268
 2.6000e+000 110346 -2.6708e+001 -2.3799e+002  3.5191e+001 26567 110190,110242,110216
 2.6000e+000 110464 -2.2773e+001 -2.3539e+002 -1.5695e+001 26567 110294,110242,110438
 2.6000e+000 110487 -3.7650e+001 -2.3435e+002 -2.1582e+001 26567 110294,110438,110320
 2.6000e+000 110639 -7.5670e+000 -5.9311e+001 -1.2638e+001 26170 110538,110590,110564
 2.6000e+000 110616 -5.9610e+000 -4.5575e+001 -1.3022e+001 26170 110512,110590,110538
 2.6000e+000 111149 -1.0744e+002 -2.1315e+002 -4.3611e+001 25716 111172,110878,110852
 2.6000e+000 111126 -7.0301e+001 -2.1990e+002 -3.9161e+001 25716 111172,110852,111008
 2.6000e+000 111103 -7.1424e+001 -2.2041e+002 -3.7772e+001 25716 110878,110930,110904
 2.6000e+000 111080 -8.5563e+001 -2.2876e+002 -4.3350e+001 25716 110826,111008,110852
 2.6000e+000 111057 -9.3829e+001 -3.1220e+002  3.3701e+001 25716 110930,111008,110956
 2.6000e+000 111034 -1.5275e+001 -2.9283e+002  3.7009e+001 25716 110956,111008,110982
 2.6000e+000 111198 -8.0799e+001 -2.1812e+002 -3.3264e+001 25716 110930,110878,111172
 2.6000e+000 111221 -3.5805e+001 -2.1797e+002 -2.7591e+001 25716 110930,111172,111008
 2.6000e+000 111420 -2.1071e+001 -2.0132e+002 -1.1222e+001 25304 111443,111270,111244
 2.6000e+000 111397 -9.5536e+000 -2.3410e+002 -1.1309e+001 25304 111443,111244,111348
 2.6000e+000 111374 -2.2763e+001 -1.6878e+002  2.0278e+001 25304 111270,111322,111296
 2.6000e+000 111469 -1.5381e+001 -1.8145e+002 -8.3142e+000 25304 111322,111270,111443
 2.6000e+000 111492  2.7009e+000 -2.0639e+002 -5.2876e+000 25304 111322,111443,111348
 2.6000e+000 111691 -6.6663e+001 -2.1490e+002  2.5794e+001 24736 111567,111619,111593
 2.6000e+000 111668 -8.9274e+001 -2.7339e+002  2.4411e+001 24736 111541,111619,111567
 2.6000e+000 111645 -7.1813e+001 -2.7066e+002  2.4235e+001 24736 111515,111619,111541
 2.6000e+000 112024 -4.1406e+001 -3.2958e+002  4.0587e+001 24146 111825,111877,111851
 2.6000e+000 112001 -8.5956e+001 -3.1879e+002 -5.1765e+000 24146 111825,111903,111877
 2.6000e+000 111978 -1.7580e+001 -2.0669e+002 -3.4810e+001 24146 111825,111929,111903
 2.6000e+000 111955 -4.3066e+001 -1.9343e+002 -2.1872e+001 24146 111799,111929,111825
 2.6000e+000 112370 -9.0972e+001 -3.9088e+002 -5.0947e+000 23856 112393,112151,112125
 2.6000e+000 112347 -7.0661e+001 -3.4268e+002 -4.5685e-001 23856 112465,112393,112125
 2.6000e+000 112324 -8.3262e+001 -3.3109e+002  2.5940e+001 23856 112465,112125,112073
 2.6000e+000 112301 -1.0345e+002 -3.1770e+002  2.9429e+001 23856 112073,112125,112099
 2.6000e+000 112278 -2.2990e+002 -4.2537e+002 -3.8728e+001 23856 112047,112229,112073
 2.6000e+000 112255 -5.1025e+001 -4.2165e+002 -9.9569e+001 23856 112151,112203,112177
 2.6000e+000 112419 -9.0483e+001 -3.6814e+002 -3.1401e+001 23856 112203,112151,112393
 2.6000e+000 112442 -1.0329e+002 -3.5160e+002 -2.8211e+001 23856 112203,112393,112229
 2.6000e+000 112491 -1.1936e+002 -3.7009e+002 -2.1388e+001 23856 112229,112393,112465
 2.6000e+000 112514 -1.1998e+002 -3.4284e+002  7.3339e+000 23856 112229,112465,112073
 2.6000e+000 112784 -2.3191e+001 -2.9575e+002  3.5104e+001 23494 112611,112663,112637
 2.6000e+000 112761 -4.5201e+001 -2.5553e+002  3.0473e+001 23494 112585,112663,112611
 2.6000e+000 112738 -7.3399e+001 -2.6777e+002  2.3677e+001 23494 112559,112663,112585
 2.6000e+000 112715 -1.5957e+001 -1.6866e+002 -4.0564e+000 23494 112559,112689,112663
 2.6000e+000 113117 -3.0766e+001 -1.2439e+002 -1.7700e+001 22974 112944,113022,112996
 2.6000e+000 113094 -5.9444e+001 -1.6568e+002 -4.2324e-001 22974 112918,113022,112944
 2.6000e+000 113071 -3.1180e+001 -1.6182e+002 -5.4004e+001 22974 112944,112996,112970
 2.6000e+000 113048 -3.1257e+001 -1.2576e+002  2.1743e+001 22974 112892,113022,112918
 2.6000e+000 113414 -4.5926e+000 -2.7121e+002  1.4267e+001 22370 113192,113296,113218
 2.6000e+000 113391 -5.1521e+001 -2.7218e+002  4.8930e+000 22370 113140,113296,113192
 2.6000e+000 113368 -1.7106e+001 -3.0234e+002  3.5965e+000 22370 113218,113296,113270
 2.6000e+000 113345 -5.0122e+001 -3.0061e+002 -2.9921e+001 22370 113218,113270,113244
 2.6000e+000 113322 -4.0478e+001 -2.5335e+002 -3.5579e+000 22370 113140,113192,113166
 2.6000e+000 113662 -3.1738e+001 -1.8920e+002  3.7130e+001 21916 113685,113515,113489
 2.6000e+000 113639 -7.7726e+001 -2.9054e+002  1.0864e+001 21916 113685,113489,113437
 2.6000e+000 113616 -5.7031e+000 -2.9133e+002  1.1094e+001 21916 113757,113567,113541
 2.6000e+000 113593 -5.0240e+001 -2.2824e+002  1.6949e+001 21916 113437,113489,113463
 2.6000e+000 113711 -8.2060e+001 -3.1179e+002  3.4981e+001 21916 113541,113515,113685
 2.6000e+000 113734 -4.4177e+001 -3.0130e+002  1.3577e+001 21916 113757,113541,113685
 2.6000e+000 113783 -5.5338e+001 -2.9904e+002  7.2144e+000 21916 113437,113567,113757
 2.6000e+000 113806 -6.6266e+001 -2.9103e+002  3.8932e+000 21916 113437,113757,113685
 2.6000e+000 114056 -3.1998e+001 -3.2510e+002 -3.9120e+000 21412 113857,113909,113883
 2.6000e+000 114033 -6.1074e+000 -2.5084e+002 -6.2367e+000 21412 114079,113909,113857
 2.6000e+000 114010 -7.0486e+001 -2.7391e+002 -8.7747e+000 21412 114079,113857,113961
 2.6000e+000 113987 -7.5356e+001 -2.8046e+002 -1.1629e+001 21412 113831,113961,113857
 2.6000e+000 114105 -5.7356e+001 -2.4254e+002 -3.4655e+001 21412 113935,113909,114079
 2.6000e+000 114128 -1.0105e+002 -2.5164e+002 -3.5957e+001 21412 113935,114079,113961
 2.6000e+000 114378 -9.8290e+001 -2.7046e+002 -7.5957e+001 21022 114401,114257,114205
 2.6000e+000 114355 -1.2298e+002 -3.4226e+002 -7.0465e+001 21022 114401,114205,114179
 2.6000e+000 114332 -2.0204e+001 -3.9564e+002 -3.2509e+001 21022 114153,114283,114179
 2.6000e+000 114309 -1.0617e+002 -1.9190e+002 -4.3712e+001 21022 114205,114257,114231
 2.6000e+000 114427 -9.0491e+001 -2.9830e+002 -1.4115e+001 21022 114283,114257,114401
 2.6000e+000 114450 -1.0935e+002 -3.6364e+002 -1.0292e+001 21022 114283,114401,114179
 2.6000e+000 114651 -1.5627e+002 -3.4000e+002 -1.9593e+001 20618 114501,114553,114527
 2.6000e+000 114628 -1.4253e+002 -3.3452e+002 -1.9804e+001 20618 114501,114579,114553
 2.6000e+000 114605 -1.1368e+002 -2.8650e+002 -2.1162e+000 20618 114475,114579,114501
 2.6000e+000 114901  3.8963e+001 -2.8797e+002  1.9045e+001 20114 114676,114780,114702
 2.6000e+000 114878 -1.0088e+001 -2.9776e+002  8.7733e+000 20114 114676,114806,114780
 2.6000e+000 114855  9.2085e+001 -3.2063e+002  8.6393e+000 20114 114702,114780,114754
 2.6000e+000 114832  3.8598e+002 -2.9535e+002  7.5992e+001 20114 114702,114754,114728
 2.6000e+000 115053 -5.6344e+001 -3.0211e+002 -1.3582e+001 19460 115147,115076,114926
 2.6000e+000 115030 -3.7679e+001 -2.9698e+002 -1.6740e+001 19460 115147,114926,115004
 2.6000e+000 115102 -9.2694e+001 -3.1904e+002  1.3518e+001 19460 114952,114926,115076
 2.6000e+000 115173 -2.3410e+001 -3.3835e+002  2.2240e+000 19460 114978,115076,115147
 2.6000e+000 115196  1.2440e+001 -3.1991e+002 -6.7616e+000 19460 114978,115147,115004
 2.6000e+000 115446 -9.4397e+001 -3.7310e+002 -2.7157e+000 19006 115273,115351,115299
 2.6000e+000 115423 -1.2722e+001 -3.3770e+002  1.2345e+001 19006 115247,115351,115273
 2.6000e+000 115400 -1.8246e+001 -3.4122e+002  3.7091e+000 19006 115221,115351,115247
 2.6000e+000 115377 -1.0362e+002 -3.8637e+002  1.9348e+000 19006 115299,115351,115325
 2.6000e+000 115767 -1.4312e+002 -3.4168e+002  7.4920e+000 18716 115571,115649,115623
 2.6000e+000 115744 -1.4767e+002 -3.5838e+002  8.5248e+000 18716 115493,115649,115571
 2.6000e+000 115721 -1.4203e+002 -3.5082e+002  6.0094e+000 18716 115493,115571,115545
 2.6000e+000 115698 -1.1104e+002 -3.1903e+002  4.8616e+001 18716 115493,115545,115519
 2.6000e+000 115675 -1.1606e+002 -3.3389e+002  2.2947e-001 18716 115571,115623,115597
 2.6000e+000 116039 -7.1210e+001 -2.7144e+002  9.0717e+000 18312 115814,115892,115840
 2.6000e+000 116016 -6.2213e+001 -2.4932e+002  7.2982e+000 18312 115814,115944,115892
 2.6000e+000 115993 -7.2912e+001 -2.6025e+002  2.9513e+000 18312 115892,115944,115918
 2.6000e+000 115970 -1.6919e+001 -2.6294e+002  2.4234e+001 18312 115840,115892,115866
 2.6000e+000 116191 -3.7988e+001 -4.0785e+002 -8.8535e-001 18000 116090,116142,116116
 2.6000e+000 116168 -1.6525e+001 -3.9313e+002  1.1466e+001 18000 116064,116142,116090
 2.6000e+000 116343 -2.0654e+002 -4.4315e+002 -1.2057e+001 17396 116242,116294,116268
 2.6000e+000 116320 -1.9107e+002 -4.3902e+002 -1.0406e+001 17396 116216,116294,116242
 2.6000e+000 116566 -1.2879e+002 -4.4330e+002  2.2397e+001 16942 116390,116468,116442
 2.6000e+000 116543 -8.5560e+001 -4.6364e+002  2.2917e+001 16942 116390,116494,116468
 2.6000e+000 116520 -1.5015e+002 -4.9336e+002  9.5391e+000 16942 116390,116442,116416
 2.6000e+000 116767  2.0938e+000 -2.8639e+002 -1.1308e+001 16438 116790,116643,116617
 2.6000e+000 116744 -3.1827e+001 -2.5165e+002 -1.1027e+001 16438 116790,116617,116591
 2.6000e+000 116721  2.6537e+001 -2.3714e+002 -3.6908e+001 16438 116643,116695,116669
 2.6000e+000 116816  6.6083e+000 -2.5994e+002 -2.2983e+001 16438 116695,116643,116790
 2.6000e+000 116839 -5.4433e+000 -2.2177e+002 -3.5263e+001 16438 116695,116790,116591
 2.6000e+000 117062 -2.4946e+001 -3.5992e+002 -1.7604e+000 16074 116886,116938,116912
 2.6000e+000 117039 -3.7340e+001 -3.8154e+002  2.1424e+001 16074 116886,116990,116938
 2.6000e+000 117016 -1.7301e+000 -2.9709e+002  3.5617e+001 16074 116938,116990,116964
 2.6000e+000 117214 -4.4118e+001 -3.5428e+002 -2.3378e+000 15649 117087,117139,117113
 2.6000e+000 117191  2.2789e+001 -3.2653e+002 -2.6745e+000 15649 117087,117165,117139
 2.6000e+000 117317 -1.7423e+002 -3.6944e+002 -3.6076e+001 421 117239,117291,117265
 2.7000e+000 70632 -2.7304e+002 -5.8681e+002 -2.4612e+001 70072 70482,70534,70508
 2.7000e+000 70609 -2.5097e+002 -5.3646e+002 -1.8940e+001 70072 70482,70560,70534
 2.7000e+000 70586 -2.5347e+002 -5.4282e+002 -8.1621e+000 70072 70456,70560,70482
 2.7000e+000 70951 -2.3608e+002 -8.0895e+002  0.0000e+000 69874 70703,70755,70729
 2.7000e+000 70928 -8.8602e+001 -7.6047e+002 -1.4517e+002 69874 70703,70781,70755
 2.7000e+000 70905  6.1197e+001 -1.8884e+002 -7.3341e+001 69874 70703,70807,70781
 2.7000e+000 70882 -1.2413e+002 -6.4213e+002 -3.1180e+001 69874 70703,70833,70807
 2.7000e+000 70859 -9.4715e+001 -6.5244e+002  2.6220e+001 69874 70677,70833,70703
 2.7000e+000 71199 -7.6522e+001 -3.5485e+002  3.1643e+001 69698 71222,71052,71026
 2.7000e+000 71176 -8.8947e+001 -3.0621e+002  3.5158e+001 69698 71294,71222,71026
 2.7000e+000 71153 -1.0892e+002 -2.7189e+002 -7.1978e+001 69698 71294,71026,71000
 2.7000e+000 71130 -1.2927e+002 -2.8812e+002  3.6821e+001 69698 71366,71104,71078
 2.7000e+000 71248 -3.3859e+001 -2.5837e+002  2.2259e+001 69698 71078,71052,71222
 2.7000e+000 71271 -5.7460e+001 -2.6274e+002  3.1116e+001 69698 71366,71078,71222
 2.7000e+000 71320  8.6155e+001 -2.1230e+002 -4.4251e+000 69698 70974,71222,71294
 2.7000e+000 71343  9.6265e+001 -1.8565e+002 -1.0056e+002 69698 70974,71294,71000
 2.7000e+000 71392 -3.4511e+001 -2.8090e+002  4.9523e+001 69698 70974,71104,71366
 2.7000e+000 71415 -1.9431e+001 -2.9232e+002  5.3880e+001 69698 70974,71366,71222
 2.7000e+000 71516 -6.5279e+001 -4.6723e+002 -8.5630e+001 69386 71438,71490,71464
 2.7000e+000 71869 -3.8069e+001 -2.5917e+002  2.0192e+001 69188 71644,71748,71670
 2.7000e+000 71846  5.2754e+001 -2.3539e+002  6.6090e+001 69188 71644,71774,71748
 2.7000e+000 71823  2.5023e+001 -1.2227e+002  9.1144e-001 69188 71670,71748,71722
 2.7000e+000 71800 -1.0193e+002 -4.3244e+002 -4.7309e+001 69188 71670,71722,71696
 2.7000e+000 72019 -2.0070e+002 -5.0654e+002 -7.4463e+000 68990 71918,71970,71944
 2.7000e+000 71996 -1.8080e+002 -5.5910e+002  1.5217e+001 68990 71892,71970,71918
 2.7000e+000 72316  5.4120e+001 -5.4949e+001 -2.6438e+001 68586 72339,72172,72146
 2.7000e+000 72293  2.2500e+001 -9.1866e+001 -9.8381e+000 68586 72339,72146,72120
 2.7000e+000 72270  9.6208e+000 -3.6890e+001 -1.2381e+001 68586 72411,72068,72198
 2.7000e+000 72247 -4.1099e+000 -4.7359e+000  4.5679e+000 68586 72042,72198,72068
 2.7000e+000 72224 -3.0271e+001 -1.1083e+002  2.1225e+000 68586 72068,72120,72094
 2.7000e+000 72365  1.7534e+001 -6.4926e+001 -1.6296e+001 68586 72198,72172,72339
 2.7000e+000 72388  2.3418e+001 -5.0882e+001 -6.6364e+000 68586 72411,72198,72339
 2.7000e+000 72437 -4.5642e+000 -5.0506e+001  2.5084e-001 68586 72120,72068,72411
 2.7000e+000 72460  7.3241e+000 -7.0163e+001  5.4328e+000 68586 72120,72411,72339
 2.7000e+000 72864  2.3767e+001 -1.9702e+002  3.6286e-001 68388 72642,72694,72668
 2.7000e+000 72841 -1.0156e+001 -2.6852e+002  1.0589e+001 68388 72616,72694,72642
 2.7000e+000 72818  2.2620e+001 -1.9698e+002  1.9377e+001 68388 72616,72720,72694
 2.7000e+000 72795 -3.1211e+001 -3.3104e+002  3.9311e+001 68388 72590,72720,72616
 2.7000e+000 72772  7.3677e+001 -2.3153e+002  1.1002e+002 68388 72590,72746,72720
 2.7000e+000 73321 -3.2880e+001 -7.7005e+001  8.6524e+000 68048 73073,73203,73177
 2.7000e+000 73298 -4.6963e+001 -8.2934e+001  8.5175e+000 68048 73047,73203,73073
 2.7000e+000 73275  9.7970e+000 -1.3698e+002 -1.2642e-001 68048 73125,73177,73151
 2.7000e+000 73252 -1.1415e+001 -1.3702e+002  1.0537e+001 68048 73073,73177,73125
 2.7000e+000 73229 -1.6177e+001 -1.3963e+002  8.3672e+000 68048 73073,73125,73099
 2.7000e+000 73640 -3.7434e+001 -3.1117e+002 -1.2478e+001 67850 73444,73496,73470
 2.7000e+000 73617 -3.4451e+001 -2.9804e+002 -1.6156e+001 67850 73418,73496,73444
 2.7000e+000 73594 -3.6846e+001 -2.9484e+002 -8.9351e-001 67850 73392,73496,73418
 2.7000e+000 73571 -9.0450e+001 -3.3656e+002 -2.2153e+001 67850 73392,73522,73496
 2.7000e+000 73548 -1.6506e+002 -4.5747e+002  2.4026e+001 67850 73366,73522,73392
 2.7000e+000 73790 -4.0476e+001 -1.9638e+002 -3.8218e+000 67602 73689,73741,73715
 2.7000e+000 73767 -3.3089e+000 -1.2383e+002  1.1119e+001 67602 73663,73741,73689
 2.7000e+000 74040 -2.2715e+001 -2.0674e+002 -2.1796e+001 67290 73841,73945,73919
 2.7000e+000 74017  9.2003e+001 -1.7785e+002 -6.1390e+001 67290 73815,73945,73841
 2.7000e+000 73994  3.1461e+000 -9.4506e+001 -2.8496e+001 67290 73841,73919,73867
 2.7000e+000 73971 -4.1895e-001 -1.1595e+002 -3.8954e+000 67290 73867,73919,73893
 2.7000e+000 74143 -2.6151e+001 -5.3089e+001 -1.8324e+000 67092 74065,74117,74091
 2.7000e+000 74415 -9.1508e+001 -4.8338e+002 -9.8267e+001 66894 74190,74294,74216
 2.7000e+000 74392 -3.4798e+001 -4.4753e+002 -3.7779e+001 66894 74190,74320,74294
 2.7000e+000 74369  5.1339e+000 -2.4900e+002 -8.0876e+001 66894 74216,74294,74242
 2.7000e+000 74346 -6.5761e+001 -3.8950e+002 -5.0416e+001 66894 74242,74294,74268
 2.7000e+000 75023  4.8876e+002 -1.4814e+002 -1.3395e+002 66532 74654,74836,74810
 2.7000e+000 75000 -1.1507e+002 -1.7165e+002 -1.4591e+002 66532 74628,74836,74654
 2.7000e+000 74977  1.8833e+001 -8.6505e+001 -2.8513e+000 66532 74706,74784,74732
 2.7000e+000 74954  2.0931e+001 -1.1211e+002  3.5609e+000 66532 74680,74784,74706
 2.7000e+000 74931  2.0913e+002 -6.3870e+001  2.2822e+001 66532 74680,74810,74784
 2.7000e+000 74908  6.1237e+000 -1.6646e+002 -1.2058e+002 66532 74654,74810,74680
 2.7000e+000 74885 -1.6937e+002 -2.4818e+002 -1.8289e+002 66532 74602,74836,74628
 2.7000e+000 74862 -2.9389e+001 -6.4712e+001  2.3111e+001 66532 74732,74784,74758
 2.7000e+000 75222 -2.9061e+000 -2.8453e+002 -5.6930e+000 66242 75072,75150,75124
 2.7000e+000 75199 -2.4553e+001 -2.6379e+002 -7.7098e-002 66242 75046,75150,75072
 2.7000e+000 75176  1.2136e+001 -2.1825e+002 -6.3342e+000 66242 75072,75124,75098
 2.7000e+000 75470 -4.5793e+001 -1.5407e+002 -4.6727e+001 65838 75297,75375,75349
 2.7000e+000 75447  1.4852e+001 -1.8830e+002 -1.8913e+001 65838 75271,75375,75297
 2.7000e+000 75424 -1.7193e+001 -1.2929e+002 -3.1637e+001 65838 75297,75349,75323
 2.7000e+000 75401 -1.5573e+001 -1.8702e+002  1.7904e+001 65838 75245,75375,75271
 2.7000e+000 75671 -3.6613e+001 -1.2036e+002 -5.4794e+001 65640 75495,75573,75521
 2.7000e+000 75648 -1.0701e+001 -1.2661e+002 -2.1287e+001 65640 75495,75599,75573
 2.7000e+000 75625 -4.2096e+001 -1.5602e+002 -7.7752e+001 65640 75521,75573,75547
 2.7000e+000 75872 -4.7834e+001 -8.3704e+001 -4.8413e+001 65300 75895,75748,75722
 2.7000e+000 75849  7.9883e+000 -1.5413e+002 -9.2430e+001 65300 75895,75722,75696
 2.7000e+000 75826 -6.3800e+001 -1.4396e+002 -9.4760e+001 65300 75967,75774,75748
 2.7000e+000 75921 -5.0010e+001 -1.3428e+002 -6.3100e+001 65300 75967,75748,75895
 2.7000e+000 75944 -6.4915e+001 -2.7753e+002 -5.8461e+001 65300 75800,75895,75696
 2.7000e+000 75993 -1.1988e+002 -1.3100e+002 -9.2957e+001 65300 75800,75774,75967
 2.7000e+000 76016 -1.1540e+002 -1.4060e+002 -6.9280e+001 65300 75800,75967,75895
 2.7000e+000 76371 -4.0434e+001 -1.1944e+002 -2.6846e+000 64896 76146,76250,76172
 2.7000e+000 76348 -3.0432e+001 -1.1161e+002 -1.4819e+001 64896 76146,76276,76250
 2.7000e+000 76325 -4.8647e+001 -1.0531e+002  1.6660e-001 64896 76172,76250,76198
 2.7000e+000 76302  7.4059e+000 -7.6357e+001  1.0720e+001 64896 76198,76250,76224
 2.7000e+000 76570 -2.5457e+001 -1.4480e+002 -4.7536e+001 64442 76446,76498,76472
 2.7000e+000 76547 -2.3375e+001 -1.0200e+002 -2.0175e+001 64442 76420,76498,76446
 2.7000e+000 76524 -2.6659e+001 -1.5163e+002 -9.6316e+000 64442 76394,76498,76420
 2.7000e+000 76999 -3.2755e+001 -2.4899e+002  1.3909e+001 63924 77022,76728,76702
 2.7000e+000 76976 -5.2072e+001 -1.8441e+002 -5.4595e+001 63924 77022,76702,76832
 2.7000e+000 76953  2.5344e+000 -2.7375e+002  7.4170e+001 63924 76728,76806,76754
 2.7000e+000 76930 -7.4751e+001 -1.2687e+002  4.3771e+001 63924 76676,76832,76702
 2.7000e+000 76907 -7.3964e+001 -3.3483e+002  4.6994e+001 63924 76754,76806,76780
 2.7000e+000 76884 -1.0862e+001 -1.4998e+002  2.4813e+001 63924 76676,76858,76832
 2.7000e+000 77048 -1.1676e+001 -3.3613e+002 -5.8509e+000 63924 76806,76728,77022
 2.7000e+000 77071 -4.3217e+001 -2.8651e+002 -7.6584e+001 63924 76806,77022,76832
 2.7000e+000 77449 -2.8970e+001 -1.4459e+002  3.1087e+001 63320 77472,77253,77201
 2.7000e+000 77426 -5.0058e+001 -1.6899e+002  1.3772e+001 63320 77472,77201,77175
 2.7000e+000 77403 -3.0393e+001 -1.7099e+002 -1.8070e+001 63320 77175,77305,77279
 2.7000e+000 77380 -8.4196e+000 -7.8970e+001 -2.4172e+001 63320 77201,77253,77227
 2.7000e+000 77357 -1.8807e+000 -1.6013e+002 -1.4970e+001 63320 77175,77331,77305
 2.7000e+000 77498 -7.0695e+000 -1.8142e+002  1.0861e+001 63320 77279,77253,77472
 2.7000e+000 77521 -3.6913e+001 -1.9648e+002 -9.5103e+000 63320 77279,77472,77175
 2.7000e+000 77769 -7.9412e+001 -3.0967e+002  3.1450e+001 62816 77570,77622,77596
 2.7000e+000 77746 -1.3301e+002 -2.7680e+002  5.9433e+001 62816 77570,77648,77622
 2.7000e+000 77723 -1.8795e+001 -2.0655e+002 -1.2498e+001 62816 77570,77674,77648
 2.7000e+000 77700 -4.8313e+001 -1.4375e+002  2.6614e+001 62816 77544,77674,77570
 2.7000e+000 78149 -4.8249e+001 -1.8066e+002 -8.8089e+000 62354 77953,78031,78005
 2.7000e+000 78126 -7.5599e+001 -2.1609e+002 -2.0818e+001 62354 77901,78031,77953
 2.7000e+000 78103 -2.9872e+001 -1.9387e+002  1.8082e+001 62354 77875,78031,77901
 2.7000e+000 78080 -6.6690e+000 -2.4250e+002 -8.3487e+001 62354 77901,77953,77927
 2.7000e+000 78057 -6.4305e+001 -1.5914e+002 -2.5903e+001 62354 77953,78005,77979
 2.7000e+000 78606  3.3552e+001 -9.1178e+001  5.7593e+001 61950 78384,78436,78410
 2.7000e+000 78583  3.7752e+001 -1.5335e+002 -3.3563e+001 61950 78358,78436,78384
 2.7000e+000 78560  6.9023e-001 -1.1712e+002 -5.3656e+001 61950 78358,78488,78436
 2.7000e+000 78537 -2.5652e+001 -2.4154e+002 -6.6502e+001 61950 78436,78488,78462
 2.7000e+000 78514 -1.1828e+001 -8.4450e+001 -3.5721e+001 61950 78332,78488,78358
 2.7000e+000 78756  2.7706e+001 -2.2300e+002 -1.8272e+001 61339 78779,78655,78629
 2.7000e+000 78733  1.0877e+001 -2.4366e+002 -1.1005e+001 61339 78779,78629,78707
 2.7000e+000 78805 -2.1300e+001 -3.0273e+002  2.0226e+001 61339 78851,78779,78681
 2.7000e+000 78828  4.7565e+001 -2.4542e+002 -9.6363e+000 61339 78681,78779,78707
 2.7000e+000 78877  2.8394e+001 -1.8027e+002 -3.0570e+000 61339 78655,78779,78851
 2.7000e+000 79206 -3.6625e+001 -1.2001e+002 -3.6247e+001 60892 79229,79007,78981
 2.7000e+000 79183 -1.7500e+001 -3.1186e+001  8.8031e+000 60892 79229,78981,79111
 2.7000e+000 79160 -2.4643e+001 -1.6131e+002 -3.6569e+001 60892 79301,79033,79007
 2.7000e+000 79137 -3.9022e+001 -1.1274e+002  6.5356e+001 60892 79033,79085,79059
 2.7000e+000 79255 -3.9877e+001 -1.2604e+002 -6.4472e+001 60892 79301,79007,79229
 2.7000e+000 79278 -4.9369e+001 -1.0502e+002 -4.3443e+001 60892 79085,79229,79111
 2.7000e+000 79327 -7.2915e+001 -2.5260e+002 -4.1464e+000 60892 79085,79033,79301
 2.7000e+000 79350 -3.9458e+001 -1.8760e+002 -4.8690e+001 60892 79085,79301,79229
 2.7000e+000 79647 -1.5953e+002 -3.6820e+002 -3.5448e+001 60488 79451,79529,79503
 2.7000e+000 79624 -1.1199e+002 -2.7812e+002 -6.1889e+001 60488 79425,79529,79451
 2.7000e+000 79601 -1.0506e+002 -2.8754e+002 -6.5422e+001 60488 79373,79529,79425
 2.7000e+000 79578 -7.6006e+001 -3.3469e+002 -3.0607e+001 60488 79373,79425,79399
 2.7000e+000 79555 -2.4443e+001 -2.5315e+002  1.4549e+001 60488 79451,79503,79477
 2.7000e+000 79870 -6.2433e+001 -2.2309e+002  1.1322e+001 60026 79720,79798,79772
 2.7000e+000 79847  5.1992e+001 -2.3531e+002  1.3252e+000 60026 79694,79798,79720
 2.7000e+000 79824  5.4473e+001 -1.8605e+002 -1.9420e+001 60026 79720,79772,79746
 2.7000e+000 80120 -7.4681e+001 -1.7707e+002 -7.4055e+000 59629 79921,80025,79973
 2.7000e+000 80097 -7.1456e+001 -1.1172e+002  3.0783e+001 59629 79895,80025,79921
 2.7000e+000 80074 -4.9748e+001 -1.2569e+002 -1.9223e+001 59629 79973,80025,79999
 2.7000e+000 80051 -5.3100e+001 -1.4787e+002 -1.8380e+001 59629 79921,79973,79947
 2.7000e+000 80321  5.9167e+001 -2.0994e+002 -8.6849e+000 59125 80344,80171,80145
 2.7000e+000 80298  2.4119e+001 -2.4476e+002  8.6561e+000 59125 80344,80145,80249
 2.7000e+000 80275 -1.9007e+001 -1.5228e+002  2.1685e+001 59125 80197,80249,80223
 2.7000e+000 80370  1.3177e+001 -1.9087e+002  2.2937e+001 59125 80197,80171,80344
 2.7000e+000 80393 -1.8519e+001 -2.2075e+002  3.9072e+001 59125 80197,80344,80249
 2.7000e+000 80952 -1.7596e+001 -3.0073e+002  6.1313e+001 58557 80975,80632,80606
 2.7000e+000 80929 -1.3633e+001 -7.6876e+001  6.5218e-001 58557 81119,80975,80606
 2.7000e+000 80906 -7.4917e+001 -2.8099e+002 -5.7047e+001 58557 81047,80684,80632
 2.7000e+000 80883 -1.9309e+001 -8.8107e+001 -5.0364e+001 58557 81119,80606,80580
 2.7000e+000 80860 -1.8907e+001 -4.4580e+002  1.4579e+001 58557 81191,80736,80710
 2.7000e+000 80837 -4.3159e+001 -3.2920e+002 -4.1860e+001 58557 80736,80788,80762
 2.7000e+000 80814 -5.7124e+001 -1.4701e+002 -6.2696e+001 58557 80632,80684,80658
 2.7000e+000 81001 -1.7529e+001 -3.3148e+002 -1.7140e+001 58557 81047,80632,80975
 2.7000e+000 81024  2.8214e+001 -2.9713e+002  2.0324e+001 58557 81191,80710,80975
 2.7000e+000 81073 -2.3647e+001 -2.1023e+002 -2.7655e+001 58557 80710,80684,81047
 2.7000e+000 81096  4.7918e+001 -2.6019e+002  1.2904e+001 58557 80710,81047,80975
 2.7000e+000 81145 -4.3806e+001 -1.4500e+002 -5.1928e+000 58557 80788,80975,81119
 2.7000e+000 81168 -3.8127e+001 -1.4145e+002 -4.9675e+001 58557 80788,81119,80580
 2.7000e+000 81217 -3.2523e+001 -3.0350e+002 -4.1793e+001 58557 80788,80736,81191
 2.7000e+000 81240 -3.2472e+001 -2.4062e+002 -5.3219e+001 58557 80788,81191,80975
 2.7000e+000 81537 -9.5787e+000 -2.4517e+002  3.0140e+000 57881 81560,81341,81289
 2.7000e+000 81514 -7.5442e+001 -2.7426e+002  3.5247e+001 57881 81560,81289,81263
 2.7000e+000 81491 -8.6201e+001 -2.2354e+002 -1.5458e+001 57881 81632,81419,81367
 2.7000e+000 81468 -8.2383e+001 -2.2467e+002 -4.4605e+001 57881 81367,81419,81393
 2.7000e+000 81445  1.6366e+000 -2.2846e+002 -2.3300e+000 57881 81289,81341,81315
 2.7000e+000 81586 -2.3234e+001 -1.8827e+002 -5.2524e+001 57881 81367,81341,81560
 2.7000e+000 81609 -7.6321e+001 -2.4941e+002 -2.6872e+001 57881 81632,81367,81560
 2.7000e+000 81658 -6.2413e+001 -1.8429e+002 -5.0620e+000 57881 81263,81419,81632
 2.7000e+000 81681 -5.2896e+001 -2.1749e+002 -1.5431e+001 57881 81263,81632,81560
 2.7000e+000 81929 -7.1177e+001 -1.9465e+002  1.5033e+000 57477 81704,81808,81782
 2.7000e+000 81906 -2.7825e+001 -2.5826e+002  2.8496e+001 57477 81704,81834,81808
 2.7000e+000 81883 -9.1399e+001 -2.2121e+002  1.3880e+001 57477 81704,81782,81730
 2.7000e+000 81860 -4.8470e+001 -2.1229e+002  7.7615e+000 57477 81730,81782,81756
 2.7000e+000 82488  6.4815e+000 -2.5427e+002 -1.3044e+001 56966 82583,82511,82194
 2.7000e+000 82465  5.0452e-001 -2.3901e+002  1.9362e+001 56966 82511,82116,82324
 2.7000e+000 82442  8.9747e+000 -2.7833e+002 -6.5711e+000 56966 82583,82194,82168
 2.7000e+000 82419 -3.6734e+000 -2.4737e+002  3.7737e+001 56966 82194,82246,82220
 2.7000e+000 82396 -4.0616e+001 -2.8704e+002 -2.0457e+001 56966 82194,82298,82246
 2.7000e+000 82373 -2.5749e+001 -2.2741e+002 -1.5807e+001 56966 82246,82298,82272
 2.7000e+000 82350 -7.3995e-001 -3.6972e+002 -3.2915e+001 56966 82116,82168,82142
 2.7000e+000 82537  2.7290e+000 -2.3056e+002  2.1589e+000 56966 82298,82194,82511
 2.7000e+000 82560  6.1735e+001 -1.3537e+002  5.2250e+001 56966 82298,82511,82324
 2.7000e+000 82609  6.3165e+000 -2.2785e+002 -1.2934e+001 56966 82116,82511,82583
 2.7000e+000 82632  1.3013e+001 -2.4743e+002 -8.6665e+000 56966 82116,82583,82168
 2.7000e+000 83236  3.6149e-002 -1.4198e+002 -3.5470e+001 56304 82893,82945,82919
 2.7000e+000 83213 -2.2102e+001 -1.9598e+002  3.5036e+001 56304 83259,82945,82893
 2.7000e+000 83190 -1.4145e+001 -2.1990e+002  2.2185e+001 56304 83259,82893,83049
 2.7000e+000 83167 -4.5564e+001 -2.2289e+002  2.1240e+001 56304 82971,83049,83023
 2.7000e+000 83144 -2.9232e+001 -2.4549e+002  1.4010e+001 56304 82815,83049,82893
 2.7000e+000 83121 -5.3074e+001 -3.3402e+002  1.4974e+001 56304 82815,82893,82867
 2.7000e+000 83098 -5.8233e+001 -3.3953e+002  1.7268e+001 56304 82971,83023,82997
 2.7000e+000 83075 -8.9545e+001 -2.8826e+002 -3.0211e+001 56304 82815,82867,82841
 2.7000e+000 83285 -4.2676e+001 -2.3067e+002  4.3564e+001 56304 82971,82945,83259
 2.7000e+000 83308 -2.0923e+001 -2.2951e+002  2.5277e+001 56304 82971,83259,83049
 2.7000e+000 83556 -1.3695e+002 -3.6505e+002 -2.7261e+001 55964 83357,83461,83435
 2.7000e+000 83533 -1.2440e+002 -2.5287e+002  2.4955e+001 55964 83331,83461,83357
 2.7000e+000 83510 -5.5957e+001 -4.0857e+002  3.6861e+001 55964 83357,83435,83383
 2.7000e+000 83487 -7.0441e+001 -4.6974e+002  1.0239e+001 55964 83383,83435,83409
 2.7000e+000 83706  2.0573e+001 -1.7820e+002  1.5934e+001 55503 83579,83631,83605
 2.7000e+000 83683 -8.5434e+000 -2.2337e+002  3.1524e+001 55503 83579,83657,83631
 2.7000e+000 83907 -2.4466e+001 -2.2736e+002  3.2659e+001 55156 83757,83835,83809
 2.7000e+000 83884 -4.4877e+000 -1.6684e+002  5.8338e+001 55156 83731,83835,83757
 2.7000e+000 83861 -2.3604e+001 -1.0737e+002  6.3939e+001 55156 83757,83809,83783
 2.7000e+000 84240 -4.5950e+001 -2.7846e+002  7.3885e+000 54652 84093,84145,84119
 2.7000e+000 84217 -3.1078e+000 -1.7178e+002 -1.0450e+001 54652 84041,84145,84093
 2.7000e+000 84194 -2.5232e-001 -2.7952e+002  3.9485e+001 54652 84015,84145,84041
 2.7000e+000 84171  3.4136e+001 -1.4067e+002  4.1956e+001 54652 84041,84093,84067
 2.7000e+000 84618 -9.3628e+001 -3.0874e+002  3.3436e+001 53926 84396,84500,84474
 2.7000e+000 84595 -1.5401e+002 -4.1969e+002  8.2897e+000 53926 84344,84500,84396
 2.7000e+000 84572 -1.1795e+002 -3.3629e+002  3.9620e+000 53926 84344,84396,84370
 2.7000e+000 84549 -7.6136e+001 -2.9174e+002  7.8736e+000 53926 84396,84474,84422
 2.7000e+000 84526 -1.1244e+002 -2.1735e+002  1.0099e+001 53926 84422,84474,84448
 2.7000e+000 85350 -1.0578e+002 -3.5708e+002 -7.2171e+001 53586 85373,84880,85088
 2.7000e+000 85327 -1.1266e+002 -3.5416e+002 -7.4213e+001 53586 84880,85114,85088
 2.7000e+000 85304 -6.1418e+001 -2.9948e+002  1.8898e+001 53586 85373,85088,85062
 2.7000e+000 85281 -7.6927e+001 -1.8251e+002 -6.3691e+001 53586 85010,85062,85036
 2.7000e+000 85258 -7.7937e+001 -2.0113e+002 -2.6772e+001 53586 85445,85010,84958
 2.7000e+000 85235 -3.6666e+001 -1.5878e+002  2.8406e+001 53586 85445,84958,84906
 2.7000e+000 85212 -3.7599e+001 -2.0717e+002 -3.9784e+001 53586 84958,85010,84984
 2.7000e+000 85189 -3.5251e+001 -3.3957e+002  5.1068e+001 53586 84906,84958,84932
 2.7000e+000 85166 -5.7584e+001 -2.4458e+002 -1.3478e+002 53586 84880,85140,85114
 2.7000e+000 85399 -7.5538e+001 -2.2181e+002 -1.8660e+001 53586 84906,84880,85373
 2.7000e+000 85422 -4.5910e+001 -1.9285e+002  4.6011e+001 53586 85517,85373,85062
 2.7000e+000 85471 -2.2633e+001 -7.2902e+001 -4.0693e+001 53586 85062,85010,85445
 2.7000e+000 85494 -5.8172e+001 -1.2965e+002  3.9458e+001 53586 85517,85062,85445
 2.7000e+000 85543 -5.3831e+001 -2.8805e+002  3.4852e+001 53586 84906,85373,85517
 2.7000e+000 85566 -6.8919e+001 -2.2949e+002  3.5823e+001 53586 84906,85517,85445
 2.7000e+000 86072 -1.2372e+001 -2.2551e+002 -2.3121e+001 53182 86095,85853,85775
 2.7000e+000 86049 -1.6259e+001 -1.6904e+002 -2.1748e+001 53182 86095,85775,85931
 2.7000e+000 86026 -5.3691e+000 -2.3216e+002  5.7178e+001 53182 86167,85879,85853
 2.7000e+000 86003 -1.4034e+001 -2.5419e+002 -3.6151e+001 53182 85775,85827,85801
 2.7000e+000 85980 -8.6372e+001 -3.3551e+002 -8.6634e+001 53182 85775,85853,85827
 2.7000e+000 85957 -6.1326e+000 -1.6662e+002 -1.6674e+001 53182 85749,85931,85775
 2.7000e+000 86121  2.0134e+001 -1.9095e+002 -7.7913e+000 53182 86167,85853,86095
 2.7000e+000 86144 -3.1518e+001 -2.3898e+002 -3.7575e+001 53182 85905,86095,85931
 2.7000e+000 86193 -1.8137e+001 -2.6931e+002  6.4012e+001 53182 85905,85879,86167
 2.7000e+000 86216 -3.0408e+001 -3.1457e+002 -2.0347e+000 53182 85905,86167,86095
 2.7000e+000 86673 -2.1700e+001 -2.0490e+002 -4.6423e+001 52778 86477,86529,86503
 2.7000e+000 86650 -4.5831e+001 -2.2801e+002 -2.5978e+001 52778 86425,86529,86477
 2.7000e+000 86627 -2.4053e+001 -1.9793e+002 -4.4779e+001 52778 86425,86477,86451
 2.7000e+000 86604 -1.0641e+002 -1.6742e+002 -2.7643e+001 52778 86399,86529,86425
 2.7000e+000 86581 -1.5409e+002 -2.1711e+002  2.9687e+001 52778 86399,86555,86529
 2.7000e+000 87258 -6.5610e+001 -4.4872e+002 -8.0830e+001 52238 87281,86987,86961
 2.7000e+000 87235 -2.5798e+001 -3.4237e+002  2.7224e+001 52238 87281,86961,87117
 2.7000e+000 87212 -4.6285e+001 -2.0067e+002  1.3912e+001 52238 86935,87117,86961
 2.7000e+000 87189  2.0635e+001 -2.1754e+002  3.6404e+001 52238 87065,87117,87091
 2.7000e+000 87166 -1.4242e+001 -1.8202e+002 -3.7114e+001 52238 86987,87065,87039
 2.7000e+000 87143 -6.9675e+001 -9.8916e+001 -1.1323e+002 52238 86987,87039,87013
 2.7000e+000 87307  1.5904e+001 -2.5740e+002 -5.7597e+001 52238 87065,86987,87281
 2.7000e+000 87330 -1.5454e+000 -2.7885e+002  5.0361e+001 52238 87065,87281,87117
 2.7000e+000 87610  2.1875e+001 -1.3607e+002  6.2920e+000 51834 87434,87512,87460
 2.7000e+000 87587 -1.4340e+000 -1.4026e+002  1.9074e+001 51834 87434,87538,87512
 2.7000e+000 87564 -4.0292e-001  4.2728e+000  1.4994e+000 51834 87633,87460,87512
 2.7000e+000 87659 -2.4490e+000  3.3923e+000  1.4095e+000 51834 87486,87460,87633
 2.7000e+000 88187 -8.1248e+001 -4.0005e+002 -5.0159e+001 51266 87864,87942,87890
 2.7000e+000 88164  2.0300e+001 -2.0602e+002 -9.2101e+000 51266 87864,88020,87942
 2.7000e+000 88141 -2.3291e+001 -2.2633e+002 -1.4518e+001 51266 87942,88020,87968
 2.7000e+000 88118 -3.1689e+001 -3.8776e+002 -1.1016e+001 51266 87864,88046,88020
 2.7000e+000 88095 -5.4253e+000 -1.7733e+002 -5.3863e+000 51266 87968,88020,87994
 2.7000e+000 88072 -3.0397e+001 -3.4316e+002 -7.7893e+001 51266 87890,87942,87916
 2.7000e+000 88644 -9.4219e+001 -1.2677e+002 -4.0828e+001 50754 88370,88500,88396
 2.7000e+000 88621 -1.0710e+002 -2.5189e+002 -1.0744e+001 50754 88370,88526,88500
 2.7000e+000 88598 -7.9465e+001 -2.1432e+002 -1.7975e+002 50754 88396,88500,88422
 2.7000e+000 88575 -9.6356e+001 -3.7637e+002 -1.3665e+002 50754 88422,88500,88474
 2.7000e+000 88552 -8.8481e+001 -2.6819e+002  1.1392e+002 50754 88422,88474,88448
 2.7000e+000 88914 -5.1204e+001 -3.0788e+002  1.7373e+001 50442 88715,88793,88741
 2.7000e+000 88891 -3.1251e+001 -3.2944e+002  1.6928e+001 50442 88715,88819,88793
 2.7000e+000 88868 -1.2441e+001 -3.4069e+002  1.2171e+001 50442 88689,88819,88715
 2.7000e+000 88845 -8.7472e+001 -3.0093e+002  6.3709e+001 50442 88741,88793,88767
 2.7000e+000 89294 -4.2656e+001 -3.3396e+002  2.3907e+001 49938 89317,89046,89020
 2.7000e+000 89271 -4.9437e+001 -3.3069e+002  2.7666e+001 49938 89317,89020,89150
 2.7000e+000 89248 -1.1568e+002 -3.4656e+002  8.1366e+000 49938 89072,89150,89098
 2.7000e+000 89225 -5.6597e+001 -3.8028e+002  8.4073e+001 49938 89020,89176,89150
 2.7000e+000 89202 -3.9777e+001 -2.8121e+002 -3.8357e+001 49938 89098,89150,89124
 2.7000e+000 89343 -6.5947e+001 -3.5294e+002  1.3196e+001 49938 89072,89046,89317
 2.7000e+000 89366 -5.3001e+001 -3.3222e+002  2.7198e+001 49938 89072,89317,89150
 2.7000e+000 89823 -9.8538e+000 -1.2324e+002 -4.1209e+000 49384 89601,89705,89679
 2.7000e+000 89800 -2.7273e+001 -1.1880e+002 -2.7953e+001 49384 89549,89705,89601
 2.7000e+000 89777 -2.6140e+001 -1.7066e+002 -2.2959e+001 49384 89549,89601,89575
 2.7000e+000 89754 -6.6225e+001 -1.0751e+002  4.1908e-001 49384 89601,89679,89627
 2.7000e+000 89731 -6.2612e+001 -1.2723e+002 -2.8017e+001 49384 89627,89679,89653
 2.7000e+000 90329  3.1034e+001 -2.2633e+002 -3.8183e+001 48894 90058,90110,90084
 2.7000e+000 90306 -6.8572e+001 -2.6991e+002 -6.1656e+001 48894 90058,90162,90110
 2.7000e+000 90283 -1.1411e+002 -2.8395e+002 -7.7219e+001 48894 90032,90162,90058
 2.7000e+000 90260 -9.7291e+001 -2.8530e+002 -5.3332e+001 48894 90006,90162,90032
 2.7000e+000 90237 -2.9097e+001 -3.5930e+002 -9.3670e+001 48894 90110,90162,90136
 2.7000e+000 90214 -4.9633e+001 -2.7869e+002 -3.5909e+001 48894 90006,90188,90162
 2.7000e+000 90884 -6.7682e+001 -2.8526e+002 -2.2751e+001 48490 90564,90642,90616
 2.7000e+000 90861 -1.0240e+002 -2.8947e+002 -2.3334e+001 48490 90564,90694,90642
 2.7000e+000 90838 -4.9657e+001 -2.6294e+002 -1.4280e+001 48490 90538,90694,90564
 2.7000e+000 90815 -4.7157e+001 -2.8818e+002 -2.0285e-001 48490 90538,90720,90694
 2.7000e+000 90792 -4.2774e+001 -2.3746e+002 -3.4738e+001 48490 90564,90616,90590
 2.7000e+000 90769 -1.0032e+002 -3.4824e+002 -9.7419e+001 48490 90642,90694,90668
 2.7000e+000 90746 -1.0200e+001 -2.4285e+002  5.2274e+001 48490 90512,90720,90538
 2.7000e+000 91034 -1.5320e+001 -2.4604e+002  3.5536e+001 48086 91057,90959,90933
 2.7000e+000 91011 -5.6265e+000 -1.9711e+002  2.3606e+001 48086 91129,91057,90933
 2.7000e+000 91083  3.2503e+001 -2.2916e+002  3.1869e+001 48086 90985,90959,91057
 2.7000e+000 91106 -2.1885e+001 -2.1965e+002  6.0119e+000 48086 90985,91057,90907
 2.7000e+000 91155 -9.0177e+001 -2.3407e+002  1.5407e+001 48086 90907,91057,91129
 2.7000e+000 91791 -2.5838e+001 -1.5964e+002  8.8618e+001 47518 92030,91814,91523
 2.7000e+000 91768 -3.6339e+001 -1.9466e+002  3.0068e+001 47518 91958,91814,91471
 2.7000e+000 91745 -6.1799e+001 -2.9043e+002  4.0264e+001 47518 91886,91575,91523
 2.7000e+000 91722 -2.5048e+001 -1.0732e+002 -2.3824e+001 47518 91958,91471,91419
 2.7000e+000 91699 -3.9628e+001 -1.9072e+002  1.0347e+002 47518 92030,91523,91497
 2.7000e+000 91676 -8.9464e+001 -2.5914e+002  3.9788e+001 47518 91523,91575,91549
 2.7000e+000 91653 -4.1123e+001 -6.3692e+001 -1.9202e+001 47518 91419,91471,91445
 2.7000e+000 91840 -3.0481e+001 -2.3210e+002  8.8450e+001 47518 91886,91523,91814
 2.7000e+000 91863 -6.5778e+000 -1.3543e+002  2.7324e+001 47518 91601,91814,91627
 2.7000e+000 91912 -1.1924e+002 -3.2346e+002 -4.8015e+001 47518 91601,91575,91886
 2.7000e+000 91935 -8.8082e+001 -1.9347e+002  5.6455e-002 47518 91601,91886,91814
 2.7000e+000 91984  2.8469e+001 -1.1969e+002 -4.2099e+000 47518 91627,91814,91958
 2.7000e+000 92007 -8.9940e-001 -7.2311e+001 -4.9794e+001 47518 91627,91958,91419
 2.7000e+000 92056 -1.7851e+001 -1.3508e+002  7.2962e+001 47518 91471,91814,92030
 2.7000e+000 92079 -1.9958e+001 -1.5290e+002  8.5739e+001 47518 91471,92030,91497
 2.7000e+000 92229  1.9552e-001  7.0220e-001 -9.5415e-001 47128 92252,92128,92102
 2.7000e+000 92206 -7.6015e-001  1.1241e+000  1.4659e-002 47128 92324,92252,92102
 2.7000e+000 92278 -1.2501e+000 -2.0315e+000 -2.4463e+000 47128 92454,92252,92154
 2.7000e+000 92301  7.3321e-002  3.4185e+000 -2.1575e+000 47128 92154,92252,92180
 2.7000e+000 92350  9.4394e-002  3.7898e+000  6.7176e-001 47128 92180,92252,92324
 2.7000e+000 92480 -5.1676e-001  8.1796e-002 -1.9201e+000 47128 92128,92252,92454
 2.7000e+000 93340 -1.0624e+002 -2.8471e+002 -3.6098e+001 46838 93363,92977,92873
 2.7000e+000 93317 -9.2291e+001 -2.8194e+002 -1.9951e+001 46838 93507,93363,92873
 2.7000e+000 93294 -4.7408e+001 -2.7534e+002 -5.3164e+000 46838 93435,93003,92977
 2.7000e+000 93271 -1.7188e+002 -2.8662e+002 -1.8285e+001 46838 93507,92873,92847
 2.7000e+000 93248 -2.6127e+001 -2.5635e+002 -2.4213e+001 46838 93579,93029,93003
 2.7000e+000 93225 -1.3561e+002 -4.6433e+002  7.8905e+001 46838 92873,92951,92925
 2.7000e+000 93202 -1.6470e+002 -3.3639e+002 -1.0167e+001 46838 92873,92977,92951
 2.7000e+000 93179 -1.7283e+001 -2.5462e+002  4.2796e+000 46838 93055,93107,93081
 2.7000e+000 93156 -6.2258e+001 -1.7803e+002  2.5666e+001 46838 92821,93107,92847
 2.7000e+000 93133 -1.0708e+002 -3.2990e+002  6.5032e+001 46838 92873,92925,92899
 2.7000e+000 93389 -7.0392e+001 -2.7058e+002 -2.3186e+000 46838 93435,92977,93363
 2.7000e+000 93412 -8.1205e+000 -2.7899e+002  4.9431e+000 46838 93055,93363,93107
 2.7000e+000 93461 -3.0768e+001 -2.7073e+002 -2.3806e+001 46838 93579,93003,93435
 2.7000e+000 93484 -4.3901e+001 -2.9630e+002 -9.3508e+000 46838 93055,93435,93363
 2.7000e+000 93533 -3.4695e+001 -2.8345e+002 -3.6123e+001 46838 93107,93363,93507
 2.7000e+000 93556 -6.4359e+001 -2.5221e+002 -3.5621e+001 46838 93107,93507,92847
 2.7000e+000 93605 -2.1890e+001 -2.6325e+002 -1.8504e+000 46838 93055,93029,93579
 2.7000e+000 93628 -2.5033e+001 -2.7479e+002 -1.2762e+000 46838 93055,93579,93435
 2.7000e+000 93979 -1.1558e+002 -3.4592e+002 -6.3619e-001 46476 93780,93884,93858
 2.7000e+000 93956 -1.0582e+002 -3.6002e+002  7.6285e+000 46476 93754,93884,93780
 2.7000e+000 93933 -8.0850e+001 -3.5080e+002 -6.8184e+000 46476 93806,93858,93832
 2.7000e+000 93910 -7.0167e+001 -3.2495e+002 -5.9269e+000 46476 93780,93858,93806
 2.7000e+000 94515  1.1147e+001 -9.6939e+001 -2.9223e+001 46072 94345,94397,94371
 2.7000e+000 94492 -6.2768e+001 -1.3840e+002  2.4760e+001 46072 94267,94397,94345
 2.7000e+000 94469 -3.3063e+001 -2.0652e+002 -5.0867e-001 46072 94241,94397,94267
 2.7000e+000 94446 -2.2159e+001 -6.2711e+001  9.8873e-001 46072 94293,94345,94319
 2.7000e+000 94423 -7.0062e+001 -1.4060e+002  2.1663e+001 46072 94267,94345,94293
 2.7000e+000 95149 -8.0994e+001 -3.3892e+002  6.3577e+000 45346 94803,94881,94855
 2.7000e+000 95126 -4.7965e+001 -2.8492e+002 -2.0277e+001 45346 94803,94959,94881
 2.7000e+000 95103 -2.9050e+001 -3.0723e+002 -6.2742e+001 45346 95172,94933,94907
 2.7000e+000 95080 -7.7214e+001 -5.4004e+002 -4.3542e+001 45346 95172,94907,94881
 2.7000e+000 95057 -1.0267e+002 -2.7241e+002 -1.1932e+001 45346 94803,94985,94959
 2.7000e+000 95034 -6.7697e+001 -3.9016e+002 -9.9907e+000 45346 94803,94855,94829
 2.7000e+000 95011 -1.1163e+002 -2.8110e+002  1.7817e+001 45346 94777,94985,94803
 2.7000e+000 95198 -9.0791e+001 -1.9893e+002 -3.7300e+001 45346 94959,94933,95172
 2.7000e+000 95221 -6.4909e+001 -3.3003e+002 -3.5011e+001 45346 94959,95172,94881
 2.7000e+000 95776 -9.2413e+001 -3.3947e+002 -3.1064e+001 44720 95799,95560,95534
 2.7000e+000 95753 -4.9536e+001 -2.2818e+002 -5.9171e+001 44720 95799,95534,95482
 2.7000e+000 95730 -3.0325e+001 -3.5774e+002 -6.3863e+001 44720 95943,95871,95430
 2.7000e+000 95707 -4.3151e+001 -2.9465e+002 -5.0424e+001 44720 95943,95430,95404
 2.7000e+000 95684 -1.3020e+002 -2.0728e+002 -1.1993e+002 44720 95430,95482,95456
 2.7000e+000 95661 -3.8357e+001 -1.8402e+002  3.3129e+001 44720 95482,95534,95508
 2.7000e+000 95638 -4.1846e+001 -2.0269e+002 -8.4483e+001 44720 95404,95612,95586
 2.7000e+000 95825 -4.8295e+001 -4.5244e+002 -7.6143e+001 44720 95586,95560,95799
 2.7000e+000 95848 -7.0603e+000 -3.3340e+002 -6.6214e+001 44720 95871,95586,95799
 2.7000e+000 95897 -3.1113e+001 -3.6419e+002 -7.5316e+001 44720 95482,95430,95871
 2.7000e+000 95920 -3.4543e+001 -3.5349e+002 -4.9380e+001 44720 95482,95871,95799
 2.7000e+000 95969 -7.5050e+000 -2.7197e+002 -7.1428e+001 44720 95586,95871,95943
 2.7000e+000 95992 -3.3402e+001 -2.3295e+002 -4.6515e+001 44720 95586,95943,95404
 2.7000e+000 96449 -3.0735e+001 -2.6417e+002 -2.3017e+001 44202 96544,96472,96227
 2.7000e+000 96426 -3.0930e+001 -2.8463e+002  1.9315e+001 44202 96472,96175,96331
 2.7000e+000 96403 -2.8572e+001 -2.6495e+002 -2.2965e+001 44202 96544,96227,96201
 2.7000e+000 96380 -6.6405e+001 -3.5550e+002 -5.7935e+001 44202 96253,96305,96279
 2.7000e+000 96357 -9.1030e+001 -2.8111e+002 -3.5151e+001 44202 96227,96305,96253
 2.7000e+000 96498 -3.7703e+001 -2.5180e+002 -9.3825e+000 44202 96305,96227,96472
 2.7000e+000 96521  4.3048e+000 -2.1232e+002  3.7196e+001 44202 96305,96472,96331
 2.7000e+000 96570 -2.8280e+001 -2.6386e+002 -2.2396e+001 44202 96175,96472,96544
 2.7000e+000 96593 -2.6442e+001 -2.6501e+002 -2.2757e+001 44202 96175,96544,96201
 2.7000e+000 96971 -2.8417e+001 -2.4708e+002 -5.7286e+001 43754 96994,96749,96697
 2.7000e+000 96948 -6.1553e+000 -2.9979e+002 -2.0175e+001 43754 96994,96697,96853
 2.7000e+000 96925 -8.6532e+001 -2.7580e+002 -2.7838e+001 43754 96697,96749,96723
 2.7000e+000 96902 -4.6291e+001 -3.0954e+002 -3.5450e+000 43754 96775,96853,96827
 2.7000e+000 96879  3.0013e+001 -3.5685e+002 -6.4706e+000 43754 96775,96827,96801
 2.7000e+000 97020  1.5444e+000 -1.5974e+002 -6.9818e+001 43754 96775,96749,96994
 2.7000e+000 97043 -2.6597e-001 -2.4747e+002 -3.1573e+001 43754 96775,96994,96853
 2.7000e+000 97291 -5.0832e+001 -3.0987e+002 -5.0867e+001 43364 97314,97144,97118
 2.7000e+000 97268 -8.0737e+001 -2.5612e+002 -2.6862e+001 43364 97314,97118,97092
 2.7000e+000 97245 -5.5627e+001 -2.5797e+002 -1.5638e+001 43364 97386,97196,97170
 2.7000e+000 97222 -9.5286e+001 -2.0527e+002  2.9212e+001 43364 97066,97196,97092
 2.7000e+000 97340  4.3752e+001 -2.1439e+002 -9.0640e+001 43364 97170,97144,97314
 2.7000e+000 97363 -5.2957e+001 -2.3438e+002 -3.2416e+001 43364 97386,97170,97314
 2.7000e+000 97412 -6.6937e+001 -2.8642e+002 -4.0947e+000 43364 97092,97196,97386
 2.7000e+000 97435 -6.6898e+001 -2.7592e+002 -2.3054e+001 43364 97092,97386,97314
 2.7000e+000 97788 -1.2903e+001 -1.5523e+002  1.8161e+001 42960 97563,97667,97589
 2.7000e+000 97765 -4.5013e+001 -1.3389e+002  1.5592e+001 42960 97563,97693,97667
 2.7000e+000 97742  1.1486e+001 -7.1791e+001  4.4789e+000 42960 97589,97641,97615
 2.7000e+000 97719 -4.3049e+000 -1.7201e+002  6.1204e+000 42960 97589,97667,97641
 2.7000e+000 98215 -5.3086e+000 -2.2963e+002 -3.7927e+000 42563 97918,98074,98048
 2.7000e+000 98192 -5.1179e+001 -1.7272e+002  5.2789e+001 42563 97892,98074,97918
 2.7000e+000 98169 -8.8392e+001 -4.1835e+002  1.7591e+001 42563 98238,97944,97918
 2.7000e+000 98146 -6.4530e+001 -3.5774e+002  4.2654e+001 42563 98238,97918,98048
 2.7000e+000 98123 -9.1506e+001 -2.7683e+002 -1.9458e+001 42563 97944,98022,97996
 2.7000e+000 98100 -1.1705e+002 -2.8528e+002  5.3091e+001 42563 97944,97996,97970
 2.7000e+000 98264 -1.1142e+002 -3.9156e+002 -1.3898e+001 42563 98022,97944,98238
 2.7000e+000 98287 -1.0021e+002 -3.7177e+002  7.8103e+000 42563 98022,98238,98048
 2.7000e+000 98616 -2.3693e+001 -1.4030e+002 -2.6117e+001 42251 98443,98521,98469
 2.7000e+000 98593 -1.6649e+001 -1.3303e+002 -2.9624e+001 42251 98417,98521,98443
 2.7000e+000 98570 -4.6883e+001 -2.0452e+002 -3.4800e+001 42251 98391,98521,98417
 2.7000e+000 98547  1.4395e+001 -1.2896e+002 -1.9966e+001 42251 98469,98521,98495
 2.7000e+000 98886 -3.1700e+001 -3.4327e+002  2.5523e+001 41847 98661,98765,98687
 2.7000e+000 98863 -4.3381e+001 -1.8104e+002 -8.6959e+001 41847 98661,98791,98765
 2.7000e+000 98840 -7.9904e+001 -3.0199e+002  5.5436e+000 41847 98687,98765,98739
 2.7000e+000 98817 -4.9541e+001 -2.7920e+002 -1.0565e+001 41847 98687,98739,98713
 2.7000e+000 99394 -5.5661e+001 -2.1498e+002 -3.4512e+001 41236 99417,99149,99123
 2.7000e+000 99371 -1.1943e+002 -2.2218e+002 -2.4083e+001 41236 99417,99123,99097
 2.7000e+000 99348 -1.0147e+002 -1.7535e+002 -7.2955e+001 41236 99489,99201,99149
 2.7000e+000 99325 -2.2620e+001 -1.2341e+002 -3.8519e+001 41236 99149,99201,99175
 2.7000e+000 99302 -4.5933e+001 -2.5571e+002 -9.7572e+000 41236 99097,99253,99227
 2.7000e+000 99279 -1.5315e+002 -3.4865e+002 -5.4006e+001 41236 99071,99253,99097
 2.7000e+000 99443 -6.1799e+001 -1.9205e+002 -6.7755e+001 41236 99489,99149,99417
 2.7000e+000 99466 -9.5001e+001 -2.0838e+002 -4.4158e+001 41236 99227,99417,99097
 2.7000e+000 99515 -1.2365e+002 -1.9144e+002 -6.5657e+001 41236 99227,99201,99489
 2.7000e+000 99538 -1.0668e+002 -2.2520e+002 -5.3117e+001 41236 99227,99489,99417
 2.7000e+000 100044  2.4130e+001 -4.1924e+002 -8.2327e+000 40732 99721,99773,99747
 2.7000e+000 100021 -6.5951e+001 -3.9065e+002 -5.3952e+001 40732 99721,99799,99773
 2.7000e+000 99998 -7.3010e+001 -3.2049e+002 -4.7228e+001 40732 99721,99903,99799
 2.7000e+000 99975 -5.8391e+001 -2.4992e+002 -2.6023e+001 40732 100067,99877,99851
 2.7000e+000 99952 -5.5569e+001 -2.2258e+002 -2.4749e+001 40732 100067,99851,99799
 2.7000e+000 99929 -4.9952e+001 -2.1926e+002 -2.6429e+001 40732 99799,99851,99825
 2.7000e+000 100093 -5.1606e+001 -2.7442e+002 -3.6865e+001 40732 99903,99877,100067
 2.7000e+000 100116 -4.4619e+001 -2.3933e+002 -3.8157e+001 40732 99903,100067,99799
 2.7000e+000 100622 -5.4340e+001 -2.9962e+002 -3.3463e+001 40278 100645,100455,100429
 2.7000e+000 100599 -1.0997e+002 -2.4946e+002 -4.9340e+001 40278 100717,100645,100429
 2.7000e+000 100576 -1.0666e+002 -2.4781e+002  1.2458e+001 40278 100717,100429,100377
 2.7000e+000 100553 -9.0108e+001 -4.0744e+002 -1.4635e+001 40278 100789,100325,100481
 2.7000e+000 100530 -1.3134e+002 -2.3566e+002  4.2813e+001 40278 100299,100481,100325
 2.7000e+000 100507 -1.1594e+002 -2.8673e+002 -5.8692e+000 40278 100377,100429,100403
 2.7000e+000 100671 -5.4605e+001 -3.0681e+002 -3.5777e+001 40278 100481,100455,100645
 2.7000e+000 100694 -8.2405e+001 -3.5041e+002 -2.1011e+001 40278 100789,100481,100645
 2.7000e+000 100743 -7.4080e+001 -1.5511e+002 -6.5180e+001 40278 100351,100645,100717
 2.7000e+000 100766 -9.0527e+001 -1.7383e+002  1.1883e+000 40278 100351,100717,100377
 2.7000e+000 100815 -1.2348e+002 -4.1535e+002 -1.1575e+002 40278 100351,100325,100789
 2.7000e+000 100838 -7.7235e+001 -2.8349e+002 -1.1623e+002 40278 100351,100789,100645
 2.7000e+000 101265 -3.9584e+001 -2.5664e+002  3.0285e+001 39824 101288,101046,100994
 2.7000e+000 101242 -3.7022e+001 -2.1498e+002  2.7983e+001 39824 101288,100994,100968
 2.7000e+000 101219 -4.6216e+001 -2.1680e+002  3.3958e+000 39824 100942,101124,100968
 2.7000e+000 101196 -8.6403e+001 -3.8622e+002  1.2668e+001 39824 101046,101124,101072
 2.7000e+000 101173 -9.9997e+000 -2.3612e+002  4.5611e+001 39824 100994,101046,101020
 2.7000e+000 101150 -8.2111e+001 -2.8591e+002 -3.5360e+001 39824 101072,101124,101098
 2.7000e+000 101314 -3.5792e+001 -2.3144e+002  1.3868e+001 39824 101124,101046,101288
 2.7000e+000 101337 -4.0100e+001 -2.0941e+002  6.7196e+000 39824 101124,101288,100968
 2.7000e+000 101585 -5.4375e+001 -2.6804e+002 -3.2818e+001 39070 101608,101464,101412
 2.7000e+000 101562 -2.1081e+001 -2.8977e+002 -3.9367e+000 39070 101608,101412,101360
 2.7000e+000 101539  4.3166e+001 -1.9872e+002  1.3916e+000 39070 101412,101464,101438
 2.7000e+000 101516 -6.5939e+001 -2.7185e+002  2.3609e+001 39070 101360,101412,101386
 2.7000e+000 101634 -7.7019e+001 -2.7962e+002 -2.8528e+001 39070 101490,101464,101608
 2.7000e+000 101657 -5.7672e+001 -3.0974e+002  3.7559e+000 39070 101490,101608,101360
 2.7000e+000 101856 -6.7071e+001 -2.5432e+002 -2.8681e+000 38730 101706,101758,101732
 2.7000e+000 101833 -4.7780e+001 -2.7932e+002  4.9286e+000 38730 101706,101784,101758
 2.7000e+000 101810 -9.4317e+001 -3.1009e+002 -1.0841e+001 38730 101680,101784,101706
 2.7000e+000 102106 -1.4411e+002 -3.0622e+002 -3.5693e+001 38326 101881,101959,101907
 2.7000e+000 102083 -1.1702e+002 -2.5662e+002 -4.7618e+001 38326 101881,101985,101959
 2.7000e+000 102060 -9.2862e+001 -3.6120e+002  1.3862e+001 38326 101881,102011,101985
 2.7000e+000 102037 -4.9810e+001 -1.8781e+002 -9.6926e+001 38326 101907,101959,101933
 2.7000e+000 102258 -7.8257e+001 -3.1847e+002 -1.1256e+001 38036 102281,102157,102131
 2.7000e+000 102235 -2.7565e+001 -3.8640e+002  2.6824e+001 38036 102281,102131,102209
 2.7000e+000 102307 -5.4707e+001 -2.7070e+002  2.7437e+000 38036 102183,102157,102281
 2.7000e+000 102330  2.6558e+001 -2.9883e+002  5.5230e+001 38036 102183,102281,102209
 2.7000e+000 102663 -3.9828e+001 -1.3644e+002  9.9083e-001 37596 102438,102542,102464
 2.7000e+000 102640  1.4106e+001 -1.1506e+002 -9.4299e-001 37596 102438,102568,102542
 2.7000e+000 102617 -1.5385e+001 -1.8794e+002 -3.6896e+001 37596 102490,102542,102516
 2.7000e+000 102594 -3.5486e+001 -1.4604e+002  1.8912e+000 37596 102464,102542,102490
 2.7000e+000 102862 -8.3315e+001 -2.7262e+002 -1.7260e+001 37192 102686,102764,102712
 2.7000e+000 102839 -5.6324e+001 -2.7180e+002 -5.7023e+001 37192 102686,102790,102764
 2.7000e+000 102816 -9.6638e+001 -2.3770e+002 -3.3203e+001 37192 102712,102764,102738
 2.7000e+000 103110 -3.1261e+001 -1.8096e+002 -7.6176e+001 36609 102911,102963,102937
 2.7000e+000 103087 -5.0328e+001 -2.4462e+002 -2.8787e+001 36609 102911,102989,102963
 2.7000e+000 103064 -1.1970e+001 -2.3485e+002 -2.5956e+001 36609 102885,102989,102911
 2.7000e+000 103041 -4.1734e+001 -1.8341e+002 -5.9091e+001 36609 102885,103015,102989
 2.7000e+000 103718  6.3576e+001 -5.2509e+002  1.2547e+001 36131 103323,103375,103349
 2.7000e+000 103695 -1.0761e+002 -2.9842e+002 -5.0991e+001 36131 103297,103375,103323
 2.7000e+000 103672 -6.4364e+001 -1.8926e+002 -4.4715e+001 36131 103297,103505,103375
 2.7000e+000 103649 -1.2881e+002 -3.3339e+002  2.7056e+001 36131 103741,103479,103401
 2.7000e+000 103626 -8.3072e+001 -2.2673e+002  2.8189e+001 36131 103741,103401,103375
 2.7000e+000 103603 -1.5965e+002 -3.7952e+002  1.3328e+001 36131 103401,103479,103427
 2.7000e+000 103580 -7.5803e+001 -2.2432e+002 -1.6952e+001 36131 103297,103531,103505
 2.7000e+000 103557 -1.2053e+002 -3.3421e+002 -4.6446e+001 36131 103427,103479,103453
 2.7000e+000 103767 -1.0209e+002 -4.0350e+002 -5.5182e+001 36131 103505,103479,103741
 2.7000e+000 103790 -6.1323e+001 -3.0931e+002 -5.1292e+001 36131 103505,103741,103375
 2.7000e+000 103989 -1.6318e+002 -3.5270e+002  1.7681e+001 35791 103839,103917,103891
 2.7000e+000 103966 -2.3909e+002 -3.8168e+002 -2.5656e+000 35791 103813,103917,103839
 2.7000e+000 103943 -2.1778e+001 -2.7446e+002 -1.3221e+001 35791 103839,103891,103865
 2.7000e+000 104188  2.9095e+001 -2.7046e+002 -3.4368e+001 35444 104038,104090,104064
 2.7000e+000 104165 -1.1284e+002 -3.1956e+002 -2.5169e+001 35444 104038,104116,104090
 2.7000e+000 104142  3.8943e+000 -3.0433e+002  9.6398e+000 35444 104012,104116,104038
 2.7000e+000 104487  5.8920e+000 -2.8036e+002 -8.7491e+001 34990 104265,104317,104291
 2.7000e+000 104464 -2.5962e+001 -3.3444e+002 -3.2498e+001 34990 104510,104317,104265
 2.7000e+000 104441 -7.8658e+001 -2.4332e+002 -6.7661e+000 34990 104510,104265,104213
 2.7000e+000 104418  1.7010e+001 -2.5338e+002 -5.3389e+001 34990 104582,104343,104317
 2.7000e+000 104395 -7.0857e+001 -2.3536e+002 -4.3216e+001 34990 104213,104265,104239
 2.7000e+000 104536  1.8891e+001 -2.4980e+002 -5.0003e+001 34990 104582,104317,104510
 2.7000e+000 104559 -5.4522e+001 -2.1374e+002 -1.7314e+001 34990 104369,104510,104213
 2.7000e+000 104608  2.3192e+001 -1.7341e+002 -2.2676e+001 34990 104369,104343,104582
 2.7000e+000 104631 -9.2349e+000 -2.6245e+002 -1.7182e+001 34990 104369,104582,104510
 2.7000e+000 104783  1.2835e+001 -1.7265e+002 -3.4454e+001 34700 104938,104806,104682
 2.7000e+000 104760 -3.8938e+001 -2.7415e+002 -5.2868e+001 34700 104938,104682,104656
 2.7000e+000 104832 -2.4717e+001 -2.0462e+002 -4.8194e+001 34700 104708,104682,104806
 2.7000e+000 104964  2.0434e+001 -1.2965e+002  5.3735e+001 34700 104734,104806,104938
 2.7000e+000 104987 -2.0233e+001 -2.0696e+002  3.7526e+001 34700 104734,104938,104656
 2.7000e+000 105137 -5.0699e+001 -2.5259e+002  8.9446e+000 34388 105036,105088,105062
 2.7000e+000 105114 -5.9551e+001 -3.2714e+002 -5.7955e+000 34388 105010,105088,105036
 2.7000e+000 105385 -1.1225e+002 -2.5126e+002 -2.0842e+001 33734 105408,105186,105160
 2.7000e+000 105362 -9.3201e+001 -2.6212e+002 -3.8247e+001 33734 105408,105160,105264
 2.7000e+000 105339 -1.5653e+002 -2.9118e+002 -2.4231e+001 33734 105160,105290,105264
 2.7000e+000 105316  7.6867e+000 -2.0250e+002 -4.4486e+001 33734 105186,105238,105212
 2.7000e+000 105434 -9.3070e+001 -2.5274e+002 -2.5761e+001 33734 105238,105186,105408
 2.7000e+000 105457 -4.4977e+001 -2.4221e+002 -4.6050e+001 33734 105238,105408,105264
 2.7000e+000 105609 -9.6110e+001 -3.2853e+002  1.5329e+001 33394 105482,105534,105508
 2.7000e+000 105586 -3.4555e+001 -3.1070e+002  1.5080e+001 33394 105482,105560,105534
 2.7000e+000 105859 -1.1786e+002 -4.1795e+002 -5.6472e+001 33047 105882,105712,105660
 2.7000e+000 105836 -6.9147e+001 -3.7870e+002 -2.8399e+001 33047 105882,105660,105634
 2.7000e+000 105813 -8.9902e+001 -4.6351e+002  7.9282e+000 33047 105660,105712,105686
 2.7000e+000 105790 -6.9829e+001 -2.4682e+002 -8.6634e+000 33047 105634,105764,105738
 2.7000e+000 105908 -2.3793e+002 -3.5989e+002 -2.4567e+001 33047 105738,105712,105882
 2.7000e+000 105931 -1.1751e+002 -3.0936e+002  1.6406e+001 33047 105738,105882,105634
 2.7000e+000 106181 -3.9256e+001 -2.9695e+002 -5.7001e+000 32543 106204,106060,106008
 2.7000e+000 106158 -6.2393e-001 -4.3164e+002  2.4411e+000 32543 105956,106086,106060
 2.7000e+000 106135 -9.7052e+000 -1.5914e+002  6.5598e+001 32543 106204,106008,105982
 2.7000e+000 106112 -7.4838e+001 -1.5483e+002  1.3639e+000 32543 106008,106060,106034
 2.7000e+000 106230 -5.3671e+001 -3.5744e+002 -7.4557e+001 32543 105956,106060,106204
 2.7000e+000 106253 -6.6674e+001 -2.4281e+002 -1.2463e+001 32543 105956,106204,105982
 2.7000e+000 106454 -2.6792e+001 -2.2014e+002  4.7132e+001 31839 106304,106356,106330
 2.7000e+000 106431 -7.5532e+001 -2.9205e+002 -4.2049e+001 31839 106278,106356,106304
 2.7000e+000 106408 -7.7884e+001 -3.2656e+002 -3.2591e+001 31839 106278,106382,106356
 2.7000e+000 106704 -3.1403e+001 -2.6093e+002 -4.9650e+001 31534 106505,106583,106557
 2.7000e+000 106681 -9.1369e+001 -2.7333e+002 -3.8535e+001 31534 106479,106583,106505
 2.7000e+000 106658 -9.2441e+001 -1.7360e+002 -6.9745e+001 31534 106505,106557,106531
 2.7000e+000 106635 -1.0709e+001 -2.3714e+002 -4.6064e+001 31534 106479,106609,106583
 2.7000e+000 107108 -1.7843e+002 -3.3684e+002 -3.3582e+000 31030 106886,106990,106964
 2.7000e+000 107085 -2.0630e+002 -3.7086e+002 -1.5856e+001 31030 106860,106990,106886
 2.7000e+000 107062 -3.2804e+001 -3.2097e+002 -4.1157e+001 31030 106834,106990,106860
 2.7000e+000 107039 -1.7361e+002 -4.4177e+002  4.6802e+001 31030 106912,106964,106938
 2.7000e+000 107016 -1.6435e+002 -3.2720e+002  7.6879e+000 31030 106886,106964,106912
 2.7000e+000 107307 -4.5976e+001 -3.2562e+002 -1.5936e+001 30718 107330,107157,107131
 2.7000e+000 107284 -5.8923e+001 -3.4536e+002 -9.9115e+000 30718 107330,107131,107235
 2.7000e+000 107261 -9.1720e+001 -3.3125e+002 -3.5207e+001 30718 107183,107235,107209
 2.7000e+000 107356 -6.3346e+001 -2.9536e+002 -1.7691e+001 30718 107183,107157,107330
 2.7000e+000 107379 -7.9541e+001 -3.1970e+002 -1.0495e+001 30718 107183,107330,107235
 2.7000e+000 107759 -1.6319e+001 -2.1181e+002 -1.1162e+001 30264 107782,107615,107537
 2.7000e+000 107736 -2.3017e+001 -2.2736e+002 -1.3112e+001 30264 107782,107537,107485
 2.7000e+000 107713 -7.0955e+001 -2.8226e+002  7.5909e+000 30264 107485,107537,107511
 2.7000e+000 107690  7.0661e+000 -2.7148e+002 -3.3305e+001 30264 107537,107615,107589
 2.7000e+000 107667  4.6495e+001 -2.0459e+002  7.6714e-001 30264 107537,107589,107563
 2.7000e+000 107808 -1.0869e+001 -2.1456e+002  1.5488e+000 30264 107641,107615,107782
 2.7000e+000 107831 -1.9482e+001 -2.3264e+002 -1.1976e+000 30264 107641,107782,107485
 2.7000e+000 108030 -1.0136e+002 -3.3697e+002 -7.2829e+001 29874 108053,107854,107932
 2.7000e+000 108007 -1.7045e+002 -3.6481e+002 -6.4961e+001 29874 107854,107958,107932
 2.7000e+000 107984  7.9252e+000 -2.6456e+002 -3.8819e+001 29874 108053,107932,107906
 2.7000e+000 108079 -1.5431e+002 -2.4944e+002 -3.0823e+001 29874 107880,107854,108053
 2.7000e+000 108102 -1.0580e+002 -2.0869e+002 -1.2311e+001 29874 107880,108053,107906
 2.7000e+000 108433  1.9572e+001 -3.2707e+002 -9.8125e+001 29484 108234,108338,108312
 2.7000e+000 108410  3.1816e+001 -2.8400e+002 -2.7786e+001 29484 108208,108338,108234
 2.7000e+000 108387 -9.1000e+001 -2.9565e+002 -1.3568e+002 29484 108234,108312,108260
 2.7000e+000 108364  4.5907e+001 -4.3955e+001 -5.1765e+001 29484 108260,108312,108286
 2.7000e+000 108762 -8.0022e+001 -2.6622e+002  1.6432e+001 29080 108563,108641,108589
 2.7000e+000 108739 -5.6833e+001 -1.9378e+002  1.2357e+001 29080 108537,108641,108563
 2.7000e+000 108716 -8.5529e+001 -3.3296e+002  9.1402e+000 29080 108589,108641,108615
 2.7000e+000 108693  3.5126e+001 -1.6058e+002 -8.7027e+000 29080 108537,108667,108641
 2.7000e+000 109189 -5.3088e+001 -2.8741e+002 -4.0815e+001 28476 108892,108996,108970
 2.7000e+000 109166 -1.0557e+002 -2.8013e+002 -3.9932e+001 28476 108892,109022,108996
 2.7000e+000 109143 -1.6819e+002 -2.2751e+002  2.8975e+001 28476 108892,108970,108944
 2.7000e+000 109120 -1.6360e+002 -3.0803e+002 -4.9762e+001 28476 108892,109048,109022
 2.7000e+000 109097 -1.1045e+002 -1.2082e+002  5.2947e+001 28476 108892,108944,108918
 2.7000e+000 109074 -1.3856e+002 -3.5844e+002 -2.8061e+001 28476 108866,109048,108892
 2.7000e+000 109518 -1.1212e+002 -3.0577e+002  5.3079e+001 28022 109541,109371,109345
 2.7000e+000 109495 -1.2269e+002 -2.8762e+002  3.5310e+001 28022 109541,109345,109319
 2.7000e+000 109472 -9.5587e+001 -2.8841e+002  1.2681e+001 28022 109293,109397,109319
 2.7000e+000 109449 -1.2007e+001 -2.5460e+002  9.4192e+000 28022 109293,109423,109397
 2.7000e+000 109567 -6.5547e+001 -2.8527e+002  4.9785e+001 28022 109397,109371,109541
 2.7000e+000 109590 -1.0901e+002 -2.8281e+002  3.4646e+001 28022 109397,109541,109319
 2.7000e+000 109968 -4.2993e+001 -2.1151e+002  7.4497e+001 27568 109798,109850,109824
 2.7000e+000 109945 -7.9672e+001 -3.0392e+002  6.8156e+001 27568 109694,109850,109798
 2.7000e+000 109922 -1.1213e+002 -2.6100e+002  6.0195e+001 27568 109694,109798,109746
 2.7000e+000 109899 -2.6401e+001 -2.3467e+002 -1.4545e+001 27568 109746,109798,109772
 2.7000e+000 109876 -1.0324e+002 -2.6362e+002  7.9478e+001 27568 109694,109746,109720
 2.7000e+000 110167 -8.2800e+001 -3.0047e+002 -6.2664e+001 27007 110017,110095,110069
 2.7000e+000 110144 -8.0575e+000 -3.2657e+002 -5.2475e+000 27007 109991,110095,110017
 2.7000e+000 110121 -6.2416e+000 -2.5074e+002 -3.4181e+001 27007 110017,110069,110043
 2.7000e+000 110415 -1.9134e+001 -2.7507e+002 -1.5602e+001 26567 110438,110242,110190
 2.7000e+000 110392 -3.5594e+001 -2.7604e+002 -1.4551e+001 26567 110438,110190,110320
 2.7000e+000 110369 -9.4089e+001 -2.8497e+002 -2.3878e+001 26567 110242,110294,110268
 2.7000e+000 110346 -3.1611e+001 -2.7588e+002  3.6929e+001 26567 110190,110242,110216
 2.7000e+000 110464 -2.7225e+001 -2.7256e+002 -2.1951e+001 26567 110294,110242,110438
 2.7000e+000 110487 -3.9908e+001 -2.7446e+002 -2.4243e+001 26567 110294,110438,110320
 2.7000e+000 110639 -1.0245e+001 -4.1517e+001 -1.9966e+001 26170 110538,110590,110564
 2.7000e+000 110616  5.4861e-001 -4.6068e+001 -1.3237e+001 26170 110512,110590,110538
 2.7000e+000 111149 -1.2347e+002 -2.3591e+002 -5.6679e+001 25716 111172,110878,110852
 2.7000e+000 111126 -7.8279e+001 -2.4726e+002 -4.9606e+001 25716 111172,110852,111008
 2.7000e+000 111103 -7.5934e+001 -2.3822e+002 -4.7747e+001 25716 110878,110930,110904
 2.7000e+000 111080 -1.0185e+002 -2.6191e+002 -5.7391e+001 25716 110826,111008,110852
 2.7000e+000 111057 -1.0663e+002 -3.5396e+002  3.7477e+001 25716 110930,111008,110956
 2.7000e+000 111034 -1.1488e+001 -3.3056e+002  4.1793e+001 25716 110956,111008,110982
 2.7000e+000 111198 -9.1915e+001 -2.3908e+002 -4.4257e+001 25716 110930,110878,111172
 2.7000e+000 111221 -3.7172e+001 -2.4170e+002 -3.5444e+001 25716 110930,111172,111008
 2.7000e+000 111420 -1.5455e+001 -2.1492e+002 -1.5505e+001 25304 111443,111270,111244
 2.7000e+000 111397 -1.2600e+000 -2.5492e+002 -1.5614e+001 25304 111443,111244,111348
 2.7000e+000 111374 -1.7796e+001 -1.7627e+002  2.2403e+001 25304 111270,111322,111296
 2.7000e+000 111469 -8.3691e+000 -1.9138e+002 -1.1934e+001 25304 111322,111270,111443
 2.7000e+000 111492  1.3891e+001 -2.2173e+002 -8.2460e+000 25304 111322,111443,111348
 2.7000e+000 111691 -7.6594e+001 -2.4420e+002  2.8017e+001 24736 111567,111619,111593
 2.7000e+000 111668 -1.0619e+002 -3.2135e+002  2.6513e+001 24736 111541,111619,111567
 2.7000e+000 111645 -8.4682e+001 -3.2123e+002  2.4391e+001 24736 111515,111619,111541
 2.7000e+000 112024 -4.6243e+001 -3.8352e+002  5.4240e+001 24146 111825,111877,111851
 2.7000e+000 112001 -9.7578e+001 -3.6182e+002 -1.4653e+000 24146 111825,111903,111877
 2.7000e+000 111978 -1.6696e+001 -2.3333e+002 -3.6586e+001 24146 111825,111929,111903
 2.7000e+000 111955 -4.5967e+001 -2.1846e+002 -2.2081e+001 24146 111799,111929,111825
 2.7000e+000 112370 -1.0132e+002 -4.5292e+002 -6.4283e+000 23856 112393,112151,112125
 2.7000e+000 112347 -7.7281e+001 -3.9102e+002 -2.3277e+000 23856 112465,112393,112125
 2.7000e+000 112324 -9.0414e+001 -3.7654e+002  2.6715e+001 23856 112465,112125,112073
 2.7000e+000 112301 -1.1812e+002 -3.5595e+002  3.1260e+001 23856 112073,112125,112099
 2.7000e+000 112278 -2.6262e+002 -4.9580e+002 -5.4318e+001 23856 112047,112229,112073
 2.7000e+000 112255 -5.9852e+001 -4.9896e+002 -1.1747e+002 23856 112151,112203,112177
 2.7000e+000 112419 -9.7738e+001 -4.2185e+002 -4.0977e+001 23856 112203,112151,112393
 2.7000e+000 112442 -1.1523e+002 -4.0177e+002 -3.7277e+001 23856 112203,112393,112229
 2.7000e+000 112491 -1.3135e+002 -4.2293e+002 -3.0043e+001 23856 112229,112393,112465
 2.7000e+000 112514 -1.2982e+002 -3.8797e+002  1.4787e+000 23856 112229,112465,112073
 2.7000e+000 112784 -1.4102e+001 -3.4152e+002  4.6307e+001 23494 112611,112663,112637
 2.7000e+000 112761 -4.8357e+001 -2.9635e+002  3.7905e+001 23494 112585,112663,112611
 2.7000e+000 112738 -7.7512e+001 -3.0903e+002  2.9692e+001 23494 112559,112663,112585
 2.7000e+000 112715 -9.9738e+000 -1.9103e+002 -2.1579e+000 23494 112559,112689,112663
 2.7000e+000 113117 -3.2025e+001 -1.4200e+002 -1.7346e+001 22974 112944,113022,112996
 2.7000e+000 113094 -6.3276e+001 -1.8483e+002  6.4198e-001 22974 112918,113022,112944
 2.7000e+000 113071 -2.6746e+001 -1.8236e+002 -6.9569e+001 22974 112944,112996,112970
 2.7000e+000 113048 -2.6995e+001 -1.3374e+002  2.9460e+001 22974 112892,113022,112918
 2.7000e+000 113414 -3.9799e+001 -3.0028e+002  4.2551e+000 22370 113192,113296,113218
 2.7000e+000 113391 -5.4727e+001 -3.1847e+002 -2.3700e+000 22370 113140,113296,113192
 2.7000e+000 113368 -6.3371e+001 -3.4987e+002  3.2505e+001 22370 113218,113296,113270
 2.7000e+000 113345 -8.9343e+001 -3.5896e+002  9.7086e+000 22370 113218,113270,113244
 2.7000e+000 113322 -4.5672e+001 -3.0133e+002 -7.4937e+000 22370 113140,113192,113166
 2.7000e+000 113662 -2.9370e+001 -2.0648e+002  4.7877e+001 21916 113685,113515,113489
 2.7000e+000 113639 -8.1022e+001 -3.2614e+002  1.7528e+001 21916 113685,113489,113437
 2.7000e+000 113616 -2.3554e+001 -3.2768e+002  1.1324e+001 21916 113757,113567,113541
 2.7000e+000 113593 -4.6454e+001 -2.5002e+002  3.1055e+001 21916 113437,113489,113463
 2.7000e+000 113711 -8.9378e+001 -3.5052e+002  4.3661e+001 21916 113541,113515,113685
 2.7000e+000 113734 -5.2693e+001 -3.4186e+002  1.6866e+001 21916 113757,113541,113685
 2.7000e+000 113783 -6.3277e+001 -3.2680e+002  1.1232e+001 21916 113437,113567,113757
 2.7000e+000 113806 -6.8267e+001 -3.2392e+002  1.0060e+001 21916 113437,113757,113685
 2.7000e+000 114056 -2.9767e+001 -3.8367e+002 -1.6636e+000 21412 113857,113909,113883
 2.7000e+000 114033  4.9664e+000 -2.8651e+002 -5.5048e+000 21412 114079,113909,113857
 2.7000e+000 114010 -7.0745e+001 -3.1320e+002 -9.1240e+000 21412 114079,113857,113961
 2.7000e+000 113987 -7.8963e+001 -3.0426e+002 -5.1748e+000 21412 113831,113961,113857
 2.7000e+000 114105 -5.5139e+001 -2.7781e+002 -3.8784e+001 21412 113935,113909,114079
 2.7000e+000 114128 -1.0657e+002 -2.8782e+002 -4.0837e+001 21412 113935,114079,113961
 2.7000e+000 114378 -1.1182e+002 -3.1021e+002 -9.1173e+001 21022 114401,114257,114205
 2.7000e+000 114355 -1.4152e+002 -3.9453e+002 -8.5891e+001 21022 114401,114205,114179
 2.7000e+000 114332 -2.3764e+001 -4.6525e+002 -4.4555e+001 21022 114153,114283,114179
 2.7000e+000 114309 -1.2188e+002 -2.1989e+002 -5.4135e+001 21022 114205,114257,114231
 2.7000e+000 114427 -1.0107e+002 -3.4255e+002 -1.7835e+001 21022 114283,114257,114401
 2.7000e+000 114450 -1.2435e+002 -4.1949e+002 -1.4417e+001 21022 114283,114401,114179
 2.7000e+000 114651 -1.7480e+002 -3.9536e+002 -2.7327e+001 20618 114501,114553,114527
 2.7000e+000 114628 -1.6064e+002 -3.9314e+002 -2.2291e+001 20618 114501,114579,114553
 2.7000e+000 114605 -1.3006e+002 -3.2717e+002  1.0793e+000 20618 114475,114579,114501
 2.7000e+000 114901  5.8648e+001 -3.2218e+002  1.7429e+001 20114 114676,114780,114702
 2.7000e+000 114878 -1.8914e+000 -3.4212e+002  1.4547e+001 20114 114676,114806,114780
 2.7000e+000 114855  1.4317e+002 -3.7729e+002 -5.3305e-001 20114 114702,114780,114754
 2.7000e+000 114832  5.0248e+002 -3.5694e+002  9.1581e+001 20114 114702,114754,114728
 2.7000e+000 115053 -8.2728e+001 -3.6365e+002 -4.1197e+000 19460 115147,115076,114926
 2.7000e+000 115030 -8.3446e+001 -3.5133e+002 -8.1747e+000 19460 115147,114926,115004
 2.7000e+000 115102 -1.0263e+002 -3.8267e+002  8.1766e+000 19460 114952,114926,115076
 2.7000e+000 115173 -7.5903e+001 -3.9373e+002 -4.9920e-001 19460 114978,115076,115147
 2.7000e+000 115196 -6.8719e+001 -3.7406e+002 -7.5848e+000 19460 114978,115147,115004
 2.7000e+000 115446 -1.0672e+002 -4.3369e+002  5.0163e-001 19006 115273,115351,115299
 2.7000e+000 115423 -6.1983e+000 -3.9372e+002  1.7395e+001 19006 115247,115351,115273
 2.7000e+000 115400 -1.4399e+001 -3.9887e+002  4.8893e+000 19006 115221,115351,115247
 2.7000e+000 115377 -1.1115e+002 -4.3618e+002  3.8854e+000 19006 115299,115351,115325
 2.7000e+000 115767 -1.6476e+002 -3.9916e+002  8.8922e+000 18716 115571,115649,115623
 2.7000e+000 115744 -1.7218e+002 -4.1954e+002  8.2845e+000 18716 115493,115649,115571
 2.7000e+000 115721 -1.6721e+002 -4.0737e+002  6.4809e+000 18716 115493,115571,115545
 2.7000e+000 115698 -1.3064e+002 -3.7024e+002  5.7018e+001 18716 115493,115545,115519
 2.7000e+000 115675 -1.3092e+002 -3.8945e+002 -3.5811e-001 18716 115571,115623,115597
 2.7000e+000 116039 -8.0952e+001 -3.0979e+002  1.0495e+001 18312 115814,115892,115840
 2.7000e+000 116016 -7.1633e+001 -2.8639e+002  7.7109e+000 18312 115814,115944,115892
 2.7000e+000 115993 -8.3772e+001 -2.9612e+002  3.1418e+000 18312 115892,115944,115918
 2.7000e+000 115970 -5.0521e+000 -2.9696e+002  3.0505e+001 18312 115840,115892,115866
 2.7000e+000 116191 -3.8825e+001 -4.7180e+002  4.1434e-001 18000 116090,116142,116116
 2.7000e+000 116168 -1.1595e+001 -4.6267e+002  1.7607e+001 18000 116064,116142,116090
 2.7000e+000 116343 -2.4045e+002 -5.1532e+002 -1.4342e+001 17396 116242,116294,116268
 2.7000e+000 116320 -2.2247e+002 -5.1114e+002 -1.2714e+001 17396 116216,116294,116242
 2.7000e+000 116566 -1.4312e+002 -5.1283e+002  2.8351e+001 16942 116390,116468,116442
 2.7000e+000 116543 -9.9139e+001 -5.3716e+002  2.9964e+001 16942 116390,116494,116468
 2.7000e+000 116520 -1.7101e+002 -5.7822e+002  1.1577e+001 16942 116390,116442,116416
 2.7000e+000 116767  8.3508e+000 -3.2896e+002 -1.2797e+001 16438 116790,116643,116617
 2.7000e+000 116744 -2.7424e+001 -2.8580e+002 -1.1194e+001 16438 116790,116617,116591
 2.7000e+000 116721  3.6211e+001 -2.7009e+002 -4.5158e+001 16438 116643,116695,116669
 2.7000e+000 116816  1.1835e+001 -2.9609e+002 -2.7296e+001 16438 116695,116643,116790
 2.7000e+000 116839 -1.0750e+000 -2.5134e+002 -4.0898e+001 16438 116695,116790,116591
 2.7000e+000 117062 -2.8968e+001 -4.1960e+002 -8.9783e-002 16074 116886,116938,116912
 2.7000e+000 117039 -3.6010e+001 -4.3902e+002  2.2861e+001 16074 116886,116990,116938
 2.7000e+000 117016  2.9674e+000 -3.4824e+002  3.8451e+001 16074 116938,116990,116964
 2.7000e+000 117214 -5.1417e+001 -4.2280e+002 -3.8258e+000 15649 117087,117139,117113
 2.7000e+000 117191  4.7806e+001 -3.8179e+002 -3.9653e+000 15649 117087,117165,117139
 2.7000e+000 117317 -2.0122e+002 -4.3898e+002 -4.1713e+001 421 117239,117291,117265
 2.8000e+000 70632 -3.2766e+002 -6.7881e+002 -3.2446e+001 70072 70482,70534,70508
 2.8000e+000 70609 -2.9924e+002 -6.1522e+002 -2.4794e+001 70072 70482,70560,70534
 2.8000e+000 70586 -2.8495e+002 -6.1599e+002 -1.0410e+001 70072 70456,70560,70482
 2.8000e+000 70951 -2.5689e+002 -8.9898e+002  0.0000e+000 69874 70703,70755,70729
 2.8000e+000 70928 -1.0189e+002 -8.4817e+002 -1.5661e+002 69874 70703,70781,70755
 2.8000e+000 70905  5.9070e+001 -2.2435e+002 -7.9171e+001 69874 70703,70807,70781
 2.8000e+000 70882 -1.4447e+002 -7.2251e+002 -3.1769e+001 69874 70703,70833,70807
 2.8000e+000 70859 -1.1475e+002 -7.3426e+002  3.0024e+001 69874 70677,70833,70703
 2.8000e+000 71199 -8.9802e+001 -4.1430e+002  3.1523e+001 69698 71222,71052,71026
 2.8000e+000 71176 -1.0727e+002 -3.5281e+002  3.5681e+001 69698 71294,71222,71026
 2.8000e+000 71153 -1.3271e+002 -3.1949e+002 -8.6093e+001 69698 71294,71026,71000
 2.8000e+000 71130 -1.4266e+002 -3.2858e+002  4.4269e+001 69698 71366,71104,71078
 2.8000e+000 71248 -3.8122e+001 -2.9854e+002  1.9747e+001 69698 71078,71052,71222
 2.8000e+000 71271 -6.5980e+001 -2.9998e+002  3.7069e+001 69698 71366,71078,71222
 2.8000e+000 71320  9.2064e+001 -2.4929e+002 -4.2223e+000 69698 70974,71222,71294
 2.8000e+000 71343  1.0284e+002 -2.2013e+002 -1.1300e+002 69698 70974,71294,71000
 2.8000e+000 71392 -4.0454e+001 -3.2322e+002  5.7072e+001 69698 70974,71104,71366
 2.8000e+000 71415 -2.5352e+001 -3.3473e+002  6.1401e+001 69698 70974,71366,71222
 2.8000e+000 71516 -7.7183e+001 -5.3543e+002 -9.8816e+001 69386 71438,71490,71464
 2.8000e+000 71869 -3.2021e+001 -2.9683e+002  1.6387e+001 69188 71644,71748,71670
 2.8000e+000 71846  6.9358e+001 -2.5791e+002  6.6841e+001 69188 71644,71774,71748
 2.8000e+000 71823  2.9887e+001 -1.4826e+002  8.4330e-001 69188 71670,71748,71722
 2.8000e+000 71800 -1.2587e+002 -5.0439e+002 -5.9849e+001 69188 71670,71722,71696
 2.8000e+000 72019 -2.2584e+002 -5.6583e+002 -1.3861e+001 68990 71918,71970,71944
 2.8000e+000 71996 -2.0256e+002 -6.2753e+002  1.2723e+001 68990 71892,71970,71918
 2.8000e+000 72316 -1.2843e+001 -9.6138e+001  1.3772e-003 68586 72339,72172,72146
 2.8000e+000 72293 -1.4335e+001 -1.1211e+002 -2.1721e+000 68586 72339,72146,72120
 2.8000e+000 72270 -1.6528e+001 -8.6061e+001 -3.9007e+000 68586 72411,72068,72198
 2.8000e+000 72247 -1.4414e+001 -3.4764e+001  2.1912e+001 68586 72042,72198,72068
 2.8000e+000 72224 -4.6398e+001 -1.5733e+002 -3.9707e+000 68586 72068,72120,72094
 2.8000e+000 72365 -1.0989e+001 -9.3070e+001  4.8073e+000 68586 72198,72172,72339
 2.8000e+000 72388 -1.0640e+001 -9.2467e+001 -1.4456e+000 68586 72411,72198,72339
 2.8000e+000 72437 -2.2506e+001 -9.2488e+001  2.4838e+000 68586 72120,72068,72411
 2.8000e+000 72460 -1.7648e+001 -1.0178e+002  4.5888e+000 68586 72120,72411,72339
 2.8000e+000 72864  1.6296e+001 -2.2991e+002  2.5415e+000 68388 72642,72694,72668
 2.8000e+000 72841 -1.9037e+001 -3.1217e+002  1.0608e+001 68388 72616,72694,72642
 2.8000e+000 72818  2.1140e+001 -2.2569e+002  2.1805e+001 68388 72616,72720,72694
 2.8000e+000 72795 -4.0946e+001 -3.8303e+002  4.4647e+001 68388 72590,72720,72616
 2.8000e+000 72772  8.2246e+001 -2.6473e+002  1.2723e+002 68388 72590,72746,72720
 2.8000e+000 73321 -3.0640e+001 -9.4180e+001  5.7287e+000 68048 73073,73203,73177
 2.8000e+000 73298 -5.0142e+001 -9.6069e+001  1.2972e+001 68048 73047,73203,73073
 2.8000e+000 73275  2.3853e+001 -1.7044e+002 -2.0223e+000 68048 73125,73177,73151
 2.8000e+000 73252 -1.4307e+001 -1.7469e+002  1.1597e+001 68048 73073,73177,73125
 2.8000e+000 73229 -1.9750e+001 -1.7450e+002  9.0313e+000 68048 73073,73125,73099
 2.8000e+000 73640 -4.3312e+001 -3.6502e+002 -1.5277e+001 67850 73444,73496,73470
 2.8000e+000 73617 -4.2459e+001 -3.4721e+002 -1.9775e+001 67850 73418,73496,73444
 2.8000e+000 73594 -4.6092e+001 -3.4541e+002 -1.7092e+000 67850 73392,73496,73418
 2.8000e+000 73571 -1.0847e+002 -3.8648e+002 -2.5861e+001 67850 73392,73522,73496
 2.8000e+000 73548 -1.9499e+002 -5.2760e+002  2.7267e+001 67850 73366,73522,73392
 2.8000e+000 73790 -8.7352e+001 -2.8214e+002 -3.8624e+000 67602 73689,73741,73715
 2.8000e+000 73767 -5.1057e+001 -2.0935e+002  9.3714e+000 67602 73663,73741,73689
 2.8000e+000 74040 -5.7045e+001 -2.6985e+002 -1.6624e+001 67290 73841,73945,73919
 2.8000e+000 74017  5.1292e+001 -2.3317e+002 -5.4831e+001 67290 73815,73945,73841
 2.8000e+000 73994 -8.6226e+000 -1.6256e+002 -2.7393e+000 67290 73841,73919,73867
 2.8000e+000 73971 -1.3120e+001 -1.8400e+002  1.7203e+001 67290 73867,73919,73893
 2.8000e+000 74143 -1.4936e+001 -7.4070e+001 -3.5359e+000 67092 74065,74117,74091
 2.8000e+000 74415 -1.0466e+002 -5.4572e+002 -1.0572e+002 66894 74190,74294,74216
 2.8000e+000 74392 -2.7061e+001 -5.0077e+002 -4.3450e+001 66894 74190,74320,74294
 2.8000e+000 74369 -2.4043e+000 -2.9273e+002 -8.9077e+001 66894 74216,74294,74242
 2.8000e+000 74346 -8.2801e+001 -4.4165e+002 -5.4430e+001 66894 74242,74294,74268
 2.8000e+000 75023  5.2293e+002 -1.7679e+002 -1.5127e+002 66532 74654,74836,74810
 2.8000e+000 75000 -1.4347e+002 -2.0543e+002 -1.6541e+002 66532 74628,74836,74654
 2.8000e+000 74977  2.2921e+001 -1.1549e+002 -4.0000e+000 66532 74706,74784,74732
 2.8000e+000 74954  2.5310e+001 -1.5384e+002  4.9202e+000 66532 74680,74784,74706
 2.8000e+000 74931  2.1586e+002 -8.8493e+001  3.1752e+001 66532 74680,74810,74784
 2.8000e+000 74908 -1.5311e+001 -1.9351e+002 -1.3432e+002 66532 74654,74810,74680
 2.8000e+000 74885 -1.9245e+002 -2.9090e+002 -2.0734e+002 66532 74602,74836,74628
 2.8000e+000 74862 -1.8853e+000 -1.0877e+002  9.1116e+000 66532 74732,74784,74758
 2.8000e+000 75222 -5.9983e+000 -3.2878e+002 -7.9127e+000 66242 75072,75150,75124
 2.8000e+000 75199 -3.1586e+001 -3.0567e+002 -1.1390e+000 66242 75046,75150,75072
 2.8000e+000 75176  1.1944e+001 -2.5503e+002 -7.7808e+000 66242 75072,75124,75098
 2.8000e+000 75470 -6.0806e+001 -1.8216e+002 -5.2375e+001 65838 75297,75375,75349
 2.8000e+000 75447  1.2061e+001 -2.3555e+002 -1.8689e+001 65838 75271,75375,75297
 2.8000e+000 75424 -2.1523e+001 -1.5621e+002 -3.9637e+001 65838 75297,75349,75323
 2.8000e+000 75401 -1.9074e+001 -2.3413e+002  1.9264e+001 65838 75245,75375,75271
 2.8000e+000 75671 -4.4619e+001 -1.5097e+002 -6.2054e+001 65640 75495,75573,75521
 2.8000e+000 75648 -1.0758e+001 -1.5569e+002 -2.4835e+001 65640 75495,75599,75573
 2.8000e+000 75625 -5.4553e+001 -1.8935e+002 -8.6056e+001 65640 75521,75573,75547
 2.8000e+000 75872 -5.6706e+001 -9.7012e+001 -5.5615e+001 65300 75895,75748,75722
 2.8000e+000 75849  1.0339e+001 -1.7764e+002 -1.0647e+002 65300 75895,75722,75696
 2.8000e+000 75826 -7.3070e+001 -1.6179e+002 -1.0781e+002 65300 75967,75774,75748
 2.8000e+000 75921 -5.8678e+001 -1.5329e+002 -7.2405e+001 65300 75967,75748,75895
 2.8000e+000 75944 -7.6431e+001 -3.2817e+002 -6.7524e+001 65300 75800,75895,75696
 2.8000e+000 75993 -1.3587e+002 -1.5080e+002 -1.0474e+002 65300 75800,75774,75967
 2.8000e+000 76016 -1.3102e+002 -1.6206e+002 -7.8034e+001 65300 75800,75967,75895
 2.8000e+000 76371 -4.3178e+001 -1.2674e+002 -5.1455e-001 64896 76146,76250,76172
 2.8000e+000 76348 -3.5478e+001 -1.1539e+002 -6.1988e+000 64896 76146,76276,76250
 2.8000e+000 76325 -5.0734e+001 -1.1584e+002  2.1715e+000 64896 76172,76250,76198
 2.8000e+000 76302 -6.8251e-001 -9.0867e+001  1.0925e+001 64896 76198,76250,76224
 2.8000e+000 76570 -3.1858e+001 -1.7205e+002 -5.6233e+001 64442 76446,76498,76472
 2.8000e+000 76547 -3.0596e+001 -1.2695e+002 -2.5816e+001 64442 76420,76498,76446
 2.8000e+000 76524 -3.2607e+001 -1.7974e+002 -1.3286e+001 64442 76394,76498,76420
 2.8000e+000 76999 -2.9999e+001 -2.7169e+002  1.3819e+001 63924 77022,76728,76702
 2.8000e+000 76976 -5.5418e+001 -2.0144e+002 -6.1901e+001 63924 77022,76702,76832
 2.8000e+000 76953  4.7454e+000 -3.0057e+002  7.6545e+001 63924 76728,76806,76754
 2.8000e+000 76930 -8.1367e+001 -1.3993e+002  4.4567e+001 63924 76676,76832,76702
 2.8000e+000 76907 -8.4331e+001 -3.7070e+002  4.5119e+001 63924 76754,76806,76780
 2.8000e+000 76884 -1.3210e+001 -1.7227e+002  2.5012e+001 63924 76676,76858,76832
 2.8000e+000 77048 -1.1046e+001 -3.6700e+002 -8.4146e+000 63924 76806,76728,77022
 2.8000e+000 77071 -4.9824e+001 -3.1309e+002 -8.6801e+001 63924 76806,77022,76832
 2.8000e+000 77449 -3.5543e+001 -1.7766e+002  3.9762e+001 63320 77472,77253,77201
 2.8000e+000 77426 -5.9605e+001 -2.0567e+002  1.9810e+001 63320 77472,77201,77175
 2.8000e+000 77403 -4.1809e+001 -2.0898e+002 -1.5731e+001 63320 77175,77305,77279
 2.8000e+000 77380 -1.2779e+001 -9.6937e+001 -2.8699e+001 63320 77201,77253,77227
 2.8000e+000 77357 -2.8954e+000 -1.9168e+002 -1.9965e+001 63320 77175,77331,77305
 2.8000e+000 77498 -1.0773e+001 -2.1997e+002  1.6773e+001 63320 77279,77253,77472
 2.8000e+000 77521 -4.4734e+001 -2.3715e+002 -6.7136e+000 63320 77279,77472,77175
 2.8000e+000 77769 -9.4622e+001 -3.5258e+002  4.2316e+001 62816 77570,77622,77596
 2.8000e+000 77746 -1.5204e+002 -3.2379e+002  7.1948e+001 62816 77570,77648,77622
 2.8000e+000 77723 -1.8946e+001 -2.4115e+002 -1.4421e+001 62816 77570,77674,77648
 2.8000e+000 77700 -5.5158e+001 -1.6652e+002  3.2100e+001 62816 77544,77674,77570
 2.8000e+000 78149 -4.5240e+001 -2.1485e+002 -1.5940e+001 62354 77953,78031,78005
 2.8000e+000 78126 -8.3657e+001 -2.3808e+002 -2.9863e+001 62354 77901,78031,77953
 2.8000e+000 78103 -5.0491e+000 -2.0020e+002  3.6615e+001 62354 77875,78031,77901
 2.8000e+000 78080 -1.1446e+001 -3.0691e+002 -1.0577e+002 62354 77901,77953,77927
 2.8000e+000 78057 -9.6840e+001 -2.1748e+002 -2.2004e+001 62354 77953,78005,77979
 2.8000e+000 78606  3.1281e+001 -1.2094e+002  6.2344e+001 61950 78384,78436,78410
 2.8000e+000 78583  2.1785e+001 -1.9246e+002 -3.4863e+001 61950 78358,78436,78384
 2.8000e+000 78560 -2.5337e+001 -1.5520e+002 -5.5866e+001 61950 78358,78488,78436
 2.8000e+000 78537 -4.4515e+001 -2.7597e+002 -7.4459e+001 61950 78436,78488,78462
 2.8000e+000 78514 -2.0050e+001 -1.1697e+002 -3.6026e+001 61950 78332,78488,78358
 2.8000e+000 78756 -2.5927e+000 -2.5660e+002  6.5998e-001 61339 78779,78655,78629
 2.8000e+000 78733 -1.8163e+001 -2.8762e+002  7.8191e+000 61339 78779,78629,78707
 2.8000e+000 78805 -4.3219e+001 -2.9001e+002  2.6586e+001 61339 78851,78779,78681
 2.8000e+000 78828 -2.9847e+000 -2.6605e+002  1.6573e+001 61339 78681,78779,78707
 2.8000e+000 78877 -1.5233e+001 -2.2035e+002  1.3130e+001 61339 78655,78779,78851
 2.8000e+000 79206 -4.1190e+001 -1.3864e+002 -4.2225e+001 60892 79229,79007,78981
 2.8000e+000 79183 -1.7915e+001 -2.9889e+001  1.2860e+001 60892 79229,78981,79111
 2.8000e+000 79160 -2.5389e+001 -1.8808e+002 -4.1224e+001 60892 79301,79033,79007
 2.8000e+000 79137 -3.8973e+001 -1.2565e+002  7.8212e+001 60892 79033,79085,79059
 2.8000e+000 79255 -4.3257e+001 -1.4508e+002 -7.5287e+001 60892 79301,79007,79229
 2.8000e+000 79278 -6.2560e+001 -1.2038e+002 -4.9925e+001 60892 79085,79229,79111
 2.8000e+000 79327 -8.1717e+001 -2.9558e+002 -5.1957e+000 60892 79085,79033,79301
 2.8000e+000 79350 -4.5496e+001 -2.1903e+002 -5.8557e+001 60892 79085,79301,79229
 2.8000e+000 79647 -1.7365e+002 -4.1880e+002 -3.8651e+001 60488 79451,79529,79503
 2.8000e+000 79624 -1.2684e+002 -3.2929e+002 -6.3926e+001 60488 79425,79529,79451
 2.8000e+000 79601 -1.2282e+002 -3.3586e+002 -6.6411e+001 60488 79373,79529,79425
 2.8000e+000 79578 -9.6759e+001 -3.7995e+002 -3.4799e+001 60488 79373,79425,79399
 2.8000e+000 79555 -3.1083e+001 -2.7492e+002  1.8755e+001 60488 79451,79503,79477
 2.8000e+000 79870 -7.5779e+001 -2.7176e+002  1.0522e+001 60026 79720,79798,79772
 2.8000e+000 79847  5.8543e+001 -2.7641e+002  3.5070e+000 60026 79694,79798,79720
 2.8000e+000 79824  5.9023e+001 -2.2727e+002 -2.0082e+001 60026 79720,79772,79746
 2.8000e+000 80120 -8.9936e+001 -2.0930e+002 -7.4610e+000 59629 79921,80025,79973
 2.8000e+000 80097 -8.3636e+001 -1.4382e+002  3.0491e+001 59629 79895,80025,79921
 2.8000e+000 80074 -6.0628e+001 -1.4754e+002 -1.9228e+001 59629 79973,80025,79999
 2.8000e+000 80051 -6.8345e+001 -1.7661e+002 -1.9456e+001 59629 79921,79973,79947
 2.8000e+000 80321  6.9963e+001 -2.4600e+002 -1.3027e+001 59125 80344,80171,80145
 2.8000e+000 80298  2.8397e+001 -2.8926e+002  7.3866e+000 59125 80344,80145,80249
 2.8000e+000 80275 -2.4273e+001 -1.7994e+002  2.3575e+001 59125 80197,80249,80223
 2.8000e+000 80370  1.5409e+001 -2.2219e+002  2.5958e+001 59125 80197,80171,80344
 2.8000e+000 80393 -2.2208e+001 -2.5947e+002  4.4925e+001 59125 80197,80344,80249
 2.8000e+000 80952 -2.3561e+001 -3.4520e+002  6.9189e+001 58557 80975,80632,80606
 2.8000e+000 80929 -1.5777e+001 -9.5971e+001  3.0463e-001 58557 81119,80975,80606
 2.8000e+000 80906 -9.0521e+001 -3.2150e+002 -6.1718e+001 58557 81047,80684,80632
 2.8000e+000 80883 -1.9508e+001 -1.0882e+002 -6.2683e+001 58557 81119,80606,80580
 2.8000e+000 80860 -2.5141e+001 -5.0982e+002  1.6160e+001 58557 81191,80736,80710
 2.8000e+000 80837 -5.3346e+001 -3.6877e+002 -4.7416e+001 58557 80736,80788,80762
 2.8000e+000 80814 -6.5261e+001 -1.6234e+002 -7.0573e+001 58557 80632,80684,80658
 2.8000e+000 81001 -2.3721e+001 -3.7936e+002 -1.5291e+001 58557 81047,80632,80975
 2.8000e+000 81024  3.2630e+001 -3.4450e+002  2.6264e+001 58557 81191,80710,80975
 2.8000e+000 81073 -3.0892e+001 -2.4095e+002 -2.6684e+001 58557 80710,80684,81047
 2.8000e+000 81096  5.3115e+001 -2.9767e+002  2.0226e+001 58557 80710,81047,80975
 2.8000e+000 81145 -5.2182e+001 -1.7913e+002 -4.9904e+000 58557 80788,80975,81119
 2.8000e+000 81168 -4.4358e+001 -1.7473e+002 -6.0116e+001 58557 80788,81119,80580
 2.8000e+000 81217 -4.6030e+001 -3.5109e+002 -4.7223e+001 58557 80788,80736,81191
 2.8000e+000 81240 -4.2198e+001 -2.8358e+002 -5.6942e+001 58557 80788,81191,80975
 2.8000e+000 81537 -1.1590e+001 -2.8985e+002  4.5688e+000 57881 81560,81341,81289
 2.8000e+000 81514 -9.7215e+001 -3.2763e+002  4.6169e+001 57881 81560,81289,81263
 2.8000e+000 81491 -1.0304e+002 -2.6407e+002 -1.9079e+001 57881 81632,81419,81367
 2.8000e+000 81468 -9.6605e+001 -2.6002e+002 -5.0124e+001 57881 81367,81419,81393
 2.8000e+000 81445  2.9985e-001 -2.7428e+002 -7.9429e-001 57881 81289,81341,81315
 2.8000e+000 81586 -2.9052e+001 -2.2172e+002 -6.3874e+001 57881 81367,81341,81560
 2.8000e+000 81609 -9.1584e+001 -2.9630e+002 -3.2600e+001 57881 81632,81367,81560
 2.8000e+000 81658 -7.6808e+001 -2.1096e+002 -7.7125e+000 57881 81263,81419,81632
 2.8000e+000 81681 -6.7989e+001 -2.5478e+002 -1.8885e+001 57881 81263,81632,81560
 2.8000e+000 81929 -8.2213e+001 -2.3052e+002  1.3204e+000 57477 81704,81808,81782
 2.8000e+000 81906 -2.8986e+001 -3.0714e+002  3.4048e+001 57477 81704,81834,81808
 2.8000e+000 81883 -1.0714e+002 -2.6237e+002  1.6929e+001 57477 81704,81782,81730
 2.8000e+000 81860 -5.5740e+001 -2.3806e+002  4.8605e+000 57477 81730,81782,81756
 2.8000e+000 82488  1.1229e+000 -3.1050e+002 -1.0833e+001 56966 82583,82511,82194
 2.8000e+000 82465 -2.8667e+000 -2.6843e+002  1.5302e+001 56966 82511,82116,82324
 2.8000e+000 82442 -2.4926e+000 -3.5307e+002  1.5477e+000 56966 82583,82194,82168
 2.8000e+000 82419 -6.7812e+000 -3.0642e+002  4.4552e+001 56966 82194,82246,82220
 2.8000e+000 82396 -4.7564e+001 -3.5014e+002 -2.0300e+001 56966 82194,82298,82246
 2.8000e+000 82373 -3.7196e+001 -3.0214e+002 -1.4889e+001 56966 82246,82298,82272
 2.8000e+000 82350 -8.3972e+000 -4.2718e+002 -3.9384e+001 56966 82116,82168,82142
 2.8000e+000 82537  3.8100e+000 -2.7156e+002  3.4282e+000 56966 82298,82194,82511
 2.8000e+000 82560  6.1505e+001 -1.7118e+002  5.6909e+001 56966 82298,82511,82324
 2.8000e+000 82609 -7.6570e+000 -2.6248e+002 -1.4197e+001 56966 82116,82511,82583
 2.8000e+000 82632 -9.5640e-001 -2.9504e+002 -6.4702e+000 56966 82116,82583,82168
 2.8000e+000 83236 -1.1048e+001 -1.9075e+002 -4.2583e+001 56304 82893,82945,82919
 2.8000e+000 83213 -4.9355e+001 -2.5292e+002  3.0542e+001 56304 83259,82945,82893
 2.8000e+000 83190 -4.2811e+001 -2.7110e+002  2.0724e+001 56304 83259,82893,83049
 2.8000e+000 83167 -5.9566e+001 -2.7749e+002  2.2494e+001 56304 82971,83049,83023
 2.8000e+000 83144 -6.3740e+001 -3.1066e+002  1.1953e+001 56304 82815,83049,82893
 2.8000e+000 83121 -8.7150e+001 -3.9573e+002  1.3200e+001 56304 82815,82893,82867
 2.8000e+000 83098 -6.6022e+001 -3.9900e+002  1.4581e+001 56304 82971,83023,82997
 2.8000e+000 83075 -1.3142e+002 -3.7915e+002 -3.0568e+001 56304 82815,82867,82841
 2.8000e+000 83285 -6.5285e+001 -2.7929e+002  3.7244e+001 56304 82971,82945,83259
 2.8000e+000 83308 -4.8092e+001 -2.7815e+002  2.3204e+001 56304 82971,83259,83049
 2.8000e+000 83556 -1.5579e+002 -4.1981e+002 -3.1568e+001 55964 83357,83461,83435
 2.8000e+000 83533 -1.4202e+002 -2.8984e+002  2.8614e+001 55964 83331,83461,83357
 2.8000e+000 83510 -6.2775e+001 -4.7553e+002  4.7563e+001 55964 83357,83435,83383
 2.8000e+000 83487 -8.3401e+001 -5.3981e+002  1.9711e+001 55964 83383,83435,83409
 2.8000e+000 83706  2.3206e+001 -2.3086e+002  1.3160e+001 55503 83579,83631,83605
 2.8000e+000 83683 -2.7235e+001 -2.7279e+002  3.1356e+001 55503 83579,83657,83631
 2.8000e+000 83907 -3.0984e+001 -2.5792e+002  3.8054e+001 55156 83757,83835,83809
 2.8000e+000 83884 -8.6240e+000 -1.9154e+002  6.4922e+001 55156 83731,83835,83757
 2.8000e+000 83861 -2.2931e+001 -1.4265e+002  6.9383e+001 55156 83757,83809,83783
 2.8000e+000 84240 -3.3203e+001 -3.1719e+002  6.2846e+000 54652 84093,84145,84119
 2.8000e+000 84217 -2.2505e+001 -1.8387e+002  4.0430e+000 54652 84041,84145,84093
 2.8000e+000 84194 -2.6367e+001 -3.0342e+002  5.0024e+001 54652 84015,84145,84041
 2.8000e+000 84171 -4.6974e-001 -1.7097e+002  1.7387e+001 54652 84041,84093,84067
 2.8000e+000 84618 -1.1167e+002 -3.5466e+002  3.6767e+001 53926 84396,84500,84474
 2.8000e+000 84595 -1.7904e+002 -4.8733e+002  9.1803e+000 53926 84344,84500,84396
 2.8000e+000 84572 -1.3484e+002 -3.8479e+002  4.2798e+000 53926 84344,84396,84370
 2.8000e+000 84549 -9.4419e+001 -3.3850e+002  1.2864e+001 53926 84396,84474,84422
 2.8000e+000 84526 -1.4232e+002 -2.4941e+002  1.3928e+001 53926 84422,84474,84448
 2.8000e+000 85350 -1.2629e+002 -4.0330e+002 -7.9864e+001 53586 85373,84880,85088
 2.8000e+000 85327 -1.3047e+002 -4.0533e+002 -7.9411e+001 53586 84880,85114,85088
 2.8000e+000 85304 -8.0029e+001 -3.3589e+002  2.9070e+001 53586 85373,85088,85062
 2.8000e+000 85281 -8.3942e+001 -2.2374e+002 -7.2017e+001 53586 85010,85062,85036
 2.8000e+000 85258 -8.7476e+001 -2.3962e+002 -3.5350e+001 53586 85445,85010,84958
 2.8000e+000 85235 -2.5563e+001 -1.8347e+002  2.9555e+001 53586 85445,84958,84906
 2.8000e+000 85212 -4.9575e+001 -2.4073e+002 -4.7743e+001 53586 84958,85010,84984
 2.8000e+000 85189 -6.2355e+001 -4.0299e+002  3.4442e+001 53586 84906,84958,84932
 2.8000e+000 85166 -6.2375e+001 -2.7445e+002 -1.5205e+002 53586 84880,85140,85114
 2.8000e+000 85399 -8.6510e+001 -2.3578e+002 -1.9878e+001 53586 84906,84880,85373
 2.8000e+000 85422 -6.0121e+001 -2.1817e+002  5.4792e+001 53586 85517,85373,85062
 2.8000e+000 85471 -2.2908e+001 -8.9844e+001 -4.5890e+001 53586 85062,85010,85445
 2.8000e+000 85494 -6.4343e+001 -1.5375e+002  4.5703e+001 53586 85517,85062,85445
 2.8000e+000 85543 -5.6050e+001 -3.1746e+002  4.7544e+001 53586 84906,85373,85517
 2.8000e+000 85566 -6.6277e+001 -2.6016e+002  4.6658e+001 53586 84906,85517,85445
 2.8000e+000 86072 -1.4286e+001 -2.6466e+002 -2.1168e+001 53182 86095,85853,85775
 2.8000e+000 86049 -2.6207e+001 -1.9947e+002 -1.6505e+001 53182 86095,85775,85931
 2.8000e+000 86026 -1.3060e+001 -2.6800e+002  7.5090e+001 53182 86167,85879,85853
 2.8000e+000 86003 -1.3553e+001 -2.9690e+002 -4.2599e+001 53182 85775,85827,85801
 2.8000e+000 85980 -9.4288e+001 -3.8101e+002 -9.3063e+001 53182 85775,85853,85827
 2.8000e+000 85957 -1.5181e+001 -1.9583e+002 -1.3877e+001 53182 85749,85931,85775
 2.8000e+000 86121  1.6129e+001 -2.2051e+002 -1.4827e+000 53182 86167,85853,86095
 2.8000e+000 86144 -5.5124e+001 -2.7867e+002 -3.6967e+001 53182 85905,86095,85931
 2.8000e+000 86193 -2.8352e+001 -3.1136e+002  8.2363e+001 53182 85905,85879,86167
 2.8000e+000 86216 -4.3581e+001 -3.6579e+002  4.4901e+000 53182 85905,86167,86095
 2.8000e+000 86673 -3.5701e+001 -2.3123e+002 -5.4829e+001 52778 86477,86529,86503
 2.8000e+000 86650 -6.7528e+001 -2.6749e+002 -3.0556e+001 52778 86425,86529,86477
 2.8000e+000 86627 -3.0284e+001 -2.3653e+002 -4.6660e+001 52778 86425,86477,86451
 2.8000e+000 86604 -1.2430e+002 -1.9489e+002 -2.8956e+001 52778 86399,86529,86425
 2.8000e+000 86581 -1.7924e+002 -2.5308e+002  3.8557e+001 52778 86399,86555,86529
 2.8000e+000 87258 -7.4681e+001 -5.1941e+002 -9.1707e+001 52238 87281,86987,86961
 2.8000e+000 87235 -2.9605e+001 -3.9768e+002  3.3002e+001 52238 87281,86961,87117
 2.8000e+000 87212 -5.2795e+001 -2.2579e+002  1.7640e+001 52238 86935,87117,86961
 2.8000e+000 87189  2.0716e+001 -2.4610e+002  4.2017e+001 52238 87065,87117,87091
 2.8000e+000 87166 -2.4577e+001 -2.0558e+002 -4.0924e+001 52238 86987,87065,87039
 2.8000e+000 87143 -1.0031e+002 -1.1214e+002 -1.2864e+002 52238 86987,87039,87013
 2.8000e+000 87307  1.9198e+001 -2.9961e+002 -6.6162e+001 52238 87065,86987,87281
 2.8000e+000 87330 -1.8125e+000 -3.2543e+002  5.8283e+001 52238 87065,87281,87117
 2.8000e+000 87610  1.4521e+001 -1.7715e+002  9.6364e-002 51834 87434,87512,87460
 2.8000e+000 87587 -1.2856e+000 -1.7451e+002  2.1735e+001 51834 87434,87538,87512
 2.8000e+000 87564  3.0129e+000 -1.5662e+001  1.9890e-001 51834 87633,87460,87512
 2.8000e+000 87659  2.9247e+000 -1.5704e+001  1.9488e-001 51834 87486,87460,87633
 2.8000e+000 88187 -9.3149e+001 -4.5723e+002 -5.2684e+001 51266 87864,87942,87890
 2.8000e+000 88164  2.0669e+001 -2.3432e+002 -7.3659e+000 51266 87864,88020,87942
 2.8000e+000 88141 -3.1593e+001 -2.5991e+002 -1.5952e+001 51266 87942,88020,87968
 2.8000e+000 88118 -4.1128e+001 -4.4833e+002 -8.3472e+000 51266 87864,88046,88020
 2.8000e+000 88095 -4.3594e+000 -2.0623e+002 -3.1926e+000 51266 87968,88020,87994
 2.8000e+000 88072 -3.1100e+001 -3.9112e+002 -8.6883e+001 51266 87890,87942,87916
 2.8000e+000 88644 -1.1604e+002 -1.5422e+002 -4.3307e+001 50754 88370,88500,88396
 2.8000e+000 88621 -1.3130e+002 -2.9091e+002 -1.0419e+001 50754 88370,88526,88500
 2.8000e+000 88598 -1.0105e+002 -2.5567e+002 -2.0556e+002 50754 88396,88500,88422
 2.8000e+000 88575 -1.1759e+002 -4.3755e+002 -1.5612e+002 50754 88422,88500,88474
 2.8000e+000 88552 -1.0450e+002 -3.1521e+002  1.3092e+002 50754 88422,88474,88448
 2.8000e+000 88914 -6.0974e+001 -3.5709e+002  1.9957e+001 50442 88715,88793,88741
 2.8000e+000 88891 -3.5831e+001 -3.7977e+002  1.8574e+001 50442 88715,88819,88793
 2.8000e+000 88868 -1.2514e+001 -3.9123e+002  1.3739e+001 50442 88689,88819,88715
 2.8000e+000 88845 -1.0216e+002 -3.4586e+002  7.9275e+001 50442 88741,88793,88767
 2.8000e+000 89294 -5.1102e+001 -3.8681e+002  2.5126e+001 49938 89317,89046,89020
 2.8000e+000 89271 -5.9239e+001 -3.8359e+002  2.9590e+001 49938 89317,89020,89150
 2.8000e+000 89248 -1.3890e+002 -3.9177e+002  8.8815e+000 49938 89072,89150,89098
 2.8000e+000 89225 -6.8729e+001 -4.4253e+002  9.6354e+001 49938 89020,89176,89150
 2.8000e+000 89202 -4.8927e+001 -3.0703e+002 -4.4336e+001 49938 89098,89150,89124
 2.8000e+000 89343 -7.5748e+001 -3.9780e+002  1.3342e+001 49938 89072,89046,89317
 2.8000e+000 89366 -6.4652e+001 -3.8359e+002  3.0369e+001 49938 89072,89317,89150
 2.8000e+000 89823 -1.2870e+001 -1.4368e+002 -1.8234e+000 49384 89601,89705,89679
 2.8000e+000 89800 -3.3836e+001 -1.4073e+002 -2.9651e+001 49384 89549,89705,89601
 2.8000e+000 89777 -3.1750e+001 -1.9565e+002 -2.4500e+001 49384 89549,89601,89575
 2.8000e+000 89754 -7.8775e+001 -1.2607e+002  2.9864e+000 49384 89601,89679,89627
 2.8000e+000 89731 -7.5572e+001 -1.4609e+002 -2.4268e+001 49384 89627,89679,89653
 2.8000e+000 90329  3.1370e+001 -2.5286e+002 -4.3817e+001 48894 90058,90110,90084
 2.8000e+000 90306 -7.9163e+001 -3.0139e+002 -7.0377e+001 48894 90058,90162,90110
 2.8000e+000 90283 -1.3066e+002 -3.2453e+002 -8.8749e+001 48894 90032,90162,90058
 2.8000e+000 90260 -1.2207e+002 -3.2826e+002 -6.7832e+001 48894 90006,90162,90032
 2.8000e+000 90237 -4.1449e+001 -4.1021e+002 -1.0286e+002 48894 90110,90162,90136
 2.8000e+000 90214 -6.5155e+001 -3.2422e+002 -4.1064e+001 48894 90006,90188,90162
 2.8000e+000 90884 -7.0649e+001 -3.2545e+002 -2.9540e+001 48490 90564,90642,90616
 2.8000e+000 90861 -1.2251e+002 -3.3867e+002 -2.6578e+001 48490 90564,90694,90642
 2.8000e+000 90838 -5.8902e+001 -3.1065e+002 -2.0779e+001 48490 90538,90694,90564
 2.8000e+000 90815 -5.9014e+001 -3.4840e+002  7.6907e-002 48490 90538,90720,90694
 2.8000e+000 90792 -4.2289e+001 -2.5563e+002 -2.9464e+001 48490 90564,90616,90590
 2.8000e+000 90769 -1.2288e+002 -4.1887e+002 -1.1662e+002 48490 90642,90694,90668
 2.8000e+000 90746 -1.3365e+001 -2.9269e+002  6.3452e+001 48490 90512,90720,90538
 2.8000e+000 91034 -1.8860e+001 -2.8203e+002  3.8732e+001 48086 91057,90959,90933
 2.8000e+000 91011 -5.6399e+000 -2.2643e+002  2.8109e+001 48086 91129,91057,90933
 2.8000e+000 91083  3.0225e+001 -2.6326e+002  3.3966e+001 48086 90985,90959,91057
 2.8000e+000 91106 -2.7078e+001 -2.5398e+002  6.6559e+000 48086 90985,91057,90907
 2.8000e+000 91155 -1.0233e+002 -2.7020e+002  1.7075e+001 48086 90907,91057,91129
 2.8000e+000 91791 -3.3737e+001 -1.8890e+002  1.0458e+002 47518 92030,91814,91523
 2.8000e+000 91768 -4.2460e+001 -2.2616e+002  3.5574e+001 47518 91958,91814,91471
 2.8000e+000 91745 -7.3873e+001 -3.3888e+002  4.7819e+001 47518 91886,91575,91523
 2.8000e+000 91722 -2.8848e+001 -1.2826e+002 -2.1550e+001 47518 91958,91471,91419
 2.8000e+000 91699 -5.0347e+001 -2.2803e+002  1.2321e+002 47518 92030,91523,91497
 2.8000e+000 91676 -1.0606e+002 -3.0657e+002  4.6588e+001 47518 91523,91575,91549
 2.8000e+000 91653 -4.5795e+001 -8.2879e+001 -1.6487e+001 47518 91419,91471,91445
 2.8000e+000 91840 -3.7595e+001 -2.7181e+002  1.0351e+002 47518 91886,91523,91814
 2.8000e+000 91863 -1.2641e+001 -1.6041e+002  3.1903e+001 47518 91601,91814,91627
 2.8000e+000 91912 -1.4124e+002 -3.7701e+002 -5.4716e+001 47518 91601,91575,91886
 2.8000e+000 91935 -1.0450e+002 -2.2618e+002  1.1717e+000 47518 91601,91886,91814
 2.8000e+000 91984  2.5965e+001 -1.4203e+002 -2.8741e+000 47518 91627,91814,91958
 2.8000e+000 92007 -5.0187e+000 -8.9179e+001 -5.1267e+001 47518 91627,91958,91419
 2.8000e+000 92056 -2.3708e+001 -1.5800e+002  8.5547e+001 47518 91471,91814,92030
 2.8000e+000 92079 -2.5850e+001 -1.8042e+002  1.0164e+002 47518 91471,92030,91497
 2.8000e+000 92229  2.2407e-001 -3.9817e-001  1.6202e+000 47128 92252,92128,92102
 2.8000e+000 92206  1.9536e+000 -2.6011e+000 -5.5336e-001 47128 92324,92252,92102
 2.8000e+000 92278  1.2667e+000  3.1248e+000  2.4148e+000 47128 92454,92252,92154
 2.8000e+000 92301  3.0019e+000 -3.4742e-001  9.7700e-003 47128 92154,92252,92180
 2.8000e+000 92350 -2.5094e-001 -1.8601e+000 -9.3247e-001 47128 92180,92252,92324
 2.8000e+000 92480  1.3601e+000  1.8046e-001  1.9542e+000 47128 92128,92252,92454
 2.8000e+000 93340 -1.1995e+002 -3.2808e+002 -4.0081e+001 46838 93363,92977,92873
 2.8000e+000 93317 -1.0619e+002 -3.2595e+002 -2.0389e+001 46838 93507,93363,92873
 2.8000e+000 93294 -6.0954e+001 -3.2467e+002 -1.0922e+001 46838 93435,93003,92977
 2.8000e+000 93271 -1.9572e+002 -3.3232e+002 -1.9308e+001 46838 93507,92873,92847
 2.8000e+000 93248 -3.0928e+001 -2.8705e+002 -2.7490e+001 46838 93579,93029,93003
 2.8000e+000 93225 -1.5062e+002 -5.2742e+002  8.7316e+001 46838 92873,92951,92925
 2.8000e+000 93202 -1.8235e+002 -3.8295e+002 -1.2466e+001 46838 92873,92977,92951
 2.8000e+000 93179 -1.8659e+001 -2.9772e+002  8.5955e+000 46838 93055,93107,93081
 2.8000e+000 93156 -6.7383e+001 -2.0604e+002  3.3815e+001 46838 92821,93107,92847
 2.8000e+000 93133 -1.2064e+002 -3.7185e+002  6.8338e+001 46838 92873,92925,92899
 2.8000e+000 93389 -7.9638e+001 -3.0919e+002 -2.9767e+000 46838 93435,92977,93363
 2.8000e+000 93412 -9.0211e+000 -3.2035e+002  8.9827e+000 46838 93055,93363,93107
 2.8000e+000 93461 -3.9635e+001 -3.0724e+002 -2.9329e+001 46838 93579,93003,93435
 2.8000e+000 93484 -5.4978e+001 -3.4259e+002 -8.6928e+000 46838 93055,93435,93363
 2.8000e+000 93533 -4.0866e+001 -3.2972e+002 -3.8275e+001 46838 93107,93363,93507
 2.8000e+000 93556 -7.3748e+001 -2.9529e+002 -3.7979e+001 46838 93107,93507,92847
 2.8000e+000 93605 -2.0605e+001 -2.9505e+002  4.5780e+000 46838 93055,93029,93579
 2.8000e+000 93628 -2.7463e+001 -3.1128e+002  3.0614e+000 46838 93055,93579,93435
 2.8000e+000 93979 -1.3505e+002 -4.0356e+002 -1.4260e+000 46476 93780,93884,93858
 2.8000e+000 93956 -1.2624e+002 -4.2580e+002  7.3528e+000 46476 93754,93884,93780
 2.8000e+000 93933 -8.1156e+001 -3.6235e+002 -8.6179e+000 46476 93806,93858,93832
 2.8000e+000 93910 -8.6986e+001 -3.8083e+002 -8.1343e+000 46476 93780,93858,93806
 2.8000e+000 94515  1.5680e+001 -1.1592e+002 -3.1665e+001 46072 94345,94397,94371
 2.8000e+000 94492 -7.5056e+001 -1.6565e+002  3.0517e+001 46072 94267,94397,94345
 2.8000e+000 94469 -4.1923e+001 -2.3966e+002  2.9912e+000 46072 94241,94397,94267
 2.8000e+000 94446 -3.9915e+001 -8.7858e+001  5.0484e+000 46072 94293,94345,94319
 2.8000e+000 94423 -8.6060e+001 -1.5750e+002  2.5901e+001 46072 94267,94345,94293
 2.8000e+000 95149 -1.1209e+002 -3.9062e+002  7.3741e+000 45346 94803,94881,94855
 2.8000e+000 95126 -6.8722e+001 -3.2867e+002 -2.2923e+001 45346 94803,94959,94881
 2.8000e+000 95103 -3.1664e+001 -3.4812e+002 -7.6831e+001 45346 95172,94933,94907
 2.8000e+000 95080 -9.3593e+001 -6.1611e+002 -5.1709e+001 45346 95172,94907,94881
 2.8000e+000 95057 -1.3277e+002 -3.1501e+002 -1.3845e+001 45346 94803,94985,94959
 2.8000e+000 95034 -1.0123e+002 -4.5007e+002 -8.3537e+000 45346 94803,94855,94829
 2.8000e+000 95011 -1.4599e+002 -3.3274e+002  1.6749e+001 45346 94777,94985,94803
 2.8000e+000 95198 -1.0909e+002 -2.2339e+002 -4.8447e+001 45346 94959,94933,95172
 2.8000e+000 95221 -8.3825e+001 -3.7217e+002 -4.4091e+001 45346 94959,95172,94881
 2.8000e+000 95776 -9.9080e+001 -3.8918e+002 -3.0472e+001 44720 95799,95560,95534
 2.8000e+000 95753 -5.2869e+001 -2.6080e+002 -6.1952e+001 44720 95799,95534,95482
 2.8000e+000 95730 -3.1715e+001 -4.1314e+002 -6.8152e+001 44720 95943,95871,95430
 2.8000e+000 95707 -4.7497e+001 -3.3451e+002 -5.1223e+001 44720 95943,95430,95404
 2.8000e+000 95684 -1.5139e+002 -2.4059e+002 -1.3498e+002 44720 95430,95482,95456
 2.8000e+000 95661 -4.7014e+001 -2.1143e+002  4.8623e+001 44720 95482,95534,95508
 2.8000e+000 95638 -5.6527e+001 -2.3095e+002 -8.2796e+001 44720 95404,95612,95586
 2.8000e+000 95825 -5.1841e+001 -5.2041e+002 -8.3442e+001 44720 95586,95560,95799
 2.8000e+000 95848 -4.4867e+000 -3.8227e+002 -7.0565e+001 44720 95871,95586,95799
 2.8000e+000 95897 -3.3985e+001 -4.2275e+002 -8.4613e+001 44720 95482,95430,95871
 2.8000e+000 95920 -3.6529e+001 -4.0550e+002 -5.1598e+001 44720 95482,95871,95799
 2.8000e+000 95969 -4.7407e+000 -3.0551e+002 -7.6638e+001 44720 95586,95871,95943
 2.8000e+000 95992 -3.6413e+001 -2.5686e+002 -4.5354e+001 44720 95586,95943,95404
 2.8000e+000 96449 -3.6848e+001 -3.1229e+002 -2.2515e+001 44202 96544,96472,96227
 2.8000e+000 96426 -3.6282e+001 -3.3377e+002  2.6823e+001 44202 96472,96175,96331
 2.8000e+000 96403 -3.4659e+001 -3.1378e+002 -2.2245e+001 44202 96544,96227,96201
 2.8000e+000 96380 -7.7416e+001 -4.0122e+002 -6.3367e+001 44202 96253,96305,96279
 2.8000e+000 96357 -1.0685e+002 -3.2029e+002 -3.6865e+001 44202 96227,96305,96253
 2.8000e+000 96498 -4.4486e+001 -2.9619e+002 -6.3194e+000 44202 96305,96227,96472
 2.8000e+000 96521  5.0119e+000 -2.4983e+002  4.8819e+001 44202 96305,96472,96331
 2.8000e+000 96570 -3.4881e+001 -3.1010e+002 -2.1687e+001 44202 96175,96472,96544
 2.8000e+000 96593 -3.3505e+001 -3.1257e+002 -2.1755e+001 44202 96175,96544,96201
 2.8000e+000 96971 -4.7026e+001 -2.8084e+002 -6.2142e+001 43754 96994,96749,96697
 2.8000e+000 96948 -1.8032e+001 -3.2516e+002 -2.8766e+001 43754 96994,96697,96853
 2.8000e+000 96925 -1.0469e+002 -2.8255e+002 -3.1457e+001 43754 96697,96749,96723
 2.8000e+000 96902 -6.0901e+001 -3.5149e+002  4.2672e+000 43754 96775,96853,96827
 2.8000e+000 96879  3.0094e+001 -4.1789e+002 -1.5209e+000 43754 96775,96827,96801
 2.8000e+000 97020 -1.7853e+001 -2.0803e+002 -6.3623e+001 43754 96775,96749,96994
 2.8000e+000 97043 -5.6291e+000 -2.8168e+002 -3.0988e+001 43754 96775,96994,96853
 2.8000e+000 97291 -6.2402e+001 -3.3845e+002 -5.5506e+001 43364 97314,97144,97118
 2.8000e+000 97268 -1.0596e+002 -2.8111e+002 -2.9697e+001 43364 97314,97118,97092
 2.8000e+000 97245 -6.3709e+001 -2.8489e+002 -1.3316e+001 43364 97386,97196,97170
 2.8000e+000 97222 -9.5494e+001 -2.3320e+002  3.3115e+001 43364 97066,97196,97092
 2.8000e+000 97340  4.9865e+001 -2.3335e+002 -1.0235e+002 43364 97170,97144,97314
 2.8000e+000 97363 -6.1901e+001 -2.5616e+002 -3.4068e+001 43364 97386,97170,97314
 2.8000e+000 97412 -7.7496e+001 -3.1898e+002 -2.1827e+000 43364 97092,97196,97386
 2.8000e+000 97435 -8.0107e+001 -3.0710e+002 -2.5668e+001 43364 97092,97386,97314
 2.8000e+000 97788 -1.1722e+001 -1.7585e+002  2.0713e+001 42960 97563,97667,97589
 2.8000e+000 97765 -4.7638e+001 -1.5139e+002  1.7667e+001 42960 97563,97693,97667
 2.8000e+000 97742  1.8356e+001 -8.8164e+001  4.6403e+000 42960 97589,97641,97615
 2.8000e+000 97719 -7.9229e-002 -1.9412e+002  7.2920e+000 42960 97589,97667,97641
 2.8000e+000 98215 -1.3744e+001 -2.6767e+002 -2.4579e-001 42563 97918,98074,98048
 2.8000e+000 98192 -7.2791e+001 -1.9445e+002  7.0911e+001 42563 97892,98074,97918
 2.8000e+000 98169 -1.0157e+002 -4.7576e+002  3.1926e+001 42563 98238,97944,97918
 2.8000e+000 98146 -7.3987e+001 -4.0727e+002  5.0351e+001 42563 98238,97918,98048
 2.8000e+000 98123 -1.0541e+002 -3.0171e+002 -4.4247e+000 42563 97944,98022,97996
 2.8000e+000 98100 -1.5400e+002 -3.7834e+002  4.8548e+001 42563 97944,97996,97970
 2.8000e+000 98264 -1.1716e+002 -4.4274e+002 -3.5449e+000 42563 98022,97944,98238
 2.8000e+000 98287 -1.0551e+002 -4.1980e+002  1.2265e+001 42563 98022,98238,98048
 2.8000e+000 98616 -3.2009e+001 -1.7008e+002 -3.2996e+001 42251 98443,98521,98469
 2.8000e+000 98593 -2.6805e+001 -1.6469e+002 -3.5582e+001 42251 98417,98521,98443
 2.8000e+000 98570 -5.7914e+001 -2.3842e+002 -4.1598e+001 42251 98391,98521,98417
 2.8000e+000 98547  2.3736e+001 -1.5239e+002 -2.5705e+001 42251 98469,98521,98495
 2.8000e+000 98886 -3.6976e+001 -4.0298e+002  3.1492e+001 41847 98661,98765,98687
 2.8000e+000 98863 -4.9408e+001 -2.0915e+002 -1.0140e+002 41847 98661,98791,98765
 2.8000e+000 98840 -8.6992e+001 -3.1645e+002  1.1101e+001 41847 98687,98765,98739
 2.8000e+000 98817 -6.1295e+001 -2.8853e+002 -1.5086e+001 41847 98687,98739,98713
 2.8000e+000 99394 -6.0826e+001 -2.3978e+002 -3.7378e+001 41236 99417,99149,99123
 2.8000e+000 99371 -1.3484e+002 -2.5011e+002 -2.6888e+001 41236 99417,99123,99097
 2.8000e+000 99348 -1.1462e+002 -1.9664e+002 -8.2230e+001 41236 99489,99201,99149
 2.8000e+000 99325 -2.4671e+001 -1.3718e+002 -4.2647e+001 41236 99149,99201,99175
 2.8000e+000 99302 -5.3826e+001 -2.9180e+002 -1.0128e+001 41236 99097,99253,99227
 2.8000e+000 99279 -1.7759e+002 -4.0051e+002 -6.2060e+001 41236 99071,99253,99097
 2.8000e+000 99443 -6.9201e+001 -2.1566e+002 -7.6268e+001 41236 99489,99149,99417
 2.8000e+000 99466 -1.0703e+002 -2.3582e+002 -5.0269e+001 41236 99227,99417,99097
 2.8000e+000 99515 -1.4019e+002 -2.1503e+002 -7.3920e+001 41236 99227,99201,99489
 2.8000e+000 99538 -1.2070e+002 -2.5354e+002 -5.9555e+001 41236 99227,99489,99417
 2.8000e+000 100044  3.8777e+001 -5.5415e+002 -1.2838e+000 40732 99721,99773,99747
 2.8000e+000 100021 -7.2001e+001 -4.5031e+002 -5.8718e+001 40732 99721,99799,99773
 2.8000e+000 99998 -7.7913e+001 -3.6195e+002 -5.1537e+001 40732 99721,99903,99799
 2.8000e+000 99975 -6.2401e+001 -2.8307e+002 -2.9438e+001 40732 100067,99877,99851
 2.8000e+000 99952 -6.0198e+001 -2.5091e+002 -2.7218e+001 40732 100067,99851,99799
 2.8000e+000 99929 -5.4667e+001 -2.4735e+002 -2.9236e+001 40732 99799,99851,99825
 2.8000e+000 100093 -5.5641e+001 -3.1161e+002 -4.2128e+001 40732 99903,99877,100067
 2.8000e+000 100116 -4.8851e+001 -2.7060e+002 -4.2834e+001 40732 99903,100067,99799
 2.8000e+000 100622 -5.6318e+001 -3.2651e+002 -4.4378e+001 40278 100645,100455,100429
 2.8000e+000 100599 -1.2028e+002 -2.7003e+002 -6.2173e+001 40278 100717,100645,100429
 2.8000e+000 100576 -1.1913e+002 -2.6923e+002  1.1792e+001 40278 100717,100429,100377
 2.8000e+000 100553 -9.4506e+001 -4.6182e+002 -1.5619e+001 40278 100789,100325,100481
 2.8000e+000 100530 -1.4988e+002 -2.5842e+002  5.1615e+001 40278 100299,100481,100325
 2.8000e+000 100507 -1.3196e+002 -3.3010e+002 -1.6944e+001 40278 100377,100429,100403
 2.8000e+000 100671 -5.3499e+001 -3.2361e+002 -4.3195e+001 40278 100481,100455,100645
 2.8000e+000 100694 -9.0220e+001 -3.9028e+002 -2.7869e+001 40278 100789,100481,100645
 2.8000e+000 100743 -7.7663e+001 -1.5521e+002 -8.5636e+001 40278 100351,100645,100717
 2.8000e+000 100766 -1.0324e+002 -1.7991e+002 -6.0340e+000 40278 100351,100717,100377
 2.8000e+000 100815 -1.2862e+002 -4.6814e+002 -1.3956e+002 40278 100351,100325,100789
 2.8000e+000 100838 -7.5871e+001 -3.0483e+002 -1.4505e+002 40278 100351,100789,100645
 2.8000e+000 101265 -4.5010e+001 -3.0177e+002  3.4663e+001 39824 101288,101046,100994
 2.8000e+000 101242 -4.4752e+001 -2.5574e+002  3.0639e+001 39824 101288,100994,100968
 2.8000e+000 101219 -5.4645e+001 -2.5746e+002  3.5481e+000 39824 100942,101124,100968
 2.8000e+000 101196 -1.0198e+002 -4.6167e+002  1.6625e+001 39824 101046,101124,101072
 2.8000e+000 101173 -1.0831e+001 -2.7656e+002  5.4846e+001 39824 100994,101046,101020
 2.8000e+000 101150 -1.0761e+002 -3.3254e+002 -4.5338e+001 39824 101072,101124,101098
 2.8000e+000 101314 -3.9148e+001 -2.7374e+002  1.6663e+001 39824 101124,101046,101288
 2.8000e+000 101337 -4.5459e+001 -2.4860e+002  7.4895e+000 39824 101124,101288,100968
 2.8000e+000 101585 -5.5833e+001 -2.9510e+002 -5.3612e+001 39070 101608,101464,101412
 2.8000e+000 101562  9.9804e+000 -3.2200e+002  1.4163e+000 39070 101608,101412,101360
 2.8000e+000 101539 -2.1112e+001 -2.5107e+002 -2.5462e+001 39070 101412,101464,101438
 2.8000e+000 101516 -4.0833e+001 -2.7992e+002  3.4351e+001 39070 101360,101412,101386
 2.8000e+000 101634 -1.0443e+002 -3.1309e+002 -5.4911e+001 39070 101490,101464,101608
 2.8000e+000 101657 -6.1683e+001 -3.5067e+002  6.6392e+000 39070 101490,101608,101360
 2.8000e+000 101856 -6.6367e+001 -2.8642e+002 -2.4532e+000 38730 101706,101758,101732
 2.8000e+000 101833 -4.8035e+001 -2.9916e+002  9.9620e-001 38730 101706,101784,101758
 2.8000e+000 101810 -9.6412e+001 -3.2830e+002 -1.2322e+001 38730 101680,101784,101706
 2.8000e+000 102106 -1.6597e+002 -3.4570e+002 -2.9256e+001 38326 101881,101959,101907
 2.8000e+000 102083 -1.2992e+002 -2.8265e+002 -4.6893e+001 38326 101881,101985,101959
 2.8000e+000 102060 -1.0529e+002 -4.0978e+002  2.7288e+001 38326 101881,102011,101985
 2.8000e+000 102037 -7.1559e+001 -2.2655e+002 -9.0722e+001 38326 101907,101959,101933
 2.8000e+000 102258 -2.8376e+001 -3.4617e+002  8.5686e+000 38036 102281,102157,102131
 2.8000e+000 102235 -3.7955e+001 -4.1913e+002  4.5342e+001 38036 102281,102131,102209
 2.8000e+000 102307 -7.0609e+001 -2.7830e+002  1.2592e+001 38036 102183,102157,102281
 2.8000e+000 102330 -6.7569e+001 -3.2546e+002  5.8891e+001 38036 102183,102281,102209
 2.8000e+000 102663 -4.0962e+001 -1.5251e+002  4.4844e-001 37596 102438,102542,102464
 2.8000e+000 102640  1.7839e+001 -1.3017e+002 -4.1775e+000 37596 102438,102568,102542
 2.8000e+000 102617 -1.5348e+001 -2.1186e+002 -4.3923e+001 37596 102490,102542,102516
 2.8000e+000 102594 -3.7602e+001 -1.6162e+002  1.0003e+000 37596 102464,102542,102490
 2.8000e+000 102862 -8.7715e+001 -2.9259e+002 -2.1135e+001 37192 102686,102764,102712
 2.8000e+000 102839 -6.0452e+001 -2.9666e+002 -6.4397e+001 37192 102686,102790,102764
 2.8000e+000 102816 -1.0105e+002 -2.5668e+002 -3.7419e+001 37192 102712,102764,102738
 2.8000e+000 103110 -3.4872e+001 -1.9924e+002 -8.3542e+001 36609 102911,102963,102937
 2.8000e+000 103087 -5.1230e+001 -2.6833e+002 -3.1528e+001 36609 102911,102989,102963
 2.8000e+000 103064 -1.0616e+001 -2.6081e+002 -3.0049e+001 36609 102885,102989,102911
 2.8000e+000 103041 -4.6489e+001 -2.0305e+002 -6.7210e+001 36609 102885,103015,102989
 2.8000e+000 103718  7.7529e+001 -6.0281e+002  2.1398e+001 36131 103323,103375,103349
 2.8000e+000 103695 -1.1998e+002 -3.3084e+002 -5.5592e+001 36131 103297,103375,103323
 2.8000e+000 103672 -7.2223e+001 -2.1285e+002 -5.1508e+001 36131 103297,103505,103375
 2.8000e+000 103649 -1.4768e+002 -3.7506e+002  3.2589e+001 36131 103741,103479,103401
 2.8000e+000 103626 -9.5194e+001 -2.5256e+002  3.2548e+001 36131 103741,103401,103375
 2.8000e+000 103603 -1.8111e+002 -4.2658e+002  1.7625e+001 36131 103401,103479,103427
 2.8000e+000 103580 -8.5106e+001 -2.5372e+002 -1.9156e+001 36131 103297,103531,103505
 2.8000e+000 103557 -1.3671e+002 -3.7472e+002 -4.9931e+001 36131 103427,103479,103453
 2.8000e+000 103767 -1.1540e+002 -4.5490e+002 -6.2345e+001 36131 103505,103479,103741
 2.8000e+000 103790 -6.8884e+001 -3.4686e+002 -5.9125e+001 36131 103505,103741,103375
 2.8000e+000 103989 -1.8396e+002 -3.9740e+002  2.0626e+001 35791 103839,103917,103891
 2.8000e+000 103966 -2.6974e+002 -4.3096e+002 -2.4205e+000 35791 103813,103917,103839
 2.8000e+000 103943 -2.0881e+001 -3.0870e+002 -1.3988e+001 35791 103839,103891,103865
 2.8000e+000 104188  2.0247e+001 -2.9964e+002 -4.0926e+001 35444 104038,104090,104064
 2.8000e+000 104165 -1.3614e+002 -3.6198e+002 -4.3934e+001 35444 104038,104116,104090
 2.8000e+000 104142 -3.0566e+001 -3.5067e+002 -1.2296e+001 35444 104012,104116,104038
 2.8000e+000 104487 -2.2785e+001 -3.1471e+002 -8.9275e+001 34990 104265,104317,104291
 2.8000e+000 104464 -4.8872e+001 -3.7337e+002 -2.6557e+001 34990 104510,104317,104265
 2.8000e+000 104441 -1.1780e+002 -2.7198e+002  1.6447e+000 34990 104510,104265,104213
 2.8000e+000 104418  3.1484e+000 -2.8567e+002 -4.7874e+001 34990 104582,104343,104317
 2.8000e+000 104395 -1.0364e+002 -2.5735e+002 -6.3677e+001 34990 104213,104265,104239
 2.8000e+000 104536  4.7803e+000 -2.8169e+002 -4.8627e+001 34990 104582,104317,104510
 2.8000e+000 104559 -8.1610e+001 -2.4141e+002 -1.2004e+001 34990 104369,104510,104213
 2.8000e+000 104608  2.2312e+001 -1.8575e+002 -8.7329e+000 34990 104369,104343,104582
 2.8000e+000 104631 -2.1065e+001 -2.9372e+002 -9.5336e+000 34990 104369,104582,104510
 2.8000e+000 104783  2.3646e+001 -1.7281e+002 -3.9091e+001 34700 104938,104806,104682
 2.8000e+000 104760 -2.7345e+001 -2.8602e+002 -5.0580e+001 34700 104938,104682,104656
 2.8000e+000 104832 -6.7337e+000 -2.1986e+002 -5.5107e+001 34700 104708,104682,104806
 2.8000e+000 104964  2.0626e+001 -1.2829e+002  5.8344e+001 34700 104734,104806,104938
 2.8000e+000 104987 -1.9020e+001 -2.1518e+002  4.9086e+001 34700 104734,104938,104656
 2.8000e+000 105137 -5.2519e+001 -2.7398e+002  1.2919e+001 34388 105036,105088,105062
 2.8000e+000 105114 -6.2124e+001 -3.7032e+002 -5.6658e+000 34388 105010,105088,105036
 2.8000e+000 105385 -1.0977e+002 -2.6747e+002 -3.2333e+001 33734 105408,105186,105160
 2.8000e+000 105362 -9.2916e+001 -2.8336e+002 -4.9223e+001 33734 105408,105160,105264
 2.8000e+000 105339 -1.7266e+002 -3.2625e+002 -2.9241e+001 33734 105160,105290,105264
 2.8000e+000 105316  8.6547e+000 -2.1188e+002 -4.7878e+001 33734 105186,105238,105212
 2.8000e+000 105434 -9.3078e+001 -2.6146e+002 -3.1148e+001 33734 105238,105186,105408
 2.8000e+000 105457 -5.2935e+001 -2.6615e+002 -4.7949e+001 33734 105238,105408,105264
 2.8000e+000 105609 -9.9036e+001 -3.6658e+002  2.3021e+001 33394 105482,105534,105508
 2.8000e+000 105586 -6.0041e+001 -3.5986e+002  2.6569e+001 33394 105482,105560,105534
 2.8000e+000 105859 -1.1900e+002 -4.6136e+002 -6.7315e+001 33047 105882,105712,105660
 2.8000e+000 105836 -6.8392e+001 -4.1416e+002 -2.9917e+001 33047 105882,105660,105634
 2.8000e+000 105813 -9.0288e+001 -5.0983e+002  1.4394e+000 33047 105660,105712,105686
 2.8000e+000 105790 -7.0915e+001 -2.6071e+002 -1.0721e+001 33047 105634,105764,105738
 2.8000e+000 105908 -2.4455e+002 -3.8606e+002 -3.5668e+001 33047 105738,105712,105882
 2.8000e+000 105931 -1.1969e+002 -3.3374e+002  1.8181e+001 33047 105738,105882,105634
 2.8000e+000 106181 -4.5949e+001 -3.2804e+002 -3.4351e+000 32543 106204,106060,106008
 2.8000e+000 106158  3.3837e+000 -4.9808e+002  1.5817e+001 32543 105956,106086,106060
 2.8000e+000 106135 -1.0485e+001 -1.6622e+002  7.7344e+001 32543 106204,106008,105982
 2.8000e+000 106112 -8.4345e+001 -1.6537e+002  4.7968e+000 32543 106008,106060,106034
 2.8000e+000 106230 -6.0750e+001 -3.9964e+002 -8.5552e+001 32543 105956,106060,106204
 2.8000e+000 106253 -7.3159e+001 -2.6371e+002 -1.5321e+001 32543 105956,106204,105982
 2.8000e+000 106454 -1.4078e+001 -2.3627e+002  5.5019e+001 31839 106304,106356,106330
 2.8000e+000 106431 -5.6541e+001 -3.2045e+002 -5.5414e+001 31839 106278,106356,106304
 2.8000e+000 106408 -8.6422e+001 -3.6203e+002 -4.0205e+001 31839 106278,106382,106356
 2.8000e+000 106704 -3.4049e+001 -2.8498e+002 -5.2290e+001 31534 106505,106583,106557
 2.8000e+000 106681 -1.0083e+002 -2.9954e+002 -4.0752e+001 31534 106479,106583,106505
 2.8000e+000 106658 -1.0194e+002 -1.9550e+002 -7.2167e+001 31534 106505,106557,106531
 2.8000e+000 106635 -1.0088e+001 -2.5879e+002 -4.9257e+001 31534 106479,106609,106583
 2.8000e+000 107108 -2.0149e+002 -3.7878e+002 -4.1215e+000 31030 106886,106990,106964
 2.8000e+000 107085 -2.2961e+002 -4.0921e+002 -1.6944e+001 31030 106860,106990,106886
 2.8000e+000 107062 -3.1411e+001 -3.5275e+002 -4.6687e+001 31030 106834,106990,106860
 2.8000e+000 107039 -1.9679e+002 -5.0345e+002  5.3504e+001 31030 106912,106964,106938
 2.8000e+000 107016 -1.8415e+002 -3.6708e+002  8.9682e+000 31030 106886,106964,106912
 2.8000e+000 107307 -5.0915e+001 -3.5872e+002 -1.9104e+001 30718 107330,107157,107131
 2.8000e+000 107284 -6.4706e+001 -3.7947e+002 -1.2716e+001 30718 107330,107131,107235
 2.8000e+000 107261 -9.4906e+001 -3.4948e+002 -4.4048e+001 30718 107183,107235,107209
 2.8000e+000 107356 -6.9462e+001 -3.2587e+002 -2.0941e+001 30718 107183,107157,107330
 2.8000e+000 107379 -8.6735e+001 -3.5155e+002 -1.3277e+001 30718 107183,107330,107235
 2.8000e+000 107759 -1.3921e+001 -2.2001e+002 -3.3106e+001 30264 107782,107615,107537
 2.8000e+000 107736 -2.6754e+001 -2.5058e+002 -1.2507e+001 30264 107782,107537,107485
 2.8000e+000 107713 -7.6023e+001 -2.9699e+002  6.5582e+000 30264 107485,107537,107511
 2.8000e+000 107690 -1.9631e+001 -2.8557e+002 -5.8163e+001 30264 107537,107615,107589
 2.8000e+000 107667 -9.0823e+000 -2.2261e+002 -2.4223e+001 30264 107537,107589,107563
 2.8000e+000 107808 -3.0355e+001 -2.3494e+002 -1.1851e+001 30264 107641,107615,107782
 2.8000e+000 107831 -3.4473e+001 -2.6453e+002  7.0219e+000 30264 107641,107782,107485
 2.8000e+000 108030 -1.0782e+002 -3.7151e+002 -7.8630e+001 29874 108053,107854,107932
 2.8000e+000 108007 -1.8213e+002 -4.0220e+002 -6.9667e+001 29874 107854,107958,107932
 2.8000e+000 107984  1.2030e+001 -2.8868e+002 -3.8400e+001 29874 108053,107932,107906
 2.8000e+000 108079 -1.6626e+002 -2.7129e+002 -3.1873e+001 29874 107880,107854,108053
 2.8000e+000 108102 -1.1376e+002 -2.2307e+002 -9.6202e+000 29874 107880,108053,107906
 2.8000e+000 108433 -2.0228e+001 -3.5375e+002 -1.1047e+002 29484 108234,108338,108312
 2.8000e+000 108410 -2.7384e+001 -3.2433e+002 -5.2327e+001 29484 108208,108338,108234
 2.8000e+000 108387 -1.4027e+002 -3.3386e+002 -1.4267e+002 29484 108234,108312,108260
 2.8000e+000 108364  2.0536e+001 -1.0615e+002 -6.1490e+001 29484 108260,108312,108286
 2.8000e+000 108762 -8.7082e+001 -2.9405e+002  2.1265e+001 29080 108563,108641,108589
 2.8000e+000 108739 -5.9911e+001 -2.1106e+002  1.7365e+001 29080 108537,108641,108563
 2.8000e+000 108716 -9.2832e+001 -3.6822e+002  1.2893e+001 29080 108589,108641,108615
 2.8000e+000 108693  4.8873e+001 -1.7369e+002 -1.5090e+001 29080 108537,108667,108641
 2.8000e+000 109189 -7.1443e+001 -3.4457e+002 -4.7396e+001 28476 108892,108996,108970
 2.8000e+000 109166 -1.0956e+002 -3.2892e+002 -5.0442e+001 28476 108892,109022,108996
 2.8000e+000 109143 -1.6992e+002 -2.8346e+002  1.2774e+001 28476 108892,108970,108944
 2.8000e+000 109120 -1.4827e+002 -3.4353e+002 -5.4324e+001 28476 108892,109048,109022
 2.8000e+000 109097 -1.1044e+002 -1.7065e+002  3.6089e+001 28476 108892,108944,108918
 2.8000e+000 109074 -1.3488e+002 -3.6695e+002 -4.2935e+001 28476 108866,109048,108892
 2.8000e+000 109518 -1.2166e+002 -3.4215e+002  6.2534e+001 28022 109541,109371,109345
 2.8000e+000 109495 -1.3360e+002 -3.2090e+002  4.2140e+001 28022 109541,109345,109319
 2.8000e+000 109472 -1.0641e+002 -3.2295e+002  1.5520e+001 28022 109293,109397,109319
 2.8000e+000 109449 -1.2036e+001 -2.8596e+002  1.3472e+001 28022 109293,109423,109397
 2.8000e+000 109567 -6.8778e+001 -3.1870e+002  5.8095e+001 28022 109397,109371,109541
 2.8000e+000 109590 -1.1817e+002 -3.1490e+002  4.0930e+001 28022 109397,109541,109319
 2.8000e+000 109968 -4.1133e+001 -2.1740e+002  7.9709e+001 27568 109798,109850,109824
 2.8000e+000 109945 -8.1114e+001 -3.2163e+002  7.3883e+001 27568 109694,109850,109798
 2.8000e+000 109922 -1.0103e+002 -2.8090e+002  6.4965e+001 27568 109694,109798,109746
 2.8000e+000 109899 -3.1861e+001 -2.6308e+002 -2.0423e+001 27568 109746,109798,109772
 2.8000e+000 109876 -1.1612e+002 -3.2821e+002  7.2904e+001 27568 109694,109746,109720
 2.8000e+000 110167 -9.0645e+001 -3.5170e+002 -6.8571e+001 27007 110017,110095,110069
 2.8000e+000 110144 -6.4653e+000 -3.6999e+002 -5.7790e+000 27007 109991,110095,110017
 2.8000e+000 110121 -1.3186e+000 -3.0242e+002 -4.7208e+001 27007 110017,110069,110043
 2.8000e+000 110415 -1.5929e+001 -3.0658e+002 -1.6084e+001 26567 110438,110242,110190
 2.8000e+000 110392 -3.4942e+001 -3.0331e+002 -1.6564e+001 26567 110438,110190,110320
 2.8000e+000 110369 -9.9194e+001 -3.2720e+002 -3.0152e+001 26567 110242,110294,110268
 2.8000e+000 110346 -2.9142e+001 -3.0345e+002  4.6314e+001 26567 110190,110242,110216
 2.8000e+000 110464 -2.5272e+001 -3.0473e+002 -2.3253e+001 26567 110294,110242,110438
 2.8000e+000 110487 -4.1570e+001 -3.0554e+002 -2.7842e+001 26567 110294,110438,110320
 2.8000e+000 110639 -8.9992e+000 -8.6676e+001 -1.5899e+001 26170 110538,110590,110564
 2.8000e+000 110616  3.5630e-001 -5.6560e+001 -1.3352e+001 26170 110512,110590,110538
 2.8000e+000 111149 -1.4072e+002 -2.4873e+002 -7.0704e+001 25716 111172,110878,110852
 2.8000e+000 111126 -8.2232e+001 -2.6305e+002 -6.1649e+001 25716 111172,110852,111008
 2.8000e+000 111103 -7.9684e+001 -2.4910e+002 -5.6905e+001 25716 110878,110930,110904
 2.8000e+000 111080 -1.1124e+002 -2.7746e+002 -6.6309e+001 25716 110826,111008,110852
 2.8000e+000 111057 -1.1293e+002 -3.8359e+002  5.4908e+001 25716 110930,111008,110956
 2.8000e+000 111034 -7.8694e+001 -3.7662e+002  5.7193e+001 25716 110956,111008,110982
 2.8000e+000 111198 -1.0003e+002 -2.5274e+002 -5.4681e+001 25716 110930,110878,111172
 2.8000e+000 111221 -2.9406e+001 -2.5596e+002 -4.3397e+001 25716 110930,111172,111008
 2.8000e+000 111420 -8.2570e+000 -2.3022e+002 -2.0396e+001 25304 111443,111270,111244
 2.8000e+000 111397  6.7776e+000 -2.6409e+002 -2.1381e+001 25304 111443,111244,111348
 2.8000e+000 111374 -9.2270e+000 -1.8856e+002  3.3255e+001 25304 111270,111322,111296
 2.8000e+000 111469  5.5767e-001 -2.1214e+002 -1.6339e+001 25304 111322,111270,111443
 2.8000e+000 111492  2.3143e+001 -2.3730e+002 -1.3948e+001 25304 111322,111443,111348
 2.8000e+000 111691 -8.5477e+001 -2.7474e+002  3.1576e+001 24736 111567,111619,111593
 2.8000e+000 111668 -1.1978e+002 -3.6748e+002  3.1400e+001 24736 111541,111619,111567
 2.8000e+000 111645 -9.6440e+001 -3.6753e+002  2.9000e+001 24736 111515,111619,111541
 2.8000e+000 112024 -5.0597e+001 -4.2997e+002  7.3035e+001 24146 111825,111877,111851
 2.8000e+000 112001 -1.1980e+002 -4.0871e+002  6.5892e-001 24146 111825,111903,111877
 2.8000e+000 111978 -3.3280e+001 -2.5692e+002 -3.6749e+001 24146 111825,111929,111903
 2.8000e+000 111955 -6.7357e+001 -2.6185e+002 -3.4723e+001 24146 111799,111929,111825
 2.8000e+000 112370 -1.1353e+002 -5.2473e+002 -6.2605e+000 23856 112393,112151,112125
 2.8000e+000 112347 -8.7803e+001 -4.5225e+002 -3.6662e+000 23856 112465,112393,112125
 2.8000e+000 112324 -1.0211e+002 -4.3650e+002  2.7977e+001 23856 112465,112125,112073
 2.8000e+000 112301 -1.3575e+002 -4.0697e+002  3.2921e+001 23856 112073,112125,112099
 2.8000e+000 112278 -3.0060e+002 -5.7466e+002 -6.5156e+001 23856 112047,112229,112073
 2.8000e+000 112255 -6.3284e+001 -5.7550e+002 -1.3400e+002 23856 112151,112203,112177
 2.8000e+000 112419 -1.0557e+002 -4.8644e+002 -4.7250e+001 23856 112203,112151,112393
 2.8000e+000 112442 -1.2931e+002 -4.6093e+002 -4.2691e+001 23856 112203,112393,112229
 2.8000e+000 112491 -1.4706e+002 -4.8728e+002 -3.4269e+001 23856 112229,112393,112465
 2.8000e+000 112514 -1.4524e+002 -4.4892e+002  9.5688e-002 23856 112229,112465,112073
 2.8000e+000 112784 -4.5776e+000 -3.8745e+002  5.7199e+001 23494 112611,112663,112637
 2.8000e+000 112761 -5.0943e+001 -3.3697e+002  4.5124e+001 23494 112585,112663,112611
 2.8000e+000 112738 -8.1071e+001 -3.5010e+002  3.5468e+001 23494 112559,112663,112585
 2.8000e+000 112715 -3.1184e+000 -2.1257e+002 -6.1105e-001 23494 112559,112689,112663
 2.8000e+000 113117 -2.5227e+001 -1.6420e+002 -1.6892e+001 22974 112944,113022,112996
 2.8000e+000 113094 -6.3379e+001 -2.2127e+002  6.9573e+000 22974 112918,113022,112944
 2.8000e+000 113071 -3.0121e+001 -2.1891e+002 -5.9460e+001 22974 112944,112996,112970
 2.8000e+000 113048 -2.4416e+001 -1.5914e+002  3.2641e+001 22974 112892,113022,112918
 2.8000e+000 113414 -4.7189e+001 -3.1752e+002  1.3364e+001 22370 113192,113296,113218
 2.8000e+000 113391 -5.3224e+001 -3.3745e+002  8.1185e+000 22370 113140,113296,113192
 2.8000e+000 113368 -7.4364e+001 -3.7911e+002  2.3505e+001 22370 113218,113296,113270
 2.8000e+000 113345 -1.0092e+002 -3.8799e+002  6.5600e-002 22370 113218,113270,113244
 2.8000e+000 113322 -4.3295e+001 -3.3231e+002 -1.2003e+001 22370 113140,113192,113166
 2.8000e+000 113662 -3.2933e+001 -2.3350e+002  5.0674e+001 21916 113685,113515,113489
 2.8000e+000 113639 -8.8635e+001 -3.6798e+002  1.7213e+001 21916 113685,113489,113437
 2.8000e+000 113616 -1.0965e+001 -3.6791e+002  1.1869e+001 21916 113757,113567,113541
 2.8000e+000 113593 -5.4121e+001 -2.8864e+002  2.1738e+001 21916 113437,113489,113463
 2.8000e+000 113711 -9.9122e+001 -3.9835e+002  5.0601e+001 21916 113541,113515,113685
 2.8000e+000 113734 -5.2249e+001 -3.8660e+002  1.8956e+001 21916 113757,113541,113685
 2.8000e+000 113783 -6.6711e+001 -3.6811e+002  1.1139e+001 21916 113437,113567,113757
 2.8000e+000 113806 -7.4567e+001 -3.6340e+002  9.2187e+000 21916 113437,113757,113685
 2.8000e+000 114056 -1.5145e+001 -4.1842e+002 -2.2767e-001 21412 113857,113909,113883
 2.8000e+000 114033  1.8505e+001 -3.1558e+002 -1.4903e+000 21412 114079,113909,113857
 2.8000e+000 114010 -7.8233e+001 -3.4871e+002 -7.5330e+000 21412 114079,113857,113961
 2.8000e+000 113987 -9.0106e+001 -3.4728e+002 -6.8587e+000 21412 113831,113961,113857
 2.8000e+000 114105 -5.8089e+001 -3.0655e+002 -4.3794e+001 21412 113935,113909,114079
 2.8000e+000 114128 -1.2386e+002 -3.1775e+002 -4.7610e+001 21412 113935,114079,113961
 2.8000e+000 114378 -1.2371e+002 -3.5266e+002 -1.0628e+002 21022 114401,114257,114205
 2.8000e+000 114355 -1.5997e+002 -4.5228e+002 -1.0198e+002 21022 114401,114205,114179
 2.8000e+000 114332 -1.9259e+001 -5.3651e+002 -5.2354e+001 21022 114153,114283,114179
 2.8000e+000 114309 -1.3617e+002 -2.4767e+002 -6.3245e+001 21022 114205,114257,114231
 2.8000e+000 114427 -1.0829e+002 -3.9023e+002 -1.8532e+001 21022 114283,114257,114401
 2.8000e+000 114450 -1.3765e+002 -4.8145e+002 -1.6284e+001 21022 114283,114401,114179
 2.8000e+000 114651 -1.9849e+002 -4.3769e+002 -2.9006e+001 20618 114501,114553,114527
 2.8000e+000 114628 -1.8874e+002 -4.3627e+002 -2.5369e+001 20618 114501,114579,114553
 2.8000e+000 114605 -1.5491e+002 -3.7144e+002 -2.0053e+000 20618 114475,114579,114501
 2.8000e+000 114901  7.9678e+001 -3.5924e+002  2.3970e+001 20114 114676,114780,114702
 2.8000e+000 114878 -4.5782e-002 -3.8200e+002  1.5859e+001 20114 114676,114806,114780
 2.8000e+000 114855  1.7266e+002 -4.2277e+002  2.9834e+000 20114 114702,114780,114754
 2.8000e+000 114832  5.8952e+002 -3.9433e+002  1.0530e+002 20114 114702,114754,114728
 2.8000e+000 115053 -9.5812e+001 -4.1903e+002 -2.6683e+000 19460 115147,115076,114926
 2.8000e+000 115030 -9.6252e+001 -4.0489e+002 -7.3634e+000 19460 115147,114926,115004
 2.8000e+000 115102 -1.1904e+002 -4.4056e+002  1.1849e+001 19460 114952,114926,115076
 2.8000e+000 115173 -8.7425e+001 -4.5419e+002  1.7702e+000 19460 114978,115076,115147
 2.8000e+000 115196 -7.8491e+001 -4.3136e+002 -6.5041e+000 19460 114978,115147,115004
 2.8000e+000 115446 -1.1940e+002 -5.0364e+002  1.0047e+000 19006 115273,115351,115299
 2.8000e+000 115423  1.7993e+000 -4.5445e+002  2.1815e+001 19006 115247,115351,115273
 2.8000e+000 115400 -1.5250e+001 -4.6301e+002  1.2183e+001 19006 115221,115351,115247
 2.8000e+000 115377 -1.2759e+002 -5.0335e+002  8.7127e+000 19006 115299,115351,115325
 2.8000e+000 115767 -1.8385e+002 -4.5602e+002  1.0688e+001 18716 115571,115649,115623
 2.8000e+000 115744 -1.9407e+002 -4.8133e+002  8.9247e+000 18716 115493,115649,115571
 2.8000e+000 115721 -1.8885e+002 -4.6478e+002  7.3106e+000 18716 115493,115571,115545
 2.8000e+000 115698 -1.4486e+002 -4.1948e+002  6.7317e+001 18716 115493,115545,115519
 2.8000e+000 115675 -1.4360e+002 -4.4464e+002 -7.8395e-001 18716 115571,115623,115597
 2.8000e+000 116039 -8.8300e+001 -3.5179e+002  1.2377e+001 18312 115814,115892,115840
 2.8000e+000 116016 -7.6588e+001 -3.2296e+002  1.0011e+001 18312 115814,115944,115892
 2.8000e+000 115993 -9.2785e+001 -3.3666e+002  3.8165e+000 18312 115892,115944,115918
 2.8000e+000 115970 -5.3104e+000 -3.3839e+002  3.5135e+001 18312 115840,115892,115866
 2.8000e+000 116191 -3.7598e+001 -5.5544e+002  1.7142e+000 18000 116090,116142,116116
 2.8000e+000 116168 -6.9271e+000 -5.5291e+002  2.2313e+001 18000 116064,116142,116090
 2.8000e+000 116343 -2.7625e+002 -5.9325e+002 -1.7008e+001 17396 116242,116294,116268
 2.8000e+000 116320 -2.5572e+002 -5.8805e+002 -1.4961e+001 17396 116216,116294,116242
 2.8000e+000 116566 -1.5877e+002 -5.8683e+002  3.4954e+001 16942 116390,116468,116442
 2.8000e+000 116543 -1.1199e+002 -6.1051e+002  3.6099e+001 16942 116390,116494,116468
 2.8000e+000 116520 -1.9251e+002 -6.6597e+002  1.4682e+001 16942 116390,116442,116416
 2.8000e+000 116767  1.5491e+001 -3.7540e+002 -1.5889e+001 16438 116790,116643,116617
 2.8000e+000 116744 -3.0179e+001 -3.2487e+002 -1.4777e+001 16438 116790,116617,116591
 2.8000e+000 116721  4.9636e+001 -3.0554e+002 -5.3695e+001 16438 116643,116695,116669
 2.8000e+000 116816  2.0948e+001 -3.3676e+002 -3.2908e+001 16438 116695,116643,116790
 2.8000e+000 116839  4.5112e+000 -2.8297e+002 -4.9807e+001 16438 116695,116790,116591
 2.8000e+000 117062 -1.5275e+001 -4.6066e+002  8.5897e-002 16074 116886,116938,116912
 2.8000e+000 117039 -5.1120e+001 -4.9250e+002  2.5193e+001 16074 116886,116990,116938
 2.8000e+000 117016 -1.0244e+001 -3.8894e+002  4.1204e+001 16074 116938,116990,116964
 2.8000e+000 117214 -5.8534e+001 -4.9120e+002 -4.9236e+000 15649 117087,117139,117113
 2.8000e+000 117191  7.2431e+001 -4.3703e+002 -5.2270e+000 15649 117087,117165,117139
 2.8000e+000 117317 -2.3260e+002 -4.9242e+002 -4.9805e+001 421 117239,117291,117265
 2.9000e+000 70632 -3.7337e+002 -7.6538e+002 -3.9783e+001 70072 70482,70534,70508
 2.9000e+000 70609 -3.3786e+002 -6.8582e+002 -3.0273e+001 70072 70482,70560,70534
 2.9000e+000 70586 -3.1873e+002 -6.8606e+002 -1.2015e+001 70072 70456,70560,70482
 2.9000e+000 70951 -2.8577e+002 -9.8142e+002  0.0000e+000 69874 70703,70755,70729
 2.9000e+000 70928 -1.1641e+002 -9.2519e+002 -1.6636e+002 69874 70703,70781,70755
 2.9000e+000 70905  4.2771e+001 -2.7043e+002 -8.9024e+001 69874 70703,70807,70781
 2.9000e+000 70882 -1.7121e+002 -7.9631e+002 -3.3698e+001 69874 70703,70833,70807
 2.9000e+000 70859 -1.2671e+002 -8.0375e+002  3.3176e+001 69874 70677,70833,70703
 2.9000e+000 71199 -1.0397e+002 -4.7862e+002  3.8098e+001 69698 71222,71052,71026
 2.9000e+000 71176 -1.3349e+002 -4.0197e+002  4.1495e+001 69698 71294,71222,71026
 2.9000e+000 71153 -1.6415e+002 -3.6743e+002 -9.7328e+001 69698 71294,71026,71000
 2.9000e+000 71130 -1.5686e+002 -3.7328e+002  5.4191e+001 69698 71366,71104,71078
 2.9000e+000 71248 -4.0092e+001 -3.4222e+002  2.0683e+001 69698 71078,71052,71222
 2.9000e+000 71271 -7.6747e+001 -3.4279e+002  4.6191e+001 69698 71366,71078,71222
 2.9000e+000 71320  9.4480e+001 -2.8582e+002 -7.4143e-001 69698 70974,71222,71294
 2.9000e+000 71343  1.0638e+002 -2.5312e+002 -1.2426e+002 69698 70974,71294,71000
 2.9000e+000 71392 -5.0003e+001 -3.6858e+002  6.7130e+001 69698 70974,71104,71366
 2.9000e+000 71415 -3.4399e+001 -3.8023e+002  7.1441e+001 69698 70974,71366,71222
 2.9000e+000 71516 -8.7626e+001 -6.0271e+002 -1.1193e+002 69386 71438,71490,71464
 2.9000e+000 71869 -3.4167e+001 -3.4332e+002  1.8765e+001 69188 71644,71748,71670
 2.9000e+000 71846  8.0671e+001 -2.9717e+002  7.5773e+001 69188 71644,71774,71748
 2.9000e+000 71823  3.6552e+001 -1.7099e+002  1.6240e+000 69188 71670,71748,71722
 2.9000e+000 71800 -1.4481e+002 -5.8176e+002 -6.9344e+001 69188 71670,71722,71696
 2.9000e+000 72019 -2.6278e+002 -6.5675e+002 -1.4972e+001 68990 71918,71970,71944
 2.9000e+000 71996 -2.3482e+002 -7.2794e+002  1.5744e+001 68990 71892,71970,71918
 2.9000e+000 72316 -1.0328e+001 -1.1814e+002  1.5130e+000 68586 72339,72172,72146
 2.9000e+000 72293 -1.6427e+001 -1.3591e+002  2.4859e+000 68586 72339,72146,72120
 2.9000e+000 72270 -2.1239e+001 -1.0863e+002  9.8692e-001 68586 72411,72068,72198
 2.9000e+000 72247 -1.7949e+001 -5.1004e+001  3.0011e+001 68586 72042,72198,72068
 2.9000e+000 72224 -6.0334e+001 -1.9962e+002 -2.5585e+000 68586 72068,72120,72094
 2.9000e+000 72365 -1.3928e+001 -1.1657e+002  7.8547e+000 68586 72198,72172,72339
 2.9000e+000 72388 -1.3518e+001 -1.1571e+002  4.1990e+000 68586 72411,72198,72339
 2.9000e+000 72437 -2.9883e+001 -1.1575e+002  6.7988e+000 68586 72120,72068,72411
 2.9000e+000 72460 -2.2806e+001 -1.2525e+002  9.8513e+000 68586 72120,72411,72339
 2.9000e+000 72864  1.3120e+001 -2.6501e+002 -1.8242e+000 68388 72642,72694,72668
 2.9000e+000 72841 -2.7706e+001 -3.5229e+002  1.0054e+001 68388 72616,72694,72642
 2.9000e+000 72818  1.8849e+001 -2.5504e+002  2.4075e+001 68388 72616,72720,72694
 2.9000e+000 72795 -4.6720e+001 -4.2770e+002  4.7798e+001 68388 72590,72720,72616
 2.9000e+000 72772  9.1414e+001 -2.9678e+002  1.4090e+002 68388 72590,72746,72720
 2.9000e+000 73321 -3.1875e+001 -1.1748e+002  5.4215e+000 68048 73073,73203,73177
 2.9000e+000 73298 -5.5625e+001 -1.2131e+002  1.2267e+001 68048 73047,73203,73073
 2.9000e+000 73275  2.9441e+001 -2.0607e+002 -4.6089e+000 68048 73125,73177,73151
 2.9000e+000 73252 -2.0823e+001 -2.1101e+002  1.4336e+001 68048 73073,73177,73125
 2.9000e+000 73229 -3.1661e+001 -2.0950e+002  9.1823e+000 68048 73073,73125,73099
 2.9000e+000 73640 -5.8658e+001 -4.1514e+002 -1.8821e+001 67850 73444,73496,73470
 2.9000e+000 73617 -5.3027e+001 -3.9637e+002 -2.4292e+001 67850 73418,73496,73444
 2.9000e+000 73594 -5.9260e+001 -3.9826e+002 -1.8478e+000 67850 73392,73496,73418
 2.9000e+000 73571 -1.2864e+002 -4.4060e+002 -2.8440e+001 67850 73392,73522,73496
 2.9000e+000 73548 -2.2614e+002 -5.9892e+002  3.2113e+001 67850 73366,73522,73392
 2.9000e+000 73790 -1.0720e+002 -3.4136e+002 -4.2515e+000 67602 73689,73741,73715
 2.9000e+000 73767 -6.5539e+001 -2.6053e+002  1.2844e+001 67602 73663,73741,73689
 2.9000e+000 74040 -6.4200e+001 -3.2260e+002 -1.7419e+001 67290 73841,73945,73919
 2.9000e+000 74017  5.6754e+001 -2.7769e+002 -6.0411e+001 67290 73815,73945,73841
 2.9000e+000 73994 -4.6183e+000 -1.9868e+002  1.7351e+000 67290 73841,73919,73867
 2.9000e+000 73971 -1.0337e+001 -2.2526e+002  2.5637e+001 67290 73867,73919,73893
 2.9000e+000 74143 -1.4409e+001 -9.8843e+001 -3.0100e+000 67092 74065,74117,74091
 2.9000e+000 74415 -1.1884e+002 -6.0614e+002 -1.1429e+002 66894 74190,74294,74216
 2.9000e+000 74392 -3.5240e+001 -5.5800e+002 -4.8537e+001 66894 74190,74320,74294
 2.9000e+000 74369 -7.9706e+000 -3.3277e+002 -9.5821e+001 66894 74216,74294,74242
 2.9000e+000 74346 -9.4798e+001 -4.9534e+002 -5.8447e+001 66894 74242,74294,74268
 2.9000e+000 75023  5.4916e+002 -2.1277e+002 -1.6721e+002 66532 74654,74836,74810
 2.9000e+000 75000 -1.6700e+002 -2.4102e+002 -1.8109e+002 66532 74628,74836,74654
 2.9000e+000 74977  2.1431e+001 -1.3630e+002 -2.1828e+000 66532 74706,74784,74732
 2.9000e+000 74954  2.4990e+001 -1.7254e+002  7.1640e+000 66532 74680,74784,74706
 2.9000e+000 74931  2.4049e+002 -1.0425e+002  3.4790e+001 66532 74680,74810,74784
 2.9000e+000 74908 -1.5634e+001 -2.2694e+002 -1.4723e+002 66532 74654,74810,74680
 2.9000e+000 74885 -2.1729e+002 -3.3752e+002 -2.2864e+002 66532 74602,74836,74628
 2.9000e+000 74862 -2.0420e+000 -1.3069e+002  1.0199e+001 66532 74732,74784,74758
 2.9000e+000 75222 -5.3829e+000 -3.7398e+002 -9.9458e+000 66242 75072,75150,75124
 2.9000e+000 75199 -3.8577e+001 -3.4881e+002 -7.4700e-001 66242 75046,75150,75072
 2.9000e+000 75176  1.7894e+001 -2.9099e+002 -7.6372e+000 66242 75072,75124,75098
 2.9000e+000 75470 -6.9698e+001 -2.1431e+002 -5.7874e+001 65838 75297,75375,75349
 2.9000e+000 75447  1.2630e+001 -2.7230e+002 -1.9747e+001 65838 75271,75375,75297
 2.9000e+000 75424 -1.8235e+001 -1.8086e+002 -4.1741e+001 65838 75297,75349,75323
 2.9000e+000 75401 -2.0701e+001 -2.6983e+002  2.3033e+001 65838 75245,75375,75271
 2.9000e+000 75671 -4.8452e+001 -1.8255e+002 -6.9487e+001 65640 75495,75573,75521
 2.9000e+000 75648 -8.9346e+000 -1.8625e+002 -2.9613e+001 65640 75495,75599,75573
 2.9000e+000 75625 -5.9414e+001 -2.2342e+002 -9.4996e+001 65640 75521,75573,75547
 2.9000e+000 75872 -6.4107e+001 -1.1042e+002 -5.8977e+001 65300 75895,75748,75722
 2.9000e+000 75849  9.9175e+000 -2.0298e+002 -1.1722e+002 65300 75895,75722,75696
 2.9000e+000 75826 -7.9871e+001 -1.8181e+002 -1.2263e+002 65300 75967,75774,75748
 2.9000e+000 75921 -6.3937e+001 -1.7424e+002 -8.0352e+001 65300 75967,75748,75895
 2.9000e+000 75944 -8.8675e+001 -3.7827e+002 -7.4773e+001 65300 75800,75895,75696
 2.9000e+000 75993 -1.5435e+002 -1.7243e+002 -1.1800e+002 65300 75800,75774,75967
 2.9000e+000 76016 -1.4873e+002 -1.8637e+002 -8.5747e+001 65300 75800,75967,75895
 2.9000e+000 76371 -4.6561e+001 -1.4764e+002 -5.8001e-001 64896 76146,76250,76172
 2.9000e+000 76348 -3.7309e+001 -1.3275e+002 -6.5190e+000 64896 76146,76276,76250
 2.9000e+000 76325 -5.1827e+001 -1.3552e+002  1.1592e+000 64896 76172,76250,76198
 2.9000e+000 76302 -3.5941e+000 -1.1149e+002  9.5683e+000 64896 76198,76250,76224
 2.9000e+000 76570 -3.8593e+001 -1.9796e+002 -6.4845e+001 64442 76446,76498,76472
 2.9000e+000 76547 -3.7300e+001 -1.4912e+002 -3.2063e+001 64442 76420,76498,76446
 2.9000e+000 76524 -3.6297e+001 -2.0717e+002 -1.5373e+001 64442 76394,76498,76420
 2.9000e+000 76999 -2.6928e+001 -3.1352e+002  1.2699e+001 63924 77022,76728,76702
 2.9000e+000 76976 -5.7597e+001 -2.3496e+002 -7.1945e+001 63924 77022,76702,76832
 2.9000e+000 76953  1.3451e+001 -3.4360e+002  8.3896e+001 63924 76728,76806,76754
 2.9000e+000 76930 -9.0516e+001 -1.6574e+002  5.1136e+001 63924 76676,76832,76702
 2.9000e+000 76907 -9.4763e+001 -4.1781e+002  4.8178e+001 63924 76754,76806,76780
 2.9000e+000 76884 -1.0278e+001 -2.0768e+002  2.8404e+001 63924 76676,76858,76832
 2.9000e+000 77048 -7.5139e+000 -4.1964e+002 -1.2555e+001 63924 76806,76728,77022
 2.9000e+000 77071 -5.3029e+001 -3.5906e+002 -1.0032e+002 63924 76806,77022,76832
 2.9000e+000 77449 -4.5252e+001 -2.1100e+002  4.6809e+001 63320 77472,77253,77201
 2.9000e+000 77426 -6.8310e+001 -2.4392e+002  2.1665e+001 63320 77472,77201,77175
 2.9000e+000 77403 -4.5984e+001 -2.4169e+002 -1.7479e+001 63320 77175,77305,77279
 2.9000e+000 77380 -1.2053e+001 -1.1552e+002 -3.2400e+001 63320 77201,77253,77227
 2.9000e+000 77357 -1.3325e+000 -2.2238e+002 -2.0315e+001 63320 77175,77331,77305
 2.9000e+000 77498 -2.4217e+001 -2.6282e+002  2.4986e+001 63320 77279,77253,77472
 2.9000e+000 77521 -5.4592e+001 -2.7927e+002 -4.9817e+000 63320 77279,77472,77175
 2.9000e+000 77769 -1.0702e+002 -4.0219e+002  4.5210e+001 62816 77570,77622,77596
 2.9000e+000 77746 -1.8241e+002 -3.6985e+002  8.3386e+001 62816 77570,77648,77622
 2.9000e+000 77723 -2.5198e+001 -2.7282e+002 -1.7513e+001 62816 77570,77674,77648
 2.9000e+000 77700 -6.8252e+001 -2.0379e+002  2.6430e+001 62816 77544,77674,77570
 2.9000e+000 78149 -5.0432e+001 -2.5476e+002 -1.9558e+001 62354 77953,78031,78005
 2.9000e+000 78126 -9.6622e+001 -2.8067e+002 -3.6012e+001 62354 77901,78031,77953
 2.9000e+000 78103 -2.4350e+000 -2.3541e+002  4.6485e+001 62354 77875,78031,77901
 2.9000e+000 78080 -1.5986e+001 -3.5996e+002 -1.2183e+002 62354 77901,77953,77927
 2.9000e+000 78057 -1.1515e+002 -2.6056e+002 -2.5298e+001 62354 77953,78005,77979
 2.9000e+000 78606  2.7764e+001 -1.4448e+002  7.2937e+001 61950 78384,78436,78410
 2.9000e+000 78583  1.1566e+001 -2.3147e+002 -4.2578e+001 61950 78358,78436,78384
 2.9000e+000 78560 -3.3089e+001 -1.8583e+002 -6.7589e+001 61950 78358,78488,78436
 2.9000e+000 78537 -5.9445e+001 -3.2615e+002 -8.5507e+001 61950 78436,78488,78462
 2.9000e+000 78514 -3.0510e+001 -1.3696e+002 -4.1925e+001 61950 78332,78488,78358
 2.9000e+000 78756  3.6367e+000 -3.0111e+002 -3.2638e+000 61339 78779,78655,78629
 2.9000e+000 78733 -1.8997e+001 -3.4028e+002  6.9028e+000 61339 78779,78629,78707
 2.9000e+000 78805 -5.0039e+001 -3.3588e+002  2.8791e+001 61339 78851,78779,78681
 2.9000e+000 78828 -8.2110e+000 -3.1095e+002  1.8368e+001 61339 78681,78779,78707
 2.9000e+000 78877 -1.8090e+001 -2.5574e+002  1.2173e+001 61339 78655,78779,78851
 2.9000e+000 79206 -4.2437e+001 -1.5934e+002 -5.2301e+001 60892 79229,79007,78981
 2.9000e+000 79183 -1.9201e+001 -3.9215e+001  1.4438e+001 60892 79229,78981,79111
 2.9000e+000 79160 -2.7989e+001 -2.1825e+002 -4.7694e+001 60892 79301,79033,79007
 2.9000e+000 79137 -5.4701e+001 -1.5028e+002  9.1857e+001 60892 79033,79085,79059
 2.9000e+000 79255 -4.9671e+001 -1.6847e+002 -8.7535e+001 60892 79301,79007,79229
 2.9000e+000 79278 -7.1947e+001 -1.4129e+002 -5.5912e+001 60892 79085,79229,79111
 2.9000e+000 79327 -9.5477e+001 -3.4597e+002 -3.6046e+000 60892 79085,79033,79301
 2.9000e+000 79350 -5.0829e+001 -2.5530e+002 -6.6549e+001 60892 79085,79301,79229
 2.9000e+000 79647 -1.9798e+002 -4.7531e+002 -4.1525e+001 60488 79451,79529,79503
 2.9000e+000 79624 -1.4752e+002 -3.8214e+002 -7.2229e+001 60488 79425,79529,79451
 2.9000e+000 79601 -1.3900e+002 -3.8355e+002 -7.2517e+001 60488 79373,79529,79425
 2.9000e+000 79578 -1.0353e+002 -4.2635e+002 -3.3474e+001 60488 79373,79425,79399
 2.9000e+000 79555 -3.5772e+001 -3.2276e+002  2.1464e+001 60488 79451,79503,79477
 2.9000e+000 79870 -8.5093e+001 -2.9807e+002  1.4707e+001 60026 79720,79798,79772
 2.9000e+000 79847  6.2088e+001 -3.1107e+002  3.3003e+000 60026 79694,79798,79720
 2.9000e+000 79824  6.1826e+001 -2.5143e+002 -2.3254e+001 60026 79720,79772,79746
 2.9000e+000 80120 -9.6403e+001 -2.3046e+002 -1.3687e+001 59629 79921,80025,79973
 2.9000e+000 80097 -9.8201e+001 -1.5999e+002  2.7645e+001 59629 79895,80025,79921
 2.9000e+000 80074 -6.4240e+001 -1.6369e+002 -2.7954e+001 59629 79973,80025,79999
 2.9000e+000 80051 -7.6753e+001 -1.9043e+002 -2.7588e+001 59629 79921,79973,79947
 2.9000e+000 80321  7.2045e+001 -2.8340e+002 -1.5909e+001 59125 80344,80171,80145
 2.9000e+000 80298  2.5081e+001 -3.3802e+002  6.5243e+000 59125 80344,80145,80249
 2.9000e+000 80275 -2.7833e+001 -2.1367e+002  3.5531e+001 59125 80197,80249,80223
 2.9000e+000 80370  9.7855e+000 -2.5288e+002  3.2050e+001 59125 80197,80171,80344
 2.9000e+000 80393 -3.2622e+001 -3.0029e+002  5.2754e+001 59125 80197,80344,80249
 2.9000e+000 80952 -3.4922e+001 -3.9836e+002  8.3835e+001 58557 80975,80632,80606
 2.9000e+000 80929 -1.7713e+001 -1.0748e+002  9.3079e-001 58557 81119,80975,80606
 2.9000e+000 80906 -1.0458e+002 -3.6914e+002 -7.0939e+001 58557 81047,80684,80632
 2.9000e+000 80883 -2.3459e+001 -1.2376e+002 -7.2607e+001 58557 81119,80606,80580
 2.9000e+000 80860 -2.6738e+001 -5.8483e+002  1.8085e+001 58557 81191,80736,80710
 2.9000e+000 80837 -5.9100e+001 -4.2003e+002 -5.4513e+001 58557 80736,80788,80762
 2.9000e+000 80814 -8.2066e+001 -1.8164e+002 -7.8309e+001 58557 80632,80684,80658
 2.9000e+000 81001 -2.6972e+001 -4.3684e+002 -1.5908e+001 58557 81047,80632,80975
 2.9000e+000 81024  4.0330e+001 -3.9544e+002  2.9928e+001 58557 81191,80710,80975
 2.9000e+000 81073 -3.5333e+001 -2.7356e+002 -3.0814e+001 58557 80710,80684,81047
 2.9000e+000 81096  6.1440e+001 -3.4041e+002  2.4961e+001 58557 80710,81047,80975
 2.9000e+000 81145 -6.0621e+001 -2.0512e+002 -6.1810e+000 58557 80788,80975,81119
 2.9000e+000 81168 -5.1424e+001 -2.0060e+002 -7.0534e+001 58557 80788,81119,80580
 2.9000e+000 81217 -5.1593e+001 -4.0303e+002 -5.5280e+001 58557 80788,80736,81191
 2.9000e+000 81240 -4.6792e+001 -3.2679e+002 -6.6130e+001 58557 80788,81191,80975
 2.9000e+000 81537 -1.1787e+001 -3.2217e+002  2.2219e+000 57881 81560,81341,81289
 2.9000e+000 81514 -9.8515e+001 -3.6041e+002  4.3841e+001 57881 81560,81289,81263
 2.9000e+000 81491 -1.1390e+002 -2.9390e+002 -2.2049e+001 57881 81632,81419,81367
 2.9000e+000 81468 -1.0532e+002 -2.8751e+002 -5.9930e+001 57881 81367,81419,81393
 2.9000e+000 81445  4.3451e+000 -3.0724e+002 -4.1628e+000 57881 81289,81341,81315
 2.9000e+000 81586 -3.0102e+001 -2.4912e+002 -7.0689e+001 57881 81367,81341,81560
 2.9000e+000 81609 -1.0056e+002 -3.2849e+002 -3.7254e+001 57881 81632,81367,81560
 2.9000e+000 81658 -8.2009e+001 -2.4260e+002 -8.1320e+000 57881 81263,81419,81632
 2.9000e+000 81681 -6.8806e+001 -2.8643e+002 -2.2071e+001 57881 81263,81632,81560
 2.9000e+000 81929 -9.8944e+001 -2.6284e+002  3.4520e+000 57477 81704,81808,81782
 2.9000e+000 81906 -3.9048e+001 -3.5469e+002  4.3064e+001 57477 81704,81834,81808
 2.9000e+000 81883 -1.2778e+002 -3.0065e+002  2.1061e+001 57477 81704,81782,81730
 2.9000e+000 81860 -6.8012e+001 -2.7705e+002  8.7154e+000 57477 81730,81782,81756
 2.9000e+000 82488  1.5113e+000 -3.6053e+002 -1.1916e+001 56966 82583,82511,82194
 2.9000e+000 82465 -7.1489e-001 -3.0548e+002  1.4577e+001 56966 82511,82116,82324
 2.9000e+000 82442 -3.6687e+000 -4.1333e+002  3.4902e+000 56966 82583,82194,82168
 2.9000e+000 82419 -6.4756e+000 -3.5576e+002  5.2448e+001 56966 82194,82246,82220
 2.9000e+000 82396 -5.3470e+001 -4.0571e+002 -2.1670e+001 56966 82194,82298,82246
 2.9000e+000 82373 -4.4354e+001 -3.5463e+002 -1.3917e+001 56966 82246,82298,82272
 2.9000e+000 82350 -1.0871e+001 -5.0056e+002 -4.6359e+001 56966 82116,82168,82142
 2.9000e+000 82537  5.2722e+000 -3.1346e+002  4.8081e+000 56966 82298,82194,82511
 2.9000e+000 82560  7.1635e+001 -2.0142e+002  6.4441e+001 56966 82298,82511,82324
 2.9000e+000 82609 -9.9939e+000 -3.0103e+002 -1.6308e+001 56966 82116,82511,82583
 2.9000e+000 82632 -2.1255e+000 -3.4118e+002 -6.7208e+000 56966 82116,82583,82168
 2.9000e+000 83236 -1.2306e+001 -2.3018e+002 -4.9180e+001 56304 82893,82945,82919
 2.9000e+000 83213 -5.8345e+001 -2.9853e+002  2.8286e+001 56304 83259,82945,82893
 2.9000e+000 83190 -4.8745e+001 -3.1572e+002  1.8749e+001 56304 83259,82893,83049
 2.9000e+000 83167 -6.6310e+001 -3.1996e+002  2.2155e+001 56304 82971,83049,83023
 2.9000e+000 83144 -7.0539e+001 -3.6039e+002  1.1805e+001 56304 82815,83049,82893
 2.9000e+000 83121 -8.9772e+001 -4.4836e+002  9.3728e+000 56304 82815,82893,82867
 2.9000e+000 83098 -7.2715e+001 -4.6689e+002  1.1625e+001 56304 82971,83023,82997
 2.9000e+000 83075 -1.4597e+002 -4.5026e+002 -3.9718e+001 56304 82815,82867,82841
 2.9000e+000 83285 -7.7074e+001 -3.2381e+002  3.7298e+001 56304 82971,82945,83259
 2.9000e+000 83308 -5.6395e+001 -3.2123e+002  2.3089e+001 56304 82971,83259,83049
 2.9000e+000 83556 -1.7468e+002 -4.6243e+002 -3.6911e+001 55964 83357,83461,83435
 2.9000e+000 83533 -1.5783e+002 -3.2136e+002  2.8097e+001 55964 83331,83461,83357
 2.9000e+000 83510 -7.1004e+001 -5.3218e+002  5.9065e+001 55964 83357,83435,83383
 2.9000e+000 83487 -9.4669e+001 -6.2941e+002  1.6895e+001 55964 83383,83435,83409
 2.9000e+000 83706  2.7255e+001 -2.6594e+002  1.3529e+001 55503 83579,83631,83605
 2.9000e+000 83683 -3.2633e+001 -3.2050e+002  3.6290e+001 55503 83579,83657,83631
 2.9000e+000 83907 -3.9271e+001 -2.9359e+002  4.8296e+001 55156 83757,83835,83809
 2.9000e+000 83884 -1.1769e+001 -2.1414e+002  7.7332e+001 55156 83731,83835,83757
 2.9000e+000 83861 -2.2071e+001 -1.6580e+002  8.4233e+001 55156 83757,83809,83783
 2.9000e+000 84240 -4.5558e+001 -3.5813e+002  1.0248e+001 54652 84093,84145,84119
 2.9000e+000 84217 -2.6955e+001 -2.1440e+002  4.3520e+000 54652 84041,84145,84093
 2.9000e+000 84194 -2.8242e+001 -3.3873e+002  5.5733e+001 54652 84015,84145,84041
 2.9000e+000 84171 -3.4263e+000 -1.9991e+002  2.0836e+001 54652 84041,84093,84067
 2.9000e+000 84618 -1.2544e+002 -3.8057e+002  4.1642e+001 53926 84396,84500,84474
 2.9000e+000 84595 -2.0909e+002 -5.4375e+002  7.4087e+000 53926 84344,84500,84396
 2.9000e+000 84572 -1.5146e+002 -4.0500e+002  6.5162e+000 53926 84344,84396,84370
 2.9000e+000 84549 -1.1922e+002 -3.6976e+002  1.9357e+001 53926 84396,84474,84422
 2.9000e+000 84526 -1.6989e+002 -3.0676e+002  1.5823e+001 53926 84422,84474,84448
 2.9000e+000 85350 -1.4672e+002 -4.5965e+002 -8.9213e+001 53586 85373,84880,85088
 2.9000e+000 85327 -1.5118e+002 -4.6400e+002 -8.7636e+001 53586 84880,85114,85088
 2.9000e+000 85304 -9.4856e+001 -3.8181e+002  3.4677e+001 53586 85373,85088,85062
 2.9000e+000 85281 -1.0151e+002 -2.3820e+002 -8.3098e+001 53586 85010,85062,85036
 2.9000e+000 85258 -1.0069e+002 -2.7244e+002 -3.8833e+001 53586 85445,85010,84958
 2.9000e+000 85235 -2.9611e+001 -2.0781e+002  3.4937e+001 53586 85445,84958,84906
 2.9000e+000 85212 -5.5177e+001 -2.6746e+002 -5.4130e+001 53586 84958,85010,84984
 2.9000e+000 85189 -7.0172e+001 -4.5341e+002  4.1304e+001 53586 84906,84958,84932
 2.9000e+000 85166 -7.1297e+001 -3.1622e+002 -1.6991e+002 53586 84880,85140,85114
 2.9000e+000 85399 -1.0403e+002 -2.7168e+002 -1.9266e+001 53586 84906,84880,85373
 2.9000e+000 85422 -7.2945e+001 -2.4783e+002  6.3894e+001 53586 85517,85373,85062
 2.9000e+000 85471 -2.6721e+001 -1.0110e+002 -5.1706e+001 53586 85062,85010,85445
 2.9000e+000 85494 -7.6606e+001 -1.7422e+002  5.2927e+001 53586 85517,85062,85445
 2.9000e+000 85543 -6.6131e+001 -3.6181e+002  5.6700e+001 53586 84906,85373,85517
 2.9000e+000 85566 -7.7091e+001 -2.9647e+002  5.5224e+001 53586 84906,85517,85445
 2.9000e+000 86072 -1.5227e+001 -3.0145e+002 -2.0763e+001 53182 86095,85853,85775
 2.9000e+000 86049 -2.9956e+001 -2.2450e+002 -1.4987e+001 53182 86095,85775,85931
 2.9000e+000 86026 -1.5641e+001 -3.0616e+002  8.7576e+001 53182 86167,85879,85853
 2.9000e+000 86003 -1.9830e+001 -3.3613e+002 -4.9056e+001 53182 85775,85827,85801
 2.9000e+000 85980 -1.0479e+002 -4.2829e+002 -1.0489e+002 53182 85775,85853,85827
 2.9000e+000 85957 -1.3289e+001 -2.1730e+002 -1.5864e+001 53182 85749,85931,85775
 2.9000e+000 86121  1.8211e+001 -2.5244e+002  1.0702e+000 53182 86167,85853,86095
 2.9000e+000 86144 -6.5064e+001 -3.1684e+002 -3.9183e+001 53182 85905,86095,85931
 2.9000e+000 86193 -3.2791e+001 -3.5497e+002  9.6098e+001 53182 85905,85879,86167
 2.9000e+000 86216 -4.9060e+001 -4.1631e+002  8.2029e+000 53182 85905,86167,86095
 2.9000e+000 86673 -4.2646e+001 -2.6123e+002 -6.5184e+001 52778 86477,86529,86503
 2.9000e+000 86650 -8.2441e+001 -3.0490e+002 -3.3747e+001 52778 86425,86529,86477
 2.9000e+000 86627 -3.5864e+001 -2.6916e+002 -5.1502e+001 52778 86425,86477,86451
 2.9000e+000 86604 -1.4217e+002 -2.2699e+002 -3.1418e+001 52778 86399,86529,86425
 2.9000e+000 86581 -2.1146e+002 -2.9635e+002  4.5460e+001 52778 86399,86555,86529
 2.9000e+000 87258 -8.3726e+001 -5.8516e+002 -1.0124e+002 52238 87281,86987,86961
 2.9000e+000 87235 -3.4112e+001 -4.5014e+002  3.9160e+001 52238 87281,86961,87117
 2.9000e+000 87212 -6.1708e+001 -2.5615e+002  2.1645e+001 52238 86935,87117,86961
 2.9000e+000 87189  2.0877e+001 -2.8310e+002  4.8422e+001 52238 87065,87117,87091
 2.9000e+000 87166 -2.9121e+001 -2.2728e+002 -4.3281e+001 52238 86987,87065,87039
 2.9000e+000 87143 -1.1742e+002 -1.2143e+002 -1.4163e+002 52238 86987,87039,87013
 2.9000e+000 87307  2.1783e+001 -3.3900e+002 -7.4042e+001 52238 87065,86987,87281
 2.9000e+000 87330 -2.8534e+000 -3.6995e+002  6.5790e+001 52238 87065,87281,87117
 2.9000e+000 87610  2.3592e+000 -2.1323e+002  3.1722e-001 51834 87434,87512,87460
 2.9000e+000 87587  2.4809e+000 -2.0345e+002  2.3511e+001 51834 87434,87538,87512
 2.9000e+000 87564 -7.1720e+000 -3.2838e+001  1.8621e+000 51834 87633,87460,87512
 2.9000e+000 87659 -7.2541e-001 -3.0079e+001  2.1445e+000 51834 87486,87460,87633
 2.9000e+000 88187 -1.0600e+002 -5.2194e+002 -5.7437e+001 51266 87864,87942,87890
 2.9000e+000 88164  2.3687e+001 -2.6691e+002 -5.9759e+000 51266 87864,88020,87942
 2.9000e+000 88141 -3.3578e+001 -2.9709e+002 -1.9183e+001 51266 87942,88020,87968
 2.9000e+000 88118 -4.7260e+001 -5.1251e+002 -6.6817e+000 51266 87864,88046,88020
 2.9000e+000 88095 -4.9156e+000 -2.3078e+002 -5.3222e+000 51266 87968,88020,87994
 2.9000e+000 88072 -3.0723e+001 -4.4985e+002 -1.0032e+002 51266 87890,87942,87916
 2.9000e+000 88644 -1.3901e+002 -1.8136e+002 -4.4396e+001 50754 88370,88500,88396
 2.9000e+000 88621 -1.5234e+002 -3.3178e+002 -9.0480e+000 50754 88370,88526,88500
 2.9000e+000 88598 -1.2119e+002 -2.9321e+002 -2.2692e+002 50754 88396,88500,88422
 2.9000e+000 88575 -1.4020e+002 -4.9341e+002 -1.7495e+002 50754 88422,88500,88474
 2.9000e+000 88552 -1.2202e+002 -3.5851e+002  1.4575e+002 50754 88422,88474,88448
 2.9000e+000 88914 -6.3931e+001 -3.7085e+002  2.0571e+001 50442 88715,88793,88741
 2.9000e+000 88891 -3.7905e+001 -4.0041e+002  2.0252e+001 50442 88715,88819,88793
 2.9000e+000 88868 -1.1722e+001 -4.1533e+002  1.3952e+001 50442 88689,88819,88715
 2.9000e+000 88845 -1.0776e+002 -3.6082e+002  7.9700e+001 50442 88741,88793,88767
 2.9000e+000 89294 -5.4310e+001 -4.2653e+002  1.8355e+001 49938 89317,89046,89020
 2.9000e+000 89271 -5.4146e+001 -4.2968e+002  1.8111e+001 49938 89317,89020,89150
 2.9000e+000 89248 -1.6869e+002 -4.3574e+002 -9.1938e+000 49938 89072,89150,89098
 2.9000e+000 89225 -7.8949e+001 -5.0664e+002  1.0092e+002 49938 89020,89176,89150
 2.9000e+000 89202 -1.1547e+002 -3.6262e+002 -3.5599e+001 49938 89098,89150,89124
 2.9000e+000 89343 -4.6550e+001 -3.8821e+002  2.0525e+001 49938 89072,89046,89317
 2.9000e+000 89366 -6.1519e+001 -4.2511e+002  2.2067e+001 49938 89072,89317,89150
 2.9000e+000 89823 -1.2026e+001 -1.5398e+002 -1.4103e+000 49384 89601,89705,89679
 2.9000e+000 89800 -3.3763e+001 -1.5086e+002 -3.0212e+001 49384 89549,89705,89601
 2.9000e+000 89777 -2.6494e+001 -2.2987e+002 -2.4059e+001 49384 89549,89601,89575
 2.9000e+000 89754 -8.4719e+001 -1.3808e+002  2.5621e+000 49384 89601,89679,89627
 2.9000e+000 89731 -7.9193e+001 -1.5813e+002 -3.0254e+001 49384 89627,89679,89653
 2.9000e+000 90329  5.7272e+001 -2.7496e+002 -4.5215e+001 48894 90058,90110,90084
 2.9000e+000 90306 -7.8543e+001 -3.3448e+002 -7.6471e+001 48894 90058,90162,90110
 2.9000e+000 90283 -1.3493e+002 -3.5485e+002 -9.6082e+001 48894 90032,90162,90058
 2.9000e+000 90260 -1.3769e+002 -3.6510e+002 -6.9794e+001 48894 90006,90162,90032
 2.9000e+000 90237 -3.1390e+001 -4.5764e+002 -1.1586e+002 48894 90110,90162,90136
 2.9000e+000 90214 -7.9264e+001 -3.6168e+002 -4.1197e+001 48894 90006,90188,90162
 2.9000e+000 90884 -7.0596e+001 -3.6931e+002 -3.2067e+001 48490 90564,90642,90616
 2.9000e+000 90861 -1.3364e+002 -3.8334e+002 -2.9601e+001 48490 90564,90694,90642
 2.9000e+000 90838 -5.8124e+001 -3.4948e+002 -2.1961e+001 48490 90538,90694,90564
 2.9000e+000 90815 -6.0825e+001 -3.7601e+002 -7.5632e+000 48490 90538,90720,90694
 2.9000e+000 90792 -3.7842e+001 -2.8789e+002 -3.1259e+001 48490 90564,90616,90590
 2.9000e+000 90769 -1.3904e+002 -4.8436e+002 -1.2934e+002 48490 90642,90694,90668
 2.9000e+000 90746 -1.7248e+001 -3.1130e+002  7.2155e+001 48490 90512,90720,90538
 2.9000e+000 91034 -2.6512e+001 -3.0773e+002  4.2404e+001 48086 91057,90959,90933
 2.9000e+000 91011 -4.9581e+000 -2.6143e+002  4.8048e+001 48086 91129,91057,90933
 2.9000e+000 91083 -2.1934e+001 -2.9263e+002  3.2634e+001 48086 90985,90959,91057
 2.9000e+000 91106 -4.1069e+001 -2.7665e+002  2.3348e+001 48086 90985,91057,90907
 2.9000e+000 91155 -8.8568e+001 -3.0215e+002  3.5392e+001 48086 90907,91057,91129
 2.9000e+000 91791 -4.2443e+001 -2.1707e+002  1.1925e+002 47518 92030,91814,91523
 2.9000e+000 91768 -5.1318e+001 -2.5798e+002  4.4222e+001 47518 91958,91814,91471
 2.9000e+000 91745 -8.7038e+001 -3.8251e+002  5.3072e+001 47518 91886,91575,91523
 2.9000e+000 91722 -3.5450e+001 -1.5078e+002 -1.4911e+001 47518 91958,91471,91419
 2.9000e+000 91699 -5.8538e+001 -2.6017e+002  1.3975e+002 47518 92030,91523,91497
 2.9000e+000 91676 -1.2589e+002 -3.4637e+002  5.1126e+001 47518 91523,91575,91549
 2.9000e+000 91653 -5.0962e+001 -1.0421e+002 -1.0272e+001 47518 91419,91471,91445
 2.9000e+000 91840 -4.6249e+001 -3.0839e+002  1.1766e+002 47518 91886,91523,91814
 2.9000e+000 91863 -2.1620e+001 -1.8671e+002  3.8668e+001 47518 91601,91814,91627
 2.9000e+000 91912 -1.6501e+002 -4.2568e+002 -6.0928e+001 47518 91601,91575,91886
 2.9000e+000 91935 -1.2531e+002 -2.5882e+002  4.5697e+000 47518 91601,91886,91814
 2.9000e+000 91984  1.9146e+001 -1.6567e+002  2.0938e+000 47518 91627,91814,91958
 2.9000e+000 92007 -1.2832e+001 -1.0810e+002 -4.8101e+001 47518 91627,91958,91419
 2.9000e+000 92056 -3.1084e+001 -1.8263e+002  1.0004e+002 47518 91471,91814,92030
 2.9000e+000 92079 -3.1910e+001 -2.0737e+002  1.1795e+002 47518 91471,92030,91497
 2.9000e+000 92229 -2.8360e-001 -2.3140e+000  2.6840e+000 47128 92252,92128,92102
 2.9000e+000 92206  3.6075e+000 -6.4276e+000 -1.9808e+000 47128 92324,92252,92102
 2.9000e+000 92278  3.4660e+000  1.0039e+001  5.8891e+000 47128 92454,92252,92154
 2.9000e+000 92301  3.6661e+000 -4.7906e+000  1.8258e+000 47128 92154,92252,92180
 2.9000e+000 92350 -2.1393e+000 -7.9664e+000 -3.5639e+000 47128 92180,92252,92324
 2.9000e+000 92480  2.0541e+000 -1.0033e+000  3.7270e+000 47128 92128,92252,92454
 2.9000e+000 93340 -1.3285e+002 -3.6637e+002 -4.2609e+001 46838 93363,92977,92873
 2.9000e+000 93317 -1.2003e+002 -3.6500e+002 -2.0604e+001 46838 93507,93363,92873
 2.9000e+000 93294 -6.3214e+001 -3.5700e+002 -9.2912e+000 46838 93435,93003,92977
 2.9000e+000 93271 -2.2329e+002 -3.7412e+002 -2.0398e+001 46838 93507,92873,92847
 2.9000e+000 93248 -2.9616e+001 -3.1962e+002 -3.0875e+001 46838 93579,93029,93003
 2.9000e+000 93225 -1.6297e+002 -5.9928e+002  1.0941e+002 46838 92873,92951,92925
 2.9000e+000 93202 -2.0389e+002 -4.3026e+002 -1.1221e+001 46838 92873,92977,92951
 2.9000e+000 93179 -2.0849e+001 -3.3470e+002  9.7816e+000 46838 93055,93107,93081
 2.9000e+000 93156 -7.7414e+001 -2.3368e+002  3.9161e+001 46838 92821,93107,92847
 2.9000e+000 93133 -1.2285e+002 -3.9639e+002  8.6063e+001 46838 92873,92925,92899
 2.9000e+000 93389 -8.8126e+001 -3.4342e+002 -2.0959e+000 46838 93435,92977,93363
 2.9000e+000 93412 -9.2475e+000 -3.5996e+002  1.0037e+001 46838 93055,93363,93107
 2.9000e+000 93461 -3.8990e+001 -3.4236e+002 -3.2449e+001 46838 93579,93003,93435
 2.9000e+000 93484 -5.6594e+001 -3.8315e+002 -9.5524e+000 46838 93055,93435,93363
 2.9000e+000 93533 -4.3997e+001 -3.7173e+002 -4.0982e+001 46838 93107,93363,93507
 2.9000e+000 93556 -8.1407e+001 -3.3345e+002 -4.0996e+001 46838 93107,93507,92847
 2.9000e+000 93605 -1.8987e+001 -3.2876e+002  4.9330e+000 46838 93055,93029,93579
 2.9000e+000 93628 -2.6241e+001 -3.4708e+002  3.7041e+000 46838 93055,93579,93435
 2.9000e+000 93979 -1.4335e+002 -4.2695e+002 -1.7518e+000 46476 93780,93884,93858
 2.9000e+000 93956 -1.3290e+002 -4.4501e+002  7.5050e+000 46476 93754,93884,93780
 2.9000e+000 93933 -8.5364e+001 -3.9771e+002 -1.0076e+001 46476 93806,93858,93832
 2.9000e+000 93910 -8.4170e+001 -3.9974e+002 -8.4228e+000 46476 93780,93858,93806
 2.9000e+000 94515  1.6131e+001 -1.3440e+002 -3.1618e+001 46072 94345,94397,94371
 2.9000e+000 94492 -8.8254e+001 -1.9080e+002  3.5890e+001 46072 94267,94397,94345
 2.9000e+000 94469 -5.2834e+001 -2.6990e+002  6.6294e+000 46072 94241,94397,94267
 2.9000e+000 94446 -4.1171e+001 -9.4432e+001  1.0162e+001 46072 94293,94345,94319
 2.9000e+000 94423 -9.3769e+001 -1.7526e+002  3.3650e+001 46072 94267,94345,94293
 2.9000e+000 95149 -1.2295e+002 -4.4296e+002  1.1470e+001 45346 94803,94881,94855
 2.9000e+000 95126 -7.4579e+001 -3.6903e+002 -2.4990e+001 45346 94803,94959,94881
 2.9000e+000 95103 -3.2128e+001 -3.9379e+002 -8.5982e+001 45346 95172,94933,94907
 2.9000e+000 95080 -1.0446e+002 -7.0118e+002 -5.6899e+001 45346 95172,94907,94881
 2.9000e+000 95057 -1.4009e+002 -3.4861e+002 -1.2635e+001 45346 94803,94985,94959
 2.9000e+000 95034 -1.0589e+002 -5.1055e+002 -9.2925e+000 45346 94803,94855,94829
 2.9000e+000 95011 -1.4795e+002 -3.5382e+002  1.6806e+001 45346 94777,94985,94803
 2.9000e+000 95198 -1.2108e+002 -2.5144e+002 -5.3343e+001 45346 94959,94933,95172
 2.9000e+000 95221 -9.3068e+001 -4.2131e+002 -4.8063e+001 45346 94959,95172,94881
 2.9000e+000 95776 -1.0702e+002 -4.3945e+002 -3.3054e+001 44720 95799,95560,95534
 2.9000e+000 95753 -5.9837e+001 -2.9391e+002 -6.7269e+001 44720 95799,95534,95482
 2.9000e+000 95730 -3.8833e+001 -4.6418e+002 -7.7415e+001 44720 95943,95871,95430
 2.9000e+000 95707 -5.6750e+001 -3.7642e+002 -5.8323e+001 44720 95943,95430,95404
 2.9000e+000 95684 -1.7382e+002 -2.7463e+002 -1.5031e+002 44720 95430,95482,95456
 2.9000e+000 95661 -5.5614e+001 -2.3902e+002  5.9404e+001 44720 95482,95534,95508
 2.9000e+000 95638 -6.3035e+001 -2.6406e+002 -9.0497e+001 44720 95404,95612,95586
 2.9000e+000 95825 -5.7873e+001 -5.8821e+002 -9.3774e+001 44720 95586,95560,95799
 2.9000e+000 95848 -3.0620e+000 -4.2928e+002 -7.8952e+001 44720 95871,95586,95799
 2.9000e+000 95897 -4.1782e+001 -4.7525e+002 -9.6396e+001 44720 95482,95430,95871
 2.9000e+000 95920 -4.5518e+001 -4.5791e+002 -5.8043e+001 44720 95482,95871,95799
 2.9000e+000 95969 -7.2251e+000 -3.4466e+002 -8.7466e+001 44720 95586,95871,95943
 2.9000e+000 95992 -4.3462e+001 -2.9096e+002 -5.2475e+001 44720 95586,95943,95404
 2.9000e+000 96449 -5.0857e+001 -3.6119e+002 -2.1263e+001 44202 96544,96472,96227
 2.9000e+000 96426 -5.0056e+001 -3.8360e+002  3.5864e+001 44202 96472,96175,96331
 2.9000e+000 96403 -4.5560e+001 -3.6470e+002 -2.0645e+001 44202 96544,96227,96201
 2.9000e+000 96380 -9.2058e+001 -4.3764e+002 -6.7343e+001 44202 96253,96305,96279
 2.9000e+000 96357 -1.2655e+002 -3.5846e+002 -3.7707e+001 44202 96227,96305,96253
 2.9000e+000 96498 -5.7720e+001 -3.4050e+002 -3.7728e+000 44202 96305,96227,96472
 2.9000e+000 96521 -3.6512e+000 -2.8883e+002  5.9507e+001 44202 96305,96472,96331
 2.9000e+000 96570 -4.6200e+001 -3.5544e+002 -1.9206e+001 44202 96175,96472,96544
 2.9000e+000 96593 -4.2934e+001 -3.6139e+002 -1.9361e+001 44202 96175,96544,96201
 2.9000e+000 96971 -5.0903e+001 -3.1784e+002 -6.5159e+001 43754 96994,96749,96697
 2.9000e+000 96948 -2.4178e+001 -3.6973e+002 -2.6725e+001 43754 96994,96697,96853
 2.9000e+000 96925 -1.1739e+002 -3.0709e+002 -2.9139e+001 43754 96697,96749,96723
 2.9000e+000 96902 -7.4311e+001 -4.0410e+002 -1.8116e+000 43754 96775,96853,96827
 2.9000e+000 96879  5.5254e+001 -4.7159e+002 -2.0797e+000 43754 96775,96827,96801
 2.9000e+000 97020 -1.9311e+001 -2.3186e+002 -7.3779e+001 43754 96775,96749,96994
 2.9000e+000 97043 -1.4897e+001 -3.1846e+002 -3.4971e+001 43754 96775,96994,96853
 2.9000e+000 97291 -6.9628e+001 -3.7832e+002 -6.0009e+001 43364 97314,97144,97118
 2.9000e+000 97268 -1.1723e+002 -3.1520e+002 -3.1595e+001 43364 97314,97118,97092
 2.9000e+000 97245 -6.9256e+001 -3.1941e+002 -1.0252e+001 43364 97386,97196,97170
 2.9000e+000 97222 -1.1674e+002 -2.6038e+002  4.1730e+001 43364 97066,97196,97092
 2.9000e+000 97340  5.2576e+001 -2.6195e+002 -1.1111e+002 43364 97170,97144,97314
 2.9000e+000 97363 -6.7906e+001 -2.8559e+002 -3.4890e+001 43364 97386,97170,97314
 2.9000e+000 97412 -8.5542e+001 -3.5935e+002  1.4817e+000 43364 97092,97196,97386
 2.9000e+000 97435 -8.9979e+001 -3.4583e+002 -2.6422e+001 43364 97092,97386,97314
 2.9000e+000 97788 -1.6660e+001 -2.0271e+002  2.3839e+001 42960 97563,97667,97589
 2.9000e+000 97765 -5.7463e+001 -1.7543e+002  2.0536e+001 42960 97563,97693,97667
 2.9000e+000 97742  1.7290e+001 -1.0261e+002  6.0893e+000 42960 97589,97641,97615
 2.9000e+000 97719 -3.2019e+000 -2.2307e+002  8.8067e+000 42960 97589,97667,97641
 2.9000e+000 98215 -2.5295e+000 -2.9997e+002 -5.8374e+000 42563 97918,98074,98048
 2.9000e+000 98192 -6.6219e+001 -2.0892e+002  7.8681e+001 42563 97892,98074,97918
 2.9000e+000 98169 -1.1311e+002 -5.2529e+002  3.2097e+001 42563 98238,97944,97918
 2.9000e+000 98146 -8.5747e+001 -4.5633e+002  5.2555e+001 42563 98238,97918,98048
 2.9000e+000 98123 -1.2019e+002 -3.3611e+002 -4.2376e+000 42563 97944,98022,97996
 2.9000e+000 98100 -1.7309e+002 -4.1792e+002  5.4308e+001 42563 97944,97996,97970
 2.9000e+000 98264 -1.3099e+002 -4.9303e+002 -3.8772e+000 42563 98022,97944,98238
 2.9000e+000 98287 -1.1931e+002 -4.7011e+002  1.3805e+001 42563 98022,98238,98048
 2.9000e+000 98616 -3.7894e+001 -1.9112e+002 -3.3953e+001 42251 98443,98521,98469
 2.9000e+000 98593 -3.3716e+001 -1.9536e+002 -3.7094e+001 42251 98417,98521,98443
 2.9000e+000 98570 -6.3704e+001 -2.6665e+002 -4.3906e+001 42251 98391,98521,98417
 2.9000e+000 98547  2.6406e+001 -1.7069e+002 -2.5535e+001 42251 98469,98521,98495
 2.9000e+000 98886 -4.0033e+001 -4.5656e+002  3.5452e+001 41847 98661,98765,98687
 2.9000e+000 98863 -5.5796e+001 -2.3594e+002 -1.1497e+002 41847 98661,98791,98765
 2.9000e+000 98840 -9.8957e+001 -3.5425e+002  1.1384e+001 41847 98687,98765,98739
 2.9000e+000 98817 -6.6557e+001 -3.2047e+002 -1.9663e+001 41847 98687,98739,98713
 2.9000e+000 99394 -6.3589e+001 -2.6920e+002 -3.2294e+001 41236 99417,99149,99123
 2.9000e+000 99371 -1.6208e+002 -2.8507e+002 -1.9917e+001 41236 99417,99123,99097
 2.9000e+000 99348 -1.2855e+002 -2.1690e+002 -9.0634e+001 41236 99489,99201,99149
 2.9000e+000 99325 -2.5054e+001 -1.4803e+002 -4.4287e+001 41236 99149,99201,99175
 2.9000e+000 99302 -6.1912e+001 -3.3604e+002 -7.4512e+000 41236 99097,99253,99227
 2.9000e+000 99279 -1.9552e+002 -4.5207e+002 -6.2676e+001 41236 99071,99253,99097
 2.9000e+000 99443 -7.6818e+001 -2.4101e+002 -8.4381e+001 41236 99489,99149,99417
 2.9000e+000 99466 -1.2443e+002 -2.7165e+002 -5.3751e+001 41236 99227,99417,99097
 2.9000e+000 99515 -1.5527e+002 -2.4072e+002 -7.9044e+001 41236 99227,99201,99489
 2.9000e+000 99538 -1.3418e+002 -2.8853e+002 -6.3007e+001 41236 99227,99489,99417
 2.9000e+000 100044  4.4032e+001 -6.6447e+002 -3.1480e+000 40732 99721,99773,99747
 2.9000e+000 100021 -7.4995e+001 -4.9800e+002 -6.5325e+001 40732 99721,99799,99773
 2.9000e+000 99998 -8.7193e+001 -3.9683e+002 -5.4079e+001 40732 99721,99903,99799
 2.9000e+000 99975 -6.9017e+001 -3.1743e+002 -3.0796e+001 40732 100067,99877,99851
 2.9000e+000 99952 -6.8419e+001 -2.7909e+002 -2.6836e+001 40732 100067,99851,99799
 2.9000e+000 99929 -5.6924e+001 -2.6968e+002 -3.3545e+001 40732 99799,99851,99825
 2.9000e+000 100093 -6.2986e+001 -3.5081e+002 -4.5743e+001 40732 99903,99877,100067
 2.9000e+000 100116 -5.7476e+001 -3.0245e+002 -4.5109e+001 40732 99903,100067,99799
 2.9000e+000 100622 -6.0355e+001 -3.7001e+002 -4.7766e+001 40278 100645,100455,100429
 2.9000e+000 100599 -1.3767e+002 -3.0713e+002 -6.7248e+001 40278 100717,100645,100429
 2.9000e+000 100576 -1.3722e+002 -3.0658e+002  2.0104e+001 40278 100717,100429,100377
 2.9000e+000 100553 -1.0202e+002 -5.2520e+002 -1.4763e+001 40278 100789,100325,100481
 2.9000e+000 100530 -1.6606e+002 -2.8887e+002  6.3244e+001 40278 100299,100481,100325
 2.9000e+000 100507 -1.5059e+002 -3.7291e+002 -1.1183e+001 40278 100377,100429,100403
 2.9000e+000 100671 -6.0331e+001 -3.7214e+002 -4.8437e+001 40278 100481,100455,100645
 2.9000e+000 100694 -1.0000e+002 -4.4259e+002 -3.1161e+001 40278 100789,100481,100645
 2.9000e+000 100743 -8.7812e+001 -1.7150e+002 -9.6790e+001 40278 100351,100645,100717
 2.9000e+000 100766 -1.2002e+002 -2.0130e+002 -2.8344e+000 40278 100351,100717,100377
 2.9000e+000 100815 -1.3745e+002 -5.3022e+002 -1.5610e+002 40278 100351,100325,100789
 2.9000e+000 100838 -7.9590e+001 -3.4311e+002 -1.6495e+002 40278 100351,100789,100645
 2.9000e+000 101265 -5.2506e+001 -3.4911e+002  4.2354e+001 39824 101288,101046,100994
 2.9000e+000 101242 -5.0081e+001 -2.8940e+002  3.8282e+001 39824 101288,100994,100968
 2.9000e+000 101219 -5.8956e+001 -2.9277e+002  2.5854e+000 39824 100942,101124,100968
 2.9000e+000 101196 -1.2045e+002 -5.2541e+002  2.2069e+001 39824 101046,101124,101072
 2.9000e+000 101173 -1.2271e+001 -3.1997e+002  6.5126e+001 39824 100994,101046,101020
 2.9000e+000 101150 -1.3263e+002 -3.7098e+002 -5.1863e+001 39824 101072,101124,101098
 2.9000e+000 101314 -4.6127e+001 -3.1284e+002  1.8862e+001 39824 101124,101046,101288
 2.9000e+000 101337 -5.3097e+001 -2.8098e+002  7.9824e+000 39824 101124,101288,100968
 2.9000e+000 101585 -6.0111e+001 -3.3017e+002 -5.9301e+001 39070 101608,101464,101412
 2.9000e+000 101562  1.6737e+001 -3.6027e+002  5.0878e+000 39070 101608,101412,101360
 2.9000e+000 101539 -2.4013e+001 -2.8116e+002 -2.7575e+001 39070 101412,101464,101438
 2.9000e+000 101516 -4.1662e+001 -3.2099e+002  4.1986e+001 39070 101360,101412,101386
 2.9000e+000 101634 -1.1790e+002 -3.5064e+002 -6.2380e+001 39070 101490,101464,101608
 2.9000e+000 101657 -6.7435e+001 -3.9236e+002  9.6945e+000 39070 101490,101608,101360
 2.9000e+000 101856 -7.7687e+001 -3.2329e+002 -1.9128e+000 38730 101706,101758,101732
 2.9000e+000 101833 -5.4868e+001 -3.4034e+002  2.8192e+000 38730 101706,101784,101758
 2.9000e+000 101810 -1.0921e+002 -3.7542e+002 -1.4687e+001 38730 101680,101784,101706
 2.9000e+000 102106 -1.9429e+002 -3.9321e+002 -2.3493e+001 38326 101881,101959,101907
 2.9000e+000 102083 -1.5014e+002 -3.1220e+002 -4.2947e+001 38326 101881,101985,101959
 2.9000e+000 102060 -1.1902e+002 -4.6251e+002  4.4977e+001 38326 101881,102011,101985
 2.9000e+000 102037 -7.9469e+001 -2.5720e+002 -9.2730e+001 38326 101907,101959,101933
 2.9000e+000 102258 -2.2036e+001 -3.8283e+002  1.0211e+001 38036 102281,102157,102131
 2.9000e+000 102235 -3.6314e+001 -4.6649e+002  5.2295e+001 38036 102281,102131,102209
 2.9000e+000 102307 -7.4096e+001 -3.0374e+002  1.4163e+001 38036 102183,102157,102281
 2.9000e+000 102330 -7.4865e+001 -3.5838e+002  6.6838e+001 38036 102183,102281,102209
 2.9000e+000 102663 -4.9339e+001 -1.6909e+002 -2.5053e+000 37596 102438,102542,102464
 2.9000e+000 102640  1.4790e+001 -1.4376e+002 -5.3564e+000 37596 102438,102568,102542
 2.9000e+000 102617 -2.1582e+001 -2.2315e+002 -4.9536e+001 37596 102490,102542,102516
 2.9000e+000 102594 -4.8833e+001 -1.8618e+002 -3.5419e+000 37596 102464,102542,102490
 2.9000e+000 102862 -9.5294e+001 -3.2267e+002 -2.3944e+001 37192 102686,102764,102712
 2.9000e+000 102839 -6.6848e+001 -3.2441e+002 -6.8004e+001 37192 102686,102790,102764
 2.9000e+000 102816 -1.1342e+002 -2.8830e+002 -3.9459e+001 37192 102712,102764,102738
 2.9000e+000 103110 -3.4897e+001 -2.1771e+002 -9.0868e+001 36609 102911,102963,102937
 2.9000e+000 103087 -5.2711e+001 -2.9390e+002 -3.3931e+001 36609 102911,102989,102963
 2.9000e+000 103064 -1.2382e+001 -2.8844e+002 -3.3570e+001 36609 102885,102989,102911
 2.9000e+000 103041 -5.5065e+001 -2.2222e+002 -7.5948e+001 36609 102885,103015,102989
 2.9000e+000 103718  3.8821e+001 -7.4800e+002  6.6797e+001 36131 103323,103375,103349
 2.9000e+000 103695 -1.4103e+002 -3.9964e+002 -3.4328e+001 36131 103297,103375,103323
 2.9000e+000 103672 -6.4854e+001 -2.3707e+002 -5.9348e+001 36131 103297,103505,103375
 2.9000e+000 103649 -1.7403e+002 -4.0484e+002  3.9838e+001 36131 103741,103479,103401
 2.9000e+000 103626 -1.1057e+002 -2.5661e+002  3.8344e+001 36131 103741,103401,103375
 2.9000e+000 103603 -2.0614e+002 -4.6804e+002  2.4721e+001 36131 103401,103479,103427
 2.9000e+000 103580 -1.1555e+002 -3.0952e+002 -9.9261e+000 36131 103297,103531,103505
 2.9000e+000 103557 -1.5296e+002 -4.0519e+002 -5.5570e+001 36131 103427,103479,103453
 2.9000e+000 103767 -1.3351e+002 -5.0062e+002 -7.5511e+001 36131 103505,103479,103741
 2.9000e+000 103790 -7.7527e+001 -3.6993e+002 -7.2880e+001 36131 103505,103741,103375
 2.9000e+000 103989 -2.0517e+002 -4.3312e+002  2.2585e+001 35791 103839,103917,103891
 2.9000e+000 103966 -2.9961e+002 -4.7947e+002 -4.8046e+000 35791 103813,103917,103839
 2.9000e+000 103943 -1.6941e+001 -3.3332e+002 -1.5631e+001 35791 103839,103891,103865
 2.9000e+000 104188  2.9315e+001 -3.2806e+002 -4.4967e+001 35444 104038,104090,104064
 2.9000e+000 104165 -1.4535e+002 -3.9952e+002 -5.1306e+001 35444 104038,104116,104090
 2.9000e+000 104142 -3.0867e+001 -3.8702e+002 -1.6672e+001 35444 104012,104116,104038
 2.9000e+000 104487 -2.7128e+001 -3.5657e+002 -1.0128e+002 34990 104265,104317,104291
 2.9000e+000 104464 -5.7271e+001 -4.2466e+002 -2.9182e+001 34990 104510,104317,104265
 2.9000e+000 104441 -1.3333e+002 -3.0236e+002  5.5768e+000 34990 104510,104265,104213
 2.9000e+000 104418  1.6455e+000 -3.1938e+002 -4.9128e+001 34990 104582,104343,104317
 2.9000e+000 104395 -1.1655e+002 -2.8511e+002 -7.1047e+001 34990 104213,104265,104239
 2.9000e+000 104536  3.2942e+000 -3.1443e+002 -5.3240e+001 34990 104582,104317,104510
 2.9000e+000 104559 -9.4100e+001 -2.6597e+002 -9.7276e+000 34990 104369,104510,104213
 2.9000e+000 104608  3.2340e+001 -1.9734e+002 -8.0637e-001 34990 104369,104343,104582
 2.9000e+000 104631 -2.2371e+001 -3.2678e+002 -6.6644e+000 34990 104369,104582,104510
 2.9000e+000 104783  2.8169e+001 -1.9116e+002 -4.4455e+001 34700 104938,104806,104682
 2.9000e+000 104760 -2.8648e+001 -3.1756e+002 -5.7058e+001 34700 104938,104682,104656
 2.9000e+000 104832 -6.3316e+000 -2.4428e+002 -6.2509e+001 34700 104708,104682,104806
 2.9000e+000 104964  2.4347e+001 -1.4047e+002  6.4233e+001 34700 104734,104806,104938
 2.9000e+000 104987 -1.9738e+001 -2.3737e+002  5.4150e+001 34700 104734,104938,104656
 2.9000e+000 105137 -6.1226e+001 -3.0572e+002  1.5831e+001 34388 105036,105088,105062
 2.9000e+000 105114 -6.8805e+001 -4.2370e+002 -5.8936e+000 34388 105010,105088,105036
 2.9000e+000 105385 -1.1749e+002 -2.9788e+002 -3.6224e+001 33734 105408,105186,105160
 2.9000e+000 105362 -9.9110e+001 -3.1389e+002 -5.4464e+001 33734 105408,105160,105264
 2.9000e+000 105339 -1.8933e+002 -3.5626e+002 -3.3997e+001 33734 105160,105290,105264
 2.9000e+000 105316  1.6490e+001 -2.3547e+002 -5.6342e+001 33734 105186,105238,105212
 2.9000e+000 105434 -9.9003e+001 -2.9257e+002 -3.5944e+001 33734 105238,105186,105408
 2.9000e+000 105457 -5.4729e+001 -2.9492e+002 -5.4622e+001 33734 105238,105408,105264
 2.9000e+000 105609 -1.0780e+002 -4.0602e+002  2.6784e+001 33394 105482,105534,105508
 2.9000e+000 105586 -6.2846e+001 -3.9784e+002  3.0591e+001 33394 105482,105560,105534
 2.9000e+000 105859 -1.3403e+002 -5.1512e+002 -7.8688e+001 33047 105882,105712,105660
 2.9000e+000 105836 -7.5168e+001 -4.6097e+002 -3.6485e+001 33047 105882,105660,105634
 2.9000e+000 105813 -9.5777e+001 -5.7281e+002  5.9052e+000 33047 105660,105712,105686
 2.9000e+000 105790 -7.3628e+001 -2.9661e+002 -1.0464e+001 33047 105634,105764,105738
 2.9000e+000 105908 -2.8033e+002 -4.2988e+002 -4.1827e+001 33047 105738,105712,105882
 2.9000e+000 105931 -1.3510e+002 -3.6887e+002  1.9001e+001 33047 105738,105882,105634
 2.9000e+000 106181 -5.4769e+001 -3.6430e+002 -1.9300e+000 32543 106204,106060,106008
 2.9000e+000 106158  1.2976e+001 -5.8101e+002  4.5671e+001 32543 105956,106086,106060
 2.9000e+000 106135 -1.4839e+001 -1.8379e+002  8.6942e+001 32543 106204,106008,105982
 2.9000e+000 106112 -9.1849e+001 -1.7965e+002  8.9664e+000 32543 106008,106060,106034
 2.9000e+000 106230 -7.0624e+001 -4.4479e+002 -9.4483e+001 32543 105956,106060,106204
 2.9000e+000 106253 -8.2931e+001 -2.9224e+002 -1.7203e+001 32543 105956,106204,105982
 2.9000e+000 106454 -1.0104e+001 -2.6114e+002  6.6693e+001 31839 106304,106356,106330
 2.9000e+000 106431 -5.8676e+001 -3.6194e+002 -6.3973e+001 31839 106278,106356,106304
 2.9000e+000 106408 -9.6863e+001 -4.0242e+002 -4.7927e+001 31839 106278,106382,106356
 2.9000e+000 106704 -3.7942e+001 -3.1679e+002 -5.8380e+001 31534 106505,106583,106557
 2.9000e+000 106681 -1.1028e+002 -3.3211e+002 -4.5172e+001 31534 106479,106583,106505
 2.9000e+000 106658 -1.1231e+002 -2.2094e+002 -7.9091e+001 31534 106505,106557,106531
 2.9000e+000 106635 -1.1439e+001 -2.8726e+002 -5.5269e+001 31534 106479,106609,106583
 2.9000e+000 107108 -2.2668e+002 -4.1846e+002 -6.0596e+000 31030 106886,106990,106964
 2.9000e+000 107085 -2.5417e+002 -4.4190e+002 -1.8932e+001 31030 106860,106990,106886
 2.9000e+000 107062 -3.1689e+001 -3.7947e+002 -5.3732e+001 31030 106834,106990,106860
 2.9000e+000 107039 -2.2643e+002 -5.6998e+002  6.0388e+001 31030 106912,106964,106938
 2.9000e+000 107016 -2.0898e+002 -4.0575e+002  9.4915e+000 31030 106886,106964,106912
 2.9000e+000 107307 -5.1559e+001 -3.9824e+002 -2.3856e+001 30718 107330,107157,107131
 2.9000e+000 107284 -6.9111e+001 -4.2533e+002 -1.5644e+001 30718 107330,107131,107235
 2.9000e+000 107261 -1.0718e+002 -3.8689e+002 -5.5587e+001 30718 107183,107235,107209
 2.9000e+000 107356 -7.5146e+001 -3.5653e+002 -2.6259e+001 30718 107183,107157,107330
 2.9000e+000 107379 -9.7177e+001 -3.8993e+002 -1.6450e+001 30718 107183,107330,107235
 2.9000e+000 107759 -9.1166e+000 -2.3749e+002 -3.8545e+001 30264 107782,107615,107537
 2.9000e+000 107736 -2.3807e+001 -2.7228e+002 -1.2733e+001 30264 107782,107537,107485
 2.9000e+000 107713 -7.9835e+001 -3.2115e+002  8.0777e+000 30264 107485,107537,107511
 2.9000e+000 107690 -1.3938e+001 -3.0356e+002 -6.3604e+001 30264 107537,107615,107589
 2.9000e+000 107667 -8.2691e+000 -2.3770e+002 -2.7852e+001 30264 107537,107589,107563
 2.9000e+000 107808 -3.0500e+001 -2.5523e+002 -1.4952e+001 30264 107641,107615,107782
 2.9000e+000 107831 -3.4077e+001 -2.8833e+002  8.9019e+000 30264 107641,107782,107485
 2.9000e+000 108030 -1.1963e+002 -4.3021e+002 -8.9653e+001 29874 108053,107854,107932
 2.9000e+000 108007 -2.0727e+002 -4.6075e+002 -8.2508e+001 29874 107854,107958,107932
 2.9000e+000 107984  1.0618e+001 -3.2650e+002 -3.4159e+001 29874 108053,107932,107906
 2.9000e+000 108079 -1.8430e+002 -3.0434e+002 -3.6010e+001 29874 107880,107854,108053
 2.9000e+000 108102 -1.3016e+002 -2.3766e+002 -3.9091e+000 29874 107880,108053,107906
 2.9000e+000 108433 -1.9227e+001 -3.9311e+002 -1.2649e+002 29484 108234,108338,108312
 2.9000e+000 108410 -3.1436e+001 -3.5868e+002 -5.5024e+001 29484 108208,108338,108234
 2.9000e+000 108387 -1.5414e+002 -3.7200e+002 -1.6122e+002 29484 108234,108312,108260
 2.9000e+000 108364  2.6232e+001 -1.1450e+002 -6.9362e+001 29484 108260,108312,108286
 2.9000e+000 108762 -8.8459e+001 -3.4056e+002  2.1899e+001 29080 108563,108641,108589
 2.9000e+000 108739 -6.6929e+001 -2.2174e+002 -6.1090e+000 29080 108537,108641,108563
 2.9000e+000 108716 -1.0734e+002 -4.0114e+002  2.4975e+001 29080 108589,108641,108615
 2.9000e+000 108693 -2.6430e+000 -1.8792e+002  1.7386e+001 29080 108537,108667,108641
 2.9000e+000 109189 -7.2723e+001 -3.8567e+002 -5.3889e+001 28476 108892,108996,108970
 2.9000e+000 109166 -1.1759e+002 -3.6595e+002 -5.7811e+001 28476 108892,109022,108996
 2.9000e+000 109143 -1.8933e+002 -3.1503e+002  1.7914e+001 28476 108892,108970,108944
 2.9000e+000 109120 -1.6363e+002 -3.8849e+002 -6.5868e+001 28476 108892,109048,109022
 2.9000e+000 109097 -1.2500e+002 -1.8186e+002  3.7413e+001 28476 108892,108944,108918
 2.9000e+000 109074 -1.4833e+002 -4.1296e+002 -5.3301e+001 28476 108866,109048,108892
 2.9000e+000 109518 -1.3627e+002 -3.8149e+002  6.9318e+001 28022 109541,109371,109345
 2.9000e+000 109495 -1.5167e+002 -3.5680e+002  4.3913e+001 28022 109541,109345,109319
 2.9000e+000 109472 -1.1503e+002 -3.5742e+002  1.8683e+001 28022 109293,109397,109319
 2.9000e+000 109449 -1.2108e+001 -3.1514e+002  1.3863e+001 28022 109293,109423,109397
 2.9000e+000 109567 -6.8529e+001 -3.5213e+002  6.6364e+001 28022 109397,109371,109541
 2.9000e+000 109590 -1.3149e+002 -3.5112e+002  4.4153e+001 28022 109397,109541,109319
 2.9000e+000 109968 -4.7961e+001 -2.3376e+002  8.9076e+001 27568 109798,109850,109824
 2.9000e+000 109945 -8.8992e+001 -3.5631e+002  8.8028e+001 27568 109694,109850,109798
 2.9000e+000 109922 -1.0650e+002 -3.1197e+002  7.7775e+001 27568 109694,109798,109746
 2.9000e+000 109899 -3.1750e+001 -2.9403e+002 -2.5750e+001 27568 109746,109798,109772
 2.9000e+000 109876 -1.2452e+002 -3.6143e+002  8.1867e+001 27568 109694,109746,109720
 2.9000e+000 110167 -1.0036e+002 -3.9590e+002 -7.8758e+001 27007 110017,110095,110069
 2.9000e+000 110144 -4.9275e+000 -4.1812e+002 -7.8351e+000 27007 109991,110095,110017
 2.9000e+000 110121 -3.8291e-001 -3.4097e+002 -5.5109e+001 27007 110017,110069,110043
 2.9000e+000 110415 -3.1585e+001 -3.3698e+002 -1.7513e+001 26567 110438,110242,110190
 2.9000e+000 110392 -5.7587e+001 -3.7124e+002 -3.3129e+000 26567 110438,110190,110320
 2.9000e+000 110369 -1.1248e+002 -3.5540e+002 -4.0451e+001 26567 110242,110294,110268
 2.9000e+000 110346 -5.0073e+001 -3.3782e+002  5.8347e+001 26567 110190,110242,110216
 2.9000e+000 110464 -4.4020e+001 -3.2519e+002 -2.8946e+001 26567 110294,110242,110438
 2.9000e+000 110487 -5.1600e+001 -3.3840e+002 -1.8152e+001 26567 110294,110438,110320
 2.9000e+000 110639 -9.6927e+000 -9.4424e+001 -1.6511e+001 26170 110538,110590,110564
 2.9000e+000 110616  3.8099e+000 -5.5683e+001 -1.2387e+001 26170 110512,110590,110538
 2.9000e+000 111149 -1.6432e+002 -2.7306e+002 -8.0155e+001 25716 111172,110878,110852
 2.9000e+000 111126 -9.2256e+001 -2.8546e+002 -7.1273e+001 25716 111172,110852,111008
 2.9000e+000 111103 -9.3254e+001 -2.8391e+002 -6.5794e+001 25716 110878,110930,110904
 2.9000e+000 111080 -1.2461e+002 -3.0319e+002 -7.8686e+001 25716 110826,111008,110852
 2.9000e+000 111057 -1.1995e+002 -4.2245e+002  6.5254e+001 25716 110930,111008,110956
 2.9000e+000 111034 -9.2119e+001 -4.1984e+002  6.9634e+001 25716 110956,111008,110982
 2.9000e+000 111198 -1.1273e+002 -2.8292e+002 -5.9815e+001 25716 110930,110878,111172
 2.9000e+000 111221 -2.6011e+001 -2.8234e+002 -4.8630e+001 25716 110930,111172,111008
 2.9000e+000 111420 -1.4715e+000 -2.3872e+002 -2.4482e+001 25304 111443,111270,111244
 2.9000e+000 111397  1.6747e+001 -2.8990e+002 -2.4537e+001 25304 111443,111244,111348
 2.9000e+000 111374 -2.2274e+000 -1.8182e+002  3.4660e+001 25304 111270,111322,111296
 2.9000e+000 111469  7.4746e+000 -2.0847e+002 -1.9974e+001 25304 111322,111270,111443
 2.9000e+000 111492  3.6025e+001 -2.4724e+002 -1.5169e+001 25304 111322,111443,111348
 2.9000e+000 111691 -9.5671e+001 -3.0488e+002  3.6404e+001 24736 111567,111619,111593
 2.9000e+000 111668 -1.3904e+002 -4.0936e+002  3.0272e+001 24736 111541,111619,111567
 2.9000e+000 111645 -1.0538e+002 -4.0440e+002  2.9813e+001 24736 111515,111619,111541
 2.9000e+000 112024 -5.6559e+001 -4.8712e+002  8.0543e+001 24146 111825,111877,111851
 2.9000e+000 112001 -1.3241e+002 -4.6215e+002  6.4995e-001 24146 111825,111903,111877
 2.9000e+000 111978 -3.5247e+001 -2.9116e+002 -4.1373e+001 24146 111825,111929,111903
 2.9000e+000 111955 -7.4149e+001 -2.9491e+002 -3.7838e+001 24146 111799,111929,111825
 2.9000e+000 112370 -1.3112e+002 -5.8479e+002 -8.2425e+000 23856 112393,112151,112125
 2.9000e+000 112347 -1.0166e+002 -5.0911e+002 -3.1478e+000 23856 112465,112393,112125
 2.9000e+000 112324 -1.1725e+002 -4.9146e+002  3.1774e+001 23856 112465,112125,112073
 2.9000e+000 112301 -1.5509e+002 -4.6271e+002  3.8018e+001 23856 112073,112125,112099
 2.9000e+000 112278 -3.4117e+002 -6.5317e+002 -7.4875e+001 23856 112047,112229,112073
 2.9000e+000 112255 -7.2826e+001 -6.4756e+002 -1.5038e+002 23856 112151,112203,112177
 2.9000e+000 112419 -1.2289e+002 -5.4602e+002 -4.9619e+001 23856 112203,112151,112393
 2.9000e+000 112442 -1.4756e+002 -5.2664e+002 -4.6910e+001 23856 112203,112393,112229
 2.9000e+000 112491 -1.6748e+002 -5.4845e+002 -3.8619e+001 23856 112229,112393,112465
 2.9000e+000 112514 -1.6470e+002 -5.0463e+002 -6.9717e-001 23856 112229,112465,112073
 2.9000e+000 112784 -2.4720e+000 -4.3648e+002  6.4557e+001 23494 112611,112663,112637
 2.9000e+000 112761 -5.7145e+001 -3.7878e+002  5.0232e+001 23494 112585,112663,112611
 2.9000e+000 112738 -8.8305e+001 -3.9238e+002  3.9044e+001 23494 112559,112663,112585
 2.9000e+000 112715 -9.5098e-001 -2.3585e+002 -1.2242e-001 23494 112559,112689,112663
 2.9000e+000 113117 -2.2772e+001 -1.8420e+002 -1.5033e+001 22974 112944,113022,112996
 2.9000e+000 113094 -6.5637e+001 -2.4075e+002  8.7405e+000 22974 112918,113022,112944
 2.9000e+000 113071 -2.4168e+001 -2.3735e+002 -6.4208e+001 22974 112944,112996,112970
 2.9000e+000 113048 -2.1886e+001 -1.7281e+002  3.8874e+001 22974 112892,113022,112918
 2.9000e+000 113414 -5.1263e+001 -3.5227e+002  1.5637e+001 22370 113192,113296,113218
 2.9000e+000 113391 -5.4612e+001 -3.7451e+002  1.0446e+001 22370 113140,113296,113192
 2.9000e+000 113368 -8.1966e+001 -4.2145e+002  2.9435e+001 22370 113218,113296,113270
 2.9000e+000 113345 -1.1081e+002 -4.2822e+002  3.0491e+000 22370 113218,113270,113244
 2.9000e+000 113322 -4.7207e+001 -3.7830e+002 -1.2708e+001 22370 113140,113192,113166
 2.9000e+000 113662 -3.5814e+001 -2.6732e+002  6.0113e+001 21916 113685,113515,113489
 2.9000e+000 113639 -9.6923e+001 -4.1381e+002  2.3544e+001 21916 113685,113489,113437
 2.9000e+000 113616 -1.1468e+001 -4.1269e+002  1.5697e+001 21916 113757,113567,113541
 2.9000e+000 113593 -5.5147e+001 -3.1762e+002  2.8562e+001 21916 113437,113489,113463
 2.9000e+000 113711 -1.0826e+002 -4.4880e+002  6.0831e+001 21916 113541,113515,113685
 2.9000e+000 113734 -5.6765e+001 -4.3610e+002  2.5072e+001 21916 113757,113541,113685
 2.9000e+000 113783 -7.3568e+001 -4.0998e+002  1.6147e+001 21916 113437,113567,113757
 2.9000e+000 113806 -8.0773e+001 -4.0622e+002  1.4625e+001 21916 113437,113757,113685
 2.9000e+000 114056 -1.9426e+001 -4.8538e+002  3.7398e+000 21412 113857,113909,113883
 2.9000e+000 114033  2.5575e+001 -3.5326e+002  4.8493e-001 21412 114079,113909,113857
 2.9000e+000 114010 -8.4672e+001 -3.9165e+002 -5.4433e+000 21412 114079,113857,113961
 2.9000e+000 113987 -1.0026e+002 -3.9123e+002 -5.1983e+000 21412 113831,113961,113857
 2.9000e+000 114105 -6.1576e+001 -3.4170e+002 -4.7812e+001 21412 113935,113909,114079
 2.9000e+000 114128 -1.3681e+002 -3.5569e+002 -5.1387e+001 21412 113935,114079,113961
 2.9000e+000 114378 -1.3597e+002 -3.8995e+002 -1.2015e+002 21022 114401,114257,114205
 2.9000e+000 114355 -1.8167e+002 -5.0672e+002 -1.2025e+002 21022 114401,114205,114179
 2.9000e+000 114332 -3.2784e+001 -6.1386e+002 -6.3032e+001 21022 114153,114283,114179
 2.9000e+000 114309 -1.5258e+002 -2.7831e+002 -7.4528e+001 21022 114205,114257,114231
 2.9000e+000 114427 -1.1088e+002 -4.3190e+002 -1.5086e+001 21022 114283,114257,114401
 2.9000e+000 114450 -1.5013e+002 -5.3941e+002 -1.7271e+001 21022 114283,114401,114179
 2.9000e+000 114651 -2.2146e+002 -4.9073e+002 -3.3512e+001 20618 114501,114553,114527
 2.9000e+000 114628 -2.1077e+002 -4.9026e+002 -2.7872e+001 20618 114501,114579,114553
 2.9000e+000 114605 -1.7380e+002 -4.1781e+002 -1.8442e+000 20618 114475,114579,114501
 2.9000e+000 114901  9.9737e+001 -3.9571e+002  2.7161e+001 20114 114676,114780,114702
 2.9000e+000 114878  6.3405e+000 -4.2479e+002  2.0702e+001 20114 114676,114806,114780
 2.9000e+000 114855  2.1105e+002 -4.7291e+002  1.3996e+000 20114 114702,114780,114754
 2.9000e+000 114832  6.9044e+002 -4.3953e+002  1.1821e+002 20114 114702,114754,114728
 2.9000e+000 115053 -1.0867e+002 -4.7183e+002 -2.4496e+000 19460 115147,115076,114926
 2.9000e+000 115030 -1.0766e+002 -4.5798e+002 -7.1683e+000 19460 115147,114926,115004
 2.9000e+000 115102 -1.3434e+002 -4.9540e+002  1.3642e+001 19460 114952,114926,115076
 2.9000e+000 115173 -9.8069e+001 -5.0788e+002  3.0317e+000 19460 114978,115076,115147
 2.9000e+000 115196 -8.6815e+001 -4.8475e+002 -5.5324e+000 19460 114978,115147,115004
 2.9000e+000 115446 -1.3228e+002 -5.6651e+002  1.8384e+000 19006 115273,115351,115299
 2.9000e+000 115423  1.0967e+001 -5.1067e+002  2.5371e+001 19006 115247,115351,115273
 2.9000e+000 115400 -1.2049e+001 -5.2180e+002  1.5515e+001 19006 115221,115351,115247
 2.9000e+000 115377 -1.4138e+002 -5.6774e+002  9.9428e+000 19006 115299,115351,115325
 2.9000e+000 115767 -2.0586e+002 -5.1270e+002  1.2685e+001 18716 115571,115649,115623
 2.9000e+000 115744 -2.1839e+002 -5.4062e+002  9.4800e+000 18716 115493,115649,115571
 2.9000e+000 115721 -2.1494e+002 -5.2236e+002  8.9615e+000 18716 115493,115571,115545
 2.9000e+000 115698 -1.6648e+002 -4.7346e+002  7.5949e+001 18716 115493,115545,115519
 2.9000e+000 115675 -1.5861e+002 -4.9949e+002 -1.1690e+000 18716 115571,115623,115597
 2.9000e+000 116039 -9.6999e+001 -3.9552e+002  1.5132e+001 18312 115814,115892,115840
 2.9000e+000 116016 -8.2681e+001 -3.6043e+002  1.2521e+001 18312 115814,115944,115892
 2.9000e+000 115993 -1.0205e+002 -3.7638e+002  5.1682e+000 18312 115892,115944,115918
 2.9000e+000 115970  1.5442e+000 -3.7756e+002  3.9517e+001 18312 115840,115892,115866
 2.9000e+000 116191 -4.0102e+001 -6.3180e+002  1.3213e+000 18000 116090,116142,116116
 2.9000e+000 116168 -5.6361e-002 -6.2286e+002  2.7276e+001 18000 116064,116142,116090
 2.9000e+000 116343 -3.1166e+002 -6.6720e+002 -1.7697e+001 17396 116242,116294,116268
 2.9000e+000 116320 -2.8753e+002 -6.6199e+002 -1.5708e+001 17396 116216,116294,116242
 2.9000e+000 116566 -1.7687e+002 -6.6512e+002  3.9386e+001 16942 116390,116468,116442
 2.9000e+000 116543 -1.2686e+002 -6.9311e+002  4.1428e+001 16942 116390,116494,116468
 2.9000e+000 116520 -2.1661e+002 -7.5838e+002  1.5517e+001 16942 116390,116442,116416
 2.9000e+000 116767  1.2046e+001 -4.1812e+002 -1.6949e+001 16438 116790,116643,116617
 2.9000e+000 116744 -3.8640e+001 -3.6338e+002 -1.6001e+001 16438 116790,116617,116591
 2.9000e+000 116721  5.4827e+001 -3.3769e+002 -6.2316e+001 16438 116643,116695,116669
 2.9000e+000 116816  1.8374e+001 -3.7618e+002 -3.5406e+001 16438 116695,116643,116790
 2.9000e+000 116839  1.1643e-001 -3.1753e+002 -5.4034e+001 16438 116695,116790,116591
 2.9000e+000 117062 -1.9793e+001 -5.2408e+002  1.1269e+000 16074 116886,116938,116912
 2.9000e+000 117039 -5.5586e+001 -5.5819e+002  2.9382e+001 16074 116886,116990,116938
 2.9000e+000 117016 -7.6234e+000 -4.3833e+002  4.8202e+001 16074 116938,116990,116964
 2.9000e+000 117214 -6.6006e+001 -5.5491e+002 -5.6863e+000 15649 117087,117139,117113
 2.9000e+000 117191  8.4867e+001 -4.9252e+002 -6.0173e+000 15649 117087,117165,117139
 2.9000e+000 117317 -2.6147e+002 -5.5591e+002 -5.5774e+001 421 117239,117291,117265
 3.0000e+000 70632 -4.3555e+002 -8.4924e+002 -4.1812e+001 70072 70482,70534,70508
 3.0000e+000 70609 -3.9814e+002 -7.6758e+002 -3.1147e+001 70072 70482,70560,70534
 3.0000e+000 70586 -3.5234e+002 -7.5727e+002 -1.1618e+001 70072 70456,70560,70482
 3.0000e+000 70951 -3.2903e+002 -1.0636e+003  0.0000e+000 69874 70703,70755,70729
 3.0000e+000 70928 -1.3410e+002 -9.9695e+002 -1.7320e+002 69874 70703,70781,70755
 3.0000e+000 70905  2.6439e+001 -3.1455e+002 -9.4775e+001 69874 70703,70807,70781
 3.0000e+000 70882 -1.9588e+002 -8.6193e+002 -3.4536e+001 69874 70703,70833,70807
 3.0000e+000 70859 -1.5403e+002 -8.7212e+002  3.6990e+001 69874 70677,70833,70703
 3.0000e+000 71199 -1.2504e+002 -5.4864e+002  3.8631e+001 69698 71222,71052,71026
 3.0000e+000 71176 -1.6031e+002 -4.5010e+002  4.3842e+001 69698 71294,71222,71026
 3.0000e+000 71153 -1.9364e+002 -4.1357e+002 -1.0606e+002 69698 71294,71026,71000
 3.0000e+000 71130 -1.6559e+002 -4.1739e+002  6.0928e+001 69698 71366,71104,71078
 3.0000e+000 71248 -5.1041e+001 -3.8935e+002  1.9056e+001 69698 71078,71052,71222
 3.0000e+000 71271 -9.0721e+001 -3.8710e+002  5.2205e+001 69698 71366,71078,71222
 3.0000e+000 71320  8.5898e+001 -3.2501e+002 -1.2382e+000 69698 70974,71222,71294
 3.0000e+000 71343  9.8613e+001 -2.9011e+002 -1.3439e+002 69698 70974,71294,71000
 3.0000e+000 71392 -6.5210e+001 -4.1539e+002  7.2281e+001 69698 70974,71104,71366
 3.0000e+000 71415 -5.1314e+001 -4.2502e+002  7.5801e+001 69698 70974,71366,71222
 3.0000e+000 71516 -1.0088e+002 -6.5893e+002 -1.1930e+002 69386 71438,71490,71464
 3.0000e+000 71869 -4.1389e+001 -3.9105e+002  2.2407e+001 69188 71644,71748,71670
 3.0000e+000 71846  8.9842e+001 -3.3905e+002  8.7564e+001 69188 71644,71774,71748
 3.0000e+000 71823  3.4544e+001 -1.9688e+002  6.1486e+000 69188 71670,71748,71722
 3.0000e+000 71800 -1.7088e+002 -6.4944e+002 -7.4997e+001 69188 71670,71722,71696
 3.0000e+000 72019 -3.0376e+002 -7.4787e+002 -1.8619e+001 68990 71918,71970,71944
 3.0000e+000 71996 -2.6962e+002 -8.3396e+002  1.8572e+001 68990 71892,71970,71918
 3.0000e+000 72316 -1.6456e+001 -1.5304e+002  7.5397e-001 68586 72339,72172,72146
 3.0000e+000 72293 -2.6515e+001 -1.7893e+002  3.0597e+000 68586 72339,72146,72120
 3.0000e+000 72270 -3.2929e+001 -1.4762e+002  5.6502e+000 68586 72411,72068,72198
 3.0000e+000 72247 -2.6383e+001 -7.2882e+001  4.3130e+001 68586 72042,72198,72068
 3.0000e+000 72224 -8.1366e+001 -2.5662e+002  2.9150e+000 68586 72068,72120,72094
 3.0000e+000 72365 -2.3107e+001 -1.4995e+002  1.2920e+001 68586 72198,72172,72339
 3.0000e+000 72388 -2.4942e+001 -1.5433e+002  8.9748e+000 68586 72411,72198,72339
 3.0000e+000 72437 -4.2694e+001 -1.5458e+002  1.0548e+001 68586 72120,72068,72411
 3.0000e+000 72460 -3.5008e+001 -1.6317e+002  1.3859e+001 68586 72120,72411,72339
 3.0000e+000 72864 -1.1189e+000 -3.0997e+002 -4.1455e+000 68388 72642,72694,72668
 3.0000e+000 72841 -4.6555e+001 -4.0315e+002  1.0369e+001 68388 72616,72694,72642
 3.0000e+000 72818  5.1791e+000 -2.9430e+002  2.5663e+001 68388 72616,72720,72694
 3.0000e+000 72795 -7.0164e+001 -4.9046e+002  5.3093e+001 68388 72590,72720,72616
 3.0000e+000 72772  7.8156e+001 -3.4186e+002  1.5058e+002 68388 72590,72746,72720
 3.0000e+000 73321 -4.5455e+001 -1.5350e+002  4.4428e+000 68048 73073,73203,73177
 3.0000e+000 73298 -7.7147e+001 -1.5885e+002  1.2991e+001 68048 73047,73203,73073
 3.0000e+000 73275  2.2612e+001 -2.5122e+002 -8.0824e+000 68048 73125,73177,73151
 3.0000e+000 73252 -3.6368e+001 -2.5631e+002  1.5103e+001 68048 73073,73177,73125
 3.0000e+000 73229 -4.2257e+001 -2.5787e+002  1.2375e+001 68048 73073,73125,73099
 3.0000e+000 73640 -8.2649e+001 -4.6930e+002 -2.2234e+001 67850 73444,73496,73470
 3.0000e+000 73617 -7.0510e+001 -4.5008e+002 -2.8821e+001 67850 73418,73496,73444
 3.0000e+000 73594 -8.1047e+001 -4.5958e+002 -1.8032e+000 67850 73392,73496,73418
 3.0000e+000 73571 -1.5505e+002 -5.0028e+002 -2.9809e+001 67850 73392,73522,73496
 3.0000e+000 73548 -2.6034e+002 -6.6949e+002  3.6972e+001 67850 73366,73522,73392
 3.0000e+000 73790 -1.2996e+002 -3.9940e+002 -4.4229e+000 67602 73689,73741,73715
 3.0000e+000 73767 -8.4936e+001 -3.1462e+002  1.5843e+001 67602 73663,73741,73689
 3.0000e+000 74040 -8.5102e+001 -3.7872e+002 -1.8605e+001 67290 73841,73945,73919
 3.0000e+000 74017  4.6234e+001 -3.2781e+002 -6.5468e+001 67290 73815,73945,73841
 3.0000e+000 73994 -1.8689e+001 -2.4417e+002  3.6592e+000 67290 73841,73919,73867
 3.0000e+000 73971 -2.5866e+001 -2.7444e+002  2.7906e+001 67290 73867,73919,73893
 3.0000e+000 74143 -2.0318e+001 -1.2387e+002 -3.5164e+000 67092 74065,74117,74091
 3.0000e+000 74415 -1.3394e+002 -6.6091e+002 -1.1718e+002 66894 74190,74294,74216
 3.0000e+000 74392 -2.9045e+001 -6.0460e+002 -5.4603e+001 66894 74190,74320,74294
 3.0000e+000 74369 -2.1717e+001 -3.8113e+002 -9.9566e+001 66894 74216,74294,74242
 3.0000e+000 74346 -1.1362e+002 -5.4647e+002 -5.9931e+001 66894 74242,74294,74268
 3.0000e+000 75023  5.5707e+002 -2.5406e+002 -1.7889e+002 66532 74654,74836,74810
 3.0000e+000 75000 -1.9377e+002 -2.8421e+002 -1.9342e+002 66532 74628,74836,74654
 3.0000e+000 74977  6.8602e+000 -1.7731e+002  6.3976e-001 66532 74706,74784,74732
 3.0000e+000 74954  1.2055e+001 -1.9657e+002  8.0046e+000 66532 74680,74784,74706
 3.0000e+000 74931  2.4357e+002 -1.3365e+002  3.2803e+001 66532 74680,74810,74784
 3.0000e+000 74908 -2.6952e+001 -2.6870e+002 -1.5781e+002 66532 74654,74810,74680
 3.0000e+000 74885 -2.4776e+002 -3.9106e+002 -2.4613e+002 66532 74602,74836,74628
 3.0000e+000 74862 -6.3810e+000 -1.7561e+002  7.5152e+000 66532 74732,74784,74758
 3.0000e+000 75222 -8.7583e+000 -4.2505e+002 -1.1664e+001 66242 75072,75150,75124
 3.0000e+000 75199 -4.5107e+001 -3.9654e+002 -1.6366e+000 66242 75046,75150,75072
 3.0000e+000 75176  1.4220e+001 -3.3268e+002 -1.1160e+001 66242 75072,75124,75098
 3.0000e+000 75470 -7.0180e+001 -2.2608e+002 -6.6732e+001 65838 75297,75375,75349
 3.0000e+000 75447  2.0441e+001 -2.9350e+002 -2.4513e+001 65838 75271,75375,75297
 3.0000e+000 75424 -1.8926e+001 -1.8717e+002 -4.5294e+001 65838 75297,75349,75323
 3.0000e+000 75401 -2.2921e+001 -2.9214e+002  2.5479e+001 65838 75245,75375,75271
 3.0000e+000 75671 -5.6226e+001 -2.2098e+002 -7.7225e+001 65640 75495,75573,75521
 3.0000e+000 75648 -8.9113e+000 -2.2151e+002 -3.7310e+001 65640 75495,75599,75573
 3.0000e+000 75625 -7.3343e+001 -2.5503e+002 -9.7090e+001 65640 75521,75573,75547
 3.0000e+000 75872 -7.4483e+001 -1.3066e+002 -6.3444e+001 65300 75895,75748,75722
 3.0000e+000 75849  5.4892e+000 -2.3671e+002 -1.2984e+002 65300 75895,75722,75696
 3.0000e+000 75826 -9.2079e+001 -2.1591e+002 -1.3694e+002 65300 75967,75774,75748
 3.0000e+000 75921 -7.3531e+001 -2.0556e+002 -8.9155e+001 65300 75967,75748,75895
 3.0000e+000 75944 -1.0345e+002 -4.3203e+002 -8.3594e+001 65300 75800,75895,75696
 3.0000e+000 75993 -1.7793e+002 -2.0299e+002 -1.3238e+002 65300 75800,75774,75967
 3.0000e+000 76016 -1.7168e+002 -2.1850e+002 -9.6236e+001 65300 75800,75967,75895
 3.0000e+000 76371 -6.1582e+001 -1.8240e+002 -2.0051e+000 64896 76146,76250,76172
 3.0000e+000 76348 -5.0436e+001 -1.6532e+002 -9.7396e+000 64896 76146,76276,76250
 3.0000e+000 76325 -6.9524e+001 -1.7169e+002  8.3515e-001 64896 76172,76250,76198
 3.0000e+000 76302 -1.6652e+001 -1.4587e+002  9.6578e+000 64896 76198,76250,76224
 3.0000e+000 76570 -4.7951e+001 -2.2909e+002 -7.9495e+001 64442 76446,76498,76472
 3.0000e+000 76547 -5.1708e+001 -1.8204e+002 -3.9189e+001 64442 76420,76498,76446
 3.0000e+000 76524 -4.8962e+001 -2.4039e+002 -2.0822e+001 64442 76394,76498,76420
 3.0000e+000 76999 -3.6816e+001 -3.6472e+002  1.3579e+001 63924 77022,76728,76702
 3.0000e+000 76976 -7.5976e+001 -2.8180e+002 -7.7383e+001 63924 77022,76702,76832
 3.0000e+000 76953  9.7232e+000 -3.9230e+002  8.9237e+001 63924 76728,76806,76754
 3.0000e+000 76930 -1.1356e+002 -2.0779e+002  5.6421e+001 63924 76676,76832,76702
 3.0000e+000 76907 -1.2035e+002 -4.7808e+002  4.7069e+001 63924 76754,76806,76780
 3.0000e+000 76884 -2.1393e+001 -2.5432e+002  3.0158e+001 63924 76676,76858,76832
 3.0000e+000 77048 -2.2381e+001 -4.7727e+002 -1.4192e+001 63924 76806,76728,77022
 3.0000e+000 77071 -7.7371e+001 -4.1354e+002 -1.0880e+002 63924 76806,77022,76832
 3.0000e+000 77449 -5.8271e+001 -2.4880e+002  4.9505e+001 63320 77472,77253,77201
 3.0000e+000 77426 -7.7799e+001 -2.8560e+002  1.9369e+001 63320 77472,77201,77175
 3.0000e+000 77403 -5.4522e+001 -2.8613e+002 -1.7894e+001 63320 77175,77305,77279
 3.0000e+000 77380 -2.0377e+001 -1.4574e+002 -3.5505e+001 63320 77201,77253,77227
 3.0000e+000 77357 -2.7512e+000 -2.6264e+002 -2.4936e+001 63320 77175,77331,77305
 3.0000e+000 77498 -4.4331e+001 -3.0937e+002  3.1169e+001 63320 77279,77253,77472
 3.0000e+000 77521 -6.6905e+001 -3.2325e+002 -5.1604e+000 63320 77279,77472,77175
 3.0000e+000 77769 -1.2624e+002 -4.5754e+002  5.6591e+001 62816 77570,77622,77596
 3.0000e+000 77746 -2.0629e+002 -4.1934e+002  9.6929e+001 62816 77570,77648,77622
 3.0000e+000 77723 -3.2971e+001 -3.1260e+002 -1.4536e+001 62816 77570,77674,77648
 3.0000e+000 77700 -7.5625e+001 -2.4935e+002  2.6027e+001 62816 77544,77674,77570
 3.0000e+000 78149 -6.6446e+001 -2.9908e+002 -2.0179e+001 62354 77953,78031,78005
 3.0000e+000 78126 -1.1695e+002 -3.3589e+002 -3.9101e+001 62354 77901,78031,77953
 3.0000e+000 78103 -1.0893e+001 -2.8496e+002  5.7984e+001 62354 77875,78031,77901
 3.0000e+000 78080 -1.8663e+001 -4.1789e+002 -1.4047e+002 62354 77901,77953,77927
 3.0000e+000 78057 -1.3427e+002 -3.0406e+002 -2.6799e+001 62354 77953,78005,77979
 3.0000e+000 78606  1.9585e+001 -1.8706e+002  8.1070e+001 61950 78384,78436,78410
 3.0000e+000 78583 -4.5585e+000 -2.8485e+002 -4.5438e+001 61950 78358,78436,78384
 3.0000e+000 78560 -4.6850e+001 -2.2718e+002 -7.6286e+001 61950 78358,78488,78436
 3.0000e+000 78537 -8.0454e+001 -3.9242e+002 -9.5085e+001 61950 78436,78488,78462
 3.0000e+000 78514 -6.1415e+001 -1.6792e+002 -4.4003e+001 61950 78332,78488,78358
 3.0000e+000 78756  1.3601e+000 -3.5116e+002 -3.1626e+000 61339 78779,78655,78629
 3.0000e+000 78733 -2.2559e+001 -3.9793e+002  7.7313e+000 61339 78779,78629,78707
 3.0000e+000 78805 -5.7281e+001 -3.8609e+002  3.1251e+001 61339 78851,78779,78681
 3.0000e+000 78828 -1.2175e+001 -3.6159e+002  2.1837e+001 61339 78681,78779,78707
 3.0000e+000 78877 -2.2385e+001 -2.9893e+002  1.4816e+001 61339 78655,78779,78851
 3.0000e+000 79206 -5.5881e+001 -1.8470e+002 -5.6230e+001 60892 79229,79007,78981
 3.0000e+000 79183 -2.7471e+001 -4.7298e+001  1.4191e+001 60892 79229,78981,79111
 3.0000e+000 79160 -3.2509e+001 -2.5116e+002 -5.1129e+001 60892 79301,79033,79007
 3.0000e+000 79137 -6.6012e+001 -1.7141e+002  1.0690e+002 60892 79033,79085,79059
 3.0000e+000 79255 -5.8105e+001 -1.9308e+002 -9.8033e+001 60892 79301,79007,79229
 3.0000e+000 79278 -8.0560e+001 -1.6295e+002 -6.6799e+001 60892 79085,79229,79111
 3.0000e+000 79327 -1.0994e+002 -3.9870e+002 -2.7661e+000 60892 79085,79033,79301
 3.0000e+000 79350 -6.2775e+001 -2.9505e+002 -7.5988e+001 60892 79085,79301,79229
 3.0000e+000 79647 -2.2371e+002 -5.3274e+002 -4.2330e+001 60488 79451,79529,79503
 3.0000e+000 79624 -1.6854e+002 -4.3316e+002 -7.8188e+001 60488 79425,79529,79451
 3.0000e+000 79601 -1.5523e+002 -4.2722e+002 -7.5403e+001 60488 79373,79529,79425
 3.0000e+000 79578 -1.2276e+002 -4.6589e+002 -3.9520e+001 60488 79373,79425,79399
 3.0000e+000 79555 -3.9735e+001 -3.6808e+002  2.7372e+001 60488 79451,79503,79477
 3.0000e+000 79870 -1.0128e+002 -3.1985e+002  1.3714e+001 60026 79720,79798,79772
 3.0000e+000 79847  7.3247e+001 -3.2970e+002  3.0223e+000 60026 79694,79798,79720
 3.0000e+000 79824  6.7642e+001 -2.6572e+002 -2.8175e+001 60026 79720,79772,79746
 3.0000e+000 80120 -1.0810e+002 -2.5894e+002 -1.3175e+001 59629 79921,80025,79973
 3.0000e+000 80097 -1.0689e+002 -1.7636e+002  3.4429e+001 59629 79895,80025,79921
 3.0000e+000 80074 -7.0451e+001 -1.7940e+002 -2.7717e+001 59629 79973,80025,79999
 3.0000e+000 80051 -7.8642e+001 -2.0979e+002 -3.0897e+001 59629 79921,79973,79947
 3.0000e+000 80321  7.6298e+001 -3.1647e+002 -2.2969e+001 59125 80344,80171,80145
 3.0000e+000 80298  2.2781e+001 -3.8449e+002  1.9078e+000 59125 80344,80145,80249
 3.0000e+000 80275 -4.2247e+001 -2.5508e+002  3.9376e+001 59125 80197,80249,80223
 3.0000e+000 80370  4.4357e+000 -2.7797e+002  3.5495e+001 59125 80197,80171,80344
 3.0000e+000 80393 -4.3793e+001 -3.3728e+002  5.8316e+001 59125 80197,80344,80249
 3.0000e+000 80952 -5.0164e+001 -4.5102e+002  9.3270e+001 58557 80975,80632,80606
 3.0000e+000 80929 -2.2973e+001 -1.3629e+002  1.6651e+000 58557 81119,80975,80606
 3.0000e+000 80906 -1.2471e+002 -4.1815e+002 -7.1281e+001 58557 81047,80684,80632
 3.0000e+000 80883 -1.7212e+001 -1.5001e+002 -8.2254e+001 58557 81119,80606,80580
 3.0000e+000 80860 -3.7279e+001 -6.5246e+002  2.3178e+001 58557 81191,80736,80710
 3.0000e+000 80837 -7.7723e+001 -4.7844e+002 -5.9312e+001 58557 80736,80788,80762
 3.0000e+000 80814 -1.0022e+002 -2.1272e+002 -7.9482e+001 58557 80632,80684,80658
 3.0000e+000 81001 -3.8368e+001 -4.9080e+002 -1.1271e+001 58557 81047,80632,80975
 3.0000e+000 81024  4.0283e+001 -4.4972e+002  4.0079e+001 58557 81191,80710,80975
 3.0000e+000 81073 -4.7895e+001 -3.1811e+002 -2.4228e+001 58557 80710,80684,81047
 3.0000e+000 81096  6.2095e+001 -3.8824e+002  3.5783e+001 58557 80710,81047,80975
 3.0000e+000 81145 -6.9060e+001 -2.4454e+002  9.8514e-001 58557 80788,80975,81119
 3.0000e+000 81168 -5.6046e+001 -2.3847e+002 -7.3051e+001 58557 80788,81119,80580
 3.0000e+000 81217 -7.0436e+001 -4.5707e+002 -5.6047e+001 58557 80788,80736,81191
 3.0000e+000 81240 -6.1256e+001 -3.7807e+002 -6.4300e+001 58557 80788,81191,80975
 3.0000e+000 81537 -1.0426e+001 -3.4632e+002  5.4129e+000 57881 81560,81341,81289
 3.0000e+000 81514 -1.0874e+002 -3.8951e+002  4.8492e+001 57881 81560,81289,81263
 3.0000e+000 81491 -1.2758e+002 -3.1817e+002 -2.4265e+001 57881 81632,81419,81367
 3.0000e+000 81468 -1.1687e+002 -3.0853e+002 -6.5868e+001 57881 81367,81419,81393
 3.0000e+000 81445  4.9753e+000 -3.2118e+002 -2.2259e+000 57881 81289,81341,81315
 3.0000e+000 81586 -3.2954e+001 -2.6948e+002 -7.6796e+001 57881 81367,81341,81560
 3.0000e+000 81609 -1.1275e+002 -3.5465e+002 -4.0735e+001 57881 81632,81367,81560
 3.0000e+000 81658 -9.2586e+001 -2.6555e+002 -8.9707e+000 57881 81263,81419,81632
 3.0000e+000 81681 -7.7018e+001 -3.1079e+002 -2.4485e+001 57881 81263,81632,81560
 3.0000e+000 81929 -1.0608e+002 -2.8702e+002  3.5212e+000 57477 81704,81808,81782
 3.0000e+000 81906 -4.2069e+001 -3.8628e+002  4.6747e+001 57477 81704,81834,81808
 3.0000e+000 81883 -1.3619e+002 -3.2348e+002  2.3061e+001 57477 81704,81782,81730
 3.0000e+000 81860 -6.1975e+001 -2.9251e+002  7.2402e+000 57477 81730,81782,81756
 3.0000e+000 82488 -6.9935e+000 -4.2349e+002 -7.3913e+000 56966 82583,82511,82194
 3.0000e+000 82465 -1.0196e+001 -3.5126e+002  1.6317e+001 56966 82511,82116,82324
 3.0000e+000 82442 -2.0435e+001 -4.8802e+002  1.2263e+001 56966 82583,82194,82168
 3.0000e+000 82419 -7.9943e+000 -4.1043e+002  6.0527e+001 56966 82194,82246,82220
 3.0000e+000 82396 -6.8233e+001 -4.7044e+002 -2.4737e+001 56966 82194,82298,82246
 3.0000e+000 82373 -5.5245e+001 -4.1779e+002 -2.0288e+001 56966 82246,82298,82272
 3.0000e+000 82350 -2.5434e+001 -5.6244e+002 -5.2224e+001 56966 82116,82168,82142
 3.0000e+000 82537  1.5872e+000 -3.6625e+002  8.0880e+000 56966 82298,82194,82511
 3.0000e+000 82560  6.8487e+001 -2.4376e+002  7.3995e+001 56966 82298,82511,82324
 3.0000e+000 82609 -2.9282e+001 -3.5053e+002 -1.6204e+001 56966 82116,82511,82583
 3.0000e+000 82632 -2.4190e+001 -3.9781e+002 -4.3204e+000 56966 82116,82583,82168
 3.0000e+000 83236 -2.5570e+001 -2.7402e+002 -5.8804e+001 56304 82893,82945,82919
 3.0000e+000 83213 -7.8135e+001 -3.5149e+002  2.8088e+001 56304 83259,82945,82893
 3.0000e+000 83190 -6.7383e+001 -3.6714e+002  1.9240e+001 56304 83259,82893,83049
 3.0000e+000 83167 -8.6350e+001 -3.7356e+002  2.5366e+001 56304 82971,83049,83023
 3.0000e+000 83144 -9.2785e+001 -4.2306e+002  1.3526e+001 56304 82815,83049,82893
 3.0000e+000 83121 -1.0907e+002 -5.2108e+002  6.9627e+000 56304 82815,82893,82867
 3.0000e+000 83098 -8.2572e+001 -5.3427e+002  7.5530e+000 56304 82971,83023,82997
 3.0000e+000 83075 -1.7544e+002 -5.3275e+002 -4.8400e+001 56304 82815,82867,82841
 3.0000e+000 83285 -9.7710e+001 -3.7467e+002  3.8170e+001 56304 82971,82945,83259
 3.0000e+000 83308 -7.6314e+001 -3.7144e+002  2.4662e+001 56304 82971,83259,83049
 3.0000e+000 83556 -1.9932e+002 -5.0572e+002 -4.2321e+001 55964 83357,83461,83435
 3.0000e+000 83533 -1.7889e+002 -3.5694e+002  2.5938e+001 55964 83331,83461,83357
 3.0000e+000 83510 -8.0393e+001 -5.8165e+002  6.4771e+001 55964 83357,83435,83383
 3.0000e+000 83487 -1.0358e+002 -6.8851e+002  1.8665e+001 55964 83383,83435,83409
 3.0000e+000 83706  2.7907e+001 -3.1197e+002  1.0838e+001 55503 83579,83631,83605
 3.0000e+000 83683 -4.4255e+001 -3.7183e+002  3.6834e+001 55503 83579,83657,83631
 3.0000e+000 83907 -4.3414e+001 -3.2500e+002  5.0224e+001 55156 83757,83835,83809
 3.0000e+000 83884 -1.5002e+001 -2.4102e+002  8.3746e+001 55156 83731,83835,83757
 3.0000e+000 83861 -4.2324e+001 -1.9440e+002  8.4439e+001 55156 83757,83809,83783
 3.0000e+000 84240 -5.0057e+001 -3.9009e+002  1.6613e+001 54652 84093,84145,84119
 3.0000e+000 84217 -2.8919e+001 -2.3878e+002  9.4915e+000 54652 84041,84145,84093
 3.0000e+000 84194 -2.9803e+001 -3.5899e+002  6.0055e+001 54652 84015,84145,84041
 3.0000e+000 84171  2.1493e+000 -2.2283e+002  1.9876e+001 54652 84041,84093,84067
 3.0000e+000 84618 -1.4176e+002 -4.1729e+002  4.4884e+001 53926 84396,84500,84474
 3.0000e+000 84595 -2.3802e+002 -5.9189e+002  4.8821e+000 53926 84344,84500,84396
 3.0000e+000 84572 -1.6859e+002 -4.2077e+002  7.8938e+000 53926 84344,84396,84370
 3.0000e+000 84549 -1.3910e+002 -4.1023e+002  2.8337e+001 53926 84396,84474,84422
 3.0000e+000 84526 -1.9742e+002 -3.3312e+002  2.4328e+001 53926 84422,84474,84448
 3.0000e+000 85350 -1.6996e+002 -5.1462e+002 -9.1546e+001 53586 85373,84880,85088
 3.0000e+000 85327 -1.8755e+002 -5.0918e+002 -9.5437e+001 53586 84880,85114,85088
 3.0000e+000 85304 -1.2193e+002 -4.2952e+002  4.8787e+001 53586 85373,85088,85062
 3.0000e+000 85281 -1.2359e+002 -2.8719e+002 -8.8732e+001 53586 85010,85062,85036
 3.0000e+000 85258 -1.1771e+002 -3.1291e+002 -3.9420e+001 53586 85445,85010,84958
 3.0000e+000 85235 -3.5664e+001 -2.4031e+002  3.9933e+001 53586 85445,84958,84906
 3.0000e+000 85212 -6.2028e+001 -3.1566e+002 -5.7109e+001 53586 84958,85010,84984
 3.0000e+000 85189 -7.7262e+001 -5.0555e+002  4.9033e+001 53586 84906,84958,84932
 3.0000e+000 85166 -8.6872e+001 -3.5331e+002 -1.8036e+002 53586 84880,85140,85114
 3.0000e+000 85399 -1.1576e+002 -2.9759e+002 -2.2208e+001 53586 84906,84880,85373
 3.0000e+000 85422 -9.2037e+001 -2.8303e+002  7.3143e+001 53586 85517,85373,85062
 3.0000e+000 85471 -3.7242e+001 -1.2667e+002 -5.2360e+001 53586 85062,85010,85445
 3.0000e+000 85494 -9.2538e+001 -2.0480e+002  6.0342e+001 53586 85517,85062,85445
 3.0000e+000 85543 -7.9879e+001 -4.0530e+002  6.7546e+001 53586 84906,85373,85517
 3.0000e+000 85566 -8.9414e+001 -3.3670e+002  6.5061e+001 53586 84906,85517,85445
 3.0000e+000 86072 -2.1564e+001 -3.4239e+002 -1.7383e+001 53182 86095,85853,85775
 3.0000e+000 86049 -3.9999e+001 -2.5202e+002 -1.0236e+001 53182 86095,85775,85931
 3.0000e+000 86026 -2.0466e+001 -3.4531e+002  1.0285e+002 53182 86167,85879,85853
 3.0000e+000 86003 -1.8825e+001 -3.8779e+002 -6.7901e+001 53182 85775,85827,85801
 3.0000e+000 85980 -1.1719e+002 -4.7192e+002 -1.1384e+002 53182 85775,85853,85827
 3.0000e+000 85957 -1.9596e+001 -2.4248e+002 -1.3412e+001 53182 85749,85931,85775
 3.0000e+000 86121  1.4995e+001 -2.8730e+002  7.1026e+000 53182 86167,85853,86095
 3.0000e+000 86144 -8.6946e+001 -3.5837e+002 -3.9524e+001 53182 85905,86095,85931
 3.0000e+000 86193 -3.9875e+001 -3.9873e+002  1.1069e+002 53182 85905,85879,86167
 3.0000e+000 86216 -5.9783e+001 -4.6816e+002  1.3239e+001 53182 85905,86167,86095
 3.0000e+000 86673 -4.9171e+001 -2.8996e+002 -7.4734e+001 52778 86477,86529,86503
 3.0000e+000 86650 -9.4341e+001 -3.4007e+002 -3.9036e+001 52778 86425,86529,86477
 3.0000e+000 86627 -3.8383e+001 -3.0065e+002 -5.7597e+001 52778 86425,86477,86451
 3.0000e+000 86604 -1.5562e+002 -2.5553e+002 -3.5436e+001 52778 86399,86529,86425
 3.0000e+000 86581 -2.2331e+002 -3.2925e+002  4.9996e+001 52778 86399,86555,86529
 3.0000e+000 87258 -9.3473e+001 -6.5652e+002 -1.1225e+002 52238 87281,86987,86961
 3.0000e+000 87235 -3.6347e+001 -5.0561e+002  4.5696e+001 52238 87281,86961,87117
 3.0000e+000 87212 -6.8829e+001 -2.7792e+002  2.5366e+001 52238 86935,87117,86961
 3.0000e+000 87189  2.6118e+001 -3.1012e+002  5.4812e+001 52238 87065,87117,87091
 3.0000e+000 87166 -2.8715e+001 -2.5159e+002 -4.4413e+001 52238 86987,87065,87039
 3.0000e+000 87143 -1.3926e+002 -1.3046e+002 -1.5704e+002 52238 86987,87039,87013
 3.0000e+000 87307  2.4931e+001 -3.8108e+002 -8.1265e+001 52238 87065,86987,87281
 3.0000e+000 87330 -1.5484e+000 -4.1675e+002  7.5521e+001 52238 87065,87281,87117
 3.0000e+000 87610 -5.6811e+000 -2.4749e+002 -1.3406e+000 51834 87434,87512,87460
 3.0000e+000 87587  2.1760e+000 -2.3310e+002  2.5356e+001 51834 87434,87538,87512
 3.0000e+000 87564 -7.8093e+000 -5.0329e+001  3.7076e+000 51834 87633,87460,87512
 3.0000e+000 87659  2.7215e+000 -4.5820e+001  4.1677e+000 51834 87486,87460,87633
 3.0000e+000 88187 -1.2184e+002 -5.7748e+002 -5.9461e+001 51266 87864,87942,87890
 3.0000e+000 88164  1.6286e+001 -3.0509e+002 -4.9178e+000 51266 87864,88020,87942
 3.0000e+000 88141 -4.0791e+001 -3.3210e+002 -1.2579e+001 51266 87942,88020,87968
 3.0000e+000 88118 -5.6032e+001 -5.6726e+002 -7.7563e+000 51266 87864,88046,88020
 3.0000e+000 88095 -8.8033e+000 -2.7285e+002  2.1293e+000 51266 87968,88020,87994
 3.0000e+000 88072 -3.8238e+001 -4.8985e+002 -1.0525e+002 51266 87890,87942,87916
 3.0000e+000 88644 -1.6170e+002 -2.0651e+002 -4.6657e+001 50754 88370,88500,88396
 3.0000e+000 88621 -1.7211e+002 -3.7299e+002 -8.5260e+000 50754 88370,88526,88500
 3.0000e+000 88598 -1.4212e+002 -3.2816e+002 -2.4822e+002 50754 88396,88500,88422
 3.0000e+000 88575 -1.6269e+002 -5.4824e+002 -1.9235e+002 50754 88422,88500,88474
 3.0000e+000 88552 -1.3386e+002 -3.9953e+002  1.6086e+002 50754 88422,88474,88448
 3.0000e+000 88914 -6.5992e+001 -3.7148e+002  1.9302e+001 50442 88715,88793,88741
 3.0000e+000 88891 -4.1643e+001 -4.3194e+002  2.5031e+001 50442 88715,88819,88793
 3.0000e+000 88868 -8.1652e+000 -4.6322e+002  1.1785e+001 50442 88689,88819,88715
 3.0000e+000 88845 -1.0839e+002 -3.5932e+002  8.1566e+001 50442 88741,88793,88767
 3.0000e+000 89294 -5.0436e+001 -4.5995e+002  1.4521e+001 49938 89317,89046,89020
 3.0000e+000 89271 -4.2973e+001 -4.6637e+002  1.0358e+001 49938 89317,89020,89150
 3.0000e+000 89248 -1.8889e+002 -4.8653e+002 -2.9533e+001 49938 89072,89150,89098
 3.0000e+000 89225 -8.7989e+001 -5.5713e+002  1.0236e+002 49938 89020,89176,89150
 3.0000e+000 89202 -1.3793e+002 -4.0502e+002 -5.2238e+001 49938 89098,89150,89124
 3.0000e+000 89343 -1.9546e+001 -4.0761e+002  2.7724e+001 49938 89072,89046,89317
 3.0000e+000 89366 -4.5737e+001 -4.6099e+002  1.4163e+001 49938 89072,89317,89150
 3.0000e+000 89823 -1.5568e+001 -1.7698e+002  1.4792e+000 49384 89601,89705,89679
 3.0000e+000 89800 -4.0548e+001 -1.6686e+002 -3.5051e+001 49384 89549,89705,89601
 3.0000e+000 89777 -2.8613e+001 -2.5302e+002 -2.9219e+001 49384 89549,89601,89575
 3.0000e+000 89754 -1.0538e+002 -1.5307e+002  7.7425e+000 49384 89601,89679,89627
 3.0000e+000 89731 -1.0940e+002 -1.7288e+002 -2.0548e+000 49384 89627,89679,89653
 3.0000e+000 90329 -1.4810e+001 -3.1520e+002 -4.1574e+001 48894 90058,90110,90084
 3.0000e+000 90306 -9.6726e+001 -3.5359e+002 -9.6634e+001 48894 90058,90162,90110
 3.0000e+000 90283 -1.5409e+002 -4.0986e+002 -1.2005e+002 48894 90032,90162,90058
 3.0000e+000 90260 -1.5670e+002 -4.1969e+002 -9.4244e+001 48894 90006,90162,90032
 3.0000e+000 90237 -9.3661e+001 -5.1855e+002 -1.1375e+002 48894 90110,90162,90136
 3.0000e+000 90214 -7.3568e+001 -4.1592e+002 -5.1031e+001 48894 90006,90188,90162
 3.0000e+000 90884 -6.4530e+001 -3.9122e+002 -3.1837e+001 48490 90564,90642,90616
 3.0000e+000 90861 -1.3248e+002 -4.0088e+002 -3.2205e+001 48490 90564,90694,90642
 3.0000e+000 90838 -5.3439e+001 -3.6244e+002 -2.0349e+001 48490 90538,90694,90564
 3.0000e+000 90815 -6.3407e+001 -3.8287e+002 -9.9256e+000 48490 90538,90720,90694
 3.0000e+000 90792 -2.9774e+001 -3.0419e+002 -3.0364e+001 48490 90564,90616,90590
 3.0000e+000 90769 -1.3523e+002 -5.0538e+002 -1.4357e+002 48490 90642,90694,90668
 3.0000e+000 90746 -1.2698e+001 -3.1785e+002  6.6444e+001 48490 90512,90720,90538
 3.0000e+000 91034 -2.1780e+001 -3.0174e+002  4.8666e+001 48086 91057,90959,90933
 3.0000e+000 91011 -7.1112e+000 -2.7104e+002  5.2923e+001 48086 91129,91057,90933
 3.0000e+000 91083 -1.4004e+001 -2.9453e+002  4.4964e+001 48086 90985,90959,91057
 3.0000e+000 91106 -3.2118e+001 -2.8845e+002  3.6421e+001 48086 90985,91057,90907
 3.0000e+000 91155 -7.1859e+001 -3.0196e+002  4.3804e+001 48086 90907,91057,91129
 3.0000e+000 91791 -4.9749e+001 -2.4553e+002  1.3286e+002 47518 92030,91814,91523
 3.0000e+000 91768 -5.8992e+001 -2.8894e+002  5.1489e+001 47518 91958,91814,91471
 3.0000e+000 91745 -9.9100e+001 -4.2596e+002  5.9843e+001 47518 91886,91575,91523
 3.0000e+000 91722 -4.0421e+001 -1.7005e+002 -1.0952e+001 47518 91958,91471,91419
 3.0000e+000 91699 -6.7715e+001 -2.9227e+002  1.5497e+002 47518 92030,91523,91497
 3.0000e+000 91676 -1.4168e+002 -3.8631e+002  5.7792e+001 47518 91523,91575,91549
 3.0000e+000 91653 -5.7539e+001 -1.2179e+002 -5.5858e+000 47518 91419,91471,91445
 3.0000e+000 91840 -5.4142e+001 -3.4497e+002  1.3106e+002 47518 91886,91523,91814
 3.0000e+000 91863 -2.8672e+001 -2.0988e+002  4.4282e+001 47518 91601,91814,91627
 3.0000e+000 91912 -1.8597e+002 -4.7332e+002 -6.5722e+001 47518 91601,91575,91886
 3.0000e+000 91935 -1.4179e+002 -2.8974e+002  6.8933e+000 47518 91601,91886,91814
 3.0000e+000 91984  1.5202e+001 -1.8644e+002  4.7943e+000 47518 91627,91814,91958
 3.0000e+000 92007 -1.8381e+001 -1.2285e+002 -4.8287e+001 47518 91627,91958,91419
 3.0000e+000 92056 -3.7665e+001 -2.0829e+002  1.1172e+002 47518 91471,91814,92030
 3.0000e+000 92079 -3.8944e+001 -2.3513e+002  1.3097e+002 47518 91471,92030,91497
 3.0000e+000 92229 -4.5593e+000 -8.8313e+000  8.0105e+000 47128 92252,92128,92102
 3.0000e+000 92206  7.4722e+000 -1.4767e+001 -4.5548e+000 47128 92324,92252,92102
 3.0000e+000 92278  5.4296e+000  1.7319e+001  1.1021e+001 47128 92454,92252,92154
 3.0000e+000 92301  8.9384e+000 -9.8928e+000  8.0375e-001 47128 92154,92252,92180
 3.0000e+000 92350 -3.9126e+000 -1.6440e+001 -7.4610e+000 47128 92180,92252,92324
 3.0000e+000 92480  7.4691e+000 -3.8219e+000  7.9543e+000 47128 92128,92252,92454
 3.0000e+000 93340 -1.3466e+002 -3.9688e+002 -4.4600e+001 46838 93363,92977,92873
 3.0000e+000 93317 -1.2686e+002 -3.9689e+002 -2.5774e+001 46838 93507,93363,92873
 3.0000e+000 93294 -6.2463e+001 -3.9102e+002 -9.8540e+000 46838 93435,93003,92977
 3.0000e+000 93271 -2.3485e+002 -4.1459e+002 -2.9892e+001 46838 93507,92873,92847
 3.0000e+000 93248 -2.9197e+001 -3.5371e+002 -3.9392e+001 46838 93579,93029,93003
 3.0000e+000 93225 -1.8587e+002 -6.5800e+002  9.9072e+001 46838 92873,92951,92925
 3.0000e+000 93202 -2.1212e+002 -4.8004e+002 -1.0622e+001 46838 92873,92977,92951
 3.0000e+000 93179 -2.1891e+001 -3.6671e+002  1.0472e+001 46838 93055,93107,93081
 3.0000e+000 93156 -6.5102e+001 -2.5003e+002  5.6131e+001 46838 92821,93107,92847
 3.0000e+000 93133 -1.4529e+002 -4.4452e+002  7.1711e+001 46838 92873,92925,92899
 3.0000e+000 93389 -9.2530e+001 -3.8030e+002 -4.0203e+000 46838 93435,92977,93363
 3.0000e+000 93412 -4.2515e+000 -3.9463e+002  9.6029e+000 46838 93055,93363,93107
 3.0000e+000 93461 -3.5409e+001 -3.7785e+002 -3.6791e+001 46838 93579,93003,93435
 3.0000e+000 93484 -5.7865e+001 -4.2103e+002 -1.2187e+001 46838 93055,93435,93363
 3.0000e+000 93533 -4.5204e+001 -4.1740e+002 -4.5624e+001 46838 93107,93363,93507
 3.0000e+000 93556 -8.2231e+001 -3.8360e+002 -4.6711e+001 46838 93107,93507,92847
 3.0000e+000 93605 -2.8558e+001 -3.6678e+002 -2.9718e+000 46838 93055,93029,93579
 3.0000e+000 93628 -3.2159e+001 -3.8631e+002 -1.7908e-001 46838 93055,93579,93435
 3.0000e+000 93979 -1.4552e+002 -4.2602e+002 -1.8133e+000 46476 93780,93884,93858
 3.0000e+000 93956 -1.3459e+002 -4.3790e+002  6.8837e+000 46476 93754,93884,93780
 3.0000e+000 93933 -9.7575e+001 -4.1059e+002 -7.6379e+000 46476 93806,93858,93832
 3.0000e+000 93910 -9.3503e+001 -4.0238e+002 -7.1438e+000 46476 93780,93858,93806
 3.0000e+000 94515  1.3658e+001 -1.5906e+002 -3.0209e+001 46072 94345,94397,94371
 3.0000e+000 94492 -1.1137e+002 -2.2428e+002  3.9709e+001 46072 94267,94397,94345
 3.0000e+000 94469 -6.7372e+001 -3.0731e+002  5.4047e+000 46072 94241,94397,94267
 3.0000e+000 94446 -4.7575e+001 -1.0716e+002  1.4329e+001 46072 94293,94345,94319
 3.0000e+000 94423 -1.0799e+002 -1.9981e+002  4.1286e+001 46072 94267,94345,94293
 3.0000e+000 95149 -1.3345e+002 -4.8528e+002  1.2605e+001 45346 94803,94881,94855
 3.0000e+000 95126 -8.6732e+001 -4.0104e+002 -2.9767e+001 45346 94803,94959,94881
 3.0000e+000 95103 -3.5383e+001 -4.1982e+002 -9.3739e+001 45346 95172,94933,94907
 3.0000e+000 95080 -1.1775e+002 -7.6930e+002 -6.0741e+001 45346 95172,94907,94881
 3.0000e+000 95057 -1.5521e+002 -3.7305e+002 -1.3894e+001 45346 94803,94985,94959
 3.0000e+000 95034 -1.1293e+002 -5.6062e+002 -1.1064e+001 45346 94803,94855,94829
 3.0000e+000 95011 -1.6513e+002 -3.8022e+002  2.1221e+001 45346 94777,94985,94803
 3.0000e+000 95198 -1.3696e+002 -2.5918e+002 -5.6958e+001 45346 94959,94933,95172
 3.0000e+000 95221 -1.0458e+002 -4.5140e+002 -5.0925e+001 45346 94959,95172,94881
 3.0000e+000 95776 -1.1716e+002 -4.8989e+002 -3.5847e+001 44720 95799,95560,95534
 3.0000e+000 95753 -5.9956e+001 -3.2271e+002 -7.5665e+001 44720 95799,95534,95482
 3.0000e+000 95730 -4.6857e+001 -5.2245e+002 -7.6989e+001 44720 95943,95871,95430
 3.0000e+000 95707 -7.2999e+001 -4.1693e+002 -5.4321e+001 44720 95943,95430,95404
 3.0000e+000 95684 -2.0711e+002 -3.3817e+002 -1.4570e+002 44720 95430,95482,95456
 3.0000e+000 95661 -7.3107e+001 -2.6674e+002  7.1874e+001 44720 95482,95534,95508
 3.0000e+000 95638 -7.6090e+001 -2.8772e+002 -9.6362e+001 44720 95404,95612,95586
 3.0000e+000 95825 -5.9105e+001 -6.5728e+002 -1.0489e+002 44720 95586,95560,95799
 3.0000e+000 95848  7.9744e-001 -4.8106e+002 -8.6108e+001 44720 95871,95586,95799
 3.0000e+000 95897 -3.7911e+001 -5.3036e+002 -9.9633e+001 44720 95482,95430,95871
 3.0000e+000 95920 -3.9085e+001 -5.0970e+002 -6.3769e+001 44720 95482,95871,95799
 3.0000e+000 95969  1.0946e-001 -3.8086e+002 -9.3446e+001 44720 95586,95871,95943
 3.0000e+000 95992 -5.1779e+001 -3.1927e+002 -5.1780e+001 44720 95586,95943,95404
 3.0000e+000 96449 -6.3205e+001 -4.0422e+002 -2.0432e+001 44202 96544,96472,96227
 3.0000e+000 96426 -6.4099e+001 -4.3368e+002  4.5474e+001 44202 96472,96175,96331
 3.0000e+000 96403 -5.5553e+001 -4.0774e+002 -2.0048e+001 44202 96544,96227,96201
 3.0000e+000 96380 -1.0904e+002 -4.7499e+002 -7.0907e+001 44202 96253,96305,96279
 3.0000e+000 96357 -1.4493e+002 -3.9764e+002 -4.0392e+001 44202 96227,96305,96253
 3.0000e+000 96498 -6.9243e+001 -3.8196e+002 -3.0681e+000 44202 96305,96227,96472
 3.0000e+000 96521 -1.2398e+001 -3.2583e+002  6.8076e+001 44202 96305,96472,96331
 3.0000e+000 96570 -5.5360e+001 -3.9921e+002 -1.7789e+001 44202 96175,96472,96544
 3.0000e+000 96593 -4.9711e+001 -4.0508e+002 -1.8642e+001 44202 96175,96544,96201
 3.0000e+000 96971 -5.8295e+001 -3.5244e+002 -7.4073e+001 43754 96994,96749,96697
 3.0000e+000 96948 -1.7632e+001 -4.0213e+002 -3.5017e+001 43754 96994,96697,96853
 3.0000e+000 96925 -1.3050e+002 -3.4489e+002 -3.5186e+001 43754 96697,96749,96723
 3.0000e+000 96902 -7.2581e+001 -4.4650e+002  1.6440e+001 43754 96775,96853,96827
 3.0000e+000 96879 -2.1265e+001 -5.0343e+002  8.3162e+000 43754 96775,96827,96801
 3.0000e+000 97020 -2.3237e+001 -2.7299e+002 -6.8320e+001 43754 96775,96749,96994
 3.0000e+000 97043  1.6247e+000 -3.5513e+002 -3.1560e+001 43754 96775,96994,96853
 3.0000e+000 97291 -9.8597e+001 -4.3218e+002 -7.9232e+001 43364 97314,97144,97118
 3.0000e+000 97268 -1.0328e+002 -3.6437e+002 -4.9747e+001 43364 97314,97118,97092
 3.0000e+000 97245 -8.9249e+001 -3.5425e+002 -9.8035e+000 43364 97386,97196,97170
 3.0000e+000 97222 -1.3873e+002 -2.9824e+002  3.7809e+001 43364 97066,97196,97092
 3.0000e+000 97340 -3.4936e+001 -3.1308e+002 -1.0888e+002 43364 97170,97144,97314
 3.0000e+000 97363 -9.2858e+001 -3.1287e+002 -4.1325e+001 43364 97386,97170,97314
 3.0000e+000 97412 -1.0984e+002 -4.0308e+002 -4.0949e+000 43364 97092,97196,97386
 3.0000e+000 97435 -1.2444e+002 -3.8974e+002 -3.9964e+001 43364 97092,97386,97314
 3.0000e+000 97788 -2.0062e+001 -2.2249e+002  2.6260e+001 42960 97563,97667,97589
 3.0000e+000 97765 -6.5705e+001 -1.9327e+002  2.2950e+001 42960 97563,97693,97667
 3.0000e+000 97742  1.7159e+001 -1.1754e+002  6.2454e+000 42960 97589,97641,97615
 3.0000e+000 97719 -5.8310e+000 -2.4488e+002  9.8105e+000 42960 97589,97667,97641
 3.0000e+000 98215 -4.0755e+001 -3.2567e+002  6.7131e+000 42563 97918,98074,98048
 3.0000e+000 98192 -1.2567e+002 -2.6638e+002  7.1526e+001 42563 97892,98074,97918
 3.0000e+000 98169 -1.2422e+002 -5.6412e+002  4.4049e+001 42563 98238,97944,97918
 3.0000e+000 98146 -9.4027e+001 -4.8804e+002  6.4864e+001 42563 98238,97918,98048
 3.0000e+000 98123 -1.2896e+002 -3.5719e+002  2.8397e+000 42563 97944,98022,97996
 3.0000e+000 98100 -1.8670e+002 -4.4376e+002  6.9663e+001 42563 97944,97996,97970
 3.0000e+000 98264 -1.4189e+002 -5.2802e+002  4.1182e+000 42563 98022,97944,98238
 3.0000e+000 98287 -1.2930e+002 -5.0281e+002  2.2152e+001 42563 98022,98238,98048
 3.0000e+000 98616 -6.5335e+001 -2.3673e+002 -2.2241e+001 42251 98443,98521,98469
 3.0000e+000 98593 -6.3365e+001 -2.5451e+002 -2.5622e+001 42251 98417,98521,98443
 3.0000e+000 98570 -7.9037e+001 -2.9404e+002 -3.9895e+001 42251 98391,98521,98417
 3.0000e+000 98547  2.1101e+001 -1.9755e+002 -3.0899e+001 42251 98469,98521,98495
 3.0000e+000 98886 -4.1598e+001 -4.8510e+002  3.6256e+001 41847 98661,98765,98687
 3.0000e+000 98863 -6.0706e+001 -2.5101e+002 -1.2319e+002 41847 98661,98791,98765
 3.0000e+000 98840 -1.0365e+002 -3.8250e+002  1.0860e+001 41847 98687,98765,98739
 3.0000e+000 98817 -6.6644e+001 -3.4651e+002 -2.0858e+001 41847 98687,98739,98713
 3.0000e+000 99394 -7.1559e+001 -2.9174e+002 -3.4466e+001 41236 99417,99149,99123
 3.0000e+000 99371 -1.7884e+002 -3.1131e+002 -2.2867e+001 41236 99417,99123,99097
 3.0000e+000 99348 -1.4301e+002 -2.3652e+002 -9.8555e+001 41236 99489,99201,99149
 3.0000e+000 99325 -2.8175e+001 -1.6143e+002 -4.9324e+001 41236 99149,99201,99175
 3.0000e+000 99302 -6.8738e+001 -3.7303e+002 -7.6178e+000 41236 99097,99253,99227
 3.0000e+000 99279 -2.1916e+002 -5.0005e+002 -6.7561e+001 41236 99071,99253,99097
 3.0000e+000 99443 -8.7194e+001 -2.6292e+002 -9.1901e+001 41236 99489,99149,99417
 3.0000e+000 99466 -1.3850e+002 -2.9974e+002 -6.0177e+001 41236 99227,99417,99097
 3.0000e+000 99515 -1.7152e+002 -2.6281e+002 -8.5636e+001 41236 99227,99201,99489
 3.0000e+000 99538 -1.4895e+002 -3.1506e+002 -6.8389e+001 41236 99227,99489,99417
 3.0000e+000 100044  4.6581e+001 -7.9678e+002 -2.1555e+000 40732 99721,99773,99747
 3.0000e+000 100021 -8.2703e+001 -5.5079e+002 -6.9812e+001 40732 99721,99799,99773
 3.0000e+000 99998 -9.6326e+001 -4.3183e+002 -5.6669e+001 40732 99721,99903,99799
 3.0000e+000 99975 -7.7298e+001 -3.4864e+002 -3.3269e+001 40732 100067,99877,99851
 3.0000e+000 99952 -7.7907e+001 -3.0497e+002 -2.7892e+001 40732 100067,99851,99799
 3.0000e+000 99929 -6.4341e+001 -2.9578e+002 -3.3292e+001 40732 99799,99851,99825
 3.0000e+000 100093 -7.1744e+001 -3.8595e+002 -5.0063e+001 40732 99903,99877,100067
 3.0000e+000 100116 -6.7155e+001 -3.3128e+002 -4.8348e+001 40732 99903,100067,99799
 3.0000e+000 100622 -4.8343e+001 -4.0399e+002 -4.2255e+001 40278 100645,100455,100429
 3.0000e+000 100599 -1.4910e+002 -3.2479e+002 -6.7185e+001 40278 100717,100645,100429
 3.0000e+000 100576 -1.5132e+002 -3.2498e+002  1.8737e+001 40278 100717,100429,100377
 3.0000e+000 100553 -1.0889e+002 -5.6576e+002 -1.7967e+001 40278 100789,100325,100481
 3.0000e+000 100530 -1.8116e+002 -3.3107e+002  5.7933e+001 40278 100299,100481,100325
 3.0000e+000 100507 -1.6756e+002 -4.1308e+002 -2.2776e+001 40278 100377,100429,100403
 3.0000e+000 100671 -6.4800e+001 -4.3295e+002 -5.2910e+001 40278 100481,100455,100645
 3.0000e+000 100694 -1.0037e+002 -4.7991e+002 -3.0221e+001 40278 100789,100481,100645
 3.0000e+000 100743 -1.0032e+002 -1.9001e+002 -1.0054e+002 40278 100351,100645,100717
 3.0000e+000 100766 -1.3763e+002 -2.2118e+002 -7.9189e+000 40278 100351,100717,100377
 3.0000e+000 100815 -1.5463e+002 -5.7525e+002 -1.7109e+002 40278 100351,100325,100789
 3.0000e+000 100838 -8.7707e+001 -3.7706e+002 -1.7434e+002 40278 100351,100789,100645
 3.0000e+000 101265 -5.0850e+001 -3.8878e+002  4.1393e+001 39824 101288,101046,100994
 3.0000e+000 101242 -5.5841e+001 -3.2525e+002  3.2542e+001 39824 101288,100994,100968
 3.0000e+000 101219 -6.0723e+001 -3.1984e+002 -1.5793e+000 39824 100942,101124,100968
 3.0000e+000 101196 -1.3155e+002 -5.8678e+002  2.9917e+001 39824 101046,101124,101072
 3.0000e+000 101173 -1.4536e+001 -3.5624e+002  7.2187e+001 39824 100994,101046,101020
 3.0000e+000 101150 -1.6162e+002 -4.0409e+002 -5.7915e+001 39824 101072,101124,101098
 3.0000e+000 101314 -3.9197e+001 -3.4965e+002  1.6652e+001 39824 101124,101046,101288
 3.0000e+000 101337 -5.1235e+001 -3.1354e+002  1.1485e+000 39824 101124,101288,100968
 3.0000e+000 101585 -5.2956e+001 -3.5547e+002 -5.5286e+001 39070 101608,101464,101412
 3.0000e+000 101562  2.5541e+001 -3.8511e+002  1.0203e+001 39070 101608,101412,101360
 3.0000e+000 101539 -2.3477e+001 -2.9870e+002 -1.5664e+001 39070 101412,101464,101438
 3.0000e+000 101516 -3.8256e+001 -3.5542e+002  4.9343e+001 39070 101360,101412,101386
 3.0000e+000 101634 -1.1211e+002 -3.7619e+002 -5.8805e+001 39070 101490,101464,101608
 3.0000e+000 101657 -6.0265e+001 -4.1739e+002  1.4501e+001 39070 101490,101608,101360
 3.0000e+000 101856 -8.1040e+001 -3.3990e+002 -4.9187e+000 38730 101706,101758,101732
 3.0000e+000 101833 -6.0451e+001 -3.6471e+002  2.7508e+000 38730 101706,101784,101758
 3.0000e+000 101810 -1.2101e+002 -4.0318e+002 -1.6073e+001 38730 101680,101784,101706
 3.0000e+000 102106 -2.0215e+002 -4.3463e+002 -3.9298e+001 38326 101881,101959,101907
 3.0000e+000 102083 -1.5521e+002 -3.2660e+002 -4.7308e+001 38326 101881,101985,101959
 3.0000e+000 102060 -1.2165e+002 -4.8740e+002  4.7317e+001 38326 101881,102011,101985
 3.0000e+000 102037 -7.1745e+001 -2.6302e+002 -1.2854e+002 38326 101907,101959,101933
 3.0000e+000 102258 -1.7222e+001 -4.2329e+002  1.6607e+001 38036 102281,102157,102131
 3.0000e+000 102235 -3.8953e+001 -5.1647e+002  6.3205e+001 38036 102281,102131,102209
 3.0000e+000 102307 -8.1064e+001 -3.3467e+002  1.9765e+001 38036 102183,102157,102281
 3.0000e+000 102330 -8.9537e+001 -3.9682e+002  7.7568e+001 38036 102183,102281,102209
 3.0000e+000 102663 -5.3923e+001 -1.8932e+002 -2.9247e+000 37596 102438,102542,102464
 3.0000e+000 102640  1.7757e+001 -1.6242e+002 -9.8793e+000 37596 102438,102568,102542
 3.0000e+000 102617 -2.7912e+001 -2.4883e+002 -5.4159e+001 37596 102490,102542,102516
 3.0000e+000 102594 -5.6986e+001 -2.1171e+002 -5.6007e+000 37596 102464,102542,102490
 3.0000e+000 102862 -1.0217e+002 -3.6126e+002 -2.8870e+001 37192 102686,102764,102712
 3.0000e+000 102839 -6.9249e+001 -3.5257e+002 -7.3617e+001 37192 102686,102790,102764
 3.0000e+000 102816 -1.1800e+002 -3.2124e+002 -4.6885e+001 37192 102712,102764,102738
 3.0000e+000 103110 -4.0396e+001 -2.4374e+002 -1.0296e+002 36609 102911,102963,102937
 3.0000e+000 103087 -5.7706e+001 -3.3065e+002 -3.7811e+001 36609 102911,102989,102963
 3.0000e+000 103064 -1.1605e+001 -3.1856e+002 -3.4345e+001 36609 102885,102989,102911
 3.0000e+000 103041 -5.8252e+001 -2.4239e+002 -8.2636e+001 36609 102885,103015,102989
 3.0000e+000 103718  4.1226e+001 -8.1847e+002  7.6994e+001 36131 103323,103375,103349
 3.0000e+000 103695 -1.5250e+002 -4.3012e+002 -3.6067e+001 36131 103297,103375,103323
 3.0000e+000 103672 -7.1968e+001 -2.6225e+002 -6.7837e+001 36131 103297,103505,103375
 3.0000e+000 103649 -1.9505e+002 -4.3947e+002  4.2816e+001 36131 103741,103479,103401
 3.0000e+000 103626 -1.2467e+002 -2.7504e+002  4.0683e+001 36131 103741,103401,103375
 3.0000e+000 103603 -2.2849e+002 -5.1550e+002  2.6521e+001 36131 103401,103479,103427
 3.0000e+000 103580 -1.2445e+002 -3.4152e+002 -1.3104e+001 36131 103297,103531,103505
 3.0000e+000 103557 -1.6670e+002 -4.3661e+002 -5.9488e+001 36131 103427,103479,103453
 3.0000e+000 103767 -1.4955e+002 -5.4555e+002 -8.5458e+001 36131 103505,103479,103741
 3.0000e+000 103790 -8.7521e+001 -4.0056e+002 -8.2882e+001 36131 103505,103741,103375
 3.0000e+000 103989 -2.2824e+002 -4.7080e+002  2.4633e+001 35791 103839,103917,103891
 3.0000e+000 103966 -3.2918e+002 -5.2541e+002 -5.7232e+000 35791 103813,103917,103839
 3.0000e+000 103943 -2.0930e+001 -3.6315e+002 -1.5942e+001 35791 103839,103891,103865
 3.0000e+000 104188 -1.3359e+001 -3.5851e+002 -4.2474e+001 35444 104038,104090,104064
 3.0000e+000 104165 -1.5740e+002 -4.2566e+002 -5.9997e+001 35444 104038,104116,104090
 3.0000e+000 104142 -2.9285e+001 -4.1718e+002 -2.1368e+001 35444 104012,104116,104038
 3.0000e+000 104487 -2.9241e+001 -3.8404e+002 -1.1126e+002 34990 104265,104317,104291
 3.0000e+000 104464 -6.1675e+001 -4.7125e+002 -1.8751e+001 34990 104510,104317,104265
 3.0000e+000 104441 -1.2667e+002 -3.2874e+002  2.4703e+001 34990 104510,104265,104213
 3.0000e+000 104418  7.3843e-001 -3.3613e+002 -6.5570e+001 34990 104582,104343,104317
 3.0000e+000 104395 -1.0214e+002 -3.0327e+002 -9.2079e+001 34990 104213,104265,104239
 3.0000e+000 104536  6.1995e+000 -3.3009e+002 -4.3306e+001 34990 104582,104317,104510
 3.0000e+000 104559 -1.0782e+002 -2.7883e+002  1.2419e+001 34990 104369,104510,104213
 3.0000e+000 104608 -3.5529e+001 -2.4076e+002 -2.9690e+001 34990 104369,104343,104582
 3.0000e+000 104631 -6.3967e+001 -3.6235e+002  4.5609e+000 34990 104369,104582,104510
 3.0000e+000 104783  2.2979e+001 -2.0547e+002 -3.9586e+001 34700 104938,104806,104682
 3.0000e+000 104760 -3.0172e+001 -3.2492e+002 -5.0663e+001 34700 104938,104682,104656
 3.0000e+000 104832 -1.0389e+001 -2.7294e+002 -6.0584e+001 34700 104708,104682,104806
 3.0000e+000 104964  1.7832e+001 -1.5717e+002  6.2945e+001 34700 104734,104806,104938
 3.0000e+000 104987 -2.3408e+001 -2.4880e+002  5.4136e+001 34700 104734,104938,104656
 3.0000e+000 105137 -7.2332e+001 -3.2614e+002  1.2649e+001 34388 105036,105088,105062
 3.0000e+000 105114 -7.2586e+001 -4.5705e+002 -9.4515e+000 34388 105010,105088,105036
 3.0000e+000 105385 -1.3501e+002 -3.1353e+002 -5.5700e+001 33734 105408,105186,105160
 3.0000e+000 105362 -1.1835e+002 -3.4068e+002 -7.5242e+001 33734 105408,105160,105264
 3.0000e+000 105339 -2.1188e+002 -4.1656e+002 -4.2616e+001 33734 105160,105290,105264
 3.0000e+000 105316 -1.5178e+001 -2.5446e+002 -4.0578e+001 33734 105186,105238,105212
 3.0000e+000 105434 -1.1904e+002 -2.9405e+002 -4.4134e+001 33734 105238,105186,105408
 3.0000e+000 105457 -8.3933e+001 -3.2462e+002 -5.8676e+001 33734 105238,105408,105264
 3.0000e+000 105609 -1.1407e+002 -4.3262e+002  3.1702e+001 33394 105482,105534,105508
 3.0000e+000 105586 -6.6724e+001 -4.3148e+002  4.1844e+001 33394 105482,105560,105534
 3.0000e+000 105859 -1.4218e+002 -5.7146e+002 -8.7908e+001 33047 105882,105712,105660
 3.0000e+000 105836 -6.9591e+001 -5.0939e+002 -4.2193e+001 33047 105882,105660,105634
 3.0000e+000 105813 -9.5191e+001 -6.3817e+002  1.1864e+001 33047 105660,105712,105686
 3.0000e+000 105790 -7.2541e+001 -3.0650e+002 -1.4173e+001 33047 105634,105764,105738
 3.0000e+000 105908 -3.2123e+002 -4.7822e+002 -4.1602e+001 33047 105738,105712,105882
 3.0000e+000 105931 -1.4264e+002 -4.0326e+002  2.4450e+001 33047 105738,105882,105634
 3.0000e+000 106181 -5.8825e+001 -3.9655e+002 -5.7067e+000 32543 106204,106060,106008
 3.0000e+000 106158  2.0078e+001 -6.5744e+002  7.0984e+001 32543 105956,106086,106060
 3.0000e+000 106135 -1.6417e+001 -1.9951e+002  9.3089e+001 32543 106204,106008,105982
 3.0000e+000 106112 -1.0246e+002 -2.1404e+002  2.5516e+000 32543 106008,106060,106034
 3.0000e+000 106230 -7.7565e+001 -4.8525e+002 -1.0644e+002 32543 105956,106060,106204
 3.0000e+000 106253 -9.2647e+001 -3.1848e+002 -2.0318e+001 32543 105956,106204,105982
 3.0000e+000 106454 -8.7548e+000 -2.8742e+002  7.0578e+001 31839 106304,106356,106330
 3.0000e+000 106431 -4.6438e+001 -3.9077e+002 -6.7345e+001 31839 106278,106356,106304
 3.0000e+000 106408 -1.1141e+002 -4.2046e+002 -5.0839e+001 31839 106278,106382,106356
 3.0000e+000 106704 -4.0325e+001 -3.4929e+002 -6.4416e+001 31534 106505,106583,106557
 3.0000e+000 106681 -1.2062e+002 -3.6721e+002 -5.0731e+001 31534 106479,106583,106505
 3.0000e+000 106658 -1.2243e+002 -2.4529e+002 -8.6412e+001 31534 106505,106557,106531
 3.0000e+000 106635 -1.4413e+001 -3.1861e+002 -6.2284e+001 31534 106479,106609,106583
 3.0000e+000 107108 -2.5355e+002 -4.5733e+002 -7.1406e+000 31030 106886,106990,106964
 3.0000e+000 107085 -2.8184e+002 -4.7649e+002 -2.0656e+001 31030 106860,106990,106886
 3.0000e+000 107062 -2.9809e+001 -4.0500e+002 -5.8909e+001 31030 106834,106990,106860
 3.0000e+000 107039 -2.5506e+002 -6.3448e+002  6.8487e+001 31030 106912,106964,106938
 3.0000e+000 107016 -2.3319e+002 -4.4263e+002  1.0932e+001 31030 106886,106964,106912
 3.0000e+000 107307 -2.0859e+001 -4.1408e+002 -4.2945e+001 30718 107330,107157,107131
 3.0000e+000 107284 -6.7558e+001 -4.4817e+002 -2.5445e+001 30718 107330,107131,107235
 3.0000e+000 107261 -1.4963e+002 -4.3119e+002 -5.1919e+001 30718 107183,107235,107209
 3.0000e+000 107356 -7.5274e+001 -3.5106e+002 -5.2575e+001 30718 107183,107157,107330
 3.0000e+000 107379 -1.2797e+002 -3.9372e+002 -3.0998e+001 30718 107183,107330,107235
 3.0000e+000 107759 -1.1586e+001 -2.5407e+002 -2.5428e+001 30264 107782,107615,107537
 3.0000e+000 107736 -2.0915e+001 -2.7604e+002 -1.5972e+001 30264 107782,107537,107485
 3.0000e+000 107713 -8.7878e+001 -3.5429e+002  1.3345e+001 30264 107485,107537,107511
 3.0000e+000 107690 -3.2166e+001 -3.3790e+002 -5.7983e+001 30264 107537,107615,107589
 3.0000e+000 107667 -1.7208e+001 -2.6127e+002 -1.6900e+001 30264 107537,107589,107563
 3.0000e+000 107808 -1.7419e+001 -2.6264e+002 -9.2322e+000 30264 107641,107615,107782
 3.0000e+000 107831 -2.3215e+001 -2.8521e+002 -9.8547e-001 30264 107641,107782,107485
 3.0000e+000 108030 -1.2781e+002 -4.7827e+002 -1.0143e+002 29874 108053,107854,107932
 3.0000e+000 108007 -2.2301e+002 -5.1347e+002 -9.2373e+001 29874 107854,107958,107932
 3.0000e+000 107984  1.7468e+001 -3.5830e+002 -3.5981e+001 29874 108053,107932,107906
 3.0000e+000 108079 -2.0033e+002 -3.3258e+002 -4.0772e+001 29874 107880,107854,108053
 3.0000e+000 108102 -1.4093e+002 -2.5409e+002 -2.6525e+000 29874 107880,108053,107906
 3.0000e+000 108433 -2.3497e+001 -4.3022e+002 -1.4441e+002 29484 108234,108338,108312
 3.0000e+000 108410 -3.1047e+001 -3.8434e+002 -5.3779e+001 29484 108208,108338,108234
 3.0000e+000 108387 -1.6586e+002 -4.1238e+002 -1.7714e+002 29484 108234,108312,108260
 3.0000e+000 108364  2.9477e+001 -1.1648e+002 -7.2943e+001 29484 108260,108312,108286
 3.0000e+000 108762 -9.8316e+001 -3.9435e+002  1.6430e+001 29080 108563,108641,108589
 3.0000e+000 108739 -7.5157e+001 -2.5810e+002 -1.8330e+001 29080 108537,108641,108563
 3.0000e+000 108716 -1.2461e+002 -4.4653e+002  2.6006e+001 29080 108589,108641,108615
 3.0000e+000 108693 -3.8512e+000 -2.1645e+002  2.0472e+001 29080 108537,108667,108641
 3.0000e+000 109189 -7.4830e+001 -4.2117e+002 -5.3804e+001 28476 108892,108996,108970
 3.0000e+000 109166 -1.4876e+002 -4.0967e+002 -5.2671e+001 28476 108892,109022,108996
 3.0000e+000 109143 -2.0725e+002 -3.4570e+002  2.8391e+001 28476 108892,108970,108944
 3.0000e+000 109120 -1.4887e+002 -4.3893e+002 -7.2682e+001 28476 108892,109048,109022
 3.0000e+000 109097 -1.4005e+002 -1.9212e+002  4.1659e+001 28476 108892,108944,108918
 3.0000e+000 109074 -1.3867e+002 -4.3557e+002 -6.6702e+001 28476 108866,109048,108892
 3.0000e+000 109518 -1.6028e+002 -4.2838e+002  6.8726e+001 28022 109541,109371,109345
 3.0000e+000 109495 -1.7844e+002 -3.9992e+002  3.8816e+001 28022 109541,109345,109319
 3.0000e+000 109472 -1.2563e+002 -3.9507e+002  1.3829e+001 28022 109293,109397,109319
 3.0000e+000 109449 -1.2665e+001 -3.4801e+002  7.7160e+000 28022 109293,109423,109397
 3.0000e+000 109567 -8.0426e+001 -3.9391e+002  6.5793e+001 28022 109397,109371,109541
 3.0000e+000 109590 -1.5456e+002 -3.9357e+002  3.9443e+001 28022 109397,109541,109319
 3.0000e+000 109968 -5.0321e+001 -2.5146e+002  9.5710e+001 27568 109798,109850,109824
 3.0000e+000 109945 -9.6466e+001 -3.8910e+002  9.4501e+001 27568 109694,109850,109798
 3.0000e+000 109922 -1.1785e+002 -3.3983e+002  8.3357e+001 27568 109694,109798,109746
 3.0000e+000 109899 -3.3111e+001 -3.1778e+002 -2.2510e+001 27568 109746,109798,109772
 3.0000e+000 109876 -1.3389e+002 -3.8908e+002  9.1014e+001 27568 109694,109746,109720
 3.0000e+000 110167 -1.1068e+002 -4.3043e+002 -8.9230e+001 27007 110017,110095,110069
 3.0000e+000 110144 -4.2872e+000 -4.5776e+002 -1.0317e+001 27007 109991,110095,110017
 3.0000e+000 110121 -2.3931e+000 -3.6711e+002 -5.8308e+001 27007 110017,110069,110043
 3.0000e+000 110415 -3.6366e+001 -3.6723e+002 -2.0233e+001 26567 110438,110242,110190
 3.0000e+000 110392 -6.2427e+001 -4.1182e+002 -1.9542e+000 26567 110438,110190,110320
 3.0000e+000 110369 -1.1418e+002 -3.9001e+002 -4.7439e+001 26567 110242,110294,110268
 3.0000e+000 110346 -5.4441e+001 -3.6208e+002  6.2668e+001 26567 110190,110242,110216
 3.0000e+000 110464 -4.8622e+001 -3.5301e+002 -3.2112e+001 26567 110294,110242,110438
 3.0000e+000 110487 -5.2313e+001 -3.6936e+002 -1.6664e+001 26567 110294,110438,110320
 3.0000e+000 110639 -8.7318e+000 -1.0027e+002 -1.6167e+001 26170 110538,110590,110564
 3.0000e+000 110616  9.5375e+000 -5.7395e+001 -9.6713e+000 26170 110512,110590,110538
 3.0000e+000 111149 -1.5290e+002 -2.8937e+002 -8.5593e+001 25716 111172,110878,110852
 3.0000e+000 111126 -8.9837e+001 -3.0394e+002 -7.5862e+001 25716 111172,110852,111008
 3.0000e+000 111103 -8.2749e+001 -2.8217e+002 -6.4089e+001 25716 110878,110930,110904
 3.0000e+000 111080 -1.3548e+002 -3.3241e+002 -9.0921e+001 25716 110826,111008,110852
 3.0000e+000 111057 -1.4047e+002 -4.5994e+002  6.9933e+001 25716 110930,111008,110956
 3.0000e+000 111034 -9.7129e+001 -4.4231e+002  6.5380e+001 25716 110956,111008,110982
 3.0000e+000 111198 -1.0895e+002 -2.9466e+002 -6.8055e+001 25716 110930,110878,111172
 3.0000e+000 111221 -3.2874e+001 -2.9734e+002 -5.5991e+001 25716 110930,111172,111008
 3.0000e+000 111420  2.9407e+001 -2.5870e+002 -6.7419e+000 25304 111443,111270,111244
 3.0000e+000 111397  7.4589e+000 -3.0261e+002  4.4606e+000 25304 111443,111244,111348
 3.0000e+000 111374 -4.3025e+000 -1.8193e+002  3.6197e+001 25304 111270,111322,111296
 3.0000e+000 111469  1.7771e+000 -2.0878e+002 -1.5885e+001 25304 111322,111270,111443
 3.0000e+000 111492 -2.0802e+001 -2.4921e+002 -2.5218e+000 25304 111322,111443,111348
 3.0000e+000 111691 -9.8404e+001 -3.3074e+002  3.8221e+001 24736 111567,111619,111593
 3.0000e+000 111668 -1.4626e+002 -4.4975e+002  3.3289e+001 24736 111541,111619,111567
 3.0000e+000 111645 -1.1673e+002 -4.4971e+002  3.0403e+001 24736 111515,111619,111541
 3.0000e+000 112024 -2.1429e+001 -5.1108e+002  9.9470e+001 24146 111825,111877,111851
 3.0000e+000 112001 -1.4313e+002 -4.9278e+002 -2.3428e+001 24146 111825,111903,111877
 3.0000e+000 111978 -7.1762e+001 -3.0201e+002 -5.4028e+001 24146 111825,111929,111903
 3.0000e+000 111955 -7.5483e+001 -2.9605e+002 -4.9389e+001 24146 111799,111929,111825
 3.0000e+000 112370 -1.4235e+002 -6.4176e+002 -1.0132e+001 23856 112393,112151,112125
 3.0000e+000 112347 -1.1025e+002 -5.5694e+002 -5.2411e+000 23856 112465,112393,112125
 3.0000e+000 112324 -1.2799e+002 -5.3771e+002  3.4091e+001 23856 112465,112125,112073
 3.0000e+000 112301 -1.6827e+002 -5.0450e+002  4.0461e+001 23856 112073,112125,112099
 3.0000e+000 112278 -3.7472e+002 -7.1581e+002 -8.1600e+001 23856 112047,112229,112073
 3.0000e+000 112255 -7.9611e+001 -7.2098e+002 -1.6694e+002 23856 112151,112203,112177
 3.0000e+000 112419 -1.3047e+002 -5.9763e+002 -5.6063e+001 23856 112203,112151,112393
 3.0000e+000 112442 -1.6113e+002 -5.7539e+002 -5.3189e+001 23856 112203,112393,112229
 3.0000e+000 112491 -1.8458e+002 -6.0072e+002 -4.3482e+001 23856 112229,112393,112465
 3.0000e+000 112514 -1.8208e+002 -5.5310e+002 -6.8577e-001 23856 112229,112465,112073
 3.0000e+000 112784 -4.9776e+001 -4.7398e+002  3.6998e+001 23494 112611,112663,112637
 3.0000e+000 112761 -6.6100e+001 -4.1065e+002  3.5950e+001 23494 112585,112663,112611
 3.0000e+000 112738 -1.1188e+002 -4.3045e+002  2.8867e+001 23494 112559,112663,112585
 3.0000e+000 112715 -2.2328e+001 -2.5744e+002 -4.6561e+000 23494 112559,112689,112663
 3.0000e+000 113117 -2.4183e+001 -2.0244e+002 -1.7317e+001 22974 112944,113022,112996
 3.0000e+000 113094 -7.2454e+001 -2.6625e+002  9.4998e+000 22974 112918,113022,112944
 3.0000e+000 113071 -2.6566e+001 -2.6469e+002 -7.3102e+001 22974 112944,112996,112970
 3.0000e+000 113048 -2.1811e+001 -1.8613e+002  4.3268e+001 22974 112892,113022,112918
 3.0000e+000 113414 -5.1094e+001 -3.8337e+002  1.9057e+001 22370 113192,113296,113218
 3.0000e+000 113391 -5.7877e+001 -4.1122e+002  1.2023e+001 22370 113140,113296,113192
 3.0000e+000 113368 -8.8509e+001 -4.6705e+002  4.0366e+001 22370 113218,113296,113270
 3.0000e+000 113345 -1.2270e+002 -4.6194e+002  4.8807e+000 22370 113218,113270,113244
 3.0000e+000 113322 -4.7204e+001 -4.1567e+002 -2.0368e+001 22370 113140,113192,113166
 3.0000e+000 113662 -3.7096e+001 -2.8889e+002  6.6313e+001 21916 113685,113515,113489
 3.0000e+000 113639 -1.0798e+002 -4.5230e+002  2.4765e+001 21916 113685,113489,113437
 3.0000e+000 113616 -1.3541e+001 -4.5121e+002  1.5303e+001 21916 113757,113567,113541
 3.0000e+000 113593 -5.9541e+001 -3.4336e+002  3.7419e+001 21916 113437,113489,113463
 3.0000e+000 113711 -1.1877e+002 -4.9045e+002  6.4769e+001 21916 113541,113515,113685
 3.0000e+000 113734 -6.2817e+001 -4.7668e+002  2.5512e+001 21916 113757,113541,113685
 3.0000e+000 113783 -8.1088e+001 -4.4838e+002  1.5785e+001 21916 113437,113567,113757
 3.0000e+000 113806 -8.8999e+001 -4.4435e+002  1.4161e+001 21916 113437,113757,113685
 3.0000e+000 114056 -1.7464e+001 -5.3588e+002  5.8179e+000 21412 113857,113909,113883
 3.0000e+000 114033  3.3144e+001 -3.8511e+002  2.7674e+000 21412 114079,113909,113857
 3.0000e+000 114010 -9.0884e+001 -4.2657e+002 -6.3982e+000 21412 114079,113857,113961
 3.0000e+000 113987 -1.0864e+002 -4.2293e+002 -4.7152e+000 21412 113831,113961,113857
 3.0000e+000 114105 -6.4662e+001 -3.7588e+002 -5.1172e+001 21412 113935,113909,114079
 3.0000e+000 114128 -1.4924e+002 -3.8876e+002 -5.7256e+001 21412 113935,114079,113961
 3.0000e+000 114378 -1.4462e+002 -4.2527e+002 -1.3457e+002 21022 114401,114257,114205
 3.0000e+000 114355 -1.9666e+002 -5.5553e+002 -1.3639e+002 21022 114401,114205,114179
 3.0000e+000 114332 -3.6895e+001 -6.8192e+002 -7.4386e+001 21022 114153,114283,114179
 3.0000e+000 114309 -1.6452e+002 -3.0114e+002 -8.3991e+001 21022 114205,114257,114231
 3.0000e+000 114427 -1.1431e+002 -4.7135e+002 -1.6245e+001 21022 114283,114257,114401
 3.0000e+000 114450 -1.5971e+002 -5.9152e+002 -2.0233e+001 21022 114283,114401,114179
 3.0000e+000 114651 -2.1534e+002 -5.3348e+002 -1.7579e+001 20618 114501,114553,114527
 3.0000e+000 114628 -2.2372e+002 -5.3113e+002 -2.6061e+001 20618 114501,114579,114553
 3.0000e+000 114605 -1.8364e+002 -4.4968e+002  3.0548e+000 20618 114475,114579,114501
 3.0000e+000 114901  1.1541e+002 -4.2853e+002  3.0787e+001 20114 114676,114780,114702
 3.0000e+000 114878  1.2122e+001 -4.5762e+002  1.9859e+001 20114 114676,114806,114780
 3.0000e+000 114855  2.4294e+002 -5.1970e+002  2.3475e-002 20114 114702,114780,114754
 3.0000e+000 114832  7.7871e+002 -4.8346e+002  1.3139e+002 20114 114702,114754,114728
 3.0000e+000 115053 -1.1890e+002 -5.1977e+002 -2.9571e+000 19460 115147,115076,114926
 3.0000e+000 115030 -1.1679e+002 -5.0637e+002 -7.6123e+000 19460 115147,114926,115004
 3.0000e+000 115102 -1.4656e+002 -5.4588e+002  1.4188e+001 19460 114952,114926,115076
 3.0000e+000 115173 -1.0687e+002 -5.5597e+002  3.1871e+000 19460 114978,115076,115147
 3.0000e+000 115196 -9.4039e+001 -5.3300e+002 -5.4516e+000 19460 114978,115147,115004
 3.0000e+000 115446 -1.4700e+002 -6.1291e+002  5.0843e+000 19006 115273,115351,115299
 3.0000e+000 115423  7.1004e+000 -5.5599e+002  2.8979e+001 19006 115247,115351,115273
 3.0000e+000 115400 -2.1918e+001 -5.7023e+002  1.4607e+001 19006 115221,115351,115247
 3.0000e+000 115377 -1.3848e+002 -6.2162e+002 -5.3025e+000 19006 115299,115351,115325
 3.0000e+000 115767 -2.1181e+002 -5.6937e+002  1.3883e+001 18716 115571,115649,115623
 3.0000e+000 115744 -2.2736e+002 -5.9766e+002  7.7562e+000 18716 115493,115649,115571
 3.0000e+000 115721 -2.3067e+002 -5.7610e+002  1.1145e+001 18716 115493,115571,115545
 3.0000e+000 115698 -1.7561e+002 -5.1967e+002  8.6292e+001 18716 115493,115545,115519
 3.0000e+000 115675 -1.1797e+002 -5.4070e+002 -8.4098e+000 18716 115571,115623,115597
 3.0000e+000 116039 -1.0647e+002 -4.3123e+002  1.6060e+001 18312 115814,115892,115840
 3.0000e+000 116016 -9.2126e+001 -3.9578e+002  1.2872e+001 18312 115814,115944,115892
 3.0000e+000 115993 -1.1256e+002 -4.1117e+002  5.3117e+000 18312 115892,115944,115918
 3.0000e+000 115970  4.5004e+000 -4.1206e+002  4.4957e+001 18312 115840,115892,115866
 3.0000e+000 116191 -4.2708e+001 -6.6907e+002  2.3604e+000 18000 116090,116142,116116
 3.0000e+000 116168 -1.5434e+000 -6.6611e+002  3.0031e+001 18000 116064,116142,116090
 3.0000e+000 116343 -3.4502e+002 -7.4076e+002 -1.9767e+001 17396 116242,116294,116268
 3.0000e+000 116320 -3.1804e+002 -7.3353e+002 -1.6897e+001 17396 116216,116294,116242
 3.0000e+000 116566 -1.9319e+002 -7.2696e+002  4.3940e+001 16942 116390,116468,116442
 3.0000e+000 116543 -1.3881e+002 -7.5988e+002  4.6943e+001 16942 116390,116494,116468
 3.0000e+000 116520 -2.3753e+002 -8.3106e+002  1.7320e+001 16942 116390,116442,116416
 3.0000e+000 116767  1.5086e+001 -4.5650e+002 -1.8487e+001 16438 116790,116643,116617
 3.0000e+000 116744 -3.9759e+001 -3.9645e+002 -1.7306e+001 16438 116790,116617,116591
 3.0000e+000 116721  6.5732e+001 -3.6584e+002 -7.2007e+001 16438 116643,116695,116669
 3.0000e+000 116816  2.1824e+001 -4.1034e+002 -3.8787e+001 16438 116695,116643,116790
 3.0000e+000 116839  1.9678e+000 -3.4645e+002 -5.9033e+001 16438 116695,116790,116591
 3.0000e+000 117062  6.3466e+001 -5.5023e+002  4.6295e+000 16074 116886,116938,116912
 3.0000e+000 117039 -1.1520e+002 -6.3369e+002  2.6843e+001 16074 116886,116990,116938
 3.0000e+000 117016 -8.4916e+001 -5.1182e+002  3.7004e+001 16074 116938,116990,116964
 3.0000e+000 117214 -8.8014e+001 -6.6362e+002 -9.2166e+000 15649 117087,117139,117113
 3.0000e+000 117191 -6.9325e-001 -6.2987e+002 -3.5414e+000 15649 117087,117165,117139
 3.0000e+000 117317 -2.8050e+002 -6.2337e+002 -5.9972e+001 421 117239,117291,117265
 3.1000e+000 70632 -4.5274e+002 -8.0050e+002 -3.5905e+001 70072 70482,70534,70508
 3.1000e+000 70609 -4.1737e+002 -7.2604e+002 -2.5019e+001 70072 70482,70560,70534
 3.1000e+000 70586 -3.3985e+002 -6.9615e+002 -2.2758e+001 70072 70456,70560,70482
 3.1000e+000 70951 -2.9429e+002 -8.8381e+002  0.0000e+000 69874 70703,70755,70729
 3.1000e+000 70928 -1.5727e+002 -8.3901e+002 -1.3544e+002 69874 70703,70781,70755
 3.1000e+000 70905 -4.7480e+001 -3.2536e+002 -8.1445e+001 69874 70703,70807,70781
 3.1000e+000 70882 -2.0873e+002 -7.2596e+002 -2.9504e+001 69874 70703,70833,70807
 3.1000e+000 70859 -1.5707e+002 -7.2749e+002  2.8854e+001 69874 70677,70833,70703
 3.1000e+000 71199 -1.3731e+002 -5.2098e+002  2.7605e+001 69698 71222,71052,71026
 3.1000e+000 71176 -1.7440e+002 -4.2687e+002  3.1286e+001 69698 71294,71222,71026
 3.1000e+000 71153 -1.9941e+002 -4.0488e+002 -7.4729e+001 69698 71294,71026,71000
 3.1000e+000 71130 -1.3286e+002 -3.9999e+002  5.0762e+001 69698 71366,71104,71078
 3.1000e+000 71248 -7.5950e+001 -3.9136e+002  1.0233e+001 69698 71078,71052,71222
 3.1000e+000 71271 -1.0590e+002 -3.8427e+002  4.4382e+001 69698 71366,71078,71222
 3.1000e+000 71320 -1.7070e+000 -3.4145e+002  2.9683e+000 69698 70974,71222,71294
 3.1000e+000 71343  7.5232e+000 -3.1721e+002 -9.1588e+001 69698 70974,71294,71000
 3.1000e+000 71392 -9.4852e+001 -4.0557e+002  5.3408e+001 69698 70974,71104,71366
 3.1000e+000 71415 -9.2082e+001 -4.0568e+002  5.3424e+001 69698 70974,71366,71222
 3.1000e+000 71516 -8.8279e+001 -5.6670e+002 -1.0256e+002 69386 71438,71490,71464
 3.1000e+000 71869 -6.3567e+001 -3.9025e+002  2.9347e+001 69188 71644,71748,71670
 3.1000e+000 71846  7.4907e+001 -3.5276e+002  9.9102e+001 69188 71644,71774,71748
 3.1000e+000 71823  4.3700e+000 -2.0041e+002  1.8546e+001 69188 71670,71748,71722
 3.1000e+000 71800 -1.8476e+002 -5.9490e+002 -5.7238e+001 69188 71670,71722,71696
 3.1000e+000 72019 -3.1895e+002 -7.5057e+002 -2.6208e+001 68990 71918,71970,71944
 3.1000e+000 71996 -2.7649e+002 -8.5639e+002  1.9528e+001 68990 71892,71970,71918
 3.1000e+000 72316 -4.4986e+001 -2.1560e+002 -6.9414e+000 68586 72339,72172,72146
 3.1000e+000 72293 -6.1843e+001 -2.6157e+002 -3.5922e+000 68586 72339,72146,72120
 3.1000e+000 72270 -6.8463e+001 -2.2728e+002  1.3418e+001 68586 72411,72068,72198
 3.1000e+000 72247 -3.9271e+001 -1.1591e+002  6.7883e+001 68586 72042,72198,72068
 3.1000e+000 72224 -1.0309e+002 -3.2294e+002  7.6685e-001 68586 72068,72120,72094
 3.1000e+000 72365 -5.7378e+001 -2.0798e+002  1.9327e+001 68586 72198,72172,72339
 3.1000e+000 72388 -6.6444e+001 -2.2936e+002  1.4261e+001 68586 72411,72198,72339
 3.1000e+000 72437 -7.0720e+001 -2.2906e+002  1.4811e+001 68586 72120,72068,72411
 3.1000e+000 72460 -6.8807e+001 -2.3169e+002  1.5626e+001 68586 72120,72411,72339
 3.1000e+000 72864 -2.0358e+001 -3.0979e+002 -9.1076e+000 68388 72642,72694,72668
 3.1000e+000 72841 -6.9228e+001 -3.9513e+002  1.1409e+001 68388 72616,72694,72642
 3.1000e+000 72818 -2.8027e+001 -2.9775e+002  1.9799e+001 68388 72616,72720,72694
 3.1000e+000 72795 -1.0550e+002 -4.7581e+002  4.9483e+001 68388 72590,72720,72616
 3.1000e+000 72772  2.0276e+001 -3.4563e+002  1.3091e+002 68388 72590,72746,72720
 3.1000e+000 73321 -8.5278e+001 -1.8823e+002  2.1761e+000 68048 73073,73203,73177
 3.1000e+000 73298 -1.1658e+002 -1.9525e+002  8.4878e+000 68048 73047,73203,73073
 3.1000e+000 73275 -2.3167e+001 -2.9905e+002 -1.5403e+001 68048 73125,73177,73151
 3.1000e+000 73252 -7.4182e+001 -2.9708e+002  1.3163e+001 68048 73073,73177,73125
 3.1000e+000 73229 -6.3931e+001 -3.0426e+002  1.8243e+001 68048 73073,73125,73099
 3.1000e+000 73640 -1.4013e+002 -4.5261e+002 -2.2609e+001 67850 73444,73496,73470
 3.1000e+000 73617 -1.0598e+002 -4.4236e+002 -3.0378e+001 67850 73418,73496,73444
 3.1000e+000 73594 -1.1760e+002 -4.5354e+002 -2.3055e+000 67850 73392,73496,73418
 3.1000e+000 73571 -1.6811e+002 -4.7663e+002 -2.1105e+001 67850 73392,73522,73496
 3.1000e+000 73548 -2.6628e+002 -6.2408e+002  4.8182e+001 67850 73366,73522,73392
 3.1000e+000 73790 -1.5633e+002 -4.1272e+002 -3.4531e+000 67602 73689,73741,73715
 3.1000e+000 73767 -1.1927e+002 -3.4568e+002  1.5191e+001 67602 73663,73741,73689
 3.1000e+000 74040 -1.5586e+002 -4.1345e+002 -2.1273e+001 67290 73841,73945,73919
 3.1000e+000 74017 -3.5863e+001 -3.7768e+002 -6.3172e+001 67290 73815,73945,73841
 3.1000e+000 73994 -1.0983e+002 -2.9948e+002 -1.1128e+001 67290 73841,73919,73867
 3.1000e+000 73971 -1.1854e+002 -3.2573e+002 -5.1894e-001 67290 73867,73919,73893
 3.1000e+000 74143 -3.0116e+001 -1.7909e+002 -5.7783e+000 67092 74065,74117,74091
 3.1000e+000 74415 -1.2486e+002 -5.5403e+002 -8.5773e+001 66894 74190,74294,74216
 3.1000e+000 74392 -1.7824e+001 -5.0290e+002 -4.9894e+001 66894 74190,74320,74294
 3.1000e+000 74369 -4.2664e+001 -3.4486e+002 -7.4656e+001 66894 74216,74294,74242
 3.1000e+000 74346 -1.1877e+002 -4.7435e+002 -4.1688e+001 66894 74242,74294,74268
 3.1000e+000 75023  3.8717e+002 -2.9625e+002 -1.5218e+002 66532 74654,74836,74810
 3.1000e+000 75000 -2.2884e+002 -3.1985e+002 -1.6327e+002 66532 74628,74836,74654
 3.1000e+000 74977 -5.4841e+001 -2.4765e+002 -6.7088e+000 66532 74706,74784,74732
 3.1000e+000 74954 -3.4570e+001 -2.3446e+002  5.5993e+000 66532 74680,74784,74706
 3.1000e+000 74931  1.2556e+002 -2.0212e+002  1.7735e+001 66532 74680,74810,74784
 3.1000e+000 74908 -8.3631e+001 -2.9987e+002 -1.3120e+002 66532 74654,74810,74680
 3.1000e+000 74885 -2.5448e+002 -4.1441e+002 -2.1178e+002 66532 74602,74836,74628
 3.1000e+000 74862 -4.7504e+001 -2.8649e+002 -1.2637e+001 66532 74732,74784,74758
 3.1000e+000 75222 -1.0410e+001 -4.1383e+002 -9.6065e+000 66242 75072,75150,75124
 3.1000e+000 75199 -4.3356e+001 -3.8405e+002 -8.4134e-001 66242 75046,75150,75072
 3.1000e+000 75176  9.6732e+000 -3.2225e+002 -1.1017e+001 66242 75072,75124,75098
 3.1000e+000 75470 -8.3269e+001 -2.0612e+002 -4.6926e+001 65838 75297,75375,75349
 3.1000e+000 75447 -1.0708e+001 -2.3669e+002 -1.3802e+001 65838 75271,75375,75297
 3.1000e+000 75424 -3.3474e+001 -1.6708e+002 -2.4711e+001 65838 75297,75349,75323
 3.1000e+000 75401 -5.3907e+001 -2.5417e+002 -1.0382e+001 65838 75245,75375,75271
 3.1000e+000 75671 -7.2102e+001 -2.4708e+002 -6.9224e+001 65640 75495,75573,75521
 3.1000e+000 75648 -2.7755e+001 -2.3524e+002 -5.7364e+001 65640 75495,75599,75573
 3.1000e+000 75625 -8.1440e+001 -2.6759e+002 -8.1244e+001 65640 75521,75573,75547
 3.1000e+000 75872 -9.0084e+001 -1.6810e+002 -6.1591e+001 65300 75895,75748,75722
 3.1000e+000 75849 -2.3801e+001 -2.4445e+002 -1.1015e+002 65300 75895,75722,75696
 3.1000e+000 75826 -9.4922e+001 -2.0499e+002 -1.2790e+002 65300 75967,75774,75748
 3.1000e+000 75921 -8.3183e+001 -2.1006e+002 -8.2574e+001 65300 75967,75748,75895
 3.1000e+000 75944 -1.1385e+002 -4.0189e+002 -7.0233e+001 65300 75800,75895,75696
 3.1000e+000 75993 -1.7537e+002 -2.1431e+002 -1.1686e+002 65300 75800,75774,75967
 3.1000e+000 76016 -1.7026e+002 -2.3261e+002 -8.1109e+001 65300 75800,75967,75895
 3.1000e+000 76371 -1.5486e+002 -2.7380e+002 -1.3658e+001 64896 76146,76250,76172
 3.1000e+000 76348 -1.4472e+002 -2.6115e+002 -2.2649e+001 64896 76146,76276,76250
 3.1000e+000 76325 -1.8802e+002 -2.6621e+002 -7.4206e-001 64896 76172,76250,76198
 3.1000e+000 76302 -6.4324e+001 -2.0747e+002  1.8610e+001 64896 76198,76250,76224
 3.1000e+000 76570 -6.3863e+001 -2.4291e+002 -9.6183e+001 64442 76446,76498,76472
 3.1000e+000 76547 -7.3189e+001 -1.9127e+002 -4.2882e+001 64442 76420,76498,76446
 3.1000e+000 76524 -7.5351e+001 -2.5619e+002 -2.7060e+001 64442 76394,76498,76420
 3.1000e+000 76999 -1.2339e+002 -4.2216e+002  2.0084e+001 63924 77022,76728,76702
 3.1000e+000 76976 -1.5202e+002 -3.5373e+002 -5.4811e+001 63924 77022,76702,76832
 3.1000e+000 76953 -5.6880e+001 -4.3501e+002  8.3674e+001 63924 76728,76806,76754
 3.1000e+000 76930 -1.7072e+002 -2.8703e+002  5.5301e+001 63924 76676,76832,76702
 3.1000e+000 76907 -1.6602e+002 -5.1825e+002  4.5770e+001 63924 76754,76806,76780
 3.1000e+000 76884 -7.2559e+001 -3.1523e+002  2.5705e+001 63924 76676,76858,76832
 3.1000e+000 77048 -1.0811e+002 -5.1544e+002 -2.1560e+000 63924 76806,76728,77022
 3.1000e+000 77071 -1.4993e+002 -4.6324e+002 -7.9823e+001 63924 76806,77022,76832
 3.1000e+000 77449 -8.0805e+001 -2.8051e+002  5.1348e+001 63320 77472,77253,77201
 3.1000e+000 77426 -8.7901e+001 -3.1300e+002  2.1339e+001 63320 77472,77201,77175
 3.1000e+000 77403 -5.5472e+001 -3.1133e+002 -4.5947e+000 63320 77175,77305,77279
 3.1000e+000 77380 -3.6870e+001 -1.7875e+002 -3.0589e+001 63320 77201,77253,77227
 3.1000e+000 77357 -5.1104e-001 -2.8137e+002 -2.9216e+001 63320 77175,77331,77305
 3.1000e+000 77498 -8.4582e+001 -3.3875e+002  4.5055e+001 63320 77279,77253,77472
 3.1000e+000 77521 -8.5714e+001 -3.4329e+002  8.3103e+000 63320 77279,77472,77175
 3.1000e+000 77769 -1.4535e+002 -4.0328e+002  4.6483e+001 62816 77570,77622,77596
 3.1000e+000 77746 -2.1360e+002 -4.1724e+002  7.9951e+001 62816 77570,77648,77622
 3.1000e+000 77723 -5.0525e+001 -3.2262e+002 -4.9352e+000 62816 77570,77674,77648
 3.1000e+000 77700 -9.5791e+001 -2.9518e+002  1.5537e+001 62816 77544,77674,77570
 3.1000e+000 78149 -1.1095e+002 -3.2348e+002 -1.1466e+001 62354 77953,78031,78005
 3.1000e+000 78126 -1.4960e+002 -3.8273e+002 -2.9497e+001 62354 77901,78031,77953
 3.1000e+000 78103 -5.3857e+001 -3.3646e+002  5.7545e+001 62354 77875,78031,77901
 3.1000e+000 78080 -5.4089e+001 -4.4528e+002 -1.2344e+002 62354 77901,77953,77927
 3.1000e+000 78057 -1.4051e+002 -3.0067e+002 -3.1112e+001 62354 77953,78005,77979
 3.1000e+000 78606 -1.9802e+001 -2.4206e+002  6.2290e+001 61950 78384,78436,78410
 3.1000e+000 78583 -6.6211e+001 -3.2759e+002 -3.5616e+001 61950 78358,78436,78384
 3.1000e+000 78560 -1.0160e+002 -2.7587e+002 -6.3143e+001 61950 78358,78488,78436
 3.1000e+000 78537 -1.2857e+002 -4.4567e+002 -8.9478e+001 61950 78436,78488,78462
 3.1000e+000 78514 -1.1273e+002 -2.2481e+002 -3.5398e+001 61950 78332,78488,78358
 3.1000e+000 78756 -1.5618e+001 -3.6990e+002 -9.9354e-001 61339 78779,78655,78629
 3.1000e+000 78733 -4.2373e+001 -4.2134e+002  1.1231e+001 61339 78779,78629,78707
 3.1000e+000 78805 -7.8736e+001 -4.1767e+002  4.3515e+001 61339 78851,78779,78681
 3.1000e+000 78828  7.1607e+000 -3.7692e+002  3.0149e+001 61339 78681,78779,78707
 3.1000e+000 78877 -4.4949e+001 -3.2893e+002  1.2249e+001 61339 78655,78779,78851
 3.1000e+000 79206 -5.7870e+001 -1.6936e+002 -5.1553e+001 60892 79229,79007,78981
 3.1000e+000 79183 -3.4388e+001 -5.9699e+001  3.3241e+000 60892 79229,78981,79111
 3.1000e+000 79160 -4.4233e+001 -2.2142e+002 -5.3214e+001 60892 79301,79033,79007
 3.1000e+000 79137 -5.3156e+001 -1.3779e+002  8.6701e+001 60892 79033,79085,79059
 3.1000e+000 79255 -6.3142e+001 -1.7786e+002 -8.8002e+001 60892 79301,79007,79229
 3.1000e+000 79278 -6.8041e+001 -1.5047e+002 -6.2031e+001 60892 79085,79229,79111
 3.1000e+000 79327 -1.0608e+002 -3.3679e+002 -1.0324e+001 60892 79085,79033,79301
 3.1000e+000 79350 -6.0441e+001 -2.5426e+002 -6.6394e+001 60892 79085,79301,79229
 3.1000e+000 79647 -2.1807e+002 -4.8717e+002 -3.5073e+001 60488 79451,79529,79503
 3.1000e+000 79624 -1.7711e+002 -4.1538e+002 -6.4514e+001 60488 79425,79529,79451
 3.1000e+000 79601 -1.6081e+002 -4.1958e+002 -6.5757e+001 60488 79373,79529,79425
 3.1000e+000 79578 -1.4746e+002 -4.3432e+002 -5.1232e+001 60488 79373,79425,79399
 3.1000e+000 79555 -4.3327e+001 -3.6268e+002  2.4374e+001 60488 79451,79503,79477
 3.1000e+000 79870 -7.8120e+001 -2.5732e+002  6.4338e+000 60026 79720,79798,79772
 3.1000e+000 79847  2.1218e+001 -2.6918e+002 -2.8605e+000 60026 79694,79798,79720
 3.1000e+000 79824  3.2371e+001 -2.2155e+002 -2.0666e+001 60026 79720,79772,79746
 3.1000e+000 80120 -9.4317e+001 -2.0332e+002 -1.7453e+001 59629 79921,80025,79973
 3.1000e+000 80097 -8.6658e+001 -1.4149e+002  1.8523e+001 59629 79895,80025,79921
 3.1000e+000 80074 -6.8403e+001 -1.5160e+002 -3.2127e+001 59629 79973,80025,79999
 3.1000e+000 80051 -7.3676e+001 -1.7689e+002 -2.7535e+001 59629 79921,79973,79947
 3.1000e+000 80321  1.5278e+001 -2.8791e+002 -1.1430e+001 59125 80344,80171,80145
 3.1000e+000 80298 -9.4170e+000 -3.4234e+002 -2.6692e+000 59125 80344,80145,80249
 3.1000e+000 80275 -3.2316e+001 -2.5694e+002  3.3634e+001 59125 80197,80249,80223
 3.1000e+000 80370 -2.0637e+001 -2.5569e+002  2.9669e+001 59125 80197,80171,80344
 3.1000e+000 80393 -4.2055e+001 -3.0421e+002  3.6941e+001 59125 80197,80344,80249
 3.1000e+000 80952 -7.8190e+001 -4.3931e+002  8.3887e+001 58557 80975,80632,80606
 3.1000e+000 80929 -2.5727e+001 -1.7420e+002  5.0078e+000 58557 81119,80975,80606
 3.1000e+000 80906 -1.3724e+002 -3.9567e+002 -5.4993e+001 58557 81047,80684,80632
 3.1000e+000 80883  7.4484e-001 -1.7587e+002 -6.8176e+001 58557 81119,80606,80580
 3.1000e+000 80860 -4.3204e+001 -5.9141e+002  1.9963e+001 58557 81191,80736,80710
 3.1000e+000 80837 -8.7759e+001 -4.6509e+002 -6.1192e+001 58557 80736,80788,80762
 3.1000e+000 80814 -1.1867e+002 -2.1627e+002 -5.9748e+001 58557 80632,80684,80658
 3.1000e+000 81001 -5.4402e+001 -4.6322e+002 -7.4616e-001 58557 81047,80632,80975
 3.1000e+000 81024  3.0790e+001 -4.3280e+002  4.3762e+001 58557 81191,80710,80975
 3.1000e+000 81073 -6.3146e+001 -3.0686e+002 -7.5414e+000 58557 80710,80684,81047
 3.1000e+000 81096  4.4830e+001 -3.7035e+002  4.5812e+001 58557 80710,81047,80975
 3.1000e+000 81145 -6.0878e+001 -2.6371e+002  1.7435e+001 58557 80788,80975,81119
 3.1000e+000 81168 -4.5898e+001 -2.5555e+002 -4.7835e+001 58557 80788,81119,80580
 3.1000e+000 81217 -8.5865e+001 -4.3700e+002 -4.1172e+001 58557 80788,80736,81191
 3.1000e+000 81240 -6.9038e+001 -3.7925e+002 -3.9616e+001 58557 80788,81191,80975
 3.1000e+000 81537 -1.0690e+001 -2.6220e+002  2.4431e+000 57881 81560,81341,81289
 3.1000e+000 81514 -8.2022e+001 -2.9353e+002  3.1565e+001 57881 81560,81289,81263
 3.1000e+000 81491 -9.2916e+001 -2.4455e+002 -2.1155e+001 57881 81632,81419,81367
 3.1000e+000 81468 -9.1386e+001 -2.5530e+002 -6.1245e+001 57881 81367,81419,81393
 3.1000e+000 81445 -3.1451e+000 -2.4006e+002 -2.7229e+000 57881 81289,81341,81315
 3.1000e+000 81586 -2.7993e+001 -2.0921e+002 -5.6636e+001 57881 81367,81341,81560
 3.1000e+000 81609 -8.3306e+001 -2.6780e+002 -3.1885e+001 57881 81632,81367,81560
 3.1000e+000 81658 -7.0581e+001 -2.1031e+002 -1.1370e+001 57881 81263,81419,81632
 3.1000e+000 81681 -6.0664e+001 -2.3946e+002 -2.1428e+001 57881 81263,81632,81560
 3.1000e+000 81929 -9.7653e+001 -2.5831e+002  7.2727e+000 57477 81704,81808,81782
 3.1000e+000 81906 -4.7987e+001 -3.3877e+002  4.1549e+001 57477 81704,81834,81808
 3.1000e+000 81883 -1.1858e+002 -2.8572e+002  2.0116e+001 57477 81704,81782,81730
 3.1000e+000 81860 -6.0897e+001 -2.6404e+002  8.5215e+000 57477 81730,81782,81756
 3.1000e+000 82488 -3.8647e+001 -4.5166e+002  2.0666e+001 56966 82583,82511,82194
 3.1000e+000 82465 -5.3090e+001 -3.6910e+002  2.5073e+001 56966 82511,82116,82324
 3.1000e+000 82442 -7.7078e+001 -5.1411e+002  4.2785e+001 56966 82583,82194,82168
 3.1000e+000 82419 -1.1890e+001 -4.1196e+002  6.3856e+001 56966 82194,82246,82220
 3.1000e+000 82396 -9.4973e+001 -4.8669e+002 -3.2501e+001 56966 82194,82298,82246
 3.1000e+000 82373 -7.3927e+001 -4.7007e+002 -4.7832e+001 56966 82246,82298,82272
 3.1000e+000 82350 -8.9750e+001 -5.3765e+002 -3.4113e+001 56966 82116,82168,82142
 3.1000e+000 82537 -1.1873e+001 -3.9268e+002  1.4258e+001 56966 82298,82194,82511
 3.1000e+000 82560 -2.5701e+000 -3.0545e+002  6.5303e+001 56966 82298,82511,82324
 3.1000e+000 82609 -8.8786e+001 -3.7738e+002  2.6733e-001 56966 82116,82511,82583
 3.1000e+000 82632 -1.0044e+002 -4.1709e+002  1.2388e+001 56966 82116,82583,82168
 3.1000e+000 83236 -5.2187e+001 -3.1236e+002 -6.1562e+001 56304 82893,82945,82919
 3.1000e+000 83213 -9.9921e+001 -3.8802e+002  2.6293e+001 56304 83259,82945,82893
 3.1000e+000 83190 -7.9190e+001 -3.9426e+002  2.1845e+001 56304 83259,82893,83049
 3.1000e+000 83167 -1.0643e+002 -4.1116e+002  4.3952e+001 56304 82971,83049,83023
 3.1000e+000 83144 -1.1420e+002 -4.6178e+002  8.0017e+000 56304 82815,83049,82893
 3.1000e+000 83121 -1.3923e+002 -5.6947e+002  6.2823e+000 56304 82815,82893,82867
 3.1000e+000 83098 -1.0325e+002 -5.0422e+002  3.3105e+001 56304 82971,83023,82997
 3.1000e+000 83075 -2.1067e+002 -5.7562e+002 -5.5850e+001 56304 82815,82867,82841
 3.1000e+000 83285 -1.2610e+002 -3.9844e+002  4.3804e+001 56304 82971,82945,83259
 3.1000e+000 83308 -9.6422e+001 -3.9023e+002  3.4192e+001 56304 82971,83259,83049
 3.1000e+000 83556 -1.7523e+002 -4.2366e+002 -4.4861e+001 55964 83357,83461,83435
 3.1000e+000 83533 -1.4520e+002 -3.1665e+002  5.2069e+000 55964 83331,83461,83357
 3.1000e+000 83510 -6.9966e+001 -5.0350e+002  6.1334e+001 55964 83357,83435,83383
 3.1000e+000 83487 -9.3865e+001 -6.1977e+002  1.0929e+001 55964 83383,83435,83409
 3.1000e+000 83706 -2.4445e+001 -3.5273e+002  9.6935e+000 55503 83579,83631,83605
 3.1000e+000 83683 -8.7365e+001 -3.8619e+002  2.7788e+001 55503 83579,83657,83631
 3.1000e+000 83907 -5.1414e+001 -2.9180e+002  3.9572e+001 55156 83757,83835,83809
 3.1000e+000 83884 -2.9261e+001 -2.1904e+002  7.9798e+001 55156 83731,83835,83757
 3.1000e+000 83861 -5.0507e+001 -1.9181e+002  6.5781e+001 55156 83757,83809,83783
 3.1000e+000 84240 -6.5742e+001 -3.5878e+002  1.5990e+001 54652 84093,84145,84119
 3.1000e+000 84217 -3.9526e+001 -2.3212e+002  6.4928e+000 54652 84041,84145,84093
 3.1000e+000 84194 -3.1265e+001 -3.2523e+002  5.5517e+001 54652 84015,84145,84041
 3.1000e+000 84171 -2.2542e+000 -2.1222e+002  2.1966e+001 54652 84041,84093,84067
 3.1000e+000 84618 -1.1131e+002 -3.3682e+002  3.5874e+001 53926 84396,84500,84474
 3.1000e+000 84595 -1.8994e+002 -4.7464e+002  2.9402e+000 53926 84344,84500,84396
 3.1000e+000 84572 -1.2736e+002 -3.1539e+002  1.0888e+001 53926 84344,84396,84370
 3.1000e+000 84549 -1.2181e+002 -3.3946e+002  3.0976e+001 53926 84396,84474,84422
 3.1000e+000 84526 -1.7432e+002 -2.9265e+002  2.4387e+001 53926 84422,84474,84448
 3.1000e+000 85350 -1.7407e+002 -4.6534e+002 -7.4139e+001 53586 85373,84880,85088
 3.1000e+000 85327 -1.8069e+002 -4.9449e+002 -6.0569e+001 53586 84880,85114,85088
 3.1000e+000 85304 -1.5291e+002 -4.0268e+002  4.9471e+001 53586 85373,85088,85062
 3.1000e+000 85281 -1.3238e+002 -2.4553e+002 -7.4258e+001 53586 85010,85062,85036
 3.1000e+000 85258 -1.1364e+002 -2.9541e+002 -2.6719e+001 53586 85445,85010,84958
 3.1000e+000 85235 -4.4813e+001 -2.4100e+002  2.8333e+001 53586 85445,84958,84906
 3.1000e+000 85212 -5.6646e+001 -2.8320e+002 -4.6397e+001 53586 84958,85010,84984
 3.1000e+000 85189 -6.9358e+001 -4.6854e+002  4.1881e+001 53586 84906,84958,84932
 3.1000e+000 85166 -9.9869e+001 -3.3052e+002 -1.5156e+002 53586 84880,85140,85114
 3.1000e+000 85399 -1.2056e+002 -2.7915e+002 -2.5862e+001 53586 84906,84880,85373
 3.1000e+000 85422 -1.1374e+002 -2.7845e+002  5.5580e+001 53586 85517,85373,85062
 3.1000e+000 85471 -5.0442e+001 -1.4936e+002 -4.1477e+001 53586 85062,85010,85445
 3.1000e+000 85494 -1.0508e+002 -2.1473e+002  4.3414e+001 53586 85517,85062,85445
 3.1000e+000 85543 -9.0296e+001 -3.7874e+002  5.4509e+001 53586 84906,85373,85517
 3.1000e+000 85566 -9.2407e+001 -3.2588e+002  5.1247e+001 53586 84906,85517,85445
 3.1000e+000 86072 -3.6116e+001 -3.4369e+002  3.4179e+000 53182 86095,85853,85775
 3.1000e+000 86049 -6.8529e+001 -2.5929e+002  1.6448e+001 53182 86095,85775,85931
 3.1000e+000 86026 -4.5549e+001 -3.3587e+002  1.1604e+002 53182 86167,85879,85853
 3.1000e+000 86003 -1.8420e+001 -3.8513e+002 -6.4210e+001 53182 85775,85827,85801
 3.1000e+000 85980 -1.1937e+002 -4.4617e+002 -9.0817e+001 53182 85775,85853,85827
 3.1000e+000 85957 -5.7825e+001 -2.5352e+002  1.2463e+001 53182 85749,85931,85775
 3.1000e+000 86121 -1.7675e+001 -2.8555e+002  2.9372e+001 53182 86167,85853,86095
 3.1000e+000 86144 -1.4116e+002 -3.5433e+002 -1.6556e+001 53182 85905,86095,85931
 3.1000e+000 86193 -6.4676e+001 -3.8446e+002  1.1915e+002 53182 85905,85879,86167
 3.1000e+000 86216 -8.6718e+001 -4.4972e+002  3.0658e+001 53182 85905,86167,86095
 3.1000e+000 86673 -5.8989e+001 -2.8585e+002 -7.8491e+001 52778 86477,86529,86503
 3.1000e+000 86650 -1.1128e+002 -3.3473e+002 -3.3174e+001 52778 86425,86529,86477
 3.1000e+000 86627 -4.5027e+001 -2.9974e+002 -4.6201e+001 52778 86425,86477,86451
 3.1000e+000 86604 -1.6281e+002 -2.4637e+002 -2.7231e+001 52778 86399,86529,86425
 3.1000e+000 86581 -2.2900e+002 -3.1077e+002  4.2854e+001 52778 86399,86555,86529
 3.1000e+000 87258 -9.3198e+001 -6.3880e+002 -1.1040e+002 52238 87281,86987,86961
 3.1000e+000 87235 -3.6213e+001 -4.8862e+002  4.3452e+001 52238 87281,86961,87117
 3.1000e+000 87212 -6.6767e+001 -2.5045e+002  2.2219e+001 52238 86935,87117,86961
 3.1000e+000 87189  2.0536e+001 -2.7828e+002  5.3243e+001 52238 87065,87117,87091
 3.1000e+000 87166 -4.6038e+001 -2.4898e+002 -4.6525e+001 52238 86987,87065,87039
 3.1000e+000 87143 -1.5711e+002 -1.3754e+002 -1.5451e+002 52238 86987,87039,87013
 3.1000e+000 87307  2.2256e+001 -3.6909e+002 -7.7948e+001 52238 87065,86987,87281
 3.1000e+000 87330 -2.7474e+000 -4.0128e+002  7.5082e+001 52238 87065,87281,87117
 3.1000e+000 87610 -4.4756e+001 -2.6523e+002 -8.4631e-001 51834 87434,87512,87460
 3.1000e+000 87587 -3.5113e+001 -2.4776e+002  3.1095e+001 51834 87434,87538,87512
 3.1000e+000 87564 -3.0550e+001 -8.6948e+001  1.0058e+001 51834 87633,87460,87512
 3.1000e+000 87659 -3.3080e+000 -7.5280e+001  1.1237e+001 51834 87486,87460,87633
 3.1000e+000 88187 -1.0982e+002 -5.0571e+002 -5.3179e+001 51266 87864,87942,87890
 3.1000e+000 88164  2.6142e+000 -2.8395e+002 -8.5164e+000 51266 87864,88020,87942
 3.1000e+000 88141 -4.2708e+001 -2.9968e+002 -4.3543e+000 51266 87942,88020,87968
 3.1000e+000 88118 -5.6029e+001 -5.0583e+002 -1.4017e+001 51266 87864,88046,88020
 3.1000e+000 88095 -2.0246e+001 -2.5006e+002  6.4143e+000 51266 87968,88020,87994
 3.1000e+000 88072 -2.9773e+001 -4.4596e+002 -1.0229e+002 51266 87890,87942,87916
 3.1000e+000 88644 -1.8259e+002 -2.2534e+002 -2.9629e+001 50754 88370,88500,88396
 3.1000e+000 88621 -1.8964e+002 -3.7838e+002  5.2298e+000 50754 88370,88526,88500
 3.1000e+000 88598 -1.5691e+002 -3.4324e+002 -2.2674e+002 50754 88396,88500,88422
 3.1000e+000 88575 -1.7831e+002 -5.3634e+002 -1.8018e+002 50754 88422,88500,88474
 3.1000e+000 88552 -1.3645e+002 -3.8937e+002  1.4733e+002 50754 88422,88474,88448
 3.1000e+000 88914 -5.1196e+001 -2.5485e+002  1.1256e+001 50442 88715,88793,88741
 3.1000e+000 88891 -3.2829e+001 -3.3637e+002  2.2256e+001 50442 88715,88819,88793
 3.1000e+000 88868 -3.5354e+000 -3.8154e+002  3.1548e+000 50442 88689,88819,88715
 3.1000e+000 88845 -6.9818e+001 -2.4203e+002  5.4911e+001 50442 88741,88793,88767
 3.1000e+000 89294 -2.9367e+001 -3.7426e+002  3.0143e+000 49938 89317,89046,89020
 3.1000e+000 89271 -2.0762e+001 -3.8629e+002 -1.9612e+000 49938 89317,89020,89150
 3.1000e+000 89248 -1.4724e+002 -4.0403e+002 -3.1145e+001 49938 89072,89150,89098
 3.1000e+000 89225 -5.8400e+001 -4.5902e+002  7.1696e+001 49938 89020,89176,89150
 3.1000e+000 89202 -1.2490e+002 -3.4059e+002 -3.5495e+001 49938 89098,89150,89124
 3.1000e+000 89343  1.6086e+001 -2.7590e+002  2.1141e+001 49938 89072,89046,89317
 3.1000e+000 89366 -3.0015e+001 -3.7573e+002  5.8597e+000 49938 89072,89317,89150
 3.1000e+000 89823 -9.9760e+000 -1.5689e+002  9.0647e-001 49384 89601,89705,89679
 3.1000e+000 89800 -2.5591e+001 -1.2858e+002 -3.1858e+001 49384 89549,89705,89601
 3.1000e+000 89777 -9.9285e+000 -2.2808e+002 -2.5913e+001 49384 89549,89601,89575
 3.1000e+000 89754 -9.4540e+001 -1.2407e+002  1.1108e+001 49384 89601,89679,89627
 3.1000e+000 89731 -1.0888e+002 -1.4589e+002  2.3741e+001 49384 89627,89679,89653
 3.1000e+000 90329 -1.0110e+001 -2.6272e+002 -2.8596e+001 48894 90058,90110,90084
 3.1000e+000 90306 -7.4947e+001 -2.9363e+002 -8.2876e+001 48894 90058,90162,90110
 3.1000e+000 90283 -1.2385e+002 -3.5245e+002 -1.0385e+002 48894 90032,90162,90058
 3.1000e+000 90260 -1.1617e+002 -3.5888e+002 -7.5497e+001 48894 90006,90162,90032
 3.1000e+000 90237 -8.8067e+001 -4.6106e+002 -9.1155e+001 48894 90110,90162,90136
 3.1000e+000 90214 -5.3880e+001 -3.5259e+002 -4.8680e+001 48894 90006,90188,90162
 3.1000e+000 90884 -3.4485e+001 -3.0383e+002 -2.7399e+001 48490 90564,90642,90616
 3.1000e+000 90861 -9.1385e+001 -3.0695e+002 -3.0491e+001 48490 90564,90694,90642
 3.1000e+000 90838 -3.0686e+001 -2.7622e+002 -1.9820e+001 48490 90538,90694,90564
 3.1000e+000 90815 -4.6622e+001 -2.8583e+002 -1.5815e+001 48490 90538,90720,90694
 3.1000e+000 90792 -4.5609e+000 -2.1754e+002 -1.5936e+001 48490 90564,90616,90590
 3.1000e+000 90769 -1.0605e+002 -4.2778e+002 -1.2856e+002 48490 90642,90694,90668
 3.1000e+000 90746 -1.0448e+001 -2.3751e+002  4.2886e+001 48490 90512,90720,90538
 3.1000e+000 91034 -1.0525e+001 -2.3364e+002  4.7088e+001 48086 91057,90959,90933
 3.1000e+000 91011 -2.8570e+000 -2.0970e+002  4.5322e+001 48086 91129,91057,90933
 3.1000e+000 91083  4.3832e-001 -2.2460e+002  4.2646e+001 48086 90985,90959,91057
 3.1000e+000 91106 -1.5503e+001 -2.1605e+002  3.5079e+001 48086 90985,91057,90907
 3.1000e+000 91155 -4.0297e+001 -2.2709e+002  4.0597e+001 48086 90907,91057,91129
 3.1000e+000 91791 -5.4275e+001 -2.3805e+002  1.2878e+002 47518 92030,91814,91523
 3.1000e+000 91768 -7.1522e+001 -2.8564e+002  5.6824e+001 47518 91958,91814,91471
 3.1000e+000 91745 -1.0022e+002 -4.1181e+002  5.3087e+001 47518 91886,91575,91523
 3.1000e+000 91722 -5.6024e+001 -1.8142e+002  4.5637e-001 47518 91958,91471,91419
 3.1000e+000 91699 -6.5512e+001 -2.7680e+002  1.4726e+002 47518 92030,91523,91497
 3.1000e+000 91676 -1.3731e+002 -3.7139e+002  5.2315e+001 47518 91523,91575,91549
 3.1000e+000 91653 -6.6243e+001 -1.2682e+002  2.9201e+000 47518 91419,91471,91445
 3.1000e+000 91840 -5.7205e+001 -3.3573e+002  1.2638e+002 47518 91886,91523,91814
 3.1000e+000 91863 -3.9162e+001 -2.1152e+002  4.8343e+001 47518 91601,91814,91627
 3.1000e+000 91912 -1.8642e+002 -4.5860e+002 -6.3561e+001 47518 91601,91575,91886
 3.1000e+000 91935 -1.4984e+002 -2.8963e+002  1.1721e+001 47518 91601,91886,91814
 3.1000e+000 91984 -4.4045e+000 -1.9602e+002  1.6017e+001 47518 91627,91814,91958
 3.1000e+000 92007 -3.4977e+001 -1.3994e+002 -3.1842e+001 47518 91627,91958,91419
 3.1000e+000 92056 -4.3500e+001 -2.0664e+002  1.1416e+002 47518 91471,91814,92030
 3.1000e+000 92079 -4.2080e+001 -2.2899e+002  1.3063e+002 47518 91471,92030,91497
 3.1000e+000 92229 -1.6265e+000 -6.1795e+000  6.1658e+000 47128 92252,92128,92102
 3.1000e+000 92206  6.8992e+000 -1.1625e+001 -3.2164e+000 47128 92324,92252,92102
 3.1000e+000 92278  6.1088e+000  1.5957e+001  1.1809e+001 47128 92454,92252,92154
 3.1000e+000 92301  6.3334e+000 -1.2342e+001  3.9968e+000 47128 92154,92252,92180
 3.1000e+000 92350 -5.6757e+000 -1.8802e+001 -7.3088e+000 47128 92180,92252,92324
 3.1000e+000 92480  4.9631e+000 -2.7445e+000  8.3552e+000 47128 92128,92252,92454
 3.1000e+000 93340 -1.0763e+002 -3.3660e+002 -3.5723e+001 46838 93363,92977,92873
 3.1000e+000 93317 -1.0027e+002 -3.3606e+002 -2.1320e+001 46838 93507,93363,92873
 3.1000e+000 93294 -4.4318e+001 -3.2420e+002 -3.7067e+000 46838 93435,93003,92977
 3.1000e+000 93271 -1.8911e+002 -3.5255e+002 -2.5538e+001 46838 93507,92873,92847
 3.1000e+000 93248 -1.8945e+001 -3.0200e+002 -3.0750e+001 46838 93579,93029,93003
 3.1000e+000 93225 -1.4861e+002 -5.5650e+002  8.9380e+001 46838 92873,92951,92925
 3.1000e+000 93202 -1.7333e+002 -4.0583e+002 -6.8758e+000 46838 92873,92977,92951
 3.1000e+000 93179 -1.5104e+001 -3.1507e+002  8.6384e+000 46838 93055,93107,93081
 3.1000e+000 93156 -4.1042e+001 -2.0389e+002  5.8708e+001 46838 92821,93107,92847
 3.1000e+000 93133 -1.1098e+002 -3.5563e+002  6.2807e+001 46838 92873,92925,92899
 3.1000e+000 93389 -7.1932e+001 -3.2159e+002 -1.7744e+000 46838 93435,92977,93363
 3.1000e+000 93412  4.5998e-001 -3.3845e+002  7.6717e+000 46838 93055,93363,93107
 3.1000e+000 93461 -2.3140e+001 -3.2106e+002 -2.7889e+001 46838 93579,93003,93435
 3.1000e+000 93484 -4.1545e+001 -3.5901e+002 -8.8182e+000 46838 93055,93435,93363
 3.1000e+000 93533 -3.2984e+001 -3.5658e+002 -3.7375e+001 46838 93107,93363,93507
 3.1000e+000 93556 -6.3137e+001 -3.3028e+002 -3.8350e+001 46838 93107,93507,92847
 3.1000e+000 93605 -2.0404e+001 -3.1315e+002 -1.9701e+000 46838 93055,93029,93579
 3.1000e+000 93628 -2.2437e+001 -3.2852e+002  1.0065e+000 46838 93055,93579,93435
 3.1000e+000 93979 -9.1497e+001 -3.1477e+002 -2.5288e+000 46476 93780,93884,93858
 3.1000e+000 93956 -9.2135e+001 -3.3237e+002 -5.3654e-001 46476 93754,93884,93780
 3.1000e+000 93933 -3.3193e+001 -2.5108e+002 -6.0980e+000 46476 93806,93858,93832
 3.1000e+000 93910 -4.9924e+001 -2.9554e+002 -7.4784e+000 46476 93780,93858,93806
 3.1000e+000 94515  4.4524e+000 -1.7185e+002 -1.4031e+001 46072 94345,94397,94371
 3.1000e+000 94492 -1.3273e+002 -2.3914e+002  3.9642e+001 46072 94267,94397,94345
 3.1000e+000 94469 -9.2733e+001 -2.8928e+002  1.1074e+001 46072 94241,94397,94267
 3.1000e+000 94446 -7.2692e+001 -1.1144e+002  2.6836e+001 46072 94293,94345,94319
 3.1000e+000 94423 -1.1753e+002 -1.8361e+002  4.6395e+001 46072 94267,94345,94293
 3.1000e+000 95149 -1.2925e+002 -4.3775e+002  1.0179e+001 45346 94803,94881,94855
 3.1000e+000 95126 -1.0110e+002 -3.6707e+002 -2.6208e+001 45346 94803,94959,94881
 3.1000e+000 95103 -5.4249e+001 -3.8008e+002 -9.0380e+001 45346 95172,94933,94907
 3.1000e+000 95080 -1.2815e+002 -7.0317e+002 -6.0398e+001 45346 95172,94907,94881
 3.1000e+000 95057 -1.4978e+002 -3.4109e+002 -1.1948e+001 45346 94803,94985,94959
 3.1000e+000 95034 -1.1019e+002 -5.0029e+002 -1.0827e+001 45346 94803,94855,94829
 3.1000e+000 95011 -1.5188e+002 -3.3209e+002  1.7859e+001 45346 94777,94985,94803
 3.1000e+000 95198 -1.4663e+002 -2.3107e+002 -5.6559e+001 45346 94959,94933,95172
 3.1000e+000 95221 -1.1497e+002 -4.0970e+002 -5.1256e+001 45346 94959,95172,94881
 3.1000e+000 95776 -1.0021e+002 -4.5064e+002 -2.8081e+001 44720 95799,95560,95534
 3.1000e+000 95753 -4.6537e+001 -2.8943e+002 -6.6131e+001 44720 95799,95534,95482
 3.1000e+000 95730 -2.7230e+001 -4.8477e+002 -6.5365e+001 44720 95943,95871,95430
 3.1000e+000 95707 -4.8850e+001 -3.8278e+002 -4.2979e+001 44720 95943,95430,95404
 3.1000e+000 95684 -1.9230e+002 -3.0331e+002 -1.3691e+002 44720 95430,95482,95456
 3.1000e+000 95661 -7.3679e+001 -2.3928e+002  8.0933e+001 44720 95482,95534,95508
 3.1000e+000 95638 -4.9971e+001 -2.4141e+002 -9.0887e+001 44720 95404,95612,95586
 3.1000e+000 95825 -4.7981e+001 -6.1123e+002 -9.4227e+001 44720 95586,95560,95799
 3.1000e+000 95848  6.1921e+000 -4.4540e+002 -7.2758e+001 44720 95871,95586,95799
 3.1000e+000 95897 -2.5263e+001 -4.9658e+002 -9.0038e+001 44720 95482,95430,95871
 3.1000e+000 95920 -2.3550e+001 -4.6834e+002 -5.3299e+001 44720 95482,95871,95799
 3.1000e+000 95969  1.0605e+001 -3.4614e+002 -7.7337e+001 44720 95586,95871,95943
 3.1000e+000 95992 -3.2925e+001 -2.8452e+002 -3.6512e+001 44720 95586,95943,95404
 3.1000e+000 96449 -7.1144e+001 -3.9642e+002 -8.4195e+000 44202 96544,96472,96227
 3.1000e+000 96426 -7.2941e+001 -4.1007e+002  5.2430e+001 44202 96472,96175,96331
 3.1000e+000 96403 -6.2392e+001 -4.0530e+002 -6.4800e+000 44202 96544,96227,96201
 3.1000e+000 96380 -1.0977e+002 -4.4878e+002 -6.2695e+001 44202 96253,96305,96279
 3.1000e+000 96357 -1.4262e+002 -3.7407e+002 -3.4132e+001 44202 96227,96305,96253
 3.1000e+000 96498 -6.8325e+001 -3.6421e+002  2.6360e+000 44202 96305,96227,96472
 3.1000e+000 96521 -2.8255e+001 -3.1642e+002  7.1093e+001 44202 96305,96472,96331
 3.1000e+000 96570 -6.5776e+001 -3.7925e+002 -4.1753e+000 44202 96175,96472,96544
 3.1000e+000 96593 -6.2422e+001 -3.9477e+002 -3.1959e+000 44202 96175,96544,96201
 3.1000e+000 96971 -4.9078e+001 -2.9124e+002 -6.5500e+001 43754 96994,96749,96697
 3.1000e+000 96948 -5.6555e+000 -3.3799e+002 -2.8019e+001 43754 96994,96697,96853
 3.1000e+000 96925 -1.1305e+002 -2.6898e+002 -2.9991e+001 43754 96697,96749,96723
 3.1000e+000 96902 -4.4606e+001 -3.5990e+002  2.2110e+001 43754 96775,96853,96827
 3.1000e+000 96879 -7.0773e+000 -4.2265e+002  1.0513e+001 43754 96775,96827,96801
 3.1000e+000 97020 -1.4420e+001 -2.1740e+002 -5.5355e+001 43754 96775,96749,96994
 3.1000e+000 97043  1.5984e+001 -2.9444e+002 -2.0934e+001 43754 96775,96994,96853
 3.1000e+000 97291 -7.8776e+001 -3.7930e+002 -7.0206e+001 43364 97314,97144,97118
 3.1000e+000 97268 -7.3178e+001 -3.1586e+002 -4.2720e+001 43364 97314,97118,97092
 3.1000e+000 97245 -6.7011e+001 -3.0235e+002 -3.4587e-001 43364 97386,97196,97170
 3.1000e+000 97222 -1.0557e+002 -2.6271e+002  3.6662e+001 43364 97066,97196,97092
 3.1000e+000 97340 -3.7463e+001 -2.6971e+002 -9.1259e+001 43364 97170,97144,97314
 3.1000e+000 97363 -7.2212e+001 -2.6245e+002 -3.1049e+001 43364 97386,97170,97314
 3.1000e+000 97412 -8.6794e+001 -3.4884e+002  1.9996e+000 43364 97092,97196,97386
 3.1000e+000 97435 -1.0396e+002 -3.3701e+002 -3.2991e+001 43364 97092,97386,97314
 3.1000e+000 97788 -2.1773e+001 -2.0973e+002  2.1811e+001 42960 97563,97667,97589
 3.1000e+000 97765 -6.2008e+001 -1.8576e+002  1.9409e+001 42960 97563,97693,97667
 3.1000e+000 97742  1.0378e+001 -8.7827e+001  6.1565e+000 42960 97589,97641,97615
 3.1000e+000 97719 -1.0824e+001 -2.2909e+002  7.7777e+000 42960 97589,97667,97641
 3.1000e+000 98215 -1.1247e+001 -2.5413e+002  4.5442e-002 42563 97918,98074,98048
 3.1000e+000 98192 -7.7700e+001 -2.0220e+002  5.6106e+001 42563 97892,98074,97918
 3.1000e+000 98169 -8.3091e+001 -4.4884e+002  3.2308e+001 42563 98238,97944,97918
 3.1000e+000 98146 -6.2321e+001 -3.9583e+002  5.0875e+001 42563 98238,97918,98048
 3.1000e+000 98123 -9.0789e+001 -2.6968e+002  5.0803e+000 42563 97944,98022,97996
 3.1000e+000 98100 -1.4912e+002 -3.6691e+002  6.0151e+001 42563 97944,97996,97970
 3.1000e+000 98264 -9.9536e+001 -4.2478e+002  4.5549e+000 42563 98022,97944,98238
 3.1000e+000 98287 -9.0406e+001 -4.0741e+002  2.0674e+001 42563 98022,98238,98048
 3.1000e+000 98616 -6.5034e+001 -2.1898e+002 -2.5508e+001 42251 98443,98521,98469
 3.1000e+000 98593 -6.8778e+001 -2.4070e+002 -2.5821e+001 42251 98417,98521,98443
 3.1000e+000 98570 -8.0820e+001 -2.7133e+002 -3.7877e+001 42251 98391,98521,98417
 3.1000e+000 98547  4.7453e+000 -1.8597e+002 -3.4883e+001 42251 98469,98521,98495
 3.1000e+000 98886 -3.4374e+001 -3.9058e+002  2.5541e+001 41847 98661,98765,98687
 3.1000e+000 98863 -5.0632e+001 -2.0843e+002 -1.0059e+002 41847 98661,98791,98765
 3.1000e+000 98840 -8.0353e+001 -2.8852e+002  6.8491e+000 41847 98687,98765,98739
 3.1000e+000 98817 -4.1259e+001 -2.5279e+002 -2.3354e+001 41847 98687,98739,98713
 3.1000e+000 99394 -5.4804e+001 -2.6457e+002 -2.8264e+001 41236 99417,99149,99123
 3.1000e+000 99371 -1.6619e+002 -2.8747e+002 -1.8381e+001 41236 99417,99123,99097
 3.1000e+000 99348 -1.2885e+002 -2.0981e+002 -9.5251e+001 41236 99489,99201,99149
 3.1000e+000 99325 -2.4024e+001 -1.3842e+002 -4.5587e+001 41236 99149,99201,99175
 3.1000e+000 99302 -5.9180e+001 -3.5446e+002 -4.9045e+000 41236 99097,99253,99227
 3.1000e+000 99279 -2.0032e+002 -4.6465e+002 -5.5687e+001 41236 99071,99253,99097
 3.1000e+000 99443 -7.2616e+001 -2.3727e+002 -8.8743e+001 41236 99489,99149,99417
 3.1000e+000 99466 -1.2481e+002 -2.7929e+002 -5.8020e+001 41236 99227,99417,99097
 3.1000e+000 99515 -1.5672e+002 -2.3725e+002 -8.1533e+001 41236 99227,99201,99489
 3.1000e+000 99538 -1.3436e+002 -2.9126e+002 -6.4278e+001 41236 99227,99489,99417
 3.1000e+000 100044  4.3906e+001 -7.7938e+002  4.8371e+000 40732 99721,99773,99747
 3.1000e+000 100021 -7.2009e+001 -5.3143e+002 -5.6376e+001 40732 99721,99799,99773
 3.1000e+000 99998 -8.2800e+001 -3.9483e+002 -4.3553e+001 40732 99721,99903,99799
 3.1000e+000 99975 -7.1411e+001 -3.2764e+002 -2.5997e+001 40732 100067,99877,99851
 3.1000e+000 99952 -7.4188e+001 -2.8043e+002 -1.8826e+001 40732 100067,99851,99799
 3.1000e+000 99929 -5.7178e+001 -2.6582e+002 -2.9489e+001 40732 99799,99851,99825
 3.1000e+000 100093 -6.7557e+001 -3.6718e+002 -4.3833e+001 40732 99903,99877,100067
 3.1000e+000 100116 -6.5341e+001 -3.0872e+002 -4.0444e+001 40732 99903,100067,99799
 3.1000e+000 100622 -2.3880e+001 -3.3771e+002 -3.4621e+001 40278 100645,100455,100429
 3.1000e+000 100599 -1.1892e+002 -2.6409e+002 -5.7956e+001 40278 100717,100645,100429
 3.1000e+000 100576 -1.2207e+002 -2.6460e+002  1.5546e+001 40278 100717,100429,100377
 3.1000e+000 100553 -8.0627e+001 -4.8220e+002 -1.5089e+001 40278 100789,100325,100481
 3.1000e+000 100530 -1.4798e+002 -2.8326e+002  4.8911e+001 40278 100299,100481,100325
 3.1000e+000 100507 -1.4074e+002 -3.4496e+002 -2.2145e+001 40278 100377,100429,100403
 3.1000e+000 100671 -4.4285e+001 -3.7372e+002 -4.7846e+001 40278 100481,100455,100645
 3.1000e+000 100694 -7.3322e+001 -4.0540e+002 -2.6376e+001 40278 100789,100481,100645
 3.1000e+000 100743 -7.6985e+001 -1.4716e+002 -8.9017e+001 40278 100351,100645,100717
 3.1000e+000 100766 -1.1212e+002 -1.7514e+002 -9.5381e+000 40278 100351,100717,100377
 3.1000e+000 100815 -1.2027e+002 -4.9095e+002 -1.5078e+002 40278 100351,100325,100789
 3.1000e+000 100838 -6.0911e+001 -3.1420e+002 -1.5437e+002 40278 100351,100789,100645
 3.1000e+000 101265 -4.0047e+001 -3.6124e+002  3.3140e+001 39824 101288,101046,100994
 3.1000e+000 101242 -5.0744e+001 -3.0961e+002  2.2136e+001 39824 101288,100994,100968
 3.1000e+000 101219 -5.2943e+001 -3.0921e+002 -7.6090e+000 39824 100942,101124,100968
 3.1000e+000 101196 -1.2309e+002 -5.7356e+002  2.8475e+001 39824 101046,101124,101072
 3.1000e+000 101173 -1.5220e+001 -3.3032e+002  6.8741e+001 39824 100994,101046,101020
 3.1000e+000 101150 -1.5644e+002 -3.9574e+002 -5.7341e+001 39824 101072,101124,101098
 3.1000e+000 101314 -2.6642e+001 -3.2918e+002  1.3464e+001 39824 101124,101046,101288
 3.1000e+000 101337 -4.0382e+001 -2.9761e+002 -2.4786e+000 39824 101124,101288,100968
 3.1000e+000 101585 -2.5850e+001 -2.6933e+002 -5.0808e+001 39070 101608,101464,101412
 3.1000e+000 101562  5.1602e+001 -2.9864e+002  1.3771e+001 39070 101608,101412,101360
 3.1000e+000 101539 -1.8726e+001 -2.2237e+002 -1.3893e+001 39070 101412,101464,101438
 3.1000e+000 101516  3.8610e-001 -2.5563e+002  4.6935e+001 39070 101360,101412,101386
 3.1000e+000 101634 -8.3943e+001 -2.8969e+002 -5.4235e+001 39070 101490,101464,101608
 3.1000e+000 101657 -3.2814e+001 -3.3044e+002  1.8046e+001 39070 101490,101608,101360
 3.1000e+000 101856 -5.7738e+001 -2.4852e+002 -4.9012e+000 38730 101706,101758,101732
 3.1000e+000 101833 -3.8193e+001 -2.7347e+002  2.8783e+000 38730 101706,101784,101758
 3.1000e+000 101810 -9.0664e+001 -3.0677e+002 -1.3383e+001 38730 101680,101784,101706
 3.1000e+000 102106 -1.6874e+002 -3.8509e+002 -3.2609e+001 38326 101881,101959,101907
 3.1000e+000 102083 -1.2764e+002 -2.8048e+002 -3.3887e+001 38326 101881,101985,101959
 3.1000e+000 102060 -9.8337e+001 -4.1868e+002  4.7108e+001 38326 101881,102011,101985
 3.1000e+000 102037 -6.1690e+001 -2.2878e+002 -1.1530e+002 38326 101907,101959,101933
 3.1000e+000 102258  2.0829e+001 -3.2838e+002  1.7092e+001 38036 102281,102157,102131
 3.1000e+000 102235 -1.4936e+001 -4.1024e+002  5.7063e+001 38036 102281,102131,102209
 3.1000e+000 102307 -5.3103e+001 -2.4561e+002  1.7000e+001 38036 102183,102157,102281
 3.1000e+000 102330 -8.3019e+001 -3.0514e+002  6.5288e+001 38036 102183,102281,102209
 3.1000e+000 102663 -4.5221e+001 -1.6820e+002  3.3620e-001 37596 102438,102542,102464
 3.1000e+000 102640  2.1366e+001 -1.4480e+002 -1.0386e+001 37596 102438,102568,102542
 3.1000e+000 102617 -2.3081e+001 -2.2692e+002 -4.9745e+001 37596 102490,102542,102516
 3.1000e+000 102594 -4.9906e+001 -1.8800e+002 -2.7256e+000 37596 102464,102542,102490
 3.1000e+000 102862 -7.7339e+001 -3.1174e+002 -3.3163e+001 37192 102686,102764,102712
 3.1000e+000 102839 -5.1238e+001 -2.9365e+002 -6.2282e+001 37192 102686,102790,102764
 3.1000e+000 102816 -9.4784e+001 -2.8471e+002 -4.5393e+001 37192 102712,102764,102738
 3.1000e+000 103110 -4.0129e+001 -2.1796e+002 -9.1927e+001 36609 102911,102963,102937
 3.1000e+000 103087 -4.4491e+001 -2.9708e+002 -3.0471e+001 36609 102911,102989,102963
 3.1000e+000 103064 -4.0145e+000 -2.8753e+002 -2.8049e+001 36609 102885,102989,102911
 3.1000e+000 103041 -5.2166e+001 -2.0600e+002 -7.9128e+001 36609 102885,103015,102989
 3.1000e+000 103718  4.3129e+001 -7.6168e+002  7.7654e+001 36131 103323,103375,103349
 3.1000e+000 103695 -1.3250e+002 -3.9497e+002 -2.7913e+001 36131 103297,103375,103323
 3.1000e+000 103672 -5.2923e+001 -2.3559e+002 -6.8004e+001 36131 103297,103505,103375
 3.1000e+000 103649 -1.7912e+002 -4.0001e+002  4.0570e+001 36131 103741,103479,103401
 3.1000e+000 103626 -1.1059e+002 -2.3974e+002  3.6503e+001 36131 103741,103401,103375
 3.1000e+000 103603 -2.1305e+002 -4.6877e+002  2.4480e+001 36131 103401,103479,103427
 3.1000e+000 103580 -1.1411e+002 -3.1823e+002 -1.2771e+001 36131 103297,103531,103505
 3.1000e+000 103557 -1.5404e+002 -3.9540e+002 -6.0250e+001 36131 103427,103479,103453
 3.1000e+000 103767 -1.3259e+002 -5.0221e+002 -8.4139e+001 36131 103505,103479,103741
 3.1000e+000 103790 -7.2692e+001 -3.6118e+002 -8.3644e+001 36131 103505,103741,103375
 3.1000e+000 103989 -2.1024e+002 -4.3224e+002  2.3675e+001 35791 103839,103917,103891
 3.1000e+000 103966 -3.0453e+002 -4.9137e+002 -6.4283e+000 35791 103813,103917,103839
 3.1000e+000 103943 -1.7005e+001 -3.2812e+002 -1.6674e+001 35791 103839,103891,103865
 3.1000e+000 104188 -6.7273e+000 -2.6924e+002 -2.2144e+001 35444 104038,104090,104064
 3.1000e+000 104165 -1.2773e+002 -3.3656e+002 -5.2720e+001 35444 104038,104116,104090
 3.1000e+000 104142 -1.8041e+001 -3.3642e+002 -2.0511e+001 35444 104012,104116,104038
 3.1000e+000 104487 -2.5512e+001 -3.2744e+002 -9.0690e+001 34990 104265,104317,104291
 3.1000e+000 104464 -4.4677e+001 -3.9854e+002 -1.1141e+001 34990 104510,104317,104265
 3.1000e+000 104441 -8.8534e+001 -2.7146e+002  2.8568e+001 34990 104510,104265,104213
 3.1000e+000 104418  4.7873e+000 -2.7519e+002 -5.0398e+001 34990 104582,104343,104317
 3.1000e+000 104395 -6.5046e+001 -2.4816e+002 -8.8624e+001 34990 104213,104265,104239
 3.1000e+000 104536  9.6905e+000 -2.7011e+002 -2.8847e+001 34990 104582,104317,104510
 3.1000e+000 104559 -8.3128e+001 -2.2435e+002  2.0104e+001 34990 104369,104510,104213
 3.1000e+000 104608 -3.3565e+001 -1.9930e+002 -2.2214e+001 34990 104369,104343,104582
 3.1000e+000 104631 -5.4001e+001 -2.9917e+002  1.0976e+001 34990 104369,104582,104510
 3.1000e+000 104783  3.6797e+001 -1.4769e+002 -3.0069e+001 34700 104938,104806,104682
 3.1000e+000 104760 -3.4885e+000 -2.4693e+002 -3.3880e+001 34700 104938,104682,104656
 3.1000e+000 104832  1.2662e+001 -2.2214e+002 -5.1030e+001 34700 104708,104682,104806
 3.1000e+000 104964  2.6582e+001 -1.1043e+002  5.4692e+001 34700 104734,104806,104938
 3.1000e+000 104987 -4.5268e+000 -1.8710e+002  5.2562e+001 34700 104734,104938,104656
 3.1000e+000 105137 -4.1749e+001 -2.2516e+002  1.1391e+001 34388 105036,105088,105062
 3.1000e+000 105114 -4.6530e+001 -3.3611e+002 -8.4785e+000 34388 105010,105088,105036
 3.1000e+000 105385 -9.1790e+001 -2.5386e+002 -5.6281e+001 33734 105408,105186,105160
 3.1000e+000 105362 -8.5170e+001 -2.7367e+002 -6.6097e+001 33734 105408,105160,105264
 3.1000e+000 105339 -1.6525e+002 -3.4519e+002 -3.5845e+001 33734 105160,105290,105264
 3.1000e+000 105316 -9.5120e+000 -2.1036e+002 -3.4057e+001 33734 105186,105238,105212
 3.1000e+000 105434 -8.5925e+001 -2.3576e+002 -4.3727e+001 33734 105238,105186,105408
 3.1000e+000 105457 -7.5587e+001 -2.6812e+002 -4.7760e+001 33734 105238,105408,105264
 3.1000e+000 105609 -7.3930e+001 -3.1479e+002  1.8081e+001 33394 105482,105534,105508
 3.1000e+000 105586 -4.2005e+001 -3.2906e+002  3.7150e+001 33394 105482,105560,105534
 3.1000e+000 105859 -1.0402e+002 -4.8755e+002 -8.8675e+001 33047 105882,105712,105660
 3.1000e+000 105836 -3.5145e+001 -4.2532e+002 -4.0569e+001 33047 105882,105660,105634
 3.1000e+000 105813 -3.6421e+001 -5.4954e+002  1.3332e+001 33047 105660,105712,105686
 3.1000e+000 105790 -4.0486e+001 -2.3137e+002 -1.0635e+001 33047 105634,105764,105738
 3.1000e+000 105908 -2.7495e+002 -3.9011e+002 -4.4627e+001 33047 105738,105712,105882
 3.1000e+000 105931 -1.0501e+002 -3.1933e+002  2.4453e+001 33047 105738,105882,105634
 3.1000e+000 106181 -4.9774e+001 -3.5812e+002 -4.6164e+000 32543 106204,106060,106008
 3.1000e+000 106158  2.6664e+001 -6.2122e+002  8.5605e+001 32543 105956,106086,106060
 3.1000e+000 106135 -9.4273e+000 -1.7694e+002  8.5429e+001 32543 106204,106008,105982
 3.1000e+000 106112 -9.1250e+001 -1.7306e+002  5.4464e+000 32543 106008,106060,106034
 3.1000e+000 106230 -6.6398e+001 -4.3872e+002 -9.7673e+001 32543 105956,106060,106204
 3.1000e+000 106253 -7.8806e+001 -2.8566e+002 -1.9253e+001 32543 105956,106204,105982
 3.1000e+000 106454  2.2101e+001 -2.1865e+002  6.5237e+001 31839 106304,106356,106330
 3.1000e+000 106431  1.0560e+000 -3.1106e+002 -6.5432e+001 31839 106278,106356,106304
 3.1000e+000 106408 -8.7413e+001 -3.2554e+002 -5.0118e+001 31839 106278,106382,106356
 3.1000e+000 106704 -2.1626e+001 -3.0315e+002 -4.8803e+001 31534 106505,106583,106557
 3.1000e+000 106681 -9.5824e+001 -3.1924e+002 -3.5394e+001 31534 106479,106583,106505
 3.1000e+000 106658 -8.7751e+001 -1.9431e+002 -7.3717e+001 31534 106505,106557,106531
 3.1000e+000 106635 -1.1151e+001 -2.7398e+002 -5.5893e+001 31534 106479,106609,106583
 3.1000e+000 107108 -2.2523e+002 -4.0842e+002 -6.3217e+000 31030 106886,106990,106964
 3.1000e+000 107085 -2.5139e+002 -4.2988e+002 -1.8620e+001 31030 106860,106990,106886
 3.1000e+000 107062 -2.0231e+001 -3.6681e+002 -5.7548e+001 31030 106834,106990,106860
 3.1000e+000 107039 -2.2566e+002 -5.6512e+002  5.9528e+001 31030 106912,106964,106938
 3.1000e+000 107016 -2.0487e+002 -3.9441e+002  9.8019e+000 31030 106886,106964,106912
 3.1000e+000 107307 -1.2068e+001 -2.7416e+002 -2.9731e+001 30718 107330,107157,107131
 3.1000e+000 107284 -4.0229e+001 -3.0779e+002 -1.7676e+001 30718 107330,107131,107235
 3.1000e+000 107261 -8.6799e+001 -2.7228e+002 -2.1990e+001 30718 107183,107235,107209
 3.1000e+000 107356 -4.7786e+001 -2.1978e+002 -3.4457e+001 30718 107183,107157,107330
 3.1000e+000 107379 -8.1569e+001 -2.6135e+002 -1.9884e+001 30718 107183,107330,107235
 3.1000e+000 107759 -1.6946e+001 -1.7310e+002 -2.1764e+001 30264 107782,107615,107537
 3.1000e+000 107736 -2.8106e+001 -1.9920e+002 -1.9620e+001 30264 107782,107537,107485
 3.1000e+000 107713 -6.0347e+001 -2.5412e+002 -1.6349e+000 30264 107485,107537,107511
 3.1000e+000 107690 -8.0732e+000 -2.6110e+002 -5.4986e+001 30264 107537,107615,107589
 3.1000e+000 107667 -3.7673e+000 -2.0398e+002 -2.3697e+001 30264 107537,107589,107563
 3.1000e+000 107808 -1.3671e+001 -1.7987e+002 -4.3221e-001 30264 107641,107615,107782
 3.1000e+000 107831 -2.5353e+001 -2.0906e+002  3.4019e-001 30264 107641,107782,107485
 3.1000e+000 108030 -9.9831e+001 -4.3272e+002 -9.2814e+001 29874 108053,107854,107932
 3.1000e+000 108007 -1.8607e+002 -4.6240e+002 -8.6010e+001 29874 107854,107958,107932
 3.1000e+000 107984  2.8456e+001 -3.1328e+002 -2.3200e+001 29874 108053,107932,107906
 3.1000e+000 108079 -1.6480e+002 -2.8712e+002 -3.6307e+001 29874 107880,107854,108053
 3.1000e+000 108102 -1.1530e+002 -2.0339e+002  5.4037e+000 29874 107880,108053,107906
 3.1000e+000 108433 -1.1749e+001 -3.7164e+002 -1.2771e+002 29484 108234,108338,108312
 3.1000e+000 108410 -1.8748e+001 -3.2550e+002 -3.4874e+001 29484 108208,108338,108234
 3.1000e+000 108387 -1.3084e+002 -3.4766e+002 -1.6036e+002 29484 108234,108312,108260
 3.1000e+000 108364  2.9600e+001 -6.3235e+001 -6.3835e+001 29484 108260,108312,108286
 3.1000e+000 108762 -7.4500e+001 -3.5028e+002  1.7471e+001 29080 108563,108641,108589
 3.1000e+000 108739 -5.6036e+001 -2.1613e+002 -2.2533e+001 29080 108537,108641,108563
 3.1000e+000 108716 -1.0793e+002 -3.9426e+002  3.3243e+001 29080 108589,108641,108615
 3.1000e+000 108693 -1.6583e+000 -1.8129e+002  1.6759e+001 29080 108537,108667,108641
 3.1000e+000 109189 -2.8461e+001 -3.6712e+002 -4.5859e+001 28476 108892,108996,108970
 3.1000e+000 109166 -1.1217e+002 -3.5698e+002 -4.3323e+001 28476 108892,109022,108996
 3.1000e+000 109143 -1.5790e+002 -2.7515e+002  3.7093e+001 28476 108892,108970,108944
 3.1000e+000 109120 -7.8132e+001 -3.9179e+002 -7.3142e+001 28476 108892,109048,109022
 3.1000e+000 109097 -1.1103e+002 -1.2051e+002  2.3343e+001 28476 108892,108944,108918
 3.1000e+000 109074 -7.6047e+001 -3.4820e+002 -7.6491e+001 28476 108866,109048,108892
 3.1000e+000 109518 -1.3772e+002 -3.8223e+002  6.2003e+001 28022 109541,109371,109345
 3.1000e+000 109495 -1.5248e+002 -3.5555e+002  3.6391e+001 28022 109541,109345,109319
 3.1000e+000 109472 -1.0518e+002 -3.4805e+002  1.2261e+001 28022 109293,109397,109319
 3.1000e+000 109449 -8.7248e+000 -3.0591e+002  4.3258e+000 28022 109293,109423,109397
 3.1000e+000 109567 -7.1671e+001 -3.5290e+002  5.6249e+001 28022 109397,109371,109541
 3.1000e+000 109590 -1.3318e+002 -3.4784e+002  3.4717e+001 28022 109397,109541,109319
 3.1000e+000 109968 -4.1581e+001 -1.8250e+002  6.9750e+001 27568 109798,109850,109824
 3.1000e+000 109945 -6.8146e+001 -3.1837e+002  8.6459e+001 27568 109694,109850,109798
 3.1000e+000 109922 -6.6892e+001 -2.5671e+002  6.9238e+001 27568 109694,109798,109746
 3.1000e+000 109899 -2.8380e+001 -2.4965e+002 -2.1982e+000 27568 109746,109798,109772
 3.1000e+000 109876 -9.0273e+001 -2.9382e+002  5.3895e+001 27568 109694,109746,109720
 3.1000e+000 110167 -9.6386e+001 -3.8769e+002 -9.1613e+001 27007 110017,110095,110069
 3.1000e+000 110144  6.4633e+000 -4.2593e+002 -1.3742e+001 27007 109991,110095,110017
 3.1000e+000 110121  1.2107e+001 -3.2203e+002 -5.7486e+001 27007 110017,110069,110043
 3.1000e+000 110415 -2.3348e+001 -3.2531e+002 -2.2903e+001 26567 110438,110242,110190
 3.1000e+000 110392 -4.7724e+001 -3.6927e+002 -4.8968e+000 26567 110438,110190,110320
 3.1000e+000 110369 -9.0372e+001 -3.4989e+002 -5.0754e+001 26567 110242,110294,110268
 3.1000e+000 110346 -3.3976e+001 -3.0159e+002  6.0769e+001 26567 110190,110242,110216
 3.1000e+000 110464 -3.4748e+001 -3.1156e+002 -3.4096e+001 26567 110294,110242,110438
 3.1000e+000 110487 -3.7375e+001 -3.2755e+002 -1.8599e+001 26567 110294,110438,110320
 3.1000e+000 110639  1.6696e+000 -5.7650e+001  1.6151e+000 26170 110538,110590,110564
 3.1000e+000 110616  2.0027e+001 -1.5745e+001  8.2552e+000 26170 110512,110590,110538
 3.1000e+000 111149 -1.1173e+002 -2.1013e+002 -5.4908e+001 25716 111172,110878,110852
 3.1000e+000 111126 -6.7044e+001 -2.2297e+002 -4.7297e+001 25716 111172,110852,111008
 3.1000e+000 111103 -5.7598e+001 -2.2010e+002 -5.6297e+001 25716 110878,110930,110904
 3.1000e+000 111080 -7.6682e+001 -2.2126e+002 -3.9870e+001 25716 110826,111008,110852
 3.1000e+000 111057 -9.6804e+001 -3.2237e+002  5.1922e+001 25716 110930,111008,110956
 3.1000e+000 111034 -6.5766e+001 -3.0756e+002  4.6537e+001 25716 110956,111008,110982
 3.1000e+000 111198 -8.0940e+001 -2.1201e+002 -4.2858e+001 25716 110930,110878,111172
 3.1000e+000 111221 -2.6757e+001 -2.1605e+002 -3.3401e+001 25716 110930,111172,111008
 3.1000e+000 111420  1.1893e+001 -1.8737e+002  1.4749e+000 25304 111443,111270,111244
 3.1000e+000 111397  4.4729e+000 -1.9792e+002  4.8059e+000 25304 111443,111244,111348
 3.1000e+000 111374 -6.7078e+000 -1.5792e+002  3.5009e+001 25304 111270,111322,111296
 3.1000e+000 111469  2.9403e+000 -1.7398e+002 -1.5158e+000 25304 111322,111270,111443
 3.1000e+000 111492 -5.2255e+000 -1.8418e+002  2.2266e+000 25304 111322,111443,111348
 3.1000e+000 111691 -8.4033e+001 -2.9731e+002  3.1092e+001 24736 111567,111619,111593
 3.1000e+000 111668 -1.3465e+002 -4.1279e+002  2.0949e+001 24736 111541,111619,111567
 3.1000e+000 111645 -1.0359e+002 -4.0441e+002  2.2794e+001 24736 111515,111619,111541
 3.1000e+000 112024 -3.6900e+001 -3.7110e+002  5.7629e+001 24146 111825,111877,111851
 3.1000e+000 112001 -9.7565e+001 -3.3250e+002 -1.1510e+001 24146 111825,111903,111877
 3.1000e+000 111978 -4.1792e+001 -2.2035e+002 -3.5413e+001 24146 111825,111929,111903
 3.1000e+000 111955 -3.7326e+001 -2.2784e+002 -4.1075e+001 24146 111799,111929,111825
 3.1000e+000 112370 -1.1815e+002 -6.0183e+002 -6.8373e+000 23856 112393,112151,112125
 3.1000e+000 112347 -8.5155e+001 -5.0914e+002 -3.3546e+000 23856 112465,112393,112125
 3.1000e+000 112324 -1.0074e+002 -4.8811e+002  3.3784e+001 23856 112465,112125,112073
 3.1000e+000 112301 -1.4704e+002 -4.5159e+002  4.1381e+001 23856 112073,112125,112099
 3.1000e+000 112278 -3.3934e+002 -6.6820e+002 -8.6289e+001 23856 112047,112229,112073
 3.1000e+000 112255 -6.7609e+001 -7.0115e+002 -1.6139e+002 23856 112151,112203,112177
 3.1000e+000 112419 -1.0204e+002 -5.5157e+002 -5.7861e+001 23856 112203,112151,112393
 3.1000e+000 112442 -1.3596e+002 -5.2945e+002 -5.5324e+001 23856 112203,112393,112229
 3.1000e+000 112491 -1.5574e+002 -5.5300e+002 -4.6816e+001 23856 112229,112393,112465
 3.1000e+000 112514 -1.4992e+002 -5.0013e+002 -6.5657e+000 23856 112229,112465,112073
 3.1000e+000 112784 -4.2082e+001 -4.2722e+002  3.0797e+001 23494 112611,112663,112637
 3.1000e+000 112761 -5.5152e+001 -3.7375e+002  3.0131e+001 23494 112585,112663,112611
 3.1000e+000 112738 -9.5960e+001 -3.9136e+002  2.5292e+001 23494 112559,112663,112585
 3.1000e+000 112715 -1.4252e+001 -2.3015e+002 -3.5465e+000 23494 112559,112689,112663
 3.1000e+000 113117 -1.7173e+001 -1.2612e+002 -2.2433e+001 22974 112944,113022,112996
 3.1000e+000 113094 -2.9520e+001 -1.2004e+002 -2.4522e+001 22974 112918,113022,112944
 3.1000e+000 113071 -3.0235e+001 -1.7635e+002 -4.1098e+001 22974 112944,112996,112970
 3.1000e+000 113048 -1.0020e+001 -1.2966e+002  1.6829e+001 22974 112892,113022,112918
 3.1000e+000 113414 -1.0080e+001 -2.3906e+002  3.7249e+001 22370 113192,113296,113218
 3.1000e+000 113391 -1.9438e+001 -2.9478e+002  2.4024e+001 22370 113140,113296,113192
 3.1000e+000 113368 -6.3687e+001 -3.6241e+002  4.7354e+001 22370 113218,113296,113270
 3.1000e+000 113345 -8.7809e+001 -3.8611e+002  3.1285e+001 22370 113218,113270,113244
 3.1000e+000 113322 -1.5181e+001 -2.8214e+002  2.6402e+001 22370 113140,113192,113166
 3.1000e+000 113662 -3.3722e+000 -2.1656e+002  7.3707e+001 21916 113685,113515,113489
 3.1000e+000 113639 -7.0605e+001 -3.9001e+002  3.1773e+001 21916 113685,113489,113437
 3.1000e+000 113616  6.7515e+000 -3.8797e+002  1.5909e+001 21916 113757,113567,113541
 3.1000e+000 113593 -1.3688e+001 -2.6531e+002  5.5349e+001 21916 113437,113489,113463
 3.1000e+000 113711 -8.8959e+001 -4.3282e+002  7.6015e+001 21916 113541,113515,113685
 3.1000e+000 113734 -3.3361e+001 -4.2072e+002  3.0758e+001 21916 113757,113541,113685
 3.1000e+000 113783 -5.2109e+001 -3.7374e+002  2.1372e+001 21916 113437,113567,113757
 3.1000e+000 113806 -5.2625e+001 -3.7623e+002  2.2437e+001 21916 113437,113757,113685
 3.1000e+000 114056  4.8994e+001 -4.9436e+002  2.9398e+001 21412 113857,113909,113883
 3.1000e+000 114033  1.0640e+002 -3.1452e+002  2.8162e+001 21412 114079,113909,113857
 3.1000e+000 114010 -4.7619e+001 -3.5794e+002  4.7271e+000 21412 114079,113857,113961
 3.1000e+000 113987 -8.2766e+001 -3.4659e+002  9.8726e+000 21412 113831,113961,113857
 3.1000e+000 114105 -1.3973e+001 -3.2071e+002 -3.7304e+001 21412 113935,113909,114079
 3.1000e+000 114128 -1.1839e+002 -3.2303e+002 -5.4798e+001 21412 113935,114079,113961
 3.1000e+000 114378 -1.1752e+002 -3.7635e+002 -1.3437e+002 21022 114401,114257,114205
 3.1000e+000 114355 -1.7106e+002 -5.0618e+002 -1.3884e+002 21022 114401,114205,114179
 3.1000e+000 114332 -1.4394e+001 -6.4368e+002 -8.2441e+001 21022 114153,114283,114179
 3.1000e+000 114309 -1.4149e+002 -2.5782e+002 -8.6165e+001 21022 114205,114257,114231
 3.1000e+000 114427 -8.3871e+001 -4.2115e+002 -1.5816e+001 21022 114283,114257,114401
 3.1000e+000 114450 -1.3158e+002 -5.4112e+002 -2.2354e+001 21022 114283,114401,114179
 3.1000e+000 114651 -5.8531e+001 -4.0590e+002  1.7898e+001 20618 114501,114553,114527
 3.1000e+000 114628 -1.3366e+002 -4.0483e+002 -2.7934e+001 20618 114501,114579,114553
 3.1000e+000 114605 -1.0885e+002 -3.4040e+002 -5.4419e+000 20618 114475,114579,114501
 3.1000e+000 114901  7.9163e+001 -3.8263e+002  3.9004e+000 20114 114676,114780,114702
 3.1000e+000 114878 -3.9618e+001 -4.3756e+002  1.8074e+001 20114 114676,114806,114780
 3.1000e+000 114855  1.9160e+002 -4.2685e+002 -9.1878e+000 20114 114702,114780,114754
 3.1000e+000 114832  6.1131e+002 -4.1735e+002  1.1168e+002 20114 114702,114754,114728
 3.1000e+000 115053 -1.3966e+002 -5.0153e+002 -1.0448e+001 19460 115147,115076,114926
 3.1000e+000 115030 -1.1776e+002 -5.1657e+002 -7.1451e+000 19460 115147,114926,115004
 3.1000e+000 115102 -1.4645e+002 -4.8870e+002 -1.0640e+000 19460 114952,114926,115076
 3.1000e+000 115173 -1.1460e+002 -4.9131e+002  8.8209e-001 19460 114978,115076,115147
 3.1000e+000 115196 -8.6720e+001 -5.0372e+002  2.8058e+000 19460 114978,115147,115004
 3.1000e+000 115446 -8.7077e+001 -4.7426e+002 -4.2938e+000 19006 115273,115351,115299
 3.1000e+000 115423  1.1064e+001 -4.2537e+002  1.6670e+001 19006 115247,115351,115273
 3.1000e+000 115400 -5.7669e-001 -4.3036e+002  1.7143e+001 19006 115221,115351,115247
 3.1000e+000 115377 -6.0169e+001 -4.8485e+002 -3.2196e+001 19006 115299,115351,115325
 3.1000e+000 115767 -1.8443e+002 -5.2405e+002  1.2480e+001 18716 115571,115649,115623
 3.1000e+000 115744 -2.0035e+002 -5.4621e+002  3.9033e+000 18716 115493,115649,115571
 3.1000e+000 115721 -2.1020e+002 -5.2738e+002  1.0644e+001 18716 115493,115571,115545
 3.1000e+000 115698 -1.5843e+002 -4.7491e+002  8.1937e+001 18716 115493,115545,115519
 3.1000e+000 115675 -8.6004e+001 -4.9336e+002 -9.5150e+000 18716 115571,115623,115597
 3.1000e+000 116039 -7.7493e+001 -3.7886e+002  1.9191e+001 18312 115814,115892,115840
 3.1000e+000 116016 -5.9018e+001 -3.3395e+002  1.6566e+001 18312 115814,115944,115892
 3.1000e+000 115993 -8.6012e+001 -3.5550e+002  6.4138e+000 18312 115892,115944,115918
 3.1000e+000 115970  4.9405e+001 -3.5275e+002  4.6788e+001 18312 115840,115892,115866
 3.1000e+000 116191 -5.4391e+001 -4.9553e+002 -5.3515e-001 18000 116090,116142,116116
 3.1000e+000 116168 -3.2353e+001 -4.8273e+002  1.2537e+001 18000 116064,116142,116090
 3.1000e+000 116343 -3.1487e+002 -6.8020e+002 -1.8875e+001 17396 116242,116294,116268
 3.1000e+000 116320 -2.9004e+002 -6.7114e+002 -1.5124e+001 17396 116216,116294,116242
 3.1000e+000 116566 -1.4547e+002 -7.0009e+002  5.5177e+001 16942 116390,116468,116442
 3.1000e+000 116543 -1.2303e+002 -7.2380e+002  5.9299e+001 16942 116390,116494,116468
 3.1000e+000 116520 -1.9731e+002 -8.2197e+002  2.4096e+001 16942 116390,116442,116416
 3.1000e+000 116767  4.0491e+001 -4.0181e+002 -1.7682e+001 16438 116790,116643,116617
 3.1000e+000 116744 -9.9227e+000 -3.3850e+002 -1.4972e+001 16438 116790,116617,116591
 3.1000e+000 116721  8.8607e+001 -3.1471e+002 -7.4301e+001 16438 116643,116695,116669
 3.1000e+000 116816  4.5032e+001 -3.5340e+002 -3.8976e+001 16438 116695,116643,116790
 3.1000e+000 116839  2.6590e+001 -2.8895e+002 -5.8386e+001 16438 116695,116790,116591
 3.1000e+000 117062 -1.9259e+001 -5.3496e+002 -2.0062e+000 16074 116886,116938,116912
 3.1000e+000 117039 -1.0867e+002 -5.8785e+002  2.4291e+001 16074 116886,116990,116938
 3.1000e+000 117016 -7.5531e+001 -4.8658e+002  3.6621e+001 16074 116938,116990,116964
 3.1000e+000 117214 -8.4770e+001 -6.3836e+002 -1.0128e+001 15649 117087,117139,117113
 3.1000e+000 117191 -3.8912e-001 -6.0624e+002 -3.4328e+000 15649 117087,117165,117139
 3.1000e+000 117317 -2.1781e+002 -5.3039e+002 -4.7470e+001 421 117239,117291,117265
 3.2000e+000 70632 -4.1696e+002 -7.2004e+002 -3.1924e+001 70072 70482,70534,70508
 3.2000e+000 70609 -3.8414e+002 -6.5099e+002 -2.1808e+001 70072 70482,70560,70534
 3.2000e+000 70586 -3.1203e+002 -6.2259e+002 -2.1611e+001 70072 70456,70560,70482
 3.2000e+000 70951 -2.6950e+002 -7.6374e+002  0.0000e+000 69874 70703,70755,70729
 3.2000e+000 70928 -1.5588e+002 -7.2737e+002 -1.1684e+002 69874 70703,70781,70755
 3.2000e+000 70905 -6.3657e+001 -2.9170e+002 -7.1585e+001 69874 70703,70807,70781
 3.2000e+000 70882 -2.0121e+002 -6.3379e+002 -2.6695e+001 69874 70703,70833,70807
 3.2000e+000 70859 -1.4327e+002 -6.2950e+002  2.2315e+001 69874 70677,70833,70703
 3.2000e+000 71199 -1.3166e+002 -4.6562e+002  2.1302e+001 69698 71222,71052,71026
 3.2000e+000 71176 -1.6220e+002 -3.8501e+002  2.4517e+001 69698 71294,71222,71026
 3.2000e+000 71153 -1.8196e+002 -3.7011e+002 -5.6277e+001 69698 71294,71026,71000
 3.2000e+000 71130 -1.1153e+002 -3.6038e+002  4.4291e+001 69698 71366,71104,71078
 3.2000e+000 71248 -8.4007e+001 -3.6069e+002  9.6299e+000 69698 71078,71052,71222
 3.2000e+000 71271 -1.0245e+002 -3.5119e+002  3.9474e+001 69698 71366,71078,71222
 3.2000e+000 71320 -3.1396e+001 -3.2157e+002  4.9031e+000 69698 70974,71222,71294
 3.2000e+000 71343 -2.4224e+001 -3.0315e+002 -6.7327e+001 69698 70974,71294,71000
 3.2000e+000 71392 -9.7627e+001 -3.6760e+002  4.3787e+001 69698 70974,71104,71366
 3.2000e+000 71415 -9.8394e+001 -3.6493e+002  4.2722e+001 69698 70974,71366,71222
 3.2000e+000 71516 -8.0893e+001 -4.9159e+002 -8.9583e+001 69386 71438,71490,71464
 3.2000e+000 71869 -6.6763e+001 -3.6107e+002  2.8490e+001 69188 71644,71748,71670
 3.2000e+000 71846  6.4809e+001 -3.2933e+002  9.5002e+001 69188 71644,71774,71748
 3.2000e+000 71823 -6.2929e+000 -1.8604e+002  2.0301e+001 69188 71670,71748,71722
 3.2000e+000 71800 -1.7836e+002 -5.3727e+002 -4.9029e+001 69188 71670,71722,71696
 3.2000e+000 72019 -2.9719e+002 -6.9218e+002 -2.6201e+001 68990 71918,71970,71944
 3.2000e+000 71996 -2.5679e+002 -7.9330e+002  1.7469e+001 68990 71892,71970,71918
 3.2000e+000 72316 -4.5063e+001 -2.0445e+002 -7.3007e+000 68586 72339,72172,72146
 3.2000e+000 72293 -6.3233e+001 -2.5136e+002 -3.1307e+000 68586 72339,72146,72120
 3.2000e+000 72270 -6.9250e+001 -2.1715e+002  1.4585e+001 68586 72411,72068,72198
 3.2000e+000 72247 -3.9673e+001 -1.1058e+002  6.6625e+001 68586 72042,72198,72068
 3.2000e+000 72224 -9.9514e+001 -3.0448e+002  4.2600e+000 68586 72068,72120,72094
 3.2000e+000 72365 -5.9682e+001 -1.9780e+002  1.8739e+001 68586 72198,72172,72339
 3.2000e+000 72388 -6.8477e+001 -2.1850e+002  1.4901e+001 68586 72411,72198,72339
 3.2000e+000 72437 -6.9443e+001 -2.1836e+002  1.6340e+001 68586 72120,72068,72411
 3.2000e+000 72460 -6.9050e+001 -2.2056e+002  1.6488e+001 68586 72120,72411,72339
 3.2000e+000 72864 -2.0011e+001 -2.7842e+002 -9.7297e+000 68388 72642,72694,72668
 3.2000e+000 72841 -6.8001e+001 -3.5876e+002  1.1561e+001 68388 72616,72694,72642
 3.2000e+000 72818 -3.3038e+001 -2.7072e+002  1.6761e+001 68388 72616,72720,72694
 3.2000e+000 72795 -1.0610e+002 -4.2933e+002  4.5326e+001 68388 72590,72720,72616
 3.2000e+000 72772  2.1638e+000 -3.1999e+002  1.1631e+002 68388 72590,72746,72720
 3.2000e+000 73321 -8.9912e+001 -1.8140e+002  2.6339e+000 68048 73073,73203,73177
 3.2000e+000 73298 -1.1870e+002 -1.8743e+002  9.0428e+000 68048 73047,73203,73073
 3.2000e+000 73275 -3.3668e+001 -2.8568e+002 -1.8225e+001 68048 73125,73177,73151
 3.2000e+000 73252 -7.6375e+001 -2.7967e+002  1.1600e+001 68048 73073,73177,73125
 3.2000e+000 73229 -6.6345e+001 -2.9128e+002  1.6692e+001 68048 73073,73125,73099
 3.2000e+000 73640 -1.4593e+002 -4.0836e+002 -2.1942e+001 67850 73444,73496,73470
 3.2000e+000 73617 -1.0734e+002 -4.0542e+002 -2.8572e+001 67850 73418,73496,73444
 3.2000e+000 73594 -1.1831e+002 -4.1527e+002 -1.1547e+000 67850 73392,73496,73418
 3.2000e+000 73571 -1.5987e+002 -4.3307e+002 -1.6555e+001 67850 73392,73522,73496
 3.2000e+000 73548 -2.4725e+002 -5.5783e+002  4.9432e+001 67850 73366,73522,73392
 3.2000e+000 73790 -1.5844e+002 -3.7986e+002 -3.4436e+000 67602 73689,73741,73715
 3.2000e+000 73767 -1.2612e+002 -3.1496e+002  8.3099e+000 67602 73663,73741,73689
 3.2000e+000 74040 -1.5409e+002 -3.8405e+002 -2.0302e+001 67290 73841,73945,73919
 3.2000e+000 74017 -4.6866e+001 -3.5451e+002 -5.7545e+001 67290 73815,73945,73841
 3.2000e+000 73994 -1.1537e+002 -2.7833e+002 -1.4287e+001 67290 73841,73919,73867
 3.2000e+000 73971 -1.2259e+002 -3.0025e+002 -5.1291e+000 67290 73867,73919,73893
 3.2000e+000 74143 -3.4129e+001 -1.7656e+002 -4.5611e+000 67092 74065,74117,74091
 3.2000e+000 74415 -1.1321e+002 -4.8029e+002 -7.0463e+001 66894 74190,74294,74216
 3.2000e+000 74392 -9.3819e+000 -4.3345e+002 -4.6832e+001 66894 74190,74320,74294
 3.2000e+000 74369 -4.4726e+001 -3.0631e+002 -6.1200e+001 66894 74216,74294,74242
 3.2000e+000 74346 -1.0968e+002 -4.1666e+002 -3.3041e+001 66894 74242,74294,74268
 3.2000e+000 75023  3.1399e+002 -2.8021e+002 -1.3266e+002 66532 74654,74836,74810
 3.2000e+000 75000 -2.1805e+002 -3.0173e+002 -1.4267e+002 66532 74628,74836,74654
 3.2000e+000 74977 -6.4343e+001 -2.3579e+002 -6.0623e+000 66532 74706,74784,74732
 3.2000e+000 74954 -4.5780e+001 -2.2287e+002  5.0555e+000 66532 74680,74784,74706
 3.2000e+000 74931  8.8731e+001 -1.9702e+002  1.4715e+001 66532 74680,74810,74784
 3.2000e+000 74908 -9.2134e+001 -2.8176e+002 -1.1398e+002 66532 74654,74810,74680
 3.2000e+000 74885 -2.3259e+002 -3.8476e+002 -1.8605e+002 66532 74602,74836,74628
 3.2000e+000 74862 -5.8135e+001 -2.8097e+002 -1.1742e+001 66532 74732,74784,74758
 3.2000e+000 75222 -1.0659e+001 -3.7495e+002 -8.4786e+000 66242 75072,75150,75124
 3.2000e+000 75199 -4.2433e+001 -3.4470e+002 -1.5333e-001 66242 75046,75150,75072
 3.2000e+000 75176  9.4224e+000 -2.8588e+002 -9.4651e+000 66242 75072,75124,75098
 3.2000e+000 75470 -7.8104e+001 -1.7984e+002 -3.5026e+001 65838 75297,75375,75349
 3.2000e+000 75447 -2.4682e+001 -1.8696e+002 -1.0927e+001 65838 75271,75375,75297
 3.2000e+000 75424 -3.1286e+001 -1.4583e+002 -1.6669e+001 65838 75297,75349,75323
 3.2000e+000 75401 -5.5983e+001 -2.0624e+002 -2.4667e+001 65838 75245,75375,75271
 3.2000e+000 75671 -7.0528e+001 -2.3027e+002 -6.4700e+001 65640 75495,75573,75521
 3.2000e+000 75648 -2.4712e+001 -2.1321e+002 -6.2020e+001 65640 75495,75599,75573
 3.2000e+000 75625 -7.2131e+001 -2.4209e+002 -7.2042e+001 65640 75521,75573,75547
 3.2000e+000 75872 -9.0339e+001 -1.6827e+002 -5.4858e+001 65300 75895,75748,75722
 3.2000e+000 75849 -3.4640e+001 -2.2844e+002 -9.3424e+001 65300 75895,75722,75696
 3.2000e+000 75826 -9.0155e+001 -1.8604e+002 -1.1265e+002 65300 75967,75774,75748
 3.2000e+000 75921 -8.1951e+001 -1.9616e+002 -7.2733e+001 65300 75967,75748,75895
 3.2000e+000 75944 -1.1093e+002 -3.6238e+002 -5.9913e+001 65300 75800,75895,75696
 3.2000e+000 75993 -1.6049e+002 -2.0248e+002 -1.0037e+002 65300 75800,75774,75967
 3.2000e+000 76016 -1.5624e+002 -2.1993e+002 -6.8325e+001 65300 75800,75967,75895
 3.2000e+000 76371 -1.5918e+002 -2.6624e+002 -1.3483e+001 64896 76146,76250,76172
 3.2000e+000 76348 -1.5169e+002 -2.5481e+002 -1.8719e+001 64896 76146,76276,76250
 3.2000e+000 76325 -1.9479e+002 -2.5873e+002  4.1140e-001 64896 76172,76250,76198
 3.2000e+000 76302 -5.5943e+001 -1.9322e+002  2.1802e+001 64896 76198,76250,76224
 3.2000e+000 76570 -6.5346e+001 -2.2830e+002 -9.2783e+001 64442 76446,76498,76472
 3.2000e+000 76547 -7.4516e+001 -1.7642e+002 -3.9397e+001 64442 76420,76498,76446
 3.2000e+000 76524 -8.1271e+001 -2.4148e+002 -2.7630e+001 64442 76394,76498,76420
 3.2000e+000 76999 -1.3158e+002 -3.9653e+002  1.9577e+001 63924 77022,76728,76702
 3.2000e+000 76976 -1.5519e+002 -3.3510e+002 -4.7345e+001 63924 77022,76702,76832
 3.2000e+000 76953 -6.7687e+001 -4.0766e+002  7.6256e+001 63924 76728,76806,76754
 3.2000e+000 76930 -1.6596e+002 -2.7233e+002  5.1774e+001 63924 76676,76832,76702
 3.2000e+000 76907 -1.6093e+002 -4.7802e+002  4.4037e+001 63924 76754,76806,76780
 3.2000e+000 76884 -7.3021e+001 -2.9468e+002  2.3410e+001 63924 76676,76858,76832
 3.2000e+000 77048 -1.1600e+002 -4.8041e+002 -5.2965e-002 63924 76806,76728,77022
 3.2000e+000 77071 -1.5148e+002 -4.3369e+002 -6.9332e+001 63924 76806,77022,76832
 3.2000e+000 77449 -8.1502e+001 -2.6713e+002  4.8040e+001 63320 77472,77253,77201
 3.2000e+000 77426 -8.4416e+001 -2.9597e+002  2.0228e+001 63320 77472,77201,77175
 3.2000e+000 77403 -5.1434e+001 -2.9033e+002 -1.5219e+000 63320 77175,77305,77279
 3.2000e+000 77380 -3.6591e+001 -1.7042e+002 -2.8827e+001 63320 77201,77253,77227
 3.2000e+000 77357  2.7266e-001 -2.6092e+002 -2.8739e+001 63320 77175,77331,77305
 3.2000e+000 77498 -9.0328e+001 -3.2050e+002  4.5809e+001 63320 77279,77253,77472
 3.2000e+000 77521 -8.4990e+001 -3.2188e+002  1.1593e+001 63320 77279,77472,77175
 3.2000e+000 77769 -1.3689e+002 -3.5723e+002  3.8390e+001 62816 77570,77622,77596
 3.2000e+000 77746 -1.9900e+002 -3.8468e+002  6.8583e+001 62816 77570,77648,77622
 3.2000e+000 77723 -5.2504e+001 -3.0229e+002  1.4374e+000 62816 77570,77674,77648
 3.2000e+000 77700 -9.1085e+001 -2.9077e+002  1.2233e+001 62816 77544,77674,77570
 3.2000e+000 78149 -1.0667e+002 -3.0005e+002 -6.7466e+000 62354 77953,78031,78005
 3.2000e+000 78126 -1.4407e+002 -3.5766e+002 -2.4216e+001 62354 77901,78031,77953
 3.2000e+000 78103 -6.3764e+001 -3.1861e+002  5.1704e+001 62354 77875,78031,77901
 3.2000e+000 78080 -6.3702e+001 -4.1281e+002 -1.0393e+002 62354 77901,77953,77927
 3.2000e+000 78057 -1.2275e+002 -2.7071e+002 -2.8806e+001 62354 77953,78005,77979
 3.2000e+000 78606 -3.1069e+001 -2.2931e+002  5.0495e+001 61950 78384,78436,78410
 3.2000e+000 78583 -7.0239e+001 -3.0117e+002 -3.2164e+001 61950 78358,78436,78384
 3.2000e+000 78560 -1.0308e+002 -2.5973e+002 -5.4413e+001 61950 78358,78488,78436
 3.2000e+000 78537 -1.2638e+002 -4.0843e+002 -7.7805e+001 61950 78436,78488,78462
 3.2000e+000 78514 -1.1199e+002 -2.1413e+002 -2.9702e+001 61950 78332,78488,78358
 3.2000e+000 78756 -1.8459e+001 -3.4031e+002  1.0168e+000 61339 78779,78655,78629
 3.2000e+000 78733 -4.0686e+001 -3.8637e+002  1.1314e+001 61339 78779,78629,78707
 3.2000e+000 78805 -7.1973e+001 -3.8506e+002  4.0804e+001 61339 78851,78779,78681
 3.2000e+000 78828  9.8537e+000 -3.4678e+002  2.8495e+001 61339 78681,78779,78707
 3.2000e+000 78877 -4.1484e+001 -3.0512e+002  1.2448e+001 61339 78655,78779,78851
 3.2000e+000 79206 -5.5913e+001 -1.4939e+002 -4.6074e+001 60892 79229,79007,78981
 3.2000e+000 79183 -3.4125e+001 -5.4542e+001 -1.7215e+000 60892 79229,78981,79111
 3.2000e+000 79160 -4.5372e+001 -1.9143e+002 -5.2630e+001 60892 79301,79033,79007
 3.2000e+000 79137 -4.2627e+001 -1.1064e+002  7.2136e+001 60892 79033,79085,79059
 3.2000e+000 79255 -6.0407e+001 -1.5691e+002 -7.9955e+001 60892 79301,79007,79229
 3.2000e+000 79278 -5.6616e+001 -1.3125e+002 -5.8406e+001 60892 79085,79229,79111
 3.2000e+000 79327 -9.7111e+001 -2.8700e+002 -1.4691e+001 60892 79085,79033,79301
 3.2000e+000 79350 -5.5012e+001 -2.1852e+002 -5.9988e+001 60892 79085,79301,79229
 3.2000e+000 79647 -2.0322e+002 -4.3865e+002 -3.1699e+001 60488 79451,79529,79503
 3.2000e+000 79624 -1.6905e+002 -3.7804e+002 -5.5650e+001 60488 79425,79529,79451
 3.2000e+000 79601 -1.5364e+002 -3.8872e+002 -5.9575e+001 60488 79373,79529,79425
 3.2000e+000 79578 -1.4919e+002 -3.9924e+002 -5.3271e+001 60488 79373,79425,79399
 3.2000e+000 79555 -3.1892e+001 -3.3241e+002  2.3171e+001 60488 79451,79503,79477
 3.2000e+000 79870 -7.0531e+001 -2.2262e+002  3.7190e-001 60026 79720,79798,79772
 3.2000e+000 79847 -3.0530e+000 -2.3509e+002 -8.1369e+000 60026 79694,79798,79720
 3.2000e+000 79824  1.6070e+001 -1.9427e+002 -2.0207e+001 60026 79720,79772,79746
 3.2000e+000 80120 -8.2442e+001 -1.6990e+002 -1.3762e+001 59629 79921,80025,79973
 3.2000e+000 80097 -8.2827e+001 -1.1995e+002  1.6489e+001 59629 79895,80025,79921
 3.2000e+000 80074 -6.1818e+001 -1.3165e+002 -3.0098e+001 59629 79973,80025,79999
 3.2000e+000 80051 -6.2006e+001 -1.4593e+002 -2.3096e+001 59629 79921,79973,79947
 3.2000e+000 80321 -1.2794e+001 -2.5242e+002 -3.0913e+000 59125 80344,80171,80145
 3.2000e+000 80298 -2.5374e+001 -2.9744e+002 -5.7578e-001 59125 80344,80145,80249
 3.2000e+000 80275 -2.4694e+001 -2.3422e+002  3.7987e+001 59125 80197,80249,80223
 3.2000e+000 80370 -3.3220e+001 -2.2551e+002  2.8227e+001 59125 80197,80171,80344
 3.2000e+000 80393 -4.3668e+001 -2.6627e+002  2.9596e+001 59125 80197,80344,80249
 3.2000e+000 80952 -9.4183e+001 -4.0539e+002  7.8266e+001 58557 80975,80632,80606
 3.2000e+000 80929 -2.6977e+001 -1.6965e+002  6.3834e+000 58557 81119,80975,80606
 3.2000e+000 80906 -1.2947e+002 -3.5830e+002 -4.3850e+001 58557 81047,80684,80632
 3.2000e+000 80883  3.3584e+000 -1.6692e+002 -5.4560e+001 58557 81119,80606,80580
 3.2000e+000 80860 -4.1829e+001 -5.2851e+002  1.6333e+001 58557 81191,80736,80710
 3.2000e+000 80837 -8.2543e+001 -4.2246e+002 -5.7369e+001 58557 80736,80788,80762
 3.2000e+000 80814 -1.1964e+002 -2.0345e+002 -4.4481e+001 58557 80632,80684,80658
 3.2000e+000 81001 -5.5953e+001 -4.1812e+002  3.1935e+000 58557 81047,80632,80975
 3.2000e+000 81024  2.4863e+001 -3.9396e+002  3.9608e+001 58557 81191,80710,80975
 3.2000e+000 81073 -6.3259e+001 -2.8127e+002 -1.0329e+000 58557 80710,80684,81047
 3.2000e+000 81096  3.3442e+001 -3.3698e+002  4.4989e+001 58557 80710,81047,80975
 3.2000e+000 81145 -5.3848e+001 -2.4176e+002  2.1896e+001 58557 80788,80975,81119
 3.2000e+000 81168 -4.0293e+001 -2.3392e+002 -3.2717e+001 58557 80788,81119,80580
 3.2000e+000 81217 -8.2544e+001 -3.9673e+002 -3.4960e+001 58557 80788,80736,81191
 3.2000e+000 81240 -6.5462e+001 -3.4874e+002 -3.1350e+001 58557 80788,81191,80975
 3.2000e+000 81537 -1.0814e+001 -2.2548e+002 -2.6844e+000 57881 81560,81341,81289
 3.2000e+000 81514 -7.3911e+001 -2.5315e+002  2.0744e+001 57881 81560,81289,81263
 3.2000e+000 81491 -8.1336e+001 -2.1132e+002 -2.4273e+001 57881 81632,81419,81367
 3.2000e+000 81468 -8.3792e+001 -2.2827e+002 -5.6800e+001 57881 81367,81419,81393
 3.2000e+000 81445 -6.3649e+000 -2.1225e+002 -5.7846e+000 57881 81289,81341,81315
 3.2000e+000 81586 -2.8309e+001 -1.8783e+002 -5.2607e+001 57881 81367,81341,81560
 3.2000e+000 81609 -7.3172e+001 -2.3245e+002 -3.3689e+001 57881 81632,81367,81560
 3.2000e+000 81658 -6.2413e+001 -1.7752e+002 -1.6000e+001 57881 81263,81419,81632
 3.2000e+000 81681 -5.5136e+001 -2.0544e+002 -2.4284e+001 57881 81263,81632,81560
 3.2000e+000 81929 -8.8840e+001 -2.2438e+002  7.0155e+000 57477 81704,81808,81782
 3.2000e+000 81906 -4.6486e+001 -2.8953e+002  3.4354e+001 57477 81704,81834,81808
 3.2000e+000 81883 -1.0345e+002 -2.4383e+002  1.5894e+001 57477 81704,81782,81730
 3.2000e+000 81860 -5.5451e+001 -2.3898e+002  1.0743e+001 57477 81730,81782,81756
 3.2000e+000 82488 -4.7358e+001 -4.1831e+002  2.0913e+001 56966 82583,82511,82194
 3.2000e+000 82465 -6.1654e+001 -3.4501e+002  2.5020e+001 56966 82511,82116,82324
 3.2000e+000 82442 -8.4003e+001 -4.7346e+002  4.0777e+001 56966 82583,82194,82168
 3.2000e+000 82419 -1.0131e+001 -3.7529e+002  5.8422e+001 56966 82194,82246,82220
 3.2000e+000 82396 -9.3568e+001 -4.4477e+002 -2.6030e+001 56966 82194,82298,82246
 3.2000e+000 82373 -6.9562e+001 -4.3885e+002 -4.7761e+001 56966 82246,82298,82272
 3.2000e+000 82350 -1.0341e+002 -4.9222e+002 -2.2654e+001 56966 82116,82168,82142
 3.2000e+000 82537 -2.2590e+001 -3.6559e+002  1.4143e+001 56966 82298,82194,82511
 3.2000e+000 82560 -1.6063e+001 -2.8666e+002  6.0621e+001 56966 82298,82511,82324
 3.2000e+000 82609 -9.4371e+001 -3.5240e+002  1.8570e+000 56966 82116,82511,82583
 3.2000e+000 82632 -1.0662e+002 -3.8699e+002  1.2669e+001 56966 82116,82583,82168
 3.2000e+000 83236 -3.9854e+001 -2.8218e+002 -5.9311e+001 56304 82893,82945,82919
 3.2000e+000 83213 -9.3196e+001 -3.5766e+002  2.5062e+001 56304 83259,82945,82893
 3.2000e+000 83190 -7.7180e+001 -3.6215e+002  2.1800e+001 56304 83259,82893,83049
 3.2000e+000 83167 -9.9391e+001 -3.8324e+002  4.2912e+001 56304 82971,83049,83023
 3.2000e+000 83144 -1.1114e+002 -4.2384e+002  5.9699e+000 56304 82815,83049,82893
 3.2000e+000 83121 -1.3417e+002 -5.2686e+002  3.7249e+000 56304 82815,82893,82867
 3.2000e+000 83098 -9.7020e+001 -4.5873e+002  3.4258e+001 56304 82971,83023,82997
 3.2000e+000 83075 -1.9825e+002 -5.2873e+002 -5.3020e+001 56304 82815,82867,82841
 3.2000e+000 83285 -1.1340e+002 -3.6527e+002  3.8648e+001 56304 82971,82945,83259
 3.2000e+000 83308 -9.0658e+001 -3.5892e+002  3.1450e+001 56304 82971,83259,83049
 3.2000e+000 83556 -1.6121e+002 -3.8339e+002 -3.4933e+001 55964 83357,83461,83435
 3.2000e+000 83533 -1.3564e+002 -2.8668e+002  1.0775e+001 55964 83331,83461,83357
 3.2000e+000 83510 -6.4624e+001 -4.4683e+002  5.2487e+001 55964 83357,83435,83383
 3.2000e+000 83487 -8.4277e+001 -5.4068e+002  1.1587e+001 55964 83383,83435,83409
 3.2000e+000 83706 -3.2684e+001 -3.2596e+002  9.4497e+000 55503 83579,83631,83605
 3.2000e+000 83683 -9.1850e+001 -3.5489e+002  2.5842e+001 55503 83579,83657,83631
 3.2000e+000 83907 -5.0540e+001 -2.7006e+002  3.1571e+001 55156 83757,83835,83809
 3.2000e+000 83884 -2.9638e+001 -1.9901e+002  7.4028e+001 55156 83731,83835,83757
 3.2000e+000 83861 -5.9178e+001 -1.8329e+002  5.2943e+001 55156 83757,83809,83783
 3.2000e+000 84240 -5.9828e+001 -3.1532e+002  1.6507e+001 54652 84093,84145,84119
 3.2000e+000 84217 -3.3408e+001 -2.0808e+002  6.6444e+000 54652 84041,84145,84093
 3.2000e+000 84194 -2.7782e+001 -2.9341e+002  4.9065e+001 54652 84015,84145,84041
 3.2000e+000 84171  6.0446e-001 -1.9117e+002  1.6484e+001 54652 84041,84093,84067
 3.2000e+000 84618 -1.0116e+002 -3.0466e+002  3.0276e+001 53926 84396,84500,84474
 3.2000e+000 84595 -1.6728e+002 -4.1910e+002  2.4586e+000 53926 84344,84500,84396
 3.2000e+000 84572 -1.1539e+002 -2.8864e+002  7.5964e+000 53926 84344,84396,84370
 3.2000e+000 84549 -1.1072e+002 -3.0842e+002  2.9522e+001 53926 84396,84474,84422
 3.2000e+000 84526 -1.6249e+002 -2.7428e+002  2.1665e+001 53926 84422,84474,84448
 3.2000e+000 85350 -1.5869e+002 -4.1421e+002 -5.7259e+001 53586 85373,84880,85088
 3.2000e+000 85327 -1.6247e+002 -4.5788e+002 -3.6812e+001 53586 84880,85114,85088
 3.2000e+000 85304 -1.5000e+002 -3.6588e+002  4.9822e+001 53586 85373,85088,85062
 3.2000e+000 85281 -1.4014e+002 -2.2074e+002 -6.8773e+001 53586 85010,85062,85036
 3.2000e+000 85258 -1.0750e+002 -2.7036e+002 -2.2128e+001 53586 85445,85010,84958
 3.2000e+000 85235 -4.4590e+001 -2.2332e+002  2.3730e+001 53586 85445,84958,84906
 3.2000e+000 85212 -5.0817e+001 -2.4977e+002 -4.2606e+001 53586 84958,85010,84984
 3.2000e+000 85189 -6.1567e+001 -4.2816e+002  3.8175e+001 53586 84906,84958,84932
 3.2000e+000 85166 -1.0146e+002 -2.9984e+002 -1.2549e+002 53586 84880,85140,85114
 3.2000e+000 85399 -1.1135e+002 -2.5841e+002 -2.0916e+001 53586 84906,84880,85373
 3.2000e+000 85422 -1.0985e+002 -2.5721e+002  4.8720e+001 53586 85517,85373,85062
 3.2000e+000 85471 -5.2803e+001 -1.4363e+002 -3.4666e+001 53586 85062,85010,85445
 3.2000e+000 85494 -1.0070e+002 -2.0098e+002  3.7874e+001 53586 85517,85062,85445
 3.2000e+000 85543 -8.6690e+001 -3.4556e+002  4.7967e+001 53586 84906,85373,85517
 3.2000e+000 85566 -8.7628e+001 -2.9956e+002  4.5055e+001 53586 84906,85517,85445
 3.2000e+000 86072 -3.5383e+001 -3.1848e+002  9.0933e+000 53182 86095,85853,85775
 3.2000e+000 86049 -6.9088e+001 -2.4174e+002  2.2929e+001 53182 86095,85775,85931
 3.2000e+000 86026 -4.6664e+001 -3.0899e+002  1.1191e+002 53182 86167,85879,85853
 3.2000e+000 86003 -2.0554e+001 -3.4901e+002 -5.1193e+001 53182 85775,85827,85801
 3.2000e+000 85980 -1.1026e+002 -4.0696e+002 -7.7979e+001 53182 85775,85853,85827
 3.2000e+000 85957 -6.8654e+001 -2.4003e+002  1.8319e+001 53182 85749,85931,85775
 3.2000e+000 86121 -2.2986e+001 -2.6371e+002  3.3697e+001 53182 86167,85853,86095
 3.2000e+000 86144 -1.4309e+002 -3.2692e+002 -8.6640e+000 53182 85905,86095,85931
 3.2000e+000 86193 -6.4374e+001 -3.5310e+002  1.1366e+002 53182 85905,85879,86167
 3.2000e+000 86216 -8.5722e+001 -4.1222e+002  3.3607e+001 53182 85905,86167,86095
 3.2000e+000 86673 -5.5989e+001 -2.6182e+002 -7.3305e+001 52778 86477,86529,86503
 3.2000e+000 86650 -1.0574e+002 -3.0436e+002 -2.8681e+001 52778 86425,86529,86477
 3.2000e+000 86627 -4.4679e+001 -2.7281e+002 -4.0134e+001 52778 86425,86477,86451
 3.2000e+000 86604 -1.5247e+002 -2.2624e+002 -2.3966e+001 52778 86399,86529,86425
 3.2000e+000 86581 -2.2363e+002 -2.8784e+002  3.7642e+001 52778 86399,86555,86529
 3.2000e+000 87258 -8.6398e+001 -5.7681e+002 -9.8516e+001 52238 87281,86987,86961
 3.2000e+000 87235 -4.0434e+001 -4.4256e+002  3.9810e+001 52238 87281,86961,87117
 3.2000e+000 87212 -6.5537e+001 -2.2857e+002  2.1605e+001 52238 86935,87117,86961
 3.2000e+000 87189  1.3070e+001 -2.5260e+002  4.4207e+001 52238 87065,87117,87091
 3.2000e+000 87166 -5.5795e+001 -2.2639e+002 -4.7809e+001 52238 86987,87065,87039
 3.2000e+000 87143 -1.5481e+002 -1.3502e+002 -1.3975e+002 52238 86987,87039,87013
 3.2000e+000 87307  1.7617e+001 -3.3326e+002 -7.3849e+001 52238 87065,86987,87281
 3.2000e+000 87330 -9.6371e+000 -3.6304e+002  6.4554e+001 52238 87065,87281,87117
 3.2000e+000 87610 -4.7992e+001 -2.4420e+002 -8.4746e-001 51834 87434,87512,87460
 3.2000e+000 87587 -4.1624e+001 -2.2838e+002  3.0231e+001 51834 87434,87538,87512
 3.2000e+000 87564 -3.4811e+001 -7.9807e+001  9.1827e+000 51834 87633,87460,87512
 3.2000e+000 87659 -7.5643e+000 -6.8137e+001  1.0364e+001 51834 87486,87460,87633
 3.2000e+000 88187 -1.0029e+002 -4.4973e+002 -4.2758e+001 51266 87864,87942,87890
 3.2000e+000 88164 -8.4189e+000 -2.6040e+002 -6.6440e+000 51266 87864,88020,87942
 3.2000e+000 88141 -4.3660e+001 -2.7023e+002  1.1774e+000 51266 87942,88020,87968
 3.2000e+000 88118 -5.7652e+001 -4.6171e+002 -1.5730e+001 51266 87864,88046,88020
 3.2000e+000 88095 -2.2827e+001 -2.2851e+002  1.1028e+001 51266 87968,88020,87994
 3.2000e+000 88072 -3.3160e+001 -4.1213e+002 -8.7110e+001 51266 87890,87942,87916
 3.2000e+000 88644 -1.7023e+002 -2.0926e+002 -2.1027e+001 50754 88370,88500,88396
 3.2000e+000 88621 -1.7526e+002 -3.4091e+002  8.9172e+000 50754 88370,88526,88500
 3.2000e+000 88598 -1.4463e+002 -3.1906e+002 -2.0322e+002 50754 88396,88500,88422
 3.2000e+000 88575 -1.6839e+002 -4.9275e+002 -1.6497e+002 50754 88422,88500,88474
 3.2000e+000 88552 -1.2680e+002 -3.5509e+002  1.3193e+002 50754 88422,88474,88448
 3.2000e+000 88914 -4.0903e+001 -2.2354e+002  1.0559e+001 50442 88715,88793,88741
 3.2000e+000 88891 -2.4451e+001 -2.8647e+002  1.8526e+001 50442 88715,88819,88793
 3.2000e+000 88868 -5.1054e-001 -3.2130e+002  3.7754e+000 50442 88689,88819,88715
 3.2000e+000 88845 -6.0260e+001 -2.1495e+002  4.6157e+001 50442 88741,88793,88767
 3.2000e+000 89294 -2.7743e+001 -3.3289e+002  8.9998e+000 49938 89317,89046,89020
 3.2000e+000 89271 -2.3625e+001 -3.4124e+002  6.4648e+000 49938 89317,89020,89150
 3.2000e+000 89248 -1.2730e+002 -3.5209e+002 -1.7189e+001 49938 89072,89150,89098
 3.2000e+000 89225 -4.9740e+001 -3.9949e+002  6.6525e+001 49938 89020,89176,89150
 3.2000e+000 89202 -1.0626e+002 -3.0351e+002 -2.3646e+001 49938 89098,89150,89124
 3.2000e+000 89343  2.2299e-001 -2.6388e+002  1.9800e+001 49938 89072,89046,89317
 3.2000e+000 89366 -3.1055e+001 -3.3349e+002  1.2357e+001 49938 89072,89317,89150
 3.2000e+000 89823 -9.3655e+000 -1.4413e+002  2.6141e+000 49384 89601,89705,89679
 3.2000e+000 89800 -2.4040e+001 -1.1824e+002 -2.7436e+001 49384 89549,89705,89601
 3.2000e+000 89777 -7.6264e+000 -2.1253e+002 -2.2614e+001 49384 89549,89601,89575
 3.2000e+000 89754 -8.9200e+001 -1.1181e+002  1.3102e+001 49384 89601,89679,89627
 3.2000e+000 89731 -1.0273e+002 -1.2845e+002  2.9220e+001 49384 89627,89679,89653
 3.2000e+000 90329 -9.8089e+000 -2.2947e+002 -2.3203e+001 48894 90058,90110,90084
 3.2000e+000 90306 -6.8044e+001 -2.5667e+002 -6.8585e+001 48894 90058,90162,90110
 3.2000e+000 90283 -1.0536e+002 -3.0622e+002 -8.5038e+001 48894 90032,90162,90058
 3.2000e+000 90260 -9.5428e+001 -3.1241e+002 -5.5238e+001 48894 90006,90162,90032
 3.2000e+000 90237 -8.2485e+001 -4.0710e+002 -7.4914e+001 48894 90110,90162,90136
 3.2000e+000 90214 -5.1951e+001 -3.0526e+002 -4.0913e+001 48894 90006,90188,90162
 3.2000e+000 90884 -2.3930e+001 -2.6229e+002 -2.3970e+001 48490 90564,90642,90616
 3.2000e+000 90861 -7.8248e+001 -2.6539e+002 -2.6823e+001 48490 90564,90694,90642
 3.2000e+000 90838 -2.4134e+001 -2.3667e+002 -1.5580e+001 48490 90538,90694,90564
 3.2000e+000 90815 -3.6816e+001 -2.4272e+002 -1.3276e+001 48490 90538,90720,90694
 3.2000e+000 90792  7.3649e-002 -1.8641e+002 -8.7195e+000 48490 90564,90616,90590
 3.2000e+000 90769 -9.2792e+001 -3.7378e+002 -1.1199e+002 48490 90642,90694,90668
 3.2000e+000 90746 -8.9810e+000 -2.0018e+002  4.1441e+001 48490 90512,90720,90538
 3.2000e+000 91034 -1.0235e+001 -2.1051e+002  4.3832e+001 48086 91057,90959,90933
 3.2000e+000 91011 -3.4525e+000 -1.8312e+002  3.9115e+001 48086 91129,91057,90933
 3.2000e+000 91083  3.0094e+000 -1.9732e+002  3.6891e+001 48086 90985,90959,91057
 3.2000e+000 91106 -1.5061e+001 -1.8309e+002  2.8225e+001 48086 90985,91057,90907
 3.2000e+000 91155 -3.9742e+001 -1.9913e+002  3.5470e+001 48086 90907,91057,91129
 3.2000e+000 91791 -4.8993e+001 -2.1194e+002  1.1658e+002 47518 92030,91814,91523
 3.2000e+000 91768 -6.9123e+001 -2.6017e+002  5.3487e+001 47518 91958,91814,91471
 3.2000e+000 91745 -9.0241e+001 -3.7178e+002  4.4631e+001 47518 91886,91575,91523
 3.2000e+000 91722 -5.6782e+001 -1.7027e+002  2.2596e+000 47518 91958,91471,91419
 3.2000e+000 91699 -5.5824e+001 -2.4372e+002  1.3187e+002 47518 92030,91523,91497
 3.2000e+000 91676 -1.2388e+002 -3.2831e+002  4.5104e+001 47518 91523,91575,91549
 3.2000e+000 91653 -6.3328e+001 -1.1672e+002  3.2271e+000 47518 91419,91471,91445
 3.2000e+000 91840 -5.1067e+001 -3.0296e+002  1.1415e+002 47518 91886,91523,91814
 3.2000e+000 91863 -3.6857e+001 -1.9485e+002  4.5481e+001 47518 91601,91814,91627
 3.2000e+000 91912 -1.6961e+002 -4.1501e+002 -5.9501e+001 47518 91601,91575,91886
 3.2000e+000 91935 -1.3974e+002 -2.6493e+002  1.1969e+001 47518 91601,91886,91814
 3.2000e+000 91984 -7.9014e+000 -1.8303e+002  1.8364e+001 47518 91627,91814,91958
 3.2000e+000 92007 -3.6012e+001 -1.3435e+002 -2.5047e+001 47518 91627,91958,91419
 3.2000e+000 92056 -3.9612e+001 -1.8581e+002  1.0654e+002 47518 91471,91814,92030
 3.2000e+000 92079 -3.6857e+001 -2.0420e+002  1.2042e+002 47518 91471,92030,91497
 3.2000e+000 92229 -1.1481e+000 -5.6522e+000  4.3393e+000 47128 92252,92128,92102
 3.2000e+000 92206  5.0331e+000 -8.8894e+000 -2.3262e+000 47128 92324,92252,92102
 3.2000e+000 92278  3.6530e+000  9.8766e+000  9.0860e+000 47128 92454,92252,92154
 3.2000e+000 92301  3.3896e+000 -1.1809e+001  3.3854e+000 47128 92154,92252,92180
 3.2000e+000 92350 -6.9267e+000 -1.7294e+001 -6.4799e+000 47128 92180,92252,92324
 3.2000e+000 92480  3.5019e+000 -2.9509e+000  6.8337e+000 47128 92128,92252,92454
 3.2000e+000 93340 -9.3787e+001 -2.9497e+002 -3.0992e+001 46838 93363,92977,92873
 3.2000e+000 93317 -8.6165e+001 -2.9414e+002 -1.8296e+001 46838 93507,93363,92873
 3.2000e+000 93294 -3.7483e+001 -2.7930e+002  2.6201e-001 46838 93435,93003,92977
 3.2000e+000 93271 -1.6370e+002 -3.0760e+002 -2.1291e+001 46838 93507,92873,92847
 3.2000e+000 93248 -1.8740e+001 -2.6952e+002 -2.1579e+001 46838 93579,93029,93003
 3.2000e+000 93225 -1.2980e+002 -4.8962e+002  8.1074e+001 46838 92873,92951,92925
 3.2000e+000 93202 -1.5228e+002 -3.5323e+002 -5.2009e+000 46838 92873,92977,92951
 3.2000e+000 93179 -1.4694e+001 -2.7443e+002  9.0165e+000 46838 93055,93107,93081
 3.2000e+000 93156 -3.0313e+001 -1.7497e+002  5.2992e+001 46838 92821,93107,92847
 3.2000e+000 93133 -9.8183e+001 -3.1486e+002  5.7268e+001 46838 92873,92925,92899
 3.2000e+000 93389 -6.1604e+001 -2.8218e+002 -4.3840e-001 46838 93435,92977,93363
 3.2000e+000 93412  1.8704e+000 -2.9623e+002  7.4264e+000 46838 93055,93363,93107
 3.2000e+000 93461 -2.2323e+001 -2.8353e+002 -2.0098e+001 46838 93579,93003,93435
 3.2000e+000 93484 -3.5415e+001 -3.1426e+002 -6.7177e+000 46838 93055,93435,93363
 3.2000e+000 93533 -2.7646e+001 -3.1039e+002 -3.2763e+001 46838 93107,93363,93507
 3.2000e+000 93556 -5.4247e+001 -2.8680e+002 -3.3326e+001 46838 93107,93507,92847
 3.2000e+000 93605 -1.8407e+001 -2.7740e+002 -2.4482e-001 46838 93055,93029,93579
 3.2000e+000 93628 -2.0453e+001 -2.8868e+002  1.3399e+000 46838 93055,93579,93435
 3.2000e+000 93979 -7.1936e+001 -2.6205e+002 -1.8036e+000 46476 93780,93884,93858
 3.2000e+000 93956 -7.2807e+001 -2.8377e+002  6.1442e-001 46476 93754,93884,93780
 3.2000e+000 93933 -1.8608e+001 -1.9669e+002 -6.0148e+000 46476 93806,93858,93832
 3.2000e+000 93910 -3.6579e+001 -2.4515e+002 -7.1275e+000 46476 93780,93858,93806
 3.2000e+000 94515 -1.0009e+000 -1.6042e+002 -9.8441e+000 46072 94345,94397,94371
 3.2000e+000 94492 -1.2615e+002 -2.2183e+002  3.8026e+001 46072 94267,94397,94345
 3.2000e+000 94469 -9.4831e+001 -2.6372e+002  1.5134e+001 46072 94241,94397,94267
 3.2000e+000 94446 -6.4939e+001 -9.7039e+001  2.7637e+001 46072 94293,94345,94319
 3.2000e+000 94423 -1.0713e+002 -1.6245e+002  4.6505e+001 46072 94267,94345,94293
 3.2000e+000 95149 -1.1811e+002 -3.8398e+002  6.1212e+000 45346 94803,94881,94855
 3.2000e+000 95126 -1.0147e+002 -3.2807e+002 -2.2868e+001 45346 94803,94959,94881
 3.2000e+000 95103 -5.3599e+001 -3.3988e+002 -7.9267e+001 45346 95172,94933,94907
 3.2000e+000 95080 -1.2130e+002 -6.2099e+002 -5.1756e+001 45346 95172,94907,94881
 3.2000e+000 95057 -1.3978e+002 -3.0573e+002 -1.0515e+001 45346 94803,94985,94959
 3.2000e+000 95034 -1.0041e+002 -4.3412e+002 -1.2637e+001 45346 94803,94855,94829
 3.2000e+000 95011 -1.4833e+002 -3.1291e+002  1.7952e+001 45346 94777,94985,94803
 3.2000e+000 95198 -1.3792e+002 -2.0894e+002 -4.9772e+001 45346 94959,94933,95172
 3.2000e+000 95221 -1.1318e+002 -3.6391e+002 -4.4659e+001 45346 94959,95172,94881
 3.2000e+000 95776 -7.8943e+001 -3.9744e+002 -1.9734e+001 44720 95799,95560,95534
 3.2000e+000 95753 -3.4945e+001 -2.4547e+002 -5.3875e+001 44720 95799,95534,95482
 3.2000e+000 95730 -2.2895e+001 -4.3180e+002 -5.3037e+001 44720 95943,95871,95430
 3.2000e+000 95707 -4.3475e+001 -3.3525e+002 -3.1919e+001 44720 95943,95430,95404
 3.2000e+000 95684 -1.6988e+002 -2.8714e+002 -1.2009e+002 44720 95430,95482,95456
 3.2000e+000 95661 -8.3741e+001 -2.2097e+002  5.5416e+001 44720 95482,95534,95508
 3.2000e+000 95638 -3.2914e+001 -2.0642e+002 -6.7347e+001 44720 95404,95612,95586
 3.2000e+000 95825 -3.5261e+001 -5.4173e+002 -7.9239e+001 44720 95586,95560,95799
 3.2000e+000 95848  1.2243e+001 -3.9288e+002 -5.8101e+001 44720 95871,95586,95799
 3.2000e+000 95897 -2.3453e+001 -4.4664e+002 -8.1600e+001 44720 95482,95430,95871
 3.2000e+000 95920 -1.9586e+001 -4.1314e+002 -4.4728e+001 44720 95482,95871,95799
 3.2000e+000 95969  1.2789e+001 -3.0053e+002 -6.4362e+001 44720 95586,95871,95943
 3.2000e+000 95992 -2.8478e+001 -2.4208e+002 -2.5746e+001 44720 95586,95943,95404
 3.2000e+000 96449 -7.2174e+001 -3.5753e+002 -5.0165e+000 44202 96544,96472,96227
 3.2000e+000 96426 -7.5515e+001 -3.7080e+002  5.0247e+001 44202 96472,96175,96331
 3.2000e+000 96403 -6.2329e+001 -3.6638e+002 -3.1941e+000 44202 96544,96227,96201
 3.2000e+000 96380 -1.0004e+002 -4.1640e+002 -6.2454e+001 44202 96253,96305,96279
 3.2000e+000 96357 -1.3596e+002 -3.3810e+002 -3.1628e+001 44202 96227,96305,96253
 3.2000e+000 96498 -6.7263e+001 -3.2781e+002  2.3286e+000 44202 96305,96227,96472
 3.2000e+000 96521 -3.6733e+001 -2.8738e+002  6.3228e+001 44202 96305,96472,96331
 3.2000e+000 96570 -6.4982e+001 -3.4138e+002 -5.4533e-001 44202 96175,96472,96544
 3.2000e+000 96593 -6.0363e+001 -3.5664e+002  4.0347e-002 44202 96175,96544,96201
 3.2000e+000 96971 -4.4707e+001 -2.5323e+002 -5.8232e+001 43754 96994,96749,96697
 3.2000e+000 96948 -6.0273e+000 -2.9205e+002 -2.7091e+001 43754 96994,96697,96853
 3.2000e+000 96925 -9.6457e+001 -2.2820e+002 -2.8826e+001 43754 96697,96749,96723
 3.2000e+000 96902 -3.9946e+001 -3.1313e+002  2.0004e+001 43754 96775,96853,96827
 3.2000e+000 96879 -3.6902e+000 -3.7746e+002  7.4664e+000 43754 96775,96827,96801
 3.2000e+000 97020 -1.4984e+001 -1.9238e+002 -4.7285e+001 43754 96775,96749,96994
 3.2000e+000 97043  1.3903e+001 -2.5613e+002 -1.9147e+001 43754 96775,96994,96853
 3.2000e+000 97291 -6.6521e+001 -3.3254e+002 -5.7500e+001 43364 97314,97144,97118
 3.2000e+000 97268 -6.0222e+001 -2.7543e+002 -3.2631e+001 43364 97314,97118,97092
 3.2000e+000 97245 -5.3410e+001 -2.5972e+002  7.1404e+000 43364 97386,97196,97170
 3.2000e+000 97222 -8.4388e+001 -2.2154e+002  3.7769e+001 43364 97066,97196,97092
 3.2000e+000 97340 -3.8741e+001 -2.3513e+002 -7.2864e+001 43364 97170,97144,97314
 3.2000e+000 97363 -5.9934e+001 -2.2511e+002 -1.9620e+001 43364 97386,97170,97314
 3.2000e+000 97412 -7.0704e+001 -2.9988e+002  5.7920e+000 43364 97092,97196,97386
 3.2000e+000 97435 -8.9034e+001 -2.9061e+002 -2.4823e+001 43364 97092,97386,97314
 3.2000e+000 97788 -2.1887e+001 -1.8850e+002  1.7887e+001 42960 97563,97667,97589
 3.2000e+000 97765 -6.0080e+001 -1.7101e+002  1.7142e+001 42960 97563,97693,97667
 3.2000e+000 97742  4.2352e+000 -5.2051e+001  6.8302e+000 42960 97589,97641,97615
 3.2000e+000 97719 -1.4284e+001 -2.0499e+002  6.1719e+000 42960 97589,97667,97641
 3.2000e+000 98215 -7.6090e+000 -2.1935e+002 -3.3669e+000 42563 97918,98074,98048
 3.2000e+000 98192 -6.7886e+001 -1.6685e+002  5.2764e+001 42563 97892,98074,97918
 3.2000e+000 98169 -7.0521e+001 -3.9086e+002  2.6778e+001 42563 98238,97944,97918
 3.2000e+000 98146 -5.5308e+001 -3.5178e+002  4.3692e+001 42563 98238,97918,98048
 3.2000e+000 98123 -7.5793e+001 -2.3964e+002  6.0356e+000 42563 97944,98022,97996
 3.2000e+000 98100 -1.2672e+002 -3.2645e+002  5.2310e+001 42563 97944,97996,97970
 3.2000e+000 98264 -8.6023e+001 -3.7401e+002  6.4712e+000 42563 98022,97944,98238
 3.2000e+000 98287 -7.8881e+001 -3.6128e+002  2.1161e+001 42563 98022,98238,98048
 3.2000e+000 98616 -6.5163e+001 -2.0026e+002 -2.0166e+001 42251 98443,98521,98469
 3.2000e+000 98593 -6.8921e+001 -2.1716e+002 -1.9927e+001 42251 98417,98521,98443
 3.2000e+000 98570 -7.9584e+001 -2.4488e+002 -3.5008e+001 42251 98391,98521,98417
 3.2000e+000 98547  2.6157e+000 -1.6717e+002 -3.0995e+001 42251 98469,98521,98495
 3.2000e+000 98886 -2.3902e+001 -3.3691e+002  2.2268e+001 41847 98661,98765,98687
 3.2000e+000 98863 -4.1602e+001 -1.8110e+002 -8.7017e+001 41847 98661,98791,98765
 3.2000e+000 98840 -6.3669e+001 -2.4452e+002  6.1490e+000 41847 98687,98765,98739
 3.2000e+000 98817 -2.7540e+001 -2.1194e+002 -2.1083e+001 41847 98687,98739,98713
 3.2000e+000 99394 -4.5261e+001 -2.3152e+002 -2.3947e+001 41236 99417,99149,99123
 3.2000e+000 99371 -1.4957e+002 -2.5359e+002 -1.5276e+001 41236 99417,99123,99097
 3.2000e+000 99348 -1.1317e+002 -1.8121e+002 -8.6618e+001 41236 99489,99201,99149
 3.2000e+000 99325 -2.1141e+001 -1.1787e+002 -4.1838e+001 41236 99149,99201,99175
 3.2000e+000 99302 -5.1876e+001 -3.1779e+002 -4.0320e+000 41236 99097,99253,99227
 3.2000e+000 99279 -1.8135e+002 -4.2096e+002 -5.1920e+001 41236 99071,99253,99097
 3.2000e+000 99443 -6.2419e+001 -2.0683e+002 -8.0918e+001 41236 99489,99149,99417
 3.2000e+000 99466 -1.1066e+002 -2.4773e+002 -5.3178e+001 41236 99227,99417,99097
 3.2000e+000 99515 -1.3745e+002 -2.0692e+002 -7.3531e+001 41236 99227,99201,99489
 3.2000e+000 99538 -1.1764e+002 -2.5700e+002 -5.8068e+001 41236 99227,99489,99417
 3.2000e+000 100044  2.0259e+001 -7.1759e+002 -5.3945e+000 40732 99721,99773,99747
 3.2000e+000 100021 -5.3419e+001 -5.0114e+002 -4.7437e+001 40732 99721,99799,99773
 3.2000e+000 99998 -6.5902e+001 -3.4411e+002 -3.2897e+001 40732 99721,99903,99799
 3.2000e+000 99975 -6.3185e+001 -2.9225e+002 -1.9831e+001 40732 100067,99877,99851
 3.2000e+000 99952 -6.5666e+001 -2.4791e+002 -1.3190e+001 40732 100067,99851,99799
 3.2000e+000 99929 -5.0166e+001 -2.3201e+002 -2.6198e+001 40732 99799,99851,99825
 3.2000e+000 100093 -5.9508e+001 -3.2929e+002 -3.6525e+001 40732 99903,99877,100067
 3.2000e+000 100116 -5.7313e+001 -2.7443e+002 -3.3437e+001 40732 99903,100067,99799
 3.2000e+000 100622 -2.1536e+001 -2.9039e+002 -2.6614e+001 40278 100645,100455,100429
 3.2000e+000 100599 -1.0413e+002 -2.2198e+002 -4.8347e+001 40278 100717,100645,100429
 3.2000e+000 100576 -1.0605e+002 -2.2235e+002  1.3289e+001 40278 100717,100429,100377
 3.2000e+000 100553 -6.9786e+001 -4.1584e+002 -1.2066e+001 40278 100789,100325,100481
 3.2000e+000 100530 -1.2595e+002 -2.4306e+002  4.4354e+001 40278 100299,100481,100325
 3.2000e+000 100507 -1.2392e+002 -2.9439e+002 -2.0619e+001 40278 100377,100429,100403
 3.2000e+000 100671 -3.9558e+001 -3.2975e+002 -4.0709e+001 40278 100481,100455,100645
 3.2000e+000 100694 -6.2585e+001 -3.4926e+002 -2.1025e+001 40278 100789,100481,100645
 3.2000e+000 100743 -6.8707e+001 -1.2348e+002 -7.3663e+001 40278 100351,100645,100717
 3.2000e+000 100766 -9.7134e+001 -1.4693e+002 -6.9374e+000 40278 100351,100717,100377
 3.2000e+000 100815 -1.0551e+002 -4.2386e+002 -1.2912e+002 40278 100351,100325,100789
 3.2000e+000 100838 -5.3377e+001 -2.7076e+002 -1.3143e+002 40278 100351,100789,100645
 3.2000e+000 101265 -3.2053e+001 -3.1984e+002  2.8638e+001 39824 101288,101046,100994
 3.2000e+000 101242 -4.9321e+001 -2.7962e+002  1.5173e+001 39824 101288,100994,100968
 3.2000e+000 101219 -4.6916e+001 -2.7478e+002 -6.2278e+000 39824 100942,101124,100968
 3.2000e+000 101196 -1.0805e+002 -5.1819e+002  3.0892e+001 39824 101046,101124,101072
 3.2000e+000 101173 -1.3061e+001 -2.9401e+002  6.0094e+001 39824 100994,101046,101020
 3.2000e+000 101150 -1.3790e+002 -3.7012e+002 -4.0158e+001 39824 101072,101124,101098
 3.2000e+000 101314 -1.6188e+001 -2.9432e+002  1.3892e+001 39824 101124,101046,101288
 3.2000e+000 101337 -3.2231e+001 -2.6673e+002 -2.8001e+000 39824 101124,101288,100968
 3.2000e+000 101585 -1.6731e+001 -2.3098e+002 -4.4854e+001 39070 101608,101464,101412
 3.2000e+000 101562  5.3784e+001 -2.5721e+002  1.3553e+001 39070 101608,101412,101360
 3.2000e+000 101539 -1.6644e+001 -1.9092e+002 -1.1704e+001 39070 101412,101464,101438
 3.2000e+000 101516  1.0161e+001 -2.1726e+002  4.2156e+001 39070 101360,101412,101386
 3.2000e+000 101634 -6.9343e+001 -2.4916e+002 -4.8274e+001 39070 101490,101464,101608
 3.2000e+000 101657 -2.2624e+001 -2.8561e+002  1.7103e+001 39070 101490,101608,101360
 3.2000e+000 101856 -4.4601e+001 -2.1046e+002 -4.8962e+000 38730 101706,101758,101732
 3.2000e+000 101833 -2.8279e+001 -2.3382e+002  2.4967e+000 38730 101706,101784,101758
 3.2000e+000 101810 -7.5732e+001 -2.6412e+002 -1.2406e+001 38730 101680,101784,101706
 3.2000e+000 102106 -1.4684e+002 -3.4564e+002 -2.2869e+001 38326 101881,101959,101907
 3.2000e+000 102083 -1.0935e+002 -2.5054e+002 -2.4122e+001 38326 101881,101985,101959
 3.2000e+000 102060 -8.4567e+001 -3.6268e+002  4.1041e+001 38326 101881,102011,101985
 3.2000e+000 102037 -5.7848e+001 -2.0308e+002 -9.8991e+001 38326 101907,101959,101933
 3.2000e+000 102258  2.9332e+001 -2.8699e+002  1.6950e+001 38036 102281,102157,102131
 3.2000e+000 102235 -6.7340e+000 -3.5819e+002  5.1400e+001 38036 102281,102131,102209
 3.2000e+000 102307 -4.0214e+001 -2.1362e+002  1.6115e+001 38036 102183,102157,102281
 3.2000e+000 102330 -7.2992e+001 -2.6704e+002  5.7366e+001 38036 102183,102281,102209
 3.2000e+000 102663 -3.3968e+001 -1.4329e+002  1.6986e+000 37596 102438,102542,102464
 3.2000e+000 102640  1.7350e+001 -1.2552e+002 -7.1533e+000 37596 102438,102568,102542
 3.2000e+000 102617 -1.6871e+001 -1.9797e+002 -4.2920e+001 37596 102490,102542,102516
 3.2000e+000 102594 -3.8873e+001 -1.5764e+002 -1.0263e+000 37596 102464,102542,102490
 3.2000e+000 102862 -6.3603e+001 -2.7216e+002 -2.8344e+001 37192 102686,102764,102712
 3.2000e+000 102839 -4.0512e+001 -2.5240e+002 -5.2041e+001 37192 102686,102790,102764
 3.2000e+000 102816 -8.0108e+001 -2.4682e+002 -3.9761e+001 37192 102712,102764,102738
 3.2000e+000 103110 -3.3195e+001 -1.8723e+002 -7.8308e+001 36609 102911,102963,102937
 3.2000e+000 103087 -3.4946e+001 -2.5464e+002 -2.5418e+001 36609 102911,102989,102963
 3.2000e+000 103064 -2.1816e+000 -2.4879e+002 -2.4479e+001 36609 102885,102989,102911
 3.2000e+000 103041 -4.9413e+001 -1.7347e+002 -7.1794e+001 36609 102885,103015,102989
 3.2000e+000 103718  4.3686e+001 -6.6963e+002  6.8202e+001 36131 103323,103375,103349
 3.2000e+000 103695 -1.1593e+002 -3.4726e+002 -2.3730e+001 36131 103297,103375,103323
 3.2000e+000 103672 -4.3913e+001 -2.0410e+002 -6.1219e+001 36131 103297,103505,103375
 3.2000e+000 103649 -1.5558e+002 -3.5066e+002  3.6755e+001 36131 103741,103479,103401
 3.2000e+000 103626 -9.4202e+001 -2.0707e+002  3.2821e+001 36131 103741,103401,103375
 3.2000e+000 103603 -1.8534e+002 -4.0518e+002  2.2954e+001 36131 103401,103479,103427
 3.2000e+000 103580 -1.0147e+002 -2.8038e+002 -1.0447e+001 36131 103297,103531,103505
 3.2000e+000 103557 -1.3582e+002 -3.4770e+002 -5.3495e+001 36131 103427,103479,103453
 3.2000e+000 103767 -1.1370e+002 -4.4201e+002 -7.4608e+001 36131 103505,103479,103741
 3.2000e+000 103790 -6.0155e+001 -3.1577e+002 -7.4575e+001 36131 103505,103741,103375
 3.2000e+000 103989 -1.9208e+002 -3.8420e+002  2.3504e+001 35791 103839,103917,103891
 3.2000e+000 103966 -2.7868e+002 -4.4785e+002 -6.1592e+000 35791 103813,103917,103839
 3.2000e+000 103943 -2.0304e+001 -2.8617e+002 -1.6035e+001 35791 103839,103891,103865
 3.2000e+000 104188 -5.0091e+000 -2.3518e+002 -1.2552e+001 35444 104038,104090,104064
 3.2000e+000 104165 -1.1243e+002 -2.9826e+002 -4.4783e+001 35444 104038,104116,104090
 3.2000e+000 104142 -1.5705e+001 -2.9337e+002 -1.6105e+001 35444 104012,104116,104038
 3.2000e+000 104487 -2.3722e+001 -2.8894e+002 -8.0811e+001 34990 104265,104317,104291
 3.2000e+000 104464 -3.8000e+001 -3.5100e+002 -9.9731e+000 34990 104510,104317,104265
 3.2000e+000 104441 -7.4239e+001 -2.3627e+002  2.6248e+001 34990 104510,104265,104213
 3.2000e+000 104418  4.4620e+000 -2.3957e+002 -4.2778e+001 34990 104582,104343,104317
 3.2000e+000 104395 -5.2933e+001 -2.1403e+002 -8.0773e+001 34990 104213,104265,104239
 3.2000e+000 104536  8.7249e+000 -2.3507e+002 -2.4460e+001 34990 104582,104317,104510
 3.2000e+000 104559 -7.1482e+001 -1.9227e+002  1.8967e+001 34990 104369,104510,104213
 3.2000e+000 104608 -2.8016e+001 -1.7286e+002 -1.7848e+001 34990 104369,104343,104582
 3.2000e+000 104631 -4.6241e+001 -2.6021e+002  1.0349e+001 34990 104369,104582,104510
 3.2000e+000 104783  3.8813e+001 -1.2537e+002 -2.2192e+001 34700 104938,104806,104682
 3.2000e+000 104760  2.1712e+000 -2.1488e+002 -2.6184e+001 34700 104938,104682,104656
 3.2000e+000 104832  1.8548e+001 -1.9530e+002 -4.1639e+001 34700 104708,104682,104806
 3.2000e+000 104964  3.0680e+001 -9.2237e+001  5.4300e+001 34700 104734,104806,104938
 3.2000e+000 104987  2.3410e+000 -1.6142e+002  5.1834e+001 34700 104734,104938,104656
 3.2000e+000 105137 -2.3247e+001 -1.9539e+002  1.1168e+001 34388 105036,105088,105062
 3.2000e+000 105114 -3.1254e+001 -3.0166e+002 -8.6725e+000 34388 105010,105088,105036
 3.2000e+000 105385 -7.3261e+001 -2.1243e+002 -5.1583e+001 33734 105408,105186,105160
 3.2000e+000 105362 -6.8754e+001 -2.3038e+002 -5.9315e+001 33734 105408,105160,105264
 3.2000e+000 105339 -1.3944e+002 -2.9942e+002 -3.0539e+001 33734 105160,105290,105264
 3.2000e+000 105316 -8.0571e+000 -1.7499e+002 -3.0731e+001 33734 105186,105238,105212
 3.2000e+000 105434 -6.9336e+001 -1.9498e+002 -3.9099e+001 33734 105238,105186,105408
 3.2000e+000 105457 -6.4011e+001 -2.2696e+002 -4.1052e+001 33734 105238,105408,105264
 3.2000e+000 105609 -6.0513e+001 -2.7025e+002  1.5765e+001 33394 105482,105534,105508
 3.2000e+000 105586 -3.1844e+001 -2.8102e+002  3.1173e+001 33394 105482,105560,105534
 3.2000e+000 105859 -8.4449e+001 -4.2415e+002 -7.8531e+001 33047 105882,105712,105660
 3.2000e+000 105836 -2.2649e+001 -3.6685e+002 -3.2853e+001 33047 105882,105660,105634
 3.2000e+000 105813 -1.9578e+001 -4.7939e+002  1.2598e+001 33047 105660,105712,105686
 3.2000e+000 105790 -2.6879e+001 -1.8716e+002 -5.9902e+000 33047 105634,105764,105738
 3.2000e+000 105908 -2.3748e+002 -3.3217e+002 -3.8788e+001 33047 105738,105712,105882
 3.2000e+000 105931 -8.5015e+001 -2.6924e+002  2.6506e+001 33047 105738,105882,105634
 3.2000e+000 106181 -4.2318e+001 -3.1320e+002 -3.3365e+000 32543 106204,106060,106008
 3.2000e+000 106158  2.1775e+001 -5.3400e+002  6.2961e+001 32543 105956,106086,106060
 3.2000e+000 106135 -5.1892e+000 -1.5387e+002  7.3917e+001 32543 106204,106008,105982
 3.2000e+000 106112 -7.8865e+001 -1.4034e+002  7.6630e+000 32543 106008,106060,106034
 3.2000e+000 106230 -5.5444e+001 -3.8300e+002 -8.5745e+001 32543 105956,106060,106204
 3.2000e+000 106253 -6.4129e+001 -2.4857e+002 -1.8658e+001 32543 105956,106204,105982
 3.2000e+000 106454  4.0516e+001 -1.8070e+002  6.2565e+001 31839 106304,106356,106330
 3.2000e+000 106431  2.0497e+001 -2.6521e+002 -5.8533e+001 31839 106278,106356,106304
 3.2000e+000 106408 -7.3553e+001 -2.6907e+002 -4.5167e+001 31839 106278,106382,106356
 3.2000e+000 106704 -1.4246e+001 -2.5946e+002 -3.8198e+001 31534 106505,106583,106557
 3.2000e+000 106681 -8.1523e+001 -2.7594e+002 -2.8297e+001 31534 106479,106583,106505
 3.2000e+000 106658 -7.2565e+001 -1.5327e+002 -6.3145e+001 31534 106505,106557,106531
 3.2000e+000 106635 -9.7729e+000 -2.3654e+002 -4.7459e+001 31534 106479,106609,106583
 3.2000e+000 107108 -1.9475e+002 -3.5345e+002 -4.0901e+000 31030 106886,106990,106964
 3.2000e+000 107085 -2.1619e+002 -3.7724e+002 -1.3842e+001 31030 106860,106990,106886
 3.2000e+000 107062 -1.9747e+001 -3.2591e+002 -5.0408e+001 31030 106834,106990,106860
 3.2000e+000 107039 -1.8834e+002 -4.8075e+002  5.1315e+001 31030 106912,106964,106938
 3.2000e+000 107016 -1.7148e+002 -3.3910e+002  9.5355e+000 31030 106886,106964,106912
 3.2000e+000 107307 -7.3671e+000 -2.2790e+002 -2.4053e+001 30718 107330,107157,107131
 3.2000e+000 107284 -2.6618e+001 -2.6321e+002 -1.4413e+001 30718 107330,107131,107235
 3.2000e+000 107261 -5.6394e+001 -2.1896e+002 -5.4191e+000 30718 107183,107235,107209
 3.2000e+000 107356 -3.4247e+001 -1.7590e+002 -2.6328e+001 30718 107183,107157,107330
 3.2000e+000 107379 -5.9257e+001 -2.1921e+002 -1.4931e+001 30718 107183,107330,107235
 3.2000e+000 107759 -1.5368e+001 -1.4714e+002 -1.5412e+001 30264 107782,107615,107537
 3.2000e+000 107736 -2.7097e+001 -1.7447e+002 -1.7384e+001 30264 107782,107537,107485
 3.2000e+000 107713 -5.1757e+001 -2.2771e+002 -1.1211e+000 30264 107485,107537,107511
 3.2000e+000 107690 -4.1954e+000 -2.1551e+002 -4.0973e+001 30264 107537,107615,107589
 3.2000e+000 107667 -1.5939e+000 -1.8347e+002 -2.3704e+001 30264 107537,107589,107563
 3.2000e+000 107808 -7.5990e+000 -1.5249e+002  6.9247e+000 30264 107641,107615,107782
 3.2000e+000 107831 -2.1956e+001 -1.8396e+002  3.5638e+000 30264 107641,107782,107485
 3.2000e+000 108030 -7.9293e+001 -3.7286e+002 -8.1319e+001 29874 108053,107854,107932
 3.2000e+000 108007 -1.5449e+002 -3.9800e+002 -7.5893e+001 29874 107854,107958,107932
 3.2000e+000 107984  2.8080e+001 -2.6477e+002 -1.5729e+001 29874 108053,107932,107906
 3.2000e+000 108079 -1.3426e+002 -2.4058e+002 -3.2111e+001 29874 107880,107854,108053
 3.2000e+000 108102 -9.4558e+001 -1.6148e+002  7.8430e+000 29874 107880,108053,107906
 3.2000e+000 108433 -4.2213e+000 -3.1878e+002 -1.1025e+002 29484 108234,108338,108312
 3.2000e+000 108410 -1.1082e+001 -2.7684e+002 -2.4782e+001 29484 108208,108338,108234
 3.2000e+000 108387 -1.0771e+002 -2.9323e+002 -1.4157e+002 29484 108234,108312,108260
 3.2000e+000 108364  3.0458e+001 -2.6859e+001 -5.2878e+001 29484 108260,108312,108286
 3.2000e+000 108762 -6.2657e+001 -3.0190e+002  1.7581e+001 29080 108563,108641,108589
 3.2000e+000 108739 -4.6003e+001 -1.7988e+002 -1.8545e+001 29080 108537,108641,108563
 3.2000e+000 108716 -9.0642e+001 -3.4713e+002  2.9431e+001 29080 108589,108641,108615
 3.2000e+000 108693 -2.7454e+000 -1.5236e+002  1.2789e+001 29080 108537,108667,108641
 3.2000e+000 109189 -6.4476e+000 -3.2102e+002 -3.7724e+001 28476 108892,108996,108970
 3.2000e+000 109166 -9.4070e+001 -3.1081e+002 -3.4890e+001 28476 108892,109022,108996
 3.2000e+000 109143 -1.3282e+002 -2.2397e+002  4.4052e+001 28476 108892,108970,108944
 3.2000e+000 109120 -5.1712e+001 -3.4779e+002 -6.7721e+001 28476 108892,109048,109022
 3.2000e+000 109097 -9.9463e+001 -8.8195e+001  2.1812e+001 28476 108892,108944,108918
 3.2000e+000 109074 -4.5539e+001 -2.8140e+002 -7.1064e+001 28476 108866,109048,108892
 3.2000e+000 109518 -1.1687e+002 -3.2976e+002  5.3428e+001 28022 109541,109371,109345
 3.2000e+000 109495 -1.2881e+002 -3.0717e+002  3.2419e+001 28022 109541,109345,109319
 3.2000e+000 109472 -9.0478e+001 -3.0109e+002  1.0387e+001 28022 109293,109397,109319
 3.2000e+000 109449 -8.0746e+000 -2.6440e+002  2.6490e+000 28022 109293,109423,109397
 3.2000e+000 109567 -6.3405e+001 -3.0576e+002  4.7704e+001 28022 109397,109371,109541
 3.2000e+000 109590 -1.1337e+002 -3.0016e+002  3.0370e+001 28022 109397,109541,109319
 3.2000e+000 109968 -3.5550e+001 -1.5987e+002  6.7366e+001 27568 109798,109850,109824
 3.2000e+000 109945 -4.7968e+001 -2.7281e+002  8.9975e+001 27568 109694,109850,109798
 3.2000e+000 109922 -4.1731e+001 -2.1984e+002  7.4671e+001 27568 109694,109798,109746
 3.2000e+000 109899 -1.4242e+001 -2.1727e+002  5.4153e-001 27568 109746,109798,109772
 3.2000e+000 109876 -6.9477e+001 -2.4864e+002  4.5164e+001 27568 109694,109746,109720
 3.2000e+000 110167 -8.0771e+001 -3.3810e+002 -8.6206e+001 27007 110017,110095,110069
 3.2000e+000 110144  1.2333e+001 -3.7777e+002 -1.4826e+001 27007 109991,110095,110017
 3.2000e+000 110121  1.0196e+001 -2.7867e+002 -5.1531e+001 27007 110017,110069,110043
 3.2000e+000 110415 -1.5308e+001 -2.8619e+002 -2.0619e+001 26567 110438,110242,110190
 3.2000e+000 110392 -3.9603e+001 -3.2307e+002 -5.4316e+000 26567 110438,110190,110320
 3.2000e+000 110369 -7.5476e+001 -3.0644e+002 -4.5361e+001 26567 110242,110294,110268
 3.2000e+000 110346 -2.3108e+001 -2.5982e+002  5.7582e+001 26567 110190,110242,110216
 3.2000e+000 110464 -2.6822e+001 -2.7419e+002 -3.1469e+001 26567 110294,110242,110438
 3.2000e+000 110487 -3.2113e+001 -2.8806e+002 -1.9165e+001 26567 110294,110438,110320
 3.2000e+000 110639  4.9758e+000 -3.0095e+001  5.4002e+000 26170 110538,110590,110564
 3.2000e+000 110616  2.4042e+001 -1.4841e+000  1.3684e+001 26170 110512,110590,110538
 3.2000e+000 111149 -8.6852e+001 -1.7309e+002 -3.5744e+001 25716 111172,110878,110852
 3.2000e+000 111126 -4.9683e+001 -1.7935e+002 -3.1628e+001 25716 111172,110852,111008
 3.2000e+000 111103 -4.4819e+001 -1.9916e+002 -4.7656e+001 25716 110878,110930,110904
 3.2000e+000 111080 -5.0690e+001 -1.7148e+002 -2.0089e+001 25716 110826,111008,110852
 3.2000e+000 111057 -7.8455e+001 -2.7641e+002  5.6163e+001 25716 110930,111008,110956
 3.2000e+000 111034 -5.7055e+001 -2.6062e+002  4.7448e+001 25716 110956,111008,110982
 3.2000e+000 111198 -5.9850e+001 -1.7864e+002 -2.5354e+001 25716 110930,110878,111172
 3.2000e+000 111221 -1.4801e+001 -1.7805e+002 -2.0063e+001 25716 110930,111172,111008
 3.2000e+000 111420  7.7760e+000 -1.5566e+002  2.6378e+000 25304 111443,111270,111244
 3.2000e+000 111397  3.4467e+000 -1.7153e+002  5.5656e+000 25304 111443,111244,111348
 3.2000e+000 111374 -5.8601e+000 -1.2884e+002  2.5640e+001 25304 111270,111322,111296
 3.2000e+000 111469  1.1524e+000 -1.3952e+002  6.5282e-001 25304 111322,111270,111443
 3.2000e+000 111492 -2.5226e+000 -1.5353e+002  4.5649e+000 25304 111322,111443,111348
 3.2000e+000 111691 -7.3294e+001 -2.5965e+002  2.5212e+001 24736 111567,111619,111593
 3.2000e+000 111668 -1.1880e+002 -3.5940e+002  1.4145e+001 24736 111541,111619,111567
 3.2000e+000 111645 -8.7880e+001 -3.4779e+002  1.7872e+001 24736 111515,111619,111541
 3.2000e+000 112024 -2.5599e+001 -3.1630e+002  4.6164e+001 24146 111825,111877,111851
 3.2000e+000 112001 -7.2022e+001 -2.7274e+002 -1.0800e+001 24146 111825,111903,111877
 3.2000e+000 111978 -2.9112e+001 -1.8165e+002 -2.9082e+001 24146 111825,111929,111903
 3.2000e+000 111955 -2.5163e+001 -1.8115e+002 -2.9243e+001 24146 111799,111929,111825
 3.2000e+000 112370 -1.0006e+002 -5.2900e+002 -5.3962e+000 23856 112393,112151,112125
 3.2000e+000 112347 -6.9326e+001 -4.4560e+002 -1.2950e+000 23856 112465,112393,112125
 3.2000e+000 112324 -8.1594e+001 -4.2537e+002  3.0202e+001 23856 112465,112125,112073
 3.2000e+000 112301 -1.2698e+002 -3.9325e+002  3.8113e+001 23856 112073,112125,112099
 3.2000e+000 112278 -2.9388e+002 -5.9235e+002 -8.2359e+001 23856 112047,112229,112073
 3.2000e+000 112255 -5.8293e+001 -6.1955e+002 -1.4302e+002 23856 112151,112203,112177
 3.2000e+000 112419 -8.7386e+001 -4.8425e+002 -5.1517e+001 23856 112203,112151,112393
 3.2000e+000 112442 -1.1466e+002 -4.6803e+002 -4.9932e+001 23856 112203,112393,112229
 3.2000e+000 112491 -1.2934e+002 -4.8466e+002 -4.3740e+001 23856 112229,112393,112465
 3.2000e+000 112514 -1.2182e+002 -4.3371e+002 -9.7536e+000 23856 112229,112465,112073
 3.2000e+000 112784 -3.5702e+001 -3.6402e+002  2.6209e+001 23494 112611,112663,112637
 3.2000e+000 112761 -4.6849e+001 -3.2110e+002  2.5438e+001 23494 112585,112663,112611
 3.2000e+000 112738 -8.1709e+001 -3.3612e+002  2.2098e+001 23494 112559,112663,112585
 3.2000e+000 112715 -1.1260e+001 -1.9723e+002 -2.8308e+000 23494 112559,112689,112663
 3.2000e+000 113117  2.2046e+000 -7.5306e+001 -1.2553e+001 22974 112944,113022,112996
 3.2000e+000 113094 -9.8478e+000 -5.1054e+001 -2.1815e+001 22974 112918,113022,112944
 3.2000e+000 113071 -1.1234e+001 -1.2433e+002 -2.9355e+001 22974 112944,112996,112970
 3.2000e+000 113048 -5.9824e+000 -9.4961e+001  1.5340e+001 22974 112892,113022,112918
 3.2000e+000 113414 -2.8562e+000 -1.6167e+002  4.2712e+001 22370 113192,113296,113218
 3.2000e+000 113391 -1.3282e+000 -2.2877e+002  2.9377e+001 22370 113140,113296,113192
 3.2000e+000 113368 -6.1845e+001 -2.9680e+002  5.6336e+001 22370 113218,113296,113270
 3.2000e+000 113345 -7.8435e+001 -3.4077e+002  5.4492e+001 22370 113218,113270,113244
 3.2000e+000 113322  1.8308e+000 -2.0168e+002  5.0383e+001 22370 113140,113192,113166
 3.2000e+000 113662  5.4647e+000 -1.5368e+002  7.1507e+001 21916 113685,113515,113489
 3.2000e+000 113639 -4.8903e+001 -3.2732e+002  3.3036e+001 21916 113685,113489,113437
 3.2000e+000 113616  1.0555e+001 -3.2447e+002  1.5634e+001 21916 113757,113567,113541
 3.2000e+000 113593  7.5801e+000 -2.0488e+002  6.0042e+001 21916 113437,113489,113463
 3.2000e+000 113711 -7.6958e+001 -3.7152e+002  8.1209e+001 21916 113541,113515,113685
 3.2000e+000 113734 -2.1609e+001 -3.6036e+002  3.2779e+001 21916 113757,113541,113685
 3.2000e+000 113783 -3.9707e+001 -3.0368e+002  2.3991e+001 21916 113437,113567,113757
 3.2000e+000 113806 -3.5467e+001 -3.1043e+002  2.6807e+001 21916 113437,113757,113685
 3.2000e+000 114056  5.6201e+001 -4.5053e+002  3.6407e+001 21412 113857,113909,113883
 3.2000e+000 114033  1.2399e+002 -2.5367e+002  3.0541e+001 21412 114079,113909,113857
 3.2000e+000 114010 -2.4295e+001 -2.9415e+002  5.8418e+000 21412 114079,113857,113961
 3.2000e+000 113987 -6.0551e+001 -2.7596e+002  1.3943e+001 21412 113831,113961,113857
 3.2000e+000 114105  7.8502e+000 -2.6268e+002 -3.2507e+001 21412 113935,113909,114079
 3.2000e+000 114128 -9.2290e+001 -2.6244e+002 -5.1120e+001 21412 113935,114079,113961
 3.2000e+000 114378 -9.8503e+001 -3.2205e+002 -1.2102e+002 21022 114401,114257,114205
 3.2000e+000 114355 -1.4573e+002 -4.3721e+002 -1.2457e+002 21022 114401,114205,114179
 3.2000e+000 114332 -3.4612e+000 -5.6030e+002 -7.6181e+001 21022 114153,114283,114179
 3.2000e+000 114309 -1.2003e+002 -2.1793e+002 -7.8604e+001 21022 114205,114257,114231
 3.2000e+000 114427 -6.9249e+001 -3.6198e+002 -1.6438e+001 21022 114283,114257,114401
 3.2000e+000 114450 -1.1117e+002 -4.6828e+002 -2.1928e+001 21022 114283,114401,114179
 3.2000e+000 114651 -4.6387e+000 -3.4323e+002  2.8021e+001 20618 114501,114553,114527
 3.2000e+000 114628 -1.0124e+002 -3.4679e+002 -2.3475e+001 20618 114501,114579,114553
 3.2000e+000 114605 -7.4679e+001 -3.0055e+002 -6.4541e+000 20618 114475,114579,114501
 3.2000e+000 114901  7.8876e+001 -3.3508e+002 -3.8682e+000 20114 114676,114780,114702
 3.2000e+000 114878 -3.3761e+001 -3.9396e+002  1.8018e+001 20114 114676,114806,114780
 3.2000e+000 114855  1.9535e+002 -3.7606e+002 -1.5481e+001 20114 114702,114780,114754
 3.2000e+000 114832  5.6999e+002 -3.7870e+002  1.0281e+002 20114 114702,114754,114728
 3.2000e+000 115053 -1.3593e+002 -4.6395e+002 -1.0039e+001 19460 115147,115076,114926
 3.2000e+000 115030 -1.0902e+002 -4.8848e+002 -3.9647e+000 19460 115147,114926,115004
 3.2000e+000 115102 -1.3664e+002 -4.4370e+002 -3.9801e+000 19460 114952,114926,115076
 3.2000e+000 115173 -1.0867e+002 -4.3724e+002  2.0371e+000 19460 114978,115076,115147
 3.2000e+000 115196 -7.8143e+001 -4.6191e+002  7.8664e+000 19460 114978,115147,115004
 3.2000e+000 115446 -6.7216e+001 -4.2360e+002 -7.3559e+000 19006 115273,115351,115299
 3.2000e+000 115423  8.9505e+000 -3.7210e+002  1.5071e+001 19006 115247,115351,115273
 3.2000e+000 115400  1.8460e-001 -3.7559e+002  1.7642e+001 19006 115221,115351,115247
 3.2000e+000 115377 -3.4728e+001 -4.3627e+002 -4.1006e+001 19006 115299,115351,115325
 3.2000e+000 115767 -1.6067e+002 -4.5113e+002  9.6116e+000 18716 115571,115649,115623
 3.2000e+000 115744 -1.7410e+002 -4.6828e+002  1.8558e+000 18716 115493,115649,115571
 3.2000e+000 115721 -1.8354e+002 -4.5241e+002  8.1654e+000 18716 115493,115571,115545
 3.2000e+000 115698 -1.4035e+002 -4.0880e+002  6.7961e+001 18716 115493,115545,115519
 3.2000e+000 115675 -7.7291e+001 -4.2511e+002 -8.9545e+000 18716 115571,115623,115597
 3.2000e+000 116039 -5.6613e+001 -3.1452e+002  1.6821e+001 18312 115814,115892,115840
 3.2000e+000 116016 -3.9519e+001 -2.7375e+002  1.5928e+001 18312 115814,115944,115892
 3.2000e+000 115993 -6.7433e+001 -2.9444e+002  5.6449e+000 18312 115892,115944,115918
 3.2000e+000 115970  5.3712e+001 -2.9408e+002  4.3726e+001 18312 115840,115892,115866
 3.2000e+000 116191 -4.2484e+001 -4.2166e+002  2.7708e+000 18000 116090,116142,116116
 3.2000e+000 116168 -2.9660e+001 -4.3327e+002  1.3477e+001 18000 116064,116142,116090
 3.2000e+000 116343 -2.6883e+002 -5.7779e+002 -1.6928e+001 17396 116242,116294,116268
 3.2000e+000 116320 -2.4793e+002 -5.7337e+002 -1.5243e+001 17396 116216,116294,116242
 3.2000e+000 116566 -1.1365e+002 -6.3113e+002  5.5717e+001 16942 116390,116468,116442
 3.2000e+000 116543 -1.0805e+002 -6.5464e+002  6.1751e+001 16942 116390,116494,116468
 3.2000e+000 116520 -1.6668e+002 -7.5582e+002  2.3920e+001 16942 116390,116442,116416
 3.2000e+000 116767  4.3266e+001 -3.3869e+002 -1.7203e+001 16438 116790,116643,116617
 3.2000e+000 116744 -1.8146e+000 -2.7933e+002 -1.4206e+001 16438 116790,116617,116591
 3.2000e+000 116721  8.1908e+001 -2.6585e+002 -6.7138e+001 16438 116643,116695,116669
 3.2000e+000 116816  4.6743e+001 -2.9350e+002 -3.7091e+001 16438 116695,116643,116790
 3.2000e+000 116839  3.0259e+001 -2.3379e+002 -5.4700e+001 16438 116695,116790,116591
 3.2000e+000 117062 -1.7586e+001 -5.0393e+002 -4.2543e+000 16074 116886,116938,116912
 3.2000e+000 117039 -1.0416e+002 -5.5668e+002  2.3281e+001 16074 116886,116990,116938
 3.2000e+000 117016 -7.0880e+001 -4.5606e+002  3.5711e+001 16074 116938,116990,116964
 3.2000e+000 117214 -7.2897e+001 -5.4682e+002 -9.6077e+000 15649 117087,117139,117113
 3.2000e+000 117191 -5.6408e-001 -5.1965e+002 -2.9523e+000 15649 117087,117165,117139
 3.2000e+000 117317 -1.8612e+002 -4.7888e+002 -4.2028e+001 421 117239,117291,117265
 3.3000e+000 70632 -3.7004e+002 -6.3275e+002 -2.6649e+001 70072 70482,70534,70508
 3.3000e+000 70609 -3.4177e+002 -5.7387e+002 -1.7741e+001 70072 70482,70560,70534
 3.3000e+000 70586 -2.7307e+002 -5.4504e+002 -2.2535e+001 70072 70456,70560,70482
 3.3000e+000 70951 -2.4741e+002 -6.6472e+002  0.0000e+000 69874 70703,70755,70729
 3.3000e+000 70928 -1.5265e+002 -6.3509e+002 -1.0199e+002 69874 70703,70781,70755
 3.3000e+000 70905 -6.7752e+001 -2.5865e+002 -6.0801e+001 69874 70703,70807,70781
 3.3000e+000 70882 -1.8632e+002 -5.5249e+002 -2.4880e+001 69874 70703,70833,70807
 3.3000e+000 70859 -1.4047e+002 -5.5238e+002  2.1661e+001 69874 70677,70833,70703
 3.3000e+000 71199 -1.2496e+002 -4.0452e+002  1.4230e+001 69698 71222,71052,71026
 3.3000e+000 71176 -1.4492e+002 -3.4019e+002  1.7697e+001 69698 71294,71222,71026
 3.3000e+000 71153 -1.5893e+002 -3.2665e+002 -4.4146e+001 69698 71294,71026,71000
 3.3000e+000 71130 -9.8371e+001 -3.2031e+002  3.5116e+001 69698 71366,71104,71078
 3.3000e+000 71248 -9.0265e+001 -3.2209e+002  8.2335e+000 69698 71078,71052,71222
 3.3000e+000 71271 -9.7952e+001 -3.1270e+002  2.9918e+001 69698 71366,71078,71222
 3.3000e+000 71320 -4.5303e+001 -2.9047e+002  5.9694e-001 69698 70974,71222,71294
 3.3000e+000 71343 -3.9516e+001 -2.7610e+002 -5.4957e+001 69698 70974,71294,71000
 3.3000e+000 71392 -9.5434e+001 -3.3014e+002  3.2623e+001 69698 70974,71104,71366
 3.3000e+000 71415 -9.8599e+001 -3.2495e+002  3.0517e+001 69698 70974,71366,71222
 3.3000e+000 71516 -6.5354e+001 -4.1646e+002 -7.5211e+001 69386 71438,71490,71464
 3.3000e+000 71869 -6.4581e+001 -3.2680e+002  2.7819e+001 69188 71644,71748,71670
 3.3000e+000 71846  5.6103e+001 -3.0286e+002  8.9158e+001 69188 71644,71774,71748
 3.3000e+000 71823 -1.1438e+001 -1.6976e+002  2.1367e+001 69188 71670,71748,71722
 3.3000e+000 71800 -1.6348e+002 -4.7595e+002 -4.0081e+001 69188 71670,71722,71696
 3.3000e+000 72019 -2.7240e+002 -6.2789e+002 -2.5962e+001 68990 71918,71970,71944
 3.3000e+000 71996 -2.3369e+002 -7.2428e+002  1.5628e+001 68990 71892,71970,71918
 3.3000e+000 72316 -4.3246e+001 -1.8395e+002 -6.4801e+000 68586 72339,72172,72146
 3.3000e+000 72293 -6.0329e+001 -2.2900e+002 -2.7516e+000 68586 72339,72146,72120
 3.3000e+000 72270 -6.5376e+001 -1.9550e+002  1.4216e+001 68586 72411,72068,72198
 3.3000e+000 72247 -3.5362e+001 -1.0052e+002  6.0496e+001 68586 72042,72198,72068
 3.3000e+000 72224 -8.9389e+001 -2.7350e+002  3.7481e+000 68586 72068,72120,72094
 3.3000e+000 72365 -5.7794e+001 -1.7823e+002  1.7545e+001 68586 72198,72172,72339
 3.3000e+000 72388 -6.5714e+001 -1.9687e+002  1.4055e+001 68586 72411,72198,72339
 3.3000e+000 72437 -6.3332e+001 -1.9628e+002  1.6665e+001 68586 72120,72068,72411
 3.3000e+000 72460 -6.4433e+001 -1.9900e+002  1.6158e+001 68586 72120,72411,72339
 3.3000e+000 72864 -1.9064e+001 -2.4426e+002 -8.4984e+000 68388 72642,72694,72668
 3.3000e+000 72841 -6.2934e+001 -3.1618e+002  1.1484e+001 68388 72616,72694,72642
 3.3000e+000 72818 -3.3829e+001 -2.3775e+002  1.3989e+001 68388 72616,72720,72694
 3.3000e+000 72795 -1.0212e+002 -3.7811e+002  4.1170e+001 68388 72590,72720,72616
 3.3000e+000 72772 -7.3750e+000 -2.8451e+002  1.0396e+002 68388 72590,72746,72720
 3.3000e+000 73321 -9.4727e+001 -1.6743e+002  4.9700e+000 68048 73073,73203,73177
 3.3000e+000 73298 -1.1632e+002 -1.7162e+002  1.0444e+001 68048 73047,73203,73073
 3.3000e+000 73275 -4.8117e+001 -2.6265e+002 -1.7213e+001 68048 73125,73177,73151
 3.3000e+000 73252 -7.5683e+001 -2.5233e+002  1.0713e+001 68048 73073,73177,73125
 3.3000e+000 73229 -6.6172e+001 -2.6493e+002  1.5585e+001 68048 73073,73125,73099
 3.3000e+000 73640 -1.4924e+002 -3.5955e+002 -1.7600e+001 67850 73444,73496,73470
 3.3000e+000 73617 -1.0677e+002 -3.5510e+002 -2.5184e+001 67850 73418,73496,73444
 3.3000e+000 73594 -1.1887e+002 -3.6849e+002  5.5845e-001 67850 73392,73496,73418
 3.3000e+000 73571 -1.5132e+002 -3.7943e+002 -1.1261e+001 67850 73392,73522,73496
 3.3000e+000 73548 -2.2590e+002 -4.8603e+002  4.4634e+001 67850 73366,73522,73392
 3.3000e+000 73790 -1.5170e+002 -3.4394e+002 -3.4228e+000 67602 73689,73741,73715
 3.3000e+000 73767 -1.2337e+002 -2.8104e+002  2.6413e+000 67602 73663,73741,73689
 3.3000e+000 74040 -1.4580e+002 -3.5070e+002 -1.9531e+001 67290 73841,73945,73919
 3.3000e+000 74017 -5.2101e+001 -3.2612e+002 -5.1990e+001 67290 73815,73945,73841
 3.3000e+000 73994 -1.1304e+002 -2.5225e+002 -1.6758e+001 67290 73841,73919,73867
 3.3000e+000 73971 -1.1884e+002 -2.7050e+002 -8.1215e+000 67290 73867,73919,73893
 3.3000e+000 74143 -4.8183e+001 -1.6492e+002  7.2731e-001 67092 74065,74117,74091
 3.3000e+000 74415 -9.9304e+001 -4.1226e+002 -5.8485e+001 66894 74190,74294,74216
 3.3000e+000 74392 -1.4256e+001 -3.7408e+002 -3.7873e+001 66894 74190,74320,74294
 3.3000e+000 74369 -3.9706e+001 -2.6300e+002 -4.9698e+001 66894 74216,74294,74242
 3.3000e+000 74346 -9.4035e+001 -3.5895e+002 -2.6163e+001 66894 74242,74294,74268
 3.3000e+000 75023  2.7112e+002 -2.5011e+002 -1.1569e+002 66532 74654,74836,74810
 3.3000e+000 75000 -1.9700e+002 -2.6845e+002 -1.2431e+002 66532 74628,74836,74654
 3.3000e+000 74977 -6.5483e+001 -2.1405e+002 -3.6817e+000 66532 74706,74784,74732
 3.3000e+000 74954 -5.2302e+001 -2.0444e+002  4.1351e+000 66532 74680,74784,74706
 3.3000e+000 74931  6.7751e+001 -1.7960e+002  1.3640e+001 66532 74680,74810,74784
 3.3000e+000 74908 -9.0492e+001 -2.5186e+002 -9.9500e+001 66532 74654,74810,74680
 3.3000e+000 74885 -2.0713e+002 -3.4163e+002 -1.6288e+002 66532 74602,74836,74628
 3.3000e+000 74862 -5.9905e+001 -2.5535e+002 -8.8330e+000 66532 74732,74784,74758
 3.3000e+000 75222 -1.3765e+001 -3.2852e+002 -5.6686e+000 66242 75072,75150,75124
 3.3000e+000 75199 -3.8333e+001 -3.0310e+002  5.7021e-001 66242 75046,75150,75072
 3.3000e+000 75176  1.2442e+000 -2.5453e+002 -7.6461e+000 66242 75072,75124,75098
 3.3000e+000 75470 -7.4816e+001 -1.5922e+002 -2.9817e+001 65838 75297,75375,75349
 3.3000e+000 75447 -3.2899e+001 -1.5830e+002 -1.0993e+001 65838 75271,75375,75297
 3.3000e+000 75424 -2.8883e+001 -1.2732e+002 -1.3228e+001 65838 75297,75349,75323
 3.3000e+000 75401 -5.7614e+001 -1.7622e+002 -2.8224e+001 65838 75245,75375,75271
 3.3000e+000 75671 -6.5512e+001 -2.0243e+002 -6.0500e+001 65640 75495,75573,75521
 3.3000e+000 75648 -3.0562e+001 -1.8909e+002 -5.9104e+001 65640 75495,75599,75573
 3.3000e+000 75625 -7.0613e+001 -2.1769e+002 -6.9665e+001 65640 75521,75573,75547
 3.3000e+000 75872 -8.3320e+001 -1.6334e+002 -5.1021e+001 65300 75895,75748,75722
 3.3000e+000 75849 -3.6887e+001 -2.0474e+002 -7.8173e+001 65300 75895,75722,75696
 3.3000e+000 75826 -8.0953e+001 -1.6110e+002 -9.8878e+001 65300 75967,75774,75748
 3.3000e+000 75921 -7.5126e+001 -1.7429e+002 -6.3048e+001 65300 75967,75748,75895
 3.3000e+000 75944 -9.7752e+001 -3.0210e+002 -4.7356e+001 65300 75800,75895,75696
 3.3000e+000 75993 -1.4355e+002 -1.8188e+002 -8.6014e+001 65300 75800,75774,75967
 3.3000e+000 76016 -1.3986e+002 -1.9848e+002 -5.6814e+001 65300 75800,75967,75895
 3.3000e+000 76371 -1.5854e+002 -2.4774e+002 -1.4313e+001 64896 76146,76250,76172
 3.3000e+000 76348 -1.5378e+002 -2.3724e+002 -1.5438e+001 64896 76146,76276,76250
 3.3000e+000 76325 -1.9515e+002 -2.3926e+002 -5.6481e-002 64896 76172,76250,76198
 3.3000e+000 76302 -5.5409e+001 -1.7297e+002  2.1742e+001 64896 76198,76250,76224
 3.3000e+000 76570 -6.1104e+001 -2.0115e+002 -8.8665e+001 64442 76446,76498,76472
 3.3000e+000 76547 -6.9944e+001 -1.4986e+002 -3.6069e+001 64442 76420,76498,76446
 3.3000e+000 76524 -7.8212e+001 -2.1517e+002 -2.5615e+001 64442 76394,76498,76420
 3.3000e+000 76999 -1.2778e+002 -3.6059e+002  1.7500e+001 63924 77022,76728,76702
 3.3000e+000 76976 -1.4948e+002 -3.0450e+002 -4.3890e+001 63924 77022,76702,76832
 3.3000e+000 76953 -6.9674e+001 -3.7157e+002  6.8098e+001 63924 76728,76806,76754
 3.3000e+000 76930 -1.5793e+002 -2.4602e+002  4.7152e+001 63924 76676,76832,76702
 3.3000e+000 76907 -1.5539e+002 -4.3214e+002  3.9384e+001 63924 76754,76806,76780
 3.3000e+000 76884 -7.5534e+001 -2.6763e+002  2.2173e+001 63924 76676,76858,76832
 3.3000e+000 77048 -1.1392e+002 -4.3740e+002 -4.4788e-001 63924 76806,76728,77022
 3.3000e+000 77071 -1.4654e+002 -3.9495e+002 -6.3981e+001 63924 76806,77022,76832
 3.3000e+000 77449 -7.7125e+001 -2.4359e+002  4.1346e+001 63320 77472,77253,77201
 3.3000e+000 77426 -7.7985e+001 -2.6540e+002  1.9817e+001 63320 77472,77201,77175
 3.3000e+000 77403 -4.4711e+001 -2.5739e+002  2.5160e+000 63320 77175,77305,77279
 3.3000e+000 77380 -2.9007e+001 -1.5757e+002 -2.4532e+001 63320 77201,77253,77227
 3.3000e+000 77357 -2.1329e+000 -2.3130e+002 -2.6290e+001 63320 77175,77331,77305
 3.3000e+000 77498 -8.6106e+001 -2.8485e+002  4.1017e+001 63320 77279,77253,77472
 3.3000e+000 77521 -7.9503e+001 -2.8476e+002  1.4480e+001 63320 77279,77472,77175
 3.3000e+000 77769 -1.2926e+002 -3.1009e+002  3.3152e+001 62816 77570,77622,77596
 3.3000e+000 77746 -1.7754e+002 -3.3505e+002  5.6764e+001 62816 77570,77648,77622
 3.3000e+000 77723 -5.8221e+001 -2.6911e+002  6.0413e+000 62816 77570,77674,77648
 3.3000e+000 77700 -7.0933e+001 -2.7097e+002  6.7168e+000 62816 77544,77674,77570
 3.3000e+000 78149 -9.9982e+001 -2.7298e+002 -4.1031e+000 62354 77953,78031,78005
 3.3000e+000 78126 -1.3506e+002 -3.2239e+002 -1.9964e+001 62354 77901,78031,77953
 3.3000e+000 78103 -6.3951e+001 -2.8782e+002  4.6585e+001 62354 77875,78031,77901
 3.3000e+000 78080 -6.5360e+001 -3.7251e+002 -8.9667e+001 62354 77901,77953,77927
 3.3000e+000 78057 -1.0969e+002 -2.4163e+002 -2.6580e+001 62354 77953,78005,77979
 3.3000e+000 78606 -3.4785e+001 -2.1357e+002  3.9388e+001 61950 78384,78436,78410
 3.3000e+000 78583 -7.3761e+001 -2.7341e+002 -2.6256e+001 61950 78358,78436,78384
 3.3000e+000 78560 -1.0227e+002 -2.3552e+002 -4.6534e+001 61950 78358,78488,78436
 3.3000e+000 78537 -1.2091e+002 -3.6537e+002 -6.8590e+001 61950 78436,78488,78462
 3.3000e+000 78514 -1.1009e+002 -1.9295e+002 -2.3509e+001 61950 78332,78488,78358
 3.3000e+000 78756 -2.0475e+001 -3.0788e+002  2.7750e+000 61339 78779,78655,78629
 3.3000e+000 78733 -3.8221e+001 -3.4970e+002  1.1196e+001 61339 78779,78629,78707
 3.3000e+000 78805 -6.6517e+001 -3.4899e+002  3.7763e+001 61339 78851,78779,78681
 3.3000e+000 78828  1.0636e+001 -3.1385e+002  2.6911e+001 61339 78681,78779,78707
 3.3000e+000 78877 -3.9070e+001 -2.7725e+002  1.2783e+001 61339 78655,78779,78851
 3.3000e+000 79206 -5.2839e+001 -1.2676e+002 -3.8738e+001 60892 79229,79007,78981
 3.3000e+000 79183 -3.6957e+001 -5.1942e+001  1.1552e-001 60892 79229,78981,79111
 3.3000e+000 79160 -5.0571e+001 -1.6255e+002 -4.4182e+001 60892 79301,79033,79007
 3.3000e+000 79137 -4.2176e+001 -9.9471e+001  6.0335e+001 60892 79033,79085,79059
 3.3000e+000 79255 -6.1805e+001 -1.3494e+002 -6.5774e+001 60892 79301,79007,79229
 3.3000e+000 79278 -5.4561e+001 -1.1304e+002 -4.5177e+001 60892 79085,79229,79111
 3.3000e+000 79327 -9.3561e+001 -2.4026e+002 -9.8226e+000 60892 79085,79033,79301
 3.3000e+000 79350 -5.3087e+001 -1.8278e+002 -4.6549e+001 60892 79085,79301,79229
 3.3000e+000 79647 -1.7788e+002 -3.8245e+002 -2.9629e+001 60488 79451,79529,79503
 3.3000e+000 79624 -1.5165e+002 -3.3428e+002 -4.6270e+001 60488 79425,79529,79451
 3.3000e+000 79601 -1.3872e+002 -3.4765e+002 -5.1384e+001 60488 79373,79529,79425
 3.3000e+000 79578 -1.3756e+002 -3.4800e+002 -5.0061e+001 60488 79373,79425,79399
 3.3000e+000 79555 -3.5646e+001 -2.9066e+002  1.6693e+001 60488 79451,79503,79477
 3.3000e+000 79870 -6.4056e+001 -1.8274e+002 -9.4614e-001 60026 79720,79798,79772
 3.3000e+000 79847 -1.4021e+001 -1.9746e+002 -9.9541e+000 60026 79694,79798,79720
 3.3000e+000 79824  5.1389e+000 -1.6071e+002 -1.9203e+001 60026 79720,79772,79746
 3.3000e+000 80120 -7.0708e+001 -1.3396e+002 -1.2012e+001 59629 79921,80025,79973
 3.3000e+000 80097 -6.5107e+001 -9.4612e+001  1.1890e+001 59629 79895,80025,79921
 3.3000e+000 80074 -5.4097e+001 -1.0508e+002 -2.8281e+001 59629 79973,80025,79999
 3.3000e+000 80051 -4.8643e+001 -1.2410e+002 -1.7521e+001 59629 79921,79973,79947
 3.3000e+000 80321 -2.5207e+001 -2.1504e+002  2.4913e+000 59125 80344,80171,80145
 3.3000e+000 80298 -3.1334e+001 -2.4908e+002  2.3969e+000 59125 80344,80145,80249
 3.3000e+000 80275 -1.2882e+001 -1.9496e+002  4.0892e+001 59125 80197,80249,80223
 3.3000e+000 80370 -3.6130e+001 -1.9409e+002  2.5256e+001 59125 80197,80171,80344
 3.3000e+000 80393 -4.0940e+001 -2.2521e+002  2.4329e+001 59125 80197,80344,80249
 3.3000e+000 80952 -8.7802e+001 -3.5844e+002  6.7031e+001 58557 80975,80632,80606
 3.3000e+000 80929 -2.5349e+001 -1.5776e+002  5.9031e+000 58557 81119,80975,80606
 3.3000e+000 80906 -1.1892e+002 -3.1550e+002 -3.4566e+001 58557 81047,80684,80632
 3.3000e+000 80883  8.7091e+000 -1.5135e+002 -4.5804e+001 58557 81119,80606,80580
 3.3000e+000 80860 -4.0102e+001 -4.6434e+002  1.5055e+001 58557 81191,80736,80710
 3.3000e+000 80837 -7.5231e+001 -3.7075e+002 -5.3650e+001 58557 80736,80788,80762
 3.3000e+000 80814 -1.1476e+002 -1.9538e+002 -3.3130e+001 58557 80632,80684,80658
 3.3000e+000 81001 -5.4052e+001 -3.6691e+002  5.3813e+000 58557 81047,80632,80975
 3.3000e+000 81024  2.0489e+001 -3.4943e+002  3.7697e+001 58557 81191,80710,80975
 3.3000e+000 81073 -6.0083e+001 -2.5202e+002  4.9874e+000 58557 80710,80684,81047
 3.3000e+000 81096  2.7250e+001 -2.9851e+002  4.3456e+001 58557 80710,81047,80975
 3.3000e+000 81145 -4.5979e+001 -2.1716e+002  2.3972e+001 58557 80788,80975,81119
 3.3000e+000 81168 -3.3029e+001 -2.0935e+002 -2.2557e+001 58557 80788,81119,80580
 3.3000e+000 81217 -7.8971e+001 -3.5122e+002 -2.8219e+001 58557 80788,80736,81191
 3.3000e+000 81240 -6.1769e+001 -3.1117e+002 -2.3061e+001 58557 80788,81191,80975
 3.3000e+000 81537 -5.9015e+000 -1.8122e+002 -1.7141e+000 57881 81560,81341,81289
 3.3000e+000 81514 -5.6176e+001 -2.0313e+002  1.0970e+001 57881 81560,81289,81263
 3.3000e+000 81491 -7.8973e+001 -1.6879e+002 -2.0673e+001 57881 81632,81419,81367
 3.3000e+000 81468 -8.4457e+001 -1.9557e+002 -6.1594e+001 57881 81367,81419,81393
 3.3000e+000 81445 -5.2023e+000 -1.6094e+002 -4.8411e+000 57881 81289,81341,81315
 3.3000e+000 81586 -2.4247e+001 -1.5623e+002 -4.5322e+001 57881 81367,81341,81560
 3.3000e+000 81609 -6.9173e+001 -1.8876e+002 -3.1104e+001 57881 81632,81367,81560
 3.3000e+000 81658 -5.5801e+001 -1.4690e+002 -1.0450e+001 57881 81263,81419,81632
 3.3000e+000 81681 -4.2470e+001 -1.6800e+002 -2.1793e+001 57881 81263,81632,81560
 3.3000e+000 81929 -9.2166e+001 -2.0351e+002  1.2767e+001 57477 81704,81808,81782
 3.3000e+000 81906 -4.5731e+001 -2.4314e+002  2.9030e+001 57477 81704,81834,81808
 3.3000e+000 81883 -9.1066e+001 -2.0264e+002  1.1798e+001 57477 81704,81782,81730
 3.3000e+000 81860 -4.8015e+001 -2.0235e+002  8.5430e+000 57477 81730,81782,81756
 3.3000e+000 82488 -4.7996e+001 -3.7789e+002  1.9540e+001 56966 82583,82511,82194
 3.3000e+000 82465 -6.3175e+001 -3.1465e+002  2.4709e+001 56966 82511,82116,82324
 3.3000e+000 82442 -8.2397e+001 -4.2566e+002  3.7079e+001 56966 82583,82194,82168
 3.3000e+000 82419 -7.6181e+000 -3.3574e+002  5.0240e+001 56966 82194,82246,82220
 3.3000e+000 82396 -8.5156e+001 -3.9774e+002 -2.2758e+001 56966 82194,82298,82246
 3.3000e+000 82373 -6.1873e+001 -3.9540e+002 -4.4987e+001 56966 82246,82298,82272
 3.3000e+000 82350 -1.0742e+002 -4.4009e+002 -1.3828e+001 56966 82116,82168,82142
 3.3000e+000 82537 -2.4632e+001 -3.3124e+002  1.1729e+001 56966 82298,82194,82511
 3.3000e+000 82560 -2.2025e+001 -2.5877e+002  5.4822e+001 56966 82298,82511,82324
 3.3000e+000 82609 -9.1868e+001 -3.2033e+002  1.8031e+000 56966 82116,82511,82583
 3.3000e+000 82632 -1.0423e+002 -3.4970e+002  1.1230e+001 56966 82116,82583,82168
 3.3000e+000 83236 -3.5235e+001 -2.4947e+002 -5.0840e+001 56304 82893,82945,82919
 3.3000e+000 83213 -7.8913e+001 -3.1435e+002  2.3387e+001 56304 83259,82945,82893
 3.3000e+000 83190 -6.4496e+001 -3.1964e+002  1.9814e+001 56304 83259,82893,83049
 3.3000e+000 83167 -8.9937e+001 -3.4444e+002  4.0949e+001 56304 82971,83049,83023
 3.3000e+000 83144 -9.7114e+001 -3.8188e+002  6.4748e+000 56304 82815,83049,82893
 3.3000e+000 83121 -1.1699e+002 -4.7068e+002  4.5613e+000 56304 82815,82893,82867
 3.3000e+000 83098 -8.7133e+001 -4.0715e+002  3.3283e+001 56304 82971,83023,82997
 3.3000e+000 83075 -1.7589e+002 -4.7238e+002 -4.7422e+001 56304 82815,82867,82841
 3.3000e+000 83285 -9.7810e+001 -3.2323e+002  3.5728e+001 56304 82971,82945,83259
 3.3000e+000 83308 -7.6732e+001 -3.1763e+002  2.8414e+001 56304 82971,83259,83049
 3.3000e+000 83556 -1.4115e+002 -3.3813e+002 -2.3684e+001 55964 83357,83461,83435
 3.3000e+000 83533 -1.1965e+002 -2.5626e+002  1.5562e+001 55964 83331,83461,83357
 3.3000e+000 83510 -5.8890e+001 -3.8940e+002  4.7711e+001 55964 83357,83435,83383
 3.3000e+000 83487 -7.5936e+001 -4.6828e+002  1.3209e+001 55964 83383,83435,83409
 3.3000e+000 83706 -4.1246e+001 -2.9263e+002  8.9019e+000 55503 83579,83631,83605
 3.3000e+000 83683 -9.0278e+001 -3.1774e+002  2.2764e+001 55503 83579,83657,83631
 3.3000e+000 83907 -4.7920e+001 -2.3989e+002  2.6399e+001 55156 83757,83835,83809
 3.3000e+000 83884 -3.3804e+001 -1.8363e+002  7.0746e+001 55156 83731,83835,83757
 3.3000e+000 83861 -6.3929e+001 -1.6801e+002  4.2787e+001 55156 83757,83809,83783
 3.3000e+000 84240 -5.3924e+001 -2.7262e+002  1.9396e+001 54652 84093,84145,84119
 3.3000e+000 84217 -3.1333e+001 -1.8589e+002  1.0952e+001 54652 84041,84145,84093
 3.3000e+000 84194 -2.9370e+001 -2.6492e+002  4.6272e+001 54652 84015,84145,84041
 3.3000e+000 84171 -4.5976e+000 -1.7334e+002  1.6144e+001 54652 84041,84093,84067
 3.3000e+000 84618 -9.4099e+001 -2.6990e+002  2.2472e+001 53926 84396,84500,84474
 3.3000e+000 84595 -1.4878e+002 -3.7565e+002 -7.8305e-003 53926 84344,84500,84396
 3.3000e+000 84572 -1.0376e+002 -2.6657e+002  6.2202e-002 53926 84344,84396,84370
 3.3000e+000 84549 -1.0157e+002 -2.7192e+002  1.9413e+001 53926 84396,84474,84422
 3.3000e+000 84526 -1.4731e+002 -2.4173e+002  1.2789e+001 53926 84422,84474,84448
 3.3000e+000 85350 -1.4053e+002 -3.6390e+002 -4.8451e+001 53586 85373,84880,85088
 3.3000e+000 85327 -1.4459e+002 -4.0308e+002 -3.0404e+001 53586 84880,85114,85088
 3.3000e+000 85304 -1.3431e+002 -3.2400e+002  4.4124e+001 53586 85373,85088,85062
 3.3000e+000 85281 -1.1916e+002 -1.9189e+002 -6.1739e+001 53586 85010,85062,85036
 3.3000e+000 85258 -9.3600e+001 -2.4245e+002 -2.1228e+001 53586 85445,85010,84958
 3.3000e+000 85235 -3.9871e+001 -2.0113e+002  2.1416e+001 53586 85445,84958,84906
 3.3000e+000 85212 -4.6730e+001 -2.2294e+002 -3.8529e+001 53586 84958,85010,84984
 3.3000e+000 85189 -5.5940e+001 -3.8595e+002  3.3264e+001 53586 84906,84958,84932
 3.3000e+000 85166 -9.6517e+001 -2.6608e+002 -1.0700e+002 53586 84880,85140,85114
 3.3000e+000 85399 -9.9474e+001 -2.3027e+002 -1.7230e+001 53586 84906,84880,85373
 3.3000e+000 85422 -9.8614e+001 -2.3014e+002  4.2242e+001 53586 85517,85373,85062
 3.3000e+000 85471 -4.4503e+001 -1.2843e+002 -3.3301e+001 53586 85062,85010,85445
 3.3000e+000 85494 -8.9165e+001 -1.8190e+002  3.2726e+001 53586 85517,85062,85445
 3.3000e+000 85543 -7.6659e+001 -3.0563e+002  4.1809e+001 53586 84906,85373,85517
 3.3000e+000 85566 -7.6380e+001 -2.6672e+002  3.9140e+001 53586 84906,85517,85445
 3.3000e+000 86072 -3.4839e+001 -2.8653e+002  9.5819e+000 53182 86095,85853,85775
 3.3000e+000 86049 -6.7559e+001 -2.1905e+002  2.3267e+001 53182 86095,85775,85931
 3.3000e+000 86026 -4.6388e+001 -2.7590e+002  1.0482e+002 53182 86167,85879,85853
 3.3000e+000 86003 -1.7541e+001 -3.0932e+002 -4.2273e+001 53182 85775,85827,85801
 3.3000e+000 85980 -9.8010e+001 -3.5903e+002 -6.4588e+001 53182 85775,85853,85827
 3.3000e+000 85957 -6.9018e+001 -2.1903e+002  2.1293e+001 53182 85749,85931,85775
 3.3000e+000 86121 -2.5755e+001 -2.3435e+002  3.3190e+001 53182 86167,85853,86095
 3.3000e+000 86144 -1.3830e+002 -2.9385e+002 -5.7665e+000 53182 85905,86095,85931
 3.3000e+000 86193 -6.2996e+001 -3.1665e+002  1.0567e+002 53182 85905,85879,86167
 3.3000e+000 86216 -8.3592e+001 -3.7080e+002  3.2187e+001 53182 85905,86167,86095
 3.3000e+000 86673 -4.8876e+001 -2.3903e+002 -6.4814e+001 52778 86477,86529,86503
 3.3000e+000 86650 -9.0941e+001 -2.6943e+002 -2.4601e+001 52778 86425,86529,86477
 3.3000e+000 86627 -3.6449e+001 -2.4178e+002 -3.4409e+001 52778 86425,86477,86451
 3.3000e+000 86604 -1.3267e+002 -1.9718e+002 -2.0089e+001 52778 86399,86529,86425
 3.3000e+000 86581 -1.9870e+002 -2.5144e+002  3.1764e+001 52778 86399,86555,86529
 3.3000e+000 87258 -8.0981e+001 -5.1592e+002 -8.9310e+001 52238 87281,86987,86961
 3.3000e+000 87235 -3.9921e+001 -3.9568e+002  3.3716e+001 52238 87281,86961,87117
 3.3000e+000 87212 -5.6214e+001 -2.0548e+002  2.0354e+001 52238 86935,87117,86961
 3.3000e+000 87189  8.2941e+000 -2.2972e+002  3.8646e+001 52238 87065,87117,87091
 3.3000e+000 87166 -6.2128e+001 -2.0561e+002 -4.5658e+001 52238 86987,87065,87039
 3.3000e+000 87143 -1.5063e+002 -1.3413e+002 -1.2100e+002 52238 86987,87039,87013
 3.3000e+000 87307  1.1725e+001 -2.9839e+002 -6.6824e+001 52238 87065,86987,87281
 3.3000e+000 87330 -1.2336e+001 -3.2405e+002  5.6490e+001 52238 87065,87281,87117
 3.3000e+000 87610 -4.5199e+001 -2.1885e+002 -7.6808e-001 51834 87434,87512,87460
 3.3000e+000 87587 -4.6022e+001 -2.0648e+002  2.9003e+001 51834 87434,87538,87512
 3.3000e+000 87564 -3.0708e+001 -6.8430e+001  9.3274e+000 51834 87633,87460,87512
 3.3000e+000 87659 -3.6074e+000 -5.6822e+001  1.0502e+001 51834 87486,87460,87633
 3.3000e+000 88187 -9.1996e+001 -3.8923e+002 -3.2112e+001 51266 87864,87942,87890
 3.3000e+000 88164 -2.1619e+001 -2.3371e+002 -5.0057e+000 51266 87864,88020,87942
 3.3000e+000 88141 -4.3016e+001 -2.3809e+002  2.8709e+000 51266 87942,88020,87968
 3.3000e+000 88118 -5.9717e+001 -4.0834e+002 -1.7405e+001 51266 87864,88046,88020
 3.3000e+000 88095 -2.5427e+001 -2.1043e+002  1.0823e+001 51266 87968,88020,87994
 3.3000e+000 88072 -2.9256e+001 -3.6263e+002 -7.5823e+001 51266 87890,87942,87916
 3.3000e+000 88644 -1.5682e+002 -1.8779e+002 -1.7524e+001 50754 88370,88500,88396
 3.3000e+000 88621 -1.6134e+002 -3.0890e+002  1.0143e+001 50754 88370,88526,88500
 3.3000e+000 88598 -1.2899e+002 -2.8704e+002 -1.8295e+002 50754 88396,88500,88422
 3.3000e+000 88575 -1.5493e+002 -4.4559e+002 -1.5168e+002 50754 88422,88500,88474
 3.3000e+000 88552 -1.1550e+002 -3.1772e+002  1.1717e+002 50754 88422,88474,88448
 3.3000e+000 88914 -3.2276e+001 -2.0776e+002  9.7361e+000 50442 88715,88793,88741
 3.3000e+000 88891 -1.8081e+001 -2.4303e+002  1.3091e+001 50442 88715,88819,88793
 3.3000e+000 88868  6.5695e-001 -2.6155e+002  5.2567e+000 50442 88689,88819,88715
 3.3000e+000 88845 -5.1497e+001 -1.9979e+002  4.3960e+001 50442 88741,88793,88767
 3.3000e+000 89294 -2.4153e+001 -2.8425e+002  8.6693e+000 49938 89317,89046,89020
 3.3000e+000 89271 -2.1414e+001 -2.9115e+002  6.8945e+000 49938 89317,89020,89150
 3.3000e+000 89248 -1.0506e+002 -2.9442e+002 -1.0029e+001 49938 89072,89150,89098
 3.3000e+000 89225 -4.0875e+001 -3.3874e+002  5.6242e+001 49938 89020,89176,89150
 3.3000e+000 89202 -8.5120e+001 -2.5335e+002 -1.7255e+001 49938 89098,89150,89124
 3.3000e+000 89343 -2.0357e+000 -2.2201e+002  1.6901e+001 49938 89072,89046,89317
 3.3000e+000 89366 -2.9234e+001 -2.8396e+002  1.2544e+001 49938 89072,89317,89150
 3.3000e+000 89823 -1.2269e+001 -1.3150e+002  4.6502e+000 49384 89601,89705,89679
 3.3000e+000 89800 -2.8774e+001 -1.1670e+002 -2.2417e+001 49384 89549,89705,89601
 3.3000e+000 89777 -1.2955e+001 -1.9353e+002 -1.9458e+001 49384 89549,89601,89575
 3.3000e+000 89754 -8.2924e+001 -1.0437e+002  1.3539e+001 49384 89601,89679,89627
 3.3000e+000 89731 -9.7235e+001 -1.2292e+002  2.9888e+001 49384 89627,89679,89653
 3.3000e+000 90329 -9.0757e+000 -1.9686e+002 -1.8137e+001 48894 90058,90110,90084
 3.3000e+000 90306 -5.9778e+001 -2.2022e+002 -5.6281e+001 48894 90058,90162,90110
 3.3000e+000 90283 -8.6185e+001 -2.5738e+002 -6.8140e+001 48894 90032,90162,90058
 3.3000e+000 90260 -7.7105e+001 -2.6271e+002 -4.2623e+001 48894 90006,90162,90032
 3.3000e+000 90237 -7.4825e+001 -3.5334e+002 -6.0871e+001 48894 90110,90162,90136
 3.3000e+000 90214 -4.6420e+001 -2.5496e+002 -3.6593e+001 48894 90006,90188,90162
 3.3000e+000 90884 -1.4150e+001 -2.1913e+002 -1.9558e+001 48490 90564,90642,90616
 3.3000e+000 90861 -6.3815e+001 -2.2231e+002 -2.1942e+001 48490 90564,90694,90642
 3.3000e+000 90838 -1.7427e+001 -1.9723e+002 -1.1703e+001 48490 90538,90694,90564
 3.3000e+000 90815 -2.9451e+001 -2.0054e+002 -1.0846e+001 48490 90538,90720,90694
 3.3000e+000 90792  4.9151e+000 -1.5402e+002 -2.9912e+000 48490 90564,90616,90590
 3.3000e+000 90769 -7.9409e+001 -3.2353e+002 -9.6729e+001 48490 90642,90694,90668
 3.3000e+000 90746 -7.3200e+000 -1.6561e+002  3.5161e+001 48490 90512,90720,90538
 3.3000e+000 91034 -1.0550e+001 -1.8316e+002  3.8420e+001 48086 91057,90959,90933
 3.3000e+000 91011 -3.5464e+000 -1.5426e+002  3.3227e+001 48086 91129,91057,90933
 3.3000e+000 91083  3.5299e+000 -1.6901e+002  3.0951e+001 48086 90985,90959,91057
 3.3000e+000 91106 -1.4966e+001 -1.5405e+002  2.2066e+001 48086 90985,91057,90907
 3.3000e+000 91155 -3.9472e+001 -1.7032e+002  2.9379e+001 48086 90907,91057,91129
 3.3000e+000 91791 -4.3276e+001 -1.8245e+002  1.0357e+002 47518 92030,91814,91523
 3.3000e+000 91768 -6.5809e+001 -2.3046e+002  4.9116e+001 47518 91958,91814,91471
 3.3000e+000 91745 -7.9418e+001 -3.2705e+002  3.7167e+001 47518 91886,91575,91523
 3.3000e+000 91722 -5.5823e+001 -1.5254e+002  2.7827e+000 47518 91958,91471,91419
 3.3000e+000 91699 -4.5334e+001 -2.0892e+002  1.1650e+002 47518 92030,91523,91497
 3.3000e+000 91676 -1.2156e+002 -2.8532e+002  3.5385e+001 47518 91523,91575,91549
 3.3000e+000 91653 -5.9440e+001 -1.0142e+002  2.5943e+000 47518 91419,91471,91445
 3.3000e+000 91840 -4.4409e+001 -2.6572e+002  1.0109e+002 47518 91886,91523,91814
 3.3000e+000 91863 -3.4574e+001 -1.7614e+002  4.0206e+001 47518 91601,91814,91627
 3.3000e+000 91912 -1.5082e+002 -3.6612e+002 -5.4507e+001 47518 91601,91575,91886
 3.3000e+000 91935 -1.2651e+002 -2.3449e+002  1.1185e+001 47518 91601,91886,91814
 3.3000e+000 91984 -1.0417e+001 -1.6373e+002  1.8730e+001 47518 91627,91814,91958
 3.3000e+000 92007 -3.6049e+001 -1.2134e+002 -2.0493e+001 47518 91627,91958,91419
 3.3000e+000 92056 -3.4682e+001 -1.6018e+002  9.8326e+001 47518 91471,91814,92030
 3.3000e+000 92079 -3.0008e+001 -1.7562e+002  1.1046e+002 47518 91471,92030,91497
 3.3000e+000 92229  4.8303e-001 -4.2708e+000  2.7815e+000 47128 92252,92128,92102
 3.3000e+000 92206  3.0529e+000 -7.2962e+000 -5.1520e-001 47128 92324,92252,92102
 3.3000e+000 92278  1.9722e+000  7.2691e+000  7.2223e+000 47128 92454,92252,92154
 3.3000e+000 92301 -1.1192e+000 -1.0525e+001  5.0512e+000 47128 92154,92252,92180
 3.3000e+000 92350 -6.2013e+000 -1.3592e+001 -3.6831e+000 47128 92180,92252,92324
 3.3000e+000 92480  3.0646e+000 -2.2936e+000  5.7989e+000 47128 92128,92252,92454
 3.3000e+000 93340 -8.3054e+001 -2.5567e+002 -2.5049e+001 46838 93363,92977,92873
 3.3000e+000 93317 -7.4538e+001 -2.5417e+002 -1.4414e+001 46838 93507,93363,92873
 3.3000e+000 93294 -3.3472e+001 -2.3569e+002  5.6142e+000 46838 93435,93003,92977
 3.3000e+000 93271 -1.4244e+002 -2.6449e+002 -1.6109e+001 46838 93507,92873,92847
 3.3000e+000 93248 -1.9810e+001 -2.3622e+002 -1.2439e+001 46838 93579,93029,93003
 3.3000e+000 93225 -1.1644e+002 -4.2621e+002  7.3596e+001 46838 92873,92951,92925
 3.3000e+000 93202 -1.3632e+002 -3.0711e+002 -1.4753e+000 46838 92873,92977,92951
 3.3000e+000 93179 -1.3066e+001 -2.4020e+002  9.2140e+000 46838 93055,93107,93081
 3.3000e+000 93156 -2.5444e+001 -1.5059e+002  4.5435e+001 46838 92821,93107,92847
 3.3000e+000 93133 -8.9254e+001 -2.7783e+002  5.3891e+001 46838 92873,92925,92899
 3.3000e+000 93389 -5.3702e+001 -2.4365e+002  2.4094e+000 46838 93435,92977,93363
 3.3000e+000 93412  9.0143e-001 -2.5774e+002  7.6690e+000 46838 93055,93363,93107
 3.3000e+000 93461 -2.2925e+001 -2.4617e+002 -1.2058e+001 46838 93579,93003,93435
 3.3000e+000 93484 -3.1347e+001 -2.7300e+002 -2.9461e+000 46838 93055,93435,93363
 3.3000e+000 93533 -2.3713e+001 -2.6612e+002 -2.7476e+001 46838 93107,93363,93507
 3.3000e+000 93556 -4.7381e+001 -2.4430e+002 -2.7631e+001 46838 93107,93507,92847
 3.3000e+000 93605 -1.8704e+001 -2.4180e+002  3.3107e+000 46838 93055,93029,93579
 3.3000e+000 93628 -2.0785e+001 -2.4978e+002  3.7864e+000 46838 93055,93579,93435
 3.3000e+000 93979 -6.2884e+001 -2.2117e+002 -5.9549e-001 46476 93780,93884,93858
 3.3000e+000 93956 -6.0809e+001 -2.3810e+002  3.0563e+000 46476 93754,93884,93780
 3.3000e+000 93933 -2.0397e+001 -1.7094e+002 -3.0422e+000 46476 93806,93858,93832
 3.3000e+000 93910 -3.4679e+001 -2.0762e+002 -4.9878e+000 46476 93780,93858,93806
 3.3000e+000 94515 -2.0213e+000 -1.4423e+002 -8.1092e+000 46072 94345,94397,94371
 3.3000e+000 94492 -1.1573e+002 -2.0049e+002  3.6649e+001 46072 94267,94397,94345
 3.3000e+000 94469 -8.4807e+001 -2.2685e+002  1.5377e+001 46072 94241,94397,94267
 3.3000e+000 94446 -6.0719e+001 -9.5629e+001  2.8671e+001 46072 94293,94345,94319
 3.3000e+000 94423 -9.4815e+001 -1.3653e+002  4.6043e+001 46072 94267,94345,94293
 3.3000e+000 95149 -1.1370e+002 -3.3899e+002  7.5227e+000 45346 94803,94881,94855
 3.3000e+000 95126 -9.5003e+001 -2.8676e+002 -1.9159e+001 45346 94803,94959,94881
 3.3000e+000 95103 -4.8753e+001 -2.9994e+002 -6.8396e+001 45346 95172,94933,94907
 3.3000e+000 95080 -1.1038e+002 -5.4109e+002 -4.3275e+001 45346 95172,94907,94881
 3.3000e+000 95057 -1.3058e+002 -2.6916e+002 -9.0551e+000 45346 94803,94985,94959
 3.3000e+000 95034 -9.6773e+001 -3.8664e+002 -1.0664e+001 45346 94803,94855,94829
 3.3000e+000 95011 -1.3889e+002 -2.7823e+002  1.3509e+001 45346 94777,94985,94803
 3.3000e+000 95198 -1.2383e+002 -1.8648e+002 -4.2961e+001 45346 94959,94933,95172
 3.3000e+000 95221 -1.0596e+002 -3.1926e+002 -3.7794e+001 45346 94959,95172,94881
 3.3000e+000 95776 -6.6654e+001 -3.4561e+002 -1.3142e+001 44720 95799,95560,95534
 3.3000e+000 95753 -2.9639e+001 -2.1037e+002 -4.3048e+001 44720 95799,95534,95482
 3.3000e+000 95730 -1.4940e+001 -3.7603e+002 -4.3714e+001 44720 95943,95871,95430
 3.3000e+000 95707 -3.0925e+001 -2.9100e+002 -2.4889e+001 44720 95943,95430,95404
 3.3000e+000 95684 -1.5533e+002 -2.5263e+002 -1.0344e+002 44720 95430,95482,95456
 3.3000e+000 95661 -7.1476e+001 -1.8978e+002  4.9717e+001 44720 95482,95534,95508
 3.3000e+000 95638 -1.5518e+001 -1.7374e+002 -5.2853e+001 44720 95404,95612,95586
 3.3000e+000 95825 -3.0546e+001 -4.7471e+002 -6.6211e+001 44720 95586,95560,95799
 3.3000e+000 95848  1.1081e+001 -3.4181e+002 -4.6289e+001 44720 95871,95586,95799
 3.3000e+000 95897 -2.0015e+001 -3.9157e+002 -6.9827e+001 44720 95482,95430,95871
 3.3000e+000 95920 -1.6285e+001 -3.5916e+002 -3.4821e+001 44720 95482,95871,95799
 3.3000e+000 95969  1.2290e+001 -2.5974e+002 -5.1618e+001 44720 95586,95871,95943
 3.3000e+000 95992 -2.0182e+001 -2.0692e+002 -1.7352e+001 44720 95586,95943,95404
 3.3000e+000 96449 -6.8908e+001 -3.2119e+002  2.5434e-001 44202 96544,96472,96227
 3.3000e+000 96426 -7.4295e+001 -3.2817e+002  4.8117e+001 44202 96472,96175,96331
 3.3000e+000 96403 -5.9183e+001 -3.3118e+002  2.4506e+000 44202 96544,96227,96201
 3.3000e+000 96380 -9.2282e+001 -3.8941e+002 -6.2489e+001 44202 96253,96305,96279
 3.3000e+000 96357 -1.2677e+002 -3.0368e+002 -3.1800e+001 44202 96227,96305,96253
 3.3000e+000 96498 -5.8800e+001 -2.9026e+002  1.7176e+000 44202 96305,96227,96472
 3.3000e+000 96521 -4.3554e+001 -2.5959e+002  5.4781e+001 44202 96305,96472,96331
 3.3000e+000 96570 -6.2617e+001 -3.0211e+002  5.0421e+000 44202 96175,96472,96544
 3.3000e+000 96593 -5.8855e+001 -3.1946e+002  6.1369e+000 44202 96175,96544,96201
 3.3000e+000 96971 -3.6231e+001 -2.1154e+002 -4.8981e+001 43754 96994,96749,96697
 3.3000e+000 96948 -4.1261e+000 -2.4158e+002 -2.4854e+001 43754 96994,96697,96853
 3.3000e+000 96925 -7.9280e+001 -1.8743e+002 -2.4121e+001 43754 96697,96749,96723
 3.3000e+000 96902 -3.3815e+001 -2.6335e+002  1.7337e+001 43754 96775,96853,96827
 3.3000e+000 96879 -1.6164e+000 -3.2526e+002  4.6393e+000 43754 96775,96827,96801
 3.3000e+000 97020 -1.2474e+001 -1.6490e+002 -3.8465e+001 43754 96775,96749,96994
 3.3000e+000 97043  1.2903e+001 -2.1404e+002 -1.7043e+001 43754 96775,96994,96853
 3.3000e+000 97291 -5.5840e+001 -2.9485e+002 -4.8125e+001 43364 97314,97144,97118
 3.3000e+000 97268 -5.1214e+001 -2.4375e+002 -2.5714e+001 43364 97314,97118,97092
 3.3000e+000 97245 -4.1380e+001 -2.2742e+002  1.2161e+001 43364 97386,97196,97170
 3.3000e+000 97222 -6.5008e+001 -1.8744e+002  3.9185e+001 43364 97066,97196,97092
 3.3000e+000 97340 -3.6395e+001 -2.0803e+002 -5.9744e+001 43364 97170,97144,97314
 3.3000e+000 97363 -4.8993e+001 -1.9665e+002 -1.1729e+001 43364 97386,97170,97314
 3.3000e+000 97412 -5.6778e+001 -2.6266e+002  8.0432e+000 43364 97092,97196,97386
 3.3000e+000 97435 -7.6116e+001 -2.5526e+002 -1.9392e+001 43364 97092,97386,97314
 3.3000e+000 97788 -1.6878e+001 -1.6810e+002  1.6649e+001 42960 97563,97667,97589
 3.3000e+000 97765 -5.2715e+001 -1.5515e+002  1.6969e+001 42960 97563,97693,97667
 3.3000e+000 97742  4.7539e+000 -3.4352e+001  6.7513e+000 42960 97589,97641,97615
 3.3000e+000 97719 -1.3801e+001 -1.8327e+002  6.4021e+000 42960 97589,97667,97641
 3.3000e+000 98215 -5.3412e+000 -1.8796e+002 -6.3937e+000 42563 97918,98074,98048
 3.3000e+000 98192 -4.8912e+001 -1.3914e+002  4.4169e+001 42563 97892,98074,97918
 3.3000e+000 98169 -5.4372e+001 -3.2679e+002  1.9029e+001 42563 98238,97944,97918
 3.3000e+000 98146 -4.5734e+001 -3.0390e+002  3.4300e+001 42563 98238,97918,98048
 3.3000e+000 98123 -6.0859e+001 -2.0395e+002  7.5208e+000 42563 97944,98022,97996
 3.3000e+000 98100 -1.0462e+002 -2.8136e+002  4.4108e+001 42563 97944,97996,97970
 3.3000e+000 98264 -6.8999e+001 -3.1860e+002  7.2660e+000 42563 98022,97944,98238
 3.3000e+000 98287 -6.4195e+001 -3.1129e+002  2.0608e+001 42563 98022,98238,98048
 3.3000e+000 98616 -5.9047e+001 -1.7942e+002 -1.6790e+001 42251 98443,98521,98469
 3.3000e+000 98593 -6.2588e+001 -1.8695e+002 -1.5532e+001 42251 98417,98521,98443
 3.3000e+000 98570 -7.6137e+001 -2.2131e+002 -3.1987e+001 42251 98391,98521,98417
 3.3000e+000 98547  3.9875e+000 -1.4742e+002 -2.8888e+001 42251 98469,98521,98495
 3.3000e+000 98886 -1.6588e+001 -2.8157e+002  1.8010e+001 41847 98661,98765,98687
 3.3000e+000 98863 -3.4482e+001 -1.5303e+002 -7.3508e+001 41847 98661,98791,98765
 3.3000e+000 98840 -5.1136e+001 -2.0397e+002  3.9941e+000 41847 98687,98765,98739
 3.3000e+000 98817 -1.8615e+001 -1.7556e+002 -1.9157e+001 41847 98687,98739,98713
 3.3000e+000 99394 -3.8856e+001 -2.0410e+002 -1.9898e+001 41236 99417,99149,99123
 3.3000e+000 99371 -1.3508e+002 -2.2519e+002 -1.2578e+001 41236 99417,99123,99097
 3.3000e+000 99348 -1.0157e+002 -1.5906e+002 -7.7832e+001 41236 99489,99201,99149
 3.3000e+000 99325 -1.7890e+001 -1.0143e+002 -3.6980e+001 41236 99149,99201,99175
 3.3000e+000 99302 -4.6160e+001 -2.8428e+002 -3.0292e+000 41236 99097,99253,99227
 3.3000e+000 99279 -1.6584e+002 -3.8164e+002 -4.8546e+001 41236 99071,99253,99097
 3.3000e+000 99443 -5.5195e+001 -1.8253e+002 -7.2638e+001 41236 99489,99149,99417
 3.3000e+000 99466 -9.9280e+001 -2.2046e+002 -4.7671e+001 41236 99227,99417,99097
 3.3000e+000 99515 -1.2361e+002 -1.8251e+002 -6.5893e+001 41236 99227,99201,99489
 3.3000e+000 99538 -1.0553e+002 -2.2831e+002 -5.1778e+001 41236 99227,99489,99417
 3.3000e+000 100044  1.7773e+001 -6.1955e+002 -2.5587e+000 40732 99721,99773,99747
 3.3000e+000 100021 -4.2766e+001 -4.5196e+002 -3.7564e+001 40732 99721,99799,99773
 3.3000e+000 99998 -5.6997e+001 -3.0121e+002 -2.2562e+001 40732 99721,99903,99799
 3.3000e+000 99975 -5.6098e+001 -2.5834e+002 -1.6740e+001 40732 100067,99877,99851
 3.3000e+000 99952 -6.1438e+001 -2.1568e+002 -8.5880e+000 40732 100067,99851,99799
 3.3000e+000 99929 -4.7318e+001 -2.0000e+002 -2.1996e+001 40732 99799,99851,99825
 3.3000e+000 100093 -5.5387e+001 -2.9275e+002 -3.2178e+001 40732 99903,99877,100067
 3.3000e+000 100116 -5.7143e+001 -2.4097e+002 -2.7212e+001 40732 99903,100067,99799
 3.3000e+000 100622 -1.8640e+001 -2.5253e+002 -2.2246e+001 40278 100645,100455,100429
 3.3000e+000 100599 -9.1577e+001 -1.9673e+002 -3.9484e+001 40278 100717,100645,100429
 3.3000e+000 100576 -9.3290e+001 -1.9728e+002  1.5776e+001 40278 100717,100429,100377
 3.3000e+000 100553 -6.0998e+001 -3.5968e+002 -1.0290e+001 40278 100789,100325,100481
 3.3000e+000 100530 -1.0401e+002 -2.1303e+002  3.8385e+001 40278 100299,100481,100325
 3.3000e+000 100507 -1.0554e+002 -2.5790e+002 -1.2940e+001 40278 100377,100429,100403
 3.3000e+000 100671 -3.5299e+001 -2.8464e+002 -3.3970e+001 40278 100481,100455,100645
 3.3000e+000 100694 -5.4828e+001 -3.0270e+002 -1.7868e+001 40278 100789,100481,100645
 3.3000e+000 100743 -5.9759e+001 -1.0779e+002 -6.2670e+001 40278 100351,100645,100717
 3.3000e+000 100766 -8.5721e+001 -1.2931e+002 -2.7610e+000 40278 100351,100717,100377
 3.3000e+000 100815 -9.1980e+001 -3.6664e+002 -1.1081e+002 40278 100351,100325,100789
 3.3000e+000 100838 -4.7114e+001 -2.3513e+002 -1.1273e+002 40278 100351,100789,100645
 3.3000e+000 101265 -2.5413e+001 -2.7982e+002  2.6162e+001 39824 101288,101046,100994
 3.3000e+000 101242 -4.2479e+001 -2.4788e+002  1.3715e+001 39824 101288,100994,100968
 3.3000e+000 101219 -4.3377e+001 -2.4796e+002 -5.2735e+000 39824 100942,101124,100968
 3.3000e+000 101196 -9.1973e+001 -4.6571e+002  2.6516e+001 39824 101046,101124,101072
 3.3000e+000 101173 -1.2666e+001 -2.5846e+002  5.4560e+001 39824 100994,101046,101020
 3.3000e+000 101150 -1.1827e+002 -3.4377e+002 -3.1980e+001 39824 101072,101124,101098
 3.3000e+000 101314 -1.0814e+001 -2.5923e+002  1.4591e+001 39824 101124,101046,101288
 3.3000e+000 101337 -2.5611e+001 -2.3628e+002 -2.1948e-001 39824 101124,101288,100968
 3.3000e+000 101585 -8.1866e+000 -1.9162e+002 -3.9210e+001 39070 101608,101464,101412
 3.3000e+000 101562  5.6679e+001 -2.1536e+002  1.4145e+001 39070 101608,101412,101360
 3.3000e+000 101539 -1.3299e+001 -1.5923e+002 -1.0927e+001 39070 101412,101464,101438
 3.3000e+000 101516  2.0001e+001 -1.7656e+002  3.8753e+001 39070 101360,101412,101386
 3.3000e+000 101634 -5.6200e+001 -2.0820e+002 -4.2266e+001 39070 101490,101464,101608
 3.3000e+000 101657 -1.3142e+001 -2.4134e+002  1.7447e+001 39070 101490,101608,101360
 3.3000e+000 101856 -3.0804e+001 -1.7437e+002 -4.5119e+000 38730 101706,101758,101732
 3.3000e+000 101833 -1.7938e+001 -1.9372e+002  1.6362e+000 38730 101706,101784,101758
 3.3000e+000 101810 -6.0780e+001 -2.1837e+002 -8.8788e+000 38730 101680,101784,101706
 3.3000e+000 102106 -1.2567e+002 -2.9973e+002 -1.7328e+001 38326 101881,101959,101907
 3.3000e+000 102083 -9.5519e+001 -2.2438e+002 -1.8932e+001 38326 101881,101985,101959
 3.3000e+000 102060 -7.3631e+001 -3.1779e+002  3.5057e+001 38326 101881,102011,101985
 3.3000e+000 102037 -5.3179e+001 -1.8061e+002 -8.1015e+001 38326 101907,101959,101933
 3.3000e+000 102258  4.1251e+001 -2.3978e+002  1.6135e+001 38036 102281,102157,102131
 3.3000e+000 102235  1.9237e+000 -3.0024e+002  4.4885e+001 38036 102281,102131,102209
 3.3000e+000 102307 -2.6737e+001 -1.7539e+002  1.4040e+001 38036 102183,102157,102281
 3.3000e+000 102330 -6.6327e+001 -2.2342e+002  4.7772e+001 38036 102183,102281,102209
 3.3000e+000 102663 -2.8486e+001 -1.2360e+002  5.0350e+000 37596 102438,102542,102464
 3.3000e+000 102640  1.2419e+001 -1.0969e+002 -2.6024e+000 37596 102438,102568,102542
 3.3000e+000 102617 -1.3914e+001 -1.7225e+002 -3.6761e+001 37596 102490,102542,102516
 3.3000e+000 102594 -3.3842e+001 -1.3180e+002  2.6085e+000 37596 102464,102542,102490
 3.3000e+000 102862 -5.4104e+001 -2.3840e+002 -2.4983e+001 37192 102686,102764,102712
 3.3000e+000 102839 -3.4546e+001 -2.1879e+002 -4.3439e+001 37192 102686,102790,102764
 3.3000e+000 102816 -6.6580e+001 -2.1334e+002 -3.6222e+001 37192 102712,102764,102738
 3.3000e+000 103110 -2.8886e+001 -1.6096e+002 -6.8233e+001 36609 102911,102963,102937
 3.3000e+000 103087 -2.9216e+001 -2.2077e+002 -2.0942e+001 36609 102911,102989,102963
 3.3000e+000 103064 -2.6252e+000 -2.1840e+002 -2.1467e+001 36609 102885,102989,102911
 3.3000e+000 103041 -4.8100e+001 -1.5461e+002 -6.2013e+001 36609 102885,103015,102989
 3.3000e+000 103718  3.9095e+001 -5.7694e+002  5.7391e+001 36131 103323,103375,103349
 3.3000e+000 103695 -1.0208e+002 -3.0181e+002 -2.0403e+001 36131 103297,103375,103323
 3.3000e+000 103672 -3.9278e+001 -1.7702e+002 -5.2896e+001 36131 103297,103505,103375
 3.3000e+000 103649 -1.3554e+002 -3.0458e+002  3.3127e+001 36131 103741,103479,103401
 3.3000e+000 103626 -8.1801e+001 -1.7886e+002  2.9785e+001 36131 103741,103401,103375
 3.3000e+000 103603 -1.6060e+002 -3.4569e+002  2.1766e+001 36131 103401,103479,103427
 3.3000e+000 103580 -9.0587e+001 -2.4408e+002 -8.3700e+000 36131 103297,103531,103505
 3.3000e+000 103557 -1.1820e+002 -3.0144e+002 -4.9970e+001 36131 103427,103479,103453
 3.3000e+000 103767 -9.9035e+001 -3.8452e+002 -6.3992e+001 36131 103505,103479,103741
 3.3000e+000 103790 -5.2151e+001 -2.7403e+002 -6.3973e+001 36131 103505,103741,103375
 3.3000e+000 103989 -1.6966e+002 -3.3745e+002  2.1941e+001 35791 103839,103917,103891
 3.3000e+000 103966 -2.4814e+002 -3.9913e+002 -5.8057e+000 35791 103813,103917,103839
 3.3000e+000 103943 -2.3770e+001 -2.4925e+002 -1.4959e+001 35791 103839,103891,103865
 3.3000e+000 104188 -2.2351e+000 -2.0006e+002 -4.9043e+000 35444 104038,104090,104064
 3.3000e+000 104165 -9.3367e+001 -2.5591e+002 -3.5888e+001 35444 104038,104116,104090
 3.3000e+000 104142 -1.5644e+001 -2.4513e+002 -1.2172e+001 35444 104012,104116,104038
 3.3000e+000 104487 -1.9573e+001 -2.5459e+002 -6.9063e+001 34990 104265,104317,104291
 3.3000e+000 104464 -3.3742e+001 -3.0987e+002 -6.0617e+000 34990 104510,104317,104265
 3.3000e+000 104441 -6.0401e+001 -2.0556e+002  2.7271e+001 34990 104510,104265,104213
 3.3000e+000 104418  5.5115e-001 -2.0898e+002 -3.1353e+001 34990 104582,104343,104317
 3.3000e+000 104395 -4.4635e+001 -1.9218e+002 -6.5930e+001 34990 104213,104265,104239
 3.3000e+000 104536  4.1754e+000 -2.0489e+002 -1.6445e+001 34990 104582,104317,104510
 3.3000e+000 104559 -6.2489e+001 -1.6387e+002  2.1567e+001 34990 104369,104510,104213
 3.3000e+000 104608 -2.5248e+001 -1.5107e+002 -9.6241e+000 34990 104369,104343,104582
 3.3000e+000 104631 -4.1504e+001 -2.2577e+002  1.3315e+001 34990 104369,104582,104510
 3.3000e+000 104783  3.5343e+001 -1.0782e+002 -1.5714e+001 34700 104938,104806,104682
 3.3000e+000 104760  5.5456e+000 -1.8175e+002 -1.8464e+001 34700 104938,104682,104656
 3.3000e+000 104832  1.5678e+001 -1.7718e+002 -3.5072e+001 34700 104708,104682,104806
 3.3000e+000 104964  2.8292e+001 -8.1276e+001  4.7468e+001 34700 104734,104806,104938
 3.3000e+000 104987  5.2639e+000 -1.3851e+002  4.5937e+001 34700 104734,104938,104656
 3.3000e+000 105137 -1.1827e+001 -1.6186e+002  1.0434e+001 34388 105036,105088,105062
 3.3000e+000 105114 -2.0650e+001 -2.5796e+002 -7.9068e+000 34388 105010,105088,105036
 3.3000e+000 105385 -5.9702e+001 -1.8488e+002 -4.4351e+001 33734 105408,105186,105160
 3.3000e+000 105362 -5.7275e+001 -1.9963e+002 -4.9683e+001 33734 105408,105160,105264
 3.3000e+000 105339 -1.1873e+002 -2.5475e+002 -2.6418e+001 33734 105160,105290,105264
 3.3000e+000 105316 -6.3267e+000 -1.5299e+002 -2.5944e+001 33734 105186,105238,105212
 3.3000e+000 105434 -5.7782e+001 -1.6965e+002 -3.3150e+001 33734 105238,105186,105408
 3.3000e+000 105457 -5.6926e+001 -1.9825e+002 -3.3251e+001 33734 105238,105408,105264
 3.3000e+000 105609 -4.5133e+001 -2.2639e+002  1.4496e+001 33394 105482,105534,105508
 3.3000e+000 105586 -2.2349e+001 -2.4045e+002  3.1150e+001 33394 105482,105560,105534
 3.3000e+000 105859 -7.4941e+001 -3.7532e+002 -6.9968e+001 33047 105882,105712,105660
 3.3000e+000 105836 -1.8217e+001 -3.2227e+002 -2.7037e+001 33047 105882,105660,105634
 3.3000e+000 105813 -8.7175e+000 -4.2614e+002  1.5530e+001 33047 105660,105712,105686
 3.3000e+000 105790 -2.1311e+001 -1.6040e+002 -4.0608e-001 33047 105634,105764,105738
 3.3000e+000 105908 -2.1520e+002 -2.8911e+002 -3.3251e+001 33047 105738,105712,105882
 3.3000e+000 105931 -7.5206e+001 -2.3166e+002  2.7986e+001 33047 105738,105882,105634
 3.3000e+000 106181 -3.6530e+001 -2.7332e+002 -3.0542e+000 32543 106204,106060,106008
 3.3000e+000 106158  1.5348e+001 -4.5308e+002  4.1046e+001 32543 105956,106086,106060
 3.3000e+000 106135 -3.3450e+000 -1.3384e+002  6.4429e+001 32543 106204,106008,105982
 3.3000e+000 106112 -6.7873e+001 -1.1303e+002  8.5900e+000 32543 106008,106060,106034
 3.3000e+000 106230 -4.7858e+001 -3.3368e+002 -7.5168e+001 32543 105956,106060,106204
 3.3000e+000 106253 -5.5043e+001 -2.1642e+002 -1.6621e+001 32543 105956,106204,105982
 3.3000e+000 106454  5.2376e+001 -1.5019e+002  5.3469e+001 31839 106304,106356,106330
 3.3000e+000 106431  3.3655e+001 -2.2406e+002 -5.3416e+001 31839 106278,106356,106304
 3.3000e+000 106408 -6.6911e+001 -2.2474e+002 -3.9831e+001 31839 106278,106382,106356
 3.3000e+000 106704 -9.6686e+000 -2.2696e+002 -3.2746e+001 31534 106505,106583,106557
 3.3000e+000 106681 -6.8187e+001 -2.4125e+002 -2.4054e+001 31534 106479,106583,106505
 3.3000e+000 106658 -6.5302e+001 -1.2467e+002 -5.6854e+001 31534 106505,106557,106531
 3.3000e+000 106635 -7.2032e+000 -2.0722e+002 -4.1295e+001 31534 106479,106609,106583
 3.3000e+000 107108 -1.6867e+002 -3.0528e+002 -2.0324e+000 31030 106886,106990,106964
 3.3000e+000 107085 -1.8685e+002 -3.3065e+002 -1.0025e+001 31030 106860,106990,106886
 3.3000e+000 107062 -2.2603e+001 -2.8967e+002 -4.3527e+001 31030 106834,106990,106860
 3.3000e+000 107039 -1.6217e+002 -4.0888e+002  4.3074e+001 31030 106912,106964,106938
 3.3000e+000 107016 -1.4805e+002 -2.9286e+002  9.1772e+000 31030 106886,106964,106912
 3.3000e+000 107307 -5.9472e+000 -1.8408e+002 -1.8697e+001 30718 107330,107157,107131
 3.3000e+000 107284 -1.8158e+001 -2.1825e+002 -1.1253e+001 30718 107330,107131,107235
 3.3000e+000 107261 -3.9884e+001 -1.8046e+002  3.8292e+000 30718 107183,107235,107209
 3.3000e+000 107356 -2.5410e+001 -1.3643e+002 -1.9184e+001 30718 107183,107157,107330
 3.3000e+000 107379 -4.3169e+001 -1.7819e+002 -1.0577e+001 30718 107183,107330,107235
 3.3000e+000 107759 -1.1933e+001 -1.2123e+002 -1.1837e+001 30264 107782,107615,107537
 3.3000e+000 107736 -2.3963e+001 -1.4925e+002 -1.3990e+001 30264 107782,107537,107485
 3.3000e+000 107713 -4.2985e+001 -1.9572e+002 -2.6042e-001 30264 107485,107537,107511
 3.3000e+000 107690  4.9410e+000 -1.7956e+002 -3.3331e+001 30264 107537,107615,107589
 3.3000e+000 107667  3.2788e+000 -1.5416e+002 -1.9433e+001 30264 107537,107589,107563
 3.3000e+000 107808 -3.9486e+000 -1.2674e+002  1.1018e+001 30264 107641,107615,107782
 3.3000e+000 107831 -1.8730e+001 -1.5902e+002  7.4435e+000 30264 107641,107782,107485
 3.3000e+000 108030 -6.6513e+001 -3.2527e+002 -7.2992e+001 29874 108053,107854,107932
 3.3000e+000 108007 -1.3153e+002 -3.4492e+002 -6.9666e+001 29874 107854,107958,107932
 3.3000e+000 107984  2.2429e+001 -2.2973e+002 -1.3174e+001 29874 108053,107932,107906
 3.3000e+000 108079 -1.1256e+002 -2.0783e+002 -3.0769e+001 29874 107880,107854,108053
 3.3000e+000 108102 -8.0941e+001 -1.3555e+002  6.1062e+000 29874 107880,108053,107906
 3.3000e+000 108433  2.6824e+000 -2.8000e+002 -9.8083e+001 29484 108234,108338,108312
 3.3000e+000 108410 -6.2345e+000 -2.4027e+002 -1.4617e+001 29484 108208,108338,108234
 3.3000e+000 108387 -9.5620e+001 -2.5178e+002 -1.3021e+002 29484 108234,108312,108260
 3.3000e+000 108364  2.8652e+001 -1.8275e+001 -5.1783e+001 29484 108260,108312,108286
 3.3000e+000 108762 -5.3864e+001 -2.5776e+002  1.6683e+001 29080 108563,108641,108589
 3.3000e+000 108739 -3.8551e+001 -1.5295e+002 -1.2694e+001 29080 108537,108641,108563
 3.3000e+000 108716 -7.8145e+001 -3.0607e+002  2.5476e+001 29080 108589,108641,108615
 3.3000e+000 108693 -1.5921e+000 -1.3013e+002  1.2395e+001 29080 108537,108667,108641
 3.3000e+000 109189 -2.6316e+001 -2.5251e+002 -2.9667e+001 28476 108892,108996,108970
 3.3000e+000 109166 -7.0013e+001 -2.6702e+002 -2.1456e+001 28476 108892,109022,108996
 3.3000e+000 109143 -1.2341e+002 -1.9747e+002  3.2074e+001 28476 108892,108970,108944
 3.3000e+000 109120 -4.4529e+001 -3.0868e+002 -5.4895e+001 28476 108892,109048,109022
 3.3000e+000 109097 -8.6749e+001 -6.7031e+001  1.6954e+001 28476 108892,108944,108918
 3.3000e+000 109074 -4.2413e+001 -2.3885e+002 -6.0964e+001 28476 108866,109048,108892
 3.3000e+000 109518 -1.0190e+002 -2.8512e+002  4.6547e+001 28022 109541,109371,109345
 3.3000e+000 109495 -1.1120e+002 -2.6639e+002  2.9843e+001 28022 109541,109345,109319
 3.3000e+000 109472 -7.9120e+001 -2.6144e+002  9.0399e+000 28022 109293,109397,109319
 3.3000e+000 109449 -8.7269e+000 -2.3067e+002  3.1952e+000 28022 109293,109423,109397
 3.3000e+000 109567 -5.9937e+001 -2.6602e+002  4.1083e+001 28022 109397,109371,109541
 3.3000e+000 109590 -9.9194e+001 -2.6017e+002  2.7604e+001 28022 109397,109541,109319
 3.3000e+000 109968 -3.2755e+001 -1.3843e+002  6.4035e+001 27568 109798,109850,109824
 3.3000e+000 109945 -3.6309e+001 -2.3246e+002  8.9028e+001 27568 109694,109850,109798
 3.3000e+000 109922 -2.5437e+001 -1.8882e+002  7.5713e+001 27568 109694,109798,109746
 3.3000e+000 109899 -7.9714e+000 -1.8989e+002  6.3309e+000 27568 109746,109798,109772
 3.3000e+000 109876 -5.4557e+001 -2.1429e+002  4.1239e+001 27568 109694,109746,109720
 3.3000e+000 110167 -6.9604e+001 -2.9099e+002 -8.3256e+001 27007 110017,110095,110069
 3.3000e+000 110144  1.7623e+001 -3.3621e+002 -1.5101e+001 27007 109991,110095,110017
 3.3000e+000 110121  4.4008e+000 -2.3497e+002 -4.4432e+001 27007 110017,110069,110043
 3.3000e+000 110415 -1.2077e+001 -2.5025e+002 -1.9436e+001 26567 110438,110242,110190
 3.3000e+000 110392 -3.3494e+001 -2.7893e+002 -7.5755e+000 26567 110438,110190,110320
 3.3000e+000 110369 -6.9230e+001 -2.6179e+002 -3.7066e+001 26567 110242,110294,110268
 3.3000e+000 110346 -1.8584e+001 -2.2630e+002  5.0623e+001 26567 110190,110242,110216
 3.3000e+000 110464 -2.2343e+001 -2.4041e+002 -2.8859e+001 26567 110294,110242,110438
 3.3000e+000 110487 -2.8434e+001 -2.5147e+002 -1.9778e+001 26567 110294,110438,110320
 3.3000e+000 110639  7.0965e+000 -1.4229e+001  5.6587e+000 26170 110538,110590,110564
 3.3000e+000 110616  2.5829e+001  9.7048e+000  1.4185e+001 26170 110512,110590,110538
 3.3000e+000 111149 -6.6752e+001 -1.4109e+002 -2.5844e+001 25716 111172,110878,110852
 3.3000e+000 111126 -3.6552e+001 -1.4754e+002 -2.1930e+001 25716 111172,110852,111008
 3.3000e+000 111103 -3.0523e+001 -1.6413e+002 -3.8827e+001 25716 110878,110930,110904
 3.3000e+000 111080 -3.3868e+001 -1.3485e+002 -5.5248e+000 25716 110826,111008,110852
 3.3000e+000 111057 -5.8513e+001 -2.2215e+002  4.9329e+001 25716 110930,111008,110956
 3.3000e+000 111034 -4.6581e+001 -2.0701e+002  3.8746e+001 25716 110956,111008,110982
 3.3000e+000 111198 -4.4980e+001 -1.4463e+002 -1.7481e+001 25716 110930,110878,111172
 3.3000e+000 111221 -8.2664e+000 -1.4530e+002 -1.2512e+001 25716 110930,111172,111008
 3.3000e+000 111420  8.9575e+000 -1.3839e+002  2.1043e+000 25304 111443,111270,111244
 3.3000e+000 111397  4.4649e+000 -1.4804e+002  4.4472e+000 25304 111443,111244,111348
 3.3000e+000 111374 -4.1579e+000 -1.1863e+002  2.2658e+001 25304 111270,111322,111296
 3.3000e+000 111469  3.1772e+000 -1.2772e+002  2.5190e-001 25304 111322,111270,111443
 3.3000e+000 111492 -1.3910e+000 -1.3660e+002  3.0890e+000 25304 111322,111443,111348
 3.3000e+000 111691 -6.4761e+001 -2.2600e+002  2.1410e+001 24736 111567,111619,111593
 3.3000e+000 111668 -1.0397e+002 -3.0940e+002  1.0664e+001 24736 111541,111619,111567
 3.3000e+000 111645 -7.4590e+001 -2.9870e+002  1.3999e+001 24736 111515,111619,111541
 3.3000e+000 112024 -1.7751e+001 -2.6798e+002  4.2705e+001 24146 111825,111877,111851
 3.3000e+000 112001 -5.3601e+001 -2.1784e+002 -6.1698e+000 24146 111825,111903,111877
 3.3000e+000 111978 -2.2979e+001 -1.5061e+002 -1.9165e+001 24146 111825,111929,111903
 3.3000e+000 111955 -2.7038e+001 -1.4747e+002 -1.6256e+001 24146 111799,111929,111825
 3.3000e+000 112370 -8.6071e+001 -4.5506e+002 -5.2306e+000 23856 112393,112151,112125
 3.3000e+000 112347 -5.6901e+001 -3.8389e+002  9.3666e-001 23856 112465,112393,112125
 3.3000e+000 112324 -6.6344e+001 -3.6458e+002  2.7438e+001 23856 112465,112125,112073
 3.3000e+000 112301 -1.0707e+002 -3.3619e+002  3.4550e+001 23856 112073,112125,112099
 3.3000e+000 112278 -2.5427e+002 -5.2259e+002 -7.7738e+001 23856 112047,112229,112073
 3.3000e+000 112255 -5.2843e+001 -5.3677e+002 -1.2545e+002 23856 112151,112203,112177
 3.3000e+000 112419 -7.9573e+001 -4.1886e+002 -4.4176e+001 23856 112203,112151,112393
 3.3000e+000 112442 -9.7324e+001 -4.1088e+002 -4.3909e+001 23856 112203,112393,112229
 3.3000e+000 112491 -1.0743e+002 -4.1853e+002 -4.0202e+001 23856 112229,112393,112465
 3.3000e+000 112514 -9.8631e+001 -3.6977e+002 -1.1758e+001 23856 112229,112465,112073
 3.3000e+000 112784 -3.1611e+001 -3.1268e+002  2.3201e+001 23494 112611,112663,112637
 3.3000e+000 112761 -4.0995e+001 -2.7553e+002  2.2617e+001 23494 112585,112663,112611
 3.3000e+000 112738 -7.2271e+001 -2.8900e+002  1.9562e+001 23494 112559,112663,112585
 3.3000e+000 112715 -1.1690e+001 -1.7102e+002 -2.6399e+000 23494 112559,112689,112663
 3.3000e+000 113117  1.0106e+001 -4.2845e+001 -1.0077e+001 22974 112944,113022,112996
 3.3000e+000 113094 -2.5517e-001 -1.8725e+001 -1.9302e+001 22974 112918,113022,112944
 3.3000e+000 113071 -1.4876e+000 -7.4588e+001 -1.4022e+001 22974 112944,112996,112970
 3.3000e+000 113048  2.2284e+000 -6.1365e+001  1.4437e+001 22974 112892,113022,112918
 3.3000e+000 113414  7.5306e+000 -1.1241e+002  4.5067e+001 22370 113192,113296,113218
 3.3000e+000 113391  1.0311e+001 -1.7957e+002  3.2013e+001 22370 113140,113296,113192
 3.3000e+000 113368 -5.1779e+001 -2.4896e+002  5.5076e+001 22370 113218,113296,113270
 3.3000e+000 113345 -6.4184e+001 -2.8383e+002  5.4409e+001 22370 113218,113270,113244
 3.3000e+000 113322  9.9635e+000 -1.6634e+002  4.7002e+001 22370 113140,113192,113166
 3.3000e+000 113662  2.5665e+000 -1.3124e+002  5.9588e+001 21916 113685,113515,113489
 3.3000e+000 113639 -2.8228e+001 -2.7905e+002  3.1049e+001 21916 113685,113489,113437
 3.3000e+000 113616  7.0073e+000 -2.7446e+002  1.4309e+001 21916 113757,113567,113541
 3.3000e+000 113593  1.3421e+001 -1.8109e+002  3.0338e+001 21916 113437,113489,113463
 3.3000e+000 113711 -6.3435e+001 -3.1986e+002  7.8406e+001 21916 113541,113515,113685
 3.3000e+000 113734 -1.4451e+001 -3.1083e+002  3.2513e+001 21916 113757,113541,113685
 3.3000e+000 113783 -3.0667e+001 -2.4849e+002  2.4980e+001 21916 113437,113567,113757
 3.3000e+000 113806 -2.1741e+001 -2.5907e+002  2.9368e+001 21916 113437,113757,113685
 3.3000e+000 114056  6.5237e+001 -3.8655e+002  3.6783e+001 21412 113857,113909,113883
 3.3000e+000 114033  1.2446e+002 -2.0923e+002  3.3138e+001 21412 114079,113909,113857
 3.3000e+000 114010 -1.3130e+001 -2.4724e+002  1.0797e+001 21412 114079,113857,113961
 3.3000e+000 113987 -4.7030e+001 -2.3128e+002  1.7879e+001 21412 113831,113961,113857
 3.3000e+000 114105  1.6496e+001 -2.1692e+002 -2.5515e+001 21412 113935,113909,114079
 3.3000e+000 114128 -7.6313e+001 -2.1733e+002 -4.2293e+001 21412 113935,114079,113961
 3.3000e+000 114378 -8.5717e+001 -2.7654e+002 -1.0330e+002 21022 114401,114257,114205
 3.3000e+000 114355 -1.2523e+002 -3.7468e+002 -1.0513e+002 21022 114401,114205,114179
 3.3000e+000 114332  5.7916e-001 -4.7767e+002 -6.4334e+001 21022 114153,114283,114179
 3.3000e+000 114309 -1.0251e+002 -1.8661e+002 -6.6590e+001 21022 114205,114257,114231
 3.3000e+000 114427 -6.2387e+001 -3.1095e+002 -1.5088e+001 21022 114283,114257,114401
 3.3000e+000 114450 -9.7010e+001 -4.0136e+002 -1.8707e+001 21022 114283,114401,114179
 3.3000e+000 114651  2.9144e+001 -2.9427e+002  3.5403e+001 20618 114501,114553,114527
 3.3000e+000 114628 -7.6851e+001 -2.9951e+002 -1.9195e+001 20618 114501,114579,114553
 3.3000e+000 114605 -5.3899e+001 -2.5971e+002 -4.5337e+000 20618 114475,114579,114501
 3.3000e+000 114901  7.2383e+001 -2.9309e+002 -8.4319e+000 20114 114676,114780,114702
 3.3000e+000 114878 -2.7629e+001 -3.4948e+002  1.6152e+001 20114 114676,114806,114780
 3.3000e+000 114855  1.8142e+002 -3.3133e+002 -1.9161e+001 20114 114702,114780,114754
 3.3000e+000 114832  5.0998e+002 -3.3439e+002  8.4972e+001 20114 114702,114754,114728
 3.3000e+000 115053 -1.2354e+002 -4.1361e+002 -8.3950e+000 19460 115147,115076,114926
 3.3000e+000 115030 -9.6631e+001 -4.3983e+002 -1.7685e+000 19460 115147,114926,115004
 3.3000e+000 115102 -1.1860e+002 -3.8465e+002 -4.9455e+000 19460 114952,114926,115076
 3.3000e+000 115173 -9.7450e+001 -3.8210e+002  3.0715e+000 19460 114978,115076,115147
 3.3000e+000 115196 -6.8151e+001 -4.0957e+002  9.9431e+000 19460 114978,115147,115004
 3.3000e+000 115446 -5.3850e+001 -3.6936e+002 -9.6161e+000 19006 115273,115351,115299
 3.3000e+000 115423  1.1087e+001 -3.2110e+002  1.1480e+001 19006 115247,115351,115273
 3.3000e+000 115400 -1.2694e+000 -3.2604e+002  1.4720e+001 19006 115221,115351,115247
 3.3000e+000 115377 -2.2664e+001 -3.8493e+002 -4.2946e+001 19006 115299,115351,115325
 3.3000e+000 115767 -1.4046e+002 -3.8503e+002  7.8088e+000 18716 115571,115649,115623
 3.3000e+000 115744 -1.5112e+002 -3.9854e+002  1.6320e+000 18716 115493,115649,115571
 3.3000e+000 115721 -1.5893e+002 -3.8657e+002  6.7772e+000 18716 115493,115571,115545
 3.3000e+000 115698 -1.2337e+002 -3.5096e+002  5.6433e+001 18716 115493,115545,115519
 3.3000e+000 115675 -7.3814e+001 -3.6388e+002 -6.1367e+000 18716 115571,115623,115597
 3.3000e+000 116039 -4.4451e+001 -2.6742e+002  1.5737e+001 18312 115814,115892,115840
 3.3000e+000 116016 -2.6897e+001 -2.2578e+002  1.5278e+001 18312 115814,115944,115892
 3.3000e+000 115993 -5.2886e+001 -2.4934e+002  5.1245e+000 18312 115892,115944,115918
 3.3000e+000 115970  4.6842e+001 -2.4923e+002  3.6285e+001 18312 115840,115892,115866
 3.3000e+000 116191 -3.7257e+001 -3.7765e+002  1.7963e+000 18000 116090,116142,116116
 3.3000e+000 116168 -2.5516e+001 -3.8368e+002  1.0862e+001 18000 116064,116142,116090
 3.3000e+000 116343 -2.2837e+002 -4.8902e+002 -1.4444e+001 17396 116242,116294,116268
 3.3000e+000 116320 -2.1008e+002 -4.8548e+002 -1.3114e+001 17396 116216,116294,116242
 3.3000e+000 116566 -8.6956e+001 -5.4821e+002  5.0453e+001 16942 116390,116468,116442
 3.3000e+000 116543 -9.0139e+001 -5.6507e+002  5.5600e+001 16942 116390,116494,116468
 3.3000e+000 116520 -1.3540e+002 -6.6205e+002  2.1390e+001 16942 116390,116442,116416
 3.3000e+000 116767  3.7879e+001 -2.8698e+002 -1.4987e+001 16438 116790,116643,116617
 3.3000e+000 116744  8.9016e-001 -2.3512e+002 -1.1877e+001 16438 116790,116617,116591
 3.3000e+000 116721  6.7689e+001 -2.2868e+002 -5.7071e+001 16438 116643,116695,116669
 3.3000e+000 116816  4.0061e+001 -2.4766e+002 -3.2313e+001 16438 116695,116643,116790
 3.3000e+000 116839  2.6540e+001 -1.9630e+002 -4.7069e+001 16438 116695,116790,116591
 3.3000e+000 117062 -1.6673e+001 -4.6497e+002 -6.6621e+000 16074 116886,116938,116912
 3.3000e+000 117039 -9.8105e+001 -5.1682e+002  2.2268e+001 16074 116886,116990,116938
 3.3000e+000 117016 -6.6094e+001 -4.2088e+002  3.4261e+001 16074 116938,116990,116964
 3.3000e+000 117214 -6.0802e+001 -4.5918e+002 -7.1300e+000 15649 117087,117139,117113
 3.3000e+000 117191 -4.9786e-001 -4.3618e+002 -2.4558e+000 15649 117087,117165,117139
 3.3000e+000 117317 -1.6215e+002 -4.3350e+002 -3.5584e+001 421 117239,117291,117265
 3.4000e+000 70632 -3.2928e+002 -5.5095e+002 -2.2703e+001 70072 70482,70534,70508
 3.4000e+000 70609 -3.0283e+002 -4.9596e+002 -1.4338e+001 70072 70482,70560,70534
 3.4000e+000 70586 -2.3746e+002 -4.6742e+002 -2.2074e+001 70072 70456,70560,70482
 3.4000e+000 70951 -2.1647e+002 -5.6809e+002  0.0000e+000 69874 70703,70755,70729
 3.4000e+000 70928 -1.3677e+002 -5.4359e+002 -8.7984e+001 69874 70703,70781,70755
 3.4000e+000 70905 -5.9393e+001 -2.1995e+002 -5.0834e+001 69874 70703,70807,70781
 3.4000e+000 70882 -1.6078e+002 -4.7055e+002 -2.1840e+001 69874 70703,70833,70807
 3.4000e+000 70859 -1.1045e+002 -4.6658e+002  1.8864e+001 69874 70677,70833,70703
 3.4000e+000 71199 -1.0870e+002 -3.4300e+002  1.0771e+001 69698 71222,71052,71026
 3.4000e+000 71176 -1.2571e+002 -2.8184e+002  1.4490e+001 69698 71294,71222,71026
 3.4000e+000 71153 -1.3472e+002 -2.7065e+002 -2.8567e+001 69698 71294,71026,71000
 3.4000e+000 71130 -7.2988e+001 -2.6751e+002  2.8158e+001 69698 71366,71104,71078
 3.4000e+000 71248 -7.9118e+001 -2.7319e+002  5.4279e+000 69698 71078,71052,71222
 3.4000e+000 71271 -8.5364e+001 -2.6481e+002  2.4199e+001 69698 71366,71078,71222
 3.4000e+000 71320 -5.7260e+001 -2.4652e+002  9.4555e-001 69698 70974,71222,71294
 3.4000e+000 71343 -5.3088e+001 -2.3618e+002 -3.7980e+001 69698 70974,71294,71000
 3.4000e+000 71392 -8.7145e+001 -2.7784e+002  2.3484e+001 69698 70974,71104,71366
 3.4000e+000 71415 -9.2714e+001 -2.7079e+002  2.0599e+001 69698 70974,71366,71222
 3.4000e+000 71516 -5.8331e+001 -3.3901e+002 -6.3686e+001 69386 71438,71490,71464
 3.4000e+000 71869 -6.1586e+001 -2.9108e+002  2.6223e+001 69188 71644,71748,71670
 3.4000e+000 71846  4.7302e+001 -2.7297e+002  8.1797e+001 69188 71644,71774,71748
 3.4000e+000 71823 -1.3422e+001 -1.5067e+002  1.9922e+001 69188 71670,71748,71722
 3.4000e+000 71800 -1.4588e+002 -4.1864e+002 -3.3506e+001 69188 71670,71722,71696
 3.4000e+000 72019 -2.4547e+002 -5.6045e+002 -2.4838e+001 68990 71918,71970,71944
 3.4000e+000 71996 -2.1153e+002 -6.5096e+002  1.4188e+001 68990 71892,71970,71918
 3.4000e+000 72316 -3.9487e+001 -1.6053e+002 -8.3276e+000 68586 72339,72172,72146
 3.4000e+000 72293 -5.6955e+001 -2.0504e+002 -4.1881e+000 68586 72339,72146,72120
 3.4000e+000 72270 -6.0903e+001 -1.7242e+002  1.2948e+001 68586 72411,72068,72198
 3.4000e+000 72247 -3.0664e+001 -8.8853e+001  5.3568e+001 68586 72042,72198,72068
 3.4000e+000 72224 -7.6114e+001 -2.3767e+002  2.2801e+000 68586 72068,72120,72094
 3.4000e+000 72365 -5.5910e+001 -1.5633e+002  1.4105e+001 68586 72198,72172,72339
 3.4000e+000 72388 -6.3068e+001 -1.7313e+002  1.2009e+001 68586 72411,72198,72339
 3.4000e+000 72437 -5.5246e+001 -1.7223e+002  1.6076e+001 68586 72120,72068,72411
 3.4000e+000 72460 -5.8677e+001 -1.7487e+002  1.4546e+001 68586 72120,72411,72339
 3.4000e+000 72864 -1.9709e+001 -2.1208e+002 -7.9920e+000 68388 72642,72694,72668
 3.4000e+000 72841 -5.9654e+001 -2.7672e+002  1.0496e+001 68388 72616,72694,72642
 3.4000e+000 72818 -3.6159e+001 -2.1106e+002  1.1691e+001 68388 72616,72720,72694
 3.4000e+000 72795 -9.6846e+001 -3.3320e+002  3.5994e+001 68388 72590,72720,72616
 3.4000e+000 72772 -1.6347e+001 -2.5288e+002  8.9084e+001 68388 72590,72746,72720
 3.4000e+000 73321 -8.9948e+001 -1.4156e+002  2.4460e+000 68048 73073,73203,73177
 3.4000e+000 73298 -1.0772e+002 -1.4489e+002  7.2903e+000 68048 73047,73203,73073
 3.4000e+000 73275 -5.7430e+001 -2.3122e+002 -1.8581e+001 68048 73125,73177,73151
 3.4000e+000 73252 -7.2633e+001 -2.1758e+002  7.5406e+000 68048 73073,73177,73125
 3.4000e+000 73229 -6.1518e+001 -2.3263e+002  1.3235e+001 68048 73073,73125,73099
 3.4000e+000 73640 -1.4374e+002 -3.0515e+002 -1.7239e+001 67850 73444,73496,73470
 3.4000e+000 73617 -1.0358e+002 -3.0527e+002 -2.3329e+001 67850 73418,73496,73444
 3.4000e+000 73594 -1.1282e+002 -3.1515e+002 -3.1605e+000 67850 73392,73496,73418
 3.4000e+000 73571 -1.3206e+002 -3.2298e+002 -1.0274e+001 67850 73392,73522,73496
 3.4000e+000 73548 -1.9438e+002 -4.0639e+002  4.0182e+001 67850 73366,73522,73392
 3.4000e+000 73790 -1.3977e+002 -3.0408e+002 -3.3968e+000 67602 73689,73741,73715
 3.4000e+000 73767 -1.1438e+002 -2.4283e+002 -1.4141e+000 67602 73663,73741,73689
 3.4000e+000 74040 -1.3413e+002 -3.1193e+002 -1.8902e+001 67290 73841,73945,73919
 3.4000e+000 74017 -5.2304e+001 -2.9269e+002 -4.7069e+001 67290 73815,73945,73841
 3.4000e+000 73994 -1.0689e+002 -2.2120e+002 -1.8868e+001 67290 73841,73919,73867
 3.4000e+000 73971 -1.1096e+002 -2.3543e+002 -1.0098e+001 67290 73867,73919,73893
 3.4000e+000 74143 -4.9581e+001 -1.4193e+002  7.8117e+000 67092 74065,74117,74091
 3.4000e+000 74415 -8.9703e+001 -3.4903e+002 -5.2168e+001 66894 74190,74294,74216
 3.4000e+000 74392 -1.2095e+001 -3.1401e+002 -3.1523e+001 66894 74190,74320,74294
 3.4000e+000 74369 -3.6823e+001 -2.2163e+002 -4.2540e+001 66894 74216,74294,74242
 3.4000e+000 74346 -7.6372e+001 -2.9678e+002 -2.5450e+001 66894 74242,74294,74268
 3.4000e+000 75023  2.1237e+002 -2.2351e+002 -9.7129e+001 66532 74654,74836,74810
 3.4000e+000 75000 -1.7774e+002 -2.4517e+002 -1.0698e+002 66532 74628,74836,74654
 3.4000e+000 74977 -6.6439e+001 -1.8918e+002 -4.2735e+000 66532 74706,74784,74732
 3.4000e+000 74954 -5.5034e+001 -1.8334e+002  2.9516e+000 66532 74680,74784,74706
 3.4000e+000 74931  4.7161e+001 -1.6298e+002  1.0704e+001 66532 74680,74810,74784
 3.4000e+000 74908 -8.8719e+001 -2.2842e+002 -8.5521e+001 66532 74654,74810,74680
 3.4000e+000 74885 -1.7935e+002 -3.0142e+002 -1.3729e+002 66532 74602,74836,74628
 3.4000e+000 74862 -6.1455e+001 -2.2736e+002 -8.9573e+000 66532 74732,74784,74758
 3.4000e+000 75222 -1.1231e+001 -2.8177e+002 -4.9177e+000 66242 75072,75150,75124
 3.4000e+000 75199 -3.4989e+001 -2.5530e+002  9.6272e-001 66242 75046,75150,75072
 3.4000e+000 75176  4.0303e+000 -2.1432e+002 -5.5957e+000 66242 75072,75124,75098
 3.4000e+000 75470 -6.8088e+001 -1.2906e+002 -2.0363e+001 65838 75297,75375,75349
 3.4000e+000 75447 -3.9231e+001 -1.3193e+002 -7.3959e+000 65838 75271,75375,75297
 3.4000e+000 75424 -2.6391e+001 -1.0205e+002 -7.2264e+000 65838 75297,75349,75323
 3.4000e+000 75401 -5.7454e+001 -1.4813e+002 -2.7116e+001 65838 75245,75375,75271
 3.4000e+000 75671 -5.6778e+001 -1.7315e+002 -5.1882e+001 65640 75495,75573,75521
 3.4000e+000 75648 -2.7662e+001 -1.6034e+002 -5.3932e+001 65640 75495,75599,75573
 3.4000e+000 75625 -5.8064e+001 -1.9011e+002 -6.2882e+001 65640 75521,75573,75547
 3.4000e+000 75872 -7.7085e+001 -1.4631e+002 -4.4557e+001 65300 75895,75748,75722
 3.4000e+000 75849 -3.5864e+001 -1.7828e+002 -6.6025e+001 65300 75895,75722,75696
 3.4000e+000 75826 -7.3378e+001 -1.3590e+002 -8.4721e+001 65300 75967,75774,75748
 3.4000e+000 75921 -6.9466e+001 -1.5042e+002 -5.3731e+001 65300 75967,75748,75895
 3.4000e+000 75944 -8.8422e+001 -2.6059e+002 -3.8658e+001 65300 75800,75895,75696
 3.4000e+000 75993 -1.2737e+002 -1.5814e+002 -7.2273e+001 65300 75800,75774,75967
 3.4000e+000 76016 -1.2435e+002 -1.7339e+002 -4.6740e+001 65300 75800,75967,75895
 3.4000e+000 76371 -1.5610e+002 -2.2826e+002 -1.3104e+001 64896 76146,76250,76172
 3.4000e+000 76348 -1.5441e+002 -2.1802e+002 -9.0409e+000 64896 76146,76276,76250
 3.4000e+000 76325 -1.9083e+002 -2.1765e+002  3.5432e-001 64896 76172,76250,76198
 3.4000e+000 76302 -5.2799e+001 -1.5179e+002  2.2178e+001 64896 76198,76250,76224
 3.4000e+000 76570 -5.9508e+001 -1.7629e+002 -7.7377e+001 64442 76446,76498,76472
 3.4000e+000 76547 -6.5663e+001 -1.2804e+002 -3.1353e+001 64442 76420,76498,76446
 3.4000e+000 76524 -7.5906e+001 -1.8943e+002 -2.3764e+001 64442 76394,76498,76420
 3.4000e+000 76999 -1.2154e+002 -3.2061e+002  1.7152e+001 63924 77022,76728,76702
 3.4000e+000 76976 -1.4260e+002 -2.7045e+002 -3.8489e+001 63924 77022,76702,76832
 3.4000e+000 76953 -7.0839e+001 -3.3115e+002  6.1619e+001 63924 76728,76806,76754
 3.4000e+000 76930 -1.4708e+002 -2.1666e+002  4.3107e+001 63924 76676,76832,76702
 3.4000e+000 76907 -1.4577e+002 -3.8286e+002  3.6785e+001 63924 76754,76806,76780
 3.4000e+000 76884 -7.3183e+001 -2.4283e+002  2.1288e+001 63924 76676,76858,76832
 3.4000e+000 77048 -1.1076e+002 -3.8997e+002  7.7200e-001 63924 76806,76728,77022
 3.4000e+000 77071 -1.4173e+002 -3.5230e+002 -5.6843e+001 63924 76806,77022,76832
 3.4000e+000 77449 -7.1760e+001 -2.1147e+002  3.6903e+001 63320 77472,77253,77201
 3.4000e+000 77426 -7.2397e+001 -2.3106e+002  1.7480e+001 63320 77472,77201,77175
 3.4000e+000 77403 -4.1631e+001 -2.2656e+002  2.9093e+000 63320 77175,77305,77279
 3.4000e+000 77380 -2.6001e+001 -1.3660e+002 -1.9237e+001 63320 77201,77253,77227
 3.4000e+000 77357 -3.3633e+000 -2.0299e+002 -2.3408e+001 63320 77175,77331,77305
 3.4000e+000 77498 -8.0307e+001 -2.4869e+002  3.6875e+001 63320 77279,77253,77472
 3.4000e+000 77521 -7.4014e+001 -2.4841e+002  1.2944e+001 63320 77279,77472,77175
 3.4000e+000 77769 -1.1888e+002 -2.5639e+002  2.6643e+001 62816 77570,77622,77596
 3.4000e+000 77746 -1.5755e+002 -2.9273e+002  4.5108e+001 62816 77570,77648,77622
 3.4000e+000 77723 -5.3094e+001 -2.3724e+002  7.9206e+000 62816 77570,77674,77648
 3.4000e+000 77700 -7.3366e+001 -2.5110e+002  2.3970e+000 62816 77544,77674,77570
 3.4000e+000 78149 -9.6887e+001 -2.4392e+002 -2.5817e+000 62354 77953,78031,78005
 3.4000e+000 78126 -1.2800e+002 -2.8580e+002 -1.6430e+001 62354 77901,78031,77953
 3.4000e+000 78103 -6.1553e+001 -2.5390e+002  3.8757e+001 62354 77875,78031,77901
 3.4000e+000 78080 -7.2150e+001 -3.2985e+002 -7.3280e+001 62354 77901,77953,77927
 3.4000e+000 78057 -9.8774e+001 -2.1284e+002 -2.3759e+001 62354 77953,78005,77979
 3.4000e+000 78606 -4.2839e+001 -1.9305e+002  2.9892e+001 61950 78384,78436,78410
 3.4000e+000 78583 -6.4464e+001 -2.3658e+002 -2.1893e+001 61950 78358,78436,78384
 3.4000e+000 78560 -9.2166e+001 -2.0663e+002 -3.8141e+001 61950 78358,78488,78436
 3.4000e+000 78537 -1.0765e+002 -3.1341e+002 -5.6208e+001 61950 78436,78488,78462
 3.4000e+000 78514 -9.3241e+001 -1.6863e+002 -1.7952e+001 61950 78332,78488,78358
 3.4000e+000 78756 -2.0562e+001 -2.7067e+002  3.3060e+000 61339 78779,78655,78629
 3.4000e+000 78733 -3.7060e+001 -3.0839e+002  1.1105e+001 61339 78779,78629,78707
 3.4000e+000 78805 -6.0661e+001 -3.0728e+002  3.5445e+001 61339 78851,78779,78681
 3.4000e+000 78828  1.1383e+001 -2.7515e+002  2.5845e+001 61339 78681,78779,78707
 3.4000e+000 78877 -3.7128e+001 -2.4513e+002  1.1563e+001 61339 78655,78779,78851
 3.4000e+000 79206 -4.9908e+001 -1.1149e+002 -3.2037e+001 60892 79229,79007,78981
 3.4000e+000 79183 -3.5103e+001 -5.0809e+001 -5.2651e+000 60892 79229,78981,79111
 3.4000e+000 79160 -4.6409e+001 -1.3813e+002 -4.0569e+001 60892 79301,79033,79007
 3.4000e+000 79137 -2.9576e+001 -7.7161e+001  4.7669e+001 60892 79033,79085,79059
 3.4000e+000 79255 -5.5036e+001 -1.1752e+002 -5.6622e+001 60892 79301,79007,79229
 3.4000e+000 79278 -4.2256e+001 -9.9023e+001 -4.2540e+001 60892 79085,79229,79111
 3.4000e+000 79327 -7.9700e+001 -1.9797e+002 -1.3094e+001 60892 79085,79033,79301
 3.4000e+000 79350 -4.6999e+001 -1.5369e+002 -4.0955e+001 60892 79085,79301,79229
 3.4000e+000 79647 -1.5528e+002 -3.2368e+002 -2.7116e+001 60488 79451,79529,79503
 3.4000e+000 79624 -1.2996e+002 -2.7540e+002 -4.1224e+001 60488 79425,79529,79451
 3.4000e+000 79601 -1.1983e+002 -2.9520e+002 -4.9038e+001 60488 79373,79529,79425
 3.4000e+000 79578 -1.1625e+002 -2.8750e+002 -4.7594e+001 60488 79373,79425,79399
 3.4000e+000 79555 -2.5277e+001 -2.5427e+002  1.2120e+001 60488 79451,79503,79477
 3.4000e+000 79870 -4.7541e+001 -1.4357e+002 -4.0872e+000 60026 79720,79798,79772
 3.4000e+000 79847 -2.3888e+001 -1.5985e+002 -1.2951e+001 60026 79694,79798,79720
 3.4000e+000 79824  6.5572e-001 -1.2844e+002 -1.7570e+001 60026 79720,79772,79746
 3.4000e+000 80120 -5.8051e+001 -1.0075e+002 -8.2323e+000 59629 79921,80025,79973
 3.4000e+000 80097 -4.8313e+001 -6.9382e+001  1.0927e+001 59629 79895,80025,79921
 3.4000e+000 80074 -4.8454e+001 -8.8134e+001 -2.4184e+001 59629 79973,80025,79999
 3.4000e+000 80051 -3.7690e+001 -1.0160e+002 -1.0516e+001 59629 79921,79973,79947
 3.4000e+000 80321 -4.6632e+001 -1.8353e+002  4.3406e+000 59125 80344,80171,80145
 3.4000e+000 80298 -3.7576e+001 -2.0930e+002 -3.8519e+000 59125 80344,80145,80249
 3.4000e+000 80275 -1.0744e+001 -1.7875e+002  2.3360e+001 59125 80197,80249,80223
 3.4000e+000 80370 -3.9302e+001 -1.6646e+002  1.7980e+001 59125 80197,80171,80344
 3.4000e+000 80393 -3.0371e+001 -1.9106e+002  9.3228e+000 59125 80197,80344,80249
 3.4000e+000 80952 -8.4073e+001 -3.1216e+002  5.8070e+001 58557 80975,80632,80606
 3.4000e+000 80929 -2.3439e+001 -1.4203e+002  5.6812e+000 58557 81119,80975,80606
 3.4000e+000 80906 -1.0368e+002 -2.7168e+002 -2.8811e+001 58557 81047,80684,80632
 3.4000e+000 80883  7.0501e+000 -1.3496e+002 -3.4256e+001 58557 81119,80606,80580
 3.4000e+000 80860 -3.5277e+001 -3.9538e+002  1.1278e+001 58557 81191,80736,80710
 3.4000e+000 80837 -6.7695e+001 -3.2612e+002 -4.8545e+001 58557 80736,80788,80762
 3.4000e+000 80814 -9.9508e+001 -1.7152e+002 -2.7713e+001 58557 80632,80684,80658
 3.4000e+000 81001 -4.8533e+001 -3.1599e+002  4.9727e+000 58557 81047,80632,80975
 3.4000e+000 81024  1.5985e+001 -3.0056e+002  3.0920e+001 58557 81191,80710,80975
 3.4000e+000 81073 -5.3540e+001 -2.1690e+002  4.3864e+000 58557 80710,80684,81047
 3.4000e+000 81096  2.0425e+001 -2.5724e+002  3.7042e+001 58557 80710,81047,80975
 3.4000e+000 81145 -3.8039e+001 -1.8678e+002  2.2351e+001 58557 80788,80975,81119
 3.4000e+000 81168 -2.7748e+001 -1.8034e+002 -1.3668e+001 58557 80788,81119,80580
 3.4000e+000 81217 -6.8950e+001 -3.0195e+002 -2.3955e+001 58557 80788,80736,81191
 3.4000e+000 81240 -5.3878e+001 -2.6905e+002 -1.9034e+001 58557 80788,81191,80975
 3.4000e+000 81537 -4.0936e+000 -1.4965e+002  2.6287e-001 57881 81560,81341,81289
 3.4000e+000 81514 -4.7345e+001 -1.6849e+002  9.8570e+000 57881 81560,81289,81263
 3.4000e+000 81491 -6.8730e+001 -1.3775e+002 -1.6233e+001 57881 81632,81419,81367
 3.4000e+000 81468 -7.4941e+001 -1.6586e+002 -5.7112e+001 57881 81367,81419,81393
 3.4000e+000 81445 -4.4019e+000 -1.3276e+002 -2.1180e+000 57881 81289,81341,81315
 3.4000e+000 81586 -2.1295e+001 -1.3173e+002 -3.7135e+001 57881 81367,81341,81560
 3.4000e+000 81609 -5.9557e+001 -1.5668e+002 -2.6095e+001 57881 81632,81367,81560
 3.4000e+000 81658 -4.7512e+001 -1.1719e+002 -6.8786e+000 57881 81263,81419,81632
 3.4000e+000 81681 -3.5197e+001 -1.3731e+002 -1.7501e+001 57881 81263,81632,81560
 3.4000e+000 81929 -7.9097e+001 -1.6530e+002  1.5622e+001 57477 81704,81808,81782
 3.4000e+000 81906 -4.1346e+001 -1.9348e+002  2.6968e+001 57477 81704,81834,81808
 3.4000e+000 81883 -7.0389e+001 -1.6066e+002  7.3054e+000 57477 81704,81782,81730
 3.4000e+000 81860 -4.4143e+001 -1.6466e+002  6.6370e+000 57477 81730,81782,81756
 3.4000e+000 82488 -4.7319e+001 -3.3344e+002  1.9306e+001 56966 82583,82511,82194
 3.4000e+000 82465 -6.2625e+001 -2.7861e+002  2.3761e+001 56966 82511,82116,82324
 3.4000e+000 82442 -7.8403e+001 -3.7491e+002  3.4683e+001 56966 82583,82194,82168
 3.4000e+000 82419 -6.8911e+000 -2.9267e+002  4.3604e+001 56966 82194,82246,82220
 3.4000e+000 82396 -7.8889e+001 -3.4905e+002 -2.1595e+001 56966 82194,82298,82246
 3.4000e+000 82373 -5.7363e+001 -3.4611e+002 -4.1915e+001 56966 82246,82298,82272
 3.4000e+000 82350 -1.0650e+002 -3.8531e+002 -5.4711e+000 56966 82116,82168,82142
 3.4000e+000 82537 -2.4746e+001 -2.9229e+002  9.9434e+000 56966 82298,82194,82511
 3.4000e+000 82560 -2.8711e+001 -2.3059e+002  4.7338e+001 56966 82298,82511,82324
 3.4000e+000 82609 -8.7393e+001 -2.8321e+002  3.1401e+000 56966 82116,82511,82583
 3.4000e+000 82632 -9.8780e+001 -3.0836e+002  1.1305e+001 56966 82116,82583,82168
 3.4000e+000 83236 -2.8141e+001 -2.1372e+002 -4.4744e+001 56304 82893,82945,82919
 3.4000e+000 83213 -6.8347e+001 -2.7263e+002  2.2597e+001 56304 83259,82945,82893
 3.4000e+000 83190 -5.5903e+001 -2.7773e+002  1.9247e+001 56304 83259,82893,83049
 3.4000e+000 83167 -8.2174e+001 -3.0779e+002  4.1980e+001 56304 82971,83049,83023
 3.4000e+000 83144 -8.7987e+001 -3.3754e+002  5.2186e+000 56304 82815,83049,82893
 3.4000e+000 83121 -1.1385e+002 -4.1718e+002  9.3134e+000 56304 82815,82893,82867
 3.4000e+000 83098 -7.7655e+001 -3.4934e+002  3.5340e+001 56304 82971,83023,82997
 3.4000e+000 83075 -1.6415e+002 -4.0863e+002 -3.7670e+001 56304 82815,82867,82841
 3.4000e+000 83285 -8.5286e+001 -2.8055e+002  3.3655e+001 56304 82971,82945,83259
 3.4000e+000 83308 -6.6897e+001 -2.7580e+002  2.6981e+001 56304 82971,83259,83049
 3.4000e+000 83556 -1.2558e+002 -2.8842e+002 -1.9153e+001 55964 83357,83461,83435
 3.4000e+000 83533 -1.1420e+002 -2.2153e+002  1.3589e+001 55964 83331,83461,83357
 3.4000e+000 83510 -4.8950e+001 -3.3213e+002  4.3369e+001 55964 83357,83435,83383
 3.4000e+000 83487 -7.0867e+001 -4.0625e+002  1.0928e+001 55964 83383,83435,83409
 3.4000e+000 83706 -4.7094e+001 -2.5787e+002  1.1599e+001 55503 83579,83631,83605
 3.4000e+000 83683 -8.3528e+001 -2.7656e+002  2.1917e+001 55503 83579,83657,83631
 3.4000e+000 83907 -4.5048e+001 -2.0516e+002  1.8198e+001 55156 83757,83835,83809
 3.4000e+000 83884 -3.7740e+001 -1.6459e+002  6.2678e+001 55156 83731,83835,83757
 3.4000e+000 83861 -6.0377e+001 -1.5140e+002  2.9959e+001 55156 83757,83809,83783
 3.4000e+000 84240 -5.9472e+001 -2.4279e+002  9.7674e+000 54652 84093,84145,84119
 3.4000e+000 84217 -4.2205e+001 -1.6360e+002  3.7300e+000 54652 84041,84145,84093
 3.4000e+000 84194 -3.0678e+001 -2.2618e+002  4.3020e+001 54652 84015,84145,84041
 3.4000e+000 84171 -6.1096e+000 -1.4554e+002  1.4912e+001 54652 84041,84093,84067
 3.4000e+000 84618 -8.4286e+001 -2.3081e+002  1.7165e+001 53926 84396,84500,84474
 3.4000e+000 84595 -1.2809e+002 -3.1903e+002 -6.8809e-001 53926 84344,84500,84396
 3.4000e+000 84572 -8.7844e+001 -2.2243e+002 -1.6433e+000 53926 84344,84396,84370
 3.4000e+000 84549 -9.0516e+001 -2.3262e+002  1.4956e+001 53926 84396,84474,84422
 3.4000e+000 84526 -1.3487e+002 -2.0982e+002  7.7484e+000 53926 84422,84474,84448
 3.4000e+000 85350 -1.2259e+002 -3.1396e+002 -3.6102e+001 53586 85373,84880,85088
 3.4000e+000 85327 -1.2330e+002 -3.5719e+002 -1.6272e+001 53586 84880,85114,85088
 3.4000e+000 85304 -1.2506e+002 -2.8530e+002  4.0083e+001 53586 85373,85088,85062
 3.4000e+000 85281 -1.1446e+002 -1.6088e+002 -5.4433e+001 53586 85010,85062,85036
 3.4000e+000 85258 -8.6646e+001 -2.0968e+002 -1.6738e+001 53586 85445,85010,84958
 3.4000e+000 85235 -4.4340e+001 -1.7723e+002  1.7477e+001 53586 85445,84958,84906
 3.4000e+000 85212 -4.0853e+001 -1.8886e+002 -3.3902e+001 53586 84958,85010,84984
 3.4000e+000 85189 -5.0615e+001 -3.3608e+002  3.1568e+001 53586 84906,84958,84932
 3.4000e+000 85166 -8.4610e+001 -2.2886e+002 -8.8092e+001 53586 84880,85140,85114
 3.4000e+000 85399 -8.8922e+001 -2.0996e+002 -1.5123e+001 53586 84906,84880,85373
 3.4000e+000 85422 -9.0262e+001 -2.0370e+002  3.3968e+001 53586 85517,85373,85062
 3.4000e+000 85471 -4.5601e+001 -1.1418e+002 -2.9136e+001 53586 85062,85010,85445
 3.4000e+000 85494 -8.4119e+001 -1.6004e+002  2.6137e+001 53586 85517,85062,85445
 3.4000e+000 85543 -7.3890e+001 -2.7181e+002  3.2141e+001 53586 84906,85373,85517
 3.4000e+000 85566 -7.5187e+001 -2.3605e+002  3.0374e+001 53586 84906,85517,85445
 3.4000e+000 86072 -3.1605e+001 -2.5189e+002  1.0593e+001 53182 86095,85853,85775
 3.4000e+000 86049 -6.3167e+001 -1.9039e+002  2.3968e+001 53182 86095,85775,85931
 3.4000e+000 86026 -4.4430e+001 -2.4332e+002  9.2732e+001 53182 86167,85879,85853
 3.4000e+000 86003 -1.4318e+001 -2.6485e+002 -3.0351e+001 53182 85775,85827,85801
 3.4000e+000 85980 -8.7199e+001 -3.1472e+002 -5.4709e+001 53182 85775,85853,85827
 3.4000e+000 85957 -6.8942e+001 -1.9300e+002  2.4395e+001 53182 85749,85931,85775
 3.4000e+000 86121 -2.6667e+001 -2.0707e+002  3.1016e+001 53182 86167,85853,86095
 3.4000e+000 86144 -1.2963e+002 -2.5751e+002 -2.7474e+000 53182 85905,86095,85931
 3.4000e+000 86193 -5.8666e+001 -2.7852e+002  9.3670e+001 53182 85905,85879,86167
 3.4000e+000 86216 -7.6465e+001 -3.2473e+002  3.0320e+001 53182 85905,86167,86095
 3.4000e+000 86673 -4.5085e+001 -2.1546e+002 -5.8437e+001 52778 86477,86529,86503
 3.4000e+000 86650 -8.2022e+001 -2.3500e+002 -1.9921e+001 52778 86425,86529,86477
 3.4000e+000 86627 -3.2079e+001 -2.0800e+002 -3.0213e+001 52778 86425,86477,86451
 3.4000e+000 86604 -1.1859e+002 -1.7325e+002 -1.6388e+001 52778 86399,86529,86425
 3.4000e+000 86581 -1.6786e+002 -2.1523e+002  2.5082e+001 52778 86399,86555,86529
 3.4000e+000 87258 -7.1557e+001 -4.5044e+002 -7.8645e+001 52238 87281,86987,86961
 3.4000e+000 87235 -3.6926e+001 -3.4589e+002  2.8015e+001 52238 87281,86961,87117
 3.4000e+000 87212 -4.6194e+001 -1.7732e+002  1.8601e+001 52238 86935,87117,86961
 3.4000e+000 87189  7.5005e+000 -2.0006e+002  3.1140e+001 52238 87065,87117,87091
 3.4000e+000 87166 -5.9908e+001 -1.8492e+002 -4.3565e+001 52238 86987,87065,87039
 3.4000e+000 87143 -1.2485e+002 -1.2183e+002 -1.0795e+002 52238 86987,87039,87013
 3.4000e+000 87307  9.0098e+000 -2.6103e+002 -5.9718e+001 52238 87065,86987,87281
 3.4000e+000 87330 -1.2714e+001 -2.8300e+002  4.7500e+001 52238 87065,87281,87117
 3.4000e+000 87610 -4.4845e+001 -1.9264e+002  2.4352e+000 51834 87434,87512,87460
 3.4000e+000 87587 -5.1799e+001 -1.8296e+002  3.1704e+001 51834 87434,87538,87512
 3.4000e+000 87564 -3.3900e+001 -5.5900e+001  1.0719e+001 51834 87633,87460,87512
 3.4000e+000 87659  5.2636e-001 -4.1154e+001  1.2208e+001 51834 87486,87460,87633
 3.4000e+000 88187 -8.0752e+001 -3.3477e+002 -2.4517e+001 51266 87864,87942,87890
 3.4000e+000 88164 -2.3518e+001 -2.0618e+002 -2.4558e+000 51266 87864,88020,87942
 3.4000e+000 88141 -3.7567e+001 -2.0747e+002  5.9076e+000 51266 87942,88020,87968
 3.4000e+000 88118 -5.4564e+001 -3.5803e+002 -1.5630e+001 51266 87864,88046,88020
 3.4000e+000 88095 -2.7645e+001 -1.8011e+002  1.1111e+001 51266 87968,88020,87994
 3.4000e+000 88072 -2.6095e+001 -3.3232e+002 -6.7557e+001 51266 87890,87942,87916
 3.4000e+000 88644 -1.4262e+002 -1.6623e+002 -1.2197e+001 50754 88370,88500,88396
 3.4000e+000 88621 -1.4477e+002 -2.7633e+002  1.2713e+001 50754 88370,88526,88500
 3.4000e+000 88598 -1.1313e+002 -2.5433e+002 -1.6015e+002 50754 88396,88500,88422
 3.4000e+000 88575 -1.4068e+002 -3.9665e+002 -1.3598e+002 50754 88422,88500,88474
 3.4000e+000 88552 -1.0617e+002 -2.8068e+002  1.0403e+002 50754 88422,88474,88448
 3.4000e+000 88914 -2.8739e+001 -1.6282e+002  8.2053e+000 50442 88715,88793,88741
 3.4000e+000 88891 -1.7214e+001 -1.9883e+002  1.2282e+001 50442 88715,88819,88793
 3.4000e+000 88868 -2.7043e+000 -2.1891e+002  3.7654e+000 50442 88689,88819,88715
 3.4000e+000 88845 -4.5516e+001 -1.5754e+002  3.4839e+001 50442 88741,88793,88767
 3.4000e+000 89294 -2.1064e+001 -2.4038e+002  9.3323e+000 49938 89317,89046,89020
 3.4000e+000 89271 -2.0550e+001 -2.4572e+002  8.7954e+000 49938 89317,89020,89150
 3.4000e+000 89248 -8.1697e+001 -2.4239e+002 -1.8754e+000 49938 89072,89150,89098
 3.4000e+000 89225 -3.1217e+001 -2.8202e+002  4.8147e+001 49938 89020,89176,89150
 3.4000e+000 89202 -6.6773e+001 -2.1243e+002 -7.6014e+000 49938 89098,89150,89124
 3.4000e+000 89343 -8.2090e+000 -1.9262e+002  1.3593e+001 49938 89072,89046,89317
 3.4000e+000 89366 -2.8198e+001 -2.4022e+002  1.3355e+001 49938 89072,89317,89150
 3.4000e+000 89823 -9.0060e+000 -1.1869e+002  4.4789e+000 49384 89601,89705,89679
 3.4000e+000 89800 -2.7421e+001 -1.0436e+002 -2.4548e+001 49384 89549,89705,89601
 3.4000e+000 89777 -1.1888e+001 -1.7626e+002 -2.2130e+001 49384 89549,89601,89575
 3.4000e+000 89754 -7.4666e+001 -9.7304e+001  1.1381e+001 49384 89601,89679,89627
 3.4000e+000 89731 -8.9082e+001 -1.1349e+002  3.0731e+001 49384 89627,89679,89653
 3.4000e+000 90329 -9.4407e+000 -1.6638e+002 -1.7138e+001 48894 90058,90110,90084
 3.4000e+000 90306 -4.9439e+001 -1.8451e+002 -4.3488e+001 48894 90058,90162,90110
 3.4000e+000 90283 -7.2057e+001 -2.1241e+002 -5.3263e+001 48894 90032,90162,90058
 3.4000e+000 90260 -5.9881e+001 -2.1639e+002 -2.8172e+001 48894 90006,90162,90032
 3.4000e+000 90237 -7.0843e+001 -2.9428e+002 -4.2183e+001 48894 90110,90162,90136
 3.4000e+000 90214 -4.1451e+001 -2.0858e+002 -2.9071e+001 48894 90006,90188,90162
 3.4000e+000 90884 -1.2156e+001 -1.7538e+002 -1.5377e+001 48490 90564,90642,90616
 3.4000e+000 90861 -4.8793e+001 -1.7565e+002 -1.8295e+001 48490 90564,90694,90642
 3.4000e+000 90838 -1.2371e+001 -1.5667e+002 -1.1171e+001 48490 90538,90694,90564
 3.4000e+000 90815 -2.2130e+001 -1.6005e+002 -1.0104e+001 48490 90538,90720,90694
 3.4000e+000 90792  7.1535e+000 -1.0883e+002  1.9928e+000 48490 90564,90616,90590
 3.4000e+000 90769 -5.9499e+001 -2.5460e+002 -8.1152e+001 48490 90642,90694,90668
 3.4000e+000 90746 -1.4827e+000 -1.3192e+002  2.5519e+001 48490 90512,90720,90538
 3.4000e+000 91034 -9.5853e+000 -1.6288e+002  3.4357e+001 48086 91057,90959,90933
 3.4000e+000 91011 -2.9233e+000 -1.3410e+002  2.8699e+001 48086 91129,91057,90933
 3.4000e+000 91083  3.8144e+000 -1.4777e+002  2.6086e+001 48086 90985,90959,91057
 3.4000e+000 91106 -1.2907e+001 -1.3345e+002  1.7993e+001 48086 90985,91057,90907
 3.4000e+000 91155 -3.2428e+001 -1.4825e+002  2.4460e+001 48086 90907,91057,91129
 3.4000e+000 91791 -3.6893e+001 -1.5337e+002  9.0813e+001 47518 92030,91814,91523
 3.4000e+000 91768 -6.1424e+001 -2.0137e+002  4.4070e+001 47518 91958,91814,91471
 3.4000e+000 91745 -6.8535e+001 -2.8354e+002  2.9825e+001 47518 91886,91575,91523
 3.4000e+000 91722 -5.5025e+001 -1.3745e+002  1.8604e+000 47518 91958,91471,91419
 3.4000e+000 91699 -3.5155e+001 -1.7411e+002  1.0112e+002 47518 92030,91523,91497
 3.4000e+000 91676 -1.1028e+002 -2.3889e+002  2.8597e+001 47518 91523,91575,91549
 3.4000e+000 91653 -5.7744e+001 -8.5271e+001  1.2329e+000 47518 91419,91471,91445
 3.4000e+000 91840 -3.7631e+001 -2.2978e+002  8.8498e+001 47518 91886,91523,91814
 3.4000e+000 91863 -2.9856e+001 -1.5612e+002  3.6687e+001 47518 91601,91814,91627
 3.4000e+000 91912 -1.3233e+002 -3.1847e+002 -4.9333e+001 47518 91601,91575,91886
 3.4000e+000 91935 -1.1373e+002 -2.0546e+002  1.1035e+001 47518 91601,91886,91814
 3.4000e+000 91984 -1.0434e+001 -1.4676e+002  1.9333e+001 47518 91627,91814,91958
 3.4000e+000 92007 -3.4479e+001 -1.1160e+002 -1.6240e+001 47518 91627,91958,91419
 3.4000e+000 92056 -2.9428e+001 -1.3534e+002  8.9513e+001 47518 91471,91814,92030
 3.4000e+000 92079 -2.3531e+001 -1.4751e+002  9.9521e+001 47518 91471,92030,91497
 3.4000e+000 92229  9.0922e-001 -3.0270e+000  2.4103e+000 47128 92252,92128,92102
 3.4000e+000 92206  3.1973e+000 -6.1623e+000 -6.7973e-001 47128 92324,92252,92102
 3.4000e+000 92278  1.8502e+000  6.7056e+000  5.7015e+000 47128 92454,92252,92154
 3.4000e+000 92301  1.8589e+000 -6.0956e+000  2.1051e+000 47128 92154,92252,92180
 3.4000e+000 92350 -6.6666e+000 -1.0295e+001 -3.5873e+000 47128 92180,92252,92324
 3.4000e+000 92480  1.2534e+000 -2.4364e+000  3.9547e+000 47128 92128,92252,92454
 3.4000e+000 93340 -7.1341e+001 -2.1535e+002 -1.9999e+001 46838 93363,92977,92873
 3.4000e+000 93317 -6.1602e+001 -2.1295e+002 -1.1630e+001 46838 93507,93363,92873
 3.4000e+000 93294 -3.0695e+001 -1.9496e+002  9.3384e+000 46838 93435,93003,92977
 3.4000e+000 93271 -1.1758e+002 -2.1895e+002 -1.1571e+001 46838 93507,92873,92847
 3.4000e+000 93248 -2.4257e+001 -2.0319e+002 -5.1915e+000 46838 93579,93029,93003
 3.4000e+000 93225 -9.6401e+001 -3.5529e+002  6.0548e+001 46838 92873,92951,92925
 3.4000e+000 93202 -1.1289e+002 -2.5631e+002 -1.5755e+000 46838 92873,92977,92951
 3.4000e+000 93179 -1.0925e+001 -2.0283e+002  9.7286e+000 46838 93055,93107,93081
 3.4000e+000 93156 -2.1788e+001 -1.2262e+002  3.7515e+001 46838 92821,93107,92847
 3.4000e+000 93133 -7.5106e+001 -2.3232e+002  4.3089e+001 46838 92873,92925,92899
 3.4000e+000 93389 -4.5571e+001 -2.0619e+002  4.3955e+000 46838 93435,92977,93363
 3.4000e+000 93412  6.3133e-002 -2.1569e+002  8.3161e+000 46838 93055,93363,93107
 3.4000e+000 93461 -2.5212e+001 -2.0923e+002 -3.9590e+000 46838 93579,93003,93435
 3.4000e+000 93484 -3.0086e+001 -2.2956e+002  7.9140e-001 46838 93055,93435,93363
 3.4000e+000 93533 -2.0386e+001 -2.1860e+002 -2.2890e+001 46838 93107,93363,93507
 3.4000e+000 93556 -4.0599e+001 -1.9869e+002 -2.2590e+001 46838 93107,93507,92847
 3.4000e+000 93605 -2.5606e+001 -2.0731e+002  3.8869e+000 46838 93055,93029,93579
 3.4000e+000 93628 -2.5837e+001 -2.1216e+002  5.1383e+000 46838 93055,93579,93435
 3.4000e+000 93979 -5.3830e+001 -1.7369e+002  3.3609e-001 46476 93780,93884,93858
 3.4000e+000 93956 -5.5702e+001 -1.9623e+002  2.2075e+000 46476 93754,93884,93780
 3.4000e+000 93933 -1.1158e+000 -1.1206e+002 -9.3584e-001 46476 93806,93858,93832
 3.4000e+000 93910 -2.0244e+001 -1.5750e+002 -4.9773e+000 46476 93780,93858,93806
 3.4000e+000 94515  9.1266e-002 -1.2984e+002 -1.3477e+000 46072 94345,94397,94371
 3.4000e+000 94492 -1.0636e+002 -1.8164e+002  3.4632e+001 46072 94267,94397,94345
 3.4000e+000 94469 -8.0967e+001 -2.0257e+002  1.7049e+001 46072 94241,94397,94267
 3.4000e+000 94446 -6.0779e+001 -8.7394e+001  2.9399e+001 46072 94293,94345,94319
 3.4000e+000 94423 -8.7904e+001 -1.2209e+002  4.3024e+001 46072 94267,94345,94293
 3.4000e+000 95149 -9.2700e+001 -2.8697e+002  6.2269e+000 45346 94803,94881,94855
 3.4000e+000 95126 -8.7887e+001 -2.4717e+002 -1.4583e+001 45346 94803,94959,94881
 3.4000e+000 95103 -5.0118e+001 -2.5811e+002 -5.7057e+001 45346 95172,94933,94907
 3.4000e+000 95080 -9.9908e+001 -4.5467e+002 -3.6794e+001 45346 95172,94907,94881
 3.4000e+000 95057 -1.2143e+002 -2.3515e+002 -7.1570e+000 45346 94803,94985,94959
 3.4000e+000 95034 -8.0772e+001 -3.3493e+002 -8.9783e+000 45346 94803,94855,94829
 3.4000e+000 95011 -1.3051e+002 -2.4442e+002  2.1512e+001 45346 94777,94985,94803
 3.4000e+000 95198 -1.1125e+002 -1.6480e+002 -3.6008e+001 45346 94959,94933,95172
 3.4000e+000 95221 -9.6482e+001 -2.7339e+002 -3.2084e+001 45346 94959,95172,94881
 3.4000e+000 95776 -5.3920e+001 -2.9670e+002 -9.0076e+000 44720 95799,95560,95534
 3.4000e+000 95753 -2.3169e+001 -1.7996e+002 -3.4619e+001 44720 95799,95534,95482
 3.4000e+000 95730 -8.1761e+000 -3.2268e+002 -3.5093e+001 44720 95943,95871,95430
 3.4000e+000 95707 -2.0862e+001 -2.5009e+002 -1.8975e+001 44720 95943,95430,95404
 3.4000e+000 95684 -1.3015e+002 -2.1881e+002 -8.6344e+001 44720 95430,95482,95456
 3.4000e+000 95661 -6.2334e+001 -1.6392e+002  4.3884e+001 44720 95482,95534,95508
 3.4000e+000 95638 -9.8348e+000 -1.4434e+002 -4.7523e+001 44720 95404,95612,95586
 3.4000e+000 95825 -2.4859e+001 -4.1003e+002 -5.5354e+001 44720 95586,95560,95799
 3.4000e+000 95848  1.0764e+001 -2.9378e+002 -3.6956e+001 44720 95871,95586,95799
 3.4000e+000 95897 -1.3878e+001 -3.3652e+002 -5.7211e+001 44720 95482,95430,95871
 3.4000e+000 95920 -1.0693e+001 -3.0799e+002 -2.6795e+001 44720 95482,95871,95799
 3.4000e+000 95969  1.3180e+001 -2.2293e+002 -4.0980e+001 44720 95586,95871,95943
 3.4000e+000 95992 -1.2728e+001 -1.7709e+002 -1.1640e+001 44720 95586,95943,95404
 3.4000e+000 96449 -6.1157e+001 -2.7980e+002  1.3686e-001 44202 96544,96472,96227
 3.4000e+000 96426 -6.4635e+001 -2.7914e+002  4.0301e+001 44202 96472,96175,96331
 3.4000e+000 96403 -4.9554e+001 -2.9151e+002  2.7168e+000 44202 96544,96227,96201
 3.4000e+000 96380 -7.8623e+001 -3.5740e+002 -6.2835e+001 44202 96253,96305,96279
 3.4000e+000 96357 -1.1512e+002 -2.6773e+002 -3.0586e+001 44202 96227,96305,96253
 3.4000e+000 96498 -5.0611e+001 -2.4895e+002  1.0009e+000 44202 96305,96227,96472
 3.4000e+000 96521 -3.9757e+001 -2.2378e+002  4.5890e+001 44202 96305,96472,96331
 3.4000e+000 96570 -5.3761e+001 -2.5766e+002  5.7009e+000 44202 96175,96472,96544
 3.4000e+000 96593 -4.9158e+001 -2.7798e+002  6.9569e+000 44202 96175,96544,96201
 3.4000e+000 96971 -3.1387e+001 -1.7639e+002 -4.1382e+001 43754 96994,96749,96697
 3.4000e+000 96948 -4.3676e+000 -2.0022e+002 -2.2253e+001 43754 96994,96697,96853
 3.4000e+000 96925 -6.6924e+001 -1.5512e+002 -2.0610e+001 43754 96697,96749,96723
 3.4000e+000 96902 -3.0327e+001 -2.2238e+002  1.5689e+001 43754 96775,96853,96827
 3.4000e+000 96879  4.0962e+000 -2.8015e+002  4.1446e+000 43754 96775,96827,96801
 3.4000e+000 97020 -1.2032e+001 -1.4031e+002 -3.1172e+001 43754 96775,96749,96994
 3.4000e+000 97043  1.0520e+001 -1.7896e+002 -1.4540e+001 43754 96775,96994,96853
 3.4000e+000 97291 -4.7548e+001 -2.5539e+002 -3.8262e+001 43364 97314,97144,97118
 3.4000e+000 97268 -3.9768e+001 -2.0920e+002 -1.7922e+001 43364 97314,97118,97092
 3.4000e+000 97245 -3.5804e+001 -1.9415e+002  1.4701e+001 43364 97386,97196,97170
 3.4000e+000 97222 -5.7570e+001 -1.6578e+002  3.5886e+001 43364 97066,97196,97092
 3.4000e+000 97340 -3.3632e+001 -1.7808e+002 -4.7279e+001 43364 97170,97144,97314
 3.4000e+000 97363 -4.2347e+001 -1.6755e+002 -5.7874e+000 43364 97386,97170,97314
 3.4000e+000 97412 -4.9066e+001 -2.2448e+002  1.1314e+001 43364 97092,97196,97386
 3.4000e+000 97435 -6.5629e+001 -2.1793e+002 -1.2233e+001 43364 97092,97386,97314
 3.4000e+000 97788 -1.3196e+001 -1.4724e+002  1.5333e+001 42960 97563,97667,97589
 3.4000e+000 97765 -4.8787e+001 -1.3878e+002  1.6942e+001 42960 97563,97693,97667
 3.4000e+000 97742  8.1094e+000 -2.0653e+001  6.2437e+000 42960 97589,97641,97615
 3.4000e+000 97719 -1.0725e+001 -1.5999e+002  6.7364e+000 42960 97589,97667,97641
 3.4000e+000 98215 -2.9117e+000 -1.5481e+002 -7.9131e+000 42563 97918,98074,98048
 3.4000e+000 98192 -4.3627e+001 -1.1255e+002  3.7538e+001 42563 97892,98074,97918
 3.4000e+000 98169 -4.2644e+001 -2.7051e+002  1.5311e+001 42563 98238,97944,97918
 3.4000e+000 98146 -3.7383e+001 -2.5642e+002  2.7373e+001 42563 98238,97918,98048
 3.4000e+000 98123 -4.5433e+001 -1.6977e+002  7.4779e+000 42563 97944,98022,97996
 3.4000e+000 98100 -8.6165e+001 -2.4590e+002  3.6412e+001 42563 97944,97996,97970
 3.4000e+000 98264 -5.4389e+001 -2.6614e+002  8.0263e+000 42563 98022,97944,98238
 3.4000e+000 98287 -5.1142e+001 -2.6189e+002  1.8574e+001 42563 98022,98238,98048
 3.4000e+000 98616 -5.1598e+001 -1.5244e+002 -1.5577e+001 42251 98443,98521,98469
 3.4000e+000 98593 -6.0377e+001 -1.5764e+002 -1.0700e+001 42251 98417,98521,98443
 3.4000e+000 98570 -7.3273e+001 -1.9043e+002 -2.8816e+001 42251 98391,98521,98417
 3.4000e+000 98547 -4.7841e+000 -1.2802e+002 -2.5634e+001 42251 98469,98521,98495
 3.4000e+000 98886 -1.3503e+001 -2.2731e+002  1.3686e+001 41847 98661,98765,98687
 3.4000e+000 98863 -2.8139e+001 -1.2487e+002 -6.0146e+001 41847 98661,98791,98765
 3.4000e+000 98840 -3.7229e+001 -1.5992e+002  4.1948e+000 41847 98687,98765,98739
 3.4000e+000 98817 -1.2709e+001 -1.3721e+002 -1.5067e+001 41847 98687,98739,98713
 3.4000e+000 99394 -3.3793e+001 -1.7562e+002 -1.6316e+001 41236 99417,99149,99123
 3.4000e+000 99371 -1.2121e+002 -1.9571e+002 -1.0541e+001 41236 99417,99123,99097
 3.4000e+000 99348 -8.9936e+001 -1.3765e+002 -6.8752e+001 41236 99489,99201,99149
 3.4000e+000 99325 -1.5454e+001 -8.6870e+001 -3.3185e+001 41236 99149,99201,99175
 3.4000e+000 99302 -4.3283e+001 -2.4874e+002 -3.0602e+000 41236 99097,99253,99227
 3.4000e+000 99279 -1.4915e+002 -3.4316e+002 -4.8440e+001 41236 99071,99253,99097
 3.4000e+000 99443 -4.9433e+001 -1.5823e+002 -6.4225e+001 41236 99489,99149,99417
 3.4000e+000 99466 -8.8602e+001 -1.9181e+002 -4.2602e+001 41236 99227,99417,99097
 3.4000e+000 99515 -1.0916e+002 -1.5815e+002 -5.8315e+001 41236 99227,99201,99489
 3.4000e+000 99538 -9.3383e+001 -1.9823e+002 -4.5994e+001 41236 99227,99489,99417
 3.4000e+000 100044  1.2941e+001 -5.2710e+002 -9.0453e-001 40732 99721,99773,99747
 3.4000e+000 100021 -3.6397e+001 -4.0199e+002 -2.9781e+001 40732 99721,99799,99773
 3.4000e+000 99998 -4.8141e+001 -2.5951e+002 -1.6702e+001 40732 99721,99903,99799
 3.4000e+000 99975 -4.9697e+001 -2.2539e+002 -1.2027e+001 40732 100067,99877,99851
 3.4000e+000 99952 -5.4123e+001 -1.8740e+002 -5.0138e+000 40732 100067,99851,99799
 3.4000e+000 99929 -4.0149e+001 -1.7173e+002 -1.8522e+001 40732 99799,99851,99825
 3.4000e+000 100093 -4.8858e+001 -2.5606e+002 -2.5753e+001 40732 99903,99877,100067
 3.4000e+000 100116 -5.0055e+001 -2.0995e+002 -2.1593e+001 40732 99903,100067,99799
 3.4000e+000 100622 -2.5674e+001 -2.1652e+002 -1.6919e+001 40278 100645,100455,100429
 3.4000e+000 100599 -8.0253e+001 -1.6854e+002 -3.2036e+001 40278 100717,100645,100429
 3.4000e+000 100576 -8.0603e+001 -1.6863e+002  1.3240e+001 40278 100717,100429,100377
 3.4000e+000 100553 -5.4428e+001 -3.0517e+002 -8.2564e+000 40278 100789,100325,100481
 3.4000e+000 100530 -8.7268e+001 -1.8126e+002  3.3436e+001 40278 100299,100481,100325
 3.4000e+000 100507 -9.0171e+001 -2.1919e+002 -1.0779e+001 40278 100377,100429,100403
 3.4000e+000 100671 -3.3825e+001 -2.4414e+002 -2.6473e+001 40278 100481,100455,100645
 3.4000e+000 100694 -4.8908e+001 -2.5833e+002 -1.4075e+001 40278 100789,100481,100645
 3.4000e+000 100743 -5.4231e+001 -9.6649e+001 -4.9409e+001 40278 100351,100645,100717
 3.4000e+000 100766 -7.3376e+001 -1.1357e+002 -3.8627e-001 40278 100351,100717,100377
 3.4000e+000 100815 -8.0248e+001 -3.1111e+002 -9.0116e+001 40278 100351,100325,100789
 3.4000e+000 100838 -4.3162e+001 -2.0337e+002 -9.1378e+001 40278 100351,100789,100645
 3.4000e+000 101265 -2.1493e+001 -2.3726e+002  2.3222e+001 39824 101288,101046,100994
 3.4000e+000 101242 -3.9255e+001 -2.1421e+002  1.1267e+001 39824 101288,100994,100968
 3.4000e+000 101219 -3.7196e+001 -2.1935e+002 -4.8885e+000 39824 100942,101124,100968
 3.4000e+000 101196 -7.7459e+001 -4.1001e+002  2.2043e+001 39824 101046,101124,101072
 3.4000e+000 101173 -1.0194e+001 -2.2075e+002  4.4481e+001 39824 100994,101046,101020
 3.4000e+000 101150 -9.5742e+001 -3.1205e+002 -2.4941e+001 39824 101072,101124,101098
 3.4000e+000 101314 -7.6369e+000 -2.2231e+002  1.5332e+001 39824 101124,101046,101288
 3.4000e+000 101337 -2.1470e+001 -2.0373e+002  2.0878e+000 39824 101124,101288,100968
 3.4000e+000 101585 -2.0054e+000 -1.5565e+002 -3.2572e+001 39070 101608,101464,101412
 3.4000e+000 101562  5.3848e+001 -1.7578e+002  1.3048e+001 39070 101608,101412,101360
 3.4000e+000 101539 -1.3931e+001 -1.2926e+002 -7.3989e+000 39070 101412,101464,101438
 3.4000e+000 101516  2.2931e+001 -1.4091e+002  3.4038e+001 39070 101360,101412,101386
 3.4000e+000 101634 -4.3208e+001 -1.6963e+002 -3.5492e+001 39070 101490,101464,101608
 3.4000e+000 101657 -5.9999e+000 -1.9769e+002  1.5573e+001 39070 101490,101608,101360
 3.4000e+000 101856 -2.1370e+001 -1.3638e+002 -3.8988e+000 38730 101706,101758,101732
 3.4000e+000 101833 -9.9377e+000 -1.4861e+002 -2.2423e-001 38730 101706,101784,101758
 3.4000e+000 101810 -4.3001e+001 -1.6630e+002 -6.8613e+000 38730 101680,101784,101706
 3.4000e+000 102106 -1.0805e+002 -2.5959e+002 -1.2452e+001 38326 101881,101959,101907
 3.4000e+000 102083 -8.1851e+001 -1.9511e+002 -1.4400e+001 38326 101881,101985,101959
 3.4000e+000 102060 -6.2173e+001 -2.6998e+002  2.8814e+001 38326 101881,102011,101985
 3.4000e+000 102037 -5.0513e+001 -1.5982e+002 -6.6113e+001 38326 101907,101959,101933
 3.4000e+000 102258  4.4462e+001 -1.9885e+002  1.5306e+001 38036 102281,102157,102131
 3.4000e+000 102235  6.6936e+000 -2.4928e+002  3.8992e+001 38036 102281,102131,102209
 3.4000e+000 102307 -1.7687e+001 -1.4323e+002  1.2907e+001 38036 102183,102157,102281
 3.4000e+000 102330 -5.7456e+001 -1.8487e+002  4.0316e+001 38036 102183,102281,102209
 3.4000e+000 102663 -2.2021e+001 -1.0452e+002  5.8206e+000 37596 102438,102542,102464
 3.4000e+000 102640  8.6090e+000 -9.4552e+001 -9.1219e-001 37596 102438,102568,102542
 3.4000e+000 102617 -1.1865e+001 -1.5010e+002 -3.0720e+001 37596 102490,102542,102516
 3.4000e+000 102594 -2.8015e+001 -1.1168e+002  3.2514e+000 37596 102464,102542,102490
 3.4000e+000 102862 -4.5185e+001 -2.0237e+002 -2.1235e+001 37192 102686,102764,102712
 3.4000e+000 102839 -2.9449e+001 -1.8805e+002 -3.6974e+001 37192 102686,102790,102764
 3.4000e+000 102816 -5.9760e+001 -1.8142e+002 -3.0661e+001 37192 102712,102764,102738
 3.4000e+000 103110 -2.3066e+001 -1.3329e+002 -5.6529e+001 36609 102911,102963,102937
 3.4000e+000 103087 -2.5764e+001 -1.8572e+002 -1.5295e+001 36609 102911,102989,102963
 3.4000e+000 103064 -2.4860e+000 -1.8894e+002 -1.8574e+001 36609 102885,102989,102911
 3.4000e+000 103041 -4.0245e+001 -1.3637e+002 -5.2113e+001 36609 102885,103015,102989
 3.4000e+000 103718  3.3919e+001 -4.8592e+002  4.5574e+001 36131 103323,103375,103349
 3.4000e+000 103695 -9.0180e+001 -2.5949e+002 -1.7702e+001 36131 103297,103375,103323
 3.4000e+000 103672 -3.5618e+001 -1.5072e+002 -4.5183e+001 36131 103297,103505,103375
 3.4000e+000 103649 -1.1646e+002 -2.5964e+002  2.9159e+001 36131 103741,103479,103401
 3.4000e+000 103626 -7.0117e+001 -1.5125e+002  2.6642e+001 36131 103741,103401,103375
 3.4000e+000 103603 -1.3637e+002 -2.9239e+002  2.0129e+001 36131 103401,103479,103427
 3.4000e+000 103580 -7.7932e+001 -2.0983e+002 -5.0519e+000 36131 103297,103531,103505
 3.4000e+000 103557 -1.0190e+002 -2.5988e+002 -4.2686e+001 36131 103427,103479,103453
 3.4000e+000 103767 -8.5408e+001 -3.2872e+002 -5.4223e+001 36131 103505,103479,103741
 3.4000e+000 103790 -4.4907e+001 -2.3346e+002 -5.3934e+001 36131 103505,103741,103375
 3.4000e+000 103989 -1.4827e+002 -2.9121e+002  2.0537e+001 35791 103839,103917,103891
 3.4000e+000 103966 -2.1703e+002 -3.5006e+002 -4.8157e+000 35791 103813,103917,103839
 3.4000e+000 103943 -2.5473e+001 -2.1124e+002 -1.4354e+001 35791 103839,103891,103865
 3.4000e+000 104188 -1.3449e+001 -1.6952e+002  2.8983e+000 35444 104038,104090,104064
 3.4000e+000 104165 -8.1335e+001 -2.1668e+002 -2.8723e+001 35444 104038,104116,104090
 3.4000e+000 104142 -1.3724e+001 -2.0876e+002 -8.4164e+000 35444 104012,104116,104038
 3.4000e+000 104487 -1.6091e+001 -2.1944e+002 -5.6510e+001 34990 104265,104317,104291
 3.4000e+000 104464 -2.7682e+001 -2.6490e+002 -3.9080e+000 34990 104510,104317,104265
 3.4000e+000 104441 -5.0026e+001 -1.7787e+002  2.3779e+001 34990 104510,104265,104213
 3.4000e+000 104418  5.8528e-002 -1.8066e+002 -2.4090e+001 34990 104582,104343,104317
 3.4000e+000 104395 -3.7115e+001 -1.6725e+002 -5.4919e+001 34990 104213,104265,104239
 3.4000e+000 104536  2.6765e+000 -1.7798e+002 -1.1927e+001 34990 104582,104317,104510
 3.4000e+000 104559 -5.1472e+001 -1.4073e+002  1.8575e+001 34990 104369,104510,104213
 3.4000e+000 104608 -2.1013e+001 -1.3543e+002 -7.2280e+000 34990 104369,104343,104582
 3.4000e+000 104631 -3.3627e+001 -1.9446e+002  1.1403e+001 34990 104369,104582,104510
 3.4000e+000 104783  3.0670e+001 -9.3421e+001 -6.8514e+000 34700 104938,104806,104682
 3.4000e+000 104760  6.6366e+000 -1.5165e+002 -9.8534e+000 34700 104938,104682,104656
 3.4000e+000 104832  1.3096e+001 -1.6170e+002 -2.5767e+001 34700 104708,104682,104806
 3.4000e+000 104964  2.6382e+001 -7.2542e+001  4.2967e+001 34700 104734,104806,104938
 3.4000e+000 104987  7.7395e+000 -1.1761e+002  4.0925e+001 34700 104734,104938,104656
 3.4000e+000 105137 -1.2412e+000 -1.3040e+002  9.3879e+000 34388 105036,105088,105062
 3.4000e+000 105114 -1.2329e+001 -2.1143e+002 -6.9543e+000 34388 105010,105088,105036
 3.4000e+000 105385 -4.6212e+001 -1.6114e+002 -3.9797e+001 33734 105408,105186,105160
 3.4000e+000 105362 -4.6627e+001 -1.7155e+002 -4.1837e+001 33734 105408,105160,105264
 3.4000e+000 105339 -9.9332e+001 -2.1673e+002 -2.2642e+001 33734 105160,105290,105264
 3.4000e+000 105316 -6.4065e+000 -1.3615e+002 -2.3257e+001 33734 105186,105238,105212
 3.4000e+000 105434 -4.7005e+001 -1.4866e+002 -3.0160e+001 33734 105238,105186,105408
 3.4000e+000 105457 -5.2415e+001 -1.7295e+002 -2.7633e+001 33734 105238,105408,105264
 3.4000e+000 105609 -3.1543e+001 -1.8134e+002  1.2247e+001 33394 105482,105534,105508
 3.4000e+000 105586 -1.4321e+001 -1.9585e+002  2.7896e+001 33394 105482,105560,105534
 3.4000e+000 105859 -6.3779e+001 -3.2678e+002 -5.9906e+001 33047 105882,105712,105660
 3.4000e+000 105836 -1.6309e+001 -2.8011e+002 -2.0574e+001 33047 105882,105660,105634
 3.4000e+000 105813 -1.2880e+000 -3.6945e+002  1.3754e+001 33047 105660,105712,105686
 3.4000e+000 105790 -1.8559e+001 -1.3859e+002  1.7775e+000 33047 105634,105764,105738
 3.4000e+000 105908 -1.8108e+002 -2.4847e+002 -2.9510e+001 33047 105738,105712,105882
 3.4000e+000 105931 -6.3961e+001 -2.0071e+002  2.6394e+001 33047 105738,105882,105634
 3.4000e+000 106181 -3.0065e+001 -2.3388e+002 -2.4607e+000 32543 106204,106060,106008
 3.4000e+000 106158  1.0457e+001 -3.7636e+002  2.3457e+001 32543 105956,106086,106060
 3.4000e+000 106135 -1.0231e+000 -1.1366e+002  5.5467e+001 32543 106204,106008,105982
 3.4000e+000 106112 -5.7108e+001 -9.1484e+001  8.6099e+000 32543 106008,106060,106034
 3.4000e+000 106230 -3.9495e+001 -2.8532e+002 -6.4504e+001 32543 105956,106060,106204
 3.4000e+000 106253 -4.5432e+001 -1.8461e+002 -1.4317e+001 32543 105956,106204,105982
 3.4000e+000 106454  4.9621e+001 -1.3340e+002  4.5842e+001 31839 106304,106356,106330
 3.4000e+000 106431  4.3156e+001 -1.9105e+002 -4.4646e+001 31839 106278,106356,106304
 3.4000e+000 106408 -5.7079e+001 -1.8863e+002 -3.1644e+001 31839 106278,106382,106356
 3.4000e+000 106704 -7.3746e+000 -1.9647e+002 -2.8637e+001 31534 106505,106583,106557
 3.4000e+000 106681 -5.8013e+001 -2.0832e+002 -2.0511e+001 31534 106479,106583,106505
 3.4000e+000 106658 -6.0756e+001 -1.0092e+002 -5.1164e+001 31534 106505,106557,106531
 3.4000e+000 106635 -5.5606e+000 -1.7878e+002 -3.5865e+001 31534 106479,106609,106583
 3.4000e+000 107108 -1.4803e+002 -2.6077e+002 -7.4568e-001 31030 106886,106990,106964
 3.4000e+000 107085 -1.6206e+002 -2.8704e+002 -6.5720e+000 31030 106860,106990,106886
 3.4000e+000 107062 -2.7001e+001 -2.5491e+002 -3.6492e+001 31030 106834,106990,106860
 3.4000e+000 107039 -1.3684e+002 -3.4450e+002  3.6972e+001 31030 106912,106964,106938
 3.4000e+000 107016 -1.2505e+002 -2.4795e+002  8.7827e+000 31030 106886,106964,106912
 3.4000e+000 107307 -1.2863e+000 -1.4165e+002 -1.3144e+001 30718 107330,107157,107131
 3.4000e+000 107284 -8.5745e+000 -1.7222e+002 -7.5617e+000 30718 107330,107131,107235
 3.4000e+000 107261 -1.9286e+001 -1.3243e+002  1.2571e+001 30718 107183,107235,107209
 3.4000e+000 107356 -1.5014e+001 -1.0071e+002 -1.2624e+001 30718 107183,107157,107330
 3.4000e+000 107379 -2.7265e+001 -1.3801e+002 -6.3100e+000 30718 107183,107330,107235
 3.4000e+000 107759 -8.7238e+000 -9.5485e+001 -7.7847e+000 30264 107782,107615,107537
 3.4000e+000 107736 -1.9701e+001 -1.2100e+002 -1.0799e+001 30264 107782,107537,107485
 3.4000e+000 107713 -3.3836e+001 -1.6426e+002  1.3217e+000 30264 107485,107537,107511
 3.4000e+000 107690  9.7000e+000 -1.4597e+002 -2.6216e+001 30264 107537,107615,107589
 3.4000e+000 107667  2.1093e+000 -1.3132e+002 -1.7894e+001 30264 107537,107589,107563
 3.4000e+000 107808 -1.0521e-001 -1.0020e+002  1.3515e+001 30264 107641,107615,107782
 3.4000e+000 107831 -1.4155e+001 -1.2992e+002  9.2056e+000 30264 107641,107782,107485
 3.4000e+000 108030 -5.3411e+001 -2.7625e+002 -6.4430e+001 29874 108053,107854,107932
 3.4000e+000 108007 -1.1048e+002 -2.9469e+002 -6.0871e+001 29874 107854,107958,107932
 3.4000e+000 107984  1.7738e+001 -1.9298e+002 -1.0439e+001 29874 108053,107932,107906
 3.4000e+000 108079 -9.0960e+001 -1.7347e+002 -2.9123e+001 29874 107880,107854,108053
 3.4000e+000 108102 -6.7062e+001 -1.0802e+002  4.5690e+000 29874 107880,108053,107906
 3.4000e+000 108433  6.6225e+000 -2.4087e+002 -8.3462e+001 29484 108234,108338,108312
 3.4000e+000 108410 -5.8936e+000 -2.0666e+002 -8.2558e+000 29484 108208,108338,108234
 3.4000e+000 108387 -8.2397e+001 -2.1201e+002 -1.1496e+002 29484 108234,108312,108260
 3.4000e+000 108364  2.7280e+001  3.3190e+000 -4.3539e+001 29484 108260,108312,108286
 3.4000e+000 108762 -4.7483e+001 -2.1748e+002  1.5873e+001 29080 108563,108641,108589
 3.4000e+000 108739 -3.3805e+001 -1.2785e+002 -8.2851e+000 29080 108537,108641,108563
 3.4000e+000 108716 -6.6308e+001 -2.6485e+002  2.1044e+001 29080 108589,108641,108615
 3.4000e+000 108693 -1.4884e+000 -1.0935e+002  9.0273e+000 29080 108537,108667,108641
 3.4000e+000 109189 -2.3066e+001 -2.0758e+002 -2.3829e+001 28476 108892,108996,108970
 3.4000e+000 109166 -5.3277e+001 -2.2576e+002 -1.5396e+001 28476 108892,109022,108996
 3.4000e+000 109143 -1.0409e+002 -1.6181e+002  2.7440e+001 28476 108892,108970,108944
 3.4000e+000 109120 -3.0349e+001 -2.6469e+002 -4.6322e+001 28476 108892,109048,109022
 3.4000e+000 109097 -7.4168e+001 -5.3955e+001  1.4246e+001 28476 108892,108944,108918
 3.4000e+000 109074 -3.0317e+001 -1.9077e+002 -5.4224e+001 28476 108866,109048,108892
 3.4000e+000 109518 -8.7207e+001 -2.4181e+002  3.9292e+001 28022 109541,109371,109345
 3.4000e+000 109495 -9.3904e+001 -2.2729e+002  2.6923e+001 28022 109541,109345,109319
 3.4000e+000 109472 -6.9282e+001 -2.2379e+002  8.1791e+000 28022 109293,109397,109319
 3.4000e+000 109449 -9.1151e+000 -1.9772e+002  3.4696e+000 28022 109293,109423,109397
 3.4000e+000 109567 -5.6816e+001 -2.2773e+002  3.4316e+001 28022 109397,109371,109541
 3.4000e+000 109590 -8.5365e+001 -2.2203e+002  2.4637e+001 28022 109397,109541,109319
 3.4000e+000 109968 -2.9728e+001 -1.2380e+002  5.9957e+001 27568 109798,109850,109824
 3.4000e+000 109945 -3.0409e+001 -2.0504e+002  8.3586e+001 27568 109694,109850,109798
 3.4000e+000 109922 -1.9210e+001 -1.6694e+002  7.1770e+001 27568 109694,109798,109746
 3.4000e+000 109899 -7.7917e+000 -1.7014e+002  4.9957e+000 27568 109746,109798,109772
 3.4000e+000 109876 -5.1476e+001 -1.9868e+002  3.6289e+001 27568 109694,109746,109720
 3.4000e+000 110167 -5.7860e+001 -2.4897e+002 -7.4060e+001 27007 110017,110095,110069
 3.4000e+000 110144  1.8322e+001 -2.8962e+002 -1.4069e+001 27007 109991,110095,110017
 3.4000e+000 110121  3.9188e+000 -1.9851e+002 -3.6618e+001 27007 110017,110069,110043
 3.4000e+000 110415 -8.3139e+000 -2.1455e+002 -1.6027e+001 26567 110438,110242,110190
 3.4000e+000 110392 -2.8151e+001 -2.3474e+002 -7.5124e+000 26567 110438,110190,110320
 3.4000e+000 110369 -6.0877e+001 -2.2160e+002 -2.9293e+001 26567 110242,110294,110268
 3.4000e+000 110346 -1.3688e+001 -1.9419e+002  4.3659e+001 26567 110190,110242,110216
 3.4000e+000 110464 -1.7867e+001 -2.0693e+002 -2.4445e+001 26567 110294,110242,110438
 3.4000e+000 110487 -2.5972e+001 -2.1522e+002 -1.8865e+001 26567 110294,110438,110320
 3.4000e+000 110639  7.2579e+000 -1.6549e+000  6.7944e+000 26170 110538,110590,110564
 3.4000e+000 110616  2.6053e+001  1.2352e+001  1.6277e+001 26170 110512,110590,110538
 3.4000e+000 111149 -5.2960e+001 -1.1389e+002 -1.6927e+001 25716 111172,110878,110852
 3.4000e+000 111126 -2.7818e+001 -1.1575e+002 -1.5394e+001 25716 111172,110852,111008
 3.4000e+000 111103 -2.2798e+001 -1.4471e+002 -3.4810e+001 25716 110878,110930,110904
 3.4000e+000 111080 -1.9338e+001 -9.8062e+001  5.1258e+000 25716 110826,111008,110852
 3.4000e+000 111057 -4.5112e+001 -1.8269e+002  4.2899e+001 25716 110930,111008,110956
 3.4000e+000 111034 -3.7653e+001 -1.6792e+002  3.1512e+001 25716 110956,111008,110982
 3.4000e+000 111198 -3.3861e+001 -1.2019e+002 -9.7532e+000 25716 110930,110878,111172
 3.4000e+000 111221 -3.3245e+000 -1.1762e+002 -7.6310e+000 25716 110930,111172,111008
 3.4000e+000 111420  7.7234e+000 -1.1586e+002  1.4764e+000 25304 111443,111270,111244
 3.4000e+000 111397  4.0411e+000 -1.1855e+002  2.8635e+000 25304 111443,111244,111348
 3.4000e+000 111374 -4.3392e+000 -1.0110e+002  2.5297e+001 25304 111270,111322,111296
 3.4000e+000 111469  3.7762e+000 -1.1137e+002  1.1394e-001 25304 111322,111270,111443
 3.4000e+000 111492 -5.5060e-001 -1.1432e+002  1.5089e+000 25304 111322,111443,111348
 3.4000e+000 111691 -5.6446e+001 -1.9455e+002  1.8336e+001 24736 111567,111619,111593
 3.4000e+000 111668 -8.8815e+001 -2.6127e+002  8.4699e+000 24736 111541,111619,111567
 3.4000e+000 111645 -6.2840e+001 -2.5008e+002  1.2427e+001 24736 111515,111619,111541
 3.4000e+000 112024 -2.0552e+001 -2.2818e+002  3.4296e+001 24146 111825,111877,111851
 3.4000e+000 112001 -4.1117e+001 -1.7100e+002 -2.1525e+000 24146 111825,111903,111877
 3.4000e+000 111978 -1.9231e+001 -1.2417e+002 -1.1435e+001 24146 111825,111929,111903
 3.4000e+000 111955 -3.1313e+001 -1.1565e+002 -3.5383e+000 24146 111799,111929,111825
 3.4000e+000 112370 -7.3530e+001 -3.8384e+002 -5.6226e+000 23856 112393,112151,112125
 3.4000e+000 112347 -4.7920e+001 -3.2551e+002  9.7611e-001 23856 112465,112393,112125
 3.4000e+000 112324 -5.5203e+001 -3.0835e+002  2.2739e+001 23856 112465,112125,112073
 3.4000e+000 112301 -9.1624e+001 -2.8318e+002  2.9064e+001 23856 112073,112125,112099
 3.4000e+000 112278 -2.1927e+002 -4.5207e+002 -7.1400e+001 23856 112047,112229,112073
 3.4000e+000 112255 -4.6016e+001 -4.5485e+002 -1.0597e+002 23856 112151,112203,112177
 3.4000e+000 112419 -6.9034e+001 -3.5513e+002 -3.6890e+001 23856 112203,112151,112393
 3.4000e+000 112442 -8.1900e+001 -3.5353e+002 -3.7927e+001 23856 112203,112393,112229
 3.4000e+000 112491 -8.9387e+001 -3.5497e+002 -3.5805e+001 23856 112229,112393,112465
 3.4000e+000 112514 -8.0849e+001 -3.1168e+002 -1.2546e+001 23856 112229,112465,112073
 3.4000e+000 112784 -2.8114e+001 -2.6593e+002  2.0443e+001 23494 112611,112663,112637
 3.4000e+000 112761 -3.6396e+001 -2.3324e+002  1.9912e+001 23494 112585,112663,112611
 3.4000e+000 112738 -6.2792e+001 -2.4463e+002  1.6811e+001 23494 112559,112663,112585
 3.4000e+000 112715 -1.1501e+001 -1.4636e+002 -2.8403e+000 23494 112559,112689,112663
 3.4000e+000 113117  1.5002e+001 -2.1461e+001 -7.9435e+000 22974 112944,113022,112996
 3.4000e+000 113094  3.5484e+000 -3.5280e-001 -1.5908e+001 22974 112918,113022,112944
 3.4000e+000 113071  9.1564e+000 -2.8924e+001 -1.2129e+000 22974 112944,112996,112970
 3.4000e+000 113048  6.4973e+000 -3.6328e+001  1.3931e+001 22974 112892,113022,112918
 3.4000e+000 113414  1.0117e+001 -7.3778e+001  4.3886e+001 22370 113192,113296,113218
 3.4000e+000 113391  2.0479e+001 -1.3211e+002  3.4153e+001 22370 113140,113296,113192
 3.4000e+000 113368 -4.3871e+001 -1.9843e+002  5.1177e+001 22370 113218,113296,113270
 3.4000e+000 113345 -5.4403e+001 -2.3784e+002  5.3926e+001 22370 113218,113270,113244
 3.4000e+000 113322  1.1411e+001 -1.4454e+002  4.4115e+001 22370 113140,113192,113166
 3.4000e+000 113662  5.6540e+000 -1.0645e+002  5.1703e+001 21916 113685,113515,113489
 3.4000e+000 113639 -1.7574e+001 -2.3344e+002  2.7990e+001 21916 113685,113489,113437
 3.4000e+000 113616  1.0973e+000 -2.3003e+002  1.2441e+001 21916 113757,113567,113541
 3.4000e+000 113593  1.7461e+001 -1.4962e+002  2.3456e+001 21916 113437,113489,113463
 3.4000e+000 113711 -5.0458e+001 -2.6746e+002  6.8097e+001 21916 113541,113515,113685
 3.4000e+000 113734 -1.1030e+001 -2.6091e+002  2.8370e+001 21916 113757,113541,113685
 3.4000e+000 113783 -2.3354e+001 -2.0510e+002  2.2784e+001 21916 113437,113567,113757
 3.4000e+000 113806 -1.3358e+001 -2.1620e+002  2.7375e+001 21916 113437,113757,113685
 3.4000e+000 114056  6.9737e+001 -3.2955e+002  2.9965e+001 21412 113857,113909,113883
 3.4000e+000 114033  1.1899e+002 -1.7316e+002  2.9491e+001 21412 114079,113909,113857
 3.4000e+000 114010 -5.0908e+000 -2.0802e+002  1.0267e+001 21412 114079,113857,113961
 3.4000e+000 113987 -3.8600e+001 -1.9019e+002  1.8171e+001 21412 113831,113961,113857
 3.4000e+000 114105  2.1294e+001 -1.7860e+002 -2.3554e+001 21412 113935,113909,114079
 3.4000e+000 114128 -6.2248e+001 -1.7983e+002 -3.7916e+001 21412 113935,114079,113961
 3.4000e+000 114378 -7.3512e+001 -2.3482e+002 -8.6906e+001 21022 114401,114257,114205
 3.4000e+000 114355 -1.0594e+002 -3.1721e+002 -8.7215e+001 21022 114401,114205,114179
 3.4000e+000 114332  2.8952e+000 -4.0077e+002 -5.2547e+001 21022 114153,114283,114179
 3.4000e+000 114309 -8.8454e+001 -1.5840e+002 -5.5693e+001 21022 114205,114257,114231
 3.4000e+000 114427 -5.5636e+001 -2.6416e+002 -1.3611e+001 21022 114283,114257,114401
 3.4000e+000 114450 -8.3549e+001 -3.3987e+002 -1.5537e+001 21022 114283,114401,114179
 3.4000e+000 114651  6.0275e+001 -2.3930e+002  4.1180e+001 20618 114501,114553,114527
 3.4000e+000 114628 -5.6631e+001 -2.4614e+002 -1.7452e+001 20618 114501,114579,114553
 3.4000e+000 114605 -3.0850e+001 -2.1088e+002 -3.9299e+000 20618 114475,114579,114501
 3.4000e+000 114901  6.5600e+001 -2.5245e+002 -1.1664e+001 20114 114676,114780,114702
 3.4000e+000 114878 -2.2959e+001 -3.0708e+002  1.5992e+001 20114 114676,114806,114780
 3.4000e+000 114855  1.6511e+002 -2.8088e+002 -1.8891e+001 20114 114702,114780,114754
 3.4000e+000 114832  4.5488e+002 -2.8970e+002  7.8816e+001 20114 114702,114754,114728
 3.4000e+000 115053 -1.0709e+002 -3.5579e+002 -1.0014e+001 19460 115147,115076,114926
 3.4000e+000 115030 -8.4110e+001 -3.7789e+002 -4.4808e+000 19460 115147,114926,115004
 3.4000e+000 115102 -1.0355e+002 -3.3162e+002 -6.6172e+000 19460 114952,114926,115076
 3.4000e+000 115173 -8.4459e+001 -3.2983e+002 -4.8772e-002 19460 114978,115076,115147
 3.4000e+000 115196 -5.9143e+001 -3.5275e+002  5.5890e+000 19460 114978,115147,115004
 3.4000e+000 115446 -4.1674e+001 -3.2046e+002 -1.2777e+001 19006 115273,115351,115299
 3.4000e+000 115423  9.1947e+000 -2.7302e+002  8.1218e+000 19006 115247,115351,115273
 3.4000e+000 115400 -1.2029e+000 -2.7751e+002  8.4525e+000 19006 115221,115351,115247
 3.4000e+000 115377 -2.3734e+001 -3.4368e+002 -3.6207e+001 19006 115299,115351,115325
 3.4000e+000 115767 -1.2194e+002 -3.2369e+002  6.5656e+000 18716 115571,115649,115623
 3.4000e+000 115744 -1.2983e+002 -3.3405e+002  2.1192e+000 18716 115493,115649,115571
 3.4000e+000 115721 -1.3553e+002 -3.2533e+002  5.8753e+000 18716 115493,115571,115545
 3.4000e+000 115698 -1.0690e+002 -2.9694e+002  4.6229e+001 18716 115493,115545,115519
 3.4000e+000 115675 -7.0710e+001 -3.0748e+002 -4.1442e+000 18716 115571,115623,115597
 3.4000e+000 116039 -3.5922e+001 -2.1974e+002  1.3049e+001 18312 115814,115892,115840
 3.4000e+000 116016 -2.1989e+001 -1.8653e+002  1.2378e+001 18312 115814,115944,115892
 3.4000e+000 115993 -4.4338e+001 -2.0596e+002  3.7592e+000 18312 115892,115944,115918
 3.4000e+000 115970  4.7193e+001 -2.0278e+002  3.1186e+001 18312 115840,115892,115866
 3.4000e+000 116191 -3.5232e+001 -3.1590e+002  1.1246e+000 18000 116090,116142,116116
 3.4000e+000 116168 -2.3527e+001 -3.1779e+002  9.4985e+000 18000 116064,116142,116090
 3.4000e+000 116343 -1.9133e+002 -4.0630e+002 -1.2327e+001 17396 116242,116294,116268
 3.4000e+000 116320 -1.7512e+002 -4.0533e+002 -1.2144e+001 17396 116216,116294,116242
 3.4000e+000 116566 -6.9651e+001 -4.6352e+002  4.4562e+001 16942 116390,116468,116442
 3.4000e+000 116543 -7.3990e+001 -4.7493e+002  4.8285e+001 16942 116390,116494,116468
 3.4000e+000 116520 -1.1266e+002 -5.6454e+002  1.8739e+001 16942 116390,116442,116416
 3.4000e+000 116767  3.0950e+001 -2.4024e+002 -1.3593e+001 16438 116790,116643,116617
 3.4000e+000 116744 -6.7901e-001 -1.9564e+002 -1.0868e+001 16438 116790,116617,116591
 3.4000e+000 116721  5.3991e+001 -1.9358e+002 -4.8189e+001 16438 116643,116695,116669
 3.4000e+000 116816  3.2684e+001 -2.0661e+002 -2.8424e+001 16438 116695,116643,116790
 3.4000e+000 116839  2.1193e+001 -1.6237e+002 -4.1057e+001 16438 116695,116790,116591
 3.4000e+000 117062 -1.8275e+001 -4.2158e+002 -9.6736e+000 16074 116886,116938,116912
 3.4000e+000 117039 -9.1714e+001 -4.7316e+002  2.2981e+001 16074 116886,116990,116938
 3.4000e+000 117016 -6.1604e+001 -3.8448e+002  3.4317e+001 16074 116938,116990,116964
 3.4000e+000 117214 -4.9638e+001 -3.7724e+002 -5.3096e+000 15649 117087,117139,117113
 3.4000e+000 117191 -2.4103e-001 -3.5818e+002 -2.0086e+000 15649 117087,117165,117139
 3.4000e+000 117317 -1.3930e+002 -3.7796e+002 -2.8929e+001 421 117239,117291,117265
 3.5000e+000 70632 -2.8066e+002 -4.5706e+002 -1.7495e+001 70072 70482,70534,70508
 3.5000e+000 70609 -2.6017e+002 -4.1489e+002 -1.0860e+001 70072 70482,70560,70534
 3.5000e+000 70586 -2.0627e+002 -3.9020e+002 -2.1138e+001 70072 70456,70560,70482
 3.5000e+000 70951 -1.9499e+002 -4.7786e+002  0.0000e+000 69874 70703,70755,70729
 3.5000e+000 70928 -1.2891e+002 -4.5792e+002 -7.4954e+001 69874 70703,70781,70755
 3.5000e+000 70905 -5.3829e+001 -1.8320e+002 -3.9542e+001 69874 70703,70807,70781
 3.5000e+000 70882 -1.3936e+002 -3.9243e+002 -2.0388e+001 69874 70703,70833,70807
 3.5000e+000 70859 -1.1361e+002 -3.9649e+002  1.3950e+001 69874 70677,70833,70703
 3.5000e+000 71199 -1.0085e+002 -2.8740e+002  3.0845e+000 69698 71222,71052,71026
 3.5000e+000 71176 -1.1374e+002 -2.3789e+002  6.1806e+000 69698 71294,71222,71026
 3.5000e+000 71153 -1.1921e+002 -2.3304e+002 -1.7501e+001 69698 71294,71026,71000
 3.5000e+000 71130 -5.2323e+001 -2.2459e+002  2.1848e+001 69698 71366,71104,71078
 3.5000e+000 71248 -8.2969e+001 -2.3761e+002  2.9527e+000 69698 71078,71052,71222
 3.5000e+000 71271 -7.8632e+001 -2.2664e+002  1.8770e+001 69698 71366,71078,71222
 3.5000e+000 71320 -7.5070e+001 -2.1870e+002 -3.4093e-001 69698 70974,71222,71294
 3.5000e+000 71343 -7.2895e+001 -2.1342e+002 -2.1662e+001 69698 70974,71294,71000
 3.5000e+000 71392 -8.5213e+001 -2.3649e+002  1.4408e+001 69698 70974,71104,71366
 3.5000e+000 71415 -9.3557e+001 -2.2700e+002  1.0454e+001 69698 70974,71366,71222
 3.5000e+000 71516 -4.4052e+001 -2.6142e+002 -4.8883e+001 69386 71438,71490,71464
 3.5000e+000 71869 -5.9731e+001 -2.5511e+002  2.4028e+001 69188 71644,71748,71670
 3.5000e+000 71846  3.7441e+001 -2.4279e+002  7.3862e+001 69188 71644,71774,71748
 3.5000e+000 71823 -1.9607e+001 -1.3272e+002  2.0055e+001 69188 71670,71748,71722
 3.5000e+000 71800 -1.3397e+002 -3.5762e+002 -2.6421e+001 69188 71670,71722,71696
 3.5000e+000 72019 -2.1724e+002 -4.8950e+002 -2.4007e+001 68990 71918,71970,71944
 3.5000e+000 71996 -1.8714e+002 -5.7236e+002  1.1677e+001 68990 71892,71970,71918
 3.5000e+000 72316 -3.7706e+001 -1.3769e+002 -7.6213e+000 68586 72339,72172,72146
 3.5000e+000 72293 -5.3243e+001 -1.7881e+002 -4.2496e+000 68586 72339,72146,72120
 3.5000e+000 72270 -5.5696e+001 -1.4718e+002  1.1085e+001 68586 72411,72068,72198
 3.5000e+000 72247 -2.6431e+001 -7.7351e+001  4.4890e+001 68586 72042,72198,72068
 3.5000e+000 72224 -6.6847e+001 -2.0456e+002  4.7130e+000 68586 72068,72120,72094
 3.5000e+000 72365 -5.3295e+001 -1.3476e+002  1.1453e+001 68586 72198,72172,72339
 3.5000e+000 72388 -5.8957e+001 -1.4805e+002  9.6750e+000 68586 72411,72198,72339
 3.5000e+000 72437 -4.7723e+001 -1.4684e+002  1.5376e+001 68586 72120,72068,72411
 3.5000e+000 72460 -5.2752e+001 -1.5037e+002  1.3144e+001 68586 72120,72411,72339
 3.5000e+000 72864 -1.6744e+001 -1.7272e+002 -4.1067e+000 68388 72642,72694,72668
 3.5000e+000 72841 -5.1207e+001 -2.2976e+002  1.1448e+001 68388 72616,72694,72642
 3.5000e+000 72818 -3.4642e+001 -1.7669e+002  9.8885e+000 68388 72616,72720,72694
 3.5000e+000 72795 -8.7928e+001 -2.7530e+002  3.1763e+001 68388 72590,72720,72616
 3.5000e+000 72772 -2.3872e+001 -2.1376e+002  7.4787e+001 68388 72590,72746,72720
 3.5000e+000 73321 -8.7083e+001 -1.2090e+002  3.3326e+000 68048 73073,73203,73177
 3.5000e+000 73298 -9.4104e+001 -1.1917e+002  9.5839e+000 68048 73047,73203,73073
 3.5000e+000 73275 -6.5488e+001 -2.0371e+002 -1.7330e+001 68048 73125,73177,73151
 3.5000e+000 73252 -6.9508e+001 -1.8711e+002  7.1025e+000 68048 73073,73177,73125
 3.5000e+000 73229 -5.8937e+001 -1.9632e+002  1.2386e+001 68048 73073,73125,73099
 3.5000e+000 73640 -1.3085e+002 -2.5351e+002 -1.3297e+001 67850 73444,73496,73470
 3.5000e+000 73617 -9.1678e+001 -2.5664e+002 -1.8468e+001 67850 73418,73496,73444
 3.5000e+000 73594 -1.0109e+002 -2.6763e+002  3.9574e-001 67850 73392,73496,73418
 3.5000e+000 73571 -1.1440e+002 -2.6895e+002 -4.2282e+000 67850 73392,73522,73496
 3.5000e+000 73548 -1.6729e+002 -3.3464e+002  4.1847e+001 67850 73366,73522,73392
 3.5000e+000 73790 -1.2881e+002 -2.6544e+002 -3.3665e+000 67602 73689,73741,73715
 3.5000e+000 73767 -1.0426e+002 -2.0500e+002 -2.3111e+000 67602 73663,73741,73689
 3.5000e+000 74040 -1.2214e+002 -2.7269e+002 -1.7813e+001 67290 73841,73945,73919
 3.5000e+000 74017 -5.3433e+001 -2.5792e+002 -4.1359e+001 67290 73815,73945,73841
 3.5000e+000 73994 -9.9011e+001 -1.9025e+002 -1.9175e+001 67290 73841,73919,73867
 3.5000e+000 73971 -1.0156e+002 -2.0078e+002 -1.0565e+001 67290 73867,73919,73893
 3.5000e+000 74143 -4.6186e+001 -1.0670e+002  1.3138e+001 67092 74065,74117,74091
 3.5000e+000 74415 -7.0036e+001 -2.8007e+002 -4.4447e+001 66894 74190,74294,74216
 3.5000e+000 74392 -1.1707e+001 -2.5435e+002 -2.8419e+001 66894 74190,74320,74294
 3.5000e+000 74369 -2.2481e+001 -1.6523e+002 -3.5916e+001 66894 74216,74294,74242
 3.5000e+000 74346 -6.4290e+001 -2.4812e+002 -1.7859e+001 66894 74242,74294,74268
 3.5000e+000 75023  1.7195e+002 -1.9286e+002 -8.3488e+001 66532 74654,74836,74810
 3.5000e+000 75000 -1.5537e+002 -2.1350e+002 -9.2740e+001 66532 74628,74836,74654
 3.5000e+000 74977 -6.5727e+001 -1.6298e+002 -2.9168e+000 66532 74706,74784,74732
 3.5000e+000 74954 -5.9485e+001 -1.6153e+002  1.3638e+000 66532 74680,74784,74706
 3.5000e+000 74931  2.6595e+001 -1.4322e+002  8.4665e+000 66532 74680,74810,74784
 3.5000e+000 74908 -8.7991e+001 -1.9633e+002 -7.3225e+001 66532 74654,74810,74680
 3.5000e+000 74885 -1.5317e+002 -2.5695e+002 -1.1658e+002 66532 74602,74836,74628
 3.5000e+000 74862 -6.4602e+001 -2.0138e+002 -5.6374e+000 66532 74732,74784,74758
 3.5000e+000 75222 -9.2933e+000 -2.3866e+002 -2.3625e+000 66242 75072,75150,75124
 3.5000e+000 75199 -2.7132e+001 -2.1594e+002  1.7994e+000 66242 75046,75150,75072
 3.5000e+000 75176  1.9836e-001 -1.7971e+002 -5.6515e+000 66242 75072,75124,75098
 3.5000e+000 75470 -6.8153e+001 -1.0665e+002 -1.6096e+001 65838 75297,75375,75349
 3.5000e+000 75447 -4.2513e+001 -1.0077e+002 -4.6554e+000 65838 75271,75375,75297
 3.5000e+000 75424 -2.4761e+001 -8.1088e+001 -4.9552e+000 65838 75297,75349,75323
 3.5000e+000 75401 -4.4651e+001 -1.1364e+002 -3.3079e+001 65838 75245,75375,75271
 3.5000e+000 75671 -4.4825e+001 -1.4395e+002 -4.6460e+001 65640 75495,75573,75521
 3.5000e+000 75648 -3.6549e+001 -1.3885e+002 -4.9752e+001 65640 75495,75599,75573
 3.5000e+000 75625 -5.6709e+001 -1.5862e+002 -5.4082e+001 65640 75521,75573,75547
 3.5000e+000 75872 -7.0062e+001 -1.3327e+002 -3.5972e+001 65300 75895,75748,75722
 3.5000e+000 75849 -4.0802e+001 -1.5461e+002 -5.0438e+001 65300 75895,75722,75696
 3.5000e+000 75826 -6.2498e+001 -1.1374e+002 -7.1905e+001 65300 75967,75774,75748
 3.5000e+000 75921 -6.0475e+001 -1.3010e+002 -4.4683e+001 65300 75967,75748,75895
 3.5000e+000 75944 -8.0096e+001 -2.1709e+002 -3.0444e+001 65300 75800,75895,75696
 3.5000e+000 75993 -1.0934e+002 -1.3874e+002 -5.9370e+001 65300 75800,75774,75967
 3.5000e+000 76016 -1.0677e+002 -1.5283e+002 -3.6517e+001 65300 75800,75967,75895
 3.5000e+000 76371 -1.4570e+002 -2.0299e+002 -1.0921e+001 64896 76146,76250,76172
 3.5000e+000 76348 -1.4525e+002 -1.9439e+002 -5.8128e+000 64896 76146,76276,76250
 3.5000e+000 76325 -1.7832e+002 -1.9105e+002  1.6706e+000 64896 76172,76250,76198
 3.5000e+000 76302 -3.8567e+001 -1.2425e+002  2.3854e+001 64896 76198,76250,76224
 3.5000e+000 76570 -5.3454e+001 -1.4841e+002 -6.6967e+001 64442 76446,76498,76472
 3.5000e+000 76547 -5.8403e+001 -1.0312e+002 -2.4998e+001 64442 76420,76498,76446
 3.5000e+000 76524 -7.2758e+001 -1.6216e+002 -2.1679e+001 64442 76394,76498,76420
 3.5000e+000 76999 -1.1047e+002 -2.7844e+002  1.5707e+001 63924 77022,76728,76702
 3.5000e+000 76976 -1.3172e+002 -2.3463e+002 -3.4021e+001 63924 77022,76702,76832
 3.5000e+000 76953 -6.9473e+001 -2.8906e+002  5.2945e+001 63924 76728,76806,76754
 3.5000e+000 76930 -1.3102e+002 -1.8487e+002  3.8405e+001 63924 76676,76832,76702
 3.5000e+000 76907 -1.3442e+002 -3.3173e+002  3.1888e+001 63924 76754,76806,76780
 3.5000e+000 76884 -6.7083e+001 -2.0937e+002  1.9687e+001 63924 76676,76858,76832
 3.5000e+000 77048 -1.0392e+002 -3.3963e+002  9.0644e-001 63924 76806,76728,77022
 3.5000e+000 77071 -1.3398e+002 -3.0711e+002 -5.0669e+001 63924 76806,77022,76832
 3.5000e+000 77449 -6.4558e+001 -1.7988e+002  3.1039e+001 63320 77472,77253,77201
 3.5000e+000 77426 -6.3954e+001 -1.9418e+002  1.6482e+001 63320 77472,77201,77175
 3.5000e+000 77403 -2.9560e+001 -1.9153e+002  5.5645e+000 63320 77175,77305,77279
 3.5000e+000 77380 -2.4289e+001 -1.1709e+002 -1.5465e+001 63320 77201,77253,77227
 3.5000e+000 77357 -1.7702e+000 -1.7265e+002 -1.9842e+001 63320 77175,77331,77305
 3.5000e+000 77498 -7.2333e+001 -2.0766e+002  3.1934e+001 63320 77279,77253,77472
 3.5000e+000 77521 -6.5811e+001 -2.0664e+002  1.3946e+001 63320 77279,77472,77175
 3.5000e+000 77769 -1.0809e+002 -2.0995e+002  1.9422e+001 62816 77570,77622,77596
 3.5000e+000 77746 -1.3823e+002 -2.4778e+002  3.3617e+001 62816 77570,77648,77622
 3.5000e+000 77723 -4.8857e+001 -2.0216e+002  7.7246e+000 62816 77570,77674,77648
 3.5000e+000 77700 -6.3749e+001 -2.1112e+002  4.5361e+000 62816 77544,77674,77570
 3.5000e+000 78149 -8.6242e+001 -2.0994e+002 -4.0848e-001 62354 77953,78031,78005
 3.5000e+000 78126 -1.1374e+002 -2.4323e+002 -1.2235e+001 62354 77901,78031,77953
 3.5000e+000 78103 -5.5732e+001 -2.1558e+002  3.2548e+001 62354 77875,78031,77901
 3.5000e+000 78080 -7.2043e+001 -2.8541e+002 -5.6973e+001 62354 77901,77953,77927
 3.5000e+000 78057 -8.3895e+001 -1.8074e+002 -1.9722e+001 62354 77953,78005,77979
 3.5000e+000 78606 -4.5345e+001 -1.6949e+002  2.0298e+001 61950 78384,78436,78410
 3.5000e+000 78583 -5.8683e+001 -1.9981e+002 -1.6912e+001 61950 78358,78436,78384
 3.5000e+000 78560 -7.9554e+001 -1.7334e+002 -3.1118e+001 61950 78358,78488,78436
 3.5000e+000 78537 -9.1554e+001 -2.5899e+002 -4.6031e+001 61950 78436,78488,78462
 3.5000e+000 78514 -8.5136e+001 -1.4174e+002 -1.4046e+001 61950 78332,78488,78358
 3.5000e+000 78756 -2.0173e+001 -2.3182e+002  3.0484e+000 61339 78779,78655,78629
 3.5000e+000 78733 -3.5661e+001 -2.6572e+002  1.0324e+001 61339 78779,78629,78707
 3.5000e+000 78805 -5.6281e+001 -2.6449e+002  3.2664e+001 61339 78851,78779,78681
 3.5000e+000 78828  1.1488e+001 -2.3488e+002  2.4122e+001 61339 78681,78779,78707
 3.5000e+000 78877 -3.6381e+001 -2.1118e+002  9.5315e+000 61339 78655,78779,78851
 3.5000e+000 79206 -4.1944e+001 -9.0258e+001 -2.3145e+001 60892 79229,79007,78981
 3.5000e+000 79183 -3.0296e+001 -4.6526e+001 -6.2406e+000 60892 79229,78981,79111
 3.5000e+000 79160 -3.3708e+001 -1.0700e+002 -2.7911e+001 60892 79301,79033,79007
 3.5000e+000 79137 -1.8446e+001 -5.8723e+001  3.2444e+001 60892 79033,79085,79059
 3.5000e+000 79255 -4.0773e+001 -9.2275e+001 -3.9495e+001 60892 79301,79007,79229
 3.5000e+000 79278 -3.8262e+001 -8.0651e+001 -3.1907e+001 60892 79085,79229,79111
 3.5000e+000 79327 -5.4870e+001 -1.4671e+002 -1.2809e+001 60892 79085,79033,79301
 3.5000e+000 79350 -3.9287e+001 -1.1843e+002 -3.1788e+001 60892 79085,79301,79229
 3.5000e+000 79647 -1.3741e+002 -2.7332e+002 -1.9848e+001 60488 79451,79529,79503
 3.5000e+000 79624 -1.1760e+002 -2.3574e+002 -3.1100e+001 60488 79425,79529,79451
 3.5000e+000 79601 -1.0999e+002 -2.5324e+002 -3.8048e+001 60488 79373,79529,79425
 3.5000e+000 79578 -1.1338e+002 -2.3689e+002 -4.4142e+001 60488 79373,79425,79399
 3.5000e+000 79555 -2.3228e+001 -2.1894e+002  1.3205e+001 60488 79451,79503,79477
 3.5000e+000 79870 -3.5980e+001 -1.0059e+002 -8.2781e+000 60026 79720,79798,79772
 3.5000e+000 79847 -3.2416e+001 -1.1237e+002 -1.4254e+001 60026 79694,79798,79720
 3.5000e+000 79824 -5.8544e+000 -9.0402e+001 -1.4922e+001 60026 79720,79772,79746
 3.5000e+000 80120 -4.9782e+001 -7.6260e+001 -8.6261e+000 59629 79921,80025,79973
 3.5000e+000 80097 -3.8477e+001 -5.9118e+001  2.3412e+000 59629 79895,80025,79921
 3.5000e+000 80074 -4.3952e+001 -7.2678e+001 -2.4848e+001 59629 79973,80025,79999
 3.5000e+000 80051 -3.3272e+001 -8.1858e+001 -9.1147e+000 59629 79921,79973,79947
 3.5000e+000 80321 -6.2593e+001 -1.4622e+002  1.0150e+001 59125 80344,80171,80145
 3.5000e+000 80298 -4.1965e+001 -1.6938e+002 -4.4553e+000 59125 80344,80145,80249
 3.5000e+000 80275 -6.8735e+000 -1.6340e+002  2.0046e+001 59125 80197,80249,80223
 3.5000e+000 80370 -4.1487e+001 -1.3019e+002  1.8718e+001 59125 80197,80171,80344
 3.5000e+000 80393 -2.2106e+001 -1.5338e+002  3.8736e+000 59125 80197,80344,80249
 3.5000e+000 80952 -8.0394e+001 -2.6342e+002  4.8272e+001 58557 80975,80632,80606
 3.5000e+000 80929 -2.2493e+001 -1.2518e+002  4.8227e+000 58557 81119,80975,80606
 3.5000e+000 80906 -9.4611e+001 -2.2967e+002 -1.9364e+001 58557 81047,80684,80632
 3.5000e+000 80883  1.5844e+001 -1.1321e+002 -2.6485e+001 58557 81119,80606,80580
 3.5000e+000 80860 -3.2806e+001 -3.2926e+002  1.0732e+001 58557 81191,80736,80710
 3.5000e+000 80837 -6.0362e+001 -2.7013e+002 -4.1866e+001 58557 80736,80788,80762
 3.5000e+000 80814 -9.4245e+001 -1.5412e+002 -1.7069e+001 58557 80632,80684,80658
 3.5000e+000 81001 -4.7997e+001 -2.6389e+002  6.8202e+000 58557 81047,80632,80975
 3.5000e+000 81024  1.2792e+001 -2.5408e+002  2.9882e+001 58557 81191,80710,80975
 3.5000e+000 81073 -5.1751e+001 -1.9197e+002  1.2085e+001 58557 80710,80684,81047
 3.5000e+000 81096  1.4557e+001 -2.2030e+002  3.6190e+001 58557 80710,81047,80975
 3.5000e+000 81145 -3.0180e+001 -1.5705e+002  2.6303e+001 58557 80788,80975,81119
 3.5000e+000 81168 -1.9259e+001 -1.5048e+002 -2.3511e+000 58557 80788,81119,80580
 3.5000e+000 81217 -6.4921e+001 -2.5426e+002 -1.6976e+001 58557 80788,80736,81191
 3.5000e+000 81240 -4.9535e+001 -2.2988e+002 -1.0375e+001 58557 80788,81191,80975
 3.5000e+000 81537 -2.1815e+000 -1.0597e+002 -8.4848e-001 57881 81560,81341,81289
 3.5000e+000 81514 -3.6280e+001 -1.2069e+002  1.6074e+000 57881 81560,81289,81263
 3.5000e+000 81491 -5.7895e+001 -9.9194e+001 -1.6593e+001 57881 81632,81419,81367
 3.5000e+000 81468 -6.6057e+001 -1.3151e+002 -5.7174e+001 57881 81367,81419,81393
 3.5000e+000 81445 -2.0879e+000 -8.8529e+001 -3.4165e+000 57881 81289,81341,81315
 3.5000e+000 81586 -1.9300e+001 -1.0040e+002 -3.0634e+001 57881 81367,81341,81560
 3.5000e+000 81609 -5.0403e+001 -1.1341e+002 -2.4459e+001 57881 81632,81367,81560
 3.5000e+000 81658 -3.9517e+001 -8.6209e+001 -8.4762e+000 57881 81263,81419,81632
 3.5000e+000 81681 -2.8214e+001 -9.9723e+001 -1.7597e+001 57881 81263,81632,81560
 3.5000e+000 81929 -7.2818e+001 -1.3688e+002  1.2405e+001 57477 81704,81808,81782
 3.5000e+000 81906 -3.5952e+001 -1.5506e+002  1.9500e+001 57477 81704,81834,81808
 3.5000e+000 81883 -5.9183e+001 -1.2535e+002  1.1829e+000 57477 81704,81782,81730
 3.5000e+000 81860 -2.7482e+001 -1.2286e+002 -2.1352e+000 57477 81730,81782,81756
 3.5000e+000 82488 -4.3491e+001 -2.8881e+002  2.0297e+001 56966 82583,82511,82194
 3.5000e+000 82465 -5.9217e+001 -2.4426e+002  2.5812e+001 56966 82511,82116,82324
 3.5000e+000 82442 -7.2826e+001 -3.2251e+002  3.3319e+001 56966 82583,82194,82168
 3.5000e+000 82419 -7.2720e+000 -2.4958e+002  3.7330e+001 56966 82194,82246,82220
 3.5000e+000 82396 -6.8413e+001 -2.9700e+002 -1.7371e+001 56966 82194,82298,82246
 3.5000e+000 82373 -4.8891e+001 -2.9510e+002 -3.6079e+001 56966 82246,82298,82272
 3.5000e+000 82350 -1.0518e+002 -3.2750e+002  5.3477e+000 56966 82116,82168,82142
 3.5000e+000 82537 -2.2789e+001 -2.5392e+002  1.0388e+001 56966 82298,82194,82511
 3.5000e+000 82560 -2.9140e+001 -1.9811e+002  4.4552e+001 56966 82298,82511,82324
 3.5000e+000 82609 -8.0312e+001 -2.4733e+002  5.4486e+000 56966 82116,82511,82583
 3.5000e+000 82632 -9.2359e+001 -2.6691e+002  1.2242e+001 56966 82116,82583,82168
 3.5000e+000 83236 -1.9759e+001 -1.8018e+002 -3.8215e+001 56304 82893,82945,82919
 3.5000e+000 83213 -5.6948e+001 -2.3249e+002  2.1025e+001 56304 83259,82945,82893
 3.5000e+000 83190 -4.6589e+001 -2.3650e+002  1.8368e+001 56304 83259,82893,83049
 3.5000e+000 83167 -7.5296e+001 -2.6680e+002  3.9900e+001 56304 82971,83049,83023
 3.5000e+000 83144 -7.5039e+001 -2.8773e+002  4.7611e+000 56304 82815,83049,82893
 3.5000e+000 83121 -9.9955e+001 -3.5289e+002  1.0843e+001 56304 82815,82893,82867
 3.5000e+000 83098 -6.6919e+001 -2.9776e+002  3.2062e+001 56304 82971,83023,82997
 3.5000e+000 83075 -1.4591e+002 -3.4490e+002 -3.2020e+001 56304 82815,82867,82841
 3.5000e+000 83285 -7.1290e+001 -2.3883e+002  3.0440e+001 56304 82971,82945,83259
 3.5000e+000 83308 -5.6126e+001 -2.3488e+002  2.5051e+001 56304 82971,83259,83049
 3.5000e+000 83556 -1.0254e+002 -2.3574e+002 -1.2825e+001 55964 83357,83461,83435
 3.5000e+000 83533 -8.2346e+001 -1.8198e+002  1.4001e+001 55964 83331,83461,83357
 3.5000e+000 83510 -4.1400e+001 -2.6919e+002  3.5639e+001 55964 83357,83435,83383
 3.5000e+000 83487 -5.3908e+001 -3.3001e+002  8.9842e+000 55964 83383,83435,83409
 3.5000e+000 83706 -5.1356e+001 -2.2379e+002  1.2356e+001 55503 83579,83631,83605
 3.5000e+000 83683 -7.6094e+001 -2.3612e+002  1.9280e+001 55503 83579,83657,83631
 3.5000e+000 83907 -4.3221e+001 -1.7449e+002  9.4729e+000 55156 83757,83835,83809
 3.5000e+000 83884 -3.8799e+001 -1.3788e+002  5.8386e+001 55156 83731,83835,83757
 3.5000e+000 83861 -5.5513e+001 -1.2723e+002  1.9890e+001 55156 83757,83809,83783
 3.5000e+000 84240 -5.6484e+001 -2.0252e+002  9.8557e+000 54652 84093,84145,84119
 3.5000e+000 84217 -4.0467e+001 -1.4469e+002  3.8759e+000 54652 84041,84145,84093
 3.5000e+000 84194 -2.7045e+001 -1.8323e+002  3.5457e+001 54652 84015,84145,84041
 3.5000e+000 84171 -8.1076e-001 -1.2599e+002  1.1849e+001 54652 84041,84093,84067
 3.5000e+000 84618 -7.2143e+001 -1.9717e+002  1.2844e+001 53926 84396,84500,84474
 3.5000e+000 84595 -1.0791e+002 -2.7382e+002 -1.5323e+000 53926 84344,84500,84396
 3.5000e+000 84572 -7.5916e+001 -1.9259e+002  2.5977e+000 53926 84344,84396,84370
 3.5000e+000 84549 -7.8638e+001 -1.9854e+002  9.1988e+000 53926 84396,84474,84422
 3.5000e+000 84526 -1.1376e+002 -1.7252e+002  4.9577e+000 53926 84422,84474,84448
 3.5000e+000 85350 -1.0931e+002 -2.5964e+002 -2.5081e+001 53586 85373,84880,85088
 3.5000e+000 85327 -1.1462e+002 -3.0350e+002 -5.2895e+000 53586 84880,85114,85088
 3.5000e+000 85304 -1.2388e+002 -2.4131e+002  3.9639e+001 53586 85373,85088,85062
 3.5000e+000 85281 -9.1578e+001 -1.3435e+002 -4.8231e+001 53586 85010,85062,85036
 3.5000e+000 85258 -7.6001e+001 -1.7247e+002 -1.4932e+001 53586 85445,85010,84958
 3.5000e+000 85235 -4.3495e+001 -1.4656e+002  1.4157e+001 53586 85445,84958,84906
 3.5000e+000 85212 -3.5668e+001 -1.5642e+002 -2.9988e+001 53586 84958,85010,84984
 3.5000e+000 85189 -4.5227e+001 -2.7926e+002  2.7602e+001 53586 84906,84958,84932
 3.5000e+000 85166 -7.9229e+001 -1.9765e+002 -6.3631e+001 53586 84880,85140,85114
 3.5000e+000 85399 -8.0031e+001 -1.7745e+002 -1.4367e+001 53586 84906,84880,85373
 3.5000e+000 85422 -8.7231e+001 -1.7035e+002  2.6281e+001 53586 85517,85373,85062
 3.5000e+000 85471 -4.0044e+001 -8.8611e+001 -2.9776e+001 53586 85062,85010,85445
 3.5000e+000 85494 -7.9662e+001 -1.3170e+002  1.8905e+001 53586 85517,85062,85445
 3.5000e+000 85543 -7.0036e+001 -2.3047e+002  2.5226e+001 53586 84906,85373,85517
 3.5000e+000 85566 -6.9720e+001 -1.9942e+002  2.3282e+001 53586 84906,85517,85445
 3.5000e+000 86072 -3.2344e+001 -2.2144e+002  1.3408e+001 53182 86095,85853,85775
 3.5000e+000 86049 -6.0553e+001 -1.6875e+002  2.5547e+001 53182 86095,85775,85931
 3.5000e+000 86026 -4.2983e+001 -2.1297e+002  8.3148e+001 53182 86167,85879,85853
 3.5000e+000 86003 -1.3288e+001 -2.2747e+002 -1.9612e+001 53182 85775,85827,85801
 3.5000e+000 85980 -7.8068e+001 -2.7128e+002 -4.1000e+001 53182 85775,85853,85827
 3.5000e+000 85957 -7.3598e+001 -1.7577e+002  2.9854e+001 53182 85749,85931,85775
 3.5000e+000 86121 -2.9364e+001 -1.8256e+002  3.1270e+001 53182 86167,85853,86095
 3.5000e+000 86144 -1.2116e+002 -2.2562e+002  1.9683e+000 53182 85905,86095,85931
 3.5000e+000 86193 -5.5419e+001 -2.4282e+002  8.2927e+001 53182 85905,85879,86167
 3.5000e+000 86216 -7.1661e+001 -2.8181e+002  2.9489e+001 53182 85905,86167,86095
 3.5000e+000 86673 -3.2686e+001 -1.8995e+002 -5.2583e+001 52778 86477,86529,86503
 3.5000e+000 86650 -6.6599e+001 -2.0399e+002 -1.5655e+001 52778 86425,86529,86477
 3.5000e+000 86627 -2.9157e+001 -1.7468e+002 -3.0577e+001 52778 86425,86477,86451
 3.5000e+000 86604 -1.0739e+002 -1.5820e+002 -1.6138e+001 52778 86399,86529,86425
 3.5000e+000 86581 -1.5768e+002 -1.9768e+002  2.0038e+001 52778 86399,86555,86529
 3.5000e+000 87258 -6.2829e+001 -3.9396e+002 -6.7793e+001 52238 87281,86987,86961
 3.5000e+000 87235 -3.2876e+001 -3.0138e+002  2.6537e+001 52238 87281,86961,87117
 3.5000e+000 87212 -4.1472e+001 -1.5731e+002  1.8194e+001 52238 86935,87117,86961
 3.5000e+000 87189  7.0881e+000 -1.7931e+002  2.9637e+001 52238 87065,87117,87091
 3.5000e+000 87166 -4.8797e+001 -1.6269e+002 -3.8386e+001 52238 86987,87065,87039
 3.5000e+000 87143 -8.9288e+001 -1.1478e+002 -8.5749e+001 52238 86987,87039,87013
 3.5000e+000 87307  8.5008e+000 -2.2610e+002 -5.1675e+001 52238 87065,86987,87281
 3.5000e+000 87330 -1.1282e+001 -2.4539e+002  4.3347e+001 52238 87065,87281,87117
 3.5000e+000 87610 -4.4743e+001 -1.6875e+002  3.7481e+000 51834 87434,87512,87460
 3.5000e+000 87587 -5.5223e+001 -1.6132e+002  3.1015e+001 51834 87434,87538,87512
 3.5000e+000 87564 -3.4494e+001 -4.8828e+001  1.1238e+001 51834 87633,87460,87512
 3.5000e+000 87659 -2.5560e+000 -3.5148e+001  1.2617e+001 51834 87486,87460,87633
 3.5000e+000 88187 -6.5714e+001 -2.7112e+002 -2.0433e+001 51266 87864,87942,87890
 3.5000e+000 88164 -2.2140e+001 -1.6936e+002 -3.8115e+000 51266 87864,88020,87942
 3.5000e+000 88141 -3.3482e+001 -1.6915e+002  5.4767e+000 51266 87942,88020,87968
 3.5000e+000 88118 -4.8264e+001 -2.8789e+002 -1.2804e+001 51266 87864,88046,88020
 3.5000e+000 88095 -1.9719e+001 -1.5371e+002  1.1353e+001 51266 87968,88020,87994
 3.5000e+000 88072 -1.7010e+001 -2.6834e+002 -5.8978e+001 51266 87890,87942,87916
 3.5000e+000 88644 -1.2890e+002 -1.4649e+002 -5.5563e+000 50754 88370,88500,88396
 3.5000e+000 88621 -1.3142e+002 -2.4056e+002  1.5945e+001 50754 88370,88526,88500
 3.5000e+000 88598 -9.7732e+001 -2.2340e+002 -1.3613e+002 50754 88396,88500,88422
 3.5000e+000 88575 -1.2404e+002 -3.4574e+002 -1.1760e+002 50754 88422,88500,88474
 3.5000e+000 88552 -9.2867e+001 -2.4246e+002  9.1222e+001 50754 88422,88474,88448
 3.5000e+000 88914 -2.0797e+001 -1.3316e+002  8.8453e+000 50442 88715,88793,88741
 3.5000e+000 88891 -1.1380e+001 -1.5042e+002  9.9425e+000 50442 88715,88819,88793
 3.5000e+000 88868 -1.6905e+000 -1.5993e+002  5.9233e+000 50442 88689,88819,88715
 3.5000e+000 88845 -3.6258e+001 -1.3041e+002  2.9140e+001 50442 88741,88793,88767
 3.5000e+000 89294 -1.9211e+001 -1.9779e+002  1.0487e+001 49938 89317,89046,89020
 3.5000e+000 89271 -1.7019e+001 -2.0270e+002  9.0941e+000 49938 89317,89020,89150
 3.5000e+000 89248 -6.6072e+001 -1.9541e+002  1.1335e+000 49938 89072,89150,89098
 3.5000e+000 89225 -2.4611e+001 -2.3242e+002  4.1571e+001 49938 89020,89176,89150
 3.5000e+000 89202 -5.4000e+001 -1.6887e+002 -3.0859e+000 49938 89098,89150,89124
 3.5000e+000 89343 -3.4186e+000 -1.5491e+002  1.6542e+001 49938 89072,89046,89317
 3.5000e+000 89366 -2.2433e+001 -1.9790e+002  1.2937e+001 49938 89072,89317,89150
 3.5000e+000 89823 -9.2468e+000 -1.0223e+002  9.5565e-001 49384 89601,89705,89679
 3.5000e+000 89800 -2.2987e+001 -8.9252e+001 -2.1708e+001 49384 89549,89705,89601
 3.5000e+000 89777 -1.0756e+001 -1.5004e+002 -1.9462e+001 49384 89549,89601,89575
 3.5000e+000 89754 -6.5162e+001 -8.4173e+001  6.7862e+000 49384 89601,89679,89627
 3.5000e+000 89731 -7.7042e+001 -9.9870e+001  2.0243e+001 49384 89627,89679,89653
 3.5000e+000 90329 -1.1890e+001 -1.2425e+002 -1.1413e+001 48894 90058,90110,90084
 3.5000e+000 90306 -4.0670e+001 -1.3738e+002 -3.4076e+001 48894 90058,90162,90110
 3.5000e+000 90283 -5.7281e+001 -1.6385e+002 -4.1852e+001 48894 90032,90162,90058
 3.5000e+000 90260 -4.2358e+001 -1.6434e+002 -2.3968e+001 48894 90006,90162,90032
 3.5000e+000 90237 -6.0786e+001 -2.2602e+002 -3.1430e+001 48894 90110,90162,90136
 3.5000e+000 90214 -2.8940e+001 -1.5686e+002 -2.7155e+001 48894 90006,90188,90162
 3.5000e+000 90884 -2.5894e+000 -1.2876e+002 -1.7246e+001 48490 90564,90642,90616
 3.5000e+000 90861 -3.8647e+001 -1.3568e+002 -1.6379e+001 48490 90564,90694,90642
 3.5000e+000 90838  2.1081e+000 -1.1783e+002 -1.2809e+001 48490 90538,90694,90564
 3.5000e+000 90815 -1.7053e+001 -1.2520e+002 -1.0273e+001 48490 90538,90720,90694
 3.5000e+000 90792  1.4774e+001 -7.4931e+001 -7.0888e+000 48490 90564,90616,90590
 3.5000e+000 90769 -5.1059e+001 -2.0959e+002 -6.8936e+001 48490 90642,90694,90668
 3.5000e+000 90746 -6.0433e+000 -1.0476e+002  1.8981e+001 48490 90512,90720,90538
 3.5000e+000 91034 -6.4275e+000 -1.1931e+002  2.9001e+001 48086 91057,90959,90933
 3.5000e+000 91011  5.4267e-001 -9.2781e+001  2.4922e+001 48086 91129,91057,90933
 3.5000e+000 91083  8.9748e+000 -1.0697e+002  2.3000e+001 48086 90985,90959,91057
 3.5000e+000 91106 -7.9665e+000 -1.0215e+002  1.5002e+001 48086 90985,91057,90907
 3.5000e+000 91155 -2.5686e+001 -1.0802e+002  1.8227e+001 48086 90907,91057,91129
 3.5000e+000 91791 -3.1880e+001 -1.2434e+002  8.0152e+001 47518 92030,91814,91523
 3.5000e+000 91768 -6.0972e+001 -1.7301e+002  3.9376e+001 47518 91958,91814,91471
 3.5000e+000 91745 -5.6907e+001 -2.4299e+002  2.2951e+001 47518 91886,91575,91523
 3.5000e+000 91722 -5.8932e+001 -1.2567e+002  2.0395e+000 47518 91958,91471,91419
 3.5000e+000 91699 -2.7622e+001 -1.4051e+002  8.8344e+001 47518 92030,91523,91497
 3.5000e+000 91676 -8.4739e+001 -1.9122e+002  2.6036e+001 47518 91523,91575,91549
 3.5000e+000 91653 -5.9081e+001 -7.3828e+001  3.6527e-001 47518 91419,91471,91445
 3.5000e+000 91840 -2.9872e+001 -1.9642e+002  7.6747e+001 47518 91886,91523,91814
 3.5000e+000 91863 -2.7521e+001 -1.3686e+002  3.3063e+001 47518 91601,91814,91627
 3.5000e+000 91912 -1.1396e+002 -2.7416e+002 -4.4574e+001 47518 91601,91575,91886
 3.5000e+000 91935 -1.0068e+002 -1.7856e+002  1.0921e+001 47518 91601,91886,91814
 3.5000e+000 91984 -1.5147e+001 -1.3278e+002  2.1415e+001 47518 91627,91814,91958
 3.5000e+000 92007 -3.7450e+001 -1.0618e+002 -9.8260e+000 47518 91627,91958,91419
 3.5000e+000 92056 -2.5497e+001 -1.0990e+002  8.1573e+001 47518 91471,91814,92030
 3.5000e+000 92079 -1.8963e+001 -1.1946e+002  8.9817e+001 47518 91471,92030,91497
 3.5000e+000 92229 -2.1808e-001 -3.6877e+000  1.7193e+000 47128 92252,92128,92102
 3.5000e+000 92206  2.7238e+000 -7.6868e+000 -2.2756e+000 47128 92324,92252,92102
 3.5000e+000 92278  2.9914e+000  6.0328e+000  5.9645e+000 47128 92454,92252,92154
 3.5000e+000 92301  2.3230e+000 -8.5749e+000  2.4241e+000 47128 92154,92252,92180
 3.5000e+000 92350 -3.0340e+000 -1.1472e+001 -4.2113e+000 47128 92180,92252,92324
 3.5000e+000 92480  1.4913e+000 -2.2781e+000  4.1493e+000 47128 92128,92252,92454
 3.5000e+000 93340 -5.8269e+001 -1.7338e+002 -1.4639e+001 46838 93363,92977,92873
 3.5000e+000 93317 -4.9054e+001 -1.7062e+002 -9.2857e+000 46838 93507,93363,92873
 3.5000e+000 93294 -2.4412e+001 -1.5942e+002  9.4678e+000 46838 93435,93003,92977
 3.5000e+000 93271 -9.4478e+001 -1.7377e+002 -8.2357e+000 46838 93507,92873,92847
 3.5000e+000 93248 -1.9053e+001 -1.6711e+002 -9.5517e-001 46838 93579,93029,93003
 3.5000e+000 93225 -8.2336e+001 -2.8330e+002  4.3355e+001 46838 92873,92951,92925
 3.5000e+000 93202 -9.1394e+001 -2.0851e+002  2.8710e-002 46838 92873,92977,92951
 3.5000e+000 93179 -5.0756e+000 -1.5937e+002  5.3063e+000 46838 93055,93107,93081
 3.5000e+000 93156 -2.2891e+001 -1.0074e+002  2.6553e+001 46838 92821,93107,92847
 3.5000e+000 93133 -6.4163e+001 -1.8793e+002  3.1137e+001 46838 92873,92925,92899
 3.5000e+000 93389 -3.7545e+001 -1.6819e+002  5.6549e+000 46838 93435,92977,93363
 3.5000e+000 93412 -1.7369e+000 -1.7485e+002  6.3153e+000 46838 93055,93363,93107
 3.5000e+000 93461 -2.0460e+001 -1.7130e+002 -9.4172e-001 46838 93579,93003,93435
 3.5000e+000 93484 -2.3648e+001 -1.8474e+002  2.0394e+000 46838 93055,93435,93363
 3.5000e+000 93533 -1.6527e+001 -1.7277e+002 -1.8545e+001 46838 93107,93363,93507
 3.5000e+000 93556 -3.3469e+001 -1.5526e+002 -1.8007e+001 46838 93107,93507,92847
 3.5000e+000 93605 -1.7888e+001 -1.6916e+002  5.4008e+000 46838 93055,93029,93579
 3.5000e+000 93628 -1.8898e+001 -1.7256e+002  5.4576e+000 46838 93055,93579,93435
 3.5000e+000 93979 -6.1468e+001 -1.3192e+002  1.2932e+000 46476 93780,93884,93858
 3.5000e+000 93956 -5.3626e+001 -1.4040e+002  7.4894e+000 46476 93754,93884,93780
 3.5000e+000 93933 -3.9566e+001 -9.0379e+001 -4.3618e+000 46476 93806,93858,93832
 3.5000e+000 93910 -4.9296e+001 -1.2574e+002 -1.3219e+000 46476 93780,93858,93806
 3.5000e+000 94515 -8.2077e+000 -1.2039e+002  4.1339e+000 46072 94345,94397,94371
 3.5000e+000 94492 -9.8036e+001 -1.6377e+002  3.1676e+001 46072 94267,94397,94345
 3.5000e+000 94469 -6.8351e+001 -1.7802e+002  1.2034e+001 46072 94241,94397,94267
 3.5000e+000 94446 -6.0571e+001 -7.4375e+001  3.1029e+001 46072 94293,94345,94319
 3.5000e+000 94423 -7.9964e+001 -1.0483e+002  4.0003e+001 46072 94267,94345,94293
 3.5000e+000 95149 -8.1451e+001 -2.3807e+002  6.6886e+000 45346 94803,94881,94855
 3.5000e+000 95126 -7.1718e+001 -2.0173e+002 -1.1854e+001 45346 94803,94959,94881
 3.5000e+000 95103 -4.6225e+001 -2.1578e+002 -4.4375e+001 45346 95172,94933,94907
 3.5000e+000 95080 -8.6047e+001 -3.8143e+002 -2.8333e+001 45346 95172,94907,94881
 3.5000e+000 95057 -9.9277e+001 -1.9266e+002 -6.0642e+000 45346 94803,94985,94959
 3.5000e+000 95034 -6.8629e+001 -2.7676e+002 -7.9357e+000 45346 94803,94855,94829
 3.5000e+000 95011 -1.0338e+002 -1.9454e+002  9.8583e+000 45346 94777,94985,94803
 3.5000e+000 95198 -9.5797e+001 -1.3724e+002 -2.6326e+001 45346 94959,94933,95172
 3.5000e+000 95221 -8.1955e+001 -2.2962e+002 -2.3631e+001 45346 94959,95172,94881
 3.5000e+000 95776 -4.3163e+001 -2.4840e+002 -7.5346e+000 44720 95799,95560,95534
 3.5000e+000 95753 -1.8269e+001 -1.5098e+002 -2.8811e+001 44720 95799,95534,95482
 3.5000e+000 95730 -7.2777e+000 -2.6826e+002 -2.9997e+001 44720 95943,95871,95430
 3.5000e+000 95707 -1.8649e+001 -2.0925e+002 -1.7143e+001 44720 95943,95430,95404
 3.5000e+000 95684 -1.1267e+002 -1.8501e+002 -6.9455e+001 44720 95430,95482,95456
 3.5000e+000 95661 -4.4844e+001 -1.3429e+002  3.8136e+001 44720 95482,95534,95508
 3.5000e+000 95638 -1.0231e+001 -1.2766e+002 -3.8299e+001 44720 95404,95612,95586
 3.5000e+000 95825 -2.0176e+001 -3.4502e+002 -4.6819e+001 44720 95586,95560,95799
 3.5000e+000 95848  1.0837e+001 -2.4472e+002 -3.1818e+001 44720 95871,95586,95799
 3.5000e+000 95897 -1.0058e+001 -2.7813e+002 -4.6580e+001 44720 95482,95430,95871
 3.5000e+000 95920 -8.6633e+000 -2.5768e+002 -2.2371e+001 44720 95482,95871,95799
 3.5000e+000 95969  1.1774e+001 -1.8766e+002 -3.5774e+001 44720 95586,95871,95943
 3.5000e+000 95992 -1.1016e+001 -1.5074e+002 -1.2131e+001 44720 95586,95943,95404
 3.5000e+000 96449 -5.4356e+001 -2.3899e+002 -6.5777e-001 44202 96544,96472,96227
 3.5000e+000 96426 -5.5053e+001 -2.3181e+002  3.2794e+001 44202 96472,96175,96331
 3.5000e+000 96403 -4.0554e+001 -2.5198e+002  2.1461e+000 44202 96544,96227,96201
 3.5000e+000 96380 -7.4983e+001 -3.2312e+002 -5.8197e+001 44202 96253,96305,96279
 3.5000e+000 96357 -1.0695e+002 -2.3201e+002 -2.8567e+001 44202 96227,96305,96253
 3.5000e+000 96498 -4.5238e+001 -2.0921e+002  1.4625e+000 44202 96305,96227,96472
 3.5000e+000 96521 -3.4719e+001 -1.8758e+002  3.8874e+001 44202 96305,96472,96331
 3.5000e+000 96570 -4.4745e+001 -2.1436e+002  5.8280e+000 44202 96175,96472,96544
 3.5000e+000 96593 -3.8709e+001 -2.3691e+002  6.9923e+000 44202 96175,96544,96201
 3.5000e+000 96971 -2.4266e+001 -1.3520e+002 -3.5108e+001 43754 96994,96749,96697
 3.5000e+000 96948  9.4224e-002 -1.5615e+002 -1.8379e+001 43754 96994,96697,96853
 3.5000e+000 96925 -5.0549e+001 -1.1763e+002 -1.9525e+001 43754 96697,96749,96723
 3.5000e+000 96902 -1.9813e+001 -1.6649e+002  1.6448e+001 43754 96775,96853,96827
 3.5000e+000 96879  9.1133e+000 -2.2150e+002  4.7828e+000 43754 96775,96827,96801
 3.5000e+000 97020 -6.9628e+000 -1.0333e+002 -2.5728e+001 43754 96775,96749,96994
 3.5000e+000 97043  1.3608e+001 -1.3728e+002 -1.1273e+001 43754 96775,96994,96853
 3.5000e+000 97291 -3.6619e+001 -2.1952e+002 -2.9975e+001 43364 97314,97144,97118
 3.5000e+000 97268 -3.3938e+001 -1.7497e+002 -1.0242e+001 43364 97314,97118,97092
 3.5000e+000 97245 -2.4865e+001 -1.5692e+002  1.8143e+001 43364 97386,97196,97170
 3.5000e+000 97222 -3.6368e+001 -1.3085e+002  3.1652e+001 43364 97066,97196,97092
 3.5000e+000 97340 -2.7801e+001 -1.4783e+002 -3.6727e+001 43364 97170,97144,97314
 3.5000e+000 97363 -3.2534e+001 -1.3672e+002  2.2198e+000 43364 97386,97170,97314
 3.5000e+000 97412 -3.5284e+001 -1.7976e+002  1.0893e+001 43364 97092,97196,97386
 3.5000e+000 97435 -5.2540e+001 -1.7623e+002 -7.5218e+000 43364 97092,97386,97314
 3.5000e+000 97788 -7.4458e+000 -1.2539e+002  1.4393e+001 42960 97563,97667,97589
 3.5000e+000 97765 -4.3572e+001 -1.2147e+002  1.7394e+001 42960 97563,97693,97667
 3.5000e+000 97742  8.6042e+000 -1.2000e+001  5.9121e+000 42960 97589,97641,97615
 3.5000e+000 97719 -9.1840e+000 -1.3743e+002  6.8376e+000 42960 97589,97667,97641
 3.5000e+000 98215  2.2606e+000 -1.1620e+002 -9.0508e+000 42563 97918,98074,98048
 3.5000e+000 98192 -2.2414e+001 -8.1234e+001  2.7555e+001 42563 97892,98074,97918
 3.5000e+000 98169 -2.6863e+001 -2.1025e+002  8.0279e+000 42563 98238,97944,97918
 3.5000e+000 98146 -2.6422e+001 -2.0741e+002  2.2165e+001 42563 98238,97918,98048
 3.5000e+000 98123 -3.4913e+001 -1.3421e+002  6.7702e+000 42563 97944,98022,97996
 3.5000e+000 98100 -6.7821e+001 -1.9711e+002  2.8351e+001 42563 97944,97996,97970
 3.5000e+000 98264 -4.1283e+001 -2.1311e+002  6.5840e+000 42563 98022,97944,98238
 3.5000e+000 98287 -3.9334e+001 -2.1277e+002  1.9116e+001 42563 98022,98238,98048
 3.5000e+000 98616 -4.6336e+001 -1.3322e+002 -1.1634e+001 42251 98443,98521,98469
 3.5000e+000 98593 -5.7110e+001 -1.3046e+002 -4.3994e+000 42251 98417,98521,98443
 3.5000e+000 98570 -7.0607e+001 -1.6465e+002 -2.4861e+001 42251 98391,98521,98417
 3.5000e+000 98547 -1.0128e+001 -1.1086e+002 -2.5052e+001 42251 98469,98521,98495
 3.5000e+000 98886 -1.0962e+001 -1.8002e+002  1.0057e+001 41847 98661,98765,98687
 3.5000e+000 98863 -2.3142e+001 -1.0061e+002 -4.8076e+001 41847 98661,98791,98765
 3.5000e+000 98840 -2.9546e+001 -1.2884e+002  2.6241e+000 41847 98687,98765,98739
 3.5000e+000 98817 -8.4351e+000 -1.1046e+002 -1.2241e+001 41847 98687,98739,98713
 3.5000e+000 99394 -2.9863e+001 -1.4741e+002 -1.2303e+001 41236 99417,99149,99123
 3.5000e+000 99371 -1.0650e+002 -1.6691e+002 -8.9416e+000 41236 99417,99123,99097
 3.5000e+000 99348 -7.9816e+001 -1.1820e+002 -5.8458e+001 41236 99489,99201,99149
 3.5000e+000 99325 -1.4132e+001 -7.4092e+001 -2.8177e+001 41236 99149,99201,99175
 3.5000e+000 99302 -3.9347e+001 -2.1407e+002 -2.2945e+000 41236 99097,99253,99227
 3.5000e+000 99279 -1.3004e+002 -2.9973e+002 -4.4140e+001 41236 99071,99253,99097
 3.5000e+000 99443 -4.4863e+001 -1.3543e+002 -5.4440e+001 41236 99489,99149,99417
 3.5000e+000 99466 -7.8307e+001 -1.6413e+002 -3.6839e+001 41236 99227,99417,99097
 3.5000e+000 99515 -9.6853e+001 -1.3521e+002 -4.9933e+001 41236 99227,99201,99489
 3.5000e+000 99538 -8.3000e+001 -1.6893e+002 -3.9239e+001 41236 99227,99489,99417
 3.5000e+000 100044  8.7507e+000 -4.2197e+002  1.4925e+000 40732 99721,99773,99747
 3.5000e+000 100021 -3.2843e+001 -3.4831e+002 -2.2234e+001 40732 99721,99799,99773
 3.5000e+000 99998 -3.8849e+001 -2.2056e+002 -1.2945e+001 40732 99721,99903,99799
 3.5000e+000 99975 -4.5647e+001 -1.9008e+002 -6.3395e+000 40732 100067,99877,99851
 3.5000e+000 99952 -4.7162e+001 -1.5576e+002 -1.5556e+000 40732 100067,99851,99799
 3.5000e+000 99929 -3.4793e+001 -1.4073e+002 -1.5077e+001 40732 99799,99851,99825
 3.5000e+000 100093 -4.2415e+001 -2.1887e+002 -1.9204e+001 40732 99903,99877,100067
 3.5000e+000 100116 -4.0249e+001 -1.7640e+002 -1.7209e+001 40732 99903,100067,99799
 3.5000e+000 100622 -2.4768e+001 -1.7787e+002 -1.2155e+001 40278 100645,100455,100429
 3.5000e+000 100599 -6.9253e+001 -1.3642e+002 -2.5276e+001 40278 100717,100645,100429
 3.5000e+000 100576 -6.9202e+001 -1.3642e+002  1.3573e+001 40278 100717,100429,100377
 3.5000e+000 100553 -4.3628e+001 -2.5057e+002 -7.8708e+000 40278 100789,100325,100481
 3.5000e+000 100530 -7.1747e+001 -1.4878e+002  2.6539e+001 40278 100299,100481,100325
 3.5000e+000 100507 -7.6850e+001 -1.8329e+002 -8.7750e+000 40278 100377,100429,100403
 3.5000e+000 100671 -2.9162e+001 -2.0590e+002 -2.1532e+001 40278 100481,100455,100645
 3.5000e+000 100694 -3.8698e+001 -2.1200e+002 -1.2322e+001 40278 100789,100481,100645
 3.5000e+000 100743 -4.6689e+001 -7.4197e+001 -4.0065e+001 40278 100351,100645,100717
 3.5000e+000 100766 -6.2759e+001 -8.8689e+001  2.0490e+000 40278 100351,100717,100377
 3.5000e+000 100815 -6.5598e+001 -2.5574e+002 -7.5687e+001 40278 100351,100325,100789
 3.5000e+000 100838 -3.4567e+001 -1.6662e+002 -7.6355e+001 40278 100351,100789,100645
 3.5000e+000 101265 -1.7537e+001 -1.9519e+002  1.9490e+001 39824 101288,101046,100994
 3.5000e+000 101242 -3.4207e+001 -1.8046e+002  8.9261e+000 39824 101288,100994,100968
 3.5000e+000 101219 -3.3861e+001 -1.8770e+002 -3.3183e+000 39824 100942,101124,100968
 3.5000e+000 101196 -6.5258e+001 -3.5017e+002  1.8644e+001 39824 101046,101124,101072
 3.5000e+000 101173 -9.1823e+000 -1.8273e+002  3.5867e+001 39824 100994,101046,101020
 3.5000e+000 101150 -7.2177e+001 -2.7176e+002 -1.8827e+001 39824 101072,101124,101098
 3.5000e+000 101314 -5.9121e+000 -1.8551e+002  1.4787e+001 39824 101124,101046,101288
 3.5000e+000 101337 -1.8026e+001 -1.7196e+002  3.7240e+000 39824 101124,101288,100968
 3.5000e+000 101585  7.1054e-001 -1.2327e+002 -3.0955e+001 39070 101608,101464,101412
 3.5000e+000 101562  5.1678e+001 -1.4102e+002  1.0354e+001 39070 101608,101412,101360
 3.5000e+000 101539 -1.0219e+001 -9.9249e+001 -7.8643e+000 39070 101412,101464,101438
 3.5000e+000 101516  2.4664e+001 -1.0790e+002  2.8997e+001 39070 101360,101412,101386
 3.5000e+000 101634 -3.6684e+001 -1.3566e+002 -3.3993e+001 39070 101490,101464,101608
 3.5000e+000 101657 -2.5308e+000 -1.6042e+002  1.2253e+001 39070 101490,101608,101360
 3.5000e+000 101856 -1.5377e+001 -9.6506e+001 -3.5566e+000 38730 101706,101758,101732
 3.5000e+000 101833 -5.2636e+000 -1.1291e+002  1.6941e+000 38730 101706,101784,101758
 3.5000e+000 101810 -3.2284e+001 -1.2959e+002 -6.1219e+000 38730 101680,101784,101706
 3.5000e+000 102106 -8.7928e+001 -2.1092e+002 -6.0136e+000 38326 101881,101959,101907
 3.5000e+000 102083 -6.7705e+001 -1.6600e+002 -1.0367e+001 38326 101881,101985,101959
 3.5000e+000 102060 -5.1948e+001 -2.2930e+002  2.5937e+001 38326 101881,102011,101985
 3.5000e+000 102037 -4.4649e+001 -1.3627e+002 -4.6132e+001 38326 101907,101959,101933
 3.5000e+000 102258  4.4758e+001 -1.5417e+002  1.4627e+001 38036 102281,102157,102131
 3.5000e+000 102235  1.0353e+001 -1.9430e+002  3.3254e+001 38036 102281,102131,102209
 3.5000e+000 102307 -9.2621e+000 -1.0843e+002  1.2058e+001 38036 102183,102157,102281
 3.5000e+000 102330 -4.6772e+001 -1.4289e+002  3.3265e+001 38036 102183,102281,102209
 3.5000e+000 102663 -1.4365e+001 -8.5532e+001  7.9793e+000 37596 102438,102542,102464
 3.5000e+000 102640  6.8748e+000 -7.9608e+001  9.4076e-001 37596 102438,102568,102542
 3.5000e+000 102617 -1.0858e+001 -1.2823e+002 -2.5061e+001 37596 102490,102542,102516
 3.5000e+000 102594 -2.3076e+001 -8.8316e+001  4.7721e+000 37596 102464,102542,102490
 3.5000e+000 102862 -3.5670e+001 -1.6392e+002 -1.7425e+001 37192 102686,102764,102712
 3.5000e+000 102839 -2.3991e+001 -1.5395e+002 -2.9509e+001 37192 102686,102790,102764
 3.5000e+000 102816 -4.6717e+001 -1.4800e+002 -2.4611e+001 37192 102712,102764,102738
 3.5000e+000 103110 -2.0940e+001 -1.0968e+002 -4.6793e+001 36609 102911,102963,102937
 3.5000e+000 103087 -2.0356e+001 -1.5335e+002 -1.1553e+001 36609 102911,102989,102963
 3.5000e+000 103064 -1.4878e+000 -1.5876e+002 -1.5700e+001 36609 102885,102989,102911
 3.5000e+000 103041 -3.9267e+001 -1.1470e+002 -4.4437e+001 36609 102885,103015,102989
 3.5000e+000 103718  2.5668e+001 -3.9778e+002  3.5026e+001 36131 103323,103375,103349
 3.5000e+000 103695 -7.7917e+001 -2.1595e+002 -1.5511e+001 36131 103297,103375,103323
 3.5000e+000 103672 -3.3407e+001 -1.2689e+002 -3.7230e+001 36131 103297,103505,103375
 3.5000e+000 103649 -9.8016e+001 -2.1497e+002  2.4345e+001 36131 103741,103479,103401
 3.5000e+000 103626 -5.8979e+001 -1.2381e+002  2.3856e+001 36131 103741,103401,103375
 3.5000e+000 103603 -1.1333e+002 -2.4061e+002  1.7382e+001 36131 103401,103479,103427
 3.5000e+000 103580 -6.6987e+001 -1.7609e+002 -3.2596e+000 36131 103297,103531,103505
 3.5000e+000 103557 -8.4941e+001 -2.1538e+002 -3.6185e+001 36131 103427,103479,103453
 3.5000e+000 103767 -7.3818e+001 -2.7383e+002 -4.5419e+001 36131 103505,103479,103741
 3.5000e+000 103790 -3.9353e+001 -1.9353e+002 -4.3627e+001 36131 103505,103741,103375
 3.5000e+000 103989 -1.2581e+002 -2.4397e+002  1.7638e+001 35791 103839,103917,103891
 3.5000e+000 103966 -1.8443e+002 -2.9822e+002 -4.8565e+000 35791 103813,103917,103839
 3.5000e+000 103943 -2.7206e+001 -1.7636e+002 -1.2663e+001 35791 103839,103891,103865
 3.5000e+000 104188 -1.3090e+001 -1.3738e+002  9.2358e+000 35444 104038,104090,104064
 3.5000e+000 104165 -6.4993e+001 -1.7795e+002 -2.1984e+001 35444 104038,104116,104090
 3.5000e+000 104142 -1.0420e+001 -1.6596e+002 -4.9939e+000 35444 104012,104116,104038
 3.5000e+000 104487 -1.5102e+001 -1.8045e+002 -4.8960e+001 34990 104265,104317,104291
 3.5000e+000 104464 -2.3610e+001 -2.2233e+002  8.9781e-001 34990 104510,104317,104265
 3.5000e+000 104441 -4.2703e+001 -1.5030e+002  2.3727e+001 34990 104510,104265,104213
 3.5000e+000 104418 -9.4157e-001 -1.5357e+002 -1.6984e+001 34990 104582,104343,104317
 3.5000e+000 104395 -3.0285e+001 -1.3865e+002 -4.7274e+001 34990 104213,104265,104239
 3.5000e+000 104536  1.4650e+000 -1.5101e+002 -5.8262e+000 34990 104582,104317,104510
 3.5000e+000 104559 -4.3617e+001 -1.1869e+002  1.9217e+001 34990 104369,104510,104213
 3.5000e+000 104608 -2.1378e+001 -1.1910e+002 -4.3358e+000 34990 104369,104343,104582
 3.5000e+000 104631 -2.9748e+001 -1.6507e+002  1.2751e+001 34990 104369,104582,104510
 3.5000e+000 104783  3.1913e+001 -7.0680e+001 -3.0010e+000 34700 104938,104806,104682
 3.5000e+000 104760  1.3913e+001 -1.1574e+002 -4.5769e+000 34700 104938,104682,104656
 3.5000e+000 104832  1.3060e+001 -1.3446e+002 -2.1180e+001 34700 104708,104682,104806
 3.5000e+000 104964  2.7749e+001 -5.5226e+001  3.5541e+001 34700 104734,104806,104938
 3.5000e+000 104987  1.3836e+001 -9.0162e+001  3.4674e+001 34700 104734,104938,104656
 3.5000e+000 105137  5.0145e+000 -1.0399e+002  7.1519e+000 34388 105036,105088,105062
 3.5000e+000 105114 -4.7375e+000 -1.7203e+002 -6.6883e+000 34388 105010,105088,105036
 3.5000e+000 105385 -3.4359e+001 -1.3263e+002 -3.5538e+001 33734 105408,105186,105160
 3.5000e+000 105362 -3.5471e+001 -1.4119e+002 -3.6589e+001 33734 105408,105160,105264
 3.5000e+000 105339 -8.0821e+001 -1.7587e+002 -2.1577e+001 33734 105160,105290,105264
 3.5000e+000 105316 -1.6580e+000 -1.1177e+002 -2.0370e+001 33734 105186,105238,105212
 3.5000e+000 105434 -3.5912e+001 -1.2187e+002 -2.7079e+001 33734 105238,105186,105408
 3.5000e+000 105457 -4.2513e+001 -1.4322e+002 -2.4067e+001 33734 105238,105408,105264
 3.5000e+000 105609 -2.0381e+001 -1.4251e+002  9.1889e+000 33394 105482,105534,105508
 3.5000e+000 105586 -7.2822e+000 -1.5995e+002  2.6212e+001 33394 105482,105560,105534
 3.5000e+000 105859 -4.8882e+001 -2.7404e+002 -4.6746e+001 33047 105882,105712,105660
 3.5000e+000 105836 -9.1651e+000 -2.3549e+002 -1.4354e+001 33047 105882,105660,105634
 3.5000e+000 105813  7.2197e+000 -3.0781e+002  1.3715e+001 33047 105660,105712,105686
 3.5000e+000 105790 -1.3056e+001 -1.0994e+002  1.8767e+000 33047 105634,105764,105738
 3.5000e+000 105908 -1.4690e+002 -2.0949e+002 -2.1252e+001 33047 105738,105712,105882
 3.5000e+000 105931 -4.8814e+001 -1.6942e+002  2.4895e+001 33047 105738,105882,105634
 3.5000e+000 106181 -2.6038e+001 -1.9557e+002 -1.2529e+000 32543 106204,106060,106008
 3.5000e+000 106158  6.0998e+000 -3.0896e+002  1.1990e+001 32543 105956,106086,106060
 3.5000e+000 106135 -3.0175e-001 -9.2087e+001  4.7240e+001 32543 106204,106008,105982
 3.5000e+000 106112 -4.9406e+001 -7.1144e+001  8.8829e+000 32543 106008,106060,106034
 3.5000e+000 106230 -3.3010e+001 -2.3928e+002 -5.4849e+001 32543 105956,106060,106204
 3.5000e+000 106253 -3.6895e+001 -1.5260e+002 -1.2987e+001 32543 105956,106204,105982
 3.5000e+000 106454  4.4089e+001 -1.0414e+002  4.1782e+001 31839 106304,106356,106330
 3.5000e+000 106431  4.4501e+001 -1.5008e+002 -3.5218e+001 31839 106278,106356,106304
 3.5000e+000 106408 -4.6552e+001 -1.4113e+002 -2.5039e+001 31839 106278,106382,106356
 3.5000e+000 106704 -6.8706e+000 -1.6254e+002 -2.2582e+001 31534 106505,106583,106557
 3.5000e+000 106681 -4.6634e+001 -1.7362e+002 -1.8418e+001 31534 106479,106583,106505
 3.5000e+000 106658 -5.0287e+001 -7.9301e+001 -4.2839e+001 31534 106505,106557,106531
 3.5000e+000 106635 -6.1458e+000 -1.5013e+002 -3.1534e+001 31534 106479,106609,106583
 3.5000e+000 107108 -1.2408e+002 -2.1602e+002  3.7160e-001 31030 106886,106990,106964
 3.5000e+000 107085 -1.3639e+002 -2.4174e+002 -4.6017e+000 31030 106860,106990,106886
 3.5000e+000 107062 -2.5886e+001 -2.1642e+002 -3.0488e+001 31030 106834,106990,106860
 3.5000e+000 107039 -1.1387e+002 -2.8346e+002  3.0770e+001 31030 106912,106964,106938
 3.5000e+000 107016 -1.0404e+002 -2.0502e+002  8.1510e+000 31030 106886,106964,106912
 3.5000e+000 107307 -2.8223e+000 -1.0475e+002 -8.0799e+000 30718 107330,107157,107131
 3.5000e+000 107284 -2.0547e+000 -1.3469e+002 -4.9409e+000 30718 107330,107131,107235
 3.5000e+000 107261 -4.1943e+000 -9.8035e+001  1.5240e+001 30718 107183,107235,107209
 3.5000e+000 107356 -8.1620e+000 -6.8286e+001 -5.5488e+000 30718 107183,107157,107330
 3.5000e+000 107379 -1.2262e+001 -1.0465e+002 -2.3626e+000 30718 107183,107330,107235
 3.5000e+000 107759 -4.3771e+000 -7.1350e+001 -3.5126e+000 30264 107782,107615,107537
 3.5000e+000 107736 -1.4164e+001 -9.4034e+001 -7.7610e+000 30264 107782,107537,107485
 3.5000e+000 107713 -2.5512e+001 -1.2742e+002  1.6526e+000 30264 107485,107537,107511
 3.5000e+000 107690  6.3975e+000 -1.0485e+002 -1.5543e+001 30264 107537,107615,107589
 3.5000e+000 107667  4.3502e+000 -1.0100e+002 -1.3912e+001 30264 107537,107589,107563
 3.5000e+000 107808  4.9705e+000 -7.4964e+001  1.5634e+001 30264 107641,107615,107782
 3.5000e+000 107831 -8.3487e+000 -1.0176e+002  1.0245e+001 30264 107641,107782,107485
 3.5000e+000 108030 -4.2112e+001 -2.2808e+002 -5.3260e+001 29874 108053,107854,107932
 3.5000e+000 108007 -8.8711e+001 -2.4316e+002 -5.0497e+001 29874 107854,107958,107932
 3.5000e+000 107984  1.2794e+001 -1.5872e+002 -7.0242e+000 29874 108053,107932,107906
 3.5000e+000 108079 -7.1678e+001 -1.4195e+002 -2.4886e+001 29874 107880,107854,108053
 3.5000e+000 108102 -5.4278e+001 -8.5736e+001  4.2119e+000 29874 107880,108053,107906
 3.5000e+000 108433  5.0516e+000 -2.0098e+002 -7.0887e+001 29484 108234,108338,108312
 3.5000e+000 108410 -7.4678e+000 -1.7039e+002 -3.7882e+000 29484 108208,108338,108234
 3.5000e+000 108387 -6.7978e+001 -1.7826e+002 -9.6644e+001 29484 108234,108312,108260
 3.5000e+000 108364  1.9025e+001 -2.9239e+000 -3.9220e+001 29484 108260,108312,108286
 3.5000e+000 108762 -4.2794e+001 -1.8057e+002  1.4444e+001 29080 108563,108641,108589
 3.5000e+000 108739 -2.8796e+001 -1.0380e+002 -3.2590e+000 29080 108537,108641,108563
 3.5000e+000 108716 -5.5663e+001 -2.2414e+002  1.6111e+001 29080 108589,108641,108615
 3.5000e+000 108693 -8.9090e-001 -8.9184e+001  7.0635e+000 29080 108537,108667,108641
 3.5000e+000 109189 -1.8397e+001 -1.7270e+002 -1.8960e+001 28476 108892,108996,108970
 3.5000e+000 109166 -4.0646e+001 -1.8853e+002 -1.1929e+001 28476 108892,109022,108996
 3.5000e+000 109143 -8.4579e+001 -1.3322e+002  2.2546e+001 28476 108892,108970,108944
 3.5000e+000 109120 -1.6549e+001 -2.2348e+002 -3.9945e+001 28476 108892,109048,109022
 3.5000e+000 109097 -6.0275e+001 -4.3462e+001  1.0373e+001 28476 108892,108944,108918
 3.5000e+000 109074 -2.0449e+001 -1.5707e+002 -4.9658e+001 28476 108866,109048,108892
 3.5000e+000 109518 -7.4384e+001 -2.0123e+002  3.2927e+001 28022 109541,109371,109345
 3.5000e+000 109495 -7.9391e+001 -1.8973e+002  2.3470e+001 28022 109541,109345,109319
 3.5000e+000 109472 -5.8714e+001 -1.8656e+002  7.1313e+000 28022 109293,109397,109319
 3.5000e+000 109449 -9.9684e+000 -1.6538e+002  3.2402e+000 28022 109293,109423,109397
 3.5000e+000 109567 -5.1603e+001 -1.9050e+002  2.8520e+001 28022 109397,109371,109541
 3.5000e+000 109590 -7.3091e+001 -1.8528e+002  2.1314e+001 28022 109397,109541,109319
 3.5000e+000 109968 -2.5998e+001 -1.0157e+002  5.3054e+001 27568 109798,109850,109824
 3.5000e+000 109945 -2.2186e+001 -1.6862e+002  7.6569e+001 27568 109694,109850,109798
 3.5000e+000 109922 -8.4861e+000 -1.4026e+002  6.7066e+001 27568 109694,109798,109746
 3.5000e+000 109899  4.4832e+000 -1.4187e+002  9.3612e+000 27568 109746,109798,109772
 3.5000e+000 109876 -3.4285e+001 -1.5845e+002  3.3475e+001 27568 109694,109746,109720
 3.5000e+000 110167 -4.5642e+001 -2.0806e+002 -6.2238e+001 27007 110017,110095,110069
 3.5000e+000 110144  1.7783e+001 -2.4310e+002 -1.1626e+001 27007 109991,110095,110017
 3.5000e+000 110121  3.6795e+000 -1.6647e+002 -3.0714e+001 27007 110017,110069,110043
 3.5000e+000 110415 -7.9437e+000 -1.8305e+002 -1.2814e+001 26567 110438,110242,110190
 3.5000e+000 110392 -2.3981e+001 -1.9749e+002 -6.6595e+000 26567 110438,110190,110320
 3.5000e+000 110369 -5.5024e+001 -1.8651e+002 -2.1706e+001 26567 110242,110294,110268
 3.5000e+000 110346 -1.2902e+001 -1.6713e+002  3.7603e+001 26567 110190,110242,110216
 3.5000e+000 110464 -1.5808e+001 -1.7736e+002 -1.9597e+001 26567 110294,110242,110438
 3.5000e+000 110487 -2.3025e+001 -1.8345e+002 -1.5933e+001 26567 110294,110438,110320
 3.5000e+000 110639  7.1328e+000  8.1317e+000  5.8526e+000 26170 110538,110590,110564
 3.5000e+000 110616  2.5502e+001  1.3705e+001  1.5894e+001 26170 110512,110590,110538
 3.5000e+000 111149 -3.3189e+001 -8.4001e+001 -8.7785e+000 25716 111172,110878,110852
 3.5000e+000 111126 -1.5640e+001 -8.8651e+001 -6.1411e+000 25716 111172,110852,111008
 3.5000e+000 111103 -1.9804e+001 -1.0362e+002 -2.0668e+001 25716 110878,110930,110904
 3.5000e+000 111080 -1.0043e+001 -7.4188e+001  1.1436e+001 25716 110826,111008,110852
 3.5000e+000 111057 -3.8656e+001 -1.4935e+002  4.4047e+001 25716 110930,111008,110956
 3.5000e+000 111034 -2.3153e+001 -1.2599e+002  2.7368e+001 25716 110956,111008,110982
 3.5000e+000 111198 -2.0792e+001 -8.5256e+001 -4.0148e+000 25716 110930,110878,111172
 3.5000e+000 111221  6.2425e-001 -8.6410e+001 -6.8947e-001 25716 110930,111172,111008
 3.5000e+000 111420  2.8416e+000 -8.1529e+001  6.8776e-002 25304 111443,111270,111244
 3.5000e+000 111397  1.2825e+000 -8.6366e+001  1.0245e+000 25304 111443,111244,111348
 3.5000e+000 111374 -2.1151e+000 -7.1713e+001  1.1935e+001 25304 111270,111322,111296
 3.5000e+000 111469  7.7225e-001 -7.7094e+001 -5.6811e-001 25304 111322,111270,111443
 3.5000e+000 111492 -6.2451e-001 -8.1396e+001  6.6354e-001 25304 111322,111443,111348
 3.5000e+000 111691 -4.7916e+001 -1.6290e+002  1.5788e+001 24736 111567,111619,111593
 3.5000e+000 111668 -7.4533e+001 -2.1566e+002  6.6945e+000 24736 111541,111619,111567
 3.5000e+000 111645 -5.1848e+001 -2.0479e+002  1.0793e+001 24736 111515,111619,111541
 3.5000e+000 112024 -1.0066e+001 -1.8265e+002  3.5112e+001 24146 111825,111877,111851
 3.5000e+000 112001 -2.7654e+001 -1.2824e+002  2.1325e+000 24146 111825,111903,111877
 3.5000e+000 111978 -8.6430e+000 -8.5589e+001 -5.9095e+000 24146 111825,111929,111903
 3.5000e+000 111955 -1.5809e+001 -7.6091e+001  1.8535e+000 24146 111799,111929,111825
 3.5000e+000 112370 -6.2314e+001 -3.1947e+002 -5.4973e+000 23856 112393,112151,112125
 3.5000e+000 112347 -4.1184e+001 -2.7280e+002  3.5860e-001 23856 112465,112393,112125
 3.5000e+000 112324 -4.6339e+001 -2.5831e+002  1.7121e+001 23856 112465,112125,112073
 3.5000e+000 112301 -7.7786e+001 -2.3370e+002  2.2126e+001 23856 112073,112125,112099
 3.5000e+000 112278 -1.8119e+002 -3.8051e+002 -6.2201e+001 23856 112047,112229,112073
 3.5000e+000 112255 -4.0169e+001 -3.7839e+002 -8.8475e+001 23856 112151,112203,112177
 3.5000e+000 112419 -6.0180e+001 -2.9693e+002 -3.0708e+001 23856 112203,112151,112393
 3.5000e+000 112442 -6.8496e+001 -2.9708e+002 -3.1730e+001 23856 112203,112393,112229
 3.5000e+000 112491 -7.3118e+001 -2.9643e+002 -3.0651e+001 23856 112229,112393,112465
 3.5000e+000 112514 -6.5345e+001 -2.6008e+002 -1.2824e+001 23856 112229,112465,112073
 3.5000e+000 112784 -2.3729e+001 -2.2003e+002  1.7884e+001 23494 112611,112663,112637
 3.5000e+000 112761 -3.1341e+001 -1.9240e+002  1.7220e+001 23494 112585,112663,112611
 3.5000e+000 112738 -5.3195e+001 -2.0183e+002  1.4312e+001 23494 112559,112663,112585
 3.5000e+000 112715 -1.0478e+001 -1.2146e+002 -2.8324e+000 23494 112559,112689,112663
 3.5000e+000 113117  1.6579e+001 -1.6516e+000 -7.8884e+000 22974 112944,113022,112996
 3.5000e+000 113094  8.3507e+000  1.7240e+001 -1.5082e+001 22974 112918,113022,112944
 3.5000e+000 113071  1.6280e+001  1.2238e+001  7.1433e+000 22974 112944,112996,112970
 3.5000e+000 113048  1.1565e+001 -9.7283e+000  9.1177e+000 22974 112892,113022,112918
 3.5000e+000 113414  1.5061e+001 -4.0438e+001  4.0698e+001 22370 113192,113296,113218
 3.5000e+000 113391  2.3671e+001 -9.6656e+001  3.1111e+001 22370 113140,113296,113192
 3.5000e+000 113368 -3.5221e+001 -1.5700e+002  4.5172e+001 22370 113218,113296,113270
 3.5000e+000 113345 -4.0163e+001 -1.9420e+002  5.2842e+001 22370 113218,113270,113244
 3.5000e+000 113322  1.3989e+001 -1.1631e+002  3.4903e+001 22370 113140,113192,113166
 3.5000e+000 113662  8.6559e+000 -8.3754e+001  4.3548e+001 21916 113685,113515,113489
 3.5000e+000 113639 -8.3525e+000 -1.8837e+002  2.4576e+001 21916 113685,113489,113437
 3.5000e+000 113616  2.2412e+000 -1.8511e+002  9.5877e+000 21916 113757,113567,113541
 3.5000e+000 113593  1.8945e+001 -1.2200e+002  1.7986e+001 21916 113437,113489,113463
 3.5000e+000 113711 -3.7412e+001 -2.1819e+002  5.8714e+001 21916 113541,113515,113685
 3.5000e+000 113734 -5.3638e+000 -2.1340e+002  2.4472e+001 21916 113757,113541,113685
 3.5000e+000 113783 -1.5839e+001 -1.6042e+002  1.9864e+001 21916 113437,113567,113757
 3.5000e+000 113806 -5.2035e+000 -1.7170e+002  2.4537e+001 21916 113437,113757,113685
 3.5000e+000 114056  6.6457e+001 -2.7934e+002  2.9598e+001 21412 113857,113909,113883
 3.5000e+000 114033  1.1090e+002 -1.3807e+002  2.9229e+001 21412 114079,113909,113857
 3.5000e+000 114010  2.6993e+000 -1.6735e+002  1.0730e+001 21412 114079,113857,113961
 3.5000e+000 113987 -2.8527e+001 -1.4811e+002  1.9215e+001 21412 113831,113961,113857
 3.5000e+000 114105  2.5706e+001 -1.4551e+002 -1.6786e+001 21412 113935,113909,114079
 3.5000e+000 114128 -4.6791e+001 -1.4448e+002 -3.0706e+001 21412 113935,114079,113961
 3.5000e+000 114378 -6.2118e+001 -1.9387e+002 -7.1497e+001 21022 114401,114257,114205
 3.5000e+000 114355 -8.7953e+001 -2.6146e+002 -7.0493e+001 21022 114401,114205,114179
 3.5000e+000 114332  2.5731e+000 -3.2976e+002 -4.2818e+001 21022 114153,114283,114179
 3.5000e+000 114309 -7.3297e+001 -1.3127e+002 -4.5885e+001 21022 114205,114257,114231
 3.5000e+000 114427 -4.9222e+001 -2.1838e+002 -1.2087e+001 21022 114283,114257,114401
 3.5000e+000 114450 -7.0934e+001 -2.8031e+002 -1.2511e+001 21022 114283,114401,114179
 3.5000e+000 114651  7.1722e+001 -1.8741e+002  3.4518e+001 20618 114501,114553,114527
 3.5000e+000 114628 -3.2952e+001 -1.9766e+002 -1.1722e+001 20618 114501,114579,114553
 3.5000e+000 114605 -1.4862e+001 -1.7024e+002 -1.4036e+000 20618 114475,114579,114501
 3.5000e+000 114901  5.7817e+001 -2.0161e+002 -1.2635e+001 20114 114676,114780,114702
 3.5000e+000 114878 -1.7797e+001 -2.4786e+002  1.0495e+001 20114 114676,114806,114780
 3.5000e+000 114855  1.4581e+002 -2.2136e+002 -1.6791e+001 20114 114702,114780,114754
 3.5000e+000 114832  3.7142e+002 -2.3463e+002  6.5402e+001 20114 114702,114754,114728
 3.5000e+000 115053 -9.1382e+001 -2.9970e+002 -7.9293e+000 19460 115147,115076,114926
 3.5000e+000 115030 -6.9805e+001 -3.2149e+002 -2.3955e+000 19460 115147,114926,115004
 3.5000e+000 115102 -8.7074e+001 -2.7806e+002 -5.8898e+000 19460 114952,114926,115076
 3.5000e+000 115173 -7.1242e+001 -2.7224e+002  8.7506e-001 19460 114978,115076,115147
 3.5000e+000 115196 -4.8368e+001 -2.9559e+002  6.8533e+000 19460 114978,115147,115004
 3.5000e+000 115446 -3.4823e+001 -2.6686e+002 -8.5787e+000 19006 115273,115351,115299
 3.5000e+000 115423  8.5550e+000 -2.3188e+002  6.7603e+000 19006 115247,115351,115273
 3.5000e+000 115400  5.2650e-001 -2.3519e+002  8.4262e+000 19006 115221,115351,115247
 3.5000e+000 115377 -1.4542e+001 -2.8599e+002 -3.2926e+001 19006 115299,115351,115325
 3.5000e+000 115767 -1.0319e+002 -2.6564e+002  5.3562e+000 18716 115571,115649,115623
 3.5000e+000 115744 -1.0903e+002 -2.7342e+002  2.0973e+000 18716 115493,115649,115571
 3.5000e+000 115721 -1.1347e+002 -2.6756e+002  4.9509e+000 18716 115493,115571,115545
 3.5000e+000 115698 -9.1286e+001 -2.4599e+002  3.6707e+001 18716 115493,115545,115519
 3.5000e+000 115675 -6.4801e+001 -2.5349e+002 -2.5409e+000 18716 115571,115623,115597
 3.5000e+000 116039 -2.6997e+001 -1.7914e+002  1.0862e+001 18312 115814,115892,115840
 3.5000e+000 116016 -1.5651e+001 -1.5221e+002  1.0531e+001 18312 115814,115944,115892
 3.5000e+000 115993 -3.5244e+001 -1.6752e+002  3.2098e+000 18312 115892,115944,115918
 3.5000e+000 115970  4.5897e+001 -1.6415e+002  2.6569e+001 18312 115840,115892,115866
 3.5000e+000 116191 -2.9994e+001 -2.7577e+002  5.3564e-001 18000 116090,116142,116116
 3.5000e+000 116168 -1.8291e+001 -2.7402e+002  8.3205e+000 18000 116064,116142,116090
 3.5000e+000 116343 -1.5687e+002 -3.3080e+002 -9.6513e+000 17396 116242,116294,116268
 3.5000e+000 116320 -1.4334e+002 -3.3115e+002 -1.0023e+001 17396 116216,116294,116242
 3.5000e+000 116566 -5.0708e+001 -3.8423e+002  3.9548e+001 16942 116390,116468,116442
 3.5000e+000 116543 -5.9223e+001 -3.8993e+002  4.2143e+001 16942 116390,116494,116468
 3.5000e+000 116520 -8.9036e+001 -4.7420e+002  1.6525e+001 16942 116390,116442,116416
 3.5000e+000 116767  2.3663e+001 -1.9688e+002 -1.1307e+001 16438 116790,116643,116617
 3.5000e+000 116744 -2.7529e+000 -1.6039e+002 -9.1767e+000 16438 116790,116617,116591
 3.5000e+000 116721  4.1108e+001 -1.6101e+002 -3.8711e+001 16438 116643,116695,116669
 3.5000e+000 116816  2.5268e+001 -1.6935e+002 -2.3464e+001 16438 116695,116643,116790
 3.5000e+000 116839  1.5719e+001 -1.3288e+002 -3.3947e+001 16438 116695,116790,116591
 3.5000e+000 117062 -1.3025e+001 -3.7107e+002 -6.6486e+000 16074 116886,116938,116912
 3.5000e+000 117039 -7.7381e+001 -4.1387e+002  1.8722e+001 16074 116886,116990,116938
 3.5000e+000 117016 -4.9538e+001 -3.3242e+002  2.9245e+001 16074 116938,116990,116964
 3.5000e+000 117214 -3.9641e+001 -3.0243e+002 -3.7356e+000 15649 117087,117139,117113
 3.5000e+000 117191 -1.7175e-001 -2.8700e+002 -1.6017e+000 15649 117087,117165,117139
 3.5000e+000 117317 -1.0502e+002 -3.0461e+002 -2.3065e+001 421 117239,117291,117265
 3.6000e+000 70632 -2.4555e+002 -3.9187e+002 -1.6287e+001 70072 70482,70534,70508
 3.6000e+000 70609 -2.2529e+002 -3.5072e+002 -9.5589e+000 70072 70482,70560,70534
 3.6000e+000 70586 -1.6536e+002 -3.2297e+002 -2.1363e+001 70072 70456,70560,70482
 3.6000e+000 70951 -1.4674e+002 -3.6415e+002  0.0000e+000 69874 70703,70755,70729
 3.6000e+000 70928 -9.4580e+001 -3.4802e+002 -5.4154e+001 69874 70703,70781,70755
 3.6000e+000 70905 -5.8985e+001 -1.5431e+002 -3.6598e+001 69874 70703,70807,70781
 3.6000e+000 70882 -1.1915e+002 -3.0521e+002 -1.4034e+001 69874 70703,70833,70807
 3.6000e+000 70859 -9.9256e+001 -3.0898e+002  1.2501e+001 69874 70677,70833,70703
 3.6000e+000 71199 -9.0969e+001 -2.2827e+002 -4.9221e+000 69698 71222,71052,71026
 3.6000e+000 71176 -9.4614e+001 -1.8823e+002 -6.6214e-001 69698 71294,71222,71026
 3.6000e+000 71153 -9.5930e+001 -1.8586e+002 -7.8553e+000 69698 71294,71026,71000
 3.6000e+000 71130 -3.8461e+001 -1.7718e+002  1.3449e+001 69698 71366,71104,71078
 3.6000e+000 71248 -8.2373e+001 -1.9306e+002 -4.1219e-001 69698 71078,71052,71222
 3.6000e+000 71271 -7.0921e+001 -1.8178e+002  1.1053e+001 69698 71366,71078,71222
 3.6000e+000 71320 -8.2698e+001 -1.8167e+002 -3.6865e+000 69698 70974,71222,71294
 3.6000e+000 71343 -8.2056e+001 -1.8003e+002 -1.0219e+001 69698 70974,71294,71000
 3.6000e+000 71392 -7.9263e+001 -1.8980e+002  4.7850e+000 69698 70974,71104,71366
 3.6000e+000 71415 -8.9121e+001 -1.8001e+002  6.7670e-001 69698 70974,71366,71222
 3.6000e+000 71516 -5.2982e+001 -1.9883e+002 -3.6830e+001 69386 71438,71490,71464
 3.6000e+000 71869 -5.7117e+001 -2.1528e+002  2.2320e+001 69188 71644,71748,71670
 3.6000e+000 71846  2.7988e+001 -2.1000e+002  6.6307e+001 69188 71644,71774,71748
 3.6000e+000 71823 -2.1314e+001 -1.1188e+002  1.7403e+001 69188 71670,71748,71722
 3.6000e+000 71800 -1.1314e+002 -2.9727e+002 -1.9612e+001 69188 71670,71722,71696
 3.6000e+000 72019 -1.8925e+002 -4.1782e+002 -2.2744e+001 68990 71918,71970,71944
 3.6000e+000 71996 -1.5971e+002 -4.9308e+002  9.6359e+000 68990 71892,71970,71918
 3.6000e+000 72316 -3.3077e+001 -1.1200e+002 -7.3539e+000 68586 72339,72172,72146
 3.6000e+000 72293 -4.8428e+001 -1.5093e+002 -3.6661e+000 68586 72339,72146,72120
 3.6000e+000 72270 -4.9938e+001 -1.2007e+002  1.0413e+001 68586 72411,72068,72198
 3.6000e+000 72247 -2.1932e+001 -6.4271e+001  3.7258e+001 68586 72042,72198,72068
 3.6000e+000 72224 -5.4084e+001 -1.6898e+002  2.3036e+000 68586 72068,72120,72094
 3.6000e+000 72365 -5.0022e+001 -1.1095e+002  8.9759e+000 68586 72198,72172,72339
 3.6000e+000 72388 -5.4274e+001 -1.2088e+002  8.5440e+000 68586 72411,72198,72339
 3.6000e+000 72437 -3.9540e+001 -1.1944e+002  1.5742e+001 68586 72120,72068,72411
 3.6000e+000 72460 -4.6126e+001 -1.2360e+002  1.2828e+001 68586 72120,72411,72339
 3.6000e+000 72864 -1.4785e+001 -1.4093e+002 -5.8935e+000 68388 72642,72694,72668
 3.6000e+000 72841 -4.7497e+001 -1.9328e+002  9.4779e+000 68388 72616,72694,72642
 3.6000e+000 72818 -3.2965e+001 -1.4823e+002  8.6597e+000 68388 72616,72720,72694
 3.6000e+000 72795 -7.7679e+001 -2.3274e+002  2.6892e+001 68388 72590,72720,72616
 3.6000e+000 72772 -2.3677e+001 -1.8244e+002  6.3657e+001 68388 72590,72746,72720
 3.6000e+000 73321 -8.1242e+001 -9.9335e+001  3.4881e+000 68048 73073,73203,73177
 3.6000e+000 73298 -9.0331e+001 -9.8493e+001  9.5891e+000 68048 73047,73203,73073
 3.6000e+000 73275 -7.3928e+001 -1.7556e+002 -1.8966e+001 68048 73125,73177,73151
 3.6000e+000 73252 -6.3601e+001 -1.5345e+002  5.6703e+000 68048 73073,73177,73125
 3.6000e+000 73229 -5.2125e+001 -1.6590e+002  1.1458e+001 68048 73073,73125,73099
 3.6000e+000 73640 -1.2621e+002 -2.0572e+002 -1.0123e+001 67850 73444,73496,73470
 3.6000e+000 73617 -8.7721e+001 -2.0877e+002 -1.5195e+001 67850 73418,73496,73444
 3.6000e+000 73594 -9.5052e+001 -2.1699e+002 -3.8355e-002 67850 73392,73496,73418
 3.6000e+000 73571 -1.0115e+002 -2.1901e+002 -2.2603e+000 67850 73392,73522,73496
 3.6000e+000 73548 -1.4012e+002 -2.5796e+002  3.7948e+001 67850 73366,73522,73392
 3.6000e+000 73790 -1.2167e+002 -2.2069e+002 -3.2803e+000 67602 73689,73741,73715
 3.6000e+000 73767 -9.9031e+001 -1.6234e+002 -4.1624e+000 67602 73663,73741,73689
 3.6000e+000 74040 -1.0876e+002 -2.3154e+002 -1.6599e+001 67290 73841,73945,73919
 3.6000e+000 74017 -5.4908e+001 -2.2309e+002 -3.4797e+001 67290 73815,73945,73841
 3.6000e+000 73994 -9.2508e+001 -1.5610e+002 -2.2063e+001 67290 73841,73919,73867
 3.6000e+000 73971 -9.2989e+001 -1.6183e+002 -1.3266e+001 67290 73867,73919,73893
 3.6000e+000 74143 -3.4605e+001 -9.3668e+001  1.3063e+001 67092 74065,74117,74091
 3.6000e+000 74415 -6.6956e+001 -2.1575e+002 -2.9426e+001 66894 74190,74294,74216
 3.6000e+000 74392 -1.3465e+001 -1.9404e+002 -2.1213e+001 66894 74190,74320,74294
 3.6000e+000 74369 -3.5429e+001 -1.4015e+002 -2.3605e+001 66894 74216,74294,74242
 3.6000e+000 74346 -6.1531e+001 -1.9074e+002 -1.2314e+001 66894 74242,74294,74268
 3.6000e+000 75023  1.2649e+002 -1.6462e+002 -6.7076e+001 66532 74654,74836,74810
 3.6000e+000 75000 -1.3772e+002 -1.8408e+002 -7.5750e+001 66532 74628,74836,74654
 3.6000e+000 74977 -6.2621e+001 -1.3506e+002 -5.1909e+000 66532 74706,74784,74732
 3.6000e+000 74954 -5.5464e+001 -1.3816e+002  6.1896e-001 66532 74680,74784,74706
 3.6000e+000 74931  1.3065e+001 -1.2305e+002  6.5446e+000 66532 74680,74810,74784
 3.6000e+000 74908 -8.0244e+001 -1.6826e+002 -5.9490e+001 66532 74654,74810,74680
 3.6000e+000 74885 -1.3014e+002 -2.1872e+002 -9.5315e+001 66532 74602,74836,74628
 3.6000e+000 74862 -6.4962e+001 -1.7208e+002 -6.0475e+000 66532 74732,74784,74758
 3.6000e+000 75222 -1.2253e+001 -1.8942e+002 -1.4629e+000 66242 75072,75150,75124
 3.6000e+000 75199 -2.3371e+001 -1.7282e+002  9.1355e-001 66242 75046,75150,75072
 3.6000e+000 75176 -1.5484e+000 -1.4486e+002 -1.4311e+000 66242 75072,75124,75098
 3.6000e+000 75470 -5.1670e+001 -7.3659e+001 -9.3182e+000 65838 75297,75375,75349
 3.6000e+000 75447 -3.5126e+001 -6.8581e+001 -1.9423e+000 65838 75271,75375,75297
 3.6000e+000 75424 -2.0469e+001 -5.0219e+001  3.8078e+000 65838 75297,75349,75323
 3.6000e+000 75401 -1.9649e+001 -6.8152e+001 -1.4577e+001 65838 75245,75375,75271
 3.6000e+000 75671 -3.8668e+001 -1.1941e+002 -3.6504e+001 65640 75495,75573,75521
 3.6000e+000 75648 -2.8365e+001 -1.1006e+002 -4.6178e+001 65640 75495,75599,75573
 3.6000e+000 75625 -5.4118e+001 -1.3519e+002 -4.4304e+001 65640 75521,75573,75547
 3.6000e+000 75872 -6.3609e+001 -1.1794e+002 -3.0361e+001 65300 75895,75748,75722
 3.6000e+000 75849 -4.1637e+001 -1.2865e+002 -3.8262e+001 65300 75895,75722,75696
 3.6000e+000 75826 -5.2453e+001 -8.5973e+001 -6.0590e+001 65300 75967,75774,75748
 3.6000e+000 75921 -5.2775e+001 -1.0533e+002 -3.7136e+001 65300 75967,75748,75895
 3.6000e+000 75944 -7.1564e+001 -1.7508e+002 -2.2553e+001 65300 75800,75895,75696
 3.6000e+000 75993 -9.3258e+001 -1.1570e+002 -4.7277e+001 65300 75800,75774,75967
 3.6000e+000 76016 -9.1289e+001 -1.2904e+002 -2.7107e+001 65300 75800,75967,75895
 3.6000e+000 76371 -1.4179e+002 -1.7820e+002 -1.1863e+001 64896 76146,76250,76172
 3.6000e+000 76348 -1.4185e+002 -1.7057e+002 -6.5288e+000 64896 76146,76276,76250
 3.6000e+000 76325 -1.7408e+002 -1.6422e+002  5.3745e-001 64896 76172,76250,76198
 3.6000e+000 76302 -3.3257e+001 -9.6332e+001  2.3329e+001 64896 76198,76250,76224
 3.6000e+000 76570 -4.9650e+001 -1.2485e+002 -6.0098e+001 64442 76446,76498,76472
 3.6000e+000 76547 -5.3465e+001 -8.0967e+001 -2.0955e+001 64442 76420,76498,76446
 3.6000e+000 76524 -6.9131e+001 -1.3691e+002 -1.9653e+001 64442 76394,76498,76420
 3.6000e+000 76999 -1.0313e+002 -2.3488e+002  1.2536e+001 63924 77022,76728,76702
 3.6000e+000 76976 -1.2456e+002 -1.9707e+002 -3.1614e+001 63924 77022,76702,76832
 3.6000e+000 76953 -7.2067e+001 -2.4620e+002  4.2928e+001 63924 76728,76806,76754
 3.6000e+000 76930 -1.1878e+002 -1.5150e+002  3.1513e+001 63924 76676,76832,76702
 3.6000e+000 76907 -1.2797e+002 -2.8121e+002  2.5168e+001 63924 76754,76806,76780
 3.6000e+000 76884 -6.8193e+001 -1.7805e+002  1.7333e+001 63924 76676,76858,76832
 3.6000e+000 77048 -1.0041e+002 -2.8865e+002 -8.3252e-001 63924 76806,76728,77022
 3.6000e+000 77071 -1.2962e+002 -2.6095e+002 -4.6708e+001 63924 76806,77022,76832
 3.6000e+000 77449 -5.6851e+001 -1.5262e+002  2.6596e+001 63320 77472,77253,77201
 3.6000e+000 77426 -5.5615e+001 -1.6417e+002  1.4550e+001 63320 77472,77201,77175
 3.6000e+000 77403 -2.5724e+001 -1.6140e+002  6.2410e+000 63320 77175,77305,77279
 3.6000e+000 77380 -2.3306e+001 -9.9572e+001 -1.2783e+001 63320 77201,77253,77227
 3.6000e+000 77357 -2.6020e+000 -1.4519e+002 -1.6590e+001 63320 77175,77331,77305
 3.6000e+000 77498 -6.4741e+001 -1.7544e+002  2.8332e+001 63320 77279,77253,77472
 3.6000e+000 77521 -5.7899e+001 -1.7393e+002  1.3430e+001 63320 77279,77472,77175
 3.6000e+000 77769 -8.3072e+001 -1.4648e+002  1.7831e+001 62816 77570,77622,77596
 3.6000e+000 77746 -1.0061e+002 -1.9346e+002  2.5331e+001 62816 77570,77648,77622
 3.6000e+000 77723 -4.0424e+001 -1.6280e+002  8.1159e+000 62816 77570,77674,77648
 3.6000e+000 77700 -4.6912e+001 -1.6948e+002  5.4576e+000 62816 77544,77674,77570
 3.6000e+000 78149 -7.8425e+001 -1.7668e+002 -1.6689e+000 62354 77953,78031,78005
 3.6000e+000 78126 -9.9169e+001 -2.0287e+002 -1.0708e+001 62354 77901,78031,77953
 3.6000e+000 78103 -4.8309e+001 -1.7886e+002  2.4136e+001 62354 77875,78031,77901
 3.6000e+000 78080 -6.9730e+001 -2.3465e+002 -4.2797e+001 62354 77901,77953,77927
 3.6000e+000 78057 -7.1960e+001 -1.5008e+002 -1.8674e+001 62354 77953,78005,77979
 3.6000e+000 78606 -4.9729e+001 -1.4464e+002  1.1978e+001 61950 78384,78436,78410
 3.6000e+000 78583 -5.0697e+001 -1.6241e+002 -1.3888e+001 61950 78358,78436,78384
 3.6000e+000 78560 -7.0341e+001 -1.4575e+002 -2.3106e+001 61950 78358,78488,78436
 3.6000e+000 78537 -7.9133e+001 -2.1128e+002 -3.4945e+001 61950 78436,78488,78462
 3.6000e+000 78514 -7.0708e+001 -1.1672e+002 -7.7097e+000 61950 78332,78488,78358
 3.6000e+000 78756 -2.1886e+001 -1.9405e+002  3.9925e+000 61339 78779,78655,78629
 3.6000e+000 78733 -2.8641e+001 -2.2125e+002  7.6755e+000 61339 78779,78629,78707
 3.6000e+000 78805 -4.3858e+001 -2.2014e+002  2.4323e+001 61339 78851,78779,78681
 3.6000e+000 78828  1.1014e+001 -1.9753e+002  1.8485e+001 61339 78681,78779,78707
 3.6000e+000 78877 -2.7241e+001 -1.7709e+002  9.7706e+000 61339 78655,78779,78851
 3.6000e+000 79206 -4.0076e+001 -6.5356e+001 -1.5684e+001 60892 79229,79007,78981
 3.6000e+000 79183 -2.7940e+001 -3.3372e+001 -1.2765e+001 60892 79229,78981,79111
 3.6000e+000 79160 -2.1946e+001 -7.6210e+001 -1.8323e+001 60892 79301,79033,79007
 3.6000e+000 79137 -1.1529e+001 -3.7922e+001  2.4321e+001 60892 79033,79085,79059
 3.6000e+000 79255 -2.8687e+001 -6.2551e+001 -2.9090e+001 60892 79301,79007,79229
 3.6000e+000 79278 -2.4888e+001 -5.6633e+001 -3.2117e+001 60892 79085,79229,79111
 3.6000e+000 79327 -3.6872e+001 -1.0739e+002 -1.2262e+001 60892 79085,79033,79301
 3.6000e+000 79350 -3.4598e+001 -8.6965e+001 -2.8005e+001 60892 79085,79301,79229
 3.6000e+000 79647 -1.1816e+002 -2.2271e+002 -1.8341e+001 60488 79451,79529,79503
 3.6000e+000 79624 -1.0411e+002 -1.9439e+002 -2.4421e+001 60488 79425,79529,79451
 3.6000e+000 79601 -1.0013e+002 -2.1360e+002 -3.2173e+001 60488 79373,79529,79425
 3.6000e+000 79578 -1.0296e+002 -1.9179e+002 -3.9012e+001 60488 79373,79425,79399
 3.6000e+000 79555 -2.2649e+001 -1.8879e+002  6.8177e+000 60488 79451,79503,79477
 3.6000e+000 79870 -2.6695e+001 -7.3688e+001 -1.0350e+001 60026 79720,79798,79772
 3.6000e+000 79847 -3.2622e+001 -8.2990e+001 -1.4789e+001 60026 79694,79798,79720
 3.6000e+000 79824 -2.1095e+000 -6.4478e+001 -1.3449e+001 60026 79720,79772,79746
 3.6000e+000 80120 -4.0180e+001 -5.3218e+001 -2.8859e+000 59629 79921,80025,79973
 3.6000e+000 80097 -3.1037e+001 -5.0983e+001 -2.1257e-001 59629 79895,80025,79921
 3.6000e+000 80074 -3.4369e+001 -5.0402e+001 -2.0249e+001 59629 79973,80025,79999
 3.6000e+000 80051 -2.0026e+001 -5.9448e+001 -3.6432e+000 59629 79921,79973,79947
 3.6000e+000 80321 -6.4987e+001 -1.1809e+002  1.3757e+001 59125 80344,80171,80145
 3.6000e+000 80298 -4.2372e+001 -1.2888e+002 -6.3600e-001 59125 80344,80145,80249
 3.6000e+000 80275 -4.0031e+000 -1.4000e+002  1.8166e+001 59125 80197,80249,80223
 3.6000e+000 80370 -3.9817e+001 -1.0956e+002  1.4287e+001 59125 80197,80171,80344
 3.6000e+000 80393 -1.8991e+001 -1.2148e+002 -3.8337e-002 59125 80197,80344,80249
 3.6000e+000 80952 -7.6232e+001 -2.1899e+002  3.9179e+001 58557 80975,80632,80606
 3.6000e+000 80929 -2.0474e+001 -1.0712e+002  2.9351e+000 58557 81119,80975,80606
 3.6000e+000 80906 -7.8710e+001 -1.8604e+002 -1.5929e+001 58557 81047,80684,80632
 3.6000e+000 80883  1.7161e+001 -9.3477e+001 -1.5331e+001 58557 81119,80606,80580
 3.6000e+000 80860 -3.0256e+001 -2.6869e+002  7.6704e+000 58557 81191,80736,80710
 3.6000e+000 80837 -5.3999e+001 -2.2371e+002 -3.8593e+001 58557 80736,80788,80762
 3.6000e+000 80814 -8.0575e+001 -1.3275e+002 -1.3175e+001 58557 80632,80684,80658
 3.6000e+000 81001 -4.0319e+001 -2.1484e+002  5.6788e+000 58557 81047,80632,80975
 3.6000e+000 81024  8.4116e+000 -2.0747e+002  2.4338e+001 58557 81191,80710,80975
 3.6000e+000 81073 -4.3471e+001 -1.5391e+002  9.3267e+000 58557 80710,80684,81047
 3.6000e+000 81096  1.0609e+001 -1.7822e+002  2.9393e+001 58557 80710,81047,80975
 3.6000e+000 81145 -2.0917e+001 -1.2238e+002  2.4529e+001 58557 80788,80975,81119
 3.6000e+000 81168 -1.1805e+001 -1.1721e+002  7.3854e+000 58557 80788,81119,80580
 3.6000e+000 81217 -5.7817e+001 -2.0748e+002 -1.4577e+001 58557 80788,80736,81191
 3.6000e+000 81240 -4.4134e+001 -1.8790e+002 -8.3696e+000 58557 80788,81191,80975
 3.6000e+000 81537 -2.0299e+000 -8.7115e+001  3.8163e+000 57881 81560,81341,81289
 3.6000e+000 81514 -2.5598e+001 -9.7285e+001  4.6643e+000 57881 81560,81289,81263
 3.6000e+000 81491 -5.3391e+001 -8.0053e+001 -7.3028e+000 57881 81632,81419,81367
 3.6000e+000 81468 -5.6771e+001 -1.0055e+002 -4.6550e+001 57881 81367,81419,81393
 3.6000e+000 81445 -2.9253e+000 -7.0225e+001  1.5908e+000 57881 81289,81341,81315
 3.6000e+000 81586 -1.3945e+001 -7.4633e+001 -2.1969e+001 57881 81367,81341,81560
 3.6000e+000 81609 -4.5708e+001 -9.0515e+001 -1.4654e+001 57881 81632,81367,81560
 3.6000e+000 81658 -3.4946e+001 -7.8678e+001  8.5212e-001 57881 81263,81419,81632
 3.6000e+000 81681 -2.0654e+001 -8.4094e+001 -9.1257e+000 57881 81263,81632,81560
 3.6000e+000 81929 -5.3277e+001 -1.0510e+002  1.4322e+001 57477 81704,81808,81782
 3.6000e+000 81906 -3.1219e+001 -1.0644e+002  1.4534e+001 57477 81704,81834,81808
 3.6000e+000 81883 -4.0333e+001 -9.2858e+001  4.1923e+000 57477 81704,81782,81730
 3.6000e+000 81860 -2.5515e+001 -8.7556e+001  1.0521e+000 57477 81730,81782,81756
 3.6000e+000 82488 -4.6451e+001 -2.4021e+002  1.8321e+001 56966 82583,82511,82194
 3.6000e+000 82465 -6.2110e+001 -2.0978e+002  2.5607e+001 56966 82511,82116,82324
 3.6000e+000 82442 -7.1640e+001 -2.6372e+002  2.8018e+001 56966 82583,82194,82168
 3.6000e+000 82419 -5.2912e+000 -1.9997e+002  3.0005e+001 56966 82194,82246,82220
 3.6000e+000 82396 -6.3988e+001 -2.4161e+002 -1.3380e+001 56966 82194,82298,82246
 3.6000e+000 82373 -4.2750e+001 -2.4398e+002 -3.5187e+001 56966 82246,82298,82272
 3.6000e+000 82350 -1.0473e+002 -2.7147e+002  1.0414e+001 56966 82116,82168,82142
 3.6000e+000 82537 -2.9314e+001 -2.1383e+002  8.9617e+000 56966 82298,82194,82511
 3.6000e+000 82560 -3.6198e+001 -1.6523e+002  3.8889e+001 56966 82298,82511,82324
 3.6000e+000 82609 -7.7474e+001 -2.1053e+002  5.7861e+000 56966 82116,82511,82583
 3.6000e+000 82632 -8.8983e+001 -2.2311e+002  1.0679e+001 56966 82116,82583,82168
 3.6000e+000 83236 -9.7611e+000 -1.4915e+002 -3.1491e+001 56304 82893,82945,82919
 3.6000e+000 83213 -4.7738e+001 -1.9487e+002  1.7344e+001 56304 83259,82945,82893
 3.6000e+000 83190 -4.2700e+001 -1.9614e+002  1.6407e+001 56304 83259,82893,83049
 3.6000e+000 83167 -6.5263e+001 -2.2446e+002  3.3348e+001 56304 82971,83049,83023
 3.6000e+000 83144 -6.6359e+001 -2.4161e+002  6.8990e+000 56304 82815,83049,82893
 3.6000e+000 83121 -8.4745e+001 -2.8747e+002  1.1803e+001 56304 82815,82893,82867
 3.6000e+000 83098 -6.1534e+001 -2.4208e+002  2.9447e+001 56304 82971,83023,82997
 3.6000e+000 83075 -1.2427e+002 -2.8540e+002 -2.3542e+001 56304 82815,82867,82841
 3.6000e+000 83285 -5.4470e+001 -1.9721e+002  2.1871e+001 56304 82971,82945,83259
 3.6000e+000 83308 -4.7410e+001 -1.9522e+002  1.9716e+001 56304 82971,83259,83049
 3.6000e+000 83556 -8.0180e+001 -1.9221e+002 -4.0703e+000 55964 83357,83461,83435
 3.6000e+000 83533 -7.2636e+001 -1.3976e+002  2.2281e+001 55964 83331,83461,83357
 3.6000e+000 83510 -3.5474e+001 -2.1269e+002  2.7639e+001 55964 83357,83435,83383
 3.6000e+000 83487 -4.2919e+001 -2.6642e+002  4.0175e+000 55964 83383,83435,83409
 3.6000e+000 83706 -5.8017e+001 -1.9041e+002  1.0324e+001 55503 83579,83631,83605
 3.6000e+000 83683 -7.5075e+001 -1.9795e+002  1.4868e+001 55503 83579,83657,83631
 3.6000e+000 83907 -4.1261e+001 -1.4315e+002  7.7919e+000 55156 83757,83835,83809
 3.6000e+000 83884 -3.7265e+001 -1.1227e+002  4.7078e+001 55156 83731,83835,83757
 3.6000e+000 83861 -4.9162e+001 -1.1539e+002  1.3823e+001 55156 83757,83809,83783
 3.6000e+000 84240 -5.5266e+001 -1.6760e+002  6.7876e+000 54652 84093,84145,84119
 3.6000e+000 84217 -4.1698e+001 -1.2294e+002  1.6470e+000 54652 84041,84145,84093
 3.6000e+000 84194 -2.7438e+001 -1.5447e+002  3.1128e+001 54652 84015,84145,84041
 3.6000e+000 84171 -3.1559e+000 -1.0475e+002  9.6184e+000 54652 84041,84093,84067
 3.6000e+000 84618 -5.8364e+001 -1.6025e+002  1.0235e+001 53926 84396,84500,84474
 3.6000e+000 84595 -8.2717e+001 -2.1496e+002  5.4655e-001 53926 84344,84500,84396
 3.6000e+000 84572 -5.9846e+001 -1.5976e+002  2.0274e-001 53926 84344,84396,84370
 3.6000e+000 84549 -6.2361e+001 -1.6076e+002  7.0931e+000 53926 84396,84474,84422
 3.6000e+000 84526 -9.9269e+001 -1.4828e+002  5.6756e-001 53926 84422,84474,84448
 3.6000e+000 85350 -8.8895e+001 -2.1101e+002 -2.2109e+001 53586 85373,84880,85088
 3.6000e+000 85327 -8.5570e+001 -2.5116e+002 -4.0944e+000 53586 84880,85114,85088
 3.6000e+000 85304 -9.9796e+001 -1.9788e+002  2.6493e+001 53586 85373,85088,85062
 3.6000e+000 85281 -7.9300e+001 -1.0122e+002 -3.6160e+001 53586 85010,85062,85036
 3.6000e+000 85258 -6.2427e+001 -1.4071e+002 -1.0452e+001 53586 85445,85010,84958
 3.6000e+000 85235 -4.1502e+001 -1.2434e+002  8.0010e+000 53586 85445,84958,84906
 3.6000e+000 85212 -2.9087e+001 -1.2612e+002 -2.3086e+001 53586 84958,85010,84984
 3.6000e+000 85189 -3.5201e+001 -2.2928e+002  2.2721e+001 53586 84906,84958,84932
 3.6000e+000 85166 -6.6620e+001 -1.5905e+002 -5.5564e+001 53586 84880,85140,85114
 3.6000e+000 85399 -6.6593e+001 -1.4961e+002 -1.4863e+001 53586 84906,84880,85373
 3.6000e+000 85422 -7.1666e+001 -1.4342e+002  1.6182e+001 53586 85517,85373,85062
 3.6000e+000 85471 -3.7346e+001 -8.1936e+001 -2.2757e+001 53586 85062,85010,85445
 3.6000e+000 85494 -6.7035e+001 -1.1302e+002  1.0859e+001 53586 85517,85062,85445
 3.6000e+000 85543 -6.0177e+001 -1.8975e+002  1.4560e+001 53586 84906,85373,85517
 3.6000e+000 85566 -6.0686e+001 -1.6493e+002  1.3383e+001 53586 84906,85517,85445
 3.6000e+000 86072 -2.7785e+001 -1.8414e+002  1.0773e+001 53182 86095,85853,85775
 3.6000e+000 86049 -5.3921e+001 -1.4247e+002  2.2102e+001 53182 86095,85775,85931
 3.6000e+000 86026 -4.1482e+001 -1.7767e+002  7.0399e+001 53182 86167,85879,85853
 3.6000e+000 86003 -1.4146e+001 -1.8798e+002 -1.4932e+001 53182 85775,85827,85801
 3.6000e+000 85980 -6.6224e+001 -2.2590e+002 -3.4617e+001 53182 85775,85853,85827
 3.6000e+000 85957 -6.4975e+001 -1.4776e+002  2.3862e+001 53182 85749,85931,85775
 3.6000e+000 86121 -2.8267e+001 -1.5086e+002  2.6181e+001 53182 86167,85853,86095
 3.6000e+000 86144 -1.0350e+002 -1.8769e+002  3.0553e+000 53182 85905,86095,85931
 3.6000e+000 86193 -5.1618e+001 -2.0360e+002  7.1868e+001 53182 85905,85879,86167
 3.6000e+000 86216 -6.3990e+001 -2.3589e+002  2.6474e+001 53182 85905,86167,86095
 3.6000e+000 86673 -2.6592e+001 -1.5712e+002 -4.2485e+001 52778 86477,86529,86503
 3.6000e+000 86650 -5.6477e+001 -1.6966e+002 -1.0403e+001 52778 86425,86529,86477
 3.6000e+000 86627 -2.4756e+001 -1.4000e+002 -2.6971e+001 52778 86425,86477,86451
 3.6000e+000 86604 -9.0099e+001 -1.3752e+002 -1.1998e+001 52778 86399,86529,86425
 3.6000e+000 86581 -1.4688e+002 -1.7485e+002  1.5317e+001 52778 86399,86555,86529
 3.6000e+000 87258 -5.3818e+001 -3.2463e+002 -5.7205e+001 52238 87281,86987,86961
 3.6000e+000 87235 -3.2970e+001 -2.4880e+002  2.0780e+001 52238 87281,86961,87117
 3.6000e+000 87212 -3.3815e+001 -1.3556e+002  1.6957e+001 52238 86935,87117,86961
 3.6000e+000 87189 -1.1321e+000 -1.5425e+002  2.1610e+001 52238 87065,87117,87091
 3.6000e+000 87166 -5.9094e+001 -1.4030e+002 -4.0968e+001 52238 86987,87065,87039
 3.6000e+000 87143 -7.3788e+001 -1.0584e+002 -7.2387e+001 52238 86987,87039,87013
 3.6000e+000 87307  5.4280e+000 -1.8524e+002 -4.7463e+001 52238 87065,86987,87281
 3.6000e+000 87330 -1.4593e+001 -2.0206e+002  3.1670e+001 52238 87065,87281,87117
 3.6000e+000 87610 -4.4996e+001 -1.4731e+002  2.6585e+000 51834 87434,87512,87460
 3.6000e+000 87587 -6.1679e+001 -1.4279e+002  2.8881e+001 51834 87434,87538,87512
 3.6000e+000 87564 -3.2564e+001 -4.4690e+001  1.0477e+001 51834 87633,87460,87512
 3.6000e+000 87659 -4.1534e+000 -3.2521e+001  1.1706e+001 51834 87486,87460,87633
 3.6000e+000 88187 -5.2836e+001 -2.1325e+002 -1.3088e+001 51266 87864,87942,87890
 3.6000e+000 88164 -2.5686e+001 -1.3891e+002 -3.2856e+000 51266 87864,88020,87942
 3.6000e+000 88141 -2.9801e+001 -1.3436e+002  9.0201e+000 51266 87942,88020,87968
 3.6000e+000 88118 -4.0317e+001 -2.2839e+002 -1.4941e+001 51266 87864,88046,88020
 3.6000e+000 88095 -2.0949e+001 -1.2265e+002  1.2924e+001 51266 87968,88020,87994
 3.6000e+000 88072 -1.6075e+001 -2.2544e+002 -4.5918e+001 51266 87890,87942,87916
 3.6000e+000 88644 -1.1761e+002 -1.2671e+002  7.6849e+000 50754 88370,88500,88396
 3.6000e+000 88621 -1.1360e+002 -1.9947e+002  2.3340e+001 50754 88370,88526,88500
 3.6000e+000 88598 -8.2674e+001 -1.9236e+002 -1.0701e+002 50754 88396,88500,88422
 3.6000e+000 88575 -1.0868e+002 -2.9008e+002 -9.7360e+001 50754 88422,88500,88474
 3.6000e+000 88552 -7.7372e+001 -1.9944e+002  7.8285e+001 50754 88422,88474,88448
 3.6000e+000 88914 -1.8572e+001 -1.1062e+002  9.5007e+000 50442 88715,88793,88741
 3.6000e+000 88891 -8.4628e+000 -1.0590e+002  6.4430e+000 50442 88715,88819,88793
 3.6000e+000 88868 -5.1590e+000 -1.0429e+002  7.1825e+000 50442 88689,88819,88715
 3.6000e+000 88845 -4.0034e+001 -1.1184e+002  2.6662e+001 50442 88741,88793,88767
 3.6000e+000 89294 -1.7684e+001 -1.5608e+002  1.0062e+001 49938 89317,89046,89020
 3.6000e+000 89271 -1.4755e+001 -1.6064e+002  8.2920e+000 49938 89317,89020,89150
 3.6000e+000 89248 -4.7023e+001 -1.4472e+002  3.9553e+000 49938 89072,89150,89098
 3.6000e+000 89225 -1.7098e+001 -1.8684e+002  3.8610e+001 49938 89020,89176,89150
 3.6000e+000 89202 -4.2921e+001 -1.2484e+002  4.6360e+000 49938 89098,89150,89124
 3.6000e+000 89343 -2.3029e+000 -1.2637e+002  1.6584e+001 49938 89072,89046,89317
 3.6000e+000 89366 -1.7219e+001 -1.5783e+002  1.0486e+001 49938 89072,89317,89150
 3.6000e+000 89823 -6.4143e+000 -8.4226e+001 -1.2624e+000 49384 89601,89705,89679
 3.6000e+000 89800 -1.6751e+001 -7.3140e+001 -1.8751e+001 49384 89549,89705,89601
 3.6000e+000 89777 -4.9541e-001 -1.2835e+002 -1.8467e+001 49384 89549,89601,89575
 3.6000e+000 89754 -5.6120e+001 -6.6008e+001  4.9190e+000 49384 89601,89679,89627
 3.6000e+000 89731 -6.8893e+001 -8.7098e+001  1.5101e+001 49384 89627,89679,89653
 3.6000e+000 90329 -4.2881e+000 -8.6854e+001 -5.8140e+000 48894 90058,90110,90084
 3.6000e+000 90306 -3.2017e+001 -9.9322e+001 -2.5522e+001 48894 90058,90162,90110
 3.6000e+000 90283 -3.5593e+001 -1.1544e+002 -2.8261e+001 48894 90032,90162,90058
 3.6000e+000 90260 -2.6009e+001 -1.1679e+002 -1.4710e+001 48894 90006,90162,90032
 3.6000e+000 90237 -5.1490e+001 -1.7594e+002 -2.2115e+001 48894 90110,90162,90136
 3.6000e+000 90214 -2.3838e+001 -1.1060e+002 -2.2114e+001 48894 90006,90188,90162
 3.6000e+000 90884  3.5797e-001 -9.6373e+001 -1.2184e+001 48490 90564,90642,90616
 3.6000e+000 90861 -2.7592e+001 -9.7444e+001 -1.3891e+001 48490 90564,90694,90642
 3.6000e+000 90838  1.2829e+001 -8.2183e+001 -1.3540e+001 48490 90538,90694,90564
 3.6000e+000 90815 -1.1872e+001 -9.5199e+001 -8.3282e+000 48490 90538,90720,90694
 3.6000e+000 90792  1.6064e+001 -4.6577e+001 -1.9545e+000 48490 90564,90616,90590
 3.6000e+000 90769 -4.3624e+001 -1.6773e+002 -5.2476e+001 48490 90642,90694,90668
 3.6000e+000 90746 -3.1114e+000 -7.8696e+001  1.5928e+001 48490 90512,90720,90538
 3.6000e+000 91034 -8.0625e+000 -9.0915e+001  2.4432e+001 48086 91057,90959,90933
 3.6000e+000 91011 -3.1198e+000 -6.5509e+001  1.8183e+001 48086 91129,91057,90933
 3.6000e+000 91083  9.6763e+000 -7.7818e+001  1.8299e+001 48086 90985,90959,91057
 3.6000e+000 91106 -7.7215e+000 -7.3215e+001  1.0105e+001 48086 90985,91057,90907
 3.6000e+000 91155 -2.1093e+001 -7.7076e+001  1.2344e+001 48086 90907,91057,91129
 3.6000e+000 91791 -2.8554e+001 -8.1964e+001  7.1380e+001 47518 92030,91814,91523
 3.6000e+000 91768 -7.0240e+001 -1.3522e+002  3.3732e+001 47518 91958,91814,91471
 3.6000e+000 91745 -4.3459e+001 -1.8952e+002  1.6234e+001 47518 91886,91575,91523
 3.6000e+000 91722 -7.8868e+001 -1.1194e+002 -5.4558e+000 47518 91958,91471,91419
 3.6000e+000 91699 -1.8710e+001 -9.8495e+001  7.9994e+001 47518 92030,91523,91497
 3.6000e+000 91676 -7.9050e+001 -1.3197e+002  1.8592e+001 47518 91523,91575,91549
 3.6000e+000 91653 -6.9460e+001 -6.8523e+001 -1.0652e+001 47518 91419,91471,91445
 3.6000e+000 91840 -2.0925e+001 -1.5193e+002  6.5360e+001 47518 91886,91523,91814
 3.6000e+000 91863 -2.3907e+001 -1.1193e+002  3.2259e+001 47518 91601,91814,91627
 3.6000e+000 91912 -9.3160e+001 -2.1622e+002 -3.6827e+001 47518 91601,91575,91886
 3.6000e+000 91935 -8.7159e+001 -1.4266e+002  1.4255e+001 47518 91601,91886,91814
 3.6000e+000 91984 -1.9704e+001 -1.1618e+002  2.6297e+001 47518 91627,91814,91958
 3.6000e+000 92007 -4.6458e+001 -1.0118e+002 -5.7304e+000 47518 91627,91958,91419
 3.6000e+000 92056 -2.0913e+001 -6.6347e+001  7.7427e+001 47518 91471,91814,92030
 3.6000e+000 92079 -1.0564e+001 -7.6229e+001  8.6628e+001 47518 91471,92030,91497
 3.6000e+000 92229 -2.0534e-001 -3.9015e-001 -1.6175e-001 47128 92252,92128,92102
 3.6000e+000 92206 -8.0883e-001  2.1695e-001  5.8458e-001 47128 92324,92252,92102
 3.6000e+000 92278  1.6731e+000  1.4300e+000  1.8279e+000 47128 92454,92252,92154
 3.6000e+000 92301 -2.2177e+000 -4.3895e+000  3.7050e+000 47128 92154,92252,92180
 3.6000e+000 92350  1.8569e+000 -2.9160e+000  5.9958e-001 47128 92180,92252,92324
 3.6000e+000 92480 -2.0688e+000 -9.6929e-001  5.7504e-001 47128 92128,92252,92454
 3.6000e+000 93340 -4.7747e+001 -1.3061e+002 -1.0341e+001 46838 93363,92977,92873
 3.6000e+000 93317 -3.7909e+001 -1.2687e+002 -8.3954e+000 46838 93507,93363,92873
 3.6000e+000 93294 -1.8565e+001 -1.1194e+002  1.3076e+001 46838 93435,93003,92977
 3.6000e+000 93271 -7.2893e+001 -1.3063e+002 -8.1982e+000 46838 93507,92873,92847
 3.6000e+000 93248 -1.7076e+001 -1.2865e+002  3.5545e+000 46838 93579,93029,93003
 3.6000e+000 93225 -5.6383e+001 -2.0616e+002  3.7100e+001 46838 92873,92951,92925
 3.6000e+000 93202 -6.8657e+001 -1.5246e+002 -1.0657e+000 46838 92873,92977,92951
 3.6000e+000 93179 -6.6366e+000 -1.2414e+002  3.8214e+000 46838 93055,93107,93081
 3.6000e+000 93156 -2.2299e+001 -7.9593e+001  1.7955e+001 46838 92821,93107,92847
 3.6000e+000 93133 -4.1546e+001 -1.2536e+002  2.6151e+001 46838 92873,92925,92899
 3.6000e+000 93389 -3.0016e+001 -1.2572e+002  6.7619e+000 46838 93435,92977,93363
 3.6000e+000 93412 -2.3363e+000 -1.3568e+002  4.0455e+000 46838 93055,93363,93107
 3.6000e+000 93461 -1.7581e+001 -1.3003e+002  3.4845e+000 46838 93579,93003,93435
 3.6000e+000 93484 -1.8052e+001 -1.4243e+002  3.7811e+000 46838 93055,93435,93363
 3.6000e+000 93533 -1.2647e+001 -1.3041e+002 -1.5444e+001 46838 93107,93363,93507
 3.6000e+000 93556 -2.5509e+001 -1.1811e+002 -1.5174e+001 46838 93107,93507,92847
 3.6000e+000 93605 -1.6719e+001 -1.2964e+002  6.4226e+000 46838 93055,93029,93579
 3.6000e+000 93628 -1.7083e+001 -1.3070e+002  6.3768e+000 46838 93055,93579,93435
 3.6000e+000 93979 -8.1530e+001 -9.6543e+001 -1.0574e+000 46476 93780,93884,93858
 3.6000e+000 93956 -5.7580e+001 -8.3346e+001  1.2548e+001 46476 93754,93884,93780
 3.6000e+000 93933 -2.2665e+001 -1.5316e+001 -5.0408e+000 46476 93806,93858,93832
 3.6000e+000 93910 -4.3710e+001 -8.0591e+001 -2.4556e+000 46476 93780,93858,93806
 3.6000e+000 94515 -2.0577e+000 -9.2781e+001 -4.2674e+000 46072 94345,94397,94371
 3.6000e+000 94492 -8.8953e+001 -1.3527e+002  2.4931e+001 46072 94267,94397,94345
 3.6000e+000 94469 -6.9106e+001 -1.4488e+002  1.1734e+001 46072 94241,94397,94267
 3.6000e+000 94446 -5.6406e+001 -6.9331e+001  2.7633e+001 46072 94293,94345,94319
 3.6000e+000 94423 -6.8994e+001 -8.7829e+001  3.3919e+001 46072 94267,94345,94293
 3.6000e+000 95149 -7.8226e+001 -1.9189e+002  5.9015e+000 45346 94803,94881,94855
 3.6000e+000 95126 -7.2471e+001 -1.6195e+002 -9.4818e+000 45346 94803,94959,94881
 3.6000e+000 95103 -4.9513e+001 -1.7342e+002 -3.2865e+001 45346 95172,94933,94907
 3.6000e+000 95080 -8.2368e+001 -3.0398e+002 -1.9493e+001 45346 95172,94907,94881
 3.6000e+000 95057 -9.0034e+001 -1.5757e+002 -6.4644e+000 45346 94803,94985,94959
 3.6000e+000 95034 -6.4833e+001 -2.1919e+002 -7.4581e+000 45346 94803,94855,94829
 3.6000e+000 95011 -9.4986e+001 -1.6065e+002  1.2298e+001 45346 94777,94985,94803
 3.6000e+000 95198 -9.0536e+001 -1.1092e+002 -1.8750e+001 45346 94959,94933,95172
 3.6000e+000 95221 -8.0701e+001 -1.8345e+002 -1.6342e+001 45346 94959,95172,94881
 3.6000e+000 95776 -3.2574e+001 -1.9251e+002 -6.0134e+000 44720 95799,95560,95534
 3.6000e+000 95753 -1.3162e+001 -1.1845e+002 -2.2375e+001 44720 95799,95534,95482
 3.6000e+000 95730 -8.2226e-001 -2.1032e+002 -2.1722e+001 44720 95943,95871,95430
 3.6000e+000 95707 -8.1943e+000 -1.6203e+002 -1.1016e+001 44720 95943,95430,95404
 3.6000e+000 95684 -8.2751e+001 -1.4205e+002 -5.7247e+001 44720 95430,95482,95456
 3.6000e+000 95661 -3.6742e+001 -1.0580e+002  3.1381e+001 44720 95482,95534,95508
 3.6000e+000 95638 -2.3413e+000 -8.7095e+001 -3.2680e+001 44720 95404,95612,95586
 3.6000e+000 95825 -1.5166e+001 -2.6587e+002 -3.5643e+001 44720 95586,95560,95799
 3.6000e+000 95848  6.7097e+000 -1.9142e+002 -2.2867e+001 44720 95871,95586,95799
 3.6000e+000 95897 -6.1862e+000 -2.2043e+002 -3.6570e+001 44720 95482,95430,95871
 3.6000e+000 95920 -3.4771e+000 -1.9910e+002 -1.6156e+001 44720 95482,95871,95799
 3.6000e+000 95969  1.0787e+001 -1.4331e+002 -2.4522e+001 44720 95586,95871,95943
 3.6000e+000 95992 -4.2674e+000 -1.1181e+002 -4.9299e+000 44720 95586,95943,95404
 3.6000e+000 96449 -4.8249e+001 -1.9482e+002 -3.8678e+000 44202 96544,96472,96227
 3.6000e+000 96426 -4.4693e+001 -1.7781e+002  2.5836e+001 44202 96472,96175,96331
 3.6000e+000 96403 -3.0965e+001 -2.1136e+002 -2.4377e-001 44202 96544,96227,96201
 3.6000e+000 96380 -7.2399e+001 -2.9848e+002 -6.5500e+001 44202 96253,96305,96279
 3.6000e+000 96357 -1.1047e+002 -1.9928e+002 -3.1323e+001 44202 96227,96305,96253
 3.6000e+000 96498 -4.1022e+001 -1.6197e+002  1.9143e+000 44202 96305,96227,96472
 3.6000e+000 96521 -2.5784e+001 -1.3989e+002  3.6200e+001 44202 96305,96472,96331
 3.6000e+000 96570 -3.6327e+001 -1.6382e+002  4.2440e+000 44202 96175,96472,96544
 3.6000e+000 96593 -2.8843e+001 -1.9242e+002  5.8036e+000 44202 96175,96544,96201
 3.6000e+000 96971 -2.0136e+001 -1.0293e+002 -2.7710e+001 43754 96994,96749,96697
 3.6000e+000 96948  2.9698e-001 -1.1965e+002 -1.4373e+001 43754 96994,96697,96853
 3.6000e+000 96925 -3.8951e+001 -8.2540e+001 -1.5885e+001 43754 96697,96749,96723
 3.6000e+000 96902 -1.2608e+001 -1.2474e+002  1.3322e+001 43754 96775,96853,96827
 3.6000e+000 96879  7.0270e+000 -1.7284e+002  2.3200e+000 43754 96775,96827,96801
 3.6000e+000 97020 -6.0415e+000 -7.8070e+001 -1.9183e+001 43754 96775,96749,96994
 3.6000e+000 97043  1.1852e+001 -1.0498e+002 -7.8703e+000 43754 96775,96994,96853
 3.6000e+000 97291 -2.9148e+001 -1.7412e+002 -2.0597e+001 43364 97314,97144,97118
 3.6000e+000 97268 -3.1156e+001 -1.3695e+002 -4.0452e+000 43364 97314,97118,97092
 3.6000e+000 97245 -1.5991e+001 -1.2060e+002  2.3181e+001 43364 97386,97196,97170
 3.6000e+000 97222 -4.2107e+001 -8.7890e+001  3.6220e+001 43364 97066,97196,97092
 3.6000e+000 97340 -2.3592e+001 -1.1401e+002 -2.5527e+001 43364 97170,97144,97314
 3.6000e+000 97363 -2.4330e+001 -1.0283e+002  8.9564e+000 43364 97386,97170,97314
 3.6000e+000 97412 -2.5132e+001 -1.4001e+002  1.4204e+001 43364 97092,97196,97386
 3.6000e+000 97435 -4.3019e+001 -1.3775e+002 -2.2988e+000 43364 97092,97386,97314
 3.6000e+000 97788  3.1761e+000 -1.0037e+002  1.5176e+001 42960 97563,97667,97589
 3.6000e+000 97765 -4.1481e+001 -1.0367e+002  2.1275e+001 42960 97563,97693,97667
 3.6000e+000 97742  1.6081e+001  2.8752e+000  5.3319e+000 42960 97589,97641,97615
 3.6000e+000 97719 -4.0276e+000 -1.1268e+002  8.2000e+000 42960 97589,97667,97641
 3.6000e+000 98215  5.5055e+000 -8.7451e+001 -4.8701e+000 42563 97918,98074,98048
 3.6000e+000 98192 -1.6698e+001 -6.8291e+001  1.8713e+001 42563 97892,98074,97918
 3.6000e+000 98169 -1.9571e+001 -1.6940e+002  8.2610e+000 42563 98238,97944,97918
 3.6000e+000 98146 -1.6238e+001 -1.6037e+002  1.9828e+001 42563 98238,97918,98048
 3.6000e+000 98123 -2.6353e+001 -1.0471e+002  4.2383e+000 42563 97944,98022,97996
 3.6000e+000 98100 -5.8447e+001 -1.6930e+002  2.0934e+001 42563 97944,97996,97970
 3.6000e+000 98264 -3.0879e+001 -1.6767e+002  3.6409e+000 42563 98022,97944,98238
 3.6000e+000 98287 -2.8238e+001 -1.6512e+002  1.3803e+001 42563 98022,98238,98048
 3.6000e+000 98616 -4.0994e+001 -1.0384e+002 -9.5212e+000 42251 98443,98521,98469
 3.6000e+000 98593 -5.1543e+001 -1.0170e+002 -2.4847e+000 42251 98417,98521,98443
 3.6000e+000 98570 -6.5163e+001 -1.3604e+002 -2.3133e+001 42251 98391,98521,98417
 3.6000e+000 98547 -1.7879e+001 -8.7901e+001 -2.0784e+001 42251 98469,98521,98495
 3.6000e+000 98886 -4.0652e+000 -1.3064e+002  7.6051e+000 41847 98661,98765,98687
 3.6000e+000 98863 -1.5533e+001 -7.3698e+001 -3.5301e+001 41847 98661,98791,98765
 3.6000e+000 98840 -1.8686e+001 -8.8885e+001  1.7777e+000 41847 98687,98765,98739
 3.6000e+000 98817 -3.2697e+000 -7.4685e+001 -1.0178e+001 41847 98687,98739,98713
 3.6000e+000 99394 -2.4154e+001 -1.1595e+002 -8.3875e+000 41236 99417,99149,99123
 3.6000e+000 99371 -9.3264e+001 -1.3661e+002 -8.0653e+000 41236 99417,99123,99097
 3.6000e+000 99348 -6.9420e+001 -9.6483e+001 -5.0075e+001 41236 99489,99201,99149
 3.6000e+000 99325 -1.1692e+001 -5.8243e+001 -2.4298e+001 41236 99149,99201,99175
 3.6000e+000 99302 -3.6313e+001 -1.8031e+002 -2.6053e+000 41236 99097,99253,99227
 3.6000e+000 99279 -1.1725e+002 -2.6666e+002 -4.6097e+001 41236 99071,99253,99097
 3.6000e+000 99443 -3.9906e+001 -1.1056e+002 -4.6587e+001 41236 99489,99149,99417
 3.6000e+000 99466 -6.8282e+001 -1.3549e+002 -3.3229e+001 41236 99227,99417,99097
 3.6000e+000 99515 -8.4226e+001 -1.1022e+002 -4.3327e+001 41236 99227,99201,99489
 3.6000e+000 99538 -7.2311e+001 -1.3792e+002 -3.4244e+001 41236 99227,99489,99417
 3.6000e+000 100044  6.8887e+000 -3.3470e+002  4.0552e-001 40732 99721,99773,99747
 3.6000e+000 100021 -2.3206e+001 -2.9116e+002 -1.6882e+001 40732 99721,99799,99773
 3.6000e+000 99998 -3.0700e+001 -1.7686e+002 -7.6778e+000 40732 99721,99903,99799
 3.6000e+000 99975 -4.3842e+001 -1.5473e+002 -1.7990e+000 40732 100067,99877,99851
 3.6000e+000 99952 -4.2986e+001 -1.2627e+002  8.6237e-001 40732 100067,99851,99799
 3.6000e+000 99929 -3.4883e+001 -1.1403e+002 -1.1154e+001 40732 99799,99851,99825
 3.6000e+000 100093 -3.9233e+001 -1.7937e+002 -1.2794e+001 40732 99903,99877,100067
 3.6000e+000 100116 -3.4738e+001 -1.4355e+002 -1.2603e+001 40732 99903,100067,99799
 3.6000e+000 100622 -1.4121e+001 -1.3666e+002 -7.8910e+000 40278 100645,100455,100429
 3.6000e+000 100599 -5.2083e+001 -1.0338e+002 -1.8254e+001 40278 100717,100645,100429
 3.6000e+000 100576 -5.2419e+001 -1.0361e+002  1.1112e+001 40278 100717,100429,100377
 3.6000e+000 100553 -3.5493e+001 -1.9636e+002 -4.1785e+000 40278 100789,100325,100481
 3.6000e+000 100530 -5.6893e+001 -1.1147e+002  2.4719e+001 40278 100299,100481,100325
 3.6000e+000 100507 -5.9478e+001 -1.3815e+002 -5.3264e+000 40278 100377,100429,100403
 3.6000e+000 100671 -2.0516e+001 -1.5578e+002 -1.4606e+001 40278 100481,100455,100645
 3.6000e+000 100694 -3.0037e+001 -1.6473e+002 -6.7262e+000 40278 100789,100481,100645
 3.6000e+000 100743 -3.5005e+001 -5.5554e+001 -3.0578e+001 40278 100351,100645,100717
 3.6000e+000 100766 -4.8449e+001 -6.7189e+001  1.3637e+000 40278 100351,100717,100377
 3.6000e+000 100815 -5.5364e+001 -2.0150e+002 -5.9935e+001 40278 100351,100325,100789
 3.6000e+000 100838 -2.8776e+001 -1.2837e+002 -5.9256e+001 40278 100351,100789,100645
 3.6000e+000 101265 -1.2167e+001 -1.5587e+002  1.5345e+001 39824 101288,101046,100994
 3.6000e+000 101242 -2.6247e+001 -1.4740e+002  6.7884e+000 39824 101288,100994,100968
 3.6000e+000 101219 -2.7598e+001 -1.5842e+002 -3.5711e+000 39824 100942,101124,100968
 3.6000e+000 101196 -5.1950e+001 -2.9527e+002  1.3293e+001 39824 101046,101124,101072
 3.6000e+000 101173 -5.7701e+000 -1.4575e+002  2.9032e+001 39824 100994,101046,101020
 3.6000e+000 101150 -5.4080e+001 -2.3882e+002 -1.3729e+001 39824 101072,101124,101098
 3.6000e+000 101314 -2.5286e+000 -1.5005e+002  1.2916e+001 39824 101124,101046,101288
 3.6000e+000 101337 -1.2118e+001 -1.4071e+002  4.4285e+000 39824 101124,101288,100968
 3.6000e+000 101585  2.3036e-001 -9.4859e+001 -2.4470e+001 39070 101608,101464,101412
 3.6000e+000 101562  4.3881e+001 -1.0703e+002  1.0147e+001 39070 101608,101412,101360
 3.6000e+000 101539 -1.0427e+001 -7.8153e+001 -7.4548e+000 39070 101412,101464,101438
 3.6000e+000 101516  2.6545e+001 -7.5243e+001  2.3097e+001 39070 101360,101412,101386
 3.6000e+000 101634 -3.2481e+001 -1.0427e+002 -2.9192e+001 39070 101490,101464,101608
 3.6000e+000 101657 -2.2812e+000 -1.2120e+002  9.5985e+000 39070 101490,101608,101360
 3.6000e+000 101856 -1.0768e+001 -7.0793e+001 -2.9344e+000 38730 101706,101758,101732
 3.6000e+000 101833 -4.6830e-001 -7.9984e+001 -2.8428e-001 38730 101706,101784,101758
 3.6000e+000 101810 -2.2678e+001 -9.3581e+001 -6.5741e+000 38730 101680,101784,101706
 3.6000e+000 102106 -6.7857e+001 -1.6698e+002 -2.0731e+000 38326 101881,101959,101907
 3.6000e+000 102083 -5.1786e+001 -1.3501e+002 -7.7353e+000 38326 101881,101985,101959
 3.6000e+000 102060 -3.9583e+001 -1.8131e+002  1.8783e+001 38326 101881,102011,101985
 3.6000e+000 102037 -3.3778e+001 -1.0424e+002 -3.6056e+001 38326 101907,101959,101933
 3.6000e+000 102258  3.9471e+001 -1.1199e+002  1.0632e+001 38036 102281,102157,102131
 3.6000e+000 102235  1.0333e+001 -1.4156e+002  2.4154e+001 38036 102281,102131,102209
 3.6000e+000 102307 -4.1110e+000 -7.7608e+001  8.1562e+000 38036 102183,102157,102281
 3.6000e+000 102330 -3.6816e+001 -1.0414e+002  2.3238e+001 38036 102183,102281,102209
 3.6000e+000 102663 -1.0631e+001 -6.7155e+001  8.3259e+000 37596 102438,102542,102464
 3.6000e+000 102640  7.9429e+000 -6.2600e+001  7.7072e-001 37596 102438,102568,102542
 3.6000e+000 102617 -1.0300e+001 -1.0385e+002 -1.7502e+001 37596 102490,102542,102516
 3.6000e+000 102594 -1.8130e+001 -6.7576e+001  5.6813e+000 37596 102464,102542,102490
 3.6000e+000 102862 -2.4880e+001 -1.2586e+002 -1.1797e+001 37192 102686,102764,102712
 3.6000e+000 102839 -1.5827e+001 -1.2007e+002 -2.2300e+001 37192 102686,102790,102764
 3.6000e+000 102816 -3.1002e+001 -1.0886e+002 -1.9455e+001 37192 102712,102764,102738
 3.6000e+000 103110 -1.4748e+001 -8.5643e+001 -3.5282e+001 36609 102911,102963,102937
 3.6000e+000 103087 -1.4401e+001 -1.1967e+002 -7.4014e+000 36609 102911,102989,102963
 3.6000e+000 103064  7.5166e-001 -1.2664e+002 -1.2105e+001 36609 102885,102989,102911
 3.6000e+000 103041 -2.8847e+001 -8.9413e+001 -3.6312e+001 36609 102885,103015,102989
 3.6000e+000 103718  2.0316e+001 -3.1098e+002  2.5535e+001 36131 103323,103375,103349
 3.6000e+000 103695 -6.3465e+001 -1.7088e+002 -1.3074e+001 36131 103297,103375,103323
 3.6000e+000 103672 -2.9000e+001 -1.0139e+002 -2.9052e+001 36131 103297,103505,103375
 3.6000e+000 103649 -7.8663e+001 -1.7055e+002  2.0305e+001 36131 103741,103479,103401
 3.6000e+000 103626 -4.7075e+001 -9.6873e+001  2.0877e+001 36131 103741,103401,103375
 3.6000e+000 103603 -9.0618e+001 -1.8838e+002  1.4989e+001 36131 103401,103479,103427
 3.6000e+000 103580 -5.5340e+001 -1.4142e+002 -1.0600e+000 36131 103297,103531,103505
 3.6000e+000 103557 -6.8402e+001 -1.7131e+002 -3.0264e+001 36131 103427,103479,103453
 3.6000e+000 103767 -6.0235e+001 -2.1854e+002 -3.5802e+001 36131 103505,103479,103741
 3.6000e+000 103790 -3.2161e+001 -1.5355e+002 -3.3448e+001 36131 103505,103741,103375
 3.6000e+000 103989 -1.0558e+002 -1.9822e+002  1.5132e+001 35791 103839,103917,103891
 3.6000e+000 103966 -1.5556e+002 -2.5069e+002 -5.3909e+000 35791 103813,103917,103839
 3.6000e+000 103943 -2.6492e+001 -1.4014e+002 -1.1756e+001 35791 103839,103891,103865
 3.6000e+000 104188 -1.1863e+001 -1.0897e+002  6.3399e+000 35444 104038,104090,104064
 3.6000e+000 104165 -5.0172e+001 -1.4006e+002 -1.8691e+001 35444 104038,104116,104090
 3.6000e+000 104142 -6.6372e+000 -1.3265e+002 -5.4849e+000 35444 104012,104116,104038
 3.6000e+000 104487 -9.3099e+000 -1.4528e+002 -3.5180e+001 34990 104265,104317,104291
 3.6000e+000 104464 -1.6988e+001 -1.7792e+002  3.9400e+000 34990 104510,104317,104265
 3.6000e+000 104441 -3.2377e+001 -1.1930e+002  2.2457e+001 34990 104510,104265,104213
 3.6000e+000 104418 -3.7241e-001 -1.2308e+002 -9.9325e+000 34990 104582,104343,104317
 3.6000e+000 104395 -2.3371e+001 -1.1180e+002 -3.3602e+001 34990 104213,104265,104239
 3.6000e+000 104536  1.7429e+000 -1.2061e+002 -6.2225e-001 34990 104582,104317,104510
 3.6000e+000 104559 -3.3333e+001 -9.0562e+001  1.8374e+001 34990 104369,104510,104213
 3.6000e+000 104608 -1.8364e+001 -1.0041e+002 -1.8123e+000 34990 104369,104343,104582
 3.6000e+000 104631 -2.2472e+001 -1.3142e+002  1.2445e+001 34990 104369,104582,104510
 3.6000e+000 104783  2.4089e+001 -5.4886e+001 -3.0562e-001 34700 104938,104806,104682
 3.6000e+000 104760  8.7432e+000 -9.0738e+001 -2.9483e+000 34700 104938,104682,104656
 3.6000e+000 104832  9.2312e+000 -1.1194e+002 -1.6371e+001 34700 104708,104682,104806
 3.6000e+000 104964  2.2686e+001 -4.2012e+001  3.0644e+001 34700 104734,104806,104938
 3.6000e+000 104987  1.0731e+001 -6.9714e+001  2.8603e+001 34700 104734,104938,104656
 3.6000e+000 105137  1.0623e+001 -8.1487e+001  6.1934e+000 34388 105036,105088,105062
 3.6000e+000 105114 -1.5705e+000 -1.3395e+002 -5.5743e+000 34388 105010,105088,105036
 3.6000e+000 105385 -2.2053e+001 -1.0218e+002 -3.1766e+001 33734 105408,105186,105160
 3.6000e+000 105362 -2.4001e+001 -1.0984e+002 -3.1938e+001 33734 105408,105160,105264
 3.6000e+000 105339 -5.9928e+001 -1.3740e+002 -2.0042e+001 33734 105160,105290,105264
 3.6000e+000 105316 -2.6093e+000 -8.6823e+001 -1.6304e+001 33734 105186,105238,105212
 3.6000e+000 105434 -2.4519e+001 -9.1779e+001 -2.3433e+001 33734 105238,105186,105408
 3.6000e+000 105457 -3.3157e+001 -1.1275e+002 -1.9556e+001 33734 105238,105408,105264
 3.6000e+000 105609 -1.1930e+001 -1.0916e+002  7.3763e+000 33394 105482,105534,105508
 3.6000e+000 105586 -5.6891e-001 -1.2326e+002  2.1244e+001 33394 105482,105560,105534
 3.6000e+000 105859 -3.9122e+001 -2.1982e+002 -3.3486e+001 33047 105882,105712,105660
 3.6000e+000 105836 -9.7216e+000 -1.8846e+002 -5.3823e+000 33047 105882,105660,105634
 3.6000e+000 105813 -6.7045e+000 -2.4613e+002  8.4754e+000 33047 105660,105712,105686
 3.6000e+000 105790 -7.6022e+000 -8.3549e+001  4.8114e+000 33047 105634,105764,105738
 3.6000e+000 105908 -1.1208e+002 -1.6460e+002 -1.5003e+001 33047 105738,105712,105882
 3.6000e+000 105931 -3.9300e+001 -1.3517e+002  2.4814e+001 33047 105738,105882,105634
 3.6000e+000 106181 -2.0688e+001 -1.5622e+002 -5.9636e-003 32543 106204,106060,106008
 3.6000e+000 106158  3.4294e+000 -2.4048e+002  4.1184e+000 32543 105956,106086,106060
 3.6000e+000 106135  4.1911e-001 -7.2946e+001  3.8343e+001 32543 106204,106008,105982
 3.6000e+000 106112 -3.7901e+001 -5.3074e+001  9.2951e+000 32543 106008,106060,106034
 3.6000e+000 106230 -2.5806e+001 -1.9109e+002 -4.3209e+001 32543 105956,106060,106204
 3.6000e+000 106253 -2.8410e+001 -1.2149e+002 -1.0204e+001 32543 105956,106204,105982
 3.6000e+000 106454  3.4893e+001 -8.7188e+001  3.3093e+001 31839 106304,106356,106330
 3.6000e+000 106431  3.9062e+001 -1.2196e+002 -2.9543e+001 31839 106278,106356,106304
 3.6000e+000 106408 -4.1470e+001 -1.1152e+002 -2.0918e+001 31839 106278,106382,106356
 3.6000e+000 106704 -3.4507e+000 -1.2761e+002 -1.6984e+001 31534 106505,106583,106557
 3.6000e+000 106681 -3.7748e+001 -1.3771e+002 -1.4102e+001 31534 106479,106583,106505
 3.6000e+000 106658 -3.8585e+001 -5.7845e+001 -3.4357e+001 31534 106505,106557,106531
 3.6000e+000 106635 -4.5559e+000 -1.1905e+002 -2.3926e+001 31534 106479,106609,106583
 3.6000e+000 107108 -1.0400e+002 -1.7270e+002  6.2774e-001 31030 106886,106990,106964
 3.6000e+000 107085 -1.1262e+002 -1.9555e+002 -2.6144e+000 31030 106860,106990,106886
 3.6000e+000 107062 -2.8058e+001 -1.7765e+002 -2.4603e+001 31030 106834,106990,106860
 3.6000e+000 107039 -9.1345e+001 -2.2335e+002  2.4366e+001 31030 106912,106964,106938
 3.6000e+000 107016 -8.3480e+001 -1.6203e+002  6.8672e+000 31030 106886,106964,106912
 3.6000e+000 107307  4.3011e-001 -7.2114e+001 -3.5626e+000 30718 107330,107157,107131
 3.6000e+000 107284  4.1001e+000 -9.5616e+001 -2.0178e+000 30718 107330,107131,107235
 3.6000e+000 107261  3.7984e+000 -7.6335e+001  1.8585e+001 30718 107183,107235,107209
 3.6000e+000 107356 -4.6568e-001 -4.5268e+001 -7.8384e-001 30718 107183,107157,107330
 3.6000e+000 107379 -6.1711e-001 -7.3732e+001  5.2398e-001 30718 107183,107330,107235
 3.6000e+000 107759 -3.8232e+000 -5.4621e+001 -1.1682e+000 30264 107782,107615,107537
 3.6000e+000 107736 -1.2105e+001 -7.3603e+001 -8.4902e+000 30264 107782,107537,107485
 3.6000e+000 107713 -2.0207e+001 -1.0417e+002 -3.0924e-001 30264 107485,107537,107511
 3.6000e+000 107690  1.3179e+001 -8.6569e+001 -1.2443e+001 30264 107537,107615,107589
 3.6000e+000 107667  8.2522e+000 -8.5429e+001 -1.2118e+001 30264 107537,107589,107563
 3.6000e+000 107808  8.0524e+000 -5.6328e+001  1.5551e+001 30264 107641,107615,107782
 3.6000e+000 107831 -5.1232e+000 -7.9700e+001  7.3056e+000 30264 107641,107782,107485
 3.6000e+000 108030 -3.2774e+001 -1.8385e+002 -4.3629e+001 29874 108053,107854,107932
 3.6000e+000 108007 -6.9909e+001 -1.9678e+002 -4.1055e+001 29874 107854,107958,107932
 3.6000e+000 107984  1.0085e+001 -1.2857e+002 -6.4803e+000 29874 108053,107932,107906
 3.6000e+000 108079 -5.6064e+001 -1.1516e+002 -2.1238e+001 29874 107880,107854,108053
 3.6000e+000 108102 -4.2626e+001 -6.9818e+001  2.2191e+000 29874 107880,108053,107906
 3.6000e+000 108433  7.6745e+000 -1.5268e+002 -5.4175e+001 29484 108234,108338,108312
 3.6000e+000 108410 -4.8419e+000 -1.2844e+002  3.6952e-001 29484 108208,108338,108234
 3.6000e+000 108387 -4.7894e+001 -1.2993e+002 -7.7722e+001 29484 108234,108312,108260
 3.6000e+000 108364  1.4049e+001  1.7549e+001 -3.1387e+001 29484 108260,108312,108286
 3.6000e+000 108762 -3.7392e+001 -1.4341e+002  1.4823e+001 29080 108563,108641,108589
 3.6000e+000 108739 -2.4185e+001 -7.8719e+001  1.7702e+000 29080 108537,108641,108563
 3.6000e+000 108716 -4.4743e+001 -1.8379e+002  1.3181e+001 29080 108589,108641,108615
 3.6000e+000 108693 -3.4883e-001 -6.7734e+001  5.2720e+000 29080 108537,108667,108641
 3.6000e+000 109189 -1.3367e+001 -1.2775e+002 -1.2689e+001 28476 108892,108996,108970
 3.6000e+000 109166 -2.5063e+001 -1.4306e+002 -6.5821e+000 28476 108892,109022,108996
 3.6000e+000 109143 -6.0333e+001 -9.7629e+001  1.6671e+001 28476 108892,108970,108944
 3.6000e+000 109120 -9.6519e-002 -1.6984e+002 -2.8897e+001 28476 108892,109048,109022
 3.6000e+000 109097 -4.2785e+001 -3.4320e+001  8.4600e+000 28476 108892,108944,108918
 3.6000e+000 109074 -5.0414e+000 -1.0675e+002 -3.9081e+001 28476 108866,109048,108892
 3.6000e+000 109518 -6.1286e+001 -1.6035e+002  2.6487e+001 28022 109541,109371,109345
 3.6000e+000 109495 -6.4607e+001 -1.5191e+002  1.9940e+001 28022 109541,109345,109319
 3.6000e+000 109472 -4.9334e+001 -1.4997e+002  5.8662e+000 28022 109293,109397,109319
 3.6000e+000 109449 -1.0041e+001 -1.3364e+002  3.7205e+000 28022 109293,109423,109397
 3.6000e+000 109567 -4.5968e+001 -1.5296e+002  2.2830e+001 28022 109397,109371,109541
 3.6000e+000 109590 -6.0476e+001 -1.4841e+002  1.8044e+001 28022 109397,109541,109319
 3.6000e+000 109968 -1.9552e+001 -8.4020e+001  4.2918e+001 27568 109798,109850,109824
 3.6000e+000 109945 -1.4304e+001 -1.3250e+002  6.2124e+001 27568 109694,109850,109798
 3.6000e+000 109922 -4.0003e+000 -1.1463e+002  5.5924e+001 27568 109694,109798,109746
 3.6000e+000 109899  8.7470e+000 -1.1493e+002  1.0497e+001 27568 109746,109798,109772
 3.6000e+000 109876 -2.1066e+001 -1.1440e+002  2.4917e+001 27568 109694,109746,109720
 3.6000e+000 110167 -3.6148e+001 -1.6248e+002 -5.3259e+001 27007 110017,110095,110069
 3.6000e+000 110144  1.5367e+001 -1.9875e+002 -1.0484e+001 27007 109991,110095,110017
 3.6000e+000 110121 -1.1279e+000 -1.2684e+002 -2.2680e+001 27007 110017,110069,110043
 3.6000e+000 110415 -4.5979e+000 -1.4697e+002 -9.7107e+000 26567 110438,110242,110190
 3.6000e+000 110392 -1.9179e+001 -1.5629e+002 -5.5628e+000 26567 110438,110190,110320
 3.6000e+000 110369 -4.6802e+001 -1.4657e+002 -1.5234e+001 26567 110242,110294,110268
 3.6000e+000 110346 -8.1105e+000 -1.3252e+002  3.2287e+001 26567 110190,110242,110216
 3.6000e+000 110464 -1.1786e+001 -1.4267e+002 -1.5709e+001 26567 110294,110242,110438
 3.6000e+000 110487 -1.9790e+001 -1.4701e+002 -1.4049e+001 26567 110294,110438,110320
 3.6000e+000 110639  3.7113e+000  1.6412e+001  6.1491e+000 26170 110538,110590,110564
 3.6000e+000 110616  4.0419e+000  1.4481e+001  6.5239e+000 26170 110512,110590,110538
 3.6000e+000 111149 -2.1690e+001 -5.7063e+001  4.2055e-001 25716 111172,110878,110852
 3.6000e+000 111126 -8.4134e+000 -5.7211e+001  8.1354e-001 25716 111172,110852,111008
 3.6000e+000 111103 -1.6141e+001 -7.7894e+001 -9.0270e+000 25716 110878,110930,110904
 3.6000e+000 111080  1.0088e+000 -4.2857e+001  1.6248e+001 25716 110826,111008,110852
 3.6000e+000 111057 -2.8367e+001 -1.1432e+002  4.0899e+001 25716 110930,111008,110956
 3.6000e+000 111034 -1.7597e+001 -9.0146e+001  2.2321e+001 25716 110956,111008,110982
 3.6000e+000 111198 -1.1122e+001 -6.1316e+001  4.3602e+000 25716 110930,110878,111172
 3.6000e+000 111221  5.0775e+000 -5.9151e+001  4.9866e+000 25716 110930,111172,111008
 3.6000e+000 111420  2.7073e+000 -5.4448e+001  2.3874e-002 25304 111443,111270,111244
 3.6000e+000 111397  2.8718e+000 -6.4661e+001  1.0027e+000 25304 111443,111244,111348
 3.6000e+000 111374 -4.7780e-001 -4.3357e+001  7.8323e+000 25304 111270,111322,111296
 3.6000e+000 111469  1.2997e+000 -4.6755e+001 -2.3970e-001 25304 111322,111270,111443
 3.6000e+000 111492  2.6598e+000 -5.5188e+001  1.5188e+000 25304 111322,111443,111348
 3.6000e+000 111691 -3.9795e+001 -1.3134e+002  1.2626e+001 24736 111567,111619,111593
 3.6000e+000 111668 -6.0768e+001 -1.7162e+002  4.8708e+000 24736 111541,111619,111567
 3.6000e+000 111645 -4.0100e+001 -1.6342e+002  7.6043e+000 24736 111515,111619,111541
 3.6000e+000 112024 -8.0111e+000 -1.4364e+002  2.6387e+001 24146 111825,111877,111851
 3.6000e+000 112001 -1.6691e+001 -9.0708e+001  2.1895e+000 24146 111825,111903,111877
 3.6000e+000 111978 -4.9555e+000 -5.9621e+001 -2.6971e+000 24146 111825,111929,111903
 3.6000e+000 111955 -1.3311e+001 -4.6470e+001  7.7527e+000 24146 111799,111929,111825
 3.6000e+000 112370 -4.8654e+001 -2.5155e+002 -3.4449e+000 23856 112393,112151,112125
 3.6000e+000 112347 -3.0694e+001 -2.1559e+002  2.5930e+000 23856 112465,112393,112125
 3.6000e+000 112324 -3.4320e+001 -2.0317e+002  1.5672e+001 23856 112465,112125,112073
 3.6000e+000 112301 -5.9322e+001 -1.8547e+002  1.9844e+001 23856 112073,112125,112099
 3.6000e+000 112278 -1.4094e+002 -2.9989e+002 -4.9685e+001 23856 112047,112229,112073
 3.6000e+000 112255 -3.0492e+001 -2.9455e+002 -6.8637e+001 23856 112151,112203,112177
 3.6000e+000 112419 -4.8662e+001 -2.3521e+002 -2.2452e+001 23856 112203,112151,112393
 3.6000e+000 112442 -5.2847e+001 -2.3931e+002 -2.4125e+001 23856 112203,112393,112229
 3.6000e+000 112491 -5.5614e+001 -2.3490e+002 -2.4082e+001 23856 112229,112393,112465
 3.6000e+000 112514 -4.8451e+001 -2.0381e+002 -1.0251e+001 23856 112229,112465,112073
 3.6000e+000 112784 -2.0394e+001 -1.7503e+002  1.4590e+001 23494 112611,112663,112637
 3.6000e+000 112761 -2.6572e+001 -1.5169e+002  1.4108e+001 23494 112585,112663,112611
 3.6000e+000 112738 -4.4372e+001 -1.5938e+002  1.1239e+001 23494 112559,112663,112585
 3.6000e+000 112715 -1.0720e+001 -9.7605e+001 -3.0776e+000 23494 112559,112689,112663
 3.6000e+000 113117  1.5541e+001  1.1450e+001 -9.3715e+000 22974 112944,113022,112996
 3.6000e+000 113094  1.1747e+001  2.6375e+001 -1.5129e+001 22974 112918,113022,112944
 3.6000e+000 113071  1.3977e+001  2.3432e+001  6.9684e+000 22974 112944,112996,112970
 3.6000e+000 113048  1.3890e+001  4.6025e+000  3.6317e+000 22974 112892,113022,112918
 3.6000e+000 113414  8.0377e-001 -6.2199e+001  1.6133e+001 22370 113192,113296,113218
 3.6000e+000 113391  1.1617e+000 -5.3595e+001  1.7970e+001 22370 113140,113296,113192
 3.6000e+000 113368 -1.2708e+001 -8.9360e+001  4.2259e+001 22370 113218,113296,113270
 3.6000e+000 113345 -1.6050e+001 -1.1789e+002  4.8267e+001 22370 113218,113270,113244
 3.6000e+000 113322 -7.9656e+000 -7.8819e+001  1.4373e+001 22370 113140,113192,113166
 3.6000e+000 113662  4.3495e+000 -7.5585e+001  3.6408e+001 21916 113685,113515,113489
 3.6000e+000 113639 -2.7529e+000 -1.4796e+002  2.4559e+001 21916 113685,113489,113437
 3.6000e+000 113616  1.2516e+000 -1.4293e+002  9.4622e+000 21916 113757,113567,113541
 3.6000e+000 113593  2.1159e+001 -8.7748e+001  1.2495e+001 21916 113437,113489,113463
 3.6000e+000 113711 -2.6784e+001 -1.7398e+002  5.2499e+001 21916 113541,113515,113685
 3.6000e+000 113734 -3.0399e+000 -1.7115e+002  2.4603e+001 21916 113757,113541,113685
 3.6000e+000 113783 -1.2787e+001 -1.1690e+002  2.0295e+001 21916 113437,113567,113757
 3.6000e+000 113806 -8.9242e-001 -1.2938e+002  2.5491e+001 21916 113437,113757,113685
 3.6000e+000 114056  2.1461e+001 -2.1930e+002  2.1260e+001 21412 113857,113909,113883
 3.6000e+000 114033  6.5198e+001 -1.2008e+002  9.8680e+000 21412 114079,113909,113857
 3.6000e+000 114010  7.3232e+000 -1.3912e+002  4.8802e+000 21412 114079,113857,113961
 3.6000e+000 113987 -1.9920e+001 -8.6063e+001  2.7688e+001 21412 113831,113961,113857
 3.6000e+000 114105  1.9200e+001 -1.1676e+002 -1.5546e+001 21412 113935,113909,114079
 3.6000e+000 114128 -1.9743e+001 -1.2188e+002 -1.8941e+001 21412 113935,114079,113961
 3.6000e+000 114378 -5.0243e+001 -1.5275e+002 -5.6639e+001 21022 114401,114257,114205
 3.6000e+000 114355 -6.9861e+001 -2.0605e+002 -5.4616e+001 21022 114401,114205,114179
 3.6000e+000 114332  4.0387e+000 -2.5597e+002 -3.1598e+001 21022 114153,114283,114179
 3.6000e+000 114309 -5.8466e+001 -1.0383e+002 -3.6591e+001 21022 114205,114257,114231
 3.6000e+000 114427 -4.1744e+001 -1.7251e+002 -1.0439e+001 21022 114283,114257,114401
 3.6000e+000 114450 -5.7683e+001 -2.2115e+002 -9.6280e+000 21022 114283,114401,114179
 3.6000e+000 114651  8.6967e+001 -1.4338e+002  3.7496e+001 20618 114501,114553,114527
 3.6000e+000 114628 -1.1894e+001 -1.5119e+002 -9.1197e+000 20618 114501,114579,114553
 3.6000e+000 114605  5.0051e+000 -1.2944e+002 -6.8693e-001 20618 114475,114579,114501
 3.6000e+000 114901  4.7078e+001 -1.6560e+002 -7.9035e+000 20114 114676,114780,114702
 3.6000e+000 114878 -9.1305e+000 -1.9450e+002  2.3816e+000 20114 114676,114806,114780
 3.6000e+000 114855  1.0254e+002 -1.7177e+002 -8.0458e+000 20114 114702,114780,114754
 3.6000e+000 114832  2.9245e+002 -1.7164e+002  5.0332e+001 20114 114702,114754,114728
 3.6000e+000 115053 -6.8660e+001 -2.2544e+002 -4.5299e+000 19460 115147,115076,114926
 3.6000e+000 115030 -5.2588e+001 -2.4233e+002 -1.9824e-001 19460 115147,114926,115004
 3.6000e+000 115102 -6.5553e+001 -2.1043e+002 -3.2277e+000 19460 114952,114926,115076
 3.6000e+000 115173 -5.3744e+001 -2.0368e+002  1.9712e+000 19460 114978,115076,115147
 3.6000e+000 115196 -3.6948e+001 -2.2200e+002  6.7484e+000 19460 114978,115147,115004
 3.6000e+000 115446 -2.6012e+001 -2.1972e+002 -7.2504e+000 19006 115273,115351,115299
 3.6000e+000 115423  7.8117e+000 -1.8809e+002  6.6856e+000 19006 115247,115351,115273
 3.6000e+000 115400  2.7054e-001 -1.9128e+002  7.6182e+000 19006 115221,115351,115247
 3.6000e+000 115377 -5.5520e+000 -2.3563e+002 -3.0812e+001 19006 115299,115351,115325
 3.6000e+000 115767 -8.3609e+001 -2.0712e+002  4.3888e+000 18716 115571,115649,115623
 3.6000e+000 115744 -8.8414e+001 -2.1356e+002  1.7301e+000 18716 115493,115649,115571
 3.6000e+000 115721 -9.1504e+001 -2.0848e+002  3.7936e+000 18716 115493,115571,115545
 3.6000e+000 115698 -7.6083e+001 -1.9500e+002  2.7409e+001 18716 115493,115545,115519
 3.6000e+000 115675 -5.7565e+001 -1.9890e+002 -9.0617e-001 18716 115571,115623,115597
 3.6000e+000 116039 -1.8289e+001 -1.4308e+002  1.0483e+001 18312 115814,115892,115840
 3.6000e+000 116016 -6.9355e+000 -1.1629e+002  1.0466e+001 18312 115814,115944,115892
 3.6000e+000 115993 -2.3438e+001 -1.3106e+002  4.0455e+000 18312 115892,115944,115918
 3.6000e+000 115970  3.7676e+001 -1.3068e+002  2.1343e+001 18312 115840,115892,115866
 3.6000e+000 116191 -1.9383e+001 -2.1121e+002  1.9207e+000 18000 116090,116142,116116
 3.6000e+000 116168 -1.4323e+001 -2.2087e+002  6.9978e+000 18000 116064,116142,116090
 3.6000e+000 116343 -1.2241e+002 -2.5613e+002 -7.0734e+000 17396 116242,116294,116268
 3.6000e+000 116320 -1.1142e+002 -2.5677e+002 -7.5350e+000 17396 116216,116294,116242
 3.6000e+000 116566 -3.4743e+001 -3.1052e+002  3.2859e+001 16942 116390,116468,116442
 3.6000e+000 116543 -4.6182e+001 -3.1571e+002  3.5669e+001 16942 116390,116494,116468
 3.6000e+000 116520 -6.6993e+001 -3.8617e+002  1.3472e+001 16942 116390,116442,116416
 3.6000e+000 116767  1.9482e+001 -1.5625e+002 -8.0592e+000 16438 116790,116643,116617
 3.6000e+000 116744 -3.3613e-001 -1.2584e+002 -5.8502e+000 16438 116790,116617,116591
 3.6000e+000 116721  3.1746e+001 -1.2700e+002 -2.9267e+001 16438 116643,116695,116669
 3.6000e+000 116816  2.0058e+001 -1.3343e+002 -1.8153e+001 16438 116695,116643,116790
 3.6000e+000 116839  1.2882e+001 -1.0384e+002 -2.6317e+001 16438 116695,116790,116591
 3.6000e+000 117062 -1.2278e+001 -3.1662e+002 -5.4349e+000 16074 116886,116938,116912
 3.6000e+000 117039 -6.5256e+001 -3.5247e+002  1.6304e+001 16074 116886,116990,116938
 3.6000e+000 117016 -4.0895e+001 -2.8216e+002  2.5559e+001 16074 116938,116990,116964
 3.6000e+000 117214 -2.9679e+001 -2.2875e+002 -2.1360e+000 15649 117087,117139,117113
 3.6000e+000 117191  1.6238e-002 -2.1686e+002 -1.2005e+000 15649 117087,117165,117139
 3.6000e+000 117317 -7.8159e+001 -2.4524e+002 -1.5589e+001 421 117239,117291,117265
 3.7000e+000 70632 -2.1067e+002 -3.1178e+002 -1.1344e+001 70072 70482,70534,70508
 3.7000e+000 70609 -1.9347e+002 -2.7738e+002 -5.4645e+000 70072 70482,70560,70534
 3.7000e+000 70586 -1.3720e+002 -2.4963e+002 -2.1454e+001 70072 70456,70560,70482
 3.7000e+000 70951 -1.1592e+002 -2.5753e+002  0.0000e+000 69874 70703,70755,70729
 3.7000e+000 70928 -8.4205e+001 -2.4823e+002 -3.6516e+001 69874 70703,70781,70755
 3.7000e+000 70905 -5.0761e+001 -1.0694e+002 -2.0626e+001 69874 70703,70807,70781
 3.7000e+000 70882 -9.4590e+001 -2.1520e+002 -8.2250e+000 69874 70703,70833,70807
 3.7000e+000 70859 -8.8950e+001 -2.2298e+002  1.2752e+001 69874 70677,70833,70703
 3.7000e+000 71199 -8.3300e+001 -1.6659e+002 -9.8990e+000 69698 71222,71052,71026
 3.7000e+000 71176 -7.2855e+001 -1.3831e+002 -3.3707e+000 69698 71294,71222,71026
 3.7000e+000 71153 -7.0486e+001 -1.3507e+002  6.7413e-002 69698 71294,71026,71000
 3.7000e+000 71130 -5.7459e+001 -1.3358e+002 -8.4096e-002 69698 71366,71104,71078
 3.7000e+000 71248 -8.4188e+001 -1.4635e+002 -7.1855e-001 69698 71078,71052,71222
 3.7000e+000 71271 -7.2558e+001 -1.4016e+002  1.9797e+000 69698 71366,71078,71222
 3.7000e+000 71320 -7.8273e+001 -1.3869e+002 -6.0796e+000 69698 70974,71222,71294
 3.7000e+000 71343 -7.8292e+001 -1.3857e+002 -3.1739e+000 69698 70974,71294,71000
 3.7000e+000 71392 -7.8973e+001 -1.3244e+002 -2.4872e+000 69698 70974,71104,71366
 3.7000e+000 71415 -8.0607e+001 -1.3016e+002 -3.4245e+000 69698 70974,71366,71222
 3.7000e+000 71516 -8.0402e+001 -1.4575e+002 -1.3713e+001 69386 71438,71490,71464
 3.7000e+000 71869 -4.8091e+001 -1.7868e+002  1.9060e+001 69188 71644,71748,71670
 3.7000e+000 71846  2.3242e+001 -1.7498e+002  5.5998e+001 69188 71644,71774,71748
 3.7000e+000 71823 -2.1206e+001 -9.3359e+001  1.7178e+001 69188 71670,71748,71722
 3.7000e+000 71800 -9.6549e+001 -2.3645e+002 -1.3704e+001 69188 71670,71722,71696
 3.7000e+000 72019 -1.5973e+002 -3.4356e+002 -2.1862e+001 68990 71918,71970,71944
 3.7000e+000 71996 -1.3291e+002 -4.1073e+002  7.0023e+000 68990 71892,71970,71918
 3.7000e+000 72316 -3.1473e+001 -9.6745e+001 -8.0022e+000 68586 72339,72172,72146
 3.7000e+000 72293 -4.4291e+001 -1.2907e+002 -4.8698e+000 68586 72339,72146,72120
 3.7000e+000 72270 -4.4995e+001 -1.0368e+002  7.0778e+000 68586 72411,72068,72198
 3.7000e+000 72247 -1.6579e+001 -5.3111e+001  3.1253e+001 68586 72042,72198,72068
 3.7000e+000 72224 -4.3819e+001 -1.3736e+002  1.2257e+000 68586 72068,72120,72094
 3.7000e+000 72365 -4.6487e+001 -9.6559e+001  4.8376e+000 68586 72198,72172,72339
 3.7000e+000 72388 -4.9678e+001 -1.0399e+002  5.0597e+000 68586 72411,72198,72339
 3.7000e+000 72437 -3.4070e+001 -1.0253e+002  1.1919e+001 68586 72120,72068,72411
 3.7000e+000 72460 -4.0927e+001 -1.0596e+002  8.8803e+000 68586 72120,72411,72339
 3.7000e+000 72864 -1.9030e+001 -1.1545e+002 -5.7522e+000 68388 72642,72694,72668
 3.7000e+000 72841 -4.7161e+001 -1.4922e+002  1.1188e+001 68388 72616,72694,72642
 3.7000e+000 72818 -4.2155e+001 -1.2187e+002  6.7180e+000 68388 72616,72720,72694
 3.7000e+000 72795 -8.0356e+001 -1.8319e+002  2.2980e+001 68388 72590,72720,72616
 3.7000e+000 72772 -4.1280e+001 -1.5139e+002  5.1080e+001 68388 72590,72746,72720
 3.7000e+000 73321 -7.9160e+001 -8.2558e+001  3.6486e+000 68048 73073,73203,73177
 3.7000e+000 73298 -8.2935e+001 -8.0906e+001  8.4193e+000 68048 73047,73203,73073
 3.7000e+000 73275 -6.6952e+001 -1.5205e+002 -1.9277e+001 68048 73125,73177,73151
 3.7000e+000 73252 -6.5476e+001 -1.3256e+002  6.3685e+000 68048 73073,73177,73125
 3.7000e+000 73229 -5.8183e+001 -1.3481e+002  9.9038e+000 68048 73073,73125,73099
 3.7000e+000 73640 -1.1800e+002 -1.5875e+002 -5.2056e+000 67850 73444,73496,73470
 3.7000e+000 73617 -7.3094e+001 -1.5453e+002 -1.3049e+001 67850 73418,73496,73444
 3.7000e+000 73594 -7.8129e+001 -1.5920e+002 -1.1106e+000 67850 73392,73496,73418
 3.7000e+000 73571 -7.7710e+001 -1.6740e+002 -1.5534e+000 67850 73392,73522,73496
 3.7000e+000 73548 -9.9131e+001 -1.7902e+002  2.6876e+001 67850 73366,73522,73392
 3.7000e+000 73790 -1.0267e+002 -1.8346e+002 -2.9847e+000 67602 73689,73741,73715
 3.7000e+000 73767 -8.0729e+001 -1.2977e+002 -1.7888e+000 67602 73663,73741,73689
 3.7000e+000 74040 -9.8354e+001 -1.9086e+002 -1.4450e+001 67290 73841,73945,73919
 3.7000e+000 74017 -5.7197e+001 -1.8558e+002 -2.8268e+001 67290 73815,73945,73841
 3.7000e+000 73994 -7.8523e+001 -1.2629e+002 -1.4041e+001 67290 73841,73919,73867
 3.7000e+000 73971 -7.8356e+001 -1.2877e+002 -8.5396e+000 67290 73867,73919,73893
 3.7000e+000 74143 -2.4425e+001 -6.8743e+001  1.5884e+001 67092 74065,74117,74091
 3.7000e+000 74415 -6.9368e+001 -1.5734e+002 -1.9150e+001 66894 74190,74294,74216
 3.7000e+000 74392 -1.1144e+001 -1.3461e+002 -1.4668e+001 66894 74190,74320,74294
 3.7000e+000 74369 -4.7314e+001 -1.1312e+002 -1.1857e+001 66894 74216,74294,74242
 3.7000e+000 74346 -5.4355e+001 -1.3801e+002 -8.8842e+000 66894 74242,74294,74268
 3.7000e+000 75023  7.6013e+001 -1.4087e+002 -5.3046e+001 66532 74654,74836,74810
 3.7000e+000 75000 -1.1773e+002 -1.5742e+002 -6.0290e+001 66532 74628,74836,74654
 3.7000e+000 74977 -6.0515e+001 -1.1507e+002 -2.4890e+000 66532 74706,74784,74732
 3.7000e+000 74954 -5.8939e+001 -1.1787e+002 -8.1716e-001 66532 74680,74784,74706
 3.7000e+000 74931 -7.1453e+000 -1.0747e+002  3.2211e+000 66532 74680,74810,74784
 3.7000e+000 74908 -7.6979e+001 -1.4103e+002 -4.6260e+001 66532 74654,74810,74680
 3.7000e+000 74885 -1.0808e+002 -1.8322e+002 -7.5337e+001 66532 74602,74836,74628
 3.7000e+000 74862 -6.0297e+001 -1.4841e+002 -4.4745e+000 66532 74732,74784,74758
 3.7000e+000 75222 -2.1518e+001 -1.5135e+002  2.9799e+000 66242 75072,75150,75124
 3.7000e+000 75199 -1.7663e+001 -1.3052e+002  5.1446e-003 66242 75046,75150,75072
 3.7000e+000 75176 -2.0264e+001 -1.1507e+002 -2.2269e+000 66242 75072,75124,75098
 3.7000e+000 75470 -4.3041e+001 -5.0629e+001 -6.4008e+000 65838 75297,75375,75349
 3.7000e+000 75447 -3.2645e+001 -4.5449e+001 -1.7669e+000 65838 75271,75375,75297
 3.7000e+000 75424 -2.7576e+001 -3.3933e+001  5.2529e+000 65838 75297,75349,75323
 3.7000e+000 75401 -1.9161e+001 -4.5850e+001 -1.4320e+001 65838 75245,75375,75271
 3.7000e+000 75671 -3.3054e+001 -8.7849e+001 -2.2971e+001 65640 75495,75573,75521
 3.7000e+000 75648 -2.2084e+001 -7.7966e+001 -3.3075e+001 65640 75495,75599,75573
 3.7000e+000 75625 -3.7542e+001 -1.0847e+002 -3.6055e+001 65640 75521,75573,75547
 3.7000e+000 75872 -5.9413e+001 -9.6702e+001 -2.5877e+001 65300 75895,75748,75722
 3.7000e+000 75849 -4.2547e+001 -1.0101e+002 -2.9729e+001 65300 75895,75722,75696
 3.7000e+000 75826 -4.9055e+001 -6.1571e+001 -5.3091e+001 65300 75967,75774,75748
 3.7000e+000 75921 -4.9396e+001 -8.0346e+001 -3.0529e+001 65300 75967,75748,75895
 3.7000e+000 75944 -6.5235e+001 -1.2977e+002 -1.5073e+001 65300 75800,75895,75696
 3.7000e+000 75993 -8.7682e+001 -8.9764e+001 -4.0470e+001 65300 75800,75774,75967
 3.7000e+000 76016 -8.5834e+001 -1.0281e+002 -2.1018e+001 65300 75800,75967,75895
 3.7000e+000 76371 -1.0770e+002 -1.4156e+002 -3.4685e+000 64896 76146,76250,76172
 3.7000e+000 76348 -1.0629e+002 -1.3729e+002 -3.0441e+000 64896 76146,76276,76250
 3.7000e+000 76325 -1.2469e+002 -1.4017e+002  3.2344e+000 64896 76172,76250,76198
 3.7000e+000 76302 -1.0687e+001 -8.9085e+001  1.8754e+001 64896 76198,76250,76224
 3.7000e+000 76570 -4.5019e+001 -9.6979e+001 -4.8071e+001 64442 76446,76498,76472
 3.7000e+000 76547 -4.4743e+001 -5.9824e+001 -2.1286e+001 64442 76420,76498,76446
 3.7000e+000 76524 -4.9990e+001 -1.0833e+002 -1.2846e+001 64442 76394,76498,76420
 3.7000e+000 76999 -9.7278e+001 -1.9280e+002  6.5620e+000 63924 77022,76728,76702
 3.7000e+000 76976 -1.0931e+002 -1.6373e+002 -2.6223e+001 63924 77022,76702,76832
 3.7000e+000 76953 -7.0954e+001 -2.0199e+002  2.9800e+001 63924 76728,76806,76754
 3.7000e+000 76930 -1.0631e+002 -1.3031e+002  2.0305e+001 63924 76676,76832,76702
 3.7000e+000 76907 -1.0821e+002 -2.2271e+002  1.8534e+001 63924 76754,76806,76780
 3.7000e+000 76884 -7.1234e+001 -1.4681e+002  1.0335e+001 63924 76676,76858,76832
 3.7000e+000 77048 -9.1219e+001 -2.3350e+002 -2.8903e+000 63924 76806,76728,77022
 3.7000e+000 77071 -1.0916e+002 -2.1210e+002 -3.6775e+001 63924 76806,77022,76832
 3.7000e+000 77449 -4.7100e+001 -1.2513e+002  1.8160e+001 63320 77472,77253,77201
 3.7000e+000 77426 -4.5000e+001 -1.2863e+002  1.3922e+001 63320 77472,77201,77175
 3.7000e+000 77403 -1.9379e+001 -1.2810e+002  1.0961e+001 63320 77175,77305,77279
 3.7000e+000 77380 -1.5307e+001 -7.9900e+001 -1.4423e+001 63320 77201,77253,77227
 3.7000e+000 77357 -1.0514e+001 -1.1760e+002 -1.2821e+001 63320 77175,77331,77305
 3.7000e+000 77498 -5.1893e+001 -1.3298e+002  2.0147e+001 63320 77279,77253,77472
 3.7000e+000 77521 -4.6747e+001 -1.3125e+002  1.4805e+001 63320 77279,77472,77175
 3.7000e+000 77769 -7.7465e+001 -9.7339e+001  1.9279e+001 62816 77570,77622,77596
 3.7000e+000 77746 -8.3483e+001 -1.4624e+002  2.0884e+001 62816 77570,77648,77622
 3.7000e+000 77723 -5.0707e+001 -1.2892e+002  9.5874e+000 62816 77570,77674,77648
 3.7000e+000 77700 -5.6918e+001 -1.3710e+002  6.0556e+000 62816 77544,77674,77570
 3.7000e+000 78149 -6.7323e+001 -1.4495e+002  2.2937e+000 62354 77953,78031,78005
 3.7000e+000 78126 -8.5554e+001 -1.6839e+002 -5.6951e+000 62354 77901,78031,77953
 3.7000e+000 78103 -5.5719e+001 -1.5396e+002  2.0102e+001 62354 77875,78031,77901
 3.7000e+000 78080 -6.6456e+001 -1.9187e+002 -2.7275e+001 62354 77901,77953,77927
 3.7000e+000 78057 -5.4570e+001 -1.1268e+002 -1.7589e+001 62354 77953,78005,77979
 3.7000e+000 78606 -4.5711e+001 -1.1996e+002  1.2246e+000 61950 78384,78436,78410
 3.7000e+000 78583 -5.0712e+001 -1.3048e+002 -1.1667e+001 61950 78358,78436,78384
 3.7000e+000 78560 -6.6591e+001 -1.2174e+002 -1.6743e+001 61950 78358,78488,78436
 3.7000e+000 78537 -6.8892e+001 -1.6805e+002 -2.8853e+001 61950 78436,78488,78462
 3.7000e+000 78514 -6.5911e+001 -9.8655e+001 -4.5564e+000 61950 78332,78488,78358
 3.7000e+000 78756 -1.6223e+001 -1.5775e+002  1.1982e+000 61339 78779,78655,78629
 3.7000e+000 78733 -2.2752e+001 -1.8098e+002  4.6538e+000 61339 78779,78629,78707
 3.7000e+000 78805 -3.7633e+001 -1.8208e+002  1.9215e+001 61339 78851,78779,78681
 3.7000e+000 78828  7.8160e+000 -1.6191e+002  1.3281e+001 61339 78681,78779,78707
 3.7000e+000 78877 -2.1381e+001 -1.4068e+002  6.9907e+000 61339 78655,78779,78851
 3.7000e+000 79206 -3.3049e+001 -5.1408e+001 -1.4623e+001 60892 79229,79007,78981
 3.7000e+000 79183 -2.8113e+001 -3.5686e+001 -1.0396e+001 60892 79229,78981,79111
 3.7000e+000 79160 -2.1133e+001 -5.9246e+001 -1.1340e+001 60892 79301,79033,79007
 3.7000e+000 79137 -1.9324e+001 -2.5512e+001  2.1116e+001 60892 79033,79085,79059
 3.7000e+000 79255 -2.6763e+001 -4.9406e+001 -1.9187e+001 60892 79301,79007,79229
 3.7000e+000 79278 -3.2088e+001 -4.9041e+001 -2.0236e+001 60892 79085,79229,79111
 3.7000e+000 79327 -3.0770e+001 -8.0455e+001 -9.0066e+000 60892 79085,79033,79301
 3.7000e+000 79350 -3.2962e+001 -6.7197e+001 -1.9993e+001 60892 79085,79301,79229
 3.7000e+000 79647 -9.5705e+001 -1.7316e+002 -1.5937e+001 60488 79451,79529,79503
 3.7000e+000 79624 -8.8803e+001 -1.5898e+002 -1.8521e+001 60488 79425,79529,79451
 3.7000e+000 79601 -8.0209e+001 -1.6796e+002 -2.2008e+001 60488 79373,79529,79425
 3.7000e+000 79578 -9.6152e+001 -1.4521e+002 -3.9502e+001 60488 79373,79425,79399
 3.7000e+000 79555 -1.2123e+001 -1.6561e+002  1.2525e+000 60488 79451,79503,79477
 3.7000e+000 79870 -2.2549e+001 -4.3632e+001 -9.2448e+000 60026 79720,79798,79772
 3.7000e+000 79847 -2.5883e+001 -4.8334e+001 -1.1541e+001 60026 79694,79798,79720
 3.7000e+000 79824 -1.2530e+000 -3.5090e+001 -1.0471e+001 60026 79720,79772,79746
 3.7000e+000 80120 -2.5300e+001 -2.2649e+001 -5.0803e+000 59629 79921,80025,79973
 3.7000e+000 80097 -3.1755e+001 -3.7588e+001 -1.0776e+001 59629 79895,80025,79921
 3.7000e+000 80074 -2.7827e+001 -3.4005e+001 -1.3663e+001 59629 79973,80025,79999
 3.7000e+000 80051 -1.1797e+001 -3.6448e+001 -2.8934e+000 59629 79921,79973,79947
 3.7000e+000 80321 -7.9252e+001 -8.7981e+001  1.1456e+001 59125 80344,80171,80145
 3.7000e+000 80298 -4.9274e+001 -1.0203e+002 -7.4695e+000 59125 80344,80145,80249
 3.7000e+000 80275 -3.7978e-001 -1.2296e+002  1.7609e+001 59125 80197,80249,80223
 3.7000e+000 80370 -4.6192e+001 -7.6833e+001  1.2133e+001 59125 80197,80171,80344
 3.7000e+000 80393 -1.8602e+001 -9.2387e+001 -6.6945e+000 59125 80197,80344,80249
 3.7000e+000 80952 -6.9852e+001 -1.7536e+002  3.2107e+001 58557 80975,80632,80606
 3.7000e+000 80929 -1.7857e+001 -8.9209e+001  2.9673e+000 58557 81119,80975,80606
 3.7000e+000 80906 -6.4912e+001 -1.4571e+002 -1.3686e+001 58557 81047,80684,80632
 3.7000e+000 80883  1.3119e+001 -7.7044e+001 -5.5775e+000 58557 81119,80606,80580
 3.7000e+000 80860 -2.2019e+001 -2.0447e+002  4.4104e+000 58557 81191,80736,80710
 3.7000e+000 80837 -4.0463e+001 -1.7621e+002 -3.0901e+001 58557 80736,80788,80762
 3.7000e+000 80814 -7.6276e+001 -1.1304e+002 -6.8851e+000 58557 80632,80684,80658
 3.7000e+000 81001 -3.4216e+001 -1.6929e+002  3.6121e+000 58557 81047,80632,80975
 3.7000e+000 81024  6.3113e+000 -1.6117e+002  1.6859e+001 58557 81191,80710,80975
 3.7000e+000 81073 -3.6808e+001 -1.1945e+002  6.0477e+000 58557 80710,80684,81047
 3.7000e+000 81096  6.0692e+000 -1.3965e+002  2.2218e+001 58557 80710,81047,80975
 3.7000e+000 81145 -1.4358e+001 -9.3270e+001  2.1107e+001 58557 80788,80975,81119
 3.7000e+000 81168 -7.8401e+000 -8.9794e+001  1.2706e+001 58557 80788,81119,80580
 3.7000e+000 81217 -4.2544e+001 -1.6087e+002 -1.1156e+001 58557 80788,80736,81191
 3.7000e+000 81240 -3.2252e+001 -1.4733e+002 -6.3106e+000 58557 80788,81191,80975
 3.7000e+000 81537 -1.5717e+000 -5.1896e+001  1.9722e+000 57881 81560,81341,81289
 3.7000e+000 81514 -1.7486e+001 -5.8772e+001  2.3211e+000 57881 81560,81289,81263
 3.7000e+000 81491 -4.2288e+001 -4.6648e+001 -5.8130e+000 57881 81632,81419,81367
 3.7000e+000 81468 -5.0463e+001 -7.6804e+001 -4.0650e+001 57881 81367,81419,81393
 3.7000e+000 81445 -5.4313e+000 -4.1193e+001  1.3938e+000 57881 81289,81341,81315
 3.7000e+000 81586 -9.7629e+000 -3.9345e+001 -1.8064e+001 57881 81367,81341,81560
 3.7000e+000 81609 -3.6321e+001 -5.4058e+001 -1.1395e+001 57881 81632,81367,81560
 3.7000e+000 81658 -2.7302e+001 -4.9881e+001  8.2652e-001 57881 81263,81419,81632
 3.7000e+000 81681 -1.4912e+001 -5.1552e+001 -7.4076e+000 57881 81263,81632,81560
 3.7000e+000 81929 -4.5977e+001 -7.7290e+001  1.2524e+001 57477 81704,81808,81782
 3.7000e+000 81906 -3.7121e+001 -7.2802e+001  1.0496e+001 57477 81704,81834,81808
 3.7000e+000 81883 -3.3844e+001 -6.6275e+001  2.8238e+000 57477 81704,81782,81730
 3.7000e+000 81860 -2.4125e+001 -6.2960e+001  7.1855e-001 57477 81730,81782,81756
 3.7000e+000 82488 -4.6886e+001 -1.9455e+002  1.4533e+001 56966 82583,82511,82194
 3.7000e+000 82465 -6.0830e+001 -1.7350e+002  2.1420e+001 56966 82511,82116,82324
 3.7000e+000 82442 -6.9163e+001 -2.1050e+002  2.1789e+001 56966 82583,82194,82168
 3.7000e+000 82419 -5.3101e+000 -1.5710e+002  2.2659e+001 56966 82194,82246,82220
 3.7000e+000 82396 -5.5774e+001 -1.9000e+002 -7.9773e+000 56966 82194,82298,82246
 3.7000e+000 82373 -3.4931e+001 -2.0114e+002 -3.2324e+001 56966 82246,82298,82272
 3.7000e+000 82350 -1.0456e+002 -2.1755e+002  1.4628e+001 56966 82116,82168,82142
 3.7000e+000 82537 -3.3698e+001 -1.7512e+002  6.9272e+000 56966 82298,82194,82511
 3.7000e+000 82560 -3.8217e+001 -1.3361e+002  3.2389e+001 56966 82298,82511,82324
 3.7000e+000 82609 -7.3598e+001 -1.7370e+002  3.7112e+000 56966 82116,82511,82583
 3.7000e+000 82632 -8.4868e+001 -1.8109e+002  7.2262e+000 56966 82116,82583,82168
 3.7000e+000 83236 -6.8269e+000 -1.1901e+002 -2.4159e+001 56304 82893,82945,82919
 3.7000e+000 83213 -3.7165e+001 -1.5108e+002  8.3941e+000 56304 83259,82945,82893
 3.7000e+000 83190 -2.9385e+001 -1.5229e+002  7.3572e+000 56304 83259,82893,83049
 3.7000e+000 83167 -5.1166e+001 -1.7472e+002  2.3759e+001 56304 82971,83049,83023
 3.7000e+000 83144 -4.9088e+001 -1.9506e+002  2.5846e+000 56304 82815,83049,82893
 3.7000e+000 83121 -6.4809e+001 -2.2293e+002  8.8441e+000 56304 82815,82893,82867
 3.7000e+000 83098 -5.0272e+001 -1.8178e+002  2.2461e+001 56304 82971,83023,82997
 3.7000e+000 83075 -1.0376e+002 -2.3403e+002 -2.2272e+001 56304 82815,82867,82841
 3.7000e+000 83285 -4.6712e+001 -1.5317e+002  1.5022e+001 56304 82971,82945,83259
 3.7000e+000 83308 -3.6152e+001 -1.5003e+002  1.2223e+001 56304 82971,83259,83049
 3.7000e+000 83556 -5.9327e+001 -1.4040e+002  5.0113e+000 55964 83357,83461,83435
 3.7000e+000 83533 -5.3609e+001 -1.0575e+002  2.3489e+001 55964 83331,83461,83357
 3.7000e+000 83510 -3.9559e+001 -1.5749e+002  2.6314e+001 55964 83357,83435,83383
 3.7000e+000 83487 -3.3176e+001 -2.0111e+002  6.9913e+000 55964 83383,83435,83409
 3.7000e+000 83706 -6.5263e+001 -1.5264e+002  7.9811e+000 55503 83579,83631,83605
 3.7000e+000 83683 -6.8804e+001 -1.5735e+002  9.7164e+000 55503 83579,83657,83631
 3.7000e+000 83907 -4.0123e+001 -1.1315e+002  1.4671e+000 55156 83757,83835,83809
 3.7000e+000 83884 -3.9389e+001 -8.8737e+001  4.2342e+001 55156 83731,83835,83757
 3.7000e+000 83861 -4.8508e+001 -1.0190e+002  3.1617e+000 55156 83757,83809,83783
 3.7000e+000 84240 -5.4871e+001 -1.2734e+002  7.3686e+000 54652 84093,84145,84119
 3.7000e+000 84217 -3.8626e+001 -1.0144e+002  3.7978e-001 54652 84041,84145,84093
 3.7000e+000 84194 -2.1632e+001 -1.1406e+002  2.5192e+001 54652 84015,84145,84041
 3.7000e+000 84171 -3.8120e+000 -8.5576e+001  5.4866e+000 54652 84041,84093,84067
 3.7000e+000 84618 -4.4332e+001 -1.2115e+002  6.1377e+000 53926 84396,84500,84474
 3.7000e+000 84595 -5.9265e+001 -1.5130e+002  4.4694e-002 53926 84344,84500,84396
 3.7000e+000 84572 -4.5670e+001 -1.1775e+002  4.7552e-001 53926 84344,84396,84370
 3.7000e+000 84549 -5.3444e+001 -1.2393e+002  3.3846e+000 53926 84396,84474,84422
 3.7000e+000 84526 -7.7961e+001 -1.2368e+002 -1.6728e+000 53926 84422,84474,84448
 3.7000e+000 85350 -7.4402e+001 -1.6454e+002 -1.3533e+001 53586 85373,84880,85088
 3.7000e+000 85327 -7.0597e+001 -1.9683e+002  6.4598e-001 53586 84880,85114,85088
 3.7000e+000 85304 -9.0920e+001 -1.5830e+002  2.4135e+001 53586 85373,85088,85062
 3.7000e+000 85281 -6.5277e+001 -8.3490e+001 -2.5789e+001 53586 85010,85062,85036
 3.7000e+000 85258 -5.2407e+001 -1.1299e+002 -6.7753e+000 53586 85445,85010,84958
 3.7000e+000 85235 -3.7259e+001 -1.0222e+002  4.2606e+000 53586 85445,84958,84906
 3.7000e+000 85212 -2.4297e+001 -9.5634e+001 -1.7830e+001 53586 84958,85010,84984
 3.7000e+000 85189 -3.1003e+001 -1.7150e+002  1.4968e+001 53586 84906,84958,84932
 3.7000e+000 85166 -6.6491e+001 -1.2324e+002 -4.0915e+001 53586 84880,85140,85114
 3.7000e+000 85399 -5.5176e+001 -1.1810e+002 -1.3732e+001 53586 84906,84880,85373
 3.7000e+000 85422 -6.5069e+001 -1.1705e+002  1.0217e+001 53586 85517,85373,85062
 3.7000e+000 85471 -3.4748e+001 -7.1329e+001 -1.7247e+001 53586 85062,85010,85445
 3.7000e+000 85494 -5.9346e+001 -9.4527e+001  5.7321e+000 53586 85517,85062,85445
 3.7000e+000 85543 -5.3266e+001 -1.5139e+002  9.7798e+000 53586 84906,85373,85517
 3.7000e+000 85566 -5.2147e+001 -1.3369e+002  8.4704e+000 53586 84906,85517,85445
 3.7000e+000 86072 -2.5789e+001 -1.4909e+002  1.1020e+001 53182 86095,85853,85775
 3.7000e+000 86049 -5.0324e+001 -1.1199e+002  2.1753e+001 53182 86095,85775,85931
 3.7000e+000 86026 -4.2214e+001 -1.4559e+002  6.0085e+001 53182 86167,85879,85853
 3.7000e+000 86003 -6.0615e+000 -1.4960e+002 -1.7206e+001 53182 85775,85827,85801
 3.7000e+000 85980 -5.4477e+001 -1.7484e+002 -2.7073e+001 53182 85775,85853,85827
 3.7000e+000 85957 -6.5461e+001 -1.1899e+002  2.3532e+001 53182 85749,85931,85775
 3.7000e+000 86121 -2.9860e+001 -1.2256e+002  2.3438e+001 53182 86167,85853,86095
 3.7000e+000 86144 -9.4270e+001 -1.5156e+002  4.9700e+000 53182 85905,86095,85931
 3.7000e+000 86193 -5.0173e+001 -1.6732e+002  6.2584e+001 53182 85905,85879,86167
 3.7000e+000 86216 -5.9132e+001 -1.9323e+002  2.5089e+001 53182 85905,86167,86095
 3.7000e+000 86673 -1.9490e+001 -1.3236e+002 -3.4590e+001 52778 86477,86529,86503
 3.7000e+000 86650 -3.8156e+001 -1.3266e+002 -1.1265e+001 52778 86425,86529,86477
 3.7000e+000 86627 -1.2320e+001 -1.0703e+002 -2.6031e+001 52778 86425,86477,86451
 3.7000e+000 86604 -6.9335e+001 -1.1411e+002 -1.4894e+001 52778 86399,86529,86425
 3.7000e+000 86581 -1.1344e+002 -1.4096e+002  2.1587e+000 52778 86399,86555,86529
 3.7000e+000 87258 -4.7636e+001 -2.6055e+002 -4.7353e+001 52238 87281,86987,86961
 3.7000e+000 87235 -3.3251e+001 -2.0095e+002  1.4283e+001 52238 87281,86961,87117
 3.7000e+000 87212 -3.1429e+001 -1.1476e+002  1.2531e+001 52238 86935,87117,86961
 3.7000e+000 87189 -3.2638e+000 -1.3141e+002  1.3059e+001 52238 87065,87117,87091
 3.7000e+000 87166 -5.9802e+001 -1.1306e+002 -3.6963e+001 52238 86987,87065,87039
 3.7000e+000 87143 -6.1586e+001 -8.1908e+001 -6.2979e+001 52238 86987,87039,87013
 3.7000e+000 87307 -6.1647e-001 -1.4998e+002 -4.1351e+001 52238 87065,86987,87281
 3.7000e+000 87330 -1.8444e+001 -1.6373e+002  2.1530e+001 52238 87065,87281,87117
 3.7000e+000 87610 -4.4749e+001 -1.2341e+002  1.5381e+000 51834 87434,87512,87460
 3.7000e+000 87587 -6.3810e+001 -1.2108e+002  2.4767e+001 51834 87434,87538,87512
 3.7000e+000 87564 -3.1837e+001 -4.0386e+001  8.9608e+000 51834 87633,87460,87512
 3.7000e+000 87659 -2.6684e+000 -2.7892e+001  1.0225e+001 51834 87486,87460,87633
 3.7000e+000 88187 -4.4443e+001 -1.5441e+002 -2.5330e+000 51266 87864,87942,87890
 3.7000e+000 88164 -3.5604e+001 -1.1221e+002 -3.0608e-001 51266 87864,88020,87942
 3.7000e+000 88141 -2.9204e+001 -1.0376e+002  1.1519e+001 51266 87942,88020,87968
 3.7000e+000 88118 -3.9347e+001 -1.7717e+002 -1.5173e+001 51266 87864,88046,88020
 3.7000e+000 88095 -2.3985e+001 -1.0176e+002  1.3509e+001 51266 87968,88020,87994
 3.7000e+000 88072 -1.0923e+001 -1.6644e+002 -3.3031e+001 51266 87890,87942,87916
 3.7000e+000 88644 -1.0449e+002 -1.0704e+002  8.4072e+000 50754 88370,88500,88396
 3.7000e+000 88621 -9.7891e+001 -1.6650e+002  2.0721e+001 50754 88370,88526,88500
 3.7000e+000 88598 -6.9398e+001 -1.5764e+002 -8.2974e+001 50754 88396,88500,88422
 3.7000e+000 88575 -9.5042e+001 -2.3385e+002 -8.1217e+001 50754 88422,88500,88474
 3.7000e+000 88552 -6.6063e+001 -1.5858e+002  5.7991e+001 50754 88422,88474,88448
 3.7000e+000 88914 -2.0706e+001 -7.3583e+001  8.2232e+000 50442 88715,88793,88741
 3.7000e+000 88891 -1.0324e+001 -8.3006e+001  7.6817e+000 50442 88715,88819,88793
 3.7000e+000 88868 -7.4828e+000 -9.0699e+001  4.4166e+000 50442 88689,88819,88715
 3.7000e+000 88845 -4.4503e+001 -7.6997e+001  2.2823e+001 50442 88741,88793,88767
 3.7000e+000 89294 -1.1195e+001 -1.0874e+002  1.2972e+001 49938 89317,89046,89020
 3.7000e+000 89271 -8.9103e+000 -1.1222e+002  1.1607e+001 49938 89317,89020,89150
 3.7000e+000 89248 -2.2567e+001 -9.8809e+001  1.1674e+001 49938 89072,89150,89098
 3.7000e+000 89225 -9.1493e+000 -1.2856e+002  3.0996e+001 49938 89020,89176,89150
 3.7000e+000 89202 -2.5340e+001 -8.2305e+001  1.7148e+001 49938 89098,89150,89124
 3.7000e+000 89343  1.1204e+000 -8.4430e+001  1.8207e+001 49938 89072,89046,89317
 3.7000e+000 89366 -1.0768e+001 -1.0969e+002  1.3530e+001 49938 89072,89317,89150
 3.7000e+000 89823 -5.0745e+000 -6.9622e+001  1.2279e+000 49384 89601,89705,89679
 3.7000e+000 89800 -1.8180e+001 -5.9559e+001 -1.9165e+001 49384 89549,89705,89601
 3.7000e+000 89777 -9.6800e+000 -1.0686e+002 -1.7260e+001 49384 89549,89601,89575
 3.7000e+000 89754 -4.6525e+001 -5.7603e+001  5.1406e+000 49384 89601,89679,89627
 3.7000e+000 89731 -6.0482e+001 -7.8699e+001  1.8471e+001 49384 89627,89679,89653
 3.7000e+000 90329 -8.3908e+000 -5.7388e+001 -2.7936e+000 48894 90058,90110,90084
 3.7000e+000 90306 -1.8633e+001 -6.2101e+001 -1.4845e+001 48894 90058,90162,90110
 3.7000e+000 90283 -2.0918e+001 -7.0481e+001 -1.6404e+001 48894 90032,90162,90058
 3.7000e+000 90260 -1.1651e+001 -7.0338e+001 -7.5908e+000 48894 90006,90162,90032
 3.7000e+000 90237 -4.5782e+001 -1.1995e+002 -4.9024e+000 48894 90110,90162,90136
 3.7000e+000 90214 -1.5784e+001 -6.6293e+001 -1.5345e+001 48894 90006,90188,90162
 3.7000e+000 90884  2.3467e+000 -5.8557e+001 -1.0886e+001 48490 90564,90642,90616
 3.7000e+000 90861 -1.9882e+001 -6.0134e+001 -1.1829e+001 48490 90564,90694,90642
 3.7000e+000 90838 -2.5926e+000 -5.0881e+001 -8.1066e+000 48490 90538,90694,90564
 3.7000e+000 90815 -1.2620e+001 -5.0800e+001 -8.9453e+000 48490 90538,90720,90694
 3.7000e+000 90792  1.1836e+001 -2.1662e+001  1.5107e+000 48490 90564,90616,90590
 3.7000e+000 90769 -3.2401e+001 -1.1126e+002 -3.7859e+001 48490 90642,90694,90668
 3.7000e+000 90746 -3.4388e+000 -3.9277e+001  6.5531e+000 48490 90512,90720,90538
 3.7000e+000 91034 -6.9916e+000 -5.3583e+001  2.0922e+001 48086 91057,90959,90933
 3.7000e+000 91011 -8.8711e+000 -4.0575e+001  1.1714e+001 48086 91129,91057,90933
 3.7000e+000 91083  1.4140e+001 -4.6118e+001  1.9294e+001 48086 90985,90959,91057
 3.7000e+000 91106 -4.4890e+000 -4.3238e+001  1.0530e+001 48086 90985,91057,90907
 3.7000e+000 91155 -1.5782e+001 -4.3354e+001  1.1314e+001 48086 90907,91057,91129
 3.7000e+000 91791 -2.3457e+001 -5.5583e+001  5.4785e+001 47518 92030,91814,91523
 3.7000e+000 91768 -6.5276e+001 -1.0499e+002  2.8053e+001 47518 91958,91814,91471
 3.7000e+000 91745 -3.3552e+001 -1.4218e+002  8.4280e+000 47518 91886,91575,91523
 3.7000e+000 91722 -7.6284e+001 -9.6035e+001 -4.1946e+000 47518 91958,91471,91419
 3.7000e+000 91699 -8.4107e+000 -6.7335e+001  6.1341e+001 47518 92030,91523,91497
 3.7000e+000 91676 -6.9410e+001 -9.1964e+001  9.3169e+000 47518 91523,91575,91549
 3.7000e+000 91653 -6.3622e+001 -5.9674e+001 -1.0496e+001 47518 91419,91471,91445
 3.7000e+000 91840 -1.6363e+001 -1.1416e+002  4.9583e+001 47518 91886,91523,91814
 3.7000e+000 91863 -2.1461e+001 -9.2077e+001  2.6900e+001 47518 91601,91814,91627
 3.7000e+000 91912 -7.3399e+001 -1.6337e+002 -2.9726e+001 47518 91601,91575,91886
 3.7000e+000 91935 -7.3059e+001 -1.1174e+002  1.3308e+001 47518 91601,91886,91814
 3.7000e+000 91984 -2.2974e+001 -9.8083e+001  2.6353e+001 47518 91627,91814,91958
 3.7000e+000 92007 -4.6192e+001 -9.0895e+001  2.2414e-001 47518 91627,91958,91419
 3.7000e+000 92056 -1.6478e+001 -4.3282e+001  6.5934e+001 47518 91471,91814,92030
 3.7000e+000 92079 -3.7937e+000 -5.0487e+001  7.3688e+001 47518 91471,92030,91497
 3.7000e+000 92229  8.2280e-001 -4.5991e-001 -6.7496e-001 47128 92252,92128,92102
 3.7000e+000 92206 -1.7187e-001 -8.6032e-001  1.3886e-001 47128 92324,92252,92102
 3.7000e+000 92278  2.0554e-001 -3.0745e-001  8.9705e-001 47128 92454,92252,92154
 3.7000e+000 92301 -1.8293e+000 -3.5547e+000  1.8236e+000 47128 92154,92252,92180
 3.7000e+000 92350 -1.7354e+000 -3.7228e+000 -7.1692e-001 47128 92180,92252,92324
 3.7000e+000 92480 -1.9208e-001 -4.8482e-001  7.8172e-001 47128 92128,92252,92454
 3.7000e+000 93340 -3.3131e+001 -8.8605e+001 -5.1505e+000 46838 93363,92977,92873
 3.7000e+000 93317 -2.7485e+001 -8.6270e+001 -4.9432e+000 46838 93507,93363,92873
 3.7000e+000 93294 -1.1734e+001 -7.2302e+001  1.3100e+001 46838 93435,93003,92977
 3.7000e+000 93271 -5.4352e+001 -8.9048e+001 -4.6756e+000 46838 93507,92873,92847
 3.7000e+000 93248 -1.2437e+001 -8.9860e+001  5.6811e+000 46838 93579,93029,93003
 3.7000e+000 93225 -4.3395e+001 -1.3903e+002  2.3056e+001 46838 92873,92951,92925
 3.7000e+000 93202 -4.8184e+001 -1.0454e+002  1.5298e+000 46838 92873,92977,92951
 3.7000e+000 93179 -5.8661e+000 -8.9080e+001  4.0932e+000 46838 93055,93107,93081
 3.7000e+000 93156 -1.5292e+001 -5.4878e+001  1.1304e+001 46838 92821,93107,92847
 3.7000e+000 93133 -3.2227e+001 -8.4036e+001  1.6317e+001 46838 92873,92925,92899
 3.7000e+000 93389 -2.0911e+001 -8.5864e+001  6.7986e+000 46838 93435,92977,93363
 3.7000e+000 93412 -1.2244e+000 -9.4142e+001  3.4160e+000 46838 93055,93363,93107
 3.7000e+000 93461 -1.2385e+001 -8.9936e+001  5.7212e+000 46838 93579,93003,93435
 3.7000e+000 93484 -1.1806e+001 -9.8538e+001  4.4937e+000 46838 93055,93435,93363
 3.7000e+000 93533 -8.1001e+000 -8.9047e+001 -1.0398e+001 46838 93107,93363,93507
 3.7000e+000 93556 -1.7947e+001 -7.9435e+001 -1.0093e+001 46838 93107,93507,92847
 3.7000e+000 93605 -1.2879e+001 -9.0148e+001  5.9809e+000 46838 93055,93029,93579
 3.7000e+000 93628 -1.2837e+001 -9.0217e+001  6.0175e+000 46838 93055,93579,93435
 3.7000e+000 93979 -4.8653e+001 -3.5170e+001 -2.8977e-001 46476 93780,93884,93858
 3.7000e+000 93956 -3.8194e+001 -4.9321e+001  8.3922e+000 46476 93754,93884,93780
 3.7000e+000 93933 -1.1911e+001  1.3154e+001 -6.3484e+000 46476 93806,93858,93832
 3.7000e+000 93910 -2.2800e+001 -2.2556e+001 -4.7135e+000 46476 93780,93858,93806
 3.7000e+000 94515 -3.3950e+000 -7.5966e+001 -2.4418e+000 46072 94345,94397,94371
 3.7000e+000 94492 -7.5969e+001 -1.1129e+002  2.0753e+001 46072 94267,94397,94345
 3.7000e+000 94469 -5.9319e+001 -1.1070e+002  1.0619e+001 46072 94241,94397,94267
 3.7000e+000 94446 -4.9190e+001 -5.3772e+001  2.7892e+001 46072 94293,94345,94319
 3.7000e+000 94423 -5.4933e+001 -6.7598e+001  3.0162e+001 46072 94267,94345,94293
 3.7000e+000 95149 -5.9347e+001 -1.4051e+002  5.8848e+000 45346 94803,94881,94855
 3.7000e+000 95126 -5.9801e+001 -1.2062e+002 -4.5492e+000 45346 94803,94959,94881
 3.7000e+000 95103 -4.8207e+001 -1.2677e+002 -2.1841e+001 45346 95172,94933,94907
 3.7000e+000 95080 -6.9953e+001 -2.2886e+002 -1.3127e+001 45346 95172,94907,94881
 3.7000e+000 95057 -6.7077e+001 -1.1643e+002 -2.0827e+000 45346 94803,94985,94959
 3.7000e+000 95034 -4.6205e+001 -1.5982e+002 -6.1787e+000 45346 94803,94855,94829
 3.7000e+000 95011 -7.0127e+001 -1.1920e+002  2.7803e+000 45346 94777,94985,94803
 3.7000e+000 95198 -7.6240e+001 -7.8123e+001 -1.0445e+001 45346 94959,94933,95172
 3.7000e+000 95221 -6.5744e+001 -1.3609e+002 -9.4663e+000 45346 94959,95172,94881
 3.7000e+000 95776 -2.5220e+001 -1.4272e+002 -2.2454e+000 44720 95799,95560,95534
 3.7000e+000 95753 -8.9912e+000 -8.6448e+001 -1.5093e+001 44720 95799,95534,95482
 3.7000e+000 95730  1.0039e+000 -1.5605e+002 -1.5075e+001 44720 95943,95871,95430
 3.7000e+000 95707 -4.3873e+000 -1.2000e+002 -7.1340e+000 44720 95943,95430,95404
 3.7000e+000 95684 -6.2102e+001 -1.0268e+002 -4.3397e+001 44720 95430,95482,95456
 3.7000e+000 95661 -3.2856e+001 -7.8702e+001  2.6804e+001 44720 95482,95534,95508
 3.7000e+000 95638  3.1117e+000 -6.3380e+001 -2.2517e+001 44720 95404,95612,95586
 3.7000e+000 95825 -9.6556e+000 -1.9677e+002 -2.3870e+001 44720 95586,95560,95799
 3.7000e+000 95848  6.8237e+000 -1.4190e+002 -1.5283e+001 44720 95871,95586,95799
 3.7000e+000 95897 -3.8953e+000 -1.6423e+002 -2.6536e+001 44720 95482,95430,95871
 3.7000e+000 95920 -2.1701e+000 -1.4807e+002 -1.0437e+001 44720 95482,95871,95799
 3.7000e+000 95969  9.1793e+000 -1.0594e+002 -1.7008e+001 44720 95586,95871,95943
 3.7000e+000 95992 -1.7391e+000 -8.2193e+001 -2.4010e+000 44720 95586,95943,95404
 3.7000e+000 96449 -4.5277e+001 -1.5311e+002 -1.7314e+000 44202 96544,96472,96227
 3.7000e+000 96426 -4.2709e+001 -1.3264e+002  2.0188e+001 44202 96472,96175,96331
 3.7000e+000 96403 -2.8901e+001 -1.6923e+002  1.8903e+000 44202 96544,96227,96201
 3.7000e+000 96380 -6.1515e+001 -2.4913e+002 -6.4283e+001 44202 96253,96305,96279
 3.7000e+000 96357 -1.0073e+002 -1.6228e+002 -3.0992e+001 44202 96227,96305,96253
 3.7000e+000 96498 -3.5578e+001 -1.2236e+002  5.4021e-002 44202 96305,96227,96472
 3.7000e+000 96521 -3.0969e+001 -1.0848e+002  2.5751e+001 44202 96305,96472,96331
 3.7000e+000 96570 -3.4399e+001 -1.2238e+002  6.0727e+000 44202 96175,96472,96544
 3.7000e+000 96593 -2.7644e+001 -1.5037e+002  7.8025e+000 44202 96175,96544,96201
 3.7000e+000 96971 -1.0424e+001 -6.5245e+001 -2.3452e+001 43754 96994,96749,96697
 3.7000e+000 96948  6.4140e+000 -7.8172e+001 -1.3106e+001 43754 96994,96697,96853
 3.7000e+000 96925 -2.9127e+001 -4.7278e+001 -1.1779e+001 43754 96697,96749,96723
 3.7000e+000 96902 -1.8553e+000 -7.3750e+001  1.2672e+001 43754 96775,96853,96827
 3.7000e+000 96879  1.4429e+001 -1.1367e+002  3.4423e+000 43754 96775,96827,96801
 3.7000e+000 97020  8.0031e-001 -4.6837e+001 -1.5526e+001 43754 96775,96749,96994
 3.7000e+000 97043  1.6330e+001 -6.7373e+001 -7.0031e+000 43754 96775,96994,96853
 3.7000e+000 97291 -1.9314e+001 -1.2925e+002 -1.1687e+001 43364 97314,97144,97118
 3.7000e+000 97268 -2.4256e+001 -9.8772e+001  1.9343e+000 43364 97314,97118,97092
 3.7000e+000 97245 -6.3845e+000 -8.2198e+001  2.5662e+001 43364 97386,97196,97170
 3.7000e+000 97222 -2.1014e+001 -6.2716e+001  2.8749e+001 43364 97066,97196,97092
 3.7000e+000 97340 -2.0237e+001 -8.1110e+001 -1.3610e+001 43364 97170,97144,97314
 3.7000e+000 97363 -1.4755e+001 -6.9346e+001  1.5004e+001 43364 97386,97170,97314
 3.7000e+000 97412 -1.3450e+001 -9.6165e+001  1.4414e+001 43364 97092,97196,97386
 3.7000e+000 97435 -3.0669e+001 -9.5895e+001  1.9749e+000 43364 97092,97386,97314
 3.7000e+000 97788  3.0423e+000 -7.9765e+001  1.1761e+001 42960 97563,97667,97589
 3.7000e+000 97765 -3.4586e+001 -8.4158e+001  1.7363e+001 42960 97563,97693,97667
 3.7000e+000 97742  1.4947e+001  1.3326e+001  3.6439e+000 42960 97589,97641,97615
 3.7000e+000 97719 -3.3295e+000 -8.9323e+001  6.4522e+000 42960 97589,97667,97641
 3.7000e+000 98215  2.9107e+000 -5.8063e+001 -5.7711e+000 42563 97918,98074,98048
 3.7000e+000 98192 -1.7631e+000 -3.8770e+001  1.4103e+001 42563 97892,98074,97918
 3.7000e+000 98169 -7.1236e+000 -1.1517e+002  6.2684e-001 42563 98238,97944,97918
 3.7000e+000 98146 -8.2963e+000 -1.1681e+002  1.3323e+001 42563 98238,97918,98048
 3.7000e+000 98123 -1.9836e+001 -7.4162e+001  3.4450e+000 42563 97944,98022,97996
 3.7000e+000 98100 -3.6982e+001 -1.0831e+002  1.2763e+001 42563 97944,97996,97970
 3.7000e+000 98264 -2.0201e+001 -1.2007e+002  1.4303e+000 42563 98022,97944,98238
 3.7000e+000 98287 -1.8915e+001 -1.2131e+002  1.2733e+001 42563 98022,98238,98048
 3.7000e+000 98616 -3.4380e+001 -7.6652e+001 -9.0109e+000 42251 98443,98521,98469
 3.7000e+000 98593 -4.7467e+001 -7.3061e+001 -1.1646e-001 42251 98417,98521,98443
 3.7000e+000 98570 -5.9410e+001 -1.0329e+002 -2.0699e+001 42251 98391,98521,98417
 3.7000e+000 98547 -1.8176e+001 -6.6290e+001 -1.5592e+001 42251 98469,98521,98495
 3.7000e+000 98886 -6.0677e-001 -8.8486e+001  5.3557e+000 41847 98661,98765,98687
 3.7000e+000 98863 -1.0094e+001 -5.0100e+001 -2.4667e+001 41847 98661,98791,98765
 3.7000e+000 98840 -8.9459e+000 -5.4899e+001  2.1282e+000 41847 98687,98765,98739
 3.7000e+000 98817  1.4692e+000 -4.4545e+001 -7.0227e+000 41847 98687,98739,98713
 3.7000e+000 99394 -1.9215e+001 -8.6848e+001 -5.7725e+000 41236 99417,99149,99123
 3.7000e+000 99371 -7.9952e+001 -1.0738e+002 -7.5786e+000 41236 99417,99123,99097
 3.7000e+000 99348 -5.9182e+001 -7.4636e+001 -4.2634e+001 41236 99489,99201,99149
 3.7000e+000 99325 -1.1292e+001 -4.3738e+001 -2.2604e+001 41236 99149,99201,99175
 3.7000e+000 99302 -3.1110e+001 -1.4732e+002 -3.1363e+000 41236 99097,99253,99227
 3.7000e+000 99279 -9.8455e+001 -2.1869e+002 -3.9029e+001 41236 99071,99253,99097
 3.7000e+000 99443 -3.4754e+001 -8.6073e+001 -3.9695e+001 41236 99489,99149,99417
 3.7000e+000 99466 -5.8348e+001 -1.0806e+002 -2.9872e+001 41236 99227,99417,99097
 3.7000e+000 99515 -7.1596e+001 -8.5781e+001 -3.7211e+001 41236 99227,99201,99489
 3.7000e+000 99538 -6.1646e+001 -1.0836e+002 -2.9664e+001 41236 99227,99489,99417
 3.7000e+000 100044  4.0999e+000 -2.5293e+002  2.2841e+000 40732 99721,99773,99747
 3.7000e+000 100021 -1.6696e+001 -2.3360e+002 -9.6520e+000 40732 99721,99799,99773
 3.7000e+000 99998 -2.4120e+001 -1.3405e+002 -1.3379e+000 40732 99721,99903,99799
 3.7000e+000 99975 -3.2677e+001 -1.1786e+002 -1.9498e+000 40732 100067,99877,99851
 3.7000e+000 99952 -3.4927e+001 -9.5266e+001  1.8999e+000 40732 100067,99851,99799
 3.7000e+000 99929 -2.7545e+001 -8.4783e+001 -8.2293e+000 40732 99799,99851,99825
 3.7000e+000 100093 -3.1853e+001 -1.3609e+002 -1.0033e+001 40732 99903,99877,100067
 3.7000e+000 100116 -3.2152e+001 -1.0870e+002 -7.9066e+000 40732 99903,100067,99799
 3.7000e+000 100622 -1.0022e+001 -9.8359e+001 -2.3432e+000 40278 100645,100455,100429
 3.7000e+000 100599 -4.0012e+001 -7.5734e+001 -9.1636e+000 40278 100717,100645,100429
 3.7000e+000 100576 -4.0352e+001 -7.5953e+001  1.2651e+001 40278 100717,100429,100377
 3.7000e+000 100553 -2.6218e+001 -1.3832e+002 -1.8974e+000 40278 100789,100325,100481
 3.7000e+000 100530 -3.9225e+001 -8.1412e+001  1.7653e+001 40278 100299,100481,100325
 3.7000e+000 100507 -4.1394e+001 -1.0373e+002 -7.2801e-001 40278 100377,100429,100403
 3.7000e+000 100671 -1.7021e+001 -1.1591e+002 -8.6141e+000 40278 100481,100455,100645
 3.7000e+000 100694 -2.1671e+001 -1.1657e+002 -3.0249e+000 40278 100789,100481,100645
 3.7000e+000 100743 -2.7155e+001 -3.9662e+001 -1.8566e+001 40278 100351,100645,100717
 3.7000e+000 100766 -3.7464e+001 -4.8485e+001  5.2200e+000 40278 100351,100717,100377
 3.7000e+000 100815 -4.0583e+001 -1.4226e+002 -4.0223e+001 40278 100351,100325,100789
 3.7000e+000 100838 -2.1703e+001 -9.1994e+001 -3.9103e+001 40278 100351,100789,100645
 3.7000e+000 101265 -8.2967e+000 -1.1554e+002  1.3400e+001 39824 101288,101046,100994
 3.7000e+000 101242 -2.1729e+001 -1.1143e+002  5.5843e+000 39824 101288,100994,100968
 3.7000e+000 101219 -2.1241e+001 -1.2407e+002 -3.1947e+000 39824 100942,101124,100968
 3.7000e+000 101196 -3.6704e+001 -2.3216e+002  8.8770e+000 39824 101046,101124,101072
 3.7000e+000 101173 -3.5580e+000 -1.0958e+002  2.0964e+001 39824 100994,101046,101020
 3.7000e+000 101150 -3.6925e+001 -1.9487e+002 -9.0665e+000 39824 101072,101124,101098
 3.7000e+000 101314  2.6031e-001 -1.1231e+002  1.2525e+001 39824 101124,101046,101288
 3.7000e+000 101337 -8.4312e+000 -1.0574e+002  5.1830e+000 39824 101124,101288,100968
 3.7000e+000 101585  2.8066e+000 -6.2809e+001 -1.9570e+001 39070 101608,101464,101412
 3.7000e+000 101562  3.8483e+001 -7.0773e+001  8.1977e+000 39070 101608,101412,101360
 3.7000e+000 101539 -4.1831e+000 -5.1374e+001 -7.8543e+000 39070 101412,101464,101438
 3.7000e+000 101516  2.5027e+001 -4.6383e+001  1.8219e+001 39070 101360,101412,101386
 3.7000e+000 101634 -2.4069e+001 -6.9669e+001 -2.4665e+001 39070 101490,101464,101608
 3.7000e+000 101657  1.1745e+000 -8.0808e+001  6.4602e+000 39070 101490,101608,101360
 3.7000e+000 101856  1.1609e+000 -3.4300e+001 -2.4431e+000 38730 101706,101758,101732
 3.7000e+000 101833  4.7932e+000 -4.5864e+001  1.4507e+000 38730 101706,101784,101758
 3.7000e+000 101810 -9.4066e+000 -5.7015e+001 -5.2124e+000 38730 101680,101784,101706
 3.7000e+000 102106 -5.2317e+001 -1.2579e+002  3.2188e+000 38326 101881,101959,101907
 3.7000e+000 102083 -3.9043e+001 -1.0221e+002 -3.1296e+000 38326 101881,101985,101959
 3.7000e+000 102060 -3.0464e+001 -1.3578e+002  1.6034e+001 38326 101881,102011,101985
 3.7000e+000 102037 -3.2342e+001 -8.2212e+001 -2.0868e+001 38326 101907,101959,101933
 3.7000e+000 102258  3.6288e+001 -7.2641e+001  7.0305e+000 38036 102281,102157,102131
 3.7000e+000 102235  1.2010e+001 -9.4278e+001  1.6775e+001 38036 102281,102131,102209
 3.7000e+000 102307  1.1493e+000 -4.6611e+001  4.7231e+000 38036 102183,102157,102281
 3.7000e+000 102330 -2.6737e+001 -6.6889e+001  1.5346e+001 38036 102183,102281,102209
 3.7000e+000 102663 -8.9588e+000 -4.9451e+001  8.6234e+000 37596 102438,102542,102464
 3.7000e+000 102640  4.4022e+000 -4.6348e+001  2.8726e+000 37596 102438,102568,102542
 3.7000e+000 102617 -9.2195e+000 -8.1878e+001 -1.2688e+001 37596 102490,102542,102516
 3.7000e+000 102594 -1.4854e+001 -4.8830e+001  6.5930e+000 37596 102464,102542,102490
 3.7000e+000 102862 -1.8677e+001 -9.3150e+001 -9.1315e+000 37192 102686,102764,102712
 3.7000e+000 102839 -1.2958e+001 -8.9689e+001 -1.5881e+001 37192 102686,102790,102764
 3.7000e+000 102816 -2.4295e+001 -8.4756e+001 -1.2967e+001 37192 102712,102764,102738
 3.7000e+000 103110 -8.9276e+000 -5.7734e+001 -2.2865e+001 36609 102911,102963,102937
 3.7000e+000 103087 -9.0668e+000 -8.3100e+001 -1.7180e+000 36609 102911,102989,102963
 3.7000e+000 103064  1.2263e+000 -9.6038e+001 -9.2558e+000 36609 102885,102989,102911
 3.7000e+000 103041 -2.2729e+001 -6.8122e+001 -2.7653e+001 36609 102885,103015,102989
 3.7000e+000 103718  1.3974e+001 -2.3380e+002  1.7164e+001 36131 103323,103375,103349
 3.7000e+000 103695 -5.1292e+001 -1.2980e+002 -1.1220e+001 36131 103297,103375,103323
 3.7000e+000 103672 -2.4809e+001 -7.6313e+001 -2.3264e+001 36131 103297,103505,103375
 3.7000e+000 103649 -6.0226e+001 -1.2735e+002  1.5490e+001 36131 103741,103479,103401
 3.7000e+000 103626 -3.5627e+001 -7.0022e+001  1.6567e+001 36131 103741,103401,103375
 3.7000e+000 103603 -6.9216e+001 -1.3914e+002  1.1578e+001 36131 103401,103479,103427
 3.7000e+000 103580 -4.5285e+001 -1.0902e+002 -3.2077e-002 36131 103297,103531,103505
 3.7000e+000 103557 -5.2204e+001 -1.2818e+002 -2.5750e+001 36131 103427,103479,103453
 3.7000e+000 103767 -4.6623e+001 -1.6496e+002 -2.7950e+001 36131 103505,103479,103741
 3.7000e+000 103790 -2.4648e+001 -1.1434e+002 -2.5528e+001 36131 103505,103741,103375
 3.7000e+000 103989 -8.8263e+001 -1.5475e+002  1.2664e+001 35791 103839,103917,103891
 3.7000e+000 103966 -1.2792e+002 -2.0523e+002 -5.5332e+000 35791 103813,103917,103839
 3.7000e+000 103943 -3.0829e+001 -1.0539e+002 -1.1681e+001 35791 103839,103891,103865
 3.7000e+000 104188 -5.7968e+000 -7.0169e+001  7.8713e+000 35444 104038,104090,104064
 3.7000e+000 104165 -3.4757e+001 -9.6040e+001 -1.4946e+001 35444 104038,104116,104090
 3.7000e+000 104142 -2.6720e+000 -8.6375e+001 -4.7469e+000 35444 104012,104116,104038
 3.7000e+000 104487 -1.1089e+001 -1.0523e+002 -2.9159e+001 34990 104265,104317,104291
 3.7000e+000 104464 -1.1889e+001 -1.3153e+002  5.6040e+000 34990 104510,104317,104265
 3.7000e+000 104441 -2.1898e+001 -8.6166e+001  1.9971e+001 34990 104510,104265,104213
 3.7000e+000 104418 -1.5541e+000 -8.9616e+001 -1.6938e+000 34990 104582,104343,104317
 3.7000e+000 104395 -1.6855e+001 -8.4702e+001 -2.2226e+001 34990 104213,104265,104239
 3.7000e+000 104536 -5.5454e-001 -8.8668e+001  3.7923e+000 34990 104582,104317,104510
 3.7000e+000 104559 -2.3902e+001 -6.1849e+001  1.6784e+001 34990 104369,104510,104213
 3.7000e+000 104608 -1.1827e+001 -7.4788e+001  3.6379e+000 34990 104369,104343,104582
 3.7000e+000 104631 -1.5117e+001 -9.5135e+001  1.2010e+001 34990 104369,104582,104510
 3.7000e+000 104783  1.8740e+001 -3.6797e+001  1.1695e+000 34700 104938,104806,104682
 3.7000e+000 104760  6.3923e+000 -6.4724e+001 -1.4229e+000 34700 104938,104682,104656
 3.7000e+000 104832  9.6812e+000 -8.0789e+001 -1.0920e+001 34700 104708,104682,104806
 3.7000e+000 104964  1.8477e+001 -2.6676e+001  2.5214e+001 34700 104734,104806,104938
 3.7000e+000 104987  8.7982e+000 -4.8271e+001  2.3105e+001 34700 104734,104938,104656
 3.7000e+000 105137  1.4327e+001 -4.8741e+001  3.7247e+000 34388 105036,105088,105062
 3.7000e+000 105114  7.4847e+000 -8.8628e+001 -4.6705e+000 34388 105010,105088,105036
 3.7000e+000 105385 -8.9386e+000 -7.4390e+001 -2.5736e+001 33734 105408,105186,105160
 3.7000e+000 105362 -1.3029e+001 -7.9877e+001 -2.3716e+001 33734 105408,105160,105264
 3.7000e+000 105339 -4.3064e+001 -9.8628e+001 -1.5326e+001 33734 105160,105290,105264
 3.7000e+000 105316 -8.2409e-001 -6.3655e+001 -1.0476e+001 33734 105186,105238,105212
 3.7000e+000 105434 -1.3557e+001 -6.4909e+001 -1.7707e+001 33734 105238,105186,105408
 3.7000e+000 105457 -2.7292e+001 -8.4963e+001 -1.1696e+001 33734 105238,105408,105264
 3.7000e+000 105609 -6.3725e+000 -7.3526e+001  1.9652e+000 33394 105482,105534,105508
 3.7000e+000 105586 -1.8163e+000 -8.5406e+001  1.2484e+001 33394 105482,105560,105534
 3.7000e+000 105859 -2.6510e+001 -1.6295e+002 -2.6703e+001 33047 105882,105712,105660
 3.7000e+000 105836 -2.2215e+000 -1.3863e+002 -5.6153e+000 33047 105882,105660,105634
 3.7000e+000 105813  5.9857e+000 -1.8737e+002  1.3085e+001 33047 105660,105712,105686
 3.7000e+000 105790 -5.3175e+000 -6.0730e+001  5.1374e+000 33047 105634,105764,105738
 3.7000e+000 105908 -8.6866e+001 -1.2110e+002 -1.1106e+001 33047 105738,105712,105882
 3.7000e+000 105931 -2.6519e+001 -9.6522e+001  1.8961e+001 33047 105738,105882,105634
 3.7000e+000 106181 -1.5060e+001 -1.1681e+002  1.9757e+000 32543 106204,106060,106008
 3.7000e+000 106158  1.9816e+000 -1.7814e+002  4.4021e-001 32543 105956,106086,106060
 3.7000e+000 106135  2.0336e+000 -5.1327e+001  3.1069e+001 32543 106204,106008,105982
 3.7000e+000 106112 -2.6815e+001 -3.2544e+001  1.0435e+001 32543 106008,106060,106034
 3.7000e+000 106230 -1.8231e+001 -1.4385e+002 -3.2107e+001 32543 105956,106060,106204
 3.7000e+000 106253 -1.9376e+001 -8.9088e+001 -7.1890e+000 32543 105956,106204,105982
 3.7000e+000 106454  3.2371e+001 -5.9587e+001  2.9335e+001 31839 106304,106356,106330
 3.7000e+000 106431  3.8522e+001 -8.6594e+001 -2.2677e+001 31839 106278,106356,106304
 3.7000e+000 106408 -2.8902e+001 -7.6308e+001 -1.5655e+001 31839 106278,106382,106356
 3.7000e+000 106704 -1.3314e+000 -9.4770e+001 -1.2009e+001 31534 106505,106583,106557
 3.7000e+000 106681 -2.6207e+001 -1.0202e+002 -9.8592e+000 31534 106479,106583,106505
 3.7000e+000 106658 -2.7154e+001 -4.1054e+001 -2.5718e+001 31534 106505,106557,106531
 3.7000e+000 106635 -3.6599e+000 -8.8320e+001 -1.8439e+001 31534 106479,106609,106583
 3.7000e+000 107108 -7.9282e+001 -1.2673e+002  2.5053e+000 31030 106886,106990,106964
 3.7000e+000 107085 -8.7149e+001 -1.5028e+002 -3.1731e-001 31030 106860,106990,106886
 3.7000e+000 107062 -3.0333e+001 -1.4096e+002 -1.9117e+001 31030 106834,106990,106860
 3.7000e+000 107039 -6.5555e+001 -1.5963e+002  1.7798e+001 31030 106912,106964,106938
 3.7000e+000 107016 -5.8807e+001 -1.1666e+002  7.0280e+000 31030 106886,106964,106912
 3.7000e+000 107307  1.3943e+000 -3.5330e+001 -6.9255e-001 30718 107330,107157,107131
 3.7000e+000 107284  9.7400e+000 -5.8785e+001 -5.3521e-001 30718 107330,107131,107235
 3.7000e+000 107261  1.6878e+001 -3.3793e+001  1.9336e+001 30718 107183,107235,107209
 3.7000e+000 107356  5.2407e+000 -1.0466e+001  3.2609e+000 30718 107183,107157,107330
 3.7000e+000 107379  9.7252e+000 -3.8798e+001  2.7945e+000 30718 107183,107330,107235
 3.7000e+000 107759 -4.0211e+000 -3.7489e+001 -1.8404e+000 30264 107782,107615,107537
 3.7000e+000 107736 -1.0036e+001 -5.1340e+001 -6.2947e+000 30264 107782,107537,107485
 3.7000e+000 107713 -1.2235e+001 -7.2202e+001 -1.3122e+000 30264 107485,107537,107511
 3.7000e+000 107690  5.5216e+000 -6.3418e+001 -1.0939e+001 30264 107537,107615,107589
 3.7000e+000 107667  2.1439e+000 -5.9719e+001 -9.3281e+000 30264 107537,107589,107563
 3.7000e+000 107808  3.3882e+000 -3.9020e+001  9.8109e+000 30264 107641,107615,107782
 3.7000e+000 107831 -5.7273e+000 -5.5790e+001  4.6785e+000 30264 107641,107782,107485
 3.7000e+000 108030 -2.2233e+001 -1.3717e+002 -3.2998e+001 29874 108053,107854,107932
 3.7000e+000 108007 -5.0468e+001 -1.4563e+002 -3.2113e+001 29874 107854,107958,107932
 3.7000e+000 107984  6.0887e+000 -9.5190e+001 -3.5915e+000 29874 108053,107932,107906
 3.7000e+000 108079 -3.8240e+001 -8.4703e+001 -1.7024e+001 29874 107880,107854,108053
 3.7000e+000 108102 -3.0416e+001 -4.8655e+001  1.7793e+000 29874 107880,108053,107906
 3.7000e+000 108433  1.0250e+001 -1.1276e+002 -4.1055e+001 29484 108234,108338,108312
 3.7000e+000 108410 -4.0485e+000 -9.3086e+001  5.7676e+000 29484 108208,108338,108234
 3.7000e+000 108387 -3.0112e+001 -8.8891e+001 -6.3335e+001 29484 108234,108312,108260
 3.7000e+000 108364  2.0066e+001  3.2412e+001 -2.5538e+001 29484 108260,108312,108286
 3.7000e+000 108762 -3.0950e+001 -1.0564e+002  1.2319e+001 29080 108563,108641,108589
 3.7000e+000 108739 -1.8601e+001 -5.3970e+001  4.1888e+000 29080 108537,108641,108563
 3.7000e+000 108716 -3.4554e+001 -1.3956e+002  9.1370e+000 29080 108589,108641,108615
 3.7000e+000 108693  9.7754e-001 -4.5795e+001  3.9567e+000 29080 108537,108667,108641
 3.7000e+000 109189 -1.0232e+001 -8.4662e+001 -7.0547e+000 28476 108892,108996,108970
 3.7000e+000 109166 -1.1245e+001 -1.0325e+002 -5.2430e-001 28476 108892,109022,108996
 3.7000e+000 109143 -4.8090e+001 -6.6754e+001  1.5849e+001 28476 108892,108970,108944
 3.7000e+000 109120  1.0550e+001 -1.2897e+002 -2.1394e+001 28476 108892,109048,109022
 3.7000e+000 109097 -3.2878e+001 -1.6820e+001  1.1140e+001 28476 108892,108944,108918
 3.7000e+000 109074 -1.2283e+000 -7.0521e+001 -3.5462e+001 28476 108866,109048,108892
 3.7000e+000 109518 -4.7047e+001 -1.1696e+002  1.9593e+001 28022 109541,109371,109345
 3.7000e+000 109495 -4.7842e+001 -1.1170e+002  1.6870e+001 28022 109541,109345,109319
 3.7000e+000 109472 -3.7719e+001 -1.0969e+002  4.0420e+000 28022 109293,109397,109319
 3.7000e+000 109449 -8.8777e+000 -9.8887e+001  4.0558e+000 28022 109293,109423,109397
 3.7000e+000 109567 -4.2543e+001 -1.1401e+002  1.5482e+001 28022 109397,109371,109541
 3.7000e+000 109590 -4.6965e+001 -1.0835e+002  1.4314e+001 28022 109397,109541,109319
 3.7000e+000 109968 -1.7364e+001 -6.9466e+001  3.2218e+001 27568 109798,109850,109824
 3.7000e+000 109945 -1.1458e+001 -1.0606e+002  4.8691e+001 27568 109694,109850,109798
 3.7000e+000 109922  4.8833e+000 -8.7494e+001  4.1489e+001 27568 109694,109798,109746
 3.7000e+000 109899  6.9878e+000 -9.0911e+001  1.0379e+001 27568 109746,109798,109772
 3.7000e+000 109876 -1.1608e+001 -9.0149e+001  1.3283e+001 27568 109694,109746,109720
 3.7000e+000 110167 -2.5671e+001 -1.2063e+002 -4.4148e+001 27007 110017,110095,110069
 3.7000e+000 110144  1.7215e+001 -1.4957e+002 -8.4508e+000 27007 109991,110095,110017
 3.7000e+000 110121 -3.4687e+000 -9.3058e+001 -1.8137e+001 27007 110017,110069,110043
 3.7000e+000 110415 -2.1934e+000 -1.1282e+002 -7.6099e+000 26567 110438,110242,110190
 3.7000e+000 110392 -1.2991e+001 -1.1560e+002 -6.0978e+000 26567 110438,110190,110320
 3.7000e+000 110369 -3.9647e+001 -1.1152e+002 -9.9445e+000 26567 110242,110294,110268
 3.7000e+000 110346 -4.8825e+000 -1.0193e+002  2.4427e+001 26567 110190,110242,110216
 3.7000e+000 110464 -7.5535e+000 -1.1062e+002 -1.1879e+001 26567 110294,110242,110438
 3.7000e+000 110487 -1.5035e+001 -1.1251e+002 -1.2448e+001 26567 110294,110438,110320
 3.7000e+000 110639  6.6395e+000  3.4022e+001  5.9299e+000 26170 110538,110590,110564
 3.7000e+000 110616  1.2553e+001  1.9977e+001  1.0702e+001 26170 110512,110590,110538
 3.7000e+000 111149 -6.1751e+000 -2.6579e+001  6.9156e+000 25716 111172,110878,110852
 3.7000e+000 111126  1.5869e+000 -2.6620e+001  7.1173e+000 25716 111172,110852,111008
 3.7000e+000 111103 -9.8284e+000 -4.1891e+001  5.0975e-001 25716 110878,110930,110904
 3.7000e+000 111080  1.1229e+001 -1.3630e+001  2.0535e+001 25716 110826,111008,110852
 3.7000e+000 111057 -1.5475e+001 -7.1002e+001  3.2876e+001 25716 110930,111008,110956
 3.7000e+000 111034 -8.9551e+000 -4.8724e+001  1.4754e+001 25716 110956,111008,110982
 3.7000e+000 111198 -8.8504e-002 -2.9090e+001  9.1880e+000 25716 110930,110878,111172
 3.7000e+000 111221  9.3977e+000 -2.7770e+001  9.5257e+000 25716 110930,111172,111008
 3.7000e+000 111420  1.1395e+000 -3.3073e+001 -1.0317e+000 25304 111443,111270,111244
 3.7000e+000 111397  1.9670e+000 -4.6586e+001  8.5017e-002 25304 111443,111244,111348
 3.7000e+000 111374 -1.4681e+000 -1.9823e+001  6.7597e+000 25304 111270,111322,111296
 3.7000e+000 111469 -1.6392e-001 -2.3333e+001 -1.1831e+000 25304 111322,111270,111443
 3.7000e+000 111492  2.4040e+000 -3.4365e+001  9.9719e-001 25304 111322,111443,111348
 3.7000e+000 111691 -3.0609e+001 -9.8066e+001  8.9822e+000 24736 111567,111619,111593
 3.7000e+000 111668 -4.7075e+001 -1.2782e+002  2.0376e+000 24736 111541,111619,111567
 3.7000e+000 111645 -3.0440e+001 -1.1941e+002  5.3006e+000 24736 111515,111619,111541
 3.7000e+000 112024 -1.9265e+000 -9.8179e+001  1.8252e+001 24146 111825,111877,111851
 3.7000e+000 112001  9.9369e-002 -4.1826e+001  3.0307e+000 24146 111825,111903,111877
 3.7000e+000 111978  3.9633e-001 -3.7499e+001  2.9588e+000 24146 111825,111929,111903
 3.7000e+000 111955 -6.5289e+000 -3.1764e+001  8.1169e+000 24146 111799,111929,111825
 3.7000e+000 112370 -3.6390e+001 -1.8970e+002 -5.2554e-001 23856 112393,112151,112125
 3.7000e+000 112347 -2.1758e+001 -1.5977e+002  4.2107e+000 23856 112465,112393,112125
 3.7000e+000 112324 -2.3443e+001 -1.4909e+002  1.3200e+001 23856 112465,112125,112073
 3.7000e+000 112301 -4.3912e+001 -1.4296e+002  1.7723e+001 23856 112073,112125,112099
 3.7000e+000 112278 -1.0463e+002 -2.2934e+002 -4.0618e+001 23856 112047,112229,112073
 3.7000e+000 112255 -2.2776e+001 -2.1930e+002 -5.1638e+001 23856 112151,112203,112177
 3.7000e+000 112419 -3.6867e+001 -1.7584e+002 -1.6889e+001 23856 112203,112151,112393
 3.7000e+000 112442 -3.8995e+001 -1.7950e+002 -1.8189e+001 23856 112203,112393,112229
 3.7000e+000 112491 -3.9108e+001 -1.7478e+002 -1.8866e+001 23856 112229,112393,112465
 3.7000e+000 112514 -3.1998e+001 -1.4812e+002 -9.4822e+000 23856 112229,112465,112073
 3.7000e+000 112784 -1.5921e+001 -1.2832e+002  1.1818e+001 23494 112611,112663,112637
 3.7000e+000 112761 -2.0895e+001 -1.1020e+002  1.1377e+001 23494 112585,112663,112611
 3.7000e+000 112738 -3.4785e+001 -1.1622e+002  8.6786e+000 23494 112559,112663,112585
 3.7000e+000 112715 -1.0450e+001 -7.4199e+001 -3.0742e+000 23494 112559,112689,112663
 3.7000e+000 113117  9.4825e+000  1.3312e+001 -1.0814e+001 22974 112944,113022,112996
 3.7000e+000 113094  1.0382e+001  2.2430e+001 -1.4466e+001 22974 112918,113022,112944
 3.7000e+000 113071  7.1820e+000  1.3715e+001 -4.9174e+000 22974 112944,112996,112970
 3.7000e+000 113048  1.2914e+001  6.1602e+000  1.4932e+000 22974 112892,113022,112918
 3.7000e+000 113414  5.2782e+000 -3.7160e+001  7.0296e+000 22370 113192,113296,113218
 3.7000e+000 113391  5.1616e+000 -3.8149e+001  6.8095e+000 22370 113140,113296,113192
 3.7000e+000 113368 -3.7571e+000 -5.3422e+001  3.3005e+001 22370 113218,113296,113270
 3.7000e+000 113345 -6.9748e+000 -7.3917e+001  3.6635e+001 22370 113218,113270,113244
 3.7000e+000 113322 -1.4342e-001 -5.3113e+001  4.3628e+000 22370 113140,113192,113166
 3.7000e+000 113662  5.3128e+000 -5.3829e+001  2.8851e+001 21916 113685,113515,113489
 3.7000e+000 113639  5.7361e+000 -1.0389e+002  2.2092e+001 21916 113685,113489,113437
 3.7000e+000 113616 -1.0267e+000 -9.9268e+001  8.4152e+000 21916 113757,113567,113541
 3.7000e+000 113593  2.4234e+001 -5.5122e+001  6.0283e+000 21916 113437,113489,113463
 3.7000e+000 113711 -1.5237e+001 -1.2438e+002  4.3827e+001 21916 113541,113515,113685
 3.7000e+000 113734  5.5850e-001 -1.2344e+002  2.1839e+001 21916 113757,113541,113685
 3.7000e+000 113783 -6.6708e+000 -7.4507e+001  1.8761e+001 21916 113437,113567,113757
 3.7000e+000 113806  5.6455e+000 -8.7023e+001  2.3992e+001 21916 113437,113757,113685
 3.7000e+000 114056  6.0514e+000 -1.6361e+002  1.6055e+001 21412 113857,113909,113883
 3.7000e+000 114033  4.4016e+001 -9.1099e+001  2.4329e+000 21412 114079,113909,113857
 3.7000e+000 114010  9.5667e+000 -1.0533e+002  3.8597e+000 21412 114079,113857,113961
 3.7000e+000 113987 -2.1061e+001 -5.1960e+001  2.6635e+001 21412 113831,113961,113857
 3.7000e+000 114105  1.6228e+001 -8.2535e+001 -1.3399e+001 21412 113935,113909,114079
 3.7000e+000 114128 -7.2825e+000 -9.0648e+001 -1.1812e+001 21412 113935,114079,113961
 3.7000e+000 114378 -3.7104e+001 -1.1110e+002 -4.3739e+001 21022 114401,114257,114205
 3.7000e+000 114355 -5.1276e+001 -1.5109e+002 -4.1323e+001 21022 114401,114205,114179
 3.7000e+000 114332  5.7048e+000 -1.8826e+002 -2.4443e+001 21022 114153,114283,114179
 3.7000e+000 114309 -4.2246e+001 -7.5378e+001 -2.9062e+001 21022 114205,114257,114231
 3.7000e+000 114427 -3.2063e+001 -1.2631e+002 -9.5019e+000 21022 114283,114257,114401
 3.7000e+000 114450 -4.3150e+001 -1.6266e+002 -8.0554e+000 21022 114283,114401,114179
 3.7000e+000 114651  9.4098e+001 -9.2741e+001  3.4902e+001 20618 114501,114553,114527
 3.7000e+000 114628  4.4526e+000 -1.0252e+002 -3.3438e+000 20618 114501,114579,114553
 3.7000e+000 114605  1.0070e+001 -8.2869e+001  3.3123e+000 20618 114475,114579,114501
 3.7000e+000 114901  3.7085e+001 -1.1564e+002 -7.9350e+000 20114 114676,114780,114702
 3.7000e+000 114878 -3.4425e+000 -1.3303e+002 -4.8684e+000 20114 114676,114806,114780
 3.7000e+000 114855  8.3048e+001 -1.2464e+002 -9.4774e+000 20114 114702,114780,114754
 3.7000e+000 114832  2.2329e+002 -1.2399e+002  3.2875e+001 20114 114702,114754,114728
 3.7000e+000 115053 -5.3789e+001 -1.7052e+002 -3.7226e+000 19460 115147,115076,114926
 3.7000e+000 115030 -4.0586e+001 -1.8585e+002  3.0200e-001 19460 115147,114926,115004
 3.7000e+000 115102 -4.8286e+001 -1.5436e+002 -4.2102e+000 19460 114952,114926,115076
 3.7000e+000 115173 -4.2316e+001 -1.4931e+002  1.2125e+000 19460 114978,115076,115147
 3.7000e+000 115196 -2.9363e+001 -1.6659e+002  5.9416e+000 19460 114978,115147,115004
 3.7000e+000 115446 -1.5428e+001 -1.6428e+002 -5.1163e+000 19006 115273,115351,115299
 3.7000e+000 115423  5.6123e+000 -1.4111e+002  5.1327e+000 19006 115247,115351,115273
 3.7000e+000 115400  7.4308e-001 -1.4316e+002  6.1367e+000 19006 115221,115351,115247
 3.7000e+000 115377  9.2331e+000 -1.7269e+002 -3.0336e+001 19006 115299,115351,115325
 3.7000e+000 115767 -6.4664e+001 -1.4859e+002  2.9598e+000 18716 115571,115649,115623
 3.7000e+000 115744 -6.8038e+001 -1.5320e+002  1.1211e+000 18716 115493,115649,115571
 3.7000e+000 115721 -7.0075e+001 -1.5014e+002  2.4592e+000 18716 115493,115571,115545
 3.7000e+000 115698 -6.0023e+001 -1.4204e+002  1.8555e+001 18716 115493,115545,115519
 3.7000e+000 115675 -5.0458e+001 -1.4431e+002 -1.8600e-001 18716 115571,115623,115597
 3.7000e+000 116039 -1.3937e+001 -1.0789e+002  1.1817e+001 18312 115814,115892,115840
 3.7000e+000 116016 -4.7316e-001 -7.5209e+001  9.9605e+000 18312 115814,115944,115892
 3.7000e+000 115993 -1.1532e+001 -9.4796e+001  4.3525e+000 18312 115892,115944,115918
 3.7000e+000 115970  3.1582e+001 -9.3726e+001  1.5301e+001 18312 115840,115892,115866
 3.7000e+000 116191 -1.9833e+001 -1.5779e+002  2.2700e+000 18000 116090,116142,116116
 3.7000e+000 116168 -1.7373e+001 -1.7073e+002  6.0948e+000 18000 116064,116142,116090
 3.7000e+000 116343 -8.8048e+001 -1.8073e+002 -4.7968e+000 17396 116242,116294,116268
 3.7000e+000 116320 -8.0212e+001 -1.8417e+002 -6.4878e+000 17396 116216,116294,116242
 3.7000e+000 116566 -2.0214e+001 -2.4146e+002  2.5900e+001 16942 116390,116468,116442
 3.7000e+000 116543 -3.5567e+001 -2.4639e+002  2.9121e+001 16942 116390,116494,116468
 3.7000e+000 116520 -4.5376e+001 -3.0045e+002  1.0762e+001 16942 116390,116442,116416
 3.7000e+000 116767  1.7493e+001 -1.1172e+002 -6.6270e+000 16438 116790,116643,116617
 3.7000e+000 116744  1.1346e+000 -8.7194e+001 -4.9153e+000 16438 116790,116617,116591
 3.7000e+000 116721  2.4618e+001 -9.1192e+001 -2.1595e+001 16438 116643,116695,116669
 3.7000e+000 116816  1.8069e+001 -9.3346e+001 -1.4760e+001 16438 116695,116643,116790
 3.7000e+000 116839  1.2182e+001 -6.9282e+001 -2.1442e+001 16438 116695,116790,116591
 3.7000e+000 117062 -1.0585e+001 -2.5747e+002 -4.0231e+000 16074 116886,116938,116912
 3.7000e+000 117039 -5.6302e+001 -2.8842e+002  1.4764e+001 16074 116886,116990,116938
 3.7000e+000 117016 -3.5258e+001 -2.2771e+002  2.2766e+001 16074 116938,116990,116964
 3.7000e+000 117214 -1.9945e+001 -1.5392e+002 -1.2371e+000 15649 117087,117139,117113
 3.7000e+000 117191 -4.9303e-002 -1.4588e+002 -8.0366e-001 15649 117087,117165,117139
 3.7000e+000 117317 -5.0916e+001 -1.8262e+002 -9.4010e+000 421 117239,117291,117265
 3.8000e+000 70632 -1.6555e+002 -2.2585e+002 -6.8587e+000 70072 70482,70534,70508
 3.8000e+000 70609 -1.5549e+002 -2.0802e+002 -2.6877e+000 70072 70482,70560,70534
 3.8000e+000 70586 -1.0103e+002 -1.8299e+002 -1.3439e+001 70072 70456,70560,70482
 3.8000e+000 70951 -4.2437e+001 -1.2803e+002  0.0000e+000 69874 70703,70755,70729
 3.8000e+000 70928 -4.0031e+001 -1.2820e+002 -9.9601e+000 69874 70703,70781,70755
 3.8000e+000 70905 -5.1031e+001 -6.9684e+001 -1.3916e+001 69874 70703,70807,70781
 3.8000e+000 70882 -6.8608e+001 -1.1865e+002  4.7706e+000 69874 70703,70833,70807
 3.8000e+000 70859 -5.4864e+001 -1.1623e+002  6.1118e+000 69874 70677,70833,70703
 3.8000e+000 71199 -8.4584e+001 -1.0876e+002 -1.1417e+001 69698 71222,71052,71026
 3.8000e+000 71176 -6.3235e+001 -9.8555e+001 -4.2263e+000 69698 71294,71222,71026
 3.8000e+000 71153 -5.8609e+001 -9.6160e+001  7.5876e+000 69698 71294,71026,71000
 3.8000e+000 71130 -8.3724e+001 -9.9020e+001 -6.8811e+000 69698 71366,71104,71078
 3.8000e+000 71248 -9.2964e+001 -1.0417e+002 -1.2539e-001 69698 71078,71052,71222
 3.8000e+000 71271 -8.2944e+001 -1.0263e+002 -4.1093e+000 69698 71366,71078,71222
 3.8000e+000 71320 -8.2586e+001 -1.0537e+002 -5.3530e+000 69698 70974,71222,71294
 3.8000e+000 71343 -8.3307e+001 -1.0686e+002  5.0644e+000 69698 70974,71294,71000
 3.8000e+000 71392 -8.4732e+001 -9.2101e+001 -5.1066e+000 69698 70974,71104,71366
 3.8000e+000 71415 -8.1880e+001 -9.4016e+001 -4.2695e+000 69698 70974,71366,71222
 3.8000e+000 71516 -9.5376e+001 -1.0267e+002  1.3938e+000 69386 71438,71490,71464
 3.8000e+000 71869 -4.8237e+001 -1.3987e+002  1.6760e+001 69188 71644,71748,71670
 3.8000e+000 71846  1.1443e+001 -1.4141e+002  4.7950e+001 69188 71644,71774,71748
 3.8000e+000 71823 -2.8000e+001 -7.3677e+001  1.5802e+001 69188 71670,71748,71722
 3.8000e+000 71800 -8.0287e+001 -1.6830e+002 -5.8902e+000 69188 71670,71722,71696
 3.8000e+000 72019 -1.3020e+002 -2.6421e+002 -2.2020e+001 68990 71918,71970,71944
 3.8000e+000 71996 -1.0532e+002 -3.2553e+002  4.2928e+000 68990 71892,71970,71918
 3.8000e+000 72316 -3.4374e+001 -7.7263e+001 -6.3512e+000 68586 72339,72172,72146
 3.8000e+000 72293 -4.6225e+001 -1.0472e+002 -2.9524e+000 68586 72339,72146,72120
 3.8000e+000 72270 -4.4975e+001 -8.4469e+001  8.3968e+000 68586 72411,72068,72198
 3.8000e+000 72247 -1.5680e+001 -4.6887e+001  2.6018e+001 68586 72042,72198,72068
 3.8000e+000 72224 -3.1591e+001 -1.0486e+002 -5.5969e+000 68586 72068,72120,72094
 3.8000e+000 72365 -5.0288e+001 -7.9134e+001  3.0067e+000 68586 72198,72172,72339
 3.8000e+000 72388 -5.2293e+001 -8.3688e+001  5.2587e+000 68586 72411,72198,72339
 3.8000e+000 72437 -3.0227e+001 -8.1785e+001  1.3149e+001 68586 72120,72068,72411
 3.8000e+000 72460 -4.0034e+001 -8.4309e+001  8.8116e+000 68586 72120,72411,72339
 3.8000e+000 72864 -1.9436e+001 -8.3235e+001 -3.6422e+000 68388 72642,72694,72668
 3.8000e+000 72841 -4.2195e+001 -1.1337e+002  9.1808e+000 68388 72616,72694,72642
 3.8000e+000 72818 -3.8934e+001 -8.9510e+001  4.1393e+000 68388 72616,72720,72694
 3.8000e+000 72795 -7.2516e+001 -1.3908e+002  1.8707e+001 68388 72590,72720,72616
 3.8000e+000 72772 -4.6397e+001 -1.1752e+002  3.7405e+001 68388 72590,72746,72720
 3.8000e+000 73321 -7.1024e+001 -6.7069e+001  3.7492e+000 68048 73073,73203,73177
 3.8000e+000 73298 -7.6590e+001 -6.5132e+001  9.6637e+000 68048 73047,73203,73073
 3.8000e+000 73275 -6.5080e+001 -1.2803e+002 -1.9475e+001 68048 73125,73177,73151
 3.8000e+000 73252 -6.2681e+001 -1.0781e+002  6.7377e+000 68048 73073,73177,73125
 3.8000e+000 73229 -5.8386e+001 -1.1341e+002  8.9371e+000 68048 73073,73125,73099
 3.8000e+000 73640 -9.8740e+001 -1.1153e+002 -1.9184e+000 67850 73444,73496,73470
 3.8000e+000 73617 -6.4873e+001 -1.1342e+002 -6.5471e+000 67850 73418,73496,73444
 3.8000e+000 73594 -6.7089e+001 -1.1329e+002  2.2776e+000 67850 73392,73496,73418
 3.8000e+000 73571 -6.4102e+001 -1.1721e+002  3.0266e+000 67850 73392,73522,73496
 3.8000e+000 73548 -6.7708e+001 -1.0199e+002  1.8898e+001 67850 73366,73522,73392
 3.8000e+000 73790 -9.5651e+001 -1.4630e+002 -2.9089e+000 67602 73689,73741,73715
 3.8000e+000 73767 -7.5064e+001 -9.4317e+001 -2.9255e+000 67602 73663,73741,73689
 3.8000e+000 74040 -8.9443e+001 -1.5370e+002 -1.2907e+001 67290 73841,73945,73919
 3.8000e+000 74017 -6.6808e+001 -1.5303e+002 -2.0333e+001 67290 73815,73945,73841
 3.8000e+000 73994 -7.3329e+001 -9.8399e+001 -1.3302e+001 67290 73841,73919,73867
 3.8000e+000 73971 -7.1426e+001 -9.6309e+001 -8.6676e+000 67290 73867,73919,73893
 3.8000e+000 74143 -7.5057e-001 -1.6823e+001  8.1978e+000 67092 74065,74117,74091
 3.8000e+000 74415 -6.7081e+001 -9.5087e+001 -9.5249e+000 66894 74190,74294,74216
 3.8000e+000 74392 -2.4186e+001 -8.0674e+001 -1.2052e+001 66894 74190,74320,74294
 3.8000e+000 74369 -5.7160e+001 -8.0618e+001 -4.2041e+000 66894 74216,74294,74242
 3.8000e+000 74346 -5.5988e+001 -9.1061e+001 -4.7912e+000 66894 74242,74294,74268
 3.8000e+000 75023  3.0586e+001 -1.1143e+002 -3.5831e+001 66532 74654,74836,74810
 3.8000e+000 75000 -9.7141e+001 -1.2878e+002 -4.3321e+001 66532 74628,74836,74654
 3.8000e+000 74977 -6.3467e+001 -9.5270e+001 -4.7675e+000 66532 74706,74784,74732
 3.8000e+000 74954 -6.4144e+001 -9.9185e+001 -4.5320e+000 66532 74680,74784,74706
 3.8000e+000 74931 -3.0578e+001 -9.2111e+001 -1.7348e+000 66532 74680,74810,74784
 3.8000e+000 74908 -7.6222e+001 -1.1622e+002 -3.3574e+001 66532 74654,74810,74680
 3.8000e+000 74885 -8.1646e+001 -1.4319e+002 -5.2691e+001 66532 74602,74836,74628
 3.8000e+000 74862 -6.3297e+001 -1.2344e+002 -6.4481e+000 66532 74732,74784,74758
 3.8000e+000 75222 -3.4966e+001 -1.0964e+002  2.2681e+000 66242 75072,75150,75124
 3.8000e+000 75199 -2.2184e+001 -9.8295e+001 -2.9291e+000 66242 75046,75150,75072
 3.8000e+000 75176 -4.2264e+001 -8.3612e+001 -7.1905e+000 66242 75072,75124,75098
 3.8000e+000 75470 -2.0454e+001 -2.7779e+001  4.0389e+000 65838 75297,75375,75349
 3.8000e+000 75447 -1.4374e+001 -2.9448e+001  6.7861e+000 65838 75271,75375,75297
 3.8000e+000 75424 -2.9975e+001 -2.8008e+001  7.0754e+000 65838 75297,75349,75323
 3.8000e+000 75401  8.8261e+000 -2.4920e+001 -3.3904e+000 65838 75245,75375,75271
 3.8000e+000 75671 -3.4907e+001 -6.7403e+001 -9.9605e+000 65640 75495,75573,75521
 3.8000e+000 75648 -5.5976e+000 -5.0274e+001 -1.9821e+001 65640 75495,75599,75573
 3.8000e+000 75625 -3.5323e+001 -7.8533e+001 -1.7101e+001 65640 75521,75573,75547
 3.8000e+000 75872 -6.0850e+001 -8.1268e+001 -1.8778e+001 65300 75895,75748,75722
 3.8000e+000 75849 -4.8969e+001 -8.0113e+001 -1.9137e+001 65300 75895,75722,75696
 3.8000e+000 75826 -5.0843e+001 -4.7310e+001 -3.6444e+001 65300 75967,75774,75748
 3.8000e+000 75921 -5.2653e+001 -6.3937e+001 -2.1234e+001 65300 75967,75748,75895
 3.8000e+000 75944 -6.4119e+001 -9.9388e+001 -9.4087e+000 65300 75800,75895,75696
 3.8000e+000 75993 -7.6768e+001 -7.2341e+001 -2.6156e+001 65300 75800,75774,75967
 3.8000e+000 76016 -7.5687e+001 -8.2006e+001 -1.2629e+001 65300 75800,75967,75895
 3.8000e+000 76371 -1.0281e+002 -1.2263e+002 -1.1506e+000 64896 76146,76250,76172
 3.8000e+000 76348 -1.0091e+002 -1.2027e+002 -2.9234e+000 64896 76146,76276,76250
 3.8000e+000 76325 -1.1541e+002 -1.2059e+002  3.7957e+000 64896 76172,76250,76198
 3.8000e+000 76302 -1.4013e+001 -7.5080e+001  1.7652e+001 64896 76198,76250,76224
 3.8000e+000 76570 -4.1533e+001 -7.2350e+001 -3.3083e+001 64442 76446,76498,76472
 3.8000e+000 76547 -4.2055e+001 -5.0743e+001 -1.6089e+001 64442 76420,76498,76446
 3.8000e+000 76524 -3.9715e+001 -8.4030e+001 -5.1120e+000 64442 76394,76498,76420
 3.8000e+000 76999 -9.0068e+001 -1.5104e+002  7.4944e+000 63924 77022,76728,76702
 3.8000e+000 76976 -1.0216e+002 -1.2925e+002 -1.8238e+001 63924 77022,76702,76832
 3.8000e+000 76953 -7.5213e+001 -1.6139e+002  2.1456e+001 63924 76728,76806,76754
 3.8000e+000 76930 -9.7551e+001 -1.0448e+002  1.4759e+001 63924 76676,76832,76702
 3.8000e+000 76907 -9.7203e+001 -1.7260e+002  1.5035e+001 63924 76754,76806,76780
 3.8000e+000 76884 -7.1939e+001 -1.2189e+002  7.9447e+000 63924 76676,76858,76832
 3.8000e+000 77048 -8.8427e+001 -1.8223e+002 -1.4891e-001 63924 76806,76728,77022
 3.8000e+000 77071 -1.0511e+002 -1.6651e+002 -2.6843e+001 63924 76806,77022,76832
 3.8000e+000 77449 -4.9852e+001 -1.0588e+002  1.4751e+001 63320 77472,77253,77201
 3.8000e+000 77426 -4.9864e+001 -1.0660e+002  1.4030e+001 63320 77472,77201,77175
 3.8000e+000 77403 -1.5640e+001 -1.0024e+002  8.0407e+000 63320 77175,77305,77279
 3.8000e+000 77380 -1.4136e+001 -6.8388e+001 -9.4736e+000 63320 77201,77253,77227
 3.8000e+000 77357 -1.1448e+001 -9.1164e+001 -1.7470e+001 63320 77175,77331,77305
 3.8000e+000 77498 -5.0376e+001 -1.0763e+002  1.4797e+001 63320 77279,77253,77472
 3.8000e+000 77521 -5.0073e+001 -1.0756e+002  1.3894e+001 63320 77279,77472,77175
 3.8000e+000 77769 -7.0353e+001 -6.1281e+001  1.0943e+001 62816 77570,77622,77596
 3.8000e+000 77746 -6.9311e+001 -1.0057e+002  9.4120e+000 62816 77570,77648,77622
 3.8000e+000 77723 -5.3389e+001 -9.3657e+001  8.6134e+000 62816 77570,77674,77648
 3.8000e+000 77700 -5.4668e+001 -9.5396e+001  8.3593e+000 62816 77544,77674,77570
 3.8000e+000 78149 -6.1346e+001 -1.1622e+002  4.2075e+000 62354 77953,78031,78005
 3.8000e+000 78126 -7.8217e+001 -1.3314e+002 -2.6705e+000 62354 77901,78031,77953
 3.8000e+000 78103 -5.3037e+001 -1.2147e+002  1.1106e+001 62354 77875,78031,77901
 3.8000e+000 78080 -7.0030e+001 -1.4948e+002 -1.3500e+001 62354 77901,77953,77927
 3.8000e+000 78057 -3.9216e+001 -8.3506e+001 -1.4571e+001 62354 77953,78005,77979
 3.8000e+000 78606 -4.7877e+001 -9.5538e+001 -8.1826e+000 61950 78384,78436,78410
 3.8000e+000 78583 -5.3446e+001 -9.9029e+001 -1.0252e+001 61950 78358,78436,78384
 3.8000e+000 78560 -6.0225e+001 -9.7550e+001 -1.1294e+001 61950 78358,78488,78436
 3.8000e+000 78537 -5.9722e+001 -1.2523e+002 -2.0345e+001 61950 78436,78488,78462
 3.8000e+000 78514 -5.2866e+001 -7.7542e+001 -1.1760e+000 61950 78332,78488,78358
 3.8000e+000 78756 -2.6518e+001 -1.2055e+002 -1.9125e+000 61339 78779,78655,78629
 3.8000e+000 78733 -2.8522e+001 -1.4302e+002 -1.7450e-001 61339 78779,78629,78707
 3.8000e+000 78805 -4.0838e+001 -1.4524e+002  1.4064e+001 61339 78851,78779,78681
 3.8000e+000 78828  1.0400e+001 -1.2431e+002  8.8151e+000 61339 78681,78779,78707
 3.8000e+000 78877 -2.6014e+001 -1.0754e+002  2.7530e+000 61339 78655,78779,78851
 3.8000e+000 79206 -2.7384e+001 -3.5799e+001 -1.9416e+001 60892 79229,79007,78981
 3.8000e+000 79183 -2.8109e+001 -3.5525e+001 -1.7109e+001 60892 79229,78981,79111
 3.8000e+000 79160 -1.7202e+001 -4.2468e+001 -8.6791e+000 60892 79301,79033,79007
 3.8000e+000 79137 -1.2781e+001 -1.9605e+001  1.2923e+001 60892 79033,79085,79059
 3.8000e+000 79255 -2.2292e+001 -3.3147e+001 -1.6027e+001 60892 79301,79007,79229
 3.8000e+000 79278 -3.3546e+001 -3.9155e+001 -1.8771e+001 60892 79085,79229,79111
 3.8000e+000 79327 -2.4276e+001 -6.0227e+001 -1.0228e+001 60892 79085,79033,79301
 3.8000e+000 79350 -3.1725e+001 -5.0310e+001 -1.9689e+001 60892 79085,79301,79229
 3.8000e+000 79647 -6.9345e+001 -1.1592e+002 -1.2155e+001 60488 79451,79529,79503
 3.8000e+000 79624 -7.4521e+001 -1.2455e+002 -7.5133e+000 60488 79425,79529,79451
 3.8000e+000 79601 -5.7473e+001 -1.3021e+002 -9.5196e+000 60488 79373,79529,79425
 3.8000e+000 79578 -7.5607e+001 -1.1391e+002 -2.7188e+001 60488 79373,79425,79399
 3.8000e+000 79555 -5.9799e+000 -1.2745e+002 -2.8598e+000 60488 79451,79503,79477
 3.8000e+000 79870 -1.8664e+001 -1.8345e+001 -2.0024e+000 60026 79720,79798,79772
 3.8000e+000 79847 -1.2209e+001 -1.3395e+001  5.3919e-002 60026 79694,79798,79720
 3.8000e+000 79824 -1.4185e+001 -1.5863e+001 -7.1183e-001 60026 79720,79772,79746
 3.8000e+000 80120 -2.1112e+001 -1.3278e+001  1.7567e+000 59629 79921,80025,79973
 3.8000e+000 80097 -2.1603e+001 -3.3180e+001 -7.3644e+000 59629 79895,80025,79921
 3.8000e+000 80074 -2.0151e+001 -1.7207e+001 -8.3455e+000 59629 79973,80025,79999
 3.8000e+000 80051 -4.7737e+000 -1.7379e+001  8.2276e-001 59629 79921,79973,79947
 3.8000e+000 80321 -9.3473e+001 -6.8086e+001  1.2736e+001 59125 80344,80171,80145
 3.8000e+000 80298 -6.1933e+001 -7.8407e+001 -6.7443e+000 59125 80344,80145,80249
 3.8000e+000 80275 -1.0432e+001 -1.0177e+002  1.6257e+001 59125 80197,80249,80223
 3.8000e+000 80370 -5.8136e+001 -5.9082e+001  1.0805e+001 59125 80197,80171,80344
 3.8000e+000 80393 -2.9238e+001 -7.1309e+001 -8.4700e+000 59125 80197,80344,80249
 3.8000e+000 80952 -7.7808e+001 -1.3478e+002  2.9002e+001 58557 80975,80632,80606
 3.8000e+000 80929 -2.2710e+001 -7.6223e+001  6.0944e+000 58557 81119,80975,80606
 3.8000e+000 80906 -5.7832e+001 -1.0521e+002 -5.6125e+000 58557 81047,80684,80632
 3.8000e+000 80883 -7.4169e+000 -6.9219e+001  1.0188e+001 58557 81119,80606,80580
 3.8000e+000 80860 -1.5649e+001 -1.5046e+002  6.7447e-001 58557 81191,80736,80710
 3.8000e+000 80837 -2.6763e+001 -1.2645e+002 -2.3184e+001 58557 80736,80788,80762
 3.8000e+000 80814 -7.5964e+001 -9.4599e+001  3.7373e+000 58557 80632,80684,80658
 3.8000e+000 81001 -3.4913e+001 -1.2323e+002  7.3479e+000 58557 81047,80632,80975
 3.8000e+000 81024  3.7288e+000 -1.2018e+002  9.0564e+000 58557 81191,80710,80975
 3.8000e+000 81073 -3.6702e+001 -8.4762e+001  8.8701e+000 58557 80710,80684,81047
 3.8000e+000 81096 -4.9380e+000 -1.0046e+002  2.1086e+001 58557 80710,81047,80975
 3.8000e+000 81145 -1.6390e+001 -6.7587e+001  1.5257e+001 58557 80788,80975,81119
 3.8000e+000 81168 -1.3927e+001 -6.6795e+001  1.8385e+001 58557 80788,81119,80580
 3.8000e+000 81217 -2.9448e+001 -1.1998e+002 -1.0125e+001 58557 80788,80736,81191
 3.8000e+000 81240 -2.2561e+001 -1.1027e+002 -7.0008e+000 58557 80788,81191,80975
 3.8000e+000 81537 -7.7565e-001 -2.1216e+001  3.7332e+000 57881 81560,81341,81289
 3.8000e+000 81514 -6.2721e+000 -2.3556e+001  1.9092e+000 57881 81560,81289,81263
 3.8000e+000 81491 -2.0139e+001 -2.0387e+001 -8.3287e-001 57881 81632,81419,81367
 3.8000e+000 81468 -2.9057e+001 -4.9147e+001 -2.7226e+001 57881 81367,81419,81393
 3.8000e+000 81445 -1.3056e+001 -2.9040e+001  7.9759e+000 57881 81289,81341,81315
 3.8000e+000 81586 -4.4782e+000 -1.4594e+001 -5.7732e+000 57881 81367,81341,81560
 3.8000e+000 81609 -1.7703e+001 -2.1243e+001 -2.7122e+000 57881 81632,81367,81560
 3.8000e+000 81658 -1.3660e+001 -2.8453e+001  2.0607e+000 57881 81263,81419,81632
 3.8000e+000 81681 -6.8273e+000 -2.4306e+001 -1.7667e+000 57881 81263,81632,81560
 3.8000e+000 81929 -2.8970e+001 -4.4388e+001  1.4735e+001 57477 81704,81808,81782
 3.8000e+000 81906 -2.7160e+001 -3.5619e+001  1.1049e+001 57477 81704,81834,81808
 3.8000e+000 81883 -1.7205e+001 -3.5588e+001  4.4858e+000 57477 81704,81782,81730
 3.8000e+000 81860 -2.0669e+001 -4.1427e+001  6.4518e+000 57477 81730,81782,81756
 3.8000e+000 82488 -4.9583e+001 -1.4987e+002  1.1144e+001 56966 82583,82511,82194
 3.8000e+000 82465 -6.3259e+001 -1.4015e+002  1.8693e+001 56966 82511,82116,82324
 3.8000e+000 82442 -6.7284e+001 -1.5771e+002  1.5590e+001 56966 82583,82194,82168
 3.8000e+000 82419 -2.6460e+000 -1.1465e+002  1.6654e+001 56966 82194,82246,82220
 3.8000e+000 82396 -5.0340e+001 -1.4313e+002 -5.9963e+000 56966 82194,82298,82246
 3.8000e+000 82373 -2.9295e+001 -1.5429e+002 -3.0559e+001 56966 82246,82298,82272
 3.8000e+000 82350 -1.0139e+002 -1.6749e+002  1.6380e+001 56966 82116,82168,82142
 3.8000e+000 82537 -3.8333e+001 -1.3748e+002  2.7216e+000 56966 82298,82194,82511
 3.8000e+000 82560 -4.7442e+001 -1.0595e+002  2.2684e+001 56966 82298,82511,82324
 3.8000e+000 82609 -7.0462e+001 -1.3846e+002  2.6298e+000 56966 82116,82511,82583
 3.8000e+000 82632 -8.0336e+001 -1.4046e+002  4.5607e+000 56966 82116,82583,82168
 3.8000e+000 83236 -4.7936e+000 -8.6411e+001 -1.9569e+001 56304 82893,82945,82919
 3.8000e+000 83213 -2.7743e+001 -1.1173e+002  7.0026e+000 56304 83259,82945,82893
 3.8000e+000 83190 -2.3546e+001 -1.1296e+002  6.1521e+000 56304 83259,82893,83049
 3.8000e+000 83167 -4.2436e+001 -1.3653e+002  2.0275e+001 56304 82971,83049,83023
 3.8000e+000 83144 -4.3116e+001 -1.5201e+002 -8.1784e-001 56304 82815,83049,82893
 3.8000e+000 83121 -6.4758e+001 -1.6711e+002  1.1986e+001 56304 82815,82893,82867
 3.8000e+000 83098 -4.0285e+001 -1.3058e+002  1.9441e+001 56304 82971,83023,82997
 3.8000e+000 83075 -1.0103e+002 -1.7706e+002 -1.7020e+001 56304 82815,82867,82841
 3.8000e+000 83285 -3.3342e+001 -1.1373e+002  1.0727e+001 56304 82971,82945,83259
 3.8000e+000 83308 -2.7368e+001 -1.1210e+002  8.8313e+000 56304 82971,83259,83049
 3.8000e+000 83556 -3.6567e+001 -8.2959e+001  1.2254e+001 55964 83357,83461,83435
 3.8000e+000 83533 -3.5792e+001 -5.9273e+001  2.5947e+001 55964 83331,83461,83357
 3.8000e+000 83510 -3.5701e+001 -9.5248e+001  2.3690e+001 55964 83357,83435,83383
 3.8000e+000 83487 -3.2645e+001 -1.2798e+002  9.3099e+000 55964 83383,83435,83409
 3.8000e+000 83706 -6.8683e+001 -1.2045e+002  5.5069e+000 55503 83579,83631,83605
 3.8000e+000 83683 -7.1454e+001 -1.1937e+002  5.6996e+000 55503 83579,83657,83631
 3.8000e+000 83907 -5.6343e+001 -8.1431e+001  5.6212e+000 55156 83757,83835,83809
 3.8000e+000 83884 -5.3389e+001 -6.0141e+001  3.1248e+001 55156 83731,83835,83757
 3.8000e+000 83861 -5.8376e+001 -8.3757e+001  4.7669e+000 55156 83757,83809,83783
 3.8000e+000 84240 -4.3130e+001 -7.9512e+001  6.2521e+000 54652 84093,84145,84119
 3.8000e+000 84217 -3.6626e+001 -7.2279e+001  3.3501e+000 54652 84041,84145,84093
 3.8000e+000 84194 -2.4634e+001 -7.8100e+001  1.9562e+001 54652 84015,84145,84041
 3.8000e+000 84171 -1.0546e+001 -6.2185e+001  5.9157e-002 54652 84041,84093,84067
 3.8000e+000 84618 -2.5719e+001 -7.4052e+001  1.3448e+000 53926 84396,84500,84474
 3.8000e+000 84595 -3.3195e+001 -8.4345e+001 -1.9147e+000 53926 84344,84500,84396
 3.8000e+000 84572 -2.5226e+001 -6.0422e+001  2.9486e+000 53926 84344,84396,84370
 3.8000e+000 84549 -4.2267e+001 -8.1330e+001  2.2581e+000 53926 84396,84474,84422
 3.8000e+000 84526 -6.9076e+001 -9.3545e+001 -5.1717e+000 53926 84422,84474,84448
 3.8000e+000 85350 -5.6713e+001 -1.0799e+002 -3.2893e-001 53586 85373,84880,85088
 3.8000e+000 85327 -6.0050e+001 -1.3706e+002  1.2146e+001 53586 84880,85114,85088
 3.8000e+000 85304 -7.7108e+001 -1.0871e+002  2.2993e+001 53586 85373,85088,85062
 3.8000e+000 85281 -4.7755e+001 -5.4550e+001 -1.1610e+001 53586 85010,85062,85036
 3.8000e+000 85258 -3.9719e+001 -8.0352e+001  2.4571e-001 53586 85445,85010,84958
 3.8000e+000 85235 -3.3973e+001 -7.6244e+001  4.5803e+000 53586 85445,84958,84906
 3.8000e+000 85212 -2.9417e+001 -7.4570e+001 -3.8171e+000 53586 84958,85010,84984
 3.8000e+000 85189 -2.8315e+001 -1.1314e+002  1.1525e+001 53586 84906,84958,84932
 3.8000e+000 85166 -5.8862e+001 -8.5670e+001 -1.6591e+001 53586 84880,85140,85114
 3.8000e+000 85399 -4.1852e+001 -7.9642e+001 -8.5095e+000 53586 84906,84880,85373
 3.8000e+000 85422 -5.5805e+001 -8.4566e+001  6.2987e+000 53586 85517,85373,85062
 3.8000e+000 85471 -3.0343e+001 -5.7875e+001 -8.9063e+000 53586 85062,85010,85445
 3.8000e+000 85494 -4.9543e+001 -7.2589e+001  3.0586e+000 53586 85517,85062,85445
 3.8000e+000 85543 -4.4763e+001 -1.0325e+002  7.2784e+000 53586 84906,85373,85517
 3.8000e+000 85566 -4.2123e+001 -9.4812e+001  5.9031e+000 53586 84906,85517,85445
 3.8000e+000 86072 -2.1005e+001 -1.0548e+002  9.9659e+000 53182 86095,85853,85775
 3.8000e+000 86049 -4.3585e+001 -7.8514e+001  1.9904e+001 53182 86095,85775,85931
 3.8000e+000 86026 -3.9969e+001 -1.0308e+002  4.6567e+001 53182 86167,85879,85853
 3.8000e+000 86003 -6.5858e+000 -1.0624e+002 -1.1564e+001 53182 85775,85827,85801
 3.8000e+000 85980 -4.1283e+001 -1.2271e+002 -1.7459e+001 53182 85775,85853,85827
 3.8000e+000 85957 -6.0932e+001 -8.6765e+001  2.2584e+001 53182 85749,85931,85775
 3.8000e+000 86121 -2.9486e+001 -8.5372e+001  1.9547e+001 53182 86167,85853,86095
 3.8000e+000 86144 -7.9601e+001 -1.0629e+002  7.0025e+000 53182 85905,86095,85931
 3.8000e+000 86193 -4.5391e+001 -1.1926e+002  4.9589e+001 53182 85905,85879,86167
 3.8000e+000 86216 -5.0721e+001 -1.3759e+002  2.2081e+001 53182 85905,86167,86095
 3.8000e+000 86673 -1.5945e+001 -1.0399e+002 -3.0697e+001 52778 86477,86529,86503
 3.8000e+000 86650 -3.2807e+001 -9.7068e+001 -6.5330e+000 52778 86425,86529,86477
 3.8000e+000 86627 -1.8269e+001 -7.8360e+001 -1.8374e+001 52778 86425,86477,86451
 3.8000e+000 86604 -6.0776e+001 -8.6400e+001 -1.0917e+001 52778 86399,86529,86425
 3.8000e+000 86581 -9.3689e+001 -1.0486e+002 -1.3687e+000 52778 86399,86555,86529
 3.8000e+000 87258 -3.9393e+001 -1.8477e+002 -3.5647e+001 52238 87281,86987,86961
 3.8000e+000 87235 -3.1520e+001 -1.4336e+002  7.6001e+000 52238 87281,86961,87117
 3.8000e+000 87212 -2.5272e+001 -8.1035e+001  8.6570e+000 52238 86935,87117,86961
 3.8000e+000 87189 -8.5855e+000 -9.7202e+001  4.8347e+000 52238 87065,87117,87091
 3.8000e+000 87166 -5.7454e+001 -8.7063e+001 -3.3762e+001 52238 86987,87065,87039
 3.8000e+000 87143 -6.4608e+001 -6.6629e+001 -5.2492e+001 52238 86987,87039,87013
 3.8000e+000 87307 -6.0996e+000 -1.0671e+002 -3.3662e+001 52238 87065,86987,87281
 3.8000e+000 87330 -2.0731e+001 -1.1691e+002  1.0790e+001 52238 87065,87281,87117
 3.8000e+000 87610 -3.6494e+001 -9.5048e+001 -4.1669e-002 51834 87434,87512,87460
 3.8000e+000 87587 -6.4852e+001 -9.7240e+001  2.1368e+001 51834 87434,87538,87512
 3.8000e+000 87564 -2.2928e+001 -3.2460e+001  7.0563e+000 51834 87633,87460,87512
 3.8000e+000 87659 -1.9809e+000 -2.3488e+001  7.9671e+000 51834 87486,87460,87633
 3.8000e+000 88187 -3.6277e+001 -9.6293e+001  1.1693e+000 51266 87864,87942,87890
 3.8000e+000 88164 -3.9516e+001 -8.0128e+001 -1.3668e+000 51266 87864,88020,87942
 3.8000e+000 88141 -2.4561e+001 -6.9211e+001  8.5416e+000 51266 87942,88020,87968
 3.8000e+000 88118 -3.8261e+001 -1.1256e+002 -1.1813e+001 51266 87864,88046,88020
 3.8000e+000 88095 -3.4139e+001 -7.4252e+001  4.9123e+000 51266 87968,88020,87994
 3.8000e+000 88072 -3.0722e+001 -1.2447e+002 -1.0617e+001 51266 87890,87942,87916
 3.8000e+000 88644 -9.2592e+001 -8.4782e+001  1.1021e+001 50754 88370,88500,88396
 3.8000e+000 88621 -8.6025e+001 -1.3368e+002  2.1012e+001 50754 88370,88526,88500
 3.8000e+000 88598 -5.4671e+001 -1.2088e+002 -6.0155e+001 50754 88396,88500,88422
 3.8000e+000 88575 -7.7414e+001 -1.8003e+002 -6.1948e+001 50754 88422,88500,88474
 3.8000e+000 88552 -5.3313e+001 -1.2024e+002  4.5506e+001 50754 88422,88474,88448
 3.8000e+000 88914 -1.4458e+001 -3.2644e+001  4.5316e+000 50442 88715,88793,88741
 3.8000e+000 88891 -4.0113e+000 -4.2638e+001  4.0890e+000 50442 88715,88819,88793
 3.8000e+000 88868 -1.3863e+001 -5.6161e+001 -1.7341e+000 50442 88689,88819,88715
 3.8000e+000 88845 -2.6270e+001 -3.2971e+001  1.5430e+001 50442 88741,88793,88767
 3.8000e+000 89294 -6.4400e+000 -6.3832e+001  8.1311e+000 49938 89317,89046,89020
 3.8000e+000 89271 -3.6969e+000 -6.7223e+001  6.5378e+000 49938 89317,89020,89150
 3.8000e+000 89248 -5.5007e-001 -4.7444e+001  1.2303e+001 49938 89072,89150,89098
 3.8000e+000 89225 -1.9301e+000 -7.6481e+001  1.8319e+001 49938 89020,89176,89150
 3.8000e+000 89202 -1.0116e+001 -5.7951e+001  1.6991e+001 49938 89098,89150,89124
 3.8000e+000 89343  7.3109e+000 -3.6860e+001  1.3966e+001 49938 89072,89046,89317
 3.8000e+000 89366 -5.6088e+000 -6.4233e+001  8.7617e+000 49938 89072,89317,89150
 3.8000e+000 89823 -6.2342e+000 -4.8454e+001  3.4611e+000 49384 89601,89705,89679
 3.8000e+000 89800 -1.4141e+001 -4.5459e+001 -7.4530e+000 49384 89549,89705,89601
 3.8000e+000 89777 -1.4167e+001 -9.2409e+001 -2.9954e+000 49384 89549,89601,89575
 3.8000e+000 89754 -3.6125e+001 -4.1036e+001  5.7979e+000 49384 89601,89679,89627
 3.8000e+000 89731 -4.5934e+001 -5.1436e+001  1.9959e+001 49384 89627,89679,89653
 3.8000e+000 90329 -1.8188e+001 -3.1464e+001  2.9559e-001 48894 90058,90110,90084
 3.8000e+000 90306 -1.7987e+001 -3.1518e+001 -6.6738e+000 48894 90058,90162,90110
 3.8000e+000 90283 -5.5349e+000 -3.7319e+001 -3.4888e+000 48894 90032,90162,90058
 3.8000e+000 90260 -2.1004e+001 -4.7451e+001  5.0192e+000 48894 90006,90162,90032
 3.8000e+000 90237 -3.8158e+001 -7.0538e+001  1.1148e+000 48894 90110,90162,90136
 3.8000e+000 90214 -3.1797e+001 -4.5810e+001 -2.7956e+000 48894 90006,90188,90162
 3.8000e+000 90884  1.7993e+000 -3.2289e+001 -3.3318e+000 48490 90564,90642,90616
 3.8000e+000 90861 -9.9272e+000 -2.9347e+001 -5.9130e+000 48490 90564,90694,90642
 3.8000e+000 90838  2.1785e+000 -2.3245e+001 -3.7874e+000 48490 90538,90694,90564
 3.8000e+000 90815 -4.4700e+000 -1.7599e+001 -7.3947e+000 48490 90538,90720,90694
 3.8000e+000 90792  7.3955e+000 -1.4668e+001  9.6990e-002 48490 90564,90616,90590
 3.8000e+000 90769 -1.7585e+001 -5.6330e+001 -1.7114e+001 48490 90642,90694,90668
 3.8000e+000 90746  4.0495e+000 -1.0965e+001  2.6152e-001 48490 90512,90720,90538
 3.8000e+000 91034 -5.0643e+000 -3.6611e+001  1.5755e+001 48086 91057,90959,90933
 3.8000e+000 91011 -3.1302e+000 -2.0794e+001  1.0290e+001 48086 91129,91057,90933
 3.8000e+000 91083  5.1234e-001 -2.4384e+001  8.1708e+000 48086 90985,90959,91057
 3.8000e+000 91106 -4.1369e+000 -1.3851e+001  5.7913e+000 48086 90985,91057,90907
 3.8000e+000 91155 -2.1941e+000 -2.2064e+001  8.5264e+000 48086 90907,91057,91129
 3.8000e+000 91791 -1.9060e+001 -3.4060e+001  4.3244e+001 47518 92030,91814,91523
 3.8000e+000 91768 -5.1487e+001 -7.4646e+001  2.0991e+001 47518 91958,91814,91471
 3.8000e+000 91745 -2.4079e+001 -1.0418e+002  4.3831e+000 47518 91886,91575,91523
 3.8000e+000 91722 -6.1817e+001 -7.8399e+001  1.3997e+000 47518 91958,91471,91419
 3.8000e+000 91699 -5.1349e+000 -4.5517e+001  4.9674e+001 47518 92030,91523,91497
 3.8000e+000 91676 -5.4537e+001 -5.9668e+001  5.4157e+000 47518 91523,91575,91549
 3.8000e+000 91653 -5.3940e+001 -5.4078e+001 -2.6473e+000 47518 91419,91471,91445
 3.8000e+000 91840 -1.0745e+001 -8.2604e+001  3.7892e+001 47518 91886,91523,91814
 3.8000e+000 91863 -1.8947e+001 -7.1764e+001  2.0156e+001 47518 91601,91814,91627
 3.8000e+000 91912 -5.5815e+001 -1.2100e+002 -2.4326e+001 47518 91601,91575,91886
 3.8000e+000 91935 -5.7377e+001 -8.2681e+001  1.0772e+001 47518 91601,91886,91814
 3.8000e+000 91984 -2.4878e+001 -7.8324e+001  2.3976e+001 47518 91627,91814,91958
 3.8000e+000 92007 -4.0207e+001 -7.8594e+001  8.3341e+000 47518 91627,91958,91419
 3.8000e+000 92056 -1.2467e+001 -2.2196e+001  5.3529e+001 47518 91471,91814,92030
 3.8000e+000 92079 -6.2064e-001 -2.9199e+001  6.1048e+001 47518 91471,92030,91497
 3.8000e+000 92229  1.4436e+000  2.5312e+000 -2.2574e+000 47128 92252,92128,92102
 3.8000e+000 92206 -1.0120e+000  2.3508e+000  2.4262e-002 47128 92324,92252,92102
 3.8000e+000 92278  7.7700e-001 -9.2902e-002  3.2159e-001 47128 92454,92252,92154
 3.8000e+000 92301 -1.6008e+000 -1.9746e+000  1.9638e+000 47128 92154,92252,92180
 3.8000e+000 92350 -5.6095e-001 -1.7299e+000 -6.2977e-001 47128 92180,92252,92324
 3.8000e+000 92480 -3.8240e+000  7.8937e-001 -5.1434e-001 47128 92128,92252,92454
 3.8000e+000 93340 -2.4297e+001 -5.6041e+001  6.0970e-001 46838 93363,92977,92873
 3.8000e+000 93317 -1.7929e+001 -5.3564e+001  1.4972e+000 46838 93507,93363,92873
 3.8000e+000 93294 -8.4587e+000 -3.4876e+001  1.3003e+001 46838 93435,93003,92977
 3.8000e+000 93271 -2.9004e+001 -5.3959e+001  2.0602e+000 46838 93507,92873,92847
 3.8000e+000 93248 -1.0208e+001 -5.2311e+001  6.1193e+000 46838 93579,93029,93003
 3.8000e+000 93225 -2.7106e+001 -7.0551e+001  5.5927e+000 46838 92873,92951,92925
 3.8000e+000 93202 -2.4949e+001 -5.7334e+001  8.7654e-001 46838 92873,92977,92951
 3.8000e+000 93179 -7.9254e+000 -6.1031e+001  6.4183e-001 46838 93055,93107,93081
 3.8000e+000 93156 -7.0651e+000 -3.5760e+001  9.5722e+000 46838 92821,93107,92847
 3.8000e+000 93133 -2.0090e+001 -3.8448e+001  1.7806e+000 46838 92873,92925,92899
 3.8000e+000 93389 -1.5820e+001 -4.8240e+001  6.7022e+000 46838 93435,92977,93363
 3.8000e+000 93412 -1.1480e+001 -6.1949e+001  1.8079e+000 46838 93055,93363,93107
 3.8000e+000 93461 -9.7661e+000 -5.2208e+001  6.5091e+000 46838 93579,93003,93435
 3.8000e+000 93484 -8.6210e+000 -6.0381e+001  4.9768e+000 46838 93055,93435,93363
 3.8000e+000 93533 -9.9404e+000 -5.3355e+001 -9.2908e-001 46838 93107,93363,93507
 3.8000e+000 93556 -1.4153e+001 -4.8772e+001 -6.4597e-001 46838 93107,93507,92847
 3.8000e+000 93605 -1.1341e+001 -5.2631e+001  5.8065e+000 46838 93055,93029,93579
 3.8000e+000 93628 -1.0899e+001 -5.2578e+001  6.1756e+000 46838 93055,93579,93435
 3.8000e+000 93979 -3.5641e+001 -2.3420e+001 -9.8970e-001 46476 93780,93884,93858
 3.8000e+000 93956 -2.3433e+001 -1.1949e+001  5.2401e+000 46476 93754,93884,93780
 3.8000e+000 93933 -1.2442e+001  1.8010e+000 -2.1081e+000 46476 93806,93858,93832
 3.8000e+000 93910 -1.7010e+001 -1.5965e+001 -9.0364e-001 46476 93780,93858,93806
 3.8000e+000 94515  2.9836e+000 -5.3475e+001 -3.3985e+000 46072 94345,94397,94371
 3.8000e+000 94492 -6.1018e+001 -8.4168e+001  1.4420e+001 46072 94267,94397,94345
 3.8000e+000 94469 -4.8122e+001 -7.6909e+001  7.3397e+000 46072 94241,94397,94267
 3.8000e+000 94446 -5.0073e+001 -3.4607e+001  2.3202e+001 46072 94293,94345,94319
 3.8000e+000 94423 -4.9017e+001 -5.2310e+001  1.9915e+001 46072 94267,94345,94293
 3.8000e+000 95149 -4.2778e+001 -8.1365e+001  1.8209e+000 45346 94803,94881,94855
 3.8000e+000 95126 -4.7317e+001 -7.1927e+001 -3.3506e+000 45346 94803,94959,94881
 3.8000e+000 95103 -3.4086e+001 -7.7855e+001 -1.7981e+001 45346 95172,94933,94907
 3.8000e+000 95080 -5.3248e+001 -1.5698e+002 -1.0185e+001 45346 95172,94907,94881
 3.8000e+000 95057 -4.7913e+001 -7.2269e+001 -3.4894e+000 45346 94803,94985,94959
 3.8000e+000 95034 -3.1808e+001 -9.0268e+001 -7.2311e+000 45346 94803,94855,94829
 3.8000e+000 95011 -5.5323e+001 -8.5956e+001 -1.1977e+000 45346 94777,94985,94803
 3.8000e+000 95198 -5.8266e+001 -3.9635e+001 -9.2723e+000 45346 94959,94933,95172
 3.8000e+000 95221 -5.1843e+001 -8.3964e+001 -8.0251e+000 45346 94959,95172,94881
 3.8000e+000 95776 -1.4984e+001 -9.6888e+001 -7.8291e-001 44720 95799,95560,95534
 3.8000e+000 95753 -4.4036e+000 -5.5650e+001 -9.9037e+000 44720 95799,95534,95482
 3.8000e+000 95730  6.4414e+000 -1.0630e+002 -9.3296e+000 44720 95943,95871,95430
 3.8000e+000 95707  4.0664e+000 -8.1933e+001 -3.7761e+000 44720 95943,95430,95404
 3.8000e+000 95684 -4.0096e+001 -6.8072e+001 -3.0686e+001 44720 95430,95482,95456
 3.8000e+000 95661 -2.6964e+001 -5.0923e+001  2.3371e+001 44720 95482,95534,95508
 3.8000e+000 95638  4.4313e+000 -3.3766e+001 -2.2682e+001 44720 95404,95612,95586
 3.8000e+000 95825 -6.0978e+000 -1.3708e+002 -1.6848e+001 44720 95586,95560,95799
 3.8000e+000 95848  4.8547e+000 -9.6915e+001 -8.8380e+000 44720 95871,95586,95799
 3.8000e+000 95897  3.8237e-002 -1.1348e+002 -1.7773e+001 44720 95482,95430,95871
 3.8000e+000 95920  2.0003e+000 -9.9662e+001 -5.7761e+000 44720 95482,95871,95799
 3.8000e+000 95969  8.5809e+000 -7.1347e+001 -8.9501e+000 44720 95586,95871,95943
 3.8000e+000 95992  3.8254e+000 -5.4325e+001  1.2037e+000 44720 95586,95943,95404
 3.8000e+000 96449 -3.8217e+001 -1.1102e+002  1.8375e+000 44202 96544,96472,96227
 3.8000e+000 96426 -3.5707e+001 -9.4713e+001  1.3945e+001 44202 96472,96175,96331
 3.8000e+000 96403 -2.2666e+001 -1.2380e+002  4.5057e+000 44202 96544,96227,96201
 3.8000e+000 96380 -5.1775e+001 -1.9567e+002 -5.4037e+001 44202 96253,96305,96279
 3.8000e+000 96357 -8.7592e+001 -1.2006e+002 -2.4206e+001 44202 96227,96305,96253
 3.8000e+000 96498 -3.1645e+001 -9.0736e+001  2.7836e+000 44202 96305,96227,96472
 3.8000e+000 96521 -3.0946e+001 -8.4461e+001  1.5525e+001 44202 96305,96472,96331
 3.8000e+000 96570 -2.6161e+001 -8.8200e+001  8.5245e+000 44202 96175,96472,96544
 3.8000e+000 96593 -1.8112e+001 -1.1016e+002  9.1435e+000 44202 96175,96544,96201
 3.8000e+000 96971 -7.2556e+000 -3.1180e+001 -1.1111e+001 43754 96994,96749,96697
 3.8000e+000 96948  3.5740e+000 -3.4543e+001 -7.6840e+000 43754 96994,96697,96853
 3.8000e+000 96925 -1.2685e+001 -2.1765e+001 -7.3851e+000 43754 96697,96749,96723
 3.8000e+000 96902 -8.3204e-001 -3.8039e+001  1.0857e+001 43754 96775,96853,96827
 3.8000e+000 96879 -3.9631e+000 -6.6510e+001  2.4576e+000 43754 96775,96827,96801
 3.8000e+000 97020 -2.0440e+000 -2.7731e+001 -3.2548e+000 43754 96775,96749,96994
 3.8000e+000 97043  1.0898e+001 -3.2533e+001 -1.4475e+000 43754 96775,96994,96853
 3.8000e+000 97291 -1.3705e+001 -8.7880e+001 -6.0494e+000 43364 97314,97144,97118
 3.8000e+000 97268 -1.7921e+001 -6.3905e+001  4.7181e+000 43364 97314,97118,97092
 3.8000e+000 97245 -5.8061e+000 -5.1700e+001  1.9541e+001 43364 97386,97196,97170
 3.8000e+000 97222 -1.2462e+001 -3.7408e+001  2.1477e+001 43364 97066,97196,97092
 3.8000e+000 97340 -1.2208e+001 -5.1160e+001 -8.3126e+000 43364 97170,97144,97314
 3.8000e+000 97363 -1.1676e+001 -4.3929e+001  1.2992e+001 43364 97386,97170,97314
 3.8000e+000 97412 -1.0014e+001 -5.9667e+001  1.1769e+001 43364 97092,97196,97386
 3.8000e+000 97435 -2.1657e+001 -5.9853e+001  4.1022e+000 43364 97092,97386,97314
 3.8000e+000 97788  5.9135e+000 -5.8010e+001  9.7243e+000 42960 97563,97667,97589
 3.8000e+000 97765 -2.6264e+001 -6.4792e+001  1.5396e+001 42960 97563,97693,97667
 3.8000e+000 97742  1.3694e+001  1.5215e+001  3.3720e+000 42960 97589,97641,97615
 3.8000e+000 97719 -1.4693e+000 -6.5251e+001  6.0567e+000 42960 97589,97667,97641
 3.8000e+000 98215 -3.6921e+000 -3.0156e+001 -4.0534e+000 42563 97918,98074,98048
 3.8000e+000 98192 -7.2232e+000 -2.2115e+001  6.5260e+000 42563 97892,98074,97918
 3.8000e+000 98169 -1.8232e-001 -6.2502e+001 -1.2205e+000 42563 98238,97944,97918
 3.8000e+000 98146 -4.2965e+000 -7.1597e+001  8.4626e+000 42563 98238,97918,98048
 3.8000e+000 98123 -1.0141e+001 -4.5740e+001  4.4414e+000 42563 97944,98022,97996
 3.8000e+000 98100 -1.7533e+001 -6.0123e+001  8.7648e+000 42563 97944,97996,97970
 3.8000e+000 98264 -1.0515e+001 -7.0872e+001  3.3286e+000 42563 98022,97944,98238
 3.8000e+000 98287 -1.0589e+001 -7.4605e+001  1.2072e+001 42563 98022,98238,98048
 3.8000e+000 98616 -2.4510e+001 -4.8060e+001 -6.5677e+000 42251 98443,98521,98469
 3.8000e+000 98593 -3.0570e+001 -4.7291e+001 -2.5689e+000 42251 98417,98521,98443
 3.8000e+000 98570 -4.0630e+001 -7.2032e+001 -1.3991e+001 42251 98391,98521,98417
 3.8000e+000 98547 -1.6971e+001 -4.1257e+001 -1.2851e+001 42251 98469,98521,98495
 3.8000e+000 98886  2.7905e+000 -3.4511e+001 -2.0571e-002 41847 98661,98765,98687
 3.8000e+000 98863 -4.7304e+000 -2.3596e+001 -1.0961e+001 41847 98661,98791,98765
 3.8000e+000 98840  1.1645e+000 -1.8499e+001 -5.5854e-001 41847 98687,98765,98739
 3.8000e+000 98817  9.2833e+000 -1.2365e+001 -4.9004e+000 41847 98687,98739,98713
 3.8000e+000 99394 -1.3906e+001 -5.7078e+001 -2.0437e+000 41236 99417,99149,99123
 3.8000e+000 99371 -6.1386e+001 -7.6191e+001 -6.1302e+000 41236 99417,99123,99097
 3.8000e+000 99348 -4.5102e+001 -5.2364e+001 -3.1214e+001 41236 99489,99201,99149
 3.8000e+000 99325 -7.6292e+000 -2.8627e+001 -1.6253e+001 41236 99149,99201,99175
 3.8000e+000 99302 -2.5034e+001 -1.1202e+002 -2.3795e+000 41236 99097,99253,99227
 3.8000e+000 99279 -7.6995e+001 -1.6673e+002 -2.9860e+001 41236 99071,99253,99097
 3.8000e+000 99443 -2.7960e+001 -6.0616e+001 -2.9189e+001 41236 99489,99149,99417
 3.8000e+000 99466 -4.5090e+001 -7.9862e+001 -2.4002e+001 41236 99227,99417,99097
 3.8000e+000 99515 -5.3815e+001 -6.0589e+001 -2.7155e+001 41236 99227,99201,99489
 3.8000e+000 99538 -4.6929e+001 -7.6781e+001 -2.1880e+001 41236 99227,99489,99417
 3.8000e+000 100044  6.2380e+000 -1.6269e+002  2.2927e+000 40732 99721,99773,99747
 3.8000e+000 100021 -6.7771e+000 -1.7146e+002 -4.7249e+000 40732 99721,99799,99773
 3.8000e+000 99998 -1.5627e+001 -9.6123e+001  3.1195e+000 40732 99721,99903,99799
 3.8000e+000 99975 -2.4617e+001 -8.3661e+001  1.0322e+000 40732 100067,99877,99851
 3.8000e+000 99952 -2.7194e+001 -6.3237e+001  4.8083e+000 40732 100067,99851,99799
 3.8000e+000 99929 -2.3213e+001 -5.4604e+001 -4.6002e+000 40732 99799,99851,99825
 3.8000e+000 100093 -2.4209e+001 -1.0001e+002 -6.1912e+000 40732 99903,99877,100067
 3.8000e+000 100116 -2.5151e+001 -7.5389e+001 -3.9516e+000 40732 99903,100067,99799
 3.8000e+000 100622 -8.2453e+000 -6.1817e+001  7.1976e-001 40278 100645,100455,100429
 3.8000e+000 100599 -2.7150e+001 -4.7246e+001 -3.6532e+000 40278 100717,100645,100429
 3.8000e+000 100576 -2.7427e+001 -4.7456e+001  1.1042e+001 40278 100717,100429,100377
 3.8000e+000 100553 -1.4503e+001 -8.6215e+001 -1.4665e+000 40278 100789,100325,100481
 3.8000e+000 100530 -2.2206e+001 -5.4995e+001  9.3242e+000 40278 100299,100481,100325
 3.8000e+000 100507 -2.9254e+001 -6.6752e+001  1.7906e+000 40278 100377,100429,100403
 3.8000e+000 100671 -1.2033e+001 -7.8238e+001 -4.9294e+000 40278 100481,100455,100645
 3.8000e+000 100694 -1.2029e+001 -7.2851e+001 -2.3924e+000 40278 100789,100481,100645
 3.8000e+000 100743 -1.8496e+001 -2.2618e+001 -1.0488e+001 40278 100351,100645,100717
 3.8000e+000 100766 -2.5900e+001 -2.8822e+001  5.5806e+000 40278 100351,100717,100377
 3.8000e+000 100815 -2.2652e+001 -8.8347e+001 -2.4540e+001 40278 100351,100325,100789
 3.8000e+000 100838 -1.1425e+001 -5.7725e+001 -2.4182e+001 40278 100351,100789,100645
 3.8000e+000 101265 -4.2447e+000 -7.6160e+001  9.7085e+000 39824 101288,101046,100994
 3.8000e+000 101242 -1.5559e+001 -7.7551e+001  3.5357e+000 39824 101288,100994,100968
 3.8000e+000 101219 -1.3309e+001 -8.9584e+001 -1.6911e+000 39824 100942,101124,100968
 3.8000e+000 101196 -2.5698e+001 -1.6802e+002  7.9662e+000 39824 101046,101124,101072
 3.8000e+000 101173 -2.2464e+000 -7.2129e+001  1.5797e+001 39824 100994,101046,101020
 3.8000e+000 101150 -2.7539e+001 -1.4898e+002 -1.3800e+000 39824 101072,101124,101098
 3.8000e+000 101314  2.4257e+000 -7.6480e+001  1.0908e+001 39824 101124,101046,101288
 3.8000e+000 101337 -4.1615e+000 -7.3541e+001  5.7109e+000 39824 101124,101288,100968
 3.8000e+000 101585  4.3631e+000 -3.0841e+001 -8.7611e+000 39070 101608,101464,101412
 3.8000e+000 101562  2.2858e+001 -2.9731e+001  4.5086e+000 39070 101608,101412,101360
 3.8000e+000 101539 -4.2330e+000 -2.3618e+001 -9.4941e-002 39070 101412,101464,101438
 3.8000e+000 101516  1.8517e+001 -1.8850e+001  7.9501e+000 39070 101360,101412,101386
 3.8000e+000 101634 -1.0587e+001 -3.2380e+001 -1.4811e+001 39070 101490,101464,101608
 3.8000e+000 101657  3.9748e+000 -3.0973e+001  1.0628e-001 39070 101490,101608,101360
 3.8000e+000 101856  4.4647e+000 -1.6163e+001 -1.0769e+000 38730 101706,101758,101732
 3.8000e+000 101833  2.1129e-001 -2.3550e+001  1.7935e+000 38730 101706,101784,101758
 3.8000e+000 101810 -2.8704e+000 -2.4165e+001  2.4060e+000 38730 101680,101784,101706
 3.8000e+000 102106 -3.3904e+001 -8.0617e+001  7.2147e+000 38326 101881,101959,101907
 3.8000e+000 102083 -2.4935e+001 -6.8742e+001  5.2646e-001 38326 101881,101985,101959
 3.8000e+000 102060 -1.9252e+001 -8.6455e+001  1.0685e+001 38326 101881,102011,101985
 3.8000e+000 102037 -2.3737e+001 -5.8393e+001 -5.1783e+000 38326 101907,101959,101933
 3.8000e+000 102258  3.1209e+001 -3.4758e+001  6.1275e+000 38036 102281,102157,102131
 3.8000e+000 102235  1.1144e+001 -4.4820e+001  1.0219e+001 38036 102281,102131,102209
 3.8000e+000 102307  5.6383e+000 -2.0581e+001  3.5895e+000 38036 102183,102157,102281
 3.8000e+000 102330 -1.9040e+001 -3.2463e+001  7.2817e+000 38036 102183,102281,102209
 3.8000e+000 102663 -3.0706e+000 -3.0841e+001  8.8830e+000 37596 102438,102542,102464
 3.8000e+000 102640  8.7157e+000 -2.9317e+001  1.0040e+000 37596 102438,102568,102542
 3.8000e+000 102617 -6.0559e+000 -5.7744e+001 -8.1619e+000 37596 102490,102542,102516
 3.8000e+000 102594 -9.4679e+000 -2.9232e+001  6.7224e+000 37596 102464,102542,102490
 3.8000e+000 102862 -1.0524e+001 -5.6920e+001 -5.0628e+000 37192 102686,102764,102712
 3.8000e+000 102839 -6.5835e+000 -5.4366e+001 -9.6102e+000 37192 102686,102790,102764
 3.8000e+000 102816 -1.3746e+001 -5.1317e+001 -7.6435e+000 37192 102712,102764,102738
 3.8000e+000 103110 -5.6984e+000 -3.2905e+001 -1.3906e+001 36609 102911,102963,102937
 3.8000e+000 103087 -5.0992e+000 -5.1810e+001  2.4190e+000 36609 102911,102989,102963
 3.8000e+000 103064  3.5750e+000 -6.3890e+001 -4.5468e+000 36609 102885,102989,102911
 3.8000e+000 103041 -1.1683e+001 -4.1038e+001 -1.9248e+001 36609 102885,103015,102989
 3.8000e+000 103718  8.3677e+000 -1.4601e+002  1.1376e+001 36131 103323,103375,103349
 3.8000e+000 103695 -3.6633e+001 -8.0582e+001 -6.0852e+000 36131 103297,103375,103323
 3.8000e+000 103672 -2.1615e+001 -5.2810e+001 -1.5831e+001 36131 103297,103505,103375
 3.8000e+000 103649 -4.3520e+001 -8.6186e+001  1.1245e+001 36131 103741,103479,103401
 3.8000e+000 103626 -2.6124e+001 -4.5713e+001  1.3139e+001 36131 103741,103401,103375
 3.8000e+000 103603 -4.8017e+001 -9.2627e+001  9.2630e+000 36131 103401,103479,103427
 3.8000e+000 103580 -3.3051e+001 -7.5130e+001  7.8572e-001 36131 103297,103531,103505
 3.8000e+000 103557 -3.5884e+001 -8.4832e+001 -1.7475e+001 36131 103427,103479,103453
 3.8000e+000 103767 -3.5202e+001 -1.1329e+002 -1.9322e+001 36131 103505,103479,103741
 3.8000e+000 103790 -1.9459e+001 -7.7469e+001 -1.6508e+001 36131 103505,103741,103375
 3.8000e+000 103989 -6.4902e+001 -1.0783e+002  1.0245e+001 35791 103839,103917,103891
 3.8000e+000 103966 -9.2240e+001 -1.4987e+002 -3.8592e+000 35791 103813,103917,103839
 3.8000e+000 103943 -2.7799e+001 -7.0437e+001 -9.1872e+000 35791 103839,103891,103865
 3.8000e+000 104188 -4.2953e+000 -3.1732e+001  1.7199e+001 35444 104038,104090,104064
 3.8000e+000 104165 -2.0337e+001 -5.3474e+001 -7.3453e+000 35444 104038,104116,104090
 3.8000e+000 104142 -3.4260e-001 -4.5768e+001 -8.1364e-001 35444 104012,104116,104038
 3.8000e+000 104487 -4.8244e+000 -6.6006e+001 -1.4719e+001 34990 104265,104317,104291
 3.8000e+000 104464 -9.2466e+000 -8.2939e+001  6.7906e+000 34990 104510,104317,104265
 3.8000e+000 104441 -1.0235e+001 -5.5131e+001  1.5963e+001 34990 104510,104265,104213
 3.8000e+000 104418 -6.6088e+000 -5.8035e+001  5.8820e+000 34990 104582,104343,104317
 3.8000e+000 104395 -6.4809e+000 -5.2930e+001 -1.1198e+001 34990 104213,104265,104239
 3.8000e+000 104536 -5.9751e+000 -5.7044e+001  7.8579e+000 34990 104582,104317,104510
 3.8000e+000 104559 -1.4985e+001 -3.8596e+001  1.4630e+001 34990 104369,104510,104213
 3.8000e+000 104608 -1.0289e+001 -5.1795e+001  8.1506e+000 34990 104369,104343,104582
 3.8000e+000 104631 -1.1588e+001 -5.9528e+001  1.1226e+001 34990 104369,104582,104510
 3.8000e+000 104783  1.3483e+001 -2.1866e+001  5.8668e+000 34700 104938,104806,104682
 3.8000e+000 104760  1.1164e+001 -3.0164e+001  6.8063e+000 34700 104938,104682,104656
 3.8000e+000 104832  5.8662e+000 -5.8223e+001 -4.2374e+000 34700 104708,104682,104806
 3.8000e+000 104964  1.1314e+001 -1.9922e+001  1.2747e+001 34700 104734,104806,104938
 3.8000e+000 104987  9.6305e+000 -2.6447e+001  1.3781e+001 34700 104734,104938,104656
 3.8000e+000 105137  8.3050e+000 -1.6329e+001  1.6134e+000 34388 105036,105088,105062
 3.8000e+000 105114  9.1601e+000 -3.9264e+001 -2.1222e+000 34388 105010,105088,105036
 3.8000e+000 105385  1.7885e+000 -4.6499e+001 -2.0145e+001 33734 105408,105186,105160
 3.8000e+000 105362 -4.1101e+000 -4.8618e+001 -1.5956e+001 33734 105408,105160,105264
 3.8000e+000 105339 -2.1217e+001 -6.2072e+001 -1.0234e+001 33734 105160,105290,105264
 3.8000e+000 105316  5.2738e-002 -4.1760e+001 -6.0022e+000 33734 105186,105238,105212
 3.8000e+000 105434 -4.3957e+000 -3.9479e+001 -1.3682e+001 33734 105238,105186,105408
 3.8000e+000 105457 -2.1756e+001 -5.5321e+001 -6.2174e+000 33734 105238,105408,105264
 3.8000e+000 105609  6.8579e+000 -3.1827e+001  1.1402e+000 33394 105482,105534,105508
 3.8000e+000 105586 -4.1818e+000 -4.3709e+001  8.1045e+000 33394 105482,105560,105534
 3.8000e+000 105859 -1.7961e+001 -1.0947e+002 -2.0374e+001 33047 105882,105712,105660
 3.8000e+000 105836  1.7817e+000 -9.0996e+001 -4.9803e+000 33047 105882,105660,105634
 3.8000e+000 105813  1.5134e+001 -1.2943e+002  1.4498e+001 33047 105660,105712,105686
 3.8000e+000 105790 -6.2174e+000 -2.4833e+001  2.1670e+000 33047 105634,105764,105738
 3.8000e+000 105908 -6.6767e+001 -7.8697e+001 -7.4646e+000 33047 105738,105712,105882
 3.8000e+000 105931 -1.7746e+001 -5.8634e+001  1.4600e+001 33047 105738,105882,105634
 3.8000e+000 106181 -9.1356e+000 -7.3168e+001  1.7438e+000 32543 106204,106060,106008
 3.8000e+000 106158  2.4546e+000 -1.1236e+002 -1.1907e+000 32543 105956,106086,106060
 3.8000e+000 106135  2.5409e+000 -2.8991e+001  2.1251e+001 32543 106204,106008,105982
 3.8000e+000 106112 -1.5861e+001 -1.4283e+001  8.2568e+000 32543 106008,106060,106034
 3.8000e+000 106230 -1.1140e+001 -9.1266e+001 -2.1270e+001 32543 105956,106060,106204
 3.8000e+000 106253 -1.1824e+001 -5.4449e+001 -4.5961e+000 32543 105956,106204,105982
 3.8000e+000 106454  3.6025e+001 -3.3719e+001  1.9714e+001 31839 106304,106356,106330
 3.8000e+000 106431  4.1681e+001 -4.9126e+001 -1.3004e+001 31839 106278,106356,106304
 3.8000e+000 106408 -1.8255e+001 -3.7007e+001 -7.3324e+000 31839 106278,106382,106356
 3.8000e+000 106704  1.8483e+000 -6.0609e+001 -6.8452e+000 31534 106505,106583,106557
 3.8000e+000 106681 -1.5013e+001 -6.5049e+001 -4.8187e+000 31534 106479,106583,106505
 3.8000e+000 106658 -1.5076e+001 -2.4618e+001 -1.6180e+001 31534 106505,106557,106531
 3.8000e+000 106635 -2.0273e+000 -5.6064e+001 -1.1803e+001 31534 106479,106609,106583
 3.8000e+000 107108 -5.8119e+001 -8.5710e+001  3.1237e+000 31030 106886,106990,106964
 3.8000e+000 107085 -6.1588e+001 -1.0158e+002  2.1486e+000 31030 106860,106990,106886
 3.8000e+000 107062 -2.3667e+001 -9.7374e+001 -1.3375e+001 31030 106834,106990,106860
 3.8000e+000 107039 -4.6978e+001 -1.0547e+002  1.1679e+001 31030 106912,106964,106938
 3.8000e+000 107016 -4.1503e+001 -7.7775e+001  6.1010e+000 31030 106886,106964,106912
 3.8000e+000 107307  2.3774e+000 -8.8727e+000  9.2050e-001 30718 107330,107157,107131
 3.8000e+000 107284  9.1827e+000 -3.1483e+001  1.4298e+000 30718 107330,107131,107235
 3.8000e+000 107261  1.1146e+001 -9.1935e+000  1.1674e+001 30718 107183,107235,107209
 3.8000e+000 107356  4.9212e+000  1.5853e+001  4.4805e+000 30718 107183,107157,107330
 3.8000e+000 107379  8.0094e+000 -1.1494e+001  4.4945e+000 30718 107183,107330,107235
 3.8000e+000 107759 -1.3657e+000 -1.3924e+001 -4.1942e+000 30264 107782,107615,107537
 3.8000e+000 107736 -5.2295e+000 -2.3229e+001  2.5458e+000 30264 107782,107537,107485
 3.8000e+000 107713 -5.5007e-001 -2.6426e+001  2.3865e+000 30264 107485,107537,107511
 3.8000e+000 107690 -4.4936e-001 -2.8360e+001 -9.0306e+000 30264 107537,107615,107589
 3.8000e+000 107667 -2.1766e+000 -1.9674e+001 -4.8057e+000 30264 107537,107589,107563
 3.8000e+000 107808 -6.6514e+000 -1.8771e+001  2.6225e+000 30264 107641,107615,107782
 3.8000e+000 107831 -7.6341e+000 -2.7710e+001  8.8124e+000 30264 107641,107782,107485
 3.8000e+000 108030 -1.2202e+001 -9.3140e+001 -2.4009e+001 29874 108053,107854,107932
 3.8000e+000 108007 -3.2913e+001 -9.7617e+001 -2.4690e+001 29874 107854,107958,107932
 3.8000e+000 107984  5.2697e+000 -6.0444e+001  1.7776e-001 29874 108053,107932,107906
 3.8000e+000 108079 -2.2835e+001 -5.1987e+001 -1.2667e+001 29874 107880,107854,108053
 3.8000e+000 108102 -1.9351e+001 -2.2228e+001  3.0352e+000 29874 107880,108053,107906
 3.8000e+000 108433  1.1431e+001 -7.8495e+001 -2.9101e+001 29484 108234,108338,108312
 3.8000e+000 108410  3.2294e-001 -6.0080e+001  1.2908e+001 29484 108208,108338,108234
 3.8000e+000 108387 -1.9749e+001 -5.8703e+001 -4.7330e+001 29484 108234,108312,108260
 3.8000e+000 108364  1.0411e+001  4.4471e+001 -1.7239e+001 29484 108260,108312,108286
 3.8000e+000 108762 -2.1042e+001 -6.9104e+001  1.1909e+001 29080 108563,108641,108589
 3.8000e+000 108739 -1.2500e+001 -3.5182e+001  7.1083e+000 29080 108537,108641,108563
 3.8000e+000 108716 -2.3232e+001 -9.5033e+001  9.0850e+000 29080 108589,108641,108615
 3.8000e+000 108693  3.7838e-001 -3.1350e+001  1.2058e+000 29080 108537,108667,108641
 3.8000e+000 109189 -6.6634e+000 -4.2443e+001 -1.7543e+000 28476 108892,108996,108970
 3.8000e+000 109166 -1.2666e+000 -6.3090e+001  5.0853e+000 28476 108892,109022,108996
 3.8000e+000 109143 -3.3151e+001 -3.4768e+001  1.3765e+001 28476 108892,108970,108944
 3.8000e+000 109120  1.4727e+001 -9.0484e+001 -1.5900e+001 28476 108892,109048,109022
 3.8000e+000 109097 -2.1254e+001  1.2602e+000  1.1631e+001 28476 108892,108944,108918
 3.8000e+000 109074  7.2727e+000 -4.3317e+001 -2.6015e+001 28476 108866,109048,108892
 3.8000e+000 109518 -3.3419e+001 -7.8397e+001  1.4777e+001 28022 109541,109371,109345
 3.8000e+000 109495 -3.3447e+001 -7.4359e+001  1.3302e+001 28022 109541,109345,109319
 3.8000e+000 109472 -2.6684e+001 -7.2615e+001  2.5043e+000 28022 109293,109397,109319
 3.8000e+000 109449 -8.5330e+000 -6.6417e+001  3.3167e+000 28022 109293,109423,109397
 3.8000e+000 109567 -3.2238e+001 -7.6899e+001  1.0854e+001 28022 109397,109371,109541
 3.8000e+000 109590 -3.3558e+001 -7.1312e+001  1.0768e+001 28022 109397,109541,109319
 3.8000e+000 109968 -1.2652e+001 -4.8657e+001  2.0165e+001 27568 109798,109850,109824
 3.8000e+000 109945 -1.5537e+000 -5.9110e+001  3.3730e+001 27568 109694,109850,109798
 3.8000e+000 109922  1.7120e+001 -6.2708e+001  3.2346e+001 27568 109694,109798,109746
 3.8000e+000 109899  1.5113e+001 -6.7152e+001  8.6702e+000 27568 109746,109798,109772
 3.8000e+000 109876 -2.3859e+000 -7.6878e+001  6.7336e+000 27568 109694,109746,109720
 3.8000e+000 110167 -1.3549e+001 -7.2966e+001 -3.5398e+001 27007 110017,110095,110069
 3.8000e+000 110144  1.6200e+001 -1.0510e+002 -8.3374e+000 27007 109991,110095,110017
 3.8000e+000 110121 -3.3513e+000 -5.0759e+001 -1.0651e+001 27007 110017,110069,110043
 3.8000e+000 110415 -4.0760e-001 -7.8602e+001 -3.3240e+000 26567 110438,110242,110190
 3.8000e+000 110392 -9.5740e+000 -7.8750e+001 -2.8697e+000 26567 110438,110190,110320
 3.8000e+000 110369 -2.9621e+001 -7.5501e+001 -4.0029e+000 26567 110242,110294,110268
 3.8000e+000 110346 -2.9030e+000 -7.0773e+001  2.2378e+001 26567 110190,110242,110216
 3.8000e+000 110464 -5.0055e+000 -7.7266e+001 -6.8734e+000 26567 110294,110242,110438
 3.8000e+000 110487 -1.2171e+001 -7.8156e+001 -8.3176e+000 26567 110294,110438,110320
 3.8000e+000 110639  6.7895e+000  5.3507e+001  8.5310e+000 26170 110538,110590,110564
 3.8000e+000 110616  1.1132e+001  3.0425e+001  1.3327e+001 26170 110512,110590,110538
 3.8000e+000 111149  5.0602e+000 -1.6953e+001  8.0541e+000 25716 111172,110878,110852
 3.8000e+000 111126  4.5595e+000 -1.4518e+001  6.8857e+000 25716 111172,110852,111008
 3.8000e+000 111103 -1.8743e+000 -2.0685e+001  8.7698e+000 25716 110878,110930,110904
 3.8000e+000 111080  8.8530e+000 -7.0869e+000  1.5287e+001 25716 110826,111008,110852
 3.8000e+000 111057 -1.0076e+001 -4.2511e+001  2.1194e+001 25716 110930,111008,110956
 3.8000e+000 111034 -7.3847e+000 -2.7130e+001  7.8999e+000 25716 110956,111008,110982
 3.8000e+000 111198  5.4521e+000 -1.9054e+001  8.1442e+000 25716 110930,110878,111172
 3.8000e+000 111221  4.8548e+000 -1.6928e+001  6.7634e+000 25716 110930,111172,111008
 3.8000e+000 111420  2.5210e+000 -1.8871e+001  2.4677e-001 25304 111443,111270,111244
 3.8000e+000 111397  2.1633e+000 -3.6722e+001  2.1694e+000 25304 111443,111244,111348
 3.8000e+000 111374 -3.7361e-001 -1.7954e+000  3.4400e+000 25304 111270,111322,111296
 3.8000e+000 111469 -6.2007e-001 -3.6895e+000 -4.2428e-001 25304 111322,111270,111443
 3.8000e+000 111492  9.1815e-001 -1.8577e+001  2.8448e+000 25304 111322,111443,111348
 3.8000e+000 111691 -2.1735e+001 -6.5707e+001  6.8238e+000 24736 111567,111619,111593
 3.8000e+000 111668 -3.1962e+001 -8.2091e+001  1.5543e+000 24736 111541,111619,111567
 3.8000e+000 111645 -2.0572e+001 -7.7735e+001  2.9684e+000 24736 111515,111619,111541
 3.8000e+000 112024  8.6130e-001  1.4850e+001 -4.3527e+000 24146 111825,111877,111851
 3.8000e+000 112001  1.3033e+000  2.9633e+000 -2.0733e-001 24146 111825,111903,111877
 3.8000e+000 111978 -7.0379e-001  8.0295e+000  7.6325e-001 24146 111825,111929,111903
 3.8000e+000 111955 -1.0780e+000  8.4729e-001 -3.8872e+000 24146 111799,111929,111825
 3.8000e+000 112370 -2.4474e+001 -1.2741e+002  2.7650e-001 23856 112393,112151,112125
 3.8000e+000 112347 -1.1677e+001 -1.0801e+002  6.3827e+000 23856 112465,112393,112125
 3.8000e+000 112324 -1.2100e+001 -9.8745e+001  1.2566e+001 23856 112465,112125,112073
 3.8000e+000 112301 -2.7708e+001 -9.9891e+001  1.6810e+001 23856 112073,112125,112099
 3.8000e+000 112278 -6.4242e+001 -1.4883e+002 -2.8201e+001 23856 112047,112229,112073
 3.8000e+000 112255 -1.4595e+001 -1.4517e+002 -3.4083e+001 23856 112151,112203,112177
 3.8000e+000 112419 -2.6916e+001 -1.2019e+002 -9.2020e+000 23856 112203,112151,112393
 3.8000e+000 112442 -2.4966e+001 -1.3160e+002 -1.2217e+001 23856 112203,112393,112229
 3.8000e+000 112491 -2.3819e+001 -1.2004e+002 -1.4246e+001 23856 112229,112393,112465
 3.8000e+000 112514 -1.6805e+001 -9.6625e+001 -7.9141e+000 23856 112229,112465,112073
 3.8000e+000 112784 -1.4909e+001 -8.5488e+001  6.0770e+000 23494 112611,112663,112637
 3.8000e+000 112761 -1.5510e+001 -7.0344e+001  6.9242e+000 23494 112585,112663,112611
 3.8000e+000 112738 -2.5129e+001 -7.4518e+001  4.6178e+000 23494 112559,112663,112585
 3.8000e+000 112715 -9.6946e+000 -4.6799e+001 -2.2934e+000 23494 112559,112689,112663
 3.8000e+000 113117  6.6761e+000  3.1981e+001 -1.2921e+001 22974 112944,113022,112996
 3.8000e+000 113094  1.8674e+001  3.4280e+001 -1.4168e+001 22974 112918,113022,112944
 3.8000e+000 113071  3.6372e+000  2.8856e+001 -8.8653e+000 22974 112944,112996,112970
 3.8000e+000 113048  1.9900e+001  2.4541e+001 -4.9361e+000 22974 112892,113022,112918
 3.8000e+000 113414  4.8005e+000 -2.1254e+001  3.4498e+000 22370 113192,113296,113218
 3.8000e+000 113391  1.7502e+000 -2.0420e+001  3.0150e+000 22370 113140,113296,113192
 3.8000e+000 113368  6.0908e-001 -2.5716e+001  3.0909e+001 22370 113218,113296,113270
 3.8000e+000 113345 -2.9078e+000 -3.9147e+001  3.1955e+001 22370 113218,113270,113244
 3.8000e+000 113322  2.9489e-001 -2.7119e+001 -4.9348e-001 22370 113140,113192,113166
 3.8000e+000 113662  4.1752e+000 -4.0431e+001  2.3133e+001 21916 113685,113515,113489
 3.8000e+000 113639  1.2804e+001 -6.6227e+001  2.1892e+001 21916 113685,113489,113437
 3.8000e+000 113616 -2.5149e+000 -6.0911e+001  8.1958e+000 21916 113757,113567,113541
 3.8000e+000 113593  2.5364e+001 -3.0174e+001  1.8536e+000 21916 113437,113489,113463
 3.8000e+000 113711 -5.0281e+000 -8.3072e+001  3.8363e+001 21916 113541,113515,113685
 3.8000e+000 113734  3.5802e+000 -8.3890e+001  2.1349e+001 21916 113757,113541,113685
 3.8000e+000 113783 -2.2005e+000 -3.5029e+001  1.9064e+001 21916 113437,113567,113757
 3.8000e+000 113806  1.1380e+001 -4.8437e+001  2.4679e+001 21916 113437,113757,113685
 3.8000e+000 114056  2.6072e+000 -1.0616e+002  1.0954e+001 21412 113857,113909,113883
 3.8000e+000 114033  3.0817e+001 -6.1109e+001 -1.5655e+000 21412 114079,113909,113857
 3.8000e+000 114010  1.3820e+001 -7.2341e+001  5.5802e+000 21412 114079,113857,113961
 3.8000e+000 113987 -1.1128e+001 -2.3751e+001  2.6280e+001 21412 113831,113961,113857
 3.8000e+000 114105  1.6548e+001 -4.7113e+001 -1.0396e+001 21412 113935,113909,114079
 3.8000e+000 114128  4.3742e+000 -5.8566e+001 -4.3429e+000 21412 113935,114079,113961
 3.8000e+000 114378 -2.4978e+001 -7.0691e+001 -2.8912e+001 21022 114401,114257,114205
 3.8000e+000 114355 -3.3672e+001 -9.8294e+001 -2.5460e+001 21022 114401,114205,114179
 3.8000e+000 114332  7.6301e+000 -1.2290e+002 -1.4063e+001 21022 114153,114283,114179
 3.8000e+000 114309 -2.8303e+001 -4.8103e+001 -1.9629e+001 21022 114205,114257,114231
 3.8000e+000 114427 -2.3893e+001 -8.1821e+001 -5.9745e+000 21022 114283,114257,114401
 3.8000e+000 114450 -2.9828e+001 -1.0666e+002 -3.2756e+000 21022 114283,114401,114179
 3.8000e+000 114651  8.1100e+001 -5.5332e+001  2.8046e+001 20618 114501,114553,114527
 3.8000e+000 114628  2.8224e+001 -5.7788e+001  3.2549e-001 20618 114501,114579,114553
 3.8000e+000 114605  1.7745e+001 -3.7234e+001  5.6028e+000 20618 114475,114579,114501
 3.8000e+000 114901  2.6342e+001 -7.2563e+001 -5.5805e+000 20114 114676,114780,114702
 3.8000e+000 114878 -7.5372e-001 -8.0711e+001 -7.9333e+000 20114 114676,114806,114780
 3.8000e+000 114855  5.8728e+001 -8.1368e+001 -7.5468e+000 20114 114702,114780,114754
 3.8000e+000 114832  1.4914e+002 -8.0476e+001  1.9110e+001 20114 114702,114754,114728
 3.8000e+000 115053 -3.8203e+001 -1.1910e+002 -2.5453e+000 19460 115147,115076,114926
 3.8000e+000 115030 -2.8175e+001 -1.3114e+002  6.3365e-001 19460 115147,114926,115004
 3.8000e+000 115102 -3.2852e+001 -1.0510e+002 -3.4827e+000 19460 114952,114926,115076
 3.8000e+000 115173 -2.9815e+001 -1.0203e+002  1.0417e+000 19460 114978,115076,115147
 3.8000e+000 115196 -2.0242e+001 -1.1579e+002  4.8625e+000 19460 114978,115147,115004
 3.8000e+000 115446  5.1214e+000 -9.8688e+001 -2.6611e+001 19006 115273,115351,115299
 3.8000e+000 115423  6.5429e+000 -5.5209e+001 -6.8707e+000 19006 115247,115351,115273
 3.8000e+000 115400 -1.1350e+000 -5.7515e+001  1.0758e+000 19006 115221,115351,115247
 3.8000e+000 115377 -1.7569e+001 -1.6387e+002 -2.4877e+001 19006 115299,115351,115325
 3.8000e+000 115767 -4.4086e+001 -9.4987e+001  2.6257e+000 18716 115571,115649,115623
 3.8000e+000 115744 -4.6381e+001 -9.7138e+001  1.0485e+000 18716 115493,115649,115571
 3.8000e+000 115721 -4.8925e+001 -9.6331e+001  2.4939e+000 18716 115493,115571,115545
 3.8000e+000 115698 -4.4023e+001 -9.3498e+001  1.1468e+001 18716 115493,115545,115519
 3.8000e+000 115675 -3.5674e+001 -9.2637e+001  5.0939e-001 18716 115571,115623,115597
 3.8000e+000 116039 -7.4294e+000 -7.3443e+001  1.0805e+001 18312 115814,115892,115840
 3.8000e+000 116016  5.3955e+000 -4.2152e+001  8.7197e+000 18312 115814,115944,115892
 3.8000e+000 115993 -2.2523e+000 -6.0770e+001  4.1593e+000 18312 115892,115944,115918
 3.8000e+000 115970  2.6515e+001 -6.0970e+001  1.0888e+001 18312 115840,115892,115866
 3.8000e+000 116191 -8.6629e+000 -6.8730e+001 -2.9981e+000 18000 116090,116142,116116
 3.8000e+000 116168 -1.3642e-001 -4.6523e+001 -7.0611e-001 18000 116064,116142,116090
 3.8000e+000 116343 -5.6237e+001 -1.1106e+002 -1.9567e+000 17396 116242,116294,116268
 3.8000e+000 116320 -4.9780e+001 -1.1498e+002 -3.8408e+000 17396 116216,116294,116242
 3.8000e+000 116566 -6.2021e+000 -1.6933e+002  2.0435e+001 16942 116390,116468,116442
 3.8000e+000 116543 -2.2478e+001 -1.7019e+002  2.2628e+001 16942 116390,116494,116468
 3.8000e+000 116520 -2.6580e+001 -2.1710e+002  8.1664e+000 16942 116390,116442,116416
 3.8000e+000 116767  1.4359e+001 -6.8793e+001 -3.8072e+000 16438 116790,116643,116617
 3.8000e+000 116744  4.8172e+000 -5.1775e+001 -2.2592e+000 16438 116790,116617,116591
 3.8000e+000 116721  1.6536e+001 -5.7006e+001 -1.2692e+001 16438 116643,116695,116669
 3.8000e+000 116816  1.4123e+001 -5.6069e+001 -9.4485e+000 16438 116695,116643,116790
 3.8000e+000 116839  1.0650e+001 -4.0085e+001 -1.3622e+001 16438 116695,116790,116591
 3.8000e+000 117062 -1.0542e+001 -1.7891e+002 -1.8793e+001 16074 116886,116938,116912
 3.8000e+000 117039 -4.5702e+001 -2.1558e+002  1.3076e+001 16074 116886,116990,116938
 3.8000e+000 117016 -2.7823e+001 -1.6688e+002  1.9988e+001 16074 116938,116990,116964
 3.8000e+000 117214 -1.2431e+001 -9.3302e+001 -8.3549e-002 15649 117087,117139,117113
 3.8000e+000 117191 -6.9693e+000 -9.0988e+001 -2.2003e-001 15649 117087,117165,117139
 3.8000e+000 117317 -1.4284e+001 -1.1668e+002 -2.0755e+000 421 117239,117291,117265
 3.9000e+000 70632 -1.2350e+002 -1.4483e+002 -4.3987e+000 70072 70482,70534,70508
 3.9000e+000 70609 -1.1481e+002 -1.2953e+002 -7.4813e-001 70072 70482,70560,70534
 3.9000e+000 70586 -6.7087e+001 -1.0570e+002 -1.5868e+001 70072 70456,70560,70482
 3.9000e+000 70951 -8.1553e+001 -2.8727e+001  0.0000e+000 69874 70703,70755,70729
 3.9000e+000 70928 -6.5910e+001 -2.1853e+001  1.4446e+000 69874 70703,70781,70755
 3.9000e+000 70905 -6.8674e+001 -2.3442e+001  3.4426e-001 69874 70703,70807,70781
 3.9000e+000 70882 -7.0080e+001 -2.6941e+001  6.0136e-001 69874 70703,70833,70807
 3.9000e+000 70859 -9.1851e+001 -3.6954e+001 -5.0102e+000 69874 70677,70833,70703
 3.9000e+000 71199 -8.2275e+001 -6.7658e+001 -4.5046e+000 69698 71222,71052,71026
 3.9000e+000 71176 -7.3291e+001 -6.0609e+001 -1.1305e+000 69698 71294,71222,71026
 3.9000e+000 71153 -6.9376e+001 -5.9347e+001  9.8891e+000 69698 71294,71026,71000
 3.9000e+000 71130 -8.9195e+001 -6.4684e+001 -8.9030e+000 69698 71366,71104,71078
 3.9000e+000 71248 -8.4243e+001 -6.7156e+001 -2.0786e+000 69698 71078,71052,71222
 3.9000e+000 71271 -8.6331e+001 -6.9623e+001 -4.8074e+000 69698 71366,71078,71222
 3.9000e+000 71320 -9.0467e+001 -6.7040e+001 -1.5276e+000 69698 70974,71222,71294
 3.9000e+000 71343 -9.1301e+001 -6.8814e+001  8.2934e+000 69698 70974,71294,71000
 3.9000e+000 71392 -8.8039e+001 -5.6107e+001 -6.3972e+000 69698 70974,71104,71366
 3.9000e+000 71415 -8.4377e+001 -6.0455e+001 -4.5164e+000 69698 70974,71366,71222
 3.9000e+000 71516 -1.0558e+002 -6.2016e+001  1.3474e+001 69386 71438,71490,71464
 3.9000e+000 71869 -4.0373e+001 -1.0899e+002  1.4972e+001 69188 71644,71748,71670
 3.9000e+000 71846  7.5485e+000 -1.1472e+002  4.0303e+001 69188 71644,71774,71748
 3.9000e+000 71823 -2.6270e+001 -5.7093e+001  1.5658e+001 69188 71670,71748,71722
 3.9000e+000 71800 -6.7231e+001 -1.2530e+002 -1.6783e+000 69188 71670,71722,71696
 3.9000e+000 72019 -1.0597e+002 -2.0646e+002 -2.1317e+001 68990 71918,71970,71944
 3.9000e+000 71996 -8.5041e+001 -2.6316e+002  2.9947e+000 68990 71892,71970,71918
 3.9000e+000 72316 -2.6647e+001 -5.0309e+001 -6.0456e+000 68586 72339,72172,72146
 3.9000e+000 72293 -3.8383e+001 -7.4329e+001 -2.0295e+000 68586 72339,72146,72120
 3.9000e+000 72270 -3.7302e+001 -5.6527e+001  7.8788e+000 68586 72411,72068,72198
 3.9000e+000 72247 -9.7974e+000 -3.1784e+001  1.9110e+001 68586 72042,72198,72068
 3.9000e+000 72224 -2.1532e+001 -7.0493e+001 -7.0756e+000 68586 72068,72120,72094
 3.9000e+000 72365 -4.3143e+001 -5.3303e+001  1.4942e+000 68586 72198,72172,72339
 3.9000e+000 72388 -4.4203e+001 -5.5595e+001  4.9224e+000 68586 72411,72198,72339
 3.9000e+000 72437 -2.3183e+001 -5.3988e+001  1.2466e+001 68586 72120,72068,72411
 3.9000e+000 72460 -3.2471e+001 -5.6236e+001  8.3564e+000 68586 72120,72411,72339
 3.9000e+000 72864 -2.5883e+001 -5.7023e+001 -6.2113e+000 68388 72642,72694,72668
 3.9000e+000 72841 -4.4671e+001 -7.2117e+001  7.6332e+000 68388 72616,72694,72642
 3.9000e+000 72818 -4.4547e+001 -5.9325e+001  3.2585e+000 68388 72616,72720,72694
 3.9000e+000 72795 -6.5973e+001 -8.7255e+001  1.2783e+001 68388 72590,72720,72616
 3.9000e+000 72772 -5.4151e+001 -8.3388e+001  2.3166e+001 68388 72590,72746,72720
 3.9000e+000 73321 -5.9277e+001 -5.1309e+001  3.7748e+000 68048 73073,73203,73177
 3.9000e+000 73298 -5.7283e+001 -4.9746e+001  5.9309e+000 68048 73047,73203,73073
 3.9000e+000 73275 -5.6911e+001 -9.9202e+001 -1.6421e+001 68048 73125,73177,73151
 3.9000e+000 73252 -6.3530e+001 -8.3061e+001  9.0380e+000 68048 73073,73177,73125
 3.9000e+000 73229 -7.1042e+001 -8.6299e+001  5.6000e+000 68048 73073,73125,73099
 3.9000e+000 73640 -9.5179e+001 -6.7464e+001  2.6682e+000 67850 73444,73496,73470
 3.9000e+000 73617 -6.3202e+001 -6.3686e+001 -3.0842e+000 67850 73418,73496,73444
 3.9000e+000 73594 -6.4377e+001 -6.5867e+001 -2.1026e+000 67850 73392,73496,73418
 3.9000e+000 73571 -4.7998e+001 -7.1978e+001  3.0847e+000 67850 73392,73522,73496
 3.9000e+000 73548 -3.8190e+001 -3.8673e+001  8.1370e+000 67850 73366,73522,73392
 3.9000e+000 73790 -8.0588e+001 -1.0741e+002 -2.7784e+000 67602 73689,73741,73715
 3.9000e+000 73767 -6.0505e+001 -5.7573e+001 -2.1688e+000 67602 73663,73741,73689
 3.9000e+000 74040 -7.2967e+001 -1.1670e+002 -1.1939e+001 67290 73841,73945,73919
 3.9000e+000 74017 -5.9948e+001 -1.1848e+002 -1.6038e+001 67290 73815,73945,73841
 3.9000e+000 73994 -6.0217e+001 -6.6303e+001 -1.3955e+001 67290 73841,73919,73867
 3.9000e+000 73971 -5.6993e+001 -6.1563e+001 -8.4331e+000 67290 73867,73919,73893
 3.9000e+000 74143 -4.9857e+001  9.3254e+000 -2.4469e-001 67092 74065,74117,74091
 3.9000e+000 74415 -6.9473e+001 -4.9521e+001 -4.1486e+000 66894 74190,74294,74216
 3.9000e+000 74392 -7.8542e+001 -5.4462e+001  3.7844e+000 66894 74190,74320,74294
 3.9000e+000 74369 -6.5236e+001 -4.3814e+001 -1.6866e+000 66894 74216,74294,74242
 3.9000e+000 74346 -6.1147e+001 -4.4029e+001 -3.5113e+000 66894 74242,74294,74268
 3.9000e+000 75023 -2.6633e+001 -8.6449e+001 -1.9339e+001 66532 74654,74836,74810
 3.9000e+000 75000 -7.5132e+001 -9.5031e+001 -2.2881e+001 66532 74628,74836,74654
 3.9000e+000 74977 -5.3563e+001 -6.4557e+001 -2.9736e+000 66532 74706,74784,74732
 3.9000e+000 74954 -5.2501e+001 -7.3600e+001 -5.0126e-001 66532 74680,74784,74706
 3.9000e+000 74931 -4.0732e+001 -7.0843e+001  6.2111e-001 66532 74680,74810,74784
 3.9000e+000 74908 -6.6844e+001 -8.5642e+001 -1.7340e+001 66532 74654,74810,74680
 3.9000e+000 74885 -6.0028e+001 -1.0346e+002 -2.9019e+001 66532 74602,74836,74628
 3.9000e+000 74862 -5.9338e+001 -8.7928e+001 -1.3528e+000 66532 74732,74784,74758
 3.9000e+000 75222 -5.1727e+001 -7.3060e+001  4.0852e+000 66242 75072,75150,75124
 3.9000e+000 75199 -2.1623e+001 -6.5732e+001 -6.5338e+000 66242 75046,75150,75072
 3.9000e+000 75176 -6.0361e+001 -5.8562e+001 -4.3323e+000 66242 75072,75124,75098
 3.9000e+000 75470 -3.1910e+001  2.2645e+000 -1.6977e+000 65838 75297,75375,75349
 3.9000e+000 75447 -2.8494e+001  1.6079e+001 -2.2039e-001 65838 75271,75375,75297
 3.9000e+000 75424 -2.8737e+001  9.2057e+000  4.2901e+000 65838 75297,75349,75323
 3.9000e+000 75401 -4.7152e+001  4.9117e+000 -5.9903e+000 65838 75245,75375,75271
 3.9000e+000 75671 -5.2676e+001 -2.3142e+001 -2.1708e+000 65640 75495,75573,75521
 3.9000e+000 75648 -4.2743e+001 -1.6377e+001 -7.1786e+000 65640 75495,75599,75573
 3.9000e+000 75625 -4.0359e+001 -5.4733e+000  8.8653e+000 65640 75521,75573,75547
 3.9000e+000 75872 -6.2538e+001 -5.7467e+001 -1.0296e+001 65300 75895,75748,75722
 3.9000e+000 75849 -5.2425e+001 -5.2790e+001 -8.5304e+000 65300 75895,75722,75696
 3.9000e+000 75826 -5.6265e+001 -3.2835e+001 -1.1263e+001 65300 75967,75774,75748
 3.9000e+000 75921 -5.9897e+001 -4.4091e+001 -8.4124e+000 65300 75967,75748,75895
 3.9000e+000 75944 -6.1985e+001 -6.7303e+001 -3.4066e+000 65300 75800,75895,75696
 3.9000e+000 75993 -6.1401e+001 -4.9315e+001 -5.8387e+000 65300 75800,75774,75967
 3.9000e+000 76016 -6.1755e+001 -5.3319e+001 -2.5292e+000 65300 75800,75967,75895
 3.9000e+000 76371 -8.6016e+001 -9.6405e+001  1.5343e+000 64896 76146,76250,76172
 3.9000e+000 76348 -8.3826e+001 -9.4708e+001 -1.2161e+000 64896 76146,76276,76250
 3.9000e+000 76325 -9.1098e+001 -8.5269e+001  3.2324e+000 64896 76172,76250,76198
 3.9000e+000 76302 -5.9083e+000 -4.4899e+001  1.6499e+001 64896 76198,76250,76224
 3.9000e+000 76570 -4.2384e+001 -5.9093e+001 -1.5749e+001 64442 76446,76498,76472
 3.9000e+000 76547 -4.1334e+001 -4.2959e+001 -5.5026e+000 64442 76420,76498,76446
 3.9000e+000 76524 -4.5659e+001 -6.2750e+001 -3.9966e+000 64442 76394,76498,76420
 3.9000e+000 76999 -7.7135e+001 -1.1287e+002  5.8208e+000 63924 77022,76728,76702
 3.9000e+000 76976 -8.7417e+001 -9.4434e+001 -1.6011e+001 63924 77022,76702,76832
 3.9000e+000 76953 -6.7214e+001 -1.2378e+002  1.6085e+001 63924 76728,76806,76754
 3.9000e+000 76930 -8.1746e+001 -7.3754e+001  1.0503e+001 63924 76676,76832,76702
 3.9000e+000 76907 -8.1792e+001 -1.2540e+002  1.3104e+001 63924 76754,76806,76780
 3.9000e+000 76884 -6.5994e+001 -8.8475e+001  6.6454e+000 63924 76676,76858,76832
 3.9000e+000 77048 -7.5914e+001 -1.3939e+002 -6.9410e-001 63924 76806,76728,77022
 3.9000e+000 77071 -9.0099e+001 -1.2614e+002 -2.3337e+001 63924 76806,77022,76832
 3.9000e+000 77449 -5.8173e+001 -8.9216e+001  7.6604e+000 63320 77472,77253,77201
 3.9000e+000 77426 -6.4244e+001 -8.3777e+001  1.5262e+001 63320 77472,77201,77175
 3.9000e+000 77403 -2.6031e+001 -7.5593e+001  6.2615e+000 63320 77175,77305,77279
 3.9000e+000 77380 -2.8476e+001 -5.8380e+001 -1.2072e+001 63320 77201,77253,77227
 3.9000e+000 77357 -4.3049e+001 -7.6867e+001 -1.4328e+001 63320 77175,77331,77305
 3.9000e+000 77498 -4.6260e+001 -7.5777e+001  1.6250e+000 63320 77279,77253,77472
 3.9000e+000 77521 -5.9368e+001 -8.0491e+001  1.1284e+001 63320 77279,77472,77175
 3.9000e+000 77769 -5.2886e+001 -3.0739e+001  4.6643e+000 62816 77570,77622,77596
 3.9000e+000 77746 -5.0482e+001 -3.3728e+001  4.2178e+000 62816 77570,77648,77622
 3.9000e+000 77723 -5.6452e+001 -3.4638e+001 -7.3037e-001 62816 77570,77674,77648
 3.9000e+000 77700 -5.7236e+001 -3.8235e+001 -2.0837e+000 62816 77544,77674,77570
 3.9000e+000 78149 -4.2017e+001 -8.4668e+001  1.8010e+000 62354 77953,78031,78005
 3.9000e+000 78126 -5.8357e+001 -9.4409e+001 -4.1438e+000 62354 77901,78031,77953
 3.9000e+000 78103 -4.8290e+001 -8.9384e+001  7.1727e+000 62354 77875,78031,77901
 3.9000e+000 78080 -6.1227e+001 -1.1271e+002 -6.3397e+000 62354 77901,77953,77927
 3.9000e+000 78057 -2.6206e+001 -5.6869e+001 -1.4627e+001 62354 77953,78005,77979
 3.9000e+000 78606 -4.6255e+001 -7.1911e+001 -1.2391e+001 61950 78384,78436,78410
 3.9000e+000 78583 -4.7583e+001 -6.8469e+001 -6.4534e+000 61950 78358,78436,78384
 3.9000e+000 78560 -4.8129e+001 -7.4008e+001 -3.7139e+000 61950 78358,78488,78436
 3.9000e+000 78537 -3.9626e+001 -7.9179e+001 -1.3497e+001 61950 78436,78488,78462
 3.9000e+000 78514 -4.5802e+001 -5.7220e+001  5.0394e+000 61950 78332,78488,78358
 3.9000e+000 78756 -2.2626e+001 -8.4653e+001 -6.9162e-001 61339 78779,78655,78629
 3.9000e+000 78733 -2.1441e+001 -1.0542e+002 -2.4421e-001 61339 78779,78629,78707
 3.9000e+000 78805 -3.0552e+001 -9.9916e+001  9.5984e+000 61339 78851,78779,78681
 3.9000e+000 78828  8.3816e+000 -8.7144e+001  8.0672e+000 61339 78681,78779,78707
 3.9000e+000 78877 -1.9614e+001 -7.2738e+001  3.7499e+000 61339 78655,78779,78851
 3.9000e+000 79206 -4.4095e+001 -3.3069e+001 -2.4171e+000 60892 79229,79007,78981
 3.9000e+000 79183 -3.7441e+001 -2.1849e+001 -7.7769e+000 60892 79229,78981,79111
 3.9000e+000 79160 -1.7226e+001 -3.4143e+001  4.8048e+000 60892 79301,79033,79007
 3.9000e+000 79137 -9.7984e+000 -1.3242e+001  1.2646e+001 60892 79033,79085,79059
 3.9000e+000 79255 -2.3556e+001 -2.4391e+001 -3.0140e+000 60892 79301,79007,79229
 3.9000e+000 79278 -4.5045e+001 -3.0618e+001 -1.3104e+001 60892 79085,79229,79111
 3.9000e+000 79327 -1.8920e+001 -4.5767e+001 -6.6328e+000 60892 79085,79033,79301
 3.9000e+000 79350 -4.2540e+001 -4.2579e+001 -1.4347e+001 60892 79085,79301,79229
 3.9000e+000 79647 -4.5520e+001 -6.2834e+001 -4.9457e+000 60488 79451,79529,79503
 3.9000e+000 79624 -5.7645e+001 -8.4181e+001  4.5173e+000 60488 79425,79529,79451
 3.9000e+000 79601 -4.9833e+001 -8.6533e+001  3.6983e+000 60488 79373,79529,79425
 3.9000e+000 79578 -7.3597e+001 -8.0376e+001 -1.6003e+001 60488 79373,79425,79399
 3.9000e+000 79555 -6.9592e+000 -7.9969e+001 -1.5341e+000 60488 79451,79503,79477
 3.9000e+000 79870 -2.3856e+001 -1.3605e+000  4.6954e-002 60026 79720,79798,79772
 3.9000e+000 79847 -3.4546e+001 -5.6699e+000 -1.7910e+000 60026 79694,79798,79720
 3.9000e+000 79824 -2.8395e+001 -3.1397e+000 -9.4406e-002 60026 79720,79772,79746
 3.9000e+000 80120 -2.4029e+001 -9.1575e+000  2.7917e-001 59629 79921,80025,79973
 3.9000e+000 80097 -2.2606e+001 -1.3412e+001  1.2972e-001 59629 79895,80025,79921
 3.9000e+000 80074 -2.4829e+001 -9.5704e+000  2.6629e+000 59629 79973,80025,79999
 3.9000e+000 80051 -2.1703e+001 -1.6268e+001  1.9302e+000 59629 79921,79973,79947
 3.9000e+000 80321 -8.4098e+001 -4.6667e+001  1.1201e+001 59125 80344,80171,80145
 3.9000e+000 80298 -6.2032e+001 -4.7668e+001 -1.8359e+000 59125 80344,80145,80249
 3.9000e+000 80275 -1.9666e+001 -7.1658e+001  1.6411e+001 59125 80197,80249,80223
 3.9000e+000 80370 -5.8728e+001 -4.4395e+001  5.9880e+000 59125 80197,80171,80344
 3.9000e+000 80393 -3.8638e+001 -4.7152e+001 -6.7691e+000 59125 80197,80344,80249
 3.9000e+000 80952 -8.5286e+001 -9.7391e+001  1.9915e+001 58557 80975,80632,80606
 3.9000e+000 80929 -3.7555e+001 -6.9451e+001  5.4366e+000 58557 81119,80975,80606
 3.9000e+000 80906 -4.7560e+001 -7.4768e+001  2.7262e+000 58557 81047,80684,80632
 3.9000e+000 80883 -3.3447e+001 -6.6040e+001  2.0850e+001 58557 81119,80606,80580
 3.9000e+000 80860 -2.4582e+001 -1.0455e+002  1.4698e+000 58557 81191,80736,80710
 3.9000e+000 80837 -1.9719e+001 -8.7190e+001 -2.0280e+001 58557 80736,80788,80762
 3.9000e+000 80814 -7.5803e+001 -7.2719e+001  1.6862e+001 58557 80632,80684,80658
 3.9000e+000 81001 -3.9751e+001 -8.1744e+001  7.5579e+000 58557 81047,80632,80975
 3.9000e+000 81024 -1.9874e+001 -8.5681e+001  1.6221e+000 58557 81191,80710,80975
 3.9000e+000 81073 -3.9887e+001 -6.6949e+001  7.8221e+000 58557 80710,80684,81047
 3.9000e+000 81096 -2.9005e+001 -7.3194e+001  1.2439e+001 58557 80710,81047,80975
 3.9000e+000 81145 -2.7777e+001 -4.8433e+001  8.5894e+000 58557 80788,80975,81119
 3.9000e+000 81168 -2.8718e+001 -5.0056e+001  2.1874e+001 58557 80788,81119,80580
 3.9000e+000 81217 -2.5500e+001 -8.6478e+001 -5.1821e+000 58557 80788,80736,81191
 3.9000e+000 81240 -2.6359e+001 -7.7675e+001 -7.1693e+000 58557 80788,81191,80975
 3.9000e+000 81537 -6.9643e+000  9.3383e+000  2.4134e+000 57881 81560,81341,81289
 3.9000e+000 81514 -1.1100e+001  7.7888e+000 -6.1875e+000 57881 81560,81289,81263
 3.9000e+000 81491 -1.4558e+001  4.1454e+000 -4.1357e+000 57881 81632,81419,81367
 3.9000e+000 81468 -1.7225e+001 -3.4482e+000 -9.7166e+000 57881 81367,81419,81393
 3.9000e+000 81445 -2.2021e+001  1.6545e+001  5.2572e+000 57881 81289,81341,81315
 3.9000e+000 81586 -1.4177e+001 -6.7121e+000  9.1726e-001 57881 81367,81341,81560
 3.9000e+000 81609 -1.4591e+001  5.6730e+000 -3.7933e+000 57881 81632,81367,81560
 3.9000e+000 81658 -1.4699e+001 -1.3302e+000 -4.1278e+000 57881 81263,81419,81632
 3.9000e+000 81681 -1.3394e+001  2.2818e+000 -4.4223e+000 57881 81263,81632,81560
 3.9000e+000 81929 -3.6733e+001 -1.4232e+001  3.9055e+000 57477 81704,81808,81782
 3.9000e+000 81906 -3.1499e+001 -1.2842e+001  3.2182e+000 57477 81704,81834,81808
 3.9000e+000 81883 -3.3593e+001 -8.2571e+000  2.6772e+000 57477 81704,81782,81730
 3.9000e+000 81860 -3.2562e+001 -1.0385e+001  3.0433e+000 57477 81730,81782,81756
 3.9000e+000 82488 -4.2684e+001 -1.0624e+002  8.6251e+000 56966 82583,82511,82194
 3.9000e+000 82465 -5.6727e+001 -1.0786e+002  1.8727e+001 56966 82511,82116,82324
 3.9000e+000 82442 -5.6214e+001 -1.0685e+002  1.0567e+001 56966 82583,82194,82168
 3.9000e+000 82419 -1.0291e+000 -7.3160e+001  1.1222e+001 56966 82194,82246,82220
 3.9000e+000 82396 -3.8183e+001 -9.4784e+001 -5.3714e+000 56966 82194,82298,82246
 3.9000e+000 82373 -2.1125e+001 -1.0793e+002 -2.6760e+001 56966 82246,82298,82272
 3.9000e+000 82350 -9.4411e+001 -1.2350e+002  2.2690e+001 56966 82116,82168,82142
 3.9000e+000 82537 -3.3495e+001 -1.0007e+002 -1.1456e-001 56966 82298,82194,82511
 3.9000e+000 82560 -4.4551e+001 -7.3490e+001  1.7161e+001 56966 82298,82511,82324
 3.9000e+000 82609 -5.8149e+001 -1.0353e+002  2.2802e+000 56966 82116,82511,82583
 3.9000e+000 82632 -6.6790e+001 -1.0079e+002  2.8351e+000 56966 82116,82583,82168
 3.9000e+000 83236 -1.6017e+000 -4.8990e+001 -1.1011e+001 56304 82893,82945,82919
 3.9000e+000 83213 -1.8605e+001 -6.7144e+001  7.8169e+000 56304 83259,82945,82893
 3.9000e+000 83190 -1.8580e+001 -7.1127e+001  5.7719e+000 56304 83259,82893,83049
 3.9000e+000 83167 -3.4818e+001 -1.0209e+002  1.9079e+001 56304 82971,83049,83023
 3.9000e+000 83144 -3.7618e+001 -1.0895e+002 -1.1071e+000 56304 82815,83049,82893
 3.9000e+000 83121 -5.2173e+001 -1.1110e+002  8.9654e+000 56304 82815,82893,82867
 3.9000e+000 83098 -2.9229e+001 -8.3499e+001  1.7426e+001 56304 82971,83023,82997
 3.9000e+000 83075 -8.2595e+001 -1.2703e+002 -1.2984e+001 56304 82815,82867,82841
 3.9000e+000 83285 -2.0583e+001 -7.2858e+001  8.1766e+000 56304 82971,82945,83259
 3.9000e+000 83308 -1.8606e+001 -7.3206e+001  5.4863e+000 56304 82971,83259,83049
 3.9000e+000 83556 -1.3066e+001 -2.8279e+001  8.9385e+000 55964 83357,83461,83435
 3.9000e+000 83533 -6.7765e+000 -3.2150e+001  1.0250e+001 55964 83331,83461,83357
 3.9000e+000 83510 -2.8804e+001 -3.6307e+001  1.1734e+001 55964 83357,83435,83383
 3.9000e+000 83487 -3.0183e+001 -3.0926e+001  1.4795e+001 55964 83383,83435,83409
 3.9000e+000 83706 -6.6531e+001 -8.3062e+001  9.1592e+000 55503 83579,83631,83605
 3.9000e+000 83683 -5.5755e+001 -8.2592e+001  7.3848e+000 55503 83579,83657,83631
 3.9000e+000 83907 -6.0538e+001 -4.1877e+001  1.6232e+000 55156 83757,83835,83809
 3.9000e+000 83884 -5.8295e+001 -2.6970e+001  1.8904e+001 55156 83731,83835,83757
 3.9000e+000 83861 -5.3420e+001 -5.7048e+001 -1.2618e+000 55156 83757,83809,83783
 3.9000e+000 84240 -3.6993e+001 -3.8188e+001  5.3059e+000 54652 84093,84145,84119
 3.9000e+000 84217 -3.6173e+001 -4.8029e+001  4.5212e+000 54652 84041,84145,84093
 3.9000e+000 84194 -3.1600e+001 -5.1663e+001  1.1351e+001 54652 84015,84145,84041
 3.9000e+000 84171 -1.8196e+001 -4.2840e+001 -5.3530e+000 54652 84041,84093,84067
 3.9000e+000 84618 -1.1164e+001 -1.8029e+001 -2.9950e+000 53926 84396,84500,84474
 3.9000e+000 84595 -1.5337e+001 -2.2085e+001 -4.8756e+000 53926 84344,84500,84396
 3.9000e+000 84572 -1.0236e+001 -1.1325e+001 -7.1026e+000 53926 84344,84396,84370
 3.9000e+000 84549 -2.0144e+001 -2.2848e+001 -4.0720e-001 53926 84396,84474,84422
 3.9000e+000 84526 -2.5857e+001 -3.3909e+001 -2.2716e+000 53926 84422,84474,84448
 3.9000e+000 85350 -4.8267e+001 -5.6649e+001  1.2227e+001 53586 85373,84880,85088
 3.9000e+000 85327 -6.1684e+001 -6.7182e+001  1.6362e+001 53586 84880,85114,85088
 3.9000e+000 85304 -7.0441e+001 -6.2335e+001  2.3555e+001 53586 85373,85088,85062
 3.9000e+000 85281 -6.3273e+001 -3.9015e+001  2.0695e-001 53586 85010,85062,85036
 3.9000e+000 85258 -4.4588e+001 -4.9367e+001  5.6206e+000 53586 85445,85010,84958
 3.9000e+000 85235 -3.7196e+001 -4.7448e+001  2.6896e+000 53586 85445,84958,84906
 3.9000e+000 85212 -3.8444e+001 -4.4553e+001  3.0880e+000 53586 84958,85010,84984
 3.9000e+000 85189 -3.1988e+001 -4.3928e+001  5.4198e+000 53586 84906,84958,84932
 3.9000e+000 85166 -5.8848e+001 -5.4501e+001  9.8386e+000 53586 84880,85140,85114
 3.9000e+000 85399 -3.8212e+001 -4.4489e+001 -1.2682e+000 53586 84906,84880,85373
 3.9000e+000 85422 -5.4127e+001 -5.1714e+001  6.3011e+000 53586 85517,85373,85062
 3.9000e+000 85471 -4.2478e+001 -4.4244e+001  3.7808e+000 53586 85062,85010,85445
 3.9000e+000 85494 -4.9092e+001 -4.7160e+001  4.3282e+000 53586 85517,85062,85445
 3.9000e+000 85543 -4.5800e+001 -5.9442e+001  7.7003e+000 53586 84906,85373,85517
 3.9000e+000 85566 -4.3160e+001 -5.7088e+001  6.6087e+000 53586 84906,85517,85445
 3.9000e+000 86072 -2.6648e+001 -6.6691e+001  1.0748e+001 53182 86095,85853,85775
 3.9000e+000 86049 -4.0213e+001 -5.4905e+001  1.6816e+001 53182 86095,85775,85931
 3.9000e+000 86026 -3.5677e+001 -6.1950e+001  3.5257e+001 53182 86167,85879,85853
 3.9000e+000 86003 -2.3210e+000 -6.2081e+001 -5.0856e-001 53182 85775,85827,85801
 3.9000e+000 85980 -3.0483e+001 -6.6202e+001  2.7288e+000 53182 85775,85853,85827
 3.9000e+000 85957 -5.7618e+001 -6.3224e+001  1.9580e+001 53182 85749,85931,85775
 3.9000e+000 86121 -3.1131e+001 -5.1316e+001  1.8144e+001 53182 86167,85853,86095
 3.9000e+000 86144 -6.2969e+001 -6.7505e+001  9.5985e+000 53182 85905,86095,85931
 3.9000e+000 86193 -3.9898e+001 -7.2460e+001  3.5478e+001 53182 85905,85879,86167
 3.9000e+000 86216 -4.5270e+001 -8.4756e+001  1.7800e+001 53182 85905,86167,86095
 3.9000e+000 86673 -1.3955e+001 -8.4649e+001 -2.4179e+001 52778 86477,86529,86503
 3.9000e+000 86650 -2.5314e+001 -6.3197e+001 -3.7735e-001 52778 86425,86529,86477
 3.9000e+000 86627 -3.0423e+001 -5.1245e+001 -1.1365e+001 52778 86425,86477,86451
 3.9000e+000 86604 -5.7057e+001 -6.3981e+001 -7.6534e+000 52778 86399,86529,86425
 3.9000e+000 86581 -8.3316e+001 -7.6150e+001 -5.1492e+000 52778 86399,86555,86529
 3.9000e+000 87258 -4.0148e+001 -1.1256e+002 -2.3811e+001 52238 87281,86987,86961
 3.9000e+000 87235 -3.1277e+001 -8.8398e+001 -3.9566e-001 52238 87281,86961,87117
 3.9000e+000 87212 -2.2068e+001 -6.0596e+001  3.1866e+000 52238 86935,87117,86961
 3.9000e+000 87189 -1.0830e+001 -7.4279e+001  1.6095e+000 52238 87065,87117,87091
 3.9000e+000 87166 -3.7657e+001 -5.9951e+001 -1.7048e+001 52238 86987,87065,87039
 3.9000e+000 87143 -4.7860e+001 -5.0389e+001 -2.7558e+001 52238 86987,87039,87013
 3.9000e+000 87307 -2.2327e+001 -6.9953e+001 -1.8202e+001 52238 87065,86987,87281
 3.9000e+000 87330 -2.5802e+001 -7.3454e+001  5.4567e+000 52238 87065,87281,87117
 3.9000e+000 87610 -3.6876e+001 -6.8795e+001  6.3292e+000 51834 87434,87512,87460
 3.9000e+000 87587 -6.3019e+001 -7.2289e+001  2.2737e+001 51834 87434,87538,87512
 3.9000e+000 87564 -3.3280e+001 -2.4724e+001  8.9465e+000 51834 87633,87460,87512
 3.9000e+000 87659 -8.0022e+000 -1.3897e+001  1.0042e+001 51834 87486,87460,87633
 3.9000e+000 88187 -3.6557e+001 -3.0676e+001  1.1041e+000 51266 87864,87942,87890
 3.9000e+000 88164 -4.2571e+001 -4.4184e+001 -1.2620e+000 51266 87864,88020,87942
 3.9000e+000 88141 -3.1480e+001 -3.5932e+001  6.5003e+000 51266 87942,88020,87968
 3.9000e+000 88118 -3.0380e+001 -4.3594e+001 -1.2373e+001 51266 87864,88046,88020
 3.9000e+000 88095 -2.6547e+001 -4.2265e+001  7.7833e+000 51266 87968,88020,87994
 3.9000e+000 88072 -3.4340e+001 -2.8470e+001 -8.9071e-001 51266 87890,87942,87916
 3.9000e+000 88644 -7.8813e+001 -6.5467e+001  1.1007e+001 50754 88370,88500,88396
 3.9000e+000 88621 -7.1916e+001 -1.0349e+002  1.8486e+001 50754 88370,88526,88500
 3.9000e+000 88598 -4.6271e+001 -8.7617e+001 -3.6988e+001 50754 88396,88500,88422
 3.9000e+000 88575 -6.8956e+001 -1.2966e+002 -4.5988e+001 50754 88422,88500,88474
 3.9000e+000 88552 -4.4815e+001 -8.3911e+001  2.9572e+001 50754 88422,88474,88448
 3.9000e+000 88914 -7.9232e+000  1.7414e+001  1.2594e-001 50442 88715,88793,88741
 3.9000e+000 88891 -3.3967e+000  1.1328e+001  2.6408e-001 50442 88715,88819,88793
 3.9000e+000 88868 -1.2195e+001  2.3768e+000 -3.5884e+000 50442 88689,88819,88715
 3.9000e+000 88845 -5.8018e+000  1.6510e+001 -1.9945e+000 50442 88741,88793,88767
 3.9000e+000 89294 -1.0011e-001 -1.0839e+001  4.3166e+000 49938 89317,89046,89020
 3.9000e+000 89271 -2.2001e+000 -9.3902e+000  5.5295e+000 49938 89317,89020,89150
 3.9000e+000 89248  2.6509e+000 -1.3876e+001  6.0452e+000 49938 89072,89150,89098
 3.9000e+000 89225  1.9715e+000  4.0805e-001 -4.4330e+000 49938 89020,89176,89150
 3.9000e+000 89202 -3.9848e+000 -1.4313e+001  1.0717e+001 49938 89098,89150,89124
 3.9000e+000 89343 -8.3039e+000 -2.0663e+001  8.4143e-001 49938 89072,89046,89317
 3.9000e+000 89366 -2.5184e+000 -1.0153e+001  5.1297e+000 49938 89072,89317,89150
 3.9000e+000 89823 -1.9420e+001 -2.3091e+001  4.6193e+000 49384 89601,89705,89679
 3.9000e+000 89800 -2.4221e+001 -2.7475e+001  7.1657e-001 49384 89549,89705,89601
 3.9000e+000 89777 -1.1610e+001 -3.6087e+001 -2.4800e+000 49384 89549,89601,89575
 3.9000e+000 89754 -2.2056e+001 -1.8166e+001  6.5594e+000 49384 89601,89679,89627
 3.9000e+000 89731 -3.1597e+001 -3.1195e+001  1.7234e+001 49384 89627,89679,89653
 3.9000e+000 90329 -2.7084e+001 -1.8277e+001  7.8129e-001 48894 90058,90110,90084
 3.9000e+000 90306 -2.0638e+001 -1.5430e+001  4.0384e+000 48894 90058,90162,90110
 3.9000e+000 90283 -1.6077e+001 -1.2089e+001  5.7647e+000 48894 90032,90162,90058
 3.9000e+000 90260 -9.9490e+000 -1.0732e+001  7.1899e+000 48894 90006,90162,90032
 3.9000e+000 90237 -3.3897e+001 -2.4077e+001  1.1025e+001 48894 90110,90162,90136
 3.9000e+000 90214 -1.2180e+001 -1.0196e+001  5.4429e+000 48894 90006,90188,90162
 3.9000e+000 90884  1.9251e+000 -5.5605e+000  1.7687e+000 48490 90564,90642,90616
 3.9000e+000 90861  1.6352e+000 -3.6204e+000  6.7198e-001 48490 90564,90694,90642
 3.9000e+000 90838  3.6935e+000 -1.0093e+000  3.1090e+000 48490 90538,90694,90564
 3.9000e+000 90815  2.5399e+000  8.0566e+000 -1.9753e+000 48490 90538,90720,90694
 3.9000e+000 90792  2.5444e+000 -4.3738e+000  1.2587e+000 48490 90564,90616,90590
 3.9000e+000 90769  3.9123e+000  3.8143e+000  2.4186e+000 48490 90642,90694,90668
 3.9000e+000 90746  1.0095e+000  5.3256e+000 -3.5972e+000 48490 90512,90720,90538
 3.9000e+000 91034 -2.0917e+000 -1.8872e+001  1.0002e+001 48086 91057,90959,90933
 3.9000e+000 91011 -6.3991e-001 -2.0354e+000  3.2615e+000 48086 91129,91057,90933
 3.9000e+000 91083  5.7230e+000 -5.4967e+000  1.9500e+000 48086 90985,90959,91057
 3.9000e+000 91106 -6.6093e-001  5.6531e+000 -1.2990e+000 48086 90985,91057,90907
 3.9000e+000 91155  7.4801e-001 -3.0165e+000  1.6591e+000 48086 90907,91057,91129
 3.9000e+000 91791 -1.8863e+001 -1.4847e+001  3.0127e+001 47518 92030,91814,91523
 3.9000e+000 91768 -4.0204e+001 -4.4158e+001  1.4626e+001 47518 91958,91814,91471
 3.9000e+000 91745 -1.8659e+001 -5.7861e+001  1.3148e+000 47518 91886,91575,91523
 3.9000e+000 91722 -5.0910e+001 -5.8406e+001  3.5894e+000 47518 91958,91471,91419
 3.9000e+000 91699 -5.1053e+000 -2.5808e+001  3.6382e+001 47518 92030,91523,91497
 3.9000e+000 91676 -4.7337e+001 -1.8760e+001  1.7524e+000 47518 91523,91575,91549
 3.9000e+000 91653 -5.5528e+001 -4.3527e+001  4.6849e+000 47518 91419,91471,91445
 3.9000e+000 91840 -1.0683e+001 -4.5927e+001  2.5434e+001 47518 91886,91523,91814
 3.9000e+000 91863 -1.7983e+001 -5.1882e+001  1.7173e+001 47518 91601,91814,91627
 3.9000e+000 91912 -4.0104e+001 -6.8749e+001 -1.3352e+001 47518 91601,91575,91886
 3.9000e+000 91935 -4.5565e+001 -5.0839e+001  1.2274e+001 47518 91601,91886,91814
 3.9000e+000 91984 -2.4058e+001 -5.6708e+001  2.1696e+001 47518 91627,91814,91958
 3.9000e+000 92007 -3.4360e+001 -6.2944e+001  1.3212e+001 47518 91627,91958,91419
 3.9000e+000 92056 -1.2457e+001 -3.2410e+000  4.0404e+001 47518 91471,91814,92030
 3.9000e+000 92079 -8.6585e-001 -9.9361e+000  4.7730e+001 47518 91471,92030,91497
 3.9000e+000 92229 -1.5432e+000 -1.2550e+000  3.4482e+000 47128 92252,92128,92102
 3.9000e+000 92206 -3.1330e+000 -1.1014e+001  1.8902e+000 47128 92324,92252,92102
 3.9000e+000 92278 -3.5516e+000  2.5019e+000  9.5395e+000 47128 92454,92252,92154
 3.9000e+000 92301  2.5726e+000 -3.3342e+000  2.1271e+000 47128 92154,92252,92180
 3.9000e+000 92350 -1.6139e+001 -1.1565e+001 -9.5152e-001 47128 92180,92252,92324
 3.9000e+000 92480 -1.1166e+001 -4.4741e+000  6.6155e+000 47128 92128,92252,92454
 3.9000e+000 93340 -1.7630e+001 -2.9111e+001  4.1426e+000 46838 93363,92977,92873
 3.9000e+000 93317 -1.4792e+001 -2.8002e+001  4.4729e+000 46838 93507,93363,92873
 3.9000e+000 93294 -1.7460e+001 -1.0627e+001  1.1348e+001 46838 93435,93003,92977
 3.9000e+000 93271 -1.3409e+001 -2.4949e+001  6.0527e+000 46838 93507,92873,92847
 3.9000e+000 93248 -2.5034e+001 -3.9193e+001  1.7349e+001 46838 93579,93029,93003
 3.9000e+000 93225 -1.9704e+001 -2.9291e+001  1.9819e-001 46838 92873,92951,92925
 3.9000e+000 93202 -1.4577e+001 -2.5735e+001  2.7758e+000 46838 92873,92977,92951
 3.9000e+000 93179 -1.4994e+001 -2.1617e+001 -9.0585e-001 46838 93055,93107,93081
 3.9000e+000 93156 -1.2605e+001 -2.4167e+001  1.5853e+000 46838 92821,93107,92847
 3.9000e+000 93133 -2.0548e+001 -2.8780e+001 -1.5963e+000 46838 92873,92925,92899
 3.9000e+000 93389 -1.5992e+001 -2.4749e+001  4.2939e+000 46838 93435,92977,93363
 3.9000e+000 93412 -2.0984e+001 -2.9971e+001  1.8371e+000 46838 93055,93363,93107
 3.9000e+000 93461 -2.6359e+001 -3.1241e+001  1.2978e+001 46838 93579,93003,93435
 3.9000e+000 93484 -1.6479e+001 -2.7757e+001  4.6527e+000 46838 93055,93435,93363
 3.9000e+000 93533 -1.6570e+001 -2.3066e+001  4.4984e+000 46838 93107,93363,93507
 3.9000e+000 93556 -1.6805e+001 -2.1195e+001  4.9037e+000 46838 93107,93507,92847
 3.9000e+000 93605 -1.6854e+001 -3.2190e+001  8.8088e+000 46838 93055,93029,93579
 3.9000e+000 93628 -1.9404e+001 -2.5630e+001  4.5605e+000 46838 93055,93579,93435
 3.9000e+000 93979 -1.2687e+001 -8.5192e-002  1.0465e+000 46476 93780,93884,93858
 3.9000e+000 93956 -7.0342e+000  2.3738e+001  1.3019e+000 46476 93754,93884,93780
 3.9000e+000 93933 -1.0540e+001  2.5581e+000  2.4224e+000 46476 93806,93858,93832
 3.9000e+000 93910 -8.9260e+000 -2.7504e-001  4.4010e+000 46476 93780,93858,93806
 3.9000e+000 94515 -9.3708e+000 -3.8658e+001 -5.0669e+000 46072 94345,94397,94371
 3.9000e+000 94492 -4.9659e+001 -5.8746e+001  9.3086e+000 46072 94267,94397,94345
 3.9000e+000 94469 -3.9087e+001 -5.2538e+001  3.4804e+000 46072 94241,94397,94267
 3.9000e+000 94446 -4.9394e+001 -2.5726e+001  1.9113e+001 46072 94293,94345,94319
 3.9000e+000 94423 -4.2545e+001 -3.7497e+001  1.2653e+001 46072 94267,94345,94293
 3.9000e+000 95149 -3.4681e+001 -5.4101e+001  5.1016e+000 45346 94803,94881,94855
 3.9000e+000 95126 -3.6592e+001 -4.7130e+001  1.4185e+000 45346 94803,94959,94881
 3.9000e+000 95103 -4.7266e+001 -4.3198e+001 -4.3079e+000 45346 95172,94933,94907
 3.9000e+000 95080 -4.4971e+001 -7.6424e+001 -5.7152e+000 45346 95172,94907,94881
 3.9000e+000 95057 -3.2781e+001 -4.4111e+001  2.7690e+000 45346 94803,94985,94959
 3.9000e+000 95034 -2.4840e+001 -6.6025e+001 -3.7983e+000 45346 94803,94855,94829
 3.9000e+000 95011 -2.8936e+001 -3.2389e+001  1.4047e+000 45346 94777,94985,94803
 3.9000e+000 95198 -4.7689e+001 -2.8027e+001  1.6331e-001 45346 94959,94933,95172
 3.9000e+000 95221 -3.7061e+001 -4.9167e+001 -1.8819e+000 45346 94959,95172,94881
 3.9000e+000 95776 -1.3302e+001 -6.2290e+001 -7.6836e-001 44720 95799,95560,95534
 3.9000e+000 95753 -1.0465e+001 -4.2042e+001 -4.6972e+000 44720 95799,95534,95482
 3.9000e+000 95730 -2.6121e+000 -6.5634e+001 -4.6491e+000 44720 95943,95871,95430
 3.9000e+000 95707 -2.8679e+000 -5.4785e+001 -2.0510e+000 44720 95943,95430,95404
 3.9000e+000 95684 -2.6889e+001 -5.3294e+001 -1.1286e+001 44720 95430,95482,95456
 3.9000e+000 95661 -2.0213e+001 -3.5349e+001  2.0514e+001 44720 95482,95534,95508
 3.9000e+000 95638  5.9569e+000 -2.6354e+001 -1.3351e+001 44720 95404,95612,95586
 3.9000e+000 95825 -1.2802e+001 -8.6489e+001 -1.0503e+001 44720 95586,95560,95799
 3.9000e+000 95848 -7.1071e+000 -6.2515e+001 -4.4526e+000 44720 95871,95586,95799
 3.9000e+000 95897 -5.9689e+000 -6.8438e+001 -7.2829e+000 44720 95482,95430,95871
 3.9000e+000 95920 -5.5947e+000 -6.3266e+001 -1.8024e+000 44720 95482,95871,95799
 3.9000e+000 95969 -3.5738e+000 -4.9998e+001 -3.5572e+000 44720 95586,95871,95943
 3.9000e+000 95992 -4.1701e+000 -4.1905e+001  1.0978e+000 44720 95586,95943,95404
 3.9000e+000 96449 -3.4878e+001 -6.7048e+001  3.7016e+000 44202 96544,96472,96227
 3.9000e+000 96426 -3.2990e+001 -5.6275e+001  1.1644e+001 44202 96472,96175,96331
 3.9000e+000 96403 -1.4370e+001 -7.8376e+001  5.5087e+000 44202 96544,96227,96201
 3.9000e+000 96380 -4.4943e+001 -1.4084e+002 -4.3014e+001 44202 96253,96305,96279
 3.9000e+000 96357 -7.3006e+001 -6.9657e+001 -1.8475e+001 44202 96227,96305,96253
 3.9000e+000 96498 -2.9431e+001 -5.3666e+001  2.9810e+000 44202 96305,96227,96472
 3.9000e+000 96521 -3.3081e+001 -5.3302e+001  6.8744e+000 44202 96305,96472,96331
 3.9000e+000 96570 -1.5878e+001 -4.9085e+001  1.1137e+001 44202 96175,96472,96544
 3.9000e+000 96593 -2.0313e+000 -6.8340e+001  9.8457e+000 44202 96175,96544,96201
 3.9000e+000 96971 -6.8533e+000 -4.8539e+000 -2.0897e+000 43754 96994,96749,96697
 3.9000e+000 96948 -3.2864e+000 -8.9719e-001 -4.1097e+000 43754 96994,96697,96853
 3.9000e+000 96925  2.4950e+000 -2.5856e+000 -7.2403e+000 43754 96697,96749,96723
 3.9000e+000 96902 -6.3260e+000 -4.9683e+000  9.5959e+000 43754 96775,96853,96827
 3.9000e+000 96879 -8.0654e+000 -1.2970e+001  7.2752e+000 43754 96775,96827,96801
 3.9000e+000 97020 -7.2654e+000 -1.2976e+001  3.7537e+000 43754 96775,96749,96994
 3.9000e+000 97043  3.3329e-001 -5.7680e+000  6.5739e-001 43754 96775,96994,96853
 3.9000e+000 97291 -2.5286e+000 -4.2126e+001 -1.0236e+000 43364 97314,97144,97118
 3.9000e+000 97268  1.6459e+000 -3.1369e+001  3.7615e+000 43364 97314,97118,97092
 3.9000e+000 97245 -1.2156e+000 -2.4583e+001  7.6332e+000 43364 97386,97196,97170
 3.9000e+000 97222 -1.9149e+000 -1.3303e+001  9.9105e+000 43364 97066,97196,97092
 3.9000e+000 97340 -8.7841e+000 -2.8005e+001  6.6299e-001 43364 97170,97144,97314
 3.9000e+000 97363 -3.2731e+000 -2.3724e+001  6.6732e+000 43364 97386,97170,97314
 3.9000e+000 97412 -1.9273e+000 -2.5424e+001  4.4823e+000 43364 97092,97196,97386
 3.9000e+000 97435 -5.5831e+000 -2.6173e+001  3.3093e+000 43364 97092,97386,97314
 3.9000e+000 97788 -8.2539e-001 -4.0425e+001  8.6874e+000 42960 97563,97667,97589
 3.9000e+000 97765 -3.3615e+001 -5.0496e+001  1.5388e+001 42960 97563,97693,97667
 3.9000e+000 97742  8.2810e+000  9.2471e+000  3.6278e+000 42960 97589,97641,97615
 3.9000e+000 97719 -4.1783e+000 -4.4185e+001  6.7157e+000 42960 97589,97667,97641
 3.9000e+000 98215 -5.7698e+000 -2.6120e-001 -7.2063e+000 42563 97918,98074,98048
 3.9000e+000 98192  3.4520e+000 -1.7030e-001 -6.4273e+000 42563 97892,98074,97918
 3.9000e+000 98169  5.8252e+000  1.7088e+000 -4.0062e+000 42563 98238,97944,97918
 3.9000e+000 98146 -3.9485e+000 -2.1079e+001 -1.2431e+000 42563 98238,97918,98048
 3.9000e+000 98123  3.1376e+000 -8.1478e+000  6.8783e+000 42563 97944,98022,97996
 3.9000e+000 98100 -7.4272e-001 -1.6651e+001  7.3883e+000 42563 97944,97996,97970
 3.9000e+000 98264  1.8038e+000 -1.2793e+001  7.3223e+000 42563 98022,97944,98238
 3.9000e+000 98287 -1.1707e+000 -2.1021e+001  1.0174e+001 42563 98022,98238,98048
 3.9000e+000 98616 -2.0396e+001 -4.0192e+001 -1.4103e+000 42251 98443,98521,98469
 3.9000e+000 98593 -2.3285e+001 -3.1358e+001  1.6783e+000 42251 98417,98521,98443
 3.9000e+000 98570 -2.4847e+001 -3.5432e+001 -2.6990e+000 42251 98391,98521,98417
 3.9000e+000 98547 -1.2746e+001 -3.1388e+001 -1.0770e+001 42251 98469,98521,98495
 3.9000e+000 98886  5.4437e+000  1.7459e+001 -2.8289e+000 41847 98661,98765,98687
 3.9000e+000 98863  1.4845e+000  7.0091e+000  1.5646e+000 41847 98661,98791,98765
 3.9000e+000 98840  2.4742e+000  1.6690e+001 -4.0892e+000 41847 98687,98765,98739
 3.9000e+000 98817  1.4356e+001  2.1857e+001 -4.9920e+000 41847 98687,98739,98713
 3.9000e+000 99394 -1.6212e+001 -3.3264e+001  9.4866e-001 41236 99417,99149,99123
 3.9000e+000 99371 -4.5750e+001 -4.9243e+001 -5.1232e+000 41236 99417,99123,99097
 3.9000e+000 99348 -3.7469e+001 -3.7329e+001 -1.7821e+001 41236 99489,99201,99149
 3.9000e+000 99325 -8.4075e+000 -2.1609e+001 -1.0677e+001 41236 99149,99201,99175
 3.9000e+000 99302 -2.2181e+001 -7.7855e+001  2.8310e-002 41236 99097,99253,99227
 3.9000e+000 99279 -5.3610e+001 -1.1811e+002 -2.1022e+001 41236 99071,99253,99097
 3.9000e+000 99443 -2.7552e+001 -4.1355e+001 -1.6502e+001 41236 99489,99149,99417
 3.9000e+000 99466 -3.6542e+001 -5.3816e+001 -1.6050e+001 41236 99227,99417,99097
 3.9000e+000 99515 -4.3190e+001 -4.1157e+001 -1.6145e+001 41236 99227,99201,99489
 3.9000e+000 99538 -3.8875e+001 -4.9335e+001 -1.3007e+001 41236 99227,99489,99417
 3.9000e+000 100044  8.5608e+000 -9.9230e+001  7.7918e+000 40732 99721,99773,99747
 3.9000e+000 100021 -9.3814e+000 -1.1416e+002 -1.4323e+000 40732 99721,99799,99773
 3.9000e+000 99998 -1.2671e+001 -6.8289e+001  2.2751e+000 40732 99721,99903,99799
 3.9000e+000 99975 -2.4938e+001 -6.2826e+001  2.9203e+000 40732 100067,99877,99851
 3.9000e+000 99952 -2.5866e+001 -4.0571e+001  5.8689e+000 40732 100067,99851,99799
 3.9000e+000 99929 -1.8390e+001 -3.0003e+001 -4.4282e+000 40732 99799,99851,99825
 3.9000e+000 100093 -2.3011e+001 -8.1209e+001 -5.1712e+000 40732 99903,99877,100067
 3.9000e+000 100116 -2.1663e+001 -5.3884e+001 -4.0084e+000 40732 99903,100067,99799
 3.9000e+000 100622 -1.5651e+001 -2.4380e+001  9.3132e-001 40278 100645,100455,100429
 3.9000e+000 100599 -1.9278e+001 -2.5442e+001  1.5147e+000 40278 100717,100645,100429
 3.9000e+000 100576 -1.8367e+001 -2.5112e+001  9.8570e+000 40278 100717,100429,100377
 3.9000e+000 100553 -1.1696e+001 -2.6187e+001  6.3348e-001 40278 100789,100325,100481
 3.9000e+000 100530 -6.4059e+000 -2.3800e+001  1.8014e+000 40278 100299,100481,100325
 3.9000e+000 100507 -2.2933e+001 -3.6524e+001  4.5515e+000 40278 100377,100429,100403
 3.9000e+000 100671 -1.5654e+001 -2.9824e+001 -8.3528e-001 40278 100481,100455,100645
 3.9000e+000 100694 -1.3432e+001 -2.4370e+001 -1.0954e+000 40278 100789,100481,100645
 3.9000e+000 100743 -1.4302e+001 -1.2581e+001 -2.4828e-001 40278 100351,100645,100717
 3.9000e+000 100766 -1.5861e+001 -1.4972e+001  8.7471e+000 40278 100351,100717,100377
 3.9000e+000 100815 -1.0068e+001 -2.5359e+001 -1.7805e+000 40278 100351,100325,100789
 3.9000e+000 100838 -1.0246e+001 -2.1430e+001 -3.6250e+000 40278 100351,100789,100645
 3.9000e+000 101265 -7.0824e+000 -5.0669e+001  1.1254e+001 39824 101288,101046,100994
 3.9000e+000 101242 -1.4498e+001 -4.8124e+001  6.9241e+000 39824 101288,100994,100968
 3.9000e+000 101219 -1.1075e+001 -6.1706e+001 -1.3543e+000 39824 100942,101124,100968
 3.9000e+000 101196 -2.2611e+001 -1.1728e+002  7.7014e+000 39824 101046,101124,101072
 3.9000e+000 101173 -3.5407e+000 -5.0139e+001  1.0053e+001 39824 100994,101046,101020
 3.9000e+000 101150 -2.5401e+001 -1.0163e+002 -5.8530e-002 39824 101072,101124,101098
 3.9000e+000 101314 -2.2584e+000 -4.8701e+001  1.0665e+001 39824 101124,101046,101288
 3.9000e+000 101337 -7.0832e+000 -4.4908e+001  6.5727e+000 39824 101124,101288,100968
 3.9000e+000 101585  9.3461e+000  1.0950e+001 -2.1971e-002 39070 101608,101464,101412
 3.9000e+000 101562  6.5298e+000  1.3270e+001 -2.5182e+000 39070 101608,101412,101360
 3.9000e+000 101539 -8.0364e-001  1.4196e+001  5.6874e+000 39070 101412,101464,101438
 3.9000e+000 101516  7.3128e+000  2.1390e+001 -2.3259e+000 39070 101360,101412,101386
 3.9000e+000 101634  1.0983e+001  1.1936e+001 -5.4331e-001 39070 101490,101464,101608
 3.9000e+000 101657  9.4076e+000  1.5041e+001 -3.3275e+000 39070 101490,101608,101360
 3.9000e+000 101856  8.8003e+000 -7.8174e-001  2.6913e-001 38730 101706,101758,101732
 3.9000e+000 101833  2.7794e+000 -2.7089e+000  1.2987e+000 38730 101706,101784,101758
 3.9000e+000 101810  6.6371e-001 -3.1276e+000  1.7673e+000 38730 101680,101784,101706
 3.9000e+000 102106 -2.0543e+001 -4.2339e+001  8.4158e+000 38326 101881,101959,101907
 3.9000e+000 102083 -1.8227e+001 -3.8901e+001  6.9207e+000 38326 101881,101985,101959
 3.9000e+000 102060 -9.8643e+000 -4.5233e+001  1.1024e+001 38326 101881,102011,101985
 3.9000e+000 102037 -2.1526e+001 -4.3481e+001  8.8073e+000 38326 101907,101959,101933
 3.9000e+000 102258  1.1959e+001 -6.5036e+000  1.0407e+000 38036 102281,102157,102131
 3.9000e+000 102235  4.5121e+000 -7.6352e+000  1.2285e+000 38036 102281,102131,102209
 3.9000e+000 102307  3.6334e+000 -3.6994e+000 -1.1860e-001 38036 102183,102157,102281
 3.9000e+000 102330 -6.0327e+000 -6.4458e+000 -4.5754e-001 38036 102183,102281,102209
 3.9000e+000 102663 -4.8078e+000 -1.6334e+001  1.0323e+001 37596 102438,102542,102464
 3.9000e+000 102640  1.0433e+001 -1.5962e+001 -3.4804e+000 37596 102438,102568,102542
 3.9000e+000 102617 -3.2855e+000 -3.9225e+001 -5.2255e+000 37596 102490,102542,102516
 3.9000e+000 102594 -8.1977e+000 -1.6012e+001  9.1348e+000 37596 102464,102542,102490
 3.9000e+000 102862 -6.3921e+000 -1.9661e+001 -3.3861e+000 37192 102686,102764,102712
 3.9000e+000 102839 -5.6042e+000 -1.7479e+001 -3.3192e+000 37192 102686,102790,102764
 3.9000e+000 102816 -1.2361e+001 -2.4896e+001 -1.1359e+000 37192 102712,102764,102738
 3.9000e+000 103110 -1.2990e+000 -6.7947e+000 -1.7274e+000 36609 102911,102963,102937
 3.9000e+000 103087 -1.1542e+001 -2.0680e+001  8.3934e+000 36609 102911,102989,102963
 3.9000e+000 103064  2.3856e+000 -3.3002e+001  9.9137e-001 36609 102885,102989,102911
 3.9000e+000 103041 -3.1780e+000 -1.6148e+001 -9.3499e+000 36609 102885,103015,102989
 3.9000e+000 103718  2.3234e+000 -5.2953e+001  4.3697e+000 36131 103323,103375,103349
 3.9000e+000 103695 -2.5608e+001 -3.1053e+001 -2.5535e-001 36131 103297,103375,103323
 3.9000e+000 103672 -2.4109e+001 -3.3007e+001 -6.6134e+000 36131 103297,103505,103375
 3.9000e+000 103649 -2.7308e+001 -4.3047e+001  4.8866e+000 36131 103741,103479,103401
 3.9000e+000 103626 -1.8042e+001 -2.1732e+001  1.0285e+001 36131 103741,103401,103375
 3.9000e+000 103603 -2.5744e+001 -4.6606e+001  5.2948e+000 36131 103401,103479,103427
 3.9000e+000 103580 -2.3064e+001 -4.3906e+001  3.3803e+000 36131 103297,103531,103505
 3.9000e+000 103557 -1.8984e+001 -4.2294e+001 -9.8080e+000 36131 103427,103479,103453
 3.9000e+000 103767 -2.8061e+001 -5.8957e+001 -1.0946e+001 36131 103505,103479,103741
 3.9000e+000 103790 -1.8853e+001 -3.9639e+001 -5.0761e+000 36131 103505,103741,103375
 3.9000e+000 103989 -4.3693e+001 -5.9991e+001  6.1680e+000 35791 103839,103917,103891
 3.9000e+000 103966 -5.9232e+001 -9.4639e+001 -4.1616e+000 35791 103813,103917,103839
 3.9000e+000 103943 -2.2562e+001 -3.4643e+001 -7.6375e+000 35791 103839,103891,103865
 3.9000e+000 104188 -1.2191e+000 -3.1890e-001  1.9763e+001 35444 104038,104090,104064
 3.9000e+000 104165 -6.5599e+000 -1.4092e+001  9.5245e-001 35444 104038,104116,104090
 3.9000e+000 104142 -7.4731e-001 -9.6369e+000  3.1405e+000 35444 104012,104116,104038
 3.9000e+000 104487 -3.8932e+000 -2.7274e+001 -3.9419e+000 34990 104265,104317,104291
 3.9000e+000 104464 -6.8944e+000 -3.1048e+001  1.5099e+000 34990 104510,104317,104265
 3.9000e+000 104441  1.6095e+000 -2.3856e+001  4.5901e+000 34990 104510,104265,104213
 3.9000e+000 104418 -1.1751e+001 -2.3895e+001  8.1523e+000 34990 104582,104343,104317
 3.9000e+000 104395  2.7960e+000 -2.3873e+001 -6.7984e+000 34990 104213,104265,104239
 3.9000e+000 104536 -1.2062e+001 -2.4082e+001  5.4535e+000 34990 104582,104317,104510
 3.9000e+000 104559 -5.6798e+000 -1.7323e+001  5.3871e+000 34990 104369,104510,104213
 3.9000e+000 104608 -5.8081e+000 -2.4333e+001  8.2690e+000 34990 104369,104343,104582
 3.9000e+000 104631 -7.0497e+000 -2.1929e+001  4.2137e+000 34990 104369,104582,104510
 3.9000e+000 104783  6.3942e+000 -4.2334e+000  9.7080e+000 34700 104938,104806,104682
 3.9000e+000 104760  1.2666e+001  2.7388e+000  1.4369e+001 34700 104938,104682,104656
 3.9000e+000 104832  1.6012e-001 -3.2031e+001  1.8515e+000 34700 104708,104682,104806
 3.9000e+000 104964  1.4964e+000 -8.8191e+000  3.3401e+000 34700 104734,104806,104938
 3.9000e+000 104987  6.8145e+000 -3.5557e+000  7.7823e+000 34700 104734,104938,104656
 3.9000e+000 105137  6.4147e+000  1.6457e+001  9.5066e-001 34388 105036,105088,105062
 3.9000e+000 105114  9.1199e+000  1.1176e+001  6.6952e-001 34388 105010,105088,105036
 3.9000e+000 105385 -1.3312e+000 -2.3922e+001 -8.2605e+000 33734 105408,105186,105160
 3.9000e+000 105362 -4.2270e+000 -2.4618e+001 -6.1421e+000 33734 105408,105160,105264
 3.9000e+000 105339 -7.7377e+000 -1.9492e+001 -7.9139e+000 33734 105160,105290,105264
 3.9000e+000 105316 -2.2144e-001 -2.1766e+001 -2.2391e+000 33734 105186,105238,105212
 3.9000e+000 105434 -4.3582e+000 -2.1475e+001 -5.8470e+000 33734 105238,105186,105408
 3.9000e+000 105457 -1.2351e+001 -2.7757e+001 -2.4309e+000 33734 105238,105408,105264
 3.9000e+000 105609  1.1842e+001  1.4332e+001 -1.8527e+000 33394 105482,105534,105508
 3.9000e+000 105586  1.4867e+000  5.3652e+000  2.9325e+000 33394 105482,105560,105534
 3.9000e+000 105859 -1.1375e+000 -4.2949e+001 -1.7437e+001 33047 105882,105712,105660
 3.9000e+000 105836  9.0516e+000 -3.0814e+001 -5.7735e+000 33047 105882,105660,105634
 3.9000e+000 105813  3.1856e+001 -5.5800e+001  9.2807e+000 33047 105660,105712,105686
 3.9000e+000 105790  1.8393e+000  6.9329e+000 -7.8500e-001 33047 105634,105764,105738
 3.9000e+000 105908 -2.6947e+001 -2.0445e+001 -1.1146e+001 33047 105738,105712,105882
 3.9000e+000 105931 -1.4091e+000 -1.0204e+001  5.3404e+000 33047 105738,105882,105634
 3.9000e+000 106181 -4.5676e+000 -2.7518e+001  2.4933e+000 32543 106204,106060,106008
 3.9000e+000 106158  1.2009e+000 -4.5916e+001  9.5420e-001 32543 105956,106086,106060
 3.9000e+000 106135  1.3738e+000 -7.3671e+000  9.7312e+000 32543 106204,106008,105982
 3.9000e+000 106112 -6.3904e+000 -9.0069e-001  5.8819e+000 32543 106008,106060,106034
 3.9000e+000 106230 -4.2591e+000 -3.5579e+001 -8.4277e+000 32543 105956,106060,106204
 3.9000e+000 106253 -3.1299e+000 -1.8495e+001 -2.4073e+000 32543 105956,106204,105982
 3.9000e+000 106454  2.9915e+001 -1.8304e+000  1.1872e+001 31839 106304,106356,106330
 3.9000e+000 106431  3.5129e+001 -7.9254e+000 -4.7912e+000 31839 106278,106356,106304
 3.9000e+000 106408 -9.0593e+000  1.0133e+001 -2.7556e+000 31839 106278,106382,106356
 3.9000e+000 106704  5.8821e-001 -3.3421e+001 -4.8980e+000 31534 106505,106583,106557
 3.9000e+000 106681 -7.9283e+000 -3.5163e+001 -3.2761e+000 31534 106479,106583,106505
 3.9000e+000 106658 -5.3396e+000 -1.1155e+001 -1.1230e+001 31534 106505,106557,106531
 3.9000e+000 106635 -6.5403e-001 -3.0643e+001 -6.4067e+000 31534 106479,106609,106583
 3.9000e+000 107108 -3.5599e+001 -4.6151e+001  2.8664e+000 31030 106886,106990,106964
 3.9000e+000 107085 -3.7571e+001 -5.5739e+001  2.3325e+000 31030 106860,106990,106886
 3.9000e+000 107062 -2.2220e+001 -5.6866e+001 -8.1153e+000 31030 106834,106990,106860
 3.9000e+000 107039 -2.4856e+001 -5.2390e+001  7.0184e+000 31030 106912,106964,106938
 3.9000e+000 107016 -2.2626e+001 -4.0237e+001  4.3600e+000 31030 106886,106964,106912
 3.9000e+000 107307  5.0072e+000  1.3661e+001  1.0934e+000 30718 107330,107157,107131
 3.9000e+000 107284  6.5102e+000  4.9127e+000  1.6125e+000 30718 107330,107131,107235
 3.9000e+000 107261  6.8495e+000  1.4409e+001  5.8724e+000 30718 107183,107235,107209
 3.9000e+000 107356  4.9227e+000  2.3034e+001  2.1379e+000 30718 107183,107157,107330
 3.9000e+000 107379  5.0331e+000  1.2478e+001  2.5395e+000 30718 107183,107330,107235
 3.9000e+000 107759  2.8051e+000  9.0217e+000 -3.3037e+000 30264 107782,107615,107537
 3.9000e+000 107736 -4.6980e-001  9.1773e-001  6.0888e+000 30264 107782,107537,107485
 3.9000e+000 107713  4.9753e+000  1.1496e+001  2.7516e+000 30264 107485,107537,107511
 3.9000e+000 107690  3.6988e+000  1.2141e+001 -1.3085e+000 30264 107537,107615,107589
 3.9000e+000 107667 -1.2678e+000  1.3168e+001 -1.1503e+000 30264 107537,107589,107563
 3.9000e+000 107808 -5.9178e+000  3.5583e+000  1.4252e+000 30264 107641,107615,107782
 3.9000e+000 107831 -4.7937e+000 -3.2017e+000  1.0321e+001 30264 107641,107782,107485
 3.9000e+000 108030 -4.1194e+000 -5.5084e+001 -1.5397e+001 29874 108053,107854,107932
 3.9000e+000 108007 -1.8702e+001 -5.5363e+001 -1.7944e+001 29874 107854,107958,107932
 3.9000e+000 107984  2.4760e+000 -3.4432e+001  1.0999e+000 29874 108053,107932,107906
 3.9000e+000 108079 -9.0714e+000 -2.8844e+001 -9.3090e+000 29874 107880,107854,108053
 3.9000e+000 108102 -9.3828e+000 -8.4215e+000  1.6153e+000 29874 107880,108053,107906
 3.9000e+000 108433  1.3652e+001 -4.0663e+001 -1.1893e+001 29484 108234,108338,108312
 3.9000e+000 108410  1.2966e+000 -3.2563e+001  1.1864e+001 29484 108208,108338,108234
 3.9000e+000 108387 -1.2541e+001 -2.1837e+001 -2.8883e+001 29484 108234,108312,108260
 3.9000e+000 108364  2.0323e+001  5.7881e+001 -4.2399e+000 29484 108260,108312,108286
 3.9000e+000 108762 -1.9711e+001 -4.0411e+001  1.1546e+001 29080 108563,108641,108589
 3.9000e+000 108739 -1.0008e+001 -2.0412e+001  1.4513e+001 29080 108537,108641,108563
 3.9000e+000 108716 -1.6957e+001 -5.3544e+001  7.4330e+000 29080 108589,108641,108615
 3.9000e+000 108693  8.2292e-001 -1.9470e+001  9.2443e-001 29080 108537,108667,108641
 3.9000e+000 109189 -4.0665e+000  2.9396e+000  1.6471e+000 28476 108892,108996,108970
 3.9000e+000 109166  3.5405e+000 -2.3922e+001  1.0599e+001 28476 108892,109022,108996
 3.9000e+000 109143 -2.8650e+001 -2.6806e+000  1.4876e+001 28476 108892,108970,108944
 3.9000e+000 109120 -3.0163e+000 -5.0374e+001 -6.0808e+000 28476 108892,109048,109022
 3.9000e+000 109097 -1.7427e+001  2.1592e+001  1.7946e+001 28476 108892,108944,108918
 3.9000e+000 109074 -6.7612e+000 -3.3430e+001 -1.0316e+001 28476 108866,109048,108892
 3.9000e+000 109518 -2.1910e+001 -4.1546e+001  8.0964e+000 28022 109541,109371,109345
 3.9000e+000 109495 -2.1279e+001 -3.9441e+001  8.0106e+000 28022 109541,109345,109319
 3.9000e+000 109472 -1.6892e+001 -3.7555e+001  1.0189e+000 28022 109293,109397,109319
 3.9000e+000 109449 -9.7943e+000 -3.5970e+001  2.4624e+000 28022 109293,109423,109397
 3.9000e+000 109567 -2.3922e+001 -4.1632e+001  5.1151e+000 28022 109397,109371,109541
 3.9000e+000 109590 -2.2253e+001 -3.7269e+001  5.9927e+000 28022 109397,109541,109319
 3.9000e+000 109968 -5.8853e+000 -9.6443e+000  1.5145e+001 27568 109798,109850,109824
 3.9000e+000 109945 -4.1348e+000 -9.1065e+000  1.6601e+001 27568 109694,109850,109798
 3.9000e+000 109922  2.6395e+001 -2.4930e+001  1.7125e+001 27568 109694,109798,109746
 3.9000e+000 109899  3.0066e+001 -2.4118e+001  1.3649e+001 27568 109746,109798,109772
 3.9000e+000 109876  2.3067e+001 -2.1005e+001  8.4798e+000 27568 109694,109746,109720
 3.9000e+000 110167 -5.8112e+000 -2.9959e+001 -2.3135e+001 27007 110017,110095,110069
 3.9000e+000 110144  1.1360e+001 -5.4878e+001 -6.2015e+000 27007 109991,110095,110017
 3.9000e+000 110121 -2.1065e+000 -1.1323e+001 -6.7950e-002 27007 110017,110069,110043
 3.9000e+000 110415 -2.4742e+000 -4.8563e+001  2.0707e-001 26567 110438,110242,110190
 3.9000e+000 110392 -7.5307e+000 -4.9065e+001  6.1510e-001 26567 110438,110190,110320
 3.9000e+000 110369 -2.3073e+001 -4.3060e+001  2.3175e+000 26567 110242,110294,110268
 3.9000e+000 110346 -4.0198e+000 -4.3517e+001  1.6566e+001 26567 110190,110242,110216
 3.9000e+000 110464 -5.0577e+000 -4.7890e+001 -1.7668e+000 26567 110294,110242,110438
 3.9000e+000 110487 -8.8771e+000 -4.8535e+001 -2.3662e+000 26567 110294,110438,110320
 3.9000e+000 110639  9.1701e+000  6.7652e+001  1.4146e+001 26170 110538,110590,110564
 3.9000e+000 110616  1.0066e+001  4.3321e+001  1.7052e+001 26170 110512,110590,110538
 3.9000e+000 111149  6.2165e+000 -6.3809e+000  1.0999e+001 25716 111172,110878,110852
 3.9000e+000 111126  3.1288e+000  9.3674e-001  7.4796e+000 25716 111172,110852,111008
 3.9000e+000 111103 -5.5272e+000 -2.1436e+001  5.5569e+000 25716 110878,110930,110904
 3.9000e+000 111080  8.9324e+000  4.0721e+000  8.9375e+000 25716 110826,111008,110852
 3.9000e+000 111057 -6.5972e+000 -1.9409e+001  1.7133e+001 25716 110930,111008,110956
 3.9000e+000 111034 -5.1923e+000 -1.8259e+001  1.5709e+001 25716 110956,111008,110982
 3.9000e+000 111198  5.9013e+000 -1.2078e+001  1.0679e+001 25716 110930,110878,111172
 3.9000e+000 111221  2.0597e+000 -6.0476e+000  6.5048e+000 25716 110930,111172,111008
 3.9000e+000 111420  1.0051e+000  1.4804e-001  1.1118e+000 25304 111443,111270,111244
 3.9000e+000 111397  4.6178e-001 -1.2354e+001  2.5411e+000 25304 111443,111244,111348
 3.9000e+000 111374  4.5087e-001  1.0069e+001 -1.2641e+000 25304 111270,111322,111296
 3.9000e+000 111469 -1.4124e+000  1.0632e+001  5.5673e-001 25304 111322,111270,111443
 3.9000e+000 111492 -6.9714e-001  1.4875e-001  2.9081e+000 25304 111322,111443,111348
 3.9000e+000 111691 -1.2372e+001 -3.3958e+001  3.3732e+000 24736 111567,111619,111593
 3.9000e+000 111668 -1.7183e+001 -4.0808e+001  5.1254e-001 24736 111541,111619,111567
 3.9000e+000 111645 -1.0362e+001 -3.9228e+001  7.5841e-001 24736 111515,111619,111541
 3.9000e+000 112024  1.0450e+000 -1.9601e+000 -3.3045e+000 24146 111825,111877,111851
 3.9000e+000 112001  4.2162e+000 -3.9800e+000  3.3332e-001 24146 111825,111903,111877
 3.9000e+000 111978 -3.9783e-001  4.0603e+000  2.5625e+000 24146 111825,111929,111903
 3.9000e+000 111955  4.9915e+000  4.8820e+000  2.4195e+000 24146 111799,111929,111825
 3.9000e+000 112370 -1.4852e+001 -6.2162e+001  1.0685e+000 23856 112393,112151,112125
 3.9000e+000 112347 -6.0321e+000 -5.6355e+001  7.4802e+000 23856 112465,112393,112125
 3.9000e+000 112324 -6.4550e+000 -5.0490e+001  1.1620e+001 23856 112465,112125,112073
 3.9000e+000 112301 -1.1803e+001 -5.4027e+001  1.3501e+001 23856 112073,112125,112099
 3.9000e+000 112278 -3.7524e+001 -7.8718e+001 -1.2948e+001 23856 112047,112229,112073
 3.9000e+000 112255 -9.3482e+000 -6.4230e+001 -1.3597e+001 23856 112151,112203,112177
 3.9000e+000 112419 -2.0267e+001 -6.2950e+001 -2.8399e-001 23856 112203,112151,112393
 3.9000e+000 112442 -1.4376e+001 -7.6592e+001 -3.4297e+000 23856 112203,112393,112229
 3.9000e+000 112491 -1.4071e+001 -6.4085e+001 -5.4036e+000 23856 112229,112393,112465
 3.9000e+000 112514 -9.8050e+000 -4.9385e+001 -1.1539e+000 23856 112229,112465,112073
 3.9000e+000 112784 -1.5113e+001 -3.9244e+001  1.0880e-001 23494 112611,112663,112637
 3.9000e+000 112761 -1.2875e+001 -3.1650e+001  1.4020e+000 23494 112585,112663,112611
 3.9000e+000 112738 -1.7079e+001 -3.3469e+001  3.8583e-001 23494 112559,112663,112585
 3.9000e+000 112715 -1.0498e+001 -2.1808e+001 -2.6687e+000 23494 112559,112689,112663
 3.9000e+000 113117  1.5696e+001  3.3830e+001 -1.9184e+001 22974 112944,113022,112996
 3.9000e+000 113094  1.2160e+001  4.0610e+001 -2.1820e+001 22974 112918,113022,112944
 3.9000e+000 113071  1.0305e+001  3.1208e+001 -8.9419e+000 22974 112944,112996,112970
 3.9000e+000 113048  2.2277e+001  3.3072e+001  1.8210e+000 22974 112892,113022,112918
 3.9000e+000 113414  7.2182e-001 -1.4800e+001  4.1068e+000 22370 113192,113296,113218
 3.9000e+000 113391 -4.2104e+000 -9.5691e+000  4.1928e+000 22370 113140,113296,113192
 3.9000e+000 113368  7.5586e+000  5.5700e+000  2.7439e+001 22370 113218,113296,113270
 3.9000e+000 113345  7.8689e+000 -2.8350e+000  3.0617e+001 22370 113218,113270,113244
 3.9000e+000 113322 -3.8633e+000 -9.8045e+000  2.8574e+000 22370 113140,113192,113166
 3.9000e+000 113662  2.7568e+000 -2.6414e+001  1.5969e+001 21916 113685,113515,113489
 3.9000e+000 113639  1.4990e+001 -3.4206e+001  1.8142e+001 21916 113685,113489,113437
 3.9000e+000 113616 -4.2368e-002 -3.0005e+001  8.6795e+000 21916 113757,113567,113541
 3.9000e+000 113593  2.3733e+001 -8.0299e+000  9.8195e-001 21916 113437,113489,113463
 3.9000e+000 113711  1.8427e+000 -4.5441e+001  2.8852e+001 21916 113541,113515,113685
 3.9000e+000 113734  5.8570e+000 -4.6516e+001  1.8277e+001 21916 113757,113541,113685
 3.9000e+000 113783  2.1067e+000 -1.0547e+001  1.6853e+001 21916 113437,113567,113757
 3.9000e+000 113806  1.2480e+001 -2.0692e+001  2.1111e+001 21916 113437,113757,113685
 3.9000e+000 114056  1.1374e-001 -5.7666e+001  9.4157e+000 21412 113857,113909,113883
 3.9000e+000 114033  1.9458e+001 -3.4852e+001 -1.3473e+000 21412 114079,113909,113857
 3.9000e+000 114010  1.4351e+001 -4.0750e+001  4.6787e+000 21412 114079,113857,113961
 3.9000e+000 113987 -2.3972e+000  4.2972e+000  2.3915e+001 21412 113831,113961,113857
 3.9000e+000 114105  1.4868e+001 -2.4786e+001 -4.5854e+000 21412 113935,113909,114079
 3.9000e+000 114128  1.0838e+001 -3.2726e+001  4.0769e-001 21412 113935,114079,113961
 3.9000e+000 114378 -1.5126e+001 -3.3741e+001 -1.3862e+001 21022 114401,114257,114205
 3.9000e+000 114355 -1.8109e+001 -4.6772e+001 -1.0396e+001 21022 114401,114205,114179
 3.9000e+000 114332  3.6348e+000 -5.4516e+001 -3.7076e+000 21022 114153,114283,114179
 3.9000e+000 114309 -1.5763e+001 -2.5054e+001 -1.0276e+001 21022 114205,114257,114231
 3.9000e+000 114427 -1.7148e+001 -3.9701e+001 -3.6868e+000 21022 114283,114257,114401
 3.9000e+000 114450 -1.8170e+001 -5.1167e+001 -6.5379e-001 21022 114283,114401,114179
 3.9000e+000 114651  5.7182e+001 -3.0445e+001  1.6454e+001 20618 114501,114553,114527
 3.9000e+000 114628  2.8525e+001 -2.6940e+001 -5.9131e+000 20618 114501,114579,114553
 3.9000e+000 114605  2.9977e+001 -2.0362e+001 -3.7271e+000 20618 114475,114579,114501
 3.9000e+000 114901  1.4651e+001 -4.7581e+001 -3.1978e+000 20114 114676,114780,114702
 3.9000e+000 114878 -4.1971e+000 -4.9961e+001 -8.9545e+000 20114 114676,114806,114780
 3.9000e+000 114855  1.9473e+001 -4.6746e+001 -2.6390e+000 20114 114702,114780,114754
 3.9000e+000 114832  9.4896e+001 -3.6971e+001  1.0866e+001 20114 114702,114754,114728
 3.9000e+000 115053 -2.7530e+001 -7.1002e+001 -3.3292e+000 19460 115147,115076,114926
 3.9000e+000 115030 -1.7352e+001 -8.4737e+001  3.9308e-001 19460 115147,114926,115004
 3.9000e+000 115102 -2.0342e+001 -5.6112e+001 -5.6399e+000 19460 114952,114926,115076
 3.9000e+000 115173 -1.9811e+001 -4.9746e+001 -1.0862e-001 19460 114978,115076,115147
 3.9000e+000 115196 -1.1069e+001 -6.6138e+001  4.6521e+000 19460 114978,115147,115004
 3.9000e+000 115446  1.4805e+000 -4.3979e+001 -1.0235e+001 19006 115273,115351,115299
 3.9000e+000 115423  3.7211e+000 -2.3024e+001 -7.6183e-001 19006 115247,115351,115273
 3.9000e+000 115400  3.4849e-001 -2.4658e+001 -1.3653e+000 19006 115221,115351,115247
 3.9000e+000 115377 -8.0575e+000 -7.3547e+001 -1.0101e+001 19006 115299,115351,115325
 3.9000e+000 115767 -2.2788e+001 -4.1019e+001  1.5288e+000 18716 115571,115649,115623
 3.9000e+000 115744 -2.5394e+001 -4.3913e+001 -1.1132e-001 18716 115493,115649,115571
 3.9000e+000 115721 -2.6715e+001 -4.1046e+001  8.2206e-001 18716 115493,115571,115545
 3.9000e+000 115698 -2.7555e+001 -4.3928e+001  1.6541e+000 18716 115493,115545,115519
 3.9000e+000 115675 -1.9021e+001 -4.0299e+001  5.4189e-002 18716 115571,115623,115597
 3.9000e+000 116039  1.7339e+000 -3.5213e+001  7.3863e+000 18312 115814,115892,115840
 3.9000e+000 116016  1.0552e+001 -1.4061e+001  6.6826e+000 18312 115814,115944,115892
 3.9000e+000 115993  4.1171e+000 -2.6985e+001  3.2146e+000 18312 115892,115944,115918
 3.9000e+000 115970  2.1099e+001 -2.8661e+001  8.1231e+000 18312 115840,115892,115866
 3.9000e+000 116191 -1.7667e+000 -2.3366e+001  5.4191e-001 18000 116090,116142,116116
 3.9000e+000 116168 -1.7277e+000 -2.6653e+001  1.1419e+000 18000 116064,116142,116090
 3.9000e+000 116343 -2.4051e+001 -3.9694e+001 -3.7065e-001 17396 116242,116294,116268
 3.9000e+000 116320 -1.9817e+001 -4.5345e+001 -3.0129e+000 17396 116216,116294,116242
 3.9000e+000 116566  4.0840e+000 -9.9793e+001  1.8566e+001 16942 116390,116468,116442
 3.9000e+000 116543 -8.8426e+000 -8.8796e+001  1.7016e+001 16942 116390,116494,116468
 3.9000e+000 116520 -1.4223e+001 -1.4271e+002  7.5411e+000 16942 116390,116442,116416
 3.9000e+000 116767  4.9569e+000 -3.0424e+001 -1.8818e+000 16438 116790,116643,116617
 3.9000e+000 116744  1.4860e+000 -2.0824e+001 -6.2920e-001 16438 116790,116617,116591
 3.9000e+000 116721  1.9913e+000 -2.6959e+001 -3.9574e+000 16438 116643,116695,116669
 3.9000e+000 116816  4.1916e+000 -2.3333e+001 -5.0289e+000 16438 116695,116643,116790
 3.9000e+000 116839  2.9017e+000 -1.5033e+001 -6.8770e+000 16438 116695,116790,116591
 3.9000e+000 117062 -5.1577e+000 -8.6161e+001 -7.1062e+000 16074 116886,116938,116912
 3.9000e+000 117039 -1.1537e+001 -9.5422e+001  2.2987e+000 16074 116886,116990,116938
 3.9000e+000 117016 -6.3042e+000 -8.2355e+001  4.3757e+000 16074 116938,116990,116964
 3.9000e+000 117214 -1.0066e+001 -3.7430e+001  1.7766e-001 15649 117087,117139,117113
 3.9000e+000 117191 -1.4846e+001 -3.9401e+001  1.8980e-001 15649 117087,117165,117139
 3.9000e+000 117317 -4.8535e+000 -6.6732e+001 -8.0608e-001 421 117239,117291,117265
 4.0000e+000 70632 -9.3532e+001 -7.4693e+001  1.1553e+000 70072 70482,70534,70508
 4.0000e+000 70609 -9.0704e+001 -7.0907e+001  2.7858e+000 70072 70482,70560,70534
 4.0000e+000 70586 -7.0292e+001 -6.0990e+001 -5.6355e+000 70072 70456,70560,70482
 4.0000e+000 70951 -1.2575e+002 -2.5017e+001  0.0000e+000 69874 70703,70755,70729
 4.0000e+000 70928 -1.0159e+002 -1.4375e+001  2.5218e+000 69874 70703,70781,70755
 4.0000e+000 70905 -8.6563e+001  6.9939e-001  9.1026e+000 69874 70703,70807,70781
 4.0000e+000 70882 -9.9024e+001 -2.7138e+001  5.3912e+000 69874 70703,70833,70807
 4.0000e+000 70859 -6.0044e+001 -1.0647e+001 -3.9709e+000 69874 70677,70833,70703
 4.0000e+000 71199 -6.3117e+001 -3.7194e+001 -3.9352e+000 69698 71222,71052,71026
 4.0000e+000 71176 -5.5575e+001 -1.4810e+001  1.0400e+000 69698 71294,71222,71026
 4.0000e+000 71153 -5.0467e+001 -1.6081e+001  1.9070e+001 69698 71294,71026,71000
 4.0000e+000 71130 -8.8680e+001 -2.9293e+001 -7.8554e+000 69698 71366,71104,71078
 4.0000e+000 71248 -4.8054e+001 -2.0417e+001 -1.4300e+001 69698 71078,71052,71222
 4.0000e+000 71271 -7.7903e+001 -2.7731e+001 -6.9802e+000 69698 71366,71078,71222
 4.0000e+000 71320 -8.4045e+001 -2.7622e+001  3.7601e+000 69698 70974,71222,71294
 4.0000e+000 71343 -8.5558e+001 -3.1068e+001  2.0004e+001 69698 70974,71294,71000
 4.0000e+000 71392 -7.5910e+001 -2.5004e+001 -5.0773e+000 69698 70974,71104,71366
 4.0000e+000 71415 -7.2280e+001 -2.7985e+001 -3.7806e+000 69698 70974,71366,71222
 4.0000e+000 71516 -1.0284e+002 -3.0253e+001  1.6978e+001 69386 71438,71490,71464
 4.0000e+000 71869 -5.7800e+001 -8.0024e+001  7.6855e+000 69188 71644,71748,71670
 4.0000e+000 71846 -8.2902e+000 -8.4694e+001  3.3713e+001 69188 71644,71774,71748
 4.0000e+000 71823 -5.0956e+001 -5.5609e+001  7.8339e+000 69188 71670,71748,71722
 4.0000e+000 71800 -6.6147e+001 -7.8947e+001  1.2922e+000 69188 71670,71722,71696
 4.0000e+000 72019 -8.2304e+001 -1.4668e+002 -2.2449e+001 68990 71918,71970,71944
 4.0000e+000 71996 -6.5628e+001 -1.9185e+002 -3.1488e+000 68990 71892,71970,71918
 4.0000e+000 72316 -4.7897e+001 -4.2315e+001  1.0765e+000 68586 72339,72172,72146
 4.0000e+000 72293 -4.8419e+001 -5.5203e+001 -1.1436e+000 68586 72339,72146,72120
 4.0000e+000 72270 -4.4985e+001 -4.8997e+001  6.4291e+000 68586 72411,72068,72198
 4.0000e+000 72247 -8.0744e+000 -2.6157e+001  1.6243e+001 68586 72042,72198,72068
 4.0000e+000 72224 -2.7789e+001 -4.7823e+001 -7.6612e+000 68586 72068,72120,72094
 4.0000e+000 72365 -4.8999e+001 -4.0394e+001  5.8882e+000 68586 72198,72172,72339
 4.0000e+000 72388 -5.1610e+001 -4.6604e+001  3.5875e+000 68586 72411,72198,72339
 4.0000e+000 72437 -3.3579e+001 -4.5605e+001  8.0400e+000 68586 72120,72068,72411
 4.0000e+000 72460 -4.1586e+001 -4.4695e+001  4.4781e+000 68586 72120,72411,72339
 4.0000e+000 72864 -4.5491e+001 -4.1639e+001 -5.6380e+000 68388 72642,72694,72668
 4.0000e+000 72841 -5.9963e+001 -4.8702e+001  6.5780e+000 68388 72616,72694,72642
 4.0000e+000 72818 -6.3393e+001 -4.2805e+001  9.5026e-001 68388 72616,72720,72694
 4.0000e+000 72795 -7.9522e+001 -5.5938e+001  8.6257e+000 68388 72590,72720,72616
 4.0000e+000 72772 -8.3143e+001 -6.9620e+001  9.5414e+000 68388 72590,72746,72720
 4.0000e+000 73321 -5.5494e+001 -4.0564e+001 -2.6249e-001 68048 73073,73203,73177
 4.0000e+000 73298 -4.4247e+001 -4.5023e+001 -9.5296e+000 68048 73047,73203,73073
 4.0000e+000 73275 -6.6088e+001 -7.8318e+001 -1.5583e+001 68048 73125,73177,73151
 4.0000e+000 73252 -6.7058e+001 -6.3074e+001  5.8228e+000 68048 73073,73177,73125
 4.0000e+000 73229 -8.1398e+001 -6.6030e+001 -8.2605e-001 68048 73073,73125,73099
 4.0000e+000 73640 -1.0740e+002 -4.0939e+001  5.1839e+000 67850 73444,73496,73470
 4.0000e+000 73617 -8.0144e+001 -2.7428e+001 -2.2921e+000 67850 73418,73496,73444
 4.0000e+000 73594 -8.0054e+001 -2.5650e+001  2.7973e-001 67850 73392,73496,73418
 4.0000e+000 73571 -7.5130e+001 -3.5497e+001  1.2661e+000 67850 73392,73522,73496
 4.0000e+000 73548 -5.9635e+001 -1.3110e+001 -1.0809e+001 67850 73366,73522,73392
 4.0000e+000 73790 -7.8782e+001 -8.7091e+001 -2.3825e+000 67602 73689,73741,73715
 4.0000e+000 73767 -6.1493e+001 -4.4303e+001 -1.7496e+000 67602 73663,73741,73689
 4.0000e+000 74040 -7.4456e+001 -9.0953e+001 -8.9430e+000 67290 73841,73945,73919
 4.0000e+000 74017 -7.6721e+001 -9.7109e+001 -7.7074e+000 67290 73815,73945,73841
 4.0000e+000 73994 -6.3224e+001 -5.7329e+001 -7.9448e+000 67290 73841,73919,73867
 4.0000e+000 73971 -5.9296e+001 -4.8819e+001 -6.3936e+000 67290 73867,73919,73893
 4.0000e+000 74143 -9.0336e+001  1.8058e+001 -6.8060e+000 67092 74065,74117,74091
 4.0000e+000 74415 -8.0368e+001 -3.1860e+001 -1.4238e+001 66894 74190,74294,74216
 4.0000e+000 74392 -7.5639e+001 -3.0906e+001 -5.6094e+000 66894 74190,74320,74294
 4.0000e+000 74369 -6.3809e+001 -5.7095e+000 -6.1293e+000 66894 74216,74294,74242
 4.0000e+000 74346 -5.9028e+001 -1.9961e+001 -8.3534e+000 66894 74242,74294,74268
 4.0000e+000 75023 -7.1710e+001 -6.9647e+001 -5.8386e+000 66532 74654,74836,74810
 4.0000e+000 75000 -7.6048e+001 -7.2103e+001 -6.6402e+000 66532 74628,74836,74654
 4.0000e+000 74977 -6.3713e+001 -4.9454e+001 -3.6132e+000 66532 74706,74784,74732
 4.0000e+000 74954 -7.0715e+001 -6.8485e+001 -5.1584e+000 66532 74680,74784,74706
 4.0000e+000 74931 -6.3948e+001 -6.2222e+001 -2.3754e+000 66532 74680,74810,74784
 4.0000e+000 74908 -7.1675e+001 -7.0848e+001 -6.6896e+000 66532 74654,74810,74680
 4.0000e+000 74885 -7.4666e+001 -7.4825e+001 -8.6418e+000 66532 74602,74836,74628
 4.0000e+000 74862 -6.4960e+001 -6.8033e+001 -4.0610e+000 66532 74732,74784,74758
 4.0000e+000 75222 -8.9864e+001 -4.6936e+001  4.1430e+000 66242 75072,75150,75124
 4.0000e+000 75199 -6.4519e+001 -4.7311e+001 -4.2760e+000 66242 75046,75150,75072
 4.0000e+000 75176 -1.0454e+002 -3.6482e+001 -7.8296e+000 66242 75072,75124,75098
 4.0000e+000 75470 -9.5952e+001  3.1950e+000  3.7018e+000 65838 75297,75375,75349
 4.0000e+000 75447 -9.2029e+001 -7.4289e+000  5.5451e+000 65838 75271,75375,75297
 4.0000e+000 75424 -6.6500e+001  2.9719e+001  2.0565e+001 65838 75297,75349,75323
 4.0000e+000 75401 -1.0752e+002 -1.1988e+001  1.3597e+001 65838 75245,75375,75271
 4.0000e+000 75671 -2.8946e+001  2.0428e-001 -2.0427e+000 65640 75495,75573,75521
 4.0000e+000 75648 -4.0257e+001 -5.6616e+000  4.9684e-001 65640 75495,75599,75573
 4.0000e+000 75625 -2.7177e+001 -2.7887e+000 -3.8002e+000 65640 75521,75573,75547
 4.0000e+000 75872 -7.1653e+001 -4.1687e+001 -2.9685e+000 65300 75895,75748,75722
 4.0000e+000 75849 -7.9006e+001 -3.2765e+001  2.7179e+000 65300 75895,75722,75696
 4.0000e+000 75826 -5.5378e+001 -1.4069e+001 -4.2572e+000 65300 75967,75774,75748
 4.0000e+000 75921 -6.2715e+001 -2.9006e+001 -7.8165e+000 65300 75967,75748,75895
 4.0000e+000 75944 -7.5109e+001 -5.0407e+001 -9.5226e+000 65300 75800,75895,75696
 4.0000e+000 75993 -4.8519e+001 -3.6392e+001  1.4907e+000 65300 75800,75774,75967
 4.0000e+000 76016 -4.9700e+001 -3.8356e+001  3.6832e-001 65300 75800,75967,75895
 4.0000e+000 76371 -8.1628e+001 -7.9366e+001  2.9139e+000 64896 76146,76250,76172
 4.0000e+000 76348 -7.9736e+001 -7.9407e+001 -5.2966e-001 64896 76146,76276,76250
 4.0000e+000 76325 -8.5006e+001 -6.7001e+001  3.9016e+000 64896 76172,76250,76198
 4.0000e+000 76302 -7.8855e+000 -2.9807e+001  1.6405e+001 64896 76198,76250,76224
 4.0000e+000 76570 -4.8056e+001 -3.0712e+001 -1.8232e+001 64442 76446,76498,76472
 4.0000e+000 76547 -6.6851e+001 -4.4151e+001  7.4162e+000 64442 76420,76498,76446
 4.0000e+000 76524 -8.6360e+001 -4.4265e+001 -9.3738e+000 64442 76394,76498,76420
 4.0000e+000 76999 -7.7675e+001 -8.0638e+001  5.0415e+000 63924 77022,76728,76702
 4.0000e+000 76976 -8.5038e+001 -6.8241e+001 -9.8728e+000 63924 77022,76702,76832
 4.0000e+000 76953 -7.3027e+001 -9.0319e+001  9.7307e+000 63924 76728,76806,76754
 4.0000e+000 76930 -7.3997e+001 -5.3766e+001  4.7590e+000 63924 76676,76832,76702
 4.0000e+000 76907 -7.3665e+001 -8.7184e+001  1.0322e+001 63924 76754,76806,76780
 4.0000e+000 76884 -6.7527e+001 -6.6721e+001  3.7706e+000 63924 76676,76858,76832
 4.0000e+000 77048 -7.7206e+001 -9.8642e+001  5.8353e-001 63924 76806,76728,77022
 4.0000e+000 77071 -8.7258e+001 -8.9843e+001 -1.4891e+001 63924 76806,77022,76832
 4.0000e+000 77449 -6.4750e+001 -5.3411e+001  4.5395e+000 63320 77472,77253,77201
 4.0000e+000 77426 -7.2764e+001 -5.0947e+001  9.8209e+000 63320 77472,77201,77175
 4.0000e+000 77403 -3.2764e+001 -5.6810e+001  1.2658e+000 63320 77175,77305,77279
 4.0000e+000 77380 -6.1684e+001 -3.8285e+001 -8.4480e+000 63320 77201,77253,77227
 4.0000e+000 77357 -5.8599e+001 -6.2026e+001 -1.8402e+001 63320 77175,77331,77305
 4.0000e+000 77498 -5.0969e+001 -4.5166e+001 -3.6451e+000 63320 77279,77253,77472
 4.0000e+000 77521 -6.6695e+001 -5.1271e+001  3.2327e+000 63320 77279,77472,77175
 4.0000e+000 77769 -7.9221e+001 -1.8039e+001 -1.6736e-001 62816 77570,77622,77596
 4.0000e+000 77746 -7.7759e+001 -3.2520e+001 -6.7642e-001 62816 77570,77648,77622
 4.0000e+000 77723 -9.1482e+001 -3.7605e+001 -2.7010e+000 62816 77570,77674,77648
 4.0000e+000 77700 -7.6408e+001 -4.0974e+001 -5.4698e+000 62816 77544,77674,77570
 4.0000e+000 78149 -4.6736e+001 -6.6129e+001  1.2506e+000 62354 77953,78031,78005
 4.0000e+000 78126 -6.1709e+001 -6.5190e+001 -3.1440e+000 62354 77901,78031,77953
 4.0000e+000 78103 -6.0623e+001 -6.4574e+001 -3.7961e-001 62354 77875,78031,77901
 4.0000e+000 78080 -7.5310e+001 -7.2775e+001  6.1112e+000 62354 77901,77953,77927
 4.0000e+000 78057 -2.3732e+001 -4.6784e+001 -8.3438e+000 62354 77953,78005,77979
 4.0000e+000 78606 -5.5185e+001 -5.1796e+001 -2.0902e+001 61950 78384,78436,78410
 4.0000e+000 78583 -4.9703e+001 -3.9864e+001 -6.0190e+000 61950 78358,78436,78384
 4.0000e+000 78560 -5.3552e+001 -5.5355e+001  1.5337e+000 61950 78358,78488,78436
 4.0000e+000 78537 -3.9929e+001 -3.6940e+001 -5.8705e+000 61950 78436,78488,78462
 4.0000e+000 78514 -5.1202e+001 -4.5872e+001  6.4179e+000 61950 78332,78488,78358
 4.0000e+000 78756 -5.0421e+001 -6.2632e+001  1.3942e+000 61339 78779,78655,78629
 4.0000e+000 78733 -4.0841e+001 -7.9254e+001 -1.5027e+000 61339 78779,78629,78707
 4.0000e+000 78805 -4.4554e+001 -6.4732e+001  1.4315e+000 61339 78851,78779,78681
 4.0000e+000 78828 -1.9611e+001 -6.3041e+001  5.5724e+000 61339 78681,78779,78707
 4.0000e+000 78877 -4.0564e+001 -5.6147e+001  4.3275e+000 61339 78655,78779,78851
 4.0000e+000 79206 -4.2022e+001  5.7191e+000 -2.7849e+001 60892 79229,79007,78981
 4.0000e+000 79183 -5.5838e+001 -1.6199e+001 -1.4861e+001 60892 79229,78981,79111
 4.0000e+000 79160 -7.7417e+001 -5.4035e+000 -2.5579e+001 60892 79301,79033,79007
 4.0000e+000 79137 -8.5224e+001 -6.7730e+000  8.2667e+000 60892 79033,79085,79059
 4.0000e+000 79255 -7.4638e+001 -7.6157e+000 -2.3577e+001 60892 79301,79007,79229
 4.0000e+000 79278 -4.0077e+001 -4.4113e+000 -8.9335e+000 60892 79085,79229,79111
 4.0000e+000 79327 -8.9691e+001 -1.8511e+001 -1.0299e+000 60892 79085,79033,79301
 4.0000e+000 79350 -5.0030e+001 -3.1644e+000 -4.3737e+000 60892 79085,79301,79229
 4.0000e+000 79647 -5.3792e+001 -3.0651e+001  7.2887e+000 60488 79451,79529,79503
 4.0000e+000 79624 -5.2349e+001 -3.3120e+001  4.5522e-001 60488 79425,79529,79451
 4.0000e+000 79601 -6.9154e+001 -3.9177e+001 -2.2670e+000 60488 79373,79529,79425
 4.0000e+000 79578 -8.0371e+001 -5.5254e+001 -7.1957e+000 60488 79373,79425,79399
 4.0000e+000 79555 -1.7579e+001 -5.2360e+001  9.2089e+000 60488 79451,79503,79477
 4.0000e+000 79870 -6.5291e+001 -6.1530e+000  5.5658e+000 60026 79720,79798,79772
 4.0000e+000 79847 -1.2265e+002 -2.1197e+001  2.6263e-001 60026 79694,79798,79720
 4.0000e+000 79824 -1.2784e+002 -3.0867e+001  8.7174e+000 60026 79720,79772,79746
 4.0000e+000 80120 -2.5474e+001  1.5539e+001  5.1197e+000 59629 79921,80025,79973
 4.0000e+000 80097 -2.9149e+001  1.2068e+001  5.9834e+000 59629 79895,80025,79921
 4.0000e+000 80074 -2.0703e+001  1.4277e+001 -1.5344e+001 59629 79973,80025,79999
 4.0000e+000 80051 -2.8269e+001  3.2260e+001  7.7518e-001 59629 79921,79973,79947
 4.0000e+000 80321 -6.4805e+001 -1.2638e+001  4.9339e+000 59125 80344,80171,80145
 4.0000e+000 80298 -5.4946e+001 -7.3744e+000 -3.2924e-001 59125 80344,80145,80249
 4.0000e+000 80275 -3.4101e+001 -8.9089e-001  6.7662e-001 59125 80197,80249,80223
 4.0000e+000 80370 -5.2996e+001 -1.5149e+001 -7.8237e-001 59125 80197,80171,80344
 4.0000e+000 80393 -4.4119e+001 -1.1019e+001 -5.7959e+000 59125 80197,80344,80249
 4.0000e+000 80952 -8.2389e+001 -5.9464e+001  1.5976e+001 58557 80975,80632,80606
 4.0000e+000 80929 -5.2258e+001 -4.9451e+001  8.5933e+000 58557 81119,80975,80606
 4.0000e+000 80906 -6.2177e+001 -5.0574e+001  5.4733e+000 58557 81047,80684,80632
 4.0000e+000 80883 -5.5292e+001 -4.8645e+001  2.9005e+001 58557 81119,80606,80580
 4.0000e+000 80860 -2.7692e+001 -6.6726e+001  3.4295e+000 58557 81191,80736,80710
 4.0000e+000 80837 -1.6056e+001 -5.0193e+001 -1.2634e+001 58557 80736,80788,80762
 4.0000e+000 80814 -9.3660e+001 -5.8957e+001  2.0780e+001 58557 80632,80684,80658
 4.0000e+000 81001 -5.6551e+001 -5.1247e+001  6.4072e+000 58557 81047,80632,80975
 4.0000e+000 81024 -2.9898e+001 -5.3164e+001 -2.4930e-001 58557 81191,80710,80975
 4.0000e+000 81073 -5.6648e+001 -5.5833e+001  1.2786e+001 58557 80710,80684,81047
 4.0000e+000 81096 -4.4469e+001 -5.2855e+001  1.2193e+001 58557 80710,81047,80975
 4.0000e+000 81145 -4.1740e+001 -2.3673e+001  7.6460e+000 58557 80788,80975,81119
 4.0000e+000 81168 -4.4328e+001 -2.6476e+001  2.5477e+001 58557 80788,81119,80580
 4.0000e+000 81217 -2.2399e+001 -5.4834e+001 -1.2243e+000 58557 80788,80736,81191
 4.0000e+000 81240 -2.6728e+001 -4.6170e+001 -5.5059e+000 58557 80788,81191,80975
 4.0000e+000 81537 -3.9815e+001  4.2705e+001 -9.2223e+000 57881 81560,81341,81289
 4.0000e+000 81514 -1.5605e+001  5.3977e+001 -3.7450e+001 57881 81560,81289,81263
 4.0000e+000 81491 -4.3469e+001  2.9865e+001 -1.0770e+001 57881 81632,81419,81367
 4.0000e+000 81468 -4.1073e+001  3.5535e+001 -1.1765e+001 57881 81367,81419,81393
 4.0000e+000 81445 -7.0592e+001  2.8946e+001  6.8297e-001 57881 81289,81341,81315
 4.0000e+000 81586 -4.4163e+001  1.1718e+001  2.4538e+000 57881 81367,81341,81560
 4.0000e+000 81609 -4.2700e+001  4.1934e+001 -9.0408e+000 57881 81632,81367,81560
 4.0000e+000 81658 -4.1423e+001 -1.1218e+001 -9.9388e+000 57881 81263,81419,81632
 4.0000e+000 81681 -2.9921e+001  1.7054e+001 -1.3345e+001 57881 81263,81632,81560
 4.0000e+000 81929 -3.1399e+001 -4.2675e+000  9.3271e+000 57477 81704,81808,81782
 4.0000e+000 81906 -1.9916e+001 -1.2636e+001  1.2572e+001 57477 81704,81834,81808
 4.0000e+000 81883 -3.2565e+001 -1.8730e+000  1.1686e+001 57477 81704,81782,81730
 4.0000e+000 81860 -3.9063e+001 -4.7813e+000  1.2854e+001 57477 81730,81782,81756
 4.0000e+000 82488 -5.8644e+001 -7.2979e+001  3.6136e+000 56966 82583,82511,82194
 4.0000e+000 82465 -7.1045e+001 -8.3684e+001  1.4507e+001 56966 82511,82116,82324
 4.0000e+000 82442 -6.6920e+001 -6.7900e+001  3.3138e+000 56966 82583,82194,82168
 4.0000e+000 82419 -1.9874e+001 -4.5048e+001  5.1553e+000 56966 82194,82246,82220
 4.0000e+000 82396 -4.6130e+001 -5.8453e+001 -2.1696e+000 56966 82194,82298,82246
 4.0000e+000 82373 -3.0143e+001 -6.6961e+001 -2.1001e+001 56966 82246,82298,82272
 4.0000e+000 82350 -9.3313e+001 -7.7886e+001  1.6399e+001 56966 82116,82168,82142
 4.0000e+000 82537 -5.2509e+001 -7.2700e+001 -3.9993e+000 56966 82298,82194,82511
 4.0000e+000 82560 -6.3091e+001 -5.3266e+001  8.9150e+000 56966 82298,82511,82324
 4.0000e+000 82609 -6.7590e+001 -7.7818e+001 -1.4779e-001 56966 82116,82511,82583
 4.0000e+000 82632 -7.4034e+001 -7.1890e+001 -7.2126e-001 56966 82116,82583,82168
 4.0000e+000 83236 -2.5678e+001 -2.5703e+001  1.9778e+000 56304 82893,82945,82919
 4.0000e+000 83213 -3.0192e+001 -3.2706e+001  1.0854e+001 56304 83259,82945,82893
 4.0000e+000 83190 -3.6245e+001 -4.2034e+001  6.3932e+000 56304 83259,82893,83049
 4.0000e+000 83167 -4.4708e+001 -7.7009e+001  1.5220e+001 56304 82971,83049,83023
 4.0000e+000 83144 -5.1714e+001 -7.2528e+001  6.5769e-001 56304 82815,83049,82893
 4.0000e+000 83121 -6.4745e+001 -6.3936e+001  1.1584e+001 56304 82815,82893,82867
 4.0000e+000 83098 -3.4675e+001 -5.0252e+001  1.1761e+001 56304 82971,83023,82997
 4.0000e+000 83075 -8.4448e+001 -7.2745e+001 -2.6927e+000 56304 82815,82867,82841
 4.0000e+000 83285 -2.7984e+001 -4.5763e+001  6.7512e+000 56304 82971,82945,83259
 4.0000e+000 83308 -3.1236e+001 -4.9164e+001  2.0069e+000 56304 82971,83259,83049
 4.0000e+000 83556 -7.9866e+001 -5.9597e+000 -6.4438e-001 55964 83357,83461,83435
 4.0000e+000 83533 -1.0904e+002 -4.3020e-002  5.6590e+000 55964 83331,83461,83357
 4.0000e+000 83510 -3.1217e+001  2.4811e+000  5.3925e+000 55964 83357,83435,83383
 4.0000e+000 83487 -3.9540e+001 -1.6102e+001 -2.4137e+000 55964 83383,83435,83409
 4.0000e+000 83706 -7.5013e+001 -6.1053e+001  8.3468e+000 55503 83579,83631,83605
 4.0000e+000 83683 -5.9182e+001 -5.6286e+001  4.7318e+000 55503 83579,83657,83631
 4.0000e+000 83907 -4.5296e+001 -8.3675e+000 -4.7131e+000 55156 83757,83835,83809
 4.0000e+000 83884 -4.6132e+001 -7.5461e+000  2.4234e-002 55156 83731,83835,83757
 4.0000e+000 83861 -4.5107e+001  7.1479e+000 -6.1674e-001 55156 83757,83809,83783
 4.0000e+000 84240 -5.2561e+001 -1.3874e+001  3.0336e+000 54652 84093,84145,84119
 4.0000e+000 84217 -6.3770e+001 -3.0222e+001  7.9151e+000 54652 84041,84145,84093
 4.0000e+000 84194 -6.8711e+001 -2.2852e+001 -2.8342e-001 54652 84015,84145,84041
 4.0000e+000 84171 -6.4415e+001 -3.0293e+001  9.3430e+000 54652 84041,84093,84067
 4.0000e+000 84618 -1.6617e+001 -2.4435e+000  1.2788e+000 53926 84396,84500,84474
 4.0000e+000 84595 -2.1791e+001 -1.4250e+000 -1.2970e+000 53926 84344,84500,84396
 4.0000e+000 84572 -2.1489e+001  2.7707e-002 -9.6498e-001 53926 84344,84396,84370
 4.0000e+000 84549 -3.0929e+001 -4.6392e+000 -8.0552e+000 53926 84396,84474,84422
 4.0000e+000 84526 -2.8594e+001  1.0237e+000 -5.3359e+000 53926 84422,84474,84448
 4.0000e+000 85350 -4.1865e+001 -2.8026e+001  2.2799e+001 53586 85373,84880,85088
 4.0000e+000 85327 -7.2763e+001 -2.8259e+001  2.2440e+001 53586 84880,85114,85088
 4.0000e+000 85304 -6.2111e+001 -3.6120e+001  2.4063e+001 53586 85373,85088,85062
 4.0000e+000 85281 -6.8184e+001 -3.5166e+001  1.2039e+001 53586 85010,85062,85036
 4.0000e+000 85258 -5.4966e+001 -3.2151e+001  7.2465e+000 53586 85445,85010,84958
 4.0000e+000 85235 -4.5600e+001 -3.0034e+001  2.6902e+000 53586 85445,84958,84906
 4.0000e+000 85212 -5.3972e+001 -2.6229e+001  6.5136e+000 53586 84958,85010,84984
 4.0000e+000 85189 -4.3436e+001 -1.3597e+001  2.4705e+000 53586 84906,84958,84932
 4.0000e+000 85166 -6.1616e+001 -3.5127e+001  2.7520e+001 53586 84880,85140,85114
 4.0000e+000 85399 -3.6027e+001 -2.9359e+001  5.5895e+000 53586 84906,84880,85373
 4.0000e+000 85422 -5.0051e+001 -3.2837e+001  8.7619e+000 53586 85517,85373,85062
 4.0000e+000 85471 -5.6143e+001 -3.5370e+001  1.2581e+001 53586 85062,85010,85445
 4.0000e+000 85494 -4.9725e+001 -3.0239e+001  8.3716e+000 53586 85517,85062,85445
 4.0000e+000 85543 -5.0282e+001 -3.6542e+001  8.2395e+000 53586 84906,85373,85517
 4.0000e+000 85566 -5.0177e+001 -3.4256e+001  8.1145e+000 53586 84906,85517,85445
 4.0000e+000 86072 -2.9797e+001 -3.6527e+001  8.4917e+000 53182 86095,85853,85775
 4.0000e+000 86049 -3.4582e+001 -3.5003e+001  1.0623e+001 53182 86095,85775,85931
 4.0000e+000 86026 -3.0413e+001 -3.1546e+001  2.3594e+001 53182 86167,85879,85853
 4.0000e+000 86003 -1.8098e+001 -3.1997e+001  6.3955e+000 53182 85775,85827,85801
 4.0000e+000 85980 -2.4555e+001 -2.7244e+001  1.1546e+001 53182 85775,85853,85827
 4.0000e+000 85957 -4.7243e+001 -4.1264e+001  1.3157e+001 53182 85749,85931,85775
 4.0000e+000 86121 -2.9395e+001 -2.5908e+001  1.3512e+001 53182 86167,85853,86095
 4.0000e+000 86144 -4.3598e+001 -3.7647e+001  8.1971e+000 53182 85905,86095,85931
 4.0000e+000 86193 -3.3387e+001 -3.7707e+001  2.2552e+001 53182 85905,85879,86167
 4.0000e+000 86216 -3.8144e+001 -4.5652e+001  1.1954e+001 53182 85905,86167,86095
 4.0000e+000 86673 -3.0807e+001 -7.0944e+001 -1.7062e+001 52778 86477,86529,86503
 4.0000e+000 86650 -3.8529e+001 -4.9266e+001  2.1321e+000 52778 86425,86529,86477
 4.0000e+000 86627 -4.1424e+001 -4.1395e+001 -5.0654e+000 52778 86425,86477,86451
 4.0000e+000 86604 -5.7013e+001 -5.4458e+001 -2.9590e+000 52778 86399,86529,86425
 4.0000e+000 86581 -7.4950e+001 -5.9342e+001 -8.1876e+000 52778 86399,86555,86529
 4.0000e+000 87258 -4.4259e+001 -6.3387e+001 -9.6816e+000 52238 87281,86987,86961
 4.0000e+000 87235 -4.3729e+001 -5.4863e+001 -4.7215e-001 52238 87281,86961,87117
 4.0000e+000 87212 -3.8442e+001 -4.0102e+001  1.6243e+000 52238 86935,87117,86961
 4.0000e+000 87189 -1.8798e+001 -5.7029e+001 -5.3969e+000 52238 87065,87117,87091
 4.0000e+000 87166 -3.6513e+001 -3.6052e+001 -6.9878e+000 52238 86987,87065,87039
 4.0000e+000 87143 -4.2279e+001 -3.5097e+001 -9.3556e+000 52238 86987,87039,87013
 4.0000e+000 87307 -3.7135e+001 -4.6847e+001 -1.0172e+001 52238 87065,86987,87281
 4.0000e+000 87330 -4.1394e+001 -4.9417e+001 -5.5125e-001 52238 87065,87281,87117
 4.0000e+000 87610 -3.9574e+001 -4.9166e+001  7.9430e+000 51834 87434,87512,87460
 4.0000e+000 87587 -7.1512e+001 -5.6759e+001  2.0346e+001 51834 87434,87538,87512
 4.0000e+000 87564 -3.6905e+001 -2.4991e+001  9.6548e+000 51834 87633,87460,87512
 4.0000e+000 87659 -3.5182e+000 -1.0691e+001  1.1101e+001 51834 87486,87460,87633
 4.0000e+000 88187 -4.3318e+001 -2.7767e+001  2.4674e-001 51266 87864,87942,87890
 4.0000e+000 88164 -4.7735e+001 -2.4689e+001 -2.1746e+000 51266 87864,88020,87942
 4.0000e+000 88141 -6.4331e+001 -3.2724e+001 -4.8573e+000 51266 87942,88020,87968
 4.0000e+000 88118 -4.4965e+001  2.5067e+000  2.8637e+000 51266 87864,88046,88020
 4.0000e+000 88095 -3.6842e+001 -1.5876e+001  5.8153e+000 51266 87968,88020,87994
 4.0000e+000 88072 -4.0667e+001 -3.2542e+001 -3.7757e+000 51266 87890,87942,87916
 4.0000e+000 88644 -6.7087e+001 -5.0656e+001  3.6683e+000 50754 88370,88500,88396
 4.0000e+000 88621 -7.1420e+001 -8.2588e+001  1.1689e+001 50754 88370,88526,88500
 4.0000e+000 88598 -4.2151e+001 -5.7344e+001 -1.8391e+001 50754 88396,88500,88422
 4.0000e+000 88575 -6.4066e+001 -8.6806e+001 -3.2132e+001 50754 88422,88500,88474
 4.0000e+000 88552 -4.2877e+001 -5.7842e+001  9.6188e+000 50754 88422,88474,88448
 4.0000e+000 88914 -3.7170e+001  4.0854e+001 -9.7046e+000 50442 88715,88793,88741
 4.0000e+000 88891 -3.3794e+001  1.4651e+001 -5.5981e+000 50442 88715,88819,88793
 4.0000e+000 88868 -6.2603e+001 -1.5516e+001 -1.8640e+001 50442 88689,88819,88715
 4.0000e+000 88845 -2.8866e+000  5.5037e+001 -7.5109e+000 50442 88741,88793,88767
 4.0000e+000 89294 -4.1260e+001  5.1997e-001 -1.2869e+001 49938 89317,89046,89020
 4.0000e+000 89271 -4.2782e+001 -3.9269e+000 -1.2311e+001 49938 89317,89020,89150
 4.0000e+000 89248 -1.8474e+001  1.8613e+000  1.3505e+000 49938 89072,89150,89098
 4.0000e+000 89225 -2.6441e+001 -2.8159e+000 -6.8061e+000 49938 89020,89176,89150
 4.0000e+000 89202 -1.0554e+001  2.2217e-001 -6.2303e+000 49938 89098,89150,89124
 4.0000e+000 89343 -3.4378e+001  4.4666e+001 -1.1219e+001 49938 89072,89046,89317
 4.0000e+000 89366 -5.1247e+001  1.5268e+000 -7.5290e+000 49938 89072,89317,89150
 4.0000e+000 89823 -3.2984e+001 -1.9437e+001  2.9768e+000 49384 89601,89705,89679
 4.0000e+000 89800 -2.6709e+001 -1.4055e+001  8.1887e+000 49384 89549,89705,89601
 4.0000e+000 89777 -2.4735e+001 -1.0496e+000  6.3216e+000 49384 89549,89601,89575
 4.0000e+000 89754 -2.1726e+001 -7.3684e+000  8.1305e+000 49384 89601,89679,89627
 4.0000e+000 89731 -1.9451e+001 -8.6805e+000  4.8555e-001 49384 89627,89679,89653
 4.0000e+000 90329 -2.3965e+001 -1.3260e+001  3.0877e+000 48894 90058,90110,90084
 4.0000e+000 90306 -2.8877e+001 -1.5375e+001  8.5972e-001 48894 90058,90162,90110
 4.0000e+000 90283 -2.8159e+001 -1.7087e+001  8.8786e-001 48894 90032,90162,90058
 4.0000e+000 90260 -2.5662e+001 -1.2367e+001 -1.1128e+001 48894 90006,90162,90032
 4.0000e+000 90237 -2.5746e+001 -9.6983e+000 -4.3448e-001 48894 90110,90162,90136
 4.0000e+000 90214 -1.3951e+001 -9.8007e+000 -8.4038e+000 48894 90006,90188,90162
 4.0000e+000 90884 -2.2763e+001  1.6514e+001  3.3245e-001 48490 90564,90642,90616
 4.0000e+000 90861 -2.3069e+001  2.8487e+000  8.0136e+000 48490 90564,90694,90642
 4.0000e+000 90838 -1.8045e+001  8.4584e+000  1.2840e+001 48490 90538,90694,90564
 4.0000e+000 90815 -6.4207e+001  9.9415e+000  8.3016e+000 48490 90538,90720,90694
 4.0000e+000 90792 -2.6090e+001  1.2506e+000 -6.2262e+000 48490 90564,90616,90590
 4.0000e+000 90769 -4.0658e+000  3.2834e+001 -1.0895e+001 48490 90642,90694,90668
 4.0000e+000 90746 -2.2949e+001  3.4625e+000 -2.8739e+001 48490 90512,90720,90538
 4.0000e+000 91034  3.5497e+000  2.6394e+001 -1.6692e+001 48086 91057,90959,90933
 4.0000e+000 91011  1.2148e+000  4.6370e-001 -6.7687e+000 48086 91129,91057,90933
 4.0000e+000 91083 -9.8547e+000  5.6083e+000 -4.4609e+000 48086 90985,90959,91057
 4.0000e+000 91106 -1.3736e+000 -4.2390e+000 -3.1912e-001 48086 90985,91057,90907
 4.0000e+000 91155 -1.0575e+001  1.0109e+000 -1.4955e+000 48086 90907,91057,91129
 4.0000e+000 91791 -2.8686e+001 -1.2752e+001  1.3130e+001 47518 92030,91814,91523
 4.0000e+000 91768 -4.0566e+001 -3.0089e+001  8.4035e+000 47518 91958,91814,91471
 4.0000e+000 91745 -2.7470e+001 -3.2913e+001 -4.0235e+000 47518 91886,91575,91523
 4.0000e+000 91722 -4.5685e+001 -4.0912e+001  6.8631e+000 47518 91958,91471,91419
 4.0000e+000 91699 -1.3325e+001 -2.0634e+001  1.8011e+001 47518 92030,91523,91497
 4.0000e+000 91676 -4.6829e+001 -7.2317e+000 -3.9032e+000 47518 91523,91575,91549
 4.0000e+000 91653 -4.6842e+001 -2.8497e+001  6.6553e+000 47518 91419,91471,91445
 4.0000e+000 91840 -2.3586e+001 -2.7634e+001  1.0397e+001 47518 91886,91523,91814
 4.0000e+000 91863 -3.1826e+001 -4.4486e+001  5.9802e+000 47518 91601,91814,91627
 4.0000e+000 91912 -3.9641e+001 -3.8815e+001 -9.6778e+000 47518 91601,91575,91886
 4.0000e+000 91935 -4.5188e+001 -3.3096e+001  5.8392e+000 47518 91601,91886,91814
 4.0000e+000 91984 -3.7471e+001 -3.9422e+001  1.3319e+001 47518 91627,91814,91958
 4.0000e+000 92007 -4.0201e+001 -4.4736e+001  1.2372e+001 47518 91627,91958,91419
 4.0000e+000 92056 -2.3200e+001 -3.5556e+000  2.5080e+001 47518 91471,91814,92030
 4.0000e+000 92079 -1.1208e+001 -8.4502e+000  3.1237e+001 47518 91471,92030,91497
 4.0000e+000 92229 -1.9477e+001 -1.7411e+001  1.0455e+001 47128 92252,92128,92102
 4.0000e+000 92206 -1.3961e+001 -9.6571e+000  7.5789e+000 47128 92324,92252,92102
 4.0000e+000 92278 -2.1563e+001 -8.7990e+000  7.3081e+000 47128 92454,92252,92154
 4.0000e+000 92301 -1.8396e+001 -1.3108e+001  3.1443e+000 47128 92154,92252,92180
 4.0000e+000 92350 -3.4726e+001 -2.0254e+001  1.1715e+000 47128 92180,92252,92324
 4.0000e+000 92480 -1.6472e+001 -1.7132e+001  6.8896e+000 47128 92128,92252,92454
 4.0000e+000 93340 -3.5513e+001 -2.0022e+001  3.2400e+000 46838 93363,92977,92873
 4.0000e+000 93317 -3.4871e+001 -1.9313e+001  1.3793e+000 46838 93507,93363,92873
 4.0000e+000 93294 -3.8281e+001 -2.6284e+001  1.3263e+000 46838 93435,93003,92977
 4.0000e+000 93271 -3.1303e+001 -1.6559e+001  2.6489e+000 46838 93507,92873,92847
 4.0000e+000 93248 -3.8944e+001 -2.7294e+001  5.7132e+000 46838 93579,93029,93003
 4.0000e+000 93225 -2.2298e+001 -1.0964e+001  2.1732e+000 46838 92873,92951,92925
 4.0000e+000 93202 -2.6053e+001 -1.7968e+001 -1.2188e+000 46838 92873,92977,92951
 4.0000e+000 93179 -4.0425e+001 -1.1792e+001 -4.2450e-001 46838 93055,93107,93081
 4.0000e+000 93156 -6.0605e+001 -2.7434e+001 -2.2313e+000 46838 92821,93107,92847
 4.0000e+000 93133 -2.1838e+001 -1.5934e+001  3.1188e+000 46838 92873,92925,92899
 4.0000e+000 93389 -3.7403e+001 -2.3691e+001  2.5653e+000 46838 93435,92977,93363
 4.0000e+000 93412 -4.0893e+001 -1.9711e+001  6.5790e-001 46838 93055,93363,93107
 4.0000e+000 93461 -3.9712e+001 -2.4719e+001  3.9228e+000 46838 93579,93003,93435
 4.0000e+000 93484 -3.8341e+001 -1.8432e+001  2.5616e+000 46838 93055,93435,93363
 4.0000e+000 93533 -3.8291e+001 -1.5255e+001  2.0023e+000 46838 93107,93363,93507
 4.0000e+000 93556 -3.7604e+001 -1.4555e+001  2.3076e+000 46838 93107,93507,92847
 4.0000e+000 93605 -3.5326e+001 -2.4938e+001  3.7300e+000 46838 93055,93029,93579
 4.0000e+000 93628 -3.6511e+001 -2.2753e+001  2.0020e+000 46838 93055,93579,93435
 4.0000e+000 93979 -2.2758e+001  7.4368e+000 -2.4203e+000 46476 93780,93884,93858
 4.0000e+000 93956 -1.9393e+001  5.1921e+001 -6.5340e+000 46476 93754,93884,93780
 4.0000e+000 93933 -4.4748e+001 -9.7989e-001 -5.1715e+000 46476 93806,93858,93832
 4.0000e+000 93910 -3.5457e+001 -1.6321e+000  5.3858e+000 46476 93780,93858,93806
 4.0000e+000 94515 -3.0206e+001 -2.5318e+001 -5.1882e+000 46072 94345,94397,94371
 4.0000e+000 94492 -3.9577e+001 -3.1461e+001  5.0987e+000 46072 94267,94397,94345
 4.0000e+000 94469 -3.4538e+001 -2.9159e+001  2.2280e+000 46072 94241,94397,94267
 4.0000e+000 94446 -4.0442e+001 -2.6311e+001  2.6029e+000 46072 94293,94345,94319
 4.0000e+000 94423 -4.1140e+001 -2.2188e+001  4.6646e+000 46072 94267,94345,94293
 4.0000e+000 95149 -2.2742e+001 -2.5178e+001  2.8910e+000 45346 94803,94881,94855
 4.0000e+000 95126 -2.8277e+001 -2.3754e+001  1.8813e+000 45346 94803,94959,94881
 4.0000e+000 95103 -2.7702e+001 -2.4084e+001 -1.6096e+000 45346 95172,94933,94907
 4.0000e+000 95080 -2.9569e+001 -3.6413e+001 -9.1001e-001 45346 95172,94907,94881
 4.0000e+000 95057 -2.4848e+001 -2.0879e+001  3.1793e+000 45346 94803,94985,94959
 4.0000e+000 95034 -1.6867e+001 -2.7128e+001 -1.6908e+000 45346 94803,94855,94829
 4.0000e+000 95011 -1.8175e+001 -3.5610e+000 -2.6373e+000 45346 94777,94985,94803
 4.0000e+000 95198 -3.0573e+001 -1.8110e+001 -1.5450e-001 45346 94959,94933,95172
 4.0000e+000 95221 -2.8662e+001 -2.5249e+001 -2.8025e-001 45346 94959,95172,94881
 4.0000e+000 95776 -2.2656e+001 -3.7008e+001  4.5074e+000 44720 95799,95560,95534
 4.0000e+000 95753 -2.2661e+001 -3.0915e+001  3.5262e+000 44720 95799,95534,95482
 4.0000e+000 95730 -8.0863e+000 -3.4024e+001 -1.9222e+000 44720 95943,95871,95430
 4.0000e+000 95707 -3.7647e+000 -3.5810e+001 -1.6267e+000 44720 95943,95430,95404
 4.0000e+000 95684 -1.4927e+001 -3.9581e+001  2.2619e+000 44720 95430,95482,95456
 4.0000e+000 95661 -2.2478e+001 -2.6736e+001  1.3184e+001 44720 95482,95534,95508
 4.0000e+000 95638 -6.9435e+000 -2.4578e+001 -6.1394e+000 44720 95404,95612,95586
 4.0000e+000 95825 -2.5118e+001 -5.2269e+001 -1.6757e+000 44720 95586,95560,95799
 4.0000e+000 95848 -2.0580e+001 -3.5897e+001  1.3346e+000 44720 95871,95586,95799
 4.0000e+000 95897 -1.6274e+001 -3.5606e+001  1.0732e+000 44720 95482,95430,95871
 4.0000e+000 95920 -1.8511e+001 -3.7258e+001  5.6943e+000 44720 95482,95871,95799
 4.0000e+000 95969 -1.7743e+001 -3.4045e+001  2.8041e+000 44720 95586,95871,95943
 4.0000e+000 95992 -9.4179e+000 -3.2639e+001  2.8919e+000 44720 95586,95943,95404
 4.0000e+000 96449 -3.8337e+001 -4.0007e+001  1.4968e+000 44202 96544,96472,96227
 4.0000e+000 96426 -3.7431e+001 -3.8038e+001  4.0910e+000 44202 96472,96175,96331
 4.0000e+000 96403 -2.3552e+001 -4.5465e+001  1.9973e+000 44202 96544,96227,96201
 4.0000e+000 96380 -4.5039e+001 -9.2638e+001 -2.8831e+001 44202 96253,96305,96279
 4.0000e+000 96357 -6.4001e+001 -4.7020e+001 -1.2690e+001 44202 96227,96305,96253
 4.0000e+000 96498 -3.6772e+001 -3.7223e+001  8.4279e-001 44202 96305,96227,96472
 4.0000e+000 96521 -3.9798e+001 -3.9784e+001 -1.9082e+000 44202 96305,96472,96331
 4.0000e+000 96570 -2.2823e+001 -3.3128e+001  6.2674e+000 44202 96175,96472,96544
 4.0000e+000 96593 -1.1156e+001 -4.2193e+001  4.3097e+000 44202 96175,96544,96201
 4.0000e+000 96971 -1.8910e+001 -2.1598e+000  3.9422e-001 43754 96994,96749,96697
 4.0000e+000 96948 -1.6626e+001  2.2914e+000 -2.0685e+000 43754 96994,96697,96853
 4.0000e+000 96925 -4.2781e+000 -9.6190e+000 -8.6361e+000 43754 96697,96749,96723
 4.0000e+000 96902 -1.2962e+001  1.1238e+001  7.5802e+000 43754 96775,96853,96827
 4.0000e+000 96879  5.7674e+000  3.6713e+000  7.6414e+000 43754 96775,96827,96801
 4.0000e+000 97020 -2.0003e+001 -1.0931e+001  5.2919e+000 43754 96775,96749,96994
 4.0000e+000 97043 -1.3906e+001 -2.9961e+000  1.9361e+000 43754 96775,96994,96853
 4.0000e+000 97291 -1.2977e+001 -1.7991e+001  4.0457e+000 43364 97314,97144,97118
 4.0000e+000 97268 -1.9996e+001 -1.7600e+001  4.2896e+000 43364 97314,97118,97092
 4.0000e+000 97245 -1.4565e+001 -1.5565e+001 -7.5231e-002 43364 97386,97196,97170
 4.0000e+000 97222 -2.0113e+000 -1.8368e+001 -7.6843e+000 43364 97066,97196,97092
 4.0000e+000 97340 -1.4202e+001 -2.0880e+001  4.6417e+000 43364 97170,97144,97314
 4.0000e+000 97363 -1.5469e+001 -2.1601e+001  4.0218e+000 43364 97386,97170,97314
 4.0000e+000 97412 -1.1654e+001 -7.8756e+000 -3.2843e+000 43364 97092,97196,97386
 4.0000e+000 97435 -1.2001e+001 -1.0728e+001  1.3692e+000 43364 97092,97386,97314
 4.0000e+000 97788 -2.6090e+001 -3.7058e+001  5.6437e+000 42960 97563,97667,97589
 4.0000e+000 97765 -3.9943e+001 -4.4441e+001  9.3839e+000 42960 97563,97693,97667
 4.0000e+000 97742 -4.7837e+000 -8.0048e+000  4.5080e+000 42960 97589,97641,97615
 4.0000e+000 97719 -1.3917e+001 -3.1010e+001  7.8688e+000 42960 97589,97667,97641
 4.0000e+000 98215 -4.2456e-001  2.0368e+001 -1.6854e+001 42563 97918,98074,98048
 4.0000e+000 98192  2.1648e+001  3.5612e+001 -6.2405e+000 42563 97892,98074,97918
 4.0000e+000 98169  2.3421e+000  2.2715e+001 -2.0058e+001 42563 98238,97944,97918
 4.0000e+000 98146 -8.1966e+000 -1.9565e+000 -9.4532e+000 42563 98238,97918,98048
 4.0000e+000 98123 -9.4710e+000  5.9396e+000 -7.7998e+000 42563 97944,98022,97996
 4.0000e+000 98100 -2.5345e+000  2.1848e+001 -9.3261e+000 42563 97944,97996,97970
 4.0000e+000 98264 -9.5164e+000  4.6767e+000 -7.8356e+000 42563 98022,97944,98238
 4.0000e+000 98287 -1.1546e+001 -4.6729e+000  2.0427e+000 42563 98022,98238,98048
 4.0000e+000 98616 -1.6891e+001 -3.2570e+001  2.6780e+000 42251 98443,98521,98469
 4.0000e+000 98593 -1.4088e+001 -2.0286e+001  2.5652e+000 42251 98417,98521,98443
 4.0000e+000 98570 -1.5533e+001 -2.3836e+001  7.5529e-001 42251 98391,98521,98417
 4.0000e+000 98547 -1.9859e+001 -2.7223e+001 -7.7133e+000 42251 98469,98521,98495
 4.0000e+000 98886 -2.3787e+001  6.0718e+000 -1.1005e+001 41847 98661,98765,98687
 4.0000e+000 98863 -4.3072e+001 -7.3409e+000 -7.0979e+000 41847 98661,98791,98765
 4.0000e+000 98840 -1.2829e+001  2.0947e+001 -6.2202e+000 41847 98687,98765,98739
 4.0000e+000 98817  6.0758e+000  3.0657e+001 -9.7994e+000 41847 98687,98739,98713
 4.0000e+000 99394 -2.6124e+001 -2.2184e+001  3.5412e+000 41236 99417,99149,99123
 4.0000e+000 99371 -3.9054e+001 -3.3564e+001 -2.8656e+000 41236 99417,99123,99097
 4.0000e+000 99348 -3.8132e+001 -3.1540e+001 -5.4414e+000 41236 99489,99201,99149
 4.0000e+000 99325 -2.4975e+001 -2.5010e+001 -3.1820e+000 41236 99149,99201,99175
 4.0000e+000 99302 -2.0756e+001 -4.9553e+001  1.7271e+000 41236 99097,99253,99227
 4.0000e+000 99279 -3.6512e+001 -7.4776e+001 -1.1926e+001 41236 99071,99253,99097
 4.0000e+000 99443 -3.3899e+001 -3.2064e+001 -4.6498e+000 41236 99489,99149,99417
 4.0000e+000 99466 -3.6154e+001 -3.7597e+001 -7.1793e+000 41236 99227,99417,99097
 4.0000e+000 99515 -4.1637e+001 -3.1815e+001 -5.7154e+000 41236 99227,99201,99489
 4.0000e+000 99538 -3.9282e+001 -3.3443e+001 -4.2486e+000 41236 99227,99489,99417
 4.0000e+000 100044 -3.1004e+000 -6.2026e+001  3.4606e+000 40732 99721,99773,99747
 4.0000e+000 100021 -1.2172e+001 -6.8235e+001 -1.7902e+000 40732 99721,99799,99773
 4.0000e+000 99998 -2.1617e+001 -4.1978e+001  3.9750e+000 40732 99721,99903,99799
 4.0000e+000 99975 -3.1867e+001 -3.9286e+001  2.7124e+000 40732 100067,99877,99851
 4.0000e+000 99952 -3.2124e+001 -2.7416e+001  4.1066e+000 40732 100067,99851,99799
 4.0000e+000 99929 -2.6869e+001 -2.1949e+001 -6.2824e-001 40732 99799,99851,99825
 4.0000e+000 100093 -3.0554e+001 -4.9175e+001 -1.6011e+000 40732 99903,99877,100067
 4.0000e+000 100116 -2.9538e+001 -3.4557e+001 -1.1869e+000 40732 99903,100067,99799
 4.0000e+000 100622 -2.5417e+001 -1.1185e+000  5.3422e+000 40278 100645,100455,100429
 4.0000e+000 100599 -2.2814e+001 -8.2892e+000  7.8196e+000 40278 100717,100645,100429
 4.0000e+000 100576 -2.7375e+001 -1.0221e+001  4.9382e+000 40278 100717,100429,100377
 4.0000e+000 100553 -2.0227e+001 -4.1732e+000  5.8813e+000 40278 100789,100325,100481
 4.0000e+000 100530 -1.2100e+001  1.1371e+001  1.1967e+001 40278 100299,100481,100325
 4.0000e+000 100507 -8.6449e+000 -4.1823e+000  7.2790e+000 40278 100377,100429,100403
 4.0000e+000 100671 -2.1577e+001  1.2917e+001  1.0275e+001 40278 100481,100455,100645
 4.0000e+000 100694 -2.2536e+001 -3.1513e+000  3.8784e+000 40278 100789,100481,100645
 4.0000e+000 100743 -2.5177e+001 -9.0114e+000 -1.4840e-001 40278 100351,100645,100717
 4.0000e+000 100766 -3.5363e+001 -1.2816e+001 -2.7445e+000 40278 100351,100717,100377
 4.0000e+000 100815 -1.7399e+001 -2.9436e+000  5.4231e+000 40278 100351,100325,100789
 4.0000e+000 100838 -1.8736e+001 -1.1972e+000  3.1362e+000 40278 100351,100789,100645
 4.0000e+000 101265 -1.0438e+001 -3.2947e+001  7.6432e+000 39824 101288,101046,100994
 4.0000e+000 101242 -1.0025e+001 -2.9260e+001  7.5755e+000 39824 101288,100994,100968
 4.0000e+000 101219 -8.2494e+000 -3.8777e+001  8.9990e-001 39824 100942,101124,100968
 4.0000e+000 101196 -2.0357e+001 -6.3408e+001  5.1958e+000 39824 101046,101124,101072
 4.0000e+000 101173 -8.9763e-001 -2.9727e+001  6.9962e+000 39824 100994,101046,101020
 4.0000e+000 101150 -1.9513e+001 -6.8785e+001  7.4496e+000 39824 101072,101124,101098
 4.0000e+000 101314 -1.0312e+001 -3.0811e+001  6.2485e+000 39824 101124,101046,101288
 4.0000e+000 101337 -1.0559e+001 -2.8844e+001  5.7318e+000 39824 101124,101288,100968
 4.0000e+000 101585 -3.5322e+000 -1.1348e+001  7.3573e+000 39070 101608,101464,101412
 4.0000e+000 101562 -2.4605e+001  2.9968e+000 -1.0612e+001 39070 101608,101412,101360
 4.0000e+000 101539  3.1686e+000 -9.5069e+000  7.3133e+000 39070 101412,101464,101438
 4.0000e+000 101516 -3.3075e+001  8.0923e+000 -5.3506e+000 39070 101360,101412,101386
 4.0000e+000 101634  1.0093e+001 -3.8971e+000  4.1278e+000 39070 101490,101464,101608
 4.0000e+000 101657 -2.1285e+000  1.5857e+001 -1.5912e+001 39070 101490,101608,101360
 4.0000e+000 101856 -1.4557e+001  4.0117e+001 -3.4355e+000 38730 101706,101758,101732
 4.0000e+000 101833 -2.1217e+001  9.7155e+000  7.8212e+000 38730 101706,101784,101758
 4.0000e+000 101810 -3.3361e+001 -7.3334e-001  1.1738e+000 38730 101680,101784,101706
 4.0000e+000 102106 -1.0320e+001 -1.5593e+001  8.6570e+000 38326 101881,101959,101907
 4.0000e+000 102083 -1.2701e+001 -2.6469e+001  5.8984e+000 38326 101881,101985,101959
 4.0000e+000 102060 -1.1996e+001 -2.8217e+001  6.8661e+000 38326 101881,102011,101985
 4.0000e+000 102037 -1.5767e+001 -1.9034e+001  9.9295e+000 38326 101907,101959,101933
 4.0000e+000 102258  3.7545e+000  1.3842e+001 -1.5202e+001 38036 102281,102157,102131
 4.0000e+000 102235  7.8893e+000  8.4351e+000 -1.2343e+001 38036 102281,102131,102209
 4.0000e+000 102307  5.6776e+000  1.7587e+001 -1.4063e+001 38036 102183,102157,102281
 4.0000e+000 102330  1.2299e+001  1.5278e+001 -1.0047e+001 38036 102183,102281,102209
 4.0000e+000 102663 -8.1798e+000 -1.6983e+001  5.1346e+000 37596 102438,102542,102464
 4.0000e+000 102640  9.0152e-001 -1.5015e+001  1.1766e+000 37596 102438,102568,102542
 4.0000e+000 102617 -1.9763e+001 -2.7672e+001  7.5575e-001 37596 102490,102542,102516
 4.0000e+000 102594 -1.6499e+001 -1.4228e+001  2.2855e+000 37596 102464,102542,102490
 4.0000e+000 102862 -3.8139e+000 -5.7570e+000  1.5677e+000 37192 102686,102764,102712
 4.0000e+000 102839 -2.6670e+000 -1.0590e+001 -3.0272e+000 37192 102686,102790,102764
 4.0000e+000 102816 -1.9484e+000 -4.4263e+000  9.3953e-001 37192 102712,102764,102738
 4.0000e+000 103110 -1.3143e+001 -5.7265e+000  4.0522e+000 36609 102911,102963,102937
 4.0000e+000 103087 -1.1959e+001 -5.5320e+000  5.6451e+000 36609 102911,102989,102963
 4.0000e+000 103064 -3.1255e+000 -1.1974e+001  1.6989e+000 36609 102885,102989,102911
 4.0000e+000 103041 -4.9974e+000 -1.2046e+001  1.5465e+000 36609 102885,103015,102989
 4.0000e+000 103718 -1.9380e+001 -8.8853e+000  1.0252e+000 36131 103323,103375,103349
 4.0000e+000 103695 -2.7614e+001 -1.4049e+001  3.7035e+000 36131 103297,103375,103323
 4.0000e+000 103672 -3.0742e+001 -2.5360e+001 -5.1288e-001 36131 103297,103505,103375
 4.0000e+000 103649 -2.8309e+001 -1.5575e+001 -3.0405e-001 36131 103741,103479,103401
 4.0000e+000 103626 -2.6368e+001 -1.1216e+001  3.5851e+000 36131 103741,103401,103375
 4.0000e+000 103603 -2.5360e+001 -1.6336e+001  7.6380e-001 36131 103401,103479,103427
 4.0000e+000 103580 -3.3470e+001 -2.8183e+001  1.2302e+000 36131 103297,103531,103505
 4.0000e+000 103557 -2.4451e+001 -1.5915e+001 -1.9739e+000 36131 103427,103479,103453
 4.0000e+000 103767 -3.1741e+001 -1.9876e+001 -3.4522e+000 36131 103505,103479,103741
 4.0000e+000 103790 -2.9315e+001 -1.5661e+001  5.3471e-001 36131 103505,103741,103375
 4.0000e+000 103989 -3.0113e+001 -2.3668e+001  9.9051e-001 35791 103839,103917,103891
 4.0000e+000 103966 -3.5044e+001 -5.1459e+001 -5.8932e+000 35791 103813,103917,103839
 4.0000e+000 103943 -3.5024e+001 -1.7464e+001 -3.9584e+000 35791 103839,103891,103865
 4.0000e+000 104188 -5.3871e+000  2.9944e+001  7.0072e+000 35444 104038,104090,104064
 4.0000e+000 104165  2.6634e+000  3.1354e+001  4.1496e+000 35444 104038,104116,104090
 4.0000e+000 104142  2.7587e-001  3.5332e+001  4.0543e+000 35444 104012,104116,104038
 4.0000e+000 104487 -9.2670e-001 -4.6040e+000  3.8850e-001 34990 104265,104317,104291
 4.0000e+000 104464 -3.9231e+000 -8.1515e+000  5.6038e+000 34990 104510,104317,104265
 4.0000e+000 104441 -7.0384e+000 -8.9225e+000  5.1038e+000 34990 104510,104265,104213
 4.0000e+000 104418 -3.5958e+000 -9.6496e+000  2.9243e+000 34990 104582,104343,104317
 4.0000e+000 104395  9.0886e-001  8.6112e+000  4.8941e-001 34990 104213,104265,104239
 4.0000e+000 104536 -3.3881e+000 -9.6545e+000  5.1079e+000 34990 104582,104317,104510
 4.0000e+000 104559 -5.3776e+000 -6.7714e+000  4.3612e+000 34990 104369,104510,104213
 4.0000e+000 104608 -1.0935e+001 -1.7115e+001 -1.9086e-001 34990 104369,104343,104582
 4.0000e+000 104631 -6.5012e+000 -1.0977e+001  3.3157e+000 34990 104369,104582,104510
 4.0000e+000 104783 -2.0789e+001  6.4039e+000  3.1400e+000 34700 104938,104806,104682
 4.0000e+000 104760 -2.1915e+001  1.1023e+001 -3.4370e-001 34700 104938,104682,104656
 4.0000e+000 104832 -4.1522e+000  1.4486e+001  7.6665e+000 34700 104708,104682,104806
 4.0000e+000 104964 -1.6186e+001  6.9788e+000 -2.7513e-001 34700 104734,104806,104938
 4.0000e+000 104987 -1.7417e+001  1.0784e+001 -3.7230e+000 34700 104734,104938,104656
 4.0000e+000 105137 -1.2516e+001  4.3281e+001 -5.0229e+000 34388 105036,105088,105062
 4.0000e+000 105114 -1.2904e+001  5.5650e+001 -2.9575e+000 34388 105010,105088,105036
 4.0000e+000 105385 -7.3871e-001 -4.2331e+000 -5.1212e+000 33734 105408,105186,105160
 4.0000e+000 105362 -8.3556e-001 -8.6109e+000 -5.9994e+000 33734 105408,105160,105264
 4.0000e+000 105339 -4.2246e+000 -7.7689e+000 -6.2333e+000 33734 105160,105290,105264
 4.0000e+000 105316 -7.0225e-002  1.0490e+000 -8.1556e-001 33734 105186,105238,105212
 4.0000e+000 105434 -1.0393e+000  9.6268e-001 -1.1992e+000 33734 105238,105186,105408
 4.0000e+000 105457 -3.1089e+000 -9.0400e+000 -1.8134e-001 33734 105238,105408,105264
 4.0000e+000 105609  1.2259e+001  5.1766e+001 -2.1109e+000 33394 105482,105534,105508
 4.0000e+000 105586 -7.8434e+000  5.0795e+001 -5.8035e+000 33394 105482,105560,105534
 4.0000e+000 105859 -5.4935e+000  4.7757e+000  9.8705e+000 33047 105882,105712,105660
 4.0000e+000 105836 -4.7127e+000  3.5158e+000  7.6230e+000 33047 105882,105660,105634
 4.0000e+000 105813  1.1776e+001  8.1281e+000  1.2721e+001 33047 105660,105712,105686
 4.0000e+000 105790 -3.0453e+000  1.5094e+001  2.8738e+000 33047 105634,105764,105738
 4.0000e+000 105908 -7.3672e+000  3.9960e-001  1.0835e+001 33047 105738,105712,105882
 4.0000e+000 105931 -5.4812e+000  1.3533e+000  7.7677e+000 33047 105738,105882,105634
 4.0000e+000 106181 -1.0232e+001 -7.9274e+000  6.5768e+000 32543 106204,106060,106008
 4.0000e+000 106158 -1.6448e+001 -1.7840e+001  6.7968e+000 32543 105956,106086,106060
 4.0000e+000 106135 -7.4407e+000 -2.6015e+000  4.9132e+000 32543 106204,106008,105982
 4.0000e+000 106112 -1.5068e+001 -4.5037e-001  6.4677e+000 32543 106008,106060,106034
 4.0000e+000 106230 -7.6027e+000 -9.8817e+000  2.6437e+000 32543 105956,106060,106204
 4.0000e+000 106253 -4.1755e+000 -4.5769e+000  8.4466e-001 32543 105956,106204,105982
 4.0000e+000 106454 -1.0973e+001  8.7543e+000  9.0170e-001 31839 106304,106356,106330
 4.0000e+000 106431 -1.1792e+001  1.4525e+001  9.9620e+000 31839 106278,106356,106304
 4.0000e+000 106408 -1.5366e+001  2.2326e+001  8.5916e+000 31839 106278,106382,106356
 4.0000e+000 106704 -4.8875e+000 -7.1114e+000  6.9229e-001 31534 106505,106583,106557
 4.0000e+000 106681 -1.7229e+000 -1.0059e+001 -4.0933e+000 31534 106479,106583,106505
 4.0000e+000 106658 -2.3052e+000 -5.4938e+000 -9.0879e-002 31534 106505,106557,106531
 4.0000e+000 106635  9.5105e-001 -9.0513e+000 -4.2195e+000 31534 106479,106609,106583
 4.0000e+000 107108 -2.6883e+001 -1.1922e+001  3.2186e-002 31030 106886,106990,106964
 4.0000e+000 107085 -2.4771e+001 -1.9194e+001  1.4655e+000 31030 106860,106990,106886
 4.0000e+000 107062 -3.3422e+001 -2.4980e+001 -2.1343e+000 31030 106834,106990,106860
 4.0000e+000 107039 -2.5027e+001 -6.9321e+000 -5.1802e-001 31030 106912,106964,106938
 4.0000e+000 107016 -2.6795e+001 -1.2037e+001 -4.0412e-001 31030 106886,106964,106912
 4.0000e+000 107307 -5.5996e+000  2.3701e+001 -1.5695e+000 30718 107330,107157,107131
 4.0000e+000 107284 -4.2780e+000  3.1131e+001 -2.7954e+000 30718 107330,107131,107235
 4.0000e+000 107261 -1.8773e+000  2.1919e+001 -7.6829e+000 30718 107183,107235,107209
 4.0000e+000 107356 -2.7249e+000  1.3547e+001 -1.8972e+000 30718 107183,107157,107330
 4.0000e+000 107379 -1.1916e-001  2.2724e+001 -3.2690e+000 30718 107183,107330,107235
 4.0000e+000 107759  2.3881e+000  1.7050e+001  3.2637e+000 30264 107782,107615,107537
 4.0000e+000 107736  5.1134e+000  2.3488e+001  1.6979e+000 30264 107782,107537,107485
 4.0000e+000 107713  7.2418e+000  2.8034e+001  2.8873e-001 30264 107485,107537,107511
 4.0000e+000 107690 -2.8422e+000  3.3330e+001  1.0245e+001 30264 107537,107615,107589
 4.0000e+000 107667 -2.1773e+000  2.2211e+001  2.9693e+000 30264 107537,107589,107563
 4.0000e+000 107808  2.3576e+000  1.8888e+001 -1.2941e+000 30264 107641,107615,107782
 4.0000e+000 107831  4.5787e+000  2.5667e+001 -2.4979e+000 30264 107641,107782,107485
 4.0000e+000 108030 -4.0368e+000 -2.2176e+001 -3.2837e+000 29874 108053,107854,107932
 4.0000e+000 108007 -6.9527e+000 -1.6071e+001 -8.3802e+000 29874 107854,107958,107932
 4.0000e+000 107984 -1.4114e+001 -1.5860e+001  5.0696e+000 29874 108053,107932,107906
 4.0000e+000 108079 -7.0672e-001 -1.3606e+001 -4.3154e+000 29874 107880,107854,108053
 4.0000e+000 108102 -7.6883e+000 -3.0584e+000  1.7479e+000 29874 107880,108053,107906
 4.0000e+000 108433  2.3708e+000  1.0053e+001  3.4730e+000 29484 108234,108338,108312
 4.0000e+000 108410  3.5664e+000  1.1348e+001  4.8989e+000 29484 108208,108338,108234
 4.0000e+000 108387  5.4509e+000  8.9691e+000  4.7480e+000 29484 108234,108312,108260
 4.0000e+000 108364  1.3866e+001 -3.9976e+000  3.1446e+000 29484 108260,108312,108286
 4.0000e+000 108762 -2.2674e+001 -1.3726e+001  2.0245e+000 29080 108563,108641,108589
 4.0000e+000 108739 -1.5507e+001 -8.3942e+000  8.5509e+000 29080 108537,108641,108563
 4.0000e+000 108716 -2.8948e+001 -1.4677e+001  6.1601e+000 29080 108589,108641,108615
 4.0000e+000 108693 -1.7313e+001 -1.1703e+001 -8.1680e-001 29080 108537,108667,108641
 4.0000e+000 109189 -4.8955e-001  7.4713e+000  6.4872e+000 28476 108892,108996,108970
 4.0000e+000 109166  9.3942e+000  1.6345e+000  8.0192e+000 28476 108892,109022,108996
 4.0000e+000 109143  2.1915e+000  6.8184e-001  4.5480e+000 28476 108892,108970,108944
 4.0000e+000 109120  6.9057e+000 -6.8253e+000  2.8508e+000 28476 108892,109048,109022
 4.0000e+000 109097  3.3209e-001 -6.0950e-001  2.8067e+000 28476 108892,108944,108918
 4.0000e+000 109074  5.7812e+000  3.9956e+000  9.1929e-001 28476 108866,109048,108892
 4.0000e+000 109518 -2.1535e+001 -6.3973e+000 -3.8008e-001 28022 109541,109371,109345
 4.0000e+000 109495 -1.9567e+001 -8.7278e+000  2.5259e+000 28022 109541,109345,109319
 4.0000e+000 109472 -2.1302e+001 -1.0033e+001 -1.2636e+000 28022 109293,109397,109319
 4.0000e+000 109449 -2.9526e+001 -1.4148e+001  1.2247e-001 28022 109293,109423,109397
 4.0000e+000 109567 -2.9892e+001 -9.8084e+000 -8.2832e-001 28022 109397,109371,109541
 4.0000e+000 109590 -2.2116e+001 -8.7756e+000  1.9591e+000 28022 109397,109541,109319
 4.0000e+000 109968 -1.6445e+001 -8.3489e+000  4.9138e+000 27568 109798,109850,109824
 4.0000e+000 109945 -9.8587e+000  6.3651e+000  6.6383e+000 27568 109694,109850,109798
 4.0000e+000 109922 -6.7550e+000 -1.5656e+001  1.2344e+001 27568 109694,109798,109746
 4.0000e+000 109899 -9.2023e+000 -1.5219e+001  2.3929e+001 27568 109746,109798,109772
 4.0000e+000 109876 -2.0611e+000  6.9261e+000  4.7977e+000 27568 109694,109746,109720
 4.0000e+000 110167 -1.8028e-001 -5.6316e+000 -6.9309e+000 27007 110017,110095,110069
 4.0000e+000 110144  7.0126e+000 -6.3748e+000 -1.5225e+000 27007 109991,110095,110017
 4.0000e+000 110121 -3.1219e+000 -8.9226e-001  8.0959e-001 27007 110017,110069,110043
 4.0000e+000 110415 -9.5924e+000 -1.5231e+001  2.1573e+000 26567 110438,110242,110190
 4.0000e+000 110392 -1.4773e+001 -1.9985e+001  4.1680e+000 26567 110438,110190,110320
 4.0000e+000 110369 -2.1891e+001 -1.4739e+001 -1.4602e-003 26567 110242,110294,110268
 4.0000e+000 110346 -8.1444e+000 -1.1538e+001  2.6085e+000 26567 110190,110242,110216
 4.0000e+000 110464 -1.2177e+001 -1.3319e+001 -3.6378e-002 26567 110294,110242,110438
 4.0000e+000 110487 -1.4468e+001 -1.5313e+001  1.1676e+000 26567 110294,110438,110320
 4.0000e+000 110639  3.0711e-001  3.7442e-001  3.5368e-001 26170 110538,110590,110564
 4.0000e+000 110616  7.4192e+000  4.3118e+000  4.1088e+000 26170 110512,110590,110538
 4.0000e+000 111149 -9.1725e-001  1.0253e+001 -4.1975e-001 25716 111172,110878,110852
 4.0000e+000 111126 -4.7125e-002  1.1340e+001 -9.1687e-001 25716 111172,110852,111008
 4.0000e+000 111103 -1.5349e+000  8.9305e+000  1.3239e+000 25716 110878,110930,110904
 4.0000e+000 111080  3.7909e-003  1.0386e+001 -2.1844e+000 25716 110826,111008,110852
 4.0000e+000 111057  5.9563e+000  1.8627e+001 -1.9483e+000 25716 110930,111008,110956
 4.0000e+000 111034  5.5978e+000  1.2986e+001  1.9848e+000 25716 110956,111008,110982
 4.0000e+000 111198  5.3291e-001  8.2599e+000  7.4929e-002 25716 110930,110878,111172
 4.0000e+000 111221  1.7127e+000  9.4829e+000 -5.2766e-001 25716 110930,111172,111008
 4.0000e+000 111420 -1.7602e+000  2.0404e+001 -6.2864e-001 25304 111443,111270,111244
 4.0000e+000 111397 -1.7108e+000  3.1683e+001 -1.8064e+000 25304 111443,111244,111348
 4.0000e+000 111374  3.0580e-002  9.9001e+000 -1.3787e+000 25304 111270,111322,111296
 4.0000e+000 111469  7.7099e-002  1.0858e+001 -2.5914e-001 25304 111322,111270,111443
 4.0000e+000 111492 -1.0752e+000  2.0279e+001 -2.3014e+000 25304 111322,111443,111348
 4.0000e+000 111691 -2.6078e+001 -1.3470e+001 -3.1828e+000 24736 111567,111619,111593
 4.0000e+000 111668 -2.1965e+001 -1.1237e+001  9.3470e-001 24736 111541,111619,111567
 4.0000e+000 111645 -1.0614e+001 -4.5037e+000  3.7573e+000 24736 111515,111619,111541
 4.0000e+000 112024 -1.6580e+000 -2.2963e+000  3.2812e+000 24146 111825,111877,111851
 4.0000e+000 112001  8.2856e-001  3.1476e+000  3.9639e+000 24146 111825,111903,111877
 4.0000e+000 111978 -4.3770e+000 -5.6503e-001  6.2912e+000 24146 111825,111929,111903
 4.0000e+000 111955 -1.4599e+000  5.9640e+000  1.0448e+001 24146 111799,111929,111825
 4.0000e+000 112370 -6.5647e+000 -1.2379e+001  6.6973e-001 23856 112393,112151,112125
 4.0000e+000 112347 -3.3847e+000 -1.1674e+001  3.3885e+000 23856 112465,112393,112125
 4.0000e+000 112324 -2.4498e+000 -9.4542e+000  3.2713e+000 23856 112465,112125,112073
 4.0000e+000 112301 -2.3795e+000 -1.1696e+001  3.5552e+000 23856 112073,112125,112099
 4.0000e+000 112278 -4.4114e+000 -1.5988e+001 -3.3116e+000 23856 112047,112229,112073
 4.0000e+000 112255 -1.2497e+001 -1.5039e+001 -9.2985e-001 23856 112151,112203,112177
 4.0000e+000 112419 -1.2700e+001 -1.3892e+001 -1.3675e-001 23856 112203,112151,112393
 4.0000e+000 112442 -5.8394e+000 -1.7595e+001 -3.4246e-001 23856 112203,112393,112229
 4.0000e+000 112491 -3.4058e+000 -1.3392e+001 -1.5872e+000 23856 112229,112393,112465
 4.0000e+000 112514 -1.0352e+000 -7.8662e+000 -1.8433e+000 23856 112229,112465,112073
 4.0000e+000 112784 -2.7785e+001 -3.9570e+000 -1.2948e+000 23494 112611,112663,112637
 4.0000e+000 112761 -2.9396e+001 -9.2067e+000 -2.2269e+000 23494 112585,112663,112611
 4.0000e+000 112738 -2.6189e+001 -7.7867e+000 -1.0034e+000 23494 112559,112663,112585
 4.0000e+000 112715 -2.6875e+001 -8.1246e+000 -2.7719e-001 23494 112559,112689,112663
 4.0000e+000 113117 -1.7141e+000  5.9413e+000 -5.7402e-001 22974 112944,113022,112996
 4.0000e+000 113094 -3.3125e+000 -3.2850e+000  3.1378e+000 22974 112918,113022,112944
 4.0000e+000 113071 -4.5534e+000 -6.8856e-001 -5.5477e-001 22974 112944,112996,112970
 4.0000e+000 113048 -1.2479e+000  1.2377e+001 -4.3534e+000 22974 112892,113022,112918
 4.0000e+000 113414 -2.1227e-001  9.5688e+000 -1.2479e+000 22370 113192,113296,113218
 4.0000e+000 113391 -3.1564e+000  2.3700e+001  1.0416e+000 22370 113140,113296,113192
 4.0000e+000 113368  6.9010e+000  2.6310e+001 -7.3907e-001 22370 113218,113296,113270
 4.0000e+000 113345  1.2825e+001  2.4137e+001  5.9926e+000 22370 113218,113270,113244
 4.0000e+000 113322  9.1973e+000  3.7405e+001 -1.6100e+001 22370 113140,113192,113166
 4.0000e+000 113662  6.0954e+000 -4.7746e+000  7.8549e+000 21916 113685,113515,113489
 4.0000e+000 113639  1.4616e+001 -1.9483e+000  1.0488e+001 21916 113685,113489,113437
 4.0000e+000 113616  1.3048e-001  7.6518e-001  4.1163e+000 21916 113757,113567,113541
 4.0000e+000 113593  1.5820e+001  5.2954e+000 -2.6989e+000 21916 113437,113489,113463
 4.0000e+000 113711  8.6117e+000 -6.5531e+000  1.3999e+001 21916 113541,113515,113685
 4.0000e+000 113734  7.3140e+000 -8.2265e+000  9.6764e+000 21916 113757,113541,113685
 4.0000e+000 113783  5.9134e+000  1.2975e+001  9.2924e+000 21916 113437,113567,113757
 4.0000e+000 113806  1.3181e+001  6.0283e+000  1.2213e+001 21916 113437,113757,113685
 4.0000e+000 114056 -2.8379e+000 -9.2136e+000  3.3670e+000 21412 113857,113909,113883
 4.0000e+000 114033  4.6539e+000 -6.6828e+000 -2.4474e+000 21412 114079,113909,113857
 4.0000e+000 114010  8.7020e+000 -7.9216e+000  1.8503e+000 21412 114079,113857,113961
 4.0000e+000 113987  1.8656e+000  1.3794e+001  1.1204e+001 21412 113831,113961,113857
 4.0000e+000 114105  7.5768e+000 -8.3779e-001 -1.2641e+000 21412 113935,113909,114079
 4.0000e+000 114128  9.9121e+000 -5.0646e+000  2.1908e+000 21412 113935,114079,113961
 4.0000e+000 114378 -1.5256e+001 -8.0679e+000 -1.4614e+000 21022 114401,114257,114205
 4.0000e+000 114355 -1.5737e+001 -9.2606e+000 -1.4802e+000 21022 114401,114205,114179
 4.0000e+000 114332 -7.1543e+000 -1.1172e+001 -1.6805e+000 21022 114153,114283,114179
 4.0000e+000 114309 -1.9179e+001 -5.9512e+000 -6.4556e-001 21022 114205,114257,114231
 4.0000e+000 114427 -1.4963e+001 -8.5118e+000 -3.4690e-001 21022 114283,114257,114401
 4.0000e+000 114450 -1.5385e+001 -9.5976e+000 -3.9400e-001 21022 114283,114401,114179
 4.0000e+000 114651  1.4373e+001  7.6463e+000  3.4779e+000 20618 114501,114553,114527
 4.0000e+000 114628  1.3861e+000  7.0175e+000 -3.1669e+000 20618 114501,114579,114553
 4.0000e+000 114605  1.6564e+001  6.2034e+000 -1.8770e+000 20618 114475,114579,114501
 4.0000e+000 114901  7.6987e+000  3.1208e+000 -3.8398e-001 20114 114676,114780,114702
 4.0000e+000 114878  5.3979e+000  1.8949e+001 -2.1378e+001 20114 114676,114806,114780
 4.0000e+000 114855  6.3042e+000  1.5592e+000 -9.9529e-001 20114 114702,114780,114754
 4.0000e+000 114832  3.3408e+001  5.2847e+000  3.2879e+000 20114 114702,114754,114728
 4.0000e+000 115053 -7.1477e+000 -1.2547e+001 -1.6477e+000 19460 115147,115076,114926
 4.0000e+000 115030 -3.0067e+000 -1.9270e+001  2.2954e-001 19460 115147,114926,115004
 4.0000e+000 115102 -1.3885e+000 -2.5607e+000 -4.0268e+000 19460 114952,114926,115076
 4.0000e+000 115173 -4.7718e+000 -1.0994e+000 -7.2385e-001 19460 114978,115076,115147
 4.0000e+000 115196 -1.9470e+000 -9.5733e+000  1.8700e+000 19460 114978,115147,115004
 4.0000e+000 115446  7.0497e-001  1.7592e+001  3.0854e+000 19006 115273,115351,115299
 4.0000e+000 115423 -1.5334e+000  1.4024e+001  1.5082e+000 19006 115247,115351,115273
 4.0000e+000 115400  1.8645e-001  1.3903e+001 -4.0068e+000 19006 115221,115351,115247
 4.0000e+000 115377  2.3776e+000  2.3258e+001  3.2538e+000 19006 115299,115351,115325
 4.0000e+000 115767 -1.7781e+001 -4.8384e+000  1.8647e-001 18716 115571,115649,115623
 4.0000e+000 115744 -1.8697e+001 -4.6604e+000 -7.8626e-001 18716 115493,115649,115571
 4.0000e+000 115721 -1.9957e+001 -3.6925e+000 -2.9344e-002 18716 115493,115571,115545
 4.0000e+000 115698 -2.0705e+001 -4.8677e+000 -6.6796e-001 18716 115493,115545,115519
 4.0000e+000 115675 -1.5434e+001 -3.7681e-001  8.7546e+000 18716 115571,115623,115597
 4.0000e+000 116039  6.0116e+000 -4.0944e+000  3.7037e+000 18312 115814,115892,115840
 4.0000e+000 116016  1.0138e+001  5.7211e+000  3.5475e+000 18312 115814,115944,115892
 4.0000e+000 115993  6.7291e+000  3.8490e-001  1.9159e+000 18312 115892,115944,115918
 4.0000e+000 115970  1.6979e+001  5.9884e-001  2.7998e+000 18312 115840,115892,115866
 4.0000e+000 116191  3.4137e-001  4.2370e+001  6.2766e-001 18000 116090,116142,116116
 4.0000e+000 116168 -2.2623e+000  3.7420e+001 -3.1649e-001 18000 116064,116142,116090
 4.0000e+000 116343 -1.7542e+001 -1.3054e+000  2.1551e-001 17396 116242,116294,116268
 4.0000e+000 116320 -1.6964e+001 -7.9231e-001  4.5249e-001 17396 116216,116294,116242
 4.0000e+000 116566  5.8043e+000 -3.0490e+001  6.8452e+000 16942 116390,116468,116442
 4.0000e+000 116543 -1.6840e+000 -2.6290e+001  6.5453e+000 16942 116390,116494,116468
 4.0000e+000 116520 -3.3503e-001 -4.4925e+001  3.1370e+000 16942 116390,116442,116416
 4.0000e+000 116767 -5.5414e+000 -3.0847e+000 -6.3756e-001 16438 116790,116643,116617
 4.0000e+000 116744 -3.9079e+000  1.0324e+000  5.1629e-001 16438 116790,116617,116591
 4.0000e+000 116721 -8.9972e+000 -2.9181e+000 -6.7921e-001 16438 116643,116695,116669
 4.0000e+000 116816 -6.9137e+000 -1.1109e-001 -1.9596e+000 16438 116695,116643,116790
 4.0000e+000 116839 -6.4125e+000  2.2101e+000 -1.9356e+000 16438 116695,116790,116591
 4.0000e+000 117062  3.3841e-001  1.8249e+001  1.8271e+000 16074 116886,116938,116912
 4.0000e+000 117039  7.9411e+000  2.3774e+001 -1.6887e+000 16074 116886,116990,116938
 4.0000e+000 117016  1.6331e+000  7.2064e+000 -4.1622e+000 16074 116938,116990,116964
 4.0000e+000 117214 -3.4719e+001 -8.5559e+000 -9.1921e+000 15649 117087,117139,117113
 4.0000e+000 117191 -2.8984e+001 -9.7632e+000 -3.0634e-001 15649 117087,117165,117139
 4.0000e+000 117317 -4.3363e+000 -3.9733e+000 -8.4244e-001 421 117239,117291,117265
