time zIndex S11 S22 S12 block gridPoints
f i f f f i l
 1.0000e-001 68048 -4.9286e+001  3.5709e+001 -1.1458e+000 67642 67898,67950,67924
 1.0000e-001 68025 -5.8916e+001  1.9779e+001  2.9672e+000 67642 67898,67976,67950
 1.0000e-001 68002 -2.8571e+001  3.1212e+001  5.3054e+000 67642 67872,67976,67898
 1.0000e-001 68367 -3.9353e+001 -7.1995e+000  2.7051e+000 67444 68119,68223,68197
 1.0000e-001 68344 -3.4899e+001 -4.1429e+000  1.6252e-001 67444 68119,68249,68223
 1.0000e-001 68321 -3.4871e+001 -4.0846e+000  7.4521e-002 67444 68093,68249,68119
 1.0000e-001 68298 -3.7867e+001 -2.2954e+000 -2.0993e-001 67444 68119,68197,68171
 1.0000e-001 68275 -3.2472e+001  1.8133e+000  1.6571e+000 67444 68119,68171,68145
 1.0000e-001 68468 -4.6001e+001  1.2350e+001 -4.0053e+000 67268 68390,68442,68416
 1.0000e-001 68765 -4.1312e+001  2.2922e+001 -2.7381e+000 66956 68788,68517,68491
 1.0000e-001 68742 -4.0244e+001  1.8201e+001 -3.5475e+000 66956 68788,68491,68621
 1.0000e-001 68719 -4.9135e+001  1.5771e+001 -1.6401e+001 66956 68543,68621,68569
 1.0000e-001 68696 -3.6199e+001  2.9386e+001 -2.6354e+000 66956 68491,68647,68621
 1.0000e-001 68673 -9.2162e+001 -1.8491e+001 -3.2199e+001 66956 68569,68621,68595
 1.0000e-001 68814 -4.0671e+001  1.9282e+001 -1.3844e+000 66956 68543,68517,68788
 1.0000e-001 68837 -3.9359e+001  1.4786e+001 -2.6176e+000 66956 68543,68788,68621
 1.0000e-001 69107 -4.5013e+001 -1.1393e+001 -5.5110e-001 66758 68882,68986,68908
 1.0000e-001 69084 -3.5761e+001 -7.0592e+000  6.0465e-001 66758 68882,69012,68986
 1.0000e-001 69061 -5.0663e+001 -7.4559e+000 -8.0308e-001 66758 68908,68960,68934
 1.0000e-001 69038 -4.4628e+001 -7.9846e+000 -6.8712e-001 66758 68908,68986,68960
 1.0000e-001 69308 -4.1548e+001  2.9217e+001 -1.2323e+000 66560 69331,69184,69158
 1.0000e-001 69285 -4.2708e+001  2.3253e+001 -2.9330e+000 66560 69331,69158,69132
 1.0000e-001 69262 -4.3555e+001  2.2761e+001  8.2230e+000 66560 69184,69236,69210
 1.0000e-001 69357 -3.7048e+001  2.3427e+001  1.0069e+000 66560 69236,69184,69331
 1.0000e-001 69380 -3.9271e+001  1.5865e+001  8.9474e-002 66560 69236,69331,69132
 1.0000e-001 69554 -4.7450e+001  1.6914e+001 -2.4104e+000 66270 69427,69479,69453
 1.0000e-001 69531 -5.2828e+001  4.3751e+000 -4.8960e+000 66270 69427,69505,69479
 1.0000e-001 69804 -3.7872e+001  4.6113e+000  2.4967e+000 66066 69579,69683,69657
 1.0000e-001 69781 -5.0131e+001 -5.8489e-001  2.0681e+000 66066 69579,69709,69683
 1.0000e-001 69758 -4.4195e+001  4.5842e+000  5.7778e+000 66066 69579,69657,69631
 1.0000e-001 69735 -4.0199e+001  1.0995e+001  1.3791e+001 66066 69579,69631,69605
 1.0000e-001 70257 -4.0401e+001 -1.3338e+001 -7.3683e-001 65776 69960,70090,69986
 1.0000e-001 70234 -3.9692e+001 -1.0405e+001 -1.4753e+000 65776 69934,70090,69960
 1.0000e-001 70211 -3.1493e+001 -6.5262e+000 -3.5069e-001 65776 69934,70116,70090
 1.0000e-001 70188 -3.6834e+001 -6.9049e+000  0.0000e+000 65776 70038,70090,70064
 1.0000e-001 70165 -3.6757e+001 -5.2349e+000 -1.8306e+000 65776 69986,70090,70038
 1.0000e-001 70142 -3.8143e+001 -2.0107e+000 -1.3018e+000 65776 69986,70038,70012
 1.0000e-001 70456 -3.2557e+001 -4.5265e+000  2.9079e-001 65372 70479,70306,70280
 1.0000e-001 70433 -2.9610e+001 -3.5781e+000 -1.8664e+000 65372 70479,70280,70384
 1.0000e-001 70410 -2.9185e+001 -6.3820e+000  1.0291e+000 65372 70551,70332,70306
 1.0000e-001 70505 -2.9294e+001 -3.7288e+000 -9.8008e-001 65372 70551,70306,70479
 1.0000e-001 70528 -2.3387e+001 -4.8890e+000 -3.4922e+000 65372 70358,70479,70384
 1.0000e-001 70577 -2.8415e+001 -1.0151e+001  7.0927e-001 65372 70358,70332,70551
 1.0000e-001 70600 -2.9711e+001 -8.7428e+000 -1.0260e+000 65372 70358,70551,70479
 1.0000e-001 70821 -5.7386e+001 -2.8161e+001 -2.8923e+000 65174 70645,70723,70671
 1.0000e-001 70798 -5.3804e+001 -2.3625e+001  3.7956e+000 65174 70645,70749,70723
 1.0000e-001 70775 -5.3209e+001 -1.7858e+001 -5.4678e+000 65174 70671,70723,70697
 1.0000e-001 71071 -3.8759e+001  3.2056e+001 -7.0733e+000 64770 71094,70898,70872
 1.0000e-001 71048 -2.5091e+001  3.7022e+001 -5.1573e+000 64770 71166,71094,70872
 1.0000e-001 71025 -1.7705e+001  4.1060e+001 -3.5932e+000 64770 71166,70872,70846
 1.0000e-001 71002 -4.2526e+001  2.0001e+001 -1.0044e+001 64770 70898,70950,70924
 1.0000e-001 71120 -2.9366e+001  3.5465e+001 -3.6163e-001 64770 70950,70898,71094
 1.0000e-001 71143 -3.3481e+001  3.5988e+001 -1.2045e+000 64770 70950,71094,70976
 1.0000e-001 71192 -3.1525e+001  4.3897e+001  9.9980e-001 64770 70976,71094,71166
 1.0000e-001 71215 -2.7053e+001  4.6035e+001  1.6249e+000 64770 70976,71166,70846
 1.0000e-001 71514 -3.3285e+001 -2.9792e+000 -3.0749e-001 64572 71681,71537,71318
 1.0000e-001 71491 -3.1536e+001 -3.7531e+000 -7.0739e-001 64572 71537,71266,71240
 1.0000e-001 71468 -3.2403e+001 -6.3665e+000  1.0020e+000 64572 71609,71396,71370
 1.0000e-001 71445 -3.4958e+001 -7.3178e-001 -1.1797e+000 64572 71681,71318,71292
 1.0000e-001 71422 -3.0006e+001  4.5790e+000 -1.4230e+000 64572 71753,71344,71318
 1.0000e-001 71563 -3.1758e+001 -7.9843e-001 -1.0530e+000 64572 71753,71318,71537
 1.0000e-001 71586 -3.3168e+001 -4.8293e+000 -6.9854e-001 64572 71609,71370,71537
 1.0000e-001 71635 -3.5007e+001 -1.1749e+001  2.3791e+000 64572 71240,71396,71609
 1.0000e-001 71658 -3.3943e+001 -7.9962e+000  3.1174e-001 64572 71240,71609,71537
 1.0000e-001 71707 -3.5273e+001 -5.4976e+000 -1.1710e+000 64572 71266,71537,71681
 1.0000e-001 71730 -3.8474e+001 -4.5867e+000 -2.6740e+000 64572 71266,71681,71292
 1.0000e-001 71779 -3.2046e+001 -2.1984e+000 -2.6686e-001 64572 71370,71344,71753
 1.0000e-001 71802 -3.0958e+001 -3.2289e+000  1.6300e-001 64572 71370,71753,71537
 1.0000e-001 72052 -1.6493e+001  2.2653e+001 -7.8499e+000 64374 72075,71879,71827
 1.0000e-001 72029 -1.1131e+001  2.5033e+001 -8.2966e+000 64374 72147,72075,71827
 1.0000e-001 72006 -1.2186e+000  2.1032e+001 -1.4766e+001 64374 72147,71827,71957
 1.0000e-001 71983 -1.3616e+001  4.7923e+001 -6.2560e+000 64374 71827,71879,71853
 1.0000e-001 72101 -1.6029e+001  2.8634e+001 -1.0456e+001 64374 71905,71879,72075
 1.0000e-001 72124 -2.7688e+001  2.0496e+001 -6.2405e+000 64374 71905,72075,71931
 1.0000e-001 72173 -2.0046e+001  1.3619e+001 -3.9878e+000 64374 71931,72075,72147
 1.0000e-001 72196 -1.3734e+001  7.6320e+000 -9.5480e+000 64374 71931,72147,71957
 1.0000e-001 72649 -3.8443e+001 -1.2981e+001  8.1465e-001 63948 72352,72508,72482
 1.0000e-001 72626 -4.3490e+001 -1.9581e+001 -5.1325e+000 63948 72326,72508,72352
 1.0000e-001 72603 -3.5687e+001 -8.4408e+000  7.1604e-001 63948 72672,72430,72378
 1.0000e-001 72580 -3.3741e+001  1.0207e+000 -2.3193e+000 63948 72672,72378,72352
 1.0000e-001 72557 -3.6442e+001 -1.3492e+001  5.1719e-001 63948 72744,72456,72430
 1.0000e-001 72534 -3.6491e+001  1.8164e+000  1.1558e+001 63948 72378,72430,72404
 1.0000e-001 72698 -3.5717e+001 -1.2309e+001  1.1306e+000 63948 72744,72430,72672
 1.0000e-001 72721 -3.7428e+001 -8.3262e+000 -1.9460e-001 63948 72482,72672,72352
 1.0000e-001 72770 -3.9303e+001 -1.1182e+001  8.4537e-001 63948 72482,72456,72744
 1.0000e-001 72793 -3.6996e+001 -8.2618e+000  1.9261e+000 63948 72482,72744,72672
 1.0000e-001 72894 -3.1067e+001  1.0873e+001  7.1147e+000 63494 72816,72868,72842
 1.0000e-001 73093  1.6430e+000  3.6678e+001 -5.0271e+000 63132 72943,72995,72969
 1.0000e-001 73070 -3.2358e+001  2.3462e+001 -2.5260e+000 63132 72943,73021,72995
 1.0000e-001 73047 -2.7648e+001  3.7282e+001 -2.0499e+000 63132 72917,73021,72943
 1.0000e-001 73294 -4.2281e+001 -2.2912e+000  5.8062e+000 62792 73317,73144,73118
 1.0000e-001 73271 -4.0631e+001 -1.3778e+000  4.1340e-001 62792 73317,73118,73222
 1.0000e-001 73248 -3.1727e+001 -1.8817e+000  4.0417e+000 62792 73144,73196,73170
 1.0000e-001 73343 -3.5965e+001 -1.9955e+000  3.9704e+000 62792 73196,73144,73317
 1.0000e-001 73366 -3.4210e+001 -8.5958e-002 -1.7457e+000 62792 73196,73317,73222
 1.0000e-001 73616 -3.5414e+001 -3.4979e+000  2.6588e+000 62388 73639,73417,73391
 1.0000e-001 73593 -3.3556e+001  4.4848e-001  1.9094e-001 62388 73711,73639,73391
 1.0000e-001 73570 -3.4773e+001  2.0666e+000  5.8647e-001 62388 73711,73391,73521
 1.0000e-001 73547 -3.4701e+001 -6.4593e-001 -3.0025e+000 62388 73469,73521,73495
 1.0000e-001 73665 -3.0265e+001 -1.7144e+000 -3.9635e-001 62388 73443,73417,73639
 1.0000e-001 73688 -3.3581e+001  1.9623e+000 -2.0966e+000 62388 73443,73639,73469
 1.0000e-001 73737 -3.4967e+001 -8.7721e-001 -3.5637e-001 62388 73469,73639,73711
 1.0000e-001 73760 -3.6026e+001  4.6357e-001  1.5549e-002 62388 73469,73711,73521
 1.0000e-001 74010 -4.5185e+001 -1.2845e+001 -6.3336e+000 61848 74033,73837,73811
 1.0000e-001 73987 -1.4997e+001 -7.1220e+000  2.1997e+000 61848 74033,73811,73785
 1.0000e-001 73964 -4.3285e+001 -1.5629e+000  3.9404e+000 61848 73837,73915,73889
 1.0000e-001 73941 -5.7600e+001  7.3842e+000 -3.5991e+000 61848 73837,73889,73863
 1.0000e-001 74059 -4.8555e+001 -4.1752e+000  8.3871e-002 61848 73915,73837,74033
 1.0000e-001 74082 -4.6321e+001  6.6462e-001  2.9293e+000 61848 73915,74033,73785
 1.0000e-001 74283 -2.4732e+001  2.4727e+001 -8.6983e+000 61444 74306,74133,74107
 1.0000e-001 74260 -2.8845e+001  2.1997e+001  3.9626e-002 61444 74306,74107,74211
 1.0000e-001 74237 -3.1791e+001  3.2489e+001 -8.3003e-001 61444 74378,74185,74159
 1.0000e-001 74332 -3.3523e+001  2.0983e+001 -8.1438e+000 61444 74159,74133,74306
 1.0000e-001 74355 -3.1052e+001  2.4230e+001 -4.6295e-001 61444 74378,74159,74306
 1.0000e-001 74404 -3.4727e+001  2.3054e+001  8.7563e-001 61444 74211,74185,74378
 1.0000e-001 74427 -3.3696e+001  2.1129e+001  6.6468e-001 61444 74211,74378,74306
 1.0000e-001 74628 -3.8567e+001  1.9459e+000  4.0525e+000 60990 74478,74530,74504
 1.0000e-001 74605 -3.4119e+001  5.4234e-002  1.1232e+000 60990 74452,74530,74478
 1.0000e-001 74582 -3.5250e+001 -3.6046e-001  1.2899e+000 60990 74452,74556,74530
 1.0000e-001 75089  1.4025e+001  4.2665e+001 -2.2267e+001 60486 75112,74945,74919
 1.0000e-001 75066  3.2146e-001  2.1420e+001 -1.5578e+001 60486 75112,74919,74867
 1.0000e-001 75043 -4.3024e+000  2.2319e+001 -2.5551e+000 60486 74841,74971,74867
 1.0000e-001 75020 -7.6552e+000  1.5662e+001 -1.1680e+001 60486 74867,74919,74893
 1.0000e-001 74997 -7.9308e-001  1.9745e+001 -6.4677e+000 60486 74815,74971,74841
 1.0000e-001 75138 -5.8619e-001  4.1928e+001 -1.0397e+001 60486 74971,74945,75112
 1.0000e-001 75161 -6.1625e+000  3.4914e+001 -6.4429e+000 60486 74971,75112,74867
 1.0000e-001 75409 -2.5139e+001  1.8426e+001  5.9078e+000 59932 75576,75432,75288
 1.0000e-001 75386 -2.6286e+001  1.8495e+001  1.4606e+000 59932 75504,75314,75288
 1.0000e-001 75363 -2.0678e+001  3.0934e+001  1.0287e+001 59932 75432,75236,75210
 1.0000e-001 75340 -2.0839e+001  1.7173e+001  2.9515e+000 59932 75576,75288,75262
 1.0000e-001 75458 -2.6599e+001  1.9798e+001  1.0456e+000 59932 75504,75288,75432
 1.0000e-001 75481 -2.4300e+001  2.2802e+001  9.1209e-001 59932 75184,75432,75210
 1.0000e-001 75530 -3.5133e+001  4.5303e+000  5.3440e+000 59932 75184,75314,75504
 1.0000e-001 75553 -2.6291e+001  1.8514e+001  1.4842e+000 59932 75184,75504,75432
 1.0000e-001 75602 -2.7909e+001  1.4053e+001  7.2414e+000 59932 75236,75432,75576
 1.0000e-001 75625 -2.5376e+001  1.2075e+001  5.6017e+000 59932 75236,75576,75262
 1.0000e-001 75873 -3.4193e+001 -2.6990e+000  4.3371e+000 59478 75674,75752,75700
 1.0000e-001 75850 -2.6775e+001  3.4510e-001 -6.0721e-001 59478 75648,75752,75674
 1.0000e-001 75827 -3.9044e+001 -3.6643e+000  4.1124e+000 59478 75700,75752,75726
 1.0000e-001 75804 -3.4718e+001  1.4724e+000  3.7813e-001 59478 75648,75778,75752
 1.0000e-001 76206 -2.1970e+001 -1.9566e+000 -2.8177e+000 59024 75981,76059,76007
 1.0000e-001 76183 -2.1756e+001  4.6340e+000 -4.5536e+000 59024 75981,76111,76059
 1.0000e-001 76160 -2.0202e+001 -8.7019e-001 -3.2776e+000 59024 76007,76059,76033
 1.0000e-001 76137 -2.1263e+001  1.0932e+001 -8.3658e+000 59024 76059,76111,76085
 1.0000e-001 76761 -6.5080e+000  3.0902e+001  1.6726e+001 58562 76389,76441,76415
 1.0000e-001 76738 -1.9803e+001  2.7545e+001 -4.8983e+000 58562 76856,76784,76389
 1.0000e-001 76715 -1.9198e+001  2.7572e+001 -8.3850e+000 58562 76784,76571,76467
 1.0000e-001 76692 -3.5461e+001  3.1183e+001 -5.8553e+000 58562 76856,76389,76597
 1.0000e-001 76669 -3.0901e+001  5.4063e+000 -8.4858e+000 58562 76467,76545,76493
 1.0000e-001 76646 -1.5996e+001  1.3512e+001 -1.2739e+001 58562 76467,76571,76545
 1.0000e-001 76623 -1.3167e+001  1.2843e+001 -5.8011e+000 58562 76493,76545,76519
 1.0000e-001 76810 -2.6982e+001  2.4811e+001  3.3606e-001 58562 76441,76389,76784
 1.0000e-001 76833 -9.4157e+000  3.6757e+001  6.9122e+000 58562 76441,76784,76467
 1.0000e-001 76882 -3.6866e+001  2.1626e+001 -1.2456e+001 58562 76571,76784,76856
 1.0000e-001 76905 -4.6478e+001  2.9373e+001 -1.3802e+001 58562 76571,76856,76597
 1.0000e-001 77055 -2.4531e+001  3.3980e+001  2.3219e+000 57844 76928,76980,76954
 1.0000e-001 77032 -8.3162e+000  5.4885e+001 -4.8800e+000 57844 76928,77006,76980
 1.0000e-001 77533 -3.1726e+001  5.9726e-001  2.9063e-001 57226 77628,77556,77291
 1.0000e-001 77510 -3.0857e+001  4.5820e+000  1.9629e+000 57226 77556,77187,77343
 1.0000e-001 77487 -2.7568e+001  5.6311e+000 -1.6260e+000 57226 77628,77291,77265
 1.0000e-001 77464 -2.8095e+001 -2.2166e+000  2.9111e+000 57226 77700,77213,77187
 1.0000e-001 77441 -6.5262e+001 -3.4911e+000  1.0089e+001 57226 77161,77343,77187
 1.0000e-001 77418 -3.5296e+001  4.2616e+001 -8.5625e+000 57226 77161,77369,77343
 1.0000e-001 77395 -4.8308e+000  8.4522e+000 -1.5928e+001 57226 77213,77265,77239
 1.0000e-001 77582 -2.9839e+001  5.0089e+000  1.7358e-001 57226 77317,77291,77556
 1.0000e-001 77605 -3.3467e+001  3.8345e+000  8.1618e-001 57226 77317,77556,77343
 1.0000e-001 77654 -2.6206e+001  3.9671e+000  1.7080e+000 57226 77187,77556,77628
 1.0000e-001 77677 -2.8297e+001 -1.0443e+000  1.9845e+000 57226 77700,77187,77628
 1.0000e-001 77726 -2.7492e+001 -2.1946e+000 -9.6181e-001 57226 77265,77213,77700
 1.0000e-001 77749 -2.6524e+001  1.5242e+000 -1.8018e+000 57226 77265,77700,77628
 1.0000e-001 78046 -2.5445e+001  3.2037e+000  6.0883e-001 56936 77798,77850,77824
 1.0000e-001 78023 -3.0443e+001  3.8167e+000  2.9471e+000 56936 78069,77798,77902
 1.0000e-001 78000 -3.2997e+001  2.1471e+000  2.0880e+000 56936 78069,77902,77876
 1.0000e-001 77977 -3.8537e+001  2.2251e-002  1.0552e+000 56936 77798,77928,77902
 1.0000e-001 77954 -5.6730e+001  3.0438e+001  6.0817e+000 56936 77772,77928,77798
 1.0000e-001 78095 -2.8934e+001  3.0723e+000  3.6573e+000 56936 77850,77798,78069
 1.0000e-001 78118 -3.0052e+001  2.6613e+000  3.1099e+000 56936 77850,78069,77876
 1.0000e-001 78754 -2.7908e+001 -1.6660e+001  5.2313e+000 56475 78777,78486,78408
 1.0000e-001 78731 -4.1443e+001 -2.5596e+001  9.0990e+000 56475 78777,78408,78382
 1.0000e-001 78708 -3.5109e+001 -1.7495e+001  9.2278e-001 56475 78849,78512,78486
 1.0000e-001 78685 -3.4741e+001 -1.0809e+001  9.8221e-001 56475 78382,78590,78564
 1.0000e-001 78662 -3.7023e+001 -8.1623e+000 -6.0384e-001 56475 78512,78564,78538
 1.0000e-001 78639 -2.8903e+001 -1.4771e+001  3.2039e+000 56475 78434,78486,78460
 1.0000e-001 78616 -2.8217e+001 -1.7777e+001  4.7180e+000 56475 78408,78486,78434
 1.0000e-001 78803 -3.6979e+001 -1.6957e+001  2.1083e+000 56475 78849,78486,78777
 1.0000e-001 78826 -3.8513e+001 -1.6468e+001  2.7816e+000 56475 78564,78777,78382
 1.0000e-001 78875 -3.4175e+001 -1.5930e+001  2.5446e-001 56475 78564,78512,78849
 1.0000e-001 78898 -3.5324e+001 -1.4687e+001  1.2625e+000 56475 78564,78849,78777
 1.0000e-001 79276 -3.0260e+001 -1.4393e+001  2.4176e+000 55964 79299,79080,79028
 1.0000e-001 79253 -3.3847e+001 -1.4421e+001  1.2398e+000 55964 79299,79028,79132
 1.0000e-001 79230 -2.6065e+001 -4.4304e+000  1.0091e+000 55964 79028,79080,79054
 1.0000e-001 79207 -3.5021e+001 -1.5782e+001  6.2656e-001 55964 79002,79132,79028
 1.0000e-001 79184 -4.8035e+001 -2.1084e+001 -1.9734e+000 55964 79002,79158,79132
 1.0000e-001 79325 -3.2115e+001 -1.4888e+001  4.2698e-002 55964 79106,79080,79299
 1.0000e-001 79348 -3.5844e+001 -1.4672e+001 -9.6806e-001 55964 79106,79299,79132
 1.0000e-001 79498 -3.1412e+001 -8.8594e+000 -3.2264e+000 55452 79397,79449,79423
 1.0000e-001 79475 -2.5213e+001 -4.9045e+000 -5.2340e-001 55452 79371,79449,79397
 1.0000e-001 79795 -2.5813e+001 -4.8581e+000 -7.1653e-002 55048 79962,79818,79573
 1.0000e-001 79772 -2.5605e+001 -3.6115e+000 -1.1081e+000 55048 79818,79521,79677
 1.0000e-001 79749 -2.0299e+001 -9.8282e+000 -1.0906e+000 55048 79599,79651,79625
 1.0000e-001 79726 -2.7124e+001 -6.2928e+000 -2.6823e+000 55048 79890,79651,79599
 1.0000e-001 79703 -2.7051e+001 -2.4058e+000 -2.8776e+000 55048 79962,79573,79547
 1.0000e-001 79844 -2.4947e+001 -5.2665e+000  8.5090e-002 55048 79599,79573,79818
 1.0000e-001 79867 -2.5240e+001 -3.7485e+000  1.6567e-001 55048 79890,79599,79818
 1.0000e-001 79916 -3.1054e+001 -7.4040e+000 -5.3598e+000 55048 79677,79651,79890
 1.0000e-001 79939 -2.9712e+001 -6.4749e+000 -2.7605e+000 55048 79677,79890,79818
 1.0000e-001 79988 -2.1764e+001 -4.5141e+000 -2.2619e+000 55048 79521,79818,79962
 1.0000e-001 80011 -2.1532e+001 -3.1233e+000 -4.7738e+000 55048 79521,79962,79547
 1.0000e-001 80212 -2.2028e+001 -1.0661e-001  2.9695e+000 54436 80235,80088,80036
 1.0000e-001 80189 -2.4406e+001 -3.2204e+000  4.2369e+000 54436 80235,80036,80140
 1.0000e-001 80166 -1.7205e+001  9.3399e+000  1.1739e+000 54436 80036,80088,80062
 1.0000e-001 80261 -2.4296e+001  3.9012e+000  1.0532e+000 54436 80114,80088,80235
 1.0000e-001 80284 -2.7313e+001  7.4255e-001  2.5700e+000 54436 80114,80235,80140
 1.0000e-001 80534 -3.0888e+001 -4.7098e+000  2.5142e+000 54032 80557,80361,80335
 1.0000e-001 80511 -3.0801e+001 -7.8332e+000  4.6268e+000 54032 80557,80335,80309
 1.0000e-001 80488 -2.2497e+001 -1.8344e+000 -2.8557e+000 54032 80629,80413,80387
 1.0000e-001 80465 -2.9512e+001  5.9080e-001 -8.3038e-001 54032 80309,80439,80413
 1.0000e-001 80583 -2.9782e+001 -5.2467e+000  3.4433e+000 54032 80387,80361,80557
 1.0000e-001 80606 -2.3834e+001 -3.7395e+000  1.5738e+000 54032 80629,80387,80557
 1.0000e-001 80655 -2.7834e+001 -4.7406e+000 -2.1375e-001 54032 80309,80413,80629
 1.0000e-001 80678 -3.0803e+001 -5.3370e+000  3.5777e+000 54032 80309,80629,80557
 1.0000e-001 81139  2.2001e+000  4.1362e+001  1.7458e+001 53784 80865,80995,80917
 1.0000e-001 81116 -6.6203e+000  4.7727e+001 -9.5309e+000 53784 80865,81021,80995
 1.0000e-001 81093  1.7090e+001  3.4582e+001  1.1285e+001 53784 80943,80995,80969
 1.0000e-001 81070  1.3874e+001  2.2718e+001  1.2374e+001 53784 80917,80995,80943
 1.0000e-001 81047 -2.1917e+001  1.2366e+002  3.6509e+001 53784 80865,80917,80891
 1.0000e-001 81468 -1.5109e+001  1.3667e+000  2.6292e+000 53230 81295,81373,81347
 1.0000e-001 81445 -1.9539e+001  4.9972e+000 -4.0486e-001 53230 81243,81373,81295
 1.0000e-001 81422 -1.3791e+001  9.9297e+000  3.0102e+000 53230 81243,81295,81269
 1.0000e-001 81399 -3.4650e+001 -6.2322e+000  1.3526e+000 53230 81295,81347,81321
 1.0000e-001 81618 -3.8843e+001 -1.4987e+001 -1.2993e+000 52790 81491,81543,81517
 1.0000e-001 81595 -3.4325e+001 -1.9357e+001 -1.8980e+000 52790 81491,81569,81543
 1.0000e-001 82126 -3.2422e+001 -1.5765e+001  8.0437e+000 52386 82149,81907,81881
 1.0000e-001 82103 -2.9565e+001 -1.2159e+001  3.6863e+000 52386 82149,81881,81855
 1.0000e-001 82080 -2.5027e+001 -1.3959e+001  2.9410e+000 52386 82221,81803,81985
 1.0000e-001 82057 -9.6659e+000 -1.0822e+001  5.5751e+000 52386 81803,81855,81829
 1.0000e-001 82034 -2.4817e+001 -1.1989e+001  2.1548e+000 52386 81907,81985,81933
 1.0000e-001 82011 -1.9386e+001 -1.2255e+001  2.3144e+000 52386 81933,81985,81959
 1.0000e-001 82175 -2.6982e+001 -1.1796e+001  6.2721e+000 52386 81985,81907,82149
 1.0000e-001 82198 -3.0052e+001 -1.3540e+001  4.9342e+000 52386 82221,81985,82149
 1.0000e-001 82247 -2.2880e+001 -1.2085e+001  3.3481e-001 52386 81855,81803,82221
 1.0000e-001 82270 -2.5247e+001 -9.9121e+000  2.2296e+000 52386 81855,82221,82149
 1.0000e-001 82825 -2.1389e+001  4.3036e+000 -7.5312e+000 51782 82505,82661,82635
 1.0000e-001 82802 -8.6586e+000  1.8387e+001 -6.9176e-001 51782 82479,82661,82505
 1.0000e-001 82779 -1.2694e+001  1.7273e+001  1.2052e+001 51782 82557,82635,82609
 1.0000e-001 82756 -1.8146e+001  4.1124e+000  7.0283e-001 51782 82531,82635,82557
 1.0000e-001 82733 -2.4256e+001  6.8766e+000 -1.4440e+000 51782 82505,82635,82531
 1.0000e-001 82710 -1.5735e+001  4.3677e+000 -1.1731e+001 51782 82453,82661,82479
 1.0000e-001 82687 -2.8596e+001  1.6439e+001  1.0085e+001 51782 82557,82609,82583
 1.0000e-001 83171 -3.3335e+001 -7.4696e+000 -6.3033e-001 51442 83194,82978,82900
 1.0000e-001 83148 -3.6845e+001 -9.9226e+000 -1.9129e+000 51442 83194,82900,82874
 1.0000e-001 83125 -3.2070e+001 -6.9887e+000 -1.3286e+000 51442 82900,82978,82926
 1.0000e-001 83102 -3.2423e+001 -1.1268e+001 -5.7947e+000 51442 82874,83030,83004
 1.0000e-001 83079 -3.1981e+001 -5.1147e+000  7.6491e-001 51442 82926,82978,82952
 1.0000e-001 83056 -3.6579e+001 -1.7271e+001 -8.2937e+000 51442 82848,83030,82874
 1.0000e-001 83220 -2.8762e+001 -9.7710e+000  2.5970e-001 51442 83004,82978,83194
 1.0000e-001 83243 -3.3440e+001 -1.3470e+001 -1.4842e+000 51442 83004,83194,82874
 1.0000e-001 83751 -2.4777e+001 -1.0878e+001 -8.5271e-001 50938 83428,83584,83454
 1.0000e-001 83728 -2.9602e+001 -1.2757e+001 -1.8729e+000 50938 83428,83610,83584
 1.0000e-001 83705 -3.1013e+001 -2.2434e+000 -8.1283e-001 50938 83454,83584,83558
 1.0000e-001 83682 -4.6348e+001 -8.0579e+000 -2.8389e+000 50938 83454,83532,83480
 1.0000e-001 83659 -4.0737e+001 -7.2032e+000 -4.3727e+000 50938 83454,83558,83532
 1.0000e-001 83636 -3.5947e+001  2.3182e+001  1.0570e+001 50938 83480,83532,83506
 1.0000e-001 84355 -4.6407e+000  1.4706e+001 -4.1518e-001 50377 84378,83960,83934
 1.0000e-001 84332  1.6410e+000  2.8814e+001 -1.6576e+000 50377 84522,84378,83934
 1.0000e-001 84309 -2.2466e+001  1.3405e+001 -1.5114e+001 50377 84450,84038,84012
 1.0000e-001 84286  5.2943e-001  2.9965e+001 -1.6544e+000 50377 84522,83934,84142
 1.0000e-001 84263 -1.0030e+001  2.0785e+001 -1.8200e+000 50377 84594,84090,84038
 1.0000e-001 84240  1.9790e+001  1.8539e+001 -1.1251e+001 50377 83960,84012,83986
 1.0000e-001 84217  2.3029e+000  3.0843e+001 -1.9555e+000 50377 83934,84168,84142
 1.0000e-001 84194 -1.3812e-001  2.6407e+001  4.3358e-001 50377 84038,84090,84064
 1.0000e-001 84404  1.1967e+001  2.4512e+001 -4.8113e+000 50377 84012,83960,84378
 1.0000e-001 84427 -2.3036e+000  2.3558e+001 -1.0019e+001 50377 84450,84012,84378
 1.0000e-001 84476 -1.5168e+001  2.1561e+001 -3.6920e+000 50377 84594,84038,84450
 1.0000e-001 84499 -1.0027e+001  2.3316e+001 -2.7137e+000 50377 84116,84450,84378
 1.0000e-001 84548  9.5400e-001  2.7342e+001 -2.2278e+000 50377 84116,84378,84522
 1.0000e-001 84571  1.5141e-002  2.8728e+001 -2.2161e+000 50377 84116,84522,84142
 1.0000e-001 84620 -1.6052e+000  2.0610e+001 -1.5977e+000 50377 84116,84090,84594
 1.0000e-001 84643 -5.6638e+000  2.2199e+001 -3.4818e+000 50377 84116,84594,84450
 1.0000e-001 84842 -2.9028e+001 -7.9503e+000 -2.7482e+000 49923 84865,84692,84666
 1.0000e-001 84819 -2.5335e+001 -7.3063e+000 -1.9617e+000 49923 84865,84666,84770
 1.0000e-001 84796 -2.6655e+001 -7.8665e+000 -2.7913e-001 49923 84692,84744,84718
 1.0000e-001 84891 -2.6751e+001 -8.3398e+000 -4.6200e-001 49923 84744,84692,84865
 1.0000e-001 84914 -2.2902e+001 -7.1946e+000  5.6062e-001 49923 84744,84865,84770
 1.0000e-001 85501 -2.1629e+001  1.7329e+001  4.2583e-001 49618 85524,85282,85204
 1.0000e-001 85478 -2.8361e+001  1.3718e+001 -9.9597e-001 49618 85596,85524,85204
 1.0000e-001 85455 -3.2157e+001  2.1845e+001 -5.0975e-001 49618 85596,85204,85178
 1.0000e-001 85432 -2.2842e+001  1.7739e+001  3.0003e-001 49618 85204,85282,85256
 1.0000e-001 85409 -1.0737e+001  3.4666e+001 -1.3076e+000 49618 85282,85334,85308
 1.0000e-001 85386 -1.9663e+001  2.9550e+001  8.4901e+000 49618 85204,85256,85230
 1.0000e-001 85550 -1.8962e+001  1.8159e+001 -4.5633e+000 49618 85334,85282,85524
 1.0000e-001 85573 -3.2803e+001  1.1083e+001 -9.7546e+000 49618 85334,85524,85360
 1.0000e-001 85622 -2.2385e+001  2.3681e+001 -4.3208e+000 49618 85360,85524,85596
 1.0000e-001 85645 -2.9051e+001  2.8403e+001 -2.9466e+000 49618 85360,85596,85178
 1.0000e-001 85795 -3.1007e+001 -4.6264e+000  3.4062e+000 49278 85694,85746,85720
 1.0000e-001 85772 -3.7020e+001  9.9053e-001 -2.0956e-001 49278 85668,85746,85694
 1.0000e-001 86197 -1.9744e+001  1.0671e-001 -1.1228e+001 48916 86001,86079,86027
 1.0000e-001 86174 -1.5131e+001  1.0427e+001 -1.2133e+001 48916 85949,86079,86001
 1.0000e-001 86151 -3.0650e+001 -1.1967e+001 -5.0647e+000 48916 85949,86001,85975
 1.0000e-001 86128 -1.8850e+001  2.4669e+000 -1.1286e+001 48916 86027,86079,86053
 1.0000e-001 86105 -7.7150e+001 -1.1280e+001 -1.4531e+001 48916 85923,86079,85949
 1.0000e-001 86477 -5.2919e+000  1.1461e+001  4.3237e+000 48398 86327,86379,86353
 1.0000e-001 86454 -1.0834e+001  3.0991e+000  1.8886e+000 48398 86500,86379,86327
 1.0000e-001 86431 -1.3841e+001 -1.2349e+000  1.4875e+000 48398 86301,86405,86379
 1.0000e-001 86526 -2.2734e+000  3.3214e+000  4.0595e-001 48398 86301,86379,86500
 1.0000e-001 87032 -1.8372e+001  9.1438e+000  1.4537e+000 48008 87127,87055,86787
 1.0000e-001 87009 -1.7782e+001  9.9091e+000 -1.4753e-001 48008 87055,86735,86709
 1.0000e-001 86986 -1.6209e+001  7.9099e+000  1.0453e+000 48008 87127,86787,86761
 1.0000e-001 86963 -1.7100e+001  9.0160e+000  2.3957e+000 48008 86787,86865,86839
 1.0000e-001 86940 -2.9271e+001  5.7160e+000 -2.1236e+000 48008 86709,86891,86865
 1.0000e-001 86917 -1.8701e+001  1.2999e+001  5.6008e+000 48008 86787,86839,86813
 1.0000e-001 87081 -1.8851e+001  7.8405e+000  1.4843e+000 48008 86865,86787,87055
 1.0000e-001 87104 -1.8590e+001  6.1379e+000 -8.9282e-001 48008 86865,87055,86709
 1.0000e-001 87153 -1.5451e+001  9.2651e+000  1.7936e+000 48008 86735,87055,87127
 1.0000e-001 87176 -1.0201e+001  1.0456e+001  2.4659e-001 48008 86735,87127,86761
 1.0000e-001 87456 -1.4760e+001 -1.6863e-001 -2.0661e+000 47604 87306,87358,87332
 1.0000e-001 87433 -2.4160e+001 -4.3182e+000 -9.9299e-001 47604 87306,87384,87358
 1.0000e-001 87410 -1.8880e+001 -1.9013e+000  2.5807e+000 47604 87280,87384,87306
 1.0000e-001 87785 -1.4072e+001 -2.3542e+000 -1.1129e+000 47264 87638,87690,87664
 1.0000e-001 87762 -1.2530e+001  7.4675e+000 -3.0758e+000 47264 87612,87690,87638
 1.0000e-001 87739 -1.5518e+001  1.3098e+001 -8.2669e+000 47264 87560,87690,87612
 1.0000e-001 87716 -2.5246e+001  5.9135e+000 -1.1844e+000 47264 87560,87612,87586
 1.0000e-001 87935 -1.6777e+001  4.2523e+001 -5.7166e-001 46952 87808,87860,87834
 1.0000e-001 87912 -9.8653e+000  5.3897e+001 -4.6006e+000 46952 87808,87886,87860
 1.0000e-001 88281 -2.6772e+001 -1.5470e+000 -1.1451e+000 46526 88304,88114,88036
 1.0000e-001 88258 -2.5015e+001 -3.4275e+000 -1.8407e+000 46526 88304,88036,87984
 1.0000e-001 88235 -2.6340e+001 -1.9897e+000  6.7444e-001 46526 88036,88114,88062
 1.0000e-001 88212 -2.6144e+001 -5.7135e+000 -1.7970e+000 46526 87958,88140,87984
 1.0000e-001 88189 -2.2840e+001  1.6138e+000 -1.4788e+000 46526 87984,88036,88010
 1.0000e-001 88166 -2.6523e+001 -8.7436e+000 -3.2428e+000 46526 88062,88114,88088
 1.0000e-001 88330 -2.7292e+001 -3.2671e+000 -6.6214e-001 46526 88140,88114,88304
 1.0000e-001 88353 -2.5951e+001 -5.5042e+000 -1.0667e+000 46526 88140,88304,87984
 1.0000e-001 88701 -1.9066e+001  5.6456e-001 -2.6611e+000 45822 88724,88378,88534
 1.0000e-001 88678 -1.5650e+001 -3.9643e+000 -5.9262e+000 45822 88378,88560,88534
 1.0000e-001 88655 -1.9598e+001 -1.3516e+000 -2.8365e-002 45822 88724,88534,88508
 1.0000e-001 88632 -1.4487e+001  1.5431e+001 -2.6624e+000 45822 88404,88508,88456
 1.0000e-001 88609 -7.1528e+000  2.9155e+001 -8.2624e+000 45822 88404,88456,88430
 1.0000e-001 88586 -2.6704e+001 -3.2751e+000  6.9518e+000 45822 88456,88508,88482
 1.0000e-001 88750 -1.9554e+001  4.2127e+000 -3.5371e+000 45822 88404,88378,88724
 1.0000e-001 88773 -1.9853e+001  2.0368e+000 -1.1164e+000 45822 88404,88724,88508
 1.0000e-001 89106  9.2293e+000  3.8916e+001 -4.6683e+000 45418 88881,88985,88907
 1.0000e-001 89083  1.4331e+001  3.1285e+001 -3.4309e+000 45418 88881,89011,88985
 1.0000e-001 89060  8.1674e+000  4.6758e+001 -2.0806e-001 45418 88907,88985,88933
 1.0000e-001 89037  2.0556e+001  6.3802e+001  5.2089e+000 45418 88933,88985,88959
 1.0000e-001 89435 -2.1529e+001 -3.1116e+000  1.5099e+000 44914 89210,89288,89236
 1.0000e-001 89412 -1.4480e+001  6.7739e+000 -2.2129e+000 44914 89210,89314,89288
 1.0000e-001 89389 -2.6861e+001  3.2545e+000 -1.0074e+000 44914 89210,89340,89314
 1.0000e-001 89366 -2.6672e+001 -4.0704e+000 -2.5939e-001 44914 89236,89288,89262
 1.0000e-001 89634 -1.3365e+001  7.0896e+000  1.3064e+000 44538 89510,89562,89536
 1.0000e-001 89611 -1.8014e+001 -4.1138e+000  6.4003e-001 44538 89458,89562,89510
 1.0000e-001 89588 -1.4745e+001 -2.0486e+000 -6.9833e-001 44538 89458,89510,89484
 1.0000e-001 90044 -2.4963e+001  3.5978e+000  1.8980e-001 44134 89819,89923,89845
 1.0000e-001 90021 -1.6276e+001  2.0965e+001  3.2008e+000 44134 89819,89949,89923
 1.0000e-001 89998 -2.0169e+001  2.8974e+000 -2.3196e+000 44134 89845,89923,89897
 1.0000e-001 89975 -4.5150e+000  2.9481e+001  5.8847e+000 44134 89845,89897,89871
 1.0000e-001 90520 -1.7159e+001  1.6450e+001 -5.8192e+000 43457 90543,90252,90226
 1.0000e-001 90497 -1.3032e+001  2.0093e+001 -4.0765e+000 43457 90543,90226,90330
 1.0000e-001 90474 -1.4101e+001  1.3184e+001 -4.0340e+000 43457 90200,90330,90226
 1.0000e-001 90451 -1.3091e+001  7.4151e+000 -1.3227e+001 43457 90200,90356,90330
 1.0000e-001 90428 -2.5324e+001  1.1924e+001 -1.3401e+000 43457 90252,90304,90278
 1.0000e-001 90405  1.5962e+001  6.7670e+000 -2.3266e+000 43457 90174,90356,90200
 1.0000e-001 90382 -1.5840e+001 -7.6645e+000 -1.0271e+001 43457 90148,90356,90174
 1.0000e-001 90569 -2.1630e+001  2.0713e+001 -7.3326e-001 43457 90304,90252,90543
 1.0000e-001 90592 -1.3277e+001  2.7233e+001  2.1299e+000 43457 90304,90543,90330
 1.0000e-001 91098 -8.2734e+000  7.5777e+000 -3.5271e-001 42789 90801,90905,90853
 1.0000e-001 91075 -7.1763e+000  1.3181e+001 -8.2651e-001 42789 90775,90905,90801
 1.0000e-001 91052 -8.7183e+000  2.3976e+001 -1.0743e+001 42789 90775,90931,90905
 1.0000e-001 91029  8.8694e-001  2.6175e+001  2.6028e+000 42789 90801,90853,90827
 1.0000e-001 91006 -2.7029e+000  1.0268e+001 -1.8495e+000 42789 90853,90905,90879
 1.0000e-001 90983 -1.9220e+001  2.5013e+001 -6.3602e+000 42789 90775,90957,90931
 1.0000e-001 91427 -1.3986e+001  1.7721e+001 -2.8674e+000 42227 91228,91280,91254
 1.0000e-001 91404 -2.7856e+001  1.2341e+001 -5.7851e-001 42227 91228,91306,91280
 1.0000e-001 91381 -1.9063e+001  1.6776e+001  2.1528e+000 42227 91202,91306,91228
 1.0000e-001 91358 -2.7481e+001  6.9967e+000  6.8568e+000 42227 91202,91332,91306
 1.0000e-001 91675 -1.2009e+001  6.3539e+000 -2.1767e+000 41773 91698,91476,91450
 1.0000e-001 91652 -1.2272e+001  3.9349e+000  1.5708e-001 41773 91698,91450,91554
 1.0000e-001 91629 -1.0220e+001 -2.4954e-001  2.7813e-001 41773 91450,91580,91554
 1.0000e-001 91606 -1.6269e+001  1.6555e+000  1.5471e+000 41773 91502,91554,91528
 1.0000e-001 91724 -1.3357e+001  5.0910e+000 -5.2694e-001 41773 91502,91476,91698
 1.0000e-001 91747 -1.4103e+001  2.4059e+000  1.8721e+000 41773 91502,91698,91554
 1.0000e-001 92127  3.8512e+000  2.7286e+001  4.4507e+000 41255 92150,91905,91879
 1.0000e-001 92104 -4.7343e+000  2.1672e+001  8.0671e+000 41255 92150,91879,91957
 1.0000e-001 92081  1.1089e+000  1.2189e+001  1.6103e+001 41255 91853,91957,91879
 1.0000e-001 92058  8.3557e-001  1.2354e+001  1.2638e+001 41255 91853,91983,91957
 1.0000e-001 92035  6.2007e-001  1.2315e+001  1.2663e+001 41255 91853,92009,91983
 1.0000e-001 92176 -4.6303e+000  3.3936e+001  1.1688e+001 41255 91931,91905,92150
 1.0000e-001 92199 -1.9440e+001  1.9523e+001  1.7867e+001 41255 91931,92150,91957
 1.0000e-001 92518  4.5355e+000  4.1728e+001 -2.3933e+000 41007 92244,92374,92270
 1.0000e-001 92495 -9.1953e-001  5.0657e+001 -6.9734e+000 41007 92244,92400,92374
 1.0000e-001 92472  1.9190e+001  4.5224e+001 -1.6541e+000 41007 92270,92374,92348
 1.0000e-001 92449 -6.2653e+000  4.2255e+001  1.1583e+001 41007 92296,92348,92322
 1.0000e-001 92426  3.1689e+000  3.1959e+001  4.6725e+000 41007 92270,92348,92296
 1.0000e-001 92668  3.9512e+000  1.6318e+001 -5.5852e+000 40717 92823,92691,92567
 1.0000e-001 92645  7.9656e+000  2.0654e+001 -3.9211e+000 40717 92895,92823,92567
 1.0000e-001 92717 -4.1540e+000  1.3281e+001 -1.5866e+000 40717 92593,92567,92691
 1.0000e-001 92849  7.6862e+000  1.8283e+001 -7.0467e+000 40717 92619,92691,92823
 1.0000e-001 92872  1.6406e-001  1.8855e+001 -3.3115e+000 40717 92619,92823,92541
 1.0000e-001 92921 -7.1595e+000  1.0605e+001  1.4170e+000 40717 92541,92823,92895
 1.0000e-001 93634 -1.5542e+001  1.4323e+000 -4.8441e+000 40206 93366,93444,93418
 1.0000e-001 93611 -6.7405e+000  9.9473e+000 -1.2990e-001 40206 93288,93444,93366
 1.0000e-001 93588 -1.6951e+001 -2.7801e+000  4.5218e+000 40206 93288,93366,93314
 1.0000e-001 93565 -3.9554e+001 -2.2413e+000  9.2400e-001 40206 93262,93444,93288
 1.0000e-001 93542 -1.2783e+001  3.1014e+000 -4.1425e+000 40206 93366,93418,93392
 1.0000e-001 93519 -3.1131e+001  2.5938e+001 -5.5490e+000 40206 93262,93470,93444
 1.0000e-001 93496 -1.4493e+001 -1.3235e+000 -3.1914e+000 40206 93314,93366,93340
 1.0000e-001 94189 -1.7558e+001  7.5225e-001 -2.0178e+000 39802 93843,93999,93973
 1.0000e-001 94166 -3.2111e+001 -8.6729e+000  5.4827e+000 39802 93817,93999,93843
 1.0000e-001 94143 -2.6203e+001 -4.9961e+000  4.2651e+000 39802 93869,93973,93947
 1.0000e-001 94120 -1.9375e+001  1.0840e+000 -1.4531e+000 39802 93843,93973,93869
 1.0000e-001 94097 -2.0700e+001  1.5814e+000  1.6145e+000 39802 93869,93921,93895
 1.0000e-001 94074 -2.0884e+001  1.1791e+000  2.0066e+000 39802 93869,93947,93921
 1.0000e-001 94051 -1.8561e+001 -1.0146e+000  1.3884e-001 39802 93817,94025,93999
 1.0000e-001 94290 -2.6037e+001 -4.8696e+000  9.3080e-001 39398 94212,94264,94238
 1.0000e-001 94798 -1.4542e+001 -3.4724e+000  1.7732e+000 38701 94501,94657,94631
 1.0000e-001 94775 -2.1768e+001  4.4046e+000  7.6760e+000 38701 94475,94657,94501
 1.0000e-001 94752 -1.6726e+001  1.3157e+001 -3.0716e+000 38701 94579,94631,94605
 1.0000e-001 94729 -2.1689e+001  3.8546e-001 -3.6068e+000 38701 94553,94631,94579
 1.0000e-001 94706 -4.9892e+000  7.7810e+000 -2.3069e+000 38701 94501,94631,94553
 1.0000e-001 94683  9.1977e-001 -2.2591e+000 -1.6551e+000 38701 94501,94553,94527
 1.0000e-001 95255 -1.0680e+001  2.9391e+000  4.6308e-001 38247 95278,95085,95007
 1.0000e-001 95232 -1.6745e+001  3.8926e+000  5.1488e+000 38247 95278,95007,95137
 1.0000e-001 95209 -2.2799e+001  5.7464e+000  5.8848e-001 38247 94981,95137,95007
 1.0000e-001 95186 -7.3020e+000  1.2754e+001 -1.5268e+000 38247 95007,95059,95033
 1.0000e-001 95163 -1.4074e+001 -1.4064e+000  2.3205e+000 38247 95007,95085,95059
 1.0000e-001 95304 -5.5636e+000  1.0057e+001 -5.2647e+000 38247 95111,95085,95278
 1.0000e-001 95327 -1.3089e+001  5.6270e+000  3.2564e-001 38247 95111,95278,95137
 1.0000e-001 95575 -2.3458e+001 -3.0536e+000  1.3171e+000 37564 95376,95428,95402
 1.0000e-001 95552 -2.2988e+001 -1.3657e+000  1.0595e+000 37564 95376,95454,95428
 1.0000e-001 95529 -2.8461e+001 -4.8296e+000 -1.0316e+000 37564 95376,95480,95454
 1.0000e-001 95506 -3.4201e+001  7.5563e+000  1.5571e+000 37564 95350,95480,95376
 1.0000e-001 96034  3.5358e+001  6.3711e+001 -6.4239e+000 37224 95786,95838,95812
 1.0000e-001 96011  2.9259e+001  4.4429e+001 -3.5958e+000 37224 95786,95890,95838
 1.0000e-001 95988  4.3185e+001  4.9259e+001 -8.4211e+000 37224 95786,95916,95890
 1.0000e-001 95965  2.6882e+001  3.8452e+001 -1.5859e+000 37224 95760,95916,95786
 1.0000e-001 95942  3.8478e+001  4.8896e+001 -2.2294e+000 37224 95838,95890,95864
 1.0000e-001 96363 -2.2291e+001  1.5352e+000  3.8531e-001 36884 96216,96268,96242
 1.0000e-001 96340 -1.9923e+001  1.1252e+000  2.7005e-001 36884 96164,96268,96216
 1.0000e-001 96317 -2.8974e+001 -3.9613e+000  2.3362e+000 36884 96138,96268,96164
 1.0000e-001 96294 -1.5797e+001  7.4963e+000 -4.6834e+000 36884 96164,96216,96190
 1.0000e-001 96839 -1.8714e+001  1.4868e+001  7.0162e-001 36572 96862,96649,96597
 1.0000e-001 96816 -1.4101e+001  1.9221e+001 -1.2739e+000 36572 97006,96862,96597
 1.0000e-001 96793 -1.3880e+001  1.8159e+001 -4.6920e+000 36572 96934,96467,96675
 1.0000e-001 96770 -1.5297e+001  2.0028e+001 -2.4982e+000 36572 97006,96597,96571
 1.0000e-001 96747 -9.4479e+000  3.5461e+001 -1.0332e+001 36572 96467,96519,96493
 1.0000e-001 96724 -2.6500e+001  2.4567e+001  1.8125e+000 36572 96519,96571,96545
 1.0000e-001 96701 -9.4938e-001  3.2714e+001  1.4503e+001 36572 96597,96649,96623
 1.0000e-001 96888 -1.1720e+001  1.6773e+001 -1.9607e+000 36572 96675,96649,96862
 1.0000e-001 96911 -1.1923e+001  1.7455e+001 -4.2913e+000 36572 96934,96675,96862
 1.0000e-001 96960 -1.5073e+001  1.8163e+001 -4.3368e+000 36572 96519,96467,96934
 1.0000e-001 96983 -1.4751e+001  1.5946e+001 -3.6771e+000 36572 97078,96934,96862
 1.0000e-001 97032 -1.5975e+001  1.6556e+001 -2.0991e+000 36572 97078,96862,97006
 1.0000e-001 97055 -1.6633e+001  1.8605e+001 -3.3350e+000 36572 96519,97006,96571
 1.0000e-001 97104 -1.3700e+001  1.8267e+001 -4.0910e+000 36572 96519,96934,97078
 1.0000e-001 97127 -1.4460e+001  1.9045e+001 -2.7401e+000 36572 96519,97078,97006
 1.0000e-001 97761  2.9130e+000  3.1232e+001  6.3654e+000 36118 97784,97493,97415
 1.0000e-001 97738 -1.9801e+000  3.5411e+001  1.9476e+000 36118 97784,97415,97597
 1.0000e-001 97715 -2.6107e+001  3.3656e+001  1.3458e+001 36118 97389,97597,97415
 1.0000e-001 97692 -2.3070e+000  2.6392e+001  1.7568e+001 36118 97415,97467,97441
 1.0000e-001 97669 -8.8769e+000  2.0753e+001  1.3032e+001 36118 97415,97493,97467
 1.0000e-001 97646  1.7034e+000  1.5964e+001 -9.9386e-001 36118 97493,97571,97519
 1.0000e-001 97623  1.0669e+001  3.0393e+001  3.7075e+000 36118 97519,97571,97545
 1.0000e-001 97810 -2.5772e-001  2.7312e+001  4.7538e+000 36118 97571,97493,97784
 1.0000e-001 97833 -7.8072e+000  2.8958e+001 -5.0653e-001 36118 97571,97784,97597
 1.0000e-001 98081  7.9520e+000  4.4179e+001  3.0396e+000 35564 98104,97908,97856
 1.0000e-001 98058  5.7572e+000  4.6027e+001  4.7734e+000 35564 98104,97856,97986
 1.0000e-001 98035 -5.7800e+000  3.0189e+001 -3.4036e-001 35564 97934,97986,97960
 1.0000e-001 98012  1.0180e+001  4.9793e+001  2.1720e+000 35564 97856,97908,97882
 1.0000e-001 98130  2.9079e+000  3.9336e+001  9.7966e-001 35564 97934,97908,98104
 1.0000e-001 98153  4.7742e+000  4.4889e+001  4.2935e+000 35564 97934,98104,97986
 1.0000e-001 98374 -7.5489e+000  3.8331e+001 -2.4773e+000 35152 98224,98302,98276
 1.0000e-001 98351 -1.6470e+000  5.1279e+001 -8.2358e-001 35152 98198,98302,98224
 1.0000e-001 98328  1.0227e+001  4.5125e+001 -6.2376e+000 35152 98224,98276,98250
 1.0000e-001 98884 -9.2437e+000  6.0919e+000  4.2586e+000 34698 98691,98743,98717
 1.0000e-001 98861 -1.0908e+001  4.9394e+000  5.7779e-001 34698 98561,98743,98691
 1.0000e-001 98838 -1.4222e+001  1.5000e+000  3.0134e+000 34698 98907,98587,98561
 1.0000e-001 98815 -1.2939e+001  3.1168e+000  1.3682e+000 34698 98907,98561,98691
 1.0000e-001 98792 -5.9312e+000  1.9984e+001 -1.8925e+000 34698 98587,98639,98613
 1.0000e-001 98769 -1.7508e+001 -1.5610e+000  3.1405e+000 34698 98587,98665,98639
 1.0000e-001 98933 -1.3071e+001  2.7246e+000  1.3877e+000 34698 98665,98587,98907
 1.0000e-001 98956 -1.1095e+001  5.3252e+000 -3.7998e-001 34698 98665,98907,98691
 1.0000e-001 99204 -1.8516e+001  8.7321e+000 -3.7775e+000 34144 99227,99031,99005
 1.0000e-001 99181 -1.7083e+001  4.8550e+000  5.1025e-001 34144 99299,99227,99005
 1.0000e-001 99158 -1.7936e+001  4.9213e+000  1.1425e+000 34144 99299,99005,99109
 1.0000e-001 99135 -1.4991e+001  3.5754e+000  9.6463e-001 34144 98979,99109,99005
 1.0000e-001 99253 -1.6862e+001  1.6194e+001 -4.1703e+000 34144 99057,99031,99227
 1.0000e-001 99276 -1.4033e+001  9.3619e+000 -8.2196e-001 34144 99057,99227,99083
 1.0000e-001 99325 -1.5651e+001  6.1586e+000 -1.8192e+000 34144 99083,99227,99299
 1.0000e-001 99348 -1.8682e+001  5.2654e+000 -1.2314e+000 34144 99083,99299,99109
 1.0000e-001 99498 -2.5429e+001  4.9500e+000  1.5940e+000 33433 99397,99449,99423
 1.0000e-001 99475 -3.0673e+001  6.9334e+000 -2.2478e+000 33433 99371,99449,99397
 1.0000e-001 100008 -4.8353e-001  2.2460e+001  2.0171e+000 32979 100103,100031,99815
 1.0000e-001 99985 -4.2073e+000  2.7702e+001  4.9714e-001 32979 100175,100031,99763
 1.0000e-001 99962  7.9121e-001  2.2174e+001  1.5327e+000 32979 100103,99815,99789
 1.0000e-001 99939 -3.5462e+000  3.3390e+001  1.3066e+000 32979 100175,99763,99737
 1.0000e-001 99916  2.7029e-001  3.5056e+001  1.0470e+000 32979 99685,99867,99737
 1.0000e-001 99893  2.8681e+000  3.8291e+001 -5.2062e-001 32979 99685,99737,99711
 1.0000e-001 100057  2.2988e+000  2.3741e+001  1.6773e+000 32979 99841,99815,100031
 1.0000e-001 100080 -7.6976e-001  2.0247e+001 -2.0923e+000 32979 99841,100031,99867
 1.0000e-001 100129 -2.8294e+000  2.2506e+001  2.8921e+000 32979 99763,100031,100103
 1.0000e-001 100152 -8.4604e-001  2.2504e+001  2.6389e+000 32979 99763,100103,99789
 1.0000e-001 100201 -4.2954e+000  2.4725e+001 -2.4069e+000 32979 99867,100031,100175
 1.0000e-001 100224 -3.8020e+000  2.8143e+001 -6.7928e-001 32979 99867,100175,99737
 1.0000e-001 100553  2.3495e+001  3.0218e+001  5.1178e+000 32503 100354,100406,100380
 1.0000e-001 100530  1.9395e+001  3.8683e+001 -3.1068e+000 32503 100328,100406,100354
 1.0000e-001 100507  1.8098e+001  2.6055e+001 -9.5324e+000 32503 100328,100458,100406
 1.0000e-001 100484  3.1003e+001  2.6734e+001 -3.4431e+000 32503 100406,100458,100432
 1.0000e-001 100850  3.4468e+000  1.4115e+001 -1.4088e+000 31899 100873,100654,100628
 1.0000e-001 100827  6.1618e+000  1.5099e+001 -1.2467e+000 31899 100945,100873,100628
 1.0000e-001 100804  8.8566e+000  1.7567e+001 -9.2828e-002 31899 100945,100628,100602
 1.0000e-001 100781 -6.4167e+000  2.6460e+001  5.3205e+000 31899 100576,100732,100602
 1.0000e-001 100758  6.7128e+000  8.5692e-001 -1.5933e+000 31899 100654,100706,100680
 1.0000e-001 100899  1.0183e+001  1.5891e+001 -3.5291e+000 31899 100706,100654,100873
 1.0000e-001 100922 -3.1521e+000  1.3517e+001 -6.6540e+000 31899 100706,100873,100732
 1.0000e-001 100971 -2.2613e-001  1.9818e+001 -2.9759e+000 31899 100732,100873,100945
 1.0000e-001 100994  3.0307e+000  2.2896e+001 -1.6156e+000 31899 100732,100945,100602
 1.0000e-001 101551 -1.7709e+001  1.3972e+001  3.1878e+000 31338 101205,101387,101231
 1.0000e-001 101528 -1.1503e+001  1.5512e+001 -8.8284e+000 31338 101179,101387,101205
 1.0000e-001 101505 -7.3958e+000  1.1692e+001 -5.1268e+000 31338 101574,101309,101257
 1.0000e-001 101482  5.6777e-001  1.4521e+001 -3.5402e+000 31338 101646,101574,101257
 1.0000e-001 101459  5.7755e+000  1.1696e+001  3.0536e+000 31338 101646,101257,101231
 1.0000e-001 101436 -1.1761e+001  3.1335e+001 -1.1208e+001 31338 101309,101361,101335
 1.0000e-001 101413  2.3724e+000  1.9842e+001 -1.1754e+001 31338 101257,101309,101283
 1.0000e-001 101600 -9.0309e+000  1.2648e+001 -4.1381e+000 31338 101361,101309,101574
 1.0000e-001 101623 -9.6727e+000  1.2238e+001 -4.3287e+000 31338 101361,101574,101387
 1.0000e-001 101672 -1.1461e+001  9.4240e+000 -2.8067e+000 31338 101387,101574,101646
 1.0000e-001 101695 -4.5145e+000  7.2490e+000  2.6104e+000 31338 101387,101646,101231
 1.0000e-001 101943 -2.1899e+001  6.9962e+000  8.0176e-001 30748 101966,101796,101744
 1.0000e-001 101920 -2.2717e+001  7.6814e+000  8.6293e-001 30748 101966,101744,101718
 1.0000e-001 101897 -2.3958e+001  7.5345e+000 -2.5237e+000 30748 101718,101848,101822
 1.0000e-001 101874 -1.9566e+001  7.9156e+000  6.7584e-001 30748 101744,101796,101770
 1.0000e-001 101992 -2.1600e+001  7.3884e+000  6.7173e-001 30748 101822,101796,101966
 1.0000e-001 102015 -2.2189e+001  8.2710e+000  6.4095e-001 30748 101822,101966,101718
 1.0000e-001 102493 -5.9673e-001  2.1777e+001  3.8383e+000 30344 102516,102173,102147
 1.0000e-001 102470  2.2250e+000  2.2000e+001  6.4279e-001 30344 102660,102516,102147
 1.0000e-001 102447  5.8344e+000  2.5813e+001  3.2161e-001 30344 102588,102199,102173
 1.0000e-001 102424 -3.9871e+000  2.2304e+001  1.3610e+000 30344 102660,102147,102329
 1.0000e-001 102401 -4.7317e+000  2.6204e+001  2.5772e+000 30344 102199,102277,102251
 1.0000e-001 102378  9.7695e+000  2.9515e+001  2.7700e+000 30344 102199,102251,102225
 1.0000e-001 102355 -6.7752e+000  2.2758e+001  1.0641e+001 30344 102121,102329,102147
 1.0000e-001 102542  3.0690e+000  2.3499e+001  1.3123e+000 30344 102588,102173,102516
 1.0000e-001 102565  9.8584e+000  2.9090e+001 -4.4761e+000 30344 102277,102516,102303
 1.0000e-001 102614  1.8247e+000  2.8061e+001  3.6758e-001 30344 102277,102199,102588
 1.0000e-001 102637 -9.4879e-002  2.6783e+001  9.4348e-001 30344 102277,102588,102516
 1.0000e-001 102686 -4.7870e+000  2.2035e+001 -2.2258e+000 30344 102303,102516,102660
 1.0000e-001 102709 -8.6321e+000  2.4069e+001 -1.8607e+000 30344 102303,102660,102329
 1.0000e-001 103294  7.0951e+000  1.5233e+001  1.6640e+000 29726 103317,103101,103075
 1.0000e-001 103271  1.1816e+001  1.9318e+001  3.7684e+000 29726 103317,103075,102997
 1.0000e-001 103248  1.1400e+000  2.2168e+001  8.6212e+000 29726 102971,103153,102997
 1.0000e-001 103225  1.0596e+001  3.4843e+001  1.1935e+000 29726 103101,103153,103127
 1.0000e-001 103202  1.1378e+001  1.3262e+001  2.8973e+000 29726 102997,103075,103023
 1.0000e-001 103179  1.6226e+001  1.3113e+001  4.3199e+000 29726 103023,103075,103049
 1.0000e-001 103343  4.0079e+000  1.9488e+001  1.4862e+000 29726 103153,103101,103317
 1.0000e-001 103366  6.8767e+000  2.0999e+001  2.6076e+000 29726 103153,103317,102997
 1.0000e-001 103614 -5.6779e+000  1.5094e+001 -2.2936e+000 29200 103781,103637,103467
 1.0000e-001 103591 -3.3610e+000  1.6331e+001 -3.9074e+000 29200 103709,103637,103415
 1.0000e-001 103568 -1.8158e-001  2.2312e+001 -2.7027e+000 29200 103709,103415,103389
 1.0000e-001 103545 -5.5092e+000  1.4151e+001 -1.5357e+000 29200 103781,103467,103441
 1.0000e-001 103663  4.8185e+000  1.9835e+001 -7.0976e+000 29200 103853,103637,103493
 1.0000e-001 103686 -1.4097e+001  2.8948e+000 -1.4676e+001 29200 103493,103637,103519
 1.0000e-001 103735 -7.7663e+000  2.3143e+001 -7.4472e+000 29200 103519,103637,103709
 1.0000e-001 103758 -5.6060e+000  2.7243e+001 -6.5625e+000 29200 103519,103709,103389
 1.0000e-001 103807 -5.4218e+000  1.7265e+001 -2.9757e+000 29200 103415,103637,103781
 1.0000e-001 103830 -5.7585e+000  1.6444e+001 -1.8724e+000 29200 103415,103781,103441
 1.0000e-001 103879 -4.1030e+000  1.3386e+001 -2.8571e+000 29200 103467,103637,103853
 1.0000e-001 104545 -2.2175e+001  7.0596e+000  3.1174e+000 28860 104274,104352,104326
 1.0000e-001 104522 -1.3731e+001  5.2163e+000  7.8774e-001 28860 104248,104352,104274
 1.0000e-001 104499 -4.6209e+000  9.7403e+000 -7.5393e-001 28860 104248,104404,104352
 1.0000e-001 104476 -1.4455e+001 -5.4418e-001 -4.8980e+000 28860 104222,104404,104248
 1.0000e-001 104453 -8.4219e+000  5.3124e+000  1.2470e+000 28860 104352,104404,104378
 1.0000e-001 104430 -2.8867e+001  1.1051e+001 -2.2944e+000 28860 104274,104326,104300
 1.0000e-001 104744 -5.9533e+000  8.9877e+000  2.5855e+000 28456 104839,104767,104646
 1.0000e-001 104721 -6.9642e+000  2.1424e+001  2.4245e+000 28456 104767,104594,104568
 1.0000e-001 104698 -3.0976e-001  8.2344e+000  1.1606e+000 28456 104839,104646,104620
 1.0000e-001 104793 -6.2578e+000  1.2832e+001 -1.3130e+000 28456 104672,104646,104767
 1.0000e-001 104816  3.2215e+000  2.9464e+001 -7.7720e+000 28456 104911,104767,104568
 1.0000e-001 104865 -3.2908e+000  1.4648e+001  1.8440e+000 28456 104594,104767,104839
 1.0000e-001 104888 -6.0767e+000 -2.3485e+000  3.4369e+000 28456 105041,104839,104620
 1.0000e-001 104937 -9.9731e+000  5.3629e+000 -2.6662e+000 28456 104672,104767,104911
 1.0000e-001 105067 -2.3876e+000  1.4209e+001  4.1330e+000 28456 104594,104839,105041
 1.0000e-001 105573 -2.0209e+001  1.0428e+000  3.2914e+000 28094 105812,105596,105328
 1.0000e-001 105550 -1.8079e+001 -5.0276e-001  2.3920e+000 28094 105596,105276,105250
 1.0000e-001 105527 -2.2072e+001  7.9787e-001  3.3918e+000 28094 105740,105668,105432
 1.0000e-001 105504 -1.9257e+001  1.1587e+000  4.5314e-001 28094 105740,105432,105380
 1.0000e-001 105481 -1.9126e+001  2.9213e-001  3.8818e+000 28094 105812,105328,105302
 1.0000e-001 105458 -1.4383e+001  6.9188e+000 -1.7319e+000 28094 105380,105432,105406
 1.0000e-001 105622 -2.6388e+001 -3.2992e+000  6.1421e+000 28094 105354,105328,105596
 1.0000e-001 105645 -2.0173e+001 -2.2406e-001  3.0639e+000 28094 105668,105354,105596
 1.0000e-001 105694 -2.1677e+001 -1.0711e+000  4.8125e+000 28094 105250,105432,105668
 1.0000e-001 105717 -1.9654e+001  1.2321e+000  3.2604e+000 28094 105250,105668,105596
 1.0000e-001 105766 -1.5967e+001  2.3452e+000  1.6195e+000 28094 105354,105668,105740
 1.0000e-001 105789 -1.4127e+001  2.9108e+000 -1.6246e+000 28094 105354,105740,105380
 1.0000e-001 105838 -1.8344e+001  5.6217e-001  3.8451e+000 28094 105276,105596,105812
 1.0000e-001 105861 -1.0908e+001  3.3495e+000  3.8711e+000 28094 105276,105812,105302
 1.0000e-001 106367  1.3262e+001  3.6123e+001  1.5576e-001 27390 106070,106122,106096
 1.0000e-001 106344  1.3121e+001  3.3299e+001  4.2916e-001 27390 106070,106226,106122
 1.0000e-001 106321  7.2770e+000  3.7323e+001 -2.2157e+000 27390 106174,106226,106200
 1.0000e-001 106298  9.4733e+000  2.7889e+001 -1.6896e+000 27390 106122,106226,106174
 1.0000e-001 106275  1.1667e+001  2.8188e+001 -6.7397e+000 27390 106122,106174,106148
 1.0000e-001 106252  1.3472e+001  3.2265e+001 -3.2987e+000 27390 106044,106226,106070
 1.0000e-001 106615  8.4437e+000  3.5324e+001 -3.6509e-002 26978 106638,106494,106416
 1.0000e-001 106592  7.5260e+000  3.8949e+001  6.8717e-001 26978 106638,106416,106390
 1.0000e-001 106569  6.1044e+000  3.3489e+001 -2.2682e+000 26978 106416,106494,106442
 1.0000e-001 106546  4.5314e+000  3.2862e+001 -2.4371e+000 26978 106442,106494,106468
 1.0000e-001 106664  8.0963e+000  3.9110e+001 -1.5894e+000 26978 106520,106494,106638
 1.0000e-001 106687  6.7811e+000  4.2189e+001  2.2809e-001 26978 106520,106638,106390
 1.0000e-001 106837 -3.7104e+001  1.7857e-001  5.4692e+000 26524 106710,106762,106736
 1.0000e-001 106814 -2.4055e+001  5.3924e+000 -3.0097e-001 26524 106710,106788,106762
 1.0000e-001 107426  1.1307e+001  1.7707e+001 -7.3705e+000 26120 107129,107207,107155
 1.0000e-001 107403  3.1043e+000  9.3470e+000 -3.7975e+000 26120 107129,107285,107207
 1.0000e-001 107380  4.7267e+000  1.4079e+001 -4.1261e+000 26120 107207,107285,107259
 1.0000e-001 107357  2.2131e+000  1.1955e+001 -3.5502e+000 26120 107155,107207,107181
 1.0000e-001 107334  3.8696e+000  9.0822e+000 -4.8873e+000 26120 107103,107285,107129
 1.0000e-001 107311  1.2631e+001  1.0016e+001 -4.6104e+000 26120 107207,107259,107233
 1.0000e-001 107755 -1.0350e+001  4.1338e+000 -1.4645e+000 25758 107556,107634,107608
 1.0000e-001 107732 -2.0119e+001 -3.3279e+000  1.9483e+000 25758 107556,107660,107634
 1.0000e-001 107709 -4.7134e+000  1.3528e+000  4.1310e+000 25758 107556,107608,107582
 1.0000e-001 107686 -2.4981e+001 -3.1012e+000  1.4721e+000 25758 107530,107660,107556
 1.0000e-001 108438 -7.2742e+000  1.8234e-002 -6.0066e-001 25468 108121,108199,108173
 1.0000e-001 108415 -1.1163e+001 -1.0098e+001 -1.6335e+000 25468 108095,108199,108121
 1.0000e-001 108392 -1.0762e+001 -4.7028e+000 -1.2504e+000 25468 108095,108251,108199
 1.0000e-001 108369 -1.3237e+001 -7.2786e+000  1.4424e-001 25468 108069,108251,108095
 1.0000e-001 108346 -1.9173e+001 -1.0036e+001  7.4005e+000 25468 108199,108251,108225
 1.0000e-001 108323 -1.0392e+001 -2.3490e+000  1.3059e+000 25468 108017,108251,108069
 1.0000e-001 108300 -3.3340e+000 -6.1500e-001  2.0029e+000 25468 108121,108173,108147
 1.0000e-001 108277 -6.4731e+000 -1.1468e-001 -1.5050e+000 25468 108017,108069,108043
 1.0000e-001 108588  8.0899e+000  3.6620e+001  3.5237e+000 25064 108611,108513,108487
 1.0000e-001 108565  1.6050e+001  3.1570e+001 -1.1608e+000 25064 108683,108611,108487
 1.0000e-001 108637  1.0592e+001  2.7112e+001  6.9444e-001 25064 108539,108513,108611
 1.0000e-001 108660 -1.4955e+000  1.9861e+001 -2.3426e+000 25064 108539,108611,108461
 1.0000e-001 108709 -1.5388e+000  1.2758e+001  7.1701e+000 25064 108461,108611,108683
 1.0000e-001 109345 -2.8716e+000  1.0187e+001  2.7929e-001 24410 108999,109155,109103
 1.0000e-001 109322 -1.2487e+001  5.9576e+000 -4.5679e-001 24410 108973,109155,108999
 1.0000e-001 109299 -8.9069e-001 -1.2017e+000  3.5140e-001 24410 109103,109155,109129
 1.0000e-001 109276 -5.5990e+000  2.6136e+001 -8.6382e+000 24410 108973,109181,109155
 1.0000e-001 109253 -2.0537e+001  1.0165e+001  6.7364e+000 24410 109025,109103,109077
 1.0000e-001 109230  2.1967e+000  1.3872e+001 -1.3761e+000 24410 108999,109103,109025
 1.0000e-001 109207 -7.9337e+000  3.2616e+001 -1.4999e+000 24410 109025,109077,109051
 1.0000e-001 109723  6.6591e+000  2.6430e+001 -4.9481e+000 23856 109475,109579,109553
 1.0000e-001 109700 -4.5366e+000  9.6051e+000 -8.7284e-002 23856 109475,109605,109579
 1.0000e-001 109677 -1.7097e+000  7.5641e+000 -6.7607e+000 23856 109475,109553,109527
 1.0000e-001 109654  7.5027e+000  1.4721e+001  2.8969e+000 23856 109449,109605,109475
 1.0000e-001 109631  1.9254e+000  8.8692e+000 -6.2156e+000 23856 109475,109527,109501
 1.0000e-001 110101 -1.0052e+001  1.8617e+001  8.0446e+000 23566 109853,109931,109879
 1.0000e-001 110078 -9.5921e+000  1.3866e+001  2.3634e+000 23566 109827,109931,109853
 1.0000e-001 110055 -2.4862e+000  2.1025e+001 -4.8961e-001 23566 109827,109983,109931
 1.0000e-001 110032 -1.1608e+001  1.1746e+001  2.6905e+000 23566 109879,109931,109905
 1.0000e-001 110009 -1.0889e+000  2.4773e+001 -7.7688e-001 23566 109931,109983,109957
 1.0000e-001 110735  1.3451e+001  2.9538e+001 -1.3032e+000 23162 110415,110571,110519
 1.0000e-001 110712  1.5440e+001  3.1509e+001 -4.7458e-001 23162 110389,110571,110415
 1.0000e-001 110689  5.4165e+000  2.6673e+001  7.2994e-001 23162 110415,110519,110493
 1.0000e-001 110666  1.8248e+001  2.9841e+001 -4.9090e+000 23162 110363,110571,110389
 1.0000e-001 110643  6.4677e+000  3.0739e+001  4.2999e+000 23162 110441,110493,110467
 1.0000e-001 110620  4.6042e+000  2.7273e+001  5.3539e-001 23162 110415,110493,110441
 1.0000e-001 110597  1.5136e+001  3.3309e+001 -1.9385e+000 23162 110519,110571,110545
 1.0000e-001 111211 -1.1258e+001  8.4573e+000 -6.2449e-001 22708 111378,111306,111021
 1.0000e-001 111188 -1.5000e+001  2.0696e+000  3.2003e-001 22708 111234,110969,110917
 1.0000e-001 111165 -7.2396e+000  8.6706e+000  3.1633e+000 22708 111450,111234,110917
 1.0000e-001 111142 -1.0242e+001  9.8569e+000  8.3910e-001 22708 111378,111021,110995
 1.0000e-001 111119 -5.9584e+000  9.4205e+000  5.5195e+000 22708 111450,110917,110865
 1.0000e-001 111096 -2.3691e+001  8.8094e+000 -4.2157e+000 22708 110917,110969,110943
 1.0000e-001 111073 -1.1282e+001 -5.9820e+000  5.8514e+000 22708 110865,110917,110891
 1.0000e-001 111260 -1.2894e+001  1.0319e+001  1.0698e+000 22708 111306,110969,111234
 1.0000e-001 111283 -1.5469e+001  3.7109e+000  3.2155e+000 22708 111047,111234,110839
 1.0000e-001 111332 -2.8612e+001  1.6763e+001 -1.2357e+001 22708 111047,111021,111306
 1.0000e-001 111355 -1.8727e+001  7.3966e+000  3.6374e+000 22708 111047,111306,111234
 1.0000e-001 111404 -1.3580e+001  1.0419e+001 -4.8194e-001 22708 110969,111306,111378
 1.0000e-001 111427 -1.3093e+001  9.7287e+000 -2.2140e-002 22708 110969,111378,110995
 1.0000e-001 111476 -1.1706e+001  8.7979e+000  1.5241e+000 22708 110839,111234,111450
 1.0000e-001 111499 -1.0882e+001  9.9393e+000  4.1278e+000 22708 110839,111450,110865
 1.0000e-001 111600  1.0663e+001  3.4239e+001  3.0864e+000 22460 111522,111574,111548
 1.0000e-001 112059  9.6088e+000  2.8477e+001  6.9606e-001 22056 111811,111889,111863
 1.0000e-001 112036  7.5430e+000  2.7175e+001  1.2904e+000 22056 111811,111915,111889
 1.0000e-001 112013  3.1806e+000  2.3891e+001 -7.2311e-001 22056 111785,111915,111811
 1.0000e-001 111990  2.6717e-001  2.0678e+001  1.4688e+000 22056 111785,111941,111915
 1.0000e-001 111967  1.4779e+001  3.3232e+001 -1.9134e+000 22056 111811,111863,111837
 1.0000e-001 112486  9.9074e+000  3.3995e+001  1.9502e-001 21594 112509,112267,112215
 1.0000e-001 112463  1.0637e+001  3.4535e+001 -1.1424e+000 21594 112509,112215,112163
 1.0000e-001 112440  1.1821e+001  3.0683e+001  2.8640e+000 21594 112581,112293,112267
 1.0000e-001 112417  1.5137e+001  2.6853e+001 -6.1477e-001 21594 112215,112267,112241
 1.0000e-001 112394  5.3479e+000  3.9165e+001 -6.1908e+000 21594 112163,112345,112319
 1.0000e-001 112371  1.3386e+001  4.5147e+001 -1.8806e+000 21594 112163,112215,112189
 1.0000e-001 112535  9.2670e+000  3.2775e+001  5.9785e-001 21594 112581,112267,112509
 1.0000e-001 112558  1.0629e+001  3.1858e+001 -1.4660e+000 21594 112319,112509,112163
 1.0000e-001 112607  1.6714e+001  3.2673e+001  2.6585e+000 21594 112319,112293,112581
 1.0000e-001 112630  1.3827e+001  3.4555e+001 -1.3982e-001 21594 112319,112581,112509
 1.0000e-001 112900 -1.5179e+001  7.7027e+000  7.0222e-002 20974 112675,112779,112701
 1.0000e-001 112877 -1.6817e+001  1.0390e+001 -1.4916e+000 20974 112675,112805,112779
 1.0000e-001 112854 -2.0047e+001 -8.6184e-002 -2.5464e+000 20974 112701,112779,112753
 1.0000e-001 112831 -2.8570e+001 -1.6217e+001  6.4680e+000 20974 112701,112753,112727
 1.0000e-001 113359  2.5773e+000  2.7441e+001  9.3944e+000 20520 113454,113137,113111
 1.0000e-001 113336 -3.9945e+000  1.7790e+001  4.1748e+000 20520 113454,113111,113085
 1.0000e-001 113313 -1.6696e+000  1.1146e+001  6.6139e+000 20520 113382,113163,113137
 1.0000e-001 113290 -3.1425e+000  1.0557e+001  6.3708e+000 20520 113526,113382,113137
 1.0000e-001 113267 -1.2451e+001  4.8596e+001 -8.3324e+000 20520 113189,113241,113215
 1.0000e-001 113408 -1.3395e+000  1.2938e+001  4.2876e+000 20520 113189,113163,113382
 1.0000e-001 113431 -6.3417e+000  9.2460e+000  1.0300e+000 20520 113189,113382,113241
 1.0000e-001 113480 -3.3769e+000  1.4822e+001  5.9550e+000 20520 113526,113137,113454
 1.0000e-001 113503 -2.0741e+000  1.7600e+001  2.4916e+000 20520 113241,113454,113085
 1.0000e-001 113552 -2.2478e+000  1.7278e+001  4.0568e+000 20520 113241,113382,113526
 1.0000e-001 113575 -3.2649e+000  1.9918e+001  3.2206e+000 20520 113241,113526,113454
 1.0000e-001 113904  7.1404e+000  1.5721e+001 -4.8951e+000 19858 113705,113783,113757
 1.0000e-001 113881  1.2974e+001  1.8526e+001 -7.1391e+000 19858 113705,113809,113783
 1.0000e-001 113858  5.4578e+000  1.5559e+001 -7.8458e+000 19858 113679,113809,113705
 1.0000e-001 113835  1.5264e+001  2.9944e+001 -1.2391e+001 19858 113705,113757,113731
 1.0000e-001 114152 -1.6209e+000  1.1246e+001  4.1356e-001 19454 114175,114005,113979
 1.0000e-001 114129 -2.7893e+000  1.2310e+001  6.9996e-002 19454 114175,113979,114057
 1.0000e-001 114106  1.9440e+000  2.3848e+001  5.7390e-001 19454 113927,114057,113979
 1.0000e-001 114083  2.9340e-001  1.9785e+001  9.2102e-001 19454 113927,113979,113953
 1.0000e-001 114201  2.2256e+001  2.1473e+001 -2.4617e-001 19454 114031,114005,114175
 1.0000e-001 114224 -2.3025e+000  1.1549e+001  1.5073e-001 19454 114031,114175,114057
 1.0000e-001 114472  4.4814e+000  2.7971e+001  1.0712e+000 19000 114495,114273,114247
 1.0000e-001 114449  3.9606e+000  2.7001e+001  8.6766e-001 19000 114495,114247,114325
 1.0000e-001 114426  2.5196e+000  2.3341e+001  1.1283e+000 19000 114247,114377,114325
 1.0000e-001 114403  8.1768e+000  4.0146e+001 -3.2289e+000 19000 114325,114377,114351
 1.0000e-001 114521  6.3404e+000  2.8454e+001  2.5864e+000 19000 114299,114273,114495
 1.0000e-001 114544  4.5259e+000  2.5750e+001  1.6871e+000 19000 114299,114495,114325
 1.0000e-001 114948 -1.2919e+001  4.6499e+000 -2.2917e+000 18560 114674,114726,114700
 1.0000e-001 114925 -1.4739e+001  2.1040e+000 -1.4947e+000 18560 114674,114830,114726
 1.0000e-001 114902 -1.7498e+001 -5.0049e+000 -4.7150e+000 18560 114726,114830,114804
 1.0000e-001 114879 -7.7027e+000  1.4370e+000 -1.1339e+000 18560 114726,114804,114752
 1.0000e-001 114856 -8.9685e+000  3.9922e-001 -6.4583e-001 18560 114752,114804,114778
 1.0000e-001 115098  9.8987e+000  3.3438e+001 -3.1109e+000 18156 114971,115023,114997
 1.0000e-001 115075  4.5399e+000  3.1648e+001 -8.8359e-001 18156 114971,115049,115023
 1.0000e-001 115248 -4.9787e+000  2.6433e+001 -1.3586e+000 17602 115147,115199,115173
 1.0000e-001 115225  7.8066e+000  3.0563e+001  5.2758e-001 17602 115121,115199,115147
 1.0000e-001 115652  8.6446e+000  2.4730e+001 -4.1911e-001 17354 115430,115534,115508
 1.0000e-001 115629  1.0829e+001  2.9264e+001 -1.5950e+000 17354 115404,115534,115430
 1.0000e-001 115606  1.3955e+001  3.4144e+001  9.1675e-001 17354 115378,115534,115404
 1.0000e-001 115583  2.1980e+000  2.8077e+001  9.6085e-001 17354 115456,115508,115482
 1.0000e-001 115560  9.6537e+000  2.7186e+001 -4.0902e-001 17354 115430,115508,115456
 1.0000e-001 115873 -1.5316e+001  9.9867e+000  2.2210e+000 16950 115749,115801,115775
 1.0000e-001 115850 -1.0428e+001  1.6044e+001  4.8342e+000 16950 115697,115801,115749
 1.0000e-001 115827 -1.5580e+001  5.3691e+000  3.1807e+000 16950 115697,115749,115723
 1.0000e-001 116023 -6.1899e+000  2.3067e+001  2.0072e+000 16496 115922,115974,115948
 1.0000e-001 116000 -1.1396e+001  2.7883e+001  3.5647e+000 16496 115896,115974,115922
 1.0000e-001 116126  9.2844e+000  3.5266e+001 -9.4975e-001 16298 116048,116100,116074
 1.0000e-001 116278 -2.6534e+001  1.3526e+001  1.8262e+000 15892 116151,116203,116177
 1.0000e-001 116255 -1.0878e+001  4.0242e+001 -5.6410e+000 15892 116151,116229,116203
 1.0000e-001 116430  1.1186e+001  2.3884e+001  2.8941e-001 15545 116303,116355,116329
 1.0000e-001 116407  1.5349e+001  3.6812e+001  6.4656e+000 15545 116303,116381,116355
 1.0000e-001 116785 -8.1303e+000  4.2322e+000 -3.1728e-001 421 116612,116690,116664
 1.0000e-001 116762 -7.6529e+000  5.4033e+000  1.7787e+000 421 116560,116690,116612
 1.0000e-001 116739  6.3838e+000  1.0947e+001  1.9995e+000 421 116560,116612,116586
 1.0000e-001 116716 -4.5904e-001  1.4512e+001  3.0895e+000 421 116612,116664,116638
 2.0000e-001 68048 -9.8468e+001 -2.2181e+001 -7.9801e+000 67642 67898,67950,67924
 2.0000e-001 68025 -1.0922e+002 -2.3803e+001  4.8912e-001 67642 67898,67976,67950
 2.0000e-001 68002 -8.7518e+001 -1.3377e+001 -3.1143e+000 67642 67872,67976,67898
 2.0000e-001 68367 -5.5934e+001 -8.8279e+000 -3.7434e-001 67444 68119,68223,68197
 2.0000e-001 68344 -5.4589e+001 -4.7159e+000 -6.3975e-001 67444 68119,68249,68223
 2.0000e-001 68321 -4.6855e+001 -1.9065e+000 -1.4250e-001 67444 68093,68249,68119
 2.0000e-001 68298 -5.7964e+001 -1.3737e+001 -1.1219e-001 67444 68119,68197,68171
 2.0000e-001 68275 -4.7963e+001  1.5858e+001  1.6285e+001 67444 68119,68171,68145
 2.0000e-001 68468 -6.0572e+001  4.7902e+000 -1.0950e+000 67268 68390,68442,68416
 2.0000e-001 68765 -5.5569e+001  7.7942e+000 -3.0597e+000 66956 68788,68517,68491
 2.0000e-001 68742 -6.2444e+001  4.7432e+000 -4.9943e+000 66956 68788,68491,68621
 2.0000e-001 68719 -7.4306e+001 -1.3696e-001 -2.4839e+001 66956 68543,68621,68569
 2.0000e-001 68696 -6.0353e+001  1.2753e+001 -2.7717e+000 66956 68491,68647,68621
 2.0000e-001 68673 -1.2551e+002 -3.0819e+001 -4.1991e+001 66956 68569,68621,68595
 2.0000e-001 68814 -4.7072e+001  4.4261e+000 -2.1422e+000 66956 68543,68517,68788
 2.0000e-001 68837 -5.5635e+001  1.4136e-001 -4.3353e+000 66956 68543,68788,68621
 2.0000e-001 69107 -4.6819e+001 -5.3391e+000 -1.4177e+000 66758 68882,68986,68908
 2.0000e-001 69084 -5.4143e+001 -7.3741e+000 -2.2886e-001 66758 68882,69012,68986
 2.0000e-001 69061 -6.8758e+001  6.0293e+000 -3.8206e+000 66758 68908,68960,68934
 2.0000e-001 69038 -4.2159e+001  3.3571e+000 -3.4264e+000 66758 68908,68986,68960
 2.0000e-001 69308 -5.6846e+001  2.1219e+001 -2.1788e+000 66560 69331,69184,69158
 2.0000e-001 69285 -5.2302e+001  1.5725e+001 -2.9233e+000 66560 69331,69158,69132
 2.0000e-001 69262 -6.4628e+001  1.7580e+001  1.0001e+001 66560 69184,69236,69210
 2.0000e-001 69357 -5.5935e+001  1.6688e+001 -3.6225e-001 66560 69236,69184,69331
 2.0000e-001 69380 -5.4755e+001  8.1294e+000  2.7528e-001 66560 69236,69331,69132
 2.0000e-001 69554 -6.5684e+001  2.7820e+001 -5.0590e+000 66270 69427,69479,69453
 2.0000e-001 69531 -7.5879e+001  4.0597e+000 -9.7754e+000 66270 69427,69505,69479
 2.0000e-001 69804 -6.2654e+001 -8.1960e+000  7.0433e+000 66066 69579,69683,69657
 2.0000e-001 69781 -5.4751e+001 -2.9558e+000 -1.0271e+001 66066 69579,69709,69683
 2.0000e-001 69758 -5.9789e+001  4.2280e-001  6.0517e+000 66066 69579,69657,69631
 2.0000e-001 69735 -5.5077e+001  8.7804e+000  1.3415e+001 66066 69579,69631,69605
 2.0000e-001 70257 -5.9253e+001 -9.7810e+000 -1.2786e+000 65776 69960,70090,69986
 2.0000e-001 70234 -5.8006e+001 -4.8081e+000 -2.4567e+000 65776 69934,70090,69960
 2.0000e-001 70211 -3.6997e+001  5.9981e+000  1.3525e+000 65776 69934,70116,70090
 2.0000e-001 70188 -5.6982e+001  2.3856e+000  0.0000e+000 65776 70038,70090,70064
 2.0000e-001 70165 -5.2008e+001  7.0854e+000 -3.2898e+000 65776 69986,70090,70038
 2.0000e-001 70142 -6.1200e+001  7.9250e+000 -4.6162e+000 65776 69986,70038,70012
 2.0000e-001 70456 -4.1195e+001  1.3708e+000 -1.6370e+000 65372 70479,70306,70280
 2.0000e-001 70433 -4.0302e+001  7.6357e-001 -2.4974e+000 65372 70479,70280,70384
 2.0000e-001 70410 -3.8338e+001 -2.5177e+000  2.7272e+000 65372 70551,70332,70306
 2.0000e-001 70505 -3.9212e+001  2.4011e+000 -1.1307e+000 65372 70551,70306,70479
 2.0000e-001 70528 -3.4801e+001 -5.8729e-001 -4.0599e+000 65372 70358,70479,70384
 2.0000e-001 70577 -3.7869e+001 -9.6914e+000  1.8551e+000 65372 70358,70332,70551
 2.0000e-001 70600 -4.0719e+001 -7.0082e+000 -1.5659e+000 65372 70358,70551,70479
 2.0000e-001 70821 -3.1686e+001 -1.2196e+001 -6.1391e-001 65174 70645,70723,70671
 2.0000e-001 70798 -5.5750e+001 -2.0576e+001  2.5107e+000 65174 70645,70749,70723
 2.0000e-001 70775 -2.8565e+001 -1.1735e+001 -1.4812e+000 65174 70671,70723,70697
 2.0000e-001 71071 -6.3356e+001 -7.8345e-001 -1.6862e+001 64770 71094,70898,70872
 2.0000e-001 71048 -2.9771e+001  1.2345e+001 -1.4643e+001 64770 71166,71094,70872
 2.0000e-001 71025 -1.6394e+001  3.7651e+000 -2.3457e+001 64770 71166,70872,70846
 2.0000e-001 71002 -5.4232e+001 -4.4830e-001 -1.4344e+000 64770 70898,70950,70924
 2.0000e-001 71120 -4.4859e+001  1.0311e+000 -2.5430e+000 64770 70950,70898,71094
 2.0000e-001 71143 -3.0894e+001 -3.7261e-001  8.7606e-002 64770 70950,71094,70976
 2.0000e-001 71192 -4.8671e+001 -6.0868e+000 -4.1746e+000 64770 70976,71094,71166
 2.0000e-001 71215 -3.3406e+001 -7.3095e+000 -1.5192e+001 64770 70976,71166,70846
 2.0000e-001 71514 -5.1059e+001  3.2988e+000 -2.4625e+000 64572 71681,71537,71318
 2.0000e-001 71491 -5.1630e+001  4.1506e+000 -2.0775e+000 64572 71537,71266,71240
 2.0000e-001 71468 -4.5502e+001  7.5993e-001  2.6270e+000 64572 71609,71396,71370
 2.0000e-001 71445 -5.2873e+001  5.1840e+000 -3.1836e+000 64572 71681,71318,71292
 2.0000e-001 71422 -4.4028e+001  2.1041e+001 -3.8205e+000 64572 71753,71344,71318
 2.0000e-001 71563 -4.8063e+001  9.5343e+000 -3.4228e+000 64572 71753,71318,71537
 2.0000e-001 71586 -4.8385e+001  3.4515e+000 -8.3024e-001 64572 71609,71370,71537
 2.0000e-001 71635 -4.8795e+001 -7.8904e+000  1.0933e+000 64572 71240,71396,71609
 2.0000e-001 71658 -5.1496e+001 -2.3235e+000 -2.3896e+000 64572 71240,71609,71537
 2.0000e-001 71707 -5.3961e+001  2.3664e+000 -3.6630e+000 64572 71266,71537,71681
 2.0000e-001 71730 -5.8176e+001  2.4059e+000 -4.6935e+000 64572 71266,71681,71292
 2.0000e-001 71779 -4.7597e+001  6.4732e+000 -1.6223e+000 64572 71370,71344,71753
 2.0000e-001 71802 -4.5568e+001  4.3945e+000 -8.2353e-001 64572 71370,71753,71537
 2.0000e-001 72052 -3.4753e+001 -7.5308e+000  1.9379e+000 64374 72075,71879,71827
 2.0000e-001 72029 -3.8657e+001 -4.4039e+000 -6.2820e+000 64374 72147,72075,71827
 2.0000e-001 72006 -2.9530e+001 -1.3552e+000 -6.1106e+000 64374 72147,71827,71957
 2.0000e-001 71983 -1.9346e+001 -4.9586e+000 -7.5530e+000 64374 71827,71879,71853
 2.0000e-001 72101 -3.8084e+001 -6.4376e+000 -3.4862e+000 64374 71905,71879,72075
 2.0000e-001 72124 -6.8274e+001 -9.9128e+000 -9.9124e+000 64374 71905,72075,71931
 2.0000e-001 72173 -4.5022e+001 -2.2482e-001 -1.0968e+000 64374 71931,72075,72147
 2.0000e-001 72196 -4.2352e+001 -8.4368e-001 -2.0470e+000 64374 71931,72147,71957
 2.0000e-001 72649 -5.8432e+001 -1.1159e+001  8.0026e-002 63948 72352,72508,72482
 2.0000e-001 72626 -5.9826e+001 -2.4135e+001 -1.5563e+001 63948 72326,72508,72352
 2.0000e-001 72603 -5.4876e+001 -2.9851e+000  7.0540e-001 63948 72672,72430,72378
 2.0000e-001 72580 -5.0319e+001  1.3670e+001 -4.7645e+000 63948 72672,72378,72352
 2.0000e-001 72557 -5.3882e+001 -1.1559e+001  6.3831e-001 63948 72744,72456,72430
 2.0000e-001 72534 -5.5411e+001  1.8313e+001  2.0771e+001 63948 72378,72430,72404
 2.0000e-001 72698 -5.4207e+001 -9.5206e+000  1.8431e+000 63948 72744,72430,72672
 2.0000e-001 72721 -5.7306e+001 -3.8242e+000 -1.3990e+000 63948 72482,72672,72352
 2.0000e-001 72770 -5.6961e+001 -7.9746e+000  8.1725e-001 63948 72482,72456,72744
 2.0000e-001 72793 -5.4799e+001 -2.9663e+000  2.3995e+000 63948 72482,72744,72672
 2.0000e-001 72894 -5.2393e+001  3.7200e+001  3.5846e+000 63494 72816,72868,72842
 2.0000e-001 73093 -1.1315e+001  3.1888e+001  8.2043e-001 63132 72943,72995,72969
 2.0000e-001 73070 -4.6408e+001  1.6670e+001 -1.1645e+000 63132 72943,73021,72995
 2.0000e-001 73047 -4.4091e+001  4.9455e+001 -7.6077e+000 63132 72917,73021,72943
 2.0000e-001 73294 -4.3839e+001  8.2923e+000  2.3268e+000 62792 73317,73144,73118
 2.0000e-001 73271 -4.2716e+001  1.1017e+001  2.4514e+000 62792 73317,73118,73222
 2.0000e-001 73248 -4.2334e+001  4.0453e+000  2.6990e-001 62792 73144,73196,73170
 2.0000e-001 73343 -4.3384e+001  5.6255e+000 -5.1635e-001 62792 73196,73144,73317
 2.0000e-001 73366 -4.1630e+001  9.7622e+000 -4.6768e-001 62792 73196,73317,73222
 2.0000e-001 73616 -5.8053e+001  1.4698e+000  7.1238e+000 62388 73639,73417,73391
 2.0000e-001 73593 -5.3442e+001  1.1302e+001  1.3045e+000 62388 73711,73639,73391
 2.0000e-001 73570 -5.0815e+001  1.9245e+001 -2.8066e-002 62388 73711,73391,73521
 2.0000e-001 73547 -4.9369e+001  9.0275e+000 -3.0855e+000 62388 73469,73521,73495
 2.0000e-001 73665 -4.5809e+001  5.8708e+000  1.0118e+000 62388 73443,73417,73639
 2.0000e-001 73688 -5.1489e+001  8.7815e+000 -1.7947e+000 62388 73443,73639,73469
 2.0000e-001 73737 -5.0337e+001  6.1180e+000  2.4447e-001 62388 73469,73639,73711
 2.0000e-001 73760 -5.1433e+001  9.2032e+000  5.7486e-001 62388 73469,73711,73521
 2.0000e-001 74010 -6.6189e+001 -2.0924e+001 -1.2456e+001 61848 74033,73837,73811
 2.0000e-001 73987 -1.9304e+001 -1.1854e+001  6.4901e-001 61848 74033,73811,73785
 2.0000e-001 73964 -6.2819e+001 -7.1846e+000  4.2122e+000 61848 73837,73915,73889
 2.0000e-001 73941 -8.0221e+001 -3.7778e-001 -4.7748e+000 61848 73837,73889,73863
 2.0000e-001 74059 -7.1112e+001 -7.5022e+000 -2.8491e+000 61848 73915,73837,74033
 2.0000e-001 74082 -6.6969e+001  2.4115e-001  1.6168e+000 61848 73915,74033,73785
 2.0000e-001 74283 -4.1030e+001  1.9835e+001 -3.0314e+001 61444 74306,74133,74107
 2.0000e-001 74260 -5.2255e+001  1.7886e+001 -9.6957e-002 61444 74306,74107,74211
 2.0000e-001 74237 -6.5734e+001  2.5457e+001 -2.5222e+000 61444 74378,74185,74159
 2.0000e-001 74332 -7.2496e+001  6.3498e+000 -3.0448e+001 61444 74159,74133,74306
 2.0000e-001 74355 -6.4689e+001  1.5500e+001 -2.0076e+000 61444 74378,74159,74306
 2.0000e-001 74404 -6.8994e+001  1.4899e+001 -5.5789e-001 61444 74211,74185,74378
 2.0000e-001 74427 -6.7470e+001  1.2262e+001 -8.2442e-001 61444 74211,74378,74306
 2.0000e-001 74628 -6.3759e+001  1.4452e+000  3.2633e+000 60990 74478,74530,74504
 2.0000e-001 74605 -4.5744e+001  3.6777e+000  2.5612e-001 60990 74452,74530,74478
 2.0000e-001 74582 -6.3416e+001  3.8811e+000 -2.8236e-001 60990 74452,74556,74530
 2.0000e-001 75089  4.7672e+001  7.2191e+001 -3.9642e+001 60486 75112,74945,74919
 2.0000e-001 75066  4.4115e+000 -9.6792e+000 -2.3643e+001 60486 75112,74919,74867
 2.0000e-001 75043 -3.2187e+001  5.6528e+001 -6.9524e+000 60486 74841,74971,74867
 2.0000e-001 75020  6.8372e+000  7.3333e+000 -4.6562e+001 60486 74867,74919,74893
 2.0000e-001 74997  7.9733e+000  5.8392e+001 -1.8761e+001 60486 74815,74971,74841
 2.0000e-001 75138  4.1044e+000  7.4100e+001  4.5191e+000 60486 74971,74945,75112
 2.0000e-001 75161 -1.2250e+001  4.3321e+001  1.0957e+001 60486 74971,75112,74867
 2.0000e-001 75409 -4.7925e+001  1.8328e+001  4.9939e+000 59932 75576,75432,75288
 2.0000e-001 75386 -4.8512e+001  1.6903e+001 -1.7638e+000 59932 75504,75314,75288
 2.0000e-001 75363 -5.4314e+001  3.4355e+001  6.1074e+000 59932 75432,75236,75210
 2.0000e-001 75340 -4.0206e+001  1.7254e+001  9.6530e-001 59932 75576,75288,75262
 2.0000e-001 75458 -5.0390e+001  2.0477e+001 -2.8264e+000 59932 75504,75288,75432
 2.0000e-001 75481 -4.3828e+001  2.8125e+001 -7.9513e+000 59932 75184,75432,75210
 2.0000e-001 75530 -6.6855e+001 -1.9167e+001  4.7517e+000 59932 75184,75314,75504
 2.0000e-001 75553 -5.0661e+001  1.6660e+001 -2.3580e+000 59932 75184,75504,75432
 2.0000e-001 75602 -5.2877e+001  1.2212e+001  7.1493e+000 59932 75236,75432,75576
 2.0000e-001 75625 -4.8887e+001  9.4424e+000  4.7976e+000 59932 75236,75576,75262
 2.0000e-001 75873 -5.4068e+001 -2.2086e+000  2.5453e+000 59478 75674,75752,75700
 2.0000e-001 75850 -3.9401e+001  3.8813e+000 -4.4435e+000 59478 75648,75752,75674
 2.0000e-001 75827 -6.1981e+001 -5.6653e+000  1.2025e+000 59478 75700,75752,75726
 2.0000e-001 75804 -4.9708e+001  1.2483e+000 -2.1721e+000 59478 75648,75778,75752
 2.0000e-001 76206 -3.3469e+001  4.0037e+000 -4.4577e+000 59024 75981,76059,76007
 2.0000e-001 76183 -3.0894e+001  1.7864e+001 -8.4110e+000 59024 75981,76111,76059
 2.0000e-001 76160 -2.7047e+001  5.5172e+000 -4.4368e+000 59024 76007,76059,76033
 2.0000e-001 76137 -2.9995e+001  2.9989e+001 -1.5833e+001 59024 76059,76111,76085
 2.0000e-001 76761  5.0407e+000  3.7451e+001  1.7941e+001 58562 76389,76441,76415
 2.0000e-001 76738 -1.8903e+001  3.8655e+001 -2.3802e+001 58562 76856,76784,76389
 2.0000e-001 76715 -2.7018e+001 -1.9381e+000 -7.4143e+000 58562 76784,76571,76467
 2.0000e-001 76692 -4.4178e+001  6.6493e+001 -3.3942e+001 58562 76856,76389,76597
 2.0000e-001 76669 -5.0882e+001  2.8964e+001 -1.4637e+001 58562 76467,76545,76493
 2.0000e-001 76646 -5.0345e+001  2.2893e+001 -1.3507e+000 58562 76467,76571,76545
 2.0000e-001 76623 -1.1425e+001  3.1711e+001 -1.6274e+001 58562 76493,76545,76519
 2.0000e-001 76810 -3.7229e+001  1.7436e+001 -1.3816e+001 58562 76441,76389,76784
 2.0000e-001 76833  2.5156e+000  5.2653e+001  1.0511e+001 58562 76441,76784,76467
 2.0000e-001 76882 -4.3728e+001  5.5889e-001 -3.4615e+001 58562 76571,76784,76856
 2.0000e-001 76905 -6.3943e+001  3.2002e+001 -4.1914e+001 58562 76571,76856,76597
 2.0000e-001 77055 -4.8200e+001  3.0094e+001  6.7352e+000 57844 76928,76980,76954
 2.0000e-001 77032 -2.2715e+001  6.7171e+001 -5.1845e+000 57844 76928,77006,76980
 2.0000e-001 77533 -6.8085e+001  4.0952e+000 -6.4836e-001 57226 77628,77556,77291
 2.0000e-001 77510 -6.3282e+001 -2.8402e+000  2.9600e+000 57226 77556,77187,77343
 2.0000e-001 77487 -5.6569e+001 -1.6507e+000 -6.1555e-001 57226 77628,77291,77265
 2.0000e-001 77464 -5.3512e+001  5.1021e+000  6.1626e-001 57226 77700,77213,77187
 2.0000e-001 77441 -1.1483e+002 -8.8973e+000  2.4379e+001 57226 77161,77343,77187
 2.0000e-001 77418 -6.1044e+001  7.3282e+001 -8.9284e+000 57226 77161,77369,77343
 2.0000e-001 77395  4.8514e+000  1.3401e+001 -2.8058e+001 57226 77213,77265,77239
 2.0000e-001 77582 -6.2328e+001  1.6424e+001 -2.6179e+000 57226 77317,77291,77556
 2.0000e-001 77605 -6.6612e+001  5.6317e+000  1.4718e+000 57226 77317,77556,77343
 2.0000e-001 77654 -5.7559e+001  6.6224e+000 -5.5020e-001 57226 77187,77556,77628
 2.0000e-001 77677 -5.6472e+001  4.3943e+000 -3.2142e+000 57226 77700,77187,77628
 2.0000e-001 77726 -4.3183e+001  9.9293e+000  7.3176e+000 57226 77265,77213,77700
 2.0000e-001 77749 -4.7870e+001  4.9988e+000  2.6791e+000 57226 77265,77700,77628
 2.0000e-001 78046 -4.1287e+001  1.8114e+000 -2.9673e+000 56936 77798,77850,77824
 2.0000e-001 78023 -4.6117e+001  6.0551e+000 -1.3083e+000 56936 78069,77798,77902
 2.0000e-001 78000 -5.4817e+001  4.7828e+000 -3.4247e+000 56936 78069,77902,77876
 2.0000e-001 77977 -6.2565e+001 -7.4738e-001 -2.9820e-001 56936 77798,77928,77902
 2.0000e-001 77954 -7.6500e+001  3.4648e+001  6.6060e+000 56936 77772,77928,77798
 2.0000e-001 78095 -4.2932e+001  5.5195e+000 -4.9087e-001 56936 77850,77798,78069
 2.0000e-001 78118 -4.6967e+001  7.3616e+000 -2.6370e+000 56936 77850,78069,77876
 2.0000e-001 78754 -3.7971e+001 -2.0456e+001  8.2716e+000 56475 78777,78486,78408
 2.0000e-001 78731 -6.3189e+001 -3.7164e+001  1.5511e+001 56475 78777,78408,78382
 2.0000e-001 78708 -5.2407e+001 -2.2526e+001  1.5410e-001 56475 78849,78512,78486
 2.0000e-001 78685 -4.8722e+001 -7.5115e+000 -2.1623e-001 56475 78382,78590,78564
 2.0000e-001 78662 -6.0474e+001 -3.7588e+000 -4.2502e+000 56475 78512,78564,78538
 2.0000e-001 78639 -4.0925e+001 -2.0122e+001  3.7527e+000 56475 78434,78486,78460
 2.0000e-001 78616 -3.8626e+001 -2.3900e+001  5.7118e+000 56475 78408,78486,78434
 2.0000e-001 78803 -5.5041e+001 -2.1217e+001  2.3860e+000 56475 78849,78486,78777
 2.0000e-001 78826 -5.7650e+001 -2.0011e+001  3.9089e+000 56475 78564,78777,78382
 2.0000e-001 78875 -5.0636e+001 -1.9338e+001 -9.0647e-001 56475 78564,78512,78849
 2.0000e-001 78898 -5.2119e+001 -1.6840e+001  9.9356e-001 56475 78564,78849,78777
 2.0000e-001 79276 -4.9173e+001 -1.7568e+001  3.8719e+000 55964 79299,79080,79028
 2.0000e-001 79253 -5.5770e+001 -1.6758e+001  8.3695e-001 55964 79299,79028,79132
 2.0000e-001 79230 -4.3316e+001  6.3022e-001  2.3977e+000 55964 79028,79080,79054
 2.0000e-001 79207 -5.5843e+001 -1.8220e+001  1.4746e-001 55964 79002,79132,79028
 2.0000e-001 79184 -8.2114e+001 -2.8806e+001 -6.1982e+000 55964 79002,79158,79132
 2.0000e-001 79325 -5.2806e+001 -1.9754e+001 -1.2764e-001 55964 79106,79080,79299
 2.0000e-001 79348 -5.9481e+001 -1.8218e+001 -2.8573e+000 55964 79106,79299,79132
 2.0000e-001 79498 -4.7340e+001 -4.1573e+000 -5.3753e+000 55452 79397,79449,79423
 2.0000e-001 79475 -3.6349e+001  3.0843e+000 -5.8201e-001 55452 79371,79449,79397
 2.0000e-001 79795 -4.1962e+001 -3.8241e+000  5.9095e-001 55048 79962,79818,79573
 2.0000e-001 79772 -4.0991e+001 -3.7894e+000 -4.6739e-001 55048 79818,79521,79677
 2.0000e-001 79749 -2.7400e+001 -1.5611e+001  9.7201e-001 55048 79599,79651,79625
 2.0000e-001 79726 -4.4334e+001 -5.2789e+000 -2.7846e+000 55048 79890,79651,79599
 2.0000e-001 79703 -4.6113e+001  6.3550e-001 -7.0028e+000 55048 79962,79573,79547
 2.0000e-001 79844 -4.0808e+001 -5.1803e+000  6.7809e-001 55048 79599,79573,79818
 2.0000e-001 79867 -4.1777e+001 -1.7627e+000  9.8423e-001 55048 79890,79599,79818
 2.0000e-001 79916 -4.9588e+001 -6.7424e+000 -6.4663e+000 55048 79677,79651,79890
 2.0000e-001 79939 -4.7784e+001 -5.4481e+000 -3.0315e+000 55048 79677,79890,79818
 2.0000e-001 79988 -3.1302e+001 -2.0889e+000 -3.7365e+000 55048 79521,79818,79962
 2.0000e-001 80011 -3.1034e+001  7.9992e-001 -1.0435e+001 55048 79521,79962,79547
 2.0000e-001 80212 -5.2485e+001  3.6190e+000  2.3726e+000 54436 80235,80088,80036
 2.0000e-001 80189 -5.0195e+001  5.8740e+000  1.4249e+000 54436 80235,80036,80140
 2.0000e-001 80166 -4.7785e+001  2.2377e+001  6.3254e+000 54436 80036,80088,80062
 2.0000e-001 80261 -5.0177e+001  8.0572e-002  4.2564e+000 54436 80114,80088,80235
 2.0000e-001 80284 -4.7169e+001  2.5608e+000  3.1201e+000 54436 80114,80235,80140
 2.0000e-001 80534 -5.7019e+001 -1.1838e-001 -1.5048e+000 54032 80557,80361,80335
 2.0000e-001 80511 -5.0498e+001 -3.2161e+000  1.5874e+000 54032 80557,80335,80309
 2.0000e-001 80488 -3.8616e+001  3.8897e+000 -4.5495e+000 54032 80629,80413,80387
 2.0000e-001 80465 -4.4630e+001  8.6653e+000 -1.8091e+000 54032 80309,80439,80413
 2.0000e-001 80583 -5.1239e+001 -1.3738e+000  3.0512e+000 54032 80387,80361,80557
 2.0000e-001 80606 -4.0899e+001 -1.9316e-001 -2.2395e-002 54032 80629,80387,80557
 2.0000e-001 80655 -4.4712e+001  2.5731e-001 -2.4249e-001 54032 80309,80413,80629
 2.0000e-001 80678 -4.7931e+001 -8.6717e-001  3.6115e+000 54032 80309,80629,80557
 2.0000e-001 81139  8.9867e+000  6.5213e+001  3.6789e+001 53784 80865,80995,80917
 2.0000e-001 81116 -1.3783e+001  7.5056e+001 -1.5691e+001 53784 80865,81021,80995
 2.0000e-001 81093  2.1826e+001  6.2141e+001  1.4452e+001 53784 80943,80995,80969
 2.0000e-001 81070  3.0012e+001  4.3070e+001  3.1471e+001 53784 80917,80995,80943
 2.0000e-001 81047 -4.4909e+001  2.4557e+002  7.9367e+001 53784 80865,80917,80891
 2.0000e-001 81468 -2.6606e+001  2.2924e+000  9.7031e+000 53230 81295,81373,81347
 2.0000e-001 81445 -3.4790e+001  1.1598e+001  3.8049e+000 53230 81243,81373,81295
 2.0000e-001 81422 -1.3451e+001  4.0974e+001  1.4114e+001 53230 81243,81295,81269
 2.0000e-001 81399 -2.8275e+001  1.8050e+000  9.1706e+000 53230 81295,81347,81321
 2.0000e-001 81618 -6.6861e+001 -2.1682e+001 -2.1889e+000 52790 81491,81543,81517
 2.0000e-001 81595 -5.9491e+001 -2.9423e+001 -3.0820e+000 52790 81491,81569,81543
 2.0000e-001 82126 -3.4081e+001 -1.5808e+001  8.1378e+000 52386 82149,81907,81881
 2.0000e-001 82103 -3.2559e+001 -1.1787e+001  8.6707e+000 52386 82149,81881,81855
 2.0000e-001 82080 -3.3470e+001 -1.9607e+001  3.5275e+000 52386 82221,81803,81985
 2.0000e-001 82057 -1.7844e+001 -8.9419e+000  9.5892e+000 52386 81803,81855,81829
 2.0000e-001 82034 -2.9700e+001 -1.2832e+001  1.2045e+000 52386 81907,81985,81933
 2.0000e-001 82011 -2.6167e+001 -1.2996e+001  1.3024e+000 52386 81933,81985,81959
 2.0000e-001 82175 -3.3293e+001 -1.3827e+001  7.0735e+000 52386 81985,81907,82149
 2.0000e-001 82198 -3.4435e+001 -1.6773e+001  6.5738e+000 52386 82221,81985,82149
 2.0000e-001 82247 -3.1627e+001 -1.4378e+001  3.9973e+000 52386 81855,81803,82221
 2.0000e-001 82270 -3.2857e+001 -1.1227e+001  6.3865e+000 52386 81855,82221,82149
 2.0000e-001 82825 -7.9582e+001 -1.4915e+001 -2.4037e+001 51782 82505,82661,82635
 2.0000e-001 82802 -4.0111e+001  2.3899e+001 -1.8007e+000 51782 82479,82661,82505
 2.0000e-001 82779 -4.8285e+001 -1.3026e+001  2.6345e+000 51782 82557,82635,82609
 2.0000e-001 82756 -5.0489e+001 -1.8429e+001 -3.5209e+000 51782 82531,82635,82557
 2.0000e-001 82733 -6.9159e+001 -2.0865e+000 -9.7403e+000 51782 82505,82635,82531
 2.0000e-001 82710 -4.9355e+001 -2.6383e+000 -2.4018e+001 51782 82453,82661,82479
 2.0000e-001 82687 -3.9882e+001 -6.6771e+000  5.4454e+000 51782 82557,82609,82583
 2.0000e-001 83171 -5.8203e+001 -1.2515e+001 -5.3915e+000 51442 83194,82978,82900
 2.0000e-001 83148 -6.0413e+001 -1.7487e+001 -6.6409e+000 51442 83194,82900,82874
 2.0000e-001 83125 -5.9404e+001 -1.3176e+001 -7.0877e+000 51442 82900,82978,82926
 2.0000e-001 83102 -5.7509e+001 -2.0359e+001 -1.1255e+001 51442 82874,83030,83004
 2.0000e-001 83079 -4.3469e+001  1.9633e+000  3.6881e+000 51442 82926,82978,82952
 2.0000e-001 83056 -6.9146e+001 -3.0873e+001 -1.5762e+001 51442 82848,83030,82874
 2.0000e-001 83220 -5.4074e+001 -1.6226e+001 -3.9060e+000 51442 83004,82978,83194
 2.0000e-001 83243 -5.7520e+001 -2.2653e+001 -5.7192e+000 51442 83004,83194,82874
 2.0000e-001 83751 -4.2022e+001 -1.6268e+001  1.6960e+000 50938 83428,83584,83454
 2.0000e-001 83728 -5.6396e+001 -2.1608e+001 -2.8393e+000 50938 83428,83610,83584
 2.0000e-001 83705 -5.7859e+001 -1.6854e+001 -2.0506e+000 50938 83454,83584,83558
 2.0000e-001 83682 -7.6191e+001 -2.2798e+001  1.8413e+000 50938 83454,83532,83480
 2.0000e-001 83659 -6.4268e+001 -1.9466e+001 -1.6423e+000 50938 83454,83558,83532
 2.0000e-001 83636 -7.8152e+001  2.3738e+001  2.1609e+001 50938 83480,83532,83506
 2.0000e-001 84355 -6.4581e+000  3.8900e+001 -1.2283e+000 50377 84378,83960,83934
 2.0000e-001 84332 -9.5851e+000  3.4804e+001  3.7081e+000 50377 84522,84378,83934
 2.0000e-001 84309 -1.5993e+001  2.8837e+000 -5.2271e+000 50377 84450,84038,84012
 2.0000e-001 84286 -1.3748e+001  4.0334e+001  3.4503e+000 50377 84522,83934,84142
 2.0000e-001 84263 -9.0335e+000  7.2908e+000  2.6259e+000 50377 84594,84090,84038
 2.0000e-001 84240  4.0814e+001  3.1961e+001 -1.9987e+001 50377 83960,84012,83986
 2.0000e-001 84217  1.0617e+001  5.7474e+001 -9.0147e+000 50377 83934,84168,84142
 2.0000e-001 84194 -1.0648e+001 -1.0382e+001 -9.7132e+000 50377 84038,84090,84064
 2.0000e-001 84404 -7.2054e-001  3.2322e+001  8.3397e+000 50377 84012,83960,84378
 2.0000e-001 84427 -1.0722e+001  8.1322e+000  3.4034e+000 50377 84450,84012,84378
 2.0000e-001 84476 -1.0780e+001  9.5947e+000  2.0707e+000 50377 84594,84038,84450
 2.0000e-001 84499 -9.0403e+000  2.5065e+001  6.9542e+000 50377 84116,84450,84378
 2.0000e-001 84548 -1.1778e+001  2.7507e+001  9.7328e-001 50377 84116,84378,84522
 2.0000e-001 84571 -1.5055e+001  3.4246e+001  6.8566e-001 50377 84116,84522,84142
 2.0000e-001 84620 -7.1031e+000  1.0059e+001  1.3777e+000 50377 84116,84090,84594
 2.0000e-001 84643 -8.5076e+000  1.2510e+001  6.8044e-001 50377 84116,84594,84450
 2.0000e-001 84842 -4.5710e+001 -6.1787e+000 -5.2234e+000 49923 84865,84692,84666
 2.0000e-001 84819 -3.8022e+001 -5.1008e+000 -3.2772e+000 49923 84865,84666,84770
 2.0000e-001 84796 -4.5351e+001 -8.0685e+000 -1.2317e+000 49923 84692,84744,84718
 2.0000e-001 84891 -4.0953e+001 -6.7235e+000 -5.2974e-001 49923 84744,84692,84865
 2.0000e-001 84914 -3.2864e+001 -4.4471e+000  1.9228e+000 49923 84744,84865,84770
 2.0000e-001 85501 -4.6487e+001  8.7173e+000  2.5700e+000 49618 85524,85282,85204
 2.0000e-001 85478 -4.2711e+001  9.0352e+000  1.2866e+000 49618 85596,85524,85204
 2.0000e-001 85455 -4.0583e+001  2.9588e+001  5.2014e+000 49618 85596,85204,85178
 2.0000e-001 85432 -4.5406e+001 -2.5419e+000  7.0359e+000 49618 85204,85282,85256
 2.0000e-001 85409 -3.2962e+001  3.0838e+001  7.5104e+000 49618 85282,85334,85308
 2.0000e-001 85386 -4.2416e+001  7.0822e+000  1.1617e+001 49618 85204,85256,85230
 2.0000e-001 85550 -4.3523e+001  1.6317e+001  2.8352e+000 49618 85334,85282,85524
 2.0000e-001 85573 -6.8412e+001  1.7241e+000 -1.4257e+001 49618 85334,85524,85360
 2.0000e-001 85622 -4.6395e+001  3.7924e+001 -4.8730e+000 49618 85360,85524,85596
 2.0000e-001 85645 -5.1152e+001  4.9809e+001 -7.8911e-001 49618 85360,85596,85178
 2.0000e-001 85795 -5.8992e+001 -1.5788e+000  2.7004e+000 49278 85694,85746,85720
 2.0000e-001 85772 -6.4767e+001  1.5819e+001 -1.6114e+000 49278 85668,85746,85694
 2.0000e-001 86197 -5.4897e+001  4.3448e+000 -1.9119e+001 48916 86001,86079,86027
 2.0000e-001 86174 -5.8979e+001 -6.7327e+000 -1.9569e+001 48916 85949,86079,86001
 2.0000e-001 86151 -8.3817e+001 -3.0301e+001 -9.6035e+000 48916 85949,86001,85975
 2.0000e-001 86128 -5.0746e+001  5.8332e+000 -2.3230e+001 48916 86027,86079,86053
 2.0000e-001 86105 -1.7492e+002 -5.2470e+001 -2.8626e+001 48916 85923,86079,85949
 2.0000e-001 86477 -1.6403e+001  3.8285e+000  1.0893e+001 48398 86327,86379,86353
 2.0000e-001 86454 -2.6275e+001 -1.4041e+001  6.9924e+000 48398 86500,86379,86327
 2.0000e-001 86431 -4.2871e+001 -1.5306e+001  7.3821e+000 48398 86301,86405,86379
 2.0000e-001 86526 -8.8936e+000 -7.4903e+000  8.4956e+000 48398 86301,86379,86500
 2.0000e-001 87032 -4.7444e+001 -9.1993e+000  9.4821e-001 48008 87127,87055,86787
 2.0000e-001 87009 -4.5563e+001 -9.7955e+000  4.1332e+000 48008 87055,86735,86709
 2.0000e-001 86986 -3.9383e+001 -1.4237e+001 -4.9853e-001 48008 87127,86787,86761
 2.0000e-001 86963 -4.1316e+001 -2.8974e+000  8.1007e+000 48008 86787,86865,86839
 2.0000e-001 86940 -6.4222e+001 -6.8439e+000  1.9853e+000 48008 86709,86891,86865
 2.0000e-001 86917 -5.0534e+001  1.6789e+000  1.3153e+001 48008 86787,86839,86813
 2.0000e-001 87081 -4.9576e+001 -7.8319e+000  3.7347e+000 48008 86865,86787,87055
 2.0000e-001 87104 -4.3875e+001 -5.5093e+000  3.9958e+000 48008 86865,87055,86709
 2.0000e-001 87153 -3.6842e+001 -5.7632e+000  3.0980e+000 48008 86735,87055,87127
 2.0000e-001 87176 -2.0223e+001 -6.0563e+000 -1.2122e+000 48008 86735,87127,86761
 2.0000e-001 87456 -2.6526e+001 -1.8317e+001  1.3351e+000 47604 87306,87358,87332
 2.0000e-001 87433 -3.0923e+001 -2.1597e+001  3.0749e+000 47604 87306,87384,87358
 2.0000e-001 87410 -2.7565e+001 -2.0237e+001  1.2938e+000 47604 87280,87384,87306
 2.0000e-001 87785 -2.2386e+001 -1.3144e+001  1.3439e-001 47264 87638,87690,87664
 2.0000e-001 87762 -2.0270e+001 -3.1055e+000 -1.9989e+000 47264 87612,87690,87638
 2.0000e-001 87739 -2.4525e+001 -9.1818e+000 -4.2871e+000 47264 87560,87690,87612
 2.0000e-001 87716 -2.0229e+001 -2.3821e+000 -6.3005e+000 47264 87560,87612,87586
 2.0000e-001 87935 -7.0552e+001 -4.3231e+000  2.4651e+000 46952 87808,87860,87834
 2.0000e-001 87912 -2.8177e+001  7.9641e+001 -1.3057e+001 46952 87808,87886,87860
 2.0000e-001 88281 -4.9439e+001 -1.1213e+001 -7.4057e-003 46526 88304,88114,88036
 2.0000e-001 88258 -5.1144e+001 -5.1744e+000  2.3327e+000 46526 88304,88036,87984
 2.0000e-001 88235 -4.3967e+001 -6.4394e+000 -7.2923e+000 46526 88036,88114,88062
 2.0000e-001 88212 -4.8915e+001  1.4856e+000 -6.4677e+000 46526 87958,88140,87984
 2.0000e-001 88189 -3.4498e+001  3.4869e+001 -1.1589e+001 46526 87984,88036,88010
 2.0000e-001 88166 -5.5831e+001 -1.9211e+001 -1.3566e+001 46526 88062,88114,88088
 2.0000e-001 88330 -5.0809e+001 -5.0668e+000 -1.1809e+000 46526 88140,88114,88304
 2.0000e-001 88353 -5.2360e+001  1.1979e+000  2.5480e-001 46526 88140,88304,87984
 2.0000e-001 88701 -1.8502e+001  3.0142e+000 -4.9459e+000 45822 88724,88378,88534
 2.0000e-001 88678 -1.4499e+001  7.7005e-001 -8.2335e+000 45822 88378,88560,88534
 2.0000e-001 88655 -2.5812e+001 -5.1279e+000  3.2274e+000 45822 88724,88534,88508
 2.0000e-001 88632 -2.6063e+001  2.4862e+001 -3.2953e+000 45822 88404,88508,88456
 2.0000e-001 88609 -1.5116e+001  4.3718e+001 -1.4015e+001 45822 88404,88456,88430
 2.0000e-001 88586 -5.8999e+001 -1.2958e+001  1.5396e+001 45822 88456,88508,88482
 2.0000e-001 88750 -2.4516e+001  1.5703e+001 -1.0880e+001 45822 88404,88378,88724
 2.0000e-001 88773 -2.9807e+001  7.4747e+000 -3.4464e+000 45822 88404,88724,88508
 2.0000e-001 89106 -1.1783e+001  1.4663e+001 -6.0168e+000 45418 88881,88985,88907
 2.0000e-001 89083  2.5207e+001  5.5004e+001 -2.1776e+001 45418 88881,89011,88985
 2.0000e-001 89060 -4.5113e+001  6.4764e+000 -7.7840e+000 45418 88907,88985,88933
 2.0000e-001 89037  6.0786e-001 -3.5519e+000  1.3839e+001 45418 88933,88985,88959
 2.0000e-001 89435 -4.5873e+001 -1.2985e+001 -2.5889e+000 44914 89210,89288,89236
 2.0000e-001 89412 -3.4723e+001 -4.1816e+000 -1.0708e+001 44914 89210,89314,89288
 2.0000e-001 89389 -4.7903e+001  2.0178e+001 -2.3440e+001 44914 89210,89340,89314
 2.0000e-001 89366 -6.2050e+001 -1.9763e+001 -1.8924e+000 44914 89236,89288,89262
 2.0000e-001 89634 -2.1992e+001  1.8879e+001 -8.8015e+000 44538 89510,89562,89536
 2.0000e-001 89611 -2.6641e+001 -1.3819e+000 -5.2627e+000 44538 89458,89562,89510
 2.0000e-001 89588 -2.3973e+001 -1.2527e+001 -5.8694e+000 44538 89458,89510,89484
 2.0000e-001 90044 -6.0789e+001 -1.1377e+001  6.6465e+000 44134 89819,89923,89845
 2.0000e-001 90021 -4.5483e+001  1.3997e+001  1.5054e+001 44134 89819,89949,89923
 2.0000e-001 89998 -4.9076e+001 -1.6494e+001  3.6466e-001 44134 89845,89923,89897
 2.0000e-001 89975 -2.6859e+001  3.7099e+001  2.5992e+000 44134 89845,89897,89871
 2.0000e-001 90520 -4.6269e+001 -9.5199e+000 -1.0529e+001 43457 90543,90252,90226
 2.0000e-001 90497 -3.8085e+001  7.5339e+000 -1.1550e+000 43457 90543,90226,90330
 2.0000e-001 90474 -4.8821e+001  2.7342e+000 -6.9482e+000 43457 90200,90330,90226
 2.0000e-001 90451 -2.3419e+001  7.8480e+000 -1.3710e+001 43457 90200,90356,90330
 2.0000e-001 90428 -6.4081e+001 -7.9765e+000  3.7200e+000 43457 90252,90304,90278
 2.0000e-001 90405 -8.6181e+000 -1.4801e+001 -9.0036e+000 43457 90174,90356,90200
 2.0000e-001 90382 -1.3860e+001 -3.2727e-001 -5.5824e+000 43457 90148,90356,90174
 2.0000e-001 90569 -5.7140e+001  9.9864e+000  4.2119e+000 43457 90304,90252,90543
 2.0000e-001 90592 -3.4924e+001  3.8373e+001  1.6973e+001 43457 90304,90543,90330
 2.0000e-001 91098 -1.9663e+001  1.0232e+001 -1.1481e+000 42789 90801,90905,90853
 2.0000e-001 91075 -1.9027e+001  1.9148e+001 -1.4180e+000 42789 90775,90905,90801
 2.0000e-001 91052 -1.9923e+001  4.1623e+001 -1.8174e+001 42789 90775,90931,90905
 2.0000e-001 91029 -4.0786e+000  4.3346e+001  3.1086e+000 42789 90801,90853,90827
 2.0000e-001 91006 -1.6394e+001  1.2051e+001 -3.1241e+000 42789 90853,90905,90879
 2.0000e-001 90983 -3.7057e+001  3.6357e+001 -1.0957e+001 42789 90775,90957,90931
 2.0000e-001 91427 -3.3668e+001  1.4271e+001  2.0054e-001 42227 91228,91280,91254
 2.0000e-001 91404 -4.9405e+001  1.1484e+001  1.2997e+000 42227 91228,91306,91280
 2.0000e-001 91381 -3.5554e+001  1.7796e+001  3.0710e+000 42227 91202,91306,91228
 2.0000e-001 91358 -4.5322e+001  5.1017e-001  6.9840e+000 42227 91202,91332,91306
 2.0000e-001 91675 -1.3886e+001  1.2233e+001 -3.4694e+000 41773 91698,91476,91450
 2.0000e-001 91652 -1.4898e+001  7.5269e+000 -4.8204e-001 41773 91698,91450,91554
 2.0000e-001 91629 -1.3889e+001  5.4569e-001  3.2527e-001 41773 91450,91580,91554
 2.0000e-001 91606 -2.2458e+001  3.5763e+000  2.4035e+000 41773 91502,91554,91528
 2.0000e-001 91724 -1.5443e+001  1.0132e+001 -6.4807e-002 41773 91502,91476,91698
 2.0000e-001 91747 -1.7108e+001  5.0260e+000  3.0301e+000 41773 91502,91698,91554
 2.0000e-001 92127 -9.8944e-001  7.7616e+000 -1.3535e+000 41255 92150,91905,91879
 2.0000e-001 92104 -1.7543e+001  1.3182e+001  5.3377e+000 41255 92150,91879,91957
 2.0000e-001 92081 -1.0443e+001  4.0416e+001 -1.2992e+001 41255 91853,91957,91879
 2.0000e-001 92058 -5.9945e+000  3.9172e+001  2.7050e+001 41255 91853,91983,91957
 2.0000e-001 92035  2.2328e+001  3.3374e+001  2.6404e+001 41255 91853,92009,91983
 2.0000e-001 92176 -1.4365e+001  5.8400e+000  1.7375e-001 41255 91931,91905,92150
 2.0000e-001 92199 -3.6465e+001  6.5006e+000  8.2732e+000 41255 91931,92150,91957
 2.0000e-001 92518 -1.6620e+001  3.9375e+001  1.0814e+001 41007 92244,92374,92270
 2.0000e-001 92495  2.8400e+001  6.9085e+001 -2.0534e+000 41007 92244,92400,92374
 2.0000e-001 92472 -2.4675e+001  2.2128e+001  1.8312e+000 41007 92270,92374,92348
 2.0000e-001 92449 -3.6880e+001  4.0306e+000  1.3634e+001 41007 92296,92348,92322
 2.0000e-001 92426 -2.4167e+001 -9.4702e+000  4.4888e+000 41007 92270,92348,92296
 2.0000e-001 92668 -1.4058e+001  9.3206e+000 -4.1996e+000 40717 92823,92691,92567
 2.0000e-001 92645 -1.1183e+001  2.2832e+001 -1.6645e+000 40717 92895,92823,92567
 2.0000e-001 92717 -2.2638e+001  6.0359e+000 -6.0111e-001 40717 92593,92567,92691
 2.0000e-001 92849 -2.0803e+000  2.1324e+001 -9.2097e+000 40717 92619,92691,92823
 2.0000e-001 92872 -1.8724e+001  2.2303e+001 -1.2864e+000 40717 92619,92823,92541
 2.0000e-001 92921 -2.7969e+001  1.1458e+001  4.5198e+000 40717 92541,92823,92895
 2.0000e-001 93634 -4.2809e+001 -5.7093e+000 -1.1054e+001 40206 93366,93444,93418
 2.0000e-001 93611 -2.7157e+001  6.0029e+000 -2.0844e+000 40206 93288,93444,93366
 2.0000e-001 93588 -3.8730e+001 -1.2184e+001  2.8646e+000 40206 93288,93366,93314
 2.0000e-001 93565 -8.4679e+001 -1.4433e+001  1.2589e+000 40206 93262,93444,93288
 2.0000e-001 93542 -3.9994e+001 -2.3481e+000 -9.3629e+000 40206 93366,93418,93392
 2.0000e-001 93519 -7.3216e+001  4.3664e+001 -1.0633e+001 40206 93262,93470,93444
 2.0000e-001 93496 -3.2295e+001 -8.8125e+000 -8.8384e+000 40206 93314,93366,93340
 2.0000e-001 94189 -4.0187e+001 -1.6853e+001 -7.1942e-001 39802 93843,93999,93973
 2.0000e-001 94166 -5.2447e+001 -2.3142e+001  2.0639e+000 39802 93817,93999,93843
 2.0000e-001 94143 -6.2682e+001 -1.4876e+001  1.0981e+001 39802 93869,93973,93947
 2.0000e-001 94120 -3.7456e+001  3.5578e+000 -3.3490e+000 39802 93843,93973,93869
 2.0000e-001 94097 -4.5278e+001  4.1756e+000 -1.0056e+000 39802 93869,93921,93895
 2.0000e-001 94074 -4.5865e+001  3.2659e+000  3.9936e+000 39802 93869,93947,93921
 2.0000e-001 94051 -3.2000e+001 -1.2951e+001 -5.9240e+000 39802 93817,94025,93999
 2.0000e-001 94290 -6.3311e+001 -1.9126e+001  9.3199e-001 39398 94212,94264,94238
 2.0000e-001 94798 -3.5943e+001 -1.0986e+001  2.5081e+000 38701 94501,94657,94631
 2.0000e-001 94775 -4.4790e+001  6.6762e+000  1.4769e+001 38701 94475,94657,94501
 2.0000e-001 94752 -4.2521e+001  1.7745e+001 -6.7044e+000 38701 94579,94631,94605
 2.0000e-001 94729 -5.1170e+001 -4.8966e+000 -7.4859e+000 38701 94553,94631,94579
 2.0000e-001 94706 -1.7132e+001  1.0019e+001 -5.3788e+000 38701 94501,94631,94553
 2.0000e-001 94683 -9.9120e+000 -9.5278e+000 -5.3837e+000 38701 94501,94553,94527
 2.0000e-001 95255 -1.8420e+001  3.4968e+000  2.8799e+000 38247 95278,95085,95007
 2.0000e-001 95232 -2.9974e+001  3.2906e+000  8.9147e+000 38247 95278,95007,95137
 2.0000e-001 95209 -4.1774e+001  7.8003e+000 -1.3162e-001 38247 94981,95137,95007
 2.0000e-001 95186 -2.0336e+001  1.7723e+001 -5.0763e+000 38247 95007,95059,95033
 2.0000e-001 95163 -3.1853e+001 -4.1554e+000  6.2669e+000 38247 95007,95085,95059
 2.0000e-001 95304 -1.0778e+001  1.2272e+001 -7.7255e+000 38247 95111,95085,95278
 2.0000e-001 95327 -2.3645e+001  5.1439e+000 -1.5904e-001 38247 95111,95278,95137
 2.0000e-001 95575 -7.6844e+001 -1.9622e+001 -1.6028e+000 37564 95376,95428,95402
 2.0000e-001 95552 -6.8171e+001 -2.6311e+001 -4.4891e+000 37564 95376,95454,95428
 2.0000e-001 95529 -6.3239e+001 -2.6348e+001 -7.5355e+000 37564 95376,95480,95454
 2.0000e-001 95506 -5.8372e+001 -1.4809e+001 -3.7626e+000 37564 95350,95480,95376
 2.0000e-001 96034  1.2729e+001  4.7305e-001 -2.8422e+000 37224 95786,95838,95812
 2.0000e-001 96011  1.4193e+001  1.4284e+001 -1.0165e+001 37224 95786,95890,95838
 2.0000e-001 95988  4.9760e+001  3.2996e+001 -2.3041e+001 37224 95786,95916,95890
 2.0000e-001 95965  4.9552e+001  5.3849e+000  1.9708e+001 37224 95760,95916,95786
 2.0000e-001 95942  5.5060e+001  8.1780e+000 -3.3448e+001 37224 95838,95890,95864
 2.0000e-001 96363 -4.7761e+001  4.8520e+000 -1.1774e-001 36884 96216,96268,96242
 2.0000e-001 96340 -3.7519e+001  5.6954e+000  4.4585e-001 36884 96164,96268,96216
 2.0000e-001 96317 -3.4026e+001 -7.1539e-001  7.9660e+000 36884 96138,96268,96164
 2.0000e-001 96294 -2.5312e+001  2.3496e+001 -1.5697e+001 36884 96164,96216,96190
 2.0000e-001 96839 -4.5585e+001  4.0647e+000 -1.3978e+000 36572 96862,96649,96597
 2.0000e-001 96816 -3.5132e+001  1.0461e+001 -5.8084e+000 36572 97006,96862,96597
 2.0000e-001 96793 -3.5537e+001  6.8314e+000 -7.0263e+000 36572 96934,96467,96675
 2.0000e-001 96770 -3.6208e+001  1.4555e+001 -1.0320e+001 36572 97006,96597,96571
 2.0000e-001 96747 -3.2803e+001  2.5168e+001 -1.6360e+001 36572 96467,96519,96493
 2.0000e-001 96724 -4.4086e+001  1.6897e+001 -7.7061e+000 36572 96519,96571,96545
 2.0000e-001 96701 -1.7948e+001  2.9651e+001  2.0988e+001 36572 96597,96649,96623
 2.0000e-001 96888 -2.9738e+001  1.0486e+001 -1.8052e+000 36572 96675,96649,96862
 2.0000e-001 96911 -3.2590e+001  6.0383e+000 -6.3838e+000 36572 96934,96675,96862
 2.0000e-001 96960 -3.7808e+001  6.7205e+000 -6.3377e+000 36572 96519,96467,96934
 2.0000e-001 96983 -3.5958e+001  5.3352e+000 -6.2390e+000 36572 97078,96934,96862
 2.0000e-001 97032 -3.6038e+001  5.2026e+000 -6.3886e+000 36572 97078,96862,97006
 2.0000e-001 97055 -3.9078e+001  6.7172e+000 -1.0629e+001 36572 96519,97006,96571
 2.0000e-001 97104 -3.5968e+001  5.2606e+000 -6.3927e+000 36572 96519,96934,97078
 2.0000e-001 97127 -3.5863e+001  5.2011e+000 -6.5180e+000 36572 96519,97078,97006
 2.0000e-001 97761 -3.3067e+001  6.3273e+000 -3.1707e+000 36118 97784,97493,97415
 2.0000e-001 97738 -3.4265e+001  7.5982e+000 -4.4514e+000 36118 97784,97415,97597
 2.0000e-001 97715 -7.0131e+001  1.4047e+001  2.6129e+001 36118 97389,97597,97415
 2.0000e-001 97692 -4.4228e+001 -1.2766e+001  1.3376e+001 36118 97415,97467,97441
 2.0000e-001 97669 -5.0768e+001 -1.0942e+001  6.5451e+000 36118 97415,97493,97467
 2.0000e-001 97646 -4.3494e+001 -2.3685e+001 -1.7189e+001 36118 97493,97571,97519
 2.0000e-001 97623 -1.4636e+001  2.8471e+001 -4.8416e+000 36118 97519,97571,97545
 2.0000e-001 97810 -3.3710e+001  4.8692e+000 -3.3611e+000 36118 97571,97493,97784
 2.0000e-001 97833 -3.5287e+001  5.6182e+000 -4.9489e+000 36118 97571,97784,97597
 2.0000e-001 98081 -1.2400e+001  1.1201e+001  9.0160e+000 35564 98104,97908,97856
 2.0000e-001 98058 -2.0488e+001  4.1608e+000  1.3347e+001 35564 98104,97856,97986
 2.0000e-001 98035 -2.4161e+001 -3.7513e+000  2.3578e+001 35564 97934,97986,97960
 2.0000e-001 98012 -5.7490e+000  3.1134e+001 -8.9537e-001 35564 97856,97908,97882
 2.0000e-001 98130 -2.2696e+001  3.8604e+001  7.9008e+000 35564 97934,97908,98104
 2.0000e-001 98153 -3.4096e+001  1.5278e+001  1.7350e+001 35564 97934,98104,97986
 2.0000e-001 98374 -2.1830e+001  2.7723e+001 -6.4332e-001 35152 98224,98302,98276
 2.0000e-001 98351 -1.9492e+001  3.4075e+001 -1.7044e+000 35152 98198,98302,98224
 2.0000e-001 98328 -1.5581e+001  2.9975e+001 -1.9223e+000 35152 98224,98276,98250
 2.0000e-001 98884 -1.5382e+001  1.4128e+001  4.0070e+000 34698 98691,98743,98717
 2.0000e-001 98861 -1.7129e+001  1.1700e+001  1.6652e+000 34698 98561,98743,98691
 2.0000e-001 98838 -1.7079e+001  9.1037e+000  2.7773e+000 34698 98907,98587,98561
 2.0000e-001 98815 -1.1912e+001  1.8475e+001 -6.5321e-001 34698 98907,98561,98691
 2.0000e-001 98792 -2.3849e+000  3.7792e+001 -4.9073e+000 34698 98587,98639,98613
 2.0000e-001 98769 -1.3870e+001  7.9731e+000 -5.1079e+000 34698 98587,98665,98639
 2.0000e-001 98933 -1.6218e+001  1.3731e+001 -6.4096e+000 34698 98665,98587,98907
 2.0000e-001 98956 -8.3913e+000  2.8245e+001 -1.0216e+001 34698 98665,98907,98691
 2.0000e-001 99204 -3.3599e+001  1.7966e+001 -3.8131e+000 34144 99227,99031,99005
 2.0000e-001 99181 -4.0691e+001  8.7218e+000  2.9841e+000 34144 99299,99227,99005
 2.0000e-001 99158 -4.3449e+001  8.7782e+000  4.7786e+000 34144 99299,99005,99109
 2.0000e-001 99135 -4.5161e+001  1.1743e+001  5.5861e+000 34144 98979,99109,99005
 2.0000e-001 99253 -3.6791e+001  3.1007e+001 -9.4321e+000 34144 99057,99031,99227
 2.0000e-001 99276 -3.5880e+001  1.9501e+001 -3.8923e+000 34144 99057,99227,99083
 2.0000e-001 99325 -3.5831e+001  1.2704e+001 -5.3774e+000 34144 99083,99227,99299
 2.0000e-001 99348 -4.6425e+001  9.3283e+000 -3.8036e+000 34144 99083,99299,99109
 2.0000e-001 99498 -5.9424e+001  1.5853e+001  4.1497e+000 33433 99397,99449,99423
 2.0000e-001 99475 -6.3932e+001  4.9828e+001 -4.1731e+000 33433 99371,99449,99397
 2.0000e-001 100008 -1.9218e+001  2.7263e+001  1.2111e+000 32979 100103,100031,99815
 2.0000e-001 99985 -2.7168e+001  3.6627e+001 -2.3462e+000 32979 100175,100031,99763
 2.0000e-001 99962 -1.6232e+001  2.6375e+001 -8.8840e-002 32979 100103,99815,99789
 2.0000e-001 99939 -2.2760e+001  4.7898e+001 -3.2851e+000 32979 100175,99763,99737
 2.0000e-001 99916 -1.5824e+001  4.0938e+001 -3.4893e+000 32979 99685,99867,99737
 2.0000e-001 99893 -7.1283e+000  5.2812e+001 -8.3591e+000 32979 99685,99737,99711
 2.0000e-001 100057 -1.3307e+001  3.0141e+001  7.7756e-002 32979 99841,99815,100031
 2.0000e-001 100080 -1.9098e+001  2.3079e+001 -6.6139e+000 32979 99841,100031,99867
 2.0000e-001 100129 -2.3796e+001  2.6217e+001  2.9707e+000 32979 99763,100031,100103
 2.0000e-001 100152 -1.9707e+001  2.5574e+001  2.0498e+000 32979 99763,100103,99789
 2.0000e-001 100201 -2.2432e+001  3.2422e+001 -8.0186e+000 32979 99867,100031,100175
 2.0000e-001 100224 -2.0848e+001  3.7539e+001 -7.0882e+000 32979 99867,100175,99737
 2.0000e-001 100553  3.9972e+001  2.6437e+001  1.0213e+001 32503 100354,100406,100380
 2.0000e-001 100530  2.3882e+001  6.4421e+001 -2.6252e+001 32503 100328,100406,100354
 2.0000e-001 100507  1.3572e+001  7.0010e+001 -4.2117e+000 32503 100328,100458,100406
 2.0000e-001 100484  5.9843e+001  6.3056e+001  1.7450e+001 32503 100406,100458,100432
 2.0000e-001 100850 -1.9570e+001  2.7713e+001  2.6976e-001 31899 100873,100654,100628
 2.0000e-001 100827 -1.9473e+001  2.4052e+001 -2.7436e+000 31899 100945,100873,100628
 2.0000e-001 100804 -1.6398e+001  2.5203e+001 -1.4570e+000 31899 100945,100628,100602
 2.0000e-001 100781 -3.0202e+001  3.8064e+001  9.8406e+000 31899 100576,100732,100602
 2.0000e-001 100758  2.8053e+000  3.1323e-002 -1.5450e+000 31899 100654,100706,100680
 2.0000e-001 100899  6.5399e+000  2.3805e+001 -6.5844e+000 31899 100706,100654,100873
 2.0000e-001 100922 -3.1295e+001  1.5921e+001 -1.4105e+001 31899 100706,100873,100732
 2.0000e-001 100971 -2.5882e+001  2.7118e+001 -3.8122e+000 31899 100732,100873,100945
 2.0000e-001 100994 -2.2246e+001  2.8826e+001 -2.3763e+000 31899 100732,100945,100602
 2.0000e-001 101551 -4.8198e+001  1.2182e+001  3.5517e+000 31338 101205,101387,101231
 2.0000e-001 101528 -4.8955e+001  9.5637e+000 -2.1063e+001 31338 101179,101387,101205
 2.0000e-001 101505 -2.5662e+001 -8.2943e+000 -1.5971e+000 31338 101574,101309,101257
 2.0000e-001 101482 -1.7839e+001 -2.5430e+000  9.4263e-001 31338 101646,101574,101257
 2.0000e-001 101459 -9.1314e+000  2.6568e+000  8.3198e+000 31338 101646,101257,101231
 2.0000e-001 101436 -2.0253e+001 -2.2179e+000 -6.8676e+000 31338 101309,101361,101335
 2.0000e-001 101413 -1.7737e+001 -3.6433e+000 -4.0077e+000 31338 101257,101309,101283
 2.0000e-001 101600 -1.8955e+001 -5.0032e+000 -5.0605e+000 31338 101361,101309,101574
 2.0000e-001 101623 -3.1900e+001 -1.4870e+001 -1.0365e+001 31338 101361,101574,101387
 2.0000e-001 101672 -2.9957e+001 -3.7401e+000 -3.9648e+000 31338 101387,101574,101646
 2.0000e-001 101695 -2.2170e+001 -3.6658e+000  1.6356e+000 31338 101387,101646,101231
 2.0000e-001 101943 -5.0536e+001  1.0987e+001  1.5331e+000 30748 101966,101796,101744
 2.0000e-001 101920 -5.3713e+001  1.5378e+001  2.2183e+000 30748 101966,101744,101718
 2.0000e-001 101897 -5.1457e+001  1.9402e+001 -5.7349e+000 30748 101718,101848,101822
 2.0000e-001 101874 -3.6475e+001  1.5003e+001  2.3868e+000 30748 101744,101796,101770
 2.0000e-001 101992 -4.9616e+001  1.4000e+001  1.0858e+000 30748 101822,101796,101966
 2.0000e-001 102015 -5.1988e+001  1.9128e+001  1.1814e+000 30748 101822,101966,101718
 2.0000e-001 102493 -3.8709e+001  1.0254e+001  1.0795e+001 30344 102516,102173,102147
 2.0000e-001 102470 -2.2370e+001  2.0986e+001 -3.8150e+000 30344 102660,102516,102147
 2.0000e-001 102447 -6.5093e+000  2.2613e+001 -1.7792e+000 30344 102588,102199,102173
 2.0000e-001 102424 -2.8632e+001  2.5401e+001 -4.2172e+000 30344 102660,102147,102329
 2.0000e-001 102401 -3.7549e+001  1.7699e+001 -2.4974e+000 30344 102199,102277,102251
 2.0000e-001 102378 -5.8694e+000  3.7840e+001 -1.1224e+001 30344 102199,102251,102225
 2.0000e-001 102355 -3.0256e+001  2.5791e+001  1.9886e+000 30344 102121,102329,102147
 2.0000e-001 102542 -1.5646e+001  2.0866e+001 -4.5662e-001 30344 102588,102173,102516
 2.0000e-001 102565 -5.4810e+000  2.9491e+001 -1.4651e+001 30344 102277,102516,102303
 2.0000e-001 102614 -1.8019e+001  2.5787e+001 -2.4936e+000 30344 102277,102199,102588
 2.0000e-001 102637 -2.6965e+001  2.4068e+001 -2.9459e+000 30344 102277,102588,102516
 2.0000e-001 102686 -2.8912e+001  1.5879e+001 -6.5927e+000 30344 102303,102516,102660
 2.0000e-001 102709 -3.3470e+001  2.1480e+001 -6.7898e+000 30344 102303,102660,102329
 2.0000e-001 103294 -8.7575e+000  3.3194e+001  1.7498e+000 29726 103317,103101,103075
 2.0000e-001 103271 -8.9599e+000  1.8727e+001  1.8853e+000 29726 103317,103075,102997
 2.0000e-001 103248 -4.1660e+000  3.5176e+001  4.2338e+001 29726 102971,103153,102997
 2.0000e-001 103225  1.1257e+001  7.2875e+001  4.5713e+000 29726 103101,103153,103127
 2.0000e-001 103202 -1.4514e+001  2.4386e+001  7.2205e+000 29726 102997,103075,103023
 2.0000e-001 103179  1.0942e+001  2.8665e+001  1.0200e+001 29726 103023,103075,103049
 2.0000e-001 103343 -1.0528e+001  2.1644e+001  4.3308e+000 29726 103153,103101,103317
 2.0000e-001 103366 -6.9023e+000  1.2708e+001  5.1166e+000 29726 103153,103317,102997
 2.0000e-001 103614 -1.9741e+001  1.4949e+001 -5.6569e+000 29200 103781,103637,103467
 2.0000e-001 103591 -2.2669e+001  1.2972e+001 -1.0988e+001 29200 103709,103637,103415
 2.0000e-001 103568 -1.9866e+001  1.9098e+001 -1.0078e+001 29200 103709,103415,103389
 2.0000e-001 103545 -2.0136e+001  1.3845e+001 -4.8939e+000 29200 103781,103467,103441
 2.0000e-001 103663  1.3538e+001  1.9495e+001 -1.5164e+001 29200 103853,103637,103493
 2.0000e-001 103686 -3.5899e+001 -1.6689e+001 -3.4246e+001 29200 103493,103637,103519
 2.0000e-001 103735 -2.6472e+001  1.9890e+001 -1.4551e+001 29200 103519,103637,103709
 2.0000e-001 103758 -2.4774e+001  2.4105e+001 -1.3913e+001 29200 103519,103709,103389
 2.0000e-001 103807 -2.0287e+001  1.8214e+001 -7.8497e+000 29200 103415,103637,103781
 2.0000e-001 103830 -2.2722e+001  1.6462e+001 -6.5696e+000 29200 103415,103781,103441
 2.0000e-001 103879 -1.4022e+001  3.5572e+000 -7.5369e+000 29200 103467,103637,103853
 2.0000e-001 104545 -6.7349e+001 -1.1291e+000  4.6337e+000 28860 104274,104352,104326
 2.0000e-001 104522 -5.2623e+001 -1.0045e+001 -3.0757e+000 28860 104248,104352,104274
 2.0000e-001 104499 -2.8882e+001 -2.6689e-003 -4.3424e+000 28860 104248,104404,104352
 2.0000e-001 104476 -6.2914e+001 -2.9125e+001 -1.6731e+001 28860 104222,104404,104248
 2.0000e-001 104453 -3.9548e+001 -1.8232e+001  4.3495e-002 28860 104352,104404,104378
 2.0000e-001 104430 -1.0260e+002 -1.5001e+001  7.2278e+000 28860 104274,104326,104300
 2.0000e-001 104744 -1.9302e+001  1.5454e+000 -8.0650e-001 28456 104839,104767,104646
 2.0000e-001 104721 -8.8820e+000 -1.4167e+000  3.3303e+000 28456 104767,104594,104568
 2.0000e-001 104698 -1.5291e+001 -3.2879e+000 -4.7648e+000 28456 104839,104646,104620
 2.0000e-001 104793 -3.2236e+001 -3.4672e+000 -8.7033e-002 28456 104672,104646,104767
 2.0000e-001 104816 -1.3010e+001 -2.1513e+000  7.3559e-001 28456 104911,104767,104568
 2.0000e-001 104865 -2.1863e+001 -2.6007e+000  4.5881e-001 28456 104594,104767,104839
 2.0000e-001 104888 -2.0494e+001 -1.2962e+001 -2.7278e+000 28456 105041,104839,104620
 2.0000e-001 104937 -2.3970e+001 -1.4679e+001  7.1303e+000 28456 104672,104767,104911
 2.0000e-001 105067 -1.6267e+001  4.1454e-001 -1.4691e+000 28456 104594,104839,105041
 2.0000e-001 105573 -5.0874e+001 -9.3982e+000  4.3454e+000 28094 105812,105596,105328
 2.0000e-001 105550 -4.3973e+001 -1.4301e+001  6.8853e-001 28094 105596,105276,105250
 2.0000e-001 105527 -5.1853e+001 -1.5539e+001  6.6742e+000 28094 105740,105668,105432
 2.0000e-001 105504 -4.6908e+001 -1.3944e+001  1.8916e+000 28094 105740,105432,105380
 2.0000e-001 105481 -5.0014e+001 -9.9974e+000  4.8166e+000 28094 105812,105328,105302
 2.0000e-001 105458 -2.5177e+001 -1.7568e+001 -3.7696e-001 28094 105380,105432,105406
 2.0000e-001 105622 -6.1971e+001 -1.8314e+001  9.4252e+000 28094 105354,105328,105596
 2.0000e-001 105645 -4.9644e+001 -1.2262e+001  3.6669e+000 28094 105668,105354,105596
 2.0000e-001 105694 -5.2651e+001 -2.5791e+001  1.0612e+001 28094 105250,105432,105668
 2.0000e-001 105717 -5.0147e+001 -1.7557e+001  3.6385e+000 28094 105250,105668,105596
 2.0000e-001 105766 -4.1708e+001 -1.3906e+001  1.9193e+000 28094 105354,105668,105740
 2.0000e-001 105789 -3.7999e+001 -1.1251e+001 -3.3748e+000 28094 105354,105740,105380
 2.0000e-001 105838 -4.8145e+001 -1.2428e+001  4.9461e+000 28094 105276,105596,105812
 2.0000e-001 105861 -3.5797e+001 -6.2159e+000  2.8021e+000 28094 105276,105812,105302
 2.0000e-001 106367  1.7044e+000 -2.6881e-001  1.3593e+000 27390 106070,106122,106096
 2.0000e-001 106344  2.2960e+000 -2.1339e+000  1.3070e+000 27390 106070,106226,106122
 2.0000e-001 106321 -1.5962e+001  9.4048e+000 -6.8354e+000 27390 106174,106226,106200
 2.0000e-001 106298 -3.5931e+000  5.7347e+000 -9.9209e+000 27390 106122,106226,106174
 2.0000e-001 106275 -1.5712e+001 -1.6140e+000 -2.7995e+001 27390 106122,106174,106148
 2.0000e-001 106252  2.5069e+000 -2.6592e+000 -5.8218e-001 27390 106044,106226,106070
 2.0000e-001 106615 -1.4445e+001  2.2217e+000 -4.6774e+000 26978 106638,106494,106416
 2.0000e-001 106592 -1.5201e+001 -2.0827e+000 -5.8309e+000 26978 106638,106416,106390
 2.0000e-001 106569 -7.6833e+000  5.4406e+000 -3.5960e+000 26978 106416,106494,106442
 2.0000e-001 106546 -2.2460e+001  1.5438e+000 -3.7843e+000 26978 106442,106494,106468
 2.0000e-001 106664 -1.0034e+001 -2.4998e+000 -2.7965e+000 26978 106520,106494,106638
 2.0000e-001 106687 -1.2240e+001 -7.5429e+000 -5.4083e+000 26978 106520,106638,106390
 2.0000e-001 106837 -7.7419e+001 -3.6406e+001 -8.3154e-001 26524 106710,106762,106736
 2.0000e-001 106814 -8.1029e+001 -3.7325e+001  7.6788e-001 26524 106710,106788,106762
 2.0000e-001 107426 -5.4577e+000  1.0546e+001 -9.7146e+000 26120 107129,107207,107155
 2.0000e-001 107403 -1.8334e+001 -9.1664e+000 -4.0915e+000 26120 107129,107285,107207
 2.0000e-001 107380 -1.5344e+001 -9.0736e-001 -4.4216e+000 26120 107207,107285,107259
 2.0000e-001 107357 -2.2588e+001 -2.3113e+000  1.1112e+000 26120 107155,107207,107181
 2.0000e-001 107334 -2.2036e+001 -1.0778e+001 -4.3298e+000 26120 107103,107285,107129
 2.0000e-001 107311 -1.2357e+001  2.0183e+000 -3.2164e+000 26120 107207,107259,107233
 2.0000e-001 107755 -2.7074e+001 -1.8883e+000 -4.6750e+000 25758 107556,107634,107608
 2.0000e-001 107732 -4.5230e+001 -1.7539e+001  2.0512e+000 25758 107556,107660,107634
 2.0000e-001 107709 -2.0424e+001 -9.0303e+000  2.9304e+000 25758 107556,107608,107582
 2.0000e-001 107686 -4.0847e+001 -1.8480e+000  7.1658e+000 25758 107530,107660,107556
 2.0000e-001 108438 -1.5976e+001 -6.5053e+000  1.0813e+000 25468 108121,108199,108173
 2.0000e-001 108415 -1.6695e+001 -1.0164e+001 -1.3880e+000 25468 108095,108199,108121
 2.0000e-001 108392 -1.9969e+001 -9.1426e+000 -2.5867e+000 25468 108095,108251,108199
 2.0000e-001 108369 -2.0038e+001 -1.6411e+000 -8.3502e-001 25468 108069,108251,108095
 2.0000e-001 108346 -1.5292e+001 -7.6703e+000 -7.9603e-002 25468 108199,108251,108225
 2.0000e-001 108323 -2.4602e+001 -2.5628e+000 -3.5818e+000 25468 108017,108251,108069
 2.0000e-001 108300 -1.6311e+001 -5.1261e+000  6.8586e-001 25468 108121,108173,108147
 2.0000e-001 108277 -1.8357e+001 -7.1215e-001 -8.5088e+000 25468 108017,108069,108043
 2.0000e-001 108588 -9.6159e+000  5.2488e+001  5.7057e+000 25064 108611,108513,108487
 2.0000e-001 108565  7.1316e+000  3.8521e+001 -6.4924e+000 25064 108683,108611,108487
 2.0000e-001 108637 -4.4191e+000  3.0186e+001 -5.1650e-001 25064 108539,108513,108611
 2.0000e-001 108660 -2.9758e+001  1.0648e+001 -1.0152e+001 25064 108539,108611,108461
 2.0000e-001 108709 -2.7604e+001  6.1449e-001  1.0270e+001 25064 108461,108611,108683
 2.0000e-001 109345 -2.7233e+001 -8.3169e-001  2.9054e+000 24410 108999,109155,109103
 2.0000e-001 109322 -5.4257e+001 -1.1718e+001  2.5590e+000 24410 108973,109155,108999
 2.0000e-001 109299 -2.9273e+001 -1.6210e+001  1.2968e+000 24410 109103,109155,109129
 2.0000e-001 109276 -2.7238e+001  2.0171e+001 -1.0870e+001 24410 108973,109181,109155
 2.0000e-001 109253 -4.6114e+001 -1.1198e+001  1.5065e+001 24410 109025,109103,109077
 2.0000e-001 109230 -3.0393e+001 -1.0731e+001  6.1540e+000 24410 108999,109103,109025
 2.0000e-001 109207 -2.8552e+001  4.5070e+000  8.4528e+000 24410 109025,109077,109051
 2.0000e-001 109723 -6.0331e+000  4.6241e+001 -1.4945e+001 23856 109475,109579,109553
 2.0000e-001 109700 -2.3006e+001  9.4808e+000 -8.6609e+000 23856 109475,109605,109579
 2.0000e-001 109677 -2.5291e+001  2.7178e+000 -1.8861e+001 23856 109475,109553,109527
 2.0000e-001 109654 -1.0416e+001  1.4810e+001 -4.1636e+000 23856 109449,109605,109475
 2.0000e-001 109631 -1.8511e+001  8.9835e+000 -1.6097e+001 23856 109475,109527,109501
 2.0000e-001 110101 -3.5529e+001  1.1516e+001  1.7007e+001 23566 109853,109931,109879
 2.0000e-001 110078 -3.2862e+001  6.1230e-001  3.3180e+000 23566 109827,109931,109853
 2.0000e-001 110055 -2.1217e+001  1.2262e+001 -1.3420e+000 23566 109827,109983,109931
 2.0000e-001 110032 -3.4814e+001  3.3367e+000  1.0011e+001 23566 109879,109931,109905
 2.0000e-001 110009 -1.8733e+001  7.7027e+000  8.1192e+000 23566 109931,109983,109957
 2.0000e-001 110735  1.2274e+001  4.4696e+001 -1.5385e+001 23162 110415,110571,110519
 2.0000e-001 110712  1.9238e+001  8.4362e+000 -1.5278e+001 23162 110389,110571,110415
 2.0000e-001 110689 -9.9249e+000  3.8839e+001 -1.3967e+000 23162 110415,110519,110493
 2.0000e-001 110666 -1.4645e+000  8.1588e+000 -2.4181e+000 23162 110363,110571,110389
 2.0000e-001 110643  2.3533e+000  4.3278e+001  1.0089e+001 23162 110441,110493,110467
 2.0000e-001 110620  1.9514e+000  3.5308e+001 -5.6860e-001 23162 110415,110493,110441
 2.0000e-001 110597  1.6496e+001  4.0901e+001 -1.8018e+001 23162 110519,110571,110545
 2.0000e-001 111211 -3.5371e+001  2.8440e+000 -3.8898e+000 22708 111378,111306,111021
 2.0000e-001 111188 -4.2129e+001  3.5889e+000 -6.3784e+000 22708 111234,110969,110917
 2.0000e-001 111165 -3.0172e+001  2.2279e+000 -4.6421e+000 22708 111450,111234,110917
 2.0000e-001 111142 -3.1455e+001  8.9509e+000  7.5716e-001 22708 111378,111021,110995
 2.0000e-001 111119 -3.0050e+001 -2.3424e+000  1.9808e-001 22708 111450,110917,110865
 2.0000e-001 111096 -7.7027e+001  1.5761e+001 -1.6190e+001 22708 110917,110969,110943
 2.0000e-001 111073 -2.7230e+001 -6.1756e+000 -3.6490e+000 22708 110865,110917,110891
 2.0000e-001 111260 -4.3371e+001  7.7468e+000 -3.5858e+000 22708 111306,110969,111234
 2.0000e-001 111283 -3.9622e+001 -4.3240e+000  3.4519e+000 22708 111047,111234,110839
 2.0000e-001 111332 -6.6680e+001  2.4109e+001 -2.5962e+001 22708 111047,111021,111306
 2.0000e-001 111355 -4.9286e+001  3.9376e+000  4.0277e+000 22708 111047,111306,111234
 2.0000e-001 111404 -4.2039e+001  1.1557e+001 -4.0538e+000 22708 110969,111306,111378
 2.0000e-001 111427 -4.0720e+001  9.1916e+000 -2.7236e+000 22708 110969,111378,110995
 2.0000e-001 111476 -3.4803e+001 -4.5318e+000  6.1796e-001 22708 110839,111234,111450
 2.0000e-001 111499 -3.7208e+001 -1.1739e+001  5.8608e+000 22708 110839,111450,110865
 2.0000e-001 111600 -1.9809e+001  1.8903e+001  4.3927e+000 22460 111522,111574,111548
 2.0000e-001 112059 -6.4359e+000  2.5780e+001 -4.4506e+000 22056 111811,111889,111863
 2.0000e-001 112036 -7.4892e+000  2.9645e+001 -5.6917e+000 22056 111811,111915,111889
 2.0000e-001 112013 -2.6785e+001  1.6855e+001 -1.2598e+001 22056 111785,111915,111811
 2.0000e-001 111990 -1.4136e+001  1.7975e+001 -9.6932e+000 22056 111785,111941,111915
 2.0000e-001 111967  9.8265e+000  4.8331e+001 -1.1773e+001 22056 111811,111863,111837
 2.0000e-001 112486  1.6627e+000  5.5344e+001 -3.6778e+000 21594 112509,112267,112215
 2.0000e-001 112463 -1.1301e+001  4.9685e+001 -2.8553e+000 21594 112509,112215,112163
 2.0000e-001 112440  4.8468e+000  3.5006e+001  2.8724e+000 21594 112581,112293,112267
 2.0000e-001 112417  3.1229e+000  3.1772e+001 -1.5776e+000 21594 112215,112267,112241
 2.0000e-001 112394 -1.7260e+001  2.5653e+001  7.6054e+000 21594 112163,112345,112319
 2.0000e-001 112371 -1.5700e+001  3.3477e+001 -1.9166e+000 21594 112163,112215,112189
 2.0000e-001 112535 -3.0458e+000  4.3429e+001 -4.5123e+000 21594 112581,112267,112509
 2.0000e-001 112558 -1.3311e+000  5.5678e+001 -8.3006e+000 21594 112319,112509,112163
 2.0000e-001 112607  1.6550e+001  4.2954e+001 -1.9428e+000 21594 112319,112293,112581
 2.0000e-001 112630  1.0385e+001  5.5847e+001 -1.0009e+001 21594 112319,112581,112509
 2.0000e-001 112900 -4.2161e+001  3.5211e+000 -1.2961e+000 20974 112675,112779,112701
 2.0000e-001 112877 -4.2730e+001  9.1180e+000 -4.3538e+000 20974 112675,112805,112779
 2.0000e-001 112854 -4.9554e+001 -9.4887e+000 -5.5368e+000 20974 112701,112779,112753
 2.0000e-001 112831 -6.5238e+001 -3.9580e+001  1.1335e+001 20974 112701,112753,112727
 2.0000e-001 113359 -1.0878e+001  4.5431e+001  2.6196e+001 20520 113454,113137,113111
 2.0000e-001 113336 -2.9209e+001  1.6232e+001  1.0185e+001 20520 113454,113111,113085
 2.0000e-001 113313 -1.2139e+001  1.1442e+001  2.2022e+001 20520 113382,113163,113137
 2.0000e-001 113290 -2.2926e+001  5.8115e-001  1.7186e+001 20520 113526,113382,113137
 2.0000e-001 113267 -1.0316e+001  5.4398e+000  5.6121e+000 20520 113189,113241,113215
 2.0000e-001 113408 -1.6148e+001  4.5203e+000  1.6232e+001 20520 113189,113163,113382
 2.0000e-001 113431 -1.9461e+001 -7.9081e-001  8.5351e+000 20520 113189,113382,113241
 2.0000e-001 113480 -2.8193e+001  9.6853e+000  1.3739e+001 20520 113526,113137,113454
 2.0000e-001 113503 -2.2986e+001  2.0658e+000  1.2548e+000 20520 113241,113454,113085
 2.0000e-001 113552 -1.2515e+001  1.3763e+001  1.1963e+001 20520 113241,113382,113526
 2.0000e-001 113575 -1.7679e+001  2.1199e+001  8.2739e+000 20520 113241,113526,113454
 2.0000e-001 113904 -6.6442e+000  2.0720e+001 -1.4404e+001 19858 113705,113783,113757
 2.0000e-001 113881  1.0146e+001  2.2659e+001 -2.0496e+001 19858 113705,113809,113783
 2.0000e-001 113858 -7.2121e+000  1.5032e+001 -1.9343e+001 19858 113679,113809,113705
 2.0000e-001 113835  3.6291e+000  2.9107e+001 -3.8028e+001 19858 113705,113757,113731
 2.0000e-001 114152 -3.6012e+001 -9.9206e+000 -9.6652e+000 19454 114175,114005,113979
 2.0000e-001 114129 -3.8117e+001 -1.0319e+001 -1.0430e+001 19454 114175,113979,114057
 2.0000e-001 114106 -3.1085e+001  9.8067e+000 -4.7958e+000 19454 113927,114057,113979
 2.0000e-001 114083 -2.9408e+001  1.5971e+001 -4.5755e+000 19454 113927,113979,113953
 2.0000e-001 114201  1.3706e+001  1.1407e+001  1.7211e+000 19454 114031,114005,114175
 2.0000e-001 114224 -3.6488e+001 -1.4096e+001 -9.8928e+000 19454 114031,114175,114057
 2.0000e-001 114472 -2.7346e+001  2.4320e+001  3.3072e+000 19000 114495,114273,114247
 2.0000e-001 114449 -2.6276e+001  2.5922e+001  3.7765e+000 19000 114495,114247,114325
 2.0000e-001 114426 -3.9911e+001  8.0074e+000  1.1073e+001 19000 114247,114377,114325
 2.0000e-001 114403 -2.5633e+001  3.1081e+001  2.5555e+001 19000 114325,114377,114351
 2.0000e-001 114521 -3.0963e+001  2.3314e+001  6.6779e-001 19000 114299,114273,114495
 2.0000e-001 114544 -2.7348e+001  2.8095e+001  2.3413e+000 19000 114299,114495,114325
 2.0000e-001 114948 -5.3250e+001 -1.0339e+001 -5.9256e+000 18560 114674,114726,114700
 2.0000e-001 114925 -5.7660e+001 -2.1954e+001 -3.8251e+000 18560 114674,114830,114726
 2.0000e-001 114902 -6.0306e+001 -2.9205e+001 -9.0240e+000 18560 114726,114830,114804
 2.0000e-001 114879 -4.1451e+001 -1.6381e+001 -2.0807e+000 18560 114726,114804,114752
 2.0000e-001 114856 -5.0053e+001 -2.3031e+001  1.2021e+000 18560 114752,114804,114778
 2.0000e-001 115098  5.3632e+000  3.7364e+001 -5.3586e+000 18156 114971,115023,114997
 2.0000e-001 115075 -2.0335e+000  4.0709e+001 -2.3963e+000 18156 114971,115049,115023
 2.0000e-001 115248 -3.8172e+001  2.5859e+001 -2.1648e+000 17602 115147,115199,115173
 2.0000e-001 115225 -4.8983e+000  3.2219e+001  8.8679e-001 17602 115121,115199,115147
 2.0000e-001 115652 -7.2633e+000  1.7147e+001 -9.1010e-001 17354 115430,115534,115508
 2.0000e-001 115629  1.9178e-001  2.8014e+001 -4.3510e+000 17354 115404,115534,115430
 2.0000e-001 115606  6.9580e+000  3.8740e+001  9.2232e-001 17354 115378,115534,115404
 2.0000e-001 115583 -2.5414e+001  2.5576e+001  2.3286e+000 17354 115456,115508,115482
 2.0000e-001 115560 -4.6893e+000  2.4327e+001 -1.7280e+000 17354 115430,115508,115456
 2.0000e-001 115873 -4.2180e+001  1.3044e+001  3.8369e+000 16950 115749,115801,115775
 2.0000e-001 115850 -3.4986e+001  2.1185e+001  7.3535e+000 16950 115697,115801,115749
 2.0000e-001 115827 -4.2639e+001  5.5010e+000  4.8515e+000 16950 115697,115749,115723
 2.0000e-001 116023  3.1998e+000  7.9788e+001  6.9073e+000 16496 115922,115974,115948
 2.0000e-001 116000  3.4773e+000  6.6216e+001  1.8421e+000 16496 115896,115974,115922
 2.0000e-001 116126 -1.2110e+001  5.6011e+001 -2.6109e+000 16298 116048,116100,116074
 2.0000e-001 116278 -6.3418e+001  1.9365e+001  3.1005e+000 15892 116151,116203,116177
 2.0000e-001 116255 -3.5015e+001  6.5473e+001 -1.1573e+001 15892 116151,116229,116203
 2.0000e-001 116430 -7.5978e+000  2.4540e+001  7.4015e-001 15545 116303,116355,116329
 2.0000e-001 116407  3.9164e+000  5.9704e+001  1.7508e+001 15545 116303,116381,116355
 2.0000e-001 116785 -4.9564e-001  1.2512e+001  5.5923e+000 421 116612,116690,116664
 2.0000e-001 116762 -6.0062e-001  1.2263e+001  5.4793e+000 421 116560,116690,116612
 2.0000e-001 116739  9.9759e+000  1.7608e+001  3.3479e+000 421 116560,116612,116586
 2.0000e-001 116716  8.1884e+000  3.6247e+001  1.0759e+001 421 116612,116664,116638
 3.0000e-001 68048 -1.3546e+002  8.8685e+000  3.5614e+000 67642 67898,67950,67924
 3.0000e-001 68025 -1.4797e+002 -2.6760e+001  5.3176e+000 67642 67898,67976,67950
 3.0000e-001 68002 -1.1952e+002 -1.0258e+001 -5.9785e+000 67642 67872,67976,67898
 3.0000e-001 68367 -8.4126e+001 -1.3494e+001  1.7399e+000 67444 68119,68223,68197
 3.0000e-001 68344 -8.1157e+001 -1.1653e+001  1.4022e-002 67444 68119,68249,68223
 3.0000e-001 68321 -5.7874e+001  1.9350e+000 -7.7989e+000 67444 68093,68249,68119
 3.0000e-001 68298 -8.8166e+001 -2.1502e+001 -1.3934e+000 67444 68119,68197,68171
 3.0000e-001 68275 -6.8892e+001  2.1302e+001  2.1813e+001 67444 68119,68171,68145
 3.0000e-001 68468 -9.3488e+001 -2.2749e+000 -1.0689e+001 67268 68390,68442,68416
 3.0000e-001 68765 -8.1308e+001  5.6618e+000 -3.7972e+000 66956 68788,68517,68491
 3.0000e-001 68742 -7.9087e+001 -2.1392e+000 -5.0517e+000 66956 68788,68491,68621
 3.0000e-001 68719 -9.9401e+001 -5.0045e+000 -3.4241e+001 66956 68543,68621,68569
 3.0000e-001 68696 -7.0262e+001  2.0532e+001 -4.4517e+000 66956 68491,68647,68621
 3.0000e-001 68673 -1.6402e+002 -3.9907e+001 -5.5187e+001 66956 68569,68621,68595
 3.0000e-001 68814 -8.0853e+001 -1.7965e-001 -1.6008e+000 66956 68543,68517,68788
 3.0000e-001 68837 -7.8098e+001 -7.5071e+000 -3.5485e+000 66956 68543,68788,68621
 3.0000e-001 69107 -7.1870e+001 -1.8135e+001 -3.5303e+000 66758 68882,68986,68908
 3.0000e-001 69084 -6.2736e+001 -4.9440e+000  1.0999e+001 66758 68882,69012,68986
 3.0000e-001 69061 -1.0579e+002  7.8455e+000 -6.4497e+000 66758 68908,68960,68934
 3.0000e-001 69038 -6.4169e+001  1.0362e+000 -6.7920e+000 66758 68908,68986,68960
 3.0000e-001 69308 -8.6454e+001  2.0852e+001 -3.1021e-001 66560 69331,69184,69158
 3.0000e-001 69285 -9.4324e+001  1.3015e+001 -3.4688e+000 66560 69331,69158,69132
 3.0000e-001 69262 -8.2878e+001  1.7105e+001  1.1605e+001 66560 69184,69236,69210
 3.0000e-001 69357 -7.7042e+001  1.2324e+001  2.9111e+000 66560 69236,69184,69331
 3.0000e-001 69380 -8.3607e+001  4.1905e+000  3.5195e-002 66560 69236,69331,69132
 3.0000e-001 69554 -8.6689e+001  3.5370e+001 -8.9063e+000 66270 69427,69479,69453
 3.0000e-001 69531 -1.0477e+002 -6.7279e+000 -1.7279e+001 66270 69427,69505,69479
 3.0000e-001 69804 -8.7296e+001 -1.8003e+001  7.1259e+000 66066 69579,69683,69657
 3.0000e-001 69781 -7.9842e+001 -1.2399e+001 -1.4945e+001 66066 69579,69709,69683
 3.0000e-001 69758 -8.5508e+001 -9.0901e+000  6.7135e+000 66066 69579,69657,69631
 3.0000e-001 69735 -8.0669e+001 -2.6490e+000  1.9873e+001 66066 69579,69631,69605
 3.0000e-001 70257 -8.8506e+001 -1.3827e+001 -1.7641e+000 65776 69960,70090,69986
 3.0000e-001 70234 -8.5582e+001 -4.3880e+000 -3.0726e+000 65776 69934,70090,69960
 3.0000e-001 70211 -5.7872e+001  1.0124e+001  2.2285e+000 65776 69934,70116,70090
 3.0000e-001 70188 -7.8153e+001  7.4861e+000  0.0000e+000 65776 70038,70090,70064
 3.0000e-001 70165 -7.8678e+001  1.0964e+001 -4.0779e+000 65776 69986,70090,70038
 3.0000e-001 70142 -8.3036e+001  1.5650e+001 -3.6964e+000 65776 69986,70038,70012
 3.0000e-001 70456 -5.1424e+001  3.7471e+000 -2.9372e+000 65372 70479,70306,70280
 3.0000e-001 70433 -4.7050e+001  6.2864e+000 -5.8833e+000 65372 70479,70280,70384
 3.0000e-001 70410 -4.3444e+001  4.2907e+000 -3.5828e+000 65372 70551,70332,70306
 3.0000e-001 70505 -4.5562e+001  5.3640e+000 -4.8015e+000 65372 70551,70306,70479
 3.0000e-001 70528 -4.3355e+001  4.7088e+000 -7.3568e+000 65372 70358,70479,70384
 3.0000e-001 70577 -4.5658e+001  2.4287e+000 -4.4266e+000 65372 70358,70332,70551
 3.0000e-001 70600 -4.7668e+001  3.1693e+000 -5.7441e+000 65372 70358,70551,70479
 3.0000e-001 70821 -3.4466e+001 -1.8163e+001 -3.6103e+000 65174 70645,70723,70671
 3.0000e-001 70798 -3.3596e+001 -1.4838e+001  2.8735e+000 65174 70645,70749,70723
 3.0000e-001 70775 -2.8366e+001 -4.0905e+000 -7.2287e+000 65174 70671,70723,70697
 3.0000e-001 71071 -4.6392e+001  5.8319e+000 -1.4083e+000 64770 71094,70898,70872
 3.0000e-001 71048 -3.2276e+001  1.4853e+001 -1.0041e+001 64770 71166,71094,70872
 3.0000e-001 71025 -2.2683e+001 -8.2206e-003 -2.2760e+001 64770 71166,70872,70846
 3.0000e-001 71002 -5.4304e+001  1.8354e+000  7.0164e+000 64770 70898,70950,70924
 3.0000e-001 71120 -4.5478e+001 -2.5264e+000  1.2232e+000 64770 70950,70898,71094
 3.0000e-001 71143 -4.2578e+001 -1.9912e+000  1.2572e+000 64770 70950,71094,70976
 3.0000e-001 71192 -4.9583e+001 -1.5525e+001 -3.0959e+000 64770 70976,71094,71166
 3.0000e-001 71215 -3.4651e+001 -1.9194e+001 -1.7656e+001 64770 70976,71166,70846
 3.0000e-001 71514 -7.4155e+001  5.1734e+000 -2.9208e+000 64572 71681,71537,71318
 3.0000e-001 71491 -7.8121e+001  5.2893e+000 -4.1429e-001 64572 71537,71266,71240
 3.0000e-001 71468 -6.5991e+001  1.9355e+000  4.4662e+000 64572 71609,71396,71370
 3.0000e-001 71445 -7.4683e+001  5.8180e+000 -3.1693e+000 64572 71681,71318,71292
 3.0000e-001 71422 -6.3961e+001  2.8242e+001 -4.1157e+000 64572 71753,71344,71318
 3.0000e-001 71563 -6.9889e+001  1.3228e+001 -4.5000e+000 64572 71753,71318,71537
 3.0000e-001 71586 -6.9841e+001  5.6689e+000 -2.8959e-001 64572 71609,71370,71537
 3.0000e-001 71635 -7.0427e+001 -9.8652e+000  2.1508e+000 64572 71240,71396,71609
 3.0000e-001 71658 -7.4208e+001 -2.2689e+000 -2.6184e+000 64572 71240,71609,71537
 3.0000e-001 71707 -7.5266e+001  4.8402e+000 -3.3795e+000 64572 71266,71537,71681
 3.0000e-001 71730 -7.6646e+001  4.8469e+000 -3.7128e+000 64572 71266,71681,71292
 3.0000e-001 71779 -6.7025e+001  8.8882e+000 -1.7852e+000 64572 71370,71344,71753
 3.0000e-001 71802 -6.5107e+001  6.4898e+000 -1.0377e+000 64572 71370,71753,71537
 3.0000e-001 72052 -6.4219e+001 -1.0579e+001  2.7312e+000 64374 72075,71879,71827
 3.0000e-001 72029 -6.9115e+001 -9.7130e+000 -2.1946e+000 64374 72147,72075,71827
 3.0000e-001 72006 -6.5691e+001 -5.7488e+000  4.2565e-001 64374 72147,71827,71957
 3.0000e-001 71983 -5.4831e+001 -6.9407e+000 -2.7909e+000 64374 71827,71879,71853
 3.0000e-001 72101 -6.6602e+001 -9.6595e+000 -1.2114e+000 64374 71905,71879,72075
 3.0000e-001 72124 -8.7218e+001 -1.1319e+001 -6.2850e+000 64374 71905,72075,71931
 3.0000e-001 72173 -7.0577e+001 -1.8186e+000  1.8555e-001 64374 71931,72075,72147
 3.0000e-001 72196 -7.0852e+001 -5.5272e-003  1.5601e+000 64374 71931,72147,71957
 3.0000e-001 72649 -8.7071e+001 -1.6193e+001  2.6208e+000 63948 72352,72508,72482
 3.0000e-001 72626 -8.7928e+001 -3.4055e+001 -1.9461e+001 63948 72326,72508,72352
 3.0000e-001 72603 -7.8918e+001 -2.4719e+000  1.6587e+000 63948 72672,72430,72378
 3.0000e-001 72580 -7.1191e+001  2.3189e+001 -6.8491e+000 63948 72672,72378,72352
 3.0000e-001 72557 -7.7502e+001 -1.5749e+001  1.9716e+000 63948 72744,72456,72430
 3.0000e-001 72534 -7.9915e+001  2.6190e+001  2.9281e+001 63948 72378,72430,72404
 3.0000e-001 72698 -7.7417e+001 -1.2703e+001  3.7174e+000 63948 72744,72430,72672
 3.0000e-001 72721 -8.1717e+001 -3.5245e+000 -7.3405e-001 63948 72482,72672,72352
 3.0000e-001 72770 -8.2916e+001 -1.0203e+001  2.4065e+000 63948 72482,72456,72744
 3.0000e-001 72793 -7.8975e+001 -2.6726e+000  4.8904e+000 63948 72482,72744,72672
 3.0000e-001 72894 -7.0611e+001  6.0960e+001  6.9368e+000 63494 72816,72868,72842
 3.0000e-001 73093 -3.8072e+001  4.1193e+001 -1.3007e+001 63132 72943,72995,72969
 3.0000e-001 73070 -1.0983e+002  1.4857e+001 -3.6567e+000 63132 72943,73021,72995
 3.0000e-001 73047 -1.1757e+002 -2.9965e+001  1.2791e+000 63132 72917,73021,72943
 3.0000e-001 73294 -6.7710e+001  2.8791e+000  9.6293e-001 62792 73317,73144,73118
 3.0000e-001 73271 -6.4453e+001  9.2093e+000 -1.5137e+000 62792 73317,73118,73222
 3.0000e-001 73248 -6.2525e+001 -8.9778e+000 -3.1237e+000 62792 73144,73196,73170
 3.0000e-001 73343 -6.3562e+001 -2.7491e+000 -6.1275e+000 62792 73196,73144,73317
 3.0000e-001 73366 -5.8896e+001  7.1370e+000 -8.9282e+000 62792 73196,73317,73222
 3.0000e-001 73616 -9.3012e+001 -1.4939e+001  5.6936e+000 62388 73639,73417,73391
 3.0000e-001 73593 -8.4541e+001  3.7919e+000 -9.6088e-001 62388 73711,73639,73391
 3.0000e-001 73570 -8.0942e+001  2.7330e+001 -3.3061e+000 62388 73711,73391,73521
 3.0000e-001 73547 -7.7272e+001 -5.7450e-002 -1.6787e+001 62388 73469,73521,73495
 3.0000e-001 73665 -7.4012e+001 -7.6522e+000 -4.6080e-001 62388 73443,73417,73639
 3.0000e-001 73688 -8.2444e+001 -1.3852e+001 -4.3082e+000 62388 73443,73639,73469
 3.0000e-001 73737 -8.0528e+001 -1.2398e+001 -4.9976e+000 62388 73469,73639,73711
 3.0000e-001 73760 -8.5663e+001 -1.5069e+000 -3.3105e+000 62388 73469,73711,73521
 3.0000e-001 74010 -9.2618e+001 -3.8947e+001 -1.0681e+001 61848 74033,73837,73811
 3.0000e-001 73987 -4.4487e+001 -3.0421e+001  3.8054e+000 61848 74033,73811,73785
 3.0000e-001 73964 -8.9888e+001 -1.8262e+001  4.3559e+000 61848 73837,73915,73889
 3.0000e-001 73941 -1.1173e+002 -9.6342e+000 -6.8931e+000 61848 73837,73889,73863
 3.0000e-001 74059 -9.7647e+001 -2.4739e+001 -6.3360e-001 61848 73915,73837,74033
 3.0000e-001 74082 -9.3351e+001 -1.6235e+001  4.3236e+000 61848 73915,74033,73785
 3.0000e-001 74283 -6.4413e+001  8.5646e+000 -2.4748e+001 61444 74306,74133,74107
 3.0000e-001 74260 -6.9649e+001  1.8748e+001  3.0864e+000 61444 74306,74107,74211
 3.0000e-001 74237 -9.0239e+001  1.6622e+001 -9.8886e+000 61444 74378,74185,74159
 3.0000e-001 74332 -8.8667e+001 -2.0489e+000 -2.9934e+001 61444 74159,74133,74306
 3.0000e-001 74355 -7.9499e+001  1.1168e+001 -5.1230e+000 61444 74378,74159,74306
 3.0000e-001 74404 -8.8480e+001  1.1040e+001 -2.0529e+000 61444 74211,74185,74378
 3.0000e-001 74427 -8.6867e+001  7.1596e+000 -2.5742e+000 61444 74211,74378,74306
 3.0000e-001 74628 -8.9590e+001 -6.2382e+000  2.5457e+000 60990 74478,74530,74504
 3.0000e-001 74605 -7.0527e+001 -6.3244e+000 -2.8448e+000 60990 74452,74530,74478
 3.0000e-001 74582 -9.0973e+001 -6.0186e+000 -3.4830e+000 60990 74452,74556,74530
 3.0000e-001 75089  2.8233e+001  5.6433e+001 -4.2657e+001 60486 75112,74945,74919
 3.0000e-001 75066 -1.2968e+001 -6.0230e+000 -2.1995e+001 60486 75112,74919,74867
 3.0000e-001 75043 -4.2925e+001  2.7476e+001 -1.2403e+000 60486 74841,74971,74867
 3.0000e-001 75020 -2.3399e+001  1.6109e+000 -3.8389e+001 60486 74867,74919,74893
 3.0000e-001 74997 -1.9228e+001  3.1715e+001 -5.1427e+000 60486 74815,74971,74841
 3.0000e-001 75138 -1.6003e+001  5.3832e+001 -7.6000e+000 60486 74971,74945,75112
 3.0000e-001 75161 -3.3024e+001  3.3566e+001  4.9922e+000 60486 74971,75112,74867
 3.0000e-001 75409 -6.8504e+001  5.3526e+000 -1.5998e+000 59932 75576,75432,75288
 3.0000e-001 75386 -7.3696e+001 -7.7489e-001 -4.6207e-001 59932 75504,75314,75288
 3.0000e-001 75363 -5.3110e+001  6.1519e+000  8.5206e+000 59932 75432,75236,75210
 3.0000e-001 75340 -5.9266e+001  1.0558e+001  5.7110e-001 59932 75576,75288,75262
 3.0000e-001 75458 -7.5378e+001  2.4443e+000 -1.4128e+000 59932 75504,75288,75432
 3.0000e-001 75481 -7.9425e+001 -1.9856e+000  1.1119e+001 59932 75184,75432,75210
 3.0000e-001 75530 -9.5380e+001 -3.7378e+001  8.5408e+000 59932 75184,75314,75504
 3.0000e-001 75553 -7.4836e+001 -1.0746e+000 -4.3009e-001 59932 75184,75504,75432
 3.0000e-001 75602 -7.3698e+001  1.0665e+001 -8.9731e-001 59932 75236,75432,75576
 3.0000e-001 75625 -7.3043e+001  1.0420e+001 -1.1501e+000 59932 75236,75576,75262
 3.0000e-001 75873 -8.1816e+001 -1.0046e+001  1.0007e+000 59478 75674,75752,75700
 3.0000e-001 75850 -5.6767e+001  5.0154e-001 -6.1421e+000 59478 75648,75752,75674
 3.0000e-001 75827 -9.2087e+001 -1.4470e+001 -7.0761e-001 59478 75700,75752,75726
 3.0000e-001 75804 -6.4118e+001 -8.8084e+000 -2.7174e+000 59478 75648,75778,75752
 3.0000e-001 76206 -4.3458e+001 -8.0157e+000 -9.8016e+000 59024 75981,76059,76007
 3.0000e-001 76183 -4.8133e+001  3.1626e+000 -1.2010e+001 59024 75981,76111,76059
 3.0000e-001 76160 -3.9047e+001 -1.5850e-001 -1.4519e+001 59024 76007,76059,76033
 3.0000e-001 76137 -4.3947e+001  3.3236e+001 -2.6755e+001 59024 76059,76111,76085
 3.0000e-001 76761 -3.2583e+001 -7.0211e+000  1.3640e+001 58562 76389,76441,76415
 3.0000e-001 76738 -4.1788e+001  1.2037e+001 -1.5780e+001 58562 76856,76784,76389
 3.0000e-001 76715 -4.0211e+001 -5.8600e+000 -1.4895e+001 58562 76784,76571,76467
 3.0000e-001 76692 -4.4231e+001  2.5900e+001 -2.1190e+001 58562 76856,76389,76597
 3.0000e-001 76669 -6.2765e+001  1.8058e+000 -3.0680e+001 58562 76467,76545,76493
 3.0000e-001 76646 -4.1096e+001  1.6647e+000 -1.2487e+001 58562 76467,76571,76545
 3.0000e-001 76623 -3.4086e+001  3.0555e+001 -1.6975e+001 58562 76493,76545,76519
 3.0000e-001 76810 -5.5791e+001 -3.2840e+000 -7.9523e+000 58562 76441,76389,76784
 3.0000e-001 76833 -3.4836e+001  2.4500e+000 -9.9693e+000 58562 76441,76784,76467
 3.0000e-001 76882 -4.2585e+001 -6.4504e+000 -1.6026e+001 58562 76571,76784,76856
 3.0000e-001 76905 -4.7045e+001  6.0957e+000 -1.9340e+001 58562 76571,76856,76597
 3.0000e-001 77055 -6.7448e+001 -2.4662e+001 -6.3825e+000 57844 76928,76980,76954
 3.0000e-001 77032 -5.8849e+001 -1.3232e+000 -1.1971e+001 57844 76928,77006,76980
 3.0000e-001 77533 -8.8250e+001 -8.2549e+000 -2.6968e+000 57226 77628,77556,77291
 3.0000e-001 77510 -8.3426e+001 -8.7700e+000  2.1092e+000 57226 77556,77187,77343
 3.0000e-001 77487 -7.8862e+001  2.7283e+000 -6.9145e+000 57226 77628,77291,77265
 3.0000e-001 77464 -8.4462e+001 -2.1479e+001  1.4070e+001 57226 77700,77213,77187
 3.0000e-001 77441 -1.7095e+002 -1.9578e+001  3.7704e+001 57226 77161,77343,77187
 3.0000e-001 77418 -1.2871e+002  2.3023e+001  1.9746e+001 57226 77161,77369,77343
 3.0000e-001 77395 -4.0586e+001 -7.9840e+000 -1.3966e+001 57226 77213,77265,77239
 3.0000e-001 77582 -7.9092e+001  1.1679e+001 -5.3975e+000 57226 77317,77291,77556
 3.0000e-001 77605 -8.6613e+001 -4.2802e+000  7.0637e-001 57226 77317,77556,77343
 3.0000e-001 77654 -8.0909e+001 -2.6332e+000 -4.6429e-002 57226 77187,77556,77628
 3.0000e-001 77677 -8.9368e+001 -1.6435e+001  4.4579e+000 57226 77700,77187,77628
 3.0000e-001 77726 -6.7621e+001 -1.4708e+001  5.3027e+000 57226 77265,77213,77700
 3.0000e-001 77749 -6.9518e+001 -3.7145e+000 -4.9989e+000 57226 77265,77700,77628
 3.0000e-001 78046 -7.0249e+001 -5.7791e+000 -5.7510e+000 56936 77798,77850,77824
 3.0000e-001 78023 -7.2661e+001 -7.0725e-001 -4.1394e+000 56936 78069,77798,77902
 3.0000e-001 78000 -8.0914e+001  3.3873e-001 -5.7267e+000 56936 78069,77902,77876
 3.0000e-001 77977 -9.1531e+001 -8.6315e+000 -3.6038e+000 56936 77798,77928,77902
 3.0000e-001 77954 -1.0802e+002  2.3529e+001  2.1458e+000 56936 77772,77928,77798
 3.0000e-001 78095 -7.0126e+001  1.1716e-002 -4.2451e+000 56936 77850,77798,78069
 3.0000e-001 78118 -7.4001e+001  3.4475e+000 -6.3823e+000 56936 77850,78069,77876
 3.0000e-001 78754 -5.7433e+001 -3.4293e+001  6.0930e+000 56475 78777,78486,78408
 3.0000e-001 78731 -8.6500e+001 -5.6283e+001  1.6001e+001 56475 78777,78408,78382
 3.0000e-001 78708 -7.4489e+001 -3.7363e+001 -3.6256e+000 56475 78849,78512,78486
 3.0000e-001 78685 -6.6374e+001 -1.5269e+001 -1.7299e+000 56475 78382,78590,78564
 3.0000e-001 78662 -8.3871e+001 -1.2937e+001 -7.7279e+000 56475 78512,78564,78538
 3.0000e-001 78639 -6.0538e+001 -2.9948e+001  5.0480e+000 56475 78434,78486,78460
 3.0000e-001 78616 -5.7566e+001 -3.3871e+001  7.1014e+000 56475 78408,78486,78434
 3.0000e-001 78803 -7.6865e+001 -3.5196e+001 -6.0822e-001 56475 78849,78486,78777
 3.0000e-001 78826 -7.8268e+001 -3.2637e+001  3.8734e+000 56475 78564,78777,78382
 3.0000e-001 78875 -7.2449e+001 -3.2678e+001 -3.9013e+000 56475 78564,78512,78849
 3.0000e-001 78898 -7.4145e+001 -2.9366e+001 -1.4224e+000 56475 78564,78849,78777
 3.0000e-001 79276 -7.1511e+001 -2.8243e+001  1.9589e+000 55964 79299,79080,79028
 3.0000e-001 79253 -8.2080e+001 -2.9412e+001 -4.2195e-001 55964 79299,79028,79132
 3.0000e-001 79230 -6.2204e+001 -6.7744e+000 -1.2394e+000 55964 79028,79080,79054
 3.0000e-001 79207 -7.8816e+001 -2.6834e+001  7.1313e-001 55964 79002,79132,79028
 3.0000e-001 79184 -1.2320e+002 -4.4843e+001 -8.7684e+000 55964 79002,79158,79132
 3.0000e-001 79325 -7.6606e+001 -2.8089e+001 -5.4082e+000 55964 79106,79080,79299
 3.0000e-001 79348 -8.7833e+001 -2.8895e+001 -7.3012e+000 55964 79106,79299,79132
 3.0000e-001 79498 -7.8916e+001 -4.7640e+000 -1.0073e+001 55452 79397,79449,79423
 3.0000e-001 79475 -5.7803e+001  3.4392e+000 -8.6337e-001 55452 79371,79449,79397
 3.0000e-001 79795 -6.1346e+001 -4.5264e+000 -3.9028e+000 55048 79962,79818,79573
 3.0000e-001 79772 -5.4259e+001  3.1063e+000 -7.4252e+000 55048 79818,79521,79677
 3.0000e-001 79749 -4.1854e+001 -2.5303e+001 -2.4323e+000 55048 79599,79651,79625
 3.0000e-001 79726 -5.9406e+001 -1.0187e+001 -5.7879e+000 55048 79890,79651,79599
 3.0000e-001 79703 -6.7146e+001  9.9220e-001 -1.4153e+001 55048 79962,79573,79547
 3.0000e-001 79844 -5.4723e+001 -6.9079e+000 -2.5971e+000 55048 79599,79573,79818
 3.0000e-001 79867 -5.5252e+001 -2.5719e+000 -2.4867e+000 55048 79890,79599,79818
 3.0000e-001 79916 -6.3457e+001 -1.0287e+001 -1.3449e+001 55048 79677,79651,79890
 3.0000e-001 79939 -6.1135e+001 -7.3370e+000 -1.0500e+001 55048 79677,79890,79818
 3.0000e-001 79988 -4.6793e+001 -1.9053e+000 -9.3923e+000 55048 79521,79818,79962
 3.0000e-001 80011 -4.6533e+001  1.7732e+000 -1.8396e+001 55048 79521,79962,79547
 3.0000e-001 80212 -7.2909e+001 -1.8433e+000  3.8916e+000 54436 80235,80088,80036
 3.0000e-001 80189 -7.2534e+001 -1.8125e+000  3.8604e+000 54436 80235,80036,80140
 3.0000e-001 80166 -6.5383e+001  2.0124e+001  5.4343e+000 54436 80036,80088,80062
 3.0000e-001 80261 -7.2547e+001 -2.1793e+000  4.1580e+000 54436 80114,80088,80235
 3.0000e-001 80284 -7.2030e+001 -2.0445e+000  4.1257e+000 54436 80114,80235,80140
 3.0000e-001 80534 -8.2687e+001 -4.7012e+000 -4.2312e+000 54032 80557,80361,80335
 3.0000e-001 80511 -7.6811e+001 -1.1847e+001  1.4669e+000 54032 80557,80335,80309
 3.0000e-001 80488 -5.9716e+001  3.6476e+000 -9.6125e+000 54032 80629,80413,80387
 3.0000e-001 80465 -6.9126e+001  7.6406e+000 -3.3276e+000 54032 80309,80439,80413
 3.0000e-001 80583 -7.7194e+001 -7.0880e+000  3.1450e-001 54032 80387,80361,80557
 3.0000e-001 80606 -6.3899e+001 -4.5564e+000 -3.7739e+000 54032 80629,80387,80557
 3.0000e-001 80655 -6.8138e+001 -1.8431e+000 -1.7997e+000 54032 80309,80413,80629
 3.0000e-001 80678 -7.2533e+001 -3.9652e+000  3.1692e+000 54032 80309,80629,80557
 3.0000e-001 81139  1.3602e+001  3.1689e+001  3.3544e+001 53784 80865,80995,80917
 3.0000e-001 81116 -5.8060e+001  2.5038e+001 -3.1370e+001 53784 80865,81021,80995
 3.0000e-001 81093 -1.3811e+001  5.6440e+001 -3.1647e+001 53784 80943,80995,80969
 3.0000e-001 81070  4.4828e+001  4.7588e+001  4.1484e+001 53784 80917,80995,80943
 3.0000e-001 81047 -6.4304e+001  2.9775e+002  9.4872e+001 53784 80865,80917,80891
 3.0000e-001 81468 -4.8326e+001 -5.1755e+000  7.5643e+000 53230 81295,81373,81347
 3.0000e-001 81445 -5.5988e+001  7.3628e+000  1.6559e+000 53230 81243,81373,81295
 3.0000e-001 81422 -2.7535e+001  3.8157e+001  1.7183e+001 53230 81243,81295,81269
 3.0000e-001 81399 -5.1325e+001 -6.4338e+000  7.6080e+000 53230 81295,81347,81321
 3.0000e-001 81618 -1.0384e+002 -2.9546e+001 -3.9022e+000 52790 81491,81543,81517
 3.0000e-001 81595 -9.1094e+001 -4.4570e+001 -5.2255e+000 52790 81491,81569,81543
 3.0000e-001 82126 -5.3346e+001 -2.6732e+001  9.0104e+000 52386 82149,81907,81881
 3.0000e-001 82103 -5.1368e+001 -1.9877e+001  1.1923e+001 52386 82149,81881,81855
 3.0000e-001 82080 -5.4299e+001 -3.3042e+001  2.2365e+000 52386 82221,81803,81985
 3.0000e-001 82057 -2.7941e+001 -1.7239e+001  1.3033e+001 52386 81803,81855,81829
 3.0000e-001 82034 -4.9466e+001 -1.8272e+001  2.5296e-001 52386 81907,81985,81933
 3.0000e-001 82011 -3.9568e+001 -1.8931e+001  6.2018e-001 52386 81933,81985,81959
 3.0000e-001 82175 -5.5386e+001 -2.3757e+001  7.1124e+000 52386 81985,81907,82149
 3.0000e-001 82198 -5.5293e+001 -2.8302e+001  7.1464e+000 52386 82221,81985,82149
 3.0000e-001 82247 -5.1523e+001 -2.4351e+001  3.5633e+000 52386 81855,81803,82221
 3.0000e-001 82270 -5.3475e+001 -1.9382e+001  7.3426e+000 52386 81855,82221,82149
 3.0000e-001 82825 -1.0910e+002 -3.1759e+001 -3.2423e+001 51782 82505,82661,82635
 3.0000e-001 82802 -6.3208e+001  3.7599e+000 -4.6551e+000 51782 82479,82661,82505
 3.0000e-001 82779 -7.6587e+001 -2.3891e+001  2.1771e+000 51782 82557,82635,82609
 3.0000e-001 82756 -7.8770e+001 -2.9365e+001 -8.1375e+000 51782 82531,82635,82557
 3.0000e-001 82733 -9.6440e+001 -1.5631e+001 -1.4082e+001 51782 82505,82635,82531
 3.0000e-001 82710 -8.5407e+001 -2.3467e+001 -2.3667e+001 51782 82453,82661,82479
 3.0000e-001 82687 -6.6364e+001 -1.0886e+001  7.1786e+000 51782 82557,82609,82583
 3.0000e-001 83171 -7.5429e+001 -1.1249e+001 -9.2848e+000 51442 83194,82978,82900
 3.0000e-001 83148 -7.8605e+001 -2.0092e+001 -1.1300e+001 51442 83194,82900,82874
 3.0000e-001 83125 -8.1770e+001 -1.4283e+001 -1.3017e+001 51442 82900,82978,82926
 3.0000e-001 83102 -7.9212e+001 -2.8861e+001 -1.5889e+001 51442 82874,83030,83004
 3.0000e-001 83079 -7.3676e+001 -1.1640e+000 -1.3767e+000 51442 82926,82978,82952
 3.0000e-001 83056 -9.8726e+001 -4.3124e+001 -2.2115e+001 51442 82848,83030,82874
 3.0000e-001 83220 -6.8594e+001 -1.7899e+001 -6.6139e+000 51442 83004,82978,83194
 3.0000e-001 83243 -7.3873e+001 -2.9262e+001 -9.6074e+000 51442 83004,83194,82874
 3.0000e-001 83751 -5.6404e+001 -2.8435e+001  1.0331e+000 50938 83428,83584,83454
 3.0000e-001 83728 -7.6130e+001 -3.5570e+001 -6.2251e+000 50938 83428,83610,83584
 3.0000e-001 83705 -7.7872e+001 -2.9769e+001 -4.1291e+000 50938 83454,83584,83558
 3.0000e-001 83682 -9.0903e+001 -3.5598e+001  3.9335e-001 50938 83454,83532,83480
 3.0000e-001 83659 -8.1091e+001 -3.0809e+001 -2.7850e+000 50938 83454,83558,83532
 3.0000e-001 83636 -5.7237e+001  5.8041e+000  1.8306e+001 50938 83480,83532,83506
 3.0000e-001 84355 -6.0989e+001  7.6925e-001  2.2252e+001 50377 84378,83960,83934
 3.0000e-001 84332 -5.0454e+001  2.4680e+000 -1.6314e+001 50377 84522,84378,83934
 3.0000e-001 84309 -1.5505e+001  2.2078e+001  1.2493e+001 50377 84450,84038,84012
 3.0000e-001 84286 -3.6312e+001 -1.1266e+001 -1.6635e+001 50377 84522,83934,84142
 3.0000e-001 84263 -3.4742e+001  5.0505e+000 -3.9672e+000 50377 84594,84090,84038
 3.0000e-001 84240  2.7287e+001  4.9309e+000  1.4924e+001 50377 83960,84012,83986
 3.0000e-001 84217 -2.2099e+001 -1.3681e+001 -3.8578e+000 50377 83934,84168,84142
 3.0000e-001 84194 -1.5217e+000  8.9715e+000 -7.2259e+000 50377 84038,84090,84064
 3.0000e-001 84404  1.6428e+001  2.3911e+001  2.5939e+001 50377 84012,83960,84378
 3.0000e-001 84427 -4.2125e+001  8.2096e+000  4.1998e+000 50377 84450,84012,84378
 3.0000e-001 84476 -2.6198e+001  7.3866e+000 -6.8139e-001 50377 84594,84038,84450
 3.0000e-001 84499 -3.2852e+001  1.5668e+001 -2.4142e+000 50377 84116,84450,84378
 3.0000e-001 84548 -3.8833e+001  1.7974e+001 -1.0023e+001 50377 84116,84378,84522
 3.0000e-001 84571 -2.6289e+001  2.0006e+000 -1.0670e+001 50377 84116,84522,84142
 3.0000e-001 84620 -5.0210e+001  1.0982e+001 -6.9371e+000 50377 84116,84090,84594
 3.0000e-001 84643 -4.3475e+001  1.1737e+001 -3.8806e+000 50377 84116,84594,84450
 3.0000e-001 84842 -7.7116e+001 -1.1648e+001 -1.2542e+001 49923 84865,84692,84666
 3.0000e-001 84819 -6.2435e+001 -1.0354e+001 -7.9259e+000 49923 84865,84666,84770
 3.0000e-001 84796 -7.1864e+001 -8.3795e+000 -2.5698e+000 49923 84692,84744,84718
 3.0000e-001 84891 -6.7958e+001 -1.1942e+001 -3.7431e+000 49923 84744,84692,84865
 3.0000e-001 84914 -5.2303e+001 -7.9141e+000  1.8830e+000 49923 84744,84865,84770
 3.0000e-001 85501 -7.2360e+001  4.4170e+000  4.2696e-001 49618 85524,85282,85204
 3.0000e-001 85478 -7.8756e+001 -4.3268e+000 -7.5042e+000 49618 85596,85524,85204
 3.0000e-001 85455 -8.0730e+001  1.0843e+000 -7.0344e+000 49618 85596,85204,85178
 3.0000e-001 85432 -6.8650e+001  1.1241e+001 -2.3777e+000 49618 85204,85282,85256
 3.0000e-001 85409 -5.7875e+001  4.2954e+001 -3.9402e+000 49618 85282,85334,85308
 3.0000e-001 85386 -5.3960e+001  5.2088e+001  9.5934e+000 49618 85204,85256,85230
 3.0000e-001 85550 -7.1049e+001 -1.7436e+000 -7.8229e+000 49618 85334,85282,85524
 3.0000e-001 85573 -9.2979e+001 -1.3748e+001 -1.9602e+001 49618 85334,85524,85360
 3.0000e-001 85622 -7.5687e+001  2.3359e+000 -9.5636e+000 49618 85360,85524,85596
 3.0000e-001 85645 -7.9537e+001  5.4961e+000 -8.5935e+000 49618 85360,85596,85178
 3.0000e-001 85795 -8.9787e+001 -2.9274e+000  1.2196e+001 49278 85694,85746,85720
 3.0000e-001 85772 -1.1396e+002  1.7031e+001 -2.1663e+000 49278 85668,85746,85694
 3.0000e-001 86197 -5.8891e+001  2.1166e+001 -3.0728e+001 48916 86001,86079,86027
 3.0000e-001 86174 -7.2395e+001  7.4259e+000 -1.7231e+001 48916 85949,86079,86001
 3.0000e-001 86151 -1.0625e+002  3.4487e+001 -1.0270e+001 48916 85949,86001,85975
 3.0000e-001 86128 -4.7493e+001  2.1798e+001 -4.3175e+001 48916 86027,86079,86053
 3.0000e-001 86105 -2.1185e+002 -6.5582e+001 -4.3809e+001 48916 85923,86079,85949
 3.0000e-001 86477 -4.0139e+001 -7.8833e+000  7.4195e+000 48398 86327,86379,86353
 3.0000e-001 86454 -4.4151e+001 -2.6322e+001  7.4689e+000 48398 86500,86379,86327
 3.0000e-001 86431 -7.4688e+001 -3.1475e+001  8.2279e+000 48398 86301,86405,86379
 3.0000e-001 86526 -2.5680e+001 -1.9301e+001  9.1032e+000 48398 86301,86379,86500
 3.0000e-001 87032 -7.1694e+001 -2.1050e+001  8.7605e-001 48008 87127,87055,86787
 3.0000e-001 87009 -7.1300e+001 -2.1837e+001  4.3041e+000 48008 87055,86735,86709
 3.0000e-001 86986 -6.2987e+001 -2.6506e+001 -6.9635e-001 48008 87127,86787,86761
 3.0000e-001 86963 -6.7072e+001 -1.7503e+001  5.8219e+000 48008 86787,86865,86839
 3.0000e-001 86940 -9.7695e+001 -2.1438e+001  6.8981e-001 48008 86709,86891,86865
 3.0000e-001 86917 -6.3025e+001 -3.1005e+000  1.5578e+001 48008 86787,86839,86813
 3.0000e-001 87081 -7.2898e+001 -1.9815e+001  2.6272e+000 48008 86865,86787,87055
 3.0000e-001 87104 -6.8680e+001 -1.8211e+001  2.6676e+000 48008 86865,87055,86709
 3.0000e-001 87153 -6.0086e+001 -1.6931e+001  3.3321e+000 48008 86735,87055,87127
 3.0000e-001 87176 -4.2342e+001 -1.7680e+001 -1.2249e+000 48008 86735,87127,86761
 3.0000e-001 87456 -4.3577e+001 -2.8567e+001 -1.2895e+000 47604 87306,87358,87332
 3.0000e-001 87433 -5.4140e+001 -3.5229e+001  1.7633e+000 47604 87306,87384,87358
 3.0000e-001 87410 -4.5952e+001 -3.1871e+001 -1.6526e+000 47604 87280,87384,87306
 3.0000e-001 87785 -4.0466e+001 -1.7376e+001 -4.3548e+000 47264 87638,87690,87664
 3.0000e-001 87762 -3.2218e+001 -6.4488e+000 -8.0977e+000 47264 87612,87690,87638
 3.0000e-001 87739 -3.5424e+001 -1.4210e+001 -8.6726e+000 47264 87560,87690,87612
 3.0000e-001 87716 -2.9750e+001 -3.0163e+000 -1.0639e+001 47264 87560,87612,87586
 3.0000e-001 87935 -7.3662e+001  1.4384e+001 -4.7548e-001 46952 87808,87860,87834
 3.0000e-001 87912 -7.3464e+001 -7.8187e-001 -1.0560e+001 46952 87808,87886,87860
 3.0000e-001 88281 -7.8369e+001 -2.8575e+001 -1.2241e-001 46526 88304,88114,88036
 3.0000e-001 88258 -7.4202e+001 -2.5232e+001  1.3265e+000 46526 88304,88036,87984
 3.0000e-001 88235 -7.2675e+001 -2.4731e+001 -4.4243e+000 46526 88036,88114,88062
 3.0000e-001 88212 -8.5337e+001 -2.5180e+001 -2.9760e+000 46526 87958,88140,87984
 3.0000e-001 88189 -6.3383e+001  1.4537e-002  1.4680e+000 46526 87984,88036,88010
 3.0000e-001 88166 -8.5521e+001 -3.8970e+001 -1.1454e+001 46526 88062,88114,88088
 3.0000e-001 88330 -8.2590e+001 -2.4550e+001 -3.2027e-001 46526 88140,88114,88304
 3.0000e-001 88353 -7.9769e+001 -2.2170e+001  7.0038e-001 46526 88140,88304,87984
 3.0000e-001 88701 -4.1139e+001 -2.3910e+001 -1.0893e+001 45822 88724,88378,88534
 3.0000e-001 88678 -3.7623e+001 -1.9914e+001 -1.2714e+001 45822 88378,88560,88534
 3.0000e-001 88655 -4.0930e+001 -3.0468e+001 -6.7361e-001 45822 88724,88534,88508
 3.0000e-001 88632 -4.3023e+001 -8.0565e+000  4.0917e-002 45822 88404,88508,88456
 3.0000e-001 88609 -3.7198e+001  3.2385e+000 -3.8196e+000 45822 88404,88456,88430
 3.0000e-001 88586 -5.8322e+001 -1.9817e+001  5.3492e+000 45822 88456,88508,88482
 3.0000e-001 88750 -4.0949e+001 -1.0662e+001 -1.2760e+001 45822 88404,88378,88724
 3.0000e-001 88773 -4.0425e+001 -1.8531e+001 -3.3185e+000 45822 88404,88724,88508
 3.0000e-001 89106 -2.2897e+001 -8.7405e+000 -1.1414e+001 45418 88881,88985,88907
 3.0000e-001 89083 -1.6154e+001 -1.3196e+001 -1.1449e+001 45418 88881,89011,88985
 3.0000e-001 89060 -1.3306e+000  8.6767e+000 -3.3719e+000 45418 88907,88985,88933
 3.0000e-001 89037 -1.6383e+001  2.0014e+000 -1.0062e+001 45418 88933,88985,88959
 3.0000e-001 89435 -7.9233e+001 -3.8186e+001  2.7908e+000 44914 89210,89288,89236
 3.0000e-001 89412 -6.3625e+001 -2.3683e+001 -7.8518e+000 44914 89210,89314,89288
 3.0000e-001 89389 -7.2908e+001 -1.7121e+001 -1.1560e+001 44914 89210,89340,89314
 3.0000e-001 89366 -8.1452e+001 -3.7363e+001 -2.7352e-002 44914 89236,89288,89262
 3.0000e-001 89634 -3.7599e+001  5.0923e+000 -1.8813e+001 44538 89510,89562,89536
 3.0000e-001 89611 -3.9134e+001 -1.8467e+001 -9.7956e+000 44538 89458,89562,89510
 3.0000e-001 89588 -3.3440e+001 -2.1519e+001 -1.1878e+001 44538 89458,89510,89484
 3.0000e-001 90044 -8.9299e+001 -2.1883e+001  9.4587e+000 44134 89819,89923,89845
 3.0000e-001 90021 -7.2594e+001  8.3217e+000  1.7139e+001 44134 89819,89949,89923
 3.0000e-001 89998 -8.4243e+001 -1.3462e+001  7.3145e+000 44134 89845,89923,89897
 3.0000e-001 89975 -4.6492e+001  6.7138e+001  1.7373e+001 44134 89845,89897,89871
 3.0000e-001 90520 -9.1216e+001 -3.0868e+001  4.1805e+000 43457 90543,90252,90226
 3.0000e-001 90497 -7.8556e+001 -2.6926e+001  5.1475e+000 43457 90543,90226,90330
 3.0000e-001 90474 -8.4972e+001 -1.4274e+001  1.4381e-001 43457 90200,90330,90226
 3.0000e-001 90451 -7.6188e+001 -3.1738e+001 -3.0529e+001 43457 90200,90356,90330
 3.0000e-001 90428 -9.3331e+001  3.5345e+000  1.5410e+001 43457 90252,90304,90278
 3.0000e-001 90405 -1.4970e+001 -3.3556e+000 -6.1506e+000 43457 90174,90356,90200
 3.0000e-001 90382 -8.1229e+001 -5.1455e+001 -2.7820e+001 43457 90148,90356,90174
 3.0000e-001 90569 -1.0304e+002 -2.4678e+001  1.6132e+001 43457 90304,90252,90543
 3.0000e-001 90592 -8.1603e+001 -1.6007e+001  1.9729e+001 43457 90304,90543,90330
 3.0000e-001 91098 -4.0514e+001 -1.0755e+001  2.6468e+000 42789 90801,90905,90853
 3.0000e-001 91075 -3.7389e+001 -1.2512e+001  1.2766e+000 42789 90775,90905,90801
 3.0000e-001 91052 -3.7279e+001 -6.3484e+000 -2.6898e+000 42789 90775,90931,90905
 3.0000e-001 91029 -2.1585e+001  2.6997e+001  9.1086e+000 42789 90801,90853,90827
 3.0000e-001 91006 -3.4632e+001 -8.6058e+000  4.2069e+000 42789 90853,90905,90879
 3.0000e-001 90983 -4.5206e+001 -5.5443e+000  5.9486e-001 42789 90775,90957,90931
 3.0000e-001 91427 -5.9444e+001  4.9120e+000 -1.2401e+001 42227 91228,91280,91254
 3.0000e-001 91404 -7.8843e+001 -1.9426e+001 -1.6806e+000 42227 91228,91306,91280
 3.0000e-001 91381 -7.3115e+001 -1.3811e+001  1.0488e+001 42227 91202,91306,91228
 3.0000e-001 91358 -7.3596e+001 -1.9910e+001  9.3110e+000 42227 91202,91332,91306
 3.0000e-001 91675 -3.2614e+001 -1.3618e+001 -2.7015e+000 41773 91698,91476,91450
 3.0000e-001 91652 -3.5526e+001 -2.2147e+001 -6.3683e-001 41773 91698,91450,91554
 3.0000e-001 91629 -3.8423e+001 -3.0257e+001  1.3211e+000 41773 91450,91580,91554
 3.0000e-001 91606 -4.4519e+001  1.1734e+001  2.2199e+001 41773 91502,91554,91528
 3.0000e-001 91724 -3.2835e+001 -1.6479e+001  3.7846e+000 41773 91502,91476,91698
 3.0000e-001 91747 -3.6307e+001 -2.5471e+001  6.0019e+000 41773 91502,91698,91554
 3.0000e-001 92127  5.0282e+001  1.5936e+000 -1.2427e+001 41255 92150,91905,91879
 3.0000e-001 92104 -1.6091e+001  2.0852e+001  1.5038e+001 41255 92150,91879,91957
 3.0000e-001 92081 -3.2130e+001  4.6207e+001 -5.5167e+000 41255 91853,91957,91879
 3.0000e-001 92058 -3.5631e+001  2.7785e+001  2.4064e+001 41255 91853,91983,91957
 3.0000e-001 92035  1.0071e+001  2.3582e+001  2.1023e+001 41255 91853,92009,91983
 3.0000e-001 92176 -3.6688e+000 -4.2260e+000 -4.5542e+000 41255 91931,91905,92150
 3.0000e-001 92199 -9.3803e+001 -6.1867e+000  2.9123e+001 41255 91931,92150,91957
 3.0000e-001 92518 -7.1097e+001  5.7536e+001  2.1190e+000 41007 92244,92374,92270
 3.0000e-001 92495 -6.4210e+001  3.5583e+001  1.3155e+001 41007 92244,92400,92374
 3.0000e-001 92472 -5.1910e+001  3.8297e+001 -1.0268e+001 41007 92270,92374,92348
 3.0000e-001 92449 -6.2249e+001  4.2122e+000  1.7323e+001 41007 92296,92348,92322
 3.0000e-001 92426 -5.9407e+001 -2.8388e+001 -1.9032e+000 41007 92270,92348,92296
 3.0000e-001 92668 -3.1122e+001  1.3944e-001 -1.1184e+001 40717 92823,92691,92567
 3.0000e-001 92645 -2.8853e+001  7.8518e+000 -9.5557e+000 40717 92895,92823,92567
 3.0000e-001 92717 -4.8134e+001 -5.9764e+000 -3.9119e-004 40717 92593,92567,92691
 3.0000e-001 92849 -1.8641e+001  2.6259e+000 -1.5853e+001 40717 92619,92691,92823
 3.0000e-001 92872 -3.6838e+001  6.1405e+000 -4.3397e+000 40717 92619,92823,92541
 3.0000e-001 92921 -5.3408e+001 -1.4301e+001  5.7231e+000 40717 92541,92823,92895
 3.0000e-001 93634 -7.5046e+001 -2.2770e+001 -1.3625e+001 40206 93366,93444,93418
 3.0000e-001 93611 -5.4568e+001 -1.2794e+001 -9.9579e-001 40206 93288,93444,93366
 3.0000e-001 93588 -6.6983e+001 -3.0294e+001  4.4876e+000 40206 93288,93366,93314
 3.0000e-001 93565 -1.2530e+002 -3.9314e+001  9.0143e-001 40206 93262,93444,93288
 3.0000e-001 93542 -7.9546e+001 -1.3391e+001 -7.6572e+000 40206 93366,93418,93392
 3.0000e-001 93519 -1.1201e+002  2.6549e+001 -1.2608e+001 40206 93262,93470,93444
 3.0000e-001 93496 -6.5471e+001 -2.8504e+001 -1.5781e+001 40206 93314,93366,93340
 3.0000e-001 94189 -6.7112e+001 -3.5009e+001 -9.4774e-002 39802 93843,93999,93973
 3.0000e-001 94166 -7.9590e+001 -4.3081e+001  6.3283e+000 39802 93817,93999,93843
 3.0000e-001 94143 -9.2984e+001 -3.7910e+001  8.4487e+000 39802 93869,93973,93947
 3.0000e-001 94120 -6.6315e+001 -2.1499e+001 -1.5070e+000 39802 93843,93973,93869
 3.0000e-001 94097 -6.3294e+001  3.4034e+001  2.7834e+000 39802 93869,93921,93895
 3.0000e-001 94074 -6.9421e+001  1.9063e+001 -4.8058e+000 39802 93869,93947,93921
 3.0000e-001 94051 -5.5737e+001 -2.8432e+001 -3.1375e+000 39802 93817,94025,93999
 3.0000e-001 94290 -9.0740e+001 -3.4881e+001 -1.5106e+000 39398 94212,94264,94238
 3.0000e-001 94798 -4.6485e+001 -1.5193e+001 -3.3871e-001 38701 94501,94657,94631
 3.0000e-001 94775 -3.9658e+001 -6.6224e+000  4.1902e+000 38701 94475,94657,94501
 3.0000e-001 94752 -6.4403e+001  1.5366e+001 -8.7974e+000 38701 94579,94631,94605
 3.0000e-001 94729 -7.5102e+001 -1.2838e+001 -9.6803e+000 38701 94553,94631,94579
 3.0000e-001 94706 -2.8752e+001  7.0951e+000 -8.0924e+000 38701 94501,94631,94553
 3.0000e-001 94683 -2.3838e+001 -1.4873e+001 -9.0370e+000 38701 94501,94553,94527
 3.0000e-001 95255 -3.2995e+001 -2.1344e+000  5.6204e+000 38247 95278,95085,95007
 3.0000e-001 95232 -4.3179e+001 -4.3531e-001  1.3648e+001 38247 95278,95007,95137
 3.0000e-001 95209 -5.6805e+001 -7.5499e+000  5.3114e+000 38247 94981,95137,95007
 3.0000e-001 95186 -3.5365e+001  1.9871e+001 -7.2362e+000 38247 95007,95059,95033
 3.0000e-001 95163 -5.4243e+001 -1.5839e+001  1.1642e+001 38247 95007,95085,95059
 3.0000e-001 95304 -2.4258e+001  1.0120e+001 -4.0852e+000 38247 95111,95085,95278
 3.0000e-001 95327 -3.6927e+001  2.6310e+000  5.4632e+000 38247 95111,95278,95137
 3.0000e-001 95575 -1.1126e+002 -8.0360e+000 -2.8091e+000 37564 95376,95428,95402
 3.0000e-001 95552 -9.9218e+001 -3.9898e+001 -5.7295e+000 37564 95376,95454,95428
 3.0000e-001 95529 -8.8836e+001 -3.7192e+001 -7.7949e+000 37564 95376,95480,95454
 3.0000e-001 95506 -8.1303e+001 -2.0505e+001 -2.2766e+000 37564 95350,95480,95376
 3.0000e-001 96034 -1.4841e+001 -6.7553e-001  2.1868e+000 37224 95786,95838,95812
 3.0000e-001 96011 -8.4330e+000  1.4152e+001  3.0749e+000 37224 95786,95890,95838
 3.0000e-001 95988  1.4832e+001  1.9665e+001 -4.6721e+000 37224 95786,95916,95890
 3.0000e-001 95965  2.6746e+001  8.1019e-001  3.1832e+001 37224 95760,95916,95786
 3.0000e-001 95942  4.6438e-001 -4.9234e+000 -2.2009e+001 37224 95838,95890,95864
 3.0000e-001 96363 -5.3644e+001  1.9730e+001  1.3678e+001 36884 96216,96268,96242
 3.0000e-001 96340 -6.3726e+001 -1.0991e+001  9.9473e-001 36884 96164,96268,96216
 3.0000e-001 96317 -5.9066e+001 -1.2452e+001  3.9915e+000 36884 96138,96268,96164
 3.0000e-001 96294 -3.8188e+001  3.7879e+001 -1.5991e+001 36884 96164,96216,96190
 3.0000e-001 96839 -7.5943e+001 -1.4824e+000  1.2178e+000 36572 96862,96649,96597
 3.0000e-001 96816 -6.1264e+001  3.2798e+000 -4.9048e+000 36572 97006,96862,96597
 3.0000e-001 96793 -5.5914e+001  8.3205e+000 -1.1989e+000 36572 96934,96467,96675
 3.0000e-001 96770 -5.6878e+001  1.1570e+001 -1.1795e+001 36572 97006,96597,96571
 3.0000e-001 96747 -5.0978e+001  1.9866e+001 -3.3908e+001 36572 96467,96519,96493
 3.0000e-001 96724 -9.1529e+001  2.6160e+001  6.1396e+000 36572 96519,96571,96545
 3.0000e-001 96701 -3.2631e+001  4.9830e+001  3.1227e+001 36572 96597,96649,96623
 3.0000e-001 96888 -5.8994e+001  4.4912e+000 -1.6457e+000 36572 96675,96649,96862
 3.0000e-001 96911 -6.0178e+001  2.4586e+000 -3.1492e+000 36572 96934,96675,96862
 3.0000e-001 96960 -5.0566e+001  1.2366e-002 -1.9010e+000 36572 96519,96467,96934
 3.0000e-001 96983 -5.3061e+001 -2.6670e-001 -1.2092e+000 36572 97078,96934,96862
 3.0000e-001 97032 -5.5705e+001 -2.5616e+000 -3.0929e+000 36572 97078,96862,97006
 3.0000e-001 97055 -6.0423e+001 -2.7678e+000 -1.0745e+001 36572 96519,97006,96571
 3.0000e-001 97104 -5.4086e+001 -3.3671e+000 -3.2794e+000 36572 96519,96934,97078
 3.0000e-001 97127 -5.4103e+001 -4.4393e+000 -4.6445e+000 36572 96519,97078,97006
 3.0000e-001 97761 -4.7395e+001  9.9586e+000  7.8740e+000 36118 97784,97493,97415
 3.0000e-001 97738 -5.1584e+001  1.3185e+001  4.3785e+000 36118 97784,97415,97597
 3.0000e-001 97715 -1.0567e+002  2.3137e+001  5.0847e+001 36118 97389,97597,97415
 3.0000e-001 97692 -9.5273e+001 -4.1967e+001  2.4382e+001 36118 97415,97467,97441
 3.0000e-001 97669 -8.9602e+001 -4.0463e+001  2.9321e+001 36118 97415,97493,97467
 3.0000e-001 97646 -5.9534e+001 -3.8376e+001 -1.5881e+001 36118 97493,97571,97519
 3.0000e-001 97623 -6.8564e+000  4.6291e+001  1.1580e+001 36118 97519,97571,97545
 3.0000e-001 97810 -5.0107e+001  6.9694e+000  6.4221e+000 36118 97571,97493,97784
 3.0000e-001 97833 -5.6651e+001  8.0548e+000  2.2834e+000 36118 97571,97784,97597
 3.0000e-001 98081 -1.4437e+001  2.4703e-001  1.5495e+001 35564 98104,97908,97856
 3.0000e-001 98058 -2.1181e+001 -1.1362e+001  1.8247e+001 35564 98104,97856,97986
 3.0000e-001 98035 -5.1955e+001 -2.1588e+001  1.7727e+001 35564 97934,97986,97960
 3.0000e-001 98012 -1.7847e-001  4.3606e+001 -7.0695e+000 35564 97856,97908,97882
 3.0000e-001 98130 -1.9570e+001  4.2440e+001  1.7345e+001 35564 97934,97908,98104
 3.0000e-001 98153 -3.6751e+001  4.5643e+000  2.4117e+001 35564 97934,98104,97986
 3.0000e-001 98374 -4.5219e+001  1.4485e+001 -4.0774e+000 35152 98224,98302,98276
 3.0000e-001 98351 -2.1814e+001  7.2580e+001 -7.5562e+000 35152 98198,98302,98224
 3.0000e-001 98328 -2.1821e+001  2.0724e+001 -8.1540e+000 35152 98224,98276,98250
 3.0000e-001 98884 -3.1312e+001  2.2985e+001  6.8967e+000 34698 98691,98743,98717
 3.0000e-001 98861 -3.6377e+001  1.7020e+001 -1.2873e+000 34698 98561,98743,98691
 3.0000e-001 98838 -4.5601e+001  7.5849e+000  8.0998e+000 34698 98907,98587,98561
 3.0000e-001 98815 -3.5116e+001  2.3281e+001 -2.4927e+000 34698 98907,98561,98691
 3.0000e-001 98792 -1.4358e+001  5.0904e+001 -7.8091e+000 34698 98587,98639,98613
 3.0000e-001 98769 -3.3247e+001  6.4454e+000 -5.3111e+000 34698 98587,98665,98639
 3.0000e-001 98933 -4.0114e+001  1.7017e+001 -7.3793e+000 34698 98665,98587,98907
 3.0000e-001 98956 -2.4199e+001  4.1649e+001 -1.8828e+001 34698 98665,98907,98691
 3.0000e-001 99204 -5.0484e+001  2.0124e+001  7.2159e-001 34144 99227,99031,99005
 3.0000e-001 99181 -6.4654e+001  8.5017e+000  7.5635e+000 34144 99299,99227,99005
 3.0000e-001 99158 -6.8505e+001  8.7107e+000  1.0269e+001 34144 99299,99005,99109
 3.0000e-001 99135 -5.8556e+001  1.6747e+001  1.3739e+001 34144 98979,99109,99005
 3.0000e-001 99253 -5.7964e+001  3.3669e+001 -8.5182e+000 34144 99057,99031,99227
 3.0000e-001 99276 -5.9126e+001  2.2124e+001 -3.0075e+000 34144 99057,99227,99083
 3.0000e-001 99325 -5.7595e+001  1.4388e+001 -4.4238e+000 34144 99083,99227,99299
 3.0000e-001 99348 -7.2668e+001  9.6809e+000 -2.0271e+000 34144 99083,99299,99109
 3.0000e-001 99498 -1.3432e+002  2.4609e+001  1.4598e+001 33433 99397,99449,99423
 3.0000e-001 99475 -1.8354e+002 -4.6851e+001 -7.5064e+000 33433 99371,99449,99397
 3.0000e-001 100008 -3.9847e+001  2.5786e+001  7.4302e-001 32979 100103,100031,99815
 3.0000e-001 99985 -4.9289e+001  3.7866e+001 -1.5809e+000 32979 100175,100031,99763
 3.0000e-001 99962 -3.6017e+001  2.5362e+001 -3.7439e-001 32979 100103,99815,99789
 3.0000e-001 99939 -4.5901e+001  5.2038e+001 -1.0005e+000 32979 100175,99763,99737
 3.0000e-001 99916 -3.5804e+001  4.7236e+001  1.6640e-001 32979 99685,99867,99737
 3.0000e-001 99893 -2.6931e+001  5.7795e+001 -5.3670e+000 32979 99685,99737,99711
 3.0000e-001 100057 -3.5719e+001  2.8204e+001 -1.1331e+000 32979 99841,99815,100031
 3.0000e-001 100080 -4.1788e+001  1.9913e+001 -7.3110e+000 32979 99841,100031,99867
 3.0000e-001 100129 -4.6852e+001  2.5850e+001  3.3544e+000 32979 99763,100031,100103
 3.0000e-001 100152 -4.0880e+001  2.6339e+001  2.9066e+000 32979 99763,100103,99789
 3.0000e-001 100201 -4.6712e+001  3.1305e+001 -8.8670e+000 32979 99867,100031,100175
 3.0000e-001 100224 -4.5196e+001  3.8774e+001 -5.9530e+000 32979 99867,100175,99737
 3.0000e-001 100553  3.5850e+001  6.3551e+000  3.2745e+001 32503 100354,100406,100380
 3.0000e-001 100530 -3.8809e+000  3.2489e+001  9.6386e-002 32503 100328,100406,100354
 3.0000e-001 100507 -1.3837e+001  4.7439e-001 -4.5838e+000 32503 100328,100458,100406
 3.0000e-001 100484 -2.9232e+000  2.9033e-001  6.7708e-001 32503 100406,100458,100432
 3.0000e-001 100850 -4.5566e+001  1.9914e+001  6.3697e+000 31899 100873,100654,100628
 3.0000e-001 100827 -4.5178e+001  1.1913e+001 -2.4329e-001 31899 100945,100873,100628
 3.0000e-001 100804 -3.8269e+001  1.8771e+000  2.4167e+000 31899 100945,100628,100602
 3.0000e-001 100781 -4.9912e+001 -4.3792e+000  1.2230e+001 31899 100576,100732,100602
 3.0000e-001 100758 -1.2143e+001 -9.3240e-001  1.9458e+000 31899 100654,100706,100680
 3.0000e-001 100899 -1.2175e+001  7.6503e+000 -1.4345e+000 31899 100706,100654,100873
 3.0000e-001 100922 -5.5813e+001 -2.1438e+000 -9.3293e+000 31899 100706,100873,100732
 3.0000e-001 100971 -5.3575e+001  1.3078e+000  4.2368e+000 31899 100732,100873,100945
 3.0000e-001 100994 -4.6002e+001 -8.5524e+000  6.5938e+000 31899 100732,100945,100602
 3.0000e-001 101551 -7.3101e+001  8.9189e+000  1.3089e+000 31338 101205,101387,101231
 3.0000e-001 101528 -8.2058e+001  1.9148e+000 -3.2573e+001 31338 101179,101387,101205
 3.0000e-001 101505 -4.9418e+001 -1.7690e+001 -3.6610e+000 31338 101574,101309,101257
 3.0000e-001 101482 -3.7890e+001 -8.0554e+000  4.6432e-001 31338 101646,101574,101257
 3.0000e-001 101459 -2.5141e+001  1.4055e+000  1.0618e+001 31338 101646,101257,101231
 3.0000e-001 101436 -3.9932e+001 -5.2875e+000 -9.0427e+000 31338 101309,101361,101335
 3.0000e-001 101413 -4.0318e+001 -1.2597e+001 -6.0603e+000 31338 101257,101309,101283
 3.0000e-001 101600 -4.0538e+001 -1.1166e+001 -8.0609e+000 31338 101361,101309,101574
 3.0000e-001 101623 -5.7888e+001 -2.5235e+001 -1.5933e+001 31338 101361,101574,101387
 3.0000e-001 101672 -5.4243e+001 -8.4033e+000 -8.0161e+000 31338 101387,101574,101646
 3.0000e-001 101695 -4.3601e+001 -7.7442e+000 -4.5294e-001 31338 101387,101646,101231
 3.0000e-001 101943 -7.3805e+001  7.7232e+000  1.5900e+000 30748 101966,101796,101744
 3.0000e-001 101920 -8.1224e+001  1.8599e+001  3.3418e+000 30748 101966,101744,101718
 3.0000e-001 101897 -6.7962e+001  3.1838e+001  4.0907e+000 30748 101718,101848,101822
 3.0000e-001 101874 -5.7423e+001  1.1424e+001  3.6258e+000 30748 101744,101796,101770
 3.0000e-001 101992 -7.1688e+001  1.5284e+001  5.4370e-001 30748 101822,101796,101966
 3.0000e-001 102015 -7.7247e+001  2.7869e+001  8.4080e-001 30748 101822,101966,101718
 3.0000e-001 102493 -7.3407e+001 -6.3108e+000  9.9966e+000 30344 102516,102173,102147
 3.0000e-001 102470 -5.3845e+001  1.3040e+001 -5.0261e+000 30344 102660,102516,102147
 3.0000e-001 102447 -4.1983e+001  5.0550e+000  1.6653e+000 30344 102588,102199,102173
 3.0000e-001 102424 -4.7916e+001  2.5162e+001 -9.0857e+000 30344 102660,102147,102329
 3.0000e-001 102401 -1.0492e+002 -2.1493e+001 -7.9566e+000 30344 102199,102277,102251
 3.0000e-001 102378 -3.2628e+001 -2.0720e+001  3.6021e+000 30344 102199,102251,102225
 3.0000e-001 102355 -4.9577e+001  2.9804e+001  2.3470e+001 30344 102121,102329,102147
 3.0000e-001 102542 -4.6849e+001  5.7038e+000  1.8736e+000 30344 102588,102173,102516
 3.0000e-001 102565 -5.3028e+001 -6.2976e+000 -9.3486e-001 30344 102277,102516,102303
 3.0000e-001 102614 -4.7651e+001  5.5959e+000  1.0713e+000 30344 102277,102199,102588
 3.0000e-001 102637 -5.3114e+001  5.3639e+000  2.2653e-001 30344 102277,102588,102516
 3.0000e-001 102686 -4.5510e+001 -2.6592e+000 -2.0987e+000 30344 102303,102516,102660
 3.0000e-001 102709 -4.3888e+001  6.1010e+000 -4.1189e+000 30344 102303,102660,102329
 3.0000e-001 103294 -3.8044e+001  2.1703e+001 -1.0424e+000 29726 103317,103101,103075
 3.0000e-001 103271 -3.5972e+001  1.6873e+001 -5.2593e-002 29726 103317,103075,102997
 3.0000e-001 103248 -7.7215e+001  1.4207e+001  2.8087e+001 29726 102971,103153,102997
 3.0000e-001 103225 -1.2716e+001  7.9545e+001 -9.8619e+000 29726 103101,103153,103127
 3.0000e-001 103202 -4.1816e+001  2.7716e+001  6.6847e+000 29726 102997,103075,103023
 3.0000e-001 103179  7.2961e+000  3.2675e+001  1.5025e+001 29726 103023,103075,103049
 3.0000e-001 103343 -4.0258e+001  1.8394e+001  4.8020e-002 29726 103153,103101,103317
 3.0000e-001 103366 -3.7287e+001  1.4914e+001  8.7944e-001 29726 103153,103317,102997
 3.0000e-001 103614 -3.8420e+001 -1.9019e+001 -3.5378e-001 29200 103781,103637,103467
 3.0000e-001 103591 -3.6766e+001 -8.3710e+000 -1.4508e+000 29200 103709,103637,103415
 3.0000e-001 103568 -2.6161e+001  1.3959e+001  2.1336e+000 29200 103709,103415,103389
 3.0000e-001 103545 -3.9950e+001 -1.9998e+001  7.8142e-002 29200 103781,103467,103441
 3.0000e-001 103663 -9.4951e+000 -3.5820e-001 -1.5210e+001 29200 103853,103637,103493
 3.0000e-001 103686 -6.6929e+001 -3.6343e+001 -3.6829e+001 29200 103493,103637,103519
 3.0000e-001 103735 -5.1172e+001  1.7116e+001 -1.4631e+001 29200 103519,103637,103709
 3.0000e-001 103758 -4.4558e+001  3.2396e+001 -1.2081e+001 29200 103519,103709,103389
 3.0000e-001 103807 -4.0452e+001 -1.4536e+001 -4.9966e+000 29200 103415,103637,103781
 3.0000e-001 103830 -4.6619e+001 -1.7641e+001 -3.8795e+000 29200 103415,103781,103441
 3.0000e-001 103879 -2.9165e+001 -1.5860e+001 -4.0882e+000 29200 103467,103637,103853
 3.0000e-001 104545 -9.7463e+001 -2.1350e+001  6.8182e+000 28860 104274,104352,104326
 3.0000e-001 104522 -7.5244e+001 -2.9177e+001 -1.1861e+000 28860 104248,104352,104274
 3.0000e-001 104499 -5.1644e+001 -1.7210e+001 -5.5714e+000 28860 104248,104404,104352
 3.0000e-001 104476 -8.5793e+001 -4.7829e+001 -1.8424e+001 28860 104222,104404,104248
 3.0000e-001 104453 -5.9925e+001 -3.3503e+001 -2.6183e+000 28860 104352,104404,104378
 3.0000e-001 104430 -1.4172e+002 -3.0247e+001  2.4479e+000 28860 104274,104326,104300
 3.0000e-001 104744 -4.3385e+001 -6.9982e+000  7.4756e-001 28456 104839,104767,104646
 3.0000e-001 104721 -2.8241e+001 -6.7649e+000  8.1455e+000 28456 104767,104594,104568
 3.0000e-001 104698 -3.7029e+001 -1.5690e+001 -6.2122e+000 28456 104839,104646,104620
 3.0000e-001 104793 -6.1992e+001 -1.2997e+001  5.7290e-001 28456 104672,104646,104767
 3.0000e-001 104816 -3.3861e+001 -6.3236e+000  7.5141e-001 28456 104911,104767,104568
 3.0000e-001 104865 -4.7515e+001 -1.3379e+001  2.9150e+000 28456 104594,104767,104839
 3.0000e-001 104888 -4.6053e+001 -3.4459e+001 -2.9339e+000 28456 105041,104839,104620
 3.0000e-001 104937 -5.1721e+001 -3.0464e+001  1.0096e+001 28456 104672,104767,104911
 3.0000e-001 105067 -3.6197e+001 -7.7643e+000  3.5784e-001 28456 104594,104839,105041
 3.0000e-001 105573 -7.5420e+001 -2.2852e+001  5.3839e+000 28094 105812,105596,105328
 3.0000e-001 105550 -6.8634e+001 -2.8861e+001  1.4552e+000 28094 105596,105276,105250
 3.0000e-001 105527 -7.5686e+001 -2.7615e+001  9.7262e+000 28094 105740,105668,105432
 3.0000e-001 105504 -6.9339e+001 -2.4780e+001  3.8986e+000 28094 105740,105432,105380
 3.0000e-001 105481 -7.5708e+001 -2.2693e+001  5.2516e+000 28094 105812,105328,105302
 3.0000e-001 105458 -4.2478e+001 -2.8575e+001  9.4413e-001 28094 105380,105432,105406
 3.0000e-001 105622 -8.9275e+001 -3.3768e+001  1.1731e+001 28094 105354,105328,105596
 3.0000e-001 105645 -7.3973e+001 -2.6315e+001  4.9915e+000 28094 105668,105354,105596
 3.0000e-001 105694 -7.7687e+001 -4.1192e+001  1.3721e+001 28094 105250,105432,105668
 3.0000e-001 105717 -7.5100e+001 -3.0672e+001  4.6153e+000 28094 105250,105668,105596
 3.0000e-001 105766 -6.3154e+001 -2.6414e+001  2.2890e+000 28094 105354,105668,105740
 3.0000e-001 105789 -5.8007e+001 -2.1651e+001 -4.1737e+000 28094 105354,105740,105380
 3.0000e-001 105838 -7.3719e+001 -2.7477e+001  5.5136e+000 28094 105276,105596,105812
 3.0000e-001 105861 -6.4219e+001 -2.1114e+001  1.6731e+000 28094 105276,105812,105302
 3.0000e-001 106367  1.1078e+000 -3.1319e+000 -2.7833e+000 27390 106070,106122,106096
 3.0000e-001 106344 -1.7546e+001 -1.0164e+000  3.3838e+000 27390 106070,106226,106122
 3.0000e-001 106321 -3.7970e+001  7.2742e+000 -6.8726e+000 27390 106174,106226,106200
 3.0000e-001 106298 -2.9362e+001 -9.8629e+000 -7.3769e+000 27390 106122,106226,106174
 3.0000e-001 106275 -2.7741e+001 -8.3546e+000 -2.3080e-002 27390 106122,106174,106148
 3.0000e-001 106252  8.2765e-001  5.2597e+000 -1.3622e+000 27390 106044,106226,106070
 3.0000e-001 106615 -4.2818e+001 -1.3085e+000 -2.7271e+000 26978 106638,106494,106416
 3.0000e-001 106592 -4.7139e+001 -6.2636e+000 -4.6134e+000 26978 106638,106416,106390
 3.0000e-001 106569 -3.8790e+001 -5.8622e-001 -5.1346e+000 26978 106416,106494,106442
 3.0000e-001 106546 -4.8970e+001 -3.8506e+000 -5.6635e+000 26978 106442,106494,106468
 3.0000e-001 106664 -3.0129e+001 -6.9896e+000 -5.8674e-001 26978 106520,106494,106638
 3.0000e-001 106687 -3.9694e+001 -1.5334e+001 -4.4371e+000 26978 106520,106638,106390
 3.0000e-001 106837 -1.0816e+002 -5.1132e+001 -1.0235e+000 26524 106710,106762,106736
 3.0000e-001 106814 -1.1005e+002 -5.3446e+001 -1.9715e-001 26524 106710,106788,106762
 3.0000e-001 107426 -2.9462e+001 -8.6642e-002 -1.0902e+001 26120 107129,107207,107155
 3.0000e-001 107403 -4.2625e+001 -1.8305e+001 -5.1573e+000 26120 107129,107285,107207
 3.0000e-001 107380 -3.9550e+001 -9.2484e+000 -5.8415e+000 26120 107207,107285,107259
 3.0000e-001 107357 -4.5992e+001 -1.1057e+001 -3.0048e+000 26120 107155,107207,107181
 3.0000e-001 107334 -5.4642e+001 -2.4036e+001 -6.8817e+000 26120 107103,107285,107129
 3.0000e-001 107311 -3.4322e+001 -3.9940e+000 -3.6935e+000 26120 107207,107259,107233
 3.0000e-001 107755 -4.4188e+001 -1.4708e+001 -5.8174e+000 25758 107556,107634,107608
 3.0000e-001 107732 -6.6547e+001 -3.2453e+001  2.1372e+000 25758 107556,107660,107634
 3.0000e-001 107709 -3.6484e+001 -2.1423e+001  2.5885e+000 25758 107556,107608,107582
 3.0000e-001 107686 -6.0785e+001 -1.1051e+001  9.0869e+000 25758 107530,107660,107556
 3.0000e-001 108438 -3.4875e+001 -1.5728e+001  2.8318e+000 25468 108121,108199,108173
 3.0000e-001 108415 -3.9356e+001 -2.7964e+001  9.1434e-001 25468 108095,108199,108121
 3.0000e-001 108392 -4.3881e+001 -2.3845e+001 -6.3212e-001 25468 108095,108251,108199
 3.0000e-001 108369 -4.5999e+001 -2.1025e+001  1.6914e+000 25468 108069,108251,108095
 3.0000e-001 108346 -4.0882e+001 -2.4018e+001  6.5433e+000 25468 108199,108251,108225
 3.0000e-001 108323 -5.2838e+001 -1.6323e+001 -3.2122e+000 25468 108017,108251,108069
 3.0000e-001 108300 -3.3956e+001 -1.4035e+001  3.1959e+000 25468 108121,108173,108147
 3.0000e-001 108277 -4.9735e+001 -1.8573e+001 -6.4825e+000 25468 108017,108069,108043
 3.0000e-001 108588 -1.9405e+001 -6.5050e+000 -4.9420e+000 25064 108611,108513,108487
 3.0000e-001 108565  1.5857e+000  5.8407e+000  1.3346e-001 25064 108683,108611,108487
 3.0000e-001 108637 -2.8277e+001  2.9466e+000  1.8886e+000 25064 108539,108513,108611
 3.0000e-001 108660 -2.2105e+001  9.0858e+000  5.2727e+000 25064 108539,108611,108461
 3.0000e-001 108709 -2.7513e+001 -2.5188e+000  3.4978e+000 25064 108461,108611,108683
 3.0000e-001 109345 -3.5525e+001 -6.7252e+000  6.9477e+000 24410 108999,109155,109103
 3.0000e-001 109322 -8.3946e+001 -2.5238e+001  8.0243e+000 24410 108973,109155,108999
 3.0000e-001 109299 -5.1168e+001 -2.7316e+001  1.3021e-001 24410 109103,109155,109129
 3.0000e-001 109276 -5.1621e+001  1.4139e+001 -8.5347e+000 24410 108973,109181,109155
 3.0000e-001 109253 -7.8742e+001 -2.1090e+001  1.5229e+001 24410 109025,109103,109077
 3.0000e-001 109230 -5.6812e+001 -1.4749e+001  1.1731e+001 24410 108999,109103,109025
 3.0000e-001 109207 -6.7262e+001  3.1785e+000  6.5481e+000 24410 109025,109077,109051
 3.0000e-001 109723 -3.2086e+001  3.3412e+001 -1.3858e+001 23856 109475,109579,109553
 3.0000e-001 109700 -5.1285e+001 -9.6410e+000 -6.8853e+000 23856 109475,109605,109579
 3.0000e-001 109677 -5.6654e+001 -2.1597e+001 -1.9981e+001 23856 109475,109553,109527
 3.0000e-001 109654 -3.2701e+001 -1.8184e+000  4.7623e+000 23856 109449,109605,109475
 3.0000e-001 109631 -5.6310e+001 -6.2174e+000 -1.2987e+001 23856 109475,109527,109501
 3.0000e-001 110101 -4.5711e+001 -8.2914e+000  2.0924e+000 23566 109853,109931,109879
 3.0000e-001 110078 -4.4040e+001 -4.4077e+000  5.8821e+000 23566 109827,109931,109853
 3.0000e-001 110055 -2.5678e+001  1.2279e+001 -1.1469e+000 23566 109827,109983,109931
 3.0000e-001 110032 -4.5662e+001 -1.1091e+001 -2.7599e-001 23566 109879,109931,109905
 3.0000e-001 110009 -2.3471e+001  8.1811e+000  7.3207e+000 23566 109931,109983,109957
 3.0000e-001 110735 -1.6067e+001  6.7876e-001 -1.9037e+000 23162 110415,110571,110519
 3.0000e-001 110712 -1.8381e+000 -4.6299e+000  2.7602e+000 23162 110389,110571,110415
 3.0000e-001 110689 -3.4996e+001 -5.1050e+000  6.9577e+000 23162 110415,110519,110493
 3.0000e-001 110666  1.5571e+000 -6.6369e+000 -2.7142e+000 23162 110363,110571,110389
 3.0000e-001 110643 -1.7334e+000 -8.8246e-001  9.4525e-001 23162 110441,110493,110467
 3.0000e-001 110620  1.5788e+000  2.0296e+000  2.6652e+000 23162 110415,110493,110441
 3.0000e-001 110597 -2.8968e+001 -1.2921e+000  5.0859e+000 23162 110519,110571,110545
 3.0000e-001 111211 -5.6678e+001 -9.4012e+000 -4.2154e+000 22708 111378,111306,111021
 3.0000e-001 111188 -6.6174e+001 -9.8645e+000 -6.9467e+000 22708 111234,110969,110917
 3.0000e-001 111165 -5.2798e+001 -9.2785e+000 -4.5166e+000 22708 111450,111234,110917
 3.0000e-001 111142 -5.1692e+001 -1.5636e+000  1.6388e+000 22708 111378,111021,110995
 3.0000e-001 111119 -5.2699e+001 -1.5112e+001  1.5375e+000 22708 111450,110917,110865
 3.0000e-001 111096 -1.0897e+002  5.1241e+000 -1.9015e+001 22708 110917,110969,110943
 3.0000e-001 111073 -5.2158e+001 -1.9373e+001 -2.7979e-001 22708 110865,110917,110891
 3.0000e-001 111260 -6.6831e+001 -3.2025e+000 -3.8745e+000 22708 111306,110969,111234
 3.0000e-001 111283 -6.3560e+001 -1.6104e+001  5.3470e+000 22708 111047,111234,110839
 3.0000e-001 111332 -9.6143e+001  1.6977e+001 -3.2087e+001 22708 111047,111021,111306
 3.0000e-001 111355 -7.4132e+001 -7.9342e+000  5.7531e+000 22708 111047,111306,111234
 3.0000e-001 111404 -6.5093e+001  1.7352e+000 -4.4557e+000 22708 110969,111306,111378
 3.0000e-001 111427 -6.3459e+001 -1.2499e+000 -2.7971e+000 22708 110969,111378,110995
 3.0000e-001 111476 -5.8487e+001 -1.7843e+001  2.2168e+000 22708 110839,111234,111450
 3.0000e-001 111499 -6.1582e+001 -2.7042e+001  8.7736e+000 22708 110839,111450,110865
 3.0000e-001 111600 -3.9792e+001  1.3628e+000 -8.1897e-001 22460 111522,111574,111548
 3.0000e-001 112059 -2.3860e+001  8.7436e+000 -3.1263e+000 22056 111811,111889,111863
 3.0000e-001 112036 -3.9821e+001 -4.7185e+000  2.6309e+000 22056 111811,111915,111889
 3.0000e-001 112013 -1.5325e+001 -7.5688e+000 -1.1184e+001 22056 111785,111915,111811
 3.0000e-001 111990 -3.4813e+001 -5.9549e+000 -1.8766e+001 22056 111785,111941,111915
 3.0000e-001 111967  3.3771e+000  2.9464e+001 -1.7427e+001 22056 111811,111863,111837
 3.0000e-001 112486 -4.8309e+001  1.7487e+001  7.0508e+000 21594 112509,112267,112215
 3.0000e-001 112463 -3.0527e+001  2.7338e+001 -6.6560e+000 21594 112509,112215,112163
 3.0000e-001 112440 -3.9136e+001 -7.0091e+000  2.8295e+001 21594 112581,112293,112267
 3.0000e-001 112417 -1.0406e+001  2.6188e+001 -5.1693e+000 21594 112215,112267,112241
 3.0000e-001 112394 -4.6522e+001  8.9044e+000 -3.3452e+000 21594 112163,112345,112319
 3.0000e-001 112371 -3.0230e+001  1.2130e+001 -1.4188e+000 21594 112163,112215,112189
 3.0000e-001 112535 -5.4818e+001  7.4221e+000  1.4025e+001 21594 112581,112267,112509
 3.0000e-001 112558 -4.0916e+001  8.4228e+000 -2.5211e+000 21594 112319,112509,112163
 3.0000e-001 112607 -1.2510e+001  6.8515e+000  2.3069e+001 21594 112319,112293,112581
 3.0000e-001 112630 -2.7584e+001  2.4839e+001  6.4826e+000 21594 112319,112581,112509
 3.0000e-001 112900 -6.6817e+001 -8.5976e+000 -1.9532e+000 20974 112675,112779,112701
 3.0000e-001 112877 -6.6096e+001 -3.8309e-001 -6.3344e+000 20974 112675,112805,112779
 3.0000e-001 112854 -7.5240e+001 -2.5541e+001 -7.2654e+000 20974 112701,112779,112753
 3.0000e-001 112831 -9.6525e+001 -6.4404e+001  1.4416e+001 20974 112701,112753,112727
 3.0000e-001 113359 -3.4166e+001  3.5786e+001  3.1484e+001 20520 113454,113137,113111
 3.0000e-001 113336 -5.6780e+001  4.6627e+000  1.4821e+001 20520 113454,113111,113085
 3.0000e-001 113313 -3.6954e+001 -6.0511e+000  2.4563e+001 20520 113382,113163,113137
 3.0000e-001 113290 -4.7466e+001 -1.3709e+001  2.1216e+001 20520 113526,113382,113137
 3.0000e-001 113267 -3.2386e+001 -1.2124e+000  6.6138e+000 20520 113189,113241,113215
 3.0000e-001 113408 -3.9242e+001 -8.9355e+000  1.8776e+001 20520 113189,113163,113382
 3.0000e-001 113431 -4.3941e+001 -1.4478e+001  1.1719e+001 20520 113189,113382,113241
 3.0000e-001 113480 -5.3084e+001 -3.1445e+000  1.7471e+001 20520 113526,113137,113454
 3.0000e-001 113503 -4.8269e+001 -7.5233e+000  4.4669e+000 20520 113241,113454,113085
 3.0000e-001 113552 -3.6269e+001  1.7921e+000  1.5154e+001 20520 113241,113382,113526
 3.0000e-001 113575 -4.1970e+001  1.0202e+001  1.1056e+001 20520 113241,113526,113454
 3.0000e-001 113904 -1.0222e+001 -7.1394e+000 -1.1778e+001 19858 113705,113783,113757
 3.0000e-001 113881  1.8796e+000  8.7791e+000 -1.7056e+001 19858 113705,113809,113783
 3.0000e-001 113858 -3.6514e+001 -1.0514e+001 -5.8415e+000 19858 113679,113809,113705
 3.0000e-001 113835 -9.8136e+000  2.3194e+000  9.4286e-001 19858 113705,113757,113731
 3.0000e-001 114152 -6.0110e+001 -2.3948e+001 -1.7170e+001 19454 114175,114005,113979
 3.0000e-001 114129 -6.2524e+001 -2.3671e+001 -1.8002e+001 19454 114175,113979,114057
 3.0000e-001 114106 -6.1134e+001 -5.6015e+000  6.1438e+000 19454 113927,114057,113979
 3.0000e-001 114083 -5.1489e+001 -1.4594e+001 -5.0628e+000 19454 113927,113979,113953
 3.0000e-001 114201 -8.1561e+000 -1.6682e+000 -9.8063e+000 19454 114031,114005,114175
 3.0000e-001 114224 -6.0953e+001 -2.6648e+001 -1.7627e+001 19454 114031,114175,114057
 3.0000e-001 114472 -4.9561e+001  6.1049e+000 -1.3628e+001 19000 114495,114273,114247
 3.0000e-001 114449 -4.2023e+001 -2.7578e+000 -7.6909e+000 19000 114495,114247,114325
 3.0000e-001 114426 -5.0732e+001 -1.4133e+001 -3.0027e+000 19000 114247,114377,114325
 3.0000e-001 114403 -4.6995e+001 -7.6922e+000  2.5555e-001 19000 114325,114377,114351
 3.0000e-001 114521 -6.8269e+001 -2.3639e+000 -1.1009e+001 19000 114299,114273,114495
 3.0000e-001 114544 -4.6011e+001 -4.7665e+000 -6.9243e+000 19000 114299,114495,114325
 3.0000e-001 114948 -8.7735e+001 -3.2088e+001 -4.6284e+000 18560 114674,114726,114700
 3.0000e-001 114925 -9.0786e+001 -4.3880e+001 -3.0573e+000 18560 114674,114830,114726
 3.0000e-001 114902 -9.3498e+001 -5.1559e+001 -9.5304e+000 18560 114726,114830,114804
 3.0000e-001 114879 -6.8203e+001 -3.4908e+001 -2.7791e-001 18560 114726,114804,114752
 3.0000e-001 114856 -8.1431e+001 -4.2276e+001  4.4553e+000 18560 114752,114804,114778
 3.0000e-001 115098  2.3031e+001  7.1242e+001 -8.0034e+000 18156 114971,115023,114997
 3.0000e-001 115075  2.0153e+001  3.4106e+001 -6.0748e+000 18156 114971,115049,115023
 3.0000e-001 115248 -4.1617e+001  3.2134e+001 -7.9229e-001 17602 115147,115199,115173
 3.0000e-001 115225 -1.8198e+001  2.7600e+001 -2.4371e+000 17602 115121,115199,115147
 3.0000e-001 115652 -3.0591e+001  9.1211e+000 -4.3451e+000 17354 115430,115534,115508
 3.0000e-001 115629 -2.3096e+001  3.5143e+001 -9.6715e+000 17354 115404,115534,115430
 3.0000e-001 115606 -2.5644e+001  3.1801e+001 -1.2283e+001 17354 115378,115534,115404
 3.0000e-001 115583 -6.2353e+001  2.1132e+001  7.9801e+000 17354 115456,115508,115482
 3.0000e-001 115560 -2.1469e+001  2.8875e+001 -1.9998e+000 17354 115430,115508,115456
 3.0000e-001 115873 -6.6239e+001  2.6958e+000  5.0509e+000 16950 115749,115801,115775
 3.0000e-001 115850 -5.6250e+001  1.4218e+001  1.0026e+001 16950 115697,115801,115749
 3.0000e-001 115827 -6.6792e+001 -7.4201e+000  6.5891e+000 16950 115697,115749,115723
 3.0000e-001 116023 -7.3088e+001 -4.7448e+000  2.2844e+000 16496 115922,115974,115948
 3.0000e-001 116000 -5.2710e+001 -1.2861e+001  1.7489e-001 16496 115896,115974,115922
 3.0000e-001 116126 -6.2491e+001  5.3784e+001 -1.2895e+001 16298 116048,116100,116074
 3.0000e-001 116278 -9.3530e+001  1.1168e+001  4.0898e+000 15892 116151,116203,116177
 3.0000e-001 116255 -5.6450e+001  7.1798e+001 -1.4847e+001 15892 116151,116229,116203
 3.0000e-001 116430 -3.5941e+001 -4.0531e+001 -1.7893e+000 15545 116303,116355,116329
 3.0000e-001 116407 -1.6759e+001 -1.5529e+001  9.7323e+000 15545 116303,116381,116355
 3.0000e-001 116785 -2.1922e+001 -1.4863e+000  5.7750e+000 421 116612,116690,116664
 3.0000e-001 116762 -2.1703e+001 -9.4207e-001  6.8246e+000 421 116560,116690,116612
 3.0000e-001 116739 -8.4189e+000  7.2781e+000  1.1813e+000 421 116560,116612,116586
 3.0000e-001 116716 -7.9353e+000  2.8712e+001  1.3223e+001 421 116612,116664,116638
 4.0000e-001 68048 -1.3455e+002  1.1622e+001 -4.6441e-001 67642 67898,67950,67924
 4.0000e-001 68025 -1.4740e+002 -1.1554e+001  4.5682e+000 67642 67898,67976,67950
 4.0000e-001 68002 -9.6811e+001  1.2029e+001 -2.1214e+000 67642 67872,67976,67898
 4.0000e-001 68367 -9.9650e+001 -1.6980e+001 -2.6931e-001 67444 68119,68223,68197
 4.0000e-001 68344 -9.9191e+001 -1.3956e+001 -1.0379e-001 67444 68119,68249,68223
 4.0000e-001 68321 -6.9318e+001  3.2669e+000 -9.7426e+000 67444 68093,68249,68119
 4.0000e-001 68298 -1.0416e+002 -2.6937e+001 -1.6698e+000 67444 68119,68197,68171
 4.0000e-001 68275 -8.1475e+001  2.1973e+001  2.4769e+001 67444 68119,68171,68145
 4.0000e-001 68468 -1.0272e+002  2.8065e+000 -7.2033e+000 67268 68390,68442,68416
 4.0000e-001 68765 -1.0969e+002  7.1519e+000 -5.4781e+000 66956 68788,68517,68491
 4.0000e-001 68742 -1.0961e+002 -2.3607e+000 -7.4995e+000 66956 68788,68491,68621
 4.0000e-001 68719 -1.3729e+002 -8.3322e+000 -4.3604e+001 66956 68543,68621,68569
 4.0000e-001 68696 -1.0232e+002  1.9120e+001 -4.8265e+000 66956 68491,68647,68621
 4.0000e-001 68673 -2.1512e+002 -5.0056e+001 -6.8751e+001 66956 68569,68621,68595
 4.0000e-001 68814 -1.0654e+002 -1.9368e-001 -2.8272e+000 66956 68543,68517,68788
 4.0000e-001 68837 -1.0643e+002 -9.5853e+000 -5.6765e+000 66956 68543,68788,68621
 4.0000e-001 69107 -9.4735e+001 -2.1493e+001 -3.9442e+000 66758 68882,68986,68908
 4.0000e-001 69084 -7.6410e+001 -2.3527e+000  1.4187e+001 66758 68882,69012,68986
 4.0000e-001 69061 -1.3185e+002  1.2078e+001 -7.0891e+000 66758 68908,68960,68934
 4.0000e-001 69038 -8.5505e+001  3.5082e+000 -7.8294e+000 66758 68908,68986,68960
 4.0000e-001 69308 -1.0372e+002  2.8449e+001 -1.8221e+000 66560 69331,69184,69158
 4.0000e-001 69285 -1.1230e+002  1.8364e+001 -5.6636e+000 66560 69331,69158,69132
 4.0000e-001 69262 -1.0082e+002  2.0918e+001  1.3072e+001 66560 69184,69236,69210
 4.0000e-001 69357 -9.2607e+001  1.7677e+001  2.2658e+000 66560 69236,69184,69331
 4.0000e-001 69380 -1.0017e+002  6.7669e+000 -1.0305e+000 66560 69236,69331,69132
 4.0000e-001 69554 -1.0973e+002  3.5365e+001 -9.0120e+000 66270 69427,69479,69453
 4.0000e-001 69531 -1.2932e+002 -1.0243e+001 -1.8085e+001 66270 69427,69505,69479
 4.0000e-001 69804 -9.9636e+001 -2.1242e+001  9.1386e+000 66066 69579,69683,69657
 4.0000e-001 69781 -9.7536e+001 -1.7579e+001 -1.5905e+001 66066 69579,69709,69683
 4.0000e-001 69758 -1.0164e+002 -1.0689e+001  1.0800e+001 66066 69579,69657,69631
 4.0000e-001 69735 -9.5508e+001 -7.5327e-001  2.2713e+001 66066 69579,69631,69605
 4.0000e-001 70257 -1.1344e+002 -1.6537e+001 -1.6559e+000 65776 69960,70090,69986
 4.0000e-001 70234 -1.1107e+002 -5.9109e+000 -4.6536e+000 65776 69934,70090,69960
 4.0000e-001 70211 -6.9615e+001  1.4722e+001  2.1268e+000 65776 69934,70116,70090
 4.0000e-001 70188 -1.0444e+002  8.9737e+000  0.0000e+000 65776 70038,70090,70064
 4.0000e-001 70165 -9.9009e+001  1.6140e+001 -5.8580e+000 65776 69986,70090,70038
 4.0000e-001 70142 -1.1130e+002  1.9528e+001 -7.0963e+000 65776 69986,70038,70012
 4.0000e-001 70456 -6.8777e+001  4.1772e+000 -2.4526e+000 65372 70479,70306,70280
 4.0000e-001 70433 -6.2288e+001  9.0027e+000 -6.5785e+000 65372 70479,70280,70384
 4.0000e-001 70410 -5.8288e+001  4.8254e+000 -4.3270e+000 65372 70551,70332,70306
 4.0000e-001 70505 -6.0658e+001  6.1128e+000 -5.7540e+000 65372 70551,70306,70479
 4.0000e-001 70528 -5.6723e+001  6.0340e+000 -9.1726e+000 65372 70358,70479,70384
 4.0000e-001 70577 -6.0665e+001  2.4737e+000 -5.2823e+000 65372 70358,70332,70551
 4.0000e-001 70600 -6.3003e+001  3.3134e+000 -6.7928e+000 65372 70358,70551,70479
 4.0000e-001 70821 -5.4681e+001 -2.6402e+001 -7.3065e+000 65174 70645,70723,70671
 4.0000e-001 70798 -1.0391e+002 -4.0148e+001  6.4814e+000 65174 70645,70749,70723
 4.0000e-001 70775 -4.0740e+001 -8.2575e+000 -1.3528e+001 65174 70671,70723,70697
 4.0000e-001 71071 -4.5004e+001  4.8600e+000 -6.1752e+000 64770 71094,70898,70872
 4.0000e-001 71048 -5.1528e+001  1.2096e+000 -3.6630e+000 64770 71166,71094,70872
 4.0000e-001 71025 -5.6431e+001 -1.8233e+000 -4.9585e+000 64770 71166,70872,70846
 4.0000e-001 71002 -9.0306e+001  1.7285e+001  1.6345e+000 64770 70898,70950,70924
 4.0000e-001 71120 -4.9331e+001  1.3568e+001 -1.1541e+001 64770 70950,70898,71094
 4.0000e-001 71143 -5.0849e+001  4.4813e+000 -6.0482e+000 64770 70950,71094,70976
 4.0000e-001 71192 -4.7680e+001 -4.7426e+000 -7.7334e+000 64770 70976,71094,71166
 4.0000e-001 71215 -5.0452e+001 -6.2456e+000 -8.3934e+000 64770 70976,71166,70846
 4.0000e-001 71514 -9.6306e+001  3.5784e+000 -5.0767e+000 64572 71681,71537,71318
 4.0000e-001 71491 -1.0014e+002  6.3061e+000  3.6318e-001 64572 71537,71266,71240
 4.0000e-001 71468 -8.6026e+001  3.4342e+000  5.7464e+000 64572 71609,71396,71370
 4.0000e-001 71445 -9.4899e+001  1.6613e+000 -4.3337e+000 64572 71681,71318,71292
 4.0000e-001 71422 -8.1698e+001  3.9886e+001 -7.8150e+000 64572 71753,71344,71318
 4.0000e-001 71563 -8.9508e+001  1.7916e+001 -7.2062e+000 64572 71753,71318,71537
 4.0000e-001 71586 -9.0609e+001  8.1620e+000 -1.8950e-001 64572 71609,71370,71537
 4.0000e-001 71635 -9.2135e+001 -1.1998e+001  4.0082e+000 64572 71240,71396,71609
 4.0000e-001 71658 -9.5684e+001 -1.9945e+000 -2.1363e+000 64572 71240,71609,71537
 4.0000e-001 71707 -9.4806e+001  5.8782e+000 -4.4162e+000 64572 71266,71537,71681
 4.0000e-001 71730 -9.2256e+001  5.0004e+000 -3.0998e+000 64572 71266,71681,71292
 4.0000e-001 71779 -8.8189e+001  1.2078e+001 -3.7324e+000 64572 71370,71344,71753
 4.0000e-001 71802 -8.4433e+001  8.1387e+000 -2.2542e+000 64572 71370,71753,71537
 4.0000e-001 72052 -9.2895e+001 -1.3008e+001  5.3649e+000 64374 72075,71879,71827
 4.0000e-001 72029 -1.0063e+002 -1.1806e+001 -2.1338e+000 64374 72147,72075,71827
 4.0000e-001 72006 -9.7838e+001 -6.4561e+000  1.9191e+000 64374 72147,71827,71957
 4.0000e-001 71983 -7.6828e+001 -7.5497e+000 -4.1711e+000 64374 71827,71879,71853
 4.0000e-001 72101 -9.6750e+001 -1.4648e+001  7.0037e-001 64374 71905,71879,72075
 4.0000e-001 72124 -1.2105e+002 -1.4264e+001 -7.5933e+000 64374 71905,72075,71931
 4.0000e-001 72173 -1.0130e+002 -7.8497e-001  2.2664e-001 64374 71931,72075,72147
 4.0000e-001 72196 -1.0255e+002  2.2085e+000  2.6433e+000 64374 71931,72147,71957
 4.0000e-001 72649 -1.1102e+002 -2.0099e+001  1.6852e+000 63948 72352,72508,72482
 4.0000e-001 72626 -1.1321e+002 -4.4543e+001 -2.8108e+001 63948 72326,72508,72352
 4.0000e-001 72603 -1.0471e+002 -3.1778e+000  2.9275e+000 63948 72672,72430,72378
 4.0000e-001 72580 -9.3772e+001  2.9738e+001 -8.0992e+000 63948 72672,72378,72352
 4.0000e-001 72557 -9.9858e+001 -1.9657e+001  3.4382e+000 63948 72744,72456,72430
 4.0000e-001 72534 -1.0483e+002  3.7819e+001  3.9680e+001 63948 72378,72430,72404
 4.0000e-001 72698 -1.0204e+002 -1.5662e+001  5.9450e+000 63948 72744,72430,72672
 4.0000e-001 72721 -1.0805e+002 -5.9907e+000 -1.3460e+000 63948 72482,72672,72352
 4.0000e-001 72770 -1.0379e+002 -1.3263e+001  3.3789e+000 63948 72482,72456,72744
 4.0000e-001 72793 -1.0148e+002 -3.6044e+000  6.1500e+000 63948 72482,72744,72672
 4.0000e-001 72894 -9.4500e+001  7.7770e+001  7.7191e+000 63494 72816,72868,72842
 4.0000e-001 73093 -3.5709e+001  7.1205e+001 -1.0920e+001 63132 72943,72995,72969
 4.0000e-001 73070 -1.1771e+002  3.5868e+001 -1.4859e+001 63132 72943,73021,72995
 4.0000e-001 73047 -1.1792e+002 -1.3431e+001 -2.2317e+000 63132 72917,73021,72943
 4.0000e-001 73294 -7.7459e+001  8.9967e-001  1.7960e+000 62792 73317,73144,73118
 4.0000e-001 73271 -7.2377e+001  1.0489e+001 -2.5930e+000 62792 73317,73118,73222
 4.0000e-001 73248 -6.1273e+001 -2.4867e+001 -2.1631e-001 62792 73144,73196,73170
 4.0000e-001 73343 -7.0452e+001 -7.2975e+000 -8.8748e+000 62792 73196,73144,73317
 4.0000e-001 73366 -6.3298e+001  7.6453e+000 -1.3780e+001 62792 73196,73317,73222
 4.0000e-001 73616 -1.1239e+002 -1.7197e+001  3.7853e+000 62388 73639,73417,73391
 4.0000e-001 73593 -1.0206e+002  5.7604e+000 -3.6164e+000 62388 73711,73639,73391
 4.0000e-001 73570 -9.8688e+001  3.3722e+001 -6.0607e+000 62388 73711,73391,73521
 4.0000e-001 73547 -9.7292e+001 -1.9649e+000 -2.0885e+001 62388 73469,73521,73495
 4.0000e-001 73665 -9.3778e+001 -1.0629e+001 -6.5418e+000 62388 73443,73417,73639
 4.0000e-001 73688 -1.0072e+002 -1.2455e+001 -9.8023e+000 62388 73443,73639,73469
 4.0000e-001 73737 -9.8525e+001 -1.3653e+001 -8.6122e+000 62388 73469,73639,73711
 4.0000e-001 73760 -1.0498e+002 -2.8106e-001 -6.4826e+000 62388 73469,73711,73521
 4.0000e-001 74010 -1.1090e+002 -4.1948e+001 -1.1769e+001 61848 74033,73837,73811
 4.0000e-001 73987 -5.9036e+001 -3.3564e+001  5.0555e+000 61848 74033,73811,73785
 4.0000e-001 73964 -1.0760e+002 -2.1515e+001  5.5846e+000 61848 73837,73915,73889
 4.0000e-001 73941 -1.3470e+002 -1.1864e+001 -8.3344e+000 61848 73837,73889,73863
 4.0000e-001 74059 -1.1646e+002 -2.6450e+001 -7.4816e-001 61848 73915,73837,74033
 4.0000e-001 74082 -1.1171e+002 -1.6547e+001  5.0607e+000 61848 73915,74033,73785
 4.0000e-001 74283 -9.1353e+001  1.0876e+001 -3.1015e+001 61444 74306,74133,74107
 4.0000e-001 74260 -1.0021e+002  1.6098e+001  1.3104e+000 61444 74306,74107,74211
 4.0000e-001 74237 -1.2451e+002  1.9165e+000 -8.9671e+000 61444 74378,74185,74159
 4.0000e-001 74332 -1.2139e+002 -2.0866e+000 -3.3166e+001 61444 74159,74133,74306
 4.0000e-001 74355 -1.1333e+002  7.2105e+000 -4.0523e+000 61444 74378,74159,74306
 4.0000e-001 74404 -1.1871e+002  7.5506e+000 -2.0807e+000 61444 74211,74185,74378
 4.0000e-001 74427 -1.1883e+002  6.1636e+000 -2.3989e+000 61444 74211,74378,74306
 4.0000e-001 74628 -1.1068e+002 -4.8483e+000  1.0365e+001 60990 74478,74530,74504
 4.0000e-001 74605 -7.9902e+001 -6.7235e+000  1.0198e-001 60990 74452,74530,74478
 4.0000e-001 74582 -9.7168e+001 -4.3065e+000 -1.4424e+000 60990 74452,74556,74530
 4.0000e-001 75089  5.8263e+000  6.1340e+001 -4.2451e+001 60486 75112,74945,74919
 4.0000e-001 75066 -3.4197e+001 -2.8308e+000 -2.3638e+001 60486 75112,74919,74867
 4.0000e-001 75043 -6.0225e+001  3.0483e+001 -3.9159e-001 60486 74841,74971,74867
 4.0000e-001 75020 -6.8791e+001 -1.1612e+001 -2.9894e+001 60486 74867,74919,74893
 4.0000e-001 74997 -3.5795e+001  3.3320e+001 -5.9551e+000 60486 74815,74971,74841
 4.0000e-001 75138 -3.6462e+001  5.9860e+001 -6.9887e+000 60486 74971,74945,75112
 4.0000e-001 75161 -5.2747e+001  3.7943e+001  3.7533e+000 60486 74971,75112,74867
 4.0000e-001 75409 -8.6244e+001 -1.1489e+001 -9.4924e+000 59932 75576,75432,75288
 4.0000e-001 75386 -1.0606e+002 -1.8419e+001 -1.4436e+001 59932 75504,75314,75288
 4.0000e-001 75363 -6.6924e+001  1.7114e+000  1.2586e+001 59932 75432,75236,75210
 4.0000e-001 75340 -5.4918e+001 -1.3611e+000 -1.0268e+001 59932 75576,75288,75262
 4.0000e-001 75458 -1.0622e+002 -1.7604e+001 -1.4697e+001 59932 75504,75288,75432
 4.0000e-001 75481 -1.0945e+002 -1.7740e+001  7.9173e+000 59932 75184,75432,75210
 4.0000e-001 75530 -1.3410e+002 -4.5087e+001  1.7116e+000 59932 75184,75314,75504
 4.0000e-001 75553 -1.0262e+002 -1.8773e+001 -1.1970e+001 59932 75184,75504,75432
 4.0000e-001 75602 -1.0533e+002 -8.3297e+000 -4.7615e+000 59932 75236,75432,75576
 4.0000e-001 75625 -9.8736e+001 -1.2912e+001 -8.6900e+000 59932 75236,75576,75262
 4.0000e-001 75873 -7.6014e+001 -2.8001e-001  3.3993e+000 59478 75674,75752,75700
 4.0000e-001 75850 -5.0217e+001  1.0528e+001 -6.1232e+000 59478 75648,75752,75674
 4.0000e-001 75827 -8.4407e+001 -3.5913e+000  2.1606e+000 59478 75700,75752,75726
 4.0000e-001 75804 -5.6649e+001  1.0018e+000 -2.7930e+000 59478 75648,75778,75752
 4.0000e-001 76206 -5.5970e+001 -1.3002e+001 -1.0756e+001 59024 75981,76059,76007
 4.0000e-001 76183 -6.0590e+001  1.1079e+000 -1.3724e+001 59024 75981,76111,76059
 4.0000e-001 76160 -4.9665e+001 -5.1449e+000 -1.5158e+001 59024 76007,76059,76033
 4.0000e-001 76137 -5.6759e+001  3.6476e+001 -3.3108e+001 59024 76059,76111,76085
 4.0000e-001 76761 -3.2411e+001 -4.3513e+000  1.3319e+001 58562 76389,76441,76415
 4.0000e-001 76738 -4.8948e+001  1.4204e+001 -8.1962e+000 58562 76856,76784,76389
 4.0000e-001 76715 -5.3926e+001 -5.0709e+000 -1.2915e+001 58562 76784,76571,76467
 4.0000e-001 76692 -7.0025e+001  3.1731e+001 -1.4532e+001 58562 76856,76389,76597
 4.0000e-001 76669 -1.0583e+002 -2.5702e+001 -7.4380e+000 58562 76467,76545,76493
 4.0000e-001 76646 -5.4289e+001 -2.5344e+000 -1.2118e+001 58562 76467,76571,76545
 4.0000e-001 76623 -2.6748e+001 -9.4491e-001 -1.0303e-001 58562 76493,76545,76519
 4.0000e-001 76810 -5.4681e+001 -1.9405e+000 -7.3155e+000 58562 76441,76389,76784
 4.0000e-001 76833 -4.9212e+001  5.3731e-001 -6.7016e+000 58562 76441,76784,76467
 4.0000e-001 76882 -7.0582e+001 -1.0379e+001 -1.7679e+001 58562 76571,76784,76856
 4.0000e-001 76905 -8.6185e+001  1.0942e+001 -2.2547e+001 58562 76571,76856,76597
 4.0000e-001 77055 -1.0128e+002 -1.8708e+001 -3.6296e+000 57844 76928,76980,76954
 4.0000e-001 77032 -6.1920e+001 -5.4630e+000 -1.5685e+001 57844 76928,77006,76980
 4.0000e-001 77533 -1.1550e+002 -2.6392e+001 -5.3811e+000 57226 77628,77556,77291
 4.0000e-001 77510 -1.0854e+002 -1.4146e+001  3.6071e+000 57226 77556,77187,77343
 4.0000e-001 77487 -1.0392e+002 -6.7546e+000 -1.2221e+001 57226 77628,77291,77265
 4.0000e-001 77464 -1.1188e+002 -4.4000e+001  1.4452e+001 57226 77700,77213,77187
 4.0000e-001 77441 -2.0708e+002 -2.4359e+001  4.6510e+001 57226 77161,77343,77187
 4.0000e-001 77418 -1.7050e+002  3.0922e+001  2.3990e+001 57226 77161,77369,77343
 4.0000e-001 77395 -7.2189e+001 -1.7314e+001 -2.3139e+001 57226 77213,77265,77239
 4.0000e-001 77582 -1.0013e+002  8.3749e+000 -8.0189e+000 57226 77317,77291,77556
 4.0000e-001 77605 -1.1464e+002 -1.4383e+001  9.2875e-001 57226 77317,77556,77343
 4.0000e-001 77654 -1.0190e+002 -1.1899e+001  2.2605e+000 57226 77187,77556,77628
 4.0000e-001 77677 -1.1454e+002 -3.6717e+001  6.7762e+000 57226 77700,77187,77628
 4.0000e-001 77726 -1.0237e+002 -4.0930e+001 -4.9305e+000 57226 77265,77213,77700
 4.0000e-001 77749 -9.9094e+001 -2.0903e+001 -1.2521e+001 57226 77265,77700,77628
 4.0000e-001 78046 -9.6750e+001 -8.9987e+000 -1.3404e+001 56936 77798,77850,77824
 4.0000e-001 78023 -9.7443e+001 -9.3921e+000 -1.4139e+001 56936 78069,77798,77902
 4.0000e-001 78000 -1.0985e+002 -5.0225e+000 -1.6008e+001 56936 78069,77902,77876
 4.0000e-001 77977 -1.1484e+002 -1.8018e+001 -2.0829e+001 56936 77798,77928,77902
 4.0000e-001 77954 -1.3159e+002 -2.1060e+001 -2.4027e+001 56936 77772,77928,77798
 4.0000e-001 78095 -9.3839e+001 -6.7959e+000 -1.5324e+001 56936 77850,77798,78069
 4.0000e-001 78118 -9.9607e+001  6.0407e-001 -1.8615e+001 56936 77850,78069,77876
 4.0000e-001 78754 -7.4484e+001 -4.3921e+001  5.9801e+000 56475 78777,78486,78408
 4.0000e-001 78731 -1.0882e+002 -6.8646e+001  1.6969e+001 56475 78777,78408,78382
 4.0000e-001 78708 -9.6542e+001 -5.0048e+001 -6.4369e+000 56475 78849,78512,78486
 4.0000e-001 78685 -8.5386e+001 -1.6803e+001 -3.3323e+000 56475 78382,78590,78564
 4.0000e-001 78662 -1.0782e+002 -1.3494e+001 -9.9089e+000 56475 78512,78564,78538
 4.0000e-001 78639 -7.3621e+001 -3.8049e+001  5.3362e+000 56475 78434,78486,78460
 4.0000e-001 78616 -7.4147e+001 -4.2127e+001  7.3293e+000 56475 78408,78486,78434
 4.0000e-001 78803 -9.7983e+001 -4.6392e+001 -2.2300e+000 56475 78849,78486,78777
 4.0000e-001 78826 -9.9191e+001 -4.1382e+001  3.8353e+000 56475 78564,78777,78382
 4.0000e-001 78875 -9.4005e+001 -4.2790e+001 -5.4450e+000 56475 78564,78512,78849
 4.0000e-001 78898 -9.5590e+001 -3.8150e+001 -2.0930e+000 56475 78564,78849,78777
 4.0000e-001 79276 -9.7045e+001 -3.8116e+001  4.2088e+000 55964 79299,79080,79028
 4.0000e-001 79253 -1.1072e+002 -3.7818e+001 -6.9798e-001 55964 79299,79028,79132
 4.0000e-001 79230 -8.4349e+001 -9.0010e+000 -1.7719e-001 55964 79028,79080,79054
 4.0000e-001 79207 -1.0811e+002 -3.6670e+001 -2.2284e-001 55964 79002,79132,79028
 4.0000e-001 79184 -1.5936e+002 -5.7270e+001 -1.2993e+001 55964 79002,79158,79132
 4.0000e-001 79325 -1.0404e+002 -4.0677e+001 -4.4158e+000 55964 79106,79080,79299
 4.0000e-001 79348 -1.1816e+002 -3.9316e+001 -8.6995e+000 55964 79106,79299,79132
 4.0000e-001 79498 -1.0501e+002 -8.1576e+000 -1.1041e+001 55452 79397,79449,79423
 4.0000e-001 79475 -7.7784e+001  3.5199e+000  8.3228e-001 55452 79371,79449,79397
 4.0000e-001 79795 -6.8055e+001 -1.9052e+001 -4.5131e+000 55048 79962,79818,79573
 4.0000e-001 79772 -6.9552e+001 -1.0076e+000 -6.5706e+000 55048 79818,79521,79677
 4.0000e-001 79749 -5.5745e+001 -3.7324e+001 -9.5185e+000 55048 79599,79651,79625
 4.0000e-001 79726 -6.9591e+001 -1.9051e+001 -1.1434e+001 55048 79890,79651,79599
 4.0000e-001 79703 -6.5742e+001 -1.9143e+001 -1.4644e+000 55048 79962,79573,79547
 4.0000e-001 79844 -6.5256e+001 -2.1745e+001 -4.2181e+000 55048 79599,79573,79818
 4.0000e-001 79867 -6.5477e+001 -1.4173e+001 -4.3058e+000 55048 79890,79599,79818
 4.0000e-001 79916 -7.9725e+001 -2.2232e+001 -1.6727e+001 55048 79677,79651,79890
 4.0000e-001 79939 -7.6588e+001 -2.0527e+001 -1.0209e+001 55048 79677,79890,79818
 4.0000e-001 79988 -7.1962e+001 -2.0354e+001 -4.0833e+000 55048 79521,79818,79962
 4.0000e-001 80011 -7.1809e+001 -2.0893e+001 -1.4534e+000 55048 79521,79962,79547
 4.0000e-001 80212 -8.9629e+001 -3.8358e+000  3.1917e-001 54436 80235,80088,80036
 4.0000e-001 80189 -8.4424e+001  4.3926e+000 -2.9699e+000 54436 80235,80036,80140
 4.0000e-001 80166 -8.5576e+001  1.7678e+001  6.9655e+000 54436 80036,80088,80062
 4.0000e-001 80261 -8.4090e+001 -1.4696e+001  5.1038e+000 54436 80114,80088,80235
 4.0000e-001 80284 -7.7399e+001 -6.5011e+000  1.0855e+000 54436 80114,80235,80140
 4.0000e-001 80534 -1.1577e+002 -2.7467e+001 -5.1478e+000 54032 80557,80361,80335
 4.0000e-001 80511 -1.0191e+002 -3.2620e+001  4.2902e-001 54032 80557,80335,80309
 4.0000e-001 80488 -8.4333e+001 -2.4221e+001 -8.2583e+000 54032 80629,80413,80387
 4.0000e-001 80465 -8.9505e+001 -3.8126e+001 -2.4804e+000 54032 80309,80439,80413
 4.0000e-001 80583 -1.0311e+002 -2.2649e+001  3.3097e+000 54032 80387,80361,80557
 4.0000e-001 80606 -8.6878e+001 -2.8106e+001 -6.5528e-001 54032 80629,80387,80557
 4.0000e-001 80655 -9.3562e+001 -2.9367e+001 -3.2124e+000 54032 80309,80413,80629
 4.0000e-001 80678 -9.8697e+001 -3.0503e+001  3.2995e+000 54032 80309,80629,80557
 4.0000e-001 81139 -9.5260e+000  3.4997e+001  4.0655e+001 53784 80865,80995,80917
 4.0000e-001 81116 -5.6094e+001  4.0474e+001 -2.8112e+001 53784 80865,81021,80995
 4.0000e-001 81093 -1.0689e+001  4.5673e-001  5.9867e+000 53784 80943,80995,80969
 4.0000e-001 81070  2.9881e+001  2.7374e+001  4.1789e+001 53784 80917,80995,80943
 4.0000e-001 81047 -8.6493e+001  2.8772e+002  1.0091e+002 53784 80865,80917,80891
 4.0000e-001 81468 -5.6632e+001 -1.3316e+001  1.2649e+001 53230 81295,81373,81347
 4.0000e-001 81445 -7.0590e+001  1.6124e-001  2.8918e+000 53230 81243,81373,81295
 4.0000e-001 81422 -3.9260e+001  3.3790e+001  2.0049e+001 53230 81243,81295,81269
 4.0000e-001 81399 -7.1307e+001 -1.8885e+001  1.1349e+001 53230 81295,81347,81321
 4.0000e-001 81618 -1.4055e+002 -4.5542e+001 -4.1395e+000 52790 81491,81543,81517
 4.0000e-001 81595 -1.2732e+002 -6.4888e+001 -5.0024e+000 52790 81491,81569,81543
 4.0000e-001 82126 -7.2746e+001 -3.5750e+001  6.6368e+000 52386 82149,81907,81881
 4.0000e-001 82103 -7.0509e+001 -3.0626e+001  6.3499e+000 52386 82149,81881,81855
 4.0000e-001 82080 -7.0097e+001 -4.6489e+001 -2.3553e+000 52386 82221,81803,81985
 4.0000e-001 82057 -4.4183e+001 -2.9203e+001  7.3881e+000 52386 81803,81855,81829
 4.0000e-001 82034 -5.9111e+001 -2.3143e+001 -3.4590e+000 52386 81907,81985,81933
 4.0000e-001 82011 -4.3942e+001 -2.4163e+001 -2.8840e+000 52386 81933,81985,81959
 4.0000e-001 82175 -6.8389e+001 -3.3682e+001  5.8554e+000 52386 81985,81907,82149
 4.0000e-001 82198 -7.2665e+001 -4.0783e+001  3.9878e+000 52386 82221,81985,82149
 4.0000e-001 82247 -6.6237e+001 -3.5675e+001 -1.4663e+000 52386 81855,81803,82221
 4.0000e-001 82270 -6.9243e+001 -2.9239e+001  3.5059e+000 52386 81855,82221,82149
 4.0000e-001 82825 -1.3323e+002 -4.0611e+001 -3.8920e+001 51782 82505,82661,82635
 4.0000e-001 82802 -8.7124e+001 -8.5360e+000 -1.0289e+001 51782 82479,82661,82505
 4.0000e-001 82779 -9.6904e+001 -3.4282e+001  5.3057e+000 51782 82557,82635,82609
 4.0000e-001 82756 -9.8815e+001 -3.9153e+001 -7.2381e+000 51782 82531,82635,82557
 4.0000e-001 82733 -1.2907e+002 -2.6189e+001 -1.7913e+001 51782 82505,82635,82531
 4.0000e-001 82710 -1.0526e+002 -3.8104e+001 -3.2803e+001 51782 82453,82661,82479
 4.0000e-001 82687 -9.0334e+001 -2.0023e+001  1.0297e+001 51782 82557,82609,82583
 4.0000e-001 83171 -1.0743e+002 -2.7551e+001 -9.3030e+000 51442 83194,82978,82900
 4.0000e-001 83148 -1.1545e+002 -3.5471e+001 -1.2532e+001 51442 83194,82900,82874
 4.0000e-001 83125 -1.0828e+002 -2.8284e+001 -1.3645e+001 51442 82900,82978,82926
 4.0000e-001 83102 -1.1056e+002 -4.3624e+001 -1.9399e+001 51442 82874,83030,83004
 4.0000e-001 83079 -9.6135e+001 -1.1857e+001  1.3121e-001 51442 82926,82978,82952
 4.0000e-001 83056 -1.4033e+002 -6.2909e+001 -2.7921e+001 51442 82848,83030,82874
 4.0000e-001 83220 -9.6206e+001 -3.4452e+001 -6.5926e+000 51442 83004,82978,83194
 4.0000e-001 83243 -1.0723e+002 -4.5693e+001 -1.1063e+001 51442 83004,83194,82874
 4.0000e-001 83751 -6.5596e+001 -3.7395e+001 -2.5993e+000 50938 83428,83584,83454
 4.0000e-001 83728 -8.2146e+001 -4.3586e+001 -7.4786e+000 50938 83428,83610,83584
 4.0000e-001 83705 -8.2357e+001 -2.8526e+001 -4.9255e+000 50938 83454,83584,83558
 4.0000e-001 83682 -9.8238e+001 -3.3776e+001 -2.2576e+000 50938 83454,83532,83480
 4.0000e-001 83659 -9.4149e+001 -3.3145e+001 -3.3747e+000 50938 83454,83558,83532
 4.0000e-001 83636 -7.0203e+001  1.7603e+001  1.9860e+001 50938 83480,83532,83506
 4.0000e-001 84355 -7.3240e+001  1.3892e+000  2.2182e+001 50377 84378,83960,83934
 4.0000e-001 84332 -6.0439e+001  5.6198e+000 -2.1594e+001 50377 84522,84378,83934
 4.0000e-001 84309 -1.7338e+001  2.1534e+001  1.0895e+001 50377 84450,84038,84012
 4.0000e-001 84286 -3.8950e+001 -1.1403e+001 -2.2834e+001 50377 84522,83934,84142
 4.0000e-001 84263 -4.0187e+001 -6.2180e+000 -7.2192e+000 50377 84594,84090,84038
 4.0000e-001 84240  2.8199e+001  6.3869e+000  1.3362e+001 50377 83960,84012,83986
 4.0000e-001 84217 -1.7352e+001 -1.6393e+001 -1.2468e+000 50377 83934,84168,84142
 4.0000e-001 84194 -6.2143e+000  4.0580e+000 -6.0283e+000 50377 84038,84090,84064
 4.0000e-001 84404  1.6140e+001  2.8590e+001  2.5841e+001 50377 84012,83960,84378
 4.0000e-001 84427 -5.0590e+001  4.2955e+000  7.2580e-001 50377 84450,84012,84378
 4.0000e-001 84476 -3.1252e+001  2.7303e-001 -3.5890e+000 50377 84594,84038,84450
 4.0000e-001 84499 -3.8371e+001  1.9232e+001 -6.3872e+000 50377 84116,84450,84378
 4.0000e-001 84548 -4.0385e+001  2.3182e+001 -1.4099e+001 50377 84116,84378,84522
 4.0000e-001 84571 -2.0461e+001  3.9025e+000 -1.6093e+001 50377 84116,84522,84142
 4.0000e-001 84620 -5.8178e+001  6.2000e+000 -1.3164e+001 50377 84116,84090,84594
 4.0000e-001 84643 -5.1202e+001  1.0746e+001 -1.0056e+001 50377 84116,84594,84450
 4.0000e-001 84842 -1.0062e+002 -2.1165e+001 -1.3715e+001 49923 84865,84692,84666
 4.0000e-001 84819 -8.3170e+001 -2.0186e+001 -7.5697e+000 49923 84865,84666,84770
 4.0000e-001 84796 -9.6878e+001 -1.8619e+001 -2.8024e+000 49923 84692,84744,84718
 4.0000e-001 84891 -8.9652e+001 -2.0930e+001 -3.3573e+000 49923 84744,84692,84865
 4.0000e-001 84914 -7.0887e+001 -1.6372e+001  4.0202e+000 49923 84744,84865,84770
 4.0000e-001 85501 -9.3413e+001  7.2199e+000 -6.8175e-002 49618 85524,85282,85204
 4.0000e-001 85478 -1.0922e+002 -6.4910e+000 -9.9199e+000 49618 85596,85524,85204
 4.0000e-001 85455 -1.1855e+002  1.8054e+000 -1.0636e+001 49618 85596,85204,85178
 4.0000e-001 85432 -9.5103e+001  2.2309e+001 -5.9280e+000 49618 85204,85282,85256
 4.0000e-001 85409 -7.2292e+001  5.8795e+001 -4.1317e+000 49618 85282,85334,85308
 4.0000e-001 85386 -8.9826e+001  3.9561e+001  3.4931e+000 49618 85204,85256,85230
 4.0000e-001 85550 -9.3115e+001 -4.2293e+000 -1.0843e+001 49618 85334,85282,85524
 4.0000e-001 85573 -1.1042e+002 -1.4335e+001 -2.2980e+001 49618 85334,85524,85360
 4.0000e-001 85622 -9.4817e+001  1.9113e+000 -1.4311e+001 49618 85360,85524,85596
 4.0000e-001 85645 -1.0728e+002  6.7059e+000 -1.3171e+001 49618 85360,85596,85178
 4.0000e-001 85795 -1.2094e+002 -1.1204e+001  1.5752e+001 49278 85694,85746,85720
 4.0000e-001 85772 -1.4957e+002  1.9710e+001 -1.7672e+000 49278 85668,85746,85694
 4.0000e-001 86197 -1.0009e+002 -3.4701e+001 -2.8178e+001 48916 86001,86079,86027
 4.0000e-001 86174 -1.0182e+002 -2.6026e+001 -1.9485e+001 48916 85949,86079,86001
 4.0000e-001 86151 -1.4126e+002 -2.8906e+001 -7.4942e+000 48916 85949,86001,85975
 4.0000e-001 86128 -1.0466e+002 -2.1108e+001 -1.7519e+001 48916 86027,86079,86053
 4.0000e-001 86105 -2.5057e+002 -9.4313e+001 -3.9518e+001 48916 85923,86079,85949
 4.0000e-001 86477 -3.5643e+001 -3.3482e+000  6.2023e+000 48398 86327,86379,86353
 4.0000e-001 86454 -3.7866e+001 -2.2695e+001  7.5661e+000 48398 86500,86379,86327
 4.0000e-001 86431 -6.0045e+001 -2.7622e+001  5.0942e+000 48398 86301,86405,86379
 4.0000e-001 86526 -2.0559e+001 -1.9174e+001  6.8343e+000 48398 86301,86379,86500
 4.0000e-001 87032 -8.7828e+001 -2.4549e+001 -2.4193e+000 48008 87127,87055,86787
 4.0000e-001 87009 -8.9737e+001 -2.7712e+001  3.0322e+000 48008 87055,86735,86709
 4.0000e-001 86986 -7.6653e+001 -3.1654e+001 -4.4258e+000 48008 87127,86787,86761
 4.0000e-001 86963 -9.1470e+001 -2.9164e+001 -2.7561e+000 48008 86787,86865,86839
 4.0000e-001 86940 -1.2654e+002 -2.1867e+001 -6.4266e+000 48008 86709,86891,86865
 4.0000e-001 86917 -8.7633e+001 -3.5473e+000  1.5186e+001 48008 86787,86839,86813
 4.0000e-001 87081 -8.8297e+001 -2.3383e+001 -1.4821e+000 48008 86865,86787,87055
 4.0000e-001 87104 -8.4404e+001 -2.1428e+001 -8.1776e-001 48008 86865,87055,86709
 4.0000e-001 87153 -7.3101e+001 -1.9660e+001  5.9206e-001 48008 86735,87055,87127
 4.0000e-001 87176 -5.0177e+001 -2.0345e+001 -5.3398e+000 48008 86735,87127,86761
 4.0000e-001 87456 -5.6679e+001 -2.9854e+001 -3.8597e+000 47604 87306,87358,87332
 4.0000e-001 87433 -6.9539e+001 -3.9815e+001  1.5710e+000 47604 87306,87384,87358
 4.0000e-001 87410 -6.0494e+001 -3.6203e+001 -4.3706e+000 47604 87280,87384,87306
 4.0000e-001 87785 -5.6746e+001 -3.1481e+001 -2.0490e+000 47264 87638,87690,87664
 4.0000e-001 87762 -5.1184e+001 -1.0133e+001 -6.8351e+000 47264 87612,87690,87638
 4.0000e-001 87739 -6.2288e+001 -2.3998e+001 -1.3523e+001 47264 87560,87690,87612
 4.0000e-001 87716 -5.2683e+001 -5.9159e+000 -1.7115e+001 47264 87560,87612,87586
 4.0000e-001 87935 -1.1566e+002  2.5133e+001 -4.3027e-001 46952 87808,87860,87834
 4.0000e-001 87912 -1.2237e+002  8.8053e-002 -5.5472e+000 46952 87808,87886,87860
 4.0000e-001 88281 -1.0729e+002 -4.0482e+001 -8.5217e-001 46526 88304,88114,88036
 4.0000e-001 88258 -1.0144e+002 -3.8265e+001  2.0002e-001 46526 88304,88036,87984
 4.0000e-001 88235 -1.0029e+002 -3.5941e+001 -5.5921e+000 46526 88036,88114,88062
 4.0000e-001 88212 -1.1412e+002 -3.9539e+001 -3.0066e+000 46526 87958,88140,87984
 4.0000e-001 88189 -8.6158e+001 -2.6587e+000  9.2407e-001 46526 87984,88036,88010
 4.0000e-001 88166 -1.1806e+002 -5.5057e+001 -1.4978e+001 46526 88062,88114,88088
 4.0000e-001 88330 -1.1227e+002 -3.7376e+001 -7.1023e-001 46526 88140,88114,88304
 4.0000e-001 88353 -1.0819e+002 -3.6475e+001  9.4599e-002 46526 88140,88304,87984
 4.0000e-001 88701 -5.1935e+001 -3.2347e+001 -7.0889e+000 45822 88724,88378,88534
 4.0000e-001 88678 -4.4626e+001 -2.6823e+001 -1.1366e+001 45822 88378,88560,88534
 4.0000e-001 88655 -5.7337e+001 -4.2155e+001  4.7687e+000 45822 88724,88534,88508
 4.0000e-001 88632 -5.4850e+001 -1.5276e+001 -3.4205e+000 45822 88404,88508,88456
 4.0000e-001 88609 -4.7180e+001  4.8431e+000 -6.0194e-001 45822 88404,88456,88430
 4.0000e-001 88586 -7.8748e+001 -3.5989e+001  6.2387e+000 45822 88456,88508,88482
 4.0000e-001 88750 -5.6203e+001 -1.5278e+001 -1.2502e+001 45822 88404,88378,88724
 4.0000e-001 88773 -5.9915e+001 -2.5871e+001 -1.6384e+000 45822 88404,88724,88508
 4.0000e-001 89106 -4.3931e+001 -1.2931e+001 -2.3389e+001 45418 88881,88985,88907
 4.0000e-001 89083 -2.8183e+001 -2.0749e+001 -2.4219e+001 45418 88881,89011,88985
 4.0000e-001 89060 -2.5676e+000  3.1299e+001 -1.3863e+000 45418 88907,88985,88933
 4.0000e-001 89037 -3.3891e+001  9.7044e+000 -1.5122e+001 45418 88933,88985,88959
 4.0000e-001 89435 -1.0902e+002 -5.6692e+001  1.8846e+000 44914 89210,89288,89236
 4.0000e-001 89412 -8.8883e+001 -3.6975e+001 -1.1529e+001 44914 89210,89314,89288
 4.0000e-001 89389 -1.0683e+002 -2.7246e+001 -1.7195e+001 44914 89210,89340,89314
 4.0000e-001 89366 -1.1032e+002 -5.5002e+001 -1.7685e+000 44914 89236,89288,89262
 4.0000e-001 89634 -5.9975e+001 -2.3444e+000 -1.7771e+001 44538 89510,89562,89536
 4.0000e-001 89611 -6.3917e+001 -3.4395e+001 -7.8769e+000 44538 89458,89562,89510
 4.0000e-001 89588 -6.3458e+001 -4.3630e+001 -7.7132e+000 44538 89458,89510,89484
 4.0000e-001 90044 -1.1507e+002 -5.3538e+001  1.1279e+001 44134 89819,89923,89845
 4.0000e-001 90021 -9.3653e+001 -5.8464e+000  1.5827e+001 44134 89819,89949,89923
 4.0000e-001 89998 -9.3956e+001 -4.3870e+001  9.2694e-001 44134 89845,89923,89897
 4.0000e-001 89975 -6.9313e+001 -5.8432e+000  1.6095e+001 44134 89845,89897,89871
 4.0000e-001 90520 -1.0476e+002 -3.5176e+001  1.1871e+000 43457 90543,90252,90226
 4.0000e-001 90497 -8.8508e+001 -3.0926e+001  1.9362e+000 43457 90543,90226,90330
 4.0000e-001 90474 -9.5375e+001 -2.4160e+001 -2.7341e+000 43457 90200,90330,90226
 4.0000e-001 90451 -1.0136e+002 -3.9957e+001 -2.2612e+001 43457 90200,90356,90330
 4.0000e-001 90428 -1.1017e+002  7.2336e+000  1.2182e+001 43457 90252,90304,90278
 4.0000e-001 90405 -3.1091e+001 -1.4262e+001  5.0929e+000 43457 90174,90356,90200
 4.0000e-001 90382 -9.3582e+001 -8.3552e+001 -2.2120e+001 43457 90148,90356,90174
 4.0000e-001 90569 -1.1981e+002 -2.8163e+001  1.6201e+001 43457 90304,90252,90543
 4.0000e-001 90592 -9.2720e+001 -1.8298e+001  2.0227e+001 43457 90304,90543,90330
 4.0000e-001 91098 -5.2861e+001 -1.8142e+001  2.8392e+000 42789 90801,90905,90853
 4.0000e-001 91075 -5.4778e+001 -2.2481e+001  3.6749e+000 42789 90775,90905,90801
 4.0000e-001 91052 -5.4703e+001 -9.3825e+000 -5.0798e+000 42789 90775,90931,90905
 4.0000e-001 91029 -2.6987e+001  3.4478e+001  1.1143e+001 42789 90801,90853,90827
 4.0000e-001 91006 -5.6552e+001 -2.2320e+001  1.4935e+001 42789 90853,90905,90879
 4.0000e-001 90983 -6.9468e+001 -1.1809e+001  1.0793e+000 42789 90775,90957,90931
 4.0000e-001 91427 -8.2377e+001  1.3849e+001 -2.2167e+001 42227 91228,91280,91254
 4.0000e-001 91404 -1.1052e+002 -3.2342e+001 -1.7811e+000 42227 91228,91306,91280
 4.0000e-001 91381 -9.3393e+001 -2.2313e+001  8.9007e+000 42227 91202,91306,91228
 4.0000e-001 91358 -1.0080e+002 -3.5516e+001  1.1840e+001 42227 91202,91332,91306
 4.0000e-001 91675 -4.9670e+001 -1.7039e+001 -3.4527e+000 41773 91698,91476,91450
 4.0000e-001 91652 -5.1581e+001 -2.8173e+001  5.1290e+000 41773 91698,91450,91554
 4.0000e-001 91629 -4.6532e+001 -3.7847e+001  5.3334e+000 41773 91450,91580,91554
 4.0000e-001 91606 -5.1965e+001  9.2258e+000  3.2548e+001 41773 91502,91554,91528
 4.0000e-001 91724 -5.4547e+001 -2.2446e+001  4.5133e+000 41773 91502,91476,91698
 4.0000e-001 91747 -5.8310e+001 -3.4673e+001  1.3374e+001 41773 91502,91698,91554
 4.0000e-001 92127  2.4921e+001  1.5495e+001 -2.3014e+001 41255 92150,91905,91879
 4.0000e-001 92104 -2.9599e+001  1.4492e+001  4.7339e-001 41255 92150,91879,91957
 4.0000e-001 92081 -3.6345e+001  1.1771e+001  1.2476e+000 41255 91853,91957,91879
 4.0000e-001 92058 -3.8265e+001  5.3656e+000  6.3264e+000 41255 91853,91983,91957
 4.0000e-001 92035 -3.1061e+000  3.0118e+000  3.5864e+000 41255 91853,92009,91983
 4.0000e-001 92176 -2.2350e+001  2.5286e+001 -3.0510e+000 41255 91931,91905,92150
 4.0000e-001 92199 -1.0313e+002 -6.2136e+000  2.9135e+001 41255 91931,92150,91957
 4.0000e-001 92518 -1.1305e+002 -2.9452e+000 -6.1259e+000 41007 92244,92374,92270
 4.0000e-001 92495 -1.3255e+002  6.7554e+000 -1.1618e+001 41007 92244,92400,92374
 4.0000e-001 92472 -8.9612e+001  1.0899e+001 -3.4537e-001 41007 92270,92374,92348
 4.0000e-001 92449 -1.4817e+002 -2.9685e+001 -4.5372e+000 41007 92296,92348,92322
 4.0000e-001 92426 -1.2729e+002  3.4118e+000  1.2395e+001 41007 92270,92348,92296
 4.0000e-001 92668 -3.2965e+001 -1.1478e+001 -1.7867e+001 40717 92823,92691,92567
 4.0000e-001 92645 -2.7463e+001  1.4959e+000 -1.4668e+001 40717 92895,92823,92567
 4.0000e-001 92717 -3.2204e+001 -8.8286e+000  4.2948e+000 40717 92593,92567,92691
 4.0000e-001 92849 -1.3987e+001 -4.7327e+000 -2.5131e+001 40717 92619,92691,92823
 4.0000e-001 92872 -4.2187e+001 -4.1736e+000 -1.2936e+001 40717 92619,92823,92541
 4.0000e-001 92921 -6.3127e+001 -2.5333e+001  1.4540e+000 40717 92541,92823,92895
 4.0000e-001 93634 -1.0483e+002 -3.3456e+001 -2.1608e+001 40206 93366,93444,93418
 4.0000e-001 93611 -7.8127e+001 -1.6606e+001 -5.7003e+000 40206 93288,93444,93366
 4.0000e-001 93588 -7.1104e+001 -2.7234e+001 -1.0514e+001 40206 93288,93366,93314
 4.0000e-001 93565 -1.5415e+002 -5.0008e+001 -1.1649e+001 40206 93262,93444,93288
 4.0000e-001 93542 -1.1915e+002 -2.0050e+001 -1.2396e+001 40206 93366,93418,93392
 4.0000e-001 93519 -1.5814e+002  2.2574e+001 -2.2016e+001 40206 93262,93470,93444
 4.0000e-001 93496 -4.1116e+001 -1.4672e+001 -3.8309e+000 40206 93314,93366,93340
 4.0000e-001 94189 -9.8076e+001 -5.1574e+001 -2.4562e+000 39802 93843,93999,93973
 4.0000e-001 94166 -1.1193e+002 -6.0189e+001  3.9283e+000 39802 93817,93999,93843
 4.0000e-001 94143 -1.3363e+002 -5.5492e+001  1.0987e+001 39802 93869,93973,93947
 4.0000e-001 94120 -9.2095e+001 -2.8858e+001 -6.3418e+000 39802 93843,93973,93869
 4.0000e-001 94097 -7.7895e+001  4.5316e+001  2.7506e+000 39802 93869,93921,93895
 4.0000e-001 94074 -8.6844e+001  2.3157e+001 -1.1559e+001 39802 93869,93947,93921
 4.0000e-001 94051 -8.2103e+001 -4.3357e+001 -7.8240e+000 39802 93817,94025,93999
 4.0000e-001 94290 -1.2263e+002 -4.9651e+001 -8.3287e-001 39398 94212,94264,94238
 4.0000e-001 94798 -5.9378e+001 -1.8734e+001 -2.4007e+000 38701 94501,94657,94631
 4.0000e-001 94775 -4.9401e+001 -7.3296e+000  3.5016e+000 38701 94475,94657,94501
 4.0000e-001 94752 -8.0238e+001 -1.2072e+001 -5.6381e+000 38701 94579,94631,94605
 4.0000e-001 94729 -8.5765e+001 -2.0622e+001 -8.4769e+000 38701 94553,94631,94579
 4.0000e-001 94706 -3.7308e+001 -9.6988e-001 -1.0766e+001 38701 94501,94631,94553
 4.0000e-001 94683 -3.4341e+001 -1.3481e+001 -1.1226e+001 38701 94501,94553,94527
 4.0000e-001 95255 -5.2294e+001 -1.0711e+001  3.8932e+000 38247 95278,95085,95007
 4.0000e-001 95232 -5.7656e+001 -4.5403e+000  1.5692e+001 38247 95278,95007,95137
 4.0000e-001 95209 -7.3006e+001 -7.0372e+000  5.3417e+000 38247 94981,95137,95007
 4.0000e-001 95186 -5.0621e+001 -7.6918e+000 -6.7997e+000 38247 95007,95059,95033
 4.0000e-001 95163 -6.6557e+001 -3.5270e+001  1.4311e+001 38247 95007,95085,95059
 4.0000e-001 95304 -4.2023e+001  8.4045e+000 -2.3432e+000 38247 95111,95085,95278
 4.0000e-001 95327 -5.2387e+001  1.0999e+000  1.0735e+001 38247 95111,95278,95137
 4.0000e-001 95575 -1.4920e+002 -2.2820e+001 -2.8174e+000 37564 95376,95428,95402
 4.0000e-001 95552 -1.3455e+002 -5.8162e+001 -6.5394e+000 37564 95376,95454,95428
 4.0000e-001 95529 -1.2097e+002 -5.4435e+001 -8.9517e+000 37564 95376,95480,95454
 4.0000e-001 95506 -1.1317e+002 -3.0125e+001 -1.3416e+000 37564 95350,95480,95376
 4.0000e-001 96034 -2.0113e+001 -1.8254e+000  3.2297e+000 37224 95786,95838,95812
 4.0000e-001 96011 -1.4709e+001  1.4406e+001  1.2897e+000 37224 95786,95890,95838
 4.0000e-001 95988  1.1506e+001  2.0531e+001 -7.4516e+000 37224 95786,95916,95890
 4.0000e-001 95965 -4.6191e+000 -5.9439e+000  2.3792e+001 37224 95760,95916,95786
 4.0000e-001 95942 -1.6373e+000 -5.1464e+000 -2.6129e+001 37224 95838,95890,95864
 4.0000e-001 96363 -7.9836e+001  9.9263e+000  1.7180e+001 36884 96216,96268,96242
 4.0000e-001 96340 -9.4304e+001 -2.4044e+001  3.0805e+000 36884 96164,96268,96216
 4.0000e-001 96317 -8.6800e+001 -2.3513e+001  5.0365e+000 36884 96138,96268,96164
 4.0000e-001 96294 -5.7791e+001  4.5139e+001 -2.2096e+001 36884 96164,96216,96190
 4.0000e-001 96839 -8.0808e+001 -1.2627e+001 -1.3793e+001 36572 96862,96649,96597
 4.0000e-001 96816 -7.9269e+001 -2.0826e+001 -1.4279e+001 36572 97006,96862,96597
 4.0000e-001 96793 -7.6322e+001 -3.1645e+000 -5.0144e+000 36572 96934,96467,96675
 4.0000e-001 96770 -6.7817e+001 -2.2488e+001 -8.7195e+000 36572 97006,96597,96571
 4.0000e-001 96747 -7.4557e+001  1.1529e+001 -3.7233e+001 36572 96467,96519,96493
 4.0000e-001 96724 -1.5412e+002 -6.9513e+000  4.8947e+001 36572 96519,96571,96545
 4.0000e-001 96701 -5.3827e+001 -5.5637e+000  1.5806e+001 36572 96597,96649,96623
 4.0000e-001 96888 -8.4406e+001 -1.3849e+001 -1.3059e+001 36572 96675,96649,96862
 4.0000e-001 96911 -8.3183e+001 -1.3397e+001 -8.2712e+000 36572 96934,96675,96862
 4.0000e-001 96960 -7.6346e+001 -1.4637e+001 -3.7742e+000 36572 96519,96467,96934
 4.0000e-001 96983 -7.1194e+001 -1.4885e+001 -6.6709e+000 36572 97078,96934,96862
 4.0000e-001 97032 -6.5793e+001 -1.4351e+001 -8.9379e+000 36572 97078,96862,97006
 4.0000e-001 97055 -5.7096e+001 -1.6576e+001 -3.1278e-001 36572 96519,97006,96571
 4.0000e-001 97104 -7.2466e+001 -1.6878e+001 -3.6983e+000 36572 96519,96934,97078
 4.0000e-001 97127 -7.0739e+001 -1.8008e+001 -5.9739e+000 36572 96519,97078,97006
 4.0000e-001 97761 -4.8031e+001  2.0688e+000  4.1288e+000 36118 97784,97493,97415
 4.0000e-001 97738 -6.0497e+001  5.4020e+000 -1.2882e+000 36118 97784,97415,97597
 4.0000e-001 97715 -1.2518e+002  1.1316e+001  4.5401e+001 36118 97389,97597,97415
 4.0000e-001 97692 -1.0569e+002 -4.5532e+001  2.5741e+001 36118 97415,97467,97441
 4.0000e-001 97669 -9.5386e+001 -3.4374e+001  3.2080e+001 36118 97415,97493,97467
 4.0000e-001 97646 -7.6898e+001 -2.4251e+001 -1.6041e+001 36118 97493,97571,97519
 4.0000e-001 97623 -4.7716e+001  1.9025e+000  9.2422e+000 36118 97519,97571,97545
 4.0000e-001 97810 -5.7155e+001  3.4166e+000 -3.1039e+000 36118 97571,97493,97784
 4.0000e-001 97833 -8.0600e+001 -6.1555e-001 -8.4494e+000 36118 97571,97784,97597
 4.0000e-001 98081 -1.5424e+001 -1.7777e+001 -7.7379e+000 35564 98104,97908,97856
 4.0000e-001 98058 -3.3962e+001 -4.5846e+001  4.4512e-001 35564 98104,97856,97986
 4.0000e-001 98035 -8.3710e+001 -3.5990e+001  1.1433e+001 35564 97934,97986,97960
 4.0000e-001 98012 -1.6404e+001 -1.1690e+001 -2.4406e+001 35564 97856,97908,97882
 4.0000e-001 98130 -3.1955e+001  8.3382e+001 -3.8043e+000 35564 97934,97908,98104
 4.0000e-001 98153 -7.3262e+001 -7.3704e+000  1.5315e+001 35564 97934,98104,97986
 4.0000e-001 98374 -9.7141e+001  4.0598e+001 -6.1594e+000 35152 98224,98302,98276
 4.0000e-001 98351 -1.2243e+002 -2.5886e+001  3.5686e+000 35152 98198,98302,98224
 4.0000e-001 98328 -6.8640e+001  5.7122e+001 -1.3997e+001 35152 98224,98276,98250
 4.0000e-001 98884 -3.9147e+001  4.6319e+001  1.2379e+001 34698 98691,98743,98717
 4.0000e-001 98861 -5.5628e+001  2.7033e+001 -1.3199e+001 34698 98561,98743,98691
 4.0000e-001 98838 -6.1285e+001 -1.0345e+001 -2.1195e-001 34698 98907,98587,98561
 4.0000e-001 98815 -5.8158e+001 -9.3611e+000 -7.5469e+000 34698 98907,98561,98691
 4.0000e-001 98792 -2.8209e+001  2.7584e+001 -9.8499e+000 34698 98587,98639,98613
 4.0000e-001 98769 -5.4697e+001 -2.0870e+001  2.1732e+000 34698 98587,98665,98639
 4.0000e-001 98933 -5.5179e+001 -7.2320e+000 -1.5559e+000 34698 98665,98587,98907
 4.0000e-001 98956 -5.0224e+001 -5.0235e+000 -9.2793e+000 34698 98665,98907,98691
 4.0000e-001 99204 -9.5541e+001 -4.8691e+000 -1.0294e+001 34144 99227,99031,99005
 4.0000e-001 99181 -9.7748e+001 -2.2274e+001  6.2030e+000 34144 99299,99227,99005
 4.0000e-001 99158 -1.0259e+002 -1.6846e+001  1.7667e+001 34144 99299,99005,99109
 4.0000e-001 99135 -7.5501e+001  2.1153e+001  3.2265e+001 34144 98979,99109,99005
 4.0000e-001 99253 -9.1731e+001  2.2472e+001 -1.3580e+001 34144 99057,99031,99227
 4.0000e-001 99276 -8.6482e+001  9.3242e-001 -3.0616e+000 34144 99057,99227,99083
 4.0000e-001 99325 -8.5247e+001 -9.4493e-001 -3.2464e+000 34144 99083,99227,99299
 4.0000e-001 99348 -9.8339e+001  7.4947e-001  9.2899e+000 34144 99083,99299,99109
 4.0000e-001 99498 -1.7368e+002  1.7103e+001  1.8941e+001 33433 99397,99449,99423
 4.0000e-001 99475 -2.3301e+002 -5.9338e+001 -9.1784e+000 33433 99371,99449,99397
 4.0000e-001 100008 -6.7192e+001 -3.2788e+000 -1.6456e+000 32979 100103,100031,99815
 4.0000e-001 99985 -6.7070e+001 -4.3019e+000 -6.7473e+000 32979 100175,100031,99763
 4.0000e-001 99962 -6.3840e+001 -8.9173e+000 -6.6253e+000 32979 100103,99815,99789
 4.0000e-001 99939 -7.1813e+001 -8.2657e+000 -3.8284e+000 32979 100175,99763,99737
 4.0000e-001 99916 -6.6510e+001  2.2723e+001 -2.6445e+000 32979 99685,99867,99737
 4.0000e-001 99893 -3.1507e+001  9.9626e+000 -4.2804e+001 32979 99685,99737,99711
 4.0000e-001 100057 -6.2519e+001 -1.9958e+000  1.2203e-001 32979 99841,99815,100031
 4.0000e-001 100080 -6.0555e+001  1.4803e+001 -1.1508e+001 32979 99841,100031,99867
 4.0000e-001 100129 -6.4626e+001 -1.5233e+001 -2.0020e+000 32979 99763,100031,100103
 4.0000e-001 100152 -6.5198e+001 -2.4865e+001 -7.9233e+000 32979 99763,100103,99789
 4.0000e-001 100201 -7.4043e+001 -4.5922e+000 -4.8107e+000 32979 99867,100031,100175
 4.0000e-001 100224 -7.5190e+001 -4.6001e+000 -2.6340e+000 32979 99867,100175,99737
 4.0000e-001 100553 -1.5502e+001  3.0651e+000  3.6068e+001 32503 100354,100406,100380
 4.0000e-001 100530 -2.1399e+001  5.3558e+001 -7.7740e+000 32503 100328,100406,100354
 4.0000e-001 100507 -4.2796e+001 -2.2977e+000 -9.2552e+000 32503 100328,100458,100406
 4.0000e-001 100484 -9.8135e+000 -4.6897e+000  6.1648e+000 32503 100406,100458,100432
 4.0000e-001 100850 -5.9149e+001 -3.6188e+000  1.1577e+001 31899 100873,100654,100628
 4.0000e-001 100827 -5.0758e+001 -1.1787e+001  2.9120e+000 31899 100945,100873,100628
 4.0000e-001 100804 -4.3627e+001 -5.0936e+000  5.9664e+000 31899 100945,100628,100602
 4.0000e-001 100781 -3.7965e+001  1.8951e+001  4.4433e+000 31899 100576,100732,100602
 4.0000e-001 100758 -4.2706e+001 -1.7133e+000  1.2946e+001 31899 100654,100706,100680
 4.0000e-001 100899 -5.2854e+001 -3.1576e+001  1.3275e+001 31899 100706,100654,100873
 4.0000e-001 100922 -7.6879e+001 -1.8817e+001 -1.3669e+001 31899 100706,100873,100732
 4.0000e-001 100971 -6.7610e+001  1.0116e+000 -1.7543e+000 31899 100732,100873,100945
 4.0000e-001 100994 -5.8975e+001  9.3315e+000  1.8559e+000 31899 100732,100945,100602
 4.0000e-001 101551 -6.6945e+001 -1.1100e+001 -7.6085e+000 31338 101205,101387,101231
 4.0000e-001 101528 -9.5076e+001 -2.5652e+001 -3.3377e+001 31338 101179,101387,101205
 4.0000e-001 101505 -6.5966e+001 -2.6674e+001 -9.2132e+000 31338 101574,101309,101257
 4.0000e-001 101482 -5.7435e+001 -2.4899e+001 -7.9171e+000 31338 101646,101574,101257
 4.0000e-001 101459 -5.0308e+001 -1.7642e+001 -2.9514e+000 31338 101646,101257,101231
 4.0000e-001 101436 -6.5426e+001 -8.3723e+000 -1.2457e+001 31338 101309,101361,101335
 4.0000e-001 101413 -6.3267e+001 -2.0895e+001 -1.6440e+001 31338 101257,101309,101283
 4.0000e-001 101600 -6.6612e+001 -2.6420e+001 -8.8355e+000 31338 101361,101309,101574
 4.0000e-001 101623 -6.8965e+001 -3.4532e+001 -1.5582e+001 31338 101361,101574,101387
 4.0000e-001 101672 -6.5272e+001 -2.3794e+001 -1.3846e+001 31338 101387,101574,101646
 4.0000e-001 101695 -6.0121e+001 -2.2706e+001 -1.0309e+001 31338 101387,101646,101231
 4.0000e-001 101943 -1.0142e+002 -8.1260e+000  1.2251e+000 30748 101966,101796,101744
 4.0000e-001 101920 -1.0506e+002  7.7685e+000  4.8107e+000 30748 101966,101744,101718
 4.0000e-001 101897 -9.7375e+001  2.4662e+001  5.1894e+000 30748 101718,101848,101822
 4.0000e-001 101874 -8.4783e+001 -2.2745e+000  1.0766e+000 30748 101744,101796,101770
 4.0000e-001 101992 -1.0189e+002  4.8320e+000  1.0770e+000 30748 101822,101796,101966
 4.0000e-001 102015 -1.0519e+002  2.1320e+001  2.5148e+000 30748 101822,101966,101718
 4.0000e-001 102493 -1.0451e+002  2.6124e+001 -5.9200e+000 30344 102516,102173,102147
 4.0000e-001 102470 -9.5754e+001  1.3395e+001 -2.2884e+001 30344 102660,102516,102147
 4.0000e-001 102447 -1.5548e+001  2.2882e+001  1.6844e+001 30344 102588,102199,102173
 4.0000e-001 102424 -7.0865e+001  1.2556e+000 -2.3397e+001 30344 102660,102147,102329
 4.0000e-001 102401 -1.6621e+002 -3.8955e+001  7.2223e+000 30344 102199,102277,102251
 4.0000e-001 102378 -3.8343e+001 -4.9184e+001  3.4976e+001 30344 102199,102251,102225
 4.0000e-001 102355 -1.6622e+002 -2.9765e+001  4.5505e+001 30344 102121,102329,102147
 4.0000e-001 102542 -4.7282e+001  4.8547e+001  1.1793e+001 30344 102588,102173,102516
 4.0000e-001 102565 -1.1178e+002 -8.8353e-001  5.9131e+000 30344 102277,102516,102303
 4.0000e-001 102614 -4.6926e+001  1.1648e+001  9.8038e+000 30344 102277,102199,102588
 4.0000e-001 102637 -9.2014e+001  1.9613e+001 -3.6771e+000 30344 102277,102588,102516
 4.0000e-001 102686 -6.8365e+001  2.6563e+001 -1.1844e+001 30344 102303,102516,102660
 4.0000e-001 102709 -5.1345e+001  8.8897e+000 -1.2385e+001 30344 102303,102660,102329
 4.0000e-001 103294 -3.4862e+001  4.8653e+000  1.5994e+001 29726 103317,103101,103075
 4.0000e-001 103271 -4.7834e+001  2.3950e+000  1.0161e+001 29726 103317,103075,102997
 4.0000e-001 103248 -7.9415e+001 -8.7074e+000  2.5395e+001 29726 102971,103153,102997
 4.0000e-001 103225 -2.1918e+001  1.5223e+000 -2.5324e+000 29726 103101,103153,103127
 4.0000e-001 103202 -5.0000e+001 -7.1185e+000  9.8512e+000 29726 102997,103075,103023
 4.0000e-001 103179 -3.8888e+001  2.2507e+000  4.6890e+000 29726 103023,103075,103049
 4.0000e-001 103343 -2.5358e+001 -4.1746e-001  1.4943e+001 29726 103153,103101,103317
 4.0000e-001 103366 -3.5346e+001  1.0563e+000  1.1498e+001 29726 103153,103317,102997
 4.0000e-001 103614 -4.5703e+001 -1.4864e+001  4.2761e+000 29200 103781,103637,103467
 4.0000e-001 103591 -3.7831e+001 -1.0465e+001 -3.2148e+000 29200 103709,103637,103415
 4.0000e-001 103568 -3.2956e+001  1.1007e+001 -3.5980e+000 29200 103709,103415,103389
 4.0000e-001 103545 -4.9011e+001 -1.3837e+001  2.7949e+000 29200 103781,103467,103441
 4.0000e-001 103663 -3.2341e+001 -2.0523e+000 -6.6927e+000 29200 103853,103637,103493
 4.0000e-001 103686 -6.5624e+001 -4.6665e+001 -2.1379e+001 29200 103493,103637,103519
 4.0000e-001 103735 -4.2658e+001  1.2707e+001 -1.4872e+001 29200 103519,103637,103709
 4.0000e-001 103758 -4.2237e+001  2.7738e+001 -1.5542e+001 29200 103519,103709,103389
 4.0000e-001 103807 -5.0191e+001 -1.2297e+001 -2.5964e+000 29200 103415,103637,103781
 4.0000e-001 103830 -6.0936e+001 -1.5773e+001 -3.7589e+000 29200 103415,103781,103441
 4.0000e-001 103879 -3.3208e+001 -6.5817e+000 -8.9381e-001 29200 103467,103637,103853
 4.0000e-001 104545 -1.2541e+002 -1.9548e+001  4.7211e+000 28860 104274,104352,104326
 4.0000e-001 104522 -1.0120e+002 -2.9258e+001 -4.6989e+000 28860 104248,104352,104274
 4.0000e-001 104499 -7.3047e+001 -1.5740e+001 -8.7373e+000 28860 104248,104404,104352
 4.0000e-001 104476 -1.1543e+002 -4.2033e+001 -2.1175e+001 28860 104222,104404,104248
 4.0000e-001 104453 -6.8938e+001 -1.8430e+001 -1.2459e+001 28860 104352,104404,104378
 4.0000e-001 104430 -1.9436e+002 -3.9815e+001  3.5857e+000 28860 104274,104326,104300
 4.0000e-001 104744 -5.9235e+001 -1.4722e+001  1.4754e+000 28456 104839,104767,104646
 4.0000e-001 104721 -3.9678e+001 -8.4475e+000  4.6823e+000 28456 104767,104594,104568
 4.0000e-001 104698 -5.4521e+001 -2.4084e+001 -5.6885e+000 28456 104839,104646,104620
 4.0000e-001 104793 -6.4000e+001 -1.5942e+001  1.1183e+000 28456 104672,104646,104767
 4.0000e-001 104816 -4.6577e+001 -8.6807e+000 -2.3425e+000 28456 104911,104767,104568
 4.0000e-001 104865 -5.8210e+001 -1.7354e+001 -8.4724e-001 28456 104594,104767,104839
 4.0000e-001 104888 -6.2448e+001 -4.8357e+001 -3.8144e+000 28456 105041,104839,104620
 4.0000e-001 104937 -6.2904e+001 -3.5520e+001  4.8294e+000 28456 104672,104767,104911
 4.0000e-001 105067 -5.2009e+001 -1.4802e+001 -7.6703e-001 28456 104594,104839,105041
 4.0000e-001 105573 -1.0754e+002 -3.1574e+001  8.2406e+000 28094 105812,105596,105328
 4.0000e-001 105550 -1.0191e+002 -4.1025e+001  2.5034e+000 28094 105596,105276,105250
 4.0000e-001 105527 -1.0748e+002 -4.1365e+001  9.8801e+000 28094 105740,105668,105432
 4.0000e-001 105504 -9.9843e+001 -3.9682e+001  2.2075e+000 28094 105740,105432,105380
 4.0000e-001 105481 -1.0851e+002 -3.0979e+001  7.7578e+000 28094 105812,105328,105302
 4.0000e-001 105458 -6.5301e+001 -4.6064e+001 -1.1957e+000 28094 105380,105432,105406
 4.0000e-001 105622 -1.2764e+002 -4.9656e+001  1.7367e+001 28094 105354,105328,105596
 4.0000e-001 105645 -1.0406e+002 -3.8192e+001  7.1278e+000 28094 105668,105354,105596
 4.0000e-001 105694 -1.0838e+002 -5.0779e+001  1.3287e+001 28094 105250,105432,105668
 4.0000e-001 105717 -1.0784e+002 -4.2236e+001  5.4238e+000 28094 105250,105668,105596
 4.0000e-001 105766 -9.1318e+001 -3.7951e+001  3.8882e+000 28094 105354,105668,105740
 4.0000e-001 105789 -8.5984e+001 -3.5218e+001 -4.5925e+000 28094 105354,105740,105380
 4.0000e-001 105838 -1.0599e+002 -3.7993e+001  8.1618e+000 28094 105276,105596,105812
 4.0000e-001 105861 -9.5963e+001 -3.0194e+001  2.6108e+000 28094 105276,105812,105302
 4.0000e-001 106367 -2.1140e+001 -8.2999e+000 -8.6820e+000 27390 106070,106122,106096
 4.0000e-001 106344 -2.9087e+001  7.9677e+000 -7.1751e+000 27390 106070,106226,106122
 4.0000e-001 106321 -5.2606e+001  4.5258e+001 -2.0059e+001 27390 106174,106226,106200
 4.0000e-001 106298 -4.6417e+001 -2.4401e+001 -1.4000e+001 27390 106122,106226,106174
 4.0000e-001 106275 -5.4568e+001 -2.8206e+001 -1.6909e+001 27390 106122,106174,106148
 4.0000e-001 106252 -3.5046e+001  8.1025e+000  1.8811e+000 27390 106044,106226,106070
 4.0000e-001 106615 -6.2379e+001 -7.4939e+000  1.6008e+000 26978 106638,106494,106416
 4.0000e-001 106592 -5.9509e+001 -1.3048e+001  7.2977e-001 26978 106638,106416,106390
 4.0000e-001 106569 -6.1547e+001 -1.0207e+001 -6.2382e+000 26978 106416,106494,106442
 4.0000e-001 106546 -8.0911e+001 -1.4362e+001 -5.7980e+000 26978 106442,106494,106468
 4.0000e-001 106664 -6.5369e+001 -1.3103e+001  3.9686e+000 26978 106520,106494,106638
 4.0000e-001 106687 -6.0271e+001 -1.6676e+001  1.5782e+000 26978 106520,106638,106390
 4.0000e-001 106837 -1.4950e+002 -7.0475e+001 -6.6811e-003 26524 106710,106762,106736
 4.0000e-001 106814 -1.4601e+002 -7.5698e+001 -1.5870e+000 26524 106710,106788,106762
 4.0000e-001 107426 -3.5154e+001  4.5370e+000 -1.7572e+001 26120 107129,107207,107155
 4.0000e-001 107403 -5.5086e+001 -2.0143e+001 -8.8839e+000 26120 107129,107285,107207
 4.0000e-001 107380 -5.0511e+001 -8.5514e+000 -8.7680e+000 26120 107207,107285,107259
 4.0000e-001 107357 -6.0079e+001 -1.1121e+001 -7.2243e+000 26120 107155,107207,107181
 4.0000e-001 107334 -6.8012e+001 -2.5301e+001 -8.8359e+000 26120 107103,107285,107129
 4.0000e-001 107311 -4.5288e+001 -1.9032e+000 -6.1903e+000 26120 107207,107259,107233
 4.0000e-001 107755 -6.4343e+001 -2.5122e+001 -6.6788e+000 25758 107556,107634,107608
 4.0000e-001 107732 -9.3518e+001 -4.7363e+001  3.5047e+000 25758 107556,107660,107634
 4.0000e-001 107709 -5.1760e+001 -2.9938e+001  5.4318e+000 25758 107556,107608,107582
 4.0000e-001 107686 -8.7880e+001 -2.3072e+001  1.1293e+001 25758 107530,107660,107556
 4.0000e-001 108438 -5.0441e+001 -2.4602e+001  2.5621e+000 25468 108121,108199,108173
 4.0000e-001 108415 -5.6735e+001 -4.3239e+001 -1.9690e+000 25468 108095,108199,108121
 4.0000e-001 108392 -6.3730e+001 -3.6126e+001 -4.3335e+000 25468 108095,108251,108199
 4.0000e-001 108369 -6.6224e+001 -3.1479e+001 -1.3046e+000 25468 108069,108251,108095
 4.0000e-001 108346 -5.4587e+001 -3.3701e+001  2.9450e+000 25468 108199,108251,108225
 4.0000e-001 108323 -7.7942e+001 -2.4984e+001 -9.5265e+000 25468 108017,108251,108069
 4.0000e-001 108300 -4.9762e+001 -2.2014e+001  2.6528e+000 25468 108121,108173,108147
 4.0000e-001 108277 -7.7854e+001 -2.7693e+001 -1.0316e+001 25468 108017,108069,108043
 4.0000e-001 108588 -1.6770e+001 -6.2007e+000 -9.4222e+000 25064 108611,108513,108487
 4.0000e-001 108565  1.5306e+000  8.7142e+000 -2.2096e+000 25064 108683,108611,108487
 4.0000e-001 108637 -3.0068e+001  3.6167e+000  2.2360e-001 25064 108539,108513,108611
 4.0000e-001 108660 -8.5910e+000  2.4485e+001  1.1609e+001 25064 108539,108611,108461
 4.0000e-001 108709 -2.2822e+001 -3.1244e+000  2.8177e+000 25064 108461,108611,108683
 4.0000e-001 109345 -4.4475e+001 -4.3812e+000  5.6600e+000 24410 108999,109155,109103
 4.0000e-001 109322 -1.1152e+002 -2.9482e+001  8.0450e+000 24410 108973,109155,108999
 4.0000e-001 109299 -6.3206e+001 -3.1235e+001 -2.6266e+000 24410 109103,109155,109129
 4.0000e-001 109276 -5.9830e+001  2.2453e+001 -1.4078e+001 24410 108973,109181,109155
 4.0000e-001 109253 -9.6949e+001 -2.4106e+001  1.6241e+001 24410 109025,109103,109077
 4.0000e-001 109230 -7.4788e+001 -1.7530e+001  1.2972e+001 24410 108999,109103,109025
 4.0000e-001 109207 -9.9450e+001  5.0693e+000  7.4215e+000 24410 109025,109077,109051
 4.0000e-001 109723 -4.4313e+001  3.8409e+001 -1.7167e+001 23856 109475,109579,109553
 4.0000e-001 109700 -6.5256e+001 -1.2166e+001 -9.9051e+000 23856 109475,109605,109579
 4.0000e-001 109677 -7.5459e+001 -3.0184e+001 -2.7426e+001 23856 109475,109553,109527
 4.0000e-001 109654 -4.5863e+001 -4.0330e+000  6.5607e+000 23856 109449,109605,109475
 4.0000e-001 109631 -7.8222e+001 -9.8487e+000 -1.8156e+001 23856 109475,109527,109501
 4.0000e-001 110101 -5.2607e+001 -1.5244e+001 -1.8252e+000 23566 109853,109931,109879
 4.0000e-001 110078 -5.0855e+001 -6.2720e+000  7.8227e+000 23566 109827,109931,109853
 4.0000e-001 110055 -3.0972e+001  1.7499e+001 -8.6737e-001 23566 109827,109983,109931
 4.0000e-001 110032 -5.4649e+001 -1.8765e+001 -4.2860e+000 23566 109879,109931,109905
 4.0000e-001 110009 -2.9185e+001  8.8660e+000  1.0699e+001 23566 109931,109983,109957
 4.0000e-001 110735 -2.4824e+001 -1.1441e+000 -5.7377e+000 23162 110415,110571,110519
 4.0000e-001 110712 -8.6473e+000 -5.9974e-001 -2.8566e-002 23162 110389,110571,110415
 4.0000e-001 110689 -4.7869e+001 -8.0936e+000  5.5393e+000 23162 110415,110519,110493
 4.0000e-001 110666 -7.3778e+000  4.8828e-002  2.3125e-001 23162 110363,110571,110389
 4.0000e-001 110643 -8.3382e+000 -1.6939e+000 -2.2523e+000 23162 110441,110493,110467
 4.0000e-001 110620 -4.8570e+000  1.6468e+000 -3.6886e-002 23162 110415,110493,110441
 4.0000e-001 110597 -3.5422e+001  2.2478e+001  2.1006e+000 23162 110519,110571,110545
 4.0000e-001 111211 -8.6330e+001 -1.8804e+001 -8.0554e+000 22708 111378,111306,111021
 4.0000e-001 111188 -9.4264e+001 -1.9666e+001 -8.5890e+000 22708 111234,110969,110917
 4.0000e-001 111165 -7.7772e+001 -1.9514e+001 -5.7176e+000 22708 111450,111234,110917
 4.0000e-001 111142 -8.1017e+001 -1.0033e+001 -2.3897e+000 22708 111378,111021,110995
 4.0000e-001 111119 -7.7415e+001 -2.6608e+001  2.2276e+000 22708 111450,110917,110865
 4.0000e-001 111096 -1.5072e+002  3.0378e-001 -2.4612e+001 22708 110917,110969,110943
 4.0000e-001 111073 -7.6302e+001 -2.8863e+001  4.8222e-001 22708 110865,110917,110891
 4.0000e-001 111260 -9.4274e+001 -1.0679e+001 -5.3715e+000 22708 111306,110969,111234
 4.0000e-001 111283 -9.2542e+001 -2.7736e+001  6.6344e+000 22708 111047,111234,110839
 4.0000e-001 111332 -1.3732e+002  1.8914e+001 -4.4735e+001 22708 111047,111021,111306
 4.0000e-001 111355 -1.0968e+002 -1.9163e+001  6.1223e+000 22708 111047,111306,111234
 4.0000e-001 111404 -9.4039e+001 -6.2737e+000 -8.7195e+000 22708 110969,111306,111378
 4.0000e-001 111427 -9.2649e+001 -9.3107e+000 -7.2190e+000 22708 110969,111378,110995
 4.0000e-001 111476 -8.5613e+001 -3.0123e+001  2.3625e+000 22708 110839,111234,111450
 4.0000e-001 111499 -8.9316e+001 -4.1341e+001  1.0977e+001 22708 110839,111450,110865
 4.0000e-001 111600 -5.7488e+001 -5.3316e+000  4.7376e+000 22460 111522,111574,111548
 4.0000e-001 112059 -3.7932e+001  1.3916e+001 -2.2114e-001 22056 111811,111889,111863
 4.0000e-001 112036 -6.9918e+001 -9.2703e+000  1.0029e+001 22056 111811,111915,111889
 4.0000e-001 112013 -2.5381e+001 -1.5227e+001 -1.6310e+001 22056 111785,111915,111811
 4.0000e-001 111990 -1.7678e+001  3.7278e+000 -3.1855e+001 22056 111785,111941,111915
 4.0000e-001 111967 -2.9452e+000  3.5735e+001 -1.9199e+001 22056 111811,111863,111837
 4.0000e-001 112486 -6.7582e+001  1.6834e+001  6.4784e+000 21594 112509,112267,112215
 4.0000e-001 112463 -5.1773e+001  2.6091e+001 -8.7615e+000 21594 112509,112215,112163
 4.0000e-001 112440 -5.9677e+001 -1.4046e+001  2.8450e+001 21594 112581,112293,112267
 4.0000e-001 112417 -2.6236e+001  1.9321e+001 -6.0601e+000 21594 112215,112267,112241
 4.0000e-001 112394 -7.9096e+001  8.3494e+000 -6.2707e+000 21594 112163,112345,112319
 4.0000e-001 112371 -5.0082e+001  1.6503e+001 -3.9748e+000 21594 112163,112215,112189
 4.0000e-001 112535 -7.5950e+001  2.2675e+000  1.3374e+001 21594 112581,112267,112509
 4.0000e-001 112558 -6.1447e+001  8.8717e+000 -4.8631e+000 21594 112319,112509,112163
 4.0000e-001 112607 -3.4147e+001  1.4089e+000  2.0503e+001 21594 112319,112293,112581
 4.0000e-001 112630 -4.8136e+001  2.4490e+001  3.6053e+000 21594 112319,112581,112509
 4.0000e-001 112900 -9.0050e+001 -1.2297e+001 -1.6012e+000 20974 112675,112779,112701
 4.0000e-001 112877 -9.0154e+001 -4.2777e-001 -8.0197e+000 20974 112675,112805,112779
 4.0000e-001 112854 -1.0123e+002 -3.7209e+001 -9.1981e+000 20974 112701,112779,112753
 4.0000e-001 112831 -1.1254e+002 -6.5272e+001  6.9700e+000 20974 112701,112753,112727
 4.0000e-001 113359 -4.9489e+001  3.9234e+001  3.8391e+001 20520 113454,113137,113111
 4.0000e-001 113336 -8.1467e+001  1.0503e+000  1.8482e+001 20520 113454,113111,113085
 4.0000e-001 113313 -5.3971e+001 -1.3270e+001  2.7120e+001 20520 113382,113163,113137
 4.0000e-001 113290 -6.6037e+001 -2.0722e+001  2.3902e+001 20520 113526,113382,113137
 4.0000e-001 113267 -4.7680e+001 -3.0437e+000  6.5302e+000 20520 113189,113241,113215
 4.0000e-001 113408 -5.5927e+001 -1.5109e+001  2.0686e+001 20520 113189,113163,113382
 4.0000e-001 113431 -6.1347e+001 -2.1167e+001  1.3207e+001 20520 113189,113382,113241
 4.0000e-001 113480 -7.2857e+001 -8.2174e+000  1.9367e+001 20520 113526,113137,113454
 4.0000e-001 113503 -6.8747e+001 -1.2876e+001  4.1110e+000 20520 113241,113454,113085
 4.0000e-001 113552 -5.2636e+001 -2.4968e+000  1.6753e+001 20520 113241,113382,113526
 4.0000e-001 113575 -5.9506e+001  7.5125e+000  1.1818e+001 20520 113241,113526,113454
 4.0000e-001 113904 -1.7344e+001 -9.4982e+000 -1.4423e+001 19858 113705,113783,113757
 4.0000e-001 113881 -8.5364e-001  1.1520e+001 -2.1576e+001 19858 113705,113809,113783
 4.0000e-001 113858 -4.9880e+001 -1.3464e+001 -6.0194e+000 19858 113679,113809,113705
 4.0000e-001 113835 -1.6915e+001  1.2620e+000  2.3493e-001 19858 113705,113757,113731
 4.0000e-001 114152 -7.9471e+001 -2.5989e+001 -2.2860e+001 19454 114175,114005,113979
 4.0000e-001 114129 -8.3421e+001 -2.6429e+001 -2.4278e+001 19454 114175,113979,114057
 4.0000e-001 114106 -8.1248e+001  5.8350e+000  2.0651e+001 19454 113927,114057,113979
 4.0000e-001 114083 -5.7855e+001 -1.9708e+000 -2.7353e+000 19454 113927,113979,113953
 4.0000e-001 114201  9.2015e+000  1.2082e+001 -5.4364e+000 19454 114031,114005,114175
 4.0000e-001 114224 -8.0504e+001 -3.2389e+001 -2.3486e+001 19454 114031,114175,114057
 4.0000e-001 114472 -4.9547e+001  1.2099e+001 -1.2980e+001 19000 114495,114273,114247
 4.0000e-001 114449 -4.4746e+001 -1.6289e-002 -8.3599e+000 19000 114495,114247,114325
 4.0000e-001 114426 -5.5600e+001 -8.4889e+000 -8.4919e-001 19000 114247,114377,114325
 4.0000e-001 114403 -5.3723e+001 -6.3829e+000  2.2463e+000 19000 114325,114377,114351
 4.0000e-001 114521 -5.9496e+001  6.2218e+000 -4.7387e+000 19000 114299,114273,114495
 4.0000e-001 114544 -4.6201e+001 -6.6468e+000 -4.5249e+000 19000 114299,114495,114325
 4.0000e-001 114948 -1.1478e+002 -4.1444e+001 -5.5398e+000 18560 114674,114726,114700
 4.0000e-001 114925 -1.1760e+002 -5.7537e+001 -3.9255e+000 18560 114674,114830,114726
 4.0000e-001 114902 -1.2078e+002 -6.6444e+001 -1.0930e+001 18560 114726,114830,114804
 4.0000e-001 114879 -8.9024e+001 -4.3553e+001  9.2179e-001 18560 114726,114804,114752
 4.0000e-001 114856 -1.0333e+002 -5.3408e+001  6.2477e+000 18560 114752,114804,114778
 4.0000e-001 115098  1.1081e+001  6.5988e+001 -1.0686e+001 18156 114971,115023,114997
 4.0000e-001 115075  8.7836e+000  2.3491e+001 -8.8900e+000 18156 114971,115049,115023
 4.0000e-001 115248 -7.0859e+001  2.0279e+001 -3.8519e+000 17602 115147,115199,115173
 4.0000e-001 115225 -2.7236e+001  2.1166e+001 -3.0144e+000 17602 115121,115199,115147
 4.0000e-001 115652 -4.8177e+001 -3.4672e+000 -3.8926e+000 17354 115430,115534,115508
 4.0000e-001 115629 -3.6038e+001  2.6354e+001 -1.0992e+001 17354 115404,115534,115430
 4.0000e-001 115606 -3.7345e+001  2.4089e+001 -1.1833e+001 17354 115378,115534,115404
 4.0000e-001 115583 -9.9481e+001  1.1417e+001  1.2401e+001 17354 115456,115508,115482
 4.0000e-001 115560 -3.7270e+001  2.1713e+001 -2.5289e+000 17354 115430,115508,115456
 4.0000e-001 115873 -7.7787e+001  1.6260e+001  2.6166e+001 16950 115749,115801,115775
 4.0000e-001 115850 -9.1042e+001 -1.3909e+001  1.3303e+001 16950 115697,115801,115749
 4.0000e-001 115827 -9.3771e+001 -2.0520e+001  1.2682e+001 16950 115697,115749,115723
 4.0000e-001 116023 -9.1695e+001 -2.5723e+000  2.9996e+000 16496 115922,115974,115948
 4.0000e-001 116000 -6.0965e+001 -1.3419e+001  3.2840e-001 16496 115896,115974,115922
 4.0000e-001 116126 -8.6614e+001  5.3669e+001 -1.4773e+001 16298 116048,116100,116074
 4.0000e-001 116278 -1.4000e+002  5.4773e+001 -5.0818e+000 15892 116151,116203,116177
 4.0000e-001 116255 -1.5288e+002 -6.6743e+000 -1.7994e+001 15892 116151,116229,116203
 4.0000e-001 116430 -5.7007e+001 -5.6176e+001 -1.9305e+000 15545 116303,116355,116329
 4.0000e-001 116407 -3.3928e+001 -2.3616e+001  1.3140e+001 15545 116303,116381,116355
 4.0000e-001 116785 -3.8725e+001 -9.5914e+000  7.4512e+000 421 116612,116690,116664
 4.0000e-001 116762 -3.8388e+001 -8.7529e+000  9.0431e+000 421 116560,116690,116612
 4.0000e-001 116739 -2.4359e+001  1.2352e+000  5.0732e-001 421 116560,116612,116586
 4.0000e-001 116716 -1.9309e+001  3.0309e+001  1.7566e+001 421 116612,116664,116638
 5.0000e-001 68048 -1.6487e+002  5.8528e+000 -1.0991e+000 67642 67898,67950,67924
 5.0000e-001 68025 -1.8022e+002 -2.0300e+001  5.2773e+000 67642 67898,67976,67950
 5.0000e-001 68002 -1.1893e+002  8.4547e+000 -3.2539e+000 67642 67872,67976,67898
 5.0000e-001 68367 -1.3251e+002 -4.1031e+001  1.5819e+000 67444 68119,68223,68197
 5.0000e-001 68344 -1.3213e+002 -4.4119e+001  8.3518e-001 67444 68119,68249,68223
 5.0000e-001 68321 -9.7702e+001 -3.0138e+001  3.6981e-001 67444 68093,68249,68119
 5.0000e-001 68298 -1.3913e+002 -5.3726e+001 -4.4121e+000 67444 68119,68197,68171
 5.0000e-001 68275 -1.1125e+002 -2.1491e+001  1.1716e+001 67444 68119,68171,68145
 5.0000e-001 68468 -1.4205e+002 -3.3999e+000 -4.7372e-001 67268 68390,68442,68416
 5.0000e-001 68765 -1.4498e+002  1.0001e+001 -2.4749e+000 66956 68788,68517,68491
 5.0000e-001 68742 -1.4332e+002  3.2442e+000 -3.6088e+000 66956 68788,68491,68621
 5.0000e-001 68719 -1.6654e+002 -4.1491e+000 -2.2470e+001 66956 68543,68621,68569
 5.0000e-001 68696 -1.3741e+002  1.5748e+001 -5.3872e+000 66956 68491,68647,68621
 5.0000e-001 68673 -2.3936e+002 -6.7525e+001 -4.9939e+001 66956 68569,68621,68595
 5.0000e-001 68814 -1.4421e+002  4.9804e+000 -6.0248e-001 66956 68543,68517,68788
 5.0000e-001 68837 -1.4215e+002 -1.4120e+000 -2.3364e+000 66956 68543,68788,68621
 5.0000e-001 69107 -1.3630e+002 -7.8544e+001 -5.6758e+000 66758 68882,68986,68908
 5.0000e-001 69084 -1.0514e+002 -5.9717e+001  4.5844e+000 66758 68882,69012,68986
 5.0000e-001 69061 -1.9853e+002 -4.2399e+001 -1.5188e+001 66758 68908,68960,68934
 5.0000e-001 69038 -1.2374e+002 -4.1370e+001 -1.0921e+001 66758 68908,68986,68960
 5.0000e-001 69308 -1.2651e+002  7.5144e+000 -3.4003e-001 66560 69331,69184,69158
 5.0000e-001 69285 -1.3416e+002  4.8376e+000 -2.1371e+000 66560 69331,69158,69132
 5.0000e-001 69262 -1.2016e+002 -2.5238e+001 -1.0931e+001 66560 69184,69236,69210
 5.0000e-001 69357 -1.2036e+002  3.6115e+000  1.0890e+000 66560 69236,69184,69331
 5.0000e-001 69380 -1.2545e+002  2.2523e+000 -1.1936e+000 66560 69236,69331,69132
 5.0000e-001 69554 -8.4988e+001  5.3626e+001 -2.9187e+000 66270 69427,69479,69453
 5.0000e-001 69531 -9.0697e+001  4.0315e+001 -5.5581e+000 66270 69427,69505,69479
 5.0000e-001 69804 -9.3527e+001 -3.4308e+001  1.1673e+001 66066 69579,69683,69657
 5.0000e-001 69781 -1.0677e+002 -4.0176e+001  1.3596e+001 66066 69579,69709,69683
 5.0000e-001 69758 -9.0750e+001 -1.9522e+001  1.1096e+001 66066 69579,69657,69631
 5.0000e-001 69735 -8.6921e+001 -1.0469e+001  1.1186e+001 66066 69579,69631,69605
 5.0000e-001 70257 -1.1721e+002 -1.6261e+001 -2.1143e+001 65776 69960,70090,69986
 5.0000e-001 70234 -1.0949e+002 -1.0573e+001 -1.2023e+001 65776 69934,70090,69960
 5.0000e-001 70211 -4.8490e+001  1.7356e+001 -4.6521e+000 65776 69934,70116,70090
 5.0000e-001 70188 -1.1981e+002  2.3750e+001  0.0000e+000 65776 70038,70090,70064
 5.0000e-001 70165 -1.0941e+002  4.0785e+001 -1.4879e+001 65776 69986,70090,70038
 5.0000e-001 70142 -1.3218e+002 -1.9366e+001 -3.2899e+001 65776 69986,70038,70012
 5.0000e-001 70456 -8.8845e+001 -1.2036e+001 -4.3974e+000 65372 70479,70306,70280
 5.0000e-001 70433 -8.4691e+001 -2.0967e+000 -5.4558e+000 65372 70479,70280,70384
 5.0000e-001 70410 -8.1309e+001 -1.5036e+001 -5.0112e+000 65372 70551,70332,70306
 5.0000e-001 70505 -8.2610e+001 -1.1094e+001 -8.2129e+000 65372 70551,70306,70479
 5.0000e-001 70528 -8.0970e+001 -9.5880e+000 -1.0678e+001 65372 70358,70479,70384
 5.0000e-001 70577 -8.1767e+001 -2.0885e+001 -5.9486e+000 65372 70358,70332,70551
 5.0000e-001 70600 -8.4448e+001 -1.8669e+001 -8.8667e+000 65372 70358,70551,70479
 5.0000e-001 70821 -5.3201e+001 -1.8578e+001 -3.1019e+000 65174 70645,70723,70671
 5.0000e-001 70798 -1.2284e+002 -4.2490e+001  6.6914e+000 65174 70645,70749,70723
 5.0000e-001 70775 -4.1986e+001 -1.2160e+001 -6.9173e+000 65174 70671,70723,70697
 5.0000e-001 71071 -5.8724e+001 -3.4741e-001 -9.5177e+000 64770 71094,70898,70872
 5.0000e-001 71048 -6.5399e+001 -4.5312e+000 -5.7689e+000 64770 71166,71094,70872
 5.0000e-001 71025 -7.1233e+001 -7.1218e+000 -6.5583e+000 64770 71166,70872,70846
 5.0000e-001 71002 -1.1261e+002  7.3571e+000 -4.6572e+000 64770 70898,70950,70924
 5.0000e-001 71120 -6.2581e+001  9.9488e+000 -1.4848e+001 64770 70950,70898,71094
 5.0000e-001 71143 -6.2650e+001  5.0086e-002 -8.6765e+000 64770 70950,71094,70976
 5.0000e-001 71192 -6.0311e+001 -9.5653e+000 -1.0596e+001 64770 70976,71094,71166
 5.0000e-001 71215 -6.4055e+001 -1.1022e+001 -1.0600e+001 64770 70976,71166,70846
 5.0000e-001 71514 -1.1128e+002 -1.7501e+001 -7.9980e+000 64572 71681,71537,71318
 5.0000e-001 71491 -1.2721e+002 -1.6006e+001 -1.0057e+001 64572 71537,71266,71240
 5.0000e-001 71468 -1.1291e+002 -1.8070e+001 -1.7508e+001 64572 71609,71396,71370
 5.0000e-001 71445 -1.1149e+002 -1.9639e+001 -7.1282e+000 64572 71681,71318,71292
 5.0000e-001 71422 -1.0659e+002 -4.0226e+001 -4.8402e+000 64572 71753,71344,71318
 5.0000e-001 71563 -1.0684e+002 -2.4031e+001 -1.3467e+001 64572 71753,71318,71537
 5.0000e-001 71586 -1.1213e+002 -2.0920e+001 -1.4550e+001 64572 71609,71370,71537
 5.0000e-001 71635 -1.0757e+002 -7.7711e+000 -2.1661e+001 64572 71240,71396,71609
 5.0000e-001 71658 -1.1139e+002 -1.5120e+001 -1.7773e+001 64572 71240,71609,71537
 5.0000e-001 71707 -1.1479e+002 -1.0615e+001 -9.2736e+000 64572 71266,71537,71681
 5.0000e-001 71730 -1.1825e+002 -1.4490e+001 -6.9258e+000 64572 71266,71681,71292
 5.0000e-001 71779 -8.8530e+001 -2.3596e+001 -1.2265e+001 64572 71370,71344,71753
 5.0000e-001 71802 -9.8219e+001 -1.7899e+001 -1.6146e+001 64572 71370,71753,71537
 5.0000e-001 72052 -5.6301e+001 -6.4749e+000 -3.2609e+000 64374 72075,71879,71827
 5.0000e-001 72029 -7.1232e+001 -1.1099e+001 -5.5365e+000 64374 72147,72075,71827
 5.0000e-001 72006 -6.5219e+001 -7.3496e+000 -3.8450e+000 64374 72147,71827,71957
 5.0000e-001 71983 -3.9546e+001 -4.4789e+000 -1.3713e+001 64374 71827,71879,71853
 5.0000e-001 72101 -6.1380e+001  1.5674e+001 -2.2867e+001 64374 71905,71879,72075
 5.0000e-001 72124 -1.2309e+002 -8.6410e+000 -1.9061e+001 64374 71905,72075,71931
 5.0000e-001 72173 -7.4945e+001 -4.3873e+000 -1.7763e+000 64374 71931,72075,72147
 5.0000e-001 72196 -7.4060e+001 -3.5793e+000 -1.3510e+000 64374 71931,72147,71957
 5.0000e-001 72649 -1.4605e+002 -5.3693e+001  7.2259e+000 63948 72352,72508,72482
 5.0000e-001 72626 -1.5472e+002 -8.1190e+001 -2.3477e+001 63948 72326,72508,72352
 5.0000e-001 72603 -1.2256e+002 -5.3639e+001  2.4779e-001 63948 72672,72430,72378
 5.0000e-001 72580 -1.1527e+002 -2.0094e+001 -1.0621e+001 63948 72672,72378,72352
 5.0000e-001 72557 -1.2521e+002 -8.2199e+001 -2.0290e+000 63948 72744,72456,72430
 5.0000e-001 72534 -1.2486e+002 -3.0942e+001  2.5052e+001 63948 72378,72430,72404
 5.0000e-001 72698 -1.2355e+002 -7.4785e+001  2.0661e+000 63948 72744,72430,72672
 5.0000e-001 72721 -1.2579e+002 -4.8734e+001  1.6309e+000 63948 72482,72672,72352
 5.0000e-001 72770 -1.3999e+002 -6.8490e+001 -6.3604e-001 63948 72482,72456,72744
 5.0000e-001 72793 -1.2882e+002 -5.0256e+001  5.6220e+000 63948 72482,72744,72672
 5.0000e-001 72894 -1.4432e+002 -8.8839e+000  9.6787e+000 63494 72816,72868,72842
 5.0000e-001 73093 -4.6331e+001  7.0442e+001 -1.4773e+001 63132 72943,72995,72969
 5.0000e-001 73070 -1.4688e+002  2.9541e+001 -1.2929e+001 63132 72943,73021,72995
 5.0000e-001 73047 -1.4863e+002 -1.5416e+001 -2.7648e+000 63132 72917,73021,72943
 5.0000e-001 73294 -1.0089e+002 -1.2586e+001  1.9035e+001 62792 73317,73144,73118
 5.0000e-001 73271 -9.2067e+001  4.7947e+000  1.2753e+001 62792 73317,73118,73222
 5.0000e-001 73248 -8.5078e+001 -3.1152e+001  1.3859e+000 62792 73144,73196,73170
 5.0000e-001 73343 -9.0061e+001 -2.7987e+001 -2.5039e-001 62792 73196,73144,73317
 5.0000e-001 73366 -7.7425e+001 -9.7506e-001 -7.3660e+000 62792 73196,73317,73222
 5.0000e-001 73616 -1.3881e+002 -3.2012e+001  1.1627e+001 62388 73639,73417,73391
 5.0000e-001 73593 -1.2538e+002 -2.4758e+000  5.4182e-002 62388 73711,73639,73391
 5.0000e-001 73570 -1.2170e+002  3.0820e+001 -2.7237e+000 62388 73711,73391,73521
 5.0000e-001 73547 -1.1860e+002 -9.5130e+000 -2.1787e+001 62388 73469,73521,73495
 5.0000e-001 73665 -1.0838e+002 -2.0611e+001 -4.1946e-001 62388 73443,73417,73639
 5.0000e-001 73688 -1.2270e+002 -2.4068e+001 -7.1520e+000 62388 73443,73639,73469
 5.0000e-001 73737 -1.2142e+002 -2.5549e+001 -5.9164e+000 62388 73469,73639,73711
 5.0000e-001 73760 -1.2928e+002 -9.4663e+000 -3.3058e+000 62388 73469,73711,73521
 5.0000e-001 74010 -1.3199e+002 -4.9681e+001 -1.6908e+001 61848 74033,73837,73811
 5.0000e-001 73987 -7.4833e+001 -4.4716e+001  7.9582e+000 61848 74033,73811,73785
 5.0000e-001 73964 -1.2184e+002 -2.6066e+001  9.1196e+000 61848 73837,73915,73889
 5.0000e-001 73941 -1.5908e+002  4.2608e+000 -1.0715e+001 61848 73837,73889,73863
 5.0000e-001 74059 -1.3804e+002 -2.9694e+001 -3.8124e+000 61848 73915,73837,74033
 5.0000e-001 74082 -1.3266e+002 -1.5551e+001  4.6882e+000 61848 73915,74033,73785
 5.0000e-001 74283 -1.3610e+002 -9.4253e+000 -2.5837e+001 61444 74306,74133,74107
 5.0000e-001 74260 -1.4798e+002  1.3681e+000  2.0961e+001 61444 74306,74107,74211
 5.0000e-001 74237 -1.7118e+002 -5.9897e+001  1.9987e+001 61444 74378,74185,74159
 5.0000e-001 74332 -1.8470e+002 -3.0477e+001 -3.0144e+001 61444 74159,74133,74306
 5.0000e-001 74355 -1.7532e+002 -2.3567e+001  1.7983e+001 61444 74378,74159,74306
 5.0000e-001 74404 -1.5892e+002 -2.0976e+001  1.3302e+001 61444 74211,74185,74378
 5.0000e-001 74427 -1.6585e+002 -1.1985e+001  1.3881e+001 61444 74211,74378,74306
 5.0000e-001 74628 -9.9332e+001  1.3063e+001  2.3840e+001 60990 74478,74530,74504
 5.0000e-001 74605 -8.4337e+001 -7.3673e+000  1.3063e+000 60990 74452,74530,74478
 5.0000e-001 74582 -9.4530e+001 -2.9875e+001  1.1627e+001 60990 74452,74556,74530
 5.0000e-001 75089  7.1886e+000  5.8582e+000 -2.6227e+000 60486 75112,74945,74919
 5.0000e-001 75066 -1.0105e+001  1.8438e+001  1.8832e+001 60486 75112,74919,74867
 5.0000e-001 75043 -3.3523e+001  1.7705e+001  9.8841e+000 60486 74841,74971,74867
 5.0000e-001 75020 -8.8151e+001  9.2490e+000 -1.1285e+001 60486 74867,74919,74893
 5.0000e-001 74997  6.0445e+000  1.5115e+001 -6.3452e+000 60486 74815,74971,74841
 5.0000e-001 75138 -1.9317e+001 -6.3980e+000 -5.7706e+000 60486 74971,74945,75112
 5.0000e-001 75161 -2.9631e+001  8.1412e+000  1.4810e+001 60486 74971,75112,74867
 5.0000e-001 75409 -7.9250e+001 -7.2365e+000 -1.6021e+001 59932 75576,75432,75288
 5.0000e-001 75386 -1.0797e+002 -2.0875e+001 -1.2502e+001 59932 75504,75314,75288
 5.0000e-001 75363 -8.8714e+001 -2.5011e+001 -4.1698e+000 59932 75432,75236,75210
 5.0000e-001 75340 -3.7192e+001  1.1315e+001 -1.1715e+001 59932 75576,75288,75262
 5.0000e-001 75458 -1.0727e+002 -2.0088e+001 -1.2820e+001 59932 75504,75288,75432
 5.0000e-001 75481 -1.1024e+002 -2.2101e+001  1.1477e+001 59932 75184,75432,75210
 5.0000e-001 75530 -1.4441e+002 -5.2381e+001  9.1514e+000 59932 75184,75314,75504
 5.0000e-001 75553 -1.0230e+002 -2.1159e+001 -9.1343e+000 59932 75184,75504,75432
 5.0000e-001 75602 -1.0363e+002  6.9884e+000 -1.1317e+001 59932 75236,75432,75576
 5.0000e-001 75625 -9.7451e+001  3.3717e+000 -1.4570e+001 59932 75236,75576,75262
 5.0000e-001 75873 -6.7509e+001 -9.2790e+000  9.1828e+000 59478 75674,75752,75700
 5.0000e-001 75850 -6.5913e+001 -8.6340e+000  7.4978e+000 59478 75648,75752,75674
 5.0000e-001 75827 -9.5555e+001 -1.5070e+001  7.7985e+000 59478 75700,75752,75726
 5.0000e-001 75804 -6.9846e+001 -7.6349e+000  7.8820e+000 59478 75648,75778,75752
 5.0000e-001 76206 -7.1831e+001 -2.1301e+001 -1.1536e+001 59024 75981,76059,76007
 5.0000e-001 76183 -7.5550e+001 -4.5884e+000 -1.5309e+001 59024 75981,76111,76059
 5.0000e-001 76160 -6.4187e+001 -1.2696e+001 -1.6236e+001 59024 76007,76059,76033
 5.0000e-001 76137 -7.3441e+001  2.9117e+001 -3.6701e+001 59024 76059,76111,76085
 5.0000e-001 76761 -3.1096e+001 -2.8622e+000  1.0875e+001 58562 76389,76441,76415
 5.0000e-001 76738 -5.8865e+001  8.0726e+000 -2.3110e+000 58562 76856,76784,76389
 5.0000e-001 76715 -6.9061e+001 -2.9562e+000 -1.4347e+001 58562 76784,76571,76467
 5.0000e-001 76692 -9.9278e+001  2.2905e+001 -7.0810e+000 58562 76856,76389,76597
 5.0000e-001 76669 -1.4131e+002 -3.4727e+001 -5.7229e+000 58562 76467,76545,76493
 5.0000e-001 76646 -7.1737e+001 -2.3572e+000 -1.4392e+001 58562 76467,76571,76545
 5.0000e-001 76623 -4.2059e+001  2.6782e-001  5.8491e+000 58562 76493,76545,76519
 5.0000e-001 76810 -5.3258e+001 -2.5723e+000 -9.3024e+000 58562 76441,76389,76784
 5.0000e-001 76833 -6.5550e+001 -3.0357e+000 -4.9012e+000 58562 76441,76784,76467
 5.0000e-001 76882 -1.0227e+002 -1.4391e+001 -2.1644e+001 58562 76571,76784,76856
 5.0000e-001 76905 -1.2835e+002  1.0237e+001 -2.6580e+001 58562 76571,76856,76597
 5.0000e-001 77055 -1.3059e+002 -3.0091e+001 -6.3485e-001 57844 76928,76980,76954
 5.0000e-001 77032 -8.5725e+001 -4.7150e+000 -1.5877e+001 57844 76928,77006,76980
 5.0000e-001 77533 -1.1180e+002 -2.1240e+001  3.7095e+000 57226 77628,77556,77291
 5.0000e-001 77510 -1.1917e+002  3.6015e+001  1.2032e+001 57226 77556,77187,77343
 5.0000e-001 77487 -8.3280e+001  1.0788e+000 -6.1392e+000 57226 77628,77291,77265
 5.0000e-001 77464 -7.5349e+001 -2.2128e+001 -4.0602e+000 57226 77700,77213,77187
 5.0000e-001 77441 -2.5522e+002 -1.7749e+001  1.1095e+001 57226 77161,77343,77187
 5.0000e-001 77418 -1.7442e+002 -3.7691e+000  1.6916e+000 57226 77161,77369,77343
 5.0000e-001 77395 -6.6005e+001 -4.7296e+000 -4.4112e+001 57226 77213,77265,77239
 5.0000e-001 77582 -1.0065e+002 -3.1019e-001 -4.5725e+000 57226 77317,77291,77556
 5.0000e-001 77605 -1.5917e+002  1.3033e+001 -5.2620e+000 57226 77317,77556,77343
 5.0000e-001 77654 -6.4030e+001  6.9059e+000  1.5295e+001 57226 77187,77556,77628
 5.0000e-001 77677 -6.7656e+001 -2.0408e+001  5.8875e+000 57226 77700,77187,77628
 5.0000e-001 77726 -1.0215e+002 -3.4620e+001 -2.2689e+001 57226 77265,77213,77700
 5.0000e-001 77749 -8.9465e+001 -2.0997e+001 -1.0559e+001 57226 77265,77700,77628
 5.0000e-001 78046 -1.3242e+002 -2.7241e+000 -6.4510e+000 56936 77798,77850,77824
 5.0000e-001 78023 -1.3245e+002 -4.4808e+001 -1.3858e+001 56936 78069,77798,77902
 5.0000e-001 78000 -1.4097e+002 -3.5146e+001 -1.3901e+001 56936 78069,77902,77876
 5.0000e-001 77977 -1.6286e+002 -6.0736e+001 -3.0474e+001 56936 77798,77928,77902
 5.0000e-001 77954 -1.9030e+002 -3.4030e+001 -2.7565e+001 56936 77772,77928,77798
 5.0000e-001 78095 -1.3140e+002 -3.9203e+001 -1.7378e+001 56936 77850,77798,78069
 5.0000e-001 78118 -1.3557e+002 -2.9241e+001 -1.9963e+001 56936 77850,78069,77876
 5.0000e-001 78754 -9.3228e+001 -5.5881e+001  8.1814e+000 56475 78777,78486,78408
 5.0000e-001 78731 -1.3547e+002 -8.7203e+001  2.2221e+001 56475 78777,78408,78382
 5.0000e-001 78708 -1.2358e+002 -6.4371e+001 -6.9197e+000 56475 78849,78512,78486
 5.0000e-001 78685 -1.1655e+002 -3.7833e+001  4.6891e+000 56475 78382,78590,78564
 5.0000e-001 78662 -1.5156e+002 -1.6508e+001 -1.4085e+001 56475 78512,78564,78538
 5.0000e-001 78639 -1.0174e+002 -5.1460e+001  7.8283e+000 56475 78434,78486,78460
 5.0000e-001 78616 -9.3799e+001 -5.5720e+001  1.0251e+001 56475 78408,78486,78434
 5.0000e-001 78803 -1.2226e+002 -5.9065e+001 -1.9885e+000 56475 78849,78486,78777
 5.0000e-001 78826 -1.2250e+002 -5.1877e+001  8.3017e+000 56475 78564,78777,78382
 5.0000e-001 78875 -1.2123e+002 -5.4800e+001 -3.3519e+000 56475 78564,78512,78849
 5.0000e-001 78898 -1.2196e+002 -4.9369e+001  3.9530e-001 56475 78564,78849,78777
 5.0000e-001 79276 -1.0517e+002 -3.6299e+001  3.6318e+000 55964 79299,79080,79028
 5.0000e-001 79253 -1.1919e+002 -4.0229e+001  2.8490e+000 55964 79299,79028,79132
 5.0000e-001 79230 -9.4162e+001 -2.6470e+000  7.7759e-001 55964 79028,79080,79054
 5.0000e-001 79207 -1.1150e+002 -4.4536e+001  6.2651e-001 55964 79002,79132,79028
 5.0000e-001 79184 -1.4966e+002 -6.0262e+001 -5.3376e+000 55964 79002,79158,79132
 5.0000e-001 79325 -1.1134e+002 -3.2496e+001 -7.3496e+000 55964 79106,79080,79299
 5.0000e-001 79348 -1.2680e+002 -3.6731e+001 -7.4813e+000 55964 79106,79299,79132
 5.0000e-001 79498 -1.3380e+002 -2.2795e+001 -1.1029e+001 55452 79397,79449,79423
 5.0000e-001 79475 -1.0600e+002  1.0355e+001  1.1058e+000 55452 79371,79449,79397
 5.0000e-001 79795 -7.9928e+001 -2.3977e+001 -1.7601e+000 55048 79962,79818,79573
 5.0000e-001 79772 -8.5971e+001 -6.4892e+000 -5.1229e+000 55048 79818,79521,79677
 5.0000e-001 79749 -7.1907e+001 -4.3866e+001 -7.1047e+000 55048 79599,79651,79625
 5.0000e-001 79726 -8.8562e+001 -2.5717e+001 -9.8561e+000 55048 79890,79651,79599
 5.0000e-001 79703 -7.6110e+001 -2.0359e+001  1.4620e+000 55048 79962,79573,79547
 5.0000e-001 79844 -8.0649e+001 -3.0036e+001 -2.8548e+000 55048 79599,79573,79818
 5.0000e-001 79867 -8.3462e+001 -1.9004e+001 -1.9779e+000 55048 79890,79599,79818
 5.0000e-001 79916 -9.9489e+001 -2.8846e+001 -1.6992e+001 55048 79677,79651,79890
 5.0000e-001 79939 -9.5799e+001 -2.6419e+001 -9.7982e+000 55048 79677,79890,79818
 5.0000e-001 79988 -8.3318e+001 -2.6715e+001 -4.1925e+000 55048 79521,79818,79962
 5.0000e-001 80011 -8.2597e+001 -2.5921e+001 -1.5604e+000 55048 79521,79962,79547
 5.0000e-001 80212 -1.2332e+002  5.0957e+000 -1.2963e+001 54436 80235,80088,80036
 5.0000e-001 80189 -8.7289e+001 -2.5398e+001 -3.9259e+000 54436 80235,80036,80140
 5.0000e-001 80166 -1.1824e+002  3.5447e+001 -2.2081e+000 54436 80036,80088,80062
 5.0000e-001 80261 -9.7377e+001  1.4097e+001  1.8526e+000 54436 80114,80088,80235
 5.0000e-001 80284 -4.8342e+001 -1.9040e+000  1.4540e+001 54436 80114,80235,80140
 5.0000e-001 80534 -1.1924e+002 -2.1148e+001 -4.2756e+000 54032 80557,80361,80335
 5.0000e-001 80511 -1.0363e+002 -1.2293e+001 -7.8319e+000 54032 80557,80335,80309
 5.0000e-001 80488 -9.6129e+001 -3.0152e+001 -4.5276e+000 54032 80629,80413,80387
 5.0000e-001 80465 -1.0119e+002 -4.3784e+001 -6.6985e+000 54032 80309,80439,80413
 5.0000e-001 80583 -1.0585e+002 -2.0658e+001  5.5691e+000 54032 80387,80361,80557
 5.0000e-001 80606 -9.3431e+001 -2.2029e+001  2.1939e+000 54032 80629,80387,80557
 5.0000e-001 80655 -1.0225e+002 -3.1702e+001 -8.6691e+000 54032 80309,80413,80629
 5.0000e-001 80678 -1.0567e+002 -2.9810e+001 -2.9159e+000 54032 80309,80629,80557
 5.0000e-001 81139 -1.8561e+001  4.4661e+001  4.6117e+001 53784 80865,80995,80917
 5.0000e-001 81116 -7.3566e+001  5.1791e+001 -3.7311e+001 53784 80865,81021,80995
 5.0000e-001 81093 -1.6703e+001  1.7944e+000  6.4672e+000 53784 80943,80995,80969
 5.0000e-001 81070  2.7271e+001  3.0200e+001  4.5707e+001 53784 80917,80995,80943
 5.0000e-001 81047 -1.1343e+002  3.3388e+002  1.1888e+002 53784 80865,80917,80891
 5.0000e-001 81468 -8.6229e+001 -1.8668e+001  7.3357e-001 53230 81295,81373,81347
 5.0000e-001 81445 -7.9462e+001 -1.6794e+001  4.5933e+000 53230 81243,81373,81295
 5.0000e-001 81422 -5.3194e+001 -9.9018e+000  2.3437e+001 53230 81243,81295,81269
 5.0000e-001 81399 -1.0390e+002 -2.6794e+001  2.8408e+000 53230 81295,81347,81321
 5.0000e-001 81618 -1.6321e+002 -3.0413e+001 -1.3614e+001 52790 81491,81543,81517
 5.0000e-001 81595 -1.6282e+002 -5.9868e+001 -9.6541e+000 52790 81491,81569,81543
 5.0000e-001 82126 -8.7464e+001 -3.9918e+001  6.8689e+000 52386 82149,81907,81881
 5.0000e-001 82103 -8.6804e+001 -3.7071e+001  8.6093e+000 52386 82149,81881,81855
 5.0000e-001 82080 -8.6816e+001 -5.4046e+001 -3.2211e-001 52386 82221,81803,81985
 5.0000e-001 82057 -5.3943e+001 -3.8034e+001  1.1976e+001 52386 81803,81855,81829
 5.0000e-001 82034 -7.5092e+001 -2.5785e+001 -4.9126e+000 52386 81907,81985,81933
 5.0000e-001 82011 -5.7930e+001 -2.9484e+001 -3.1079e+000 52386 81933,81985,81959
 5.0000e-001 82175 -8.7582e+001 -4.0518e+001  7.2021e+000 52386 81985,81907,82149
 5.0000e-001 82198 -8.9568e+001 -4.8080e+001  6.3299e+000 52386 82221,81985,82149
 5.0000e-001 82247 -8.2692e+001 -4.2563e+001  5.7266e-001 52386 81855,81803,82221
 5.0000e-001 82270 -8.5881e+001 -3.5833e+001  5.7792e+000 52386 81855,82221,82149
 5.0000e-001 82825 -1.6652e+002 -2.7762e+001 -4.5474e+001 51782 82505,82661,82635
 5.0000e-001 82802 -7.6144e+001 -2.3193e+001  2.3396e+001 51782 82479,82661,82505
 5.0000e-001 82779 -9.3885e+001 -3.7768e+001  1.8893e+001 51782 82557,82635,82609
 5.0000e-001 82756 -1.0927e+002 -7.4785e+001 -3.1959e+000 51782 82531,82635,82557
 5.0000e-001 82733 -1.4895e+002 -1.8342e+000 -1.5147e+001 51782 82505,82635,82531
 5.0000e-001 82710 -1.2838e+002 -1.0166e+002 -3.5376e+001 51782 82453,82661,82479
 5.0000e-001 82687 -9.6520e+001 -2.8224e+001  2.1454e+001 51782 82557,82609,82583
 5.0000e-001 83171 -1.2765e+002 -2.6985e+001 -1.2032e+001 51442 83194,82978,82900
 5.0000e-001 83148 -1.3809e+002 -4.2306e+001 -1.6879e+001 51442 83194,82900,82874
 5.0000e-001 83125 -1.5814e+002 -3.9100e+001 -1.6249e+000 51442 82900,82978,82926
 5.0000e-001 83102 -1.3611e+002 -5.7413e+001 -3.0998e+001 51442 82874,83030,83004
 5.0000e-001 83079 -1.0988e+002 -1.9835e+001  8.7796e-001 51442 82926,82978,82952
 5.0000e-001 83056 -1.7124e+002 -7.3414e+001 -3.8387e+001 51442 82848,83030,82874
 5.0000e-001 83220 -1.1077e+002 -3.9473e+001 -7.0431e+000 51442 83004,82978,83194
 5.0000e-001 83243 -1.2596e+002 -6.0242e+001 -1.3950e+001 51442 83004,83194,82874
 5.0000e-001 83751 -8.0777e+001 -4.3934e+001 -4.4867e+000 50938 83428,83584,83454
 5.0000e-001 83728 -1.0033e+002 -5.1222e+001 -1.0398e+001 50938 83428,83610,83584
 5.0000e-001 83705 -9.8639e+001 -3.3478e+001 -6.7979e+000 50938 83454,83584,83558
 5.0000e-001 83682 -1.2753e+002 -4.3208e+001 -1.5986e+000 50938 83454,83532,83480
 5.0000e-001 83659 -1.1693e+002 -4.0696e+001 -4.6255e+000 50938 83454,83558,83532
 5.0000e-001 83636 -8.1031e+001  2.3924e+001  2.7368e+001 50938 83480,83532,83506
 5.0000e-001 84355 -1.0017e+002 -8.7491e+000  2.8148e+001 50377 84378,83960,83934
 5.0000e-001 84332 -7.9012e+001  7.0941e+000 -2.9277e+001 50377 84522,84378,83934
 5.0000e-001 84309 -3.7868e+001  2.0622e+001  1.2114e+001 50377 84450,84038,84012
 5.0000e-001 84286 -4.5983e+001 -1.2795e+001 -3.2319e+001 50377 84522,83934,84142
 5.0000e-001 84263 -5.3189e+001 -2.6981e+001  8.9276e-001 50377 84594,84090,84038
 5.0000e-001 84240  2.2637e+001 -2.3985e+000  1.8231e+001 50377 83960,84012,83986
 5.0000e-001 84217 -9.2950e+000 -1.2294e+001 -9.8480e+000 50377 83934,84168,84142
 5.0000e-001 84194  1.3126e+000 -4.6786e-001  1.0068e+001 50377 84038,84090,84064
 5.0000e-001 84404  1.7351e+001  3.1657e+001  2.8011e+001 50377 84012,83960,84378
 5.0000e-001 84427 -6.4662e+001  4.5351e+000 -2.6802e+000 50377 84450,84012,84378
 5.0000e-001 84476 -5.5132e+001 -1.1506e+001  9.4386e-001 50377 84594,84038,84450
 5.0000e-001 84499 -5.4834e+001  1.3707e+001 -9.3008e+000 50377 84116,84450,84378
 5.0000e-001 84548 -4.5055e+001  2.4730e+001 -2.1023e+001 50377 84116,84378,84522
 5.0000e-001 84571 -1.3174e+001  3.0831e+000 -2.5597e+001 50377 84116,84522,84142
 5.0000e-001 84620 -5.7179e+001 -4.0030e+000 -9.6446e+000 50377 84116,84090,84594
 5.0000e-001 84643 -5.9033e+001  1.0616e+001 -1.0661e+001 50377 84116,84594,84450
 5.0000e-001 84842 -1.1942e+002 -3.8826e+001 -8.8171e+000 49923 84865,84692,84666
 5.0000e-001 84819 -1.0585e+002 -3.9344e+001 -2.5050e+000 49923 84865,84666,84770
 5.0000e-001 84796 -9.2624e+001 -3.8567e+001 -6.6296e-001 49923 84692,84744,84718
 5.0000e-001 84891 -1.1082e+002 -3.7402e+001 -1.0409e+000 49923 84744,84692,84865
 5.0000e-001 84914 -9.5828e+001 -3.4341e+001  6.3100e+000 49923 84744,84865,84770
 5.0000e-001 85501 -1.0352e+002 -8.2740e+000  6.6383e-001 49618 85524,85282,85204
 5.0000e-001 85478 -1.2177e+002 -1.5692e+001 -2.4646e-001 49618 85596,85524,85204
 5.0000e-001 85455 -1.2914e+002 -1.1059e+001 -1.1308e+000 49618 85596,85204,85178
 5.0000e-001 85432 -1.1574e+002 -1.1403e+001  2.3046e+000 49618 85204,85282,85256
 5.0000e-001 85409 -7.2921e+001  1.9961e+000 -7.4596e+000 49618 85282,85334,85308
 5.0000e-001 85386 -1.0662e+002  1.0711e+001  3.3256e+000 49618 85204,85256,85230
 5.0000e-001 85550 -9.3427e+001 -4.4475e+000 -1.8041e+001 49618 85334,85282,85524
 5.0000e-001 85573 -1.3157e+002 -2.0586e+001 -1.7978e+001 49618 85334,85524,85360
 5.0000e-001 85622 -1.1012e+002 -1.1773e+001 -3.1409e+000 49618 85360,85524,85596
 5.0000e-001 85645 -1.1928e+002 -9.0689e+000 -2.5956e+000 49618 85360,85596,85178
 5.0000e-001 85795 -2.0655e+002 -7.0780e+001  9.7375e+000 49278 85694,85746,85720
 5.0000e-001 85772 -2.3761e+002 -7.5655e+001 -6.5918e+000 49278 85668,85746,85694
 5.0000e-001 86197 -1.2217e+002 -4.8434e+001 -3.8382e+001 48916 86001,86079,86027
 5.0000e-001 86174 -1.2413e+002 -3.1233e+001 -2.3746e+001 48916 85949,86079,86001
 5.0000e-001 86151 -1.7207e+002 -3.9507e+001 -8.6553e+000 48916 85949,86001,85975
 5.0000e-001 86128 -1.3098e+002 -2.5739e+001 -1.9340e+001 48916 86027,86079,86053
 5.0000e-001 86105 -3.0288e+002 -1.1189e+002 -4.6629e+001 48916 85923,86079,85949
 5.0000e-001 86477 -4.0373e+001 -5.0317e+000  1.0229e+001 48398 86327,86379,86353
 5.0000e-001 86454 -4.1624e+001 -3.2738e+001  1.3465e+001 48398 86500,86379,86327
 5.0000e-001 86431 -7.2389e+001 -3.4318e+001  1.2061e+001 48398 86301,86405,86379
 5.0000e-001 86526 -1.8533e+001 -2.4087e+001  1.5413e+001 48398 86301,86379,86500
 5.0000e-001 87032 -1.0866e+002 -3.3989e+001 -4.2373e+000 48008 87127,87055,86787
 5.0000e-001 87009 -1.1174e+002 -4.4587e+001  1.5759e+000 48008 87055,86735,86709
 5.0000e-001 86986 -1.0027e+002 -3.9553e+001 -5.7174e+000 48008 87127,86787,86761
 5.0000e-001 86963 -1.1337e+002 -3.8049e+001 -3.4799e+000 48008 86787,86865,86839
 5.0000e-001 86940 -1.5249e+002 -4.1581e+001 -3.0316e+000 48008 86709,86891,86865
 5.0000e-001 86917 -1.1004e+002 -6.6782e+000  1.8735e+001 48008 86787,86839,86813
 5.0000e-001 87081 -1.1126e+002 -3.6549e+001 -2.3932e+000 48008 86865,86787,87055
 5.0000e-001 87104 -1.0526e+002 -3.3679e+001 -1.5592e+000 48008 86865,87055,86709
 5.0000e-001 87153 -9.6984e+001 -3.5243e+001 -3.4164e+000 48008 86735,87055,87127
 5.0000e-001 87176 -7.4764e+001 -2.8778e+001 -1.0176e+001 48008 86735,87127,86761
 5.0000e-001 87456 -7.3029e+001 -3.6724e+001 -4.5018e+000 47604 87306,87358,87332
 5.0000e-001 87433 -8.7377e+001 -4.8834e+001  2.4840e+000 47604 87306,87384,87358
 5.0000e-001 87410 -7.7070e+001 -4.4782e+001 -5.6007e+000 47604 87280,87384,87306
 5.0000e-001 87785 -6.9260e+001 -3.6740e+001 -2.0457e+000 47264 87638,87690,87664
 5.0000e-001 87762 -6.2171e+001 -1.0029e+001 -8.0666e+000 47264 87612,87690,87638
 5.0000e-001 87739 -7.8421e+001 -2.9156e+001 -1.8278e+001 47264 87560,87690,87612
 5.0000e-001 87716 -6.8091e+001 -7.4856e+000 -2.1448e+001 47264 87560,87612,87586
 5.0000e-001 87935 -1.4676e+002  2.2053e+001 -2.9864e-001 46952 87808,87860,87834
 5.0000e-001 87912 -1.5195e+002 -9.6108e-001 -6.6042e+000 46952 87808,87886,87860
 5.0000e-001 88281 -1.2417e+002 -4.9385e+001 -1.8026e+000 46526 88304,88114,88036
 5.0000e-001 88258 -1.2241e+002 -4.3386e+001  6.2410e-001 46526 88304,88036,87984
 5.0000e-001 88235 -1.1874e+002 -4.4666e+001 -8.9944e+000 46526 88036,88114,88062
 5.0000e-001 88212 -1.1487e+002 -3.0513e+001  9.2778e+000 46526 87958,88140,87984
 5.0000e-001 88189 -1.0567e+002 -4.1278e+000 -1.5222e+000 46526 87984,88036,88010
 5.0000e-001 88166 -1.3873e+002 -6.4544e+001 -1.8604e+001 46526 88062,88114,88088
 5.0000e-001 88330 -1.2780e+002 -4.2946e+001 -2.6576e+000 46526 88140,88114,88304
 5.0000e-001 88353 -1.2683e+002 -3.7442e+001 -1.0722e+000 46526 88140,88304,87984
 5.0000e-001 88701 -6.3378e+001 -4.1961e+001 -8.9099e+000 45822 88724,88378,88534
 5.0000e-001 88678 -5.3118e+001 -3.0688e+001 -1.4280e+001 45822 88378,88560,88534
 5.0000e-001 88655 -7.1725e+001 -5.5580e+001  7.0249e+000 45822 88724,88534,88508
 5.0000e-001 88632 -7.0599e+001 -1.9890e+001 -3.8211e+000 45822 88404,88508,88456
 5.0000e-001 88609 -6.1089e+001  4.8648e+000 -6.1991e-001 45822 88404,88456,88430
 5.0000e-001 88586 -1.0961e+002 -4.9743e+001  9.6750e+000 45822 88456,88508,88482
 5.0000e-001 88750 -7.0144e+001 -1.8881e+001 -1.6880e+001 45822 88404,88378,88724
 5.0000e-001 88773 -7.5926e+001 -3.3373e+001 -2.3040e+000 45822 88404,88724,88508
 5.0000e-001 89106 -6.5936e+001 -1.5752e+001 -2.7314e+001 45418 88881,88985,88907
 5.0000e-001 89083 -4.2955e+001 -3.0590e+001 -2.7760e+001 45418 88881,89011,88985
 5.0000e-001 89060 -1.4865e+001  3.2286e+001 -4.0384e+000 45418 88907,88985,88933
 5.0000e-001 89037 -4.0128e+001  7.7642e+000 -1.5073e+001 45418 88933,88985,88959
 5.0000e-001 89435 -1.3150e+002 -6.3892e+001 -3.3025e-001 44914 89210,89288,89236
 5.0000e-001 89412 -1.0842e+002 -4.4917e+001 -1.6914e+001 44914 89210,89314,89288
 5.0000e-001 89389 -1.2396e+002 -3.4440e+001 -2.2834e+001 44914 89210,89340,89314
 5.0000e-001 89366 -1.3583e+002 -6.5631e+001 -2.7144e-001 44914 89236,89288,89262
 5.0000e-001 89634 -6.6767e+001 -3.0757e+001 -5.0449e+000 44538 89510,89562,89536
 5.0000e-001 89611 -7.7566e+001 -3.9156e+001 -1.4707e+001 44538 89458,89562,89510
 5.0000e-001 89588 -8.1257e+001 -5.8935e+001 -1.2555e+001 44538 89458,89510,89484
 5.0000e-001 90044 -1.3234e+002 -4.8417e+001  1.1589e+001 44134 89819,89923,89845
 5.0000e-001 90021 -1.1263e+002  1.1207e+001  6.5870e+000 44134 89819,89949,89923
 5.0000e-001 89998 -1.0072e+002 -4.7496e+001 -4.7058e+000 44134 89845,89923,89897
 5.0000e-001 89975 -7.0116e+001 -4.0968e+000  1.6346e+001 44134 89845,89897,89871
 5.0000e-001 90520 -1.1299e+002 -2.8404e+001 -2.4766e-001 43457 90543,90252,90226
 5.0000e-001 90497 -8.8982e+001 -2.2102e+001  8.8833e-001 43457 90543,90226,90330
 5.0000e-001 90474 -9.8805e+001 -1.5087e+001 -5.5548e+000 43457 90200,90330,90226
 5.0000e-001 90451 -1.1975e+002 -3.1282e+001 -1.7493e+001 43457 90200,90356,90330
 5.0000e-001 90428 -1.0367e+002  4.3532e+001  3.3593e+001 43457 90252,90304,90278
 5.0000e-001 90405 -2.9779e+001 -3.2965e+000  1.7912e+001 43457 90174,90356,90200
 5.0000e-001 90382 -1.1007e+002 -8.9424e+001 -1.6213e+001 43457 90148,90356,90174
 5.0000e-001 90569 -1.3538e+002 -1.7780e+001  2.2081e+001 43457 90304,90252,90543
 5.0000e-001 90592 -9.5175e+001 -3.0679e+000  2.8088e+001 43457 90304,90543,90330
 5.0000e-001 91098 -6.1845e+001 -1.9113e+001  3.4590e+000 42789 90801,90905,90853
 5.0000e-001 91075 -6.4990e+001 -2.6921e+001  4.8300e+000 42789 90775,90905,90801
 5.0000e-001 91052 -6.3547e+001 -8.8770e+000 -4.9466e+000 42789 90775,90931,90905
 5.0000e-001 91029 -3.1478e+001  4.3251e+001  1.2887e+001 42789 90801,90853,90827
 5.0000e-001 91006 -6.6029e+001 -2.4166e+001  1.8681e+001 42789 90853,90905,90879
 5.0000e-001 90983 -8.9462e+001 -1.0353e+001  5.8535e+000 42789 90775,90957,90931
 5.0000e-001 91427 -1.1425e+002  2.5453e+001 -2.6040e+001 42227 91228,91280,91254
 5.0000e-001 91404 -1.2292e+002 -3.5572e+001  8.5462e-001 42227 91228,91306,91280
 5.0000e-001 91381 -1.1703e+002 -2.8921e+001  1.6997e+001 42227 91202,91306,91228
 5.0000e-001 91358 -1.0618e+002 -3.8031e+001  5.2260e+000 42227 91202,91332,91306
 5.0000e-001 91675 -6.3050e+001 -1.9709e+001 -4.7251e+000 41773 91698,91476,91450
 5.0000e-001 91652 -6.5611e+001 -3.3960e+001  5.8988e+000 41773 91698,91450,91554
 5.0000e-001 91629 -6.0891e+001 -4.3865e+001  6.2186e+000 41773 91450,91580,91554
 5.0000e-001 91606 -6.4584e+001  8.9575e+000  3.8658e+001 41773 91502,91554,91528
 5.0000e-001 91724 -6.8990e+001 -2.6467e+001  5.3972e+000 41773 91502,91476,91698
 5.0000e-001 91747 -7.3866e+001 -4.2099e+001  1.6377e+001 41773 91502,91698,91554
 5.0000e-001 92127  1.2030e+001  1.2071e+001 -2.3146e+001 41255 92150,91905,91879
 5.0000e-001 92104 -5.0678e+001  1.0781e+001  4.0212e+000 41255 92150,91879,91957
 5.0000e-001 92081 -5.5298e+001  3.1664e+000  8.4802e+000 41255 91853,91957,91879
 5.0000e-001 92058 -5.7642e+001 -7.5722e-001  4.3570e+000 41255 91853,91983,91957
 5.0000e-001 92035 -1.4174e+001 -1.6260e-001 -1.3415e-001 41255 91853,92009,91983
 5.0000e-001 92176 -4.2470e+001  2.3632e+001  2.4091e-001 41255 91931,91905,92150
 5.0000e-001 92199 -1.3575e+002 -1.3260e+001  3.7525e+001 41255 91931,92150,91957
 5.0000e-001 92518 -1.4026e+002 -2.3239e+000 -7.0251e+000 41007 92244,92374,92270
 5.0000e-001 92495 -1.6112e+002  1.0944e+001 -1.4313e+001 41007 92244,92400,92374
 5.0000e-001 92472 -1.0931e+002  1.1138e+001 -2.0732e+000 41007 92270,92374,92348
 5.0000e-001 92449 -1.7219e+002 -3.5422e+001 -8.3576e-001 41007 92296,92348,92322
 5.0000e-001 92426 -1.5271e+002 -7.0552e+000  1.3470e+001 41007 92270,92348,92296
 5.0000e-001 92668 -4.2744e+001 -1.2870e+001 -1.9905e+001 40717 92823,92691,92567
 5.0000e-001 92645 -4.0235e+001  1.5663e+000 -1.7317e+001 40717 92895,92823,92567
 5.0000e-001 92717 -3.4212e+001 -6.5488e+000  6.5188e+000 40717 92593,92567,92691
 5.0000e-001 92849 -1.4442e+001 -6.5125e+000 -3.0568e+001 40717 92619,92691,92823
 5.0000e-001 92872 -5.2920e+001 -5.1058e+000 -1.3139e+001 40717 92619,92823,92541
 5.0000e-001 92921 -8.0842e+001 -3.3428e+001  6.0264e+000 40717 92541,92823,92895
 5.0000e-001 93634 -1.3181e+002 -3.7872e+001 -2.7834e+001 40206 93366,93444,93418
 5.0000e-001 93611 -9.8905e+001 -2.0757e+001 -7.5989e+000 40206 93288,93444,93366
 5.0000e-001 93588 -8.9330e+001 -2.7891e+001 -1.3551e+001 40206 93288,93366,93314
 5.0000e-001 93565 -1.9540e+002 -6.2390e+001 -1.3920e+001 40206 93262,93444,93288
 5.0000e-001 93542 -1.4989e+002 -2.1355e+001 -1.6471e+001 40206 93366,93418,93392
 5.0000e-001 93519 -1.9483e+002  3.0259e+001 -2.8510e+001 40206 93262,93470,93444
 5.0000e-001 93496 -4.8593e+001 -1.0875e+001 -3.3158e+000 40206 93314,93366,93340
 5.0000e-001 94189 -1.1975e+002 -6.1760e+001 -4.3025e+000 39802 93843,93999,93973
 5.0000e-001 94166 -1.3855e+002 -7.3417e+001  4.2747e+000 39802 93817,93999,93843
 5.0000e-001 94143 -1.6434e+002 -6.8213e+001  1.1687e+001 39802 93869,93973,93947
 5.0000e-001 94120 -1.1225e+002 -3.5417e+001 -8.9863e+000 39802 93843,93973,93869
 5.0000e-001 94097 -9.4275e+001  5.3054e+001  2.4425e+000 39802 93869,93921,93895
 5.0000e-001 94074 -1.0608e+002  2.3962e+001 -1.5747e+001 39802 93869,93947,93921
 5.0000e-001 94051 -9.9046e+001 -5.0846e+001 -1.1308e+001 39802 93817,94025,93999
 5.0000e-001 94290 -1.4408e+002 -5.9203e+001 -2.2695e+000 39398 94212,94264,94238
 5.0000e-001 94798 -7.2241e+001 -2.0838e+001 -2.3390e+000 38701 94501,94657,94631
 5.0000e-001 94775 -5.8141e+001 -4.5066e+000  6.1316e+000 38701 94475,94657,94501
 5.0000e-001 94752 -9.9126e+001 -1.1576e+001 -7.1483e+000 38701 94579,94631,94605
 5.0000e-001 94729 -1.0629e+002 -2.4068e+001 -1.0272e+001 38701 94553,94631,94579
 5.0000e-001 94706 -4.4066e+001  1.2409e+000 -1.2938e+001 38701 94501,94631,94553
 5.0000e-001 94683 -3.9611e+001 -1.3473e+001 -1.3184e+001 38701 94501,94553,94527
 5.0000e-001 95255 -6.4369e+001 -1.1172e+001  5.0849e+000 38247 95278,95085,95007
 5.0000e-001 95232 -7.1672e+001 -3.7568e+000  1.9748e+001 38247 95278,95007,95137
 5.0000e-001 95209 -8.9095e+001 -6.4045e+000  7.9655e+000 38247 94981,95137,95007
 5.0000e-001 95186 -6.0798e+001 -4.4791e+000 -9.6607e+000 38247 95007,95059,95033
 5.0000e-001 95163 -8.2427e+001 -4.2219e+001  1.8250e+001 38247 95007,95085,95059
 5.0000e-001 95304 -5.1500e+001  1.2447e+001 -3.1085e+000 38247 95111,95085,95278
 5.0000e-001 95327 -6.4938e+001  3.1184e+000  1.3205e+001 38247 95111,95278,95137
 5.0000e-001 95575 -1.6447e+002 -5.9203e+000 -1.0566e+001 37564 95376,95428,95402
 5.0000e-001 95552 -1.6166e+002 -7.1524e+001 -8.4298e+000 37564 95376,95454,95428
 5.0000e-001 95529 -1.4499e+002 -6.6653e+001 -1.0923e+001 37564 95376,95480,95454
 5.0000e-001 95506 -1.3941e+002 -3.7313e+001 -2.2597e+000 37564 95350,95480,95376
 5.0000e-001 96034 -1.7514e+001 -1.6949e+000  3.4281e+000 37224 95786,95838,95812
 5.0000e-001 96011 -1.4674e+001  1.0956e+001 -6.4180e-001 37224 95786,95890,95838
 5.0000e-001 95988  1.3564e+001  1.9023e+001 -1.0144e+001 37224 95786,95916,95890
 5.0000e-001 95965 -1.7957e+001 -9.2832e+000  1.4914e+001 37224 95760,95916,95786
 5.0000e-001 95942 -3.4345e-001 -4.9913e+000 -2.4209e+001 37224 95838,95890,95864
 5.0000e-001 96363 -8.1547e+001 -2.4725e+001  8.5322e-001 36884 96216,96268,96242
 5.0000e-001 96340 -1.1474e+002 -2.5868e+001 -3.0566e-001 36884 96164,96268,96216
 5.0000e-001 96317 -1.0853e+002 -2.9062e+001  4.9198e+000 36884 96138,96268,96164
 5.0000e-001 96294 -7.3652e+001  4.9818e+001 -3.1788e+001 36884 96164,96216,96190
 5.0000e-001 96839 -1.0044e+002 -1.5154e+001 -1.2984e+001 36572 96862,96649,96597
 5.0000e-001 96816 -1.0286e+002 -2.4770e+001 -1.1827e+001 36572 97006,96862,96597
 5.0000e-001 96793 -8.8126e+001 -2.3346e+001 -4.4456e+000 36572 96934,96467,96675
 5.0000e-001 96770 -8.7836e+001 -3.3403e+001  1.9241e+000 36572 97006,96597,96571
 5.0000e-001 96747 -9.4198e+001 -5.2458e+001 -3.4702e+001 36572 96467,96519,96493
 5.0000e-001 96724 -1.9427e+002 -1.7398e+001  7.0542e+001 36572 96519,96571,96545
 5.0000e-001 96701 -7.0101e+001 -5.5390e+000  1.9380e+001 36572 96597,96649,96623
 5.0000e-001 96888 -1.0948e+002 -1.9957e+001 -1.5862e+001 36572 96675,96649,96862
 5.0000e-001 96911 -1.0682e+002 -1.7621e+001 -8.2991e+000 36572 96934,96675,96862
 5.0000e-001 96960 -7.3100e+001 -1.9587e+001 -9.4004e+000 36572 96519,96467,96934
 5.0000e-001 96983 -8.7554e+001 -1.3920e+001 -9.0099e+000 36572 97078,96934,96862
 5.0000e-001 97032 -8.8023e+001 -1.1862e+001 -5.6854e+000 36572 97078,96862,97006
 5.0000e-001 97055 -7.2827e+001 -1.1922e+001  9.5947e+000 36572 96519,97006,96571
 5.0000e-001 97104 -8.5222e+001 -8.3041e+000 -8.5397e+000 36572 96519,96934,97078
 5.0000e-001 97127 -8.6401e+001 -6.6861e+000 -5.8785e+000 36572 96519,97078,97006
 5.0000e-001 97761 -5.8480e+001  4.0153e-001  1.2678e+001 36118 97784,97493,97415
 5.0000e-001 97738 -7.3720e+001 -1.3315e+001  2.0219e+001 36118 97784,97415,97597
 5.0000e-001 97715 -1.3858e+002 -2.7161e+001  3.6693e+001 36118 97389,97597,97415
 5.0000e-001 97692 -1.3222e+002 -4.8196e+001  3.7252e+001 36118 97415,97467,97441
 5.0000e-001 97669 -1.1523e+002 -3.1132e+001  4.8202e+001 36118 97415,97493,97467
 5.0000e-001 97646 -7.8347e+001 -1.8569e+001 -2.8578e+001 36118 97493,97571,97519
 5.0000e-001 97623 -4.6511e+001 -8.0485e+000  8.1047e+000 36118 97519,97571,97545
 5.0000e-001 97810 -7.2489e+001  3.0669e+001 -4.6016e+000 36118 97571,97493,97784
 5.0000e-001 97833 -1.1216e+002  5.5383e+000  8.5501e+000 36118 97571,97784,97597
 5.0000e-001 98081 -3.4585e+001 -2.4046e+001 -4.8844e+000 35564 98104,97908,97856
 5.0000e-001 98058 -5.5185e+001 -5.3687e+001  4.4664e+000 35564 98104,97856,97986
 5.0000e-001 98035 -1.1271e+002 -4.3812e+001  1.4150e+001 35564 97934,97986,97960
 5.0000e-001 98012 -3.4210e+001 -1.2427e+001 -2.6085e+001 35564 97856,97908,97882
 5.0000e-001 98130 -5.3900e+001  8.2788e+001 -1.2739e+000 35564 97934,97908,98104
 5.0000e-001 98153 -9.7618e+001 -1.2884e+001  2.0274e+001 35564 97934,98104,97986
 5.0000e-001 98374 -1.2110e+002  4.3336e+001 -7.5945e+000 35152 98224,98302,98276
 5.0000e-001 98351 -1.4823e+002 -2.8540e+001  3.6663e+000 35152 98198,98302,98224
 5.0000e-001 98328 -8.7255e+001  6.2497e+001 -1.6750e+001 35152 98224,98276,98250
 5.0000e-001 98884 -5.0024e+001  5.8946e+001  1.5869e+001 34698 98691,98743,98717
 5.0000e-001 98861 -7.0625e+001  3.5827e+001 -1.7042e+001 34698 98561,98743,98691
 5.0000e-001 98838 -7.5127e+001 -1.1368e+001 -1.6827e+000 34698 98907,98587,98561
 5.0000e-001 98815 -7.1900e+001 -1.1260e+001 -1.0279e+001 34698 98907,98561,98691
 5.0000e-001 98792 -3.2435e+001  3.7778e+001 -1.2932e+001 34698 98587,98639,98613
 5.0000e-001 98769 -6.4705e+001 -2.2051e+001  1.2229e+000 34698 98587,98665,98639
 5.0000e-001 98933 -6.7789e+001 -8.1123e+000 -2.2592e+000 34698 98665,98587,98907
 5.0000e-001 98956 -6.2630e+001 -7.1006e+000 -1.1285e+001 34698 98665,98907,98691
 5.0000e-001 99204 -1.1711e+002 -5.8649e+000 -1.1986e+001 34144 99227,99031,99005
 5.0000e-001 99181 -1.1883e+002 -2.5908e+001  7.3007e+000 34144 99299,99227,99005
 5.0000e-001 99158 -1.2402e+002 -1.8916e+001  2.1388e+001 34144 99299,99005,99109
 5.0000e-001 99135 -8.8771e+001  2.9194e+001  3.9938e+001 34144 98979,99109,99005
 5.0000e-001 99253 -1.1229e+002  2.9760e+001 -1.6395e+001 34144 99057,99031,99227
 5.0000e-001 99276 -1.1265e+002  1.3887e+000 -2.7449e+000 34144 99057,99227,99083
 5.0000e-001 99325 -1.0464e+002  2.3907e-002 -1.5782e+000 34144 99083,99227,99299
 5.0000e-001 99348 -1.1738e+002  3.5498e+000  1.3977e+001 34144 99083,99299,99109
 5.0000e-001 99498 -2.5683e+002 -5.1828e+001  1.2992e+001 33433 99397,99449,99423
 5.0000e-001 99475 -2.8348e+002 -7.3053e+001 -1.6558e+000 33433 99371,99449,99397
 5.0000e-001 100008 -8.5317e+001 -3.4770e+000 -2.7866e+000 32979 100103,100031,99815
 5.0000e-001 99985 -8.1750e+001 -4.9493e+000 -8.0201e+000 32979 100175,100031,99763
 5.0000e-001 99962 -8.2074e+001 -1.0070e+001 -8.4619e+000 32979 100103,99815,99789
 5.0000e-001 99939 -8.8655e+001 -9.6887e+000 -3.5386e+000 32979 100175,99763,99737
 5.0000e-001 99916 -8.2549e+001  2.5041e+001 -7.5471e-001 32979 99685,99867,99737
 5.0000e-001 99893 -4.0976e+001  8.9053e+000 -4.8592e+001 32979 99685,99737,99711
 5.0000e-001 100057 -7.9017e+001 -1.7977e+000 -2.5516e-001 32979 99841,99815,100031
 5.0000e-001 100080 -7.7032e+001  1.6557e+001 -1.3409e+001 32979 99841,100031,99867
 5.0000e-001 100129 -8.0570e+001 -1.7904e+001 -3.8162e+000 32979 99763,100031,100103
 5.0000e-001 100152 -8.2560e+001 -2.9524e+001 -1.0786e+001 32979 99763,100103,99789
 5.0000e-001 100201 -9.2126e+001 -5.9753e+000 -5.7265e+000 32979 99867,100031,100175
 5.0000e-001 100224 -9.3733e+001 -5.2972e+000 -2.1643e+000 32979 99867,100175,99737
 5.0000e-001 100553 -3.4449e+001  3.3097e+000  3.8788e+001 32503 100354,100406,100380
 5.0000e-001 100530 -2.9909e+001  6.2399e+001 -9.6120e+000 32503 100328,100406,100354
 5.0000e-001 100507 -5.4469e+001 -4.8169e+000 -1.3544e+001 32503 100328,100458,100406
 5.0000e-001 100484 -1.3539e+001 -8.4692e+000  5.5591e+000 32503 100406,100458,100432
 5.0000e-001 100850 -8.1099e+001 -6.1209e+000  1.4186e+001 31899 100873,100654,100628
 5.0000e-001 100827 -7.2339e+001 -1.7236e+001  3.0308e+000 31899 100945,100873,100628
 5.0000e-001 100804 -6.4550e+001 -1.0318e+001  6.3598e+000 31899 100945,100628,100602
 5.0000e-001 100781 -5.7577e+001  1.5801e+001  5.0537e+000 31899 100576,100732,100602
 5.0000e-001 100758 -5.9249e+001 -4.8537e+000  1.8532e+001 31899 100654,100706,100680
 5.0000e-001 100899 -7.3974e+001 -4.2095e+001  1.6668e+001 31899 100706,100654,100873
 5.0000e-001 100922 -1.0104e+002 -2.6109e+001 -1.5764e+001 31899 100706,100873,100732
 5.0000e-001 100971 -9.0556e+001 -3.7535e+000 -1.8701e+000 31899 100732,100873,100945
 5.0000e-001 100994 -8.1137e+001  4.9136e+000  2.0472e+000 31899 100732,100945,100602
 5.0000e-001 101551 -8.0015e+001 -1.0610e+001 -1.2691e+001 31338 101205,101387,101231
 5.0000e-001 101528 -1.2797e+002 -3.4253e+001 -4.4623e+001 31338 101179,101387,101205
 5.0000e-001 101505 -8.0005e+001 -3.1274e+001 -1.2112e+001 31338 101574,101309,101257
 5.0000e-001 101482 -6.9180e+001 -2.8134e+001 -1.0171e+001 31338 101646,101574,101257
 5.0000e-001 101459 -5.9619e+001 -1.6275e+001 -4.2900e+000 31338 101646,101257,101231
 5.0000e-001 101436 -7.9537e+001 -8.6227e+000 -1.5953e+001 31338 101309,101361,101335
 5.0000e-001 101413 -7.8917e+001 -2.5167e+001 -2.0814e+001 31338 101257,101309,101283
 5.0000e-001 101600 -8.0811e+001 -2.9898e+001 -1.1558e+001 31338 101361,101309,101574
 5.0000e-001 101623 -8.3869e+001 -4.1252e+001 -2.1056e+001 31338 101361,101574,101387
 5.0000e-001 101672 -7.7899e+001 -2.5081e+001 -1.9426e+001 31338 101387,101574,101646
 5.0000e-001 101695 -7.1781e+001 -2.2801e+001 -1.5406e+001 31338 101387,101646,101231
 5.0000e-001 101943 -1.2205e+002 -6.0313e+000  3.0976e+000 30748 101966,101796,101744
 5.0000e-001 101920 -1.2055e+002  1.5698e+001  8.9272e+000 30748 101966,101744,101718
 5.0000e-001 101897 -1.0972e+002  4.1202e+001  1.5204e+001 30748 101718,101848,101822
 5.0000e-001 101874 -1.0191e+002  1.5782e+000  2.3668e+000 30748 101744,101796,101770
 5.0000e-001 101992 -1.2595e+002  1.3375e+001  4.1542e+000 30748 101822,101796,101966
 5.0000e-001 102015 -1.2613e+002  3.4197e+001  7.0271e+000 30748 101822,101966,101718
 5.0000e-001 102493 -1.4563e+002 -9.7399e+000  2.1996e+001 30344 102516,102173,102147
 5.0000e-001 102470 -1.1833e+002 -6.2776e+000 -1.2448e+001 30344 102660,102516,102147
 5.0000e-001 102447 -3.4110e+001  1.6309e+001  1.7085e+001 30344 102588,102199,102173
 5.0000e-001 102424 -9.6355e+001 -1.9551e+001 -1.2609e+001 30344 102660,102147,102329
 5.0000e-001 102401 -1.8239e+002 -2.3120e+001  2.0170e+001 30344 102199,102277,102251
 5.0000e-001 102378 -5.5988e+001 -5.9347e+001  6.2745e+001 30344 102199,102251,102225
 5.0000e-001 102355 -2.3108e+002 -6.7940e+001  6.9053e+001 30344 102121,102329,102147
 5.0000e-001 102542 -6.9568e+001  2.3156e+001  1.8914e+001 30344 102588,102173,102516
 5.0000e-001 102565 -1.1668e+002 -4.8313e+000  4.3199e+000 30344 102277,102516,102303
 5.0000e-001 102614 -7.5675e+001  1.9572e+001  1.3489e+001 30344 102277,102199,102588
 5.0000e-001 102637 -1.1687e+002  1.9100e+001  7.3397e+000 30344 102277,102588,102516
 5.0000e-001 102686 -9.4205e+001  8.3116e+000 -2.7710e+000 30344 102303,102516,102660
 5.0000e-001 102709 -7.8776e+001 -9.4777e+000 -3.2759e+000 30344 102303,102660,102329
 5.0000e-001 103294 -4.1815e+001  1.4871e+001  1.5724e+001 29726 103317,103101,103075
 5.0000e-001 103271 -5.5169e+001  2.2856e+000  9.8179e+000 29726 103317,103075,102997
 5.0000e-001 103248 -1.0054e+002 -1.8500e+001  2.8357e+001 29726 102971,103153,102997
 5.0000e-001 103225 -3.0056e+001  2.0090e+000 -2.7128e+000 29726 103101,103153,103127
 5.0000e-001 103202 -6.3910e+001 -1.8585e+001  1.2197e+001 29726 102997,103075,103023
 5.0000e-001 103179 -6.0349e+001 -4.0144e+000  6.0349e-001 29726 103023,103075,103049
 5.0000e-001 103343 -3.3313e+001  1.4209e+000  1.6457e+001 29726 103153,103101,103317
 5.0000e-001 103366 -4.0958e+001 -3.2756e+000  1.3446e+001 29726 103153,103317,102997
 5.0000e-001 103614 -5.2116e+001 -1.1413e+001  4.2652e+000 29200 103781,103637,103467
 5.0000e-001 103591 -4.2207e+001 -1.4443e+001 -4.1881e+000 29200 103709,103637,103415
 5.0000e-001 103568 -3.5402e+001  3.4851e+000 -2.5285e+000 29200 103709,103415,103389
 5.0000e-001 103545 -5.5524e+001 -8.6128e+000  1.4107e+000 29200 103781,103467,103441
 5.0000e-001 103663 -3.8969e+001 -4.5233e+000 -7.9318e+000 29200 103853,103637,103493
 5.0000e-001 103686 -7.5095e+001 -5.9422e+001 -2.4469e+001 29200 103493,103637,103519
 5.0000e-001 103735 -5.0824e+001  5.5251e+000 -1.4362e+001 29200 103519,103637,103709
 5.0000e-001 103758 -4.7409e+001  1.7933e+001 -1.3303e+001 29200 103519,103709,103389
 5.0000e-001 103807 -5.6876e+001 -1.2972e+001 -1.0111e+000 29200 103415,103637,103781
 5.0000e-001 103830 -6.6440e+001 -1.4711e+001 -4.2013e+000 29200 103415,103781,103441
 5.0000e-001 103879 -3.9858e+001 -1.0193e+001 -5.8562e-001 29200 103467,103637,103853
 5.0000e-001 104545 -1.5140e+002 -1.7625e+001  5.9103e+000 28860 104274,104352,104326
 5.0000e-001 104522 -1.2480e+002 -3.3399e+001 -7.6908e+000 28860 104248,104352,104274
 5.0000e-001 104499 -9.0526e+001 -1.7570e+001 -1.1617e+001 28860 104248,104404,104352
 5.0000e-001 104476 -1.4095e+002 -5.1716e+001 -2.7273e+001 28860 104222,104404,104248
 5.0000e-001 104453 -8.1715e+001 -1.8570e+001 -1.8599e+001 28860 104352,104404,104378
 5.0000e-001 104430 -2.3856e+002 -4.5494e+001  6.4789e+000 28860 104274,104326,104300
 5.0000e-001 104744 -7.2455e+001 -1.6295e+001  1.7407e+000 28456 104839,104767,104646
 5.0000e-001 104721 -4.7772e+001 -7.9180e+000  5.8226e+000 28456 104767,104594,104568
 5.0000e-001 104698 -6.8329e+001 -2.8281e+001 -7.1174e+000 28456 104839,104646,104620
 5.0000e-001 104793 -7.8166e+001 -1.7407e+001  9.6313e-001 28456 104672,104646,104767
 5.0000e-001 104816 -5.7097e+001 -8.3660e+000 -3.3353e+000 28456 104911,104767,104568
 5.0000e-001 104865 -7.1203e+001 -2.0156e+001 -1.3642e+000 28456 104594,104767,104839
 5.0000e-001 104888 -7.6957e+001 -5.8580e+001 -5.5723e+000 28456 105041,104839,104620
 5.0000e-001 104937 -7.6860e+001 -4.0709e+001  5.3862e+000 28456 104672,104767,104911
 5.0000e-001 105067 -6.2574e+001 -1.6683e+001 -1.0247e+000 28456 104594,104839,105041
 5.0000e-001 105573 -1.3277e+002 -3.8223e+001  9.7879e+000 28094 105812,105596,105328
 5.0000e-001 105550 -1.2686e+002 -4.9074e+001  2.9289e+000 28094 105596,105276,105250
 5.0000e-001 105527 -1.3127e+002 -4.9003e+001  1.1961e+001 28094 105740,105668,105432
 5.0000e-001 105504 -1.2209e+002 -4.7074e+001  2.7248e+000 28094 105740,105432,105380
 5.0000e-001 105481 -1.3383e+002 -3.7514e+001  9.2229e+000 28094 105812,105328,105302
 5.0000e-001 105458 -7.8829e+001 -5.5415e+001 -1.4132e+000 28094 105380,105432,105406
 5.0000e-001 105622 -1.5834e+002 -6.0367e+001  2.1425e+001 28094 105354,105328,105596
 5.0000e-001 105645 -1.2751e+002 -4.5513e+001  9.0173e+000 28094 105668,105354,105596
 5.0000e-001 105694 -1.3250e+002 -5.8671e+001  1.5057e+001 28094 105250,105432,105668
 5.0000e-001 105717 -1.3349e+002 -4.9595e+001  6.2259e+000 28094 105250,105668,105596
 5.0000e-001 105766 -1.1196e+002 -4.4826e+001  5.0041e+000 28094 105354,105668,105740
 5.0000e-001 105789 -1.0562e+002 -4.1742e+001 -5.1969e+000 28094 105354,105740,105380
 5.0000e-001 105838 -1.3119e+002 -4.5258e+001  9.6686e+000 28094 105276,105596,105812
 5.0000e-001 105861 -1.2050e+002 -3.6822e+001  3.5747e+000 28094 105276,105812,105302
 5.0000e-001 106367 -4.0252e+001 -8.4747e+000 -2.5487e+000 27390 106070,106122,106096
 5.0000e-001 106344 -5.0309e+001  4.3711e-001  1.8095e-001 27390 106070,106226,106122
 5.0000e-001 106321 -6.0725e+001  3.5575e+000 -1.1272e+000 27390 106174,106226,106200
 5.0000e-001 106298 -5.5364e+001 -1.0716e+001 -1.0241e+000 27390 106122,106226,106174
 5.0000e-001 106275 -6.8752e+001 -1.8232e+001 -1.7478e+001 27390 106122,106174,106148
 5.0000e-001 106252 -5.0756e+001 -2.3320e-001 -1.2760e+000 27390 106044,106226,106070
 5.0000e-001 106615 -8.6547e+001 -9.4429e+000  2.3657e+000 26978 106638,106494,106416
 5.0000e-001 106592 -8.3880e+001 -1.6843e+001  1.0189e+000 26978 106638,106416,106390
 5.0000e-001 106569 -8.6827e+001 -1.3837e+001 -8.6139e+000 26978 106416,106494,106442
 5.0000e-001 106546 -1.0936e+002 -1.8052e+001 -7.6624e+000 26978 106442,106494,106468
 5.0000e-001 106664 -8.7902e+001 -1.7034e+001  5.5257e+000 26978 106520,106494,106638
 5.0000e-001 106687 -8.3501e+001 -2.2677e+001  2.0476e+000 26978 106520,106638,106390
 5.0000e-001 106837 -1.8171e+002 -8.6347e+001 -6.6023e-001 26524 106710,106762,106736
 5.0000e-001 106814 -1.7962e+002 -9.1797e+001 -1.6195e+000 26524 106710,106788,106762
 5.0000e-001 107426 -4.7460e+001  5.7206e+000 -2.1171e+001 26120 107129,107207,107155
 5.0000e-001 107403 -7.0367e+001 -2.4927e+001 -1.1178e+001 26120 107129,107285,107207
 5.0000e-001 107380 -6.4649e+001 -8.2673e+000 -1.2351e+001 26120 107207,107285,107259
 5.0000e-001 107357 -7.2067e+001 -9.7328e+000 -1.0965e+001 26120 107155,107207,107181
 5.0000e-001 107334 -9.3997e+001 -3.3952e+001 -1.0328e+001 26120 107103,107285,107129
 5.0000e-001 107311 -5.7021e+001 -1.8648e+000 -9.6084e+000 26120 107207,107259,107233
 5.0000e-001 107755 -7.8435e+001 -2.9853e+001 -8.2628e+000 25758 107556,107634,107608
 5.0000e-001 107732 -1.1393e+002 -5.7072e+001  4.1614e+000 25758 107556,107660,107634
 5.0000e-001 107709 -6.3427e+001 -3.6811e+001  6.4870e+000 25758 107556,107608,107582
 5.0000e-001 107686 -1.0707e+002 -2.6622e+001  1.3899e+001 25758 107530,107660,107556
 5.0000e-001 108438 -6.1841e+001 -2.8192e+001  2.6950e+000 25468 108121,108199,108173
 5.0000e-001 108415 -6.9890e+001 -5.1507e+001 -2.4236e+000 25468 108095,108199,108121
 5.0000e-001 108392 -7.8424e+001 -4.2687e+001 -5.3109e+000 25468 108095,108251,108199
 5.0000e-001 108369 -8.2295e+001 -3.7546e+001 -1.0830e+000 25468 108069,108251,108095
 5.0000e-001 108346 -6.6668e+001 -3.9233e+001  2.4411e+000 25468 108199,108251,108225
 5.0000e-001 108323 -9.7881e+001 -3.0889e+001 -1.1785e+001 25468 108017,108251,108069
 5.0000e-001 108300 -6.0052e+001 -2.5008e+001  3.4166e+000 25468 108121,108173,108147
 5.0000e-001 108277 -9.6515e+001 -3.1986e+001 -1.3253e+001 25468 108017,108069,108043
 5.0000e-001 108588 -2.2216e+001 -8.9782e+000 -1.2171e+001 25064 108611,108513,108487
 5.0000e-001 108565  6.0346e+000  9.7633e+000 -3.9096e+000 25064 108683,108611,108487
 5.0000e-001 108637 -3.7889e+001  5.1133e+000 -4.4697e-001 25064 108539,108513,108611
 5.0000e-001 108660 -1.9190e+001  2.1170e+001  7.8947e+000 25064 108539,108611,108461
 5.0000e-001 108709 -3.0865e+001 -1.3542e+000  5.8100e-001 25064 108461,108611,108683
 5.0000e-001 109345 -4.9557e+001 -3.2836e+000  5.9054e+000 24410 108999,109155,109103
 5.0000e-001 109322 -1.3916e+002 -3.7006e+001  8.8261e+000 24410 108973,109155,108999
 5.0000e-001 109299 -7.9409e+001 -3.7545e+001 -6.8208e+000 24410 109103,109155,109129
 5.0000e-001 109276 -7.4962e+001  2.3902e+001 -1.7221e+001 24410 108973,109181,109155
 5.0000e-001 109253 -1.1840e+002 -2.7630e+001  1.9978e+001 24410 109025,109103,109077
 5.0000e-001 109230 -9.2889e+001 -2.0267e+001  1.5849e+001 24410 108999,109103,109025
 5.0000e-001 109207 -1.2553e+002  8.9509e+000  9.3722e+000 24410 109025,109077,109051
 5.0000e-001 109723 -5.6342e+001  5.0519e+001 -2.1723e+001 23856 109475,109579,109553
 5.0000e-001 109700 -8.2225e+001 -1.4324e+001 -1.2976e+001 23856 109475,109605,109579
 5.0000e-001 109677 -9.5963e+001 -3.7267e+001 -3.3589e+001 23856 109475,109553,109527
 5.0000e-001 109654 -5.9188e+001 -4.6675e+000  8.9709e+000 23856 109449,109605,109475
 5.0000e-001 109631 -9.9063e+001 -1.1451e+001 -2.1826e+001 23856 109475,109527,109501
 5.0000e-001 110101 -6.0343e+001 -1.6654e+001 -5.0327e+000 23566 109853,109931,109879
 5.0000e-001 110078 -5.9475e+001 -5.3067e+000  7.7852e+000 23566 109827,109931,109853
 5.0000e-001 110055 -3.7498e+001  1.8026e+001 -1.2628e+000 23566 109827,109983,109931
 5.0000e-001 110032 -6.4455e+001 -1.8722e+001 -5.7656e+000 23566 109879,109931,109905
 5.0000e-001 110009 -3.6069e+001  7.7956e+000  1.0870e+001 23566 109931,109983,109957
 5.0000e-001 110735 -4.4203e+001  7.9516e-001 -4.9627e+000 23162 110415,110571,110519
 5.0000e-001 110712 -2.8458e+001  2.1738e+000  6.6815e-001 23162 110389,110571,110415
 5.0000e-001 110689 -7.7697e+001 -1.0032e+001  8.2855e+000 23162 110415,110519,110493
 5.0000e-001 110666 -2.4329e+001  6.1119e+000  4.4772e+000 23162 110363,110571,110389
 5.0000e-001 110643 -6.3166e+001 -6.5185e+000  1.4819e+001 23162 110441,110493,110467
 5.0000e-001 110620 -4.5041e+001 -6.1972e+000  5.4285e+000 23162 110415,110493,110441
 5.0000e-001 110597 -5.9624e+001  2.5486e+001  5.6045e+000 23162 110519,110571,110545
 5.0000e-001 111211 -1.0599e+002 -2.1673e+001 -1.0208e+001 22708 111378,111306,111021
 5.0000e-001 111188 -1.1670e+002 -2.2839e+001 -1.0757e+001 22708 111234,110969,110917
 5.0000e-001 111165 -9.7016e+001 -2.2555e+001 -7.2988e+000 22708 111450,111234,110917
 5.0000e-001 111142 -9.9221e+001 -1.0577e+001 -2.8221e+000 22708 111378,111021,110995
 5.0000e-001 111119 -9.6847e+001 -3.1777e+001  2.3348e+000 22708 111450,110917,110865
 5.0000e-001 111096 -1.8949e+002  2.3306e+000 -3.1079e+001 22708 110917,110969,110943
 5.0000e-001 111073 -9.5096e+001 -3.4340e+001 -1.0678e-001 22708 110865,110917,110891
 5.0000e-001 111260 -1.1653e+002 -1.1419e+001 -6.8699e+000 22708 111306,110969,111234
 5.0000e-001 111283 -1.1457e+002 -3.2052e+001  8.6712e+000 22708 111047,111234,110839
 5.0000e-001 111332 -1.7066e+002  2.7008e+001 -5.7141e+001 22708 111047,111021,111306
 5.0000e-001 111355 -1.3593e+002 -2.2117e+001  7.8290e+000 22708 111047,111306,111234
 5.0000e-001 111404 -1.1616e+002 -5.8348e+000 -1.0974e+001 22708 110969,111306,111378
 5.0000e-001 111427 -1.1429e+002 -9.7517e+000 -8.9788e+000 22708 110969,111378,110995
 5.0000e-001 111476 -1.0609e+002 -3.6091e+001  3.3437e+000 22708 110839,111234,111450
 5.0000e-001 111499 -1.1101e+002 -5.0666e+001  1.3782e+001 22708 110839,111450,110865
 5.0000e-001 111600 -8.2286e+001 -7.7940e+000  7.5418e+000 22460 111522,111574,111548
 5.0000e-001 112059 -5.4466e+001  8.4271e+000  5.0145e+000 22056 111811,111889,111863
 5.0000e-001 112036 -9.5667e+001 -1.9087e+001  1.7422e+001 22056 111811,111915,111889
 5.0000e-001 112013 -3.8934e+001 -2.0728e+001 -9.0745e+000 22056 111785,111915,111811
 5.0000e-001 111990 -2.9204e+001 -5.1267e+000 -2.0834e+001 22056 111785,111941,111915
 5.0000e-001 111967 -1.3926e+001  3.0416e+001 -1.7364e+001 22056 111811,111863,111837
 5.0000e-001 112486 -9.0864e+001  1.8954e+001  6.5234e+000 21594 112509,112267,112215
 5.0000e-001 112463 -7.5488e+001  2.8240e+001 -1.0036e+001 21594 112509,112215,112163
 5.0000e-001 112440 -8.0508e+001 -2.0356e+001  3.3646e+001 21594 112581,112293,112267
 5.0000e-001 112417 -4.2683e+001  1.3381e+001 -7.1191e+000 21594 112215,112267,112241
 5.0000e-001 112394 -1.0678e+002  1.0338e+001 -9.1691e+000 21594 112163,112345,112319
 5.0000e-001 112371 -7.2106e+001  2.3332e+001 -5.1055e+000 21594 112163,112215,112189
 5.0000e-001 112535 -1.0131e+002  2.4158e-001  1.4444e+001 21594 112581,112267,112509
 5.0000e-001 112558 -8.4149e+001  1.0155e+001 -6.8688e+000 21594 112319,112509,112163
 5.0000e-001 112607 -4.7691e+001 -8.1090e-001  2.3878e+001 21594 112319,112293,112581
 5.0000e-001 112630 -6.5814e+001  2.7943e+001  2.2837e+000 21594 112319,112581,112509
 5.0000e-001 112900 -1.1176e+002 -1.3446e+001 -1.9954e+000 20974 112675,112779,112701
 5.0000e-001 112877 -1.1212e+002  1.7221e+000 -1.0223e+001 20974 112675,112805,112779
 5.0000e-001 112854 -1.2563e+002 -4.5295e+001 -1.1626e+001 20974 112701,112779,112753
 5.0000e-001 112831 -1.3967e+002 -7.9839e+001  8.2842e+000 20974 112701,112753,112727
 5.0000e-001 113359 -6.1597e+001  5.1064e+001  4.8084e+001 20520 113454,113137,113111
 5.0000e-001 113336 -1.0276e+002  2.9330e+000  2.3087e+001 20520 113454,113111,113085
 5.0000e-001 113313 -6.7029e+001 -1.5030e+001  3.2563e+001 20520 113382,113163,113137
 5.0000e-001 113290 -8.2504e+001 -2.3385e+001  2.8994e+001 20520 113526,113382,113137
 5.0000e-001 113267 -5.9237e+001 -2.8254e+000  7.9769e+000 20520 113189,113241,113215
 5.0000e-001 113408 -6.9127e+001 -1.6375e+001  2.4162e+001 20520 113189,113163,113382
 5.0000e-001 113431 -7.6203e+001 -2.3563e+001  1.5805e+001 20520 113189,113382,113241
 5.0000e-001 113480 -9.0939e+001 -8.2432e+000  2.3395e+001 20520 113526,113137,113454
 5.0000e-001 113503 -8.6315e+001 -1.5429e+001  4.4106e+000 20520 113241,113454,113085
 5.0000e-001 113552 -6.5823e+001 -1.4816e+000  2.0355e+001 20520 113241,113382,113526
 5.0000e-001 113575 -7.4213e+001  1.0751e+001  1.4316e+001 20520 113241,113526,113454
 5.0000e-001 113904 -1.8725e+001 -8.9015e+000 -1.9632e+001 19858 113705,113783,113757
 5.0000e-001 113881 -2.1897e+000  1.4077e+001 -2.6918e+001 19858 113705,113809,113783
 5.0000e-001 113858 -6.4635e+001 -1.7952e+001 -6.4466e+000 19858 113679,113809,113705
 5.0000e-001 113835 -1.8833e+001  5.9920e+000  3.4305e+000 19858 113705,113757,113731
 5.0000e-001 114152 -8.3415e+001 -2.3859e+001 -1.7540e+001 19454 114175,114005,113979
 5.0000e-001 114129 -8.7336e+001 -2.2114e+001 -1.8807e+001 19454 114175,113979,114057
 5.0000e-001 114106 -8.2611e+001  1.1167e+001  1.7624e+001 19454 113927,114057,113979
 5.0000e-001 114083 -6.5672e+001  2.0731e+000 -2.5041e-001 19454 113927,113979,113953
 5.0000e-001 114201  4.8013e+000  1.3949e+001 -8.6887e+000 19454 114031,114005,114175
 5.0000e-001 114224 -8.4938e+001 -2.6903e+001 -1.8181e+001 19454 114031,114175,114057
 5.0000e-001 114472 -5.1099e+001  1.5417e+001 -1.4580e+001 19000 114495,114273,114247
 5.0000e-001 114449 -4.8963e+001  8.0095e-001 -1.1335e+001 19000 114495,114247,114325
 5.0000e-001 114426 -6.4080e+001 -7.9690e+000  3.2761e-002 19000 114247,114377,114325
 5.0000e-001 114403 -6.2809e+001 -6.6562e+000  2.2608e+000 19000 114325,114377,114351
 5.0000e-001 114521 -5.2254e+001  1.2189e+001 -9.8447e-001 19000 114299,114273,114495
 5.0000e-001 114544 -4.7998e+001 -1.0352e+001 -4.5090e+000 19000 114299,114495,114325
 5.0000e-001 114948 -1.4313e+002 -4.8390e+001 -7.8152e+000 18560 114674,114726,114700
 5.0000e-001 114925 -1.4753e+002 -6.9364e+001 -5.4300e+000 18560 114674,114830,114726
 5.0000e-001 114902 -1.5204e+002 -8.1834e+001 -1.4608e+001 18560 114726,114830,114804
 5.0000e-001 114879 -1.1167e+002 -5.2668e+001  4.6508e-001 18560 114726,114804,114752
 5.0000e-001 114856 -1.2520e+002 -6.2806e+001  5.5925e+000 18560 114752,114804,114778
 5.0000e-001 115098 -2.1274e+001  6.4480e+001 -9.4025e+000 18156 114971,115023,114997
 5.0000e-001 115075 -4.5833e+001  2.6964e+001  1.3831e+000 18156 114971,115049,115023
 5.0000e-001 115248 -8.4001e+001  1.1531e+001 -5.0611e+000 17602 115147,115199,115173
 5.0000e-001 115225 -3.9848e+001  1.4553e+001 -3.3205e+000 17602 115121,115199,115147
 5.0000e-001 115652 -6.2807e+001 -6.5569e+000 -2.3362e+000 17354 115430,115534,115508
 5.0000e-001 115629 -5.5276e+001  1.5609e+001 -7.1976e+000 17354 115404,115534,115430
 5.0000e-001 115606 -4.9356e+001  3.0745e+001 -7.7730e+000 17354 115378,115534,115404
 5.0000e-001 115583 -1.2522e+002  3.5489e+000  1.6511e+001 17354 115456,115508,115482
 5.0000e-001 115560 -5.3331e+001  1.4728e+001 -6.0615e-001 17354 115430,115508,115456
 5.0000e-001 115873 -9.5521e+001  2.2828e+001  3.3748e+001 16950 115749,115801,115775
 5.0000e-001 115850 -1.1237e+002 -1.6014e+001  1.7211e+001 16950 115697,115801,115749
 5.0000e-001 115827 -1.1596e+002 -2.4588e+001  1.6368e+001 16950 115697,115749,115723
 5.0000e-001 116023 -1.1678e+002 -3.3640e+000  2.8154e+000 16496 115922,115974,115948
 5.0000e-001 116000 -6.6185e+001 -1.7621e+001 -2.7327e-001 16496 115896,115974,115922
 5.0000e-001 116126 -1.1395e+002  5.5664e+001 -1.7279e+001 16298 116048,116100,116074
 5.0000e-001 116278 -1.7513e+002  7.2369e+001 -6.6416e+000 15892 116151,116203,116177
 5.0000e-001 116255 -1.9271e+002 -8.3178e+000 -2.2713e+001 15892 116151,116229,116203
 5.0000e-001 116430 -7.8901e+001 -7.3895e+001 -2.0875e+000 15545 116303,116355,116329
 5.0000e-001 116407 -5.1206e+001 -3.2259e+001  1.7243e+001 15545 116303,116381,116355
 5.0000e-001 116785 -4.8713e+001 -1.0042e+001  9.2770e+000 421 116612,116690,116664
 5.0000e-001 116762 -4.8205e+001 -8.7702e+000  1.1762e+001 421 116560,116690,116612
 5.0000e-001 116739 -3.3907e+001  2.7516e+000  4.0917e-001 421 116560,116612,116586
 5.0000e-001 116716 -2.2691e+001  4.0261e+001  2.2482e+001 421 116612,116664,116638
 6.0000e-001 68048 -1.9429e+002  5.7290e+000 -2.5996e+000 67642 67898,67950,67924
 6.0000e-001 68025 -2.1344e+002 -2.4264e+001  5.9883e+000 67642 67898,67976,67950
 6.0000e-001 68002 -1.4321e+002  7.3413e+000 -6.9298e-001 67642 67872,67976,67898
 6.0000e-001 68367 -1.5891e+002 -4.8502e+001  4.3075e+000 67444 68119,68223,68197
 6.0000e-001 68344 -1.5715e+002 -5.3064e+001  2.3926e+000 67444 68119,68249,68223
 6.0000e-001 68321 -1.0239e+002 -3.0570e+001  1.1959e+000 67444 68093,68249,68119
 6.0000e-001 68298 -1.6658e+002 -6.1713e+001 -5.7495e+000 67444 68119,68197,68171
 6.0000e-001 68275 -1.2889e+002 -2.4975e+001  1.2021e+001 67444 68119,68171,68145
 6.0000e-001 68468 -1.6926e+002 -1.0164e+001  1.0825e+000 67268 68390,68442,68416
 6.0000e-001 68765 -1.8914e+002  4.5913e+001  1.3652e+001 66956 68788,68517,68491
 6.0000e-001 68742 -1.8771e+002 -8.5254e+000  2.3128e+000 66956 68788,68491,68621
 6.0000e-001 68719 -2.0740e+002 -4.4824e+001 -4.5351e+001 66956 68543,68621,68569
 6.0000e-001 68696 -1.7884e+002  5.9318e+000 -3.8085e+000 66956 68491,68647,68621
 6.0000e-001 68673 -2.8468e+002 -9.1222e+001 -7.1022e+001 66956 68569,68621,68595
 6.0000e-001 68814 -1.7161e+002  3.3881e+000  2.9283e+001 66956 68543,68517,68788
 6.0000e-001 68837 -1.7012e+002 -5.0825e+001  1.3160e+001 66956 68543,68788,68621
 6.0000e-001 69107 -1.5392e+002 -9.8598e+001 -7.2153e+000 66758 68882,68986,68908
 6.0000e-001 69084 -1.2086e+002 -7.6792e+001  6.4241e+000 66758 68882,69012,68986
 6.0000e-001 69061 -2.6331e+002 -5.5878e+001 -2.1652e+001 66758 68908,68960,68934
 6.0000e-001 69038 -1.3783e+002 -5.2963e+001 -1.3952e+001 66758 68908,68986,68960
 6.0000e-001 69308 -1.4769e+002  4.4114e+000 -2.3471e+000 66560 69331,69184,69158
 6.0000e-001 69285 -1.5085e+002  1.2384e+000 -3.6208e+000 66560 69331,69158,69132
 6.0000e-001 69262 -1.4787e+002 -3.0232e+001 -8.7274e+000 66560 69184,69236,69210
 6.0000e-001 69357 -1.4358e+002  7.6394e-001 -9.7073e-001 66560 69236,69184,69331
 6.0000e-001 69380 -1.4622e+002 -2.5297e+000 -2.1248e+000 66560 69236,69331,69132
 6.0000e-001 69554 -9.1228e+001  5.7014e+001 -2.2924e+000 66270 69427,69479,69453
 6.0000e-001 69531 -9.5020e+001  4.8171e+001 -4.0455e+000 66270 69427,69505,69479
 6.0000e-001 69804 -1.0331e+002 -3.7183e+001  1.2927e+001 66066 69579,69683,69657
 6.0000e-001 69781 -1.1461e+002 -4.2326e+001  1.5811e+001 66066 69579,69709,69683
 6.0000e-001 69758 -1.0390e+002 -2.0944e+001  1.4199e+001 66066 69579,69657,69631
 6.0000e-001 69735 -9.9003e+001 -7.6258e+000  9.7498e+000 66066 69579,69631,69605
 6.0000e-001 70257 -1.4055e+002 -1.5811e+001 -2.4364e+001 65776 69960,70090,69986
 6.0000e-001 70234 -1.3011e+002 -4.6797e+000 -1.4258e+001 65776 69934,70090,69960
 6.0000e-001 70211 -4.4954e+001  2.9096e+001 -9.5541e+000 65776 69934,70116,70090
 6.0000e-001 70188 -1.4187e+002  3.7984e+001  0.0000e+000 65776 70038,70090,70064
 6.0000e-001 70165 -1.2903e+002  5.8110e+001 -1.7353e+001 65776 69986,70090,70038
 6.0000e-001 70142 -1.5542e+002 -2.1417e+001 -4.0611e+001 65776 69986,70038,70012
 6.0000e-001 70456 -9.7332e+001 -7.6018e+000 -4.4280e+000 65372 70479,70306,70280
 6.0000e-001 70433 -9.4877e+001  1.4614e+000 -4.3140e+000 65372 70479,70280,70384
 6.0000e-001 70410 -9.8031e+001 -1.0493e+001 -7.7632e+000 65372 70551,70332,70306
 6.0000e-001 70505 -9.5705e+001 -8.7152e+000 -8.6314e+000 65372 70551,70306,70479
 6.0000e-001 70528 -9.1285e+001 -4.9308e+000 -8.8282e+000 65372 70358,70479,70384
 6.0000e-001 70577 -9.4446e+001 -1.2586e+001 -7.1147e+000 65372 70358,70332,70551
 6.0000e-001 70600 -9.3641e+001 -1.1864e+001 -7.5509e+000 65372 70358,70551,70479
 6.0000e-001 70821 -7.1374e+001 -2.9764e+001 -7.7468e+000 65174 70645,70723,70671
 6.0000e-001 70798 -1.4969e+002 -5.4177e+001  8.6868e+000 65174 70645,70749,70723
 6.0000e-001 70775 -5.3855e+001 -1.1398e+001 -1.4921e+001 65174 70671,70723,70697
 6.0000e-001 71071 -8.4495e+001 -2.9559e+000 -1.0888e+001 64770 71094,70898,70872
 6.0000e-001 71048 -8.3849e+001 -4.1323e+000 -7.0675e+000 64770 71166,71094,70872
 6.0000e-001 71025 -8.6155e+001 -8.8942e+000 -1.0143e+001 64770 71166,70872,70846
 6.0000e-001 71002 -1.4348e+002  1.4093e+000 -5.0039e+000 64770 70898,70950,70924
 6.0000e-001 71120 -8.4703e+001  8.5273e+000 -1.3592e+001 64770 70950,70898,71094
 6.0000e-001 71143 -8.4236e+001 -2.4654e+000 -6.6764e+000 64770 70950,71094,70976
 6.0000e-001 71192 -8.3511e+001 -1.3307e+001 -9.1532e+000 64770 70976,71094,71166
 6.0000e-001 71215 -8.3324e+001 -1.5090e+001 -1.2038e+001 64770 70976,71166,70846
 6.0000e-001 71514 -1.3830e+002 -3.6976e+001 -2.6687e+000 64572 71681,71537,71318
 6.0000e-001 71491 -1.4222e+002  3.1155e+000 -2.1511e+001 64572 71537,71266,71240
 6.0000e-001 71468 -1.3948e+002 -1.7704e+001 -2.4543e+001 64572 71609,71396,71370
 6.0000e-001 71445 -1.3303e+002 -5.7276e+001  5.4764e+000 64572 71681,71318,71292
 6.0000e-001 71422 -1.2454e+002 -4.6367e+001 -1.9820e+000 64572 71753,71344,71318
 6.0000e-001 71563 -1.2394e+002 -2.5418e+001 -1.1948e+001 64572 71753,71318,71537
 6.0000e-001 71586 -1.3725e+002 -2.5515e+001 -1.6392e+001 64572 71609,71370,71537
 6.0000e-001 71635 -1.2480e+002  1.0503e+001 -3.6066e+001 64572 71240,71396,71609
 6.0000e-001 71658 -1.3526e+002 -9.6619e+000 -2.5365e+001 64572 71240,71609,71537
 6.0000e-001 71707 -1.4836e+002  9.1909e+000 -5.8675e+000 64572 71266,71537,71681
 6.0000e-001 71730 -1.5375e+002 -1.4458e+001  1.2453e+001 64572 71266,71681,71292
 6.0000e-001 71779 -1.0316e+002 -2.4072e+001 -1.0935e+001 64572 71370,71344,71753
 6.0000e-001 71802 -1.1476e+002 -1.7257e+001 -1.5601e+001 64572 71370,71753,71537
 6.0000e-001 72052 -6.1277e+001 -1.8727e+001 -9.3419e+000 64374 72075,71879,71827
 6.0000e-001 72029 -7.9587e+001 -1.7193e+001 -2.4598e+001 64374 72147,72075,71827
 6.0000e-001 72006 -8.5560e+001 -2.0386e-004 -7.2346e+000 64374 72147,71827,71957
 6.0000e-001 71983 -4.1369e+001 -8.9549e+000 -2.0798e+001 64374 71827,71879,71853
 6.0000e-001 72101 -6.8019e+001 -3.3970e+001 -1.0675e+001 64374 71905,71879,72075
 6.0000e-001 72124 -9.5230e+001 -1.7287e+001 -3.5626e+001 64374 71905,72075,71931
 6.0000e-001 72173 -7.0228e+001  2.2869e+001 -2.4219e+001 64374 71931,72075,72147
 6.0000e-001 72196 -8.1388e+001  3.6800e+001 -1.1861e+001 64374 71931,72147,71957
 6.0000e-001 72649 -1.7582e+002 -6.2656e+001  9.5958e+000 63948 72352,72508,72482
 6.0000e-001 72626 -1.8809e+002 -9.5809e+001 -2.6655e+001 63948 72326,72508,72352
 6.0000e-001 72603 -1.4363e+002 -6.4765e+001  1.6663e+000 63948 72672,72430,72378
 6.0000e-001 72580 -1.3691e+002 -2.2121e+001 -1.1904e+001 63948 72672,72378,72352
 6.0000e-001 72557 -1.4876e+002 -1.0273e+002 -2.4822e+000 63948 72744,72456,72430
 6.0000e-001 72534 -1.4586e+002 -3.5765e+001  3.1693e+001 63948 72378,72430,72404
 6.0000e-001 72698 -1.4665e+002 -9.2719e+001  3.0503e+000 63948 72744,72430,72672
 6.0000e-001 72721 -1.5010e+002 -5.7768e+001  2.7241e+000 63948 72482,72672,72352
 6.0000e-001 72770 -1.6857e+002 -8.4177e+001 -6.5362e-001 63948 72482,72456,72744
 6.0000e-001 72793 -1.5364e+002 -5.9564e+001  7.7689e+000 63948 72482,72744,72672
 6.0000e-001 72894 -1.7315e+002 -1.2178e+001  1.2739e+001 63494 72816,72868,72842
 6.0000e-001 73093 -7.0643e+001  6.8071e+001 -1.3612e+001 63132 72943,72995,72969
 6.0000e-001 73070 -1.7128e+002  2.6493e+001 -1.3633e+001 63132 72943,73021,72995
 6.0000e-001 73047 -1.7419e+002 -1.8009e+001 -4.5745e+000 63132 72917,73021,72943
 6.0000e-001 73294 -1.1817e+002 -1.0592e+001  2.5612e+001 62792 73317,73144,73118
 6.0000e-001 73271 -1.0674e+002  1.3355e+001  2.0124e+001 62792 73317,73118,73222
 6.0000e-001 73248 -9.9376e+001 -3.4757e+001  9.6076e-001 62792 73144,73196,73170
 6.0000e-001 73343 -1.0706e+002 -3.2463e+001 -3.2988e-001 62792 73196,73144,73317
 6.0000e-001 73366 -9.0342e+001  4.4056e+000 -6.7685e+000 62792 73196,73317,73222
 6.0000e-001 73616 -1.6737e+002 -3.5830e+001  1.4820e+001 62388 73639,73417,73391
 6.0000e-001 73593 -1.5091e+002  6.2626e-001  2.1961e+000 62388 73711,73639,73391
 6.0000e-001 73570 -1.4544e+002  4.4842e+001 -1.7033e+000 62388 73711,73391,73521
 6.0000e-001 73547 -1.4022e+002 -8.3398e+000 -2.7984e+001 62388 73469,73521,73495
 6.0000e-001 73665 -1.3316e+002 -2.3060e+001  8.1404e-001 62388 73443,73417,73639
 6.0000e-001 73688 -1.4799e+002 -3.0116e+001 -6.0481e+000 62388 73443,73639,73469
 6.0000e-001 73737 -1.4514e+002 -2.9977e+001 -5.6761e+000 62388 73469,73639,73711
 6.0000e-001 73760 -1.5519e+002 -8.7756e+000 -2.3260e+000 62388 73469,73711,73521
 6.0000e-001 74010 -1.5564e+002 -5.5941e+001 -2.2578e+001 61848 74033,73837,73811
 6.0000e-001 73987 -8.5534e+001 -4.9613e+001  7.7552e+000 61848 74033,73811,73785
 6.0000e-001 73964 -1.4192e+002 -2.5339e+001  1.0105e+001 61848 73837,73915,73889
 6.0000e-001 73941 -1.8963e+002  1.7037e+001 -1.5502e+001 61848 73837,73889,73863
 6.0000e-001 74059 -1.6306e+002 -3.1230e+001 -6.4724e+000 61848 73915,73837,74033
 6.0000e-001 74082 -1.5675e+002 -1.4188e+001  3.7886e+000 61848 73915,74033,73785
 6.0000e-001 74283 -1.4953e+002  3.3506e-001 -2.2458e+001 61444 74306,74133,74107
 6.0000e-001 74260 -1.5925e+002  2.0922e+001  3.0116e+001 61444 74306,74107,74211
 6.0000e-001 74237 -1.9498e+002 -7.2286e+001  2.1156e+001 61444 74378,74185,74159
 6.0000e-001 74332 -2.0052e+002 -2.1897e+001 -2.9763e+001 61444 74159,74133,74306
 6.0000e-001 74355 -1.8997e+002 -1.4048e+001  2.3175e+001 61444 74378,74159,74306
 6.0000e-001 74404 -1.7172e+002 -1.0530e+001  1.8092e+001 61444 74211,74185,74378
 6.0000e-001 74427 -1.8152e+002  1.6411e+000  1.8831e+001 61444 74211,74378,74306
 6.0000e-001 74628 -1.2156e+002  1.8788e+001  3.0832e+001 60990 74478,74530,74504
 6.0000e-001 74605 -9.4924e+001 -2.9030e+000  3.8924e+000 60990 74452,74530,74478
 6.0000e-001 74582 -1.0389e+002 -2.6647e+001  1.4809e+001 60990 74452,74556,74530
 6.0000e-001 75089 -1.9829e+000  8.6100e+000 -4.3307e+000 60486 75112,74945,74919
 6.0000e-001 75066 -2.1227e+001  2.1046e+001  1.8924e+001 60486 75112,74919,74867
 6.0000e-001 75043 -4.3194e+001  1.4968e+001  1.3489e+001 60486 74841,74971,74867
 6.0000e-001 75020 -1.0810e+002  7.7625e+000 -1.0329e+001 60486 74867,74919,74893
 6.0000e-001 74997  1.1523e+001  1.4036e+001 -6.2450e+000 60486 74815,74971,74841
 6.0000e-001 75138 -3.0898e+001 -4.4820e+000 -7.1635e+000 60486 74971,74945,75112
 6.0000e-001 75161 -4.2309e+001  1.0696e+001  1.5044e+001 60486 74971,75112,74867
 6.0000e-001 75409 -8.9245e+001 -3.6780e+000 -1.9300e+001 59932 75576,75432,75288
 6.0000e-001 75386 -1.3326e+002 -2.1852e+001 -2.1666e+001 59932 75504,75314,75288
 6.0000e-001 75363 -1.0034e+002 -1.3096e+001  1.9827e+000 59932 75432,75236,75210
 6.0000e-001 75340 -2.1062e+001  2.5742e+001 -1.3011e+001 59932 75576,75288,75262
 6.0000e-001 75458 -1.3309e+002 -2.0632e+001 -2.2088e+001 59932 75504,75288,75432
 6.0000e-001 75481 -1.3697e+002 -1.7887e+001  1.4956e+001 59932 75184,75432,75210
 6.0000e-001 75530 -1.7977e+002 -6.4580e+001  5.4294e+000 59932 75184,75314,75504
 6.0000e-001 75553 -1.2700e+002 -2.2352e+001 -1.7497e+001 59932 75184,75504,75432
 6.0000e-001 75602 -1.2916e+002  1.7970e+001 -1.1402e+001 59932 75236,75432,75576
 6.0000e-001 75625 -1.1881e+002  1.1774e+001 -1.6955e+001 59932 75236,75576,75262
 6.0000e-001 75873 -7.7625e+001 -6.0413e+000  1.2847e+001 59478 75674,75752,75700
 6.0000e-001 75850 -7.8966e+001 -6.6652e+000  1.0672e+001 59478 75648,75752,75674
 6.0000e-001 75827 -1.1247e+002 -1.3534e+001  1.0973e+001 59478 75700,75752,75726
 6.0000e-001 75804 -8.1062e+001 -3.3124e-001  9.4752e+000 59478 75648,75778,75752
 6.0000e-001 76206 -8.6959e+001 -2.7269e+001 -1.7173e+001 59024 75981,76059,76007
 6.0000e-001 76183 -7.5423e+001 -2.4800e+000 -2.5203e+001 59024 75981,76111,76059
 6.0000e-001 76160 -7.8627e+001 -3.2970e+001 -1.1862e+001 59024 76007,76059,76033
 6.0000e-001 76137 -8.5564e+001 -2.2535e+001 -2.9110e+001 59024 76059,76111,76085
 6.0000e-001 76761 -3.2427e+001 -7.1035e+000  1.7721e+001 58562 76389,76441,76415
 6.0000e-001 76738 -7.3360e+001  4.1492e+000 -6.1932e+000 58562 76856,76784,76389
 6.0000e-001 76715 -8.6032e+001 -5.4133e+000 -1.9658e+001 58562 76784,76571,76467
 6.0000e-001 76692 -1.2585e+002  1.9712e+001 -1.0887e+001 58562 76856,76389,76597
 6.0000e-001 76669 -1.7467e+002 -4.2435e+001 -7.8733e+000 58562 76467,76545,76493
 6.0000e-001 76646 -9.3814e+001 -3.9347e+000 -1.9886e+001 58562 76467,76571,76545
 6.0000e-001 76623 -6.5296e+001 -7.1559e-002  7.0602e+000 58562 76493,76545,76519
 6.0000e-001 76810 -6.6735e+001 -5.2632e+000 -1.3723e+001 58562 76441,76389,76784
 6.0000e-001 76833 -7.7653e+001  9.6118e-002 -3.2909e+000 58562 76441,76784,76467
 6.0000e-001 76882 -1.3009e+002 -1.9898e+001 -3.1535e+001 58562 76571,76784,76856
 6.0000e-001 76905 -1.6325e+002  8.8805e+000 -3.7064e+001 58562 76571,76856,76597
 6.0000e-001 77055 -1.5516e+002 -3.6524e+001  1.3575e-001 57844 76928,76980,76954
 6.0000e-001 77032 -1.0499e+002 -6.0803e+000 -1.7209e+001 57844 76928,77006,76980
 6.0000e-001 77533 -1.3158e+002 -2.6704e+001  5.1936e+000 57226 77628,77556,77291
 6.0000e-001 77510 -1.4027e+002  3.7566e+001  1.4745e+001 57226 77556,77187,77343
 6.0000e-001 77487 -9.7590e+001 -2.9339e+000 -5.7890e+000 57226 77628,77291,77265
 6.0000e-001 77464 -8.5147e+001 -2.3267e+001 -1.0286e+001 57226 77700,77213,77187
 6.0000e-001 77441 -2.8470e+002 -2.0080e+001  1.2922e+001 57226 77161,77343,77187
 6.0000e-001 77418 -2.0947e+002 -4.0517e+000  2.9807e+000 57226 77161,77369,77343
 6.0000e-001 77395 -8.0960e+001 -6.4880e+000 -5.2922e+001 57226 77213,77265,77239
 6.0000e-001 77582 -1.1937e+002 -4.4006e+000 -4.7807e+000 57226 77317,77291,77556
 6.0000e-001 77605 -1.8832e+002  1.2517e+001 -5.9731e+000 57226 77317,77556,77343
 6.0000e-001 77654 -7.3354e+001  5.2263e+000  1.7708e+001 57226 77187,77556,77628
 6.0000e-001 77677 -7.4534e+001 -2.2802e+001  4.4825e+000 57226 77700,77187,77628
 6.0000e-001 77726 -1.2168e+002 -3.9948e+001 -2.8788e+001 57226 77265,77213,77700
 6.0000e-001 77749 -1.0630e+002 -2.7766e+001 -1.1261e+001 57226 77265,77700,77628
 6.0000e-001 78046 -1.5980e+002  9.6280e+000 -4.4987e+000 56936 77798,77850,77824
 6.0000e-001 78023 -1.6556e+002 -5.3216e+001 -1.5530e+001 56936 78069,77798,77902
 6.0000e-001 78000 -1.7738e+002 -4.6083e+001 -1.6750e+001 56936 78069,77902,77876
 6.0000e-001 77977 -1.9893e+002 -7.1964e+001 -4.0987e+001 56936 77798,77928,77902
 6.0000e-001 77954 -2.4683e+002 -3.3491e+001 -3.8017e+001 56936 77772,77928,77798
 6.0000e-001 78095 -1.6278e+002 -4.8909e+001 -1.7952e+001 56936 77850,77798,78069
 6.0000e-001 78118 -1.6842e+002 -3.9773e+001 -2.1246e+001 56936 77850,78069,77876
 6.0000e-001 78754 -1.0087e+002 -5.9564e+001  1.1236e+001 56475 78777,78486,78408
 6.0000e-001 78731 -1.6057e+002 -9.6463e+001  2.6857e+001 56475 78777,78408,78382
 6.0000e-001 78708 -1.4110e+002 -6.8747e+001 -8.6914e+000 56475 78849,78512,78486
 6.0000e-001 78685 -1.3199e+002 -4.7083e+001 -1.3334e+000 56475 78382,78590,78564
 6.0000e-001 78662 -1.7439e+002 -1.2111e+001 -1.9085e+001 56475 78512,78564,78538
 6.0000e-001 78639 -1.0478e+002 -5.3773e+001  6.1776e+000 56475 78434,78486,78460
 6.0000e-001 78616 -9.8997e+001 -5.7342e+001  8.1708e+000 56475 78408,78486,78434
 6.0000e-001 78803 -1.4177e+002 -6.3375e+001 -3.0102e+000 56475 78849,78486,78777
 6.0000e-001 78826 -1.4731e+002 -5.7127e+001  4.0308e+000 56475 78564,78777,78382
 6.0000e-001 78875 -1.3799e+002 -5.8485e+001 -6.2108e+000 56475 78564,78512,78849
 6.0000e-001 78898 -1.3973e+002 -5.2261e+001 -1.7740e+000 56475 78564,78849,78777
 6.0000e-001 79276 -1.2043e+002 -3.8913e+001  1.4155e+000 55964 79299,79080,79028
 6.0000e-001 79253 -1.4185e+002 -4.7219e+001  2.5447e+000 55964 79299,79028,79132
 6.0000e-001 79230 -1.0735e+002  3.7706e+000 -1.6697e+000 55964 79028,79080,79054
 6.0000e-001 79207 -1.3400e+002 -5.5150e+001 -1.3868e+000 55964 79002,79132,79028
 6.0000e-001 79184 -1.6612e+002 -6.8812e+001 -2.1530e+000 55964 79002,79158,79132
 6.0000e-001 79325 -1.2923e+002 -2.9527e+001 -1.6486e+001 55964 79106,79080,79299
 6.0000e-001 79348 -1.5338e+002 -3.9055e+001 -1.4364e+001 55964 79106,79299,79132
 6.0000e-001 79498 -1.5241e+002 -2.6761e+001 -1.3660e+001 55452 79397,79449,79423
 6.0000e-001 79475 -1.1404e+002  2.5703e+001  3.0834e+000 55452 79371,79449,79397
 6.0000e-001 79795 -9.2787e+001 -2.9025e+001  2.0888e+000 55048 79962,79818,79573
 6.0000e-001 79772 -1.0184e+002 -6.2444e+000 -4.7260e+000 55048 79818,79521,79677
 6.0000e-001 79749 -8.9937e+001 -5.8005e+001  7.9345e-001 55048 79599,79651,79625
 6.0000e-001 79726 -1.1125e+002 -3.8143e+001 -3.0910e+000 55048 79890,79651,79599
 6.0000e-001 79703 -8.6489e+001 -2.0240e+001  6.0451e+000 55048 79962,79573,79547
 6.0000e-001 79844 -9.5463e+001 -3.8141e+001  4.3435e-002 55048 79599,79573,79818
 6.0000e-001 79867 -1.0383e+002 -2.4794e+001  3.1140e+000 55048 79890,79599,79818
 6.0000e-001 79916 -1.1903e+002 -3.8581e+001 -1.6495e+001 55048 79677,79651,79890
 6.0000e-001 79939 -1.1478e+002 -3.3372e+001 -1.0939e+001 55048 79677,79890,79818
 6.0000e-001 79988 -9.5437e+001 -3.3783e+001 -4.3765e+000 55048 79521,79818,79962
 6.0000e-001 80011 -9.3929e+001 -3.1309e+001 -1.2763e+000 55048 79521,79962,79547
 6.0000e-001 80212 -1.4973e+002  1.5087e+001 -1.0195e+001 54436 80235,80088,80036
 6.0000e-001 80189 -1.0240e+002 -2.5076e+001  1.6488e+000 54436 80235,80036,80140
 6.0000e-001 80166 -1.4690e+002  3.6785e+001 -1.1739e+000 54436 80036,80088,80062
 6.0000e-001 80261 -1.1535e+002  2.7612e+001  9.2944e+000 54436 80114,80088,80235
 6.0000e-001 80284 -5.1089e+001  6.3854e+000  2.5935e+001 54436 80114,80235,80140
 6.0000e-001 80534 -1.4060e+002 -1.9051e+001 -3.5155e+000 54032 80557,80361,80335
 6.0000e-001 80511 -1.2020e+002 -4.0857e+000 -1.0442e+001 54032 80557,80335,80309
 6.0000e-001 80488 -1.1512e+002 -3.4059e+001 -1.5433e+000 54032 80629,80413,80387
 6.0000e-001 80465 -1.2036e+002 -5.0723e+001 -6.5017e+000 54032 80309,80439,80413
 6.0000e-001 80583 -1.2356e+002 -1.9135e+001  9.1650e+000 54032 80387,80361,80557
 6.0000e-001 80606 -1.1021e+002 -2.0653e+001  5.5483e+000 54032 80629,80387,80557
 6.0000e-001 80655 -1.2067e+002 -3.4437e+001 -9.4052e+000 54032 80309,80413,80629
 6.0000e-001 80678 -1.2377e+002 -3.1124e+001 -3.3364e+000 54032 80309,80629,80557
 6.0000e-001 81139 -2.6878e+001  5.1351e+001  5.1114e+001 53784 80865,80995,80917
 6.0000e-001 81116 -8.8537e+001  5.9578e+001 -4.3451e+001 53784 80865,81021,80995
 6.0000e-001 81093 -2.1493e+001  1.0965e+000  9.2732e+000 53784 80943,80995,80969
 6.0000e-001 81070  2.3390e+001  3.0634e+001  4.9177e+001 53784 80917,80995,80943
 6.0000e-001 81047 -1.3831e+002  3.7076e+002  1.3525e+002 53784 80865,80917,80891
 6.0000e-001 81468 -1.0566e+002 -2.1181e+001  2.3586e+000 53230 81295,81373,81347
 6.0000e-001 81445 -9.2221e+001 -1.0634e+001  9.2857e+000 53230 81243,81373,81295
 6.0000e-001 81422 -6.8313e+001 -1.5491e+001  2.8823e+001 53230 81243,81295,81269
 6.0000e-001 81399 -1.2187e+002 -2.8187e+001  3.1309e+000 53230 81295,81347,81321
 6.0000e-001 81618 -1.9794e+002 -1.0211e+001 -1.8714e+001 52790 81491,81543,81517
 6.0000e-001 81595 -1.8902e+002 -6.1720e+001 -1.4000e+001 52790 81491,81569,81543
 6.0000e-001 82126 -1.0132e+002 -4.4410e+001  1.2566e+001 52386 82149,81907,81881
 6.0000e-001 82103 -9.8246e+001 -3.6668e+001  1.3131e+001 52386 82149,81881,81855
 6.0000e-001 82080 -9.8105e+001 -5.7953e+001  6.8054e-001 52386 82221,81803,81985
 6.0000e-001 82057 -5.8352e+001 -3.7373e+001  1.5217e+001 52386 81803,81855,81829
 6.0000e-001 82034 -8.3855e+001 -2.4817e+001 -2.8124e+000 52386 81907,81985,81933
 6.0000e-001 82011 -6.1787e+001 -2.8440e+001 -9.9996e-001 52386 81933,81985,81959
 6.0000e-001 82175 -9.7982e+001 -4.1256e+001  1.1067e+001 52386 81985,81907,82149
 6.0000e-001 82198 -1.0206e+002 -5.0383e+001  9.2801e+000 52386 82221,81985,82149
 6.0000e-001 82247 -9.2755e+001 -4.3425e+001  1.5718e+000 52386 81855,81803,82221
 6.0000e-001 82270 -9.7006e+001 -3.4707e+001  8.3452e+000 52386 81855,82221,82149
 6.0000e-001 82825 -2.0106e+002 -2.9797e+001 -5.2700e+001 51782 82505,82661,82635
 6.0000e-001 82802 -9.2907e+001 -2.8061e+001  3.0899e+001 51782 82479,82661,82505
 6.0000e-001 82779 -1.1305e+002 -4.6988e+001  2.3378e+001 51782 82557,82635,82609
 6.0000e-001 82756 -1.3102e+002 -9.0401e+001 -1.8681e+000 51782 82531,82635,82557
 6.0000e-001 82733 -1.8235e+002 -2.8741e-001 -1.7825e+001 51782 82505,82635,82531
 6.0000e-001 82710 -1.4711e+002 -1.1987e+002 -4.0068e+001 51782 82453,82661,82479
 6.0000e-001 82687 -1.1474e+002 -3.5586e+001  2.6582e+001 51782 82557,82609,82583
 6.0000e-001 83171 -1.4636e+002 -2.8102e+001 -1.3628e+001 51442 83194,82978,82900
 6.0000e-001 83148 -1.6296e+002 -4.5339e+001 -2.0421e+001 51442 83194,82900,82874
 6.0000e-001 83125 -1.8030e+002 -4.1490e+001 -8.3264e-001 51442 82900,82978,82926
 6.0000e-001 83102 -1.6152e+002 -6.5181e+001 -3.8676e+001 51442 82874,83030,83004
 6.0000e-001 83079 -1.2411e+002 -1.8649e+001  2.5391e+000 51442 82926,82978,82952
 6.0000e-001 83056 -2.0461e+002 -8.3042e+001 -4.7040e+001 51442 82848,83030,82874
 6.0000e-001 83220 -1.2246e+002 -4.3019e+001 -7.7286e+000 51442 83004,82978,83194
 6.0000e-001 83243 -1.4545e+002 -6.7392e+001 -1.7187e+001 51442 83004,83194,82874
 6.0000e-001 83751 -9.9053e+001 -4.6669e+001 -3.0613e+000 50938 83428,83584,83454
 6.0000e-001 83728 -1.2734e+002 -5.7056e+001 -1.2516e+001 50938 83428,83610,83584
 6.0000e-001 83705 -1.2524e+002 -3.9469e+001 -7.8502e+000 50938 83454,83584,83558
 6.0000e-001 83682 -1.5437e+002 -4.6261e+001 -2.4434e+000 50938 83454,83532,83480
 6.0000e-001 83659 -1.4261e+002 -4.6223e+001 -5.3803e+000 50938 83454,83558,83532
 6.0000e-001 83636 -9.5757e+001  3.1087e+001  3.0957e+001 50938 83480,83532,83506
 6.0000e-001 84355 -1.2586e+002 -1.8789e+001  3.2328e+001 50377 84378,83960,83934
 6.0000e-001 84332 -9.8834e+001  4.7054e+000 -3.5677e+001 50377 84522,84378,83934
 6.0000e-001 84309 -6.2015e+001  2.0678e+001  1.3470e+001 50377 84450,84038,84012
 6.0000e-001 84286 -6.0363e+001 -1.8432e+001 -3.9187e+001 50377 84522,83934,84142
 6.0000e-001 84263 -7.3627e+001 -4.3769e+001  7.4660e+000 50377 84594,84090,84038
 6.0000e-001 84240  1.5950e+001 -5.8427e+000  2.3955e+001 50377 83960,84012,83986
 6.0000e-001 84217 -1.8541e+001 -1.9019e+001 -1.1495e+001 50377 83934,84168,84142
 6.0000e-001 84194 -1.3282e+000 -1.0760e+001  1.8064e+001 50377 84038,84090,84064
 6.0000e-001 84404  1.7095e+001  3.2426e+001  2.9933e+001 50377 84012,83960,84378
 6.0000e-001 84427 -8.2551e+001  5.2724e+000 -7.0002e+000 50377 84450,84012,84378
 6.0000e-001 84476 -8.2180e+001 -2.1051e+001  5.4146e+000 50377 84594,84038,84450
 6.0000e-001 84499 -7.6468e+001  9.4881e+000 -1.1554e+001 50377 84116,84450,84378
 6.0000e-001 84548 -5.9418e+001  2.5090e+001 -2.6123e+001 50377 84116,84378,84522
 6.0000e-001 84571 -2.2308e+001 -9.1946e-002 -3.1416e+001 50377 84116,84522,84142
 6.0000e-001 84620 -6.9231e+001 -1.1392e+001 -7.2404e+000 50377 84116,84090,84594
 6.0000e-001 84643 -7.6472e+001  1.0972e+001 -1.0799e+001 50377 84116,84594,84450
 6.0000e-001 84842 -1.4134e+002 -4.0576e+001 -1.5274e+001 49923 84865,84692,84666
 6.0000e-001 84819 -1.1863e+002 -4.3151e+001 -2.6730e+000 49923 84865,84666,84770
 6.0000e-001 84796 -9.1407e+001 -3.6530e+001 -1.0487e+000 49923 84692,84744,84718
 6.0000e-001 84891 -1.2664e+002 -3.6375e+001 -2.5421e+000 49923 84744,84692,84865
 6.0000e-001 84914 -1.0109e+002 -3.1966e+001  1.1891e+001 49923 84744,84865,84770
 6.0000e-001 85501 -1.2159e+002 -1.0864e+001  1.9615e+000 49618 85524,85282,85204
 6.0000e-001 85478 -1.4410e+002 -1.8907e+001  2.2273e+000 49618 85596,85524,85204
 6.0000e-001 85455 -1.5318e+002 -1.5475e+001  7.4684e-001 49618 85596,85204,85178
 6.0000e-001 85432 -1.4061e+002 -1.9961e+001  6.1656e+000 49618 85204,85282,85256
 6.0000e-001 85409 -8.3163e+001  3.8762e+000 -8.2923e+000 49618 85282,85334,85308
 6.0000e-001 85386 -1.2978e+002  5.7624e+000  6.3040e+000 49618 85204,85256,85230
 6.0000e-001 85550 -1.0853e+002 -4.8908e+000 -2.1329e+001 49618 85334,85282,85524
 6.0000e-001 85573 -1.5428e+002 -2.3505e+001 -1.8033e+001 49618 85334,85524,85360
 6.0000e-001 85622 -1.3015e+002 -1.7407e+001 -5.0565e-001 49618 85360,85524,85596
 6.0000e-001 85645 -1.4071e+002 -1.5412e+001 -2.9470e-001 49618 85360,85596,85178
 6.0000e-001 85795 -2.6496e+002 -7.9453e+001  1.7303e+001 49278 85694,85746,85720
 6.0000e-001 85772 -2.9960e+002 -8.5495e+001 -8.3193e-001 49278 85668,85746,85694
 6.0000e-001 86197 -1.4047e+002 -7.1454e+001 -5.6121e+001 48916 86001,86079,86027
 6.0000e-001 86174 -1.4546e+002 -4.2017e+001 -2.8609e+001 48916 85949,86079,86001
 6.0000e-001 86151 -2.0038e+002 -5.2927e+001 -1.1179e+001 48916 85949,86001,85975
 6.0000e-001 86128 -1.5981e+002 -3.4855e+001 -1.9802e+001 48916 86027,86079,86053
 6.0000e-001 86105 -3.4951e+002 -1.3370e+002 -5.4430e+001 48916 85923,86079,85949
 6.0000e-001 86477 -4.0693e+001 -4.4744e-001  1.4869e+001 48398 86327,86379,86353
 6.0000e-001 86454 -4.3293e+001 -3.7633e+001  1.8618e+001 48398 86500,86379,86327
 6.0000e-001 86431 -8.6732e+001 -4.1346e+001  1.9908e+001 48398 86301,86405,86379
 6.0000e-001 86526 -1.6342e+001 -2.5498e+001  2.2401e+001 48398 86301,86379,86500
 6.0000e-001 87032 -1.2915e+002 -4.0000e+001 -3.9925e+000 48008 87127,87055,86787
 6.0000e-001 87009 -1.3240e+002 -5.2338e+001  2.6361e+000 48008 87055,86735,86709
 6.0000e-001 86986 -1.2077e+002 -4.5663e+001 -5.4516e+000 48008 87127,86787,86761
 6.0000e-001 86963 -1.3137e+002 -4.6525e+001 -1.0193e+000 48008 86787,86865,86839
 6.0000e-001 86940 -1.8105e+002 -4.8015e+001 -2.4403e+000 48008 86709,86891,86865
 6.0000e-001 86917 -1.1891e+002 -7.7088e+000  2.4910e+001 48008 86787,86839,86813
 6.0000e-001 87081 -1.3205e+002 -4.2561e+001 -1.8290e+000 48008 86865,86787,87055
 6.0000e-001 87104 -1.2499e+002 -3.8919e+001 -4.9665e-001 48008 86865,87055,86709
 6.0000e-001 87153 -1.1714e+002 -4.2028e+001 -3.3680e+000 48008 86735,87055,87127
 6.0000e-001 87176 -9.3888e+001 -3.4328e+001 -1.0567e+001 48008 86735,87127,86761
 6.0000e-001 87456 -8.2938e+001 -3.8949e+001 -5.0296e+000 47604 87306,87358,87332
 6.0000e-001 87433 -1.0087e+002 -5.4712e+001  4.2908e+000 47604 87306,87384,87358
 6.0000e-001 87410 -8.6490e+001 -4.9038e+001 -6.2797e+000 47604 87280,87384,87306
 6.0000e-001 87785 -7.5693e+001 -3.7670e+001 -1.4007e+000 47264 87638,87690,87664
 6.0000e-001 87762 -6.7980e+001 -8.6039e+000 -7.9449e+000 47264 87612,87690,87638
 6.0000e-001 87739 -8.6871e+001 -3.1025e+001 -1.9739e+001 47264 87560,87690,87612
 6.0000e-001 87716 -7.5022e+001 -9.9273e+000 -2.4553e+001 47264 87560,87612,87586
 6.0000e-001 87935 -1.6363e+002  2.6048e+001 -1.5980e+000 46952 87808,87860,87834
 6.0000e-001 87912 -1.6988e+002 -1.0632e+000 -8.7787e+000 46952 87808,87886,87860
 6.0000e-001 88281 -1.4822e+002 -4.9665e+001 -1.3344e+000 46526 88304,88114,88036
 6.0000e-001 88258 -1.3800e+002 -4.2383e+001  1.8550e+000 46526 88304,88036,87984
 6.0000e-001 88235 -1.3582e+002 -3.8128e+001 -1.9961e+001 46526 88036,88114,88062
 6.0000e-001 88212 -1.3470e+002 -2.5280e+001  2.0574e+001 46526 87958,88140,87984
 6.0000e-001 88189 -1.1987e+002 -6.1436e-002  2.0131e+000 46526 87984,88036,88010
 6.0000e-001 88166 -1.7244e+002 -6.1999e+001 -3.0256e+001 46526 88062,88114,88088
 6.0000e-001 88330 -1.5803e+002 -4.0744e+001 -1.7015e+000 46526 88140,88114,88304
 6.0000e-001 88353 -1.5104e+002 -3.5793e+001  5.7810e-001 46526 88140,88304,87984
 6.0000e-001 88701 -6.9530e+001 -4.6513e+001 -1.0331e+001 45822 88724,88378,88534
 6.0000e-001 88678 -5.8021e+001 -3.0176e+001 -1.5688e+001 45822 88378,88560,88534
 6.0000e-001 88655 -8.0567e+001 -6.2357e+001  7.4072e+000 45822 88724,88534,88508
 6.0000e-001 88632 -8.0407e+001 -2.1969e+001 -5.4935e+000 45822 88404,88508,88456
 6.0000e-001 88609 -6.9297e+001  8.4205e+000  4.4749e-001 45822 88404,88456,88430
 6.0000e-001 88586 -1.1527e+002 -5.6674e+001  1.1209e+001 45822 88456,88508,88482
 6.0000e-001 88750 -7.8325e+001 -2.0244e+001 -2.0128e+001 45822 88404,88378,88724
 6.0000e-001 88773 -8.6108e+001 -3.6823e+001 -3.9333e+000 45822 88404,88724,88508
 6.0000e-001 89106 -9.2498e+001 -1.4012e+001 -3.1084e+001 45418 88881,88985,88907
 6.0000e-001 89083 -6.1490e+001 -4.5487e+001 -2.9088e+001 45418 88881,89011,88985
 6.0000e-001 89060 -3.4989e+001  3.3085e+001 -9.0480e+000 45418 88907,88985,88933
 6.0000e-001 89037 -4.9169e+001  9.8046e+000 -1.5242e+001 45418 88933,88985,88959
 6.0000e-001 89435 -1.5221e+002 -7.2409e+001  7.5891e-001 44914 89210,89288,89236
 6.0000e-001 89412 -1.2535e+002 -5.1576e+001 -1.8987e+001 44914 89210,89314,89288
 6.0000e-001 89389 -1.4655e+002 -3.8636e+001 -2.6361e+001 44914 89210,89340,89314
 6.0000e-001 89366 -1.5871e+002 -7.4942e+001  7.2881e-001 44914 89236,89288,89262
 6.0000e-001 89634 -7.5017e+001 -3.3331e+001 -1.6990e+000 44538 89510,89562,89536
 6.0000e-001 89611 -9.0395e+001 -4.3076e+001 -1.6428e+001 44538 89458,89562,89510
 6.0000e-001 89588 -9.5154e+001 -6.6569e+001 -1.3735e+001 44538 89458,89510,89484
 6.0000e-001 90044 -1.5760e+002 -5.7912e+001  1.3484e+001 44134 89819,89923,89845
 6.0000e-001 90021 -1.3278e+002  1.5131e+001  8.3445e+000 44134 89819,89949,89923
 6.0000e-001 89998 -1.1758e+002 -5.3383e+001 -6.9230e+000 44134 89845,89923,89897
 6.0000e-001 89975 -8.2256e+001 -2.7398e+000  1.7098e+001 44134 89845,89897,89871
 6.0000e-001 90520 -1.3482e+002 -2.9095e+001  2.9302e+000 43457 90543,90252,90226
 6.0000e-001 90497 -1.0444e+002 -2.3590e+001  2.9298e+000 43457 90543,90226,90330
 6.0000e-001 90474 -1.1573e+002 -1.3189e+001 -4.7645e+000 43457 90200,90330,90226
 6.0000e-001 90451 -1.4411e+002 -3.4137e+001 -1.9388e+001 43457 90200,90356,90330
 6.0000e-001 90428 -1.2462e+002  5.5412e+001  4.3094e+001 43457 90252,90304,90278
 6.0000e-001 90405 -3.5000e+001 -3.2509e-001  2.3678e+001 43457 90174,90356,90200
 6.0000e-001 90382 -1.3338e+002 -1.0040e+002 -1.6582e+001 43457 90148,90356,90174
 6.0000e-001 90569 -1.6252e+002 -1.8641e+001  2.9666e+001 43457 90304,90252,90543
 6.0000e-001 90592 -1.1329e+002 -4.0251e+000  3.5476e+001 43457 90304,90543,90330
 6.0000e-001 91098 -7.1417e+001 -2.0580e+001  5.1424e+000 42789 90801,90905,90853
 6.0000e-001 91075 -7.6271e+001 -3.1147e+001  7.2607e+000 42789 90775,90905,90801
 6.0000e-001 91052 -7.5328e+001 -9.6389e+000 -5.7730e+000 42789 90775,90931,90905
 6.0000e-001 91029 -3.5830e+001  5.4322e+001  1.5235e+001 42789 90801,90853,90827
 6.0000e-001 91006 -7.5890e+001 -2.6523e+001  2.4071e+001 42789 90853,90905,90879
 6.0000e-001 90983 -1.1368e+002 -1.2840e+001  1.0223e+001 42789 90775,90957,90931
 6.0000e-001 91427 -1.3630e+002  3.1619e+001 -3.0688e+001 42227 91228,91280,91254
 6.0000e-001 91404 -1.4244e+002 -4.1203e+001  1.3426e+000 42227 91228,91306,91280
 6.0000e-001 91381 -1.3571e+002 -3.3387e+001  2.0655e+001 42227 91202,91306,91228
 6.0000e-001 91358 -1.2177e+002 -4.4698e+001  5.6537e+000 42227 91202,91332,91306
 6.0000e-001 91675 -7.1884e+001 -2.3098e+001 -6.2314e+000 41773 91698,91476,91450
 6.0000e-001 91652 -7.5142e+001 -4.0255e+001  5.9999e+000 41773 91698,91450,91554
 6.0000e-001 91629 -7.0891e+001 -4.9483e+001  6.3307e+000 41773 91450,91580,91554
 6.0000e-001 91606 -7.6518e+001  8.8809e+000  4.4348e+001 41773 91502,91554,91528
 6.0000e-001 91724 -7.8570e+001 -3.1089e+001  6.0726e+000 41773 91502,91476,91698
 6.0000e-001 91747 -8.4526e+001 -4.9882e+001  1.8728e+001 41773 91502,91698,91554
 6.0000e-001 92127 -1.8549e+000  1.5422e+001 -2.6902e+001 41255 92150,91905,91879
 6.0000e-001 92104 -7.9944e+001  1.0187e+001  7.1782e+000 41255 92150,91879,91957
 6.0000e-001 92081 -7.9129e+001 -2.5294e+000  1.5920e+001 41255 91853,91957,91879
 6.0000e-001 92058 -8.2560e+001 -7.9468e+000  9.2507e+000 41255 91853,91983,91957
 6.0000e-001 92035 -2.4581e+001 -1.7705e+000  1.5171e+000 41255 91853,92009,91983
 6.0000e-001 92176 -7.0031e+001  3.2851e+001  5.0435e+000 41255 91931,91905,92150
 6.0000e-001 92199 -1.8793e+002 -1.9700e+001  5.2489e+001 41255 91931,92150,91957
 6.0000e-001 92518 -1.5478e+002 -2.4624e+000 -8.5556e+000 41007 92244,92374,92270
 6.0000e-001 92495 -1.7820e+002  9.7078e+000 -1.5410e+001 41007 92244,92400,92374
 6.0000e-001 92472 -1.2214e+002  1.2672e+001 -2.8100e+000 41007 92270,92374,92348
 6.0000e-001 92449 -1.8290e+002  3.3011e+000  1.8592e+001 41007 92296,92348,92322
 6.0000e-001 92426 -1.6602e+002 -3.5685e+000  1.2711e+001 41007 92270,92348,92296
 6.0000e-001 92668 -5.3072e+001 -1.4126e+001 -2.2399e+001 40717 92823,92691,92567
 6.0000e-001 92645 -5.0727e+001  2.4085e+000 -1.9576e+001 40717 92895,92823,92567
 6.0000e-001 92717 -4.6267e+001 -7.8995e+000  1.0284e+001 40717 92593,92567,92691
 6.0000e-001 92849 -2.1271e+001 -6.7884e+000 -3.4395e+001 40717 92619,92691,92823
 6.0000e-001 92872 -6.4725e+001 -3.9517e+000 -1.3296e+001 40717 92619,92823,92541
 6.0000e-001 92921 -9.7192e+001 -3.8678e+001  8.3227e+000 40717 92541,92823,92895
 6.0000e-001 93634 -1.5561e+002 -4.4075e+001 -3.0601e+001 40206 93366,93444,93418
 6.0000e-001 93611 -1.1585e+002 -2.1796e+001 -6.3838e+000 40206 93288,93444,93366
 6.0000e-001 93588 -1.0718e+002 -3.4623e+001 -1.2287e+001 40206 93288,93366,93314
 6.0000e-001 93565 -2.2995e+002 -7.1552e+001 -1.4715e+001 40206 93262,93444,93288
 6.0000e-001 93542 -1.7531e+002 -2.3770e+001 -1.6939e+001 40206 93366,93418,93392
 6.0000e-001 93519 -2.3681e+002  3.5562e+001 -2.9722e+001 40206 93262,93470,93444
 6.0000e-001 93496 -6.3015e+001 -1.6134e+001 -1.6451e+000 40206 93314,93366,93340
 6.0000e-001 94189 -1.2254e+002 -6.2639e+001 -1.0268e+001 39802 93843,93999,93973
 6.0000e-001 94166 -1.5681e+002 -8.1273e+001 -2.5656e-001 39802 93817,93999,93843
 6.0000e-001 94143 -1.8357e+002 -6.8621e+001  2.0149e+000 39802 93869,93973,93947
 6.0000e-001 94120 -1.2512e+002 -3.7516e+001 -1.1536e+001 39802 93843,93973,93869
 6.0000e-001 94097 -1.0303e+002  5.8663e+001  3.8491e+000 39802 93869,93921,93895
 6.0000e-001 94074 -1.1830e+002  2.0825e+001 -2.7181e+001 39802 93869,93947,93921
 6.0000e-001 94051 -1.0031e+002 -4.8775e+001 -2.2558e+001 39802 93817,94025,93999
 6.0000e-001 94290 -1.7952e+002 -7.0529e+001  5.1830e+000 39398 94212,94264,94238
 6.0000e-001 94798 -8.3561e+001 -2.5691e+001 -6.1368e-002 38701 94501,94657,94631
 6.0000e-001 94775 -6.6940e+001 -8.0060e+000  8.9325e+000 38701 94475,94657,94501
 6.0000e-001 94752 -1.0889e+002 -1.1938e+001 -5.3531e+000 38701 94579,94631,94605
 6.0000e-001 94729 -1.1787e+002 -2.6990e+001 -9.5109e+000 38701 94553,94631,94579
 6.0000e-001 94706 -5.0782e+001  2.7147e-001 -1.2422e+001 38701 94501,94631,94553
 6.0000e-001 94683 -4.7876e+001 -1.3136e+001 -1.2979e+001 38701 94501,94553,94527
 6.0000e-001 95255 -7.4618e+001 -1.5808e+001  8.0423e+000 38247 95278,95085,95007
 6.0000e-001 95232 -8.0423e+001 -7.5293e+000  2.3104e+001 38247 95278,95007,95137
 6.0000e-001 95209 -9.7864e+001 -4.7058e+000  1.0354e+001 38247 94981,95137,95007
 6.0000e-001 95186 -7.0338e+001 -6.2578e+000 -8.5125e+000 38247 95007,95059,95033
 6.0000e-001 95163 -9.4649e+001 -4.8942e+001  2.2111e+001 38247 95007,95085,95059
 6.0000e-001 95304 -6.1772e+001  8.8340e+000  1.0480e+000 38247 95111,95085,95278
 6.0000e-001 95327 -7.4128e+001 -9.0079e-002  1.7635e+001 38247 95111,95278,95137
 6.0000e-001 95575 -1.9804e+002 -1.7339e+001 -1.1163e+001 37564 95376,95428,95402
 6.0000e-001 95552 -1.9747e+002 -1.0067e+002 -7.3731e+000 37564 95376,95454,95428
 6.0000e-001 95529 -1.8642e+002 -9.9053e+001 -1.1539e+001 37564 95376,95480,95454
 6.0000e-001 95506 -1.8527e+002 -5.1649e+001  1.3833e+000 37564 95350,95480,95376
 6.0000e-001 96034 -2.1113e+001 -4.0562e-001  4.6639e+000 37224 95786,95838,95812
 6.0000e-001 96011 -1.8083e+001  1.4316e+001 -6.4675e-001 37224 95786,95890,95838
 6.0000e-001 95988  1.8001e+001  2.5995e+001 -1.2867e+001 37224 95786,95916,95890
 6.0000e-001 95965 -2.5976e+001 -9.7743e+000  1.6570e+001 37224 95760,95916,95786
 6.0000e-001 95942 -1.0234e+000 -3.7433e+000 -2.7466e+001 37224 95838,95890,95864
 6.0000e-001 96363 -9.9481e+001 -3.2754e+001  2.8869e+000 36884 96216,96268,96242
 6.0000e-001 96340 -1.2049e+002 -3.3313e+001  2.2479e+000 36884 96164,96268,96216
 6.0000e-001 96317 -1.3735e+002 -5.6351e+001  1.9513e+001 36884 96138,96268,96164
 6.0000e-001 96294 -1.0221e+002  6.7625e+000 -2.7481e+000 36884 96164,96216,96190
 6.0000e-001 96839 -1.0914e+002 -1.3905e+001 -1.1881e+001 36572 96862,96649,96597
 6.0000e-001 96816 -1.1990e+002 -2.7245e+001 -7.2094e+000 36572 97006,96862,96597
 6.0000e-001 96793 -1.0428e+002 -2.5810e+001 -4.5123e-001 36572 96934,96467,96675
 6.0000e-001 96770 -1.0647e+002 -3.7693e+001  7.8180e+000 36572 97006,96597,96571
 6.0000e-001 96747 -1.1207e+002 -6.2571e+001 -3.9973e+001 36572 96467,96519,96493
 6.0000e-001 96724 -2.3413e+002 -2.8587e+001  8.3047e+001 36572 96519,96571,96545
 6.0000e-001 96701 -7.7711e+001 -4.3678e+000  2.1834e+001 36572 96597,96649,96623
 6.0000e-001 96888 -1.3017e+002 -2.3699e+001 -1.4787e+001 36572 96675,96649,96862
 6.0000e-001 96911 -1.2516e+002 -1.7291e+001 -4.4299e+000 36572 96934,96675,96862
 6.0000e-001 96960 -8.4775e+001 -2.0196e+001 -6.9653e+000 36572 96519,96467,96934
 6.0000e-001 96983 -1.0431e+002 -1.2988e+001 -5.3575e+000 36572 97078,96934,96862
 6.0000e-001 97032 -1.0742e+002 -1.1805e+001 -1.8222e+000 36572 97078,96862,97006
 6.0000e-001 97055 -9.3342e+001 -1.3227e+001  1.2770e+001 36572 96519,97006,96571
 6.0000e-001 97104 -1.0196e+002 -7.8998e+000 -6.6499e+000 36572 96519,96934,97078
 6.0000e-001 97127 -1.0357e+002 -6.1237e+000 -3.5817e+000 36572 96519,97078,97006
 6.0000e-001 97761 -7.0994e+001 -7.7574e-001  1.5997e+001 36118 97784,97493,97415
 6.0000e-001 97738 -8.9968e+001 -1.6426e+001  2.4263e+001 36118 97784,97415,97597
 6.0000e-001 97715 -1.6710e+002 -3.3055e+001  4.3319e+001 36118 97389,97597,97415
 6.0000e-001 97692 -1.5877e+002 -5.6037e+001  4.4947e+001 36118 97415,97467,97441
 6.0000e-001 97669 -1.3864e+002 -3.7234e+001  5.8396e+001 36118 97415,97493,97467
 6.0000e-001 97646 -9.6433e+001 -2.7225e+001 -3.4946e+001 36118 97493,97571,97519
 6.0000e-001 97623 -5.6037e+001 -1.0033e+001  9.9477e+000 36118 97519,97571,97545
 6.0000e-001 97810 -8.8139e+001  3.4677e+001 -5.0143e+000 36118 97571,97493,97784
 6.0000e-001 97833 -1.3677e+002  5.0071e+000  9.7780e+000 36118 97571,97784,97597
 6.0000e-001 98081 -4.7659e+001 -4.3867e+001  4.4726e+000 35564 98104,97908,97856
 6.0000e-001 98058 -7.3429e+001 -6.2325e+001  1.9168e+001 35564 98104,97856,97986
 6.0000e-001 98035 -1.4823e+002 -6.1045e+001  1.4794e+001 35564 97934,97986,97960
 6.0000e-001 98012 -3.2912e+001 -4.8656e+000 -4.0576e+000 35564 97856,97908,97882
 6.0000e-001 98130 -8.3321e+001  2.9818e+001 -3.5206e-001 35564 97934,97908,98104
 6.0000e-001 98153 -1.1381e+002 -3.1674e+001  3.0815e+001 35564 97934,98104,97986
 6.0000e-001 98374 -2.0263e+002 -1.7329e+001 -3.1791e+000 35152 98224,98302,98276
 6.0000e-001 98351 -1.9875e+002 -8.5310e+000 -2.2910e+000 35152 98198,98302,98224
 6.0000e-001 98328 -1.8615e+002 -1.0846e+001 -6.7242e+000 35152 98224,98276,98250
 6.0000e-001 98884 -6.1507e+001  6.7044e+001  1.7499e+001 34698 98691,98743,98717
 6.0000e-001 98861 -8.4738e+001  3.9681e+001 -1.7933e+001 34698 98561,98743,98691
 6.0000e-001 98838 -8.5935e+001 -1.3622e+001 -6.0679e-001 34698 98907,98587,98561
 6.0000e-001 98815 -8.2411e+001 -1.4559e+001 -1.1149e+001 34698 98907,98561,98691
 6.0000e-001 98792 -3.6278e+001  4.3615e+001 -1.2665e+001 34698 98587,98639,98613
 6.0000e-001 98769 -7.3387e+001 -2.5329e+001  3.5082e+000 34698 98587,98665,98639
 6.0000e-001 98933 -7.6679e+001 -9.9761e+000 -3.4748e-001 34698 98665,98587,98907
 6.0000e-001 98956 -7.0986e+001 -1.0318e+001 -1.1391e+001 34698 98665,98907,98691
 6.0000e-001 99204 -1.4414e+002  3.1379e-001 -1.8600e+001 34144 99227,99031,99005
 6.0000e-001 99181 -1.5391e+002 -3.3581e+001  1.1956e+001 34144 99299,99227,99005
 6.0000e-001 99158 -1.6549e+002 -1.9894e+001  3.9898e+001 34144 99299,99005,99109
 6.0000e-001 99135 -1.0187e+002  1.4495e+001  5.6748e+001 34144 98979,99109,99005
 6.0000e-001 99253 -1.3746e+002  3.7478e+001 -2.1908e+001 34144 99057,99031,99227
 6.0000e-001 99276 -1.1190e+002  1.2714e+001 -9.0584e+000 34144 99057,99227,99083
 6.0000e-001 99325 -1.2367e+002  1.8404e+001 -1.0020e+001 34144 99083,99227,99299
 6.0000e-001 99348 -1.5410e+002  2.3644e+001  2.0502e+001 34144 99083,99299,99109
 6.0000e-001 99498 -3.0507e+002 -6.1158e+001  1.5055e+001 33433 99397,99449,99423
 6.0000e-001 99475 -3.3497e+002 -8.5814e+001 -1.2459e+000 33433 99371,99449,99397
 6.0000e-001 100008 -9.9132e+001 -5.6054e+000 -2.5049e+000 32979 100103,100031,99815
 6.0000e-001 99985 -9.4259e+001 -6.3355e+000 -8.8130e+000 32979 100175,100031,99763
 6.0000e-001 99962 -9.7005e+001 -1.1957e+001 -7.7588e+000 32979 100103,99815,99789
 6.0000e-001 99939 -1.0361e+002 -1.2081e+001 -2.5938e+000 32979 100175,99763,99737
 6.0000e-001 99916 -9.9465e+001  2.6795e+001 -7.2610e-001 32979 99685,99867,99737
 6.0000e-001 99893 -5.2676e+001  9.4315e+000 -5.4054e+001 32979 99685,99737,99711
 6.0000e-001 100057 -9.1349e+001 -3.4415e+000  3.9391e-001 32979 99841,99815,100031
 6.0000e-001 100080 -8.9316e+001  1.7335e+001 -1.5082e+001 32979 99841,100031,99867
 6.0000e-001 100129 -9.2676e+001 -1.9610e+001 -4.1765e+000 32979 99763,100031,100103
 6.0000e-001 100152 -9.6188e+001 -3.1088e+001 -1.0861e+001 32979 99763,100103,99789
 6.0000e-001 100201 -1.0825e+002 -8.0675e+000 -6.0709e+000 32979 99867,100031,100175
 6.0000e-001 100224 -1.1043e+002 -6.7552e+000 -9.6626e-001 32979 99867,100175,99737
 6.0000e-001 100553 -6.4982e+001  1.6108e+000  2.4859e+001 32503 100354,100406,100380
 6.0000e-001 100530 -3.8692e+001  5.4881e+001 -1.3257e+001 32503 100328,100406,100354
 6.0000e-001 100507 -6.0832e+001 -2.4381e+001 -2.9906e+001 32503 100328,100458,100406
 6.0000e-001 100484 -2.3295e+001 -2.2873e+001 -1.2335e+001 32503 100406,100458,100432
 6.0000e-001 100850 -9.5175e+001 -2.4643e+000  1.4860e+001 31899 100873,100654,100628
 6.0000e-001 100827 -9.4433e+001 -2.0120e+001  2.3700e-001 31899 100945,100873,100628
 6.0000e-001 100804 -9.6907e+001 -3.0014e+000 -4.5455e-001 31899 100945,100628,100602
 6.0000e-001 100781 -5.1637e+001  2.0458e+001 -2.5600e+001 31899 100576,100732,100602
 6.0000e-001 100758 -7.4503e+001 -6.0439e+000  2.2504e+001 31899 100654,100706,100680
 6.0000e-001 100899 -9.2708e+001 -5.2616e+001  2.0413e+001 31899 100706,100654,100873
 6.0000e-001 100922 -1.1121e+002 -2.6896e+001 -2.0239e+001 31899 100706,100873,100732
 6.0000e-001 100971 -9.7902e+001  2.3815e+000 -8.6558e+000 31899 100732,100873,100945
 6.0000e-001 100994 -1.0006e+002  2.0450e+001 -8.5473e+000 31899 100732,100945,100602
 6.0000e-001 101551 -8.4929e+001 -1.0312e+001 -1.4595e+001 31338 101205,101387,101231
 6.0000e-001 101528 -1.4209e+002 -3.8269e+001 -4.9948e+001 31338 101179,101387,101205
 6.0000e-001 101505 -8.9498e+001 -3.3169e+001 -1.2335e+001 31338 101574,101309,101257
 6.0000e-001 101482 -7.5354e+001 -2.8973e+001 -9.7616e+000 31338 101646,101574,101257
 6.0000e-001 101459 -6.3030e+001 -1.3038e+001 -2.4085e+000 31338 101646,101257,101231
 6.0000e-001 101436 -9.1352e+001 -8.6152e+000 -1.7322e+001 31338 101309,101361,101335
 6.0000e-001 101413 -8.2572e+001 -2.4181e+001 -2.2032e+001 31338 101257,101309,101283
 6.0000e-001 101600 -9.1090e+001 -3.0993e+001 -1.1289e+001 31338 101361,101309,101574
 6.0000e-001 101623 -9.3866e+001 -4.5392e+001 -2.3621e+001 31338 101361,101574,101387
 6.0000e-001 101672 -8.5920e+001 -2.4523e+001 -2.2111e+001 31338 101387,101574,101646
 6.0000e-001 101695 -7.8247e+001 -2.1325e+001 -1.7125e+001 31338 101387,101646,101231
 6.0000e-001 101943 -1.4088e+002 -5.5822e+000  4.5037e+000 30748 101966,101796,101744
 6.0000e-001 101920 -1.3300e+002  2.7698e+001  1.4216e+001 30748 101966,101744,101718
 6.0000e-001 101897 -1.2939e+002  6.3131e+001  1.7731e+001 30748 101718,101848,101822
 6.0000e-001 101874 -1.1818e+002  4.4642e+000  2.1205e+000 30748 101744,101796,101770
 6.0000e-001 101992 -1.4958e+002  2.5608e+001  7.1725e+000 30748 101822,101796,101966
 6.0000e-001 102015 -1.4612e+002  5.5983e+001  1.2344e+001 30748 101822,101966,101718
 6.0000e-001 102493 -1.6852e+002 -1.9321e+001  2.5470e+001 30344 102516,102173,102147
 6.0000e-001 102470 -1.3799e+002 -1.4585e+001 -1.4207e+001 30344 102660,102516,102147
 6.0000e-001 102447 -5.4245e+001  1.7116e+001  1.2050e+001 30344 102588,102199,102173
 6.0000e-001 102424 -1.1443e+002 -3.2071e+001 -1.3947e+001 30344 102660,102147,102329
 6.0000e-001 102401 -2.2405e+002 -2.4244e+001  2.1579e+001 30344 102199,102277,102251
 6.0000e-001 102378 -7.1720e+001 -6.6593e+001  6.9610e+001 30344 102199,102251,102225
 6.0000e-001 102355 -2.6509e+002 -8.8249e+001  7.8909e+001 30344 102121,102329,102147
 6.0000e-001 102542 -8.9313e+001  1.5982e+001  1.6553e+001 30344 102588,102173,102516
 6.0000e-001 102565 -1.2980e+002 -4.8321e+000  4.4224e-001 30344 102277,102516,102303
 6.0000e-001 102614 -9.7792e+001  2.5794e+001  1.0384e+001 30344 102277,102199,102588
 6.0000e-001 102637 -1.3532e+002  2.1915e+001  7.5078e+000 30344 102277,102588,102516
 6.0000e-001 102686 -1.1238e+002  4.6929e+000 -3.8670e+000 30344 102303,102516,102660
 6.0000e-001 102709 -9.5356e+001 -1.7171e+001 -4.3835e+000 30344 102303,102660,102329
 6.0000e-001 103294 -5.8230e+001 -8.8789e+000  1.3792e+001 29726 103317,103101,103075
 6.0000e-001 103271 -6.6283e+001 -6.4269e+000  1.0094e+001 29726 103317,103075,102997
 6.0000e-001 103248 -1.3310e+002 -2.8154e+001  2.2234e+001 29726 102971,103153,102997
 6.0000e-001 103225 -4.5519e+001  9.9144e-002 -2.9690e+000 29726 103101,103153,103127
 6.0000e-001 103202 -7.5877e+001 -3.5143e+001  1.1532e+001 29726 102997,103075,103023
 6.0000e-001 103179 -8.8655e+001 -1.5826e+001 -8.3920e+000 29726 103023,103075,103049
 6.0000e-001 103343 -5.1789e+001 -9.0091e+000  1.2453e+001 29726 103153,103101,103317
 6.0000e-001 103366 -5.9049e+001 -5.6151e+000  1.0069e+001 29726 103153,103317,102997
 6.0000e-001 103614 -5.6286e+001 -4.6169e+000  3.4198e+000 29200 103781,103637,103467
 6.0000e-001 103591 -4.5939e+001 -1.9150e+001 -7.7674e+000 29200 103709,103637,103415
 6.0000e-001 103568 -3.9443e+001 -4.5686e+000 -5.7215e+000 29200 103709,103415,103389
 6.0000e-001 103545 -6.0705e+001  1.3214e+000 -2.0281e+000 29200 103781,103467,103441
 6.0000e-001 103663 -4.4515e+001 -7.0833e+000 -1.0831e+001 29200 103853,103637,103493
 6.0000e-001 103686 -8.0061e+001 -7.1105e+001 -2.8039e+001 29200 103493,103637,103519
 6.0000e-001 103735 -5.4696e+001 -2.5117e+000 -1.6255e+001 29200 103519,103637,103709
 6.0000e-001 103758 -5.0872e+001  7.4901e+000 -1.4838e+001 29200 103519,103709,103389
 6.0000e-001 103807 -6.2280e+001 -1.2168e+001 -6.2376e-001 29200 103415,103637,103781
 6.0000e-001 103830 -7.2313e+001 -1.1803e+001 -7.4219e+000 29200 103415,103781,103441
 6.0000e-001 103879 -4.5772e+001 -1.5168e+001 -3.7589e-001 29200 103467,103637,103853
 6.0000e-001 104545 -1.6832e+002 -1.0539e+001  1.1676e+001 28860 104274,104352,104326
 6.0000e-001 104522 -1.3976e+002 -3.9624e+001 -1.0627e+001 28860 104248,104352,104274
 6.0000e-001 104499 -1.0409e+002 -2.2497e+001 -1.5743e+001 28860 104248,104404,104352
 6.0000e-001 104476 -1.6099e+002 -6.3881e+001 -3.4263e+001 28860 104222,104404,104248
 6.0000e-001 104453 -9.2773e+001 -2.5088e+001 -2.4985e+001 28860 104352,104404,104378
 6.0000e-001 104430 -2.8362e+002 -4.6477e+001  1.1532e+001 28860 104274,104326,104300
 6.0000e-001 104744 -8.4072e+001 -1.2686e+001  3.4447e+000 28456 104839,104767,104646
 6.0000e-001 104721 -5.6837e+001 -7.0592e+000  1.0376e+001 28456 104767,104594,104568
 6.0000e-001 104698 -7.6929e+001 -3.0104e+001 -9.5827e+000 28456 104839,104646,104620
 6.0000e-001 104793 -9.1765e+001 -1.7183e+001  5.3748e+000 28456 104672,104646,104767
 6.0000e-001 104816 -6.9009e+001 -8.7551e+000  1.3318e+000 28456 104911,104767,104568
 6.0000e-001 104865 -8.5947e+001 -2.3071e+001  1.2778e+000 28456 104594,104767,104839
 6.0000e-001 104888 -8.9560e+001 -6.8047e+001 -6.4888e+000 28456 105041,104839,104620
 6.0000e-001 104937 -9.1047e+001 -4.6981e+001  1.0434e+001 28456 104672,104767,104911
 6.0000e-001 105067 -7.2843e+001 -1.6664e+001 -1.4404e+000 28456 104594,104839,105041
 6.0000e-001 105573 -1.5577e+002 -4.4462e+001  1.0490e+001 28094 105812,105596,105328
 6.0000e-001 105550 -1.5229e+002 -5.6082e+001  2.8686e+000 28094 105596,105276,105250
 6.0000e-001 105527 -1.5004e+002 -5.4339e+001  1.4526e+001 28094 105740,105668,105432
 6.0000e-001 105504 -1.3984e+002 -5.1144e+001  4.6785e+000 28094 105740,105432,105380
 6.0000e-001 105481 -1.5680e+002 -4.3799e+001  9.9548e+000 28094 105812,105328,105302
 6.0000e-001 105458 -8.8659e+001 -6.1375e+001 -6.1747e-002 28094 105380,105432,105406
 6.0000e-001 105622 -1.8471e+002 -7.0095e+001  2.3634e+001 28094 105354,105328,105596
 6.0000e-001 105645 -1.4781e+002 -5.2474e+001  9.8654e+000 28094 105668,105354,105596
 6.0000e-001 105694 -1.5320e+002 -6.5958e+001  1.6057e+001 28094 105250,105432,105668
 6.0000e-001 105717 -1.5721e+002 -5.5879e+001  5.3399e+000 28094 105250,105668,105596
 6.0000e-001 105766 -1.2922e+002 -5.0920e+001  4.9660e+000 28094 105354,105668,105740
 6.0000e-001 105789 -1.2165e+002 -4.5666e+001 -5.9277e+000 28094 105354,105740,105380
 6.0000e-001 105838 -1.5440e+002 -5.0831e+001  1.0367e+001 28094 105276,105596,105812
 6.0000e-001 105861 -1.4500e+002 -4.3292e+001  4.8284e+000 28094 105276,105812,105302
 6.0000e-001 106367 -5.5271e+001 -8.9197e+000 -3.6668e+000 27390 106070,106122,106096
 6.0000e-001 106344 -6.5731e+001 -7.9342e-001 -7.5121e-001 27390 106070,106226,106122
 6.0000e-001 106321 -8.1784e+001  4.7732e+000 -2.8356e+000 27390 106174,106226,106200
 6.0000e-001 106298 -7.2530e+001 -1.3636e+001 -3.3704e+000 27390 106122,106226,106174
 6.0000e-001 106275 -8.5084e+001 -2.1821e+001 -2.9260e+001 27390 106122,106174,106148
 6.0000e-001 106252 -7.1130e+001 -4.0514e+000 -3.8944e+000 27390 106044,106226,106070
 6.0000e-001 106615 -1.0627e+002 -1.1509e+001  3.7806e+000 26978 106638,106494,106416
 6.0000e-001 106592 -1.0328e+002 -1.9406e+001  2.3641e+000 26978 106638,106416,106390
 6.0000e-001 106569 -1.0829e+002 -1.7503e+001 -9.4779e+000 26978 106416,106494,106442
 6.0000e-001 106546 -1.3283e+002 -2.2159e+001 -8.4818e+000 26978 106442,106494,106468
 6.0000e-001 106664 -1.0798e+002 -1.9641e+001  7.1692e+000 26978 106520,106494,106638
 6.0000e-001 106687 -1.0302e+002 -2.5580e+001  3.4807e+000 26978 106520,106638,106390
 6.0000e-001 106837 -2.1260e+002 -1.0066e+002 -2.2846e+000 26524 106710,106762,106736
 6.0000e-001 106814 -2.1038e+002 -1.0748e+002 -3.3088e+000 26524 106710,106788,106762
 6.0000e-001 107426 -5.7390e+001  1.4579e-001 -2.9424e+001 26120 107129,107207,107155
 6.0000e-001 107403 -8.6586e+001 -2.9130e+001 -1.6728e+001 26120 107129,107285,107207
 6.0000e-001 107380 -8.0749e+001 -8.7228e+000 -1.9998e+001 26120 107207,107285,107259
 6.0000e-001 107357 -5.3376e+001 -9.2104e+000 -9.4516e+000 26120 107155,107207,107181
 6.0000e-001 107334 -1.1546e+002 -3.9550e+001 -1.4562e+001 26120 107103,107285,107129
 6.0000e-001 107311 -7.0874e+001  3.0813e+000 -1.5367e+001 26120 107207,107259,107233
 6.0000e-001 107755 -8.9397e+001 -3.4675e+001 -1.0037e+001 25758 107556,107634,107608
 6.0000e-001 107732 -1.3181e+002 -6.5992e+001  4.5490e+000 25758 107556,107660,107634
 6.0000e-001 107709 -7.3759e+001 -4.4315e+001  5.9547e+000 25758 107556,107608,107582
 6.0000e-001 107686 -1.2162e+002 -2.6024e+001  1.7458e+001 25758 107530,107660,107556
 6.0000e-001 108438 -7.0311e+001 -3.1564e+001  3.3388e+000 25468 108121,108199,108173
 6.0000e-001 108415 -8.1417e+001 -6.3626e+001 -3.5503e+000 25468 108095,108199,108121
 6.0000e-001 108392 -8.6537e+001 -4.8564e+001 -4.8917e+000 25468 108095,108251,108199
 6.0000e-001 108369 -9.7903e+001 -5.7338e+001  2.1665e+000 25468 108069,108251,108095
 6.0000e-001 108346 -7.9004e+001 -4.7673e+001  6.8985e+000 25468 108199,108251,108225
 6.0000e-001 108323 -1.1245e+002 -3.5792e+001 -9.8563e+000 25468 108017,108251,108069
 6.0000e-001 108300 -6.9490e+001 -2.8406e+001  3.4432e+000 25468 108121,108173,108147
 6.0000e-001 108277 -1.1315e+002 -3.9569e+001 -1.0237e+001 25468 108017,108069,108043
 6.0000e-001 108588 -2.5871e+001 -1.0937e+001 -2.0973e+001 25064 108611,108513,108487
 6.0000e-001 108565  1.6921e+001  1.3293e+001 -1.1256e+001 25064 108683,108611,108487
 6.0000e-001 108637 -4.4808e+001  9.5314e+000 -6.3212e+000 25064 108539,108513,108611
 6.0000e-001 108660 -3.0539e+001  1.8401e+001 -2.4994e+000 25064 108539,108611,108461
 6.0000e-001 108709 -3.8482e+001  3.1107e+000 -7.4623e+000 25064 108461,108611,108683
 6.0000e-001 109345 -6.9552e+001  7.2408e-002 -1.2329e+000 24410 108999,109155,109103
 6.0000e-001 109322 -1.6834e+002 -3.1038e+001  1.2588e+001 24410 108973,109155,108999
 6.0000e-001 109299 -7.5827e+001 -3.0416e+001 -5.2808e+000 24410 109103,109155,109129
 6.0000e-001 109276 -8.4120e+001  2.2441e+001 -1.1112e+001 24410 108973,109181,109155
 6.0000e-001 109253 -1.3458e+002 -3.2825e+001  2.2447e+001 24410 109025,109103,109077
 6.0000e-001 109230 -1.1002e+002 -2.9706e+001  1.2104e+001 24410 108999,109103,109025
 6.0000e-001 109207 -1.5163e+002  1.0649e+001  1.0755e+001 24410 109025,109077,109051
 6.0000e-001 109723 -1.1074e+002  1.0471e+001 -1.2950e+000 23856 109475,109579,109553
 6.0000e-001 109700 -1.1789e+002 -2.3006e+001 -3.0999e-001 23856 109475,109605,109579
 6.0000e-001 109677 -1.2689e+002 -1.2067e+001 -3.6740e+001 23856 109475,109553,109527
 6.0000e-001 109654 -7.1162e+001 -3.0290e+000  1.0590e+001 23856 109449,109605,109475
 6.0000e-001 109631 -7.3326e+001  1.4880e+001 -2.5115e+001 23856 109475,109527,109501
 6.0000e-001 110101 -6.5555e+001 -1.9571e+001 -8.0079e+000 23566 109853,109931,109879
 6.0000e-001 110078 -7.1141e+001 -1.0821e+001  4.5395e+000 23566 109827,109931,109853
 6.0000e-001 110055 -4.6228e+001  1.6444e+001 -5.8681e+000 23566 109827,109983,109931
 6.0000e-001 110032 -8.0642e+001 -2.3879e+001 -7.8765e+000 23566 109879,109931,109905
 6.0000e-001 110009 -4.2192e+001  7.4499e+000  1.0640e+001 23566 109931,109983,109957
 6.0000e-001 110735 -5.8357e+001  1.0142e+000 -4.8294e+000 23162 110415,110571,110519
 6.0000e-001 110712 -4.4694e+001  1.0374e+000 -1.0409e-002 23162 110389,110571,110415
 6.0000e-001 110689 -9.8756e+001 -1.2641e+001  8.6817e+000 23162 110415,110519,110493
 6.0000e-001 110666 -3.8620e+001  6.0441e+000  4.2915e+000 23162 110363,110571,110389
 6.0000e-001 110643 -8.6789e+001 -9.9276e+000  1.8668e+001 23162 110441,110493,110467
 6.0000e-001 110620 -7.8090e+001 -1.3886e+001  8.2738e+000 23162 110415,110493,110441
 6.0000e-001 110597 -6.7189e+001  3.7486e+001  3.0118e+000 23162 110519,110571,110545
 6.0000e-001 111211 -1.2343e+002 -2.6397e+001 -1.2171e+001 22708 111378,111306,111021
 6.0000e-001 111188 -1.3763e+002 -2.8035e+001 -1.2810e+001 22708 111234,110969,110917
 6.0000e-001 111165 -1.1656e+002 -2.7050e+001 -8.9424e+000 22708 111450,111234,110917
 6.0000e-001 111142 -1.1533e+002 -1.3347e+001 -2.9558e+000 22708 111378,111021,110995
 6.0000e-001 111119 -1.1678e+002 -3.8282e+001  1.7955e+000 22708 111450,110917,110865
 6.0000e-001 111096 -2.2593e+002  1.4887e+000 -3.6882e+001 22708 110917,110969,110943
 6.0000e-001 111073 -1.1487e+002 -4.0423e+001 -6.6791e-001 22708 110865,110917,110891
 6.0000e-001 111260 -1.3706e+002 -1.4374e+001 -8.5541e+000 22708 111306,110969,111234
 6.0000e-001 111283 -1.3511e+002 -3.6574e+001  1.0332e+001 22708 111047,111234,110839
 6.0000e-001 111332 -1.9907e+002  3.3223e+001 -6.7734e+001 22708 111047,111021,111306
 6.0000e-001 111355 -1.5911e+002 -2.6652e+001  9.0594e+000 22708 111047,111306,111234
 6.0000e-001 111404 -1.3639e+002 -7.8378e+000 -1.2860e+001 22708 110969,111306,111378
 6.0000e-001 111427 -1.3391e+002 -1.2603e+001 -1.0284e+001 22708 110969,111378,110995
 6.0000e-001 111476 -1.2592e+002 -4.3264e+001  4.3465e+000 22708 110839,111234,111450
 6.0000e-001 111499 -1.3209e+002 -6.1045e+001  1.5966e+001 22708 110839,111450,110865
 6.0000e-001 111600 -1.0024e+002 -9.1507e+000  1.0008e+001 22460 111522,111574,111548
 6.0000e-001 112059 -7.0891e+001  8.2378e+000  7.5146e+000 22056 111811,111889,111863
 6.0000e-001 112036 -1.1116e+002 -1.6305e+001  1.8845e+001 22056 111811,111915,111889
 6.0000e-001 112013 -6.3534e+001 -2.0943e+001 -7.2740e+000 22056 111785,111915,111811
 6.0000e-001 111990 -4.4327e+001 -3.8589e+000 -1.7567e+001 22056 111785,111941,111915
 6.0000e-001 111967 -3.3768e+001  2.6057e+001 -1.3246e+001 22056 111811,111863,111837
 6.0000e-001 112486 -1.0572e+002  1.7403e+001  4.6908e+000 21594 112509,112267,112215
 6.0000e-001 112463 -9.5381e+001  2.4352e+001 -1.0658e+001 21594 112509,112215,112163
 6.0000e-001 112440 -9.6244e+001 -2.6206e+001  3.1484e+001 21594 112581,112293,112267
 6.0000e-001 112417 -5.9408e+001  6.3451e-001 -7.1593e+000 21594 112215,112267,112241
 6.0000e-001 112394 -1.2935e+002  1.1046e+001 -1.1923e+001 21594 112163,112345,112319
 6.0000e-001 112371 -8.9750e+001  2.8667e+001 -6.5142e+000 21594 112163,112215,112189
 6.0000e-001 112535 -1.1728e+002 -4.5386e+000  1.1923e+001 21594 112581,112267,112509
 6.0000e-001 112558 -1.0077e+002  1.0722e+001 -8.9732e+000 21594 112319,112509,112163
 6.0000e-001 112607 -6.4322e+001 -5.7445e+000  2.0034e+001 21594 112319,112293,112581
 6.0000e-001 112630 -8.1639e+001  2.6070e+001 -1.5864e+000 21594 112319,112581,112509
 6.0000e-001 112900 -1.3144e+002 -1.7142e+001 -2.7505e+000 20974 112675,112779,112701
 6.0000e-001 112877 -1.3042e+002  1.4942e+000 -1.2766e+001 20974 112675,112805,112779
 6.0000e-001 112854 -1.4604e+002 -5.4217e+001 -1.3686e+001 20974 112701,112779,112753
 6.0000e-001 112831 -1.6331e+002 -9.4254e+001  9.2865e+000 20974 112701,112753,112727
 6.0000e-001 113359 -6.8521e+001  2.5359e+001  3.8727e+001 20520 113454,113137,113111
 6.0000e-001 113336 -9.7228e+001 -3.1969e+000  2.4475e+001 20520 113454,113111,113085
 6.0000e-001 113313 -7.5485e+001 -2.3347e+001  2.7094e+001 20520 113382,113163,113137
 6.0000e-001 113290 -8.2670e+001 -2.3637e+001  2.7103e+001 20520 113526,113382,113137
 6.0000e-001 113267 -6.6126e+001 -1.9134e+000  7.9542e+000 20520 113189,113241,113215
 6.0000e-001 113408 -7.4141e+001 -1.7895e+001  2.1696e+001 20520 113189,113163,113382
 6.0000e-001 113431 -8.2634e+001 -2.4208e+001  1.6130e+001 20520 113189,113382,113241
 6.0000e-001 113480 -8.6832e+001 -1.1997e+001  2.4040e+001 20520 113526,113137,113454
 6.0000e-001 113503 -8.5047e+001 -6.1990e+000  1.3404e+001 20520 113241,113454,113085
 6.0000e-001 113552 -7.3966e+001 -6.0745e+000  2.0533e+001 20520 113241,113382,113526
 6.0000e-001 113575 -7.8985e+001  2.4080e+000  1.6801e+001 20520 113241,113526,113454
 6.0000e-001 113904 -2.1558e+001 -1.4564e+001 -2.4316e+001 19858 113705,113783,113757
 6.0000e-001 113881 -5.0439e+001 -2.0857e+001 -1.3589e+001 19858 113705,113809,113783
 6.0000e-001 113858 -4.4980e+001 -1.6681e+001 -2.0071e+001 19858 113679,113809,113705
 6.0000e-001 113835 -2.0552e+001  5.1193e+000  2.2181e+000 19858 113705,113757,113731
 6.0000e-001 114152 -9.7612e+001 -3.0195e+001 -1.7945e+001 19454 114175,114005,113979
 6.0000e-001 114129 -1.0230e+002 -2.8196e+001 -1.9466e+001 19454 114175,113979,114057
 6.0000e-001 114106 -9.0803e+001  2.2427e+001  1.9196e+001 19454 113927,114057,113979
 6.0000e-001 114083 -7.7450e+001 -7.1635e-001  5.7320e-001 19454 113927,113979,113953
 6.0000e-001 114201 -1.2109e+000  1.1100e+001 -1.1400e+001 19454 114031,114005,114175
 6.0000e-001 114224 -9.9781e+001 -3.2556e+001 -1.8957e+001 19454 114031,114175,114057
 6.0000e-001 114472 -5.5427e+001  1.8993e+001 -1.5977e+001 19000 114495,114273,114247
 6.0000e-001 114449 -5.3918e+001  2.0004e+000 -1.2825e+001 19000 114495,114247,114325
 6.0000e-001 114426 -7.4876e+001 -9.5530e+000  3.1350e+000 19000 114247,114377,114325
 6.0000e-001 114403 -7.4316e+001 -8.0254e+000  2.9065e+000 19000 114325,114377,114351
 6.0000e-001 114521 -5.4156e+001  1.6236e+001  3.8718e-001 19000 114299,114273,114495
 6.0000e-001 114544 -5.2069e+001 -1.1371e+001 -4.5681e+000 19000 114299,114495,114325
 6.0000e-001 114948 -1.5214e+002 -3.7275e+001 -1.0872e+001 18560 114674,114726,114700
 6.0000e-001 114925 -1.5214e+002 -5.8682e+001 -1.0211e+001 18560 114674,114830,114726
 6.0000e-001 114902 -1.6010e+002 -7.8753e+001 -1.7279e+001 18560 114726,114830,114804
 6.0000e-001 114879 -1.1668e+002 -4.3793e+001 -6.4691e-001 18560 114726,114804,114752
 6.0000e-001 114856 -1.2678e+002 -5.6308e+001  3.7287e+000 18560 114752,114804,114778
 6.0000e-001 115098 -5.5379e+001  4.2100e+001 -1.0353e+001 18156 114971,115023,114997
 6.0000e-001 115075 -7.7875e+001  1.7594e+001 -6.6827e-001 18156 114971,115049,115023
 6.0000e-001 115248 -9.8546e+001  9.9425e+000 -6.3892e+000 17602 115147,115199,115173
 6.0000e-001 115225 -4.9798e+001  1.8316e+001 -2.3449e+000 17602 115121,115199,115147
 6.0000e-001 115652 -8.2199e+001 -1.6149e+001 -6.2010e-001 17354 115430,115534,115508
 6.0000e-001 115629 -7.0967e+001  9.2130e+000 -6.9176e+000 17354 115404,115534,115430
 6.0000e-001 115606 -6.3870e+001  2.4378e+001 -4.9191e+000 17354 115378,115534,115404
 6.0000e-001 115583 -1.4181e+002  1.9551e+000  1.7080e+001 17354 115456,115508,115482
 6.0000e-001 115560 -7.0492e+001  1.1317e+001  4.3652e-001 17354 115430,115508,115456
 6.0000e-001 115873 -1.1152e+002  2.4470e+001  3.8689e+001 16950 115749,115801,115775
 6.0000e-001 115850 -1.3070e+002 -1.9616e+001  1.9934e+001 16950 115697,115801,115749
 6.0000e-001 115827 -1.3503e+002 -3.0012e+001  1.8924e+001 16950 115697,115749,115723
 6.0000e-001 116023 -1.3492e+002 -2.4045e+000  3.3518e+000 16496 115922,115974,115948
 6.0000e-001 116000 -6.9186e+001 -1.9670e+001 -2.2354e-001 16496 115896,115974,115922
 6.0000e-001 116126 -1.3086e+002  4.7462e+001 -1.7118e+001 16298 116048,116100,116074
 6.0000e-001 116278 -2.0286e+002  8.1731e+001 -7.5450e+000 15892 116151,116203,116177
 6.0000e-001 116255 -2.2237e+002 -9.7832e+000 -2.6304e+001 15892 116151,116229,116203
 6.0000e-001 116430 -9.6904e+001 -8.4098e+001 -1.8281e+000 15545 116303,116355,116329
 6.0000e-001 116407 -6.7512e+001 -3.5588e+001  2.0792e+001 15545 116303,116381,116355
 6.0000e-001 116785 -5.9031e+001 -1.1563e+001  1.1531e+001 421 116612,116690,116664
 6.0000e-001 116762 -5.9530e+001 -1.2598e+001  1.4909e+001 421 116560,116690,116612
 6.0000e-001 116739 -5.0650e+001 -1.4287e+000 -7.0086e-002 421 116560,116612,116586
 6.0000e-001 116716 -2.7085e+001  4.5926e+001  2.7274e+001 421 116612,116664,116638
 7.0000e-001 68048 -2.2851e+002  2.3690e+000 -2.3389e+000 67642 67898,67950,67924
 7.0000e-001 68025 -2.4870e+002 -3.0159e+001  6.5021e+000 67642 67898,67976,67950
 7.0000e-001 68002 -1.7270e+002  4.9791e+000 -2.8994e+000 67642 67872,67976,67898
 7.0000e-001 68367 -1.7382e+002 -4.6570e+001  6.5288e+000 67444 68119,68223,68197
 7.0000e-001 68344 -1.7205e+002 -5.8441e+001  3.4496e+000 67444 68119,68249,68223
 7.0000e-001 68321 -9.6282e+001 -2.7662e+001  2.4179e+000 67444 68093,68249,68119
 7.0000e-001 68298 -1.8590e+002 -6.8331e+001 -7.3290e+000 67444 68119,68197,68171
 7.0000e-001 68275 -1.4574e+002 -2.7217e+001  1.2764e+001 67444 68119,68171,68145
 7.0000e-001 68468 -1.7840e+002 -2.1964e+000  4.1562e+000 67268 68390,68442,68416
 7.0000e-001 68765 -2.1616e+002  5.3369e+001  1.6950e+001 66956 68788,68517,68491
 7.0000e-001 68742 -2.1495e+002 -8.8470e+000  3.9246e+000 66956 68788,68491,68621
 7.0000e-001 68719 -2.3532e+002 -4.8293e+001 -5.4204e+001 66956 68543,68621,68569
 7.0000e-001 68696 -2.0707e+002  4.2168e+000 -1.3410e+000 66956 68491,68647,68621
 7.0000e-001 68673 -3.3699e+002 -1.0007e+002 -8.6475e+001 66956 68569,68621,68595
 7.0000e-001 68814 -1.9560e+002  4.8684e+000  3.4807e+001 66956 68543,68517,68788
 7.0000e-001 68837 -1.9446e+002 -5.7262e+001  1.6318e+001 66956 68543,68788,68621
 7.0000e-001 69107 -1.7984e+002 -1.2890e+002 -9.9789e+000 66758 68882,68986,68908
 7.0000e-001 69084 -1.1832e+002 -9.1847e+001  1.0084e+001 66758 68882,69012,68986
 7.0000e-001 69061 -3.1047e+002 -6.1042e+001 -2.6511e+001 66758 68908,68960,68934
 7.0000e-001 69038 -1.5814e+002 -6.2644e+001 -1.9004e+001 66758 68908,68986,68960
 7.0000e-001 69308 -1.6593e+002  6.1087e+000 -2.9992e+000 66560 69331,69184,69158
 7.0000e-001 69285 -1.6932e+002  3.7132e+000 -4.1068e+000 66560 69331,69158,69132
 7.0000e-001 69262 -1.6448e+002 -3.0701e+001 -1.3517e+001 66560 69184,69236,69210
 7.0000e-001 69357 -1.6240e+002  3.3782e+000 -1.9788e+000 66560 69236,69184,69331
 7.0000e-001 69380 -1.6498e+002  1.1747e+000 -3.1162e+000 66560 69236,69331,69132
 7.0000e-001 69554 -1.0331e+002  6.8978e+001 -2.1058e+000 66270 69427,69479,69453
 7.0000e-001 69531 -1.0541e+002  6.4072e+001 -3.0783e+000 66270 69427,69505,69479
 7.0000e-001 69804 -1.1220e+002 -3.7029e+001  1.4553e+001 66066 69579,69683,69657
 7.0000e-001 69781 -1.2816e+002 -4.4336e+001  1.9010e+001 66066 69579,69709,69683
 7.0000e-001 69758 -1.0487e+002 -1.1468e+001  1.2246e+001 66066 69579,69657,69631
 7.0000e-001 69735 -1.0315e+002 -4.0951e+000  3.9209e+000 66066 69579,69631,69605
 7.0000e-001 70257 -1.5653e+002 -1.5114e+001 -2.7147e+001 65776 69960,70090,69986
 7.0000e-001 70234 -1.4481e+002 -2.3451e+000 -1.5981e+001 65776 69934,70090,69960
 7.0000e-001 70211 -4.5946e+001  3.6302e+001 -1.1128e+001 65776 69934,70116,70090
 7.0000e-001 70188 -1.5781e+002  4.8027e+001  0.0000e+000 65776 70038,70090,70064
 7.0000e-001 70165 -1.4223e+002  7.1167e+001 -1.9627e+001 65776 69986,70090,70038
 7.0000e-001 70142 -1.7552e+002 -2.2447e+001 -4.7395e+001 65776 69986,70038,70012
 7.0000e-001 70456 -9.3213e+001  7.9901e+000 -3.8783e+000 65372 70479,70306,70280
 7.0000e-001 70433 -8.8001e+001  2.4243e+001 -4.3280e+000 65372 70479,70280,70384
 7.0000e-001 70410 -9.7471e+001  4.0315e+000 -1.2970e+001 65372 70551,70332,70306
 7.0000e-001 70505 -9.1393e+001  5.0680e+000 -1.2550e+001 65372 70551,70306,70479
 7.0000e-001 70528 -8.1227e+001  1.3481e+001 -1.2035e+001 65372 70358,70479,70384
 7.0000e-001 70577 -8.9628e+001  3.7687e+000 -1.0953e+001 65372 70358,70332,70551
 7.0000e-001 70600 -8.5752e+001  3.8163e+000 -9.8212e+000 65372 70358,70551,70479
 7.0000e-001 70821 -9.0839e+001 -3.3153e+001 -7.3057e+000 65174 70645,70723,70671
 7.0000e-001 70798 -1.7021e+002 -5.8774e+001  7.4650e+000 65174 70645,70749,70723
 7.0000e-001 70775 -7.1000e+001 -9.5367e+000 -1.5839e+001 65174 70671,70723,70697
 7.0000e-001 71071 -9.9190e+001 -1.8369e+000 -1.2863e+001 64770 71094,70898,70872
 7.0000e-001 71048 -1.0094e+002 -4.4248e+000 -7.9590e+000 64770 71166,71094,70872
 7.0000e-001 71025 -1.0530e+002 -8.8778e+000 -1.0412e+001 64770 71166,70872,70846
 7.0000e-001 71002 -1.6973e+002  3.8582e-001 -6.8203e+000 64770 70898,70950,70924
 7.0000e-001 71120 -1.0017e+002  9.7801e+000 -1.6194e+001 64770 70950,70898,71094
 7.0000e-001 71143 -9.6971e+001 -1.4958e+000 -8.7738e+000 64770 70950,71094,70976
 7.0000e-001 71192 -9.8205e+001 -1.3144e+001 -1.1764e+001 64770 70976,71094,71166
 7.0000e-001 71215 -9.9835e+001 -1.5022e+001 -1.3703e+001 64770 70976,71166,70846
 7.0000e-001 71514 -1.6001e+002 -3.6066e+001 -3.5722e+000 64572 71681,71537,71318
 7.0000e-001 71491 -1.8696e+002 -4.5099e+000 -1.2996e+001 64572 71537,71266,71240
 7.0000e-001 71468 -1.5900e+002 -1.7466e+001 -2.6477e+001 64572 71609,71396,71370
 7.0000e-001 71445 -1.4985e+002 -6.0908e+001  6.2798e+000 64572 71681,71318,71292
 7.0000e-001 71422 -1.4204e+002 -5.0011e+001 -3.5957e+000 64572 71753,71344,71318
 7.0000e-001 71563 -1.4355e+002 -2.9791e+001 -1.6019e+001 64572 71753,71318,71537
 7.0000e-001 71586 -1.5671e+002 -2.7669e+001 -1.6023e+001 64572 71609,71370,71537
 7.0000e-001 71635 -1.3937e+002  1.9696e+001 -4.2841e+001 64572 71240,71396,71609
 7.0000e-001 71658 -1.5462e+002 -6.9169e+000 -2.8845e+001 64572 71240,71609,71537
 7.0000e-001 71707 -1.6135e+002  1.1078e+001 -3.1171e+000 64572 71266,71537,71681
 7.0000e-001 71730 -1.5461e+002 -1.1763e+001  1.7387e+001 64572 71266,71681,71292
 7.0000e-001 71779 -1.1679e+002 -2.9695e+001 -1.3789e+001 64572 71370,71344,71753
 7.0000e-001 71802 -1.3037e+002 -2.2184e+001 -1.9251e+001 64572 71370,71753,71537
 7.0000e-001 72052 -7.1444e+001 -1.9789e+001 -9.5262e+000 64374 72075,71879,71827
 7.0000e-001 72029 -9.3712e+001 -1.7857e+001 -2.8155e+001 64374 72147,72075,71827
 7.0000e-001 72006 -1.0252e+002  1.6345e+000 -7.8597e+000 64374 72147,71827,71957
 7.0000e-001 71983 -4.8866e+001 -1.0227e+001 -2.2725e+001 64374 71827,71879,71853
 7.0000e-001 72101 -7.9970e+001 -4.1254e+001 -1.0020e+001 64374 71905,71879,72075
 7.0000e-001 72124 -1.0617e+002 -1.8492e+001 -4.0486e+001 64374 71905,72075,71931
 7.0000e-001 72173 -8.1497e+001  2.8130e+001 -2.8744e+001 64374 71931,72075,72147
 7.0000e-001 72196 -9.5066e+001  4.4544e+001 -1.4081e+001 64374 71931,72147,71957
 7.0000e-001 72649 -1.9789e+002 -7.0751e+001  1.0638e+001 63948 72352,72508,72482
 7.0000e-001 72626 -2.1195e+002 -1.0825e+002 -3.0335e+001 63948 72326,72508,72352
 7.0000e-001 72603 -1.6150e+002 -7.4823e+001  3.0816e+000 63948 72672,72430,72378
 7.0000e-001 72580 -1.5402e+002 -2.5861e+001 -1.2496e+001 63948 72672,72378,72352
 7.0000e-001 72557 -1.6618e+002 -1.1910e+002 -2.2122e+000 63948 72744,72456,72430
 7.0000e-001 72534 -1.6478e+002 -4.0698e+001  3.9765e+001 63948 72378,72430,72404
 7.0000e-001 72698 -1.6525e+002 -1.0714e+002  4.5417e+000 63948 72744,72430,72672
 7.0000e-001 72721 -1.6947e+002 -6.7199e+001  3.3500e+000 63948 72482,72672,72352
 7.0000e-001 72770 -1.8746e+002 -9.7646e+001 -4.9705e-001 63948 72482,72456,72744
 7.0000e-001 72793 -1.7170e+002 -6.8474e+001  9.1912e+000 63948 72482,72744,72672
 7.0000e-001 72894 -1.9693e+002 -1.3048e+001  1.3949e+001 63494 72816,72868,72842
 7.0000e-001 73093 -8.0822e+001  6.9258e+001 -1.6863e+001 63132 72943,72995,72969
 7.0000e-001 73070 -2.0091e+002  2.0663e+001 -1.4060e+001 63132 72943,73021,72995
 7.0000e-001 73047 -2.0208e+002 -1.9902e+001 -4.5249e+000 63132 72917,73021,72943
 7.0000e-001 73294 -1.2920e+002 -6.4151e+000  2.9425e+001 62792 73317,73144,73118
 7.0000e-001 73271 -1.1557e+002  2.3461e+001  2.5198e+001 62792 73317,73118,73222
 7.0000e-001 73248 -1.0803e+002 -3.9734e+001  3.0260e-001 62792 73144,73196,73170
 7.0000e-001 73343 -1.1845e+002 -3.4290e+001 -2.5442e+000 62792 73196,73144,73317
 7.0000e-001 73366 -9.8128e+001  1.1491e+001 -7.7930e+000 62792 73196,73317,73222
 7.0000e-001 73616 -1.8773e+002 -3.5042e+001  1.4662e+001 62388 73639,73417,73391
 7.0000e-001 73593 -1.6747e+002  1.0082e+001  2.7967e-001 62388 73711,73639,73391
 7.0000e-001 73570 -1.6318e+002  6.6184e+001 -3.6146e+000 62388 73711,73391,73521
 7.0000e-001 73547 -1.6054e+002 -1.1908e+000 -3.4752e+001 62388 73469,73521,73495
 7.0000e-001 73665 -1.4575e+002 -1.9110e+001 -8.5132e-001 62388 73443,73417,73639
 7.0000e-001 73688 -1.6504e+002 -3.0642e+001 -9.6954e+000 62388 73443,73639,73469
 7.0000e-001 73737 -1.6335e+002 -2.9349e+001 -1.0309e+001 62388 73469,73639,73711
 7.0000e-001 73760 -1.7734e+002 -1.3998e+000 -5.5415e+000 62388 73469,73711,73521
 7.0000e-001 74010 -1.7507e+002 -5.8949e+001 -2.8091e+001 61848 74033,73837,73811
 7.0000e-001 73987 -9.2924e+001 -5.0413e+001  5.9118e+000 61848 74033,73811,73785
 7.0000e-001 73964 -1.6025e+002 -2.7297e+001  9.8505e+000 61848 73837,73915,73889
 7.0000e-001 73941 -2.1200e+002  2.5173e+001 -1.8182e+001 61848 73837,73889,73863
 7.0000e-001 74059 -1.8379e+002 -3.0618e+001 -9.4162e+000 61848 73915,73837,74033
 7.0000e-001 74082 -1.7656e+002 -1.1541e+001  2.0476e+000 61848 73915,74033,73785
 7.0000e-001 74283 -1.7237e+002  6.9104e-001 -2.4827e+001 61444 74306,74133,74107
 7.0000e-001 74260 -1.8415e+002  2.1321e+001  3.3557e+001 61444 74306,74107,74211
 7.0000e-001 74237 -2.2197e+002 -7.5387e+001  2.5159e+001 61444 74378,74185,74159
 7.0000e-001 74332 -2.2942e+002 -2.4148e+001 -3.2126e+001 61444 74159,74133,74306
 7.0000e-001 74355 -2.1780e+002 -1.5588e+001  2.6801e+001 61444 74378,74159,74306
 7.0000e-001 74404 -1.9814e+002 -1.1189e+001  2.1290e+001 61444 74211,74185,74378
 7.0000e-001 74427 -2.0825e+002  1.1777e+000  2.2013e+001 61444 74211,74378,74306
 7.0000e-001 74628 -1.3561e+002  2.6519e+001  3.4325e+001 60990 74478,74530,74504
 7.0000e-001 74605 -1.0627e+002 -5.0114e-001  1.8395e+000 60990 74452,74530,74478
 7.0000e-001 74582 -1.1016e+002 -3.0601e+001  1.5848e+001 60990 74452,74556,74530
 7.0000e-001 75089 -6.0308e+000  8.1253e+000 -3.5675e+000 60486 75112,74945,74919
 7.0000e-001 75066 -2.6918e+001  2.4074e+001  2.2344e+001 60486 75112,74919,74867
 7.0000e-001 75043 -5.0380e+001  1.4847e+001  1.6240e+001 60486 74841,74971,74867
 7.0000e-001 75020 -1.2810e+002  7.9354e+000 -1.0924e+001 60486 74867,74919,74893
 7.0000e-001 74997  1.1961e+001  1.3992e+001 -5.9469e+000 60486 74815,74971,74841
 7.0000e-001 75138 -3.7539e+001 -6.7038e+000 -7.8457e+000 60486 74971,74945,75112
 7.0000e-001 75161 -5.0205e+001  1.1138e+001  1.7142e+001 60486 74971,75112,74867
 7.0000e-001 75409 -1.0068e+002 -2.7609e+000 -2.4399e+001 59932 75576,75432,75288
 7.0000e-001 75386 -1.5269e+002 -2.3931e+001 -2.5942e+001 59932 75504,75314,75288
 7.0000e-001 75363 -1.1515e+002 -1.5365e+001  1.3010e+000 59932 75432,75236,75210
 7.0000e-001 75340 -1.9250e+001  2.9852e+001 -1.9604e+001 59932 75576,75288,75262
 7.0000e-001 75458 -1.5224e+002 -2.3303e+001 -2.6186e+001 59932 75504,75288,75432
 7.0000e-001 75481 -1.5816e+002 -2.0912e+001  1.6695e+001 59932 75184,75432,75210
 7.0000e-001 75530 -1.9761e+002 -6.0566e+001  1.2088e+000 59932 75184,75314,75504
 7.0000e-001 75553 -1.4558e+002 -2.4001e+001 -2.1371e+001 59932 75184,75504,75432
 7.0000e-001 75602 -1.4877e+002  1.8566e+001 -1.4245e+001 59932 75236,75432,75576
 7.0000e-001 75625 -1.3505e+002  9.7854e+000 -2.1996e+001 59932 75236,75576,75262
 7.0000e-001 75873 -8.3430e+001 -6.9264e+000  1.3831e+001 59478 75674,75752,75700
 7.0000e-001 75850 -8.3875e+001 -7.2031e+000  9.9163e+000 59478 75648,75752,75674
 7.0000e-001 75827 -1.2560e+002 -1.3305e+001  1.2960e+001 59478 75700,75752,75726
 7.0000e-001 75804 -8.9265e+001  2.4977e+000  8.4417e+000 59478 75648,75778,75752
 7.0000e-001 76206 -9.6494e+001 -3.8223e+001 -9.4593e+000 59024 75981,76059,76007
 7.0000e-001 76183 -9.4361e+001 -2.0061e+001 -1.4425e+001 59024 75981,76111,76059
 7.0000e-001 76160 -9.5108e+001 -4.2957e+001 -5.9545e+000 59024 76007,76059,76033
 7.0000e-001 76137 -9.8342e+001 -1.5479e+001 -2.5197e+001 59024 76059,76111,76085
 7.0000e-001 76761 -4.0387e+001 -1.2194e+001  2.0665e+001 58562 76389,76441,76415
 7.0000e-001 76738 -8.8066e+001  3.8008e+000 -8.3556e+000 58562 76856,76784,76389
 7.0000e-001 76715 -1.0267e+002 -6.1917e+000 -2.4267e+001 58562 76784,76571,76467
 7.0000e-001 76692 -1.4969e+002  2.1401e+001 -1.3605e+001 58562 76856,76389,76597
 7.0000e-001 76669 -2.0686e+002 -4.8992e+001 -1.0219e+001 58562 76467,76545,76493
 7.0000e-001 76646 -1.1115e+002 -3.5505e+000 -2.4199e+001 58562 76467,76571,76545
 7.0000e-001 76623 -7.8297e+001  1.2397e+000  7.6373e+000 58562 76493,76545,76519
 7.0000e-001 76810 -8.0382e+001 -6.6427e+000 -1.6963e+001 58562 76441,76389,76784
 7.0000e-001 76833 -9.2722e+001  1.1091e-001 -4.4226e+000 58562 76441,76784,76467
 7.0000e-001 76882 -1.5469e+002 -2.3387e+001 -3.8173e+001 58562 76571,76784,76856
 7.0000e-001 76905 -1.9355e+002  9.7964e+000 -4.4534e+001 58562 76571,76856,76597
 7.0000e-001 77055 -1.8618e+002 -4.6072e+001  1.4048e+000 57844 76928,76980,76954
 7.0000e-001 77032 -1.2982e+002 -6.6578e+000 -1.8840e+001 57844 76928,77006,76980
 7.0000e-001 77533 -1.4868e+002 -3.3316e+001  6.2865e+000 57226 77628,77556,77291
 7.0000e-001 77510 -1.6031e+002  4.2287e+001  1.6343e+001 57226 77556,77187,77343
 7.0000e-001 77487 -1.1188e+002 -7.8878e+000 -5.5290e+000 57226 77628,77291,77265
 7.0000e-001 77464 -9.7556e+001 -2.7888e+001 -1.2786e+001 57226 77700,77213,77187
 7.0000e-001 77441 -3.2471e+002 -2.3198e+001  1.4624e+001 57226 77161,77343,77187
 7.0000e-001 77418 -2.3149e+002 -4.6702e+000  2.7247e+000 57226 77161,77369,77343
 7.0000e-001 77395 -9.3411e+001 -6.0346e+000 -6.0780e+001 57226 77213,77265,77239
 7.0000e-001 77582 -1.3563e+002 -1.0061e+001 -5.3442e+000 57226 77317,77291,77556
 7.0000e-001 77605 -2.1551e+002  1.1784e+001 -7.3933e+000 57226 77317,77556,77343
 7.0000e-001 77654 -8.4309e+001  2.5263e+000  2.0483e+001 57226 77187,77556,77628
 7.0000e-001 77677 -8.4941e+001 -2.8008e+001  5.1011e+000 57226 77700,77187,77628
 7.0000e-001 77726 -1.4093e+002 -4.7588e+001 -3.3112e+001 57226 77265,77213,77700
 7.0000e-001 77749 -1.2313e+002 -3.4851e+001 -1.1991e+001 57226 77265,77700,77628
 7.0000e-001 78046 -1.8439e+002  1.2439e+001 -5.7388e+000 56936 77798,77850,77824
 7.0000e-001 78023 -1.8958e+002 -6.1482e+001 -1.9060e+001 56936 78069,77798,77902
 7.0000e-001 78000 -2.0279e+002 -5.2054e+001 -2.0157e+001 56936 78069,77902,77876
 7.0000e-001 77977 -2.3185e+002 -8.4724e+001 -4.8543e+001 56936 77798,77928,77902
 7.0000e-001 77954 -2.7868e+002 -4.2102e+001 -4.4308e+001 56936 77772,77928,77798
 7.0000e-001 78095 -1.8673e+002 -5.5681e+001 -2.2451e+001 56936 77850,77798,78069
 7.0000e-001 78118 -1.9311e+002 -4.4486e+001 -2.6219e+001 56936 77850,78069,77876
 7.0000e-001 78754 -1.1250e+002 -6.4006e+001  1.0287e+001 56475 78777,78486,78408
 7.0000e-001 78731 -1.7178e+002 -1.0375e+002  2.7571e+001 56475 78777,78408,78382
 7.0000e-001 78708 -1.5628e+002 -7.6363e+001 -1.0653e+001 56475 78849,78512,78486
 7.0000e-001 78685 -1.4378e+002 -4.1748e+001  2.3766e+000 56475 78382,78590,78564
 7.0000e-001 78662 -1.9995e+002 -8.7011e+000 -2.1908e+001 56475 78512,78564,78538
 7.0000e-001 78639 -1.2235e+002 -5.7900e+001  6.8843e+000 56475 78434,78486,78460
 7.0000e-001 78616 -1.1188e+002 -6.2912e+001  9.7729e+000 56475 78408,78486,78434
 7.0000e-001 78803 -1.5360e+002 -6.9030e+001 -4.1286e+000 56475 78849,78486,78777
 7.0000e-001 78826 -1.5580e+002 -5.9292e+001  8.0402e+000 56475 78564,78777,78382
 7.0000e-001 78875 -1.5330e+002 -6.3247e+001 -5.2063e+000 56475 78564,78512,78849
 7.0000e-001 78898 -1.5391e+002 -5.6081e+001 -3.0918e-001 56475 78564,78849,78777
 7.0000e-001 79276 -1.3482e+002 -3.9078e+001  4.1055e+000 55964 79299,79080,79028
 7.0000e-001 79253 -1.6479e+002 -4.9384e+001  4.3537e+000 55964 79299,79028,79132
 7.0000e-001 79230 -1.1732e+002  1.1676e+001 -7.5513e-001 55964 79028,79080,79054
 7.0000e-001 79207 -1.5015e+002 -5.7204e+001  3.0379e-001 55964 79002,79132,79028
 7.0000e-001 79184 -1.8976e+002 -7.3805e+001 -3.0945e+000 55964 79002,79158,79132
 7.0000e-001 79325 -1.4739e+002 -2.7916e+001 -2.0303e+001 55964 79106,79080,79299
 7.0000e-001 79348 -1.8091e+002 -3.9521e+001 -1.8682e+001 55964 79106,79299,79132
 7.0000e-001 79498 -1.8142e+002 -2.7624e+001 -1.7115e+001 55452 79397,79449,79423
 7.0000e-001 79475 -1.2799e+002  4.0788e+001  6.2073e+000 55452 79371,79449,79397
 7.0000e-001 79795 -1.0768e+002 -3.3597e+001  7.7500e+000 55048 79962,79818,79573
 7.0000e-001 79772 -1.1940e+002 -1.4964e+001 -8.8877e-001 55048 79818,79521,79677
 7.0000e-001 79749 -1.0603e+002 -5.7906e+001  6.5840e+000 55048 79599,79651,79625
 7.0000e-001 79726 -1.3047e+002 -4.4766e+001  9.8868e-001 55048 79890,79651,79599
 7.0000e-001 79703 -1.0112e+002 -1.9759e+001  9.6018e+000 55048 79962,79573,79547
 7.0000e-001 79844 -1.1288e+002 -4.7554e+001  4.3437e+000 55048 79599,79573,79818
 7.0000e-001 79867 -1.2237e+002 -3.0162e+001  7.7638e+000 55048 79890,79599,79818
 7.0000e-001 79916 -1.3884e+002 -4.5184e+001 -1.3699e+001 55048 79677,79651,79890
 7.0000e-001 79939 -1.3420e+002 -3.9492e+001 -7.6262e+000 55048 79677,79890,79818
 7.0000e-001 79988 -1.0628e+002 -3.9220e+001 -3.0045e+000 55048 79521,79818,79962
 7.0000e-001 80011 -1.0417e+002 -3.4649e+001 -1.8898e+000 55048 79521,79962,79547
 7.0000e-001 80212 -1.7281e+002  1.7322e+001 -1.2895e+001 54436 80235,80088,80036
 7.0000e-001 80189 -1.1613e+002 -3.1461e+001  1.4482e+000 54436 80235,80036,80140
 7.0000e-001 80166 -1.6647e+002  4.7869e+001 -3.8685e+000 54436 80036,80088,80062
 7.0000e-001 80261 -1.3189e+002  3.2963e+001  1.0127e+001 54436 80114,80088,80235
 7.0000e-001 80284 -5.5103e+001  6.8609e+000  3.0270e+001 54436 80114,80235,80140
 7.0000e-001 80534 -1.5893e+002 -1.9654e+001 -3.9447e+000 54032 80557,80361,80335
 7.0000e-001 80511 -1.3601e+002 -6.9556e-001 -1.3168e+001 54032 80557,80335,80309
 7.0000e-001 80488 -1.3339e+002 -3.9214e+001 -8.2149e-001 54032 80629,80413,80387
 7.0000e-001 80465 -1.3561e+002 -5.7101e+001 -8.7580e+000 54032 80309,80439,80413
 7.0000e-001 80583 -1.4007e+002 -1.9430e+001  1.0045e+001 54032 80387,80361,80557
 7.0000e-001 80606 -1.2674e+002 -2.1634e+001  6.5183e+000 54032 80629,80387,80557
 7.0000e-001 80655 -1.3836e+002 -3.8643e+001 -1.1527e+001 54032 80309,80413,80629
 7.0000e-001 80678 -1.4115e+002 -3.4103e+001 -5.2465e+000 54032 80309,80629,80557
 7.0000e-001 81139 -4.0891e+001  5.9973e+001  5.4847e+001 53784 80865,80995,80917
 7.0000e-001 81116 -1.0631e+002  7.1666e+001 -5.4292e+001 53784 80865,81021,80995
 7.0000e-001 81093 -2.8156e+001 -9.8743e-001  1.0797e+001 53784 80943,80995,80969
 7.0000e-001 81070  1.6106e+001  2.8301e+001  5.0134e+001 53784 80917,80995,80943
 7.0000e-001 81047 -1.6671e+002  4.1317e+002  1.4931e+002 53784 80865,80917,80891
 7.0000e-001 81468 -1.1954e+002 -2.0550e+001  3.6494e+000 53230 81295,81373,81347
 7.0000e-001 81445 -1.0327e+002 -1.0972e+001  1.2384e+001 53230 81243,81373,81295
 7.0000e-001 81422 -7.8004e+001 -1.4441e+001  3.2674e+001 53230 81243,81295,81269
 7.0000e-001 81399 -1.3773e+002 -2.8741e+001  5.3796e+000 53230 81295,81347,81321
 7.0000e-001 81618 -2.3454e+002 -1.2979e+000 -2.3720e+001 52790 81491,81543,81517
 7.0000e-001 81595 -2.2325e+002 -6.5311e+001 -1.7912e+001 52790 81491,81569,81543
 7.0000e-001 82126 -1.1030e+002 -4.5166e+001  1.4668e+001 52386 82149,81907,81881
 7.0000e-001 82103 -1.0696e+002 -3.6787e+001  1.5235e+001 52386 82149,81881,81855
 7.0000e-001 82080 -1.0679e+002 -5.7597e+001  2.7829e+000 52386 82221,81803,81985
 7.0000e-001 82057 -6.3739e+001 -3.2450e+001  1.8361e+001 52386 81803,81855,81829
 7.0000e-001 82034 -9.0705e+001 -2.1085e+001 -3.4835e+000 52386 81907,81985,81933
 7.0000e-001 82011 -6.8196e+001 -2.5503e+001 -1.3049e+000 52386 81933,81985,81959
 7.0000e-001 82175 -1.0778e+002 -4.1570e+001  1.2838e+001 52386 81985,81907,82149
 7.0000e-001 82198 -1.1128e+002 -5.0282e+001  1.1305e+001 52386 82221,81985,82149
 7.0000e-001 82247 -1.0136e+002 -4.3380e+001  3.2878e+000 52386 81855,81803,82221
 7.0000e-001 82270 -1.0577e+002 -3.4728e+001  1.0042e+001 52386 81855,82221,82149
 7.0000e-001 82825 -2.3589e+002 -3.5400e+001 -6.4060e+001 51782 82505,82661,82635
 7.0000e-001 82802 -1.0959e+002 -3.9101e+001  3.5014e+001 51782 82479,82661,82505
 7.0000e-001 82779 -1.3390e+002 -5.1508e+001  2.4019e+001 51782 82557,82635,82609
 7.0000e-001 82756 -1.5672e+002 -1.0678e+002 -7.8096e+000 51782 82531,82635,82557
 7.0000e-001 82733 -2.1128e+002 -4.6506e-001 -2.4630e+001 51782 82505,82635,82531
 7.0000e-001 82710 -1.7811e+002 -1.4480e+002 -4.4960e+001 51782 82453,82661,82479
 7.0000e-001 82687 -1.4048e+002 -3.5892e+001  2.7921e+001 51782 82557,82609,82583
 7.0000e-001 83171 -1.6463e+002 -2.5077e+001 -1.4627e+001 51442 83194,82978,82900
 7.0000e-001 83148 -1.8445e+002 -4.6460e+001 -2.2841e+001 51442 83194,82900,82874
 7.0000e-001 83125 -2.0879e+002 -4.2651e+001  1.8555e-001 51442 82900,82978,82926
 7.0000e-001 83102 -1.8165e+002 -7.0556e+001 -4.4307e+001 51442 82874,83030,83004
 7.0000e-001 83079 -1.3768e+002 -1.3310e+001  4.9537e+000 51442 82926,82978,82952
 7.0000e-001 83056 -2.3556e+002 -9.3832e+001 -5.5142e+001 51442 82848,83030,82874
 7.0000e-001 83220 -1.3576e+002 -4.3380e+001 -7.3654e+000 51442 83004,82978,83194
 7.0000e-001 83243 -1.6332e+002 -7.3455e+001 -1.8825e+001 51442 83004,83194,82874
 7.0000e-001 83751 -1.1726e+002 -4.8102e+001 -2.4107e+000 50938 83428,83584,83454
 7.0000e-001 83728 -1.5292e+002 -6.1318e+001 -1.3645e+001 50938 83428,83610,83584
 7.0000e-001 83705 -1.5033e+002 -4.1904e+001 -8.9661e+000 50938 83454,83584,83558
 7.0000e-001 83682 -1.9027e+002 -5.7340e+001 -2.3009e+000 50938 83454,83532,83480
 7.0000e-001 83659 -1.7329e+002 -5.1248e+001 -7.4573e+000 50938 83454,83558,83532
 7.0000e-001 83636 -1.1158e+002  3.7640e+001  3.8741e+001 50938 83480,83532,83506
 7.0000e-001 84355 -1.5404e+002 -2.8444e+001  3.5932e+001 50377 84378,83960,83934
 7.0000e-001 84332 -1.2106e+002  3.5952e+000 -4.2516e+001 50377 84522,84378,83934
 7.0000e-001 84309 -8.0761e+001  2.0629e+001  1.1817e+001 50377 84450,84038,84012
 7.0000e-001 84286 -7.6614e+001 -2.3630e+001 -4.6505e+001 50377 84522,83934,84142
 7.0000e-001 84263 -9.5634e+001 -5.7160e+001  5.2296e+000 50377 84594,84090,84038
 7.0000e-001 84240  8.9614e+000 -8.8371e+000  2.6677e+001 50377 83960,84012,83986
 7.0000e-001 84217 -2.3843e+001 -2.2931e+001 -1.3874e+001 50377 83934,84168,84142
 7.0000e-001 84194 -5.7497e+000 -1.6943e+001  1.7792e+001 50377 84038,84090,84064
 7.0000e-001 84404  1.3897e+001  3.3779e+001  3.0798e+001 50377 84012,83960,84378
 7.0000e-001 84427 -1.0447e+002  2.5086e+000 -1.2891e+001 50377 84450,84012,84378
 7.0000e-001 84476 -1.0466e+002 -2.9627e+001  3.2521e+000 50377 84594,84038,84450
 7.0000e-001 84499 -9.8114e+001  1.0367e+001 -1.6564e+001 50377 84116,84450,84378
 7.0000e-001 84548 -7.5731e+001  2.8098e+001 -3.1150e+001 50377 84116,84378,84522
 7.0000e-001 84571 -3.3013e+001 -1.6545e+000 -3.7158e+001 50377 84116,84522,84142
 7.0000e-001 84620 -9.3196e+001 -1.7126e+001 -1.2956e+001 50377 84116,84090,84594
 7.0000e-001 84643 -1.0100e+002  9.6419e+000 -1.6786e+001 50377 84116,84594,84450
 7.0000e-001 84842 -1.6200e+002 -4.3028e+001 -1.7022e+001 49923 84865,84692,84666
 7.0000e-001 84819 -1.3444e+002 -4.6585e+001 -1.1591e+000 49923 84865,84666,84770
 7.0000e-001 84796 -9.5804e+001 -3.7099e+001  6.6233e-001 49923 84692,84744,84718
 7.0000e-001 84891 -1.4404e+002 -3.7435e+001 -1.5859e+000 49923 84744,84692,84865
 7.0000e-001 84914 -1.1295e+002 -3.2267e+001  1.6520e+001 49923 84744,84865,84770
 7.0000e-001 85501 -1.3359e+002 -1.0758e+001  4.1239e+000 49618 85524,85282,85204
 7.0000e-001 85478 -1.6125e+002 -2.0867e+001  4.1858e+000 49618 85596,85524,85204
 7.0000e-001 85455 -1.7258e+002 -1.7792e+001  2.1448e+000 49618 85596,85204,85178
 7.0000e-001 85432 -1.6089e+002 -1.6142e+001  7.1953e+000 49618 85204,85282,85256
 7.0000e-001 85409 -9.2996e+001  3.4852e+000 -1.1025e+001 49618 85282,85334,85308
 7.0000e-001 85386 -1.4697e+002  1.5104e+001  3.7020e+000 49618 85204,85256,85230
 7.0000e-001 85550 -1.1830e+002 -4.6332e+000 -2.4058e+001 49618 85334,85282,85524
 7.0000e-001 85573 -1.7121e+002 -2.5992e+001 -1.9472e+001 49618 85334,85524,85360
 7.0000e-001 85622 -1.4340e+002 -2.0411e+001  1.0094e+000 49618 85360,85524,85596
 7.0000e-001 85645 -1.5611e+002 -1.8606e+001  1.0527e+000 49618 85360,85596,85178
 7.0000e-001 85795 -3.2519e+002 -9.7675e+001  2.2109e+001 49278 85694,85746,85720
 7.0000e-001 85772 -3.6901e+002 -1.0468e+002 -8.6427e-001 49278 85668,85746,85694
 7.0000e-001 86197 -1.6160e+002 -8.9473e+001 -6.7268e+001 48916 86001,86079,86027
 7.0000e-001 86174 -1.6526e+002 -4.6982e+001 -3.3613e+001 48916 85949,86079,86001
 7.0000e-001 86151 -2.3195e+002 -6.6267e+001 -1.1788e+001 48916 85949,86001,85975
 7.0000e-001 86128 -1.8638e+002 -4.0587e+001 -2.0060e+001 48916 86027,86079,86053
 7.0000e-001 86105 -4.0594e+002 -1.5341e+002 -6.2632e+001 48916 85923,86079,85949
 7.0000e-001 86477 -4.4604e+001  5.1421e+000  1.9156e+001 48398 86327,86379,86353
 7.0000e-001 86454 -5.2002e+001 -4.2213e+001  2.1254e+001 48398 86500,86379,86327
 7.0000e-001 86431 -9.7497e+001 -4.2116e+001  2.3732e+001 48398 86301,86405,86379
 7.0000e-001 86526 -1.5721e+001 -2.4570e+001  2.7317e+001 48398 86301,86379,86500
 7.0000e-001 87032 -1.4965e+002 -4.4816e+001 -4.7766e+000 48008 87127,87055,86787
 7.0000e-001 87009 -1.5377e+002 -5.7475e+001  3.7332e+000 48008 87055,86735,86709
 7.0000e-001 86986 -1.3870e+002 -5.2281e+001 -6.6611e+000 48008 87127,86787,86761
 7.0000e-001 86963 -1.5138e+002 -5.0746e+001 -1.8618e+000 48008 86787,86865,86839
 7.0000e-001 86940 -2.0858e+002 -5.2227e+001 -2.8117e+000 48008 86709,86891,86865
 7.0000e-001 86917 -1.3274e+002 -7.4760e+000  2.6121e+001 48008 86787,86839,86813
 7.0000e-001 87081 -1.5209e+002 -4.6367e+001 -2.7339e+000 48008 86865,86787,87055
 7.0000e-001 87104 -1.4470e+002 -4.1934e+001 -5.2381e-001 48008 86865,87055,86709
 7.0000e-001 87153 -1.3448e+002 -4.4928e+001 -3.2338e+000 48008 86735,87055,87127
 7.0000e-001 87176 -1.0689e+002 -3.8830e+001 -1.1334e+001 48008 86735,87127,86761
 7.0000e-001 87456 -8.8506e+001 -4.0567e+001 -7.6270e+000 47604 87306,87358,87332
 7.0000e-001 87433 -1.1003e+002 -5.9065e+001  3.1764e+000 47604 87306,87384,87358
 7.0000e-001 87410 -9.3223e+001 -5.2373e+001 -7.6296e+000 47604 87280,87384,87306
 7.0000e-001 87785 -8.3180e+001 -3.8190e+001 -1.0115e+000 47264 87638,87690,87664
 7.0000e-001 87762 -7.4271e+001 -6.0204e+000 -8.3430e+000 47264 87612,87690,87638
 7.0000e-001 87739 -9.6380e+001 -3.2962e+001 -2.1893e+001 47264 87560,87690,87612
 7.0000e-001 87716 -8.2892e+001 -9.9395e+000 -2.7684e+001 47264 87560,87612,87586
 7.0000e-001 87935 -1.9450e+002  2.7502e+001 -1.3529e+000 46952 87808,87860,87834
 7.0000e-001 87912 -2.0152e+002 -2.2037e+000 -8.9425e+000 46952 87808,87886,87860
 7.0000e-001 88281 -1.6520e+002 -5.3680e+001  8.7809e-001 46526 88304,88114,88036
 7.0000e-001 88258 -1.5638e+002 -4.3464e+001  5.1849e+000 46526 88304,88036,87984
 7.0000e-001 88235 -1.5070e+002 -3.9847e+001 -2.1854e+001 46526 88036,88114,88062
 7.0000e-001 88212 -1.5047e+002 -2.0977e+001  2.9174e+001 46526 87958,88140,87984
 7.0000e-001 88189 -1.3496e+002  6.5163e+000  5.4400e+000 46526 87984,88036,88010
 7.0000e-001 88166 -1.9173e+002 -6.6972e+001 -3.3610e+001 46526 88062,88114,88088
 7.0000e-001 88330 -1.7534e+002 -4.1906e+001 -8.6425e-002 46526 88140,88114,88304
 7.0000e-001 88353 -1.6952e+002 -3.3794e+001  2.8644e+000 46526 88140,88304,87984
 7.0000e-001 88701 -7.8670e+001 -5.1356e+001 -1.4901e+001 45822 88724,88378,88534
 7.0000e-001 88678 -6.5895e+001 -2.8487e+001 -1.9989e+001 45822 88378,88560,88534
 7.0000e-001 88655 -8.9627e+001 -6.9350e+001  6.1994e+000 45822 88724,88534,88508
 7.0000e-001 88632 -8.7792e+001 -1.8488e+001 -7.7211e+000 45822 88404,88508,88456
 7.0000e-001 88609 -7.8326e+001  9.8344e+000  9.4876e-001 45822 88404,88456,88430
 7.0000e-001 88586 -1.3649e+002 -5.4133e+001  8.1900e+000 45822 88456,88508,88482
 7.0000e-001 88750 -8.7553e+001 -2.0911e+001 -2.5390e+001 45822 88404,88378,88724
 7.0000e-001 88773 -9.5101e+001 -4.0021e+001 -6.0946e+000 45822 88404,88724,88508
 7.0000e-001 89106 -1.1018e+002 -1.5396e+001 -3.3820e+001 45418 88881,88985,88907
 7.0000e-001 89083 -7.3250e+001 -5.3939e+001 -3.1341e+001 45418 88881,89011,88985
 7.0000e-001 89060 -4.5684e+001  3.4523e+001 -1.0824e+001 45418 88907,88985,88933
 7.0000e-001 89037 -5.6699e+001  1.0639e+001 -1.5667e+001 45418 88933,88985,88959
 7.0000e-001 89435 -1.7552e+002 -7.8506e+001  4.3087e+000 44914 89210,89288,89236
 7.0000e-001 89412 -1.4257e+002 -5.4659e+001 -2.0503e+001 44914 89210,89314,89288
 7.0000e-001 89389 -1.6580e+002 -4.0209e+001 -2.8708e+001 44914 89210,89340,89314
 7.0000e-001 89366 -1.8796e+002 -8.1765e+001  1.6534e+000 44914 89236,89288,89262
 7.0000e-001 89634 -7.7225e+001 -3.3444e+001  1.9747e+000 44538 89510,89562,89536
 7.0000e-001 89611 -9.8281e+001 -4.0946e+001 -2.0773e+001 44538 89458,89562,89510
 7.0000e-001 89588 -1.0165e+002 -7.4725e+001 -1.8253e+001 44538 89458,89510,89484
 7.0000e-001 90044 -1.7373e+002 -5.9586e+001  1.4929e+001 44134 89819,89923,89845
 7.0000e-001 90021 -1.4547e+002  2.8984e+001  5.8721e+000 44134 89819,89949,89923
 7.0000e-001 89998 -1.2443e+002 -5.2121e+001 -1.0085e+001 44134 89845,89923,89897
 7.0000e-001 89975 -8.7119e+001 -4.1165e+000  1.8551e+001 44134 89845,89897,89871
 7.0000e-001 90520 -1.5054e+002 -3.3808e+001  6.2226e+000 43457 90543,90252,90226
 7.0000e-001 90497 -1.1955e+002 -3.6088e+001  1.5302e+000 43457 90543,90226,90330
 7.0000e-001 90474 -1.3695e+002 -2.2146e+001 -1.0160e+001 43457 90200,90330,90226
 7.0000e-001 90451 -1.7495e+002 -5.0969e+001 -3.0805e+001 43457 90200,90356,90330
 7.0000e-001 90428 -1.5948e+002 -1.2061e+001  4.2747e+001 43457 90252,90304,90278
 7.0000e-001 90405 -4.5636e+001 -1.2076e+001  2.0195e+001 43457 90174,90356,90200
 7.0000e-001 90382 -1.6168e+002 -1.3115e+002 -2.7596e+001 43457 90148,90356,90174
 7.0000e-001 90569 -1.7708e+002 -3.1494e+001  2.9695e+001 43457 90304,90252,90543
 7.0000e-001 90592 -1.3139e+002 -2.8960e+001  3.0027e+001 43457 90304,90543,90330
 7.0000e-001 91098 -8.3179e+001 -2.7859e+001  6.3026e+000 42789 90801,90905,90853
 7.0000e-001 91075 -8.9802e+001 -4.0639e+001  9.1939e+000 42789 90775,90905,90801
 7.0000e-001 91052 -8.9110e+001 -1.2023e+001 -9.2023e+000 42789 90775,90931,90905
 7.0000e-001 91029 -4.3677e+001  5.4855e+001  1.7734e+001 42789 90801,90853,90827
 7.0000e-001 91006 -8.6482e+001 -3.3400e+001  2.5779e+001 42789 90853,90905,90879
 7.0000e-001 90983 -1.4715e+002 -1.4608e+001  1.4967e+001 42789 90775,90957,90931
 7.0000e-001 91427 -1.6676e+002 -1.0074e+001 -1.4614e+001 42227 91228,91280,91254
 7.0000e-001 91404 -1.7412e+002 -5.4732e+001  5.0706e+000 42227 91228,91306,91280
 7.0000e-001 91381 -1.7476e+002 -4.8536e+001  3.0114e+001 42227 91202,91306,91228
 7.0000e-001 91358 -1.5110e+002 -5.1320e+001  8.9998e+000 42227 91202,91332,91306
 7.0000e-001 91675 -7.6752e+001 -2.2587e+001 -1.0997e+001 41773 91698,91476,91450
 7.0000e-001 91652 -8.2346e+001 -4.6025e+001  2.1812e+000 41773 91698,91450,91554
 7.0000e-001 91629 -8.0758e+001 -5.4643e+001  3.0875e+000 41773 91450,91580,91554
 7.0000e-001 91606 -9.6339e+001  1.0332e+001  4.9358e+001 41773 91502,91554,91528
 7.0000e-001 91724 -8.3010e+001 -3.2404e+001  6.0705e+000 41773 91502,91476,91698
 7.0000e-001 91747 -9.1648e+001 -5.7816e+001  1.9787e+001 41773 91502,91698,91554
 7.0000e-001 92127 -9.1844e+000  1.2747e+001 -2.8882e+001 41255 92150,91905,91879
 7.0000e-001 92104 -9.8982e+001  9.1963e+000  1.0522e+001 41255 92150,91879,91957
 7.0000e-001 92081 -9.5819e+001 -4.4551e+000  2.0195e+001 41255 91853,91957,91879
 7.0000e-001 92058 -1.0006e+002 -1.0303e+001  1.0113e+001 41255 91853,91983,91957
 7.0000e-001 92035 -3.2702e+001 -5.1674e+000  1.6760e+000 41255 91853,92009,91983
 7.0000e-001 92176 -8.7118e+001  3.0725e+001  6.1641e+000 41255 91931,91905,92150
 7.0000e-001 92199 -2.2209e+002 -2.5773e+001  6.0473e+001 41255 91931,92150,91957
 7.0000e-001 92518 -1.8517e+002 -3.3956e+000 -9.4270e+000 41007 92244,92374,92270
 7.0000e-001 92495 -2.1188e+002  1.0236e+001 -1.7120e+001 41007 92244,92400,92374
 7.0000e-001 92472 -1.4810e+002  1.0912e+001 -4.5034e+000 41007 92270,92374,92348
 7.0000e-001 92449 -2.0771e+002 -3.3882e+000  1.8122e+001 41007 92296,92348,92322
 7.0000e-001 92426 -1.9201e+002 -1.1576e+001  1.1587e+001 41007 92270,92348,92296
 7.0000e-001 92668 -5.9871e+001 -2.7490e+001 -2.7756e+001 40717 92823,92691,92567
 7.0000e-001 92645 -5.6843e+001 -8.8650e-001 -2.3419e+001 40717 92895,92823,92567
 7.0000e-001 92717 -5.4242e+001 -2.2140e+001  1.5102e+000 40717 92593,92567,92691
 7.0000e-001 92849 -2.1184e+001 -1.0665e+001 -4.2782e+001 40717 92619,92691,92823
 7.0000e-001 92872 -7.3684e+001 -4.1676e+000 -1.3808e+001 40717 92619,92823,92541
 7.0000e-001 92921 -1.1257e+002 -5.0399e+001  1.0365e+001 40717 92541,92823,92895
 7.0000e-001 93634 -1.7978e+002 -4.9332e+001 -3.5850e+001 40206 93366,93444,93418
 7.0000e-001 93611 -1.3911e+002 -3.2097e+001 -1.0111e+001 40206 93288,93444,93366
 7.0000e-001 93588 -1.2845e+002 -4.3186e+001 -1.6984e+001 40206 93288,93366,93314
 7.0000e-001 93565 -2.6542e+002 -8.5072e+001 -1.5957e+001 40206 93262,93444,93288
 7.0000e-001 93542 -2.0227e+002 -2.7781e+001 -2.1215e+001 40206 93366,93418,93392
 7.0000e-001 93519 -2.6657e+002  3.7972e+001 -3.4855e+001 40206 93262,93470,93444
 7.0000e-001 93496 -7.5819e+001 -2.1214e+001 -2.6781e+000 40206 93314,93366,93340
 7.0000e-001 94189 -1.3283e+002 -6.8173e+001 -9.5038e+000 39802 93843,93999,93973
 7.0000e-001 94166 -1.7616e+002 -9.2214e+001  4.1583e+000 39802 93817,93999,93843
 7.0000e-001 94143 -2.1935e+002 -7.3779e+001 -7.0815e-001 39802 93869,93973,93947
 7.0000e-001 94120 -1.4443e+002 -3.9922e+001 -8.0397e+000 39802 93843,93973,93869
 7.0000e-001 94097 -1.2258e+002  7.1415e+001  3.6156e+000 39802 93869,93921,93895
 7.0000e-001 94074 -1.4072e+002  2.6984e+001 -3.5104e+001 39802 93869,93947,93921
 7.0000e-001 94051 -1.0898e+002 -5.0005e+001 -2.2566e+001 39802 93817,94025,93999
 7.0000e-001 94290 -2.0466e+002 -7.5300e+001  6.1062e+000 39398 94212,94264,94238
 7.0000e-001 94798 -8.6236e+001 -2.6212e+001 -5.5460e+000 38701 94501,94657,94631
 7.0000e-001 94775 -7.5252e+001 -1.1490e+001  2.2923e+000 38701 94475,94657,94501
 7.0000e-001 94752 -1.1919e+002 -1.4680e+001 -4.4863e+000 38701 94579,94631,94605
 7.0000e-001 94729 -1.3040e+002 -3.1747e+001 -1.0384e+001 38701 94553,94631,94579
 7.0000e-001 94706 -5.9423e+001 -3.6336e+000 -1.5828e+001 38701 94501,94631,94553
 7.0000e-001 94683 -5.6890e+001 -1.3981e+001 -1.6159e+001 38701 94501,94553,94527
 7.0000e-001 95255 -8.1746e+001 -2.0368e+001  6.9850e+000 38247 95278,95085,95007
 7.0000e-001 95232 -9.3699e+001 -1.5131e+001  2.1015e+001 38247 95278,95007,95137
 7.0000e-001 95209 -1.1229e+002 -1.4808e+001  7.8712e+000 38247 94981,95137,95007
 7.0000e-001 95186 -7.4122e+001 -1.1706e+001 -8.9189e+000 38247 95007,95059,95033
 7.0000e-001 95163 -9.7673e+001 -5.2939e+001  2.0771e+001 38247 95007,95085,95059
 7.0000e-001 95304 -6.7979e+001  1.7555e+000 -5.1717e+000 38247 95111,95085,95278
 7.0000e-001 95327 -8.5047e+001 -9.0133e+000  1.0934e+001 38247 95111,95278,95137
 7.0000e-001 95575 -2.1488e+002  3.0586e+001 -1.9170e+001 37564 95376,95428,95402
 7.0000e-001 95552 -2.2438e+002 -1.0846e+002 -9.0633e+000 37564 95376,95454,95428
 7.0000e-001 95529 -2.0886e+002 -1.0550e+002 -1.3834e+001 37564 95376,95480,95454
 7.0000e-001 95506 -1.9775e+002 -5.4541e+001  1.3885e+000 37564 95350,95480,95376
 7.0000e-001 96034 -2.5968e+001 -2.2249e+000  4.5530e+000 37224 95786,95838,95812
 7.0000e-001 96011 -2.2375e+001  1.4312e+001 -1.1056e+000 37224 95786,95890,95838
 7.0000e-001 95988  1.6112e+001  2.5446e+001 -1.3966e+001 37224 95786,95916,95890
 7.0000e-001 95965 -3.4628e+001 -1.3844e+001  1.7035e+001 37224 95760,95916,95786
 7.0000e-001 95942 -6.3902e+000 -6.9481e+000 -3.0956e+001 37224 95838,95890,95864
 7.0000e-001 96363 -1.0678e+002 -8.0844e+000 -1.5576e+001 36884 96216,96268,96242
 7.0000e-001 96340 -1.1198e+002 -8.7132e+000 -1.5932e+001 36884 96164,96268,96216
 7.0000e-001 96317 -1.5081e+002 -5.5757e+001  1.7807e+001 36884 96138,96268,96164
 7.0000e-001 96294 -1.0919e+002  7.9970e+000 -7.6672e-001 36884 96164,96216,96190
 7.0000e-001 96839 -1.2888e+002 -1.7013e+001 -1.3819e+001 36572 96862,96649,96597
 7.0000e-001 96816 -1.3567e+002 -2.7901e+001 -1.0831e+001 36572 97006,96862,96597
 7.0000e-001 96793 -1.2335e+002 -2.4883e+001 -8.7148e+000 36572 96934,96467,96675
 7.0000e-001 96770 -1.2231e+002 -4.4055e+001  9.8344e+000 36572 97006,96597,96571
 7.0000e-001 96747 -1.2515e+002 -3.9369e+001 -1.9040e+001 36572 96467,96519,96493
 7.0000e-001 96724 -2.5991e+002 -2.7839e+001  9.6851e+001 36572 96519,96571,96545
 7.0000e-001 96701 -9.2212e+001 -5.1668e+000  2.4939e+001 36572 96597,96649,96623
 7.0000e-001 96888 -1.4163e+002 -2.3620e+001 -1.7445e+001 36572 96675,96649,96862
 7.0000e-001 96911 -1.3794e+002 -1.8147e+001 -1.1359e+001 36572 96934,96675,96862
 7.0000e-001 96960 -1.1397e+002 -1.7466e+001 -1.2340e+001 36572 96519,96467,96934
 7.0000e-001 96983 -1.2494e+002 -1.4956e+001 -1.2219e+001 36572 97078,96934,96862
 7.0000e-001 97032 -1.2373e+002 -1.0011e+001 -5.5213e+000 36572 97078,96862,97006
 7.0000e-001 97055 -1.0206e+002 -7.7810e+000  1.7917e+001 36572 96519,97006,96571
 7.0000e-001 97104 -1.2037e+002 -3.5285e+000 -9.8979e+000 36572 96519,96934,97078
 7.0000e-001 97127 -1.2229e+002 -2.2506e-001 -4.6611e+000 36572 96519,97078,97006
 7.0000e-001 97761 -9.1461e+001 -4.7834e+000  2.1651e+001 36118 97784,97493,97415
 7.0000e-001 97738 -1.1492e+002 -2.4239e+001  3.1970e+001 36118 97784,97415,97597
 7.0000e-001 97715 -2.0043e+002 -4.1825e+001  5.4175e+001 36118 97389,97597,97415
 7.0000e-001 97692 -1.9420e+002 -6.9836e+001  5.0614e+001 36118 97415,97467,97441
 7.0000e-001 97669 -1.6849e+002 -5.0066e+001  6.9170e+001 36118 97415,97493,97467
 7.0000e-001 97646 -1.1709e+002 -3.4847e+001 -4.0375e+001 36118 97493,97571,97519
 7.0000e-001 97623 -7.1370e+001 -1.4265e+001  9.9222e+000 36118 97519,97571,97545
 7.0000e-001 97810 -1.1255e+002  3.9302e+001 -4.4328e+000 36118 97571,97493,97784
 7.0000e-001 97833 -1.7277e+002  2.5524e+000  1.3963e+001 36118 97571,97784,97597
 7.0000e-001 98081 -6.8757e+001 -5.3673e+001  5.6398e+000 35564 98104,97908,97856
 7.0000e-001 98058 -9.6246e+001 -7.4284e+001  2.1182e+001 35564 98104,97856,97986
 7.0000e-001 98035 -1.8033e+002 -7.6126e+001  1.5458e+001 35564 97934,97986,97960
 7.0000e-001 98012 -5.0672e+001 -4.6129e+000 -7.2631e+000 35564 97856,97908,97882
 7.0000e-001 98130 -1.0623e+002  2.8395e+001  1.0107e+000 35564 97934,97908,98104
 7.0000e-001 98153 -1.4008e+002 -4.0353e+001  3.4123e+001 35564 97934,98104,97986
 7.0000e-001 98374 -2.2387e+002 -2.2117e+001 -4.0862e+000 35152 98224,98302,98276
 7.0000e-001 98351 -2.1860e+002 -9.2026e+000 -4.4198e+000 35152 98198,98302,98224
 7.0000e-001 98328 -2.0131e+002 -1.3309e+001 -8.9155e+000 35152 98224,98276,98250
 7.0000e-001 98884 -7.7178e+001  3.5108e+001  1.6360e+001 34698 98691,98743,98717
 7.0000e-001 98861 -9.5058e+001  1.8769e+001 -1.7422e+001 34698 98561,98743,98691
 7.0000e-001 98838 -9.5410e+001 -2.3539e+001  2.3915e-001 34698 98907,98587,98561
 7.0000e-001 98815 -9.0817e+001 -2.4093e+001 -1.2627e+001 34698 98907,98561,98691
 7.0000e-001 98792 -4.3581e+001  3.8759e+001 -1.0770e+001 34698 98587,98639,98613
 7.0000e-001 98769 -8.1103e+001 -3.3749e+001  3.8465e+000 34698 98587,98665,98639
 7.0000e-001 98933 -8.4189e+001 -1.8895e+001  8.2644e-002 34698 98665,98587,98907
 7.0000e-001 98956 -7.6845e+001 -1.8470e+001 -1.3407e+001 34698 98665,98907,98691
 7.0000e-001 99204 -1.6309e+002 -2.2473e+001 -7.9415e+000 34144 99227,99031,99005
 7.0000e-001 99181 -1.8213e+002 -5.3494e+001  1.6819e+001 34144 99299,99227,99005
 7.0000e-001 99158 -1.9688e+002 -4.5782e+001  3.7352e+001 34144 99299,99005,99109
 7.0000e-001 99135 -1.1427e+002 -2.1855e+001  5.2695e+001 34144 98979,99109,99005
 7.0000e-001 99253 -1.6144e+002 -2.9617e+001 -4.8933e+000 34144 99057,99031,99227
 7.0000e-001 99276 -7.9629e+001 -1.5787e+001 -8.8054e+000 34144 99057,99227,99083
 7.0000e-001 99325 -1.5006e+002 -1.3562e+001 -2.1530e+001 34144 99083,99227,99299
 7.0000e-001 99348 -1.9957e+002 -2.1045e+001 -5.0575e-001 34144 99083,99299,99109
 7.0000e-001 99498 -3.9154e+002 -9.3949e+001  3.8834e+001 33433 99397,99449,99423
 7.0000e-001 99475 -4.4403e+002 -1.1314e+002  6.6396e+000 33433 99371,99449,99397
 7.0000e-001 100008 -1.1835e+002 -1.2651e+001 -4.4141e+000 32979 100103,100031,99815
 7.0000e-001 99985 -1.1383e+002 -1.1015e+001 -1.0486e+001 32979 100175,100031,99763
 7.0000e-001 99962 -1.1703e+002 -1.7795e+001 -8.5760e+000 32979 100103,99815,99789
 7.0000e-001 99939 -1.2218e+002 -1.4119e+001 -4.4818e+000 32979 100175,99763,99737
 7.0000e-001 99916 -1.1536e+002  3.0341e+001 -3.6498e+000 32979 99685,99867,99737
 7.0000e-001 99893 -6.4566e+001  9.3509e+000 -6.2089e+001 32979 99685,99737,99711
 7.0000e-001 100057 -1.1100e+002 -1.0173e+001 -2.8425e+000 32979 99841,99815,100031
 7.0000e-001 100080 -1.0905e+002  9.2033e+000 -1.7199e+001 32979 99841,100031,99867
 7.0000e-001 100129 -1.1239e+002 -2.3988e+001 -6.0290e+000 32979 99763,100031,100103
 7.0000e-001 100152 -1.1585e+002 -3.3378e+001 -1.1417e+001 32979 99763,100103,99789
 7.0000e-001 100201 -1.2682e+002 -1.3668e+001 -8.9555e+000 32979 99867,100031,100175
 7.0000e-001 100224 -1.2856e+002 -1.0989e+001 -3.6482e+000 32979 99867,100175,99737
 7.0000e-001 100553 -8.5404e+001 -1.4244e+000  2.6102e+001 32503 100354,100406,100380
 7.0000e-001 100530 -5.0823e+001  5.9988e+001 -1.6786e+001 32503 100328,100406,100354
 7.0000e-001 100507 -7.4964e+001 -2.6256e+001 -3.4817e+001 32503 100328,100458,100406
 7.0000e-001 100484 -2.8127e+001 -2.5416e+001 -1.2907e+001 32503 100406,100458,100432
 7.0000e-001 100850 -1.1949e+002 -6.1748e+000  1.7807e+001 31899 100873,100654,100628
 7.0000e-001 100827 -1.1884e+002 -2.6754e+001  8.2295e-001 31899 100945,100873,100628
 7.0000e-001 100804 -1.2035e+002 -1.1037e+001  5.0242e-001 31899 100945,100628,100602
 7.0000e-001 100781 -7.7442e+001  1.5017e+001 -1.9267e+001 31899 100576,100732,100602
 7.0000e-001 100758 -8.9210e+001 -8.1417e+000  2.6003e+001 31899 100654,100706,100680
 7.0000e-001 100899 -1.1139e+002 -6.2623e+001  2.2604e+001 31899 100706,100654,100873
 7.0000e-001 100922 -1.3759e+002 -3.6712e+001 -2.1958e+001 31899 100706,100873,100732
 7.0000e-001 100971 -1.2339e+002 -5.8040e+000 -7.4224e+000 31899 100732,100873,100945
 7.0000e-001 100994 -1.2448e+002  1.0897e+001 -6.9893e+000 31899 100732,100945,100602
 7.0000e-001 101551 -9.1280e+001 -1.8675e+001 -1.8281e+001 31338 101205,101387,101231
 7.0000e-001 101528 -1.6377e+002 -5.3457e+001 -5.5794e+001 31338 101179,101387,101205
 7.0000e-001 101505 -1.0224e+002 -3.7674e+001 -1.2756e+001 31338 101574,101309,101257
 7.0000e-001 101482 -8.7227e+001 -3.3723e+001 -1.0179e+001 31338 101646,101574,101257
 7.0000e-001 101459 -7.4600e+001 -1.5357e+001 -3.3975e+000 31338 101646,101257,101231
 7.0000e-001 101436 -1.0569e+002 -1.0280e+001 -1.7295e+001 31338 101309,101361,101335
 7.0000e-001 101413 -9.5776e+001 -2.7865e+001 -2.4027e+001 31338 101257,101309,101283
 7.0000e-001 101600 -1.0572e+002 -3.5709e+001 -1.0693e+001 31338 101361,101309,101574
 7.0000e-001 101623 -1.0606e+002 -5.0679e+001 -2.4219e+001 31338 101361,101574,101387
 7.0000e-001 101672 -9.6779e+001 -2.7894e+001 -2.4019e+001 31338 101387,101574,101646
 7.0000e-001 101695 -8.9725e+001 -2.3827e+001 -1.9637e+001 31338 101387,101646,101231
 7.0000e-001 101943 -1.7916e+002 -6.5371e+001  1.1253e+000 30748 101966,101796,101744
 7.0000e-001 101920 -1.6126e+002 -3.5781e+001  1.1338e+001 30748 101966,101744,101718
 7.0000e-001 101897 -1.7183e+002 -6.2688e+000  3.6428e+001 30748 101718,101848,101822
 7.0000e-001 101874 -1.6525e+002 -4.1641e+001 -1.8960e+001 30748 101744,101796,101770
 7.0000e-001 101992 -1.9241e+002 -3.4735e+001  5.6200e+000 30748 101822,101796,101966
 7.0000e-001 102015 -1.8199e+002 -1.0566e+001  1.1753e+001 30748 101822,101966,101718
 7.0000e-001 102493 -1.9895e+002 -2.5330e+001  3.1888e+001 30344 102516,102173,102147
 7.0000e-001 102470 -1.6265e+002 -1.8711e+001 -1.6147e+001 30344 102660,102516,102147
 7.0000e-001 102447 -6.5720e+001  2.0436e+001  1.2784e+001 30344 102588,102199,102173
 7.0000e-001 102424 -1.3560e+002 -4.0169e+001 -1.5801e+001 30344 102660,102147,102329
 7.0000e-001 102401 -2.6302e+002 -2.5654e+001  2.6297e+001 30344 102199,102277,102251
 7.0000e-001 102378 -8.3680e+001 -7.7970e+001  8.2824e+001 30344 102199,102251,102225
 7.0000e-001 102355 -3.0631e+002 -1.0509e+002  9.2176e+001 30344 102121,102329,102147
 7.0000e-001 102542 -1.0624e+002  1.6634e+001  1.8950e+001 30344 102588,102173,102516
 7.0000e-001 102565 -1.4975e+002 -3.6029e+000 -9.6797e-001 30344 102277,102516,102303
 7.0000e-001 102614 -1.1687e+002  3.2241e+001  1.1751e+001 30344 102277,102199,102588
 7.0000e-001 102637 -1.5937e+002  2.6685e+001  9.5274e+000 30344 102277,102588,102516
 7.0000e-001 102686 -1.3326e+002  4.9437e+000 -4.2703e+000 30344 102303,102516,102660
 7.0000e-001 102709 -1.1354e+002 -2.1327e+001 -4.9838e+000 30344 102303,102660,102329
 7.0000e-001 103294 -7.5983e+001 -1.1758e+001  1.7176e+001 29726 103317,103101,103075
 7.0000e-001 103271 -8.4683e+001 -1.1620e+001  1.3222e+001 29726 103317,103075,102997
 7.0000e-001 103248 -1.5893e+002 -3.5223e+001  3.0183e+001 29726 102971,103153,102997
 7.0000e-001 103225 -6.0690e+001 -5.8649e-001 -3.4525e+000 29726 103101,103153,103127
 7.0000e-001 103202 -9.4301e+001 -4.6262e+001  1.3464e+001 29726 102997,103075,103023
 7.0000e-001 103179 -1.1434e+002 -2.2574e+001 -1.2022e+001 29726 103023,103075,103049
 7.0000e-001 103343 -6.9382e+001 -1.3883e+001  1.6174e+001 29726 103153,103101,103317
 7.0000e-001 103366 -7.6573e+001 -1.1784e+001  1.3743e+001 29726 103153,103317,102997
 7.0000e-001 103614 -6.5067e+001 -2.9494e+000  4.7594e+000 29200 103781,103637,103467
 7.0000e-001 103591 -5.2806e+001 -2.0525e+001 -6.8976e+000 29200 103709,103637,103415
 7.0000e-001 103568 -4.3933e+001 -4.8722e+000 -3.3489e+000 29200 103709,103415,103389
 7.0000e-001 103545 -6.9830e+001  4.4580e+000 -1.8798e+000 29200 103781,103467,103441
 7.0000e-001 103663 -5.2680e+001 -6.8600e+000 -1.1547e+001 29200 103853,103637,103493
 7.0000e-001 103686 -9.3500e+001 -7.9859e+001 -3.1261e+001 29200 103493,103637,103519
 7.0000e-001 103735 -6.5352e+001 -2.4244e+000 -1.6229e+001 29200 103519,103637,103709
 7.0000e-001 103758 -5.9104e+001  8.2424e+000 -1.3595e+001 29200 103519,103709,103389
 7.0000e-001 103807 -7.1703e+001 -1.2949e+001  1.0380e+000 29200 103415,103637,103781
 7.0000e-001 103830 -8.2059e+001 -1.1694e+001 -7.3663e+000 29200 103415,103781,103441
 7.0000e-001 103879 -5.3587e+001 -1.6091e+001  6.6978e-001 29200 103467,103637,103853
 7.0000e-001 104545 -2.0004e+002 -1.4286e+001  1.3858e+001 28860 104274,104352,104326
 7.0000e-001 104522 -1.6560e+002 -4.5889e+001 -1.0777e+001 28860 104248,104352,104274
 7.0000e-001 104499 -1.2440e+002 -2.5774e+001 -1.7213e+001 28860 104248,104404,104352
 7.0000e-001 104476 -1.8795e+002 -7.1758e+001 -3.7827e+001 28860 104222,104404,104248
 7.0000e-001 104453 -1.1029e+002 -2.8320e+001 -2.8585e+001 28860 104352,104404,104378
 7.0000e-001 104430 -3.3723e+002 -5.5316e+001  1.2090e+001 28860 104274,104326,104300
 7.0000e-001 104744 -9.8282e+001 -1.9720e+001  1.4165e+001 28456 104839,104767,104646
 7.0000e-001 104721 -7.5863e+001 -1.4521e+001  1.9857e+001 28456 104767,104594,104568
 7.0000e-001 104698 -9.6350e+001 -3.7462e+001  1.8052e+000 28456 104839,104646,104620
 7.0000e-001 104793 -1.0188e+002 -2.6898e+001  2.0152e+001 28456 104672,104646,104767
 7.0000e-001 104816 -7.5158e+001 -1.0482e+001  9.6163e+000 28456 104911,104767,104568
 7.0000e-001 104865 -1.0027e+002 -3.1676e+001  1.1492e+001 28456 104594,104767,104839
 7.0000e-001 104888 -1.0497e+002 -7.3499e+001  2.6614e+000 28456 105041,104839,104620
 7.0000e-001 104937 -1.0856e+002 -7.1351e+001  2.2569e+001 28456 104672,104767,104911
 7.0000e-001 105067 -8.5789e+001 -2.4881e+001  9.2873e+000 28456 104594,104839,105041
 7.0000e-001 105573 -1.6343e+002 -4.3358e+001  1.3674e+001 28094 105812,105596,105328
 7.0000e-001 105550 -1.6498e+002 -5.0529e+001  8.5089e+000 28094 105596,105276,105250
 7.0000e-001 105527 -1.3876e+002 -3.6436e+001  2.8603e+001 28094 105740,105668,105432
 7.0000e-001 105504 -1.3611e+002 -3.0463e+001  2.7975e+001 28094 105740,105432,105380
 7.0000e-001 105481 -1.6636e+002 -4.1367e+001  1.2079e+001 28094 105812,105328,105302
 7.0000e-001 105458 -9.2060e+001 -4.8407e+001  2.6221e+001 28094 105380,105432,105406
 7.0000e-001 105622 -2.0321e+002 -6.7649e+001  3.2075e+001 28094 105354,105328,105596
 7.0000e-001 105645 -1.4830e+002 -4.2658e+001  2.0448e+001 28094 105668,105354,105596
 7.0000e-001 105694 -1.4902e+002 -4.3605e+001  1.8572e+001 28094 105250,105432,105668
 7.0000e-001 105717 -1.6815e+002 -4.1268e+001  1.0483e+001 28094 105250,105668,105596
 7.0000e-001 105766 -1.3629e+002 -4.1346e+001  1.7244e+001 28094 105354,105668,105740
 7.0000e-001 105789 -1.3173e+002 -3.1011e+001  1.6467e+001 28094 105354,105740,105380
 7.0000e-001 105838 -1.6598e+002 -4.7684e+001  1.2471e+001 28094 105276,105596,105812
 7.0000e-001 105861 -1.7281e+002 -4.6986e+001  7.8661e+000 28094 105276,105812,105302
 7.0000e-001 106367 -7.1737e+001 -1.2764e+001 -4.1181e+000 27390 106070,106122,106096
 7.0000e-001 106344 -8.4584e+001 -2.8025e+000 -5.1955e-001 27390 106070,106226,106122
 7.0000e-001 106321 -1.0494e+002  4.5610e+000 -3.3731e+000 27390 106174,106226,106200
 7.0000e-001 106298 -9.3097e+001 -1.8002e+001 -4.2037e+000 27390 106122,106226,106174
 7.0000e-001 106275 -1.0801e+002 -2.7985e+001 -3.8435e+001 27390 106122,106174,106148
 7.0000e-001 106252 -9.0999e+001 -6.6382e+000 -4.1887e+000 27390 106044,106226,106070
 7.0000e-001 106615 -1.3083e+002 -1.4629e+001  4.5222e+000 26978 106638,106494,106416
 7.0000e-001 106592 -1.2861e+002 -2.3580e+001  2.7287e+000 26978 106638,106416,106390
 7.0000e-001 106569 -1.3322e+002 -2.1948e+001 -1.1773e+001 26978 106416,106494,106442
 7.0000e-001 106546 -1.6168e+002 -2.6808e+001 -1.0232e+001 26978 106442,106494,106468
 7.0000e-001 106664 -1.3021e+002 -2.3971e+001  8.3717e+000 26978 106520,106494,106638
 7.0000e-001 106687 -1.2697e+002 -3.1573e+001  3.9026e+000 26978 106520,106638,106390
 7.0000e-001 106837 -2.9227e+002 -1.3627e+002 -1.3302e+001 26524 106710,106762,106736
 7.0000e-001 106814 -2.9612e+002 -1.4593e+002 -1.1639e+001 26524 106710,106788,106762
 7.0000e-001 107426 -6.9613e+001  7.6055e-001 -3.3931e+001 26120 107129,107207,107155
 7.0000e-001 107403 -1.0520e+002 -3.4351e+001 -1.8463e+001 26120 107129,107285,107207
 7.0000e-001 107380 -9.7238e+001 -8.0438e+000 -2.2007e+001 26120 107207,107285,107259
 7.0000e-001 107357 -6.3601e+001 -1.0702e+001 -8.5763e+000 26120 107155,107207,107181
 7.0000e-001 107334 -1.4052e+002 -4.6475e+001 -1.4647e+001 26120 107103,107285,107129
 7.0000e-001 107311 -8.2500e+001  5.9833e+000 -1.6201e+001 26120 107207,107259,107233
 7.0000e-001 107755 -8.8594e+001 -2.3939e+001 -6.3095e+000 25758 107556,107634,107608
 7.0000e-001 107732 -1.4745e+002 -5.2767e+001  1.0789e+001 25758 107556,107660,107634
 7.0000e-001 107709 -7.1622e+001 -3.8205e+001  1.2048e+001 25758 107556,107608,107582
 7.0000e-001 107686 -1.3075e+002  2.5834e+001  3.5777e+001 25758 107530,107660,107556
 7.0000e-001 108438 -8.4318e+001 -3.2135e+001  3.5567e+000 25468 108121,108199,108173
 7.0000e-001 108415 -9.9186e+001 -6.9449e+001  1.4423e+000 25468 108095,108199,108121
 7.0000e-001 108392 -1.0450e+002 -5.9482e+001 -1.9255e-001 25468 108095,108251,108199
 7.0000e-001 108369 -1.1727e+002 -7.2175e+001  7.0967e+000 25468 108069,108251,108095
 7.0000e-001 108346 -1.0115e+002 -6.1552e+001  1.7898e+001 25468 108199,108251,108225
 7.0000e-001 108323 -1.3320e+002 -4.8447e+001 -6.1353e+000 25468 108017,108251,108069
 7.0000e-001 108300 -8.0419e+001 -2.6852e+001  5.3497e+000 25468 108121,108173,108147
 7.0000e-001 108277 -1.3654e+002 -5.3304e+001 -4.5480e+000 25468 108017,108069,108043
 7.0000e-001 108588 -3.3114e+001 -1.1067e+001 -2.2746e+001 25064 108611,108513,108487
 7.0000e-001 108565  1.7736e+001  1.5150e+001 -1.2932e+001 25064 108683,108611,108487
 7.0000e-001 108637 -5.5139e+001  1.0899e+001 -5.9611e+000 25064 108539,108513,108611
 7.0000e-001 108660 -3.9645e+001  1.7888e+001 -3.8068e+000 25064 108539,108611,108461
 7.0000e-001 108709 -4.7218e+001  3.3050e+000 -8.5258e+000 25064 108461,108611,108683
 7.0000e-001 109345 -8.5481e+001 -2.2140e+000 -2.3522e-001 24410 108999,109155,109103
 7.0000e-001 109322 -2.0280e+002 -3.8921e+001  1.6614e+001 24410 108973,109155,108999
 7.0000e-001 109299 -9.3796e+001 -3.6026e+001 -5.2196e+000 24410 109103,109155,109129
 7.0000e-001 109276 -1.0649e+002  2.4765e+001 -1.1490e+001 24410 108973,109181,109155
 7.0000e-001 109253 -1.6156e+002 -4.2973e+001  2.6875e+001 24410 109025,109103,109077
 7.0000e-001 109230 -1.3321e+002 -3.8748e+001  1.5904e+001 24410 108999,109103,109025
 7.0000e-001 109207 -1.9441e+002  1.0711e+001  1.3712e+001 24410 109025,109077,109051
 7.0000e-001 109723 -1.3452e+002  1.5941e+001  1.7741e+000 23856 109475,109579,109553
 7.0000e-001 109700 -1.4779e+002 -3.1497e+001  4.9799e+000 23856 109475,109605,109579
 7.0000e-001 109677 -1.5650e+002 -1.6616e+001 -4.2604e+001 23856 109475,109553,109527
 7.0000e-001 109654 -8.3459e+001 -3.9648e+000  1.7294e+001 23856 109449,109605,109475
 7.0000e-001 109631 -8.9675e+001  1.4765e+001 -2.9082e+001 23856 109475,109527,109501
 7.0000e-001 110101 -7.4077e+001 -2.5365e+001 -1.0047e+001 23566 109853,109931,109879
 7.0000e-001 110078 -8.1445e+001 -1.4673e+001  5.5336e+000 23566 109827,109931,109853
 7.0000e-001 110055 -5.3639e+001  1.9474e+001 -6.7766e+000 23566 109827,109983,109931
 7.0000e-001 110032 -9.2626e+001 -3.2228e+001 -1.1203e+001 23566 109879,109931,109905
 7.0000e-001 110009 -4.8882e+001  9.0377e+000  1.2475e+001 23566 109931,109983,109957
 7.0000e-001 110735 -7.5224e+001  1.0945e+000 -5.4840e+000 23162 110415,110571,110519
 7.0000e-001 110712 -5.9454e+001  2.5119e+000  1.5753e-001 23162 110389,110571,110415
 7.0000e-001 110689 -1.2552e+002 -1.5887e+001  1.1469e+001 23162 110415,110519,110493
 7.0000e-001 110666 -5.1434e+001  9.8141e+000  6.9739e+000 23162 110363,110571,110389
 7.0000e-001 110643 -1.0960e+002 -1.0451e+001  2.5780e+001 23162 110441,110493,110467
 7.0000e-001 110620 -1.0598e+002 -1.8959e+001  1.1801e+001 23162 110415,110493,110441
 7.0000e-001 110597 -8.2167e+001  4.9282e+001  2.3019e+000 23162 110519,110571,110545
 7.0000e-001 111211 -1.3504e+002 -2.8266e+001 -1.7335e+001 22708 111378,111306,111021
 7.0000e-001 111188 -1.4948e+002 -3.1254e+001 -1.6260e+001 22708 111234,110969,110917
 7.0000e-001 111165 -1.3142e+002 -2.6456e+001 -1.2039e+001 22708 111450,111234,110917
 7.0000e-001 111142 -1.2570e+002 -1.1792e+001 -8.7337e+000 22708 111378,111021,110995
 7.0000e-001 111119 -1.3230e+002 -4.0399e+001 -1.3889e-001 22708 111450,110917,110865
 7.0000e-001 111096 -2.5644e+002 -3.4749e+000 -4.0933e+001 22708 110917,110969,110943
 7.0000e-001 111073 -1.3094e+002 -4.5073e+001 -2.8527e+000 22708 110865,110917,110891
 7.0000e-001 111260 -1.4619e+002 -1.3077e+001 -1.3239e+001 22708 111306,110969,111234
 7.0000e-001 111283 -1.4846e+002 -3.3183e+001  1.0556e+001 22708 111047,111234,110839
 7.0000e-001 111332 -2.1315e+002  5.1216e+001 -7.7373e+001 22708 111047,111021,111306
 7.0000e-001 111355 -1.7416e+002 -2.8394e+001  7.7274e+000 22708 111047,111306,111234
 7.0000e-001 111404 -1.4567e+002 -4.7352e+000 -1.9475e+001 22708 110969,111306,111378
 7.0000e-001 111427 -1.4403e+002 -9.6522e+000 -1.7456e+001 22708 110969,111378,110995
 7.0000e-001 111476 -1.4069e+002 -4.6101e+001  4.8222e+000 22708 110839,111234,111450
 7.0000e-001 111499 -1.4858e+002 -6.8177e+001  1.7679e+001 22708 110839,111450,110865
 7.0000e-001 111600 -1.2434e+002 -1.3480e+001  1.2846e+001 22460 111522,111574,111548
 7.0000e-001 112059 -8.7619e+001  9.6408e+000  9.6468e+000 22056 111811,111889,111863
 7.0000e-001 112036 -1.3540e+002 -2.0573e+001  2.3467e+001 22056 111811,111915,111889
 7.0000e-001 112013 -8.4860e+001 -2.9149e+001 -8.7965e+000 22056 111785,111915,111811
 7.0000e-001 111990 -5.7342e+001 -6.7237e+000 -2.1562e+001 22056 111785,111941,111915
 7.0000e-001 111967 -4.5143e+001  2.8081e+001 -1.4370e+001 22056 111811,111863,111837
 7.0000e-001 112486 -1.2674e+002  1.7288e+001  4.0761e+000 21594 112509,112267,112215
 7.0000e-001 112463 -1.1889e+002  2.3324e+001 -1.2156e+001 21594 112509,112215,112163
 7.0000e-001 112440 -1.1683e+002 -3.3585e+001  3.3225e+001 21594 112581,112293,112267
 7.0000e-001 112417 -7.8415e+001 -1.1085e+001 -7.0460e+000 21594 112215,112267,112241
 7.0000e-001 112394 -1.5792e+002  1.1519e+001 -1.5164e+001 21594 112163,112345,112319
 7.0000e-001 112371 -1.1049e+002  3.3595e+001 -7.2284e+000 21594 112163,112215,112189
 7.0000e-001 112535 -1.4017e+002 -9.0360e+000  1.1421e+001 21594 112581,112267,112509
 7.0000e-001 112558 -1.2253e+002  1.0927e+001 -1.1404e+001 21594 112319,112509,112163
 7.0000e-001 112607 -8.2187e+001 -1.0463e+001  1.9574e+001 21594 112319,112293,112581
 7.0000e-001 112630 -1.0080e+002  2.6466e+001 -4.2890e+000 21594 112319,112581,112509
 7.0000e-001 112900 -1.3219e+002 -5.3660e+000 -2.0026e+000 20974 112675,112779,112701
 7.0000e-001 112877 -1.3406e+002  1.5378e+001 -1.3375e+001 20974 112675,112805,112779
 7.0000e-001 112854 -1.5184e+002 -5.0306e+001 -1.5589e+001 20974 112701,112779,112753
 7.0000e-001 112831 -1.6866e+002 -7.9566e+001  6.5514e-001 20974 112701,112753,112727
 7.0000e-001 113359 -8.2344e+001  3.5639e+001  4.9394e+001 20520 113454,113137,113111
 7.0000e-001 113336 -1.1465e+002  1.8207e+000  3.2315e+001 20520 113454,113111,113085
 7.0000e-001 113313 -8.7717e+001 -2.5109e+001  3.6614e+001 20520 113382,113163,113137
 7.0000e-001 113290 -9.9080e+001 -2.4645e+001  3.7054e+001 20520 113526,113382,113137
 7.0000e-001 113267 -7.9126e+001 -1.0099e+000  1.1296e+001 20520 113189,113241,113215
 7.0000e-001 113408 -8.5692e+001 -1.6376e+001  2.7201e+001 20520 113189,113163,113382
 7.0000e-001 113431 -9.9971e+001 -2.5527e+001  2.0668e+001 20520 113189,113382,113241
 7.0000e-001 113480 -1.0424e+002 -9.6188e+000  3.3200e+001 20520 113526,113137,113454
 7.0000e-001 113503 -1.0093e+002 -5.7686e-001  2.0109e+001 20520 113241,113454,113085
 7.0000e-001 113552 -8.8207e+001 -1.9258e+000  2.8580e+001 20520 113241,113382,113526
 7.0000e-001 113575 -9.4560e+001  8.9315e+000  2.3837e+001 20520 113241,113526,113454
 7.0000e-001 113904 -2.7921e+001 -1.7130e+001 -2.8283e+001 19858 113705,113783,113757
 7.0000e-001 113881 -6.0852e+001 -2.3770e+001 -1.6065e+001 19858 113705,113809,113783
 7.0000e-001 113858 -5.3809e+001 -1.8719e+001 -2.3219e+001 19858 113679,113809,113705
 7.0000e-001 113835 -2.7232e+001  4.0753e+000  1.9536e+000 19858 113705,113757,113731
 7.0000e-001 114152 -1.1541e+002 -3.6970e+001 -2.1192e+001 19454 114175,114005,113979
 7.0000e-001 114129 -1.2065e+002 -3.4260e+001 -2.2860e+001 19454 114175,113979,114057
 7.0000e-001 114106 -1.0843e+002  2.1559e+001  2.1701e+001 19454 113927,114057,113979
 7.0000e-001 114083 -9.3363e+001 -1.6168e+000  1.4778e+000 19454 113927,113979,113953
 7.0000e-001 114201 -6.8761e+000  9.5205e+000 -1.4941e+001 19454 114031,114005,114175
 7.0000e-001 114224 -1.1798e+002 -3.9178e+001 -2.2255e+001 19454 114031,114175,114057
 7.0000e-001 114472 -6.5597e+001  1.9765e+001 -1.9907e+001 19000 114495,114273,114247
 7.0000e-001 114449 -6.3219e+001 -2.2799e+000 -1.5559e+001 19000 114495,114247,114325
 7.0000e-001 114426 -8.5906e+001 -1.1506e+001  2.7124e+000 19000 114247,114377,114325
 7.0000e-001 114403 -8.6068e+001 -1.1853e+001  2.6722e+000 19000 114325,114377,114351
 7.0000e-001 114521 -6.5181e+001  1.5754e+001  9.4344e-001 19000 114299,114273,114495
 7.0000e-001 114544 -6.1162e+001 -1.9336e+001 -5.0668e+000 19000 114299,114495,114325
 7.0000e-001 114948 -1.8575e+002 -4.6883e+001 -1.2191e+001 18560 114674,114726,114700
 7.0000e-001 114925 -1.8861e+002 -7.0863e+001 -1.0324e+001 18560 114674,114830,114726
 7.0000e-001 114902 -1.9870e+002 -9.6930e+001 -2.2348e+001 18560 114726,114830,114804
 7.0000e-001 114879 -1.4286e+002 -5.6146e+001 -1.4474e+000 18560 114726,114804,114752
 7.0000e-001 114856 -1.5939e+002 -7.1336e+001  5.1286e+000 18560 114752,114804,114778
 7.0000e-001 115098 -8.5670e+001  2.9066e+001 -1.1237e+001 18156 114971,115023,114997
 7.0000e-001 115075 -1.0912e+002  1.5087e+001 -1.3580e+000 18156 114971,115049,115023
 7.0000e-001 115248 -1.1717e+002  1.1555e+001 -6.6760e+000 17602 115147,115199,115173
 7.0000e-001 115225 -6.1537e+001  1.6830e+001 -3.8821e+000 17602 115121,115199,115147
 7.0000e-001 115652 -9.9661e+001 -2.6885e+001 -1.4860e-001 17354 115430,115534,115508
 7.0000e-001 115629 -8.8005e+001 -2.4570e+000 -6.4497e+000 17354 115404,115534,115430
 7.0000e-001 115606 -7.3334e+001  2.6932e+001 -5.5109e-001 17354 115378,115534,115404
 7.0000e-001 115583 -1.7062e+002 -6.0637e+000  1.8960e+001 17354 115456,115508,115482
 7.0000e-001 115560 -8.8231e+001  2.8264e-001  5.6145e-001 17354 115430,115508,115456
 7.0000e-001 115873 -1.1089e+002 -1.8666e+001  1.5361e+001 16950 115749,115801,115775
 7.0000e-001 115850 -1.3985e+002 -2.7983e+001  1.1121e+001 16950 115697,115801,115749
 7.0000e-001 115827 -1.4258e+002 -4.9009e+001  1.4360e+001 16950 115697,115749,115723
 7.0000e-001 116023 -1.6573e+002 -7.6655e+000  4.3994e+000 16496 115922,115974,115948
 7.0000e-001 116000 -7.9607e+001 -2.6916e+001  9.3549e-001 16496 115896,115974,115922
 7.0000e-001 116126 -1.5506e+002  4.8558e+001 -1.8948e+001 16298 116048,116100,116074
 7.0000e-001 116278 -2.6764e+002 -3.7600e-001 -1.9274e+000 15892 116151,116203,116177
 7.0000e-001 116255 -2.5359e+002 -1.5606e+001 -2.7460e+001 15892 116151,116229,116203
 7.0000e-001 116430 -1.1797e+002 -9.7747e+001 -1.9720e+000 15545 116303,116355,116329
 7.0000e-001 116407 -8.5183e+001 -4.2860e+001  2.3631e+001 15545 116303,116381,116355
 7.0000e-001 116785 -6.5419e+001 -8.2083e+000  1.2968e+001 421 116612,116690,116664
 7.0000e-001 116762 -6.6217e+001 -9.8204e+000  1.8921e+001 421 116560,116690,116612
 7.0000e-001 116739 -5.4037e+001  4.2904e+000  7.3590e-001 421 116560,116612,116586
 7.0000e-001 116716 -2.6107e+001  5.3038e+001  3.1319e+001 421 116612,116664,116638
 8.0000e-001 68048 -2.6049e+002  8.6116e+000 -2.7812e+000 67642 67898,67950,67924
 8.0000e-001 68025 -2.8640e+002 -3.4491e+001  8.2295e+000 67642 67898,67976,67950
 8.0000e-001 68002 -1.9672e+002  5.8949e+000 -3.6470e-001 67642 67872,67976,67898
 8.0000e-001 68367 -1.8519e+002 -4.4065e+001  6.6917e+000 67444 68119,68223,68197
 8.0000e-001 68344 -1.8586e+002 -5.7717e+001  4.9795e+000 67444 68119,68249,68223
 8.0000e-001 68321 -9.3302e+001 -2.1673e+001  6.5545e+000 67444 68093,68249,68119
 8.0000e-001 68298 -1.9801e+002 -6.6989e+001 -8.3259e+000 67444 68119,68197,68171
 8.0000e-001 68275 -1.4928e+002 -2.3908e+001  1.2046e+001 67444 68119,68171,68145
 8.0000e-001 68468 -2.0870e+002 -4.4322e+000  3.4893e+000 67268 68390,68442,68416
 8.0000e-001 68765 -2.4611e+002  6.4007e+001  1.8765e+001 66956 68788,68517,68491
 8.0000e-001 68742 -2.4472e+002 -8.5422e+000  3.5651e+000 66956 68788,68491,68621
 8.0000e-001 68719 -2.6695e+002 -5.5461e+001 -5.9288e+001 66956 68543,68621,68569
 8.0000e-001 68696 -2.3522e+002  4.0058e+000 -5.3593e+000 66956 68491,68647,68621
 8.0000e-001 68673 -3.7867e+002 -1.1536e+002 -9.5172e+001 66956 68569,68621,68595
 8.0000e-001 68814 -2.2237e+002  7.6748e+000  3.9562e+001 66956 68543,68517,68788
 8.0000e-001 68837 -2.2111e+002 -6.4887e+001  1.8008e+001 66956 68543,68788,68621
 8.0000e-001 69107 -1.9773e+002 -1.5530e+002 -1.3387e+001 66758 68882,68986,68908
 8.0000e-001 69084 -1.4495e+002 -1.1649e+002  1.4372e+001 66758 68882,69012,68986
 8.0000e-001 69061 -3.4331e+002 -6.0847e+001 -2.9122e+001 66758 68908,68960,68934
 8.0000e-001 69038 -1.6910e+002 -7.6034e+001 -2.5368e+001 66758 68908,68986,68960
 8.0000e-001 69308 -1.8715e+002  8.3300e+000 -2.9580e+000 66560 69331,69184,69158
 8.0000e-001 69285 -1.9386e+002  5.5767e+000 -4.6380e+000 66560 69331,69158,69132
 8.0000e-001 69262 -1.8577e+002 -3.6480e+001 -1.4035e+001 66560 69184,69236,69210
 8.0000e-001 69357 -1.8187e+002  4.7593e+000 -1.6438e+000 66560 69236,69184,69331
 8.0000e-001 69380 -1.8645e+002  3.0244e+000 -3.6908e+000 66560 69236,69331,69132
 8.0000e-001 69554 -1.0744e+002  7.7778e+001 -1.0740e+000 66270 69427,69479,69453
 8.0000e-001 69531 -1.1016e+002  7.1432e+001 -2.3314e+000 66270 69427,69505,69479
 8.0000e-001 69804 -1.2363e+002 -4.1255e+001  1.5993e+001 66066 69579,69683,69657
 8.0000e-001 69781 -1.4257e+002 -5.0075e+001  2.2652e+001 66066 69579,69709,69683
 8.0000e-001 69758 -1.2178e+002 -1.2755e+001  1.6730e+001 66066 69579,69657,69631
 8.0000e-001 69735 -1.1893e+002 -2.8333e+000  8.7839e+000 66066 69579,69631,69605
 8.0000e-001 70257 -1.6976e+002 -1.1294e+001 -3.2987e+001 65776 69960,70090,69986
 8.0000e-001 70234 -1.5664e+002  1.2020e+000 -1.9307e+001 65776 69934,70090,69960
 8.0000e-001 70211 -4.3706e+001  4.5402e+001 -1.3721e+001 65776 69934,70116,70090
 8.0000e-001 70188 -1.7151e+002  5.9354e+001  0.0000e+000 65776 70038,70090,70064
 8.0000e-001 70165 -1.5565e+002  8.5651e+001 -2.3005e+001 65776 69986,70090,70038
 8.0000e-001 70142 -1.9249e+002 -2.1970e+001 -5.4749e+001 65776 69986,70038,70012
 8.0000e-001 70456 -1.2249e+002 -1.6654e+001  1.4618e+001 65372 70479,70306,70280
 8.0000e-001 70433 -8.8999e+001  3.4365e+001 -6.6097e-001 65372 70479,70280,70384
 8.0000e-001 70410 -9.0308e+001  2.0509e+000 -2.9167e+001 65372 70551,70332,70306
 8.0000e-001 70505 -8.9882e+001 -1.5918e+001 -1.5899e+001 65372 70551,70306,70479
 8.0000e-001 70528 -8.4154e+001  1.0971e+001 -1.6167e+001 65372 70358,70479,70384
 8.0000e-001 70577 -9.5495e+001  2.6757e+001 -2.6919e+001 65372 70358,70332,70551
 8.0000e-001 70600 -8.7181e+001  1.7171e+001 -1.5482e+001 65372 70358,70551,70479
 8.0000e-001 70821 -1.0253e+002 -3.5266e+001 -9.2421e+000 65174 70645,70723,70671
 8.0000e-001 70798 -2.0190e+002 -6.6301e+001  1.1500e+001 65174 70645,70749,70723
 8.0000e-001 70775 -8.0316e+001 -1.1934e+001 -1.8347e+001 65174 70671,70723,70697
 8.0000e-001 71071 -1.1894e+002 -1.7945e+000 -1.3147e+001 64770 71094,70898,70872
 8.0000e-001 71048 -1.1756e+002 -2.6135e+000 -9.4858e+000 64770 71166,71094,70872
 8.0000e-001 71025 -1.1969e+002 -7.5080e+000 -1.2698e+001 64770 71166,70872,70846
 8.0000e-001 71002 -1.9666e+002 -6.1878e+000 -8.8536e+000 64770 70898,70950,70924
 8.0000e-001 71120 -1.1878e+002  9.0642e+000 -1.5407e+001 64770 70950,70898,71094
 8.0000e-001 71143 -1.1748e+002 -1.6867e+000 -8.5559e+000 64770 70950,71094,70976
 8.0000e-001 71192 -1.1787e+002 -1.2903e+001 -1.1312e+001 64770 70976,71094,71166
 8.0000e-001 71215 -1.1748e+002 -1.4688e+001 -1.4337e+001 64770 70976,71166,70846
 8.0000e-001 71514 -1.7685e+002 -3.8674e+001 -5.0638e+000 64572 71681,71537,71318
 8.0000e-001 71491 -2.1238e+002 -2.6432e+000 -1.5433e+001 64572 71537,71266,71240
 8.0000e-001 71468 -1.7321e+002 -1.7626e+001 -3.0158e+001 64572 71609,71396,71370
 8.0000e-001 71445 -1.6474e+002 -6.8042e+001  6.5472e+000 64572 71681,71318,71292
 8.0000e-001 71422 -1.5394e+002 -5.4877e+001 -6.8547e+000 64572 71753,71344,71318
 8.0000e-001 71563 -1.5572e+002 -3.1414e+001 -2.1272e+001 64572 71753,71318,71537
 8.0000e-001 71586 -1.7215e+002 -2.8011e+001 -1.9912e+001 64572 71609,71370,71537
 8.0000e-001 71635 -1.5230e+002  2.0641e+001 -4.9893e+001 64572 71240,71396,71609
 8.0000e-001 71658 -1.7142e+002 -7.1743e+000 -3.5570e+001 64572 71240,71609,71537
 8.0000e-001 71707 -1.7816e+002  1.7010e+001 -4.3796e+000 64572 71266,71537,71681
 8.0000e-001 71730 -1.6986e+002 -9.8376e+000  1.9797e+001 64572 71266,71681,71292
 8.0000e-001 71779 -1.2460e+002 -3.1351e+001 -1.8702e+001 64572 71370,71344,71753
 8.0000e-001 71802 -1.4034e+002 -2.2593e+001 -2.5016e+001 64572 71370,71753,71537
 8.0000e-001 72052 -8.2799e+001 -2.1337e+001 -1.1240e+001 64374 72075,71879,71827
 8.0000e-001 72029 -1.0743e+002 -1.9380e+001 -3.1516e+001 64374 72147,72075,71827
 8.0000e-001 72006 -1.1710e+002  2.7524e+000 -8.5619e+000 64374 72147,71827,71957
 8.0000e-001 71983 -5.6864e+001 -1.2090e+001 -2.6630e+001 64374 71827,71879,71853
 8.0000e-001 72101 -9.1902e+001 -4.4745e+001 -1.1501e+001 64374 71905,71879,72075
 8.0000e-001 72124 -1.2183e+002 -1.9788e+001 -4.5244e+001 64374 71905,72075,71931
 8.0000e-001 72173 -9.3862e+001  3.2951e+001 -3.1934e+001 64374 71931,72075,72147
 8.0000e-001 72196 -1.0924e+002  5.1385e+001 -1.5420e+001 64374 71931,72147,71957
 8.0000e-001 72649 -2.1926e+002 -7.7658e+001  1.2806e+001 63948 72352,72508,72482
 8.0000e-001 72626 -2.3590e+002 -1.1965e+002 -3.2742e+001 63948 72326,72508,72352
 8.0000e-001 72603 -1.7808e+002 -8.2848e+001  2.7545e+000 63948 72672,72430,72378
 8.0000e-001 72580 -1.6942e+002 -2.8013e+001 -1.4746e+001 63948 72672,72378,72352
 8.0000e-001 72557 -1.8452e+002 -1.3293e+002 -2.8585e+000 63948 72744,72456,72430
 8.0000e-001 72534 -1.8193e+002 -4.5424e+001  4.3396e+001 63948 72378,72430,72404
 8.0000e-001 72698 -1.8214e+002 -1.1956e+002  4.5559e+000 63948 72744,72430,72672
 8.0000e-001 72721 -1.8621e+002 -7.3496e+001  4.3243e+000 63948 72482,72672,72352
 8.0000e-001 72770 -2.1011e+002 -1.0850e+002 -5.8826e-001 63948 72482,72456,72744
 8.0000e-001 72793 -1.9087e+002 -7.5828e+001  1.0504e+001 63948 72482,72744,72672
 8.0000e-001 72894 -2.2069e+002 -1.5183e+001  1.6942e+001 63494 72816,72868,72842
 8.0000e-001 73093 -9.0229e+001  7.8267e+001 -1.9783e+001 63132 72943,72995,72969
 8.0000e-001 73070 -2.2703e+002  2.3710e+001 -1.4412e+001 63132 72943,73021,72995
 8.0000e-001 73047 -2.3139e+002 -2.4811e+001 -5.5497e+000 63132 72917,73021,72943
 8.0000e-001 73294 -1.3562e+002 -8.3848e+000  3.0139e+001 62792 73317,73144,73118
 8.0000e-001 73271 -1.2099e+002  1.9621e+001  1.8286e+001 62792 73317,73118,73222
 8.0000e-001 73248 -1.0847e+002 -3.7426e+001  1.5141e+000 62792 73144,73196,73170
 8.0000e-001 73343 -1.1647e+002 -3.2576e+001 -9.8126e-001 62792 73196,73144,73317
 8.0000e-001 73366 -9.5900e+001  1.0896e+001 -1.4209e+001 62792 73196,73317,73222
 8.0000e-001 73616 -2.0506e+002 -4.3439e+001  2.8539e+001 62388 73639,73417,73391
 8.0000e-001 73593 -1.8745e+002 -5.1384e+000  1.0889e+001 62388 73711,73639,73391
 8.0000e-001 73570 -1.9287e+002  2.3315e+001  1.1759e+001 62388 73711,73391,73521
 8.0000e-001 73547 -1.5972e+002  2.6905e+001 -4.6391e+001 62388 73469,73521,73495
 8.0000e-001 73665 -1.6753e+002 -3.0621e+001  3.7949e+000 62388 73443,73417,73639
 8.0000e-001 73688 -1.8872e+002 -9.1129e+000 -6.8920e+000 62388 73443,73639,73469
 8.0000e-001 73737 -1.9514e+002 -2.6369e+001  3.9957e+000 62388 73469,73639,73711
 8.0000e-001 73760 -2.0550e+002 -8.8029e+000  7.5123e+000 62388 73469,73711,73521
 8.0000e-001 74010 -1.9779e+002 -6.6667e+001 -3.1003e+001 61848 74033,73837,73811
 8.0000e-001 73987 -1.0344e+002 -5.6508e+001  7.5813e+000 61848 74033,73811,73785
 8.0000e-001 73964 -1.8485e+002 -3.2406e+001  9.2753e+000 61848 73837,73915,73889
 8.0000e-001 73941 -2.3622e+002  2.8596e+001 -1.8891e+001 61848 73837,73889,73863
 8.0000e-001 74059 -2.0782e+002 -3.4760e+001 -9.7258e+000 61848 73915,73837,74033
 8.0000e-001 74082 -1.9915e+002 -1.2850e+001  3.4031e+000 61848 73915,74033,73785
 8.0000e-001 74283 -1.9857e+002 -1.2519e+000 -2.5737e+001 61444 74306,74133,74107
 8.0000e-001 74260 -2.1023e+002  2.5348e+001  3.9212e+001 61444 74306,74107,74211
 8.0000e-001 74237 -2.5142e+002 -8.5736e+001  2.9112e+001 61444 74378,74185,74159
 8.0000e-001 74332 -2.6180e+002 -2.8909e+001 -3.5796e+001 61444 74159,74133,74306
 8.0000e-001 74355 -2.4814e+002 -1.7810e+001  3.0369e+001 61444 74378,74159,74306
 8.0000e-001 74404 -2.2508e+002 -1.3339e+001  2.3771e+001 61444 74211,74185,74378
 8.0000e-001 74427 -2.3659e+002  1.3144e+000  2.4727e+001 61444 74211,74378,74306
 8.0000e-001 74628 -1.5026e+002  3.2787e+001  4.1098e+001 60990 74478,74530,74504
 8.0000e-001 74605 -1.1972e+002 -6.7784e-001  2.4279e+000 60990 74452,74530,74478
 8.0000e-001 74582 -1.3072e+002 -3.5967e+001  1.8673e+001 60990 74452,74556,74530
 8.0000e-001 75089 -5.4761e+000  9.5405e+000 -4.9993e+000 60486 75112,74945,74919
 8.0000e-001 75066 -2.9471e+001  2.8932e+001  2.4929e+001 60486 75112,74919,74867
 8.0000e-001 75043 -5.6222e+001  1.7795e+001  1.7732e+001 60486 74841,74971,74867
 8.0000e-001 75020 -1.4518e+002  9.5344e+000 -1.1971e+001 60486 74867,74919,74893
 8.0000e-001 74997  1.5871e+001  1.5725e+001 -8.8963e+000 60486 74815,74971,74841
 8.0000e-001 75138 -4.1641e+001 -7.7206e+000 -1.0395e+001 60486 74971,74945,75112
 8.0000e-001 75161 -5.6313e+001  1.3433e+001  1.8574e+001 60486 74971,75112,74867
 8.0000e-001 75409 -1.1109e+002 -2.4848e+000 -2.7971e+001 59932 75576,75432,75288
 8.0000e-001 75386 -1.7109e+002 -2.6521e+001 -2.9964e+001 59932 75504,75314,75288
 8.0000e-001 75363 -1.2890e+002 -1.6807e+001  9.7495e-001 59932 75432,75236,75210
 8.0000e-001 75340 -1.7903e+001  3.5126e+001 -2.2174e+001 59932 75576,75288,75262
 8.0000e-001 75458 -1.7008e+002 -2.5892e+001 -3.0250e+001 59932 75504,75288,75432
 8.0000e-001 75481 -1.7665e+002 -2.2716e+001  1.8540e+001 59932 75184,75432,75210
 8.0000e-001 75530 -2.2429e+002 -7.2322e+001  1.6914e+000 59932 75184,75314,75504
 8.0000e-001 75553 -1.6299e+002 -2.7766e+001 -2.4930e+001 59932 75184,75504,75432
 8.0000e-001 75602 -1.6643e+002  2.2497e+001 -1.6316e+001 59932 75236,75432,75576
 8.0000e-001 75625 -1.5116e+002  1.2461e+001 -2.5143e+001 59932 75236,75576,75262
 8.0000e-001 75873 -8.6948e+001 -2.6811e+000  1.6498e+001 59478 75674,75752,75700
 8.0000e-001 75850 -8.8247e+001 -3.2876e+000  1.4050e+001 59478 75648,75752,75674
 8.0000e-001 75827 -1.3672e+002 -1.0200e+001  1.5496e+001 59478 75700,75752,75726
 8.0000e-001 75804 -9.1003e+001 -7.1542e+000  1.5420e+001 59478 75648,75778,75752
 8.0000e-001 76206 -9.7726e+001 -3.2885e+001 -8.5401e+000 59024 75981,76059,76007
 8.0000e-001 76183 -1.0328e+002 -1.7121e+001 -1.1736e+001 59024 75981,76111,76059
 8.0000e-001 76160 -9.7569e+001 -4.2494e+001 -1.8912e+000 59024 76007,76059,76033
 8.0000e-001 76137 -1.1412e+002 -1.5877e+001 -3.2628e+001 59024 76059,76111,76085
 8.0000e-001 76761 -4.9168e+001 -1.0681e+001  2.1101e+001 58562 76389,76441,76415
 8.0000e-001 76738 -1.0244e+002  2.9711e+000 -1.0250e+001 58562 76856,76784,76389
 8.0000e-001 76715 -1.1921e+002 -7.0162e+000 -2.8768e+001 58562 76784,76571,76467
 8.0000e-001 76692 -1.7501e+002  2.3157e+001 -1.6217e+001 58562 76856,76389,76597
 8.0000e-001 76669 -2.3789e+002 -5.4767e+001 -1.2810e+001 58562 76467,76545,76493
 8.0000e-001 76646 -1.3118e+002 -3.9117e+000 -2.8893e+001 58562 76467,76571,76545
 8.0000e-001 76623 -9.5799e+001  1.8041e+000  7.5981e+000 58562 76493,76545,76519
 8.0000e-001 76810 -9.3619e+001 -7.9073e+000 -1.9858e+001 58562 76441,76389,76784
 8.0000e-001 76833 -1.0662e+002  1.5358e+000 -4.0684e+000 58562 76441,76784,76467
 8.0000e-001 76882 -1.8098e+002 -2.7443e+001 -4.5473e+001 58562 76571,76784,76856
 8.0000e-001 76905 -2.2657e+002  1.1288e+001 -5.2933e+001 58562 76571,76856,76597
 8.0000e-001 77055 -2.1920e+002 -5.4753e+001  2.2577e+000 57844 76928,76980,76954
 8.0000e-001 77032 -1.5409e+002 -4.8460e+000 -2.1759e+001 57844 76928,77006,76980
 8.0000e-001 77533 -1.6866e+002 -3.5920e+001  5.8731e+000 57226 77628,77556,77291
 8.0000e-001 77510 -1.8136e+002  5.3120e+001  1.8057e+001 57226 77556,77187,77343
 8.0000e-001 77487 -1.2590e+002 -9.1068e+000 -7.1370e+000 57226 77628,77291,77265
 8.0000e-001 77464 -1.0842e+002 -2.7781e+001 -1.8119e+001 57226 77700,77213,77187
 8.0000e-001 77441 -3.6572e+002 -2.1574e+001  1.4223e+001 57226 77161,77343,77187
 8.0000e-001 77418 -2.6775e+002 -3.0983e+000  1.9689e+000 57226 77161,77369,77343
 8.0000e-001 77395 -1.0987e+002 -8.5588e+000 -7.0186e+001 57226 77213,77265,77239
 8.0000e-001 77582 -1.5394e+002 -8.9858e+000 -6.2465e+000 57226 77317,77291,77556
 8.0000e-001 77605 -2.4428e+002  1.7136e+001 -8.9359e+000 57226 77317,77556,77343
 8.0000e-001 77654 -9.3404e+001  6.5621e+000  2.2861e+001 57226 77187,77556,77628
 8.0000e-001 77677 -9.3260e+001 -2.8725e+001  3.8154e+000 57226 77700,77187,77628
 8.0000e-001 77726 -1.6055e+002 -5.1355e+001 -4.0383e+001 57226 77265,77213,77700
 8.0000e-001 77749 -1.3979e+002 -3.8243e+001 -1.4617e+001 57226 77265,77700,77628
 8.0000e-001 78046 -2.0560e+002  2.2315e+001 -8.8733e+000 56936 77798,77850,77824
 8.0000e-001 78023 -2.1552e+002 -7.0174e+001 -2.2550e+001 56936 78069,77798,77902
 8.0000e-001 78000 -2.2743e+002 -6.0043e+001 -2.3221e+001 56936 78069,77902,77876
 8.0000e-001 77977 -2.6336e+002 -9.6294e+001 -5.5308e+001 56936 77798,77928,77902
 8.0000e-001 77954 -3.1132e+002 -5.0063e+001 -5.0220e+001 56936 77772,77928,77798
 8.0000e-001 78095 -2.1305e+002 -6.4082e+001 -2.6178e+001 56936 77850,77798,78069
 8.0000e-001 78118 -2.1875e+002 -5.2658e+001 -2.9599e+001 56936 77850,78069,77876
 8.0000e-001 78754 -1.2322e+002 -6.4780e+001  1.1509e+001 56475 78777,78486,78408
 8.0000e-001 78731 -1.8615e+002 -1.0816e+002  3.0537e+001 56475 78777,78408,78382
 8.0000e-001 78708 -1.6832e+002 -7.7545e+001 -1.0916e+001 56475 78849,78512,78486
 8.0000e-001 78685 -1.5872e+002 -4.1126e+001  3.7598e+000 56475 78382,78590,78564
 8.0000e-001 78662 -2.2271e+002 -1.9062e+000 -2.6997e+001 56475 78512,78564,78538
 8.0000e-001 78639 -1.3046e+002 -5.9045e+001  8.7311e+000 56475 78434,78486,78460
 8.0000e-001 78616 -1.2212e+002 -6.2645e+001  1.0835e+001 56475 78408,78486,78434
 8.0000e-001 78803 -1.6676e+002 -6.9944e+001 -3.7217e+000 56475 78849,78486,78777
 8.0000e-001 78826 -1.6877e+002 -5.9657e+001  9.0735e+000 56475 78564,78777,78382
 8.0000e-001 78875 -1.6472e+002 -6.3551e+001 -6.0468e+000 56475 78564,78512,78849
 8.0000e-001 78898 -1.6590e+002 -5.5652e+001 -5.6079e-001 56475 78564,78849,78777
 8.0000e-001 79276 -1.4689e+002 -3.4858e+001  2.7133e+000 55964 79299,79080,79028
 8.0000e-001 79253 -1.8324e+002 -4.8681e+001  4.3525e+000 55964 79299,79028,79132
 8.0000e-001 79230 -1.3119e+002  1.8162e+001 -8.0394e-001 55964 79028,79080,79054
 8.0000e-001 79207 -1.6971e+002 -6.1293e+001 -1.9313e+000 55964 79002,79132,79028
 8.0000e-001 79184 -2.1196e+002 -7.9079e+001 -4.7155e+000 55964 79002,79158,79132
 8.0000e-001 79325 -1.6180e+002 -1.9276e+001 -2.7596e+001 55964 79106,79080,79299
 8.0000e-001 79348 -2.0278e+002 -3.5106e+001 -2.4301e+001 55964 79106,79299,79132
 8.0000e-001 79498 -2.0384e+002 -2.2279e+001 -2.0397e+001 55452 79397,79449,79423
 8.0000e-001 79475 -1.4140e+002  5.5845e+001  6.8583e+000 55452 79371,79449,79397
 8.0000e-001 79795 -1.2576e+002 -3.1892e+001  7.1433e+000 55048 79962,79818,79573
 8.0000e-001 79772 -1.3159e+002 -5.6476e+000 -4.8730e+000 55048 79818,79521,79677
 8.0000e-001 79749 -1.1252e+002 -5.9948e+001  1.2479e+001 55048 79599,79651,79625
 8.0000e-001 79726 -1.4248e+002 -4.8561e+001  5.1106e+000 55048 79890,79651,79599
 8.0000e-001 79703 -1.1711e+002 -1.8230e+001  1.1805e+001 55048 79962,79573,79547
 8.0000e-001 79844 -1.2655e+002 -4.9090e+001  4.3616e+000 55048 79599,79573,79818
 8.0000e-001 79867 -1.3466e+002 -3.1400e+001  7.2239e+000 55048 79890,79599,79818
 8.0000e-001 79916 -1.4378e+002 -4.5508e+001 -1.1599e+001 55048 79677,79651,79890
 8.0000e-001 79939 -1.4026e+002 -3.8579e+001 -9.8769e+000 55048 79677,79890,79818
 8.0000e-001 79988 -1.2806e+002 -3.8695e+001 -3.1063e+000 55048 79521,79818,79962
 8.0000e-001 80011 -1.2580e+002 -3.4611e+001  4.2971e-001 55048 79521,79962,79547
 8.0000e-001 80212 -1.9711e+002  2.3410e+001 -1.4513e+001 54436 80235,80088,80036
 8.0000e-001 80189 -1.3092e+002 -3.0455e+001  9.8963e-001 54436 80235,80036,80140
 8.0000e-001 80166 -1.9093e+002  5.4064e+001 -5.0770e+000 54436 80036,80088,80062
 8.0000e-001 80261 -1.4873e+002  3.8486e+001  1.2974e+001 54436 80114,80088,80235
 8.0000e-001 80284 -5.9348e+001  1.0429e+001  3.4913e+001 54436 80114,80235,80140
 8.0000e-001 80534 -1.7893e+002 -2.1226e+001 -4.2746e+000 54032 80557,80361,80335
 8.0000e-001 80511 -1.5289e+002  1.6428e+000 -1.5641e+001 54032 80557,80335,80309
 8.0000e-001 80488 -1.4808e+002 -4.3380e+001 -2.1161e+000 54032 80629,80413,80387
 8.0000e-001 80465 -1.5182e+002 -6.5299e+001 -1.1126e+001 54032 80309,80439,80413
 8.0000e-001 80583 -1.5725e+002 -2.3290e+001  1.2228e+001 54032 80387,80361,80557
 8.0000e-001 80606 -1.4048e+002 -2.3023e+001  7.4110e+000 54032 80629,80387,80557
 8.0000e-001 80655 -1.5513e+002 -4.3272e+001 -1.4411e+001 54032 80309,80413,80629
 8.0000e-001 80678 -1.5904e+002 -3.8202e+001 -6.2563e+000 54032 80309,80629,80557
 8.0000e-001 81139 -5.1317e+001  6.9020e+001  5.9773e+001 53784 80865,80995,80917
 8.0000e-001 81116 -1.2752e+002  8.0485e+001 -6.1884e+001 53784 80865,81021,80995
 8.0000e-001 81093 -3.5890e+001 -1.2095e+000  1.2749e+001 53784 80943,80995,80969
 8.0000e-001 81070  9.4660e+000  2.9274e+001  5.2955e+001 53784 80917,80995,80943
 8.0000e-001 81047 -1.9657e+002  4.5407e+002  1.6734e+002 53784 80865,80917,80891
 8.0000e-001 81468 -1.3499e+002 -2.2802e+001  4.0851e+000 53230 81295,81373,81347
 8.0000e-001 81445 -1.1924e+002 -9.8998e+000  1.2155e+001 53230 81243,81373,81295
 8.0000e-001 81422 -8.7954e+001 -1.5930e+001  3.7619e+001 53230 81243,81295,81269
 8.0000e-001 81399 -1.5916e+002 -3.3767e+001  6.5884e+000 53230 81295,81347,81321
 8.0000e-001 81618 -2.6475e+002  1.8341e+001 -3.0845e+001 52790 81491,81543,81517
 8.0000e-001 81595 -2.5495e+002 -6.4534e+001 -2.2047e+001 52790 81491,81569,81543
 8.0000e-001 82126 -1.1690e+002 -4.4041e+001  1.6855e+001 52386 82149,81907,81881
 8.0000e-001 82103 -1.1351e+002 -3.4600e+001  1.8695e+001 52386 82149,81881,81855
 8.0000e-001 82080 -1.1490e+002 -5.7993e+001  4.0692e+000 52386 82221,81803,81985
 8.0000e-001 82057 -6.5278e+001 -3.2992e+001  2.2830e+001 52386 81803,81855,81829
 8.0000e-001 82034 -9.8217e+001 -1.9127e+001 -1.2073e+000 52386 81907,81985,81933
 8.0000e-001 82011 -6.9759e+001 -2.0867e+001 -1.9153e-001 52386 81933,81985,81959
 8.0000e-001 82175 -1.1528e+002 -4.0109e+001  1.4751e+001 52386 81985,81907,82149
 8.0000e-001 82198 -1.1848e+002 -4.9621e+001  1.3344e+001 52386 82221,81985,82149
 8.0000e-001 82247 -1.0925e+002 -4.2187e+001  5.3773e+000 52386 81855,81803,82221
 8.0000e-001 82270 -1.1349e+002 -3.2764e+001  1.2654e+001 52386 81855,82221,82149
 8.0000e-001 82825 -2.7067e+002 -4.1366e+001 -7.2543e+001 51782 82505,82661,82635
 8.0000e-001 82802 -1.2577e+002 -4.2319e+001  4.0633e+001 51782 82479,82661,82505
 8.0000e-001 82779 -1.5464e+002 -6.0520e+001  2.8042e+001 51782 82557,82635,82609
 8.0000e-001 82756 -1.7850e+002 -1.1887e+002 -1.1921e+001 51782 82531,82635,82557
 8.0000e-001 82733 -2.3589e+002 -1.9382e-002 -2.9582e+001 51782 82505,82635,82531
 8.0000e-001 82710 -2.0368e+002 -1.6298e+002 -5.0992e+001 51782 82453,82661,82479
 8.0000e-001 82687 -1.6547e+002 -4.4097e+001  3.1710e+001 51782 82557,82609,82583
 8.0000e-001 83171 -1.7632e+002 -1.9811e+001 -1.7902e+001 51442 83194,82978,82900
 8.0000e-001 83148 -1.9820e+002 -4.4894e+001 -2.7159e+001 51442 83194,82900,82874
 8.0000e-001 83125 -2.2723e+002 -3.9977e+001  2.6303e-001 51442 82900,82978,82926
 8.0000e-001 83102 -1.9918e+002 -7.4745e+001 -5.0531e+001 51442 82874,83030,83004
 8.0000e-001 83079 -1.4436e+002 -7.0842e+000  4.3528e+000 51442 82926,82978,82952
 8.0000e-001 83056 -2.5387e+002 -9.7251e+001 -6.1079e+001 51442 82848,83030,82874
 8.0000e-001 83220 -1.4389e+002 -4.1124e+001 -9.4309e+000 51442 83004,82978,83194
 8.0000e-001 83243 -1.7456e+002 -7.6144e+001 -2.2400e+001 51442 83004,83194,82874
 8.0000e-001 83751 -1.3626e+002 -5.3178e+001 -3.7653e+000 50938 83428,83584,83454
 8.0000e-001 83728 -1.7362e+002 -6.7290e+001 -1.3940e+001 50938 83428,83610,83584
 8.0000e-001 83705 -1.6844e+002 -4.3886e+001 -9.5729e+000 50938 83454,83584,83558
 8.0000e-001 83682 -2.2207e+002 -5.9965e+001 -4.2163e+000 50938 83454,83532,83480
 8.0000e-001 83659 -2.0087e+002 -5.7666e+001 -9.8552e+000 50938 83454,83558,83532
 8.0000e-001 83636 -1.2335e+002  4.6260e+001  4.1826e+001 50938 83480,83532,83506
 8.0000e-001 84355 -1.8178e+002 -4.0323e+001  4.1400e+001 50377 84378,83960,83934
 8.0000e-001 84332 -1.4219e+002  1.1586e+000 -4.8311e+001 50377 84522,84378,83934
 8.0000e-001 84309 -1.0588e+002  1.9345e+001  1.1215e+001 50377 84450,84038,84012
 8.0000e-001 84286 -9.1029e+001 -2.9664e+001 -5.2985e+001 50377 84522,83934,84142
 8.0000e-001 84263 -1.1669e+002 -7.1182e+001  9.5091e+000 50377 84594,84090,84038
 8.0000e-001 84240  5.5986e-001 -1.2979e+001  3.2481e+001 50377 83960,84012,83986
 8.0000e-001 84217 -2.8114e+001 -2.8681e+001 -1.4110e+001 50377 83934,84168,84142
 8.0000e-001 84194 -8.6221e+000 -2.7313e+001  2.1308e+001 50377 84038,84090,84064
 8.0000e-001 84404  1.1848e+001  3.3831e+001  3.2848e+001 50377 84012,83960,84378
 8.0000e-001 84427 -1.2411e+002  2.3402e+000 -1.6975e+001 50377 84450,84012,84378
 8.0000e-001 84476 -1.3160e+002 -3.7773e+001  5.6582e+000 50377 84594,84038,84450
 8.0000e-001 84499 -1.2058e+002  6.6116e+000 -1.9037e+001 50377 84116,84450,84378
 8.0000e-001 84548 -8.9995e+001  2.8699e+001 -3.5472e+001 50377 84116,84378,84522
 8.0000e-001 84571 -4.0792e+001 -4.9380e+000 -4.2485e+001 50377 84116,84522,84142
 8.0000e-001 84620 -1.0655e+002 -2.4006e+001 -1.1784e+001 50377 84116,84090,84594
 8.0000e-001 84643 -1.1914e+002  9.1283e+000 -1.7828e+001 50377 84116,84594,84450
 8.0000e-001 84842 -1.8300e+002 -4.1675e+001 -2.2867e+001 49923 84865,84692,84666
 8.0000e-001 84819 -1.5152e+002 -4.8120e+001 -1.8967e+000 49923 84865,84666,84770
 8.0000e-001 84796 -1.0512e+002 -3.6315e+001 -4.5569e+000 49923 84692,84744,84718
 8.0000e-001 84891 -1.6220e+002 -3.2828e+001 -5.7256e+000 49923 84744,84692,84865
 8.0000e-001 84914 -1.2600e+002 -2.7877e+001  1.7942e+001 49923 84744,84865,84770
 8.0000e-001 85501 -1.5270e+002 -1.3980e+001  4.3249e+000 49618 85524,85282,85204
 8.0000e-001 85478 -1.8398e+002 -2.5263e+001  4.5891e+000 49618 85596,85524,85204
 8.0000e-001 85455 -1.9666e+002 -2.0847e+001  2.4796e+000 49618 85596,85204,85178
 8.0000e-001 85432 -1.8298e+002 -1.9486e+001  7.5627e+000 49618 85204,85282,85256
 8.0000e-001 85409 -1.0875e+002  3.1532e+000 -1.4389e+001 49618 85282,85334,85308
 8.0000e-001 85386 -1.6797e+002  1.5244e+001  5.8896e+000 49618 85204,85256,85230
 8.0000e-001 85550 -1.3494e+002 -6.1373e+000 -2.7816e+001 49618 85334,85282,85524
 8.0000e-001 85573 -1.9663e+002 -3.1193e+001 -2.3141e+001 49618 85334,85524,85360
 8.0000e-001 85622 -1.6389e+002 -2.3303e+001  6.7707e-001 49618 85360,85524,85596
 8.0000e-001 85645 -1.7842e+002 -2.0713e+001  9.2593e-001 49618 85360,85596,85178
 8.0000e-001 85795 -3.8752e+002 -1.1641e+002  2.6321e+001 49278 85694,85746,85720
 8.0000e-001 85772 -4.3823e+002 -1.2467e+002 -2.3675e-001 49278 85668,85746,85694
 8.0000e-001 86197 -1.7920e+002 -1.0814e+002 -8.3513e+001 48916 86001,86079,86027
 8.0000e-001 86174 -1.8609e+002 -5.3149e+001 -3.6802e+001 48916 85949,86079,86001
 8.0000e-001 86151 -2.6307e+002 -7.4249e+001 -1.1756e+001 48916 85949,86001,85975
 8.0000e-001 86128 -2.1411e+002 -4.8906e+001 -2.1173e+001 48916 86027,86079,86053
 8.0000e-001 86105 -4.5877e+002 -1.7420e+002 -7.0142e+001 48916 85923,86079,85949
 8.0000e-001 86477 -5.1211e+001  7.9709e+000  2.3889e+001 48398 86327,86379,86353
 8.0000e-001 86454 -6.4850e+001 -4.5570e+001  2.2745e+001 48398 86500,86379,86327
 8.0000e-001 86431 -1.0867e+002 -4.4942e+001  2.6553e+001 48398 86301,86405,86379
 8.0000e-001 86526 -2.3060e+001 -2.5563e+001  2.9491e+001 48398 86301,86379,86500
 8.0000e-001 87032 -1.6975e+002 -4.9296e+001 -7.9335e+000 48008 87127,87055,86787
 8.0000e-001 87009 -1.7315e+002 -6.3925e+001  3.0221e+000 48008 87055,86735,86709
 8.0000e-001 86986 -1.5645e+002 -5.8050e+001 -1.0272e+001 48008 87127,86787,86761
 8.0000e-001 86963 -1.6515e+002 -4.5366e+001  5.6887e-001 48008 86787,86865,86839
 8.0000e-001 86940 -2.3122e+002 -5.3723e+001 -3.0760e+000 48008 86709,86891,86865
 8.0000e-001 86917 -1.9323e+002 -2.8704e+001  1.7944e+001 48008 86787,86839,86813
 8.0000e-001 87081 -1.7370e+002 -5.0080e+001 -3.9824e+000 48008 86865,86787,87055
 8.0000e-001 87104 -1.6292e+002 -4.3275e+001 -3.0721e-001 48008 86865,87055,86709
 8.0000e-001 87153 -1.5158e+002 -4.8971e+001 -5.9549e+000 48008 86735,87055,87127
 8.0000e-001 87176 -1.1879e+002 -4.2112e+001 -1.5539e+001 48008 86735,87127,86761
 8.0000e-001 87456 -9.5977e+001 -4.0661e+001 -9.8178e+000 47604 87306,87358,87332
 8.0000e-001 87433 -1.2211e+002 -6.3164e+001  3.3251e+000 47604 87306,87384,87358
 8.0000e-001 87410 -1.0421e+002 -5.5999e+001 -7.6694e+000 47604 87280,87384,87306
 8.0000e-001 87785 -8.6531e+001 -3.6283e+001  5.8132e-001 47264 87638,87690,87664
 8.0000e-001 87762 -7.6342e+001 -2.3588e+000 -7.3244e+000 47264 87612,87690,87638
 8.0000e-001 87739 -1.0235e+002 -3.1130e+001 -2.4293e+001 47264 87560,87690,87612
 8.0000e-001 87716 -8.8722e+001 -1.0723e+001 -3.1048e+001 47264 87560,87612,87586
 8.0000e-001 87935 -2.2378e+002  2.6939e+001 -2.3386e+000 46952 87808,87860,87834
 8.0000e-001 87912 -2.3127e+002 -2.1699e+000 -8.7888e+000 46952 87808,87886,87860
 8.0000e-001 88281 -1.9419e+002 -6.3929e+001  1.4134e+000 46526 88304,88114,88036
 8.0000e-001 88258 -1.8344e+002 -5.0874e+001  6.8990e+000 46526 88304,88036,87984
 8.0000e-001 88235 -1.7865e+002 -5.0319e+001 -1.9472e+001 46526 88036,88114,88062
 8.0000e-001 88212 -1.7235e+002 -2.0774e+001  3.7444e+001 46526 87958,88140,87984
 8.0000e-001 88189 -1.5731e+002  9.9988e+000  8.2343e+000 46526 87984,88036,88010
 8.0000e-001 88166 -2.2189e+002 -8.5415e+001 -3.5667e+001 46526 88062,88114,88088
 8.0000e-001 88330 -2.0685e+002 -4.8965e+001  1.4461e-001 46526 88140,88114,88304
 8.0000e-001 88353 -1.9979e+002 -3.8499e+001  3.8887e+000 46526 88140,88304,87984
 8.0000e-001 88701 -8.5901e+001 -5.1562e+001 -1.7864e+001 45822 88724,88378,88534
 8.0000e-001 88678 -7.0134e+001 -2.4975e+001 -2.4439e+001 45822 88378,88560,88534
 8.0000e-001 88655 -9.8955e+001 -6.8558e+001  3.8169e-001 45822 88724,88534,88508
 8.0000e-001 88632 -9.6576e+001 -2.2948e+001 -1.5536e+001 45822 88404,88508,88456
 8.0000e-001 88609 -8.7237e+001  9.8297e+000  4.5667e-001 45822 88404,88456,88430
 8.0000e-001 88586 -1.4757e+002 -6.5909e+001  4.3713e+000 45822 88456,88508,88482
 8.0000e-001 88750 -9.6395e+001 -2.4244e+001 -2.8914e+001 45822 88404,88378,88724
 8.0000e-001 88773 -1.0571e+002 -4.1773e+001 -1.2282e+001 45822 88404,88724,88508
 8.0000e-001 89106 -1.3013e+002 -1.6661e+001 -3.6839e+001 45418 88881,88985,88907
 8.0000e-001 89083 -9.1062e+001 -6.1914e+001 -3.3335e+001 45418 88881,89011,88985
 8.0000e-001 89060 -5.8456e+001  3.5744e+001 -1.3127e+001 45418 88907,88985,88933
 8.0000e-001 89037 -6.3768e+001  1.1583e+001 -1.5554e+001 45418 88933,88985,88959
 8.0000e-001 89435 -1.8924e+002 -8.6779e+001  3.9347e+000 44914 89210,89288,89236
 8.0000e-001 89412 -1.5070e+002 -6.0115e+001 -2.5534e+001 44914 89210,89314,89288
 8.0000e-001 89389 -1.8173e+002 -4.4892e+001 -3.4437e+001 44914 89210,89340,89314
 8.0000e-001 89366 -1.7593e+002 -7.9618e+001  7.5599e-001 44914 89236,89288,89262
 8.0000e-001 89634 -8.0984e+001 -3.6982e+001  2.3232e+000 44538 89510,89562,89536
 8.0000e-001 89611 -1.0076e+002 -3.9613e+001 -2.0953e+001 44538 89458,89562,89510
 8.0000e-001 89588 -1.1055e+002 -7.1225e+001 -1.6037e+001 44538 89458,89510,89484
 8.0000e-001 90044 -1.9984e+002 -7.1032e+001  1.5301e+001 44134 89819,89923,89845
 8.0000e-001 90021 -1.6802e+002  2.8335e+001  5.2536e+000 44134 89819,89949,89923
 8.0000e-001 89998 -1.4715e+002 -6.3636e+001 -1.1430e+001 44134 89845,89923,89897
 8.0000e-001 89975 -1.0348e+002 -4.9952e+000  2.0694e+001 44134 89845,89897,89871
 8.0000e-001 90520 -1.7417e+002 -3.7598e+001  7.5929e+000 43457 90543,90252,90226
 8.0000e-001 90497 -1.4027e+002 -4.0742e+001  2.1156e+000 43457 90543,90226,90330
 8.0000e-001 90474 -1.5936e+002 -2.7064e+001 -1.0590e+001 43457 90200,90330,90226
 8.0000e-001 90451 -2.0041e+002 -6.0063e+001 -3.5511e+001 43457 90200,90356,90330
 8.0000e-001 90428 -1.8260e+002 -1.2681e+001  4.8455e+001 43457 90252,90304,90278
 8.0000e-001 90405 -5.6146e+001 -9.6205e+000  2.1716e+001 43457 90174,90356,90200
 8.0000e-001 90382 -1.8714e+002 -1.5723e+002 -3.5971e+001 43457 90148,90356,90174
 8.0000e-001 90569 -2.0325e+002 -3.5495e+001  3.3119e+001 43457 90304,90252,90543
 8.0000e-001 90592 -1.5347e+002 -3.3612e+001  3.3109e+001 43457 90304,90543,90330
 8.0000e-001 91098 -7.9504e+001 -2.1257e+001 -3.1278e+000 42789 90801,90905,90853
 8.0000e-001 91075 -1.0088e+002 -5.7623e+001  6.1909e+000 42789 90775,90905,90801
 8.0000e-001 91052 -9.9136e+001 -1.8674e+001 -1.7272e+001 42789 90775,90931,90905
 8.0000e-001 91029 -5.2158e+001  4.2079e-001  2.3237e+001 42789 90801,90853,90827
 8.0000e-001 91006 -1.0060e+002 -3.7826e+001  3.2289e+001 42789 90853,90905,90879
 8.0000e-001 90983 -1.7210e+002 -2.3311e+001  1.3266e+001 42789 90775,90957,90931
 8.0000e-001 91427 -1.9186e+002 -9.1672e+000 -1.5927e+001 42227 91228,91280,91254
 8.0000e-001 91404 -1.9996e+002 -6.5744e+001  9.0075e+000 42227 91228,91306,91280
 8.0000e-001 91381 -2.0047e+002 -5.9701e+001  3.3174e+001 42227 91202,91306,91228
 8.0000e-001 91358 -1.7566e+002 -5.9322e+001  1.1905e+001 42227 91202,91332,91306
 8.0000e-001 91675 -9.3512e+001 -3.7175e+001 -1.1481e+001 41773 91698,91476,91450
 8.0000e-001 91652 -9.4859e+001 -5.2143e+001  3.7072e+000 41773 91698,91450,91554
 8.0000e-001 91629 -9.0452e+001 -6.4068e+001  4.3886e+000 41773 91450,91580,91554
 8.0000e-001 91606 -1.0307e+002 -3.1872e+001  2.7535e+001 41773 91502,91554,91528
 8.0000e-001 91724 -1.0269e+002 -4.5299e+001 -1.3337e+000 41773 91502,91476,91698
 8.0000e-001 91747 -1.0724e+002 -6.2052e+001  1.4286e+001 41773 91502,91698,91554
 8.0000e-001 92127 -2.1555e+001  1.2852e+001 -3.0421e+001 41255 92150,91905,91879
 8.0000e-001 92104 -1.2066e+002  7.8186e+000  1.3349e+001 41255 92150,91879,91957
 8.0000e-001 92081 -1.1373e+002 -1.0413e+001  2.6585e+001 41255 91853,91957,91879
 8.0000e-001 92058 -1.1693e+002 -1.1787e+001  1.1893e+001 41255 91853,91983,91957
 8.0000e-001 92035 -4.5559e+001 -1.0024e+001  4.0072e+000 41255 91853,92009,91983
 8.0000e-001 92176 -1.0756e+002  3.3545e+001  9.2578e+000 41255 91931,91905,92150
 8.0000e-001 92199 -2.5722e+002 -3.1040e+001  6.9723e+001 41255 91931,92150,91957
 8.0000e-001 92518 -2.1127e+002 -2.8987e+000 -1.1420e+001 41007 92244,92374,92270
 8.0000e-001 92495 -2.4149e+002  1.0936e+001 -1.9352e+001 41007 92244,92400,92374
 8.0000e-001 92472 -1.6702e+002  1.1642e+001 -6.9542e+000 41007 92270,92374,92348
 8.0000e-001 92449 -2.3340e+002 -6.1443e+000  2.2278e+001 41007 92296,92348,92322
 8.0000e-001 92426 -2.1796e+002 -2.0408e+001  1.2255e+001 41007 92270,92348,92296
 8.0000e-001 92668 -6.8230e+001 -2.4919e+001 -2.3951e+001 40717 92823,92691,92567
 8.0000e-001 92645 -6.7671e+001 -1.3358e+001 -2.2278e+001 40717 92895,92823,92567
 8.0000e-001 92717 -6.3900e+001 -2.0318e+001  2.8128e+000 40717 92593,92567,92691
 8.0000e-001 92849 -2.5932e+001 -2.6273e+001 -3.9236e+001 40717 92619,92691,92823
 8.0000e-001 92872 -8.1758e+001 -2.8727e+001 -1.9378e+001 40717 92619,92823,92541
 8.0000e-001 92921 -1.2064e+002 -6.0476e+001  9.9144e+000 40717 92541,92823,92895
 8.0000e-001 93634 -1.9304e+002 -5.5931e+001 -3.9298e+001 40206 93366,93444,93418
 8.0000e-001 93611 -1.5217e+002 -2.6423e+001 -1.5500e+001 40206 93288,93444,93366
 8.0000e-001 93588 -1.5201e+002 -4.8822e+001 -1.7422e+001 40206 93288,93366,93314
 8.0000e-001 93565 -3.0816e+002 -8.0002e+001 -4.0957e+000 40206 93262,93444,93288
 8.0000e-001 93542 -2.2158e+002 -2.9006e+001 -2.1053e+001 40206 93366,93418,93392
 8.0000e-001 93519 -3.5430e+002 -9.8092e-001 -5.5349e+000 40206 93262,93470,93444
 8.0000e-001 93496 -9.2301e+001 -2.3673e+001 -6.0509e+000 40206 93314,93366,93340
 8.0000e-001 94189 -1.6049e+002 -8.0815e+001 -1.9403e+000 39802 93843,93999,93973
 8.0000e-001 94166 -2.0410e+002 -1.0388e+002  9.4363e+000 39802 93817,93999,93843
 8.0000e-001 94143 -2.4608e+002 -8.7779e+001  1.4061e+001 39802 93869,93973,93947
 8.0000e-001 94120 -1.6469e+002 -4.5212e+001 -3.5562e+000 39802 93843,93973,93869
 8.0000e-001 94097 -1.4543e+002 -6.7750e-001  3.0738e-001 39802 93869,93921,93895
 8.0000e-001 94074 -1.5210e+002 -1.8304e+001 -2.1496e+001 39802 93869,93947,93921
 8.0000e-001 94051 -1.3638e+002 -6.4888e+001 -1.7275e+001 39802 93817,94025,93999
 8.0000e-001 94290 -2.3305e+002 -8.8063e+001  4.4034e+000 39398 94212,94264,94238
 8.0000e-001 94798 -9.8294e+001 -2.8586e+001 -8.1301e+000 38701 94501,94657,94631
 8.0000e-001 94775 -8.6691e+001 -1.6650e+001 -2.1071e+000 38701 94475,94657,94501
 8.0000e-001 94752 -1.3626e+002 -2.3435e+001 -2.3267e+000 38701 94579,94631,94605
 8.0000e-001 94729 -1.4757e+002 -3.5618e+001 -1.0291e+001 38701 94553,94631,94579
 8.0000e-001 94706 -6.8830e+001 -5.3082e+000 -1.9232e+001 38701 94501,94631,94553
 8.0000e-001 94683 -6.3888e+001 -1.4694e+001 -1.8740e+001 38701 94501,94553,94527
 8.0000e-001 95255 -8.9826e+001 -2.6873e+001  1.2018e+001 38247 95278,95085,95007
 8.0000e-001 95232 -9.8270e+001 -2.2288e+001  2.3257e+001 38247 95278,95007,95137
 8.0000e-001 95209 -1.2341e+002 -1.9036e+001  5.0503e+000 38247 94981,95137,95007
 8.0000e-001 95186 -8.7648e+001 -1.8576e+001  5.2893e+000 38247 95007,95059,95033
 8.0000e-001 95163 -1.1265e+002 -6.6369e+001  2.8764e+001 38247 95007,95085,95059
 8.0000e-001 95304 -7.9140e+001 -8.9087e+000  3.3877e+000 38247 95111,95085,95278
 8.0000e-001 95327 -9.1897e+001 -1.7170e+001  1.6171e+001 38247 95111,95278,95137
 8.0000e-001 95575 -2.4618e+002  2.6487e+001 -2.0286e+001 37564 95376,95428,95402
 8.0000e-001 95552 -2.5268e+002 -1.1754e+002 -1.1067e+001 37564 95376,95454,95428
 8.0000e-001 95529 -2.3398e+002 -1.1375e+002 -1.6461e+001 37564 95376,95480,95454
 8.0000e-001 95506 -2.2097e+002 -6.0178e+001 -2.8688e-001 37564 95350,95480,95376
 8.0000e-001 96034 -2.9073e+001 -5.8164e-001  5.8641e+000 37224 95786,95838,95812
 8.0000e-001 96011 -2.6322e+001  1.6453e+001 -1.7874e+000 37224 95786,95890,95838
 8.0000e-001 95988  1.8814e+001  3.0813e+001 -1.6963e+001 37224 95786,95916,95890
 8.0000e-001 95965 -4.3063e+001 -1.4724e+001  1.7246e+001 37224 95760,95916,95786
 8.0000e-001 95942 -5.3112e+000 -7.3178e+000 -3.6283e+001 37224 95838,95890,95864
 8.0000e-001 96363 -1.2079e+002 -1.4136e+001 -1.3929e+001 36884 96216,96268,96242
 8.0000e-001 96340 -1.2637e+002 -1.5544e+001 -1.4616e+001 36884 96164,96268,96216
 8.0000e-001 96317 -1.6413e+002 -6.1601e+001  1.8556e+001 36884 96138,96268,96164
 8.0000e-001 96294 -1.2203e+002 -3.0776e+000 -1.1418e+001 36884 96164,96216,96190
 8.0000e-001 96839 -1.4647e+002 -1.9277e+001 -1.5135e+001 36572 96862,96649,96597
 8.0000e-001 96816 -1.5725e+002 -3.3314e+001 -1.0442e+001 36572 97006,96862,96597
 8.0000e-001 96793 -1.4373e+002 -3.0479e+001 -6.8762e+000 36572 96934,96467,96675
 8.0000e-001 96770 -1.4291e+002 -5.0779e+001  1.1880e+001 36572 97006,96597,96571
 8.0000e-001 96747 -1.4376e+002 -4.4625e+001 -2.0827e+001 36572 96467,96519,96493
 8.0000e-001 96724 -3.0089e+002 -3.2242e+001  1.0975e+002 36572 96519,96571,96545
 8.0000e-001 96701 -1.0397e+002 -6.5494e+000  3.0193e+001 36572 96597,96649,96623
 8.0000e-001 96888 -1.6537e+002 -2.8183e+001 -1.8053e+001 36572 96675,96649,96862
 8.0000e-001 96911 -1.6093e+002 -2.2019e+001 -9.9114e+000 36572 96934,96675,96862
 8.0000e-001 96960 -1.3149e+002 -2.1979e+001 -1.1486e+001 36572 96519,96467,96934
 8.0000e-001 96983 -1.4515e+002 -1.7758e+001 -1.1159e+001 36572 97078,96934,96862
 8.0000e-001 97032 -1.4442e+002 -1.3146e+001 -4.6870e+000 36572 97078,96862,97006
 8.0000e-001 97055 -1.2182e+002 -1.1924e+001  1.9966e+001 36572 96519,97006,96571
 8.0000e-001 97104 -1.4074e+002 -6.8111e+000 -9.1846e+000 36572 96519,96934,97078
 8.0000e-001 97127 -1.4269e+002 -3.6296e+000 -4.0929e+000 36572 96519,97078,97006
 8.0000e-001 97761 -1.0744e+002 -6.7235e+000  2.5587e+001 36118 97784,97493,97415
 8.0000e-001 97738 -1.3315e+002 -2.7423e+001  3.6405e+001 36118 97784,97415,97597
 8.0000e-001 97715 -2.3264e+002 -4.7930e+001  6.1972e+001 36118 97389,97597,97415
 8.0000e-001 97692 -2.2489e+002 -7.5241e+001  5.7353e+001 36118 97415,97467,97441
 8.0000e-001 97669 -1.9554e+002 -5.7445e+001  8.0071e+001 36118 97415,97493,97467
 8.0000e-001 97646 -1.3078e+002 -3.8833e+001 -4.1303e+001 36118 97493,97571,97519
 8.0000e-001 97623 -8.2686e+001 -1.3265e+001  9.8004e+000 36118 97519,97571,97545
 8.0000e-001 97810 -1.3037e+002  4.0582e+001 -2.7537e+000 36118 97571,97493,97784
 8.0000e-001 97833 -1.9599e+002  1.0440e+000  1.6699e+001 36118 97571,97784,97597
 8.0000e-001 98081 -8.8040e+001 -6.0959e+001  7.5361e+000 35564 98104,97908,97856
 8.0000e-001 98058 -1.1827e+002 -8.3852e+001  2.4619e+001 35564 98104,97856,97986
 8.0000e-001 98035 -2.1239e+002 -8.5796e+001  1.7790e+001 35564 97934,97986,97960
 8.0000e-001 98012 -6.9143e+001 -8.1298e+000 -8.9850e+000 35564 97856,97908,97882
 8.0000e-001 98130 -1.2901e+002  3.0348e+001  2.6588e+000 35564 97934,97908,98104
 8.0000e-001 98153 -1.6659e+002 -4.6114e+001  3.9072e+001 35564 97934,98104,97986
 8.0000e-001 98374 -2.5414e+002 -2.6641e+001 -4.9245e+000 35152 98224,98302,98276
 8.0000e-001 98351 -2.4583e+002 -6.6728e+000 -4.9807e+000 35152 98198,98302,98224
 8.0000e-001 98328 -2.2734e+002 -1.6469e+001 -1.0566e+001 35152 98224,98276,98250
 8.0000e-001 98884 -9.7557e+001  5.1420e+001  2.0560e+001 34698 98691,98743,98717
 8.0000e-001 98861 -1.1935e+002  2.7058e+001 -1.4013e+001 34698 98561,98743,98691
 8.0000e-001 98838 -9.4611e+001 -1.7583e+001 -5.1165e+000 34698 98907,98587,98561
 8.0000e-001 98815 -9.4648e+001 -2.5190e+001 -1.3528e+001 34698 98907,98561,98691
 8.0000e-001 98792 -4.3481e+001  5.2998e+001 -1.2285e+001 34698 98587,98639,98613
 8.0000e-001 98769 -9.1302e+001 -3.7142e+001  7.7385e+000 34698 98587,98665,98639
 8.0000e-001 98933 -8.5738e+001 -1.7018e+001  1.4264e+000 34698 98665,98587,98907
 8.0000e-001 98956 -8.5365e+001 -2.7525e+001 -7.2271e+000 34698 98665,98907,98691
 8.0000e-001 99204 -1.8555e+002 -2.5214e+001 -1.3056e+001 34144 99227,99031,99005
 8.0000e-001 99181 -1.9691e+002 -5.8456e+001  1.6635e+001 34144 99299,99227,99005
 8.0000e-001 99158 -2.1256e+002 -4.8842e+001  4.0373e+001 34144 99299,99005,99109
 8.0000e-001 99135 -1.3569e+002 -1.3349e+001  5.8901e+001 34144 98979,99109,99005
 8.0000e-001 99253 -1.7685e+002 -3.1164e+001 -4.4867e+000 34144 99057,99031,99227
 8.0000e-001 99276 -8.1313e+001 -1.7502e+001 -7.8053e+000 34144 99057,99227,99083
 8.0000e-001 99325 -1.6220e+002 -1.2866e+001 -2.2083e+001 34144 99083,99227,99299
 8.0000e-001 99348 -2.1266e+002 -1.8481e+001  2.5342e+000 34144 99083,99299,99109
 8.0000e-001 99498 -4.3730e+002 -1.0269e+002  4.0045e+001 33433 99397,99449,99423
 8.0000e-001 99475 -4.9522e+002 -1.2634e+002  4.8947e+000 33433 99371,99449,99397
 8.0000e-001 100008 -1.3573e+002 -1.7819e+001 -1.5144e+000 32979 100103,100031,99815
 8.0000e-001 99985 -1.2826e+002 -1.3308e+001 -1.1658e+001 32979 100175,100031,99763
 8.0000e-001 99962 -1.3739e+002 -2.2307e+001 -4.5725e+000 32979 100103,99815,99789
 8.0000e-001 99939 -1.3866e+002 -1.7362e+001 -4.2319e+000 32979 100175,99763,99737
 8.0000e-001 99916 -1.3353e+002  3.1274e+001 -4.5065e+000 32979 99685,99867,99737
 8.0000e-001 99893 -7.9279e+001  6.4387e+000 -6.7395e+001 32979 99685,99737,99711
 8.0000e-001 100057 -1.2290e+002 -1.2990e+001 -1.3954e-001 32979 99841,99815,100031
 8.0000e-001 100080 -1.2110e+002  1.1727e+001 -2.0202e+001 32979 99841,100031,99867
 8.0000e-001 100129 -1.2483e+002 -2.8420e+001 -4.9747e+000 32979 99763,100031,100103
 8.0000e-001 100152 -1.3256e+002 -3.7558e+001 -9.6858e+000 32979 99763,100103,99789
 8.0000e-001 100201 -1.4422e+002 -1.6568e+001 -9.7935e+000 32979 99867,100031,100175
 8.0000e-001 100224 -1.4651e+002 -1.3551e+001 -3.2305e+000 32979 99867,100175,99737
 8.0000e-001 100553 -1.0202e+002 -5.3314e+000  2.7754e+001 32503 100354,100406,100380
 8.0000e-001 100530 -6.0714e+001  6.5465e+001 -2.1272e+001 32503 100328,100406,100354
 8.0000e-001 100507 -8.7964e+001 -3.0635e+001 -4.0839e+001 32503 100328,100458,100406
 8.0000e-001 100484 -3.3845e+001 -2.9213e+001 -1.5596e+001 32503 100406,100458,100432
 8.0000e-001 100850 -1.4080e+002 -1.1835e+001  1.8287e+001 31899 100873,100654,100628
 8.0000e-001 100827 -1.3977e+002 -3.3787e+001  9.4875e-002 31899 100945,100873,100628
 8.0000e-001 100804 -1.4107e+002 -1.6607e+001 -1.1610e-001 31899 100945,100628,100602
 8.0000e-001 100781 -1.0023e+002  1.2326e+001 -1.9668e+001 31899 100576,100732,100602
 8.0000e-001 100758 -1.0336e+002 -7.8841e+000  3.0034e+001 31899 100654,100706,100680
 8.0000e-001 100899 -1.3192e+002 -7.2244e+001  2.3383e+001 31899 100706,100654,100873
 8.0000e-001 100922 -1.6096e+002 -4.4488e+001 -2.4839e+001 31899 100706,100873,100732
 8.0000e-001 100971 -1.4543e+002 -1.0676e+001 -8.9802e+000 31899 100732,100873,100945
 8.0000e-001 100994 -1.4622e+002  7.6256e+000 -8.3553e+000 31899 100732,100945,100602
 8.0000e-001 101551 -1.0780e+002 -1.4661e+001 -1.8032e+001 31338 101205,101387,101231
 8.0000e-001 101528 -2.3052e+002 -7.2171e+001 -6.7368e+001 31338 101179,101387,101205
 8.0000e-001 101505 -1.1640e+002 -4.2761e+001 -1.1858e+001 31338 101574,101309,101257
 8.0000e-001 101482 -9.8462e+001 -3.8622e+001 -8.9597e+000 31338 101646,101574,101257
 8.0000e-001 101459 -8.3573e+001 -1.6362e+001 -1.1809e+000 31338 101646,101257,101231
 8.0000e-001 101436 -1.2430e+002 -1.0223e+001 -1.8444e+001 31338 101309,101361,101335
 8.0000e-001 101413 -1.0799e+002 -3.1287e+001 -2.4580e+001 31338 101257,101309,101283
 8.0000e-001 101600 -1.2213e+002 -4.0753e+001 -8.5658e+000 31338 101361,101309,101574
 8.0000e-001 101623 -1.2043e+002 -5.8099e+001 -2.4812e+001 31338 101361,101574,101387
 8.0000e-001 101672 -1.0904e+002 -3.1251e+001 -2.5663e+001 31338 101387,101574,101646
 8.0000e-001 101695 -1.0091e+002 -2.6203e+001 -2.0677e+001 31338 101387,101646,101231
 8.0000e-001 101943 -2.0391e+002 -7.6045e+001  7.4798e-001 30748 101966,101796,101744
 8.0000e-001 101920 -1.9032e+002 -4.2352e+001  1.1382e+001 30748 101966,101744,101718
 8.0000e-001 101897 -1.8793e+002 -4.9955e+000  3.8781e+001 30748 101718,101848,101822
 8.0000e-001 101874 -1.8811e+002 -4.9344e+001 -2.1800e+001 30748 101744,101796,101770
 8.0000e-001 101992 -2.1553e+002 -4.2970e+001  4.5196e+000 30748 101822,101796,101966
 8.0000e-001 102015 -2.0825e+002 -1.3697e+001  1.0537e+001 30748 101822,101966,101718
 8.0000e-001 102493 -2.2502e+002 -2.9963e+001  3.7851e+001 30344 102516,102173,102147
 8.0000e-001 102470 -1.8493e+002 -2.0932e+001 -1.5679e+001 30344 102660,102516,102147
 8.0000e-001 102447 -7.6111e+001  2.2445e+001  1.4243e+001 30344 102588,102199,102173
 8.0000e-001 102424 -1.5515e+002 -4.5481e+001 -1.5382e+001 30344 102660,102147,102329
 8.0000e-001 102401 -3.0126e+002 -3.0244e+001  3.0302e+001 30344 102199,102277,102251
 8.0000e-001 102378 -1.0013e+002 -9.6510e+001  9.6903e+001 30344 102199,102251,102225
 8.0000e-001 102355 -3.5617e+002 -1.2397e+002  1.0612e+002 30344 102121,102329,102147
 8.0000e-001 102542 -1.2177e+002  1.7347e+001  2.1662e+001 30344 102588,102173,102516
 8.0000e-001 102565 -1.7119e+002 -2.5590e+000 -2.1453e-001 30344 102277,102516,102303
 8.0000e-001 102614 -1.3417e+002  3.6349e+001  1.3661e+001 30344 102277,102199,102588
 8.0000e-001 102637 -1.8190e+002  2.9767e+001  1.1644e+001 30344 102277,102588,102516
 8.0000e-001 102686 -1.5264e+002  6.1967e+000 -2.6260e+000 30344 102303,102516,102660
 8.0000e-001 102709 -1.3076e+002 -2.3453e+001 -3.6191e+000 30344 102303,102660,102329
 8.0000e-001 103294 -9.2922e+001 -1.3541e+001  2.1142e+001 29726 103317,103101,103075
 8.0000e-001 103271 -1.0277e+002 -1.5137e+001  1.6698e+001 29726 103317,103075,102997
 8.0000e-001 103248 -1.8409e+002 -4.1976e+001  3.5629e+001 29726 102971,103153,102997
 8.0000e-001 103225 -7.4242e+001  5.7938e-001 -4.4049e+000 29726 103101,103153,103127
 8.0000e-001 103202 -1.1255e+002 -5.5279e+001  1.5933e+001 29726 102997,103075,103023
 8.0000e-001 103179 -1.3741e+002 -2.7015e+001 -1.4631e+001 29726 103023,103075,103049
 8.0000e-001 103343 -8.5662e+001 -1.7319e+001  2.0305e+001 29726 103153,103101,103317
 8.0000e-001 103366 -9.3330e+001 -1.6032e+001  1.7659e+001 29726 103153,103317,102997
 8.0000e-001 103614 -7.6684e+001 -4.8830e+000  4.3939e+000 29200 103781,103637,103467
 8.0000e-001 103591 -6.4475e+001 -2.1035e+001 -9.0073e+000 29200 103709,103637,103415
 8.0000e-001 103568 -5.4759e+001 -6.2481e+000 -4.7064e+000 29200 103709,103415,103389
 8.0000e-001 103545 -8.3005e+001  3.5341e+000 -3.3261e+000 29200 103781,103467,103441
 8.0000e-001 103663 -5.8592e+001 -7.7742e+000 -1.2439e+001 29200 103853,103637,103493
 8.0000e-001 103686 -1.0865e+002 -8.7072e+001 -3.5667e+001 29200 103493,103637,103519
 8.0000e-001 103735 -7.8709e+001 -3.5687e+000 -1.8091e+001 29200 103519,103637,103709
 8.0000e-001 103758 -7.1335e+001  6.4069e+000 -1.4839e+001 29200 103519,103709,103389
 8.0000e-001 103807 -8.5456e+001 -1.5146e+001 -1.8846e+000 29200 103415,103637,103781
 8.0000e-001 103830 -1.0029e+002 -1.4904e+001 -1.1447e+001 29200 103415,103781,103441
 8.0000e-001 103879 -6.1032e+001 -1.6740e+001 -1.3828e+000 29200 103467,103637,103853
 8.0000e-001 104545 -2.2497e+002 -1.1251e+001  1.6977e+001 28860 104274,104352,104326
 8.0000e-001 104522 -1.8778e+002 -5.1371e+001 -1.3400e+001 28860 104248,104352,104274
 8.0000e-001 104499 -1.4217e+002 -2.9900e+001 -1.9269e+001 28860 104248,104404,104352
 8.0000e-001 104476 -2.1367e+002 -7.8677e+001 -4.1576e+001 28860 104222,104404,104248
 8.0000e-001 104453 -1.2533e+002 -3.2005e+001 -3.2637e+001 28860 104352,104404,104378
 8.0000e-001 104430 -3.8647e+002 -6.0579e+001  1.5768e+001 28860 104274,104326,104300
 8.0000e-001 104744 -1.0702e+002 -1.4551e+001  1.6802e+001 28456 104839,104767,104646
 8.0000e-001 104721 -7.2456e+001 -1.1663e+001  2.5549e+001 28456 104767,104594,104568
 8.0000e-001 104698 -1.0484e+002 -3.4515e+001  2.9022e+000 28456 104839,104646,104620
 8.0000e-001 104793 -1.1607e+002 -2.4841e+001  2.4092e+001 28456 104672,104646,104767
 8.0000e-001 104816 -8.1587e+001 -1.2095e+001  1.6406e+001 28456 104911,104767,104568
 8.0000e-001 104865 -1.0990e+002 -2.7597e+001  1.4722e+001 28456 104594,104767,104839
 8.0000e-001 104888 -1.1499e+002 -7.6066e+001  4.0198e+000 28456 105041,104839,104620
 8.0000e-001 104937 -1.1843e+002 -7.8624e+001  3.0871e+001 28456 104672,104767,104911
 8.0000e-001 105067 -9.1004e+001 -1.8996e+001  1.2615e+001 28456 104594,104839,105041
 8.0000e-001 105573 -1.8463e+002 -4.2665e+001  1.7975e+001 28094 105812,105596,105328
 8.0000e-001 105550 -1.8665e+002 -5.2020e+001  1.1091e+001 28094 105596,105276,105250
 8.0000e-001 105527 -1.5410e+002 -3.6900e+001  3.5398e+001 28094 105740,105668,105432
 8.0000e-001 105504 -1.5185e+002 -2.9693e+001  3.5669e+001 28094 105740,105432,105380
 8.0000e-001 105481 -1.8837e+002 -3.9995e+001  1.5856e+001 28094 105812,105328,105302
 8.0000e-001 105458 -1.0266e+002 -5.0724e+001  3.3999e+001 28094 105380,105432,105406
 8.0000e-001 105622 -2.3031e+002 -7.2099e+001  3.9040e+001 28094 105354,105328,105596
 8.0000e-001 105645 -1.6631e+002 -4.2939e+001  2.5216e+001 28094 105668,105354,105596
 8.0000e-001 105694 -1.6675e+002 -4.6488e+001  2.3373e+001 28094 105250,105432,105668
 8.0000e-001 105717 -1.9030e+002 -4.3475e+001  1.3268e+001 28094 105250,105668,105596
 8.0000e-001 105766 -1.5327e+002 -4.3519e+001  2.2042e+001 28094 105354,105668,105740
 8.0000e-001 105789 -1.4831e+002 -3.1007e+001  2.2240e+001 28094 105354,105740,105380
 8.0000e-001 105838 -1.8802e+002 -4.8223e+001  1.6392e+001 28094 105276,105596,105812
 8.0000e-001 105861 -1.9709e+002 -4.7401e+001  1.0417e+001 28094 105276,105812,105302
 8.0000e-001 106367 -8.8803e+001 -1.5735e+001 -5.2288e+000 27390 106070,106122,106096
 8.0000e-001 106344 -1.0272e+002 -6.3025e+000 -1.2073e+000 27390 106070,106226,106122
 8.0000e-001 106321 -1.2671e+002  3.5806e+000 -4.1620e+000 27390 106174,106226,106200
 8.0000e-001 106298 -1.1213e+002 -2.2856e+001 -5.3845e+000 27390 106122,106226,106174
 8.0000e-001 106275 -1.3093e+002 -3.5213e+001 -4.7897e+001 27390 106122,106174,106148
 8.0000e-001 106252 -1.0759e+002 -8.8826e+000 -2.8498e+000 27390 106044,106226,106070
 8.0000e-001 106615 -1.5356e+002 -1.6426e+001  5.1873e+000 26978 106638,106494,106416
 8.0000e-001 106592 -1.5170e+002 -2.6784e+001  2.9976e+000 26978 106638,106416,106390
 8.0000e-001 106569 -1.5726e+002 -2.5263e+001 -1.3638e+001 26978 106416,106494,106442
 8.0000e-001 106546 -1.8829e+002 -3.0153e+001 -1.1664e+001 26978 106442,106494,106468
 8.0000e-001 106664 -1.5130e+002 -2.7287e+001  9.6390e+000 26978 106520,106494,106638
 8.0000e-001 106687 -1.4900e+002 -3.6608e+001  4.2961e+000 26978 106520,106638,106390
 8.0000e-001 106837 -3.3174e+002 -1.5452e+002 -1.5947e+001 26524 106710,106762,106736
 8.0000e-001 106814 -3.3682e+002 -1.6520e+002 -1.3745e+001 26524 106710,106788,106762
 8.0000e-001 107426 -8.3065e+001 -2.1323e+000 -3.5428e+001 26120 107129,107207,107155
 8.0000e-001 107403 -1.2134e+002 -4.1153e+001 -1.8787e+001 26120 107129,107285,107207
 8.0000e-001 107380 -1.1375e+002 -1.1082e+001 -2.5211e+001 26120 107207,107285,107259
 8.0000e-001 107357 -7.3647e+001 -1.3869e+001 -7.0352e+000 26120 107155,107207,107181
 8.0000e-001 107334 -1.6770e+002 -5.7580e+001 -1.4758e+001 26120 107103,107285,107129
 8.0000e-001 107311 -9.8721e+001  5.7712e+000 -1.8510e+001 26120 107207,107259,107233
 8.0000e-001 107755 -9.5491e+001 -2.1534e+001 -6.4478e+000 25758 107556,107634,107608
 8.0000e-001 107732 -1.6289e+002 -5.3810e+001  1.2979e+001 25758 107556,107660,107634
 8.0000e-001 107709 -7.3597e+001 -3.5891e+001  1.6159e+001 25758 107556,107608,107582
 8.0000e-001 107686 -1.4382e+002  3.7347e+001  4.1921e+001 25758 107530,107660,107556
 8.0000e-001 108438 -9.2464e+001 -3.2321e+001  3.5905e+000 25468 108121,108199,108173
 8.0000e-001 108415 -1.0920e+002 -7.4790e+001  6.2726e-001 25468 108095,108199,108121
 8.0000e-001 108392 -1.1540e+002 -6.3376e+001 -1.2975e+000 25468 108095,108251,108199
 8.0000e-001 108369 -1.3024e+002 -7.7511e+001  7.3018e+000 25468 108069,108251,108095
 8.0000e-001 108346 -1.0772e+002 -6.3668e+001  1.7243e+001 25468 108199,108251,108225
 8.0000e-001 108323 -1.4973e+002 -5.0335e+001 -8.6881e+000 25468 108017,108251,108069
 8.0000e-001 108300 -8.7133e+001 -2.6354e+001  6.2129e+000 25468 108121,108173,108147
 8.0000e-001 108277 -1.5467e+002 -5.9081e+001 -6.7319e+000 25468 108017,108069,108043
 8.0000e-001 108588 -3.5100e+001 -1.1554e+001 -2.6131e+001 25064 108611,108513,108487
 8.0000e-001 108565  1.8765e+001  1.9458e+001 -1.3554e+001 25064 108683,108611,108487
 8.0000e-001 108637 -5.7540e+001  1.4071e+001 -8.5803e+000 25064 108539,108513,108611
 8.0000e-001 108660 -4.2743e+001  2.5583e+001 -2.8661e+000 25064 108539,108611,108461
 8.0000e-001 108709 -5.3340e+001  3.6959e+000 -7.4625e+000 25064 108461,108611,108683
 8.0000e-001 109345 -1.0009e+002 -3.0519e+000  2.6380e+000 24410 108999,109155,109103
 8.0000e-001 109322 -2.3385e+002 -4.5442e+001  2.0999e+001 24410 108973,109155,108999
 8.0000e-001 109299 -1.0897e+002 -3.9584e+001 -2.7262e+000 24410 109103,109155,109129
 8.0000e-001 109276 -1.1757e+002  2.3818e+001 -9.9060e+000 24410 108973,109181,109155
 8.0000e-001 109253 -1.8781e+002 -4.8012e+001  3.5187e+001 24410 109025,109103,109077
 8.0000e-001 109230 -1.5536e+002 -4.4169e+001  2.0991e+001 24410 108999,109103,109025
 8.0000e-001 109207 -2.3143e+002  1.4049e+001  2.0646e+001 24410 109025,109077,109051
 8.0000e-001 109723 -1.5449e+002  2.0255e+001  1.7769e+000 23856 109475,109579,109553
 8.0000e-001 109700 -1.6675e+002 -3.3280e+001  3.8500e+000 23856 109475,109605,109579
 8.0000e-001 109677 -1.7841e+002 -1.4519e+001 -4.8347e+001 23856 109475,109553,109527
 8.0000e-001 109654 -9.3036e+001 -1.7085e+000  1.8461e+001 23856 109449,109605,109475
 8.0000e-001 109631 -1.0035e+002  2.1812e+001 -3.2681e+001 23856 109475,109527,109501
 8.0000e-001 110101 -9.7543e+001 -2.1122e+001 -1.9415e+000 23566 109853,109931,109879
 8.0000e-001 110078 -1.0061e+002 -1.4843e+001  6.6677e+000 23566 109827,109931,109853
 8.0000e-001 110055 -6.5313e+001  2.1488e+001 -7.6473e+000 23566 109827,109983,109931
 8.0000e-001 110032 -1.1124e+002 -3.3063e+001 -8.6304e+000 23566 109879,109931,109905
 8.0000e-001 110009 -5.8765e+001  1.0856e+001  1.5505e+001 23566 109931,109983,109957
 8.0000e-001 110735 -9.1750e+001  1.4781e+000 -7.3162e+000 23162 110415,110571,110519
 8.0000e-001 110712 -7.3299e+001  4.2309e+000 -6.6015e-001 23162 110389,110571,110415
 8.0000e-001 110689 -1.4967e+002 -1.8101e+001  1.2252e+001 23162 110415,110519,110493
 8.0000e-001 110666 -6.4077e+001  1.2449e+001  6.9097e+000 23162 110363,110571,110389
 8.0000e-001 110643 -1.3328e+002 -1.2254e+001  2.9095e+001 23162 110441,110493,110467
 8.0000e-001 110620 -1.2976e+002 -2.2343e+001  1.3004e+001 23162 110415,110493,110441
 8.0000e-001 110597 -9.6898e+001  6.1458e+001  5.0390e-001 23162 110519,110571,110545
 8.0000e-001 111211 -1.5431e+002 -2.7567e+001 -2.2075e+001 22708 111378,111306,111021
 8.0000e-001 111188 -1.6754e+002 -3.1333e+001 -1.9375e+001 22708 111234,110969,110917
 8.0000e-001 111165 -1.4645e+002 -2.5480e+001 -1.4384e+001 22708 111450,111234,110917
 8.0000e-001 111142 -1.4309e+002 -6.3632e+000 -1.3835e+001 22708 111378,111021,110995
 8.0000e-001 111119 -1.4756e+002 -4.1591e+001 -8.2935e-001 22708 111450,110917,110865
 8.0000e-001 111096 -2.8748e+002  3.1840e+000 -4.8874e+001 22708 110917,110969,110943
 8.0000e-001 111073 -1.4545e+002 -4.6545e+001 -4.3250e+000 22708 110865,110917,110891
 8.0000e-001 111260 -1.6268e+002 -8.4150e+000 -1.6320e+001 22708 111306,110969,111234
 8.0000e-001 111283 -1.6709e+002 -3.3525e+001  1.2595e+001 22708 111047,111234,110839
 8.0000e-001 111332 -2.4689e+002  6.5467e+001 -9.3630e+001 22708 111047,111021,111306
 8.0000e-001 111355 -1.9995e+002 -2.8330e+001  8.7345e+000 22708 111047,111306,111234
 8.0000e-001 111404 -1.6257e+002  2.8030e+000 -2.6025e+001 22708 110969,111306,111378
 8.0000e-001 111427 -1.6181e+002 -2.4692e+000 -2.4562e+001 22708 110969,111378,110995
 8.0000e-001 111476 -1.5681e+002 -4.8191e+001  5.2546e+000 22708 110839,111234,111450
 8.0000e-001 111499 -1.6600e+002 -7.3760e+001  1.9898e+001 22708 110839,111450,110865
 8.0000e-001 111600 -1.4609e+002 -1.6070e+001  1.4230e+001 22460 111522,111574,111548
 8.0000e-001 112059 -1.0601e+002  6.8889e+000  1.0508e+001 22056 111811,111889,111863
 8.0000e-001 112036 -1.6064e+002 -2.2325e+001  2.4526e+001 22056 111811,111915,111889
 8.0000e-001 112013 -1.0528e+002 -3.0844e+001 -1.0015e+001 22056 111785,111915,111811
 8.0000e-001 111990 -6.7298e+001 -4.4716e+000 -2.3298e+001 22056 111785,111941,111915
 8.0000e-001 111967 -5.5473e+001  3.1705e+001 -1.7761e+001 22056 111811,111863,111837
 8.0000e-001 112486 -1.4459e+002  1.5758e+001  2.0165e+000 21594 112509,112267,112215
 8.0000e-001 112463 -1.4212e+002  1.9304e+001 -1.3010e+001 21594 112509,112215,112163
 8.0000e-001 112440 -1.3479e+002 -3.9450e+001  3.1177e+001 21594 112581,112293,112267
 8.0000e-001 112417 -9.5277e+001 -2.0289e+001 -8.5381e+000 21594 112215,112267,112241
 8.0000e-001 112394 -1.8411e+002  1.0605e+001 -1.8304e+001 21594 112163,112345,112319
 8.0000e-001 112371 -1.3288e+002  3.6330e+001 -9.4517e+000 21594 112163,112215,112189
 8.0000e-001 112535 -1.5897e+002 -1.3536e+001  8.5099e+000 21594 112581,112267,112509
 8.0000e-001 112558 -1.4206e+002  1.0397e+001 -1.4127e+001 21594 112319,112509,112163
 8.0000e-001 112607 -9.9481e+001 -1.5164e+001  1.6303e+001 21594 112319,112293,112581
 8.0000e-001 112630 -1.1830e+002  2.4450e+001 -8.3275e+000 21594 112319,112581,112509
 8.0000e-001 112900 -1.4441e+002  6.3395e+000 -2.1724e+000 20974 112675,112779,112701
 8.0000e-001 112877 -1.4698e+002  3.0503e+001 -1.5464e+001 20974 112675,112805,112779
 8.0000e-001 112854 -1.6833e+002 -4.6800e+001 -1.8345e+001 20974 112701,112779,112753
 8.0000e-001 112831 -1.8518e+002 -7.4753e+001 -2.9178e+000 20974 112701,112753,112727
 8.0000e-001 113359 -9.0839e+001  4.3504e+001  5.5138e+001 20520 113454,113137,113111
 8.0000e-001 113336 -1.2738e+002  5.0042e+000  3.5671e+001 20520 113454,113111,113085
 8.0000e-001 113313 -9.6271e+001 -2.6100e+001  4.0525e+001 20520 113382,113163,113137
 8.0000e-001 113290 -1.0980e+002 -2.5212e+001  4.1201e+001 20520 113526,113382,113137
 8.0000e-001 113267 -8.7812e+001  1.4236e-001  1.2200e+001 20520 113189,113241,113215
 8.0000e-001 113408 -9.3827e+001 -1.5656e+001  2.9341e+001 20520 113189,113163,113382
 8.0000e-001 113431 -1.1059e+002 -2.6081e+001  2.2293e+001 20520 113189,113382,113241
 8.0000e-001 113480 -1.1576e+002 -8.0564e+000  3.6754e+001 20520 113526,113137,113454
 8.0000e-001 113503 -1.1189e+002  1.8573e+000  2.1788e+001 20520 113241,113454,113085
 8.0000e-001 113552 -9.7259e+001  5.1998e-001  3.1581e+001 20520 113241,113382,113526
 8.0000e-001 113575 -1.0453e+002  1.2985e+001  2.6143e+001 20520 113241,113526,113454
 8.0000e-001 113904 -2.9541e+001 -1.8550e+001 -3.2842e+001 19858 113705,113783,113757
 8.0000e-001 113881 -7.0384e+001 -2.6496e+001 -1.7675e+001 19858 113705,113809,113783
 8.0000e-001 113858 -6.0845e+001 -1.9982e+001 -2.6170e+001 19858 113679,113809,113705
 8.0000e-001 113835 -2.8242e+001  7.9695e+000  3.7175e+000 19858 113705,113757,113731
 8.0000e-001 114152 -1.2950e+002 -3.4978e+001 -2.4477e+001 19454 114175,114005,113979
 8.0000e-001 114129 -1.3577e+002 -3.1554e+001 -2.6451e+001 19454 114175,113979,114057
 8.0000e-001 114106 -1.2585e+002  2.2881e+001  2.5722e+001 19454 113927,114057,113979
 8.0000e-001 114083 -1.0924e+002 -3.0373e+000  3.1756e+000 19454 113927,113979,113953
 8.0000e-001 114201  2.1035e+000  2.1373e+001 -1.6769e+001 19454 114031,114005,114175
 8.0000e-001 114224 -1.3254e+002 -3.7678e+001 -2.5686e+001 19454 114031,114175,114057
 8.0000e-001 114472 -6.9531e+001 -1.7841e+001 -1.0509e+001 19000 114495,114273,114247
 8.0000e-001 114449 -7.9336e+001 -6.3243e+000 -1.8144e+001 19000 114495,114247,114325
 8.0000e-001 114426 -1.0727e+002 -1.8653e+001  4.0892e+000 19000 114247,114377,114325
 8.0000e-001 114403 -1.0510e+002 -1.2997e+001  3.5208e+000 19000 114325,114377,114351
 8.0000e-001 114521 -4.5224e+001 -6.8137e+000 -1.3893e+001 19000 114299,114273,114495
 8.0000e-001 114544 -7.4103e+001 -3.7527e+000 -1.9114e+001 19000 114299,114495,114325
 8.0000e-001 114948 -2.0755e+002 -4.7697e+001 -1.4958e+001 18560 114674,114726,114700
 8.0000e-001 114925 -2.1196e+002 -7.5527e+001 -1.2368e+001 18560 114674,114830,114726
 8.0000e-001 114902 -2.2387e+002 -1.0634e+002 -2.6746e+001 18560 114726,114830,114804
 8.0000e-001 114879 -1.5986e+002 -6.0206e+001 -2.8634e+000 18560 114726,114804,114752
 8.0000e-001 114856 -1.7883e+002 -7.9251e+001  4.8604e+000 18560 114752,114804,114778
 8.0000e-001 115098 -1.1106e+002  1.4744e+001 -1.4034e+001 18156 114971,115023,114997
 8.0000e-001 115075 -1.3509e+002  6.2164e+000 -4.0110e+000 18156 114971,115049,115023
 8.0000e-001 115248 -1.4520e+002  3.1923e+001  1.4179e+001 17602 115147,115199,115173
 8.0000e-001 115225 -8.0366e+001 -4.7030e+000 -5.6090e-001 17602 115121,115199,115147
 8.0000e-001 115652 -1.1913e+002 -3.7275e+001 -7.6709e-001 17354 115430,115534,115508
 8.0000e-001 115629 -1.0482e+002 -7.7908e+000 -8.4404e+000 17354 115404,115534,115430
 8.0000e-001 115606 -8.8056e+001  2.2947e+001  8.3411e-001 17354 115378,115534,115404
 8.0000e-001 115583 -2.0362e+002 -1.8189e+001  2.2278e+001 17354 115456,115508,115482
 8.0000e-001 115560 -1.0651e+002 -7.1121e+000 -1.2654e-001 17354 115430,115508,115456
 8.0000e-001 115873 -1.2316e+002 -2.3748e+001  1.5737e+001 16950 115749,115801,115775
 8.0000e-001 115850 -1.5943e+002 -3.0477e+001  1.2502e+001 16950 115697,115801,115749
 8.0000e-001 115827 -1.6221e+002 -5.6554e+001  1.7062e+001 16950 115697,115749,115723
 8.0000e-001 116023 -1.9609e+002 -8.4321e+000  6.6003e+000 16496 115922,115974,115948
 8.0000e-001 116000 -8.7735e+001 -3.2386e+001  2.2789e+000 16496 115896,115974,115922
 8.0000e-001 116126 -1.7829e+002  3.6442e+001 -1.9307e+001 16298 116048,116100,116074
 8.0000e-001 116278 -3.3872e+002 -6.2343e-001 -2.3152e+000 15892 116151,116203,116177
 8.0000e-001 116255 -3.2104e+002 -1.8620e+001 -3.3833e+001 15892 116151,116229,116203
 8.0000e-001 116430 -1.4028e+002 -1.1581e+002 -1.6902e+000 15545 116303,116355,116329
 8.0000e-001 116407 -1.0499e+002 -5.1888e+001  2.8216e+001 15545 116303,116381,116355
 8.0000e-001 116785 -7.0986e+001 -5.6134e+000  1.4072e+001 421 116612,116690,116664
 8.0000e-001 116762 -7.3272e+001 -1.0649e+001  2.0930e+001 421 116560,116690,116612
 8.0000e-001 116739 -5.9981e+001  4.9172e+000  7.4187e-001 421 116560,116612,116586
 8.0000e-001 116716 -2.6599e+001  6.2758e+001  3.4703e+001 421 116612,116664,116638
 9.0000e-001 68048 -2.9050e+002  2.7864e+000 -2.9099e+000 67642 67898,67950,67924
 9.0000e-001 68025 -3.1391e+002 -3.3212e+001  7.7466e+000 67642 67898,67976,67950
 9.0000e-001 68002 -2.1592e+002  1.0810e+001 -1.4132e+000 67642 67872,67976,67898
 9.0000e-001 68367 -2.0365e+002 -4.9868e+001  2.9785e+000 67444 68119,68223,68197
 9.0000e-001 68344 -2.0661e+002 -6.3525e+001  2.8267e+000 67444 68119,68249,68223
 9.0000e-001 68321 -1.0109e+002 -2.3795e+001  7.0909e+000 67444 68093,68249,68119
 9.0000e-001 68298 -2.1842e+002 -7.8454e+001 -9.7833e+000 67444 68119,68197,68171
 9.0000e-001 68275 -1.7493e+002 -2.9564e+001  1.4550e+001 67444 68119,68171,68145
 9.0000e-001 68468 -2.1548e+002 -1.2393e+001  1.0694e+001 67268 68390,68442,68416
 9.0000e-001 68765 -2.5902e+002  6.2289e+001  2.2455e+001 66956 68788,68517,68491
 9.0000e-001 68742 -2.5814e+002 -1.0583e+001  7.1209e+000 66956 68788,68491,68621
 9.0000e-001 68719 -2.7937e+002 -5.8216e+001 -5.5629e+001 66956 68543,68621,68569
 9.0000e-001 68696 -2.5249e+002 -6.9058e+000 -1.2530e+000 66956 68491,68647,68621
 9.0000e-001 68673 -3.8377e+002 -1.1305e+002 -8.8911e+001 66956 68569,68621,68595
 9.0000e-001 68814 -2.3432e+002  5.4096e+000  4.3471e+001 66956 68543,68517,68788
 9.0000e-001 68837 -2.3376e+002 -6.7641e+001  2.1737e+001 66956 68543,68788,68621
 9.0000e-001 69107 -2.1724e+002 -1.7412e+002 -1.4707e+001 66758 68882,68986,68908
 9.0000e-001 69084 -1.6380e+002 -1.3339e+002  1.5566e+001 66758 68882,69012,68986
 9.0000e-001 69061 -3.8267e+002 -6.8961e+001 -3.3455e+001 66758 68908,68960,68934
 9.0000e-001 69038 -1.8424e+002 -8.4656e+001 -2.8533e+001 66758 68908,68986,68960
 9.0000e-001 69308 -1.9250e+002 -3.5864e+000 -2.2952e+000 66560 69331,69184,69158
 9.0000e-001 69285 -1.9164e+002 -4.7733e+000 -2.4722e+000 66560 69331,69158,69132
 9.0000e-001 69262 -2.0506e+002 -4.7054e+001 -4.4476e+000 66560 69184,69236,69210
 9.0000e-001 69357 -1.9226e+002 -4.7200e+000 -1.8409e+000 66560 69236,69184,69331
 9.0000e-001 69380 -1.9207e+002 -6.5328e+000 -1.7323e+000 66560 69236,69331,69132
 9.0000e-001 69554 -1.3158e+002 -1.5697e+000  6.5609e+000 66270 69427,69479,69453
 9.0000e-001 69531 -1.1674e+002  3.3116e+001  1.3400e+001 66270 69427,69505,69479
 9.0000e-001 69804 -1.3013e+002 -3.7447e+001  1.8249e+001 66066 69579,69683,69657
 9.0000e-001 69781 -1.5180e+002 -4.4236e+001 -2.4614e+000 66066 69579,69709,69683
 9.0000e-001 69758 -1.1217e+002 -1.6321e+001  1.0114e+001 66066 69579,69657,69631
 9.0000e-001 69735 -1.0623e+002 -7.4642e-001  6.4782e+000 66066 69579,69631,69605
 9.0000e-001 70257 -1.8189e+002 -4.4969e+000 -4.0434e+001 65776 69960,70090,69986
 9.0000e-001 70234 -1.6735e+002  5.7807e+000 -2.2921e+001 65776 69934,70090,69960
 9.0000e-001 70211 -4.6961e+001  5.3590e+001 -1.6237e+001 65776 69934,70116,70090
 9.0000e-001 70188 -1.8692e+002  7.3092e+001  0.0000e+000 65776 70038,70090,70064
 9.0000e-001 70165 -1.6810e+002  1.0456e+002 -2.7561e+001 65776 69986,70090,70038
 9.0000e-001 70142 -2.1120e+002 -2.0019e+001 -6.4451e+001 65776 69986,70038,70012
 9.0000e-001 70456 -1.3644e+002 -1.9428e+001  1.8817e+001 65372 70479,70306,70280
 9.0000e-001 70433 -9.2974e+001  4.2220e+001 -2.0935e+000 65372 70479,70280,70384
 9.0000e-001 70410 -9.9786e+001  5.3580e+000 -3.9020e+001 65372 70551,70332,70306
 9.0000e-001 70505 -9.6614e+001 -1.9214e+001 -2.0525e+001 65372 70551,70306,70479
 9.0000e-001 70528 -8.2612e+001  1.5281e+001 -2.0626e+001 65372 70358,70479,70384
 9.0000e-001 70577 -1.0324e+002  3.9484e+001 -3.4871e+001 65372 70358,70332,70551
 9.0000e-001 70600 -9.0179e+001  2.6105e+001 -1.8597e+001 65372 70358,70551,70479
 9.0000e-001 70821 -1.1521e+002 -4.3661e+001 -8.8290e+000 65174 70645,70723,70671
 9.0000e-001 70798 -2.3603e+002 -8.5789e+001  6.8953e+000 65174 70645,70749,70723
 9.0000e-001 70775 -8.9011e+001 -1.6547e+001 -1.9508e+001 65174 70671,70723,70697
 9.0000e-001 71071 -1.3646e+002 -3.1944e+000 -1.6292e+001 64770 71094,70898,70872
 9.0000e-001 71048 -1.3326e+002 -4.3579e+000 -9.8055e+000 64770 71166,71094,70872
 9.0000e-001 71025 -1.3740e+002 -7.9435e+000 -1.1661e+001 64770 71166,70872,70846
 9.0000e-001 71002 -2.0471e+002 -1.0961e+001 -1.0140e+001 64770 70898,70950,70924
 9.0000e-001 71120 -1.3264e+002  4.7330e+000 -1.5022e+001 64770 70950,70898,71094
 9.0000e-001 71143 -1.1916e+002 -1.9308e+000 -9.2593e+000 64770 70950,71094,70976
 9.0000e-001 71192 -1.3046e+002 -1.1228e+001 -1.3310e+001 64770 70976,71094,71166
 9.0000e-001 71215 -1.3235e+002 -1.2829e+001 -1.4669e+001 64770 70976,71166,70846
 9.0000e-001 71514 -1.9094e+002 -4.3122e+001 -9.0019e+000 64572 71681,71537,71318
 9.0000e-001 71491 -2.3625e+002 -1.6711e+000 -1.7437e+001 64572 71537,71266,71240
 9.0000e-001 71468 -1.8503e+002 -1.4373e+001 -3.3734e+001 64572 71609,71396,71370
 9.0000e-001 71445 -1.7606e+002 -7.8374e+001  4.8799e+000 64572 71681,71318,71292
 9.0000e-001 71422 -1.6395e+002 -5.8995e+001 -1.2602e+001 64572 71753,71344,71318
 9.0000e-001 71563 -1.6551e+002 -3.2626e+001 -2.8117e+001 64572 71753,71318,71537
 9.0000e-001 71586 -1.8499e+002 -2.5325e+001 -2.3271e+001 64572 71609,71370,71537
 9.0000e-001 71635 -1.6201e+002  2.6616e+001 -5.7481e+001 64572 71240,71396,71609
 9.0000e-001 71658 -1.8549e+002 -3.4642e+000 -4.2264e+001 64572 71240,71609,71537
 9.0000e-001 71707 -1.9079e+002  2.1884e+001 -7.4629e+000 64572 71266,71537,71681
 9.0000e-001 71730 -1.7892e+002 -9.3187e+000  2.1135e+001 64572 71266,71681,71292
 9.0000e-001 71779 -1.3202e+002 -3.2237e+001 -2.5581e+001 64572 71370,71344,71753
 9.0000e-001 71802 -1.4914e+002 -2.2604e+001 -3.2413e+001 64572 71370,71753,71537
 9.0000e-001 72052 -8.6036e+001 -2.5005e+001 -9.7040e+000 64374 72075,71879,71827
 9.0000e-001 72029 -1.1609e+002 -2.4181e+001 -3.1711e+001 64374 72147,72075,71827
 9.0000e-001 72006 -1.2897e+002 -9.0167e-001 -6.7732e+000 64374 72147,71827,71957
 9.0000e-001 71983 -6.7470e+001 -1.1764e+001 -1.9840e+001 64374 71827,71879,71853
 9.0000e-001 72101 -9.7399e+001 -4.9448e+001 -1.2633e+001 64374 71905,71879,72075
 9.0000e-001 72124 -1.3196e+002 -2.3893e+001 -4.8437e+001 64374 71905,72075,71931
 9.0000e-001 72173 -9.9778e+001  3.1500e+001 -3.3483e+001 64374 71931,72075,72147
 9.0000e-001 72196 -1.1717e+002  5.1727e+001 -1.5255e+001 64374 71931,72147,71957
 9.0000e-001 72649 -2.4367e+002 -8.4475e+001  1.4529e+001 63948 72352,72508,72482
 9.0000e-001 72626 -2.6299e+002 -1.3189e+002 -3.6759e+001 63948 72326,72508,72352
 9.0000e-001 72603 -1.9775e+002 -9.1464e+001  2.2765e+000 63948 72672,72430,72378
 9.0000e-001 72580 -1.8716e+002 -3.1285e+001 -1.7077e+001 63948 72672,72378,72352
 9.0000e-001 72557 -2.0423e+002 -1.4721e+002 -3.5816e+000 63948 72744,72456,72430
 9.0000e-001 72534 -2.0310e+002 -5.0865e+001  4.8755e+001 63948 72378,72430,72404
 9.0000e-001 72698 -2.0166e+002 -1.3231e+002  4.6765e+000 63948 72744,72430,72672
 9.0000e-001 72721 -2.0531e+002 -8.0842e+001  4.8808e+000 63948 72482,72672,72352
 9.0000e-001 72770 -2.3255e+002 -1.2007e+002 -1.0948e+000 63948 72482,72456,72744
 9.0000e-001 72793 -2.1127e+002 -8.3737e+001  1.1221e+001 63948 72482,72744,72672
 9.0000e-001 72894 -2.4546e+002 -1.7180e+001  1.9185e+001 63494 72816,72868,72842
 9.0000e-001 73093 -1.1531e+002  6.9852e+001 -1.7993e+001 63132 72943,72995,72969
 9.0000e-001 73070 -2.5879e+002  1.1348e+001 -1.5944e+001 63132 72943,73021,72995
 9.0000e-001 73047 -2.5871e+002 -2.7773e+001 -5.6985e+000 63132 72917,73021,72943
 9.0000e-001 73294 -1.5912e+002 -1.1492e+001  2.8976e+001 62792 73317,73144,73118
 9.0000e-001 73271 -1.4418e+002  1.4741e+001  1.2366e+001 62792 73317,73118,73222
 9.0000e-001 73248 -1.1945e+002 -3.7675e+001  1.9146e+000 62792 73144,73196,73170
 9.0000e-001 73343 -1.3530e+002 -3.2636e+001 -8.4251e-001 62792 73196,73144,73317
 9.0000e-001 73366 -1.1508e+002  8.3684e+000 -1.8996e+001 62792 73196,73317,73222
 9.0000e-001 73616 -2.2607e+002 -3.8216e+001  2.6069e+001 62388 73639,73417,73391
 9.0000e-001 73593 -2.0936e+002 -2.0665e+000  7.7070e+000 62388 73711,73639,73391
 9.0000e-001 73570 -2.1449e+002  2.1809e+001  8.6678e+000 62388 73711,73391,73521
 9.0000e-001 73547 -1.7369e+002  3.9436e+001 -5.3382e+001 62388 73469,73521,73495
 9.0000e-001 73665 -1.8717e+002 -2.4641e+001  2.3772e+000 62388 73443,73417,73639
 9.0000e-001 73688 -2.0995e+002 -2.5600e+000 -9.0638e+000 62388 73443,73639,73469
 9.0000e-001 73737 -2.1649e+002 -1.9873e+001  1.8358e+000 62388 73469,73639,73711
 9.0000e-001 73760 -2.2543e+002 -4.8489e+000  4.8791e+000 62388 73469,73711,73521
 9.0000e-001 74010 -2.2062e+002 -6.9161e+001 -3.6638e+001 61848 74033,73837,73811
 9.0000e-001 73987 -9.2589e+001 -4.7701e+001  4.9694e+000 61848 74033,73811,73785
 9.0000e-001 73964 -1.9841e+002 -2.9655e+001  2.0772e+001 61848 73837,73915,73889
 9.0000e-001 73941 -2.7656e+002  3.5684e+001 -2.1023e+001 61848 73837,73889,73863
 9.0000e-001 74059 -2.3399e+002 -2.9811e+001 -9.5571e+000 61848 73915,73837,74033
 9.0000e-001 74082 -2.2261e+002 -5.9434e+000  4.4324e+000 61848 73915,74033,73785
 9.0000e-001 74283 -2.0995e+002  4.1070e+000 -2.6796e+001 61444 74306,74133,74107
 9.0000e-001 74260 -2.3002e+002  1.5751e+001  4.3887e+001 61444 74306,74107,74211
 9.0000e-001 74237 -2.3852e+002 -8.1836e+001  6.4105e+001 61444 74378,74185,74159
 9.0000e-001 74332 -2.9184e+002 -3.1373e+001 -3.3534e+001 61444 74159,74133,74306
 9.0000e-001 74355 -2.7800e+002 -2.3914e+001  4.6725e+001 61444 74378,74159,74306
 9.0000e-001 74404 -2.3116e+002 -2.2022e+001  3.2169e+001 61444 74211,74185,74378
 9.0000e-001 74427 -2.4487e+002  7.8372e-001  3.4421e+001 61444 74211,74378,74306
 9.0000e-001 74628 -1.7372e+002  4.5489e+001  4.9957e+001 60990 74478,74530,74504
 9.0000e-001 74605 -1.1300e+002  1.4315e+001  4.9967e+000 60990 74452,74530,74478
 9.0000e-001 74582 -1.3963e+002 -2.8897e+001  2.4589e+001 60990 74452,74556,74530
 9.0000e-001 75089 -3.7964e+000  1.0354e+001 -4.1802e+000 60486 75112,74945,74919
 9.0000e-001 75066 -3.3835e+001  3.4358e+001  3.3395e+001 60486 75112,74919,74867
 9.0000e-001 75043 -7.2033e+001  2.1974e+001  2.0973e+001 60486 74841,74971,74867
 9.0000e-001 75020 -1.8482e+002  1.1268e+001 -1.7064e+001 60486 74867,74919,74893
 9.0000e-001 74997  5.6402e+000  2.0467e+001 -7.1888e+000 60486 74815,74971,74841
 9.0000e-001 75138 -4.9396e+001 -1.1208e+001 -1.0572e+001 60486 74971,74945,75112
 9.0000e-001 75161 -6.7576e+001  1.5421e+001  2.5742e+001 60486 74971,75112,74867
 9.0000e-001 75409 -1.1913e+002 -3.1796e+000 -3.4298e+001 59932 75576,75432,75288
 9.0000e-001 75386 -1.7623e+002 -2.2108e+001 -4.3857e+001 59932 75504,75314,75288
 9.0000e-001 75363 -1.0610e+002 -3.5650e+000 -3.6083e+000 59932 75432,75236,75210
 9.0000e-001 75340 -4.2707e+001  4.3981e+001 -1.2123e+001 59932 75576,75288,75262
 9.0000e-001 75458 -1.7519e+002 -2.2597e+001 -4.3763e+001 59932 75504,75288,75432
 9.0000e-001 75481 -1.7989e+002 -1.7603e+001  1.6372e+001 59932 75184,75432,75210
 9.0000e-001 75530 -2.5225e+002 -7.7265e+001  3.4437e+000 59932 75184,75314,75504
 9.0000e-001 75553 -1.6313e+002 -2.2864e+001 -3.5147e+001 59932 75184,75504,75432
 9.0000e-001 75602 -1.6256e+002  4.8891e+001 -2.9762e+001 59932 75236,75432,75576
 9.0000e-001 75625 -1.6027e+002  4.7994e+001 -3.0668e+001 59932 75236,75576,75262
 9.0000e-001 75873 -9.3712e+001  1.1022e+000  2.2113e+001 59478 75674,75752,75700
 9.0000e-001 75850 -9.1552e+001  2.0084e+000  2.1139e+001 59478 75648,75752,75674
 9.0000e-001 75827 -1.4950e+002 -8.6402e+000  2.0304e+001 59478 75700,75752,75726
 9.0000e-001 75804 -1.0319e+002  1.0993e+001  2.0849e+001 59478 75648,75778,75752
 9.0000e-001 76206 -1.0051e+002 -3.1554e+001 -1.0763e+001 59024 75981,76059,76007
 9.0000e-001 76183 -1.1172e+002 -1.3916e+001 -1.3557e+001 59024 75981,76111,76059
 9.0000e-001 76160 -1.0409e+002 -4.6848e+001 -8.4030e-001 59024 76007,76059,76033
 9.0000e-001 76137 -1.2055e+002 -1.1313e+001 -3.1556e+001 59024 76059,76111,76085
 9.0000e-001 76761 -5.6343e+001 -7.6297e+000  2.0910e+001 58562 76389,76441,76415
 9.0000e-001 76738 -1.1276e+002  2.4319e+000 -1.4685e+001 58562 76856,76784,76389
 9.0000e-001 76715 -1.3005e+002 -9.8586e+000 -3.5167e+001 58562 76784,76571,76467
 9.0000e-001 76692 -1.9270e+002  2.6062e+001 -2.1585e+001 58562 76856,76389,76597
 9.0000e-001 76669 -2.5805e+002 -6.4295e+001 -1.2487e+001 58562 76467,76545,76493
 9.0000e-001 76646 -1.5199e+002 -9.7975e+000 -3.7158e+001 58562 76467,76571,76545
 9.0000e-001 76623 -1.2520e+002 -2.0738e+000  1.1660e+001 58562 76493,76545,76519
 9.0000e-001 76810 -1.0642e+002 -1.1340e+001 -2.3028e+001 58562 76441,76389,76784
 9.0000e-001 76833 -1.1455e+002  1.1204e+000 -5.6386e+000 58562 76441,76784,76467
 9.0000e-001 76882 -1.9928e+002 -3.2844e+001 -5.3326e+001 58562 76571,76784,76856
 9.0000e-001 76905 -2.4993e+002  1.0951e+001 -6.1680e+001 58562 76571,76856,76597
 9.0000e-001 77055 -2.5351e+002 -6.4300e+001  3.8466e+000 57844 76928,76980,76954
 9.0000e-001 77032 -1.7966e+002 -6.6186e+000 -2.3553e+001 57844 76928,77006,76980
 9.0000e-001 77533 -1.9810e+002 -7.0537e+001 -1.2769e+001 57226 77628,77556,77291
 9.0000e-001 77510 -2.0087e+002  8.3323e+001  7.2161e+000 57226 77556,77187,77343
 9.0000e-001 77487 -1.2594e+002 -7.5459e+001 -2.2080e+001 57226 77628,77291,77265
 9.0000e-001 77464 -9.9363e+001 -5.0578e+001 -3.9653e+001 57226 77700,77213,77187
 9.0000e-001 77441 -4.0765e+002  4.4974e+000  1.2953e+001 57226 77161,77343,77187
 9.0000e-001 77418 -2.3106e+002 -1.7459e+000  3.5793e+000 57226 77161,77369,77343
 9.0000e-001 77395 -1.2805e+002 -2.4438e+001 -5.2139e+001 57226 77213,77265,77239
 9.0000e-001 77582 -2.1697e+002 -9.4368e+001  2.3591e+001 57226 77317,77291,77556
 9.0000e-001 77605 -2.3656e+002  1.0617e+001 -8.9387e+000 57226 77317,77556,77343
 9.0000e-001 77654 -8.9123e+001  2.4074e-001  1.8272e+001 57226 77187,77556,77628
 9.0000e-001 77677 -8.5443e+001 -5.5219e+001 -1.8250e+001 57226 77700,77187,77628
 9.0000e-001 77726 -1.4679e+002 -7.1188e+001 -4.7577e+001 57226 77265,77213,77700
 9.0000e-001 77749 -1.3146e+002 -7.1181e+001 -2.3061e+001 57226 77265,77700,77628
 9.0000e-001 78046 -2.3833e+002 -2.3067e+001  4.6897e+000 56936 77798,77850,77824
 9.0000e-001 78023 -2.4134e+002 -6.4226e+001 -1.5583e+001 56936 78069,77798,77902
 9.0000e-001 78000 -2.6323e+002 -7.0583e+001 -2.1483e+001 56936 78069,77902,77876
 9.0000e-001 77977 -2.9390e+002 -9.5466e+001 -6.5185e+001 56936 77798,77928,77902
 9.0000e-001 77954 -3.5120e+002 -4.4756e+001 -6.0332e+001 56936 77772,77928,77798
 9.0000e-001 78095 -2.3278e+002 -6.7456e+001 -1.2205e+001 56936 77850,77798,78069
 9.0000e-001 78118 -2.4283e+002 -6.5111e+001 -1.7443e+001 56936 77850,78069,77876
 9.0000e-001 78754 -1.3240e+002 -6.0463e+001  9.2485e+000 56475 78777,78486,78408
 9.0000e-001 78731 -2.0645e+002 -1.1108e+002  3.1379e+001 56475 78777,78408,78382
 9.0000e-001 78708 -1.8743e+002 -9.9735e+001 -3.0484e+001 56475 78849,78512,78486
 9.0000e-001 78685 -1.5454e+002 -3.1248e+001  2.0603e+000 56475 78382,78590,78564
 9.0000e-001 78662 -2.7095e+002 -6.7865e+001 -5.7457e+001 56475 78512,78564,78538
 9.0000e-001 78639 -1.3783e+002 -6.9315e+001  4.6187e+000 56475 78434,78486,78460
 9.0000e-001 78616 -1.3318e+002 -6.6495e+001  3.4284e+000 56475 78408,78486,78434
 9.0000e-001 78803 -1.8720e+002 -8.0498e+001 -1.0833e+001 56475 78849,78486,78777
 9.0000e-001 78826 -1.8242e+002 -4.7284e+001  1.1507e+001 56475 78564,78777,78382
 9.0000e-001 78875 -1.7664e+002 -6.3220e+001 -2.0645e+001 56475 78564,78512,78849
 9.0000e-001 78898 -1.8127e+002 -4.1787e+001 -5.3746e+000 56475 78564,78849,78777
 9.0000e-001 79276 -1.5241e+002 -3.3713e+001  1.3576e+001 55964 79299,79080,79028
 9.0000e-001 79253 -2.0102e+002 -4.3689e+001  7.0985e+000 55964 79299,79028,79132
 9.0000e-001 79230 -1.3238e+002 -4.1674e+001  6.9000e-001 55964 79028,79080,79054
 9.0000e-001 79207 -1.9228e+002 -6.5959e+001 -3.6197e+000 55964 79002,79132,79028
 9.0000e-001 79184 -2.3434e+002 -8.3678e+001 -6.2748e+000 55964 79002,79158,79132
 9.0000e-001 79325 -1.7451e+002 -2.5822e+001 -2.3218e+001 55964 79106,79080,79299
 9.0000e-001 79348 -2.2764e+002 -3.5873e+001 -2.7514e+001 55964 79106,79299,79132
 9.0000e-001 79498 -2.2693e+002 -2.5328e+001 -2.2124e+001 55452 79397,79449,79423
 9.0000e-001 79475 -1.5644e+002  6.6927e+001  8.6422e+000 55452 79371,79449,79397
 9.0000e-001 79795 -1.3713e+002 -3.1543e+001  8.5820e+000 55048 79962,79818,79573
 9.0000e-001 79772 -1.4141e+002  7.9872e+000 -6.4646e+000 55048 79818,79521,79677
 9.0000e-001 79749 -1.2413e+002 -6.8366e+001  1.4941e+001 55048 79599,79651,79625
 9.0000e-001 79726 -1.5508e+002 -5.2167e+001  7.8756e+000 55048 79890,79651,79599
 9.0000e-001 79703 -1.2751e+002 -1.6409e+001  1.3806e+001 55048 79962,79573,79547
 9.0000e-001 79844 -1.3533e+002 -5.4020e+001  5.6627e+000 55048 79599,79573,79818
 9.0000e-001 79867 -1.4545e+002 -3.0192e+001  9.2029e+000 55048 79890,79599,79818
 9.0000e-001 79916 -1.5457e+002 -4.7327e+001 -1.3344e+001 55048 79677,79651,79890
 9.0000e-001 79939 -1.5050e+002 -3.8363e+001 -1.2404e+001 55048 79677,79890,79818
 9.0000e-001 79988 -1.3994e+002 -3.9206e+001 -2.7908e+000 55048 79521,79818,79962
 9.0000e-001 80011 -1.3744e+002 -3.4703e+001  1.1685e+000 55048 79521,79962,79547
 9.0000e-001 80212 -2.0203e+002 -2.2402e+000  7.6554e+000 54436 80235,80088,80036
 9.0000e-001 80189 -1.5460e+002 -1.2223e+001  8.9076e+000 54436 80235,80036,80140
 9.0000e-001 80166 -2.0840e+002 -3.1498e+000  1.6946e+001 54436 80036,80088,80062
 9.0000e-001 80261 -1.6365e+002 -1.8983e+001  3.3460e+001 54436 80114,80088,80235
 9.0000e-001 80284 -1.0043e+002 -1.5196e+001  3.6511e+001 54436 80114,80235,80140
 9.0000e-001 80534 -2.1772e+002 -2.9345e+001 -1.3850e+001 54032 80557,80361,80335
 9.0000e-001 80511 -1.7229e+002 -5.5117e+000 -2.2892e+001 54032 80557,80335,80309
 9.0000e-001 80488 -1.6119e+002 -5.0943e+001 -2.6186e+000 54032 80629,80413,80387
 9.0000e-001 80465 -1.6666e+002 -7.0101e+001 -8.6667e+000 54032 80309,80439,80413
 9.0000e-001 80583 -1.8192e+002 -3.0780e+001  1.3015e+001 54032 80387,80361,80557
 9.0000e-001 80606 -1.5538e+002 -3.5048e+001  5.9498e+000 54032 80629,80387,80557
 9.0000e-001 80655 -1.6775e+002 -5.1409e+001 -1.1832e+001 54032 80309,80413,80629
 9.0000e-001 80678 -1.7150e+002 -4.7419e+001 -4.4870e+000 54032 80309,80629,80557
 9.0000e-001 81139 -6.2604e+001  7.6899e+001  6.2948e+001 53784 80865,80995,80917
 9.0000e-001 81116 -1.4538e+002  9.0549e+001 -7.2849e+001 53784 80865,81021,80995
 9.0000e-001 81093 -4.4503e+001 -1.9239e+000  1.4353e+001 53784 80943,80995,80969
 9.0000e-001 81070  5.7966e-001  2.9333e+001  5.3975e+001 53784 80917,80995,80943
 9.0000e-001 81047 -2.1977e+002  4.8742e+002  1.7893e+002 53784 80865,80917,80891
 9.0000e-001 81468 -1.4066e+002 -3.8542e+000 -4.5356e+000 53230 81295,81373,81347
 9.0000e-001 81445 -1.3255e+002 -9.7786e+000  1.0243e+000 53230 81243,81373,81295
 9.0000e-001 81422 -8.7867e+001 -1.5519e+001  3.6776e+001 53230 81243,81295,81269
 9.0000e-001 81399 -2.0291e+002 -3.7614e+001  1.6594e+001 53230 81295,81347,81321
 9.0000e-001 81618 -2.9796e+002  2.1223e+001 -3.4191e+001 52790 81491,81543,81517
 9.0000e-001 81595 -2.8622e+002 -7.1250e+001 -2.4590e+001 52790 81491,81569,81543
 9.0000e-001 82126 -1.2989e+002 -5.6043e+001  2.5762e+001 52386 82149,81907,81881
 9.0000e-001 82103 -1.2061e+002 -3.5042e+001  2.4235e+001 52386 82149,81881,81855
 9.0000e-001 82080 -1.2401e+002 -6.0940e+001  4.6837e+000 52386 82221,81803,81985
 9.0000e-001 82057 -6.4825e+001 -3.4840e+001  2.8250e+001 52386 81803,81855,81829
 9.0000e-001 82034 -1.0838e+002 -3.4012e+001  7.4417e+000 52386 81907,81985,81933
 9.0000e-001 82011 -9.8555e+001 -3.5238e+001  8.0455e+000 52386 81933,81985,81959
 9.0000e-001 82175 -1.1751e+002 -4.1664e+001  1.8672e+001 52386 81985,81907,82149
 9.0000e-001 82198 -1.2643e+002 -5.1352e+001  1.4785e+001 52386 82221,81985,82149
 9.0000e-001 82247 -1.1821e+002 -4.3151e+001  7.2148e+000 52386 81855,81803,82221
 9.0000e-001 82270 -1.2241e+002 -3.2997e+001  1.5010e+001 52386 81855,82221,82149
 9.0000e-001 82825 -2.8087e+002 -2.0965e+001 -8.8062e+001 51782 82505,82661,82635
 9.0000e-001 82802 -1.3539e+002 -7.7777e+001  4.1841e+001 51782 82479,82661,82505
 9.0000e-001 82779 -1.7376e+002 -7.9595e+001  5.1768e+001 51782 82557,82635,82609
 9.0000e-001 82756 -1.9100e+002 -1.2894e+002 -3.0081e+001 51782 82531,82635,82557
 9.0000e-001 82733 -2.4981e+002  1.7355e+001 -4.9383e+001 51782 82505,82635,82531
 9.0000e-001 82710 -1.8417e+002 -1.6683e+002 -2.6657e+001 51782 82453,82661,82479
 9.0000e-001 82687 -1.7258e+002 -7.1024e+001  5.4411e+001 51782 82557,82609,82583
 9.0000e-001 83171 -1.8361e+002 -9.0935e+000 -1.9369e+001 51442 83194,82978,82900
 9.0000e-001 83148 -2.0919e+002 -3.4133e+001 -2.9636e+001 51442 83194,82900,82874
 9.0000e-001 83125 -2.5277e+002 -3.6812e+001  1.4788e+000 51442 82900,82978,82926
 9.0000e-001 83102 -2.4035e+002 -7.9875e+001 -5.0909e+001 51442 82874,83030,83004
 9.0000e-001 83079 -1.5240e+002  2.6966e+000  6.0698e+000 51442 82926,82978,82952
 9.0000e-001 83056 -2.0936e+002 -7.2847e+001 -4.7183e+001 51442 82848,83030,82874
 9.0000e-001 83220 -1.4760e+002 -3.1051e+001 -1.0666e+001 51442 83004,82978,83194
 9.0000e-001 83243 -1.8271e+002 -6.6759e+001 -2.4899e+001 51442 83004,83194,82874
 9.0000e-001 83751 -1.4730e+002 -5.2649e+001 -1.6598e+000 50938 83428,83584,83454
 9.0000e-001 83728 -1.9043e+002 -6.8343e+001 -1.6754e+001 50938 83428,83610,83584
 9.0000e-001 83705 -1.8420e+002 -4.9271e+001 -9.5659e+000 50938 83454,83584,83558
 9.0000e-001 83682 -2.5119e+002 -5.0541e+001 -4.2204e+000 50938 83454,83532,83480
 9.0000e-001 83659 -2.1814e+002 -6.3843e+001 -1.0475e+001 50938 83454,83558,83532
 9.0000e-001 83636 -1.7048e+002  1.6390e+001  2.4987e+001 50938 83480,83532,83506
 9.0000e-001 84355 -2.0363e+002 -5.6028e+001  4.7251e+001 50377 84378,83960,83934
 9.0000e-001 84332 -1.5734e+002 -2.7238e+000 -4.8933e+001 50377 84522,84378,83934
 9.0000e-001 84309 -1.3718e+002  1.9763e+001  1.0786e+001 50377 84450,84038,84012
 9.0000e-001 84286 -1.1162e+002 -3.4104e+001 -5.2330e+001 50377 84522,83934,84142
 9.0000e-001 84263 -1.4296e+002 -8.3729e+001  1.6691e+001 50377 84594,84090,84038
 9.0000e-001 84240 -1.2090e+001 -2.3216e+001  4.1445e+001 50377 83960,84012,83986
 9.0000e-001 84217 -5.4852e+001 -4.3471e+001 -7.8552e-002 50377 83934,84168,84142
 9.0000e-001 84194 -1.3775e+001 -3.9611e+001  2.4737e+001 50377 84038,84090,84064
 9.0000e-001 84404  1.1719e+001  3.0048e+001  3.3983e+001 50377 84012,83960,84378
 9.0000e-001 84427 -1.4374e+002  5.8035e+000 -2.2350e+001 50377 84450,84012,84378
 9.0000e-001 84476 -1.6385e+002 -4.4203e+001  1.0858e+001 50377 84594,84038,84450
 9.0000e-001 84499 -1.4709e+002  3.8570e+000 -1.9735e+001 50377 84116,84450,84378
 9.0000e-001 84548 -1.1296e+002  2.6996e+001 -3.5698e+001 50377 84116,84378,84522
 9.0000e-001 84571 -6.9691e+001 -7.8514e+000 -4.0967e+001 50377 84116,84522,84142
 9.0000e-001 84620 -1.2552e+002 -2.8886e+001 -8.0356e+000 50377 84116,84090,84594
 9.0000e-001 84643 -1.4299e+002  1.0779e+001 -1.6425e+001 50377 84116,84594,84450
 9.0000e-001 84842 -2.1541e+002 -4.8382e+001 -3.5223e+001 49923 84865,84692,84666
 9.0000e-001 84819 -1.6917e+002 -5.4800e+001 -7.8467e+000 49923 84865,84666,84770
 9.0000e-001 84796 -1.1792e+002 -3.8789e+001 -6.7248e+000 49923 84692,84744,84718
 9.0000e-001 84891 -1.8517e+002 -3.8269e+001 -9.4321e+000 49923 84744,84692,84865
 9.0000e-001 84914 -1.3310e+002 -2.9893e+001  2.1688e+001 49923 84744,84865,84770
 9.0000e-001 85501 -1.7675e+002 -1.4683e+001  9.5342e+000 49618 85524,85282,85204
 9.0000e-001 85478 -1.8797e+002 -8.2891e+000  2.2743e+001 49618 85596,85524,85204
 9.0000e-001 85455 -1.7734e+002 -2.1259e+001  2.2900e+001 49618 85596,85204,85178
 9.0000e-001 85432 -2.0216e+002 -2.4068e+001  1.4095e+001 49618 85204,85282,85256
 9.0000e-001 85409 -1.0322e+002  3.9920e+000 -1.0521e+001 49618 85282,85334,85308
 9.0000e-001 85386 -1.8862e+002  3.6652e+000  5.0671e+000 49618 85204,85256,85230
 9.0000e-001 85550 -1.4170e+002  2.4424e+001 -3.2551e+001 49618 85334,85282,85524
 9.0000e-001 85573 -2.5758e+002 -2.0095e+001 -1.3065e+001 49618 85334,85524,85360
 9.0000e-001 85622 -2.0466e+002 -2.3010e+001  2.8979e+001 49618 85360,85524,85596
 9.0000e-001 85645 -1.8926e+002 -3.0500e+001  2.6929e+001 49618 85360,85596,85178
 9.0000e-001 85795 -4.3730e+002 -1.2947e+002  2.8519e+001 49278 85694,85746,85720
 9.0000e-001 85772 -4.9242e+002 -1.4053e+002 -1.9659e-001 49278 85668,85746,85694
 9.0000e-001 86197 -2.0128e+002 -1.0964e+002 -7.8872e+001 48916 86001,86079,86027
 9.0000e-001 86174 -2.0457e+002 -5.6334e+001 -3.9123e+001 48916 85949,86079,86001
 9.0000e-001 86151 -2.9450e+002 -8.0338e+001 -9.9456e+000 48916 85949,86001,85975
 9.0000e-001 86128 -2.3174e+002 -4.9466e+001 -2.1086e+001 48916 86027,86079,86053
 9.0000e-001 86105 -5.0407e+002 -1.8980e+002 -7.6225e+001 48916 85923,86079,85949
 9.0000e-001 86477 -5.8603e+001  2.7591e+000  2.3837e+001 48398 86327,86379,86353
 9.0000e-001 86454 -7.5294e+001 -5.5057e+001  2.1301e+001 48398 86500,86379,86327
 9.0000e-001 86431 -1.2206e+002 -4.9230e+001  2.8587e+001 48398 86301,86405,86379
 9.0000e-001 86526 -3.2331e+001 -2.9355e+001  3.2028e+001 48398 86301,86379,86500
 9.0000e-001 87032 -1.9051e+002 -5.9443e+001 -1.0853e+001 48008 87127,87055,86787
 9.0000e-001 87009 -1.9568e+002 -8.2609e+001  6.1550e+000 48008 87055,86735,86709
 9.0000e-001 86986 -1.7969e+002 -6.6937e+001 -1.2705e+001 48008 87127,86787,86761
 9.0000e-001 86963 -1.8293e+002 -5.3126e+001  2.4918e+000 48008 86787,86865,86839
 9.0000e-001 86940 -2.5735e+002 -5.5924e+001  1.7105e-001 48008 86709,86891,86865
 9.0000e-001 86917 -2.1207e+002 -3.2993e+001  2.2630e+001 48008 86787,86839,86813
 9.0000e-001 87081 -1.9622e+002 -5.9366e+001 -4.6865e+000 48008 86865,86787,87055
 9.0000e-001 87104 -1.8134e+002 -4.6649e+001  4.7833e+000 48008 86865,87055,86709
 9.0000e-001 87153 -1.7512e+002 -6.2350e+001 -1.0147e+001 48008 86735,87055,87127
 9.0000e-001 87176 -1.4499e+002 -5.2317e+001 -1.9481e+001 48008 86735,87127,86761
 9.0000e-001 87456 -1.0532e+002 -4.5296e+001 -1.1358e+001 47604 87306,87358,87332
 9.0000e-001 87433 -1.3514e+002 -7.2106e+001  4.6993e+000 47604 87306,87384,87358
 9.0000e-001 87410 -1.1296e+002 -6.3217e+001 -8.4743e+000 47604 87280,87384,87306
 9.0000e-001 87785 -9.8596e+001 -3.1622e+001  7.4342e-001 47264 87638,87690,87664
 9.0000e-001 87762 -8.2194e+001  3.9502e+000 -8.9250e+000 47264 87612,87690,87638
 9.0000e-001 87739 -1.0609e+002 -2.7298e+001 -2.2793e+001 47264 87560,87690,87612
 9.0000e-001 87716 -9.1608e+001 -1.0412e+001 -3.1476e+001 47264 87560,87612,87586
 9.0000e-001 87935 -2.6030e+002  1.3808e+001 -2.5622e+000 46952 87808,87860,87834
 9.0000e-001 87912 -2.6383e+002 -3.0145e+000 -7.5838e+000 46952 87808,87886,87860
 9.0000e-001 88281 -2.1575e+002 -6.7435e+001  2.4181e+000 46526 88304,88114,88036
 9.0000e-001 88258 -2.0488e+002 -5.0023e+001  9.6223e+000 46526 88304,88036,87984
 9.0000e-001 88235 -1.9754e+002 -5.1381e+001 -2.2378e+001 46526 88036,88114,88062
 9.0000e-001 88212 -1.8968e+002 -1.2642e+001  4.0570e+001 46526 87958,88140,87984
 9.0000e-001 88189 -1.7546e+002  1.8270e+001  1.4207e+001 46526 87984,88036,88010
 9.0000e-001 88166 -2.4519e+002 -9.0671e+001 -4.0586e+001 46526 88062,88114,88088
 9.0000e-001 88330 -2.3007e+002 -4.7980e+001  3.9759e-001 46526 88140,88114,88304
 9.0000e-001 88353 -2.2312e+002 -3.3271e+001  5.2458e+000 46526 88140,88304,87984
 9.0000e-001 88701 -9.4797e+001 -5.5433e+001 -2.2224e+001 45822 88724,88378,88534
 9.0000e-001 88678 -7.3692e+001 -2.3232e+001 -3.1638e+001 45822 88378,88560,88534
 9.0000e-001 88655 -1.0719e+002 -7.5252e+001  7.3425e-001 45822 88724,88534,88508
 9.0000e-001 88632 -1.0644e+002 -3.2613e+001 -1.5787e+001 45822 88404,88508,88456
 9.0000e-001 88609 -9.6883e+001 -9.9502e+000 -1.5896e+001 45822 88404,88456,88430
 9.0000e-001 88586 -1.7061e+002 -7.3879e+001  1.8761e+000 45822 88456,88508,88482
 9.0000e-001 88750 -1.0468e+002 -2.2061e+001 -3.3768e+001 45822 88404,88378,88724
 9.0000e-001 88773 -1.1327e+002 -4.3017e+001 -1.2788e+001 45822 88404,88724,88508
 9.0000e-001 89106 -1.5212e+002 -9.0678e+000 -3.0302e+001 45418 88881,88985,88907
 9.0000e-001 89083 -1.0382e+002 -7.5012e+001 -2.3480e+001 45418 88881,89011,88985
 9.0000e-001 89060 -8.1456e+001  2.6171e+001 -1.7024e+001 45418 88907,88985,88933
 9.0000e-001 89037 -6.0100e+001  7.8504e+000 -8.0681e+000 45418 88933,88985,88959
 9.0000e-001 89435 -2.0585e+002 -9.3063e+001  3.5925e+000 44914 89210,89288,89236
 9.0000e-001 89412 -1.6388e+002 -6.3853e+001 -2.8464e+001 44914 89210,89314,89288
 9.0000e-001 89389 -1.9982e+002 -4.7553e+001 -3.8092e+001 44914 89210,89340,89314
 9.0000e-001 89366 -1.9188e+002 -8.6220e+001  1.3538e+000 44914 89236,89288,89262
 9.0000e-001 89634 -8.2431e+001 -3.9331e+001 -1.5207e-001 44538 89510,89562,89536
 9.0000e-001 89611 -1.0342e+002 -3.5641e+001 -2.7725e+001 44538 89458,89562,89510
 9.0000e-001 89588 -1.2146e+002 -7.6354e+001 -1.9287e+001 44538 89458,89510,89484
 9.0000e-001 90044 -2.1437e+002 -7.4172e+001  1.8402e+001 44134 89819,89923,89845
 9.0000e-001 90021 -1.7815e+002 -1.3546e+001  3.7700e+001 44134 89819,89949,89923
 9.0000e-001 89998 -1.5954e+002 -6.8255e+001 -9.6240e+000 44134 89845,89923,89897
 9.0000e-001 89975 -1.1369e+002 -7.3037e+000  2.4295e+001 44134 89845,89897,89871
 9.0000e-001 90520 -1.9969e+002 -4.3688e+001  1.3995e+001 43457 90543,90252,90226
 9.0000e-001 90497 -1.5406e+002 -5.0530e+001  5.1218e+000 43457 90543,90226,90330
 9.0000e-001 90474 -1.8100e+002 -3.3261e+001 -1.2649e+001 43457 90200,90330,90226
 9.0000e-001 90451 -2.2103e+002 -6.6451e+001 -3.8293e+001 43457 90200,90356,90330
 9.0000e-001 90428 -2.1927e+002 -1.5361e+001  5.7871e+001 43457 90252,90304,90278
 9.0000e-001 90405 -6.8063e+001 -1.8057e+001  2.2291e+001 43457 90174,90356,90200
 9.0000e-001 90382 -2.1315e+002 -1.6908e+002 -3.8056e+001 43457 90148,90356,90174
 9.0000e-001 90569 -2.3824e+002 -4.3541e+001  4.7058e+001 43457 90304,90252,90543
 9.0000e-001 90592 -1.7260e+002 -4.5005e+001  4.5214e+001 43457 90304,90543,90330
 9.0000e-001 91098 -8.7608e+001 -1.9037e+001 -4.8489e+000 42789 90801,90905,90853
 9.0000e-001 91075 -1.1165e+002 -6.2228e+001  5.6271e+000 42789 90775,90905,90801
 9.0000e-001 91052 -1.1002e+002 -1.9884e+001 -2.0353e+001 42789 90775,90931,90905
 9.0000e-001 91029 -5.8679e+001 -1.4780e+000  2.5761e+001 42789 90801,90853,90827
 9.0000e-001 91006 -1.1129e+002 -3.7747e+001  3.5425e+001 42789 90853,90905,90879
 9.0000e-001 90983 -2.0467e+002 -2.5808e+001  1.9330e+001 42789 90775,90957,90931
 9.0000e-001 91427 -1.9286e+002  1.7825e+000 -9.9026e+000 42227 91228,91280,91254
 9.0000e-001 91404 -2.2099e+002 -5.7768e+001  1.6209e+001 42227 91228,91306,91280
 9.0000e-001 91381 -2.2324e+002 -5.4252e+001  3.3843e+001 42227 91202,91306,91228
 9.0000e-001 91358 -1.9254e+002 -8.0163e+001  4.9937e-001 42227 91202,91332,91306
 9.0000e-001 91675 -1.0185e+002 -4.0967e+001 -1.4383e+001 41773 91698,91476,91450
 9.0000e-001 91652 -1.0234e+002 -5.6302e+001  3.9432e+000 41773 91698,91450,91554
 9.0000e-001 91629 -9.7493e+001 -7.0832e+001  4.9063e+000 41773 91450,91580,91554
 9.0000e-001 91606 -1.1330e+002 -3.3756e+001  2.9380e+001 41773 91502,91554,91528
 9.0000e-001 91724 -1.1332e+002 -5.0034e+001 -4.2078e+000 41773 91502,91476,91698
 9.0000e-001 91747 -1.1762e+002 -6.7429e+001  1.4601e+001 41773 91502,91698,91554
 9.0000e-001 92127 -5.1120e+001  8.8563e+000 -2.3605e+001 41255 92150,91905,91879
 9.0000e-001 92104 -1.4541e+002  1.7585e+000  1.8360e+001 41255 92150,91879,91957
 9.0000e-001 92081 -1.2776e+002 -2.1852e+001  3.6677e+001 41255 91853,91957,91879
 9.0000e-001 92058 -1.3318e+002 -2.3530e+001  1.0579e+001 41255 91853,91983,91957
 9.0000e-001 92035 -5.6796e+001 -1.5738e+001  3.1819e-001 41255 91853,92009,91983
 9.0000e-001 92176 -1.3315e+002  3.0168e+001  1.6143e+001 41255 91931,91905,92150
 9.0000e-001 92199 -2.7625e+002 -3.5284e+001  7.4418e+001 41255 91931,92150,91957
 9.0000e-001 92518 -2.3889e+002 -5.3794e+000 -1.1696e+001 41007 92244,92374,92270
 9.0000e-001 92495 -2.6608e+002  1.2879e+001 -2.1678e+001 41007 92244,92400,92374
 9.0000e-001 92472 -1.8469e+002  1.4525e+001 -5.0611e+000 41007 92270,92374,92348
 9.0000e-001 92449 -2.8795e+002 -3.1488e+001  1.9031e+001 41007 92296,92348,92322
 9.0000e-001 92426 -2.5369e+002 -2.2794e+001  2.0427e+001 41007 92270,92348,92296
 9.0000e-001 92668 -8.1222e+001 -2.4705e+001 -2.4932e+001 40717 92823,92691,92567
 9.0000e-001 92645 -7.9790e+001 -9.0995e+000 -2.2473e+001 40717 92895,92823,92567
 9.0000e-001 92717 -7.2150e+001 -1.7477e+001  8.5039e+000 40717 92593,92567,92691
 9.0000e-001 92849 -2.8261e+001 -2.3298e+001 -4.4305e+001 40717 92619,92691,92823
 9.0000e-001 92872 -9.7768e+001 -2.9851e+001 -2.3510e+001 40717 92619,92823,92541
 9.0000e-001 92921 -1.4214e+002 -6.1346e+001  1.1673e+001 40717 92541,92823,92895
 9.0000e-001 93634 -2.1825e+002 -5.7895e+001 -4.4877e+001 40206 93366,93444,93418
 9.0000e-001 93611 -1.7101e+002 -2.3893e+001 -1.7344e+001 40206 93288,93444,93366
 9.0000e-001 93588 -1.7016e+002 -5.1772e+001 -2.0096e+001 40206 93288,93366,93314
 9.0000e-001 93565 -3.4815e+002 -8.5789e+001 -6.0660e+000 40206 93262,93444,93288
 9.0000e-001 93542 -2.4923e+002 -3.0640e+001 -2.6237e+001 40206 93366,93418,93392
 9.0000e-001 93519 -4.0835e+002 -2.9995e+000 -4.6642e+000 40206 93262,93470,93444
 9.0000e-001 93496 -1.0097e+002 -2.2677e+001 -5.1749e+000 40206 93314,93366,93340
 9.0000e-001 94189 -1.7723e+002 -8.6562e+001 -3.4760e-001 39802 93843,93999,93973
 9.0000e-001 94166 -2.2446e+002 -1.1141e+002  1.1711e+001 39802 93817,93999,93843
 9.0000e-001 94143 -2.7474e+002 -9.5483e+001  1.5709e+001 39802 93869,93973,93947
 9.0000e-001 94120 -1.8072e+002 -4.7600e+001 -2.4792e+000 39802 93843,93973,93869
 9.0000e-001 94097 -1.5997e+002  9.2873e-002 -2.6510e+000 39802 93869,93921,93895
 9.0000e-001 94074 -1.6724e+002 -1.8995e+001 -2.4634e+001 39802 93869,93947,93921
 9.0000e-001 94051 -1.4949e+002 -6.8557e+001 -1.7824e+001 39802 93817,94025,93999
 9.0000e-001 94290 -2.6078e+002 -9.5613e+001  4.8043e+000 39398 94212,94264,94238
 9.0000e-001 94798 -1.0975e+002 -3.0296e+001 -7.4015e+000 38701 94501,94657,94631
 9.0000e-001 94775 -9.8064e+001 -1.7483e+001 -8.4135e-001 38701 94475,94657,94501
 9.0000e-001 94752 -1.5160e+002 -2.9132e+001 -7.2821e-001 38701 94579,94631,94605
 9.0000e-001 94729 -1.6342e+002 -3.6563e+001 -1.1185e+001 38701 94553,94631,94579
 9.0000e-001 94706 -7.7053e+001 -3.0007e+000 -1.9909e+001 38701 94501,94631,94553
 9.0000e-001 94683 -6.9751e+001 -1.1088e+001 -1.8565e+001 38701 94501,94553,94527
 9.0000e-001 95255 -9.9232e+001 -2.8723e+001  1.3558e+001 38247 95278,95085,95007
 9.0000e-001 95232 -1.0941e+002 -2.3027e+001  2.7364e+001 38247 95278,95007,95137
 9.0000e-001 95209 -1.3799e+002 -1.8074e+001  6.4356e+000 38247 94981,95137,95007
 9.0000e-001 95186 -1.0087e+002 -1.9805e+001  9.4598e+000 38247 95007,95059,95033
 9.0000e-001 95163 -1.2890e+002 -7.4711e+001  3.3093e+001 38247 95007,95085,95059
 9.0000e-001 95304 -8.6193e+001 -6.8051e+000  3.0019e+000 38247 95111,95085,95278
 9.0000e-001 95327 -1.0164e+002 -1.6856e+001  1.8683e+001 38247 95111,95278,95137
 9.0000e-001 95575 -2.7714e+002  3.9770e+001 -2.4336e+001 37564 95376,95428,95402
 9.0000e-001 95552 -2.8663e+002 -1.3041e+002 -1.2822e+001 37564 95376,95454,95428
 9.0000e-001 95529 -2.6315e+002 -1.2535e+002 -1.9117e+001 37564 95376,95480,95454
 9.0000e-001 95506 -2.4883e+002 -6.7401e+001 -1.5933e+000 37564 95350,95480,95376
 9.0000e-001 96034 -3.4250e+001 -2.0852e+000  6.7601e+000 37224 95786,95838,95812
 9.0000e-001 96011 -3.0576e+001  1.9641e+001 -2.7459e+000 37224 95786,95890,95838
 9.0000e-001 95988  2.0173e+001  3.5119e+001 -1.9690e+001 37224 95786,95916,95890
 9.0000e-001 95965 -5.7283e+001 -1.7735e+001  1.6680e+001 37224 95760,95916,95786
 9.0000e-001 95942 -1.0155e+001 -8.6341e+000 -4.1878e+001 37224 95838,95890,95864
 9.0000e-001 96363 -1.2706e+002 -1.2035e+001 -1.6719e+001 36884 96216,96268,96242
 9.0000e-001 96340 -1.3603e+002 -1.1536e+001 -1.6682e+001 36884 96164,96268,96216
 9.0000e-001 96317 -1.7980e+002 -6.5221e+001  2.2054e+001 36884 96138,96268,96164
 9.0000e-001 96294 -1.3350e+002 -2.2739e+000 -1.1845e+001 36884 96164,96216,96190
 9.0000e-001 96839 -1.6320e+002 -2.3036e+001 -1.4519e+001 36572 96862,96649,96597
 9.0000e-001 96816 -1.7455e+002 -3.9726e+001 -9.5471e+000 36572 97006,96862,96597
 9.0000e-001 96793 -1.5644e+002 -3.3404e+001 -3.8033e+000 36572 96934,96467,96675
 9.0000e-001 96770 -1.5657e+002 -5.7584e+001  1.4367e+001 36572 97006,96597,96571
 9.0000e-001 96747 -1.5070e+002 -4.6714e+001 -2.2983e+001 36572 96467,96519,96493
 9.0000e-001 96724 -3.2390e+002 -3.6208e+001  1.1876e+002 36572 96519,96571,96545
 9.0000e-001 96701 -1.1860e+002 -9.7685e+000  3.2981e+001 36572 96597,96649,96623
 9.0000e-001 96888 -1.8532e+002 -3.3861e+001 -1.9038e+001 36572 96675,96649,96862
 9.0000e-001 96911 -1.7930e+002 -2.5388e+001 -8.2942e+000 36572 96934,96675,96862
 9.0000e-001 96960 -1.3852e+002 -2.6908e+001 -9.9549e+000 36572 96519,96467,96934
 9.0000e-001 96983 -1.5703e+002 -2.1384e+001 -9.0043e+000 36572 97078,96934,96862
 9.0000e-001 97032 -1.5804e+002 -1.7311e+001 -2.3207e+000 36572 97078,96862,97006
 9.0000e-001 97055 -1.3403e+002 -1.6956e+001  2.3293e+001 36572 96519,97006,96571
 9.0000e-001 97104 -1.5255e+002 -1.0603e+001 -8.0988e+000 36572 96519,96934,97078
 9.0000e-001 97127 -1.5490e+002 -7.3361e+000 -2.6946e+000 36572 96519,97078,97006
 9.0000e-001 97761 -1.2462e+002 -1.2944e+001  3.1252e+001 36118 97784,97493,97415
 9.0000e-001 97738 -1.5422e+002 -3.4736e+001  4.2054e+001 36118 97784,97415,97597
 9.0000e-001 97715 -2.7231e+002 -5.8389e+001  7.3213e+001 36118 97389,97597,97415
 9.0000e-001 97692 -2.6990e+002 -8.5756e+001  6.3578e+001 36118 97415,97467,97441
 9.0000e-001 97669 -2.3209e+002 -7.6941e+001  9.7333e+001 36118 97415,97493,97467
 9.0000e-001 97646 -1.4888e+002 -5.0383e+001 -4.3924e+001 36118 97493,97571,97519
 9.0000e-001 97623 -9.6248e+001 -1.6823e+001  9.2795e+000 36118 97519,97571,97545
 9.0000e-001 97810 -1.5087e+002  3.8596e+001 -7.3928e-001 36118 97571,97493,97784
 9.0000e-001 97833 -2.2560e+002 -4.8199e+000  1.9422e+001 36118 97571,97784,97597
 9.0000e-001 98081 -1.0989e+002 -6.2997e+001  5.8970e+000 35564 98104,97908,97856
 9.0000e-001 98058 -1.4469e+002 -8.1885e+001  2.6941e+001 35564 98104,97856,97986
 9.0000e-001 98035 -2.3470e+002 -7.5844e+001  2.1846e+001 35564 97934,97986,97960
 9.0000e-001 98012 -9.3563e+001 -1.3546e+001 -1.5118e+001 35564 97856,97908,97882
 9.0000e-001 98130 -1.6197e+002  1.7132e+001 -3.1539e+000 35564 97934,97908,98104
 9.0000e-001 98153 -1.9491e+002 -4.7064e+001  4.0507e+001 35564 97934,98104,97986
 9.0000e-001 98374 -2.8919e+002 -5.3314e+001 -1.3700e+001 35152 98224,98302,98276
 9.0000e-001 98351 -2.6593e+002 -5.8756e+000 -1.6802e+000 35152 98198,98302,98224
 9.0000e-001 98328 -2.1569e+002 -2.4862e+001 -2.9297e+001 35152 98224,98276,98250
 9.0000e-001 98884 -1.0355e+002  6.4432e+001  2.5561e+001 34698 98691,98743,98717
 9.0000e-001 98861 -1.3044e+002  3.5015e+001 -1.7529e+001 34698 98561,98743,98691
 9.0000e-001 98838 -1.0485e+002 -1.7479e+001 -5.9464e+000 34698 98907,98587,98561
 9.0000e-001 98815 -1.0490e+002 -2.6597e+001 -1.6016e+001 34698 98907,98561,98691
 9.0000e-001 98792 -4.7443e+001  6.3671e+001 -1.1256e+001 34698 98587,98639,98613
 9.0000e-001 98769 -1.0103e+002 -4.0167e+001  9.4623e+000 34698 98587,98665,98639
 9.0000e-001 98933 -9.3997e+001 -1.6788e+001  2.0560e+000 34698 98665,98587,98907
 9.0000e-001 98956 -9.3581e+001 -2.9461e+001 -8.3079e+000 34698 98665,98907,98691
 9.0000e-001 99204 -2.0630e+002 -2.6409e+001 -1.5123e+001 34144 99227,99031,99005
 9.0000e-001 99181 -2.2031e+002 -6.5199e+001  1.9429e+001 34144 99299,99227,99005
 9.0000e-001 99158 -2.3878e+002 -5.3932e+001  4.7060e+001 34144 99299,99005,99109
 9.0000e-001 99135 -1.4823e+002 -1.3454e+001  6.8548e+001 34144 98979,99109,99005
 9.0000e-001 99253 -1.9656e+002 -3.3941e+001 -5.2891e+000 34144 99057,99031,99227
 9.0000e-001 99276 -8.4564e+001 -1.7464e+001 -9.2952e+000 34144 99057,99227,99083
 9.0000e-001 99325 -1.7940e+002 -1.2116e+001 -2.6242e+001 34144 99083,99227,99299
 9.0000e-001 99348 -2.3884e+002 -1.8705e+001  2.3079e+000 34144 99083,99299,99109
 9.0000e-001 99498 -5.0197e+002 -1.1840e+002  4.6746e+001 33433 99397,99449,99423
 9.0000e-001 99475 -5.6747e+002 -1.4505e+002  7.0308e+000 33433 99371,99449,99397
 9.0000e-001 100008 -1.5526e+002 -1.9559e+001 -4.4427e-001 32979 100103,100031,99815
 9.0000e-001 99985 -1.4456e+002 -1.4562e+001 -1.2795e+001 32979 100175,100031,99763
 9.0000e-001 99962 -1.5896e+002 -2.3778e+001 -2.8843e+000 32979 100103,99815,99789
 9.0000e-001 99939 -1.5576e+002 -1.9728e+001 -4.9931e+000 32979 100175,99763,99737
 9.0000e-001 99916 -1.4970e+002  3.5080e+001 -5.1684e+000 32979 99685,99867,99737
 9.0000e-001 99893 -9.1885e+001  6.8230e+000 -7.2500e+001 32979 99685,99737,99711
 9.0000e-001 100057 -1.3856e+002 -1.3176e+001  1.0695e+000 32979 99841,99815,100031
 9.0000e-001 100080 -1.3699e+002  1.3738e+001 -2.1766e+001 32979 99841,100031,99867
 9.0000e-001 100129 -1.4044e+002 -3.0386e+001 -5.3261e+000 32979 99763,100031,100103
 9.0000e-001 100152 -1.5143e+002 -3.9798e+001 -9.8110e+000 32979 99763,100103,99789
 9.0000e-001 100201 -1.6158e+002 -1.7615e+001 -1.0411e+001 32979 99867,100031,100175
 9.0000e-001 100224 -1.6412e+002 -1.4939e+001 -3.6651e+000 32979 99867,100175,99737
 9.0000e-001 100553 -6.6201e+001 -2.6408e+001  5.0717e+000 32503 100354,100406,100380
 9.0000e-001 100530 -6.8101e+001 -5.5610e+000 -1.2257e+001 32503 100328,100406,100354
 9.0000e-001 100507 -6.7260e+001 -5.7731e+001 -5.2638e+001 32503 100328,100458,100406
 9.0000e-001 100484 -3.9379e+001 -5.6313e+001 -3.9822e+001 32503 100406,100458,100432
 9.0000e-001 100850 -1.8217e+002  1.2091e+001  1.7234e+001 31899 100873,100654,100628
 9.0000e-001 100827 -1.8466e+002 -1.1015e+001 -9.1652e-001 31899 100945,100873,100628
 9.0000e-001 100804 -1.7108e+002 -3.5722e+001  4.2392e+000 31899 100945,100628,100602
 9.0000e-001 100781 -1.4508e+002 -8.0278e+001 -1.5972e+001 31899 100576,100732,100602
 9.0000e-001 100758 -8.0358e+001 -1.1349e+001  1.9913e+001 31899 100654,100706,100680
 9.0000e-001 100899 -1.0275e+002 -2.5779e+001  2.9148e-001 31899 100706,100654,100873
 9.0000e-001 100922 -2.0325e+002 -4.6233e+001 -2.1324e+001 31899 100706,100873,100732
 9.0000e-001 100971 -1.9845e+002 -3.8602e+001  1.0568e+001 31899 100732,100873,100945
 9.0000e-001 100994 -1.8386e+002 -6.3499e+001  1.4880e+001 31899 100732,100945,100602
 9.0000e-001 101551 -1.1641e+002 -1.2533e+001 -1.9872e+001 31338 101205,101387,101231
 9.0000e-001 101528 -2.5767e+002 -7.8054e+001 -6.9223e+001 31338 101179,101387,101205
 9.0000e-001 101505 -1.3125e+002 -4.7144e+001 -1.1412e+001 31338 101574,101309,101257
 9.0000e-001 101482 -1.0947e+002 -4.1475e+001 -7.6755e+000 31338 101646,101574,101257
 9.0000e-001 101459 -9.1198e+001 -1.3072e+001  1.4682e+000 31338 101646,101257,101231
 9.0000e-001 101436 -1.4029e+002 -8.5935e+000 -1.9092e+001 31338 101309,101361,101335
 9.0000e-001 101413 -1.2070e+002 -3.3969e+001 -2.5524e+001 31338 101257,101309,101283
 9.0000e-001 101600 -1.3775e+002 -4.3832e+001 -7.6076e+000 31338 101361,101309,101574
 9.0000e-001 101623 -1.3600e+002 -6.5462e+001 -2.7735e+001 31338 101361,101574,101387
 9.0000e-001 101672 -1.2166e+002 -3.1695e+001 -2.8847e+001 31338 101387,101574,101646
 9.0000e-001 101695 -1.1210e+002 -2.5091e+001 -2.3105e+001 31338 101387,101646,101231
 9.0000e-001 101943 -2.2760e+002 -8.3459e+001  2.9730e-001 30748 101966,101796,101744
 9.0000e-001 101920 -2.1039e+002 -4.5915e+001  1.2442e+001 30748 101966,101744,101718
 9.0000e-001 101897 -2.1113e+002 -4.9988e+000  4.6637e+001 30748 101718,101848,101822
 9.0000e-001 101874 -2.0982e+002 -5.1053e+001 -2.7577e+001 30748 101744,101796,101770
 9.0000e-001 101992 -2.4159e+002 -4.6061e+001  4.8907e+000 30748 101822,101796,101966
 9.0000e-001 102015 -2.3208e+002 -1.4005e+001  1.1886e+001 30748 101822,101966,101718
 9.0000e-001 102493 -2.5329e+002 -4.1485e+001  4.2033e+001 30344 102516,102173,102147
 9.0000e-001 102470 -2.0665e+002 -2.6537e+001 -1.8662e+001 30344 102660,102516,102147
 9.0000e-001 102447 -9.8569e+001  2.1792e+001  1.0119e+001 30344 102588,102199,102173
 9.0000e-001 102424 -1.7367e+002 -5.1320e+001 -1.9034e+001 30344 102660,102147,102329
 9.0000e-001 102401 -3.4533e+002 -3.6341e+001  2.5288e+001 30344 102199,102277,102251
 9.0000e-001 102378 -1.0337e+002 -1.0450e+002  9.6743e+001 30344 102199,102251,102225
 9.0000e-001 102355 -3.8934e+002 -1.3583e+002  1.1814e+002 30344 102121,102329,102147
 9.0000e-001 102542 -1.4352e+002  1.0218e+001  1.9340e+001 30344 102588,102173,102516
 9.0000e-001 102565 -1.8710e+002 -6.0793e+000 -3.9851e+000 30344 102277,102516,102303
 9.0000e-001 102614 -1.5765e+002  3.9861e+001  1.1143e+001 30344 102277,102199,102588
 9.0000e-001 102637 -2.0195e+002  3.0444e+001  1.1504e+001 30344 102277,102588,102516
 9.0000e-001 102686 -1.7040e+002  5.2630e-001 -4.2941e+000 30344 102303,102516,102660
 9.0000e-001 102709 -1.4658e+002 -3.0288e+001 -5.7602e+000 30344 102303,102660,102329
 9.0000e-001 103294 -1.2182e+002 -1.2239e+001  1.1781e+001 29726 103317,103101,103075
 9.0000e-001 103271 -1.3580e+002 -2.5844e+001  5.6286e+000 29726 103317,103075,102997
 9.0000e-001 103248 -2.3383e+002 -6.2921e+001  3.4445e+001 29726 102971,103153,102997
 9.0000e-001 103225 -9.9591e+001 -1.5034e+000 -6.4958e+000 29726 103101,103153,103127
 9.0000e-001 103202 -1.4547e+002 -3.6005e+001  1.0942e+001 29726 102997,103075,103023
 9.0000e-001 103179 -1.2164e+002 -9.2808e+000 -5.6347e+000 29726 103023,103075,103049
 9.0000e-001 103343 -1.1302e+002 -2.6580e+001  1.2515e+001 29726 103153,103101,103317
 9.0000e-001 103366 -1.2092e+002 -3.1835e+001  9.3993e+000 29726 103153,103317,102997
 9.0000e-001 103614 -8.5059e+001 -6.0178e+000  4.8962e+000 29200 103781,103637,103467
 9.0000e-001 103591 -7.3152e+001 -2.2938e+001 -8.7180e+000 29200 103709,103637,103415
 9.0000e-001 103568 -6.2050e+001 -7.7820e+000 -3.4958e+000 29200 103709,103415,103389
 9.0000e-001 103545 -9.2358e+001  3.5770e+000 -3.9223e+000 29200 103781,103467,103441
 9.0000e-001 103663 -6.4156e+001 -9.0057e+000 -1.2892e+001 29200 103853,103637,103493
 9.0000e-001 103686 -1.2136e+002 -9.4496e+001 -3.8955e+001 29200 103493,103637,103519
 9.0000e-001 103735 -8.9662e+001 -4.6444e+000 -1.8295e+001 29200 103519,103637,103709
 9.0000e-001 103758 -8.0836e+001  5.4912e+000 -1.4302e+001 29200 103519,103709,103389
 9.0000e-001 103807 -9.5035e+001 -1.8002e+001 -2.1017e+000 29200 103415,103637,103781
 9.0000e-001 103830 -1.1190e+002 -1.7667e+001 -1.3067e+001 29200 103415,103781,103441
 9.0000e-001 103879 -6.7004e+001 -1.8135e+001 -1.8120e+000 29200 103467,103637,103853
 9.0000e-001 104545 -2.5189e+002 -1.1277e+001  1.9400e+001 28860 104274,104352,104326
 9.0000e-001 104522 -2.0948e+002 -5.5603e+001 -1.4270e+001 28860 104248,104352,104274
 9.0000e-001 104499 -1.6140e+002 -3.3027e+001 -2.0357e+001 28860 104248,104404,104352
 9.0000e-001 104476 -2.3808e+002 -8.4079e+001 -4.3907e+001 28860 104222,104404,104248
 9.0000e-001 104453 -1.4100e+002 -3.1060e+001 -3.5592e+001 28860 104352,104404,104378
 9.0000e-001 104430 -4.3445e+002 -6.6743e+001  1.7701e+001 28860 104274,104326,104300
 9.0000e-001 104744 -1.1848e+002 -1.3662e+001  1.9635e+001 28456 104839,104767,104646
 9.0000e-001 104721 -7.8850e+001 -1.0694e+001  3.0955e+001 28456 104767,104594,104568
 9.0000e-001 104698 -1.1508e+002 -3.5968e+001  3.9896e+000 28456 104839,104646,104620
 9.0000e-001 104793 -1.3010e+002 -2.5733e+001  2.7866e+001 28456 104672,104646,104767
 9.0000e-001 104816 -9.2224e+001 -1.2553e+001  2.0858e+001 28456 104911,104767,104568
 9.0000e-001 104865 -1.2283e+002 -2.9145e+001  1.8271e+001 28456 104594,104767,104839
 9.0000e-001 104888 -1.2711e+002 -8.1514e+001  5.7989e+000 28456 105041,104839,104620
 9.0000e-001 104937 -1.3194e+002 -8.5795e+001  3.6025e+001 28456 104672,104767,104911
 9.0000e-001 105067 -1.0085e+002 -1.8921e+001  1.5182e+001 28456 104594,104839,105041
 9.0000e-001 105573 -2.0426e+002 -4.5199e+001  1.7818e+001 28094 105812,105596,105328
 9.0000e-001 105550 -2.0633e+002 -5.4489e+001  1.0791e+001 28094 105596,105276,105250
 9.0000e-001 105527 -1.6636e+002 -3.4889e+001  3.9906e+001 28094 105740,105668,105432
 9.0000e-001 105504 -1.6524e+002 -2.6199e+001  4.1954e+001 28094 105740,105432,105380
 9.0000e-001 105481 -2.0724e+002 -4.3134e+001  1.6160e+001 28094 105812,105328,105302
 9.0000e-001 105458 -1.0801e+002 -4.9915e+001  3.9868e+001 28094 105380,105432,105406
 9.0000e-001 105622 -2.5904e+002 -7.8017e+001  4.3125e+001 28094 105354,105328,105596
 9.0000e-001 105645 -1.8215e+002 -4.3160e+001  2.7705e+001 28094 105668,105354,105596
 9.0000e-001 105694 -1.8186e+002 -4.5253e+001  2.4449e+001 28094 105250,105432,105668
 9.0000e-001 105717 -2.1069e+002 -4.3047e+001  1.3430e+001 28094 105250,105668,105596
 9.0000e-001 105766 -1.6885e+002 -4.3934e+001  2.4501e+001 28094 105354,105668,105740
 9.0000e-001 105789 -1.6382e+002 -2.8817e+001  2.6641e+001 28094 105354,105740,105380
 9.0000e-001 105838 -2.0674e+002 -4.9901e+001  1.6608e+001 28094 105276,105596,105812
 9.0000e-001 105861 -2.1305e+002 -4.8768e+001  1.1634e+001 28094 105276,105812,105302
 9.0000e-001 106367 -8.9970e+001 -1.5002e+001 -8.0184e+000 27390 106070,106122,106096
 9.0000e-001 106344 -1.2178e+002 -1.6240e+001  2.9661e+000 27390 106070,106226,106122
 9.0000e-001 106321 -1.6864e+002  2.6295e+000 -2.6248e+000 27390 106174,106226,106200
 9.0000e-001 106298 -1.3372e+002 -1.9410e+001 -1.0404e+001 27390 106122,106226,106174
 9.0000e-001 106275 -1.8523e+002 -4.4898e+001 -4.5586e+001 27390 106122,106174,106148
 9.0000e-001 106252 -9.9264e+001 -8.7156e+000 -3.6449e+000 27390 106044,106226,106070
 9.0000e-001 106615 -1.8009e+002 -1.6774e+001 -2.6128e+000 26978 106638,106494,106416
 9.0000e-001 106592 -1.9323e+002 -2.6556e+001 -7.0818e+000 26978 106638,106416,106390
 9.0000e-001 106569 -1.7938e+002 -2.2481e+001 -1.8019e+001 26978 106416,106494,106442
 9.0000e-001 106546 -2.0331e+002 -2.8512e+001 -1.8100e+001 26978 106442,106494,106468
 9.0000e-001 106664 -1.4490e+002 -2.8575e+001  1.7289e+000 26978 106520,106494,106638
 9.0000e-001 106687 -1.7318e+002 -4.8514e+001 -7.0378e+000 26978 106520,106638,106390
 9.0000e-001 106837 -3.8091e+002 -1.7766e+002 -1.9130e+001 26524 106710,106762,106736
 9.0000e-001 106814 -3.8844e+002 -1.8922e+002 -1.5846e+001 26524 106710,106788,106762
 9.0000e-001 107426 -9.5108e+001 -2.6559e+000 -3.9365e+001 26120 107129,107207,107155
 9.0000e-001 107403 -1.3784e+002 -4.5827e+001 -2.0793e+001 26120 107129,107285,107207
 9.0000e-001 107380 -1.3150e+002 -1.4686e+001 -2.9867e+001 26120 107207,107285,107259
 9.0000e-001 107357 -8.1939e+001 -1.5380e+001 -6.2977e+000 26120 107155,107207,107181
 9.0000e-001 107334 -1.9632e+002 -6.7226e+001 -1.6995e+001 26120 107103,107285,107129
 9.0000e-001 107311 -1.1505e+002  6.6768e+000 -2.1642e+001 26120 107207,107259,107233
 9.0000e-001 107755 -1.0214e+002 -1.7276e+001 -9.1435e+000 25758 107556,107634,107608
 9.0000e-001 107732 -1.8306e+002 -5.5056e+001  1.3968e+001 25758 107556,107660,107634
 9.0000e-001 107709 -7.8930e+001 -3.8325e+001  1.6343e+001 25758 107556,107608,107582
 9.0000e-001 107686 -1.5632e+002  5.3822e+001  4.8960e+001 25758 107530,107660,107556
 9.0000e-001 108438 -1.0149e+002 -3.3362e+001  4.8047e+000 25468 108121,108199,108173
 9.0000e-001 108415 -1.1883e+002 -7.5842e+001  3.6544e+000 25468 108095,108199,108121
 9.0000e-001 108392 -1.2958e+002 -6.6679e+001 -1.0930e-001 25468 108095,108251,108199
 9.0000e-001 108369 -1.4511e+002 -7.9840e+001  9.2473e+000 25468 108069,108251,108095
 9.0000e-001 108346 -1.1993e+002 -6.6478e+001  2.0408e+001 25468 108199,108251,108225
 9.0000e-001 108323 -1.7136e+002 -5.5889e+001 -1.0665e+001 25468 108017,108251,108069
 9.0000e-001 108300 -9.5237e+001 -2.7646e+001  8.0600e+000 25468 108121,108173,108147
 9.0000e-001 108277 -1.7501e+002 -6.2548e+001 -9.2753e+000 25468 108017,108069,108043
 9.0000e-001 108588 -4.3156e+001 -1.4246e+001 -2.8311e+001 25064 108611,108513,108487
 9.0000e-001 108565  1.8285e+001  2.0968e+001 -1.4073e+001 25064 108683,108611,108487
 9.0000e-001 108637 -6.5899e+001  1.4528e+001 -1.0132e+001 25064 108539,108513,108611
 9.0000e-001 108660 -5.6498e+001  2.4425e+001 -4.5442e+000 25064 108539,108611,108461
 9.0000e-001 108709 -6.6838e+001  1.0039e+000 -6.2357e+000 25064 108461,108611,108683
 9.0000e-001 109345 -1.1412e+002 -4.0766e+000  4.4077e+000 24410 108999,109155,109103
 9.0000e-001 109322 -2.6515e+002 -5.2064e+001  2.4960e+001 24410 108973,109155,108999
 9.0000e-001 109299 -1.2434e+002 -4.6033e+001 -1.7760e+000 24410 109103,109155,109129
 9.0000e-001 109276 -1.3484e+002  2.2977e+001 -8.6459e+000 24410 108973,109181,109155
 9.0000e-001 109253 -2.1254e+002 -5.5016e+001  4.1603e+001 24410 109025,109103,109077
 9.0000e-001 109230 -1.7770e+002 -5.1384e+001  2.5526e+001 24410 108999,109103,109025
 9.0000e-001 109207 -2.7374e+002  1.3842e+001  2.6897e+001 24410 109025,109077,109051
 9.0000e-001 109723 -1.7605e+002  2.0380e+001  7.2550e-001 23856 109475,109579,109553
 9.0000e-001 109700 -1.8493e+002 -3.4743e+001  7.2773e-001 23856 109475,109605,109579
 9.0000e-001 109677 -2.0196e+002 -1.6037e+001 -5.6909e+001 23856 109475,109553,109527
 9.0000e-001 109654 -1.0513e+002 -5.3358e-001  1.9286e+001 23856 109449,109605,109475
 9.0000e-001 109631 -1.1095e+002  2.7564e+001 -3.8065e+001 23856 109475,109527,109501
 9.0000e-001 110101 -1.0941e+002 -2.2481e+001 -2.2183e+000 23566 109853,109931,109879
 9.0000e-001 110078 -1.1508e+002 -1.7211e+001  6.3199e+000 23566 109827,109931,109853
 9.0000e-001 110055 -7.3366e+001  2.1775e+001 -9.8642e+000 23566 109827,109983,109931
 9.0000e-001 110032 -1.2502e+002 -3.3805e+001 -7.9058e+000 23566 109879,109931,109905
 9.0000e-001 110009 -6.5490e+001  1.0751e+001  1.6372e+001 23566 109931,109983,109957
 9.0000e-001 110735 -1.0081e+002  9.5450e+000  6.7243e+000 23162 110415,110571,110519
 9.0000e-001 110712 -8.7443e+001 -8.7419e+000  1.0236e+001 23162 110389,110571,110415
 9.0000e-001 110689 -1.9021e+002 -2.5341e+001  1.8205e+001 23162 110415,110519,110493
 9.0000e-001 110666 -6.1596e+001 -2.6178e+000  3.6122e+000 23162 110363,110571,110389
 9.0000e-001 110643 -1.5898e+002 -1.2979e+001  3.9279e+001 23162 110441,110493,110467
 9.0000e-001 110620 -1.5900e+002 -2.8272e+001  1.7976e+001 23162 110415,110493,110441
 9.0000e-001 110597 -1.2628e+002 -3.1290e-001  2.0057e+001 23162 110519,110571,110545
 9.0000e-001 111211 -1.6544e+002 -1.5504e+001 -2.4504e+001 22708 111378,111306,111021
 9.0000e-001 111188 -1.8116e+002 -1.3315e+001 -1.7825e+001 22708 111234,110969,110917
 9.0000e-001 111165 -1.5460e+002 -2.2091e+001 -1.5140e+001 22708 111450,111234,110917
 9.0000e-001 111142 -1.5816e+002 -6.5111e+000 -1.1705e+001 22708 111378,111021,110995
 9.0000e-001 111119 -1.5478e+002 -3.9224e+001  1.8215e+000 22708 111450,110917,110865
 9.0000e-001 111096 -3.7914e+002 -3.9164e+001 -2.0576e+001 22708 110917,110969,110943
 9.0000e-001 111073 -1.5183e+002 -4.6882e+001 -3.2674e+000 22708 110865,110917,110891
 9.0000e-001 111260 -1.8182e+002 -1.5778e+000 -1.3051e+001 22708 111306,110969,111234
 9.0000e-001 111283 -1.8099e+002 -3.2864e+001  1.2866e+001 22708 111047,111234,110839
 9.0000e-001 111332 -2.7854e+002  8.4438e+001 -1.1111e+002 22708 111047,111021,111306
 9.0000e-001 111355 -2.2431e+002 -2.3020e+001  8.4327e+000 22708 111047,111306,111234
 9.0000e-001 111404 -1.8666e+002 -3.0373e+000 -2.2413e+001 22708 110969,111306,111378
 9.0000e-001 111427 -1.8180e+002 -8.6429e+000 -1.7954e+001 22708 110969,111378,110995
 9.0000e-001 111476 -1.6971e+002 -4.6873e+001  5.0504e+000 22708 110839,111234,111450
 9.0000e-001 111499 -1.7922e+002 -7.4109e+001  2.3426e+001 22708 110839,111450,110865
 9.0000e-001 111600 -1.7327e+002 -1.5008e+001  1.0374e+001 22460 111522,111574,111548
 9.0000e-001 112059 -1.1212e+002  1.7437e+001  1.3719e+001 22056 111811,111889,111863
 9.0000e-001 112036 -1.8942e+002 -1.2481e+001  2.9807e+001 22056 111811,111915,111889
 9.0000e-001 112013 -1.2584e+002 -4.7783e+001 -4.2520e+001 22056 111785,111915,111811
 9.0000e-001 111990 -7.4854e+001 -3.9483e+001 -3.5412e+001 22056 111785,111941,111915
 9.0000e-001 111967 -3.9507e+001  4.8560e+001 -2.7581e+001 22056 111811,111863,111837
 9.0000e-001 112486 -1.6334e+002  1.6371e+001  1.3918e+000 21594 112509,112267,112215
 9.0000e-001 112463 -1.6376e+002  1.8760e+001 -1.4106e+001 21594 112509,112215,112163
 9.0000e-001 112440 -1.5074e+002 -4.4154e+001  3.3411e+001 21594 112581,112293,112267
 9.0000e-001 112417 -1.1107e+002 -2.7354e+001 -9.1436e+000 21594 112215,112267,112241
 9.0000e-001 112394 -2.0039e+002  9.2279e+000 -2.1653e+001 21594 112163,112345,112319
 9.0000e-001 112371 -1.5275e+002  3.9432e+001 -9.9883e+000 21594 112163,112215,112189
 9.0000e-001 112535 -1.7860e+002 -1.5306e+001  7.5027e+000 21594 112581,112267,112509
 9.0000e-001 112558 -1.6092e+002  8.0624e+000 -1.7153e+001 21594 112319,112509,112163
 9.0000e-001 112607 -1.0844e+002 -1.7091e+001  1.8343e+001 21594 112319,112293,112581
 9.0000e-001 112630 -1.3145e+002  2.5009e+001 -1.0288e+001 21594 112319,112581,112509
 9.0000e-001 112900 -1.6664e+002  6.3465e+000 -1.8184e+000 20974 112675,112779,112701
 9.0000e-001 112877 -1.6732e+002  4.0071e+001 -2.0205e+001 20974 112675,112805,112779
 9.0000e-001 112854 -1.8994e+002 -6.1557e+001 -2.1181e+001 20974 112701,112779,112753
 9.0000e-001 112831 -2.1342e+002 -9.7019e+001 -1.8578e+000 20974 112701,112753,112727
 9.0000e-001 113359 -1.0511e+002  4.4638e+001  5.9057e+001 20520 113454,113137,113111
 9.0000e-001 113336 -1.4674e+002  2.4943e+000  3.7950e+001 20520 113454,113111,113085
 9.0000e-001 113313 -1.1237e+002 -3.2416e+001  4.1807e+001 20520 113382,113163,113137
 9.0000e-001 113290 -1.2605e+002 -3.0354e+001  4.3028e+001 20520 113526,113382,113137
 9.0000e-001 113267 -1.0390e+002  3.9830e-001  1.1543e+001 20520 113189,113241,113215
 9.0000e-001 113408 -1.0917e+002 -2.0119e+001  3.0404e+001 20520 113189,113163,113382
 9.0000e-001 113431 -1.2693e+002 -3.1098e+001  2.3063e+001 20520 113189,113382,113241
 9.0000e-001 113480 -1.3246e+002 -1.1705e+001  3.8229e+001 20520 113526,113137,113454
 9.0000e-001 113503 -1.2889e+002 -2.6922e-001  2.2167e+001 20520 113241,113454,113085
 9.0000e-001 113552 -1.1264e+002 -2.3627e+000  3.2578e+001 20520 113241,113382,113526
 9.0000e-001 113575 -1.2051e+002  1.1135e+001  2.6687e+001 20520 113241,113526,113454
 9.0000e-001 113904 -3.2190e+001 -2.0346e+001 -3.6955e+001 19858 113705,113783,113757
 9.0000e-001 113881 -7.8078e+001 -2.8680e+001 -1.9921e+001 19858 113705,113809,113783
 9.0000e-001 113858 -6.5344e+001 -2.0529e+001 -2.9348e+001 19858 113679,113809,113705
 9.0000e-001 113835 -3.0718e+001  9.1506e+000  3.9267e+000 19858 113705,113757,113731
 9.0000e-001 114152 -1.5578e+002 -4.6445e+001 -3.5445e+001 19454 114175,114005,113979
 9.0000e-001 114129 -1.6259e+002 -4.4797e+001 -3.7713e+001 19454 114175,113979,114057
 9.0000e-001 114106 -1.5413e+002  1.2020e+001  2.5721e+001 19454 113927,114057,113979
 9.0000e-001 114083 -1.2821e+002  2.5701e+000 -8.2090e-001 19454 113927,113979,113953
 9.0000e-001 114201 -9.6836e+000  1.6078e+001 -1.7832e+001 19454 114031,114005,114175
 9.0000e-001 114224 -1.5841e+002 -5.2908e+001 -3.6698e+001 19454 114031,114175,114057
 9.0000e-001 114472 -8.6366e+001 -2.2708e+001 -1.3992e+001 19000 114495,114273,114247
 9.0000e-001 114449 -9.8270e+001 -7.3580e+000 -2.3403e+001 19000 114495,114247,114325
 9.0000e-001 114426 -1.3001e+002 -2.6458e+001  3.9748e-001 19000 114247,114377,114325
 9.0000e-001 114403 -1.2539e+002 -1.6464e+001  1.7429e+000 19000 114325,114377,114351
 9.0000e-001 114521 -5.7277e+001 -9.2003e+000 -1.9443e+001 19000 114299,114273,114495
 9.0000e-001 114544 -9.2160e+001 -3.1687e+000 -2.5248e+001 19000 114299,114495,114325
 9.0000e-001 114948 -2.3175e+002 -5.3481e+001 -1.7270e+001 18560 114674,114726,114700
 9.0000e-001 114925 -2.3679e+002 -8.4982e+001 -1.4324e+001 18560 114674,114830,114726
 9.0000e-001 114902 -2.5044e+002 -1.2010e+002 -2.9844e+001 18560 114726,114830,114804
 9.0000e-001 114879 -1.7960e+002 -6.7262e+001 -3.2047e+000 18560 114726,114804,114752
 9.0000e-001 114856 -2.0092e+002 -8.9007e+001  5.5142e+000 18560 114752,114804,114778
 9.0000e-001 115098 -1.3569e+002  8.1775e+000 -1.4995e+001 18156 114971,115023,114997
 9.0000e-001 115075 -1.5832e+002  1.1362e+001 -5.7541e+000 18156 114971,115049,115023
 9.0000e-001 115248 -1.7320e+002  4.3503e+001  1.9154e+001 17602 115147,115199,115173
 9.0000e-001 115225 -8.2230e+001 -6.3589e+000 -9.7042e-001 17602 115121,115199,115147
 9.0000e-001 115652 -1.2951e+002 -4.8149e+001 -2.8126e+000 17354 115430,115534,115508
 9.0000e-001 115629 -1.1920e+002 -1.3307e+001 -1.0023e+001 17354 115404,115534,115430
 9.0000e-001 115606 -9.5013e+001  3.3373e+001  1.2709e+000 17354 115378,115534,115404
 9.0000e-001 115583 -2.4465e+002 -2.3630e+001  2.9695e+001 17354 115456,115508,115482
 9.0000e-001 115560 -1.1417e+002 -1.4275e+001  5.3983e-001 17354 115430,115508,115456
 9.0000e-001 115873 -1.3560e+002 -3.4553e+001  2.2834e+001 16950 115749,115801,115775
 9.0000e-001 115850 -1.7088e+002 -3.7566e+001  2.1149e+001 16950 115697,115801,115749
 9.0000e-001 115827 -1.8071e+002 -8.0461e+001  2.4074e+001 16950 115697,115749,115723
 9.0000e-001 116023 -2.2683e+002 -8.5127e+000  6.7256e+000 16496 115922,115974,115948
 9.0000e-001 116000 -9.8149e+001 -4.0036e+001  3.0893e-001 16496 115896,115974,115922
 9.0000e-001 116126 -2.0086e+002  3.5332e+001 -2.1064e+001 16298 116048,116100,116074
 9.0000e-001 116278 -3.6257e+002 -6.9216e-001 -2.5298e+000 15892 116151,116203,116177
 9.0000e-001 116255 -3.4289e+002 -2.0229e+001 -3.7347e+001 15892 116151,116229,116203
 9.0000e-001 116430 -1.6042e+002 -1.3042e+002 -1.9388e+000 15545 116303,116355,116329
 9.0000e-001 116407 -1.2058e+002 -5.8560e+001  3.1663e+001 15545 116303,116381,116355
 9.0000e-001 116785 -7.0461e+001  1.9791e+000 -7.7334e+000 421 116612,116690,116664
 9.0000e-001 116762 -7.8911e+001 -1.6603e+001  1.6614e+001 421 116560,116690,116612
 9.0000e-001 116739 -6.8756e+001 -3.8401e+000 -5.0675e-001 421 116560,116612,116586
 9.0000e-001 116716 -1.7238e+001 -5.8963e+000  7.4341e+000 421 116612,116664,116638
 1.0000e+000 68048 -3.1384e+002 -6.1434e+000 -3.9866e+000 67642 67898,67950,67924
 1.0000e+000 68025 -3.4201e+002 -4.9519e+001  8.8170e+000 67642 67898,67976,67950
 1.0000e+000 68002 -2.3637e+002 -2.2977e+000 -5.2770e-001 67642 67872,67976,67898
 1.0000e+000 68367 -1.9214e+002 -3.6780e+001  7.4862e+000 67444 68119,68223,68197
 1.0000e+000 68344 -1.8659e+002 -5.5394e+001  7.2323e-001 67444 68119,68249,68223
 1.0000e+000 68321 -8.3218e+001 -1.8785e+001  9.0975e+000 67444 68093,68249,68119
 1.0000e+000 68298 -2.1133e+002 -7.2021e+001 -1.2845e+001 67444 68119,68197,68171
 1.0000e+000 68275 -1.7052e+002 -2.2858e+001  1.1939e+001 67444 68119,68171,68145
 1.0000e+000 68468 -2.2333e+002 -1.1295e+001  1.2457e+001 67268 68390,68442,68416
 1.0000e+000 68765 -2.8233e+002  6.9093e+001  2.1510e+001 66956 68788,68517,68491
 1.0000e+000 68742 -2.8416e+002 -1.2070e+001  3.8861e+000 66956 68788,68491,68621
 1.0000e+000 68719 -3.1199e+002 -6.9315e+001 -6.4282e+001 66956 68543,68621,68569
 1.0000e+000 68696 -2.7858e+002 -5.3287e+000 -1.9178e+000 66956 68491,68647,68621
 1.0000e+000 68673 -4.3553e+002 -1.4080e+002 -1.0472e+002 66956 68569,68621,68595
 1.0000e+000 68814 -2.5205e+002  5.3368e+000  4.4996e+001 66956 68543,68517,68788
 1.0000e+000 68837 -2.5494e+002 -7.6667e+001  2.0255e+001 66956 68543,68788,68621
 1.0000e+000 69107 -2.3008e+002 -1.7910e+002 -1.5632e+001 66758 68882,68986,68908
 1.0000e+000 69084 -1.7724e+002 -1.3923e+002  1.3702e+001 66758 68882,69012,68986
 1.0000e+000 69061 -4.0072e+002 -7.2083e+001 -3.5558e+001 66758 68908,68960,68934
 1.0000e+000 69038 -1.9587e+002 -8.6875e+001 -2.9966e+001 66758 68908,68986,68960
 1.0000e+000 69308 -2.0843e+002  3.9808e+000 -6.3576e+000 66560 69331,69184,69158
 1.0000e+000 69285 -2.0373e+002 -1.1991e+000 -7.0023e+000 66560 69331,69158,69132
 1.0000e+000 69262 -2.2522e+002 -4.9083e+001 -4.9133e+000 66560 69184,69236,69210
 1.0000e+000 69357 -2.0802e+002 -1.7720e-001 -4.6826e+000 66560 69236,69184,69331
 1.0000e+000 69380 -2.0667e+002 -8.3691e+000 -3.9764e+000 66560 69236,69331,69132
 1.0000e+000 69554 -1.3641e+002 -4.4234e+000  9.3155e+000 66270 69427,69479,69453
 1.0000e+000 69531 -1.1462e+002  4.6538e+001  1.9350e+001 66270 69427,69505,69479
 1.0000e+000 69804 -1.5230e+002 -3.6802e+001  2.6056e+001 66066 69579,69683,69657
 1.0000e+000 69781 -1.7671e+002 -4.3821e+001 -1.6008e+000 66066 69579,69709,69683
 1.0000e+000 69758 -1.1251e+002 -1.3181e+001  6.5972e+000 66066 69579,69657,69631
 1.0000e+000 69735 -1.0733e+002 -2.9532e+000  1.2107e+001 66066 69579,69631,69605
 1.0000e+000 70257 -1.9521e+002 -6.7606e+000 -4.2603e+001 65776 69960,70090,69986
 1.0000e+000 70234 -1.8054e+002  3.5767e+000 -2.4922e+001 65776 69934,70090,69960
 1.0000e+000 70211 -5.1821e+001  5.4882e+001 -1.7579e+001 65776 69934,70116,70090
 1.0000e+000 70188 -1.9711e+002  7.5577e+001  0.0000e+000 65776 70038,70090,70064
 1.0000e+000 70165 -1.8046e+002  1.0782e+002 -2.9260e+001 65776 69986,70090,70038
 1.0000e+000 70142 -2.2476e+002 -2.1612e+001 -6.7543e+001 65776 69986,70038,70012
 1.0000e+000 70456 -1.4495e+002 -1.1168e+001  2.0403e+001 65372 70479,70306,70280
 1.0000e+000 70433 -1.1060e+002  4.5292e+001  5.6895e+000 65372 70479,70280,70384
 1.0000e+000 70410 -1.1315e+002 -5.1960e+000 -1.5605e+001 65372 70551,70332,70306
 1.0000e+000 70505 -1.1113e+002 -1.0458e+001 -1.1348e+001 65372 70551,70306,70479
 1.0000e+000 70528 -9.3234e+001  1.3778e+001 -1.6680e+001 65372 70358,70479,70384
 1.0000e+000 70577 -1.1227e+002  2.3966e+000 -1.4283e+001 65372 70358,70332,70551
 1.0000e+000 70600 -1.0851e+002 -6.0162e-001 -1.0365e+001 65372 70358,70551,70479
 1.0000e+000 70821 -1.1950e+002 -4.4164e+001 -1.0064e+001 65174 70645,70723,70671
 1.0000e+000 70798 -2.3925e+002 -8.3657e+001  1.0450e+001 65174 70645,70749,70723
 1.0000e+000 70775 -9.2106e+001 -1.4243e+001 -2.1459e+001 65174 70671,70723,70697
 1.0000e+000 71071 -1.5803e+002 -7.3665e+000 -1.8183e+001 64770 71094,70898,70872
 1.0000e+000 71048 -1.4564e+002 -4.9666e+000 -1.1035e+001 64770 71166,71094,70872
 1.0000e+000 71025 -1.4532e+002 -9.8917e+000 -1.4752e+001 64770 71166,70872,70846
 1.0000e+000 71002 -2.2699e+002 -1.8191e+001 -1.2313e+001 64770 70898,70950,70924
 1.0000e+000 71120 -1.4931e+002  3.3499e+000 -1.3678e+001 64770 70950,70898,71094
 1.0000e+000 71143 -1.3673e+002 -5.2812e+000 -6.8038e+000 64770 70950,71094,70976
 1.0000e+000 71192 -1.4836e+002 -1.4926e+001 -1.0992e+001 64770 70976,71094,71166
 1.0000e+000 71215 -1.4586e+002 -1.6447e+001 -1.4897e+001 64770 70976,71166,70846
 1.0000e+000 71514 -2.0510e+002 -5.4779e+001 -1.2703e+001 64572 71681,71537,71318
 1.0000e+000 71491 -2.5207e+002 -7.2445e+000 -1.8738e+001 64572 71537,71266,71240
 1.0000e+000 71468 -1.9895e+002 -1.6378e+001 -3.3998e+001 64572 71609,71396,71370
 1.0000e+000 71445 -1.9058e+002 -9.0980e+001  1.5354e+000 64572 71681,71318,71292
 1.0000e+000 71422 -1.7529e+002 -6.4215e+001 -1.6794e+001 64572 71753,71344,71318
 1.0000e+000 71563 -1.7697e+002 -3.7747e+001 -3.2470e+001 64572 71753,71318,71537
 1.0000e+000 71586 -1.9939e+002 -2.7411e+001 -2.3611e+001 64572 71609,71370,71537
 1.0000e+000 71635 -1.7535e+002  2.5150e+001 -5.9213e+001 64572 71240,71396,71609
 1.0000e+000 71658 -2.0047e+002 -5.4764e+000 -4.3839e+001 64572 71240,71609,71537
 1.0000e+000 71707 -2.0748e+002  1.4186e+001 -1.2072e+001 64572 71266,71537,71681
 1.0000e+000 71730 -1.9820e+002 -1.9234e+001  1.7710e+001 64572 71266,71681,71292
 1.0000e+000 71779 -1.4307e+002 -3.7342e+001 -2.9892e+001 64572 71370,71344,71753
 1.0000e+000 71802 -1.6039e+002 -2.7670e+001 -3.6786e+001 64572 71370,71753,71537
 1.0000e+000 72052 -9.2533e+001 -2.6143e+001 -1.1045e+001 64374 72075,71879,71827
 1.0000e+000 72029 -1.2426e+002 -2.4658e+001 -3.5321e+001 64374 72147,72075,71827
 1.0000e+000 72006 -1.3768e+002  1.0631e+000 -7.9871e+000 64374 72147,71827,71957
 1.0000e+000 71983 -7.4574e+001 -1.1262e+001 -2.0570e+001 64374 71827,71879,71853
 1.0000e+000 72101 -1.0445e+002 -5.3872e+001 -1.2972e+001 64374 71905,71879,72075
 1.0000e+000 72124 -1.4016e+002 -2.4397e+001 -5.2877e+001 64374 71905,72075,71931
 1.0000e+000 72173 -1.0656e+002  3.7002e+001 -3.7007e+001 64374 71931,72075,72147
 1.0000e+000 72196 -1.2534e+002  5.9087e+001 -1.7119e+001 64374 71931,72147,71957
 1.0000e+000 72649 -2.6209e+002 -9.0617e+001  1.5411e+001 63948 72352,72508,72482
 1.0000e+000 72626 -2.8093e+002 -1.3936e+002 -3.7834e+001 63948 72326,72508,72352
 1.0000e+000 72603 -2.1122e+002 -9.8200e+001  2.4759e+000 63948 72672,72430,72378
 1.0000e+000 72580 -2.0228e+002 -3.3683e+001 -1.8039e+001 63948 72672,72378,72352
 1.0000e+000 72557 -2.2123e+002 -1.5861e+002 -4.6194e+000 63948 72744,72456,72430
 1.0000e+000 72534 -2.1712e+002 -5.4130e+001  5.3061e+001 63948 72378,72430,72404
 1.0000e+000 72698 -2.1701e+002 -1.4254e+002  4.1502e+000 63948 72744,72430,72672
 1.0000e+000 72721 -2.2143e+002 -8.5961e+001  5.0503e+000 63948 72482,72672,72352
 1.0000e+000 72770 -2.5363e+002 -1.2883e+002 -1.5865e+000 63948 72482,72456,72744
 1.0000e+000 72793 -2.2894e+002 -8.9551e+001  1.1981e+001 63948 72482,72744,72672
 1.0000e+000 72894 -2.6301e+002 -1.8769e+001  2.0179e+001 63494 72816,72868,72842
 1.0000e+000 73093 -1.2673e+002  6.2360e+001 -1.7142e+001 63132 72943,72995,72969
 1.0000e+000 73070 -2.8038e+002  5.6135e-001 -1.2542e+001 63132 72943,73021,72995
 1.0000e+000 73047 -2.8256e+002 -2.9721e+001 -6.5471e+000 63132 72917,73021,72943
 1.0000e+000 73294 -1.6095e+002 -7.9980e+000  1.8519e+001 62792 73317,73144,73118
 1.0000e+000 73271 -1.4669e+002  1.6272e+001  1.0255e+000 62792 73317,73118,73222
 1.0000e+000 73248 -9.3663e+001 -3.3450e+001 -5.4121e+000 62792 73144,73196,73170
 1.0000e+000 73343 -1.3667e+002 -2.7080e+001 -9.4636e+000 62792 73196,73144,73317
 1.0000e+000 73366 -1.1758e+002  1.1039e+001 -2.8491e+001 62792 73196,73317,73222
 1.0000e+000 73616 -2.2955e+002 -4.9596e+001  2.3243e+001 62388 73639,73417,73391
 1.0000e+000 73593 -2.1372e+002 -1.5031e+001  6.7790e+000 62388 73711,73639,73391
 1.0000e+000 73570 -2.1733e+002  1.3866e+001  7.0138e+000 62388 73711,73391,73521
 1.0000e+000 73547 -1.9864e+002 -7.0949e+000 -4.0151e+001 62388 73469,73521,73495
 1.0000e+000 73665 -1.8732e+002 -3.3522e+001  7.5679e+000 62388 73443,73417,73639
 1.0000e+000 73688 -2.1302e+002 -2.7649e+001 -4.7722e+000 62388 73443,73639,73469
 1.0000e+000 73737 -2.1899e+002 -3.6225e+001  1.5988e-001 62388 73469,73639,73711
 1.0000e+000 73760 -2.2875e+002 -1.9287e+001  3.5273e+000 62388 73469,73711,73521
 1.0000e+000 74010 -2.4239e+002 -7.9917e+001 -4.6255e+001 61848 74033,73837,73811
 1.0000e+000 73987 -1.1545e+002 -6.4622e+001  4.0132e+000 61848 74033,73811,73785
 1.0000e+000 73964 -2.1704e+002 -2.9277e+001  1.2991e+001 61848 73837,73915,73889
 1.0000e+000 73941 -3.1763e+002 -1.8062e+001 -3.7477e+001 61848 73837,73889,73863
 1.0000e+000 74059 -2.5591e+002 -3.7735e+001 -1.7995e+001 61848 73915,73837,74033
 1.0000e+000 74082 -2.4425e+002 -9.1935e+000 -9.7770e-001 61848 73915,74033,73785
 1.0000e+000 74283 -2.2828e+002  3.9790e+000 -2.6953e+001 61444 74306,74133,74107
 1.0000e+000 74260 -2.4842e+002  1.8616e+001  4.7134e+001 61444 74306,74107,74211
 1.0000e+000 74237 -2.6086e+002 -9.0351e+001  6.6209e+001 61444 74378,74185,74159
 1.0000e+000 74332 -3.1326e+002 -3.2885e+001 -3.4488e+001 61444 74159,74133,74306
 1.0000e+000 74355 -2.9899e+002 -2.5297e+001  4.9399e+001 61444 74378,74159,74306
 1.0000e+000 74404 -2.5015e+002 -2.1934e+001  3.4068e+001 61444 74211,74185,74378
 1.0000e+000 74427 -2.6451e+002  1.8808e+000  3.6407e+001 61444 74211,74378,74306
 1.0000e+000 74628 -2.0833e+002 -2.5993e+001  3.6657e+001 60990 74478,74530,74504
 1.0000e+000 74605 -1.1427e+002 -2.0824e+001  1.5419e+001 60990 74452,74530,74478
 1.0000e+000 74582 -2.0768e+002 -5.3621e+001  2.8580e+001 60990 74452,74556,74530
 1.0000e+000 75089 -7.3442e+000  1.0417e+001 -5.7629e+000 60486 75112,74945,74919
 1.0000e+000 75066 -3.9557e+001  3.7539e+001  3.4846e+001 60486 75112,74919,74867
 1.0000e+000 75043 -7.9128e+001  2.1582e+001  2.2253e+001 60486 74841,74971,74867
 1.0000e+000 75020 -2.0270e+002  1.0031e+001 -1.6124e+001 60486 74867,74919,74893
 1.0000e+000 74997  4.8728e+000  2.0383e+001 -7.7343e+000 60486 74815,74971,74841
 1.0000e+000 75138 -5.6111e+001 -1.3097e+001 -1.3533e+001 60486 74971,74945,75112
 1.0000e+000 75161 -7.5897e+001  1.5974e+001  2.5894e+001 60486 74971,75112,74867
 1.0000e+000 75409 -1.5824e+002 -2.9037e+001 -3.1783e+001 59932 75576,75432,75288
 1.0000e+000 75386 -2.0842e+002 -4.1679e+001 -4.5515e+001 59932 75504,75314,75288
 1.0000e+000 75363 -1.1675e+002 -9.5337e+000  6.9673e+000 59932 75432,75236,75210
 1.0000e+000 75340 -9.4768e+001  1.0997e+001 -1.2442e+001 59932 75576,75288,75262
 1.0000e+000 75458 -2.0585e+002 -4.3431e+001 -4.5104e+001 59932 75504,75288,75432
 1.0000e+000 75481 -2.1288e+002 -4.0240e+001  1.5300e+001 59932 75184,75432,75210
 1.0000e+000 75530 -2.7363e+002 -8.0151e+001 -3.0123e+000 59932 75184,75314,75504
 1.0000e+000 75553 -1.9452e+002 -4.2467e+001 -3.7234e+001 59932 75184,75504,75432
 1.0000e+000 75602 -1.9399e+002  1.6062e+001 -2.8390e+001 59932 75236,75432,75576
 1.0000e+000 75625 -1.9256e+002  1.5713e+001 -2.8813e+001 59932 75236,75576,75262
 1.0000e+000 75873 -9.9432e+001 -3.1725e+001  3.5103e+001 59478 75674,75752,75700
 1.0000e+000 75850 -8.1839e+001 -2.5020e+001  7.9102e+000 59478 75648,75752,75674
 1.0000e+000 75827 -1.2092e+002 -1.0381e+001  4.7173e+001 59478 75700,75752,75726
 1.0000e+000 75804 -1.2951e+002 -8.5125e+000  1.1551e+001 59478 75648,75778,75752
 1.0000e+000 76206 -1.1394e+002 -3.3416e+001 -1.5300e+001 59024 75981,76059,76007
 1.0000e+000 76183 -1.1710e+002 -1.7789e+001 -1.8776e+001 59024 75981,76111,76059
 1.0000e+000 76160 -1.1386e+002 -4.5998e+001 -6.6641e+000 59024 76007,76059,76033
 1.0000e+000 76137 -1.2106e+002 -1.1314e+001 -3.0678e+001 59024 76059,76111,76085
 1.0000e+000 76761 -6.2791e+001 -1.0943e+001  2.5747e+001 58562 76389,76441,76415
 1.0000e+000 76738 -1.2800e+002  1.4800e+000 -1.7770e+001 58562 76856,76784,76389
 1.0000e+000 76715 -1.4630e+002 -1.1547e+001 -4.0986e+001 58562 76784,76571,76467
 1.0000e+000 76692 -2.1600e+002  2.7662e+001 -2.5426e+001 58562 76856,76389,76597
 1.0000e+000 76669 -2.8832e+002 -7.2133e+001 -1.5499e+001 58562 76467,76545,76493
 1.0000e+000 76646 -1.7053e+002 -1.1521e+001 -4.3220e+001 58562 76467,76571,76545
 1.0000e+000 76623 -1.4308e+002  1.8809e+000  1.4183e+001 58562 76493,76545,76519
 1.0000e+000 76810 -1.2186e+002 -1.4060e+001 -2.6354e+001 58562 76441,76389,76784
 1.0000e+000 76833 -1.2918e+002 -1.7151e-002 -7.5278e+000 58562 76441,76784,76467
 1.0000e+000 76882 -2.2364e+002 -3.7529e+001 -6.0526e+001 58562 76571,76784,76856
 1.0000e+000 76905 -2.7940e+002  1.0852e+001 -6.9818e+001 58562 76571,76856,76597
 1.0000e+000 77055 -2.7726e+002 -7.5474e+001  6.3442e+000 57844 76928,76980,76954
 1.0000e+000 77032 -2.0356e+002 -6.4466e+000 -2.2656e+001 57844 76928,77006,76980
 1.0000e+000 77533 -2.2296e+002 -7.8238e+001 -1.1037e+001 57226 77628,77556,77291
 1.0000e+000 77510 -2.2726e+002  8.6401e+001  1.0609e+001 57226 77556,77187,77343
 1.0000e+000 77487 -1.4303e+002 -8.2343e+001 -2.1725e+001 57226 77628,77291,77265
 1.0000e+000 77464 -1.1270e+002 -5.5566e+001 -4.2185e+001 57226 77700,77213,77187
 1.0000e+000 77441 -4.4872e+002  3.4491e+000  1.9604e+001 57226 77161,77343,77187
 1.0000e+000 77418 -2.5075e+002 -1.6250e+001  1.3502e+001 57226 77161,77369,77343
 1.0000e+000 77395 -1.4009e+002 -2.4848e+001 -5.7666e+001 57226 77213,77265,77239
 1.0000e+000 77582 -2.4161e+002 -1.0200e+002  2.4738e+001 57226 77317,77291,77556
 1.0000e+000 77605 -2.7117e+002  9.7359e+000 -8.9905e+000 57226 77317,77556,77343
 1.0000e+000 77654 -1.0221e+002 -2.4409e+000  2.1522e+001 57226 77187,77556,77628
 1.0000e+000 77677 -9.7388e+001 -6.0968e+001 -1.8497e+001 57226 77700,77187,77628
 1.0000e+000 77726 -1.6482e+002 -7.8177e+001 -4.9845e+001 57226 77265,77213,77700
 1.0000e+000 77749 -1.4826e+002 -7.9160e+001 -2.2764e+001 57226 77265,77700,77628
 1.0000e+000 78046 -2.6455e+002 -1.4936e+001  3.3956e+000 56936 77798,77850,77824
 1.0000e+000 78023 -2.6432e+002 -7.4595e+001 -1.5470e+001 56936 78069,77798,77902
 1.0000e+000 78000 -2.7369e+002 -7.3814e+001 -1.7363e+001 56936 78069,77902,77876
 1.0000e+000 77977 -3.0179e+002 -9.9346e+001 -6.3551e+001 56936 77798,77928,77902
 1.0000e+000 77954 -3.4450e+002 -6.7506e+001 -6.1478e+001 56936 77772,77928,77798
 1.0000e+000 78095 -2.6119e+002 -7.3899e+001 -1.5467e+001 56936 77850,77798,78069
 1.0000e+000 78118 -2.6556e+002 -7.0313e+001 -1.7881e+001 56936 77850,78069,77876
 1.0000e+000 78754 -1.4227e+002 -6.3968e+001  8.4788e+000 56475 78777,78486,78408
 1.0000e+000 78731 -2.2131e+002 -1.1991e+002  3.3189e+001 56475 78777,78408,78382
 1.0000e+000 78708 -2.0073e+002 -1.0645e+002 -3.4412e+001 56475 78849,78512,78486
 1.0000e+000 78685 -1.6469e+002 -2.8261e+001  1.7869e+000 56475 78382,78590,78564
 1.0000e+000 78662 -2.9445e+002 -7.4400e+001 -6.4930e+001 56475 78512,78564,78538
 1.0000e+000 78639 -1.4947e+002 -7.3506e+001  4.7911e+000 56475 78434,78486,78460
 1.0000e+000 78616 -1.4500e+002 -7.3108e+001  4.7787e+000 56475 78408,78486,78434
 1.0000e+000 78803 -2.0069e+002 -8.5524e+001 -1.2917e+001 56475 78849,78486,78777
 1.0000e+000 78826 -1.9445e+002 -4.9108e+001  1.2432e+001 56475 78564,78777,78382
 1.0000e+000 78875 -1.8887e+002 -6.6510e+001 -2.3691e+001 56475 78564,78512,78849
 1.0000e+000 78898 -1.9412e+002 -4.3173e+001 -6.9901e+000 56475 78564,78849,78777
 1.0000e+000 79276 -1.6733e+002 -3.5229e+001  1.3852e+001 55964 79299,79080,79028
 1.0000e+000 79253 -2.2106e+002 -4.5946e+001  6.3666e+000 55964 79299,79028,79132
 1.0000e+000 79230 -1.4586e+002 -4.5854e+001 -1.6892e-001 55964 79028,79080,79054
 1.0000e+000 79207 -2.1452e+002 -7.2783e+001 -6.4530e+000 55964 79002,79132,79028
 1.0000e+000 79184 -2.5270e+002 -8.8693e+001 -1.0516e+001 55964 79002,79158,79132
 1.0000e+000 79325 -1.9191e+002 -2.6892e+001 -2.6915e+001 55964 79106,79080,79299
 1.0000e+000 79348 -2.5066e+002 -3.7645e+001 -3.1997e+001 55964 79106,79299,79132
 1.0000e+000 79498 -2.4610e+002 -2.6273e+001 -2.4751e+001 55452 79397,79449,79423
 1.0000e+000 79475 -1.7140e+002  7.1445e+001  7.8527e+000 55452 79371,79449,79397
 1.0000e+000 79795 -1.3035e+002 -9.6873e+000  1.1316e+001 55048 79962,79818,79573
 1.0000e+000 79772 -1.6038e+002 -2.6456e+001 -1.6068e+001 55048 79818,79521,79677
 1.0000e+000 79749 -1.3364e+002 -7.1853e+001  9.8255e+000 55048 79599,79651,79625
 1.0000e+000 79726 -1.6902e+002 -5.0518e+001  2.1544e+000 55048 79890,79651,79599
 1.0000e+000 79703 -9.4523e+001  2.9995e+001  3.8560e+001 55048 79962,79573,79547
 1.0000e+000 79844 -1.5248e+002 -4.3172e+001  6.9833e-001 55048 79599,79573,79818
 1.0000e+000 79867 -1.5959e+002 -2.8874e+001  3.2734e+000 55048 79890,79599,79818
 1.0000e+000 79916 -1.6843e+002 -4.5621e+001 -1.8909e+001 55048 79677,79651,79890
 1.0000e+000 79939 -1.6454e+002 -3.6904e+001 -1.8177e+001 55048 79677,79890,79818
 1.0000e+000 79988 -1.5424e+002 -3.5375e+001 -1.7316e+001 55048 79521,79818,79962
 1.0000e+000 80011 -1.4662e+002 -2.5777e+001  4.8215e+000 55048 79521,79962,79547
 1.0000e+000 80212 -2.1148e+002  7.5744e+000  9.7092e+000 54436 80235,80088,80036
 1.0000e+000 80189 -1.6551e+002  7.2460e+000  7.5448e+000 54436 80235,80036,80140
 1.0000e+000 80166 -2.2371e+002 -1.6758e+000  2.2973e+001 54436 80036,80088,80062
 1.0000e+000 80261 -1.7294e+002 -1.7654e+001  3.6814e+001 54436 80114,80088,80235
 1.0000e+000 80284 -1.1190e+002 -6.1706e+000  3.5456e+001 54436 80114,80235,80140
 1.0000e+000 80534 -2.2801e+002 -2.4260e+001 -1.6548e+001 54032 80557,80361,80335
 1.0000e+000 80511 -1.9601e+002 -8.6367e-002 -2.7901e+001 54032 80557,80335,80309
 1.0000e+000 80488 -1.7908e+002 -2.9550e+001 -1.0969e+001 54032 80629,80413,80387
 1.0000e+000 80465 -1.4211e+002 -5.4984e+001 -1.5074e+001 54032 80309,80439,80413
 1.0000e+000 80583 -2.0703e+002 -5.9212e+001  5.9476e+000 54032 80387,80361,80557
 1.0000e+000 80606 -1.7934e+002 -2.8754e+001 -5.6098e+000 54032 80629,80387,80557
 1.0000e+000 80655 -1.8497e+002 -3.2293e+001 -9.9537e+000 54032 80309,80413,80629
 1.0000e+000 80678 -1.8819e+002 -3.2125e+001 -5.3692e+000 54032 80309,80629,80557
 1.0000e+000 81139 -7.5600e+001  8.3821e+001  6.6096e+001 53784 80865,80995,80917
 1.0000e+000 81116 -1.6286e+002  9.9016e+001 -8.0039e+001 53784 80865,81021,80995
 1.0000e+000 81093 -5.0221e+001 -2.8789e+000  1.6313e+001 53784 80943,80995,80969
 1.0000e+000 81070 -6.8943e+000  2.6538e+001  5.4684e+001 53784 80917,80995,80943
 1.0000e+000 81047 -2.4912e+002  5.1985e+002  1.9297e+002 53784 80865,80917,80891
 1.0000e+000 81468 -1.7303e+002 -2.5866e+001 -1.3185e+001 53230 81295,81373,81347
 1.0000e+000 81445 -1.4770e+002 -1.3288e+001  7.3551e-001 53230 81243,81373,81295
 1.0000e+000 81422 -9.7142e+001 -1.7262e+001  4.0831e+001 53230 81243,81295,81269
 1.0000e+000 81399 -1.9489e+002 -5.0575e+001  2.9487e+001 53230 81295,81347,81321
 1.0000e+000 81618 -3.2450e+002  2.7224e+001 -3.8490e+001 52790 81491,81543,81517
 1.0000e+000 81595 -3.1166e+002 -7.5190e+001 -2.7811e+001 52790 81491,81569,81543
 1.0000e+000 82126 -1.3951e+002 -5.8634e+001  2.6277e+001 52386 82149,81907,81881
 1.0000e+000 82103 -1.2932e+002 -3.4245e+001  2.6418e+001 52386 82149,81881,81855
 1.0000e+000 82080 -1.3511e+002 -6.8667e+001  1.1648e+000 52386 82221,81803,81985
 1.0000e+000 82057 -7.0450e+001 -3.5200e+001  2.7996e+001 52386 81803,81855,81829
 1.0000e+000 82034 -1.1652e+002 -3.4672e+001  6.1046e+000 52386 81907,81985,81933
 1.0000e+000 82011 -1.0493e+002 -3.6444e+001  6.9566e+000 52386 81933,81985,81959
 1.0000e+000 82175 -1.2662e+002 -4.3111e+001  1.8588e+001 52386 81985,81907,82149
 1.0000e+000 82198 -1.3670e+002 -5.5846e+001  1.4193e+001 52386 82221,81985,82149
 1.0000e+000 82247 -1.2796e+002 -4.5349e+001  5.3830e+000 52386 81855,81803,82221
 1.0000e+000 82270 -1.3277e+002 -3.2301e+001  1.5344e+001 52386 81855,82221,82149
 1.0000e+000 82825 -3.0199e+002 -3.4065e+001 -9.6819e+001 51782 82505,82661,82635
 1.0000e+000 82802 -1.4455e+002 -8.1857e+001  4.1146e+001 51782 82479,82661,82505
 1.0000e+000 82779 -1.9844e+002 -8.2349e+001  5.5237e+001 51782 82557,82635,82609
 1.0000e+000 82756 -2.1819e+002 -1.3926e+002 -2.7970e+001 51782 82531,82635,82557
 1.0000e+000 82733 -2.7351e+002  1.1623e+001 -4.6376e+001 51782 82505,82635,82531
 1.0000e+000 82710 -2.0734e+002 -1.8165e+002 -3.3077e+001 51782 82453,82661,82479
 1.0000e+000 82687 -1.8108e+002 -7.7677e+001  5.8622e+001 51782 82557,82609,82583
 1.0000e+000 83171 -2.0063e+002 -6.4212e+000 -2.1860e+001 51442 83194,82978,82900
 1.0000e+000 83148 -2.2973e+002 -3.5006e+001 -3.3554e+001 51442 83194,82900,82874
 1.0000e+000 83125 -2.7894e+002 -3.7702e+001  2.9180e+000 51442 82900,82978,82926
 1.0000e+000 83102 -2.6431e+002 -8.7549e+001 -5.5690e+001 51442 82874,83030,83004
 1.0000e+000 83079 -1.6263e+002  7.1385e+000  7.1764e+000 51442 82926,82978,82952
 1.0000e+000 83056 -2.2911e+002 -7.9527e+001 -5.1445e+001 51442 82848,83030,82874
 1.0000e+000 83220 -1.5968e+002 -3.1410e+001 -1.1958e+001 51442 83004,82978,83194
 1.0000e+000 83243 -1.9961e+002 -7.2138e+001 -2.8162e+001 51442 83004,83194,82874
 1.0000e+000 83751 -1.6187e+002 -4.4126e+001  7.9786e+000 50938 83428,83584,83454
 1.0000e+000 83728 -2.1773e+002 -6.3623e+001 -1.6079e+001 50938 83428,83610,83584
 1.0000e+000 83705 -2.0457e+002 -6.3093e+001 -5.0670e+000 50938 83454,83584,83558
 1.0000e+000 83682 -2.6451e+002 -5.6475e+001 -4.9873e+000 50938 83454,83532,83480
 1.0000e+000 83659 -2.3713e+002 -7.7722e+001 -8.6774e+000 50938 83454,83558,83532
 1.0000e+000 83636 -1.8151e+002  1.7423e+001  2.7246e+001 50938 83480,83532,83506
 1.0000e+000 84355 -2.2763e+002 -6.6443e+001  5.1091e+001 50377 84378,83960,83934
 1.0000e+000 84332 -1.7670e+002 -6.8106e+000 -5.3726e+001 50377 84522,84378,83934
 1.0000e+000 84309 -1.6008e+002  1.8238e+001  9.7008e+000 50377 84450,84038,84012
 1.0000e+000 84286 -1.2653e+002 -4.2778e+001 -5.7145e+001 50377 84522,83934,84142
 1.0000e+000 84263 -1.6293e+002 -9.8517e+001  1.9988e+001 50377 84594,84090,84038
 1.0000e+000 84240 -2.1297e+001 -2.8908e+001  4.6738e+001 50377 83960,84012,83986
 1.0000e+000 84217 -6.2192e+001 -5.0348e+001 -2.7842e+000 50377 83934,84168,84142
 1.0000e+000 84194 -1.3542e+001 -4.7176e+001  2.9478e+001 50377 84038,84090,84064
 1.0000e+000 84404  9.1114e+000  2.9158e+001  3.5401e+001 50377 84012,83960,84378
 1.0000e+000 84427 -1.6266e+002  4.8218e+000 -2.6625e+001 50377 84450,84012,84378
 1.0000e+000 84476 -1.8874e+002 -5.2809e+001  1.2634e+001 50377 84594,84038,84450
 1.0000e+000 84499 -1.6803e+002  2.5090e+000 -2.2167e+001 50377 84116,84450,84378
 1.0000e+000 84548 -1.2820e+002  2.8044e+001 -3.8394e+001 50377 84116,84378,84522
 1.0000e+000 84571 -8.0991e+001 -1.2077e+001 -4.3793e+001 50377 84116,84522,84142
 1.0000e+000 84620 -1.3986e+002 -3.5738e+001 -8.2398e+000 50377 84116,84090,84594
 1.0000e+000 84643 -1.6140e+002  1.0346e+001 -1.8518e+001 50377 84116,84594,84450
 1.0000e+000 84842 -2.3797e+002 -5.1662e+001 -4.0323e+001 49923 84865,84692,84666
 1.0000e+000 84819 -1.8708e+002 -5.8964e+001 -9.8357e+000 49923 84865,84666,84770
 1.0000e+000 84796 -1.2819e+002 -3.9600e+001 -8.4527e+000 49923 84692,84744,84718
 1.0000e+000 84891 -2.0459e+002 -4.0161e+001 -1.1948e+001 49923 84744,84692,84865
 1.0000e+000 84914 -1.4727e+002 -3.1067e+001  2.2663e+001 49923 84744,84865,84770
 1.0000e+000 85501 -1.9880e+002 -2.2166e+001  9.5235e+000 49618 85524,85282,85204
 1.0000e+000 85478 -2.1226e+002 -1.4891e+001  2.4897e+001 49618 85596,85524,85204
 1.0000e+000 85455 -2.0303e+002 -2.6189e+001  2.5028e+001 49618 85596,85204,85178
 1.0000e+000 85432 -2.2600e+002 -3.0624e+001  1.3799e+001 49618 85204,85282,85256
 1.0000e+000 85409 -1.1653e+002  4.1394e+000 -9.6006e+000 49618 85282,85334,85308
 1.0000e+000 85386 -2.0969e+002  4.1245e+000  5.7138e+000 49618 85204,85256,85230
 1.0000e+000 85550 -1.6144e+002  2.0243e+001 -3.4750e+001 49618 85334,85282,85524
 1.0000e+000 85573 -2.8191e+002 -2.5724e+001 -1.3104e+001 49618 85334,85524,85360
 1.0000e+000 85622 -2.2692e+002 -2.7982e+001  3.0412e+001 49618 85360,85524,85596
 1.0000e+000 85645 -2.1353e+002 -3.4490e+001  2.8630e+001 49618 85360,85596,85178
 1.0000e+000 85795 -4.8193e+002 -1.4282e+002  3.0649e+001 49278 85694,85746,85720
 1.0000e+000 85772 -5.4215e+002 -1.5389e+002 -7.8342e-001 49278 85668,85746,85694
 1.0000e+000 86197 -2.2269e+002 -1.2981e+002 -8.8826e+001 48916 86001,86079,86027
 1.0000e+000 86174 -2.2567e+002 -6.4805e+001 -4.2274e+001 48916 85949,86079,86001
 1.0000e+000 86151 -3.2575e+002 -9.3991e+001 -9.5368e+000 48916 85949,86001,85975
 1.0000e+000 86128 -2.6001e+002 -6.0965e+001 -2.0112e+001 48916 86027,86079,86053
 1.0000e+000 86105 -5.5661e+002 -2.1160e+002 -8.2721e+001 48916 85923,86079,85949
 1.0000e+000 86477 -5.7854e+001  1.7274e-001  2.5091e+001 48398 86327,86379,86353
 1.0000e+000 86454 -9.2988e+001 -6.7284e+001  1.1771e+001 48398 86500,86379,86327
 1.0000e+000 86431 -9.0925e+001 -7.2718e+001  2.9318e+001 48398 86301,86405,86379
 1.0000e+000 86526 -6.6701e+001 -5.1714e+001  1.8219e+001 48398 86301,86379,86500
 1.0000e+000 87032 -2.1182e+002 -5.3418e+001 -5.2847e+000 48008 87127,87055,86787
 1.0000e+000 87009 -2.2186e+002 -7.0768e+001  3.8094e+000 48008 87055,86735,86709
 1.0000e+000 86986 -1.9144e+002 -6.7091e+001 -8.8803e+000 48008 87127,86787,86761
 1.0000e+000 86963 -1.8861e+002 -4.6502e+001  5.8589e+000 48008 86787,86865,86839
 1.0000e+000 86940 -2.4978e+002 -7.5560e+001 -4.2586e+000 48008 86709,86891,86865
 1.0000e+000 86917 -2.3222e+002 -3.3739e+001  2.3431e+001 48008 86787,86839,86813
 1.0000e+000 87081 -2.1240e+002 -5.9148e+001 -6.8074e+000 48008 86865,86787,87055
 1.0000e+000 87104 -2.0751e+002 -5.9037e+001 -9.0864e+000 48008 86865,87055,86709
 1.0000e+000 87153 -1.8367e+002 -5.2102e+001 -2.0218e+000 48008 86735,87055,87127
 1.0000e+000 87176 -1.3394e+002 -4.2710e+001 -1.6492e+001 48008 86735,87127,86761
 1.0000e+000 87456 -1.0808e+002 -4.6520e+001 -1.3313e+001 47604 87306,87358,87332
 1.0000e+000 87433 -1.4630e+002 -7.7012e+001  3.6458e+000 47604 87306,87384,87358
 1.0000e+000 87410 -1.1969e+002 -6.6072e+001 -6.7233e+000 47604 87280,87384,87306
 1.0000e+000 87785 -1.0943e+002 -3.5133e+001  2.3699e+000 47264 87638,87690,87664
 1.0000e+000 87762 -9.0996e+001  5.4851e+000 -8.5855e+000 47264 87612,87690,87638
 1.0000e+000 87739 -1.1930e+002 -2.9582e+001 -2.5685e+001 47264 87560,87690,87612
 1.0000e+000 87716 -1.0461e+002 -1.3271e+001 -3.4762e+001 47264 87560,87612,87586
 1.0000e+000 87935 -2.9501e+002  3.0132e+000 -3.2076e+000 46952 87808,87860,87834
 1.0000e+000 87912 -2.9561e+002 -5.0953e+000 -7.4301e+000 46952 87808,87886,87860
 1.0000e+000 88281 -2.3914e+002 -7.4197e+001  2.6274e+000 46526 88304,88114,88036
 1.0000e+000 88258 -2.2737e+002 -5.5012e+001  1.0556e+001 46526 88304,88036,87984
 1.0000e+000 88235 -2.1921e+002 -5.6237e+001 -2.5660e+001 46526 88036,88114,88062
 1.0000e+000 88212 -2.1224e+002 -1.4671e+001  4.4022e+001 46526 87958,88140,87984
 1.0000e+000 88189 -1.9365e+002  2.3326e+001  1.5272e+001 46526 87984,88036,88010
 1.0000e+000 88166 -2.7400e+002 -1.0003e+002 -4.5792e+001 46526 88062,88114,88088
 1.0000e+000 88330 -2.5482e+002 -5.2808e+001  3.9279e-001 46526 88140,88114,88304
 1.0000e+000 88353 -2.4733e+002 -3.6566e+001  5.7209e+000 46526 88140,88304,87984
 1.0000e+000 88701 -1.0355e+002 -5.8807e+001 -2.5196e+001 45822 88724,88378,88534
 1.0000e+000 88678 -8.1629e+001 -1.9999e+001 -3.3995e+001 45822 88378,88560,88534
 1.0000e+000 88655 -1.1533e+002 -7.9600e+001 -4.5659e-001 45822 88724,88534,88508
 1.0000e+000 88632 -1.1492e+002 -3.7076e+001 -1.7041e+001 45822 88404,88508,88456
 1.0000e+000 88609 -1.0351e+002 -1.3950e+001 -2.3031e+001 45822 88404,88456,88430
 1.0000e+000 88586 -1.8723e+002 -8.0875e+001  1.3033e+000 45822 88456,88508,88482
 1.0000e+000 88750 -1.1305e+002 -2.3087e+001 -3.6792e+001 45822 88404,88378,88724
 1.0000e+000 88773 -1.2104e+002 -4.5263e+001 -1.4175e+001 45822 88404,88724,88508
 1.0000e+000 89106 -1.7228e+002 -8.9535e+000 -3.1640e+001 45418 88881,88985,88907
 1.0000e+000 89083 -1.1832e+002 -8.5286e+001 -2.3513e+001 45418 88881,89011,88985
 1.0000e+000 89060 -1.0131e+002  2.0490e+001 -2.2001e+001 45418 88907,88985,88933
 1.0000e+000 89037 -6.7209e+001  5.7271e+000 -7.7171e+000 45418 88933,88985,88959
 1.0000e+000 89435 -2.2862e+002 -1.0280e+002  3.9459e+000 44914 89210,89288,89236
 1.0000e+000 89412 -1.8168e+002 -7.1493e+001 -3.2436e+001 44914 89210,89314,89288
 1.0000e+000 89389 -2.2107e+002 -5.2947e+001 -4.3280e+001 44914 89210,89340,89314
 1.0000e+000 89366 -2.0727e+002 -9.3655e+001  2.6656e+000 44914 89236,89288,89262
 1.0000e+000 89634 -9.1522e+001 -4.3957e+001  6.4549e-001 44538 89510,89562,89536
 1.0000e+000 89611 -1.1368e+002 -3.6216e+001 -3.0036e+001 44538 89458,89562,89510
 1.0000e+000 89588 -1.3049e+002 -8.1735e+001 -2.1930e+001 44538 89458,89510,89484
 1.0000e+000 90044 -2.4161e+002 -8.6816e+001  2.0137e+001 44134 89819,89923,89845
 1.0000e+000 90021 -1.9964e+002 -1.7155e+001  4.2806e+001 44134 89819,89949,89923
 1.0000e+000 89998 -1.8026e+002 -7.9310e+001 -1.1185e+001 44134 89845,89923,89897
 1.0000e+000 89975 -1.2803e+002 -1.0262e+001  2.7670e+001 44134 89845,89897,89871
 1.0000e+000 90520 -2.2396e+002 -4.8904e+001  1.5431e+001 43457 90543,90252,90226
 1.0000e+000 90497 -1.7232e+002 -5.6741e+001  5.4080e+000 43457 90543,90226,90330
 1.0000e+000 90474 -2.0306e+002 -3.7622e+001 -1.4883e+001 43457 90200,90330,90226
 1.0000e+000 90451 -2.4736e+002 -7.3644e+001 -4.2137e+001 43457 90200,90356,90330
 1.0000e+000 90428 -2.4730e+002 -1.7957e+001  6.4497e+001 43457 90252,90304,90278
 1.0000e+000 90405 -7.7794e+001 -1.5973e+001  2.5306e+001 43457 90174,90356,90200
 1.0000e+000 90382 -2.5444e+002 -1.8254e+002 -4.3285e+001 43457 90148,90356,90174
 1.0000e+000 90569 -2.6780e+002 -4.8700e+001  5.2917e+001 43457 90304,90252,90543
 1.0000e+000 90592 -1.9338e+002 -5.0359e+001  5.0861e+001 43457 90304,90543,90330
 1.0000e+000 91098 -9.6047e+001 -1.8097e+001 -4.1340e+000 42789 90801,90905,90853
 1.0000e+000 91075 -1.2032e+002 -6.3785e+001  6.4263e+000 42789 90775,90905,90801
 1.0000e+000 91052 -1.1836e+002 -1.6867e+001 -2.1953e+001 42789 90775,90931,90905
 1.0000e+000 91029 -6.3346e+001  1.3643e-001  3.1110e+001 42789 90801,90853,90827
 1.0000e+000 91006 -1.2393e+002 -3.9434e+001  3.9561e+001 42789 90853,90905,90879
 1.0000e+000 90983 -2.2201e+002 -2.6736e+001  2.1647e+001 42789 90775,90957,90931
 1.0000e+000 91427 -2.1515e+002 -2.6144e+000 -1.3000e+001 42227 91228,91280,91254
 1.0000e+000 91404 -2.4432e+002 -6.5181e+001  1.4367e+001 42227 91228,91306,91280
 1.0000e+000 91381 -2.4634e+002 -6.0722e+001  3.5562e+001 42227 91202,91306,91228
 1.0000e+000 91358 -2.0366e+002 -8.3304e+001 -7.2910e+000 42227 91202,91332,91306
 1.0000e+000 91675 -1.1267e+002 -4.8183e+001 -1.6252e+001 41773 91698,91476,91450
 1.0000e+000 91652 -1.1235e+002 -6.1754e+001  2.2226e+000 41773 91698,91450,91554
 1.0000e+000 91629 -1.1099e+002 -8.0119e+001  4.6299e+000 41773 91450,91580,91554
 1.0000e+000 91606 -1.2901e+002 -3.1233e+001  2.9642e+001 41773 91502,91554,91528
 1.0000e+000 91724 -1.2451e+002 -5.6847e+001 -7.3933e+000 41773 91502,91476,91698
 1.0000e+000 91747 -1.2797e+002 -7.2416e+001  1.1540e+001 41773 91502,91698,91554
 1.0000e+000 92127 -6.4983e+001  5.2924e+000 -2.4924e+001 41255 92150,91905,91879
 1.0000e+000 92104 -1.6976e+002 -1.2723e+000  2.1967e+001 41255 92150,91879,91957
 1.0000e+000 92081 -1.4731e+002 -2.8483e+001  4.3230e+001 41255 91853,91957,91879
 1.0000e+000 92058 -1.5380e+002 -3.0362e+001  1.2341e+001 41255 91853,91983,91957
 1.0000e+000 92035 -7.3080e+001 -1.9289e+001  5.5857e-001 41255 91853,92009,91983
 1.0000e+000 92176 -1.5582e+002  2.7618e+001  1.8222e+001 41255 91931,91905,92150
 1.0000e+000 92199 -3.1457e+002 -4.2985e+001  8.2960e+001 41255 91931,92150,91957
 1.0000e+000 92518 -2.6647e+002 -4.9564e+000 -1.3002e+001 41007 92244,92374,92270
 1.0000e+000 92495 -2.9464e+002  1.3638e+001 -2.3193e+001 41007 92244,92400,92374
 1.0000e+000 92472 -2.0725e+002  1.2808e+001 -7.9702e+000 41007 92270,92374,92348
 1.0000e+000 92449 -3.1691e+002 -4.1480e+001  2.1314e+001 41007 92296,92348,92322
 1.0000e+000 92426 -2.8164e+002 -3.6691e+001  2.0345e+001 41007 92270,92348,92296
 1.0000e+000 92668 -8.4415e+001 -2.5456e+001 -2.9736e+001 40717 92823,92691,92567
 1.0000e+000 92645 -8.2632e+001 -1.3395e+001 -2.7642e+001 40717 92895,92823,92567
 1.0000e+000 92717 -8.1369e+001 -2.0296e+001  9.4400e+000 40717 92593,92567,92691
 1.0000e+000 92849 -3.3561e+001 -2.9619e+001 -4.8094e+001 40717 92619,92691,92823
 1.0000e+000 92872 -1.0127e+002 -3.3816e+001 -2.5242e+001 40717 92619,92823,92541
 1.0000e+000 92921 -1.4921e+002 -7.1636e+001  1.1488e+001 40717 92541,92823,92895
 1.0000e+000 93634 -2.4174e+002 -6.9017e+001 -4.9350e+001 40206 93366,93444,93418
 1.0000e+000 93611 -1.8741e+002 -2.5374e+001 -1.8502e+001 40206 93288,93444,93366
 1.0000e+000 93588 -1.8551e+002 -5.8909e+001 -2.2310e+001 40206 93288,93366,93314
 1.0000e+000 93565 -3.8067e+002 -9.2884e+001 -6.1417e+000 40206 93262,93444,93288
 1.0000e+000 93542 -2.8049e+002 -3.5048e+001 -2.6133e+001 40206 93366,93418,93392
 1.0000e+000 93519 -4.5303e+002 -1.3309e+000 -3.0955e+000 40206 93262,93470,93444
 1.0000e+000 93496 -1.1404e+002 -2.8908e+001 -5.3039e+000 40206 93314,93366,93340
 1.0000e+000 94189 -1.9706e+002 -9.5418e+001  3.0783e-001 39802 93843,93999,93973
 1.0000e+000 94166 -2.5095e+002 -1.2321e+002  1.2835e+001 39802 93817,93999,93843
 1.0000e+000 94143 -3.0631e+002 -1.0539e+002  1.8168e+001 39802 93869,93973,93947
 1.0000e+000 94120 -1.9958e+002 -5.0963e+001 -2.5892e+000 39802 93843,93973,93869
 1.0000e+000 94097 -1.7581e+002 -8.8142e-002 -1.8379e+000 39802 93869,93921,93895
 1.0000e+000 94074 -1.8372e+002 -2.1042e+001 -2.7520e+001 39802 93869,93947,93921
 1.0000e+000 94051 -1.6675e+002 -7.5824e+001 -2.0297e+001 39802 93817,94025,93999
 1.0000e+000 94290 -2.9132e+002 -1.0604e+002  5.6915e+000 39398 94212,94264,94238
 1.0000e+000 94798 -1.1824e+002 -2.9066e+001 -7.6715e+000 38701 94501,94657,94631
 1.0000e+000 94775 -1.0530e+002 -1.3729e+001  3.2218e-001 38701 94475,94657,94501
 1.0000e+000 94752 -1.7799e+002 -5.5528e+001 -5.4806e+000 38701 94579,94631,94605
 1.0000e+000 94729 -1.8482e+002 -3.8671e+001 -1.9891e+001 38701 94553,94631,94579
 1.0000e+000 94706 -8.2331e+001  3.7612e+000 -2.1785e+001 38701 94501,94631,94553
 1.0000e+000 94683 -8.2749e+001 -1.6056e+001 -2.4029e+001 38701 94501,94553,94527
 1.0000e+000 95255 -9.3383e+001 -2.1894e+001  1.9678e+001 38247 95278,95085,95007
 1.0000e+000 95232 -1.1481e+002 -1.8420e+001  3.6647e+001 38247 95278,95007,95137
 1.0000e+000 95209 -1.5376e+002 -1.2473e+001  8.3720e+000 38247 94981,95137,95007
 1.0000e+000 95186 -1.2963e+002 -5.4222e+001 -2.2826e+000 38247 95007,95059,95033
 1.0000e+000 95163 -1.3836e+002 -5.7813e+001  3.5279e+001 38247 95007,95085,95059
 1.0000e+000 95304 -7.5074e+001  4.0137e+000 -7.8005e-001 38247 95111,95085,95278
 1.0000e+000 95327 -1.0160e+002 -1.1772e+001  1.9340e+001 38247 95111,95278,95137
 1.0000e+000 95575 -3.0905e+002  4.7768e+001 -2.7593e+001 37564 95376,95428,95402
 1.0000e+000 95552 -3.2048e+002 -1.4565e+002 -1.4328e+001 37564 95376,95454,95428
 1.0000e+000 95529 -2.9391e+002 -1.3988e+002 -2.1388e+001 37564 95376,95480,95454
 1.0000e+000 95506 -2.7796e+002 -7.4339e+001 -1.6141e+000 37564 95350,95480,95376
 1.0000e+000 96034 -3.9395e+001 -3.4131e+000  7.7136e+000 37224 95786,95838,95812
 1.0000e+000 96011 -3.5973e+001  2.0121e+001 -3.7176e+000 37224 95786,95890,95838
 1.0000e+000 95988  2.0862e+001  3.8677e+001 -2.2766e+001 37224 95786,95916,95890
 1.0000e+000 95965 -6.8156e+001 -2.1015e+001  1.7567e+001 37224 95760,95916,95786
 1.0000e+000 95942 -1.3100e+001 -9.7149e+000 -4.5349e+001 37224 95838,95890,95864
 1.0000e+000 96363 -1.4002e+002 -1.3144e+001 -1.8509e+001 36884 96216,96268,96242
 1.0000e+000 96340 -1.5080e+002 -1.1850e+001 -1.8172e+001 36884 96164,96268,96216
 1.0000e+000 96317 -2.0016e+002 -7.1718e+001  2.4817e+001 36884 96138,96268,96164
 1.0000e+000 96294 -1.4813e+002 -1.5318e+000 -1.2211e+001 36884 96164,96216,96190
 1.0000e+000 96839 -1.8374e+002 -2.8228e+001 -1.3747e+001 36572 96862,96649,96597
 1.0000e+000 96816 -1.9468e+002 -4.5705e+001 -8.9345e+000 36572 97006,96862,96597
 1.0000e+000 96793 -1.7316e+002 -3.8171e+001 -3.9485e+000 36572 96934,96467,96675
 1.0000e+000 96770 -1.7470e+002 -6.5578e+001  1.7652e+001 36572 97006,96597,96571
 1.0000e+000 96747 -1.6570e+002 -5.3118e+001 -2.6985e+001 36572 96467,96519,96493
 1.0000e+000 96724 -3.5545e+002 -4.1083e+001  1.3016e+002 36572 96519,96571,96545
 1.0000e+000 96701 -1.3352e+002 -8.2223e+000  3.7441e+001 36572 96597,96649,96623
 1.0000e+000 96888 -2.0636e+002 -4.0031e+001 -2.0436e+001 36572 96675,96649,96862
 1.0000e+000 96911 -1.9922e+002 -2.9306e+001 -9.0806e+000 36572 96934,96675,96862
 1.0000e+000 96960 -1.5179e+002 -3.1177e+001 -1.1222e+001 36572 96519,96467,96934
 1.0000e+000 96983 -1.7417e+002 -2.5622e+001 -9.4604e+000 36572 97078,96934,96862
 1.0000e+000 97032 -1.7676e+002 -2.1026e+001 -1.0692e+000 36572 97078,96862,97006
 1.0000e+000 97055 -1.5027e+002 -2.0090e+001  2.6874e+001 36572 96519,97006,96571
 1.0000e+000 97104 -1.6867e+002 -1.2662e+001 -9.2397e+000 36572 96519,96934,97078
 1.0000e+000 97127 -1.7177e+002 -8.5230e+000 -2.3220e+000 36572 96519,97078,97006
 1.0000e+000 97761 -1.4259e+002 -1.6279e+001  3.5758e+001 36118 97784,97493,97415
 1.0000e+000 97738 -1.7635e+002 -3.9393e+001  4.6670e+001 36118 97784,97415,97597
 1.0000e+000 97715 -3.0566e+002 -6.4973e+001  8.0955e+001 36118 97389,97597,97415
 1.0000e+000 97692 -3.0100e+002 -9.8098e+001  7.2162e+001 36118 97415,97467,97441
 1.0000e+000 97669 -2.6019e+002 -8.6297e+001  1.0794e+002 36118 97415,97493,97467
 1.0000e+000 97646 -1.6599e+002 -5.7469e+001 -4.7121e+001 36118 97493,97571,97519
 1.0000e+000 97623 -1.0949e+002 -2.0621e+001  9.7307e+000 36118 97519,97571,97545
 1.0000e+000 97810 -1.7215e+002  3.9681e+001 -2.3073e-002 36118 97571,97493,97784
 1.0000e+000 97833 -2.5641e+002 -7.8699e+000  2.0988e+001 36118 97571,97784,97597
 1.0000e+000 98081 -1.3370e+002 -7.1307e+001  8.5003e+000 35564 98104,97908,97856
 1.0000e+000 98058 -1.7066e+002 -9.1737e+001  3.0820e+001 35564 98104,97856,97986
 1.0000e+000 98035 -2.7113e+002 -8.9734e+001  2.3530e+001 35564 97934,97986,97960
 1.0000e+000 98012 -1.1553e+002 -1.4647e+001 -1.8030e+001 35564 97856,97908,97882
 1.0000e+000 98130 -1.8882e+002  1.5003e+001 -9.2024e-001 35564 97934,97908,98104
 1.0000e+000 98153 -2.2430e+002 -5.4353e+001  4.5423e+001 35564 97934,98104,97986
 1.0000e+000 98374 -3.1999e+002 -6.1357e+001 -1.5322e+001 35152 98224,98302,98276
 1.0000e+000 98351 -2.9329e+002 -5.8548e+000 -3.1356e+000 35152 98198,98302,98224
 1.0000e+000 98328 -2.3750e+002 -2.9596e+001 -3.2760e+001 35152 98224,98276,98250
 1.0000e+000 98884 -1.1793e+002  7.3443e+001  2.7787e+001 34698 98691,98743,98717
 1.0000e+000 98861 -1.4835e+002  3.8707e+001 -1.9077e+001 34698 98561,98743,98691
 1.0000e+000 98838 -1.2035e+002 -2.0559e+001  9.4077e-001 34698 98907,98587,98561
 1.0000e+000 98815 -1.1820e+002 -3.1931e+001 -1.7551e+001 34698 98907,98561,98691
 1.0000e+000 98792 -5.2520e+001  2.8827e+000 -2.1989e+001 34698 98587,98639,98613
 1.0000e+000 98769 -1.0559e+002 -5.9515e+001  2.2615e+001 34698 98587,98665,98639
 1.0000e+000 98933 -1.0195e+002 -1.7488e+001  1.0410e+001 34698 98665,98587,98907
 1.0000e+000 98956 -9.7822e+001 -3.2567e+001 -8.7204e+000 34698 98665,98907,98691
 1.0000e+000 99204 -2.3090e+002 -3.1223e+001 -1.6571e+001 34144 99227,99031,99005
 1.0000e+000 99181 -2.4665e+002 -7.5157e+001  2.2748e+001 34144 99299,99227,99005
 1.0000e+000 99158 -2.6752e+002 -6.2084e+001  5.4217e+001 34144 99299,99005,99109
 1.0000e+000 99135 -1.6490e+002 -1.3677e+001  7.9432e+001 34144 98979,99109,99005
 1.0000e+000 99253 -2.1969e+002 -3.8583e+001 -5.5311e+000 34144 99057,99031,99227
 1.0000e+000 99276 -9.4348e+001 -2.0903e+001 -9.5443e+000 34144 99057,99227,99083
 1.0000e+000 99325 -2.0011e+002 -1.4645e+001 -2.8558e+001 34144 99083,99227,99299
 1.0000e+000 99348 -2.6683e+002 -2.1493e+001  3.9492e+000 34144 99083,99299,99109
 1.0000e+000 99498 -5.6576e+002 -1.3404e+002  5.3438e+001 33433 99397,99449,99423
 1.0000e+000 99475 -6.4059e+002 -1.6355e+002  7.9708e+000 33433 99371,99449,99397
 1.0000e+000 100008 -1.7279e+002 -3.6242e+001  4.4805e+000 32979 100103,100031,99815
 1.0000e+000 99985 -1.5996e+002 -1.9985e+001 -1.3123e+001 32979 100175,100031,99763
 1.0000e+000 99962 -1.8260e+002 -3.5888e+001  6.7179e+000 32979 100103,99815,99789
 1.0000e+000 99939 -1.7084e+002 -2.1347e+001 -4.7200e+000 32979 100175,99763,99737
 1.0000e+000 99916 -1.6361e+002  3.6646e+001 -6.8453e+000 32979 99685,99867,99737
 1.0000e+000 99893 -1.0451e+002  2.8625e+000 -7.7148e+001 32979 99685,99737,99711
 1.0000e+000 100057 -1.5529e+002 -2.6666e+001 -1.8222e+000 32979 99841,99815,100031
 1.0000e+000 100080 -1.4737e+002  1.8867e+001 -2.7742e+001 32979 99841,100031,99867
 1.0000e+000 100129 -1.5303e+002 -3.8158e+001 -2.6778e+000 32979 99763,100031,100103
 1.0000e+000 100152 -1.6923e+002 -4.0895e+001 -2.4312e+000 32979 99763,100103,99789
 1.0000e+000 100201 -1.7724e+002 -2.5096e+001 -1.2637e+001 32979 99867,100031,100175
 1.0000e+000 100224 -1.7947e+002 -2.0015e+001 -4.6792e+000 32979 99867,100175,99737
 1.0000e+000 100553 -8.1778e+001 -3.2208e+001  6.0145e+000 32503 100354,100406,100380
 1.0000e+000 100530 -8.0423e+001 -5.3424e+000 -1.5401e+001 32503 100328,100406,100354
 1.0000e+000 100507 -8.0687e+001 -6.5618e+001 -5.9880e+001 32503 100328,100458,100406
 1.0000e+000 100484 -4.5208e+001 -6.3236e+001 -4.3619e+001 32503 100406,100458,100432
 1.0000e+000 100850 -2.1090e+002  7.0174e+000  1.7734e+001 31899 100873,100654,100628
 1.0000e+000 100827 -2.1341e+002 -1.7009e+001 -1.1392e+000 31899 100945,100873,100628
 1.0000e+000 100804 -1.9763e+002 -4.5521e+001  4.8565e+000 31899 100945,100628,100602
 1.0000e+000 100781 -1.7900e+002 -9.3818e+001 -1.1570e+001 31899 100576,100732,100602
 1.0000e+000 100758 -9.4201e+001 -1.4447e+001  2.0799e+001 31899 100654,100706,100680
 1.0000e+000 100899 -1.2008e+002 -3.0105e+001 -2.3497e+000 31899 100706,100654,100873
 1.0000e+000 100922 -2.3452e+002 -5.6224e+001 -2.3462e+001 31899 100706,100873,100732
 1.0000e+000 100971 -2.2964e+002 -4.8674e+001  1.2061e+001 31899 100732,100873,100945
 1.0000e+000 100994 -2.1270e+002 -7.7401e+001  1.7093e+001 31899 100732,100945,100602
 1.0000e+000 101551 -1.2899e+002 -2.9677e+001 -1.7362e+001 31338 101205,101387,101231
 1.0000e+000 101528 -2.8451e+002 -1.0193e+002 -7.2106e+001 31338 101179,101387,101205
 1.0000e+000 101505 -1.4074e+002 -4.8628e+001 -1.0012e+001 31338 101574,101309,101257
 1.0000e+000 101482 -1.1871e+002 -3.7652e+001 -4.5248e+000 31338 101646,101574,101257
 1.0000e+000 101459 -9.9810e+001 -1.3231e+001  6.8518e+000 31338 101646,101257,101231
 1.0000e+000 101436 -1.4446e+002 -7.6939e+000 -1.6058e+001 31338 101309,101361,101335
 1.0000e+000 101413 -1.2819e+002 -3.2256e+001 -2.7961e+001 31338 101257,101309,101283
 1.0000e+000 101600 -1.4446e+002 -4.0504e+001 -7.3764e+000 31338 101361,101309,101574
 1.0000e+000 101623 -1.4671e+002 -5.8975e+001 -2.3421e+001 31338 101361,101574,101387
 1.0000e+000 101672 -1.3527e+002 -3.1159e+001 -2.3486e+001 31338 101387,101574,101646
 1.0000e+000 101695 -1.2342e+002 -2.6235e+001 -1.5731e+001 31338 101387,101646,101231
 1.0000e+000 101943 -2.5457e+002 -9.3490e+001  6.0429e-001 30748 101966,101796,101744
 1.0000e+000 101920 -2.3488e+002 -5.1061e+001  1.4354e+001 30748 101966,101744,101718
 1.0000e+000 101897 -2.3399e+002 -3.9882e+000  5.3659e+001 30748 101718,101848,101822
 1.0000e+000 101874 -2.3354e+002 -5.6815e+001 -3.0623e+001 30748 101744,101796,101770
 1.0000e+000 101992 -2.7047e+002 -5.1162e+001  5.8262e+000 30748 101822,101796,101966
 1.0000e+000 102015 -2.5958e+002 -1.5024e+001  1.3758e+001 30748 101822,101966,101718
 1.0000e+000 102493 -2.7938e+002 -4.6047e+001  4.6094e+001 30344 102516,102173,102147
 1.0000e+000 102470 -2.2992e+002 -3.1537e+001 -2.0635e+001 30344 102660,102516,102147
 1.0000e+000 102447 -1.1136e+002  2.3349e+001  1.1753e+001 30344 102588,102199,102173
 1.0000e+000 102424 -1.9462e+002 -5.9575e+001 -2.0994e+001 30344 102660,102147,102329
 1.0000e+000 102401 -3.8379e+002 -4.1261e+001  2.9564e+001 30344 102199,102277,102251
 1.0000e+000 102378 -1.1474e+002 -1.1749e+002  1.0756e+002 30344 102199,102251,102225
 1.0000e+000 102355 -4.3063e+002 -1.5372e+002  1.2929e+002 30344 102121,102329,102147
 1.0000e+000 102542 -1.6032e+002  1.0174e+001  2.2131e+001 30344 102588,102173,102516
 1.0000e+000 102565 -2.0674e+002 -7.6757e+000 -4.1280e+000 30344 102277,102516,102303
 1.0000e+000 102614 -1.7597e+002  4.3362e+001  1.3401e+001 30344 102277,102199,102588
 1.0000e+000 102637 -2.2419e+002  3.2854e+001  1.4142e+001 30344 102277,102588,102516
 1.0000e+000 102686 -1.9125e+002 -9.7710e-001 -5.2656e+000 30344 102303,102516,102660
 1.0000e+000 102709 -1.6554e+002 -3.5226e+001 -6.9819e+000 30344 102303,102660,102329
 1.0000e+000 103294 -1.4018e+002 -1.2038e+001  1.4827e+001 29726 103317,103101,103075
 1.0000e+000 103271 -1.5505e+002 -2.9830e+001  8.3154e+000 29726 103317,103075,102997
 1.0000e+000 103248 -2.5953e+002 -7.0407e+001  4.0697e+001 29726 102971,103153,102997
 1.0000e+000 103225 -1.1551e+002 -9.1535e-001 -7.3946e+000 29726 103101,103153,103127
 1.0000e+000 103202 -1.6488e+002 -4.4100e+001  1.2891e+001 29726 102997,103075,103023
 1.0000e+000 103179 -1.4279e+002 -1.3246e+001 -7.5802e+000 29726 103023,103075,103049
 1.0000e+000 103343 -1.3132e+002 -3.0003e+001  1.6210e+001 29726 103153,103101,103317
 1.0000e+000 103366 -1.3885e+002 -3.7653e+001  1.3071e+001 29726 103153,103317,102997
 1.0000e+000 103614 -9.6547e+001 -8.2219e+000  5.6695e+000 29200 103781,103637,103467
 1.0000e+000 103591 -8.3813e+001 -2.6257e+001 -9.7627e+000 29200 103709,103637,103415
 1.0000e+000 103568 -7.0909e+001 -1.0305e+001 -3.3997e+000 29200 103709,103415,103389
 1.0000e+000 103545 -1.0465e+002  2.3247e+000 -4.0381e+000 29200 103781,103467,103441
 1.0000e+000 103663 -7.2848e+001 -1.2032e+001 -1.5139e+001 29200 103853,103637,103493
 1.0000e+000 103686 -1.3572e+002 -1.0096e+002 -4.3318e+001 29200 103493,103637,103519
 1.0000e+000 103735 -1.0311e+002 -7.0266e+000 -1.9898e+001 29200 103519,103637,103709
 1.0000e+000 103758 -9.2406e+001  3.6426e+000 -1.4969e+001 29200 103519,103709,103389
 1.0000e+000 103807 -1.0771e+002 -2.0842e+001 -2.5245e+000 29200 103415,103637,103781
 1.0000e+000 103830 -1.2685e+002 -2.0753e+001 -1.4517e+001 29200 103415,103781,103441
 1.0000e+000 103879 -7.7869e+001 -2.4085e+001 -1.1579e+000 29200 103467,103637,103853
 1.0000e+000 104545 -2.7985e+002 -1.5070e+001  2.3087e+001 28860 104274,104352,104326
 1.0000e+000 104522 -2.3161e+002 -6.2687e+001 -1.3369e+001 28860 104248,104352,104274
 1.0000e+000 104499 -1.7740e+002 -3.6204e+001 -2.1864e+001 28860 104248,104404,104352
 1.0000e+000 104476 -2.5878e+002 -9.0752e+001 -4.6965e+001 28860 104222,104404,104248
 1.0000e+000 104453 -1.5908e+002 -4.1667e+001 -3.7057e+001 28860 104352,104404,104378
 1.0000e+000 104430 -4.8150e+002 -7.4824e+001  1.9784e+001 28860 104274,104326,104300
 1.0000e+000 104744 -1.3081e+002 -1.8327e+001  1.8771e+001 28456 104839,104767,104646
 1.0000e+000 104721 -1.0017e+002 -2.2816e+001  2.6615e+001 28456 104767,104594,104568
 1.0000e+000 104698 -1.2731e+002 -4.2696e+001  1.7268e+000 28456 104839,104646,104620
 1.0000e+000 104793 -1.4208e+002 -3.5592e+001  3.2380e+001 28456 104672,104646,104767
 1.0000e+000 104816 -9.3456e+001 -1.6928e+001  1.8079e+001 28456 104911,104767,104568
 1.0000e+000 104865 -1.3541e+002 -3.6159e+001  1.6715e+001 28456 104594,104767,104839
 1.0000e+000 104888 -1.3983e+002 -9.1053e+001  3.5030e+000 28456 105041,104839,104620
 1.0000e+000 104937 -1.4718e+002 -1.0912e+002  4.0513e+001 28456 104672,104767,104911
 1.0000e+000 105067 -1.1326e+002 -2.5590e+001  1.2802e+001 28456 104594,104839,105041
 1.0000e+000 105573 -2.2942e+002 -5.1272e+001  1.8732e+001 28094 105812,105596,105328
 1.0000e+000 105550 -2.3208e+002 -6.1810e+001  1.1029e+001 28094 105596,105276,105250
 1.0000e+000 105527 -1.8535e+002 -3.9901e+001  4.4757e+001 28094 105740,105668,105432
 1.0000e+000 105504 -1.8414e+002 -2.9840e+001  4.7200e+001 28094 105740,105432,105380
 1.0000e+000 105481 -2.3291e+002 -4.8857e+001  1.6788e+001 28094 105812,105328,105302
 1.0000e+000 105458 -1.2087e+002 -5.6682e+001  4.5113e+001 28094 105380,105432,105406
 1.0000e+000 105622 -2.9121e+002 -8.7858e+001  4.7272e+001 28094 105354,105328,105596
 1.0000e+000 105645 -2.0359e+002 -4.8256e+001  3.0572e+001 28094 105668,105354,105596
 1.0000e+000 105694 -2.0332e+002 -5.2413e+001  2.7051e+001 28094 105250,105432,105668
 1.0000e+000 105717 -2.3695e+002 -4.9608e+001  1.3944e+001 28094 105250,105668,105596
 1.0000e+000 105766 -1.8845e+002 -5.0374e+001  2.7115e+001 28094 105354,105668,105740
 1.0000e+000 105789 -1.8269e+002 -3.2925e+001  2.9680e+001 28094 105354,105740,105380
 1.0000e+000 105838 -2.3232e+002 -5.6771e+001  1.7315e+001 28094 105276,105596,105812
 1.0000e+000 105861 -2.3972e+002 -5.5460e+001  1.1495e+001 28094 105276,105812,105302
 1.0000e+000 106367 -1.0927e+002 -1.9182e+001 -8.9909e+000 27390 106070,106122,106096
 1.0000e+000 106344 -1.4192e+002 -2.1971e+001  2.4111e+000 27390 106070,106226,106122
 1.0000e+000 106321 -1.9069e+002  4.5222e-001 -3.6200e+000 27390 106174,106226,106200
 1.0000e+000 106298 -1.5424e+002 -2.4885e+001 -1.1518e+001 27390 106122,106226,106174
 1.0000e+000 106275 -2.0943e+002 -5.2503e+001 -5.3351e+001 27390 106122,106174,106148
 1.0000e+000 106252 -1.1481e+002 -1.1675e+001 -1.2732e+000 27390 106044,106226,106070
 1.0000e+000 106615 -2.0672e+002 -2.3517e+001 -3.7159e+000 26978 106638,106494,106416
 1.0000e+000 106592 -2.2122e+002 -3.3261e+001 -8.3946e+000 26978 106638,106416,106390
 1.0000e+000 106569 -2.0603e+002 -3.0075e+001 -2.1293e+001 26978 106416,106494,106442
 1.0000e+000 106546 -2.3273e+002 -3.5984e+001 -2.0804e+001 26978 106442,106494,106468
 1.0000e+000 106664 -1.6871e+002 -3.5297e+001  5.8014e-001 26978 106520,106494,106638
 1.0000e+000 106687 -1.9967e+002 -5.6139e+001 -8.4755e+000 26978 106520,106638,106390
 1.0000e+000 106837 -4.2552e+002 -1.9841e+002 -2.1569e+001 26524 106710,106762,106736
 1.0000e+000 106814 -4.3367e+002 -2.1132e+002 -1.8016e+001 26524 106710,106788,106762
 1.0000e+000 107426 -1.0892e+002 -4.5494e+000 -4.2140e+001 26120 107129,107207,107155
 1.0000e+000 107403 -1.5494e+002 -5.0678e+001 -2.2145e+001 26120 107129,107285,107207
 1.0000e+000 107380 -1.4772e+002 -1.5824e+001 -3.2123e+001 26120 107207,107285,107259
 1.0000e+000 107357 -9.3582e+001 -1.7383e+001 -7.1686e+000 26120 107155,107207,107181
 1.0000e+000 107334 -2.2555e+002 -7.5963e+001 -1.6569e+001 26120 107103,107285,107129
 1.0000e+000 107311 -1.2920e+002  7.6616e+000 -2.3042e+001 26120 107207,107259,107233
 1.0000e+000 107755 -1.1445e+002 -1.7731e+001 -1.0575e+001 25758 107556,107634,107608
 1.0000e+000 107732 -2.0370e+002 -6.1533e+001  1.5376e+001 25758 107556,107660,107634
 1.0000e+000 107709 -8.9823e+001 -4.3920e+001  1.7443e+001 25758 107556,107608,107582
 1.0000e+000 107686 -1.7407e+002  6.0298e+001  5.4480e+001 25758 107530,107660,107556
 1.0000e+000 108438 -1.0985e+002 -3.2699e+001  8.7669e+000 25468 108121,108199,108173
 1.0000e+000 108415 -1.2843e+002 -7.8930e+001  6.6892e+000 25468 108095,108199,108121
 1.0000e+000 108392 -1.4026e+002 -7.0877e+001  2.4567e+000 25468 108095,108251,108199
 1.0000e+000 108369 -1.5687e+002 -8.7427e+001  1.1905e+001 25468 108069,108251,108095
 1.0000e+000 108346 -1.2661e+002 -6.9687e+001  2.6967e+001 25468 108199,108251,108225
 1.0000e+000 108323 -1.8708e+002 -6.1104e+001 -1.0910e+001 25468 108017,108251,108069
 1.0000e+000 108300 -1.0298e+002 -2.6639e+001  1.2371e+001 25468 108121,108173,108147
 1.0000e+000 108277 -1.9459e+002 -7.0891e+001 -7.0539e+000 25468 108017,108069,108043
 1.0000e+000 108588 -5.0934e+001 -1.6821e+001 -3.0458e+001 25064 108611,108513,108487
 1.0000e+000 108565  1.6338e+001  2.2894e+001 -1.4088e+001 25064 108683,108611,108487
 1.0000e+000 108637 -7.4529e+001  1.6274e+001 -1.1169e+001 25064 108539,108513,108611
 1.0000e+000 108660 -6.7617e+001  2.6318e+001 -4.9629e+000 25064 108539,108611,108461
 1.0000e+000 108709 -7.8319e+001  1.2754e+000 -5.6379e+000 25064 108461,108611,108683
 1.0000e+000 109345 -1.2905e+002 -5.9630e+000  6.3982e+000 24410 108999,109155,109103
 1.0000e+000 109322 -2.9636e+002 -5.8793e+001  2.9795e+001 24410 108973,109155,108999
 1.0000e+000 109299 -1.3971e+002 -4.9846e+001 -7.4741e-002 24410 109103,109155,109129
 1.0000e+000 109276 -1.5235e+002  2.4726e+001 -7.5753e+000 24410 108973,109181,109155
 1.0000e+000 109253 -2.3447e+002 -6.0287e+001  4.7694e+001 24410 109025,109103,109077
 1.0000e+000 109230 -1.9883e+002 -5.7625e+001  2.9507e+001 24410 108999,109103,109025
 1.0000e+000 109207 -3.1341e+002  1.4949e+001  3.3029e+001 24410 109025,109077,109051
 1.0000e+000 109723 -1.9702e+002  2.3369e+001  1.4249e+000 23856 109475,109579,109553
 1.0000e+000 109700 -2.0632e+002 -3.8631e+001  1.0420e+000 23856 109475,109605,109579
 1.0000e+000 109677 -2.2595e+002 -1.7299e+001 -6.3354e+001 23856 109475,109553,109527
 1.0000e+000 109654 -1.1504e+002  5.3148e-001  2.2449e+001 23856 109449,109605,109475
 1.0000e+000 109631 -1.2507e+002  3.0277e+001 -4.2778e+001 23856 109475,109527,109501
 1.0000e+000 110101 -1.2236e+002 -2.5915e+001 -3.1635e+000 23566 109853,109931,109879
 1.0000e+000 110078 -1.2985e+002 -1.9586e+001  7.4058e+000 23566 109827,109931,109853
 1.0000e+000 110055 -8.0428e+001  2.4730e+001 -1.1422e+001 23566 109827,109983,109931
 1.0000e+000 110032 -1.3780e+002 -3.6362e+001 -8.1588e+000 23566 109879,109931,109905
 1.0000e+000 110009 -7.2020e+001  9.7057e+000  1.9279e+001 23566 109931,109983,109957
 1.0000e+000 110735 -1.1815e+002  6.7042e+000  7.1949e+000 23162 110415,110571,110519
 1.0000e+000 110712 -1.0491e+002 -1.2270e+001  1.0607e+001 23162 110389,110571,110415
 1.0000e+000 110689 -2.1766e+002 -3.2433e+001  1.8803e+001 23162 110415,110519,110493
 1.0000e+000 110666 -7.6102e+001 -6.4445e+000  1.5462e+000 23162 110363,110571,110389
 1.0000e+000 110643 -1.8216e+002 -1.4176e+001  4.3084e+001 23162 110441,110493,110467
 1.0000e+000 110620 -1.8472e+002 -3.3394e+001  1.7747e+001 23162 110415,110493,110441
 1.0000e+000 110597 -1.4358e+002 -1.6026e+000  2.0639e+001 23162 110519,110571,110545
 1.0000e+000 111211 -1.8249e+002 -1.2573e+001 -2.8087e+001 22708 111378,111306,111021
 1.0000e+000 111188 -2.0006e+002 -1.2753e+001 -1.9622e+001 22708 111234,110969,110917
 1.0000e+000 111165 -1.6921e+002 -2.0007e+001 -1.5816e+001 22708 111450,111234,110917
 1.0000e+000 111142 -1.7485e+002 -3.6439e+000 -1.3773e+001 22708 111378,111021,110995
 1.0000e+000 111119 -1.6904e+002 -3.9287e+001  4.2880e+000 22708 111450,110917,110865
 1.0000e+000 111096 -4.2507e+002 -4.2959e+001 -2.2341e+001 22708 110917,110969,110943
 1.0000e+000 111073 -1.6534e+002 -5.0922e+001 -2.6900e+000 22708 110865,110917,110891
 1.0000e+000 111260 -2.0019e+002  2.9123e+000 -1.4032e+001 22708 111306,110969,111234
 1.0000e+000 111283 -2.0065e+002 -3.1032e+001  1.5586e+001 22708 111047,111234,110839
 1.0000e+000 111332 -3.1145e+002  1.0283e+002 -1.2788e+002 22708 111047,111021,111306
 1.0000e+000 111355 -2.5048e+002 -2.2175e+001  9.8412e+000 22708 111047,111306,111234
 1.0000e+000 111404 -2.0661e+002 -2.5349e-001 -2.5390e+001 22708 110969,111306,111378
 1.0000e+000 111427 -2.0102e+002 -6.4121e+000 -2.0291e+001 22708 110969,111378,110995
 1.0000e+000 111476 -1.8784e+002 -4.8118e+001  6.6283e+000 22708 110839,111234,111450
 1.0000e+000 111499 -1.9847e+002 -7.8814e+001  2.8432e+001 22708 110839,111450,110865
 1.0000e+000 111600 -1.9980e+002 -2.2578e+001  1.1832e+001 22460 111522,111574,111548
 1.0000e+000 112059 -1.2719e+002  1.4852e+001  1.4339e+001 22056 111811,111889,111863
 1.0000e+000 112036 -2.1280e+002 -1.7024e+001  3.1776e+001 22056 111811,111915,111889
 1.0000e+000 112013 -1.4527e+002 -5.5206e+001 -4.6415e+001 22056 111785,111915,111811
 1.0000e+000 111990 -8.4364e+001 -4.5279e+001 -3.8044e+001 22056 111785,111941,111915
 1.0000e+000 111967 -4.6435e+001  5.1131e+001 -3.1450e+001 22056 111811,111863,111837
 1.0000e+000 112486 -1.8897e+002  1.4049e+001  1.6086e+000 21594 112509,112267,112215
 1.0000e+000 112463 -1.8817e+002  1.7278e+001 -1.5869e+001 21594 112509,112215,112163
 1.0000e+000 112440 -1.7398e+002 -5.0945e+001  3.7203e+001 21594 112581,112293,112267
 1.0000e+000 112417 -1.3000e+002 -3.5288e+001 -1.0200e+001 21594 112215,112267,112241
 1.0000e+000 112394 -2.2845e+002  6.8444e+000 -2.5594e+001 21594 112163,112345,112319
 1.0000e+000 112371 -1.7647e+002  4.0019e+001 -1.1750e+001 21594 112163,112215,112189
 1.0000e+000 112535 -2.0518e+002 -1.9422e+001  8.3237e+000 21594 112581,112267,112509
 1.0000e+000 112558 -1.8563e+002  2.9245e+000 -1.9167e+001 21594 112319,112509,112163
 1.0000e+000 112607 -1.2557e+002 -2.1267e+001  2.1702e+001 21594 112319,112293,112581
 1.0000e+000 112630 -1.5221e+002  2.3415e+001 -1.0522e+001 21594 112319,112581,112509
 1.0000e+000 112900 -1.8425e+002  1.0633e+001 -1.6815e+000 20974 112675,112779,112701
 1.0000e+000 112877 -1.8621e+002  4.8139e+001 -2.2245e+001 20974 112675,112805,112779
 1.0000e+000 112854 -2.1090e+002 -6.6184e+001 -2.3614e+001 20974 112701,112779,112753
 1.0000e+000 112831 -2.3602e+002 -1.0392e+002 -3.0549e+000 20974 112701,112753,112727
 1.0000e+000 113359 -1.1500e+002  5.0539e+001  6.5027e+001 20520 113454,113137,113111
 1.0000e+000 113336 -1.6053e+002  3.6016e+000  4.1421e+001 20520 113454,113111,113085
 1.0000e+000 113313 -1.2415e+002 -3.5690e+001  4.6221e+001 20520 113382,113163,113137
 1.0000e+000 113290 -1.3858e+002 -3.3388e+001  4.7564e+001 20520 113526,113382,113137
 1.0000e+000 113267 -1.1646e+002 -1.0514e+000  1.3055e+001 20520 113189,113241,113215
 1.0000e+000 113408 -1.2052e+002 -2.2007e+001  3.3905e+001 20520 113189,113163,113382
 1.0000e+000 113431 -1.4026e+002 -3.4503e+001  2.5199e+001 20520 113189,113382,113241
 1.0000e+000 113480 -1.4542e+002 -1.2387e+001  4.2347e+001 20520 113526,113137,113454
 1.0000e+000 113503 -1.4116e+002  1.0376e+000  2.4416e+001 20520 113241,113454,113085
 1.0000e+000 113552 -1.2400e+002 -1.6527e+000  3.5761e+001 20520 113241,113382,113526
 1.0000e+000 113575 -1.3264e+002  1.3378e+001  2.9267e+001 20520 113241,113526,113454
 1.0000e+000 113904 -3.6144e+001 -2.2418e+001 -4.1067e+001 19858 113705,113783,113757
 1.0000e+000 113881 -8.8109e+001 -3.1510e+001 -2.1763e+001 19858 113705,113809,113783
 1.0000e+000 113858 -7.2686e+001 -2.1935e+001 -3.2103e+001 19858 113679,113809,113705
 1.0000e+000 113835 -3.5175e+001  8.7661e+000  4.7115e+000 19858 113705,113757,113731
 1.0000e+000 114152 -1.7577e+002 -5.3688e+001 -3.9568e+001 19454 114175,114005,113979
 1.0000e+000 114129 -1.8326e+002 -5.1681e+001 -4.2042e+001 19454 114175,113979,114057
 1.0000e+000 114106 -1.7344e+002  1.0945e+001  2.6516e+001 19454 113927,114057,113979
 1.0000e+000 114083 -1.4580e+002  1.1884e+000 -1.7955e+000 19454 113927,113979,113953
 1.0000e+000 114201 -1.6857e+001  1.4301e+001 -2.1651e+001 19454 114031,114005,114175
 1.0000e+000 114224 -1.7879e+002 -6.0297e+001 -4.0975e+001 19454 114031,114175,114057
 1.0000e+000 114472 -9.8526e+001 -2.5187e+001 -1.6586e+001 19000 114495,114273,114247
 1.0000e+000 114449 -1.1200e+002 -1.0310e+001 -2.6899e+001 19000 114495,114247,114325
 1.0000e+000 114426 -1.4759e+002 -3.3689e+001 -7.5191e-001 19000 114247,114377,114325
 1.0000e+000 114403 -1.4281e+002 -2.3318e+001  5.8536e-001 19000 114325,114377,114351
 1.0000e+000 114521 -6.4736e+001 -1.0100e+001 -2.0109e+001 19000 114299,114273,114495
 1.0000e+000 114544 -1.0461e+002 -7.7411e+000 -2.7635e+001 19000 114299,114495,114325
 1.0000e+000 114948 -2.5689e+002 -5.8905e+001 -1.9729e+001 18560 114674,114726,114700
 1.0000e+000 114925 -2.6345e+002 -9.2129e+001 -1.6136e+001 18560 114674,114830,114726
 1.0000e+000 114902 -2.7972e+002 -1.3389e+002 -3.4296e+001 18560 114726,114830,114804
 1.0000e+000 114879 -2.0037e+002 -7.4084e+001 -4.3841e+000 18560 114726,114804,114752
 1.0000e+000 114856 -2.2294e+002 -9.9766e+001  5.1388e+000 18560 114752,114804,114778
 1.0000e+000 115098 -1.5828e+002  6.1825e+000 -1.6092e+001 18156 114971,115023,114997
 1.0000e+000 115075 -1.8208e+002  1.1793e+001 -6.4069e+000 18156 114971,115049,115023
 1.0000e+000 115248 -1.9522e+002  4.2803e+001  2.0325e+001 17602 115147,115199,115173
 1.0000e+000 115225 -9.3880e+001 -9.5008e+000 -7.6082e-001 17602 115121,115199,115147
 1.0000e+000 115652 -1.4801e+002 -5.6252e+001 -2.8042e+000 17354 115430,115534,115508
 1.0000e+000 115629 -1.3718e+002 -1.8524e+001 -1.0518e+001 17354 115404,115534,115430
 1.0000e+000 115606 -1.0837e+002  3.7704e+001  2.3709e+000 17354 115378,115534,115404
 1.0000e+000 115583 -2.7479e+002 -2.9334e+001  3.3184e+001 17354 115456,115508,115482
 1.0000e+000 115560 -1.3102e+002 -1.8860e+001  9.9175e-001 17354 115430,115508,115456
 1.0000e+000 115873 -1.4922e+002 -3.7901e+001  2.5584e+001 16950 115749,115801,115775
 1.0000e+000 115850 -1.8935e+002 -4.0880e+001  2.3841e+001 16950 115697,115801,115749
 1.0000e+000 115827 -2.0039e+002 -8.9429e+001  2.7254e+001 16950 115697,115749,115723
 1.0000e+000 116023 -2.5542e+002 -1.1794e+001  7.7081e+000 16496 115922,115974,115948
 1.0000e+000 116000 -1.0490e+002 -4.7811e+001  4.1522e-001 16496 115896,115974,115922
 1.0000e+000 116126 -2.3103e+002  3.5650e+001 -2.3758e+001 16298 116048,116100,116074
 1.0000e+000 116278 -4.0989e+002 -8.0992e-001 -2.8528e+000 15892 116151,116203,116177
 1.0000e+000 116255 -3.8780e+002 -2.2916e+001 -4.1993e+001 15892 116151,116229,116203
 1.0000e+000 116430 -1.8572e+002 -1.5080e+002 -2.2197e+000 15545 116303,116355,116329
 1.0000e+000 116407 -1.4025e+002 -6.8789e+001  3.6108e+001 15545 116303,116381,116355
 1.0000e+000 116785 -7.7232e+001  4.5112e+000 -9.8451e+000 421 116612,116690,116664
 1.0000e+000 116762 -8.6875e+001 -1.6574e+001  1.8625e+001 421 116560,116690,116612
 1.0000e+000 116739 -7.8038e+001 -3.2109e+000 -7.4203e-001 421 116560,116612,116586
 1.0000e+000 116716 -1.5131e+001 -5.6716e+000  7.7750e+000 421 116612,116664,116638
 1.1000e+000 68048 -2.5534e+002 -3.8282e+001 -5.3686e+000 67642 67898,67950,67924
 1.1000e+000 68025 -2.7744e+002 -6.6487e+001  6.0846e+000 67642 67898,67976,67950
 1.1000e+000 68002 -1.9446e+002 -2.8216e+001 -4.0712e+000 67642 67872,67976,67898
 1.1000e+000 68367 -1.3210e+002 -5.1683e+000  9.4087e+000 67444 68119,68223,68197
 1.1000e+000 68344 -1.2942e+002 -3.4501e+001  2.8930e+000 67444 68119,68249,68223
 1.1000e+000 68321 -2.4929e+001  2.0265e+000  1.2258e+001 67444 68093,68249,68119
 1.1000e+000 68298 -1.5254e+002 -4.2727e+001 -1.2130e+001 67444 68119,68197,68171
 1.1000e+000 68275 -1.1914e+002 -8.1225e+000  4.8449e+000 67444 68119,68171,68145
 1.1000e+000 68468 -1.7537e+002  1.4966e+000  2.1867e-001 67268 68390,68442,68416
 1.1000e+000 68765 -2.2695e+002  4.9678e+001  1.4199e+001 66956 68788,68517,68491
 1.1000e+000 68742 -2.2047e+002 -1.4288e+001  1.7508e+000 66956 68788,68491,68621
 1.1000e+000 68719 -2.4950e+002 -5.3759e+001 -6.0047e+001 66956 68543,68621,68569
 1.1000e+000 68696 -2.0915e+002  5.5746e+000 -4.9631e+000 66956 68491,68647,68621
 1.1000e+000 68673 -3.5474e+002 -1.1101e+002 -9.3748e+001 66956 68569,68621,68595
 1.1000e+000 68814 -2.1159e+002  4.3082e-001  3.2512e+001 66956 68543,68517,68788
 1.1000e+000 68837 -2.0390e+002 -6.2479e+001  1.4439e+001 66956 68543,68788,68621
 1.1000e+000 69107 -1.9604e+002 -1.7712e+002 -1.5138e+001 66758 68882,68986,68908
 1.1000e+000 69084 -1.3364e+002 -1.3208e+002  1.6403e+001 66758 68882,69012,68986
 1.1000e+000 69061 -3.7633e+002 -6.1667e+001 -3.3786e+001 66758 68908,68960,68934
 1.1000e+000 69038 -1.6161e+002 -8.1881e+001 -2.9536e+001 66758 68908,68986,68960
 1.1000e+000 69308 -1.5478e+002  1.1531e+001  6.0868e-002 66560 69331,69184,69158
 1.1000e+000 69285 -1.7761e+002  9.7111e+000 -3.6898e+000 66560 69331,69158,69132
 1.1000e+000 69262 -1.4114e+002 -2.6799e+001 -1.0257e+001 66560 69184,69236,69210
 1.1000e+000 69357 -1.3962e+002  6.5148e+000  1.6915e+000 66560 69236,69184,69331
 1.1000e+000 69380 -1.5317e+002  1.0642e+001 -4.4601e+000 66560 69236,69331,69132
 1.1000e+000 69554 -5.7480e+001 -6.6106e+000  1.1320e+001 66270 69427,69479,69453
 1.1000e+000 69531 -3.3915e+001  4.8509e+001  2.2163e+001 66270 69427,69505,69479
 1.1000e+000 69804 -1.0769e+002 -9.0499e+000  3.1665e+001 66066 69579,69683,69657
 1.1000e+000 69781 -1.3249e+002 -1.5724e+001 -4.2051e-001 66066 69579,69709,69683
 1.1000e+000 69758 -4.0961e+001 -2.4015e+000 -2.7981e+000 66066 69579,69657,69631
 1.1000e+000 69735 -3.9491e+001 -9.1047e-001  3.1595e+000 66066 69579,69631,69605
 1.1000e+000 70257 -1.2082e+002  2.4842e+001 -3.5962e+001 65776 69960,70090,69986
 1.1000e+000 70234 -1.0489e+002  4.1468e+001 -2.0281e+001 65776 69934,70090,69960
 1.1000e+000 70211  2.4654e+001  8.1551e+001 -2.5305e+001 65776 69934,70116,70090
 1.1000e+000 70188 -1.2170e+002  1.0270e+002  0.0000e+000 65776 70038,70090,70064
 1.1000e+000 70165 -1.0907e+002  1.2774e+002 -2.2868e+001 65776 69986,70090,70038
 1.1000e+000 70142 -1.4226e+002 -2.4449e-001 -5.8977e+001 65776 69986,70038,70012
 1.1000e+000 70456 -1.0361e+002  1.1399e+001  2.5510e+001 65372 70479,70306,70280
 1.1000e+000 70433 -7.1035e+001  7.4824e+001  1.3853e+001 65372 70479,70280,70384
 1.1000e+000 70410 -7.0589e+001  1.2407e+001 -7.2222e+000 65372 70551,70332,70306
 1.1000e+000 70505 -6.9615e+001  1.1905e+001 -6.6612e+000 65372 70551,70306,70479
 1.1000e+000 70528 -5.5792e+001  3.6944e+001 -1.2273e+001 65372 70358,70479,70384
 1.1000e+000 70577 -6.9583e+001  1.3327e+001 -6.8305e+000 65372 70358,70332,70551
 1.1000e+000 70600 -6.8644e+001  1.2989e+001 -6.2303e+000 65372 70358,70551,70479
 1.1000e+000 70821 -1.1628e+002 -5.3640e+001 -7.0993e+000 65174 70645,70723,70671
 1.1000e+000 70798 -1.8160e+002 -7.1887e+001  1.1287e+001 65174 70645,70749,70723
 1.1000e+000 70775 -9.6331e+001 -2.6131e+001 -1.6226e+001 65174 70671,70723,70697
 1.1000e+000 71071 -1.5052e+002 -1.9380e+001 -2.1086e+001 64770 71094,70898,70872
 1.1000e+000 71048 -1.2705e+002 -1.4211e+001 -9.0137e+000 64770 71166,71094,70872
 1.1000e+000 71025 -1.2352e+002 -1.8790e+001 -1.3071e+001 64770 71166,70872,70846
 1.1000e+000 71002 -1.9682e+002 -1.9469e+001 -1.3503e+001 64770 70898,70950,70924
 1.1000e+000 71120 -1.3371e+002  7.9493e-001 -1.2275e+001 64770 70950,70898,71094
 1.1000e+000 71143 -1.1973e+002 -1.3375e+001 -1.7503e+000 64770 70950,71094,70976
 1.1000e+000 71192 -1.3307e+002 -2.3889e+001 -6.4252e+000 64770 70976,71094,71166
 1.1000e+000 71215 -1.2795e+002 -2.4918e+001 -1.1118e+001 64770 70976,71166,70846
 1.1000e+000 71514 -1.5710e+002 -3.4072e+001 -1.8086e+001 64572 71681,71537,71318
 1.1000e+000 71491 -2.1222e+002  7.2856e+000 -2.0965e+001 64572 71537,71266,71240
 1.1000e+000 71468 -1.6067e+002 -1.5222e+000 -5.2926e+001 64572 71609,71396,71370
 1.1000e+000 71445 -1.3922e+002 -7.3125e+001 -2.7442e+000 64572 71681,71318,71292
 1.1000e+000 71422 -1.2527e+002 -4.9812e+001 -2.4243e+001 64572 71753,71344,71318
 1.1000e+000 71563 -1.2779e+002 -2.4202e+001 -4.0691e+001 64572 71753,71318,71537
 1.1000e+000 71586 -1.5482e+002 -1.9042e+001 -3.4393e+001 64572 71609,71370,71537
 1.1000e+000 71635 -1.2916e+002  6.0441e+001 -7.5188e+001 64572 71240,71396,71609
 1.1000e+000 71658 -1.4882e+002  1.6517e+001 -5.1521e+001 64572 71240,71609,71537
 1.1000e+000 71707 -1.5290e+002  3.4332e+001 -1.4809e+001 64572 71266,71537,71681
 1.1000e+000 71730 -1.3479e+002  2.0690e+000  1.6149e+001 64572 71266,71681,71292
 1.1000e+000 71779 -9.1833e+001 -2.4283e+001 -3.7676e+001 64572 71370,71344,71753
 1.1000e+000 71802 -1.0958e+002 -1.4479e+001 -4.4774e+001 64572 71370,71753,71537
 1.1000e+000 72052 -8.9337e+001 -2.9807e+001 -1.3986e+001 64374 72075,71879,71827
 1.1000e+000 72029 -1.1113e+002 -3.0335e+001 -2.7968e+001 64374 72147,72075,71827
 1.1000e+000 72006 -1.2378e+002 -1.0080e+001 -5.8510e+000 64374 72147,71827,71957
 1.1000e+000 71983 -8.0164e+001 -1.2189e+001 -1.7493e+001 64374 71827,71879,71853
 1.1000e+000 72101 -9.5977e+001 -4.7263e+001 -1.3975e+001 64374 71905,71879,72075
 1.1000e+000 72124 -1.1725e+002 -2.6476e+001 -4.0878e+001 64374 71905,72075,71931
 1.1000e+000 72173 -9.5680e+001  1.8724e+001 -3.0304e+001 64374 71931,72075,72147
 1.1000e+000 72196 -1.1143e+002  3.6793e+001 -1.3999e+001 64374 71931,72147,71957
 1.1000e+000 72649 -1.7844e+002 -5.6509e+001  1.6507e+001 63948 72352,72508,72482
 1.1000e+000 72626 -1.9837e+002 -9.6678e+001 -2.5203e+001 63948 72326,72508,72352
 1.1000e+000 72603 -1.5352e+002 -5.6658e+001 -3.4900e+000 63948 72672,72430,72378
 1.1000e+000 72580 -1.3325e+002 -2.5700e+001 -1.4973e+001 63948 72672,72378,72352
 1.1000e+000 72557 -1.5002e+002 -8.3718e+001 -3.1106e-002 63948 72744,72456,72430
 1.1000e+000 72534 -1.5806e+002 -2.8570e+001  3.0911e+001 63948 72378,72430,72404
 1.1000e+000 72698 -1.4646e+002 -7.7531e+001  3.1881e+000 63948 72744,72430,72672
 1.1000e+000 72721 -1.4109e+002 -5.1085e+001  6.7894e+000 63948 72482,72672,72352
 1.1000e+000 72770 -1.6509e+002 -7.1621e+001  1.6956e+000 63948 72482,72456,72744
 1.1000e+000 72793 -1.5317e+002 -5.6291e+001  7.3405e+000 63948 72482,72744,72672
 1.1000e+000 72894 -1.8618e+002 -1.3024e+001  1.4666e+001 63494 72816,72868,72842
 1.1000e+000 73093 -1.0230e+002  3.5112e+001 -1.2525e+001 63132 72943,72995,72969
 1.1000e+000 73070 -2.2824e+002 -1.3794e+001 -3.9628e+000 63132 72943,73021,72995
 1.1000e+000 73047 -2.3224e+002 -1.9099e+001 -6.0018e+000 63132 72917,73021,72943
 1.1000e+000 73294 -1.1087e+002  1.1109e+001  1.5783e+001 62792 73317,73144,73118
 1.1000e+000 73271 -9.8438e+001  3.1608e+001 -6.1973e-001 62792 73317,73118,73222
 1.1000e+000 73248 -2.9150e+001 -7.7052e+000 -5.0259e+000 62792 73144,73196,73170
 1.1000e+000 73343 -8.8540e+001 -4.6037e+000 -8.0127e+000 62792 73196,73144,73317
 1.1000e+000 73366 -7.2078e+001  2.7711e+001 -2.5807e+001 62792 73196,73317,73222
 1.1000e+000 73616 -1.7737e+002 -3.3069e+001  2.1206e+001 62388 73639,73417,73391
 1.1000e+000 73593 -1.6543e+002 -6.8890e+000  9.5864e+000 62388 73711,73639,73391
 1.1000e+000 73570 -1.6729e+002  2.0383e+001  9.2138e+000 62388 73711,73391,73521
 1.1000e+000 73547 -1.5349e+002 -5.7244e+000 -3.0464e+001 62388 73469,73521,73495
 1.1000e+000 73665 -1.4029e+002 -1.7933e+001  1.5741e+001 62388 73443,73417,73639
 1.1000e+000 73688 -1.6384e+002 -2.7118e+001  4.7926e+000 62388 73443,73639,73469
 1.1000e+000 73737 -1.6859e+002 -2.6582e+001  3.6477e+000 62388 73469,73639,73711
 1.1000e+000 73760 -1.7703e+002 -1.1188e+001  6.5391e+000 62388 73469,73711,73521
 1.1000e+000 74010 -2.0359e+002 -5.2688e+001 -4.8011e+001 61848 74033,73837,73811
 1.1000e+000 73987 -9.1489e+001 -4.5596e+001  4.6958e+000 61848 74033,73811,73785
 1.1000e+000 73964 -1.5790e+002  5.1378e+000  2.2428e+001 61848 73837,73915,73889
 1.1000e+000 73941 -3.0635e+002 -2.4870e+001 -4.9189e+001 61848 73837,73889,73863
 1.1000e+000 74059 -2.1513e+002 -1.1270e+001 -2.1547e+001 61848 73915,73837,74033
 1.1000e+000 74082 -2.0481e+002  1.8033e+001 -3.6630e+000 61848 73915,74033,73785
 1.1000e+000 74283 -1.8662e+002  1.3364e+000 -2.5741e+001 61444 74306,74133,74107
 1.1000e+000 74260 -2.0326e+002  1.2616e+001  3.5809e+001 61444 74306,74107,74211
 1.1000e+000 74237 -2.1412e+002 -7.4571e+001  5.1042e+001 61444 74378,74185,74159
 1.1000e+000 74332 -2.5721e+002 -2.9221e+001 -3.1696e+001 61444 74159,74133,74306
 1.1000e+000 74355 -2.4497e+002 -2.2913e+001  3.7516e+001 61444 74378,74159,74306
 1.1000e+000 74404 -2.0585e+002 -2.0277e+001  2.5228e+001 61444 74211,74185,74378
 1.1000e+000 74427 -2.1740e+002 -1.2503e+000  2.7121e+001 61444 74211,74378,74306
 1.1000e+000 74628 -1.3706e+002 -7.5950e+000  3.2536e+001 60990 74478,74530,74504
 1.1000e+000 74605 -5.1340e+001  1.1240e+001  2.6015e+001 60990 74452,74530,74478
 1.1000e+000 74582 -1.5239e+002 -1.1904e+001  3.4169e+001 60990 74452,74556,74530
 1.1000e+000 75089 -1.7938e+001  7.5294e+000 -7.2612e+000 60486 75112,74945,74919
 1.1000e+000 75066 -4.2249e+001  2.9472e+001  2.4218e+001 60486 75112,74919,74867
 1.1000e+000 75043 -6.9338e+001  5.2612e+000  1.8887e+001 60486 74841,74971,74867
 1.1000e+000 75020 -1.8040e+002 -1.7164e+000 -7.2415e+000 60486 74867,74919,74893
 1.1000e+000 74997 -1.4309e+001  6.9203e+000  1.5253e+000 60486 74815,74971,74841
 1.1000e+000 75138 -5.5199e+001 -1.0704e+001 -1.3825e+001 60486 74971,74945,75112
 1.1000e+000 75161 -7.0213e+001  1.2058e+001  1.6833e+001 60486 74971,75112,74867
 1.1000e+000 75409 -1.2749e+002 -3.1010e+001 -2.3975e+001 59932 75576,75432,75288
 1.1000e+000 75386 -1.6438e+002 -3.6239e+001 -4.0615e+001 59932 75504,75314,75288
 1.1000e+000 75363 -8.7018e+001  5.8187e-001  9.4373e+000 59932 75432,75236,75210
 1.1000e+000 75340 -8.0811e+001 -2.6390e+000 -1.0829e+001 59932 75576,75288,75262
 1.1000e+000 75458 -1.6228e+002 -3.8955e+001 -3.9855e+001 59932 75504,75288,75432
 1.1000e+000 75481 -1.6589e+002 -3.2442e+001  5.1412e+000 59932 75184,75432,75210
 1.1000e+000 75530 -2.0646e+002 -5.1841e+001 -1.1036e+001 59932 75184,75314,75504
 1.1000e+000 75553 -1.5345e+002 -3.6654e+001 -3.4032e+001 59932 75184,75504,75432
 1.1000e+000 75602 -1.5411e+002 -1.3709e-001 -2.0970e+001 59932 75236,75432,75576
 1.1000e+000 75625 -1.5252e+002 -7.8551e-001 -2.1614e+001 59932 75236,75576,75262
 1.1000e+000 75873 -5.9947e+001 -3.0609e+001  3.3389e+001 59478 75674,75752,75700
 1.1000e+000 75850 -3.1980e+001 -1.9391e+001  1.2836e+001 59478 75648,75752,75674
 1.1000e+000 75827 -6.4326e+001 -6.7344e+000  4.5782e+001 59478 75700,75752,75726
 1.1000e+000 75804 -9.2948e+001  7.1592e+000  1.6005e+001 59478 75648,75778,75752
 1.1000e+000 76206 -7.2643e+001 -1.4652e+001 -1.2706e+001 59024 75981,76059,76007
 1.1000e+000 76183 -7.8936e+001 -8.2016e+000 -1.3402e+001 59024 75981,76111,76059
 1.1000e+000 76160 -7.3582e+001 -2.6270e+001 -4.8850e+000 59024 76007,76059,76033
 1.1000e+000 76137 -8.3263e+001 -6.1782e+000 -2.2768e+001 59024 76059,76111,76085
 1.1000e+000 76761 -8.6905e+001 -9.5524e+000  2.5920e+001 58562 76389,76441,76415
 1.1000e+000 76738 -1.3350e+002 -1.1366e+001 -7.0530e+000 58562 76856,76784,76389
 1.1000e+000 76715 -1.4385e+002 -1.2855e+001 -3.3757e+001 58562 76784,76571,76467
 1.1000e+000 76692 -2.0354e+002  6.3599e+000 -1.2012e+001 58562 76856,76389,76597
 1.1000e+000 76669 -2.3897e+002 -8.0601e+001 -2.2676e+001 58562 76467,76545,76493
 1.1000e+000 76646 -1.4747e+002 -3.4768e+001 -4.1112e+001 58562 76467,76571,76545
 1.1000e+000 76623 -1.4972e+002 -1.0479e+001  8.8921e+000 58562 76493,76545,76519
 1.1000e+000 76810 -1.3206e+002 -2.3465e+001 -1.1029e+001 58562 76441,76389,76784
 1.1000e+000 76833 -1.3369e+002 -1.6531e+001 -2.4934e+000 58562 76441,76784,76467
 1.1000e+000 76882 -2.1013e+002 -3.8059e+001 -4.1357e+001 58562 76571,76784,76856
 1.1000e+000 76905 -2.5350e+002 -2.0111e+000 -4.8121e+001 58562 76571,76856,76597
 1.1000e+000 77055 -2.4020e+002 -7.5320e+001  7.4513e+000 57844 76928,76980,76954
 1.1000e+000 77032 -1.8872e+002 -6.1675e+000 -1.5802e+001 57844 76928,77006,76980
 1.1000e+000 77533 -2.0395e+002 -7.4247e+001 -1.2055e+001 57226 77628,77556,77291
 1.1000e+000 77510 -2.0330e+002  6.4750e+001  8.6454e+000 57226 77556,77187,77343
 1.1000e+000 77487 -1.2814e+002 -7.1737e+001 -2.3634e+001 57226 77628,77291,77265
 1.1000e+000 77464 -9.9937e+001 -5.5995e+001 -3.9760e+001 57226 77700,77213,77187
 1.1000e+000 77441 -3.7112e+002  3.8113e+000  1.8240e+001 57226 77161,77343,77187
 1.1000e+000 77418 -2.1150e+002 -1.0281e+001  1.3141e+001 57226 77161,77369,77343
 1.1000e+000 77395 -1.2631e+002 -2.2017e+001 -5.2978e+001 57226 77213,77265,77239
 1.1000e+000 77582 -2.1890e+002 -9.0185e+001  2.0863e+001 57226 77317,77291,77556
 1.1000e+000 77605 -2.4129e+002  3.4534e+000 -8.1362e+000 57226 77317,77556,77343
 1.1000e+000 77654 -8.9975e+001 -5.9638e+000  1.6374e+001 57226 77187,77556,77628
 1.1000e+000 77677 -8.6318e+001 -5.9993e+001 -1.8923e+001 57226 77700,77187,77628
 1.1000e+000 77726 -1.4656e+002 -7.6347e+001 -4.8817e+001 57226 77265,77213,77700
 1.1000e+000 77749 -1.3119e+002 -7.4949e+001 -2.4889e+001 57226 77265,77700,77628
 1.1000e+000 78046 -2.1434e+002  9.8299e+000 -2.5847e+000 56936 77798,77850,77824
 1.1000e+000 78023 -2.1180e+002 -4.4150e+001 -1.9740e+001 56936 78069,77798,77902
 1.1000e+000 78000 -2.0216e+002 -4.9400e+001 -1.8603e+001 56936 78069,77902,77876
 1.1000e+000 77977 -2.6588e+002 -7.3625e+001 -5.4471e+001 56936 77798,77928,77902
 1.1000e+000 77954 -2.3150e+002 -2.6496e+001 -3.7256e+001 56936 77772,77928,77798
 1.1000e+000 78095 -2.1418e+002 -4.7247e+001 -1.8039e+001 56936 77850,77798,78069
 1.1000e+000 78118 -2.0964e+002 -5.4338e+001 -1.5357e+001 56936 77850,78069,77876
 1.1000e+000 78754 -9.6967e+001 -2.7093e+001  2.5446e+000 56475 78777,78486,78408
 1.1000e+000 78731 -1.6036e+002 -7.3416e+001  2.3197e+001 56475 78777,78408,78382
 1.1000e+000 78708 -1.4504e+002 -6.9621e+001 -3.6399e+001 56475 78849,78512,78486
 1.1000e+000 78685 -1.0922e+002 -1.3217e+001  2.3726e+000 56475 78382,78590,78564
 1.1000e+000 78662 -2.3765e+002 -5.6500e+001 -6.7175e+001 56475 78512,78564,78538
 1.1000e+000 78639 -1.0156e+002 -4.1097e+001  2.4388e+000 56475 78434,78486,78460
 1.1000e+000 78616 -9.9528e+001 -3.5259e+001 -3.2766e-001 56475 78408,78486,78434
 1.1000e+000 78803 -1.4491e+002 -4.9077e+001 -1.5361e+001 56475 78849,78486,78777
 1.1000e+000 78826 -1.3648e+002 -1.2173e+001  9.1075e+000 56475 78564,78777,78382
 1.1000e+000 78875 -1.3343e+002 -3.0368e+001 -2.5814e+001 56475 78564,78512,78849
 1.1000e+000 78898 -1.3855e+002 -7.5107e+000 -9.4852e+000 56475 78564,78849,78777
 1.1000e+000 79276 -1.1587e+002 -2.5038e+000  1.4504e+001 55964 79299,79080,79028
 1.1000e+000 79253 -1.6160e+002 -1.5390e+001  1.1855e+001 55964 79299,79028,79132
 1.1000e+000 79230 -1.0210e+002 -3.0617e+001  3.3320e+000 55964 79028,79080,79054
 1.1000e+000 79207 -1.6459e+002 -6.6814e+001 -1.2146e+001 55964 79002,79132,79028
 1.1000e+000 79184 -1.8994e+002 -7.5196e+001 -3.6855e+001 55964 79002,79158,79132
 1.1000e+000 79325 -1.3562e+002  1.0041e+001 -2.1923e+001 55964 79106,79080,79299
 1.1000e+000 79348 -1.8634e+002 -3.9916e+000 -2.2518e+001 55964 79106,79299,79132
 1.1000e+000 79498 -1.9144e+002  1.6746e+001 -3.1915e+001 55452 79397,79449,79423
 1.1000e+000 79475 -1.3538e+002  1.2683e+001 -7.3971e+000 55452 79371,79449,79397
 1.1000e+000 79795 -9.3797e+001  7.8588e+000  9.6651e+000 55048 79962,79818,79573
 1.1000e+000 79772 -1.2105e+002 -1.6087e+001 -1.5159e+001 55048 79818,79521,79677
 1.1000e+000 79749 -9.9186e+001 -4.6922e+001  8.0570e+000 55048 79599,79651,79625
 1.1000e+000 79726 -1.2687e+002 -3.0208e+001  2.0278e+000 55048 79890,79651,79599
 1.1000e+000 79703 -5.9644e+001  4.3691e+001  3.6520e+001 55048 79962,79573,79547
 1.1000e+000 79844 -1.1494e+002 -2.0156e+001  1.2012e-001 55048 79599,79573,79818
 1.1000e+000 79867 -1.1951e+002 -1.2521e+001  1.8086e+000 55048 79890,79599,79818
 1.1000e+000 79916 -1.2450e+002 -2.5435e+001 -1.5077e+001 55048 79677,79651,79890
 1.1000e+000 79939 -1.2169e+002 -1.8259e+001 -1.5517e+001 55048 79677,79890,79818
 1.1000e+000 79988 -1.1825e+002 -1.6367e+001 -1.6051e+001 55048 79521,79818,79962
 1.1000e+000 80011 -1.1124e+002 -8.1749e+000  5.8841e+000 55048 79521,79962,79547
 1.1000e+000 80212 -1.8446e+002  2.1232e+001  1.6264e+001 54436 80235,80088,80036
 1.1000e+000 80189 -1.4260e+002  2.6029e+001  1.2394e+001 54436 80235,80036,80140
 1.1000e+000 80166 -1.9252e+002 -2.0760e+000  1.4755e+001 54436 80036,80088,80062
 1.1000e+000 80261 -1.4850e+002 -6.6710e+000  4.2085e+001 54436 80114,80088,80235
 1.1000e+000 80284 -9.3000e+001  8.0809e+000  3.8437e+001 54436 80114,80235,80140
 1.1000e+000 80534 -1.8400e+002 -3.9749e+000 -8.0385e+000 54032 80557,80361,80335
 1.1000e+000 80511 -1.5839e+002  2.5227e+001 -2.3806e+001 54032 80557,80335,80309
 1.1000e+000 80488 -1.4526e+002 -5.5713e+000 -2.1261e+000 54032 80629,80413,80387
 1.1000e+000 80465 -8.6911e+001 -2.5273e+001 -9.8813e+000 54032 80309,80439,80413
 1.1000e+000 80583 -1.7056e+002 -5.4589e+001  1.2024e+001 54032 80387,80361,80557
 1.1000e+000 80606 -1.4638e+002 -7.7667e+000 -5.0511e-001 54032 80629,80387,80557
 1.1000e+000 80655 -1.4748e+002 -7.0140e+000 -1.2247e-001 54032 80309,80413,80629
 1.1000e+000 80678 -1.4873e+002 -7.6814e+000  1.2717e+000 54032 80309,80629,80557
 1.1000e+000 81139 -9.5060e+001  4.7193e+001  5.3088e+001 53784 80865,80995,80917
 1.1000e+000 81116 -1.6701e+002  5.5925e+001 -5.5410e+001 53784 80865,81021,80995
 1.1000e+000 81093 -6.3108e+001 -6.3842e+000  1.8948e+001 53784 80943,80995,80969
 1.1000e+000 81070 -4.5306e+001 -8.0190e+000  4.0191e+001 53784 80917,80995,80943
 1.1000e+000 81047 -2.3488e+002  3.9037e+002  1.5458e+002 53784 80865,80917,80891
 1.1000e+000 81468 -1.5353e+002 -2.3649e+001 -1.1375e+001 53230 81295,81373,81347
 1.1000e+000 81445 -1.2342e+002 -3.0841e+000  4.5852e+000 53230 81243,81373,81295
 1.1000e+000 81422 -8.7077e+001 -1.4126e+001  3.5354e+001 53230 81243,81295,81269
 1.1000e+000 81399 -1.7182e+002 -4.4919e+001  2.6304e+001 53230 81295,81347,81321
 1.1000e+000 81618 -2.9414e+002  9.8458e+001 -5.3662e+001 52790 81491,81543,81517
 1.1000e+000 81595 -2.8177e+002 -4.3269e+001 -3.7444e+001 52790 81491,81569,81543
 1.1000e+000 82126 -9.5010e+001 -3.2732e+001  1.7711e+001 52386 82149,81907,81881
 1.1000e+000 82103 -8.6509e+001 -8.9060e+000  2.2609e+001 52386 82149,81881,81855
 1.1000e+000 82080 -9.9459e+001 -4.6889e+001 -5.6731e+000 52386 82221,81803,81985
 1.1000e+000 82057 -3.8312e+001 -1.6132e+001  2.5512e+001 52386 81803,81855,81829
 1.1000e+000 82034 -7.9012e+001 -2.0031e+001  2.4896e+000 52386 81907,81985,81933
 1.1000e+000 82011 -7.5224e+001 -2.0716e+001  2.8047e+000 52386 81933,81985,81959
 1.1000e+000 82175 -8.3356e+001 -1.9271e+001  1.1079e+001 52386 81985,81907,82149
 1.1000e+000 82198 -9.3477e+001 -3.2244e+001  6.6632e+000 52386 82221,81985,82149
 1.1000e+000 82247 -9.4375e+001 -2.2084e+001  3.5800e+000 52386 81855,81803,82221
 1.1000e+000 82270 -9.6536e+001 -9.9949e+000  1.2404e+001 52386 81855,82221,82149
 1.1000e+000 82825 -2.7461e+002 -2.6557e+001 -8.6699e+001 51782 82505,82661,82635
 1.1000e+000 82802 -1.3459e+002 -7.4376e+001  3.7593e+001 51782 82479,82661,82505
 1.1000e+000 82779 -1.7720e+002 -7.1728e+001  5.4076e+001 51782 82557,82635,82609
 1.1000e+000 82756 -1.9870e+002 -1.3175e+002 -2.1132e+001 51782 82531,82635,82557
 1.1000e+000 82733 -2.5785e+002  1.1212e+001 -4.1198e+001 51782 82505,82635,82531
 1.1000e+000 82710 -1.8896e+002 -1.6419e+002 -2.9438e+001 51782 82453,82661,82479
 1.1000e+000 82687 -1.5468e+002 -7.4248e+001  5.5989e+001 51782 82557,82609,82583
 1.1000e+000 83171 -1.5351e+002  1.1337e+001 -2.9446e+001 51442 83194,82978,82900
 1.1000e+000 83148 -1.7526e+002 -8.0846e+000 -3.7946e+001 51442 83194,82900,82874
 1.1000e+000 83125 -2.3326e+002 -2.0311e+001 -3.2758e+000 51442 82900,82978,82926
 1.1000e+000 83102 -2.2319e+002 -5.6422e+001 -5.0611e+001 51442 82874,83030,83004
 1.1000e+000 83079 -1.0871e+002  1.1474e+001 -1.6946e+001 51442 82926,82978,82952
 1.1000e+000 83056 -1.3676e+002 -3.0880e+001 -3.7842e+001 51442 82848,83030,82874
 1.1000e+000 83220 -1.2345e+002 -6.0099e+000 -2.2540e+001 51442 83004,82978,83194
 1.1000e+000 83243 -1.5306e+002 -3.4122e+001 -3.4266e+001 51442 83004,83194,82874
 1.1000e+000 83751 -1.3228e+002 -2.1844e+001  9.3950e+000 50938 83428,83584,83454
 1.1000e+000 83728 -1.7898e+002 -3.8000e+001 -1.1526e+001 50938 83428,83610,83584
 1.1000e+000 83705 -1.6878e+002 -4.2936e+001 -2.5840e+000 50938 83454,83584,83558
 1.1000e+000 83682 -2.2255e+002 -3.4847e+001 -5.5637e+000 50938 83454,83532,83480
 1.1000e+000 83659 -1.9977e+002 -5.7310e+001 -7.9478e+000 50938 83454,83558,83532
 1.1000e+000 83636 -1.5846e+002  1.9704e+001  1.8275e+001 50938 83480,83532,83506
 1.1000e+000 84355 -1.9732e+002 -8.0085e+001  3.2473e+001 50377 84378,83960,83934
 1.1000e+000 84332 -1.5061e+002 -1.4052e+001 -4.0618e+001 50377 84522,84378,83934
 1.1000e+000 84309 -1.7937e+002 -2.5810e+000 -2.7894e-001 50377 84450,84038,84012
 1.1000e+000 84286 -1.2232e+002 -3.5656e+001 -4.2212e+001 50377 84522,83934,84142
 1.1000e+000 84263 -1.7032e+002 -1.1582e+002  2.7659e+001 50377 84594,84090,84038
 1.1000e+000 84240 -5.3573e+001 -4.2622e+001  3.7915e+001 50377 83960,84012,83986
 1.1000e+000 84217 -8.7705e+001 -4.3911e+001 -6.1849e+000 50377 83934,84168,84142
 1.1000e+000 84194 -6.9574e+000 -6.1192e+001  3.7089e+001 50377 84038,84090,84064
 1.1000e+000 84404 -6.9632e+000  3.7607e+000  1.2884e+001 50377 84012,83960,84378
 1.1000e+000 84427 -1.4874e+002 -3.1079e+000 -3.8126e+001 50377 84450,84012,84378
 1.1000e+000 84476 -2.0084e+002 -6.8642e+001  1.8448e+001 50377 84594,84038,84450
 1.1000e+000 84499 -1.7253e+002 -1.7584e+001 -1.9876e+001 50377 84116,84450,84378
 1.1000e+000 84548 -1.2453e+002  8.0723e+000 -3.1140e+001 50377 84116,84378,84522
 1.1000e+000 84571 -9.8208e+001 -1.6346e+001 -3.3738e+001 50377 84116,84522,84142
 1.1000e+000 84620 -1.3983e+002 -5.1973e+001 -1.0839e+000 50377 84116,84090,84594
 1.1000e+000 84643 -1.6509e+002 -3.7825e+000 -1.3272e+001 50377 84116,84594,84450
 1.1000e+000 84842 -1.7726e+002 -1.1315e+001 -4.7188e+001 49923 84865,84692,84666
 1.1000e+000 84819 -1.2402e+002 -2.2089e+001 -1.1416e+001 49923 84865,84666,84770
 1.1000e+000 84796 -4.6217e+001  5.1639e+000 -1.3619e+001 49923 84692,84744,84718
 1.1000e+000 84891 -1.4206e+002  3.9720e+000 -1.8195e+001 49923 84744,84692,84865
 1.1000e+000 84914 -8.1184e+001  1.2281e+001  2.2063e+001 49923 84744,84865,84770
 1.1000e+000 85501 -1.8821e+002 -2.0892e+001  7.2726e+000 49618 85524,85282,85204
 1.1000e+000 85478 -2.0121e+002 -1.3781e+001  2.2064e+001 49618 85596,85524,85204
 1.1000e+000 85455 -1.9286e+002 -2.5856e+001  2.1904e+001 49618 85596,85204,85178
 1.1000e+000 85432 -2.1062e+002 -3.5802e+001  1.3857e+001 49618 85204,85282,85256
 1.1000e+000 85409 -1.0748e+002  1.8529e+000 -8.6267e+000 49618 85282,85334,85308
 1.1000e+000 85386 -1.9441e+002 -2.6464e+000  3.3184e+000 49618 85204,85256,85230
 1.1000e+000 85550 -1.5282e+002  1.9151e+001 -3.4269e+001 49618 85334,85282,85524
 1.1000e+000 85573 -2.6424e+002 -2.2869e+001 -1.2777e+001 49618 85334,85524,85360
 1.1000e+000 85622 -2.1444e+002 -2.7293e+001  2.7431e+001 49618 85360,85524,85596
 1.1000e+000 85645 -2.0179e+002 -3.4376e+001  2.5448e+001 49618 85360,85596,85178
 1.1000e+000 85795 -5.2583e+002 -1.6124e+002  3.8874e+001 49278 85694,85746,85720
 1.1000e+000 85772 -5.9722e+002 -1.6866e+002  1.2615e+000 49278 85668,85746,85694
 1.1000e+000 86197 -2.2264e+002 -1.0031e+002 -4.0048e+001 48916 86001,86079,86027
 1.1000e+000 86174 -2.1753e+002 -7.9859e+001 -3.4998e+001 48916 85949,86079,86001
 1.1000e+000 86151 -2.9788e+002 -1.1226e+002 -7.6580e+000 48916 85949,86001,85975
 1.1000e+000 86128 -2.3546e+002 -6.8834e+001 -1.2808e+001 48916 86027,86079,86053
 1.1000e+000 86105 -4.8084e+002 -1.9374e+002 -6.4545e+001 48916 85923,86079,85949
 1.1000e+000 86477 -2.4601e+001  1.0781e+001  2.5838e+001 48398 86327,86379,86353
 1.1000e+000 86454 -6.1372e+001 -5.0819e+001  1.0578e+001 48398 86500,86379,86327
 1.1000e+000 86431 -3.5216e+001 -4.9992e+001  2.8227e+001 48398 86301,86405,86379
 1.1000e+000 86526 -4.4222e+001 -3.7799e+001  1.6898e+001 48398 86301,86379,86500
 1.1000e+000 87032 -1.7607e+002 -4.1957e+001 -6.1826e+000 48008 87127,87055,86787
 1.1000e+000 87009 -1.8319e+002 -5.8123e+001  1.5825e+000 48008 87055,86735,86709
 1.1000e+000 86986 -1.6035e+002 -5.2658e+001 -8.9326e+000 48008 87127,86787,86761
 1.1000e+000 86963 -1.5234e+002 -3.7849e+001  7.9740e+000 48008 86787,86865,86839
 1.1000e+000 86940 -1.9937e+002 -5.7617e+001 -3.7261e+000 48008 86709,86891,86865
 1.1000e+000 86917 -2.0204e+002 -2.7232e+001  2.5136e+001 48008 86787,86839,86813
 1.1000e+000 87081 -1.7795e+002 -4.7181e+001 -6.0995e+000 48008 86865,86787,87055
 1.1000e+000 87104 -1.7159e+002 -4.5849e+001 -7.4836e+000 48008 86865,87055,86709
 1.1000e+000 87153 -1.5402e+002 -4.2827e+001 -4.2010e+000 48008 86735,87055,87127
 1.1000e+000 87176 -1.1361e+002 -3.2878e+001 -1.6274e+001 48008 86735,87127,86761
 1.1000e+000 87456 -7.4660e+001 -2.5029e+001 -1.6289e+001 47604 87306,87358,87332
 1.1000e+000 87433 -1.0895e+002 -5.1024e+001 -2.3483e+000 47604 87306,87384,87358
 1.1000e+000 87410 -8.8194e+001 -4.2377e+001 -8.0501e+000 47604 87280,87384,87306
 1.1000e+000 87785 -7.5824e+001 -1.2964e+001 -5.4540e-001 47264 87638,87690,87664
 1.1000e+000 87762 -6.3431e+001  1.6052e+001 -8.2053e+000 47264 87612,87690,87638
 1.1000e+000 87739 -8.2234e+001 -9.9907e+000 -1.8603e+001 47264 87560,87690,87612
 1.1000e+000 87716 -7.4440e+001 -1.0094e+001 -2.6175e+001 47264 87560,87612,87586
 1.1000e+000 87935 -2.8042e+002 -1.9291e+001 -1.2315e+000 46952 87808,87860,87834
 1.1000e+000 87912 -2.7266e+002 -7.3646e+000 -6.2873e+000 46952 87808,87886,87860
 1.1000e+000 88281 -2.0878e+002 -6.4383e+001  1.7516e+000 46526 88304,88114,88036
 1.1000e+000 88258 -1.9246e+002 -5.0081e+001  7.9007e+000 46526 88304,88036,87984
 1.1000e+000 88235 -1.9667e+002 -5.0848e+001 -2.3112e+001 46526 88036,88114,88062
 1.1000e+000 88212 -1.6910e+002 -4.5719e+000  7.5196e+001 46526 87958,88140,87984
 1.1000e+000 88189 -1.7130e+002 -2.1973e-001  2.5158e+000 46526 87984,88036,88010
 1.1000e+000 88166 -2.3997e+002 -8.7415e+001 -4.0164e+001 46526 88062,88114,88088
 1.1000e+000 88330 -2.2548e+002 -4.7391e+001  7.0481e-001 46526 88140,88114,88304
 1.1000e+000 88353 -2.1443e+002 -3.6865e+001  5.0203e+000 46526 88140,88304,87984
 1.1000e+000 88701 -8.1908e+001 -4.2379e+001 -2.4541e+001 45822 88724,88378,88534
 1.1000e+000 88678 -6.1226e+001 -1.1813e+000 -3.2012e+001 45822 88378,88560,88534
 1.1000e+000 88655 -8.6832e+001 -5.7993e+001 -3.5932e+000 45822 88724,88534,88508
 1.1000e+000 88632 -8.1847e+001 -2.5635e+001 -1.6011e+001 45822 88404,88508,88456
 1.1000e+000 88609 -7.5572e+001 -1.3303e+001 -1.9901e+001 45822 88404,88456,88430
 1.1000e+000 88586 -1.3869e+002 -5.5648e+001 -4.1541e+000 45822 88456,88508,88482
 1.1000e+000 88750 -8.5836e+001 -1.3607e+001 -3.1427e+001 45822 88404,88378,88724
 1.1000e+000 88773 -8.8788e+001 -3.1112e+001 -1.2181e+001 45822 88404,88724,88508
 1.1000e+000 89106 -1.8388e+002 -1.4200e+000 -2.2545e+001 45418 88881,88985,88907
 1.1000e+000 89083 -1.1499e+002 -9.3392e+001 -1.1100e+001 45418 88881,89011,88985
 1.1000e+000 89060 -1.2922e+002 -3.2642e+000 -2.9421e+001 45418 88907,88985,88933
 1.1000e+000 89037 -5.5967e+001 -9.9725e+000  2.6223e+000 45418 88933,88985,88959
 1.1000e+000 89435 -1.8704e+002 -7.4095e+001  3.1321e+000 44914 89210,89288,89236
 1.1000e+000 89412 -1.4373e+002 -4.7423e+001 -3.1053e+001 44914 89210,89314,89288
 1.1000e+000 89389 -1.6237e+002 -3.7011e+001 -3.7065e+001 44914 89210,89340,89314
 1.1000e+000 89366 -1.6176e+002 -6.1778e+001 -8.1063e-001 44914 89236,89288,89262
 1.1000e+000 89634 -5.3519e+001 -2.7521e+001  7.5737e-001 44538 89510,89562,89536
 1.1000e+000 89611 -7.3723e+001 -8.6906e+000 -3.2634e+001 44538 89458,89562,89510
 1.1000e+000 89588 -8.9420e+001 -5.4135e+001 -2.4936e+001 44538 89458,89510,89484
 1.1000e+000 90044 -2.3785e+002 -8.8066e+001  1.9754e+001 44134 89819,89923,89845
 1.1000e+000 90021 -1.9653e+002 -1.9979e+001  4.2494e+001 44134 89819,89949,89923
 1.1000e+000 89998 -1.8507e+002 -8.3657e+001 -7.1805e+000 44134 89845,89923,89897
 1.1000e+000 89975 -1.3356e+002 -6.8344e+000  2.6206e+001 44134 89845,89897,89871
 1.1000e+000 90520 -2.2180e+002 -8.9534e+001  9.1592e+000 43457 90543,90252,90226
 1.1000e+000 90497 -1.8106e+002 -7.5080e+001  1.3476e+001 43457 90543,90226,90330
 1.1000e+000 90474 -2.1347e+002 -3.8260e+001 -9.9417e+000 43457 90200,90330,90226
 1.1000e+000 90451 -2.3991e+002 -6.9422e+001 -3.9609e+001 43457 90200,90356,90330
 1.1000e+000 90428 -2.3249e+002 -1.8590e+001  6.1622e+001 43457 90252,90304,90278
 1.1000e+000 90405 -7.3405e+001 -9.9671e+000  2.7129e+001 43457 90174,90356,90200
 1.1000e+000 90382 -2.4322e+002 -1.7751e+002 -4.0841e+001 43457 90148,90356,90174
 1.1000e+000 90569 -2.6087e+002 -6.7130e+001  4.8379e+001 43457 90304,90252,90543
 1.1000e+000 90592 -1.9061e+002 -3.6266e+001  6.1380e+001 43457 90304,90543,90330
 1.1000e+000 91098 -7.3489e+001 -9.8887e+000 -9.3154e-001 42789 90801,90905,90853
 1.1000e+000 91075 -9.9692e+001 -5.3737e+001  1.0483e+001 42789 90775,90905,90801
 1.1000e+000 91052 -1.0064e+002 -1.5313e+001 -1.7061e+001 42789 90775,90931,90905
 1.1000e+000 91029 -4.4770e+001  5.3735e+000  3.0425e+001 42789 90801,90853,90827
 1.1000e+000 91006 -1.0186e+002 -3.1084e+001  4.1096e+001 42789 90853,90905,90879
 1.1000e+000 90983 -1.9360e+002 -2.3930e+001  2.2041e+001 42789 90775,90957,90931
 1.1000e+000 91427 -2.0282e+002 -8.0617e+000 -1.5073e+001 42227 91228,91280,91254
 1.1000e+000 91404 -2.2680e+002 -6.5586e+001  1.0163e+001 42227 91228,91306,91280
 1.1000e+000 91381 -2.2415e+002 -5.9468e+001  2.9841e+001 42227 91202,91306,91228
 1.1000e+000 91358 -1.8401e+002 -7.2679e+001 -8.2639e+000 42227 91202,91332,91306
 1.1000e+000 91675 -8.3950e+001 -2.9309e+001 -1.8259e+001 41773 91698,91476,91450
 1.1000e+000 91652 -8.5412e+001 -4.2632e+001 -5.5190e+000 41773 91698,91450,91554
 1.1000e+000 91629 -8.9207e+001 -5.8898e+001 -2.1184e+000 41773 91450,91580,91554
 1.1000e+000 91606 -1.0876e+002 -2.1834e+001  1.6947e+001 41773 91502,91554,91528
 1.1000e+000 91724 -9.1596e+001 -3.6391e+001 -9.0641e+000 41773 91502,91476,91698
 1.1000e+000 91747 -9.5752e+001 -5.1233e+001  4.0469e+000 41773 91502,91698,91554
 1.1000e+000 92127 -1.0055e+002 -6.0877e+000 -1.5311e+001 41255 92150,91905,91879
 1.1000e+000 92104 -1.8919e+002 -1.3720e+001  2.3472e+001 41255 92150,91879,91957
 1.1000e+000 92081 -1.5509e+002 -4.9967e+001  5.3461e+001 41255 91853,91957,91879
 1.1000e+000 92058 -1.6477e+002 -5.3894e+001  1.2049e+000 41255 91853,91983,91957
 1.1000e+000 92035 -7.2571e+001 -3.5631e+001 -1.3148e+001 41255 91853,92009,91983
 1.1000e+000 92176 -1.7797e+002  1.5345e+001  2.2369e+001 41255 91931,91905,92150
 1.1000e+000 92199 -3.1281e+002 -4.7590e+001  7.6723e+001 41255 91931,92150,91957
 1.1000e+000 92518 -2.5082e+002 -1.1563e+001 -6.5507e+000 41007 92244,92374,92270
 1.1000e+000 92495 -2.5717e+002  1.2560e+001 -1.8611e+001 41007 92244,92400,92374
 1.1000e+000 92472 -2.0762e+002 -5.3588e+000 -6.6639e+000 41007 92270,92374,92348
 1.1000e+000 92449 -2.9320e+002 -6.4317e+001  1.5535e+001 41007 92296,92348,92322
 1.1000e+000 92426 -2.6392e+002 -5.7869e+001  1.6111e+001 41007 92270,92348,92296
 1.1000e+000 92668 -7.2413e+001 -2.2607e+001 -2.6271e+001 40717 92823,92691,92567
 1.1000e+000 92645 -7.2941e+001 -1.3130e+001 -2.5153e+001 40717 92895,92823,92567
 1.1000e+000 92717 -7.6234e+001 -2.0635e+001  9.7701e+000 40717 92593,92567,92691
 1.1000e+000 92849 -2.7456e+001 -2.6404e+001 -4.2463e+001 40717 92619,92691,92823
 1.1000e+000 92872 -8.5911e+001 -2.9908e+001 -2.2605e+001 40717 92619,92823,92541
 1.1000e+000 92921 -1.2661e+002 -6.1979e+001  8.5837e+000 40717 92541,92823,92895
 1.1000e+000 93634 -2.1380e+002 -6.0363e+001 -4.3971e+001 40206 93366,93444,93418
 1.1000e+000 93611 -1.6420e+002 -1.9617e+001 -1.5975e+001 40206 93288,93444,93366
 1.1000e+000 93588 -1.6492e+002 -5.2156e+001 -1.8250e+001 40206 93288,93366,93314
 1.1000e+000 93565 -3.3456e+002 -7.9319e+001 -5.3519e+000 40206 93262,93444,93288
 1.1000e+000 93542 -2.5026e+002 -3.1762e+001 -2.4013e+001 40206 93366,93418,93392
 1.1000e+000 93519 -4.0652e+002  1.1499e+000 -6.2354e-001 40206 93262,93470,93444
 1.1000e+000 93496 -1.0179e+002 -2.5697e+001 -2.5106e+000 40206 93314,93366,93340
 1.1000e+000 94189 -1.6529e+002 -7.6750e+001  8.1048e+000 39802 93843,93999,93973
 1.1000e+000 94166 -2.0568e+002 -9.8422e+001  1.9339e+001 39802 93817,93999,93843
 1.1000e+000 94143 -2.5970e+002 -8.3129e+001  2.3358e+001 39802 93869,93973,93947
 1.1000e+000 94120 -1.6918e+002 -3.7149e+001  6.0251e+000 39802 93843,93973,93869
 1.1000e+000 94097 -1.5712e+002  4.8050e-002 -3.3266e+000 39802 93869,93921,93895
 1.1000e+000 94074 -1.6356e+002 -1.6087e+001 -1.2552e+001 39802 93869,93947,93921
 1.1000e+000 94051 -1.4331e+002 -5.8507e+001 -5.4674e+000 39802 93817,94025,93999
 1.1000e+000 94290 -2.5954e+002 -8.8692e+001  2.1393e+000 39398 94212,94264,94238
 1.1000e+000 94798 -9.3491e+001 -1.4027e+001 -7.4386e+000 38701 94501,94657,94631
 1.1000e+000 94775 -7.9850e+001 -6.7876e+000 -4.6181e+000 38701 94475,94657,94501
 1.1000e+000 94752 -1.5154e+002 -5.3074e+001 -3.1426e+000 38701 94579,94631,94605
 1.1000e+000 94729 -1.5511e+002 -2.7564e+001 -1.7296e+001 38701 94553,94631,94579
 1.1000e+000 94706 -6.5376e+001  9.8009e+000 -1.8247e+001 38701 94501,94631,94553
 1.1000e+000 94683 -6.3061e+001  1.1634e+000 -1.8464e+001 38701 94501,94553,94527
 1.1000e+000 95255 -6.6627e+001 -8.6954e+000  2.1312e+001 38247 95278,95085,95007
 1.1000e+000 95232 -9.2843e+001 -1.2375e+001  3.0491e+001 38247 95278,95007,95137
 1.1000e+000 95209 -1.2520e+002 -6.6607e+000  6.8594e+000 38247 94981,95137,95007
 1.1000e+000 95186 -1.1167e+002 -4.2227e+001 -2.8641e+000 38247 95007,95059,95033
 1.1000e+000 95163 -1.1609e+002 -3.6125e+001  3.3502e+001 38247 95007,95085,95059
 1.1000e+000 95304 -5.2722e+001  3.6597e+000 -2.1784e+000 38247 95111,95085,95278
 1.1000e+000 95327 -7.9586e+001 -1.0466e+001  1.0153e+001 38247 95111,95278,95137
 1.1000e+000 95575 -2.8033e+002  7.0457e+001 -2.8120e+001 37564 95376,95428,95402
 1.1000e+000 95552 -2.9174e+002 -1.1918e+002 -1.5013e+001 37564 95376,95454,95428
 1.1000e+000 95529 -2.5962e+002 -1.1125e+002 -2.2070e+001 37564 95376,95480,95454
 1.1000e+000 95506 -2.4302e+002 -6.0271e+001 -6.1060e+000 37564 95350,95480,95376
 1.1000e+000 96034 -4.4873e+001 -2.2592e-001  7.5438e+000 37224 95786,95838,95812
 1.1000e+000 96011 -4.3030e+001 -9.5338e+000  1.7819e+001 37224 95786,95890,95838
 1.1000e+000 95988 -1.6219e+001 -3.3273e+000  8.9543e+000 37224 95786,95916,95890
 1.1000e+000 95965 -7.5214e+001 -2.1926e+001  2.3311e+000 37224 95760,95916,95786
 1.1000e+000 95942 -1.4109e+001 -2.0888e+001 -6.3242e+000 37224 95838,95890,95864
 1.1000e+000 96363 -8.6722e+001 -7.8950e-001 -1.3928e+001 36884 96216,96268,96242
 1.1000e+000 96340 -1.1922e+002  1.4488e+000 -1.3613e+001 36884 96164,96268,96216
 1.1000e+000 96317 -1.6405e+002 -5.2185e+001  2.4807e+001 36884 96138,96268,96164
 1.1000e+000 96294 -1.1973e+002  6.1065e+000 -4.9396e+000 36884 96164,96216,96190
 1.1000e+000 96839 -1.8502e+002 -3.4787e+001 -1.6451e+001 36572 96862,96649,96597
 1.1000e+000 96816 -1.8908e+002 -5.0281e+001 -1.4531e+001 36572 97006,96862,96597
 1.1000e+000 96793 -1.7211e+002 -4.3343e+001 -5.8636e+000 36572 96934,96467,96675
 1.1000e+000 96770 -1.6956e+002 -6.5728e+001  7.4882e+000 36572 97006,96597,96571
 1.1000e+000 96747 -1.7868e+002 -6.8551e+001 -4.0468e+001 36572 96467,96519,96493
 1.1000e+000 96724 -3.6385e+002 -3.2771e+001  1.2971e+002 36572 96519,96571,96545
 1.1000e+000 96701 -1.3141e+002 -1.1156e+001  3.7233e+001 36572 96597,96649,96623
 1.1000e+000 96888 -1.9638e+002 -4.0211e+001 -1.8399e+001 36572 96675,96649,96862
 1.1000e+000 96911 -1.9346e+002 -3.7603e+001 -1.0330e+001 36572 96934,96675,96862
 1.1000e+000 96960 -1.5757e+002 -3.9038e+001 -1.0752e+001 36572 96519,96467,96934
 1.1000e+000 96983 -1.7156e+002 -3.3344e+001 -1.1195e+001 36572 97078,96934,96862
 1.1000e+000 97032 -1.6978e+002 -2.9423e+001 -6.3493e+000 36572 97078,96862,97006
 1.1000e+000 97055 -1.4615e+002 -2.9723e+001  1.8674e+001 36572 96519,97006,96571
 1.1000e+000 97104 -1.6824e+002 -2.4849e+001 -8.9023e+000 36572 96519,96934,97078
 1.1000e+000 97127 -1.6949e+002 -2.2468e+001 -5.1856e+000 36572 96519,97078,97006
 1.1000e+000 97761 -1.5487e+002 -1.5109e+001  3.3100e+001 36118 97784,97493,97415
 1.1000e+000 97738 -1.7690e+002 -3.4148e+001  4.3434e+001 36118 97784,97415,97597
 1.1000e+000 97715 -2.9122e+002 -5.7148e+001  7.3484e+001 36118 97389,97597,97415
 1.1000e+000 97692 -2.6353e+002 -4.1212e+001  7.1639e+001 36118 97415,97467,97441
 1.1000e+000 97669 -2.4609e+002 -5.3227e+001  9.2205e+001 36118 97415,97493,97467
 1.1000e+000 97646 -1.5074e+002 -6.1290e+001 -3.6512e+001 36118 97493,97571,97519
 1.1000e+000 97623 -9.7069e+001 -1.4059e+001  1.0946e+001 36118 97519,97571,97545
 1.1000e+000 97810 -1.7495e+002  2.8034e+001  7.8946e+000 36118 97571,97493,97784
 1.1000e+000 97833 -2.3238e+002 -7.5350e+000  2.6133e+001 36118 97571,97784,97597
 1.1000e+000 98081 -1.6831e+002 -7.8854e+001  1.1510e+001 35564 98104,97908,97856
 1.1000e+000 98058 -1.9554e+002 -1.0019e+002  2.6755e+001 35564 98104,97856,97986
 1.1000e+000 98035 -2.8409e+002 -1.0564e+002  1.9371e+001 35564 97934,97986,97960
 1.1000e+000 98012 -1.4892e+002 -1.9555e+001 -1.6133e+001 35564 97856,97908,97882
 1.1000e+000 98130 -2.0473e+002  5.6286e+000  7.4316e+000 35564 97934,97908,98104
 1.1000e+000 98153 -2.3950e+002 -6.5436e+001  4.0019e+001 35564 97934,98104,97986
 1.1000e+000 98374 -2.8639e+002 -5.3627e+001 -1.3095e+001 35152 98224,98302,98276
 1.1000e+000 98351 -2.6320e+002 -5.1303e+000 -2.9194e+000 35152 98198,98302,98224
 1.1000e+000 98328 -2.1731e+002 -2.7145e+001 -2.7674e+001 35152 98224,98276,98250
 1.1000e+000 98884 -1.0849e+002 -5.8618e-001  1.1947e+001 34698 98691,98743,98717
 1.1000e+000 98861 -1.1288e+002 -2.0941e+000 -7.4887e-002 34698 98561,98743,98691
 1.1000e+000 98838 -9.6020e+001 -1.3038e+001  1.1936e+001 34698 98907,98587,98561
 1.1000e+000 98815 -9.4825e+001 -2.2794e+001 -1.9635e+000 34698 98907,98561,98691
 1.1000e+000 98792 -4.2383e+001 -4.0907e-001 -1.1786e+001 34698 98587,98639,98613
 1.1000e+000 98769 -8.7583e+001 -4.5614e+001  3.0683e+001 34698 98587,98665,98639
 1.1000e+000 98933 -8.1909e+001 -1.1125e+001  2.0275e+001 34698 98665,98587,98907
 1.1000e+000 98956 -7.9484e+001 -2.4317e+001  5.9254e+000 34698 98665,98907,98691
 1.1000e+000 99204 -2.1141e+002 -1.9437e+001 -1.8275e+001 34144 99227,99031,99005
 1.1000e+000 99181 -2.2025e+002 -4.9549e+001  9.1133e+000 34144 99299,99227,99005
 1.1000e+000 99158 -2.3518e+002 -4.2863e+001  2.8036e+001 34144 99299,99005,99109
 1.1000e+000 99135 -1.5919e+002 -4.0610e+001  3.5987e+001 34144 98979,99109,99005
 1.1000e+000 99253 -2.0203e+002 -3.6574e+001 -6.4991e+000 34144 99057,99031,99227
 1.1000e+000 99276 -9.2482e+001 -1.4208e+001 -1.3599e+001 34144 99057,99227,99083
 1.1000e+000 99325 -1.8827e+002 -1.2247e+001 -3.1238e+001 34144 99083,99227,99299
 1.1000e+000 99348 -2.3995e+002 -2.1606e+001 -1.2193e+001 34144 99083,99299,99109
 1.1000e+000 99498 -5.6898e+002 -1.4062e+002  5.7248e+001 33433 99397,99449,99423
 1.1000e+000 99475 -6.5500e+002 -1.6732e+002  3.8765e+000 33433 99371,99449,99397
 1.1000e+000 100008 -1.5243e+002 -3.4888e+001  8.6153e+000 32979 100103,100031,99815
 1.1000e+000 99985 -1.4384e+002 -1.5786e+001 -1.0227e+001 32979 100175,100031,99763
 1.1000e+000 99962 -1.6620e+002 -2.9399e+001  1.5514e+001 32979 100103,99815,99789
 1.1000e+000 99939 -1.5306e+002 -1.7126e+001 -3.1369e+000 32979 100175,99763,99737
 1.1000e+000 99916 -1.4700e+002  3.2717e+001 -5.2382e+000 32979 99685,99867,99737
 1.1000e+000 99893 -9.5662e+001  3.3960e+000 -6.6626e+001 32979 99685,99737,99711
 1.1000e+000 100057 -1.3559e+002 -2.4962e+001  5.9701e-001 32979 99841,99815,100031
 1.1000e+000 100080 -1.2787e+002  1.8574e+001 -2.3749e+001 32979 99841,100031,99867
 1.1000e+000 100129 -1.3345e+002 -2.6356e+001  1.1992e+000 32979 99763,100031,100103
 1.1000e+000 100152 -1.5062e+002 -2.0630e+001  6.7750e+000 32979 99763,100103,99789
 1.1000e+000 100201 -1.5828e+002 -1.9998e+001 -9.7559e+000 32979 99867,100031,100175
 1.1000e+000 100224 -1.6022e+002 -1.5887e+001 -3.0492e+000 32979 99867,100175,99737
 1.1000e+000 100553 -1.2641e+002 -4.8081e+001  2.2693e+001 32503 100354,100406,100380
 1.1000e+000 100530 -1.2277e+002 -1.0826e+001 -7.2568e+000 32503 100328,100406,100354
 1.1000e+000 100507 -1.1633e+002 -6.3384e+001 -5.6385e+001 32503 100328,100458,100406
 1.1000e+000 100484 -5.3713e+001 -6.2951e+001 -2.7173e+001 32503 100406,100458,100432
 1.1000e+000 100850 -2.3273e+002 -4.9482e+001  1.4282e+001 31899 100873,100654,100628
 1.1000e+000 100827 -2.2916e+002 -6.6604e+001 -4.6360e-001 31899 100945,100873,100628
 1.1000e+000 100804 -2.1502e+002 -8.1891e+001  5.0787e+000 31899 100945,100628,100602
 1.1000e+000 100781 -2.2310e+002 -9.0957e+001  1.1909e+001 31899 100576,100732,100602
 1.1000e+000 100758 -1.3186e+002 -2.2994e+001  2.7660e+001 31899 100654,100706,100680
 1.1000e+000 100899 -1.7513e+002 -8.2456e+001  2.5594e+000 31899 100706,100654,100873
 1.1000e+000 100922 -2.5552e+002 -9.3474e+001 -2.1275e+001 31899 100706,100873,100732
 1.1000e+000 100971 -2.4862e+002 -8.0749e+001  5.7146e+000 31899 100732,100873,100945
 1.1000e+000 100994 -2.3285e+002 -9.5207e+001  1.0907e+001 31899 100732,100945,100602
 1.1000e+000 101551 -1.0766e+002 -2.2467e+001 -7.8292e+000 31338 101205,101387,101231
 1.1000e+000 101528 -2.3687e+002 -8.3532e+001 -6.2093e+001 31338 101179,101387,101205
 1.1000e+000 101505 -1.2507e+002 -3.9584e+001 -2.3646e+000 31338 101574,101309,101257
 1.1000e+000 101482 -1.0297e+002 -2.8071e+001  3.3079e+000 31338 101646,101574,101257
 1.1000e+000 101459 -8.3910e+001 -4.9074e+000  1.5364e+001 31338 101646,101257,101231
 1.1000e+000 101436 -1.2883e+002 -1.2817e+000 -8.6695e+000 31338 101309,101361,101335
 1.1000e+000 101413 -1.1388e+002 -2.5861e+001 -1.7071e+001 31338 101257,101309,101283
 1.1000e+000 101600 -1.2805e+002 -3.0939e+001 -1.0366e-001 31338 101361,101309,101574
 1.1000e+000 101623 -1.3128e+002 -4.9005e+001 -1.5460e+001 31338 101361,101574,101387
 1.1000e+000 101672 -1.2060e+002 -2.2497e+001 -1.4994e+001 31338 101387,101574,101646
 1.1000e+000 101695 -1.0805e+002 -1.8107e+001 -6.6013e+000 31338 101387,101646,101231
 1.1000e+000 101943 -2.2087e+002 -8.0831e+001  3.7643e-001 30748 101966,101796,101744
 1.1000e+000 101920 -1.9846e+002 -4.0862e+001  1.3897e+001 30748 101966,101744,101718
 1.1000e+000 101897 -1.9369e+002  6.6870e+000  6.8567e+001 30748 101718,101848,101822
 1.1000e+000 101874 -2.0397e+002 -4.6502e+001 -2.9868e+001 30748 101744,101796,101770
 1.1000e+000 101992 -2.3780e+002 -3.9926e+001  6.0501e+000 30748 101822,101796,101966
 1.1000e+000 102015 -2.2492e+002 -6.8708e+000  1.4074e+001 30748 101822,101966,101718
 1.1000e+000 102493 -2.6579e+002 -5.4815e+001  4.4359e+001 30344 102516,102173,102147
 1.1000e+000 102470 -2.1206e+002 -2.9115e+001 -1.7500e+001 30344 102660,102516,102147
 1.1000e+000 102447 -1.1397e+002  1.5645e+001  5.8103e+000 30344 102588,102199,102173
 1.1000e+000 102424 -1.8366e+002 -4.5320e+001 -1.8468e+001 30344 102660,102147,102329
 1.1000e+000 102401 -3.6872e+002 -4.2785e+001  1.7810e+001 30344 102199,102277,102251
 1.1000e+000 102378 -1.1040e+002 -1.0504e+002  9.2074e+001 30344 102199,102251,102225
 1.1000e+000 102355 -4.3174e+002 -1.3798e+002  1.3076e+002 30344 102121,102329,102147
 1.1000e+000 102542 -1.5613e+002 -2.6559e+000  1.6228e+001 30344 102588,102173,102516
 1.1000e+000 102565 -1.9492e+002 -1.7405e+001 -5.1741e+000 30344 102277,102516,102303
 1.1000e+000 102614 -1.7133e+002  3.7815e+001  7.4934e+000 30344 102277,102199,102588
 1.1000e+000 102637 -2.0940e+002  2.5614e+001  1.0136e+001 30344 102277,102588,102516
 1.1000e+000 102686 -1.8043e+002 -1.1796e+001 -5.1673e+000 30344 102303,102516,102660
 1.1000e+000 102709 -1.6070e+002 -3.4004e+001 -6.4152e+000 30344 102303,102660,102329
 1.1000e+000 103294 -1.4772e+002 -3.7788e+001  1.9139e+001 29726 103317,103101,103075
 1.1000e+000 103271 -1.6098e+002 -5.0624e+001  1.3286e+001 29726 103317,103075,102997
 1.1000e+000 103248 -2.3550e+002 -7.5538e+001  4.5204e+001 29726 102971,103153,102997
 1.1000e+000 103225 -1.1462e+002 -2.5528e+000 -5.6290e+000 29726 103101,103153,103127
 1.1000e+000 103202 -1.6271e+002 -7.3091e+001  9.9824e+000 29726 102997,103075,103023
 1.1000e+000 103179 -1.6894e+002 -4.1586e+001 -1.8488e+001 29726 103023,103075,103049
 1.1000e+000 103343 -1.3934e+002 -5.1359e+001  1.9888e+001 29726 103153,103101,103317
 1.1000e+000 103366 -1.4685e+002 -5.6270e+001  1.6916e+001 29726 103153,103317,102997
 1.1000e+000 103614 -1.0377e+002 -2.6565e+001  1.1057e+001 29200 103781,103637,103467
 1.1000e+000 103591 -9.3668e+001 -3.2243e+001 -3.2830e+000 29200 103709,103637,103415
 1.1000e+000 103568 -7.9151e+001 -7.9067e+000  2.7501e+000 29200 103709,103415,103389
 1.1000e+000 103545 -1.1094e+002 -2.0258e+001  4.7316e+000 29200 103781,103467,103441
 1.1000e+000 103663 -7.6014e+001 -2.0275e+001 -1.4592e+001 29200 103853,103637,103493
 1.1000e+000 103686 -1.4619e+002 -9.7838e+001 -4.4056e+001 29200 103493,103637,103519
 1.1000e+000 103735 -1.1441e+002 -3.7524e+000 -1.8130e+001 29200 103519,103637,103709
 1.1000e+000 103758 -1.0388e+002  1.2731e+001 -1.3613e+001 29200 103519,103709,103389
 1.1000e+000 103807 -1.1359e+002 -3.0823e+001  6.2734e-001 29200 103415,103637,103781
 1.1000e+000 103830 -1.3318e+002 -3.3974e+001 -6.5898e+000 29200 103415,103781,103441
 1.1000e+000 103879 -8.1943e+001 -3.5096e+001  2.8012e+000 29200 103467,103637,103853
 1.1000e+000 104545 -2.6625e+002 -2.0769e+001  2.9055e+001 28860 104274,104352,104326
 1.1000e+000 104522 -2.1672e+002 -6.5673e+001 -5.7339e+000 28860 104248,104352,104274
 1.1000e+000 104499 -1.6593e+002 -3.9435e+001 -1.5971e+001 28860 104248,104404,104352
 1.1000e+000 104476 -2.3791e+002 -9.2513e+001 -3.9625e+001 28860 104222,104404,104248
 1.1000e+000 104453 -1.5450e+002 -5.4242e+001 -2.7802e+001 28860 104352,104404,104378
 1.1000e+000 104430 -4.6402e+002 -7.0929e+001  1.8104e+001 28860 104274,104326,104300
 1.1000e+000 104744 -9.9700e+001 -3.7894e+000  1.8263e+001 28456 104839,104767,104646
 1.1000e+000 104721 -6.5039e+001 -7.3815e+000  1.6663e+001 28456 104767,104594,104568
 1.1000e+000 104698 -9.9076e+001 -2.5349e+001  3.5234e+000 28456 104839,104646,104620
 1.1000e+000 104793 -8.9187e+001 -1.2466e+001  3.0512e+001 28456 104672,104646,104767
 1.1000e+000 104816 -6.7776e+001 -8.6468e+000  1.7011e+001 28456 104911,104767,104568
 1.1000e+000 104865 -9.5710e+001 -1.5623e+001  8.7044e+000 28456 104594,104767,104839
 1.1000e+000 104888 -1.0685e+002 -7.0075e+001  2.7564e+000 28456 105041,104839,104620
 1.1000e+000 104937 -1.0167e+002 -6.8104e+001  3.0801e+001 28456 104672,104767,104911
 1.1000e+000 105067 -8.9619e+001 -1.2673e+001  7.5025e+000 28456 104594,104839,105041
 1.1000e+000 105573 -2.0668e+002 -3.3147e+001  2.1217e+001 28094 105812,105596,105328
 1.1000e+000 105550 -2.0728e+002 -4.3688e+001  1.2487e+001 28094 105596,105276,105250
 1.1000e+000 105527 -1.7134e+002 -2.8039e+001  3.8413e+001 28094 105740,105668,105432
 1.1000e+000 105504 -1.6928e+002 -2.2216e+001  3.8376e+001 28094 105740,105432,105380
 1.1000e+000 105481 -2.0963e+002 -3.1159e+001  1.9611e+001 28094 105812,105328,105302
 1.1000e+000 105458 -1.0443e+002 -4.9200e+001  3.6009e+001 28094 105380,105432,105406
 1.1000e+000 105622 -2.6712e+002 -7.0416e+001  4.9109e+001 28094 105354,105328,105596
 1.1000e+000 105645 -1.8352e+002 -3.2292e+001  3.0779e+001 28094 105668,105354,105596
 1.1000e+000 105694 -1.8357e+002 -2.9926e+001  2.3144e+001 28094 105250,105432,105668
 1.1000e+000 105717 -2.1323e+002 -3.1947e+001  1.5929e+001 28094 105250,105668,105596
 1.1000e+000 105766 -1.7019e+002 -3.3207e+001  2.7581e+001 28094 105354,105668,105740
 1.1000e+000 105789 -1.6606e+002 -2.3129e+001  2.7462e+001 28094 105354,105740,105380
 1.1000e+000 105838 -2.0891e+002 -3.8113e+001  2.0066e+001 28094 105276,105596,105812
 1.1000e+000 105861 -2.1416e+002 -3.6451e+001  1.4915e+001 28094 105276,105812,105302
 1.1000e+000 106367 -1.3884e+002 -2.5018e+001 -1.2778e+001 27390 106070,106122,106096
 1.1000e+000 106344 -1.5846e+002 -3.5916e+001 -5.2997e+000 27390 106070,106226,106122
 1.1000e+000 106321 -1.9214e+002 -6.5902e+000 -7.7085e+000 27390 106174,106226,106200
 1.1000e+000 106298 -1.6554e+002 -4.1813e+001 -1.1456e+001 27390 106122,106226,106174
 1.1000e+000 106275 -2.1291e+002 -6.6783e+001 -5.7878e+001 27390 106122,106174,106148
 1.1000e+000 106252 -1.3573e+002 -2.4698e+001  5.4151e-001 27390 106044,106226,106070
 1.1000e+000 106615 -2.2745e+002 -5.1903e+001 -2.2170e+000 26978 106638,106494,106416
 1.1000e+000 106592 -2.3726e+002 -5.3879e+001 -4.2740e+000 26978 106638,106416,106390
 1.1000e+000 106569 -2.2972e+002 -6.0062e+001 -2.0858e+001 26978 106416,106494,106442
 1.1000e+000 106546 -2.5178e+002 -6.5787e+001 -2.1032e+001 26978 106442,106494,106468
 1.1000e+000 106664 -2.0457e+002 -5.4955e+001 -1.3426e+000 26978 106520,106494,106638
 1.1000e+000 106687 -2.2487e+002 -6.4265e+001 -4.8765e+000 26978 106520,106638,106390
 1.1000e+000 106837 -3.8199e+002 -1.7838e+002 -1.9400e+001 26524 106710,106762,106736
 1.1000e+000 106814 -3.8891e+002 -1.8960e+002 -1.6386e+001 26524 106710,106788,106762
 1.1000e+000 107426 -1.0665e+002 -6.5693e+000 -3.3062e+001 26120 107129,107207,107155
 1.1000e+000 107403 -1.4458e+002 -4.5830e+001 -1.6596e+001 26120 107129,107285,107207
 1.1000e+000 107380 -1.3886e+002 -1.6265e+001 -2.5786e+001 26120 107207,107285,107259
 1.1000e+000 107357 -8.7405e+001 -1.8404e+001  3.2615e+000 26120 107155,107207,107181
 1.1000e+000 107334 -2.0921e+002 -7.0371e+001 -1.4169e+001 26120 107103,107285,107129
 1.1000e+000 107311 -1.2184e+002  6.3683e+000 -1.7132e+001 26120 107207,107259,107233
 1.1000e+000 107755 -9.6749e+001 -3.4413e+000 -1.0398e+001 25758 107556,107634,107608
 1.1000e+000 107732 -1.8256e+002 -4.5772e+001  1.4599e+001 25758 107556,107660,107634
 1.1000e+000 107709 -6.7024e+001 -2.4694e+001  2.0709e+001 25758 107556,107608,107582
 1.1000e+000 107686 -1.5446e+002  6.1476e+001  4.9279e+001 25758 107530,107660,107556
 1.1000e+000 108438 -8.3783e+001 -1.8743e+001  1.0343e+001 25468 108121,108199,108173
 1.1000e+000 108415 -1.0082e+002 -6.5480e+001  3.0336e+000 25468 108095,108199,108121
 1.1000e+000 108392 -1.1137e+002 -4.8224e+001 -3.5776e-001 25468 108095,108251,108199
 1.1000e+000 108369 -1.2820e+002 -6.4208e+001  9.3761e+000 25468 108069,108251,108095
 1.1000e+000 108346 -8.5999e+001 -4.0469e+001  1.5743e+001 25468 108199,108251,108225
 1.1000e+000 108323 -1.5965e+002 -3.7046e+001 -1.4386e+001 25468 108017,108251,108069
 1.1000e+000 108300 -7.5868e+001 -1.9518e+001  1.5549e+001 25468 108121,108173,108147
 1.1000e+000 108277 -1.6536e+002 -4.9157e+001 -1.2621e+001 25468 108017,108069,108043
 1.1000e+000 108588 -6.6748e+001 -2.0780e+001 -1.4669e+001 25064 108611,108513,108487
 1.1000e+000 108565 -3.1295e+000  1.4537e+001 -6.9302e-001 25064 108683,108611,108487
 1.1000e+000 108637 -8.6942e+001  7.0506e+000  1.6850e+000 25064 108539,108513,108611
 1.1000e+000 108660 -8.5358e+001  1.4496e+001  6.9793e+000 25064 108539,108611,108461
 1.1000e+000 108709 -9.5372e+001 -1.1401e+001  9.7163e+000 25064 108461,108611,108683
 1.1000e+000 109345 -1.3604e+002 -9.6991e+000  1.6361e+001 24410 108999,109155,109103
 1.1000e+000 109322 -2.9382e+002 -5.8098e+001  4.0646e+001 24410 108973,109155,108999
 1.1000e+000 109299 -1.3649e+002 -4.7663e+001  1.3915e+001 24410 109103,109155,109129
 1.1000e+000 109276 -1.5187e+002  1.9599e+001  5.6941e+000 24410 108973,109181,109155
 1.1000e+000 109253 -2.5527e+002 -6.9944e+001  5.4934e+001 24410 109025,109103,109077
 1.1000e+000 109230 -2.0225e+002 -5.9488e+001  3.8498e+001 24410 108999,109103,109025
 1.1000e+000 109207 -3.1276e+002  1.2721e+001  3.5551e+001 24410 109025,109077,109051
 1.1000e+000 109723 -1.8472e+002  2.7549e+001  2.8162e+000 23856 109475,109579,109553
 1.1000e+000 109700 -1.8449e+002 -2.4600e+001 -2.0608e+000 23856 109475,109605,109579
 1.1000e+000 109677 -2.1051e+002 -5.4167e+000 -6.3593e+001 23856 109475,109553,109527
 1.1000e+000 109654 -9.9217e+001  1.2029e+001  1.7059e+001 23856 109449,109605,109475
 1.1000e+000 109631 -1.0813e+002  4.3319e+001 -4.2479e+001 23856 109475,109527,109501
 1.1000e+000 110101 -1.4568e+002 -2.6151e+001  1.2783e+001 23566 109853,109931,109879
 1.1000e+000 110078 -1.3586e+002 -1.9990e+001  1.5819e+001 23566 109827,109931,109853
 1.1000e+000 110055 -8.4954e+001  2.9870e+001 -4.3523e+000 23566 109827,109983,109931
 1.1000e+000 110032 -1.4467e+002 -4.6262e+001 -4.4838e+000 23566 109879,109931,109905
 1.1000e+000 110009 -7.8275e+001  1.2651e+001  2.4950e+001 23566 109931,109983,109957
 1.1000e+000 110735 -1.4308e+002 -2.6442e+001  3.0849e+000 23162 110415,110571,110519
 1.1000e+000 110712 -1.4121e+002 -3.3061e+001  3.3253e+000 23162 110389,110571,110415
 1.1000e+000 110689 -2.2946e+002 -6.1499e+001  8.7713e+000 23162 110415,110519,110493
 1.1000e+000 110666 -1.0995e+002 -3.2493e+001 -1.5854e+001 23162 110363,110571,110389
 1.1000e+000 110643 -1.9550e+002 -2.2007e+001  3.7588e+001 23162 110441,110493,110467
 1.1000e+000 110620 -2.0718e+002 -5.0823e+001  3.7615e+000 23162 110415,110493,110441
 1.1000e+000 110597 -1.5118e+002 -9.4822e+000  8.9345e+000 23162 110519,110571,110545
 1.1000e+000 111211 -1.6820e+002  1.4081e-001 -2.7862e+001 22708 111378,111306,111021
 1.1000e+000 111188 -1.7943e+002  2.2369e+000 -1.9063e+001 22708 111234,110969,110917
 1.1000e+000 111165 -1.4776e+002 -8.7077e+000 -1.5953e+001 22708 111450,111234,110917
 1.1000e+000 111142 -1.6084e+002  9.9763e+000 -1.5976e+001 22708 111378,111021,110995
 1.1000e+000 111119 -1.4782e+002 -2.7358e+001  2.8785e+000 22708 111450,110917,110865
 1.1000e+000 111096 -4.0095e+002 -3.4242e+001 -1.7956e+001 22708 110917,110969,110943
 1.1000e+000 111073 -1.4423e+002 -4.0213e+001 -4.3762e+000 22708 110865,110917,110891
 1.1000e+000 111260 -1.8052e+002  1.6036e+001 -1.3144e+001 22708 111306,110969,111234
 1.1000e+000 111283 -1.7960e+002 -2.0099e+001  1.5891e+001 22708 111047,111234,110839
 1.1000e+000 111332 -2.9364e+002  1.1025e+002 -1.2445e+002 22708 111047,111021,111306
 1.1000e+000 111355 -2.3329e+002 -9.9926e+000  9.8666e+000 22708 111047,111306,111234
 1.1000e+000 111404 -1.8743e+002  1.3794e+001 -2.6439e+001 22708 110969,111306,111378
 1.1000e+000 111427 -1.8315e+002  8.4517e+000 -2.2423e+001 22708 110969,111378,110995
 1.1000e+000 111476 -1.6478e+002 -3.5720e+001  5.8900e+000 22708 110839,111234,111450
 1.1000e+000 111499 -1.7511e+002 -6.5384e+001  2.6301e+001 22708 110839,111450,110865
 1.1000e+000 111600 -2.1469e+002 -4.7528e+001  1.6518e+001 22460 111522,111574,111548
 1.1000e+000 112059 -1.4223e+002 -1.2437e+001  8.3126e+000 22056 111811,111889,111863
 1.1000e+000 112036 -2.0902e+002 -4.2375e+001  2.3579e+001 22056 111811,111915,111889
 1.1000e+000 112013 -1.5339e+002 -7.7015e+001 -4.4150e+001 22056 111785,111915,111811
 1.1000e+000 111990 -8.7362e+001 -5.5163e+001 -4.5061e+001 22056 111785,111941,111915
 1.1000e+000 111967 -6.5687e+001  2.5639e+001 -3.4607e+001 22056 111811,111863,111837
 1.1000e+000 112486 -2.0671e+002 -1.5446e+001  8.1616e-001 21594 112509,112267,112215
 1.1000e+000 112463 -2.0534e+002 -1.2281e+001 -1.4664e+001 21594 112509,112215,112163
 1.1000e+000 112440 -1.9349e+002 -6.0376e+001  2.6062e+001 21594 112581,112293,112267
 1.1000e+000 112417 -1.5472e+002 -6.3839e+001 -9.1400e+000 21594 112215,112267,112241
 1.1000e+000 112394 -2.4491e+002 -9.1920e+000 -3.4283e+001 21594 112163,112345,112319
 1.1000e+000 112371 -1.9170e+002  2.4808e+001 -1.3301e+001 21594 112163,112215,112189
 1.1000e+000 112535 -2.1723e+002 -3.7853e+001  4.3459e+000 21594 112581,112267,112509
 1.1000e+000 112558 -2.0391e+002 -3.0902e+001 -1.7803e+001 21594 112319,112509,112163
 1.1000e+000 112607 -1.5441e+002 -3.9052e+001  1.7073e+001 21594 112319,112293,112581
 1.1000e+000 112630 -1.7647e+002 -9.8358e+000 -7.8508e+000 21594 112319,112581,112509
 1.1000e+000 112900 -1.6501e+002  2.8392e+001 -1.7575e+000 20974 112675,112779,112701
 1.1000e+000 112877 -1.6723e+002  6.5772e+001 -2.2272e+001 20974 112675,112805,112779
 1.1000e+000 112854 -1.9254e+002 -4.8778e+001 -2.3922e+001 20974 112701,112779,112753
 1.1000e+000 112831 -2.1521e+002 -7.9873e+001 -7.2409e+000 20974 112701,112753,112727
 1.1000e+000 113359 -9.9071e+001  5.2092e+001  5.9688e+001 20520 113454,113137,113111
 1.1000e+000 113336 -1.3988e+002  1.1603e+001  3.9531e+001 20520 113454,113111,113085
 1.1000e+000 113313 -9.8879e+001 -2.3999e+001  4.4429e+001 20520 113382,113163,113137
 1.1000e+000 113290 -1.1720e+002 -2.2343e+001  4.5547e+001 20520 113526,113382,113137
 1.1000e+000 113267 -8.5319e+001  9.7896e+000  1.3874e+001 20520 113189,113241,113215
 1.1000e+000 113408 -9.5930e+001 -1.1669e+001  3.1505e+001 20520 113189,113163,113382
 1.1000e+000 113431 -1.1290e+002 -2.1398e+001  2.5949e+001 20520 113189,113382,113241
 1.1000e+000 113480 -1.2592e+002 -3.3845e+000  3.9460e+001 20520 113526,113137,113454
 1.1000e+000 113503 -1.2112e+002  7.5673e+000  2.2707e+001 20520 113241,113454,113085
 1.1000e+000 113552 -9.9515e+001  5.5764e+000  3.4787e+001 20520 113241,113382,113526
 1.1000e+000 113575 -1.0888e+002  2.0153e+001  2.7901e+001 20520 113241,113526,113454
 1.1000e+000 113904 -2.5494e+001 -1.7368e+001 -3.8546e+001 19858 113705,113783,113757
 1.1000e+000 113881 -7.6148e+001 -2.5442e+001 -1.9789e+001 19858 113705,113809,113783
 1.1000e+000 113858 -5.6417e+001 -1.4375e+001 -2.9107e+001 19858 113679,113809,113705
 1.1000e+000 113835 -2.5603e+001  1.1273e+001  7.1102e+000 19858 113705,113757,113731
 1.1000e+000 114152 -1.9143e+002 -7.6781e+001 -3.9201e+001 19454 114175,114005,113979
 1.1000e+000 114129 -1.9892e+002 -7.6772e+001 -4.1817e+001 19454 114175,113979,114057
 1.1000e+000 114106 -1.9197e+002 -1.7289e+001  3.2765e+001 19454 113927,114057,113979
 1.1000e+000 114083 -1.5615e+002 -2.3598e+001 -2.0299e+000 19454 113927,113979,113953
 1.1000e+000 114201 -2.5045e+001 -5.5216e+000 -9.9121e+000 19454 114031,114005,114175
 1.1000e+000 114224 -1.9368e+002 -8.7576e+001 -4.0401e+001 19454 114031,114175,114057
 1.1000e+000 114472 -1.1940e+002 -3.6977e+001 -1.4183e+001 19000 114495,114273,114247
 1.1000e+000 114449 -1.2734e+002 -2.9203e+001 -2.0166e+001 19000 114495,114247,114325
 1.1000e+000 114426 -1.5480e+002 -4.2329e+001  1.4034e+000 19000 114247,114377,114325
 1.1000e+000 114403 -1.4573e+002 -2.2147e+001  3.3355e+000 19000 114325,114377,114351
 1.1000e+000 114521 -9.9078e+001 -2.8148e+001 -1.5184e+001 19000 114299,114273,114495
 1.1000e+000 114544 -1.2279e+002 -2.8561e+001 -2.0055e+001 19000 114299,114495,114325
 1.1000e+000 114948 -2.3871e+002 -4.8338e+001 -1.7647e+001 18560 114674,114726,114700
 1.1000e+000 114925 -2.3922e+002 -7.8257e+001 -1.6540e+001 18560 114674,114830,114726
 1.1000e+000 114902 -2.5411e+002 -1.1635e+002 -3.2326e+001 18560 114726,114830,114804
 1.1000e+000 114879 -1.7868e+002 -6.5174e+001 -4.5525e+000 18560 114726,114804,114752
 1.1000e+000 114856 -2.0297e+002 -8.6975e+001  5.0548e+000 18560 114752,114804,114778
 1.1000e+000 115098 -1.8312e+002 -3.1984e+001 -1.6688e+001 18156 114971,115023,114997
 1.1000e+000 115075 -2.0068e+002 -1.8453e+001 -9.7129e+000 18156 114971,115049,115023
 1.1000e+000 115248 -2.0578e+002  9.8803e+000  1.3190e+001 17602 115147,115199,115173
 1.1000e+000 115225 -1.0845e+002 -2.6051e+001 -1.0372e+000 17602 115121,115199,115147
 1.1000e+000 115652 -1.6135e+002 -8.0332e+001 -5.4177e+000 17354 115430,115534,115508
 1.1000e+000 115629 -1.5551e+002 -4.2795e+001 -1.1707e+001 17354 115404,115534,115430
 1.1000e+000 115606 -1.2736e+002  9.4144e+000  3.3092e+000 17354 115378,115534,115404
 1.1000e+000 115583 -2.6869e+002 -5.0371e+001  2.7186e+001 17354 115456,115508,115482
 1.1000e+000 115560 -1.4462e+002 -4.5581e+001  2.4617e-001 17354 115430,115508,115456
 1.1000e+000 115873 -1.2874e+002 -3.3213e+001  2.1937e+001 16950 115749,115801,115775
 1.1000e+000 115850 -1.7418e+002 -3.1850e+001  2.1957e+001 16950 115697,115801,115749
 1.1000e+000 115827 -1.8397e+002 -8.1667e+001  2.6814e+001 16950 115697,115749,115723
 1.1000e+000 116023 -2.6619e+002 -2.1547e+001  1.3386e+001 16496 115922,115974,115948
 1.1000e+000 116000 -1.2971e+002 -4.9032e+001  8.9476e+000 16496 115896,115974,115922
 1.1000e+000 116126 -2.4103e+002  1.0913e+000 -1.9519e+001 16298 116048,116100,116074
 1.1000e+000 116278 -4.1113e+002 -7.3563e-001 -2.8501e+000 15892 116151,116203,116177
 1.1000e+000 116255 -3.8906e+002 -2.2821e+001 -4.1953e+001 15892 116151,116229,116203
 1.1000e+000 116430 -2.0416e+002 -1.5922e+002 -1.2185e+000 15545 116303,116355,116329
 1.1000e+000 116407 -1.6267e+002 -7.5372e+001  3.8145e+001 15545 116303,116381,116355
 1.1000e+000 116785 -5.0044e+001  1.9056e+001 -9.4219e+000 421 116612,116690,116664
 1.1000e+000 116762 -6.1977e+001 -7.4259e+000  1.8449e+001 421 116560,116690,116612
 1.1000e+000 116739 -4.7555e+001  7.1885e+000  1.0545e+000 421 116560,116612,116586
 1.1000e+000 116716  4.4127e+000 -3.9434e+000  4.5122e+000 421 116612,116664,116638
 1.2000e+000 68048 -2.1748e+002 -4.3518e+001 -5.8948e+000 67642 67898,67950,67924
 1.2000e+000 68025 -2.3639e+002 -6.4551e+001  4.6454e+000 67642 67898,67976,67950
 1.2000e+000 68002 -1.6873e+002 -3.3800e+001 -2.6699e+000 67642 67872,67976,67898
 1.2000e+000 68367 -1.0670e+002 -1.7406e+000  1.0125e+001 67444 68119,68223,68197
 1.2000e+000 68344 -1.0874e+002 -3.6764e+001  5.9534e+000 67444 68119,68249,68223
 1.2000e+000 68321 -2.6702e+001 -4.7509e+000  7.2316e+000 67444 68093,68249,68119
 1.2000e+000 68298 -1.2568e+002 -3.7996e+001 -7.2026e+000 67444 68119,68197,68171
 1.2000e+000 68275 -1.0150e+002 -1.1078e+001  6.1845e+000 67444 68119,68171,68145
 1.2000e+000 68468 -1.4277e+002 -1.0127e+000 -1.0275e+000 67268 68390,68442,68416
 1.2000e+000 68765 -1.9168e+002  2.9150e+001  1.0017e+001 66956 68788,68517,68491
 1.2000e+000 68742 -1.8536e+002 -1.8013e+001  1.1269e+000 66956 68788,68491,68621
 1.2000e+000 68719 -2.1059e+002 -4.4708e+001 -5.2507e+001 66956 68543,68621,68569
 1.2000e+000 68696 -1.7897e+002 -3.8886e+000 -3.8831e-001 66956 68491,68647,68621
 1.2000e+000 68673 -3.1565e+002 -9.4408e+001 -8.4963e+001 66956 68569,68621,68595
 1.2000e+000 68814 -1.8200e+002 -7.0661e+000  2.3491e+001 66956 68543,68517,68788
 1.2000e+000 68837 -1.7433e+002 -5.3010e+001  1.0446e+001 66956 68543,68788,68621
 1.2000e+000 69107 -1.5022e+002 -1.4682e+002 -1.1350e+001 66758 68882,68986,68908
 1.2000e+000 69084 -9.0564e+001 -1.0707e+002  1.3850e+001 66758 68882,69012,68986
 1.2000e+000 69061 -3.3604e+002 -6.3583e+001 -3.0235e+001 66758 68908,68960,68934
 1.2000e+000 69038 -1.2468e+002 -7.2606e+001 -2.2006e+001 66758 68908,68986,68960
 1.2000e+000 69308 -1.3194e+002  6.6838e+000 -3.2852e-001 66560 69331,69184,69158
 1.2000e+000 69285 -1.4949e+002  4.7937e+000 -3.3461e+000 66560 69331,69158,69132
 1.2000e+000 69262 -1.2730e+002 -2.8172e+001 -2.5848e+000 66560 69184,69236,69210
 1.2000e+000 69357 -1.1966e+002  2.2860e+000  1.1380e+000 66560 69236,69184,69331
 1.2000e+000 69380 -1.3021e+002  4.8074e+000 -3.6477e+000 66560 69236,69331,69132
 1.2000e+000 69554 -3.9492e+001 -6.2797e+000  9.7520e+000 66270 69427,69479,69453
 1.2000e+000 69531 -1.9293e+001  4.0952e+001  1.9051e+001 66270 69427,69505,69479
 1.2000e+000 69804 -8.9828e+001 -1.0618e+001  3.1188e+001 66066 69579,69683,69657
 1.2000e+000 69781 -1.2221e+002 -2.0509e+001 -6.1792e-001 66066 69579,69709,69683
 1.2000e+000 69758 -1.4858e+001 -5.3059e+000 -7.6896e+000 66066 69579,69657,69631
 1.2000e+000 69735 -1.1589e+001 -1.2749e-001 -2.5898e-001 66066 69579,69631,69605
 1.2000e+000 70257 -8.3532e+001  3.1992e+001 -4.9922e+001 65776 69960,70090,69986
 1.2000e+000 70234 -8.3709e+001 -1.8617e+000 -2.8267e+001 65776 69934,70090,69960
 1.2000e+000 70211 -4.7072e+001  2.8376e+001 -9.3343e+000 65776 69934,70116,70090
 1.2000e+000 70188 -8.9797e+001  6.6503e+001  0.0000e+000 65776 70038,70090,70064
 1.2000e+000 70165 -8.9975e+001  9.4613e+001 -3.1174e+001 65776 69986,70090,70038
 1.2000e+000 70142 -1.1302e+002  6.7080e+000 -5.6039e+001 65776 69986,70038,70012
 1.2000e+000 70456 -6.7166e+001  8.8865e+000  2.1021e+001 65372 70479,70306,70280
 1.2000e+000 70433 -4.7062e+001  3.5887e+001  1.1025e+001 65372 70479,70280,70384
 1.2000e+000 70410 -4.6014e+001  1.6920e+001 -3.6346e-001 65372 70551,70332,70306
 1.2000e+000 70505 -4.6609e+001  1.0328e+001  4.4180e+000 65372 70551,70306,70479
 1.2000e+000 70528 -3.9566e+001  2.2638e+001  1.6792e+000 65372 70358,70479,70384
 1.2000e+000 70577 -4.9114e+001  2.5978e+001  1.0816e-001 65372 70358,70332,70551
 1.2000e+000 70600 -4.6496e+001  2.2567e+001  4.1216e+000 65372 70358,70551,70479
 1.2000e+000 70821 -1.0545e+002 -6.0731e+001 -5.0383e+000 65174 70645,70723,70671
 1.2000e+000 70798 -1.4797e+002 -6.9769e+001  1.3128e+001 65174 70645,70749,70723
 1.2000e+000 70775 -8.9918e+001 -3.7284e+001 -1.2441e+001 65174 70671,70723,70697
 1.2000e+000 71071 -1.3626e+002 -2.1664e+001 -1.7742e+001 64770 71094,70898,70872
 1.2000e+000 71048 -1.1114e+002 -1.5627e+001 -6.0807e+000 64770 71166,71094,70872
 1.2000e+000 71025 -1.0642e+002 -2.2049e+001 -1.1713e+001 64770 71166,70872,70846
 1.2000e+000 71002 -1.7196e+002 -1.8955e+001 -1.2502e+001 64770 70898,70950,70924
 1.2000e+000 71120 -1.1940e+002  4.7460e-001 -9.3229e+000 64770 70950,70898,71094
 1.2000e+000 71143 -1.0764e+002 -1.5845e+001  2.3083e+000 64770 70950,71094,70976
 1.2000e+000 71192 -1.1920e+002 -2.8618e+001 -2.6185e+000 64770 70976,71094,71166
 1.2000e+000 71215 -1.1227e+002 -3.0130e+001 -9.1329e+000 64770 70976,71166,70846
 1.2000e+000 71514 -1.5126e+002 -2.4609e+001 -1.3205e+001 64572 71681,71537,71318
 1.2000e+000 71491 -1.8268e+002  2.2151e+001 -8.3537e+000 64572 71537,71266,71240
 1.2000e+000 71468 -1.6552e+002  1.4780e+000 -4.4207e+001 64572 71609,71396,71370
 1.2000e+000 71445 -1.3296e+002 -6.1609e+001  1.5666e+000 64572 71681,71318,71292
 1.2000e+000 71422 -9.1699e+001 -3.7617e+001 -2.0724e+001 64572 71753,71344,71318
 1.2000e+000 71563 -9.8161e+001  3.3114e+000 -5.1031e+001 64572 71753,71318,71537
 1.2000e+000 71586 -1.5829e+002  2.3104e+000 -4.2672e+001 64572 71609,71370,71537
 1.2000e+000 71635 -1.7384e+002 -5.1771e+000 -2.2989e+001 64572 71240,71396,71609
 1.2000e+000 71658 -1.4991e+002  2.0702e+000 -2.4779e+001 64572 71240,71609,71537
 1.2000e+000 71707 -1.4354e+002  3.7494e+001 -8.8424e+000 64572 71266,71537,71681
 1.2000e+000 71730 -1.2193e+002  9.0582e+000  2.0187e+001 64572 71266,71681,71292
 1.2000e+000 71779 -3.1973e+001  1.6497e+000 -4.4186e+001 64572 71370,71344,71753
 1.2000e+000 71802 -6.3456e+001  1.8472e+001 -5.7095e+001 64572 71370,71753,71537
 1.2000e+000 72052 -8.2696e+001 -3.1889e+001 -1.3271e+001 64374 72075,71879,71827
 1.2000e+000 72029 -9.5106e+001 -3.1434e+001 -2.2579e+001 64374 72147,72075,71827
 1.2000e+000 72006 -1.0018e+002 -1.6926e+001 -7.9095e+000 64374 72147,71827,71957
 1.2000e+000 71983 -7.6442e+001 -1.2623e+001 -1.4672e+001 64374 71827,71879,71853
 1.2000e+000 72101 -8.6264e+001 -4.1145e+001 -1.3328e+001 64374 71905,71879,72075
 1.2000e+000 72124 -1.0576e+002 -2.9350e+001 -3.1035e+001 64374 71905,72075,71931
 1.2000e+000 72173 -8.7034e+001  2.4273e+000 -2.2378e+001 64374 71931,72075,72147
 1.2000e+000 72196 -9.6362e+001  1.4257e+001 -1.1917e+001 64374 71931,72147,71957
 1.2000e+000 72649 -1.6075e+002 -4.4897e+001  1.2817e+001 63948 72352,72508,72482
 1.2000e+000 72626 -1.7378e+002 -7.7447e+001 -2.2334e+001 63948 72326,72508,72352
 1.2000e+000 72603 -1.4181e+002 -4.7762e+001 -6.1146e+000 63948 72672,72430,72378
 1.2000e+000 72580 -1.2154e+002 -1.8812e+001 -1.6994e+001 63948 72672,72378,72352
 1.2000e+000 72557 -1.3829e+002 -7.3473e+001 -2.3195e+000 63948 72744,72456,72430
 1.2000e+000 72534 -1.4182e+002 -1.7809e+001  2.0053e+001 63948 72378,72430,72404
 1.2000e+000 72698 -1.3445e+002 -6.7691e+001  6.3990e-001 63948 72744,72430,72672
 1.2000e+000 72721 -1.2851e+002 -4.2142e+001  4.7586e+000 63948 72482,72672,72352
 1.2000e+000 72770 -1.5308e+002 -6.1995e+001 -5.6805e-001 63948 72482,72456,72744
 1.2000e+000 72793 -1.4131e+002 -4.7626e+001  4.8127e+000 63948 72482,72744,72672
 1.2000e+000 72894 -1.5554e+002 -1.4018e+001  1.3002e+001 63494 72816,72868,72842
 1.2000e+000 73093 -9.4211e+001  1.6518e+001 -8.8757e+000 63132 72943,72995,72969
 1.2000e+000 73070 -1.9283e+002 -2.2014e+001 -3.1842e+000 63132 72943,73021,72995
 1.2000e+000 73047 -1.9526e+002 -1.8283e+001 -6.2098e+000 63132 72917,73021,72943
 1.2000e+000 73294 -9.9365e+001  9.7282e+000  1.0387e+001 62792 73317,73144,73118
 1.2000e+000 73271 -9.0349e+001  2.3103e+001 -4.2928e+000 62792 73317,73118,73222
 1.2000e+000 73248 -2.0038e+001 -2.3773e+000 -2.8936e+000 62792 73144,73196,73170
 1.2000e+000 73343 -8.0395e+001  3.1235e-001 -5.7722e+000 62792 73196,73144,73317
 1.2000e+000 73366 -6.8823e+001  2.1773e+001 -2.1582e+001 62792 73196,73317,73222
 1.2000e+000 73616 -1.4986e+002 -2.2295e+001  1.5021e+001 62388 73639,73417,73391
 1.2000e+000 73593 -1.4226e+002 -5.6560e+000  7.5924e+000 62388 73711,73639,73391
 1.2000e+000 73570 -1.4333e+002  1.3595e+001  7.2313e+000 62388 73711,73391,73521
 1.2000e+000 73547 -1.3074e+002 -5.3149e+000 -2.5619e+001 62388 73469,73521,73495
 1.2000e+000 73665 -1.2236e+002 -1.0557e+001  1.4994e+001 62388 73443,73417,73639
 1.2000e+000 73688 -1.4066e+002 -2.3239e+001  6.6282e+000 62388 73443,73639,73469
 1.2000e+000 73737 -1.4423e+002 -1.9488e+001  3.4547e+000 62388 73469,73639,73711
 1.2000e+000 73760 -1.5006e+002 -8.7013e+000  5.4377e+000 62388 73469,73711,73521
 1.2000e+000 74010 -1.7646e+002 -4.5700e+001 -4.0553e+001 61848 74033,73837,73811
 1.2000e+000 73987 -8.1059e+001 -4.1172e+001  6.5761e+000 61848 74033,73811,73785
 1.2000e+000 73964 -1.3776e+002  6.0205e+000  1.9609e+001 61848 73837,73915,73889
 1.2000e+000 73941 -2.6729e+002 -2.1829e+001 -4.3046e+001 61848 73837,73889,73863
 1.2000e+000 74059 -1.8642e+002 -9.3720e+000 -1.7615e+001 61848 73915,73837,74033
 1.2000e+000 74082 -1.7781e+002  1.6651e+001 -1.6951e+000 61848 73915,74033,73785
 1.2000e+000 74283 -1.6129e+002 -2.1479e+000 -2.4022e+001 61444 74306,74133,74107
 1.2000e+000 74260 -1.7771e+002  3.7473e+000  3.0607e+001 61444 74306,74107,74211
 1.2000e+000 74237 -1.9031e+002 -6.0961e+001  4.2340e+001 61444 74378,74185,74159
 1.2000e+000 74332 -2.2343e+002 -2.8934e+001 -2.7304e+001 61444 74159,74133,74306
 1.2000e+000 74355 -2.1271e+002 -2.3137e+001  3.2431e+001 61444 74378,74159,74306
 1.2000e+000 74404 -1.8406e+002 -2.1031e+001  2.3478e+001 61444 74211,74185,74378
 1.2000e+000 74427 -1.9254e+002 -7.2169e+000  2.4821e+001 61444 74211,74378,74306
 1.2000e+000 74628 -1.1209e+002 -4.5583e+000  3.0340e+001 60990 74478,74530,74504
 1.2000e+000 74605 -2.9491e+001  1.4301e+001  2.4685e+001 60990 74452,74530,74478
 1.2000e+000 74582 -1.3123e+002 -6.4043e+000  3.1655e+001 60990 74452,74556,74530
 1.2000e+000 75089 -2.1154e+001  5.3646e+000 -8.2967e+000 60486 75112,74945,74919
 1.2000e+000 75066 -4.2399e+001  2.1274e+001  1.8276e+001 60486 75112,74919,74867
 1.2000e+000 75043 -6.5370e+001 -4.2043e+000  1.6171e+001 60486 74841,74971,74867
 1.2000e+000 75020 -1.5758e+002 -7.1144e+000 -4.4321e+000 60486 74867,74919,74893
 1.2000e+000 74997 -2.4361e+001  2.1475e+000  8.4747e+000 60486 74815,74971,74841
 1.2000e+000 75138 -5.3225e+001 -9.6404e+000 -1.2487e+001 60486 74971,74945,75112
 1.2000e+000 75161 -6.6043e+001  8.3269e+000  1.3117e+001 60486 74971,75112,74867
 1.2000e+000 75409 -1.1148e+002 -2.8970e+001 -1.7893e+001 59932 75576,75432,75288
 1.2000e+000 75386 -1.4618e+002 -3.3769e+001 -3.4358e+001 59932 75504,75314,75288
 1.2000e+000 75363 -8.6347e+001  5.0522e-001  1.0426e+001 59932 75432,75236,75210
 1.2000e+000 75340 -6.3432e+001 -3.3453e+000 -8.1885e+000 59932 75576,75288,75262
 1.2000e+000 75458 -1.4463e+002 -3.6328e+001 -3.3607e+001 59932 75504,75288,75432
 1.2000e+000 75481 -1.4639e+002 -2.7068e+001  3.6855e+000 59932 75184,75432,75210
 1.2000e+000 75530 -1.7931e+002 -4.4707e+001 -1.0855e+001 59932 75184,75314,75504
 1.2000e+000 75553 -1.3752e+002 -3.4369e+001 -2.8929e+001 59932 75184,75504,75432
 1.2000e+000 75602 -1.3948e+002 -4.4206e+000 -1.3690e+001 59932 75236,75432,75576
 1.2000e+000 75625 -1.3560e+002 -6.6961e+000 -1.5716e+001 59932 75236,75576,75262
 1.2000e+000 75873 -5.0885e+001 -2.4771e+001  3.4780e+001 59478 75674,75752,75700
 1.2000e+000 75850 -2.4591e+001 -1.4371e+001  1.2990e+001 59478 75648,75752,75674
 1.2000e+000 75827 -5.2688e+001 -2.4811e+000  4.6203e+001 59478 75700,75752,75726
 1.2000e+000 75804 -8.7286e+001  1.3345e+001  1.6082e+001 59478 75648,75778,75752
 1.2000e+000 76206 -5.8540e+001 -1.0127e+001 -9.8481e+000 59024 75981,76059,76007
 1.2000e+000 76183 -5.8726e+001 -4.5366e+000 -1.1241e+001 59024 75981,76111,76059
 1.2000e+000 76160 -6.3512e+001 -2.0774e+001 -3.3278e+000 59024 76007,76059,76033
 1.2000e+000 76137 -5.7912e+001 -6.1635e+000 -8.5344e+000 59024 76059,76111,76085
 1.2000e+000 76761 -8.3782e+001 -1.0289e+001  3.1763e+001 58562 76389,76441,76415
 1.2000e+000 76738 -1.2747e+002 -1.8963e+001 -4.0194e+000 58562 76856,76784,76389
 1.2000e+000 76715 -1.3262e+002 -1.3583e+001 -3.0233e+001 58562 76784,76571,76467
 1.2000e+000 76692 -1.8561e+002 -6.9984e+000 -7.0651e+000 58562 76856,76389,76597
 1.2000e+000 76669 -2.1248e+002 -7.8323e+001 -2.2178e+001 58562 76467,76545,76493
 1.2000e+000 76646 -1.3362e+002 -3.8623e+001 -3.8396e+001 58562 76467,76571,76545
 1.2000e+000 76623 -1.4183e+002 -1.4796e+001  7.2215e+000 58562 76493,76545,76519
 1.2000e+000 76810 -1.2926e+002 -2.7517e+001 -4.5623e+000 58562 76441,76389,76784
 1.2000e+000 76833 -1.2398e+002 -2.0985e+001  7.5607e-001 58562 76441,76784,76467
 1.2000e+000 76882 -1.9197e+002 -3.7492e+001 -3.2903e+001 58562 76571,76784,76856
 1.2000e+000 76905 -2.2705e+002 -9.7459e+000 -3.7924e+001 58562 76571,76856,76597
 1.2000e+000 77055 -2.0523e+002 -6.8836e+001  6.5195e+000 57844 76928,76980,76954
 1.2000e+000 77032 -1.6096e+002 -5.6323e+000 -1.4014e+001 57844 76928,77006,76980
 1.2000e+000 77533 -1.8486e+002 -6.7274e+001 -8.5239e+000 57226 77628,77556,77291
 1.2000e+000 77510 -1.8395e+002  4.8237e+001  8.7203e+000 57226 77556,77187,77343
 1.2000e+000 77487 -1.2070e+002 -6.5454e+001 -1.8082e+001 57226 77628,77291,77265
 1.2000e+000 77464 -9.6502e+001 -5.1515e+001 -3.2242e+001 57226 77700,77213,77187
 1.2000e+000 77441 -3.2880e+002 -3.1905e+000  1.8398e+001 57226 77161,77343,77187
 1.2000e+000 77418 -1.9209e+002 -1.2772e+001  1.3666e+001 57226 77161,77369,77343
 1.2000e+000 77395 -1.1310e+002 -1.9059e+001 -4.6685e+001 57226 77213,77265,77239
 1.2000e+000 77582 -1.9639e+002 -7.8140e+001  1.8212e+001 57226 77317,77291,77556
 1.2000e+000 77605 -2.1658e+002 -2.1395e+000 -5.6143e+000 57226 77317,77556,77343
 1.2000e+000 77654 -8.8617e+001 -9.7593e+000  1.5373e+001 57226 77187,77556,77628
 1.2000e+000 77677 -8.5055e+001 -5.5024e+001 -1.4487e+001 57226 77700,77187,77628
 1.2000e+000 77726 -1.3599e+002 -6.8771e+001 -3.9465e+001 57226 77265,77213,77700
 1.2000e+000 77749 -1.2324e+002 -6.8043e+001 -1.9119e+001 57226 77265,77700,77628
 1.2000e+000 78046 -1.8851e+002  1.0731e+001 -8.1983e-001 56936 77798,77850,77824
 1.2000e+000 78023 -1.8453e+002 -3.7743e+001 -1.7032e+001 56936 78069,77798,77902
 1.2000e+000 78000 -1.7264e+002 -4.3112e+001 -1.5423e+001 56936 78069,77902,77876
 1.2000e+000 77977 -2.3164e+002 -6.3583e+001 -4.7921e+001 56936 77798,77928,77902
 1.2000e+000 77954 -2.0511e+002 -1.9062e+001 -3.2534e+001 56936 77772,77928,77798
 1.2000e+000 78095 -1.8767e+002 -4.0950e+001 -1.5369e+001 56936 77850,77798,78069
 1.2000e+000 78118 -1.8209e+002 -4.8859e+001 -1.2107e+001 56936 77850,78069,77876
 1.2000e+000 78754 -7.6966e+001 -1.1409e+001  5.2765e+000 56475 78777,78486,78408
 1.2000e+000 78731 -1.4592e+002 -6.2698e+001  2.8265e+001 56475 78777,78408,78382
 1.2000e+000 78708 -1.1810e+002 -4.9680e+001 -3.5175e+001 56475 78849,78512,78486
 1.2000e+000 78685 -7.5699e+001 -6.3354e-001 -6.3727e+000 56475 78382,78590,78564
 1.2000e+000 78662 -1.9804e+002 -4.2924e+001 -6.9630e+001 56475 78512,78564,78538
 1.2000e+000 78639 -8.7770e+001 -2.8107e+001  5.0831e+000 56475 78434,78486,78460
 1.2000e+000 78616 -8.2684e+001 -2.5833e+001  4.1840e+000 56475 78408,78486,78434
 1.2000e+000 78803 -1.2770e+002 -3.1715e+001 -1.3497e+001 56475 78849,78486,78777
 1.2000e+000 78826 -1.2214e+002  1.4743e+000  4.9170e+000 56475 78564,78777,78382
 1.2000e+000 78875 -1.0429e+002 -1.2775e+001 -3.2069e+001 56475 78564,78512,78849
 1.2000e+000 78898 -1.1317e+002  1.0953e+001 -1.4672e+001 56475 78564,78849,78777
 1.2000e+000 79276 -9.3200e+001  8.5750e+000  1.4335e+001 55964 79299,79080,79028
 1.2000e+000 79253 -1.3129e+002 -5.6569e+000  1.5684e+001 55964 79299,79028,79132
 1.2000e+000 79230 -8.8692e+001 -2.7877e+001  7.8522e+000 55964 79028,79080,79054
 1.2000e+000 79207 -1.3871e+002 -5.9766e+001 -9.3141e+000 55964 79002,79132,79028
 1.2000e+000 79184 -1.3421e+002 -5.6140e+001 -2.7811e+001 55964 79002,79158,79132
 1.2000e+000 79325 -1.0860e+002  2.4220e+001 -1.7619e+001 55964 79106,79080,79299
 1.2000e+000 79348 -1.5154e+002  7.9633e+000 -1.4551e+001 55964 79106,79299,79132
 1.2000e+000 79498 -1.6818e+002  2.4963e+001 -3.1284e+001 55452 79397,79449,79423
 1.2000e+000 79475 -1.2039e+002  1.6202e+001 -1.0371e+001 55452 79371,79449,79397
 1.2000e+000 79795 -7.5978e+001  1.3427e+001  9.9785e+000 55048 79962,79818,79573
 1.2000e+000 79772 -1.0334e+002 -1.4271e+001 -1.2530e+001 55048 79818,79521,79677
 1.2000e+000 79749 -8.0844e+001 -3.4152e+001  1.0509e+001 55048 79599,79651,79625
 1.2000e+000 79726 -1.0899e+002 -2.1580e+001  3.8258e+000 55048 79890,79651,79599
 1.2000e+000 79703 -4.4025e+001  4.7642e+001  3.4830e+001 55048 79962,79573,79547
 1.2000e+000 79844 -9.8107e+001 -1.2616e+001  4.8993e-001 55048 79599,79573,79818
 1.2000e+000 79867 -1.0306e+002 -6.4431e+000  2.3597e+000 55048 79890,79599,79818
 1.2000e+000 79916 -1.0518e+002 -1.6794e+001 -1.0709e+001 55048 79677,79651,79890
 1.2000e+000 79939 -1.0320e+002 -1.0610e+001 -1.2271e+001 55048 79677,79890,79818
 1.2000e+000 79988 -9.8463e+001 -9.3800e+000 -1.4537e+001 55048 79521,79818,79962
 1.2000e+000 80011 -9.1833e+001 -1.3525e+000  5.7115e+000 55048 79521,79962,79547
 1.2000e+000 80212 -1.6192e+002  1.8405e+001  1.5870e+001 54436 80235,80088,80036
 1.2000e+000 80189 -1.2534e+002  2.0833e+001  1.3138e+001 54436 80235,80036,80140
 1.2000e+000 80166 -1.6732e+002 -2.1000e+000  1.1959e+001 54436 80036,80088,80062
 1.2000e+000 80261 -1.3105e+002 -3.9097e+000  3.7855e+001 54436 80114,80088,80235
 1.2000e+000 80284 -8.2531e+001  7.4824e+000  3.5525e+001 54436 80114,80235,80140
 1.2000e+000 80534 -1.5866e+002 -1.6420e+000 -2.8253e+000 54032 80557,80361,80335
 1.2000e+000 80511 -1.3911e+002  2.5075e+001 -1.7877e+001 54032 80557,80335,80309
 1.2000e+000 80488 -1.2622e+002 -2.7662e+000 -8.7899e-001 54032 80629,80413,80387
 1.2000e+000 80465 -7.0255e+001 -1.9303e+001 -9.3236e+000 54032 80309,80439,80413
 1.2000e+000 80583 -1.4903e+002 -4.9631e+001  1.3938e+001 54032 80387,80361,80557
 1.2000e+000 80606 -1.2706e+002 -3.9239e+000  2.1538e+000 54032 80629,80387,80557
 1.2000e+000 80655 -1.2976e+002 -4.6758e+000  7.9857e-001 54032 80309,80413,80629
 1.2000e+000 80678 -1.3178e+002 -5.0712e+000  3.4040e+000 54032 80309,80629,80557
 1.2000e+000 81139 -9.4599e+001  1.9964e+001  4.8235e+001 53784 80865,80995,80917
 1.2000e+000 81116 -1.5112e+002  2.7698e+001 -3.8587e+001 53784 80865,81021,80995
 1.2000e+000 81093 -6.3470e+001 -6.0490e+000  1.8739e+001 53784 80943,80995,80969
 1.2000e+000 81070 -5.3931e+001 -2.5171e+001  3.7520e+001 53784 80917,80995,80943
 1.2000e+000 81047 -2.0378e+002  3.1066e+002  1.2912e+002 53784 80865,80917,80891
 1.2000e+000 81468 -1.3399e+002 -2.8755e+001 -4.6281e+000 53230 81295,81373,81347
 1.2000e+000 81445 -1.0489e+002 -4.2180e+000  1.0295e+001 53230 81243,81373,81295
 1.2000e+000 81422 -7.9246e+001 -1.2959e+001  3.2293e+001 53230 81243,81295,81269
 1.2000e+000 81399 -1.4810e+002 -4.5471e+001  2.5310e+001 53230 81295,81347,81321
 1.2000e+000 81618 -2.7753e+002  9.7624e+001 -5.2216e+001 52790 81491,81543,81517
 1.2000e+000 81595 -2.6360e+002 -3.6966e+001 -3.7376e+001 52790 81491,81569,81543
 1.2000e+000 82126 -7.8682e+001 -2.6830e+001  2.2395e+001 52386 82149,81907,81881
 1.2000e+000 82103 -6.8047e+001 -5.8824e-001  2.3614e+001 52386 82149,81881,81855
 1.2000e+000 82080 -8.0554e+001 -3.2577e+001 -1.7570e+000 52386 82221,81803,81985
 1.2000e+000 82057 -2.6994e+001 -9.1354e+000  2.6938e+001 52386 81803,81855,81829
 1.2000e+000 82034 -5.1985e+001 -1.4549e+001 -3.7866e+000 52386 81907,81985,81933
 1.2000e+000 82011 -5.2845e+001 -1.1429e+001 -5.2064e+000 52386 81933,81985,81959
 1.2000e+000 82175 -5.9631e+001 -9.3376e+000  1.4137e+001 52386 81985,81907,82149
 1.2000e+000 82198 -7.3237e+001 -1.9910e+001  8.2151e+000 52386 82221,81985,82149
 1.2000e+000 82247 -7.7002e+001 -1.1618e+001  7.4295e+000 52386 81855,81803,82221
 1.2000e+000 82270 -7.7913e+001 -1.9099e+000  1.4364e+001 52386 81855,82221,82149
 1.2000e+000 82825 -2.4370e+002 -3.1231e+001 -7.3661e+001 51782 82505,82661,82635
 1.2000e+000 82802 -1.2194e+002 -6.5682e+001  3.1872e+001 51782 82479,82661,82505
 1.2000e+000 82779 -1.5855e+002 -6.2603e+001  4.6519e+001 51782 82557,82635,82609
 1.2000e+000 82756 -1.7893e+002 -1.1741e+002 -1.4362e+001 51782 82531,82635,82557
 1.2000e+000 82733 -2.3298e+002  8.0538e-001 -3.2400e+001 51782 82505,82635,82531
 1.2000e+000 82710 -1.7934e+002 -1.4564e+002 -2.5210e+001 51782 82453,82661,82479
 1.2000e+000 82687 -1.4012e+002 -6.3842e+001  4.8308e+001 51782 82557,82609,82583
 1.2000e+000 83171 -1.3524e+002  1.1022e+001 -2.5914e+001 51442 83194,82978,82900
 1.2000e+000 83148 -1.6567e+002 -4.7375e+000 -3.6351e+001 51442 83194,82900,82874
 1.2000e+000 83125 -2.0050e+002 -1.4997e+001 -5.5149e+000 51442 82900,82978,82926
 1.2000e+000 83102 -2.0213e+002 -5.4499e+001 -4.0793e+001 51442 82874,83030,83004
 1.2000e+000 83079 -9.1364e+001  1.1426e+001 -1.9179e+001 51442 82926,82978,82952
 1.2000e+000 83056 -1.2198e+002 -2.7471e+001 -2.7534e+001 51442 82848,83030,82874
 1.2000e+000 83220 -9.8101e+001 -5.3978e+000 -1.9482e+001 51442 83004,82978,83194
 1.2000e+000 83243 -1.3760e+002 -3.0807e+001 -3.3450e+001 51442 83004,83194,82874
 1.2000e+000 83751 -1.1140e+002 -1.6031e+001  8.9583e+000 50938 83428,83584,83454
 1.2000e+000 83728 -1.5601e+002 -3.1587e+001 -1.0534e+001 50938 83428,83610,83584
 1.2000e+000 83705 -1.4579e+002 -3.7777e+001 -2.6541e+000 50938 83454,83584,83558
 1.2000e+000 83682 -2.0561e+002 -2.4502e+001 -3.3585e+000 50938 83454,83532,83480
 1.2000e+000 83659 -1.7566e+002 -5.1414e+001 -6.8747e+000 50938 83454,83558,83532
 1.2000e+000 83636 -1.4946e+002  2.2288e+001  1.7107e+001 50938 83480,83532,83506
 1.2000e+000 84355 -1.7151e+002 -7.8628e+001  2.4872e+001 50377 84378,83960,83934
 1.2000e+000 84332 -1.3115e+002 -1.8219e+001 -3.1508e+001 50377 84522,84378,83934
 1.2000e+000 84309 -1.6670e+002 -1.5292e+001 -3.6832e+000 50377 84450,84038,84012
 1.2000e+000 84286 -1.1333e+002 -3.1855e+001 -3.2485e+001 50377 84522,83934,84142
 1.2000e+000 84263 -1.5600e+002 -1.0795e+002  2.4298e+001 50377 84594,84090,84038
 1.2000e+000 84240 -5.4488e+001 -4.4136e+001  2.8401e+001 50377 83960,84012,83986
 1.2000e+000 84217 -8.5088e+001 -3.7794e+001 -4.4602e+000 50377 83934,84168,84142
 1.2000e+000 84194 -2.0066e+001 -6.1621e+001  3.2884e+001 50377 84038,84090,84064
 1.2000e+000 84404 -1.5546e+001 -8.2089e+000  7.0899e+000 50377 84012,83960,84378
 1.2000e+000 84427 -1.3279e+002 -1.2323e+001 -3.5246e+001 50377 84450,84012,84378
 1.2000e+000 84476 -1.8249e+002 -6.8577e+001  1.6179e+001 50377 84594,84038,84450
 1.2000e+000 84499 -1.5712e+002 -2.6374e+001 -1.6408e+001 50377 84116,84450,84378
 1.2000e+000 84548 -1.1465e+002 -4.2103e+000 -2.5509e+001 50377 84116,84378,84522
 1.2000e+000 84571 -9.8054e+001 -1.9632e+001 -2.7122e+001 50377 84116,84522,84142
 1.2000e+000 84620 -1.2891e+002 -5.4401e+001  1.4972e-001 50377 84116,84090,84594
 1.2000e+000 84643 -1.5076e+002 -1.3969e+001 -1.0469e+001 50377 84116,84594,84450
 1.2000e+000 84842 -1.5069e+002 -9.0115e+000 -4.3763e+001 49923 84865,84692,84666
 1.2000e+000 84819 -9.5361e+001 -2.1198e+001 -5.3449e+000 49923 84865,84666,84770
 1.2000e+000 84796 -2.1003e+001  1.0122e+001 -9.0627e+000 49923 84692,84744,84718
 1.2000e+000 84891 -1.1405e+002  7.9451e+000 -1.3907e+001 49923 84744,84692,84865
 1.2000e+000 84914 -5.0513e+001  1.6194e+001  2.9221e+001 49923 84744,84865,84770
 1.2000e+000 85501 -1.7077e+002 -2.3826e+001  5.6034e+000 49618 85524,85282,85204
 1.2000e+000 85478 -1.8046e+002 -1.7966e+001  1.7260e+001 49618 85596,85524,85204
 1.2000e+000 85455 -1.7305e+002 -2.6140e+001  1.7573e+001 49618 85596,85204,85178
 1.2000e+000 85432 -1.8772e+002 -3.9784e+001  1.2415e+001 49618 85204,85282,85256
 1.2000e+000 85409 -1.0203e+002 -2.2114e+000 -4.6918e+000 49618 85282,85334,85308
 1.2000e+000 85386 -1.7270e+002 -9.6107e+000  1.7424e+000 49618 85204,85256,85230
 1.2000e+000 85550 -1.4231e+002  8.7829e+000 -2.7236e+001 49618 85334,85282,85524
 1.2000e+000 85573 -2.3305e+002 -2.5826e+001 -1.1407e+001 49618 85334,85524,85360
 1.2000e+000 85622 -1.9193e+002 -2.6838e+001  2.1255e+001 49618 85360,85524,85596
 1.2000e+000 85645 -1.8146e+002 -3.1561e+001  2.0050e+001 49618 85360,85596,85178
 1.2000e+000 85795 -4.9559e+002 -1.5303e+002  3.8606e+001 49278 85694,85746,85720
 1.2000e+000 85772 -5.6615e+002 -1.6067e+002  1.4552e+000 49278 85668,85746,85694
 1.2000e+000 86197 -2.0442e+002 -9.4845e+001 -2.8676e+001 48916 86001,86079,86027
 1.2000e+000 86174 -2.0090e+002 -8.7340e+001 -2.9447e+001 48916 85949,86079,86001
 1.2000e+000 86151 -2.6613e+002 -1.1857e+002 -6.6835e+000 48916 85949,86001,85975
 1.2000e+000 86128 -2.1479e+002 -7.2383e+001 -7.6880e+000 48916 86027,86079,86053
 1.2000e+000 86105 -4.1186e+002 -1.7698e+002 -5.1662e+001 48916 85923,86079,85949
 1.2000e+000 86477 -1.1626e+001  8.6930e+000  2.7212e+001 48398 86327,86379,86353
 1.2000e+000 86454 -4.8735e+001 -4.5772e+001  1.0683e+001 48398 86500,86379,86327
 1.2000e+000 86431 -2.5637e+001 -4.3935e+001  2.5180e+001 48398 86301,86405,86379
 1.2000e+000 86526 -3.3848e+001 -3.4506e+001  1.6138e+001 48398 86301,86379,86500
 1.2000e+000 87032 -1.5408e+002 -3.6949e+001 -2.7796e+000 48008 87127,87055,86787
 1.2000e+000 87009 -1.6022e+002 -4.9344e+001  2.7823e+000 48008 87055,86735,86709
 1.2000e+000 86986 -1.4083e+002 -4.6095e+001 -5.0651e+000 48008 87127,86787,86761
 1.2000e+000 86963 -1.3212e+002 -3.5574e+001  9.4653e+000 48008 86787,86865,86839
 1.2000e+000 86940 -1.7203e+002 -5.0412e+001 -2.7283e+000 48008 86709,86891,86865
 1.2000e+000 86917 -1.7944e+002 -2.5534e+001  2.5690e+001 48008 86787,86839,86813
 1.2000e+000 87081 -1.5509e+002 -4.1602e+001 -3.4233e+000 48008 86865,86787,87055
 1.2000e+000 87104 -1.5090e+002 -4.1599e+001 -5.4895e+000 48008 86865,87055,86709
 1.2000e+000 87153 -1.3543e+002 -3.7265e+001 -9.5887e-001 48008 86735,87055,87127
 1.2000e+000 87176 -1.0163e+002 -2.9505e+001 -1.0957e+001 48008 86735,87127,86761
 1.2000e+000 87456 -6.4727e+001 -2.2967e+001 -1.2309e+001 47604 87306,87358,87332
 1.2000e+000 87433 -9.5157e+001 -4.5942e+001 -2.0365e-002 47604 87306,87384,87358
 1.2000e+000 87410 -7.3898e+001 -3.7075e+001 -5.5873e+000 47604 87280,87384,87306
 1.2000e+000 87785 -4.6377e+001 -1.6731e+001  6.6391e+000 47264 87638,87690,87664
 1.2000e+000 87762 -3.4785e+001  2.6189e+001 -3.0824e+000 47264 87612,87690,87638
 1.2000e+000 87739 -4.9369e+001 -6.1806e+000 -6.7663e+000 47264 87560,87690,87612
 1.2000e+000 87716 -4.1136e+001 -4.9522e+000 -1.4382e+001 47264 87560,87612,87586
 1.2000e+000 87935 -2.5598e+002 -2.8276e+001  1.6832e+000 46952 87808,87860,87834
 1.2000e+000 87912 -2.4260e+002 -5.6190e+000 -5.6936e+000 46952 87808,87886,87860
 1.2000e+000 88281 -1.7869e+002 -4.9918e+001  1.6320e+000 46526 88304,88114,88036
 1.2000e+000 88258 -1.6062e+002 -3.8108e+001  6.8515e+000 46526 88304,88036,87984
 1.2000e+000 88235 -1.6862e+002 -3.8137e+001 -2.0574e+001 46526 88036,88114,88062
 1.2000e+000 88212 -1.3605e+002  6.3096e+000  7.9295e+001 46526 87958,88140,87984
 1.2000e+000 88189 -1.4434e+002  3.3778e-001  1.8769e+000 46526 87984,88036,88010
 1.2000e+000 88166 -2.0411e+002 -6.9671e+001 -3.5460e+001 46526 88062,88114,88088
 1.2000e+000 88330 -1.9564e+002 -3.5235e+001  1.1610e+000 46526 88140,88114,88304
 1.2000e+000 88353 -1.8320e+002 -2.7525e+001  4.9244e+000 46526 88140,88304,87984
 1.2000e+000 88701 -7.3724e+001 -3.5373e+001 -2.2877e+001 45822 88724,88378,88534
 1.2000e+000 88678 -5.4267e+001  4.4127e+000 -2.9729e+001 45822 88378,88560,88534
 1.2000e+000 88655 -7.5535e+001 -5.0014e+001 -1.5045e+000 45822 88724,88534,88508
 1.2000e+000 88632 -7.0158e+001 -2.1036e+001 -1.1560e+001 45822 88404,88508,88456
 1.2000e+000 88609 -6.3651e+001 -7.8122e+000 -1.4930e+001 45822 88404,88456,88430
 1.2000e+000 88586 -1.1544e+002 -4.5921e+001 -1.5674e+000 45822 88456,88508,88482
 1.2000e+000 88750 -7.5041e+001 -6.8407e+000 -2.8014e+001 45822 88404,88378,88724
 1.2000e+000 88773 -7.5607e+001 -2.3837e+001 -8.3263e+000 45822 88404,88724,88508
 1.2000e+000 89106 -1.7463e+002 -7.7201e+000 -2.0010e+001 45418 88881,88985,88907
 1.2000e+000 89083 -1.1208e+002 -8.2596e+001 -1.1158e+001 45418 88881,89011,88985
 1.2000e+000 89060 -1.2808e+002 -1.1759e+001 -2.7037e+001 45418 88907,88985,88933
 1.2000e+000 89037 -5.7357e+001 -1.9199e+001  4.4339e+000 45418 88933,88985,88959
 1.2000e+000 89435 -1.5299e+002 -5.5743e+001  6.0720e+000 44914 89210,89288,89236
 1.2000e+000 89412 -1.1457e+002 -3.2150e+001 -2.4206e+001 44914 89210,89314,89288
 1.2000e+000 89389 -1.3310e+002 -2.3025e+001 -2.9588e+001 44914 89210,89340,89314
 1.2000e+000 89366 -1.2565e+002 -4.2040e+001  1.1783e+000 44914 89236,89288,89262
 1.2000e+000 89634 -3.4239e+001 -1.4109e+001  6.1923e+000 44538 89510,89562,89536
 1.2000e+000 89611 -5.1975e+001 -2.0600e+000 -2.1212e+001 44538 89458,89562,89510
 1.2000e+000 89588 -5.1999e+001 -3.8924e+001 -1.9888e+001 44538 89458,89510,89484
 1.2000e+000 90044 -2.1699e+002 -8.4710e+001  2.0006e+001 44134 89819,89923,89845
 1.2000e+000 90021 -1.8171e+002 -2.0759e+001  3.6072e+001 44134 89819,89949,89923
 1.2000e+000 89998 -1.6667e+002 -7.5273e+001 -5.3518e+000 44134 89845,89923,89897
 1.2000e+000 89975 -1.2103e+002 -6.2789e+000  2.3728e+001 44134 89845,89897,89871
 1.2000e+000 90520 -2.0232e+002 -8.4512e+001  6.5640e+000 43457 90543,90252,90226
 1.2000e+000 90497 -1.6553e+002 -6.9798e+001  1.1433e+001 43457 90543,90226,90330
 1.2000e+000 90474 -1.9493e+002 -3.9219e+001 -9.4301e+000 43457 90200,90330,90226
 1.2000e+000 90451 -2.1525e+002 -6.4659e+001 -3.4405e+001 43457 90200,90356,90330
 1.2000e+000 90428 -2.1026e+002 -1.7662e+001  5.6953e+001 43457 90252,90304,90278
 1.2000e+000 90405 -7.1456e+001 -1.4870e+001  2.3164e+001 43457 90174,90356,90200
 1.2000e+000 90382 -2.1326e+002 -1.5827e+002 -3.4538e+001 43457 90148,90356,90174
 1.2000e+000 90569 -2.3801e+002 -6.2544e+001  4.2840e+001 43457 90304,90252,90543
 1.2000e+000 90592 -1.7360e+002 -3.2079e+001  5.5754e+001 43457 90304,90543,90330
 1.2000e+000 91098 -6.0179e+001 -8.4398e+000  2.4728e+000 42789 90801,90905,90853
 1.2000e+000 91075 -8.6249e+001 -4.7311e+001  1.3844e+001 42789 90775,90905,90801
 1.2000e+000 91052 -8.7990e+001 -1.5360e+001 -1.0736e+001 42789 90775,90931,90905
 1.2000e+000 91029 -3.3996e+001  8.0890e+000  2.9835e+001 42789 90801,90853,90827
 1.2000e+000 91006 -8.7455e+001 -2.8132e+001  3.9990e+001 42789 90853,90905,90879
 1.2000e+000 90983 -1.7256e+002 -2.0213e+001  2.4754e+001 42789 90775,90957,90931
 1.2000e+000 91427 -1.8145e+002 -6.7164e+000 -1.3960e+001 42227 91228,91280,91254
 1.2000e+000 91404 -2.0422e+002 -6.0664e+001  9.7992e+000 42227 91228,91306,91280
 1.2000e+000 91381 -2.0030e+002 -5.5062e+001  2.5105e+001 42227 91202,91306,91228
 1.2000e+000 91358 -1.6708e+002 -6.5757e+001 -6.2839e+000 42227 91202,91332,91306
 1.2000e+000 91675 -6.5317e+001 -1.9745e+001 -1.7683e+001 41773 91698,91476,91450
 1.2000e+000 91652 -6.6418e+001 -3.1851e+001 -5.3481e+000 41773 91698,91450,91554
 1.2000e+000 91629 -7.7559e+001 -5.0789e+001  3.0294e-001 41773 91450,91580,91554
 1.2000e+000 91606 -8.8574e+001 -1.6227e+001  1.3768e+001 41773 91502,91554,91528
 1.2000e+000 91724 -7.2930e+001 -2.6442e+001 -9.3357e+000 41773 91502,91476,91698
 1.2000e+000 91747 -7.6618e+001 -3.9986e+001  3.3460e+000 41773 91502,91698,91554
 1.2000e+000 92127 -1.0022e+002 -9.2836e+000 -1.3856e+001 41255 92150,91905,91879
 1.2000e+000 92104 -1.7776e+002 -1.7838e+001  1.9683e+001 41255 92150,91879,91957
 1.2000e+000 92081 -1.4145e+002 -5.1636e+001  4.8872e+001 41255 91853,91957,91879
 1.2000e+000 92058 -1.5307e+002 -6.3138e+001  1.5140e+000 41255 91853,91983,91957
 1.2000e+000 92035 -7.9582e+001 -3.8189e+001 -1.3105e+001 41255 91853,92009,91983
 1.2000e+000 92176 -1.6843e+002  1.1499e+001  2.0422e+001 41255 91931,91905,92150
 1.2000e+000 92199 -2.8699e+002 -4.6673e+001  6.8013e+001 41255 91931,92150,91957
 1.2000e+000 92518 -2.2862e+002 -1.6745e+001 -1.3181e+000 41007 92244,92374,92270
 1.2000e+000 92495 -2.2409e+002  1.0593e+001 -1.4531e+001 41007 92244,92400,92374
 1.2000e+000 92472 -2.0045e+002 -1.7460e+001 -4.0603e+000 41007 92270,92374,92348
 1.2000e+000 92449 -2.6824e+002 -7.0597e+001  1.3195e+001 41007 92296,92348,92322
 1.2000e+000 92426 -2.4242e+002 -6.4917e+001  1.3660e+001 41007 92270,92348,92296
 1.2000e+000 92668 -7.0174e+001 -2.3683e+001 -2.0324e+001 40717 92823,92691,92567
 1.2000e+000 92645 -7.0580e+001 -1.6012e+001 -1.9424e+001 40717 92895,92823,92567
 1.2000e+000 92717 -7.5545e+001 -2.2618e+001  1.2122e+001 40717 92593,92567,92691
 1.2000e+000 92849 -3.3155e+001 -2.6665e+001 -3.3608e+001 40717 92619,92691,92823
 1.2000e+000 92872 -8.1221e+001 -3.0148e+001 -1.8022e+001 40717 92619,92823,92541
 1.2000e+000 92921 -1.1405e+002 -5.5091e+001  7.4313e+000 40717 92541,92823,92895
 1.2000e+000 93634 -1.8894e+002 -5.6499e+001 -3.6301e+001 40206 93366,93444,93418
 1.2000e+000 93611 -1.4541e+002 -1.8729e+001 -1.2058e+001 40206 93288,93444,93366
 1.2000e+000 93588 -1.4697e+002 -4.9344e+001 -1.3686e+001 40206 93288,93366,93314
 1.2000e+000 93565 -2.9452e+002 -7.1845e+001 -4.1542e+000 40206 93262,93444,93288
 1.2000e+000 93542 -2.1913e+002 -3.0416e+001 -1.8381e+001 40206 93366,93418,93392
 1.2000e+000 93519 -3.5932e+002 -6.7608e-001  2.5136e-001 40206 93262,93470,93444
 1.2000e+000 93496 -9.4132e+001 -2.7079e+001 -3.8280e+000 40206 93314,93366,93340
 1.2000e+000 94189 -1.3503e+002 -5.8474e+001  1.0064e+001 39802 93843,93999,93973
 1.2000e+000 94166 -1.6752e+002 -7.5843e+001  1.8971e+001 39802 93817,93999,93843
 1.2000e+000 94143 -2.1926e+002 -6.3977e+001  2.1630e+001 39802 93869,93973,93947
 1.2000e+000 94120 -1.3914e+002 -2.4623e+001  8.5233e+000 39802 93843,93973,93869
 1.2000e+000 94097 -1.3039e+002  1.6456e-001 -1.6983e+000 39802 93869,93921,93895
 1.2000e+000 94074 -1.3496e+002 -1.1490e+001 -9.1473e+000 39802 93869,93947,93921
 1.2000e+000 94051 -1.1520e+002 -4.2654e+001 -1.8193e+000 39802 93817,94025,93999
 1.2000e+000 94290 -2.2476e+002 -7.1403e+001  1.1979e+000 39398 94212,94264,94238
 1.2000e+000 94798 -8.1159e+001 -1.1497e+001 -3.9930e+000 38701 94501,94657,94631
 1.2000e+000 94775 -6.9708e+001 -3.6841e+000 -5.3349e-001 38701 94475,94657,94501
 1.2000e+000 94752 -1.3079e+002 -4.7785e+001 -2.0105e+000 38701 94579,94631,94605
 1.2000e+000 94729 -1.3071e+002 -2.3848e+001 -1.1483e+001 38701 94553,94631,94579
 1.2000e+000 94706 -5.6022e+001  6.9430e+000 -1.3283e+001 38701 94501,94631,94553
 1.2000e+000 94683 -5.2758e+001  1.4839e+000 -1.2869e+001 38701 94501,94553,94527
 1.2000e+000 95255 -5.5649e+001 -4.4775e+000  2.0682e+001 38247 95278,95085,95007
 1.2000e+000 95232 -7.6441e+001 -7.9858e+000  2.7063e+001 38247 95278,95007,95137
 1.2000e+000 95209 -1.0455e+002 -1.7942e+000  6.2821e+000 38247 94981,95137,95007
 1.2000e+000 95186 -9.7901e+001 -3.8097e+001 -3.4676e+000 38247 95007,95059,95033
 1.2000e+000 95163 -1.0155e+002 -3.0229e+001  3.2102e+001 38247 95007,95085,95059
 1.2000e+000 95304 -4.5196e+001  3.8675e+000  2.1196e+000 38247 95111,95085,95278
 1.2000e+000 95327 -6.6093e+001 -6.9398e+000  1.0957e+001 38247 95111,95278,95137
 1.2000e+000 95575 -2.4273e+002  8.1674e+001 -2.6987e+001 37564 95376,95428,95402
 1.2000e+000 95552 -2.5441e+002 -9.5892e+001 -1.4302e+001 37564 95376,95454,95428
 1.2000e+000 95529 -2.2302e+002 -8.8240e+001 -2.1349e+001 37564 95376,95480,95454
 1.2000e+000 95506 -2.0599e+002 -4.8398e+001 -8.3149e+000 37564 95350,95480,95376
 1.2000e+000 96034 -4.0683e+001 -1.8014e+000  7.9137e+000 37224 95786,95838,95812
 1.2000e+000 96011 -3.9252e+001 -9.5299e+000  1.6249e+001 37224 95786,95890,95838
 1.2000e+000 95988 -1.7840e+001 -5.5035e+000  9.2599e+000 37224 95786,95916,95890
 1.2000e+000 95965 -7.6912e+001 -2.0608e+001 -2.7636e+000 37224 95760,95916,95786
 1.2000e+000 95942 -2.0484e+001 -2.2400e+001 -5.5683e+000 37224 95838,95890,95864
 1.2000e+000 96363 -5.5852e+001  7.5327e+000 -1.3031e+001 36884 96216,96268,96242
 1.2000e+000 96340 -9.2580e+001  1.2199e+001 -1.1808e+001 36884 96164,96268,96216
 1.2000e+000 96317 -1.3146e+002 -3.6521e+001  2.3731e+001 36884 96138,96268,96164
 1.2000e+000 96294 -9.6131e+001  1.0234e+001 -2.2510e+000 36884 96164,96216,96190
 1.2000e+000 96839 -1.7062e+002 -3.6402e+001 -1.3127e+001 36572 96862,96649,96597
 1.2000e+000 96816 -1.7241e+002 -4.9982e+001 -1.2162e+001 36572 97006,96862,96597
 1.2000e+000 96793 -1.5847e+002 -4.2287e+001 -2.1017e+000 36572 96934,96467,96675
 1.2000e+000 96770 -1.5482e+002 -6.1164e+001  5.0373e+000 36572 97006,96597,96571
 1.2000e+000 96747 -1.6602e+002 -6.4166e+001 -3.9321e+001 36572 96467,96519,96493
 1.2000e+000 96724 -3.4038e+002 -3.0873e+001  1.2027e+002 36572 96519,96571,96545
 1.2000e+000 96701 -1.2097e+002 -1.0779e+001  3.5350e+001 36572 96597,96649,96623
 1.2000e+000 96888 -1.7852e+002 -3.9787e+001 -1.3416e+001 36572 96675,96649,96862
 1.2000e+000 96911 -1.7680e+002 -3.9445e+001 -6.3006e+000 36572 96934,96675,96862
 1.2000e+000 96960 -1.4674e+002 -4.1124e+001 -5.7810e+000 36572 96519,96467,96934
 1.2000e+000 96983 -1.5670e+002 -3.5757e+001 -6.9495e+000 36572 97078,96934,96862
 1.2000e+000 97032 -1.5406e+002 -3.3106e+001 -4.5187e+000 36572 97078,96862,97006
 1.2000e+000 97055 -1.3508e+002 -3.4470e+001  1.5608e+001 36572 96519,97006,96571
 1.2000e+000 97104 -1.5497e+002 -3.0946e+001 -4.5798e+000 36572 96519,96934,97078
 1.2000e+000 97127 -1.5539e+002 -2.9784e+001 -2.8739e+000 36572 96519,97078,97006
 1.2000e+000 97761 -1.4449e+002 -1.7506e+001  3.1239e+001 36118 97784,97493,97415
 1.2000e+000 97738 -1.6359e+002 -3.1468e+001  3.8122e+001 36118 97784,97415,97597
 1.2000e+000 97715 -2.6811e+002 -5.3578e+001  6.4178e+001 36118 97389,97597,97415
 1.2000e+000 97692 -2.4240e+002 -4.5291e+001  6.3354e+001 36118 97415,97467,97441
 1.2000e+000 97669 -2.2496e+002 -5.3770e+001  8.2852e+001 36118 97415,97493,97467
 1.2000e+000 97646 -1.3895e+002 -6.6467e+001 -3.0377e+001 36118 97493,97571,97519
 1.2000e+000 97623 -8.7511e+001 -1.5514e+001  1.2297e+001 36118 97519,97571,97545
 1.2000e+000 97810 -1.6151e+002  1.5808e+001  1.0636e+001 36118 97571,97493,97784
 1.2000e+000 97833 -2.0974e+002 -1.2222e+001  2.3601e+001 36118 97571,97784,97597
 1.2000e+000 98081 -1.6620e+002 -7.5773e+001  1.0049e+001 35564 98104,97908,97856
 1.2000e+000 98058 -1.8802e+002 -9.5690e+001  2.1761e+001 35564 98104,97856,97986
 1.2000e+000 98035 -2.6403e+002 -1.0314e+002  1.5810e+001 35564 97934,97986,97960
 1.2000e+000 98012 -1.4773e+002 -1.9747e+001 -1.6071e+001 35564 97856,97908,97882
 1.2000e+000 98130 -1.9356e+002  1.6417e+000  8.0832e+000 35564 97934,97908,98104
 1.2000e+000 98153 -2.2534e+002 -6.4452e+001  3.3571e+001 35564 97934,98104,97986
 1.2000e+000 98374 -2.5990e+002 -4.8795e+001 -1.1691e+001 35152 98224,98302,98276
 1.2000e+000 98351 -2.3896e+002 -4.7955e+000 -2.7998e+000 35152 98198,98302,98224
 1.2000e+000 98328 -1.9792e+002 -2.5064e+001 -2.4769e+001 35152 98224,98276,98250
 1.2000e+000 98884 -9.3083e+001 -2.2603e+000  1.3374e+001 34698 98691,98743,98717
 1.2000e+000 98861 -9.6076e+001 -1.6062e+000  2.7644e+000 34698 98561,98743,98691
 1.2000e+000 98838 -8.0899e+001 -9.7481e+000  1.3014e+001 34698 98907,98587,98561
 1.2000e+000 98815 -7.9659e+001 -1.7970e+001  7.1992e-001 34698 98907,98561,98691
 1.2000e+000 98792 -3.5317e+001 -6.8259e-001 -8.4729e+000 34698 98587,98639,98613
 1.2000e+000 98769 -7.5808e+001 -4.0420e+001  3.0038e+001 34698 98587,98665,98639
 1.2000e+000 98933 -6.8494e+001 -7.8848e+000  1.9972e+001 34698 98665,98587,98907
 1.2000e+000 98956 -6.6085e+001 -1.8930e+001  7.2660e+000 34698 98665,98907,98691
 1.2000e+000 99204 -1.7952e+002 -1.3058e+001 -1.6641e+001 34144 99227,99031,99005
 1.2000e+000 99181 -1.8722e+002 -3.9892e+001  7.7898e+000 34144 99299,99227,99005
 1.2000e+000 99158 -2.0059e+002 -3.3939e+001  2.4744e+001 34144 99299,99005,99109
 1.2000e+000 99135 -1.3364e+002 -3.4622e+001  3.0868e+001 34144 98979,99109,99005
 1.2000e+000 99253 -1.7098e+002 -2.9551e+001 -5.7193e+000 34144 99057,99031,99227
 1.2000e+000 99276 -7.1244e+001 -8.3858e+000 -1.2594e+001 34144 99057,99227,99083
 1.2000e+000 99325 -1.5852e+002 -6.3466e+000 -2.8548e+001 34144 99083,99227,99299
 1.2000e+000 99348 -2.0503e+002 -1.4880e+001 -1.1464e+001 34144 99083,99299,99109
 1.2000e+000 99498 -5.1979e+002 -1.3029e+002  5.4623e+001 33433 99397,99449,99423
 1.2000e+000 99475 -5.9979e+002 -1.5299e+002  4.6463e+000 33433 99371,99449,99397
 1.2000e+000 100008 -1.3507e+002 -3.3698e+001  1.0960e+001 32979 100103,100031,99815
 1.2000e+000 99985 -1.2833e+002 -1.4283e+001 -6.9522e+000 32979 100175,100031,99763
 1.2000e+000 99962 -1.4880e+002 -2.7294e+001  1.8533e+001 32979 100103,99815,99789
 1.2000e+000 99939 -1.3526e+002 -1.3963e+001 -1.3182e+000 32979 100175,99763,99737
 1.2000e+000 99916 -1.3004e+002  2.7402e+001 -4.0382e+000 32979 99685,99867,99737
 1.2000e+000 99893 -8.7380e+001  1.4472e+000 -5.5785e+001 32979 99685,99737,99711
 1.2000e+000 100057 -1.1924e+002 -2.4095e+001  2.6760e+000 32979 99841,99815,100031
 1.2000e+000 100080 -1.1263e+002  1.4403e+001 -1.9346e+001 32979 99841,100031,99867
 1.2000e+000 100129 -1.1787e+002 -2.3089e+001  4.0870e+000 32979 99763,100031,100103
 1.2000e+000 100152 -1.3391e+002 -1.5592e+001  1.0621e+001 32979 99763,100103,99789
 1.2000e+000 100201 -1.3955e+002 -1.8285e+001 -7.2848e+000 32979 99867,100031,100175
 1.2000e+000 100224 -1.4091e+002 -1.4309e+001 -1.7361e+000 32979 99867,100175,99737
 1.2000e+000 100553 -1.2764e+002 -5.2280e+001  2.4108e+001 32503 100354,100406,100380
 1.2000e+000 100530 -1.1674e+002 -1.1945e+001 -6.8308e+000 32503 100328,100406,100354
 1.2000e+000 100507 -1.1556e+002 -6.6923e+001 -4.7803e+001 32503 100328,100458,100406
 1.2000e+000 100484 -5.7575e+001 -6.7115e+001 -2.0616e+001 32503 100406,100458,100432
 1.2000e+000 100850 -2.2016e+002 -5.8802e+001  1.1746e+001 31899 100873,100654,100628
 1.2000e+000 100827 -2.1557e+002 -7.2662e+001 -6.0309e-001 31899 100945,100873,100628
 1.2000e+000 100804 -2.0322e+002 -8.3513e+001  4.2803e+000 31899 100945,100628,100602
 1.2000e+000 100781 -2.1708e+002 -8.3172e+001  1.5512e+001 31899 100576,100732,100602
 1.2000e+000 100758 -1.3012e+002 -2.3031e+001  2.8404e+001 31899 100654,100706,100680
 1.2000e+000 100899 -1.7552e+002 -8.7521e+001  2.9900e+000 31899 100706,100654,100873
 1.2000e+000 100922 -2.4053e+002 -9.4116e+001 -1.9067e+001 31899 100706,100873,100732
 1.2000e+000 100971 -2.3385e+002 -8.1450e+001  3.3893e+000 31899 100732,100873,100945
 1.2000e+000 100994 -2.1994e+002 -9.1336e+001  8.0956e+000 31899 100732,100945,100602
 1.2000e+000 101551 -8.7546e+001 -1.7522e+001 -4.3614e+000 31338 101205,101387,101231
 1.2000e+000 101528 -1.8731e+002 -6.5340e+001 -5.0597e+001 31338 101179,101387,101205
 1.2000e+000 101505 -1.0792e+002 -3.4703e+001  5.8091e-001 31338 101574,101309,101257
 1.2000e+000 101482 -8.9352e+001 -2.4898e+001  5.3887e+000 31338 101646,101574,101257
 1.2000e+000 101459 -7.3308e+001 -4.0134e+000  1.5005e+001 31338 101646,101257,101231
 1.2000e+000 101436 -1.1112e+002 -1.0757e+000 -4.3250e+000 31338 101309,101361,101335
 1.2000e+000 101413 -1.0001e+002 -2.3783e+001 -1.1718e+001 31338 101257,101309,101283
 1.2000e+000 101600 -1.1091e+002 -2.7116e+001  2.7680e+000 31338 101361,101309,101574
 1.2000e+000 101623 -1.1273e+002 -4.2515e+001 -1.0587e+001 31338 101361,101574,101387
 1.2000e+000 101672 -1.0308e+002 -1.9238e+001 -1.0817e+001 31338 101387,101574,101646
 1.2000e+000 101695 -9.3061e+001 -1.4994e+001 -4.2517e+000 31338 101387,101646,101231
 1.2000e+000 101943 -1.8713e+002 -6.7670e+001  2.7702e-001 30748 101966,101796,101744
 1.2000e+000 101920 -1.6435e+002 -3.2395e+001  1.2653e+001 30748 101966,101744,101718
 1.2000e+000 101897 -1.6034e+002  1.0585e+001  6.8817e+001 30748 101718,101848,101822
 1.2000e+000 101874 -1.7359e+002 -3.7521e+001 -2.6751e+001 30748 101744,101796,101770
 1.2000e+000 101992 -2.0357e+002 -3.0760e+001  5.8671e+000 30748 101822,101796,101966
 1.2000e+000 102015 -1.9016e+002 -2.3400e+000  1.3381e+001 30748 101822,101966,101718
 1.2000e+000 102493 -2.4540e+002 -5.2475e+001  4.1228e+001 30344 102516,102173,102147
 1.2000e+000 102470 -1.9422e+002 -2.7486e+001 -1.5585e+001 30344 102660,102516,102147
 1.2000e+000 102447 -1.0433e+002  1.2387e+001  4.6494e+000 30344 102588,102199,102173
 1.2000e+000 102424 -1.6748e+002 -4.2145e+001 -1.6346e+001 30344 102660,102147,102329
 1.2000e+000 102401 -3.3929e+002 -4.1407e+001  1.4003e+001 30344 102199,102277,102251
 1.2000e+000 102378 -1.0142e+002 -9.5877e+001  8.3057e+001 30344 102199,102251,102225
 1.2000e+000 102355 -3.9751e+002 -1.2577e+002  1.1959e+002 30344 102121,102329,102147
 1.2000e+000 102542 -1.4343e+002 -4.2994e+000  1.4081e+001 30344 102588,102173,102516
 1.2000e+000 102565 -1.7914e+002 -1.6446e+001 -5.5178e+000 30344 102277,102516,102303
 1.2000e+000 102614 -1.5731e+002  3.2824e+001  5.6397e+000 30344 102277,102199,102588
 1.2000e+000 102637 -1.9252e+002  2.1630e+001  7.8751e+000 30344 102277,102588,102516
 1.2000e+000 102686 -1.6465e+002 -1.1786e+001 -3.9386e+000 30344 102303,102516,102660
 1.2000e+000 102709 -1.4613e+002 -3.2174e+001 -4.9066e+000 30344 102303,102660,102329
 1.2000e+000 103294 -1.3833e+002 -4.1432e+001  1.8999e+001 29726 103317,103101,103075
 1.2000e+000 103271 -1.5115e+002 -5.2153e+001  1.3313e+001 29726 103317,103075,102997
 1.2000e+000 103248 -2.1880e+002 -7.4396e+001  4.2219e+001 29726 102971,103153,102997
 1.2000e+000 103225 -1.0514e+002 -3.6073e+000 -4.5508e+000 29726 103101,103153,103127
 1.2000e+000 103202 -1.5175e+002 -7.5628e+001  8.9844e+000 29726 102997,103075,103023
 1.2000e+000 103179 -1.6237e+002 -4.5263e+001 -1.9792e+001 29726 103023,103075,103049
 1.2000e+000 103343 -1.2999e+002 -5.3111e+001  1.9428e+001 29726 103153,103101,103317
 1.2000e+000 103366 -1.3772e+002 -5.6838e+001  1.6444e+001 29726 103153,103317,102997
 1.2000e+000 103614 -9.7357e+001 -3.2617e+001  1.1699e+001 29200 103781,103637,103467
 1.2000e+000 103591 -8.8401e+001 -3.1630e+001 -1.7361e+000 29200 103709,103637,103415
 1.2000e+000 103568 -7.4356e+001 -8.2495e+000  4.1325e+000 29200 103709,103415,103389
 1.2000e+000 103545 -1.0369e+002 -2.8913e+001  7.5241e+000 29200 103781,103467,103441
 1.2000e+000 103663 -7.0438e+001 -2.2692e+001 -1.2892e+001 29200 103853,103637,103493
 1.2000e+000 103686 -1.3640e+002 -8.8038e+001 -3.9913e+001 29200 103493,103637,103519
 1.2000e+000 103735 -1.0849e+002 -4.3777e+000 -1.6038e+001 29200 103519,103637,103709
 1.2000e+000 103758 -9.8256e+001  1.1468e+001 -1.1635e+001 29200 103519,103709,103389
 1.2000e+000 103807 -1.0589e+002 -3.2014e+001  5.8740e-001 29200 103415,103637,103781
 1.2000e+000 103830 -1.2475e+002 -3.6747e+001 -3.6782e+000 29200 103415,103781,103441
 1.2000e+000 103879 -7.5028e+001 -3.5954e+001  3.0994e+000 29200 103467,103637,103853
 1.2000e+000 104545 -2.4382e+002 -2.3560e+001  2.9850e+001 28860 104274,104352,104326
 1.2000e+000 104522 -1.9667e+002 -6.5410e+001 -2.6524e+000 28860 104248,104352,104274
 1.2000e+000 104499 -1.4985e+002 -4.1065e+001 -1.2350e+001 28860 104248,104404,104352
 1.2000e+000 104476 -2.1406e+002 -8.8402e+001 -3.3453e+001 28860 104222,104404,104248
 1.2000e+000 104453 -1.4102e+002 -5.5023e+001 -2.1997e+001 28860 104352,104404,104378
 1.2000e+000 104430 -4.2527e+002 -6.5541e+001  1.6098e+001 28860 104274,104326,104300
 1.2000e+000 104744 -8.1581e+001  4.3428e-001  1.6299e+001 28456 104839,104767,104646
 1.2000e+000 104721 -4.8529e+001 -3.3126e+000  1.4102e+001 28456 104767,104594,104568
 1.2000e+000 104698 -7.9999e+001 -1.8302e+001  3.3187e+000 28456 104839,104646,104620
 1.2000e+000 104793 -7.0535e+001 -7.2703e+000  2.7734e+001 28456 104672,104646,104767
 1.2000e+000 104816 -5.2179e+001 -5.3817e+000  1.5615e+001 28456 104911,104767,104568
 1.2000e+000 104865 -7.7102e+001 -9.3473e+000  7.0112e+000 28456 104594,104767,104839
 1.2000e+000 104888 -8.7293e+001 -5.7593e+001  2.9315e+000 28456 105041,104839,104620
 1.2000e+000 104937 -8.2284e+001 -5.8407e+001  2.7803e+001 28456 104672,104767,104911
 1.2000e+000 105067 -7.4404e+001 -7.8438e+000  5.9065e+000 28456 104594,104839,105041
 1.2000e+000 105573 -1.7407e+002 -2.5242e+001  1.8524e+001 28094 105812,105596,105328
 1.2000e+000 105550 -1.7622e+002 -3.3277e+001  1.1270e+001 28094 105596,105276,105250
 1.2000e+000 105527 -1.4179e+002 -1.8856e+001  3.3868e+001 28094 105740,105668,105432
 1.2000e+000 105504 -1.4025e+002 -1.3517e+001  3.4205e+001 28094 105740,105432,105380
 1.2000e+000 105481 -1.7629e+002 -2.3737e+001  1.7311e+001 28094 105812,105328,105302
 1.2000e+000 105458 -8.4661e+001 -3.7876e+001  3.2453e+001 28094 105380,105432,105406
 1.2000e+000 105622 -2.2569e+002 -5.6808e+001  4.2371e+001 28094 105354,105328,105596
 1.2000e+000 105645 -1.5319e+002 -2.3814e+001  2.6989e+001 28094 105668,105354,105596
 1.2000e+000 105694 -1.5297e+002 -1.9927e+001  1.9605e+001 28094 105250,105432,105668
 1.2000e+000 105717 -1.7993e+002 -2.2308e+001  1.3573e+001 28094 105250,105668,105596
 1.2000e+000 105766 -1.4147e+002 -2.3824e+001  2.4059e+001 28094 105354,105668,105740
 1.2000e+000 105789 -1.3788e+002 -1.4569e+001  2.4356e+001 28094 105354,105740,105380
 1.2000e+000 105838 -1.7619e+002 -2.8133e+001  1.7587e+001 28094 105276,105596,105812
 1.2000e+000 105861 -1.8232e+002 -2.8203e+001  1.4410e+001 28094 105276,105812,105302
 1.2000e+000 106367 -1.3632e+002 -2.5732e+001 -1.2336e+001 27390 106070,106122,106096
 1.2000e+000 106344 -1.5139e+002 -3.6536e+001 -6.4179e+000 27390 106070,106226,106122
 1.2000e+000 106321 -1.8042e+002 -5.8962e+000 -7.5052e+000 27390 106174,106226,106200
 1.2000e+000 106298 -1.5617e+002 -4.0598e+001 -1.0548e+001 27390 106122,106226,106174
 1.2000e+000 106275 -2.0029e+002 -6.4298e+001 -5.6636e+001 27390 106122,106174,106148
 1.2000e+000 106252 -1.3100e+002 -2.6003e+001  3.4405e-001 27390 106044,106226,106070
 1.2000e+000 106615 -2.1629e+002 -5.3601e+001 -1.4732e+000 26978 106638,106494,106416
 1.2000e+000 106592 -2.2400e+002 -5.4687e+001 -2.9782e+000 26978 106638,106416,106390
 1.2000e+000 106569 -2.1999e+002 -6.1935e+001 -1.9048e+001 26978 106416,106494,106442
 1.2000e+000 106546 -2.3861e+002 -6.6736e+001 -1.9170e+001 26978 106442,106494,106468
 1.2000e+000 106664 -1.9861e+002 -5.5426e+001 -1.0230e+000 26978 106520,106494,106638
 1.2000e+000 106687 -2.1449e+002 -6.2240e+001 -3.5267e+000 26978 106520,106638,106390
 1.2000e+000 106837 -3.2684e+002 -1.5247e+002 -1.8440e+001 26524 106710,106762,106736
 1.2000e+000 106814 -3.3511e+002 -1.6165e+002 -1.4821e+001 26524 106710,106788,106762
 1.2000e+000 107426 -9.7617e+001 -8.6994e+000 -2.6512e+001 26120 107129,107207,107155
 1.2000e+000 107403 -1.2859e+002 -3.9435e+001 -1.3081e+001 26120 107129,107285,107207
 1.2000e+000 107380 -1.2291e+002 -1.6112e+001 -1.8507e+001 26120 107207,107285,107259
 1.2000e+000 107357 -8.1033e+001 -1.9780e+001  6.4999e+000 26120 107155,107207,107181
 1.2000e+000 107334 -1.8332e+002 -6.0881e+001 -1.2274e+001 26120 107103,107285,107129
 1.2000e+000 107311 -1.0418e+002  6.1090e+000 -9.7998e+000 26120 107207,107259,107233
 1.2000e+000 107755 -7.8542e+001  5.3880e-001 -8.7502e+000 25758 107556,107634,107608
 1.2000e+000 107732 -1.5293e+002 -3.4994e+001  1.2667e+001 25758 107556,107660,107634
 1.2000e+000 107709 -5.2540e+001 -1.7392e+001  1.8319e+001 25758 107556,107608,107582
 1.2000e+000 107686 -1.2758e+002  6.1248e+001  4.3809e+001 25758 107530,107660,107556
 1.2000e+000 108438 -6.7075e+001 -1.3680e+001  8.4631e+000 25468 108121,108199,108173
 1.2000e+000 108415 -8.2804e+001 -5.6745e+001  1.7945e+000 25468 108095,108199,108121
 1.2000e+000 108392 -9.3143e+001 -3.8663e+001 -1.4760e+000 25468 108095,108251,108199
 1.2000e+000 108369 -1.1067e+002 -5.7419e+001  8.2073e+000 25468 108069,108251,108095
 1.2000e+000 108346 -6.7004e+001 -3.0105e+001  1.1998e+001 25468 108199,108251,108225
 1.2000e+000 108323 -1.3939e+002 -2.9199e+001 -1.3929e+001 25468 108017,108251,108069
 1.2000e+000 108300 -5.9000e+001 -1.7069e+001  1.4125e+001 25468 108121,108173,108147
 1.2000e+000 108277 -1.4596e+002 -4.2464e+001 -1.1742e+001 25468 108017,108069,108043
 1.2000e+000 108588 -6.3868e+001 -2.5080e+001 -1.0200e+001 25064 108611,108513,108487
 1.2000e+000 108565 -7.9762e+000  9.2408e+000  4.2882e+000 25064 108683,108611,108487
 1.2000e+000 108637 -8.1594e+001  2.5674e+000  4.5070e+000 25064 108539,108513,108611
 1.2000e+000 108660 -8.0257e+001  1.2062e+001  1.1372e+001 25064 108539,108611,108461
 1.2000e+000 108709 -9.0233e+001 -1.2957e+001  1.3078e+001 25064 108461,108611,108683
 1.2000e+000 109345 -1.2687e+002 -9.8871e+000  1.7978e+001 24410 108999,109155,109103
 1.2000e+000 109322 -2.6909e+002 -5.2803e+001  4.0920e+001 24410 108973,109155,108999
 1.2000e+000 109299 -1.2379e+002 -4.0800e+001  1.7255e+001 24410 109103,109155,109129
 1.2000e+000 109276 -1.3764e+002  1.8731e+001  8.7388e+000 24410 108973,109181,109155
 1.2000e+000 109253 -2.4222e+002 -6.7230e+001  5.2492e+001 24410 109025,109103,109077
 1.2000e+000 109230 -1.8682e+002 -5.4731e+001  3.7946e+001 24410 108999,109103,109025
 1.2000e+000 109207 -2.8249e+002  1.0729e+001  3.2597e+001 24410 109025,109077,109051
 1.2000e+000 109723 -1.6339e+002  2.4853e+001  3.2201e+000 23856 109475,109579,109553
 1.2000e+000 109700 -1.6269e+002 -1.9124e+001 -1.1869e+000 23856 109475,109605,109579
 1.2000e+000 109677 -1.8656e+002 -3.9182e+000 -5.8340e+001 23856 109475,109553,109527
 1.2000e+000 109654 -8.4237e+001  1.4563e+001  1.7181e+001 23856 109449,109605,109475
 1.2000e+000 109631 -9.5957e+001  4.0477e+001 -3.9100e+001 23856 109475,109527,109501
 1.2000e+000 110101 -1.3553e+002 -2.9097e+001  1.1367e+001 23566 109853,109931,109879
 1.2000e+000 110078 -1.2566e+002 -2.1306e+001  1.6261e+001 23566 109827,109931,109853
 1.2000e+000 110055 -7.7086e+001  2.9519e+001 -3.5963e+000 23566 109827,109983,109931
 1.2000e+000 110032 -1.3352e+002 -4.9634e+001 -6.4545e+000 23566 109879,109931,109905
 1.2000e+000 110009 -7.1929e+001  1.2820e+001  2.2223e+001 23566 109931,109983,109957
 1.2000e+000 110735 -1.3772e+002 -2.8616e+001  2.0330e+000 23162 110415,110571,110519
 1.2000e+000 110712 -1.3779e+002 -3.3710e+001  1.6867e+000 23162 110389,110571,110415
 1.2000e+000 110689 -2.1693e+002 -6.0776e+001  7.1269e+000 23162 110415,110519,110493
 1.2000e+000 110666 -1.0901e+002 -3.5110e+001 -1.9030e+001 23162 110363,110571,110389
 1.2000e+000 110643 -1.8657e+002 -2.4102e+001  3.2204e+001 23162 110441,110493,110467
 1.2000e+000 110620 -2.0090e+002 -5.0770e+001  2.6446e+000 23162 110415,110493,110441
 1.2000e+000 110597 -1.4352e+002 -1.1186e+001  6.6210e+000 23162 110519,110571,110545
 1.2000e+000 111211 -1.4242e+002  1.2660e+000 -2.3807e+001 22708 111378,111306,111021
 1.2000e+000 111188 -1.5158e+002  4.6321e+000 -1.6879e+001 22708 111234,110969,110917
 1.2000e+000 111165 -1.2501e+002 -6.5367e+000 -1.4744e+001 22708 111450,111234,110917
 1.2000e+000 111142 -1.3611e+002  9.5976e+000 -1.3577e+001 22708 111378,111021,110995
 1.2000e+000 111119 -1.2530e+002 -2.2973e+001  1.2331e+000 22708 111450,110917,110865
 1.2000e+000 111096 -3.4521e+002 -2.8727e+001 -1.5040e+001 22708 110917,110969,110943
 1.2000e+000 111073 -1.2390e+002 -3.4652e+001 -3.6203e+000 22708 110865,110917,110891
 1.2000e+000 111260 -1.5329e+002  1.4697e+001 -1.1591e+001 22708 111306,110969,111234
 1.2000e+000 111283 -1.5131e+002 -1.5692e+001  1.3180e+001 22708 111047,111234,110839
 1.2000e+000 111332 -2.4827e+002  9.5918e+001 -1.0475e+002 22708 111047,111021,111306
 1.2000e+000 111355 -1.9737e+002 -7.1480e+000  8.0237e+000 22708 111047,111306,111234
 1.2000e+000 111404 -1.5901e+002  1.2840e+001 -2.2512e+001 22708 110969,111306,111378
 1.2000e+000 111427 -1.5530e+002  8.2525e+000 -1.9055e+001 22708 110969,111378,110995
 1.2000e+000 111476 -1.3903e+002 -3.0255e+001  4.7150e+000 22708 110839,111234,111450
 1.2000e+000 111499 -1.4817e+002 -5.6375e+001  2.2017e+001 22708 110839,111450,110865
 1.2000e+000 111600 -2.0378e+002 -4.7658e+001  1.6351e+001 22460 111522,111574,111548
 1.2000e+000 112059 -1.3479e+002 -1.5514e+001  8.1719e+000 22056 111811,111889,111863
 1.2000e+000 112036 -1.9323e+002 -4.4331e+001  2.2380e+001 22056 111811,111915,111889
 1.2000e+000 112013 -1.4306e+002 -7.7397e+001 -4.0472e+001 22056 111785,111915,111811
 1.2000e+000 111990 -8.1724e+001 -5.3307e+001 -4.4746e+001 22056 111785,111941,111915
 1.2000e+000 111967 -6.4751e+001  2.0687e+001 -3.0868e+001 22056 111811,111863,111837
 1.2000e+000 112486 -1.9850e+002 -1.9630e+001  1.2591e+000 21594 112509,112267,112215
 1.2000e+000 112463 -1.9578e+002 -1.5958e+001 -1.3786e+001 21594 112509,112215,112163
 1.2000e+000 112440 -1.8584e+002 -5.9681e+001  2.4498e+001 21594 112581,112293,112267
 1.2000e+000 112417 -1.4875e+002 -6.4034e+001 -8.5136e+000 21594 112215,112267,112241
 1.2000e+000 112394 -2.3297e+002 -1.0612e+001 -3.4333e+001 21594 112163,112345,112319
 1.2000e+000 112371 -1.8214e+002  2.2048e+001 -1.2717e+001 21594 112163,112215,112189
 1.2000e+000 112535 -2.0776e+002 -3.9230e+001  4.5176e+000 21594 112581,112267,112509
 1.2000e+000 112558 -1.9544e+002 -3.5499e+001 -1.6367e+001 21594 112319,112509,112163
 1.2000e+000 112607 -1.4906e+002 -4.0276e+001  1.6934e+001 21594 112319,112293,112581
 1.2000e+000 112630 -1.6992e+002 -1.4541e+001 -6.1908e+000 21594 112319,112581,112509
 1.2000e+000 112900 -1.3849e+002  2.6674e+001 -1.6120e+000 20974 112675,112779,112701
 1.2000e+000 112877 -1.3999e+002  5.9094e+001 -1.9344e+001 20974 112675,112805,112779
 1.2000e+000 112854 -1.6201e+002 -3.9685e+001 -2.0671e+001 20974 112701,112779,112753
 1.2000e+000 112831 -1.8218e+002 -6.6846e+001 -6.1588e+000 20974 112701,112753,112727
 1.2000e+000 113359 -8.4919e+001  4.8740e+001  5.3428e+001 20520 113454,113137,113111
 1.2000e+000 113336 -1.2095e+002  1.3811e+001  3.6141e+001 20520 113454,113111,113085
 1.2000e+000 113313 -8.1269e+001 -1.8454e+001  4.1679e+001 20520 113382,113163,113137
 1.2000e+000 113290 -9.9834e+001 -1.8170e+001  4.2173e+001 20520 113526,113382,113137
 1.2000e+000 113267 -6.4998e+001  1.2507e+001  1.2014e+001 20520 113189,113241,113215
 1.2000e+000 113408 -7.9147e+001 -8.1909e+000  2.9113e+001 20520 113189,113163,113382
 1.2000e+000 113431 -9.4480e+001 -1.7068e+001  2.3925e+001 20520 113189,113382,113241
 1.2000e+000 113480 -1.0865e+002 -4.8815e-001  3.6136e+001 20520 113526,113137,113454
 1.2000e+000 113503 -1.0371e+002  1.1290e+001  2.0976e+001 20520 113241,113454,113085
 1.2000e+000 113552 -8.2156e+001  7.7519e+000  3.2090e+001 20520 113241,113382,113526
 1.2000e+000 113575 -9.1328e+001  2.1597e+001  2.5396e+001 20520 113241,113526,113454
 1.2000e+000 113904 -2.1855e+001 -1.5440e+001 -3.3671e+001 19858 113705,113783,113757
 1.2000e+000 113881 -6.5446e+001 -2.1281e+001 -1.7626e+001 19858 113705,113809,113783
 1.2000e+000 113858 -4.6922e+001 -1.1438e+001 -2.4600e+001 19858 113679,113809,113705
 1.2000e+000 113835 -2.1660e+001  1.0504e+001  6.1975e+000 19858 113705,113757,113731
 1.2000e+000 114152 -1.7909e+002 -7.2991e+001 -3.4714e+001 19454 114175,114005,113979
 1.2000e+000 114129 -1.8641e+002 -7.2789e+001 -3.7267e+001 19454 114175,113979,114057
 1.2000e+000 114106 -1.8413e+002 -2.5828e+001  3.3806e+001 19454 113927,114057,113979
 1.2000e+000 114083 -1.4746e+002 -2.6039e+001  1.4316e-001 19454 113927,113979,113953
 1.2000e+000 114201 -1.4999e+001 -2.6524e+000 -6.1416e+000 19454 114031,114005,114175
 1.2000e+000 114224 -1.8127e+002 -8.3442e+001 -3.5853e+001 19454 114031,114175,114057
 1.2000e+000 114472 -1.1033e+002 -3.6323e+001 -1.1137e+001 19000 114495,114273,114247
 1.2000e+000 114449 -1.1581e+002 -2.8689e+001 -1.5569e+001 19000 114495,114247,114325
 1.2000e+000 114426 -1.3815e+002 -3.7288e+001  2.5521e+000 19000 114247,114377,114325
 1.2000e+000 114403 -1.2876e+002 -1.6552e+001  4.7949e+000 19000 114325,114377,114351
 1.2000e+000 114521 -9.6887e+001 -3.0023e+001 -1.3983e+001 19000 114299,114273,114495
 1.2000e+000 114544 -1.1307e+002 -2.6527e+001 -1.6567e+001 19000 114299,114495,114325
 1.2000e+000 114948 -2.1373e+002 -4.3773e+001 -1.4948e+001 18560 114674,114726,114700
 1.2000e+000 114925 -2.1093e+002 -6.9508e+001 -1.5266e+001 18560 114674,114830,114726
 1.2000e+000 114902 -2.2346e+002 -1.0159e+002 -2.8536e+001 18560 114726,114830,114804
 1.2000e+000 114879 -1.5641e+002 -5.9814e+001 -4.2814e+000 18560 114726,114804,114752
 1.2000e+000 114856 -1.8195e+002 -7.8424e+001  5.3469e+000 18560 114752,114804,114778
 1.2000e+000 115098 -1.7642e+002 -3.4320e+001 -1.5703e+001 18156 114971,115023,114997
 1.2000e+000 115075 -1.9219e+002 -2.3886e+001 -9.4205e+000 18156 114971,115049,115023
 1.2000e+000 115248 -1.9287e+002  4.7301e+000  1.1656e+001 17602 115147,115199,115173
 1.2000e+000 115225 -1.0647e+002 -2.5712e+001 -3.2235e-001 17602 115121,115199,115147
 1.2000e+000 115652 -1.5313e+002 -7.8598e+001 -5.1612e+000 17354 115430,115534,115508
 1.2000e+000 115629 -1.4938e+002 -4.3481e+001 -1.0566e+001 17354 115404,115534,115430
 1.2000e+000 115606 -1.2437e+002  2.7156e+000  2.9434e+000 17354 115378,115534,115404
 1.2000e+000 115583 -2.4627e+002 -4.9038e+001  2.4282e+001 17354 115456,115508,115482
 1.2000e+000 115560 -1.3711e+002 -4.5937e+001  8.3663e-001 17354 115430,115508,115456
 1.2000e+000 115873 -1.0706e+002 -2.7641e+001  1.8312e+001 16950 115749,115801,115775
 1.2000e+000 115850 -1.4708e+002 -2.6123e+001  1.8484e+001 16950 115697,115801,115749
 1.2000e+000 115827 -1.5515e+002 -6.8802e+001  2.2900e+001 16950 115697,115749,115723
 1.2000e+000 116023 -2.4424e+002 -2.1802e+001  1.4926e+001 16496 115922,115974,115948
 1.2000e+000 116000 -1.3086e+002 -4.2382e+001  1.2224e+001 16496 115896,115974,115922
 1.2000e+000 116126 -2.2860e+002 -1.6019e+000 -1.7802e+001 16298 116048,116100,116074
 1.2000e+000 116278 -3.4803e+002 -6.3298e-001 -2.4140e+000 15892 116151,116203,116177
 1.2000e+000 116255 -3.2925e+002 -1.9263e+001 -3.5648e+001 15892 116151,116229,116203
 1.2000e+000 116430 -1.9466e+002 -1.5048e+002 -8.4979e-001 15545 116303,116355,116329
 1.2000e+000 116407 -1.5602e+002 -6.9233e+001  3.7355e+001 15545 116303,116381,116355
 1.2000e+000 116785 -3.5962e+001  2.0199e+001 -7.4840e+000 421 116612,116690,116664
 1.2000e+000 116762 -4.7115e+001 -4.7256e+000  1.6489e+001 421 116560,116690,116612
 1.2000e+000 116739 -2.9446e+001  9.9662e+000  1.5377e+000 421 116560,116612,116586
 1.2000e+000 116716  8.9163e+000 -2.7900e+000  3.5413e+000 421 116612,116664,116638
 1.3000e+000 68048 -1.8544e+002 -4.6118e+001 -4.0762e+000 67642 67898,67950,67924
 1.3000e+000 68025 -2.0169e+002 -6.6598e+001  4.4028e+000 67642 67898,67976,67950
 1.3000e+000 68002 -1.4116e+002 -3.8056e+001 -4.6002e+000 67642 67872,67976,67898
 1.3000e+000 68367 -8.5823e+001  4.8659e+000  1.1331e+001 67444 68119,68223,68197
 1.3000e+000 68344 -9.0496e+001 -3.2738e+001  8.5567e+000 67444 68119,68249,68223
 1.3000e+000 68321 -7.9315e+000  1.2163e+000  6.6819e+000 67444 68093,68249,68119
 1.3000e+000 68298 -1.0357e+002 -2.9013e+001 -5.0140e+000 67444 68119,68197,68171
 1.3000e+000 68275 -8.1038e+001 -9.0130e+000  4.4621e+000 67444 68119,68171,68145
 1.3000e+000 68468 -1.1223e+002  2.4564e+000  3.6130e-001 67268 68390,68442,68416
 1.3000e+000 68765 -1.5944e+002  1.4598e+001  7.0023e+000 66956 68788,68517,68491
 1.3000e+000 68742 -1.5648e+002 -1.8718e+001  4.4546e-001 66956 68788,68491,68621
 1.3000e+000 68719 -1.8324e+002 -3.9875e+001 -4.4306e+001 66956 68543,68621,68569
 1.3000e+000 68696 -1.5435e+002 -1.2698e+001  8.6425e-001 66956 68491,68647,68621
 1.3000e+000 68673 -2.6664e+002 -8.3375e+001 -7.0610e+001 66956 68569,68621,68595
 1.3000e+000 68814 -1.5097e+002 -1.1295e+001  1.6545e+001 66956 68543,68517,68788
 1.3000e+000 68837 -1.4739e+002 -4.3950e+001  7.0515e+000 66956 68543,68788,68621
 1.3000e+000 69107 -1.2866e+002 -1.3444e+002 -1.0854e+001 66758 68882,68986,68908
 1.3000e+000 69084 -6.1871e+001 -9.2558e+001  1.3403e+001 66758 68882,69012,68986
 1.3000e+000 69061 -3.0779e+002 -5.9496e+001 -2.7353e+001 66758 68908,68960,68934
 1.3000e+000 69038 -1.0747e+002 -6.8278e+001 -1.9644e+001 66758 68908,68986,68960
 1.3000e+000 69308 -1.0818e+002  3.7525e+000 -4.4702e-001 66560 69331,69184,69158
 1.3000e+000 69285 -1.2228e+002  3.6805e+000 -2.5044e+000 66560 69331,69158,69132
 1.3000e+000 69262 -1.0817e+002 -2.5384e+001 -9.7532e-001 66560 69184,69236,69210
 1.3000e+000 69357 -9.9580e+001  1.5967e+000  2.1337e-001 66560 69236,69184,69331
 1.3000e+000 69380 -1.0769e+002  5.5244e+000 -3.4890e+000 66560 69236,69331,69132
 1.3000e+000 69554 -2.1890e+001 -7.5262e+000  9.8127e+000 66270 69427,69479,69453
 1.3000e+000 69531 -1.5534e+000  4.0027e+001  1.9175e+001 66270 69427,69505,69479
 1.3000e+000 69804 -7.2651e+001 -6.0644e+000  2.9451e+001 66066 69579,69683,69657
 1.3000e+000 69781 -1.0233e+002 -1.5149e+001 -3.7826e-001 66066 69579,69709,69683
 1.3000e+000 69758 -4.4674e+000 -2.0768e+000 -5.8721e+000 66066 69579,69657,69631
 1.3000e+000 69735 -2.8039e+000 -1.2195e-001  1.8870e-001 66066 69579,69631,69605
 1.3000e+000 70257 -5.9624e+001  3.8360e+001 -4.8837e+001 65776 69960,70090,69986
 1.3000e+000 70234 -6.1682e+001  1.5238e-001 -2.7494e+001 65776 69934,70090,69960
 1.3000e+000 70211 -4.0894e+001  2.5275e+001 -8.1621e+000 65776 69934,70116,70090
 1.3000e+000 70188 -6.9926e+001  6.2090e+001  0.0000e+000 65776 70038,70090,70064
 1.3000e+000 70165 -6.8757e+001  8.9949e+001 -3.0382e+001 65776 69986,70090,70038
 1.3000e+000 70142 -9.4534e+001  1.0109e+001 -5.3718e+001 65776 69986,70038,70012
 1.3000e+000 70456 -4.6757e+001  1.4349e+001  2.0556e+001 65372 70479,70306,70280
 1.3000e+000 70433 -2.9933e+001  3.4962e+001  1.1740e+001 65372 70479,70280,70384
 1.3000e+000 70410 -2.8999e+001  2.1504e+001  3.0541e+000 65372 70551,70332,70306
 1.3000e+000 70505 -2.9728e+001  1.5701e+001  7.2345e+000 65372 70551,70306,70479
 1.3000e+000 70528 -2.3159e+001  2.5226e+001  4.7250e+000 65372 70358,70479,70384
 1.3000e+000 70577 -3.1780e+001  2.9438e+001  3.4409e+000 65372 70358,70332,70551
 1.3000e+000 70600 -2.9688e+001  2.6416e+001  6.9387e+000 65372 70358,70551,70479
 1.3000e+000 70821 -9.3184e+001 -6.0506e+001 -5.0999e+000 65174 70645,70723,70671
 1.3000e+000 70798 -1.0691e+002 -5.8080e+001  1.2485e+001 65174 70645,70749,70723
 1.3000e+000 70775 -8.4397e+001 -4.4860e+001 -9.6364e+000 65174 70671,70723,70697
 1.3000e+000 71071 -1.1700e+002 -2.2862e+001 -1.6406e+001 64770 71094,70898,70872
 1.3000e+000 71048 -9.3169e+001 -1.7093e+001 -5.3744e+000 64770 71166,71094,70872
 1.3000e+000 71025 -8.7987e+001 -2.3037e+001 -1.0728e+001 64770 71166,70872,70846
 1.3000e+000 71002 -1.5226e+002 -1.9253e+001 -1.3034e+001 64770 70898,70950,70924
 1.3000e+000 71120 -1.0154e+002  2.7562e-001 -9.2996e+000 64770 70950,70898,71094
 1.3000e+000 71143 -9.4351e+001 -1.7191e+001  2.5161e+000 64770 70950,71094,70976
 1.3000e+000 71192 -1.0152e+002 -2.9406e+001 -1.5609e+000 64770 70976,71094,71166
 1.3000e+000 71215 -9.4382e+001 -3.0697e+001 -7.8366e+000 64770 70976,71166,70846
 1.3000e+000 71514 -1.3041e+002 -1.5400e+001 -1.0515e+001 64572 71681,71537,71318
 1.3000e+000 71491 -1.5784e+002  2.8117e+001 -5.1306e+000 64572 71537,71266,71240
 1.3000e+000 71468 -1.4671e+002  7.1482e+000 -4.1260e+001 64572 71609,71396,71370
 1.3000e+000 71445 -1.1361e+002 -4.9459e+001  3.1203e+000 64572 71681,71318,71292
 1.3000e+000 71422 -7.1396e+001 -3.0513e+001 -1.6969e+001 64572 71753,71344,71318
 1.3000e+000 71563 -7.7972e+001  1.1301e+001 -4.8010e+001 64572 71753,71318,71537
 1.3000e+000 71586 -1.3884e+002  9.2352e+000 -4.0746e+001 64572 71609,71370,71537
 1.3000e+000 71635 -1.5834e+002 -4.5741e+000 -1.5689e+001 64572 71240,71396,71609
 1.3000e+000 71658 -1.2980e+002  6.5735e+000 -1.9300e+001 64572 71240,71609,71537
 1.3000e+000 71707 -1.2307e+002  4.1256e+001 -6.4430e+000 64572 71266,71537,71681
 1.3000e+000 71730 -1.0300e+002  1.5229e+001  2.0232e+001 64572 71266,71681,71292
 1.3000e+000 71779 -1.0090e+001  9.6404e+000 -4.1018e+001 64572 71370,71344,71753
 1.3000e+000 71802 -4.2198e+001  2.6879e+001 -5.4226e+001 64572 71370,71753,71537
 1.3000e+000 72052 -7.4107e+001 -3.0709e+001 -1.1877e+001 64374 72075,71879,71827
 1.3000e+000 72029 -7.9359e+001 -2.8216e+001 -1.9838e+001 64374 72147,72075,71827
 1.3000e+000 72006 -7.8545e+001 -1.7350e+001 -1.0184e+001 64374 72147,71827,71957
 1.3000e+000 71983 -6.9443e+001 -1.0803e+001 -1.2173e+001 64374 71827,71879,71853
 1.3000e+000 72101 -7.5773e+001 -3.7776e+001 -1.0403e+001 64374 71905,71879,72075
 1.3000e+000 72124 -9.2468e+001 -2.8937e+001 -2.4377e+001 64374 71905,72075,71931
 1.3000e+000 72173 -7.6967e+001 -3.9155e+000 -1.7303e+001 64374 71931,72075,72147
 1.3000e+000 72196 -8.1974e+001  3.4661e+000 -1.0939e+001 64374 71931,72147,71957
 1.3000e+000 72649 -1.3243e+002 -3.3872e+001  1.0599e+001 63948 72352,72508,72482
 1.3000e+000 72626 -1.4475e+002 -6.3168e+001 -2.0692e+001 63948 72326,72508,72352
 1.3000e+000 72603 -1.2090e+002 -3.7481e+001 -6.3322e+000 63948 72672,72430,72378
 1.3000e+000 72580 -9.9899e+001 -1.3311e+001 -1.5846e+001 63948 72672,72378,72352
 1.3000e+000 72557 -1.1469e+002 -5.8458e+001 -1.6695e+000 63948 72744,72456,72430
 1.3000e+000 72534 -1.1925e+002 -1.1392e+001  1.2907e+001 63948 72378,72430,72404
 1.3000e+000 72698 -1.1229e+002 -5.3840e+001  7.5879e-001 63948 72744,72430,72672
 1.3000e+000 72721 -1.0569e+002 -3.3327e+001  4.2066e+000 63948 72482,72672,72352
 1.3000e+000 72770 -1.2554e+002 -4.9546e+001 -4.6029e-001 63948 72482,72456,72744
 1.3000e+000 72793 -1.1698e+002 -3.8132e+001  3.6932e+000 63948 72482,72744,72672
 1.3000e+000 72894 -1.3364e+002 -9.5036e+000  1.0199e+001 63494 72816,72868,72842
 1.3000e+000 73093 -6.9200e+001  6.8613e+000 -7.5965e+000 63132 72943,72995,72969
 1.3000e+000 73070 -1.6662e+002 -3.1161e+001 -1.9333e+000 63132 72943,73021,72995
 1.3000e+000 73047 -1.6411e+002 -1.4371e+001 -4.0837e+000 63132 72917,73021,72943
 1.3000e+000 73294 -7.9683e+001  1.1484e+001  6.7237e+000 62792 73317,73144,73118
 1.3000e+000 73271 -7.2841e+001  2.1391e+001 -4.7650e+000 62792 73317,73118,73222
 1.3000e+000 73248 -8.5860e+000 -3.0419e+000 -1.5469e-001 62792 73144,73196,73170
 1.3000e+000 73343 -6.4894e+001  4.5777e+000 -5.3672e+000 62792 73196,73144,73317
 1.3000e+000 73366 -5.6135e+001  2.0574e+001 -1.7740e+001 62792 73196,73317,73222
 1.3000e+000 73616 -1.2271e+002 -1.6004e+001  1.2289e+001 62388 73639,73417,73391
 1.3000e+000 73593 -1.1710e+002 -3.5279e+000  8.1700e+000 62388 73711,73639,73391
 1.3000e+000 73570 -1.2008e+002  1.3058e+001  8.6335e+000 62388 73711,73391,73521
 1.3000e+000 73547 -1.1073e+002 -3.5396e+000 -2.0978e+001 62388 73469,73521,73495
 1.3000e+000 73665 -1.0269e+002 -7.1733e+000  1.4416e+001 62388 73443,73417,73639
 1.3000e+000 73688 -1.1701e+002 -2.0046e+001  7.9484e+000 62388 73443,73639,73469
 1.3000e+000 73737 -1.2138e+002 -1.5699e+001  4.2202e+000 62388 73469,73639,73711
 1.3000e+000 73760 -1.2727e+002 -5.4446e+000  6.2283e+000 62388 73469,73711,73521
 1.3000e+000 74010 -1.4709e+002 -3.7630e+001 -3.2116e+001 61848 74033,73837,73811
 1.3000e+000 73987 -6.0333e+001 -2.9931e+001  5.5194e+000 61848 74033,73811,73785
 1.3000e+000 73964 -1.1796e+002  4.7206e+000  1.7478e+001 61848 73837,73915,73889
 1.3000e+000 73941 -2.2446e+002 -2.1673e+001 -3.4077e+001 61848 73837,73889,73863
 1.3000e+000 74059 -1.5629e+002 -7.1228e+000 -1.2086e+001 61848 73915,73837,74033
 1.3000e+000 74082 -1.4852e+002  1.3980e+001  6.7157e-001 61848 73915,74033,73785
 1.3000e+000 74283 -1.3499e+002 -1.6811e+000 -2.1522e+001 61444 74306,74133,74107
 1.3000e+000 74260 -1.4982e+002  3.7376e-004  2.3461e+001 61444 74306,74107,74211
 1.3000e+000 74237 -1.5897e+002 -5.0603e+001  3.5485e+001 61444 74378,74185,74159
 1.3000e+000 74332 -1.8712e+002 -2.4070e+001 -2.2681e+001 61444 74159,74133,74306
 1.3000e+000 74355 -1.7880e+002 -2.0476e+001  2.6661e+001 61444 74378,74159,74306
 1.3000e+000 74404 -1.5471e+002 -1.8804e+001  1.8969e+001 61444 74211,74185,74378
 1.3000e+000 74427 -1.6137e+002 -7.2471e+000  2.0157e+001 61444 74211,74378,74306
 1.3000e+000 74628 -9.6403e+001 -4.0821e+000  2.8181e+001 60990 74478,74530,74504
 1.3000e+000 74605 -2.3363e+001  1.0280e+001  2.1152e+001 60990 74452,74530,74478
 1.3000e+000 74582 -1.1816e+002 -6.8238e+000  2.6595e+001 60990 74452,74556,74530
 1.3000e+000 75089 -2.1210e+001  3.0405e+000 -8.9038e+000 60486 75112,74945,74919
 1.3000e+000 75066 -3.9470e+001  1.3600e+001  1.2963e+001 60486 75112,74919,74867
 1.3000e+000 75043 -5.5403e+001 -4.7481e+000  1.4360e+001 60486 74841,74971,74867
 1.3000e+000 75020 -1.3140e+002 -8.6755e+000 -5.7165e+000 60486 74867,74919,74893
 1.3000e+000 74997 -2.3303e+001  1.9290e+000  1.0096e+001 60486 74815,74971,74841
 1.3000e+000 75138 -4.8251e+001 -8.9761e+000 -1.1065e+001 60486 74971,74945,75112
 1.3000e+000 75161 -5.9000e+001  4.6072e+000  9.7427e+000 60486 74971,75112,74867
 1.3000e+000 75409 -9.5309e+001 -2.6570e+001 -1.2809e+001 59932 75576,75432,75288
 1.3000e+000 75386 -1.2599e+002 -2.9613e+001 -2.9307e+001 59932 75504,75314,75288
 1.3000e+000 75363 -7.1097e+001  4.7117e+000  1.3410e+001 59932 75432,75236,75210
 1.3000e+000 75340 -5.3078e+001 -5.5628e+000 -5.8962e+000 59932 75576,75288,75262
 1.3000e+000 75458 -1.2421e+002 -3.2184e+001 -2.8567e+001 59932 75504,75288,75432
 1.3000e+000 75481 -1.2451e+002 -2.2878e+001  3.1131e+000 59932 75184,75432,75210
 1.3000e+000 75530 -1.5651e+002 -3.8043e+001 -7.3541e+000 59932 75184,75314,75504
 1.3000e+000 75553 -1.1750e+002 -3.0161e+001 -2.4182e+001 59932 75184,75504,75432
 1.3000e+000 75602 -1.1999e+002 -7.8092e+000 -8.7534e+000 59932 75236,75432,75576
 1.3000e+000 75625 -1.1557e+002 -1.0532e+001 -1.1135e+001 59932 75236,75576,75262
 1.3000e+000 75873 -4.4788e+001 -2.2019e+001  3.2880e+001 59478 75674,75752,75700
 1.3000e+000 75850 -1.9193e+001 -1.1943e+001  1.1344e+001 59478 75648,75752,75674
 1.3000e+000 75827 -4.1272e+001 -1.0633e+000  4.3346e+001 59478 75700,75752,75726
 1.3000e+000 75804 -7.3472e+001  1.3622e+001  1.3570e+001 59478 75648,75778,75752
 1.3000e+000 76206 -4.0502e+001 -5.8493e+000 -7.6132e+000 59024 75981,76059,76007
 1.3000e+000 76183 -4.4629e+001 -1.2820e+000 -8.1723e+000 59024 75981,76111,76059
 1.3000e+000 76160 -5.0921e+001 -1.5773e+001 -2.4728e+000 59024 76007,76059,76033
 1.3000e+000 76137 -4.4505e+001 -6.1192e+000 -4.3613e+000 59024 76059,76111,76085
 1.3000e+000 76761 -8.4378e+001 -1.2543e+001  2.7224e+001 58562 76389,76441,76415
 1.3000e+000 76738 -1.1456e+002 -1.9063e+001 -3.8665e+000 58562 76856,76784,76389
 1.3000e+000 76715 -1.1694e+002 -1.7078e+001 -2.6344e+001 58562 76784,76571,76467
 1.3000e+000 76692 -1.6203e+002 -6.8596e+000 -7.3531e+000 58562 76856,76389,76597
 1.3000e+000 76669 -1.8624e+002 -7.0456e+001 -2.0867e+001 58562 76467,76545,76493
 1.3000e+000 76646 -1.1645e+002 -3.6539e+001 -3.2594e+001 58562 76467,76571,76545
 1.3000e+000 76623 -1.2069e+002 -1.4174e+001  4.9864e+000 58562 76493,76545,76519
 1.3000e+000 76810 -1.2086e+002 -2.9775e+001 -1.2579e+000 58562 76441,76389,76784
 1.3000e+000 76833 -1.0915e+002 -2.3487e+001  1.1774e+000 58562 76441,76784,76467
 1.3000e+000 76882 -1.6624e+002 -3.7459e+001 -2.6961e+001 58562 76571,76784,76856
 1.3000e+000 76905 -1.9556e+002 -1.2807e+001 -3.1588e+001 58562 76571,76856,76597
 1.3000e+000 77055 -1.7460e+002 -5.7871e+001  6.9346e+000 57844 76928,76980,76954
 1.3000e+000 77032 -1.3802e+002 -1.9953e+000 -1.0553e+001 57844 76928,77006,76980
 1.3000e+000 77533 -1.6352e+002 -5.9756e+001 -5.0968e+000 57226 77628,77556,77291
 1.3000e+000 77510 -1.6296e+002  3.0850e+001  8.5807e+000 57226 77556,77187,77343
 1.3000e+000 77487 -1.1103e+002 -5.7241e+001 -1.3063e+001 57226 77628,77291,77265
 1.3000e+000 77464 -9.0531e+001 -4.6850e+001 -2.5966e+001 57226 77700,77213,77187
 1.3000e+000 77441 -2.8214e+002 -1.0225e+001  1.8129e+001 57226 77161,77343,77187
 1.3000e+000 77418 -1.7527e+002 -1.2123e+001  1.2731e+001 57226 77161,77369,77343
 1.3000e+000 77395 -9.8357e+001 -1.8237e+001 -4.2225e+001 57226 77213,77265,77239
 1.3000e+000 77582 -1.7114e+002 -6.5619e+001  1.4030e+001 57226 77317,77291,77556
 1.3000e+000 77605 -1.9210e+002 -7.5278e+000 -4.1177e+000 57226 77317,77556,77343
 1.3000e+000 77654 -8.4249e+001 -1.3859e+001  1.3573e+001 57226 77187,77556,77628
 1.3000e+000 77677 -8.0728e+001 -4.9656e+001 -1.0739e+001 57226 77700,77187,77628
 1.3000e+000 77726 -1.2397e+002 -6.1465e+001 -3.1554e+001 57226 77265,77213,77700
 1.3000e+000 77749 -1.1326e+002 -6.1059e+001 -1.4161e+001 57226 77265,77700,77628
 1.3000e+000 78046 -1.6152e+002  1.5150e+001 -2.0953e+000 56936 77798,77850,77824
 1.3000e+000 78023 -1.5957e+002 -3.2498e+001 -1.4705e+001 56936 78069,77798,77902
 1.3000e+000 78000 -1.4643e+002 -3.6238e+001 -1.2522e+001 56936 78069,77902,77876
 1.3000e+000 77977 -2.0022e+002 -5.4195e+001 -3.7914e+001 56936 77798,77928,77902
 1.3000e+000 77954 -1.7485e+002 -2.4925e+001 -2.6595e+001 56936 77772,77928,77798
 1.3000e+000 78095 -1.6349e+002 -3.4912e+001 -1.3684e+001 56936 77850,77798,78069
 1.3000e+000 78118 -1.5733e+002 -4.1956e+001 -1.0171e+001 56936 77850,78069,77876
 1.3000e+000 78754 -5.9473e+001 -2.8950e+000  4.9529e+000 56475 78777,78486,78408
 1.3000e+000 78731 -1.2448e+002 -5.1442e+001  2.6745e+001 56475 78777,78408,78382
 1.3000e+000 78708 -9.8454e+001 -3.4959e+001 -3.0853e+001 56475 78849,78512,78486
 1.3000e+000 78685 -6.0349e+001  1.7924e+000 -5.2880e+000 56475 78382,78590,78564
 1.3000e+000 78662 -1.7123e+002 -3.5412e+001 -6.2331e+001 56475 78512,78564,78538
 1.3000e+000 78639 -7.2594e+001 -1.7872e+001  4.4903e+000 56475 78434,78486,78460
 1.3000e+000 78616 -6.6744e+001 -1.9724e+001  5.6530e+000 56475 78408,78486,78434
 1.3000e+000 78803 -1.0667e+002 -1.9600e+001 -1.2378e+001 56475 78849,78486,78777
 1.3000e+000 78826 -1.0241e+002  8.3356e+000  4.2044e+000 56475 78564,78777,78382
 1.3000e+000 78875 -8.6662e+001 -3.4223e+000 -2.8222e+001 56475 78564,78512,78849
 1.3000e+000 78898 -9.4247e+001  1.6861e+001 -1.3402e+001 56475 78564,78849,78777
 1.3000e+000 79276 -7.5786e+001  1.4149e+001  1.4457e+001 55964 79299,79080,79028
 1.3000e+000 79253 -1.0904e+002  9.9142e-001  1.6392e+001 55964 79299,79028,79132
 1.3000e+000 79230 -7.3457e+001 -2.1388e+001  9.3536e+000 55964 79028,79080,79054
 1.3000e+000 79207 -1.1430e+002 -4.8458e+001 -6.4646e+000 55964 79002,79132,79028
 1.3000e+000 79184 -1.0519e+002 -4.2971e+001 -2.3969e+001 55964 79002,79158,79132
 1.3000e+000 79325 -8.9048e+001  2.8903e+001 -1.3769e+001 55964 79106,79080,79299
 1.3000e+000 79348 -1.2667e+002  1.3751e+001 -1.0325e+001 55964 79106,79299,79132
 1.3000e+000 79498 -1.5038e+002  2.9149e+001 -2.9850e+001 55452 79397,79449,79423
 1.3000e+000 79475 -1.0485e+002  1.4767e+001 -9.9391e+000 55452 79371,79449,79397
 1.3000e+000 79795 -6.2972e+001  1.4945e+001  1.0235e+001 55048 79962,79818,79573
 1.3000e+000 79772 -8.6867e+001 -1.0439e+001 -1.0885e+001 55048 79818,79521,79677
 1.3000e+000 79749 -6.3325e+001 -2.8005e+001  1.4938e+001 55048 79599,79651,79625
 1.3000e+000 79726 -9.2686e+001 -1.8128e+001  7.5668e+000 55048 79890,79651,79599
 1.3000e+000 79703 -3.3682e+001  4.6474e+001  3.3008e+001 55048 79962,79573,79547
 1.3000e+000 79844 -8.3108e+001 -1.0366e+001  1.3584e+000 55048 79599,79573,79818
 1.3000e+000 79867 -8.8165e+001 -4.3844e+000  3.2654e+000 55048 79890,79599,79818
 1.3000e+000 79916 -8.4723e+001 -1.1938e+001 -5.4293e+000 55048 79677,79651,79890
 1.3000e+000 79939 -8.3927e+001 -6.2382e+000 -9.5850e+000 55048 79677,79890,79818
 1.3000e+000 79988 -8.3400e+001 -6.0323e+000 -1.2392e+001 55048 79521,79818,79962
 1.3000e+000 80011 -7.7375e+001  1.3377e+000  6.1602e+000 55048 79521,79962,79547
 1.3000e+000 80212 -1.4036e+002  1.6047e+001  1.4150e+001 54436 80235,80088,80036
 1.3000e+000 80189 -1.0483e+002  1.6547e+001  1.2195e+001 54436 80235,80036,80140
 1.3000e+000 80166 -1.4496e+002 -3.1236e+000  9.8202e+000 54436 80036,80088,80062
 1.3000e+000 80261 -1.1053e+002 -3.6996e+000  3.5204e+001 54436 80114,80088,80235
 1.3000e+000 80284 -6.3330e+001  5.8242e+000  3.3828e+001 54436 80114,80235,80140
 1.3000e+000 80534 -1.3723e+002 -1.9305e+000  2.3491e-002 54032 80557,80361,80335
 1.3000e+000 80511 -1.2168e+002  2.2749e+001 -1.4284e+001 54032 80557,80335,80309
 1.3000e+000 80488 -1.1024e+002 -4.0496e+000 -2.5907e-001 54032 80629,80413,80387
 1.3000e+000 80465 -6.2676e+001 -1.6473e+001 -9.0039e+000 54032 80309,80439,80413
 1.3000e+000 80583 -1.2972e+002 -4.4771e+001  1.4219e+001 54032 80387,80361,80557
 1.3000e+000 80606 -1.1035e+002 -3.2269e+000  3.6638e+000 54032 80629,80387,80557
 1.3000e+000 80655 -1.1437e+002 -5.8941e+000  1.5507e-001 54032 80309,80413,80629
 1.3000e+000 80678 -1.1679e+002 -5.8536e+000  3.5273e+000 54032 80309,80629,80557
 1.3000e+000 81139 -8.5850e+001  1.0625e+001  4.3299e+001 53784 80865,80995,80917
 1.3000e+000 81116 -1.3383e+002  1.7445e+001 -3.0569e+001 53784 80865,81021,80995
 1.3000e+000 81093 -5.9674e+001 -7.6626e+000  1.7284e+001 53784 80943,80995,80969
 1.3000e+000 81070 -5.2458e+001 -2.8127e+001  3.3866e+001 53784 80917,80995,80943
 1.3000e+000 81047 -1.7684e+002  2.6105e+002  1.1126e+002 53784 80865,80917,80891
 1.3000e+000 81468 -1.1533e+002 -2.7237e+001 -1.1326e+000 53230 81295,81373,81347
 1.3000e+000 81445 -8.9752e+001 -2.6664e+000  1.1666e+001 53230 81243,81373,81295
 1.3000e+000 81422 -6.9800e+001 -1.1968e+001  2.9343e+001 53230 81243,81295,81269
 1.3000e+000 81399 -1.2677e+002 -3.9714e+001  2.0105e+001 53230 81295,81347,81321
 1.3000e+000 81618 -2.4944e+002  1.0019e+002 -4.9480e+001 52790 81491,81543,81517
 1.3000e+000 81595 -2.3690e+002 -2.8717e+001 -3.5061e+001 52790 81491,81569,81543
 1.3000e+000 82126 -5.7574e+001 -1.7024e+001  1.9466e+001 52386 82149,81907,81881
 1.3000e+000 82103 -4.9369e+001  5.9258e+000  2.4095e+001 52386 82149,81881,81855
 1.3000e+000 82080 -6.3433e+001 -2.8309e+001 -2.0778e+000 52386 82221,81803,81985
 1.3000e+000 82057 -1.9297e+001 -3.4901e+000  2.3805e+001 52386 81803,81855,81829
 1.3000e+000 82034 -3.8261e+001 -1.3428e+001 -5.8781e+000 52386 81907,81985,81933
 1.3000e+000 82011 -3.3165e+001 -1.9368e+001 -3.1830e+000 52386 81933,81985,81959
 1.3000e+000 82175 -4.4618e+001 -3.6035e+000  1.2971e+001 52386 81985,81907,82149
 1.3000e+000 82198 -5.5241e+001 -1.4881e+001  8.3383e+000 52386 82221,81985,82149
 1.3000e+000 82247 -5.9863e+001 -6.2040e+000  7.9140e+000 52386 81855,81803,82221
 1.3000e+000 82270 -6.0653e+001  3.9176e+000  1.5107e+001 52386 81855,82221,82149
 1.3000e+000 82825 -2.1275e+002 -3.2398e+001 -6.1337e+001 51782 82505,82661,82635
 1.3000e+000 82802 -1.0902e+002 -5.6511e+001  2.6833e+001 51782 82479,82661,82505
 1.3000e+000 82779 -1.4021e+002 -5.6071e+001  4.0087e+001 51782 82557,82635,82609
 1.3000e+000 82756 -1.5842e+002 -1.0405e+002 -1.0463e+001 51782 82531,82635,82557
 1.3000e+000 82733 -2.0608e+002 -6.3641e+000 -2.6105e+001 51782 82505,82635,82531
 1.3000e+000 82710 -1.6279e+002 -1.2503e+002 -2.0712e+001 51782 82453,82661,82479
 1.3000e+000 82687 -1.2183e+002 -5.6006e+001  4.2231e+001 51782 82557,82609,82583
 1.3000e+000 83171 -1.1537e+002  8.8466e+000 -2.1297e+001 51442 83194,82978,82900
 1.3000e+000 83148 -1.4525e+002 -1.6384e+000 -3.0918e+001 51442 83194,82900,82874
 1.3000e+000 83125 -1.7321e+002 -1.4543e+001 -6.7329e+000 51442 82900,82978,82926
 1.3000e+000 83102 -1.7487e+002 -4.3329e+001 -3.5305e+001 51442 82874,83030,83004
 1.3000e+000 83079 -7.6090e+001  9.9777e+000 -1.7768e+001 51442 82926,82978,82952
 1.3000e+000 83056 -1.0469e+002 -2.0997e+001 -2.4195e+001 51442 82848,83030,82874
 1.3000e+000 83220 -8.0862e+001 -3.8056e+000 -1.6410e+001 51442 83004,82978,83194
 1.3000e+000 83243 -1.1886e+002 -2.2701e+001 -2.9079e+001 51442 83004,83194,82874
 1.3000e+000 83751 -9.5229e+001 -1.1758e+001  8.5753e+000 50938 83428,83584,83454
 1.3000e+000 83728 -1.3316e+002 -2.5008e+001 -8.1052e+000 50938 83428,83610,83584
 1.3000e+000 83705 -1.2806e+002 -3.3263e+001 -2.6443e+000 50938 83454,83584,83558
 1.3000e+000 83682 -1.8416e+002 -2.2054e+001 -2.9036e+000 50938 83454,83532,83480
 1.3000e+000 83659 -1.5604e+002 -4.5986e+001 -6.3739e+000 50938 83454,83558,83532
 1.3000e+000 83636 -1.3650e+002  1.9014e+001  1.5062e+001 50938 83480,83532,83506
 1.3000e+000 84355 -1.4880e+002 -7.2130e+001  2.0809e+001 50377 84378,83960,83934
 1.3000e+000 84332 -1.1603e+002 -2.2710e+001 -2.3925e+001 50377 84522,84378,83934
 1.3000e+000 84309 -1.5049e+002 -2.2549e+001 -3.8769e+000 50377 84450,84038,84012
 1.3000e+000 84286 -1.0256e+002 -3.4177e+001 -2.4433e+001 50377 84522,83934,84142
 1.3000e+000 84263 -1.3983e+002 -9.7678e+001  2.1893e+001 50377 84594,84090,84038
 1.3000e+000 84240 -4.9685e+001 -3.8170e+001  2.3749e+001 50377 83960,84012,83986
 1.3000e+000 84217 -7.8373e+001 -3.4436e+001 -8.4669e+000 50377 83934,84168,84142
 1.3000e+000 84194 -2.6235e+001 -5.5599e+001  3.1548e+001 50377 84038,84090,84064
 1.3000e+000 84404 -1.9890e+001 -1.4546e+001  6.8265e+000 50377 84012,83960,84378
 1.3000e+000 84427 -1.1862e+002 -1.8134e+001 -2.8938e+001 50377 84450,84012,84378
 1.3000e+000 84476 -1.6208e+002 -6.5101e+001  1.5047e+001 50377 84594,84038,84450
 1.3000e+000 84499 -1.4043e+002 -2.8645e+001 -1.1435e+001 50377 84116,84450,84378
 1.3000e+000 84548 -1.0438e+002 -1.0107e+001 -1.8712e+001 50377 84116,84378,84522
 1.3000e+000 84571 -9.2119e+001 -2.3302e+001 -1.9610e+001 50377 84116,84522,84142
 1.3000e+000 84620 -1.1690e+002 -5.3149e+001  1.7942e+000 50377 84116,84090,84594
 1.3000e+000 84643 -1.3522e+002 -1.9598e+001 -7.1331e+000 50377 84116,84594,84450
 1.3000e+000 84842 -1.2853e+002 -4.5066e+000 -3.9316e+001 49923 84865,84692,84666
 1.3000e+000 84819 -7.6216e+001 -1.5931e+001 -3.1652e+000 49923 84865,84666,84770
 1.3000e+000 84796 -3.1228e+000  6.4637e+000 -9.0019e+000 49923 84692,84744,84718
 1.3000e+000 84891 -9.3955e+001  1.1290e+001 -1.1083e+001 49923 84744,84692,84865
 1.3000e+000 84914 -3.3865e+001  1.9145e+001  2.9525e+001 49923 84744,84865,84770
 1.3000e+000 85501 -1.5044e+002 -2.5009e+001  5.1190e+000 49618 85524,85282,85204
 1.3000e+000 85478 -1.6051e+002 -2.0686e+001  1.4999e+001 49618 85596,85524,85204
 1.3000e+000 85455 -1.5559e+002 -2.5488e+001  1.5325e+001 49618 85596,85204,85178
 1.3000e+000 85432 -1.6526e+002 -3.9212e+001  1.1177e+001 49618 85204,85282,85256
 1.3000e+000 85409 -8.8544e+001 -7.1924e-001 -2.8516e+000 49618 85282,85334,85308
 1.3000e+000 85386 -1.5091e+002 -9.6920e+000  2.3715e+000 49618 85204,85256,85230
 1.3000e+000 85550 -1.2590e+002  2.7731e+000 -2.3345e+001 49618 85334,85282,85524
 1.3000e+000 85573 -2.0415e+002 -2.7306e+001 -1.0759e+001 49618 85334,85524,85360
 1.3000e+000 85622 -1.6803e+002 -2.5510e+001  1.7386e+001 49618 85360,85524,85596
 1.3000e+000 85645 -1.6129e+002 -2.8296e+001  1.6715e+001 49618 85360,85596,85178
 1.3000e+000 85795 -4.5789e+002 -1.4425e+002  3.8569e+001 49278 85694,85746,85720
 1.3000e+000 85772 -5.2524e+002 -1.4881e+002  2.9259e+000 49278 85668,85746,85694
 1.3000e+000 86197 -1.8462e+002 -8.2972e+001 -1.9952e+001 48916 86001,86079,86027
 1.3000e+000 86174 -1.8180e+002 -8.3347e+001 -2.4755e+001 48916 85949,86079,86001
 1.3000e+000 86151 -2.3178e+002 -1.1030e+002 -6.9694e+000 48916 85949,86001,85975
 1.3000e+000 86128 -1.9234e+002 -6.5458e+001 -3.9085e+000 48916 86027,86079,86053
 1.3000e+000 86105 -3.5680e+002 -1.5679e+002 -4.2341e+001 48916 85923,86079,85949
 1.3000e+000 86477 -5.8701e+000  7.4655e+000  2.5022e+001 48398 86327,86379,86353
 1.3000e+000 86454 -3.9388e+001 -3.8277e+001  9.5802e+000 48398 86500,86379,86327
 1.3000e+000 86431 -1.9529e+001 -3.7622e+001  2.1356e+001 48398 86301,86405,86379
 1.3000e+000 86526 -2.6413e+001 -2.9481e+001  1.3579e+001 48398 86301,86379,86500
 1.3000e+000 87032 -1.3289e+002 -3.2632e+001 -7.9235e-001 48008 87127,87055,86787
 1.3000e+000 87009 -1.3824e+002 -4.2833e+001  3.3440e+000 48008 87055,86735,86709
 1.3000e+000 86986 -1.2255e+002 -4.0172e+001 -2.5107e+000 48008 87127,86787,86761
 1.3000e+000 86963 -1.1416e+002 -3.3014e+001  9.3333e+000 48008 86787,86865,86839
 1.3000e+000 86940 -1.4877e+002 -4.2677e+001 -2.7292e+000 48008 86709,86891,86865
 1.3000e+000 86917 -1.5610e+002 -2.1853e+001  2.5295e+001 48008 86787,86839,86813
 1.3000e+000 87081 -1.3347e+002 -3.6688e+001 -1.6714e+000 48008 86865,86787,87055
 1.3000e+000 87104 -1.3060e+002 -3.7187e+001 -3.7373e+000 48008 86865,87055,86709
 1.3000e+000 87153 -1.1796e+002 -3.3186e+001  5.8726e-001 48008 86735,87055,87127
 1.3000e+000 87176 -9.0859e+001 -2.6779e+001 -7.4359e+000 48008 86735,87127,86761
 1.3000e+000 87456 -4.9941e+001 -1.9332e+001 -1.0508e+001 47604 87306,87358,87332
 1.3000e+000 87433 -8.2976e+001 -4.1247e+001  3.9126e-002 47604 87306,87384,87358
 1.3000e+000 87410 -5.6739e+001 -3.0176e+001 -3.8202e+000 47604 87280,87384,87306
 1.3000e+000 87785 -2.8801e+001 -1.2265e+001  7.6085e+000 47264 87638,87690,87664
 1.3000e+000 87762 -2.0375e+001  2.6486e+001 -7.0698e-001 47264 87612,87690,87638
 1.3000e+000 87739 -2.9542e+001 -2.8192e+000  2.1225e-001 47264 87560,87690,87612
 1.3000e+000 87716 -2.1649e+001 -2.8059e+000 -7.4504e+000 47264 87560,87612,87586
 1.3000e+000 87935 -2.2543e+002 -3.2721e+001  2.3657e+000 46952 87808,87860,87834
 1.3000e+000 87912 -2.0912e+002 -4.8446e+000 -6.4609e+000 46952 87808,87886,87860
 1.3000e+000 88281 -1.5625e+002 -4.1103e+001  1.4903e+000 46526 88304,88114,88036
 1.3000e+000 88258 -1.3817e+002 -3.0986e+001  6.0405e+000 46526 88304,88036,87984
 1.3000e+000 88235 -1.4911e+002 -3.1654e+001 -1.7481e+001 46526 88036,88114,88062
 1.3000e+000 88212 -1.1475e+002  9.6662e+000  7.2870e+001 46526 87958,88140,87984
 1.3000e+000 88189 -1.2488e+002  5.5718e-001  5.3440e-001 46526 87984,88036,88010
 1.3000e+000 88166 -1.7821e+002 -6.0169e+001 -3.1239e+001 46526 88062,88114,88088
 1.3000e+000 88330 -1.7242e+002 -2.8151e+001  1.2865e+000 46526 88140,88114,88304
 1.3000e+000 88353 -1.5988e+002 -2.2089e+001  4.6281e+000 46526 88140,88304,87984
 1.3000e+000 88701 -6.4965e+001 -2.9553e+001 -2.0250e+001 45822 88724,88378,88534
 1.3000e+000 88678 -4.8707e+001  3.4351e+000 -2.6045e+001 45822 88378,88560,88534
 1.3000e+000 88655 -6.3752e+001 -4.1384e+001 -1.2981e+000 45822 88724,88534,88508
 1.3000e+000 88632 -5.6490e+001 -1.8843e+001 -9.4665e+000 45822 88404,88508,88456
 1.3000e+000 88609 -5.0920e+001 -6.9724e+000 -1.1539e+001 45822 88404,88456,88430
 1.3000e+000 88586 -8.5607e+001 -3.6544e+001 -2.0825e+000 45822 88456,88508,88482
 1.3000e+000 88750 -6.3864e+001 -5.0282e+000 -2.3205e+001 45822 88404,88378,88724
 1.3000e+000 88773 -6.2221e+001 -1.9337e+001 -5.6983e+000 45822 88404,88724,88508
 1.3000e+000 89106 -1.5741e+002 -1.4647e+001 -1.6351e+001 45418 88881,88985,88907
 1.3000e+000 89083 -1.0553e+002 -6.8964e+001 -1.0720e+001 45418 88881,89011,88985
 1.3000e+000 89060 -1.2181e+002 -2.0737e+001 -2.3315e+001 45418 88907,88985,88933
 1.3000e+000 89037 -5.2304e+001 -2.0432e+001  7.9234e+000 45418 88933,88985,88959
 1.3000e+000 89435 -1.3172e+002 -4.6571e+001  8.6681e+000 44914 89210,89288,89236
 1.3000e+000 89412 -9.7846e+001 -2.3655e+001 -1.7266e+001 44914 89210,89314,89288
 1.3000e+000 89389 -1.1574e+002 -1.3627e+001 -2.3094e+001 44914 89210,89340,89314
 1.3000e+000 89366 -1.0802e+002 -3.3542e+001  2.5276e+000 44914 89236,89288,89262
 1.3000e+000 89634 -2.2771e+001 -1.8980e+000  6.2563e+000 44538 89510,89562,89536
 1.3000e+000 89611 -3.9978e+001  1.3417e+000 -1.6669e+001 44538 89458,89562,89510
 1.3000e+000 89588 -3.6858e+001 -3.0719e+001 -1.6695e+001 44538 89458,89510,89484
 1.3000e+000 90044 -1.9143e+002 -7.6948e+001  1.7399e+001 44134 89819,89923,89845
 1.3000e+000 90021 -1.5974e+002 -1.6903e+001  3.0334e+001 44134 89819,89949,89923
 1.3000e+000 89998 -1.4523e+002 -6.6014e+001 -5.7341e+000 44134 89845,89923,89897
 1.3000e+000 89975 -1.0456e+002 -5.3822e+000  2.0717e+001 44134 89845,89897,89871
 1.3000e+000 90520 -1.8108e+002 -7.4186e+001  5.9616e+000 43457 90543,90252,90226
 1.3000e+000 90497 -1.4860e+002 -6.1603e+001  1.0011e+001 43457 90543,90226,90330
 1.3000e+000 90474 -1.7258e+002 -3.9184e+001 -6.6618e+000 43457 90200,90330,90226
 1.3000e+000 90451 -1.9144e+002 -6.0611e+001 -2.6866e+001 43457 90200,90356,90330
 1.3000e+000 90428 -1.8655e+002 -1.4800e+001  5.1595e+001 43457 90252,90304,90278
 1.3000e+000 90405 -6.5792e+001 -1.4047e+001  2.3505e+001 43457 90174,90356,90200
 1.3000e+000 90382 -1.8672e+002 -1.3871e+002 -2.6340e+001 43457 90148,90356,90174
 1.3000e+000 90569 -2.1242e+002 -5.5224e+001  3.7788e+001 43457 90304,90252,90543
 1.3000e+000 90592 -1.5583e+002 -2.8967e+001  4.8899e+001 43457 90304,90543,90330
 1.3000e+000 91098 -5.0180e+001 -9.2438e+000  4.1280e+000 42789 90801,90905,90853
 1.3000e+000 91075 -7.3360e+001 -4.1758e+001  1.4243e+001 42789 90775,90905,90801
 1.3000e+000 91052 -7.5051e+001 -1.4366e+001 -7.2461e+000 42789 90775,90931,90905
 1.3000e+000 91029 -2.5857e+001  9.8789e+000  2.7708e+001 42789 90801,90853,90827
 1.3000e+000 91006 -7.2639e+001 -2.5667e+001  3.6247e+001 42789 90853,90905,90879
 1.3000e+000 90983 -1.4363e+002 -1.6149e+001  2.1397e+001 42789 90775,90957,90931
 1.3000e+000 91427 -1.5858e+002 -6.2205e+000 -1.3147e+001 42227 91228,91280,91254
 1.3000e+000 91404 -1.7851e+002 -5.3987e+001  7.9532e+000 42227 91228,91306,91280
 1.3000e+000 91381 -1.7476e+002 -4.9030e+001  2.0869e+001 42227 91202,91306,91228
 1.3000e+000 91358 -1.5000e+002 -5.9793e+001 -3.2089e+000 42227 91202,91332,91306
 1.3000e+000 91675 -5.3458e+001 -1.6382e+001 -1.5138e+001 41773 91698,91476,91450
 1.3000e+000 91652 -5.4411e+001 -2.6685e+001 -4.6034e+000 41773 91698,91450,91554
 1.3000e+000 91629 -6.3429e+001 -4.4842e+001  4.0475e-001 41773 91450,91580,91554
 1.3000e+000 91606 -7.6531e+001 -1.4932e+001  1.0938e+001 41773 91502,91554,91528
 1.3000e+000 91724 -5.9945e+001 -2.2065e+001 -8.0505e+000 41773 91502,91476,91698
 1.3000e+000 91747 -6.3098e+001 -3.3585e+001  2.7775e+000 41773 91502,91698,91554
 1.3000e+000 92127 -9.2924e+001 -1.0477e+001 -1.1296e+001 41255 92150,91905,91879
 1.3000e+000 92104 -1.6114e+002 -1.8254e+001  1.7948e+001 41255 92150,91879,91957
 1.3000e+000 92081 -1.2739e+002 -4.9699e+001  4.5459e+001 41255 91853,91957,91879
 1.3000e+000 92058 -1.3908e+002 -6.3657e+001  2.5908e+000 41255 91853,91983,91957
 1.3000e+000 92035 -7.8065e+001 -4.0736e+001 -1.0187e+001 41255 91853,92009,91983
 1.3000e+000 92176 -1.5310e+002  8.2882e+000  1.8954e+001 41255 91931,91905,92150
 1.3000e+000 92199 -2.5736e+002 -4.3178e+001  6.0628e+001 41255 91931,92150,91957
 1.3000e+000 92518 -2.0239e+002 -1.9567e+001  9.4289e-001 41007 92244,92374,92270
 1.3000e+000 92495 -1.9083e+002  8.8001e+000 -1.2512e+001 41007 92244,92400,92374
 1.3000e+000 92472 -1.8247e+002 -2.2880e+001 -2.5677e+000 41007 92270,92374,92348
 1.3000e+000 92449 -2.4432e+002 -7.5676e+001  9.4735e+000 41007 92296,92348,92322
 1.3000e+000 92426 -2.1778e+002 -6.5322e+001  1.2564e+001 41007 92270,92348,92296
 1.3000e+000 92668 -6.3545e+001 -2.2017e+001 -1.7004e+001 40717 92823,92691,92567
 1.3000e+000 92645 -6.3094e+001 -1.6011e+001 -1.6095e+001 40717 92895,92823,92567
 1.3000e+000 92717 -6.8720e+001 -2.1156e+001  1.1987e+001 40717 92593,92567,92691
 1.3000e+000 92849 -3.1038e+001 -2.5518e+001 -2.8582e+001 40717 92619,92691,92823
 1.3000e+000 92872 -7.3510e+001 -2.9728e+001 -1.6149e+001 40717 92619,92823,92541
 1.3000e+000 92921 -1.0230e+002 -4.9976e+001  6.7203e+000 40717 92541,92823,92895
 1.3000e+000 93634 -1.6346e+002 -5.1387e+001 -3.1836e+001 40206 93366,93444,93418
 1.3000e+000 93611 -1.2540e+002 -1.9769e+001 -1.0381e+001 40206 93288,93444,93366
 1.3000e+000 93588 -1.2609e+002 -4.4139e+001 -1.1982e+001 40206 93288,93366,93314
 1.3000e+000 93565 -2.5343e+002 -6.5999e+001 -4.5959e+000 40206 93262,93444,93288
 1.3000e+000 93542 -1.9305e+002 -2.7033e+001 -1.4978e+001 40206 93366,93418,93392
 1.3000e+000 93519 -3.0679e+002  8.3419e-001 -2.3095e+000 40206 93262,93470,93444
 1.3000e+000 93496 -8.2388e+001 -2.5760e+001 -2.9724e+000 40206 93314,93366,93340
 1.3000e+000 94189 -1.1468e+002 -4.7976e+001  1.1115e+001 39802 93843,93999,93973
 1.3000e+000 94166 -1.4123e+002 -6.2425e+001  1.8966e+001 39802 93817,93999,93843
 1.3000e+000 94143 -1.8837e+002 -5.2509e+001  2.0316e+001 39802 93869,93973,93947
 1.3000e+000 94120 -1.1750e+002 -1.8152e+001  9.4763e+000 39802 93843,93973,93869
 1.3000e+000 94097 -1.1016e+002  8.7028e-002 -1.8720e+000 39802 93869,93921,93895
 1.3000e+000 94074 -1.1357e+002 -8.6145e+000 -6.6791e+000 39802 93869,93947,93921
 1.3000e+000 94051 -9.9576e+001 -3.5691e+001  2.4020e+000 39802 93817,94025,93999
 1.3000e+000 94290 -1.9752e+002 -6.0410e+001  6.2916e-001 39398 94212,94264,94238
 1.3000e+000 94798 -7.2363e+001 -1.0277e+001 -1.3414e+000 38701 94501,94657,94631
 1.3000e+000 94775 -6.1493e+001 -6.6235e+000 -4.1636e-001 38701 94475,94657,94501
 1.3000e+000 94752 -1.1188e+002 -4.5140e+001 -7.7072e-001 38701 94579,94631,94605
 1.3000e+000 94729 -1.0964e+002 -1.9136e+001 -8.6644e+000 38701 94553,94631,94579
 1.3000e+000 94706 -4.9518e+001  5.7711e+000 -9.6852e+000 38701 94501,94631,94553
 1.3000e+000 94683 -4.2421e+001 -4.8730e+000 -8.6670e+000 38701 94501,94553,94527
 1.3000e+000 95255 -4.8286e+001 -5.1829e+000  1.8513e+001 38247 95278,95085,95007
 1.3000e+000 95232 -6.3910e+001 -7.0980e+000  2.4304e+001 38247 95278,95007,95137
 1.3000e+000 95209 -8.6139e+001  3.3671e+000  6.8604e+000 38247 94981,95137,95007
 1.3000e+000 95186 -8.6096e+001 -3.5588e+001 -5.9471e+000 38247 95007,95059,95033
 1.3000e+000 95163 -9.0152e+001 -2.8699e+001  2.8927e+001 38247 95007,95085,95059
 1.3000e+000 95304 -3.9658e+001  2.6946e+000  4.3806e+000 38247 95111,95085,95278
 1.3000e+000 95327 -5.5857e+001 -5.8593e+000  1.2093e+001 38247 95111,95278,95137
 1.3000e+000 95575 -2.1458e+002  7.7197e+001 -2.4381e+001 37564 95376,95428,95402
 1.3000e+000 95552 -2.2524e+002 -8.0657e+001 -1.2957e+001 37564 95376,95454,95428
 1.3000e+000 95529 -1.9546e+002 -7.3333e+001 -1.9541e+001 37564 95376,95480,95454
 1.3000e+000 95506 -1.8041e+002 -4.1371e+001 -8.8935e+000 37564 95350,95480,95376
 1.3000e+000 96034 -3.8452e+001 -4.2903e-001  6.5571e+000 37224 95786,95838,95812
 1.3000e+000 96011 -3.7565e+001 -9.4515e+000  1.4858e+001 37224 95786,95890,95838
 1.3000e+000 95988 -1.8458e+001 -5.2299e+000  8.5615e+000 37224 95786,95916,95890
 1.3000e+000 95965 -7.2777e+001 -1.9175e+001 -2.4266e+000 37224 95760,95916,95786
 1.3000e+000 95942 -2.0690e+001 -2.3619e+001 -7.6409e+000 37224 95838,95890,95864
 1.3000e+000 96363 -4.1638e+001  9.1220e+000 -1.0569e+001 36884 96216,96268,96242
 1.3000e+000 96340 -7.5090e+001  1.4006e+001 -9.2220e+000 36884 96164,96268,96216
 1.3000e+000 96317 -1.0921e+002 -2.8598e+001  2.1852e+001 36884 96138,96268,96164
 1.3000e+000 96294 -7.9339e+001  1.0519e+001  4.7683e-001 36884 96164,96216,96190
 1.3000e+000 96839 -1.5366e+002 -3.6670e+001 -8.9840e+000 36572 96862,96649,96597
 1.3000e+000 96816 -1.5329e+002 -4.7210e+001 -8.9493e+000 36572 97006,96862,96597
 1.3000e+000 96793 -1.4174e+002 -3.8432e+001  5.2320e-001 36572 96934,96467,96675
 1.3000e+000 96770 -1.3772e+002 -5.4299e+001  3.5042e+000 36572 97006,96597,96571
 1.3000e+000 96747 -1.4864e+002 -5.7597e+001 -3.5034e+001 36572 96467,96519,96493
 1.3000e+000 96724 -3.0733e+002 -2.8417e+001  1.0732e+002 36572 96519,96571,96545
 1.3000e+000 96701 -1.1100e+002 -8.6003e+000  3.0342e+001 36572 96597,96649,96623
 1.3000e+000 96888 -1.5881e+002 -3.9117e+001 -9.8344e+000 36572 96675,96649,96862
 1.3000e+000 96911 -1.5725e+002 -3.8717e+001 -3.4572e+000 36572 96934,96675,96862
 1.3000e+000 96960 -1.3228e+002 -4.0706e+001 -2.0882e+000 36572 96519,96467,96934
 1.3000e+000 96983 -1.3920e+002 -3.6604e+001 -3.3817e+000 36572 97078,96934,96862
 1.3000e+000 97032 -1.3667e+002 -3.4802e+001 -2.1545e+000 36572 97078,96862,97006
 1.3000e+000 97055 -1.2190e+002 -3.6034e+001  1.2963e+001 36572 96519,97006,96571
 1.3000e+000 97104 -1.3829e+002 -3.3798e+001 -1.3603e+000 36572 96519,96934,97078
 1.3000e+000 97127 -1.3834e+002 -3.3233e+001 -6.0743e-001 36572 96519,97078,97006
 1.3000e+000 97761 -1.2964e+002 -1.8505e+001  2.8333e+001 36118 97784,97493,97415
 1.3000e+000 97738 -1.4667e+002 -2.8573e+001  3.2535e+001 36118 97784,97415,97597
 1.3000e+000 97715 -2.4208e+002 -4.8106e+001  5.7405e+001 36118 97389,97597,97415
 1.3000e+000 97692 -2.2021e+002 -4.7371e+001  5.4867e+001 36118 97415,97467,97441
 1.3000e+000 97669 -2.0211e+002 -5.3700e+001  7.4343e+001 36118 97415,97493,97467
 1.3000e+000 97646 -1.2665e+002 -6.8309e+001 -2.6483e+001 36118 97493,97571,97519
 1.3000e+000 97623 -7.6706e+001 -1.3895e+001  1.2536e+001 36118 97519,97571,97545
 1.3000e+000 97810 -1.4444e+002  7.2728e+000  1.1166e+001 36118 97571,97493,97784
 1.3000e+000 97833 -1.8590e+002 -1.5032e+001  2.0049e+001 36118 97571,97784,97597
 1.3000e+000 98081 -1.5370e+002 -6.9272e+001  7.3602e+000 35564 98104,97908,97856
 1.3000e+000 98058 -1.7256e+002 -8.6952e+001  1.7391e+001 35564 98104,97856,97986
 1.3000e+000 98035 -2.3896e+002 -9.3627e+001  1.2035e+001 35564 97934,97986,97960
 1.3000e+000 98012 -1.3763e+002 -2.1087e+001 -1.4584e+001 35564 97856,97908,97882
 1.3000e+000 98130 -1.7714e+002 -1.5008e+000  5.7130e+000 35564 97934,97908,98104
 1.3000e+000 98153 -2.0511e+002 -5.9753e+001  2.7587e+001 35564 97934,98104,97986
 1.3000e+000 98374 -2.3286e+002 -4.9013e+001 -9.7539e+000 35152 98224,98302,98276
 1.3000e+000 98351 -2.1114e+002 -2.4629e+000 -1.8957e+000 35152 98198,98302,98224
 1.3000e+000 98328 -1.7861e+002 -2.8748e+001 -2.1046e+001 35152 98224,98276,98250
 1.3000e+000 98884 -7.8162e+001 -1.2171e+000  9.7572e+000 34698 98691,98743,98717
 1.3000e+000 98861 -7.9508e+001  4.1261e-001  2.8930e+000 34698 98561,98743,98691
 1.3000e+000 98838 -6.9848e+001 -8.4745e+000  1.3785e+001 34698 98907,98587,98561
 1.3000e+000 98815 -6.7230e+001 -1.3326e+001  1.5928e+000 34698 98907,98561,98691
 1.3000e+000 98792 -3.2031e+001 -1.4519e+000 -6.1673e+000 34698 98587,98639,98613
 1.3000e+000 98769 -6.6971e+001 -3.5698e+001  2.7125e+001 34698 98587,98665,98639
 1.3000e+000 98933 -5.8447e+001 -5.5641e+000  1.7585e+001 34698 98665,98587,98907
 1.3000e+000 98956 -5.4032e+001 -1.1572e+001  4.9114e+000 34698 98665,98907,98691
 1.3000e+000 99204 -1.5337e+002 -1.0261e+001 -1.4563e+001 34144 99227,99031,99005
 1.3000e+000 99181 -1.5944e+002 -3.3812e+001  7.0796e+000 34144 99299,99227,99005
 1.3000e+000 99158 -1.7113e+002 -2.8903e+001  2.1511e+001 34144 99299,99005,99109
 1.3000e+000 99135 -1.1477e+002 -2.9736e+001  2.6550e+001 34144 98979,99109,99005
 1.3000e+000 99253 -1.4548e+002 -2.4625e+001 -4.6865e+000 34144 99057,99031,99227
 1.3000e+000 99276 -5.7056e+001 -6.3562e+000 -1.0559e+001 34144 99057,99227,99083
 1.3000e+000 99325 -1.3466e+002 -5.2034e+000 -2.4827e+001 34144 99083,99227,99299
 1.3000e+000 99348 -1.7553e+002 -1.3072e+001 -1.0326e+001 34144 99083,99299,99109
 1.3000e+000 99498 -4.6376e+002 -1.1666e+002  4.9416e+001 33433 99397,99449,99423
 1.3000e+000 99475 -5.3591e+002 -1.3695e+002  4.2816e+000 33433 99371,99449,99397
 1.3000e+000 100008 -1.2051e+002 -3.0575e+001  1.0761e+001 32979 100103,100031,99815
 1.3000e+000 99985 -1.1445e+002 -1.2313e+001 -5.6164e+000 32979 100175,100031,99763
 1.3000e+000 99962 -1.3234e+002 -2.5356e+001  1.7058e+001 32979 100103,99815,99789
 1.3000e+000 99939 -1.2025e+002 -1.0567e+001 -5.6288e-001 32979 100175,99763,99737
 1.3000e+000 99916 -1.1599e+002  2.2249e+001 -3.1326e+000 32979 99685,99867,99737
 1.3000e+000 99893 -7.9885e+001  1.8105e-001 -4.7096e+001 32979 99685,99737,99711
 1.3000e+000 100057 -1.0512e+002 -2.1473e+001  3.3332e+000 32979 99841,99815,100031
 1.3000e+000 100080 -1.0004e+002  1.1845e+001 -1.7291e+001 32979 99841,100031,99867
 1.3000e+000 100129 -1.0516e+002 -2.2102e+001  4.6819e+000 32979 99763,100031,100103
 1.3000e+000 100152 -1.1932e+002 -1.6215e+001  9.9974e+000 32979 99763,100103,99789
 1.3000e+000 100201 -1.2418e+002 -1.6583e+001 -6.6719e+000 32979 99867,100031,100175
 1.3000e+000 100224 -1.2524e+002 -1.2291e+001 -1.4544e+000 32979 99867,100175,99737
 1.3000e+000 100553 -1.2092e+002 -5.1082e+001  2.3413e+001 32503 100354,100406,100380
 1.3000e+000 100530 -1.0665e+002 -1.1664e+001 -6.0455e+000 32503 100328,100406,100354
 1.3000e+000 100507 -1.0631e+002 -6.2464e+001 -4.2308e+001 32503 100328,100458,100406
 1.3000e+000 100484 -5.1353e+001 -6.2610e+001 -1.6459e+001 32503 100406,100458,100432
 1.3000e+000 100850 -1.9996e+002 -6.1720e+001  9.4846e+000 31899 100873,100654,100628
 1.3000e+000 100827 -1.9618e+002 -7.2913e+001 -5.2245e-001 31899 100945,100873,100628
 1.3000e+000 100804 -1.8657e+002 -8.0196e+001  3.2970e+000 31899 100945,100628,100602
 1.3000e+000 100781 -2.0163e+002 -7.5320e+001  1.5849e+001 31899 100576,100732,100602
 1.3000e+000 100758 -1.2073e+002 -2.2020e+001  2.8141e+001 31899 100654,100706,100680
 1.3000e+000 100899 -1.6568e+002 -8.5554e+001  2.9248e+000 31899 100706,100654,100873
 1.3000e+000 100922 -2.1677e+002 -8.9510e+001 -1.5840e+001 31899 100706,100873,100732
 1.3000e+000 100971 -2.1090e+002 -7.8196e+001  1.9720e+000 31899 100732,100873,100945
 1.3000e+000 100994 -2.0003e+002 -8.4634e+001  5.7094e+000 31899 100732,100945,100602
 1.3000e+000 101551 -6.9771e+001 -1.5431e+001 -1.6896e-001 31338 101205,101387,101231
 1.3000e+000 101528 -1.3566e+002 -4.7756e+001 -3.5001e+001 31338 101179,101387,101205
 1.3000e+000 101505 -9.3576e+001 -3.1700e+001  1.6374e+000 31338 101574,101309,101257
 1.3000e+000 101482 -7.7611e+001 -2.2503e+001  6.0147e+000 31338 101646,101574,101257
 1.3000e+000 101459 -6.3737e+001 -5.4869e+000  1.4719e+001 31338 101646,101257,101231
 1.3000e+000 101436 -9.6047e+001 -3.0927e+000 -2.3226e+000 31338 101309,101361,101335
 1.3000e+000 101413 -8.8337e+001 -2.3364e+001 -8.2197e+000 31338 101257,101309,101283
 1.3000e+000 101600 -9.5916e+001 -2.4490e+001  3.4501e+000 31338 101361,101309,101574
 1.3000e+000 101623 -9.7905e+001 -3.6966e+001 -7.2379e+000 31338 101361,101574,101387
 1.3000e+000 101672 -9.0173e+001 -1.8272e+001 -7.3822e+000 31338 101387,101574,101646
 1.3000e+000 101695 -8.1103e+001 -1.5011e+001 -1.3333e+000 31338 101387,101646,101231
 1.3000e+000 101943 -1.5860e+002 -5.6894e+001 -2.8440e-001 30748 101966,101796,101744
 1.3000e+000 101920 -1.3858e+002 -2.6469e+001  1.0448e+001 30748 101966,101744,101718
 1.3000e+000 101897 -1.3255e+002  1.1825e+001  6.3774e+001 30748 101718,101848,101822
 1.3000e+000 101874 -1.4781e+002 -3.1275e+001 -2.3509e+001 30748 101744,101796,101770
 1.3000e+000 101992 -1.7301e+002 -2.5005e+001  4.6314e+000 30748 101822,101796,101966
 1.3000e+000 102015 -1.6119e+002 -5.6554e-001  1.1168e+001 30748 101822,101966,101718
 1.3000e+000 102493 -2.2318e+002 -4.9123e+001  3.8716e+001 30344 102516,102173,102147
 1.3000e+000 102470 -1.7650e+002 -2.7253e+001 -1.2511e+001 30344 102660,102516,102147
 1.3000e+000 102447 -9.0889e+001  1.0843e+001  4.8073e+000 30344 102588,102199,102173
 1.3000e+000 102424 -1.5388e+002 -4.2165e+001 -1.2378e+001 30344 102660,102147,102329
 1.3000e+000 102401 -3.0825e+002 -3.6795e+001  1.3426e+001 30344 102199,102277,102251
 1.3000e+000 102378 -9.2013e+001 -8.4613e+001  7.6690e+001 30344 102199,102251,102225
 1.3000e+000 102355 -3.5635e+002 -1.1443e+002  1.0777e+002 30344 102121,102329,102147
 1.3000e+000 102542 -1.2898e+002 -4.9716e+000  1.3765e+001 30344 102588,102173,102516
 1.3000e+000 102565 -1.6417e+002 -1.4197e+001 -4.7054e+000 30344 102277,102516,102303
 1.3000e+000 102614 -1.4231e+002  3.0489e+001  5.3279e+000 30344 102277,102199,102588
 1.3000e+000 102637 -1.7667e+002  1.9773e+001  7.2651e+000 30344 102277,102588,102516
 1.3000e+000 102686 -1.5195e+002 -1.0705e+001 -2.5819e+000 30344 102303,102516,102660
 1.3000e+000 102709 -1.3584e+002 -3.0061e+001 -2.9807e+000 30344 102303,102660,102329
 1.3000e+000 103294 -1.2524e+002 -3.9419e+001  1.9238e+001 29726 103317,103101,103075
 1.3000e+000 103271 -1.3864e+002 -4.9606e+001  1.3274e+001 29726 103317,103075,102997
 1.3000e+000 103248 -1.9890e+002 -7.0614e+001  3.9050e+001 29726 102971,103153,102997
 1.3000e+000 103225 -9.2257e+001 -2.7184e+000 -3.4330e+000 29726 103101,103153,103127
 1.3000e+000 103202 -1.3860e+002 -7.2418e+001  8.6218e+000 29726 102997,103075,103023
 1.3000e+000 103179 -1.5049e+002 -4.3845e+001 -1.9039e+001 29726 103023,103075,103049
 1.3000e+000 103343 -1.1642e+002 -5.0883e+001  1.9541e+001 29726 103153,103101,103317
 1.3000e+000 103366 -1.2477e+002 -5.4124e+001  1.6360e+001 29726 103153,103317,102997
 1.3000e+000 103614 -8.7142e+001 -3.2972e+001  1.2176e+001 29200 103781,103637,103467
 1.3000e+000 103591 -8.0787e+001 -2.9218e+001  3.1416e-001 29200 103709,103637,103415
 1.3000e+000 103568 -6.8485e+001 -7.7064e+000  5.2671e+000 29200 103709,103415,103389
 1.3000e+000 103545 -9.2709e+001 -3.0755e+001  9.2961e+000 29200 103781,103467,103441
 1.3000e+000 103663 -6.1646e+001 -2.2735e+001 -1.0290e+001 29200 103853,103637,103493
 1.3000e+000 103686 -1.2226e+002 -7.7554e+001 -3.4663e+001 29200 103493,103637,103519
 1.3000e+000 103735 -9.8198e+001 -4.3045e+000 -1.2771e+001 29200 103519,103637,103709
 1.3000e+000 103758 -8.9474e+001  1.0310e+001 -9.0843e+000 29200 103519,103709,103389
 1.3000e+000 103807 -9.4542e+001 -3.0389e+001  1.5574e+000 29200 103415,103637,103781
 1.3000e+000 103830 -1.1177e+002 -3.5513e+001 -1.0609e+000 29200 103415,103781,103441
 1.3000e+000 103879 -6.5680e+001 -3.4442e+001  3.8622e+000 29200 103467,103637,103853
 1.3000e+000 104545 -2.1687e+002 -2.1234e+001  2.6124e+001 28860 104274,104352,104326
 1.3000e+000 104522 -1.7573e+002 -5.7968e+001 -2.3655e+000 28860 104248,104352,104274
 1.3000e+000 104499 -1.3215e+002 -3.5739e+001 -1.0711e+001 28860 104248,104404,104352
 1.3000e+000 104476 -1.9030e+002 -7.8981e+001 -2.9937e+001 28860 104222,104404,104248
 1.3000e+000 104453 -1.2613e+002 -5.0433e+001 -1.8341e+001 28860 104352,104404,104378
 1.3000e+000 104430 -3.8102e+002 -5.9733e+001  1.4149e+001 28860 104274,104326,104300
 1.3000e+000 104744 -6.8989e+001  4.6198e-001  1.3680e+001 28456 104839,104767,104646
 1.3000e+000 104721 -4.0579e+001 -3.1522e+000  1.1473e+001 28456 104767,104594,104568
 1.3000e+000 104698 -6.6474e+001 -1.5368e+001  2.5221e+000 28456 104839,104646,104620
 1.3000e+000 104793 -5.7698e+001 -6.5522e+000  2.4492e+001 28456 104672,104646,104767
 1.3000e+000 104816 -4.3122e+001 -4.9927e+000  1.3618e+001 28456 104911,104767,104568
 1.3000e+000 104865 -6.4924e+001 -7.6240e+000  5.5674e+000 28456 104594,104767,104839
 1.3000e+000 104888 -7.3323e+001 -4.8545e+001  2.6238e+000 28456 105041,104839,104620
 1.3000e+000 104937 -6.9444e+001 -5.2990e+001  2.3818e+001 28456 104672,104767,104911
 1.3000e+000 105067 -6.3939e+001 -6.7861e+000  4.3248e+000 28456 104594,104839,105041
 1.3000e+000 105573 -1.4733e+002 -2.2279e+001  1.5271e+001 28094 105812,105596,105328
 1.3000e+000 105550 -1.4970e+002 -2.8079e+001  9.5609e+000 28094 105596,105276,105250
 1.3000e+000 105527 -1.1921e+002 -1.4989e+001  2.8905e+001 28094 105740,105668,105432
 1.3000e+000 105504 -1.1801e+002 -1.0233e+001  2.9394e+001 28094 105740,105432,105380
 1.3000e+000 105481 -1.4880e+002 -2.1297e+001  1.4480e+001 28094 105812,105328,105302
 1.3000e+000 105458 -7.0983e+001 -3.0984e+001  2.7914e+001 28094 105380,105432,105406
 1.3000e+000 105622 -1.9074e+002 -4.8054e+001  3.5360e+001 28094 105354,105328,105596
 1.3000e+000 105645 -1.2935e+002 -2.0178e+001  2.2812e+001 28094 105668,105354,105596
 1.3000e+000 105694 -1.2904e+002 -1.5868e+001  1.6347e+001 28094 105250,105432,105668
 1.3000e+000 105717 -1.5228e+002 -1.8041e+001  1.1270e+001 28094 105250,105668,105596
 1.3000e+000 105766 -1.1929e+002 -1.9540e+001  2.0198e+001 28094 105354,105668,105740
 1.3000e+000 105789 -1.1619e+002 -1.1276e+001  2.0668e+001 28094 105354,105740,105380
 1.3000e+000 105838 -1.4892e+002 -2.3679e+001  1.4635e+001 28094 105276,105596,105812
 1.3000e+000 105861 -1.5408e+002 -2.4434e+001  1.2946e+001 28094 105276,105812,105302
 1.3000e+000 106367 -1.2850e+002 -2.4623e+001 -1.1338e+001 27390 106070,106122,106096
 1.3000e+000 106344 -1.4059e+002 -3.4447e+001 -6.5101e+000 27390 106070,106226,106122
 1.3000e+000 106321 -1.6399e+002 -5.2885e+000 -6.6479e+000 27390 106174,106226,106200
 1.3000e+000 106298 -1.4391e+002 -3.9107e+001 -8.5425e+000 27390 106122,106226,106174
 1.3000e+000 106275 -1.8203e+002 -5.9994e+001 -5.1366e+001 27390 106122,106174,106148
 1.3000e+000 106252 -1.2276e+002 -2.4744e+001  1.0182e+000 27390 106044,106226,106070
 1.3000e+000 106615 -1.9709e+002 -5.2691e+001 -5.9038e-001 26978 106638,106494,106416
 1.3000e+000 106592 -2.0346e+002 -5.2119e+001 -1.4789e+000 26978 106638,106416,106390
 1.3000e+000 106569 -2.0135e+002 -6.0906e+001 -1.7270e+001 26978 106416,106494,106442
 1.3000e+000 106546 -2.1720e+002 -6.5472e+001 -1.7713e+001 26978 106442,106494,106468
 1.3000e+000 106664 -1.8323e+002 -5.2744e+001 -8.1102e-001 26978 106520,106494,106638
 1.3000e+000 106687 -1.9620e+002 -5.6921e+001 -2.0845e+000 26978 106520,106638,106390
 1.3000e+000 106837 -2.7963e+002 -1.3016e+002 -1.6284e+001 26524 106710,106762,106736
 1.3000e+000 106814 -2.8660e+002 -1.3791e+002 -1.3235e+001 26524 106710,106788,106762
 1.3000e+000 107426 -8.4417e+001 -7.3401e+000 -2.3084e+001 26120 107129,107207,107155
 1.3000e+000 107403 -1.1285e+002 -3.7141e+001 -1.0745e+001 26120 107129,107285,107207
 1.3000e+000 107380 -1.0693e+002 -1.6411e+001 -1.4175e+001 26120 107207,107285,107259
 1.3000e+000 107357 -7.3204e+001 -1.8753e+001  6.4971e+000 26120 107155,107207,107181
 1.3000e+000 107334 -1.5650e+002 -5.4414e+001 -1.0412e+001 26120 107103,107285,107129
 1.3000e+000 107311 -8.9560e+001  4.5488e+000 -5.9912e+000 26120 107207,107259,107233
 1.3000e+000 107755 -6.6303e+001 -4.4130e-001 -7.0677e+000 25758 107556,107634,107608
 1.3000e+000 107732 -1.2897e+002 -2.9850e+001  1.0861e+001 25758 107556,107660,107634
 1.3000e+000 107709 -4.5364e+001 -1.6254e+001  1.5108e+001 25758 107556,107608,107582
 1.3000e+000 107686 -1.0784e+002  5.3674e+001  3.7795e+001 25758 107530,107660,107556
 1.3000e+000 108438 -5.6154e+001 -1.2010e+001  6.6321e+000 25468 108121,108199,108173
 1.3000e+000 108415 -7.0196e+001 -5.0745e+001  3.0695e-001 25468 108095,108199,108121
 1.3000e+000 108392 -7.8967e+001 -3.3211e+001 -2.3736e+000 25468 108095,108251,108199
 1.3000e+000 108369 -9.3815e+001 -4.9222e+001  5.8047e+000 25468 108069,108251,108095
 1.3000e+000 108346 -5.5794e+001 -2.5462e+001  8.6239e+000 25468 108199,108251,108225
 1.3000e+000 108323 -1.1825e+002 -2.2765e+001 -1.3318e+001 25468 108017,108251,108069
 1.3000e+000 108300 -4.9284e+001 -1.5668e+001  1.1553e+001 25468 108121,108173,108147
 1.3000e+000 108277 -1.2326e+002 -3.4698e+001 -1.2115e+001 25468 108017,108069,108043
 1.3000e+000 108588 -5.8670e+001 -2.7255e+001 -6.7122e+000 25064 108611,108513,108487
 1.3000e+000 108565 -1.1595e+001  5.2038e+000  7.8671e+000 25064 108683,108611,108487
 1.3000e+000 108637 -7.3146e+001  1.5042e-001  5.8998e+000 25064 108539,108513,108611
 1.3000e+000 108660 -7.3369e+001  9.8665e+000  1.3230e+001 25064 108539,108611,108461
 1.3000e+000 108709 -8.1972e+001 -1.1370e+001  1.4246e+001 25064 108461,108611,108683
 1.3000e+000 109345 -1.1325e+002 -9.9171e+000  1.5399e+001 24410 108999,109155,109103
 1.3000e+000 109322 -2.4082e+002 -4.7608e+001  3.7274e+001 24410 108973,109155,108999
 1.3000e+000 109299 -1.0852e+002 -3.5774e+001  1.5588e+001 24410 109103,109155,109129
 1.3000e+000 109276 -1.1813e+002  1.5834e+001  8.5746e+000 24410 108973,109181,109155
 1.3000e+000 109253 -2.2099e+002 -6.3119e+001  4.5751e+001 24410 109025,109103,109077
 1.3000e+000 109230 -1.6724e+002 -4.9986e+001  3.3285e+001 24410 108999,109103,109025
 1.3000e+000 109207 -2.4974e+002  8.5060e+000  2.6548e+001 24410 109025,109077,109051
 1.3000e+000 109723 -1.4107e+002  2.2592e+001  2.9352e+000 23856 109475,109579,109553
 1.3000e+000 109700 -1.4088e+002 -1.6998e+001 -7.8119e-001 23856 109475,109605,109579
 1.3000e+000 109677 -1.6216e+002 -4.2445e+000 -5.1235e+001 23856 109475,109553,109527
 1.3000e+000 109654 -7.2336e+001  1.2416e+001  1.4433e+001 23856 109449,109605,109475
 1.3000e+000 109631 -8.5811e+001  3.4645e+001 -3.4379e+001 23856 109475,109527,109501
 1.3000e+000 110101 -1.2053e+002 -2.7348e+001  8.1044e+000 23566 109853,109931,109879
 1.3000e+000 110078 -1.1052e+002 -1.7753e+001  1.5015e+001 23566 109827,109931,109853
 1.3000e+000 110055 -6.8259e+001  2.8243e+001 -2.5983e+000 23566 109827,109983,109931
 1.3000e+000 110032 -1.1730e+002 -4.6239e+001 -8.6096e+000 23566 109879,109931,109905
 1.3000e+000 110009 -6.3438e+001  1.2805e+001  2.1508e+001 23566 109931,109983,109957
 1.3000e+000 110735 -1.2898e+002 -3.0998e+001  1.5189e+000 23162 110415,110571,110519
 1.3000e+000 110712 -1.3072e+002 -3.2987e+001  7.7932e-001 23162 110389,110571,110415
 1.3000e+000 110689 -1.9976e+002 -5.9761e+001  5.9808e+000 23162 110415,110519,110493
 1.3000e+000 110666 -1.0407e+002 -3.4427e+001 -1.8575e+001 23162 110363,110571,110389
 1.3000e+000 110643 -1.6924e+002 -2.4518e+001  2.6764e+001 23162 110441,110493,110467
 1.3000e+000 110620 -1.8358e+002 -4.8385e+001  9.7240e-001 23162 110415,110493,110441
 1.3000e+000 110597 -1.3239e+002 -9.9170e+000  5.0783e+000 23162 110519,110571,110545
 1.3000e+000 111211 -1.1921e+002 -2.6408e-001 -2.0145e+001 22708 111378,111306,111021
 1.3000e+000 111188 -1.2795e+002  3.9299e+000 -1.4929e+001 22708 111234,110969,110917
 1.3000e+000 111165 -1.0658e+002 -6.6361e+000 -1.3590e+001 22708 111450,111234,110917
 1.3000e+000 111142 -1.1378e+002  6.5982e+000 -1.0962e+001 22708 111378,111021,110995
 1.3000e+000 111119 -1.0704e+002 -2.1078e+001 -1.1985e-001 22708 111450,110917,110865
 1.3000e+000 111096 -2.9335e+002 -2.4668e+001 -1.3259e+001 22708 110917,110969,110943
 1.3000e+000 111073 -1.0672e+002 -3.0318e+001 -3.2243e+000 22708 110865,110917,110891
 1.3000e+000 111260 -1.2990e+002  1.0827e+001 -1.0492e+001 22708 111306,110969,111234
 1.3000e+000 111283 -1.2740e+002 -1.3827e+001  1.0327e+001 22708 111047,111234,110839
 1.3000e+000 111332 -2.0797e+002  7.9496e+001 -8.7448e+001 22708 111047,111021,111306
 1.3000e+000 111355 -1.6529e+002 -6.8831e+000  6.0948e+000 22708 111047,111306,111234
 1.3000e+000 111404 -1.3430e+002  9.2605e+000 -1.8750e+001 22708 110969,111306,111378
 1.3000e+000 111427 -1.3089e+002  5.1954e+000 -1.5603e+001 22708 110969,111378,110995
 1.3000e+000 111476 -1.1800e+002 -2.7308e+001  3.6080e+000 22708 110839,111234,111450
 1.3000e+000 111499 -1.2606e+002 -5.0209e+001  1.8182e+001 22708 110839,111450,110865
 1.3000e+000 111600 -1.8567e+002 -4.8521e+001  1.6396e+001 22460 111522,111574,111548
 1.3000e+000 112059 -1.2384e+002 -1.8470e+001  6.1650e+000 22056 111811,111889,111863
 1.3000e+000 112036 -1.7581e+002 -4.3973e+001  1.8751e+001 22056 111811,111915,111889
 1.3000e+000 112013 -1.2935e+002 -7.2067e+001 -3.6103e+001 22056 111785,111915,111811
 1.3000e+000 111990 -7.3938e+001 -4.9224e+001 -4.0933e+001 22056 111785,111941,111915
 1.3000e+000 111967 -5.9246e+001  1.4587e+001 -2.9857e+001 22056 111811,111863,111837
 1.3000e+000 112486 -1.8190e+002 -2.4717e+001  3.6550e-001 21594 112509,112267,112215
 1.3000e+000 112463 -1.8053e+002 -2.2061e+001 -1.1967e+001 21594 112509,112215,112163
 1.3000e+000 112440 -1.7115e+002 -5.9702e+001  2.0330e+001 21594 112581,112293,112267
 1.3000e+000 112417 -1.4024e+002 -6.6832e+001 -7.3390e+000 21594 112215,112267,112241
 1.3000e+000 112394 -2.1323e+002 -1.3297e+001 -3.1710e+001 21594 112163,112345,112319
 1.3000e+000 112371 -1.6805e+002  1.6147e+001 -1.2106e+001 21594 112163,112215,112189
 1.3000e+000 112535 -1.9002e+002 -4.1988e+001  3.1235e+000 21594 112581,112267,112509
 1.3000e+000 112558 -1.7951e+002 -3.7566e+001 -1.4485e+001 21594 112319,112509,112163
 1.3000e+000 112607 -1.3959e+002 -4.2869e+001  1.3592e+001 21594 112319,112293,112581
 1.3000e+000 112630 -1.5743e+002 -2.0332e+001 -6.2830e+000 21594 112319,112581,112509
 1.3000e+000 112900 -1.1606e+002  2.1059e+001 -1.2681e+000 20974 112675,112779,112701
 1.3000e+000 112877 -1.1739e+002  4.8055e+001 -1.6013e+001 20974 112675,112805,112779
 1.3000e+000 112854 -1.3588e+002 -3.4252e+001 -1.7212e+001 20974 112701,112779,112753
 1.3000e+000 112831 -1.5333e+002 -5.8333e+001 -4.3021e+000 20974 112701,112753,112727
 1.3000e+000 113359 -7.2538e+001  4.1480e+001  4.5673e+001 20520 113454,113137,113111
 1.3000e+000 113336 -1.0377e+002  1.3333e+001  3.2013e+001 20520 113454,113111,113085
 1.3000e+000 113313 -6.7532e+001 -1.5653e+001  3.6094e+001 20520 113382,113163,113137
 1.3000e+000 113290 -8.4269e+001 -1.4818e+001  3.6811e+001 20520 113526,113382,113137
 1.3000e+000 113267 -5.0366e+001  1.1711e+001  1.0312e+001 20520 113189,113241,113215
 1.3000e+000 113408 -6.5440e+001 -6.0260e+000  2.4922e+001 20520 113189,113163,113382
 1.3000e+000 113431 -7.8918e+001 -1.3520e+001  2.0946e+001 20520 113189,113382,113241
 1.3000e+000 113480 -9.2226e+001  6.2690e-001  3.1407e+001 20520 113526,113137,113454
 1.3000e+000 113503 -8.8220e+001  1.3157e+001  1.8864e+001 20520 113241,113454,113085
 1.3000e+000 113552 -6.8330e+001  7.7835e+000  2.7981e+001 20520 113241,113382,113526
 1.3000e+000 113575 -7.6496e+001  1.9985e+001  2.2039e+001 20520 113241,113526,113454
 1.3000e+000 113904 -1.9445e+001 -1.4673e+001 -3.0022e+001 19858 113705,113783,113757
 1.3000e+000 113881 -5.6865e+001 -1.9298e+001 -1.6294e+001 19858 113705,113809,113783
 1.3000e+000 113858 -4.1556e+001 -1.1475e+001 -2.1035e+001 19858 113679,113809,113705
 1.3000e+000 113835 -1.9138e+001  8.3872e+000  4.6547e+000 19858 113705,113757,113731
 1.3000e+000 114152 -1.6433e+002 -6.8051e+001 -3.4084e+001 19454 114175,114005,113979
 1.3000e+000 114129 -1.7120e+002 -6.9093e+001 -3.6562e+001 19454 114175,113979,114057
 1.3000e+000 114106 -1.7027e+002 -2.6677e+001  3.1952e+001 19454 113927,114057,113979
 1.3000e+000 114083 -1.3458e+002 -2.6254e+001 -5.8701e-001 19454 113927,113979,113953
 1.3000e+000 114201 -1.1213e+001 -2.3854e+000 -3.1153e+000 19454 114031,114005,114175
 1.3000e+000 114224 -1.6610e+002 -7.9504e+001 -3.5194e+001 19454 114031,114175,114057
 1.3000e+000 114472 -1.0096e+002 -3.2876e+001 -1.1352e+001 19000 114495,114273,114247
 1.3000e+000 114449 -1.0499e+002 -2.7029e+001 -1.4643e+001 19000 114495,114247,114325
 1.3000e+000 114426 -1.2292e+002 -3.2663e+001  2.5993e-001 19000 114247,114377,114325
 1.3000e+000 114403 -1.1476e+002 -1.5864e+001  3.7576e+000 19000 114325,114377,114351
 1.3000e+000 114521 -9.1260e+001 -2.8244e+001 -1.3826e+001 19000 114299,114273,114495
 1.3000e+000 114544 -1.0302e+002 -2.5096e+001 -1.5589e+001 19000 114299,114495,114325
 1.3000e+000 114948 -1.8771e+002 -3.6891e+001 -1.3049e+001 18560 114674,114726,114700
 1.3000e+000 114925 -1.8314e+002 -6.1597e+001 -1.4091e+001 18560 114674,114830,114726
 1.3000e+000 114902 -1.9336e+002 -8.7709e+001 -2.4683e+001 18560 114726,114830,114804
 1.3000e+000 114879 -1.3400e+002 -5.2316e+001 -3.3957e+000 18560 114726,114804,114752
 1.3000e+000 114856 -1.5781e+002 -6.7604e+001  5.3536e+000 18560 114752,114804,114778
 1.3000e+000 115098 -1.6259e+002 -3.7521e+001 -1.5759e+001 18156 114971,115023,114997
 1.3000e+000 115075 -1.7694e+002 -2.5709e+001 -1.0089e+001 18156 114971,115049,115023
 1.3000e+000 115248 -1.7678e+002  1.7463e+000  9.4688e+000 17602 115147,115199,115173
 1.3000e+000 115225 -9.5841e+001 -2.6900e+001 -1.8116e+000 17602 115121,115199,115147
 1.3000e+000 115652 -1.4149e+002 -7.5845e+001 -6.5539e+000 17354 115430,115534,115508
 1.3000e+000 115629 -1.3749e+002 -4.1575e+001 -1.1918e+001 17354 115404,115534,115430
 1.3000e+000 115606 -1.1512e+002 -5.3145e-001  4.2728e-001 17354 115378,115534,115404
 1.3000e+000 115583 -2.2739e+002 -4.9387e+001  2.0514e+001 17354 115456,115508,115482
 1.3000e+000 115560 -1.2714e+002 -4.6834e+001 -9.5936e-001 17354 115430,115508,115456
 1.3000e+000 115873 -9.0490e+001 -2.3551e+001  1.5330e+001 16950 115749,115801,115775
 1.3000e+000 115850 -1.2360e+002 -2.2506e+001  1.5401e+001 16950 115697,115801,115749
 1.3000e+000 115827 -1.3028e+002 -5.7779e+001  1.9022e+001 16950 115697,115749,115723
 1.3000e+000 116023 -2.1978e+002 -2.1147e+001  1.2446e+001 16496 115922,115974,115948
 1.3000e+000 116000 -1.2618e+002 -3.7391e+001  1.0537e+001 16496 115896,115974,115922
 1.3000e+000 116126 -2.0776e+002 -1.2604e+001 -1.4849e+001 16298 116048,116100,116074
 1.3000e+000 116278 -2.8774e+002 -4.9144e-001 -1.9965e+000 15892 116151,116203,116177
 1.3000e+000 116255 -2.7216e+002 -1.5842e+001 -2.9559e+001 15892 116151,116229,116203
 1.3000e+000 116430 -1.7938e+002 -1.3902e+002 -5.1648e-001 15545 116303,116355,116329
 1.3000e+000 116407 -1.4613e+002 -6.6757e+001  3.3518e+001 15545 116303,116381,116355
 1.3000e+000 116785 -2.6978e+001  1.8704e+001 -5.5124e+000 421 116612,116690,116664
 1.3000e+000 116762 -3.7204e+001 -4.3007e+000  1.4446e+001 421 116560,116690,116612
 1.3000e+000 116739 -1.9127e+001  9.4515e+000  1.6823e+000 421 116560,116612,116586
 1.3000e+000 116716  9.1697e+000 -2.4296e+000  3.0665e+000 421 116612,116664,116638
 1.4000e+000 68048 -1.5202e+002 -4.0832e+001 -5.7623e+000 67642 67898,67950,67924
 1.4000e+000 68025 -1.6850e+002 -5.9100e+001  3.4401e+000 67642 67898,67976,67950
 1.4000e+000 68002 -1.2262e+002 -3.6149e+001 -6.5634e+000 67642 67872,67976,67898
 1.4000e+000 68367 -6.1208e+001  8.8675e+000  1.0875e+001 67444 68119,68223,68197
 1.4000e+000 68344 -6.6122e+001 -2.6430e+001  8.6371e+000 67444 68119,68249,68223
 1.4000e+000 68321  4.5259e+000  3.2455e+000  5.8945e+000 67444 68093,68249,68119
 1.4000e+000 68298 -7.5942e+001 -1.9115e+001 -3.0243e+000 67444 68119,68197,68171
 1.4000e+000 68275 -6.0340e+001 -6.0136e+000  3.0986e+000 67444 68119,68171,68145
 1.4000e+000 68468 -8.5639e+001  1.6795e+000 -2.8787e+000 67268 68390,68442,68416
 1.4000e+000 68765 -1.2926e+002  6.8048e+000  4.3743e+000 66956 68788,68517,68491
 1.4000e+000 68742 -1.2163e+002 -1.9540e+001  1.7037e-001 66956 68788,68491,68621
 1.4000e+000 68719 -1.4341e+002 -3.1405e+001 -3.8696e+001 66956 68543,68621,68569
 1.4000e+000 68696 -1.1723e+002 -9.1989e+000 -4.5678e-001 66956 68491,68647,68621
 1.4000e+000 68673 -2.1411e+002 -6.7786e+001 -6.0763e+001 66956 68569,68621,68595
 1.4000e+000 68814 -1.2864e+002 -1.2885e+001  1.1850e+001 66956 68543,68517,68788
 1.4000e+000 68837 -1.1914e+002 -3.7643e+001  5.3298e+000 66956 68543,68788,68621
 1.4000e+000 69107 -1.0102e+002 -1.1855e+002 -9.2212e+000 66758 68882,68986,68908
 1.4000e+000 69084 -3.5972e+001 -7.8718e+001  1.2962e+001 66758 68882,69012,68986
 1.4000e+000 69061 -2.6218e+002 -4.9650e+001 -2.3806e+001 66758 68908,68960,68934
 1.4000e+000 69038 -8.2080e+001 -5.7952e+001 -1.7068e+001 66758 68908,68986,68960
 1.4000e+000 69308 -8.4685e+001  7.0861e+000 -1.2112e+000 66560 69331,69184,69158
 1.4000e+000 69285 -9.7333e+001  5.0991e+000 -3.5519e+000 66560 69331,69158,69132
 1.4000e+000 69262 -8.2553e+001 -1.8051e+001 -1.0823e+000 66560 69184,69236,69210
 1.4000e+000 69357 -7.5808e+001  3.5161e+000  1.4537e-002 66560 69236,69184,69331
 1.4000e+000 69380 -8.3586e+001  4.4961e+000 -3.5070e+000 66560 69236,69331,69132
 1.4000e+000 69554 -1.2241e+001 -7.0881e+000  9.0414e+000 66270 69427,69479,69453
 1.4000e+000 69531  5.1005e+000  3.3456e+001  1.7027e+001 66270 69427,69505,69479
 1.4000e+000 69804 -6.0485e+001 -4.3847e+000  2.6520e+001 66066 69579,69683,69657
 1.4000e+000 69781 -8.2628e+001 -1.0820e+001  7.0392e-001 66066 69579,69709,69683
 1.4000e+000 69758 -1.3508e-001 -1.7770e+000 -4.7397e+000 66066 69579,69657,69631
 1.4000e+000 69735  1.4784e+000  1.3786e-001  1.1888e+000 66066 69579,69631,69605
 1.4000e+000 70257 -4.6299e+001  3.8939e+001 -4.5544e+001 65776 69960,70090,69986
 1.4000e+000 70234 -4.9428e+001  5.5990e-001 -2.5868e+001 65776 69934,70090,69960
 1.4000e+000 70211 -3.7071e+001  2.2121e+001 -7.2338e+000 65776 69934,70116,70090
 1.4000e+000 70188 -5.3922e+001  5.8548e+001  0.0000e+000 65776 70038,70090,70064
 1.4000e+000 70165 -5.5728e+001  8.3551e+001 -2.8383e+001 65776 69986,70090,70038
 1.4000e+000 70142 -7.6200e+001  1.2499e+001 -4.8738e+001 65776 69986,70038,70012
 1.4000e+000 70456 -2.7044e+001  1.7441e+001  1.7216e+001 65372 70479,70306,70280
 1.4000e+000 70433 -1.5909e+001  3.2292e+001  1.1661e+001 65372 70479,70280,70384
 1.4000e+000 70410 -1.5118e+001  2.2214e+001  5.2045e+000 65372 70551,70332,70306
 1.4000e+000 70505 -1.5653e+001  1.8230e+001  8.0771e+000 65372 70551,70306,70479
 1.4000e+000 70528 -1.2248e+001  2.5156e+001  6.6942e+000 65372 70358,70479,70384
 1.4000e+000 70577 -1.7094e+001  2.7779e+001  5.4615e+000 65372 70358,70332,70551
 1.4000e+000 70600 -1.5654e+001  2.5727e+001  7.8501e+000 65372 70358,70551,70479
 1.4000e+000 70821 -8.3424e+001 -6.1106e+001 -3.3698e+000 65174 70645,70723,70671
 1.4000e+000 70798 -8.9589e+001 -5.6198e+001  1.2920e+001 65174 70645,70749,70723
 1.4000e+000 70775 -7.6400e+001 -4.7407e+001 -7.1717e+000 65174 70671,70723,70697
 1.4000e+000 71071 -1.0161e+002 -2.3066e+001 -1.2376e+001 64770 71094,70898,70872
 1.4000e+000 71048 -8.0292e+001 -1.7934e+001 -2.4001e+000 64770 71166,71094,70872
 1.4000e+000 71025 -7.6399e+001 -2.4504e+001 -7.9615e+000 64770 71166,70872,70846
 1.4000e+000 71002 -1.2240e+002 -1.6034e+001 -8.1533e+000 64770 70898,70950,70924
 1.4000e+000 71120 -8.7899e+001 -3.1236e+000 -5.9461e+000 64770 70950,70898,71094
 1.4000e+000 71143 -7.8427e+001 -1.8687e+001  4.9819e+000 64770 70950,71094,70976
 1.4000e+000 71192 -8.7654e+001 -3.1551e+001  4.1684e-001 64770 70976,71094,71166
 1.4000e+000 71215 -8.1353e+001 -3.3200e+001 -5.8945e+000 64770 70976,71166,70846
 1.4000e+000 71514 -1.1203e+002 -1.1257e+001 -8.8729e+000 64572 71681,71537,71318
 1.4000e+000 71491 -1.3604e+002  2.9348e+001 -2.9794e+000 64572 71537,71266,71240
 1.4000e+000 71468 -1.2929e+002  9.3111e+000 -3.7985e+001 64572 71609,71396,71370
 1.4000e+000 71445 -9.6819e+001 -4.1944e+001  3.4182e+000 64572 71681,71318,71292
 1.4000e+000 71422 -5.4615e+001 -2.3687e+001 -1.5502e+001 64572 71753,71344,71318
 1.4000e+000 71563 -6.1207e+001  1.5177e+001 -4.5059e+001 64572 71753,71318,71537
 1.4000e+000 71586 -1.2129e+002  1.1935e+001 -3.7958e+001 64572 71609,71370,71537
 1.4000e+000 71635 -1.4225e+002 -4.5539e+000 -1.0787e+001 64572 71240,71396,71609
 1.4000e+000 71658 -1.1205e+002  8.2237e+000 -1.5189e+001 64572 71240,71609,71537
 1.4000e+000 71707 -1.0556e+002  4.0241e+001 -5.2595e+000 64572 71266,71537,71681
 1.4000e+000 71730 -8.7583e+001  1.6641e+001  1.8863e+001 64572 71266,71681,71292
 1.4000e+000 71779  3.2995e+000  1.3279e+001 -3.8145e+001 64572 71370,71344,71753
 1.4000e+000 71802 -2.7221e+001  2.9479e+001 -5.0715e+001 64572 71370,71753,71537
 1.4000e+000 72052 -6.7247e+001 -3.0960e+001 -1.2527e+001 64374 72075,71879,71827
 1.4000e+000 72029 -6.7441e+001 -2.8500e+001 -1.6951e+001 64374 72147,72075,71827
 1.4000e+000 72006 -6.3345e+001 -2.0428e+001 -1.0780e+001 64374 72147,71827,71957
 1.4000e+000 71983 -6.3057e+001 -1.4642e+001 -1.3008e+001 64374 71827,71879,71853
 1.4000e+000 72101 -6.6876e+001 -3.2449e+001 -1.1178e+001 64374 71905,71879,72075
 1.4000e+000 72124 -8.2191e+001 -2.9126e+001 -1.9347e+001 64374 71905,72075,71931
 1.4000e+000 72173 -6.8385e+001 -1.1650e+001 -1.3366e+001 64374 71931,72075,72147
 1.4000e+000 72196 -7.0424e+001 -7.1618e+000 -9.6901e+000 64374 71931,72147,71957
 1.4000e+000 72649 -1.1405e+002 -2.7807e+001  1.0293e+001 63948 72352,72508,72482
 1.4000e+000 72626 -1.2447e+002 -5.2874e+001 -1.6497e+001 63948 72326,72508,72352
 1.4000e+000 72603 -1.0326e+002 -3.0821e+001 -5.9372e+000 63948 72672,72430,72378
 1.4000e+000 72580 -8.4476e+001 -1.0365e+001 -1.4095e+001 63948 72672,72378,72352
 1.4000e+000 72557 -9.8256e+001 -4.8780e+001 -1.4563e+000 63948 72744,72456,72430
 1.4000e+000 72534 -1.0078e+002 -7.2495e+000  9.3299e+000 63948 72378,72430,72404
 1.4000e+000 72698 -9.5374e+001 -4.4987e+001  4.5431e-001 63948 72744,72430,72672
 1.4000e+000 72721 -8.8976e+001 -2.6823e+001  4.2210e+000 63948 72482,72672,72352
 1.4000e+000 72770 -1.0845e+002 -4.1091e+001 -2.1077e-001 63948 72482,72456,72744
 1.4000e+000 72793 -1.0027e+002 -3.1613e+001  3.4003e+000 63948 72482,72744,72672
 1.4000e+000 72894 -1.1446e+002 -8.7152e+000  9.8154e+000 63494 72816,72868,72842
 1.4000e+000 73093 -6.5166e+001  2.1583e+000 -7.8987e+000 63132 72943,72995,72969
 1.4000e+000 73070 -1.4102e+002 -2.7619e+001 -4.4351e+000 63132 72943,73021,72995
 1.4000e+000 73047 -1.3923e+002 -1.6763e+001 -5.6797e+000 63132 72917,73021,72943
 1.4000e+000 73294 -5.9341e+001  1.2806e+001  5.0770e+000 62792 73317,73144,73118
 1.4000e+000 73271 -5.4090e+001  2.0423e+001 -3.6872e+000 62792 73317,73118,73222
 1.4000e+000 73248  4.1055e-001  1.0731e+000  2.0858e-001 62792 73144,73196,73170
 1.4000e+000 73343 -4.8059e+001  7.4404e+000 -4.2195e+000 62792 73196,73144,73317
 1.4000e+000 73366 -4.1310e+001  1.9755e+001 -1.3666e+001 62792 73196,73317,73222
 1.4000e+000 73616 -9.4962e+001 -9.7224e+000  9.7055e+000 62388 73639,73417,73391
 1.4000e+000 73593 -9.0938e+001 -6.2393e-001  7.7752e+000 62388 73711,73639,73391
 1.4000e+000 73570 -9.2271e+001  1.4398e+001  7.6702e+000 62388 73711,73391,73521
 1.4000e+000 73547 -8.4524e+001 -2.8473e+000 -1.6828e+001 62388 73469,73521,73495
 1.4000e+000 73665 -8.0441e+001 -2.9706e+000  1.3823e+001 62388 73443,73417,73639
 1.4000e+000 73688 -9.0637e+001 -1.8091e+001  9.3932e+000 62388 73443,73639,73469
 1.4000e+000 73737 -9.3029e+001 -1.1525e+001  4.4546e+000 62388 73469,73639,73711
 1.4000e+000 73760 -9.7844e+001 -2.9370e+000  6.0877e+000 62388 73469,73711,73521
 1.4000e+000 74010 -1.2516e+002 -3.4025e+001 -2.7745e+001 61848 74033,73837,73811
 1.4000e+000 73987 -4.9681e+001 -2.6353e+001  3.4476e+000 61848 74033,73811,73785
 1.4000e+000 73964 -9.9988e+001  2.7163e+000  1.4508e+001 61848 73837,73915,73889
 1.4000e+000 73941 -1.9220e+002 -2.0154e+001 -3.0180e+001 61848 73837,73889,73863
 1.4000e+000 74059 -1.3289e+002 -8.0084e+000 -1.0789e+001 61848 73915,73837,74033
 1.4000e+000 74082 -1.2569e+002  9.7726e+000 -1.3809e-001 61848 73915,74033,73785
 1.4000e+000 74283 -1.0935e+002 -3.0404e+000 -2.1092e+001 61444 74306,74133,74107
 1.4000e+000 74260 -1.2529e+002 -7.3206e+000  2.0191e+001 61444 74306,74107,74211
 1.4000e+000 74237 -1.3584e+002 -3.6903e+001  2.9894e+001 61444 74378,74185,74159
 1.4000e+000 74332 -1.5698e+002 -2.3370e+001 -1.9594e+001 61444 74159,74133,74306
 1.4000e+000 74355 -1.4951e+002 -1.9985e+001  2.3794e+001 61444 74378,74159,74306
 1.4000e+000 74404 -1.3418e+002 -1.8937e+001  1.9054e+001 61444 74211,74185,74378
 1.4000e+000 74427 -1.3842e+002 -1.2023e+001  1.9714e+001 61444 74211,74378,74306
 1.4000e+000 74628 -7.9379e+001 -2.0093e+000  2.3653e+001 60990 74478,74530,74504
 1.4000e+000 74605 -1.6348e+001  9.1862e+000  1.6505e+001 60990 74452,74530,74478
 1.4000e+000 74582 -9.6402e+001 -4.9043e+000  2.0935e+001 60990 74452,74556,74530
 1.4000e+000 75089 -1.9465e+001  2.5628e+000 -8.9141e+000 60486 75112,74945,74919
 1.4000e+000 75066 -3.5739e+001  5.5943e+000  8.5103e+000 60486 75112,74919,74867
 1.4000e+000 75043 -4.7993e+001 -5.9092e+000  1.2110e+001 60486 74841,74971,74867
 1.4000e+000 75020 -1.0672e+002 -1.0603e+001 -7.3179e+000 60486 74867,74919,74893
 1.4000e+000 74997 -2.5681e+001  7.3683e-001  1.1223e+001 60486 74815,74971,74841
 1.4000e+000 75138 -4.2099e+001 -6.2449e+000 -7.9821e+000 60486 74971,74945,75112
 1.4000e+000 75161 -5.1210e+001  1.9471e+000  8.0927e+000 60486 74971,75112,74867
 1.4000e+000 75409 -8.2071e+001 -2.4667e+001 -1.0408e+001 59932 75576,75432,75288
 1.4000e+000 75386 -1.0728e+002 -2.6548e+001 -2.5294e+001 59932 75504,75314,75288
 1.4000e+000 75363 -6.1431e+001  4.5708e+000  1.1828e+001 59932 75432,75236,75210
 1.4000e+000 75340 -4.7571e+001 -8.2073e+000 -5.5079e+000 59932 75576,75288,75262
 1.4000e+000 75458 -1.0608e+002 -2.8874e+001 -2.4593e+001 59932 75504,75288,75432
 1.4000e+000 75481 -1.0487e+002 -1.9869e+001  6.5726e-001 59932 75184,75432,75210
 1.4000e+000 75530 -1.3417e+002 -3.3415e+001 -5.8392e+000 59932 75184,75314,75504
 1.4000e+000 75553 -9.9928e+001 -2.6801e+001 -2.0605e+001 59932 75184,75504,75432
 1.4000e+000 75602 -1.0260e+002 -1.0909e+001 -6.7742e+000 59932 75236,75432,75576
 1.4000e+000 75625 -9.8703e+001 -1.3497e+001 -8.9938e+000 59932 75236,75576,75262
 1.4000e+000 75873 -3.6386e+001 -2.0148e+001  3.0132e+001 59478 75674,75752,75700
 1.4000e+000 75850 -1.5803e+001 -1.2145e+001  1.0051e+001 59478 75648,75752,75674
 1.4000e+000 75827 -3.0972e+001 -1.6913e+000  3.9244e+001 59478 75700,75752,75726
 1.4000e+000 75804 -6.4243e+001  7.5742e+000  1.2784e+001 59478 75648,75778,75752
 1.4000e+000 76206 -2.6344e+001 -4.5246e+000 -6.1001e+000 59024 75981,76059,76007
 1.4000e+000 76183 -2.8539e+001 -4.7215e-001 -6.8147e+000 59024 75981,76111,76059
 1.4000e+000 76160 -3.2394e+001 -8.6131e+000 -4.2681e+000 59024 76007,76059,76033
 1.4000e+000 76137 -2.6536e+001 -3.6791e+000 -7.1331e-001 59024 76059,76111,76085
 1.4000e+000 76761 -6.9793e+001 -1.1616e+001  2.3923e+001 58562 76389,76441,76415
 1.4000e+000 76738 -1.0206e+002 -2.4288e+001 -3.1927e+000 58562 76856,76784,76389
 1.4000e+000 76715 -1.0547e+002 -1.8449e+001 -2.0142e+001 58562 76784,76571,76467
 1.4000e+000 76692 -1.4232e+002 -1.8216e+001 -4.4278e+000 58562 76856,76389,76597
 1.4000e+000 76669 -1.5568e+002 -6.3740e+001 -2.0110e+001 58562 76467,76545,76493
 1.4000e+000 76646 -9.9037e+001 -3.7958e+001 -2.5914e+001 58562 76467,76571,76545
 1.4000e+000 76623 -1.0530e+002 -1.4281e+001  3.2087e+000 58562 76493,76545,76519
 1.4000e+000 76810 -1.0385e+002 -2.8184e+001 -2.6562e+000 58562 76441,76389,76784
 1.4000e+000 76833 -9.7528e+001 -2.0796e+001  3.2336e+000 58562 76441,76784,76467
 1.4000e+000 76882 -1.4651e+002 -3.4599e+001 -2.3065e+001 58562 76571,76784,76856
 1.4000e+000 76905 -1.7044e+002 -1.7385e+001 -2.5923e+001 58562 76571,76856,76597
 1.4000e+000 77055 -1.4914e+002 -4.9428e+001  3.7799e+000 57844 76928,76980,76954
 1.4000e+000 77032 -1.1728e+002 -6.8409e+000 -1.0587e+001 57844 76928,77006,76980
 1.4000e+000 77533 -1.4091e+002 -5.1351e+001 -3.4755e+000 57226 77628,77556,77291
 1.4000e+000 77510 -1.3941e+002  2.0770e+001  8.1673e+000 57226 77556,77187,77343
 1.4000e+000 77487 -9.6434e+001 -4.7594e+001 -1.0591e+001 57226 77628,77291,77265
 1.4000e+000 77464 -7.8862e+001 -4.0882e+001 -2.0221e+001 57226 77700,77213,77187
 1.4000e+000 77441 -2.3833e+002 -1.3051e+001  1.6241e+001 57226 77161,77343,77187
 1.4000e+000 77418 -1.5004e+002 -7.9395e+000  9.5072e+000 57226 77161,77369,77343
 1.4000e+000 77395 -8.1583e+001 -1.3315e+001 -3.5951e+001 57226 77213,77265,77239
 1.4000e+000 77582 -1.4578e+002 -5.3266e+001  1.1276e+001 57226 77317,77291,77556
 1.4000e+000 77605 -1.6436e+002 -8.6366e+000 -2.6764e+000 57226 77317,77556,77343
 1.4000e+000 77654 -7.4004e+001 -1.3486e+001  1.1692e+001 57226 77187,77556,77628
 1.4000e+000 77677 -7.1129e+001 -4.3055e+001 -8.1780e+000 57226 77700,77187,77628
 1.4000e+000 77726 -1.0621e+002 -5.2872e+001 -2.5277e+001 57226 77265,77213,77700
 1.4000e+000 77749 -9.7570e+001 -5.2092e+001 -1.1457e+001 57226 77265,77700,77628
 1.4000e+000 78046 -1.3650e+002  1.2548e+001 -3.4053e+000 56936 77798,77850,77824
 1.4000e+000 78023 -1.3234e+002 -2.5650e+001 -1.3907e+001 56936 78069,77798,77902
 1.4000e+000 78000 -1.1654e+002 -2.8435e+001 -1.0972e+001 56936 78069,77902,77876
 1.4000e+000 77977 -1.6870e+002 -4.4436e+001 -3.1343e+001 56936 77798,77928,77902
 1.4000e+000 77954 -1.4107e+002 -1.9294e+001 -2.0732e+001 56936 77772,77928,77798
 1.4000e+000 78095 -1.3721e+002 -2.7521e+001 -1.3386e+001 56936 77850,77798,78069
 1.4000e+000 78118 -1.2980e+002 -3.4697e+001 -9.2303e+000 56936 77850,78069,77876
 1.4000e+000 78754 -4.1426e+001  3.9357e+000  3.3301e+000 56475 78777,78486,78408
 1.4000e+000 78731 -9.9427e+001 -3.8542e+001  2.2301e+001 56475 78777,78408,78382
 1.4000e+000 78708 -7.6855e+001 -2.5272e+001 -2.8683e+001 56475 78849,78512,78486
 1.4000e+000 78685 -4.3003e+001  6.7504e+000 -5.5847e+000 56475 78382,78590,78564
 1.4000e+000 78662 -1.4169e+002 -2.7955e+001 -5.6296e+001 56475 78512,78564,78538
 1.4000e+000 78639 -5.6520e+001 -1.1416e+001  4.6900e+000 56475 78434,78486,78460
 1.4000e+000 78616 -4.9557e+001 -1.3491e+001  6.0116e+000 56475 78408,78486,78434
 1.4000e+000 78803 -8.3651e+001 -1.1368e+001 -1.2220e+001 56475 78849,78486,78777
 1.4000e+000 78826 -8.0087e+001  1.3753e+001  2.5925e+000 56475 78564,78777,78382
 1.4000e+000 78875 -6.6498e+001  2.9991e+000 -2.5858e+001 56475 78564,78512,78849
 1.4000e+000 78898 -7.3097e+001  2.1099e+001 -1.2688e+001 56475 78564,78849,78777
 1.4000e+000 79276 -6.1424e+001  1.6468e+001  1.3891e+001 55964 79299,79080,79028
 1.4000e+000 79253 -8.9269e+001  5.0535e+000  1.5927e+001 55964 79299,79028,79132
 1.4000e+000 79230 -6.1072e+001 -1.9844e+001  9.8538e+000 55964 79028,79080,79054
 1.4000e+000 79207 -9.5682e+001 -4.1404e+001 -5.5309e+000 55964 79002,79132,79028
 1.4000e+000 79184 -8.2514e+001 -3.4409e+001 -2.0571e+001 55964 79002,79158,79132
 1.4000e+000 79325 -7.2409e+001  2.9451e+001 -9.8349e+000 55964 79106,79080,79299
 1.4000e+000 79348 -1.0397e+002  1.6248e+001 -6.5276e+000 55964 79106,79299,79132
 1.4000e+000 79498 -1.2670e+002  3.0611e+001 -2.6086e+001 55452 79397,79449,79423
 1.4000e+000 79475 -8.9081e+001  1.3810e+001 -9.6485e+000 55452 79371,79449,79397
 1.4000e+000 79795 -4.9884e+001  1.4950e+001  1.0128e+001 55048 79962,79818,79573
 1.4000e+000 79772 -6.7299e+001 -7.0587e+000 -8.9323e+000 55048 79818,79521,79677
 1.4000e+000 79749 -4.3776e+001 -2.7370e+001  1.2372e+001 55048 79599,79651,79625
 1.4000e+000 79726 -7.0106e+001 -1.3532e+001  6.3294e+000 55048 79890,79651,79599
 1.4000e+000 79703 -2.5308e+001  4.2484e+001  2.8737e+001 55048 79962,79573,79547
 1.4000e+000 79844 -6.4776e+001 -8.9331e+000  2.7824e+000 55048 79599,79573,79818
 1.4000e+000 79867 -6.6323e+001 -2.4028e+000  3.2566e+000 55048 79890,79599,79818
 1.4000e+000 79916 -6.3924e+001 -8.6216e+000 -4.2887e+000 55048 79677,79651,79890
 1.4000e+000 79939 -6.3144e+001 -4.0468e+000 -7.2602e+000 55048 79677,79890,79818
 1.4000e+000 79988 -6.5976e+001 -2.7460e+000 -9.7365e+000 55048 79521,79818,79962
 1.4000e+000 80011 -6.0824e+001  3.8889e+000  5.3623e+000 55048 79521,79962,79547
 1.4000e+000 80212 -1.2165e+002  1.1508e+001  1.1374e+001 54436 80235,80088,80036
 1.4000e+000 80189 -9.1994e+001  1.2143e+001  9.6546e+000 54436 80235,80036,80140
 1.4000e+000 80166 -1.2355e+002 -2.0011e+000  6.2694e+000 54436 80036,80088,80062
 1.4000e+000 80261 -9.6792e+001 -5.2511e+000  2.8967e+001 54436 80114,80088,80235
 1.4000e+000 80284 -5.7357e+001  2.9056e+000  2.7715e+001 54436 80114,80235,80140
 1.4000e+000 80534 -1.1703e+002 -8.5526e-001  1.5247e+000 54032 80557,80361,80335
 1.4000e+000 80511 -1.0258e+002  2.0987e+001 -1.1024e+001 54032 80557,80335,80309
 1.4000e+000 80488 -9.0689e+001 -1.7997e+000  7.8652e-001 54032 80629,80413,80387
 1.4000e+000 80465 -4.4350e+001 -1.0497e+001 -7.7183e+000 54032 80309,80439,80413
 1.4000e+000 80583 -1.0997e+002 -4.0500e+001  1.4723e+001 54032 80387,80361,80557
 1.4000e+000 80606 -9.1214e+001 -1.9522e+000  4.7081e+000 54032 80629,80387,80557
 1.4000e+000 80655 -9.5180e+001 -3.9979e+000  2.0134e+000 54032 80309,80413,80629
 1.4000e+000 80678 -9.7647e+001 -4.1167e+000  5.3653e+000 54032 80309,80629,80557
 1.4000e+000 81139 -7.5542e+001  5.9528e+000  3.6167e+001 53784 80865,80995,80917
 1.4000e+000 81116 -1.1667e+002  1.0473e+001 -2.3313e+001 53784 80865,81021,80995
 1.4000e+000 81093 -5.0172e+001 -7.0246e+000  1.3929e+001 53784 80943,80995,80969
 1.4000e+000 81070 -4.4858e+001 -2.7294e+001  2.8192e+001 53784 80917,80995,80943
 1.4000e+000 81047 -1.4953e+002  2.1908e+002  9.1979e+001 53784 80865,80917,80891
 1.4000e+000 81468 -1.0002e+002 -2.6547e+001 -1.9789e-001 53230 81295,81373,81347
 1.4000e+000 81445 -7.8725e+001 -5.5120e+000  1.0406e+001 53230 81243,81373,81295
 1.4000e+000 81422 -6.1900e+001 -9.1142e+000  2.4357e+001 53230 81243,81295,81269
 1.4000e+000 81399 -1.1184e+002 -3.7560e+001  1.6486e+001 53230 81295,81347,81321
 1.4000e+000 81618 -2.2135e+002  8.5742e+001 -4.3046e+001 52790 81491,81543,81517
 1.4000e+000 81595 -2.0937e+002 -2.5264e+001 -3.0941e+001 52790 81491,81569,81543
 1.4000e+000 82126 -4.0628e+001 -9.0370e+000  1.3609e+001 52386 82149,81907,81881
 1.4000e+000 82103 -3.5210e+001  7.5747e+000  1.8662e+001 52386 82149,81881,81855
 1.4000e+000 82080 -4.7506e+001 -2.3077e+001 -3.3584e+000 52386 82221,81803,81985
 1.4000e+000 82057 -1.1508e+001  3.0213e+000  1.9209e+001 52386 81803,81855,81829
 1.4000e+000 82034 -2.4494e+001 -1.1524e+001 -9.2828e+000 52386 81907,81985,81933
 1.4000e+000 82011 -1.4056e+001 -1.6958e+001 -6.7605e+000 52386 81933,81985,81959
 1.4000e+000 82175 -3.0488e+001 -5.7162e-001  9.6944e+000 52386 81985,81907,82149
 1.4000e+000 82198 -3.9480e+001 -1.1022e+001  5.7713e+000 52386 82221,81985,82149
 1.4000e+000 82247 -4.4643e+001 -3.4796e+000  6.0421e+000 52386 81855,81803,82221
 1.4000e+000 82270 -4.5092e+001  5.3622e+000  1.2277e+001 52386 81855,82221,82149
 1.4000e+000 82825 -1.8370e+002 -3.1761e+001 -5.1500e+001 51782 82505,82661,82635
 1.4000e+000 82802 -9.5861e+001 -4.8773e+001  2.1980e+001 51782 82479,82661,82505
 1.4000e+000 82779 -1.1885e+002 -4.6077e+001  3.2514e+001 51782 82557,82635,82609
 1.4000e+000 82756 -1.3584e+002 -8.9779e+001 -8.6941e+000 51782 82531,82635,82557
 1.4000e+000 82733 -1.7701e+002 -9.8127e+000 -2.2003e+001 51782 82505,82635,82531
 1.4000e+000 82710 -1.4285e+002 -1.0563e+002 -1.6771e+001 51782 82453,82661,82479
 1.4000e+000 82687 -1.0345e+002 -4.8271e+001  3.3641e+001 51782 82557,82609,82583
 1.4000e+000 83171 -9.5546e+001  6.3056e+000 -1.7546e+001 51442 83194,82978,82900
 1.4000e+000 83148 -1.2461e+002 -1.3625e+000 -2.6583e+001 51442 83194,82900,82874
 1.4000e+000 83125 -1.4731e+002 -1.4931e+001 -7.6626e+000 51442 82900,82978,82926
 1.4000e+000 83102 -1.4967e+002 -3.8888e+001 -2.8540e+001 51442 82874,83030,83004
 1.4000e+000 83079 -6.1315e+001  7.6786e+000 -1.6450e+001 51442 82926,82978,82952
 1.4000e+000 83056 -8.5338e+001 -1.6109e+001 -1.7435e+001 51442 82848,83030,82874
 1.4000e+000 83220 -6.3074e+001 -4.2301e+000 -1.3529e+001 51442 83004,82978,83194
 1.4000e+000 83243 -9.9631e+001 -1.9524e+001 -2.5311e+001 51442 83004,83194,82874
 1.4000e+000 83751 -7.8788e+001 -9.1554e+000  9.7462e+000 50938 83428,83584,83454
 1.4000e+000 83728 -1.1054e+002 -1.9739e+001 -7.0786e+000 50938 83428,83610,83584
 1.4000e+000 83705 -1.1110e+002 -3.0225e+001 -1.2786e+000 50938 83454,83584,83558
 1.4000e+000 83682 -1.5399e+002 -1.8169e+001 -4.3528e+000 50938 83454,83532,83480
 1.4000e+000 83659 -1.3295e+002 -4.0649e+001 -6.2672e+000 50938 83454,83558,83532
 1.4000e+000 83636 -1.0711e+002  1.4318e+001  9.9168e+000 50938 83480,83532,83506
 1.4000e+000 84355 -1.2318e+002 -6.1570e+001  1.5639e+001 50377 84378,83960,83934
 1.4000e+000 84332 -9.8233e+001 -2.3498e+001 -1.7381e+001 50377 84522,84378,83934
 1.4000e+000 84309 -1.3058e+002 -2.6801e+001 -3.9992e+000 50377 84450,84038,84012
 1.4000e+000 84286 -9.0497e+001 -3.1037e+001 -1.7485e+001 50377 84522,83934,84142
 1.4000e+000 84263 -1.2063e+002 -8.2487e+001  1.8425e+001 50377 84594,84090,84038
 1.4000e+000 84240 -4.2962e+001 -3.4600e+001  1.7736e+001 50377 83960,84012,83986
 1.4000e+000 84217 -7.0351e+001 -2.8185e+001 -9.2717e+000 50377 83934,84168,84142
 1.4000e+000 84194 -2.7141e+001 -4.9021e+001  2.5566e+001 50377 84038,84090,84064
 1.4000e+000 84404 -2.2008e+001 -1.7538e+001  5.9583e+000 50377 84012,83960,84378
 1.4000e+000 84427 -1.0102e+002 -2.1122e+001 -2.2783e+001 50377 84450,84012,84378
 1.4000e+000 84476 -1.3777e+002 -5.7493e+001  1.3134e+001 50377 84594,84038,84450
 1.4000e+000 84499 -1.2051e+002 -3.0087e+001 -7.0199e+000 50377 84116,84450,84378
 1.4000e+000 84548 -9.2013e+001 -1.4773e+001 -1.3879e+001 50377 84116,84378,84522
 1.4000e+000 84571 -8.5177e+001 -2.3583e+001 -1.4149e+001 50377 84116,84522,84142
 1.4000e+000 84620 -1.0278e+002 -4.8880e+001  3.2429e+000 50377 84116,84090,84594
 1.4000e+000 84643 -1.1683e+002 -2.3012e+001 -3.6401e+000 50377 84116,84594,84450
 1.4000e+000 84842 -1.0632e+002 -5.0945e+000 -3.2144e+001 49923 84865,84692,84666
 1.4000e+000 84819 -6.1344e+001 -1.6417e+001  6.0876e-001 49923 84865,84666,84770
 1.4000e+000 84796  3.3183e+000  7.6041e+000 -5.5880e+000 49923 84692,84744,84718
 1.4000e+000 84891 -7.6477e+001  9.8552e+000 -8.2021e+000 49923 84744,84692,84865
 1.4000e+000 84914 -2.4276e+001  1.6064e+001  2.8490e+001 49923 84744,84865,84770
 1.4000e+000 85501 -1.3165e+002 -2.4793e+001  3.5707e+000 49618 85524,85282,85204
 1.4000e+000 85478 -1.3945e+002 -2.0837e+001  1.1945e+001 49618 85596,85524,85204
 1.4000e+000 85455 -1.3495e+002 -2.4175e+001  1.2427e+001 49618 85596,85204,85178
 1.4000e+000 85432 -1.4293e+002 -4.1672e+001  1.0579e+001 49618 85204,85282,85256
 1.4000e+000 85409 -8.0337e+001 -4.9954e+000 -2.7440e+000 49618 85282,85334,85308
 1.4000e+000 85386 -1.3052e+002 -1.6727e+001  1.8602e+000 49618 85204,85256,85230
 1.4000e+000 85550 -1.1122e+002 -1.3537e+000 -1.9772e+001 49618 85334,85282,85524
 1.4000e+000 85573 -1.7695e+002 -2.6746e+001 -9.7529e+000 49618 85334,85524,85360
 1.4000e+000 85622 -1.4635e+002 -2.3972e+001  1.3832e+001 49618 85360,85524,85596
 1.4000e+000 85645 -1.4052e+002 -2.5885e+001  1.3439e+001 49618 85360,85596,85178
 1.4000e+000 85795 -4.0121e+002 -1.2586e+002  3.3568e+001 49278 85694,85746,85720
 1.4000e+000 85772 -4.6004e+002 -1.3037e+002  2.4547e+000 49278 85668,85746,85694
 1.4000e+000 86197 -1.5826e+002 -7.0912e+001 -1.4893e+001 48916 86001,86079,86027
 1.4000e+000 86174 -1.5517e+002 -7.3501e+001 -2.1652e+001 48916 85949,86079,86001
 1.4000e+000 86151 -1.9879e+002 -1.0255e+002 -5.5113e+000 48916 85949,86001,85975
 1.4000e+000 86128 -1.6171e+002 -5.7727e+001 -5.4726e+000 48916 86027,86079,86053
 1.4000e+000 86105 -3.0619e+002 -1.3512e+002 -3.5257e+001 48916 85923,86079,85949
 1.4000e+000 86477  7.3887e-001  3.1289e+000  2.4485e+001 48398 86327,86379,86353
 1.4000e+000 86454 -3.1705e+001 -3.5307e+001  8.6865e+000 48398 86500,86379,86327
 1.4000e+000 86431 -1.4728e+001 -3.4376e+001  1.8879e+001 48398 86301,86405,86379
 1.4000e+000 86526 -2.1565e+001 -2.7764e+001  1.2305e+001 48398 86301,86379,86500
 1.4000e+000 87032 -1.1125e+002 -2.7092e+001  8.4166e-001 48008 87127,87055,86787
 1.4000e+000 87009 -1.1585e+002 -3.8708e+001  3.7775e+000 48008 87055,86735,86709
 1.4000e+000 86986 -1.0301e+002 -3.2931e+001 -5.5182e-001 48008 87127,86787,86761
 1.4000e+000 86963 -9.7496e+001 -3.2325e+001  9.5247e+000 48008 86787,86865,86839
 1.4000e+000 86940 -1.2581e+002 -3.9944e+001 -5.7046e-002 48008 86709,86891,86865
 1.4000e+000 86917 -1.3702e+002 -2.2850e+001  2.3823e+001 48008 86787,86839,86813
 1.4000e+000 87081 -1.1288e+002 -3.2736e+001  5.0215e-001 48008 86865,86787,87055
 1.4000e+000 87104 -1.0931e+002 -3.3330e+001 -2.0348e+000 48008 86865,87055,86709
 1.4000e+000 87153 -9.9320e+001 -3.0469e+001  1.0482e+000 48008 86735,87055,87127
 1.4000e+000 87176 -7.5117e+001 -2.1197e+001 -6.6210e+000 48008 86735,87127,86761
 1.4000e+000 87456 -3.5022e+001 -1.3214e+001 -1.0109e+001 47604 87306,87358,87332
 1.4000e+000 87433 -6.4668e+001 -3.1724e+001 -1.7186e+000 47604 87306,87384,87358
 1.4000e+000 87410 -3.9889e+001 -2.1132e+001 -2.3534e+000 47604 87280,87384,87306
 1.4000e+000 87785 -1.3847e+001 -1.0104e+001  8.5251e+000 47264 87638,87690,87664
 1.4000e+000 87762 -1.3675e+001  2.2468e+001  3.1765e+000 47264 87612,87690,87638
 1.4000e+000 87739 -1.9149e+001 -1.9352e+000  6.2193e+000 47264 87560,87690,87612
 1.4000e+000 87716 -8.5478e+000 -1.2979e+000 -3.8544e+000 47264 87560,87612,87586
 1.4000e+000 87935 -1.9057e+002 -3.7024e+001  2.7428e+000 46952 87808,87860,87834
 1.4000e+000 87912 -1.7249e+002 -3.8506e+000 -5.5742e+000 46952 87808,87886,87860
 1.4000e+000 88281 -1.3081e+002 -3.2574e+001  8.0401e-001 46526 88304,88114,88036
 1.4000e+000 88258 -1.1466e+002 -2.4260e+001  4.5824e+000 46526 88304,88036,87984
 1.4000e+000 88235 -1.2660e+002 -2.5515e+001 -1.4729e+001 46526 88036,88114,88062
 1.4000e+000 88212 -9.5054e+001  1.0791e+001  6.5865e+001 46526 87958,88140,87984
 1.4000e+000 88189 -1.0436e+002  1.4577e-001  8.5071e-001 46526 87984,88036,88010
 1.4000e+000 88166 -1.4922e+002 -4.9493e+001 -2.6477e+001 46526 88062,88114,88088
 1.4000e+000 88330 -1.4497e+002 -2.1789e+001  7.5397e-001 46526 88140,88114,88304
 1.4000e+000 88353 -1.3373e+002 -1.7078e+001  3.5591e+000 46526 88140,88304,87984
 1.4000e+000 88701 -5.5112e+001 -2.9709e+001 -1.5693e+001 45822 88724,88378,88534
 1.4000e+000 88678 -4.0086e+001  1.5823e+000 -2.0919e+001 45822 88378,88560,88534
 1.4000e+000 88655 -5.2009e+001 -3.7884e+001 -1.2508e+000 45822 88724,88534,88508
 1.4000e+000 88632 -4.8188e+001 -1.9683e+001 -3.9968e+000 45822 88404,88508,88456
 1.4000e+000 88609 -4.0566e+001 -6.4412e+000 -1.1301e+001 45822 88404,88456,88430
 1.4000e+000 88586 -6.9358e+001 -3.6025e+001  3.3580e+000 45822 88456,88508,88482
 1.4000e+000 88750 -5.2552e+001 -1.1493e+001 -1.6726e+001 45822 88404,88378,88724
 1.4000e+000 88773 -4.9628e+001 -2.1848e+001 -3.3527e+000 45822 88404,88724,88508
 1.4000e+000 89106 -1.3576e+002 -1.5452e+001 -1.1899e+001 45418 88881,88985,88907
 1.4000e+000 89083 -9.3443e+001 -5.5934e+001 -8.0865e+000 45418 88881,89011,88985
 1.4000e+000 89060 -1.1021e+002 -2.3676e+001 -1.8993e+001 45418 88907,88985,88933
 1.4000e+000 89037 -4.7054e+001 -1.9220e+001  9.6573e+000 45418 88933,88985,88959
 1.4000e+000 89435 -1.0971e+002 -3.7457e+001  9.7192e+000 44914 89210,89288,89236
 1.4000e+000 89412 -7.9723e+001 -1.6141e+001 -1.2883e+001 44914 89210,89314,89288
 1.4000e+000 89389 -9.5040e+001 -5.7301e+000 -1.8792e+001 44914 89210,89340,89314
 1.4000e+000 89366 -8.8408e+001 -2.5603e+001  3.9513e+000 44914 89236,89288,89262
 1.4000e+000 89634 -9.6319e+000  5.6025e+000  8.5262e+000 44538 89510,89562,89536
 1.4000e+000 89611 -2.5716e+001  3.9738e+000 -1.0825e+001 44538 89458,89562,89510
 1.4000e+000 89588 -1.3714e+001 -2.0588e+001 -1.4547e+001 44538 89458,89510,89484
 1.4000e+000 90044 -1.6760e+002 -7.1904e+001  1.4631e+001 44134 89819,89923,89845
 1.4000e+000 90021 -1.4084e+002 -1.9875e+001  2.4782e+001 44134 89819,89949,89923
 1.4000e+000 89998 -1.2990e+002 -6.2164e+001 -4.2013e+000 44134 89845,89923,89897
 1.4000e+000 89975 -9.2545e+001 -3.3073e+000  1.8203e+001 44134 89845,89897,89871
 1.4000e+000 90520 -1.5899e+002 -6.5365e+001  4.9477e+000 43457 90543,90252,90226
 1.4000e+000 90497 -1.3005e+002 -5.4386e+001  8.4029e+000 43457 90543,90226,90330
 1.4000e+000 90474 -1.5093e+002 -3.6298e+001 -5.8871e+000 43457 90200,90330,90226
 1.4000e+000 90451 -1.6436e+002 -5.3060e+001 -2.2492e+001 43457 90200,90356,90330
 1.4000e+000 90428 -1.6427e+002 -1.3832e+001  4.5274e+001 43457 90252,90304,90278
 1.4000e+000 90405 -5.9805e+001 -1.0794e+001  1.9508e+001 43457 90174,90356,90200
 1.4000e+000 90382 -1.5141e+002 -1.1989e+002 -2.2300e+001 43457 90148,90356,90174
 1.4000e+000 90569 -1.8676e+002 -4.8749e+001  3.3184e+001 43457 90304,90252,90543
 1.4000e+000 90592 -1.3649e+002 -2.5738e+001  4.2901e+001 43457 90304,90543,90330
 1.4000e+000 91098 -4.1012e+001 -1.4846e+001  5.2462e+000 42789 90801,90905,90853
 1.4000e+000 91075 -5.7245e+001 -3.5465e+001  1.2333e+001 42789 90775,90905,90801
 1.4000e+000 91052 -5.9232e+001 -1.6281e+001 -3.9873e+000 42789 90775,90931,90905
 1.4000e+000 91029 -1.9407e+001  8.3134e+000  2.2967e+001 42789 90801,90853,90827
 1.4000e+000 91006 -6.0557e+001 -3.0585e+001  3.9723e+001 42789 90853,90905,90879
 1.4000e+000 90983 -1.1025e+002 -1.1354e+001  1.7272e+001 42789 90775,90957,90931
 1.4000e+000 91427 -1.3915e+002 -6.8284e+000 -1.2486e+001 42227 91228,91280,91254
 1.4000e+000 91404 -1.5639e+002 -4.9303e+001  6.3305e+000 42227 91228,91306,91280
 1.4000e+000 91381 -1.5181e+002 -4.4892e+001  1.5734e+001 42227 91202,91306,91228
 1.4000e+000 91358 -1.3164e+002 -5.1654e+001 -3.3372e+000 42227 91202,91332,91306
 1.4000e+000 91675 -4.5026e+001 -1.3885e+001 -1.2488e+001 41773 91698,91476,91450
 1.4000e+000 91652 -4.5912e+001 -2.2567e+001 -3.8651e+000 41773 91698,91450,91554
 1.4000e+000 91629 -5.7013e+001 -4.2307e+001  1.9051e+000 41773 91450,91580,91554
 1.4000e+000 91606 -6.2537e+001 -1.1567e+001  9.6797e+000 41773 91502,91554,91528
 1.4000e+000 91724 -5.0254e+001 -1.8586e+001 -6.4946e+000 41773 91502,91476,91698
 1.4000e+000 91747 -5.2940e+001 -2.8267e+001  2.3709e+000 41773 91502,91698,91554
 1.4000e+000 92127 -8.3611e+001 -1.1628e+001 -9.1389e+000 41255 92150,91905,91879
 1.4000e+000 92104 -1.4226e+002 -1.9550e+001  1.5785e+001 41255 92150,91879,91957
 1.4000e+000 92081 -1.1137e+002 -4.7952e+001  4.1036e+001 41255 91853,91957,91879
 1.4000e+000 92058 -1.2320e+002 -6.4654e+001  3.7672e+000 41255 91853,91983,91957
 1.4000e+000 92035 -7.1092e+001 -3.9373e+001 -8.9539e+000 41255 91853,92009,91983
 1.4000e+000 92176 -1.3565e+002  5.6682e+000  1.7595e+001 41255 91931,91905,92150
 1.4000e+000 92199 -2.2558e+002 -4.0480e+001  5.3452e+001 41255 91931,92150,91957
 1.4000e+000 92518 -1.7435e+002 -1.9905e+001  2.7637e+000 41007 92244,92374,92270
 1.4000e+000 92495 -1.5717e+002  6.1130e+000 -9.3384e+000 41007 92244,92400,92374
 1.4000e+000 92472 -1.6204e+002 -2.5792e+001 -1.5528e+000 41007 92270,92374,92348
 1.4000e+000 92449 -2.1137e+002 -7.0634e+001  8.6260e+000 41007 92296,92348,92322
 1.4000e+000 92426 -1.8912e+002 -6.3116e+001  1.0479e+001 41007 92270,92348,92296
 1.4000e+000 92668 -5.8614e+001 -2.3356e+001 -1.3455e+001 40717 92823,92691,92567
 1.4000e+000 92645 -5.8366e+001 -2.0079e+001 -1.2961e+001 40717 92895,92823,92567
 1.4000e+000 92717 -6.6268e+001 -2.3883e+001  1.1944e+001 40717 92593,92567,92691
 1.4000e+000 92849 -3.7311e+001 -2.6786e+001 -2.0962e+001 40717 92619,92691,92823
 1.4000e+000 92872 -6.5453e+001 -2.8949e+001 -1.2001e+001 40717 92619,92823,92541
 1.4000e+000 92921 -8.5595e+001 -4.4270e+001  3.5935e+000 40717 92541,92823,92895
 1.4000e+000 93634 -1.4166e+002 -5.0348e+001 -2.5224e+001 40206 93366,93444,93418
 1.4000e+000 93611 -1.0845e+002 -2.0524e+001 -6.9044e+000 40206 93288,93444,93366
 1.4000e+000 93588 -1.1063e+002 -4.3639e+001 -7.5757e+000 40206 93288,93366,93314
 1.4000e+000 93565 -2.1446e+002 -6.0453e+001 -4.7038e+000 40206 93262,93444,93288
 1.4000e+000 93542 -1.7013e+002 -2.5729e+001 -8.2890e+000 40206 93366,93418,93392
 1.4000e+000 93519 -2.6275e+002 -4.0887e-001 -2.5246e+000 40206 93262,93470,93444
 1.4000e+000 93496 -7.7009e+001 -2.9525e+001 -1.9927e-001 40206 93314,93366,93340
 1.4000e+000 94189 -9.5187e+001 -3.7855e+001  1.0374e+001 39802 93843,93999,93973
 1.4000e+000 94166 -1.1679e+002 -4.9491e+001  1.6503e+001 39802 93817,93999,93843
 1.4000e+000 94143 -1.5858e+002 -4.1677e+001  1.8100e+001 39802 93869,93973,93947
 1.4000e+000 94120 -9.7611e+001 -1.2230e+001  8.9608e+000 39802 93843,93973,93869
 1.4000e+000 94097 -9.1145e+001  7.3214e-002 -1.2011e+000 39802 93869,93921,93895
 1.4000e+000 94074 -9.3927e+001 -7.0727e+000 -4.8551e+000 39802 93869,93947,93921
 1.4000e+000 94051 -8.2399e+001 -2.7983e+001  2.8576e+000 39802 93817,94025,93999
 1.4000e+000 94290 -1.6720e+002 -4.9651e+001 -3.0417e-001 39398 94212,94264,94238
 1.4000e+000 94798 -6.5842e+001 -1.4603e+001  2.1916e+000 38701 94501,94657,94631
 1.4000e+000 94775 -5.3235e+001 -1.0926e+001  2.9047e+000 38701 94475,94657,94501
 1.4000e+000 94752 -9.0682e+001 -4.0968e+001 -2.1654e-002 38701 94579,94631,94605
 1.4000e+000 94729 -8.7178e+001 -1.4963e+001 -6.4900e+000 38701 94553,94631,94579
 1.4000e+000 94706 -2.9299e+001  8.0208e+000 -1.0771e+001 38701 94501,94631,94553
 1.4000e+000 94683 -3.0123e+001  8.7817e-001 -1.1760e+001 38701 94501,94553,94527
 1.4000e+000 95255 -3.9277e+001 -7.0561e-001  1.6148e+001 38247 95278,95085,95007
 1.4000e+000 95232 -5.2680e+001 -3.8246e+000  1.8994e+001 38247 95278,95007,95137
 1.4000e+000 95209 -7.0889e+001 -8.7383e+000  7.0469e+000 38247 94981,95137,95007
 1.4000e+000 95186 -7.2718e+001 -2.9623e+001 -5.9024e+000 38247 95007,95059,95033
 1.4000e+000 95163 -7.5959e+001 -2.2278e+001  2.5671e+001 38247 95007,95085,95059
 1.4000e+000 95304 -3.3443e+001  2.5240e+000  4.3348e+000 38247 95111,95085,95278
 1.4000e+000 95327 -4.6322e+001 -3.8879e+000  8.6963e+000 38247 95111,95278,95137
 1.4000e+000 95575 -1.8282e+002  7.2023e+001 -2.1675e+001 37564 95376,95428,95402
 1.4000e+000 95552 -1.9206e+002 -6.6266e+001 -1.1667e+001 37564 95376,95454,95428
 1.4000e+000 95529 -1.6539e+002 -5.9570e+001 -1.7359e+001 37564 95376,95480,95454
 1.4000e+000 95506 -1.5158e+002 -3.3146e+001 -8.3725e+000 37564 95350,95480,95376
 1.4000e+000 96034 -3.2820e+001  2.1523e-001  6.1725e+000 37224 95786,95838,95812
 1.4000e+000 96011 -3.2604e+001 -8.8902e+000  1.3282e+001 37224 95786,95890,95838
 1.4000e+000 95988 -1.5508e+001 -4.4730e+000  7.5812e+000 37224 95786,95916,95890
 1.4000e+000 95965 -6.4410e+001 -1.6378e+001 -3.2977e+000 37224 95760,95916,95786
 1.4000e+000 95942 -1.7270e+001 -2.2453e+001 -7.9359e+000 37224 95838,95890,95864
 1.4000e+000 96363 -2.7424e+001  8.7408e+000 -9.0578e+000 36884 96216,96268,96242
 1.4000e+000 96340 -6.0465e+001  1.5241e+001 -7.0504e+000 36884 96164,96268,96216
 1.4000e+000 96317 -8.8650e+001 -2.1244e+001  1.9912e+001 36884 96138,96268,96164
 1.4000e+000 96294 -6.4995e+001  1.0090e+001  1.1589e+000 36884 96164,96216,96190
 1.4000e+000 96839 -1.3538e+002 -3.7024e+001 -4.7314e+000 36572 96862,96649,96597
 1.4000e+000 96816 -1.3547e+002 -4.5840e+001 -4.5292e+000 36572 97006,96862,96597
 1.4000e+000 96793 -1.2635e+002 -3.6507e+001  2.9109e+000 36572 96934,96467,96675
 1.4000e+000 96770 -1.2359e+002 -5.0768e+001  4.5166e+000 36572 97006,96597,96571
 1.4000e+000 96747 -1.3187e+002 -5.1779e+001 -3.1212e+001 36572 96467,96519,96493
 1.4000e+000 96724 -2.7556e+002 -2.6864e+001  9.3932e+001 36572 96519,96571,96545
 1.4000e+000 96701 -9.7795e+001 -8.2886e+000  2.8354e+001 36572 96597,96649,96623
 1.4000e+000 96888 -1.4033e+002 -3.9441e+001 -5.7153e+000 36572 96675,96649,96862
 1.4000e+000 96911 -1.3861e+002 -3.8045e+001 -4.4543e-001 36572 96934,96675,96862
 1.4000e+000 96960 -1.1810e+002 -4.0108e+001  8.2184e-001 36572 96519,96467,96934
 1.4000e+000 96983 -1.2376e+002 -3.7083e+001  4.8252e-002 36572 97078,96934,96862
 1.4000e+000 97032 -1.2275e+002 -3.6265e+001  6.8118e-001 36572 97078,96862,97006
 1.4000e+000 97055 -1.1251e+002 -3.7972e+001  1.1154e+001 36572 96519,97006,96571
 1.4000e+000 97104 -1.2342e+002 -3.5988e+001  9.6649e-001 36572 96519,96934,97078
 1.4000e+000 97127 -1.2357e+002 -3.5705e+001  1.3987e+000 36572 96519,97078,97006
 1.4000e+000 97761 -1.1372e+002 -1.9452e+001  2.6405e+001 36118 97784,97493,97415
 1.4000e+000 97738 -1.2882e+002 -2.5727e+001  2.7975e+001 36118 97784,97415,97597
 1.4000e+000 97715 -2.1052e+002 -4.2254e+001  4.9705e+001 36118 97389,97597,97415
 1.4000e+000 97692 -1.9486e+002 -4.5809e+001  4.6328e+001 36118 97415,97467,97441
 1.4000e+000 97669 -1.7581e+002 -4.9380e+001  6.5873e+001 36118 97415,97493,97467
 1.4000e+000 97646 -1.0997e+002 -6.5606e+001 -1.9840e+001 36118 97493,97571,97519
 1.4000e+000 97623 -6.7342e+001 -1.6131e+001  1.2009e+001 36118 97519,97571,97545
 1.4000e+000 97810 -1.2645e+002 -9.5451e-001  1.2473e+001 36118 97571,97493,97784
 1.4000e+000 97833 -1.6155e+002 -1.7740e+001  1.7367e+001 36118 97571,97784,97597
 1.4000e+000 98081 -1.3977e+002 -6.3311e+001  7.4383e+000 35564 98104,97908,97856
 1.4000e+000 98058 -1.5464e+002 -7.7669e+001  1.5255e+001 35564 98104,97856,97986
 1.4000e+000 98035 -2.1001e+002 -8.4433e+001  9.9279e+000 35564 97934,97986,97960
 1.4000e+000 98012 -1.2432e+002 -1.8267e+001 -1.1369e+001 35564 97856,97908,97882
 1.4000e+000 98130 -1.5786e+002 -8.0727e+000  6.3400e+000 35564 97934,97908,98104
 1.4000e+000 98153 -1.8059e+002 -5.5530e+001  2.3488e+001 35564 97934,98104,97986
 1.4000e+000 98374 -2.0130e+002 -4.4317e+001 -7.6556e+000 35152 98224,98302,98276
 1.4000e+000 98351 -1.8161e+002 -1.2196e+000 -1.8111e+000 35152 98198,98302,98224
 1.4000e+000 98328 -1.5769e+002 -2.8389e+001 -1.6624e+001 35152 98224,98276,98250
 1.4000e+000 98884 -6.4226e+001 -1.0776e+000  7.5401e+000 34698 98691,98743,98717
 1.4000e+000 98861 -6.4990e+001 -8.2109e-002  3.2998e+000 34698 98561,98743,98691
 1.4000e+000 98838 -5.6682e+001 -6.5606e+000  1.1562e+001 34698 98907,98587,98561
 1.4000e+000 98815 -5.4695e+001 -1.0470e+001  2.0477e+000 34698 98907,98561,98691
 1.4000e+000 98792 -2.6744e+001 -2.1643e+000 -4.4204e+000 34698 98587,98639,98613
 1.4000e+000 98769 -5.4846e+001 -2.9359e+001  2.2641e+001 34698 98587,98665,98639
 1.4000e+000 98933 -4.7619e+001 -4.2999e+000  1.4695e+001 34698 98665,98587,98907
 1.4000e+000 98956 -4.4270e+001 -9.2073e+000  4.8023e+000 34698 98665,98907,98691
 1.4000e+000 99204 -1.2942e+002 -7.9865e+000 -1.2541e+001 34144 99227,99031,99005
 1.4000e+000 99181 -1.3406e+002 -2.8051e+001  6.0354e+000 34144 99299,99227,99005
 1.4000e+000 99158 -1.4398e+002 -2.4013e+001  1.8146e+001 34144 99299,99005,99109
 1.4000e+000 99135 -9.7669e+001 -2.4767e+001  2.2227e+001 34144 98979,99109,99005
 1.4000e+000 99253 -1.2239e+002 -1.9906e+001 -3.9582e+000 34144 99057,99031,99227
 1.4000e+000 99276 -4.6887e+001 -4.7262e+000 -8.7936e+000 34144 99057,99227,99083
 1.4000e+000 99325 -1.1325e+002 -4.0514e+000 -2.0996e+001 34144 99083,99227,99299
 1.4000e+000 99348 -1.4794e+002 -1.0882e+001 -8.8244e+000 34144 99083,99299,99109
 1.4000e+000 99498 -4.0232e+002 -1.0213e+002  4.3954e+001 33433 99397,99449,99423
 1.4000e+000 99475 -4.6561e+002 -1.1892e+002  4.1839e+000 33433 99371,99449,99397
 1.4000e+000 100008 -1.0378e+002 -2.7976e+001  9.1076e+000 32979 100103,100031,99815
 1.4000e+000 99985 -9.9450e+001 -1.1530e+001 -5.7673e+000 32979 100175,100031,99763
 1.4000e+000 99962 -1.1424e+002 -2.3093e+001  1.4892e+001 32979 100103,99815,99789
 1.4000e+000 99939 -1.0473e+002 -1.0550e+001 -1.2990e+000 32979 100175,99763,99737
 1.4000e+000 99916 -1.0019e+002  1.8382e+001 -2.5020e+000 32979 99685,99867,99737
 1.4000e+000 99893 -7.1088e+001 -1.6046e+000 -3.8877e+001 32979 99685,99737,99711
 1.4000e+000 100057 -9.1238e+001 -2.0096e+001  1.8204e+000 32979 99841,99815,100031
 1.4000e+000 100080 -8.5419e+001  1.2848e+001 -1.6582e+001 32979 99841,100031,99867
 1.4000e+000 100129 -9.0559e+001 -1.9949e+001  3.8282e+000 32979 99763,100031,100103
 1.4000e+000 100152 -1.0285e+002 -1.4268e+001  8.8096e+000 32979 99763,100103,99789
 1.4000e+000 100201 -1.0801e+002 -1.4961e+001 -6.3812e+000 32979 99867,100031,100175
 1.4000e+000 100224 -1.0901e+002 -1.1443e+001 -1.8464e+000 32979 99867,100175,99737
 1.4000e+000 100553 -1.1303e+002 -5.0620e+001  2.1730e+001 32503 100354,100406,100380
 1.4000e+000 100530 -9.5073e+001 -1.2928e+001 -5.4804e+000 32503 100328,100406,100354
 1.4000e+000 100507 -9.6442e+001 -5.7661e+001 -3.4274e+001 32503 100328,100458,100406
 1.4000e+000 100484 -4.6860e+001 -5.8187e+001 -1.0873e+001 32503 100406,100458,100432
 1.4000e+000 100850 -1.7636e+002 -5.8983e+001  9.6883e+000 31899 100873,100654,100628
 1.4000e+000 100827 -1.7299e+002 -7.0294e+001 -3.2933e-001 31899 100945,100873,100628
 1.4000e+000 100804 -1.6575e+002 -7.4115e+001  2.5752e+000 31899 100945,100628,100602
 1.4000e+000 100781 -1.7913e+002 -6.6071e+001  1.3716e+001 31899 100576,100732,100602
 1.4000e+000 100758 -1.1077e+002 -1.7946e+001  2.6106e+001 31899 100654,100706,100680
 1.4000e+000 100899 -1.5235e+002 -8.5823e+001  6.3445e+000 31899 100706,100654,100873
 1.4000e+000 100922 -1.9074e+002 -8.3738e+001 -1.4073e+001 31899 100706,100873,100732
 1.4000e+000 100971 -1.8485e+002 -7.2008e+001  6.6055e-001 31899 100732,100873,100945
 1.4000e+000 100994 -1.7659e+002 -7.5056e+001  3.5860e+000 31899 100732,100945,100602
 1.4000e+000 101551 -5.7006e+001 -1.2995e+001  1.3499e+000 31338 101205,101387,101231
 1.4000e+000 101528 -1.0755e+002 -3.7843e+001 -2.3400e+001 31338 101179,101387,101205
 1.4000e+000 101505 -7.8138e+001 -2.9955e+001  1.7824e+000 31338 101574,101309,101257
 1.4000e+000 101482 -6.5680e+001 -2.0266e+001  6.0067e+000 31338 101646,101574,101257
 1.4000e+000 101459 -5.4294e+001 -6.1977e+000  1.3094e+001 31338 101646,101257,101231
 1.4000e+000 101436 -7.9377e+001 -1.4201e+000 -2.9583e+000 31338 101309,101361,101335
 1.4000e+000 101413 -7.8105e+001 -2.7481e+001 -2.0532e+000 31338 101257,101309,101283
 1.4000e+000 101600 -7.8863e+001 -2.1673e+001  2.8063e+000 31338 101361,101309,101574
 1.4000e+000 101623 -8.1924e+001 -3.1204e+001 -4.9469e+000 31338 101361,101574,101387
 1.4000e+000 101672 -7.5850e+001 -1.6605e+001 -5.1391e+000 31338 101387,101574,101646
 1.4000e+000 101695 -6.8508e+001 -1.3993e+001 -2.4560e-001 31338 101387,101646,101231
 1.4000e+000 101943 -1.3264e+002 -4.6915e+001  2.3196e-001 30748 101966,101796,101744
 1.4000e+000 101920 -1.1436e+002 -2.1319e+001  9.4731e+000 30748 101966,101744,101718
 1.4000e+000 101897 -1.1069e+002  1.0780e+001  5.8093e+001 30748 101718,101848,101822
 1.4000e+000 101874 -1.2368e+002 -2.5294e+001 -1.9410e+001 30748 101744,101796,101770
 1.4000e+000 101992 -1.4550e+002 -1.9712e+001  4.6591e+000 30748 101822,101796,101966
 1.4000e+000 102015 -1.3459e+002  4.9404e-001  1.0364e+001 30748 101822,101966,101718
 1.4000e+000 102493 -1.9620e+002 -4.2258e+001  3.3875e+001 30344 102516,102173,102147
 1.4000e+000 102470 -1.5618e+002 -2.3807e+001 -9.3154e+000 30344 102660,102516,102147
 1.4000e+000 102447 -7.9143e+001  8.0652e+000  6.2126e+000 30344 102588,102199,102173
 1.4000e+000 102424 -1.3757e+002 -3.6442e+001 -8.9833e+000 30344 102660,102147,102329
 1.4000e+000 102401 -2.7266e+002 -3.5094e+001  1.2891e+001 30344 102199,102277,102251
 1.4000e+000 102378 -8.3038e+001 -7.4999e+001  6.8323e+001 30344 102199,102251,102225
 1.4000e+000 102355 -3.1415e+002 -9.8792e+001  9.3529e+001 30344 102121,102329,102147
 1.4000e+000 102542 -1.1377e+002 -4.1635e+000  1.3616e+001 30344 102588,102173,102516
 1.4000e+000 102565 -1.4832e+002 -1.4067e+001 -2.0225e+000 30344 102277,102516,102303
 1.4000e+000 102614 -1.2513e+002  2.4582e+001  6.0141e+000 30344 102277,102199,102588
 1.4000e+000 102637 -1.5716e+002  1.5786e+001  6.9039e+000 30344 102277,102588,102516
 1.4000e+000 102686 -1.3604e+002 -9.7843e+000 -1.0977e+000 30344 102303,102516,102660
 1.4000e+000 102709 -1.2274e+002 -2.6056e+001 -1.2453e+000 30344 102303,102660,102329
 1.4000e+000 103294 -1.1063e+002 -4.0771e+001  1.8388e+001 29726 103317,103101,103075
 1.4000e+000 103271 -1.2296e+002 -4.7143e+001  1.2851e+001 29726 103317,103075,102997
 1.4000e+000 103248 -1.7698e+002 -6.4967e+001  3.5018e+001 29726 102971,103153,102997
 1.4000e+000 103225 -7.8966e+001 -2.7377e+000 -3.4495e+000 29726 103101,103153,103127
 1.4000e+000 103202 -1.2378e+002 -6.9754e+001  8.9159e+000 29726 102997,103075,103023
 1.4000e+000 103179 -1.3686e+002 -4.4327e+001 -1.6444e+001 29726 103023,103075,103049
 1.4000e+000 103343 -1.0210e+002 -4.8933e+001  1.8142e+001 29726 103153,103101,103317
 1.4000e+000 103366 -1.1058e+002 -5.0045e+001  1.5039e+001 29726 103153,103317,102997
 1.4000e+000 103614 -7.7519e+001 -3.2627e+001  1.1791e+001 29200 103781,103637,103467
 1.4000e+000 103591 -7.2067e+001 -2.7808e+001  7.6587e-001 29200 103709,103637,103415
 1.4000e+000 103568 -6.0610e+001 -9.6417e+000  5.7200e+000 29200 103709,103415,103389
 1.4000e+000 103545 -8.2064e+001 -3.1774e+001  1.0173e+001 29200 103781,103467,103441
 1.4000e+000 103663 -5.4220e+001 -2.3203e+001 -9.1465e+000 29200 103853,103637,103493
 1.4000e+000 103686 -1.0835e+002 -6.8592e+001 -3.0599e+001 29200 103493,103637,103519
 1.4000e+000 103735 -8.8513e+001 -6.6142e+000 -1.0458e+001 29200 103519,103637,103709
 1.4000e+000 103758 -7.9934e+001  5.6896e+000 -6.7095e+000 29200 103519,103709,103389
 1.4000e+000 103807 -8.3509e+001 -2.8284e+001  2.1258e+000 29200 103415,103637,103781
 1.4000e+000 103830 -9.8386e+001 -3.3463e+001  1.0800e+000 29200 103415,103781,103441
 1.4000e+000 103879 -5.8172e+001 -3.4374e+001  4.3185e+000 29200 103467,103637,103853
 1.4000e+000 104545 -1.8878e+002 -2.2120e+001  2.3205e+001 28860 104274,104352,104326
 1.4000e+000 104522 -1.5302e+002 -5.2307e+001 -4.8636e-001 28860 104248,104352,104274
 1.4000e+000 104499 -1.1512e+002 -3.2697e+001 -8.1930e+000 28860 104248,104404,104352
 1.4000e+000 104476 -1.6449e+002 -7.1162e+001 -2.5039e+001 28860 104222,104404,104248
 1.4000e+000 104453 -1.1249e+002 -4.7989e+001 -1.3356e+001 28860 104352,104404,104378
 1.4000e+000 104430 -3.3527e+002 -5.5353e+001  1.1548e+001 28860 104274,104326,104300
 1.4000e+000 104744 -5.6819e+001  7.1668e-001  1.1773e+001 28456 104839,104767,104646
 1.4000e+000 104721 -3.4442e+001 -3.1746e+000  1.0185e+001 28456 104767,104594,104568
 1.4000e+000 104698 -5.3084e+001 -1.3225e+001  1.6958e+000 28456 104839,104646,104620
 1.4000e+000 104793 -4.8671e+001 -6.0807e+000  2.1297e+001 28456 104672,104646,104767
 1.4000e+000 104816 -3.4308e+001 -3.5796e+000  1.1439e+001 28456 104911,104767,104568
 1.4000e+000 104865 -5.4205e+001 -7.5981e+000  5.2431e+000 28456 104594,104767,104839
 1.4000e+000 104888 -5.9981e+001 -4.0991e+001  2.5042e+000 28456 105041,104839,104620
 1.4000e+000 104937 -5.8252e+001 -4.6031e+001  2.1058e+001 28456 104672,104767,104911
 1.4000e+000 105067 -5.3917e+001 -6.7005e+000  2.9942e+000 28456 104594,104839,105041
 1.4000e+000 105573 -1.2244e+002 -1.8855e+001  1.2767e+001 28094 105812,105596,105328
 1.4000e+000 105550 -1.2425e+002 -2.3463e+001  7.9432e+000 28094 105596,105276,105250
 1.4000e+000 105527 -9.8624e+001 -1.2244e+001  2.4466e+001 28094 105740,105668,105432
 1.4000e+000 105504 -9.7797e+001 -7.9733e+000  2.5176e+001 28094 105740,105432,105380
 1.4000e+000 105481 -1.2355e+002 -1.8127e+001  1.2178e+001 28094 105812,105328,105302
 1.4000e+000 105458 -5.8165e+001 -2.5580e+001  2.3929e+001 28094 105380,105432,105406
 1.4000e+000 105622 -1.5825e+002 -4.0088e+001  2.9357e+001 28094 105354,105328,105596
 1.4000e+000 105645 -1.0754e+002 -1.7050e+001  1.8926e+001 28094 105668,105354,105596
 1.4000e+000 105694 -1.0719e+002 -1.3843e+001  1.3948e+001 28094 105250,105432,105668
 1.4000e+000 105717 -1.2647e+002 -1.5282e+001  9.4018e+000 28094 105250,105668,105596
 1.4000e+000 105766 -9.9312e+001 -1.6504e+001  1.6783e+001 28094 105354,105668,105740
 1.4000e+000 105789 -9.6681e+001 -9.0931e+000  1.7508e+001 28094 105354,105740,105380
 1.4000e+000 105838 -1.2370e+002 -1.9751e+001  1.2281e+001 28094 105276,105596,105812
 1.4000e+000 105861 -1.2795e+002 -2.0556e+001  1.1145e+001 28094 105276,105812,105302
 1.4000e+000 106367 -1.1626e+002 -2.1653e+001 -1.0211e+001 27390 106070,106122,106096
 1.4000e+000 106344 -1.2580e+002 -3.1206e+001 -6.2628e+000 27390 106070,106226,106122
 1.4000e+000 106321 -1.4528e+002 -4.3601e+000 -6.0798e+000 27390 106174,106226,106200
 1.4000e+000 106298 -1.2828e+002 -3.5643e+001 -7.3339e+000 27390 106122,106226,106174
 1.4000e+000 106275 -1.6282e+002 -5.4576e+001 -4.5197e+001 27390 106122,106174,106148
 1.4000e+000 106252 -1.1139e+002 -2.2691e+001  2.0221e+000 27390 106044,106226,106070
 1.4000e+000 106615 -1.7400e+002 -4.7150e+001  1.7202e-001 26978 106638,106494,106416
 1.4000e+000 106592 -1.7905e+002 -4.6114e+001 -3.9291e-001 26978 106638,106416,106390
 1.4000e+000 106569 -1.7900e+002 -5.5006e+001 -1.4791e+001 26978 106416,106494,106442
 1.4000e+000 106546 -1.9166e+002 -5.9247e+001 -1.5562e+001 26978 106442,106494,106468
 1.4000e+000 106664 -1.6339e+002 -4.6582e+001 -2.4982e-001 26978 106520,106494,106638
 1.4000e+000 106687 -1.7360e+002 -4.9295e+001 -9.3213e-001 26978 106520,106638,106390
 1.4000e+000 106837 -2.3306e+002 -1.0836e+002 -1.4011e+001 26524 106710,106762,106736
 1.4000e+000 106814 -2.4026e+002 -1.1479e+002 -1.0853e+001 26524 106710,106788,106762
 1.4000e+000 107426 -7.2787e+001 -9.2805e+000 -1.8913e+001 26120 107129,107207,107155
 1.4000e+000 107403 -9.7736e+001 -3.5596e+001 -8.0807e+000 26120 107129,107285,107207
 1.4000e+000 107380 -9.2141e+001 -1.8083e+001 -1.0028e+001 26120 107207,107285,107259
 1.4000e+000 107357 -6.5327e+001 -2.0791e+001  7.9866e+000 26120 107155,107207,107181
 1.4000e+000 107334 -1.3066e+002 -4.9107e+001 -8.7183e+000 26120 107103,107285,107129
 1.4000e+000 107311 -7.5251e+001  6.5853e-001 -2.5659e+000 26120 107207,107259,107233
 1.4000e+000 107755 -5.5598e+001 -1.1806e+000 -5.6206e+000 25758 107556,107634,107608
 1.4000e+000 107732 -1.0799e+002 -2.4934e+001  9.1870e+000 25758 107556,107660,107634
 1.4000e+000 107709 -3.9138e+001 -1.4046e+001  1.1945e+001 25758 107556,107608,107582
 1.4000e+000 107686 -8.9831e+001  4.6143e+001  3.2134e+001 25758 107530,107660,107556
 1.4000e+000 108438 -4.6674e+001 -1.1800e+001  4.3288e+000 25468 108121,108199,108173
 1.4000e+000 108415 -5.8882e+001 -4.5086e+001 -7.1815e-001 25468 108095,108199,108121
 1.4000e+000 108392 -6.6177e+001 -3.0287e+001 -2.9224e+000 25468 108095,108251,108199
 1.4000e+000 108369 -7.6695e+001 -4.1615e+001  2.8812e+000 25468 108069,108251,108095
 1.4000e+000 108346 -4.7952e+001 -2.4933e+001  9.4620e+000 25468 108199,108251,108225
 1.4000e+000 108323 -9.8402e+001 -1.5551e+001 -1.4388e+001 25468 108017,108251,108069
 1.4000e+000 108300 -4.0655e+001 -1.6093e+001  8.7825e+000 25468 108121,108173,108147
 1.4000e+000 108277 -1.0093e+002 -2.2483e+001 -1.4027e+001 25468 108017,108069,108043
 1.4000e+000 108588 -5.3572e+001 -2.7743e+001 -4.1553e+000 25064 108611,108513,108487
 1.4000e+000 108565 -1.3705e+001  1.4197e+000  9.3119e+000 25064 108683,108611,108487
 1.4000e+000 108637 -6.5330e+001 -2.9931e+000  6.3977e+000 25064 108539,108513,108611
 1.4000e+000 108660 -6.6532e+001  6.7887e+000  1.3962e+001 25064 108539,108611,108461
 1.4000e+000 108709 -7.4661e+001 -1.3337e+001  1.5012e+001 25064 108461,108611,108683
 1.4000e+000 109345 -1.0111e+002 -1.0899e+001  1.5620e+001 24410 108999,109155,109103
 1.4000e+000 109322 -2.1030e+002 -4.3009e+001  3.4536e+001 24410 108973,109155,108999
 1.4000e+000 109299 -9.5379e+001 -3.2278e+001  1.6454e+001 24410 109103,109155,109129
 1.4000e+000 109276 -1.0124e+002  1.3311e+001  9.0526e+000 24410 108973,109181,109155
 1.4000e+000 109253 -1.9979e+002 -5.8551e+001  4.0490e+001 24410 109025,109103,109077
 1.4000e+000 109230 -1.4776e+002 -4.4404e+001  3.0747e+001 24410 108999,109103,109025
 1.4000e+000 109207 -2.1507e+002  7.6919e+000  2.1518e+001 24410 109025,109077,109051
 1.4000e+000 109723 -1.2055e+002  1.8145e+001  2.3138e+000 23856 109475,109579,109553
 1.4000e+000 109700 -1.1936e+002 -1.3417e+001 -1.2521e+000 23856 109475,109605,109579
 1.4000e+000 109677 -1.3820e+002 -3.3633e+000 -4.4940e+001 23856 109475,109553,109527
 1.4000e+000 109654 -6.1002e+001  1.1600e+001  1.1068e+001 23856 109449,109605,109475
 1.4000e+000 109631 -7.4911e+001  3.1294e+001 -2.9902e+001 23856 109475,109527,109501
 1.4000e+000 110101 -1.0651e+002 -2.4160e+001  8.4670e+000 23566 109853,109931,109879
 1.4000e+000 110078 -9.5445e+001 -1.5840e+001  1.3450e+001 23566 109827,109931,109853
 1.4000e+000 110055 -5.9304e+001  2.4200e+001 -1.7476e+000 23566 109827,109983,109931
 1.4000e+000 110032 -1.0327e+002 -4.4183e+001 -9.1607e+000 23566 109879,109931,109905
 1.4000e+000 110009 -5.4277e+001  1.2150e+001  1.9911e+001 23566 109931,109983,109957
 1.4000e+000 110735 -1.1668e+002 -2.9288e+001  1.3521e+000 23162 110415,110571,110519
 1.4000e+000 110712 -1.1680e+002 -2.7717e+001  1.4063e+000 23162 110389,110571,110415
 1.4000e+000 110689 -1.7903e+002 -5.4395e+001  6.1535e+000 23162 110415,110519,110493
 1.4000e+000 110666 -9.3863e+001 -3.0046e+001 -1.6969e+001 23162 110363,110571,110389
 1.4000e+000 110643 -1.5165e+002 -2.0191e+001  2.6575e+001 23162 110441,110493,110467
 1.4000e+000 110620 -1.6613e+002 -4.3588e+001  1.5014e+000 23162 110415,110493,110441
 1.4000e+000 110597 -1.1886e+002 -7.6104e+000  4.2651e+000 23162 110519,110571,110545
 1.4000e+000 111211 -9.9938e+001 -1.2569e+000 -1.6855e+001 22708 111378,111306,111021
 1.4000e+000 111188 -1.0757e+002  3.4039e+000 -1.2887e+001 22708 111234,110969,110917
 1.4000e+000 111165 -8.9765e+001 -6.7592e+000 -1.2098e+001 22708 111450,111234,110917
 1.4000e+000 111142 -9.5388e+001  4.2634e+000 -8.9036e+000 22708 111378,111021,110995
 1.4000e+000 111119 -9.0165e+001 -1.8899e+001 -8.3954e-001 22708 111450,110917,110865
 1.4000e+000 111096 -2.4647e+002 -2.1111e+001 -1.1174e+001 22708 110917,110969,110943
 1.4000e+000 111073 -9.0939e+001 -2.6147e+001 -2.3142e+000 22708 110865,110917,110891
 1.4000e+000 111260 -1.0970e+002  7.7290e+000 -9.1479e+000 22708 111306,110969,111234
 1.4000e+000 111283 -1.0684e+002 -1.3291e+001  7.8035e+000 22708 111047,111234,110839
 1.4000e+000 111332 -1.7344e+002  6.4935e+001 -7.2142e+001 22708 111047,111021,111306
 1.4000e+000 111355 -1.3808e+002 -6.5692e+000  4.5878e+000 22708 111047,111306,111234
 1.4000e+000 111404 -1.1317e+002  6.3307e+000 -1.5468e+001 22708 110969,111306,111378
 1.4000e+000 111427 -1.1013e+002  2.8893e+000 -1.2708e+001 22708 110969,111378,110995
 1.4000e+000 111476 -9.9283e+001 -2.4162e+001  2.3796e+000 22708 110839,111234,111450
 1.4000e+000 111499 -1.0603e+002 -4.3390e+001  1.4556e+001 22708 110839,111450,110865
 1.4000e+000 111600 -1.6334e+002 -4.3187e+001  1.5045e+001 22460 111522,111574,111548
 1.4000e+000 112059 -1.1086e+002 -1.6813e+001  6.8959e+000 22056 111811,111889,111863
 1.4000e+000 112036 -1.5642e+002 -4.0761e+001  1.8448e+001 22056 111811,111915,111889
 1.4000e+000 112013 -1.1414e+002 -6.7091e+001 -3.2061e+001 22056 111785,111915,111811
 1.4000e+000 111990 -6.5422e+001 -4.5296e+001 -3.7871e+001 22056 111785,111941,111915
 1.4000e+000 111967 -5.3359e+001  1.3602e+001 -2.5003e+001 22056 111811,111863,111837
 1.4000e+000 112486 -1.6266e+002 -2.2095e+001  9.6584e-001 21594 112509,112267,112215
 1.4000e+000 112463 -1.5850e+002 -1.8377e+001 -1.0571e+001 21594 112509,112215,112163
 1.4000e+000 112440 -1.5229e+002 -5.1812e+001  1.9803e+001 21594 112581,112293,112267
 1.4000e+000 112417 -1.2360e+002 -5.7787e+001 -6.7089e+000 21594 112215,112267,112241
 1.4000e+000 112394 -1.8917e+002 -1.0689e+001 -2.8329e+001 21594 112163,112345,112319
 1.4000e+000 112371 -1.4751e+002  1.4927e+001 -1.0582e+001 21594 112163,112215,112189
 1.4000e+000 112535 -1.6957e+002 -3.6129e+001  4.1501e+000 21594 112581,112267,112509
 1.4000e+000 112558 -1.5937e+002 -3.4152e+001 -1.1947e+001 21594 112319,112509,112163
 1.4000e+000 112607 -1.2288e+002 -3.6788e+001  1.4418e+001 21594 112319,112293,112581
 1.4000e+000 112630 -1.3971e+002 -1.7627e+001 -3.8462e+000 21594 112319,112581,112509
 1.4000e+000 112900 -9.7454e+001  1.5983e+001 -1.1547e+000 20974 112675,112779,112701
 1.4000e+000 112877 -9.8376e+001  3.8255e+001 -1.3288e+001 20974 112675,112805,112779
 1.4000e+000 112854 -1.1410e+002 -2.9575e+001 -1.4358e+001 20974 112701,112779,112753
 1.4000e+000 112831 -1.2871e+002 -5.0579e+001 -3.0297e+000 20974 112701,112753,112727
 1.4000e+000 113359 -6.1929e+001  3.4051e+001  3.8731e+001 20520 113454,113137,113111
 1.4000e+000 113336 -8.7870e+001  1.0718e+001  2.7410e+001 20520 113454,113111,113085
 1.4000e+000 113313 -5.8298e+001 -1.4633e+001  3.1441e+001 20520 113382,113163,113137
 1.4000e+000 113290 -7.1698e+001 -1.4173e+001  3.1921e+001 20520 113526,113382,113137
 1.4000e+000 113267 -4.0942e+001  9.3039e+000  9.1769e+000 20520 113189,113241,113215
 1.4000e+000 113408 -5.6515e+001 -6.7645e+000  2.2764e+001 20520 113189,113163,113382
 1.4000e+000 113431 -6.7250e+001 -1.3163e+001  1.8770e+001 20520 113189,113382,113241
 1.4000e+000 113480 -7.8512e+001 -5.4117e-001  2.7278e+001 20520 113526,113137,113454
 1.4000e+000 113503 -7.4840e+001  1.1689e+001  1.6665e+001 20520 113241,113454,113085
 1.4000e+000 113552 -5.8017e+001  5.7972e+000  2.4154e+001 20520 113241,113382,113526
 1.4000e+000 113575 -6.5087e+001  1.6502e+001  1.9006e+001 20520 113241,113526,113454
 1.4000e+000 113904 -1.5762e+001 -1.0823e+001 -2.5788e+001 19858 113705,113783,113757
 1.4000e+000 113881 -4.7706e+001 -1.6429e+001 -1.3994e+001 19858 113705,113809,113783
 1.4000e+000 113858 -3.5266e+001 -1.0424e+001 -1.6668e+001 19858 113679,113809,113705
 1.4000e+000 113835 -1.6112e+001  7.7388e+000  4.0772e+000 19858 113705,113757,113731
 1.4000e+000 114152 -1.4628e+002 -6.2883e+001 -2.8512e+001 19454 114175,114005,113979
 1.4000e+000 114129 -1.5236e+002 -6.4350e+001 -3.0743e+001 19454 114175,113979,114057
 1.4000e+000 114106 -1.5191e+002 -2.7027e+001  3.0319e+001 19454 113927,114057,113979
 1.4000e+000 114083 -1.1968e+002 -2.5376e+001  1.4180e+000 19454 113927,113979,113953
 1.4000e+000 114201 -5.8388e+000 -2.5855e+000  3.6758e+000 19454 114031,114005,114175
 1.4000e+000 114224 -1.4756e+002 -7.4720e+001 -2.9320e+001 19454 114031,114175,114057
 1.4000e+000 114472 -8.8245e+001 -3.0033e+001 -7.6400e+000 19000 114495,114273,114247
 1.4000e+000 114449 -9.1128e+001 -2.5739e+001 -1.0018e+001 19000 114495,114247,114325
 1.4000e+000 114426 -1.0404e+002 -2.5209e+001  2.0328e+000 19000 114247,114377,114325
 1.4000e+000 114403 -9.7251e+001 -1.0817e+001  4.4272e+000 19000 114325,114377,114351
 1.4000e+000 114521 -8.1227e+001 -2.6694e+001 -9.3968e+000 19000 114299,114273,114495
 1.4000e+000 114544 -8.9732e+001 -2.4394e+001 -1.0674e+001 19000 114299,114495,114325
 1.4000e+000 114948 -1.6171e+002 -3.2072e+001 -1.0521e+001 18560 114674,114726,114700
 1.4000e+000 114925 -1.5495e+002 -5.2193e+001 -1.2562e+001 18560 114674,114830,114726
 1.4000e+000 114902 -1.6361e+002 -7.4054e+001 -2.0316e+001 18560 114726,114830,114804
 1.4000e+000 114879 -1.1378e+002 -4.5443e+001 -2.5771e+000 18560 114726,114804,114752
 1.4000e+000 114856 -1.3362e+002 -5.7119e+001  4.5940e+000 18560 114752,114804,114778
 1.4000e+000 115098 -1.4544e+002 -2.8965e+001 -1.3121e+001 18156 114971,115023,114997
 1.4000e+000 115075 -1.5911e+002 -1.8786e+001 -7.7105e+000 18156 114971,115049,115023
 1.4000e+000 115248 -1.5770e+002 -1.0099e+000  8.6573e+000 17602 115147,115199,115173
 1.4000e+000 115225 -8.6562e+001 -2.4372e+001 -4.5604e-001 17602 115121,115199,115147
 1.4000e+000 115652 -1.2546e+002 -6.6038e+001 -5.0278e+000 17354 115430,115534,115508
 1.4000e+000 115629 -1.2350e+002 -3.8579e+001 -8.9806e+000 17354 115404,115534,115430
 1.4000e+000 115606 -1.0174e+002  2.1625e+000  2.3002e+000 17354 115378,115534,115404
 1.4000e+000 115583 -2.0100e+002 -4.4047e+001  1.9025e+001 17354 115456,115508,115482
 1.4000e+000 115560 -1.1294e+002 -4.0944e+001  3.9633e-002 17354 115430,115508,115456
 1.4000e+000 115873 -7.6211e+001 -1.9355e+001  1.2947e+001 16950 115749,115801,115775
 1.4000e+000 115850 -1.0377e+002 -1.9089e+001  1.2763e+001 16950 115697,115801,115749
 1.4000e+000 115827 -1.0912e+002 -4.7812e+001  1.5777e+001 16950 115697,115749,115723
 1.4000e+000 116023 -1.9278e+002 -1.9816e+001  1.2668e+001 16496 115922,115974,115948
 1.4000e+000 116000 -1.1737e+002 -2.9821e+001  1.2351e+001 16496 115896,115974,115922
 1.4000e+000 116126 -1.8481e+002 -8.9651e+000 -1.3300e+001 16298 116048,116100,116074
 1.4000e+000 116278 -2.3638e+002 -4.3622e-001 -1.6483e+000 15892 116151,116203,116177
 1.4000e+000 116255 -2.2347e+002 -1.3061e+001 -2.4479e+001 15892 116151,116229,116203
 1.4000e+000 116430 -1.5860e+002 -1.2298e+002 -3.3052e-001 15545 116303,116355,116329
 1.4000e+000 116407 -1.2877e+002 -5.6704e+001  3.0919e+001 15545 116303,116381,116355
 1.4000e+000 116785 -2.1121e+001  1.5603e+001 -4.8889e+000 421 116612,116690,116664
 1.4000e+000 116762 -2.9417e+001 -3.1107e+000  1.1385e+001 421 116560,116690,116612
 1.4000e+000 116739 -1.6021e+001  7.6226e+000  8.6437e-001 421 116560,116612,116586
 1.4000e+000 116716  8.2797e+000 -2.2701e+000  1.9955e+000 421 116612,116664,116638
 1.5000e+000 68048 -1.2868e+002 -4.9618e+001 -4.1082e+000 67642 67898,67950,67924
 1.5000e+000 68025 -1.4048e+002 -6.2345e+001  2.5749e+000 67642 67898,67976,67950
 1.5000e+000 68002 -1.0369e+002 -4.3919e+001 -5.6121e+000 67642 67872,67976,67898
 1.5000e+000 68367 -4.0345e+001  1.1752e+001  8.8718e+000 67444 68119,68223,68197
 1.5000e+000 68344 -4.6218e+001 -2.0354e+001  7.7953e+000 67444 68119,68249,68223
 1.5000e+000 68321  1.3456e+001  4.9039e+000  5.1222e+000 67444 68093,68249,68119
 1.5000e+000 68298 -5.3456e+001 -1.3976e+001 -1.8057e+000 67444 68119,68197,68171
 1.5000e+000 68275 -4.4325e+001 -5.4610e+000  2.2808e+000 67444 68119,68171,68145
 1.5000e+000 68468 -7.0610e+001 -1.5596e-001 -2.4670e+000 67268 68390,68442,68416
 1.5000e+000 68765 -9.9995e+001  2.4017e+000  2.2107e+000 66956 68788,68517,68491
 1.5000e+000 68742 -9.3708e+001 -1.6121e+001 -5.7309e-001 66956 68788,68491,68621
 1.5000e+000 68719 -1.1194e+002 -2.4036e+001 -3.0921e+001 66956 68543,68621,68569
 1.5000e+000 68696 -8.6741e+001 -1.3372e+000 -2.7433e+000 66956 68491,68647,68621
 1.5000e+000 68673 -1.6304e+002 -5.3976e+001 -4.7240e+001 66956 68569,68621,68595
 1.5000e+000 68814 -1.0052e+002 -1.1365e+001  7.4696e+000 66956 68543,68517,68788
 1.5000e+000 68837 -9.2684e+001 -2.8581e+001  3.0530e+000 66956 68543,68788,68621
 1.5000e+000 69107 -8.5365e+001 -1.0249e+002 -7.6064e+000 66758 68882,68986,68908
 1.5000e+000 69084 -2.8048e+001 -6.8426e+001  1.0405e+001 66758 68882,69012,68986
 1.5000e+000 69061 -2.2634e+002 -4.4281e+001 -2.0293e+001 66758 68908,68960,68934
 1.5000e+000 69038 -6.9445e+001 -5.0754e+001 -1.4199e+001 66758 68908,68986,68960
 1.5000e+000 69308 -6.6449e+001  8.0110e+000 -2.9771e+000 66560 69331,69184,69158
 1.5000e+000 69285 -7.1047e+001  5.3727e+000 -4.3197e+000 66560 69331,69158,69132
 1.5000e+000 69262 -6.9650e+001 -1.4457e+001 -1.1313e+000 66560 69184,69236,69210
 1.5000e+000 69357 -6.2139e+001  4.9093e+000 -1.8245e+000 66560 69236,69184,69331
 1.5000e+000 69380 -6.5469e+001  2.7288e+000 -3.3017e+000 66560 69236,69331,69132
 1.5000e+000 69554 -5.7406e+000 -6.4893e+000  8.4950e+000 66270 69427,69479,69453
 1.5000e+000 69531  1.1931e+001  3.4822e+001  1.6633e+001 66270 69427,69505,69479
 1.5000e+000 69804 -4.1997e+001 -5.8690e-001  2.0900e+001 66066 69579,69683,69657
 1.5000e+000 69781 -6.2033e+001 -6.6950e+000 -3.5712e-001 66066 69579,69709,69683
 1.5000e+000 69758  6.6848e+000 -1.7661e-001 -4.4186e+000 66066 69579,69657,69631
 1.5000e+000 69735  7.3988e+000 -2.2337e-001  1.0922e+000 66066 69579,69631,69605
 1.5000e+000 70257 -3.0877e+001  3.9759e+001 -4.2586e+001 65776 69960,70090,69986
 1.5000e+000 70234 -3.4613e+001  6.7537e-001 -2.3445e+001 65776 69934,70090,69960
 1.5000e+000 70211 -3.1044e+001  1.8044e+001 -6.0595e+000 65776 69934,70116,70090
 1.5000e+000 70188 -4.0941e+001  5.2666e+001  0.0000e+000 65776 70038,70090,70064
 1.5000e+000 70165 -4.2534e+001  7.5285e+001 -2.5676e+001 65776 69986,70090,70038
 1.5000e+000 70142 -5.9701e+001  1.4263e+001 -4.3065e+001 65776 69986,70038,70012
 1.5000e+000 70456 -1.4481e+001  1.8881e+001  1.6763e+001 65372 70479,70306,70280
 1.5000e+000 70433 -5.0826e+000  2.8685e+001  1.1450e+001 65372 70479,70280,70384
 1.5000e+000 70410 -6.0531e+000  2.2132e+001  7.5624e+000 65372 70551,70332,70306
 1.5000e+000 70505 -5.6761e+000  1.9459e+001  9.6392e+000 65372 70551,70306,70479
 1.5000e+000 70528  6.3851e-001  2.4120e+001  7.8452e+000 65372 70358,70479,70384
 1.5000e+000 70577 -6.5399e+000  2.6018e+001  7.9748e+000 65372 70358,70332,70551
 1.5000e+000 70600 -5.0240e+000  2.4593e+001  9.7950e+000 65372 70358,70551,70479
 1.5000e+000 70821 -6.5059e+001 -5.2277e+001 -1.0569e+000 65174 70645,70723,70671
 1.5000e+000 70798 -5.0223e+001 -4.2803e+001  6.6330e+000 65174 70645,70749,70723
 1.5000e+000 70775 -6.1303e+001 -3.9853e+001 -3.8380e+000 65174 70671,70723,70697
 1.5000e+000 71071 -8.4685e+001 -2.0205e+001 -1.0424e+001 64770 71094,70898,70872
 1.5000e+000 71048 -6.3089e+001 -1.4624e+001 -1.2820e+000 64770 71166,71094,70872
 1.5000e+000 71025 -5.8100e+001 -2.2558e+001 -8.0382e+000 64770 71166,70872,70846
 1.5000e+000 71002 -9.9982e+001 -9.6362e+000 -7.8634e+000 64770 70898,70950,70924
 1.5000e+000 71120 -7.2009e+001  1.7992e+000 -5.2734e+000 64770 70950,70898,71094
 1.5000e+000 71143 -6.6476e+001 -1.6070e+001  6.6459e+000 64770 70950,71094,70976
 1.5000e+000 71192 -7.2061e+001 -3.0971e+001  2.2007e+000 64770 70976,71094,71166
 1.5000e+000 71215 -6.4143e+001 -3.2912e+001 -5.5005e+000 64770 70976,71166,70846
 1.5000e+000 71514 -8.9585e+001 -7.3498e+000 -7.8607e+000 64572 71681,71537,71318
 1.5000e+000 71491 -1.0905e+002  2.9296e+001 -1.4245e+000 64572 71537,71266,71240
 1.5000e+000 71468 -1.0675e+002  1.2954e+001 -3.2633e+001 64572 71609,71396,71370
 1.5000e+000 71445 -7.6488e+001 -3.3895e+001  2.7680e+000 64572 71681,71318,71292
 1.5000e+000 71422 -3.8325e+001 -1.8982e+001 -1.4292e+001 64572 71753,71344,71318
 1.5000e+000 71563 -4.3419e+001  1.7528e+001 -4.0521e+001 64572 71753,71318,71537
 1.5000e+000 71586 -9.9341e+001  1.6208e+001 -3.3424e+001 64572 71609,71370,71537
 1.5000e+000 71635 -1.2049e+002 -2.9716e+000 -5.5907e+000 64572 71240,71396,71609
 1.5000e+000 71658 -9.0678e+001  1.1184e+001 -1.0854e+001 64572 71240,71609,71537
 1.5000e+000 71707 -8.4179e+001  3.7347e+001 -4.8103e+000 64572 71266,71537,71681
 1.5000e+000 71730 -6.8877e+001  1.6779e+001  1.6088e+001 64572 71266,71681,71292
 1.5000e+000 71779  1.3705e+001  1.6501e+001 -3.4788e+001 64572 71370,71344,71753
 1.5000e+000 71802 -1.3682e+001  3.1199e+001 -4.6049e+001 64572 71370,71753,71537
 1.5000e+000 72052 -5.6774e+001 -2.7856e+001 -1.2678e+001 64374 72075,71879,71827
 1.5000e+000 72029 -5.2677e+001 -2.5461e+001 -1.4026e+001 64374 72147,72075,71827
 1.5000e+000 72006 -4.6785e+001 -1.9164e+001 -9.9815e+000 64374 72147,71827,71957
 1.5000e+000 71983 -5.3781e+001 -9.2324e+000 -1.2072e+001 64374 71827,71879,71853
 1.5000e+000 72101 -5.4450e+001 -2.6510e+001 -1.0080e+001 64374 71905,71879,72075
 1.5000e+000 72124 -6.4972e+001 -2.5650e+001 -1.4304e+001 64374 71905,72075,71931
 1.5000e+000 72173 -5.5251e+001 -1.3090e+001 -1.0076e+001 64374 71931,72075,72147
 1.5000e+000 72196 -5.5408e+001 -1.0305e+001 -8.0042e+000 64374 71931,72147,71957
 1.5000e+000 72649 -9.4601e+001 -1.8925e+001  8.5481e+000 63948 72352,72508,72482
 1.5000e+000 72626 -1.0378e+002 -4.1222e+001 -1.5283e+001 63948 72326,72508,72352
 1.5000e+000 72603 -8.4030e+001 -2.3400e+001 -6.4757e+000 63948 72672,72430,72378
 1.5000e+000 72580 -6.7992e+001 -7.2124e+000 -1.3056e+001 63948 72672,72378,72352
 1.5000e+000 72557 -7.9927e+001 -3.9084e+001 -2.6707e+000 63948 72744,72456,72430
 1.5000e+000 72534 -8.1600e+001 -4.7356e+000  4.6028e+000 63948 72378,72430,72404
 1.5000e+000 72698 -7.7269e+001 -3.5709e+001 -9.7994e-001 63948 72744,72430,72672
 1.5000e+000 72721 -7.0996e+001 -1.9455e+001  3.0762e+000 63948 72482,72672,72352
 1.5000e+000 72770 -8.9059e+001 -3.2355e+001 -1.5307e+000 63948 72482,72456,72744
 1.5000e+000 72793 -8.1716e+001 -2.3968e+001  1.6800e+000 63948 72482,72744,72672
 1.5000e+000 72894 -9.2774e+001 -4.4515e+000  5.2699e+000 63494 72816,72868,72842
 1.5000e+000 73093 -5.3432e+001 -6.9392e+000 -1.0373e+001 63132 72943,72995,72969
 1.5000e+000 73070 -1.1857e+002 -3.1418e+001 -4.6456e+000 63132 72943,73021,72995
 1.5000e+000 73047 -1.1375e+002 -1.8484e+001 -3.8277e+000 63132 72917,73021,72943
 1.5000e+000 73294 -4.3760e+001  1.1891e+001  8.5029e-001 62792 73317,73144,73118
 1.5000e+000 73271 -4.0843e+001  1.5392e+001 -5.3460e+000 62792 73317,73118,73222
 1.5000e+000 73248  8.4108e+000  5.2283e+000 -2.8037e-001 62792 73144,73196,73170
 1.5000e+000 73343 -3.6169e+001  9.8535e+000 -3.7984e+000 62792 73196,73144,73317
 1.5000e+000 73366 -3.2596e+001  1.5736e+001 -1.0429e+001 62792 73196,73317,73222
 1.5000e+000 73616 -6.9921e+001 -5.3079e+000  6.6571e+000 62388 73639,73417,73391
 1.5000e+000 73593 -6.7685e+001 -2.0442e-001  5.9032e+000 62388 73711,73639,73391
 1.5000e+000 73570 -6.8501e+001  9.7698e+000  5.8026e+000 62388 73711,73391,73521
 1.5000e+000 73547 -6.3776e+001 -3.3026e+000 -1.1296e+001 62388 73469,73521,73495
 1.5000e+000 73665 -6.0078e+001 -5.0028e-001  1.1138e+001 62388 73443,73417,73639
 1.5000e+000 73688 -6.7508e+001 -1.3293e+001  7.9632e+000 62388 73443,73639,73469
 1.5000e+000 73737 -6.9373e+001 -7.5038e+000  3.6449e+000 62388 73469,73639,73711
 1.5000e+000 73760 -7.2381e+001 -1.7189e+000  4.6478e+000 62388 73469,73711,73521
 1.5000e+000 74010 -9.7071e+001 -2.5612e+001 -2.3503e+001 61848 74033,73837,73811
 1.5000e+000 73987 -4.1457e+001 -2.2756e+001  3.5674e+000 61848 74033,73811,73785
 1.5000e+000 73964 -7.5869e+001  4.3922e+000  1.0464e+001 61848 73837,73915,73889
 1.5000e+000 73941 -1.4612e+002 -1.3564e+001 -2.3618e+001 61848 73837,73889,73863
 1.5000e+000 74059 -1.0287e+002 -4.6615e+000 -1.0323e+001 61848 73915,73837,74033
 1.5000e+000 74082 -9.7605e+001  1.0515e+001 -1.1240e+000 61848 73915,74033,73785
 1.5000e+000 74283 -8.9427e+001 -5.4796e+000 -1.6898e+001 61444 74306,74133,74107
 1.5000e+000 74260 -1.0096e+002 -6.8738e+000  1.5171e+001 61444 74306,74107,74211
 1.5000e+000 74237 -1.0924e+002 -3.1516e+001  2.2530e+001 61444 74378,74185,74159
 1.5000e+000 74332 -1.2670e+002 -2.1430e+001 -1.6549e+001 61444 74159,74133,74306
 1.5000e+000 74355 -1.2053e+002 -1.8171e+001  1.7487e+001 61444 74378,74159,74306
 1.5000e+000 74404 -1.0793e+002 -1.6709e+001  1.3482e+001 61444 74211,74185,74378
 1.5000e+000 74427 -1.1110e+002 -1.1357e+001  1.4012e+001 61444 74211,74378,74306
 1.5000e+000 74628 -5.8390e+001 -3.0317e+000  1.9620e+001 60990 74478,74530,74504
 1.5000e+000 74605 -8.7113e+000  7.2596e+000  1.5222e+001 60990 74452,74530,74478
 1.5000e+000 74582 -7.6045e+001 -2.1938e+000  1.7833e+001 60990 74452,74556,74530
 1.5000e+000 75089 -1.5899e+001  1.3448e+000 -8.8175e+000 60486 75112,74945,74919
 1.5000e+000 75066 -2.9059e+001  8.5015e-001  4.3458e+000 60486 75112,74919,74867
 1.5000e+000 75043 -3.8099e+001 -5.2183e+000  8.3190e+000 60486 74841,74971,74867
 1.5000e+000 75020 -8.6512e+001 -1.3924e+001 -6.0034e+000 60486 74867,74919,74893
 1.5000e+000 74997 -2.1577e+001 -1.8585e+000  6.0523e+000 60486 74815,74971,74841
 1.5000e+000 75138 -3.3919e+001 -5.0732e+000 -6.7355e+000 60486 74971,74945,75112
 1.5000e+000 75161 -4.1018e+001 -2.0880e-001  5.1141e+000 60486 74971,75112,74867
 1.5000e+000 75409 -6.5356e+001 -1.7867e+001 -7.2360e+000 59932 75576,75432,75288
 1.5000e+000 75386 -8.7455e+001 -1.9428e+001 -2.1383e+001 59932 75504,75314,75288
 1.5000e+000 75363 -4.9565e+001  9.8630e+000  1.1538e+001 59932 75432,75236,75210
 1.5000e+000 75340 -3.4474e+001 -3.8296e+000 -3.5921e+000 59932 75576,75288,75262
 1.5000e+000 75458 -8.6022e+001 -2.0857e+001 -2.1003e+001 59932 75504,75288,75432
 1.5000e+000 75481 -8.4181e+001 -1.1926e+001 -5.8145e-001 59932 75184,75432,75210
 1.5000e+000 75530 -1.1204e+002 -2.9241e+001 -4.3959e+000 59932 75184,75314,75504
 1.5000e+000 75553 -8.1107e+001 -1.9728e+001 -1.7726e+001 59932 75184,75504,75432
 1.5000e+000 75602 -8.3660e+001 -6.8609e+000 -3.8238e+000 59932 75236,75432,75576
 1.5000e+000 75625 -7.9630e+001 -9.4483e+000 -6.0604e+000 59932 75236,75576,75262
 1.5000e+000 75873 -2.4290e+001 -1.3262e+001  2.5286e+001 59478 75674,75752,75700
 1.5000e+000 75850 -7.9104e+000 -7.0048e+000  5.9126e+000 59478 75648,75752,75674
 1.5000e+000 75827 -2.0046e+001  2.1574e+000  3.2923e+001 59478 75700,75752,75726
 1.5000e+000 75804 -4.5616e+001  6.6374e+000  8.4554e+000 59478 75648,75778,75752
 1.5000e+000 76206 -1.3217e+001  2.0861e-001 -3.6495e+000 59024 75981,76059,76007
 1.5000e+000 76183 -1.5462e+001  3.0597e+000 -4.0498e+000 59024 75981,76111,76059
 1.5000e+000 76160 -2.0245e+001 -3.8070e+000 -2.0288e+000 59024 76007,76059,76033
 1.5000e+000 76137 -1.3157e+001 -7.6904e-001  3.0849e+000 59024 76059,76111,76085
 1.5000e+000 76761 -6.9266e+001 -6.9160e+000  1.5432e+001 58562 76389,76441,76415
 1.5000e+000 76738 -8.6208e+001 -1.7394e+001 -5.2242e+000 58562 76856,76784,76389
 1.5000e+000 76715 -8.7664e+001 -1.8610e+001 -1.8999e+001 58562 76784,76571,76467
 1.5000e+000 76692 -1.1660e+002 -7.7303e+000 -8.1855e+000 58562 76856,76389,76597
 1.5000e+000 76669 -1.3213e+002 -5.6578e+001 -1.7144e+001 58562 76467,76545,76493
 1.5000e+000 76646 -8.2307e+001 -3.3377e+001 -2.3346e+001 58562 76467,76571,76545
 1.5000e+000 76623 -8.7823e+001 -1.7081e+001  1.1807e+000 58562 76493,76545,76519
 1.5000e+000 76810 -9.3238e+001 -2.6347e+001 -1.6079e+000 58562 76441,76389,76784
 1.5000e+000 76833 -8.0892e+001 -2.0221e+001  3.8571e-001 58562 76441,76784,76467
 1.5000e+000 76882 -1.1930e+002 -3.1489e+001 -1.9951e+001 58562 76571,76784,76856
 1.5000e+000 76905 -1.3830e+002 -1.3998e+001 -2.3366e+001 58562 76571,76856,76597
 1.5000e+000 77055 -1.2368e+002 -4.0853e+001  3.0765e+000 57844 76928,76980,76954
 1.5000e+000 77032 -9.6167e+001 -6.9775e+000 -8.9146e+000 57844 76928,77006,76980
 1.5000e+000 77533 -1.1642e+002 -4.4501e+001 -1.3331e+000 57226 77628,77556,77291
 1.5000e+000 77510 -1.1773e+002  1.1004e+001  7.1533e+000 57226 77556,77187,77343
 1.5000e+000 77487 -8.3627e+001 -4.0896e+001 -6.7655e+000 57226 77628,77291,77265
 1.5000e+000 77464 -7.0563e+001 -3.6450e+001 -1.4595e+001 57226 77700,77213,77187
 1.5000e+000 77441 -1.9948e+002 -1.6405e+001  1.4480e+001 57226 77161,77343,77187
 1.5000e+000 77418 -1.3737e+002 -1.0436e+001  8.9505e+000 57226 77161,77369,77343
 1.5000e+000 77395 -6.8988e+001 -1.2141e+001 -3.0157e+001 57226 77213,77265,77239
 1.5000e+000 77582 -1.1704e+002 -4.1437e+001  5.4571e+000 57226 77317,77291,77556
 1.5000e+000 77605 -1.4146e+002 -1.1679e+001 -3.1432e+000 57226 77317,77556,77343
 1.5000e+000 77654 -6.6482e+001 -1.6013e+001  1.0145e+001 57226 77187,77556,77628
 1.5000e+000 77677 -6.4235e+001 -3.8137e+001 -4.7509e+000 57226 77700,77187,77628
 1.5000e+000 77726 -9.2635e+001 -4.6158e+001 -1.9100e+001 57226 77265,77213,77700
 1.5000e+000 77749 -8.5480e+001 -4.5201e+001 -7.8103e+000 57226 77265,77700,77628
 1.5000e+000 78046 -1.0936e+002  8.0310e+000 -8.2893e-001 56936 77798,77850,77824
 1.5000e+000 78023 -1.0503e+002 -2.0498e+001 -1.1134e+001 56936 78069,77798,77902
 1.5000e+000 78000 -9.3823e+001 -2.4870e+001 -9.4988e+000 56936 78069,77902,77876
 1.5000e+000 77977 -1.3347e+002 -3.5489e+001 -2.6449e+001 56936 77798,77928,77902
 1.5000e+000 77954 -1.2214e+002 -1.3045e+001 -1.8922e+001 56936 77772,77928,77798
 1.5000e+000 78095 -1.0836e+002 -2.3106e+001 -9.8984e+000 56936 77850,77798,78069
 1.5000e+000 78118 -1.0319e+002 -3.0144e+001 -6.8969e+000 56936 77850,78069,77876
 1.5000e+000 78754 -2.8666e+001  8.5727e+000  4.7181e+000 56475 78777,78486,78408
 1.5000e+000 78731 -8.0111e+001 -2.9482e+001  2.1763e+001 56475 78777,78408,78382
 1.5000e+000 78708 -5.8710e+001 -1.4879e+001 -2.2619e+001 56475 78849,78512,78486
 1.5000e+000 78685 -2.9087e+001  1.0563e+001 -4.6837e+000 56475 78382,78590,78564
 1.5000e+000 78662 -1.1520e+002 -2.0767e+001 -4.8050e+001 56475 78512,78564,78538
 1.5000e+000 78639 -4.2130e+001 -4.3182e+000  4.4821e+000 56475 78434,78486,78460
 1.5000e+000 78616 -3.7537e+001 -1.0404e+001  7.6886e+000 56475 78408,78486,78434
 1.5000e+000 78803 -6.5731e+001 -3.6919e+000 -8.8506e+000 56475 78849,78486,78777
 1.5000e+000 78826 -6.3331e+001  1.6481e+001  2.9537e+000 56475 78564,78777,78382
 1.5000e+000 78875 -4.9704e+001  8.3442e+000 -2.1453e+001 56475 78564,78512,78849
 1.5000e+000 78898 -5.5632e+001  2.3548e+001 -1.0347e+001 56475 78564,78849,78777
 1.5000e+000 79276 -4.6316e+001  1.9175e+001  1.2168e+001 55964 79299,79080,79028
 1.5000e+000 79253 -6.9700e+001  9.2607e+000  1.4222e+001 55964 79299,79028,79132
 1.5000e+000 79230 -4.7407e+001 -1.5722e+001  9.1105e+000 55964 79028,79080,79054
 1.5000e+000 79207 -7.2564e+001 -3.1513e+001 -4.6875e+000 55964 79002,79132,79028
 1.5000e+000 79184 -6.2794e+001 -2.6394e+001 -1.5062e+001 55964 79002,79158,79132
 1.5000e+000 79325 -5.5449e+001  3.0562e+001 -7.8138e+000 55964 79106,79080,79299
 1.5000e+000 79348 -8.1997e+001  1.9047e+001 -4.6880e+000 55964 79106,79299,79132
 1.5000e+000 79498 -1.0621e+002  3.0580e+001 -2.4128e+001 55452 79397,79449,79423
 1.5000e+000 79475 -7.4854e+001  1.2792e+001 -1.0427e+001 55452 79371,79449,79397
 1.5000e+000 79795 -3.5244e+001  1.4657e+001  8.2725e+000 55048 79962,79818,79573
 1.5000e+000 79772 -5.0642e+001 -4.1601e+000 -7.6805e+000 55048 79818,79521,79677
 1.5000e+000 79749 -2.9143e+001 -2.2917e+001  1.3401e+001 55048 79599,79651,79625
 1.5000e+000 79726 -5.4607e+001 -1.0667e+001  7.3990e+000 55048 79890,79651,79599
 1.5000e+000 79703 -1.3887e+001  3.7340e+001  2.5059e+001 55048 79962,79573,79547
 1.5000e+000 79844 -4.8522e+001 -3.0467e+000  2.2666e+000 55048 79599,79573,79818
 1.5000e+000 79867 -5.1450e+001 -3.9174e-001  3.3869e+000 55048 79890,79599,79818
 1.5000e+000 79916 -4.7312e+001 -5.4831e+000 -2.3587e+000 55048 79677,79651,79890
 1.5000e+000 79939 -4.6991e+001 -1.2488e+000 -6.1956e+000 55048 79677,79890,79818
 1.5000e+000 79988 -5.0328e+001 -6.6172e-001 -8.0884e+000 55048 79521,79818,79962
 1.5000e+000 80011 -4.6079e+001  4.4216e+000  5.6056e+000 55048 79521,79962,79547
 1.5000e+000 80212 -9.9942e+001  9.9813e+000  8.2507e+000 54436 80235,80088,80036
 1.5000e+000 80189 -7.3634e+001  8.9722e+000  7.2935e+000 54436 80235,80036,80140
 1.5000e+000 80166 -1.0256e+002 -1.7888e+000  5.2505e+000 54436 80036,80088,80062
 1.5000e+000 80261 -7.8067e+001 -3.3522e+000  2.3544e+001 54436 80114,80088,80235
 1.5000e+000 80284 -4.2997e+001  2.5928e+000  2.3161e+001 54436 80114,80235,80140
 1.5000e+000 80534 -9.6463e+001 -1.5037e+000  2.2713e+000 54032 80557,80361,80335
 1.5000e+000 80511 -8.5389e+001  1.5774e+001 -7.6989e+000 54032 80557,80335,80309
 1.5000e+000 80488 -7.4617e+001 -1.5963e+000  2.2889e-001 54032 80629,80413,80387
 1.5000e+000 80465 -3.1668e+001 -1.0339e+001 -7.5004e+000 54032 80309,80439,80413
 1.5000e+000 80583 -9.1193e+001 -3.3809e+001  1.2648e+001 54032 80387,80361,80557
 1.5000e+000 80606 -7.5287e+001 -2.0520e+000  4.2680e+000 54032 80629,80387,80557
 1.5000e+000 80655 -7.9103e+001 -3.8007e+000  1.4910e+000 54032 80309,80413,80629
 1.5000e+000 80678 -8.1775e+001 -4.2112e+000  4.9706e+000 54032 80309,80629,80557
 1.5000e+000 81139 -6.7103e+001 -3.8875e+000  3.1175e+001 53784 80865,80995,80917
 1.5000e+000 81116 -9.7896e+001  7.8982e-001 -1.6568e+001 53784 80865,81021,80995
 1.5000e+000 81093 -4.4594e+001 -7.1990e+000  1.5086e+001 53784 80943,80995,80969
 1.5000e+000 81070 -4.3892e+001 -2.9608e+001  2.4899e+001 53784 80917,80995,80943
 1.5000e+000 81047 -1.2521e+002  1.6826e+002  7.5327e+001 53784 80865,80917,80891
 1.5000e+000 81468 -8.0306e+001 -2.2516e+001  2.5946e-001 53230 81295,81373,81347
 1.5000e+000 81445 -6.0552e+001 -7.0148e+000  1.0546e+001 53230 81243,81373,81295
 1.5000e+000 81422 -4.8995e+001 -8.9538e+000  1.9953e+001 53230 81243,81295,81269
 1.5000e+000 81399 -9.1135e+001 -3.1890e+001  1.3492e+001 53230 81295,81347,81321
 1.5000e+000 81618 -1.8683e+002  7.6527e+001 -3.7786e+001 52790 81491,81543,81517
 1.5000e+000 81595 -1.7536e+002 -1.9112e+001 -2.7656e+001 52790 81491,81569,81543
 1.5000e+000 82126 -2.6543e+001 -5.0605e+000  1.1875e+001 52386 82149,81907,81881
 1.5000e+000 82103 -2.1671e+001  9.9553e+000  1.6507e+001 52386 82149,81881,81855
 1.5000e+000 82080 -3.1663e+001 -1.8371e+001 -3.7331e+000 52386 82221,81803,81985
 1.5000e+000 82057 -8.6189e-001  7.9981e+000  1.4821e+001 52386 81803,81855,81829
 1.5000e+000 82034 -1.5492e+001 -1.1118e+001 -8.2944e+000 52386 81907,81985,81933
 1.5000e+000 82011 -8.6180e+000 -1.4141e+001 -6.8931e+000 52386 81933,81985,81959
 1.5000e+000 82175 -1.9122e+001  2.4517e+000  8.2521e+000 52386 81985,81907,82149
 1.5000e+000 82198 -2.6218e+001 -7.4072e+000  5.1538e+000 52386 82221,81985,82149
 1.5000e+000 82247 -2.8338e+001 -9.7420e-002  3.7846e+000 52386 81855,81803,82221
 1.5000e+000 82270 -2.9569e+001  8.5927e+000  1.0037e+001 52386 81855,82221,82149
 1.5000e+000 82825 -1.5448e+002 -2.8922e+001 -4.4438e+001 51782 82505,82661,82635
 1.5000e+000 82802 -7.9408e+001 -3.9010e+001  1.6847e+001 51782 82479,82661,82505
 1.5000e+000 82779 -1.0061e+002 -4.0086e+001  2.5644e+001 51782 82557,82635,82609
 1.5000e+000 82756 -1.1366e+002 -7.3260e+001 -5.6686e+000 51782 82531,82635,82557
 1.5000e+000 82733 -1.4778e+002 -8.2408e+000 -1.6427e+001 51782 82505,82635,82531
 1.5000e+000 82710 -1.2755e+002 -9.2330e+001 -1.8404e+001 51782 82453,82661,82479
 1.5000e+000 82687 -8.6389e+001 -3.8116e+001  2.7841e+001 51782 82557,82609,82583
 1.5000e+000 83171 -7.7147e+001  5.8617e+000 -1.3990e+001 51442 83194,82978,82900
 1.5000e+000 83148 -1.0407e+002  1.1701e+000 -2.2054e+001 51442 83194,82900,82874
 1.5000e+000 83125 -1.1827e+002 -1.1099e+001 -7.0703e+000 51442 82900,82978,82926
 1.5000e+000 83102 -1.2462e+002 -3.0561e+001 -2.3047e+001 51442 82874,83030,83004
 1.5000e+000 83079 -4.9212e+001  5.7916e+000 -1.5570e+001 51442 82926,82978,82952
 1.5000e+000 83056 -6.1331e+001 -7.3415e+000 -1.1803e+001 51442 82848,83030,82874
 1.5000e+000 83220 -4.8110e+001 -2.2376e+000 -1.0959e+001 51442 83004,82978,83194
 1.5000e+000 83243 -8.1595e+001 -1.3479e+001 -2.1359e+001 51442 83004,83194,82874
 1.5000e+000 83751 -6.3116e+001 -5.6034e+000  7.9285e+000 50938 83428,83584,83454
 1.5000e+000 83728 -8.6046e+001 -1.3075e+001 -5.3312e+000 50938 83428,83610,83584
 1.5000e+000 83705 -8.9188e+001 -2.1270e+001 -7.4022e-001 50938 83454,83584,83558
 1.5000e+000 83682 -1.3015e+002 -1.7313e+001 -4.4500e+000 50938 83454,83532,83480
 1.5000e+000 83659 -1.1139e+002 -3.2132e+001 -6.9325e+000 50938 83454,83558,83532
 1.5000e+000 83636 -8.9931e+001  1.4911e+001  9.6839e+000 50938 83480,83532,83506
 1.5000e+000 84355 -1.0198e+002 -5.3843e+001  1.0530e+001 50377 84378,83960,83934
 1.5000e+000 84332 -8.2525e+001 -2.2675e+001 -1.2788e+001 50377 84522,84378,83934
 1.5000e+000 84309 -1.1386e+002 -3.2125e+001 -5.1040e+000 50377 84450,84038,84012
 1.5000e+000 84286 -7.7073e+001 -2.7150e+001 -1.3027e+001 50377 84522,83934,84142
 1.5000e+000 84263 -1.0395e+002 -7.6952e+001  1.5927e+001 50377 84594,84090,84038
 1.5000e+000 84240 -3.5576e+001 -3.0662e+001  1.0669e+001 50377 83960,84012,83986
 1.5000e+000 84217 -6.0240e+001 -2.3191e+001 -8.7715e+000 50377 83934,84168,84142
 1.5000e+000 84194 -3.1734e+001 -4.5520e+001  2.5476e+001 50377 84038,84090,84064
 1.5000e+000 84404 -2.2765e+001 -1.9895e+001  3.5482e+000 50377 84012,83960,84378
 1.5000e+000 84427 -8.5818e+001 -2.5535e+001 -1.9574e+001 50377 84450,84012,84378
 1.5000e+000 84476 -1.1847e+002 -5.6235e+001  1.1436e+001 50377 84594,84038,84450
 1.5000e+000 84499 -1.0320e+002 -3.0899e+001 -4.6986e+000 50377 84116,84450,84378
 1.5000e+000 84548 -7.7976e+001 -1.7424e+001 -1.0633e+001 50377 84116,84378,84522
 1.5000e+000 84571 -7.3032e+001 -2.2627e+001 -1.1016e+001 50377 84116,84522,84142
 1.5000e+000 84620 -8.8778e+001 -4.8366e+001  3.0143e+000 50377 84116,84090,84594
 1.5000e+000 84643 -1.0071e+002 -2.6921e+001 -2.8163e+000 50377 84116,84594,84450
 1.5000e+000 84842 -8.6314e+001 -2.2979e+000 -2.8092e+001 49923 84865,84692,84666
 1.5000e+000 84819 -4.6207e+001 -1.2004e+001  5.6436e-001 49923 84865,84666,84770
 1.5000e+000 84796  1.0146e+001  8.4764e+000 -4.3850e+000 49923 84692,84744,84718
 1.5000e+000 84891 -5.9778e+001  1.0512e+001 -6.6655e+000 49923 84744,84692,84865
 1.5000e+000 84914 -1.3294e+001  1.6218e+001  2.5494e+001 49923 84744,84865,84770
 1.5000e+000 85501 -1.1059e+002 -2.9905e+001  2.8841e+000 49618 85524,85282,85204
 1.5000e+000 85478 -1.1573e+002 -2.6663e+001  9.1776e+000 49618 85596,85524,85204
 1.5000e+000 85455 -1.1191e+002 -2.7535e+001  9.9176e+000 49618 85596,85204,85178
 1.5000e+000 85432 -1.1607e+002 -4.1616e+001  7.6764e+000 49618 85204,85282,85256
 1.5000e+000 85409 -7.4939e+001 -6.5979e+000 -3.6503e+000 49618 85282,85334,85308
 1.5000e+000 85386 -1.0717e+002 -2.4104e+001  5.7510e-001 49618 85204,85256,85230
 1.5000e+000 85550 -9.5032e+001 -1.1292e+001 -1.4223e+001 49618 85334,85282,85524
 1.5000e+000 85573 -1.4623e+002 -3.1504e+001 -8.1582e+000 49618 85334,85524,85360
 1.5000e+000 85622 -1.2166e+002 -2.6404e+001  1.0113e+001 49618 85360,85524,85596
 1.5000e+000 85645 -1.1741e+002 -2.6920e+001  1.0150e+001 49618 85360,85596,85178
 1.5000e+000 85795 -3.4119e+002 -1.0702e+002  2.9029e+001 49278 85694,85746,85720
 1.5000e+000 85772 -3.9218e+002 -1.1108e+002  2.0581e+000 49278 85668,85746,85694
 1.5000e+000 86197 -1.3597e+002 -6.5117e+001 -1.2266e+001 48916 86001,86079,86027
 1.5000e+000 86174 -1.3508e+002 -7.1479e+001 -1.7828e+001 48916 85949,86079,86001
 1.5000e+000 86151 -1.6851e+002 -9.4146e+001 -5.4104e+000 48916 85949,86001,85975
 1.5000e+000 86128 -1.4037e+002 -5.7257e+001 -3.9056e+000 48916 86027,86079,86053
 1.5000e+000 86105 -2.5129e+002 -1.1877e+002 -2.8162e+001 48916 85923,86079,85949
 1.5000e+000 86477  2.5511e+000  4.8476e-001  2.1629e+001 48398 86327,86379,86353
 1.5000e+000 86454 -2.4535e+001 -3.0814e+001  8.3239e+000 48398 86500,86379,86327
 1.5000e+000 86431 -1.2220e+001 -2.9891e+001  1.6033e+001 48398 86301,86405,86379
 1.5000e+000 86526 -1.8330e+001 -2.5311e+001  1.1191e+001 48398 86301,86379,86500
 1.5000e+000 87032 -9.2483e+001 -2.2724e+001  2.3934e+000 48008 87127,87055,86787
 1.5000e+000 87009 -9.7059e+001 -3.3113e+001  4.6693e+000 48008 87055,86735,86709
 1.5000e+000 86986 -8.6460e+001 -2.7061e+001  1.3832e+000 48008 87127,86787,86761
 1.5000e+000 86963 -7.9349e+001 -2.8364e+001  1.0065e+001 48008 86787,86865,86839
 1.5000e+000 86940 -1.0646e+002 -3.3699e+001  6.8146e-001 48008 86709,86891,86865
 1.5000e+000 86917 -1.1512e+002 -2.2045e+001  2.1370e+001 48008 86787,86839,86813
 1.5000e+000 87081 -9.3519e+001 -2.7751e+001  1.6457e+000 48008 86865,86787,87055
 1.5000e+000 87104 -9.1316e+001 -2.8571e+001 -5.1663e-001 48008 86865,87055,86709
 1.5000e+000 87153 -8.3538e+001 -2.6233e+001  2.2543e+000 48008 86735,87055,87127
 1.5000e+000 87176 -6.4671e+001 -1.7915e+001 -3.8751e+000 48008 86735,87127,86761
 1.5000e+000 87456 -1.8955e+001 -4.4154e+000 -1.0642e+001 47604 87306,87358,87332
 1.5000e+000 87433 -4.8017e+001 -2.2862e+001 -2.1378e+000 47604 87306,87384,87358
 1.5000e+000 87410 -2.4724e+001 -1.2863e+001 -1.7430e+000 47604 87280,87384,87306
 1.5000e+000 87785 -5.4884e+000 -5.6066e+000  8.1946e+000 47264 87638,87690,87664
 1.5000e+000 87762 -9.2610e+000  1.7506e+001  5.3168e+000 47264 87612,87690,87638
 1.5000e+000 87739 -1.1531e+001  3.2622e+000  8.0855e+000 47264 87560,87690,87612
 1.5000e+000 87716 -2.4637e+000 -1.4870e+000 -2.1731e+000 47264 87560,87612,87586
 1.5000e+000 87935 -1.6309e+002 -4.7421e+001  3.2451e+000 46952 87808,87860,87834
 1.5000e+000 87912 -1.4069e+002 -5.0905e+000 -6.2829e+000 46952 87808,87886,87860
 1.5000e+000 88281 -1.0641e+002 -2.4514e+001  5.7208e-001 46526 88304,88114,88036
 1.5000e+000 88258 -9.2055e+001 -1.8160e+001  3.5191e+000 46526 88304,88036,87984
 1.5000e+000 88235 -1.0259e+002 -1.8525e+001 -1.2299e+001 46526 88036,88114,88062
 1.5000e+000 88212 -7.4161e+001  1.1980e+001  5.8599e+001 46526 87958,88140,87984
 1.5000e+000 88189 -8.4296e+001  2.2031e-001  9.1014e-001 46526 87984,88036,88010
 1.5000e+000 88166 -1.2079e+002 -3.8487e+001 -2.2141e+001 46526 88062,88114,88088
 1.5000e+000 88330 -1.1870e+002 -1.5999e+001  7.2430e-001 46526 88140,88114,88304
 1.5000e+000 88353 -1.0868e+002 -1.2841e+001  2.9495e+000 46526 88140,88304,87984
 1.5000e+000 88701 -4.3043e+001 -2.4288e+001 -1.1494e+001 45822 88724,88378,88534
 1.5000e+000 88678 -3.2341e+001  3.0672e-001 -1.4837e+001 45822 88378,88560,88534
 1.5000e+000 88655 -3.8986e+001 -2.8455e+001 -2.6376e+000 45822 88724,88534,88508
 1.5000e+000 88632 -3.4116e+001 -1.4624e+001 -3.1415e+000 45822 88404,88508,88456
 1.5000e+000 88609 -2.8451e+001 -4.7345e+000 -8.5444e+000 45822 88404,88456,88430
 1.5000e+000 88586 -5.3501e+001 -3.0768e+001  4.2616e+000 45822 88456,88508,88482
 1.5000e+000 88750 -3.9571e+001 -1.3809e+001 -1.0757e+001 45822 88404,88378,88724
 1.5000e+000 88773 -3.6181e+001 -1.9628e+001 -2.5118e+000 45822 88404,88724,88508
 1.5000e+000 89106 -1.1821e+002 -2.0585e+001 -1.0592e+001 45418 88881,88985,88907
 1.5000e+000 89083 -8.3739e+001 -4.4206e+001 -9.7638e+000 45418 88881,89011,88985
 1.5000e+000 89060 -9.8388e+001 -2.6910e+001 -1.5975e+001 45418 88907,88985,88933
 1.5000e+000 89037 -4.3913e+001 -1.6724e+001  8.8779e+000 45418 88933,88985,88959
 1.5000e+000 89435 -8.9469e+001 -2.9911e+001  9.5637e+000 44914 89210,89288,89236
 1.5000e+000 89412 -6.3738e+001 -1.0235e+001 -9.3578e+000 44914 89210,89314,89288
 1.5000e+000 89389 -7.5493e+001 -6.7022e-001 -1.4689e+001 44914 89210,89340,89314
 1.5000e+000 89366 -7.0496e+001 -1.8948e+001  3.7445e+000 44914 89236,89288,89262
 1.5000e+000 89634 -4.6283e+000  8.5720e+000  9.1169e+000 44538 89510,89562,89536
 1.5000e+000 89611 -1.8707e+001  6.6644e+000 -7.6638e+000 44538 89458,89562,89510
 1.5000e+000 89588 -1.2742e+001 -1.7958e+001 -9.0349e+000 44538 89458,89510,89484
 1.5000e+000 90044 -1.4205e+002 -6.2463e+001  1.1344e+001 44134 89819,89923,89845
 1.5000e+000 90021 -1.2012e+002 -1.9136e+001  1.9271e+001 44134 89819,89949,89923
 1.5000e+000 89998 -1.0881e+002 -5.1518e+001 -5.1215e+000 44134 89845,89923,89897
 1.5000e+000 89975 -7.7453e+001 -4.4609e+000  1.5098e+001 44134 89845,89897,89871
 1.5000e+000 90520 -1.3611e+002 -5.6712e+001  4.5613e+000 43457 90543,90252,90226
 1.5000e+000 90497 -1.1261e+002 -4.7341e+001  7.6305e+000 43457 90543,90226,90330
 1.5000e+000 90474 -1.2925e+002 -3.5088e+001 -3.4855e+000 43457 90200,90330,90226
 1.5000e+000 90451 -1.3746e+002 -4.8227e+001 -1.7840e+001 43457 90200,90356,90330
 1.5000e+000 90428 -1.3833e+002 -9.6309e+000  3.8233e+001 43457 90252,90304,90278
 1.5000e+000 90405 -5.0472e+001 -1.3565e+001  1.7030e+001 43457 90174,90356,90200
 1.5000e+000 90382 -1.2531e+002 -1.0493e+002 -1.7728e+001 43457 90148,90356,90174
 1.5000e+000 90569 -1.5874e+002 -4.2499e+001  2.7797e+001 43457 90304,90252,90543
 1.5000e+000 90592 -1.1759e+002 -2.3036e+001  3.6039e+001 43457 90304,90543,90330
 1.5000e+000 91098 -3.3135e+001 -1.2721e+001  5.7181e+000 42789 90801,90905,90853
 1.5000e+000 91075 -4.6403e+001 -2.8120e+001  1.1512e+001 42789 90775,90905,90801
 1.5000e+000 91052 -4.9145e+001 -1.3594e+001 -2.9674e+000 42789 90775,90931,90905
 1.5000e+000 91029 -1.3675e+001  9.2455e+000  2.1132e+001 42789 90801,90853,90827
 1.5000e+000 91006 -5.0819e+001 -2.6784e+001  3.6140e+001 42789 90853,90905,90879
 1.5000e+000 90983 -8.8508e+001 -8.5497e+000  1.3355e+001 42789 90775,90957,90931
 1.5000e+000 91427 -1.1669e+002 -6.3915e+000 -1.0722e+001 42227 91228,91280,91254
 1.5000e+000 91404 -1.3140e+002 -4.3715e+001  5.8573e+000 42227 91228,91306,91280
 1.5000e+000 91381 -1.2560e+002 -3.9807e+001  1.1347e+001 42227 91202,91306,91228
 1.5000e+000 91358 -1.1216e+002 -4.6302e+001 -1.8666e+000 42227 91202,91332,91306
 1.5000e+000 91675 -3.4515e+001 -1.0468e+001 -1.0206e+001 41773 91698,91476,91450
 1.5000e+000 91652 -3.5050e+001 -1.7454e+001 -2.7002e+000 41773 91698,91450,91554
 1.5000e+000 91629 -4.4877e+001 -3.3413e+001  2.1769e+000 41773 91450,91580,91554
 1.5000e+000 91606 -4.9257e+001 -1.0074e+001  7.6739e+000 41773 91502,91554,91528
 1.5000e+000 91724 -3.9195e+001 -1.4446e+001 -5.3792e+000 41773 91502,91476,91698
 1.5000e+000 91747 -4.1282e+001 -2.2279e+001  2.3280e+000 41773 91502,91698,91554
 1.5000e+000 92127 -7.4194e+001 -1.4446e+001 -6.2558e+000 41255 92150,91905,91879
 1.5000e+000 92104 -1.2167e+002 -2.1801e+001  1.3752e+001 41255 92150,91879,91957
 1.5000e+000 92081 -9.6314e+001 -4.8137e+001  3.6901e+001 41255 91853,91957,91879
 1.5000e+000 92058 -1.0606e+002 -6.2666e+001  7.0234e+000 41255 91853,91983,91957
 1.5000e+000 92035 -6.7598e+001 -3.2545e+001 -6.1109e+000 41255 91853,92009,91983
 1.5000e+000 92176 -1.1664e+002  5.8517e-001  1.6067e+001 41255 91931,91905,92150
 1.5000e+000 92199 -1.8973e+002 -3.8339e+001  4.5150e+001 41255 91931,92150,91957
 1.5000e+000 92518 -1.4801e+002 -1.7173e+001  3.7388e+000 41007 92244,92374,92270
 1.5000e+000 92495 -1.2733e+002  7.5354e+000 -7.5963e+000 41007 92244,92400,92374
 1.5000e+000 92472 -1.3860e+002 -2.5014e+001 -1.4310e+000 41007 92270,92374,92348
 1.5000e+000 92449 -1.8035e+002 -6.9207e+001  6.6252e+000 41007 92296,92348,92322
 1.5000e+000 92426 -1.6004e+002 -6.1571e+001  8.7209e+000 41007 92270,92348,92296
 1.5000e+000 92668 -5.0320e+001 -2.0014e+001 -9.4302e+000 40717 92823,92691,92567
 1.5000e+000 92645 -4.7648e+001 -1.9492e+001 -8.6268e+000 40717 92895,92823,92567
 1.5000e+000 92717 -5.6557e+001 -2.0384e+001  1.1421e+001 40717 92593,92567,92691
 1.5000e+000 92849 -3.6793e+001 -2.5306e+001 -1.4005e+001 40717 92619,92691,92823
 1.5000e+000 92872 -5.6356e+001 -2.8238e+001 -9.4180e+000 40717 92619,92823,92541
 1.5000e+000 92921 -7.1541e+001 -3.8106e+001  2.9376e+000 40717 92541,92823,92895
 1.5000e+000 93634 -1.1911e+002 -4.5259e+001 -1.9433e+001 40206 93366,93444,93418
 1.5000e+000 93611 -9.1982e+001 -1.8999e+001 -4.7994e+000 40206 93288,93444,93366
 1.5000e+000 93588 -9.4241e+001 -3.8944e+001 -5.1677e+000 40206 93288,93366,93314
 1.5000e+000 93565 -1.7957e+002 -5.2060e+001 -3.0953e+000 40206 93262,93444,93288
 1.5000e+000 93542 -1.4345e+002 -2.4020e+001 -4.8139e+000 40206 93366,93418,93392
 1.5000e+000 93519 -2.2765e+002 -2.0429e+000  6.0703e-001 40206 93262,93470,93444
 1.5000e+000 93496 -6.8917e+001 -2.8287e+001 -6.0781e-001 40206 93314,93366,93340
 1.5000e+000 94189 -7.6225e+001 -2.8819e+001  9.4263e+000 39802 93843,93999,93973
 1.5000e+000 94166 -9.2267e+001 -3.7655e+001  1.4395e+001 39802 93817,93999,93843
 1.5000e+000 94143 -1.2905e+002 -3.2468e+001  1.5688e+001 39802 93869,93973,93947
 1.5000e+000 94120 -7.7652e+001 -7.6978e+000  8.0729e+000 39802 93843,93973,93869
 1.5000e+000 94097 -7.1952e+001  5.3548e-002 -1.0076e+000 39802 93869,93921,93895
 1.5000e+000 94074 -7.3809e+001 -4.8483e+000 -3.7054e+000 39802 93869,93947,93921
 1.5000e+000 94051 -6.5134e+001 -1.9978e+001  3.5835e+000 39802 93817,94025,93999
 1.5000e+000 94290 -1.3539e+002 -3.7654e+001 -2.4453e-001 39398 94212,94264,94238
 1.5000e+000 94798 -5.2527e+001 -1.1649e+001  1.4893e+000 38701 94501,94657,94631
 1.5000e+000 94775 -4.0117e+001 -1.0909e+001  3.7898e-001 38701 94475,94657,94501
 1.5000e+000 94752 -7.2752e+001 -3.2872e+001 -1.0222e+000 38701 94579,94631,94605
 1.5000e+000 94729 -6.8333e+001 -1.0698e+001 -4.9405e+000 38701 94553,94631,94579
 1.5000e+000 94706 -2.0277e+001  7.9630e+000 -9.9071e+000 38701 94501,94631,94553
 1.5000e+000 94683 -1.9219e+001 -1.2206e+000 -1.0549e+001 38701 94501,94553,94527
 1.5000e+000 95255 -2.9581e+001  8.5403e-001  1.2536e+001 38247 95278,95085,95007
 1.5000e+000 95232 -4.0630e+001 -2.1460e+000  1.4262e+001 38247 95278,95007,95137
 1.5000e+000 95209 -5.2589e+001 -8.3182e+000  6.9247e+000 38247 94981,95137,95007
 1.5000e+000 95186 -5.8962e+001 -2.5146e+001 -4.7739e+000 38247 95007,95059,95033
 1.5000e+000 95163 -6.1755e+001 -1.9268e+001  2.1385e+001 38247 95007,95085,95059
 1.5000e+000 95304 -2.5236e+001  2.4902e+000  2.9279e+000 38247 95111,95085,95278
 1.5000e+000 95327 -3.5570e+001 -2.5300e+000  5.8658e+000 38247 95111,95278,95137
 1.5000e+000 95575 -1.4991e+002  6.5031e+001 -1.8294e+001 37564 95376,95428,95402
 1.5000e+000 95552 -1.5762e+002 -5.1424e+001 -9.8585e+000 37564 95376,95454,95428
 1.5000e+000 95529 -1.3329e+002 -4.5055e+001 -1.4652e+001 37564 95376,95480,95454
 1.5000e+000 95506 -1.2223e+002 -2.6135e+001 -8.0581e+000 37564 95350,95480,95376
 1.5000e+000 96034 -2.9694e+001 -3.4161e-001  3.5485e+000 37224 95786,95838,95812
 1.5000e+000 96011 -2.8978e+001 -9.0550e+000  1.1288e+001 37224 95786,95890,95838
 1.5000e+000 95988 -1.4081e+001 -4.3659e+000  6.2328e+000 37224 95786,95916,95890
 1.5000e+000 95965 -5.6362e+001 -1.4645e+001 -3.1855e+000 37224 95760,95916,95786
 1.5000e+000 95942 -1.9638e+001 -2.3229e+001 -8.2485e+000 37224 95838,95890,95864
 1.5000e+000 96363 -1.7178e+001  9.3878e+000 -7.2868e+000 36884 96216,96268,96242
 1.5000e+000 96340 -4.6303e+001  1.5561e+001 -5.3532e+000 36884 96164,96268,96216
 1.5000e+000 96317 -7.0034e+001 -1.4644e+001  1.6844e+001 36884 96138,96268,96164
 1.5000e+000 96294 -5.0746e+001  9.9815e+000  1.8993e+000 36884 96164,96216,96190
 1.5000e+000 96839 -1.1265e+002 -3.0910e+001 -3.6303e+000 36572 96862,96649,96597
 1.5000e+000 96816 -1.1388e+002 -3.8517e+001 -2.9790e+000 36572 97006,96862,96597
 1.5000e+000 96793 -1.0760e+002 -3.2079e+001  3.5366e+000 36572 96934,96467,96675
 1.5000e+000 96770 -1.0472e+002 -4.2323e+001  4.0193e+000 36572 97006,96597,96571
 1.5000e+000 96747 -1.1348e+002 -4.3832e+001 -2.6288e+001 36572 96467,96519,96493
 1.5000e+000 96724 -2.3718e+002 -2.3581e+001  8.0888e+001 36572 96519,96571,96545
 1.5000e+000 96701 -8.0437e+001 -6.1206e+000  2.4781e+001 36572 96597,96649,96623
 1.5000e+000 96888 -1.1799e+002 -3.3057e+001 -3.4581e+000 36572 96675,96649,96862
 1.5000e+000 96911 -1.1694e+002 -3.2801e+001  1.0362e+000 36572 96934,96675,96862
 1.5000e+000 96960 -1.0183e+002 -3.4695e+001  2.0979e+000 36572 96519,96467,96934
 1.5000e+000 96983 -1.0539e+002 -3.1431e+001  1.0957e+000 36572 97078,96934,96862
 1.5000e+000 97032 -1.0377e+002 -3.0756e+001  1.1734e+000 36572 97078,96862,97006
 1.5000e+000 97055 -9.5913e+001 -3.2741e+001  9.4789e+000 36572 96519,97006,96571
 1.5000e+000 97104 -1.0565e+002 -3.1647e+001  2.2194e+000 36572 96519,96934,97078
 1.5000e+000 97127 -1.0539e+002 -3.1552e+001  2.2210e+000 36572 96519,97078,97006
 1.5000e+000 97761 -9.7201e+001 -2.0002e+001  2.4270e+001 36118 97784,97493,97415
 1.5000e+000 97738 -1.1045e+002 -2.2717e+001  2.3391e+001 36118 97784,97415,97597
 1.5000e+000 97715 -1.8056e+002 -3.6512e+001  4.2731e+001 36118 97389,97597,97415
 1.5000e+000 97692 -1.6756e+002 -4.3066e+001  4.1795e+001 36118 97415,97467,97441
 1.5000e+000 97669 -1.5101e+002 -4.5578e+001  5.8558e+001 36118 97415,97493,97467
 1.5000e+000 97646 -9.2750e+001 -6.4100e+001 -1.4624e+001 36118 97493,97571,97519
 1.5000e+000 97623 -5.5310e+001 -1.5458e+001  1.0815e+001 36118 97519,97571,97545
 1.5000e+000 97810 -1.0794e+002 -8.2636e+000  1.3382e+001 36118 97571,97493,97784
 1.5000e+000 97833 -1.3701e+002 -1.9836e+001  1.4557e+001 36118 97571,97784,97597
 1.5000e+000 98081 -1.2320e+002 -5.7205e+001  5.8214e+000 35564 98104,97908,97856
 1.5000e+000 98058 -1.3479e+002 -6.8148e+001  1.1932e+001 35564 98104,97856,97986
 1.5000e+000 98035 -1.8058e+002 -7.4549e+001  6.5555e+000 35564 97934,97986,97960
 1.5000e+000 98012 -1.0882e+002 -1.6093e+001 -1.0179e+001 35564 97856,97908,97882
 1.5000e+000 98130 -1.3751e+002 -1.4029e+001  4.8562e+000 35564 97934,97908,98104
 1.5000e+000 98153 -1.5516e+002 -5.0760e+001  1.8349e+001 35564 97934,98104,97986
 1.5000e+000 98374 -1.7276e+002 -4.3431e+001 -5.7566e+000 35152 98224,98302,98276
 1.5000e+000 98351 -1.5210e+002  2.9758e+000 -1.4111e+000 35152 98198,98302,98224
 1.5000e+000 98328 -1.3871e+002 -3.1815e+001 -1.2500e+001 35152 98224,98276,98250
 1.5000e+000 98884 -4.9451e+001 -1.1242e+000  6.5148e+000 34698 98691,98743,98717
 1.5000e+000 98861 -4.9799e+001  1.3252e-001  3.2007e+000 34698 98561,98743,98691
 1.5000e+000 98838 -4.1041e+001 -2.4723e+000  8.0779e+000 34698 98907,98587,98561
 1.5000e+000 98815 -4.0214e+001 -6.4024e+000  1.5930e+000 34698 98907,98561,98691
 1.5000e+000 98792 -2.1739e+001 -1.6525e+000 -3.4550e+000 34698 98587,98639,98613
 1.5000e+000 98769 -4.5082e+001 -2.4141e+001  1.9131e+001 34698 98587,98665,98639
 1.5000e+000 98933 -3.4508e+001 -1.3326e+000  1.1407e+001 34698 98665,98587,98907
 1.5000e+000 98956 -3.3005e+001 -6.5846e+000  4.6894e+000 34698 98665,98907,98691
 1.5000e+000 99204 -1.0628e+002 -5.4067e+000 -1.0188e+001 34144 99227,99031,99005
 1.5000e+000 99181 -1.0966e+002 -2.2115e+001  5.4141e+000 34144 99299,99227,99005
 1.5000e+000 99158 -1.1789e+002 -1.9120e+001  1.4969e+001 34144 99299,99005,99109
 1.5000e+000 99135 -8.0820e+001 -2.0591e+001  1.7930e+001 34144 98979,99109,99005
 1.5000e+000 99253 -1.0017e+002 -1.5938e+001 -2.6991e+000 34144 99057,99031,99227
 1.5000e+000 99276 -3.5284e+001 -2.8856e+000 -6.8782e+000 34144 99057,99227,99083
 1.5000e+000 99325 -9.2577e+001 -3.0084e+000 -1.7515e+001 34144 99083,99227,99299
 1.5000e+000 99348 -1.2191e+002 -9.2745e+000 -7.9902e+000 34144 99083,99299,99109
 1.5000e+000 99498 -3.3894e+002 -8.5974e+001  3.6502e+001 33433 99397,99449,99423
 1.5000e+000 99475 -3.9097e+002 -9.9580e+001  3.7403e+000 33433 99371,99449,99397
 1.5000e+000 100008 -8.4294e+001 -2.3450e+001  7.5410e+000 32979 100103,100031,99815
 1.5000e+000 99985 -8.2476e+001 -9.3606e+000 -5.0499e+000 32979 100175,100031,99763
 1.5000e+000 99962 -9.2716e+001 -1.9187e+001  1.2457e+001 32979 100103,99815,99789
 1.5000e+000 99939 -8.7121e+001 -8.9645e+000 -1.2182e+000 32979 100175,99763,99737
 1.5000e+000 99916 -8.3829e+001  1.6654e+001 -2.6226e+000 32979 99685,99867,99737
 1.5000e+000 99893 -6.0367e+001 -8.6750e-001 -3.2549e+001 32979 99685,99737,99711
 1.5000e+000 100057 -7.5257e+001 -1.7294e+001  9.9510e-001 32979 99841,99815,100031
 1.5000e+000 100080 -6.9363e+001  1.3045e+001 -1.4624e+001 32979 99841,100031,99867
 1.5000e+000 100129 -7.4333e+001 -1.6191e+001  3.4995e+000 32979 99763,100031,100103
 1.5000e+000 100152 -8.3819e+001 -1.0959e+001  7.8796e+000 32979 99763,100103,99789
 1.5000e+000 100201 -9.0077e+001 -1.2147e+001 -5.3421e+000 32979 99867,100031,100175
 1.5000e+000 100224 -9.0955e+001 -9.3251e+000 -1.5449e+000 32979 99867,100175,99737
 1.5000e+000 100553 -1.0262e+002 -4.7176e+001  1.9707e+001 32503 100354,100406,100380
 1.5000e+000 100530 -8.3314e+001 -1.2152e+001 -5.0106e+000 32503 100328,100406,100354
 1.5000e+000 100507 -8.5221e+001 -5.1544e+001 -2.8962e+001 32503 100328,100458,100406
 1.5000e+000 100484 -4.3168e+001 -5.6240e+001 -8.9299e+000 32503 100406,100458,100432
 1.5000e+000 100850 -1.5314e+002 -6.1510e+001  5.8765e+000 31899 100873,100654,100628
 1.5000e+000 100827 -1.4940e+002 -6.8358e+001 -5.9796e-001 31899 100945,100873,100628
 1.5000e+000 100804 -1.4383e+002 -6.8724e+001  1.6861e+000 31899 100945,100628,100602
 1.5000e+000 100781 -1.5492e+002 -5.4318e+001  1.3448e+001 31899 100576,100732,100602
 1.5000e+000 100758 -9.8203e+001 -1.5948e+001  2.3928e+001 31899 100654,100706,100680
 1.5000e+000 100899 -1.3844e+002 -7.9285e+001  3.9580e+000 31899 100706,100654,100873
 1.5000e+000 100922 -1.6485e+002 -7.6647e+001 -1.1503e+001 31899 100706,100873,100732
 1.5000e+000 100971 -1.5972e+002 -6.6105e+001 -1.2388e+000 31899 100732,100873,100945
 1.5000e+000 100994 -1.5324e+002 -6.5663e+001  1.1908e+000 31899 100732,100945,100602
 1.5000e+000 101551 -4.6282e+001 -1.0665e+001  1.3390e+000 31338 101205,101387,101231
 1.5000e+000 101528 -7.8817e+001 -2.7073e+001 -1.4870e+001 31338 101179,101387,101205
 1.5000e+000 101505 -6.2714e+001 -2.5005e+001  1.5840e+000 31338 101574,101309,101257
 1.5000e+000 101482 -5.3257e+001 -1.6809e+001  5.0630e+000 31338 101646,101574,101257
 1.5000e+000 101459 -4.4605e+001 -5.8898e+000  1.0353e+001 31338 101646,101257,101231
 1.5000e+000 101436 -6.2974e+001 -2.4904e+000 -1.8369e+000 31338 101309,101361,101335
 1.5000e+000 101413 -6.4907e+001 -2.4481e+001 -5.5334e-001 31338 101257,101309,101283
 1.5000e+000 101600 -6.2895e+001 -1.7810e+001  2.2338e+000 31338 101361,101309,101574
 1.5000e+000 101623 -6.5383e+001 -2.4806e+001 -3.3983e+000 31338 101361,101574,101387
 1.5000e+000 101672 -6.0752e+001 -1.3769e+001 -3.6315e+000 31338 101387,101574,101646
 1.5000e+000 101695 -5.5312e+001 -1.1792e+001 -1.6197e-002 31338 101387,101646,101231
 1.5000e+000 101943 -1.0882e+002 -3.8569e+001  1.9292e-001 30748 101966,101796,101744
 1.5000e+000 101920 -9.3695e+001 -1.6959e+001  7.9529e+000 30748 101966,101744,101718
 1.5000e+000 101897 -9.0670e+001  9.9824e+000  5.0342e+001 30748 101718,101848,101822
 1.5000e+000 101874 -1.0184e+002 -2.0609e+001 -1.6284e+001 30748 101744,101796,101770
 1.5000e+000 101992 -1.1954e+002 -1.5684e+001  3.8814e+000 30748 101822,101796,101966
 1.5000e+000 102015 -1.1053e+002  1.4642e+000  8.6557e+000 30748 101822,101966,101718
 1.5000e+000 102493 -1.6584e+002 -3.7941e+001  2.8740e+001 30344 102516,102173,102147
 1.5000e+000 102470 -1.3251e+002 -2.1709e+001 -6.1414e+000 30344 102660,102516,102147
 1.5000e+000 102447 -6.7637e+001  5.6337e+000  4.9789e+000 30344 102588,102199,102173
 1.5000e+000 102424 -1.1987e+002 -3.1488e+001 -5.5264e+000 30344 102660,102147,102329
 1.5000e+000 102401 -2.3682e+002 -3.0997e+001  1.0565e+001 30344 102199,102277,102251
 1.5000e+000 102378 -7.2492e+001 -6.3986e+001  5.8561e+001 30344 102199,102251,102225
 1.5000e+000 102355 -2.7253e+002 -8.5112e+001  7.9644e+001 30344 102121,102329,102147
 1.5000e+000 102542 -9.7581e+001 -6.5991e+000  1.1796e+001 30344 102588,102173,102516
 1.5000e+000 102565 -1.2906e+002 -1.4561e+001 -4.0588e-001 30344 102277,102516,102303
 1.5000e+000 102614 -1.0795e+002  2.1008e+001  4.7878e+000 30344 102277,102199,102588
 1.5000e+000 102637 -1.3479e+002  1.2686e+001  6.1019e+000 30344 102277,102588,102516
 1.5000e+000 102686 -1.1905e+002 -1.0524e+001 -5.4047e-001 30344 102303,102516,102660
 1.5000e+000 102709 -1.0978e+002 -2.2570e+001 -4.2837e-001 30344 102303,102660,102329
 1.5000e+000 103294 -9.7085e+001 -3.8136e+001  1.7319e+001 29726 103317,103101,103075
 1.5000e+000 103271 -1.0824e+002 -4.5761e+001  1.2329e+001 29726 103317,103075,102997
 1.5000e+000 103248 -1.5402e+002 -6.2738e+001  3.0574e+001 29726 102971,103153,102997
 1.5000e+000 103225 -6.7440e+001 -2.4739e+000 -2.1278e+000 29726 103101,103153,103127
 1.5000e+000 103202 -1.0808e+002 -6.5382e+001  8.2809e+000 29726 102997,103075,103023
 1.5000e+000 103179 -1.2018e+002 -4.0498e+001 -1.6437e+001 29726 103023,103075,103049
 1.5000e+000 103343 -8.9568e+001 -4.6956e+001  1.7426e+001 29726 103153,103101,103317
 1.5000e+000 103366 -9.6749e+001 -4.9120e+001  1.4719e+001 29726 103153,103317,102997
 1.5000e+000 103614 -6.6595e+001 -3.1260e+001  9.9723e+000 29200 103781,103637,103467
 1.5000e+000 103591 -6.0638e+001 -2.4257e+001  1.1897e+000 29200 103709,103637,103415
 1.5000e+000 103568 -5.0633e+001 -8.2033e+000  5.4809e+000 29200 103709,103415,103389
 1.5000e+000 103545 -6.9447e+001 -3.2504e+001  1.0329e+001 29200 103781,103467,103441
 1.5000e+000 103663 -4.7068e+001 -2.0549e+001 -7.2966e+000 29200 103853,103637,103493
 1.5000e+000 103686 -9.2479e+001 -5.9340e+001 -2.5358e+001 29200 103493,103637,103519
 1.5000e+000 103735 -7.4962e+001 -5.4557e+000 -8.7655e+000 29200 103519,103637,103709
 1.5000e+000 103758 -6.7529e+001  5.4057e+000 -5.5291e+000 29200 103519,103709,103389
 1.5000e+000 103807 -7.0144e+001 -2.4625e+001  2.3368e+000 29200 103415,103637,103781
 1.5000e+000 103830 -8.0721e+001 -2.9594e+001  3.6794e+000 29200 103415,103781,103441
 1.5000e+000 103879 -4.9999e+001 -2.9378e+001  3.4438e+000 29200 103467,103637,103853
 1.5000e+000 104545 -1.6081e+002 -2.0513e+001  2.0738e+001 28860 104274,104352,104326
 1.5000e+000 104522 -1.2952e+002 -4.6746e+001  8.0301e-002 28860 104248,104352,104274
 1.5000e+000 104499 -9.7740e+001 -3.0242e+001 -6.4767e+000 28860 104248,104404,104352
 1.5000e+000 104476 -1.3975e+002 -6.1477e+001 -2.0365e+001 28860 104222,104404,104248
 1.5000e+000 104453 -9.6833e+001 -4.5894e+001 -1.0405e+001 28860 104352,104404,104378
 1.5000e+000 104430 -2.8368e+002 -4.6673e+001  9.4517e+000 28860 104274,104326,104300
 1.5000e+000 104744 -4.5680e+001  1.5428e+000  1.0397e+001 28456 104839,104767,104646
 1.5000e+000 104721 -2.5080e+001 -1.2032e+000  8.7914e+000 28456 104767,104594,104568
 1.5000e+000 104698 -4.1901e+001 -1.0627e+001  1.5117e+000 28456 104839,104646,104620
 1.5000e+000 104793 -3.7295e+001 -3.7018e+000  1.8432e+001 28456 104672,104646,104767
 1.5000e+000 104816 -2.6715e+001 -2.3835e+000  1.0154e+001 28456 104911,104767,104568
 1.5000e+000 104865 -4.2947e+001 -5.4146e+000  4.2871e+000 28456 104594,104767,104839
 1.5000e+000 104888 -4.8182e+001 -3.5062e+001  2.3526e+000 28456 105041,104839,104620
 1.5000e+000 104937 -4.6094e+001 -3.7441e+001  1.7744e+001 28456 104672,104767,104911
 1.5000e+000 105067 -4.3747e+001 -5.0589e+000  2.3007e+000 28456 104594,104839,105041
 1.5000e+000 105573 -1.0028e+002 -1.5990e+001  1.0604e+001 28094 105812,105596,105328
 1.5000e+000 105550 -1.0273e+002 -1.9384e+001  7.1661e+000 28094 105596,105276,105250
 1.5000e+000 105527 -8.0201e+001 -9.3854e+000  2.0664e+001 28094 105740,105668,105432
 1.5000e+000 105504 -7.9610e+001 -5.7122e+000  2.1408e+001 28094 105740,105432,105380
 1.5000e+000 105481 -1.0112e+002 -1.5413e+001  1.0145e+001 28094 105812,105328,105302
 1.5000e+000 105458 -4.7661e+001 -2.0057e+001  2.0416e+001 28094 105380,105432,105406
 1.5000e+000 105622 -1.2915e+002 -3.2825e+001  2.3995e+001 28094 105354,105328,105596
 1.5000e+000 105645 -8.7894e+001 -1.4135e+001  1.5935e+001 28094 105668,105354,105596
 1.5000e+000 105694 -8.7486e+001 -1.0533e+001  1.1632e+001 28094 105250,105432,105668
 1.5000e+000 105717 -1.0368e+002 -1.1892e+001  7.9634e+000 28094 105250,105668,105596
 1.5000e+000 105766 -8.0994e+001 -1.3128e+001  1.4055e+001 28094 105354,105668,105740
 1.5000e+000 105789 -7.8793e+001 -6.7304e+000  1.4821e+001 28094 105354,105740,105380
 1.5000e+000 105838 -1.0136e+002 -1.6418e+001  1.0219e+001 28094 105276,105596,105812
 1.5000e+000 105861 -1.0520e+002 -1.7393e+001  9.5439e+000 28094 105276,105812,105302
 1.5000e+000 106367 -1.0464e+002 -1.8623e+001 -9.8392e+000 27390 106070,106122,106096
 1.5000e+000 106344 -1.1187e+002 -3.0809e+001 -6.4678e+000 27390 106070,106226,106122
 1.5000e+000 106321 -1.2458e+002 -6.0100e+000 -5.9347e+000 27390 106174,106226,106200
 1.5000e+000 106298 -1.1265e+002 -3.3677e+001 -6.1100e+000 27390 106122,106226,106174
 1.5000e+000 106275 -1.4027e+002 -4.9174e+001 -3.8702e+001 27390 106122,106174,106148
 1.5000e+000 106252 -9.7778e+001 -2.2377e+001  1.9197e+000 27390 106044,106226,106070
 1.5000e+000 106615 -1.5035e+002 -4.4488e+001  8.1947e-001 26978 106638,106494,106416
 1.5000e+000 106592 -1.5402e+002 -4.2917e+001  6.0580e-001 26978 106638,106416,106390
 1.5000e+000 106569 -1.5665e+002 -5.2350e+001 -1.2753e+001 26978 106416,106494,106442
 1.5000e+000 106546 -1.6466e+002 -5.5508e+001 -1.3572e+001 26978 106442,106494,106468
 1.5000e+000 106664 -1.4328e+002 -4.3091e+001  1.1702e-001 26978 106520,106494,106638
 1.5000e+000 106687 -1.5052e+002 -4.4163e+001  1.0674e-001 26978 106520,106638,106390
 1.5000e+000 106837 -1.9295e+002 -8.9581e+001 -1.1789e+001 26524 106710,106762,106736
 1.5000e+000 106814 -1.9900e+002 -9.4795e+001 -9.1326e+000 26524 106710,106788,106762
 1.5000e+000 107426 -6.0501e+001 -7.7072e+000 -1.5352e+001 26120 107129,107207,107155
 1.5000e+000 107403 -8.0174e+001 -3.0027e+001 -6.7988e+000 26120 107129,107285,107207
 1.5000e+000 107380 -7.5463e+001 -1.7320e+001 -7.1782e+000 26120 107207,107285,107259
 1.5000e+000 107357 -5.7011e+001 -1.8798e+001  7.7514e+000 26120 107155,107207,107181
 1.5000e+000 107334 -1.0634e+002 -4.1329e+001 -8.3516e+000 26120 107103,107285,107129
 1.5000e+000 107311 -6.0185e+001  2.9253e-001 -2.2428e-001 26120 107207,107259,107233
 1.5000e+000 107755 -4.5499e+001 -1.2340e+000 -4.4560e+000 25758 107556,107634,107608
 1.5000e+000 107732 -8.8624e+001 -2.0501e+001  7.6704e+000 25758 107556,107660,107634
 1.5000e+000 107709 -3.2004e+001 -1.1500e+001  9.8814e+000 25758 107556,107608,107582
 1.5000e+000 107686 -7.3507e+001  3.9216e+001  2.6939e+001 25758 107530,107660,107556
 1.5000e+000 108438 -3.6910e+001 -9.0953e+000  3.8264e+000 25468 108121,108199,108173
 1.5000e+000 108415 -4.8101e+001 -3.9507e+001 -6.9089e-001 25468 108095,108199,108121
 1.5000e+000 108392 -5.4797e+001 -2.4578e+001 -2.6530e+000 25468 108095,108251,108199
 1.5000e+000 108369 -6.4911e+001 -3.6924e+001  2.6087e+000 25468 108069,108251,108095
 1.5000e+000 108346 -3.7553e+001 -1.9218e+001  7.4588e+000 25468 108199,108251,108225
 1.5000e+000 108323 -8.2747e+001 -1.2585e+001 -1.1938e+001 25468 108017,108251,108069
 1.5000e+000 108300 -3.2220e+001 -1.4189e+001  7.5323e+000 25468 108121,108173,108147
 1.5000e+000 108277 -8.4636e+001 -2.0763e+001 -1.2441e+001 25468 108017,108069,108043
 1.5000e+000 108588 -4.6618e+001 -2.8568e+001 -1.0471e+000 25064 108611,108513,108487
 1.5000e+000 108565 -1.3864e+001 -2.9239e+000  1.1139e+001 25064 108683,108611,108487
 1.5000e+000 108637 -5.6700e+001 -5.3962e+000  8.2259e+000 25064 108539,108513,108611
 1.5000e+000 108660 -5.6812e+001  2.2225e+000  1.3945e+001 25064 108539,108611,108461
 1.5000e+000 108709 -6.2118e+001 -1.0157e+001  1.3575e+001 25064 108461,108611,108683
 1.5000e+000 109345 -8.6922e+001 -1.0396e+001  1.4595e+001 24410 108999,109155,109103
 1.5000e+000 109322 -1.7823e+002 -3.7138e+001  3.0533e+001 24410 108973,109155,108999
 1.5000e+000 109299 -8.1445e+001 -2.6789e+001  1.5648e+001 24410 109103,109155,109129
 1.5000e+000 109276 -8.6756e+001  1.2550e+001  8.1756e+000 24410 108973,109181,109155
 1.5000e+000 109253 -1.7592e+002 -5.3093e+001  3.5520e+001 24410 109025,109103,109077
 1.5000e+000 109230 -1.2709e+002 -3.9094e+001  2.7570e+001 24410 108999,109103,109025
 1.5000e+000 109207 -1.8255e+002  5.2085e+000  1.8070e+001 24410 109025,109077,109051
 1.5000e+000 109723 -9.8990e+001  1.5049e+001  2.4968e+000 23856 109475,109579,109553
 1.5000e+000 109700 -9.6851e+001 -1.0196e+001 -1.0453e+000 23856 109475,109605,109579
 1.5000e+000 109677 -1.1368e+002 -2.4862e+000 -3.7306e+001 23856 109475,109553,109527
 1.5000e+000 109654 -4.8862e+001  1.0361e+001  1.0293e+001 23856 109449,109605,109475
 1.5000e+000 109631 -6.2931e+001  2.6277e+001 -2.4821e+001 23856 109475,109527,109501
 1.5000e+000 110101 -9.1990e+001 -2.6426e+001  6.0721e+000 23566 109853,109931,109879
 1.5000e+000 110078 -8.0091e+001 -1.6168e+001  1.2934e+001 23566 109827,109931,109853
 1.5000e+000 110055 -4.9601e+001  2.2482e+001 -8.1771e-001 23566 109827,109983,109931
 1.5000e+000 110032 -8.8142e+001 -4.5644e+001 -1.0995e+001 23566 109879,109931,109905
 1.5000e+000 110009 -4.4660e+001  1.3270e+001  1.8234e+001 23566 109931,109983,109957
 1.5000e+000 110735 -1.0528e+002 -3.3134e+001  5.0674e-001 23162 110415,110571,110519
 1.5000e+000 110712 -1.0533e+002 -2.8607e+001  7.6875e-001 23162 110389,110571,110415
 1.5000e+000 110689 -1.5572e+002 -5.3250e+001  5.1323e+000 23162 110415,110519,110493
 1.5000e+000 110666 -8.4879e+001 -3.1300e+001 -1.6558e+001 23162 110363,110571,110389
 1.5000e+000 110643 -1.3260e+002 -2.2700e+001  2.2168e+001 23162 110441,110493,110467
 1.5000e+000 110620 -1.4604e+002 -4.2958e+001  8.1323e-001 23162 110415,110493,110441
 1.5000e+000 110597 -1.0513e+002 -9.0869e+000  2.3104e+000 23162 110519,110571,110545
 1.5000e+000 111211 -8.1598e+001 -2.0194e+000 -1.3729e+001 22708 111378,111306,111021
 1.5000e+000 111188 -8.7758e+001  2.9376e+000 -1.0981e+001 22708 111234,110969,110917
 1.5000e+000 111165 -7.3352e+001 -6.5661e+000 -1.0647e+001 22708 111450,111234,110917
 1.5000e+000 111142 -7.7808e+001  2.5369e+000 -7.1061e+000 22708 111378,111021,110995
 1.5000e+000 111119 -7.3798e+001 -1.6735e+001 -1.5159e+000 22708 111450,110917,110865
 1.5000e+000 111096 -2.0203e+002 -1.7520e+001 -9.3878e+000 22708 110917,110969,110943
 1.5000e+000 111073 -7.5140e+001 -2.2273e+001 -1.9367e+000 22708 110865,110917,110891
 1.5000e+000 111260 -9.0034e+001  5.2614e+000 -7.7910e+000 22708 111306,110969,111234
 1.5000e+000 111283 -8.6826e+001 -1.1923e+001  5.9122e+000 22708 111047,111234,110839
 1.5000e+000 111332 -1.4079e+002  5.1613e+001 -5.7949e+001 22708 111047,111021,111306
 1.5000e+000 111355 -1.1222e+002 -6.0164e+000  3.4284e+000 22708 111047,111306,111234
 1.5000e+000 111404 -9.2626e+001  4.2863e+000 -1.2553e+001 22708 110969,111306,111378
 1.5000e+000 111427 -9.0102e+001  1.3908e+000 -1.0264e+001 22708 110969,111378,110995
 1.5000e+000 111476 -8.0870e+001 -2.1099e+001  1.5660e+000 22708 110839,111234,111450
 1.5000e+000 111499 -8.6536e+001 -3.7189e+001  1.1434e+001 22708 110839,111450,110865
 1.5000e+000 111600 -1.4124e+002 -4.0702e+001  1.4171e+001 22460 111522,111574,111548
 1.5000e+000 112059 -9.8930e+001 -2.0663e+001  5.4445e+000 22056 111811,111889,111863
 1.5000e+000 112036 -1.3728e+002 -4.4370e+001  1.6356e+001 22056 111811,111915,111889
 1.5000e+000 112013 -9.9192e+001 -6.4890e+001 -2.4927e+001 22056 111785,111915,111811
 1.5000e+000 111990 -5.7909e+001 -4.1814e+001 -3.4152e+001 22056 111785,111941,111915
 1.5000e+000 111967 -5.2062e+001  2.1260e+000 -2.0762e+001 22056 111811,111863,111837
 1.5000e+000 112486 -1.4238e+002 -2.5054e+001  1.1737e+000 21594 112509,112267,112215
 1.5000e+000 112463 -1.3791e+002 -2.1435e+001 -8.9701e+000 21594 112509,112215,112163
 1.5000e+000 112440 -1.3383e+002 -5.0329e+001  1.7283e+001 21594 112581,112293,112267
 1.5000e+000 112417 -1.0902e+002 -5.4859e+001 -5.4979e+000 21594 112215,112267,112241
 1.5000e+000 112394 -1.6266e+002 -1.1414e+001 -2.5472e+001 21594 112163,112345,112319
 1.5000e+000 112371 -1.2737e+002  1.2153e+001 -9.5056e+000 21594 112163,112215,112189
 1.5000e+000 112535 -1.4833e+002 -3.6994e+001  4.1215e+000 21594 112581,112267,112509
 1.5000e+000 112558 -1.3931e+002 -3.4832e+001 -9.7410e+000 21594 112319,112509,112163
 1.5000e+000 112607 -1.0930e+002 -3.7545e+001  1.2453e+001 21594 112319,112293,112581
 1.5000e+000 112630 -1.2324e+002 -2.0921e+001 -2.8433e+000 21594 112319,112581,112509
 1.5000e+000 112900 -7.8784e+001  1.2590e+001 -9.4421e-001 20974 112675,112779,112701
 1.5000e+000 112877 -7.9832e+001  3.0482e+001 -1.0700e+001 20974 112675,112805,112779
 1.5000e+000 112854 -9.2641e+001 -2.4390e+001 -1.1733e+001 20974 112701,112779,112753
 1.5000e+000 112831 -1.0498e+002 -4.2264e+001 -2.0877e+000 20974 112701,112753,112727
 1.5000e+000 113359 -5.1178e+001  2.7532e+001  3.2539e+001 20520 113454,113137,113111
 1.5000e+000 113336 -7.3214e+001  9.3526e+000  2.3942e+001 20520 113454,113111,113085
 1.5000e+000 113313 -4.8148e+001 -1.2301e+001  2.6935e+001 20520 113382,113163,113137
 1.5000e+000 113290 -5.8778e+001 -1.2024e+001  2.7278e+001 20520 113526,113382,113137
 1.5000e+000 113267 -3.0467e+001  9.3814e+000  7.8511e+000 20520 113189,113241,113215
 1.5000e+000 113408 -4.6630e+001 -5.9000e+000  2.0275e+001 20520 113189,113163,113382
 1.5000e+000 113431 -5.4848e+001 -1.1092e+001  1.6650e+001 20520 113189,113382,113241
 1.5000e+000 113480 -6.4580e+001 -4.2394e-001  2.3332e+001 20520 113526,113137,113454
 1.5000e+000 113503 -6.1728e+001  1.2006e+001  1.4917e+001 20520 113241,113454,113085
 1.5000e+000 113552 -4.7112e+001  5.0631e+000  2.0637e+001 20520 113241,113382,113526
 1.5000e+000 113575 -5.3140e+001  1.4156e+001  1.6256e+001 20520 113241,113526,113454
 1.5000e+000 113904 -1.3949e+001 -1.1310e+001 -2.0991e+001 19858 113705,113783,113757
 1.5000e+000 113881 -3.7794e+001 -1.4106e+001 -1.2287e+001 19858 113705,113809,113783
 1.5000e+000 113858 -2.8824e+001 -1.0153e+001 -1.2920e+001 19858 113679,113809,113705
 1.5000e+000 113835 -1.3913e+001  4.3314e+000  2.7339e+000 19858 113705,113757,113731
 1.5000e+000 114152 -1.2842e+002 -5.5823e+001 -2.4138e+001 19454 114175,114005,113979
 1.5000e+000 114129 -1.3396e+002 -5.7363e+001 -2.6187e+001 19454 114175,113979,114057
 1.5000e+000 114106 -1.3477e+002 -2.6703e+001  2.7993e+001 19454 113927,114057,113979
 1.5000e+000 114083 -1.0567e+002 -2.3175e+001  2.5907e+000 19454 113927,113979,113953
 1.5000e+000 114201  5.7828e-001 -3.9468e-001  6.4505e+000 19454 114031,114005,114175
 1.5000e+000 114224 -1.2949e+002 -6.7049e+001 -2.4846e+001 19454 114031,114175,114057
 1.5000e+000 114472 -7.5107e+001 -2.5464e+001 -6.2620e+000 19000 114495,114273,114247
 1.5000e+000 114449 -7.5877e+001 -2.3420e+001 -7.0168e+000 19000 114495,114247,114325
 1.5000e+000 114426 -8.5072e+001 -1.9087e+001  2.7017e+000 19000 114247,114377,114325
 1.5000e+000 114403 -7.8975e+001 -6.7350e+000  5.5937e+000 19000 114325,114377,114351
 1.5000e+000 114521 -7.3484e+001 -2.4494e+001 -7.6395e+000 19000 114299,114273,114495
 1.5000e+000 114544 -7.5649e+001 -2.2321e+001 -7.6552e+000 19000 114299,114495,114325
 1.5000e+000 114948 -1.3599e+002 -2.7826e+001 -7.8402e+000 18560 114674,114726,114700
 1.5000e+000 114925 -1.2847e+002 -4.4748e+001 -1.0275e+001 18560 114674,114830,114726
 1.5000e+000 114902 -1.3476e+002 -6.0609e+001 -1.5806e+001 18560 114726,114830,114804
 1.5000e+000 114879 -9.3370e+001 -3.7226e+001 -1.1145e+000 18560 114726,114804,114752
 1.5000e+000 114856 -1.0900e+002 -4.6273e+001  4.5158e+000 18560 114752,114804,114778
 1.5000e+000 115098 -1.2817e+002 -2.8754e+001 -1.1107e+001 18156 114971,115023,114997
 1.5000e+000 115075 -1.4185e+002 -2.3586e+001 -5.6108e+000 18156 114971,115049,115023
 1.5000e+000 115248 -1.3967e+002 -8.7396e+000  6.2632e+000 17602 115147,115199,115173
 1.5000e+000 115225 -8.0595e+001 -2.4700e+001  1.6993e-001 17602 115121,115199,115147
 1.5000e+000 115652 -1.1217e+002 -6.2855e+001 -3.6037e+000 17354 115430,115534,115508
 1.5000e+000 115629 -1.1034e+002 -4.0207e+001 -6.9270e+000 17354 115404,115534,115430
 1.5000e+000 115606 -9.0933e+001 -3.8664e+000  3.1537e+000 17354 115378,115534,115404
 1.5000e+000 115583 -1.7486e+002 -4.3080e+001  1.6614e+001 17354 115456,115508,115482
 1.5000e+000 115560 -1.0091e+002 -3.9878e+001  5.8893e-001 17354 115430,115508,115456
 1.5000e+000 115873 -6.2646e+001 -1.5867e+001  1.0529e+001 16950 115749,115801,115775
 1.5000e+000 115850 -8.4788e+001 -1.5733e+001  1.0356e+001 16950 115697,115801,115749
 1.5000e+000 115827 -8.9164e+001 -3.8979e+001  1.2744e+001 16950 115697,115749,115723
 1.5000e+000 116023 -1.6487e+002 -1.7256e+001  1.1950e+001 16496 115922,115974,115948
 1.5000e+000 116000 -1.0833e+002 -2.2998e+001  1.2407e+001 16496 115896,115974,115922
 1.5000e+000 116126 -1.5877e+002 -1.2643e+001 -1.0743e+001 16298 116048,116100,116074
 1.5000e+000 116278 -1.9093e+002 -3.4976e-001 -1.3301e+000 15892 116151,116203,116177
 1.5000e+000 116255 -1.8039e+002 -1.0469e+001 -1.9888e+001 15892 116151,116229,116203
 1.5000e+000 116430 -1.3817e+002 -1.0664e+002 -1.5301e-001 15545 116303,116355,116329
 1.5000e+000 116407 -1.1289e+002 -4.9093e+001  2.7018e+001 15545 116303,116381,116355
 1.5000e+000 116785 -1.4033e+001  1.3793e+001 -3.5492e+000 421 116612,116690,116664
 1.5000e+000 116762 -2.0747e+001 -1.4079e+000  9.0962e+000 421 116560,116690,116612
 1.5000e+000 116739 -1.1558e+001  6.4096e+000  9.8414e-001 421 116560,116612,116586
 1.5000e+000 116716  8.4764e+000 -1.2747e+000  1.5598e+000 421 116612,116664,116638
 1.6000e+000 68048 -9.7711e+001 -4.2723e+001 -2.4425e+000 67642 67898,67950,67924
 1.6000e+000 68025 -1.0747e+002 -5.5636e+001  2.5171e+000 67642 67898,67976,67950
 1.6000e+000 68002 -7.6007e+001 -4.0502e+001 -3.1309e+000 67642 67872,67976,67898
 1.6000e+000 68367 -2.1655e+001  1.3385e+001  9.6512e+000 67444 68119,68223,68197
 1.6000e+000 68344 -2.6672e+001 -1.6786e+001  8.3040e+000 67444 68119,68249,68223
 1.6000e+000 68321  2.3804e+001  5.8979e+000  3.6309e+000 67444 68093,68249,68119
 1.6000e+000 68298 -3.2238e+001 -6.8836e+000 -2.5788e-002 67444 68119,68197,68171
 1.6000e+000 68275 -2.7351e+001 -3.5808e+000  1.4240e+000 67444 68119,68171,68145
 1.6000e+000 68468 -4.9040e+001  4.9297e+000 -5.0922e+000 67268 68390,68442,68416
 1.6000e+000 68765 -7.2987e+001 -1.7024e+000  1.0646e+000 66956 68788,68517,68491
 1.6000e+000 68742 -6.7668e+001 -1.3854e+001 -5.3762e-001 66956 68788,68491,68621
 1.6000e+000 68719 -8.2182e+001 -1.7399e+001 -2.5665e+001 66956 68543,68621,68569
 1.6000e+000 68696 -6.3655e+001 -3.5765e+000 -4.7104e-001 66956 68491,68647,68621
 1.6000e+000 68673 -1.2554e+002 -3.7128e+001 -3.8433e+001 66956 68569,68621,68595
 1.6000e+000 68814 -7.4551e+001 -1.0530e+001  4.4846e+000 66956 68543,68517,68788
 1.6000e+000 68837 -6.7917e+001 -2.1587e+001  1.8088e+000 66956 68543,68788,68621
 1.6000e+000 69107 -6.0728e+001 -8.4366e+001 -6.0931e+000 66758 68882,68986,68908
 1.6000e+000 69084 -5.5254e-001 -5.1102e+001  9.0565e+000 66758 68882,69012,68986
 1.6000e+000 69061 -1.8136e+002 -3.4225e+001 -1.6892e+001 66758 68908,68960,68934
 1.6000e+000 69038 -4.7871e+001 -3.8699e+001 -1.1378e+001 66758 68908,68986,68960
 1.6000e+000 69308 -5.1707e+001  3.8297e+000 -5.5791e-001 66560 69331,69184,69158
 1.6000e+000 69285 -6.3131e+001  3.9659e+000 -2.1770e+000 66560 69331,69158,69132
 1.6000e+000 69262 -4.6474e+001 -9.5493e+000 -2.8637e+000 66560 69184,69236,69210
 1.6000e+000 69357 -4.4597e+001  2.3404e+000 -1.2693e-001 66560 69236,69184,69331
 1.6000e+000 69380 -5.1118e+001  5.7800e+000 -3.1083e+000 66560 69236,69331,69132
 1.6000e+000 69554  2.2614e+000 -4.5847e+000  7.5663e+000 66270 69427,69479,69453
 1.6000e+000 69531  1.4144e+001  2.3188e+001  1.3041e+001 66270 69427,69505,69479
 1.6000e+000 69804 -2.8970e+001  1.4136e+000  1.7643e+001 66066 69579,69683,69657
 1.6000e+000 69781 -4.3211e+001 -2.6140e+000 -6.2278e-001 66066 69579,69709,69683
 1.6000e+000 69758  1.3493e+001  3.5496e-001 -4.4862e+000 66066 69579,69657,69631
 1.6000e+000 69735  1.3547e+001 -2.1055e-001 -1.7520e+000 66066 69579,69631,69605
 1.6000e+000 70257 -1.6759e+001  3.6715e+001 -3.5906e+001 65776 69960,70090,69986
 1.6000e+000 70234 -2.1014e+001  8.7313e-001 -1.9712e+001 65776 69934,70090,69960
 1.6000e+000 70211 -2.4511e+001  1.3647e+001 -4.6544e+000 65776 69934,70116,70090
 1.6000e+000 70188 -2.4832e+001  4.4839e+001  0.0000e+000 65776 70038,70090,70064
 1.6000e+000 70165 -2.7753e+001  6.3207e+001 -2.1501e+001 65776 69986,70090,70038
 1.6000e+000 70142 -4.1563e+001  1.4775e+001 -3.5304e+001 65776 69986,70038,70012
 1.6000e+000 70456 -1.7418e-001  2.0026e+001  1.3772e+001 65372 70479,70306,70280
 1.6000e+000 70433  5.0917e+000  2.7477e+001  1.1247e+001 65372 70479,70280,70384
 1.6000e+000 70410  1.9355e+000  2.0433e+001  7.6883e+000 65372 70551,70332,70306
 1.6000e+000 70505  3.7762e+000  1.9501e+001  8.7566e+000 65372 70551,70306,70479
 1.6000e+000 70528  9.5345e+000  2.3433e+001  8.1374e+000 65372 70358,70479,70384
 1.6000e+000 70577  3.8838e+000  2.2376e+001  8.4711e+000 65372 70358,70332,70551
 1.6000e+000 70600  5.6736e+000  2.1774e+001  9.5970e+000 65372 70358,70551,70479
 1.6000e+000 70821 -5.8334e+001 -4.8871e+001 -1.0071e+000 65174 70645,70723,70671
 1.6000e+000 70798 -3.8258e+001 -3.7668e+001  5.8274e+000 65174 70645,70749,70723
 1.6000e+000 70775 -5.7471e+001 -4.1694e+001 -2.2802e+000 65174 70671,70723,70697
 1.6000e+000 71071 -6.1790e+001 -1.8207e+001 -8.9578e+000 64770 71094,70898,70872
 1.6000e+000 71048 -4.6934e+001 -1.5522e+001  4.5178e-001 64770 71166,71094,70872
 1.6000e+000 71025 -4.5201e+001 -2.1380e+001 -4.1635e+000 64770 71166,70872,70846
 1.6000e+000 71002 -8.0194e+001 -7.2958e+000 -7.1009e+000 64770 70898,70950,70924
 1.6000e+000 71120 -5.2176e+001  2.4408e+000 -5.9387e+000 64770 70950,70898,71094
 1.6000e+000 71143 -4.6777e+001 -1.4292e+001  5.2577e+000 64770 70950,71094,70976
 1.6000e+000 71192 -5.1336e+001 -2.7450e+001  1.3951e+000 64770 70976,71094,71166
 1.6000e+000 71215 -4.7120e+001 -2.9091e+001 -3.6279e+000 64770 70976,71166,70846
 1.6000e+000 71514 -7.1203e+001 -5.1678e+000 -6.3415e+000 64572 71681,71537,71318
 1.6000e+000 71491 -8.7935e+001  2.5937e+001  5.4390e-002 64572 71537,71266,71240
 1.6000e+000 71468 -8.7015e+001  1.3072e+001 -2.7251e+001 64572 71609,71396,71370
 1.6000e+000 71445 -6.0279e+001 -2.7327e+001  2.5204e+000 64572 71681,71318,71292
 1.6000e+000 71422 -2.6772e+001 -1.5305e+001 -1.2549e+001 64572 71753,71344,71318
 1.6000e+000 71563 -3.0846e+001  1.6585e+001 -3.4914e+001 64572 71753,71318,71537
 1.6000e+000 71586 -8.0444e+001  1.6182e+001 -2.8172e+001 64572 71609,71370,71537
 1.6000e+000 71635 -9.9774e+001 -2.1969e+000 -2.7203e+000 64572 71240,71396,71609
 1.6000e+000 71658 -7.2788e+001  1.1038e+001 -7.7365e+000 64572 71240,71609,71537
 1.6000e+000 71707 -6.6943e+001  3.2139e+001 -3.8921e+000 64572 71266,71537,71681
 1.6000e+000 71730 -5.4331e+001  1.4849e+001  1.3570e+001 64572 71266,71681,71292
 1.6000e+000 71779  1.7848e+001  1.6068e+001 -3.0192e+001 64572 71370,71344,71753
 1.6000e+000 71802 -5.6784e+000  2.8662e+001 -3.9849e+001 64572 71370,71753,71537
 1.6000e+000 72052 -4.0914e+001 -2.5233e+001 -1.1121e+001 64374 72075,71879,71827
 1.6000e+000 72029 -3.7756e+001 -2.3332e+001 -1.2258e+001 64374 72147,72075,71827
 1.6000e+000 72006 -3.2688e+001 -1.9104e+001 -9.8557e+000 64374 72147,71827,71957
 1.6000e+000 71983 -4.0200e+001 -7.9348e+000 -9.2280e+000 64374 71827,71879,71853
 1.6000e+000 72101 -3.9206e+001 -2.2739e+001 -1.0030e+001 64374 71905,71879,72075
 1.6000e+000 72124 -4.9819e+001 -2.3575e+001 -1.2629e+001 64374 71905,72075,71931
 1.6000e+000 72173 -4.0589e+001 -1.5090e+001 -8.8388e+000 64374 71931,72075,72147
 1.6000e+000 72196 -4.0439e+001 -1.3702e+001 -7.8479e+000 64374 71931,72147,71957
 1.6000e+000 72649 -7.1626e+001 -1.1301e+001  6.6392e+000 63948 72352,72508,72482
 1.6000e+000 72626 -7.8199e+001 -2.8433e+001 -1.1843e+001 63948 72326,72508,72352
 1.6000e+000 72603 -6.4806e+001 -1.7287e+001 -5.1084e+000 63948 72672,72430,72378
 1.6000e+000 72580 -5.1361e+001 -3.3937e+000 -1.0721e+001 63948 72672,72378,72352
 1.6000e+000 72557 -6.1160e+001 -3.1205e+001 -2.1327e+000 63948 72744,72456,72430
 1.6000e+000 72534 -6.2021e+001 -4.0917e+000  4.2002e-001 63948 72378,72430,72404
 1.6000e+000 72698 -5.9266e+001 -2.8106e+001 -5.2770e-001 63948 72744,72430,72672
 1.6000e+000 72721 -5.3893e+001 -1.3725e+001  2.8661e+000 63948 72482,72672,72352
 1.6000e+000 72770 -6.8817e+001 -2.5126e+001 -1.2455e+000 63948 72482,72456,72744
 1.6000e+000 72793 -6.2722e+001 -1.7436e+001  1.6017e+000 63948 72482,72744,72672
 1.6000e+000 72894 -7.0191e+001 -5.3528e+000  5.8861e+000 63494 72816,72868,72842
 1.6000e+000 73093 -4.5831e+001 -1.6828e+001 -1.5882e+001 63132 72943,72995,72969
 1.6000e+000 73070 -8.9052e+001 -3.0228e+001 -4.7477e+000 63132 72943,73021,72995
 1.6000e+000 73047 -8.2180e+001 -1.6859e+001 -2.2830e+000 63132 72917,73021,72943
 1.6000e+000 73294 -2.9321e+001  1.1138e+001 -8.4481e-001 62792 73317,73144,73118
 1.6000e+000 73271 -2.7206e+001  1.4553e+001 -3.7222e+000 62792 73317,73118,73222
 1.6000e+000 73248  7.0256e+000  7.1974e-001 -5.8691e-002 62792 73144,73196,73170
 1.6000e+000 73343 -2.5443e+001  8.5546e+000 -4.7729e+000 62792 73196,73144,73317
 1.6000e+000 73366 -2.2635e+001  1.3956e+001 -7.9027e+000 62792 73196,73317,73222
 1.6000e+000 73616 -4.9031e+001 -2.2728e+000  3.9712e+000 62388 73639,73417,73391
 1.6000e+000 73593 -4.7846e+001  5.6653e-001  4.4456e+000 62388 73711,73639,73391
 1.6000e+000 73570 -4.8822e+001  8.7404e+000  4.4800e+000 62388 73711,73391,73521
 1.6000e+000 73547 -4.5186e+001 -2.6763e+000 -1.0263e+001 62388 73469,73521,73495
 1.6000e+000 73665 -4.2440e+001  1.3075e+000  9.6234e+000 62388 73443,73417,73639
 1.6000e+000 73688 -4.8156e+001 -1.1834e+001  7.2805e+000 62388 73443,73639,73469
 1.6000e+000 73737 -4.9646e+001 -5.3688e+000  2.5559e+000 62388 73469,73639,73711
 1.6000e+000 73760 -5.2189e+001 -4.1304e-001  3.4010e+000 62388 73469,73711,73521
 1.6000e+000 74010 -7.2302e+001 -1.8919e+001 -1.7624e+001 61848 74033,73837,73811
 1.6000e+000 73987 -2.1774e+001 -1.1930e+001  3.7901e-001 61848 74033,73811,73785
 1.6000e+000 73964 -5.6356e+001  5.4321e+000  9.2193e+000 61848 73837,73915,73889
 1.6000e+000 73941 -1.1695e+002 -1.0849e+001 -2.0147e+001 61848 73837,73889,73863
 1.6000e+000 74059 -7.7440e+001 -2.7625e+000 -6.7521e+000 61848 73915,73837,74033
 1.6000e+000 74082 -7.2578e+001  7.7436e+000 -5.5133e-001 61848 73915,74033,73785
 1.6000e+000 74283 -6.3988e+001  1.0482e+000 -1.8521e+001 61444 74306,74133,74107
 1.6000e+000 74260 -7.6595e+001 -4.7869e+000  1.1313e+001 61444 74306,74107,74211
 1.6000e+000 74237 -8.8565e+001 -2.8599e+001  1.7132e+001 61444 74378,74185,74159
 1.6000e+000 74332 -9.7832e+001 -1.3306e+001 -1.5322e+001 61444 74159,74133,74306
 1.6000e+000 74355 -9.3381e+001 -1.2780e+001  1.4915e+001 61444 74378,74159,74306
 1.6000e+000 74404 -8.4398e+001 -1.1731e+001  1.1990e+001 61444 74211,74185,74378
 1.6000e+000 74427 -8.7217e+001 -6.9311e+000  1.2466e+001 61444 74211,74378,74306
 1.6000e+000 74628 -3.9489e+001 -5.3949e-001  1.5749e+001 60990 74478,74530,74504
 1.6000e+000 74605 -5.0769e+000  5.6848e+000  1.1884e+001 60990 74452,74530,74478
 1.6000e+000 74582 -5.3053e+001 -8.5610e-001  1.3645e+001 60990 74452,74556,74530
 1.6000e+000 75089 -1.5424e+001 -1.7851e+000 -6.7988e+000 60486 75112,74945,74919
 1.6000e+000 75066 -2.6207e+001 -5.2042e+000  3.0088e+000 60486 75112,74919,74867
 1.6000e+000 75043 -3.3116e+001 -7.7741e+000  7.0846e+000 60486 74841,74971,74867
 1.6000e+000 75020 -6.5275e+001 -1.4741e+001 -4.7209e+000 60486 74867,74919,74893
 1.6000e+000 74997 -2.0472e+001 -3.2316e+000  7.3955e+000 60486 74815,74971,74841
 1.6000e+000 75138 -2.9459e+001 -6.1165e+000 -3.6558e+000 60486 74971,74945,75112
 1.6000e+000 75161 -3.5010e+001 -3.8756e+000  4.8836e+000 60486 74971,75112,74867
 1.6000e+000 75409 -5.3649e+001 -1.3997e+001 -3.5634e+000 59932 75576,75432,75288
 1.6000e+000 75386 -6.4474e+001 -1.4302e+001 -1.1801e+001 59932 75504,75314,75288
 1.6000e+000 75363 -4.3743e+001  3.2406e+000  8.5096e+000 59932 75432,75236,75210
 1.6000e+000 75340 -3.5013e+001 -6.8638e+000 -2.8002e+000 59932 75576,75288,75262
 1.6000e+000 75458 -6.5034e+001 -1.5537e+001 -1.1336e+001 59932 75504,75288,75432
 1.6000e+000 75481 -6.4225e+001 -1.0515e+001  1.3946e-001 59932 75184,75432,75210
 1.6000e+000 75530 -7.6221e+001 -1.8908e+001 -3.7288e+000 59932 75184,75314,75504
 1.6000e+000 75553 -6.2448e+001 -1.4874e+001 -9.6248e+000 59932 75184,75504,75432
 1.6000e+000 75602 -6.4939e+001 -1.0579e+001 -9.8305e-001 59932 75236,75432,75576
 1.6000e+000 75625 -6.1451e+001 -1.2499e+001 -2.7163e+000 59932 75236,75576,75262
 1.6000e+000 75873 -1.4724e+001 -1.0100e+001  2.0126e+001 59478 75674,75752,75700
 1.6000e+000 75850 -2.7579e+000 -5.5921e+000  3.8924e+000 59478 75648,75752,75674
 1.6000e+000 75827 -1.1772e+001  4.9269e+000  2.7641e+001 59478 75700,75752,75726
 1.6000e+000 75804 -3.3272e+001  8.5562e+000  5.1893e+000 59478 75648,75778,75752
 1.6000e+000 76206 -3.6591e+000  1.4129e+000 -2.1197e+000 59024 75981,76059,76007
 1.6000e+000 76183 -4.0116e+000  2.8401e+000 -2.4298e+000 59024 75981,76111,76059
 1.6000e+000 76160 -8.0511e+000 -1.5096e+000 -8.1970e-001 59024 76007,76059,76033
 1.6000e+000 76137  2.1575e+000  5.1756e+000  7.3343e+000 59024 76059,76111,76085
 1.6000e+000 76761 -6.5366e+001 -2.0959e+001  8.1437e+000 58562 76389,76441,76415
 1.6000e+000 76738 -7.5805e+001 -2.2213e+001 -7.3059e+000 58562 76856,76784,76389
 1.6000e+000 76715 -7.6172e+001 -1.9033e+001 -1.4115e+001 58562 76784,76571,76467
 1.6000e+000 76692 -9.3681e+001 -1.9540e+001 -7.8459e+000 58562 76856,76389,76597
 1.6000e+000 76669 -1.0065e+002 -4.6792e+001 -1.3254e+001 58562 76467,76545,76493
 1.6000e+000 76646 -6.9333e+001 -3.1913e+001 -1.7748e+001 58562 76467,76571,76545
 1.6000e+000 76623 -7.2494e+001 -1.6867e+001  1.0883e+000 58562 76493,76545,76519
 1.6000e+000 76810 -7.9524e+001 -2.4223e+001 -4.7504e+000 58562 76441,76389,76784
 1.6000e+000 76833 -6.9854e+001 -1.6796e+001 -1.6464e-001 58562 76441,76784,76467
 1.6000e+000 76882 -9.6291e+001 -2.6629e+001 -1.6433e+001 58562 76571,76784,76856
 1.6000e+000 76905 -1.0657e+002 -1.8781e+001 -1.7772e+001 58562 76571,76856,76597
 1.6000e+000 77055 -9.0518e+001 -2.9686e+001  2.3238e+000 57844 76928,76980,76954
 1.6000e+000 77032 -7.0072e+001 -1.0863e+001 -5.6760e+000 57844 76928,77006,76980
 1.6000e+000 77533 -9.5240e+001 -3.6485e+001 -1.6012e+000 57226 77628,77556,77291
 1.6000e+000 77510 -9.3995e+001  2.5360e+000  5.6155e+000 57226 77556,77187,77343
 1.6000e+000 77487 -6.7211e+001 -3.1843e+001 -6.6392e+000 57226 77628,77291,77265
 1.6000e+000 77464 -5.7180e+001 -3.2186e+001 -1.0386e+001 57226 77700,77213,77187
 1.6000e+000 77441 -1.5414e+002 -1.6800e+001  1.2201e+001 57226 77161,77343,77187
 1.6000e+000 77418 -1.0117e+002 -4.8433e+000  5.0080e+000 57226 77161,77369,77343
 1.6000e+000 77395 -5.4152e+001 -8.5442e+000 -2.1047e+001 57226 77213,77265,77239
 1.6000e+000 77582 -9.5450e+001 -3.2908e+001  4.3985e+000 57226 77317,77291,77556
 1.6000e+000 77605 -1.1132e+002 -1.1678e+001 -1.9120e+000 57226 77317,77556,77343
 1.6000e+000 77654 -5.4069e+001 -1.4537e+001  6.8261e+000 57226 77187,77556,77628
 1.6000e+000 77677 -5.3085e+001 -3.2861e+001 -4.2322e+000 57226 77700,77187,77628
 1.6000e+000 77726 -7.1275e+001 -3.8434e+001 -1.4104e+001 57226 77265,77213,77700
 1.6000e+000 77749 -6.6407e+001 -3.6873e+001 -7.0050e+000 57226 77265,77700,77628
 1.6000e+000 78046 -7.3163e+001  1.6868e+001 -4.2230e+000 56936 77798,77850,77824
 1.6000e+000 78023 -7.4660e+001 -1.6624e+001 -1.0438e+001 56936 78069,77798,77902
 1.6000e+000 78000 -6.8134e+001 -1.7841e+001 -9.2409e+000 56936 78069,77902,77876
 1.6000e+000 77977 -9.6392e+001 -2.7451e+001 -1.8780e+001 56936 77798,77928,77902
 1.6000e+000 77954 -7.3141e+001 -8.5447e+000 -1.0388e+001 56936 77772,77928,77798
 1.6000e+000 78095 -7.6610e+001 -1.7396e+001 -1.0213e+001 56936 77850,77798,78069
 1.6000e+000 78118 -7.3553e+001 -2.0420e+001 -8.4970e+000 56936 77850,78069,77876
 1.6000e+000 78754 -1.4780e+001  1.1208e+001  4.0906e+000 56475 78777,78486,78408
 1.6000e+000 78731 -6.1828e+001 -2.4726e+001  2.0329e+001 56475 78777,78408,78382
 1.6000e+000 78708 -4.1727e+001 -9.4204e+000 -2.0676e+001 56475 78849,78512,78486
 1.6000e+000 78685 -1.7430e+001  1.1734e+001 -3.2626e+000 56475 78382,78590,78564
 1.6000e+000 78662 -8.5895e+001 -1.3313e+001 -4.1211e+001 56475 78512,78564,78538
 1.6000e+000 78639 -1.9625e+001 -3.7506e+000  2.8002e+000 56475 78434,78486,78460
 1.6000e+000 78616 -2.2638e+001 -7.2748e+000  4.4458e+000 56475 78408,78486,78434
 1.6000e+000 78803 -4.8520e+001  5.4937e-001 -8.2257e+000 56475 78849,78486,78777
 1.6000e+000 78826 -4.6042e+001  1.8424e+001  2.8579e+000 56475 78564,78777,78382
 1.6000e+000 78875 -3.3592e+001  1.1224e+001 -1.9938e+001 56475 78564,78512,78849
 1.6000e+000 78898 -3.9128e+001  2.4992e+001 -9.8610e+000 56475 78564,78849,78777
 1.6000e+000 79276 -3.3059e+001  1.9208e+001  1.1329e+001 55964 79299,79080,79028
 1.6000e+000 79253 -5.1333e+001  1.1306e+001  1.3098e+001 55964 79299,79028,79132
 1.6000e+000 79230 -3.4834e+001 -1.1710e+001  9.0684e+000 55964 79028,79080,79054
 1.6000e+000 79207 -5.7273e+001 -2.3493e+001 -2.9880e+000 55964 79002,79132,79028
 1.6000e+000 79184 -4.3652e+001 -1.6863e+001 -1.1828e+001 55964 79002,79158,79132
 1.6000e+000 79325 -4.0234e+001  2.8358e+001 -4.3961e+000 55964 79106,79080,79299
 1.6000e+000 79348 -6.1014e+001  1.9150e+001 -1.7818e+000 55964 79106,79299,79132
 1.6000e+000 79498 -8.5623e+001  2.9798e+001 -2.0356e+001 55452 79397,79449,79423
 1.6000e+000 79475 -6.0866e+001  1.0341e+001 -9.5479e+000 55452 79371,79449,79397
 1.6000e+000 79795 -2.3037e+001  1.2094e+001  9.3121e+000 55048 79962,79818,79573
 1.6000e+000 79772 -3.5287e+001 -4.7912e+000 -4.2308e+000 55048 79818,79521,79677
 1.6000e+000 79749 -2.0015e+001 -1.9121e+001  1.2819e+001 55048 79599,79651,79625
 1.6000e+000 79726 -3.9123e+001 -9.7091e+000  8.2933e+000 55048 79890,79651,79599
 1.6000e+000 79703 -6.1979e+000  3.2295e+001  2.1466e+001 55048 79962,79573,79547
 1.6000e+000 79844 -3.3792e+001 -3.2515e+000  4.2968e+000 55048 79599,79573,79818
 1.6000e+000 79867 -3.6181e+001 -5.8813e-001  5.1959e+000 55048 79890,79599,79818
 1.6000e+000 79916 -3.3505e+001 -5.5102e+000 -2.5661e-001 55048 79677,79651,79890
 1.6000e+000 79939 -3.3025e+001 -1.6789e+000 -3.2380e+000 55048 79677,79890,79818
 1.6000e+000 79988 -3.2944e+001 -2.4533e-001 -5.3880e+000 55048 79521,79818,79962
 1.6000e+000 80011 -2.9307e+001  4.8561e+000  4.3892e+000 55048 79521,79962,79547
 1.6000e+000 80212 -8.1862e+001  6.9488e+000  7.1645e+000 54436 80235,80088,80036
 1.6000e+000 80189 -6.0214e+001  5.1466e+000  6.7154e+000 54436 80235,80036,80140
 1.6000e+000 80166 -8.2113e+001 -3.3061e+000  1.4038e+000 54436 80036,80088,80062
 1.6000e+000 80261 -6.4091e+001 -3.0439e+000  1.9461e+001 54436 80114,80088,80235
 1.6000e+000 80284 -3.5189e+001  1.0449e+000  1.9590e+001 54436 80114,80235,80140
 1.6000e+000 80534 -7.4821e+001  1.5254e+000  2.8701e+000 54032 80557,80361,80335
 1.6000e+000 80511 -6.6178e+001  1.7281e+001 -6.4593e+000 54032 80557,80335,80309
 1.6000e+000 80488 -5.7800e+001  1.0320e+000  1.2716e+000 54032 80629,80413,80387
 1.6000e+000 80465 -2.4710e+001 -1.1330e+001 -3.7573e+000 54032 80309,80439,80413
 1.6000e+000 80583 -7.1070e+001 -2.7781e+001  1.1539e+001 54032 80387,80361,80557
 1.6000e+000 80606 -5.8095e+001  1.1916e+000  4.3185e+000 54032 80629,80387,80557
 1.6000e+000 80655 -6.1244e+001 -6.2513e-001  2.1044e+000 54032 80309,80413,80629
 1.6000e+000 80678 -6.3105e+001 -5.6563e-001  4.7022e+000 54032 80309,80629,80557
 1.6000e+000 81139 -5.4722e+001 -3.6115e+000  2.5179e+001 53784 80865,80995,80917
 1.6000e+000 81116 -6.9068e+001  2.6944e+000 -8.1785e+000 53784 80865,81021,80995
 1.6000e+000 81093 -3.7121e+001 -1.1001e+001  1.4491e+001 53784 80943,80995,80969
 1.6000e+000 81070 -3.8831e+001 -2.7026e+001  1.8954e+001 53784 80917,80995,80943
 1.6000e+000 81047 -9.8761e+001  1.2546e+002  5.8502e+001 53784 80865,80917,80891
 1.6000e+000 81468 -6.4058e+001 -2.0181e+001  2.9222e+000 53230 81295,81373,81347
 1.6000e+000 81445 -4.7063e+001 -8.3578e+000  1.1964e+001 53230 81243,81373,81295
 1.6000e+000 81422 -3.9975e+001 -8.4681e+000  1.7453e+001 53230 81243,81295,81269
 1.6000e+000 81399 -7.6106e+001 -2.6563e+001  6.6561e+000 53230 81295,81347,81321
 1.6000e+000 81618 -1.5054e+002  6.7623e+001 -3.1770e+001 52790 81491,81543,81517
 1.6000e+000 81595 -1.4238e+002 -1.4133e+001 -2.2680e+001 52790 81491,81569,81543
 1.6000e+000 82126 -1.2905e+001  9.8083e-001  9.2785e+000 52386 82149,81907,81881
 1.6000e+000 82103 -9.8652e+000  1.1193e+001  1.3307e+001 52386 82149,81881,81855
 1.6000e+000 82080 -1.7323e+001 -7.3395e+000 -4.8328e-001 52386 82221,81803,81985
 1.6000e+000 82057  6.9577e+000  1.3161e+001  1.3738e+001 52386 81803,81855,81829
 1.6000e+000 82034 -7.4622e+000 -5.8173e+000 -6.0864e+000 52386 81907,81985,81933
 1.6000e+000 82011 -1.4423e+000 -8.2735e+000 -4.9521e+000 52386 81933,81985,81959
 1.6000e+000 82175 -9.8051e+000  5.8904e+000  6.7460e+000 52386 81985,81907,82149
 1.6000e+000 82198 -1.3388e+001 -1.9364e-001  5.1803e+000 52386 82221,81985,82149
 1.6000e+000 82247 -1.5335e+001  4.5109e+000  4.6826e+000 52386 81855,81803,82221
 1.6000e+000 82270 -1.6007e+001  1.0023e+001  8.6206e+000 52386 81855,82221,82149
 1.6000e+000 82825 -1.2507e+002 -2.9183e+001 -3.2797e+001 51782 82505,82661,82635
 1.6000e+000 82802 -6.6453e+001 -3.4061e+001  1.4163e+001 51782 82479,82661,82505
 1.6000e+000 82779 -7.9130e+001 -3.0179e+001  1.9865e+001 51782 82557,82635,82609
 1.6000e+000 82756 -9.0931e+001 -5.9400e+001 -1.9403e+000 51782 82531,82635,82557
 1.6000e+000 82733 -1.2103e+002 -1.4162e+001 -1.1671e+001 51782 82505,82635,82531
 1.6000e+000 82710 -1.0079e+002 -7.2870e+001 -1.1678e+001 51782 82453,82661,82479
 1.6000e+000 82687 -6.8380e+001 -3.1288e+001  2.0757e+001 51782 82557,82609,82583
 1.6000e+000 83171 -5.9624e+001  6.4821e+000 -1.1849e+001 51442 83194,82978,82900
 1.6000e+000 83148 -8.0854e+001  3.2451e+000 -1.8149e+001 51442 83194,82900,82874
 1.6000e+000 83125 -9.3598e+001 -7.5574e+000 -6.4080e+000 51442 82900,82978,82926
 1.6000e+000 83102 -1.0078e+002 -2.3235e+001 -1.8039e+001 51442 82874,83030,83004
 1.6000e+000 83079 -3.7147e+001  6.0197e+000 -1.3611e+001 51442 82926,82978,82952
 1.6000e+000 83056 -4.5024e+001 -5.4330e+000 -9.1789e+000 51442 82848,83030,82874
 1.6000e+000 83220 -3.6921e+001  4.1828e-001 -9.5972e+000 51442 83004,82978,83194
 1.6000e+000 83243 -6.3282e+001 -7.8970e+000 -1.7700e+001 51442 83004,83194,82874
 1.6000e+000 83751 -4.6735e+001 -1.6981e+000  8.1765e+000 50938 83428,83584,83454
 1.6000e+000 83728 -6.7288e+001 -8.5085e+000 -3.1406e+000 50938 83428,83610,83584
 1.6000e+000 83705 -6.8748e+001 -1.2369e+001  1.2910e+000 50938 83454,83584,83558
 1.6000e+000 83682 -1.0225e+002 -1.5259e+001 -5.1320e+000 50938 83454,83532,83480
 1.6000e+000 83659 -9.1620e+001 -2.3895e+001 -6.4928e+000 50938 83454,83558,83532
 1.6000e+000 83636 -6.6533e+001  1.1170e+001  6.4941e+000 50938 83480,83532,83506
 1.6000e+000 84355 -7.6182e+001 -4.2763e+001  4.1815e+000 50377 84378,83960,83934
 1.6000e+000 84332 -6.3966e+001 -2.0722e+001 -6.5072e+000 50377 84522,84378,83934
 1.6000e+000 84309 -9.4001e+001 -3.7196e+001 -6.6965e+000 50377 84450,84038,84012
 1.6000e+000 84286 -6.3835e+001 -2.0909e+001 -6.5001e+000 50377 84522,83934,84142
 1.6000e+000 84263 -8.5048e+001 -6.5697e+001  1.1822e+001 50377 84594,84090,84038
 1.6000e+000 84240 -3.1903e+001 -2.9161e+001  4.9639e+000 50377 83960,84012,83986
 1.6000e+000 84217 -5.7269e+001 -1.7749e+001 -7.5169e+000 50377 83934,84168,84142
 1.6000e+000 84194 -3.5606e+001 -4.1132e+001  2.0565e+001 50377 84038,84090,84064
 1.6000e+000 84404 -2.4464e+001 -2.1855e+001  1.0252e+000 50377 84012,83960,84378
 1.6000e+000 84427 -6.8223e+001 -2.9477e+001 -1.5275e+001 50377 84450,84012,84378
 1.6000e+000 84476 -9.4599e+001 -5.1000e+001  8.9139e+000 50377 84594,84038,84450
 1.6000e+000 84499 -8.3403e+001 -3.0746e+001 -1.2512e+000 50377 84116,84450,84378
 1.6000e+000 84548 -6.3973e+001 -2.0097e+001 -6.2815e+000 50377 84116,84378,84522
 1.6000e+000 84571 -6.3907e+001 -2.0376e+001 -6.2545e+000 50377 84116,84522,84142
 1.6000e+000 84620 -7.5410e+001 -4.5637e+001  2.7316e+000 50377 84116,84090,84594
 1.6000e+000 84643 -8.3239e+001 -3.0482e+001 -1.1257e+000 50377 84116,84594,84450
 1.6000e+000 84842 -6.5013e+001  1.7499e+000 -2.2600e+001 49923 84865,84692,84666
 1.6000e+000 84819 -3.0659e+001 -5.8037e+000  9.5416e-001 49923 84865,84666,84770
 1.6000e+000 84796  1.6728e+001  8.9289e+000 -2.6841e+000 49923 84692,84744,84718
 1.6000e+000 84891 -4.2435e+001  1.1897e+001 -4.1511e+000 49923 84744,84692,84865
 1.6000e+000 84914 -2.7885e+000  1.7101e+001  2.2371e+001 49923 84744,84865,84770
 1.6000e+000 85501 -8.8281e+001 -2.5402e+001  2.0603e+000 49618 85524,85282,85204
 1.6000e+000 85478 -9.3162e+001 -2.2802e+001  7.4373e+000 49618 85596,85524,85204
 1.6000e+000 85455 -9.0646e+001 -2.2360e+001  8.0980e+000 49618 85596,85204,85178
 1.6000e+000 85432 -9.0478e+001 -3.8548e+001  7.3278e+000 49618 85204,85282,85256
 1.6000e+000 85409 -5.9344e+001 -6.1170e+000 -2.7851e+000 49618 85282,85334,85308
 1.6000e+000 85386 -8.0866e+001 -2.0790e+001 -2.4257e+000 49618 85204,85256,85230
 1.6000e+000 85550 -7.5782e+001 -1.0168e+001 -1.1425e+001 49618 85334,85282,85524
 1.6000e+000 85573 -1.1630e+002 -2.6146e+001 -6.5602e+000 49618 85334,85524,85360
 1.6000e+000 85622 -9.6878e+001 -2.1310e+001  7.7112e+000 49618 85360,85524,85596
 1.6000e+000 85645 -9.4380e+001 -2.1029e+001  7.9484e+000 49618 85360,85596,85178
 1.6000e+000 85795 -2.8153e+002 -8.7942e+001  2.3285e+001 49278 85694,85746,85720
 1.6000e+000 85772 -3.2080e+002 -9.1204e+001  2.5110e+000 49278 85668,85746,85694
 1.6000e+000 86197 -1.0802e+002 -5.7879e+001 -1.2368e+001 48916 86001,86079,86027
 1.6000e+000 86174 -1.0957e+002 -6.6038e+001 -1.4981e+001 48916 85949,86079,86001
 1.6000e+000 86151 -1.3620e+002 -8.8151e+001 -4.6430e+000 48916 85949,86001,85975
 1.6000e+000 86128 -1.1329e+002 -4.9181e+001 -2.6463e+000 48916 86027,86079,86053
 1.6000e+000 86105 -2.0071e+002 -1.0182e+002 -2.1925e+001 48916 85923,86079,85949
 1.6000e+000 86477  6.9264e+000 -1.0622e+000  1.7092e+001 48398 86327,86379,86353
 1.6000e+000 86454 -1.3399e+001 -2.3667e+001  6.9736e+000 48398 86500,86379,86327
 1.6000e+000 86431 -3.6365e+000 -2.3246e+001  1.2556e+001 48398 86301,86405,86379
 1.6000e+000 86526 -9.9408e+000 -2.0206e+001  8.8607e+000 48398 86301,86379,86500
 1.6000e+000 87032 -7.0772e+001 -1.8745e+001  1.8559e+000 48008 87127,87055,86787
 1.6000e+000 87009 -7.3444e+001 -2.7596e+001  2.3904e+000 48008 87055,86735,86709
 1.6000e+000 86986 -6.8203e+001 -2.0739e+001  1.4459e+000 48008 87127,86787,86761
 1.6000e+000 86963 -5.9616e+001 -2.4771e+001  9.6025e+000 48008 86787,86865,86839
 1.6000e+000 86940 -8.0463e+001 -2.7320e+001  2.6595e-001 48008 86709,86891,86865
 1.6000e+000 86917 -9.2022e+001 -1.6863e+001  2.1404e+001 48008 86787,86839,86813
 1.6000e+000 87081 -7.2458e+001 -2.3547e+001  1.8894e+000 48008 86865,86787,87055
 1.6000e+000 87104 -7.0167e+001 -2.4309e+001 -2.3392e-001 48008 86865,87055,86709
 1.6000e+000 87153 -6.6686e+001 -2.3817e+001  7.4388e-001 48008 86735,87055,87127
 1.6000e+000 87176 -5.5186e+001 -1.5345e+001 -3.4681e+000 48008 86735,87127,86761
 1.6000e+000 87456 -4.6976e+000  9.3871e-002 -1.0290e+001 47604 87306,87358,87332
 1.6000e+000 87433 -2.9484e+001 -1.5929e+001 -2.7694e+000 47604 87306,87384,87358
 1.6000e+000 87410 -9.1438e+000 -7.0919e+000 -8.1126e-002 47604 87280,87384,87306
 1.6000e+000 87785  3.7319e-001 -1.2386e+000  8.4600e+000 47264 87638,87690,87664
 1.6000e+000 87762 -2.0957e+000  1.5774e+001  6.2685e+000 47264 87612,87690,87638
 1.6000e+000 87739 -3.4964e+000  5.0893e+000  8.6728e+000 47264 87560,87690,87612
 1.6000e+000 87716  2.5965e+000 -7.1643e-002  1.1369e+000 47264 87560,87612,87586
 1.6000e+000 87935 -1.3480e+002 -4.4251e+001  4.0143e+000 46952 87808,87860,87834
 1.6000e+000 87912 -1.1309e+002 -3.5169e+000 -5.4149e+000 46952 87808,87886,87860
 1.6000e+000 88281 -8.4031e+001 -1.9009e+001  4.0282e-001 46526 88304,88114,88036
 1.6000e+000 88258 -7.0800e+001 -1.3207e+001  3.0973e+000 46526 88304,88036,87984
 1.6000e+000 88235 -8.1346e+001 -1.4420e+001 -9.7640e+000 46526 88036,88114,88062
 1.6000e+000 88212 -5.9154e+001  1.1683e+001  5.0272e+001 46526 87958,88140,87984
 1.6000e+000 88189 -6.5339e+001 -1.9422e-001  5.6418e-001 46526 87984,88036,88010
 1.6000e+000 88166 -9.5907e+001 -3.0580e+001 -1.7743e+001 46526 88062,88114,88088
 1.6000e+000 88330 -9.5259e+001 -1.1247e+001  5.4687e-001 46526 88140,88114,88304
 1.6000e+000 88353 -8.6008e+001 -8.3773e+000  2.5891e+000 46526 88140,88304,87984
 1.6000e+000 88701 -2.9388e+001 -2.0357e+001 -6.8334e+000 45822 88724,88378,88534
 1.6000e+000 88678 -1.9712e+001  1.5707e+000 -9.9287e+000 45822 88378,88560,88534
 1.6000e+000 88655 -2.7868e+001 -2.3567e+001 -9.6798e-001 45822 88724,88534,88508
 1.6000e+000 88632 -2.3526e+001 -9.1431e+000 -2.6347e+000 45822 88404,88508,88456
 1.6000e+000 88609 -1.9837e+001 -3.5621e+000 -7.4651e+000 45822 88404,88456,88430
 1.6000e+000 88586 -3.4333e+001 -1.8656e+001  1.7513e+000 45822 88456,88508,88482
 1.6000e+000 88750 -2.8150e+001 -1.3028e+001 -7.1154e+000 45822 88404,88378,88724
 1.6000e+000 88773 -2.6769e+001 -1.7169e+001 -1.6770e+000 45822 88404,88724,88508
 1.6000e+000 89106 -1.0316e+002 -2.1453e+001 -7.9022e+000 45418 88881,88985,88907
 1.6000e+000 89083 -7.4338e+001 -3.5501e+001 -8.5802e+000 45418 88881,89011,88985
 1.6000e+000 89060 -8.4345e+001 -2.7086e+001 -1.2717e+001 45418 88907,88985,88933
 1.6000e+000 89037 -3.7937e+001 -1.2273e+001  8.5174e+000 45418 88933,88985,88959
 1.6000e+000 89435 -6.8545e+001 -2.0495e+001  8.1609e+000 44914 89210,89288,89236
 1.6000e+000 89412 -4.8013e+001 -5.8673e+000 -7.2743e+000 44914 89210,89314,89288
 1.6000e+000 89389 -5.5252e+001  1.7158e+000 -1.1413e+001 44914 89210,89340,89314
 1.6000e+000 89366 -5.3640e+001 -1.1218e+001  2.4805e+000 44914 89236,89288,89262
 1.6000e+000 89634 -1.2101e+000  8.6820e+000  8.7311e+000 44538 89510,89562,89536
 1.6000e+000 89611 -1.2801e+001  6.9557e+000 -5.0509e+000 44538 89458,89562,89510
 1.6000e+000 89588 -4.9811e+000 -1.3120e+001 -7.2985e+000 44538 89458,89510,89484
 1.6000e+000 90044 -1.1912e+002 -5.6602e+001  1.0704e+001 44134 89819,89923,89845
 1.6000e+000 90021 -1.0199e+002 -2.0976e+001  1.5833e+001 44134 89819,89949,89923
 1.6000e+000 89998 -8.7586e+001 -4.3330e+001 -4.7626e+000 44134 89845,89923,89897
 1.6000e+000 89975 -5.9721e+001 -3.5933e-001  1.2517e+001 44134 89845,89897,89871
 1.6000e+000 90520 -1.0983e+002 -4.7962e+001  3.1994e+000 43457 90543,90252,90226
 1.6000e+000 90497 -9.1997e+001 -3.9736e+001  6.1870e+000 43457 90543,90226,90330
 1.6000e+000 90474 -1.0710e+002 -3.3565e+001 -3.3403e+000 43457 90200,90330,90226
 1.6000e+000 90451 -1.0993e+002 -4.1735e+001 -1.3567e+001 43457 90200,90356,90330
 1.6000e+000 90428 -1.1608e+002 -1.5788e+001  2.5753e+001 43457 90252,90304,90278
 1.6000e+000 90405 -4.7926e+001 -1.3636e+001  1.1409e+001 43457 90174,90356,90200
 1.6000e+000 90382 -1.0182e+002 -8.1067e+001 -1.4027e+001 43457 90148,90356,90174
 1.6000e+000 90569 -1.2720e+002 -3.6384e+001  2.1275e+001 43457 90304,90252,90543
 1.6000e+000 90592 -9.5472e+001 -1.9964e+001  2.8280e+001 43457 90304,90543,90330
 1.6000e+000 91098 -2.7034e+001 -1.2759e+001  6.5996e+000 42789 90801,90905,90853
 1.6000e+000 91075 -3.4678e+001 -1.9495e+001  9.9371e+000 42789 90775,90905,90801
 1.6000e+000 91052 -3.6273e+001 -9.6755e+000  5.6733e-001 42789 90775,90931,90905
 1.6000e+000 91029 -1.0253e+001  7.5285e+000  1.9236e+001 42789 90801,90853,90827
 1.6000e+000 91006 -4.0136e+001 -2.3519e+001  3.0873e+001 42789 90853,90905,90879
 1.6000e+000 90983 -6.3009e+001 -4.7011e+000  1.1551e+001 42789 90775,90957,90931
 1.6000e+000 91427 -9.2738e+001 -5.5711e+000 -8.4717e+000 42227 91228,91280,91254
 1.6000e+000 91404 -1.0757e+002 -3.6849e+001  5.4311e+000 42227 91228,91306,91280
 1.6000e+000 91381 -1.0027e+002 -3.3065e+001  8.0730e+000 42227 91202,91306,91228
 1.6000e+000 91358 -9.2523e+001 -4.1614e+001 -7.8561e-001 42227 91202,91332,91306
 1.6000e+000 91675 -2.4154e+001 -7.1719e+000 -7.7651e+000 41773 91698,91476,91450
 1.6000e+000 91652 -2.4373e+001 -1.1726e+001 -2.4612e+000 41773 91698,91450,91554
 1.6000e+000 91629 -3.1024e+001 -2.3503e+001  9.8656e-001 41773 91450,91580,91554
 1.6000e+000 91606 -3.4159e+001 -5.4027e+000  5.0434e+000 41773 91502,91554,91528
 1.6000e+000 91724 -2.7475e+001 -9.8817e+000 -4.6105e+000 41773 91502,91476,91698
 1.6000e+000 91747 -2.8778e+001 -1.5016e+001  8.2908e-001 41773 91502,91698,91554
 1.6000e+000 92127 -6.8236e+001 -1.4249e+001 -3.9833e+000 41255 92150,91905,91879
 1.6000e+000 92104 -1.0483e+002 -2.1895e+001  1.1347e+001 41255 92150,91879,91957
 1.6000e+000 92081 -8.0595e+001 -4.5083e+001  3.2317e+001 41255 91853,91957,91879
 1.6000e+000 92058 -8.9204e+001 -5.8523e+001  6.5031e+000 41255 91853,91983,91957
 1.6000e+000 92035 -6.2949e+001 -3.4309e+001 -3.6808e+000 41255 91853,92009,91983
 1.6000e+000 92176 -1.0137e+002 -7.0252e-001  1.4747e+001 41255 91931,91905,92150
 1.6000e+000 92199 -1.5843e+002 -3.4131e+001  3.7519e+001 41255 91931,92150,91957
 1.6000e+000 92518 -1.2154e+002 -1.3702e+001  5.0089e+000 41007 92244,92374,92270
 1.6000e+000 92495 -1.0136e+002  6.8738e+000 -4.3263e+000 41007 92244,92400,92374
 1.6000e+000 92472 -1.1796e+002 -2.3463e+001 -7.4732e-001 41007 92270,92374,92348
 1.6000e+000 92449 -1.4886e+002 -6.2906e+001  5.4064e+000 41007 92296,92348,92322
 1.6000e+000 92426 -1.3408e+002 -5.6391e+001  7.3713e+000 41007 92270,92348,92296
 1.6000e+000 92668 -4.3531e+001 -2.1278e+001 -7.1776e+000 40717 92823,92691,92567
 1.6000e+000 92645 -4.2878e+001 -1.8601e+001 -6.6526e+000 40717 92895,92823,92567
 1.6000e+000 92717 -4.8489e+001 -2.1443e+001  1.0406e+001 40717 92593,92567,92691
 1.6000e+000 92849 -3.1054e+001 -2.2151e+001 -1.1621e+001 40717 92619,92691,92823
 1.6000e+000 92872 -4.7243e+001 -2.4574e+001 -7.8249e+000 40717 92619,92823,92541
 1.6000e+000 92921 -5.7346e+001 -3.0191e+001  7.2412e-001 40717 92541,92823,92895
 1.6000e+000 93634 -9.7165e+001 -3.7635e+001 -1.5210e+001 40206 93366,93444,93418
 1.6000e+000 93611 -7.5287e+001 -1.8454e+001 -3.0605e+000 40206 93288,93444,93366
 1.6000e+000 93588 -7.4353e+001 -3.1926e+001 -4.6769e+000 40206 93288,93366,93314
 1.6000e+000 93565 -1.4211e+002 -4.5122e+001 -4.0416e+000 40206 93262,93444,93288
 1.6000e+000 93542 -1.1521e+002 -1.9178e+001 -2.7792e+000 40206 93366,93418,93392
 1.6000e+000 93519 -1.7868e+002 -7.5697e-001 -2.2245e+000 40206 93262,93470,93444
 1.6000e+000 93496 -5.3615e+001 -2.3210e+001 -8.2923e-001 40206 93314,93366,93340
 1.6000e+000 94189 -5.9605e+001 -2.1753e+001  8.7912e+000 39802 93843,93999,93973
 1.6000e+000 94166 -7.1130e+001 -2.8644e+001  1.3535e+001 39802 93817,93999,93843
 1.6000e+000 94143 -1.0169e+002 -2.3688e+001  1.3673e+001 39802 93869,93973,93947
 1.6000e+000 94120 -6.1141e+001 -4.2152e+000  7.7801e+000 39802 93843,93973,93869
 1.6000e+000 94097 -5.6536e+001 -1.7512e-001 -1.0944e+000 39802 93869,93921,93895
 1.6000e+000 94074 -5.7670e+001 -3.1745e+000 -1.6164e+000 39802 93869,93947,93921
 1.6000e+000 94051 -5.0847e+001 -1.4793e+001  5.4151e+000 39802 93817,94025,93999
 1.6000e+000 94290 -1.0726e+002 -2.9863e+001 -1.1538e+000 39398 94212,94264,94238
 1.6000e+000 94798 -3.9233e+001 -7.6945e+000  5.4695e-001 38701 94501,94657,94631
 1.6000e+000 94775 -2.6232e+001 -7.4182e+000 -9.3004e-001 38701 94475,94657,94501
 1.6000e+000 94752 -5.3896e+001 -2.7441e+001  1.4113e-001 38701 94579,94631,94605
 1.6000e+000 94729 -4.9716e+001 -7.4399e+000 -3.1917e+000 38701 94553,94631,94579
 1.6000e+000 94706 -1.0948e+001  7.0286e+000 -9.1258e+000 38701 94501,94631,94553
 1.6000e+000 94683 -1.1355e+001  3.7062e-001 -9.9330e+000 38701 94501,94553,94527
 1.6000e+000 95255 -2.2902e+001  1.3105e+000  1.0735e+001 38247 95278,95085,95007
 1.6000e+000 95232 -2.8760e+001 -7.4560e-001  1.0984e+001 38247 95278,95007,95137
 1.6000e+000 95209 -3.6757e+001 -3.5666e+000  5.8555e+000 38247 94981,95137,95007
 1.6000e+000 95186 -4.4159e+001 -2.1826e+001 -2.7120e+000 38247 95007,95059,95033
 1.6000e+000 95163 -4.6165e+001 -1.6404e+001  1.8452e+001 38247 95007,95085,95059
 1.6000e+000 95304 -2.1095e+001  1.0175e+000  5.6913e+000 38247 95111,95085,95278
 1.6000e+000 95327 -2.6239e+001 -1.3476e+000  6.5425e+000 38247 95111,95278,95137
 1.6000e+000 95575 -1.2060e+002  5.5300e+001 -1.5159e+001 37564 95376,95428,95402
 1.6000e+000 95552 -1.2624e+002 -3.9545e+001 -8.5023e+000 37564 95376,95454,95428
 1.6000e+000 95529 -1.0552e+002 -3.4106e+001 -1.2564e+001 37564 95376,95480,95454
 1.6000e+000 95506 -9.8168e+001 -1.8831e+001 -7.4487e+000 37564 95350,95480,95376
 1.6000e+000 96034 -2.1552e+001  7.7683e-002  2.9679e+000 37224 95786,95838,95812
 1.6000e+000 96011 -2.2048e+001 -9.4923e+000  9.0734e+000 37224 95786,95890,95838
 1.6000e+000 95988 -1.1781e+001 -3.6865e+000  5.3252e+000 37224 95786,95916,95890
 1.6000e+000 95965 -4.7652e+001 -1.1458e+001 -4.0712e+000 37224 95760,95916,95786
 1.6000e+000 95942 -1.4480e+001 -2.3089e+001 -9.1551e+000 37224 95838,95890,95864
 1.6000e+000 96363 -1.0243e+001  8.4297e+000 -5.4980e+000 36884 96216,96268,96242
 1.6000e+000 96340 -3.4347e+001  1.4055e+001 -3.7025e+000 36884 96164,96268,96216
 1.6000e+000 96317 -5.3279e+001 -9.8600e+000  1.3832e+001 36884 96138,96268,96164
 1.6000e+000 96294 -3.8198e+001  9.8461e+000  3.4672e+000 36884 96164,96216,96190
 1.6000e+000 96839 -9.3391e+001 -3.0598e+001 -7.4677e-001 36572 96862,96649,96597
 1.6000e+000 96816 -9.3954e+001 -3.5251e+001 -4.2206e-001 36572 97006,96862,96597
 1.6000e+000 96793 -9.0060e+001 -3.1253e+001  4.0913e+000 36572 96934,96467,96675
 1.6000e+000 96770 -8.8023e+001 -3.7063e+001  3.4517e+000 36572 97006,96597,96571
 1.6000e+000 96747 -9.3023e+001 -3.3738e+001 -2.0300e+001 36572 96467,96519,96493
 1.6000e+000 96724 -1.9792e+002 -1.9198e+001  6.5387e+001 36572 96519,96571,96545
 1.6000e+000 96701 -6.7408e+001 -6.7160e+000  2.0545e+001 36572 96597,96649,96623
 1.6000e+000 96888 -9.6703e+001 -3.1953e+001 -7.0361e-001 36572 96675,96649,96862
 1.6000e+000 96911 -9.6152e+001 -3.2176e+001  2.3890e+000 36572 96934,96675,96862
 1.6000e+000 96960 -8.6474e+001 -3.3462e+001  3.2650e+000 36572 96519,96467,96934
 1.6000e+000 96983 -8.8543e+001 -3.1440e+001  2.5230e+000 36572 97078,96934,96862
 1.6000e+000 97032 -8.7326e+001 -3.1157e+001  2.2576e+000 36572 97078,96862,97006
 1.6000e+000 97055 -8.2708e+001 -3.2393e+001  7.0990e+000 36572 96519,97006,96571
 1.6000e+000 97104 -8.8802e+001 -3.1780e+001  3.2935e+000 36572 96519,96934,97078
 1.6000e+000 97127 -8.8529e+001 -3.1909e+001  3.0007e+000 36572 96519,97078,97006
 1.6000e+000 97761 -8.2586e+001 -1.9398e+001  2.0877e+001 36118 97784,97493,97415
 1.6000e+000 97738 -9.2639e+001 -2.0084e+001  1.9111e+001 36118 97784,97415,97597
 1.6000e+000 97715 -1.4898e+002 -3.0318e+001  3.6052e+001 36118 97389,97597,97415
 1.6000e+000 97692 -1.3808e+002 -3.4818e+001  3.5965e+001 36118 97415,97467,97441
 1.6000e+000 97669 -1.2638e+002 -4.0043e+001  4.8859e+001 36118 97415,97493,97467
 1.6000e+000 97646 -7.4604e+001 -5.6669e+001 -8.9018e+000 36118 97493,97571,97519
 1.6000e+000 97623 -4.4770e+001 -1.4141e+001  9.5059e+000 36118 97519,97571,97545
 1.6000e+000 97810 -9.0530e+001 -1.2856e+001  1.3318e+001 36118 97571,97493,97784
 1.6000e+000 97833 -1.1165e+002 -2.0028e+001  1.2667e+001 36118 97571,97784,97597
 1.6000e+000 98081 -1.0831e+002 -5.0774e+001  4.8582e+000 35564 98104,97908,97856
 1.6000e+000 98058 -1.1664e+002 -5.9312e+001  9.1415e+000 35564 98104,97856,97986
 1.6000e+000 98035 -1.5009e+002 -6.5694e+001  5.6473e+000 35564 97934,97986,97960
 1.6000e+000 98012 -9.5319e+001 -1.4855e+001 -7.1076e+000 35564 97856,97908,97882
 1.6000e+000 98130 -1.1817e+002 -1.7488e+001  4.4624e+000 35564 97934,97908,98104
 1.6000e+000 98153 -1.3176e+002 -4.6032e+001  1.4019e+001 35564 97934,98104,97986
 1.6000e+000 98374 -1.4395e+002 -3.6950e+001 -4.2139e+000 35152 98224,98302,98276
 1.6000e+000 98351 -1.2643e+002  2.1058e+000 -5.2444e-002 35152 98198,98302,98224
 1.6000e+000 98328 -1.1740e+002 -2.8074e+001 -9.4162e+000 35152 98224,98276,98250
 1.6000e+000 98884 -3.6938e+001 -5.7424e-001  3.2694e+000 34698 98691,98743,98717
 1.6000e+000 98861 -3.6423e+001  7.7866e-001  2.5214e+000 34698 98561,98743,98691
 1.6000e+000 98838 -3.1418e+001 -1.4342e+000  6.9027e+000 34698 98907,98587,98561
 1.6000e+000 98815 -3.0834e+001 -4.6683e+000  1.8115e+000 34698 98907,98561,98691
 1.6000e+000 98792 -1.6957e+001 -1.9461e+000 -2.0185e+000 34698 98587,98639,98613
 1.6000e+000 98769 -3.6511e+001 -2.1141e+001  1.6736e+001 34698 98587,98665,98639
 1.6000e+000 98933 -2.6267e+001 -6.1640e-001  9.6994e+000 34698 98665,98587,98907
 1.6000e+000 98956 -2.5196e+001 -4.9889e+000  4.4289e+000 34698 98665,98907,98691
 1.6000e+000 99204 -8.3130e+001 -4.0304e+000 -7.9939e+000 34144 99227,99031,99005
 1.6000e+000 99181 -8.5216e+001 -1.7591e+001  4.8522e+000 34144 99299,99227,99005
 1.6000e+000 99158 -9.1811e+001 -1.5361e+001  1.2292e+001 34144 99299,99005,99109
 1.6000e+000 99135 -6.2735e+001 -1.6586e+001  1.4563e+001 34144 98979,99109,99005
 1.6000e+000 99253 -7.7844e+001 -1.2092e+001 -1.7760e+000 34144 99057,99031,99227
 1.6000e+000 99276 -2.4999e+001 -2.0844e+000 -4.9024e+000 34144 99057,99227,99083
 1.6000e+000 99325 -7.1703e+001 -2.6684e+000 -1.3628e+001 34144 99083,99227,99299
 1.6000e+000 99348 -9.5349e+001 -7.9317e+000 -6.2351e+000 34144 99083,99299,99109
 1.6000e+000 99498 -2.7581e+002 -6.9967e+001  3.0414e+001 33433 99397,99449,99423
 1.6000e+000 99475 -3.1924e+002 -8.1277e+001  3.0381e+000 33433 99371,99449,99397
 1.6000e+000 100008 -6.7647e+001 -1.9777e+001  6.7823e+000 32979 100103,100031,99815
 1.6000e+000 99985 -6.8332e+001 -7.9189e+000 -3.7573e+000 32979 100175,100031,99763
 1.6000e+000 99962 -7.3934e+001 -1.6205e+001  1.0750e+001 32979 100103,99815,99789
 1.6000e+000 99939 -7.1478e+001 -7.5053e+000 -1.1269e+000 32979 100175,99763,99737
 1.6000e+000 99916 -6.8196e+001  1.4458e+001 -2.6016e+000 32979 99685,99867,99737
 1.6000e+000 99893 -4.9937e+001 -1.0964e+000 -2.6622e+001 32979 99685,99737,99711
 1.6000e+000 100057 -6.1357e+001 -1.4971e+001  8.1190e-001 32979 99841,99815,100031
 1.6000e+000 100080 -5.5785e+001  1.1722e+001 -1.1989e+001 32979 99841,100031,99867
 1.6000e+000 100129 -6.0829e+001 -1.3572e+001  3.9522e+000 32979 99763,100031,100103
 1.6000e+000 100152 -6.7518e+001 -8.9512e+000  7.6218e+000 32979 99763,100103,99789
 1.6000e+000 100201 -7.3437e+001 -9.8902e+000 -4.0493e+000 32979 99867,100031,100175
 1.6000e+000 100224 -7.4041e+001 -7.9187e+000 -1.4088e+000 32979 99867,100175,99737
 1.6000e+000 100553 -9.0192e+001 -4.5141e+001  1.7820e+001 32503 100354,100406,100380
 1.6000e+000 100530 -6.8768e+001 -1.2437e+001 -4.4539e+000 32503 100328,100406,100354
 1.6000e+000 100507 -7.1122e+001 -4.3169e+001 -2.1569e+001 32503 100328,100458,100406
 1.6000e+000 100484 -3.2708e+001 -5.0652e+001 -3.1690e+000 32503 100406,100458,100432
 1.6000e+000 100850 -1.2966e+002 -5.8945e+001  4.5005e+000 31899 100873,100654,100628
 1.6000e+000 100827 -1.2623e+002 -6.4338e+001 -7.1771e-001 31899 100945,100873,100628
 1.6000e+000 100804 -1.2257e+002 -6.1813e+001  8.3352e-001 31899 100945,100628,100602
 1.6000e+000 100781 -1.3235e+002 -4.5133e+001  1.0973e+001 31899 100576,100732,100602
 1.6000e+000 100758 -8.5336e+001 -1.4163e+001  2.1917e+001 31899 100654,100706,100680
 1.6000e+000 100899 -1.2239e+002 -7.4710e+001  4.4029e+000 31899 100706,100654,100873
 1.6000e+000 100922 -1.3921e+002 -6.9402e+001 -9.9376e+000 31899 100706,100873,100732
 1.6000e+000 100971 -1.3433e+002 -5.9071e+001 -2.6220e+000 31899 100732,100873,100945
 1.6000e+000 100994 -1.2996e+002 -5.5795e+001 -8.3561e-001 31899 100732,100945,100602
 1.6000e+000 101551 -3.6722e+001 -8.0394e+000  2.3844e+000 31338 101205,101387,101231
 1.6000e+000 101528 -6.4817e+001 -2.2095e+001 -8.3269e+000 31338 101179,101387,101205
 1.6000e+000 101505 -4.9831e+001 -2.2072e+001  1.8604e+000 31338 101574,101309,101257
 1.6000e+000 101482 -4.1326e+001 -1.5876e+001  4.6080e+000 31338 101646,101574,101257
 1.6000e+000 101459 -3.4180e+001 -6.8383e+000  8.9663e+000 31338 101646,101257,101231
 1.6000e+000 101436 -5.2743e+001 -5.2637e+000  3.9137e-001 31338 101309,101361,101335
 1.6000e+000 101413 -5.1459e+001 -2.0960e+001 -8.4194e-001 31338 101257,101309,101283
 1.6000e+000 101600 -5.2369e+001 -1.6636e+001  3.6726e+000 31338 101361,101309,101574
 1.6000e+000 101623 -5.1509e+001 -2.1357e+001 -8.5841e-001 31338 101361,101574,101387
 1.6000e+000 101672 -4.7627e+001 -1.3508e+001 -2.4086e+000 31338 101387,101574,101646
 1.6000e+000 101695 -4.3084e+001 -1.1709e+001  5.8009e-001 31338 101387,101646,101231
 1.6000e+000 101943 -8.5189e+001 -3.0488e+001 -5.7698e-002 30748 101966,101796,101744
 1.6000e+000 101920 -7.2471e+001 -1.2887e+001  6.3217e+000 30748 101966,101744,101718
 1.6000e+000 101897 -6.6658e+001  1.0586e+001  4.2665e+001 30748 101718,101848,101822
 1.6000e+000 101874 -7.9943e+001 -1.6153e+001 -1.3326e+001 30748 101744,101796,101770
 1.6000e+000 101992 -9.4095e+001 -1.1761e+001  3.0171e+000 30748 101822,101796,101966
 1.6000e+000 102015 -8.6480e+001  2.1186e+000  6.9666e+000 30748 101822,101966,101718
 1.6000e+000 102493 -1.3512e+002 -3.4462e+001  2.4022e+001 30344 102516,102173,102147
 1.6000e+000 102470 -1.0889e+002 -2.0200e+001 -2.2157e+000 30344 102660,102516,102147
 1.6000e+000 102447 -6.1382e+001  1.8122e+000  3.1864e+000 30344 102588,102199,102173
 1.6000e+000 102424 -1.0147e+002 -2.6974e+001 -1.5294e+000 30344 102660,102147,102329
 1.6000e+000 102401 -1.9882e+002 -2.7086e+001  7.2869e+000 30344 102199,102277,102251
 1.6000e+000 102378 -6.2814e+001 -5.5433e+001  4.8519e+001 30344 102199,102251,102225
 1.6000e+000 102355 -2.2611e+002 -7.0540e+001  6.5092e+001 30344 102121,102329,102147
 1.6000e+000 102542 -8.3998e+001 -1.0949e+001  9.3689e+000 30344 102588,102173,102516
 1.6000e+000 102565 -1.0714e+002 -1.4394e+001  7.4532e-001 30344 102277,102516,102303
 1.6000e+000 102614 -9.2801e+001  1.5838e+001  3.4027e+000 30344 102277,102199,102588
 1.6000e+000 102637 -1.1145e+002  8.0255e+000  5.6888e+000 30344 102277,102588,102516
 1.6000e+000 102686 -1.0120e+002 -1.2212e+001  1.0573e+000 30344 102303,102516,102660
 1.6000e+000 102709 -9.5553e+001 -2.0137e+001  1.2935e+000 30344 102303,102660,102329
 1.6000e+000 103294 -8.2329e+001 -3.8697e+001  1.4540e+001 29726 103317,103101,103075
 1.6000e+000 103271 -8.9782e+001 -4.1448e+001  1.1166e+001 29726 103317,103075,102997
 1.6000e+000 103248 -1.3029e+002 -5.2839e+001  2.7654e+001 29726 102971,103153,102997
 1.6000e+000 103225 -5.7223e+001 -2.2962e+000 -1.6902e+000 29726 103101,103153,103127
 1.6000e+000 103202 -8.9503e+001 -5.9932e+001  7.2655e+000 29726 102997,103075,103023
 1.6000e+000 103179 -1.0193e+002 -3.7763e+001 -1.5238e+001 29726 103023,103075,103049
 1.6000e+000 103343 -7.7010e+001 -4.2693e+001  1.4192e+001 29726 103153,103101,103317
 1.6000e+000 103366 -8.2449e+001 -4.2708e+001  1.2235e+001 29726 103153,103317,102997
 1.6000e+000 103614 -5.5059e+001 -2.8669e+001  9.1308e+000 29200 103781,103637,103467
 1.6000e+000 103591 -4.9228e+001 -2.0956e+001  2.0410e+000 29200 103709,103637,103415
 1.6000e+000 103568 -3.9751e+001 -7.0796e+000  6.3502e+000 29200 103709,103415,103389
 1.6000e+000 103545 -5.6973e+001 -3.0603e+001  1.0219e+001 29200 103781,103467,103441
 1.6000e+000 103663 -3.9055e+001 -1.8285e+001 -6.0696e+000 29200 103853,103637,103493
 1.6000e+000 103686 -7.7821e+001 -5.0451e+001 -2.1407e+001 29200 103493,103637,103519
 1.6000e+000 103735 -6.3003e+001 -4.4086e+000 -6.7821e+000 29200 103519,103637,103709
 1.6000e+000 103758 -5.5659e+001  4.9124e+000 -3.4989e+000 29200 103519,103709,103389
 1.6000e+000 103807 -5.7464e+001 -2.1668e+001  2.7745e+000 29200 103415,103637,103781
 1.6000e+000 103830 -6.5578e+001 -2.6180e+001  4.9425e+000 29200 103415,103781,103441
 1.6000e+000 103879 -4.0265e+001 -2.5445e+001  3.2591e+000 29200 103467,103637,103853
 1.6000e+000 104545 -1.3280e+002 -1.9234e+001  1.6507e+001 28860 104274,104352,104326
 1.6000e+000 104522 -1.0796e+002 -3.9278e+001  5.7658e-001 28860 104248,104352,104274
 1.6000e+000 104499 -7.8799e+001 -2.4564e+001 -4.7562e+000 28860 104248,104404,104352
 1.6000e+000 104476 -1.1653e+002 -5.3306e+001 -1.7435e+001 28860 104222,104404,104248
 1.6000e+000 104453 -8.1463e+001 -4.2980e+001 -6.5262e+000 28860 104352,104404,104378
 1.6000e+000 104430 -2.3594e+002 -3.8551e+001  4.6925e+000 28860 104274,104326,104300
 1.6000e+000 104744 -3.4968e+001  1.2470e+000  8.4922e+000 28456 104839,104767,104646
 1.6000e+000 104721 -1.7673e+001 -4.8198e-001  6.4486e+000 28456 104767,104594,104568
 1.6000e+000 104698 -3.0660e+001 -7.9789e+000  1.5186e+000 28456 104839,104646,104620
 1.6000e+000 104793 -2.7397e+001 -2.6625e+000  1.4905e+001 28456 104672,104646,104767
 1.6000e+000 104816 -1.7890e+001 -9.3726e-001  7.4361e+000 28456 104911,104767,104568
 1.6000e+000 104865 -3.1872e+001 -3.1974e+000  2.9969e+000 28456 104594,104767,104839
 1.6000e+000 104888 -3.6338e+001 -2.7394e+001  2.6141e+000 28456 105041,104839,104620
 1.6000e+000 104937 -3.4919e+001 -3.1207e+001  1.4258e+001 28456 104672,104767,104911
 1.6000e+000 105067 -3.4762e+001 -3.8865e+000  1.5207e+000 28456 104594,104839,105041
 1.6000e+000 105573 -7.7866e+001 -1.2157e+001  8.4105e+000 28094 105812,105596,105328
 1.6000e+000 105550 -7.9461e+001 -1.4757e+001  5.8764e+000 28094 105596,105276,105250
 1.6000e+000 105527 -6.2228e+001 -6.5188e+000  1.6627e+001 28094 105740,105668,105432
 1.6000e+000 105504 -6.1639e+001 -3.5180e+000  1.7121e+001 28094 105740,105432,105380
 1.6000e+000 105481 -7.8329e+001 -1.1843e+001  8.1596e+000 28094 105812,105328,105302
 1.6000e+000 105458 -3.5938e+001 -1.4554e+001  1.6175e+001 28094 105380,105432,105406
 1.6000e+000 105622 -1.0073e+002 -2.5189e+001  1.9034e+001 28094 105354,105328,105596
 1.6000e+000 105645 -6.8263e+001 -1.0485e+001  1.2737e+001 28094 105668,105354,105596
 1.6000e+000 105694 -6.8012e+001 -7.9126e+000  9.7043e+000 28094 105250,105432,105668
 1.6000e+000 105717 -8.0396e+001 -8.6368e+000  6.6090e+000 28094 105250,105668,105596
 1.6000e+000 105766 -6.2658e+001 -9.5071e+000  1.1185e+001 28094 105354,105668,105740
 1.6000e+000 105789 -6.0798e+001 -4.2848e+000  1.1685e+001 28094 105354,105740,105380
 1.6000e+000 105838 -7.8424e+001 -1.2504e+001  8.1999e+000 28094 105276,105596,105812
 1.6000e+000 105861 -8.0317e+001 -1.2899e+001  7.7478e+000 28094 105276,105812,105302
 1.6000e+000 106367 -9.0552e+001 -1.8235e+001 -9.5423e+000 27390 106070,106122,106096
 1.6000e+000 106344 -9.5984e+001 -2.9286e+001 -6.8599e+000 27390 106070,106226,106122
 1.6000e+000 106321 -1.0312e+002 -4.6752e+000 -6.6928e+000 27390 106174,106226,106200
 1.6000e+000 106298 -9.5746e+001 -3.1174e+001 -5.6714e+000 27390 106122,106226,106174
 1.6000e+000 106275 -1.1581e+002 -4.3017e+001 -3.3994e+001 27390 106122,106174,106148
 1.6000e+000 106252 -8.3357e+001 -2.1543e+001  1.2553e+000 27390 106044,106226,106070
 1.6000e+000 106615 -1.2764e+002 -4.2671e+001  1.1176e+000 26978 106638,106494,106416
 1.6000e+000 106592 -1.3114e+002 -3.9152e+001  1.3994e+000 26978 106638,106416,106390
 1.6000e+000 106569 -1.3400e+002 -5.0025e+001 -1.1097e+001 26978 106416,106494,106442
 1.6000e+000 106546 -1.3876e+002 -5.1558e+001 -1.1331e+001 26978 106442,106494,106468
 1.6000e+000 106664 -1.2213e+002 -3.9135e+001 -4.3874e-001 26978 106520,106494,106638
 1.6000e+000 106687 -1.2875e+002 -3.8069e+001  6.8920e-001 26978 106520,106638,106390
 1.6000e+000 106837 -1.5143e+002 -7.0408e+001 -1.0003e+001 26524 106710,106762,106736
 1.6000e+000 106814 -1.5677e+002 -7.4503e+001 -7.6564e+000 26524 106710,106788,106762
 1.6000e+000 107426 -4.6579e+001 -4.6118e+000 -1.3161e+001 26120 107129,107207,107155
 1.6000e+000 107403 -6.2838e+001 -2.6521e+001 -6.0688e+000 26120 107129,107285,107207
 1.6000e+000 107380 -5.7139e+001 -1.4165e+001 -4.6652e+000 26120 107207,107285,107259
 1.6000e+000 107357 -4.5070e+001 -1.4418e+001  6.0373e+000 26120 107155,107207,107181
 1.6000e+000 107334 -8.1313e+001 -3.4577e+001 -7.3031e+000 26120 107103,107285,107129
 1.6000e+000 107311 -4.0747e+001 -5.1691e-001  1.1950e+000 26120 107207,107259,107233
 1.6000e+000 107755 -3.4843e+001 -5.3877e-001 -3.2568e+000 25758 107556,107634,107608
 1.6000e+000 107732 -6.8481e+001 -1.5390e+001  6.1631e+000 25758 107556,107660,107634
 1.6000e+000 107709 -2.4492e+001 -8.4864e+000  7.7667e+000 25758 107556,107608,107582
 1.6000e+000 107686 -5.7254e+001  3.2274e+001  2.1452e+001 25758 107530,107660,107556
 1.6000e+000 108438 -2.9113e+001 -9.6765e+000  3.1290e+000 25468 108121,108199,108173
 1.6000e+000 108415 -3.8009e+001 -3.4523e+001 -1.3190e+000 25468 108095,108199,108121
 1.6000e+000 108392 -4.3356e+001 -2.0649e+001 -2.7994e+000 25468 108095,108251,108199
 1.6000e+000 108369 -5.0788e+001 -3.1504e+001  6.7349e-001 25468 108069,108251,108095
 1.6000e+000 108346 -2.7502e+001 -1.5547e+001  5.5219e+000 25468 108199,108251,108225
 1.6000e+000 108323 -6.5966e+001 -1.0798e+001 -1.1677e+001 25468 108017,108251,108069
 1.6000e+000 108300 -2.4471e+001 -1.5361e+001  6.8797e+000 25468 108121,108173,108147
 1.6000e+000 108277 -6.9340e+001 -1.6817e+001 -1.0372e+001 25468 108017,108069,108043
 1.6000e+000 108588 -3.9501e+001 -2.4016e+001  1.3454e+000 25064 108611,108513,108487
 1.6000e+000 108565 -1.3368e+001 -3.7635e+000  1.0932e+001 25064 108683,108611,108487
 1.6000e+000 108637 -4.6877e+001 -5.9927e+000  8.2655e+000 25064 108539,108513,108611
 1.6000e+000 108660 -4.8774e+001 -3.0876e-001  1.2887e+001 25064 108539,108611,108461
 1.6000e+000 108709 -5.3080e+001 -1.1044e+001  1.3556e+001 25064 108461,108611,108683
 1.6000e+000 109345 -7.1688e+001 -9.7757e+000  1.2248e+001 24410 108999,109155,109103
 1.6000e+000 109322 -1.4645e+002 -3.1056e+001  2.6317e+001 24410 108973,109155,108999
 1.6000e+000 109299 -6.5793e+001 -2.2763e+001  1.3659e+001 24410 109103,109155,109129
 1.6000e+000 109276 -6.8767e+001  1.4604e+001  5.9409e+000 24410 108973,109181,109155
 1.6000e+000 109253 -1.4754e+002 -4.6352e+001  2.8596e+001 24410 109025,109103,109077
 1.6000e+000 109230 -1.0434e+002 -3.3188e+001  2.2816e+001 24410 108999,109103,109025
 1.6000e+000 109207 -1.4673e+002  2.5551e+000  1.3287e+001 24410 109025,109077,109051
 1.6000e+000 109723 -7.7158e+001  1.1017e+001  2.3736e+000 23856 109475,109579,109553
 1.6000e+000 109700 -7.4689e+001 -8.0225e+000 -7.9427e-001 23856 109475,109605,109579
 1.6000e+000 109677 -8.8758e+001 -2.1601e+000 -3.0359e+001 23856 109475,109553,109527
 1.6000e+000 109654 -3.4828e+001  9.0371e+000  8.8553e+000 23856 109449,109605,109475
 1.6000e+000 109631 -5.1037e+001  2.2064e+001 -1.9812e+001 23856 109475,109527,109501
 1.6000e+000 110101 -7.3937e+001 -2.5401e+001  2.9197e+000 23566 109853,109931,109879
 1.6000e+000 110078 -6.5191e+001 -1.5196e+001  1.0998e+001 23566 109827,109931,109853
 1.6000e+000 110055 -4.0240e+001  1.9065e+001 -7.5967e-001 23566 109827,109983,109931
 1.6000e+000 110032 -7.2260e+001 -4.2457e+001 -1.1788e+001 23566 109879,109931,109905
 1.6000e+000 110009 -3.6326e+001  1.2240e+001  1.3978e+001 23566 109931,109983,109957
 1.6000e+000 110735 -9.0348e+001 -3.2396e+001 -4.0228e-002 23162 110415,110571,110519
 1.6000e+000 110712 -9.1455e+001 -2.7656e+001 -1.4097e-001 23162 110389,110571,110415
 1.6000e+000 110689 -1.2986e+002 -4.8041e+001  4.0221e+000 23162 110415,110519,110493
 1.6000e+000 110666 -7.3437e+001 -2.9629e+001 -1.4725e+001 23162 110363,110571,110389
 1.6000e+000 110643 -1.1139e+002 -2.3384e+001  1.7665e+001 23162 110441,110493,110467
 1.6000e+000 110620 -1.2189e+002 -3.9480e+001  4.3162e-001 23162 110415,110493,110441
 1.6000e+000 110597 -8.8468e+001 -6.9809e+000  9.1388e-001 23162 110519,110571,110545
 1.6000e+000 111211 -6.3825e+001 -1.6804e+000 -1.0863e+001 22708 111378,111306,111021
 1.6000e+000 111188 -6.8727e+001  3.1013e+000 -9.0472e+000 22708 111234,110969,110917
 1.6000e+000 111165 -5.7566e+001 -5.5922e+000 -9.1018e+000 22708 111450,111234,110917
 1.6000e+000 111142 -6.0838e+001  1.7826e+000 -5.4944e+000 22708 111378,111021,110995
 1.6000e+000 111119 -5.8074e+001 -1.3579e+001 -2.3295e+000 22708 111450,110917,110865
 1.6000e+000 111096 -1.6045e+002 -1.3867e+001 -7.4471e+000 22708 110917,110969,110943
 1.6000e+000 111073 -5.8851e+001 -1.6944e+001 -2.6231e+000 22708 110865,110917,110891
 1.6000e+000 111260 -7.0974e+001  3.8651e+000 -6.4332e+000 22708 111306,110969,111234
 1.6000e+000 111283 -6.7611e+001 -9.8997e+000  4.1044e+000 22708 111047,111234,110839
 1.6000e+000 111332 -1.0980e+002  4.0101e+001 -4.4976e+001 22708 111047,111021,111306
 1.6000e+000 111355 -8.7600e+001 -4.6571e+000  2.3115e+000 22708 111047,111306,111234
 1.6000e+000 111404 -7.2854e+001  3.0959e+000 -9.8182e+000 22708 110969,111306,111378
 1.6000e+000 111427 -7.0774e+001  7.7109e-001 -7.9474e+000 22708 110969,111378,110995
 1.6000e+000 111476 -6.2788e+001 -1.6917e+001  6.1570e-001 22708 110839,111234,111450
 1.6000e+000 111499 -6.7276e+001 -2.9545e+001  7.9236e+000 22708 110839,111450,110865
 1.6000e+000 111600 -1.1996e+002 -4.1307e+001  1.3726e+001 22460 111522,111574,111548
 1.6000e+000 112059 -8.7503e+001 -2.4355e+001  4.1713e+000 22056 111811,111889,111863
 1.6000e+000 112036 -1.1605e+002 -4.2588e+001  1.2489e+001 22056 111811,111915,111889
 1.6000e+000 112013 -8.4454e+001 -5.6146e+001 -1.7372e+001 22056 111785,111915,111811
 1.6000e+000 111990 -5.3847e+001 -3.5759e+001 -2.7318e+001 22056 111785,111941,111915
 1.6000e+000 111967 -4.7915e+001 -3.8947e+000 -1.7798e+001 22056 111811,111863,111837
 1.6000e+000 112486 -1.2048e+002 -2.7512e+001  8.5045e-001 21594 112509,112267,112215
 1.6000e+000 112463 -1.1712e+002 -2.4749e+001 -6.9915e+000 21594 112509,112215,112163
 1.6000e+000 112440 -1.1404e+002 -4.8509e+001  1.3961e+001 21594 112581,112293,112267
 1.6000e+000 112417 -9.4781e+001 -5.3514e+001 -3.9963e+000 21594 112215,112267,112241
 1.6000e+000 112394 -1.3742e+002 -1.2929e+001 -2.1616e+001 21594 112163,112345,112319
 1.6000e+000 112371 -1.0774e+002  6.4953e+000 -7.8993e+000 21594 112163,112215,112189
 1.6000e+000 112535 -1.2558e+002 -3.7691e+001  3.4564e+000 21594 112581,112267,112509
 1.6000e+000 112558 -1.1823e+002 -3.4298e+001 -7.4731e+000 21594 112319,112509,112163
 1.6000e+000 112607 -9.4957e+001 -3.8114e+001  9.5961e+000 21594 112319,112293,112581
 1.6000e+000 112630 -1.0572e+002 -2.4041e+001 -2.4887e+000 21594 112319,112581,112509
 1.6000e+000 112900 -6.1658e+001  9.7012e+000 -6.3031e-001 20974 112675,112779,112701
 1.6000e+000 112877 -6.2659e+001  2.3632e+001 -8.2293e+000 20974 112675,112805,112779
 1.6000e+000 112854 -7.2849e+001 -1.9360e+001 -9.1690e+000 20974 112701,112779,112753
 1.6000e+000 112831 -8.2442e+001 -3.3638e+001 -1.4366e+000 20974 112701,112753,112727
 1.6000e+000 113359 -4.0793e+001  2.0482e+001  2.6408e+001 20520 113454,113137,113111
 1.6000e+000 113336 -5.9928e+001  7.5405e+000  2.0713e+001 20520 113454,113111,113085
 1.6000e+000 113313 -3.7621e+001 -1.0394e+001  2.1471e+001 20520 113382,113163,113137
 1.6000e+000 113290 -4.6091e+001 -9.4493e+000  2.2082e+001 20520 113526,113382,113137
 1.6000e+000 113267 -2.2259e+001  7.2558e+000  7.2006e+000 20520 113189,113241,113215
 1.6000e+000 113408 -3.6098e+001 -4.6504e+000  1.6405e+001 20520 113189,113163,113382
 1.6000e+000 113431 -4.2309e+001 -8.3402e+000  1.4110e+001 20520 113189,113382,113241
 1.6000e+000 113480 -5.0903e+001 -3.5798e-001  1.8853e+001 20520 113526,113137,113454
 1.6000e+000 113503 -4.9475e+001  1.1423e+001  1.2866e+001 20520 113241,113454,113085
 1.6000e+000 113552 -3.6508e+001  3.8994e+000  1.6859e+001 20520 113241,113382,113526
 1.6000e+000 113575 -4.1403e+001  1.1123e+001  1.3321e+001 20520 113241,113526,113454
 1.6000e+000 113904 -1.1541e+001 -1.1107e+001 -1.6880e+001 19858 113705,113783,113757
 1.6000e+000 113881 -2.9148e+001 -1.2810e+001 -1.0486e+001 19858 113705,113809,113783
 1.6000e+000 113858 -2.2540e+001 -1.0180e+001 -9.9659e+000 19858 113679,113809,113705
 1.6000e+000 113835 -1.1082e+001  1.8363e+000  1.0464e+000 19858 113705,113757,113731
 1.6000e+000 114152 -1.0986e+002 -5.1426e+001 -2.1963e+001 19454 114175,114005,113979
 1.6000e+000 114129 -1.1493e+002 -5.3367e+001 -2.3876e+001 19454 114175,113979,114057
 1.6000e+000 114106 -1.1875e+002 -3.2529e+001  2.5496e+001 19454 113927,114057,113979
 1.6000e+000 114083 -9.0547e+001 -2.4604e+001  2.2111e+000 19454 113927,113979,113953
 1.6000e+000 114201  8.3169e+000 -6.2217e-001  7.9246e+000 19454 114031,114005,114175
 1.6000e+000 114224 -1.1068e+002 -6.2424e+001 -2.2632e+001 19454 114031,114175,114057
 1.6000e+000 114472 -6.1684e+001 -2.0955e+001 -3.9346e+000 19000 114495,114273,114247
 1.6000e+000 114449 -6.1173e+001 -2.0580e+001 -3.6619e+000 19000 114495,114247,114325
 1.6000e+000 114426 -6.7003e+001 -1.5170e+001  3.2610e+000 19000 114247,114377,114325
 1.6000e+000 114403 -6.1497e+001 -4.2263e+000  6.1607e+000 19000 114325,114377,114351
 1.6000e+000 114521 -6.3324e+001 -2.1464e+001 -4.8672e+000 19000 114299,114273,114495
 1.6000e+000 114544 -6.1612e+001 -1.9787e+001 -4.1905e+000 19000 114299,114495,114325
 1.6000e+000 114948 -1.0976e+002 -2.3748e+001 -5.8505e+000 18560 114674,114726,114700
 1.6000e+000 114925 -1.0210e+002 -3.9000e+001 -8.3857e+000 18560 114674,114830,114726
 1.6000e+000 114902 -1.0542e+002 -4.7403e+001 -1.1452e+001 18560 114726,114830,114804
 1.6000e+000 114879 -7.3719e+001 -3.0804e+001 -3.5237e-001 18560 114726,114804,114752
 1.6000e+000 114856 -8.4966e+001 -3.6077e+001  3.5615e+000 18560 114752,114804,114778
 1.6000e+000 115098 -1.0939e+002 -2.9201e+001 -1.0011e+001 18156 114971,115023,114997
 1.6000e+000 115075 -1.2268e+002 -2.5277e+001 -4.6550e+000 18156 114971,115049,115023
 1.6000e+000 115248 -1.2020e+002 -1.1656e+001  4.3739e+000 17602 115147,115199,115173
 1.6000e+000 115225 -6.8688e+001 -2.4437e+001 -4.5405e-001 17602 115121,115199,115147
 1.6000e+000 115652 -9.7024e+001 -5.6269e+001 -3.1431e+000 17354 115430,115534,115508
 1.6000e+000 115629 -9.4629e+001 -3.6884e+001 -6.2200e+000 17354 115404,115534,115430
 1.6000e+000 115606 -7.9029e+001 -8.8159e+000  2.9129e+000 17354 115378,115534,115404
 1.6000e+000 115583 -1.5049e+002 -4.0961e+001  1.3110e+001 17354 115456,115508,115482
 1.6000e+000 115560 -8.8781e+001 -3.9509e+001 -1.6300e-002 17354 115430,115508,115456
 1.6000e+000 115873 -4.8966e+001 -1.2489e+001  8.1448e+000 16950 115749,115801,115775
 1.6000e+000 115850 -6.6415e+001 -1.2336e+001  8.0345e+000 16950 115697,115801,115749
 1.6000e+000 115827 -6.9718e+001 -3.0332e+001  9.9494e+000 16950 115697,115749,115723
 1.6000e+000 116023 -1.3334e+002 -1.5362e+001  1.1301e+001 16496 115922,115974,115948
 1.6000e+000 116000 -9.4792e+001 -1.7386e+001  1.2344e+001 16496 115896,115974,115922
 1.6000e+000 116126 -1.3172e+002 -1.7915e+001 -8.0121e+000 16298 116048,116100,116074
 1.6000e+000 116278 -1.4806e+002 -2.6167e-001 -1.0373e+000 15892 116151,116203,116177
 1.6000e+000 116255 -1.3989e+002 -8.1529e+000 -1.5474e+001 15892 116151,116229,116203
 1.6000e+000 116430 -1.1665e+002 -8.9980e+001  3.4110e-002 15545 116303,116355,116329
 1.6000e+000 116407 -9.6094e+001 -4.1467e+001  2.2980e+001 15545 116303,116381,116355
 1.6000e+000 116785 -8.9864e+000  1.2077e+001 -2.5729e+000 421 116612,116690,116664
 1.6000e+000 116762 -1.4524e+001 -5.0191e-001  7.2693e+000 421 116560,116690,116612
 1.6000e+000 116739 -8.5349e+000  5.1346e+000  9.1541e-001 421 116560,116612,116586
 1.6000e+000 116716  8.2209e+000 -7.3816e-001  1.1849e+000 421 116612,116664,116638
 1.7000e+000 68048 -6.7011e+001 -3.2176e+001 -2.1674e+000 67642 67898,67950,67924
 1.7000e+000 68025 -7.5871e+001 -4.4188e+001  2.2648e+000 67642 67898,67976,67950
 1.7000e+000 68002 -4.8603e+001 -3.0788e+001 -3.3926e+000 67642 67872,67976,67898
 1.7000e+000 68367 -4.7585e+000  1.5958e+001  6.3102e+000 67444 68119,68223,68197
 1.7000e+000 68344 -1.1372e+001 -1.0730e+001  6.6002e+000 67444 68119,68249,68223
 1.7000e+000 68321  2.0728e+001  4.0406e+000  2.9853e+000 67444 68093,68249,68119
 1.7000e+000 68298 -1.4159e+001 -3.3543e+000  4.1123e-001 67444 68119,68197,68171
 1.7000e+000 68275 -1.2381e+001 -1.5834e+000  1.2786e+000 67444 68119,68171,68145
 1.7000e+000 68468 -3.1843e+001  5.2154e+000 -2.6765e+000 67268 68390,68442,68416
 1.7000e+000 68765 -5.2872e+001 -2.5721e+000  7.8947e-001 66956 68788,68517,68491
 1.7000e+000 68742 -5.0145e+001 -9.0189e+000 -7.6078e-002 66956 68788,68491,68621
 1.7000e+000 68719 -6.4266e+001 -1.2941e+001 -1.5403e+001 66956 68543,68621,68569
 1.7000e+000 68696 -5.0660e+001 -5.9240e+000  3.2027e+000 66956 68491,68647,68621
 1.7000e+000 68673 -9.3082e+001 -2.8735e+001 -2.4015e+001 66956 68569,68621,68595
 1.7000e+000 68814 -5.3753e+001 -7.3491e+000  2.6405e+000 66956 68543,68517,68788
 1.7000e+000 68837 -5.0337e+001 -1.3223e+001  1.2072e+000 66956 68543,68788,68621
 1.7000e+000 69107 -3.9631e+001 -6.6933e+001 -4.3044e+000 66758 68882,68986,68908
 1.7000e+000 69084  5.0506e+000 -4.1494e+001  8.0624e+000 66758 68882,69012,68986
 1.7000e+000 69061 -1.3872e+002 -2.6705e+001 -1.2283e+001 66758 68908,68960,68934
 1.7000e+000 69038 -2.9625e+001 -3.2065e+001 -8.4288e+000 66758 68908,68986,68960
 1.7000e+000 69308 -3.3071e+001  7.3079e-001  2.3572e-001 66560 69331,69184,69158
 1.7000e+000 69285 -4.1502e+001  2.3186e+000 -5.7913e-001 66560 69331,69158,69132
 1.7000e+000 69262 -2.9741e+001 -6.5750e+000 -1.7998e+000 66560 69184,69236,69210
 1.7000e+000 69357 -2.8512e+001  1.1316e+000 -3.3143e-002 66560 69236,69184,69331
 1.7000e+000 69380 -3.2941e+001  5.6328e+000 -2.0817e+000 66560 69236,69331,69132
 1.7000e+000 69554  1.0475e+001 -5.0010e+000  5.3162e+000 66270 69427,69479,69453
 1.7000e+000 69531  2.1488e+001  2.0732e+001  1.0392e+001 66270 69427,69505,69479
 1.7000e+000 69804 -1.6762e+001  3.5231e+000  1.5010e+001 66066 69579,69683,69657
 1.7000e+000 69781 -2.7624e+001  4.8296e-001  3.1221e-001 66066 69579,69709,69683
 1.7000e+000 69758  1.6211e+001  3.4532e+000 -2.0960e+000 66066 69579,69657,69631
 1.7000e+000 69735  1.5006e+001  6.4324e-001 -1.2934e+000 66066 69579,69631,69605
 1.7000e+000 70257 -3.7808e-001  3.4303e+001 -3.0110e+001 65776 69960,70090,69986
 1.7000e+000 70234 -5.1075e+000  1.5397e+000 -1.6696e+001 65776 69934,70090,69960
 1.7000e+000 70211 -1.7439e+001  9.7095e+000 -3.3137e+000 65776 69934,70116,70090
 1.7000e+000 70188 -4.9826e+000  3.6113e+001  0.0000e+000 65776 70038,70090,70064
 1.7000e+000 70165 -1.1896e+001  4.9665e+001 -1.7726e+001 65776 69986,70090,70038
 1.7000e+000 70142 -1.6826e+001  1.4209e+001 -2.6972e+001 65776 69986,70038,70012
 1.7000e+000 70456  1.2224e+001  1.9128e+001  1.0495e+001 65372 70479,70306,70280
 1.7000e+000 70433  1.4527e+001  2.1265e+001  9.1356e+000 65372 70479,70280,70384
 1.7000e+000 70410  1.3885e+001  2.0081e+001  8.0972e+000 65372 70551,70332,70306
 1.7000e+000 70505  1.4220e+001  1.9226e+001  8.8100e+000 65372 70551,70306,70479
 1.7000e+000 70528  1.5723e+001  2.0385e+001  8.4334e+000 65372 70358,70479,70384
 1.7000e+000 70577  1.3681e+001  2.1369e+001  8.2194e+000 65372 70358,70332,70551
 1.7000e+000 70600  1.4420e+001  2.0948e+001  8.8514e+000 65372 70358,70551,70479
 1.7000e+000 70821 -3.7803e+001 -2.8973e+001  1.0259e+000 65174 70645,70723,70671
 1.7000e+000 70798 -9.9676e+000 -1.6815e+001  3.1077e+000 65174 70645,70749,70723
 1.7000e+000 70775 -4.0535e+001 -2.7720e+001  1.5383e+000 65174 70671,70723,70697
 1.7000e+000 71071 -4.3504e+001 -1.4407e+001 -6.8330e+000 64770 71094,70898,70872
 1.7000e+000 71048 -3.2137e+001 -1.2211e+001  1.0897e-002 64770 71166,71094,70872
 1.7000e+000 71025 -3.0736e+001 -1.7735e+001 -4.2912e+000 64770 71166,70872,70846
 1.7000e+000 71002 -5.2510e+001 -4.0904e+000 -5.7291e+000 64770 70898,70950,70924
 1.7000e+000 71120 -3.6594e+001  1.6413e+000 -4.9368e+000 64770 70950,70898,71094
 1.7000e+000 71143 -3.1889e+001 -1.1520e+001  3.9432e+000 64770 70950,71094,70976
 1.7000e+000 71192 -3.5740e+001 -2.3283e+001  5.2978e-001 64770 70976,71094,71166
 1.7000e+000 71215 -3.1887e+001 -2.4826e+001 -4.1187e+000 64770 70976,71166,70846
 1.7000e+000 71514 -4.9081e+001 -1.8679e-001 -4.9483e+000 64572 71681,71537,71318
 1.7000e+000 71491 -6.2646e+001  2.4650e+001  1.1001e+000 64572 71537,71266,71240
 1.7000e+000 71468 -6.4303e+001  1.4310e+001 -2.2541e+001 64572 71609,71396,71370
 1.7000e+000 71445 -4.0102e+001 -1.8123e+001  2.2182e+000 64572 71681,71318,71292
 1.7000e+000 71422 -1.1719e+001 -1.0106e+001 -1.2068e+001 64572 71753,71344,71318
 1.7000e+000 71563 -1.4129e+001  1.7632e+001 -2.9957e+001 64572 71753,71318,71537
 1.7000e+000 71586 -5.8422e+001  1.7853e+001 -2.4109e+001 64572 71609,71370,71537
 1.7000e+000 71635 -7.7155e+001 -1.9854e+000  8.3982e-001 64572 71240,71396,71609
 1.7000e+000 71658 -5.1541e+001  1.1874e+001 -4.6876e+000 64572 71240,71609,71537
 1.7000e+000 71707 -4.4985e+001  2.9607e+001 -2.7044e+000 64572 71266,71537,71681
 1.7000e+000 71730 -3.4160e+001  1.5877e+001  1.1329e+001 64572 71266,71681,71292
 1.7000e+000 71779  2.4629e+001  1.7730e+001 -2.6592e+001 64572 71370,71344,71753
 1.7000e+000 71802  5.5574e+000  2.8268e+001 -3.4408e+001 64572 71370,71753,71537
 1.7000e+000 72052 -3.0123e+001 -1.9572e+001 -7.7285e+000 64374 72075,71879,71827
 1.7000e+000 72029 -2.6564e+001 -1.8192e+001 -7.6801e+000 64374 72147,72075,71827
 1.7000e+000 72006 -2.2205e+001 -1.4949e+001 -5.9709e+000 64374 72147,71827,71957
 1.7000e+000 71983 -2.8840e+001 -6.9805e+000 -6.8486e+000 64374 71827,71879,71853
 1.7000e+000 72101 -2.8244e+001 -1.6469e+001 -6.7232e+000 64374 71905,71879,72075
 1.7000e+000 72124 -3.6233e+001 -1.8079e+001 -7.7210e+000 64374 71905,72075,71931
 1.7000e+000 72173 -2.9114e+001 -1.2071e+001 -4.8317e+000 64374 71931,72075,72147
 1.7000e+000 72196 -2.8762e+001 -1.1134e+001 -4.2086e+000 64374 71931,72147,71957
 1.7000e+000 72649 -4.7490e+001 -4.1803e+000  5.7893e+000 63948 72352,72508,72482
 1.7000e+000 72626 -5.7941e+001 -1.7004e+001 -5.4455e+000 63948 72326,72508,72352
 1.7000e+000 72603 -4.2314e+001 -9.0053e+000 -3.7916e+000 63948 72672,72430,72378
 1.7000e+000 72580 -3.0563e+001  1.9231e+000 -8.3318e+000 63948 72672,72378,72352
 1.7000e+000 72557 -3.8123e+001 -1.9886e+001 -1.1073e+000 63948 72744,72456,72430
 1.7000e+000 72534 -3.8389e+001 -1.4993e+000 -5.6908e+000 63948 72378,72430,72404
 1.7000e+000 72698 -3.7258e+001 -1.7441e+001  2.1890e-001 63948 72744,72430,72672
 1.7000e+000 72721 -3.2623e+001 -6.4836e+000  2.6710e+000 63948 72482,72672,72352
 1.7000e+000 72770 -4.3296e+001 -1.5286e+001 -5.8566e-001 63948 72482,72456,72744
 1.7000e+000 72793 -3.9257e+001 -9.2612e+000  1.5327e+000 63948 72482,72744,72672
 1.7000e+000 72894 -4.0440e+001 -5.0787e+000  5.3699e+000 63494 72816,72868,72842
 1.7000e+000 73093 -3.5587e+001 -2.3572e+001 -1.1571e+001 63132 72943,72995,72969
 1.7000e+000 73070 -6.2775e+001 -3.1397e+001 -3.6510e+000 63132 72943,73021,72995
 1.7000e+000 73047 -5.4470e+001 -1.0178e+001 -1.9778e+000 63132 72917,73021,72943
 1.7000e+000 73294 -1.0346e+001  1.1500e+001 -6.2144e-001 62792 73317,73144,73118
 1.7000e+000 73271 -9.9546e+000  1.2007e+001 -1.3741e+000 62792 73317,73118,73222
 1.7000e+000 73248  1.7645e+001  7.3024e+000  1.7586e+000 62792 73144,73196,73170
 1.7000e+000 73343 -9.3896e+000  1.1414e+001 -1.0322e+000 62792 73196,73144,73317
 1.7000e+000 73366 -8.9499e+000  1.2139e+001 -1.8355e+000 62792 73196,73317,73222
 1.7000e+000 73616 -2.8690e+001  1.0889e+000  3.5887e+000 62388 73639,73417,73391
 1.7000e+000 73593 -2.8004e+001  2.8606e+000  4.6523e+000 62388 73711,73639,73391
 1.7000e+000 73570 -2.8750e+001  1.0438e+001  4.6174e+000 62388 73711,73391,73521
 1.7000e+000 73547 -2.7454e+001 -8.7488e-001 -5.3498e+000 62388 73469,73521,73495
 1.7000e+000 73665 -2.3664e+001  4.0522e+000  9.5211e+000 62388 73443,73417,73639
 1.7000e+000 73688 -2.8164e+001 -9.3648e+000  7.7753e+000 62388 73443,73639,73469
 1.7000e+000 73737 -2.9259e+001 -2.6721e+000  2.9466e+000 62388 73469,73639,73711
 1.7000e+000 73760 -3.1676e+001  1.7254e+000  3.7539e+000 62388 73469,73711,73521
 1.7000e+000 74010 -5.0532e+001 -1.3674e+001 -1.1370e+001 61848 74033,73837,73811
 1.7000e+000 73987 -2.0003e+001 -1.1956e+001  3.1232e+000 61848 74033,73811,73785
 1.7000e+000 73964 -3.9816e+001  2.5562e+000  6.5954e+000 61848 73837,73915,73889
 1.7000e+000 73941 -8.1470e+001 -8.0227e+000 -1.3644e+001 61848 73837,73889,73863
 1.7000e+000 74059 -5.3739e+001 -2.3225e+000 -4.1513e+000 61848 73915,73837,74033
 1.7000e+000 74082 -5.0899e+001  5.8221e+000  7.8362e-001 61848 73915,74033,73785
 1.7000e+000 74283 -4.7538e+001 -2.3905e+000 -1.1666e+001 61444 74306,74133,74107
 1.7000e+000 74260 -5.4989e+001 -5.1378e+000  6.8159e+000 61444 74306,74107,74211
 1.7000e+000 74237 -5.8408e+001 -1.3339e+001  1.2278e+001 61444 74378,74185,74159
 1.7000e+000 74332 -6.9618e+001 -1.1810e+001 -1.0768e+001 61444 74159,74133,74306
 1.7000e+000 74355 -6.5979e+001 -9.7407e+000  8.8785e+000 61444 74378,74159,74306
 1.7000e+000 74404 -5.9568e+001 -9.1797e+000  6.6981e+000 61444 74211,74185,74378
 1.7000e+000 74427 -6.0607e+001 -6.7168e+000  7.0117e+000 61444 74211,74378,74306
 1.7000e+000 74628 -2.6276e+001 -3.5838e-001  1.1583e+001 60990 74478,74530,74504
 1.7000e+000 74605  1.7523e+000  3.6980e+000  7.5314e+000 60990 74452,74530,74478
 1.7000e+000 74582 -4.1825e+001 -1.3719e+000  8.7181e+000 60990 74452,74556,74530
 1.7000e+000 75089 -1.0417e+001 -1.4357e+000 -5.2641e+000 60486 75112,74945,74919
 1.7000e+000 75066 -1.7056e+001 -8.0221e+000 -7.4538e-001 60486 75112,74919,74867
 1.7000e+000 75043 -1.9990e+001 -4.8854e+000  3.3086e+000 60486 74841,74971,74867
 1.7000e+000 75020 -4.3042e+001 -1.5786e+001 -3.8421e+000 60486 74867,74919,74893
 1.7000e+000 74997 -1.1011e+001 -5.3172e-001  4.7146e+000 60486 74815,74971,74841
 1.7000e+000 75138 -1.8206e+001 -2.8265e+000 -1.2157e+000 60486 74971,74945,75112
 1.7000e+000 75161 -2.1216e+001 -4.0359e+000  2.2186e+000 60486 74971,75112,74867
 1.7000e+000 75409 -3.5547e+001 -8.9004e+000 -6.7382e-001 59932 75576,75432,75288
 1.7000e+000 75386 -4.2830e+001 -9.1719e+000 -5.9487e+000 59932 75504,75314,75288
 1.7000e+000 75363 -3.0356e+001  2.3054e+000  7.5066e+000 59932 75432,75236,75210
 1.7000e+000 75340 -2.2619e+001 -5.4635e+000 -1.7676e+000 59932 75576,75288,75262
 1.7000e+000 75458 -4.3404e+001 -1.0149e+001 -5.5685e+000 59932 75504,75288,75432
 1.7000e+000 75481 -4.2296e+001 -6.7626e+000  1.1757e+000 59932 75184,75432,75210
 1.7000e+000 75530 -5.0537e+001 -1.0509e+001 -3.4142e-001 59932 75184,75314,75504
 1.7000e+000 75553 -4.1314e+001 -9.2094e+000 -4.2545e+000 59932 75184,75504,75432
 1.7000e+000 75602 -4.3719e+001 -9.1280e+000  1.5596e+000 59932 75236,75432,75576
 1.7000e+000 75625 -4.0663e+001 -1.1424e+001 -3.5624e-001 59932 75236,75576,75262
 1.7000e+000 75873 -1.0634e+001 -8.5092e+000  1.7791e+001 59478 75674,75752,75700
 1.7000e+000 75850  2.2674e+000 -3.4866e+000  4.3568e+000 59478 75648,75752,75674
 1.7000e+000 75827 -4.3622e+000  2.9874e+000  2.3338e+001 59478 75700,75752,75726
 1.7000e+000 75804 -2.3281e+001  2.5698e+000  6.8502e+000 59478 75648,75778,75752
 1.7000e+000 76206  3.3824e+000  2.4546e+000 -4.6203e-001 59024 75981,76059,76007
 1.7000e+000 76183  4.2275e+000  3.9738e+000 -9.6915e-001 59024 75981,76111,76059
 1.7000e+000 76160  3.7148e+000  7.8544e-001  7.5567e-001 59024 76007,76059,76033
 1.7000e+000 76137  9.4962e+000  5.0733e+000  8.0780e+000 59024 76059,76111,76085
 1.7000e+000 76761 -5.2258e+001 -1.7586e+001  2.1922e+000 58562 76389,76441,76415
 1.7000e+000 76738 -5.5945e+001 -1.8957e+001 -7.3010e+000 58562 76856,76784,76389
 1.7000e+000 76715 -5.5946e+001 -1.8825e+001 -1.3211e+001 58562 76784,76571,76467
 1.7000e+000 76692 -6.9329e+001 -1.4751e+001 -8.5845e+000 58562 76856,76389,76597
 1.7000e+000 76669 -6.8117e+001 -3.7326e+001 -1.1184e+001 58562 76467,76545,76493
 1.7000e+000 76646 -5.1489e+001 -2.8282e+001 -1.5933e+001 58562 76467,76571,76545
 1.7000e+000 76623 -6.1823e+001 -1.7822e+001 -8.5683e-001 58562 76493,76545,76519
 1.7000e+000 76810 -6.0191e+001 -2.2958e+001 -4.7859e+000 58562 76441,76389,76784
 1.7000e+000 76833 -5.2047e+001 -1.8728e+001 -3.2538e+000 58562 76441,76784,76467
 1.7000e+000 76882 -7.0692e+001 -2.4754e+001 -1.3849e+001 58562 76571,76784,76856
 1.7000e+000 76905 -7.8881e+001 -1.6961e+001 -1.5382e+001 58562 76571,76856,76597
 1.7000e+000 77055 -6.3591e+001 -3.1135e+001  2.6094e+000 57844 76928,76980,76954
 1.7000e+000 77032 -5.1822e+001 -2.3166e+001 -1.5840e+000 57844 76928,77006,76980
 1.7000e+000 77533 -7.1938e+001 -2.7843e+001 -3.9672e-001 57226 77628,77556,77291
 1.7000e+000 77510 -6.9267e+001 -6.2766e+000  5.5814e+000 57226 77556,77187,77343
 1.7000e+000 77487 -5.0223e+001 -2.1079e+001 -5.1291e+000 57226 77628,77291,77265
 1.7000e+000 77464 -4.2035e+001 -2.5084e+001 -7.9001e+000 57226 77700,77213,77187
 1.7000e+000 77441 -1.0765e+002 -1.8178e+001  1.0374e+001 57226 77161,77343,77187
 1.7000e+000 77418 -7.3334e+001 -7.7491e+000  4.7318e+000 57226 77161,77369,77343
 1.7000e+000 77395 -3.7953e+001 -6.7973e+000 -1.8159e+001 57226 77213,77265,77239
 1.7000e+000 77582 -7.0651e+001 -2.2214e+001  3.2956e+000 57226 77317,77291,77556
 1.7000e+000 77605 -8.1674e+001 -1.1256e+001  1.7649e-001 57226 77317,77556,77343
 1.7000e+000 77654 -3.9637e+001 -1.2897e+001  4.6963e+000 57226 77187,77556,77628
 1.7000e+000 77677 -3.8698e+001 -2.5236e+001 -3.0798e+000 57226 77700,77187,77628
 1.7000e+000 77726 -5.3263e+001 -3.0092e+001 -1.1249e+001 57226 77265,77213,77700
 1.7000e+000 77749 -4.9193e+001 -2.8208e+001 -5.6693e+000 57226 77265,77700,77628
 1.7000e+000 78046 -5.8443e+001  1.4928e+001 -1.6434e-001 56936 77798,77850,77824
 1.7000e+000 78023 -5.4502e+001 -1.0982e+001 -7.2753e+000 56936 78069,77798,77902
 1.7000e+000 78000 -4.6593e+001 -1.0402e+001 -5.4469e+000 56936 78069,77902,77876
 1.7000e+000 77977 -7.3175e+001 -1.9863e+001 -1.2178e+001 56936 77798,77928,77902
 1.7000e+000 77954 -4.8219e+001 -7.5378e+000 -5.1968e+000 56936 77772,77928,77798
 1.7000e+000 78095 -5.7275e+001 -1.0713e+001 -7.8600e+000 56936 77850,77798,78069
 1.7000e+000 78118 -5.3625e+001 -1.2877e+001 -5.8855e+000 56936 77850,78069,77876
 1.7000e+000 78754 -3.6029e+000  1.3581e+001  4.0713e+000 56475 78777,78486,78408
 1.7000e+000 78731 -4.2074e+001 -1.3108e+001  1.5808e+001 56475 78777,78408,78382
 1.7000e+000 78708 -2.7246e+001 -7.3020e+000 -1.7875e+001 56475 78849,78512,78486
 1.7000e+000 78685 -5.3518e+000  1.3940e+001 -2.2877e+000 56475 78382,78590,78564
 1.7000e+000 78662 -6.0437e+001 -9.3176e+000 -3.2308e+001 56475 78512,78564,78538
 1.7000e+000 78639 -1.7707e+000  1.8878e+000  3.5005e+000 56475 78434,78486,78460
 1.7000e+000 78616 -8.9534e+000  6.4631e-001  3.8457e+000 56475 78408,78486,78434
 1.7000e+000 78803 -3.1821e+001  2.4786e+000 -6.4034e+000 56475 78849,78486,78777
 1.7000e+000 78826 -2.9855e+001  2.0045e+001  2.8985e+000 56475 78564,78777,78382
 1.7000e+000 78875 -2.0124e+001  1.2292e+001 -1.5821e+001 56475 78564,78512,78849
 1.7000e+000 78898 -2.4614e+001  2.4987e+001 -6.6386e+000 56475 78564,78849,78777
 1.7000e+000 79276 -2.0344e+001  1.9628e+001  7.9295e+000 55964 79299,79080,79028
 1.7000e+000 79253 -3.1972e+001  1.3438e+001  1.0248e+001 55964 79299,79028,79132
 1.7000e+000 79230 -2.3210e+001 -7.7206e+000  6.6774e+000 55964 79028,79080,79054
 1.7000e+000 79207 -3.7949e+001 -1.4961e+001 -2.8684e+000 55964 79002,79132,79028
 1.7000e+000 79184 -1.9732e+001 -6.6405e+000 -8.6870e+000 55964 79002,79158,79132
 1.7000e+000 79325 -2.4653e+001  2.7262e+001 -2.6621e+000 55964 79106,79080,79299
 1.7000e+000 79348 -3.8137e+001  1.9856e+001  2.0272e-001 55964 79106,79299,79132
 1.7000e+000 79498 -6.4392e+001  3.0673e+001 -1.7674e+001 55452 79397,79449,79423
 1.7000e+000 79475 -4.2369e+001  1.0278e+001 -8.0700e+000 55452 79371,79449,79397
 1.7000e+000 79795 -1.4077e+001  1.3350e+001  6.1712e+000 55048 79962,79818,79573
 1.7000e+000 79772 -1.9888e+001  3.0668e-001 -3.8705e+000 55048 79818,79521,79677
 1.7000e+000 79749 -8.7983e+000 -8.8009e+000  8.4688e+000 55048 79599,79651,79625
 1.7000e+000 79726 -2.1505e+001 -2.7889e+000  5.3786e+000 55048 79890,79651,79599
 1.7000e+000 79703 -2.4341e+000  2.7238e+001  1.4629e+001 55048 79962,79573,79547
 1.7000e+000 79844 -1.9758e+001  3.8566e+000  3.3132e+000 55048 79599,79573,79818
 1.7000e+000 79867 -1.9483e+001  3.4927e+000  3.2101e+000 55048 79890,79599,79818
 1.7000e+000 79916 -1.7363e+001  2.3028e-001 -6.2802e-001 55048 79677,79651,79890
 1.7000e+000 79939 -1.7062e+001  2.8026e+000 -2.7060e+000 55048 79677,79890,79818
 1.7000e+000 79988 -2.1036e+001  4.8145e+000 -3.9013e+000 55048 79521,79818,79962
 1.7000e+000 80011 -1.8552e+001  8.2976e+000  2.9041e+000 55048 79521,79962,79547
 1.7000e+000 80212 -5.9832e+001  4.9556e+000  7.3462e+000 54436 80235,80088,80036
 1.7000e+000 80189 -4.1443e+001 -4.5439e-001  8.3898e+000 54436 80235,80036,80140
 1.7000e+000 80166 -5.8181e+001 -2.6435e+000  2.3483e-001 54436 80036,80088,80062
 1.7000e+000 80261 -4.5284e+001  3.8559e-001  1.6972e+001 54436 80114,80088,80235
 1.7000e+000 80284 -2.0594e+001  6.4339e-001  1.8902e+001 54436 80114,80235,80140
 1.7000e+000 80534 -4.8886e+001  1.9991e+000  4.0910e+000 54032 80557,80361,80335
 1.7000e+000 80511 -4.5265e+001  1.3066e+001 -2.8382e+000 54032 80557,80335,80309
 1.7000e+000 80488 -3.9878e+001  3.0832e+000  2.0543e+000 54032 80629,80413,80387
 1.7000e+000 80465 -1.0234e+001 -5.5690e+000 -2.1378e+000 54032 80309,80439,80413
 1.7000e+000 80583 -4.8659e+001 -2.1358e+001  8.9185e+000 54032 80387,80361,80557
 1.7000e+000 80606 -4.0506e+001  2.0804e+000  3.7366e+000 54032 80629,80387,80557
 1.7000e+000 80655 -4.1776e+001  1.9924e+000  3.2440e+000 54032 80309,80413,80629
 1.7000e+000 80678 -4.2951e+001  1.6738e+000  4.6979e+000 54032 80309,80629,80557
 1.7000e+000 81139 -4.5046e+001 -1.6243e+001  2.1914e+001 53784 80865,80995,80917
 1.7000e+000 81116 -5.1793e+001 -1.1648e+001  1.8691e+000 53784 80865,81021,80995
 1.7000e+000 81093 -3.0693e+001 -1.5940e+001  1.3845e+001 53784 80943,80995,80969
 1.7000e+000 81070 -3.2211e+001 -3.1115e+001  1.8168e+001 53784 80917,80995,80943
 1.7000e+000 81047 -6.9774e+001  8.2980e+001  4.2541e+001 53784 80865,80917,80891
 1.7000e+000 81468 -4.8903e+001 -1.8706e+001  4.2678e+000 53230 81295,81373,81347
 1.7000e+000 81445 -3.3423e+001 -4.7544e+000  1.2152e+001 53230 81243,81373,81295
 1.7000e+000 81422 -3.1869e+001 -7.1583e+000  1.3776e+001 53230 81243,81295,81269
 1.7000e+000 81399 -5.4724e+001 -2.1305e+001  4.7608e+000 53230 81295,81347,81321
 1.7000e+000 81618 -1.2042e+002  6.0346e+001 -2.6478e+001 52790 81491,81543,81517
 1.7000e+000 81595 -1.1211e+002 -8.9256e+000 -1.9152e+001 52790 81491,81569,81543
 1.7000e+000 82126  1.4594e+000  7.2844e+000  4.6418e+000 52386 82149,81907,81881
 1.7000e+000 82103  1.9461e+000  1.3444e+001  1.1396e+001 52386 82149,81881,81855
 1.7000e+000 82080 -7.6949e+000 -5.6784e+000 -1.8538e+000 52386 82221,81803,81985
 1.7000e+000 82057  9.3643e+000  1.5747e+001  1.1664e+001 52386 81803,81855,81829
 1.7000e+000 82034  2.6824e+000  1.2417e+000 -3.3482e+000 52386 81907,81985,81933
 1.7000e+000 82011  5.4998e+000  5.0776e-001 -3.0179e+000 52386 81933,81985,81959
 1.7000e+000 82175  1.2243e+000  7.9865e+000  4.2142e+000 52386 81985,81907,82149
 1.7000e+000 82198 -9.7658e-001  1.8150e+000  3.2529e+000 52386 82221,81985,82149
 1.7000e+000 82247 -6.6793e+000  6.0601e+000  5.0075e+000 52386 81855,81803,82221
 1.7000e+000 82270 -6.2362e+000  1.0931e+001  8.3071e+000 52386 81855,82221,82149
 1.7000e+000 82825 -9.4926e+001 -2.2971e+001 -2.2745e+001 51782 82505,82661,82635
 1.7000e+000 82802 -5.1710e+001 -2.4385e+001  1.1262e+001 51782 82479,82661,82505
 1.7000e+000 82779 -5.6312e+001 -2.3023e+001  1.4790e+001 51782 82557,82635,82609
 1.7000e+000 82756 -6.6397e+001 -4.7494e+001  6.8738e-001 51782 82531,82635,82557
 1.7000e+000 82733 -9.2824e+001 -1.2816e+001 -7.8960e+000 51782 82505,82635,82531
 1.7000e+000 82710 -7.2706e+001 -4.9916e+001 -6.1681e+000 51782 82453,82661,82479
 1.7000e+000 82687 -5.5485e+001 -2.3044e+001  1.4889e+001 51782 82557,82609,82583
 1.7000e+000 83171 -4.0600e+001  6.4572e+000 -8.2437e+000 51442 83194,82978,82900
 1.7000e+000 83148 -5.8948e+001  6.5793e+000 -1.3317e+001 51442 83194,82900,82874
 1.7000e+000 83125 -6.4826e+001 -3.6662e+000 -5.5572e+000 51442 82900,82978,82926
 1.7000e+000 83102 -7.4197e+001 -1.2971e+001 -1.2692e+001 51442 82874,83030,83004
 1.7000e+000 83079 -1.9612e+001  8.2516e+000 -1.0151e+001 51442 82926,82978,82952
 1.7000e+000 83056 -2.6284e+001 -4.3109e+000 -7.6817e+000 51442 82848,83030,82874
 1.7000e+000 83220 -2.2193e+001  3.2596e+000 -7.1442e+000 51442 83004,82978,83194
 1.7000e+000 83243 -4.4520e+001 -3.8909e-001 -1.3524e+001 51442 83004,83194,82874
 1.7000e+000 83751 -2.9461e+001  9.0618e-001  7.9184e+000 50938 83428,83584,83454
 1.7000e+000 83728 -4.7356e+001 -4.8751e+000 -2.8647e+000 50938 83428,83610,83584
 1.7000e+000 83705 -5.0078e+001 -1.0124e+001  1.2914e+000 50938 83454,83584,83558
 1.7000e+000 83682 -7.2800e+001 -1.1506e+001 -4.7022e+000 50938 83454,83532,83480
 1.7000e+000 83659 -6.7972e+001 -1.9134e+001 -4.7537e+000 50938 83454,83558,83532
 1.7000e+000 83636 -4.6394e+001  9.3034e+000  4.4683e+000 50938 83480,83532,83506
 1.7000e+000 84355 -5.9201e+001 -3.4791e+001  2.4818e+000 50377 84378,83960,83934
 1.7000e+000 84332 -5.0449e+001 -1.8198e+001 -3.8732e+000 50377 84522,84378,83934
 1.7000e+000 84309 -7.4349e+001 -3.7303e+001 -8.4193e+000 50377 84450,84038,84012
 1.7000e+000 84286 -5.1943e+001 -1.6777e+001 -3.8526e+000 50377 84522,83934,84142
 1.7000e+000 84263 -6.4866e+001 -5.4108e+001  6.8847e+000 50377 84594,84090,84038
 1.7000e+000 84240 -2.6542e+001 -2.9233e+001  1.7771e+000 50377 83960,84012,83986
 1.7000e+000 84217 -4.8355e+001 -1.2098e+001 -9.2648e+000 50377 83934,84168,84142
 1.7000e+000 84194 -2.8266e+001 -3.4591e+001  1.4323e+001 50377 84038,84090,84064
 1.7000e+000 84404 -2.3241e+001 -2.0792e+001  9.0126e-001 50377 84012,83960,84378
 1.7000e+000 84427 -5.4938e+001 -3.0180e+001 -1.1146e+001 50377 84450,84012,84378
 1.7000e+000 84476 -7.2897e+001 -4.3937e+001  4.3317e+000 50377 84594,84038,84450
 1.7000e+000 84499 -6.4362e+001 -2.6591e+001 -1.1221e+000 50377 84116,84450,84378
 1.7000e+000 84548 -5.1670e+001 -1.9614e+001 -4.4515e+000 50377 84116,84378,84522
 1.7000e+000 84571 -5.3010e+001 -1.7978e+001 -4.3874e+000 50377 84116,84522,84142
 1.7000e+000 84620 -5.6190e+001 -4.0147e+001  5.8751e-001 50377 84116,84090,84594
 1.7000e+000 84643 -6.2757e+001 -2.9462e+001 -2.6291e+000 50377 84116,84594,84450
 1.7000e+000 84842 -4.6116e+001  5.0665e+000 -1.8398e+001 49923 84865,84692,84666
 1.7000e+000 84819 -1.8334e+001 -1.2969e+000  8.7767e-001 49923 84865,84666,84770
 1.7000e+000 84796  2.0920e+001  1.1791e+001 -2.0015e+000 49923 84692,84744,84718
 1.7000e+000 84891 -2.7844e+001  1.3429e+001 -3.5288e+000 49923 84744,84692,84865
 1.7000e+000 84914  4.3392e+000  1.7554e+001  1.8173e+001 49923 84744,84865,84770
 1.7000e+000 85501 -6.6458e+001 -2.5365e+001  9.2501e-002 49618 85524,85282,85204
 1.7000e+000 85478 -6.7970e+001 -2.1090e+001  5.9961e+000 49618 85596,85524,85204
 1.7000e+000 85455 -6.5077e+001 -1.8241e+001  7.1497e+000 49618 85596,85204,85178
 1.7000e+000 85432 -6.7955e+001 -3.7060e+001  4.7762e+000 49618 85204,85282,85256
 1.7000e+000 85409 -4.5848e+001 -5.8914e+000 -3.1187e+000 49618 85282,85334,85308
 1.7000e+000 85386 -6.0825e+001 -2.2204e+001  5.4748e-001 49618 85204,85256,85230
 1.7000e+000 85550 -5.6345e+001 -1.0415e+001 -8.5031e+000 49618 85334,85282,85524
 1.7000e+000 85573 -8.7616e+001 -2.2818e+001 -5.0594e+000 49618 85334,85524,85360
 1.7000e+000 85622 -7.2320e+001 -1.6051e+001  5.5402e+000 49618 85360,85524,85596
 1.7000e+000 85645 -7.0253e+001 -1.4386e+001  6.2613e+000 49618 85360,85596,85178
 1.7000e+000 85795 -2.3134e+002 -7.1869e+001  1.9514e+001 49278 85694,85746,85720
 1.7000e+000 85772 -2.6194e+002 -7.3842e+001  3.2860e+000 49278 85668,85746,85694
 1.7000e+000 86197 -8.8370e+001 -5.4663e+001 -9.3230e+000 48916 86001,86079,86027
 1.7000e+000 86174 -8.9277e+001 -6.0086e+001 -1.1190e+001 48916 85949,86079,86001
 1.7000e+000 86151 -1.0505e+002 -7.9997e+001 -4.3217e+000 48916 85949,86001,85975
 1.7000e+000 86128 -9.3895e+001 -4.8785e+001 -4.4412e-001 48916 86027,86079,86053
 1.7000e+000 86105 -1.4510e+002 -7.9945e+001 -1.3627e+001 48916 85923,86079,85949
 1.7000e+000 86477  8.7907e+000 -5.0600e+000  1.4890e+001 48398 86327,86379,86353
 1.7000e+000 86454 -7.5615e+000 -1.7928e+001  5.9631e+000 48398 86500,86379,86327
 1.7000e+000 86431  1.0364e+000 -1.6476e+001  7.9570e+000 48398 86301,86405,86379
 1.7000e+000 86526 -6.1546e+000 -1.6699e+001  6.5993e+000 48398 86301,86379,86500
 1.7000e+000 87032 -4.9807e+001 -1.3096e+001  1.3358e+000 48008 87127,87055,86787
 1.7000e+000 87009 -5.2175e+001 -2.1746e+001  2.0999e+000 48008 87055,86735,86709
 1.7000e+000 86986 -4.9242e+001 -1.3970e+001  1.3042e+000 48008 87127,86787,86761
 1.7000e+000 86963 -4.3082e+001 -1.7119e+001  6.2592e+000 48008 86787,86865,86839
 1.7000e+000 86940 -5.8482e+001 -1.9984e+001  4.4868e-001 48008 86709,86891,86865
 1.7000e+000 86917 -6.3089e+001 -8.1247e+000  1.6530e+001 48008 86787,86839,86813
 1.7000e+000 87081 -5.1384e+001 -1.7531e+001  1.3886e+000 48008 86865,86787,87055
 1.7000e+000 87104 -4.9162e+001 -1.7596e+001  2.1914e-001 48008 86865,87055,86709
 1.7000e+000 87153 -4.7951e+001 -1.8480e+001 -1.0071e-001 48008 86735,87055,87127
 1.7000e+000 87176 -4.0618e+001 -1.0444e+001 -3.1587e+000 48008 86735,87127,86761
 1.7000e+000 87456  1.5745e+000 -1.3393e+000 -7.4159e+000 47604 87306,87358,87332
 1.7000e+000 87433 -9.1845e+000 -9.0429e+000 -3.4605e+000 47604 87306,87384,87358
 1.7000e+000 87410 -4.8855e+000 -7.0529e+000 -2.5820e-001 47604 87280,87384,87306
 1.7000e+000 87785  7.2013e+000  3.0384e+000  6.9434e+000 47264 87638,87690,87664
 1.7000e+000 87762  3.1678e+000  1.3470e+001  6.1926e+000 47264 87612,87690,87638
 1.7000e+000 87739 -1.7485e+000  3.9008e+000  4.4805e+000 47264 87560,87690,87612
 1.7000e+000 87716  2.6435e+000 -6.7557e-001 -1.2266e+000 47264 87560,87612,87586
 1.7000e+000 87935 -1.0585e+002 -4.5386e+001  4.4435e+000 46952 87808,87860,87834
 1.7000e+000 87912 -8.3086e+001 -2.5632e+000 -5.3728e+000 46952 87808,87886,87860
 1.7000e+000 88281 -6.2368e+001 -1.2362e+001 -5.1315e-003 46526 88304,88114,88036
 1.7000e+000 88258 -5.1355e+001 -7.8555e+000  2.1089e+000 46526 88304,88036,87984
 1.7000e+000 88235 -6.2478e+001 -9.9411e+000 -7.2327e+000 46526 88036,88114,88062
 1.7000e+000 88212 -4.2414e+001  1.2270e+001  4.2552e+001 46526 87958,88140,87984
 1.7000e+000 88189 -4.8221e+001 -2.1284e-001 -1.0200e+000 46526 87984,88036,88010
 1.7000e+000 88166 -7.2306e+001 -2.2346e+001 -1.3488e+001 46526 88062,88114,88088
 1.7000e+000 88330 -7.1565e+001 -6.2728e+000  1.7529e-001 46526 88140,88114,88304
 1.7000e+000 88353 -6.3845e+001 -4.1953e+000  1.7959e+000 46526 88140,88304,87984
 1.7000e+000 88701 -1.6267e+001 -1.3895e+001 -6.3893e+000 45822 88724,88378,88534
 1.7000e+000 88678 -1.5216e+001  1.3514e+000 -4.5086e+000 45822 88378,88560,88534
 1.7000e+000 88655 -1.5594e+001 -1.6700e+001 -1.6537e+000 45822 88724,88534,88508
 1.7000e+000 88632 -1.4601e+001 -7.8477e+000 -2.1669e+000 45822 88404,88508,88456
 1.7000e+000 88609 -1.1577e+001 -3.5994e+000 -6.6319e+000 45822 88404,88456,88430
 1.7000e+000 88586 -2.0119e+001 -1.7964e+001  3.0642e+000 45822 88456,88508,88482
 1.7000e+000 88750 -1.5620e+001 -7.9537e+000 -6.8570e+000 45822 88404,88378,88724
 1.7000e+000 88773 -1.4965e+001 -1.1461e+001 -2.4667e+000 45822 88404,88724,88508
 1.7000e+000 89106 -8.5843e+001 -2.2757e+001 -5.0506e+000 45418 88881,88985,88907
 1.7000e+000 89083 -6.7531e+001 -2.4086e+001 -7.4276e+000 45418 88881,89011,88985
 1.7000e+000 89060 -6.9905e+001 -2.9839e+001 -1.0358e+001 45418 88907,88985,88933
 1.7000e+000 89037 -3.1171e+001 -1.2033e+001  7.3668e+000 45418 88933,88985,88959
 1.7000e+000 89435 -4.7880e+001 -1.4008e+001  6.5059e+000 44914 89210,89288,89236
 1.7000e+000 89412 -3.2585e+001 -1.9442e+000 -4.6074e+000 44914 89210,89314,89288
 1.7000e+000 89389 -3.8355e+001  2.0622e+000 -6.8865e+000 44914 89210,89340,89314
 1.7000e+000 89366 -3.7448e+001 -6.8625e+000  1.4381e+000 44914 89236,89288,89262
 1.7000e+000 89634  8.0134e+000  9.4505e+000  6.4652e+000 44538 89510,89562,89536
 1.7000e+000 89611 -2.5441e+000  6.1096e+000 -5.3026e+000 44538 89458,89562,89510
 1.7000e+000 89588  1.7159e+000 -9.8103e+000 -6.3335e+000 44538 89458,89510,89484
 1.7000e+000 90044 -9.3142e+001 -4.9652e+001  7.5616e+000 44134 89819,89923,89845
 1.7000e+000 90021 -8.0775e+001 -1.6758e+001  6.9976e+000 44134 89819,89949,89923
 1.7000e+000 89998 -7.1005e+001 -3.8053e+001 -3.1718e+000 44134 89845,89923,89897
 1.7000e+000 89975 -4.9116e+001 -1.8109e+000  8.9197e+000 44134 89845,89897,89871
 1.7000e+000 90520 -8.4723e+001 -4.0254e+001  1.2350e+000 43457 90543,90252,90226
 1.7000e+000 90497 -7.0435e+001 -3.3897e+001  3.4846e+000 43457 90543,90226,90330
 1.7000e+000 90474 -8.3351e+001 -3.2707e+001 -4.2173e+000 43457 90200,90330,90226
 1.7000e+000 90451 -8.8074e+001 -3.8231e+001 -9.6028e+000 43457 90200,90356,90330
 1.7000e+000 90428 -9.1182e+001 -1.8591e+001  1.8904e+001 43457 90252,90304,90278
 1.7000e+000 90405 -4.2200e+001 -1.3529e+001  9.0334e+000 43457 90174,90356,90200
 1.7000e+000 90382 -7.2964e+001 -6.3855e+001 -8.7093e+000 43457 90148,90356,90174
 1.7000e+000 90569 -9.8471e+001 -3.1187e+001  1.5548e+001 43457 90304,90252,90543
 1.7000e+000 90592 -7.3227e+001 -1.8416e+001  2.0983e+001 43457 90304,90543,90330
 1.7000e+000 91098 -1.5637e+001 -9.3596e+000  6.7728e+000 42789 90801,90905,90853
 1.7000e+000 91075 -2.2420e+001 -1.1371e+001  9.7338e+000 42789 90775,90905,90801
 1.7000e+000 91052 -2.6254e+001 -1.0277e+001  2.4282e+000 42789 90775,90931,90905
 1.7000e+000 91029 -2.6965e+000  7.7542e+000  1.5771e+001 42789 90801,90853,90827
 1.7000e+000 91006 -2.9431e+001 -1.9058e+001  2.4776e+001 42789 90853,90905,90879
 1.7000e+000 90983 -4.0029e+001 -3.6169e+000  7.9357e+000 42789 90775,90957,90931
 1.7000e+000 91427 -7.1685e+001 -5.7454e+000 -8.1686e+000 42227 91228,91280,91254
 1.7000e+000 91404 -8.2563e+001 -3.1363e+001  3.2608e+000 42227 91228,91306,91280
 1.7000e+000 91381 -7.6080e+001 -2.8326e+001  4.3916e+000 42227 91202,91306,91228
 1.7000e+000 91358 -7.1815e+001 -2.9025e+001  5.5671e-001 42227 91202,91332,91306
 1.7000e+000 91675 -1.4844e+001 -3.8904e+000 -6.6343e+000 41773 91698,91476,91450
 1.7000e+000 91652 -1.4492e+001 -7.1770e+000 -1.1985e+000 41773 91698,91450,91554
 1.7000e+000 91629 -1.8909e+001 -1.6383e+001  1.3002e+000 41773 91450,91580,91554
 1.7000e+000 91606 -2.3078e+001 -4.0789e+000  3.7541e+000 41773 91502,91554,91528
 1.7000e+000 91724 -1.8611e+001 -6.3552e+000 -4.4825e+000 41773 91502,91476,91698
 1.7000e+000 91747 -1.9339e+001 -1.0186e+001  1.0725e+000 41773 91502,91698,91554
 1.7000e+000 92127 -6.0948e+001 -1.3782e+001 -1.0685e+000 41255 92150,91905,91879
 1.7000e+000 92104 -8.5528e+001 -2.1519e+001  9.2059e+000 41255 92150,91879,91957
 1.7000e+000 92081 -6.2311e+001 -4.2544e+001  2.8666e+001 41255 91853,91957,91879
 1.7000e+000 92058 -7.1426e+001 -5.8950e+001  8.5154e+000 41255 91853,91983,91957
 1.7000e+000 92035 -4.8413e+001 -3.3737e+001 -1.7518e+000 41255 91853,92009,91983
 1.7000e+000 92176 -8.3729e+001 -2.3511e+000  1.3418e+001 41255 91931,91905,92150
 1.7000e+000 92199 -1.2299e+002 -2.9233e+001  2.9243e+001 41255 91931,92150,91957
 1.7000e+000 92518 -9.3868e+001 -1.3716e+001  6.3589e+000 41007 92244,92374,92270
 1.7000e+000 92495 -7.0448e+001  6.6501e+000 -2.7553e+000 41007 92244,92400,92374
 1.7000e+000 92472 -9.5321e+001 -2.4146e+001  6.4877e-001 41007 92270,92374,92348
 1.7000e+000 92449 -1.2259e+002 -5.8388e+001  4.3076e+000 41007 92296,92348,92322
 1.7000e+000 92426 -1.0581e+002 -5.1235e+001  6.4380e+000 41007 92270,92348,92296
 1.7000e+000 92668 -3.4536e+001 -2.0698e+001 -4.2341e+000 40717 92823,92691,92567
 1.7000e+000 92645 -3.2743e+001 -1.6908e+001 -3.2530e+000 40717 92895,92823,92567
 1.7000e+000 92717 -4.3245e+001 -2.2787e+001  1.0229e+001 40717 92593,92567,92691
 1.7000e+000 92849 -2.6878e+001 -1.8626e+001 -7.1080e+000 40717 92619,92691,92823
 1.7000e+000 92872 -3.7581e+001 -2.0630e+001 -5.0613e+000 40717 92619,92823,92541
 1.7000e+000 92921 -4.3544e+001 -2.3658e+001  8.2355e-002 40717 92541,92823,92895
 1.7000e+000 93634 -7.0922e+001 -3.1608e+001 -9.0495e+000 40206 93366,93444,93418
 1.7000e+000 93611 -5.5302e+001 -1.4522e+001 -9.6978e-001 40206 93288,93444,93366
 1.7000e+000 93588 -5.8196e+001 -2.8186e+001 -4.7413e-001 40206 93288,93366,93314
 1.7000e+000 93565 -1.0328e+002 -3.5619e+001 -4.7721e+000 40206 93262,93444,93288
 1.7000e+000 93542 -8.6625e+001 -1.6206e+001  1.4105e+000 40206 93366,93418,93392
 1.7000e+000 93519 -1.3140e+002 -4.5713e+000 -2.9080e+000 40206 93262,93470,93444
 1.7000e+000 93496 -4.6715e+001 -2.3335e+001  5.7216e-001 40206 93314,93366,93340
 1.7000e+000 94189 -4.2469e+001 -1.3865e+001  6.7927e+000 39802 93843,93999,93973
 1.7000e+000 94166 -5.0709e+001 -1.8712e+001  1.0011e+001 39802 93817,93999,93843
 1.7000e+000 94143 -7.4586e+001 -1.5468e+001  1.0274e+001 39802 93869,93973,93947
 1.7000e+000 94120 -4.3904e+001 -9.2815e-001  6.1421e+000 39802 93843,93973,93869
 1.7000e+000 94097 -4.1608e+001 -3.2400e-002 -1.6704e+000 39802 93869,93921,93895
 1.7000e+000 94074 -4.2571e+001 -2.4837e+000 -6.2759e-001 39802 93869,93947,93921
 1.7000e+000 94051 -3.6008e+001 -1.0268e+001  4.2137e+000 39802 93817,94025,93999
 1.7000e+000 94290 -8.0972e+001 -2.1387e+001 -1.4042e+000 39398 94212,94264,94238
 1.7000e+000 94798 -2.6862e+001 -5.3377e+000  3.7535e-001 38701 94501,94657,94631
 1.7000e+000 94775 -1.4289e+001 -5.2426e+000 -1.1596e+000 38701 94475,94657,94501
 1.7000e+000 94752 -3.4969e+001 -2.2393e+001  9.0293e-001 38701 94579,94631,94605
 1.7000e+000 94729 -3.1224e+001 -4.6073e+000 -2.0393e+000 38701 94553,94631,94579
 1.7000e+000 94706 -5.2196e+000  4.8398e+000 -6.8851e+000 38701 94501,94631,94553
 1.7000e+000 94683 -6.1547e+000 -5.1928e-001 -7.7100e+000 38701 94501,94553,94527
 1.7000e+000 95255 -1.5198e+001  1.6210e+000  7.6937e+000 38247 95278,95085,95007
 1.7000e+000 95232 -1.7837e+001  9.3471e-001  8.1475e+000 38247 95278,95007,95137
 1.7000e+000 95209 -2.2539e+001 -1.7173e+000  5.3069e+000 38247 94981,95137,95007
 1.7000e+000 95186 -3.1541e+001 -1.8354e+001 -1.4554e-001 38247 95007,95059,95033
 1.7000e+000 95163 -3.2331e+001 -1.3342e+001  1.4178e+001 38247 95007,95085,95059
 1.7000e+000 95304 -1.4053e+001  2.1016e+000  5.2204e+000 38247 95111,95085,95278
 1.7000e+000 95327 -1.6494e+001  9.0534e-001  5.9669e+000 38247 95111,95278,95137
 1.7000e+000 95575 -8.9871e+001  4.6856e+001 -1.2140e+001 37564 95376,95428,95402
 1.7000e+000 95552 -9.4183e+001 -2.7287e+001 -6.9520e+000 37564 95376,95454,95428
 1.7000e+000 95529 -7.8572e+001 -2.3287e+001 -1.0165e+001 37564 95376,95480,95454
 1.7000e+000 95506 -7.2181e+001 -1.3845e+001 -6.7547e+000 37564 95350,95480,95376
 1.7000e+000 96034 -1.7476e+001  6.2395e-001  3.2300e+000 37224 95786,95838,95812
 1.7000e+000 96011 -1.7850e+001 -6.2550e+000  7.5531e+000 37224 95786,95890,95838
 1.7000e+000 95988 -7.7424e+000 -2.0859e+000  4.0120e+000 37224 95786,95916,95890
 1.7000e+000 95965 -3.8101e+001 -8.3030e+000 -4.4513e+000 37224 95760,95916,95786
 1.7000e+000 95942 -8.7962e+000 -1.5314e+001 -6.2107e+000 37224 95838,95890,95864
 1.7000e+000 96363 -2.1573e+000  4.6000e+000 -5.2115e+000 36884 96216,96268,96242
 1.7000e+000 96340 -2.3584e+001  1.2457e+001 -2.4557e+000 36884 96164,96268,96216
 1.7000e+000 96317 -3.6030e+001 -5.4323e+000  1.1230e+001 36884 96138,96268,96164
 1.7000e+000 96294 -2.7325e+001  6.9291e+000  2.4083e+000 36884 96164,96216,96190
 1.7000e+000 96839 -7.2056e+001 -2.7039e+001  1.4720e-001 36572 96862,96649,96597
 1.7000e+000 96816 -7.3486e+001 -2.9422e+001  7.8148e-001 36572 97006,96862,96597
 1.7000e+000 96793 -7.3525e+001 -3.0098e+001  4.0130e+000 36572 96934,96467,96675
 1.7000e+000 96770 -7.1258e+001 -3.0094e+001  2.2306e+000 36572 97006,96597,96571
 1.7000e+000 96747 -7.7606e+001 -2.6292e+001 -1.4282e+001 36572 96467,96519,96493
 1.7000e+000 96724 -1.5968e+002 -1.5482e+001  5.0789e+001 36572 96519,96571,96545
 1.7000e+000 96701 -5.2056e+001 -5.1075e+000  1.5035e+001 36572 96597,96649,96623
 1.7000e+000 96888 -7.4548e+001 -2.7286e+001  2.2132e+000 36572 96675,96649,96862
 1.7000e+000 96911 -7.5209e+001 -2.9544e+001  3.6561e+000 36572 96934,96675,96862
 1.7000e+000 96960 -7.3974e+001 -2.9497e+001  4.0800e+000 36572 96519,96467,96934
 1.7000e+000 96983 -7.3011e+001 -2.7947e+001  2.9494e+000 36572 97078,96934,96862
 1.7000e+000 97032 -7.0538e+001 -2.7675e+001  1.9718e+000 36572 97078,96862,97006
 1.7000e+000 97055 -6.8215e+001 -2.8287e+001  4.5918e+000 36572 96519,97006,96571
 1.7000e+000 97104 -7.3543e+001 -2.8707e+001  4.3390e+000 36572 96519,96934,97078
 1.7000e+000 97127 -7.2793e+001 -2.9220e+001  3.3367e+000 36572 96519,97078,97006
 1.7000e+000 97761 -6.3651e+001 -1.7468e+001  1.6955e+001 36118 97784,97493,97415
 1.7000e+000 97738 -7.1382e+001 -1.5260e+001  1.3404e+001 36118 97784,97415,97597
 1.7000e+000 97715 -1.2148e+002 -2.4043e+001  2.9047e+001 36118 97389,97597,97415
 1.7000e+000 97692 -1.1316e+002 -3.0360e+001  2.9019e+001 36118 97415,97467,97441
 1.7000e+000 97669 -1.0099e+002 -3.2454e+001  4.1340e+001 36118 97415,97493,97467
 1.7000e+000 97646 -5.8157e+001 -5.0379e+001 -4.7295e+000 36118 97493,97571,97519
 1.7000e+000 97623 -3.4945e+001 -1.4207e+001  8.0837e+000 36118 97519,97571,97545
 1.7000e+000 97810 -6.9410e+001 -1.6733e+001  1.2345e+001 36118 97571,97493,97784
 1.7000e+000 97833 -8.4065e+001 -1.9185e+001  8.8213e+000 36118 97571,97784,97597
 1.7000e+000 98081 -8.8894e+001 -4.1757e+001  2.4509e+000 35564 98104,97908,97856
 1.7000e+000 98058 -9.4728e+001 -4.6905e+001  5.5721e+000 35564 98104,97856,97986
 1.7000e+000 98035 -1.1931e+002 -5.5900e+001  1.9166e+000 35564 97934,97986,97960
 1.7000e+000 98012 -7.8986e+001 -1.4375e+001 -6.7528e+000 35564 97856,97908,97882
 1.7000e+000 98130 -9.6290e+001 -2.1590e+001  1.7363e+000 35564 97934,97908,98104
 1.7000e+000 98153 -1.0461e+002 -3.8720e+001  8.5516e+000 35564 97934,98104,97986
 1.7000e+000 98374 -1.1707e+002 -3.6420e+001 -3.7595e+000 35152 98224,98302,98276
 1.7000e+000 98351 -9.9045e+001  4.1098e+000  7.5565e-003 35152 98198,98302,98224
 1.7000e+000 98328 -9.8914e+001 -3.1233e+001 -7.0340e+000 35152 98224,98276,98250
 1.7000e+000 98884 -2.2564e+001 -2.3253e-001  2.5445e+000 34698 98691,98743,98717
 1.7000e+000 98861 -2.1863e+001  9.9520e-001  2.5075e+000 34698 98561,98743,98691
 1.7000e+000 98838 -2.0162e+001 -8.8463e-001  5.3374e+000 34698 98907,98587,98561
 1.7000e+000 98815 -2.0225e+001 -3.4410e+000  2.6957e+000 34698 98907,98561,98691
 1.7000e+000 98792 -1.1303e+001 -6.5896e-001 -1.6586e+000 34698 98587,98639,98613
 1.7000e+000 98769 -2.8482e+001 -1.8653e+001  1.4182e+001 34698 98587,98665,98639
 1.7000e+000 98933 -1.7274e+001 -8.3332e-001  7.7897e+000 34698 98665,98587,98907
 1.7000e+000 98956 -1.7302e+001 -4.5179e+000  5.0770e+000 34698 98665,98907,98691
 1.7000e+000 99204 -6.1584e+001 -3.0660e+000 -6.1327e+000 34144 99227,99031,99005
 1.7000e+000 99181 -6.3294e+001 -1.3595e+001  3.7793e+000 34144 99299,99227,99005
 1.7000e+000 99158 -6.8364e+001 -1.1858e+001  9.5707e+000 34144 99299,99005,99109
 1.7000e+000 99135 -5.0185e+001 -1.1450e+001  1.1348e+001 34144 98979,99109,99005
 1.7000e+000 99253 -5.7605e+001 -8.6884e+000 -1.5683e+000 34144 99057,99031,99227
 1.7000e+000 99276 -1.7817e+001 -1.4825e+000 -3.7837e+000 34144 99057,99227,99083
 1.7000e+000 99325 -5.2938e+001 -1.9671e+000 -1.0314e+001 34144 99083,99227,99299
 1.7000e+000 99348 -7.1019e+001 -5.9582e+000 -4.5265e+000 34144 99083,99299,99109
 1.7000e+000 99498 -2.1224e+002 -5.5815e+001  2.5026e+001 33433 99397,99449,99423
 1.7000e+000 99475 -2.4696e+002 -6.2812e+001  2.8115e+000 33433 99371,99449,99397
 1.7000e+000 100008 -4.8632e+001 -1.6789e+001  6.1281e+000 32979 100103,100031,99815
 1.7000e+000 99985 -5.2553e+001 -6.0881e+000 -2.7346e+000 32979 100175,100031,99763
 1.7000e+000 99962 -5.3597e+001 -1.2802e+001  1.0149e+001 32979 100103,99815,99789
 1.7000e+000 99939 -5.4897e+001 -5.5867e+000 -7.2494e-001 32979 100175,99763,99737
 1.7000e+000 99916 -5.2957e+001  1.0411e+001 -2.4169e+000 32979 99685,99867,99737
 1.7000e+000 99893 -4.1458e+001 -2.0639e+000 -1.8563e+001 32979 99685,99737,99711
 1.7000e+000 100057 -4.4860e+001 -1.3218e+001  6.8791e-001 32979 99841,99815,100031
 1.7000e+000 100080 -3.9989e+001  9.3896e+000 -9.7488e+000 32979 99841,100031,99867
 1.7000e+000 100129 -4.4987e+001 -9.3169e+000  4.4053e+000 32979 99763,100031,100103
 1.7000e+000 100152 -4.9084e+001 -3.5077e+000  8.5068e+000 32979 99763,100103,99789
 1.7000e+000 100201 -5.6212e+001 -7.6404e+000 -3.0779e+000 32979 99867,100031,100175
 1.7000e+000 100224 -5.6685e+001 -6.1050e+000 -1.0060e+000 32979 99867,100175,99737
 1.7000e+000 100553 -7.6627e+001 -4.2482e+001  1.2716e+001 32503 100354,100406,100380
 1.7000e+000 100530 -5.8801e+001 -1.6428e+001 -4.8555e+000 32503 100328,100406,100354
 1.7000e+000 100507 -6.1245e+001 -4.2361e+001 -1.8467e+001 32503 100328,100458,100406
 1.7000e+000 100484 -3.1093e+001 -5.0255e+001 -3.9248e+000 32503 100406,100458,100432
 1.7000e+000 100850 -1.0537e+002 -5.6731e+001  2.6071e+000 31899 100873,100654,100628
 1.7000e+000 100827 -1.0227e+002 -5.9502e+001 -3.9402e-001 31899 100945,100873,100628
 1.7000e+000 100804 -9.9901e+001 -5.5731e+001  6.5053e-001 31899 100945,100628,100602
 1.7000e+000 100781 -1.0577e+002 -3.7791e+001  9.7731e+000 31899 100576,100732,100602
 1.7000e+000 100758 -6.9934e+001 -1.2309e+001  1.8229e+001 31899 100654,100706,100680
 1.7000e+000 100899 -1.0267e+002 -6.6505e+001  3.0445e+000 31899 100706,100654,100873
 1.7000e+000 100922 -1.1259e+002 -6.1806e+001 -7.3316e+000 31899 100706,100873,100732
 1.7000e+000 100971 -1.0858e+002 -5.3114e+001 -2.7929e+000 31899 100732,100873,100945
 1.7000e+000 100994 -1.0565e+002 -4.8682e+001 -1.4865e+000 31899 100732,100945,100602
 1.7000e+000 101551 -2.5506e+001 -6.8503e+000  5.3497e+000 31338 101205,101387,101231
 1.7000e+000 101528 -3.8413e+001 -1.4187e+001 -2.1207e+000 31338 101179,101387,101205
 1.7000e+000 101505 -3.6011e+001 -1.8492e+001  1.9470e+000 31338 101574,101309,101257
 1.7000e+000 101482 -2.8546e+001 -1.3865e+001  4.0937e+000 31338 101646,101574,101257
 1.7000e+000 101459 -2.3045e+001 -8.9806e+000  8.2230e+000 31338 101646,101257,101231
 1.7000e+000 101436 -3.9530e+001 -3.6022e+000  1.1517e+000 31338 101309,101361,101335
 1.7000e+000 101413 -3.8176e+001 -1.8154e+001  1.2633e-001 31338 101257,101309,101283
 1.7000e+000 101600 -3.9383e+001 -1.4533e+001  4.1099e+000 31338 101361,101309,101574
 1.7000e+000 101623 -3.6971e+001 -1.6517e+001  1.6157e+000 31338 101361,101574,101387
 1.7000e+000 101672 -3.5021e+001 -1.3503e+001 -6.5103e-002 31338 101387,101574,101646
 1.7000e+000 101695 -3.0734e+001 -1.2926e+001  2.9635e+000 31338 101387,101646,101231
 1.7000e+000 101943 -6.0639e+001 -2.0971e+001 -7.4710e-002 30748 101966,101796,101744
 1.7000e+000 101920 -5.0009e+001 -8.4340e+000  4.6967e+000 30748 101966,101744,101718
 1.7000e+000 101897 -4.8435e+001  7.7304e+000  3.2289e+001 30748 101718,101848,101822
 1.7000e+000 101874 -5.7318e+001 -1.0671e+001 -9.7664e+000 30748 101744,101796,101770
 1.7000e+000 101992 -6.7789e+001 -7.2034e+000  2.4303e+000 30748 101822,101796,101966
 1.7000e+000 102015 -6.1313e+001  2.2756e+000  5.4628e+000 30748 101822,101966,101718
 1.7000e+000 102493 -1.0680e+002 -3.1179e+001  2.0740e+001 30344 102516,102173,102147
 1.7000e+000 102470 -8.5672e+001 -1.7656e+001  9.0557e-001 30344 102660,102516,102147
 1.7000e+000 102447 -5.1788e+001 -2.7065e+000  3.2180e+000 30344 102588,102199,102173
 1.7000e+000 102424 -8.1985e+001 -2.0657e+001  1.1792e+000 30344 102660,102147,102329
 1.7000e+000 102401 -1.5746e+002 -2.5477e+001  3.5421e+000 30344 102199,102277,102251
 1.7000e+000 102378 -4.8569e+001 -4.5388e+001  3.5169e+001 30344 102199,102251,102225
 1.7000e+000 102355 -1.7725e+002 -5.3832e+001  4.9972e+001 30344 102121,102329,102147
 1.7000e+000 102542 -6.8477e+001 -1.3554e+001  8.2062e+000 30344 102588,102173,102516
 1.7000e+000 102565 -8.4388e+001 -1.4617e+001  1.6576e+000 30344 102277,102516,102303
 1.7000e+000 102614 -7.5284e+001  8.7201e+000  3.4770e+000 30344 102277,102199,102588
 1.7000e+000 102637 -8.8363e+001  2.3452e+000  5.6981e+000 30344 102277,102588,102516
 1.7000e+000 102686 -8.1901e+001 -1.4092e+001  2.5044e+000 30344 102303,102516,102660
 1.7000e+000 102709 -7.9121e+001 -1.7696e+001  2.5928e+000 30344 102303,102660,102329
 1.7000e+000 103294 -6.7663e+001 -3.7734e+001  1.1864e+001 29726 103317,103101,103075
 1.7000e+000 103271 -7.5430e+001 -4.0758e+001  8.3468e+000 29726 103317,103075,102997
 1.7000e+000 103248 -1.0596e+002 -5.0881e+001  2.0743e+001 29726 102971,103153,102997
 1.7000e+000 103225 -4.2744e+001 -1.5769e+000 -1.4693e+000 29726 103101,103153,103127
 1.7000e+000 103202 -7.2645e+001 -5.1997e+001  4.0149e+000 29726 102997,103075,103023
 1.7000e+000 103179 -8.2468e+001 -3.2815e+001 -1.5245e+001 29726 103023,103075,103049
 1.7000e+000 103343 -6.2114e+001 -4.2075e+001  1.1537e+001 29726 103153,103101,103317
 1.7000e+000 103366 -6.7719e+001 -4.2158e+001  9.5145e+000 29726 103153,103317,102997
 1.7000e+000 103614 -4.4134e+001 -2.7387e+001  8.0368e+000 29200 103781,103637,103467
 1.7000e+000 103591 -3.9908e+001 -1.9537e+001  2.2321e+000 29200 103709,103637,103415
 1.7000e+000 103568 -3.2600e+001 -9.6174e+000  5.6966e+000 29200 103709,103415,103389
 1.7000e+000 103545 -4.4573e+001 -3.0890e+001  1.0649e+001 29200 103781,103467,103441
 1.7000e+000 103663 -2.9841e+001 -1.8441e+001 -4.3914e+000 29200 103853,103637,103493
 1.7000e+000 103686 -6.1706e+001 -4.2581e+001 -1.6793e+001 29200 103493,103637,103519
 1.7000e+000 103735 -5.0762e+001 -7.3367e+000 -4.3019e+000 29200 103519,103637,103709
 1.7000e+000 103758 -4.4957e+001 -7.6206e-001 -1.6574e+000 29200 103519,103709,103389
 1.7000e+000 103807 -4.4676e+001 -1.8890e+001  3.3580e+000 29200 103415,103637,103781
 1.7000e+000 103830 -4.9166e+001 -2.3109e+001  7.3506e+000 29200 103415,103781,103441
 1.7000e+000 103879 -3.1952e+001 -2.4697e+001  3.1971e+000 29200 103467,103637,103853
 1.7000e+000 104545 -1.0345e+002 -1.8238e+001  1.4115e+001 28860 104274,104352,104326
 1.7000e+000 104522 -8.3903e+001 -3.5025e+001  9.1003e-001 28860 104248,104352,104274
 1.7000e+000 104499 -6.1507e+001 -2.3886e+001 -2.9234e+000 28860 104248,104404,104352
 1.7000e+000 104476 -9.1679e+001 -4.7848e+001 -1.3354e+001 28860 104222,104404,104248
 1.7000e+000 104453 -6.6486e+001 -4.2101e+001 -2.8866e+000 28860 104352,104404,104378
 1.7000e+000 104430 -1.8297e+002 -3.1909e+001  3.9140e+000 28860 104274,104326,104300
 1.7000e+000 104744 -2.4800e+001  1.0060e+000  6.4697e+000 28456 104839,104767,104646
 1.7000e+000 104721 -9.0768e+000  5.1756e-001  3.8125e+000 28456 104767,104594,104568
 1.7000e+000 104698 -2.2487e+001 -5.2642e+000  1.8222e+000 28456 104839,104646,104620
 1.7000e+000 104793 -1.7674e+001 -1.4311e+000  1.1252e+001 28456 104672,104646,104767
 1.7000e+000 104816 -8.9405e+000  2.8800e-001  4.5816e+000 28456 104911,104767,104568
 1.7000e+000 104865 -2.0861e+001 -5.5522e-001  1.1837e+000 28456 104594,104767,104839
 1.7000e+000 104888 -2.5884e+001 -1.9854e+001  2.0959e+000 28456 105041,104839,104620
 1.7000e+000 104937 -2.3899e+001 -2.5564e+001  1.0784e+001 28456 104672,104767,104911
 1.7000e+000 105067 -2.5004e+001 -2.2576e+000  1.1166e+000 28456 104594,104839,105041
 1.7000e+000 105573 -5.6584e+001 -9.0875e+000  6.1386e+000 28094 105812,105596,105328
 1.7000e+000 105550 -5.8416e+001 -1.1291e+001  4.9008e+000 28094 105596,105276,105250
 1.7000e+000 105527 -4.5849e+001 -4.8210e+000  1.1780e+001 28094 105740,105668,105432
 1.7000e+000 105504 -4.5186e+001 -2.8141e+000  1.1818e+001 28094 105740,105432,105380
 1.7000e+000 105481 -5.6639e+001 -9.0703e+000  6.1208e+000 28094 105812,105328,105302
 1.7000e+000 105458 -2.6175e+001 -1.0897e+001  1.1082e+001 28094 105380,105432,105406
 1.7000e+000 105622 -7.3215e+001 -1.8669e+001  1.3869e+001 28094 105354,105328,105596
 1.7000e+000 105645 -4.9775e+001 -8.0619e+000  9.4058e+000 28094 105668,105354,105596
 1.7000e+000 105694 -4.9664e+001 -4.8995e+000  6.8134e+000 28094 105250,105432,105668
 1.7000e+000 105717 -5.8281e+001 -5.8345e+000  5.0732e+000 28094 105250,105668,105596
 1.7000e+000 105766 -4.5542e+001 -6.5866e+000  8.1216e+000 28094 105354,105668,105740
 1.7000e+000 105789 -4.4155e+001 -3.1351e+000  8.1361e+000 28094 105354,105740,105380
 1.7000e+000 105838 -5.6421e+001 -9.5563e+000  6.1495e+000 28094 105276,105596,105812
 1.7000e+000 105861 -5.5527e+001 -8.9367e+000  5.7537e+000 28094 105276,105812,105302
 1.7000e+000 106367 -7.4948e+001 -1.8359e+001 -8.0278e+000 27390 106070,106122,106096
 1.7000e+000 106344 -7.8123e+001 -2.6860e+001 -6.2972e+000 27390 106070,106226,106122
 1.7000e+000 106321 -8.4091e+001 -4.5222e+000 -6.0964e+000 27390 106174,106226,106200
 1.7000e+000 106298 -7.8224e+001 -3.0578e+001 -4.6748e+000 27390 106122,106226,106174
 1.7000e+000 106275 -9.3194e+001 -3.9668e+001 -2.7420e+001 27390 106122,106174,106148
 1.7000e+000 106252 -6.8071e+001 -2.0331e+001  1.3446e+000 27390 106044,106226,106070
 1.7000e+000 106615 -1.0364e+002 -3.9720e+001  1.3906e+000 26978 106638,106494,106416
 1.7000e+000 106592 -1.0610e+002 -3.5360e+001  2.0423e+000 26978 106638,106416,106390
 1.7000e+000 106569 -1.1067e+002 -4.6030e+001 -7.3980e+000 26978 106416,106494,106442
 1.7000e+000 106546 -1.1400e+002 -4.9161e+001 -9.0161e+000 26978 106442,106494,106468
 1.7000e+000 106664 -1.0110e+002 -3.4978e+001 -6.0785e-001 26978 106520,106494,106638
 1.7000e+000 106687 -1.0538e+002 -3.2192e+001  1.2883e+000 26978 106520,106638,106390
 1.7000e+000 106837 -1.1004e+002 -5.1152e+001 -7.2844e+000 26524 106710,106762,106736
 1.7000e+000 106814 -1.1388e+002 -5.3958e+001 -5.5924e+000 26524 106710,106788,106762
 1.7000e+000 107426 -3.5103e+001 -6.1155e+000 -8.5904e+000 26120 107129,107207,107155
 1.7000e+000 107403 -4.6554e+001 -2.3233e+001 -3.5847e+000 26120 107129,107285,107207
 1.7000e+000 107380 -4.2058e+001 -1.4738e+001 -1.7081e+000 26120 107207,107285,107259
 1.7000e+000 107357 -3.6197e+001 -1.5089e+001  7.1021e+000 26120 107155,107207,107181
 1.7000e+000 107334 -5.5586e+001 -2.8180e+001 -6.0617e+000 26120 107103,107285,107129
 1.7000e+000 107311 -2.5666e+001 -7.6985e+000  2.1291e+000 26120 107207,107259,107233
 1.7000e+000 107755 -2.5423e+001 -6.4455e-001 -2.5237e+000 25758 107556,107634,107608
 1.7000e+000 107732 -5.0189e+001 -1.1549e+001  4.4044e+000 25758 107556,107660,107634
 1.7000e+000 107709 -1.7729e+001 -5.8924e+000  5.5040e+000 25758 107556,107608,107582
 1.7000e+000 107686 -4.1914e+001  2.3147e+001  1.5549e+001 25758 107530,107660,107556
 1.7000e+000 108438 -2.1242e+001 -8.2587e+000  2.6601e+000 25468 108121,108199,108173
 1.7000e+000 108415 -2.7925e+001 -2.7970e+001 -1.9973e+000 25468 108095,108199,108121
 1.7000e+000 108392 -3.1410e+001 -1.5607e+001 -2.8245e+000 25468 108095,108251,108199
 1.7000e+000 108369 -3.7440e+001 -2.5861e+001 -3.2802e-001 25468 108069,108251,108095
 1.7000e+000 108346 -1.5961e+001 -9.9243e+000  1.6194e+000 25468 108199,108251,108225
 1.7000e+000 108323 -4.8339e+001 -8.6928e+000 -9.4790e+000 25468 108017,108251,108069
 1.7000e+000 108300 -1.9147e+001 -1.1735e+001  4.4801e+000 25468 108121,108173,108147
 1.7000e+000 108277 -5.4305e+001 -1.7638e+001 -6.7118e+000 25468 108017,108069,108043
 1.7000e+000 108588 -3.2961e+001 -2.4167e+001  3.7765e+000 25064 108611,108513,108487
 1.7000e+000 108565 -1.3346e+001 -7.7427e+000  1.1790e+001 25064 108683,108611,108487
 1.7000e+000 108637 -3.8609e+001 -8.2318e+000  9.3424e+000 25064 108539,108513,108611
 1.7000e+000 108660 -4.0371e+001 -5.3718e+000  1.1827e+001 25064 108539,108611,108461
 1.7000e+000 108709 -4.1793e+001 -8.6488e+000  1.1675e+001 25064 108461,108611,108683
 1.7000e+000 109345 -5.7140e+001 -9.6661e+000  1.1231e+001 24410 108999,109155,109103
 1.7000e+000 109322 -1.1516e+002 -2.6011e+001  2.2418e+001 24410 108973,109155,108999
 1.7000e+000 109299 -5.0813e+001 -1.9609e+001  1.2981e+001 24410 109103,109155,109129
 1.7000e+000 109276 -5.1482e+001  8.8641e+000  6.7307e+000 24410 108973,109181,109155
 1.7000e+000 109253 -1.2150e+002 -4.0293e+001  2.2870e+001 24410 109025,109103,109077
 1.7000e+000 109230 -8.2424e+001 -2.7356e+001  1.9284e+001 24410 108999,109103,109025
 1.7000e+000 109207 -1.1584e+002  1.4239e+000  9.3006e+000 24410 109025,109077,109051
 1.7000e+000 109723 -5.5819e+001  8.3669e+000  2.7262e+000 23856 109475,109579,109553
 1.7000e+000 109700 -5.3008e+001 -6.1505e+000 -2.2608e-001 23856 109475,109605,109579
 1.7000e+000 109677 -6.5566e+001 -3.6288e+000 -2.2417e+001 23856 109475,109553,109527
 1.7000e+000 109654 -2.3865e+001  6.3127e+000  6.1579e+000 23856 109449,109605,109475
 1.7000e+000 109631 -4.0606e+001  1.5439e+001 -1.4075e+001 23856 109475,109527,109501
 1.7000e+000 110101 -6.1596e+001 -2.2204e+001  3.7378e+000 23566 109853,109931,109879
 1.7000e+000 110078 -4.8356e+001 -1.1972e+001  9.9960e+000 23566 109827,109931,109853
 1.7000e+000 110055 -3.1847e+001  1.7134e+001  9.8408e-001 23566 109827,109983,109931
 1.7000e+000 110032 -5.6313e+001 -3.9544e+001 -1.2064e+001 23566 109879,109931,109905
 1.7000e+000 110009 -3.0091e+001  9.1685e+000  1.2038e+001 23566 109931,109983,109957
 1.7000e+000 110735 -7.5101e+001 -3.2963e+001 -1.6426e+000 23162 110415,110571,110519
 1.7000e+000 110712 -7.5028e+001 -2.5468e+001 -1.1552e+000 23162 110389,110571,110415
 1.7000e+000 110689 -1.0385e+002 -4.3909e+001  3.0290e+000 23162 110415,110519,110493
 1.7000e+000 110666 -6.2133e+001 -2.7032e+001 -1.1803e+001 23162 110363,110571,110389
 1.7000e+000 110643 -9.0692e+001 -2.5657e+001  1.1929e+001 23162 110441,110493,110467
 1.7000e+000 110620 -9.7732e+001 -3.6559e+001 -2.3611e-002 23162 110415,110493,110441
 1.7000e+000 110597 -7.1327e+001 -6.8124e+000 -1.6777e+000 23162 110519,110571,110545
 1.7000e+000 111211 -4.6904e+001 -1.9390e+000 -7.9258e+000 22708 111378,111306,111021
 1.7000e+000 111188 -5.0455e+001  2.3824e+000 -6.9579e+000 22708 111234,110969,110917
 1.7000e+000 111165 -4.2857e+001 -5.3446e+000 -7.4151e+000 22708 111450,111234,110917
 1.7000e+000 111142 -4.4682e+001  5.4261e-001 -3.8251e+000 22708 111378,111021,110995
 1.7000e+000 111119 -4.3665e+001 -1.1252e+001 -3.4663e+000 22708 111450,110917,110865
 1.7000e+000 111096 -1.1918e+002 -1.0505e+001 -5.6537e+000 22708 110917,110969,110943
 1.7000e+000 111073 -4.3725e+001 -1.1670e+001 -3.5392e+000 22708 110865,110917,110891
 1.7000e+000 111260 -5.2618e+001  1.9901e+000 -4.8380e+000 22708 111306,110969,111234
 1.7000e+000 111283 -4.9033e+001 -7.8270e+000  2.9105e+000 22708 111047,111234,110839
 1.7000e+000 111332 -8.0581e+001  2.8013e+001 -3.2661e+001 22708 111047,111021,111306
 1.7000e+000 111355 -6.4184e+001 -3.9966e+000  1.5283e+000 22708 111047,111306,111234
 1.7000e+000 111404 -5.3864e+001  1.4664e+000 -7.0605e+000 22708 110969,111306,111378
 1.7000e+000 111427 -5.2250e+001 -2.9040e-001 -5.6208e+000 22708 110969,111378,110995
 1.7000e+000 111476 -4.5007e+001 -1.3401e+001  1.8130e-002 22708 110839,111234,111450
 1.7000e+000 111499 -4.8451e+001 -2.2708e+001  4.2577e+000 22708 110839,111450,110865
 1.7000e+000 111600 -9.5649e+001 -3.5379e+001  1.1321e+001 22460 111522,111574,111548
 1.7000e+000 112059 -7.3556e+001 -2.3467e+001  3.7352e+000 22056 111811,111889,111863
 1.7000e+000 112036 -9.4519e+001 -4.1339e+001  1.1364e+001 22056 111811,111915,111889
 1.7000e+000 112013 -7.1691e+001 -5.2359e+001 -1.1473e+001 22056 111785,111915,111811
 1.7000e+000 111990 -4.9426e+001 -3.2202e+001 -2.3804e+001 22056 111785,111941,111915
 1.7000e+000 111967 -4.5285e+001 -8.1772e+000 -1.1849e+001 22056 111811,111863,111837
 1.7000e+000 112486 -9.9048e+001 -2.7426e+001  4.7679e-001 21594 112509,112267,112215
 1.7000e+000 112463 -9.5874e+001 -2.5002e+001 -5.8172e+000 21594 112509,112215,112163
 1.7000e+000 112440 -9.4524e+001 -4.5834e+001  1.1605e+001 21594 112581,112293,112267
 1.7000e+000 112417 -7.8931e+001 -4.7902e+001 -3.3267e+000 21594 112215,112267,112241
 1.7000e+000 112394 -1.1211e+002 -1.2621e+001 -1.7845e+001 21594 112163,112345,112319
 1.7000e+000 112371 -8.8124e+001  2.3208e+000 -7.0589e+000 21594 112163,112215,112189
 1.7000e+000 112535 -1.0374e+002 -3.6602e+001  3.1063e+000 21594 112581,112267,112509
 1.7000e+000 112558 -9.7119e+001 -3.1065e+001 -5.7879e+000 21594 112319,112509,112163
 1.7000e+000 112607 -7.9854e+001 -3.7006e+001  7.1167e+000 21594 112319,112293,112581
 1.7000e+000 112630 -8.7827e+001 -2.3973e+001 -2.4415e+000 21594 112319,112581,112509
 1.7000e+000 112900 -4.5216e+001  6.3492e+000 -5.0756e-001 20974 112675,112779,112701
 1.7000e+000 112877 -4.5656e+001  1.6688e+001 -6.1188e+000 20974 112675,112805,112779
 1.7000e+000 112854 -5.3109e+001 -1.4797e+001 -6.6827e+000 20974 112701,112779,112753
 1.7000e+000 112831 -6.0819e+001 -2.5975e+001 -6.5883e-001 20974 112701,112753,112727
 1.7000e+000 113359 -3.1651e+001  1.1674e+001  1.9858e+001 20520 113454,113137,113111
 1.7000e+000 113336 -4.7309e+001  4.8141e+000  1.7521e+001 20520 113454,113111,113085
 1.7000e+000 113313 -2.8071e+001 -9.2810e+000  1.5185e+001 20520 113382,113163,113137
 1.7000e+000 113290 -3.4416e+001 -6.7657e+000  1.6485e+001 20520 113526,113382,113137
 1.7000e+000 113267 -1.5395e+001  6.0477e+000  5.7464e+000 20520 113189,113241,113215
 1.7000e+000 113408 -2.6166e+001 -3.1186e+000  1.1251e+001 20520 113189,113163,113382
 1.7000e+000 113431 -3.1251e+001 -5.3156e+000  1.0956e+001 20520 113189,113382,113241
 1.7000e+000 113480 -3.7821e+001 -6.4195e-001  1.4225e+001 20520 113526,113137,113454
 1.7000e+000 113503 -3.8179e+001  1.0195e+001  1.1166e+001 20520 113241,113454,113085
 1.7000e+000 113552 -2.7669e+001  2.0579e+000  1.3001e+001 20520 113241,113382,113526
 1.7000e+000 113575 -3.1046e+001  7.0265e+000  1.0563e+001 20520 113241,113526,113454
 1.7000e+000 113904 -8.2647e+000 -8.4067e+000 -1.2796e+001 19858 113705,113783,113757
 1.7000e+000 113881 -1.9827e+001 -1.0220e+001 -8.5638e+000 19858 113705,113809,113783
 1.7000e+000 113858 -1.7043e+001 -9.5351e+000 -6.8454e+000 19858 113679,113809,113705
 1.7000e+000 113835 -7.9288e+000  9.3447e-001  1.9677e-002 19858 113705,113757,113731
 1.7000e+000 114152 -9.0844e+001 -4.5701e+001 -1.5399e+001 19454 114175,114005,113979
 1.7000e+000 114129 -9.4968e+001 -4.8498e+001 -1.7033e+001 19454 114175,113979,114057
 1.7000e+000 114106 -9.9274e+001 -3.3975e+001  2.3269e+001 19454 113927,114057,113979
 1.7000e+000 114083 -7.5240e+001 -2.3697e+001  4.5116e+000 19454 113927,113979,113953
 1.7000e+000 114201  8.7607e+000 -2.7874e+000  1.5333e+001 19454 114031,114005,114175
 1.7000e+000 114224 -9.1080e+001 -5.7026e+001 -1.5833e+001 19454 114031,114175,114057
 1.7000e+000 114472 -5.0222e+001 -1.9738e+001 -2.4611e+000 19000 114495,114273,114247
 1.7000e+000 114449 -4.7710e+001 -2.1629e+001 -6.2085e-001 19000 114495,114247,114325
 1.7000e+000 114426 -4.8886e+001 -9.4624e+000  3.9829e+000 19000 114247,114377,114325
 1.7000e+000 114403 -4.5129e+001 -1.3045e+000  5.0717e+000 19000 114325,114377,114351
 1.7000e+000 114521 -5.6770e+001 -2.2488e+001 -2.6194e+000 19000 114299,114273,114495
 1.7000e+000 114544 -4.9240e+001 -2.1482e+001 -8.8256e-001 19000 114299,114495,114325
 1.7000e+000 114948 -8.3980e+001 -1.9268e+001 -3.5147e+000 18560 114674,114726,114700
 1.7000e+000 114925 -7.5746e+001 -3.1175e+001 -6.3788e+000 18560 114674,114830,114726
 1.7000e+000 114902 -7.7427e+001 -3.5321e+001 -7.3981e+000 18560 114726,114830,114804
 1.7000e+000 114879 -5.3734e+001 -2.3315e+001  8.5097e-001 18560 114726,114804,114752
 1.7000e+000 114856 -6.0549e+001 -2.6150e+001  3.1804e+000 18560 114752,114804,114778
 1.7000e+000 115098 -8.9026e+001 -2.6207e+001 -8.0977e+000 18156 114971,115023,114997
 1.7000e+000 115075 -1.0230e+002 -2.7312e+001 -2.6594e+000 18156 114971,115049,115023
 1.7000e+000 115248 -9.9296e+001 -1.8412e+001  1.4330e+000 17602 115147,115199,115173
 1.7000e+000 115225 -5.9186e+001 -2.3874e+001 -4.2350e-001 17602 115121,115199,115147
 1.7000e+000 115652 -8.0145e+001 -4.7755e+001 -1.1875e+000 17354 115430,115534,115508
 1.7000e+000 115629 -7.6295e+001 -3.3394e+001 -4.0507e+000 17354 115404,115534,115430
 1.7000e+000 115606 -6.3415e+001 -1.0777e+001  4.0015e+000 17354 115378,115534,115404
 1.7000e+000 115583 -1.1997e+002 -3.4462e+001  9.9140e+000 17354 115456,115508,115482
 1.7000e+000 115560 -7.3978e+001 -3.4330e+001  3.3373e-001 17354 115430,115508,115456
 1.7000e+000 115873 -3.6417e+001 -9.3045e+000  6.1042e+000 16950 115749,115801,115775
 1.7000e+000 115850 -4.8752e+001 -9.4249e+000  5.9332e+000 16950 115697,115801,115749
 1.7000e+000 115827 -5.1219e+001 -2.2401e+001  7.2338e+000 16950 115697,115749,115723
 1.7000e+000 116023 -1.0705e+002 -1.4339e+001  1.0801e+001 16496 115922,115974,115948
 1.7000e+000 116000 -8.1463e+001 -1.2080e+001  1.2853e+001 16496 115896,115974,115922
 1.7000e+000 116126 -1.0775e+002 -2.0028e+001 -5.8478e+000 16298 116048,116100,116074
 1.7000e+000 116278 -1.0684e+002 -1.8960e-001 -7.4362e-001 15892 116151,116203,116177
 1.7000e+000 116255 -1.0090e+002 -5.7998e+000 -1.1180e+001 15892 116151,116229,116203
 1.7000e+000 116430 -9.6429e+001 -7.5327e+001  3.0241e-001 15545 116303,116355,116329
 1.7000e+000 116407 -8.0623e+001 -3.4976e+001  1.9445e+001 15545 116303,116381,116355
 1.7000e+000 116785 -5.3042e+000  9.6050e+000 -1.3247e+000 421 116612,116690,116664
 1.7000e+000 116762 -9.8323e+000 -7.2318e-001  5.8817e+000 421 116560,116690,116612
 1.7000e+000 116739 -7.3642e+000  2.9742e+000  5.5352e-001 421 116560,116612,116586
 1.7000e+000 116716  7.0554e+000 -9.4165e-001  1.2247e+000 421 116612,116664,116638
 1.8000e+000 68048 -2.7235e+001 -2.0663e+001  4.6922e-001 67642 67898,67950,67924
 1.8000e+000 68025 -2.8165e+001 -2.3947e+001  4.6053e-001 67642 67898,67976,67950
 1.8000e+000 68002 -2.7149e+001 -2.4251e+001  1.5816e+000 67642 67872,67976,67898
 1.8000e+000 68367  6.6732e+000  1.7335e+001  6.0586e+000 67444 68119,68223,68197
 1.8000e+000 68344  2.0841e+000 -4.9009e+000  5.6745e+000 67444 68119,68249,68223
 1.8000e+000 68321  3.2283e+001  8.7489e+000  2.7179e+000 67444 68093,68249,68119
 1.8000e+000 68298 -1.4042e+000  1.3962e+000 -3.7459e-001 67444 68119,68197,68171
 1.8000e+000 68275  3.4461e+000  2.5443e+000 -1.9201e-001 67444 68119,68171,68145
 1.8000e+000 68468 -9.0850e+000  5.8244e+000 -2.3922e+000 67268 68390,68442,68416
 1.8000e+000 68765 -2.4754e+001 -6.8216e+000 -1.0853e+000 66956 68788,68517,68491
 1.8000e+000 68742 -2.1375e+001 -8.3654e+000 -7.8359e-001 66956 68788,68491,68621
 1.8000e+000 68719 -2.8137e+001 -7.2154e+000 -9.1469e+000 66956 68543,68621,68569
 1.8000e+000 68696 -1.8083e+001 -3.1752e-001 -1.0927e+000 66956 68491,68647,68621
 1.8000e+000 68673 -5.0375e+001 -1.3552e+001 -1.4621e+001 66956 68569,68621,68595
 1.8000e+000 68814 -2.7785e+001 -7.5552e+000 -6.7876e-001 66956 68543,68517,68788
 1.8000e+000 68837 -2.3572e+001 -8.4588e+000 -5.1999e-001 66956 68543,68788,68621
 1.8000e+000 69107 -1.6156e+001 -4.2622e+001 -3.0848e+000 66758 68882,68986,68908
 1.8000e+000 69084  1.9150e+001 -2.3125e+001  5.7860e+000 66758 68882,69012,68986
 1.8000e+000 69061 -9.1840e+001 -1.5238e+001 -7.6255e+000 66758 68908,68960,68934
 1.8000e+000 69038 -1.0678e+001 -2.0652e+001 -5.3124e+000 66758 68908,68986,68960
 1.8000e+000 69308 -1.4900e+001  5.2614e-001 -1.8798e+000 66560 69331,69184,69158
 1.8000e+000 69285 -1.9460e+001  1.5415e+000 -2.2792e+000 66560 69331,69158,69132
 1.8000e+000 69262 -1.4780e+001 -1.5054e+000 -9.3496e-001 66560 69184,69236,69210
 1.8000e+000 69357 -1.2781e+001  1.0844e+000 -2.1536e+000 66560 69236,69184,69331
 1.8000e+000 69380 -1.5141e+001  3.7195e+000 -3.2461e+000 66560 69236,69331,69132
 1.8000e+000 69554  2.7686e+001 -3.2902e+000  6.0485e+000 66270 69427,69479,69453
 1.8000e+000 69531  3.8480e+001  2.1933e+001  1.1023e+001 66270 69427,69505,69479
 1.8000e+000 69804 -3.1810e+000  8.1980e+000  1.2927e+001 66066 69579,69683,69657
 1.8000e+000 69781 -9.7714e+000  6.7575e+000  1.5659e-001 66066 69579,69709,69683
 1.8000e+000 69758  2.1631e+001  4.8096e+000 -1.3393e-001 66066 69579,69657,69631
 1.8000e+000 69735  1.9382e+001  5.1129e-001 -1.9878e+000 66066 69579,69631,69605
 1.8000e+000 70257  1.1834e+001  3.2261e+001 -2.5072e+001 65776 69960,70090,69986
 1.8000e+000 70234  7.0651e+000  2.2308e+000 -1.3485e+001 65776 69934,70090,69960
 1.8000e+000 70211 -1.1653e+001  6.6791e+000 -1.7409e+000 65776 69934,70116,70090
 1.8000e+000 70188  5.8751e+000  2.8706e+001  0.0000e+000 65776 70038,70090,70064
 1.8000e+000 70165  2.3716e-001  3.9670e+001 -1.4368e+001 65776 69986,70090,70038
 1.8000e+000 70142 -4.4639e+000  1.5229e+001 -2.0936e+001 65776 69986,70038,70012
 1.8000e+000 70456  1.6544e+001  1.7440e+001  8.8000e+000 65372 70479,70306,70280
 1.8000e+000 70433  1.6761e+001  1.6117e+001  8.3259e+000 65372 70479,70280,70384
 1.8000e+000 70410  1.5794e+001  1.8318e+001  8.0584e+000 65372 70551,70332,70306
 1.8000e+000 70505  1.6188e+001  1.7331e+001  8.8833e+000 65372 70551,70306,70479
 1.8000e+000 70528  1.6842e+001  1.7334e+001  9.0857e+000 65372 70358,70479,70384
 1.8000e+000 70577  1.5851e+001  1.9850e+001  8.2832e+000 65372 70358,70332,70551
 1.8000e+000 70600  1.6624e+001  1.9320e+001  9.0298e+000 65372 70358,70551,70479
 1.8000e+000 70821 -1.9249e+001 -5.5916e+000  2.0224e+000 65174 70645,70723,70671
 1.8000e+000 70798  2.9136e+000  2.2955e+000 -1.2434e-001 65174 70645,70749,70723
 1.8000e+000 70775 -2.5104e+001 -1.2904e+001  4.5904e+000 65174 70671,70723,70697
 1.8000e+000 71071 -2.6482e+001 -1.1425e+001 -2.2945e+000 64770 71094,70898,70872
 1.8000e+000 71048 -2.1801e+001 -1.1021e+001  1.8917e+000 64770 71166,71094,70872
 1.8000e+000 71025 -2.2485e+001 -1.3789e+001  1.9629e-003 64770 71166,70872,70846
 1.8000e+000 71002 -3.1132e+001 -8.1788e+000 -3.0947e+000 64770 70898,70950,70924
 1.8000e+000 71120 -2.2999e+001 -3.5202e+000 -1.2968e+000 64770 70950,70898,71094
 1.8000e+000 71143 -1.8142e+001 -9.9095e+000  3.3449e+000 64770 70950,71094,70976
 1.8000e+000 71192 -2.2211e+001 -1.6248e+001  1.1770e+000 64770 70976,71094,71166
 1.8000e+000 71215 -2.1537e+001 -1.7216e+001 -7.0022e-001 64770 70976,71166,70846
 1.8000e+000 71514 -3.0642e+001  2.7077e+000 -4.9613e+000 64572 71681,71537,71318
 1.8000e+000 71491 -3.9258e+001  2.1299e+001  1.8364e+000 64572 71537,71266,71240
 1.8000e+000 71468 -4.3298e+001  1.4165e+001 -1.7356e+001 64572 71609,71396,71370
 1.8000e+000 71445 -2.2545e+001 -1.1693e+001  7.6942e-001 64572 71681,71318,71292
 1.8000e+000 71422 -1.0978e+000 -7.9599e+000 -8.6361e+000 64572 71753,71344,71318
 1.8000e+000 71563 -3.1507e+000  1.7065e+001 -2.4565e+001 64572 71753,71318,71537
 1.8000e+000 71586 -3.8410e+001  1.8337e+001 -1.9855e+001 64572 71609,71370,71537
 1.8000e+000 71635 -5.6471e+001 -3.8878e+000  4.5898e+000 64572 71240,71396,71609
 1.8000e+000 71658 -3.2640e+001  1.0988e+001 -1.7166e+000 64572 71240,71609,71537
 1.8000e+000 71707 -2.5061e+001  2.4729e+001 -2.2497e+000 64572 71266,71537,71681
 1.8000e+000 71730 -1.3473e+001  1.4967e+001  8.6401e+000 64572 71266,71681,71292
 1.8000e+000 71779  3.1260e+001  1.7274e+001 -2.1602e+001 64572 71370,71344,71753
 1.8000e+000 71802  1.4139e+001  2.6658e+001 -2.8601e+001 64572 71370,71753,71537
 1.8000e+000 72052 -1.6625e+001 -1.0439e+001 -2.3948e+000 64374 72075,71879,71827
 1.8000e+000 72029 -1.0950e+001 -8.0262e+000 -2.6863e+000 64374 72147,72075,71827
 1.8000e+000 72006 -5.9559e+000 -8.0657e+000 -4.1347e+000 64374 72147,71827,71957
 1.8000e+000 71983 -1.6731e+001 -4.1737e+000 -1.4865e+000 64374 71827,71879,71853
 1.8000e+000 72101 -1.4933e+001 -1.0341e+001 -1.4558e-002 64374 71905,71879,72075
 1.8000e+000 72124 -1.4725e+001 -1.0115e+001 -1.6483e-001 64374 71905,72075,71931
 1.8000e+000 72173 -1.4875e+001 -9.4907e+000 -1.7864e-001 64374 71931,72075,72147
 1.8000e+000 72196 -1.2591e+001 -1.1050e+001 -1.7385e+000 64374 71931,72147,71957
 1.8000e+000 72649 -2.4756e+001  2.6645e+000  4.1574e+000 63948 72352,72508,72482
 1.8000e+000 72626 -2.9096e+001 -4.3823e+000 -2.6286e+000 63948 72326,72508,72352
 1.8000e+000 72603 -2.6141e+001 -2.4251e+000 -3.7635e+000 63948 72672,72430,72378
 1.8000e+000 72580 -1.5222e+001  4.4523e+000 -7.0001e+000 63948 72672,72378,72352
 1.8000e+000 72557 -2.2013e+001 -9.3157e+000 -5.8072e-001 63948 72744,72456,72430
 1.8000e+000 72534 -2.2570e+001  2.1635e+000 -7.4627e+000 63948 72378,72430,72404
 1.8000e+000 72698 -2.0841e+001 -8.0026e+000  6.5407e-002 63948 72744,72430,72672
 1.8000e+000 72721 -1.6045e+001 -6.3062e-001  2.6533e+000 63948 72482,72672,72352
 1.8000e+000 72770 -2.5691e+001 -6.6555e+000 -1.1282e-001 63948 72482,72456,72744
 1.8000e+000 72793 -2.2680e+001 -3.3880e+000  1.1592e+000 63948 72482,72744,72672
 1.8000e+000 72894 -2.3693e+001 -4.0699e+000  4.1458e+000 63494 72816,72868,72842
 1.8000e+000 73093 -1.5564e+001 -1.9401e+001 -7.6833e+000 63132 72943,72995,72969
 1.8000e+000 73070 -3.3353e+001 -2.3954e+001 -1.7026e+000 63132 72943,73021,72995
 1.8000e+000 73047 -3.1022e+001 -2.4426e+001  4.3810e-001 63132 72917,73021,72943
 1.8000e+000 73294  2.8088e+000  1.5153e+001 -1.8429e+000 62792 73317,73144,73118
 1.8000e+000 73271  3.3484e+000  1.6604e+001 -1.5222e+000 62792 73317,73118,73222
 1.8000e+000 73248  2.0954e+001  7.4943e+000  1.9967e-001 62792 73144,73196,73170
 1.8000e+000 73343  2.6799e+000  1.3661e+001 -3.3052e+000 62792 73196,73144,73317
 1.8000e+000 73366  3.5520e+000  1.5826e+001 -3.0081e+000 62792 73196,73317,73222
 1.8000e+000 73616 -1.3726e+001  8.3707e-001  4.0619e+000 62388 73639,73417,73391
 1.8000e+000 73593 -1.2929e+001  2.7611e+000  4.4716e+000 62388 73711,73639,73391
 1.8000e+000 73570 -1.0077e+001  1.0746e+001  3.0505e+000 62388 73711,73391,73521
 1.8000e+000 73547 -8.4040e+000 -4.6455e-001 -7.5518e-001 62388 73469,73521,73495
 1.8000e+000 73665 -9.1798e+000  3.4233e+000  8.7859e+000 62388 73443,73417,73639
 1.8000e+000 73688 -1.1470e+001 -9.5804e+000  8.0830e+000 62388 73443,73639,73469
 1.8000e+000 73737 -9.5229e+000 -2.4190e+000  3.4433e+000 62388 73469,73639,73711
 1.8000e+000 73760 -1.0536e+001  5.8381e-001  3.7456e+000 62388 73469,73711,73521
 1.8000e+000 74010 -2.6466e+001 -6.0940e+000 -7.7752e+000 61848 74033,73837,73811
 1.8000e+000 73987 -9.5391e+000 -5.4590e+000  6.8824e-001 61848 74033,73811,73785
 1.8000e+000 73964 -1.8229e+001  1.1739e+000  4.8752e+000 61848 73837,73915,73889
 1.8000e+000 73941 -4.5201e+001 -6.8415e+000 -8.1855e+000 61848 73837,73889,73863
 1.8000e+000 74059 -2.8234e+001  5.8998e-001 -3.6504e+000 61848 73915,73837,74033
 1.8000e+000 74082 -2.6811e+001  5.2131e+000 -8.2382e-001 61848 73915,74033,73785
 1.8000e+000 74283 -2.3178e+001  1.8603e+000 -4.7397e+000 61444 74306,74133,74107
 1.8000e+000 74260 -2.8682e+001 -1.5792e-001  8.9582e+000 61444 74306,74107,74211
 1.8000e+000 74237 -3.7165e+001 -6.5739e+000  8.6101e+000 61444 74378,74185,74159
 1.8000e+000 74332 -3.7598e+001 -4.2637e+000 -3.4797e+000 61444 74159,74133,74306
 1.8000e+000 74355 -3.5255e+001 -3.0130e+000  9.4007e+000 61444 74378,74159,74306
 1.8000e+000 74404 -3.4947e+001 -1.9905e+000  9.3026e+000 61444 74211,74185,74378
 1.8000e+000 74427 -3.5225e+001 -1.9242e+000  9.2535e+000 61444 74211,74378,74306
 1.8000e+000 74628 -1.1347e+001 -1.1014e+000  7.8896e+000 60990 74478,74530,74504
 1.8000e+000 74605  4.9096e+000  1.0283e+000  5.3200e+000 60990 74452,74530,74478
 1.8000e+000 74582 -2.2693e+001  4.4012e-001  4.8325e+000 60990 74452,74556,74530
 1.8000e+000 75089 -4.6613e+000 -7.6292e-001 -5.2092e+000 60486 75112,74945,74919
 1.8000e+000 75066 -1.0291e+001 -8.0763e+000 -1.9645e+000 60486 75112,74919,74867
 1.8000e+000 75043 -1.3859e+001 -5.4638e+000  1.1834e+000 60486 74841,74971,74867
 1.8000e+000 75020 -2.1905e+001 -1.5916e+001  2.9205e+000 60486 74867,74919,74893
 1.8000e+000 74997 -1.7918e+001 -2.1789e+000  6.0813e+000 60486 74815,74971,74841
 1.8000e+000 75138 -1.0821e+001 -1.4163e+000 -9.6787e-001 60486 74971,74945,75112
 1.8000e+000 75161 -1.3232e+001 -3.4579e+000  1.2540e+000 60486 74971,75112,74867
 1.8000e+000 75409 -1.6559e+001 -4.0819e+000  3.5213e+000 59932 75576,75432,75288
 1.8000e+000 75386 -2.3413e+001 -4.3787e+000 -1.3960e+000 59932 75504,75314,75288
 1.8000e+000 75363 -1.6969e+001  7.1450e+000  1.0316e+001 59932 75432,75236,75210
 1.8000e+000 75340 -2.4940e+000 -2.5589e+000 -6.1296e-002 59932 75576,75288,75262
 1.8000e+000 75458 -2.3377e+001 -4.9772e+000 -1.1894e+000 59932 75504,75288,75432
 1.8000e+000 75481 -2.2943e+001 -1.1618e+000  1.9248e+000 59932 75184,75432,75210
 1.8000e+000 75530 -2.2665e+001 -1.6226e+000 -1.5234e+000 59932 75184,75314,75504
 1.8000e+000 75553 -2.3285e+001 -4.7230e+000 -1.1643e+000 59932 75184,75504,75432
 1.8000e+000 75602 -2.5601e+001 -8.9319e+000  6.6100e+000 59932 75236,75432,75576
 1.8000e+000 75625 -2.0639e+001 -1.2286e+001  3.7404e+000 59932 75236,75576,75262
 1.8000e+000 75873  1.7478e+000 -5.9838e+000  1.4020e+001 59478 75674,75752,75700
 1.8000e+000 75850  8.5128e+000 -3.5829e+000 -1.7169e-002 59478 75648,75752,75674
 1.8000e+000 75827  4.1595e+000  5.4302e+000  1.9737e+001 59478 75700,75752,75726
 1.8000e+000 75804 -9.1044e+000 -2.7507e+000  2.5280e+000 59478 75648,75778,75752
 1.8000e+000 76206  1.0592e+001  3.2917e+000  2.9464e-002 59024 75981,76059,76007
 1.8000e+000 76183  1.2163e+001  3.8378e+000 -3.3007e-001 59024 75981,76111,76059
 1.8000e+000 76160  9.8176e+000  5.0470e+000 -1.3151e+000 59024 76007,76059,76033
 1.8000e+000 76137  1.6377e+001  4.6667e+000  6.9641e+000 59024 76059,76111,76085
 1.8000e+000 76761 -3.6116e+001 -2.0164e+001  4.3978e-001 58562 76389,76441,76415
 1.8000e+000 76738 -3.8799e+001 -2.0577e+001 -3.6298e+000 58562 76856,76784,76389
 1.8000e+000 76715 -4.0012e+001 -2.5696e+001 -6.3919e+000 58562 76784,76571,76467
 1.8000e+000 76692 -4.5046e+001 -1.5271e+001 -5.5590e+000 58562 76856,76389,76597
 1.8000e+000 76669 -4.7311e+001 -3.3200e+001 -5.5377e+000 58562 76467,76545,76493
 1.8000e+000 76646 -4.3086e+001 -3.0223e+001 -8.1339e+000 58562 76467,76571,76545
 1.8000e+000 76623 -4.0270e+001 -2.3095e+001 -4.7372e-001 58562 76493,76545,76519
 1.8000e+000 76810 -4.0516e+001 -2.5846e+001 -3.4739e+000 58562 76441,76389,76784
 1.8000e+000 76833 -3.9937e+001 -2.6894e+001 -4.9163e+000 58562 76441,76784,76467
 1.8000e+000 76882 -4.5093e+001 -2.7817e+001 -6.3885e+000 58562 76571,76784,76856
 1.8000e+000 76905 -4.9720e+001 -2.1375e+001 -7.8688e+000 58562 76571,76856,76597
 1.8000e+000 77055 -3.9588e+001 -2.9042e+001  1.0088e+000 57844 76928,76980,76954
 1.8000e+000 77032 -3.2499e+001 -2.7086e+001 -1.1075e+000 57844 76928,77006,76980
 1.8000e+000 77533 -4.5287e+001 -2.0680e+001  2.5934e+000 57226 77628,77556,77291
 1.8000e+000 77510 -4.5512e+001 -1.1131e+001  5.3474e+000 57226 77556,77187,77343
 1.8000e+000 77487 -3.3398e+001 -1.4137e+001 -7.5792e-001 57226 77628,77291,77265
 1.8000e+000 77464 -2.8617e+001 -1.9590e+001 -1.8488e+000 57226 77700,77213,77187
 1.8000e+000 77441 -6.6115e+001 -1.5875e+001  1.0420e+001 57226 77161,77343,77187
 1.8000e+000 77418 -4.9419e+001 -4.6942e+000  5.3721e+000 57226 77161,77369,77343
 1.8000e+000 77395 -2.1163e+001 -3.7803e+000 -1.1539e+001 57226 77213,77265,77239
 1.8000e+000 77582 -4.2345e+001 -1.5207e+001  3.8297e-001 57226 77317,77291,77556
 1.8000e+000 77605 -5.7016e+001 -1.2352e+001  3.0001e-001 57226 77317,77556,77343
 1.8000e+000 77654 -2.7245e+001 -1.3860e+001  4.4270e+000 57226 77187,77556,77628
 1.8000e+000 77677 -2.6822e+001 -1.9734e+001  7.8659e-001 57226 77700,77187,77628
 1.8000e+000 77726 -3.5400e+001 -2.2663e+001 -4.5539e+000 57226 77265,77213,77700
 1.8000e+000 77749 -3.2945e+001 -2.1127e+001 -1.4388e+000 57226 77265,77700,77628
 1.8000e+000 78046 -2.6349e+001  1.4084e+001 -4.7903e+000 56936 77798,77850,77824
 1.8000e+000 78023 -3.1239e+001 -7.0172e+000 -4.4454e+000 56936 78069,77798,77902
 1.8000e+000 78000 -2.8515e+001 -6.4519e+000 -3.7480e+000 56936 78069,77902,77876
 1.8000e+000 77977 -4.4316e+001 -1.2873e+001 -5.9642e+000 56936 77798,77928,77902
 1.8000e+000 77954 -3.0914e+001 -4.3503e+000 -1.6489e+000 56936 77772,77928,77798
 1.8000e+000 78095 -3.2431e+001 -6.7653e+000 -4.7846e+000 56936 77850,77798,78069
 1.8000e+000 78118 -3.1214e+001 -7.2638e+000 -4.1364e+000 56936 77850,78069,77876
 1.8000e+000 78754  4.6330e+000  1.7288e+001  9.1220e-001 56475 78777,78486,78408
 1.8000e+000 78731 -2.2209e+001 -2.6037e+000  9.8324e+000 56475 78777,78408,78382
 1.8000e+000 78708 -9.8557e+000  2.0985e+000 -1.5254e+001 56475 78849,78512,78486
 1.8000e+000 78685  7.2383e+000  1.5908e+001 -4.1862e+000 56475 78382,78590,78564
 1.8000e+000 78662 -3.4214e+001 -2.1141e+000 -2.7403e+001 56475 78512,78564,78538
 1.8000e+000 78639  5.4004e+000  8.0115e+000  3.2734e+000 56475 78434,78486,78460
 1.8000e+000 78616 -3.6528e-001  7.2452e+000  3.4454e+000 56475 78408,78486,78434
 1.8000e+000 78803 -1.5062e+001  9.0484e+000 -6.4335e+000 56475 78849,78486,78777
 1.8000e+000 78826 -1.3149e+001  2.2074e+001 -2.8548e-002 56475 78564,78777,78382
 1.8000e+000 78875 -4.0138e+000  1.6668e+001 -1.4973e+001 56475 78564,78512,78849
 1.8000e+000 78898 -8.1351e+000  2.6422e+001 -7.8209e+000 56475 78564,78849,78777
 1.8000e+000 79276 -7.6151e+000  2.0242e+001  5.3857e+000 55964 79299,79080,79028
 1.8000e+000 79253 -1.5285e+001  1.5752e+001  7.3306e+000 55964 79299,79028,79132
 1.8000e+000 79230 -1.0822e+001 -3.7243e+000  4.6803e+000 55964 79028,79080,79054
 1.8000e+000 79207 -2.1086e+001 -6.1830e+000 -2.7915e+000 55964 79002,79132,79028
 1.8000e+000 79184 -2.8013e+000  2.1280e+000 -8.1148e+000 55964 79002,79158,79132
 1.8000e+000 79325 -1.0287e+001  2.5855e+001 -1.6333e+000 55964 79106,79080,79299
 1.8000e+000 79348 -1.9245e+001  2.0440e+001  6.7076e-001 55964 79106,79299,79132
 1.8000e+000 79498 -4.1548e+001  3.2531e+001 -1.3068e+001 55452 79397,79449,79423
 1.8000e+000 79475 -2.8410e+001  8.3728e+000 -7.3526e+000 55452 79371,79449,79397
 1.8000e+000 79795  1.5923e+000  1.5522e+001  2.0043e+000 55048 79962,79818,79573
 1.8000e+000 79772 -6.3383e+000 -3.6313e-001 -3.4962e+000 55048 79818,79521,79677
 1.8000e+000 79749 -1.0132e+000 -1.8606e+000  4.9301e+000 55048 79599,79651,79625
 1.8000e+000 79726 -8.9873e+000  3.2230e+000  3.1051e+000 55048 79890,79651,79599
 1.8000e+000 79703  1.1873e+001  2.4162e+001  1.1178e+001 55048 79962,79573,79547
 1.8000e+000 79844 -5.9764e+000  1.5979e+001  1.7419e-001 55048 79599,79573,79818
 1.8000e+000 79867 -7.8170e+000  7.3563e+000  1.1235e+000 55048 79890,79599,79818
 1.8000e+000 79916 -5.5418e+000  5.5314e+000 -9.0927e-001 55048 79677,79651,79890
 1.8000e+000 79939 -5.5553e+000  7.1790e+000 -2.7979e+000 55048 79677,79890,79818
 1.8000e+000 79988 -7.6796e+000  8.5077e+000 -3.8448e+000 55048 79521,79818,79962
 1.8000e+000 80011 -5.9111e+000  9.9923e+000  3.7642e+000 55048 79521,79962,79547
 1.8000e+000 80212 -3.5193e+001  4.8851e+000  5.7679e+000 54436 80235,80088,80036
 1.8000e+000 80189 -2.0087e+001 -2.0246e+000  7.5213e+000 54436 80235,80036,80140
 1.8000e+000 80166 -3.1941e+001 -1.3205e+000 -2.9970e+000 54436 80036,80088,80062
 1.8000e+000 80261 -2.3649e+001  3.1421e+000  1.3167e+001 54436 80114,80088,80235
 1.8000e+000 80284 -3.2399e+000  1.3444e+000  1.5886e+001 54436 80114,80235,80140
 1.8000e+000 80534 -2.7938e+001  4.1121e+000  5.2554e+000 54032 80557,80361,80335
 1.8000e+000 80511 -2.8124e+001  1.2288e+001 -3.0617e-001 54032 80557,80335,80309
 1.8000e+000 80488 -2.3494e+001  5.9602e+000  1.8174e+000 54032 80629,80413,80387
 1.8000e+000 80465  2.5763e+000 -2.0916e-001 -2.0565e+000 54032 80309,80439,80413
 1.8000e+000 80583 -2.9941e+001 -1.5624e+001  7.6827e+000 54032 80387,80361,80557
 1.8000e+000 80606 -2.4169e+001  4.8580e+000  3.5354e+000 54032 80629,80387,80557
 1.8000e+000 80655 -2.5615e+001  4.7554e+000  3.0907e+000 54032 80309,80413,80629
 1.8000e+000 80678 -2.6812e+001  4.4117e+000  4.5625e+000 54032 80309,80629,80557
 1.8000e+000 81139 -2.8240e+001 -2.0883e+001  1.1179e+001 53784 80865,80995,80917
 1.8000e+000 81116 -3.6718e+001 -2.1593e+001  3.5814e+000 53784 80865,81021,80995
 1.8000e+000 81093 -2.5674e+001 -2.2225e+001  6.5189e+000 53784 80943,80995,80969
 1.8000e+000 81070 -2.3108e+001 -2.4675e+001  1.0377e+001 53784 80917,80995,80943
 1.8000e+000 81047 -5.0391e+001  2.4548e+001  2.6463e+001 53784 80865,80917,80891
 1.8000e+000 81468 -3.0277e+001 -1.7323e+001  5.8553e+000 53230 81295,81373,81347
 1.8000e+000 81445 -1.6837e+001  3.0606e+000  1.1803e+001 53230 81243,81373,81295
 1.8000e+000 81422 -2.1394e+001 -3.6625e+000  9.5592e+000 53230 81243,81295,81269
 1.8000e+000 81399 -3.6758e+001 -1.8185e+001  9.9002e-001 53230 81295,81347,81321
 1.8000e+000 81618 -8.6005e+001  5.0197e+001 -2.0332e+001 52790 81491,81543,81517
 1.8000e+000 81595 -8.2333e+001 -3.8015e+000 -1.3879e+001 52790 81491,81569,81543
 1.8000e+000 82126  1.1883e+001  1.2958e+001  2.4795e+000 52386 82149,81907,81881
 1.8000e+000 82103  1.1811e+001  1.8838e+001  1.0665e+001 52386 82149,81881,81855
 1.8000e+000 82080  9.6649e-001 -1.4808e-001 -2.9537e+000 52386 82221,81803,81985
 1.8000e+000 82057  1.5636e+001  2.0900e+001  1.0031e+001 52386 81803,81855,81829
 1.8000e+000 82034  8.7666e+000  4.5794e+000 -3.4890e+000 52386 81907,81985,81933
 1.8000e+000 82011  1.0059e+001  4.7223e+000 -3.5693e+000 52386 81933,81985,81959
 1.8000e+000 82175  9.0415e+000  1.3033e+001  2.1671e+000 52386 81985,81907,82149
 1.8000e+000 82198  8.3904e+000  7.2914e+000  1.8816e+000 52386 82221,81985,82149
 1.8000e+000 82247  1.7340e+000  1.1378e+001  4.2205e+000 52386 81855,81803,82221
 1.8000e+000 82270  2.5536e+000  1.5969e+001  7.2656e+000 52386 81855,82221,82149
 1.8000e+000 82825 -5.7781e+001 -2.1951e+001 -1.2054e+001 51782 82505,82661,82635
 1.8000e+000 82802 -3.3288e+001 -1.3186e+001  5.0625e+000 51782 82479,82661,82505
 1.8000e+000 82779 -3.4495e+001 -1.4813e+001  7.7813e+000 51782 82557,82635,82609
 1.8000e+000 82756 -4.1226e+001 -3.0746e+001  3.8070e+000 51782 82531,82635,82557
 1.8000e+000 82733 -5.8801e+001 -1.6235e+001 -2.1575e+000 51782 82505,82635,82531
 1.8000e+000 82710 -4.4720e+001 -3.1145e+001 -8.1736e+000 51782 82453,82661,82479
 1.8000e+000 82687 -3.8214e+001 -1.3143e+001  7.8786e+000 51782 82557,82609,82583
 1.8000e+000 83171 -2.0473e+001  9.3746e+000 -5.4843e+000 51442 83194,82978,82900
 1.8000e+000 83148 -3.5518e+001  1.0692e+001 -9.4872e+000 51442 83194,82900,82874
 1.8000e+000 83125 -3.7368e+001  2.3599e+000 -3.0959e+000 51442 82900,82978,82926
 1.8000e+000 83102 -4.6589e+001 -3.7105e+000 -8.8300e+000 51442 82874,83030,83004
 1.8000e+000 83079 -4.5871e+000  1.1670e+001 -5.6632e+000 51442 82926,82978,82952
 1.8000e+000 83056 -7.8380e+000  2.0649e+000 -5.2559e+000 51442 82848,83030,82874
 1.8000e+000 83220 -5.8813e+000  7.5661e+000 -4.9202e+000 51442 83004,82978,83194
 1.8000e+000 83243 -2.4011e+001  6.0354e+000 -9.8934e+000 51442 83004,83194,82874
 1.8000e+000 83751 -1.8205e+001  1.8198e+000  6.7789e+000 50938 83428,83584,83454
 1.8000e+000 83728 -3.2373e+001 -2.8573e+000 -1.1585e+000 50938 83428,83610,83584
 1.8000e+000 83705 -3.1714e+001 -6.1026e+000  2.3233e+000 50938 83454,83584,83558
 1.8000e+000 83682 -4.2230e+001 -8.4319e+000 -3.2503e-001 50938 83454,83532,83480
 1.8000e+000 83659 -3.8687e+001 -9.8387e+000 -9.9927e-001 50938 83454,83558,83532
 1.8000e+000 83636 -4.0650e+001  3.7227e+000  4.9970e+000 50938 83480,83532,83506
 1.8000e+000 84355 -3.9438e+001 -2.4352e+001 -1.9032e+000 50377 84378,83960,83934
 1.8000e+000 84332 -3.7192e+001 -1.9610e+001 -2.8027e+000 50377 84522,84378,83934
 1.8000e+000 84309 -5.2869e+001 -3.4123e+001 -5.4150e+000 50377 84450,84038,84012
 1.8000e+000 84286 -4.0547e+001 -1.7004e+001 -2.6330e+000 50377 84522,83934,84142
 1.8000e+000 84263 -4.7613e+001 -3.9626e+001  3.8225e+000 50377 84594,84090,84038
 1.8000e+000 84240 -2.1982e+001 -1.6409e+001  2.9640e+000 50377 83960,84012,83986
 1.8000e+000 84217 -3.6980e+001 -1.0307e+001 -1.1319e+001 50377 83934,84168,84142
 1.8000e+000 84194 -2.6328e+001 -2.6741e+001  9.2592e+000 50377 84038,84090,84064
 1.8000e+000 84404 -2.0238e+001 -2.0388e+001  1.1128e+000 50377 84012,83960,84378
 1.8000e+000 84427 -3.9239e+001 -2.8736e+001 -6.2512e+000 50377 84450,84012,84378
 1.8000e+000 84476 -5.0496e+001 -3.5110e+001  2.9436e+000 50377 84594,84038,84450
 1.8000e+000 84499 -4.6073e+001 -2.6391e+001  9.5351e-001 50377 84116,84450,84378
 1.8000e+000 84548 -4.1035e+001 -2.1611e+001 -3.7446e+000 50377 84116,84378,84522
 1.8000e+000 84571 -4.4287e+001 -1.8804e+001 -3.3988e+000 50377 84116,84522,84142
 1.8000e+000 84620 -4.4797e+001 -3.3406e+001  9.9624e-001 50377 84116,84090,84594
 1.8000e+000 84643 -4.7162e+001 -2.8753e+001 -1.7883e-001 50377 84116,84594,84450
 1.8000e+000 84842 -2.9112e+001  7.0723e+000 -1.3933e+001 49923 84865,84692,84666
 1.8000e+000 84819 -7.1801e+000  2.4961e+000  7.0313e-001 49923 84865,84666,84770
 1.8000e+000 84796  2.3322e+001  1.1001e+001 -1.2354e+000 49923 84692,84744,84718
 1.8000e+000 84891 -1.4754e+001  1.3153e+001 -2.1059e+000 49923 84744,84692,84865
 1.8000e+000 84914  1.0549e+001  1.6596e+001  1.4426e+001 49923 84744,84865,84770
 1.8000e+000 85501 -4.6809e+001 -1.9397e+001 -1.0389e+000 49618 85524,85282,85204
 1.8000e+000 85478 -4.6465e+001 -1.7758e+001  8.0966e-001 49618 85596,85524,85204
 1.8000e+000 85455 -4.4408e+001 -1.6838e+001  1.4457e+000 49618 85596,85204,85178
 1.8000e+000 85432 -4.5808e+001 -3.0491e+001  3.3414e+000 49618 85204,85282,85256
 1.8000e+000 85409 -3.3652e+001 -5.8678e+000 -1.2427e+000 49618 85282,85334,85308
 1.8000e+000 85386 -3.9288e+001 -1.7689e+001 -2.0192e+000 49618 85204,85256,85230
 1.8000e+000 85550 -4.2202e+001 -1.3070e+001 -5.3694e+000 49618 85334,85282,85524
 1.8000e+000 85573 -5.8654e+001 -1.9962e+001 -5.0917e+000 49618 85334,85524,85360
 1.8000e+000 85622 -4.9888e+001 -1.5578e+001  8.6896e-001 49618 85360,85524,85596
 1.8000e+000 85645 -4.8106e+001 -1.5086e+001  1.1470e+000 49618 85360,85596,85178
 1.8000e+000 85795 -1.7145e+002 -5.3347e+001  1.5264e+001 49278 85694,85746,85720
 1.8000e+000 85772 -1.9510e+002 -5.5855e+001  2.7883e+000 49278 85668,85746,85694
 1.8000e+000 86197 -6.3228e+001 -4.2106e+001 -2.8699e+000 48916 86001,86079,86027
 1.8000e+000 86174 -6.8208e+001 -5.6242e+001 -3.6418e+000 48916 85949,86079,86001
 1.8000e+000 86151 -7.2626e+001 -6.1101e+001 -1.7990e+000 48916 85949,86001,85975
 1.8000e+000 86128 -6.5996e+001 -4.4027e+001 -3.2903e-001 48916 86027,86079,86053
 1.8000e+000 86105 -9.0170e+001 -6.4741e+001 -5.1949e+000 48916 85923,86079,85949
 1.8000e+000 86477  7.9175e+000 -7.7401e+000  9.2648e+000 48398 86327,86379,86353
 1.8000e+000 86454  9.4247e-002 -1.2150e+001  4.7430e+000 48398 86500,86379,86327
 1.8000e+000 86431  9.9825e+000 -6.9084e+000  4.9424e+000 48398 86301,86405,86379
 1.8000e+000 86526  1.3361e+000 -1.0390e+001  5.8019e+000 48398 86301,86379,86500
 1.8000e+000 87032 -3.0419e+001 -9.3040e+000  1.6519e+000 48008 87127,87055,86787
 1.8000e+000 87009 -3.1219e+001 -1.4246e+001  1.2952e+000 48008 87055,86735,86709
 1.8000e+000 86986 -3.0524e+001 -9.7333e+000  1.7371e+000 48008 87127,86787,86761
 1.8000e+000 86963 -2.4255e+001 -1.7978e+001  6.9278e+000 48008 86787,86865,86839
 1.8000e+000 86940 -3.3442e+001 -1.1373e+001 -9.3568e-001 48008 86709,86891,86865
 1.8000e+000 86917 -4.2301e+001 -1.0403e+001  1.5825e+001 48008 86787,86839,86813
 1.8000e+000 87081 -3.1769e+001 -1.2517e+001  1.9128e+000 48008 86865,86787,87055
 1.8000e+000 87104 -3.0162e+001 -1.2947e+001  5.6471e-001 48008 86865,87055,86709
 1.8000e+000 87153 -2.9665e+001 -1.3115e+001  5.7723e-001 48008 86735,87055,87127
 1.8000e+000 87176 -2.5595e+001 -7.7362e+000 -1.2514e+000 48008 86735,87127,86761
 1.8000e+000 87456  4.2950e+000 -3.9893e-001 -5.4373e+000 47604 87306,87358,87332
 1.8000e+000 87433  7.0883e-003 -2.0253e+000 -5.1989e+000 47604 87306,87384,87358
 1.8000e+000 87410  1.4480e+000 -1.2437e+000 -1.5390e+000 47604 87280,87384,87306
 1.8000e+000 87785  1.0074e+001  7.4317e+000  6.3379e+000 47264 87638,87690,87664
 1.8000e+000 87762  8.4434e+000  1.4660e+001  5.5413e+000 47264 87612,87690,87638
 1.8000e+000 87739  6.9325e+000  8.7179e+000  6.1192e+000 47264 87560,87690,87612
 1.8000e+000 87716  8.5899e+000  1.3886e+000  2.1626e+000 47264 87560,87612,87586
 1.8000e+000 87935 -7.3758e+001 -4.1839e+001  3.6563e+000 46952 87808,87860,87834
 1.8000e+000 87912 -5.8511e+001 -1.2681e+001 -2.6009e+000 46952 87808,87886,87860
 1.8000e+000 88281 -4.1353e+001 -8.8954e+000  1.2388e+000 46526 88304,88114,88036
 1.8000e+000 88258 -3.5085e+001 -5.1152e+000  2.9232e+000 46526 88304,88036,87984
 1.8000e+000 88235 -4.0528e+001 -6.7108e+000 -4.1442e+000 46526 88036,88114,88062
 1.8000e+000 88212 -2.4213e+001  1.1857e+001  3.4374e+001 46526 87958,88140,87984
 1.8000e+000 88189 -3.2992e+001  9.1219e-002 -6.1842e-002 46526 87984,88036,88010
 1.8000e+000 88166 -4.5090e+001 -1.4686e+001 -8.3389e+000 46526 88062,88114,88088
 1.8000e+000 88330 -4.7127e+001 -4.1571e+000  1.1443e+000 46526 88140,88114,88304
 1.8000e+000 88353 -4.2806e+001 -1.7898e+000  2.3695e+000 46526 88140,88304,87984
 1.8000e+000 88701 -8.6212e+000 -5.8852e+000 -4.7081e+000 45822 88724,88378,88534
 1.8000e+000 88678 -7.6296e+000  2.5239e+000 -4.0216e+000 45822 88378,88560,88534
 1.8000e+000 88655 -6.0341e+000 -6.7365e+000 -1.8447e+000 45822 88724,88534,88508
 1.8000e+000 88632 -3.6695e+000 -1.8860e+000 -1.1200e+000 45822 88404,88508,88456
 1.8000e+000 88609 -2.9513e+000 -8.9676e-001 -2.2617e+000 45822 88404,88456,88430
 1.8000e+000 88586 -5.0038e+000 -5.3306e+000  6.5320e-001 45822 88456,88508,88482
 1.8000e+000 88750 -6.4571e+000 -2.9254e+000 -3.7092e+000 45822 88404,88378,88724
 1.8000e+000 88773 -4.3935e+000 -4.4805e+000 -1.0206e+000 45822 88404,88724,88508
 1.8000e+000 89106 -6.5738e+001 -2.7437e+001 -6.2140e+000 45418 88881,88985,88907
 1.8000e+000 89083 -6.0581e+001 -2.0094e+001 -8.9462e+000 45418 88881,89011,88985
 1.8000e+000 89060 -5.8936e+001 -3.2778e+001 -9.7468e+000 45418 88907,88985,88933
 1.8000e+000 89037 -2.7117e+001 -1.0106e+001  4.6850e+000 45418 88933,88985,88959
 1.8000e+000 89435 -2.5474e+001 -6.3832e+000  5.9228e+000 44914 89210,89288,89236
 1.8000e+000 89412 -1.6900e+001 -7.2643e-001 -6.6347e-001 44914 89210,89314,89288
 1.8000e+000 89389 -1.1372e+001  1.2303e+000 -1.3953e+000 44914 89210,89340,89314
 1.8000e+000 89366 -1.8914e+001 -1.7501e+000  2.4967e+000 44914 89236,89288,89262
 1.8000e+000 89634  1.2167e+001  9.8124e+000  5.5651e+000 44538 89510,89562,89536
 1.8000e+000 89611  4.5973e+000  7.0703e+000 -2.7381e+000 44538 89458,89562,89510
 1.8000e+000 89588  7.5013e+000  2.3503e-001 -3.5955e+000 44538 89458,89510,89484
 1.8000e+000 90044 -6.4856e+001 -3.8409e+001  6.7581e+000 44134 89819,89923,89845
 1.8000e+000 90021 -5.7990e+001 -2.1033e+001  6.9758e+000 44134 89819,89949,89923
 1.8000e+000 89998 -5.1589e+001 -3.2746e+001  2.5299e-001 44134 89845,89923,89897
 1.8000e+000 89975 -3.6050e+001 -3.9480e-001  4.8839e+000 44134 89845,89897,89871
 1.8000e+000 90520 -6.1194e+001 -3.2717e+001  8.7939e-001 43457 90543,90252,90226
 1.8000e+000 90497 -5.1500e+001 -2.8975e+001  2.0571e+000 43457 90543,90226,90330
 1.8000e+000 90474 -6.3016e+001 -3.0244e+001 -4.5426e+000 43457 90200,90330,90226
 1.8000e+000 90451 -6.1193e+001 -3.1151e+001 -6.8800e+000 43457 90200,90356,90330
 1.8000e+000 90428 -6.9199e+001 -2.8208e+001  1.2136e+001 43457 90252,90304,90278
 1.8000e+000 90405 -3.3758e+001 -1.6305e+001  4.2686e+000 43457 90174,90356,90200
 1.8000e+000 90382 -5.7742e+001 -4.4302e+001 -6.3966e+000 43457 90148,90356,90174
 1.8000e+000 90569 -7.0324e+001 -2.7240e+001  1.0281e+001 43457 90304,90252,90543
 1.8000e+000 90592 -5.3569e+001 -1.9502e+001  1.3543e+001 43457 90304,90543,90330
 1.8000e+000 91098 -1.0550e+001 -7.5220e+000  6.0092e+000 42789 90801,90905,90853
 1.8000e+000 91075 -1.7042e+001 -5.9422e+000  8.8411e+000 42789 90775,90905,90801
 1.8000e+000 91052 -2.1572e+001 -8.8810e+000  3.0725e+000 42789 90775,90931,90905
 1.8000e+000 91029  8.1903e-001  7.3771e+000  1.3998e+001 42789 90801,90853,90827
 1.8000e+000 91006 -1.7396e+001 -1.2985e+001  1.7982e+001 42789 90853,90905,90879
 1.8000e+000 90983 -2.7884e+001 -3.8414e+000  5.4610e+000 42789 90775,90957,90931
 1.8000e+000 91427 -4.8062e+001 -8.0863e+000 -3.7092e+000 42227 91228,91280,91254
 1.8000e+000 91404 -6.0028e+001 -2.2053e+001  2.4714e+000 42227 91228,91306,91280
 1.8000e+000 91381 -5.4183e+001 -1.9500e+001  2.8103e+000 42227 91202,91306,91228
 1.8000e+000 91358 -5.3347e+001 -2.2009e+001  1.4458e+000 42227 91202,91332,91306
 1.8000e+000 91675 -7.1374e+000 -2.5542e+000 -2.3489e+000 41773 91698,91476,91450
 1.8000e+000 91652 -6.4200e+000 -3.8625e+000  1.6264e+000 41773 91698,91450,91554
 1.8000e+000 91629 -4.4583e+000 -9.8981e+000  2.0513e+000 41773 91450,91580,91554
 1.8000e+000 91606 -9.3632e+000 -4.1987e+000  2.9773e+000 41773 91502,91554,91528
 1.8000e+000 91724 -9.9283e+000 -3.9759e+000 -1.7035e+000 41773 91502,91476,91698
 1.8000e+000 91747 -9.9755e+000 -5.6388e+000  2.3425e+000 41773 91502,91698,91554
 1.8000e+000 92127 -5.1272e+001 -1.6964e+001  1.1816e+000 41255 92150,91905,91879
 1.8000e+000 92104 -6.4910e+001 -2.4437e+001  6.9104e+000 41255 92150,91879,91957
 1.8000e+000 92081 -4.9281e+001 -4.0059e+001  2.1208e+001 41255 91853,91957,91879
 1.8000e+000 92058 -5.5793e+001 -5.2224e+001  8.0926e+000 41255 91853,91983,91957
 1.8000e+000 92035 -3.2983e+001 -2.6924e+001 -2.1992e+000 41255 91853,92009,91983
 1.8000e+000 92176 -6.4497e+001 -7.6052e+000  1.1713e+001 41255 91931,91905,92150
 1.8000e+000 92199 -8.7535e+001 -2.8119e+001  2.1231e+001 41255 91931,92150,91957
 1.8000e+000 92518 -6.9343e+001 -1.1393e+001  7.1257e+000 41007 92244,92374,92270
 1.8000e+000 92495 -4.2061e+001  4.1955e+000  4.8752e-001 41007 92244,92400,92374
 1.8000e+000 92472 -7.2257e+001 -2.2697e+001  1.0478e+000 41007 92270,92374,92348
 1.8000e+000 92449 -9.7898e+001 -5.2571e+001  6.7866e+000 41007 92296,92348,92322
 1.8000e+000 92426 -8.1411e+001 -4.9790e+001  6.4094e+000 41007 92270,92348,92296
 1.8000e+000 92668 -2.4787e+001 -1.6405e+001 -2.3457e+000 40717 92823,92691,92567
 1.8000e+000 92645 -2.3752e+001 -1.7829e+001 -2.2390e+000 40717 92895,92823,92567
 1.8000e+000 92717 -3.4238e+001 -1.9361e+001  7.1702e+000 40717 92593,92567,92691
 1.8000e+000 92849 -2.4856e+001 -1.8720e+001 -2.1854e+000 40717 92619,92691,92823
 1.8000e+000 92872 -2.5558e+001 -1.8974e+001 -2.1926e+000 40717 92619,92823,92541
 1.8000e+000 92921 -2.7552e+001 -2.0545e+001 -6.7451e-001 40717 92541,92823,92895
 1.8000e+000 93634 -4.5737e+001 -2.2429e+001 -5.2528e+000 40206 93366,93444,93418
 1.8000e+000 93611 -3.5242e+001 -1.3297e+001  5.8051e-001 40206 93288,93444,93366
 1.8000e+000 93588 -3.9972e+001 -2.4632e+001  2.2827e+000 40206 93288,93366,93314
 1.8000e+000 93565 -6.6573e+001 -2.7015e+001 -1.8054e+000 40206 93262,93444,93288
 1.8000e+000 93542 -5.2770e+001 -1.0915e+001  2.1439e+000 40206 93366,93418,93392
 1.8000e+000 93519 -9.0941e+001 -9.8419e-001 -4.1485e-002 40206 93262,93470,93444
 1.8000e+000 93496 -3.4944e+001 -2.2414e+001  1.6113e-003 40206 93314,93366,93340
 1.8000e+000 94189 -2.2545e+001 -6.5734e+000  6.7320e+000 39802 93843,93999,93973
 1.8000e+000 94166 -2.5603e+001 -9.1619e+000  9.6287e+000 39802 93817,93999,93843
 1.8000e+000 94143 -4.4489e+001 -8.5505e+000  7.5620e+000 39802 93869,93973,93947
 1.8000e+000 94120 -2.3228e+001  5.5562e-001  6.3386e+000 39802 93843,93973,93869
 1.8000e+000 94097 -2.3748e+001 -5.4711e-001 -7.4342e-001 39802 93869,93921,93895
 1.8000e+000 94074 -2.3771e+001 -7.9522e-001  5.7396e-001 39802 93869,93947,93921
 1.8000e+000 94051 -1.9547e+001 -3.6802e+000  7.1250e+000 39802 93817,94025,93999
 1.8000e+000 94290 -5.2339e+001 -1.3025e+001 -1.1622e-001 39398 94212,94264,94238
 1.8000e+000 94798 -1.7116e+001 -1.4340e+000  2.1432e-001 38701 94501,94657,94631
 1.8000e+000 94775 -8.3166e+000 -7.0850e+000 -4.4578e+000 38701 94475,94657,94501
 1.8000e+000 94752 -2.3277e+001 -1.6878e+001 -5.6057e-001 38701 94579,94631,94605
 1.8000e+000 94729 -1.8396e+001 -4.6784e+000 -2.7558e-003 38701 94553,94631,94579
 1.8000e+000 94706 -4.1975e+000  2.1133e-001 -3.5464e+000 38701 94501,94631,94553
 1.8000e+000 94683 -4.3010e+000 -2.5060e+000 -3.8373e+000 38701 94501,94553,94527
 1.8000e+000 95255 -1.1125e+001 -7.0507e-001  5.1694e+000 38247 95278,95085,95007
 1.8000e+000 95232 -8.6750e+000 -1.2978e-001  4.6622e+000 38247 95278,95007,95137
 1.8000e+000 95209 -1.0604e+001 -4.2705e+000  4.0294e+000 38247 94981,95137,95007
 1.8000e+000 95186 -2.1925e+001 -1.5940e+001 -9.0013e-001 38247 95007,95059,95033
 1.8000e+000 95163 -2.2789e+001 -1.2586e+001  1.0294e+001 38247 95007,95085,95059
 1.8000e+000 95304 -1.2139e+001 -1.1740e+000  7.3020e+000 38247 95111,95085,95278
 1.8000e+000 95327 -9.7711e+000  3.7427e-003  6.5132e+000 38247 95111,95278,95137
 1.8000e+000 95575 -5.7552e+001  3.7195e+001 -8.0697e+000 37564 95376,95428,95402
 1.8000e+000 95552 -6.1760e+001 -1.5491e+001 -3.9475e+000 37564 95376,95454,95428
 1.8000e+000 95529 -5.0099e+001 -1.2706e+001 -6.6682e+000 37564 95376,95480,95454
 1.8000e+000 95506 -4.5170e+001 -7.8616e+000 -4.6966e+000 37564 95350,95480,95376
 1.8000e+000 96034 -1.4728e+001  7.4649e-001  2.1649e+000 37224 95786,95838,95812
 1.8000e+000 96011 -1.6781e+001 -9.1259e+000  5.5727e+000 37224 95786,95890,95838
 1.8000e+000 95988 -7.2467e+000 -4.7867e+000  2.1849e+000 37224 95786,95916,95890
 1.8000e+000 95965 -2.6466e+001 -9.5984e+000 -1.8081e+000 37224 95760,95916,95786
 1.8000e+000 95942 -8.5829e+000 -1.3810e+001 -2.9613e+000 37224 95838,95890,95864
 1.8000e+000 96363  9.6930e+000  4.5888e+000 -2.3226e+000 36884 96216,96268,96242
 1.8000e+000 96340 -1.0365e+001  1.1474e+001  6.0311e-002 36884 96164,96268,96216
 1.8000e+000 96317 -1.8049e+001 -9.3316e-001  9.8620e+000 36884 96138,96268,96164
 1.8000e+000 96294 -1.2936e+001  7.3076e+000  2.8645e+000 36884 96164,96216,96190
 1.8000e+000 96839 -5.0303e+001 -2.1563e+001  1.0674e+000 36572 96862,96649,96597
 1.8000e+000 96816 -5.1644e+001 -2.1348e+001  1.6100e+000 36572 97006,96862,96597
 1.8000e+000 96793 -5.4259e+001 -2.4126e+001  3.3236e+000 36572 96934,96467,96675
 1.8000e+000 96770 -5.1826e+001 -2.0321e+001  4.9820e-001 36572 97006,96597,96571
 1.8000e+000 96747 -5.7000e+001 -1.5052e+001 -6.7605e+000 36572 96467,96519,96493
 1.8000e+000 96724 -1.1678e+002 -1.1498e+001  3.5317e+001 36572 96519,96571,96545
 1.8000e+000 96701 -3.5612e+001 -2.7964e+000  1.0871e+001 36572 96597,96649,96623
 1.8000e+000 96888 -5.1860e+001 -2.1508e+001  2.8989e+000 36572 96675,96649,96862
 1.8000e+000 96911 -5.2769e+001 -2.4044e+001  3.7206e+000 36572 96934,96675,96862
 1.8000e+000 96960 -5.7642e+001 -2.3675e+001  4.2741e+000 36572 96519,96467,96934
 1.8000e+000 96983 -5.3808e+001 -2.2803e+001  2.9750e+000 36572 97078,96934,96862
 1.8000e+000 97032 -5.0866e+001 -2.2450e+001  1.8564e+000 36572 97078,96862,97006
 1.8000e+000 97055 -5.0915e+001 -2.2618e+001  2.0967e+000 36572 96519,97006,96571
 1.8000e+000 97104 -5.4625e+001 -2.4120e+001  4.6592e+000 36572 96519,96934,97078
 1.8000e+000 97127 -5.3743e+001 -2.4673e+001  3.5484e+000 36572 96519,97078,97006
 1.8000e+000 97761 -4.8148e+001 -1.7872e+001  1.5344e+001 36118 97784,97493,97415
 1.8000e+000 97738 -5.5073e+001 -1.3203e+001  1.0018e+001 36118 97784,97415,97597
 1.8000e+000 97715 -8.8759e+001 -1.8096e+001  2.2159e+001 36118 97389,97597,97415
 1.8000e+000 97692 -8.6150e+001 -1.9796e+001  2.3677e+001 36118 97415,97467,97441
 1.8000e+000 97669 -7.6316e+001 -2.4708e+001  3.4605e+001 36118 97415,97493,97467
 1.8000e+000 97646 -4.3379e+001 -4.7397e+001 -6.7510e-001 36118 97493,97571,97519
 1.8000e+000 97623 -2.5355e+001 -1.3407e+001  6.3859e+000 36118 97519,97571,97545
 1.8000e+000 97810 -5.2685e+001 -2.1395e+001  1.2587e+001 36118 97571,97493,97784
 1.8000e+000 97833 -6.4039e+001 -2.0468e+001  6.4419e+000 36118 97571,97784,97597
 1.8000e+000 98081 -7.1030e+001 -3.4764e+001  7.8244e-001 35564 98104,97908,97856
 1.8000e+000 98058 -7.4236e+001 -3.6731e+001  2.6243e+000 35564 98104,97856,97986
 1.8000e+000 98035 -8.5664e+001 -4.0703e+001  1.0679e+000 35564 97934,97986,97960
 1.8000e+000 98012 -6.2032e+001 -1.0874e+001 -5.4339e+000 35564 97856,97908,97882
 1.8000e+000 98130 -7.5632e+001 -2.6009e+001  1.4195e-002 35564 97934,97908,98104
 1.8000e+000 98153 -7.9189e+001 -3.2962e+001  3.9795e+000 35564 97934,98104,97986
 1.8000e+000 98374 -9.1503e+001 -3.6664e+001 -2.4092e+000 35152 98224,98302,98276
 1.8000e+000 98351 -7.3113e+001  5.5079e+000  2.1820e-001 35152 98198,98302,98224
 1.8000e+000 98328 -7.7799e+001 -3.3499e+001 -4.6409e+000 35152 98224,98276,98250
 1.8000e+000 98884 -1.1377e+001 -7.5671e-002  2.6240e+000 34698 98691,98743,98717
 1.8000e+000 98861 -1.0641e+001  1.0096e+000  2.8583e+000 34698 98561,98743,98691
 1.8000e+000 98838 -8.8800e+000 -2.6840e-001  3.8258e+000 34698 98907,98587,98561
 1.8000e+000 98815 -9.7428e+000 -2.9446e+000  3.1715e+000 34698 98907,98561,98691
 1.8000e+000 98792 -7.5188e+000 -6.8909e-001 -6.4700e-001 34698 98587,98639,98613
 1.8000e+000 98769 -2.3677e+001 -1.9111e+001  1.3398e+001 34698 98587,98665,98639
 1.8000e+000 98933 -7.6916e+000 -9.3002e-001  6.3134e+000 34698 98665,98587,98907
 1.8000e+000 98956 -8.9503e+000 -4.8998e+000  5.6871e+000 34698 98665,98907,98691
 1.8000e+000 99204 -3.7662e+001 -2.3185e+000 -3.1712e+000 34144 99227,99031,99005
 1.8000e+000 99181 -3.9404e+001 -9.2406e+000  3.1172e+000 34144 99299,99227,99005
 1.8000e+000 99158 -4.2684e+001 -8.2285e+000  6.7211e+000 34144 99299,99005,99109
 1.8000e+000 99135 -3.3618e+001 -7.3188e+000  7.8235e+000 34144 98979,99109,99005
 1.8000e+000 99253 -3.5664e+001 -5.3224e+000 -8.4273e-001 34144 99057,99031,99227
 1.8000e+000 99276 -1.1306e+001 -1.2793e+000 -2.0362e+000 34144 99057,99227,99083
 1.8000e+000 99325 -3.2807e+001 -1.9511e+000 -6.0859e+000 34144 99083,99227,99299
 1.8000e+000 99348 -4.4609e+001 -4.6957e+000 -2.4996e+000 34144 99083,99299,99109
 1.8000e+000 99498 -1.4640e+002 -3.9850e+001  1.8704e+001 33433 99397,99449,99423
 1.8000e+000 99475 -1.7079e+002 -4.3360e+001  2.8751e+000 33433 99371,99449,99397
 1.8000e+000 100008 -3.0361e+001 -1.3516e+001  4.5005e+000 32979 100103,100031,99815
 1.8000e+000 99985 -3.7779e+001 -5.1225e+000 -1.0969e+000 32979 100175,100031,99763
 1.8000e+000 99962 -3.2743e+001 -9.9925e+000  7.6542e+000 32979 100103,99815,99789
 1.8000e+000 99939 -3.9062e+001 -3.8891e+000  2.2894e-001 32979 100175,99763,99737
 1.8000e+000 99916 -3.8282e+001  4.3269e+000 -1.2323e+000 32979 99685,99867,99737
 1.8000e+000 99893 -3.2135e+001 -4.0003e+000 -1.0507e+001 32979 99685,99737,99711
 1.8000e+000 100057 -3.0048e+001 -1.1912e+001  5.1183e-001 32979 99841,99815,100031
 1.8000e+000 100080 -2.6863e+001  2.7987e+000 -6.2122e+000 32979 99841,100031,99867
 1.8000e+000 100129 -3.1375e+001 -6.1485e+000  4.5080e+000 32979 99763,100031,100103
 1.8000e+000 100152 -3.1528e+001 -2.6576e-001  8.1835e+000 32979 99763,100103,99789
 1.8000e+000 100201 -4.0027e+001 -6.5594e+000 -1.7776e+000 32979 99867,100031,100175
 1.8000e+000 100224 -4.0220e+001 -5.0764e+000 -2.6958e-001 32979 99867,100175,99737
 1.8000e+000 100553 -6.2375e+001 -3.9855e+001  9.6270e+000 32503 100354,100406,100380
 1.8000e+000 100530 -4.6734e+001 -2.0234e+001 -3.0534e+000 32503 100328,100406,100354
 1.8000e+000 100507 -4.6133e+001 -3.4629e+001 -1.3994e+001 32503 100328,100458,100406
 1.8000e+000 100484 -2.1898e+001 -4.4836e+001 -2.1729e+000 32503 100406,100458,100432
 1.8000e+000 100850 -8.2972e+001 -5.2656e+001  8.6619e-001 31899 100873,100654,100628
 1.8000e+000 100827 -8.0680e+001 -5.3343e+001 -2.4122e-001 31899 100945,100873,100628
 1.8000e+000 100804 -7.9234e+001 -5.0227e+001  4.1092e-001 31899 100945,100628,100602
 1.8000e+000 100781 -8.3692e+001 -3.6318e+001  7.6484e+000 31899 100576,100732,100602
 1.8000e+000 100758 -5.4434e+001 -9.8204e+000  1.4422e+001 31899 100654,100706,100680
 1.8000e+000 100899 -8.2756e+001 -5.6738e+001  1.3019e+000 31899 100706,100654,100873
 1.8000e+000 100922 -8.7409e+001 -5.3916e+001 -4.3193e+000 31899 100706,100873,100732
 1.8000e+000 100971 -8.4890e+001 -4.8352e+001 -2.1354e+000 31899 100732,100873,100945
 1.8000e+000 100994 -8.3070e+001 -4.4771e+001 -1.2834e+000 31899 100732,100945,100602
 1.8000e+000 101551 -1.9688e+001 -2.6342e+000  4.9277e+000 31338 101205,101387,101231
 1.8000e+000 101528 -2.0853e+001 -4.4611e+000  3.1499e+000 31338 101179,101387,101205
 1.8000e+000 101505 -2.4712e+001 -1.5676e+001  2.4570e+000 31338 101574,101309,101257
 1.8000e+000 101482 -2.0131e+001 -1.3141e+001  3.6744e+000 31338 101646,101574,101257
 1.8000e+000 101459 -1.7164e+001 -9.5159e+000  5.5266e+000 31338 101646,101257,101231
 1.8000e+000 101436 -2.8718e+001 -5.8192e+000  3.0320e+000 31338 101309,101361,101335
 1.8000e+000 101413 -2.6814e+001 -1.5874e+001  1.5070e+000 31338 101257,101309,101283
 1.8000e+000 101600 -2.8794e+001 -1.3299e+001  4.8936e+000 31338 101361,101309,101574
 1.8000e+000 101623 -2.4257e+001 -1.3359e+001  3.5364e+000 31338 101361,101574,101387
 1.8000e+000 101672 -2.2677e+001 -1.2218e+001  9.0454e-001 31338 101387,101574,101646
 1.8000e+000 101695 -2.0693e+001 -1.1438e+001  2.2085e+000 31338 101387,101646,101231
 1.8000e+000 101943 -3.6392e+001 -1.2454e+001  9.0803e-001 30748 101966,101796,101744
 1.8000e+000 101920 -2.7446e+001 -4.2991e+000  4.3034e+000 30748 101966,101744,101718
 1.8000e+000 101897 -3.1342e+001  4.7867e+000  2.5469e+001 30748 101718,101848,101822
 1.8000e+000 101874 -3.3769e+001 -5.7962e+000 -5.1791e+000 30748 101744,101796,101770
 1.8000e+000 101992 -4.2041e+001 -2.9684e+000  2.9275e+000 30748 101822,101796,101966
 1.8000e+000 102015 -3.6457e+001  2.6748e+000  5.1869e+000 30748 101822,101966,101718
 1.8000e+000 102493 -7.9826e+001 -2.6209e+001  1.6648e+001 30344 102516,102173,102147
 1.8000e+000 102470 -6.4801e+001 -1.6826e+001  2.6748e+000 30344 102660,102516,102147
 1.8000e+000 102447 -4.4744e+001 -4.9076e+000  2.7500e+000 30344 102588,102199,102173
 1.8000e+000 102424 -6.2901e+001 -1.8910e+001  2.9731e+000 30344 102660,102147,102329
 1.8000e+000 102401 -1.1771e+002 -2.0017e+001  2.3609e+000 30344 102199,102277,102251
 1.8000e+000 102378 -3.6517e+001 -3.1233e+001  2.3794e+001 30344 102199,102251,102225
 1.8000e+000 102355 -1.2330e+002 -3.8876e+001  3.8671e+001 30344 102121,102329,102147
 1.8000e+000 102542 -5.4860e+001 -1.4693e+001  6.7990e+000 30344 102588,102173,102516
 1.8000e+000 102565 -6.2185e+001 -1.3263e+001  2.2732e+000 30344 102277,102516,102303
 1.8000e+000 102614 -5.9960e+001  4.3388e+000  3.3229e+000 30344 102277,102199,102588
 1.8000e+000 102637 -6.6431e+001 -8.8437e-001  5.9148e+000 30344 102277,102588,102516
 1.8000e+000 102686 -6.2861e+001 -1.4204e+001  3.5223e+000 30344 102303,102516,102660
 1.8000e+000 102709 -6.1337e+001 -1.6512e+001  3.6494e+000 30344 102303,102660,102329
 1.8000e+000 103294 -5.3298e+001 -3.6309e+001  8.1254e+000 29726 103317,103101,103075
 1.8000e+000 103271 -5.8721e+001 -3.8949e+001  5.6754e+000 29726 103317,103075,102997
 1.8000e+000 103248 -8.2996e+001 -4.6934e+001  1.5349e+001 29726 102971,103153,102997
 1.8000e+000 103225 -3.1922e+001 -2.0160e+000 -1.0241e+000 29726 103101,103153,103127
 1.8000e+000 103202 -5.5653e+001 -4.5017e+001  2.1636e+000 29726 102997,103075,103023
 1.8000e+000 103179 -6.3497e+001 -2.9161e+001 -1.3704e+001 29726 103023,103075,103049
 1.8000e+000 103343 -4.9470e+001 -3.9764e+001  7.9906e+000 29726 103153,103101,103317
 1.8000e+000 103366 -5.3241e+001 -4.0144e+001  6.6103e+000 29726 103153,103317,102997
 1.8000e+000 103614 -3.2802e+001 -2.6494e+001  6.6257e+000 29200 103781,103637,103467
 1.8000e+000 103591 -2.9803e+001 -1.8932e+001  3.0922e+000 29200 103709,103637,103415
 1.8000e+000 103568 -2.3875e+001 -1.1317e+001  5.9806e+000 29200 103709,103415,103389
 1.8000e+000 103545 -3.2149e+001 -3.0414e+001  9.7922e+000 29200 103781,103467,103441
 1.8000e+000 103663 -2.2322e+001 -1.8661e+001 -2.9413e+000 29200 103853,103637,103493
 1.8000e+000 103686 -4.5919e+001 -3.4197e+001 -1.1916e+001 29200 103493,103637,103519
 1.8000e+000 103735 -3.8647e+001 -9.5565e+000 -1.9523e+000 29200 103519,103637,103709
 1.8000e+000 103758 -3.3830e+001 -4.5156e+000  2.6760e-001 29200 103519,103709,103389
 1.8000e+000 103807 -3.1869e+001 -1.8163e+001  3.9039e+000 29200 103415,103637,103781
 1.8000e+000 103830 -3.3138e+001 -2.1454e+001  8.4332e+000 29200 103415,103781,103441
 1.8000e+000 103879 -2.4177e+001 -2.3761e+001  3.1689e+000 29200 103467,103637,103853
 1.8000e+000 104545 -7.7384e+001 -1.8249e+001  1.2144e+001 28860 104274,104352,104326
 1.8000e+000 104522 -6.1428e+001 -3.0096e+001  2.5168e+000 28860 104248,104352,104274
 1.8000e+000 104499 -4.3955e+001 -2.1707e+001  8.5140e-003 28860 104248,104404,104352
 1.8000e+000 104476 -6.5520e+001 -4.0860e+001 -8.0514e+000 28860 104222,104404,104248
 1.8000e+000 104453 -5.1921e+001 -4.2014e+001  1.8945e+000 28860 104352,104404,104378
 1.8000e+000 104430 -1.3214e+002 -2.3968e+001  1.8047e+000 28860 104274,104326,104300
 1.8000e+000 104744 -1.5052e+001 -1.0125e-001  4.5734e+000 28456 104839,104767,104646
 1.8000e+000 104721  1.5750e-001  2.3348e+000  2.3500e+000 28456 104767,104594,104568
 1.8000e+000 104698 -1.3378e+001 -3.3147e+000  2.1101e+000 28456 104839,104646,104620
 1.8000e+000 104793 -8.1444e+000 -1.1302e-001  6.8608e+000 28456 104672,104646,104767
 1.8000e+000 104816 -3.1734e+000  8.8246e-001  2.5354e+000 28456 104911,104767,104568
 1.8000e+000 104865 -1.0580e+001  1.5297e+000 -5.1318e-003 28456 104594,104767,104839
 1.8000e+000 104888 -1.5579e+001 -1.3451e+001  2.1970e+000 28456 105041,104839,104620
 1.8000e+000 104937 -1.3033e+001 -1.7502e+001  6.2444e+000 28456 104672,104767,104911
 1.8000e+000 105067 -1.5574e+001 -9.6128e-001  1.1620e+000 28456 104594,104839,105041
 1.8000e+000 105573 -3.3571e+001 -5.8789e+000  3.9410e+000 28094 105812,105596,105328
 1.8000e+000 105550 -3.4364e+001 -7.6811e+000  3.6707e+000 28094 105596,105276,105250
 1.8000e+000 105527 -2.7866e+001 -3.0539e+000  7.4226e+000 28094 105740,105668,105432
 1.8000e+000 105504 -2.7417e+001 -1.8870e+000  7.3759e+000 28094 105740,105432,105380
 1.8000e+000 105481 -3.3548e+001 -5.9342e+000  3.9772e+000 28094 105812,105328,105302
 1.8000e+000 105458 -1.5970e+001 -6.5074e+000  6.8589e+000 28094 105380,105432,105406
 1.8000e+000 105622 -4.3924e+001 -1.1707e+001  8.7622e+000 28094 105354,105328,105596
 1.8000e+000 105645 -3.0013e+001 -5.4037e+000  6.0648e+000 28094 105668,105354,105596
 1.8000e+000 105694 -2.9947e+001 -3.1941e+000  4.7669e+000 28094 105250,105432,105668
 1.8000e+000 105717 -3.4336e+001 -3.6208e+000  3.8373e+000 28094 105250,105668,105596
 1.8000e+000 105766 -2.7537e+001 -4.0469e+000  5.2387e+000 28094 105354,105668,105740
 1.8000e+000 105789 -2.6688e+001 -2.0300e+000  5.1703e+000 28094 105354,105740,105380
 1.8000e+000 105838 -3.3002e+001 -6.8916e+000  4.0329e+000 28094 105276,105596,105812
 1.8000e+000 105861 -3.0246e+001 -5.2727e+000  3.2279e+000 28094 105276,105812,105302
 1.8000e+000 106367 -6.0242e+001 -2.2347e+001 -4.9327e+000 27390 106070,106122,106096
 1.8000e+000 106344 -6.1085e+001 -2.3927e+001 -4.5238e+000 27390 106070,106226,106122
 1.8000e+000 106321 -6.3645e+001 -4.0051e+000 -6.1325e+000 27390 106174,106226,106200
 1.8000e+000 106298 -6.2228e+001 -2.9129e+001 -3.5291e+000 27390 106122,106226,106174
 1.8000e+000 106275 -6.8716e+001 -3.4033e+001 -2.1085e+001 27390 106122,106174,106148
 1.8000e+000 106252 -5.0785e+001 -1.7718e+001  1.7384e+000 27390 106044,106226,106070
 1.8000e+000 106615 -8.0272e+001 -3.7440e+001  1.1907e+000 26978 106638,106494,106416
 1.8000e+000 106592 -8.2785e+001 -3.1739e+001  2.1580e+000 26978 106638,106416,106390
 1.8000e+000 106569 -8.7278e+001 -4.2912e+001 -5.4542e+000 26978 106416,106494,106442
 1.8000e+000 106546 -8.8365e+001 -4.5689e+001 -7.2138e+000 26978 106442,106494,106468
 1.8000e+000 106664 -7.8123e+001 -3.1610e+001 -1.2475e+000 26978 106520,106494,106638
 1.8000e+000 106687 -8.2485e+001 -2.7639e+001  1.3156e+000 26978 106520,106638,106390
 1.8000e+000 106837 -6.5109e+001 -3.0491e+001 -4.2513e+000 26524 106710,106762,106736
 1.8000e+000 106814 -6.7861e+001 -3.1905e+001 -3.0356e+000 26524 106710,106788,106762
 1.8000e+000 107426 -2.4236e+001 -5.2290e+000 -5.3735e+000 26120 107129,107207,107155
 1.8000e+000 107403 -3.0964e+001 -1.7942e+001 -2.4172e+000 26120 107129,107285,107207
 1.8000e+000 107380 -2.6375e+001 -1.1756e+001  1.0210e+000 26120 107207,107285,107259
 1.8000e+000 107357 -2.7980e+001 -1.2672e+001  5.5203e+000 26120 107155,107207,107181
 1.8000e+000 107334 -3.2931e+001 -1.9544e+001 -3.9321e+000 26120 107103,107285,107129
 1.8000e+000 107311 -1.4897e+001 -8.5539e+000  3.1789e+000 26120 107207,107259,107233
 1.8000e+000 107755 -1.5533e+001 -8.2711e-001 -1.4125e+000 25758 107556,107634,107608
 1.8000e+000 107732 -3.0916e+001 -7.3264e+000  2.8316e+000 25758 107556,107660,107634
 1.8000e+000 107709 -1.0665e+001 -2.9686e+000  3.3635e+000 25758 107556,107608,107582
 1.8000e+000 107686 -2.6036e+001  1.3132e+001  9.4060e+000 25758 107530,107660,107556
 1.8000e+000 108438 -1.3328e+001 -7.8281e+000  2.0226e+000 25468 108121,108199,108173
 1.8000e+000 108415 -1.7891e+001 -2.2186e+001 -2.2987e+000 25468 108095,108199,108121
 1.8000e+000 108392 -2.0075e+001 -1.1494e+001 -2.6922e+000 25468 108095,108251,108199
 1.8000e+000 108369 -2.3513e+001 -1.8573e+001 -1.5444e+000 25468 108069,108251,108095
 1.8000e+000 108346 -7.2362e+000 -6.3138e+000 -1.3381e+000 25468 108199,108251,108225
 1.8000e+000 108323 -3.1774e+001 -5.0511e+000 -8.5271e+000 25468 108017,108251,108069
 1.8000e+000 108300 -1.3511e+001 -1.0104e+001  2.2193e+000 25468 108121,108173,108147
 1.8000e+000 108277 -3.7655e+001 -1.3569e+001 -5.7224e+000 25468 108017,108069,108043
 1.8000e+000 108588 -2.7124e+001 -2.2111e+001  6.3500e+000 25064 108611,108513,108487
 1.8000e+000 108565 -1.2479e+001 -1.0355e+001  1.1998e+001 25064 108683,108611,108487
 1.8000e+000 108637 -3.0151e+001 -9.2545e+000  9.8829e+000 25064 108539,108513,108611
 1.8000e+000 108660 -3.5272e+001 -1.1829e+001  8.9697e+000 25064 108539,108611,108461
 1.8000e+000 108709 -3.2945e+001 -7.1006e+000  1.0116e+001 25064 108461,108611,108683
 1.8000e+000 109345 -4.3309e+001 -9.7135e+000  9.5124e+000 24410 108999,109155,109103
 1.8000e+000 109322 -8.4057e+001 -2.0830e+001  1.7968e+001 24410 108973,109155,108999
 1.8000e+000 109299 -3.5635e+001 -1.7851e+001  1.1861e+001 24410 109103,109155,109129
 1.8000e+000 109276 -3.9005e+001  6.0897e+000  5.9636e+000 24410 108973,109181,109155
 1.8000e+000 109253 -9.3852e+001 -3.4019e+001  1.6503e+001 24410 109025,109103,109077
 1.8000e+000 109230 -6.1865e+001 -2.2328e+001  1.5313e+001 24410 108999,109103,109025
 1.8000e+000 109207 -8.7309e+001  2.1137e-001  5.1673e+000 24410 109025,109077,109051
 1.8000e+000 109723 -3.6237e+001  5.3597e+000  1.6170e+000 23856 109475,109579,109553
 1.8000e+000 109700 -3.2620e+001 -4.0215e+000 -1.3291e+000 23856 109475,109605,109579
 1.8000e+000 109677 -4.3568e+001 -3.9666e+000 -1.6395e+001 23856 109475,109553,109527
 1.8000e+000 109654 -1.5028e+001  3.4887e+000  3.4159e+000 23856 109449,109605,109475
 1.8000e+000 109631 -3.0890e+001  9.4349e+000 -1.0481e+001 23856 109475,109527,109501
 1.8000e+000 110101 -4.4826e+001 -1.9938e+001  2.4924e+000 23566 109853,109931,109879
 1.8000e+000 110078 -3.2195e+001 -1.0471e+001  8.1103e+000 23566 109827,109931,109853
 1.8000e+000 110055 -2.2040e+001  1.2963e+001  1.5062e+000 23566 109827,109983,109931
 1.8000e+000 110032 -4.0277e+001 -3.6415e+001 -1.2393e+001 23566 109879,109931,109905
 1.8000e+000 110009 -2.0040e+001  8.7270e+000  9.7696e+000 23566 109931,109983,109957
 1.8000e+000 110735 -5.9859e+001 -3.1071e+001 -2.4017e+000 23162 110415,110571,110519
 1.8000e+000 110712 -5.9733e+001 -2.4096e+001 -1.9277e+000 23162 110389,110571,110415
 1.8000e+000 110689 -7.9591e+001 -3.8086e+001  2.7485e+000 23162 110415,110519,110493
 1.8000e+000 110666 -5.0339e+001 -2.4500e+001 -8.4790e+000 23162 110363,110571,110389
 1.8000e+000 110643 -7.1266e+001 -2.4854e+001  9.6807e+000 23162 110441,110493,110467
 1.8000e+000 110620 -7.4385e+001 -3.2352e+001  3.4703e-001 23162 110415,110493,110441
 1.8000e+000 110597 -5.4492e+001 -5.0586e+000 -3.3280e+000 23162 110519,110571,110545
 1.8000e+000 111211 -2.9298e+001 -3.0275e+000 -4.5608e+000 22708 111378,111306,111021
 1.8000e+000 111188 -3.1048e+001  1.1260e+000 -4.8447e+000 22708 111234,110969,110917
 1.8000e+000 111165 -2.6757e+001 -5.3855e+000 -5.6002e+000 22708 111450,111234,110917
 1.8000e+000 111142 -2.7695e+001 -9.4426e-001 -2.0517e+000 22708 111378,111021,110995
 1.8000e+000 111119 -2.7666e+001 -9.0618e+000 -4.1342e+000 22708 111450,110917,110865
 1.8000e+000 111096 -7.4287e+001 -7.0966e+000 -3.9569e+000 22708 110917,110969,110943
 1.8000e+000 111073 -2.7355e+001 -7.3429e+000 -3.9058e+000 22708 110865,110917,110891
 1.8000e+000 111260 -3.3106e+001 -5.4880e-001 -3.2882e+000 22708 111306,110969,111234
 1.8000e+000 111283 -2.9306e+001 -6.6588e+000  1.3988e+000 22708 111047,111234,110839
 1.8000e+000 111332 -4.8231e+001  1.3697e+001 -1.8342e+001 22708 111047,111021,111306
 1.8000e+000 111355 -3.8779e+001 -3.6377e+000  6.9869e-001 22708 111047,111306,111234
 1.8000e+000 111404 -3.3366e+001 -1.2109e-001 -4.2187e+000 22708 110969,111306,111378
 1.8000e+000 111427 -3.2471e+001 -1.2620e+000 -3.3941e+000 22708 110969,111378,110995
 1.8000e+000 111476 -2.6413e+001 -1.0178e+001 -6.3736e-001 22708 110839,111234,111450
 1.8000e+000 111499 -2.8696e+001 -1.5983e+001  9.0746e-001 22708 110839,111450,110865
 1.8000e+000 111600 -7.4543e+001 -3.3292e+001  1.0612e+001 22460 111522,111574,111548
 1.8000e+000 112059 -5.9737e+001 -2.3393e+001  2.8348e+000 22056 111811,111889,111863
 1.8000e+000 112036 -7.1694e+001 -3.4711e+001  7.5722e+000 22056 111811,111915,111889
 1.8000e+000 112013 -5.9311e+001 -4.2656e+001 -7.0570e+000 22056 111785,111915,111811
 1.8000e+000 111990 -4.6240e+001 -2.8216e+001 -1.6833e+001 22056 111785,111941,111915
 1.8000e+000 111967 -3.9307e+001 -1.1162e+001 -8.2747e+000 22056 111811,111863,111837
 1.8000e+000 112486 -7.9279e+001 -2.8800e+001 -9.6882e-002 21594 112509,112267,112215
 1.8000e+000 112463 -7.6844e+001 -2.7061e+001 -4.2012e+000 21594 112509,112215,112163
 1.8000e+000 112440 -7.5912e+001 -4.1987e+001  8.2198e+000 21594 112581,112293,112267
 1.8000e+000 112417 -6.5180e+001 -4.4649e+001 -2.6224e+000 21594 112215,112267,112241
 1.8000e+000 112394 -8.8449e+001 -1.4559e+001 -1.4495e+001 21594 112163,112345,112319
 1.8000e+000 112371 -7.0431e+001 -1.8818e+000 -6.0574e+000 21594 112163,112215,112189
 1.8000e+000 112535 -8.2671e+001 -3.5287e+001  2.0009e+000 21594 112581,112267,112509
 1.8000e+000 112558 -7.7723e+001 -3.0799e+001 -4.1152e+000 21594 112319,112509,112163
 1.8000e+000 112607 -6.5237e+001 -3.5589e+001  4.9890e+000 21594 112319,112293,112581
 1.8000e+000 112630 -7.1110e+001 -2.6158e+001 -2.0087e+000 21594 112319,112581,112509
 1.8000e+000 112900 -2.7737e+001  2.9928e+000 -3.2672e-001 20974 112675,112779,112701
 1.8000e+000 112877 -2.8295e+001  9.1546e+000 -3.6873e+000 20974 112675,112805,112779
 1.8000e+000 112854 -3.2875e+001 -9.9920e+000 -4.1724e+000 20974 112701,112779,112753
 1.8000e+000 112831 -3.7751e+001 -1.7207e+001 -2.7506e-001 20974 112701,112753,112727
 1.8000e+000 113359 -2.1345e+001  5.2281e+000  1.2253e+001 20520 113454,113137,113111
 1.8000e+000 113336 -3.1620e+001  2.6443e+000  1.1915e+001 20520 113454,113111,113085
 1.8000e+000 113313 -1.7835e+001 -8.1136e+000  8.6568e+000 20520 113382,113163,113137
 1.8000e+000 113290 -2.1994e+001 -4.3763e+000  1.0483e+001 20520 113526,113382,113137
 1.8000e+000 113267 -8.2522e+000  4.4018e+000  4.5026e+000 20520 113189,113241,113215
 1.8000e+000 113408 -1.5706e+001 -2.1294e+000  6.3823e+000 20520 113189,113163,113382
 1.8000e+000 113431 -1.8625e+001 -2.5717e+000  7.7910e+000 20520 113189,113382,113241
 1.8000e+000 113480 -2.4487e+001 -8.4997e-001  8.8974e+000 20520 113526,113137,113454
 1.8000e+000 113503 -2.5156e+001  6.9477e+000  7.5367e+000 20520 113241,113454,113085
 1.8000e+000 113552 -1.7123e+001  6.3912e-001  8.4222e+000 20520 113241,113382,113526
 1.8000e+000 113575 -1.9405e+001  3.6928e+000  6.8052e+000 20520 113241,113526,113454
 1.8000e+000 113904 -7.2663e+000 -6.4474e+000 -8.0494e+000 19858 113705,113783,113757
 1.8000e+000 113881 -1.1699e+001 -6.5898e+000 -6.4638e+000 19858 113705,113809,113783
 1.8000e+000 113858 -1.1600e+001 -7.4191e+000 -3.3551e+000 19858 113679,113809,113705
 1.8000e+000 113835 -6.8436e+000 -6.0186e-001 -8.5613e-001 19858 113705,113757,113731
 1.8000e+000 114152 -7.2202e+001 -4.1451e+001 -1.3234e+001 19454 114175,114005,113979
 1.8000e+000 114129 -7.5359e+001 -4.5278e+001 -1.4591e+001 19454 114175,113979,114057
 1.8000e+000 114106 -7.9182e+001 -3.4280e+001  1.7852e+001 19454 113927,114057,113979
 1.8000e+000 114083 -5.9680e+001 -2.2121e+001  3.7418e+000 19454 113927,113979,113953
 1.8000e+000 114201  1.0624e+001 -5.6647e+000  1.9979e+001 19454 114031,114005,114175
 1.8000e+000 114224 -7.1712e+001 -5.3683e+001 -1.3373e+001 19454 114031,114175,114057
 1.8000e+000 114472 -3.7482e+001 -1.5915e+001 -2.0305e+000 19000 114495,114273,114247
 1.8000e+000 114449 -3.2858e+001 -1.9146e+001  1.3305e+000 19000 114495,114247,114325
 1.8000e+000 114426 -3.0379e+001 -3.2405e+000  3.6600e+000 19000 114247,114377,114325
 1.8000e+000 114403 -2.8149e+001  1.6052e+000  4.3091e+000 19000 114325,114377,114351
 1.8000e+000 114521 -4.9649e+001 -2.0960e+001 -2.6469e+000 19000 114299,114273,114495
 1.8000e+000 114544 -3.5703e+001 -1.8591e+001  6.7352e-001 19000 114299,114495,114325
 1.8000e+000 114948 -5.7441e+001 -1.3207e+001 -1.1030e+000 18560 114674,114726,114700
 1.8000e+000 114925 -4.8573e+001 -2.0776e+001 -4.3504e+000 18560 114674,114830,114726
 1.8000e+000 114902 -4.9206e+001 -2.2173e+001 -3.9569e+000 18560 114726,114830,114804
 1.8000e+000 114879 -3.2782e+001 -1.5626e+001  1.5539e+000 18560 114726,114804,114752
 1.8000e+000 114856 -3.5548e+001 -1.5212e+001  2.3239e+000 18560 114752,114804,114778
 1.8000e+000 115098 -7.0040e+001 -2.4624e+001 -7.8058e+000 18156 114971,115023,114997
 1.8000e+000 115075 -8.1880e+001 -2.6649e+001 -2.9379e+000 18156 114971,115049,115023
 1.8000e+000 115248 -7.8049e+001 -2.2048e+001 -8.5848e-001 17602 115147,115199,115173
 1.8000e+000 115225 -4.6733e+001 -2.3313e+001 -1.0409e+000 17602 115121,115199,115147
 1.8000e+000 115652 -6.4750e+001 -4.2024e+001 -1.0212e+000 17354 115430,115534,115508
 1.8000e+000 115629 -6.0883e+001 -3.1323e+001 -3.4349e+000 17354 115404,115534,115430
 1.8000e+000 115606 -5.1724e+001 -1.6848e+001  3.7445e+000 17354 115378,115534,115404
 1.8000e+000 115583 -9.3551e+001 -3.0992e+001  6.5147e+000 17354 115456,115508,115482
 1.8000e+000 115560 -6.0188e+001 -3.1680e+001 -2.7627e-001 17354 115430,115508,115456
 1.8000e+000 115873 -2.2981e+001 -5.7770e+000  3.8567e+000 16950 115749,115801,115775
 1.8000e+000 115850 -3.0354e+001 -6.1838e+000  3.6143e+000 16950 115697,115801,115749
 1.8000e+000 115827 -3.1782e+001 -1.3748e+001  4.3781e+000 16950 115697,115749,115723
 1.8000e+000 116023 -8.0164e+001 -1.3202e+001  9.5565e+000 16496 115922,115974,115948
 1.8000e+000 116000 -6.6709e+001 -8.2753e+000  1.2039e+001 16496 115896,115974,115922
 1.8000e+000 116126 -8.5050e+001 -2.6732e+001 -3.5735e+000 16298 116048,116100,116074
 1.8000e+000 116278 -6.3970e+001 -1.1605e-001 -4.5204e-001 15892 116151,116203,116177
 1.8000e+000 116255 -6.0301e+001 -3.4875e+000 -6.8619e+000 15892 116151,116229,116203
 1.8000e+000 116430 -7.8208e+001 -6.3393e+001  4.4760e-001 15545 116303,116355,116329
 1.8000e+000 116407 -6.6450e+001 -3.0926e+001  1.5894e+001 15545 116303,116381,116355
 1.8000e+000 116785 -1.6874e+000  5.8341e+000 -4.9239e-001 421 116612,116690,116664
 1.8000e+000 116762 -4.8003e+000 -1.3057e+000  3.5922e+000 421 116560,116690,116612
 1.8000e+000 116739 -5.7762e+000  3.8956e-001 -5.2389e-001 421 116560,116612,116586
 1.8000e+000 116716  5.1217e+000 -1.3619e+000  7.5777e-001 421 116612,116664,116638
 1.9000e+000 68048  3.8539e+000 -4.3456e+001  2.4119e-001 67642 67898,67950,67924
 1.9000e+000 68025  8.1792e+000 -3.2840e+001 -7.5920e-001 67642 67898,67976,67950
 1.9000e+000 68002  1.6774e+001 -3.3020e+001  7.2782e+000 67642 67872,67976,67898
 1.9000e+000 68367  2.3429e+001  2.1104e+001  5.6031e+000 67444 68119,68223,68197
 1.9000e+000 68344  1.7058e+001  6.4302e-001  6.7137e+000 67444 68119,68249,68223
 1.9000e+000 68321  3.2181e+001  9.9282e+000  7.4754e-001 67444 68093,68249,68119
 1.9000e+000 68298  1.8126e+001  1.0305e+001  2.0478e+000 67444 68119,68197,68171
 1.9000e+000 68275  1.9921e+001  4.2480e+000 -1.7047e+000 67444 68119,68171,68145
 1.9000e+000 68468  1.7134e+001  6.2657e+000 -1.3584e+000 67268 68390,68442,68416
 1.9000e+000 68765  7.8091e+000 -1.1365e+001  2.1332e-001 66956 68788,68517,68491
 1.9000e+000 68742  8.9896e+000 -7.3564e+000  1.2886e+000 66956 68788,68491,68621
 1.9000e+000 68719  4.4953e+000 -3.5665e+000 -3.5865e+000 66956 68543,68621,68569
 1.9000e+000 68696  8.3882e+000 -5.5505e+000  3.6753e+000 66956 68491,68647,68621
 1.9000e+000 68673  1.2954e+001  6.2818e+000  9.9098e-001 66956 68569,68621,68595
 1.9000e+000 68814  5.2350e+000 -8.3066e+000 -8.3860e-001 66956 68543,68517,68788
 1.9000e+000 68837  6.6794e+000 -4.1567e+000  5.7328e-001 66956 68543,68788,68621
 1.9000e+000 69107  4.0108e+000 -2.4671e+001 -1.6045e+000 66758 68882,68986,68908
 1.9000e+000 69084  2.8144e+001 -1.1889e+001  3.6469e+000 66758 68882,69012,68986
 1.9000e+000 69061 -4.7863e+001 -5.7106e+000 -4.0025e+000 66758 68908,68960,68934
 1.9000e+000 69038  7.2822e+000 -1.0672e+001 -2.9266e+000 66758 68908,68986,68960
 1.9000e+000 69308  7.7002e+000 -1.0423e+000 -5.7561e-001 66560 69331,69184,69158
 1.9000e+000 69285  8.7337e+000  7.5221e-001  4.0021e-002 66560 69331,69158,69132
 1.9000e+000 69262  5.5973e+000  2.6879e+000  1.3980e-001 66560 69184,69236,69210
 1.9000e+000 69357  6.1513e+000  7.5346e-001 -1.2657e+000 66560 69236,69184,69331
 1.9000e+000 69380  7.2164e+000  2.8354e+000 -8.0312e-001 66560 69236,69331,69132
 1.9000e+000 69554  2.2586e+001 -4.0031e+000  3.1510e+000 66270 69427,69479,69453
 1.9000e+000 69531  2.9960e+001  1.3221e+001  6.5509e+000 66270 69427,69505,69479
 1.9000e+000 69804  8.2328e+000  8.5072e+000  7.5577e+000 66066 69579,69683,69657
 1.9000e+000 69781  2.9573e+000  6.9217e+000  1.0425e+000 66066 69579,69709,69683
 1.9000e+000 69758  2.5351e+001  4.4601e+000 -1.5236e+000 66066 69579,69657,69631
 1.9000e+000 69735  2.3810e+001  1.0447e+000 -1.1638e+000 66066 69579,69631,69605
 1.9000e+000 70257  2.8808e+001  3.1691e+001 -2.0000e+001 65776 69960,70090,69986
 1.9000e+000 70234  2.2773e+001  2.1392e+000 -1.0816e+001 65776 69934,70090,69960
 1.9000e+000 70211 -5.2018e+000  1.6721e+000 -9.2189e-001 65776 69934,70116,70090
 1.9000e+000 70188  2.2506e+001  2.1476e+001  0.0000e+000 65776 70038,70090,70064
 1.9000e+000 70165  1.7345e+001  2.9927e+001 -1.1401e+001 65776 69986,70090,70038
 1.9000e+000 70142  1.4771e+001  1.6847e+001 -1.4915e+001 65776 69986,70038,70012
 1.9000e+000 70456  2.9439e+001  1.7770e+001  4.7644e+000 65372 70479,70306,70280
 1.9000e+000 70433  2.4620e+001  1.3637e+001  7.6962e+000 65372 70479,70280,70384
 1.9000e+000 70410  2.3644e+001  1.6556e+001  8.1160e+000 65372 70551,70332,70306
 1.9000e+000 70505  2.4330e+001  1.7027e+001  7.9037e+000 65372 70551,70306,70479
 1.9000e+000 70528  2.0684e+001  1.5746e+001  9.5282e+000 65372 70358,70479,70384
 1.9000e+000 70577  2.4257e+001  1.6170e+001  8.2238e+000 65372 70358,70332,70551
 1.9000e+000 70600  2.4681e+001  1.6450e+001  8.0915e+000 65372 70358,70551,70479
 1.9000e+000 70821  1.0428e+001 -2.0312e+001  9.1762e-002 65174 70645,70723,70671
 1.9000e+000 70798  5.9878e+000 -2.1524e+001  1.7359e+000 65174 70645,70749,70723
 1.9000e+000 70775  1.2907e+001 -1.5768e+001 -1.2098e+000 65174 70671,70723,70697
 1.9000e+000 71071  1.8656e+000 -2.7410e+001 -3.1270e-001 64770 71094,70898,70872
 1.9000e+000 71048  4.1050e+000 -2.6346e+001 -6.8341e-001 64770 71166,71094,70872
 1.9000e+000 71025  6.0408e+000 -2.5703e+001 -5.7119e-001 64770 71166,70872,70846
 1.9000e+000 71002 -3.0176e+000 -2.6234e+001  2.1395e+000 64770 70898,70950,70924
 1.9000e+000 71120  2.9341e+000 -2.6533e+001  3.4536e-001 64770 70950,70898,71094
 1.9000e+000 71143 -5.2493e-001 -2.6717e+001  2.1939e-002 64770 70950,71094,70976
 1.9000e+000 71192  2.3296e+000 -2.4897e+001  9.2120e-001 64770 70976,71094,71166
 1.9000e+000 71215  3.6522e+000 -2.4496e+001  7.5484e-001 64770 70976,71166,70846
 1.9000e+000 71514 -8.8528e+000  7.8611e+000 -4.4663e+000 64572 71681,71537,71318
 1.9000e+000 71491 -1.2667e+001  2.0150e+001  2.4781e+000 64572 71537,71266,71240
 1.9000e+000 71468 -1.9887e+001  1.5151e+001 -1.2854e+001 64572 71609,71396,71370
 1.9000e+000 71445 -2.7156e+000 -2.1477e+000 -4.9883e-001 64572 71681,71318,71292
 1.9000e+000 71422  1.4469e+001  2.4145e-001 -7.2955e+000 64572 71753,71344,71318
 1.9000e+000 71563  1.2674e+001  1.9362e+001 -1.9765e+001 64572 71753,71318,71537
 1.9000e+000 71586 -1.5757e+001  1.9767e+001 -1.6020e+001 64572 71609,71370,71537
 1.9000e+000 71635 -3.3383e+001 -4.3480e+000  8.1515e+000 64572 71240,71396,71609
 1.9000e+000 71658 -1.0796e+001  1.1305e+001  1.2667e+000 64572 71240,71609,71537
 1.9000e+000 71707 -3.2569e+000  2.1515e+001 -1.9069e+000 64572 71266,71537,71681
 1.9000e+000 71730  6.8219e+000  1.5685e+001  5.3338e+000 64572 71266,71681,71292
 1.9000e+000 71779  3.9728e+001  1.9423e+001 -1.7383e+001 64572 71370,71344,71753
 1.9000e+000 71802  2.6387e+001  2.6691e+001 -2.2830e+001 64572 71370,71753,71537
 1.9000e+000 72052  4.9576e+000 -1.4534e+001 -2.2280e+000 64374 72075,71879,71827
 1.9000e+000 72029  8.3217e+000 -1.3367e+001 -1.9430e+000 64374 72147,72075,71827
 1.9000e+000 72006  1.0657e+001 -1.2017e+001 -1.3738e+000 64374 72147,71827,71957
 1.9000e+000 71983  1.1352e+001 -1.6638e+001 -6.6271e+000 64374 71827,71879,71853
 1.9000e+000 72101  6.4961e+000 -1.3973e+001 -3.2181e-001 64374 71905,71879,72075
 1.9000e+000 72124  7.0361e+000 -1.3241e+001 -8.6113e-001 64374 71905,72075,71931
 1.9000e+000 72173  7.1085e+000 -1.1093e+001 -6.9869e-001 64374 71931,72075,72147
 1.9000e+000 72196  7.7196e+000 -1.0736e+001 -5.4715e-001 64374 71931,72147,71957
 1.9000e+000 72649  5.2158e-002  8.8286e+000  2.5654e+000 63948 72352,72508,72482
 1.9000e+000 72626 -2.3518e+000  4.9776e+000 -1.0969e+000 63948 72326,72508,72352
 1.9000e+000 72603 -7.3558e-001  4.2832e+000 -2.5975e+000 63948 72672,72430,72378
 1.9000e+000 72580  6.2659e+000  5.1972e+000 -3.6282e+000 63948 72672,72378,72352
 1.9000e+000 72557  3.4745e+000  1.8191e+000 -3.8894e-001 63948 72744,72456,72430
 1.9000e+000 72534  3.2201e+000  7.2479e+000 -8.5665e+000 63948 72378,72430,72404
 1.9000e+000 72698  3.0984e+000  2.3191e+000 -6.4671e-002 63948 72744,72430,72672
 1.9000e+000 72721  6.9299e+000  5.0463e+000  1.5751e+000 63948 72482,72672,72352
 1.9000e+000 72770  3.3523e+000  2.5077e+000 -4.7128e-001 63948 72482,72456,72744
 1.9000e+000 72793  3.4328e+000  3.6469e+000 -1.7633e-001 63948 72482,72744,72672
 1.9000e+000 72894 -2.7839e-001 -1.0539e+000  1.1493e+000 63494 72816,72868,72842
 1.9000e+000 73093 -9.5290e+000 -3.5481e+001  1.1010e+000 63132 72943,72995,72969
 1.9000e+000 73070 -8.6185e+000 -3.4909e+001 -4.5589e-001 63132 72943,73021,72995
 1.9000e+000 73047 -7.4273e+000 -3.6364e+001  9.6333e-001 63132 72917,73021,72943
 1.9000e+000 73294  1.6605e+001  1.1073e+001 -5.3527e+000 62792 73317,73144,73118
 1.9000e+000 73271  1.5478e+001  9.4954e+000 -3.4038e+000 62792 73317,73118,73222
 1.9000e+000 73248  2.7215e+001  6.8758e+000 -3.9848e-001 62792 73144,73196,73170
 1.9000e+000 73343  1.4063e+001  1.2205e+001 -3.3660e+000 62792 73196,73144,73317
 1.9000e+000 73366  1.2598e+001  9.5994e+000 -1.2604e+000 62792 73196,73317,73222
 1.9000e+000 73616  4.6684e+000  3.3158e+000  2.2259e+000 62388 73639,73417,73391
 1.9000e+000 73593  3.6882e+000  1.5978e+000  5.7081e+000 62388 73711,73639,73391
 1.9000e+000 73570  5.4128e+000  6.1893e+000  4.8550e+000 62388 73711,73391,73521
 1.9000e+000 73547  6.2403e+000 -1.6717e-002  2.6073e+000 62388 73469,73521,73495
 1.9000e+000 73665 -6.0565e-001  1.6150e+000  6.1515e+000 62388 73443,73417,73639
 1.9000e+000 73688  3.4578e+000 -6.8056e+000  8.3692e+000 62388 73443,73639,73469
 1.9000e+000 73737  5.3370e+000 -1.5540e+000  5.0337e+000 62388 73469,73639,73711
 1.9000e+000 73760  4.9169e+000  1.8919e-001  5.1400e+000 62388 73469,73711,73521
 1.9000e+000 74010 -9.2809e-001  8.4458e-001 -1.4308e+000 61848 74033,73837,73811
 1.9000e+000 73987  1.0131e+000  5.1829e-001  7.9089e-002 61848 74033,73811,73785
 1.9000e+000 73964  2.8149e+000  3.1010e+000  2.2440e+000 61848 73837,73915,73889
 1.9000e+000 73941 -8.7299e+000 -2.2347e+000 -3.2702e+000 61848 73837,73889,73863
 1.9000e+000 74059 -1.1051e+000  1.8210e+000 -9.0187e-001 61848 73915,73837,74033
 1.9000e+000 74082 -8.1451e-001  2.6925e+000 -3.6972e-001 61848 73915,74033,73785
 1.9000e+000 74283 -1.7793e-001 -9.6204e+000 -7.8734e-001 61444 74306,74133,74107
 1.9000e+000 74260 -1.5034e+000 -8.9007e+000  3.9976e+000 61444 74306,74107,74211
 1.9000e+000 74237 -3.1112e+000  2.8565e-001  2.7571e+000 61444 74378,74185,74159
 1.9000e+000 74332 -5.1785e+000 -1.1800e+001 -1.7677e+000 61444 74159,74133,74306
 1.9000e+000 74355 -3.0745e+000 -8.3613e+000  2.7749e+000 61444 74378,74159,74306
 1.9000e+000 74404 -6.2791e+000 -8.4462e+000  3.4104e+000 61444 74211,74185,74378
 1.9000e+000 74427 -4.2272e+000 -1.0455e+001  3.3643e+000 61444 74211,74378,74306
 1.9000e+000 74628  6.0184e+000  1.0976e+000  5.2272e+000 60990 74478,74530,74504
 1.9000e+000 74605  1.1579e+001  1.2363e+000  3.8243e+000 60990 74452,74530,74478
 1.9000e+000 74582 -1.3872e+000  4.3665e+000  1.9561e+000 60990 74452,74556,74530
 1.9000e+000 75089 -6.1398e+000 -1.3168e+001  8.6583e-002 60486 75112,74945,74919
 1.9000e+000 75066 -8.5964e+000 -2.0649e+001  2.5635e-002 60486 75112,74919,74867
 1.9000e+000 75043 -1.4920e+001 -1.7929e+001 -1.6389e+000 60486 74841,74971,74867
 1.9000e+000 75020 -9.0986e+000 -2.0579e+001 -3.6142e-001 60486 74867,74919,74893
 1.9000e+000 74997 -2.4396e+000 -8.0924e+000  4.2169e+000 60486 74815,74971,74841
 1.9000e+000 75138 -7.4729e+000 -1.2168e+001  3.5905e+000 60486 74971,74945,75112
 1.9000e+000 75161 -8.3731e+000 -1.5987e+001  2.8804e+000 60486 74971,75112,74867
 1.9000e+000 75409 -8.6301e+000 -6.2408e+000  4.5433e+000 59932 75576,75432,75288
 1.9000e+000 75386 -5.2733e+000 -6.1454e+000  4.6014e+000 59932 75504,75314,75288
 1.9000e+000 75363 -5.4314e+000 -2.8677e+000  6.5205e+000 59932 75432,75236,75210
 1.9000e+000 75340 -9.8908e+000 -8.9598e+000  2.1093e+000 59932 75576,75288,75262
 1.9000e+000 75458 -6.2950e+000 -5.2013e+000  4.3683e+000 59932 75504,75288,75432
 1.9000e+000 75481 -8.6796e+000 -6.5147e+000  3.1740e+000 59932 75184,75432,75210
 1.9000e+000 75530  2.6080e+000 -7.0567e+000 -1.8808e+000 59932 75184,75314,75504
 1.9000e+000 75553 -8.5202e+000 -6.2781e+000  2.9890e+000 59932 75184,75504,75432
 1.9000e+000 75602 -8.5766e+000 -1.1266e+001  5.2095e+000 59932 75236,75432,75576
 1.9000e+000 75625 -7.5572e+000 -1.2177e+001  4.4839e+000 59932 75236,75576,75262
 1.9000e+000 75873  8.8324e+000 -3.0579e+000  1.1766e+001 59478 75674,75752,75700
 1.9000e+000 75850  1.2451e+001 -1.9502e+000 -2.9606e-001 59478 75648,75752,75674
 1.9000e+000 75827  1.3906e+001  6.5294e+000  1.6404e+001 59478 75700,75752,75726
 1.9000e+000 75804  1.7402e+000 -1.1806e+000  1.1752e+000 59478 75648,75778,75752
 1.9000e+000 76206  1.5341e+001  5.0654e+000  1.6896e+000 59024 75981,76059,76007
 1.9000e+000 76183  1.8144e+001  3.8326e+000  1.6173e+000 59024 75981,76111,76059
 1.9000e+000 76160  1.5266e+001  8.0518e+000 -3.9866e-001 59024 76007,76059,76033
 1.9000e+000 76137  2.1444e+001  4.9990e+000  6.9818e+000 59024 76059,76111,76085
 1.9000e+000 76761 -1.7670e+001 -3.0366e+001 -8.0687e+000 58562 76389,76441,76415
 1.9000e+000 76738 -1.5057e+001 -3.3051e+001  1.6599e+000 58562 76856,76784,76389
 1.9000e+000 76715 -1.5191e+001 -2.2436e+001 -3.2731e+000 58562 76784,76571,76467
 1.9000e+000 76692 -1.4283e+001 -3.9661e+001  4.2565e+000 58562 76856,76389,76597
 1.9000e+000 76669 -1.3698e+001 -2.3636e+001 -2.5832e+000 58562 76467,76545,76493
 1.9000e+000 76646 -1.7699e+001 -2.4487e+001 -4.1553e+000 58562 76467,76571,76545
 1.9000e+000 76623 -2.3601e+001 -1.6551e+001  2.1848e+000 58562 76493,76545,76519
 1.9000e+000 76810 -8.2660e+000 -2.6799e+001 -2.4130e+000 58562 76441,76389,76784
 1.9000e+000 76833 -2.1271e+001 -3.4552e+001 -6.0085e+000 58562 76441,76784,76467
 1.9000e+000 76882 -1.5568e+001 -2.4208e+001  1.3682e+000 58562 76571,76784,76856
 1.9000e+000 76905 -1.3455e+001 -2.9920e+001  2.8883e+000 58562 76571,76856,76597
 1.9000e+000 77055 -1.4627e+001 -3.5118e+001 -2.9555e-001 57844 76928,76980,76954
 1.9000e+000 77032 -1.4932e+001 -3.8821e+001  3.1548e-001 57844 76928,77006,76980
 1.9000e+000 77533 -2.3672e+001 -1.8162e+001  2.2124e+000 57226 77628,77556,77291
 1.9000e+000 77510 -2.1363e+001 -1.8165e+001  3.5471e+000 57226 77556,77187,77343
 1.9000e+000 77487 -1.8630e+001 -1.5724e+001  8.8326e-001 57226 77628,77291,77265
 1.9000e+000 77464 -1.5472e+001 -1.6252e+001 -2.1472e+000 57226 77700,77213,77187
 1.9000e+000 77441 -2.2057e+001 -1.5474e+001  8.1289e+000 57226 77161,77343,77187
 1.9000e+000 77418 -1.4357e+001 -1.1147e+001  6.0642e+000 57226 77161,77369,77343
 1.9000e+000 77395 -1.7492e+001 -5.4873e+000 -1.8890e+000 57226 77213,77265,77239
 1.9000e+000 77582 -2.3962e+001 -1.7812e+001  3.6494e+000 57226 77317,77291,77556
 1.9000e+000 77605 -2.2792e+001 -1.5904e+001  2.9089e+000 57226 77317,77556,77343
 1.9000e+000 77654 -1.5429e+001 -1.6123e+001  2.3363e+000 57226 77187,77556,77628
 1.9000e+000 77677 -1.4102e+001 -1.6851e+001  1.3366e-001 57226 77700,77187,77628
 1.9000e+000 77726 -2.0427e+001 -1.8377e+001 -2.2198e+000 57226 77265,77213,77700
 1.9000e+000 77749 -1.9153e+001 -1.9004e+001  3.5202e-001 57226 77265,77700,77628
 1.9000e+000 78046 -8.3830e+000  1.1341e+001  1.1800e+000 56936 77798,77850,77824
 1.9000e+000 78023 -4.8768e+000 -2.3080e+000 -2.0954e+000 56936 78069,77798,77902
 1.9000e+000 78000  1.5131e+000 -6.8918e-001 -4.0724e-001 56936 78069,77902,77876
 1.9000e+000 77977 -1.1748e+001 -4.4214e+000  2.1608e+000 56936 77798,77928,77902
 1.9000e+000 77954  1.4053e+000  4.4517e-001  5.5257e+000 56936 77772,77928,77798
 1.9000e+000 78095 -7.3405e+000 -1.6050e+000 -2.9211e+000 56936 77850,77798,78069
 1.9000e+000 78118 -4.3608e+000 -2.3944e+000 -1.3585e+000 56936 77850,78069,77876
 1.9000e+000 78754  1.3800e+001  1.9850e+001 -1.6415e+000 56475 78777,78486,78408
 1.9000e+000 78731  1.0108e+000  8.9427e+000  3.4344e+000 56475 78777,78408,78382
 1.9000e+000 78708  8.1285e+000  9.1414e+000 -1.1672e+001 56475 78849,78512,78486
 1.9000e+000 78685  2.0179e+001  1.6686e+001 -3.4725e+000 56475 78382,78590,78564
 1.9000e+000 78662 -3.0212e+000  5.8198e+000 -1.8242e+001 56475 78512,78564,78538
 1.9000e+000 78639  7.7633e+000  1.0672e+001  2.5605e+000 56475 78434,78486,78460
 1.9000e+000 78616  9.3033e+000  1.1885e+001  2.0565e+000 56475 78408,78486,78434
 1.9000e+000 78803  4.0363e+000  1.3947e+001 -5.4164e+000 56475 78849,78486,78777
 1.9000e+000 78826  6.5501e+000  2.3494e+001 -1.1002e+000 56475 78564,78777,78382
 1.9000e+000 78875  1.2345e+001  1.9307e+001 -1.1799e+001 56475 78564,78512,78849
 1.9000e+000 78898  9.2800e+000  2.6247e+001 -6.7000e+000 56475 78564,78849,78777
 1.9000e+000 79276  8.6277e+000  2.1605e+001  2.9659e+000 55964 79299,79080,79028
 1.9000e+000 79253  6.2811e+000  1.7089e+001  6.7605e+000 55964 79299,79028,79132
 1.9000e+000 79230  4.3191e+000  8.4977e-001  3.2536e+000 55964 79028,79080,79054
 1.9000e+000 79207 -3.3101e-002 -3.2084e-001 -1.2447e+000 55964 79002,79132,79028
 1.9000e+000 79184  1.9851e+001  8.7926e+000 -7.7651e+000 55964 79002,79158,79132
 1.9000e+000 79325  8.6995e+000  2.8101e+001 -5.2427e-001 55964 79106,79080,79299
 1.9000e+000 79348  5.2698e+000  2.2272e+001  3.3843e+000 55964 79106,79299,79132
 1.9000e+000 79498 -2.1784e+001  3.2242e+001 -1.0403e+001 55452 79397,79449,79423
 1.9000e+000 79475 -1.2533e+001  5.8929e+000 -6.3907e+000 55452 79371,79449,79397
 1.9000e+000 79795  7.3178e+000  1.6220e+001  2.9325e+000 55048 79962,79818,79573
 1.9000e+000 79772  3.9887e+000 -5.8127e-001 -1.3267e+000 55048 79818,79521,79677
 1.9000e+000 79749  9.1085e+000  6.2987e+000  5.2207e+000 55048 79599,79651,79625
 1.9000e+000 79726  4.5314e+000  7.0042e+000  3.8616e+000 55048 79890,79651,79599
 1.9000e+000 79703  1.4393e+001  2.2715e+001  9.0073e+000 55048 79962,79573,79547
 1.9000e+000 79844  2.9409e+000  1.5962e+001  1.7921e+000 55048 79599,79573,79818
 1.9000e+000 79867  4.3379e+000  8.1976e+000  1.4184e+000 55048 79890,79599,79818
 1.9000e+000 79916  8.3598e+000  8.8387e+000  2.8572e+000 55048 79677,79651,79890
 1.9000e+000 79939  7.7584e+000  9.3945e+000  5.8648e-001 55048 79677,79890,79818
 1.9000e+000 79988  1.2790e+000  1.1281e+001 -1.5101e+000 55048 79521,79818,79962
 1.9000e+000 80011  2.5576e+000  1.2568e+001  3.4926e+000 55048 79521,79962,79547
 1.9000e+000 80212 -1.7757e+001 -2.8169e+000  4.2001e+000 54436 80235,80088,80036
 1.9000e+000 80189 -1.0141e+001 -5.8961e+000  4.9458e+000 54436 80235,80036,80140
 1.9000e+000 80166 -1.8070e+001 -9.1576e+000  8.6768e-001 54436 80036,80088,80062
 1.9000e+000 80261 -1.1952e+001 -4.0272e+000  7.9803e+000 54436 80114,80088,80235
 1.9000e+000 80284 -1.6713e+000 -4.5945e+000  9.1784e+000 54436 80114,80235,80140
 1.9000e+000 80534 -7.9906e+000  5.0905e+000  4.2638e+000 54032 80557,80361,80335
 1.9000e+000 80511 -1.0227e+001  7.8259e+000  2.0633e+000 54032 80557,80335,80309
 1.9000e+000 80488 -6.4922e+000  7.7969e+000  4.9729e-001 54032 80629,80413,80387
 1.9000e+000 80465  9.8992e+000  9.1287e-001 -7.2102e-001 54032 80309,80439,80413
 1.9000e+000 80583 -1.0714e+001 -5.8755e+000  4.4057e+000 54032 80387,80361,80557
 1.9000e+000 80606 -7.4389e+000  6.0091e+000  2.0158e+000 54032 80629,80387,80557
 1.9000e+000 80655 -8.5185e+000  6.5317e+000  2.1943e+000 54032 80309,80413,80629
 1.9000e+000 80678 -9.6690e+000  5.9935e+000  3.4959e+000 54032 80309,80629,80557
 1.9000e+000 81139 -1.8685e+001 -3.2380e+001  1.5282e+000 53784 80865,80995,80917
 1.9000e+000 81116 -1.5397e+001 -3.2555e+001  5.6292e+000 53784 80865,81021,80995
 1.9000e+000 81093 -2.3337e+001 -3.5004e+001  9.9817e-001 53784 80943,80995,80969
 1.9000e+000 81070 -1.7119e+001 -2.5082e+001  4.0493e+000 53784 80917,80995,80943
 1.9000e+000 81047 -2.4058e+001 -3.1463e+001  4.4790e+000 53784 80865,80917,80891
 1.9000e+000 81468 -1.7032e+001 -1.3286e+001  4.6027e+000 53230 81295,81373,81347
 1.9000e+000 81445 -9.3320e+000 -9.2395e+000  8.9096e+000 53230 81243,81373,81295
 1.9000e+000 81422 -1.2442e+001 -4.6822e+000  5.3295e+000 53230 81243,81295,81269
 1.9000e+000 81399 -2.1489e+001 -1.2864e+001 -1.4183e+000 53230 81295,81347,81321
 1.9000e+000 81618 -5.2055e+001  4.3691e+001 -1.4548e+001 52790 81491,81543,81517
 1.9000e+000 81595 -4.8421e+001  2.0839e+000 -9.7954e+000 52790 81491,81569,81543
 1.9000e+000 82126  1.8671e+001  1.6712e+001  2.1998e+000 52386 82149,81907,81881
 1.9000e+000 82103  1.8196e+001  2.0088e+001  8.2890e+000 52386 82149,81881,81855
 1.9000e+000 82080  9.6690e+000  9.9409e+000  2.4605e-001 52386 82221,81803,81985
 1.9000e+000 82057  1.8800e+001  1.8298e+001  9.5238e+000 52386 81803,81855,81829
 1.9000e+000 82034  1.6303e+001  1.1123e+001 -2.3782e+000 52386 81907,81985,81933
 1.9000e+000 82011  1.5064e+001  9.6537e+000 -1.7590e+000 52386 81933,81985,81959
 1.9000e+000 82175  1.6015e+001  1.6505e+001  2.0669e+000 52386 81985,81907,82149
 1.9000e+000 82198  1.6318e+001  1.4138e+001  2.1983e+000 52386 82221,81985,82149
 1.9000e+000 82247  9.1004e+000  1.5693e+001  5.5760e+000 52386 81855,81803,82221
 1.9000e+000 82270  1.0744e+001  1.7481e+001  6.5395e+000 52386 81855,82221,82149
 1.9000e+000 82825 -3.3379e+001 -1.9282e+001 -3.4200e+000 51782 82505,82661,82635
 1.9000e+000 82802 -1.9369e+001 -1.5370e+001  6.5900e+000 51782 82479,82661,82505
 1.9000e+000 82779 -1.7048e+001 -1.0596e+001  4.1367e+000 51782 82557,82635,82609
 1.9000e+000 82756 -2.0450e+001 -1.8561e+001  3.7033e+000 51782 82531,82635,82557
 1.9000e+000 82733 -3.1822e+001 -1.6870e+001 -4.8224e-001 51782 82505,82635,82531
 1.9000e+000 82710 -2.8620e+001 -2.2940e+001  2.4282e+000 51782 82453,82661,82479
 1.9000e+000 82687 -2.0839e+001 -1.1082e+001  3.5892e+000 51782 82557,82609,82583
 1.9000e+000 83171  1.7569e+000  1.0279e+001 -1.3941e+000 51442 83194,82978,82900
 1.9000e+000 83148 -1.0776e+001  1.4136e+001 -4.3722e+000 51442 83194,82900,82874
 1.9000e+000 83125 -7.9543e+000  6.1600e+000 -9.4323e-001 51442 82900,82978,82926
 1.9000e+000 83102 -1.5690e+001  6.1342e+000 -2.7856e+000 51442 82874,83030,83004
 1.9000e+000 83079  1.4704e+001  1.1692e+001 -3.7501e+000 51442 82926,82978,82952
 1.9000e+000 83056  2.2518e+000  7.3998e+000 -1.6578e+000 51442 82848,83030,82874
 1.9000e+000 83220  1.2745e+001  1.0753e+001 -1.7430e+000 51442 83004,82978,83194
 1.9000e+000 83243 -1.9150e+000  1.2834e+001 -5.2871e+000 51442 83004,83194,82874
 1.9000e+000 83751 -4.6169e-001  6.6395e+000  5.5615e+000 50938 83428,83584,83454
 1.9000e+000 83728 -1.0966e+001  3.0305e+000  4.2673e-001 50938 83428,83610,83584
 1.9000e+000 83705 -1.4068e+001  5.5043e-001  1.3958e+000 50938 83454,83584,83558
 1.9000e+000 83682 -1.8617e+001 -1.4164e+000  5.5235e-001 50938 83454,83532,83480
 1.9000e+000 83659 -1.7080e+001 -1.0290e+000  1.1046e-001 50938 83454,83558,83532
 1.9000e+000 83636 -2.3555e+001  2.5656e+000  2.3405e+000 50938 83480,83532,83506
 1.9000e+000 84355 -2.7420e+001 -2.4984e+001 -4.5171e-001 50377 84378,83960,83934
 1.9000e+000 84332 -2.7519e+001 -2.5655e+001 -1.1126e+000 50377 84522,84378,83934
 1.9000e+000 84309 -3.5733e+001 -3.4091e+001 -4.2119e+000 50377 84450,84038,84012
 1.9000e+000 84286 -2.8238e+001 -2.5900e+001 -9.2109e-001 50377 84522,83934,84142
 1.9000e+000 84263 -3.1998e+001 -2.9452e+001  7.1605e-001 50377 84594,84090,84038
 1.9000e+000 84240 -1.8168e+001 -1.8869e+001  4.4528e+000 50377 83960,84012,83986
 1.9000e+000 84217 -2.6969e+001 -2.2813e+001 -5.2136e+000 50377 83934,84168,84142
 1.9000e+000 84194 -2.0499e+001 -2.0440e+001  5.1360e+000 50377 84038,84090,84064
 1.9000e+000 84404 -1.6831e+001 -2.4126e+001  2.6693e+000 50377 84012,83960,84378
 1.9000e+000 84427 -2.7889e+001 -2.9936e+001 -1.6630e+000 50377 84450,84012,84378
 1.9000e+000 84476 -3.2277e+001 -2.9679e+001  5.9545e-001 50377 84594,84038,84450
 1.9000e+000 84499 -3.0961e+001 -2.7490e+001  2.0102e+000 50377 84116,84450,84378
 1.9000e+000 84548 -2.8775e+001 -2.4889e+001 -9.0933e-001 50377 84116,84378,84522
 1.9000e+000 84571 -2.9644e+001 -2.5319e+001 -6.3103e-001 50377 84116,84522,84142
 1.9000e+000 84620 -3.1264e+001 -2.9801e+001  8.9330e-001 50377 84116,84090,84594
 1.9000e+000 84643 -3.1484e+001 -2.9969e+001  7.9238e-001 50377 84116,84594,84450
 1.9000e+000 84842 -7.6862e+000  1.0157e+001 -9.3878e+000 49923 84865,84692,84666
 1.9000e+000 84819  7.6946e+000  6.3135e+000  1.5717e+000 49923 84865,84666,84770
 1.9000e+000 84796  2.9441e+001  1.3528e+001 -6.3306e-001 49923 84692,84744,84718
 1.9000e+000 84891  2.4070e+000  1.5018e+001 -1.2686e+000 49923 84744,84692,84865
 1.9000e+000 84914  2.0372e+001  1.7192e+001  1.1065e+001 49923 84744,84865,84770
 1.9000e+000 85501 -2.5429e+001 -2.2550e+001 -1.2883e+000 49618 85524,85282,85204
 1.9000e+000 85478 -2.0714e+001 -1.9212e+001  6.9068e-001 49618 85596,85524,85204
 1.9000e+000 85455 -1.6737e+001 -1.9843e+001  1.5178e+000 49618 85596,85204,85178
 1.9000e+000 85432 -2.1553e+001 -2.6113e+001  1.8380e-002 49618 85204,85282,85256
 1.9000e+000 85409 -2.0250e+001 -5.2643e+000 -1.0228e-001 49618 85282,85334,85308
 1.9000e+000 85386 -1.8481e+001 -2.0063e+001 -2.8042e+000 49618 85204,85256,85230
 1.9000e+000 85550 -2.3483e+001 -1.7384e+001 -9.6185e-001 49618 85334,85282,85524
 1.9000e+000 85573 -3.0303e+001 -2.0195e+001 -6.5357e-001 49618 85334,85524,85360
 1.9000e+000 85622 -2.7021e+001 -1.8286e+001  1.5201e+000 49618 85360,85524,85596
 1.9000e+000 85645 -2.2723e+001 -1.8710e+001  1.6019e+000 49618 85360,85596,85178
 1.9000e+000 85795 -1.1960e+002 -3.7330e+001  1.1862e+001 49278 85694,85746,85720
 1.9000e+000 85772 -1.3520e+002 -3.8666e+001  3.6113e+000 49278 85668,85746,85694
 1.9000e+000 86197 -3.8901e+001 -3.6462e+001 -5.2147e-001 48916 86001,86079,86027
 1.9000e+000 86174 -4.5244e+001 -4.9169e+001  2.0096e+000 48916 85949,86079,86001
 1.9000e+000 86151 -4.1716e+001 -4.5782e+001  5.8477e-001 48916 85949,86001,85975
 1.9000e+000 86128 -4.1008e+001 -3.8845e+001  1.0853e+000 48916 86027,86079,86053
 1.9000e+000 86105 -3.5089e+001 -4.5404e+001  2.5813e+000 48916 85923,86079,85949
 1.9000e+000 86477  7.3737e+000 -7.5788e+000  5.9423e+000 48398 86327,86379,86353
 1.9000e+000 86454  3.7732e+000 -5.4383e+000  3.2472e+000 48398 86500,86379,86327
 1.9000e+000 86431  1.2152e+001 -8.6957e-001  4.7041e-003 48398 86301,86405,86379
 1.9000e+000 86526  5.5504e+000 -5.9504e+000  2.5315e+000 48398 86301,86379,86500
 1.9000e+000 87032 -1.2335e+001 -6.0463e+000  1.6601e+000 48008 87127,87055,86787
 1.9000e+000 87009 -1.2556e+001 -1.0356e+001 -1.5910e-001 48008 87055,86735,86709
 1.9000e+000 86986 -1.5007e+001 -5.0613e+000  2.2308e+000 48008 87127,86787,86761
 1.9000e+000 86963 -1.0244e+001 -1.2598e+001  4.0454e+000 48008 86787,86865,86839
 1.9000e+000 86940 -1.1176e+001 -7.6441e+000 -1.7071e+000 48008 86709,86891,86865
 1.9000e+000 86917 -1.3705e+001 -6.2278e+000  9.3616e+000 48008 86787,86839,86813
 1.9000e+000 87081 -1.3632e+001 -9.6346e+000  1.7262e+000 48008 86865,86787,87055
 1.9000e+000 87104 -1.2793e+001 -1.0627e+001  1.7293e-002 48008 86865,87055,86709
 1.9000e+000 87153 -1.4996e+001 -1.1236e+001 -1.8935e-001 48008 86735,87055,87127
 1.9000e+000 87176 -1.6013e+001 -5.6066e+000 -7.2301e-001 48008 86735,87127,86761
 1.9000e+000 87456  1.2357e+001  6.0037e+000 -3.5230e+000 47604 87306,87358,87332
 1.9000e+000 87433  6.2800e+000  3.5603e+000 -3.0565e+000 47604 87306,87384,87358
 1.9000e+000 87410  7.6605e+000  4.2278e+000 -1.4461e+000 47604 87280,87384,87306
 1.9000e+000 87785  1.5404e+001  1.1529e+001  4.6054e+000 47264 87638,87690,87664
 1.9000e+000 87762  1.1495e+001  1.3143e+001  5.2685e+000 47264 87612,87690,87638
 1.9000e+000 87739  1.1780e+001  1.1225e+001  6.2874e+000 47264 87560,87690,87612
 1.9000e+000 87716  1.2776e+001  7.6877e-001  1.9952e+000 47264 87560,87612,87586
 1.9000e+000 87935 -4.5760e+001 -4.5741e+001  2.3463e+000 46952 87808,87860,87834
 1.9000e+000 87912 -4.1221e+001 -3.7334e+001  3.1796e-001 46952 87808,87886,87860
 1.9000e+000 88281 -1.8905e+001 -2.8936e+000  1.6389e+000 46526 88304,88114,88036
 1.9000e+000 88258 -1.4665e+001  7.9811e-004  2.9121e+000 46526 88304,88036,87984
 1.9000e+000 88235 -1.8434e+001 -1.6556e+000 -1.4061e+000 46526 88036,88114,88062
 1.9000e+000 88212 -5.0728e+000  1.3537e+001  2.7906e+001 46526 87958,88140,87984
 1.9000e+000 88189 -1.4778e+001  1.4060e-001 -9.3007e-001 46526 87984,88036,88010
 1.9000e+000 88166 -2.0679e+001 -6.2152e+000 -3.8372e+000 46526 88062,88114,88088
 1.9000e+000 88330 -2.2999e+001  6.7479e-001  1.5249e+000 46526 88140,88114,88304
 1.9000e+000 88353 -2.0102e+001  2.6001e+000  2.4355e+000 46526 88140,88304,87984
 1.9000e+000 88701  4.3297e-001 -7.3498e-001 -2.5301e+000 45822 88724,88378,88534
 1.9000e+000 88678 -1.3761e-001  4.6748e+000 -1.2712e+000 45822 88378,88560,88534
 1.9000e+000 88655  2.8765e+000 -1.5627e-001 -1.9598e+000 45822 88724,88534,88508
 1.9000e+000 88632  3.5794e+000 -7.4401e-001 -1.6507e-001 45822 88404,88508,88456
 1.9000e+000 88609  3.8089e+000 -2.2419e-001 -2.6770e-001 45822 88404,88456,88430
 1.9000e+000 88586  6.3119e+000 -8.4955e+000  4.4748e+000 45822 88456,88508,88482
 1.9000e+000 88750  2.4582e+000 -6.4786e-001 -1.1876e+000 45822 88404,88378,88724
 1.9000e+000 88773  4.3464e+000 -4.5209e-001 -6.2389e-001 45822 88404,88724,88508
 1.9000e+000 89106 -4.7046e+001 -3.3660e+001 -5.1668e+000 45418 88881,88985,88907
 1.9000e+000 89083 -4.4541e+001 -2.5996e+001 -7.6151e+000 45418 88881,89011,88985
 1.9000e+000 89060 -3.9661e+001 -3.4593e+001 -6.2819e+000 45418 88907,88985,88933
 1.9000e+000 89037 -2.4487e+001 -7.5860e+000  1.8936e-001 45418 88933,88985,88959
 1.9000e+000 89435 -4.0531e+000 -5.2075e-001  5.1909e+000 44914 89210,89288,89236
 1.9000e+000 89412  8.7607e-003  3.1078e+000  2.3780e+000 44914 89210,89314,89288
 1.9000e+000 89389  3.2790e+000  3.9619e+000  2.0953e+000 44914 89210,89340,89314
 1.9000e+000 89366 -3.4077e+000  9.0244e-001  3.2368e+000 44914 89236,89288,89262
 1.9000e+000 89634  1.5567e+001  1.0364e+001  5.0281e+000 44538 89510,89562,89536
 1.9000e+000 89611  1.0899e+001  8.1524e+000  1.3052e-001 44538 89458,89562,89510
 1.9000e+000 89588  1.1367e+001  4.0891e+000  1.0390e-001 44538 89458,89510,89484
 1.9000e+000 90044 -3.5591e+001 -2.6891e+001  2.8921e+000 44134 89819,89923,89845
 1.9000e+000 90021 -3.1697e+001 -2.0315e+001  4.9678e+000 44134 89819,89949,89923
 1.9000e+000 89998 -2.8995e+001 -2.2593e+001 -2.6467e-001 44134 89845,89923,89897
 1.9000e+000 89975 -1.8799e+001  4.5877e+000 -7.8281e-001 44134 89845,89897,89871
 1.9000e+000 90520 -3.7633e+001 -2.3696e+001  1.4091e-001 43457 90543,90252,90226
 1.9000e+000 90497 -3.3878e+001 -2.1724e+001  9.1114e-001 43457 90543,90226,90330
 1.9000e+000 90474 -4.2811e+001 -2.9988e+001 -3.4736e+000 43457 90200,90330,90226
 1.9000e+000 90451 -4.0446e+001 -2.8246e+001 -2.2367e+000 43457 90200,90356,90330
 1.9000e+000 90428 -4.5435e+001 -2.9248e+001  2.7106e+000 43457 90252,90304,90278
 1.9000e+000 90405 -2.8847e+001 -1.1812e+001  2.9180e+000 43457 90174,90356,90200
 1.9000e+000 90382 -4.1615e+001 -3.2851e+001 -4.3894e+000 43457 90148,90356,90174
 1.9000e+000 90569 -4.1204e+001 -2.0720e+001  4.0546e+000 43457 90304,90252,90543
 1.9000e+000 90592 -3.4365e+001 -1.6849e+001  5.7173e+000 43457 90304,90543,90330
 1.9000e+000 91098 -2.9502e+000 -6.6991e+000  3.3168e+000 42789 90801,90905,90853
 1.9000e+000 91075 -8.9394e+000 -3.1703e+000  5.9253e+000 42789 90775,90905,90801
 1.9000e+000 91052 -1.1379e+001 -3.8888e+000  2.2358e+000 42789 90775,90931,90905
 1.9000e+000 91029  4.6191e+000  6.3060e+000  7.0180e+000 42789 90801,90853,90827
 1.9000e+000 91006 -7.3484e+000 -9.9878e+000  9.9809e+000 42789 90853,90905,90879
 1.9000e+000 90983 -1.4991e+001 -8.8633e-002  3.4969e+000 42789 90775,90957,90931
 1.9000e+000 91427 -2.9525e+001 -1.4364e+001  1.5004e+000 42227 91228,91280,91254
 1.9000e+000 91404 -3.3373e+001 -1.5621e+001  2.0288e+000 42227 91228,91306,91280
 1.9000e+000 91381 -3.0096e+001 -1.4658e+001  5.0338e-001 42227 91202,91306,91228
 1.9000e+000 91358 -3.1405e+001 -1.6372e+001  1.1771e+000 42227 91202,91332,91306
 1.9000e+000 91675  2.5450e-001 -1.5161e+000 -1.6603e+000 41773 91698,91476,91450
 1.9000e+000 91652  8.4083e-001 -2.4379e+000  1.3961e+000 41773 91698,91450,91554
 1.9000e+000 91629  2.3208e+000 -4.6410e+000  1.3558e+000 41773 91450,91580,91554
 1.9000e+000 91606 -1.3187e-001 -2.9582e+000  2.2566e+000 41773 91502,91554,91528
 1.9000e+000 91724 -1.9338e+000 -2.6023e+000 -1.2210e+000 41773 91502,91476,91698
 1.9000e+000 91747 -1.9335e+000 -3.7937e+000  1.8884e+000 41773 91502,91698,91554
 1.9000e+000 92127 -4.1078e+001 -2.0182e+001  1.1433e+000 41255 92150,91905,91879
 1.9000e+000 92104 -4.3879e+001 -3.1315e+001  2.5247e+000 41255 92150,91879,91957
 1.9000e+000 92081 -3.9573e+001 -4.3111e+001  1.1990e+001 41255 91853,91957,91879
 1.9000e+000 92058 -4.0224e+001 -4.3460e+001  6.8229e+000 41255 91853,91983,91957
 1.9000e+000 92035 -2.7946e+001 -1.9225e+001 -2.2955e+000 41255 91853,92009,91983
 1.9000e+000 92176 -4.5693e+001 -9.0727e+000  1.1062e+001 41255 91931,91905,92150
 1.9000e+000 92199 -5.4453e+001 -3.0482e+001  1.5429e+001 41255 91931,92150,91957
 1.9000e+000 92518 -4.9613e+001 -2.5685e+001  4.4120e+000 41007 92244,92374,92270
 1.9000e+000 92495 -2.9064e+001 -1.1471e+001 -1.8059e+000 41007 92244,92400,92374
 1.9000e+000 92472 -5.3260e+001 -3.1580e+001  1.4245e+000 41007 92270,92374,92348
 1.9000e+000 92449 -6.4998e+001 -4.6591e+001  3.0812e+000 41007 92296,92348,92322
 1.9000e+000 92426 -5.7359e+001 -4.3306e+001  3.7910e+000 41007 92270,92348,92296
 1.9000e+000 92668 -1.6902e+001 -1.7652e+001  2.2373e-002 40717 92823,92691,92567
 1.9000e+000 92645 -1.5696e+001 -1.4981e+001  6.9747e-001 40717 92895,92823,92567
 1.9000e+000 92717 -2.0765e+001 -1.8731e+001  5.0654e+000 40717 92593,92567,92691
 1.9000e+000 92849 -1.8263e+001 -1.4324e+001  3.1541e-001 40717 92619,92691,92823
 1.9000e+000 92872 -1.7143e+001 -1.3508e+001  7.9103e-001 40717 92619,92823,92541
 1.9000e+000 92921 -1.6319e+001 -1.4291e+001 -3.5107e-001 40717 92541,92823,92895
 1.9000e+000 93634 -2.5199e+001 -1.7573e+001 -8.1528e-001 40206 93366,93444,93418
 1.9000e+000 93611 -2.0140e+001 -9.1228e+000  1.2909e+000 40206 93288,93444,93366
 1.9000e+000 93588 -2.3453e+001 -1.5098e+001  2.6443e+000 40206 93288,93366,93314
 1.9000e+000 93565 -2.8491e+001 -1.5822e+001 -4.2076e+000 40206 93262,93444,93288
 1.9000e+000 93542 -2.9426e+001 -9.9210e+000  4.0804e+000 40206 93366,93418,93392
 1.9000e+000 93519 -4.3336e+001 -5.8416e-001 -3.0393e+000 40206 93262,93470,93444
 1.9000e+000 93496 -2.5881e+001 -1.6100e+001  9.6610e-001 40206 93314,93366,93340
 1.9000e+000 94189 -6.0122e+000 -1.6269e+000  6.6360e+000 39802 93843,93999,93973
 1.9000e+000 94166 -7.5466e+000 -3.1345e+000  8.5382e+000 39802 93817,93999,93843
 1.9000e+000 94143 -1.7698e+001 -2.1247e+000  5.1948e+000 39802 93869,93973,93947
 1.9000e+000 94120 -6.2819e+000  1.6409e+000  6.4410e+000 39802 93843,93973,93869
 1.9000e+000 94097 -5.7536e+000 -2.8871e-002 -6.4637e-001 39802 93869,93921,93895
 1.9000e+000 94074 -5.7545e+000 -1.6835e-001  1.4438e+000 39802 93869,93947,93921
 1.9000e+000 94051 -6.3781e+000  7.7613e-001  7.8935e+000 39802 93817,94025,93999
 1.9000e+000 94290 -2.7176e+001 -4.5681e+000 -1.2519e+000 39398 94212,94264,94238
 1.9000e+000 94798 -1.5120e+001 -3.5570e+000  2.7921e+000 38701 94501,94657,94631
 1.9000e+000 94775 -3.3714e+000 -7.6442e+000 -1.2692e+000 38701 94475,94657,94501
 1.9000e+000 94752 -1.5249e+001 -1.3311e+001  3.0806e-001 38701 94579,94631,94605
 1.9000e+000 94729 -1.0769e+001 -5.3834e+000  2.1055e+000 38701 94553,94631,94579
 1.9000e+000 94706 -3.9194e+000 -3.2415e+000 -3.2322e-001 38701 94501,94631,94553
 1.9000e+000 94683 -7.8283e+000  1.0648e+000 -1.0049e+000 38701 94501,94553,94527
 1.9000e+000 95255 -3.9899e+000 -2.9973e+000  3.0451e+000 38247 95278,95085,95007
 1.9000e+000 95232  1.2109e+000 -1.1606e+000  2.8453e+000 38247 95278,95007,95137
 1.9000e+000 95209  2.9734e+000 -2.6274e+000  4.3521e+000 38247 94981,95137,95007
 1.9000e+000 95186 -9.0825e+000 -1.1939e+001 -1.2047e+000 38247 95007,95059,95033
 1.9000e+000 95163 -1.1409e+001 -1.3247e+001  7.4335e+000 38247 95007,95085,95059
 1.9000e+000 95304 -5.5834e+000 -2.6741e+000  7.5368e+000 38247 95111,95085,95278
 1.9000e+000 95327 -1.0176e+000 -5.7610e-001  6.7992e+000 38247 95111,95278,95137
 1.9000e+000 95575 -3.3086e+001  2.7578e+001 -5.4804e+000 37564 95376,95428,95402
 1.9000e+000 95552 -3.4375e+001 -6.6894e+000 -3.3279e+000 37564 95376,95454,95428
 1.9000e+000 95529 -2.4736e+001 -3.4348e+000 -4.0905e+000 37564 95376,95480,95454
 1.9000e+000 95506 -1.6410e+001 -2.0432e+000 -2.6031e+000 37564 95350,95480,95376
 1.9000e+000 96034 -1.7166e+001  9.8391e-001  1.4250e+000 37224 95786,95838,95812
 1.9000e+000 96011 -2.3385e+001 -1.4600e+001  1.3859e+000 37224 95786,95890,95838
 1.9000e+000 95988 -7.9346e+000 -1.0470e+001 -3.8289e+000 37224 95786,95916,95890
 1.9000e+000 95965 -2.1024e+001 -1.7488e+001 -8.4280e-001 37224 95760,95916,95786
 1.9000e+000 95942 -8.0215e+000 -1.4008e+001 -4.0780e+000 37224 95838,95890,95864
 1.9000e+000 96363  1.6363e+001  6.2312e+000 -4.3495e-001 36884 96216,96268,96242
 1.9000e+000 96340  8.9092e-001  1.0505e+001  9.7091e-001 36884 96164,96268,96216
 1.9000e+000 96317 -2.2145e+000  2.8626e+000  7.5486e+000 36884 96138,96268,96164
 1.9000e+000 96294 -1.9211e+000  5.2059e+000  2.9638e+000 36884 96164,96216,96190
 1.9000e+000 96839 -3.3631e+001 -2.3488e+001  3.5187e+000 36572 96862,96649,96597
 1.9000e+000 96816 -3.3326e+001 -2.0400e+001  3.3290e+000 36572 97006,96862,96597
 1.9000e+000 96793 -3.6588e+001 -2.2925e+001  2.7092e+000 36572 96934,96467,96675
 1.9000e+000 96770 -3.5463e+001 -1.8151e+001  2.9892e-001 36572 97006,96597,96571
 1.9000e+000 96747 -3.7776e+001 -1.2829e+001 -4.6613e-001 36572 96467,96519,96493
 1.9000e+000 96724 -7.4265e+001 -1.3762e+001  1.9271e+001 36572 96519,96571,96545
 1.9000e+000 96701 -2.4245e+001 -7.7832e+000  8.1594e+000 36572 96597,96649,96623
 1.9000e+000 96888 -3.2704e+001 -2.3006e+001  3.7700e+000 36572 96675,96649,96862
 1.9000e+000 96911 -3.3260e+001 -2.4139e+001  3.3984e+000 36572 96934,96675,96862
 1.9000e+000 96960 -4.0965e+001 -2.3329e+001  4.0472e+000 36572 96519,96467,96934
 1.9000e+000 96983 -3.6698e+001 -2.4266e+001  3.2207e+000 36572 97078,96934,96862
 1.9000e+000 97032 -3.4984e+001 -2.4080e+001  2.5424e+000 36572 97078,96862,97006
 1.9000e+000 97055 -3.7027e+001 -2.3347e+001  4.2326e-001 36572 96519,97006,96571
 1.9000e+000 97104 -3.7148e+001 -2.4944e+001  4.2845e+000 36572 96519,96934,97078
 1.9000e+000 97127 -3.6741e+001 -2.5340e+001  3.5938e+000 36572 96519,97078,97006
 1.9000e+000 97761 -3.8231e+001 -2.3085e+001  9.6042e+000 36118 97784,97493,97415
 1.9000e+000 97738 -4.0933e+001 -2.1277e+001  7.5434e+000 36118 97784,97415,97597
 1.9000e+000 97715 -6.2687e+001 -2.6873e+001  1.1765e+001 36118 97389,97597,97415
 1.9000e+000 97692 -6.4320e+001 -1.3563e+001  1.4678e+001 36118 97415,97467,97441
 1.9000e+000 97669 -5.6844e+001 -2.0018e+001  2.3786e+001 36118 97415,97493,97467
 1.9000e+000 97646 -3.3258e+001 -4.1608e+001 -3.3950e-001 36118 97493,97571,97519
 1.9000e+000 97623 -1.7112e+001 -9.9204e+000  5.3801e+000 36118 97519,97571,97545
 1.9000e+000 97810 -3.9962e+001 -2.4308e+001  8.5277e+000 36118 97571,97493,97784
 1.9000e+000 97833 -4.4410e+001 -2.3973e+001  6.1651e+000 36118 97571,97784,97597
 1.9000e+000 98081 -5.2852e+001 -2.6789e+001 -9.0964e-001 35564 98104,97908,97856
 1.9000e+000 98058 -5.3590e+001 -2.5856e+001 -2.7933e-001 35564 98104,97856,97986
 1.9000e+000 98035 -5.8595e+001 -3.2365e+001 -2.5515e+000 35564 97934,97986,97960
 1.9000e+000 98012 -4.7292e+001 -1.1876e+001 -5.1338e+000 35564 97856,97908,97882
 1.9000e+000 98130 -5.4818e+001 -2.8871e+001 -1.7211e+000 35564 97934,97908,98104
 1.9000e+000 98153 -5.3919e+001 -2.6330e+001 -4.7458e-001 35564 97934,98104,97986
 1.9000e+000 98374 -6.7777e+001 -3.4865e+001 -1.2509e+000 35152 98224,98302,98276
 1.9000e+000 98351 -5.8092e+001 -1.3216e+001  1.1706e+000 35152 98198,98302,98224
 1.9000e+000 98328 -5.9519e+001 -3.2717e+001 -2.6737e+000 35152 98224,98276,98250
 1.9000e+000 98884 -3.5555e+000 -2.2379e+000  3.4286e+000 34698 98691,98743,98717
 1.9000e+000 98861 -1.8622e+000  1.2509e+000  3.4770e+000 34698 98561,98743,98691
 1.9000e+000 98838  9.4129e-003  3.1257e+000  1.2022e+000 34698 98907,98587,98561
 1.9000e+000 98815 -1.6812e+000  1.0831e+000  3.4553e+000 34698 98907,98561,98691
 1.9000e+000 98792 -5.4767e+000 -1.2844e-001  3.4004e-001 34698 98587,98639,98613
 1.9000e+000 98769 -1.6786e+001 -1.4031e+001  9.5680e+000 34698 98587,98665,98639
 1.9000e+000 98933 -1.5603e+000  1.5136e+000  3.3156e+000 34698 98665,98587,98907
 1.9000e+000 98956 -4.1884e+000 -1.8277e+000  5.7342e+000 34698 98665,98907,98691
 1.9000e+000 99204 -1.3853e+001 -4.1141e-001 -8.8209e-001 34144 99227,99031,99005
 1.9000e+000 99181 -1.5526e+001 -3.7257e+000  1.8465e+000 34144 99299,99227,99005
 1.9000e+000 99158 -1.7116e+001 -3.2967e+000  3.5105e+000 34144 99299,99005,99109
 1.9000e+000 99135 -1.5117e+001 -3.1372e+000  3.7387e+000 34144 98979,99109,99005
 1.9000e+000 99253 -1.3543e+001 -1.6764e+000 -3.3349e-001 34144 99057,99031,99227
 1.9000e+000 99276 -3.1408e+000  1.1638e-001 -8.7756e-001 34144 99057,99227,99083
 1.9000e+000 99325 -1.2392e+001 -3.4401e-001 -2.6481e+000 34144 99083,99227,99299
 1.9000e+000 99348 -1.8160e+001 -1.7600e+000 -1.0026e+000 34144 99083,99299,99109
 1.9000e+000 99498 -8.9716e+001 -2.5956e+001  1.4085e+001 33433 99397,99449,99423
 1.9000e+000 99475 -1.0686e+002 -2.6990e+001  2.7301e+000 33433 99371,99449,99397
 1.9000e+000 100008 -1.6499e+001 -1.0478e+001  4.8112e+000 32979 100103,100031,99815
 1.9000e+000 99985 -2.2889e+001 -4.6358e+000  2.3744e+000 32979 100175,100031,99763
 1.9000e+000 99962 -1.8434e+001 -6.7913e+000  7.9986e+000 32979 100103,99815,99789
 1.9000e+000 99939 -2.2516e+001 -2.5878e+000  2.5487e+000 32979 100175,99763,99737
 1.9000e+000 99916 -2.3394e+001 -1.9984e+000  2.7556e-001 32979 99685,99867,99737
 1.9000e+000 99893 -2.3133e+001 -5.2212e+000 -1.1384e+000 32979 99685,99737,99711
 1.9000e+000 100057 -1.7392e+001 -9.9095e+000  2.2722e+000 32979 99841,99815,100031
 1.9000e+000 100080 -1.6609e+001 -5.9442e+000  2.8999e-001 32979 99841,100031,99867
 1.9000e+000 100129 -1.8801e+001 -2.5288e+000  5.2680e+000 32979 99763,100031,100103
 1.9000e+000 100152 -1.7970e+001  3.8507e+000  9.1337e+000 32979 99763,100103,99789
 1.9000e+000 100201 -2.2677e+001 -5.6401e+000  1.3263e+000 32979 99867,100031,100175
 1.9000e+000 100224 -2.2484e+001 -4.4954e+000  1.8384e+000 32979 99867,100175,99737
 1.9000e+000 100553 -4.8888e+001 -3.8656e+001  5.2267e+000 32503 100354,100406,100380
 1.9000e+000 100530 -3.9019e+001 -2.9059e+001 -4.1671e-001 32503 100328,100406,100354
 1.9000e+000 100507 -3.5845e+001 -3.0232e+001 -6.7257e+000 32503 100328,100458,100406
 1.9000e+000 100484 -1.8561e+001 -4.0485e+001  1.8238e+000 32503 100406,100458,100432
 1.9000e+000 100850 -6.1475e+001 -4.7574e+001  7.1585e-001 31899 100873,100654,100628
 1.9000e+000 100827 -5.9310e+001 -4.7880e+001 -5.0804e-002 31899 100945,100873,100628
 1.9000e+000 100804 -5.8677e+001 -4.4370e+001  2.7471e-001 31899 100945,100628,100602
 1.9000e+000 100781 -6.1559e+001 -3.2081e+001  5.4847e+000 31899 100576,100732,100602
 1.9000e+000 100758 -4.3270e+001 -8.7555e+000  1.0943e+001 31899 100654,100706,100680
 1.9000e+000 100899 -6.5931e+001 -5.1615e+001  2.4667e+000 31899 100706,100654,100873
 1.9000e+000 100922 -6.4118e+001 -4.6930e+001 -2.5197e+000 31899 100706,100873,100732
 1.9000e+000 100971 -6.2278e+001 -4.2702e+001 -2.0524e+000 31899 100732,100873,100945
 1.9000e+000 100994 -6.1380e+001 -3.8808e+001 -1.5282e+000 31899 100732,100945,100602
 1.9000e+000 101551 -1.3037e+001  6.9654e-001  5.8564e+000 31338 101205,101387,101231
 1.9000e+000 101528 -1.7501e+001 -2.4344e+000  5.8118e+000 31338 101179,101387,101205
 1.9000e+000 101505 -1.4151e+001 -1.2611e+001  2.9790e+000 31338 101574,101309,101257
 1.9000e+000 101482 -1.2170e+001 -1.1530e+001  3.5005e+000 31338 101646,101574,101257
 1.9000e+000 101459 -1.1570e+001 -1.0264e+001  3.6761e+000 31338 101646,101257,101231
 1.9000e+000 101436 -1.6343e+001 -4.0664e+000  4.2032e+000 31338 101309,101361,101335
 1.9000e+000 101413 -1.7710e+001 -1.2803e+001  1.1558e+000 31338 101257,101309,101283
 1.9000e+000 101600 -1.7596e+001 -1.1279e+001  4.9844e+000 31338 101361,101309,101574
 1.9000e+000 101623 -1.2915e+001 -9.7205e+000  5.0605e+000 31338 101361,101574,101387
 1.9000e+000 101672 -1.2347e+001 -1.0934e+001  2.5329e+000 31338 101387,101574,101646
 1.9000e+000 101695 -1.2207e+001 -1.0673e+001  2.5876e+000 31338 101387,101646,101231
 1.9000e+000 101943 -1.2494e+001 -3.4495e+000  4.3319e-001 30748 101966,101796,101744
 1.9000e+000 101920 -4.8190e+000 -8.2950e-002  2.4038e+000 30748 101966,101744,101718
 1.9000e+000 101897 -9.8637e+000  3.6041e+000  1.8991e+001 30748 101718,101848,101822
 1.9000e+000 101874 -1.2050e+001 -5.6356e-001 -2.4540e+000 30748 101744,101796,101770
 1.9000e+000 101992 -1.6823e+001  1.5484e+000  2.0410e+000 30748 101822,101796,101966
 1.9000e+000 102015 -1.1849e+001  2.8284e+000  3.5270e+000 30748 101822,101966,101718
 1.9000e+000 102493 -5.5972e+001 -2.6603e+001  1.4787e+001 30344 102516,102173,102147
 1.9000e+000 102470 -4.4390e+001 -1.9438e+001  4.1653e+000 30344 102660,102516,102147
 1.9000e+000 102447 -3.9031e+001 -9.6034e+000  2.4199e+000 30344 102588,102199,102173
 1.9000e+000 102424 -4.5691e+001 -1.8997e+001  4.2144e+000 30344 102660,102147,102329
 1.9000e+000 102401 -7.7268e+001 -1.6219e+001 -1.4501e+000 30344 102199,102277,102251
 1.9000e+000 102378 -2.6718e+001 -1.9993e+001  9.7984e+000 30344 102199,102251,102225
 1.9000e+000 102355 -7.3342e+001 -2.7705e+001  2.2374e+001 30344 102121,102329,102147
 1.9000e+000 102542 -4.2362e+001 -2.0164e+001  6.1634e+000 30344 102588,102173,102516
 1.9000e+000 102565 -3.6469e+001 -1.5034e+001  1.8286e+000 30344 102277,102516,102303
 1.9000e+000 102614 -4.6047e+001 -1.3239e+000  3.7226e+000 30344 102277,102199,102588
 1.9000e+000 102637 -4.4994e+001 -6.1919e+000  7.4961e+000 30344 102277,102588,102516
 1.9000e+000 102686 -4.5734e+001 -1.9689e+001  3.6159e+000 30344 102303,102516,102660
 1.9000e+000 102709 -4.6581e+001 -1.8901e+001  3.6333e+000 30344 102303,102660,102329
 1.9000e+000 103294 -4.2474e+001 -3.8779e+001  5.4313e+000 29726 103317,103101,103075
 1.9000e+000 103271 -4.5964e+001 -3.7119e+001  3.7968e+000 29726 103317,103075,102997
 1.9000e+000 103248 -6.1158e+001 -3.9146e+001  1.1646e+001 29726 102971,103153,102997
 1.9000e+000 103225 -2.2571e+001 -1.0163e+000 -2.0389e+000 29726 103101,103153,103127
 1.9000e+000 103202 -4.3506e+001 -3.9929e+001  1.3933e+000 29726 102997,103075,103023
 1.9000e+000 103179 -4.7592e+001 -2.6261e+001 -1.1596e+001 29726 103023,103075,103049
 1.9000e+000 103343 -3.9554e+001 -3.8301e+001  4.7329e+000 29726 103153,103101,103317
 1.9000e+000 103366 -4.2874e+001 -3.6479e+001  3.6419e+000 29726 103153,103317,102997
 1.9000e+000 103614 -2.3348e+001 -2.5007e+001  5.6920e+000 29200 103781,103637,103467
 1.9000e+000 103591 -2.2708e+001 -1.7498e+001  2.9533e+000 29200 103709,103637,103415
 1.9000e+000 103568 -1.8763e+001 -1.5709e+001  5.4712e+000 29200 103709,103415,103389
 1.9000e+000 103545 -2.2193e+001 -2.9529e+001  9.4239e+000 29200 103781,103467,103441
 1.9000e+000 103663 -1.3485e+001 -1.9554e+001 -7.3010e-001 29200 103853,103637,103493
 1.9000e+000 103686 -3.0935e+001 -2.5226e+001 -6.8465e+000 29200 103493,103637,103519
 1.9000e+000 103735 -2.9045e+001 -1.4747e+001  1.3151e+000 29200 103519,103637,103709
 1.9000e+000 103758 -2.5067e+001 -1.3715e+001  3.3414e+000 29200 103519,103709,103389
 1.9000e+000 103807 -2.1607e+001 -1.6083e+001  3.7279e+000 29200 103415,103637,103781
 1.9000e+000 103830 -2.1470e+001 -1.9244e+001  8.9231e+000 29200 103415,103781,103441
 1.9000e+000 103879 -1.6589e+001 -2.3418e+001  2.9981e+000 29200 103467,103637,103853
 1.9000e+000 104545 -4.6547e+001 -1.6274e+001  7.5093e+000 28860 104274,104352,104326
 1.9000e+000 104522 -4.0825e+001 -2.4045e+001  1.7988e+000 28860 104248,104352,104274
 1.9000e+000 104499 -2.7856e+001 -1.8719e+001  1.3735e+000 28860 104248,104404,104352
 1.9000e+000 104476 -4.2531e+001 -3.3459e+001 -4.6216e+000 28860 104222,104404,104248
 1.9000e+000 104453 -3.3949e+001 -3.7009e+001  2.2415e+000 28860 104352,104404,104378
 1.9000e+000 104430 -7.8492e+001 -1.7582e+001 -3.3583e-001 28860 104274,104326,104300
 1.9000e+000 104744 -5.2184e+000 -2.2576e-001  1.6080e+000 28456 104839,104767,104646
 1.9000e+000 104721  4.4148e+000  9.6500e-001 -1.7612e+000 28456 104767,104594,104568
 1.9000e+000 104698 -5.5209e+000 -4.5366e-001  1.5010e+000 28456 104839,104646,104620
 1.9000e+000 104793 -9.0906e-001 -1.4848e-001  2.9472e+000 28456 104672,104646,104767
 1.9000e+000 104816  6.8500e+000  1.8652e+000 -1.4709e+000 28456 104911,104767,104568
 1.9000e+000 104865 -4.7656e-001  4.1275e+000 -2.1415e+000 28456 104594,104767,104839
 1.9000e+000 104888 -5.5971e+000 -5.8221e+000  8.6008e-001 28456 105041,104839,104620
 1.9000e+000 104937 -3.4033e+000 -1.3821e+001  3.3637e+000 28456 104672,104767,104911
 1.9000e+000 105067 -5.3405e+000  1.1958e+000  4.2210e-001 28456 104594,104839,105041
 1.9000e+000 105573 -1.2109e+001 -3.8550e+000  1.1309e+000 28094 105812,105596,105328
 1.9000e+000 105550 -1.2154e+001 -3.3811e+000  1.2540e+000 28094 105596,105276,105250
 1.9000e+000 105527 -1.0039e+001 -7.0741e-001  2.8612e+000 28094 105740,105668,105432
 1.9000e+000 105504 -9.7493e+000 -1.2891e-001  2.7644e+000 28094 105740,105432,105380
 1.9000e+000 105481 -1.1887e+001 -4.0056e+000  1.2495e+000 28094 105812,105328,105302
 1.9000e+000 105458 -4.9844e+000 -2.0965e+000  2.5572e+000 28094 105380,105432,105406
 1.9000e+000 105622 -1.6356e+001 -5.1320e+000  3.1479e+000 28094 105354,105328,105596
 1.9000e+000 105645 -1.0922e+001 -2.6975e+000  2.2999e+000 28094 105668,105354,105596
 1.9000e+000 105694 -1.0897e+001 -5.1375e-001  1.6447e+000 28094 105250,105432,105668
 1.9000e+000 105717 -1.2393e+001 -8.2894e-001  1.4881e+000 28094 105250,105668,105596
 1.9000e+000 105766 -9.7345e+000 -1.1477e+000  1.7679e+000 28094 105354,105668,105740
 1.9000e+000 105789 -9.2775e+000 -1.5617e-001  1.6535e+000 28094 105354,105740,105380
 1.9000e+000 105838 -1.2004e+001 -3.3623e+000  1.2091e+000 28094 105276,105596,105812
 1.9000e+000 105861 -1.1918e+001 -3.6828e+000  1.6939e+000 28094 105276,105812,105302
 1.9000e+000 106367 -4.7565e+001 -2.5307e+001 -2.6484e+000 27390 106070,106122,106096
 1.9000e+000 106344 -4.5998e+001 -2.1325e+001 -3.4836e+000 27390 106070,106226,106122
 1.9000e+000 106321 -4.7088e+001 -2.9375e+000 -6.1633e+000 27390 106174,106226,106200
 1.9000e+000 106298 -4.8007e+001 -2.8027e+001 -2.8853e+000 27390 106122,106226,106174
 1.9000e+000 106275 -5.0807e+001 -3.0809e+001 -1.5621e+001 27390 106122,106174,106148
 1.9000e+000 106252 -3.8806e+001 -1.6891e+001  1.2556e+000 27390 106044,106226,106070
 1.9000e+000 106615 -5.9723e+001 -3.6825e+001  6.0139e-001 26978 106638,106494,106416
 1.9000e+000 106592 -6.2802e+001 -2.8141e+001  2.1966e+000 26978 106638,106416,106390
 1.9000e+000 106569 -6.7527e+001 -4.1503e+001 -3.1407e+000 26978 106416,106494,106442
 1.9000e+000 106546 -6.5858e+001 -4.3410e+001 -4.7652e+000 26978 106442,106494,106468
 1.9000e+000 106664 -5.8387e+001 -2.7696e+001 -3.1749e+000 26978 106520,106494,106638
 1.9000e+000 106687 -6.3382e+001 -2.0997e+001  9.6213e-001 26978 106520,106638,106390
 1.9000e+000 106837 -2.4916e+001 -1.1649e+001 -2.0307e+000 26524 106710,106762,106736
 1.9000e+000 106814 -2.6276e+001 -1.1906e+001 -1.4264e+000 26524 106710,106788,106762
 1.9000e+000 107426 -1.8706e+001 -9.1511e+000 -1.2307e+000 26120 107129,107207,107155
 1.9000e+000 107403 -2.0189e+001 -1.7277e+001 -5.5242e-001 26120 107129,107285,107207
 1.9000e+000 107380 -1.5176e+001 -7.8596e+000  1.5685e+000 26120 107207,107285,107259
 1.9000e+000 107357 -2.0604e+001 -1.4473e+001  7.0837e+000 26120 107155,107207,107181
 1.9000e+000 107334 -1.9383e+001 -1.5817e+001  1.5749e+000 26120 107103,107285,107129
 1.9000e+000 107311 -7.5894e+000 -7.2751e+000  2.5255e+000 26120 107207,107259,107233
 1.9000e+000 107755 -6.0154e+000 -1.6089e+000 -4.0509e-001 25758 107556,107634,107608
 1.9000e+000 107732 -1.1843e+001 -3.3737e+000  1.0525e+000 25758 107556,107660,107634
 1.9000e+000 107709 -5.1996e+000 -2.6016e+000  5.6772e-001 25758 107556,107608,107582
 1.9000e+000 107686 -9.7451e+000  5.7066e+000  3.9634e+000 25758 107530,107660,107556
 1.9000e+000 108438 -6.4508e+000 -6.6152e+000  8.7519e-001 25468 108121,108199,108173
 1.9000e+000 108415 -9.0936e+000 -1.6231e+001 -3.2596e+000 25468 108095,108199,108121
 1.9000e+000 108392 -9.2242e+000 -7.7816e+000 -2.9614e+000 25468 108095,108251,108199
 1.9000e+000 108369 -1.1629e+001 -1.2695e+001 -2.1503e+000 25468 108069,108251,108095
 1.9000e+000 108346  3.6366e+000 -2.0046e+000 -4.5540e+000 25468 108199,108251,108225
 1.9000e+000 108323 -1.6124e+001 -2.2472e+000 -6.3404e+000 25468 108017,108251,108069
 1.9000e+000 108300 -6.7571e+000 -6.9845e+000  7.3586e-001 25468 108121,108173,108147
 1.9000e+000 108277 -2.2356e+001 -1.1488e+001 -3.4214e+000 25468 108017,108069,108043
 1.9000e+000 108588 -2.4852e+001 -2.1447e+001  6.9727e+000 25064 108611,108513,108487
 1.9000e+000 108565 -1.2767e+001 -1.2162e+001  1.1358e+001 25064 108683,108611,108487
 1.9000e+000 108637 -2.5502e+001 -1.0086e+001  8.8325e+000 25064 108539,108513,108611
 1.9000e+000 108660 -3.5150e+001 -1.7128e+001  5.4715e+000 25064 108539,108611,108461
 1.9000e+000 108709 -2.9833e+001 -6.6408e+000  8.5133e+000 25064 108461,108611,108683
 1.9000e+000 109345 -3.0254e+001 -1.0693e+001  9.1009e+000 24410 108999,109155,109103
 1.9000e+000 109322 -5.4324e+001 -1.7397e+001  1.3860e+001 24410 108973,109155,108999
 1.9000e+000 109299 -2.5885e+001 -1.3175e+001  1.0572e+001 24410 109103,109155,109129
 1.9000e+000 109276 -2.5240e+001 -2.6934e+000  7.1677e+000 24410 108973,109181,109155
 1.9000e+000 109253 -6.7134e+001 -2.6963e+001  1.2307e+001 24410 109025,109103,109077
 1.9000e+000 109230 -4.2274e+001 -1.7242e+001  1.2383e+001 24410 108999,109103,109025
 1.9000e+000 109207 -5.8646e+001 -2.4563e+000  3.8116e+000 24410 109025,109077,109051
 1.9000e+000 109723 -1.9886e+001  6.5495e-001  1.1589e+000 23856 109475,109579,109553
 1.9000e+000 109700 -1.7069e+001 -7.0814e+000 -1.1839e+000 23856 109475,109605,109579
 1.9000e+000 109677 -2.4481e+001 -5.1214e+000 -1.0134e+001 23856 109475,109553,109527
 1.9000e+000 109654 -8.6268e+000 -3.5066e+000  4.1345e+000 23856 109449,109605,109475
 1.9000e+000 109631 -2.0273e+001  4.3369e+000 -5.9019e+000 23856 109475,109527,109501
 1.9000e+000 110101 -3.4105e+001 -1.7008e+001  5.2577e+000 23566 109853,109931,109879
 1.9000e+000 110078 -2.3514e+001 -1.1791e+001  6.8343e+000 23566 109827,109931,109853
 1.9000e+000 110055 -1.8051e+001  1.7841e+000  3.0994e+000 23566 109827,109983,109931
 1.9000e+000 110032 -3.0307e+001 -2.9841e+001 -6.4108e+000 23566 109879,109931,109905
 1.9000e+000 110009 -1.6902e+001  2.0965e+000  5.3828e+000 23566 109931,109983,109957
 1.9000e+000 110735 -4.5301e+001 -2.9575e+001 -1.3638e+000 23162 110415,110571,110519
 1.9000e+000 110712 -4.7276e+001 -2.6507e+001 -1.8777e+000 23162 110389,110571,110415
 1.9000e+000 110689 -5.9498e+001 -3.4693e+001  2.0633e+000 23162 110415,110519,110493
 1.9000e+000 110666 -4.1308e+001 -2.6737e+001 -5.9799e+000 23162 110363,110571,110389
 1.9000e+000 110643 -5.5566e+001 -2.8790e+001  5.0131e+000 23162 110441,110493,110467
 1.9000e+000 110620 -5.4549e+001 -3.1173e+001  5.1287e-001 23162 110415,110493,110441
 1.9000e+000 110597 -4.2260e+001 -1.6252e+001 -2.0032e+000 23162 110519,110571,110545
 1.9000e+000 111211 -1.1634e+001 -4.6263e+000 -1.4367e+000 22708 111378,111306,111021
 1.9000e+000 111188 -1.3208e+001 -1.1430e+000 -2.7543e+000 22708 111234,110969,110917
 1.9000e+000 111165 -1.3243e+001 -5.8294e+000 -3.8359e+000 22708 111450,111234,110917
 1.9000e+000 111142 -1.0735e+001 -3.5894e+000  1.4616e-001 22708 111378,111021,110995
 1.9000e+000 111119 -1.4362e+001 -7.7863e+000 -4.5940e+000 22708 111450,110917,110865
 1.9000e+000 111096 -3.3575e+001 -4.6328e+000 -2.5574e+000 22708 110917,110969,110943
 1.9000e+000 111073 -1.4412e+001 -3.7435e+000 -3.3123e+000 22708 110865,110917,110891
 1.9000e+000 111260 -1.4954e+001 -3.8431e+000 -1.8905e+000 22708 111306,110969,111234
 1.9000e+000 111283 -1.1455e+001 -4.8346e+000  1.3503e-001 22708 111047,111234,110839
 1.9000e+000 111332 -1.7036e+001  1.7210e+000 -5.5281e+000 22708 111047,111021,111306
 1.9000e+000 111355 -1.4617e+001 -3.9988e+000 -1.3905e-001 22708 111047,111306,111234
 1.9000e+000 111404 -1.4332e+001 -3.2100e+000 -1.1122e+000 22708 110969,111306,111378
 1.9000e+000 111427 -1.3733e+001 -3.9043e+000 -5.7422e-001 22708 110969,111378,110995
 1.9000e+000 111476 -1.0500e+001 -7.9807e+000 -7.3562e-001 22708 110839,111234,111450
 1.9000e+000 111499 -1.1933e+001 -1.1074e+001 -1.6060e+000 22708 110839,111450,110865
 1.9000e+000 111600 -5.6840e+001 -3.4029e+001  9.4392e+000 22460 111522,111574,111548
 1.9000e+000 112059 -4.6471e+001 -2.1267e+001  9.2716e-001 22056 111811,111889,111863
 1.9000e+000 112036 -5.3008e+001 -3.0711e+001  4.6330e+000 22056 111811,111915,111889
 1.9000e+000 112013 -4.7127e+001 -3.6793e+001 -4.9934e+000 22056 111785,111915,111811
 1.9000e+000 111990 -4.3228e+001 -2.7588e+001 -1.2648e+001 22056 111785,111941,111915
 1.9000e+000 111967 -3.3039e+001 -1.3680e+001 -6.4256e+000 22056 111811,111863,111837
 1.9000e+000 112486 -6.0630e+001 -3.1222e+001 -8.1486e-001 21594 112509,112267,112215
 1.9000e+000 112463 -5.9539e+001 -3.0552e+001 -2.0039e+000 21594 112509,112215,112163
 1.9000e+000 112440 -5.8759e+001 -3.8713e+001  4.3013e+000 21594 112581,112293,112267
 1.9000e+000 112417 -5.2712e+001 -4.3546e+001 -1.8815e+000 21594 112215,112267,112241
 1.9000e+000 112394 -6.6769e+001 -1.7798e+001 -1.0148e+001 21594 112163,112345,112319
 1.9000e+000 112371 -5.4919e+001 -9.9161e+000 -4.1456e+000 21594 112163,112215,112189
 1.9000e+000 112535 -6.2649e+001 -3.4861e+001  7.2359e-001 21594 112581,112267,112509
 1.9000e+000 112558 -5.9639e+001 -3.0806e+001 -1.9742e+000 21594 112319,112509,112163
 1.9000e+000 112607 -5.2673e+001 -3.4993e+001  2.3631e+000 21594 112319,112293,112581
 1.9000e+000 112630 -5.6009e+001 -2.9477e+001 -1.6453e+000 21594 112319,112581,112509
 1.9000e+000 112900 -1.1936e+001 -2.6653e+000  3.4294e-003 20974 112675,112779,112701
 1.9000e+000 112877 -1.1617e+001 -4.7604e-002 -1.3833e+000 20974 112675,112805,112779
 1.9000e+000 112854 -1.3107e+001 -7.3407e+000 -1.2654e+000 20974 112701,112779,112753
 1.9000e+000 112831 -1.5569e+001 -1.1024e+001  7.2565e-001 20974 112701,112753,112727
 1.9000e+000 113359 -1.3053e+001 -3.1804e-001  6.4400e+000 20520 113454,113137,113111
 1.9000e+000 113336 -1.9764e+001 -4.4321e-003  7.4674e+000 20520 113454,113111,113085
 1.9000e+000 113313 -9.0133e+000 -6.6112e+000  2.8578e+000 20520 113382,113163,113137
 1.9000e+000 113290 -1.2219e+001 -2.0640e+000  5.0418e+000 20520 113526,113382,113137
 1.9000e+000 113267 -1.1462e+000  1.3433e+000  3.0285e+000 20520 113189,113241,113215
 1.9000e+000 113408 -6.8841e+000 -8.7927e-001  1.1775e+000 20520 113189,113163,113382
 1.9000e+000 113431 -8.7415e+000  6.1301e-002  4.4307e+000 20520 113189,113382,113241
 1.9000e+000 113480 -1.3832e+001 -1.2439e+000  4.1188e+000 20520 113526,113137,113454
 1.9000e+000 113503 -1.5209e+001  2.3002e+000  4.1980e+000 20520 113241,113454,113085
 1.9000e+000 113552 -9.2378e+000 -1.1486e+000  4.5033e+000 20520 113241,113382,113526
 1.9000e+000 113575 -1.0416e+001 -4.4626e-002  3.7145e+000 20520 113241,113526,113454
 1.9000e+000 113904 -4.7303e+000 -5.3428e+000 -4.6888e+000 19858 113705,113783,113757
 1.9000e+000 113881 -4.6161e+000 -4.9467e+000 -4.7534e+000 19858 113705,113809,113783
 1.9000e+000 113858 -7.3061e+000 -7.3390e+000 -2.2284e-001 19858 113679,113809,113705
 1.9000e+000 113835 -4.4050e+000 -2.3020e+000 -1.3448e+000 19858 113705,113757,113731
 1.9000e+000 114152 -5.2398e+001 -3.3931e+001 -8.9675e+000 19454 114175,114005,113979
 1.9000e+000 114129 -5.4558e+001 -3.6735e+001 -9.9084e+000 19454 114175,113979,114057
 1.9000e+000 114106 -5.9607e+001 -3.5066e+001  1.2001e+001 19454 113927,114057,113979
 1.9000e+000 114083 -4.4595e+001 -1.9569e+001  2.8801e+000 19454 113927,113979,113953
 1.9000e+000 114201  3.5102e+000 -9.8496e+000  1.4115e+001 19454 114031,114005,114175
 1.9000e+000 114224 -5.2064e+001 -4.2470e+001 -9.0799e+000 19454 114031,114175,114057
 1.9000e+000 114472 -3.0075e+001 -1.6512e+001  3.8663e-002 19000 114495,114273,114247
 1.9000e+000 114449 -2.6006e+001 -1.8558e+001  2.8927e+000 19000 114495,114247,114325
 1.9000e+000 114426 -2.2535e+001 -4.7358e+000  3.7084e+000 19000 114247,114377,114325
 1.9000e+000 114403 -2.0118e+001  1.4934e+000  3.1228e+000 19000 114325,114377,114351
 1.9000e+000 114521 -4.1210e+001 -2.0938e+001 -1.4869e+000 19000 114299,114273,114495
 1.9000e+000 114544 -2.8694e+001 -1.7250e+001  1.7977e+000 19000 114299,114495,114325
 1.9000e+000 114948 -3.5005e+001 -8.5673e+000  5.0478e-001 18560 114674,114726,114700
 1.9000e+000 114925 -2.7827e+001 -1.2987e+001 -2.1778e+000 18560 114674,114830,114726
 1.9000e+000 114902 -2.7546e+001 -1.2170e+001 -1.4008e+000 18560 114726,114830,114804
 1.9000e+000 114879 -1.7392e+001 -9.4851e+000  1.8464e+000 18560 114726,114804,114752
 1.9000e+000 114856 -1.4221e+001 -5.5372e+000  4.6679e-001 18560 114752,114804,114778
 1.9000e+000 115098 -5.3826e+001 -2.5527e+001 -8.0373e+000 18156 114971,115023,114997
 1.9000e+000 115075 -6.5412e+001 -3.0447e+001 -3.2190e+000 18156 114971,115049,115023
 1.9000e+000 115248 -5.5237e+001 -2.1427e+001 -7.2074e-001 17602 115147,115199,115173
 1.9000e+000 115225 -3.3568e+001 -2.1027e+001 -3.0297e-001 17602 115121,115199,115147
 1.9000e+000 115652 -5.1254e+001 -3.8256e+001 -1.1426e+000 17354 115430,115534,115508
 1.9000e+000 115629 -4.7272e+001 -2.8073e+001 -3.5242e+000 17354 115404,115534,115430
 1.9000e+000 115606 -4.3083e+001 -2.4451e+001  2.4649e+000 17354 115378,115534,115404
 1.9000e+000 115583 -6.9700e+001 -2.7865e+001  5.0838e+000 17354 115456,115508,115482
 1.9000e+000 115560 -4.5604e+001 -2.5232e+001 -4.1645e-001 17354 115430,115508,115456
 1.9000e+000 115873 -1.1091e+001 -2.8853e+000  1.9621e+000 16950 115749,115801,115775
 1.9000e+000 115850 -1.1671e+001 -3.8002e+000  1.5663e+000 16950 115697,115801,115749
 1.9000e+000 115827 -1.2620e+001 -6.1255e+000  1.3559e+000 16950 115697,115749,115723
 1.9000e+000 116023 -5.5448e+001 -1.2848e+001  7.3326e+000 16496 115922,115974,115948
 1.9000e+000 116000 -5.0473e+001 -6.4677e+000  9.9576e+000 16496 115896,115974,115922
 1.9000e+000 116126 -6.3802e+001 -3.6766e+001 -1.4911e+000 16298 116048,116100,116074
 1.9000e+000 116278 -1.7980e+001 -2.8208e-002 -1.3484e-001 15892 116151,116203,116177
 1.9000e+000 116255 -1.6866e+001 -1.0089e+000 -2.0635e+000 15892 116151,116229,116203
 1.9000e+000 116430 -6.0888e+001 -5.4868e+001  4.5848e-001 15545 116303,116355,116329
 1.9000e+000 116407 -5.3122e+001 -3.1641e+001  1.1540e+001 15545 116303,116381,116355
 1.9000e+000 116785  1.4134e+000  2.4728e+000  1.2463e+000 421 116612,116690,116664
 1.9000e+000 116762 -7.7429e-001 -2.5985e+000  2.4403e+000 421 116560,116690,116612
 1.9000e+000 116739 -6.2404e+000 -3.3396e+000 -4.4353e-001 421 116560,116612,116586
 1.9000e+000 116716  3.4657e+000 -1.0549e+000  1.4749e+000 421 116612,116664,116638
 2.0000e+000 68048  3.0789e+001 -3.4514e+001 -1.4600e+001 67642 67898,67950,67924
 2.0000e+000 68025  6.3230e+000 -5.0700e+001  1.6666e+000 67642 67898,67976,67950
 2.0000e+000 68002  2.6839e+001 -4.1705e+001 -3.0420e-001 67642 67872,67976,67898
 2.0000e+000 68367  3.6405e+001  2.1927e+001  5.0195e+000 67444 68119,68223,68197
 2.0000e+000 68344  3.0559e+001  7.1746e+000  6.6713e+000 67444 68119,68249,68223
 2.0000e+000 68321  3.4833e+001  1.2612e+001 -1.7450e-001 67444 68093,68249,68119
 2.0000e+000 68298  3.4309e+001  1.7788e+001  3.3255e+000 67444 68119,68197,68171
 2.0000e+000 68275  3.5786e+001  6.9254e+000 -3.2289e+000 67444 68119,68171,68145
 2.0000e+000 68468  4.2323e+001 -5.3752e+000  2.6694e+000 67268 68390,68442,68416
 2.0000e+000 68765  6.2635e+000 -2.9585e+001 -3.3270e+000 66956 68788,68517,68491
 2.0000e+000 68742  1.1295e-001 -3.1848e+001 -4.9578e+000 66956 68788,68491,68621
 2.0000e+000 68719  3.1741e+000 -3.2768e+001 -1.5660e+001 66956 68543,68621,68569
 2.0000e+000 68696 -6.5701e-001 -2.6957e+001  2.1321e-001 66956 68491,68647,68621
 2.0000e+000 68673 -5.6825e+000 -3.0430e+001 -1.6402e+001 66956 68569,68621,68595
 2.0000e+000 68814  1.3572e+001 -3.2327e+001 -2.5981e+000 66956 68543,68517,68788
 2.0000e+000 68837  5.9174e+000 -3.5696e+001 -4.4190e+000 66956 68543,68788,68621
 2.0000e+000 69107  2.4150e+001 -9.8066e-001  2.3561e-001 66758 68882,68986,68908
 2.0000e+000 69084  4.4607e+001  8.2045e+000  2.2109e+000 66758 68882,69012,68986
 2.0000e+000 69061 -9.5914e+000 -2.1424e+000 -8.2587e-001 66758 68908,68960,68934
 2.0000e+000 69038  2.1803e+001 -8.1522e-001  1.2962e+000 66758 68908,68986,68960
 2.0000e+000 69308  3.3131e+001  3.0653e+000 -5.2185e+000 66560 69331,69184,69158
 2.0000e+000 69285  3.9366e+001 -1.0995e+000 -5.3676e+000 66560 69331,69158,69132
 2.0000e+000 69262  2.6950e+001 -1.0154e+001 -3.0631e+000 66560 69184,69236,69210
 2.0000e+000 69357  3.1656e+001  4.4009e-001 -4.1179e+000 66560 69236,69184,69331
 2.0000e+000 69380  3.4153e+001 -6.8464e+000 -2.8944e+000 66560 69236,69331,69132
 2.0000e+000 69554  4.2199e+001 -1.2607e+000  3.8299e+000 66270 69427,69479,69453
 2.0000e+000 69531  4.7694e+001  1.1578e+001  6.3628e+000 66270 69427,69505,69479
 2.0000e+000 69804  2.8908e+001  1.1950e+001 -2.0553e+000 66066 69579,69683,69657
 2.0000e+000 69781  3.1766e+001  1.2850e+001  1.0738e+000 66066 69579,69709,69683
 2.0000e+000 69758  3.7504e+001  8.8679e+000 -6.6710e+000 66066 69579,69657,69631
 2.0000e+000 69735  3.5496e+001  3.2299e+000 -3.0908e+000 66066 69579,69631,69605
 2.0000e+000 70257  4.2136e+001  3.0899e+001 -1.4729e+001 65776 69960,70090,69986
 2.0000e+000 70234  3.5480e+001  3.1413e+000 -7.7312e+000 65776 69934,70090,69960
 2.0000e+000 70211  1.1629e+000 -8.9752e-001  6.7048e-001 65776 69934,70116,70090
 2.0000e+000 70188  3.5785e+001  1.5164e+001  0.0000e+000 65776 70038,70090,70064
 2.0000e+000 70165  3.0476e+001  2.0390e+001 -7.8801e+000 65776 69986,70090,70038
 2.0000e+000 70142  3.0827e+001  1.7925e+001 -8.3973e+000 65776 69986,70038,70012
 2.0000e+000 70456  3.6567e+001  1.7135e+001  2.2242e+000 65372 70479,70306,70280
 2.0000e+000 70433  2.9017e+001  8.5618e+000  6.3343e+000 65372 70479,70280,70384
 2.0000e+000 70410  3.3916e+001  1.6997e+001  9.9858e+000 65372 70551,70332,70306
 2.0000e+000 70505  3.1021e+001  1.7727e+001  8.8583e+000 65372 70551,70306,70479
 2.0000e+000 70528  2.0201e+001  1.3331e+001  1.0453e+001 65372 70358,70479,70384
 2.0000e+000 70577  3.0453e+001  1.5593e+001  8.8679e+000 65372 70358,70332,70551
 2.0000e+000 70600  2.8123e+001  1.6260e+001  7.5056e+000 65372 70358,70551,70479
 2.0000e+000 70821  2.9880e+001 -3.7241e+001 -2.0332e+000 65174 70645,70723,70671
 2.0000e+000 70798  4.0823e+001 -3.2700e+001 -1.4850e+000 65174 70645,70749,70723
 2.0000e+000 70775  3.4165e+001 -2.4156e+001 -5.0455e+000 65174 70671,70723,70697
 2.0000e+000 71071  2.9116e+001 -2.2872e+001  3.7911e+000 64770 71094,70898,70872
 2.0000e+000 71048  3.2524e+001 -2.1452e+001  3.7677e+000 64770 71166,71094,70872
 2.0000e+000 71025  3.4196e+001 -2.5111e+001  7.8206e-001 64770 71166,70872,70846
 2.0000e+000 71002  2.3201e+001 -2.3485e+001  1.2209e+000 64770 70898,70950,70924
 2.0000e+000 71120  2.9711e+001 -1.8871e+001  3.3628e+000 64770 70950,70898,71094
 2.0000e+000 71143  2.8182e+001 -2.3406e+001  6.0239e+000 64770 70950,71094,70976
 2.0000e+000 71192  2.9087e+001 -2.8997e+001  4.8509e+000 64770 70976,71094,71166
 2.0000e+000 71215  3.2217e+001 -2.9957e+001  1.5263e+000 64770 70976,71166,70846
 2.0000e+000 71514  1.1828e+001  1.4214e+001 -2.6472e+000 64572 71681,71537,71318
 2.0000e+000 71491  1.4470e+001  2.0425e+001  3.4317e+000 64572 71537,71266,71240
 2.0000e+000 71468  1.3300e+000  1.6290e+001 -8.9549e+000 64572 71609,71396,71370
 2.0000e+000 71445  1.7132e+001  7.5896e+000 -4.2718e-002 64572 71681,71318,71292
 2.0000e+000 71422  2.7812e+001  5.9175e+000 -4.0196e+000 64572 71753,71344,71318
 2.0000e+000 71563  2.6851e+001  2.1502e+001 -1.3504e+001 64572 71753,71318,71537
 2.0000e+000 71586  5.4838e+000  2.1065e+001 -1.2261e+001 64572 71609,71370,71537
 2.0000e+000 71635 -1.2348e+001 -3.6530e+000  1.2186e+001 64572 71240,71396,71609
 2.0000e+000 71658  1.0425e+001  1.2347e+001  5.1187e+000 64572 71240,71609,71537
 2.0000e+000 71707  1.8897e+001  2.0527e+001  3.7463e-001 64572 71266,71537,71681
 2.0000e+000 71730  2.9740e+001  1.8534e+001  4.6228e+000 64572 71266,71681,71292
 2.0000e+000 71779  4.7261e+001  2.1863e+001 -1.1863e+001 64572 71370,71344,71753
 2.0000e+000 71802  3.6941e+001  2.7542e+001 -1.6078e+001 64572 71370,71753,71537
 2.0000e+000 72052  2.7717e-001 -3.0521e+001  5.1801e+000 64374 72075,71879,71827
 2.0000e+000 72029  7.0747e+000 -2.6377e+001  2.6366e+000 64374 72147,72075,71827
 2.0000e+000 72006  8.0954e+000 -2.5994e+001  2.7049e+000 64374 72147,71827,71957
 2.0000e+000 71983  4.8846e+000 -3.2763e+001  1.9125e+000 64374 71827,71879,71853
 2.0000e+000 72101  1.9425e+000 -4.2136e+001  1.3921e+001 64374 71905,71879,72075
 2.0000e+000 72124  2.1355e+001 -2.9783e+001  8.0945e+000 64374 71905,72075,71931
 2.0000e+000 72173  6.5427e+000 -2.5521e+001  3.1579e+000 64374 71931,72075,72147
 2.0000e+000 72196  6.8360e+000 -2.5575e+001  3.0701e+000 64374 71931,72147,71957
 2.0000e+000 72649  2.0361e+001  1.5415e+001  1.0275e+000 63948 72352,72508,72482
 2.0000e+000 72626  2.2159e+001  1.6532e+001  1.6571e+000 63948 72326,72508,72352
 2.0000e+000 72603  1.4460e+001  1.2287e+001 -3.0646e+000 63948 72672,72430,72378
 2.0000e+000 72580  2.0517e+001  7.3752e+000 -2.2562e+000 63948 72672,72378,72352
 2.0000e+000 72557  1.9081e+001  1.5630e+001 -7.1939e-002 63948 72744,72456,72430
 2.0000e+000 72534  1.9097e+001  1.1761e+001 -1.3600e+001 63948 72378,72430,72404
 2.0000e+000 72698  1.8768e+001  1.4468e+001 -7.1231e-001 63948 72744,72430,72672
 2.0000e+000 72721  2.2923e+001  1.1941e+001  1.0017e+000 63948 72482,72672,72352
 2.0000e+000 72770  2.1371e+001  1.3482e+001 -2.9121e-001 63948 72482,72456,72744
 2.0000e+000 72793  1.9591e+001  1.0642e+001 -1.2752e+000 63948 72482,72744,72672
 2.0000e+000 72894  1.9353e+001  1.8897e+000 -2.3910e+000 63494 72816,72868,72842
 2.0000e+000 73093  1.3310e-001 -3.9236e+001  1.6887e+000 63132 72943,72995,72969
 2.0000e+000 73070  1.9371e+000 -3.8267e+001  7.0951e-002 63132 72943,73021,72995
 2.0000e+000 73047  2.4121e+001 -2.7442e+001  1.6247e+001 63132 72917,73021,72943
 2.0000e+000 73294  2.8638e+001  9.8110e+000 -5.0269e+000 62792 73317,73144,73118
 2.0000e+000 73271  2.7372e+001  7.8607e+000 -3.1651e+000 62792 73317,73118,73222
 2.0000e+000 73248  2.8275e+001  8.3713e+000 -8.9035e-001 62792 73144,73196,73170
 2.0000e+000 73343  2.6018e+001  1.1507e+001 -2.4531e+000 62792 73196,73144,73317
 2.0000e+000 73366  2.4279e+001  8.2350e+000 -4.1783e-001 62792 73196,73317,73222
 2.0000e+000 73616  2.4951e+001  7.6383e+000 -1.5595e+000 62388 73639,73417,73391
 2.0000e+000 73593  2.2538e+001  2.8431e+000  3.4867e+000 62388 73711,73639,73391
 2.0000e+000 73570  2.2907e+001  4.7269e+000  3.2621e+000 62388 73711,73391,73521
 2.0000e+000 73547  2.1010e+001  1.8034e-001  4.4676e+000 62388 73469,73521,73495
 2.0000e+000 73665  1.5763e+001  4.5118e+000  4.0483e+000 62388 73443,73417,73639
 2.0000e+000 73688  2.1367e+001 -4.1011e+000  7.0231e+000 62388 73443,73639,73469
 2.0000e+000 73737  2.3075e+001  1.7386e+000  3.2450e+000 62388 73469,73639,73711
 2.0000e+000 73760  2.2723e+001  2.6540e+000  3.3510e+000 62388 73469,73711,73521
 2.0000e+000 74010  8.3394e+000  4.7340e-001 -8.6561e+000 61848 74033,73837,73811
 2.0000e+000 73987  2.8746e+001  1.2895e+001 -1.5426e+001 61848 74033,73811,73785
 2.0000e+000 73964  1.5072e+001  7.6975e+000 -9.6566e-001 61848 73837,73915,73889
 2.0000e+000 73941  7.3007e+000  3.2026e+000 -4.6309e+000 61848 73837,73889,73863
 2.0000e+000 74059  6.5658e+000  9.9027e-001 -6.6585e+000 61848 73915,73837,74033
 2.0000e+000 74082  8.6570e+000 -1.8731e+000 -8.8194e+000 61848 73915,74033,73785
 2.0000e+000 74283  1.9016e+001  2.9991e+000 -3.4543e+000 61444 74306,74133,74107
 2.0000e+000 74260  1.7434e+001  5.9514e+000  4.8290e+000 61444 74306,74107,74211
 2.0000e+000 74237  1.1379e+001  9.1769e+000  1.0524e+000 61444 74378,74185,74159
 2.0000e+000 74332  1.1486e+001 -2.8753e-001 -5.0348e+000 61444 74159,74133,74306
 2.0000e+000 74355  1.4514e+001  4.3438e+000  2.4160e+000 61444 74378,74159,74306
 2.0000e+000 74404  1.0665e+001  4.4362e+000  3.3536e+000 61444 74211,74185,74378
 2.0000e+000 74427  1.2272e+001  2.6084e+000  3.2587e+000 61444 74211,74378,74306
 2.0000e+000 74628  3.2965e+001  5.8567e+000 -1.0554e+000 60990 74478,74530,74504
 2.0000e+000 74605  3.0778e+001  4.7790e+000 -1.4167e+000 60990 74452,74530,74478
 2.0000e+000 74582  2.5248e+001  6.0040e+000 -2.1760e+000 60990 74452,74556,74530
 2.0000e+000 75089  1.5234e+001 -9.8443e+000 -7.2102e+000 60486 75112,74945,74919
 2.0000e+000 75066  8.4265e+000 -1.8785e+001 -3.3247e+000 60486 75112,74919,74867
 2.0000e+000 75043  1.6873e+000 -1.8831e+001 -6.6385e-001 60486 74841,74971,74867
 2.0000e+000 75020  3.5761e+001 -4.6103e+000 -8.7252e+000 60486 74867,74919,74893
 2.0000e+000 74997  1.6147e+001  4.6122e+000  1.8560e+001 60486 74815,74971,74841
 2.0000e+000 75138  7.7726e+000 -1.0620e+001 -2.0550e+000 60486 74971,74945,75112
 2.0000e+000 75161  4.8580e+000 -1.3164e+001  5.8531e-001 60486 74971,75112,74867
 2.0000e+000 75409  9.0837e+000 -1.9393e-001  8.8934e-001 59932 75576,75432,75288
 2.0000e+000 75386  5.8302e+000  2.8979e+000 -4.5740e+000 59932 75504,75314,75288
 2.0000e+000 75363  1.6743e+001  1.1852e+001  5.7716e+000 59932 75432,75236,75210
 2.0000e+000 75340  1.2886e+001  1.8585e+000  1.7118e+000 59932 75576,75288,75262
 2.0000e+000 75458  6.4486e+000  6.3831e-001 -3.8489e+000 59932 75504,75288,75432
 2.0000e+000 75481  6.7339e+000  3.9419e+000  5.5246e-002 59932 75184,75432,75210
 2.0000e+000 75530  1.0873e+001  2.0032e+001 -4.9661e+000 59932 75184,75314,75504
 2.0000e+000 75553  7.6439e+000  3.0427e+000 -3.4168e+000 59932 75184,75504,75432
 2.0000e+000 75602  6.6727e+000  1.4961e+000  1.3119e+000 59932 75236,75432,75576
 2.0000e+000 75625  6.9530e+000  1.3989e+000  1.2181e+000 59932 75236,75576,75262
 2.0000e+000 75873  2.2277e+001 -2.5748e+000  4.1485e+000 59478 75674,75752,75700
 2.0000e+000 75850  1.7859e+001 -4.5010e+000  3.2471e+000 59478 75648,75752,75674
 2.0000e+000 75827  2.2273e+001  8.7426e+000  9.9582e+000 59478 75700,75752,75726
 2.0000e+000 75804  1.5365e+001 -3.5798e+000  3.3998e+000 59478 75648,75778,75752
 2.0000e+000 76206  2.1811e+001  8.0426e+000  2.8406e+000 59024 75981,76059,76007
 2.0000e+000 76183  2.0122e+001  4.3737e+000  4.0467e+000 59024 75981,76111,76059
 2.0000e+000 76160  1.9994e+001  1.0107e+001  1.0934e+000 59024 76007,76059,76033
 2.0000e+000 76137  2.1943e+001  4.9977e+000  7.0582e+000 59024 76059,76111,76085
 2.0000e+000 76761 -1.9250e-001 -2.3871e+001 -1.6547e+001 58562 76389,76441,76415
 2.0000e+000 76738  6.5756e+000 -3.4059e+001  2.8511e+000 58562 76856,76784,76389
 2.0000e+000 76715  8.0671e+000 -1.9062e+001 -4.5882e+000 58562 76784,76571,76467
 2.0000e+000 76692  1.3935e+001 -4.3735e+001  6.4707e+000 58562 76856,76389,76597
 2.0000e+000 76669  1.3567e+001 -2.6633e+001  9.4811e+000 58562 76467,76545,76493
 2.0000e+000 76646 -7.7649e-001 -2.4403e+001 -7.0759e+000 58562 76467,76571,76545
 2.0000e+000 76623  5.3357e+000 -3.8638e+001  3.5004e+000 58562 76493,76545,76519
 2.0000e+000 76810  1.6249e+001 -2.6094e+001 -3.1742e+000 58562 76441,76389,76784
 2.0000e+000 76833 -4.9427e+000 -4.2336e+001 -1.3200e+001 58562 76441,76784,76467
 2.0000e+000 76882  1.3416e+001 -2.0480e+001  5.8082e+000 58562 76571,76784,76856
 2.0000e+000 76905  1.9807e+001 -3.0790e+001  8.2795e+000 58562 76571,76856,76597
 2.0000e+000 77055  5.3159e+000 -3.6802e+001 -1.0963e-001 57844 76928,76980,76954
 2.0000e+000 77032  3.3012e+000 -3.9085e+001  7.3889e-001 57844 76928,77006,76980
 2.0000e+000 77533 -7.1214e+000 -2.2722e+001  4.5492e+000 57226 77628,77556,77291
 2.0000e+000 77510 -9.9409e+000 -1.7865e+001  4.3035e+000 57226 77556,77187,77343
 2.0000e+000 77487 -8.0412e+000 -2.0720e+001  4.1227e+000 57226 77628,77291,77265
 2.0000e+000 77464 -1.2478e+001 -2.9239e+001  1.3954e+001 57226 77700,77213,77187
 2.0000e+000 77441 -1.1990e+001 -2.0160e+001  2.0074e+000 57226 77161,77343,77187
 2.0000e+000 77418 -8.7181e+000 -1.2606e+001 -1.0653e+000 57226 77161,77369,77343
 2.0000e+000 77395 -4.7902e-001 -2.3399e+001  8.6655e+000 57226 77213,77265,77239
 2.0000e+000 77582 -3.0262e+000 -1.6286e+001 -1.3473e-001 57226 77317,77291,77556
 2.0000e+000 77605 -1.4463e+001 -2.1190e+001  2.3167e+000 57226 77317,77556,77343
 2.0000e+000 77654 -1.0740e+001 -2.1883e+001  5.6423e+000 57226 77187,77556,77628
 2.0000e+000 77677 -1.5021e+001 -2.6803e+001  8.9627e+000 57226 77700,77187,77628
 2.0000e+000 77726 -3.4305e+000 -2.5582e+001  1.0501e+001 57226 77265,77213,77700
 2.0000e+000 77749 -4.7057e+000 -2.0743e+001  5.0899e+000 57226 77265,77700,77628
 2.0000e+000 78046  7.0947e+000 -6.4306e-001  3.0793e+000 56936 77798,77850,77824
 2.0000e+000 78023  9.6455e+000 -5.6398e+000  1.1568e+000 56936 78069,77798,77902
 2.0000e+000 78000  1.1108e+001 -4.3111e+000  1.7209e+000 56936 78069,77902,77876
 2.0000e+000 77977  5.0116e+000 -9.0355e+000 -6.1982e+000 56936 77798,77928,77902
 2.0000e+000 77954 -6.5402e+000 -5.9400e+000 -6.9508e+000 56936 77772,77928,77798
 2.0000e+000 78095  8.9039e+000 -5.0337e+000  6.4669e-001 56936 77850,77798,78069
 2.0000e+000 78118  9.5976e+000 -4.4403e+000  9.7375e-001 56936 77850,78069,77876
 2.0000e+000 78754  1.9989e+001  2.2257e+001 -3.3183e+000 56475 78777,78486,78408
 2.0000e+000 78731  1.8650e+001  1.9034e+001 -1.5825e+000 56475 78777,78408,78382
 2.0000e+000 78708  2.0863e+001  1.4611e+001 -8.4805e+000 56475 78849,78512,78486
 2.0000e+000 78685  3.0641e+001  2.0586e+001 -2.9814e+000 56475 78382,78590,78564
 2.0000e+000 78662  2.0490e+001  8.2343e+000 -1.0087e+001 56475 78512,78564,78538
 2.0000e+000 78639  2.0963e+001  1.6682e+001 -3.7157e-001 56475 78434,78486,78460
 2.0000e+000 78616  1.8721e+001  2.0121e+001 -2.1466e+000 56475 78408,78486,78434
 2.0000e+000 78803  1.8213e+001  1.7928e+001 -4.2352e+000 56475 78849,78486,78777
 2.0000e+000 78826  2.1253e+001  2.5040e+001 -1.3151e+000 56475 78564,78777,78382
 2.0000e+000 78875  2.3672e+001  2.1524e+001 -8.4380e+000 56475 78564,78512,78849
 2.0000e+000 78898  2.1623e+001  2.6243e+001 -4.9863e+000 56475 78564,78849,78777
 2.0000e+000 79276  2.2504e+001  2.2715e+001  1.0458e+000 55964 79299,79080,79028
 2.0000e+000 79253  2.5826e+001  2.0569e+001  4.3631e+000 55964 79299,79028,79132
 2.0000e+000 79230  1.7519e+001  4.6779e+000  2.0348e+000 55964 79028,79080,79054
 2.0000e+000 79207  2.0914e+001  9.5995e+000 -6.5986e-001 55964 79002,79132,79028
 2.0000e+000 79184  4.3245e+001  1.9627e+001 -5.7656e+000 55964 79002,79158,79132
 2.0000e+000 79325  2.4797e+001  2.6552e+001  2.2370e+000 55964 79106,79080,79299
 2.0000e+000 79348  2.7748e+001  2.3448e+001  5.4048e+000 55964 79106,79299,79132
 2.0000e+000 79498  2.6173e+000  2.7924e+001 -5.7102e+000 55452 79397,79449,79423
 2.0000e+000 79475  4.8304e+000  3.6880e+000 -4.7683e+000 55452 79371,79449,79397
 2.0000e+000 79795  1.2900e+001  1.5436e+001  4.2698e+000 55048 79962,79818,79573
 2.0000e+000 79772  1.2817e+001  2.2597e+000  2.0126e+000 55048 79818,79521,79677
 2.0000e+000 79749  1.5951e+001  1.1721e+001  3.1680e+000 55048 79599,79651,79625
 2.0000e+000 79726  1.5525e+001  1.2088e+001  2.9674e+000 55048 79890,79651,79599
 2.0000e+000 79703  1.5561e+001  1.9593e+001  5.7468e+000 55048 79962,79573,79547
 2.0000e+000 79844  1.1490e+001  1.3695e+001  3.6521e+000 55048 79599,79573,79818
 2.0000e+000 79867  1.4829e+001  1.0816e+001  2.3830e+000 55048 79890,79599,79818
 2.0000e+000 79916  1.6316e+001  1.2181e+001  4.1596e+000 55048 79677,79651,79890
 2.0000e+000 79939  1.5902e+001  1.1636e+001  3.6372e+000 55048 79677,79890,79818
 2.0000e+000 79988  1.2745e+001  1.3500e+001  1.0217e+000 55048 79521,79818,79962
 2.0000e+000 80011  1.3372e+001  1.4600e+001  2.1845e+000 55048 79521,79962,79547
 2.0000e+000 80212  7.9126e+000 -1.2476e+001  4.9829e+000 54436 80235,80088,80036
 2.0000e+000 80189  5.2807e+000 -1.5427e+001  6.2098e+000 54436 80235,80036,80140
 2.0000e+000 80166  1.1203e+001 -1.4726e+001 -1.4197e+000 54436 80036,80088,80062
 2.0000e+000 80261  5.3578e+000 -8.0978e+000  2.8298e+000 54436 80114,80088,80235
 2.0000e+000 80284  1.9465e+000 -1.1222e+001  4.3013e+000 54436 80114,80235,80140
 2.0000e+000 80534  7.5657e+000  3.6112e+000 -1.6968e+000 54032 80557,80361,80335
 2.0000e+000 80511  7.0469e+000  4.1757e+000 -2.1600e+000 54032 80557,80335,80309
 2.0000e+000 80488  7.7799e+000  6.7171e+000 -1.2867e+000 54032 80629,80413,80387
 2.0000e+000 80465  1.6467e+001  7.1906e+000 -9.4294e-001 54032 80309,80439,80413
 2.0000e+000 80583  6.0857e+000 -2.7739e+000 -1.5325e+000 54032 80387,80361,80557
 2.0000e+000 80606  6.4895e+000  3.3637e+000 -2.4064e+000 54032 80629,80387,80557
 2.0000e+000 80655  9.0253e+000  6.7549e+000  7.4748e-001 54032 80309,80413,80629
 2.0000e+000 80678  9.3271e+000  5.8024e+000 -1.5757e-001 54032 80309,80629,80557
 2.0000e+000 81139 -5.3246e+000 -4.5783e+001  1.6192e+000 53784 80865,80995,80917
 2.0000e+000 81116  7.9905e+000 -4.2356e+001  7.1843e+000 53784 80865,81021,80995
 2.0000e+000 81093 -1.6180e+001 -4.9859e+001 -1.6830e+000 53784 80943,80995,80969
 2.0000e+000 81070  1.6413e+000 -2.5722e+001  8.7819e+000 53784 80917,80995,80943
 2.0000e+000 81047  6.4187e+000 -5.5668e+001 -5.4664e+000 53784 80865,80917,80891
 2.0000e+000 81468 -7.4581e+000 -1.0740e+001  1.1445e-001 53230 81295,81373,81347
 2.0000e+000 81445 -8.0913e+000 -6.6859e+000 -5.8069e-001 53230 81243,81373,81295
 2.0000e+000 81422 -4.5480e+000 -1.0367e+001  2.8495e+000 53230 81243,81295,81269
 2.0000e+000 81399  7.9377e-001 -6.2206e+000 -2.8033e+000 53230 81295,81347,81321
 2.0000e+000 81618 -1.5943e+001  3.1641e+001 -8.1785e+000 52790 81491,81543,81517
 2.0000e+000 81595 -1.4393e+001  1.1529e+001 -5.8242e+000 52790 81491,81569,81543
 2.0000e+000 82126  2.4296e+001  1.9724e+001 -1.7738e+000 52386 82149,81907,81881
 2.0000e+000 82103  2.3288e+001  2.0944e+001  3.0866e+000 52386 82149,81881,81855
 2.0000e+000 82080  1.5022e+001  1.6343e+001 -1.1443e+000 52386 82221,81803,81985
 2.0000e+000 82057  1.6306e+001  1.8617e+001  5.9190e+000 52386 81803,81855,81829
 2.0000e+000 82034  2.3820e+001  1.6771e+001 -2.2743e+000 52386 81907,81985,81933
 2.0000e+000 82011  2.0668e+001  1.6921e+001 -2.4031e+000 52386 81933,81985,81959
 2.0000e+000 82175  2.4161e+001  1.8927e+001 -1.3268e+000 52386 81985,81907,82149
 2.0000e+000 82198  2.3500e+001  1.8607e+001 -1.6177e+000 52386 82221,81985,82149
 2.0000e+000 82247  1.2821e+001  1.8485e+001  4.4877e+000 52386 81855,81803,82221
 2.0000e+000 82270  1.5835e+001  1.7705e+001  3.4565e+000 52386 81855,82221,82149
 2.0000e+000 82825 -8.1566e+000 -1.7121e+001  2.8534e+000 51782 82505,82661,82635
 2.0000e+000 82802 -1.0271e+001 -1.8414e+001  1.4970e+000 51782 82479,82661,82505
 2.0000e+000 82779 -5.5718e+000 -1.4186e+001 -1.6600e+000 51782 82557,82635,82609
 2.0000e+000 82756 -5.3870e+000 -1.3623e+001  9.3508e-001 51782 82531,82635,82557
 2.0000e+000 82733 -6.9470e+000 -1.8310e+001  1.3156e-001 51782 82505,82635,82531
 2.0000e+000 82710 -9.0661e+000 -2.1840e+001 -1.9027e+000 51782 82453,82661,82479
 2.0000e+000 82687 -8.1397e+000 -2.0896e+001 -3.9183e+000 51782 82557,82609,82583
 2.0000e+000 83171  2.0054e+001  8.8304e+000  1.2230e+000 51442 83194,82978,82900
 2.0000e+000 83148  1.1445e+001  1.5599e+001 -3.0209e-001 51442 83194,82900,82874
 2.0000e+000 83125  1.7679e+001  7.7085e+000  9.8567e-002 51442 82900,82978,82926
 2.0000e+000 83102  8.9768e+000  1.3985e+001  1.5024e+000 51442 82874,83030,83004
 2.0000e+000 83079  2.4855e+001  7.3826e+000 -3.1371e+000 51442 82926,82978,82952
 2.0000e+000 83056  2.0496e+001  1.3230e+001  1.6325e+000 51442 82848,83030,82874
 2.0000e+000 83220  2.5876e+001  1.1985e+001 -1.7605e-001 51442 83004,82978,83194
 2.0000e+000 83243  1.6448e+001  1.8387e+001 -1.7385e+000 51442 83004,83194,82874
 2.0000e+000 83751  1.0035e+001  8.8876e+000  4.1299e+000 50938 83428,83584,83454
 2.0000e+000 83728  1.8832e+000  5.8829e+000  1.2385e+000 50938 83428,83610,83584
 2.0000e+000 83705  3.3868e+000  5.5784e+000  2.0367e+000 50938 83454,83584,83558
 2.0000e+000 83682  2.7995e+000  4.0304e+000  1.7601e+000 50938 83454,83532,83480
 2.0000e+000 83659  3.4400e+000  5.4454e+000  1.3864e+000 50938 83454,83558,83532
 2.0000e+000 83636  1.3918e-001 -4.8581e+000 -1.9233e+000 50938 83480,83532,83506
 2.0000e+000 84355 -2.9483e+000 -2.8801e+001 -1.4121e+000 50377 84378,83960,83934
 2.0000e+000 84332 -7.4997e+000 -3.6430e+001  3.4507e+000 50377 84522,84378,83934
 2.0000e+000 84309 -1.0576e+001 -3.3796e+001  7.0792e-001 50377 84450,84038,84012
 2.0000e+000 84286 -1.1705e+001 -3.6655e+001  4.3514e+000 50377 84522,83934,84142
 2.0000e+000 84263 -1.1798e+001 -2.5880e+001  1.5256e-001 50377 84594,84090,84038
 2.0000e+000 84240 -1.1069e+001 -3.3718e+001  2.1512e+000 50377 83960,84012,83986
 2.0000e+000 84217 -1.9330e+000 -3.2295e+001  3.4036e+000 50377 83934,84168,84142
 2.0000e+000 84194 -1.0757e+001 -2.1437e+001  3.1744e+000 50377 84038,84090,84064
 2.0000e+000 84404 -1.0511e+001 -3.4263e+001  1.6900e+000 50377 84012,83960,84378
 2.0000e+000 84427 -8.8240e+000 -3.2478e+001  2.4044e+000 50377 84450,84012,84378
 2.0000e+000 84476 -8.4608e+000 -2.9158e+001  1.2446e+000 50377 84594,84038,84450
 2.0000e+000 84499 -1.0125e+001 -3.2113e+001  3.7548e+000 50377 84116,84450,84378
 2.0000e+000 84548 -1.4006e+001 -3.3800e+001  4.0206e+000 50377 84116,84378,84522
 2.0000e+000 84571 -1.8832e+001 -3.4762e+001  5.3459e+000 50377 84116,84522,84142
 2.0000e+000 84620 -1.5957e+001 -2.9860e+001  1.9193e+000 50377 84116,84090,84594
 2.0000e+000 84643 -1.3280e+001 -3.3482e+001  3.2136e+000 50377 84116,84594,84450
 2.0000e+000 84842  1.3359e+001  1.2082e+001 -3.7224e+000 49923 84865,84692,84666
 2.0000e+000 84819  2.2231e+001  9.7882e+000  2.6715e+000 49923 84865,84666,84770
 2.0000e+000 84796  3.5552e+001  1.4876e+001  1.6471e+000 49923 84692,84744,84718
 2.0000e+000 84891  1.9188e+001  1.4957e+001  9.4295e-001 49923 84744,84692,84865
 2.0000e+000 84914  2.9587e+001  1.6188e+001  8.1374e+000 49923 84744,84865,84770
 2.0000e+000 85501 -9.7907e+000 -2.3347e+001  2.5365e+000 49618 85524,85282,85204
 2.0000e+000 85478 -4.3881e+000 -2.0569e+001  3.5255e+000 49618 85596,85524,85204
 2.0000e+000 85455  4.3010e-001 -2.4268e+001  4.0391e+000 49618 85596,85204,85178
 2.0000e+000 85432 -6.8753e+000 -2.2332e+001  2.0471e+000 49618 85204,85282,85256
 2.0000e+000 85409 -1.1975e+001 -2.5092e+001  1.1583e+000 49618 85282,85334,85308
 2.0000e+000 85386 -6.7196e+000 -2.3577e+001 -1.5555e+000 49618 85204,85256,85230
 2.0000e+000 85550 -8.4847e+000 -1.9969e+001  2.6749e+000 49618 85334,85282,85524
 2.0000e+000 85573 -1.3938e+001 -2.2021e+001  3.7315e+000 49618 85334,85524,85360
 2.0000e+000 85622 -1.2119e+001 -2.4026e+001  5.6195e+000 49618 85360,85524,85596
 2.0000e+000 85645 -5.8907e+000 -2.6192e+001  5.1746e+000 49618 85360,85596,85178
 2.0000e+000 85795 -5.3415e+001 -1.6377e+001  4.9462e+000 49278 85694,85746,85720
 2.0000e+000 85772 -5.9315e+001 -1.6474e+001  1.8046e+000 49278 85668,85746,85694
 2.0000e+000 86197 -1.7339e+001 -4.5316e+001 -6.1316e+000 48916 86001,86079,86027
 2.0000e+000 86174 -2.2953e+001 -4.6721e+001  2.7830e+000 48916 85949,86079,86001
 2.0000e+000 86151 -9.4871e+000 -4.2496e+001 -1.6965e+000 48916 85949,86001,85975
 2.0000e+000 86128 -1.9916e+001 -5.9577e+001 -8.7862e+000 48916 86027,86079,86053
 2.0000e+000 86105  1.0872e+001 -3.1752e+001  6.8137e+000 48916 85923,86079,85949
 2.0000e+000 86477  2.4601e+000 -6.3508e+000  1.5030e+000 48398 86327,86379,86353
 2.0000e+000 86454  9.6902e-001 -3.7164e+000  1.2948e-001 48398 86500,86379,86327
 2.0000e+000 86431  8.8096e+000  2.9018e+000 -3.3527e+000 48398 86301,86405,86379
 2.0000e+000 86526 -1.5539e+000 -4.4075e+000  1.0159e-001 48398 86301,86379,86500
 2.0000e+000 87032 -2.2743e+000 -8.9579e+000 -3.9005e-001 48008 87127,87055,86787
 2.0000e+000 87009 -2.3176e+000 -9.3525e+000 -5.0360e-001 48008 87055,86735,86709
 2.0000e+000 86986 -2.9203e+000 -8.6047e+000 -2.6995e-001 48008 87127,86787,86761
 2.0000e+000 86963  7.9113e-001 -9.1723e+000  1.0819e+000 48008 86787,86865,86839
 2.0000e+000 86940  6.8787e+000 -5.4364e+000 -1.4850e+000 48008 86709,86891,86865
 2.0000e+000 86917  9.9120e-002 -1.2449e+001 -1.1110e+000 48008 86787,86839,86813
 2.0000e+000 87081 -2.0537e+000 -8.9726e+000 -6.2885e-001 48008 86865,86787,87055
 2.0000e+000 87104 -2.1555e+000 -8.9141e+000 -5.0105e-001 48008 86865,87055,86709
 2.0000e+000 87153 -3.3012e+000 -9.5767e+000 -6.8503e-001 48008 86735,87055,87127
 2.0000e+000 87176 -4.5340e+000 -9.3054e+000 -4.0669e-001 48008 86735,87127,86761
 2.0000e+000 87456  1.4449e+001  8.8832e+000 -1.4639e+000 47604 87306,87358,87332
 2.0000e+000 87433  1.5777e+001  1.1611e+001 -3.6066e+000 47604 87306,87384,87358
 2.0000e+000 87410  1.1990e+001  1.0129e+001 -6.6740e-001 47604 87280,87384,87306
 2.0000e+000 87785  1.9545e+001  1.3824e+001  3.0332e+000 47264 87638,87690,87664
 2.0000e+000 87762  1.5720e+001  1.1929e+001  4.2502e+000 47264 87612,87690,87638
 2.0000e+000 87739  1.7447e+001  1.1603e+001  6.2227e+000 47264 87560,87690,87612
 2.0000e+000 87716  1.6043e+001  2.1753e+000  4.5386e+000 47264 87560,87612,87586
 2.0000e+000 87935 -6.7628e+000 -3.9988e+001  5.7944e-001 46952 87808,87860,87834
 2.0000e+000 87912 -6.6625e+000 -4.3048e+001 -1.5474e+000 46952 87808,87886,87860
 2.0000e+000 88281  6.2891e+000  4.7739e+000 -2.0671e-001 46526 88304,88114,88036
 2.0000e+000 88258  9.9158e+000  5.8998e+000  3.4687e-001 46526 88304,88036,87984
 2.0000e+000 88235  2.7490e+000  2.7876e+000  1.2836e+000 46526 88036,88114,88062
 2.0000e+000 88212  1.4095e+001  1.3385e+001  1.8320e+001 46526 87958,88140,87984
 2.0000e+000 88189  7.3463e+000  3.3193e-004 -2.1513e-001 46526 87984,88036,88010
 2.0000e+000 88166  4.9612e+000  2.2295e+000  7.4655e-001 46526 88062,88114,88088
 2.0000e+000 88330  3.4166e+000  6.4047e+000 -8.7622e-002 46526 88140,88114,88304
 2.0000e+000 88353  5.9764e+000  6.7387e+000  3.5588e-001 46526 88140,88304,87984
 2.0000e+000 88701  6.8990e+000  2.3934e+000  2.5442e+000 45822 88724,88378,88534
 2.0000e+000 88678  7.5752e+000  7.7028e+000  2.8825e+000 45822 88378,88560,88534
 2.0000e+000 88655  7.7836e+000  3.2203e+000  1.7944e+000 45822 88724,88534,88508
 2.0000e+000 88632  4.9631e+000 -1.9145e+000  4.4482e+000 45822 88404,88508,88456
 2.0000e+000 88609  6.5447e+000 -3.1780e-001  1.1431e+000 45822 88404,88456,88430
 2.0000e+000 88586  1.0899e+001 -7.9479e+000  8.4034e+000 45822 88456,88508,88482
 2.0000e+000 88750  7.8298e+000  1.0307e+000  3.3763e+000 45822 88404,88378,88724
 2.0000e+000 88773  8.4232e+000  1.8126e+000  2.7075e+000 45822 88404,88724,88508
 2.0000e+000 89106 -2.6775e+001 -4.0252e+001 -1.4485e+000 45418 88881,88985,88907
 2.0000e+000 89083 -2.6499e+001 -3.9509e+001 -1.7950e+000 45418 88881,89011,88985
 2.0000e+000 89060 -1.5177e+001 -3.6993e+001 -5.7404e-001 45418 88907,88985,88933
 2.0000e+000 89037 -1.7129e+001 -3.3320e+001 -1.6000e+000 45418 88933,88985,88959
 2.0000e+000 89435  1.7365e+001  9.3132e+000  3.1073e+000 44914 89210,89288,89236
 2.0000e+000 89412  1.6129e+001  9.7072e+000  4.4447e+000 44914 89210,89314,89288
 2.0000e+000 89389  2.0141e+001  9.9443e+000  4.5076e+000 44914 89210,89340,89314
 2.0000e+000 89366  1.3404e+001  8.2001e+000  2.3571e+000 44914 89236,89288,89262
 2.0000e+000 89634  1.7592e+001  9.7184e+000  4.1848e+000 44538 89510,89562,89536
 2.0000e+000 89611  1.5263e+001  7.5629e+000  2.2157e+000 44538 89458,89562,89510
 2.0000e+000 89588  1.4085e+001  7.4493e+000  2.6656e+000 44538 89458,89510,89484
 2.0000e+000 90044 -9.7465e+000 -1.8817e+001  7.0146e-001 44134 89819,89923,89845
 2.0000e+000 90021 -1.1584e+001 -2.1933e+001 -2.6371e-001 44134 89819,89949,89923
 2.0000e+000 89998 -1.3520e+001 -2.1820e+001  2.4739e+000 44134 89845,89923,89897
 2.0000e+000 89975 -1.2176e+001 -1.4626e+001  2.5263e-001 44134 89845,89897,89871
 2.0000e+000 90520 -1.8775e+001 -2.7201e+001  2.9308e+000 43457 90543,90252,90226
 2.0000e+000 90497 -1.8742e+001 -2.7895e+001  2.5063e+000 43457 90543,90226,90330
 2.0000e+000 90474 -2.3907e+001 -3.0887e+001 -1.9918e-001 43457 90200,90330,90226
 2.0000e+000 90451 -2.1479e+001 -2.6644e+001  4.7001e+000 43457 90200,90356,90330
 2.0000e+000 90428 -1.5939e+001 -2.4278e+001  3.6404e+000 43457 90252,90304,90278
 2.0000e+000 90405 -2.1287e+001 -2.6511e+001  4.8378e+000 43457 90174,90356,90200
 2.0000e+000 90382 -2.2113e+001 -2.1842e+001  6.2169e+000 43457 90148,90356,90174
 2.0000e+000 90569 -1.8288e+001 -2.7868e+001  2.3239e+000 43457 90304,90252,90543
 2.0000e+000 90592 -1.8847e+001 -2.9059e+001  1.7834e+000 43457 90304,90543,90330
 2.0000e+000 91098 -3.4323e+000 -7.5400e+000 -4.9487e-001 42789 90801,90905,90853
 2.0000e+000 91075 -4.9370e+000 -3.2550e+000  1.5937e-001 42789 90775,90905,90801
 2.0000e+000 91052 -4.4036e+000 -1.4754e+000 -1.1953e-001 42789 90775,90931,90905
 2.0000e+000 91029 -4.8126e+000 -6.6859e+000 -2.8650e+000 42789 90801,90853,90827
 2.0000e+000 91006 -9.3606e+000 -1.1081e+001  4.2928e+000 42789 90853,90905,90879
 2.0000e+000 90983 -2.2566e+000 -2.2702e+000 -1.2188e+000 42789 90775,90957,90931
 2.0000e+000 91427 -1.6191e+001 -1.9440e+001  1.0516e+000 42227 91228,91280,91254
 2.0000e+000 91404 -1.1440e+001 -1.8251e+001  5.7254e-001 42227 91228,91306,91280
 2.0000e+000 91381 -1.2459e+001 -1.8829e+001  3.1847e-002 42227 91202,91306,91228
 2.0000e+000 91358 -9.8600e+000 -1.5127e+001 -1.2438e+000 42227 91202,91332,91306
 2.0000e+000 91675  7.4175e+000  8.0794e-002  1.6756e+000 41773 91698,91476,91450
 2.0000e+000 91652  8.3483e+000  2.8568e+000  9.4646e-001 41773 91698,91450,91554
 2.0000e+000 91629  7.2404e+000  2.1627e+000  1.3206e+000 41773 91450,91580,91554
 2.0000e+000 91606  6.7753e+000  8.8366e-001 -2.5234e+000 41773 91502,91554,91528
 2.0000e+000 91724  7.4471e+000  9.9013e-001 -4.2385e-001 41773 91502,91476,91698
 2.0000e+000 91747  8.5670e+000  3.9167e+000 -1.2017e+000 41773 91502,91698,91554
 2.0000e+000 92127 -2.6413e+001 -2.9302e+001  9.1334e-001 41255 92150,91905,91879
 2.0000e+000 92104 -2.2740e+001 -3.1203e+001 -5.3248e-001 41255 92150,91879,91957
 2.0000e+000 92081 -2.0054e+001 -3.6693e+001  4.0140e+000 41255 91853,91957,91879
 2.0000e+000 92058 -2.1740e+001 -3.9873e+001  6.6039e-001 41255 91853,91983,91957
 2.0000e+000 92035 -1.7961e+001 -4.5336e+001  2.1587e+000 41255 91853,92009,91983
 2.0000e+000 92176 -2.3630e+001 -2.8187e+001  1.1762e+000 41255 91931,91905,92150
 2.0000e+000 92199 -1.9057e+001 -2.9638e+001 -4.0568e-001 41255 91931,92150,91957
 2.0000e+000 92518 -2.6749e+001 -4.3936e+001 -2.2154e+000 41007 92244,92374,92270
 2.0000e+000 92495 -3.4902e+001 -4.5993e+001 -1.5469e+000 41007 92244,92400,92374
 2.0000e+000 92472 -2.5303e+001 -4.2856e+001 -1.7318e+000 41007 92270,92374,92348
 2.0000e+000 92449 -2.8272e+001 -5.7018e+001 -7.7057e+000 41007 92296,92348,92322
 2.0000e+000 92426 -2.9413e+001 -4.3576e+001 -3.5486e-001 41007 92270,92348,92296
 2.0000e+000 92668 -1.1321e+001 -1.8689e+001  1.0751e+000 40717 92823,92691,92567
 2.0000e+000 92645 -1.2183e+001 -1.7995e+001  9.2486e-001 40717 92895,92823,92567
 2.0000e+000 92717 -1.0460e+001 -1.7996e+001  3.9313e+000 40717 92593,92567,92691
 2.0000e+000 92849 -1.2192e+001 -1.6847e+001  1.2784e+000 40717 92619,92691,92823
 2.0000e+000 92872 -1.0262e+001 -1.6192e+001  1.2413e+000 40717 92619,92823,92541
 2.0000e+000 92921 -8.3916e+000 -1.5453e+001 -4.4978e-001 40717 92541,92823,92895
 2.0000e+000 93634 -7.8768e+000 -1.3229e+001  4.3459e+000 40206 93366,93444,93418
 2.0000e+000 93611 -9.7826e+000 -1.1794e+001  2.7517e+000 40206 93288,93444,93366
 2.0000e+000 93588 -1.5764e+001 -1.9996e+001  5.4085e+000 40206 93288,93366,93314
 2.0000e+000 93565 -1.2606e+000 -1.0796e+001 -9.7359e-001 40206 93262,93444,93288
 2.0000e+000 93542 -8.0429e+000 -1.6873e+001  2.2558e+000 40206 93366,93418,93392
 2.0000e+000 93519 -9.9334e+000 -1.6824e+001  2.0554e+000 40206 93262,93470,93444
 2.0000e+000 93496 -1.8101e+001 -2.0965e+001  3.8927e+000 40206 93314,93366,93340
 2.0000e+000 94189  1.2198e+001  7.8803e+000  4.9766e+000 39802 93843,93999,93973
 2.0000e+000 94166  1.7611e+001  9.8028e+000  5.5874e+000 39802 93817,93999,93843
 2.0000e+000 94143  1.0868e+001  7.5152e+000  1.2509e+000 39802 93869,93973,93947
 2.0000e+000 94120  1.3359e+001  6.4539e+000  4.7228e+000 39802 93843,93973,93869
 2.0000e+000 94097  9.0372e+000  7.0271e-002  2.2116e-001 39802 93869,93921,93895
 2.0000e+000 94074  1.0084e+001  2.3377e+000  2.0584e+000 39802 93869,93947,93921
 2.0000e+000 94051  1.0709e+001  6.0345e+000  8.2960e+000 39802 93817,94025,93999
 2.0000e+000 94290  3.9269e+000  5.5700e+000 -3.9818e+000 39398 94212,94264,94238
 2.0000e+000 94798 -1.8299e+001 -1.1182e+001  5.4558e+000 38701 94501,94657,94631
 2.0000e+000 94775 -8.3865e+000 -1.0827e+001  4.4233e+000 38701 94475,94657,94501
 2.0000e+000 94752 -1.5186e+001 -1.4285e+001  1.0817e-001 38701 94579,94631,94605
 2.0000e+000 94729 -1.1506e+001 -1.0563e+001  2.6623e+000 38701 94553,94631,94579
 2.0000e+000 94706 -8.2438e+000 -9.2602e+000  2.4429e+000 38701 94501,94631,94553
 2.0000e+000 94683 -1.1271e+001 -6.8371e+000  1.8306e+000 38701 94501,94553,94527
 2.0000e+000 95255  1.9616e-001 -5.6568e+000  5.3916e-001 38247 95278,95085,95007
 2.0000e+000 95232  6.3803e+000 -4.1522e+000 -6.6162e-001 38247 95278,95007,95137
 2.0000e+000 95209  1.1673e+001 -1.7582e+000  2.6668e+000 38247 94981,95137,95007
 2.0000e+000 95186 -1.0271e+000 -7.5232e+000 -2.5942e+000 38247 95007,95059,95033
 2.0000e+000 95163 -1.9628e+000 -7.7852e+000  1.4581e+000 38247 95007,95085,95059
 2.0000e+000 95304 -2.3583e+000 -6.8459e+000  5.8935e+000 38247 95111,95085,95278
 2.0000e+000 95327  3.5842e+000 -3.9095e+000  3.9885e+000 38247 95111,95278,95137
 2.0000e+000 95575 -3.6637e+000  2.0686e+001 -3.1615e+000 37564 95376,95428,95402
 2.0000e+000 95552 -3.0278e+000  7.6926e+000 -2.7574e+000 37564 95376,95454,95428
 2.0000e+000 95529  5.0549e+000  1.1180e+001 -2.2125e+000 37564 95376,95480,95454
 2.0000e+000 95506  6.0716e+000  5.1325e+000 -3.7109e+000 37564 95350,95480,95376
 2.0000e+000 96034 -2.3815e+001 -3.5081e+001  4.9359e+000 37224 95786,95838,95812
 2.0000e+000 96011 -2.3955e+001 -2.9535e+001  6.7954e-001 37224 95786,95890,95838
 2.0000e+000 95988 -1.8180e+001 -2.6989e+001 -1.3698e+000 37224 95786,95916,95890
 2.0000e+000 95965 -1.5953e+001 -2.9537e+001  3.8148e+000 37224 95760,95916,95786
 2.0000e+000 95942 -1.6870e+001 -3.1634e+001 -4.5204e+000 37224 95838,95890,95864
 2.0000e+000 96363  2.7671e+001  6.9206e+000  1.9170e+000 36884 96216,96268,96242
 2.0000e+000 96340  1.5055e+001  1.0410e+001  3.0533e+000 36884 96164,96268,96216
 2.0000e+000 96317  1.8323e+001  9.6653e+000  4.8779e+000 36884 96138,96268,96164
 2.0000e+000 96294  1.2079e+001  4.0998e+000  4.1502e+000 36884 96164,96216,96190
 2.0000e+000 96839 -1.5234e+001 -1.9795e+001  3.6477e+000 36572 96862,96649,96597
 2.0000e+000 96816 -1.6354e+001 -1.7090e+001  4.0469e+000 36572 97006,96862,96597
 2.0000e+000 96793 -1.9586e+001 -2.4052e+001  3.5191e+000 36572 96934,96467,96675
 2.0000e+000 96770 -1.9966e+001 -1.4053e+001 -2.9253e-001 36572 97006,96597,96571
 2.0000e+000 96747 -2.4231e+001 -2.7045e+001  3.5861e+000 36572 96467,96519,96493
 2.0000e+000 96724 -3.5914e+001 -1.2604e+001  4.3061e+000 36572 96519,96571,96545
 2.0000e+000 96701 -1.0667e+001 -1.0074e+001  5.0394e+000 36572 96597,96649,96623
 2.0000e+000 96888 -1.5076e+001 -1.9116e+001  5.2481e+000 36572 96675,96649,96862
 2.0000e+000 96911 -1.6330e+001 -2.1804e+001  4.6850e+000 36572 96934,96675,96862
 2.0000e+000 96960 -2.1838e+001 -2.1616e+001  3.9133e+000 36572 96519,96467,96934
 2.0000e+000 96983 -2.0124e+001 -2.0541e+001  3.7296e+000 36572 97078,96934,96862
 2.0000e+000 97032 -1.9685e+001 -2.1146e+001  2.6118e+000 36572 97078,96862,97006
 2.0000e+000 97055 -2.4021e+001 -2.1310e+001 -1.9183e+000 36572 96519,97006,96571
 2.0000e+000 97104 -2.1030e+001 -2.2642e+001  3.8016e+000 36572 96519,96934,97078
 2.0000e+000 97127 -2.0618e+001 -2.3197e+001  2.9079e+000 36572 96519,97078,97006
 2.0000e+000 97761 -2.5394e+001 -2.7720e+001  3.3425e+000 36118 97784,97493,97415
 2.0000e+000 97738 -2.4111e+001 -2.9304e+001  4.8984e+000 36118 97784,97415,97597
 2.0000e+000 97715 -2.8432e+001 -3.3202e+001  1.5356e+000 36118 97389,97597,97415
 2.0000e+000 97692 -3.9197e+001 -2.0441e+001  4.6551e+000 36118 97415,97467,97441
 2.0000e+000 97669 -3.3897e+001 -2.3021e+001  1.0447e+001 36118 97415,97493,97467
 2.0000e+000 97646 -2.0450e+001 -3.2835e+001 -2.7698e-001 36118 97493,97571,97519
 2.0000e+000 97623 -1.0541e+001 -1.7028e+001  5.0145e+000 36118 97519,97571,97545
 2.0000e+000 97810 -2.4641e+001 -2.5622e+001  3.4812e+000 36118 97571,97493,97784
 2.0000e+000 97833 -2.3072e+001 -2.6678e+001  5.4481e+000 36118 97571,97784,97597
 2.0000e+000 98081 -3.2377e+001 -3.8096e+001 -4.3925e-001 35564 98104,97908,97856
 2.0000e+000 98058 -3.1722e+001 -3.8198e+001 -8.8834e-001 35564 98104,97856,97986
 2.0000e+000 98035 -2.6936e+001 -2.6340e+001  5.4222e-001 35564 97934,97986,97960
 2.0000e+000 98012 -3.1373e+001 -3.4497e+001 -3.2805e+000 35564 97856,97908,97882
 2.0000e+000 98130 -3.1094e+001 -3.8078e+001 -7.1575e-003 35564 97934,97908,98104
 2.0000e+000 98153 -3.1050e+001 -3.8308e+001 -9.0901e-001 35564 97934,98104,97986
 2.0000e+000 98374 -3.6891e+001 -3.7323e+001  6.0770e-001 35152 98224,98302,98276
 2.0000e+000 98351 -4.1013e+001 -4.8186e+001  2.6314e+000 35152 98198,98302,98224
 2.0000e+000 98328 -3.7045e+001 -3.6700e+001  4.2127e-001 35152 98224,98276,98250
 2.0000e+000 98884  4.0740e+000 -3.2251e-001 -1.2239e+000 34698 98691,98743,98717
 2.0000e+000 98861  5.4155e+000  2.8401e-001  1.4847e+000 34698 98561,98743,98691
 2.0000e+000 98838  2.2580e+000 -3.6218e-001  1.4769e+000 34698 98907,98587,98561
 2.0000e+000 98815  2.4734e+000  8.0261e-001  2.1922e+000 34698 98907,98561,98691
 2.0000e+000 98792 -4.1834e+000 -6.6137e+000 -1.6879e+000 34698 98587,98639,98613
 2.0000e+000 98769 -1.1343e+001 -1.2960e+001  5.6466e+000 34698 98587,98665,98639
 2.0000e+000 98933  1.3222e+000 -3.0327e-001  5.2259e-001 34698 98665,98587,98907
 2.0000e+000 98956  1.5806e+000  1.3176e+000  1.2533e+000 34698 98665,98907,98691
 2.0000e+000 99204  7.3626e+000 -2.9146e-001 -2.2801e-001 34144 99227,99031,99005
 2.0000e+000 99181  6.9962e+000  6.2145e-001 -1.2505e+000 34144 99299,99227,99005
 2.0000e+000 99158  7.3017e+000  8.4198e-001 -1.0814e+000 34144 99299,99005,99109
 2.0000e+000 99135  3.4398e+000  1.6924e+000 -1.1461e+000 34144 98979,99109,99005
 2.0000e+000 99253  6.9171e+000 -8.2205e-001 -4.6489e-001 34144 99057,99031,99227
 2.0000e+000 99276  4.0232e+000 -2.1496e-001 -8.3952e-001 34144 99057,99227,99083
 2.0000e+000 99325  6.6560e+000  8.3366e-001 -1.3460e-001 34144 99083,99227,99299
 2.0000e+000 99348  8.0268e+000  1.5114e+000  1.2382e-001 34144 99083,99299,99109
 2.0000e+000 99498 -3.1372e+001 -1.1475e+001  6.7551e+000 33433 99397,99449,99423
 2.0000e+000 99475 -3.9129e+001 -9.5646e+000  1.2545e+000 33433 99371,99449,99397
 2.0000e+000 100008 -1.0359e+001 -1.2414e+001  4.1995e+000 32979 100103,100031,99815
 2.0000e+000 99985 -1.1672e+001 -9.5073e+000  3.6929e+000 32979 100175,100031,99763
 2.0000e+000 99962 -1.2422e+001 -9.9161e+000  6.5184e+000 32979 100103,99815,99789
 2.0000e+000 99939 -1.1011e+001 -7.5416e+000  3.6144e+000 32979 100175,99763,99737
 2.0000e+000 99916 -1.2767e+001 -9.1049e+000  9.3821e-001 32979 99685,99867,99737
 2.0000e+000 99893 -1.6803e+001 -1.0375e+001  4.6865e+000 32979 99685,99737,99711
 2.0000e+000 100057 -9.6955e+000 -1.1801e+001  3.2924e+000 32979 99841,99815,100031
 2.0000e+000 100080 -1.0862e+001 -1.5001e+001  3.6413e+000 32979 99841,100031,99867
 2.0000e+000 100129 -1.0614e+001 -7.3485e+000  4.0448e+000 32979 99763,100031,100103
 2.0000e+000 100152 -1.1259e+001 -3.2567e+000  6.6732e+000 32979 99763,100103,99789
 2.0000e+000 100201 -1.0954e+001 -1.0343e+001  2.6435e+000 32979 99867,100031,100175
 2.0000e+000 100224 -1.0740e+001 -9.4768e+000  2.9035e+000 32979 99867,100175,99737
 2.0000e+000 100553 -3.6796e+001 -3.7100e+001  9.4499e-001 32503 100354,100406,100380
 2.0000e+000 100530 -2.8091e+001 -3.6400e+001  2.5652e+000 32503 100328,100406,100354
 2.0000e+000 100507 -2.3175e+001 -2.5682e+001  1.3966e+000 32503 100328,100458,100406
 2.0000e+000 100484 -1.8616e+001 -2.9834e+001  3.7898e+000 32503 100406,100458,100432
 2.0000e+000 100850 -3.8518e+001 -4.1858e+001 -4.8218e-002 31899 100873,100654,100628
 2.0000e+000 100827 -3.8223e+001 -4.0912e+001  6.5273e-001 31899 100945,100873,100628
 2.0000e+000 100804 -3.8508e+001 -3.9666e+001  5.5891e-001 31899 100945,100628,100602
 2.0000e+000 100781 -3.6099e+001 -3.5672e+001  1.4537e+000 31899 100576,100732,100602
 2.0000e+000 100758 -2.6882e+001 -1.1682e+001  4.0588e+000 31899 100654,100706,100680
 2.0000e+000 100899 -4.0269e+001 -4.0158e+001  2.3633e-001 31899 100706,100654,100873
 2.0000e+000 100922 -3.8617e+001 -3.9885e+001  6.6408e-001 31899 100706,100873,100732
 2.0000e+000 100971 -3.8390e+001 -3.9260e+001 -7.2589e-003 31899 100732,100873,100945
 2.0000e+000 100994 -3.8660e+001 -3.7948e+001 -4.2984e-002 31899 100732,100945,100602
 2.0000e+000 101551 -7.4823e+000 -2.3548e+000  3.0344e+000 31338 101205,101387,101231
 2.0000e+000 101528 -1.0585e+001 -5.1424e+000  1.0967e+000 31338 101179,101387,101205
 2.0000e+000 101505 -8.4141e+000 -1.0185e+001  2.1131e+000 31338 101574,101309,101257
 2.0000e+000 101482 -8.2553e+000 -9.9986e+000  2.1877e+000 31338 101646,101574,101257
 2.0000e+000 101459 -8.6183e+000 -9.1850e+000  1.4930e+000 31338 101646,101257,101231
 2.0000e+000 101436 -7.6755e+000 -1.6083e+000  3.3719e+000 31338 101309,101361,101335
 2.0000e+000 101413 -1.1140e+001 -9.6744e+000 -2.8611e-001 31338 101257,101309,101283
 2.0000e+000 101600 -1.0270e+001 -9.5481e+000  3.1890e+000 31338 101361,101309,101574
 2.0000e+000 101623 -7.2396e+000 -8.3632e+000  3.3980e+000 31338 101361,101574,101387
 2.0000e+000 101672 -6.8455e+000 -9.1321e+000  1.7109e+000 31338 101387,101574,101646
 2.0000e+000 101695 -7.5825e+000 -8.7905e+000  1.1106e+000 31338 101387,101646,101231
 2.0000e+000 101943  1.0673e+001  2.3717e+000  5.0876e-001 30748 101966,101796,101744
 2.0000e+000 101920  1.4545e+001  3.3446e+000  1.3133e+000 30748 101966,101744,101718
 2.0000e+000 101897  1.2908e+001  4.8520e+000  1.2764e+001 30748 101718,101848,101822
 2.0000e+000 101874  1.1111e+001  1.4500e+000  1.6462e+000 30748 101744,101796,101770
 2.0000e+000 101992  8.6342e+000  4.2263e+000  1.2798e+000 30748 101822,101796,101966
 2.0000e+000 102015  1.1192e+001  4.1705e+000  1.9444e+000 30748 101822,101966,101718
 2.0000e+000 102493 -3.5396e+001 -2.6440e+001  1.1894e+001 30344 102516,102173,102147
 2.0000e+000 102470 -2.8168e+001 -2.3456e+001  4.7437e+000 30344 102660,102516,102147
 2.0000e+000 102447 -3.3267e+001 -1.7119e+001  3.0079e+000 30344 102588,102199,102173
 2.0000e+000 102424 -2.9913e+001 -2.2636e+001  4.7377e+000 30344 102660,102147,102329
 2.0000e+000 102401 -3.5081e+001 -1.5718e+001 -2.1664e+000 30344 102199,102277,102251
 2.0000e+000 102378 -1.7740e+001 -1.2506e+001 -1.4621e+000 30344 102199,102251,102225
 2.0000e+000 102355 -2.7093e+001 -2.0726e+001  8.9876e+000 30344 102121,102329,102147
 2.0000e+000 102542 -3.1322e+001 -2.4303e+001  5.2456e+000 30344 102588,102173,102516
 2.0000e+000 102565 -1.5068e+001 -1.6260e+001  1.3315e-001 30344 102277,102516,102303
 2.0000e+000 102614 -3.3045e+001 -1.2374e+001  4.3013e+000 30344 102277,102199,102588
 2.0000e+000 102637 -2.7846e+001 -1.5224e+001  7.4307e+000 30344 102277,102588,102516
 2.0000e+000 102686 -3.0141e+001 -2.4274e+001  3.9199e+000 30344 102303,102516,102660
 2.0000e+000 102709 -3.1293e+001 -2.3024e+001  3.8995e+000 30344 102303,102660,102329
 2.0000e+000 103294 -2.7852e+001 -3.1207e+001  2.8596e+000 29726 103317,103101,103075
 2.0000e+000 103271 -3.1023e+001 -3.0953e+001  1.3920e+000 29726 103317,103075,102997
 2.0000e+000 103248 -3.7693e+001 -3.0957e+001  8.2075e+000 29726 102971,103153,102997
 2.0000e+000 103225 -1.4674e+001 -8.6492e+000 -2.5418e+000 29726 103101,103153,103127
 2.0000e+000 103202 -3.1956e+001 -3.5168e+001  1.2546e+000 29726 102997,103075,103023
 2.0000e+000 103179 -3.3919e+001 -2.2096e+001 -1.0673e+001 29726 103023,103075,103049
 2.0000e+000 103343 -2.5384e+001 -3.1860e+001  2.4743e+000 29726 103153,103101,103317
 2.0000e+000 103366 -2.8054e+001 -3.0949e+001  1.5622e+000 29726 103153,103317,102997
 2.0000e+000 103614 -1.5226e+001 -1.8524e+001  4.0840e+000 29200 103781,103637,103467
 2.0000e+000 103591 -1.6372e+001 -1.6526e+001  3.3989e+000 29200 103709,103637,103415
 2.0000e+000 103568 -1.5091e+001 -1.8283e+001  4.6383e+000 29200 103709,103415,103389
 2.0000e+000 103545 -1.3552e+001 -2.1763e+001  6.9317e+000 29200 103781,103467,103441
 2.0000e+000 103663 -1.3733e+001 -1.8924e+001  1.4819e+000 29200 103853,103637,103493
 2.0000e+000 103686 -1.9131e+001 -2.2053e+001 -5.3232e-001 29200 103493,103637,103519
 2.0000e+000 103735 -1.8718e+001 -1.7813e+001  3.9389e+000 29200 103519,103637,103709
 2.0000e+000 103758 -1.6906e+001 -1.9192e+001  4.9752e+000 29200 103519,103709,103389
 2.0000e+000 103807 -1.2760e+001 -1.3506e+001  4.8674e+000 29200 103415,103637,103781
 2.0000e+000 103830 -9.5467e+000 -1.4545e+001  8.5622e+000 29200 103415,103781,103441
 2.0000e+000 103879 -9.1225e+000 -1.7311e+001  1.6570e+000 29200 103467,103637,103853
 2.0000e+000 104545 -1.5989e+001 -1.4397e+001  3.2267e+000 28860 104274,104352,104326
 2.0000e+000 104522 -2.1841e+001 -1.7883e+001  1.7824e+000 28860 104248,104352,104274
 2.0000e+000 104499 -1.4974e+001 -1.6220e+001  3.3991e+000 28860 104248,104404,104352
 2.0000e+000 104476 -1.8371e+001 -2.2520e+001  1.1470e+000 28860 104222,104404,104248
 2.0000e+000 104453 -1.6260e+001 -2.2658e+001  3.0453e+000 28860 104352,104404,104378
 2.0000e+000 104430 -2.7671e+001 -1.2814e+001 -1.5229e+000 28860 104274,104326,104300
 2.0000e+000 104744  1.1704e+000 -3.6105e+000 -2.2617e+000 28456 104839,104767,104646
 2.0000e+000 104721  5.5997e+000 -2.1387e+000 -5.5310e+000 28456 104767,104594,104568
 2.0000e+000 104698  4.7194e+000 -9.9511e-001 -1.0422e+000 28456 104839,104646,104620
 2.0000e+000 104793  4.6209e+000 -2.8300e+000 -1.9021e+000 28456 104672,104646,104767
 2.0000e+000 104816  9.7375e+000 -6.8207e-001 -4.8407e+000 28456 104911,104767,104568
 2.0000e+000 104865  5.5624e+000  3.4821e+000 -4.4376e+000 28456 104594,104767,104839
 2.0000e+000 104888  2.6025e+000 -2.5164e+000  9.6372e-002 28456 105041,104839,104620
 2.0000e+000 104937  2.8643e+000 -1.1659e+001 -1.7309e+000 28456 104672,104767,104911
 2.0000e+000 105067 -8.2517e-001 -3.4562e-002 -2.0181e+000 28456 104594,104839,105041
 2.0000e+000 105573  6.6601e+000 -4.9565e+000 -1.7126e+000 28094 105812,105596,105328
 2.0000e+000 105550  5.0478e+000 -2.9089e+000 -1.9209e-001 28094 105596,105276,105250
 2.0000e+000 105527  6.4534e+000 -2.9377e+000 -1.7480e+000 28094 105740,105668,105432
 2.0000e+000 105504  6.0426e+000 -3.2775e+000 -1.4291e+000 28094 105740,105432,105380
 2.0000e+000 105481  7.4800e+000 -5.5522e+000 -1.2494e+000 28094 105812,105328,105302
 2.0000e+000 105458  6.0408e+000 -6.0376e+000 -7.2938e-001 28094 105380,105432,105406
 2.0000e+000 105622  1.0478e+001 -1.2244e+000 -3.4378e+000 28094 105354,105328,105596
 2.0000e+000 105645  6.5129e+000 -3.2307e+000 -1.1294e+000 28094 105668,105354,105596
 2.0000e+000 105694  6.8048e+000 -1.3955e+000 -2.0375e+000 28094 105250,105432,105668
 2.0000e+000 105717  6.7694e+000 -2.4737e+000 -1.0340e+000 28094 105250,105668,105596
 2.0000e+000 105766  5.6936e+000 -2.8486e+000 -9.8168e-001 28094 105354,105668,105740
 2.0000e+000 105789  5.2764e+000 -3.4377e+000 -6.2356e-001 28094 105354,105740,105380
 2.0000e+000 105838  7.0643e+000 -3.1529e+000 -1.4201e+000 28094 105276,105596,105812
 2.0000e+000 105861  7.4613e+000 -4.3188e+000  3.9539e-001 28094 105276,105812,105302
 2.0000e+000 106367 -3.6170e+001 -2.7136e+001 -1.3964e-001 27390 106070,106122,106096
 2.0000e+000 106344 -3.4191e+001 -2.4973e+001 -9.6767e-001 27390 106070,106226,106122
 2.0000e+000 106321 -3.1552e+001 -1.8233e+001 -6.5305e-001 27390 106174,106226,106200
 2.0000e+000 106298 -3.2985e+001 -2.4947e+001  5.6932e-001 27390 106122,106226,106174
 2.0000e+000 106275 -3.4948e+001 -2.6716e+001 -6.5414e+000 27390 106122,106174,106148
 2.0000e+000 106252 -2.8281e+001 -2.1883e+001  1.1962e+000 27390 106044,106226,106070
 2.0000e+000 106615 -4.0009e+001 -3.7695e+001  1.4439e+000 26978 106638,106494,106416
 2.0000e+000 106592 -4.2153e+001 -3.2524e+001  2.3427e+000 26978 106638,106416,106390
 2.0000e+000 106569 -4.5919e+001 -4.1398e+001 -1.7977e+000 26978 106416,106494,106442
 2.0000e+000 106546 -4.3549e+001 -4.1864e+001 -2.5211e+000 26978 106442,106494,106468
 2.0000e+000 106664 -3.8450e+001 -3.2508e+001 -7.1889e-001 26978 106520,106494,106638
 2.0000e+000 106687 -4.2125e+001 -2.8817e+001  1.6320e+000 26978 106520,106638,106390
 2.0000e+000 106837  1.9783e+001 -3.3064e+000 -2.6855e+000 26524 106710,106762,106736
 2.0000e+000 106814  1.1927e+001 -3.5048e+000  8.0271e-001 26524 106710,106788,106762
 2.0000e+000 107426 -1.5075e+001 -1.2656e+001  2.5574e+000 26120 107129,107207,107155
 2.0000e+000 107403 -1.1199e+001 -1.3906e+001  8.9555e-001 26120 107129,107285,107207
 2.0000e+000 107380 -8.0279e+000 -7.4831e+000  1.9514e+000 26120 107207,107285,107259
 2.0000e+000 107357 -1.5780e+001 -1.3853e+001  4.2150e+000 26120 107155,107207,107181
 2.0000e+000 107334 -1.1712e+001 -1.2502e+001  3.9154e+000 26120 107103,107285,107129
 2.0000e+000 107311 -5.4212e+000 -6.5330e+000  2.5168e+000 26120 107207,107259,107233
 2.0000e+000 107755  2.3004e+000 -5.3780e+000  3.7240e-001 25758 107556,107634,107608
 2.0000e+000 107732  7.3657e+000 -2.4172e+000 -1.2014e+000 25758 107556,107660,107634
 2.0000e+000 107709  2.9448e+000 -1.0351e+001  2.2394e+000 25758 107556,107608,107582
 2.0000e+000 107686  1.1254e+001 -1.4868e+000 -4.9246e-001 25758 107530,107660,107556
 2.0000e+000 108438 -3.1756e-001 -8.5922e+000 -9.5572e-001 25468 108121,108199,108173
 2.0000e+000 108415 -1.7310e+000 -1.4622e+001 -4.2918e+000 25468 108095,108199,108121
 2.0000e+000 108392 -2.0669e+000 -5.9317e+000 -4.0589e+000 25468 108095,108251,108199
 2.0000e+000 108369 -4.8941e+000 -1.0012e+001 -2.7256e+000 25468 108069,108251,108095
 2.0000e+000 108346  7.9359e+000 -1.2353e+000 -6.3058e+000 25468 108199,108251,108225
 2.0000e+000 108323 -8.0802e+000 -3.5392e+000 -5.5658e+000 25468 108017,108251,108069
 2.0000e+000 108300 -3.8473e-001 -1.0453e+001 -7.4054e-001 25468 108121,108173,108147
 2.0000e+000 108277 -1.2493e+001 -8.4696e+000 -3.0908e+000 25468 108017,108069,108043
 2.0000e+000 108588 -2.1547e+001 -1.5594e+001  8.7465e+000 25064 108611,108513,108487
 2.0000e+000 108565 -1.6894e+001 -1.5357e+001  8.1871e+000 25064 108683,108611,108487
 2.0000e+000 108637 -1.7245e+001 -1.3819e+001  6.2620e+000 25064 108539,108513,108611
 2.0000e+000 108660 -3.3335e+001 -2.6287e+001  1.1063e-001 25064 108539,108611,108461
 2.0000e+000 108709 -2.5977e+001 -1.4060e+001  7.4428e+000 25064 108461,108611,108683
 2.0000e+000 109345 -1.6945e+001 -1.2072e+001  6.4348e+000 24410 108999,109155,109103
 2.0000e+000 109322 -2.3206e+001 -1.3369e+001  8.4286e+000 24410 108973,109155,108999
 2.0000e+000 109299 -1.3103e+001 -1.0604e+001  7.9347e+000 24410 109103,109155,109129
 2.0000e+000 109276 -1.3546e+001 -9.2404e+000  6.4911e+000 24410 108973,109181,109155
 2.0000e+000 109253 -4.2298e+001 -2.1262e+001  7.6068e+000 24410 109025,109103,109077
 2.0000e+000 109230 -2.5022e+001 -1.4289e+001  7.9993e+000 24410 108999,109103,109025
 2.0000e+000 109207 -3.5556e+001 -2.4760e+000  1.0657e+000 24410 109025,109077,109051
 2.0000e+000 109723 -8.7047e+000 -4.2327e+000 -8.1088e-001 23856 109475,109579,109553
 2.0000e+000 109700 -6.1633e+000 -9.8757e+000 -2.8059e+000 23856 109475,109605,109579
 2.0000e+000 109677 -1.2020e+001 -1.0078e+001 -5.1383e+000 23856 109475,109553,109527
 2.0000e+000 109654 -3.8846e+000 -8.9623e+000  3.5513e+000 23856 109449,109605,109475
 2.0000e+000 109631 -1.6058e+001 -4.8294e+000 -2.7025e+000 23856 109475,109527,109501
 2.0000e+000 110101 -2.5530e+001 -1.4890e+001  6.7207e+000 23566 109853,109931,109879
 2.0000e+000 110078 -1.7889e+001 -1.3560e+001  5.0354e+000 23566 109827,109931,109853
 2.0000e+000 110055 -1.6700e+001 -1.0208e+001  4.1472e+000 23566 109827,109983,109931
 2.0000e+000 110032 -2.3181e+001 -2.5405e+001 -2.6652e+000 23566 109879,109931,109905
 2.0000e+000 110009 -1.5905e+001 -9.6631e+000  5.4372e+000 23566 109931,109983,109957
 2.0000e+000 110735 -3.4101e+001 -3.0052e+001 -3.9228e-002 23162 110415,110571,110519
 2.0000e+000 110712 -3.4297e+001 -2.4972e+001  2.0109e-001 23162 110389,110571,110415
 2.0000e+000 110689 -4.0589e+001 -3.2160e+001  2.4202e+000 23162 110415,110519,110493
 2.0000e+000 110666 -3.2118e+001 -2.4529e+001 -4.3036e-001 23162 110363,110571,110389
 2.0000e+000 110643 -3.6737e+001 -2.6761e+001  1.8738e+000 23162 110441,110493,110467
 2.0000e+000 110620 -3.4436e+001 -2.6672e+001  7.0867e-002 23162 110415,110493,110441
 2.0000e+000 110597 -3.1673e+001 -2.2842e+001 -8.1761e-001 23162 110519,110571,110545
 2.0000e+000 111211  3.8093e+000 -7.0860e+000 -4.6949e-001 22708 111378,111306,111021
 2.0000e+000 111188  3.4557e+000 -4.9381e+000 -4.5262e-001 22708 111234,110969,110917
 2.0000e+000 111165 -1.4731e-001 -7.9100e+000 -1.7507e+000 22708 111450,111234,110917
 2.0000e+000 111142  3.6418e+000 -7.5809e+000 -3.3230e-001 22708 111378,111021,110995
 2.0000e+000 111119 -1.1766e+000 -7.4846e+000 -4.6622e+000 22708 111450,110917,110865
 2.0000e+000 111096  4.7768e+000 -7.6982e+000  1.1945e+000 22708 110917,110969,110943
 2.0000e+000 111073 -1.7121e+000 -1.2523e+000 -2.2496e+000 22708 110865,110917,110891
 2.0000e+000 111260  3.1034e+000 -7.5542e+000 -1.0238e+000 22708 111306,110969,111234
 2.0000e+000 111283  4.1933e+000 -6.6628e+000 -1.3871e+000 22708 111047,111234,110839
 2.0000e+000 111332  7.8901e+000 -5.7853e+000  1.8891e+000 22708 111047,111021,111306
 2.0000e+000 111355  4.8776e+000 -6.7506e+000 -1.3043e+000 22708 111047,111306,111234
 2.0000e+000 111404  3.3652e+000 -7.8160e+000 -2.3928e-001 22708 110969,111306,111378
 2.0000e+000 111427  3.5074e+000 -7.8136e+000 -1.4020e-001 22708 110969,111378,110995
 2.0000e+000 111476  4.3935e+000 -6.6372e+000 -1.5016e+000 22708 110839,111234,111450
 2.0000e+000 111499  4.2599e+000 -5.9825e+000 -4.6964e+000 22708 110839,111450,110865
 2.0000e+000 111600 -4.0251e+001 -3.7700e+001  7.6068e+000 22460 111522,111574,111548
 2.0000e+000 112059 -3.4690e+001 -2.4492e+001  9.8283e-001 22056 111811,111889,111863
 2.0000e+000 112036 -3.5706e+001 -2.7413e+001  2.0601e+000 22056 111811,111915,111889
 2.0000e+000 112013 -3.5108e+001 -3.1482e+001 -2.9550e+000 22056 111785,111915,111811
 2.0000e+000 111990 -3.7968e+001 -2.9051e+001 -6.2265e+000 22056 111785,111941,111915
 2.0000e+000 111967 -2.6660e+001 -1.9679e+001 -3.3768e+000 22056 111811,111863,111837
 2.0000e+000 112486 -4.2190e+001 -3.1841e+001 -1.9068e-001 21594 112509,112267,112215
 2.0000e+000 112463 -4.1569e+001 -3.1540e+001 -4.0239e-001 21594 112509,112215,112163
 2.0000e+000 112440 -4.1838e+001 -3.7443e+001  3.2579e+000 21594 112581,112293,112267
 2.0000e+000 112417 -3.8653e+001 -4.0638e+001 -3.2059e-001 21594 112215,112267,112241
 2.0000e+000 112394 -4.4365e+001 -2.2435e+001 -4.2613e+000 21594 112163,112345,112319
 2.0000e+000 112371 -4.0151e+001 -2.1633e+001 -2.2099e+000 21594 112163,112215,112189
 2.0000e+000 112535 -4.3957e+001 -3.4967e+001  1.2343e+000 21594 112581,112267,112509
 2.0000e+000 112558 -4.1721e+001 -2.9323e+001 -3.7079e-002 21594 112319,112509,112163
 2.0000e+000 112607 -3.9398e+001 -3.4959e+001  1.1378e+000 21594 112319,112293,112581
 2.0000e+000 112630 -4.0521e+001 -3.0275e+001 -8.7358e-001 21594 112319,112581,112509
 2.0000e+000 112900  5.3357e+000 -6.4255e+000  6.2010e-002 20974 112675,112779,112701
 2.0000e+000 112877  5.7219e+000 -7.3957e+000  6.1093e-001 20974 112675,112805,112779
 2.0000e+000 112854  6.9409e+000 -3.8297e+000  9.3193e-001 20974 112701,112779,112753
 2.0000e+000 112831  9.6494e+000  3.4049e+000 -3.2396e+000 20974 112701,112753,112727
 2.0000e+000 113359 -7.5136e+000 -7.2766e+000 -4.8040e-001 20520 113454,113137,113111
 2.0000e+000 113336 -9.5218e+000 -4.7557e+000  1.3419e+000 20520 113454,113111,113085
 2.0000e+000 113313 -4.4576e+000 -7.9475e+000 -2.9877e+000 20520 113382,113163,113137
 2.0000e+000 113290 -5.5101e+000 -3.2816e+000 -7.9136e-001 20520 113526,113382,113137
 2.0000e+000 113267  9.8391e-001  6.1908e-001  2.5162e-001 20520 113189,113241,113215
 2.0000e+000 113408 -2.4917e+000 -3.3722e+000 -2.8771e+000 20520 113189,113163,113382
 2.0000e+000 113431 -1.9785e+000 -1.0970e+000  1.1204e+000 20520 113189,113382,113241
 2.0000e+000 113480 -6.3927e+000 -4.3664e+000 -1.1901e+000 20520 113526,113137,113454
 2.0000e+000 113503 -7.5333e+000 -4.4481e+000 -2.6338e-001 20520 113241,113454,113085
 2.0000e+000 113552 -4.0327e+000 -5.2121e+000 -2.5941e-001 20520 113241,113382,113526
 2.0000e+000 113575 -4.3644e+000 -5.5252e+000 -4.2106e-001 20520 113241,113526,113454
 2.0000e+000 113904 -5.1899e+000 -4.3179e+000 -1.1712e+000 19858 113705,113783,113757
 2.0000e+000 113881 -1.7001e+000 -3.7594e+000 -2.4427e+000 19858 113705,113809,113783
 2.0000e+000 113858 -5.1371e+000 -7.0620e+000  4.2789e+000 19858 113679,113809,113705
 2.0000e+000 113835 -4.2581e+000 -3.2922e+000 -2.9278e+000 19858 113705,113757,113731
 2.0000e+000 114152 -3.2368e+001 -2.6545e+001 -4.6032e+000 19454 114175,114005,113979
 2.0000e+000 114129 -3.3516e+001 -2.8963e+001 -5.1623e+000 19454 114175,113979,114057
 2.0000e+000 114106 -3.9030e+001 -3.5137e+001  5.8886e+000 19454 113927,114057,113979
 2.0000e+000 114083 -2.9827e+001 -1.9753e+001  1.9443e+000 19454 113927,113979,113953
 2.0000e+000 114201 -3.9375e+000 -1.4368e+001  1.0207e+001 19454 114031,114005,114175
 2.0000e+000 114224 -3.1946e+001 -3.2102e+001 -4.7482e+000 19454 114031,114175,114057
 2.0000e+000 114472 -2.2218e+001 -1.7641e+001  3.1640e+000 19000 114495,114273,114247
 2.0000e+000 114449 -2.0114e+001 -1.5703e+001  4.2439e+000 19000 114495,114247,114325
 2.0000e+000 114426 -1.6780e+001 -6.3945e+000  3.8798e+000 19000 114247,114377,114325
 2.0000e+000 114403 -1.3796e+001  1.4511e+000  2.9454e+000 19000 114325,114377,114351
 2.0000e+000 114521 -2.8806e+001 -1.9691e+001 -5.7647e-001 19000 114299,114273,114495
 2.0000e+000 114544 -2.2011e+001 -1.2659e+001  2.1865e+000 19000 114299,114495,114325
 2.0000e+000 114948 -1.4983e+001 -5.2131e+000  1.6744e+000 18560 114674,114726,114700
 2.0000e+000 114925 -9.4529e+000 -6.6687e+000 -4.5436e-001 18560 114674,114830,114726
 2.0000e+000 114902 -8.4830e+000 -4.1508e+000  7.4823e-001 18560 114726,114830,114804
 2.0000e+000 114879 -3.7412e+000 -3.4469e+000  2.1998e+000 18560 114726,114804,114752
 2.0000e+000 114856 -1.4145e+000 -1.8188e+000  1.3269e+000 18560 114752,114804,114778
 2.0000e+000 115098 -3.7631e+001 -2.6386e+001 -5.5854e+000 18156 114971,115023,114997
 2.0000e+000 115075 -4.6341e+001 -2.9429e+001 -1.9860e+000 18156 114971,115049,115023
 2.0000e+000 115248 -3.5474e+001 -2.0626e+001 -8.4095e-001 17602 115147,115199,115173
 2.0000e+000 115225 -2.0272e+001 -2.1820e+001 -1.1663e+000 17602 115121,115199,115147
 2.0000e+000 115652 -3.6761e+001 -3.3510e+001 -5.4534e-001 17354 115430,115534,115508
 2.0000e+000 115629 -3.3002e+001 -2.7564e+001 -2.3387e+000 17354 115404,115534,115430
 2.0000e+000 115606 -2.9592e+001 -2.4669e+001  2.5911e+000 17354 115378,115534,115404
 2.0000e+000 115583 -5.0322e+001 -2.8978e+001  2.3339e+000 17354 115456,115508,115482
 2.0000e+000 115560 -3.5029e+001 -2.8962e+001 -8.3569e-001 17354 115430,115508,115456
 2.0000e+000 115873  4.5105e+000 -7.7089e+000 -9.2527e-001 16950 115749,115801,115775
 2.0000e+000 115850  3.0227e+000 -9.8921e+000 -1.8678e+000 16950 115697,115801,115749
 2.0000e+000 115827  4.8300e+000 -6.0004e+000 -1.3268e+000 16950 115697,115749,115723
 2.0000e+000 116023 -3.3308e+001 -9.9530e+000  5.9178e+000 16496 115922,115974,115948
 2.0000e+000 116000 -3.4307e+001 -2.9894e+000  8.4790e+000 16496 115896,115974,115922
 2.0000e+000 116126 -4.1967e+001 -3.3927e+001 -7.1390e-001 16298 116048,116100,116074
 2.0000e+000 116278  9.3498e+000 -9.1860e+000 -7.5562e-001 15892 116151,116203,116177
 2.0000e+000 116255  2.7562e+000 -2.0280e+001  2.4676e+000 15892 116151,116229,116203
 2.0000e+000 116430 -4.0512e+001 -4.2378e+001  2.0170e-001 15545 116303,116355,116329
 2.0000e+000 116407 -3.7439e+001 -3.2982e+001  4.6934e+000 15545 116303,116381,116355
 2.0000e+000 116785  4.6314e-001 -4.7207e+000  3.3116e-001 421 116612,116690,116664
 2.0000e+000 116762 -2.9121e-001 -6.4923e+000 -4.3971e-002 421 116560,116690,116612
 2.0000e+000 116739 -5.2556e+000 -7.6382e+000 -1.7319e+000 421 116560,116612,116586
 2.0000e+000 116716 -1.7135e+000 -9.2424e+000 -8.1027e-001 421 116612,116664,116638
 2.1000e+000 68048 -7.9582e+000 -6.9961e+001 -2.8534e+000 67642 67898,67950,67924
 2.1000e+000 68025 -1.7642e+001 -8.4377e+001  1.6847e+000 67642 67898,67976,67950
 2.1000e+000 68002 -1.2629e+001 -8.4303e+001  5.6404e+000 67642 67872,67976,67898
 2.1000e+000 68367  5.5291e+001  3.3447e+001  2.9361e+000 67444 68119,68223,68197
 2.1000e+000 68344  5.4687e+001 -5.2176e+000 -2.7978e+000 67444 68119,68249,68223
 2.1000e+000 68321  5.7654e+001 -5.0194e+000 -1.0532e+000 67444 68093,68249,68119
 2.1000e+000 68298  3.6359e+001 -8.4873e+000 -2.5250e+000 67444 68119,68197,68171
 2.1000e+000 68275 -4.0568e+000 -5.8054e+000  3.2860e+000 67444 68119,68171,68145
 2.1000e+000 68468  5.5921e+001 -2.4088e+001  7.1610e+000 67268 68390,68442,68416
 2.1000e+000 68765 -3.7192e+000 -3.6073e+001 -3.2353e+000 66956 68788,68517,68491
 2.1000e+000 68742 -7.0169e+000 -4.6845e+001 -6.1520e+000 66956 68788,68491,68621
 2.1000e+000 68719  6.6878e+000 -4.5533e+001 -2.6127e+001 66956 68543,68621,68569
 2.1000e+000 68696 -8.7703e+000 -4.3513e+001 -2.6800e-001 66956 68491,68647,68621
 2.1000e+000 68673 -1.1574e+001 -3.8945e+001 -2.8371e+001 66956 68569,68621,68595
 2.1000e+000 68814  3.5193e+000 -4.5364e+001 -1.3614e-002 66956 68543,68517,68788
 2.1000e+000 68837 -6.1162e-001 -5.6682e+001 -3.8834e+000 66956 68543,68788,68621
 2.1000e+000 69107  2.0910e+001 -4.6383e+000 -6.3033e-001 66758 68882,68986,68908
 2.1000e+000 69084  7.2493e+001  1.4115e+001 -2.3028e+000 66758 68882,69012,68986
 2.1000e+000 69061  6.7980e+001  1.5014e+001  4.9317e+000 66758 68908,68960,68934
 2.1000e+000 69038  1.9983e+001  8.0320e+000 -7.5271e-002 66758 68908,68986,68960
 2.1000e+000 69308  4.8599e+001  7.2766e+000 -7.2980e+000 66560 69331,69184,69158
 2.1000e+000 69285  6.1834e+001 -4.7859e+000 -8.4448e+000 66560 69331,69158,69132
 2.1000e+000 69262  4.1196e+001 -1.5741e+001 -6.1204e-001 66560 69184,69236,69210
 2.1000e+000 69357  4.8465e+001 -2.2457e+000 -3.4212e+000 66560 69236,69184,69331
 2.1000e+000 69380  5.2917e+001 -2.1989e+001 -1.1475e+000 66560 69236,69331,69132
 2.1000e+000 69554  3.4223e+001 -6.1659e+000  1.4589e+000 66270 69427,69479,69453
 2.1000e+000 69531  3.7424e+001  1.3148e+000  2.9345e+000 66270 69427,69505,69479
 2.1000e+000 69804  9.4528e+000 -7.3998e+000  1.1983e+001 66066 69579,69683,69657
 2.1000e+000 69781  7.6877e-001 -9.8389e+000 -1.0983e+000 66066 69579,69709,69683
 2.1000e+000 69758  1.4394e+001  1.3809e+001  1.0591e+001 66066 69579,69657,69631
 2.1000e+000 69735  1.2529e+001  1.3640e+001 -3.5521e-001 66066 69579,69631,69605
 2.1000e+000 70257  4.7468e+001  1.6224e+001 -2.1708e+000 65776 69960,70090,69986
 2.1000e+000 70234  4.2854e+001  2.4001e+000 -8.3290e-001 65776 69934,70090,69960
 2.1000e+000 70211  9.0334e+000 -6.4276e+000  2.2312e+000 65776 69934,70116,70090
 2.1000e+000 70188  4.6502e+001 -2.0003e-001  0.0000e+000 65776 70038,70090,70064
 2.1000e+000 70165  4.0304e+001 -1.9228e+000 -4.9790e-001 65776 69986,70090,70038
 2.1000e+000 70142  5.0662e+001  5.7774e+000  3.0375e+000 65776 69986,70038,70012
 2.1000e+000 70456  5.2525e+001  2.0113e+001 -2.5094e-001 65372 70479,70306,70280
 2.1000e+000 70433  4.6406e+001  3.1692e+000  7.9651e-001 65372 70479,70280,70384
 2.1000e+000 70410  5.5539e+001  2.0286e+001  1.2551e+001 65372 70551,70332,70306
 2.1000e+000 70505  4.9897e+001  2.3144e+001  9.2611e+000 65372 70551,70306,70479
 2.1000e+000 70528  4.2588e+001  1.2836e+001  7.3447e+000 65372 70358,70479,70384
 2.1000e+000 70577  4.9185e+001  1.5113e+001  1.0147e+001 65372 70358,70332,70551
 2.1000e+000 70600  4.3943e+001  1.7126e+001  6.5824e+000 65372 70358,70551,70479
 2.1000e+000 70821  3.6935e+001 -6.8461e+001 -5.1822e+000 65174 70645,70723,70671
 2.1000e+000 70798 -4.1023e+001 -9.7586e+001  1.0098e+000 65174 70645,70749,70723
 2.1000e+000 70775  5.4351e+001 -4.9504e+001 -1.2417e+001 65174 70671,70723,70697
 2.1000e+000 71071 -1.0704e+000 -2.8067e+001 -1.3526e+001 64770 71094,70898,70872
 2.1000e+000 71048 -3.4256e+000 -3.1271e+001 -7.3599e+000 64770 71166,71094,70872
 2.1000e+000 71025 -1.2942e+001 -3.8566e+001 -1.0887e+001 64770 71166,70872,70846
 2.1000e+000 71002 -4.2493e-001 -8.3458e+000  1.8089e+000 64770 70898,70950,70924
 2.1000e+000 71120 -4.4963e-001 -2.6640e+001 -1.3351e+001 64770 70950,70898,71094
 2.1000e+000 71143  2.7115e+001 -2.9613e+001 -7.8591e+000 64770 70950,71094,70976
 2.1000e+000 71192  3.8574e+000 -4.4859e+001 -1.5317e+001 64770 70976,71094,71166
 2.1000e+000 71215 -9.2840e-001 -4.8271e+001 -1.7671e+001 64770 70976,71166,70846
 2.1000e+000 71514  2.1611e+001  8.9589e+000 -2.5537e-001 64572 71681,71537,71318
 2.1000e+000 71491 -2.2256e+000  8.8565e+000  5.2765e+000 64572 71537,71266,71240
 2.1000e+000 71468  3.6773e+001  9.7569e+000  1.0817e+001 64572 71609,71396,71370
 2.1000e+000 71445  2.1587e+001  7.0442e+000  5.2676e-001 64572 71681,71318,71292
 2.1000e+000 71422  3.7831e+001  1.5559e+001  1.1060e-001 64572 71753,71344,71318
 2.1000e+000 71563  3.2034e+001  1.4889e+001 -7.5719e+000 64572 71753,71318,71537
 2.1000e+000 71586  2.8226e+001  1.6761e+001  1.2802e+000 64572 71609,71370,71537
 2.1000e+000 71635  2.9094e+001 -1.2529e+001  4.0698e+000 64572 71240,71396,71609
 2.1000e+000 71658  1.8865e+001  1.3384e+000 -5.1581e+000 64572 71240,71609,71537
 2.1000e+000 71707  1.9482e+001  1.4059e+001 -1.0332e+000 64572 71266,71537,71681
 2.1000e+000 71730  1.7402e+001  1.1150e+001  8.5562e-001 64572 71266,71681,71292
 2.1000e+000 71779  5.0287e+001  1.1503e+001 -3.9452e+000 64572 71370,71344,71753
 2.1000e+000 71802  4.3866e+001  1.3873e+001 -6.5915e+000 64572 71370,71753,71537
 2.1000e+000 72052  3.0482e+000 -3.4777e+001  9.2397e+000 64374 72075,71879,71827
 2.1000e+000 72029  2.3401e+001 -2.3701e+001  3.9521e+000 64374 72147,72075,71827
 2.1000e+000 72006  3.3831e+001 -2.6954e+001 -1.9344e+000 64374 72147,71827,71957
 2.1000e+000 71983  8.8163e+000 -3.5721e+001  5.4168e+000 64374 71827,71879,71853
 2.1000e+000 72101  7.3868e+000 -5.4903e+001  2.6520e+001 64374 71905,71879,72075
 2.1000e+000 72124  4.3072e+001 -3.4694e+001  1.8251e+001 64374 71905,72075,71931
 2.1000e+000 72173  1.4773e+001 -3.3245e+001  8.3721e+000 64374 71931,72075,72147
 2.1000e+000 72196  2.1198e+001 -3.8756e+001  3.1747e+000 64374 71931,72147,71957
 2.1000e+000 72649  4.3255e+001  2.3974e+001 -1.1787e+000 63948 72352,72508,72482
 2.1000e+000 72626  4.8751e+001  3.3204e+001  7.8805e+000 63948 72326,72508,72352
 2.1000e+000 72603  3.6849e+001  2.1597e+001 -2.1442e+000 63948 72672,72430,72378
 2.1000e+000 72580  3.6568e+001  1.3002e+001  4.4739e-001 63948 72672,72378,72352
 2.1000e+000 72557  3.6663e+001  2.7733e+001 -8.2313e-001 63948 72744,72456,72430
 2.1000e+000 72534  4.0883e+001  1.4788e+001 -1.6936e+001 63948 72378,72430,72404
 2.1000e+000 72698  3.7918e+001  2.5928e+001 -1.9829e+000 63948 72744,72430,72672
 2.1000e+000 72721  4.0163e+001  2.1590e+001 -5.4874e-002 63948 72482,72672,72352
 2.1000e+000 72770  3.8156e+001  2.4891e+001 -7.3889e-001 63948 72482,72456,72744
 2.1000e+000 72793  3.7408e+001  2.0518e+001 -1.9517e+000 63948 72482,72744,72672
 2.1000e+000 72894  1.9424e+000 -1.3471e+001 -4.1546e+000 63494 72816,72868,72842
 2.1000e+000 73093  5.6135e+000 -2.6521e+000 -5.0895e+000 63132 72943,72995,72969
 2.1000e+000 73070 -4.8450e+000 -4.6601e+000 -8.7297e-001 63132 72943,73021,72995
 2.1000e+000 73047 -5.1244e+000 -1.1644e+001  7.1500e-001 63132 72917,73021,72943
 2.1000e+000 73294 -6.0882e+000  2.4892e+001  8.1880e+000 62792 73317,73144,73118
 2.1000e+000 73271  3.8375e+000  2.9390e+001 -2.3320e+001 62792 73317,73118,73222
 2.1000e+000 73248  2.4965e+001  3.1624e+001 -3.8293e+000 62792 73144,73196,73170
 2.1000e+000 73343  3.0392e+001  2.7226e+001 -1.4967e+000 62792 73196,73144,73317
 2.1000e+000 73366  4.0514e+001  3.6877e+001 -3.4808e+001 62792 73196,73317,73222
 2.1000e+000 73616  3.4257e+000 -3.2142e+000  1.0248e+001 62388 73639,73417,73391
 2.1000e+000 73593  7.2810e+000  3.7167e+000  4.9420e-002 62388 73711,73639,73391
 2.1000e+000 73570  3.2297e+001  8.8712e+000 -9.4878e+000 62388 73711,73391,73521
 2.1000e+000 73547  4.4163e+001  2.3119e+000  1.0914e+001 62388 73469,73521,73495
 2.1000e+000 73665  1.2365e+001 -1.3873e+000 -2.8696e+000 62388 73443,73417,73639
 2.1000e+000 73688  1.9049e+001  5.0374e+000  1.5080e-001 62388 73443,73639,73469
 2.1000e+000 73737  3.8413e+001  4.0232e+000  4.2110e+000 62388 73469,73639,73711
 2.1000e+000 73760  4.7672e+001 -4.2519e+000  9.6168e-001 62388 73469,73711,73521
 2.1000e+000 74010  1.5420e+001  2.4086e+000 -1.8059e+001 61848 74033,73837,73811
 2.1000e+000 73987  4.6932e+001  2.3332e+001 -3.1009e+001 61848 74033,73811,73785
 2.1000e+000 73964  3.4513e+001  1.6390e+001 -4.5150e-002 61848 73837,73915,73889
 2.1000e+000 73941  1.7416e+001  1.7162e+000 -7.9023e+000 61848 73837,73889,73863
 2.1000e+000 74059  1.2611e+001  2.1003e+000 -1.5287e+001 61848 73915,73837,74033
 2.1000e+000 74082  1.5613e+001 -3.6979e+000 -1.9498e+001 61848 73915,74033,73785
 2.1000e+000 74283  2.6732e+001  3.9391e+000  5.6194e+000 61444 74306,74133,74107
 2.1000e+000 74260  2.7194e+001  1.6938e+001  2.0192e+001 61444 74306,74107,74211
 2.1000e+000 74237  1.1683e+001  1.8184e+001  6.2594e+000 61444 74378,74185,74159
 2.1000e+000 74332  1.6508e+001 -7.0012e-001 -8.0738e-001 61444 74159,74133,74306
 2.1000e+000 74355  2.3109e+001  1.0740e+001  1.1300e+001 61444 74378,74159,74306
 2.1000e+000 74404  1.2948e+001  1.0969e+001  1.4390e+001 61444 74211,74185,74378
 2.1000e+000 74427  1.5592e+001  6.4739e+000  1.3923e+001 61444 74211,74378,74306
 2.1000e+000 74628  3.0954e+001 -1.0081e+000  2.4873e+000 60990 74478,74530,74504
 2.1000e+000 74605 -7.5848e-001  2.7168e+000  1.4322e+001 60990 74452,74530,74478
 2.1000e+000 74582  6.0789e+000  1.4118e+001  9.0311e+000 60990 74452,74556,74530
 2.1000e+000 75089  1.9410e+001  6.6675e+000 -1.2223e+001 60486 75112,74945,74919
 2.1000e+000 75066  7.1090e+000 -4.0579e+000 -3.2844e+000 60486 75112,74919,74867
 2.1000e+000 75043 -4.2313e+000  5.8465e-002 -3.8097e-001 60486 74841,74971,74867
 2.1000e+000 75020  7.4258e+000  4.4260e+000 -1.5153e+001 60486 74867,74919,74893
 2.1000e+000 74997 -3.7356e+000 -3.5731e-001 -9.1369e-001 60486 74815,74971,74841
 2.1000e+000 75138  4.8543e+000  3.6995e+000 -5.3771e+000 60486 74971,74945,75112
 2.1000e+000 75161 -8.6881e-001  2.3270e+000  1.6755e+000 60486 74971,75112,74867
 2.1000e+000 75409  2.6218e+001  1.0019e+001  2.2799e+000 59932 75576,75432,75288
 2.1000e+000 75386  2.4895e+001  1.8345e+001 -1.0370e+001 59932 75504,75314,75288
 2.1000e+000 75363  3.5141e+001  3.4223e+001  2.7571e+000 59932 75432,75236,75210
 2.1000e+000 75340  2.3219e+001  1.5840e+001  9.6483e+000 59932 75576,75288,75262
 2.1000e+000 75458  2.6433e+001  1.4769e+001 -9.2697e+000 59932 75504,75288,75432
 2.1000e+000 75481  3.0400e+001  2.5213e+001 -7.2237e+000 59932 75184,75432,75210
 2.1000e+000 75530  3.3795e+001  4.6928e+001 -1.1303e+001 59932 75184,75314,75504
 2.1000e+000 75553  2.8192e+001  1.8602e+001 -8.6865e+000 59932 75184,75504,75432
 2.1000e+000 75602  2.8628e+001  2.2426e+001 -4.3778e-002 59932 75236,75432,75576
 2.1000e+000 75625  2.3810e+001  2.6204e+001  3.0773e+000 59932 75236,75576,75262
 2.1000e+000 75873  2.6136e+001 -5.4518e+000 -2.5393e+000 59478 75674,75752,75700
 2.1000e+000 75850  8.7616e+000 -1.2509e+001  7.9538e+000 59478 75648,75752,75674
 2.1000e+000 75827  2.9752e+001 -6.6504e+000 -3.3567e+000 59478 75700,75752,75726
 2.1000e+000 75804  2.5310e+001 -1.3960e+001  5.7610e+000 59478 75648,75778,75752
 2.1000e+000 76206  4.2555e+001  9.2346e+000  7.8263e+000 59024 75981,76059,76007
 2.1000e+000 76183  3.7124e+001  3.8329e+000  1.0016e+001 59024 75981,76111,76059
 2.1000e+000 76160  4.4684e+001  1.2726e+001  5.7444e+000 59024 76007,76059,76033
 2.1000e+000 76137  4.6170e+001  1.6496e+001  1.7606e+001 59024 76059,76111,76085
 2.1000e+000 76761 -1.1017e+001 -5.4422e+000 -1.6138e+000 58562 76389,76441,76415
 2.1000e+000 76738 -7.2505e+000 -7.4390e+000 -1.8967e+000 58562 76856,76784,76389
 2.1000e+000 76715 -4.4936e+000 -1.0621e+001 -8.4570e+000 58562 76784,76571,76467
 2.1000e+000 76692 -2.3463e+000 -3.0821e+000 -3.7774e+000 58562 76856,76389,76597
 2.1000e+000 76669  1.3486e+001 -3.5508e+001  8.4415e+000 58562 76467,76545,76493
 2.1000e+000 76646 -8.7764e+000 -3.2531e+001 -1.6065e+001 58562 76467,76571,76545
 2.1000e+000 76623 -1.4989e+001 -5.6461e+001 -8.6091e-001 58562 76493,76545,76519
 2.1000e+000 76810 -1.0845e+001 -1.5015e+001 -7.5390e-001 58562 76441,76389,76784
 2.1000e+000 76833 -1.2808e+001 -2.6351e+001 -1.3043e+001 58562 76441,76784,76467
 2.1000e+000 76882 -1.2786e+000 -1.2540e+001  7.9250e-001 58562 76571,76784,76856
 2.1000e+000 76905  5.9613e-001 -1.0200e+001 -1.1776e-001 58562 76571,76856,76597
 2.1000e+000 77055 -1.3580e+000 -2.4432e+001 -1.7799e+000 57844 76928,76980,76954
 2.1000e+000 77032 -6.8287e-001 -1.8549e+001 -2.8027e+000 57844 76928,77006,76980
 2.1000e+000 77533  4.6191e+000 -5.1629e+001  8.6722e-002 57226 77628,77556,77291
 2.1000e+000 77510  6.7618e+000 -1.1510e+001  5.4350e+000 57226 77556,77187,77343
 2.1000e+000 77487  1.2689e+000 -3.4273e+001 -4.2556e+000 57226 77628,77291,77265
 2.1000e+000 77464 -9.8316e+000 -6.5284e+001  1.6182e+001 57226 77700,77213,77187
 2.1000e+000 77441  6.3371e+000 -1.8854e+001 -5.4589e+000 57226 77161,77343,77187
 2.1000e+000 77418  5.2571e+000  5.8769e+000 -1.4817e+001 57226 77161,77369,77343
 2.1000e+000 77395 -2.8886e+001 -4.5054e+001  2.1388e+000 57226 77213,77265,77239
 2.1000e+000 77582  8.3310e+000 -3.6667e+001  8.4305e+000 57226 77317,77291,77556
 2.1000e+000 77605  1.0844e+001 -3.4187e+001  7.4030e+000 57226 77317,77556,77343
 2.1000e+000 77654  5.4727e+000 -3.2787e+001  1.2337e+001 57226 77187,77556,77628
 2.1000e+000 77677 -7.1873e+000 -5.8651e+001  1.6321e+001 57226 77700,77187,77628
 2.1000e+000 77726 -1.9289e+001 -7.1276e+001 -1.0263e+001 57226 77265,77213,77700
 2.1000e+000 77749 -8.9902e+000 -4.7458e+001 -8.7571e+000 57226 77265,77700,77628
 2.1000e+000 78046 -1.1348e+000 -2.5203e+001  1.1305e+001 56936 77798,77850,77824
 2.1000e+000 78023 -1.5428e+000 -2.0141e+001  7.4315e+000 56936 78069,77798,77902
 2.1000e+000 78000  1.9109e+000 -2.9967e+001  6.4044e+000 56936 78069,77902,77876
 2.1000e+000 77977 -2.3791e+001 -2.9602e+001  7.4338e+000 56936 77798,77928,77902
 2.1000e+000 77954 -1.6941e+001 -2.1240e+001  1.0759e+001 56936 77772,77928,77798
 2.1000e+000 78095 -8.6347e-001 -2.5749e+001  1.1264e+001 56936 77850,77798,78069
 2.1000e+000 78118  9.1427e-001 -3.4186e+001  1.2628e+001 56936 77850,78069,77876
 2.1000e+000 78754  3.1658e+001  1.6930e+001  2.8320e+000 56475 78777,78486,78408
 2.1000e+000 78731  3.1296e+001  1.5321e+001  3.7296e+000 56475 78777,78408,78382
 2.1000e+000 78708  3.7106e+001  1.0936e+001 -2.0088e+000 56475 78849,78512,78486
 2.1000e+000 78685  3.5981e+001  2.7397e+001 -7.3565e-001 56475 78382,78590,78564
 2.1000e+000 78662  4.8378e+001  1.1377e+001 -2.0046e+000 56475 78512,78564,78538
 2.1000e+000 78639  4.9872e+001 -4.6052e+000  6.2820e-001 56475 78434,78486,78460
 2.1000e+000 78616  1.8279e+001 -1.4124e+001  4.0257e+000 56475 78408,78486,78434
 2.1000e+000 78803  3.0744e+001  1.3022e+001  2.2426e+000 56475 78849,78486,78777
 2.1000e+000 78826  3.2297e+001  1.8395e+001  1.5560e+000 56475 78564,78777,78382
 2.1000e+000 78875  4.0669e+001  1.6493e+001 -4.9069e+000 56475 78564,78512,78849
 2.1000e+000 78898  3.7216e+001  2.1252e+001 -1.2269e+000 56475 78564,78849,78777
 2.1000e+000 79276  2.9602e+001  1.7068e+001 -4.0926e+000 55964 79299,79080,79028
 2.1000e+000 79253  3.8531e+001  1.7410e+001 -1.4069e+000 55964 79299,79028,79132
 2.1000e+000 79230  2.6008e+001  6.2127e+000 -3.1494e+000 55964 79028,79080,79054
 2.1000e+000 79207  3.4150e+001  1.7754e+001 -1.1337e+000 55964 79002,79132,79028
 2.1000e+000 79184  6.2195e+001  3.0201e+001 -5.9112e+000 55964 79002,79158,79132
 2.1000e+000 79325  3.4019e+001  1.8095e+001  1.6669e+000 55964 79106,79080,79299
 2.1000e+000 79348  4.3288e+001  1.7868e+001  3.9418e+000 55964 79106,79299,79132
 2.1000e+000 79498  3.1810e+001  9.4250e+000  2.4256e+000 55452 79397,79449,79423
 2.1000e+000 79475  2.1909e+001 -5.3099e-001 -1.8933e+000 55452 79371,79449,79397
 2.1000e+000 79795  7.1325e+000 -6.9643e+000  2.4658e-001 55048 79962,79818,79573
 2.1000e+000 79772  1.3621e+001 -3.8683e+000 -1.5299e+000 55048 79818,79521,79677
 2.1000e+000 79749  2.4289e+001 -1.2212e+001  7.3498e+000 55048 79599,79651,79625
 2.1000e+000 79726  1.6302e+001 -1.1192e+001  4.9735e+000 55048 79890,79651,79599
 2.1000e+000 79703  1.0207e+001 -1.0703e+001  6.1503e+000 55048 79962,79573,79547
 2.1000e+000 79844  1.1851e+001 -4.3052e+000  1.8394e+000 55048 79599,79573,79818
 2.1000e+000 79867  1.5194e+001 -1.1013e+001  6.8885e-001 55048 79890,79599,79818
 2.1000e+000 79916  2.2788e+001 -8.4629e+000  5.1027e+000 55048 79677,79651,79890
 2.1000e+000 79939  2.1464e+001 -8.2435e+000  1.1466e+000 55048 79677,79890,79818
 2.1000e+000 79988 -1.2422e+000 -8.3173e+000  3.5930e+000 55048 79521,79818,79962
 2.1000e+000 80011 -1.6196e+000 -1.0836e+001  8.8151e+000 55048 79521,79962,79547
 2.1000e+000 80212  8.8735e+000 -3.5813e+001  1.5711e+001 54436 80235,80088,80036
 2.1000e+000 80189  1.0238e+001 -4.5266e+001  1.9147e+001 54436 80235,80036,80140
 2.1000e+000 80166  1.5001e+001 -4.1923e+001  2.7596e+000 54436 80036,80088,80062
 2.1000e+000 80261  8.5796e+000 -2.7294e+001  1.4444e+001 54436 80114,80088,80235
 2.1000e+000 80284  1.0737e+001 -3.4740e+001  1.8855e+001 54436 80114,80235,80140
 2.1000e+000 80534  1.4262e+001 -4.2789e+000  3.3052e-001 54032 80557,80361,80335
 2.1000e+000 80511  1.6017e+001  1.1244e+000 -3.0578e+000 54032 80557,80335,80309
 2.1000e+000 80488  6.9155e+000 -1.0434e+001  5.6300e+000 54032 80629,80413,80387
 2.1000e+000 80465  1.1564e+001 -2.2508e+001  3.5671e+000 54032 80309,80439,80413
 2.1000e+000 80583  1.4987e+001 -1.7577e+000  3.7319e-001 54032 80387,80361,80557
 2.1000e+000 80606  9.5667e+000 -5.2073e+000  2.3223e+000 54032 80629,80387,80557
 2.1000e+000 80655  1.1767e+001 -7.1896e+000  6.9294e-001 54032 80309,80413,80629
 2.1000e+000 80678  1.4279e+001 -5.9463e+000 -2.1085e+000 54032 80309,80629,80557
 2.1000e+000 81139 -6.4996e+000 -3.9062e+001 -3.7571e-001 53784 80865,80995,80917
 2.1000e+000 81116 -1.3769e+000 -3.8084e+001  2.6559e+000 53784 80865,81021,80995
 2.1000e+000 81093 -1.5201e+001 -5.9013e+001 -6.1010e+000 53784 80943,80995,80969
 2.1000e+000 81070  7.3514e+000 -2.4506e+001  5.5600e+000 53784 80917,80995,80943
 2.1000e+000 81047 -7.1041e-001 -5.3321e+001 -4.5563e+000 53784 80865,80917,80891
 2.1000e+000 81468  3.6109e+000 -1.4536e+001  3.3298e+000 53230 81295,81373,81347
 2.1000e+000 81445  8.0962e+000 -7.9566e+000  5.4425e+000 53230 81243,81373,81295
 2.1000e+000 81422  6.5781e+000 -1.5548e+001  5.7459e+000 53230 81243,81295,81269
 2.1000e+000 81399  3.1807e+001 -2.9673e+000  3.6483e+000 53230 81295,81347,81321
 2.1000e+000 81618  3.0170e+001  1.3886e+001  1.4619e+000 52790 81491,81543,81517
 2.1000e+000 81595  3.1201e+001  2.3656e+001 -1.6184e-001 52790 81491,81569,81543
 2.1000e+000 82126  2.9459e+001  1.0929e+001 -1.2096e+000 52386 82149,81907,81881
 2.1000e+000 82103  2.8386e+001  5.4965e+000 -5.0183e+000 52386 82149,81881,81855
 2.1000e+000 82080  3.4354e+001  1.5882e+001  2.9779e+000 52386 82221,81803,81985
 2.1000e+000 82057  1.8407e+001  1.1268e+001 -7.0217e+000 52386 81803,81855,81829
 2.1000e+000 82034  2.4014e+001 -3.3209e+000  7.6184e-001 52386 81907,81985,81933
 2.1000e+000 82011  3.2450e+001  7.9555e-001 -1.0433e+000 52386 81933,81985,81959
 2.1000e+000 82175  2.9447e+001  9.0625e+000 -1.3234e-001 52386 81985,81907,82149
 2.1000e+000 82198  3.0493e+001  1.1853e+001  3.2069e-001 52386 82221,81985,82149
 2.1000e+000 82247  3.3934e+001  9.4941e+000 -9.3555e-001 52386 81855,81803,82221
 2.1000e+000 82270  3.3669e+001  7.0103e+000 -2.5991e+000 52386 81855,82221,82149
 2.1000e+000 82825 -1.6275e+000 -2.7875e+001  4.7029e+000 51782 82505,82661,82635
 2.1000e+000 82802 -1.2271e+001 -4.1686e+001 -6.0104e-001 51782 82479,82661,82505
 2.1000e+000 82779 -6.0015e+000 -4.1944e+001 -1.8714e+001 51782 82557,82635,82609
 2.1000e+000 82756  1.2459e-002 -2.7110e+001 -4.6511e+000 51782 82531,82635,82557
 2.1000e+000 82733  5.3369e+000 -2.9722e+001 -2.7827e+000 51782 82505,82635,82531
 2.1000e+000 82710  1.1306e+001 -1.2834e+001  1.9327e+001 51782 82453,82661,82479
 2.1000e+000 82687  1.8354e+001 -3.4268e+001 -1.3720e+001 51782 82557,82609,82583
 2.1000e+000 83171  2.6637e+001  2.5197e+000  2.0304e+000 51442 83194,82978,82900
 2.1000e+000 83148  1.9165e+001  8.9471e+000  7.8499e-001 51442 83194,82900,82874
 2.1000e+000 83125  3.3806e+001  5.1490e+000 -2.8762e+000 51442 82900,82978,82926
 2.1000e+000 83102  3.3696e+001  1.3638e+001  5.4335e+000 51442 82874,83030,83004
 2.1000e+000 83079  2.6048e+001 -2.6456e-001 -5.9019e+000 51442 82926,82978,82952
 2.1000e+000 83056  3.3429e+001 -6.5472e-001 -1.3542e-001 51442 82848,83030,82874
 2.1000e+000 83220  3.1482e+001  5.6204e+000  6.6673e-001 51442 83004,82978,83194
 2.1000e+000 83243  2.3379e+001  1.1837e+001 -5.6672e-001 51442 83004,83194,82874
 2.1000e+000 83751  4.4378e+000  1.2723e+000  3.7411e+000 50938 83428,83584,83454
 2.1000e+000 83728  1.2714e+001  4.4549e+000  5.6565e+000 50938 83428,83610,83584
 2.1000e+000 83705  3.8686e+000 -2.7979e+000  2.9264e+000 50938 83454,83584,83558
 2.1000e+000 83682  3.2842e-001  1.8294e+000 -8.8290e-001 50938 83454,83532,83480
 2.1000e+000 83659  6.1108e+000 -2.9481e+000 -1.5866e+000 50938 83454,83558,83532
 2.1000e+000 83636  1.7840e+000  6.9779e-002 -1.4762e+000 50938 83480,83532,83506
 2.1000e+000 84355 -4.4009e+000 -3.4065e+001 -2.7200e+000 50377 84378,83960,83934
 2.1000e+000 84332 -8.3058e+000 -4.1132e+001  6.5714e-001 50377 84522,84378,83934
 2.1000e+000 84309 -1.1555e+001 -4.0660e+001  1.9773e+000 50377 84450,84038,84012
 2.1000e+000 84286 -1.0240e+001 -4.0028e+001  8.3314e-001 50377 84522,83934,84142
 2.1000e+000 84263 -7.8184e+000 -3.7696e+001  4.4766e+000 50377 84594,84090,84038
 2.1000e+000 84240 -7.9870e+000 -4.0194e+001 -1.5623e+000 50377 83960,84012,83986
 2.1000e+000 84217 -2.3928e+001 -4.4611e+001 -5.1014e-001 50377 83934,84168,84142
 2.1000e+000 84194  2.1614e+001 -3.1088e+001  3.9301e+000 50377 84038,84090,84064
 2.1000e+000 84404 -1.1401e+001 -3.9791e+001  8.8794e-001 50377 84012,83960,84378
 2.1000e+000 84427 -6.6263e+000 -3.8353e+001  2.7006e+000 50377 84450,84012,84378
 2.1000e+000 84476 -1.0028e+001 -3.8324e+001  3.6150e+000 50377 84594,84038,84450
 2.1000e+000 84499 -8.6742e+000 -4.2976e+001  3.2219e+000 50377 84116,84450,84378
 2.1000e+000 84548 -1.0596e+001 -4.1947e+001  2.3284e-001 50377 84116,84378,84522
 2.1000e+000 84571 -1.2519e+001 -4.0795e+001  5.1880e-001 50377 84116,84522,84142
 2.1000e+000 84620 -3.9867e+000 -3.9650e+001  5.4545e+000 50377 84116,84090,84594
 2.1000e+000 84643 -5.7160e+000 -3.9845e+001  4.6586e+000 50377 84116,84594,84450
 2.1000e+000 84842  2.5201e+001  9.2450e+000 -6.5301e-001 49923 84865,84692,84666
 2.1000e+000 84819  2.6928e+001  8.5200e+000  9.0707e-001 49923 84865,84666,84770
 2.1000e+000 84796  2.4668e+001  8.7823e+000 -4.1458e-001 49923 84692,84744,84718
 2.1000e+000 84891  2.6315e+001  1.0082e+001  1.4429e-001 49923 84744,84692,84865
 2.1000e+000 84914  2.8428e+001  1.0213e+001  1.8780e+000 49923 84744,84865,84770
 2.1000e+000 85501 -2.8670e+000 -2.9046e+001  1.7983e-001 49618 85524,85282,85204
 2.1000e+000 85478 -1.0734e+001 -3.4097e+001 -2.4922e+000 49618 85596,85524,85204
 2.1000e+000 85455 -1.6686e+001 -4.3397e+001 -5.4342e+000 49618 85596,85204,85178
 2.1000e+000 85432 -1.0347e+001 -3.3253e+001  2.0624e+000 49618 85204,85282,85256
 2.1000e+000 85409 -8.3845e+000 -5.0267e+001 -8.0233e-001 49618 85282,85334,85308
 2.1000e+000 85386 -1.0363e+001 -3.5660e+001 -2.9643e+000 49618 85204,85256,85230
 2.1000e+000 85550 -6.9025e+000 -4.0071e+001 -7.6602e-001 49618 85334,85282,85524
 2.1000e+000 85573  1.2404e+001 -3.0282e+001  5.9572e+000 49618 85334,85524,85360
 2.1000e+000 85622 -1.0730e+000 -4.8858e+001 -6.0032e-001 49618 85360,85524,85596
 2.1000e+000 85645 -4.1088e+000 -5.4275e+001 -2.7295e+000 49618 85360,85596,85178
 2.1000e+000 85795  2.7398e+001  5.3998e+000 -3.0318e+000 49278 85694,85746,85720
 2.1000e+000 85772  3.3599e+001  9.3166e+000  4.3811e-002 49278 85668,85746,85694
 2.1000e+000 86197 -1.1377e+001 -5.9336e+001 -1.6508e+001 48916 86001,86079,86027
 2.1000e+000 86174 -1.4456e+001 -4.5969e+001 -1.9702e+000 48916 85949,86079,86001
 2.1000e+000 86151 -2.6548e+000 -5.5610e+001 -4.4436e+000 48916 85949,86001,85975
 2.1000e+000 86128 -1.4786e+001 -7.1394e+001 -1.7304e+001 48916 86027,86079,86053
 2.1000e+000 86105  6.1246e+000 -3.2599e+001  4.2298e+000 48916 85923,86079,85949
 2.1000e+000 86477  9.5957e+000 -8.1638e+000  4.3614e+000 48398 86327,86379,86353
 2.1000e+000 86454  4.7646e+000 -1.0334e+001  1.4812e+000 48398 86500,86379,86327
 2.1000e+000 86431  4.6535e+000 -3.1921e+000  4.9848e+000 48398 86301,86405,86379
 2.1000e+000 86526  1.8368e-001 -5.5487e+000  5.8571e+000 48398 86301,86379,86500
 2.1000e+000 87032 -1.3172e+000 -2.5285e+001 -5.1983e+000 48008 87127,87055,86787
 2.1000e+000 87009 -1.4718e+000 -2.8290e+001  2.1034e+000 48008 87055,86735,86709
 2.1000e+000 86986 -2.2601e-001 -2.5936e+001 -5.3982e+000 48008 87127,86787,86761
 2.1000e+000 86963  7.4364e-002 -1.0794e+001 -1.9608e+000 48008 86787,86865,86839
 2.1000e+000 86940  5.9876e+000 -1.7710e+001  7.5615e+000 48008 86709,86891,86865
 2.1000e+000 86917 -8.5792e+000 -1.4741e+001 -3.1628e+000 48008 86787,86839,86813
 2.1000e+000 87081 -2.3720e+000 -2.0645e+001 -2.3754e+000 48008 86865,86787,87055
 2.1000e+000 87104  2.0092e+000 -1.3815e+001  4.4219e+000 48008 86865,87055,86709
 2.1000e+000 87153 -7.6496e-002 -2.2843e+001 -4.3302e+000 48008 86735,87055,87127
 2.1000e+000 87176  2.1376e-001 -2.5694e+001 -4.0040e+000 48008 86735,87127,86761
 2.1000e+000 87456  1.4318e+001  6.6741e-002  2.7103e+000 47604 87306,87358,87332
 2.1000e+000 87433  2.3365e+001  2.2800e+000  3.3316e+000 47604 87306,87384,87358
 2.1000e+000 87410  2.3295e+001  2.3810e+000  5.9025e+000 47604 87280,87384,87306
 2.1000e+000 87785  3.6631e+001  1.0666e+001 -9.0998e-002 47264 87638,87690,87664
 2.1000e+000 87762  2.0904e+001  2.9193e-001  5.3372e+000 47264 87612,87690,87638
 2.1000e+000 87739  2.1884e+001 -2.4898e-001  6.5943e+000 47264 87560,87690,87612
 2.1000e+000 87716  1.9884e+001 -4.2129e+000  7.1616e+000 47264 87560,87612,87586
 2.1000e+000 87935  6.1388e+000 -3.7003e+001  8.9507e-001 46952 87808,87860,87834
 2.1000e+000 87912  6.7793e+000 -4.2839e+001 -3.9109e+000 46952 87808,87886,87860
 2.1000e+000 88281  2.2979e+001  9.3176e+000 -1.2895e+000 46526 88304,88114,88036
 2.1000e+000 88258  2.2216e+001  7.1979e+000 -2.1532e+000 46526 88304,88036,87984
 2.1000e+000 88235  1.9933e+001  7.6671e+000 -1.8172e-001 46526 88036,88114,88062
 2.1000e+000 88212  2.7158e+001  7.0936e+000  1.6552e+000 46526 87958,88140,87984
 2.1000e+000 88189  1.6666e+001 -5.7036e+000 -2.2275e+000 46526 87984,88036,88010
 2.1000e+000 88166  2.0976e+001  1.1498e+001  1.9517e+000 46526 88062,88114,88088
 2.1000e+000 88330  2.4345e+001  7.0539e+000 -1.0073e+000 46526 88140,88114,88304
 2.1000e+000 88353  2.3899e+001  5.1306e+000 -1.5775e+000 46526 88140,88304,87984
 2.1000e+000 88701  1.8499e+001 -6.5583e+000  9.9605e+000 45822 88724,88378,88534
 2.1000e+000 88678  1.8354e+001  1.0399e+000  1.1291e+001 45822 88378,88560,88534
 2.1000e+000 88655  1.0762e+001 -9.4396e+000  9.7781e+000 45822 88724,88534,88508
 2.1000e+000 88632  4.7664e+000 -7.1012e+000  6.1842e+000 45822 88404,88508,88456
 2.1000e+000 88609  7.9903e-001 -1.5566e+001  7.5604e+000 45822 88404,88456,88430
 2.1000e+000 88586 -6.6785e+000 -6.1390e+000  4.4390e+000 45822 88456,88508,88482
 2.1000e+000 88750  1.2264e+001 -4.8189e+000  5.5146e+000 45822 88404,88378,88724
 2.1000e+000 88773  6.2823e+000 -6.7291e+000  5.2364e+000 45822 88404,88724,88508
 2.1000e+000 89106 -2.4338e+001 -4.0994e+001  3.1786e+000 45418 88881,88985,88907
 2.1000e+000 89083 -1.8639e+001 -3.6111e+001  9.6549e-001 45418 88881,89011,88985
 2.1000e+000 89060 -4.3804e+000 -3.7164e+001  3.6867e+000 45418 88907,88985,88933
 2.1000e+000 89037 -1.5397e+001 -3.9401e+001 -1.4762e+000 45418 88933,88985,88959
 2.1000e+000 89435  3.0102e+001  1.1128e+001 -1.4057e+000 44914 89210,89288,89236
 2.1000e+000 89412  2.5372e+001  1.1550e+001  3.3689e+000 44914 89210,89314,89288
 2.1000e+000 89389  2.9768e+001  1.0036e+001  4.3267e+000 44914 89210,89340,89314
 2.1000e+000 89366  2.2068e+001  9.0820e+000 -3.2798e+000 44914 89236,89288,89262
 2.1000e+000 89634  2.3234e+001  7.9034e+000  1.2265e+000 44538 89510,89562,89536
 2.1000e+000 89611  2.1868e+001  3.0593e+000  1.7435e+000 44538 89458,89562,89510
 2.1000e+000 89588  2.1016e+001 -5.1179e+000  2.3887e+000 44538 89458,89510,89484
 2.1000e+000 90044  4.1128e+000 -1.4839e+001 -3.0298e+000 44134 89819,89923,89845
 2.1000e+000 90021 -4.4174e+000 -3.3577e+001 -4.9846e+000 44134 89819,89949,89923
 2.1000e+000 89998 -6.3783e+000 -1.9189e+001  2.1165e+000 44134 89845,89923,89897
 2.1000e+000 89975 -8.6072e+000 -2.0575e+001 -4.8761e-001 44134 89845,89897,89871
 2.1000e+000 90520 -7.6090e+000 -3.3092e+001 -7.1175e-001 43457 90543,90252,90226
 2.1000e+000 90497 -1.2561e+001 -3.4457e+001 -9.7462e-001 43457 90543,90226,90330
 2.1000e+000 90474 -1.7177e+001 -3.7631e+001 -3.3400e+000 43457 90200,90330,90226
 2.1000e+000 90451 -2.0250e+001 -3.3226e+001  4.9378e+000 43457 90200,90356,90330
 2.1000e+000 90428  2.8687e+000 -2.2442e+001 -3.9126e+000 43457 90252,90304,90278
 2.1000e+000 90405 -1.9664e+001 -3.2091e+001  5.2704e+000 43457 90174,90356,90200
 2.1000e+000 90382 -2.3303e+001 -2.2181e+001  7.7738e+000 43457 90148,90356,90174
 2.1000e+000 90569 -2.9806e+000 -3.5319e+001 -5.3728e+000 43457 90304,90252,90543
 2.1000e+000 90592 -1.1297e+001 -3.8453e+001 -6.6572e+000 43457 90304,90543,90330
 2.1000e+000 91098 -2.7653e+000 -1.9679e+001  1.8001e+000 42789 90801,90905,90853
 2.1000e+000 91075 -2.4837e+000 -1.7581e+001  1.6759e+000 42789 90775,90905,90801
 2.1000e+000 91052  8.7284e-001 -1.2868e+001  4.2545e+000 42789 90775,90931,90905
 2.1000e+000 91029 -5.8814e+000 -2.1582e+001 -1.5380e+000 42789 90801,90853,90827
 2.1000e+000 91006  3.9849e+000 -1.6319e+001 -5.1285e-001 42789 90853,90905,90879
 2.1000e+000 90983 -5.6232e+000 -2.1472e+001  6.8663e+000 42789 90775,90957,90931
 2.1000e+000 91427 -4.7362e+000 -3.0968e+001 -2.5555e+000 42227 91228,91280,91254
 2.1000e+000 91404  6.2446e+000 -2.8645e+001 -3.4793e+000 42227 91228,91306,91280
 2.1000e+000 91381 -8.6690e-001 -3.1137e+001 -1.6312e+000 42227 91202,91306,91228
 2.1000e+000 91358  1.4619e+001 -1.9880e+001 -1.1965e+001 42227 91202,91332,91306
 2.1000e+000 91675  2.2725e+001  1.0900e+001  6.9486e-001 41773 91698,91476,91450
 2.1000e+000 91652  2.1536e+001  8.8218e+000 -3.0857e-001 41773 91698,91450,91554
 2.1000e+000 91629  2.2581e+001  1.1428e+001 -9.7489e-001 41773 91450,91580,91554
 2.1000e+000 91606  2.5144e+001 -1.5601e-001 -2.2411e+000 41773 91502,91554,91528
 2.1000e+000 91724  2.3656e+001  1.0505e+001  2.5088e+000 41773 91502,91476,91698
 2.1000e+000 91747  2.2612e+001  8.4326e+000  1.5229e+000 41773 91502,91698,91554
 2.1000e+000 92127 -1.8736e+001 -4.5881e+001  1.4897e+000 41255 92150,91905,91879
 2.1000e+000 92104 -1.3759e+001 -4.2891e+001 -5.9702e-001 41255 92150,91879,91957
 2.1000e+000 92081 -2.0767e+001 -5.1984e+001  4.7537e+000 41255 91853,91957,91879
 2.1000e+000 92058 -2.0008e+001 -4.8889e+001 -1.1040e+000 41255 91853,91983,91957
 2.1000e+000 92035  3.4198e+001 -4.8494e+001 -5.4040e+000 41255 91853,92009,91983
 2.1000e+000 92176 -1.3895e+001 -4.9326e+001 -2.3511e+000 41255 91931,91905,92150
 2.1000e+000 92199 -5.5220e+000 -4.1603e+001 -5.8201e+000 41255 91931,92150,91957
 2.1000e+000 92518 -1.6958e+001 -5.6091e+001 -2.3445e+000 41007 92244,92374,92270
 2.1000e+000 92495 -3.3466e+001 -6.5659e+001  1.6863e+000 41007 92244,92400,92374
 2.1000e+000 92472 -1.2593e+001 -5.1565e+001 -1.8217e-001 41007 92270,92374,92348
 2.1000e+000 92449 -2.4050e+001 -4.9972e+001  4.5629e-001 41007 92296,92348,92322
 2.1000e+000 92426 -1.6640e+001 -4.7232e+001  7.1609e-001 41007 92270,92348,92296
 2.1000e+000 92668 -4.1817e+000 -3.3660e+001 -3.4430e+000 40717 92823,92691,92567
 2.1000e+000 92645 -8.7609e+000 -2.5523e+001 -3.6785e+000 40717 92895,92823,92567
 2.1000e+000 92717  1.4261e+001 -2.5583e+001 -1.6939e+000 40717 92593,92567,92691
 2.1000e+000 92849  6.6044e+000 -2.3992e+001 -7.8826e+000 40717 92619,92691,92823
 2.1000e+000 92872 -3.7009e+000 -2.3658e+001 -3.3374e+000 40717 92619,92823,92541
 2.1000e+000 92921 -4.7612e+000 -2.4955e+001 -2.6975e+000 40717 92541,92823,92895
 2.1000e+000 93634 -1.8548e+001 -4.4249e+001  1.3329e+000 40206 93366,93444,93418
 2.1000e+000 93611 -1.3173e+001 -2.5760e+001  1.9292e+000 40206 93288,93444,93366
 2.1000e+000 93588 -3.0044e+001 -4.5080e+001  9.7431e+000 40206 93288,93366,93314
 2.1000e+000 93565 -1.5922e+001 -2.8353e+001 -5.0449e-001 40206 93262,93444,93288
 2.1000e+000 93542 -5.5949e+000 -4.6858e+001 -1.4789e+000 40206 93366,93418,93392
 2.1000e+000 93519 -1.4870e+001 -2.8383e+001 -7.9008e-001 40206 93262,93470,93444
 2.1000e+000 93496 -1.1909e+001 -3.7417e+001  1.1373e+001 40206 93314,93366,93340
 2.1000e+000 94189  2.2606e+001  9.6048e+000  1.0239e+000 39802 93843,93999,93973
 2.1000e+000 94166  2.9102e+001  1.2572e+001  3.3087e-001 39802 93817,93999,93843
 2.1000e+000 94143  2.7994e+001  1.0910e+001 -3.6259e+000 39802 93869,93973,93947
 2.1000e+000 94120  2.3906e+001  6.6538e+000  8.5496e-001 39802 93843,93973,93869
 2.1000e+000 94097  1.7052e+001 -3.9682e+000  2.5959e+000 39802 93869,93921,93895
 2.1000e+000 94074  1.8741e+001 -6.0782e-001  3.8882e-001 39802 93869,93947,93921
 2.1000e+000 94051  1.9161e+001  1.2350e+001  3.9510e+000 39802 93817,94025,93999
 2.1000e+000 94290  2.1699e+001  1.0517e+001 -1.3142e+000 39398 94212,94264,94238
 2.1000e+000 94798 -7.3199e+000 -1.5392e+001 -1.7108e+000 38701 94501,94657,94631
 2.1000e+000 94775  7.8932e-001 -1.1469e+001 -2.6601e-001 38701 94475,94657,94501
 2.1000e+000 94752 -4.6111e+000 -1.7711e+001 -1.1449e+000 38701 94579,94631,94605
 2.1000e+000 94729 -8.8865e+000 -2.3452e+001 -3.7888e+000 38701 94553,94631,94579
 2.1000e+000 94706 -8.3268e+000 -2.2253e+001 -5.4826e-001 38701 94501,94631,94553
 2.1000e+000 94683 -3.3042e+000 -3.6587e+001 -5.5927e-001 38701 94501,94553,94527
 2.1000e+000 95255 -6.3378e-001 -1.5991e+001 -3.9520e+000 38247 95278,95085,95007
 2.1000e+000 95232  1.5612e+000 -1.7153e+001 -6.7864e+000 38247 95278,95007,95137
 2.1000e+000 95209  7.2317e+000 -2.7633e+000 -5.2593e+000 38247 94981,95137,95007
 2.1000e+000 95186  2.5139e+000 -1.7227e+001 -5.8944e+000 38247 95007,95059,95033
 2.1000e+000 95163  7.1038e+000 -7.2913e+000 -7.6959e+000 38247 95007,95085,95059
 2.1000e+000 95304 -3.2714e+000 -2.0342e+001 -1.7840e+000 38247 95111,95085,95278
 2.1000e+000 95327  5.0125e-002 -1.8226e+001 -5.0287e+000 38247 95111,95278,95137
 2.1000e+000 95575  2.0254e+001  8.3193e+000 -2.2707e-001 37564 95376,95428,95402
 2.1000e+000 95552  2.0576e+001  1.0290e+001 -4.4338e-001 37564 95376,95454,95428
 2.1000e+000 95529  2.1829e+001  1.1442e+001  5.9639e-001 37564 95376,95480,95454
 2.1000e+000 95506  2.2055e+001  6.7883e+000 -6.2971e-001 37564 95350,95480,95376
 2.1000e+000 96034 -2.5398e+001 -5.3490e+001  3.2485e+000 37224 95786,95838,95812
 2.1000e+000 96011 -2.1247e+001 -3.9819e+001  9.0050e-001 37224 95786,95890,95838
 2.1000e+000 95988 -1.9675e+001 -4.0147e+001  4.4087e-001 37224 95786,95916,95890
 2.1000e+000 95965 -1.0503e+000 -3.5284e+001  3.9746e+000 37224 95760,95916,95786
 2.1000e+000 95942 -1.0111e+001 -4.2843e+001 -6.9910e+000 37224 95838,95890,95864
 2.1000e+000 96363  1.9792e+001  4.3192e+000 -1.0856e-001 36884 96216,96268,96242
 2.1000e+000 96340  2.1823e+001  5.8548e+000  5.5636e-001 36884 96164,96268,96216
 2.1000e+000 96317  2.1779e+001  5.5232e+000  8.7149e-001 36884 96138,96268,96164
 2.1000e+000 96294  1.4829e+001 -7.1749e+000  5.7330e+000 36884 96164,96216,96190
 2.1000e+000 96839 -6.9727e+000 -3.4541e+001  5.5605e+000 36572 96862,96649,96597
 2.1000e+000 96816 -3.2309e+000 -2.5949e+001  3.8539e+000 36572 97006,96862,96597
 2.1000e+000 96793 -4.6093e+000 -3.0962e+001 -1.3155e+000 36572 96934,96467,96675
 2.1000e+000 96770 -5.3896e+000 -2.3522e+001  6.3720e-001 36572 97006,96597,96571
 2.1000e+000 96747 -1.3861e+001 -4.1750e+001 -1.3963e+000 36572 96467,96519,96493
 2.1000e+000 96724 -5.5438e+000 -2.4448e+001  3.3376e-001 36572 96519,96571,96545
 2.1000e+000 96701 -2.0663e+000 -1.8121e+001  4.3468e+000 36572 96597,96649,96623
 2.1000e+000 96888 -1.9295e+000 -3.4462e+001  2.5630e-001 36572 96675,96649,96862
 2.1000e+000 96911 -1.2048e+000 -3.2324e+001 -6.3140e-001 36572 96934,96675,96862
 2.1000e+000 96960 -8.8174e+000 -3.0654e+001 -1.0286e-001 36572 96519,96467,96934
 2.1000e+000 96983 -6.0288e+000 -3.4160e+001  1.6064e-002 36572 97078,96934,96862
 2.1000e+000 97032 -5.8069e+000 -3.2294e+001  2.6034e+000 36572 97078,96862,97006
 2.1000e+000 97055 -6.6804e+000 -2.7891e+001  7.6436e-001 36572 96519,97006,96571
 2.1000e+000 97104 -4.3731e+000 -3.0010e+001  7.7269e-001 36572 96519,96934,97078
 2.1000e+000 97127 -5.1828e+000 -2.8687e+001  2.8305e+000 36572 96519,97078,97006
 2.1000e+000 97761 -1.4379e+001 -3.4265e+001 -2.0044e+000 36118 97784,97493,97415
 2.1000e+000 97738 -1.0855e+001 -3.5855e+001  5.6781e-002 36118 97784,97415,97597
 2.1000e+000 97715 -7.0690e+000 -3.6024e+001 -2.4070e+000 36118 97389,97597,97415
 2.1000e+000 97692 -2.0250e+001 -3.2248e+001  4.4810e+000 36118 97415,97467,97441
 2.1000e+000 97669 -2.0350e+001 -2.9236e+001  3.3237e+000 36118 97415,97493,97467
 2.1000e+000 97646 -1.1460e+001 -3.0084e+001  1.3499e+000 36118 97493,97571,97519
 2.1000e+000 97623 -1.3732e+001 -3.1615e+001 -8.7373e-001 36118 97519,97571,97545
 2.1000e+000 97810 -1.1978e+001 -3.3497e+001 -3.3133e-001 36118 97571,97493,97784
 2.1000e+000 97833 -5.8684e+000 -3.3163e+001  1.9334e+000 36118 97571,97784,97597
 2.1000e+000 98081 -1.6933e+001 -4.4961e+001  4.3016e-001 35564 98104,97908,97856
 2.1000e+000 98058 -1.7239e+001 -4.2676e+001  9.7379e-001 35564 98104,97856,97986
 2.1000e+000 98035 -1.2155e+001 -3.4019e+001  1.4234e+000 35564 97934,97986,97960
 2.1000e+000 98012 -1.7571e+001 -4.7145e+001  2.0525e+000 35564 97856,97908,97882
 2.1000e+000 98130 -1.8917e+001 -5.2256e+001 -8.1903e-001 35564 97934,97908,98104
 2.1000e+000 98153 -1.5985e+001 -4.5073e+001  6.5244e-002 35564 97934,98104,97986
 2.1000e+000 98374 -3.0434e+001 -5.1223e+001  1.6134e+000 35152 98224,98302,98276
 2.1000e+000 98351 -2.8601e+001 -4.6960e+001  2.2447e+000 35152 98198,98302,98224
 2.1000e+000 98328 -4.2903e+001 -5.6869e+001  4.5399e+000 35152 98224,98276,98250
 2.1000e+000 98884  1.6276e+001 -9.4784e+000 -3.3082e+000 34698 98691,98743,98717
 2.1000e+000 98861  1.5434e+001 -1.2414e+001 -2.8410e+000 34698 98561,98743,98691
 2.1000e+000 98838  2.0525e+001 -6.3720e+000 -1.0766e+001 34698 98907,98587,98561
 2.1000e+000 98815  1.7061e+001 -8.4575e+000 -3.8159e+000 34698 98907,98561,98691
 2.1000e+000 98792 -3.9059e-001 -2.4330e+001 -7.2500e+000 34698 98587,98639,98613
 2.1000e+000 98769  3.1581e+000 -1.2920e+001 -5.8575e+000 34698 98587,98665,98639
 2.1000e+000 98933  1.5074e+001 -9.7609e+000 -8.2310e+000 34698 98665,98587,98907
 2.1000e+000 98956  9.5826e+000 -1.3710e+001 -8.7946e-001 34698 98665,98907,98691
 2.1000e+000 99204  2.3400e+001 -1.1751e+001  5.4362e-001 34144 99227,99031,99005
 2.1000e+000 99181  1.9308e+001 -1.0453e+001 -2.0753e+000 34144 99299,99227,99005
 2.1000e+000 99158  1.9447e+001 -1.0318e+001 -1.9394e+000 34144 99299,99005,99109
 2.1000e+000 99135  1.6526e+001 -8.5272e+000 -1.6159e+000 34144 98979,99109,99005
 2.1000e+000 99253  2.0361e+001 -1.4385e+001 -1.3086e+000 34144 99057,99031,99227
 2.1000e+000 99276  1.4828e+001 -1.1740e+001 -2.7361e+000 34144 99057,99227,99083
 2.1000e+000 99325  1.9226e+001 -1.0223e+001 -1.6114e+000 34144 99083,99227,99299
 2.1000e+000 99348  1.9809e+001 -9.9000e+000 -1.4265e+000 34144 99083,99299,99109
 2.1000e+000 99498  2.1719e+001 -1.9114e+000  2.7773e+000 33433 99397,99449,99423
 2.1000e+000 99475  2.0647e+001  1.0362e+000  1.6173e+000 33433 99371,99449,99397
 2.1000e+000 100008 -7.6920e+000 -2.0318e+001 -1.4318e+000 32979 100103,100031,99815
 2.1000e+000 99985 -5.8352e+000 -2.1056e+001 -1.5638e+000 32979 100175,100031,99763
 2.1000e+000 99962 -7.0522e+000 -2.1616e+001 -2.5538e+000 32979 100103,99815,99789
 2.1000e+000 99939 -8.8677e+000 -2.3511e+001  3.3017e-001 32979 100175,99763,99737
 2.1000e+000 99916 -7.1571e+000 -1.6195e+001  3.1113e+000 32979 99685,99867,99737
 2.1000e+000 99893 -1.4184e+001 -3.4922e+001  3.7798e+000 32979 99685,99737,99711
 2.1000e+000 100057 -9.9174e+000 -2.0891e+001 -2.3641e+000 32979 99841,99815,100031
 2.1000e+000 100080 -6.0786e+000 -1.0323e+001 -3.5155e+000 32979 99841,100031,99867
 2.1000e+000 100129 -6.6008e+000 -2.3097e+001 -1.7024e+000 32979 99763,100031,100103
 2.1000e+000 100152 -7.0309e+000 -2.5397e+001 -3.0845e+000 32979 99763,100103,99789
 2.1000e+000 100201 -1.0247e+001 -2.1290e+001 -3.7083e-001 32979 99867,100031,100175
 2.1000e+000 100224 -1.0983e+001 -2.1261e+001  1.0717e+000 32979 99867,100175,99737
 2.1000e+000 100553 -1.6937e+001 -4.1393e+001 -9.3250e-001 32503 100354,100406,100380
 2.1000e+000 100530 -1.8874e+001 -4.6310e+001  2.7553e+000 32503 100328,100406,100354
 2.1000e+000 100507 -1.7691e+001 -4.1154e+001  4.2335e+000 32503 100328,100458,100406
 2.1000e+000 100484 -2.0169e+001 -4.0102e+001  3.1540e+000 32503 100406,100458,100432
 2.1000e+000 100850 -2.3354e+001 -4.9107e+001 -1.4751e+000 31899 100873,100654,100628
 2.1000e+000 100827 -2.3665e+001 -4.7677e+001 -2.3331e-001 31899 100945,100873,100628
 2.1000e+000 100804 -2.5189e+001 -4.3054e+001 -7.7396e-001 31899 100945,100628,100602
 2.1000e+000 100781 -1.4099e+001 -3.6346e+001 -5.6796e+000 31899 100576,100732,100602
 2.1000e+000 100758 -2.6418e+001 -4.9925e+001 -2.4515e+000 31899 100654,100706,100680
 2.1000e+000 100899 -2.4207e+001 -4.5801e+001 -1.6399e+000 31899 100706,100654,100873
 2.1000e+000 100922 -2.4443e+001 -4.5649e+001 -1.9202e+000 31899 100706,100873,100732
 2.1000e+000 100971 -2.2874e+001 -4.1888e+001 -2.5772e+000 31899 100732,100873,100945
 2.1000e+000 100994 -2.4442e+001 -3.7115e+001 -2.9276e+000 31899 100732,100945,100602
 2.1000e+000 101551 -7.9596e+000 -1.7845e+001 -5.6978e+000 31338 101205,101387,101231
 2.1000e+000 101528  8.2548e+000 -1.1683e+001  1.1836e-001 31338 101179,101387,101205
 2.1000e+000 101505 -1.6736e+000 -1.6262e+001 -2.5828e+000 31338 101574,101309,101257
 2.1000e+000 101482 -7.8646e+000 -1.7090e+001 -3.3660e+000 31338 101646,101574,101257
 2.1000e+000 101459 -1.2410e+001 -1.8793e+001 -7.6096e+000 31338 101646,101257,101231
 2.1000e+000 101436  1.3641e+000 -2.8658e+001  1.2532e+000 31338 101309,101361,101335
 2.1000e+000 101413 -1.0211e+000 -1.6353e+001 -2.0654e+000 31338 101257,101309,101283
 2.1000e+000 101600 -2.5049e-001 -1.5923e+001 -3.3469e+000 31338 101361,101309,101574
 2.1000e+000 101623  9.1947e-002 -1.2548e+001 -3.4613e-001 31338 101361,101574,101387
 2.1000e+000 101672 -7.9917e-001 -1.5766e+001 -1.3846e+000 31338 101387,101574,101646
 2.1000e+000 101695 -5.2351e+000 -1.5378e+001 -4.6791e+000 31338 101387,101646,101231
 2.1000e+000 101943  2.0735e+001 -9.1082e+000 -1.4590e-001 30748 101966,101796,101744
 2.1000e+000 101920  2.2531e+001 -1.1325e+001 -4.6737e-001 30748 101966,101744,101718
 2.1000e+000 101897  1.8682e+001 -1.4454e+001  4.2366e+000 30748 101718,101848,101822
 2.1000e+000 101874  2.1944e+001 -1.2459e+001  3.8409e+000 30748 101744,101796,101770
 2.1000e+000 101992  2.0174e+001 -1.0580e+001  1.1851e-001 30748 101822,101796,101966
 2.1000e+000 102015  2.1494e+001 -1.3228e+001  9.4622e-002 30748 101822,101966,101718
 2.1000e+000 102493 -2.0277e+001 -3.7171e+001  3.9631e+000 30344 102516,102173,102147
 2.1000e+000 102470 -1.7012e+001 -3.4017e+001  1.4914e+000 30344 102660,102516,102147
 2.1000e+000 102447 -2.0450e+001 -3.3542e+001 -7.5885e-001 30344 102588,102199,102173
 2.1000e+000 102424 -1.2681e+001 -3.4770e+001  1.1454e+000 30344 102660,102147,102329
 2.1000e+000 102401 -8.9658e+000 -2.8450e+001 -1.5801e+000 30344 102199,102277,102251
 2.1000e+000 102378 -1.0880e+001 -2.1277e+001 -7.0359e+000 30344 102199,102251,102225
 2.1000e+000 102355 -1.3063e+001 -3.5353e+001 -8.5241e-001 30344 102121,102329,102147
 2.1000e+000 102542 -1.8502e+001 -3.6189e+001 -2.5614e-002 30344 102588,102173,102516
 2.1000e+000 102565 -1.5441e+001 -3.3373e+001  9.9926e-001 30344 102277,102516,102303
 2.1000e+000 102614 -1.8914e+001 -3.1989e+001 -1.3508e-001 30344 102277,102199,102588
 2.1000e+000 102637 -1.5681e+001 -3.2897e+001  1.1751e+000 30344 102277,102588,102516
 2.1000e+000 102686 -1.2136e+001 -3.3334e+001  3.5078e+000 30344 102303,102516,102660
 2.1000e+000 102709 -9.3796e+000 -3.5220e+001  3.3361e+000 30344 102303,102660,102329
 2.1000e+000 103294 -1.6358e+001 -3.5968e+001  1.1210e-002 29726 103317,103101,103075
 2.1000e+000 103271 -1.9201e+001 -3.7564e+001 -1.2747e+000 29726 103317,103075,102997
 2.1000e+000 103248 -1.9446e+001 -3.9629e+001 -1.0473e+000 29726 102971,103153,102997
 2.1000e+000 103225 -1.2209e+001 -3.4746e+001 -5.0007e+000 29726 103101,103153,103127
 2.1000e+000 103202 -2.1527e+001 -4.0861e+001 -1.8735e-001 29726 102997,103075,103023
 2.1000e+000 103179 -2.0359e+001 -3.7859e+001 -2.5213e+000 29726 103023,103075,103049
 2.1000e+000 103343 -1.4352e+001 -3.7843e+001 -4.0548e-002 29726 103153,103101,103317
 2.1000e+000 103366 -1.6301e+001 -3.8213e+001 -7.6605e-001 29726 103153,103317,102997
 2.1000e+000 103614 -8.5881e+000 -2.4201e+001  1.7002e-001 29200 103781,103637,103467
 2.1000e+000 103591 -1.3396e+001 -2.5119e+001  2.2589e+000 29200 103709,103637,103415
 2.1000e+000 103568 -1.5120e+001 -3.2255e+001  2.3066e+000 29200 103709,103415,103389
 2.1000e+000 103545 -8.4268e+000 -2.3668e+001 -2.0807e-001 29200 103781,103467,103441
 2.1000e+000 103663 -9.8069e+000 -2.8343e+001  3.5012e+000 29200 103853,103637,103493
 2.1000e+000 103686 -4.8772e+000 -1.6529e+001  6.1436e+000 29200 103493,103637,103519
 2.1000e+000 103735 -1.1644e+001 -3.2705e+001  6.0974e+000 29200 103519,103637,103709
 2.1000e+000 103758 -1.1939e+001 -3.7756e+001  6.2524e+000 29200 103519,103709,103389
 2.1000e+000 103807 -8.3838e+000 -2.5701e+001  1.1253e+000 29200 103415,103637,103781
 2.1000e+000 103830 -7.3418e+000 -2.4912e+001  5.0912e-001 29200 103415,103781,103441
 2.1000e+000 103879 -8.7916e+000 -2.5642e+001  2.9592e-001 29200 103467,103637,103853
 2.1000e+000 104545  8.3651e+000 -2.0125e+001 -5.7996e+000 28860 104274,104352,104326
 2.1000e+000 104522 -3.2191e+000 -1.7266e+001 -2.4012e+000 28860 104248,104352,104274
 2.1000e+000 104499 -6.2062e+000 -1.9535e+001 -6.4810e-001 28860 104248,104404,104352
 2.1000e+000 104476 -4.9565e+000 -1.5668e+001  6.4570e-001 28860 104222,104404,104248
 2.1000e+000 104453 -8.8774e-001 -1.0819e+001 -2.9125e+000 28860 104352,104404,104378
 2.1000e+000 104430 -9.1936e-001 -2.9453e+001 -1.2379e-001 28860 104274,104326,104300
 2.1000e+000 104744  1.2142e+001 -1.7201e+001 -3.9840e+000 28456 104839,104767,104646
 2.1000e+000 104721  3.4069e+000 -2.1479e+001 -4.1953e+000 28456 104767,104594,104568
 2.1000e+000 104698  2.1448e+001 -9.2550e+000 -4.3365e-002 28456 104839,104646,104620
 2.1000e+000 104793  7.2017e+000 -1.9185e+001 -3.6412e+000 28456 104672,104646,104767
 2.1000e+000 104816  1.0148e+001 -1.9674e+001 -1.5527e+000 28456 104911,104767,104568
 2.1000e+000 104865  1.1239e+001 -1.2154e+001 -7.7040e-001 28456 104594,104767,104839
 2.1000e+000 104888  1.7848e+001  6.2821e+000  4.2293e+000 28456 105041,104839,104620
 2.1000e+000 104937  1.0954e+001 -1.6855e+001 -1.4789e+000 28456 104672,104767,104911
 2.1000e+000 105067  2.1915e+000 -1.5222e+001 -2.7189e+000 28456 104594,104839,105041
 2.1000e+000 105573  1.7921e+001 -2.1482e+001 -3.4622e+000 28094 105812,105596,105328
 2.1000e+000 105550  1.2034e+001 -1.7067e+001  2.5010e+000 28094 105596,105276,105250
 2.1000e+000 105527  1.6388e+001 -1.5985e+001 -3.0240e+000 28094 105740,105668,105432
 2.1000e+000 105504  1.4370e+001 -1.6531e+001 -1.0289e+000 28094 105740,105432,105380
 2.1000e+000 105481  2.0604e+001 -2.3369e+001 -1.9848e+000 28094 105812,105328,105302
 2.1000e+000 105458  9.6491e+000 -2.3419e+001  1.4189e+000 28094 105380,105432,105406
 2.1000e+000 105622  3.2271e+001 -9.6212e+000 -1.0023e+001 28094 105354,105328,105596
 2.1000e+000 105645  1.6043e+001 -1.7620e+001 -2.0950e+000 28094 105668,105354,105596
 2.1000e+000 105694  1.7110e+001 -1.3526e+001 -3.2747e+000 28094 105250,105432,105668
 2.1000e+000 105717  1.8792e+001 -1.5599e+001 -8.1242e-001 28094 105250,105668,105596
 2.1000e+000 105766  1.2191e+001 -1.6764e+001 -1.2607e+000 28094 105354,105668,105740
 2.1000e+000 105789  1.0721e+001 -1.7675e+001  9.4745e-001 28094 105354,105740,105380
 2.1000e+000 105838  2.0383e+001 -1.7887e+001 -2.3491e+000 28094 105276,105596,105812
 2.1000e+000 105861  2.7403e+001 -1.8112e+001  1.6196e+000 28094 105276,105812,105302
 2.1000e+000 106367 -2.4175e+001 -4.2367e+001 -3.6534e-001 27390 106070,106122,106096
 2.1000e+000 106344 -2.2390e+001 -3.8280e+001 -1.2836e+000 27390 106070,106226,106122
 2.1000e+000 106321 -1.2173e+001 -3.6117e+001 -2.4390e-001 27390 106174,106226,106200
 2.1000e+000 106298 -1.9238e+001 -3.6149e+001  1.7605e+000 27390 106122,106226,106174
 2.1000e+000 106275 -1.9254e+001 -3.6117e+001  2.4884e+000 27390 106122,106174,106148
 2.1000e+000 106252 -2.3186e+001 -3.8093e+001  5.8555e-001 27390 106044,106226,106070
 2.1000e+000 106615 -2.4627e+001 -4.6288e+001  1.4919e+000 26978 106638,106494,106416
 2.1000e+000 106592 -2.5107e+001 -4.4443e+001  1.8572e+000 26978 106638,106416,106390
 2.1000e+000 106569 -2.9381e+001 -4.9080e+001 -6.2770e-001 26978 106416,106494,106442
 2.1000e+000 106546 -2.0809e+001 -5.1104e+001 -3.5335e+000 26978 106442,106494,106468
 2.1000e+000 106664 -2.4845e+001 -4.4225e+001  6.4559e-001 26978 106520,106494,106638
 2.1000e+000 106687 -2.5492e+001 -4.2616e+001  1.5902e+000 26978 106520,106638,106390
 2.1000e+000 106837  4.9021e+001 -1.6985e+001 -8.9022e+000 26524 106710,106762,106736
 2.1000e+000 106814  2.5939e+001 -1.8916e+001  1.3225e+000 26524 106710,106788,106762
 2.1000e+000 107426 -1.6284e+001 -2.9939e+001  2.8933e+000 26120 107129,107207,107155
 2.1000e+000 107403 -9.1632e+000 -2.0828e+001 -2.1247e-001 26120 107129,107285,107207
 2.1000e+000 107380 -1.1283e+001 -2.6257e+001 -2.3339e-001 26120 107207,107285,107259
 2.1000e+000 107357 -1.0974e+001 -2.6395e+001  3.2029e-001 26120 107155,107207,107181
 2.1000e+000 107334 -9.7122e+000 -1.9100e+001  3.4750e+000 26120 107103,107285,107129
 2.1000e+000 107311 -7.3718e+000 -3.0393e+001 -1.1163e+000 26120 107207,107259,107233
 2.1000e+000 107755  1.5823e+000 -2.5614e+001  3.5239e+000 25758 107556,107634,107608
 2.1000e+000 107732  1.9946e+001 -1.2666e+001 -2.6581e+000 25758 107556,107660,107634
 2.1000e+000 107709  1.3432e+000 -2.6912e+001  3.6646e+000 25758 107556,107608,107582
 2.1000e+000 107686  2.6021e+001 -1.0685e+001 -1.3943e+000 25758 107530,107660,107556
 2.1000e+000 108438 -5.4158e+000 -3.8947e+001 -3.4049e+000 25468 108121,108199,108173
 2.1000e+000 108415  3.7939e+000 -1.6181e+001 -2.4884e+000 25468 108095,108199,108121
 2.1000e+000 108392  2.2185e+000 -1.6453e+001 -3.0980e+000 25468 108095,108251,108199
 2.1000e+000 108369  3.8317e-001 -2.0189e+001 -2.4768e+000 25468 108069,108251,108095
 2.1000e+000 108346  3.5576e+000 -1.4364e+001 -1.0519e+001 25468 108199,108251,108225
 2.1000e+000 108323  1.0726e+000 -2.4466e+001 -1.4982e+000 25468 108017,108251,108069
 2.1000e+000 108300  6.8075e-001 -3.4873e+001 -3.9755e-002 25468 108121,108173,108147
 2.1000e+000 108277  1.4436e+000 -2.2621e+001 -1.3769e+000 25468 108017,108069,108043
 2.1000e+000 108588 -1.4836e+001 -3.0727e+001  6.3906e-001 25064 108611,108513,108487
 2.1000e+000 108565 -2.5342e+001 -3.2384e+001  1.1624e+000 25064 108683,108611,108487
 2.1000e+000 108637 -1.0285e+001 -3.0576e+001 -2.2255e+000 25064 108539,108513,108611
 2.1000e+000 108660 -1.3838e+001 -3.0360e+001 -1.3500e+000 25064 108539,108611,108461
 2.1000e+000 108709 -1.2144e+001 -2.6246e+001 -1.4471e+000 25064 108461,108611,108683
 2.1000e+000 109345 -8.2895e+000 -2.3065e+001  1.3387e+000 24410 108999,109155,109103
 2.1000e+000 109322 -2.5672e+000 -2.1300e+001  4.7829e-001 24410 108973,109155,108999
 2.1000e+000 109299 -6.2125e+000 -2.1426e+001  2.2061e+000 24410 109103,109155,109129
 2.1000e+000 109276  1.4010e+000 -3.0927e+001  4.1590e+000 24410 108973,109181,109155
 2.1000e+000 109253 -7.8460e+000 -2.4710e+001  2.6653e-001 24410 109025,109103,109077
 2.1000e+000 109230 -1.5451e+001 -2.5942e+001  2.9961e+000 24410 108999,109103,109025
 2.1000e+000 109207 -7.5505e+000 -3.0455e+001  2.0132e+000 24410 109025,109077,109051
 2.1000e+000 109723 -8.9910e+000 -2.5238e+001 -2.9752e-001 23856 109475,109579,109553
 2.1000e+000 109700 -7.1686e+000 -2.3252e+001 -1.1586e+000 23856 109475,109605,109579
 2.1000e+000 109677 -6.5213e+000 -1.9670e+001  2.3738e-001 23856 109475,109553,109527
 2.1000e+000 109654 -5.3380e+000 -2.2407e+001 -5.8902e+000 23856 109449,109605,109475
 2.1000e+000 109631 -8.8895e+000 -1.8905e+001  6.2585e-001 23856 109475,109527,109501
 2.1000e+000 110101 -1.0304e+001 -2.4533e+001 -1.3228e+000 23566 109853,109931,109879
 2.1000e+000 110078 -1.1947e+001 -2.5642e+001 -2.0292e+000 23566 109827,109931,109853
 2.1000e+000 110055 -1.1490e+001 -2.8596e+001 -1.5660e+000 23566 109827,109983,109931
 2.1000e+000 110032 -6.7374e+000 -2.4157e+001 -1.9627e+000 23566 109879,109931,109905
 2.1000e+000 110009 -1.1803e+001 -3.1552e+001  4.1687e-001 23566 109931,109983,109957
 2.1000e+000 110735 -2.3847e+001 -3.8399e+001  4.1148e-001 23162 110415,110571,110519
 2.1000e+000 110712 -2.8276e+001 -3.7857e+001 -1.1338e+000 23162 110389,110571,110415
 2.1000e+000 110689 -2.1156e+001 -3.6799e+001  2.2212e+000 23162 110415,110519,110493
 2.1000e+000 110666 -2.5776e+001 -3.6137e+001  8.4090e-002 23162 110363,110571,110389
 2.1000e+000 110643 -1.2284e+001 -3.0989e+001 -7.8912e-001 23162 110441,110493,110467
 2.1000e+000 110620 -2.1598e+001 -3.2824e+001  7.2530e-001 23162 110415,110493,110441
 2.1000e+000 110597 -2.5868e+001 -4.2520e+001  1.2030e+000 23162 110519,110571,110545
 2.1000e+000 111211  9.4840e+000 -2.1311e+001  1.4146e+000 22708 111378,111306,111021
 2.1000e+000 111188  1.3991e+001 -1.9931e+001  6.5256e-001 22708 111234,110969,110917
 2.1000e+000 111165  7.6726e+000 -2.3085e+001 -1.1501e+000 22708 111450,111234,110917
 2.1000e+000 111142  7.6231e+000 -2.4192e+001 -7.8431e-001 22708 111378,111021,110995
 2.1000e+000 111119  6.1670e+000 -2.0444e+001 -7.4213e+000 22708 111450,110917,110865
 2.1000e+000 111096  2.3365e+001 -2.5916e+001  4.8044e+000 22708 110917,110969,110943
 2.1000e+000 111073  7.5523e+000 -3.5219e+001 -1.3228e+001 22708 110865,110917,110891
 2.1000e+000 111260  1.2849e+001 -2.3789e+001  4.6464e-001 22708 111306,110969,111234
 2.1000e+000 111283  1.5345e+001 -1.7971e+001 -2.6734e+000 22708 111047,111234,110839
 2.1000e+000 111332  2.9536e+001 -2.9170e+001  1.4601e+001 22708 111047,111021,111306
 2.1000e+000 111355  1.7477e+001 -2.1190e+001 -3.1548e+000 22708 111047,111306,111234
 2.1000e+000 111404  1.2666e+001 -2.5399e+001  1.4680e+000 22708 110969,111306,111378
 2.1000e+000 111427  1.2046e+001 -2.4286e+001  8.4466e-001 22708 110969,111378,110995
 2.1000e+000 111476  1.6193e+001 -1.8205e+001 -3.1935e+000 22708 110839,111234,111450
 2.1000e+000 111499  1.7073e+001 -1.4065e+001 -1.0040e+001 22708 110839,111450,110865
 2.1000e+000 111600 -2.6727e+001 -4.5847e+001  4.8610e+000 22460 111522,111574,111548
 2.1000e+000 112059 -2.1359e+001 -3.4875e+001 -3.4524e-001 22056 111811,111889,111863
 2.1000e+000 112036 -2.0609e+001 -3.5291e+001 -2.5215e-001 22056 111811,111915,111889
 2.1000e+000 112013 -1.6351e+001 -3.4918e+001 -1.5918e+000 22056 111785,111915,111811
 2.1000e+000 111990 -1.9208e+001 -3.4293e+001 -3.1218e+000 22056 111785,111941,111915
 2.1000e+000 111967 -1.9965e+001 -3.4788e+001 -1.1904e+000 22056 111811,111863,111837
 2.1000e+000 112486 -2.6390e+001 -4.1923e+001 -2.7242e-001 21594 112509,112267,112215
 2.1000e+000 112463 -2.7244e+001 -4.2524e+001  1.1072e+000 21594 112509,112215,112163
 2.1000e+000 112440 -2.7709e+001 -4.4142e+001  2.9365e-001 21594 112581,112293,112267
 2.1000e+000 112417 -2.7996e+001 -4.3765e+001  4.0355e-001 21594 112215,112267,112241
 2.1000e+000 112394 -2.2208e+001 -3.3814e+001 -3.4094e-001 21594 112163,112345,112319
 2.1000e+000 112371 -2.7925e+001 -3.7173e+001 -1.2830e+000 21594 112163,112215,112189
 2.1000e+000 112535 -2.7389e+001 -4.3758e+001  4.4896e-001 21594 112581,112267,112509
 2.1000e+000 112558 -2.6743e+001 -3.7584e+001  1.4011e+000 21594 112319,112509,112163
 2.1000e+000 112607 -2.9857e+001 -4.3692e+001 -1.4069e+000 21594 112319,112293,112581
 2.1000e+000 112630 -2.8350e+001 -4.1157e+001 -7.7293e-001 21594 112319,112581,112509
 2.1000e+000 112900  1.5993e+001 -1.9461e+001  9.4171e-001 20974 112675,112779,112701
 2.1000e+000 112877  1.6560e+001 -2.2893e+001  2.8253e+000 20974 112675,112805,112779
 2.1000e+000 112854  2.1327e+001 -1.1008e+001  3.7932e+000 20974 112701,112779,112753
 2.1000e+000 112831  3.2143e+001  1.2960e+001 -9.7703e+000 20974 112701,112753,112727
 2.1000e+000 113359 -4.4683e+000 -2.5083e+001 -5.0396e+000 20520 113454,113137,113111
 2.1000e+000 113336 -1.0599e-001 -2.1887e+001 -3.5887e+000 20520 113454,113111,113085
 2.1000e+000 113313  6.1317e+000 -1.4013e+001  2.9115e+000 20520 113382,113163,113137
 2.1000e+000 113290 -1.1238e+000 -2.3484e+001 -1.3532e+000 20520 113526,113382,113137
 2.1000e+000 113267 -7.7350e-001 -3.4956e+001 -1.0042e+000 20520 113189,113241,113215
 2.1000e+000 113408  1.5941e+000 -2.2934e+001 -1.1181e+000 20520 113189,113163,113382
 2.1000e+000 113431  1.3306e+000 -2.4543e+001 -4.0271e+000 20520 113189,113382,113241
 2.1000e+000 113480 -3.0950e+000 -2.2885e+001 -2.4483e+000 20520 113526,113137,113454
 2.1000e+000 113503 -1.0175e+000 -2.2117e+001 -2.8729e+000 20520 113241,113454,113085
 2.1000e+000 113552  2.4729e+000 -2.3055e+001 -1.7800e+000 20520 113241,113382,113526
 2.1000e+000 113575  1.1234e+000 -2.1933e+001 -2.6652e+000 20520 113241,113526,113454
 2.1000e+000 113904 -8.8098e+000 -2.1972e+001  4.4937e-001 19858 113705,113783,113757
 2.1000e+000 113881 -8.3982e+000 -2.2990e+001  3.6736e-001 19858 113705,113809,113783
 2.1000e+000 113858 -7.2822e+000 -2.2717e+001  1.0770e+000 19858 113679,113809,113705
 2.1000e+000 113835 -9.9331e+000 -2.3168e+001  2.6081e+000 19858 113705,113757,113731
 2.1000e+000 114152 -1.3971e+001 -3.0689e+001 -8.7410e-003 19454 114175,114005,113979
 2.1000e+000 114129 -1.3684e+001 -3.1406e+001  4.5842e-002 19454 114175,113979,114057
 2.1000e+000 114106 -1.9272e+001 -4.2603e+001  3.3256e+000 19454 113927,114057,113979
 2.1000e+000 114083 -1.1435e+001 -2.8594e+001  2.2143e-001 19454 113927,113979,113953
 2.1000e+000 114201 -1.8316e+001 -3.2677e+001  2.6320e+000 19454 114031,114005,114175
 2.1000e+000 114224 -1.3634e+001 -3.1680e+001  9.6259e-002 19454 114031,114175,114057
 2.1000e+000 114472 -1.4569e+001 -2.7689e+001 -4.4993e-001 19000 114495,114273,114247
 2.1000e+000 114449 -1.4853e+001 -2.8059e+001 -5.8427e-001 19000 114495,114247,114325
 2.1000e+000 114426 -1.5703e+001 -2.8246e+001  1.3819e-001 19000 114247,114377,114325
 2.1000e+000 114403 -1.6325e+001 -3.1111e+001  1.9679e+000 19000 114325,114377,114351
 2.1000e+000 114521 -1.3519e+001 -2.7399e+001  3.0302e-001 19000 114299,114273,114495
 2.1000e+000 114544 -1.4560e+001 -2.8700e+001 -1.6549e-001 19000 114299,114495,114325
 2.1000e+000 114948 -4.9101e+000 -2.1422e+001  5.1308e-001 18560 114674,114726,114700
 2.1000e+000 114925 -2.1355e+000 -1.8611e+001 -6.6811e-001 18560 114674,114830,114726
 2.1000e+000 114902 -1.0077e+000 -1.5769e+001  3.3458e-001 18560 114726,114830,114804
 2.1000e+000 114879 -6.5130e+000 -2.7235e+001 -2.5999e+000 18560 114726,114804,114752
 2.1000e+000 114856  1.3846e+001 -2.9829e+001 -8.3402e+000 18560 114752,114804,114778
 2.1000e+000 115098 -2.9468e+001 -4.0879e+001 -3.0674e+000 18156 114971,115023,114997
 2.1000e+000 115075 -3.1414e+001 -3.6582e+001 -2.3863e+000 18156 114971,115049,115023
 2.1000e+000 115248 -1.4547e+001 -2.9430e+001  2.0791e-001 17602 115147,115199,115173
 2.1000e+000 115225 -7.7010e+000 -3.4002e+001 -1.6320e+000 17602 115121,115199,115147
 2.1000e+000 115652 -2.0445e+001 -3.4522e+001  1.0289e+000 17354 115430,115534,115508
 2.1000e+000 115629 -1.7936e+001 -3.6873e+001  6.1679e-001 17354 115404,115534,115430
 2.1000e+000 115606 -1.2887e+001 -3.2027e+001  7.4221e+000 17354 115378,115534,115404
 2.1000e+000 115583 -2.8502e+001 -3.3611e+001  6.9519e-001 17354 115456,115508,115482
 2.1000e+000 115560 -2.1432e+001 -3.5352e+001 -4.3084e-001 17354 115430,115508,115456
 2.1000e+000 115873  1.4677e+001 -2.5898e+001 -2.9814e+000 16950 115749,115801,115775
 2.1000e+000 115850  9.5034e+000 -3.2811e+001 -5.9658e+000 16950 115697,115801,115749
 2.1000e+000 115827  1.5544e+001 -2.0023e+001 -4.0977e+000 16950 115697,115749,115723
 2.1000e+000 116023 -1.0168e+001 -2.6307e+001 -2.8774e+000 16496 115922,115974,115948
 2.1000e+000 116000 -5.3713e+000 -2.4863e+001 -2.1074e+000 16496 115896,115974,115922
 2.1000e+000 116126 -2.4435e+001 -4.8629e+001  5.0830e-001 16298 116048,116100,116074
 2.1000e+000 116278  3.0778e+001 -3.0966e+001 -2.4255e+000 15892 116151,116203,116177
 2.1000e+000 116255  9.0028e+000 -6.6916e+001  8.5684e+000 15892 116151,116229,116203
 2.1000e+000 116430 -2.5010e+001 -4.2418e+001 -1.2933e-001 15545 116303,116355,116329
 2.1000e+000 116407 -2.7250e+001 -4.9085e+001 -3.3113e+000 15545 116303,116381,116355
 2.1000e+000 116785  9.8567e+000 -1.1483e+001  2.9474e+000 421 116612,116690,116664
 2.1000e+000 116762  5.1487e+000 -2.2522e+001  1.0373e+000 421 116560,116690,116612
 2.1000e+000 116739 -8.1956e+000 -2.9626e+001  4.4233e+000 421 116560,116612,116586
 2.1000e+000 116716 -2.3072e+000 -3.2738e+001 -2.9964e+000 421 116612,116664,116638
 2.2000e+000 68048 -1.4334e+001 -1.0665e+002 -6.0397e+000 67642 67898,67950,67924
 2.2000e+000 68025 -2.5355e+001 -1.1509e+002  1.0342e+000 67642 67898,67976,67950
 2.2000e+000 68002 -1.4915e+001 -1.1383e+002  7.3896e+000 67642 67872,67976,67898
 2.2000e+000 68367  2.3711e+001  5.5865e+000  1.2514e+001 67444 68119,68223,68197
 2.2000e+000 68344  1.0068e+001 -4.9464e+001  1.3155e+001 67444 68119,68249,68223
 2.2000e+000 68321 -2.2504e+001 -5.5157e+001 -2.6431e-001 67444 68093,68249,68119
 2.2000e+000 68298  6.6066e+000 -3.3037e+001  8.9974e+000 67444 68119,68197,68171
 2.2000e+000 68275 -8.2136e+000 -3.3003e+001  1.0546e+001 67444 68119,68171,68145
 2.2000e+000 68468 -7.0713e+000 -7.5172e+001  7.0610e+000 67268 68390,68442,68416
 2.2000e+000 68765 -5.8441e+000 -6.3039e+001  6.9062e-001 66956 68788,68517,68491
 2.2000e+000 68742 -1.9422e+001 -6.6590e+001 -2.6075e+000 66956 68788,68491,68621
 2.2000e+000 68719  6.4063e+000 -5.6246e+001 -3.4866e+001 66956 68543,68621,68569
 2.2000e+000 68696 -2.5854e+001 -6.7517e+001  9.0593e+000 66956 68491,68647,68621
 2.2000e+000 68673 -2.4716e+001 -7.7289e+001 -4.4579e+001 66956 68569,68621,68595
 2.2000e+000 68814  1.0114e+001 -6.7707e+001  1.7978e+000 66956 68543,68517,68788
 2.2000e+000 68837 -6.7815e+000 -7.3707e+001 -1.7939e+000 66956 68543,68788,68621
 2.2000e+000 69107  4.0387e+001 -3.4056e+001 -3.3098e+000 66758 68882,68986,68908
 2.2000e+000 69084 -1.9991e+001 -5.5094e+001  1.0862e-001 66758 68882,69012,68986
 2.2000e+000 69061  7.0665e+001 -8.8232e-001 -1.3302e+000 66758 68908,68960,68934
 2.2000e+000 69038  5.3832e+001 -1.9972e+001 -9.2361e+000 66758 68908,68986,68960
 2.2000e+000 69308  7.2226e+001  3.1726e+000 -2.7348e+001 66560 69331,69184,69158
 2.2000e+000 69285  2.6803e+001 -1.4554e+001 -3.8620e+001 66560 69331,69158,69132
 2.2000e+000 69262  9.3049e+001 -1.0875e+001  6.2286e+000 66560 69184,69236,69210
 2.2000e+000 69357  1.1193e+002 -1.9853e+001 -1.8595e+001 66560 69236,69184,69331
 2.2000e+000 69380  8.1631e+001 -3.0135e+001 -3.2434e+001 66560 69236,69331,69132
 2.2000e+000 69554  4.6976e+001 -4.7015e+000  2.3847e+000 66270 69427,69479,69453
 2.2000e+000 69531  5.0837e+001  4.3227e+000  4.1650e+000 66270 69427,69505,69479
 2.2000e+000 69804  3.2731e+000 -1.9417e+001  2.2070e+001 66066 69579,69683,69657
 2.2000e+000 69781  4.0001e+000 -1.7408e+001  4.2955e+000 66066 69579,69709,69683
 2.2000e+000 69758  2.6640e+001 -8.2826e+000  1.0689e+001 66066 69579,69657,69631
 2.2000e+000 69735  1.7935e+001 -2.1164e+001 -1.1232e+001 66066 69579,69631,69605
 2.2000e+000 70257  2.9220e+001 -8.3861e-001 -1.1034e+000 65776 69960,70090,69986
 2.2000e+000 70234  2.5647e+001 -1.0859e+001 -5.1261e-001 65776 69934,70090,69960
 2.2000e+000 70211  7.6099e+000 -1.7082e+001 -4.9096e-001 65776 69934,70116,70090
 2.2000e+000 70188  2.6861e+001 -1.3250e+001  0.0000e+000 65776 70038,70090,70064
 2.2000e+000 70165  2.3479e+001 -1.4764e+001  3.7246e-001 65776 69986,70090,70038
 2.2000e+000 70142  3.0678e+001 -1.1254e+001  2.3993e+000 65776 69986,70038,70012
 2.2000e+000 70456 -1.6458e+001  1.2349e+001 -3.1363e+000 65372 70479,70306,70280
 2.2000e+000 70433  1.3105e+001 -2.3479e+001 -3.3985e+001 65372 70479,70280,70384
 2.2000e+000 70410  2.8928e+001  1.7424e+001  9.1239e+000 65372 70551,70332,70306
 2.2000e+000 70505  1.7174e+001  2.7146e+001 -8.0005e-001 65372 70551,70306,70479
 2.2000e+000 70528  6.5193e+001 -9.5032e-001 -2.6255e+001 65372 70358,70479,70384
 2.2000e+000 70577  1.7130e+001  1.2865e+000  3.7877e+000 65372 70358,70332,70551
 2.2000e+000 70600  4.4254e+000  7.4345e+000 -6.3024e+000 65372 70358,70551,70479
 2.2000e+000 70821  4.9009e+001 -8.8801e+001 -7.7019e+000 65174 70645,70723,70671
 2.2000e+000 70798 -5.0056e+001 -1.2553e+002  7.1911e-001 65174 70645,70749,70723
 2.2000e+000 70775  7.1805e+001 -6.3165e+001 -1.7290e+001 65174 70671,70723,70697
 2.2000e+000 71071 -3.3298e+000 -3.3615e+001 -2.7761e+001 64770 71094,70898,70872
 2.2000e+000 71048 -2.6910e+000 -3.7764e+001 -1.5447e+001 64770 71166,71094,70872
 2.2000e+000 71025 -1.5453e+001 -4.6111e+001 -1.9136e+001 64770 71166,70872,70846
 2.2000e+000 71002 -9.3072e+000 -6.7555e+000 -7.3651e+000 64770 70898,70950,70924
 2.2000e+000 71120  1.3937e+000 -2.5876e+001 -2.5732e+001 64770 70950,70898,71094
 2.2000e+000 71143  4.0251e+001 -3.3126e+001 -1.6002e+001 64770 70950,71094,70976
 2.2000e+000 71192  7.8909e+000 -5.3184e+001 -2.6124e+001 64770 70976,71094,71166
 2.2000e+000 71215  8.7644e-001 -5.7269e+001 -2.8190e+001 64770 70976,71166,70846
 2.2000e+000 71514  2.6990e+001 -1.6380e+001 -9.2530e+000 64572 71681,71537,71318
 2.2000e+000 71491  1.2316e+000 -2.0752e+001  3.2640e-001 64572 71537,71266,71240
 2.2000e+000 71468  3.6578e+001  5.4975e+000  1.1788e+001 64572 71609,71396,71370
 2.2000e+000 71445  2.5001e+001 -1.4263e+001 -1.0109e+001 64572 71681,71318,71292
 2.2000e+000 71422  1.6612e+001 -4.0418e+001 -1.2608e+001 64572 71753,71344,71318
 2.2000e+000 71563  2.6339e+001 -2.0318e+001 -9.6714e+000 64572 71753,71318,71537
 2.2000e+000 71586  2.7461e+001  1.1181e+001  3.1961e+000 64572 71609,71370,71537
 2.2000e+000 71635  3.2225e+001 -1.1920e+001  6.9764e-001 64572 71240,71396,71609
 2.2000e+000 71658  1.7392e+001 -2.0184e+000 -6.8316e+000 64572 71240,71609,71537
 2.2000e+000 71707  2.3940e+001 -1.7910e+001 -1.0550e+001 64572 71266,71537,71681
 2.2000e+000 71730  1.9466e+001 -1.7733e+001 -1.1834e+001 64572 71266,71681,71292
 2.2000e+000 71779  1.6646e+001 -1.3393e+001 -1.4586e+001 64572 71370,71344,71753
 2.2000e+000 71802  1.6211e+001 -1.1094e+001 -1.4750e+001 64572 71370,71753,71537
 2.2000e+000 72052  8.7797e+000 -4.0757e+001  1.0127e+001 64374 72075,71879,71827
 2.2000e+000 72029  3.4191e+001 -2.7714e+001  4.9051e+000 64374 72147,72075,71827
 2.2000e+000 72006  4.8381e+001 -3.2784e+001 -3.6849e+000 64374 72147,71827,71957
 2.2000e+000 71983  1.4432e+001 -4.1145e+001  6.4543e+000 64374 71827,71879,71853
 2.2000e+000 72101  1.4511e+001 -6.3066e+001  3.0615e+001 64374 71905,71879,72075
 2.2000e+000 72124  5.7535e+001 -4.1070e+001  2.2962e+001 64374 71905,72075,71931
 2.2000e+000 72173  2.2510e+001 -4.2963e+001  1.0491e+001 64374 71931,72075,72147
 2.2000e+000 72196  3.2025e+001 -5.0623e+001  3.1608e+000 64374 71931,72147,71957
 2.2000e+000 72649  2.7782e+001  5.3753e+000 -9.2881e-001 63948 72352,72508,72482
 2.2000e+000 72626  3.2255e+001  1.3395e+001  7.0908e+000 63948 72326,72508,72352
 2.2000e+000 72603  2.2119e+001 -8.2007e+000  7.1763e+000 63948 72672,72430,72378
 2.2000e+000 72580  2.5160e+001  1.8045e+000  3.8559e+000 63948 72672,72378,72352
 2.2000e+000 72557  3.1464e+001 -1.9663e+001  4.6051e+000 63948 72744,72456,72430
 2.2000e+000 72534  1.6887e+001 -3.3367e+001 -3.6514e+000 63948 72378,72430,72404
 2.2000e+000 72698  2.2148e+001 -1.5321e+001  7.9906e+000 63948 72744,72430,72672
 2.2000e+000 72721  2.0371e+001 -9.2214e+000  3.2364e+000 63948 72482,72672,72352
 2.2000e+000 72770  3.6338e+001 -1.5026e+001  2.6826e+000 63948 72482,72456,72744
 2.2000e+000 72793  3.0450e+001 -4.9629e+000  4.3091e+000 63948 72482,72744,72672
 2.2000e+000 72894 -7.4160e+000 -2.8644e+001 -4.0633e+000 63494 72816,72868,72842
 2.2000e+000 73093  1.9036e+001  2.8963e+000 -9.2288e+000 63132 72943,72995,72969
 2.2000e+000 73070  3.8710e+000  2.0962e-001 -1.4889e+000 63132 72943,73021,72995
 2.2000e+000 73047  4.8093e+000  2.8478e+000 -1.3330e+000 63132 72917,73021,72943
 2.2000e+000 73294  2.0890e+000  1.3570e+001  8.8409e+000 62792 73317,73144,73118
 2.2000e+000 73271  3.2638e+000  1.3403e+001  3.9251e+000 62792 73317,73118,73222
 2.2000e+000 73248  5.0278e+000  1.4197e+001  8.3572e+000 62792 73144,73196,73170
 2.2000e+000 73343  7.5726e+000  1.4747e+001  8.2090e+000 62792 73196,73144,73317
 2.2000e+000 73366  8.6152e+000  1.4967e+001  3.0260e+000 62792 73196,73317,73222
 2.2000e+000 73616  1.8750e+000 -9.2364e+000  1.5394e+001 62388 73639,73417,73391
 2.2000e+000 73593  6.1161e+000 -8.5582e-001  7.7111e+000 62388 73711,73639,73391
 2.2000e+000 73570  8.8961e+000  9.7065e-001  6.5828e+000 62388 73711,73391,73521
 2.2000e+000 73547  9.3485e+000 -1.5654e+001 -8.0875e-002 62388 73469,73521,73495
 2.2000e+000 73665  1.5828e+001 -4.4847e+000  7.4353e+000 62388 73443,73417,73639
 2.2000e+000 73688  8.7616e+000  4.0893e+000  3.6844e+000 62388 73443,73639,73469
 2.2000e+000 73737  9.4320e+000 -1.7213e+000  7.9077e+000 62388 73469,73639,73711
 2.2000e+000 73760  1.0173e+001 -1.9184e+000  7.6271e+000 62388 73469,73711,73521
 2.2000e+000 74010  2.9920e+001  3.6213e+000 -3.0228e+001 61848 74033,73837,73811
 2.2000e+000 73987  4.5291e+001  2.3195e+001 -5.0335e+001 61848 74033,73811,73785
 2.2000e+000 73964  6.5189e+001  2.5459e+001 -6.9325e+000 61848 73837,73915,73889
 2.2000e+000 73941  3.7316e+001  1.2837e+001 -2.0312e+001 61848 73837,73889,73863
 2.2000e+000 74059  2.8839e+001 -2.5239e+000 -3.1202e+001 61848 73915,73837,74033
 2.2000e+000 74082  3.0413e+001 -1.2396e+001 -3.7813e+001 61848 73915,74033,73785
 2.2000e+000 74283  3.8256e+001  1.0424e+001  9.1099e+000 61444 74306,74133,74107
 2.2000e+000 74260  4.2429e+001  2.9574e+001  2.0257e+001 61444 74306,74107,74211
 2.2000e+000 74237  3.1344e+001  4.7335e+001  3.1376e+000 61444 74378,74185,74159
 2.2000e+000 74332  3.2255e+001  7.4181e+000 -1.5442e+000 61444 74159,74133,74306
 2.2000e+000 74355  4.0980e+001  2.4885e+001  7.4717e+000 61444 74378,74159,74306
 2.2000e+000 74404  2.6196e+001  2.3535e+001  1.1843e+001 61444 74211,74185,74378
 2.2000e+000 74427  3.1266e+001  1.6289e+001  1.1257e+001 61444 74211,74378,74306
 2.2000e+000 74628  3.4756e+001 -4.4226e+000  1.0405e+001 60990 74478,74530,74504
 2.2000e+000 74605  1.3296e-001 -8.6213e-001  2.2838e+001 60990 74452,74530,74478
 2.2000e+000 74582  8.1436e+000  2.1645e+001  1.2234e+001 60990 74452,74556,74530
 2.2000e+000 75089  3.3207e+001  1.5872e+001 -2.3540e+001 60486 75112,74945,74919
 2.2000e+000 75066  9.9213e+000 -3.2030e+000 -6.0891e+000 60486 75112,74919,74867
 2.2000e+000 75043 -1.9143e+001 -9.0529e+000 -3.5977e+000 60486 74841,74971,74867
 2.2000e+000 75020  5.2796e+000  1.1383e+001 -2.8936e+001 60486 74867,74919,74893
 2.2000e+000 74997 -1.6182e+000  2.5400e-001 -3.6151e-002 60486 74815,74971,74841
 2.2000e+000 75138  4.7124e+000  9.5424e+000 -1.1187e+001 60486 74971,74945,75112
 2.2000e+000 75161 -6.2305e+000  7.6315e+000  2.7361e+000 60486 74971,75112,74867
 2.2000e+000 75409  4.1694e+001  2.4233e+001 -2.8036e+000 59932 75576,75432,75288
 2.2000e+000 75386  3.6712e+001  3.3855e+001 -2.0317e+001 59932 75504,75314,75288
 2.2000e+000 75363  5.2626e+001  5.7229e+001 -7.1013e-001 59932 75432,75236,75210
 2.2000e+000 75340  4.2233e+001  3.2985e+001  6.3288e+000 59932 75576,75288,75262
 2.2000e+000 75458  3.8781e+001  2.9476e+001 -1.8977e+001 59932 75504,75288,75432
 2.2000e+000 75481  4.5355e+001  4.4261e+001 -1.4763e+001 59932 75184,75432,75210
 2.2000e+000 75530  4.0472e+001  6.4260e+001 -1.6877e+001 59932 75184,75314,75504
 2.2000e+000 75553  4.2212e+001  3.4328e+001 -1.7388e+001 59932 75184,75504,75432
 2.2000e+000 75602  4.2238e+001  4.0756e+001 -5.2121e+000 59932 75236,75432,75576
 2.2000e+000 75625  3.6951e+001  4.4684e+001 -1.9519e+000 59932 75236,75576,75262
 2.2000e+000 75873  2.6318e+001 -1.9787e+001  3.9509e+000 59478 75674,75752,75700
 2.2000e+000 75850 -5.2709e+000 -3.2841e+001  1.6511e+001 59478 75648,75752,75674
 2.2000e+000 75827  2.2252e+001 -2.1485e+001  3.2928e+000 59478 75700,75752,75726
 2.2000e+000 75804 -1.6943e+000 -2.0934e+001  1.2999e+001 59478 75648,75778,75752
 2.2000e+000 76206  1.1408e+001 -8.3636e+000  3.7277e+000 59024 75981,76059,76007
 2.2000e+000 76183  2.8941e+001 -1.9234e+001  4.2461e+000 59024 75981,76111,76059
 2.2000e+000 76160  4.5732e+001  1.1868e+001 -4.6014e+000 59024 76007,76059,76033
 2.2000e+000 76137  3.7984e+001  1.1445e+000  5.9056e+000 59024 76059,76111,76085
 2.2000e+000 76761 -4.5567e+000 -3.7644e+000 -4.6947e+000 58562 76389,76441,76415
 2.2000e+000 76738 -1.3275e+001 -4.5202e+000 -6.2994e-001 58562 76856,76784,76389
 2.2000e+000 76715 -1.3406e+001 -1.3020e+001 -1.2185e+001 58562 76784,76571,76467
 2.2000e+000 76692 -3.2764e+000  3.1120e+000 -3.9602e+000 58562 76856,76389,76597
 2.2000e+000 76669 -2.4159e+001 -6.7351e+001  1.4653e+001 58562 76467,76545,76493
 2.2000e+000 76646 -1.1008e+001 -4.3610e+001 -2.2256e+001 58562 76467,76571,76545
 2.2000e+000 76623  2.2481e+001 -5.2857e+001  1.8822e+001 58562 76493,76545,76519
 2.2000e+000 76810 -8.9980e+000 -1.6795e+001 -7.0471e+000 58562 76441,76389,76784
 2.2000e+000 76833 -3.6241e+001 -4.8522e+001 -3.2554e+001 58562 76441,76784,76467
 2.2000e+000 76882 -1.0813e+000 -1.4003e+001  4.8118e+000 58562 76571,76784,76856
 2.2000e+000 76905  2.8107e+000 -1.0504e+001  3.3393e+000 58562 76571,76856,76597
 2.2000e+000 77055  4.3334e+000 -3.7446e+001 -1.1991e+000 57844 76928,76980,76954
 2.2000e+000 77032  1.2243e+001 -1.3324e+001 -6.7139e+000 57844 76928,77006,76980
 2.2000e+000 77533  1.2004e+001 -7.8578e+001 -2.9042e+000 57226 77628,77556,77291
 2.2000e+000 77510  1.6447e+001 -1.6786e+001  5.6980e+000 57226 77556,77187,77343
 2.2000e+000 77487  3.8360e+000 -5.3017e+001 -8.9617e+000 57226 77628,77291,77265
 2.2000e+000 77464 -1.3950e+001 -9.8814e+001  2.0828e+001 57226 77700,77213,77187
 2.2000e+000 77441  1.5689e+001 -2.5859e+001 -7.4295e+000 57226 77161,77343,77187
 2.2000e+000 77418  1.7505e+001  1.8191e+001 -2.4325e+001 57226 77161,77369,77343
 2.2000e+000 77395 -3.0691e+001 -1.7390e+001 -3.1604e+000 57226 77213,77265,77239
 2.2000e+000 77582  1.7806e+001 -5.4000e+001  1.1446e+001 57226 77317,77291,77556
 2.2000e+000 77605  2.5967e+001 -5.2113e+001  1.0307e+001 57226 77317,77556,77343
 2.2000e+000 77654  1.0628e+001 -4.8911e+001  1.6581e+001 57226 77187,77556,77628
 2.2000e+000 77677 -8.8298e+000 -8.8729e+001  2.2666e+001 57226 77700,77187,77628
 2.2000e+000 77726 -3.1644e+001 -1.0980e+002 -2.0737e+001 57226 77265,77213,77700
 2.2000e+000 77749 -1.4575e+001 -7.2739e+001 -1.6595e+001 57226 77265,77700,77628
 2.2000e+000 78046 -1.7516e+001 -4.9554e+001  2.3835e+001 56936 77798,77850,77824
 2.2000e+000 78023 -1.3676e+001 -4.7286e+001  1.6093e+001 56936 78069,77798,77902
 2.2000e+000 78000 -3.0090e+000 -5.9884e+001  1.6158e+001 56936 78069,77902,77876
 2.2000e+000 77977 -3.3288e+001 -5.6143e+001  1.3485e+001 56936 77798,77928,77902
 2.2000e+000 77954 -3.0818e+001 -3.9155e+001  1.8311e+001 56936 77772,77928,77798
 2.2000e+000 78095 -1.4925e+001 -5.4392e+001  2.0649e+001 56936 77850,77798,78069
 2.2000e+000 78118 -9.8168e+000 -6.7348e+001  2.3981e+001 56936 77850,78069,77876
 2.2000e+000 78754  2.8516e+001 -7.9784e-001 -1.9316e+000 56475 78777,78486,78408
 2.2000e+000 78731  2.8491e+001 -9.1272e+000  2.9631e+000 56475 78777,78408,78382
 2.2000e+000 78708  4.2850e+001  3.7250e+000 -3.1225e+000 56475 78849,78512,78486
 2.2000e+000 78685  3.2862e+001  1.6364e+000 -6.1083e+000 56475 78382,78590,78564
 2.2000e+000 78662  3.4410e+001  3.2347e+001 -1.6804e+001 56475 78512,78564,78538
 2.2000e+000 78639  4.1822e+001 -1.1815e+001 -1.1917e+000 56475 78434,78486,78460
 2.2000e+000 78616  6.7957e+000 -4.1600e+001  1.2210e+001 56475 78408,78486,78434
 2.2000e+000 78803  2.9703e+001  1.1152e+000 -1.3922e+000 56475 78849,78486,78777
 2.2000e+000 78826  3.0812e+001 -1.2765e+000 -5.1472e+000 56475 78564,78777,78382
 2.2000e+000 78875  4.6731e+001  2.5022e+000 -1.2598e+001 56475 78564,78512,78849
 2.2000e+000 78898  4.1269e+001  4.5514e+000 -1.0485e+001 56475 78564,78849,78777
 2.2000e+000 79276 -5.7710e+000  1.1952e+001 -5.4699e+000 55964 79299,79080,79028
 2.2000e+000 79253 -7.0624e-001  5.1236e+000  3.0320e+000 55964 79299,79028,79132
 2.2000e+000 79230 -1.7935e+000  1.7986e+001 -7.2039e+000 55964 79028,79080,79054
 2.2000e+000 79207 -1.2870e+000 -3.0780e-001  4.7395e-001 55964 79002,79132,79028
 2.2000e+000 79184 -4.1159e-001  9.7684e-002  1.6032e-001 55964 79002,79158,79132
 2.2000e+000 79325 -1.3697e+000  2.3066e+001 -5.2139e+000 55964 79106,79080,79299
 2.2000e+000 79348  2.3559e+000  1.3652e+001  3.0611e+000 55964 79106,79299,79132
 2.2000e+000 79498  2.4558e+001  2.7181e+001 -2.0057e+000 55452 79397,79449,79423
 2.2000e+000 79475  2.5825e+001 -1.5842e+000 -1.4942e+000 55452 79371,79449,79397
 2.2000e+000 79795 -2.8314e+000 -2.0904e+001  3.4033e+000 55048 79962,79818,79573
 2.2000e+000 79772 -2.1137e+000 -2.7719e+001  7.0857e+000 55048 79818,79521,79677
 2.2000e+000 79749  2.5037e+001 -1.6496e+001  1.0883e+001 55048 79599,79651,79625
 2.2000e+000 79726  3.2472e+000 -1.6350e+001  4.2968e+000 55048 79890,79651,79599
 2.2000e+000 79703 -1.6860e+000 -2.7478e+001  8.1762e+000 55048 79962,79573,79547
 2.2000e+000 79844 -2.9096e+000 -1.3120e+001  4.5231e+000 55048 79599,79573,79818
 2.2000e+000 79867  5.4950e-001 -2.2190e+001  3.4076e+000 55048 79890,79599,79818
 2.2000e+000 79916  3.9367e+000 -1.7168e+001  1.0025e+001 55048 79677,79651,79890
 2.2000e+000 79939  2.7066e+000 -1.9499e+001  9.2770e+000 55048 79677,79890,79818
 2.2000e+000 79988 -1.0654e+001 -2.0639e+001  9.1164e+000 55048 79521,79818,79962
 2.2000e+000 80011 -1.1427e+001 -2.3775e+001  1.3452e+001 55048 79521,79962,79547
 2.2000e+000 80212  5.8024e+000 -5.7689e+001  2.3490e+001 54436 80235,80088,80036
 2.2000e+000 80189  1.8485e+001 -7.1013e+001  2.7854e+001 54436 80235,80036,80140
 2.2000e+000 80166  1.4347e+001 -6.9305e+001  3.8333e+000 54436 80036,80088,80062
 2.2000e+000 80261  1.4202e+001 -5.1468e+001  2.7994e+001 54436 80114,80088,80235
 2.2000e+000 80284  3.1565e+001 -5.9188e+001  3.3939e+001 54436 80114,80235,80140
 2.2000e+000 80534  1.5306e+001 -1.1287e+001  2.5585e+000 54032 80557,80361,80335
 2.2000e+000 80511  1.6089e+001 -4.0355e+000 -2.2464e+000 54032 80557,80335,80309
 2.2000e+000 80488  4.1380e+000 -1.9016e+001  8.7631e+000 54032 80629,80413,80387
 2.2000e+000 80465  5.8948e+000 -4.0596e+001  8.3309e+000 54032 80309,80439,80413
 2.2000e+000 80583  1.5047e+001 -9.8106e+000  2.0676e+000 54032 80387,80361,80557
 2.2000e+000 80606  7.5599e+000 -1.2293e+001  4.4700e+000 54032 80629,80387,80557
 2.2000e+000 80655  1.0503e+001 -1.4836e+001  2.5602e+000 54032 80309,80413,80629
 2.2000e+000 80678  1.3820e+001 -1.3088e+001 -1.0764e+000 54032 80309,80629,80557
 2.2000e+000 81139  4.8121e+000 -4.4593e+001  3.5465e+000 53784 80865,80995,80917
 2.2000e+000 81116  2.6044e+001 -3.6644e+001  5.7879e+000 53784 80865,81021,80995
 2.2000e+000 81093 -3.5353e+000 -7.9097e+001  1.5677e+000 53784 80943,80995,80969
 2.2000e+000 81070  2.6089e+001 -2.2706e+001  1.2511e+001 53784 80917,80995,80943
 2.2000e+000 81047  6.0391e+000 -5.9458e+001  1.7774e+000 53784 80865,80917,80891
 2.2000e+000 81468  5.3586e+000 -2.4948e+001  9.4374e+000 53230 81295,81373,81347
 2.2000e+000 81445  1.4048e+001 -1.7558e+001  1.3998e+001 53230 81243,81373,81295
 2.2000e+000 81422  6.6380e+000 -3.3376e+001  1.1470e+001 53230 81243,81295,81269
 2.2000e+000 81399  4.6017e+001 -7.7887e+000  8.6382e+000 53230 81295,81347,81321
 2.2000e+000 81618 -3.1034e-001  1.0985e+000 -1.4282e+000 52790 81491,81543,81517
 2.2000e+000 81595  4.5793e+000  4.9925e+001 -9.5349e+000 52790 81491,81569,81543
 2.2000e+000 82126  4.7730e+001  3.0553e+001 -1.7767e+001 52386 82149,81907,81881
 2.2000e+000 82103  3.4767e+001  7.3370e+000 -7.5396e+000 52386 82149,81881,81855
 2.2000e+000 82080  3.0988e+001  1.7043e+001  2.9069e+000 52386 82221,81803,81985
 2.2000e+000 82057  5.1522e+000 -3.5105e+000 -3.5416e+000 52386 81803,81855,81829
 2.2000e+000 82034  3.5504e+001  2.2047e+001 -1.5028e+001 52386 81907,81985,81933
 2.2000e+000 82011  6.6293e+001  2.3470e+001 -1.5313e+001 52386 81933,81985,81959
 2.2000e+000 82175  2.6443e+001  9.6003e+000 -7.6670e+000 52386 81985,81907,82149
 2.2000e+000 82198  3.7934e+001  1.3490e+001 -2.6157e+000 52386 82221,81985,82149
 2.2000e+000 82247  2.6527e+001  9.1547e+000  5.2966e+000 52386 81855,81803,82221
 2.2000e+000 82270  3.0813e+001  3.3133e+000  6.1397e-001 52386 81855,82221,82149
 2.2000e+000 82825 -1.7299e+000 -4.5380e+001  7.9791e+000 51782 82505,82661,82635
 2.2000e+000 82802 -2.7979e+001 -6.8057e+001 -7.5693e+000 51782 82479,82661,82505
 2.2000e+000 82779 -1.8045e+001 -6.0877e+001 -1.8520e+001 51782 82557,82635,82609
 2.2000e+000 82756 -1.1735e+001 -4.5634e+001 -9.8306e+000 51782 82531,82635,82557
 2.2000e+000 82733  2.2618e+000 -5.1684e+001 -4.8711e+000 51782 82505,82635,82531
 2.2000e+000 82710  2.6720e+001 -1.3294e+001  2.7006e+001 51782 82453,82661,82479
 2.2000e+000 82687  5.3629e+001 -5.0001e+001 -7.3710e+000 51782 82557,82609,82583
 2.2000e+000 83171  1.5148e+000 -4.2725e+001  2.2147e+000 51442 83194,82978,82900
 2.2000e+000 83148 -5.5980e+000 -2.0620e+001  3.1221e+000 51442 83194,82900,82874
 2.2000e+000 83125  4.7060e+000 -4.1168e+001  4.5780e+000 51442 82900,82978,82926
 2.2000e+000 83102  7.2710e+000  3.6852e+000 -5.7137e+000 51442 82874,83030,83004
 2.2000e+000 83079  1.5872e+001 -4.2173e+001 -1.0940e+000 51442 82926,82978,82952
 2.2000e+000 83056 -2.0684e+000 -4.6289e+000 -9.2232e+000 51442 82848,83030,82874
 2.2000e+000 83220 -5.1658e-001 -2.8673e+001 -3.5674e+000 51442 83004,82978,83194
 2.2000e+000 83243 -5.7451e+000 -3.5102e+000 -1.2792e+000 51442 83004,83194,82874
 2.2000e+000 83751 -6.4206e+000 -1.4857e+000 -5.2731e-001 50938 83428,83584,83454
 2.2000e+000 83728 -1.8052e+000 -4.2919e-001  4.9107e+000 50938 83428,83610,83584
 2.2000e+000 83705 -4.6062e+000 -1.4703e+001 -2.3249e+000 50938 83454,83584,83558
 2.2000e+000 83682 -8.5357e+000 -1.1458e+001 -3.6931e+000 50938 83454,83532,83480
 2.2000e+000 83659 -9.6480e+000 -1.6896e+001 -2.5794e+000 50938 83454,83558,83532
 2.2000e+000 83636 -2.7865e+000 -1.0609e+001 -3.1319e+000 50938 83480,83532,83506
 2.2000e+000 84355 -2.1468e+001 -5.8804e+001  6.8541e+000 50377 84378,83960,83934
 2.2000e+000 84332 -1.8469e+001 -5.9252e+001 -4.5588e+000 50377 84522,84378,83934
 2.2000e+000 84309 -1.1601e+001 -4.3109e+001  4.0126e+000 50377 84450,84038,84012
 2.2000e+000 84286 -7.4469e+000 -6.6073e+001 -5.4354e+000 50377 84522,83934,84142
 2.2000e+000 84263 -7.9781e+000 -4.1556e+001  2.8739e+000 50377 84594,84090,84038
 2.2000e+000 84240 -5.4665e+000 -6.0977e+001 -2.0299e+000 50377 83960,84012,83986
 2.2000e+000 84217  1.3090e+001 -5.9648e+001 -2.8098e+000 50377 83934,84168,84142
 2.2000e+000 84194 -4.6614e+000 -2.8782e+001  1.1441e+001 50377 84038,84090,84064
 2.2000e+000 84404 -1.1331e+001 -5.2208e+001  3.4992e+000 50377 84012,83960,84378
 2.2000e+000 84427 -1.2575e+001 -4.3680e+001  3.5275e+000 50377 84450,84012,84378
 2.2000e+000 84476 -1.2596e+001 -4.3124e+001  1.0622e+000 50377 84594,84038,84450
 2.2000e+000 84499 -1.1280e+001 -5.4608e+001 -1.0613e+000 50377 84116,84450,84378
 2.2000e+000 84548 -7.4130e+000 -5.2777e+001 -1.5815e+000 50377 84116,84378,84522
 2.2000e+000 84571  3.1964e+000 -6.0276e+001 -2.9426e+000 50377 84116,84522,84142
 2.2000e+000 84620  5.4212e-001 -4.5052e+001  4.6711e+000 50377 84116,84090,84594
 2.2000e+000 84643 -3.0815e+000 -4.5744e+001  3.0041e+000 50377 84116,84594,84450
 2.2000e+000 84842  3.0354e+001 -1.9571e+001  1.1652e-001 49923 84865,84692,84666
 2.2000e+000 84819  2.5618e+001  5.7342e+000 -3.0762e+001 49923 84865,84666,84770
 2.2000e+000 84796  5.0300e+000 -3.5722e+001  4.8338e+000 49923 84692,84744,84718
 2.2000e+000 84891  2.4903e+001 -4.4198e+001  2.4500e+000 49923 84744,84692,84865
 2.2000e+000 84914  1.2201e+001 -3.4933e+001 -3.0411e+001 49923 84744,84865,84770
 2.2000e+000 85501  1.2056e+000 -4.9493e+001  2.1018e+000 49618 85524,85282,85204
 2.2000e+000 85478 -1.3206e+001 -5.4253e+001  2.6632e+000 49618 85596,85524,85204
 2.2000e+000 85455 -2.6352e+001 -6.0698e+001 -1.5017e+000 49618 85596,85204,85178
 2.2000e+000 85432 -1.8923e+001 -5.8818e+001  6.3695e+000 49618 85204,85282,85256
 2.2000e+000 85409 -3.8929e+000 -8.2489e+001  6.0951e+000 49618 85282,85334,85308
 2.2000e+000 85386 -1.9914e+001 -6.5546e+001 -2.2540e+000 49618 85204,85256,85230
 2.2000e+000 85550 -4.6057e+000 -6.1452e+001  4.1009e+000 49618 85334,85282,85524
 2.2000e+000 85573  3.3200e+001 -4.2399e+001  1.6636e+001 49618 85334,85524,85360
 2.2000e+000 85622  8.2104e+000 -6.7354e+001  2.2926e+000 49618 85360,85524,85596
 2.2000e+000 85645 -3.1751e+000 -7.1048e+001  3.0180e-001 49618 85360,85596,85178
 2.2000e+000 85795 -2.6625e+001 -6.5926e+001  6.2354e-001 49278 85694,85746,85720
 2.2000e+000 85772 -4.5159e+001 -1.1798e+002 -5.7208e+000 49278 85668,85746,85694
 2.2000e+000 86197 -2.0513e+001 -9.9069e+001 -3.0338e+001 48916 86001,86079,86027
 2.2000e+000 86174 -2.7747e+001 -7.6363e+001 -2.4605e+000 48916 85949,86079,86001
 2.2000e+000 86151 -1.1065e+001 -9.5154e+001 -5.4028e+000 48916 85949,86001,85975
 2.2000e+000 86128 -2.4085e+001 -1.1216e+002 -3.1342e+001 48916 86027,86079,86053
 2.2000e+000 86105 -1.7393e-001 -5.6532e+001  7.5399e+000 48916 85923,86079,85949
 2.2000e+000 86477  7.2859e+000 -1.6469e+001  6.0061e+000 48398 86327,86379,86353
 2.2000e+000 86454  1.7131e+000 -1.6354e+001  2.2897e+000 48398 86500,86379,86327
 2.2000e+000 86431  3.1597e+000 -1.0067e+001  5.2884e+000 48398 86301,86405,86379
 2.2000e+000 86526 -3.5231e+000 -1.2733e+001  5.9267e+000 48398 86301,86379,86500
 2.2000e+000 87032 -3.6960e+000 -3.5348e+001 -7.2370e+000 48008 87127,87055,86787
 2.2000e+000 87009 -4.5806e+000 -4.6225e+001  2.3143e+000 48008 87055,86735,86709
 2.2000e+000 86986 -3.8380e+000 -3.5501e+001 -7.1803e+000 48008 87127,86787,86761
 2.2000e+000 86963 -2.6895e+000 -1.8634e+001 -1.6701e+000 48008 86787,86865,86839
 2.2000e+000 86940  7.1713e+000 -2.5765e+001  7.7755e+000 48008 86709,86891,86865
 2.2000e+000 86917 -1.3565e+001 -2.3612e+001 -3.2082e+000 48008 86787,86839,86813
 2.2000e+000 87081 -7.1308e+000 -3.3111e+001 -2.7749e+000 48008 86865,86787,87055
 2.2000e+000 87104  1.1479e+000 -2.3672e+001  5.5164e+000 48008 86865,87055,86709
 2.2000e+000 87153 -3.5230e+000 -3.7956e+001 -8.0023e+000 48008 86735,87055,87127
 2.2000e+000 87176 -1.1858e+000 -3.4453e+001 -9.1153e+000 48008 86735,87127,86761
 2.2000e+000 87456  9.0898e+000 -1.5353e+001  2.7849e-002 47604 87306,87358,87332
 2.2000e+000 87433  3.5868e+001 -3.3881e+000 -3.1519e+000 47604 87306,87384,87358
 2.2000e+000 87410  8.4888e+000 -1.5080e+001 -2.5222e+000 47604 87280,87384,87306
 2.2000e+000 87785  5.9037e+001 -1.6860e+001  3.8664e+000 47264 87638,87690,87664
 2.2000e+000 87762  2.3201e+001 -4.1394e+001  1.6393e+001 47264 87612,87690,87638
 2.2000e+000 87739  1.8799e+001 -4.9703e+001  1.4772e+001 47264 87560,87690,87612
 2.2000e+000 87716  1.7715e+001 -5.2226e+001  1.4905e+001 47264 87560,87612,87586
 2.2000e+000 87935  4.8469e+000 -2.5539e+001  1.8619e+000 46952 87808,87860,87834
 2.2000e+000 87912 -1.5382e+000 -4.9417e+001 -3.0260e+000 46952 87808,87886,87860
 2.2000e+000 88281  1.4992e-001 -2.0365e+001  4.1997e+000 46526 88304,88114,88036
 2.2000e+000 88258  8.3877e+000 -2.5881e+001  2.2341e+000 46526 88304,88036,87984
 2.2000e+000 88235  5.2527e+000 -1.7087e+001  8.5896e-001 46526 88036,88114,88062
 2.2000e+000 88212 -2.3585e+000 -3.2551e+001  1.5881e+001 46526 87958,88140,87984
 2.2000e+000 88189  8.9618e+000 -2.3855e+001 -3.8461e+000 46526 87984,88036,88010
 2.2000e+000 88166  2.0500e+000 -1.2025e+001  4.1394e+000 46526 88062,88114,88088
 2.2000e+000 88330 -3.1349e+000 -2.4971e+001  5.8159e+000 46526 88140,88114,88304
 2.2000e+000 88353  3.0612e+000 -3.2172e+001  4.7617e+000 46526 88140,88304,87984
 2.2000e+000 88701  2.5757e+001 -1.7933e+001  1.7155e+001 45822 88724,88378,88534
 2.2000e+000 88678  2.6782e+001 -7.0966e+000  1.8219e+001 45822 88378,88560,88534
 2.2000e+000 88655  5.1284e+000 -2.2654e+001  1.2108e+001 45822 88724,88534,88508
 2.2000e+000 88632 -5.8438e+000 -2.5214e+001 -1.3780e-001 45822 88404,88508,88456
 2.2000e+000 88609 -9.6044e+000 -3.0550e+001  5.1822e+000 45822 88404,88456,88430
 2.2000e+000 88586 -3.4273e+000 -1.5259e+001 -5.7694e+000 45822 88456,88508,88482
 2.2000e+000 88750  9.1939e+000 -1.9324e+001  6.2533e+000 45822 88404,88378,88724
 2.2000e+000 88773 -6.9782e+000 -2.0920e+001  1.2957e+000 45822 88404,88724,88508
 2.2000e+000 89106 -2.5853e+001 -4.8198e+001  7.0699e+000 45418 88881,88985,88907
 2.2000e+000 89083 -2.1528e+001 -4.7439e+001  6.1115e+000 45418 88881,89011,88985
 2.2000e+000 89060  6.5803e+000 -3.4393e+001  1.2102e+001 45418 88907,88985,88933
 2.2000e+000 89037 -1.9208e+001 -4.1662e+001  6.6550e-002 45418 88933,88985,88959
 2.2000e+000 89435  2.0172e+001 -1.9217e+001  6.9992e+000 44914 89210,89288,89236
 2.2000e+000 89412  1.7410e+001 -1.7618e+001  1.0246e+001 44914 89210,89314,89288
 2.2000e+000 89389  2.0366e+001 -5.8359e+000  4.4945e+000 44914 89210,89340,89314
 2.2000e+000 89366  3.4980e+001 -9.1522e+000 -5.0437e-002 44914 89236,89288,89262
 2.2000e+000 89634  1.6610e+001 -2.2296e+001  2.2406e+001 44538 89510,89562,89536
 2.2000e+000 89611  9.3894e+000 -1.2381e+001  8.6475e+000 44538 89458,89562,89510
 2.2000e+000 89588  3.0136e+001 -1.7730e+001  9.0563e-001 44538 89458,89510,89484
 2.2000e+000 90044  1.7019e+001 -1.5966e+001 -2.8811e+000 44134 89819,89923,89845
 2.2000e+000 90021  5.2718e+000 -3.3499e+001 -1.0521e+001 44134 89819,89949,89923
 2.2000e+000 89998  2.6724e+000 -2.1347e+001  4.1869e+000 44134 89845,89923,89897
 2.2000e+000 89975 -7.1860e+000 -3.4338e+001 -3.2410e+000 44134 89845,89897,89871
 2.2000e+000 90520  5.6237e-001 -4.4447e+001  1.8818e+000 43457 90543,90252,90226
 2.2000e+000 90497 -8.3706e+000 -4.9221e+001  3.1637e-003 43457 90543,90226,90330
 2.2000e+000 90474 -1.5428e+001 -5.2787e+001 -3.7336e+000 43457 90200,90330,90226
 2.2000e+000 90451 -2.0395e+001 -4.2703e+001  1.4011e+001 43457 90200,90356,90330
 2.2000e+000 90428  2.0480e+001 -2.8894e+001 -3.1838e+000 43457 90252,90304,90278
 2.2000e+000 90405 -2.0357e+001 -6.1004e+001  1.3334e+001 43457 90174,90356,90200
 2.2000e+000 90382 -1.8042e+001 -1.7413e+001  2.5964e+001 43457 90148,90356,90174
 2.2000e+000 90569  9.1839e+000 -5.0659e+001 -7.3573e+000 43457 90304,90252,90543
 2.2000e+000 90592 -6.9375e+000 -5.9836e+001 -1.1293e+001 43457 90304,90543,90330
 2.2000e+000 91098 -6.8478e+000 -3.5376e+001  3.4313e+000 42789 90801,90905,90853
 2.2000e+000 91075 -6.3665e+000 -3.1735e+001  3.2179e+000 42789 90775,90905,90801
 2.2000e+000 91052 -3.8219e+000 -3.2982e+001  8.4551e+000 42789 90775,90931,90905
 2.2000e+000 91029 -1.0797e+001 -4.0414e+001  5.8290e-001 42789 90801,90853,90827
 2.2000e+000 91006  1.4515e+001 -2.4732e+001 -3.9622e+000 42789 90853,90905,90879
 2.2000e+000 90983 -6.3427e+000 -3.5015e+001  9.3109e+000 42789 90775,90957,90931
 2.2000e+000 91427 -6.0517e+000 -4.6033e+001 -1.3693e+000 42227 91228,91280,91254
 2.2000e+000 91404  1.7755e+001 -3.8117e+001 -4.6766e+000 42227 91228,91306,91280
 2.2000e+000 91381 -7.6327e+000 -4.7028e+001  1.8029e+000 42227 91202,91306,91228
 2.2000e+000 91358  3.6536e+001 -2.7933e+001 -3.0781e+001 42227 91202,91332,91306
 2.2000e+000 91675  1.6885e+001 -5.5571e+000 -7.1323e-001 41773 91698,91476,91450
 2.2000e+000 91652  2.2894e+001 -9.6727e+000  2.3012e+001 41773 91698,91450,91554
 2.2000e+000 91629  8.0450e+000 -1.2544e+001  2.7197e+001 41773 91450,91580,91554
 2.2000e+000 91606  5.9735e+001 -1.2615e+001  2.6990e+001 41773 91502,91554,91528
 2.2000e+000 91724 -7.9926e-001 -1.3227e+001  2.5300e-001 41773 91502,91476,91698
 2.2000e+000 91747  7.2991e-001 -1.9333e+001  2.4377e+001 41773 91502,91698,91554
 2.2000e+000 92127 -1.5266e+001 -7.3524e+001  1.1855e+000 41255 92150,91905,91879
 2.2000e+000 92104 -1.3453e+001 -6.6669e+001  2.9031e-001 41255 92150,91879,91957
 2.2000e+000 92081 -2.7013e+001 -8.1216e+001  8.4042e+000 41255 91853,91957,91879
 2.2000e+000 92058 -2.7061e+001 -8.2769e+001  1.4794e+001 41255 91853,91983,91957
 2.2000e+000 92035  2.4954e+000 -9.3549e+001  1.6071e+001 41255 91853,92009,91983
 2.2000e+000 92176 -1.2307e+001 -8.0203e+001 -4.8065e+000 41255 91931,91905,92150
 2.2000e+000 92199 -6.8411e+000 -6.7085e+001 -7.5095e+000 41255 91931,92150,91957
 2.2000e+000 92518 -3.3006e+001 -9.3682e+001 -6.0388e+000 41007 92244,92374,92270
 2.2000e+000 92495 -6.1354e+001 -1.0878e+002  2.5004e-001 41007 92244,92400,92374
 2.2000e+000 92472 -2.4299e+001 -8.2935e+001 -7.7369e-001 41007 92270,92374,92348
 2.2000e+000 92449 -3.4634e+001 -7.3202e+001 -2.3021e+000 41007 92296,92348,92322
 2.2000e+000 92426 -2.7969e+001 -6.8480e+001 -9.2184e-001 41007 92270,92348,92296
 2.2000e+000 92668 -5.9392e+000 -4.9719e+001 -5.8647e+000 40717 92823,92691,92567
 2.2000e+000 92645 -1.5472e+001 -4.1646e+001 -7.4938e+000 40717 92895,92823,92567
 2.2000e+000 92717  2.6538e+001 -3.5959e+001 -6.9160e+000 40717 92593,92567,92691
 2.2000e+000 92849  5.4303e+000 -3.9830e+001 -1.0525e+001 40717 92619,92691,92823
 2.2000e+000 92872 -3.6026e+000 -3.3786e+001 -2.1939e-002 40717 92619,92823,92541
 2.2000e+000 92921 -6.4849e+000 -4.4294e+001 -7.3642e-001 40717 92541,92823,92895
 2.2000e+000 93634 -3.2966e+001 -8.0139e+001 -1.9549e+000 40206 93366,93444,93418
 2.2000e+000 93611 -2.0834e+001 -4.7516e+001  9.6166e-001 40206 93288,93444,93366
 2.2000e+000 93588 -4.1617e+001 -6.9942e+001  1.0701e+001 40206 93288,93366,93314
 2.2000e+000 93565 -2.4712e+001 -4.9736e+001 -1.6638e-001 40206 93262,93444,93288
 2.2000e+000 93542 -8.1501e+000 -8.4470e+001 -6.9823e+000 40206 93366,93418,93392
 2.2000e+000 93519 -2.2600e+001 -5.2130e+001 -3.3268e-001 40206 93262,93470,93444
 2.2000e+000 93496 -9.2135e+000 -5.6208e+001  1.3258e+001 40206 93314,93366,93340
 2.2000e+000 94189  1.3651e+001 -1.2152e+001  6.0834e+000 39802 93843,93999,93973
 2.2000e+000 94166  1.6287e+001 -9.7337e+000  3.2060e+000 39802 93817,93999,93843
 2.2000e+000 94143  2.1552e+001 -6.8897e+000 -4.0293e+000 39802 93869,93973,93947
 2.2000e+000 94120  8.6841e+000 -1.9290e+001  8.3114e+000 39802 93843,93973,93869
 2.2000e+000 94097  2.4541e+001  1.9244e+001  1.2991e+001 39802 93869,93921,93895
 2.2000e+000 94074  1.4733e+001 -5.1823e+000 -2.1818e+000 39802 93869,93947,93921
 2.2000e+000 94051  4.8282e+000 -8.0618e+000  7.2907e+000 39802 93817,94025,93999
 2.2000e+000 94290 -3.4640e+000 -1.1798e+001  1.6730e+000 39398 94212,94264,94238
 2.2000e+000 94798 -3.0636e+000 -2.4186e+001 -6.5043e+000 38701 94501,94657,94631
 2.2000e+000 94775  3.0418e+000 -1.7972e+001 -3.3628e+000 38701 94475,94657,94501
 2.2000e+000 94752 -2.0736e+000 -2.9803e+001 -4.6569e+000 38701 94579,94631,94605
 2.2000e+000 94729 -1.1230e+001 -4.2170e+001 -1.0161e+001 38701 94553,94631,94579
 2.2000e+000 94706 -8.9381e+000 -3.9067e+001 -2.9666e+000 38701 94501,94631,94553
 2.2000e+000 94683  2.0340e+000 -6.8291e+001 -2.8247e+000 38701 94501,94553,94527
 2.2000e+000 95255 -1.1768e+001 -3.6079e+001  2.6815e-001 38247 95278,95085,95007
 2.2000e+000 95232 -8.6295e+000 -3.8199e+001 -4.4515e+000 38247 95278,95007,95137
 2.2000e+000 95209 -2.7775e+000 -1.8122e+001 -3.7693e+000 38247 94981,95137,95007
 2.2000e+000 95186 -1.2056e+001 -3.0241e+001 -7.4354e+000 38247 95007,95059,95033
 2.2000e+000 95163 -1.1376e+001 -2.6837e+001 -3.6001e+000 38247 95007,95085,95059
 2.2000e+000 95304 -1.6154e+001 -4.3627e+001  3.5490e+000 38247 95111,95085,95278
 2.2000e+000 95327 -1.1099e+001 -4.0309e+001 -1.7949e+000 38247 95111,95278,95137
 2.2000e+000 95575  1.2883e+000  1.5695e+000  1.1151e-001 37564 95376,95428,95402
 2.2000e+000 95552  1.2663e+000 -1.1481e+001  7.5878e-001 37564 95376,95454,95428
 2.2000e+000 95529  1.7443e+000 -1.0627e+001  1.8040e+000 37564 95376,95480,95454
 2.2000e+000 95506  1.7754e+001 -1.7286e+001  2.1185e+000 37564 95350,95480,95376
 2.2000e+000 96034 -3.4130e+001 -8.1844e+001  1.6457e+000 37224 95786,95838,95812
 2.2000e+000 96011 -2.8160e+001 -6.3311e+001 -9.1026e-001 37224 95786,95890,95838
 2.2000e+000 95988 -2.8763e+001 -6.2611e+001 -7.8948e-001 37224 95786,95916,95890
 2.2000e+000 95965 -8.5548e-001 -5.3450e+001  1.6550e+000 37224 95760,95916,95786
 2.2000e+000 95942 -7.8356e+000 -6.5931e+001 -1.2048e+001 37224 95838,95890,95864
 2.2000e+000 96363  1.4060e+001 -6.8933e+000  1.0597e+000 36884 96216,96268,96242
 2.2000e+000 96340  1.0456e+001 -6.8166e+000  1.0080e+000 36884 96164,96268,96216
 2.2000e+000 96317  1.2644e+001 -7.2178e+000  2.1295e+000 36884 96138,96268,96164
 2.2000e+000 96294  4.6921e+000 -1.3046e+001  1.1809e+001 36884 96164,96216,96190
 2.2000e+000 96839 -3.7026e+000 -5.1572e+001  4.3462e+000 36572 96862,96649,96597
 2.2000e+000 96816  1.5999e+000 -4.1938e+001  1.9808e+000 36572 97006,96862,96597
 2.2000e+000 96793  1.3001e+000 -4.2486e+001 -1.4799e+000 36572 96934,96467,96675
 2.2000e+000 96770  2.1603e+000 -3.7173e+001 -2.6918e+000 36572 97006,96597,96571
 2.2000e+000 96747 -1.2673e+001 -7.5051e+001  5.4188e+000 36572 96467,96519,96493
 2.2000e+000 96724  1.7915e+001 -4.2551e+001 -8.3789e+000 36572 96519,96571,96545
 2.2000e+000 96701 -1.5970e+000 -3.6030e+001  5.2141e-002 36572 96597,96649,96623
 2.2000e+000 96888  5.2433e-001 -5.2785e+001 -3.4630e+000 36572 96675,96649,96862
 2.2000e+000 96911  2.6847e+000 -4.8418e+001 -1.9771e+000 36572 96934,96675,96862
 2.2000e+000 96960 -2.4141e+000 -4.7316e+001  1.5497e-001 36572 96519,96467,96934
 2.2000e+000 96983  1.6581e+000 -5.1842e+001 -2.0533e-001 36572 97078,96934,96862
 2.2000e+000 97032  2.5384e+000 -4.9998e+001  1.9843e+000 36572 97078,96862,97006
 2.2000e+000 97055  1.7899e+000 -4.5206e+001 -5.2835e-001 36572 96519,97006,96571
 2.2000e+000 97104  3.1015e+000 -4.8078e+001  8.6907e-001 36572 96519,96934,97078
 2.2000e+000 97127  2.5581e+000 -4.6955e+001  2.5485e+000 36572 96519,97078,97006
 2.2000e+000 97761 -1.8832e+001 -5.6542e+001 -6.7031e+000 36118 97784,97493,97415
 2.2000e+000 97738 -1.0541e+001 -6.1446e+001 -9.3671e-001 36118 97784,97415,97597
 2.2000e+000 97715 -3.5092e+000 -6.2795e+001 -7.1061e+000 36118 97389,97597,97415
 2.2000e+000 97692 -1.8989e+001 -6.8351e+001  7.6832e+000 36118 97415,97467,97441
 2.2000e+000 97669 -2.5983e+001 -5.9205e+001 -1.9554e+000 36118 97415,97493,97467
 2.2000e+000 97646 -2.0616e+001 -4.4898e+001  1.1631e+000 36118 97493,97571,97519
 2.2000e+000 97623 -1.3641e+001 -4.7174e+001  1.1400e+001 36118 97519,97571,97545
 2.2000e+000 97810 -1.3293e+001 -5.3017e+001 -3.2097e+000 36118 97571,97493,97784
 2.2000e+000 97833  4.7759e-001 -5.3505e+001  3.3678e+000 36118 97571,97784,97597
 2.2000e+000 98081 -1.8493e+001 -6.4831e+001  5.2391e-001 35564 98104,97908,97856
 2.2000e+000 98058 -1.8618e+001 -6.2468e+001  9.5868e-001 35564 98104,97856,97986
 2.2000e+000 98035 -8.2108e+000 -5.3521e+001  3.9364e+000 35564 97934,97986,97960
 2.2000e+000 98012 -1.6700e+001 -6.1631e+001  2.9175e+000 35564 97856,97908,97882
 2.2000e+000 98130 -2.0170e+001 -7.2513e+001 -6.5570e-001 35564 97934,97908,98104
 2.2000e+000 98153 -1.7075e+001 -6.5032e+001 -7.1798e-003 35564 97934,98104,97986
 2.2000e+000 98374 -4.1288e+001 -7.4753e+001  2.7880e+000 35152 98224,98302,98276
 2.2000e+000 98351 -4.1461e+001 -7.5194e+001  3.3380e+000 35152 98198,98302,98224
 2.2000e+000 98328 -5.5019e+001 -8.0644e+001  5.9065e+000 35152 98224,98276,98250
 2.2000e+000 98884  4.2696e+001 -1.3831e+001  2.1489e+001 34698 98691,98743,98717
 2.2000e+000 98861  2.3657e+001 -2.9241e+001 -1.9093e+001 34698 98561,98743,98691
 2.2000e+000 98838 -1.0563e+001 -2.9228e+001 -3.3739e+000 34698 98907,98587,98561
 2.2000e+000 98815 -7.4234e+000 -2.8639e+001 -1.1030e+001 34698 98907,98561,98691
 2.2000e+000 98792 -1.5321e+001 -3.6762e+001  2.1992e+000 34698 98587,98639,98613
 2.2000e+000 98769 -4.7541e+000 -2.2095e+001 -5.4333e+000 34698 98587,98665,98639
 2.2000e+000 98933 -4.1190e+000 -2.6136e+001 -4.3814e+000 34698 98665,98587,98907
 2.2000e+000 98956  8.4236e-001 -2.4483e+001 -1.2429e+001 34698 98665,98907,98691
 2.2000e+000 99204  2.5230e+001 -3.3624e+001  6.6299e+000 34144 99227,99031,99005
 2.2000e+000 99181  1.7294e+001 -3.2553e+001  2.9797e+000 34144 99299,99227,99005
 2.2000e+000 99158  1.7178e+001 -3.0460e+001  6.3808e+000 34144 99299,99005,99109
 2.2000e+000 99135  4.1090e+001 -8.5331e+000  1.5565e+001 34144 98979,99109,99005
 2.2000e+000 99253  2.0166e+001 -3.5178e+001  2.8791e+000 34144 99057,99031,99227
 2.2000e+000 99276  6.0438e+000 -3.2443e+001  1.1503e+000 34144 99057,99227,99083
 2.2000e+000 99325  1.9027e+001 -2.6748e+001  4.7372e+000 34144 99083,99227,99299
 2.2000e+000 99348  2.0763e+001 -2.3915e+001  8.7137e+000 34144 99083,99299,99109
 2.2000e+000 99498 -2.2481e+000 -2.1719e+001  7.5617e+000 33433 99397,99449,99423
 2.2000e+000 99475 -1.3156e+001 -2.1364e+001  1.8113e-001 33433 99371,99449,99397
 2.2000e+000 100008 -1.0918e+001 -3.1868e+001 -5.6625e+000 32979 100103,100031,99815
 2.2000e+000 99985 -6.3267e+000 -3.3669e+001 -7.7599e+000 32979 100175,100031,99763
 2.2000e+000 99962 -9.3621e+000 -3.6159e+001 -9.2681e+000 32979 100103,99815,99789
 2.2000e+000 99939 -1.1213e+001 -3.8206e+001 -4.8443e+000 32979 100175,99763,99737
 2.2000e+000 99916 -8.8610e+000 -2.8990e+001  3.4502e-001 32979 99685,99867,99737
 2.2000e+000 99893 -1.9267e+001 -6.4836e+001 -1.5353e+000 32979 99685,99737,99711
 2.2000e+000 100057 -1.0859e+001 -3.1588e+001 -6.3380e+000 32979 99841,99815,100031
 2.2000e+000 100080 -5.1259e+000 -1.1891e+001 -1.1774e+001 32979 99841,100031,99867
 2.2000e+000 100129 -7.1606e+000 -4.1214e+001 -6.6124e+000 32979 99763,100031,100103
 2.2000e+000 100152 -9.1955e+000 -4.8836e+001 -1.1123e+001 32979 99763,100103,99789
 2.2000e+000 100201 -1.3368e+001 -3.3705e+001 -5.5267e+000 32979 99867,100031,100175
 2.2000e+000 100224 -1.4578e+001 -3.4020e+001 -3.4380e+000 32979 99867,100175,99737
 2.2000e+000 100553 -1.2388e+001 -5.5244e+001 -1.0377e+000 32503 100354,100406,100380
 2.2000e+000 100530 -1.8737e+001 -6.1831e+001  2.9489e+000 32503 100328,100406,100354
 2.2000e+000 100507 -2.2618e+001 -6.2004e+001  9.5435e+000 32503 100328,100458,100406
 2.2000e+000 100484 -1.7605e+001 -7.5063e+001  1.2371e+001 32503 100406,100458,100432
 2.2000e+000 100850 -2.3606e+001 -6.6149e+001 -3.9376e+000 31899 100873,100654,100628
 2.2000e+000 100827 -2.3660e+001 -6.3830e+001 -2.0296e+000 31899 100945,100873,100628
 2.2000e+000 100804 -2.4900e+001 -5.7932e+001 -2.4310e+000 31899 100945,100628,100602
 2.2000e+000 100781 -9.1157e+000 -4.9708e+001 -1.0508e+001 31899 100576,100732,100602
 2.2000e+000 100758 -2.4014e+001 -5.3608e+001 -1.0352e+001 31899 100654,100706,100680
 2.2000e+000 100899 -2.1618e+001 -6.0340e+001 -5.2128e+000 31899 100706,100654,100873
 2.2000e+000 100922 -2.6612e+001 -6.2109e+001 -5.2668e+000 31899 100706,100873,100732
 2.2000e+000 100971 -2.4058e+001 -5.6172e+001 -5.0932e+000 31899 100732,100873,100945
 2.2000e+000 100994 -2.5240e+001 -4.9980e+001 -5.2310e+000 31899 100732,100945,100602
 2.2000e+000 101551 -1.7507e+001 -4.2877e+001 -4.2697e+000 31338 101205,101387,101231
 2.2000e+000 101528  3.9813e-003 -3.6169e+001  2.1571e+000 31338 101179,101387,101205
 2.2000e+000 101505 -1.8865e+001 -3.8698e+001 -7.1685e-001 31338 101574,101309,101257
 2.2000e+000 101482 -2.3257e+001 -4.1329e+001 -1.9453e+000 31338 101646,101574,101257
 2.2000e+000 101459 -2.5713e+001 -4.1247e+001 -4.5997e+000 31338 101646,101257,101231
 2.2000e+000 101436 -1.4834e+001 -5.7642e+001  1.8123e+000 31338 101309,101361,101335
 2.2000e+000 101413 -1.1754e+001 -3.6314e+001 -1.7494e-001 31338 101257,101309,101283
 2.2000e+000 101600 -1.5358e+001 -4.0953e+001 -2.8545e+000 31338 101361,101309,101574
 2.2000e+000 101623 -1.9063e+001 -4.2720e+001 -3.3986e+000 31338 101361,101574,101387
 2.2000e+000 101672 -1.8667e+001 -3.9870e+001 -1.5272e+000 31338 101387,101574,101646
 2.2000e+000 101695 -2.1471e+001 -3.9325e+001 -3.6567e+000 31338 101387,101646,101231
 2.2000e+000 101943  1.4479e+001 -2.9753e+001  1.7946e+000 30748 101966,101796,101744
 2.2000e+000 101920  1.9455e+001 -2.8668e+001  2.7858e+000 30748 101966,101744,101718
 2.2000e+000 101897  6.0978e+000 -3.1654e+001  9.9468e+000 30748 101718,101848,101822
 2.2000e+000 101874  1.7837e+001 -3.3568e+001  7.0545e+000 30748 101744,101796,101770
 2.2000e+000 101992  1.1836e+001 -2.7509e+001  2.7986e+000 30748 101822,101796,101966
 2.2000e+000 102015  1.5122e+001 -2.7749e+001  3.6278e+000 30748 101822,101966,101718
 2.2000e+000 102493 -2.1879e+001 -5.5226e+001 -1.3182e+000 30344 102516,102173,102147
 2.2000e+000 102470 -1.8492e+001 -5.3448e+001 -4.4936e+000 30344 102660,102516,102147
 2.2000e+000 102447 -2.3789e+001 -5.2591e+001 -3.1755e+000 30344 102588,102199,102173
 2.2000e+000 102424 -2.9052e-001 -5.7313e+001 -5.7193e+000 30344 102660,102147,102329
 2.2000e+000 102401 -3.4213e+000 -4.7970e+001 -5.0147e+000 30344 102199,102277,102251
 2.2000e+000 102378 -1.0033e+001 -3.8996e+001 -1.2570e+001 30344 102199,102251,102225
 2.2000e+000 102355  3.1103e+001 -4.4278e+001 -7.0684e+000 30344 102121,102329,102147
 2.2000e+000 102542 -1.8496e+001 -5.3674e+001 -3.2223e+000 30344 102588,102173,102516
 2.2000e+000 102565 -2.2387e+001 -5.9461e+001  4.1772e+000 30344 102277,102516,102303
 2.2000e+000 102614 -1.7734e+001 -5.2857e+001 -2.4030e+000 30344 102277,102199,102588
 2.2000e+000 102637 -1.1656e+001 -5.2750e+001 -1.2869e+000 30344 102277,102588,102516
 2.2000e+000 102686  1.6644e+000 -4.9618e+001  3.8634e+000 30344 102303,102516,102660
 2.2000e+000 102709  1.3371e+001 -5.8144e+001  3.2435e+000 30344 102303,102660,102329
 2.2000e+000 103294 -1.4304e+001 -4.9957e+001 -2.2698e+000 29726 103317,103101,103075
 2.2000e+000 103271 -1.5321e+001 -5.0150e+001 -2.7384e+000 29726 103317,103075,102997
 2.2000e+000 103248 -6.5555e+000 -4.9494e+001 -6.6749e+000 29726 102971,103153,102997
 2.2000e+000 103225 -1.7539e+001 -6.2366e+001 -8.9293e+000 29726 103101,103153,103127
 2.2000e+000 103202 -1.8175e+001 -5.5162e+001 -1.5949e+000 29726 102997,103075,103023
 2.2000e+000 103179 -1.4237e+001 -5.0869e+001 -4.3203e+000 29726 103023,103075,103049
 2.2000e+000 103343 -1.3518e+001 -5.0349e+001 -2.3549e+000 29726 103153,103101,103317
 2.2000e+000 103366 -1.4307e+001 -5.0237e+001 -2.6337e+000 29726 103153,103317,102997
 2.2000e+000 103614 -3.0085e+000 -4.2700e+001 -6.0026e+000 29200 103781,103637,103467
 2.2000e+000 103591 -1.3838e+001 -4.2957e+001  1.2808e+000 29200 103709,103637,103415
 2.2000e+000 103568 -1.7691e+001 -5.1521e+001  5.7922e-002 29200 103709,103415,103389
 2.2000e+000 103545 -2.6701e+000 -4.0967e+001 -7.2641e+000 29200 103781,103467,103441
 2.2000e+000 103663  7.8446e-001 -4.5553e+001  2.1077e+000 29200 103853,103637,103493
 2.2000e+000 103686  4.3977e+000 -2.2564e+001  5.3355e+000 29200 103493,103637,103519
 2.2000e+000 103735 -8.5199e+000 -5.2659e+001  6.3208e+000 29200 103519,103637,103709
 2.2000e+000 103758 -1.0812e+001 -5.8546e+001  5.4799e+000 29200 103519,103709,103389
 2.2000e+000 103807 -2.6009e+000 -4.7363e+001 -3.3314e+000 29200 103415,103637,103781
 2.2000e+000 103830  1.4916e-001 -4.5037e+001 -5.3337e+000 29200 103415,103781,103441
 2.2000e+000 103879 -9.1185e+000 -4.5205e+001 -3.5231e+000 29200 103467,103637,103853
 2.2000e+000 104545 -5.7660e+000 -3.2271e+001 -1.0625e+001 28860 104274,104352,104326
 2.2000e+000 104522 -1.4827e+000 -3.0090e+001 -9.8033e+000 28860 104248,104352,104274
 2.2000e+000 104499 -1.0667e+001 -3.6335e+001 -5.5819e+000 28860 104248,104404,104352
 2.2000e+000 104476 -1.3675e+001 -3.3095e+001 -4.9321e+000 28860 104222,104404,104248
 2.2000e+000 104453 -4.8997e+000 -2.3984e+001 -7.4295e+000 28860 104352,104404,104378
 2.2000e+000 104430 -3.0419e+000 -2.9377e+001 -1.2541e+001 28860 104274,104326,104300
 2.2000e+000 104744  1.1411e+001 -4.0589e+001 -6.2490e+000 28456 104839,104767,104646
 2.2000e+000 104721 -3.0885e+000 -4.5647e+001 -1.3420e+000 28456 104767,104594,104568
 2.2000e+000 104698  2.9554e+001 -2.5633e+001  1.0631e+000 28456 104839,104646,104620
 2.2000e+000 104793  9.5671e+000 -4.3556e+001 -3.9131e+000 28456 104672,104646,104767
 2.2000e+000 104816 -8.2868e+000 -5.0921e+001  6.9702e+000 28456 104911,104767,104568
 2.2000e+000 104865  6.3172e+000 -3.2743e+001  3.1079e+000 28456 104594,104767,104839
 2.2000e+000 104888  2.1625e+001  4.3360e+000  9.9248e+000 28456 105041,104839,104620
 2.2000e+000 104937  9.2678e+000 -3.7336e+001 -5.0667e+000 28456 104672,104767,104911
 2.2000e+000 105067 -4.6162e+000 -3.5675e+001 -1.3980e+000 28456 104594,104839,105041
 2.2000e+000 105573  1.6203e+001 -5.2040e+001 -4.0719e+000 28094 105812,105596,105328
 2.2000e+000 105550  5.8550e+000 -4.2738e+001  7.9348e+000 28094 105596,105276,105250
 2.2000e+000 105527  1.2683e+001 -3.7520e+001 -1.2685e+000 28094 105740,105668,105432
 2.2000e+000 105504  9.9135e+000 -3.7699e+001  1.6833e+000 28094 105740,105432,105380
 2.2000e+000 105481  2.1218e+001 -5.5491e+001 -1.3600e+000 28094 105812,105328,105302
 2.2000e+000 105458  5.5934e-001 -4.5750e+001  5.1139e+000 28094 105380,105432,105406
 2.2000e+000 105622  4.1492e+001 -2.8847e+001 -1.5557e+001 28094 105354,105328,105596
 2.2000e+000 105645  1.1920e+001 -4.3489e+001 -5.4559e-001 28094 105668,105354,105596
 2.2000e+000 105694  1.3487e+001 -3.4798e+001 -1.5419e+000 28094 105250,105432,105668
 2.2000e+000 105717  1.7893e+001 -3.7306e+001  2.1641e+000 28094 105250,105668,105596
 2.2000e+000 105766  6.5247e+000 -3.9259e+001  1.5857e-001 28094 105354,105668,105740
 2.2000e+000 105789  4.7916e+000 -3.9515e+001  3.4190e+000 28094 105354,105740,105380
 2.2000e+000 105838  2.0683e+001 -4.5273e+001 -2.0254e+000 28094 105276,105596,105812
 2.2000e+000 105861  3.3402e+001 -4.5846e+001  5.3941e+000 28094 105276,105812,105302
 2.2000e+000 106367 -2.2243e+001 -5.8123e+001 -2.1466e+000 27390 106070,106122,106096
 2.2000e+000 106344 -2.0889e+001 -5.6206e+001 -2.7473e+000 27390 106070,106226,106122
 2.2000e+000 106321 -5.0917e+000 -5.7081e+001 -4.0827e-001 27390 106174,106226,106200
 2.2000e+000 106298 -1.5990e+001 -5.3390e+001  2.2228e+000 27390 106122,106226,106174
 2.2000e+000 106275 -1.7292e+001 -5.2849e+001  1.1251e+001 27390 106122,106174,106148
 2.2000e+000 106252 -1.7881e+001 -5.5590e+001 -4.5350e+000 27390 106044,106226,106070
 2.2000e+000 106615 -2.0952e+001 -6.5040e+001 -4.9199e-003 26978 106638,106494,106416
 2.2000e+000 106592 -2.2684e+001 -6.2519e+001  3.2095e-001 26978 106638,106416,106390
 2.2000e+000 106569 -2.3823e+001 -6.5871e+001  9.1442e-001 26978 106416,106494,106442
 2.2000e+000 106546 -1.2857e+001 -7.1290e+001 -4.8071e+000 26978 106442,106494,106468
 2.2000e+000 106664 -1.8696e+001 -6.2473e+001 -1.1036e+000 26978 106520,106494,106638
 2.2000e+000 106687 -2.1863e+001 -6.1148e+001 -1.1314e-001 26978 106520,106638,106390
 2.2000e+000 106837  6.2262e+001 -4.1071e+001 -1.3860e+001 26524 106710,106762,106736
 2.2000e+000 106814  2.6581e+001 -3.9948e+001  1.9423e+000 26524 106710,106788,106762
 2.2000e+000 107426 -2.6750e+001 -5.0284e+001  6.3517e+000 26120 107129,107207,107155
 2.2000e+000 107403 -1.9262e+001 -4.0244e+001  3.0844e+000 26120 107129,107285,107207
 2.2000e+000 107380 -2.3743e+001 -4.8908e+001  1.3476e+000 26120 107207,107285,107259
 2.2000e+000 107357 -1.7498e+001 -4.5680e+001  4.6973e+000 26120 107155,107207,107181
 2.2000e+000 107334 -1.8874e+001 -3.9116e+001  4.9334e+000 26120 107103,107285,107129
 2.2000e+000 107311 -1.9193e+001 -5.4843e+001 -3.4719e-002 26120 107207,107259,107233
 2.2000e+000 107755 -1.1264e+001 -5.5432e+001  6.5129e+000 25758 107556,107634,107608
 2.2000e+000 107732  1.8756e+001 -3.3852e+001 -3.6816e+000 25758 107556,107660,107634
 2.2000e+000 107709 -1.0720e+001 -5.9891e+001  8.1584e+000 25758 107556,107608,107582
 2.2000e+000 107686  2.7261e+001 -2.8513e+001 -1.1561e+000 25758 107530,107660,107556
 2.2000e+000 108438 -2.0209e+001 -7.9200e+001 -6.1060e+000 25468 108121,108199,108173
 2.2000e+000 108415 -2.6923e+000 -3.4628e+001 -2.7582e+000 25468 108095,108199,108121
 2.2000e+000 108392 -6.8078e+000 -4.0110e+001 -4.5533e+000 25468 108095,108251,108199
 2.2000e+000 108369 -1.1513e+001 -4.3730e+001 -1.6131e+000 25468 108069,108251,108095
 2.2000e+000 108346 -6.0198e+000 -3.7009e+001 -1.7938e+001 25468 108199,108251,108225
 2.2000e+000 108323 -9.1239e+000 -4.8167e+001  4.4744e-001 25468 108017,108251,108069
 2.2000e+000 108300 -7.8839e+000 -6.7045e+001  1.6405e-001 25468 108121,108173,108147
 2.2000e+000 108277 -6.6032e+000 -4.6430e+001 -1.3252e+000 25468 108017,108069,108043
 2.2000e+000 108588 -1.0894e+001 -5.6772e+001 -4.5308e+000 25064 108611,108513,108487
 2.2000e+000 108565 -3.0995e+001 -5.7433e+001 -1.8379e+000 25064 108683,108611,108487
 2.2000e+000 108637 -8.1324e+000 -5.1167e+001 -5.5492e+000 25064 108539,108513,108611
 2.2000e+000 108660 -3.5813e-001 -4.7181e+001 -4.1044e+000 25064 108539,108611,108461
 2.2000e+000 108709  3.1314e+000 -3.2559e+001 -1.2706e+001 25064 108461,108611,108683
 2.2000e+000 109345 -2.8908e+001 -5.2637e+001  9.6863e+000 24410 108999,109155,109103
 2.2000e+000 109322 -2.8030e+001 -5.4419e+001  6.0175e+000 24410 108973,109155,108999
 2.2000e+000 109299 -2.8100e+001 -6.4964e+001  9.3071e+000 24410 109103,109155,109129
 2.2000e+000 109276 -3.1963e+001 -5.4079e+001  5.9807e+000 24410 108973,109181,109155
 2.2000e+000 109253 -6.1397e+000 -5.5228e+001  3.0348e+000 24410 109025,109103,109077
 2.2000e+000 109230 -4.5339e+001 -6.3200e+001  1.4648e+001 24410 108999,109103,109025
 2.2000e+000 109207  7.0294e+000 -6.4386e+001  4.5623e+000 24410 109025,109077,109051
 2.2000e+000 109723 -1.7061e+001 -5.3873e+001  1.9328e+000 23856 109475,109579,109553
 2.2000e+000 109700 -1.5501e+001 -4.5847e+001  1.8000e+000 23856 109475,109605,109579
 2.2000e+000 109677 -1.3204e+001 -4.7030e+001  6.7997e+000 23856 109475,109553,109527
 2.2000e+000 109654 -1.6175e+001 -4.6035e+001 -5.1471e+000 23856 109449,109605,109475
 2.2000e+000 109631 -1.1179e+001 -4.8261e+001  6.2199e+000 23856 109475,109527,109501
 2.2000e+000 110101  1.8917e+001 -3.9438e+001 -1.4047e+001 23566 109853,109931,109879
 2.2000e+000 110078  4.8286e+000 -4.0846e+001 -9.9649e+000 23566 109827,109931,109853
 2.2000e+000 110055  1.0371e+000 -3.7311e+001 -9.8324e+000 23566 109827,109983,109931
 2.2000e+000 110032  2.9600e+001 -3.6623e+001 -1.4415e+001 23566 109879,109931,109905
 2.2000e+000 110009 -5.1975e-001 -3.3530e+001 -1.6587e+001 23566 109931,109983,109957
 2.2000e+000 110735 -2.2690e+001 -5.5045e+001 -7.6961e-001 23162 110415,110571,110519
 2.2000e+000 110712 -3.1005e+001 -5.7279e+001 -3.8692e+000 23162 110389,110571,110415
 2.2000e+000 110689 -1.2114e+001 -4.9574e+001  3.1470e+000 23162 110415,110519,110493
 2.2000e+000 110666 -2.4298e+001 -5.2368e+001 -1.7263e-001 23162 110363,110571,110389
 2.2000e+000 110643 -1.0638e+001 -4.6089e+001  4.1426e+000 23162 110441,110493,110467
 2.2000e+000 110620 -2.2232e+001 -5.0143e+001  3.7849e+000 23162 110415,110493,110441
 2.2000e+000 110597 -2.8854e+001 -6.9035e+001  1.5383e+000 23162 110519,110571,110545
 2.2000e+000 111211  4.3939e+000 -4.7696e+001  2.5119e+000 22708 111378,111306,111021
 2.2000e+000 111188  1.2881e+001 -4.5669e+001  1.6217e+000 22708 111234,110969,110917
 2.2000e+000 111165  2.5374e+000 -5.1279e+001 -1.4311e+000 22708 111450,111234,110917
 2.2000e+000 111142  9.9358e-001 -5.3072e+001 -1.3293e+000 22708 111378,111021,110995
 2.2000e+000 111119 -8.2182e-002 -4.6903e+001 -1.2123e+001 22708 111450,110917,110865
 2.2000e+000 111096  3.1004e+001 -5.6202e+001  9.0842e+000 22708 110917,110969,110943
 2.2000e+000 111073  3.4105e+000 -7.1894e+001 -2.2990e+001 22708 110865,110917,110891
 2.2000e+000 111260  1.0704e+001 -5.1969e+001  1.6415e+000 22708 111306,110969,111234
 2.2000e+000 111283  1.5187e+001 -4.1661e+001 -3.2969e+000 22708 111047,111234,110839
 2.2000e+000 111332  3.6156e+001 -6.0710e+001  2.3367e+001 22708 111047,111021,111306
 2.2000e+000 111355  1.6947e+001 -4.8207e+001 -4.6715e+000 22708 111047,111306,111234
 2.2000e+000 111404  9.8336e+000 -5.5358e+001  2.7193e+000 22708 110969,111306,111378
 2.2000e+000 111427  8.8162e+000 -5.3358e+001  1.6693e+000 22708 110969,111378,110995
 2.2000e+000 111476  1.7239e+001 -4.3161e+001 -4.6514e+000 22708 110839,111234,111450
 2.2000e+000 111499  1.8640e+001 -3.6339e+001 -1.6326e+001 22708 110839,111450,110865
 2.2000e+000 111600 -2.0699e+001 -5.7211e+001  3.8347e+000 22460 111522,111574,111548
 2.2000e+000 112059 -1.5293e+001 -5.5715e+001 -2.1321e+000 22056 111811,111889,111863
 2.2000e+000 112036 -1.4297e+001 -5.2954e+001 -3.1459e+000 22056 111811,111915,111889
 2.2000e+000 112013 -6.9970e+000 -4.9507e+001 -2.1631e+000 22056 111785,111915,111811
 2.2000e+000 111990 -9.8202e+000 -4.8024e+001 -4.5184e+000 22056 111785,111941,111915
 2.2000e+000 111967 -2.1760e+001 -6.2824e+001  9.9458e-001 22056 111811,111863,111837
 2.2000e+000 112486 -1.9316e+001 -5.6052e+001 -9.6974e-001 21594 112509,112267,112215
 2.2000e+000 112463 -2.1101e+001 -5.7285e+001  1.7719e+000 21594 112509,112215,112163
 2.2000e+000 112440 -2.1724e+001 -5.2870e+001 -3.7366e+000 21594 112581,112293,112267
 2.2000e+000 112417 -2.7496e+001 -5.3479e+001  1.2263e+000 21594 112215,112267,112241
 2.2000e+000 112394 -9.3187e+000 -4.7996e+001  8.7309e-001 21594 112163,112345,112319
 2.2000e+000 112371 -2.1730e+001 -5.0622e+001 -9.9184e-001 21594 112163,112215,112189
 2.2000e+000 112535 -1.8803e+001 -5.5006e+001 -1.2019e+000 21594 112581,112267,112509
 2.2000e+000 112558 -2.0318e+001 -5.1716e+001  1.9690e+000 21594 112319,112509,112163
 2.2000e+000 112607 -2.7729e+001 -5.5020e+001 -3.8787e+000 21594 112319,112293,112581
 2.2000e+000 112630 -2.4163e+001 -5.6443e+001 -6.3784e-001 21594 112319,112581,112509
 2.2000e+000 112900  1.4411e+001 -4.5659e+001  1.8538e+000 20974 112675,112779,112701
 2.2000e+000 112877  1.4276e+001 -5.2376e+001  5.4489e+000 20974 112675,112805,112779
 2.2000e+000 112854  2.3211e+001 -3.0732e+001  6.7859e+000 20974 112701,112779,112753
 2.2000e+000 112831  4.2204e+001  1.0171e+001 -1.6248e+001 20974 112701,112753,112727
 2.2000e+000 113359 -1.4887e+001 -5.5517e+001 -6.9347e+000 20520 113454,113137,113111
 2.2000e+000 113336 -7.4194e+000 -4.9085e+001 -3.8476e+000 20520 113454,113111,113085
 2.2000e+000 113313  4.9938e+000 -3.0923e+001  8.3020e+000 20520 113382,113163,113137
 2.2000e+000 113290 -9.1463e+000 -5.1004e+001 -7.7356e-001 20520 113526,113382,113137
 2.2000e+000 113267 -1.1303e+001 -7.4593e+001 -1.4419e+000 20520 113189,113241,113215
 2.2000e+000 113408 -4.7242e+000 -4.9878e+001 -6.7883e-001 20520 113189,113163,113382
 2.2000e+000 113431 -6.9290e+000 -5.4234e+001 -7.3925e+000 20520 113189,113382,113241
 2.2000e+000 113480 -1.1926e+001 -5.0415e+001 -2.2972e+000 20520 113526,113137,113454
 2.2000e+000 113503 -9.0406e+000 -4.8482e+001 -2.3164e+000 20520 113241,113454,113085
 2.2000e+000 113552 -4.0805e+000 -5.0839e+001 -1.2308e+000 20520 113241,113382,113526
 2.2000e+000 113575 -5.9210e+000 -4.9397e+001 -2.4272e+000 20520 113241,113526,113454
 2.2000e+000 113904 -2.4216e+001 -4.8830e+001  3.3684e-001 19858 113705,113783,113757
 2.2000e+000 113881 -2.5384e+001 -5.3345e+001  1.0328e+000 19858 113705,113809,113783
 2.2000e+000 113858 -1.9054e+001 -4.9392e+001 -3.6139e+000 19858 113679,113809,113705
 2.2000e+000 113835 -2.7368e+001 -5.1020e+001  8.1473e+000 19858 113705,113757,113731
 2.2000e+000 114152 -8.7183e+000 -5.2556e+001 -2.3489e+000 19454 114175,114005,113979
 2.2000e+000 114129 -8.3025e+000 -5.1140e+001 -2.1127e+000 19454 114175,113979,114057
 2.2000e+000 114106 -1.3031e+001 -6.0415e+001  9.7885e-001 19454 113927,114057,113979
 2.2000e+000 114083 -4.8876e+000 -4.5688e+001 -2.1987e+000 19454 113927,113979,113953
 2.2000e+000 114201 -2.3343e+001 -5.8992e+001 -1.2193e+001 19454 114031,114005,114175
 2.2000e+000 114224 -9.1146e+000 -4.8914e+001 -2.4600e+000 19454 114031,114175,114057
 2.2000e+000 114472 -6.9061e+000 -4.8187e+001 -8.0363e+000 19000 114495,114273,114247
 2.2000e+000 114449 -6.3603e+000 -5.4112e+001 -6.9231e+000 19000 114495,114247,114325
 2.2000e+000 114426 -1.8732e+001 -6.7031e+001  6.8404e-001 19000 114247,114377,114325
 2.2000e+000 114403 -2.0324e+001 -7.2909e+001  3.3880e+000 19000 114325,114377,114351
 2.2000e+000 114521 -6.2513e+000 -4.9135e+001 -2.0020e+000 19000 114299,114273,114495
 2.2000e+000 114544 -5.7006e+000 -5.9107e+001 -3.8394e+000 19000 114299,114495,114325
 2.2000e+000 114948 -8.7851e+000 -4.8436e+001 -7.6572e-001 18560 114674,114726,114700
 2.2000e+000 114925 -7.6883e+000 -4.4206e+001 -1.3304e+000 18560 114674,114830,114726
 2.2000e+000 114902 -5.5867e+000 -3.8945e+001  3.8886e-001 18560 114726,114830,114804
 2.2000e+000 114879 -1.9844e+001 -6.0252e+001 -6.2268e+000 18560 114726,114804,114752
 2.2000e+000 114856  1.7831e+001 -6.8579e+001 -1.6442e+001 18560 114752,114804,114778
 2.2000e+000 115098 -3.8270e+001 -7.1307e+001 -3.0392e+000 18156 114971,115023,114997
 2.2000e+000 115075 -4.1533e+001 -5.2476e+001 -2.1030e+000 18156 114971,115049,115023
 2.2000e+000 115248 -4.7868e+000 -4.8986e+001  9.9966e-001 17602 115147,115199,115173
 2.2000e+000 115225 -4.6282e+000 -5.6860e+001 -2.3054e+000 17602 115121,115199,115147
 2.2000e+000 115652 -1.0064e+001 -4.1683e+001  2.8209e+000 17354 115430,115534,115508
 2.2000e+000 115629 -6.8484e+000 -5.3189e+001  3.3478e+000 17354 115404,115534,115430
 2.2000e+000 115606 -3.0683e-001 -4.8777e+001  1.3859e+001 17354 115378,115534,115404
 2.2000e+000 115583 -1.7436e+001 -4.9896e+001 -7.9483e-001 17354 115456,115508,115482
 2.2000e+000 115560 -1.5639e+001 -5.1271e+001 -9.0063e-001 17354 115430,115508,115456
 2.2000e+000 115873  1.2333e+001 -5.6331e+001 -5.0082e+000 16950 115749,115801,115775
 2.2000e+000 115850  3.7293e+000 -6.8087e+001 -1.0082e+001 16950 115697,115801,115749
 2.2000e+000 115827  1.3986e+001 -4.6266e+001 -6.9357e+000 16950 115697,115749,115723
 2.2000e+000 116023 -1.4434e+001 -5.4752e+001 -6.8303e+000 16496 115922,115974,115948
 2.2000e+000 116000  9.5696e+000 -5.7859e+001 -6.9129e+000 16496 115896,115974,115922
 2.2000e+000 116126 -1.6633e+001 -6.8653e+001  1.7074e+000 16298 116048,116100,116074
 2.2000e+000 116278  3.9601e+001 -6.4985e+001 -4.0740e+000 15892 116151,116203,116177
 2.2000e+000 116255  2.7239e+000 -1.2556e+002  1.4713e+001 15892 116151,116229,116203
 2.2000e+000 116430 -1.9913e+001 -4.8109e+001 -5.0205e-001 15545 116303,116355,116329
 2.2000e+000 116407 -2.7535e+001 -7.1410e+001 -1.1651e+001 15545 116303,116381,116355
 2.2000e+000 116785  8.0514e+000 -2.9953e+001  5.9972e+000 421 116612,116690,116664
 2.2000e+000 116762 -4.8061e-001 -4.9965e+001  2.2824e+000 421 116560,116690,116612
 2.2000e+000 116739 -2.0540e+001 -6.1204e+001  8.4843e+000 421 116560,116612,116586
 2.2000e+000 116716 -1.4983e+001 -6.8198e+001 -5.0411e+000 421 116612,116664,116638
 2.3000e+000 68048 -1.3419e+001 -1.0938e+002 -5.1354e+000 67642 67898,67950,67924
 2.3000e+000 68025 -2.1341e+001 -1.1016e+002  1.2258e+000 67642 67898,67976,67950
 2.3000e+000 68002  1.3644e+001 -9.9275e+001  8.5964e+000 67642 67872,67976,67898
 2.3000e+000 68367  2.3535e+001 -1.3758e+001  7.4559e+000 67444 68119,68223,68197
 2.3000e+000 68344  3.0973e+000 -8.0293e+001  1.0878e+001 67444 68119,68249,68223
 2.3000e+000 68321 -2.5444e+000 -7.8295e+001  3.0560e+000 67444 68093,68249,68119
 2.3000e+000 68298  4.8686e-001 -6.6818e+001  4.8503e+000 67444 68119,68197,68171
 2.3000e+000 68275 -2.3550e+001 -7.0574e+001  5.1260e+000 67444 68119,68171,68145
 2.3000e+000 68468  1.4486e+000 -6.2016e+001 -4.1326e+000 67268 68390,68442,68416
 2.3000e+000 68765 -8.4015e+000 -7.6749e+001  9.3486e+000 66956 68788,68517,68491
 2.3000e+000 68742  8.4654e+000 -7.7974e+001  1.2250e+001 66956 68788,68491,68621
 2.3000e+000 68719  1.4859e+001 -5.8471e+001 -5.3482e+000 66956 68543,68621,68569
 2.3000e+000 68696  1.0341e+001 -8.0680e+001  6.1400e+000 66956 68491,68647,68621
 2.3000e+000 68673  1.6081e+001  2.3247e+001  9.2478e+000 66956 68569,68621,68595
 2.3000e+000 68814 -2.6369e+001 -7.5267e+001  9.5378e+000 66956 68543,68517,68788
 2.3000e+000 68837 -5.2456e+000 -7.3297e+001  1.2316e+001 66956 68543,68788,68621
 2.3000e+000 69107 -5.8094e+000 -1.0757e+002 -3.1466e+000 66758 68882,68986,68908
 2.3000e+000 69084 -2.1814e+001 -1.0868e+002  4.5039e+000 66758 68882,69012,68986
 2.3000e+000 69061 -3.0311e+000 -9.1169e+001 -7.6231e+000 66758 68908,68960,68934
 2.3000e+000 69038  3.5644e+000 -9.0900e+001 -7.1966e+000 66758 68908,68986,68960
 2.3000e+000 69308 -1.9662e+000 -5.2257e+001 -1.7721e+000 66560 69331,69184,69158
 2.3000e+000 69285 -6.8783e-001 -5.4992e+001 -2.2659e+000 66560 69331,69158,69132
 2.3000e+000 69262 -8.8678e+000 -7.9291e+001 -2.2998e+000 66560 69184,69236,69210
 2.3000e+000 69357 -1.2546e+000 -5.4425e+001 -9.0115e-001 66560 69236,69184,69331
 2.3000e+000 69380 -1.2192e+000 -5.8387e+001 -8.2500e-001 66560 69236,69331,69132
 2.3000e+000 69554  1.3761e+001 -7.9843e+001  1.2439e+001 66270 69427,69479,69453
 2.3000e+000 69531  3.9453e+001 -1.9733e+001  2.4258e+001 66270 69427,69505,69479
 2.3000e+000 69804  1.1729e+000 -4.8413e+001  1.5404e+001 66066 69579,69683,69657
 2.3000e+000 69781  2.1169e+001 -3.8295e+001 -9.6776e-001 66066 69579,69709,69683
 2.3000e+000 69758  1.9178e+001 -8.2369e+000  8.3095e+000 66066 69579,69657,69631
 2.3000e+000 69735  1.1713e+001 -2.0159e+001 -6.8166e+000 66066 69579,69631,69605
 2.3000e+000 70257  6.0856e+001  2.3855e+000 -1.7706e+001 65776 69960,70090,69986
 2.3000e+000 70234  4.7284e+001 -4.5245e+001 -9.2432e+000 65776 69934,70090,69960
 2.3000e+000 70211  6.9541e+000 -5.4619e+001 -4.3182e+000 65776 69934,70116,70090
 2.3000e+000 70188  4.1856e+001 -3.7608e+001  0.0000e+000 65776 70038,70090,70064
 2.3000e+000 70165  3.4831e+001 -3.5142e+001 -5.4819e+000 65776 69986,70090,70038
 2.3000e+000 70142  3.9502e+001 -1.4936e+001  5.7533e-002 65776 69986,70038,70012
 2.3000e+000 70456 -1.0188e+001 -1.3513e+001  1.0912e+000 65372 70479,70306,70280
 2.3000e+000 70433  3.1810e-002 -4.0310e+001 -1.2848e+001 65372 70479,70280,70384
 2.3000e+000 70410  1.4377e+001 -8.9400e+000  1.3417e+001 65372 70551,70332,70306
 2.3000e+000 70505  4.5501e+000 -4.4366e+000  7.9297e+000 65372 70551,70306,70479
 2.3000e+000 70528  1.9777e+001 -2.3171e+001 -4.6507e+000 65372 70358,70479,70384
 2.3000e+000 70577  3.3936e+000 -1.7333e+001  9.3188e+000 65372 70358,70332,70551
 2.3000e+000 70600 -5.5990e+000 -1.4136e+001  3.3220e+000 65372 70358,70551,70479
 2.3000e+000 70821 -1.4327e+001 -1.3443e+002 -4.8559e+000 65174 70645,70723,70671
 2.3000e+000 70798 -2.6002e+001 -1.3500e+002  4.6553e+000 65174 70645,70749,70723
 2.3000e+000 70775 -2.7209e+000 -1.1104e+002 -1.1244e+001 65174 70671,70723,70697
 2.3000e+000 71071 -1.8170e+001 -4.5661e+001 -2.0954e+001 64770 71094,70898,70872
 2.3000e+000 71048 -7.4582e+000 -4.5486e+001 -9.1994e+000 64770 71166,71094,70872
 2.3000e+000 71025 -7.2337e+000 -4.1707e+001 -6.4877e+000 64770 71166,70872,70846
 2.3000e+000 71002 -2.4726e+001 -2.8543e+001 -1.6939e+001 64770 70898,70950,70924
 2.3000e+000 71120 -7.5519e+000 -2.3916e+001 -1.7389e+001 64770 70950,70898,71094
 2.3000e+000 71143 -7.8986e+000 -3.7296e+001 -8.9860e+000 64770 70950,71094,70976
 2.3000e+000 71192 -5.9937e+000 -3.8074e+001 -8.8546e+000 64770 70976,71094,71166
 2.3000e+000 71215 -7.4951e+000 -3.6822e+001 -6.0654e+000 64770 70976,71166,70846
 2.3000e+000 71514  1.4796e+001 -3.1879e+001 -1.0486e+001 64572 71681,71537,71318
 2.3000e+000 71491 -1.7577e+001 -3.2247e+001 -4.0683e+000 64572 71537,71266,71240
 2.3000e+000 71468  1.2982e+000 -1.2846e+001 -1.4601e+001 64572 71609,71396,71370
 2.3000e+000 71445  1.5550e+001 -3.5179e+001 -9.1251e+000 64572 71681,71318,71292
 2.3000e+000 71422  1.4655e+001 -9.6729e+001 -2.4378e+001 64572 71753,71344,71318
 2.3000e+000 71563  3.2201e+001 -4.4233e+001 -2.7877e+001 64572 71753,71318,71537
 2.3000e+000 71586  7.9427e-001 -7.6415e+000 -1.9924e+001 64572 71609,71370,71537
 2.3000e+000 71635 -9.4849e+000 -3.2139e+001 -4.7652e+000 64572 71240,71396,71609
 2.3000e+000 71658  2.0259e-001 -1.8041e+001 -1.2126e+001 64572 71240,71609,71537
 2.3000e+000 71707  1.2952e+001 -2.4128e+001 -1.1151e+001 64572 71266,71537,71681
 2.3000e+000 71730  1.1693e+001 -2.8144e+001 -8.0974e+000 64572 71266,71681,71292
 2.3000e+000 71779  3.3246e+001 -3.0819e+001 -3.5513e+001 64572 71370,71344,71753
 2.3000e+000 71802  2.2701e+001 -2.1246e+001 -3.9868e+001 64572 71370,71753,71537
 2.3000e+000 72052  6.6100e+000 -4.2160e+001 -3.9991e-002 64374 72075,71879,71827
 2.3000e+000 72029  4.2509e+001 -2.6794e+001 -2.0174e+000 64374 72147,72075,71827
 2.3000e+000 72006  6.6533e+001 -3.7563e+001 -1.8585e+001 64374 72147,71827,71957
 2.3000e+000 71983  1.4209e+001 -2.7757e+001 -2.9871e+000 64374 71827,71879,71853
 2.3000e+000 72101  1.5421e+001 -5.7827e+001  2.1186e+001 64374 71905,71879,72075
 2.3000e+000 72124  5.8535e+001 -4.3532e+001  2.1098e+001 64374 71905,72075,71931
 2.3000e+000 72173  2.1893e+001 -5.6709e+001  7.3308e+000 64374 71931,72075,72147
 2.3000e+000 72196  3.8646e+001 -7.1547e+001 -6.5918e+000 64374 71931,72147,71957
 2.3000e+000 72649  3.2641e+001 -1.2387e+001 -1.7655e+000 63948 72352,72508,72482
 2.3000e+000 72626  3.8500e+001  1.1110e+000  1.2431e+001 63948 72326,72508,72352
 2.3000e+000 72603  2.2610e+001 -4.0487e+001  5.1649e+000 63948 72672,72430,72378
 2.3000e+000 72580  2.7207e+001 -3.3579e+001  2.5990e+000 63948 72672,72378,72352
 2.3000e+000 72557  3.3947e+001 -5.5518e+001  2.4892e+000 63948 72744,72456,72430
 2.3000e+000 72534  1.6450e+001 -7.9236e+001 -1.5348e+001 63948 72378,72430,72404
 2.3000e+000 72698  2.3345e+001 -4.9972e+001  6.6800e+000 63948 72744,72430,72672
 2.3000e+000 72721  2.5068e+001 -3.9201e+001  4.4726e+000 63948 72482,72672,72352
 2.3000e+000 72770  3.8391e+001 -4.8925e+001  3.6102e-001 63948 72482,72456,72744
 2.3000e+000 72793  3.2512e+001 -3.5919e+001  2.7196e+000 63948 72482,72744,72672
 2.3000e+000 72894 -1.6881e+000 -3.9747e+001 -6.9664e+000 63494 72816,72868,72842
 2.3000e+000 73093  5.6210e+000 -1.7928e+001 -5.5249e+000 63132 72943,72995,72969
 2.3000e+000 73070 -3.6654e-001 -1.6471e+001  3.1447e+000 63132 72943,73021,72995
 2.3000e+000 73047  7.6234e-001  4.5721e-001 -1.9945e-001 63132 72917,73021,72943
 2.3000e+000 73294 -1.1098e+000  6.8433e+000  3.6704e+000 62792 73317,73144,73118
 2.3000e+000 73271 -8.1545e-001  4.1987e+000 -1.8393e+000 62792 73317,73118,73222
 2.3000e+000 73248  5.6732e+000  9.6695e+000  6.0231e+000 62792 73144,73196,73170
 2.3000e+000 73343  4.4611e+000  1.0601e+001  5.5495e+000 62792 73196,73144,73317
 2.3000e+000 73366  4.0444e+000  7.1057e+000 -1.7896e-001 62792 73196,73317,73222
 2.3000e+000 73616 -7.4903e+000 -2.8072e+001  2.2495e+001 62388 73639,73417,73391
 2.3000e+000 73593 -2.6934e+000 -1.8908e+001  1.2493e+001 62388 73711,73639,73391
 2.3000e+000 73570 -2.0193e+000 -2.3283e+001  1.2452e+001 62388 73711,73391,73521
 2.3000e+000 73547  1.1100e+000 -2.1445e+001  8.6208e+000 62388 73469,73521,73495
 2.3000e+000 73665  5.6346e+000 -2.4675e+001  7.9849e+000 62388 73443,73417,73639
 2.3000e+000 73688 -9.7933e-001 -1.8954e+000  3.9358e+000 62388 73443,73639,73469
 2.3000e+000 73737 -1.7586e+000 -1.5600e+001  1.3515e+001 62388 73469,73639,73711
 2.3000e+000 73760 -1.7182e-001 -1.8158e+001  1.3006e+001 62388 73469,73711,73521
 2.3000e+000 74010 -1.3110e+000  2.5506e+000  2.9216e+000 61848 74033,73837,73811
 2.3000e+000 73987 -1.3085e+001  4.1466e+000 -6.1703e+000 61848 74033,73811,73785
 2.3000e+000 73964 -6.9486e-001 -3.4801e+000 -9.0148e-001 61848 73837,73915,73889
 2.3000e+000 73941 -1.0930e-001 -6.9906e-001 -7.3340e-001 61848 73837,73889,73863
 2.3000e+000 74059  7.8698e-002 -3.2941e+000 -4.2247e-001 61848 73915,73837,74033
 2.3000e+000 74082 -9.2318e-001 -8.2281e+000 -3.4588e+000 61848 73915,74033,73785
 2.3000e+000 74283  7.7873e+000 -7.3858e+000  1.8873e+001 61444 74306,74133,74107
 2.3000e+000 74260  2.1533e+001  1.3193e+001  4.0064e+000 61444 74306,74107,74211
 2.3000e+000 74237  4.1499e+001  6.8982e+001 -4.2154e+000 61444 74378,74185,74159
 2.3000e+000 74332  2.5464e+001 -4.1587e-001  4.3129e+000 61444 74159,74133,74306
 2.3000e+000 74355  3.1580e+001  1.8073e+001 -8.3230e+000 61444 74378,74159,74306
 2.3000e+000 74404  1.8896e+001  1.3680e+001 -4.8119e+000 61444 74211,74185,74378
 2.3000e+000 74427  2.6608e+001  4.7194e+000 -5.2117e+000 61444 74211,74378,74306
 2.3000e+000 74628  2.6276e+001 -5.9242e+000  7.4313e+000 60990 74478,74530,74504
 2.3000e+000 74605 -4.0811e+000 -1.8227e+001  4.8088e+000 60990 74452,74530,74478
 2.3000e+000 74582 -2.0143e+000 -4.0418e+000 -1.9453e+000 60990 74452,74556,74530
 2.3000e+000 75089  5.5974e+001  1.3851e+001 -3.8670e+001 60486 75112,74945,74919
 2.3000e+000 75066  1.9810e+001 -7.8559e+000 -8.6627e+000 60486 75112,74919,74867
 2.3000e+000 75043 -3.6807e+001 -2.2913e+001 -1.4398e+001 60486 74841,74971,74867
 2.3000e+000 75020  9.7211e+000  1.9508e+001 -5.1621e+001 60486 74867,74919,74893
 2.3000e+000 74997  1.0888e+000  2.5933e+000 -1.1424e+000 60486 74815,74971,74841
 2.3000e+000 75138  9.8637e+000  1.6807e+000 -2.3099e+001 60486 74971,74945,75112
 2.3000e+000 75161 -7.8453e+000  3.3669e+000  1.9428e+000 60486 74971,75112,74867
 2.3000e+000 75409 -1.3261e+000  9.4845e+000  1.2762e+001 59932 75576,75432,75288
 2.3000e+000 75386  9.4541e-001  8.7653e+000  1.0330e+001 59932 75504,75314,75288
 2.3000e+000 75363  1.8608e+001  2.9270e+001  2.7861e+001 59932 75432,75236,75210
 2.3000e+000 75340  4.9258e+000 -3.6033e-001  1.5439e-003 59932 75576,75288,75262
 2.3000e+000 75458 -5.7771e-001  1.1018e+001  9.6823e+000 59932 75504,75288,75432
 2.3000e+000 75481 -3.6980e+000  8.1258e+000  1.0499e+001 59932 75184,75432,75210
 2.3000e+000 75530  1.7534e+000 -4.8881e+000  6.6623e+000 59932 75184,75314,75504
 2.3000e+000 75553 -2.7217e+000  8.7253e+000  8.5668e+000 59932 75184,75504,75432
 2.3000e+000 75602 -6.3083e+000 -1.2481e+001  1.7124e+001 59932 75236,75432,75576
 2.3000e+000 75625  2.4497e+000 -1.9070e+001  1.1724e+001 59932 75236,75576,75262
 2.3000e+000 75873  1.9035e+001 -3.3618e+001  6.1621e+000 59478 75674,75752,75700
 2.3000e+000 75850 -2.0221e+001 -5.0259e+001  1.0818e+001 59478 75648,75752,75674
 2.3000e+000 75827  1.5285e+001 -3.7396e+001  4.4195e+000 59478 75700,75752,75726
 2.3000e+000 75804 -1.5034e+001 -5.2253e+001  1.0505e+001 59478 75648,75778,75752
 2.3000e+000 76206  1.9748e+000 -2.4311e+001  1.3653e+001 59024 75981,76059,76007
 2.3000e+000 76183  1.0935e+001 -2.5264e+001  1.2697e+001 59024 75981,76111,76059
 2.3000e+000 76160  2.4225e+001 -7.5238e+000  5.6431e+000 59024 76007,76059,76033
 2.3000e+000 76137  1.2979e+001 -2.0166e+001  1.2709e+001 59024 76059,76111,76085
 2.3000e+000 76761 -8.0315e+000 -5.1437e+000 -8.5530e+000 58562 76389,76441,76415
 2.3000e+000 76738 -2.1254e+001 -4.6797e+000  1.3250e+000 58562 76856,76784,76389
 2.3000e+000 76715 -2.1842e+001 -1.3236e+001 -1.3936e+001 58562 76784,76571,76467
 2.3000e+000 76692 -5.0773e+000  3.2966e+000 -2.3380e+000 58562 76856,76389,76597
 2.3000e+000 76669 -3.5836e+001 -1.0517e+002  2.5882e+001 58562 76467,76545,76493
 2.3000e+000 76646 -8.7172e+000 -6.5413e+001 -3.0673e+001 58562 76467,76571,76545
 2.3000e+000 76623  5.4157e+001 -7.9753e+001  3.2291e+001 58562 76493,76545,76519
 2.3000e+000 76810 -1.1353e+001 -1.8020e+001 -9.9985e+000 58562 76441,76389,76784
 2.3000e+000 76833 -5.5465e+001 -6.3955e+001 -4.5120e+001 58562 76441,76784,76467
 2.3000e+000 76882 -2.3896e+000 -1.3788e+001  9.6635e+000 58562 76571,76784,76856
 2.3000e+000 76905  5.0608e+000 -1.1706e+001  8.2297e+000 58562 76571,76856,76597
 2.3000e+000 77055 -6.9849e+000 -5.3204e+001  3.4483e+000 57844 76928,76980,76954
 2.3000e+000 77032  3.3261e+000 -1.6586e+001 -4.4646e+000 57844 76928,77006,76980
 2.3000e+000 77533 -1.8615e+001 -1.3610e+002  7.7174e+000 57226 77628,77556,77291
 2.3000e+000 77510 -1.3490e+001 -3.3826e+001  2.4811e+001 57226 77556,77187,77343
 2.3000e+000 77487 -1.9261e+001 -8.8544e+001 -5.5038e+000 57226 77628,77291,77265
 2.3000e+000 77464 -4.5484e+001 -1.6973e+002  4.5876e+001 57226 77700,77213,77187
 2.3000e+000 77441 -1.5561e+001 -4.5309e+001  8.9705e+000 57226 77161,77343,77187
 2.3000e+000 77418 -1.7674e+001 -2.5339e+001  1.3182e+000 57226 77161,77369,77343
 2.3000e+000 77395 -6.8479e+001 -3.1824e+001  4.4559e+000 57226 77213,77265,77239
 2.3000e+000 77582  3.2363e+000 -7.5739e+001  1.8325e+001 57226 77317,77291,77556
 2.3000e+000 77605 -1.7541e+001 -8.7026e+001  2.3583e+001 57226 77317,77556,77343
 2.3000e+000 77654 -5.4300e+000 -8.2951e+001  4.0146e+001 57226 77187,77556,77628
 2.3000e+000 77677 -3.7519e+001 -1.5292e+002  4.8100e+001 57226 77700,77187,77628
 2.3000e+000 77726 -7.2878e+001 -1.8761e+002 -2.3228e+001 57226 77265,77213,77700
 2.3000e+000 77749 -4.5025e+001 -1.2596e+002 -1.7271e+001 57226 77265,77700,77628
 2.3000e+000 78046 -1.4990e+001 -6.0215e+001  2.2712e+001 56936 77798,77850,77824
 2.3000e+000 78023 -1.2044e+001 -5.8778e+001  1.8249e+001 56936 78069,77798,77902
 2.3000e+000 78000  5.4335e+000 -7.0883e+001  1.9932e+001 56936 78069,77902,77876
 2.3000e+000 77977 -1.6804e+001 -6.0059e+001  2.1957e+001 56936 77798,77928,77902
 2.3000e+000 77954 -1.5562e+001 -5.5191e+000  3.5849e+001 56936 77772,77928,77798
 2.3000e+000 78095 -1.5788e+001 -6.5698e+001  2.2317e+001 56936 77850,77798,78069
 2.3000e+000 78118 -7.5620e+000 -8.0526e+001  2.7383e+001 56936 77850,78069,77876
 2.3000e+000 78754  2.3070e+001 -4.8205e+000 -5.2844e+000 56475 78777,78486,78408
 2.3000e+000 78731  2.4852e+001 -1.0158e+001 -1.9700e+000 56475 78777,78408,78382
 2.3000e+000 78708  3.5783e+001 -1.1202e+001 -1.1301e+001 56475 78849,78512,78486
 2.3000e+000 78685  3.4024e+001 -1.4948e-001 -7.6627e+000 56475 78382,78590,78564
 2.3000e+000 78662  3.1033e+001  7.7473e+000 -2.1425e+001 56475 78512,78564,78538
 2.3000e+000 78639  2.5635e+001 -2.9096e+001 -1.5102e+000 56475 78434,78486,78460
 2.3000e+000 78616  3.0943e+000 -4.4373e+001  5.1746e+000 56475 78408,78486,78434
 2.3000e+000 78803  2.3842e+001 -9.1243e+000 -5.2980e+000 56475 78849,78486,78777
 2.3000e+000 78826  2.7684e+001 -2.3786e+000 -5.7626e+000 56475 78564,78777,78382
 2.3000e+000 78875  4.1519e+001 -4.1818e+000 -1.7577e+001 56475 78564,78512,78849
 2.3000e+000 78898  3.5415e+001  2.6223e+000 -1.2237e+001 56475 78564,78849,78777
 2.3000e+000 79276 -7.9131e+000  6.0309e+000 -4.0902e+000 55964 79299,79080,79028
 2.3000e+000 79253 -2.5663e-001 -1.4303e-001  4.5673e+000 55964 79299,79028,79132
 2.3000e+000 79230 -5.3381e+000 -6.9278e+000 -7.2256e+000 55964 79028,79080,79054
 2.3000e+000 79207 -2.1067e+000 -3.4159e+000  3.0667e+000 55964 79002,79132,79028
 2.3000e+000 79184 -7.6118e-001 -2.5089e+000  7.3949e-003 55964 79002,79158,79132
 2.3000e+000 79325 -2.3608e+000  1.6426e+001 -1.8350e+000 55964 79106,79080,79299
 2.3000e+000 79348  4.1918e+000  7.6983e+000  6.4701e+000 55964 79106,79299,79132
 2.3000e+000 79498  2.1674e+001  1.2639e+001 -7.9839e-001 55452 79397,79449,79423
 2.3000e+000 79475  2.2741e+001 -8.9548e+000 -3.6372e-001 55452 79371,79449,79397
 2.3000e+000 79795 -1.8044e+001 -3.9625e+001  5.4326e+000 55048 79962,79818,79573
 2.3000e+000 79772 -1.9500e+001 -5.2811e+001  1.0722e+001 55048 79818,79521,79677
 2.3000e+000 79749  1.0442e+001 -2.8440e+001  1.3251e+001 55048 79599,79651,79625
 2.3000e+000 79726 -1.1776e+001 -3.1222e+001  6.1947e+000 55048 79890,79651,79599
 2.3000e+000 79703 -1.7099e+001 -4.6439e+001  1.0071e+001 55048 79962,79573,79547
 2.3000e+000 79844 -2.0931e+001 -3.4199e+001  5.4843e+000 55048 79599,79573,79818
 2.3000e+000 79867 -1.6639e+001 -4.1354e+001  3.9886e+000 55048 79890,79599,79818
 2.3000e+000 79916 -9.6576e+000 -3.2253e+001  1.6230e+001 55048 79677,79651,79890
 2.3000e+000 79939 -1.1982e+001 -3.6236e+001  1.4318e+001 55048 79677,79890,79818
 2.3000e+000 79988 -2.5761e+001 -3.9157e+001  1.1403e+001 55048 79521,79818,79962
 2.3000e+000 80011 -2.6554e+001 -4.2291e+001  1.5628e+001 55048 79521,79962,79547
 2.3000e+000 80212 -1.2527e-001 -6.5847e+001  3.4121e+001 54436 80235,80088,80036
 2.3000e+000 80189  4.7960e-001 -6.1507e+001  3.2472e+001 54436 80235,80036,80140
 2.3000e+000 80166  9.0575e+000 -9.4480e+001  4.0812e+000 54436 80036,80088,80062
 2.3000e+000 80261  9.3242e-001 -7.0391e+001  3.5393e+001 54436 80114,80088,80235
 2.3000e+000 80284  1.5899e+000 -6.6649e+001  3.3324e+001 54436 80114,80235,80140
 2.3000e+000 80534  1.8645e+001 -2.3936e+001  7.4651e+000 54032 80557,80361,80335
 2.3000e+000 80511  1.8236e+001 -1.4162e+001  7.3339e-001 54032 80557,80335,80309
 2.3000e+000 80488  3.5715e-001 -3.4577e+001  1.6147e+001 54032 80629,80413,80387
 2.3000e+000 80465  6.1805e+000 -5.0862e+001  1.2167e+001 54032 80309,80439,80413
 2.3000e+000 80583  1.7119e+001 -2.1374e+001  5.7885e+000 54032 80387,80361,80557
 2.3000e+000 80606  5.2452e+000 -2.5151e+001  9.5656e+000 54032 80629,80387,80557
 2.3000e+000 80655  9.7136e+000 -2.8507e+001  7.2490e+000 54032 80309,80413,80629
 2.3000e+000 80678  1.4720e+001 -2.6095e+001  1.6641e+000 54032 80309,80629,80557
 2.3000e+000 81139  1.7768e+000 -5.3385e+001  9.4335e+000 53784 80865,80995,80917
 2.3000e+000 81116  3.4024e+001 -3.7569e+001  2.9068e+000 53784 80865,81021,80995
 2.3000e+000 81093 -4.7116e-001 -1.1743e+002  5.9305e+000 53784 80943,80995,80969
 2.3000e+000 81070  4.0789e+001 -3.3714e+001  1.9137e+001 53784 80917,80995,80943
 2.3000e+000 81047  4.4990e+000 -5.6724e+001  7.6830e+000 53784 80865,80917,80891
 2.3000e+000 81468 -9.3626e+000 -4.0752e+001  5.4248e+000 53230 81295,81373,81347
 2.3000e+000 81445  4.7113e+000 -2.7963e+001  1.2648e+001 53230 81243,81373,81295
 2.3000e+000 81422 -7.7085e+000 -4.8968e+001  7.3108e+000 53230 81243,81295,81269
 2.3000e+000 81399  3.2670e+001 -2.3702e+001  6.4930e+000 53230 81295,81347,81321
 2.3000e+000 81618  1.4855e+000  2.3221e+000 -1.6876e+000 52790 81491,81543,81517
 2.3000e+000 81595  8.2274e+000  6.0791e+001 -1.1650e+001 52790 81491,81569,81543
 2.3000e+000 82126  3.9793e+001  1.6857e+001 -2.0101e+001 52386 82149,81907,81881
 2.3000e+000 82103  2.7061e+001 -6.3365e+000 -1.0550e+001 52386 82149,81881,81855
 2.3000e+000 82080  2.1561e+001  7.0209e+000  1.8137e+000 52386 82221,81803,81985
 2.3000e+000 82057 -1.3845e+001 -8.7800e+000 -6.2527e+000 52386 81803,81855,81829
 2.3000e+000 82034  2.7088e+001  4.3485e+000 -1.4054e+001 52386 81907,81985,81933
 2.3000e+000 82011  5.6229e+001  1.2793e+001 -1.7568e+001 52386 81933,81985,81959
 2.3000e+000 82175  2.1799e+001 -3.3933e+000 -1.0090e+001 52386 81985,81907,82149
 2.3000e+000 82198  3.1728e+001  2.3766e+000 -5.7346e+000 52386 82221,81985,82149
 2.3000e+000 82247  1.5327e+001 -3.4827e+000  5.5267e+000 52386 81855,81803,82221
 2.3000e+000 82270  2.1426e+001 -1.1496e+001 -9.2961e-001 52386 81855,82221,82149
 2.3000e+000 82825 -1.6004e+001 -6.4417e+001  4.8861e+000 51782 82505,82661,82635
 2.3000e+000 82802 -4.9096e+001 -9.4381e+001 -1.4493e+001 51782 82479,82661,82505
 2.3000e+000 82779 -2.9226e+001 -8.0161e+001 -3.2848e+001 51782 82557,82635,82609
 2.3000e+000 82756 -2.3500e+001 -6.5559e+001 -1.5360e+001 51782 82531,82635,82557
 2.3000e+000 82733 -1.0574e+001 -7.1960e+001 -1.0791e+001 51782 82505,82635,82531
 2.3000e+000 82710  1.4379e+001 -2.8279e+001  2.7723e+001 51782 82453,82661,82479
 2.3000e+000 82687 -2.1008e+000 -6.8143e+001 -2.6228e+001 51782 82557,82609,82583
 2.3000e+000 83171 -2.4117e+000 -7.6139e+001  3.7164e+000 51442 83194,82978,82900
 2.3000e+000 83148 -1.2721e+001 -4.4586e+001  5.0141e+000 51442 83194,82900,82874
 2.3000e+000 83125  8.9761e+000 -7.0572e+001  1.2456e+001 51442 82900,82978,82926
 2.3000e+000 83102  3.2113e-001 -1.3169e+001 -5.4244e+000 51442 82874,83030,83004
 2.3000e+000 83079  2.0646e+001 -7.5157e+001  2.4405e+000 51442 82926,82978,82952
 2.3000e+000 83056 -9.4657e-001 -2.4167e+001 -9.7745e+000 51442 82848,83030,82874
 2.3000e+000 83220 -5.1142e+000 -5.6133e+001 -4.4700e+000 51442 83004,82978,83194
 2.3000e+000 83243 -1.2817e+001 -2.0331e+001 -1.2167e+000 51442 83004,83194,82874
 2.3000e+000 83751 -2.7030e+001 -1.3725e+001 -1.6473e+000 50938 83428,83584,83454
 2.3000e+000 83728 -2.1643e+001 -1.1626e+001 -6.4411e-001 50938 83428,83610,83584
 2.3000e+000 83705 -1.9935e+001 -3.1771e+001 -3.0262e+000 50938 83454,83584,83558
 2.3000e+000 83682 -1.7643e+001 -3.1231e+001 -3.3263e+000 50938 83454,83532,83480
 2.3000e+000 83659 -2.4896e+001 -3.3421e+001 -1.1905e+000 50938 83454,83558,83532
 2.3000e+000 83636 -1.6272e+001 -3.0213e+001 -2.7237e+000 50938 83480,83532,83506
 2.3000e+000 84355 -2.7985e+001 -8.0678e+001  1.2120e+001 50377 84378,83960,83934
 2.3000e+000 84332 -2.5610e+001 -8.4998e+001 -2.8874e+000 50377 84522,84378,83934
 2.3000e+000 84309 -1.4335e+001 -5.3156e+001  1.0508e+001 50377 84450,84038,84012
 2.3000e+000 84286 -1.2711e+001 -9.7045e+001 -3.0963e+000 50377 84522,83934,84142
 2.3000e+000 84263 -1.2021e+001 -5.4495e+001  6.9256e+000 50377 84594,84090,84038
 2.3000e+000 84240 -5.4548e+000 -8.2997e+001 -1.5675e+000 50377 83960,84012,83986
 2.3000e+000 84217  3.3795e+001 -8.3729e+001  5.0838e+000 50377 83934,84168,84142
 2.3000e+000 84194 -2.4900e+000 -3.6160e+001  1.8337e+001 50377 84038,84090,84064
 2.3000e+000 84404 -1.6231e+001 -7.2500e+001  7.6489e+000 50377 84012,83960,84378
 2.3000e+000 84427 -1.8376e+001 -5.5773e+001  7.8088e+000 50377 84450,84012,84378
 2.3000e+000 84476 -1.7310e+001 -5.5780e+001  4.8713e+000 50377 84594,84038,84450
 2.3000e+000 84499 -1.6031e+001 -7.0574e+001  1.0468e+000 50377 84116,84450,84378
 2.3000e+000 84548 -1.5362e+001 -7.1251e+001  2.6391e+000 50377 84116,84378,84522
 2.3000e+000 84571 -3.8783e+000 -8.5283e+001  2.1372e+000 50377 84116,84522,84142
 2.3000e+000 84620 -2.4169e+000 -5.7911e+001  8.7176e+000 50377 84116,84090,84594
 2.3000e+000 84643 -6.5604e+000 -5.8208e+001  6.7984e+000 50377 84116,84594,84450
 2.3000e+000 84842  4.5556e+001 -4.8733e+001  4.2206e+000 49923 84865,84692,84666
 2.3000e+000 84819  3.1985e+001 -1.3549e+001 -4.1082e+001 49923 84865,84666,84770
 2.3000e+000 84796  1.0516e+001 -7.1164e+001  7.0298e+000 49923 84692,84744,84718
 2.3000e+000 84891  3.3812e+001 -8.2931e+001  3.4964e+000 49923 84744,84692,84865
 2.3000e+000 84914  8.5065e+000 -7.1527e+001 -4.5133e+001 49923 84744,84865,84770
 2.3000e+000 85501 -9.6962e+000 -6.5799e+001  3.5466e+000 49618 85524,85282,85204
 2.3000e+000 85478 -2.6463e+001 -7.0194e+001  5.5614e+000 49618 85596,85524,85204
 2.3000e+000 85455 -4.2084e+001 -7.5112e+001  1.0476e+000 49618 85596,85204,85178
 2.3000e+000 85432 -3.5715e+001 -7.7283e+001  8.8259e+000 49618 85204,85282,85256
 2.3000e+000 85409 -1.3228e+001 -1.0123e+002  8.4332e+000 49618 85282,85334,85308
 2.3000e+000 85386 -3.5511e+001 -8.3407e+001 -3.6498e+000 49618 85204,85256,85230
 2.3000e+000 85550 -1.5093e+001 -7.6761e+001  5.5202e+000 49618 85334,85282,85524
 2.3000e+000 85573  2.5165e+001 -5.6184e+001  1.9876e+001 49618 85334,85524,85360
 2.3000e+000 85622 -1.4947e+000 -8.1775e+001  4.2977e+000 49618 85360,85524,85596
 2.3000e+000 85645 -1.6033e+001 -8.4626e+001  2.4092e+000 49618 85360,85596,85178
 2.3000e+000 85795 -5.3664e+001 -1.2921e+002 -2.1084e+000 49278 85694,85746,85720
 2.3000e+000 85772 -8.2515e+001 -2.2161e+002 -1.1235e+001 49278 85668,85746,85694
 2.3000e+000 86197 -3.3821e+001 -1.4525e+002 -3.5460e+001 48916 86001,86079,86027
 2.3000e+000 86174 -3.0995e+001 -9.6681e+001 -7.2088e+000 48916 85949,86079,86001
 2.3000e+000 86151 -1.6507e+001 -1.3707e+002 -7.1664e+000 48916 85949,86001,85975
 2.3000e+000 86128 -3.9776e+001 -1.6668e+002 -3.7106e+001 48916 86027,86079,86053
 2.3000e+000 86105 -1.3077e+001 -7.4636e+001  7.3700e+000 48916 85923,86079,85949
 2.3000e+000 86477  1.3204e+000 -3.2798e+001  7.7611e+000 48398 86327,86379,86353
 2.3000e+000 86454 -3.4873e+000 -3.5326e+001  4.9436e+000 48398 86500,86379,86327
 2.3000e+000 86431  3.9251e+000 -2.4679e+001  1.0017e+001 48398 86301,86405,86379
 2.3000e+000 86526 -1.0829e+001 -2.9491e+001  1.0588e+001 48398 86301,86379,86500
 2.3000e+000 87032 -9.2340e+000 -5.7464e+001 -8.4058e+000 48008 87127,87055,86787
 2.3000e+000 87009 -6.7314e+000 -6.1912e+001  1.0462e+000 48008 87055,86735,86709
 2.3000e+000 86986 -9.8530e+000 -5.7077e+001 -8.2998e+000 48008 87127,86787,86761
 2.3000e+000 86963 -5.5472e+000 -3.5665e+001 -1.4651e-001 48008 86787,86865,86839
 2.3000e+000 86940  1.1520e+001 -4.2186e+001  1.0430e+001 48008 86709,86891,86865
 2.3000e+000 86917 -1.9656e+001 -3.9714e+001 -4.2456e-001 48008 86787,86839,86813
 2.3000e+000 87081 -1.2559e+001 -5.1325e+001 -2.6528e+000 48008 86865,86787,87055
 2.3000e+000 87104 -3.7374e+000 -4.0545e+001  7.1007e+000 48008 86865,87055,86709
 2.3000e+000 87153 -1.0278e+001 -5.6242e+001 -8.1517e+000 48008 86735,87055,87127
 2.3000e+000 87176 -1.3131e+001 -5.8432e+001 -7.1039e+000 48008 86735,87127,86761
 2.3000e+000 87456  1.2958e+000 -3.6861e+001 -1.3482e+000 47604 87306,87358,87332
 2.3000e+000 87433  2.4371e+001 -2.4221e+001 -6.2588e+000 47604 87306,87384,87358
 2.3000e+000 87410 -2.7439e+000 -3.5783e+001 -5.2918e+000 47604 87280,87384,87306
 2.3000e+000 87785  5.4153e+001 -3.5634e+001  5.1711e+000 47264 87638,87690,87664
 2.3000e+000 87762  1.1809e+001 -6.6326e+001  2.0261e+001 47264 87612,87690,87638
 2.3000e+000 87739  5.9098e+000 -7.7713e+001  1.8175e+001 47264 87560,87690,87612
 2.3000e+000 87716  8.4127e+000 -8.6235e+001  1.2989e+001 47264 87560,87612,87586
 2.3000e+000 87935  6.9920e+000 -1.3650e+001  1.5103e+000 46952 87808,87860,87834
 2.3000e+000 87912 -8.1614e+000 -5.8900e+001 -2.7396e+000 46952 87808,87886,87860
 2.3000e+000 88281 -6.0246e-002 -4.3812e+001  5.9427e+000 46526 88304,88114,88036
 2.3000e+000 88258  1.5825e+001 -5.1563e+001  3.2913e+000 46526 88304,88036,87984
 2.3000e+000 88235  1.5841e+000 -4.0457e+001 -1.7676e+000 46526 88036,88114,88062
 2.3000e+000 88212  7.9459e-003 -5.8716e+001  2.9006e+001 46526 87958,88140,87984
 2.3000e+000 88189  1.7819e+001 -4.6533e+001  3.3346e-001 46526 87984,88036,88010
 2.3000e+000 88166  3.1148e+000 -2.3032e+001  8.2695e+000 46526 88062,88114,88088
 2.3000e+000 88330 -7.7050e+000 -4.9657e+001  8.5942e+000 46526 88140,88114,88304
 2.3000e+000 88353  4.0856e+000 -6.0723e+001  7.2747e+000 46526 88140,88304,87984
 2.3000e+000 88701  1.1568e+001 -4.0512e+001  1.5468e+001 45822 88724,88378,88534
 2.3000e+000 88678  1.1353e+001 -2.4192e+001  1.8384e+001 45822 88378,88560,88534
 2.3000e+000 88655 -5.7166e+000 -4.4490e+001  1.1251e+001 45822 88724,88534,88508
 2.3000e+000 88632 -2.0514e+001 -5.1083e+001  3.9337e+000 45822 88404,88508,88456
 2.3000e+000 88609 -2.1772e+001 -5.2485e+001  6.2303e+000 45822 88404,88456,88430
 2.3000e+000 88586 -5.8465e+000 -2.1203e+001 -1.2031e+001 45822 88456,88508,88482
 2.3000e+000 88750 -2.3918e+000 -4.1586e+001  6.2498e+000 45822 88404,88378,88724
 2.3000e+000 88773 -1.5906e+001 -4.2927e+001  2.1024e+000 45822 88404,88724,88508
 2.3000e+000 89106 -2.8521e+001 -6.2128e+001  1.0587e+001 45418 88881,88985,88907
 2.3000e+000 89083 -2.4783e+001 -5.6224e+001  8.3660e+000 45418 88881,89011,88985
 2.3000e+000 89060  1.0801e+001 -4.0907e+001  1.9181e+001 45418 88907,88985,88933
 2.3000e+000 89037 -2.6659e+001 -5.5347e+001  1.7962e+000 45418 88933,88985,88959
 2.3000e+000 89435  3.4449e+001 -1.6293e+001  6.4822e+000 44914 89210,89288,89236
 2.3000e+000 89412  3.6728e+000 -5.5452e+001  2.4077e+001 44914 89210,89314,89288
 2.3000e+000 89389  2.6667e+001 -2.3175e+001  9.0056e+000 44914 89210,89340,89314
 2.3000e+000 89366  2.4045e+001 -2.6962e+001  1.7452e+001 44914 89236,89288,89262
 2.3000e+000 89634 -4.1912e-001 -6.2172e+001  3.8038e+001 44538 89510,89562,89536
 2.3000e+000 89611 -8.1695e+000 -3.9755e+001  1.7862e+001 44538 89458,89562,89510
 2.3000e+000 89588 -4.8650e+000 -4.0896e+001  1.6629e+001 44538 89458,89510,89484
 2.3000e+000 90044  1.2071e+001 -2.5364e+001 -8.0380e+000 44134 89819,89923,89845
 2.3000e+000 90021  1.8652e+000 -3.4897e+001 -1.8102e+001 44134 89819,89949,89923
 2.3000e+000 89998 -8.1723e+000 -3.7512e+001  1.6908e+000 44134 89845,89923,89897
 2.3000e+000 89975 -1.9423e+001 -5.2151e+001 -6.9028e+000 44134 89845,89897,89871
 2.3000e+000 90520  2.8269e+000 -6.5074e+001 -2.5985e+000 43457 90543,90252,90226
 2.3000e+000 90497 -1.1500e+001 -6.7362e+001 -2.3396e+000 43457 90543,90226,90330
 2.3000e+000 90474 -1.8581e+001 -7.2417e+001 -5.9472e+000 43457 90200,90330,90226
 2.3000e+000 90451 -2.7883e+001 -5.8114e+001  2.0444e+001 43457 90200,90356,90330
 2.3000e+000 90428  3.1363e+001 -3.8507e+001 -9.3077e+000 43457 90252,90304,90278
 2.3000e+000 90405 -2.4000e+001 -7.6748e+001  2.1238e+001 43457 90174,90356,90200
 2.3000e+000 90382 -2.3686e+001 -2.8111e+001  3.4981e+001 43457 90148,90356,90174
 2.3000e+000 90569  1.5473e+001 -6.9622e+001 -1.4938e+001 43457 90304,90252,90543
 2.3000e+000 90592 -7.3210e+000 -7.5894e+001 -1.7387e+001 43457 90304,90543,90330
 2.3000e+000 91098 -9.3026e+000 -5.3404e+001  5.9237e+000 42789 90801,90905,90853
 2.3000e+000 91075 -9.7093e+000 -5.1486e+001  6.0971e+000 42789 90775,90905,90801
 2.3000e+000 91052 -7.8614e+000 -5.1454e+001  9.2780e+000 42789 90775,90931,90905
 2.3000e+000 91029 -1.2925e+001 -6.0732e+001  4.7471e+000 42789 90801,90853,90827
 2.3000e+000 91006  2.4875e+001 -3.6306e+001 -6.2584e+000 42789 90853,90905,90879
 2.3000e+000 90983 -1.4893e+001 -5.8962e+001  1.2088e+001 42789 90775,90957,90931
 2.3000e+000 91427 -2.5317e+001 -6.2718e+001 -3.4171e+000 42227 91228,91280,91254
 2.3000e+000 91404 -2.3969e+000 -6.5092e+001 -2.0892e+000 42227 91228,91306,91280
 2.3000e+000 91381 -2.5664e+001 -7.3073e+001  4.5210e+000 42227 91202,91306,91228
 2.3000e+000 91358 -1.6831e+000 -4.1263e+001 -7.7901e+000 42227 91202,91332,91306
 2.3000e+000 91675 -6.7559e+000 -3.1584e+001  2.3161e+000 41773 91698,91476,91450
 2.3000e+000 91652 -3.8828e+000 -3.0696e+001  1.0160e+001 41773 91698,91450,91554
 2.3000e+000 91629 -1.2480e+001 -2.0320e+001  1.0730e+001 41773 91450,91580,91554
 2.3000e+000 91606  4.7135e-001 -4.1519e+001  5.1207e+000 41773 91502,91554,91528
 2.3000e+000 91724 -1.2914e+001 -3.3498e+001  8.8395e-001 41773 91502,91476,91698
 2.3000e+000 91747 -1.1471e+001 -3.3183e+001  8.8195e+000 41773 91502,91698,91554
 2.3000e+000 92127 -1.0286e+001 -9.8927e+001 -1.3931e+000 41255 92150,91905,91879
 2.3000e+000 92104 -1.3615e+001 -8.8795e+001 -2.8385e-001 41255 92150,91879,91957
 2.3000e+000 92081 -3.4300e+001 -1.1083e+002  1.1977e+001 41255 91853,91957,91879
 2.3000e+000 92058 -3.4589e+001 -1.1417e+002  2.3709e+001 41255 91853,91983,91957
 2.3000e+000 92035  8.6323e+000 -1.3533e+002  2.7423e+001 41255 91853,92009,91983
 2.3000e+000 92176 -1.1261e+001 -1.0755e+002 -8.0435e+000 41255 91931,91905,92150
 2.3000e+000 92199 -1.2062e+001 -9.1510e+001 -8.6225e+000 41255 91931,92150,91957
 2.3000e+000 92518 -4.8306e+001 -1.3006e+002 -9.2455e+000 41007 92244,92374,92270
 2.3000e+000 92495 -8.6024e+001 -1.5223e+002  1.4733e-001 41007 92244,92400,92374
 2.3000e+000 92472 -3.8599e+001 -1.1642e+002 -2.4584e+000 41007 92270,92374,92348
 2.3000e+000 92449 -4.9940e+001 -8.6428e+001  4.1804e+000 41007 92296,92348,92322
 2.3000e+000 92426 -4.2399e+001 -9.6411e+001 -3.0800e+000 41007 92270,92348,92296
 2.3000e+000 92668 -1.8505e+001 -7.3710e+001 -6.5975e+000 40717 92823,92691,92567
 2.3000e+000 92645 -2.6280e+001 -6.0336e+001 -7.0717e+000 40717 92895,92823,92567
 2.3000e+000 92717  2.8114e+001 -5.3686e+001 -5.6797e+000 40717 92593,92567,92691
 2.3000e+000 92849  5.0910e-001 -5.7771e+001 -1.4354e+001 40717 92619,92691,92823
 2.3000e+000 92872 -1.7874e+001 -5.7915e+001 -7.1299e+000 40717 92619,92823,92541
 2.3000e+000 92921 -1.9917e+001 -5.9399e+001 -5.5386e+000 40717 92541,92823,92895
 2.3000e+000 93634 -5.0069e+001 -1.2009e+002 -3.7371e+000 40206 93366,93444,93418
 2.3000e+000 93611 -3.1136e+001 -6.9795e+001  9.1700e-001 40206 93288,93444,93366
 2.3000e+000 93588 -5.9754e+001 -1.0345e+002  1.4093e+001 40206 93288,93366,93314
 2.3000e+000 93565 -3.8409e+001 -7.4276e+001 -1.7067e+000 40206 93262,93444,93288
 2.3000e+000 93542 -8.1627e+000 -1.2013e+002 -7.9892e+000 40206 93366,93418,93392
 2.3000e+000 93519 -3.7451e+001 -8.0478e+001 -9.8625e-001 40206 93262,93470,93444
 2.3000e+000 93496 -1.3422e+001 -8.3740e+001  1.6535e+001 40206 93314,93366,93340
 2.3000e+000 94189  2.3753e+001 -9.7555e+000  7.7904e+000 39802 93843,93999,93973
 2.3000e+000 94166  4.5216e+001  5.0158e+000 -5.1269e+000 39802 93817,93999,93843
 2.3000e+000 94143  3.9204e+001 -4.1523e+000 -7.8048e+000 39802 93869,93973,93947
 2.3000e+000 94120  2.6323e+001 -1.8399e+001  7.6996e+000 39802 93843,93973,93869
 2.3000e+000 94097  2.4839e+001 -2.5678e+001  3.8735e+000 39802 93869,93921,93895
 2.3000e+000 94074  2.7688e+001 -2.0000e+001 -2.6432e+000 39802 93869,93947,93921
 2.3000e+000 94051  2.4266e+000 -1.4655e+001  1.1567e+001 39802 93817,94025,93999
 2.3000e+000 94290 -4.0337e+000 -1.9560e+001 -1.2550e+000 39398 94212,94264,94238
 2.3000e+000 94798 -9.8250e+000 -4.3320e+001 -4.3920e+000 38701 94501,94657,94631
 2.3000e+000 94775 -1.4718e+001 -3.1106e+001  3.8863e+000 38701 94475,94657,94501
 2.3000e+000 94752 -6.0474e+000 -5.1885e+001 -6.5487e+000 38701 94579,94631,94605
 2.3000e+000 94729 -1.8932e+001 -6.7681e+001 -1.4871e+001 38701 94553,94631,94579
 2.3000e+000 94706 -2.3057e+001 -6.4392e+001  1.9732e+000 38701 94501,94631,94553
 2.3000e+000 94683 -1.2098e+000 -1.1905e+002  2.5785e+000 38701 94501,94553,94527
 2.3000e+000 95255 -2.0813e+001 -5.2826e+001 -3.1041e+000 38247 95278,95085,95007
 2.3000e+000 95232 -1.6240e+001 -5.0306e+001 -1.9945e+000 38247 95278,95007,95137
 2.3000e+000 95209 -1.2700e+001 -3.7716e+001 -1.6593e+000 38247 94981,95137,95007
 2.3000e+000 95186 -2.5005e+001 -4.7475e+001 -1.1186e+001 38247 95007,95059,95033
 2.3000e+000 95163 -2.1615e+001 -3.8512e+001 -9.0804e+000 38247 95007,95085,95059
 2.3000e+000 95304 -2.1256e+001 -5.0448e+001  6.0360e-001 38247 95111,95085,95278
 2.3000e+000 95327 -1.7860e+001 -4.9164e+001  1.3256e+000 38247 95111,95278,95137
 2.3000e+000 95575  6.1856e-001  6.6842e-001  1.5304e-002 37564 95376,95428,95402
 2.3000e+000 95552  5.2980e-001 -9.6299e+000  5.5383e-001 37564 95376,95454,95428
 2.3000e+000 95529  2.0705e+000 -8.8857e+000  7.8233e-001 37564 95376,95480,95454
 2.3000e+000 95506  1.5833e+001 -2.4419e+001 -1.6185e+000 37564 95350,95480,95376
 2.3000e+000 96034 -4.2260e+001 -1.0634e+002  1.2803e+000 37224 95786,95838,95812
 2.3000e+000 96011 -3.3898e+001 -8.1450e+001 -1.5285e+000 37224 95786,95890,95838
 2.3000e+000 95988 -3.7119e+001 -8.2097e+001 -4.5917e-001 37224 95786,95916,95890
 2.3000e+000 95965  7.2538e+000 -6.5855e+001  8.8545e-001 37224 95760,95916,95786
 2.3000e+000 95942 -1.1003e+001 -8.5053e+001 -1.4825e+001 37224 95838,95890,95864
 2.3000e+000 96363  1.8251e+001 -1.4558e+001  1.4476e-001 36884 96216,96268,96242
 2.3000e+000 96340  1.9285e+001 -9.1656e+000  2.3543e+000 36884 96164,96268,96216
 2.3000e+000 96317  1.6495e+001 -1.2441e+001  4.6910e+000 36884 96138,96268,96164
 2.3000e+000 96294  2.4521e+000 -3.8613e+001  1.7639e+001 36884 96164,96216,96190
 2.3000e+000 96839 -1.3748e+001 -7.8718e+001  3.6553e+000 36572 96862,96649,96597
 2.3000e+000 96816 -1.5418e+001 -6.9772e+001  4.1427e+000 36572 97006,96862,96597
 2.3000e+000 96793 -1.6550e+001 -6.5887e+001 -6.4409e-001 36572 96934,96467,96675
 2.3000e+000 96770 -1.5439e+001 -6.4883e+001 -8.5122e-001 36572 97006,96597,96571
 2.3000e+000 96747 -3.1993e+001 -1.0496e+002  3.6397e+000 36572 96467,96519,96493
 2.3000e+000 96724 -1.3271e+001 -5.6726e+001 -5.5580e-001 36572 96519,96571,96545
 2.3000e+000 96701 -1.5069e+001 -6.2227e+001 -5.3414e+000 36572 96597,96649,96623
 2.3000e+000 96888 -2.1721e+001 -8.6201e+001 -7.3448e+000 36572 96675,96649,96862
 2.3000e+000 96911 -1.5789e+001 -7.4949e+001 -1.7570e+000 36572 96934,96675,96862
 2.3000e+000 96960 -1.9717e+001 -7.4287e+001  1.2231e+000 36572 96519,96467,96934
 2.3000e+000 96983 -1.5503e+001 -8.0256e+001  1.1192e+000 36572 97078,96934,96862
 2.3000e+000 97032 -1.5499e+001 -7.8457e+001  3.7324e+000 36572 97078,96862,97006
 2.3000e+000 97055 -1.6805e+001 -7.3452e+001  5.2022e-001 36572 96519,97006,96571
 2.3000e+000 97104 -1.3858e+001 -7.6186e+001  1.7206e+000 36572 96519,96934,97078
 2.3000e+000 97127 -1.4687e+001 -7.4833e+001  3.8253e+000 36572 96519,97078,97006
 2.3000e+000 97761 -2.1904e+001 -7.1822e+001 -1.0109e+001 36118 97784,97493,97415
 2.3000e+000 97738 -7.9893e+000 -7.9589e+001 -8.0092e-001 36118 97784,97415,97597
 2.3000e+000 97715  5.2660e+000 -8.1927e+001 -1.2134e+001 36118 97389,97597,97415
 2.3000e+000 97692 -1.7972e+001 -8.2087e+001  4.9146e+000 36118 97415,97467,97441
 2.3000e+000 97669 -2.8061e+001 -7.6701e+001 -6.5100e+000 36118 97415,97493,97467
 2.3000e+000 97646 -2.1955e+001 -5.2336e+001  3.6943e+000 36118 97493,97571,97519
 2.3000e+000 97623 -2.1033e+000 -5.7711e+001  3.2135e+001 36118 97519,97571,97545
 2.3000e+000 97810 -1.2411e+001 -6.6755e+001 -3.9279e+000 36118 97571,97493,97784
 2.3000e+000 97833  1.1089e+001 -6.6994e+001  6.5648e+000 36118 97571,97784,97597
 2.3000e+000 98081 -2.4289e+001 -8.7336e+001 -9.8824e-002 35564 98104,97908,97856
 2.3000e+000 98058 -2.3383e+001 -8.2908e+001 -4.2786e-002 35564 98104,97856,97986
 2.3000e+000 98035 -7.0649e+000 -7.1286e+001  3.3614e+000 35564 97934,97986,97960
 2.3000e+000 98012 -2.4088e+001 -8.8540e+001  3.8440e+000 35564 97856,97908,97882
 2.3000e+000 98130 -2.5324e+001 -1.0231e+002 -1.6705e+000 35564 97934,97908,98104
 2.3000e+000 98153 -1.9239e+001 -8.8159e+001 -1.9925e+000 35564 97934,98104,97986
 2.3000e+000 98374 -5.4669e+001 -9.9266e+001  2.9882e+000 35152 98224,98302,98276
 2.3000e+000 98351 -5.2440e+001 -9.5315e+001  5.4994e+000 35152 98198,98302,98224
 2.3000e+000 98328 -7.2062e+001 -1.0700e+002  7.0253e+000 35152 98224,98276,98250
 2.3000e+000 98884 -8.0359e-001 -3.8568e+001 -9.9214e+000 34698 98691,98743,98717
 2.3000e+000 98861 -2.2053e+000 -4.2546e+001 -1.0147e+001 34698 98561,98743,98691
 2.3000e+000 98838 -1.0553e+001 -4.6111e+001 -6.2477e+000 34698 98907,98587,98561
 2.3000e+000 98815 -1.0717e+001 -4.7394e+001 -7.2216e+000 34698 98907,98561,98691
 2.3000e+000 98792 -2.4896e+001 -6.1603e+001  2.2980e+000 34698 98587,98639,98613
 2.3000e+000 98769 -9.5122e+000 -3.7822e+001 -7.3538e+000 34698 98587,98665,98639
 2.3000e+000 98933 -9.3918e+000 -4.6199e+001 -5.0284e+000 34698 98665,98587,98907
 2.3000e+000 98956 -9.6172e+000 -4.8075e+001 -6.0209e+000 34698 98665,98907,98691
 2.3000e+000 99204  2.6921e+001 -5.3444e+001  6.1672e-001 34144 99227,99031,99005
 2.3000e+000 99181  1.8222e+001 -5.1061e+001 -4.5734e+000 34144 99299,99227,99005
 2.3000e+000 99158  1.8733e+001 -5.0383e+001 -3.8045e+000 34144 99299,99005,99109
 2.3000e+000 99135  2.1694e+001 -4.6323e+001 -2.2312e+000 34144 98979,99109,99005
 2.3000e+000 99253  2.0297e+001 -5.5157e+001 -4.3640e+000 34144 99057,99031,99227
 2.3000e+000 99276  2.9643e+000 -5.3133e+001 -5.8478e+000 34144 99057,99227,99083
 2.3000e+000 99325  1.7886e+001 -4.9932e+001 -2.4667e+000 34144 99083,99227,99299
 2.3000e+000 99348  2.0435e+001 -4.8387e+001 -1.4730e+000 34144 99083,99299,99109
 2.3000e+000 99498 -1.3210e+000 -3.6229e+001  9.9832e+000 33433 99397,99449,99423
 2.3000e+000 99475 -1.3882e+001 -2.3829e+001 -3.7162e-001 33433 99371,99449,99397
 2.3000e+000 100008 -1.9337e+001 -4.9928e+001 -7.3620e+000 32979 100103,100031,99815
 2.3000e+000 99985 -1.5400e+001 -5.2704e+001 -1.2208e+001 32979 100175,100031,99763
 2.3000e+000 99962 -1.6687e+001 -5.6260e+001 -1.2776e+001 32979 100103,99815,99789
 2.3000e+000 99939 -2.1103e+001 -5.9411e+001 -9.1358e+000 32979 100175,99763,99737
 2.3000e+000 99916 -1.9677e+001 -5.0015e+001 -3.4414e+000 32979 99685,99867,99737
 2.3000e+000 99893 -2.6278e+001 -9.2227e+001 -1.1519e+001 32979 99685,99737,99711
 2.3000e+000 100057 -1.6592e+001 -4.8891e+001 -7.0922e+000 32979 99841,99815,100031
 2.3000e+000 100080 -1.0668e+001 -2.3643e+001 -1.7327e+001 32979 99841,100031,99867
 2.3000e+000 100129 -1.4282e+001 -6.3730e+001 -8.5957e+000 32979 99763,100031,100103
 2.3000e+000 100152 -1.6801e+001 -7.4935e+001 -1.5298e+001 32979 99763,100103,99789
 2.3000e+000 100201 -2.3041e+001 -5.1874e+001 -8.9318e+000 32979 99867,100031,100175
 2.3000e+000 100224 -2.4607e+001 -5.3289e+001 -7.0111e+000 32979 99867,100175,99737
 2.3000e+000 100553 -9.8051e+000 -7.1671e+001 -4.3270e+000 32503 100354,100406,100380
 2.3000e+000 100530 -2.2735e+001 -8.1851e+001  1.0424e+000 32503 100328,100406,100354
 2.3000e+000 100507 -2.8243e+001 -8.2429e+001  1.0179e+001 32503 100328,100458,100406
 2.3000e+000 100484 -2.4868e+001 -9.8426e+001  1.2306e+001 32503 100406,100458,100432
 2.3000e+000 100850 -2.9329e+001 -9.2087e+001 -6.8621e+000 31899 100873,100654,100628
 2.3000e+000 100827 -2.8564e+001 -8.8179e+001 -3.8484e+000 31899 100945,100873,100628
 2.3000e+000 100804 -2.9178e+001 -8.1047e+001 -3.9707e+000 31899 100945,100628,100602
 2.3000e+000 100781 -1.1420e+001 -7.3711e+001 -1.7281e+001 31899 100576,100732,100602
 2.3000e+000 100758 -3.8761e+001 -7.5718e+001 -2.6794e+001 31899 100654,100706,100680
 2.3000e+000 100899 -2.4994e+001 -8.2133e+001 -9.3073e+000 31899 100706,100654,100873
 2.3000e+000 100922 -3.4233e+001 -8.6153e+001 -8.4931e+000 31899 100706,100873,100732
 2.3000e+000 100971 -3.0891e+001 -7.8469e+001 -7.6858e+000 31899 100732,100873,100945
 2.3000e+000 100994 -3.1282e+001 -7.0845e+001 -7.4595e+000 31899 100732,100945,100602
 2.3000e+000 101551 -2.5608e+001 -6.6898e+001 -5.2064e+000 31338 101205,101387,101231
 2.3000e+000 101528 -5.7997e-002 -5.6751e+001  1.6478e+000 31338 101179,101387,101205
 2.3000e+000 101505 -2.8790e+001 -5.7782e+001 -5.9897e-002 31338 101574,101309,101257
 2.3000e+000 101482 -3.2886e+001 -6.2739e+001 -2.0340e+000 31338 101646,101574,101257
 2.3000e+000 101459 -3.4797e+001 -6.2082e+001 -4.3077e+000 31338 101646,101257,101231
 2.3000e+000 101436 -2.4369e+001 -8.6724e+001  2.4619e+000 31338 101309,101361,101335
 2.3000e+000 101413 -1.5875e+001 -5.3877e+001  1.5570e+000 31338 101257,101309,101283
 2.3000e+000 101600 -2.3931e+001 -6.2803e+001 -3.1881e+000 31338 101361,101309,101574
 2.3000e+000 101623 -2.9938e+001 -6.7678e+001 -5.9252e+000 31338 101361,101574,101387
 2.3000e+000 101672 -2.8850e+001 -6.1179e+001 -2.0665e+000 31338 101387,101574,101646
 2.3000e+000 101695 -3.1254e+001 -6.0524e+001 -3.9192e+000 31338 101387,101646,101231
 2.3000e+000 101943  1.3696e+001 -4.6376e+001 -2.5639e-001 30748 101966,101796,101744
 2.3000e+000 101920  2.1624e+001 -5.0829e+001 -2.8577e-001 30748 101966,101744,101718
 2.3000e+000 101897  5.8104e+000 -5.9092e+001  1.4071e+001 30748 101718,101848,101822
 2.3000e+000 101874  1.4641e+001 -5.0079e+001  4.0084e+000 30748 101744,101796,101770
 2.3000e+000 101992  1.0398e+001 -4.8225e+001  1.1161e+000 30748 101822,101796,101966
 2.3000e+000 102015  1.5964e+001 -5.4662e+001  1.6712e+000 30748 101822,101966,101718
 2.3000e+000 102493 -3.8602e+001 -8.4299e+001 -1.8555e+000 30344 102516,102173,102147
 2.3000e+000 102470 -3.3704e+001 -7.7384e+001 -4.6556e+000 30344 102660,102516,102147
 2.3000e+000 102447 -3.2438e+001 -7.8892e+001 -6.0352e+000 30344 102588,102199,102173
 2.3000e+000 102424 -1.4717e+001 -8.0897e+001 -6.0637e+000 30344 102660,102147,102329
 2.3000e+000 102401 -2.3690e+001 -7.7615e+001 -1.2531e+001 30344 102199,102277,102251
 2.3000e+000 102378 -4.1979e+000 -6.6328e+001 -1.7160e+001 30344 102199,102251,102225
 2.3000e+000 102355  2.8462e+001 -5.8618e+001  1.4832e+001 30344 102121,102329,102147
 2.3000e+000 102542 -3.0854e+001 -8.0791e+001 -5.5185e+000 30344 102588,102173,102516
 2.3000e+000 102565 -4.6617e+001 -8.8042e+001  4.7296e+000 30344 102277,102516,102303
 2.3000e+000 102614 -3.1053e+001 -7.7916e+001 -5.5840e+000 30344 102277,102199,102588
 2.3000e+000 102637 -2.8561e+001 -7.8564e+001 -4.6049e+000 30344 102277,102588,102516
 2.3000e+000 102686 -1.2696e+001 -7.4039e+001  4.0580e+000 30344 102303,102516,102660
 2.3000e+000 102709 -5.5671e-001 -8.2476e+001  3.3462e+000 30344 102303,102660,102329
 2.3000e+000 103294 -1.7707e+001 -7.3901e+001 -5.2257e+000 29726 103317,103101,103075
 2.3000e+000 103271 -1.8266e+001 -6.9427e+001 -5.5707e+000 29726 103317,103075,102997
 2.3000e+000 103248 -3.9506e+000 -6.7015e+001 -1.5505e+001 29726 102971,103153,102997
 2.3000e+000 103225 -2.5479e+001 -9.3841e+001 -1.2675e+001 29726 103101,103153,103127
 2.3000e+000 103202 -2.3052e+001 -7.2896e+001 -2.6821e+000 29726 102997,103075,103023
 2.3000e+000 103179 -1.1150e+001 -6.2191e+001 -8.8894e+000 29726 103023,103075,103049
 2.3000e+000 103343 -1.6599e+001 -7.0412e+001 -6.1271e+000 29726 103153,103101,103317
 2.3000e+000 103366 -1.8242e+001 -6.7531e+001 -6.5600e+000 29726 103153,103317,102997
 2.3000e+000 103614 -5.0504e+000 -4.8625e+001 -5.5255e+000 29200 103781,103637,103467
 2.3000e+000 103591 -1.8371e+001 -5.1213e+001  2.3212e+000 29200 103709,103637,103415
 2.3000e+000 103568 -2.1406e+001 -5.7721e+001  1.3157e+000 29200 103709,103415,103389
 2.3000e+000 103545 -8.6961e+000 -4.1237e+001 -1.1938e+001 29200 103781,103467,103441
 2.3000e+000 103663 -1.8140e-001 -5.2421e+001  2.3799e+000 29200 103853,103637,103493
 2.3000e+000 103686 -1.6984e+000 -3.0438e+001  3.8735e+000 29200 103493,103637,103519
 2.3000e+000 103735 -1.4089e+001 -5.8394e+001  6.0679e+000 29200 103519,103637,103709
 2.3000e+000 103758 -1.5965e+001 -6.2893e+001  5.3600e+000 29200 103519,103709,103389
 2.3000e+000 103807 -9.9027e+000 -6.1402e+001 -5.7242e+000 29200 103415,103637,103781
 2.3000e+000 103830 -1.5452e+001 -5.8177e+001 -1.4296e+001 29200 103415,103781,103441
 2.3000e+000 103879 -8.9581e+000 -5.1166e+001 -3.9093e+000 29200 103467,103637,103853
 2.3000e+000 104545 -1.1344e+001 -4.5273e+001 -6.0389e+000 28860 104274,104352,104326
 2.3000e+000 104522 -2.2591e+001 -4.7688e+001 -6.0606e+000 28860 104248,104352,104274
 2.3000e+000 104499 -1.7857e+001 -4.6478e+001 -5.0632e+000 28860 104248,104404,104352
 2.3000e+000 104476 -3.4325e+001 -4.2801e+001 -5.7143e+000 28860 104222,104404,104248
 2.3000e+000 104453 -1.1000e+001 -3.5149e+001 -7.9651e+000 28860 104352,104404,104378
 2.3000e+000 104430 -1.5757e+001 -4.2670e+001 -9.6615e+000 28860 104274,104326,104300
 2.3000e+000 104744  8.2611e+000 -6.2492e+001 -1.0299e+001 28456 104839,104767,104646
 2.3000e+000 104721 -9.7962e+000 -7.2386e+001 -1.6310e+000 28456 104767,104594,104568
 2.3000e+000 104698  3.1459e+001 -4.3181e+001 -8.2237e-001 28456 104839,104646,104620
 2.3000e+000 104793 -7.7962e+000 -6.7720e+001 -1.0398e+001 28456 104672,104646,104767
 2.3000e+000 104816 -1.9341e+001 -7.9811e+001  7.5561e+000 28456 104911,104767,104568
 2.3000e+000 104865 -7.0845e-001 -5.4403e+001  3.7610e+000 28456 104594,104767,104839
 2.3000e+000 104888  2.1322e+001 -2.5853e+000  1.0821e+001 28456 105041,104839,104620
 2.3000e+000 104937  3.9308e+000 -5.0368e+001 -5.1780e+000 28456 104672,104767,104911
 2.3000e+000 105067 -1.1504e+001 -5.6440e+001 -3.0376e+000 28456 104594,104839,105041
 2.3000e+000 105573  1.4849e+001 -8.4566e+001 -1.2405e+001 28094 105812,105596,105328
 2.3000e+000 105550  3.0060e+000 -6.9681e+001  4.0233e+000 28094 105596,105276,105250
 2.3000e+000 105527  8.8990e+000 -6.1083e+001 -8.1599e+000 28094 105740,105668,105432
 2.3000e+000 105504  5.3714e+000 -6.0543e+001 -4.1102e+000 28094 105740,105432,105380
 2.3000e+000 105481  2.4947e+001 -9.1539e+001 -6.9295e+000 28094 105812,105328,105302
 2.3000e+000 105458 -6.1614e+000 -7.1951e+001  4.9550e-001 28094 105380,105432,105406
 2.3000e+000 105622  4.9077e+001 -5.1858e+001 -2.7905e+001 28094 105354,105328,105596
 2.3000e+000 105645  7.7709e+000 -7.2127e+001 -8.2431e+000 28094 105668,105354,105596
 2.3000e+000 105694  9.6959e+000 -5.9793e+001 -7.7444e+000 28094 105250,105432,105668
 2.3000e+000 105717  1.8494e+001 -6.1610e+001 -3.3509e+000 28094 105250,105668,105596
 2.3000e+000 105766  6.1870e-001 -6.4161e+001 -7.6720e+000 28094 105354,105668,105740
 2.3000e+000 105789 -1.2020e+000 -6.3148e+001 -3.2107e+000 28094 105354,105740,105380
 2.3000e+000 105838  2.4156e+001 -7.1760e+001 -8.2680e+000 28094 105276,105596,105812
 2.3000e+000 105861  5.1478e+001 -7.1811e+001  6.0650e+000 28094 105276,105812,105302
 2.3000e+000 106367 -2.7848e+001 -9.5122e+001 -4.9275e+000 27390 106070,106122,106096
 2.3000e+000 106344 -2.6670e+001 -9.2064e+001 -5.5623e+000 27390 106070,106226,106122
 2.3000e+000 106321 -1.3584e+001 -9.4184e+001 -2.3059e+000 27390 106174,106226,106200
 2.3000e+000 106298 -2.1035e+001 -8.5933e+001 -1.2169e+000 27390 106122,106226,106174
 2.3000e+000 106275 -2.8007e+001 -8.8173e+001  4.9518e+000 27390 106122,106174,106148
 2.3000e+000 106252 -2.4215e+001 -9.3082e+001 -1.1754e+001 27390 106044,106226,106070
 2.3000e+000 106615 -2.1567e+001 -8.7822e+001 -8.3582e-001 26978 106638,106494,106416
 2.3000e+000 106592 -2.4446e+001 -8.5870e+001 -8.3177e-001 26978 106638,106416,106390
 2.3000e+000 106569 -2.5178e+001 -8.7852e+001  2.9198e+000 26978 106416,106494,106442
 2.3000e+000 106546 -9.8556e+000 -9.1936e+001 -2.6049e+000 26978 106442,106494,106468
 2.3000e+000 106664 -1.6218e+001 -8.6165e+001 -1.6147e+000 26978 106520,106494,106638
 2.3000e+000 106687 -2.1912e+001 -8.6368e+001 -1.2697e+000 26978 106520,106638,106390
 2.3000e+000 106837  5.8682e+001 -5.6724e+001 -1.6253e+001 26524 106710,106762,106736
 2.3000e+000 106814  1.5006e+001 -6.6182e+001  3.0455e+000 26524 106710,106788,106762
 2.3000e+000 107426 -3.5717e+001 -6.8602e+001  1.1069e+001 26120 107129,107207,107155
 2.3000e+000 107403 -2.6153e+001 -5.8686e+001  6.8995e+000 26120 107129,107285,107207
 2.3000e+000 107380 -3.4036e+001 -7.0753e+001  1.9490e+000 26120 107207,107285,107259
 2.3000e+000 107357 -1.6853e+001 -6.1279e+001  1.1381e+001 26120 107155,107207,107181
 2.3000e+000 107334 -2.6604e+001 -5.8519e+001  7.5677e+000 26120 107103,107285,107129
 2.3000e+000 107311 -2.7110e+001 -7.4921e+001  1.3402e+000 26120 107207,107259,107233
 2.3000e+000 107755 -3.0871e+001 -8.0029e+001  2.2626e+000 25758 107556,107634,107608
 2.3000e+000 107732 -1.1038e+000 -5.7654e+001 -8.0534e+000 25758 107556,107660,107634
 2.3000e+000 107709 -4.4068e+001 -7.7631e+001 -9.8266e+000 25758 107556,107608,107582
 2.3000e+000 107686  1.6120e+001 -5.3425e+001 -4.8752e+000 25758 107530,107660,107556
 2.3000e+000 108438 -3.2209e+001 -1.1424e+002 -8.0392e+000 25468 108121,108199,108173
 2.3000e+000 108415 -7.3022e+000 -5.0363e+001 -2.6490e+000 25468 108095,108199,108121
 2.3000e+000 108392 -1.2705e+001 -6.0077e+001 -5.1138e+000 25468 108095,108251,108199
 2.3000e+000 108369 -1.9331e+001 -6.4231e+001 -7.5525e-001 25468 108069,108251,108095
 2.3000e+000 108346 -1.3335e+001 -5.6154e+001 -2.5175e+001 25468 108199,108251,108225
 2.3000e+000 108323 -1.4756e+001 -7.1061e+001  2.9660e+000 25468 108017,108251,108069
 2.3000e+000 108300 -1.6900e+001 -9.6380e+001 -6.2350e-001 25468 108121,108173,108147
 2.3000e+000 108277 -9.6524e+000 -6.7074e+001 -4.6165e-001 25468 108017,108069,108043
 2.3000e+000 108588 -2.0135e+001 -8.0490e+001 -1.5336e+001 25064 108611,108513,108487
 2.3000e+000 108565 -4.2029e+001 -7.9747e+001 -1.1428e+001 25064 108683,108611,108487
 2.3000e+000 108637 -2.0961e+001 -7.2299e+001 -1.3743e+001 25064 108539,108513,108611
 2.3000e+000 108660 -2.3601e+000 -6.3113e+001 -1.0553e+001 25064 108539,108611,108461
 2.3000e+000 108709 -6.8565e-001 -4.8477e+001 -2.5117e+001 25064 108461,108611,108683
 2.3000e+000 109345 -5.1445e+001 -7.9220e+001  1.6493e+001 24410 108999,109155,109103
 2.3000e+000 109322 -3.9446e+001 -8.0219e+001  6.5792e+000 24410 108973,109155,108999
 2.3000e+000 109299 -3.8417e+001 -1.0548e+002  1.9717e+001 24410 109103,109155,109129
 2.3000e+000 109276 -4.6121e+001 -7.9868e+001  6.6281e+000 24410 108973,109181,109155
 2.3000e+000 109253 -3.6485e+001 -7.4907e+001  1.1929e+001 24410 109025,109103,109077
 2.3000e+000 109230 -6.1450e+001 -8.0759e+001  1.8087e+001 24410 108999,109103,109025
 2.3000e+000 109207 -3.1735e+001 -7.1277e+001  1.0315e+001 24410 109025,109077,109051
 2.3000e+000 109723 -2.1169e+001 -7.4718e+001  3.1907e+000 23856 109475,109579,109553
 2.3000e+000 109700 -2.1310e+001 -6.4224e+001  4.2818e+000 23856 109475,109605,109579
 2.3000e+000 109677 -1.6470e+001 -6.8112e+001  1.2805e+001 23856 109475,109553,109527
 2.3000e+000 109654 -2.2124e+001 -6.4414e+001 -5.1543e+000 23856 109449,109605,109475
 2.3000e+000 109631 -3.5358e+000 -6.8522e+001  1.2433e+001 23856 109475,109527,109501
 2.3000e+000 110101 -1.7988e+001 -6.1442e+001 -7.6670e+000 23566 109853,109931,109879
 2.3000e+000 110078 -1.8933e+001 -6.3591e+001 -9.8890e+000 23566 109827,109931,109853
 2.3000e+000 110055 -2.5707e+001 -7.0624e+001 -7.1302e+000 23566 109827,109983,109931
 2.3000e+000 110032 -8.8717e+000 -5.7496e+001 -6.7053e+000 23566 109879,109931,109905
 2.3000e+000 110009 -2.2838e+001 -6.2484e+001 -8.0821e+000 23566 109931,109983,109957
 2.3000e+000 110735 -2.5215e+001 -6.9366e+001 -1.6348e+000 23162 110415,110571,110519
 2.3000e+000 110712 -3.6731e+001 -7.4333e+001 -6.0417e+000 23162 110389,110571,110415
 2.3000e+000 110689 -7.3314e+000 -6.1312e+001  3.4360e-001 23162 110415,110519,110493
 2.3000e+000 110666 -2.9147e+001 -6.4629e+001  4.7518e+000 23162 110363,110571,110389
 2.3000e+000 110643 -1.7257e+001 -6.2419e+001  7.6851e+000 23162 110441,110493,110467
 2.3000e+000 110620 -2.9405e+001 -6.8971e+001  4.1831e+000 23162 110415,110493,110441
 2.3000e+000 110597 -2.5000e+001 -7.9527e+001 -2.5276e+000 23162 110519,110571,110545
 2.3000e+000 111211  3.6985e+000 -6.9525e+001  2.8619e+000 22708 111378,111306,111021
 2.3000e+000 111188  2.1339e+001 -6.2745e+001  1.8802e-001 22708 111234,110969,110917
 2.3000e+000 111165  4.2559e+000 -6.7421e+001 -3.7910e+000 22708 111450,111234,110917
 2.3000e+000 111142  3.4296e+000 -6.3197e+001 -7.0128e+000 22708 111378,111021,110995
 2.3000e+000 111119  6.2399e-001 -6.2440e+001 -1.7531e+001 22708 111450,110917,110865
 2.3000e+000 111096  4.7350e+001 -8.0338e+001  1.2291e+001 22708 110917,110969,110943
 2.3000e+000 111073  4.8201e+000 -9.7255e+001 -3.2003e+001 22708 110865,110917,110891
 2.3000e+000 111260  2.1495e+001 -6.9288e+001 -2.3458e+000 22708 111306,110969,111234
 2.3000e+000 111283  2.3375e+001 -5.8388e+001 -6.8861e+000 22708 111047,111234,110839
 2.3000e+000 111332  5.3574e+001 -1.0795e+002  3.7509e+001 22708 111047,111021,111306
 2.3000e+000 111355  3.1248e+001 -6.4290e+001 -7.1748e+000 22708 111047,111306,111234
 2.3000e+000 111404  2.4771e+001 -5.9904e+001 -3.4863e+000 22708 110969,111306,111378
 2.3000e+000 111427  1.8987e+001 -5.6940e+001 -8.0367e+000 22708 110969,111378,110995
 2.3000e+000 111476  2.3645e+001 -5.7766e+001 -6.9811e+000 22708 110839,111234,111450
 2.3000e+000 111499  2.5014e+001 -5.0013e+001 -2.1992e+001 22708 110839,111450,110865
 2.3000e+000 111600 -2.2559e+001 -7.2998e+001  3.3792e+000 22460 111522,111574,111548
 2.3000e+000 112059 -2.5462e+001 -6.7157e+001 -1.4710e+000 22056 111811,111889,111863
 2.3000e+000 112036 -2.1302e+001 -6.8475e+001 -1.3098e+000 22056 111811,111915,111889
 2.3000e+000 112013 -2.4184e+001 -6.9895e+001 -1.7537e+000 22056 111785,111915,111811
 2.3000e+000 111990 -1.8331e+001 -6.3659e+001 -5.9715e+000 22056 111785,111941,111915
 2.3000e+000 111967 -4.2226e+001 -8.5791e+001  6.6130e+000 22056 111811,111863,111837
 2.3000e+000 112486 -1.3031e+001 -7.1053e+001 -3.1462e+000 21594 112509,112267,112215
 2.3000e+000 112463 -2.3712e+001 -7.6704e+001  3.2107e+000 21594 112509,112215,112163
 2.3000e+000 112440 -1.9101e+001 -6.4354e+001 -1.2882e+001 21594 112581,112293,112267
 2.3000e+000 112417 -2.9917e+001 -7.0446e+001  1.9020e+000 21594 112215,112267,112241
 2.3000e+000 112394 -3.3426e+000 -6.2142e+001  1.5610e+000 21594 112163,112345,112319
 2.3000e+000 112371 -2.5466e+001 -6.9226e+001 -9.1793e-001 21594 112163,112215,112189
 2.3000e+000 112535 -1.1565e+001 -6.9978e+001 -6.3097e+000 21594 112581,112267,112509
 2.3000e+000 112558 -1.7854e+001 -6.3835e+001  1.1510e+000 21594 112319,112509,112163
 2.3000e+000 112607 -3.4171e+001 -6.9950e+001 -1.2974e+001 21594 112319,112293,112581
 2.3000e+000 112630 -2.5155e+001 -7.4081e+001 -4.6614e+000 21594 112319,112581,112509
 2.3000e+000 112900 -2.5210e+001 -7.9107e+001 -2.6831e+000 20974 112675,112779,112701
 2.3000e+000 112877 -1.3317e+001 -8.4030e+001  7.8476e-001 20974 112675,112805,112779
 2.3000e+000 112854 -4.3422e+000 -5.3378e+001  6.7938e+000 20974 112701,112779,112753
 2.3000e+000 112831 -5.8309e+000 -2.3549e+001 -1.1872e+001 20974 112701,112753,112727
 2.3000e+000 113359 -2.0751e+001 -7.4799e+001 -8.0725e+000 20520 113454,113137,113111
 2.3000e+000 113336 -1.0113e+001 -6.7444e+001 -4.8058e+000 20520 113454,113111,113085
 2.3000e+000 113313  3.8269e+000 -4.1828e+001  1.2611e+001 20520 113382,113163,113137
 2.3000e+000 113290 -1.4089e+001 -6.9917e+001 -1.3304e-001 20520 113526,113382,113137
 2.3000e+000 113267 -1.9104e+001 -1.0343e+002 -9.5329e-001 20520 113189,113241,113215
 2.3000e+000 113408 -9.6893e+000 -6.8540e+001  9.2607e-001 20520 113189,113163,113382
 2.3000e+000 113431 -1.2673e+001 -7.5023e+001 -9.3010e+000 20520 113189,113382,113241
 2.3000e+000 113480 -1.7243e+001 -6.9052e+001 -1.8720e+000 20520 113526,113137,113454
 2.3000e+000 113503 -1.3135e+001 -6.7238e+001 -2.1803e+000 20520 113241,113454,113085
 2.3000e+000 113552 -8.3321e+000 -6.9411e+001 -7.6136e-001 20520 113241,113382,113526
 2.3000e+000 113575 -1.0463e+001 -6.7661e+001 -2.1511e+000 20520 113241,113526,113454
 2.3000e+000 113904 -3.1152e+001 -7.2450e+001  2.9017e+000 19858 113705,113783,113757
 2.3000e+000 113881 -3.1388e+001 -7.2905e+001  3.0145e+000 19858 113705,113809,113783
 2.3000e+000 113858 -1.7614e+001 -6.3704e+001 -9.2244e+000 19858 113679,113809,113705
 2.3000e+000 113835 -2.8779e+001 -5.8202e+001  1.5578e+001 19858 113705,113757,113731
 2.3000e+000 114152 -2.5337e+001 -6.2186e+001 -3.8255e+000 19454 114175,114005,113979
 2.3000e+000 114129 -2.5148e+001 -6.2176e+001 -3.7592e+000 19454 114175,113979,114057
 2.3000e+000 114106 -2.9035e+001 -6.7358e+001  2.6984e+000 19454 113927,114057,113979
 2.3000e+000 114083 -5.3896e+000 -6.3253e+001 -1.7223e+001 19454 113927,113979,113953
 2.3000e+000 114201 -3.6519e+001 -6.7158e+001 -9.5563e+000 19454 114031,114005,114175
 2.3000e+000 114224 -2.5263e+001 -6.0114e+001 -4.1959e+000 19454 114031,114175,114057
 2.3000e+000 114472 -3.0035e+001 -7.9038e+001 -4.1059e+000 19000 114495,114273,114247
 2.3000e+000 114449 -3.2149e+001 -8.3211e+001 -4.9050e+000 19000 114495,114247,114325
 2.3000e+000 114426 -4.0630e+001 -8.7388e+001  1.6683e+000 19000 114247,114377,114325
 2.3000e+000 114403 -4.4646e+001 -9.0499e+001 -6.7904e+000 19000 114325,114377,114351
 2.3000e+000 114521 -2.2370e+001 -7.7089e+001  2.3103e+000 19000 114299,114273,114495
 2.3000e+000 114544 -2.9800e+001 -8.8516e+001 -1.4433e+000 19000 114299,114495,114325
 2.3000e+000 114948 -8.8781e+000 -6.8125e+001 -3.9683e-001 18560 114674,114726,114700
 2.3000e+000 114925 -9.7998e+000 -5.9556e+001 -3.0085e-001 18560 114674,114830,114726
 2.3000e+000 114902 -7.7757e+000 -5.4524e+001  1.2002e+000 18560 114726,114830,114804
 2.3000e+000 114879 -2.8950e+001 -8.2296e+001 -8.1692e+000 18560 114726,114804,114752
 2.3000e+000 114856  1.8259e+001 -9.4305e+001 -2.0783e+001 18560 114752,114804,114778
 2.3000e+000 115098 -5.5519e+001 -1.1320e+002 -6.0033e-001 18156 114971,115023,114997
 2.3000e+000 115075 -5.9127e+001 -8.1411e+001  2.2263e-001 18156 114971,115049,115023
 2.3000e+000 115248 -3.5155e+001 -8.9339e+001  4.4368e-001 17602 115147,115199,115173
 2.3000e+000 115225  1.3759e+001 -8.9874e+001  7.5197e-001 17602 115121,115199,115147
 2.3000e+000 115652 -1.3556e+001 -5.8884e+001  4.5267e+000 17354 115430,115534,115508
 2.3000e+000 115629 -9.7426e+000 -8.6470e+001  6.8820e+000 17354 115404,115534,115430
 2.3000e+000 115606  3.7210e+000 -7.1273e+001  2.2986e+001 17354 115378,115534,115404
 2.3000e+000 115583 -2.1193e+001 -7.0552e+001 -6.9473e+000 17354 115456,115508,115482
 2.3000e+000 115560 -2.7408e+001 -8.4620e+001 -2.9464e+000 17354 115430,115508,115456
 2.3000e+000 115873 -8.8654e+000 -9.2363e+001 -2.1212e+000 16950 115749,115801,115775
 2.3000e+000 115850 -2.3803e+001 -7.8547e+001  3.5955e+000 16950 115697,115801,115749
 2.3000e+000 115827 -2.6535e+001 -9.7182e+001  6.1697e+000 16950 115697,115749,115723
 2.3000e+000 116023 -4.9027e+001 -1.0463e+002 -1.1130e+001 16496 115922,115974,115948
 2.3000e+000 116000 -4.4776e+001 -9.1637e+001 -6.0428e+000 16496 115896,115974,115922
 2.3000e+000 116126 -1.1703e+001 -9.8352e+001  3.0354e+000 16298 116048,116100,116074
 2.3000e+000 116278  1.5795e+001 -9.6010e+001 -1.4233e+000 15892 116151,116203,116177
 2.3000e+000 116255  6.2018e+000 -1.1572e+002  1.5359e+000 15892 116151,116229,116203
 2.3000e+000 116430 -1.8125e+001 -6.2298e+001 -9.0366e-001 15545 116303,116355,116329
 2.3000e+000 116407 -3.1377e+001 -1.0308e+002 -2.0443e+001 15545 116303,116381,116355
 2.3000e+000 116785  1.1233e+001 -3.9731e+001  6.0259e+000 421 116612,116690,116664
 2.3000e+000 116762  6.2651e-002 -6.5917e+001  1.5626e+000 421 116560,116690,116612
 2.3000e+000 116739 -2.6231e+001 -8.1215e+001  1.0817e+001 421 116560,116612,116586
 2.3000e+000 116716 -2.0570e+001 -9.5754e+001 -9.5720e+000 421 116612,116664,116638
 2.4000e+000 68048 -1.4170e+001 -1.1993e+002 -6.1080e+000 67642 67898,67950,67924
 2.4000e+000 68025 -2.4433e+001 -1.2336e+002  1.5457e+000 67642 67898,67976,67950
 2.4000e+000 68002  1.2664e+001 -1.1161e+002  8.9125e+000 67642 67872,67976,67898
 2.4000e+000 68367  2.4829e+001 -3.2816e+001  6.0887e+000 67444 68119,68223,68197
 2.4000e+000 68344 -1.3799e+000 -1.1523e+002  1.0924e+001 67444 68119,68249,68223
 2.4000e+000 68321 -5.3306e+000 -1.1264e+002  3.2601e+000 67444 68093,68249,68119
 2.4000e+000 68298 -5.5790e+000 -1.0356e+002  4.1903e+000 67444 68119,68197,68171
 2.4000e+000 68275 -4.0659e+001 -1.0812e+002  5.1414e+000 67444 68119,68171,68145
 2.4000e+000 68468  9.9927e+000 -9.6906e+001 -9.8517e+000 67268 68390,68442,68416
 2.4000e+000 68765 -4.4150e+000 -9.5138e+001  4.0618e+000 66956 68788,68517,68491
 2.4000e+000 68742  1.7397e+001 -1.0440e+002  6.1521e+000 66956 68788,68491,68621
 2.4000e+000 68719  1.7134e+001 -8.6720e+001 -2.3658e+001 66956 68543,68621,68569
 2.4000e+000 68696  2.2726e+001 -9.8869e+001 -2.7247e-001 66956 68491,68647,68621
 2.4000e+000 68673  4.4290e+000 -8.4867e+000 -1.2745e+001 66956 68569,68621,68595
 2.4000e+000 68814 -2.5225e+001 -9.9651e+001  6.6567e+000 66956 68543,68517,68788
 2.4000e+000 68837  2.0943e+000 -1.0472e+002  7.9059e+000 66956 68543,68788,68621
 2.4000e+000 69107 -7.7279e+000 -1.4687e+002 -4.4493e+000 66758 68882,68986,68908
 2.4000e+000 69084 -2.8650e+001 -1.4879e+002  4.8404e+000 66758 68882,69012,68986
 2.4000e+000 69061 -4.6098e+000 -1.2846e+002 -1.1554e+001 66758 68908,68960,68934
 2.4000e+000 69038  4.5922e+000 -1.2486e+002 -9.7691e+000 66758 68908,68986,68960
 2.4000e+000 69308 -5.0990e+000 -7.4637e+001 -4.1221e+000 66560 69331,69184,69158
 2.4000e+000 69285  2.2287e+000 -8.4105e+001 -5.4558e+000 66560 69331,69158,69132
 2.4000e+000 69262 -1.0985e+001 -1.2493e+002 -9.3209e+000 66560 69184,69236,69210
 2.4000e+000 69357 -3.2157e+000 -8.2441e+001 -9.8722e-001 66560 69236,69184,69331
 2.4000e+000 69380 -1.4627e+000 -9.7039e+001  2.7847e-003 66560 69236,69331,69132
 2.4000e+000 69554  1.5098e+001 -1.2434e+002  1.4674e+001 66270 69427,69479,69453
 2.4000e+000 69531  4.6850e+001 -5.0019e+001  2.9270e+001 66270 69427,69505,69479
 2.4000e+000 69804 -3.3146e-001 -7.8631e+001  1.6965e+001 66066 69579,69683,69657
 2.4000e+000 69781  2.6161e+001 -6.5555e+001 -1.6034e+000 66066 69579,69709,69683
 2.4000e+000 69758  2.3610e+001 -2.4811e+001  7.5427e+000 66066 69579,69657,69631
 2.4000e+000 69735  1.2234e+001 -4.4157e+001 -1.2978e+001 66066 69579,69631,69605
 2.4000e+000 70257  5.0906e+001 -1.1698e+001 -2.4114e+001 65776 69960,70090,69986
 2.4000e+000 70234  3.6986e+001 -6.6653e+001 -1.1454e+001 65776 69934,70090,69960
 2.4000e+000 70211  4.9866e+000 -7.3334e+001 -6.7218e+000 65776 69934,70116,70090
 2.4000e+000 70188  2.1193e+001 -5.5361e+001  0.0000e+000 65776 70038,70090,70064
 2.4000e+000 70165  1.8336e+001 -5.0098e+001 -6.9651e+000 65776 69986,70090,70038
 2.4000e+000 70142  1.4914e+001 -3.0041e+001 -2.8025e+000 65776 69986,70038,70012
 2.4000e+000 70456 -1.3558e+001 -2.6374e+001 -3.8565e+000 65372 70479,70306,70280
 2.4000e+000 70433 -1.5915e+000 -5.8255e+001 -2.0178e+001 65372 70479,70280,70384
 2.4000e+000 70410  1.8178e+001 -2.1024e+001  1.2371e+001 65372 70551,70332,70306
 2.4000e+000 70505  5.0501e+000 -1.4849e+001  4.8629e+000 65372 70551,70306,70479
 2.4000e+000 70528  2.0879e+001 -3.8149e+001 -1.0500e+001 65372 70358,70479,70384
 2.4000e+000 70577  3.5389e+000 -3.2413e+001  6.8744e+000 65372 70358,70332,70551
 2.4000e+000 70600 -8.5327e+000 -2.8053e+001 -1.3051e+000 65372 70358,70551,70479
 2.4000e+000 70821 -1.7655e+001 -1.5651e+002 -4.5157e+000 65174 70645,70723,70671
 2.4000e+000 70798 -3.5314e+001 -1.5969e+002  4.6498e+000 65174 70645,70749,70723
 2.4000e+000 70775 -4.8972e+000 -1.3206e+002 -1.1355e+001 65174 70671,70723,70697
 2.4000e+000 71071 -1.8292e+001 -5.5401e+001 -1.5528e+001 64770 71094,70898,70872
 2.4000e+000 71048 -1.0604e+001 -5.6033e+001 -5.0019e+000 64770 71166,71094,70872
 2.4000e+000 71025 -1.2007e+001 -5.3982e+001 -3.2428e+000 64770 71166,70872,70846
 2.4000e+000 71002 -2.3346e+001 -3.4138e+001 -6.8223e+000 64770 70898,70950,70924
 2.4000e+000 71120 -9.9604e+000 -3.7460e+001 -1.2930e+001 64770 70950,70898,71094
 2.4000e+000 71143 -6.1706e+000 -4.8929e+001 -5.1950e+000 64770 70950,71094,70976
 2.4000e+000 71192 -7.9242e+000 -5.1972e+001 -6.2024e+000 64770 70976,71094,71166
 2.4000e+000 71215 -9.9413e+000 -5.1413e+001 -4.1659e+000 64770 70976,71166,70846
 2.4000e+000 71514  1.5672e+001 -5.1391e+001 -1.1984e+001 64572 71681,71537,71318
 2.4000e+000 71491 -1.7300e+001 -5.2553e+001 -6.9983e+000 64572 71537,71266,71240
 2.4000e+000 71468 -3.5097e+000 -3.0135e+001 -2.0451e+001 64572 71609,71396,71370
 2.4000e+000 71445  1.5744e+001 -5.3989e+001 -1.0901e+001 64572 71681,71318,71292
 2.4000e+000 71422  1.0234e+001 -1.2996e+002 -2.8147e+001 64572 71753,71344,71318
 2.4000e+000 71563  3.2349e+001 -6.8836e+001 -2.9892e+001 64572 71753,71318,71537
 2.4000e+000 71586 -2.1341e+000 -2.6651e+001 -2.3459e+001 64572 71609,71370,71537
 2.4000e+000 71635 -1.2263e+001 -4.3750e+001 -9.3509e+000 64572 71240,71396,71609
 2.4000e+000 71658 -5.9312e-001 -3.3183e+001 -1.4396e+001 64572 71240,71609,71537
 2.4000e+000 71707  1.2712e+001 -4.4148e+001 -1.3139e+001 64572 71266,71537,71681
 2.4000e+000 71730  9.8876e+000 -4.8130e+001 -1.0497e+001 64572 71266,71681,71292
 2.4000e+000 71779  2.8019e+001 -5.2170e+001 -3.9944e+001 64572 71370,71344,71753
 2.4000e+000 71802  1.7743e+001 -4.1854e+001 -4.4205e+001 64572 71370,71753,71537
 2.4000e+000 72052  5.6181e+000 -6.8040e+001  2.6623e+000 64374 72075,71879,71827
 2.4000e+000 72029  4.0524e+001 -4.9864e+001 -4.9691e+000 64374 72147,72075,71827
 2.4000e+000 72006  6.5974e+001 -6.0182e+001 -2.1536e+001 64374 72147,71827,71957
 2.4000e+000 71983  1.2464e+001 -4.7709e+001  9.8569e-001 64374 71827,71879,71853
 2.4000e+000 72101  1.2445e+001 -9.1272e+001  2.5235e+001 64374 71905,71879,72075
 2.4000e+000 72124  5.5114e+001 -7.0687e+001  1.8848e+001 64374 71905,72075,71931
 2.4000e+000 72173  1.8566e+001 -7.9166e+001  5.4230e+000 64374 71931,72075,72147
 2.4000e+000 72196  3.5519e+001 -9.4228e+001 -8.7117e+000 64374 71931,72147,71957
 2.4000e+000 72649  1.1224e+001 -3.1988e+001 -3.4496e+000 63948 72352,72508,72482
 2.4000e+000 72626  1.6640e+001 -1.9551e+001  9.6202e+000 63948 72326,72508,72352
 2.4000e+000 72603  7.7704e+000 -6.6657e+001  1.0634e+000 63948 72672,72430,72378
 2.4000e+000 72580  7.5721e+000 -5.9633e+001 -1.0282e+000 63948 72672,72378,72352
 2.4000e+000 72557  1.1756e+001 -8.6561e+001 -3.6527e+000 63948 72744,72456,72430
 2.4000e+000 72534  1.2235e+000 -1.1126e+002 -2.3483e+001 63948 72378,72430,72404
 2.4000e+000 72698  5.0569e+000 -7.9706e+001  9.0286e-001 63948 72744,72430,72672
 2.4000e+000 72721  7.3308e+000 -6.1279e+001  2.3456e+000 63948 72482,72672,72352
 2.4000e+000 72770  9.0115e+000 -7.6597e+001 -4.5799e+000 63948 72482,72456,72744
 2.4000e+000 72793  9.3504e+000 -6.0267e+001 -4.5468e-001 63948 72482,72744,72672
 2.4000e+000 72894 -1.6392e+001 -5.3237e+001 -7.5544e+000 63494 72816,72868,72842
 2.4000e+000 73093 -6.0661e+000 -3.8568e+001 -1.4145e+001 63132 72943,72995,72969
 2.4000e+000 73070 -9.4820e+000 -3.4014e+001  7.9870e-002 63132 72943,73021,72995
 2.4000e+000 73047 -3.6952e+000 -1.9532e+001  1.3420e+000 63132 72917,73021,72943
 2.4000e+000 73294 -2.0791e+000  5.9776e-001  1.1214e+000 62792 73317,73144,73118
 2.4000e+000 73271 -2.1924e+000 -3.1583e+000 -4.4910e+000 62792 73317,73118,73222
 2.4000e+000 73248  1.4306e+000  6.6864e+000  3.3589e+000 62792 73144,73196,73170
 2.4000e+000 73343  3.4059e+000  5.4426e+000  4.0805e+000 62792 73196,73144,73317
 2.4000e+000 73366  2.3424e+000  3.0266e-001 -1.7234e+000 62792 73196,73317,73222
 2.4000e+000 73616 -1.3339e+001 -4.7508e+001  2.6247e+001 62388 73639,73417,73391
 2.4000e+000 73593 -6.1124e+000 -3.3454e+001  1.3152e+001 62388 73711,73639,73391
 2.4000e+000 73570 -3.7028e+000 -3.3498e+001  1.2260e+001 62388 73711,73391,73521
 2.4000e+000 73547 -1.6318e+000 -3.7508e+001  1.0222e+001 62388 73469,73521,73495
 2.4000e+000 73665  7.0465e+000 -4.1465e+001  9.2758e+000 62388 73443,73417,73639
 2.4000e+000 73688 -3.0002e+000 -1.8649e+001  3.4942e+000 62388 73443,73639,73469
 2.4000e+000 73737 -3.1395e+000 -3.2973e+001  1.3679e+001 62388 73469,73639,73711
 2.4000e+000 73760 -2.0373e+000 -3.3986e+001  1.3298e+001 62388 73469,73711,73521
 2.4000e+000 74010 -5.8255e+000 -7.3963e+000 -1.7895e+000 61848 74033,73837,73811
 2.4000e+000 73987 -7.3765e+000 -2.6714e+000 -9.7988e+000 61848 74033,73811,73785
 2.4000e+000 73964 -2.9526e+000 -1.0245e+001 -1.2391e+000 61848 73837,73915,73889
 2.4000e+000 73941 -4.9040e+000 -1.0267e+001 -2.2219e+000 61848 73837,73889,73863
 2.4000e+000 74059 -5.4273e+000 -1.0991e+001 -3.3652e+000 61848 73915,73837,74033
 2.4000e+000 74082 -5.4945e+000 -1.5152e+001 -6.0155e+000 61848 73915,74033,73785
 2.4000e+000 74283  1.0699e+001 -1.5866e+001  2.8465e+001 61444 74306,74133,74107
 2.4000e+000 74260  3.2894e+001  1.6476e+001  3.7645e+000 61444 74306,74107,74211
 2.4000e+000 74237  6.3780e+001  8.7090e+001 -6.6175e+000 61444 74378,74185,74159
 2.4000e+000 74332  3.9114e+001 -4.6636e+000  6.6637e+000 61444 74159,74133,74306
 2.4000e+000 74355  4.7030e+001  2.0376e+001 -1.3589e+001 61444 74378,74159,74306
 2.4000e+000 74404  3.2997e+001  1.5095e+001 -1.0061e+001 61444 74211,74185,74378
 2.4000e+000 74427  4.3137e+001  4.1295e+000 -1.0373e+001 61444 74211,74378,74306
 2.4000e+000 74628  2.6935e+001 -1.5832e+001  3.1287e+000 60990 74478,74530,74504
 2.4000e+000 74605 -3.6881e+000 -2.6030e+001  2.4117e+000 60990 74452,74530,74478
 2.4000e+000 74582 -5.6880e+000 -1.1679e+001 -4.5689e+000 60990 74452,74556,74530
 2.4000e+000 75089  6.6459e+001  7.2553e+000 -4.3285e+001 60486 75112,74945,74919
 2.4000e+000 75066  1.9521e+001 -1.5404e+001 -2.2371e+000 60486 75112,74919,74867
 2.4000e+000 75043 -4.0697e+001 -3.8624e+001 -8.8131e-001 60486 74841,74971,74867
 2.4000e+000 75020  9.4713e+000  1.9738e+001 -5.5334e+001 60486 74867,74919,74893
 2.4000e+000 74997 -4.5325e+000 -1.8663e+001  7.1964e+000 60486 74815,74971,74841
 2.4000e+000 75138  5.4656e+000 -1.0161e+001 -2.5700e+001 60486 74971,74945,75112
 2.4000e+000 75161 -1.8113e+001 -4.8827e+000  9.2984e+000 60486 74971,75112,74867
 2.4000e+000 75409 -1.3846e+000  1.1848e+001  1.1860e+001 59932 75576,75432,75288
 2.4000e+000 75386  4.4689e+000  1.0370e+001  1.5265e+001 59932 75504,75314,75288
 2.4000e+000 75363  2.0389e+001  2.0082e+001  2.5532e+001 59932 75432,75236,75210
 2.4000e+000 75340 -1.4708e+000 -2.8527e-001 -9.5257e-001 59932 75576,75288,75262
 2.4000e+000 75458  2.7645e+000  1.2472e+001  1.4674e+001 59932 75504,75288,75432
 2.4000e+000 75481 -3.2464e+000  3.6564e+000  1.5320e+001 59932 75184,75432,75210
 2.4000e+000 75530  7.4406e+000 -2.3068e+000  1.0181e+001 59932 75184,75314,75504
 2.4000e+000 75553  1.4547e-001  9.9462e+000  1.3256e+001 59932 75184,75504,75432
 2.4000e+000 75602 -2.6614e+000 -1.1434e+001  1.5451e+001 59932 75236,75432,75576
 2.4000e+000 75625  4.9034e+000 -1.7112e+001  1.0827e+001 59932 75236,75576,75262
 2.4000e+000 75873  3.7488e+000 -5.3835e+001  1.3132e+001 59478 75674,75752,75700
 2.4000e+000 75850 -3.0326e+001 -6.8369e+001  1.4756e+001 59478 75648,75752,75674
 2.4000e+000 75827  3.4580e+001 -5.7467e+001  9.6262e+000 59478 75700,75752,75726
 2.4000e+000 75804 -2.1609e+001 -7.4066e+001  1.4830e+001 59478 75648,75778,75752
 2.4000e+000 76206 -3.8105e+000 -4.4532e+001  1.1527e+001 59024 75981,76059,76007
 2.4000e+000 76183  6.8117e+000 -4.3215e+001  9.7545e+000 59024 75981,76111,76059
 2.4000e+000 76160  3.1827e+001 -1.8951e+001 -3.9499e-001 59024 76007,76059,76033
 2.4000e+000 76137  1.1754e+001 -3.7998e+001  1.5427e+001 59024 76059,76111,76085
 2.4000e+000 76761 -3.2687e+001 -3.6379e+001 -1.4250e+001 58562 76389,76441,76415
 2.4000e+000 76738 -3.2178e+001 -3.0381e+001  1.5472e+000 58562 76856,76784,76389
 2.4000e+000 76715 -2.8411e+001 -3.3151e+001 -2.4392e+001 58562 76784,76571,76467
 2.4000e+000 76692 -1.4955e+001 -2.2474e+001 -2.1292e+000 58562 76856,76389,76597
 2.4000e+000 76669 -2.3669e+001 -1.1421e+002  6.0582e+000 58562 76467,76545,76493
 2.4000e+000 76646 -3.0426e+001 -9.0938e+001 -4.4299e+001 58562 76467,76571,76545
 2.4000e+000 76623 -9.8618e+000 -8.9753e+001  1.8759e+001 58562 76493,76545,76519
 2.4000e+000 76810 -2.6039e+001 -4.7354e+001 -7.6016e+000 58562 76441,76389,76784
 2.4000e+000 76833 -6.9572e+001 -1.0286e+002 -5.4424e+001 58562 76441,76784,76467
 2.4000e+000 76882 -1.2385e+001 -3.9349e+001  1.0254e+001 58562 76571,76784,76856
 2.4000e+000 76905 -4.2505e+000 -3.7599e+001  8.8386e+000 58562 76571,76856,76597
 2.4000e+000 77055  1.6233e+001 -8.9689e+001 -1.6640e+001 57844 76928,76980,76954
 2.4000e+000 77032 -1.5218e+001 -5.1475e+001 -1.4001e+001 57844 76928,77006,76980
 2.4000e+000 77533 -2.2024e+001 -1.5469e+002  4.6000e+000 57226 77628,77556,77291
 2.4000e+000 77510 -1.5648e+001 -3.6043e+001  2.5214e+001 57226 77556,77187,77343
 2.4000e+000 77487 -1.6814e+001 -9.8540e+001 -1.1850e+001 57226 77628,77291,77265
 2.4000e+000 77464 -4.6276e+001 -1.9371e+002  4.9766e+001 57226 77700,77213,77187
 2.4000e+000 77441 -1.7558e+001 -5.2223e+001  2.4197e+000 57226 77161,77343,77187
 2.4000e+000 77418 -2.5427e+001 -4.2043e+001 -1.2726e+000 57226 77161,77369,77343
 2.4000e+000 77395 -6.5276e+001 -3.0741e+001  2.0208e-001 57226 77213,77265,77239
 2.4000e+000 77582  4.3231e+000 -8.2743e+001  1.6070e+001 57226 77317,77291,77556
 2.4000e+000 77605 -2.3494e+001 -9.5991e+001  2.2413e+001 57226 77317,77556,77343
 2.4000e+000 77654 -6.1510e-001 -9.1522e+001  4.2166e+001 57226 77187,77556,77628
 2.4000e+000 77677 -3.8021e+001 -1.7429e+002  5.0886e+001 57226 77700,77187,77628
 2.4000e+000 77726 -7.3815e+001 -2.1292e+002 -2.9510e+001 57226 77265,77213,77700
 2.4000e+000 77749 -4.2762e+001 -1.4209e+002 -2.4331e+001 57226 77265,77700,77628
 2.4000e+000 78046 -2.0225e+001 -6.7692e+001  2.8451e+001 56936 77798,77850,77824
 2.4000e+000 78023 -1.2646e+001 -6.5534e+001  2.2871e+001 56936 78069,77798,77902
 2.4000e+000 78000  1.0098e+001 -7.6113e+001  2.6034e+001 56936 78069,77902,77876
 2.4000e+000 77977 -1.7000e+001 -6.6909e+001  2.5217e+001 56936 77798,77928,77902
 2.4000e+000 77954 -1.1097e+001 -4.2460e+000  4.1758e+001 56936 77772,77928,77798
 2.4000e+000 78095 -1.8374e+001 -7.1734e+001  2.6162e+001 56936 77850,77798,78069
 2.4000e+000 78118 -7.6905e+000 -8.7056e+001  3.2562e+001 56936 77850,78069,77876
 2.4000e+000 78754  3.0850e+001 -1.3015e+001 -1.7362e+001 56475 78777,78486,78408
 2.4000e+000 78731  1.7808e+001 -2.3282e+001 -1.2651e+001 56475 78777,78408,78382
 2.4000e+000 78708  1.8233e+001 -4.0072e+001 -3.4642e+001 56475 78849,78512,78486
 2.4000e+000 78685  3.1227e+001 -3.6563e+000 -1.1505e+001 56475 78382,78590,78564
 2.4000e+000 78662  1.3223e+001 -5.0815e+001 -3.3630e+001 56475 78512,78564,78538
 2.4000e+000 78639  4.4705e+001 -6.2409e+001 -5.4634e+000 56475 78434,78486,78460
 2.4000e+000 78616 -1.0755e+000 -7.6142e+001 -7.0721e-001 56475 78408,78486,78434
 2.4000e+000 78803  1.8674e+001 -2.7713e+001 -2.2594e+001 56475 78849,78486,78777
 2.4000e+000 78826  2.6298e+001 -4.1257e+000 -1.0229e+001 56475 78564,78777,78382
 2.4000e+000 78875  2.4579e+001 -1.7233e+001 -2.8208e+001 56475 78564,78512,78849
 2.4000e+000 78898  2.1709e+001 -3.7294e+000 -1.8947e+001 56475 78564,78849,78777
 2.4000e+000 79276 -9.6988e+000 -9.3446e+000 -2.0332e+000 55964 79299,79080,79028
 2.4000e+000 79253 -9.6614e+000 -1.2533e+001  1.1768e+000 55964 79299,79028,79132
 2.4000e+000 79230 -6.9979e+000 -6.7413e+001 -1.0317e+001 55964 79028,79080,79054
 2.4000e+000 79207 -6.0948e+000 -4.9112e+000  4.7008e+000 55964 79002,79132,79028
 2.4000e+000 79184 -4.9967e+000 -3.9590e+000 -7.9678e-002 55964 79002,79158,79132
 2.4000e+000 79325 -8.9510e+000 -4.4647e+000 -3.6067e+000 55964 79106,79080,79299
 2.4000e+000 79348 -9.6545e+000 -8.7159e+000 -3.8808e-001 55964 79106,79299,79132
 2.4000e+000 79498  7.5972e+000 -9.7543e+000  1.4893e+000 55452 79397,79449,79423
 2.4000e+000 79475  1.3117e+000 -1.0791e+001 -1.2503e+000 55452 79371,79449,79397
 2.4000e+000 79795 -2.4001e+001 -4.9919e+001  1.0487e+001 55048 79962,79818,79573
 2.4000e+000 79772 -2.4662e+001 -7.1013e+001  8.0488e+000 55048 79818,79521,79677
 2.4000e+000 79749  7.5331e+000 -5.3627e+001  1.3572e+001 55048 79599,79651,79625
 2.4000e+000 79726 -1.4703e+001 -5.1972e+001  6.9422e+000 55048 79890,79651,79599
 2.4000e+000 79703 -1.7451e+001 -4.6831e+001  1.7713e+001 55048 79962,79573,79547
 2.4000e+000 79844 -2.6187e+001 -5.2945e+001  9.4837e+000 55048 79599,79573,79818
 2.4000e+000 79867 -1.7433e+001 -5.7978e+001  6.1817e+000 55048 79890,79599,79818
 2.4000e+000 79916 -1.4384e+001 -5.2936e+001  1.2806e+001 55048 79677,79651,79890
 2.4000e+000 79939 -1.5608e+001 -5.5353e+001  1.2168e+001 55048 79677,79890,79818
 2.4000e+000 79988 -3.2289e+001 -5.4171e+001  8.8268e+000 55048 79521,79818,79962
 2.4000e+000 80011 -3.1576e+001 -5.4310e+001  1.4940e+001 55048 79521,79962,79547
 2.4000e+000 80212 -9.3749e+000 -7.4884e+001  3.3429e+001 54436 80235,80088,80036
 2.4000e+000 80189 -5.7742e+000 -7.3873e+001  3.2890e+001 54436 80235,80036,80140
 2.4000e+000 80166  1.4340e+000 -1.0319e+002  1.3935e+000 54436 80036,80088,80062
 2.4000e+000 80261 -6.3574e+000 -7.7717e+001  3.5734e+001 54436 80114,80088,80235
 2.4000e+000 80284 -1.5942e+000 -7.5953e+001  3.5169e+001 54436 80114,80235,80140
 2.4000e+000 80534  1.9331e+001 -3.6720e+001  1.3386e+001 54032 80557,80361,80335
 2.4000e+000 80511  9.1433e+000 -3.8625e+001  1.3054e+001 54032 80557,80335,80309
 2.4000e+000 80488 -1.3741e+000 -4.0710e+001  1.2674e+001 54032 80629,80413,80387
 2.4000e+000 80465  2.6539e+001 -5.2703e+001  5.7109e+000 54032 80309,80439,80413
 2.4000e+000 80583  1.2546e+001 -2.6883e+001  6.2063e+000 54032 80387,80361,80557
 2.4000e+000 80606  1.1295e+000 -3.5559e+001  1.0471e+001 54032 80629,80387,80557
 2.4000e+000 80655  2.2226e+000 -3.8123e+001  8.0536e+000 54032 80309,80413,80629
 2.4000e+000 80678  4.0248e+000 -3.6972e+001  6.2074e+000 54032 80309,80629,80557
 2.4000e+000 81139 -1.1442e+001 -3.8186e+001  9.3673e+000 53784 80865,80995,80917
 2.4000e+000 81116  2.9260e+000 -2.6676e+001 -4.7903e+000 53784 80865,81021,80995
 2.4000e+000 81093 -2.2363e+001 -8.8805e+001  1.9730e+001 53784 80943,80995,80969
 2.4000e+000 81070 -1.6817e+001 -4.1509e+001  7.8373e+000 53784 80917,80995,80943
 2.4000e+000 81047  3.1141e+001 -1.5021e+002 -2.2110e+001 53784 80865,80917,80891
 2.4000e+000 81468 -1.2691e+001 -5.7801e+001  1.0595e+001 53230 81295,81373,81347
 2.4000e+000 81445 -1.9435e+000 -4.5023e+001  1.5816e+001 53230 81243,81373,81295
 2.4000e+000 81422 -1.4647e+001 -6.6517e+001  1.0356e+001 53230 81243,81295,81269
 2.4000e+000 81399  4.2682e+001 -3.3655e+001  7.4431e+000 53230 81295,81347,81321
 2.4000e+000 81618  4.4834e-001  2.6616e-001 -8.3347e-001 52790 81491,81543,81517
 2.4000e+000 81595  3.3595e+000  1.6289e+001 -3.8187e+000 52790 81491,81569,81543
 2.4000e+000 82126  6.1980e+001  3.2330e+001 -3.0540e+001 52386 82149,81907,81881
 2.4000e+000 82103  4.0468e+001 -8.0387e+000 -1.6134e+001 52386 82149,81881,81855
 2.4000e+000 82080  3.7549e+001 -6.8636e+000 -2.9877e+000 52386 82221,81803,81985
 2.4000e+000 82057 -1.2878e+001 -1.8338e+001 -1.7116e+001 52386 81803,81855,81829
 2.4000e+000 82034  3.6618e+001 -1.8859e+001 -2.3569e+001 52386 81907,81985,81933
 2.4000e+000 82011  2.2526e+001 -1.5884e+001 -2.5187e+001 52386 81933,81985,81959
 2.4000e+000 82175  3.5035e+001 -5.2496e+000 -1.1253e+001 52386 81985,81907,82149
 2.4000e+000 82198  4.6543e+001 -7.2930e+000 -6.1341e+000 52386 82221,81985,82149
 2.4000e+000 82247  3.3678e+001 -9.8860e+000  1.8128e+000 52386 81855,81803,82221
 2.4000e+000 82270  3.7863e+001 -1.3389e+001 -1.2336e+000 52386 81855,82221,82149
 2.4000e+000 82825 -2.6594e+001 -7.6641e+001  7.2502e+000 51782 82505,82661,82635
 2.4000e+000 82802 -7.6114e+001 -1.2137e+002 -2.1835e+001 51782 82479,82661,82505
 2.4000e+000 82779 -3.0643e+001 -9.9256e+001 -4.3402e+001 51782 82557,82635,82609
 2.4000e+000 82756 -2.9656e+001 -9.4489e+001 -6.9865e+000 51782 82531,82635,82557
 2.4000e+000 82733 -4.2966e+001 -9.4947e+001 -1.2003e+001 51782 82505,82635,82531
 2.4000e+000 82710  8.8506e+000 -4.1180e+001  2.6889e+001 51782 82453,82661,82479
 2.4000e+000 82687 -1.8497e-001 -7.6693e+001 -3.3311e+001 51782 82557,82609,82583
 2.4000e+000 83171 -3.7571e+000 -5.2060e+001  4.5636e+000 51442 83194,82978,82900
 2.4000e+000 83148 -2.7507e+001 -3.5825e+001  1.4968e-001 51442 83194,82900,82874
 2.4000e+000 83125 -1.6904e+001 -5.7453e+001  7.5125e+000 51442 82900,82978,82926
 2.4000e+000 83102 -1.1063e+001 -3.0623e+001  1.5999e-001 51442 82874,83030,83004
 2.4000e+000 83079 -5.0849e+000 -4.8158e+001  1.3340e+001 51442 82926,82978,82952
 2.4000e+000 83056 -8.4561e+000 -2.3458e+001  3.1423e+000 51442 82848,83030,82874
 2.4000e+000 83220  1.3216e+001 -4.4775e+001  1.2660e+000 51442 83004,82978,83194
 2.4000e+000 83243 -1.3093e+001 -2.9977e+001 -3.4316e+000 51442 83004,83194,82874
 2.4000e+000 83751 -2.3571e+001 -1.5075e+001 -1.1500e+000 50938 83428,83584,83454
 2.4000e+000 83728 -2.1053e+001 -1.4667e+001  2.8564e+000 50938 83428,83610,83584
 2.4000e+000 83705 -1.7632e+001 -4.1018e+001 -4.0905e+000 50938 83454,83584,83558
 2.4000e+000 83682 -1.4223e+001 -3.5168e+001 -2.2299e+000 50938 83454,83532,83480
 2.4000e+000 83659 -2.0295e+001 -4.1089e+001  1.8772e-001 50938 83454,83558,83532
 2.4000e+000 83636 -8.2595e+000 -3.3745e+001 -1.4039e+000 50938 83480,83532,83506
 2.4000e+000 84355 -1.7595e+001 -9.9933e+001  1.0328e+001 50377 84378,83960,83934
 2.4000e+000 84332 -1.5053e+001 -9.3376e+001  1.1083e+001 50377 84522,84378,83934
 2.4000e+000 84309 -1.9220e+001 -7.0053e+001  8.3905e+000 50377 84450,84038,84012
 2.4000e+000 84286 -2.0646e+001 -9.3391e+001  1.2203e+001 50377 84522,83934,84142
 2.4000e+000 84263 -1.7086e+001 -6.5533e+001  6.2747e+000 50377 84594,84090,84038
 2.4000e+000 84240 -4.5316e+001 -8.8043e+001  8.5311e+000 50377 83960,84012,83986
 2.4000e+000 84217 -1.8937e+001 -8.5591e+001  3.2824e-001 50377 83934,84168,84142
 2.4000e+000 84194 -9.4958e+000 -4.6372e+001  1.8569e+001 50377 84038,84090,84064
 2.4000e+000 84404 -3.4547e+001 -9.6336e+001 -2.5372e-001 50377 84012,83960,84378
 2.4000e+000 84427 -1.8808e+001 -7.0404e+001  6.8922e+000 50377 84450,84012,84378
 2.4000e+000 84476 -1.9819e+001 -6.8878e+001  5.0886e+000 50377 84594,84038,84450
 2.4000e+000 84499 -1.9245e+001 -8.4650e+001  2.9682e+000 50377 84116,84450,84378
 2.4000e+000 84548 -2.3108e+001 -9.1110e+001  1.1391e+001 50377 84116,84378,84522
 2.4000e+000 84571 -2.9355e+001 -9.1875e+001  1.3008e+001 50377 84116,84522,84142
 2.4000e+000 84620 -1.0524e+001 -7.1100e+001  9.0259e+000 50377 84116,84090,84594
 2.4000e+000 84643 -1.2624e+001 -7.3754e+001  8.1000e+000 50377 84116,84594,84450
 2.4000e+000 84842 -1.1464e+001 -6.2751e+001 -6.0169e+000 49923 84865,84692,84666
 2.4000e+000 84819 -6.0016e+000 -4.1286e+001 -2.8474e+001 49923 84865,84666,84770
 2.4000e+000 84796 -3.9885e+000 -7.9884e+001  2.5040e+000 49923 84692,84744,84718
 2.4000e+000 84891 -1.0369e+001 -8.2803e+001  1.1178e+000 49923 84744,84692,84865
 2.4000e+000 84914 -1.0699e+001 -7.2690e+001 -2.2302e+001 49923 84744,84865,84770
 2.4000e+000 85501 -8.6881e+000 -7.4589e+001  4.7478e+000 49618 85524,85282,85204
 2.4000e+000 85478 -2.8947e+001 -8.1289e+001  5.4877e+000 49618 85596,85524,85204
 2.4000e+000 85455 -4.8730e+001 -8.9357e+001 -5.4709e-001 49618 85596,85204,85178
 2.4000e+000 85432 -4.3645e+001 -8.8382e+001  1.1165e+001 49618 85204,85282,85256
 2.4000e+000 85409 -8.0864e+000 -1.1034e+002  1.6492e+001 49618 85282,85334,85308
 2.4000e+000 85386 -4.5661e+001 -1.0196e+002 -4.9832e+000 49618 85204,85256,85230
 2.4000e+000 85550 -1.8287e+001 -9.2611e+001  9.4845e+000 49618 85334,85282,85524
 2.4000e+000 85573  4.0371e+001 -6.3427e+001  2.6971e+001 49618 85334,85524,85360
 2.4000e+000 85622  2.6478e+000 -9.8704e+001  4.6310e+000 49618 85360,85524,85596
 2.4000e+000 85645 -1.5128e+001 -1.0335e+002  1.8827e+000 49618 85360,85596,85178
 2.4000e+000 85795 -3.6709e+001 -9.5594e+001 -7.0968e+000 49278 85694,85746,85720
 2.4000e+000 85772 -5.3998e+001 -2.2165e+002 -7.8222e+000 49278 85668,85746,85694
 2.4000e+000 86197 -1.8418e+001 -1.3210e+002 -1.6956e+001 48916 86001,86079,86027
 2.4000e+000 86174 -1.5028e+001 -9.6836e+001  1.6014e+000 48916 85949,86079,86001
 2.4000e+000 86151  1.3489e+001 -1.3435e+002 -2.9151e+000 48916 85949,86001,85975
 2.4000e+000 86128 -2.5737e+001 -1.4873e+002 -1.5119e+001 48916 86027,86079,86053
 2.4000e+000 86105  6.0887e+001 -4.9057e+001  2.3168e+001 48916 85923,86079,85949
 2.4000e+000 86477  2.9198e-001 -4.3638e+001  7.1235e+000 48398 86327,86379,86353
 2.4000e+000 86454 -3.0166e+000 -4.6147e+001  5.2959e+000 48398 86500,86379,86327
 2.4000e+000 86431  1.0703e+001 -3.4521e+001  1.1266e+001 48398 86301,86405,86379
 2.4000e+000 86526 -1.6630e+001 -4.1786e+001  1.1011e+001 48398 86301,86379,86500
 2.4000e+000 87032 -9.6608e+000 -6.6446e+001 -9.6435e+000 48008 87127,87055,86787
 2.4000e+000 87009 -8.7508e+000 -7.5356e+001  1.3066e+000 48008 87055,86735,86709
 2.4000e+000 86986 -1.0306e+001 -6.6232e+001 -9.5073e+000 48008 87127,86787,86761
 2.4000e+000 86963 -6.5020e+000 -4.1952e+001 -1.3942e+000 48008 86787,86865,86839
 2.4000e+000 86940  1.4799e+001 -5.4898e+001  1.3055e+001 48008 86709,86891,86865
 2.4000e+000 86917 -2.4466e+001 -4.6881e+001 -1.6145e+000 48008 86787,86839,86813
 2.4000e+000 87081 -1.3702e+001 -6.1505e+001 -3.5883e+000 48008 86865,86787,87055
 2.4000e+000 87104 -3.8516e+000 -4.9769e+001  6.8807e+000 48008 86865,87055,86709
 2.4000e+000 87153 -1.0491e+001 -6.7422e+001 -1.0024e+001 48008 86735,87055,87127
 2.4000e+000 87176 -1.1199e+001 -6.6642e+001 -9.9599e+000 48008 86735,87127,86761
 2.4000e+000 87456  7.5606e+000 -4.0952e+001  7.1064e-002 47604 87306,87358,87332
 2.4000e+000 87433  3.9649e+001 -2.4476e+001 -5.7279e+000 47604 87306,87384,87358
 2.4000e+000 87410  2.5318e+000 -4.0451e+001 -7.2742e+000 47604 87280,87384,87306
 2.4000e+000 87785  1.5948e+001 -3.2931e+001  1.0921e+001 47264 87638,87690,87664
 2.4000e+000 87762  7.8499e+000 -7.6434e+001  1.9957e+001 47264 87612,87690,87638
 2.4000e+000 87739  5.9933e+000 -9.8757e+001  2.6146e+001 47264 87560,87690,87612
 2.4000e+000 87716  1.7127e+001 -8.8106e+001  1.8670e+001 47264 87560,87612,87586
 2.4000e+000 87935  2.0001e+001 -1.2145e+001  4.6503e+000 46952 87808,87860,87834
 2.4000e+000 87912 -7.0791e+000 -8.3597e+001  3.0937e+000 46952 87808,87886,87860
 2.4000e+000 88281 -4.7995e+000 -5.3691e+001  5.8169e+000 46526 88304,88114,88036
 2.4000e+000 88258 -1.4931e+000 -4.6609e+001  8.7235e+000 46526 88304,88036,87984
 2.4000e+000 88235 -7.2400e+000 -5.2970e+001  7.4413e-001 46526 88036,88114,88062
 2.4000e+000 88212 -6.9191e+000 -3.9129e+001  7.5444e+000 46526 87958,88140,87984
 2.4000e+000 88189 -3.7087e+000 -5.2557e+001  1.7405e+001 46526 87984,88036,88010
 2.4000e+000 88166 -1.5252e+000 -3.5712e+001  1.0239e+001 46526 88062,88114,88088
 2.4000e+000 88330 -9.9825e+000 -4.5934e+001  4.9343e+000 46526 88140,88114,88304
 2.4000e+000 88353 -7.9672e+000 -3.9700e+001  6.8618e+000 46526 88140,88304,87984
 2.4000e+000 88701  2.0992e+001 -2.6781e+001  1.5897e+001 45822 88724,88378,88534
 2.4000e+000 88678  2.3592e+001 -1.1474e+001  1.6588e+001 45822 88378,88560,88534
 2.4000e+000 88655 -3.2883e-001 -3.0153e+001  8.2551e+000 45822 88724,88534,88508
 2.4000e+000 88632 -2.0562e+001 -4.7017e+001  5.3073e-001 45822 88404,88508,88456
 2.4000e+000 88609 -2.2124e+001 -5.0668e+001  5.5351e-001 45822 88404,88456,88430
 2.4000e+000 88586 -7.4914e+000 -2.0740e+001 -1.3558e+001 45822 88456,88508,88482
 2.4000e+000 88750  4.0076e+000 -3.1318e+001  5.1309e+000 45822 88404,88378,88724
 2.4000e+000 88773 -1.2813e+001 -3.1165e+001 -2.2359e+000 45822 88404,88724,88508
 2.4000e+000 89106 -4.7244e+001 -7.4144e+001  1.6329e+001 45418 88881,88985,88907
 2.4000e+000 89083 -4.6244e+001 -8.0573e+001  1.7698e+001 45418 88881,89011,88985
 2.4000e+000 89060  1.7783e+001 -4.4634e+001  2.7434e+001 45418 88907,88985,88933
 2.4000e+000 89037 -3.6793e+001 -6.7911e+001  2.1425e+000 45418 88933,88985,88959
 2.4000e+000 89435 -1.2814e+001 -4.9084e+001  2.3540e+001 44914 89210,89288,89236
 2.4000e+000 89412 -2.7206e+001 -7.2702e+001  3.0023e+001 44914 89210,89314,89288
 2.4000e+000 89389 -4.1383e+000 -4.7472e+001  1.8428e+001 44914 89210,89340,89314
 2.4000e+000 89366 -7.0047e+000 -4.9212e+001  2.7576e+001 44914 89236,89288,89262
 2.4000e+000 89634 -4.2263e+000 -3.6153e+001  1.8099e+001 44538 89510,89562,89536
 2.4000e+000 89611 -6.0375e+000 -2.0500e+001  8.4225e+000 44538 89458,89562,89510
 2.4000e+000 89588 -6.7184e+000 -3.2362e+001  9.1566e+000 44538 89458,89510,89484
 2.4000e+000 90044  7.7518e+000 -4.3321e+001 -1.5340e-001 44134 89819,89923,89845
 2.4000e+000 90021 -4.9473e+000 -2.7167e+001 -2.9815e+001 44134 89819,89949,89923
 2.4000e+000 89998 -7.0810e+000 -4.3694e+001  7.4090e+000 44134 89845,89923,89897
 2.4000e+000 89975 -2.5328e+001 -7.1116e+001 -4.3655e+000 44134 89845,89897,89871
 2.4000e+000 90520 -1.1677e+000 -8.7861e+001 -4.5326e+000 43457 90543,90252,90226
 2.4000e+000 90497 -1.8747e+001 -9.1592e+001 -4.7792e+000 43457 90543,90226,90330
 2.4000e+000 90474 -2.7863e+001 -9.9068e+001 -9.3325e+000 43457 90200,90330,90226
 2.4000e+000 90451 -3.8054e+001 -8.0963e+001  2.3092e+001 43457 90200,90356,90330
 2.4000e+000 90428  3.4495e+001 -4.8063e+001 -1.5920e+001 43457 90252,90304,90278
 2.4000e+000 90405 -3.3923e+001 -1.0545e+002  2.3767e+001 43457 90174,90356,90200
 2.4000e+000 90382 -2.8856e+001 -3.8377e+001  4.3169e+001 43457 90148,90356,90174
 2.4000e+000 90569  1.4411e+001 -9.4281e+001 -1.9936e+001 43457 90304,90252,90543
 2.4000e+000 90592 -1.3946e+001 -1.0335e+002 -2.3583e+001 43457 90304,90543,90330
 2.4000e+000 91098 -1.0299e+001 -6.0709e+001  3.0949e+000 42789 90801,90905,90853
 2.4000e+000 91075 -1.1624e+001 -5.8374e+001  3.6624e+000 42789 90775,90905,90801
 2.4000e+000 91052 -8.4592e+000 -4.9987e+001  3.4041e+000 42789 90775,90931,90905
 2.4000e+000 91029 -1.3857e+001 -7.3044e+001  4.6822e+000 42789 90801,90853,90827
 2.4000e+000 91006  3.9423e+001 -3.5913e+001 -1.4429e+001 42789 90853,90905,90879
 2.4000e+000 90983 -1.8830e+001 -6.8684e+001  7.7653e+000 42789 90775,90957,90931
 2.4000e+000 91427 -3.2032e+001 -7.8246e+001 -7.9796e+000 42227 91228,91280,91254
 2.4000e+000 91404 -2.2080e+000 -8.4249e+001 -4.8964e+000 42227 91228,91306,91280
 2.4000e+000 91381 -2.5982e+001 -9.1447e+001  5.1503e+000 42227 91202,91306,91228
 2.4000e+000 91358  4.9338e-001 -4.7566e+001 -6.2000e+000 42227 91202,91332,91306
 2.4000e+000 91675 -1.0647e+001 -5.3099e+001  1.7672e+001 41773 91698,91476,91450
 2.4000e+000 91652 -5.1254e+000 -4.5797e+001  2.5454e+001 41773 91698,91450,91554
 2.4000e+000 91629 -2.0759e+001 -4.6556e+001  2.9460e+001 41773 91450,91580,91554
 2.4000e+000 91606 -6.4058e+000 -4.9492e+001  1.7588e+001 41773 91502,91554,91528
 2.4000e+000 91724 -1.7795e+001 -5.3278e+001  1.1217e+001 41773 91502,91476,91698
 2.4000e+000 91747 -1.3546e+001 -4.6304e+001  1.9001e+001 41773 91502,91698,91554
 2.4000e+000 92127 -1.1721e+001 -1.2745e+002 -1.5239e+000 41255 92150,91905,91879
 2.4000e+000 92104 -1.6579e+001 -1.1396e+002  1.1482e-001 41255 92150,91879,91957
 2.4000e+000 92081 -4.4640e+001 -1.4167e+002  1.5157e+001 41255 91853,91957,91879
 2.4000e+000 92058 -4.6171e+001 -1.4871e+002  3.0544e+001 41255 91853,91983,91957
 2.4000e+000 92035  9.9544e+000 -1.6648e+002  3.2150e+001 41255 91853,92009,91983
 2.4000e+000 92176 -1.3307e+001 -1.3911e+002 -1.0441e+001 41255 91931,91905,92150
 2.4000e+000 92199 -1.4860e+001 -1.1775e+002 -1.1042e+001 41255 91931,92150,91957
 2.4000e+000 92518 -7.2556e+001 -1.7799e+002 -1.2414e+001 41007 92244,92374,92270
 2.4000e+000 92495 -1.2298e+002 -2.1829e+002  5.3954e+000 41007 92244,92400,92374
 2.4000e+000 92472 -6.2303e+001 -1.5728e+002 -1.7582e+000 41007 92270,92374,92348
 2.4000e+000 92449 -6.6413e+001 -1.0334e+002  4.3439e+000 41007 92296,92348,92322
 2.4000e+000 92426 -5.9592e+001 -1.1894e+002 -6.1512e+000 41007 92270,92348,92296
 2.4000e+000 92668 -2.0057e+001 -9.4277e+001 -7.3257e+000 40717 92823,92691,92567
 2.4000e+000 92645 -3.1378e+001 -7.7427e+001 -8.3799e+000 40717 92895,92823,92567
 2.4000e+000 92717  3.7818e+001 -6.9566e+001 -7.4718e+000 40717 92593,92567,92691
 2.4000e+000 92849  9.2683e-001 -7.3004e+001 -1.6099e+001 40717 92619,92691,92823
 2.4000e+000 92872 -1.7488e+001 -7.0634e+001 -6.0561e+000 40717 92619,92823,92541
 2.4000e+000 92921 -1.7752e+001 -7.3834e+001 -6.9055e+000 40717 92541,92823,92895
 2.4000e+000 93634 -6.1870e+001 -1.5523e+002 -5.7655e+000 40206 93366,93444,93418
 2.4000e+000 93611 -3.7068e+001 -8.8100e+001  9.1736e-002 40206 93288,93444,93366
 2.4000e+000 93588 -7.3341e+001 -1.3239e+002  1.6646e+001 40206 93288,93366,93314
 2.4000e+000 93565 -4.4147e+001 -9.2783e+001 -2.9656e+000 40206 93262,93444,93288
 2.4000e+000 93542 -4.6962e+000 -1.5298e+002 -1.0204e+001 40206 93366,93418,93392
 2.4000e+000 93519 -4.5139e+001 -9.5284e+001 -2.3626e+000 40206 93262,93470,93444
 2.4000e+000 93496 -1.3818e+001 -1.0705e+002  1.9763e+001 40206 93314,93366,93340
 2.4000e+000 94189 -2.5613e+000 -2.7915e+001  9.2761e+000 39802 93843,93999,93973
 2.4000e+000 94166  3.3037e+001 -6.5763e+000 -5.4634e+000 39802 93817,93999,93843
 2.4000e+000 94143 -2.4482e+000 -1.6269e+001 -3.3335e+000 39802 93869,93973,93947
 2.4000e+000 94120  1.0123e+001 -1.5683e+001  4.1009e+000 39802 93843,93973,93869
 2.4000e+000 94097  2.9324e+001 -1.8580e+001  7.1717e+000 39802 93869,93921,93895
 2.4000e+000 94074  2.9489e+001 -2.0645e+001 -1.2254e+001 39802 93869,93947,93921
 2.4000e+000 94051 -1.1474e+001 -2.6617e+001  1.1844e+001 39802 93817,94025,93999
 2.4000e+000 94290  2.7548e+000 -2.7705e+001 -6.9240e+000 39398 94212,94264,94238
 2.4000e+000 94798 -1.3917e+001 -6.1705e+001 -3.8855e+000 38701 94501,94657,94631
 2.4000e+000 94775 -2.0651e+001 -4.5614e+001  7.0223e+000 38701 94475,94657,94501
 2.4000e+000 94752 -3.1336e+000 -6.4555e+001 -7.0487e+000 38701 94579,94631,94605
 2.4000e+000 94729 -2.3015e+001 -9.2866e+001 -1.8276e+001 38701 94553,94631,94579
 2.4000e+000 94706 -3.3171e+001 -9.0145e+001  5.0922e+000 38701 94501,94631,94553
 2.4000e+000 94683 -3.0937e+000 -1.5999e+002  6.5001e+000 38701 94501,94553,94527
 2.4000e+000 95255 -3.2997e+001 -7.8205e+001 -6.4746e-001 38247 95278,95085,95007
 2.4000e+000 95232 -2.5026e+001 -7.4017e+001  9.9530e-001 38247 95278,95007,95137
 2.4000e+000 95209 -1.9149e+001 -6.2375e+001  3.1437e+000 38247 94981,95137,95007
 2.4000e+000 95186 -3.7208e+001 -6.8061e+001 -1.1730e+001 38247 95007,95059,95033
 2.4000e+000 95163 -3.3076e+001 -5.7252e+001 -9.4132e+000 38247 95007,95085,95059
 2.4000e+000 95304 -3.3993e+001 -7.4593e+001  5.8179e+000 38247 95111,95085,95278
 2.4000e+000 95327 -2.7921e+001 -7.2224e+001  6.7659e+000 38247 95111,95278,95137
 2.4000e+000 95575 -3.2454e+000 -7.0908e-001 -2.0108e+000 37564 95376,95428,95402
 2.4000e+000 95552  6.4638e-001 -1.9658e+001 -2.5265e+000 37564 95376,95454,95428
 2.4000e+000 95529  9.3768e+000 -1.3826e+001  1.2814e+000 37564 95376,95480,95454
 2.4000e+000 95506  1.8863e+001 -3.0027e+001 -1.8454e+000 37564 95350,95480,95376
 2.4000e+000 96034 -5.5014e+001 -1.3820e+002  5.5943e-001 37224 95786,95838,95812
 2.4000e+000 96011 -4.3926e+001 -1.0664e+002 -2.1282e+000 37224 95786,95890,95838
 2.4000e+000 95988 -5.0696e+001 -1.1051e+002  3.6018e-001 37224 95786,95916,95890
 2.4000e+000 95965  9.0708e+000 -8.7509e+001  4.8045e-001 37224 95760,95916,95786
 2.4000e+000 95942 -1.7244e+001 -1.1079e+002 -1.7557e+001 37224 95838,95890,95864
 2.4000e+000 96363  1.8049e+001 -1.0325e+001 -1.9809e+000 36884 96216,96268,96242
 2.4000e+000 96340  2.0175e+001 -1.1229e+001 -2.3044e+000 36884 96164,96268,96216
 2.4000e+000 96317  2.5149e+001 -1.2834e+001  9.4312e-001 36884 96138,96268,96164
 2.4000e+000 96294  7.1102e+000 -3.1877e+001  1.2740e+001 36884 96164,96216,96190
 2.4000e+000 96839 -1.8567e+001 -1.0343e+002  3.0698e+000 36572 96862,96649,96597
 2.4000e+000 96816 -2.0264e+001 -9.1269e+001  3.4865e+000 36572 97006,96862,96597
 2.4000e+000 96793 -2.2108e+001 -8.7281e+001 -4.6637e+000 36572 96934,96467,96675
 2.4000e+000 96770 -2.1333e+001 -8.6326e+001 -1.9396e+000 36572 97006,96597,96571
 2.4000e+000 96747 -4.2640e+001 -1.3411e+002  1.2217e+000 36572 96467,96519,96493
 2.4000e+000 96724 -1.6947e+001 -7.2339e+001 -2.5057e+000 36572 96519,96571,96545
 2.4000e+000 96701 -2.0434e+001 -8.3569e+001 -8.1981e+000 36572 96597,96649,96623
 2.4000e+000 96888 -2.6944e+001 -1.1238e+002 -1.1282e+001 36572 96675,96649,96862
 2.4000e+000 96911 -1.9686e+001 -9.8040e+001 -5.5836e+000 36572 96934,96675,96862
 2.4000e+000 96960 -2.7537e+001 -9.6187e+001 -2.0685e+000 36572 96519,96467,96934
 2.4000e+000 96983 -2.1859e+001 -1.0494e+002 -2.0156e+000 36572 97078,96934,96862
 2.4000e+000 97032 -2.1914e+001 -1.0191e+002  2.4035e+000 36572 97078,96862,97006
 2.4000e+000 97055 -2.2553e+001 -9.4297e+001 -6.0806e-001 36572 96519,97006,96571
 2.4000e+000 97104 -1.8949e+001 -9.7774e+001 -1.0479e+000 36572 96519,96934,97078
 2.4000e+000 97127 -2.0374e+001 -9.5507e+001  2.4863e+000 36572 96519,97078,97006
 2.4000e+000 97761 -2.7305e+001 -9.2754e+001 -1.3123e+001 36118 97784,97493,97415
 2.4000e+000 97738 -1.0277e+001 -1.0199e+002 -1.9309e+000 36118 97784,97415,97597
 2.4000e+000 97715  7.8121e+000 -1.0384e+002 -1.5342e+001 36118 97389,97597,97415
 2.4000e+000 97692 -2.1485e+001 -1.0759e+002  6.0256e+000 36118 97415,97467,97441
 2.4000e+000 97669 -3.4525e+001 -9.9395e+001 -9.0797e+000 36118 97415,97493,97467
 2.4000e+000 97646 -2.9289e+001 -6.8433e+001  4.4917e+000 36118 97493,97571,97519
 2.4000e+000 97623 -1.3516e+000 -7.1062e+001  4.2127e+001 36118 97519,97571,97545
 2.4000e+000 97810 -1.5721e+001 -8.7177e+001 -5.4553e+000 36118 97571,97493,97784
 2.4000e+000 97833  1.3194e+001 -8.7153e+001  7.0847e+000 36118 97571,97784,97597
 2.4000e+000 98081 -3.2310e+001 -1.1059e+002 -7.3667e-001 35564 98104,97908,97856
 2.4000e+000 98058 -3.0227e+001 -1.0777e+002 -1.6979e+000 35564 98104,97856,97986
 2.4000e+000 98035 -1.1680e+001 -9.4559e+001  3.2980e+000 35564 97934,97986,97960
 2.4000e+000 98012 -3.1287e+001 -1.1004e+002  3.6087e+000 35564 97856,97908,97882
 2.4000e+000 98130 -3.0243e+001 -1.2098e+002 -9.0552e-001 35564 97934,97908,98104
 2.4000e+000 98153 -2.5957e+001 -1.1173e+002 -3.1310e+000 35564 97934,98104,97986
 2.4000e+000 98374 -6.7407e+001 -1.2333e+002  3.6658e+000 35152 98224,98302,98276
 2.4000e+000 98351 -6.1440e+001 -1.1044e+002  6.1097e+000 35152 98198,98302,98224
 2.4000e+000 98328 -8.7451e+001 -1.3278e+002  8.4928e+000 35152 98224,98276,98250
 2.4000e+000 98884 -1.7669e+000 -4.3194e+001 -1.2227e+001 34698 98691,98743,98717
 2.4000e+000 98861 -6.4613e+000 -5.2722e+001 -1.5479e+001 34698 98561,98743,98691
 2.4000e+000 98838 -1.2568e+001 -6.2453e+001 -1.1913e+001 34698 98907,98587,98561
 2.4000e+000 98815 -1.4942e+001 -6.7525e+001 -1.1183e+001 34698 98907,98561,98691
 2.4000e+000 98792 -3.1713e+001 -8.2365e+001  2.0069e+000 34698 98587,98639,98613
 2.4000e+000 98769 -1.0544e+001 -4.9643e+001 -1.1290e+001 34698 98587,98665,98639
 2.4000e+000 98933 -1.1951e+001 -6.4482e+001 -6.9681e+000 34698 98665,98587,98907
 2.4000e+000 98956 -1.5542e+001 -7.2267e+001 -6.0864e+000 34698 98665,98907,98691
 2.4000e+000 99204  2.2667e+001 -7.4126e+001  5.9486e+000 34144 99227,99031,99005
 2.4000e+000 99181 -4.2673e+000 -7.5486e+001 -1.4512e+000 34144 99299,99227,99005
 2.4000e+000 99158 -6.8647e+000 -7.6500e+001 -1.4425e+000 34144 99299,99005,99109
 2.4000e+000 99135  3.1852e+001 -6.5097e+001  5.5742e+000 34144 98979,99109,99005
 2.4000e+000 99253  4.8396e+000 -8.5551e+001 -5.8516e+000 34144 99057,99031,99227
 2.4000e+000 99276 -6.1820e+000 -7.4427e+001 -1.1493e+001 34144 99057,99227,99083
 2.4000e+000 99325 -4.5021e-001 -7.4538e+001 -1.0492e+001 34144 99083,99227,99299
 2.4000e+000 99348 -1.1644e+001 -7.9290e+001 -1.0982e+001 34144 99083,99299,99109
 2.4000e+000 99498  4.6559e+000 -4.0657e+001  1.6561e+001 33433 99397,99449,99423
 2.4000e+000 99475 -1.6808e+001 -2.9719e+001  4.5638e-001 33433 99371,99449,99397
 2.4000e+000 100008 -2.1744e+001 -6.4926e+001 -8.3492e+000 32979 100103,100031,99815
 2.4000e+000 99985 -1.7472e+001 -7.0056e+001 -1.6957e+001 32979 100175,100031,99763
 2.4000e+000 99962 -1.8766e+001 -7.3595e+001 -1.5646e+001 32979 100103,99815,99789
 2.4000e+000 99939 -2.4853e+001 -8.1287e+001 -1.3582e+001 32979 100175,99763,99737
 2.4000e+000 99916 -2.4882e+001 -6.8666e+001 -6.4758e+000 32979 99685,99867,99737
 2.4000e+000 99893 -3.1431e+001 -1.2116e+002 -1.8176e+001 32979 99685,99737,99711
 2.4000e+000 100057 -1.4584e+001 -6.2795e+001 -6.1531e+000 32979 99841,99815,100031
 2.4000e+000 100080 -8.3597e+000 -2.9902e+001 -2.2932e+001 32979 99841,100031,99867
 2.4000e+000 100129 -1.3716e+001 -8.3937e+001 -1.0459e+001 32979 99763,100031,100103
 2.4000e+000 100152 -1.8196e+001 -9.9472e+001 -1.9638e+001 32979 99763,100103,99789
 2.4000e+000 100201 -2.7191e+001 -6.7484e+001 -1.1315e+001 32979 99867,100031,100175
 2.4000e+000 100224 -2.9279e+001 -7.0830e+001 -9.8862e+000 32979 99867,100175,99737
 2.4000e+000 100553 -1.2566e+001 -9.2686e+001 -7.6505e+000 32503 100354,100406,100380
 2.4000e+000 100530 -3.0500e+001 -1.0638e+002 -5.6555e-001 32503 100328,100406,100354
 2.4000e+000 100507 -3.7406e+001 -1.0736e+002  1.0707e+001 32503 100328,100458,100406
 2.4000e+000 100484 -3.3060e+001 -1.2855e+002  1.3421e+001 32503 100406,100458,100432
 2.4000e+000 100850 -3.4629e+001 -1.1477e+002 -1.0279e+001 31899 100873,100654,100628
 2.4000e+000 100827 -3.2585e+001 -1.0911e+002 -6.1330e+000 31899 100945,100873,100628
 2.4000e+000 100804 -3.2314e+001 -1.0026e+002 -5.8616e+000 31899 100945,100628,100602
 2.4000e+000 100781 -1.3326e+001 -8.9079e+001 -2.0747e+001 31899 100576,100732,100602
 2.4000e+000 100758 -4.7705e+001 -8.2909e+001 -4.0888e+001 31899 100654,100706,100680
 2.4000e+000 100899 -2.9080e+001 -1.0106e+002 -1.3526e+001 31899 100706,100654,100873
 2.4000e+000 100922 -4.1921e+001 -1.0660e+002 -1.2457e+001 31899 100706,100873,100732
 2.4000e+000 100971 -3.7500e+001 -9.6483e+001 -1.1074e+001 31899 100732,100873,100945
 2.4000e+000 100994 -3.6779e+001 -8.6864e+001 -1.0337e+001 31899 100732,100945,100602
 2.4000e+000 101551 -3.1283e+001 -8.8725e+001 -5.0255e+000 31338 101205,101387,101231
 2.4000e+000 101528 -4.8485e-002 -7.6085e+001  2.9813e+000 31338 101179,101387,101205
 2.4000e+000 101505 -3.6601e+001 -7.7280e+001  1.1186e+000 31338 101574,101309,101257
 2.4000e+000 101482 -4.0976e+001 -8.2872e+001 -1.0905e+000 31338 101646,101574,101257
 2.4000e+000 101459 -4.2202e+001 -8.1330e+001 -2.9531e+000 31338 101646,101257,101231
 2.4000e+000 101436 -2.8555e+001 -1.1426e+002  4.4280e+000 31338 101309,101361,101335
 2.4000e+000 101413 -1.5567e+001 -7.0107e+001  2.5155e+000 31338 101257,101309,101283
 2.4000e+000 101600 -2.8950e+001 -8.3306e+001 -3.6624e+000 31338 101361,101309,101574
 2.4000e+000 101623 -3.9170e+001 -9.1217e+001 -7.9706e+000 31338 101361,101574,101387
 2.4000e+000 101672 -3.7522e+001 -8.1069e+001 -1.7874e+000 31338 101387,101574,101646
 2.4000e+000 101695 -3.9493e+001 -8.0218e+001 -3.3586e+000 31338 101387,101646,101231
 2.4000e+000 101943  1.4058e+001 -6.2757e+001  2.5621e-001 30748 101966,101796,101744
 2.4000e+000 101920  2.0208e+001 -7.4959e+001 -2.0544e+000 30748 101966,101744,101718
 2.4000e+000 101897  2.3440e+000 -9.2078e+001  1.7425e+001 30748 101718,101848,101822
 2.4000e+000 101874 -1.2905e+001 -6.0087e+001 -1.2240e+001 30748 101744,101796,101770
 2.4000e+000 101992  1.2797e+001 -7.1850e+001  9.9744e-001 30748 101822,101796,101966
 2.4000e+000 102015  1.7560e+001 -8.5445e+001  3.3217e-001 30748 101822,101966,101718
 2.4000e+000 102493 -4.6889e+001 -1.0475e+002 -4.7559e+000 30344 102516,102173,102147
 2.4000e+000 102470 -4.0007e+001 -9.4881e+001 -8.6220e+000 30344 102660,102516,102147
 2.4000e+000 102447 -3.5631e+001 -9.8882e+001 -9.5588e+000 30344 102588,102199,102173
 2.4000e+000 102424 -1.5983e+001 -9.8515e+001 -1.0597e+001 30344 102660,102147,102329
 2.4000e+000 102401 -2.5573e+001 -9.8348e+001 -1.8207e+001 30344 102199,102277,102251
 2.4000e+000 102378 -8.1328e-001 -8.1414e+001 -2.5927e+001 30344 102199,102251,102225
 2.4000e+000 102355  3.8772e+001 -6.9459e+001  1.9288e+001 30344 102121,102329,102147
 2.4000e+000 102542 -3.4855e+001 -9.9360e+001 -9.4570e+000 30344 102588,102173,102516
 2.4000e+000 102565 -5.7173e+001 -1.0972e+002  3.0387e+000 30344 102277,102516,102303
 2.4000e+000 102614 -3.4888e+001 -9.8702e+001 -9.4065e+000 30344 102277,102199,102588
 2.4000e+000 102637 -3.3846e+001 -9.8814e+001 -9.1154e+000 30344 102277,102588,102516
 2.4000e+000 102686 -1.3160e+001 -9.1728e+001  2.5201e+000 30344 102303,102516,102660
 2.4000e+000 102709  1.9743e+000 -1.0176e+002  1.5547e+000 30344 102303,102660,102329
 2.4000e+000 103294 -2.3123e+001 -9.0110e+001 -7.5955e+000 29726 103317,103101,103075
 2.4000e+000 103271 -2.4179e+001 -8.7634e+001 -8.1352e+000 29726 103317,103075,102997
 2.4000e+000 103248 -4.9327e+000 -8.6830e+001 -2.1702e+001 29726 102971,103153,102997
 2.4000e+000 103225 -3.4373e+001 -1.2033e+002 -1.5006e+001 29726 103101,103153,103127
 2.4000e+000 103202 -3.0981e+001 -9.3711e+001 -4.2574e+000 29726 102997,103075,103023
 2.4000e+000 103179 -1.1376e+001 -7.7745e+001 -1.3013e+001 29726 103023,103075,103049
 2.4000e+000 103343 -2.1942e+001 -8.8415e+001 -8.1650e+000 29726 103153,103101,103317
 2.4000e+000 103366 -2.3459e+001 -8.6633e+001 -8.6164e+000 29726 103153,103317,102997
 2.4000e+000 103614 -5.4674e+000 -6.3162e+001 -7.6787e+000 29200 103781,103637,103467
 2.4000e+000 103591 -2.3762e+001 -6.5684e+001  1.5658e+000 29200 103709,103637,103415
 2.4000e+000 103568 -2.8748e+001 -7.3987e+001 -5.1789e-001 29200 103709,103415,103389
 2.4000e+000 103545 -1.0651e+001 -5.3217e+001 -1.6359e+001 29200 103781,103467,103441
 2.4000e+000 103663  3.6058e+000 -6.7479e+001  2.8540e+000 29200 103853,103637,103493
 2.4000e+000 103686  3.4763e-001 -3.6965e+001  4.5447e+000 29200 103493,103637,103519
 2.4000e+000 103735 -1.6380e+001 -7.5315e+001  6.6731e+000 29200 103519,103637,103709
 2.4000e+000 103758 -1.9982e+001 -8.0935e+001  5.1280e+000 29200 103519,103709,103389
 2.4000e+000 103807 -1.2398e+001 -7.9082e+001 -9.0395e+000 29200 103415,103637,103781
 2.4000e+000 103830 -2.1311e+001 -7.5365e+001 -2.0467e+001 29200 103415,103781,103441
 2.4000e+000 103879 -1.1644e+001 -6.7446e+001 -5.1142e+000 29200 103467,103637,103853
 2.4000e+000 104545 -1.4102e+001 -6.2468e+001 -7.8310e+000 28860 104274,104352,104326
 2.4000e+000 104522 -2.9550e+001 -6.3878e+001 -6.6278e+000 28860 104248,104352,104274
 2.4000e+000 104499 -2.0027e+001 -6.0218e+001 -6.5550e+000 28860 104248,104404,104352
 2.4000e+000 104476 -4.5209e+001 -5.5092e+001 -7.6993e+000 28860 104222,104404,104248
 2.4000e+000 104453 -1.3755e+001 -4.8351e+001 -8.8911e+000 28860 104352,104404,104378
 2.4000e+000 104430 -2.2439e+001 -6.1231e+001 -1.1316e+001 28860 104274,104326,104300
 2.4000e+000 104744  7.1021e+000 -8.4561e+001 -1.0895e+001 28456 104839,104767,104646
 2.4000e+000 104721 -1.6360e+001 -9.9678e+001 -1.5634e+000 28456 104767,104594,104568
 2.4000e+000 104698  3.3941e+001 -5.9685e+001  1.8014e+000 28456 104839,104646,104620
 2.4000e+000 104793 -8.8465e+000 -9.1016e+001 -9.7411e+000 28456 104672,104646,104767
 2.4000e+000 104816 -3.0059e+001 -1.1113e+002  1.3670e+001 28456 104911,104767,104568
 2.4000e+000 104865 -3.5580e+000 -7.4635e+001  5.9848e+000 28456 104594,104767,104839
 2.4000e+000 104888  2.3564e+001 -6.0461e+000  1.5310e+001 28456 105041,104839,104620
 2.4000e+000 104937  4.2265e+000 -6.6445e+001 -4.7196e+000 28456 104672,104767,104911
 2.4000e+000 105067 -1.8738e+001 -7.7916e+001 -2.3578e+000 28456 104594,104839,105041
 2.4000e+000 105573  1.4464e+001 -1.1215e+002 -1.5041e+001 28094 105812,105596,105328
 2.4000e+000 105550 -3.4715e+000 -9.2436e+001  6.2588e+000 28094 105596,105276,105250
 2.4000e+000 105527  5.6690e+000 -8.2669e+001 -1.3581e+001 28094 105740,105668,105432
 2.4000e+000 105504  9.5911e-001 -8.4164e+001 -9.0032e+000 28094 105740,105432,105380
 2.4000e+000 105481  2.7518e+001 -1.2114e+002 -7.9910e+000 28094 105812,105328,105302
 2.4000e+000 105458 -1.4499e+001 -9.4779e+001 -4.0139e+000 28094 105380,105432,105406
 2.4000e+000 105622  5.7518e+001 -7.1140e+001 -3.4553e+001 28094 105354,105328,105596
 2.4000e+000 105645  6.1268e+000 -9.6413e+001 -9.7100e+000 28094 105668,105354,105596
 2.4000e+000 105694  8.9819e+000 -7.1856e+001 -1.4506e+001 28094 105250,105432,105668
 2.4000e+000 105717  1.8631e+001 -7.9656e+001 -4.2042e+000 28094 105250,105668,105596
 2.4000e+000 105766 -4.0799e+000 -8.4237e+001 -9.0180e+000 28094 105354,105668,105740
 2.4000e+000 105789 -7.6416e+000 -8.6781e+001 -3.9417e+000 28094 105354,105740,105380
 2.4000e+000 105838  2.5889e+001 -9.4494e+001 -9.7831e+000 28094 105276,105596,105812
 2.4000e+000 105861  5.8278e+001 -9.6325e+001  9.6430e+000 28094 105276,105812,105302
 2.4000e+000 106367 -3.4177e+001 -1.1964e+002 -7.8152e+000 27390 106070,106122,106096
 2.4000e+000 106344 -3.4033e+001 -1.1961e+002 -7.8614e+000 27390 106070,106226,106122
 2.4000e+000 106321 -1.8778e+001 -1.2035e+002 -3.3298e+000 27390 106174,106226,106200
 2.4000e+000 106298 -2.5971e+001 -1.0847e+002 -2.7714e+000 27390 106122,106226,106174
 2.4000e+000 106275 -3.6914e+001 -1.1177e+002  8.1733e+000 27390 106122,106174,106148
 2.4000e+000 106252 -2.9375e+001 -1.2155e+002 -1.9812e+001 27390 106044,106226,106070
 2.4000e+000 106615 -2.2301e+001 -1.0813e+002 -2.7075e+000 26978 106638,106494,106416
 2.4000e+000 106592 -2.5525e+001 -1.0656e+002 -2.8515e+000 26978 106638,106416,106390
 2.4000e+000 106569 -2.3917e+001 -1.0704e+002  1.7938e+000 26978 106416,106494,106442
 2.4000e+000 106546 -7.6440e+000 -1.1577e+002 -7.1737e+000 26978 106442,106494,106468
 2.4000e+000 106664 -1.5923e+001 -1.0699e+002 -3.2922e+000 26978 106520,106494,106638
 2.4000e+000 106687 -2.2399e+001 -1.0786e+002 -3.2593e+000 26978 106520,106638,106390
 2.4000e+000 106837  3.9924e+001 -9.7546e+001 -2.9307e+001 26524 106710,106762,106736
 2.4000e+000 106814  3.5373e+001 -1.2025e+002 -2.7364e+001 26524 106710,106788,106762
 2.4000e+000 107426 -4.4925e+001 -9.1403e+001  1.5562e+001 26120 107129,107207,107155
 2.4000e+000 107403 -3.2367e+001 -7.9139e+001  1.0084e+001 26120 107129,107285,107207
 2.4000e+000 107380 -4.5183e+001 -9.9611e+001  2.5634e+000 26120 107207,107285,107259
 2.4000e+000 107357 -1.5721e+001 -8.0261e+001  1.6378e+001 26120 107155,107207,107181
 2.4000e+000 107334 -3.3618e+001 -7.9384e+001  1.0583e+001 26120 107103,107285,107129
 2.4000e+000 107311 -3.3275e+001 -1.0378e+002  2.4320e+000 26120 107207,107259,107233
 2.4000e+000 107755 -4.7431e+001 -1.0733e+002  4.5594e+000 25758 107556,107634,107608
 2.4000e+000 107732 -1.1572e+001 -7.9556e+001 -8.0446e+000 25758 107556,107660,107634
 2.4000e+000 107709 -6.1048e+001 -1.0769e+002 -7.1618e+000 25758 107556,107608,107582
 2.4000e+000 107686  7.2374e+000 -7.5448e+001 -4.7243e+000 25758 107530,107660,107556
 2.4000e+000 108438 -4.4037e+001 -1.5022e+002 -9.1535e+000 25468 108121,108199,108173
 2.4000e+000 108415 -1.1355e+001 -6.6590e+001 -2.3045e+000 25468 108095,108199,108121
 2.4000e+000 108392 -1.6833e+001 -8.0707e+001 -4.9881e+000 25468 108095,108251,108199
 2.4000e+000 108369 -2.4870e+001 -8.6848e+001  5.4816e-002 25468 108069,108251,108095
 2.4000e+000 108346 -1.7736e+001 -7.5766e+001 -3.0241e+001 25468 108199,108251,108225
 2.4000e+000 108323 -1.8567e+001 -9.9271e+001  5.5403e+000 25468 108017,108251,108069
 2.4000e+000 108300 -2.5094e+001 -1.2526e+002 -3.6447e-001 25468 108121,108173,108147
 2.4000e+000 108277 -7.8542e+000 -9.0845e+001 -1.6057e+000 25468 108017,108069,108043
 2.4000e+000 108588 -2.0546e+001 -1.0376e+002 -2.4878e+001 25064 108611,108513,108487
 2.4000e+000 108565 -4.7825e+001 -1.0023e+002 -1.8280e+001 25064 108683,108611,108487
 2.4000e+000 108637 -2.2587e+001 -9.0038e+001 -2.1797e+001 25064 108539,108513,108611
 2.4000e+000 108660  2.5170e+000 -7.7526e+001 -1.7406e+001 25064 108539,108611,108461
 2.4000e+000 108709  5.2017e+000 -5.6487e+001 -3.7516e+001 25064 108461,108611,108683
 2.4000e+000 109345 -7.0037e+001 -1.1035e+002  2.2525e+001 24410 108999,109155,109103
 2.4000e+000 109322 -5.1451e+001 -1.1074e+002  9.1226e+000 24410 108973,109155,108999
 2.4000e+000 109299 -4.7821e+001 -1.4780e+002  2.8375e+001 24410 109103,109155,109129
 2.4000e+000 109276 -6.2975e+001 -1.0984e+002  9.1154e+000 24410 108973,109181,109155
 2.4000e+000 109253 -4.7390e+001 -9.8096e+001  1.5473e+001 24410 109025,109103,109077
 2.4000e+000 109230 -7.7983e+001 -1.0585e+002  2.2127e+001 24410 108999,109103,109025
 2.4000e+000 109207 -3.9646e+001 -9.3532e+001  1.3272e+001 24410 109025,109077,109051
 2.4000e+000 109723 -2.6027e+001 -1.0126e+002  4.3240e+000 23856 109475,109579,109553
 2.4000e+000 109700 -2.6689e+001 -8.6908e+001  6.0926e+000 23856 109475,109605,109579
 2.4000e+000 109677 -2.1156e+001 -9.6123e+001  1.7899e+001 23856 109475,109553,109527
 2.4000e+000 109654 -2.6316e+001 -8.6499e+001 -7.1818e+000 23856 109449,109605,109475
 2.4000e+000 109631  1.1481e+000 -9.7111e+001  1.7101e+001 23856 109475,109527,109501
 2.4000e+000 110101 -2.4794e+001 -8.5925e+001 -1.0965e+001 23566 109853,109931,109879
 2.4000e+000 110078 -2.4313e+001 -8.7712e+001 -1.3369e+001 23566 109827,109931,109853
 2.4000e+000 110055 -3.1442e+001 -9.6705e+001 -1.0166e+001 23566 109827,109983,109931
 2.4000e+000 110032 -1.1128e+001 -8.2540e+001 -1.1610e+001 23566 109879,109931,109905
 2.4000e+000 110009 -2.5451e+001 -8.2157e+001 -1.0008e+001 23566 109931,109983,109957
 2.4000e+000 110735 -3.1560e+001 -7.6436e+001 -4.2774e+000 23162 110415,110571,110519
 2.4000e+000 110712 -4.4993e+001 -9.1852e+001 -1.0001e+001 23162 110389,110571,110415
 2.4000e+000 110689 -2.7752e+001 -7.4439e+001 -2.7675e+000 23162 110415,110519,110493
 2.4000e+000 110666 -3.2623e+001 -7.9417e+001  2.1546e+000 23162 110363,110571,110389
 2.4000e+000 110643  6.4966e+000 -5.6202e+001  1.8791e+001 23162 110441,110493,110467
 2.4000e+000 110620 -1.8063e+001 -7.9642e+001 -1.1857e+000 23162 110415,110493,110441
 2.4000e+000 110597 -3.7331e+001 -9.2467e+001 -2.3347e+000 23162 110519,110571,110545
 2.4000e+000 111211 -5.8987e-001 -9.2930e+001  4.1978e+000 22708 111378,111306,111021
 2.4000e+000 111188  2.2236e+001 -8.4678e+001  9.0635e-001 22708 111234,110969,110917
 2.4000e+000 111165  1.7866e+000 -9.1405e+001 -4.1133e+000 22708 111450,111234,110917
 2.4000e+000 111142 -1.3455e+000 -8.6005e+001 -8.1249e+000 22708 111378,111021,110995
 2.4000e+000 111119 -2.8721e+000 -8.4966e+001 -2.1777e+001 22708 111450,110917,110865
 2.4000e+000 111096  5.7078e+001 -1.0679e+002  1.6306e+001 22708 110917,110969,110943
 2.4000e+000 111073  3.3532e+000 -1.3026e+002 -4.1269e+001 22708 110865,110917,110891
 2.4000e+000 111260  2.1867e+001 -9.2953e+001 -1.7059e+000 22708 111306,110969,111234
 2.4000e+000 111283  2.5191e+001 -7.9599e+001 -7.3978e+000 22708 111047,111234,110839
 2.4000e+000 111332  6.1130e+001 -1.3945e+002  4.6756e+001 22708 111047,111021,111306
 2.4000e+000 111355  3.3028e+001 -8.7075e+001 -8.0934e+000 22708 111047,111306,111234
 2.4000e+000 111404  2.5381e+001 -8.2335e+001 -3.4017e+000 22708 110969,111306,111378
 2.4000e+000 111427  1.8326e+001 -7.8520e+001 -8.9821e+000 22708 110969,111378,110995
 2.4000e+000 111476  2.6765e+001 -7.8936e+001 -8.2539e+000 22708 110839,111234,111450
 2.4000e+000 111499  2.8541e+001 -6.8928e+001 -2.7547e+001 22708 110839,111450,110865
 2.4000e+000 111600 -2.4831e+001 -9.0774e+001  3.1260e+000 22460 111522,111574,111548
 2.4000e+000 112059 -2.8690e+001 -7.6250e+001 -3.5324e+000 22056 111811,111889,111863
 2.4000e+000 112036 -1.7769e+001 -7.7694e+001 -3.8064e+000 22056 111811,111915,111889
 2.4000e+000 112013 -2.3568e+001 -8.1298e+001 -5.5797e+000 22056 111785,111915,111811
 2.4000e+000 111990 -1.7706e+001 -7.4099e+001 -1.0735e+001 22056 111785,111941,111915
 2.4000e+000 111967 -3.7910e+001 -8.7798e+001  7.5953e-001 22056 111811,111863,111837
 2.4000e+000 112486 -7.2251e+000 -8.1034e+001 -4.1819e+000 21594 112509,112267,112215
 2.4000e+000 112463 -2.1907e+001 -8.8701e+001  3.9655e+000 21594 112509,112215,112163
 2.4000e+000 112440 -1.5211e+001 -6.2540e+001 -2.2577e+001 21594 112581,112293,112267
 2.4000e+000 112417 -3.1222e+001 -8.1064e+001  3.0970e+000 21594 112215,112267,112241
 2.4000e+000 112394  2.4519e+000 -7.5847e+001  1.4167e+000 21594 112163,112345,112319
 2.4000e+000 112371 -2.5848e+001 -8.5752e+001 -8.4257e-001 21594 112163,112215,112189
 2.4000e+000 112535 -2.2184e+000 -7.4182e+001 -1.0848e+001 21594 112581,112267,112509
 2.4000e+000 112558 -1.4187e+001 -7.7166e+001  5.8250e-001 21594 112319,112509,112163
 2.4000e+000 112607 -3.8031e+001 -7.3896e+001 -1.8796e+001 21594 112319,112293,112581
 2.4000e+000 112630 -2.5111e+001 -8.7850e+001 -4.9537e+000 21594 112319,112581,112509
 2.4000e+000 112900 -3.4855e+001 -1.0481e+002 -1.7413e+000 20974 112675,112779,112701
 2.4000e+000 112877 -2.1966e+001 -1.1170e+002  2.8428e+000 20974 112675,112805,112779
 2.4000e+000 112854 -7.6183e+000 -7.2367e+001  1.0369e+001 20974 112701,112779,112753
 2.4000e+000 112831 -8.1120e+000 -3.0774e+001 -1.5396e+001 20974 112701,112753,112727
 2.4000e+000 113359 -2.7131e+001 -1.0128e+002 -1.0707e+001 20520 113454,113137,113111
 2.4000e+000 113336 -1.2358e+001 -9.1154e+001 -6.2221e+000 20520 113454,113111,113085
 2.4000e+000 113313  5.3959e+000 -5.6648e+001  1.7084e+001 20520 113382,113163,113137
 2.4000e+000 113290 -1.8336e+001 -9.4213e+001  2.2838e-002 20520 113526,113382,113137
 2.4000e+000 113267 -2.6800e+001 -1.3996e+002 -1.1806e+000 20520 113189,113241,113215
 2.4000e+000 113408 -1.2683e+001 -9.2285e+001  1.2454e+000 20520 113189,113163,113382
 2.4000e+000 113431 -1.7296e+001 -1.0131e+002 -1.2644e+001 20520 113189,113382,113241
 2.4000e+000 113480 -2.2199e+001 -9.3183e+001 -2.1008e+000 20520 113526,113137,113454
 2.4000e+000 113503 -1.6762e+001 -9.0447e+001 -2.2883e+000 20520 113241,113454,113085
 2.4000e+000 113552 -1.1270e+001 -9.3572e+001 -7.5833e-001 20520 113241,113382,113526
 2.4000e+000 113575 -1.3880e+001 -9.1463e+001 -2.4538e+000 20520 113241,113526,113454
 2.4000e+000 113904 -3.9067e+001 -9.5715e+001  3.3201e+000 19858 113705,113783,113757
 2.4000e+000 113881 -3.9874e+001 -9.8022e+001  3.7507e+000 19858 113705,113809,113783
 2.4000e+000 113858 -1.8165e+001 -8.3733e+001 -1.4731e+001 19858 113679,113809,113705
 2.4000e+000 113835 -3.6175e+001 -7.6711e+001  2.1240e+001 19858 113705,113757,113731
 2.4000e+000 114152 -2.7328e+001 -7.4620e+001 -7.1861e+000 19454 114175,114005,113979
 2.4000e+000 114129 -2.7370e+001 -7.3558e+001 -7.1347e+000 19454 114175,113979,114057
 2.4000e+000 114106 -3.1967e+001 -8.0343e+001 -5.7506e-001 19454 113927,114057,113979
 2.4000e+000 114083  2.3517e+000 -7.2097e+001 -2.8783e+001 19454 113927,113979,113953
 2.4000e+000 114201 -3.3190e+001 -7.7333e+001 -1.5025e+001 19454 114031,114005,114175
 2.4000e+000 114224 -2.7754e+001 -7.1744e+001 -7.4694e+000 19454 114031,114175,114057
 2.4000e+000 114472 -3.3036e+001 -1.0669e+002 -4.5213e+000 19000 114495,114273,114247
 2.4000e+000 114449 -3.6208e+001 -1.1160e+002 -5.8941e+000 19000 114495,114247,114325
 2.4000e+000 114426 -4.7069e+001 -1.1362e+002  3.5053e+000 19000 114247,114377,114325
 2.4000e+000 114403 -5.3958e+001 -1.1914e+002 -1.0748e+001 19000 114325,114377,114351
 2.4000e+000 114521 -2.1915e+001 -1.0367e+002  3.7905e+000 19000 114299,114273,114495
 2.4000e+000 114544 -3.2913e+001 -1.1851e+002 -1.3608e+000 19000 114299,114495,114325
 2.4000e+000 114948 -9.3932e+000 -9.2108e+001 -8.6976e-001 18560 114674,114726,114700
 2.4000e+000 114925 -1.1158e+001 -7.9966e+001 -5.5070e-001 18560 114674,114830,114726
 2.4000e+000 114902 -8.3226e+000 -7.2915e+001  1.5877e+000 18560 114726,114830,114804
 2.4000e+000 114879 -3.8718e+001 -1.1180e+002 -1.1747e+001 18560 114726,114804,114752
 2.4000e+000 114856  2.4551e+001 -1.2954e+002 -2.8447e+001 18560 114752,114804,114778
 2.4000e+000 115098 -6.3395e+001 -1.5271e+002 -2.8343e+000 18156 114971,115023,114997
 2.4000e+000 115075 -6.7630e+001 -8.8927e+001 -2.3111e+000 18156 114971,115049,115023
 2.4000e+000 115248 -4.4193e+001 -1.2437e+002  3.1894e-001 17602 115147,115199,115173
 2.4000e+000 115225  3.2864e+001 -1.2026e+002  2.8509e+000 17602 115121,115199,115147
 2.4000e+000 115652 -1.7978e+001 -8.3178e+001 -2.1033e+000 17354 115430,115534,115508
 2.4000e+000 115629 -2.3982e+001 -1.0431e+002  2.2055e+000 17354 115404,115534,115430
 2.4000e+000 115606  6.2859e+000 -7.3696e+001  4.1208e+001 17354 115378,115534,115404
 2.4000e+000 115583 -1.5369e+001 -9.2941e+001 -1.2030e+001 17354 115456,115508,115482
 2.4000e+000 115560 -3.1578e+001 -1.1362e+002 -4.6836e+000 17354 115430,115508,115456
 2.4000e+000 115873 -1.4157e+001 -1.2035e+002 -3.0442e+000 16950 115749,115801,115775
 2.4000e+000 115850 -3.4368e+001 -1.0455e+002  3.4593e+000 16950 115697,115801,115749
 2.4000e+000 115827 -3.6519e+001 -1.2543e+002  7.1414e+000 16950 115697,115749,115723
 2.4000e+000 116023 -6.5548e+001 -1.4488e+002 -1.4861e+001 16496 115922,115974,115948
 2.4000e+000 116000 -6.0695e+001 -1.2417e+002 -6.8450e+000 16496 115896,115974,115922
 2.4000e+000 116126 -6.5142e+000 -1.1294e+002  3.7254e+000 16298 116048,116100,116074
 2.4000e+000 116278  2.0809e+001 -1.2538e+002 -2.0616e+000 15892 116151,116203,116177
 2.4000e+000 116255  7.2031e+000 -1.5382e+002  1.8993e+000 15892 116151,116229,116203
 2.4000e+000 116430 -1.3605e+001 -6.7127e+001 -1.1811e+000 15545 116303,116355,116329
 2.4000e+000 116407 -3.0550e+001 -1.1949e+002 -2.6295e+001 15545 116303,116381,116355
 2.4000e+000 116785  1.2090e+001 -5.5257e+001  8.7890e+000 421 116612,116690,116664
 2.4000e+000 116762 -2.6025e+000 -8.9717e+001  2.4696e+000 421 116560,116690,116612
 2.4000e+000 116739 -3.5501e+001 -1.0914e+002  1.4619e+001 421 116560,116612,116586
 2.4000e+000 116716 -3.0187e+001 -1.2701e+002 -1.1650e+001 421 116612,116664,116638
 2.5000e+000 68048 -1.3994e+001 -1.3935e+002 -6.4472e+000 67642 67898,67950,67924
 2.5000e+000 68025 -2.8523e+001 -1.5112e+002  2.7180e+000 67642 67898,67976,67950
 2.5000e+000 68002  1.5205e+001 -1.3590e+002  8.3023e+000 67642 67872,67976,67898
 2.5000e+000 68367  2.7249e+001 -4.6614e+001  4.1540e+000 67444 68119,68223,68197
 2.5000e+000 68344 -5.3350e+000 -1.4267e+002  1.1166e+001 67444 68119,68249,68223
 2.5000e+000 68321 -6.0309e+000 -1.3905e+002  3.9858e+000 67444 68093,68249,68119
 2.5000e+000 68298 -9.0110e+000 -1.3183e+002  3.6407e+000 67444 68119,68197,68171
 2.5000e+000 68275 -5.2941e+001 -1.3804e+002  4.5419e+000 67444 68119,68171,68145
 2.5000e+000 68468  1.6604e+001 -1.3013e+002 -8.9658e+000 67268 68390,68442,68416
 2.5000e+000 68765 -1.8635e+001 -1.2667e+002  3.8186e+000 66956 68788,68517,68491
 2.5000e+000 68742  6.7318e+000 -1.4375e+002  4.8898e+000 66956 68788,68491,68621
 2.5000e+000 68719  1.4142e+001 -1.2340e+002 -3.4702e+001 66956 68543,68621,68569
 2.5000e+000 68696  1.4462e+001 -1.3414e+002 -3.0705e+000 66956 68491,68647,68621
 2.5000e+000 68673 -7.1448e+000 -2.7853e+001 -2.2899e+001 66956 68569,68621,68595
 2.5000e+000 68814 -4.0149e+001 -1.3665e+002  8.5157e+000 66956 68543,68517,68788
 2.5000e+000 68837 -8.4168e+000 -1.4881e+002  8.0487e+000 66956 68543,68788,68621
 2.5000e+000 69107 -1.0108e+001 -1.7876e+002 -5.4937e+000 66758 68882,68986,68908
 2.5000e+000 69084 -3.5502e+001 -1.8135e+002  5.3733e+000 66758 68882,69012,68986
 2.5000e+000 69061 -6.5838e+000 -1.5527e+002 -1.3954e+001 66758 68908,68960,68934
 2.5000e+000 69038  5.0171e+000 -1.5160e+002 -1.2021e+001 66758 68908,68986,68960
 2.5000e+000 69308 -9.1560e+000 -9.9846e+001 -7.4241e+000 66560 69331,69184,69158
 2.5000e+000 69285  6.3305e+000 -1.1380e+002 -8.7120e+000 66560 69331,69158,69132
 2.5000e+000 69262 -1.5916e+001 -1.5962e+002 -1.5291e+001 66560 69184,69236,69210
 2.5000e+000 69357 -9.4451e+000 -1.1078e+002 -2.9636e+000 66560 69236,69184,69331
 2.5000e+000 69380 -4.1849e+000 -1.3366e+002 -2.7375e-001 66560 69236,69331,69132
 2.5000e+000 69554  1.2768e+001 -1.6619e+002  2.0013e+001 66270 69427,69479,69453
 2.5000e+000 69531  5.4253e+001 -6.8979e+001  3.9053e+001 66270 69427,69505,69479
 2.5000e+000 69804 -4.9338e+000 -1.0662e+002  1.8993e+001 66066 69579,69683,69657
 2.5000e+000 69781  3.0740e+001 -8.9305e+001 -3.2595e+000 66066 69579,69709,69683
 2.5000e+000 69758  2.7549e+001 -3.7980e+001  5.9622e+000 66066 69579,69657,69631
 2.5000e+000 69735  1.2634e+001 -6.3992e+001 -1.9873e+001 66066 69579,69631,69605
 2.5000e+000 70257  5.2237e+001 -2.1333e+001 -2.4469e+001 65776 69960,70090,69986
 2.5000e+000 70234  3.6901e+001 -8.0045e+001 -1.1707e+001 65776 69934,70090,69960
 2.5000e+000 70211  7.0271e+000 -8.6866e+001 -7.9140e+000 65776 69934,70116,70090
 2.5000e+000 70188  2.2051e+001 -6.6697e+001  0.0000e+000 65776 70038,70090,70064
 2.5000e+000 70165  1.7655e+001 -6.2524e+001 -6.3537e+000 65776 69986,70090,70038
 2.5000e+000 70142  1.3245e+001 -4.3413e+001 -2.5784e+000 65776 69986,70038,70012
 2.5000e+000 70456 -1.6669e+001 -4.1963e+001 -5.0934e+000 65372 70479,70306,70280
 2.5000e+000 70433 -2.7172e+000 -7.4226e+001 -2.2997e+001 65372 70479,70280,70384
 2.5000e+000 70410  1.9996e+001 -3.6450e+001  1.2457e+001 65372 70551,70332,70306
 2.5000e+000 70505  5.0675e+000 -2.9130e+001  3.6623e+000 65372 70551,70306,70479
 2.5000e+000 70528  2.1564e+001 -5.4120e+001 -1.3538e+001 65372 70358,70479,70384
 2.5000e+000 70577  3.3178e+000 -4.9969e+001  6.1199e+000 65372 70358,70332,70551
 2.5000e+000 70600 -1.0531e+001 -4.4857e+001 -3.4032e+000 65372 70358,70551,70479
 2.5000e+000 70821 -1.8109e+001 -1.8496e+002 -5.9936e+000 65174 70645,70723,70671
 2.5000e+000 70798 -4.1634e+001 -1.9060e+002  3.0422e+000 65174 70645,70749,70723
 2.5000e+000 70775 -6.9415e+000 -1.6582e+002 -1.1650e+001 65174 70671,70723,70697
 2.5000e+000 71071 -1.8360e+001 -7.0584e+001 -1.3680e+001 64770 71094,70898,70872
 2.5000e+000 71048 -1.2100e+001 -7.2094e+001 -2.3162e+000 64770 71166,71094,70872
 2.5000e+000 71025 -1.5661e+001 -7.3244e+001 -2.4844e+000 64770 71166,70872,70846
 2.5000e+000 71002 -2.1053e+001 -4.0897e+001 -1.7600e+000 64770 70898,70950,70924
 2.5000e+000 71120 -1.1237e+001 -5.0862e+001 -1.2461e+001 64770 70950,70898,71094
 2.5000e+000 71143 -3.9044e+000 -6.5094e+001 -2.4879e+000 64770 70950,71094,70976
 2.5000e+000 71192 -8.5102e+000 -7.3779e+001 -5.2887e+000 64770 70976,71094,71166
 2.5000e+000 71215 -1.0993e+001 -7.4536e+001 -4.9799e+000 64770 70976,71166,70846
 2.5000e+000 71514  1.6752e+001 -7.1565e+001 -1.0934e+001 64572 71681,71537,71318
 2.5000e+000 71491 -2.1219e+001 -7.2210e+001 -8.2660e+000 64572 71537,71266,71240
 2.5000e+000 71468 -6.9355e+000 -4.8478e+001 -2.4331e+001 64572 71609,71396,71370
 2.5000e+000 71445  1.3593e+001 -7.1483e+001 -1.0927e+001 64572 71681,71318,71292
 2.5000e+000 71422  1.0577e+001 -1.5288e+002 -3.2181e+001 64572 71753,71344,71318
 2.5000e+000 71563  3.5061e+001 -9.1411e+001 -3.0733e+001 64572 71753,71318,71537
 2.5000e+000 71586 -4.2802e+000 -4.7915e+001 -2.4005e+001 64572 71609,71370,71537
 2.5000e+000 71635 -1.0555e+001 -5.1754e+001 -1.6103e+001 64572 71240,71396,71609
 2.5000e+000 71658 -1.2857e+000 -4.8431e+001 -1.7072e+001 64572 71240,71609,71537
 2.5000e+000 71707  7.9420e+000 -6.4243e+001 -1.4551e+001 64572 71266,71537,71681
 2.5000e+000 71730 -3.1052e+000 -6.9192e+001 -1.3166e+001 64572 71266,71681,71292
 2.5000e+000 71779  2.3201e+001 -7.3311e+001 -4.2396e+001 64572 71370,71344,71753
 2.5000e+000 71802  1.5606e+001 -6.3960e+001 -4.5537e+001 64572 71370,71753,71537
 2.5000e+000 72052  3.7083e+000 -8.9063e+001  6.4059e+000 64374 72075,71879,71827
 2.5000e+000 72029  5.0530e+001 -6.4159e+001 -4.7797e+000 64374 72147,72075,71827
 2.5000e+000 72006  8.4428e+001 -7.8037e+001 -2.6935e+001 64374 72147,71827,71957
 2.5000e+000 71983  1.4057e+001 -6.8000e+001  2.5828e+000 64374 71827,71879,71853
 2.5000e+000 72101  1.2533e+001 -1.2200e+002  3.7259e+001 64374 71905,71879,72075
 2.5000e+000 72124  7.1235e+001 -9.2715e+001  2.7528e+001 64374 71905,72075,71931
 2.5000e+000 72173  2.1061e+001 -1.0364e+002  9.1290e+000 64374 71931,72075,72147
 2.5000e+000 72196  4.3698e+001 -1.2381e+002 -9.7631e+000 64374 71931,72147,71957
 2.5000e+000 72649  6.5958e+000 -4.6166e+001 -3.8133e+000 63948 72352,72508,72482
 2.5000e+000 72626  1.6404e+001 -3.0553e+001  1.1204e+001 63948 72326,72508,72352
 2.5000e+000 72603  8.2527e+000 -8.5843e+001 -2.6092e-001 63948 72672,72430,72378
 2.5000e+000 72580  3.8821e-001 -8.3680e+001 -7.3888e-002 63948 72672,72378,72352
 2.5000e+000 72557  3.3619e+000 -1.0633e+002 -7.3062e+000 63948 72744,72456,72430
 2.5000e+000 72534  1.7106e+000 -1.3427e+002 -2.8035e+001 63948 72378,72430,72404
 2.5000e+000 72698  1.0377e+000 -9.9365e+001 -3.1007e+000 63948 72744,72430,72672
 2.5000e+000 72721  3.5139e+000 -7.7039e+001  2.0582e+000 63948 72482,72672,72352
 2.5000e+000 72770 -5.0900e+000 -9.4875e+001 -7.0999e+000 63948 72482,72456,72744
 2.5000e+000 72793  5.6985e-001 -7.8087e+001 -2.0526e+000 63948 72482,72744,72672
 2.5000e+000 72894 -6.3560e+000 -6.9156e+001 -1.1910e+001 63494 72816,72868,72842
 2.5000e+000 73093 -1.6856e+001 -4.9676e+001 -1.5129e+001 63132 72943,72995,72969
 2.5000e+000 73070 -1.6668e+001 -4.2522e+001  2.1096e+000 63132 72943,73021,72995
 2.5000e+000 73047 -1.3640e+001 -3.1182e+001  1.8225e+000 63132 72917,73021,72943
 2.5000e+000 73294 -3.6460e+000 -6.3590e+000 -5.1163e+000 62792 73317,73144,73118
 2.5000e+000 73271 -4.7223e+000 -1.1915e+001 -9.8346e+000 62792 73317,73118,73222
 2.5000e+000 73248 -1.0790e-002  1.2309e-001 -5.5881e-002 62792 73144,73196,73170
 2.5000e+000 73343  3.8689e-001  2.0738e-001 -5.0766e-002 62792 73196,73144,73317
 2.5000e+000 73366 -2.0572e+000 -7.8026e+000 -4.8449e+000 62792 73196,73317,73222
 2.5000e+000 73616 -2.0035e+001 -6.8990e+001  2.6504e+001 62388 73639,73417,73391
 2.5000e+000 73593 -1.3815e+001 -5.6736e+001  1.6398e+001 62388 73711,73639,73391
 2.5000e+000 73570 -8.5542e+000 -4.9132e+001  1.4065e+001 62388 73711,73391,73521
 2.5000e+000 73547 -2.9530e+000 -5.8913e+001  8.9500e+000 62388 73469,73521,73495
 2.5000e+000 73665  2.8518e+000 -6.0318e+001  1.9847e+001 62388 73443,73417,73639
 2.5000e+000 73688 -9.1529e+000 -5.8757e+001  1.3861e+001 62388 73443,73639,73469
 2.5000e+000 73737 -7.4998e+000 -6.1345e+001  1.6009e+001 62388 73469,73639,73711
 2.5000e+000 73760 -7.3707e+000 -5.9557e+001  1.5882e+001 62388 73469,73711,73521
 2.5000e+000 74010 -9.5476e+000 -1.7456e+001 -2.8069e+000 61848 74033,73837,73811
 2.5000e+000 73987 -2.5761e+001 -8.8368e+000 -2.5070e+001 61848 74033,73811,73785
 2.5000e+000 73964 -3.3655e+000 -2.4829e+001 -6.6609e+000 61848 73837,73915,73889
 2.5000e+000 73941 -2.1666e-001 -2.0412e+001 -5.2702e+000 61848 73837,73889,73863
 2.5000e+000 74059 -7.3249e+000 -2.9630e+001 -9.0062e+000 61848 73915,73837,74033
 2.5000e+000 74082 -8.7000e+000 -4.1504e+001 -1.6389e+001 61848 73915,74033,73785
 2.5000e+000 74283  1.6348e+001 -2.2450e+001  3.5560e+001 61444 74306,74133,74107
 2.5000e+000 74260  4.3331e+001  2.1179e+001  1.0750e+001 61444 74306,74107,74211
 2.5000e+000 74237  7.0318e+001  1.0483e+002 -1.0122e+001 61444 74378,74185,74159
 2.5000e+000 74332  4.8579e+001 -9.9333e+000  7.4876e+000 61444 74159,74133,74306
 2.5000e+000 74355  5.9994e+001  2.3672e+001 -1.4013e+001 61444 74378,74159,74306
 2.5000e+000 74404  3.6313e+001  1.7926e+001 -7.7966e+000 61444 74211,74185,74378
 2.5000e+000 74427  4.9941e+001  2.1129e+000 -8.4200e+000 61444 74211,74378,74306
 2.5000e+000 74628  3.4365e+001 -2.7520e+001 -3.6675e+000 60990 74478,74530,74504
 2.5000e+000 74605 -3.8225e+000 -4.1550e+001 -5.7520e+000 60990 74452,74530,74478
 2.5000e+000 74582 -1.0336e+001 -2.4063e+001 -1.4440e+001 60990 74452,74556,74530
 2.5000e+000 75089  7.2733e+001  7.5815e+000 -4.9157e+001 60486 75112,74945,74919
 2.5000e+000 75066  1.8524e+001 -2.1414e+001 -2.5180e+000 60486 75112,74919,74867
 2.5000e+000 75043 -4.5725e+001 -4.6179e+001  3.8069e+000 60486 74841,74971,74867
 2.5000e+000 75020  1.0019e+001  2.2011e+001 -6.5434e+001 60486 74867,74919,74893
 2.5000e+000 74997 -4.6927e+000 -2.7364e+001  8.8904e+000 60486 74815,74971,74841
 2.5000e+000 75138  2.7492e+000 -1.1750e+001 -2.7270e+001 60486 74971,74945,75112
 2.5000e+000 75161 -2.4201e+001 -7.1041e+000  1.2197e+001 60486 74971,75112,74867
 2.5000e+000 75409 -4.5604e+000  1.3671e+001  1.5769e+001 59932 75576,75432,75288
 2.5000e+000 75386  5.5393e+000  1.3920e+001  1.8820e+001 59932 75504,75314,75288
 2.5000e+000 75363  2.3425e+001  2.7325e+001  3.1073e+001 59932 75432,75236,75210
 2.5000e+000 75340 -9.9223e+000 -4.0088e+000 -9.8876e-001 59932 75576,75288,75262
 2.5000e+000 75458  3.8294e+000  1.6218e+001  1.8160e+001 59932 75504,75288,75432
 2.5000e+000 75481 -2.0554e+000  6.1238e+000  1.5402e+001 59932 75184,75432,75210
 2.5000e+000 75530  1.1502e+001  2.8381e+000  1.1791e+001 59932 75184,75314,75504
 2.5000e+000 75553  6.7298e-001  1.3647e+001  1.6364e+001 59932 75184,75504,75432
 2.5000e+000 75602 -2.9964e+000 -1.7328e+001  1.9713e+001 59932 75236,75432,75576
 2.5000e+000 75625  5.7827e+000 -2.4121e+001  1.4239e+001 59932 75236,75576,75262
 2.5000e+000 75873 -1.5960e+001 -7.0510e+001  1.2578e+001 59478 75674,75752,75700
 2.5000e+000 75850 -4.3242e+001 -8.2157e+001  1.3410e+001 59478 75648,75752,75674
 2.5000e+000 75827 -1.3732e+001 -6.6652e+001  1.4421e+001 59478 75700,75752,75726
 2.5000e+000 75804 -3.1206e+001 -9.8375e+001  1.5681e+001 59478 75648,75778,75752
 2.5000e+000 76206  6.7134e+000 -5.8179e+001  7.8215e+000 59024 75981,76059,76007
 2.5000e+000 76183  3.7421e+000 -6.3585e+001  9.6893e+000 59024 75981,76111,76059
 2.5000e+000 76160  3.5529e+001 -3.4479e+001 -3.9925e+000 59024 76007,76059,76033
 2.5000e+000 76137  1.0873e+001 -5.6691e+001  1.8401e+001 59024 76059,76111,76085
 2.5000e+000 76761 -4.7233e+001 -4.1583e+001 -1.8374e+001 58562 76389,76441,76415
 2.5000e+000 76738 -3.6541e+001 -4.2422e+001  2.9422e+000 58562 76856,76784,76389
 2.5000e+000 76715 -2.8902e+001 -4.3316e+001 -3.0269e+001 58562 76784,76571,76467
 2.5000e+000 76692 -1.4266e+001 -3.3586e+001 -1.2734e+000 58562 76856,76389,76597
 2.5000e+000 76669 -2.4628e+001 -1.3176e+002  4.5038e+000 58562 76467,76545,76493
 2.5000e+000 76646 -3.1473e+001 -1.0507e+002 -5.1752e+001 58562 76467,76571,76545
 2.5000e+000 76623 -1.3507e+001 -1.0481e+002  1.8926e+001 58562 76493,76545,76519
 2.5000e+000 76810 -3.4768e+001 -6.3811e+001 -3.7051e+000 58562 76441,76389,76784
 2.5000e+000 76833 -7.7031e+001 -1.2810e+002 -6.1720e+001 58562 76441,76784,76467
 2.5000e+000 76882 -1.1116e+001 -5.2634e+001  1.4074e+001 58562 76571,76784,76856
 2.5000e+000 76905 -3.8513e-001 -5.1664e+001  1.2595e+001 58562 76571,76856,76597
 2.5000e+000 77055  4.4076e+000 -1.1079e+002 -1.6072e+001 57844 76928,76980,76954
 2.5000e+000 77032 -2.6171e+001 -6.3935e+001 -1.4881e+001 57844 76928,77006,76980
 2.5000e+000 77533 -2.6079e+001 -1.7788e+002  5.0518e+000 57226 77628,77556,77291
 2.5000e+000 77510 -1.8006e+001 -4.2889e+001  2.8758e+001 57226 77556,77187,77343
 2.5000e+000 77487 -2.1987e+001 -1.1071e+002 -1.4456e+001 57226 77628,77291,77265
 2.5000e+000 77464 -5.6954e+001 -2.2370e+002  5.7801e+001 57226 77700,77213,77187
 2.5000e+000 77441 -2.1473e+001 -6.0083e+001  5.5629e+000 57226 77161,77343,77187
 2.5000e+000 77418 -2.6169e+001 -4.7023e+001  5.9832e-001 57226 77161,77369,77343
 2.5000e+000 77395 -7.3191e+001 -1.9202e+001 -3.3375e+000 57226 77213,77265,77239
 2.5000e+000 77582  5.0113e+000 -9.3219e+001  1.8022e+001 57226 77317,77291,77556
 2.5000e+000 77605 -2.5877e+001 -1.1094e+002  2.6153e+001 57226 77317,77556,77343
 2.5000e+000 77654 -3.1495e+000 -1.0531e+002  4.8194e+001 57226 77187,77556,77628
 2.5000e+000 77677 -4.7139e+001 -2.0092e+002  5.9301e+001 57226 77700,77187,77628
 2.5000e+000 77726 -9.0061e+001 -2.4707e+002 -3.5870e+001 57226 77265,77213,77700
 2.5000e+000 77749 -5.3311e+001 -1.6356e+002 -2.9537e+001 57226 77265,77700,77628
 2.5000e+000 78046 -1.1114e+001 -7.4474e+001  2.4779e+001 56936 77798,77850,77824
 2.5000e+000 78023 -2.7782e+000 -7.3084e+001  2.6608e+001 56936 78069,77798,77902
 2.5000e+000 78000  2.2231e+001 -7.3189e+001  3.2209e+001 56936 78069,77902,77876
 2.5000e+000 77977 -1.1505e+001 -7.5125e+001  3.4404e+001 56936 77798,77928,77902
 2.5000e+000 77954 -1.1338e+001  4.1903e+000  5.3856e+001 56936 77772,77928,77798
 2.5000e+000 78095 -1.1452e+001 -7.3666e+001  2.5648e+001 56936 77850,77798,78069
 2.5000e+000 78118  1.1470e-001 -8.1852e+001  3.2153e+001 56936 77850,78069,77876
 2.5000e+000 78754  2.8109e+001 -2.9045e+001 -2.0092e+001 56475 78777,78486,78408
 2.5000e+000 78731  1.7157e+001 -3.3895e+001 -1.8364e+001 56475 78777,78408,78382
 2.5000e+000 78708  1.1723e+001 -5.6857e+001 -3.5869e+001 56475 78849,78512,78486
 2.5000e+000 78685  1.8772e+001 -7.0859e+000 -1.3558e+001 56475 78382,78590,78564
 2.5000e+000 78662  5.6413e+000 -6.7213e+001 -3.1490e+001 56475 78512,78564,78538
 2.5000e+000 78639  5.3850e+001 -9.1782e+001 -4.4533e+000 56475 78434,78486,78460
 2.5000e+000 78616 -8.4570e+000 -1.0224e+002 -2.2511e+000 56475 78408,78486,78434
 2.5000e+000 78803  1.6890e+001 -4.4095e+001 -2.5008e+001 56475 78849,78486,78777
 2.5000e+000 78826  2.3585e+001 -2.0537e+001 -1.2603e+001 56475 78564,78777,78382
 2.5000e+000 78875  1.6399e+001 -3.4534e+001 -2.6349e+001 56475 78564,78512,78849
 2.5000e+000 78898  1.5647e+001 -2.2371e+001 -1.8293e+001 56475 78564,78849,78777
 2.5000e+000 79276 -9.9827e+000 -2.9621e+001 -3.7705e+000 55964 79299,79080,79028
 2.5000e+000 79253 -4.6890e+000 -3.0330e+001 -1.2496e+000 55964 79299,79028,79132
 2.5000e+000 79230 -1.3139e+001 -8.0280e+001 -7.5175e+000 55964 79028,79080,79054
 2.5000e+000 79207 -6.2571e+000 -9.9275e+000  8.3523e+000 55964 79002,79132,79028
 2.5000e+000 79184 -4.7166e-001 -6.6756e+000 -2.7854e-001 55964 79002,79158,79132
 2.5000e+000 79325 -7.1901e+000 -2.7655e+001 -8.3881e-001 55964 79106,79080,79299
 2.5000e+000 79348 -1.9096e+000 -2.9008e+001  1.4427e+000 55964 79106,79299,79132
 2.5000e+000 79498 -4.9209e+000 -4.4421e+001  4.6069e+000 55452 79397,79449,79423
 2.5000e+000 79475 -1.2500e+001 -1.8488e+001  1.3099e+000 55452 79371,79449,79397
 2.5000e+000 79795 -2.1892e+001 -6.2833e+001  1.0029e+001 55048 79962,79818,79573
 2.5000e+000 79772 -1.6139e+001 -6.2810e+001  8.0653e+000 55048 79818,79521,79677
 2.5000e+000 79749  7.6209e+000 -7.3157e+001  2.2735e+001 55048 79599,79651,79625
 2.5000e+000 79726 -1.5806e+001 -6.8176e+001  1.6066e+001 55048 79890,79651,79599
 2.5000e+000 79703 -1.9936e+001 -6.4112e+001  1.3339e+001 55048 79962,79573,79547
 2.5000e+000 79844 -1.8518e+001 -6.0613e+001  1.1222e+001 55048 79599,79573,79818
 2.5000e+000 79867 -1.6801e+001 -6.7251e+001  1.0765e+001 55048 79890,79599,79818
 2.5000e+000 79916 -7.8725e+000 -6.4691e+001  1.5467e+001 55048 79677,79651,79890
 2.5000e+000 79939 -9.3510e+000 -6.4197e+001  1.0552e+001 55048 79677,79890,79818
 2.5000e+000 79988 -2.6642e+001 -6.3857e+001  1.1435e+001 55048 79521,79818,79962
 2.5000e+000 80011 -2.6720e+001 -6.4826e+001  1.4307e+001 55048 79521,79962,79547
 2.5000e+000 80212 -8.6010e+000 -8.3963e+001  3.8778e+001 54436 80235,80088,80036
 2.5000e+000 80189 -7.8250e+000 -8.1249e+001  3.7723e+001 54436 80235,80036,80140
 2.5000e+000 80166  3.2668e+000 -1.1768e+002  2.4295e+000 54436 80036,80088,80062
 2.5000e+000 80261 -7.6162e+000 -8.6939e+001  3.9813e+001 54436 80114,80088,80235
 2.5000e+000 80284 -6.6775e+000 -8.4503e+001  3.8506e+001 54436 80114,80235,80140
 2.5000e+000 80534  1.3397e+001 -5.0801e+001  1.3761e+001 54032 80557,80361,80335
 2.5000e+000 80511  6.8841e+000 -5.6052e+001  1.6313e+001 54032 80557,80335,80309
 2.5000e+000 80488 -4.8415e+000 -5.3037e+001  1.7819e+001 54032 80629,80413,80387
 2.5000e+000 80465 -5.3342e+000 -6.7048e+001  1.9769e+001 54032 80309,80439,80413
 2.5000e+000 80583  9.1020e+000 -3.6652e+001  7.5541e+000 54032 80387,80361,80557
 2.5000e+000 80606 -3.3508e+000 -5.1188e+001  1.2858e+001 54032 80629,80387,80557
 2.5000e+000 80655  1.5158e+000 -4.9714e+001  1.5044e+001 54032 80309,80413,80629
 2.5000e+000 80678  4.8492e+000 -4.9176e+001  1.0853e+001 54032 80309,80629,80557
 2.5000e+000 81139 -3.4229e-001 -3.3670e+001  1.7022e+001 53784 80865,80995,80917
 2.5000e+000 81116 -3.2002e+000 -2.8037e+001  1.9623e-001 53784 80865,81021,80995
 2.5000e+000 81093 -2.3217e+001 -8.6932e+001  2.8433e+001 53784 80943,80995,80969
 2.5000e+000 81070 -2.0940e+001 -3.9929e+001  1.3362e+001 53784 80917,80995,80943
 2.5000e+000 81047  2.7384e+000 -2.2523e+002  5.0614e-001 53784 80865,80917,80891
 2.5000e+000 81468 -1.0440e+001 -6.8455e+001  1.6000e+001 53230 81295,81373,81347
 2.5000e+000 81445  3.2328e+000 -6.8042e+001  2.4422e+001 53230 81243,81373,81295
 2.5000e+000 81422 -1.5059e+001 -8.3515e+001  1.3173e+001 53230 81243,81295,81269
 2.5000e+000 81399  5.2688e+001 -4.0753e+001  1.1935e+001 53230 81295,81347,81321
 2.5000e+000 81618  3.1328e-001 -1.6902e+000 -7.9295e-001 52790 81491,81543,81517
 2.5000e+000 81595  1.8427e+000 -1.4449e+001  5.5323e-001 52790 81491,81569,81543
 2.5000e+000 82126  6.8533e+001  2.7798e+001 -2.8128e+001 52386 82149,81907,81881
 2.5000e+000 82103  4.6222e+001 -1.3439e+001 -1.2552e+001 52386 82149,81881,81855
 2.5000e+000 82080  4.4616e+001 -9.1828e+000  1.8727e+000 52386 82221,81803,81985
 2.5000e+000 82057 -3.2978e+000 -2.2838e+001 -1.3380e+001 52386 81803,81855,81829
 2.5000e+000 82034  3.5460e+001 -2.8518e+001 -2.1455e+001 52386 81907,81985,81933
 2.5000e+000 82011  1.5299e+001 -2.2393e+001 -2.4643e+001 52386 81933,81985,81959
 2.5000e+000 82175  3.5368e+001 -1.0655e+001 -8.9053e+000 52386 81985,81907,82149
 2.5000e+000 82198  5.1087e+001 -1.1107e+001 -1.8961e+000 52386 82221,81985,82149
 2.5000e+000 82247  4.1114e+001 -1.3925e+001  4.7574e+000 52386 81855,81803,82221
 2.5000e+000 82270  4.4566e+001 -1.8064e+001  1.4139e+000 52386 81855,82221,82149
 2.5000e+000 82825 -3.2021e+001 -9.0210e+001  8.7538e+000 51782 82505,82661,82635
 2.5000e+000 82802 -8.9076e+001 -1.3734e+002 -2.5796e+001 51782 82479,82661,82505
 2.5000e+000 82779 -3.8130e+001 -1.1852e+002 -4.9434e+001 51782 82557,82635,82609
 2.5000e+000 82756 -3.5633e+001 -1.0966e+002 -7.3210e+000 51782 82531,82635,82557
 2.5000e+000 82733 -5.0586e+001 -1.1095e+002 -1.2999e+001 51782 82505,82635,82531
 2.5000e+000 82710  9.4260e+000 -4.3864e+001  3.0928e+001 51782 82453,82661,82479
 2.5000e+000 82687 -8.8976e-001 -8.7766e+001 -3.6174e+001 51782 82557,82609,82583
 2.5000e+000 83171 -8.0247e+000 -6.3572e+001  8.8349e+000 51442 83194,82978,82900
 2.5000e+000 83148 -3.1879e+001 -5.0964e+001  3.8317e+000 51442 83194,82900,82874
 2.5000e+000 83125 -2.5502e+001 -7.0926e+001  1.0319e+001 51442 82900,82978,82926
 2.5000e+000 83102 -1.7779e+001 -5.0068e+001  2.4578e+000 51442 82874,83030,83004
 2.5000e+000 83079 -3.7430e+000 -6.2327e+001  1.1346e+001 51442 82926,82978,82952
 2.5000e+000 83056 -1.0917e+001 -4.0338e+001  6.5752e+000 51442 82848,83030,82874
 2.5000e+000 83220  1.0780e+001 -5.9192e+001  6.7435e+000 51442 83004,82978,83194
 2.5000e+000 83243 -1.6299e+001 -4.8901e+001  1.0966e+000 51442 83004,83194,82874
 2.5000e+000 83751 -2.5245e+001 -2.2325e+001  1.1119e+000 50938 83428,83584,83454
 2.5000e+000 83728 -1.2426e+001 -1.7762e+001  6.8502e+000 50938 83428,83610,83584
 2.5000e+000 83705 -1.9746e+001 -4.6324e+001 -1.5420e+000 50938 83454,83584,83558
 2.5000e+000 83682 -1.3368e+001 -3.7000e+001 -2.2625e+000 50938 83454,83532,83480
 2.5000e+000 83659 -1.9368e+001 -4.5632e+001  5.6221e-001 50938 83454,83558,83532
 2.5000e+000 83636 -1.7196e+001 -4.3502e+001 -4.8650e+000 50938 83480,83532,83506
 2.5000e+000 84355 -1.6744e+001 -1.2440e+002  1.4691e+001 50377 84378,83960,83934
 2.5000e+000 84332 -9.0777e+000 -1.0370e+002  1.8228e+001 50377 84522,84378,83934
 2.5000e+000 84309 -2.0686e+001 -8.1300e+001  9.9393e+000 50377 84450,84038,84012
 2.5000e+000 84286 -2.1385e+001 -9.7167e+001  1.9364e+001 50377 84522,83934,84142
 2.5000e+000 84263 -1.7686e+001 -7.8461e+001  8.6157e+000 50377 84594,84090,84038
 2.5000e+000 84240 -6.1312e+001 -1.0493e+002  1.1855e+001 50377 83960,84012,83986
 2.5000e+000 84217 -1.9017e+001 -8.4883e+001  4.4103e-001 50377 83934,84168,84142
 2.5000e+000 84194 -9.5560e+000 -5.2149e+001  2.5822e+001 50377 84038,84090,84064
 2.5000e+000 84404 -4.1000e+001 -1.1621e+002 -3.9804e+000 50377 84012,83960,84378
 2.5000e+000 84427 -1.7499e+001 -8.1196e+001  6.4827e+000 50377 84450,84012,84378
 2.5000e+000 84476 -2.1680e+001 -8.1360e+001  6.9696e+000 50377 84594,84038,84450
 2.5000e+000 84499 -2.0112e+001 -1.0052e+002  3.0941e+000 50377 84116,84450,84378
 2.5000e+000 84548 -2.2323e+001 -1.0869e+002  1.5629e+001 50377 84116,84378,84522
 2.5000e+000 84571 -3.4530e+001 -1.0182e+002  1.7414e+001 50377 84116,84522,84142
 2.5000e+000 84620 -9.4159e+000 -8.3955e+001  1.1389e+001 50377 84116,84090,84594
 2.5000e+000 84643 -1.2512e+001 -8.5966e+001  9.9833e+000 50377 84116,84594,84450
 2.5000e+000 84842 -1.8816e+001 -8.2630e+001  7.0373e-001 49923 84865,84692,84666
 2.5000e+000 84819 -1.7935e+001 -6.8577e+001 -1.5293e+001 49923 84865,84666,84770
 2.5000e+000 84796 -3.3284e+000 -1.2324e+002 -5.5702e+000 49923 84692,84744,84718
 2.5000e+000 84891 -1.9812e+001 -9.6145e+001  3.9332e+000 49923 84744,84692,84865
 2.5000e+000 84914 -2.3070e+001 -9.0308e+001 -1.2887e+001 49923 84744,84865,84770
 2.5000e+000 85501 -1.0839e+001 -8.7719e+001  6.0902e+000 49618 85524,85282,85204
 2.5000e+000 85478 -3.3182e+001 -9.4463e+001  7.6588e+000 49618 85596,85524,85204
 2.5000e+000 85455 -5.4640e+001 -1.0410e+002  9.5558e-001 49618 85596,85204,85178
 2.5000e+000 85432 -4.9020e+001 -1.0551e+002  1.4181e+001 49618 85204,85282,85256
 2.5000e+000 85409 -1.1977e+001 -1.3188e+002  1.8214e+001 49618 85282,85334,85308
 2.5000e+000 85386 -5.2619e+001 -1.2464e+002 -4.8686e+000 49618 85204,85256,85230
 2.5000e+000 85550 -2.1025e+001 -1.0669e+002  1.1225e+001 49618 85334,85282,85524
 2.5000e+000 85573  4.3795e+001 -7.4087e+001  3.1730e+001 49618 85334,85524,85360
 2.5000e+000 85622  1.7005e+000 -1.1422e+002  6.9085e+000 49618 85360,85524,85596
 2.5000e+000 85645 -1.7236e+001 -1.1976e+002  3.7564e+000 49618 85360,85596,85178
 2.5000e+000 85795 -3.5352e+001 -1.3160e+002 -1.1665e+001 49278 85694,85746,85720
 2.5000e+000 85772 -4.1081e+001 -2.4679e+002 -6.9118e+000 49278 85668,85746,85694
 2.5000e+000 86197 -2.9526e+001 -1.6339e+002 -2.0395e+001 48916 86001,86079,86027
 2.5000e+000 86174 -2.0590e+000 -8.2787e+001 -1.2320e+001 48916 85949,86079,86001
 2.5000e+000 86151  5.3595e+000 -1.6381e+002 -5.8464e+000 48916 85949,86001,85975
 2.5000e+000 86128 -3.7383e+001 -1.8890e+002 -2.1576e+001 48916 86027,86079,86053
 2.5000e+000 86105 -6.0517e+000 -5.8677e+001  1.0107e+001 48916 85923,86079,85949
 2.5000e+000 86477 -1.5469e+000 -4.2458e+001  8.2178e+000 48398 86327,86379,86353
 2.5000e+000 86454 -9.2167e+000 -4.9820e+001  4.1997e+000 48398 86500,86379,86327
 2.5000e+000 86431 -1.7906e+000 -4.3337e+001  1.2247e+001 48398 86301,86405,86379
 2.5000e+000 86526 -2.4405e+001 -4.6262e+001  9.5728e+000 48398 86301,86379,86500
 2.5000e+000 87032 -1.6695e+001 -7.6876e+001 -1.1689e+001 48008 87127,87055,86787
 2.5000e+000 87009 -1.8410e+001 -9.0242e+001  3.2579e+000 48008 87055,86735,86709
 2.5000e+000 86986 -1.7453e+001 -7.6685e+001 -1.1521e+001 48008 87127,86787,86761
 2.5000e+000 86963 -1.6969e+001 -4.5699e+001 -6.2054e+000 48008 86787,86865,86839
 2.5000e+000 86940  4.3330e+000 -6.2890e+001  1.4293e+001 48008 86709,86891,86865
 2.5000e+000 86917 -3.9829e+001 -5.3720e+001 -7.7812e+000 48008 86787,86839,86813
 2.5000e+000 87081 -2.0625e+001 -7.1377e+001 -5.5844e+000 48008 86865,86787,87055
 2.5000e+000 87104 -1.0121e+001 -5.6859e+001  8.0948e+000 48008 86865,87055,86709
 2.5000e+000 87153 -1.7423e+001 -7.8257e+001 -1.2179e+001 48008 86735,87055,87127
 2.5000e+000 87176 -1.7778e+001 -7.6870e+001 -1.2296e+001 48008 86735,87127,86761
 2.5000e+000 87456  5.2555e+000 -5.3561e+001  3.1405e+000 47604 87306,87358,87332
 2.5000e+000 87433  3.9076e+001 -3.8890e+001 -4.3246e-001 47604 87306,87384,87358
 2.5000e+000 87410  9.9701e+000 -5.1481e+001 -2.6730e+000 47604 87280,87384,87306
 2.5000e+000 87785  1.5274e+001 -4.4561e+001  1.8996e+001 47264 87638,87690,87664
 2.5000e+000 87762  3.9675e+000 -8.7856e+001  2.8815e+001 47264 87612,87690,87638
 2.5000e+000 87739 -6.8067e-001 -1.1803e+002  3.4974e+001 47264 87560,87690,87612
 2.5000e+000 87716  1.7898e+001 -1.1347e+002  1.8595e+001 47264 87560,87612,87586
 2.5000e+000 87935  2.8809e+001 -1.8167e-001  5.7636e+000 46952 87808,87860,87834
 2.5000e+000 87912 -3.7183e+000 -8.9610e+001  1.5710e+000 46952 87808,87886,87860
 2.5000e+000 88281 -5.4637e+000 -6.8014e+001  7.7559e+000 46526 88304,88114,88036
 2.5000e+000 88258  3.0818e-001 -6.0025e+001  1.1095e+001 46526 88304,88036,87984
 2.5000e+000 88235 -1.0940e+001 -6.8015e+001  1.1078e+000 46526 88036,88114,88062
 2.5000e+000 88212 -5.9086e+000 -5.1613e+001  6.6477e+000 46526 87958,88140,87984
 2.5000e+000 88189 -3.0076e+000 -6.8461e+001  1.8930e+001 46526 87984,88036,88010
 2.5000e+000 88166 -1.5826e+000 -4.6000e+001  1.3018e+001 46526 88062,88114,88088
 2.5000e+000 88330 -1.2569e+001 -5.9024e+001  6.9241e+000 46526 88140,88114,88304
 2.5000e+000 88353 -8.8051e+000 -5.2412e+001  9.1947e+000 46526 88140,88304,87984
 2.5000e+000 88701  2.7839e+001 -3.4226e+001  2.2213e+001 45822 88724,88378,88534
 2.5000e+000 88678  3.1560e+001 -1.6478e+001  2.2503e+001 45822 88378,88560,88534
 2.5000e+000 88655 -1.7964e+000 -4.0486e+001  1.3982e+001 45822 88724,88534,88508
 2.5000e+000 88632 -2.3036e+001 -5.5402e+001 -1.3798e+000 45822 88404,88508,88456
 2.5000e+000 88609 -2.3775e+001 -5.5378e+001  1.1141e+000 45822 88404,88456,88430
 2.5000e+000 88586 -9.8527e+000 -2.8578e+001 -1.5846e+001 45822 88456,88508,88482
 2.5000e+000 88750  4.0610e+000 -3.7368e+001  6.5751e+000 45822 88404,88378,88724
 2.5000e+000 88773 -1.9215e+001 -3.9036e+001 -1.4665e+000 45822 88404,88724,88508
 2.5000e+000 89106 -5.3681e+001 -8.4336e+001  1.9605e+001 45418 88881,88985,88907
 2.5000e+000 89083 -5.7338e+001 -9.9054e+001  2.3784e+001 45418 88881,89011,88985
 2.5000e+000 89060  2.8023e+001 -4.5708e+001  3.4419e+001 45418 88907,88985,88933
 2.5000e+000 89037 -4.2836e+001 -7.5821e+001  1.5477e+000 45418 88933,88985,88959
 2.5000e+000 89435 -1.6231e+001 -6.4000e+001  3.0443e+001 44914 89210,89288,89236
 2.5000e+000 89412 -3.4104e+001 -9.0289e+001  3.9482e+001 44914 89210,89314,89288
 2.5000e+000 89389 -5.4196e+000 -5.5255e+001  2.3242e+001 44914 89210,89340,89314
 2.5000e+000 89366 -9.9146e+000 -6.4026e+001  3.4643e+001 44914 89236,89288,89262
 2.5000e+000 89634 -4.2451e+000 -4.5494e+001  2.6067e+001 44538 89510,89562,89536
 2.5000e+000 89611 -1.0312e+001 -2.6006e+001  9.1216e+000 44538 89458,89562,89510
 2.5000e+000 89588 -1.0555e+001 -4.2217e+001  9.8827e+000 44538 89458,89510,89484
 2.5000e+000 90044  5.8285e+000 -5.0835e+001  3.3767e-001 44134 89819,89923,89845
 2.5000e+000 90021 -9.5149e+000 -3.6868e+001 -3.2303e+001 44134 89819,89949,89923
 2.5000e+000 89998 -1.1888e+001 -5.2368e+001  9.2933e+000 44134 89845,89923,89897
 2.5000e+000 89975 -3.3545e+001 -8.4596e+001 -4.9114e+000 44134 89845,89897,89871
 2.5000e+000 90520 -2.6660e+000 -1.0417e+002 -7.6107e+000 43457 90543,90252,90226
 2.5000e+000 90497 -2.2024e+001 -1.0754e+002 -7.4398e+000 43457 90543,90226,90330
 2.5000e+000 90474 -3.0799e+001 -1.1802e+002 -1.1510e+001 43457 90200,90330,90226
 2.5000e+000 90451 -4.2732e+001 -9.3927e+001  3.0507e+001 43457 90200,90356,90330
 2.5000e+000 90428  3.4230e+001 -5.7870e+001 -2.3381e+001 43457 90252,90304,90278
 2.5000e+000 90405 -3.5541e+001 -1.2141e+002  3.2284e+001 43457 90174,90356,90200
 2.5000e+000 90382 -3.4604e+001 -4.4337e+001  5.3800e+001 43457 90148,90356,90174
 2.5000e+000 90569  1.4346e+001 -1.1054e+002 -2.4226e+001 43457 90304,90252,90543
 2.5000e+000 90592 -1.6457e+001 -1.1938e+002 -2.7726e+001 43457 90304,90543,90330
 2.5000e+000 91098 -1.6637e+001 -5.9008e+001 -1.2299e+000 42789 90801,90905,90853
 2.5000e+000 91075 -2.5945e+001 -6.4159e+001  2.8013e+000 42789 90775,90905,90801
 2.5000e+000 91052 -2.2540e+001 -5.7365e+001  4.0619e+000 42789 90775,90931,90905
 2.5000e+000 91029 -2.6816e+001 -8.7531e+001 -2.8270e-001 42789 90801,90853,90827
 2.5000e+000 91006  3.7043e+000 -5.0685e+001  2.8100e-001 42789 90853,90905,90879
 2.5000e+000 90983 -2.9010e+001 -7.3827e+001  6.7703e+000 42789 90775,90957,90931
 2.5000e+000 91427 -3.6845e+001 -9.1999e+001 -1.0441e+001 42227 91228,91280,91254
 2.5000e+000 91404 -5.2606e+000 -9.7124e+001 -7.7114e+000 42227 91228,91306,91280
 2.5000e+000 91381 -3.2152e+001 -1.0440e+002  6.6038e+000 42227 91202,91306,91228
 2.5000e+000 91358 -1.8465e+000 -5.5915e+001 -6.8136e+000 42227 91202,91332,91306
 2.5000e+000 91675 -1.1865e+001 -6.9892e+001  2.2524e+001 41773 91698,91476,91450
 2.5000e+000 91652 -4.1251e+000 -6.0024e+001  3.3949e+001 41773 91698,91450,91554
 2.5000e+000 91629 -2.7300e+001 -5.8716e+001  3.9526e+001 41773 91450,91580,91554
 2.5000e+000 91606 -9.4942e+000 -6.7350e+001  2.2350e+001 41773 91502,91554,91528
 2.5000e+000 91724 -2.2241e+001 -7.0398e+001  1.3701e+001 41773 91502,91476,91698
 2.5000e+000 91747 -1.6369e+001 -6.1025e+001  2.5146e+001 41773 91502,91698,91554
 2.5000e+000 92127 -3.1707e+000 -1.5345e+002 -5.1114e+000 41255 92150,91905,91879
 2.5000e+000 92104 -1.3817e+001 -1.3867e+002 -1.1770e+000 41255 92150,91879,91957
 2.5000e+000 92081 -5.2400e+001 -1.7572e+002  1.8748e+001 41255 91853,91957,91879
 2.5000e+000 92058 -5.1816e+001 -1.7873e+002  3.8305e+001 41255 91853,91983,91957
 2.5000e+000 92035  1.1936e+001 -2.1085e+002  4.4222e+001 41255 91853,92009,91983
 2.5000e+000 92176 -9.7180e+000 -1.6485e+002 -1.2690e+001 41255 91931,91905,92150
 2.5000e+000 92199 -1.9444e+001 -1.4467e+002 -1.0274e+001 41255 91931,92150,91957
 2.5000e+000 92518 -8.7767e+001 -2.1765e+002 -1.7469e+001 41007 92244,92374,92270
 2.5000e+000 92495 -1.4839e+002 -2.6657e+002  4.1922e+000 41007 92244,92400,92374
 2.5000e+000 92472 -7.5479e+001 -1.9133e+002 -3.8962e+000 41007 92270,92374,92348
 2.5000e+000 92449 -6.4592e+001 -1.1479e+002  3.0771e+000 41007 92296,92348,92322
 2.5000e+000 92426 -6.5628e+001 -1.3928e+002 -1.1851e+001 41007 92270,92348,92296
 2.5000e+000 92668 -2.3389e+001 -1.0185e+002 -8.6945e+000 40717 92823,92691,92567
 2.5000e+000 92645 -3.7223e+001 -8.2113e+001 -1.0108e+001 40717 92895,92823,92567
 2.5000e+000 92717  4.2309e+001 -7.4152e+001 -1.1873e+001 40717 92593,92567,92691
 2.5000e+000 92849  4.6868e+000 -7.8079e+001 -2.0145e+001 40717 92619,92691,92823
 2.5000e+000 92872 -2.1556e+001 -7.5333e+001 -6.6158e+000 40717 92619,92823,92541
 2.5000e+000 92921 -2.5376e+001 -8.2193e+001 -5.0794e+000 40717 92541,92823,92895
 2.5000e+000 93634 -6.0319e+001 -2.0579e+002 -8.3217e+000 40206 93366,93444,93418
 2.5000e+000 93611 -3.2573e+001 -9.6011e+001 -7.6525e+000 40206 93288,93444,93366
 2.5000e+000 93588 -7.8404e+001 -1.6084e+002  1.2542e+001 40206 93288,93366,93314
 2.5000e+000 93565 -5.2488e+001 -9.8804e+001  2.6923e-001 40206 93262,93444,93288
 2.5000e+000 93542 -1.9020e+001 -1.8917e+002 -2.7540e+000 40206 93366,93418,93392
 2.5000e+000 93519 -4.8769e+001 -1.1172e+002  1.4171e+000 40206 93262,93470,93444
 2.5000e+000 93496 -7.7103e+000 -1.3107e+002  2.4329e+001 40206 93314,93366,93340
 2.5000e+000 94189 -4.9270e+000 -3.2885e+001  8.0131e+000 39802 93843,93999,93973
 2.5000e+000 94166  4.1135e+001 -6.4491e+000 -8.5173e+000 39802 93817,93999,93843
 2.5000e+000 94143 -4.0076e+000 -2.2671e+001 -6.2898e+000 39802 93869,93973,93947
 2.5000e+000 94120  1.3069e+001 -2.0265e+001  1.0842e+000 39802 93843,93973,93869
 2.5000e+000 94097  3.9019e+001 -2.2435e+001  7.2859e-001 39802 93869,93921,93895
 2.5000e+000 94074  3.7841e+001 -2.7679e+001 -1.8033e+001 39802 93869,93947,93921
 2.5000e+000 94051 -2.0647e+001 -3.4695e+001  1.5556e+001 39802 93817,94025,93999
 2.5000e+000 94290 -1.0343e+000 -3.4831e+001 -9.5634e+000 39398 94212,94264,94238
 2.5000e+000 94798 -1.7146e+001 -7.7040e+001 -4.0492e+000 38701 94501,94657,94631
 2.5000e+000 94775 -2.0689e+001 -6.1970e+001  5.8191e+000 38701 94475,94657,94501
 2.5000e+000 94752 -9.1947e-001 -8.4591e+001 -9.3491e+000 38701 94579,94631,94605
 2.5000e+000 94729 -2.8918e+001 -1.2193e+002 -2.6087e+001 38701 94553,94631,94579
 2.5000e+000 94706 -3.5628e+001 -1.1513e+002  5.9854e+000 38701 94501,94631,94553
 2.5000e+000 94683 -2.2412e+001 -2.0782e+002 -4.3151e-002 38701 94501,94553,94527
 2.5000e+000 95255 -4.1988e+001 -1.0119e+002 -2.3426e-001 38247 95278,95085,95007
 2.5000e+000 95232 -3.5126e+001 -9.8426e+001 -7.9735e-003 38247 95278,95007,95137
 2.5000e+000 95209 -2.6508e+001 -8.8887e+001  4.4406e+000 38247 94981,95137,95007
 2.5000e+000 95186 -4.7971e+001 -8.6040e+001 -1.4120e+001 38247 95007,95059,95033
 2.5000e+000 95163 -4.1705e+001 -7.0763e+001 -1.2975e+001 38247 95007,95085,95059
 2.5000e+000 95304 -4.3732e+001 -1.0007e+002  5.4740e+000 38247 95111,95085,95278
 2.5000e+000 95327 -3.7904e+001 -9.7499e+001  5.0240e+000 38247 95111,95278,95137
 2.5000e+000 95575 -9.0265e+000 -1.2826e+001 -1.2147e+000 37564 95376,95428,95402
 2.5000e+000 95552 -4.1569e+000 -2.1689e+001 -2.5837e+000 37564 95376,95454,95428
 2.5000e+000 95529  3.5930e+000 -1.6335e+001  1.0735e+000 37564 95376,95480,95454
 2.5000e+000 95506  1.2116e+001 -3.8021e+001 -3.6722e+000 37564 95350,95480,95376
 2.5000e+000 96034 -5.9522e+001 -1.6512e+002  7.0350e-001 37224 95786,95838,95812
 2.5000e+000 96011 -4.7353e+001 -1.2700e+002 -4.7841e+000 37224 95786,95890,95838
 2.5000e+000 95988 -5.6917e+001 -1.3008e+002 -1.5057e+000 37224 95786,95916,95890
 2.5000e+000 95965  1.5617e+001 -1.0099e+002 -3.1194e+000 37224 95760,95916,95786
 2.5000e+000 95942 -1.3588e+001 -1.3184e+002 -2.3782e+001 37224 95838,95890,95864
 2.5000e+000 96363  3.2223e+000 -1.6445e+001 -3.0728e+000 36884 96216,96268,96242
 2.5000e+000 96340  1.2949e+001 -1.7374e+001 -3.2328e+000 36884 96164,96268,96216
 2.5000e+000 96317  1.6204e+001 -2.0243e+001  7.0637e-001 36884 96138,96268,96164
 2.5000e+000 96294 -2.3673e+000 -4.4282e+001  1.0488e+001 36884 96164,96216,96190
 2.5000e+000 96839 -2.1271e+001 -1.2498e+002  8.3493e-001 36572 96862,96649,96597
 2.5000e+000 96816 -2.5329e+001 -1.1297e+002  2.2026e+000 36572 97006,96862,96597
 2.5000e+000 96793 -2.8070e+001 -1.0336e+002 -7.3032e+000 36572 96934,96467,96675
 2.5000e+000 96770 -2.6102e+001 -1.0896e+002 -2.1789e+000 36572 97006,96597,96571
 2.5000e+000 96747 -5.4036e+001 -1.6155e+002 -6.7794e-001 36572 96467,96519,96493
 2.5000e+000 96724 -2.1633e+001 -9.1348e+001 -1.1844e+000 36572 96519,96571,96545
 2.5000e+000 96701 -2.8793e+001 -1.0950e+002 -1.5560e+001 36572 96597,96649,96623
 2.5000e+000 96888 -3.4417e+001 -1.3689e+002 -1.6018e+001 36572 96675,96649,96862
 2.5000e+000 96911 -2.4944e+001 -1.1814e+002 -8.6108e+000 36572 96934,96675,96862
 2.5000e+000 96960 -3.5690e+001 -1.1617e+002 -3.6242e+000 36572 96519,96467,96934
 2.5000e+000 96983 -2.7088e+001 -1.2713e+002 -3.9084e+000 36572 97078,96934,96862
 2.5000e+000 97032 -2.6593e+001 -1.2335e+002  1.2822e+000 36572 97078,96862,97006
 2.5000e+000 97055 -2.5868e+001 -1.1507e+002 -2.3544e-002 36572 96519,97006,96571
 2.5000e+000 97104 -2.3770e+001 -1.1877e+002 -2.2962e+000 36572 96519,96934,97078
 2.5000e+000 97127 -2.5467e+001 -1.1614e+002  1.8179e+000 36572 96519,97078,97006
 2.5000e+000 97761 -2.9212e+001 -1.1241e+002 -1.9452e+001 36118 97784,97493,97415
 2.5000e+000 97738 -1.1968e+001 -1.2322e+002 -6.9210e+000 36118 97784,97415,97597
 2.5000e+000 97715  1.1890e+001 -1.2347e+002 -2.1234e+001 36118 97389,97597,97415
 2.5000e+000 97692 -1.9939e+001 -1.2737e+002  2.1132e+000 36118 97415,97467,97441
 2.5000e+000 97669 -3.6130e+001 -1.1994e+002 -1.5803e+001 36118 97415,97493,97467
 2.5000e+000 97646 -3.3992e+001 -8.5360e+001 -2.3684e+000 36118 97493,97571,97519
 2.5000e+000 97623 -2.2075e+001 -9.5828e+001  1.8386e+001 36118 97519,97571,97545
 2.5000e+000 97810 -1.7874e+001 -1.0429e+002 -1.2481e+001 36118 97571,97493,97784
 2.5000e+000 97833  1.0358e+001 -1.0599e+002  1.9060e+000 36118 97571,97784,97597
 2.5000e+000 98081 -2.8474e+001 -1.3089e+002 -7.5752e+000 35564 98104,97908,97856
 2.5000e+000 98058 -3.6037e+001 -1.3089e+002 -2.5825e+000 35564 98104,97856,97986
 2.5000e+000 98035 -1.5990e+001 -1.2884e+002  1.3416e+001 35564 97934,97986,97960
 2.5000e+000 98012 -2.3693e+001 -1.2524e+002  5.7082e+000 35564 97856,97908,97882
 2.5000e+000 98130 -4.2081e+001 -1.2581e+002 -1.1670e+001 35564 97934,97908,98104
 2.5000e+000 98153 -4.4369e+001 -1.2735e+002 -1.4505e+000 35564 97934,98104,97986
 2.5000e+000 98374 -7.8160e+001 -1.3427e+002  5.5725e+000 35152 98224,98302,98276
 2.5000e+000 98351 -8.2554e+001 -1.4610e+002  8.1374e+000 35152 98198,98302,98224
 2.5000e+000 98328 -1.0777e+002 -1.4625e+002  1.2069e+001 35152 98224,98276,98250
 2.5000e+000 98884 -2.9623e+000 -6.3866e+001 -1.6026e+001 34698 98691,98743,98717
 2.5000e+000 98861 -8.0397e+000 -7.2497e+001 -2.1670e+001 34698 98561,98743,98691
 2.5000e+000 98838 -1.7823e+001 -8.2559e+001 -1.6009e+001 34698 98907,98587,98561
 2.5000e+000 98815 -2.1243e+001 -9.0512e+001 -1.5677e+001 34698 98907,98561,98691
 2.5000e+000 98792 -4.3871e+001 -1.0431e+002  7.1575e+000 34698 98587,98639,98613
 2.5000e+000 98769 -1.3522e+001 -6.2535e+001 -1.5055e+001 34698 98587,98665,98639
 2.5000e+000 98933 -1.6179e+001 -8.5422e+001 -8.3121e+000 34698 98665,98587,98907
 2.5000e+000 98956 -2.1315e+001 -9.7533e+001 -7.7796e+000 34698 98665,98907,98691
 2.5000e+000 99204  2.1013e+001 -9.4203e+001  1.7916e+000 34144 99227,99031,99005
 2.5000e+000 99181 -8.9770e+000 -9.5887e+001 -6.3182e+000 34144 99299,99227,99005
 2.5000e+000 99158 -1.1636e+001 -9.6537e+001 -5.6917e+000 34144 99299,99005,99109
 2.5000e+000 99135  3.4196e+001 -8.5260e+001  1.9072e+000 34144 98979,99109,99005
 2.5000e+000 99253  1.0646e+000 -1.0429e+002 -1.2079e+001 34144 99057,99031,99227
 2.5000e+000 99276 -1.5404e+001 -9.4178e+001 -1.7431e+001 34144 99057,99227,99083
 2.5000e+000 99325 -4.6703e+000 -9.3870e+001 -1.5435e+001 34144 99083,99227,99299
 2.5000e+000 99348 -1.5962e+001 -9.8284e+001 -1.5230e+001 34144 99083,99299,99109
 2.5000e+000 99498  2.0752e+000 -4.4342e+001  1.6201e+001 33433 99397,99449,99423
 2.5000e+000 99475 -1.8756e+001 -2.4195e+001 -9.1040e-001 33433 99371,99449,99397
 2.5000e+000 100008 -2.7312e+001 -7.9847e+001 -8.9314e+000 32979 100103,100031,99815
 2.5000e+000 99985 -2.1808e+001 -8.8580e+001 -1.7690e+001 32979 100175,100031,99763
 2.5000e+000 99962 -2.3258e+001 -9.0145e+001 -1.7740e+001 32979 100103,99815,99789
 2.5000e+000 99939 -2.7189e+001 -1.0294e+002 -1.6685e+001 32979 100175,99763,99737
 2.5000e+000 99916 -2.7394e+001 -8.8780e+001 -1.0087e+001 32979 99685,99867,99737
 2.5000e+000 99893 -3.2464e+001 -1.5248e+002 -2.7220e+001 32979 99685,99737,99711
 2.5000e+000 100057 -2.2046e+001 -7.8222e+001 -7.4786e+000 32979 99841,99815,100031
 2.5000e+000 100080 -1.2572e+001 -3.8915e+001 -2.2688e+001 32979 99841,100031,99867
 2.5000e+000 100129 -1.8184e+001 -1.0252e+002 -1.1308e+001 32979 99763,100031,100103
 2.5000e+000 100152 -2.2922e+001 -1.2099e+002 -2.2315e+001 32979 99763,100103,99789
 2.5000e+000 100201 -2.7565e+001 -8.3014e+001 -1.0379e+001 32979 99867,100031,100175
 2.5000e+000 100224 -2.9451e+001 -8.9497e+001 -1.1768e+001 32979 99867,100175,99737
 2.5000e+000 100553 -1.0666e+000 -9.8850e+001 -8.7731e+000 32503 100354,100406,100380
 2.5000e+000 100530 -2.5044e+001 -1.1291e+002 -2.9126e+000 32503 100328,100406,100354
 2.5000e+000 100507 -3.5275e+001 -1.1763e+002  1.1527e+001 32503 100328,100458,100406
 2.5000e+000 100484 -2.9640e+001 -1.4192e+002  1.4929e+001 32503 100406,100458,100432
 2.5000e+000 100850 -4.6321e+001 -1.3799e+002 -1.2390e+001 31899 100873,100654,100628
 2.5000e+000 100827 -3.7084e+001 -1.2779e+002 -6.2399e+000 31899 100945,100873,100628
 2.5000e+000 100804 -2.8530e+001 -1.2124e+002 -2.5990e+000 31899 100945,100628,100602
 2.5000e+000 100781  1.1438e+001 -1.0351e+002 -2.4952e+001 31899 100576,100732,100602
 2.5000e+000 100758 -6.6601e+001 -1.0964e+002 -6.2766e+001 31899 100654,100706,100680
 2.5000e+000 100899 -2.9539e+001 -1.1465e+002 -1.9994e+001 31899 100706,100654,100873
 2.5000e+000 100922 -6.3366e+001 -1.2840e+002 -1.8279e+001 31899 100706,100873,100732
 2.5000e+000 100971 -5.6841e+001 -1.1422e+002 -1.1174e+001 31899 100732,100873,100945
 2.5000e+000 100994 -4.6522e+001 -1.0580e+002 -6.9315e+000 31899 100732,100945,100602
 2.5000e+000 101551 -3.9745e+001 -1.1500e+002 -3.5609e+000 31338 101205,101387,101231
 2.5000e+000 101528 -8.6230e-001 -9.9287e+001  2.5842e+000 31338 101179,101387,101205
 2.5000e+000 101505 -4.7061e+001 -9.5138e+001  4.2946e+000 31338 101574,101309,101257
 2.5000e+000 101482 -5.0048e+001 -1.0311e+002  1.3995e+000 31338 101646,101574,101257
 2.5000e+000 101459 -4.9589e+001 -1.0099e+002  1.1143e+000 31338 101646,101257,101231
 2.5000e+000 101436 -3.7140e+001 -1.3672e+002  5.4776e+000 31338 101309,101361,101335
 2.5000e+000 101413 -2.0724e+001 -8.5661e+001  5.2845e+000 31338 101257,101309,101283
 2.5000e+000 101600 -3.6748e+001 -1.0446e+002 -2.2627e+000 31338 101361,101309,101574
 2.5000e+000 101623 -5.1702e+001 -1.1737e+002 -9.8111e+000 31338 101361,101574,101387
 2.5000e+000 101672 -4.9238e+001 -1.0177e+002 -7.0002e-002 31338 101387,101574,101646
 2.5000e+000 101695 -4.9584e+001 -1.0115e+002 -4.2832e-001 31338 101387,101646,101231
 2.5000e+000 101943 -2.9012e+000 -8.7540e+001 -3.8060e+000 30748 101966,101796,101744
 2.5000e+000 101920  8.8324e+000 -9.7122e+001 -4.6266e+000 30748 101966,101744,101718
 2.5000e+000 101897 -1.6287e+001 -1.1289e+002  1.4378e+001 30748 101718,101848,101822
 2.5000e+000 101874 -2.0174e+001 -8.3717e+001 -1.4079e+001 30748 101744,101796,101770
 2.5000e+000 101992 -7.3301e+000 -9.2890e+001 -1.8891e+000 30748 101822,101796,101966
 2.5000e+000 102015  1.0687e+000 -1.0535e+002 -1.4371e+000 30748 101822,101966,101718
 2.5000e+000 102493 -5.7451e+001 -1.2717e+002 -5.1980e+000 30344 102516,102173,102147
 2.5000e+000 102470 -5.0072e+001 -1.1116e+002 -7.1271e+000 30344 102660,102516,102147
 2.5000e+000 102447 -4.0079e+001 -1.2190e+002 -1.1400e+001 30344 102588,102199,102173
 2.5000e+000 102424 -3.0713e+001 -1.1138e+002 -9.4798e+000 30344 102660,102147,102329
 2.5000e+000 102401 -3.2010e+001 -1.2186e+002 -2.4097e+001 30344 102199,102277,102251
 2.5000e+000 102378 -1.7788e+000 -1.0114e+002 -3.3555e+001 30344 102199,102251,102225
 2.5000e+000 102355 -8.4215e-001 -9.5316e+001  8.3117e+000 30344 102121,102329,102147
 2.5000e+000 102542 -4.3318e+001 -1.2082e+002 -1.1521e+001 30344 102588,102173,102516
 2.5000e+000 102565 -7.4480e+001 -1.3042e+002  1.5495e+000 30344 102277,102516,102303
 2.5000e+000 102614 -4.3715e+001 -1.2184e+002 -1.1899e+001 30344 102277,102199,102588
 2.5000e+000 102637 -4.7579e+001 -1.2170e+002 -1.2780e+001 30344 102277,102588,102516
 2.5000e+000 102686 -2.8147e+001 -1.1195e+002  1.9203e+000 30344 102303,102516,102660
 2.5000e+000 102709 -1.6360e+001 -1.1766e+002  7.4396e-001 30344 102303,102660,102329
 2.5000e+000 103294 -2.0002e+001 -1.0330e+002 -9.5205e+000 29726 103317,103101,103075
 2.5000e+000 103271 -1.8513e+001 -9.4146e+001 -9.0163e+000 29726 103317,103075,102997
 2.5000e+000 103248  1.7119e+000 -8.9833e+001 -2.6002e+001 29726 102971,103153,102997
 2.5000e+000 103225 -3.0879e+001 -1.2520e+002 -2.0555e+001 29726 103101,103153,103127
 2.5000e+000 103202 -2.6953e+001 -1.0213e+002 -4.3007e+000 29726 102997,103075,103023
 2.5000e+000 103179  4.9565e-001 -7.6199e+001 -1.9703e+001 29726 103023,103075,103049
 2.5000e+000 103343 -1.9906e+001 -9.5592e+001 -1.1038e+001 29726 103153,103101,103317
 2.5000e+000 103366 -2.1112e+001 -9.0312e+001 -1.1186e+001 29726 103153,103317,102997
 2.5000e+000 103614  2.9621e+000 -6.9590e+001 -1.1296e+001 29200 103781,103637,103467
 2.5000e+000 103591 -2.3434e+001 -7.8531e+001  8.4452e-001 29200 103709,103637,103415
 2.5000e+000 103568 -3.1920e+001 -8.5453e+001 -4.0096e+000 29200 103709,103415,103389
 2.5000e+000 103545 -4.7183e+000 -5.4120e+001 -2.4686e+001 29200 103781,103467,103441
 2.5000e+000 103663  1.3004e+001 -7.8593e+001  9.7446e-001 29200 103853,103637,103493
 2.5000e+000 103686  1.1108e+001 -3.8567e+001  3.9564e+000 29200 103493,103637,103519
 2.5000e+000 103735 -1.0043e+001 -8.7587e+001  5.9274e+000 29200 103519,103637,103709
 2.5000e+000 103758 -1.7831e+001 -9.1972e+001  2.0968e+000 29200 103519,103709,103389
 2.5000e+000 103807 -7.3140e+000 -9.4962e+001 -1.2501e+001 29200 103415,103637,103781
 2.5000e+000 103830 -1.9822e+001 -8.8608e+001 -3.0259e+001 29200 103415,103781,103441
 2.5000e+000 103879 -7.7790e+000 -8.0843e+001 -6.7123e+000 29200 103467,103637,103853
 2.5000e+000 104545 -1.4659e+001 -7.7544e+001 -8.7419e+000 28860 104274,104352,104326
 2.5000e+000 104522 -3.5232e+001 -7.8415e+001 -6.4749e+000 28860 104248,104352,104274
 2.5000e+000 104499 -2.2811e+001 -7.2779e+001 -7.7389e+000 28860 104248,104404,104352
 2.5000e+000 104476 -5.2686e+001 -6.7438e+001 -9.3010e+000 28860 104222,104404,104248
 2.5000e+000 104453 -1.7652e+001 -6.0063e+001 -9.0317e+000 28860 104352,104404,104378
 2.5000e+000 104430 -2.6827e+001 -7.8086e+001 -1.1692e+001 28860 104274,104326,104300
 2.5000e+000 104744  8.9878e+000 -1.0794e+002 -1.4657e+001 28456 104839,104767,104646
 2.5000e+000 104721 -1.9107e+001 -1.2383e+002 -1.4705e+000 28456 104767,104594,104568
 2.5000e+000 104698  4.4819e+001 -7.2660e+001  3.6601e+000 28456 104839,104646,104620
 2.5000e+000 104793 -1.1873e+001 -1.1409e+002 -1.5441e+001 28456 104672,104646,104767
 2.5000e+000 104816 -4.2803e+001 -1.4110e+002  1.8213e+001 28456 104911,104767,104568
 2.5000e+000 104865 -3.8366e+000 -8.9131e+001  8.4865e+000 28456 104594,104767,104839
 2.5000e+000 104888  3.0119e+001 -3.5979e+000  2.1766e+001 28456 105041,104839,104620
 2.5000e+000 104937  6.1304e+000 -7.9574e+001 -8.6359e+000 28456 104672,104767,104911
 2.5000e+000 105067 -2.1592e+001 -9.3567e+001  3.4134e-001 28456 104594,104839,105041
 2.5000e+000 105573 -1.6607e+001 -1.1122e+002 -3.0462e+001 28094 105812,105596,105328
 2.5000e+000 105550 -1.0047e-001 -1.0696e+002 -1.0733e+001 28094 105596,105276,105250
 2.5000e+000 105527 -7.4939e+000 -1.0109e+002 -1.5342e+001 28094 105740,105668,105432
 2.5000e+000 105504 -2.3378e+001 -1.0721e+002 -3.7442e-001 28094 105740,105432,105380
 2.5000e+000 105481  4.1566e+000 -1.2568e+002 -1.8775e+001 28094 105812,105328,105302
 2.5000e+000 105458 -1.7391e+001 -1.2561e+002  3.4216e+000 28094 105380,105432,105406
 2.5000e+000 105622 -3.0229e+001 -8.9286e+001 -2.3253e+001 28094 105354,105328,105596
 2.5000e+000 105645 -1.1697e+001 -8.3271e+001 -8.1223e+000 28094 105668,105354,105596
 2.5000e+000 105694 -3.6968e+000 -8.6797e+001 -1.7358e+001 28094 105250,105432,105668
 2.5000e+000 105717 -9.1120e+000 -1.0049e+002 -6.0122e+000 28094 105250,105668,105596
 2.5000e+000 105766 -3.9700e+001 -1.0487e+002  2.1299e+000 28094 105354,105668,105740
 2.5000e+000 105789 -5.2472e+001 -1.1557e+002  1.8793e+001 28094 105354,105740,105380
 2.5000e+000 105838  1.4303e+001 -1.0947e+002 -2.0273e+001 28094 105276,105596,105812
 2.5000e+000 105861  1.3072e+002 -7.2304e+001 -1.0340e+001 28094 105276,105812,105302
 2.5000e+000 106367 -3.3581e+001 -1.3643e+002 -1.3938e+001 27390 106070,106122,106096
 2.5000e+000 106344 -3.3141e+001 -1.4893e+002 -1.3055e+001 27390 106070,106226,106122
 2.5000e+000 106321 -1.4377e+001 -1.4886e+002 -7.2154e+000 27390 106174,106226,106200
 2.5000e+000 106298 -2.2865e+001 -1.3464e+002 -6.5966e+000 27390 106122,106226,106174
 2.5000e+000 106275 -3.8135e+001 -1.3885e+002  1.1156e+001 27390 106122,106174,106148
 2.5000e+000 106252 -2.6793e+001 -1.5113e+002 -2.7974e+001 27390 106044,106226,106070
 2.5000e+000 106615 -2.3667e+001 -1.2880e+002 -5.4674e+000 26978 106638,106494,106416
 2.5000e+000 106592 -2.9268e+001 -1.2383e+002 -5.1811e+000 26978 106638,106416,106390
 2.5000e+000 106569 -2.3924e+001 -1.2570e+002  2.7197e+000 26978 106416,106494,106442
 2.5000e+000 106546 -4.7515e+000 -1.3808e+002 -9.3275e+000 26978 106442,106494,106468
 2.5000e+000 106664 -1.4406e+001 -1.2402e+002 -7.6029e+000 26978 106520,106494,106638
 2.5000e+000 106687 -2.5117e+001 -1.2304e+002 -6.2023e+000 26978 106520,106638,106390
 2.5000e+000 106837 -1.5493e+000 -2.6806e+002 -3.6454e+000 26524 106710,106762,106736
 2.5000e+000 106814 -4.3537e+000 -2.3748e+002 -2.2606e+000 26524 106710,106788,106762
 2.5000e+000 107426 -5.4420e+001 -1.1235e+002  2.0850e+001 26120 107129,107207,107155
 2.5000e+000 107403 -3.9326e+001 -9.7500e+001  1.4260e+001 26120 107129,107285,107207
 2.5000e+000 107380 -5.5952e+001 -1.2094e+002  2.6754e+000 26120 107207,107285,107259
 2.5000e+000 107357 -1.7350e+001 -9.8056e+001  2.1593e+001 26120 107155,107207,107181
 2.5000e+000 107334 -4.2874e+001 -9.9438e+001  1.3276e+001 26120 107103,107285,107129
 2.5000e+000 107311 -4.3519e+001 -1.2545e+002  2.4784e+000 26120 107207,107259,107233
 2.5000e+000 107755 -4.3189e+001 -1.0905e+002  9.0131e-001 25758 107556,107634,107608
 2.5000e+000 107732 -4.5263e+000 -7.8681e+001 -1.2775e+001 25758 107556,107660,107634
 2.5000e+000 107709 -7.2612e+001 -1.0019e+002 -2.7140e+001 25758 107556,107608,107582
 2.5000e+000 107686 -2.2374e+000  3.5060e+000  1.1383e+001 25758 107530,107660,107556
 2.5000e+000 108438 -5.0245e+001 -1.6229e+002 -1.4946e+001 25468 108121,108199,108173
 2.5000e+000 108415 -1.8377e+001 -7.8389e+001 -5.3215e+000 25468 108095,108199,108121
 2.5000e+000 108392 -2.1649e+001 -9.2772e+001 -7.1816e+000 25468 108095,108251,108199
 2.5000e+000 108369 -3.3113e+001 -1.0131e+002  6.4824e-002 25468 108069,108251,108095
 2.5000e+000 108346 -2.6012e+001 -8.9413e+001 -3.1868e+001 25468 108199,108251,108225
 2.5000e+000 108323 -2.3899e+001 -1.1941e+002  8.0524e+000 25468 108017,108251,108069
 2.5000e+000 108300 -2.7148e+001 -1.0773e+002 -7.5116e+000 25468 108121,108173,108147
 2.5000e+000 108277 -1.1548e+001 -1.1145e+002 -6.6239e-001 25468 108017,108069,108043
 2.5000e+000 108588 -2.3689e+001 -1.2803e+002 -3.6301e+001 25064 108611,108513,108487
 2.5000e+000 108565 -5.1937e+001 -1.2476e+002 -2.9744e+001 25064 108683,108611,108487
 2.5000e+000 108637 -2.9127e+001 -1.1118e+002 -3.0666e+001 25064 108539,108513,108611
 2.5000e+000 108660  4.3049e+000 -1.0071e+002 -2.9498e+001 25064 108539,108611,108461
 2.5000e+000 108709  1.0295e+001 -6.7899e+001 -5.4867e+001 25064 108461,108611,108683
 2.5000e+000 109345 -8.9731e+001 -1.4205e+002  2.9331e+001 24410 108999,109155,109103
 2.5000e+000 109322 -6.3611e+001 -1.4105e+002  1.3120e+001 24410 108973,109155,108999
 2.5000e+000 109299 -5.5396e+001 -1.9001e+002  3.8845e+001 24410 109103,109155,109129
 2.5000e+000 109276 -7.8431e+001 -1.4043e+002  1.3344e+001 24410 108973,109181,109155
 2.5000e+000 109253 -5.9086e+001 -1.2384e+002  2.0653e+001 24410 109025,109103,109077
 2.5000e+000 109230 -9.5827e+001 -1.3380e+002  2.7637e+001 24410 108999,109103,109025
 2.5000e+000 109207 -5.0262e+001 -1.1617e+002  1.7386e+001 24410 109025,109077,109051
 2.5000e+000 109723 -3.0328e+001 -1.2664e+002  5.5580e+000 23856 109475,109579,109553
 2.5000e+000 109700 -3.0327e+001 -1.0691e+002  7.4690e+000 23856 109475,109605,109579
 2.5000e+000 109677 -2.4537e+001 -1.2226e+002  2.5239e+001 23856 109475,109553,109527
 2.5000e+000 109654 -3.5023e+001 -1.0860e+002 -8.2042e+000 23856 109449,109605,109475
 2.5000e+000 109631  4.9151e+000 -1.2618e+002  2.2941e+001 23856 109475,109527,109501
 2.5000e+000 110101 -2.7928e+001 -1.1078e+002 -1.8125e+001 23566 109853,109931,109879
 2.5000e+000 110078 -2.4399e+001 -1.0945e+002 -1.8189e+001 23566 109827,109931,109853
 2.5000e+000 110055 -3.5496e+001 -1.2334e+002 -1.3226e+001 23566 109827,109983,109931
 2.5000e+000 110032 -9.3118e+000 -1.0252e+002 -1.5915e+001 23566 109879,109931,109905
 2.5000e+000 110009 -2.7299e+001 -1.0430e+002 -1.2251e+001 23566 109931,109983,109957
 2.5000e+000 110735 -3.3467e+001 -8.9372e+001 -7.9542e+000 23162 110415,110571,110519
 2.5000e+000 110712 -4.8516e+001 -1.0920e+002 -1.4520e+001 23162 110389,110571,110415
 2.5000e+000 110689 -2.7251e+001 -8.5903e+001 -4.6940e+000 23162 110415,110519,110493
 2.5000e+000 110666 -3.2128e+001 -9.4147e+001 -7.1010e-001 23162 110363,110571,110389
 2.5000e+000 110643  2.1241e+001 -5.8216e+001  2.2716e+001 23162 110441,110493,110467
 2.5000e+000 110620 -1.1849e+001 -8.9799e+001 -3.8332e+000 23162 110415,110493,110441
 2.5000e+000 110597 -3.9738e+001 -1.0848e+002 -5.9664e+000 23162 110519,110571,110545
 2.5000e+000 111211 -4.8429e+001 -1.0959e+002  1.8062e+000 22708 111378,111306,111021
 2.5000e+000 111188  2.9367e+000 -1.1293e+002  2.7930e+000 22708 111234,110969,110917
 2.5000e+000 111165 -1.1057e+000 -1.2751e+002 -1.2801e+000 22708 111450,111234,110917
 2.5000e+000 111142 -5.6486e+001 -1.1469e+002 -1.7750e+001 22708 111378,111021,110995
 2.5000e+000 111119 -8.2719e+000 -1.1371e+002 -3.2038e+001 22708 111450,110917,110865
 2.5000e+000 111096  5.9982e+001 -1.3530e+002  2.0226e+001 22708 110917,110969,110943
 2.5000e+000 111073  6.5009e-001 -1.6482e+002 -5.5834e+001 22708 110865,110917,110891
 2.5000e+000 111260 -4.4606e+000 -1.1331e+002  1.0521e+001 22708 111306,110969,111234
 2.5000e+000 111283  1.1695e+001 -1.0041e+002  5.2460e+000 22708 111047,111234,110839
 2.5000e+000 111332 -1.6117e+001 -1.7684e+002  2.8739e+001 22708 111047,111021,111306
 2.5000e+000 111355 -2.4220e+001 -1.1889e+002 -4.7480e+000 22708 111047,111306,111234
 2.5000e+000 111404 -1.2979e+001 -1.1629e+002 -4.7829e+000 22708 110969,111306,111378
 2.5000e+000 111427 -2.1596e+001 -1.0841e+002 -1.2128e+001 22708 110969,111378,110995
 2.5000e+000 111476  4.0771e+001 -1.0258e+002 -1.2235e+001 22708 110839,111234,111450
 2.5000e+000 111499  4.5389e+001 -8.1227e+001 -4.5755e+001 22708 110839,111450,110865
 2.5000e+000 111600 -2.3747e+001 -1.0170e+002  3.3602e+000 22460 111522,111574,111548
 2.5000e+000 112059 -3.0696e+001 -8.8381e+001 -4.1941e+000 22056 111811,111889,111863
 2.5000e+000 112036 -1.9710e+001 -9.2324e+001 -3.6070e+000 22056 111811,111915,111889
 2.5000e+000 112013 -2.6029e+001 -9.7862e+001 -7.4138e+000 22056 111785,111915,111811
 2.5000e+000 111990 -1.9415e+001 -8.8611e+001 -1.4332e+001 22056 111785,111941,111915
 2.5000e+000 111967 -4.5988e+001 -1.0733e+002  2.9466e+000 22056 111811,111863,111837
 2.5000e+000 112486 -1.7406e+000 -9.2261e+001 -4.6708e+000 21594 112509,112267,112215
 2.5000e+000 112463 -2.0201e+001 -1.0170e+002  4.3850e+000 21594 112509,112215,112163
 2.5000e+000 112440 -1.1764e+001 -6.9166e+001 -2.8297e+001 21594 112581,112293,112267
 2.5000e+000 112417 -3.0134e+001 -9.0692e+001  3.7881e+000 21594 112215,112267,112241
 2.5000e+000 112394  1.0259e+001 -8.6919e+001  7.9828e-001 21594 112163,112345,112319
 2.5000e+000 112371 -2.3539e+001 -9.4656e+001 -1.1537e+000 21594 112163,112215,112189
 2.5000e+000 112535  4.6135e+000 -8.3839e+001 -1.3497e+001 21594 112581,112267,112509
 2.5000e+000 112558 -1.0763e+001 -8.9132e+001  6.0633e-002 21594 112319,112509,112163
 2.5000e+000 112607 -4.0533e+001 -8.3529e+001 -2.3467e+001 21594 112319,112293,112581
 2.5000e+000 112630 -2.4278e+001 -1.0120e+002 -6.0070e+000 21594 112319,112581,112509
 2.5000e+000 112900 -4.5060e+001 -1.3142e+002 -4.7589e+000 20974 112675,112779,112701
 2.5000e+000 112877 -2.3441e+001 -1.3860e+002  5.8442e-001 20974 112675,112805,112779
 2.5000e+000 112854 -7.5902e+000 -8.7864e+001  1.1655e+001 20974 112701,112779,112753
 2.5000e+000 112831 -9.6161e+000 -3.8063e+001 -1.9316e+001 20974 112701,112753,112727
 2.5000e+000 113359 -3.4334e+001 -1.2732e+002 -1.4591e+001 20520 113454,113137,113111
 2.5000e+000 113336 -1.7771e+001 -1.1358e+002 -8.0655e+000 20520 113454,113111,113085
 2.5000e+000 113313  1.0940e+001 -6.9064e+001  1.9308e+001 20520 113382,113163,113137
 2.5000e+000 113290 -2.2523e+001 -1.1603e+002 -1.9542e+000 20520 113526,113382,113137
 2.5000e+000 113267 -3.0833e+001 -1.6025e+002 -8.8446e+000 20520 113189,113241,113215
 2.5000e+000 113408 -1.1946e+001 -1.1289e+002 -3.6804e+000 20520 113189,113163,113382
 2.5000e+000 113431 -2.0718e+001 -1.2465e+002 -1.9598e+001 20520 113189,113382,113241
 2.5000e+000 113480 -2.7619e+001 -1.1559e+002 -4.6907e+000 20520 113526,113137,113454
 2.5000e+000 113503 -2.1933e+001 -1.1261e+002 -4.2685e+000 20520 113241,113454,113085
 2.5000e+000 113552 -1.3375e+001 -1.1667e+002 -2.4826e+000 20520 113241,113382,113526
 2.5000e+000 113575 -1.6635e+001 -1.1444e+002 -4.5602e+000 20520 113241,113526,113454
 2.5000e+000 113904 -4.6457e+001 -1.2115e+002  4.8812e+000 19858 113705,113783,113757
 2.5000e+000 113881 -4.6688e+001 -1.2169e+002  4.9976e+000 19858 113705,113809,113783
 2.5000e+000 113858 -1.7673e+001 -1.0211e+002 -2.1374e+001 19858 113679,113809,113705
 2.5000e+000 113835 -4.1931e+001 -9.4285e+001  2.8718e+001 19858 113705,113757,113731
 2.5000e+000 114152 -3.0643e+001 -8.6403e+001 -9.3369e+000 19454 114175,114005,113979
 2.5000e+000 114129 -3.0794e+001 -8.3766e+001 -9.2258e+000 19454 114175,113979,114057
 2.5000e+000 114106 -3.5916e+001 -9.2326e+001 -3.5455e+000 19454 113927,114057,113979
 2.5000e+000 114083  7.9297e+000 -8.4877e+001 -4.0295e+001 19454 113927,113979,113953
 2.5000e+000 114201 -3.4606e+001 -8.8340e+001 -2.2574e+001 19454 114031,114005,114175
 2.5000e+000 114224 -3.1598e+001 -8.1449e+001 -9.5985e+000 19454 114031,114175,114057
 2.5000e+000 114472 -3.8226e+001 -1.3487e+002 -5.7489e+000 19000 114495,114273,114247
 2.5000e+000 114449 -4.2475e+001 -1.4230e+002 -7.4752e+000 19000 114495,114247,114325
 2.5000e+000 114426 -5.5446e+001 -1.4165e+002  4.6656e+000 19000 114247,114377,114325
 2.5000e+000 114403 -6.5599e+001 -1.4996e+002 -1.6049e+001 19000 114325,114377,114351
 2.5000e+000 114521 -2.3211e+001 -1.3090e+002  6.0869e+000 19000 114299,114273,114495
 2.5000e+000 114544 -3.7929e+001 -1.5210e+002 -1.0649e+000 19000 114299,114495,114325
 2.5000e+000 114948 -7.5453e+000 -1.1589e+002 -1.4255e+000 18560 114674,114726,114700
 2.5000e+000 114925 -1.1282e+001 -1.0072e+002 -4.1829e-001 18560 114674,114830,114726
 2.5000e+000 114902 -7.5737e+000 -9.1719e+001  1.2897e+000 18560 114726,114830,114804
 2.5000e+000 114879 -4.6508e+001 -1.4361e+002 -1.6041e+001 18560 114726,114804,114752
 2.5000e+000 114856  3.8747e+001 -1.6752e+002 -3.8502e+001 18560 114752,114804,114778
 2.5000e+000 115098 -7.2727e+001 -1.8396e+002 -1.8394e+000 18156 114971,115023,114997
 2.5000e+000 115075 -7.5851e+001 -1.0078e+002 -2.1054e+000 18156 114971,115049,115023
 2.5000e+000 115248 -5.6392e+001 -1.6055e+002  1.2745e+000 17602 115147,115199,115173
 2.5000e+000 115225  3.9446e+001 -1.5514e+002  4.5241e+000 17602 115121,115199,115147
 2.5000e+000 115652 -1.6187e+001 -1.0060e+002 -3.2090e+000 17354 115430,115534,115508
 2.5000e+000 115629 -2.7821e+001 -1.3203e+002  3.9588e+000 17354 115404,115534,115430
 2.5000e+000 115606  1.6300e+001 -8.1622e+001  5.5513e+001 17354 115378,115534,115404
 2.5000e+000 115583 -6.2752e+000 -1.1519e+002 -1.7211e+001 17354 115456,115508,115482
 2.5000e+000 115560 -3.4869e+001 -1.4342e+002 -5.8431e+000 17354 115430,115508,115456
 2.5000e+000 115873 -3.9076e+001 -1.4645e+002 -6.3844e+000 16950 115749,115801,115775
 2.5000e+000 115850 -6.7271e+001 -1.4619e+002 -6.5197e+000 16950 115697,115801,115749
 2.5000e+000 115827 -5.8706e+001 -1.4287e+002  5.0214e-002 16950 115697,115749,115723
 2.5000e+000 116023 -8.2065e+001 -1.8618e+002 -1.9229e+001 16496 115922,115974,115948
 2.5000e+000 116000 -7.7133e+001 -1.5945e+002 -8.9355e+000 16496 115896,115974,115922
 2.5000e+000 116126 -4.4048e-002 -1.2857e+002  4.5714e+000 16298 116048,116100,116074
 2.5000e+000 116278  3.2285e+001 -1.5741e+002 -4.3940e+000 15892 116151,116203,116177
 2.5000e+000 116255  5.5918e+000 -2.1711e+002  1.4849e+000 15892 116151,116229,116203
 2.5000e+000 116430 -9.2459e+000 -7.3083e+001 -1.4262e+000 15545 116303,116355,116329
 2.5000e+000 116407 -3.0122e+001 -1.3721e+002 -3.2198e+001 15545 116303,116381,116355
 2.5000e+000 116785  1.1839e+001 -7.9962e+001  1.3241e+001 421 116612,116690,116664
 2.5000e+000 116762 -5.0525e+000 -1.1968e+002  1.5897e+000 421 116560,116690,116612
 2.5000e+000 116739 -4.4920e+001 -1.4465e+002  1.9176e+001 421 116560,116612,116586
 2.5000e+000 116716 -4.6852e+001 -1.6199e+002 -1.3209e+001 421 116612,116664,116638
 2.6000e+000 68048 -1.9057e+001 -1.7416e+002 -6.8506e+000 67642 67898,67950,67924
 2.6000e+000 68025 -3.5182e+001 -1.8797e+002  3.1426e+000 67642 67898,67976,67950
 2.6000e+000 68002  1.3818e+001 -1.7103e+002  9.7486e+000 67642 67872,67976,67898
 2.6000e+000 68367  2.5005e+001 -6.3949e+001  1.5690e+000 67444 68119,68223,68197
 2.6000e+000 68344 -1.1164e+001 -1.6728e+002  9.8617e+000 67444 68119,68249,68223
 2.6000e+000 68321 -1.4436e+001 -1.6525e+002  3.7020e+000 67444 68093,68249,68119
 2.6000e+000 68298 -1.6243e+001 -1.6149e+002  2.2067e+000 67444 68119,68197,68171
 2.6000e+000 68275 -6.6390e+001 -1.7013e+002  2.3313e+000 67444 68119,68171,68145
 2.6000e+000 68468  6.0933e+000 -1.6852e+002 -8.2243e+000 67268 68390,68442,68416
 2.6000e+000 68765 -3.1267e+001 -1.5955e+002  2.4978e+000 66956 68788,68517,68491
 2.6000e+000 68742 -1.1052e+001 -1.8107e+002  1.6537e+000 66956 68788,68491,68621
 2.6000e+000 68719 -1.9855e+000 -1.6644e+002 -4.0825e+001 66956 68543,68621,68569
 2.6000e+000 68696 -4.4071e+000 -1.7031e+002 -3.2379e+000 66956 68491,68647,68621
 2.6000e+000 68673 -1.8236e+001 -6.0408e+001 -2.6113e+001 66956 68569,68621,68595
 2.6000e+000 68814 -4.5537e+001 -1.7391e+002  8.5536e+000 66956 68543,68517,68788
 2.6000e+000 68837 -2.0319e+001 -1.9152e+002  5.7777e+000 66956 68543,68788,68621
 2.6000e+000 69107 -1.0894e+001 -2.0200e+002 -6.1272e+000 66758 68882,68986,68908
 2.6000e+000 69084 -3.9527e+001 -2.0540e+002  5.3986e+000 66758 68882,69012,68986
 2.6000e+000 69061 -6.3273e+000 -1.7459e+002 -1.5407e+001 66758 68908,68960,68934
 2.6000e+000 69038  6.2259e+000 -1.7115e+002 -1.3513e+001 66758 68908,68986,68960
 2.6000e+000 69308 -1.3630e+001 -1.3451e+002 -9.4408e+000 66560 69331,69184,69158
 2.6000e+000 69285  3.2893e+000 -1.4926e+002 -1.0729e+001 66560 69331,69158,69132
 2.6000e+000 69262 -1.7014e+001 -1.9570e+002 -2.1587e+001 66560 69184,69236,69210
 2.6000e+000 69357 -1.4400e+001 -1.4624e+002 -4.6468e+000 66560 69236,69184,69331
 2.6000e+000 69380 -8.5240e+000 -1.7059e+002 -1.6640e+000 66560 69236,69331,69132
 2.6000e+000 69554  1.1692e+001 -2.0201e+002  2.2483e+001 66270 69427,69479,69453
 2.6000e+000 69531  5.6189e+001 -9.7699e+001  4.2890e+001 66270 69427,69505,69479
 2.6000e+000 69804 -1.0559e+001 -1.3570e+002  1.8351e+001 66066 69579,69683,69657
 2.6000e+000 69781  3.7254e+001 -1.1315e+002 -4.4713e+000 66066 69579,69709,69683
 2.6000e+000 69758  2.9929e+001 -5.9873e+001  1.5970e+000 66066 69579,69657,69631
 2.6000e+000 69735  1.1595e+001 -9.2473e+001 -2.8956e+001 66066 69579,69631,69605
 2.6000e+000 70257  4.4466e+001 -4.0320e+001 -2.1381e+001 65776 69960,70090,69986
 2.6000e+000 70234  3.2136e+001 -9.0934e+001 -8.8687e+000 65776 69934,70090,69960
 2.6000e+000 70211  9.4919e+000 -9.8676e+001 -8.7558e+000 65776 69934,70116,70090
 2.6000e+000 70188  1.3680e+001 -8.2881e+001  0.0000e+000 65776 70038,70090,70064
 2.6000e+000 70165  1.0247e+001 -8.0985e+001 -3.4459e+000 65776 69986,70090,70038
 2.6000e+000 70142  1.1313e+001 -6.7325e+001 -4.6679e-002 65776 69986,70038,70012
 2.6000e+000 70456 -2.3065e+001 -5.7244e+001 -8.3714e+000 65372 70479,70306,70280
 2.6000e+000 70433 -6.6245e+000 -8.8522e+001 -2.7959e+001 65372 70479,70280,70384
 2.6000e+000 70410  1.7084e+001 -5.1909e+001  8.9691e+000 65372 70551,70332,70306
 2.6000e+000 70505  1.5077e+000 -4.3715e+001 -6.5356e-001 65372 70551,70306,70479
 2.6000e+000 70528  2.0950e+001 -6.9121e+001 -1.9312e+001 65372 70358,70479,70384
 2.6000e+000 70577  1.6372e-001 -6.6756e+001  2.3926e+000 65372 70358,70332,70551
 2.6000e+000 70600 -1.4630e+001 -6.1172e+001 -7.9181e+000 65372 70358,70551,70479
 2.6000e+000 70821 -2.0843e+001 -2.2210e+002 -5.9592e+000 65174 70645,70723,70671
 2.6000e+000 70798 -5.2298e+001 -2.3108e+002  2.8593e+000 65174 70645,70749,70723
 2.6000e+000 70775 -7.0179e+000 -1.9891e+002 -1.2887e+001 65174 70671,70723,70697
 2.6000e+000 71071 -2.5509e+001 -9.2277e+001 -1.4390e+001 64770 71094,70898,70872
 2.6000e+000 71048 -1.4692e+001 -9.1950e+001 -2.7811e+000 64770 71166,71094,70872
 2.6000e+000 71025 -1.6596e+001 -9.5772e+001 -5.1889e+000 64770 71166,70872,70846
 2.6000e+000 71002 -2.7300e+001 -6.1203e+001 -1.0400e+000 64770 70898,70950,70924
 2.6000e+000 71120 -1.6534e+001 -7.1230e+001 -1.1992e+001 64770 70950,70898,71094
 2.6000e+000 71143 -7.3707e+000 -8.7297e+001 -5.8162e-001 64770 70950,71094,70976
 2.6000e+000 71192 -1.4221e+001 -9.9319e+001 -4.5321e+000 64770 70976,71094,71166
 2.6000e+000 71215 -1.4086e+001 -1.0076e+002 -6.7706e+000 64770 70976,71166,70846
 2.6000e+000 71514  1.2120e+001 -9.4143e+001 -1.0192e+001 64572 71681,71537,71318
 2.6000e+000 71491 -2.2351e+001 -9.4562e+001 -9.2698e+000 64572 71537,71266,71240
 2.6000e+000 71468 -1.4407e+001 -6.8277e+001 -2.6510e+001 64572 71609,71396,71370
 2.6000e+000 71445  8.0941e+000 -9.2907e+001 -1.0656e+001 64572 71681,71318,71292
 2.6000e+000 71422 -1.7862e+000 -1.7692e+002 -2.9388e+001 64572 71753,71344,71318
 2.6000e+000 71563  2.4013e+001 -1.1665e+002 -2.5373e+001 64572 71753,71318,71537
 2.6000e+000 71586 -9.4617e+000 -7.2549e+001 -2.0648e+001 64572 71609,71370,71537
 2.6000e+000 71635 -9.5413e+000 -5.4435e+001 -2.2899e+001 64572 71240,71396,71609
 2.6000e+000 71658 -3.9636e+000 -6.3052e+001 -1.7141e+001 64572 71240,71609,71537
 2.6000e+000 71707  1.9890e+000 -8.7828e+001 -1.4375e+001 64572 71266,71537,71681
 2.6000e+000 71730 -1.0969e+001 -9.2484e+001 -1.3722e+001 64572 71266,71681,71292
 2.6000e+000 71779  6.2203e+000 -9.7801e+001 -3.7977e+001 64572 71370,71344,71753
 2.6000e+000 71802  8.8873e-001 -8.9502e+001 -4.0158e+001 64572 71370,71753,71537
 2.6000e+000 72052 -5.5948e+000 -1.2286e+002  1.0480e+001 64374 72075,71879,71827
 2.6000e+000 72029  4.5454e+001 -9.4542e+001 -3.8153e+000 64374 72147,72075,71827
 2.6000e+000 72006  8.3498e+001 -1.1023e+002 -2.8765e+001 64374 72147,71827,71957
 2.6000e+000 71983  1.2221e+001 -1.0273e+002  1.7940e+000 64374 71827,71879,71853
 2.6000e+000 72101  3.0943e+000 -1.6208e+002  4.4683e+001 64374 71905,71879,72075
 2.6000e+000 72124  6.8806e+001 -1.2757e+002  3.2092e+001 64374 71905,72075,71931
 2.6000e+000 72173  1.2659e+001 -1.3926e+002  1.1525e+001 64374 71931,72075,72147
 2.6000e+000 72196  3.8422e+001 -1.6182e+002 -9.6774e+000 64374 71931,72147,71957
 2.6000e+000 72649  2.5932e+000 -6.3471e+001 -2.8734e+000 63948 72352,72508,72482
 2.6000e+000 72626  1.2752e+001 -4.4903e+001  1.5654e+001 63948 72326,72508,72352
 2.6000e+000 72603  4.8922e+000 -1.0392e+002 -5.8389e-001 63948 72672,72430,72378
 2.6000e+000 72580 -3.8191e+000 -1.0749e+002  1.4194e+000 63948 72672,72378,72352
 2.6000e+000 72557  5.9332e-002 -1.2091e+002 -7.2339e+000 63948 72744,72456,72430
 2.6000e+000 72534 -1.4988e+000 -1.5658e+002 -3.2334e+001 63948 72378,72430,72404
 2.6000e+000 72698 -2.0864e+000 -1.1487e+002 -3.5741e+000 63948 72744,72430,72672
 2.6000e+000 72721  1.6229e+000 -9.5134e+001  2.6349e+000 63948 72482,72672,72352
 2.6000e+000 72770 -7.0692e+000 -1.1108e+002 -7.0862e+000 63948 72482,72456,72744
 2.6000e+000 72793 -2.3368e+000 -9.6551e+001 -2.7434e+000 63948 72482,72744,72672
 2.6000e+000 72894 -2.1980e+001 -1.0064e+002 -1.4578e+001 63494 72816,72868,72842
 2.6000e+000 73093 -2.9685e+001 -6.2904e+001 -1.4251e+001 63132 72943,72995,72969
 2.6000e+000 73070 -2.1502e+001 -5.2491e+001  2.6413e+000 63132 72943,73021,72995
 2.6000e+000 73047 -1.7832e+001 -5.4022e+001  6.2038e+000 63132 72917,73021,72943
 2.6000e+000 73294 -3.7161e+000 -1.7018e+001 -1.1430e+001 62792 73317,73144,73118
 2.6000e+000 73271 -5.8955e+000 -2.3460e+001 -1.3397e+001 62792 73317,73118,73222
 2.6000e+000 73248 -2.6082e+000 -9.3795e+000 -5.3541e+000 62792 73144,73196,73170
 2.6000e+000 73343 -3.0218e+000 -1.0089e+001 -4.9874e+000 62792 73196,73144,73317
 2.6000e+000 73366 -6.7439e+000 -1.9741e+001 -6.8412e+000 62792 73196,73317,73222
 2.6000e+000 73616 -3.0741e+001 -9.2728e+001  2.6198e+001 62388 73639,73417,73391
 2.6000e+000 73593 -2.2678e+001 -7.6701e+001  1.3992e+001 62388 73711,73639,73391
 2.6000e+000 73570 -1.6250e+001 -6.3748e+001  1.0949e+001 62388 73711,73391,73521
 2.6000e+000 73547 -1.1379e+001 -7.9404e+001  6.4772e+000 62388 73469,73521,73495
 2.6000e+000 73665  3.6989e-001 -8.0387e+001  2.0653e+001 62388 73443,73417,73639
 2.6000e+000 73688 -1.6645e+001 -8.4886e+001  1.2421e+001 62388 73443,73639,73469
 2.6000e+000 73737 -1.4930e+001 -8.5004e+001  1.2815e+001 62388 73469,73639,73711
 2.6000e+000 73760 -1.5898e+001 -8.0935e+001  1.3006e+001 62388 73469,73711,73521
 2.6000e+000 74010 -1.5621e+001 -2.5113e+001 -5.6301e+000 61848 74033,73837,73811
 2.6000e+000 73987 -3.8618e+001 -1.1910e+001 -3.8712e+001 61848 74033,73811,73785
 2.6000e+000 73964 -5.0644e+000 -3.5691e+001 -9.9644e+000 61848 73837,73915,73889
 2.6000e+000 73941 -5.9300e+000 -3.5833e+001 -1.0388e+001 61848 73837,73889,73863
 2.6000e+000 74059 -1.2458e+001 -4.3161e+001 -1.4638e+001 61848 73915,73837,74033
 2.6000e+000 74082 -1.4429e+001 -6.0806e+001 -2.5580e+001 61848 73915,74033,73785
 2.6000e+000 74283  1.1839e+001 -3.7152e+001  3.2074e+001 61444 74306,74133,74107
 2.6000e+000 74260  3.2761e+001  1.5234e+000  1.8551e+001 61444 74306,74107,74211
 2.6000e+000 74237  5.9336e+001  6.4955e+001  6.3597e+000 61444 74378,74185,74159
 2.6000e+000 74332  2.8580e+001 -3.1229e+001  6.8746e+000 61444 74159,74133,74306
 2.6000e+000 74355  4.0458e+001 -7.2243e-001 -1.5784e+000 61444 74378,74159,74306
 2.6000e+000 74404  2.8152e+001 -5.9417e+000  1.1806e+000 61444 74211,74185,74378
 2.6000e+000 74427  3.8289e+001 -1.6041e+001  1.0508e+000 61444 74211,74378,74306
 2.6000e+000 74628  4.1390e+001 -4.4548e+001 -1.1292e+001 60990 74478,74530,74504
 2.6000e+000 74605 -4.8462e+000 -5.6616e+001 -9.5573e+000 60990 74452,74530,74478
 2.6000e+000 74582 -1.2487e+001 -3.3499e+001 -2.1039e+001 60990 74452,74556,74530
 2.6000e+000 75089  3.1399e+000 -1.7520e+001 -1.7649e+001 60486 75112,74945,74919
 2.6000e+000 75066 -6.2368e+000  6.0716e+000  2.0188e-001 60486 75112,74919,74867
 2.6000e+000 75043 -1.9211e+001 -5.9184e+001  2.0580e+000 60486 74841,74971,74867
 2.6000e+000 75020  1.0738e+000  7.6919e+000  1.8291e+000 60486 74867,74919,74893
 2.6000e+000 74997 -4.8872e+000 -4.8519e+001  8.2482e+000 60486 74815,74971,74841
 2.6000e+000 75138 -1.4581e+001 -2.9015e+001 -2.7322e+001 60486 74971,74945,75112
 2.6000e+000 75161 -2.1572e+001 -1.1414e+001 -8.8103e+000 60486 74971,75112,74867
 2.6000e+000 75409 -1.3782e+001  2.4893e+000  1.6204e+001 59932 75576,75432,75288
 2.6000e+000 75386 -3.5068e+000  3.8150e+000  1.5793e+001 59932 75504,75314,75288
 2.6000e+000 75363  1.1073e+001  2.2203e+001  3.0176e+001 59932 75432,75236,75210
 2.6000e+000 75340 -1.7518e+001 -1.3316e+001  9.2317e-001 59932 75576,75288,75262
 2.6000e+000 75458 -5.5040e+000  6.3626e+000  1.5063e+001 59932 75504,75288,75432
 2.6000e+000 75481 -1.0436e+001 -9.6105e-002  1.1116e+001 59932 75184,75432,75210
 2.6000e+000 75530  5.1359e+000 -9.3592e+000  6.3281e+000 59932 75184,75314,75504
 2.6000e+000 75553 -9.8337e+000  2.7906e+000  1.2600e+001 59932 75184,75504,75432
 2.6000e+000 75602 -1.3019e+001 -2.5719e+001  2.0003e+001 59932 75236,75432,75576
 2.6000e+000 75625 -4.7029e+000 -3.2036e+001  1.4922e+001 59932 75236,75576,75262
 2.6000e+000 75873 -2.1583e+001 -9.2948e+001  1.2520e+001 59478 75674,75752,75700
 2.6000e+000 75850 -5.4705e+001 -1.0710e+002  1.3214e+001 59478 75648,75752,75674
 2.6000e+000 75827 -1.9759e+001 -9.2044e+001  1.2886e+001 59478 75700,75752,75726
 2.6000e+000 75804 -4.6008e+001 -1.2494e+002  1.6408e+001 59478 75648,75778,75752
 2.6000e+000 76206  4.8403e+000 -7.5271e+001  5.0070e+000 59024 75981,76059,76007
 2.6000e+000 76183  7.7123e-001 -8.5220e+001  8.2523e+000 59024 75981,76111,76059
 2.6000e+000 76160  3.8054e+001 -4.8414e+001 -8.2858e+000 59024 76007,76059,76033
 2.6000e+000 76137  9.8893e+000 -7.9094e+001  2.1573e+001 59024 76059,76111,76085
 2.6000e+000 76761 -5.8386e+001 -5.5544e+001 -1.6908e+001 58562 76389,76441,76415
 2.6000e+000 76738 -4.6708e+001 -5.5045e+001  1.0755e+001 58562 76856,76784,76389
 2.6000e+000 76715 -3.4980e+001 -4.6314e+001 -3.4336e+001 58562 76784,76571,76467
 2.6000e+000 76692 -1.5433e+001 -4.9988e+001  7.7051e+000 58562 76856,76389,76597
 2.6000e+000 76669 -3.6389e+001 -1.6725e+002  1.2798e+001 58562 76467,76545,76493
 2.6000e+000 76646 -1.8685e+001 -1.2142e+002 -5.9519e+001 58562 76467,76571,76545
 2.6000e+000 76623 -2.6846e+001 -1.4362e+002  2.5577e+001 58562 76493,76545,76519
 2.6000e+000 76810 -4.1586e+001 -7.6822e+001  1.2177e+000 58562 76441,76389,76784
 2.6000e+000 76833 -1.0057e+002 -1.6281e+002 -7.5683e+001 58562 76441,76784,76467
 2.6000e+000 76882 -1.0769e+001 -5.9533e+001  2.6432e+001 58562 76571,76784,76856
 2.6000e+000 76905  5.4899e+000 -6.4675e+001  2.6137e+001 58562 76571,76856,76597
 2.6000e+000 77055  1.3354e+001 -1.3011e+002 -2.2239e+001 57844 76928,76980,76954
 2.6000e+000 77032 -3.1235e+001 -8.5291e+001 -1.7156e+001 57844 76928,77006,76980
 2.6000e+000 77533 -4.1552e+001 -1.8589e+002  3.7017e+000 57226 77628,77556,77291
 2.6000e+000 77510 -3.7931e+001 -4.0229e+001  2.3254e+001 57226 77556,77187,77343
 2.6000e+000 77487 -8.8664e+000 -1.1388e+002 -2.1049e+001 57226 77628,77291,77265
 2.6000e+000 77464 -3.4079e+001 -2.2964e+002  5.3387e+001 57226 77700,77213,77187
 2.6000e+000 77441 -2.5200e+001 -6.0478e+001 -1.3022e+001 57226 77161,77343,77187
 2.6000e+000 77418 -3.2837e+001 -5.7992e+001 -1.3818e+001 57226 77161,77369,77343
 2.6000e+000 77395 -7.3546e+001 -4.6988e+001  2.0887e+001 57226 77213,77265,77239
 2.6000e+000 77582 -3.1927e+001 -1.4299e+002  2.7210e+001 57226 77317,77291,77556
 2.6000e+000 77605 -5.4609e+001 -1.1238e+002  1.6866e+001 57226 77317,77556,77343
 2.6000e+000 77654  1.3438e+001 -1.1148e+002  4.3256e+001 57226 77187,77556,77628
 2.6000e+000 77677 -2.7644e+001 -2.0826e+002  5.0305e+001 57226 77700,77187,77628
 2.6000e+000 77726 -5.3976e+001 -2.4807e+002 -3.1784e+001 57226 77265,77213,77700
 2.6000e+000 77749 -2.3067e+001 -1.7148e+002 -3.1208e+001 57226 77265,77700,77628
 2.6000e+000 78046 -1.5731e+001 -9.5129e+001  3.0171e+001 56936 77798,77850,77824
 2.6000e+000 78023 -4.4423e+000 -8.6492e+001  3.1177e+001 56936 78069,77798,77902
 2.6000e+000 78000  2.8557e+001 -9.0464e+001  3.7924e+001 56936 78069,77902,77876
 2.6000e+000 77977 -1.0341e+001 -8.8473e+001  3.3632e+001 56936 77798,77928,77902
 2.6000e+000 77954 -1.5638e+001 -2.3034e+000  5.3796e+001 56936 77772,77928,77798
 2.6000e+000 78095 -1.5117e+001 -8.9423e+001  3.1485e+001 56936 77850,77798,78069
 2.6000e+000 78118  2.2457e-001 -1.0304e+002  4.0312e+001 56936 77850,78069,77876
 2.6000e+000 78754  2.5596e+001 -4.5752e+001 -2.3041e+001 56475 78777,78486,78408
 2.6000e+000 78731  1.8964e+001 -4.5844e+001 -2.3679e+001 56475 78777,78408,78382
 2.6000e+000 78708  9.7548e+000 -7.3581e+001 -3.7141e+001 56475 78849,78512,78486
 2.6000e+000 78685  1.5251e+001 -1.3401e+001 -1.6973e+001 56475 78382,78590,78564
 2.6000e+000 78662  2.2813e+000 -8.4519e+001 -3.1756e+001 56475 78512,78564,78538
 2.6000e+000 78639  6.6705e+001 -1.1054e+002 -7.3610e+000 56475 78434,78486,78460
 2.6000e+000 78616 -1.4846e+001 -1.2665e+002 -3.2895e+000 56475 78408,78486,78434
 2.6000e+000 78803  1.6993e+001 -6.0895e+001 -2.7036e+001 56475 78849,78486,78777
 2.6000e+000 78826  2.3560e+001 -3.7568e+001 -1.5189e+001 56475 78564,78777,78382
 2.6000e+000 78875  1.3574e+001 -5.1951e+001 -2.6410e+001 56475 78564,78512,78849
 2.6000e+000 78898  1.3831e+001 -4.0641e+001 -1.9059e+001 56475 78564,78849,78777
 2.6000e+000 79276 -1.8586e+001 -4.9297e+001 -3.4493e+000 55964 79299,79080,79028
 2.6000e+000 79253 -9.9549e+000 -4.9429e+001 -3.6973e-001 55964 79299,79028,79132
 2.6000e+000 79230 -2.3979e+001 -1.0054e+002 -5.8942e+000 55964 79028,79080,79054
 2.6000e+000 79207 -9.7010e+000 -1.9610e+001  1.3564e+001 55964 79002,79132,79028
 2.6000e+000 79184  1.8509e-001 -1.4137e+001 -6.1053e-001 55964 79002,79158,79132
 2.6000e+000 79325 -1.4223e+001 -4.7645e+001  1.9159e+000 55964 79106,79080,79299
 2.6000e+000 79348 -5.3669e+000 -4.8481e+001  4.5992e+000 55964 79106,79299,79132
 2.6000e+000 79498 -1.2829e+001 -6.9092e+001  8.3860e+000 55452 79397,79449,79423
 2.6000e+000 79475 -2.3077e+001 -3.7330e+001  3.9354e+000 55452 79371,79449,79397
 2.6000e+000 79795 -2.3653e+001 -7.8295e+001  6.6436e+000 55048 79962,79818,79573
 2.6000e+000 79772 -2.0040e+001 -7.5378e+001  1.4318e+000 55048 79818,79521,79677
 2.6000e+000 79749 -2.6638e-001 -1.0430e+002  2.1896e+001 55048 79599,79651,79625
 2.6000e+000 79726 -2.5823e+001 -9.0989e+001  1.5446e+001 55048 79890,79651,79599
 2.6000e+000 79703 -1.9249e+001 -7.5164e+001  1.1047e+001 55048 79962,79573,79547
 2.6000e+000 79844 -2.1900e+001 -7.7286e+001  7.2428e+000 55048 79599,79573,79818
 2.6000e+000 79867 -2.4697e+001 -8.4105e+001  8.5658e+000 55048 79890,79599,79818
 2.6000e+000 79916 -1.4742e+001 -8.5126e+001  9.1846e+000 55048 79677,79651,79890
 2.6000e+000 79939 -1.5714e+001 -8.2187e+001  2.7534e+000 55048 79677,79890,79818
 2.6000e+000 79988 -2.8395e+001 -8.1385e+001  4.6150e+000 55048 79521,79818,79962
 2.6000e+000 80011 -2.7829e+001 -8.1051e+001  8.2935e+000 55048 79521,79962,79547
 2.6000e+000 80212 -2.4890e+001 -9.3451e+001  4.5158e+001 54436 80235,80088,80036
 2.6000e+000 80189 -2.0596e+001 -8.4383e+001  4.1536e+001 54436 80235,80036,80140
 2.6000e+000 80166 -1.4261e+001 -1.4813e+002 -4.8481e-001 54436 80036,80088,80062
 2.6000e+000 80261 -2.0217e+001 -1.0460e+002  4.9690e+001 54436 80114,80088,80235
 2.6000e+000 80284 -1.4785e+001 -9.5993e+001  4.5247e+001 54436 80114,80235,80140
 2.6000e+000 80534  2.9009e+001 -6.0995e+001  1.4901e+001 54032 80557,80361,80335
 2.6000e+000 80511  1.2512e+001 -7.3726e+001  2.0975e+001 54032 80557,80335,80309
 2.6000e+000 80488 -3.2657e+000 -6.1023e+001  1.6683e+001 54032 80629,80413,80387
 2.6000e+000 80465 -5.9710e+000 -7.3089e+001  1.9147e+001 54032 80309,80439,80413
 2.6000e+000 80583  1.8320e+001 -3.7370e+001  1.7993e+000 54032 80387,80361,80557
 2.6000e+000 80606 -1.9604e+000 -6.0126e+001  1.0318e+001 54032 80629,80387,80557
 2.6000e+000 80655  4.2148e+000 -5.7254e+001  1.4005e+001 54032 80309,80413,80629
 2.6000e+000 80678  8.3161e+000 -5.7132e+001  8.6100e+000 54032 80309,80629,80557
 2.6000e+000 81139  6.7805e+000 -3.4060e+001  2.2182e+001 53784 80865,80995,80917
 2.6000e+000 81116 -3.8276e+000 -3.0272e+001  2.4746e+000 53784 80865,81021,80995
 2.6000e+000 81093 -2.2179e+001 -1.0318e+002  4.0133e+001 53784 80943,80995,80969
 2.6000e+000 81070 -2.3662e+001 -4.3595e+001  1.6721e+001 53784 80917,80995,80943
 2.6000e+000 81047  6.8239e+000 -2.7971e+002  2.7546e+000 53784 80865,80917,80891
 2.6000e+000 81468 -9.2858e+000 -6.7115e+001  2.2024e+001 53230 81295,81373,81347
 2.6000e+000 81445  3.4009e+000 -8.3063e+001  3.1663e+001 53230 81243,81373,81295
 2.6000e+000 81422 -3.7229e+001 -1.0636e+002  4.4913e+000 53230 81243,81295,81269
 2.6000e+000 81399  2.7124e+000 -4.7747e+001 -1.6474e+001 53230 81295,81347,81321
 2.6000e+000 81618 -1.3380e+000 -2.0567e+000 -3.9453e-001 52790 81491,81543,81517
 2.6000e+000 81595 -1.9740e+000 -3.3131e+001  4.0178e+000 52790 81491,81569,81543
 2.6000e+000 82126  6.4840e+001  1.4308e+001 -3.0422e+001 52386 82149,81907,81881
 2.6000e+000 82103  4.3482e+001 -2.6645e+001 -1.7486e+001 52386 82149,81881,81855
 2.6000e+000 82080  4.7699e+001 -2.2063e+001 -2.0416e+000 52386 82221,81803,81985
 2.6000e+000 82057 -1.2988e+001 -3.0438e+001 -2.7462e+001 52386 81803,81855,81829
 2.6000e+000 82034  2.6630e+001 -4.6526e+001 -2.1067e+001 52386 81907,81985,81933
 2.6000e+000 82011  5.6418e+000 -3.5003e+001 -2.6751e+001 52386 81933,81985,81959
 2.6000e+000 82175  3.0487e+001 -2.3353e+001 -1.1767e+001 52386 81985,81907,82149
 2.6000e+000 82198  4.7311e+001 -2.4534e+001 -4.2475e+000 52386 82221,81985,82149
 2.6000e+000 82247  4.6641e+001 -2.6336e+001 -3.1844e+000 52386 81855,81803,82221
 2.6000e+000 82270  4.7231e+001 -2.8599e+001 -4.8076e+000 52386 81855,82221,82149
 2.6000e+000 82825 -4.3109e+001 -8.6940e+001  1.3595e+001 51782 82505,82661,82635
 2.6000e+000 82802 -7.6597e+001 -1.2823e+002 -3.6296e+000 51782 82479,82661,82505
 2.6000e+000 82779 -3.1238e+001 -1.2893e+002 -4.4494e+001 51782 82557,82635,82609
 2.6000e+000 82756 -3.0826e+001 -1.2576e+002 -2.3395e+000 51782 82531,82635,82557
 2.6000e+000 82733 -5.1194e+001 -1.0396e+002 -8.9004e+000 51782 82505,82635,82531
 2.6000e+000 82710 -1.2280e+001 -7.5581e+001  2.6171e+001 51782 82453,82661,82479
 2.6000e+000 82687 -3.0577e+000 -8.3225e+001 -2.7875e+001 51782 82557,82609,82583
 2.6000e+000 83171 -1.9236e+001 -8.7089e+001  1.2056e+001 51442 83194,82978,82900
 2.6000e+000 83148 -4.6915e+001 -7.1878e+001  6.3238e+000 51442 83194,82900,82874
 2.6000e+000 83125 -3.5023e+001 -9.3897e+001  1.1554e+001 51442 82900,82978,82926
 2.6000e+000 83102 -2.8657e+001 -6.8996e+001  3.6723e+000 51442 82874,83030,83004
 2.6000e+000 83079 -8.3776e+000 -8.5691e+001  1.0166e+001 51442 82926,82978,82952
 2.6000e+000 83056 -1.5655e+001 -6.1696e+001  7.0502e+000 51442 82848,83030,82874
 2.6000e+000 83220  2.2990e+000 -8.1537e+001  9.4352e+000 51442 83004,82978,83194
 2.6000e+000 83243 -2.9001e+001 -6.8866e+001  3.0141e+000 51442 83004,83194,82874
 2.6000e+000 83751 -2.7375e+001 -2.6395e+001 -2.5110e+000 50938 83428,83584,83454
 2.6000e+000 83728 -1.4136e+001 -2.1375e+001  1.4955e+000 50938 83428,83610,83584
 2.6000e+000 83705 -2.0280e+001 -5.2648e+001 -5.1126e+000 50938 83454,83584,83558
 2.6000e+000 83682 -2.0444e+001 -5.1976e+001 -4.2112e-001 50938 83454,83532,83480
 2.6000e+000 83659 -2.8658e+001 -5.4365e+001  1.9520e+000 50938 83454,83558,83532
 2.6000e+000 83636 -2.9037e+001 -6.3997e+001 -5.3761e+000 50938 83480,83532,83506
 2.6000e+000 84355 -2.5149e+001 -1.4320e+002  1.9265e+001 50377 84378,83960,83934
 2.6000e+000 84332 -6.8963e+000 -1.0038e+002  1.8353e+001 50377 84522,84378,83934
 2.6000e+000 84309 -1.9540e+001 -9.0373e+001  1.2957e+001 50377 84450,84038,84012
 2.6000e+000 84286 -1.9117e+001 -8.1744e+001  1.7001e+001 50377 84522,83934,84142
 2.6000e+000 84263 -1.4535e+001 -9.0343e+001  1.1691e+001 50377 84594,84090,84038
 2.6000e+000 84240 -7.3364e+001 -1.1805e+002  1.2932e+001 50377 83960,84012,83986
 2.6000e+000 84217 -2.7643e+001 -8.3242e+001  1.3785e+001 50377 83934,84168,84142
 2.6000e+000 84194 -8.6329e+000 -5.8826e+001  3.2924e+001 50377 84038,84090,84064
 2.6000e+000 84404 -4.5556e+001 -1.2642e+002 -7.5843e+000 50377 84012,83960,84378
 2.6000e+000 84427 -1.3675e+001 -9.0400e+001  6.0001e+000 50377 84450,84012,84378
 2.6000e+000 84476 -2.2157e+001 -9.3295e+001  8.6641e+000 50377 84594,84038,84450
 2.6000e+000 84499 -1.8682e+001 -1.2217e+002  1.1079e+000 50377 84116,84450,84378
 2.6000e+000 84548 -1.2270e+001 -1.2452e+002  9.5153e+000 50377 84116,84378,84522
 2.6000e+000 84571 -2.1415e+001 -1.0170e+002  7.9795e+000 50377 84116,84522,84142
 2.6000e+000 84620 -3.2383e-001 -9.6914e+001  1.5119e+001 50377 84116,84090,84594
 2.6000e+000 84643 -6.2705e+000 -9.8359e+001  1.2363e+001 50377 84116,84594,84450
 2.6000e+000 84842 -2.2943e+001 -1.0282e+002  3.8287e+000 49923 84865,84692,84666
 2.6000e+000 84819 -2.8492e+001 -9.4322e+001 -8.3758e+000 49923 84865,84666,84770
 2.6000e+000 84796 -3.8129e+000 -1.4490e+002 -9.3359e+000 49923 84692,84744,84718
 2.6000e+000 84891 -2.7336e+001 -1.1136e+002  2.2775e+000 49923 84744,84692,84865
 2.6000e+000 84914 -3.6016e+001 -1.0935e+002 -1.0878e+001 49923 84744,84865,84770
 2.6000e+000 85501 -2.7004e+001 -1.0333e+002  1.3114e+001 49618 85524,85282,85204
 2.6000e+000 85478 -2.8811e+001 -1.0462e+002  1.2352e+001 49618 85596,85524,85204
 2.6000e+000 85455 -3.0994e+001 -1.0933e+002  1.1065e+001 49618 85596,85204,85178
 2.6000e+000 85432 -5.1644e+001 -1.2898e+002  2.4055e+001 49618 85204,85282,85256
 2.6000e+000 85409 -4.0421e+001 -1.5655e+002  1.2479e+001 49618 85282,85334,85308
 2.6000e+000 85386 -5.5512e+001 -1.5452e+002 -4.8129e+000 49618 85204,85256,85230
 2.6000e+000 85550 -2.9742e+001 -1.0833e+002  1.4585e+001 49618 85334,85282,85524
 2.6000e+000 85573 -1.6647e+001 -1.0192e+002  1.8073e+001 49618 85334,85524,85360
 2.6000e+000 85622 -2.5173e+001 -1.1151e+002  1.3411e+001 49618 85360,85524,85596
 2.6000e+000 85645 -2.5872e+001 -1.1429e+002  1.2376e+001 49618 85360,85596,85178
 2.6000e+000 85795 -4.7223e+001 -1.5740e+002 -1.3988e+001 49278 85694,85746,85720
 2.6000e+000 85772 -5.4701e+001 -2.9180e+002 -8.8904e+000 49278 85668,85746,85694
 2.6000e+000 86197 -3.3430e+001 -1.8990e+002 -2.0540e+001 48916 86001,86079,86027
 2.6000e+000 86174  4.5901e+000 -8.8845e+001 -1.6626e+001 48916 85949,86079,86001
 2.6000e+000 86151  1.0590e+001 -1.9208e+002 -7.3792e+000 48916 85949,86001,85975
 2.6000e+000 86128 -4.3933e+001 -2.1942e+002 -2.0329e+001 48916 86027,86079,86053
 2.6000e+000 86105 -2.8817e+000 -5.9695e+001  1.1262e+001 48916 85923,86079,85949
 2.6000e+000 86477 -4.8008e+000 -5.4180e+001  3.0071e+000 48398 86327,86379,86353
 2.6000e+000 86454 -2.0632e+000 -5.8049e+001  5.4626e+000 48398 86500,86379,86327
 2.6000e+000 86431 -1.6038e+000 -4.4701e+001  7.3934e+000 48398 86301,86405,86379
 2.6000e+000 86526 -2.4077e+001 -5.5721e+001  1.1121e+001 48398 86301,86379,86500
 2.6000e+000 87032  1.1127e-001 -9.3813e+001 -2.2620e+001 48008 87127,87055,86787
 2.6000e+000 87009  6.3560e-001 -1.2803e+002  8.9364e-001 48008 87055,86735,86709
 2.6000e+000 86986 -2.1491e+001 -8.0673e+001 -1.8954e+001 48008 87127,86787,86761
 2.6000e+000 86963 -6.7480e+000 -5.4040e+001 -8.6627e+000 48008 86787,86865,86839
 2.6000e+000 86940  1.8211e+001 -5.3467e+001  1.6388e+001 48008 86709,86891,86865
 2.6000e+000 86917 -4.2646e+001 -6.2028e+001 -7.9711e+000 48008 86787,86839,86813
 2.6000e+000 87081 -1.2357e+001 -8.9356e+001 -8.0820e+000 48008 86865,86787,87055
 2.6000e+000 87104  1.0399e+001 -5.9470e+001  1.9229e+001 48008 86865,87055,86709
 2.6000e+000 87153 -2.6497e+001 -1.1426e+002 -3.1624e+001 48008 86735,87055,87127
 2.6000e+000 87176 -5.9627e+001 -9.7380e+001 -2.5705e+001 48008 86735,87127,86761
 2.6000e+000 87456  5.1275e+000 -6.8997e+001  5.9094e+000 47604 87306,87358,87332
 2.6000e+000 87433  3.9085e+001 -5.0611e+001 -1.1232e+000 47604 87306,87384,87358
 2.6000e+000 87410  1.0071e+001 -6.3242e+001 -4.5424e+000 47604 87280,87384,87306
 2.6000e+000 87785  1.2252e+001 -6.2173e+001  1.9701e+001 47264 87638,87690,87664
 2.6000e+000 87762 -6.4284e+000 -1.1264e+002  3.2459e+001 47264 87612,87690,87638
 2.6000e+000 87739 -9.4534e+000 -1.4025e+002  3.9430e+001 47264 87560,87690,87612
 2.6000e+000 87716  8.8354e+000 -1.4843e+002  1.9464e+001 47264 87560,87612,87586
 2.6000e+000 87935  4.0104e+001  1.5443e+001  7.2927e+000 46952 87808,87860,87834
 2.6000e+000 87912 -2.3670e-001 -9.5740e+001  1.9130e+000 46952 87808,87886,87860
 2.6000e+000 88281 -1.1197e+001 -8.0046e+001  6.8757e+000 46526 88304,88114,88036
 2.6000e+000 88258 -4.7937e+000 -7.3639e+001  9.6068e+000 46526 88304,88036,87984
 2.6000e+000 88235 -1.8109e+001 -8.0836e+001  7.7931e-001 46526 88036,88114,88062
 2.6000e+000 88212 -7.7868e+000 -6.4992e+001  8.7470e+000 46526 87958,88140,87984
 2.6000e+000 88189 -7.0152e+000 -7.9606e+001  1.8205e+001 46526 87984,88036,88010
 2.6000e+000 88166 -8.0097e+000 -5.6631e+001  1.3891e+001 46526 88062,88114,88088
 2.6000e+000 88330 -1.8148e+001 -7.2585e+001  6.3664e+000 46526 88140,88114,88304
 2.6000e+000 88353 -1.3860e+001 -6.7667e+001  8.2611e+000 46526 88140,88304,87984
 2.6000e+000 88701  3.1803e+001 -4.8475e+001  2.3854e+001 45822 88724,88378,88534
 2.6000e+000 88678  3.5425e+001 -1.9784e+001  2.6090e+001 45822 88378,88560,88534
 2.6000e+000 88655 -2.0882e+000 -5.7492e+001  1.7292e+001 45822 88724,88534,88508
 2.6000e+000 88632 -3.0571e+001 -7.6600e+001  1.1042e+000 45822 88404,88508,88456
 2.6000e+000 88609 -2.7683e+001 -7.1280e+001 -1.1739e+000 45822 88404,88456,88430
 2.6000e+000 88586 -9.6004e+000 -3.7527e+001 -1.9795e+001 45822 88456,88508,88482
 2.6000e+000 88750  4.7686e+000 -4.8298e+001  5.4123e+000 45822 88404,88378,88724
 2.6000e+000 88773 -2.1768e+001 -5.2439e+001 -1.1496e+000 45822 88404,88724,88508
 2.6000e+000 89106 -5.9027e+001 -9.2822e+001  2.4846e+001 45418 88881,88985,88907
 2.6000e+000 89083 -5.9626e+001 -1.1029e+002  2.9296e+001 45418 88881,89011,88985
 2.6000e+000 89060  3.7757e+001 -4.8997e+001  4.1313e+001 45418 88907,88985,88933
 2.6000e+000 89037 -4.5097e+001 -8.5223e+001  2.9118e+000 45418 88933,88985,88959
 2.6000e+000 89435 -1.7351e+001 -7.4138e+001  2.8576e+001 44914 89210,89288,89236
 2.6000e+000 89412 -4.1142e+001 -1.0623e+002  4.1541e+001 44914 89210,89314,89288
 2.6000e+000 89389 -8.3749e+000 -6.3690e+001  2.1731e+001 44914 89210,89340,89314
 2.6000e+000 89366 -1.0337e+001 -7.5065e+001  3.4766e+001 44914 89236,89288,89262
 2.6000e+000 89634 -7.4463e+000 -6.3406e+001  3.3303e+001 44538 89510,89562,89536
 2.6000e+000 89611 -1.6637e+001 -4.1223e+001  1.1084e+001 44538 89458,89562,89510
 2.6000e+000 89588 -1.7956e+001 -6.5048e+001  1.2586e+001 44538 89458,89510,89484
 2.6000e+000 90044  1.7455e+000 -5.8778e+001  2.4168e+000 44134 89819,89923,89845
 2.6000e+000 90021 -2.0449e+001 -3.9765e+001 -4.4246e+001 44134 89819,89949,89923
 2.6000e+000 89998 -1.4632e+001 -5.3403e+001  1.1052e+001 44134 89845,89923,89897
 2.6000e+000 89975 -4.0843e+001 -9.6437e+001 -3.6939e+000 44134 89845,89897,89871
 2.6000e+000 90520 -2.9591e+000 -1.1537e+002 -9.0011e+000 43457 90543,90252,90226
 2.6000e+000 90497 -2.4332e+001 -1.1873e+002 -8.5836e+000 43457 90543,90226,90330
 2.6000e+000 90474 -3.1529e+001 -1.3410e+002 -1.1273e+001 43457 90200,90330,90226
 2.6000e+000 90451 -4.0915e+001 -1.0233e+002  4.0626e+001 43457 90200,90356,90330
 2.6000e+000 90428  3.6246e+001 -6.6701e+001 -2.7172e+001 43457 90252,90304,90278
 2.6000e+000 90405 -3.9158e+001 -1.4062e+002  3.9909e+001 43457 90174,90356,90200
 2.6000e+000 90382 -2.9554e+001 -3.1704e+001  7.1213e+001 43457 90148,90356,90174
 2.6000e+000 90569  1.5925e+001 -1.2204e+002 -2.7359e+001 43457 90304,90252,90543
 2.6000e+000 90592 -1.7992e+001 -1.3128e+002 -3.0983e+001 43457 90304,90543,90330
 2.6000e+000 91098 -7.9442e+000 -6.2711e+001 -5.6707e+000 42789 90801,90905,90853
 2.6000e+000 91075 -2.4840e+001 -7.7037e+001  1.6371e+000 42789 90775,90905,90801
 2.6000e+000 91052 -2.0253e+001 -8.0000e+001  1.1893e+001 42789 90775,90931,90905
 2.6000e+000 91029 -2.1320e+001 -1.1386e+002  3.1310e+000 42789 90801,90853,90827
 2.6000e+000 91006  1.1621e+001 -5.6358e+001  4.4679e+000 42789 90853,90905,90879
 2.6000e+000 90983 -1.9715e+001 -7.5779e+001  1.1337e+001 42789 90775,90957,90931
 2.6000e+000 91427 -4.5204e+001 -1.0110e+002 -1.4367e+001 42227 91228,91280,91254
 2.6000e+000 91404 -7.5073e+000 -1.0782e+002 -1.0831e+001 42227 91228,91306,91280
 2.6000e+000 91381 -3.8360e+001 -1.1538e+002  8.2778e+000 42227 91202,91306,91228
 2.6000e+000 91358 -2.4470e+000 -7.0078e+001 -1.0625e+001 42227 91202,91332,91306
 2.6000e+000 91675 -1.2626e+001 -7.7703e+001  1.9296e+001 41773 91698,91476,91450
 2.6000e+000 91652 -4.7586e+000 -7.1024e+001  3.5500e+001 41773 91698,91450,91554
 2.6000e+000 91629 -2.9044e+001 -6.0302e+001  3.9905e+001 41773 91450,91580,91554
 2.6000e+000 91606 -9.9017e+000 -8.5881e+001  2.4006e+001 41773 91502,91554,91528
 2.6000e+000 91724 -2.6232e+001 -8.0463e+001  1.2575e+001 41773 91502,91476,91698
 2.6000e+000 91747 -2.1173e+001 -7.4752e+001  2.8908e+001 41773 91502,91698,91554
 2.6000e+000 92127 -9.3019e-001 -1.7538e+002 -3.0650e+000 41255 92150,91905,91879
 2.6000e+000 92104 -1.1704e+001 -1.5699e+002  8.2867e-001 41255 92150,91879,91957
 2.6000e+000 92081 -5.7166e+001 -1.9933e+002  2.3339e+001 41255 91853,91957,91879
 2.6000e+000 92058 -5.9124e+001 -2.0956e+002  4.8515e+001 41255 91853,91983,91957
 2.6000e+000 92035  1.4431e+001 -2.4481e+002  5.4721e+001 41255 91853,92009,91983
 2.6000e+000 92176 -6.8192e+000 -1.9055e+002 -1.3779e+001 41255 91931,91905,92150
 2.6000e+000 92199 -1.5034e+001 -1.6365e+002 -1.2272e+001 41255 91931,92150,91957
 2.6000e+000 92518 -1.0155e+002 -2.5479e+002 -1.8776e+001 41007 92244,92374,92270
 2.6000e+000 92495 -1.7190e+002 -3.0665e+002  3.9409e+000 41007 92244,92400,92374
 2.6000e+000 92472 -8.6844e+001 -2.2363e+002 -2.7306e+000 41007 92270,92374,92348
 2.6000e+000 92449 -8.0794e+001 -1.4246e+002  3.5230e+000 41007 92296,92348,92322
 2.6000e+000 92426 -8.0525e+001 -1.6451e+002 -1.0227e+001 41007 92270,92348,92296
 2.6000e+000 92668 -2.4758e+001 -1.2036e+002 -1.4790e+001 40717 92823,92691,92567
 2.6000e+000 92645 -4.3183e+001 -9.3522e+001 -1.6624e+001 40717 92895,92823,92567
 2.6000e+000 92717  5.5349e+001 -8.6720e+001 -1.9793e+001 40717 92593,92567,92691
 2.6000e+000 92849  2.0297e+001 -9.0878e+001 -3.2627e+001 40717 92619,92691,92823
 2.6000e+000 92872 -2.4642e+001 -8.9022e+001 -1.2819e+001 40717 92619,92823,92541
 2.6000e+000 92921 -3.5854e+001 -1.0054e+002 -5.3431e+000 40717 92541,92823,92895
 2.6000e+000 93634 -6.6215e+001 -2.7459e+002 -1.5956e+001 40206 93366,93444,93418
 2.6000e+000 93611 -2.6682e+001 -1.0943e+002 -1.6334e+001 40206 93288,93444,93366
 2.6000e+000 93588 -9.3616e+001 -2.0029e+002  1.3483e+001 40206 93288,93366,93314
 2.6000e+000 93565 -6.3116e+001 -1.1287e+002  7.9251e-001 40206 93262,93444,93288
 2.6000e+000 93542 -2.7899e+001 -2.2883e+002  7.1511e+000 40206 93366,93418,93392
 2.6000e+000 93519 -5.7013e+001 -1.3724e+002  3.2491e+000 40206 93262,93470,93444
 2.6000e+000 93496 -2.8418e+000 -1.6222e+002  3.1903e+001 40206 93314,93366,93340
 2.6000e+000 94189 -1.2208e+001 -4.4028e+001  7.3546e+000 39802 93843,93999,93973
 2.6000e+000 94166  4.1435e+001 -1.2970e+001 -1.2512e+001 39802 93817,93999,93843
 2.6000e+000 94143 -7.3360e+000 -3.3571e+001 -9.8666e+000 39802 93869,93973,93947
 2.6000e+000 94120  1.0802e+001 -3.1493e+001 -1.1816e+000 39802 93843,93973,93869
 2.6000e+000 94097  4.4376e+001 -3.4159e+001  7.5624e+000 39802 93869,93921,93895
 2.6000e+000 94074  4.3382e+001 -4.0558e+001 -2.3937e+001 39802 93869,93947,93921
 2.6000e+000 94051 -2.9328e+001 -4.5185e+001  1.5053e+001 39802 93817,94025,93999
 2.6000e+000 94290 -6.3524e+000 -4.3548e+001 -1.1204e+001 39398 94212,94264,94238
 2.6000e+000 94798 -1.5342e+001 -8.9191e+001 -4.9685e+000 38701 94501,94657,94631
 2.6000e+000 94775 -2.6536e+001 -7.4323e+001  5.6049e+000 38701 94475,94657,94501
 2.6000e+000 94752  8.6002e+000 -1.0301e+002 -1.6240e+001 38701 94579,94631,94605
 2.6000e+000 94729 -2.8355e+001 -1.5540e+002 -3.7166e+001 38701 94553,94631,94579
 2.6000e+000 94706 -3.9321e+001 -1.4578e+002  9.0771e+000 38701 94501,94631,94553
 2.6000e+000 94683 -2.2827e+001 -2.8080e+002 -2.2126e-001 38701 94501,94553,94527
 2.6000e+000 95255 -4.6589e+001 -1.2420e+002 -2.1356e+000 38247 95278,95085,95007
 2.6000e+000 95232 -3.5801e+001 -1.1848e+002  1.4874e-001 38247 95278,95007,95137
 2.6000e+000 95209 -2.7135e+001 -9.8710e+001  2.8404e+000 38247 94981,95137,95007
 2.6000e+000 95186 -5.4803e+001 -1.0463e+002 -1.9809e+001 38247 95007,95059,95033
 2.6000e+000 95163 -4.8142e+001 -8.7810e+001 -1.7446e+001 38247 95007,95085,95059
 2.6000e+000 95304 -4.7931e+001 -1.1920e+002  6.5383e+000 38247 95111,95085,95278
 2.6000e+000 95327 -3.9716e+001 -1.1600e+002  7.8829e+000 38247 95111,95278,95137
 2.6000e+000 95575 -1.6788e+001 -1.9187e+001 -2.5350e+000 37564 95376,95428,95402
 2.6000e+000 95552 -1.1904e+001 -2.9478e+001 -3.8363e+000 37564 95376,95454,95428
 2.6000e+000 95529  4.7842e-004 -2.2137e+001  3.9981e-001 37564 95376,95480,95454
 2.6000e+000 95506  1.0093e+001 -4.7744e+001 -5.2011e+000 37564 95350,95480,95376
 2.6000e+000 96034 -5.8932e+001 -1.8434e+002  7.7719e-001 37224 95786,95838,95812
 2.6000e+000 96011 -4.7962e+001 -1.4643e+002 -6.7125e+000 37224 95786,95890,95838
 2.6000e+000 95988 -6.3264e+001 -1.5213e+002 -1.3902e+000 37224 95786,95916,95890
 2.6000e+000 95965  2.6374e+001 -1.1569e+002 -4.1416e+000 37224 95760,95916,95786
 2.6000e+000 95942 -1.1143e+001 -1.5200e+002 -2.7773e+001 37224 95838,95890,95864
 2.6000e+000 96363 -5.9062e+000 -2.4258e+001 -6.9341e+000 36884 96216,96268,96242
 2.6000e+000 96340  8.3922e+000 -2.4647e+001 -6.7653e+000 36884 96164,96268,96216
 2.6000e+000 96317  1.4276e+001 -2.7325e+001 -2.1358e+000 36884 96138,96268,96164
 2.6000e+000 96294 -8.3295e+000 -5.7236e+001  3.5528e+000 36884 96164,96216,96190
 2.6000e+000 96839 -2.0294e+001 -1.4437e+002  9.1463e-001 36572 96862,96649,96597
 2.6000e+000 96816 -2.6723e+001 -1.3011e+002  3.1883e+000 36572 97006,96862,96597
 2.6000e+000 96793 -2.9377e+001 -1.1202e+002 -1.2153e+001 36572 96934,96467,96675
 2.6000e+000 96770 -2.7706e+001 -1.2840e+002  1.0904e+000 36572 97006,96597,96571
 2.6000e+000 96747 -5.9662e+001 -1.8150e+002 -2.2013e+000 36572 96467,96519,96493
 2.6000e+000 96724 -2.1452e+001 -1.0583e+002  1.7690e+000 36572 96519,96571,96545
 2.6000e+000 96701 -3.2130e+001 -1.3323e+002 -1.8928e+001 36572 96597,96649,96623
 2.6000e+000 96888 -3.8868e+001 -1.6124e+002 -2.3004e+001 36572 96675,96649,96862
 2.6000e+000 96911 -2.4922e+001 -1.3276e+002 -1.3978e+001 36572 96934,96675,96862
 2.6000e+000 96960 -3.9189e+001 -1.2970e+002 -7.2848e+000 36572 96519,96467,96934
 2.6000e+000 96983 -2.8652e+001 -1.4630e+002 -6.9366e+000 36572 97078,96934,96862
 2.6000e+000 97032 -2.9453e+001 -1.4064e+002  1.7058e+000 36572 97078,96862,97006
 2.6000e+000 97055 -2.5938e+001 -1.2926e+002  3.0719e+000 36572 96519,97006,96571
 2.6000e+000 97104 -2.3119e+001 -1.3278e+002 -5.3968e+000 36572 96519,96934,97078
 2.6000e+000 97127 -2.6135e+001 -1.2836e+002  1.5905e+000 36572 96519,97078,97006
 2.6000e+000 97761 -2.9269e+001 -1.2769e+002 -2.2452e+001 36118 97784,97493,97415
 2.6000e+000 97738 -1.0383e+001 -1.3843e+002 -9.6153e+000 36118 97784,97415,97597
 2.6000e+000 97715  2.0845e+001 -1.3660e+002 -2.5098e+001 36118 97389,97597,97415
 2.6000e+000 97692 -1.6452e+001 -1.4099e+002  1.6637e-001 36118 97415,97467,97441
 2.6000e+000 97669 -3.4627e+001 -1.3356e+002 -1.9633e+001 36118 97415,97493,97467
 2.6000e+000 97646 -3.7585e+001 -9.4930e+001 -6.5682e-001 36118 97493,97571,97519
 2.6000e+000 97623 -2.5366e+001 -1.0647e+002  2.1056e+001 36118 97519,97571,97545
 2.6000e+000 97810 -1.6567e+001 -1.2046e+002 -1.4262e+001 36118 97571,97493,97784
 2.6000e+000 97833  1.5050e+001 -1.2108e+002  2.6304e-001 36118 97571,97784,97597
 2.6000e+000 98081 -4.4761e+001 -1.4550e+002  1.3824e+000 35564 98104,97908,97856
 2.6000e+000 98058 -4.2999e+001 -1.5025e+002 -4.7982e-001 35564 98104,97856,97986
 2.6000e+000 98035 -1.1510e+001 -1.4480e+002  1.8475e+001 35564 97934,97986,97960
 2.6000e+000 98012 -4.2773e+001 -1.4068e+002  1.0931e+000 35564 97856,97908,97882
 2.6000e+000 98130 -3.8880e+001 -1.3083e+002  4.5396e+000 35564 97934,97908,98104
 2.6000e+000 98153 -4.4683e+001 -1.4566e+002  1.2789e+000 35564 97934,98104,97986
 2.6000e+000 98374 -8.1508e+001 -1.4408e+002  2.2579e+000 35152 98224,98302,98276
 2.6000e+000 98351 -8.8324e+001 -1.6399e+002  8.2764e+000 35152 98198,98302,98224
 2.6000e+000 98328 -9.3809e+001 -1.4808e+002  4.6381e+000 35152 98224,98276,98250
 2.6000e+000 98884 -1.0124e+000 -7.1830e+001 -2.4178e+001 34698 98691,98743,98717
 2.6000e+000 98861 -7.9246e+000 -8.7030e+001 -2.7001e+001 34698 98561,98743,98691
 2.6000e+000 98838 -2.0468e+001 -9.9319e+001 -2.1843e+001 34698 98907,98587,98561
 2.6000e+000 98815 -2.3973e+001 -1.0618e+002 -2.0096e+001 34698 98907,98561,98691
 2.6000e+000 98792 -4.8352e+001 -1.2988e+002  3.1299e+000 34698 98587,98639,98613
 2.6000e+000 98769 -5.0797e+000 -6.7566e+001 -2.6701e+001 34698 98587,98665,98639
 2.6000e+000 98933 -2.0318e+001 -1.0235e+002 -1.5016e+001 34698 98665,98587,98907
 2.6000e+000 98956 -2.5657e+001 -1.1300e+002 -1.3019e+001 34698 98665,98907,98691
 2.6000e+000 99204  1.2156e+001 -1.0446e+002 -6.6487e+000 34144 99227,99031,99005
 2.6000e+000 99181 -9.2436e+000 -1.0947e+002 -8.6923e+000 34144 99299,99227,99005
 2.6000e+000 99158 -1.2401e+001 -1.0897e+002 -5.9329e+000 34144 99299,99005,99109
 2.6000e+000 99135  3.9826e+001 -9.3776e+001  3.5244e+000 34144 98979,99109,99005
 2.6000e+000 99253 -8.1499e-001 -1.0732e+002 -1.6530e+001 34144 99057,99031,99227
 2.6000e+000 99276 -8.1105e+000 -1.0339e+002 -1.8636e+001 34144 99057,99227,99083
 2.6000e+000 99325 -3.3160e+000 -1.0360e+002 -1.7818e+001 34144 99083,99227,99299
 2.6000e+000 99348 -1.4976e+001 -1.0683e+002 -1.5177e+001 34144 99083,99299,99109
 2.6000e+000 99498 -6.2546e+000 -5.3542e+001  1.3877e+001 33433 99397,99449,99423
 2.6000e+000 99475 -2.2527e+001 -2.9761e+001 -7.2723e-001 33433 99371,99449,99397
 2.6000e+000 100008 -2.6939e+001 -9.0512e+001 -1.3425e+001 32979 100103,100031,99815
 2.6000e+000 99985 -2.2979e+001 -1.0180e+002 -1.8291e+001 32979 100175,100031,99763
 2.6000e+000 99962 -1.9647e+001 -1.0230e+002 -2.4059e+001 32979 100103,99815,99789
 2.6000e+000 99939 -2.8483e+001 -1.1647e+002 -1.7259e+001 32979 100175,99763,99737
 2.6000e+000 99916 -2.8296e+001 -1.0498e+002 -9.4343e+000 32979 99685,99867,99737
 2.6000e+000 99893 -3.2379e+001 -1.7590e+002 -3.0112e+001 32979 99685,99737,99711
 2.6000e+000 100057 -2.8653e+001 -9.1537e+001 -1.2599e+001 32979 99841,99815,100031
 2.6000e+000 100080 -1.6283e+001 -5.0201e+001 -2.3077e+001 32979 99841,100031,99867
 2.6000e+000 100129 -2.2016e+001 -1.1582e+002 -1.4092e+001 32979 99763,100031,100103
 2.6000e+000 100152 -2.2925e+001 -1.3604e+002 -2.6686e+001 32979 99763,100103,99789
 2.6000e+000 100201 -2.8698e+001 -9.6096e+001 -1.0853e+001 32979 99867,100031,100175
 2.6000e+000 100224 -3.0664e+001 -1.0278e+002 -1.2246e+001 32979 99867,100175,99737
 2.6000e+000 100553  2.4019e+001 -9.8640e+001 -4.9891e+000 32503 100354,100406,100380
 2.6000e+000 100530 -1.4183e+001 -1.1210e+002 -3.2753e+000 32503 100328,100406,100354
 2.6000e+000 100507 -2.9931e+001 -1.2812e+002  1.3011e+001 32503 100328,100458,100406
 2.6000e+000 100484 -2.7689e+001 -1.5537e+002  1.4877e+001 32503 100406,100458,100432
 2.6000e+000 100850 -5.6693e+001 -1.6269e+002 -1.7914e+001 31899 100873,100654,100628
 2.6000e+000 100827 -4.8510e+001 -1.5210e+002 -1.1200e+001 31899 100945,100873,100628
 2.6000e+000 100804 -4.0315e+001 -1.4325e+002 -7.6649e+000 31899 100945,100628,100602
 2.6000e+000 100781 -4.3304e+001 -1.1816e+002 -1.1495e+001 31899 100576,100732,100602
 2.6000e+000 100758 -7.2240e+001 -1.2519e+002 -7.9085e+001 31899 100654,100706,100680
 2.6000e+000 100899 -3.0360e+001 -1.3561e+002 -2.8674e+001 31899 100706,100654,100873
 2.6000e+000 100922 -7.7213e+001 -1.5419e+002 -2.6876e+001 31899 100706,100873,100732
 2.6000e+000 100971 -6.8666e+001 -1.3564e+002 -1.7294e+001 31899 100732,100873,100945
 2.6000e+000 100994 -5.8675e+001 -1.2481e+002 -1.3053e+001 31899 100732,100945,100602
 2.6000e+000 101551 -4.6776e+001 -1.3962e+002 -4.5343e+000 31338 101205,101387,101231
 2.6000e+000 101528  1.7334e-001 -1.2036e+002  3.2006e+000 31338 101179,101387,101205
 2.6000e+000 101505 -4.9698e+001 -1.0930e+002  6.5887e+000 31338 101574,101309,101257
 2.6000e+000 101482 -5.5071e+001 -1.1985e+002  2.6466e+000 31338 101646,101574,101257
 2.6000e+000 101459 -5.4445e+001 -1.1785e+002  2.5819e+000 31338 101646,101257,101231
 2.6000e+000 101436 -2.5741e+001 -1.7446e+002  1.4134e+001 31338 101309,101361,101335
 2.6000e+000 101413 -2.1661e+001 -1.0165e+002  1.1314e+001 31338 101257,101309,101283
 2.6000e+000 101600 -3.2066e+001 -1.2199e+002 -4.3225e+000 31338 101361,101309,101574
 2.6000e+000 101623 -5.7405e+001 -1.4097e+002 -1.4409e+001 31338 101361,101574,101387
 2.6000e+000 101672 -5.4651e+001 -1.1873e+002  1.2707e+000 31338 101387,101574,101646
 2.6000e+000 101695 -5.4737e+001 -1.1814e+002  1.1042e+000 31338 101387,101646,101231
 2.6000e+000 101943 -1.4504e+001 -1.0655e+002  4.4598e-002 30748 101966,101796,101744
 2.6000e+000 101920 -1.6532e+001 -1.1517e+002 -2.4888e+000 30748 101966,101744,101718
 2.6000e+000 101897 -2.4678e+001 -1.2757e+002  1.3143e+001 30748 101718,101848,101822
 2.6000e+000 101874 -2.5744e+001 -9.8216e+001 -1.2763e+001 30748 101744,101796,101770
 2.6000e+000 101992 -1.2185e+001 -1.1462e+002 -6.7763e-001 30748 101822,101796,101966
 2.6000e+000 102015 -1.3097e+001 -1.2254e+002 -2.0288e+000 30748 101822,101966,101718
 2.6000e+000 102493 -6.2702e+001 -1.4186e+002 -5.5795e+000 30344 102516,102173,102147
 2.6000e+000 102470 -5.4769e+001 -1.2366e+002 -7.2579e+000 30344 102660,102516,102147
 2.6000e+000 102447 -4.3774e+001 -1.3593e+002 -1.3068e+001 30344 102588,102199,102173
 2.6000e+000 102424 -3.3228e+001 -1.2420e+002 -9.7811e+000 30344 102660,102147,102329
 2.6000e+000 102401 -3.7603e+001 -1.3783e+002 -2.9579e+001 30344 102199,102277,102251
 2.6000e+000 102378 -9.6137e+000 -1.1131e+002 -4.3559e+001 30344 102199,102251,102225
 2.6000e+000 102355 -4.7966e-001 -1.0682e+002  8.3847e+000 30344 102121,102329,102147
 2.6000e+000 102542 -4.7421e+001 -1.3496e+002 -1.3123e+001 30344 102588,102173,102516
 2.6000e+000 102565 -8.2606e+001 -1.4471e+002  1.7973e+000 30344 102277,102516,102303
 2.6000e+000 102614 -4.7895e+001 -1.3570e+002 -1.3591e+001 30344 102277,102199,102588
 2.6000e+000 102637 -5.2150e+001 -1.3565e+002 -1.4483e+001 30344 102277,102588,102516
 2.6000e+000 102686 -3.0439e+001 -1.2420e+002  2.8001e+000 30344 102303,102516,102660
 2.6000e+000 102709 -1.7286e+001 -1.3083e+002  1.5451e+000 30344 102303,102660,102329
 2.6000e+000 103294 -1.7021e+001 -1.1715e+002 -1.0518e+001 29726 103317,103101,103075
 2.6000e+000 103271 -1.2147e+001 -1.0315e+002 -8.5438e+000 29726 103317,103075,102997
 2.6000e+000 103248  8.5145e+000 -9.7366e+001 -3.0784e+001 29726 102971,103153,102997
 2.6000e+000 103225 -3.1199e+001 -1.3786e+002 -2.2903e+001 29726 103101,103153,103127
 2.6000e+000 103202 -2.3888e+001 -1.1934e+002 -2.9803e+000 29726 102997,103075,103023
 2.6000e+000 103179  1.8889e+001 -8.2011e+001 -2.4298e+001 29726 103023,103075,103049
 2.6000e+000 103343 -1.8886e+001 -1.0474e+002 -1.2554e+001 29726 103153,103101,103317
 2.6000e+000 103366 -1.8579e+001 -9.7258e+001 -1.2033e+001 29726 103153,103317,102997
 2.6000e+000 103614  5.9990e+000 -8.0277e+001 -9.7251e+000 29200 103781,103637,103467
 2.6000e+000 103591 -2.3725e+001 -8.9145e+001  3.4750e+000 29200 103709,103637,103415
 2.6000e+000 103568 -3.3923e+001 -9.5525e+001 -2.7126e+000 29200 103709,103415,103389
 2.6000e+000 103545 -3.2840e+000 -6.2405e+001 -2.5249e+001 29200 103781,103467,103441
 2.6000e+000 103663  1.4042e+001 -8.9967e+001  4.2027e+000 29200 103853,103637,103493
 2.6000e+000 103686  1.5309e+001 -4.4167e+001  8.7214e+000 29200 103493,103637,103519
 2.6000e+000 103735 -7.2360e+000 -9.8044e+001  8.6174e+000 29200 103519,103637,103709
 2.6000e+000 103758 -1.7023e+001 -1.0190e+002  3.6958e+000 29200 103519,103709,103389
 2.6000e+000 103807 -6.3621e+000 -1.0870e+002 -1.2143e+001 29200 103415,103637,103781
 2.6000e+000 103830 -2.2321e+001 -1.0195e+002 -3.2605e+001 29200 103415,103781,103441
 2.6000e+000 103879 -2.9772e+000 -8.9018e+001 -5.9151e+000 29200 103467,103637,103853
 2.6000e+000 104545 -1.3837e+001 -8.3542e+001 -7.3032e+000 28860 104274,104352,104326
 2.6000e+000 104522 -3.8572e+001 -8.7848e+001 -6.6758e+000 28860 104248,104352,104274
 2.6000e+000 104499 -2.4707e+001 -8.1918e+001 -7.5213e+000 28860 104248,104404,104352
 2.6000e+000 104476 -5.6660e+001 -7.3853e+001 -8.4782e+000 28860 104222,104404,104248
 2.6000e+000 104453 -1.5637e+001 -6.7892e+001 -1.1566e+001 28860 104352,104404,104378
 2.6000e+000 104430 -2.9838e+001 -8.3317e+001 -1.1973e+001 28860 104274,104326,104300
 2.6000e+000 104744  9.3588e+000 -1.2013e+002 -2.9291e+001 28456 104839,104767,104646
 2.6000e+000 104721 -2.3440e+001 -1.5443e+002 -1.5840e+001 28456 104767,104594,104568
 2.6000e+000 104698  3.9197e+001 -9.4693e+001 -1.6705e+001 28456 104839,104646,104620
 2.6000e+000 104793 -7.1117e+000 -1.3254e+002 -2.2397e+001 28456 104672,104646,104767
 2.6000e+000 104816 -5.6683e+001 -1.7992e+002  1.5314e+001 28456 104911,104767,104568
 2.6000e+000 104865 -1.0608e+001 -1.2351e+002 -7.1286e+000 28456 104594,104767,104839
 2.6000e+000 104888  2.9622e+001 -2.1649e+001 -1.2415e+000 28456 105041,104839,104620
 2.6000e+000 104937  1.0160e+001 -8.4808e+001 -1.8141e+001 28456 104672,104767,104911
 2.6000e+000 105067 -2.7816e+001 -1.2424e+002 -2.4838e+001 28456 104594,104839,105041
 2.6000e+000 105573 -3.7090e+001 -1.3710e+002 -8.9233e+000 28094 105812,105596,105328
 2.6000e+000 105550 -4.1668e+001 -1.2374e+002  5.5169e+000 28094 105596,105276,105250
 2.6000e+000 105527 -2.3526e+001 -1.4148e+002 -2.6390e+000 28094 105740,105668,105432
 2.6000e+000 105504 -3.5106e+001 -1.4933e+002  6.9893e+000 28094 105740,105432,105380
 2.6000e+000 105481 -2.6509e+001 -1.4438e+002 -3.1609e+000 28094 105812,105328,105302
 2.6000e+000 105458 -2.0273e+001 -1.6634e+002  9.1423e+000 28094 105380,105432,105406
 2.6000e+000 105622 -1.1152e+001 -1.0112e+002 -2.0273e+001 28094 105354,105328,105596
 2.6000e+000 105645 -2.5472e+001 -1.1075e+002  6.6707e+000 28094 105668,105354,105596
 2.6000e+000 105694 -1.9610e+001 -1.2382e+002 -6.1457e+000 28094 105250,105432,105668
 2.6000e+000 105717 -3.6570e+001 -1.3827e+002  2.3638e+000 28094 105250,105668,105596
 2.6000e+000 105766 -4.5102e+001 -1.4035e+002  1.6095e+001 28094 105354,105668,105740
 2.6000e+000 105789 -5.6120e+001 -1.5409e+002  2.6882e+001 28094 105354,105740,105380
 2.6000e+000 105838 -2.6207e+001 -1.2609e+002 -4.4449e+000 28094 105276,105596,105812
 2.6000e+000 105861  8.2283e+000 -1.2247e+002  8.6284e+000 28094 105276,105812,105302
 2.6000e+000 106367 -3.1987e+001 -1.5873e+002 -1.8880e+001 27390 106070,106122,106096
 2.6000e+000 106344 -3.1932e+001 -1.7550e+002 -1.7511e+001 27390 106070,106226,106122
 2.6000e+000 106321 -1.0797e+001 -1.7219e+002 -1.0295e+001 27390 106174,106226,106200
 2.6000e+000 106298 -1.9364e+001 -1.5785e+002 -9.6817e+000 27390 106122,106226,106174
 2.6000e+000 106275 -3.4576e+001 -1.6117e+002  1.4097e+001 27390 106122,106174,106148
 2.6000e+000 106252 -1.7252e+001 -1.7531e+002 -3.5781e+001 27390 106044,106226,106070
 2.6000e+000 106615 -2.5940e+001 -1.4505e+002 -8.3355e+000 26978 106638,106494,106416
 2.6000e+000 106592 -3.4177e+001 -1.3883e+002 -8.1779e+000 26978 106638,106416,106390
 2.6000e+000 106569 -2.4379e+001 -1.4054e+002  1.5294e+000 26978 106416,106494,106442
 2.6000e+000 106546 -2.1807e+000 -1.5602e+002 -1.3228e+001 26978 106442,106494,106468
 2.6000e+000 106664 -1.1635e+001 -1.3912e+002 -1.1031e+001 26978 106520,106494,106638
 2.6000e+000 106687 -2.7529e+001 -1.3878e+002 -9.5768e+000 26978 106520,106638,106390
 2.6000e+000 106837 -5.7442e-001 -3.9676e+002 -2.8560e+000 26524 106710,106762,106736
 2.6000e+000 106814 -2.6307e+000 -3.4433e+002 -1.7290e+000 26524 106710,106788,106762
 2.6000e+000 107426 -6.0595e+001 -1.2519e+002  2.5260e+001 26120 107129,107207,107155
 2.6000e+000 107403 -4.3546e+001 -1.1145e+002  1.7812e+001 26120 107129,107285,107207
 2.6000e+000 107380 -6.2072e+001 -1.3140e+002  1.2394e+000 26120 107207,107285,107259
 2.6000e+000 107357 -1.0432e+001 -1.0371e+002  2.2488e+001 26120 107155,107207,107181
 2.6000e+000 107334 -5.0398e+001 -1.1464e+002  1.6967e+001 26120 107103,107285,107129
 2.6000e+000 107311 -5.3457e+001 -1.4057e+002 -7.7526e-001 26120 107207,107259,107233
 2.6000e+000 107755 -3.9522e+001 -1.0964e+002 -4.2477e+000 25758 107556,107634,107608
 2.6000e+000 107732  7.1442e+000 -9.0608e+001 -1.6942e+001 25758 107556,107660,107634
 2.6000e+000 107709 -5.6846e+001 -9.4871e+001 -2.3214e+001 25758 107556,107608,107582
 2.6000e+000 107686  9.8262e+000  3.2360e+001  1.8900e+001 25758 107530,107660,107556
 2.6000e+000 108438 -4.2555e+001 -1.6998e+002 -1.5154e+001 25468 108121,108199,108173
 2.6000e+000 108415 -4.0953e+000 -7.3728e+001 -9.8799e+000 25468 108095,108199,108121
 2.6000e+000 108392 -7.2361e+000 -8.9821e+001 -1.1760e+001 25468 108095,108251,108199
 2.6000e+000 108369 -1.7105e+001 -9.3706e+001 -4.7371e+000 25468 108069,108251,108095
 2.6000e+000 108346  3.5196e+000 -7.7557e+001 -4.8098e+001 25468 108199,108251,108225
 2.6000e+000 108323 -1.0339e+001 -1.1318e+002  1.9039e+000 25468 108017,108251,108069
 2.6000e+000 108300 -2.4010e+001 -1.1020e+002 -1.1369e+001 25468 108121,108173,108147
 2.6000e+000 108277 -8.2980e+000 -1.2209e+002 -2.3048e+000 25468 108017,108069,108043
 2.6000e+000 108588 -2.4779e+001 -1.4705e+002 -3.6192e+001 25064 108611,108513,108487
 2.6000e+000 108565 -6.3673e+001 -1.4357e+002 -2.7837e+001 25064 108683,108611,108487
 2.6000e+000 108637 -2.6916e+001 -1.2667e+002 -3.2173e+001 25064 108539,108513,108611
 2.6000e+000 108660  6.6303e+000 -1.1451e+002 -2.9750e+001 25064 108539,108611,108461
 2.6000e+000 108709  1.4306e+001 -7.5707e+001 -5.7754e+001 25064 108461,108611,108683
 2.6000e+000 109345 -1.0021e+002 -1.6183e+002  3.3847e+001 24410 108999,109155,109103
 2.6000e+000 109322 -7.2132e+001 -1.6206e+002  1.4118e+001 24410 108973,109155,108999
 2.6000e+000 109299 -5.9138e+001 -2.1918e+002  4.5155e+001 24410 109103,109155,109129
 2.6000e+000 109276 -9.1782e+001 -1.6097e+002  1.4332e+001 24410 108973,109181,109155
 2.6000e+000 109253 -6.2620e+001 -1.3523e+002  2.3293e+001 24410 109025,109103,109077
 2.6000e+000 109230 -1.0429e+002 -1.4726e+002  3.0088e+001 24410 108999,109103,109025
 2.6000e+000 109207 -5.1985e+001 -1.2651e+002  1.9518e+001 24410 109025,109077,109051
 2.6000e+000 109723 -2.9122e+001 -1.4430e+002  2.0618e+000 23856 109475,109579,109553
 2.6000e+000 109700 -2.1617e+001 -1.1484e+002  5.6666e-001 23856 109475,109605,109579
 2.6000e+000 109677 -2.1475e+001 -1.3813e+002  2.7058e+001 23856 109475,109553,109527
 2.6000e+000 109654 -4.2631e+001 -1.2353e+002 -1.4697e+001 23856 109449,109605,109475
 2.6000e+000 109631  1.3961e+001 -1.4066e+002  2.5263e+001 23856 109475,109527,109501
 2.6000e+000 110101 -3.6598e+001 -1.2724e+002 -1.4984e+001 23566 109853,109931,109879
 2.6000e+000 110078 -2.9289e+001 -1.2713e+002 -1.8056e+001 23566 109827,109931,109853
 2.6000e+000 110055 -4.1045e+001 -1.4246e+002 -1.2685e+001 23566 109827,109983,109931
 2.6000e+000 110032 -1.1383e+001 -1.2213e+002 -1.7089e+001 23566 109879,109931,109905
 2.6000e+000 110009 -3.0422e+001 -1.1557e+002 -1.3372e+001 23566 109931,109983,109957
 2.6000e+000 110735 -3.0884e+001 -9.4058e+001 -1.0333e+001 23162 110415,110571,110519
 2.6000e+000 110712 -5.0812e+001 -1.1909e+002 -1.8954e+001 23162 110389,110571,110415
 2.6000e+000 110689 -2.5484e+001 -9.1461e+001 -9.1037e+000 23162 110415,110519,110493
 2.6000e+000 110666 -2.9263e+001 -1.0163e+002 -4.5247e+000 23162 110363,110571,110389
 2.6000e+000 110643  3.1337e+001 -5.9754e+001  2.6763e+001 23162 110441,110493,110467
 2.6000e+000 110620 -8.3356e+000 -9.9137e+001 -6.8639e+000 23162 110415,110493,110441
 2.6000e+000 110597 -3.5312e+001 -1.0874e+002 -9.0169e+000 23162 110519,110571,110545
 2.6000e+000 111211 -4.6857e+001 -1.3948e+002 -8.6296e+000 22708 111378,111306,111021
 2.6000e+000 111188 -1.2755e+001 -1.3650e+002 -2.1681e+000 22708 111234,110969,110917
 2.6000e+000 111165 -4.0848e+001 -1.3618e+002 -6.8575e+000 22708 111450,111234,110917
 2.6000e+000 111142 -4.9109e+001 -1.3228e+002 -2.6504e+001 22708 111378,111021,110995
 2.6000e+000 111119 -4.5667e+001 -1.3383e+002 -2.0884e+001 22708 111450,110917,110865
 2.6000e+000 111096  1.6942e+001 -1.6301e+002  1.5251e+001 22708 110917,110969,110943
 2.6000e+000 111073 -3.4965e+001 -2.0289e+002 -5.1566e+001 22708 110865,110917,110891
 2.6000e+000 111260 -8.0218e+000 -1.3632e+002 -7.1100e+000 22708 111306,110969,111234
 2.6000e+000 111283 -1.6825e+001 -1.1151e+002 -5.6113e+000 22708 111047,111234,110839
 2.6000e+000 111332 -1.7137e+000 -1.7457e+002  2.2826e+001 22708 111047,111021,111306
 2.6000e+000 111355 -2.0191e+001 -1.4039e+002 -1.3368e+001 22708 111047,111306,111234
 2.6000e+000 111404 -1.0196e+001 -1.2826e+002 -1.8658e+001 22708 110969,111306,111378
 2.6000e+000 111427 -1.9928e+001 -1.2240e+002 -2.6493e+001 22708 110969,111378,110995
 2.6000e+000 111476 -1.8975e+001 -1.2955e+002 -6.1651e+000 22708 110839,111234,111450
 2.6000e+000 111499 -1.9368e+001 -1.2589e+002 -2.1537e+001 22708 110839,111450,110865
 2.6000e+000 111600 -2.5918e+001 -1.1126e+002  4.1421e+000 22460 111522,111574,111548
 2.6000e+000 112059 -2.4075e+001 -1.0066e+002 -7.6878e+000 22056 111811,111889,111863
 2.6000e+000 112036 -1.4241e+001 -9.7984e+001 -9.3017e+000 22056 111811,111915,111889
 2.6000e+000 112013 -2.0445e+001 -9.9047e+001 -7.9448e+000 22056 111785,111915,111811
 2.6000e+000 111990 -1.3910e+001 -8.6817e+001 -1.7782e+001 22056 111785,111941,111915
 2.6000e+000 111967 -3.8966e+001 -1.1573e+002 -3.3441e-001 22056 111811,111863,111837
 2.6000e+000 112486  6.1890e+000 -9.6918e+001 -7.2966e+000 21594 112509,112267,112215
 2.6000e+000 112463 -2.0706e+001 -1.1040e+002  4.3497e+000 21594 112509,112215,112163
 2.6000e+000 112440 -6.6668e+000 -7.0993e+001 -3.7221e+001 21594 112581,112293,112267
 2.6000e+000 112417 -3.1157e+001 -1.0077e+002  4.4646e+000 21594 112215,112267,112241
 2.6000e+000 112394  1.6760e+001 -9.1212e+001 -9.3920e-001 21594 112163,112345,112319
 2.6000e+000 112371 -2.3681e+001 -9.9449e+001 -2.0971e+000 21594 112163,112215,112189
 2.6000e+000 112535  1.3429e+001 -8.8651e+001 -1.9107e+001 21594 112581,112267,112509
 2.6000e+000 112558 -6.5132e+000 -9.2720e+001 -2.3027e+000 21594 112319,112509,112163
 2.6000e+000 112607 -4.2847e+001 -8.8309e+001 -3.2170e+001 21594 112319,112293,112581
 2.6000e+000 112630 -2.2279e+001 -1.0855e+002 -1.0569e+001 21594 112319,112581,112509
 2.6000e+000 112900 -4.2048e+001 -1.3431e+002 -1.2482e+000 20974 112675,112779,112701
 2.6000e+000 112877 -2.5203e+001 -1.3437e+002 -4.5421e-002 20974 112675,112805,112779
 2.6000e+000 112854 -6.7455e+000 -1.0699e+002  1.1064e+001 20974 112701,112779,112753
 2.6000e+000 112831 -1.2927e+001 -4.9375e+001 -2.5181e+001 20974 112701,112753,112727
 2.6000e+000 113359 -2.9975e+001 -1.4801e+002 -2.2543e+001 20520 113454,113137,113111
 2.6000e+000 113336 -1.3556e+001 -1.3307e+002 -1.5247e+001 20520 113454,113111,113085
 2.6000e+000 113313  3.5694e+001 -7.5821e+001  1.7917e+001 20520 113382,113163,113137
 2.6000e+000 113290 -1.3875e+001 -1.3493e+002 -8.6800e+000 20520 113526,113382,113137
 2.6000e+000 113267 -1.8900e+001 -1.9870e+002 -1.3988e+001 20520 113189,113241,113215
 2.6000e+000 113408  6.5110e+000 -1.3046e+002 -1.4288e+001 20520 113189,113163,113382
 2.6000e+000 113431 -4.7191e+000 -1.4340e+002 -3.0522e+001 20520 113189,113382,113241
 2.6000e+000 113480 -2.2991e+001 -1.3531e+002 -1.3493e+001 20520 113526,113137,113454
 2.6000e+000 113503 -1.5951e+001 -1.3821e+002 -1.4520e+001 20520 113241,113454,113085
 2.6000e+000 113552  2.5052e+000 -1.3809e+002 -8.9615e+000 20520 113241,113382,113526
 2.6000e+000 113575 -3.0248e+000 -1.3473e+002 -1.2448e+001 20520 113241,113526,113454
 2.6000e+000 113904 -4.8081e+001 -1.3569e+002  4.3253e+000 19858 113705,113783,113757
 2.6000e+000 113881 -4.8069e+001 -1.3806e+002  4.4699e+000 19858 113705,113809,113783
 2.6000e+000 113858 -1.2824e+001 -1.1419e+002 -2.7751e+001 19858 113679,113809,113705
 2.6000e+000 113835 -4.1933e+001 -1.0234e+002  3.2164e+001 19858 113705,113757,113731
 2.6000e+000 114152 -3.6408e+001 -1.0295e+002 -7.9814e+000 19454 114175,114005,113979
 2.6000e+000 114129 -3.6986e+001 -1.0104e+002 -8.0648e+000 19454 114175,113979,114057
 2.6000e+000 114106 -4.1170e+001 -1.0619e+002 -4.2145e-001 19454 113927,114057,113979
 2.6000e+000 114083 -1.7499e+001 -9.9652e+001 -1.9705e+001 19454 113927,113979,113953
 2.6000e+000 114201 -3.2219e+001 -1.0136e+002 -1.7532e+001 19454 114031,114005,114175
 2.6000e+000 114224 -3.7345e+001 -9.9429e+001 -8.3584e+000 19454 114031,114175,114057
 2.6000e+000 114472 -3.4867e+001 -1.4763e+002 -3.5765e+000 19000 114495,114273,114247
 2.6000e+000 114449 -4.5631e+001 -1.5536e+002 -9.3745e+000 19000 114495,114247,114325
 2.6000e+000 114426 -6.0522e+001 -1.5909e+002  3.2731e+000 19000 114247,114377,114325
 2.6000e+000 114403 -7.2163e+001 -1.6780e+002 -2.1497e+001 19000 114325,114377,114351
 2.6000e+000 114521 -6.2654e-001 -1.3685e+002  1.4685e+001 19000 114299,114273,114495
 2.6000e+000 114544 -3.6035e+001 -1.7056e+002  8.5350e-001 19000 114299,114495,114325
 2.6000e+000 114948  1.4039e+000 -1.3178e+002 -3.3268e+000 18560 114674,114726,114700
 2.6000e+000 114925  8.7136e-001 -1.1236e+002 -3.7120e+000 18560 114674,114830,114726
 2.6000e+000 114902  4.4464e+000 -1.0354e+002 -1.3568e+000 18560 114726,114830,114804
 2.6000e+000 114879 -4.2750e+001 -1.7487e+002 -2.3375e+001 18560 114726,114804,114752
 2.6000e+000 114856  8.0611e+001 -2.0659e+002 -5.6104e+001 18560 114752,114804,114778
 2.6000e+000 115098 -8.3641e+001 -2.1797e+002 -2.1208e+000 18156 114971,115023,114997
 2.6000e+000 115075 -8.6321e+001 -1.1996e+002 -2.8032e+000 18156 114971,115049,115023
 2.6000e+000 115248 -6.8217e+001 -1.8968e+002 -3.1403e+000 17602 115147,115199,115173
 2.6000e+000 115225 -1.5946e+001 -1.7717e+002  2.7065e+000 17602 115121,115199,115147
 2.6000e+000 115652 -9.3713e+000 -1.2006e+002 -2.1493e+000 17354 115430,115534,115508
 2.6000e+000 115629 -2.3336e+001 -1.5471e+002  6.0764e+000 17354 115404,115534,115430
 2.6000e+000 115606  2.9009e+001 -9.4805e+001  6.7051e+001 17354 115378,115534,115404
 2.6000e+000 115583  1.5274e+000 -1.4328e+002 -1.4872e+001 17354 115456,115508,115482
 2.6000e+000 115560 -2.8681e+001 -1.6474e+002 -4.4794e+000 17354 115430,115508,115456
 2.6000e+000 115873 -4.3307e+001 -2.0826e+002 -7.5473e+000 16950 115749,115801,115775
 2.6000e+000 115850 -7.9905e+001 -1.9813e+002 -3.5825e+000 16950 115697,115801,115749
 2.6000e+000 115827 -7.3830e+001 -2.0802e+002  4.3487e+000 16950 115697,115749,115723
 2.6000e+000 116023 -9.2083e+001 -2.1315e+002 -2.3740e+001 16496 115922,115974,115948
 2.6000e+000 116000 -8.7954e+001 -1.8106e+002 -1.1458e+001 16496 115896,115974,115922
 2.6000e+000 116126  3.9829e+000 -1.4575e+002  5.3306e+000 16298 116048,116100,116074
 2.6000e+000 116278  4.2174e+001 -2.2130e+002 -5.1722e+000 15892 116151,116203,116177
 2.6000e+000 116255  1.0041e+001 -2.9190e+002  2.5166e+000 15892 116151,116229,116203
 2.6000e+000 116430 -6.4573e+000 -8.0524e+001 -1.6814e+000 15545 116303,116355,116329
 2.6000e+000 116407 -3.0815e+001 -1.5546e+002 -3.7667e+001 15545 116303,116381,116355
 2.6000e+000 116785  4.0056e+000 -8.8516e+001  2.3152e+001 421 116612,116690,116664
 2.6000e+000 116762 -2.4043e+001 -1.5427e+002  1.4627e+001 421 116560,116690,116612
 2.6000e+000 116739 -6.4164e+001 -1.7759e+002  2.8801e+001 421 116560,116612,116586
 2.6000e+000 116716 -5.3816e+001 -1.8587e+002 -4.6909e+000 421 116612,116664,116638
 2.7000e+000 68048 -1.4404e+001 -1.8337e+002 -4.6791e+000 67642 67898,67950,67924
 2.7000e+000 68025 -3.4799e+001 -2.1097e+002  5.5237e+000 67642 67898,67976,67950
 2.7000e+000 68002  3.0414e+001 -1.8830e+002  1.4277e+001 67642 67872,67976,67898
 2.7000e+000 68367  1.7314e+001 -8.4278e+001 -2.9724e+000 67444 68119,68223,68197
 2.7000e+000 68344 -2.2097e+001 -1.8823e+002  7.4172e+000 67444 68119,68249,68223
 2.7000e+000 68321 -2.5912e+001 -1.8728e+002  2.8558e+000 67444 68093,68249,68119
 2.7000e+000 68298 -2.7050e+001 -1.9166e+002  2.7177e+000 67444 68119,68197,68171
 2.7000e+000 68275 -8.5215e+001 -1.8002e+002  1.5638e+001 67444 68119,68171,68145
 2.7000e+000 68468  1.5230e+001 -2.0356e+002  8.6739e+000 67268 68390,68442,68416
 2.7000e+000 68765 -4.6720e+001 -1.9329e+002  5.4578e+000 66956 68788,68517,68491
 2.7000e+000 68742 -3.3478e+001 -2.1196e+002  3.9453e+000 66956 68788,68491,68621
 2.7000e+000 68719 -2.6724e+001 -2.0015e+002 -3.9159e+001 66956 68543,68621,68569
 2.7000e+000 68696 -3.4183e+001 -2.1336e+002  3.8984e+000 66956 68491,68647,68621
 2.7000e+000 68673 -4.7122e+001 -8.7551e+001 -2.4503e+001 66956 68569,68621,68595
 2.7000e+000 68814 -5.4697e+001 -2.0620e+002  1.0704e+001 66956 68543,68517,68788
 2.7000e+000 68837 -3.8166e+001 -2.2226e+002  7.5356e+000 66956 68543,68788,68621
 2.7000e+000 69107 -1.1722e+001 -2.1913e+002 -6.7055e+000 66758 68882,68986,68908
 2.7000e+000 69084 -4.2288e+001 -2.2297e+002  5.2923e+000 66758 68882,69012,68986
 2.7000e+000 69061 -7.7201e+000 -1.8928e+002 -1.6777e+001 66758 68908,68960,68934
 2.7000e+000 69038  6.7998e+000 -1.8559e+002 -1.4693e+001 66758 68908,68986,68960
 2.7000e+000 69308 -9.4439e+000 -1.5817e+002 -2.2104e+000 66560 69331,69184,69158
 2.7000e+000 69285  7.4490e+000 -1.7831e+002 -4.8573e+000 66560 69331,69158,69132
 2.7000e+000 69262 -1.8197e+001 -2.1695e+002  4.6803e-001 66560 69184,69236,69210
 2.7000e+000 69357 -6.6961e+000 -1.7460e+002  4.4457e+000 66560 69236,69184,69331
 2.7000e+000 69380 -2.2897e+000 -2.0613e+002  6.8992e+000 66560 69236,69331,69132
 2.7000e+000 69554 -5.1295e+001 -2.7743e+002  1.8121e+001 66270 69427,69479,69453
 2.7000e+000 69531 -1.3698e+001 -1.8936e+002  3.5386e+001 66270 69427,69505,69479
 2.7000e+000 69804 -1.5610e+001 -1.6225e+002 -8.4381e+000 66066 69579,69683,69657
 2.7000e+000 69781  9.3810e+001 -1.1360e+002 -3.4046e+001 66066 69579,69709,69683
 2.7000e+000 69758  2.0770e-001 -6.5369e+001 -1.1967e+001 66066 69579,69657,69631
 2.7000e+000 69735 -1.1261e+001 -9.0285e+001 -1.6790e+001 66066 69579,69631,69605
 2.7000e+000 70257  3.7319e+001 -6.0558e+001 -1.3922e+001 65776 69960,70090,69986
 2.7000e+000 70234  2.7339e+001 -9.9792e+001 -4.8990e+000 65776 69934,70090,69960
 2.7000e+000 70211  1.4666e+001 -1.0875e+002 -9.7929e+000 65776 69934,70116,70090
 2.7000e+000 70188  8.9716e+000 -9.8610e+001  0.0000e+000 65776 70038,70090,70064
 2.7000e+000 70165  7.9905e+000 -9.9459e+001  5.7035e-001 65776 69986,70090,70038
 2.7000e+000 70142  9.7416e+000 -9.5333e+001  1.8396e+000 65776 69986,70038,70012
 2.7000e+000 70456 -2.7015e+001 -6.6228e+001 -1.4627e+001 65372 70479,70306,70280
 2.7000e+000 70433 -1.1909e+001 -9.7272e+001 -3.3115e+001 65372 70479,70280,70384
 2.7000e+000 70410  3.6478e+000 -6.4259e+001  1.5229e+000 65372 70551,70332,70306
 2.7000e+000 70505 -7.1262e+000 -5.5045e+001 -7.8721e+000 65372 70551,70306,70479
 2.7000e+000 70528  1.9419e+001 -7.8739e+001 -2.5428e+001 65372 70358,70479,70384
 2.7000e+000 70577 -7.0829e+000 -7.9351e+001 -3.3806e+000 65372 70358,70332,70551
 2.7000e+000 70600 -1.8836e+001 -7.3539e+001 -1.2909e+001 65372 70358,70551,70479
 2.7000e+000 70821 -2.3821e+001 -2.6467e+002 -6.0022e+000 65174 70645,70723,70671
 2.7000e+000 70798 -6.0823e+001 -2.7432e+002  6.2838e+000 65174 70645,70749,70723
 2.7000e+000 70775 -9.8296e+000 -2.4284e+002 -1.2774e+001 65174 70671,70723,70697
 2.7000e+000 71071 -1.7759e+001 -1.0238e+002 -9.3960e+000 64770 71094,70898,70872
 2.7000e+000 71048 -1.1275e+001 -1.0345e+002  1.1436e+000 64770 71166,71094,70872
 2.7000e+000 71025 -1.5091e+001 -1.1022e+002 -3.0386e+000 64770 71166,70872,70846
 2.7000e+000 71002 -1.9521e+001 -5.6868e+001  1.1382e+001 64770 70898,70950,70924
 2.7000e+000 71120 -1.2532e+001 -8.0974e+001 -1.0115e+001 64770 70950,70898,71094
 2.7000e+000 71143 -3.6996e+000 -9.9191e+001  2.6752e+000 64770 70950,71094,70976
 2.7000e+000 71192 -9.8533e+000 -1.1644e+002 -2.3610e+000 64770 70976,71094,71166
 2.7000e+000 71215 -9.9798e+000 -1.1904e+002 -6.1763e+000 64770 70976,71166,70846
 2.7000e+000 71514  1.1168e+001 -1.1822e+002 -4.3583e+000 64572 71681,71537,71318
 2.7000e+000 71491 -2.3602e+001 -1.1467e+002 -7.0436e+000 64572 71537,71266,71240
 2.7000e+000 71468 -1.9846e+001 -8.8184e+001 -2.6095e+001 64572 71609,71396,71370
 2.7000e+000 71445  3.6901e+000 -1.1468e+002 -5.7153e+000 64572 71681,71318,71292
 2.7000e+000 71422 -5.0227e+000 -1.9030e+002 -2.7397e+001 64572 71753,71344,71318
 2.7000e+000 71563  2.1108e+001 -1.3947e+002 -1.7744e+001 64572 71753,71318,71537
 2.7000e+000 71586 -1.2374e+001 -9.9019e+001 -1.3051e+001 64572 71609,71370,71537
 2.7000e+000 71635 -3.4028e+000 -5.1522e+001 -2.9898e+001 64572 71240,71396,71609
 2.7000e+000 71658 -4.1948e+000 -7.6412e+001 -1.5203e+001 64572 71240,71609,71537
 2.7000e+000 71707 -6.0427e+000 -1.1020e+002 -1.1452e+001 64572 71266,71537,71681
 2.7000e+000 71730 -2.8536e+001 -1.1682e+002 -1.1524e+001 64572 71266,71681,71292
 2.7000e+000 71779 -8.6519e+000 -1.2097e+002 -3.1215e+001 64572 71370,71344,71753
 2.7000e+000 71802 -7.8978e+000 -1.1595e+002 -3.0846e+001 64572 71370,71753,71537
 2.7000e+000 72052 -2.1549e+000 -1.4699e+002  1.2863e+001 64374 72075,71879,71827
 2.7000e+000 72029  5.7268e+001 -1.1170e+002 -8.0383e+000 64374 72147,72075,71827
 2.7000e+000 72006  1.0864e+002 -1.2904e+002 -3.8160e+001 64374 72147,71827,71957
 2.7000e+000 71983  1.7531e+001 -1.1631e+002  4.3713e+000 64374 71827,71879,71853
 2.7000e+000 72101  6.6285e+000 -1.9078e+002  5.0041e+001 64374 71905,71879,72075
 2.7000e+000 72124  6.5629e+001 -1.5372e+002  3.2781e+001 64374 71905,72075,71931
 2.7000e+000 72173  1.3525e+001 -1.6338e+002  1.3736e+001 64374 71931,72075,72147
 2.7000e+000 72196  4.6240e+001 -1.9119e+002 -1.2562e+001 64374 71931,72147,71957
 2.7000e+000 72649  4.9406e+000 -8.0370e+001 -2.9420e+000 63948 72352,72508,72482
 2.7000e+000 72626  1.0608e+001 -5.7443e+001  2.3000e+001 63948 72326,72508,72352
 2.7000e+000 72603  3.7777e+000 -1.1936e+002  2.8030e-001 63948 72672,72430,72378
 2.7000e+000 72580 -6.2321e+000 -1.3298e+002  5.4405e+000 63948 72672,72378,72352
 2.7000e+000 72557  1.2507e+000 -1.2774e+002 -5.4479e+000 63948 72744,72456,72430
 2.7000e+000 72534 -1.7999e+000 -1.7255e+002 -3.3866e+001 63948 72378,72430,72404
 2.7000e+000 72698 -2.3710e+000 -1.2394e+002 -2.9270e+000 63948 72744,72430,72672
 2.7000e+000 72721  2.2049e+000 -1.1245e+002  3.0491e+000 63948 72482,72672,72352
 2.7000e+000 72770 -4.8363e-001 -1.2221e+002 -5.9149e+000 63948 72482,72456,72744
 2.7000e+000 72793 -1.4756e-001 -1.1311e+002 -3.5975e+000 63948 72482,72744,72672
 2.7000e+000 72894 -6.0679e+000 -1.4207e+002 -1.1632e+001 63494 72816,72868,72842
 2.7000e+000 73093 -3.2367e+001 -6.2466e+001 -3.2394e-001 63132 72943,72995,72969
 2.7000e+000 73070 -2.6469e+001 -5.7132e+001  4.7808e+000 63132 72943,73021,72995
 2.7000e+000 73047 -2.4898e+001 -6.6374e+001  8.5259e+000 63132 72917,73021,72943
 2.7000e+000 73294 -2.4204e+000 -3.3208e+001 -1.6247e+001 62792 73317,73144,73118
 2.7000e+000 73271 -2.5389e+000 -2.5342e+001 -4.3081e+000 62792 73317,73118,73222
 2.7000e+000 73248 -1.2970e+001 -4.0487e+001 -2.3586e+001 62792 73144,73196,73170
 2.7000e+000 73343 -1.4173e+001 -4.3294e+001 -2.2188e+001 62792 73196,73144,73317
 2.7000e+000 73366 -1.2347e+001 -3.2651e+001 -9.8205e+000 62792 73196,73317,73222
 2.7000e+000 73616 -3.1129e+001 -1.1847e+002  2.3092e+001 62388 73639,73417,73391
 2.7000e+000 73593 -1.8558e+001 -9.1099e+001  1.4942e+001 62388 73711,73639,73391
 2.7000e+000 73570 -9.8676e+000 -5.1826e+001  9.6371e+000 62388 73711,73391,73521
 2.7000e+000 73547 -5.1613e+000 -9.1626e+001 -7.2261e-001 62388 73469,73521,73495
 2.7000e+000 73665 -7.6715e+000 -1.0998e+002  1.4422e+001 62388 73443,73417,73639
 2.7000e+000 73688 -1.4763e+001 -1.2266e+002  1.1433e+001 62388 73443,73639,73469
 2.7000e+000 73737 -8.5131e+000 -1.1795e+002  9.1760e+000 62388 73469,73639,73711
 2.7000e+000 73760 -1.6000e+001 -1.0068e+002  1.1263e+001 62388 73469,73711,73521
 2.7000e+000 74010 -1.5584e+001 -2.9894e+001 -7.0322e+000 61848 74033,73837,73811
 2.7000e+000 73987 -4.2903e+001 -1.9524e+001 -3.8591e+001 61848 74033,73811,73785
 2.7000e+000 73964 -3.3562e+000 -3.8864e+001 -1.1140e+001 61848 73837,73915,73889
 2.7000e+000 73941 -2.3142e+000 -4.2466e+001 -1.0386e+001 61848 73837,73889,73863
 2.7000e+000 74059 -1.1951e+001 -4.7964e+001 -1.6451e+001 61848 73915,73837,74033
 2.7000e+000 74082 -1.4278e+001 -6.4924e+001 -2.6868e+001 61848 73915,74033,73785
 2.7000e+000 74283  1.7339e+001 -2.9561e+001  2.2822e+001 61444 74306,74133,74107
 2.7000e+000 74260  2.7462e+001 -5.0279e-001  2.8215e+001 61444 74306,74107,74211
 2.7000e+000 74237  2.4464e+001  5.0295e+001  4.5871e+000 61444 74378,74185,74159
 2.7000e+000 74332  1.9472e+001 -2.9699e+001  4.9874e+000 61444 74159,74133,74306
 2.7000e+000 74355  3.1839e+001 -1.7340e+000  8.5087e+000 61444 74378,74159,74306
 2.7000e+000 74404  7.4035e+000 -5.0946e+000  1.5631e+001 61444 74211,74185,74378
 2.7000e+000 74427  1.7122e+001 -1.8663e+001  1.4748e+001 61444 74211,74378,74306
 2.7000e+000 74628  4.7517e+001 -5.1211e+001 -1.3115e+001 60990 74478,74530,74504
 2.7000e+000 74605 -4.1256e+000 -6.3882e+001 -1.0521e+001 60990 74452,74530,74478
 2.7000e+000 74582 -1.4152e+001 -3.8099e+001 -2.3424e+001 60990 74452,74556,74530
 2.7000e+000 75089  1.8699e+000 -2.8391e+001 -1.6445e+001 60486 75112,74945,74919
 2.7000e+000 75066  4.3940e-002  8.5382e+000 -2.1855e+000 60486 75112,74919,74867
 2.7000e+000 75043 -1.8079e+000 -7.6412e+001  2.3352e+000 60486 74841,74971,74867
 2.7000e+000 75020 -7.1224e-001  5.9802e+000  1.1085e+000 60486 74867,74919,74893
 2.7000e+000 74997 -6.5847e+000 -6.0085e+001  2.1157e+001 60486 74815,74971,74841
 2.7000e+000 75138 -7.7818e+000 -4.0047e+001 -3.3409e+001 60486 74971,74945,75112
 2.7000e+000 75161 -1.1870e+001 -1.7546e+001 -1.6796e+001 60486 74971,75112,74867
 2.7000e+000 75409 -1.2731e+001 -2.6401e+000  1.5919e+001 59932 75576,75432,75288
 2.7000e+000 75386 -2.6233e+000 -7.0450e-001  1.3679e+001 59932 75504,75314,75288
 2.7000e+000 75363  9.9113e+000  1.9446e+001  2.8068e+001 59932 75432,75236,75210
 2.7000e+000 75340 -1.7113e+001 -1.7095e+001  2.3761e+000 59932 75576,75288,75262
 2.7000e+000 75458 -4.9824e+000  1.6815e+000  1.3023e+001 59932 75504,75288,75432
 2.7000e+000 75481 -7.9864e+000 -2.0378e+000  8.4020e+000 59932 75184,75432,75210
 2.7000e+000 75530  6.4405e+000 -1.0101e+001  4.7055e+000 59932 75184,75314,75504
 2.7000e+000 75553 -8.4675e+000 -7.3414e-001  1.0952e+001 59932 75184,75504,75432
 2.7000e+000 75602 -1.1466e+001 -2.7701e+001  1.9179e+001 59932 75236,75432,75576
 2.7000e+000 75625 -4.4126e+000 -3.3257e+001  1.4773e+001 59932 75236,75576,75262
 2.7000e+000 75873 -2.7024e+001 -1.0577e+002  1.3396e+001 59478 75674,75752,75700
 2.7000e+000 75850 -6.2859e+001 -1.2094e+002  1.6841e+001 59478 75648,75752,75674
 2.7000e+000 75827 -2.2781e+001 -1.0624e+002  1.2953e+001 59478 75700,75752,75726
 2.7000e+000 75804 -4.9623e+001 -1.4421e+002  2.0776e+001 59478 75648,75778,75752
 2.7000e+000 76206 -9.9015e+000 -9.4925e+001  3.2538e+000 59024 75981,76059,76007
 2.7000e+000 76183 -1.6150e+001 -1.0361e+002  6.4488e+000 59024 75981,76111,76059
 2.7000e+000 76160 -1.5472e+001 -6.8678e+001 -1.6555e+001 59024 76007,76059,76033
 2.7000e+000 76137  2.4922e+000 -9.5284e+001  3.6864e+001 59024 76059,76111,76085
 2.7000e+000 76761 -5.9535e+001 -6.6290e+001 -6.6894e+000 58562 76389,76441,76415
 2.7000e+000 76738 -5.8494e+001 -6.6183e+001  1.9336e+001 58562 76856,76784,76389
 2.7000e+000 76715 -3.8760e+001 -2.1567e+001 -4.1603e+001 58562 76784,76571,76467
 2.7000e+000 76692 -1.3427e+001 -8.2345e+001  2.4116e+001 58562 76856,76389,76597
 2.7000e+000 76669 -4.5736e+001 -1.9815e+002  1.1710e+001 58562 76467,76545,76493
 2.7000e+000 76646 -1.1833e+001 -1.3425e+002 -7.9887e+001 58562 76467,76571,76545
 2.7000e+000 76623 -1.8257e+001 -1.7019e+002  2.5351e+001 58562 76493,76545,76519
 2.7000e+000 76810 -4.3877e+001 -7.1311e+001  5.9279e+000 58562 76441,76389,76784
 2.7000e+000 76833 -1.2379e+002 -1.7906e+002 -8.8428e+001 58562 76441,76784,76467
 2.7000e+000 76882 -1.0118e+001 -4.1447e+001  4.0418e+001 58562 76571,76784,76856
 2.7000e+000 76905  1.8540e+001 -6.8664e+001  4.5307e+001 58562 76571,76856,76597
 2.7000e+000 77055  7.0786e+000 -1.4316e+002 -2.1857e+001 57844 76928,76980,76954
 2.7000e+000 77032 -3.4688e+001 -8.6830e+001 -1.9135e+001 57844 76928,77006,76980
 2.7000e+000 77533 -4.5347e+001 -2.1492e+002  2.8772e-002 57226 77628,77556,77291
 2.7000e+000 77510 -4.0760e+001 -4.3602e+001  2.2201e+001 57226 77556,77187,77343
 2.7000e+000 77487 -2.4655e+000 -1.2771e+002 -3.0540e+001 57226 77628,77291,77265
 2.7000e+000 77464 -3.1337e+001 -2.6583e+002  5.6647e+001 57226 77700,77213,77187
 2.7000e+000 77441 -1.6565e+001 -6.4456e+001 -2.0725e+001 57226 77161,77343,77187
 2.7000e+000 77418 -3.5805e+001 -6.3671e+001 -2.0484e+001 57226 77161,77369,77343
 2.7000e+000 77395 -8.1639e+001 -5.3352e+001  2.0282e+001 57226 77213,77265,77239
 2.7000e+000 77582 -3.8611e+001 -1.7169e+002  3.1101e+001 57226 77317,77291,77556
 2.7000e+000 77605 -5.9091e+001 -1.2768e+002  1.5432e+001 57226 77317,77556,77343
 2.7000e+000 77654  2.4295e+001 -1.2697e+002  4.5827e+001 57226 77187,77556,77628
 2.7000e+000 77677 -2.3325e+001 -2.4059e+002  5.3530e+001 57226 77700,77187,77628
 2.7000e+000 77726 -5.4901e+001 -2.8868e+002 -4.3476e+001 57226 77265,77213,77700
 2.7000e+000 77749 -1.8203e+001 -1.9858e+002 -4.2330e+001 57226 77265,77700,77628
 2.7000e+000 78046 -1.5958e+001 -1.0409e+002  3.2026e+001 56936 77798,77850,77824
 2.7000e+000 78023 -4.1123e+000 -9.5536e+001  3.3223e+001 56936 78069,77798,77902
 2.7000e+000 78000  3.2508e+001 -1.0042e+002  4.0666e+001 56936 78069,77902,77876
 2.7000e+000 77977 -1.2331e+001 -9.8977e+001  3.3473e+001 56936 77798,77928,77902
 2.7000e+000 77954 -2.0056e+001 -1.0099e+001  5.3807e+001 56936 77772,77928,77798
 2.7000e+000 78095 -1.5977e+001 -9.9025e+001  3.3714e+001 56936 77850,77798,78069
 2.7000e+000 78118  1.0075e+000 -1.1454e+002  4.3555e+001 56936 77850,78069,77876
 2.7000e+000 78754 -2.6635e+000 -7.0873e+001 -1.4317e+001 56475 78777,78486,78408
 2.7000e+000 78731  1.7392e+001 -6.6629e+001 -1.4776e+001 56475 78777,78408,78382
 2.7000e+000 78708  2.6895e+001 -9.1475e+001 -2.4864e+001 56475 78849,78512,78486
 2.7000e+000 78685  1.3206e+001 -3.5243e+001 -1.3850e+001 56475 78382,78590,78564
 2.7000e+000 78662  1.8498e+001 -7.3726e+001 -4.0367e+001 56475 78512,78564,78538
 2.7000e+000 78639  1.7394e+000 -1.8242e+002  1.8033e+001 56475 78434,78486,78460
 2.7000e+000 78616 -4.4702e+001 -1.5763e+002  3.2869e+000 56475 78408,78486,78434
 2.7000e+000 78803  8.4146e+000 -8.4104e+001 -1.1329e+001 56475 78849,78486,78777
 2.7000e+000 78826  1.8997e+001 -6.4108e+001 -1.0786e+001 56475 78564,78777,78382
 2.7000e+000 78875  3.7984e+001 -7.2910e+001 -3.2638e+001 56475 78564,78512,78849
 2.7000e+000 78898  2.7662e+001 -5.7655e+001 -2.1068e+001 56475 78564,78849,78777
 2.7000e+000 79276 -2.3194e+001 -6.0973e+001 -7.2450e+000 55964 79299,79080,79028
 2.7000e+000 79253 -1.6070e+001 -6.3041e+001 -2.7321e+000 55964 79299,79028,79132
 2.7000e+000 79230 -2.6644e+001 -9.7160e+001 -9.2341e+000 55964 79028,79080,79054
 2.7000e+000 79207 -1.2723e+001 -3.9330e+001  8.3145e+000 55964 79002,79132,79028
 2.7000e+000 79184 -5.4643e-001 -3.3293e+001 -8.0852e-001 55964 79002,79158,79132
 2.7000e+000 79325 -1.8999e+001 -5.6715e+001 -3.5618e+000 55964 79106,79080,79299
 2.7000e+000 79348 -1.2104e+001 -5.9996e+001  6.2321e-001 55964 79106,79299,79132
 2.7000e+000 79498 -1.8951e+001 -8.3091e+001  8.1963e+000 55452 79397,79449,79423
 2.7000e+000 79475 -2.5152e+001 -5.7165e+001  5.5147e+000 55452 79371,79449,79397
 2.7000e+000 79795 -2.5150e+001 -8.2393e+001  2.1637e+000 55048 79962,79818,79573
 2.7000e+000 79772 -1.1354e+001 -7.4146e+001 -7.7420e+000 55048 79818,79521,79677
 2.7000e+000 79749 -1.4715e+001 -1.1567e+002  1.8482e+001 55048 79599,79651,79625
 2.7000e+000 79726 -2.0580e+001 -1.0607e+002  1.7520e+001 55048 79890,79651,79599
 2.7000e+000 79703 -1.9886e+001 -7.8112e+001  7.1744e+000 55048 79962,79573,79547
 2.7000e+000 79844 -1.6109e+001 -7.8588e+001  5.0726e+000 55048 79599,79573,79818
 2.7000e+000 79867 -1.7840e+001 -9.2755e+001  6.2426e+000 55048 79890,79599,79818
 2.7000e+000 79916 -1.7836e+000 -9.5842e+001  5.2265e+000 55048 79677,79651,79890
 2.7000e+000 79939 -3.0413e+000 -9.0264e+001 -5.3087e+000 55048 79677,79890,79818
 2.7000e+000 79988 -3.0072e+001 -8.6110e+001 -7.6932e-001 55048 79521,79818,79962
 2.7000e+000 80011 -2.9356e+001 -8.5528e+001  3.4093e+000 55048 79521,79962,79547
 2.7000e+000 80212 -3.6294e+001 -1.0638e+002  4.8895e+001 54436 80235,80088,80036
 2.7000e+000 80189 -2.7663e+001 -9.1988e+001  4.3050e+001 54436 80235,80036,80140
 2.7000e+000 80166 -2.7698e+001 -1.7077e+002  1.3553e+000 54436 80036,80088,80062
 2.7000e+000 80261 -2.7595e+001 -1.2449e+002  5.7026e+001 54436 80114,80088,80235
 2.7000e+000 80284 -1.6623e+001 -1.1040e+002  4.9936e+001 54436 80114,80235,80140
 2.7000e+000 80534  4.3056e+001 -6.7058e+001  1.6014e+001 54032 80557,80361,80335
 2.7000e+000 80511  1.7050e+001 -8.3614e+001  2.3173e+001 54032 80557,80335,80309
 2.7000e+000 80488  1.4171e+000 -6.5584e+001  1.1848e+001 54032 80629,80413,80387
 2.7000e+000 80465 -9.9614e+000 -7.7516e+001  1.5962e+001 54032 80309,80439,80413
 2.7000e+000 80583  2.6218e+001 -4.1929e+001 -2.2059e+000 54032 80387,80361,80557
 2.7000e+000 80606  2.6436e+000 -6.4349e+001  7.1617e+000 54032 80629,80387,80557
 2.7000e+000 80655  7.2146e+000 -6.2622e+001  9.5502e+000 54032 80309,80413,80629
 2.7000e+000 80678  1.0331e+001 -6.2298e+001  5.5908e+000 54032 80309,80629,80557
 2.7000e+000 81139  5.0843e+000 -3.6885e+001  1.9712e+001 53784 80865,80995,80917
 2.7000e+000 81116 -4.5008e+000 -3.2699e+001  4.1243e-001 53784 80865,81021,80995
 2.7000e+000 81093 -2.2242e+001 -1.2345e+002  4.5063e+001 53784 80943,80995,80969
 2.7000e+000 81070 -2.7410e+001 -4.9611e+001  1.3053e+001 53784 80917,80995,80943
 2.7000e+000 81047 -8.2493e-001 -3.5094e+002 -2.1392e+000 53784 80865,80917,80891
 2.7000e+000 81468 -1.2881e+001 -7.9214e+001  2.2623e+001 53230 81295,81373,81347
 2.7000e+000 81445  2.4117e+000 -9.5538e+001  3.3903e+001 53230 81243,81373,81295
 2.7000e+000 81422 -4.4819e+001 -1.2670e+002  3.2216e+000 53230 81243,81295,81269
 2.7000e+000 81399  7.5572e+000 -5.3455e+001 -2.3628e+001 53230 81295,81347,81321
 2.7000e+000 81618 -2.4810e+000 -3.4472e+000 -9.7235e-001 52790 81491,81543,81517
 2.7000e+000 81595 -1.5098e+000 -4.0623e+001  3.8369e+000 52790 81491,81569,81543
 2.7000e+000 82126  5.7396e+001  3.2655e+001 -5.1654e+001 52386 82149,81907,81881
 2.7000e+000 82103  1.5837e+001 -3.9801e+001 -1.8017e+001 52386 82149,81881,81855
 2.7000e+000 82080 -1.3334e-001 -4.7852e+001 -7.4554e-001 52386 82221,81803,81985
 2.7000e+000 82057 -3.2872e+001 -7.0496e+001  4.8774e+000 52386 81803,81855,81829
 2.7000e+000 82034  2.8620e+001 -3.2536e+001 -4.9230e+001 52386 81907,81985,81933
 2.7000e+000 82011  3.7167e+001 -3.4407e+001 -4.8171e+001 52386 81933,81985,81959
 2.7000e+000 82175  5.8026e+000 -3.8407e+001 -1.4759e+001 52386 81985,81907,82149
 2.7000e+000 82198  2.6257e+001 -4.4522e+001 -5.3920e+000 52386 82221,81985,82149
 2.7000e+000 82247 -9.0044e+000 -4.7248e+001  1.5043e+001 52386 81855,81803,82221
 2.7000e+000 82270  1.8240e+000 -5.3155e+001  9.4614e+000 52386 81855,82221,82149
 2.7000e+000 82825 -5.1246e+001 -1.0300e+002  1.5653e+001 51782 82505,82661,82635
 2.7000e+000 82802 -9.0693e+001 -1.5222e+002 -4.5185e+000 51782 82479,82661,82505
 2.7000e+000 82779 -2.9501e+001 -1.5013e+002 -5.6432e+001 51782 82557,82635,82609
 2.7000e+000 82756 -3.0683e+001 -1.5008e+002 -6.6933e-001 51782 82531,82635,82557
 2.7000e+000 82733 -5.8799e+001 -1.2160e+002 -9.7619e+000 51782 82505,82635,82531
 2.7000e+000 82710 -1.5163e+001 -9.0934e+001  2.9928e+001 51782 82453,82661,82479
 2.7000e+000 82687 -7.0153e-001 -9.4944e+001 -3.6983e+001 51782 82557,82609,82583
 2.7000e+000 83171 -1.9614e+001 -1.0333e+002  1.5838e+001 51442 83194,82978,82900
 2.7000e+000 83148 -4.3689e+001 -8.4803e+001  1.1512e+001 51442 83194,82900,82874
 2.7000e+000 83125 -3.7990e+001 -1.1159e+002  1.1426e+001 51442 82900,82978,82926
 2.7000e+000 83102 -2.3078e+001 -7.2405e+001  1.6171e+000 51442 82874,83030,83004
 2.7000e+000 83079 -9.0346e+000 -1.0072e+002  1.2140e+001 51442 82926,82978,82952
 2.7000e+000 83056 -1.4597e+001 -6.2902e+001  5.7077e+000 51442 82848,83030,82874
 2.7000e+000 83220 -3.1851e+000 -9.4908e+001  1.2091e+001 51442 83004,82978,83194
 2.7000e+000 83243 -2.9600e+001 -7.7513e+001  7.6193e+000 51442 83004,83194,82874
 2.7000e+000 83751 -3.0972e+001 -4.9623e+001  3.3797e+000 50938 83428,83584,83454
 2.7000e+000 83728 -1.5523e+001 -4.4473e+001  1.3360e+001 50938 83428,83610,83584
 2.7000e+000 83705 -2.8506e+001 -6.6568e+001  1.2405e+000 50938 83454,83584,83558
 2.7000e+000 83682 -2.1823e+001 -6.2358e+001  1.7174e+000 50938 83454,83532,83480
 2.7000e+000 83659 -2.8061e+001 -6.5715e+001  3.7600e+000 50938 83454,83558,83532
 2.7000e+000 83636 -3.7768e+001 -8.3950e+001 -7.3096e+000 50938 83480,83532,83506
 2.7000e+000 84355 -2.9413e+001 -1.6533e+002  2.0240e+001 50377 84378,83960,83934
 2.7000e+000 84332 -6.8393e+000 -1.1270e+002  1.8617e+001 50377 84522,84378,83934
 2.7000e+000 84309 -2.0477e+001 -1.0176e+002  1.2043e+001 50377 84450,84038,84012
 2.7000e+000 84286 -1.6768e+001 -9.2818e+001  1.6519e+001 50377 84522,83934,84142
 2.7000e+000 84263 -1.4852e+001 -1.0636e+002  1.0914e+001 50377 84594,84090,84038
 2.7000e+000 84240 -8.2394e+001 -1.3193e+002  8.8118e+000 50377 83960,84012,83986
 2.7000e+000 84217 -3.3859e+001 -9.6979e+001  1.2075e+001 50377 83934,84168,84142
 2.7000e+000 84194 -8.1552e+000 -6.8449e+001  3.6473e+001 50377 84038,84090,84064
 2.7000e+000 84404 -5.3228e+001 -1.4396e+002 -1.3217e+001 50377 84012,83960,84378
 2.7000e+000 84427 -1.4594e+001 -1.0248e+002  3.1322e+000 50377 84450,84012,84378
 2.7000e+000 84476 -2.4595e+001 -1.0781e+002  7.1405e+000 50377 84594,84038,84450
 2.7000e+000 84499 -1.9767e+001 -1.3772e+002 -2.6352e+000 50377 84116,84450,84378
 2.7000e+000 84548 -8.1752e+000 -1.3987e+002  9.0082e+000 50377 84116,84378,84522
 2.7000e+000 84571 -1.4439e+001 -1.1508e+002  6.4357e+000 50377 84116,84522,84142
 2.7000e+000 84620  2.5913e+000 -1.1118e+002  1.3606e+001 50377 84116,84090,84594
 2.7000e+000 84643 -5.0256e+000 -1.1085e+002  1.0020e+001 50377 84116,84594,84450
 2.7000e+000 84842 -2.5198e+001 -1.1576e+002  6.9594e+000 49923 84865,84692,84666
 2.7000e+000 84819 -3.5316e+001 -1.0612e+002 -8.4687e+000 49923 84865,84666,84770
 2.7000e+000 84796 -5.7399e+000 -1.6495e+002 -1.0607e+001 49923 84692,84744,84718
 2.7000e+000 84891 -3.2540e+001 -1.2570e+002  3.0208e+000 49923 84744,84692,84865
 2.7000e+000 84914 -4.6608e+001 -1.2435e+002 -1.3777e+001 49923 84744,84865,84770
 2.7000e+000 85501 -2.8976e+001 -1.2805e+002  1.5336e+001 49618 85524,85282,85204
 2.7000e+000 85478 -2.7678e+001 -1.2709e+002  1.5916e+001 49618 85596,85524,85204
 2.7000e+000 85455 -2.7203e+001 -1.3165e+002  1.5289e+001 49618 85596,85204,85178
 2.7000e+000 85432 -5.5134e+001 -1.5055e+002  2.5049e+001 49618 85204,85282,85256
 2.7000e+000 85409 -4.8229e+001 -1.8792e+002  1.1963e+001 49618 85282,85334,85308
 2.7000e+000 85386 -5.9228e+001 -1.7884e+002 -7.5188e+000 49618 85204,85256,85230
 2.7000e+000 85550 -3.0455e+001 -1.2950e+002  1.7169e+001 49618 85334,85282,85524
 2.7000e+000 85573 -2.2060e+001 -1.2506e+002  2.0759e+001 49618 85334,85524,85360
 2.7000e+000 85622 -2.8427e+001 -1.3318e+002  1.7496e+001 49618 85360,85524,85596
 2.7000e+000 85645 -2.6411e+001 -1.3585e+002  1.6663e+001 49618 85360,85596,85178
 2.7000e+000 85795 -5.1425e+001 -1.7877e+002 -1.3280e+001 49278 85694,85746,85720
 2.7000e+000 85772 -6.5793e+001 -3.3439e+002 -1.0481e+001 49278 85668,85746,85694
 2.7000e+000 86197 -3.3140e+001 -2.2338e+002 -2.7295e+001 48916 86001,86079,86027
 2.7000e+000 86174  1.4440e+001 -9.4991e+001 -2.1045e+001 48916 85949,86079,86001
 2.7000e+000 86151  1.7734e+001 -2.2830e+002 -7.8482e+000 48916 85949,86001,85975
 2.7000e+000 86128 -4.5054e+001 -2.5054e+002 -2.4470e+001 48916 86027,86079,86053
 2.7000e+000 86105 -3.8991e+000 -6.1830e+001  1.3477e+001 48916 85923,86079,85949
 2.7000e+000 86477 -1.1386e+001 -6.4086e+001  3.5865e+000 48398 86327,86379,86353
 2.7000e+000 86454 -8.6536e+000 -7.3515e+001  6.9325e+000 48398 86500,86379,86327
 2.7000e+000 86431 -8.8462e+000 -5.8792e+001  8.6426e+000 48398 86301,86405,86379
 2.7000e+000 86526 -3.5177e+001 -7.1686e+001  1.2989e+001 48398 86301,86379,86500
 2.7000e+000 87032  2.5209e+000 -1.1067e+002 -2.5398e+001 48008 87127,87055,86787
 2.7000e+000 87009  3.6523e+000 -1.5282e+002  5.2931e-001 48008 87055,86735,86709
 2.7000e+000 86986 -2.4373e+001 -9.4433e+001 -2.0876e+001 48008 87127,86787,86761
 2.7000e+000 86963 -5.0373e+000 -6.3146e+001 -7.9453e+000 48008 86787,86865,86839
 2.7000e+000 86940  2.6920e+001 -6.9447e+001  2.1578e+001 48008 86709,86891,86865
 2.7000e+000 86917 -4.6237e+001 -7.2598e+001 -7.4155e+000 48008 86787,86839,86813
 2.7000e+000 87081 -1.3463e+001 -1.0801e+002 -7.9409e+000 48008 86865,86787,87055
 2.7000e+000 87104  1.3990e+001 -7.3802e+001  2.2507e+001 48008 86865,87055,86709
 2.7000e+000 87153 -3.0253e+001 -1.3806e+002 -3.7139e+001 48008 86735,87055,87127
 2.7000e+000 87176 -6.9480e+001 -1.1432e+002 -3.0761e+001 48008 86735,87127,86761
 2.7000e+000 87456 -1.1948e+001 -8.4405e+001  1.1237e+001 47604 87306,87358,87332
 2.7000e+000 87433  4.1457e+001 -5.3319e+001 -1.8898e+000 47604 87306,87384,87358
 2.7000e+000 87410 -2.9500e+000 -7.1953e+001  3.6327e+000 47604 87280,87384,87306
 2.7000e+000 87785  4.3823e+000 -8.0972e+001  1.5438e+001 47264 87638,87690,87664
 2.7000e+000 87762 -2.0845e+001 -1.3979e+002  3.1158e+001 47264 87612,87690,87638
 2.7000e+000 87739 -2.8525e+001 -1.6439e+002  3.2079e+001 47264 87560,87690,87612
 2.7000e+000 87716 -1.7262e+001 -1.7870e+002  1.6998e+001 47264 87560,87612,87586
 2.7000e+000 87935  4.3086e+001  1.4198e+001  8.1488e+000 46952 87808,87860,87834
 2.7000e+000 87912 -1.9855e-001 -1.0460e+002  2.6945e+000 46952 87808,87886,87860
 2.7000e+000 88281 -1.0359e+001 -1.0326e+002  1.1403e+001 46526 88304,88114,88036
 2.7000e+000 88258 -9.4344e+000 -9.4643e+001  1.4854e+001 46526 88304,88036,87984
 2.7000e+000 88235 -9.3883e+000 -1.0068e+002  5.0882e+000 46526 88036,88114,88062
 2.7000e+000 88212 -1.0620e+001 -8.4446e+001  1.2400e+001 46526 87958,88140,87984
 2.7000e+000 88189 -1.1730e+001 -1.0096e+002  2.5147e+001 46526 87984,88036,88010
 2.7000e+000 88166 -5.9413e+000 -7.4085e+001  2.0258e+001 46526 88062,88114,88088
 2.7000e+000 88330 -1.4430e+001 -9.4262e+001  1.0052e+001 46526 88140,88114,88304
 2.7000e+000 88353 -1.4183e+001 -8.5990e+001  1.2277e+001 46526 88140,88304,87984
 2.7000e+000 88701  3.3914e+001 -6.2900e+001  2.8637e+001 45822 88724,88378,88534
 2.7000e+000 88678  3.7632e+001 -2.8762e+001  3.1734e+001 45822 88378,88560,88534
 2.7000e+000 88655 -6.0936e+000 -7.4784e+001  2.2819e+001 45822 88724,88534,88508
 2.7000e+000 88632 -4.0737e+001 -1.0086e+002  2.9245e+000 45822 88404,88508,88456
 2.7000e+000 88609 -3.6625e+001 -9.3362e+001 -3.5707e-001 45822 88404,88456,88430
 2.7000e+000 88586 -1.2283e+001 -4.7546e+001 -2.5615e+001 45822 88456,88508,88482
 2.7000e+000 88750  1.9399e+000 -6.0191e+001  6.3790e+000 45822 88404,88378,88724
 2.7000e+000 88773 -2.9314e+001 -6.6565e+001  4.0697e-001 45822 88404,88724,88508
 2.7000e+000 89106 -6.5630e+001 -1.0227e+002  2.7713e+001 45418 88881,88985,88907
 2.7000e+000 89083 -6.6776e+001 -1.1656e+002  3.1399e+001 45418 88881,89011,88985
 2.7000e+000 89060  4.3088e+001 -5.3135e+001  4.6155e+001 45418 88907,88985,88933
 2.7000e+000 89037 -5.0868e+001 -9.6638e+001  2.6722e+000 45418 88933,88985,88959
 2.7000e+000 89435 -2.2851e+001 -8.7969e+001  2.8165e+001 44914 89210,89288,89236
 2.7000e+000 89412 -5.3273e+001 -1.2598e+002  4.5741e+001 44914 89210,89314,89288
 2.7000e+000 89389 -1.0144e+001 -8.4417e+001  2.6884e+001 44914 89210,89340,89314
 2.7000e+000 89366 -3.2559e+001 -9.4116e+001  3.2059e+001 44914 89236,89288,89262
 2.7000e+000 89634 -1.2896e+001 -7.9308e+001  3.2691e+001 44538 89510,89562,89536
 2.7000e+000 89611 -2.7385e+001 -5.3544e+001  1.9796e+000 44538 89458,89562,89510
 2.7000e+000 89588 -3.5303e+001 -9.1378e+001  6.6057e+000 44538 89458,89510,89484
 2.7000e+000 90044  4.8568e+000 -6.7512e+001  2.0872e+000 44134 89819,89923,89845
 2.7000e+000 90021 -2.2208e+001 -4.1785e+001 -5.6814e+001 44134 89819,89949,89923
 2.7000e+000 89998 -1.6110e+001 -5.9718e+001  1.3173e+001 44134 89845,89923,89897
 2.7000e+000 89975 -4.5750e+001 -1.0875e+002 -3.2951e+000 44134 89845,89897,89871
 2.7000e+000 90520 -2.0963e-001 -1.3484e+002 -1.0849e+001 43457 90543,90252,90226
 2.7000e+000 90497 -2.6574e+001 -1.3993e+002 -1.0910e+001 43457 90543,90226,90330
 2.7000e+000 90474 -3.6282e+001 -1.5643e+002 -1.4943e+001 43457 90200,90330,90226
 2.7000e+000 90451 -4.6670e+001 -1.2059e+002  4.3393e+001 43457 90200,90356,90330
 2.7000e+000 90428  5.0839e+001 -7.1174e+001 -3.2275e+001 43457 90252,90304,90278
 2.7000e+000 90405 -4.4366e+001 -1.6096e+002  4.2835e+001 43457 90174,90356,90200
 2.7000e+000 90382 -3.6375e+001 -4.1652e+001  7.6673e+001 43457 90148,90356,90174
 2.7000e+000 90569  2.3075e+001 -1.4403e+002 -3.3743e+001 43457 90304,90252,90543
 2.7000e+000 90592 -1.9144e+001 -1.5685e+002 -3.8875e+001 43457 90304,90543,90330
 2.7000e+000 91098 -1.0850e+001 -7.5134e+001 -4.7896e+000 42789 90801,90905,90853
 2.7000e+000 91075 -2.8799e+001 -9.3247e+001  2.9848e+000 42789 90775,90905,90801
 2.7000e+000 91052 -2.2751e+001 -9.8619e+001  1.7659e+001 42789 90775,90931,90905
 2.7000e+000 91029 -2.6532e+001 -1.3439e+002  5.2636e+000 42789 90801,90853,90827
 2.7000e+000 91006  1.2788e+001 -6.7239e+001  6.6278e+000 42789 90853,90905,90879
 2.7000e+000 90983 -2.1473e+001 -9.5489e+001  1.6811e+001 42789 90775,90957,90931
 2.7000e+000 91427 -5.2830e+001 -1.2354e+002 -1.6843e+001 42227 91228,91280,91254
 2.7000e+000 91404 -6.4433e+000 -1.3140e+002 -1.2654e+001 42227 91228,91306,91280
 2.7000e+000 91381 -4.4875e+001 -1.4110e+002  9.8871e+000 42227 91202,91306,91228
 2.7000e+000 91358  9.3004e-001 -8.0190e+001 -1.3397e+001 42227 91202,91332,91306
 2.7000e+000 91675 -1.6330e+001 -8.8217e+001  1.6517e+001 41773 91698,91476,91450
 2.7000e+000 91652 -6.0563e+000 -8.0506e+001  3.9020e+001 41773 91698,91450,91554
 2.7000e+000 91629 -2.9388e+001 -6.3967e+001  4.2321e+001 41773 91450,91580,91554
 2.7000e+000 91606 -1.2850e+001 -1.0997e+002  2.0510e+001 41773 91502,91554,91528
 2.7000e+000 91724 -3.4897e+001 -9.2417e+001  8.3645e+000 41773 91502,91476,91698
 2.7000e+000 91747 -2.8530e+001 -8.6085e+001  3.1078e+001 41773 91502,91698,91554
 2.7000e+000 92127 -1.3346e+000 -2.0423e+002 -3.3772e+000 41255 92150,91905,91879
 2.7000e+000 92104 -1.4039e+001 -1.8383e+002  1.2447e+000 41255 92150,91879,91957
 2.7000e+000 92081 -6.5889e+001 -2.3104e+002  2.6124e+001 41255 91853,91957,91879
 2.7000e+000 92058 -7.0422e+001 -2.4863e+002  5.6939e+001 41255 91853,91983,91957
 2.7000e+000 92035  2.0579e+001 -2.8800e+002  6.3201e+001 41255 91853,92009,91983
 2.7000e+000 92176 -8.3940e+000 -2.2095e+002 -1.5057e+001 41255 91931,91905,92150
 2.7000e+000 92199 -1.8546e+001 -1.9143e+002 -1.2989e+001 41255 91931,92150,91957
 2.7000e+000 92518 -1.1358e+002 -2.8703e+002 -2.1309e+001 41007 92244,92374,92270
 2.7000e+000 92495 -1.9157e+002 -3.4490e+002  4.0622e+000 41007 92244,92400,92374
 2.7000e+000 92472 -9.6337e+001 -2.5220e+002 -3.4466e+000 41007 92270,92374,92348
 2.7000e+000 92449 -9.4862e+001 -1.5988e+002  4.9646e+000 41007 92296,92348,92322
 2.7000e+000 92426 -8.8375e+001 -1.8656e+002 -1.2086e+001 41007 92270,92348,92296
 2.7000e+000 92668 -2.5505e+001 -1.3959e+002 -1.7757e+001 40717 92823,92691,92567
 2.7000e+000 92645 -4.5913e+001 -1.0865e+002 -1.9685e+001 40717 92895,92823,92567
 2.7000e+000 92717  6.7795e+001 -1.0031e+002 -2.2657e+001 40717 92593,92567,92691
 2.7000e+000 92849  2.4957e+001 -1.0536e+002 -3.7786e+001 40717 92619,92691,92823
 2.7000e+000 92872 -2.5331e+001 -1.0306e+002 -1.5493e+001 40717 92619,92823,92541
 2.7000e+000 92921 -3.7724e+001 -1.1618e+002 -7.3868e+000 40717 92541,92823,92895
 2.7000e+000 93634 -7.7427e+001 -3.1876e+002 -1.7318e+001 40206 93366,93444,93418
 2.7000e+000 93611 -3.1601e+001 -1.2600e+002 -1.8009e+001 40206 93288,93444,93366
 2.7000e+000 93588 -1.0828e+002 -2.3163e+002  1.6011e+001 40206 93288,93366,93314
 2.7000e+000 93565 -7.3858e+001 -1.3073e+002  5.8271e-001 40206 93262,93444,93288
 2.7000e+000 93542 -3.2267e+001 -2.6477e+002  9.9546e+000 40206 93366,93418,93392
 2.7000e+000 93519 -7.0073e+001 -1.6544e+002  5.3124e+000 40206 93262,93470,93444
 2.7000e+000 93496 -5.0914e+000 -1.8831e+002  3.7578e+001 40206 93314,93366,93340
 2.7000e+000 94189 -2.1262e+001 -7.0522e+001  1.8739e+001 39802 93843,93999,93973
 2.7000e+000 94166  3.5098e+001 -3.5709e+001 -6.7414e+000 39802 93817,93999,93843
 2.7000e+000 94143 -1.1460e+001 -4.8725e+001  1.0443e-001 39802 93869,93973,93947
 2.7000e+000 94120 -2.8080e+000 -5.1806e+001  1.1130e+001 39802 93843,93973,93869
 2.7000e+000 94097 -5.6180e+000 -5.6231e+001 -2.6621e-001 39802 93869,93921,93895
 2.7000e+000 94074 -1.7999e+000 -4.8438e+001 -2.7870e+000 39802 93869,93947,93921
 2.7000e+000 94051 -3.5510e+001 -6.3861e+001  2.0618e+001 39802 93817,94025,93999
 2.7000e+000 94290 -4.2990e+000 -5.9272e+001 -1.2371e+001 39398 94212,94264,94238
 2.7000e+000 94798 -1.4109e+001 -1.0073e+002 -6.0951e+000 38701 94501,94657,94631
 2.7000e+000 94775 -2.4084e+001 -8.0252e+001  7.7321e+000 38701 94475,94657,94501
 2.7000e+000 94752  1.0827e+001 -1.1778e+002 -2.0558e+001 38701 94579,94631,94605
 2.7000e+000 94729 -2.9554e+001 -1.7758e+002 -4.2439e+001 38701 94553,94631,94579
 2.7000e+000 94706 -4.3019e+001 -1.6676e+002  1.0587e+001 38701 94501,94631,94553
 2.7000e+000 94683 -2.6227e+001 -3.1986e+002 -3.8304e-001 38701 94501,94553,94527
 2.7000e+000 95255 -5.0206e+001 -1.4264e+002 -1.9354e+000 38247 95278,95085,95007
 2.7000e+000 95232 -3.7422e+001 -1.3644e+002 -3.6411e-002 38247 95278,95007,95137
 2.7000e+000 95209 -2.7239e+001 -1.1052e+002  2.6367e+000 38247 94981,95137,95007
 2.7000e+000 95186 -6.2157e+001 -1.2181e+002 -2.2817e+001 38247 95007,95059,95033
 2.7000e+000 95163 -5.4137e+001 -1.0125e+002 -1.9371e+001 38247 95007,95085,95059
 2.7000e+000 95304 -5.2461e+001 -1.3811e+002  8.4974e+000 38247 95111,95085,95278
 2.7000e+000 95327 -4.2329e+001 -1.3396e+002  9.2276e+000 38247 95111,95278,95137
 2.7000e+000 95575 -1.6013e+001 -1.5861e+001 -3.9081e+000 37564 95376,95428,95402
 2.7000e+000 95552 -7.9091e+000 -4.4056e+001 -5.5349e+000 37564 95376,95454,95428
 2.7000e+000 95529  1.2392e+001 -3.1570e+001  1.6326e+000 37564 95376,95480,95454
 2.7000e+000 95506  4.1749e+001 -6.9580e+001 -4.8094e+000 37564 95350,95480,95376
 2.7000e+000 96034 -6.6407e+001 -2.1363e+002  8.3718e-002 37224 95786,95838,95812
 2.7000e+000 96011 -5.4120e+001 -1.7061e+002 -8.7140e+000 37224 95786,95890,95838
 2.7000e+000 95988 -7.1295e+001 -1.7317e+002 -3.1126e+000 37224 95786,95916,95890
 2.7000e+000 95965  3.2018e+001 -1.3147e+002 -5.8330e+000 37224 95760,95916,95786
 2.7000e+000 95942 -1.1322e+001 -1.7630e+002 -3.2329e+001 37224 95838,95890,95864
 2.7000e+000 96363 -1.7520e+000 -1.5159e+001 -9.8781e+000 36884 96216,96268,96242
 2.7000e+000 96340  1.5392e+001 -2.2240e+001 -1.2351e+001 36884 96164,96268,96216
 2.7000e+000 96317  3.5081e+001 -1.9993e+001 -8.0504e+000 36884 96138,96268,96164
 2.7000e+000 96294  6.2711e+000 -3.8340e+001 -4.3240e+000 36884 96164,96216,96190
 2.7000e+000 96839 -2.5378e+001 -1.6873e+002  1.2037e+000 36572 96862,96649,96597
 2.7000e+000 96816 -3.1426e+001 -1.5042e+002  3.2089e+000 36572 97006,96862,96597
 2.7000e+000 96793 -3.3924e+001 -1.3332e+002 -1.3730e+001 36572 96934,96467,96675
 2.7000e+000 96770 -3.1484e+001 -1.4726e+002 -5.9716e-002 36572 97006,96597,96571
 2.7000e+000 96747 -6.8437e+001 -2.1103e+002 -3.2917e+000 36572 96467,96519,96493
 2.7000e+000 96724 -2.2079e+001 -1.2117e+002  1.4664e+000 36572 96519,96571,96545
 2.7000e+000 96701 -3.5963e+001 -1.4741e+002 -2.1885e+001 36572 96597,96649,96623
 2.7000e+000 96888 -4.5613e+001 -1.8800e+002 -2.7022e+001 36572 96675,96649,96862
 2.7000e+000 96911 -2.9846e+001 -1.5619e+002 -1.5954e+001 36572 96934,96675,96862
 2.7000e+000 96960 -4.5146e+001 -1.5262e+002 -8.2632e+000 36572 96519,96467,96934
 2.7000e+000 96983 -3.3247e+001 -1.7113e+002 -8.1316e+000 36572 97078,96934,96862
 2.7000e+000 97032 -3.3279e+001 -1.6418e+002  1.9280e+000 36572 97078,96862,97006
 2.7000e+000 97055 -2.8587e+001 -1.4985e+002  3.5652e+000 36572 96519,97006,96571
 2.7000e+000 97104 -2.6581e+001 -1.5463e+002 -5.7098e+000 36572 96519,96934,97078
 2.7000e+000 97127 -3.0017e+001 -1.4956e+002  2.2913e+000 36572 96519,97078,97006
 2.7000e+000 97761 -3.2937e+001 -1.4789e+002 -2.7422e+001 36118 97784,97493,97415
 2.7000e+000 97738 -9.7714e+000 -1.6155e+002 -1.1276e+001 36118 97784,97415,97597
 2.7000e+000 97715  2.7083e+001 -1.6146e+002 -3.2681e+001 36118 97389,97597,97415
 2.7000e+000 97692 -1.6952e+001 -1.6238e+002 -2.6719e+000 36118 97415,97467,97441
 2.7000e+000 97669 -3.9130e+001 -1.5910e+002 -2.5001e+001 36118 97415,97493,97467
 2.7000e+000 97646 -4.3906e+001 -1.0798e+002 -1.4880e+000 36118 97493,97571,97519
 2.7000e+000 97623 -3.0509e+001 -1.2178e+002  2.2883e+001 36118 97519,97571,97545
 2.7000e+000 97810 -1.7626e+001 -1.3834e+002 -1.7727e+001 36118 97571,97493,97784
 2.7000e+000 97833  2.0704e+001 -1.3973e+002  6.4466e-001 36118 97571,97784,97597
 2.7000e+000 98081 -4.9735e+001 -1.6781e+002  2.9300e+000 35564 98104,97908,97856
 2.7000e+000 98058 -4.7687e+001 -1.7262e+002  8.7119e-001 35564 98104,97856,97986
 2.7000e+000 98035 -1.2182e+001 -1.6971e+002  2.1922e+001 35564 97934,97986,97960
 2.7000e+000 98012 -4.6352e+001 -1.5908e+002  1.1419e+000 35564 97856,97908,97882
 2.7000e+000 98130 -4.3244e+001 -1.5295e+002  6.3036e+000 35564 97934,97908,98104
 2.7000e+000 98153 -4.9075e+001 -1.6799e+002  2.6520e+000 35564 97934,98104,97986
 2.7000e+000 98374 -9.0218e+001 -1.6035e+002  2.0171e+000 35152 98224,98302,98276
 2.7000e+000 98351 -9.9299e+001 -1.8631e+002  9.0215e+000 35152 98198,98302,98224
 2.7000e+000 98328 -1.0263e+002 -1.6400e+002  4.2947e+000 35152 98224,98276,98250
 2.7000e+000 98884 -1.1010e+000 -9.5631e+001 -2.5594e+001 34698 98691,98743,98717
 2.7000e+000 98861 -6.6500e+000 -1.0856e+002 -2.7120e+001 34698 98561,98743,98691
 2.7000e+000 98838 -2.6043e+001 -1.1165e+002 -1.9407e+001 34698 98907,98587,98561
 2.7000e+000 98815 -2.6232e+001 -1.1384e+002 -2.1268e+001 34698 98907,98561,98691
 2.7000e+000 98792 -5.5976e+001 -1.4685e+002  5.0252e-001 34698 98587,98639,98613
 2.7000e+000 98769 -4.8155e+000 -6.8522e+001 -3.1890e+001 34698 98587,98665,98639
 2.7000e+000 98933 -2.3952e+001 -1.1173e+002 -1.7336e+001 34698 98665,98587,98907
 2.7000e+000 98956 -2.4192e+001 -1.1490e+002 -1.9235e+001 34698 98665,98907,98691
 2.7000e+000 99204  1.2347e+000 -1.2476e+002 -1.7859e+001 34144 99227,99031,99005
 2.7000e+000 99181 -9.0308e+000 -1.2594e+002 -2.0078e+001 34144 99299,99227,99005
 2.7000e+000 99158 -1.0511e+001 -1.2483e+002 -1.7413e+001 34144 99299,99005,99109
 2.7000e+000 99135 -1.7870e+001 -9.9572e+001 -9.9889e+000 34144 98979,99109,99005
 2.7000e+000 99253 -4.5735e+000 -1.3065e+002 -2.1213e+001 34144 99057,99031,99227
 2.7000e+000 99276 -6.0815e+000 -1.2409e+002 -2.4415e+001 34144 99057,99227,99083
 2.7000e+000 99325 -5.5835e+000 -1.2094e+002 -2.3634e+001 34144 99083,99227,99299
 2.7000e+000 99348 -1.0294e+001 -1.2128e+002 -2.0799e+001 34144 99083,99299,99109
 2.7000e+000 99498 -2.8324e+000 -5.2955e+001  1.8530e+001 33433 99397,99449,99423
 2.7000e+000 99475 -2.2780e+001 -2.8911e+001  1.4363e+000 33433 99371,99449,99397
 2.7000e+000 100008 -2.9888e+001 -1.0264e+002 -1.4675e+001 32979 100103,100031,99815
 2.7000e+000 99985 -2.9277e+001 -1.1442e+002 -2.1038e+001 32979 100175,100031,99763
 2.7000e+000 99962 -2.0810e+001 -1.1599e+002 -2.6890e+001 32979 100103,99815,99789
 2.7000e+000 99939 -3.3754e+001 -1.3042e+002 -2.1151e+001 32979 100175,99763,99737
 2.7000e+000 99916 -3.2408e+001 -1.1878e+002 -1.2414e+001 32979 99685,99867,99737
 2.7000e+000 99893 -3.5405e+001 -2.0015e+002 -3.7738e+001 32979 99685,99737,99711
 2.7000e+000 100057 -3.3293e+001 -1.0393e+002 -1.4987e+001 32979 99841,99815,100031
 2.7000e+000 100080 -1.8121e+001 -5.3875e+001 -2.7239e+001 32979 99841,100031,99867
 2.7000e+000 100129 -2.6408e+001 -1.3085e+002 -1.4665e+001 32979 99763,100031,100103
 2.7000e+000 100152 -2.5864e+001 -1.5335e+002 -2.8879e+001 32979 99763,100103,99789
 2.7000e+000 100201 -3.3005e+001 -1.0734e+002 -1.2910e+001 32979 99867,100031,100175
 2.7000e+000 100224 -3.4859e+001 -1.1548e+002 -1.5632e+001 32979 99867,100175,99737
 2.7000e+000 100553  3.3667e+001 -1.1188e+002 -3.8706e+000 32503 100354,100406,100380
 2.7000e+000 100530 -1.3723e+001 -1.2701e+002 -3.0923e+000 32503 100328,100406,100354
 2.7000e+000 100507 -3.2615e+001 -1.4670e+002  1.6130e+001 32503 100328,100458,100406
 2.7000e+000 100484 -2.8353e+001 -1.7601e+002  1.8986e+001 32503 100406,100458,100432
 2.7000e+000 100850 -6.4424e+001 -1.8736e+002 -2.1275e+001 31899 100873,100654,100628
 2.7000e+000 100827 -5.4457e+001 -1.7489e+002 -1.3457e+001 31899 100945,100873,100628
 2.7000e+000 100804 -4.4115e+001 -1.6526e+002 -9.0222e+000 31899 100945,100628,100602
 2.7000e+000 100781 -4.7785e+001 -1.3687e+002 -1.3798e+001 31899 100576,100732,100602
 2.7000e+000 100758 -8.2321e+001 -1.4188e+002 -9.4388e+001 31899 100654,100706,100680
 2.7000e+000 100899 -3.2830e+001 -1.5546e+002 -3.4111e+001 31899 100706,100654,100873
 2.7000e+000 100922 -8.8980e+001 -1.7779e+002 -3.1898e+001 31899 100706,100873,100732
 2.7000e+000 100971 -7.9072e+001 -1.5635e+002 -2.0276e+001 31899 100732,100873,100945
 2.7000e+000 100994 -6.6529e+001 -1.4435e+002 -1.5031e+001 31899 100732,100945,100602
 2.7000e+000 101551 -5.2725e+001 -1.6085e+002 -6.1074e+000 31338 101205,101387,101231
 2.7000e+000 101528 -7.9796e-001 -1.3926e+002  4.5029e+000 31338 101179,101387,101205
 2.7000e+000 101505 -5.1558e+001 -1.1895e+002  1.0367e+001 31338 101574,101309,101257
 2.7000e+000 101482 -5.8186e+001 -1.3409e+002  4.8015e+000 31338 101646,101574,101257
 2.7000e+000 101459 -5.6874e+001 -1.3064e+002  4.9375e+000 31338 101646,101257,101231
 2.7000e+000 101436 -2.5643e+001 -1.8868e+002  1.0261e+001 31338 101309,101361,101335
 2.7000e+000 101413 -1.6816e+001 -1.0557e+002  1.0367e+001 31338 101257,101309,101283
 2.7000e+000 101600 -2.7654e+001 -1.3705e+002 -4.4600e+000 31338 101361,101309,101574
 2.7000e+000 101623 -6.2240e+001 -1.6418e+002 -1.9325e+001 31338 101361,101574,101387
 2.7000e+000 101672 -5.7986e+001 -1.3229e+002  2.3529e+000 31338 101387,101574,101646
 2.7000e+000 101695 -5.7901e+001 -1.3137e+002  2.2498e+000 31338 101387,101646,101231
 2.7000e+000 101943 -9.8641e+000 -1.2773e+002 -1.6528e-001 30748 101966,101796,101744
 2.7000e+000 101920 -1.1564e+001 -1.3447e+002 -2.1631e+000 30748 101966,101744,101718
 2.7000e+000 101897 -2.4160e+001 -1.4692e+002  1.5497e+001 30748 101718,101848,101822
 2.7000e+000 101874 -2.5107e+001 -1.1515e+002 -1.8859e+001 30748 101744,101796,101770
 2.7000e+000 101992 -7.9866e+000 -1.3409e+002 -7.5342e-001 30748 101822,101796,101966
 2.7000e+000 102015 -8.7725e+000 -1.4025e+002 -1.8241e+000 30748 101822,101966,101718
 2.7000e+000 102493 -7.0708e+001 -1.6231e+002 -6.3305e+000 30344 102516,102173,102147
 2.7000e+000 102470 -6.1659e+001 -1.4187e+002 -8.3792e+000 30344 102660,102516,102147
 2.7000e+000 102447 -4.8300e+001 -1.5505e+002 -1.4700e+001 30344 102588,102199,102173
 2.7000e+000 102424 -3.6812e+001 -1.4278e+002 -1.1190e+001 30344 102660,102147,102329
 2.7000e+000 102401 -4.2195e+001 -1.5796e+002 -3.5271e+001 30344 102199,102277,102251
 2.7000e+000 102378 -8.7058e+000 -1.2875e+002 -5.0209e+001 30344 102199,102251,102225
 2.7000e+000 102355 -5.0974e-001 -1.2320e+002  1.0200e+001 30344 102121,102329,102147
 2.7000e+000 102542 -5.2756e+001 -1.5425e+002 -1.4639e+001 30344 102588,102173,102516
 2.7000e+000 102565 -9.4008e+001 -1.6616e+002  2.6340e+000 30344 102277,102516,102303
 2.7000e+000 102614 -5.3453e+001 -1.5463e+002 -1.5326e+001 30344 102277,102199,102588
 2.7000e+000 102637 -5.8500e+001 -1.5476e+002 -1.6248e+001 30344 102277,102588,102516
 2.7000e+000 102686 -3.3566e+001 -1.4212e+002  3.2621e+000 30344 102303,102516,102660
 2.7000e+000 102709 -1.8385e+001 -1.5002e+002  1.8785e+000 30344 102303,102660,102329
 2.7000e+000 103294 -1.7140e+001 -1.3214e+002 -1.1275e+001 29726 103317,103101,103075
 2.7000e+000 103271 -1.0272e+001 -1.1493e+002 -8.4438e+000 29726 103317,103075,102997
 2.7000e+000 103248  1.6423e+001 -1.0665e+002 -3.5248e+001 29726 102971,103153,102997
 2.7000e+000 103225 -3.6003e+001 -1.5904e+002 -2.5643e+001 29726 103101,103153,103127
 2.7000e+000 103202 -2.4293e+001 -1.3687e+002 -2.3050e+000 29726 102997,103075,103023
 2.7000e+000 103179  2.4027e+001 -9.2636e+001 -2.8226e+001 29726 103023,103075,103049
 2.7000e+000 103343 -2.0051e+001 -1.1668e+002 -1.3701e+001 29726 103153,103101,103317
 2.7000e+000 103366 -1.8922e+001 -1.0767e+002 -1.2800e+001 29726 103153,103317,102997
 2.7000e+000 103614  8.6246e+000 -9.8159e+001 -1.1938e+001 29200 103781,103637,103467
 2.7000e+000 103591 -2.6865e+001 -1.0397e+002  2.8636e+000 29200 103709,103637,103415
 2.7000e+000 103568 -3.7982e+001 -1.1069e+002 -3.9336e+000 29200 103709,103415,103389
 2.7000e+000 103545 -1.8357e+000 -7.9092e+001 -2.8595e+001 29200 103781,103467,103441
 2.7000e+000 103663  2.4979e+001 -1.0566e+002  2.8892e+000 29200 103853,103637,103493
 2.7000e+000 103686  1.7511e+001 -5.2478e+001  5.2422e+000 29200 103493,103637,103519
 2.7000e+000 103735 -8.9365e+000 -1.1333e+002  8.3136e+000 29200 103519,103637,103709
 2.7000e+000 103758 -1.9677e+001 -1.1739e+002  2.8932e+000 29200 103519,103709,103389
 2.7000e+000 103807 -5.2928e+000 -1.2739e+002 -1.5936e+001 29200 103415,103637,103781
 2.7000e+000 103830 -2.4391e+001 -1.2102e+002 -3.7716e+001 29200 103415,103781,103441
 2.7000e+000 103879 -6.6506e-001 -1.0741e+002 -7.9883e+000 29200 103467,103637,103853
 2.7000e+000 104545 -1.9289e+001 -1.0612e+002 -1.3445e+001 28860 104274,104352,104326
 2.7000e+000 104522 -4.7623e+001 -1.0725e+002 -1.0259e+001 28860 104248,104352,104274
 2.7000e+000 104499 -3.1404e+001 -9.9772e+001 -1.2096e+001 28860 104248,104404,104352
 2.7000e+000 104476 -7.3893e+001 -9.2562e+001 -1.4429e+001 28860 104222,104404,104248
 2.7000e+000 104453 -2.1983e+001 -8.1678e+001 -1.5546e+001 28860 104352,104404,104378
 2.7000e+000 104430 -3.6390e+001 -1.0756e+002 -1.6940e+001 28860 104274,104326,104300
 2.7000e+000 104744  2.3202e+001 -1.3155e+002 -3.4968e+001 28456 104839,104767,104646
 2.7000e+000 104721 -6.6082e+001 -1.9318e+002 -7.6029e+000 28456 104767,104594,104568
 2.7000e+000 104698  4.6844e+001 -1.0632e+002 -2.1543e+001 28456 104839,104646,104620
 2.7000e+000 104793 -1.6264e+001 -1.6376e+002 -1.5963e+001 28456 104672,104646,104767
 2.7000e+000 104816 -7.4024e+001 -2.1002e+002  2.8521e+001 28456 104911,104767,104568
 2.7000e+000 104865 -2.3818e+001 -1.6516e+002  6.4650e+000 28456 104594,104767,104839
 2.7000e+000 104888  4.3916e+001  1.9043e+000 -5.6730e+000 28456 105041,104839,104620
 2.7000e+000 104937  4.0490e+000 -1.0315e+002 -1.1684e+001 28456 104672,104767,104911
 2.7000e+000 105067 -1.6108e+001 -1.4958e+002 -2.6983e+001 28456 104594,104839,105041
 2.7000e+000 105573 -4.5349e+001 -1.5951e+002 -8.8927e+000 28094 105812,105596,105328
 2.7000e+000 105550 -5.5297e+001 -1.4239e+002  6.1163e+000 28094 105596,105276,105250
 2.7000e+000 105527 -2.3580e+001 -1.6908e+002 -4.4678e+000 28094 105740,105668,105432
 2.7000e+000 105504 -3.7760e+001 -1.7922e+002  7.1202e+000 28094 105740,105432,105380
 2.7000e+000 105481 -3.0367e+001 -1.6991e+002 -6.7384e-001 28094 105812,105328,105302
 2.7000e+000 105458 -1.8235e+001 -1.9695e+002  8.7761e+000 28094 105380,105432,105406
 2.7000e+000 105622 -1.2506e+001 -1.1904e+002 -2.3437e+001 28094 105354,105328,105596
 2.7000e+000 105645 -2.6703e+001 -1.2917e+002  7.9844e+000 28094 105668,105354,105596
 2.7000e+000 105694 -1.9124e+001 -1.4388e+002 -1.0984e+001 28094 105250,105432,105668
 2.7000e+000 105717 -4.5327e+001 -1.6417e+002  2.4936e-001 28094 105250,105668,105596
 2.7000e+000 105766 -4.9834e+001 -1.6702e+002  1.9558e+001 28094 105354,105668,105740
 2.7000e+000 105789 -6.3663e+001 -1.8485e+002  3.2574e+001 28094 105354,105740,105380
 2.7000e+000 105838 -3.1418e+001 -1.4078e+002 -2.7424e+000 28094 105276,105596,105812
 2.7000e+000 105861  9.7391e+000 -1.4039e+002  1.8438e+001 28094 105276,105812,105302
 2.7000e+000 106367 -3.2672e+001 -1.8204e+002 -2.1181e+001 27390 106070,106122,106096
 2.7000e+000 106344 -3.2909e+001 -2.0113e+002 -1.9516e+001 27390 106070,106226,106122
 2.7000e+000 106321 -9.7791e+000 -1.9763e+002 -1.1520e+001 27390 106174,106226,106200
 2.7000e+000 106298 -1.9165e+001 -1.8202e+002 -1.0848e+001 27390 106122,106226,106174
 2.7000e+000 106275 -3.4771e+001 -1.8521e+002  1.4845e+001 27390 106122,106174,106148
 2.7000e+000 106252 -1.6819e+001 -2.0152e+002 -4.1324e+001 27390 106044,106226,106070
 2.7000e+000 106615 -2.7334e+001 -1.6429e+002 -9.7203e+000 26978 106638,106494,106416
 2.7000e+000 106592 -3.7223e+001 -1.5820e+002 -9.8629e+000 26978 106638,106416,106390
 2.7000e+000 106569 -2.6093e+001 -1.5899e+002  2.4686e+000 26978 106416,106494,106442
 2.7000e+000 106546  1.3733e+000 -1.7266e+002 -1.1906e+001 26978 106442,106494,106468
 2.7000e+000 106664 -9.1397e+000 -1.5884e+002 -1.2284e+001 26978 106520,106494,106638
 2.7000e+000 106687 -2.8501e+001 -1.5993e+002 -1.1351e+001 26978 106520,106638,106390
 2.7000e+000 106837 -3.5693e-001 -4.8152e+002 -3.3305e+000 26524 106710,106762,106736
 2.7000e+000 106814 -2.9352e+000 -4.2680e+002 -1.9695e+000 26524 106710,106788,106762
 2.7000e+000 107426 -7.2212e+001 -1.4436e+002  2.0076e+001 26120 107129,107207,107155
 2.7000e+000 107403 -5.8053e+001 -1.2791e+002  1.3893e+001 26120 107129,107285,107207
 2.7000e+000 107380 -7.6128e+001 -1.4618e+002 -2.9548e+000 26120 107207,107285,107259
 2.7000e+000 107357 -1.2662e+001 -1.1352e+002  7.4179e+000 26120 107155,107207,107181
 2.7000e+000 107334 -6.3283e+001 -1.2913e+002  1.5603e+001 26120 107103,107285,107129
 2.7000e+000 107311 -6.9491e+001 -1.3898e+002 -5.2126e-002 26120 107207,107259,107233
 2.7000e+000 107755 -4.1900e+001 -1.2701e+002 -5.9200e+000 25758 107556,107634,107608
 2.7000e+000 107732  1.4221e+001 -1.0524e+002 -2.0939e+001 25758 107556,107660,107634
 2.7000e+000 107709 -6.0098e+001 -1.0832e+002 -2.6709e+001 25758 107556,107608,107582
 2.7000e+000 107686  1.7062e+001  4.8078e+001  2.3470e+001 25758 107530,107660,107556
 2.7000e+000 108438 -5.1453e+001 -1.9846e+002 -7.8952e+000 25468 108121,108199,108173
 2.7000e+000 108415 -4.2128e+000 -8.6596e+001 -9.4843e+000 25468 108095,108199,108121
 2.7000e+000 108392 -1.2590e+001 -9.4176e+001 -1.2990e+001 25468 108095,108251,108199
 2.7000e+000 108369 -3.6184e+001 -1.1430e+002  1.2747e+000 25468 108069,108251,108095
 2.7000e+000 108346 -3.9607e+001 -1.0349e+002 -2.3673e+001 25468 108199,108251,108225
 2.7000e+000 108323 -1.8254e+001 -1.4511e+002  1.6344e+001 25468 108017,108251,108069
 2.7000e+000 108300 -3.0144e+001 -1.2701e+002 -3.9623e+000 25468 108121,108173,108147
 2.7000e+000 108277 -7.3674e+000 -1.2403e+002  1.2416e+001 25468 108017,108069,108043
 2.7000e+000 108588 -2.5476e+001 -1.6412e+002 -4.2086e+001 25064 108611,108513,108487
 2.7000e+000 108565 -7.0698e+001 -1.6147e+002 -3.3337e+001 25064 108683,108611,108487
 2.7000e+000 108637 -2.9176e+001 -1.4280e+002 -3.6957e+001 25064 108539,108513,108611
 2.7000e+000 108660  1.2694e+001 -1.2782e+002 -3.4089e+001 25064 108539,108611,108461
 2.7000e+000 108709  2.0827e+001 -8.4076e+001 -6.7422e+001 25064 108461,108611,108683
 2.7000e+000 109345 -1.1059e+002 -1.8716e+002  4.3230e+001 24410 108999,109155,109103
 2.7000e+000 109322 -7.8986e+001 -1.9099e+002  1.4806e+001 24410 108973,109155,108999
 2.7000e+000 109299 -4.8092e+001 -2.6917e+002  6.0613e+001 24410 109103,109155,109129
 2.7000e+000 109276 -1.0001e+002 -1.8624e+002  1.3655e+001 24410 108973,109181,109155
 2.7000e+000 109253 -7.0321e+001 -1.5163e+002  2.8482e+001 24410 109025,109103,109077
 2.7000e+000 109230 -1.1587e+002 -1.6403e+002  3.7120e+001 24410 108999,109103,109025
 2.7000e+000 109207 -5.8700e+001 -1.4019e+002  2.3770e+001 24410 109025,109077,109051
 2.7000e+000 109723 -5.3340e+001 -1.5523e+002  1.5827e+000 23856 109475,109579,109553
 2.7000e+000 109700 -6.0190e+001 -1.5662e+002  5.4280e+000 23856 109475,109605,109579
 2.7000e+000 109677 -6.4315e+001 -1.9017e+002  2.0656e+001 23856 109475,109553,109527
 2.7000e+000 109654 -6.5509e+001 -1.5865e+002 -6.6862e+000 23856 109449,109605,109475
 2.7000e+000 109631 -1.0931e+000 -1.8511e+002  2.1832e+001 23856 109475,109527,109501
 2.7000e+000 110101 -3.6923e+001 -1.4847e+002 -2.0955e+001 23566 109853,109931,109879
 2.7000e+000 110078 -2.8589e+001 -1.4474e+002 -2.0236e+001 23566 109827,109931,109853
 2.7000e+000 110055 -4.1260e+001 -1.6198e+002 -1.4313e+001 23566 109827,109983,109931
 2.7000e+000 110032 -1.1889e+001 -1.3821e+002 -1.8690e+001 23566 109879,109931,109905
 2.7000e+000 110009 -2.9162e+001 -1.3237e+002 -1.4202e+001 23566 109931,109983,109957
 2.7000e+000 110735 -3.2645e+001 -1.0504e+002 -1.2625e+001 23162 110415,110571,110519
 2.7000e+000 110712 -5.5095e+001 -1.3330e+002 -2.2341e+001 23162 110389,110571,110415
 2.7000e+000 110689 -2.6315e+001 -1.0203e+002 -1.1318e+001 23162 110415,110519,110493
 2.7000e+000 110666 -3.0590e+001 -1.1070e+002 -1.6123e+000 23162 110363,110571,110389
 2.7000e+000 110643  3.8196e+001 -6.2193e+001  2.9149e+001 23162 110441,110493,110467
 2.7000e+000 110620 -7.0556e+000 -1.0775e+002 -9.9118e+000 23162 110415,110493,110441
 2.7000e+000 110597 -3.7395e+001 -1.2214e+002 -1.1313e+001 23162 110519,110571,110545
 2.7000e+000 111211 -5.0390e+001 -1.5680e+002 -1.1176e+001 22708 111378,111306,111021
 2.7000e+000 111188 -1.1055e+001 -1.5402e+002 -3.6251e+000 22708 111234,110969,110917
 2.7000e+000 111165 -4.4411e+001 -1.5165e+002 -8.7362e+000 22708 111450,111234,110917
 2.7000e+000 111142 -5.1856e+001 -1.4564e+002 -3.2117e+001 22708 111378,111021,110995
 2.7000e+000 111119 -5.0467e+001 -1.5006e+002 -2.5043e+001 22708 111450,110917,110865
 2.7000e+000 111096  1.6370e+001 -1.8337e+002  1.5196e+001 22708 110917,110969,110943
 2.7000e+000 111073 -3.4980e+001 -2.3634e+002 -6.5091e+001 22708 110865,110917,110891
 2.7000e+000 111260 -4.3650e+000 -1.5110e+002 -9.6467e+000 22708 111306,110969,111234
 2.7000e+000 111283 -1.5878e+001 -1.2212e+002 -5.2285e+000 22708 111047,111234,110839
 2.7000e+000 111332 -9.0824e-001 -1.9051e+002  2.2765e+001 22708 111047,111021,111306
 2.7000e+000 111355 -2.0845e+001 -1.5720e+002 -1.4776e+001 22708 111047,111306,111234
 2.7000e+000 111404 -6.4011e+000 -1.3960e+002 -2.3886e+001 22708 110969,111306,111378
 2.7000e+000 111427 -1.8221e+001 -1.3307e+002 -3.3314e+001 22708 110969,111378,110995
 2.7000e+000 111476 -1.8082e+001 -1.4529e+002 -6.2544e+000 22708 110839,111234,111450
 2.7000e+000 111499 -1.9267e+001 -1.4283e+002 -2.4141e+001 22708 110839,111450,110865
 2.7000e+000 111600 -2.7152e+001 -1.2244e+002  4.1967e+000 22460 111522,111574,111548
 2.7000e+000 112059 -2.5673e+001 -1.1315e+002 -8.1516e+000 22056 111811,111889,111863
 2.7000e+000 112036 -1.2890e+001 -1.0891e+002 -1.0511e+001 22056 111811,111915,111889
 2.7000e+000 112013 -2.1209e+001 -1.1136e+002 -9.9011e+000 22056 111785,111915,111811
 2.7000e+000 111990 -1.3695e+001 -9.7319e+001 -2.1195e+001 22056 111785,111941,111915
 2.7000e+000 111967 -4.2432e+001 -1.2742e+002  4.3946e-001 22056 111811,111863,111837
 2.7000e+000 112486  1.4577e+001 -1.0696e+002 -9.5070e+000 21594 112509,112267,112215
 2.7000e+000 112463 -2.1351e+001 -1.2488e+002  5.3959e+000 21594 112509,112215,112163
 2.7000e+000 112440 -1.5464e+000 -7.7038e+001 -4.6592e+001 21594 112581,112293,112267
 2.7000e+000 112417 -3.1769e+001 -1.1431e+002  5.3883e+000 21594 112215,112267,112241
 2.7000e+000 112394  2.4315e+001 -1.0021e+002 -1.6657e+000 21594 112163,112345,112319
 2.7000e+000 112371 -2.4246e+001 -1.0936e+002 -2.4438e+000 21594 112163,112215,112189
 2.7000e+000 112535  2.2989e+001 -9.8306e+001 -2.4521e+001 21594 112581,112267,112509
 2.7000e+000 112558 -2.0915e+000 -1.0114e+002 -3.6643e+000 21594 112319,112509,112163
 2.7000e+000 112607 -4.6458e+001 -9.7976e+001 -4.1088e+001 21594 112319,112293,112581
 2.7000e+000 112630 -2.0850e+001 -1.2155e+002 -1.4579e+001 21594 112319,112581,112509
 2.7000e+000 112900 -4.4637e+001 -1.4664e+002 -1.9161e+000 20974 112675,112779,112701
 2.7000e+000 112877 -2.4700e+001 -1.4455e+002 -1.6522e+000 20974 112675,112805,112779
 2.7000e+000 112854 -5.5279e+000 -1.1908e+002  1.1105e+001 20974 112701,112779,112753
 2.7000e+000 112831 -1.4337e+001 -5.6223e+001 -2.8648e+001 20974 112701,112753,112727
 2.7000e+000 113359 -1.9358e+001 -1.3747e+002 -1.9674e+001 20520 113454,113137,113111
 2.7000e+000 113336 -8.0771e+000 -1.4300e+002 -2.4552e+001 20520 113454,113111,113085
 2.7000e+000 113313  7.3620e+000 -5.5201e+001  2.5557e+001 20520 113382,113163,113137
 2.7000e+000 113290 -1.7562e+001 -1.4439e+002 -1.5278e+001 20520 113526,113382,113137
 2.7000e+000 113267 -3.4055e+001 -2.1888e+002 -1.0915e+001 20520 113189,113241,113215
 2.7000e+000 113408 -3.4198e+001 -1.4766e+002  1.2610e+001 20520 113189,113163,113382
 2.7000e+000 113431 -2.0827e+001 -1.6340e+002 -2.7423e+001 20520 113189,113382,113241
 2.7000e+000 113480 -2.1603e+001 -1.4360e+002 -1.7496e+001 20520 113526,113137,113454
 2.7000e+000 113503 -1.4067e+001 -1.5774e+002 -2.3207e+001 20520 113241,113454,113085
 2.7000e+000 113552 -1.0085e+001 -1.4415e+002 -1.5945e+001 20520 113241,113382,113526
 2.7000e+000 113575 -1.2743e+001 -1.4210e+002 -1.7677e+001 20520 113241,113526,113454
 2.7000e+000 113904 -4.5018e+001 -1.5662e+002  2.3344e+000 19858 113705,113783,113757
 2.7000e+000 113881 -3.4566e+001 -1.4074e+002 -2.3586e+000 19858 113705,113809,113783
 2.7000e+000 113858  5.4513e+000 -1.1649e+002 -2.8740e+001 19858 113679,113809,113705
 2.7000e+000 113835 -3.3573e+001 -1.0864e+002  3.3340e+001 19858 113705,113757,113731
 2.7000e+000 114152 -3.9505e+001 -1.1387e+002 -9.2210e+000 19454 114175,114005,113979
 2.7000e+000 114129 -4.0651e+001 -1.1070e+002 -9.4254e+000 19454 114175,113979,114057
 2.7000e+000 114106 -4.7290e+001 -1.2073e+002 -2.8947e-001 19454 113927,114057,113979
 2.7000e+000 114083 -1.9429e+001 -1.1225e+002 -2.2754e+001 19454 113927,113979,113953
 2.7000e+000 114201 -2.8187e+001 -1.0925e+002 -2.4010e+001 19454 114031,114005,114175
 2.7000e+000 114224 -4.1157e+001 -1.0843e+002 -9.8372e+000 19454 114031,114175,114057
 2.7000e+000 114472 -3.7737e+001 -1.6430e+002 -3.8858e+000 19000 114495,114273,114247
 2.7000e+000 114449 -4.9382e+001 -1.7279e+002 -1.0140e+001 19000 114495,114247,114325
 2.7000e+000 114426 -6.7029e+001 -1.7827e+002  4.5484e+000 19000 114247,114377,114325
 2.7000e+000 114403 -7.9864e+001 -1.8695e+002 -2.3935e+001 19000 114325,114377,114351
 2.7000e+000 114521 -4.1020e-001 -1.5261e+002  1.6280e+001 19000 114299,114273,114495
 2.7000e+000 114544 -3.8931e+001 -1.8963e+002  1.1659e+000 19000 114299,114495,114325
 2.7000e+000 114948 -4.2351e+001 -1.6152e+002 -2.8805e+000 18560 114674,114726,114700
 2.7000e+000 114925 -2.1550e+001 -1.2691e+002 -1.2161e+001 18560 114674,114830,114726
 2.7000e+000 114902 -1.9664e+001 -1.2348e+002 -1.6957e+001 18560 114726,114830,114804
 2.7000e+000 114879 -5.2199e+001 -2.4246e+002 -4.0483e+001 18560 114726,114804,114752
 2.7000e+000 114856  1.6552e+001 -3.1522e+002 -5.2899e+001 18560 114752,114804,114778
 2.7000e+000 115098 -9.7114e+001 -2.5720e+002 -2.2510e+000 18156 114971,115023,114997
 2.7000e+000 115075 -9.9171e+001 -1.4004e+002 -3.4782e+000 18156 114971,115049,115023
 2.7000e+000 115248 -7.6083e+001 -2.1176e+002 -3.2008e+000 17602 115147,115199,115173
 2.7000e+000 115225 -1.9641e+001 -1.9915e+002  2.7255e+000 17602 115121,115199,115147
 2.7000e+000 115652 -8.0329e+000 -1.3829e+002 -2.6237e+000 17354 115430,115534,115508
 2.7000e+000 115629 -2.3812e+001 -1.7818e+002  6.7636e+000 17354 115404,115534,115430
 2.7000e+000 115606  3.7034e+001 -1.0913e+002  7.7960e+001 17354 115378,115534,115404
 2.7000e+000 115583  5.5883e+000 -1.6516e+002 -1.8002e+001 17354 115456,115508,115482
 2.7000e+000 115560 -3.0846e+001 -1.9095e+002 -5.4854e+000 17354 115430,115508,115456
 2.7000e+000 115873 -4.7307e+001 -2.4061e+002 -8.4229e+000 16950 115749,115801,115775
 2.7000e+000 115850 -8.9141e+001 -2.2715e+002 -3.1062e+000 16950 115697,115801,115749
 2.7000e+000 115827 -8.3212e+001 -2.4130e+002  5.8384e+000 16950 115697,115749,115723
 2.7000e+000 116023 -9.8045e+001 -2.4125e+002 -2.9373e+001 16496 115922,115974,115948
 2.7000e+000 116000 -9.7479e+001 -2.0012e+002 -1.3835e+001 16496 115896,115974,115922
 2.7000e+000 116126  1.0976e+001 -1.7028e+002  6.4836e+000 16298 116048,116100,116074
 2.7000e+000 116278  4.7829e+001 -2.5518e+002 -5.7844e+000 15892 116151,116203,116177
 2.7000e+000 116255  1.1752e+001 -3.3422e+002  2.9573e+000 15892 116151,116229,116203
 2.7000e+000 116430 -2.5688e+000 -9.0586e+001 -2.1515e+000 15545 116303,116355,116329
 2.7000e+000 116407 -3.1851e+001 -1.8195e+002 -4.6093e+001 15545 116303,116381,116355
 2.7000e+000 116785  2.1936e+001 -9.1099e+001  3.4020e+001 421 116612,116690,116664
 2.7000e+000 116762 -1.6044e+001 -1.8021e+002  2.2836e+001 421 116560,116690,116612
 2.7000e+000 116739 -8.5734e+001 -2.0778e+002  2.1684e+001 421 116560,116612,116586
 2.7000e+000 116716 -4.8143e+001 -2.1143e+002  4.8647e-002 421 116612,116664,116638
 2.8000e+000 68048 -1.8828e+001 -2.0849e+002 -6.7173e+000 67642 67898,67950,67924
 2.8000e+000 68025 -4.2523e+001 -2.3788e+002  5.7733e+000 67642 67898,67976,67950
 2.8000e+000 68002  2.8026e+001 -2.1155e+002  1.1060e+001 67642 67872,67976,67898
 2.8000e+000 68367  1.7572e+001 -9.8311e+001 -4.2567e+000 67444 68119,68223,68197
 2.8000e+000 68344 -2.6524e+001 -2.1256e+002  7.6897e+000 67444 68119,68249,68223
 2.8000e+000 68321 -3.0545e+001 -2.1154e+002  2.8372e+000 67444 68093,68249,68119
 2.8000e+000 68298 -3.0886e+001 -2.1591e+002  2.5449e+000 67444 68119,68197,68171
 2.8000e+000 68275 -9.5218e+001 -2.0432e+002  1.6081e+001 67444 68119,68171,68145
 2.8000e+000 68468 -3.2891e+000 -2.4827e+002  9.3839e+000 67268 68390,68442,68416
 2.8000e+000 68765 -6.2037e+001 -2.2641e+002  4.7434e+000 66956 68788,68517,68491
 2.8000e+000 68742 -5.1321e+001 -2.5027e+002  1.6454e+000 66956 68788,68491,68621
 2.8000e+000 68719 -4.1830e+001 -2.3979e+002 -5.1526e+001 66956 68543,68621,68569
 2.8000e+000 68696 -5.2106e+001 -2.5400e+002 -1.1796e-001 66956 68491,68647,68621
 2.8000e+000 68673 -5.6682e+001 -1.2667e+002 -3.5278e+001 66956 68569,68621,68595
 2.8000e+000 68814 -6.5291e+001 -2.4382e+002  1.1508e+001 66956 68543,68517,68788
 2.8000e+000 68837 -5.1966e+001 -2.6555e+002  6.2929e+000 66956 68543,68788,68621
 2.8000e+000 69107 -1.3743e+001 -2.4623e+002 -7.5646e+000 66758 68882,68986,68908
 2.8000e+000 69084 -4.7181e+001 -2.5035e+002  5.6809e+000 66758 68882,69012,68986
 2.8000e+000 69061 -9.1458e+000 -2.1247e+002 -1.8858e+001 66758 68908,68960,68934
 2.8000e+000 69038  7.0419e+000 -2.0832e+002 -1.6522e+001 66758 68908,68986,68960
 2.8000e+000 69308 -1.1892e+001 -1.9050e+002 -3.8132e+000 66560 69331,69184,69158
 2.8000e+000 69285  9.3189e+000 -2.1268e+002 -6.3496e+000 66560 69331,69158,69132
 2.8000e+000 69262 -2.1709e+001 -2.5243e+002 -1.3970e+000 66560 69184,69236,69210
 2.8000e+000 69357 -1.0519e+001 -2.0856e+002  3.5347e+000 66560 69236,69184,69331
 2.8000e+000 69380 -4.1719e+000 -2.4403e+002  6.9244e+000 66560 69236,69331,69132
 2.8000e+000 69554 -5.7214e+001 -3.1736e+002  1.9874e+001 66270 69427,69479,69453
 2.8000e+000 69531 -1.7530e+001 -2.2437e+002  3.8088e+001 66270 69427,69505,69479
 2.8000e+000 69804 -2.1102e+001 -1.9059e+002 -1.1904e+001 66066 69579,69683,69657
 2.8000e+000 69781  1.0551e+002 -1.3464e+002 -3.7640e+001 66066 69579,69709,69683
 2.8000e+000 69758 -9.1322e-001 -8.4041e+001 -1.7265e+001 66066 69579,69657,69631
 2.8000e+000 69735 -1.3908e+001 -1.1278e+002 -2.1304e+001 66066 69579,69631,69605
 2.8000e+000 70257  2.7909e+001 -7.8481e+001 -1.2379e+001 65776 69960,70090,69986
 2.8000e+000 70234  1.9859e+001 -1.1319e+002 -3.0750e+000 65776 69934,70090,69960
 2.8000e+000 70211  1.6669e+001 -1.2177e+002 -1.1063e+001 65776 69934,70116,70090
 2.8000e+000 70188 -2.0745e+000 -1.1325e+002  0.0000e+000 65776 70038,70090,70064
 2.8000e+000 70165 -1.5531e+000 -1.1542e+002  2.6337e+000 65776 69986,70090,70038
 2.8000e+000 70142 -1.3405e+000 -1.1745e+002  2.2025e+000 65776 69986,70038,70012
 2.8000e+000 70456 -3.2000e+001 -7.9868e+001 -1.6122e+001 65372 70479,70306,70280
 2.8000e+000 70433 -1.4902e+001 -1.1075e+002 -3.6063e+001 65372 70479,70280,70384
 2.8000e+000 70410  3.9385e+000 -7.8792e+001  2.1782e+000 65372 70551,70332,70306
 2.8000e+000 70505 -8.6350e+000 -6.7278e+001 -9.4125e+000 65372 70551,70306,70479
 2.8000e+000 70528  1.9238e+001 -9.3031e+001 -2.9190e+001 65372 70358,70479,70384
 2.8000e+000 70577 -8.4562e+000 -9.7625e+001 -3.6616e+000 65372 70358,70332,70551
 2.8000e+000 70600 -2.2505e+001 -9.0436e+001 -1.5327e+001 65372 70358,70551,70479
 2.8000e+000 70821 -2.6324e+001 -3.0940e+002 -8.0864e+000 65174 70645,70723,70671
 2.8000e+000 70798 -7.0468e+001 -3.2135e+002  5.5436e+000 65174 70645,70749,70723
 2.8000e+000 70775 -9.0891e+000 -2.8202e+002 -1.6495e+001 65174 70671,70723,70697
 2.8000e+000 71071 -1.9083e+001 -1.2158e+002 -4.9949e+000 64770 71094,70898,70872
 2.8000e+000 71048 -1.3303e+001 -1.2224e+002  3.6428e+000 64770 71166,71094,70872
 2.8000e+000 71025 -1.7543e+001 -1.3511e+002 -4.8659e+000 64770 71166,70872,70846
 2.8000e+000 71002 -1.6868e+001 -6.9930e+001  1.6838e+001 64770 70898,70950,70924
 2.8000e+000 71120 -1.6718e+001 -1.0025e+002 -8.0300e+000 64770 70950,70898,71094
 2.8000e+000 71143 -6.2970e+000 -1.2115e+002  6.7474e+000 64770 70950,71094,70976
 2.8000e+000 71192 -1.3998e+001 -1.4688e+002 -4.9129e-001 64770 70976,71094,71166
 2.8000e+000 71215 -1.1775e+001 -1.5157e+002 -8.7666e+000 64770 70976,71166,70846
 2.8000e+000 71514  8.3231e+000 -1.4146e+002 -3.8613e+000 64572 71681,71537,71318
 2.8000e+000 71491 -2.5774e+001 -1.3798e+002 -7.4987e+000 64572 71537,71266,71240
 2.8000e+000 71468 -2.7275e+001 -1.0951e+002 -3.0317e+001 64572 71609,71396,71370
 2.8000e+000 71445  5.3959e-001 -1.3765e+002 -5.3258e+000 64572 71681,71318,71292
 2.8000e+000 71422 -1.2519e+001 -2.1645e+002 -2.7014e+001 64572 71753,71344,71318
 2.8000e+000 71563  1.5097e+001 -1.6551e+002 -1.5298e+001 64572 71753,71318,71537
 2.8000e+000 71586 -1.7104e+001 -1.2470e+002 -1.2189e+001 64572 71609,71370,71537
 2.8000e+000 71635 -4.1278e+000 -5.8210e+001 -3.6195e+001 64572 71240,71396,71609
 2.8000e+000 71658 -5.9207e+000 -9.3135e+001 -1.5685e+001 64572 71240,71609,71537
 2.8000e+000 71707 -9.4102e+000 -1.3357e+002 -1.1181e+001 64572 71266,71537,71681
 2.8000e+000 71730 -3.2637e+001 -1.4024e+002 -1.1399e+001 64572 71266,71681,71292
 2.8000e+000 71779 -1.9540e+001 -1.4607e+002 -2.9760e+001 64572 71370,71344,71753
 2.8000e+000 71802 -1.7065e+001 -1.4171e+002 -2.8675e+001 64572 71370,71753,71537
 2.8000e+000 72052 -1.1067e+001 -1.7552e+002  1.7116e+001 64374 72075,71879,71827
 2.8000e+000 72029  5.6040e+001 -1.3436e+002 -8.9223e+000 64374 72147,72075,71827
 2.8000e+000 72006  1.1569e+002 -1.5362e+002 -4.3037e+001 64374 72147,71827,71957
 2.8000e+000 71983  1.2666e+001 -1.4720e+002  5.7841e+000 64374 71827,71879,71853
 2.8000e+000 72101 -1.9899e+000 -2.2797e+002  5.9750e+001 64374 71905,71879,72075
 2.8000e+000 72124  6.3947e+001 -1.8362e+002  3.7562e+001 64374 71905,72075,71931
 2.8000e+000 72173  5.6739e+000 -1.9239e+002  1.6373e+001 64374 71931,72075,72147
 2.8000e+000 72196  4.3480e+001 -2.2393e+002 -1.3557e+001 64374 71931,72147,71957
 2.8000e+000 72649 -3.4339e+000 -9.6807e+001 -3.3306e+000 63948 72352,72508,72482
 2.8000e+000 72626  5.1566e-001 -7.2945e+001  2.4534e+001 63948 72326,72508,72352
 2.8000e+000 72603  1.0549e+000 -1.3923e+002 -1.2417e+000 63948 72672,72430,72378
 2.8000e+000 72580 -1.4920e+001 -1.5817e+002  6.1535e+000 63948 72672,72378,72352
 2.8000e+000 72557 -7.2983e+000 -1.4695e+002 -8.6516e+000 63948 72744,72456,72430
 2.8000e+000 72534 -4.0218e+000 -1.9642e+002 -3.9820e+001 63948 72378,72430,72404
 2.8000e+000 72698 -8.3211e+000 -1.4330e+002 -6.4638e+000 63948 72744,72430,72672
 2.8000e+000 72721 -3.4170e+000 -1.2996e+002  2.1987e+000 63948 72482,72672,72352
 2.8000e+000 72770 -1.2201e+001 -1.4079e+002 -8.4549e+000 63948 72482,72456,72744
 2.8000e+000 72793 -8.8986e+000 -1.3190e+002 -5.7366e+000 63948 72482,72744,72672
 2.8000e+000 72894 -1.9050e+001 -1.6993e+002 -1.2535e+001 63494 72816,72868,72842
 2.8000e+000 73093 -4.0022e+001 -7.8166e+001 -9.6904e+000 63132 72943,72995,72969
 2.8000e+000 73070 -3.3735e+001 -6.9966e+001  2.8763e+000 63132 72943,73021,72995
 2.8000e+000 73047 -2.9925e+001 -8.5867e+001  1.0242e+001 63132 72917,73021,72943
 2.8000e+000 73294 -3.2807e+000 -4.2798e+001 -2.1534e+001 62792 73317,73144,73118
 2.8000e+000 73271 -4.4824e+000 -3.5724e+001 -7.2398e+000 62792 73317,73118,73222
 2.8000e+000 73248 -1.6538e+001 -4.7785e+001 -2.8477e+001 62792 73144,73196,73170
 2.8000e+000 73343 -1.7890e+001 -5.2412e+001 -2.6151e+001 62792 73196,73144,73317
 2.8000e+000 73366 -1.7343e+001 -4.3290e+001 -1.1259e+001 62792 73196,73317,73222
 2.8000e+000 73616 -3.9373e+001 -1.3567e+002  2.2307e+001 62388 73639,73417,73391
 2.8000e+000 73593 -2.7608e+001 -1.0989e+002  1.5592e+001 62388 73711,73639,73391
 2.8000e+000 73570 -1.4794e+001 -6.6402e+001  8.5158e+000 62388 73711,73391,73521
 2.8000e+000 73547 -8.9554e+000 -1.1166e+002  7.7144e-001 62388 73469,73521,73495
 2.8000e+000 73665 -1.4668e+001 -1.2561e+002  1.9789e+001 62388 73443,73417,73639
 2.8000e+000 73688 -2.1990e+001 -1.5177e+002  1.7293e+001 62388 73443,73639,73469
 2.8000e+000 73737 -1.2548e+001 -1.3918e+002  9.9202e+000 62388 73469,73639,73711
 2.8000e+000 73760 -1.9479e+001 -1.2143e+002  1.1747e+001 62388 73469,73711,73521
 2.8000e+000 74010 -1.7463e+001 -4.0452e+001 -6.6093e+000 61848 74033,73837,73811
 2.8000e+000 73987 -5.8125e+001 -2.7029e+001 -5.0924e+001 61848 74033,73811,73785
 2.8000e+000 73964 -4.7799e+000 -5.6224e+001 -1.6285e+001 61848 73837,73915,73889
 2.8000e+000 73941  5.2822e+000 -4.1151e+001 -1.1905e+001 61848 73837,73889,73863
 2.8000e+000 74059 -1.1983e+001 -6.6174e+001 -2.0137e+001 61848 73915,73837,74033
 2.8000e+000 74082 -1.5457e+001 -9.0144e+001 -3.4714e+001 61848 73915,74033,73785
 2.8000e+000 74283  1.8936e+001 -4.1337e+001  2.2263e+001 61444 74306,74133,74107
 2.8000e+000 74260  2.7501e+001 -1.1607e+001  3.2636e+001 61444 74306,74107,74211
 2.8000e+000 74237  1.8416e+001  4.5924e+001  4.4115e+000 61444 74378,74185,74159
 2.8000e+000 74332  1.7181e+001 -4.3215e+001  4.1015e+000 61444 74159,74133,74306
 2.8000e+000 74355  3.1405e+001 -1.1858e+001  1.1029e+001 61444 74378,74159,74306
 2.8000e+000 74404  8.8574e-001 -1.5652e+001  1.9807e+001 61444 74211,74185,74378
 2.8000e+000 74427  1.2435e+001 -3.1680e+001  1.8800e+001 61444 74211,74378,74306
 2.8000e+000 74628 -5.2915e+000 -3.7004e+001 -1.8654e+001 60990 74478,74530,74504
 2.8000e+000 74605 -1.6099e+000 -4.9147e+001 -2.9847e+001 60990 74452,74530,74478
 2.8000e+000 74582 -1.8516e+001 -4.9475e+001 -3.0418e+001 60990 74452,74556,74530
 2.8000e+000 75089  4.9373e+000 -3.8972e+001 -1.6203e+001 60486 75112,74945,74919
 2.8000e+000 75066 -2.7236e+000 -1.3956e+000  4.0936e+000 60486 75112,74919,74867
 2.8000e+000 75043 -7.5176e+000 -8.8253e+001  1.0759e+001 60486 74841,74971,74867
 2.8000e+000 75020 -1.5551e+000  2.9589e+000 -1.6323e+000 60486 74867,74919,74893
 2.8000e+000 74997 -1.1523e+001 -7.6043e+001  2.5031e+001 60486 74815,74971,74841
 2.8000e+000 75138 -1.2791e+001 -5.3689e+001 -3.2564e+001 60486 74971,74945,75112
 2.8000e+000 75161 -2.0041e+001 -2.8384e+001 -1.0426e+001 60486 74971,75112,74867
 2.8000e+000 75409 -1.2212e+001 -8.1628e+000  1.5417e+001 59932 75576,75432,75288
 2.8000e+000 75386 -1.4151e+001 -1.0242e+001  1.1725e+001 59932 75504,75314,75288
 2.8000e+000 75363 -3.7834e+000  9.9702e+000  2.8421e+001 59932 75432,75236,75210
 2.8000e+000 75340  2.8180e+000 -1.3898e+001  4.1818e+000 59932 75576,75288,75262
 2.8000e+000 75458 -1.5888e+001 -8.0554e+000  1.1089e+001 59932 75504,75288,75432
 2.8000e+000 75481 -1.9167e+001 -7.7929e+000  1.2519e+001 59932 75184,75432,75210
 2.8000e+000 75530 -7.3981e+000 -1.9944e+001  4.4924e+000 59932 75184,75314,75504
 2.8000e+000 75553 -1.8965e+001 -1.0412e+001  9.2938e+000 59932 75184,75504,75432
 2.8000e+000 75602 -2.2261e+001 -2.6245e+001  2.0629e+001 59932 75236,75432,75576
 2.8000e+000 75625 -1.2467e+001 -3.3468e+001  1.4847e+001 59932 75236,75576,75262
 2.8000e+000 75873 -2.7364e+001 -1.3213e+002  8.5365e+000 59478 75674,75752,75700
 2.8000e+000 75850 -5.6111e+001 -1.4315e+002  3.0514e+001 59478 75648,75752,75674
 2.8000e+000 75827 -2.5675e+001 -1.2262e+002  1.3236e+001 59478 75700,75752,75726
 2.8000e+000 75804 -5.1587e+001 -1.4674e+002  3.0760e+001 59478 75648,75778,75752
 2.8000e+000 76206 -1.0528e+001 -1.1268e+002  3.3997e+000 59024 75981,76059,76007
 2.8000e+000 76183 -1.9563e+001 -1.2265e+002  7.3162e+000 59024 75981,76111,76059
 2.8000e+000 76160 -1.7434e+001 -8.3951e+001 -1.8493e+001 59024 76007,76059,76033
 2.8000e+000 76137  9.6197e-001 -1.1947e+002  4.5723e+001 59024 76059,76111,76085
 2.8000e+000 76761 -7.6773e+001 -8.3601e+001 -9.5916e+000 58562 76389,76441,76415
 2.8000e+000 76738 -7.1310e+001 -7.9207e+001  2.0387e+001 58562 76856,76784,76389
 2.8000e+000 76715 -5.0271e+001 -3.2945e+001 -4.2964e+001 58562 76784,76571,76467
 2.8000e+000 76692 -2.0127e+001 -9.6557e+001  2.5477e+001 58562 76856,76389,76597
 2.8000e+000 76669 -5.3172e+001 -2.2215e+002  1.1970e+001 58562 76467,76545,76493
 2.8000e+000 76646 -1.6767e+001 -1.5446e+002 -8.4134e+001 58562 76467,76571,76545
 2.8000e+000 76623 -1.7459e+001 -1.9472e+002  2.4490e+001 58562 76493,76545,76519
 2.8000e+000 76810 -5.6106e+001 -8.4907e+001  6.3810e+000 58562 76441,76389,76784
 2.8000e+000 76833 -1.4142e+002 -2.0021e+002 -9.4564e+001 58562 76441,76784,76467
 2.8000e+000 76882 -1.6241e+001 -5.2703e+001  4.4403e+001 58562 76571,76784,76856
 2.8000e+000 76905  1.5959e+001 -8.2868e+001  4.9796e+001 58562 76571,76856,76597
 2.8000e+000 77055 -1.5495e+000 -1.6216e+002 -2.2788e+001 57844 76928,76980,76954
 2.8000e+000 77032 -3.9393e+001 -1.0679e+002 -2.0966e+001 57844 76928,77006,76980
 2.8000e+000 77533 -5.3378e+001 -2.4326e+002 -3.4632e+000 57226 77628,77556,77291
 2.8000e+000 77510 -4.6652e+001 -4.5122e+001  2.2148e+001 57226 77556,77187,77343
 2.8000e+000 77487 -7.1425e-001 -1.4549e+002 -3.8364e+001 57226 77628,77291,77265
 2.8000e+000 77464 -3.3600e+001 -3.0089e+002  6.2767e+001 57226 77700,77213,77187
 2.8000e+000 77441 -2.5305e+001 -7.0423e+001 -2.5324e+001 57226 77161,77343,77187
 2.8000e+000 77418 -4.2547e+001 -8.2445e+001 -2.0150e+001 57226 77161,77369,77343
 2.8000e+000 77395 -9.2624e+001 -6.3463e+001  2.5136e+001 57226 77213,77265,77239
 2.8000e+000 77582 -4.9091e+001 -1.9790e+002  3.6258e+001 57226 77317,77291,77556
 2.8000e+000 77605 -6.4613e+001 -1.4224e+002  1.5899e+001 57226 77317,77556,77343
 2.8000e+000 77654  2.9219e+001 -1.4074e+002  4.9523e+001 57226 77187,77556,77628
 2.8000e+000 77677 -2.5305e+001 -2.7230e+002  5.7835e+001 57226 77700,77187,77628
 2.8000e+000 77726 -5.6709e+001 -3.2585e+002 -5.0357e+001 57226 77265,77213,77700
 2.8000e+000 77749 -1.6063e+001 -2.2404e+002 -5.0674e+001 57226 77265,77700,77628
 2.8000e+000 78046  1.0297e+000 -1.3719e+002  4.7792e+001 56936 77798,77850,77824
 2.8000e+000 78023 -1.5801e+001 -1.2674e+002  5.1409e+001 56936 78069,77798,77902
 2.8000e+000 78000 -4.0380e+001 -1.3545e+002  4.4393e+001 56936 78069,77902,77876
 2.8000e+000 77977  1.4619e+001 -1.2388e+002  1.2282e-001 56936 77798,77928,77902
 2.8000e+000 77954 -1.8476e+001 -2.1348e+001  2.1060e+001 56936 77772,77928,77798
 2.8000e+000 78095 -6.0389e+000 -1.3111e+002  5.5851e+001 56936 77850,77798,78069
 2.8000e+000 78118 -1.7299e+001 -1.2969e+002  4.9922e+001 56936 77850,78069,77876
 2.8000e+000 78754 -2.8461e-001 -8.5448e+001 -1.5736e+001 56475 78777,78486,78408
 2.8000e+000 78731  1.8721e+001 -8.1592e+001 -1.6070e+001 56475 78777,78408,78382
 2.8000e+000 78708  2.7625e+001 -1.0968e+002 -2.8331e+001 56475 78849,78512,78486
 2.8000e+000 78685  1.3127e+001 -4.8360e+001 -1.4021e+001 56475 78382,78590,78564
 2.8000e+000 78662  1.9454e+001 -8.8433e+001 -4.2940e+001 56475 78512,78564,78538
 2.8000e+000 78639  6.2558e-001 -2.2267e+002  2.3154e+001 56475 78434,78486,78460
 2.8000e+000 78616 -4.9839e+001 -1.8884e+002  3.5739e+000 56475 78408,78486,78434
 2.8000e+000 78803  9.4979e+000 -1.0072e+002 -1.3331e+001 56475 78849,78486,78777
 2.8000e+000 78826  2.0986e+001 -7.7735e+001 -1.1385e+001 56475 78564,78777,78382
 2.8000e+000 78875  3.9379e+001 -8.8327e+001 -3.5060e+001 56475 78564,78512,78849
 2.8000e+000 78898  2.8814e+001 -7.1444e+001 -2.2378e+001 56475 78564,78849,78777
 2.8000e+000 79276 -2.4836e+001 -7.2168e+001 -8.7772e+000 55964 79299,79080,79028
 2.8000e+000 79253 -1.8743e+001 -7.6526e+001 -2.2967e+000 55964 79299,79028,79132
 2.8000e+000 79230 -3.0581e+001 -1.1255e+002 -9.8543e+000 55964 79028,79080,79054
 2.8000e+000 79207 -1.4316e+001 -5.3882e+001  8.2247e+000 55964 79002,79132,79028
 2.8000e+000 79184 -1.2557e+000 -4.7431e+001 -1.2826e+000 55964 79002,79158,79132
 2.8000e+000 79325 -2.0677e+001 -6.4563e+001 -6.9728e+000 55964 79106,79080,79299
 2.8000e+000 79348 -1.5388e+001 -7.0822e+001 -7.6356e-001 55964 79106,79299,79132
 2.8000e+000 79498 -1.3812e+001 -1.0120e+002  1.0144e+001 55452 79397,79449,79423
 2.8000e+000 79475 -3.0260e+001 -7.3617e+001  2.9943e+000 55452 79371,79449,79397
 2.8000e+000 79795 -3.1748e+001 -1.0323e+002  1.1349e+000 55048 79962,79818,79573
 2.8000e+000 79772 -1.2723e+001 -7.7688e+001 -7.3402e+000 55048 79818,79521,79677
 2.8000e+000 79749 -2.0692e+001 -1.3822e+002  2.3334e+001 55048 79599,79651,79625
 2.8000e+000 79726 -2.5905e+001 -1.2712e+002  2.2709e+001 55048 79890,79651,79599
 2.8000e+000 79703 -2.8432e+001 -1.0567e+002  6.9710e+000 55048 79962,79573,79547
 2.8000e+000 79844 -1.7607e+001 -9.3086e+001  6.2797e+000 55048 79599,79573,79818
 2.8000e+000 79867 -2.2513e+001 -1.1079e+002  8.8239e+000 55048 79890,79599,79818
 2.8000e+000 79916 -2.6568e+000 -1.1451e+002  7.5677e+000 55048 79677,79651,79890
 2.8000e+000 79939 -4.2086e+000 -1.0774e+002 -5.3901e+000 55048 79677,79890,79818
 2.8000e+000 79988 -3.9894e+001 -1.0482e+002  3.7485e+000 55048 79521,79818,79962
 2.8000e+000 80011 -4.0106e+001 -1.0659e+002  8.8257e+000 55048 79521,79962,79547
 2.8000e+000 80212 -4.3709e+001 -1.1777e+002  4.6513e+001 54436 80235,80088,80036
 2.8000e+000 80189 -2.6541e+001 -8.4033e+001  3.2923e+001 54436 80235,80036,80140
 2.8000e+000 80166 -4.0056e+001 -1.9860e+002 -2.6581e+000 54436 80036,80088,80062
 2.8000e+000 80261 -2.5061e+001 -1.5952e+002  6.4318e+001 54436 80114,80088,80235
 2.8000e+000 80284 -3.1241e+000 -1.2700e+002  4.7665e+001 54436 80114,80235,80140
 2.8000e+000 80534  4.1300e+001 -7.8459e+001  2.1803e+001 54032 80557,80361,80335
 2.8000e+000 80511  3.3484e+000 -9.7736e+001  2.8888e+001 54032 80557,80335,80309
 2.8000e+000 80488 -1.1924e+001 -7.9661e+001  7.4888e+000 54032 80629,80413,80387
 2.8000e+000 80465 -2.3844e+001 -1.1092e+002  1.1087e+001 54032 80309,80439,80413
 2.8000e+000 80583  1.8032e+001 -4.6849e+001 -2.6747e+000 54032 80387,80361,80557
 2.8000e+000 80606 -8.8579e+000 -7.2305e+001  7.9947e+000 54032 80629,80387,80557
 2.8000e+000 80655 -1.0911e+001 -7.8051e+001  2.0638e+000 54032 80309,80413,80629
 2.8000e+000 80678 -1.0633e+001 -7.6336e+001  2.5422e+000 54032 80309,80629,80557
 2.8000e+000 81139 -8.9034e+000 -4.9266e+001  2.7034e+001 53784 80865,80995,80917
 2.8000e+000 81116 -8.0427e+000 -3.9578e+001  4.9042e+000 53784 80865,81021,80995
 2.8000e+000 81093 -2.8194e+001 -1.4484e+002  5.3728e+001 53784 80943,80995,80969
 2.8000e+000 81070 -3.4367e+001 -6.6637e+001  1.9267e+001 53784 80917,80995,80943
 2.8000e+000 81047 -4.3656e-001 -3.4118e+002 -1.0473e+000 53784 80865,80917,80891
 2.8000e+000 81468 -1.6550e+001 -8.6428e+001  2.5575e+001 53230 81295,81373,81347
 2.8000e+000 81445 -1.7095e-001 -1.0779e+002  3.8027e+001 53230 81243,81373,81295
 2.8000e+000 81422 -5.3987e+001 -1.4134e+002  2.7482e+000 53230 81243,81295,81269
 2.8000e+000 81399  4.2180e+000 -6.1348e+001 -1.8218e+001 53230 81295,81347,81321
 2.8000e+000 81618 -2.6282e+000 -5.2862e+000 -1.8917e+000 52790 81491,81543,81517
 2.8000e+000 81595 -4.0006e-001 -5.0833e+001  3.7115e+000 52790 81491,81569,81543
 2.8000e+000 82126  6.6610e+001  3.1435e+001 -5.7351e+001 52386 82149,81907,81881
 2.8000e+000 82103  2.0037e+001 -4.9384e+001 -1.9423e+001 52386 82149,81881,81855
 2.8000e+000 82080  1.0279e+000 -5.4674e+001  1.1699e+000 52386 82221,81803,81985
 2.8000e+000 82057 -3.5497e+001 -8.8099e+001  8.1353e+000 52386 81803,81855,81829
 2.8000e+000 82034  3.1602e+001 -4.4263e+001 -5.3355e+001 52386 81907,81985,81933
 2.8000e+000 82011  3.6305e+001 -4.4682e+001 -5.3075e+001 52386 81933,81985,81959
 2.8000e+000 82175  8.2462e+000 -4.7394e+001 -1.6454e+001 52386 81985,81907,82149
 2.8000e+000 82198  3.1933e+001 -5.2266e+001 -5.5852e+000 52386 82221,81985,82149
 2.8000e+000 82247 -1.0122e+001 -5.6539e+001  1.9078e+001 52386 81855,81803,82221
 2.8000e+000 82270  3.0682e+000 -6.4864e+001  1.1565e+001 52386 81855,82221,82149
 2.8000e+000 82825 -5.4455e+001 -1.1850e+002  1.6153e+001 51782 82505,82661,82635
 2.8000e+000 82802 -1.0269e+002 -1.7015e+002 -1.0358e+001 51782 82479,82661,82505
 2.8000e+000 82779 -4.7850e+001 -1.8145e+002 -6.1955e+001 51782 82557,82635,82609
 2.8000e+000 82756 -4.6096e+001 -1.7441e+002 -1.3869e+000 51782 82531,82635,82557
 2.8000e+000 82733 -7.3075e+001 -1.4175e+002 -9.8253e+000 51782 82505,82635,82531
 2.8000e+000 82710 -1.7182e+001 -9.7651e+001  3.1422e+001 51782 82453,82661,82479
 2.8000e+000 82687 -3.8781e+000 -1.1562e+002 -3.7662e+001 51782 82557,82609,82583
 2.8000e+000 83171 -2.1070e+001 -1.1958e+002  1.5967e+001 51442 83194,82978,82900
 2.8000e+000 83148 -4.5000e+001 -9.9747e+001  1.1846e+001 51442 83194,82900,82874
 2.8000e+000 83125 -4.1655e+001 -1.2880e+002  1.1437e+001 51442 82900,82978,82926
 2.8000e+000 83102 -2.7554e+001 -8.6800e+001  5.5676e-001 51442 82874,83030,83004
 2.8000e+000 83079 -9.3145e+000 -1.1850e+002  1.0132e+001 51442 82926,82978,82952
 2.8000e+000 83056 -1.6491e+001 -8.1583e+001  3.0557e+000 51442 82848,83030,82874
 2.8000e+000 83220 -5.2847e+000 -1.1023e+002  1.1839e+001 51442 83004,82978,83194
 2.8000e+000 83243 -3.1331e+001 -9.1237e+001  7.6931e+000 51442 83004,83194,82874
 2.8000e+000 83751 -3.5970e+001 -6.5223e+001  1.5549e+000 50938 83428,83584,83454
 2.8000e+000 83728 -1.6680e+001 -5.8724e+001  1.3863e+001 50938 83428,83610,83584
 2.8000e+000 83705 -3.4091e+001 -7.8331e+001 -8.9940e-002 50938 83454,83584,83558
 2.8000e+000 83682 -2.6389e+001 -7.6932e+001 -1.6004e-002 50938 83454,83532,83480
 2.8000e+000 83659 -3.8058e+001 -7.9141e+001  3.1327e+000 50938 83454,83558,83532
 2.8000e+000 83636 -4.5035e+001 -1.0925e+002 -1.3502e+001 50938 83480,83532,83506
 2.8000e+000 84355 -3.5709e+001 -1.8126e+002  2.2818e+001 50377 84378,83960,83934
 2.8000e+000 84332 -1.2675e+001 -1.2774e+002  2.0918e+001 50377 84522,84378,83934
 2.8000e+000 84309 -2.7396e+001 -1.2032e+002  8.1292e+000 50377 84450,84038,84012
 2.8000e+000 84286 -1.8714e+001 -1.0706e+002  1.7908e+001 50377 84522,83934,84142
 2.8000e+000 84263 -1.2567e+001 -1.0236e+002  9.0790e+000 50377 84594,84090,84038
 2.8000e+000 84240 -9.1928e+001 -1.5033e+002  5.4202e+000 50377 83960,84012,83986
 2.8000e+000 84217 -3.9247e+001 -1.1286e+002  1.3938e+001 50377 83934,84168,84142
 2.8000e+000 84194 -1.5948e+001 -7.6102e+001  2.8344e+001 50377 84038,84090,84064
 2.8000e+000 84404 -6.8331e+001 -1.6112e+002 -1.2619e+001 50377 84012,83960,84378
 2.8000e+000 84427 -1.7410e+001 -1.1607e+002  8.3974e+000 50377 84450,84012,84378
 2.8000e+000 84476 -2.5157e+001 -1.1162e+002  3.9122e+000 50377 84594,84038,84450
 2.8000e+000 84499 -2.0681e+001 -1.5657e+002 -8.2687e-001 50377 84116,84450,84378
 2.8000e+000 84548 -7.8799e+000 -1.5813e+002  1.0541e+001 50377 84116,84378,84522
 2.8000e+000 84571 -9.5586e+000 -1.3171e+002  6.6416e+000 50377 84116,84522,84142
 2.8000e+000 84620  1.2885e+001 -1.1959e+002  1.7709e+001 50377 84116,84090,84594
 2.8000e+000 84643  3.1439e+000 -1.2606e+002  1.3295e+001 50377 84116,84594,84450
 2.8000e+000 84842 -2.7444e+001 -1.3372e+002  7.3866e+000 49923 84865,84692,84666
 2.8000e+000 84819 -4.0017e+001 -1.2552e+002 -7.3836e+000 49923 84865,84666,84770
 2.8000e+000 84796 -5.8663e+000 -1.8707e+002 -1.3796e+001 49923 84692,84744,84718
 2.8000e+000 84891 -3.6143e+001 -1.4237e+002  1.7483e+000 49923 84744,84692,84865
 2.8000e+000 84914 -5.2487e+001 -1.4220e+002 -1.4487e+001 49923 84744,84865,84770
 2.8000e+000 85501 -3.0073e+001 -1.4521e+002  1.6507e+001 49618 85524,85282,85204
 2.8000e+000 85478 -3.1010e+001 -1.4660e+002  1.5243e+001 49618 85596,85524,85204
 2.8000e+000 85455 -2.9870e+001 -1.5652e+002  1.3895e+001 49618 85596,85204,85178
 2.8000e+000 85432 -6.0292e+001 -1.6560e+002  2.5466e+001 49618 85204,85282,85256
 2.8000e+000 85409 -6.1156e+001 -2.1771e+002  2.4273e+000 49618 85282,85334,85308
 2.8000e+000 85386 -5.9771e+001 -1.8510e+002 -1.1002e+001 49618 85204,85256,85230
 2.8000e+000 85550 -3.0414e+001 -1.4908e+002  1.3966e+001 49618 85334,85282,85524
 2.8000e+000 85573 -2.7691e+001 -1.4664e+002  1.9071e+001 49618 85334,85524,85360
 2.8000e+000 85622 -3.2054e+001 -1.5996e+002  1.8609e+001 49618 85360,85524,85596
 2.8000e+000 85645 -2.7436e+001 -1.6568e+002  1.6832e+001 49618 85360,85596,85178
 2.8000e+000 85795 -6.0255e+001 -2.0255e+002 -1.4428e+001 49278 85694,85746,85720
 2.8000e+000 85772 -7.9729e+001 -3.8685e+002 -1.2496e+001 49278 85668,85746,85694
 2.8000e+000 86197 -4.9518e+001 -2.5627e+002 -2.8483e+001 48916 86001,86079,86027
 2.8000e+000 86174 -2.9080e+000 -1.2297e+002 -1.7034e+001 48916 85949,86079,86001
 2.8000e+000 86151 -6.2749e-001 -2.6233e+002 -2.9786e+000 48916 85949,86001,85975
 2.8000e+000 86128 -6.2627e+001 -2.7575e+002 -2.1053e+001 48916 86027,86079,86053
 2.8000e+000 86105 -7.3869e+000 -8.2265e+001  2.0484e+001 48916 85923,86079,85949
 2.8000e+000 86477 -1.7290e+001 -8.3609e+001  2.6694e+000 48398 86327,86379,86353
 2.8000e+000 86454 -5.6142e+000 -8.6019e+001  1.1026e+001 48398 86500,86379,86327
 2.8000e+000 86431 -2.1210e+001 -7.2985e+001  8.4036e+000 48398 86301,86405,86379
 2.8000e+000 86526 -3.5258e+001 -8.6442e+001  1.5980e+001 48398 86301,86379,86500
 2.8000e+000 87032 -5.2159e+000 -1.2705e+002 -2.7248e+001 48008 87127,87055,86787
 2.8000e+000 87009 -2.0190e+000 -1.8079e+002  2.3903e+000 48008 87055,86735,86709
 2.8000e+000 86986 -3.6643e+001 -1.0837e+002 -2.2006e+001 48008 87127,86787,86761
 2.8000e+000 86963 -2.0431e+001 -8.7197e+001 -5.1903e+000 48008 86787,86865,86839
 2.8000e+000 86940  7.1429e+000 -7.9183e+001  2.4023e+001 48008 86709,86891,86865
 2.8000e+000 86917 -4.5919e+001 -9.0317e+001 -2.9326e+000 48008 86787,86839,86813
 2.8000e+000 87081 -2.7190e+001 -1.2714e+002 -4.6944e+000 48008 86865,86787,87055
 2.8000e+000 87104  9.3600e+000 -8.6561e+001  2.9390e+001 48008 86865,87055,86709
 2.8000e+000 87153 -4.2813e+001 -1.6383e+002 -4.2275e+001 48008 86735,87055,87127
 2.8000e+000 87176 -8.3748e+001 -1.2946e+002 -3.7144e+001 48008 86735,87127,86761
 2.8000e+000 87456 -8.8802e+000 -1.0127e+002  1.2470e+001 47604 87306,87358,87332
 2.8000e+000 87433  4.5957e+001 -6.6957e+001 -3.2983e+000 47604 87306,87384,87358
 2.8000e+000 87410  1.7513e+000 -8.5355e+001  4.1828e+000 47604 87280,87384,87306
 2.8000e+000 87785  4.3466e+000 -9.5014e+001  1.7140e+001 47264 87638,87690,87664
 2.8000e+000 87762 -2.2198e+001 -1.6367e+002  3.4816e+001 47264 87612,87690,87638
 2.8000e+000 87739 -3.0284e+001 -1.9361e+002  3.7291e+001 47264 87560,87690,87612
 2.8000e+000 87716 -1.5804e+001 -2.0804e+002  1.9156e+001 47264 87560,87612,87586
 2.8000e+000 87935  2.1059e+000 -6.5049e+001  4.1328e-001 46952 87808,87860,87834
 2.8000e+000 87912 -1.9264e+001 -1.1430e+002  3.8129e+000 46952 87808,87886,87860
 2.8000e+000 88281 -1.3392e+001 -1.2000e+002  1.1932e+001 46526 88304,88114,88036
 2.8000e+000 88258 -1.2869e+001 -1.1206e+002  1.5103e+001 46526 88304,88036,87984
 2.8000e+000 88235 -1.0641e+001 -1.1655e+002  5.2463e+000 46526 88036,88114,88062
 2.8000e+000 88212 -1.3096e+001 -1.0184e+002  1.5964e+001 46526 87958,88140,87984
 2.8000e+000 88189 -1.4993e+001 -1.1829e+002  2.8195e+001 46526 87984,88036,88010
 2.8000e+000 88166 -5.8817e+000 -8.5242e+001  2.3032e+001 46526 88062,88114,88088
 2.8000e+000 88330 -1.6939e+001 -1.1174e+002  1.0660e+001 46526 88140,88114,88304
 2.8000e+000 88353 -1.6950e+001 -1.0405e+002  1.2696e+001 46526 88140,88304,87984
 2.8000e+000 88701  3.7003e+001 -7.1490e+001  2.9732e+001 45822 88724,88378,88534
 2.8000e+000 88678  3.8614e+001 -2.7748e+001  3.5950e+001 45822 88378,88560,88534
 2.8000e+000 88655 -8.9750e+000 -8.5532e+001  2.3609e+001 45822 88724,88534,88508
 2.8000e+000 88632 -4.7168e+001 -1.1365e+002 -2.8098e-001 45822 88404,88508,88456
 2.8000e+000 88609 -3.6668e+001 -9.5677e+001 -1.0050e+001 45822 88404,88456,88430
 2.8000e+000 88586 -1.6538e+001 -5.8085e+001 -3.0007e+001 45822 88456,88508,88482
 2.8000e+000 88750  3.2503e-001 -6.7639e+001  3.9945e+000 45822 88404,88378,88724
 2.8000e+000 88773 -3.5601e+001 -7.5444e+001 -2.3535e+000 45822 88404,88724,88508
 2.8000e+000 89106 -6.9722e+001 -1.0690e+002  2.4900e+001 45418 88881,88985,88907
 2.8000e+000 89083 -7.1999e+001 -1.3528e+002  3.2382e+001 45418 88881,89011,88985
 2.8000e+000 89060 -1.2319e+001 -9.7444e+001  2.5406e+001 45418 88907,88985,88933
 2.8000e+000 89037 -5.6111e+001 -1.0340e+002  4.8778e+000 45418 88933,88985,88959
 2.8000e+000 89435 -2.6397e+001 -1.0082e+002  3.1301e+001 44914 89210,89288,89236
 2.8000e+000 89412 -6.2342e+001 -1.4785e+002  5.1389e+001 44914 89210,89314,89288
 2.8000e+000 89389 -1.2285e+001 -9.9390e+001  2.9402e+001 44914 89210,89340,89314
 2.8000e+000 89366 -3.5934e+001 -1.0886e+002  3.8480e+001 44914 89236,89288,89262
 2.8000e+000 89634 -1.8513e+001 -9.4364e+001  3.5275e+001 44538 89510,89562,89536
 2.8000e+000 89611 -3.1943e+001 -5.8259e+001  1.0159e+000 44538 89458,89562,89510
 2.8000e+000 89588 -4.1997e+001 -1.0220e+002  6.7295e+000 44538 89458,89510,89484
 2.8000e+000 90044 -1.8035e+001 -6.7059e+001  3.7434e+000 44134 89819,89923,89845
 2.8000e+000 90021 -4.7012e+001 -6.3544e+001 -4.4975e+001 44134 89819,89949,89923
 2.8000e+000 89998 -8.5723e+000 -3.5775e+001  4.5554e-001 44134 89845,89923,89897
 2.8000e+000 89975 -3.6605e+001 -1.2667e+002  1.1877e+001 44134 89845,89897,89871
 2.8000e+000 90520  1.0275e+001 -1.4080e+002  1.9988e+001 43457 90543,90252,90226
 2.8000e+000 90497 -1.1462e-001 -1.6496e+002  6.1992e+000 43457 90543,90226,90330
 2.8000e+000 90474 -5.1203e+001 -1.5978e+002 -2.3132e+001 43457 90200,90330,90226
 2.8000e+000 90451 -5.5795e+001 -1.0499e+002  6.1073e+001 43457 90200,90356,90330
 2.8000e+000 90428  2.2404e+001 -7.4184e+001 -4.3303e+001 43457 90252,90304,90278
 2.8000e+000 90405 -7.6446e+001 -1.2549e+002  5.2412e+001 43457 90174,90356,90200
 2.8000e+000 90382 -2.4797e+001 -2.7344e+001  8.6281e+001 43457 90148,90356,90174
 2.8000e+000 90569  2.4128e+001 -1.6760e+002  4.7415e-002 43457 90304,90252,90543
 2.8000e+000 90592 -5.7880e+000 -2.0801e+002 -1.8315e+001 43457 90304,90543,90330
 2.8000e+000 91098 -1.0657e+001 -8.2675e+001 -9.9442e+000 42789 90801,90905,90853
 2.8000e+000 91075 -3.4898e+001 -1.0253e+002  4.9021e-001 42789 90775,90905,90801
 2.8000e+000 91052 -3.1497e+001 -1.1138e+002  1.3035e+001 42789 90775,90931,90905
 2.8000e+000 91029 -2.0903e+001 -1.4133e+002  7.8225e+000 42789 90801,90853,90827
 2.8000e+000 91006  2.0929e+001 -7.3421e+001  1.3185e+001 42789 90853,90905,90879
 2.8000e+000 90983 -2.5947e+001 -9.6210e+001  1.0178e+001 42789 90775,90957,90931
 2.8000e+000 91427 -5.2326e+001 -1.1452e+002 -2.3258e+001 42227 91228,91280,91254
 2.8000e+000 91404  6.6147e+000 -1.4085e+002 -1.0564e+001 42227 91228,91306,91280
 2.8000e+000 91381 -4.7426e+001 -1.5686e+002  1.2764e+001 42227 91202,91306,91228
 2.8000e+000 91358  4.0985e+000 -9.9812e+001 -1.6204e+001 42227 91202,91332,91306
 2.8000e+000 91675 -2.2374e+001 -9.8316e+001  1.5495e+001 41773 91698,91476,91450
 2.8000e+000 91652 -1.1750e+001 -9.3501e+001  4.3110e+001 41773 91698,91450,91554
 2.8000e+000 91629 -3.5358e+001 -7.2982e+001  4.5872e+001 41773 91450,91580,91554
 2.8000e+000 91606 -1.3597e+001 -1.3060e+002  2.4389e+001 41773 91502,91554,91528
 2.8000e+000 91724 -4.4542e+001 -1.0479e+002  9.1845e+000 41773 91502,91476,91698
 2.8000e+000 91747 -3.8828e+001 -1.0185e+002  3.7127e+001 41773 91502,91698,91554
 2.8000e+000 92127 -9.1496e+001 -2.0378e+002  4.1165e+000 41255 92150,91905,91879
 2.8000e+000 92104 -5.3662e+001 -1.8918e+002 -1.1357e+001 41255 92150,91879,91957
 2.8000e+000 92081 -4.6958e+001 -2.5117e+002  3.6895e+001 41255 91853,91957,91879
 2.8000e+000 92058 -6.2814e+001 -2.8834e+002  3.8029e+001 41255 91853,91983,91957
 2.8000e+000 92035 -9.0113e+000 -2.4259e+002  1.8417e+001 41255 91853,92009,91983
 2.8000e+000 92176 -5.5245e+001 -2.2423e+002 -2.0080e+001 41255 91931,91905,92150
 2.8000e+000 92199  5.6109e+000 -1.7866e+002 -4.4669e+001 41255 91931,92150,91957
 2.8000e+000 92518 -7.9983e+001 -2.6824e+002 -2.3747e+001 41007 92244,92374,92270
 2.8000e+000 92495 -1.5662e+002 -3.0393e+002 -9.2574e+000 41007 92244,92400,92374
 2.8000e+000 92472 -5.2853e+001 -2.3005e+002 -4.8217e+000 41007 92270,92374,92348
 2.8000e+000 92449 -7.4354e+001 -1.4274e+002  1.3627e+001 41007 92296,92348,92322
 2.8000e+000 92426 -6.3159e+001 -1.7426e+002 -6.7414e+000 41007 92270,92348,92296
 2.8000e+000 92668 -4.2517e+001 -1.2599e+002 -2.4245e+001 40717 92823,92691,92567
 2.8000e+000 92645 -5.3854e+001 -1.2123e+002 -2.6892e+001 40717 92895,92823,92567
 2.8000e+000 92717 -5.0899e+000 -1.0865e+002 -1.3852e+001 40717 92593,92567,92691
 2.8000e+000 92849 -2.6422e+001 -1.2214e+002 -3.0149e+001 40717 92619,92691,92823
 2.8000e+000 92872 -4.1536e+001 -1.1449e+002 -1.5826e+001 40717 92619,92823,92541
 2.8000e+000 92921 -5.1926e+001 -1.3335e+002 -1.1722e+001 40717 92541,92823,92895
 2.8000e+000 93634 -7.7673e+001 -3.6293e+002 -1.4981e+001 40206 93366,93444,93418
 2.8000e+000 93611 -2.5564e+001 -1.3672e+002 -1.7124e+001 40206 93288,93444,93366
 2.8000e+000 93588 -1.0972e+002 -2.6337e+002  1.9323e+001 40206 93288,93366,93314
 2.8000e+000 93565 -7.0363e+001 -1.4286e+002  6.2351e-001 40206 93262,93444,93288
 2.8000e+000 93542 -2.6769e+001 -2.9478e+002  2.0025e+001 40206 93366,93418,93392
 2.8000e+000 93519 -6.8723e+001 -1.7446e+002  5.3958e+000 40206 93262,93470,93444
 2.8000e+000 93496 -3.2486e+001 -2.3081e+002  3.3248e+001 40206 93314,93366,93340
 2.8000e+000 94189 -2.5050e+001 -8.3589e+001  2.2708e+001 39802 93843,93999,93973
 2.8000e+000 94166  3.8094e+001 -4.3623e+001 -7.9057e+000 39802 93817,93999,93843
 2.8000e+000 94143 -1.3353e+001 -5.8403e+001  6.6760e-001 39802 93869,93973,93947
 2.8000e+000 94120 -4.7321e+000 -6.3049e+001  1.4337e+001 39802 93843,93973,93869
 2.8000e+000 94097 -7.6829e+000 -6.8044e+001  1.2798e+000 39802 93869,93921,93895
 2.8000e+000 94074 -2.9371e+000 -5.8204e+001 -2.4381e+000 39802 93869,93947,93921
 2.8000e+000 94051 -3.9006e+001 -7.6281e+001  2.2092e+001 39802 93817,94025,93999
 2.8000e+000 94290 -5.5130e+000 -7.0453e+001 -1.4043e+001 39398 94212,94264,94238
 2.8000e+000 94798 -2.1357e+001 -1.1716e+002 -6.6850e+000 38701 94501,94657,94631
 2.8000e+000 94775 -3.5256e+001 -1.0133e+002  4.6741e+000 38701 94475,94657,94501
 2.8000e+000 94752  2.3721e+001 -1.1804e+002 -2.3138e+001 38701 94579,94631,94605
 2.8000e+000 94729 -2.3554e+001 -2.0699e+002 -4.1274e+001 38701 94553,94631,94579
 2.8000e+000 94706 -5.1702e+001 -2.0153e+002  1.2968e+001 38701 94501,94631,94553
 2.8000e+000 94683 -2.7249e+001 -3.6118e+002  4.0378e+000 38701 94501,94553,94527
 2.8000e+000 95255 -6.6458e+001 -1.7116e+002 -9.6456e+000 38247 95278,95085,95007
 2.8000e+000 95232 -4.3779e+001 -1.6421e+002 -1.1849e+001 38247 95278,95007,95137
 2.8000e+000 95209 -2.4355e+001 -1.3438e+002 -3.2586e+000 38247 94981,95137,95007
 2.8000e+000 95186 -4.7654e+001 -1.2279e+002 -2.1605e+001 38247 95007,95059,95033
 2.8000e+000 95163 -4.8927e+001 -1.2899e+002 -2.7780e+001 38247 95007,95085,95059
 2.8000e+000 95304 -7.4685e+001 -1.7228e+002  9.5980e+000 38247 95111,95085,95278
 2.8000e+000 95327 -5.3851e+001 -1.6249e+002  4.9156e+000 38247 95111,95278,95137
 2.8000e+000 95575 -1.9720e+001 -2.1307e+001 -3.6097e+000 37564 95376,95428,95402
 2.8000e+000 95552 -7.7314e+000 -5.3854e+001 -6.4718e+000 37564 95376,95454,95428
 2.8000e+000 95529  1.3343e+001 -4.0348e+001  1.8103e+000 37564 95376,95480,95454
 2.8000e+000 95506  4.8840e+001 -8.3808e+001 -5.3088e+000 37564 95350,95480,95376
 2.8000e+000 96034 -6.8798e+001 -2.4288e+002 -9.6326e+000 37224 95786,95838,95812
 2.8000e+000 96011 -4.0827e+001 -1.8070e+002 -3.8923e+000 37224 95786,95890,95838
 2.8000e+000 95988 -6.9134e+001 -1.8682e+002  5.5270e+000 37224 95786,95916,95890
 2.8000e+000 95965 -4.4016e+000 -1.3541e+002 -3.4218e+001 37224 95760,95916,95786
 2.8000e+000 95942  3.1903e-001 -1.9287e+002 -3.4232e+001 37224 95838,95890,95864
 2.8000e+000 96363  4.7585e-002 -2.5035e+001 -9.4955e+000 36884 96216,96268,96242
 2.8000e+000 96340  1.5191e+001 -3.1970e+001 -1.1951e+001 36884 96164,96268,96216
 2.8000e+000 96317  4.1188e+001 -2.6015e+001 -9.2486e+000 36884 96138,96268,96164
 2.8000e+000 96294  5.5859e+000 -4.6974e+001 -7.1440e-001 36884 96164,96216,96190
 2.8000e+000 96839 -5.2102e+001 -2.0180e+002  2.2302e+001 36572 96862,96649,96597
 2.8000e+000 96816 -3.0689e+001 -1.7066e+002  1.2915e+001 36572 97006,96862,96597
 2.8000e+000 96793 -3.0796e+001 -1.2367e+002 -1.8584e+001 36572 96934,96467,96675
 2.8000e+000 96770 -2.9993e+001 -1.6745e+002  9.8675e+000 36572 97006,96597,96571
 2.8000e+000 96747 -5.9899e+001 -1.9362e+002  1.2839e+001 36572 96467,96519,96493
 2.8000e+000 96724 -1.4628e+001 -1.5001e+002  8.3027e+000 36572 96519,96571,96545
 2.8000e+000 96701 -7.2503e+001 -1.6690e+002 -1.9200e+001 36572 96597,96649,96623
 2.8000e+000 96888 -3.4655e+001 -2.1068e+002 -2.0639e+001 36572 96675,96649,96862
 2.8000e+000 96911 -1.7044e+001 -1.6865e+002 -2.1604e+001 36572 96934,96675,96862
 2.8000e+000 96960 -5.2525e+001 -1.6266e+002 -7.8337e+000 36572 96519,96467,96934
 2.8000e+000 96983 -2.9567e+001 -1.9928e+002 -6.0689e+000 36572 97078,96934,96862
 2.8000e+000 97032 -3.3762e+001 -1.8920e+002  1.0948e+001 36572 97078,96862,97006
 2.8000e+000 97055 -2.6378e+001 -1.6762e+002  1.3406e+001 36572 96519,97006,96571
 2.8000e+000 97104 -1.8460e+001 -1.7279e+002 -4.7518e+000 36572 96519,96934,97078
 2.8000e+000 97127 -2.4867e+001 -1.6423e+002  9.1608e+000 36572 96519,97078,97006
 2.8000e+000 97761 -4.7138e+001 -1.6278e+002 -3.5393e+001 36118 97784,97493,97415
 2.8000e+000 97738 -1.9023e+001 -1.7234e+002 -2.1317e+001 36118 97784,97415,97597
 2.8000e+000 97715 -2.9579e+001 -1.8734e+002 -3.7721e+001 36118 97389,97597,97415
 2.8000e+000 97692 -3.1772e+001 -2.0573e+002  2.3150e+001 36118 97415,97467,97441
 2.8000e+000 97669 -7.3146e+001 -1.8937e+002 -2.1371e+001 36118 97415,97493,97467
 2.8000e+000 97646 -5.9627e+001 -1.3403e+002 -4.8974e+000 36118 97493,97571,97519
 2.8000e+000 97623 -4.4026e+001 -1.5768e+002  2.7208e+001 36118 97519,97571,97545
 2.8000e+000 97810 -2.7360e+001 -1.6242e+002 -2.0369e+001 36118 97571,97493,97784
 2.8000e+000 97833  2.3406e+001 -1.5613e+002 -5.7869e+000 36118 97571,97784,97597
 2.8000e+000 98081 -5.7346e+001 -1.7376e+002  2.0230e+000 35564 98104,97908,97856
 2.8000e+000 98058 -5.8116e+001 -1.7190e+002  2.8040e+000 35564 98104,97856,97986
 2.8000e+000 98035 -1.2583e+001 -1.7460e+002  2.5653e+001 35564 97934,97986,97960
 2.8000e+000 98012 -6.4438e+001 -1.9617e+002  1.5686e+001 35564 97856,97908,97882
 2.8000e+000 98130 -5.9886e+001 -1.7927e+002  7.4956e-001 35564 97934,97908,98104
 2.8000e+000 98153 -5.7671e+001 -1.7356e+002  2.1696e+000 35564 97934,98104,97986
 2.8000e+000 98374 -1.0545e+002 -1.7655e+002  1.1923e+000 35152 98224,98302,98276
 2.8000e+000 98351 -1.2986e+002 -2.4233e+002  1.3182e+001 35152 98198,98302,98224
 2.8000e+000 98328 -1.1782e+002 -1.7759e+002  2.6237e+000 35152 98224,98276,98250
 2.8000e+000 98884 -4.7784e+000 -1.0121e+002 -2.3504e+001 34698 98691,98743,98717
 2.8000e+000 98861 -1.5700e+001 -1.2000e+002 -3.4740e+001 34698 98561,98743,98691
 2.8000e+000 98838 -3.4014e+001 -1.1102e+002 -3.7155e+001 34698 98907,98587,98561
 2.8000e+000 98815 -4.5933e+001 -1.2893e+002 -2.5645e+001 34698 98907,98561,98691
 2.8000e+000 98792 -6.6238e+001 -1.3654e+002 -1.8753e+001 34698 98587,98639,98613
 2.8000e+000 98769 -4.7320e+001 -9.7850e+001 -2.4796e+001 34698 98587,98665,98639
 2.8000e+000 98933 -3.9791e+001 -1.2140e+002 -1.8905e+001 34698 98665,98587,98907
 2.8000e+000 98956 -5.8160e+001 -1.4999e+002 -6.3549e+000 34698 98665,98907,98691
 2.8000e+000 99204 -6.6962e+000 -1.5101e+002 -1.2232e+001 34144 99227,99031,99005
 2.8000e+000 99181 -1.5123e+001 -1.4558e+002 -2.0449e+001 34144 99299,99227,99005
 2.8000e+000 99158 -1.5200e+001 -1.4426e+002 -1.8319e+001 34144 99299,99005,99109
 2.8000e+000 99135 -1.5835e+001 -1.1096e+002 -7.7474e+000 34144 98979,99109,99005
 2.8000e+000 99253 -1.1897e+001 -1.7064e+002 -1.1831e+001 34144 99057,99031,99227
 2.8000e+000 99276 -1.1553e+001 -1.5130e+002 -2.1128e+001 34144 99057,99227,99083
 2.8000e+000 99325 -1.3970e+001 -1.4191e+002 -1.9512e+001 34144 99083,99227,99299
 2.8000e+000 99348 -1.3039e+001 -1.4019e+002 -1.7027e+001 34144 99083,99299,99109
 2.8000e+000 99498  1.2323e+000 -6.7611e+001  1.9544e+001 33433 99397,99449,99423
 2.8000e+000 99475 -2.4524e+001 -4.2317e+001 -1.6647e+000 33433 99371,99449,99397
 2.8000e+000 100008 -2.8258e+001 -9.9694e+001 -1.7081e+001 32979 100103,100031,99815
 2.8000e+000 99985 -3.3071e+001 -1.2188e+002 -2.2655e+001 32979 100175,100031,99763
 2.8000e+000 99962 -1.1845e+001 -1.1909e+002 -3.5566e+001 32979 100103,99815,99789
 2.8000e+000 99939 -3.7354e+001 -1.4211e+002 -2.3915e+001 32979 100175,99763,99737
 2.8000e+000 99916 -4.5598e+001 -1.3894e+002 -1.9404e+001 32979 99685,99867,99737
 2.8000e+000 99893 -5.8123e+001 -2.1021e+002 -3.1364e+001 32979 99685,99737,99711
 2.8000e+000 100057 -2.7263e+001 -1.0259e+002 -8.4105e+000 32979 99841,99815,100031
 2.8000e+000 100080 -2.0236e+001 -6.8187e+001 -2.4752e+001 32979 99841,100031,99867
 2.8000e+000 100129 -2.9019e+001 -1.3980e+002 -1.4934e+001 32979 99763,100031,100103
 2.8000e+000 100152 -2.3073e+001 -1.7161e+002 -3.5720e+001 32979 99763,100103,99789
 2.8000e+000 100201 -3.5839e+001 -1.1221e+002 -1.2317e+001 32979 99867,100031,100175
 2.8000e+000 100224 -3.7851e+001 -1.2316e+002 -1.6885e+001 32979 99867,100175,99737
 2.8000e+000 100553 -2.0820e+001 -1.1988e+002 -1.2554e+001 32503 100354,100406,100380
 2.8000e+000 100530 -1.5647e+001 -1.3895e+002  4.9210e+000 32503 100328,100406,100354
 2.8000e+000 100507 -4.1925e+001 -1.7489e+002  2.5844e+001 32503 100328,100458,100406
 2.8000e+000 100484 -2.8705e+001 -2.1635e+002  3.3149e+001 32503 100406,100458,100432
 2.8000e+000 100850 -6.7574e+001 -2.0934e+002 -1.8646e+001 31899 100873,100654,100628
 2.8000e+000 100827 -5.7249e+001 -1.9949e+002 -1.3040e+001 31899 100945,100873,100628
 2.8000e+000 100804 -4.9631e+001 -1.8321e+002 -9.6112e+000 31899 100945,100628,100602
 2.8000e+000 100781 -5.0335e+001 -1.4466e+002 -1.5749e+001 31899 100576,100732,100602
 2.8000e+000 100758 -1.1370e+002 -1.7310e+002 -1.0496e+002 31899 100654,100706,100680
 2.8000e+000 100899 -4.8771e+001 -1.8871e+002 -2.6490e+001 31899 100706,100654,100873
 2.8000e+000 100922 -9.1855e+001 -1.9934e+002 -3.2846e+001 31899 100706,100873,100732
 2.8000e+000 100971 -7.9874e+001 -1.7285e+002 -2.3123e+001 31899 100732,100873,100945
 2.8000e+000 100994 -7.0241e+001 -1.5412e+002 -1.8622e+001 31899 100732,100945,100602
 2.8000e+000 101551 -4.0581e+001 -1.4919e+002 -1.3410e+001 31338 101205,101387,101231
 2.8000e+000 101528 -3.0046e-001 -1.3195e+002  5.6276e+000 31338 101179,101387,101205
 2.8000e+000 101505 -4.9493e+001 -1.3095e+002  1.8281e+001 31338 101574,101309,101257
 2.8000e+000 101482 -5.4433e+001 -1.5915e+002  8.4467e+000 31338 101646,101574,101257
 2.8000e+000 101459 -5.6621e+001 -1.4086e+002 -4.4136e-001 31338 101646,101257,101231
 2.8000e+000 101436 -5.6440e+001 -1.8528e+002  1.2415e+001 31338 101309,101361,101335
 2.8000e+000 101413 -1.6073e+001 -1.1722e+002  1.6980e+001 31338 101257,101309,101283
 2.8000e+000 101600 -4.6510e+001 -1.5906e+002  1.4217e+001 31338 101361,101309,101574
 2.8000e+000 101623 -5.0761e+001 -1.8672e+002 -1.0267e+001 31338 101361,101574,101387
 2.8000e+000 101672 -3.6584e+001 -1.4471e+002 -2.3187e+000 31338 101387,101574,101646
 2.8000e+000 101695 -4.6185e+001 -1.3744e+002 -1.0439e+001 31338 101387,101646,101231
 2.8000e+000 101943 -6.4007e+000 -1.5411e+002 -1.6565e+000 30748 101966,101796,101744
 2.8000e+000 101920 -2.4004e+000 -1.5780e+002 -2.0464e+000 30748 101966,101744,101718
 2.8000e+000 101897 -2.3071e+001 -1.6882e+002  1.8949e+001 30748 101718,101848,101822
 2.8000e+000 101874 -2.8472e+001 -1.3866e+002 -2.5817e+001 30748 101744,101796,101770
 2.8000e+000 101992 -7.8429e+000 -1.5631e+002 -1.0197e+000 30748 101822,101796,101966
 2.8000e+000 102015 -4.9596e+000 -1.6098e+002 -9.1676e-001 30748 101822,101966,101718
 2.8000e+000 102493 -8.0467e+001 -1.7933e+002 -7.1412e+000 30344 102516,102173,102147
 2.8000e+000 102470 -6.6209e+001 -1.5804e+002 -1.4753e+001 30344 102660,102516,102147
 2.8000e+000 102447 -5.4672e+001 -1.7010e+002 -1.6851e+001 30344 102588,102199,102173
 2.8000e+000 102424 -4.1691e+001 -1.5594e+002 -1.8322e+001 30344 102660,102147,102329
 2.8000e+000 102401 -3.8859e+001 -1.7149e+002 -4.0905e+001 30344 102199,102277,102251
 2.8000e+000 102378 -2.0405e+001 -1.3061e+002 -6.6857e+001 30344 102199,102251,102225
 2.8000e+000 102355 -1.9989e+000 -1.3352e+002  9.2398e+000 30344 102121,102329,102147
 2.8000e+000 102542 -5.7870e+001 -1.6926e+002 -1.6907e+001 30344 102588,102173,102516
 2.8000e+000 102565 -8.8224e+001 -1.8148e+002 -4.5447e+000 30344 102277,102516,102303
 2.8000e+000 102614 -5.8336e+001 -1.7002e+002 -1.7356e+001 30344 102277,102199,102588
 2.8000e+000 102637 -6.2066e+001 -1.6999e+002 -1.8139e+001 30344 102277,102588,102516
 2.8000e+000 102686 -3.8261e+001 -1.6202e+002 -3.1373e+000 30344 102303,102516,102660
 2.8000e+000 102709 -2.3758e+001 -1.6720e+002 -4.8997e+000 30344 102303,102660,102329
 2.8000e+000 103294 -1.9402e+001 -1.6065e+002 -3.8128e+000 29726 103317,103101,103075
 2.8000e+000 103271 -3.8511e+000 -1.2579e+002  2.6575e+000 29726 103317,103075,102997
 2.8000e+000 103248  1.6219e+001 -1.1435e+002 -3.8476e+001 29726 102971,103153,102997
 2.8000e+000 103225 -4.7601e+001 -1.8292e+002 -2.0155e+001 29726 103101,103153,103127
 2.8000e+000 103202 -1.3938e+001 -1.7727e+002  3.5539e-001 29726 102997,103075,103023
 2.8000e+000 103179 -1.4805e+001 -1.3373e+002 -3.8722e+001 29726 103023,103075,103049
 2.8000e+000 103343 -2.6728e+001 -1.2902e+002 -8.5710e+000 29726 103153,103101,103317
 2.8000e+000 103366 -2.3102e+001 -1.1121e+002 -6.3007e+000 29726 103153,103317,102997
 2.8000e+000 103614  1.8322e+001 -9.6585e+001 -1.9242e+001 29200 103781,103637,103467
 2.8000e+000 103591 -4.1529e+001 -1.2517e+002  1.8175e+001 29200 103709,103637,103415
 2.8000e+000 103568 -5.7030e+001 -1.2151e+002  6.3476e+000 29200 103709,103415,103389
 2.8000e+000 103545  8.3629e+000 -6.5508e+001 -4.4814e+001 29200 103781,103467,103441
 2.8000e+000 103663  3.2500e+001 -1.1539e+002  2.3329e+000 29200 103853,103637,103493
 2.8000e+000 103686  1.7963e+001 -5.9081e+001  2.7120e+000 29200 103493,103637,103519
 2.8000e+000 103735 -1.4643e+001 -1.2478e+002  1.9123e+001 29200 103519,103637,103709
 2.8000e+000 103758 -3.2602e+001 -1.2110e+002  9.4202e+000 29200 103519,103709,103389
 2.8000e+000 103807  5.3770e+000 -1.5486e+002 -8.8300e+000 29200 103415,103637,103781
 2.8000e+000 103830 -4.9722e-001 -1.3421e+002 -4.4331e+001 29200 103415,103781,103441
 2.8000e+000 103879 -2.3280e+000 -1.1921e+002 -1.0391e+001 29200 103467,103637,103853
 2.8000e+000 104545 -2.1023e+001 -1.0985e+002 -1.6019e+001 28860 104274,104352,104326
 2.8000e+000 104522 -5.0026e+001 -1.1489e+002 -1.5257e+001 28860 104248,104352,104274
 2.8000e+000 104499 -3.3380e+001 -1.0821e+002 -1.5594e+001 28860 104248,104404,104352
 2.8000e+000 104476 -8.9818e+001 -1.0625e+002 -2.0974e+001 28860 104222,104404,104248
 2.8000e+000 104453 -1.7886e+001 -8.5336e+001 -2.2739e+001 28860 104352,104404,104378
 2.8000e+000 104430 -4.1548e+001 -1.1876e+002 -1.3858e+001 28860 104274,104326,104300
 2.8000e+000 104744  1.8112e+000 -1.5067e+002 -3.6082e+001 28456 104839,104767,104646
 2.8000e+000 104721 -7.2592e+001 -2.0630e+002 -1.9793e+001 28456 104767,104594,104568
 2.8000e+000 104698 -6.6232e+000 -1.2427e+002 -1.6944e+001 28456 104839,104646,104620
 2.8000e+000 104793 -1.6816e+001 -1.7435e+002 -1.8576e+001 28456 104672,104646,104767
 2.8000e+000 104816 -8.2967e+001 -2.2469e+002  1.8623e+001 28456 104911,104767,104568
 2.8000e+000 104865 -3.3413e+001 -1.7827e+002 -6.3100e+000 28456 104594,104767,104839
 2.8000e+000 104888  1.4920e+001 -1.5240e+001 -1.6833e+001 28456 105041,104839,104620
 2.8000e+000 104937 -4.9900e+000 -1.1368e+002 -2.0169e+001 28456 104672,104767,104911
 2.8000e+000 105067 -2.8553e+001 -1.6826e+002 -2.8505e+001 28456 104594,104839,105041
 2.8000e+000 105573 -4.0782e+001 -1.7363e+002 -1.2539e+001 28094 105812,105596,105328
 2.8000e+000 105550 -4.7315e+001 -1.5384e+002  5.0725e+000 28094 105596,105276,105250
 2.8000e+000 105527 -1.6829e+001 -1.7890e+002 -6.6608e+000 28094 105740,105668,105432
 2.8000e+000 105504 -3.5875e+001 -1.9195e+002  9.1178e+000 28094 105740,105432,105380
 2.8000e+000 105481 -2.7941e+001 -1.8250e+002 -5.4612e+000 28094 105812,105328,105302
 2.8000e+000 105458 -1.6140e+001 -2.1259e+002  1.1478e+001 28094 105380,105432,105406
 2.8000e+000 105622 -1.4528e+001 -1.2849e+002 -2.3738e+001 28094 105354,105328,105596
 2.8000e+000 105645 -2.1069e+001 -1.3559e+002  1.0501e+001 28094 105668,105354,105596
 2.8000e+000 105694 -1.0517e+001 -1.4153e+002 -1.6747e+001 28094 105250,105432,105668
 2.8000e+000 105717 -4.1873e+001 -1.7102e+002  1.6963e+000 28094 105250,105668,105596
 2.8000e+000 105766 -5.2584e+001 -1.7675e+002  2.4663e+001 28094 105354,105668,105740
 2.8000e+000 105789 -7.0971e+001 -1.9982e+002  4.2398e+001 28094 105354,105740,105380
 2.8000e+000 105838 -2.8954e+001 -1.5715e+002 -7.2694e+000 28094 105276,105596,105812
 2.8000e+000 105861  5.5590e+000 -1.5724e+002  1.1233e+001 28094 105276,105812,105302
 2.8000e+000 106367 -5.6628e+001 -2.0600e+002 -2.1004e+001 27390 106070,106122,106096
 2.8000e+000 106344 -3.9926e+001 -2.2292e+002 -2.5030e+001 27390 106070,106226,106122
 2.8000e+000 106321 -1.2076e+001 -2.2138e+002 -1.2942e+001 27390 106174,106226,106200
 2.8000e+000 106298 -2.4105e+001 -2.0868e+002 -1.1204e+001 27390 106122,106226,106174
 2.8000e+000 106275 -3.9129e+001 -2.1110e+002  1.7338e+001 27390 106122,106174,106148
 2.8000e+000 106252 -5.6252e+001 -2.3788e+002 -4.9514e+001 27390 106044,106226,106070
 2.8000e+000 106615 -3.6953e+001 -1.8334e+002 -7.2610e+000 26978 106638,106494,106416
 2.8000e+000 106592 -4.2565e+001 -1.8384e+002 -8.2905e+000 26978 106638,106416,106390
 2.8000e+000 106569 -3.4190e+001 -1.7845e+002  2.2680e+000 26978 106416,106494,106442
 2.8000e+000 106546 -7.4003e+000 -1.9168e+002 -1.1662e+001 26978 106442,106494,106468
 2.8000e+000 106664 -2.4377e+001 -1.8417e+002 -7.1290e+000 26978 106520,106494,106638
 2.8000e+000 106687 -3.5819e+001 -1.8876e+002 -8.7590e+000 26978 106520,106638,106390
 2.8000e+000 106837  2.2628e-001 -5.3742e+002 -4.9658e+000 26524 106710,106762,106736
 2.8000e+000 106814 -4.7307e+000 -4.8129e+002 -2.5614e+000 26524 106710,106788,106762
 2.8000e+000 107426 -7.1851e+001 -1.5695e+002  2.0094e+001 26120 107129,107207,107155
 2.8000e+000 107403 -5.8992e+001 -1.4083e+002  1.4479e+001 26120 107129,107285,107207
 2.8000e+000 107380 -7.7362e+001 -1.6237e+002 -8.1208e-001 26120 107207,107285,107259
 2.8000e+000 107357 -5.9101e+000 -1.2302e+002  6.4971e+000 26120 107155,107207,107181
 2.8000e+000 107334 -5.6263e+001 -1.3801e+002  1.7841e+001 26120 107103,107285,107129
 2.8000e+000 107311 -7.2181e+001 -1.5529e+002  1.9149e+000 26120 107207,107259,107233
 2.8000e+000 107755 -3.7412e+001 -1.4035e+002 -6.2038e+000 25758 107556,107634,107608
 2.8000e+000 107732  2.1981e+001 -1.1056e+002 -2.3548e+001 25758 107556,107660,107634
 2.8000e+000 107709 -5.8238e+001 -1.1876e+002 -3.0124e+001 25758 107556,107608,107582
 2.8000e+000 107686  2.5905e+001  7.2154e+001  2.9223e+001 25758 107530,107660,107556
 2.8000e+000 108438 -6.6202e+001 -2.2062e+002 -4.0706e+000 25468 108121,108199,108173
 2.8000e+000 108415 -1.3466e+001 -9.8598e+001 -9.3838e+000 25468 108095,108199,108121
 2.8000e+000 108392 -1.5677e+001 -1.0946e+002 -1.0686e+001 25468 108095,108251,108199
 2.8000e+000 108369 -4.0722e+001 -1.3399e+002  3.7979e+000 25468 108069,108251,108095
 2.8000e+000 108346 -4.1395e+001 -1.1725e+002 -2.5709e+001 25468 108199,108251,108225
 2.8000e+000 108323 -1.7531e+001 -1.5762e+002  2.1133e+001 25468 108017,108251,108069
 2.8000e+000 108300 -6.6789e+001 -1.4082e+002 -1.5386e+001 25468 108121,108173,108147
 2.8000e+000 108277 -4.7200e+000 -1.4362e+002  1.3603e+001 25468 108017,108069,108043
 2.8000e+000 108588 -4.6044e+001 -1.8160e+002 -4.5523e+001 25064 108611,108513,108487
 2.8000e+000 108565 -9.9105e+001 -1.6455e+002 -2.6065e+001 25064 108683,108611,108487
 2.8000e+000 108637 -2.6336e+001 -1.5259e+002 -5.4222e+001 25064 108539,108513,108611
 2.8000e+000 108660 -3.5847e+001 -1.2941e+002 -3.5073e+001 25064 108539,108611,108461
 2.8000e+000 108709 -3.4366e+001 -1.1800e+002 -4.6392e+001 25064 108461,108611,108683
 2.8000e+000 109345 -1.2425e+002 -2.1155e+002  5.3775e+001 24410 108999,109155,109103
 2.8000e+000 109322 -8.2176e+001 -2.1671e+002  1.5839e+001 24410 108973,109155,108999
 2.8000e+000 109299 -4.5319e+001 -3.1193e+002  7.5839e+001 24410 109103,109155,109129
 2.8000e+000 109276 -1.0954e+002 -2.0281e+002  1.1387e+001 24410 108973,109181,109155
 2.8000e+000 109253 -7.8637e+001 -1.7259e+002  3.3923e+001 24410 109025,109103,109077
 2.8000e+000 109230 -1.3100e+002 -1.8499e+002  4.6819e+001 24410 108999,109103,109025
 2.8000e+000 109207 -6.5560e+001 -1.6092e+002  2.8996e+001 24410 109025,109077,109051
 2.8000e+000 109723 -5.8057e+001 -1.7737e+002  2.8007e+000 23856 109475,109579,109553
 2.8000e+000 109700 -6.8348e+001 -1.7722e+002  8.8135e+000 23856 109475,109605,109579
 2.8000e+000 109677 -7.1442e+001 -2.1816e+002  2.1976e+001 23856 109475,109553,109527
 2.8000e+000 109654 -6.6706e+001 -1.7616e+002 -5.3954e+000 23856 109449,109605,109475
 2.8000e+000 109631  6.4737e+000 -2.0501e+002  2.6565e+001 23856 109475,109527,109501
 2.8000e+000 110101 -3.6910e+001 -1.6793e+002 -2.7009e+001 23566 109853,109931,109879
 2.8000e+000 110078 -2.1677e+001 -1.5636e+002 -2.0036e+001 23566 109827,109931,109853
 2.8000e+000 110055 -4.5269e+001 -1.7154e+002 -1.2170e+001 23566 109827,109983,109931
 2.8000e+000 110032 -1.0801e+001 -1.5379e+002 -2.1751e+001 23566 109879,109931,109905
 2.8000e+000 110009 -3.5419e+001 -1.4531e+002 -1.3938e+001 23566 109931,109983,109957
 2.8000e+000 110735 -4.0919e+001 -1.1614e+002 -1.4005e+001 23162 110415,110571,110519
 2.8000e+000 110712 -6.7885e+001 -1.4800e+002 -2.5554e+001 23162 110389,110571,110415
 2.8000e+000 110689 -3.3063e+001 -1.1254e+002 -1.2928e+001 23162 110415,110519,110493
 2.8000e+000 110666 -4.9375e+001 -1.2688e+002 -3.5301e+000 23162 110363,110571,110389
 2.8000e+000 110643  3.1617e+001 -7.1921e+001  3.0798e+001 23162 110441,110493,110467
 2.8000e+000 110620 -1.4327e+001 -1.1979e+002 -1.0899e+001 23162 110415,110493,110441
 2.8000e+000 110597 -4.2893e+001 -1.3582e+002 -1.4388e+001 23162 110519,110571,110545
 2.8000e+000 111211 -6.0479e+001 -1.8087e+002 -1.7202e+001 22708 111378,111306,111021
 2.8000e+000 111188 -1.6206e+001 -1.7412e+002 -5.4569e+000 22708 111234,110969,110917
 2.8000e+000 111165 -5.3992e+001 -1.7292e+002 -1.1569e+001 22708 111450,111234,110917
 2.8000e+000 111142 -6.1300e+001 -1.6551e+002 -4.2054e+001 22708 111378,111021,110995
 2.8000e+000 111119 -5.9092e+001 -1.6933e+002 -2.7507e+001 22708 111450,110917,110865
 2.8000e+000 111096  1.8029e+001 -2.0981e+002  1.7487e+001 22708 110917,110969,110943
 2.8000e+000 111073 -3.9749e+001 -2.5787e+002 -7.1847e+001 22708 110865,110917,110891
 2.8000e+000 111260 -5.8838e+000 -1.7310e+002 -1.6021e+001 22708 111306,110969,111234
 2.8000e+000 111283 -2.4788e+001 -1.5100e+002 -1.3667e+001 22708 111047,111234,110839
 2.8000e+000 111332 -3.7967e+000 -2.2315e+002  2.2040e+001 22708 111047,111021,111306
 2.8000e+000 111355 -2.5190e+001 -1.8041e+002 -2.1104e+001 22708 111047,111306,111234
 2.8000e+000 111404 -7.4859e+000 -1.5736e+002 -3.3014e+001 22708 110969,111306,111378
 2.8000e+000 111427 -2.1803e+001 -1.4985e+002 -4.4387e+001 22708 110969,111378,110995
 2.8000e+000 111476 -2.9713e+001 -1.6426e+002 -1.2115e+001 22708 110839,111234,111450
 2.8000e+000 111499 -2.9554e+001 -1.5867e+002 -2.9565e+001 22708 110839,111450,110865
 2.8000e+000 111600 -3.9504e+001 -1.4428e+002  4.0067e+000 22460 111522,111574,111548
 2.8000e+000 112059 -2.6235e+001 -1.2855e+002 -1.0125e+001 22056 111811,111889,111863
 2.8000e+000 112036 -5.7559e+000 -1.1999e+002 -1.4512e+001 22056 111811,111915,111889
 2.8000e+000 112013 -2.1036e+001 -1.2332e+002 -1.2026e+001 22056 111785,111915,111811
 2.8000e+000 111990 -1.4509e+001 -1.0502e+002 -2.7801e+001 22056 111785,111941,111915
 2.8000e+000 111967 -4.3794e+001 -1.4213e+002 -9.6504e-001 22056 111811,111863,111837
 2.8000e+000 112486  6.2005e+000 -1.2113e+002 -9.8543e+000 21594 112509,112267,112215
 2.8000e+000 112463 -3.1031e+001 -1.3982e+002  6.2819e+000 21594 112509,112215,112163
 2.8000e+000 112440 -1.0634e+001 -8.6737e+001 -4.9848e+001 21594 112581,112293,112267
 2.8000e+000 112417 -4.2590e+001 -1.2826e+002  5.7683e+000 21594 112215,112267,112241
 2.8000e+000 112394  1.5420e+001 -1.1908e+002  1.4365e+000 21594 112163,112345,112319
 2.8000e+000 112371 -3.6767e+001 -1.3342e+002 -1.3953e+000 21594 112163,112215,112189
 2.8000e+000 112535  1.5909e+001 -1.1015e+002 -2.5873e+001 21594 112581,112267,112509
 2.8000e+000 112558 -1.1073e+001 -1.1557e+002 -3.1493e+000 21594 112319,112509,112163
 2.8000e+000 112607 -5.8447e+001 -1.0977e+002 -4.2973e+001 21594 112319,112293,112581
 2.8000e+000 112630 -3.1375e+001 -1.3684e+002 -1.4401e+001 21594 112319,112581,112509
 2.8000e+000 112900 -4.8613e+001 -1.6496e+002 -3.7476e+000 20974 112675,112779,112701
 2.8000e+000 112877 -2.3043e+001 -1.6035e+002 -4.4398e+000 20974 112675,112805,112779
 2.8000e+000 112854 -4.5224e+000 -1.3543e+002  1.0578e+001 20974 112701,112779,112753
 2.8000e+000 112831 -1.7023e+001 -6.5959e+001 -3.3642e+001 20974 112701,112753,112727
 2.8000e+000 113359 -1.9202e+001 -1.5212e+002 -2.0968e+001 20520 113454,113137,113111
 2.8000e+000 113336  2.9950e+000 -1.5885e+002 -2.7988e+001 20520 113454,113111,113085
 2.8000e+000 113313  1.1065e+001 -6.2261e+001  3.4695e+001 20520 113382,113163,113137
 2.8000e+000 113290 -1.7780e+001 -1.6352e+002 -1.1732e+001 20520 113526,113382,113137
 2.8000e+000 113267 -4.6873e+001 -2.5011e+002 -9.7769e+000 20520 113189,113241,113215
 2.8000e+000 113408 -3.5810e+001 -1.6563e+002  1.7808e+001 20520 113189,113163,113382
 2.8000e+000 113431 -2.5238e+001 -1.8634e+002 -2.9609e+001 20520 113189,113382,113241
 2.8000e+000 113480 -2.1667e+001 -1.6068e+002 -1.3999e+001 20520 113526,113137,113454
 2.8000e+000 113503 -9.2630e+000 -1.7554e+002 -2.1798e+001 20520 113241,113454,113085
 2.8000e+000 113552 -1.0405e+001 -1.5999e+002 -1.3493e+001 20520 113241,113382,113526
 2.8000e+000 113575 -1.3394e+001 -1.5679e+002 -1.5517e+001 20520 113241,113526,113454
 2.8000e+000 113904 -4.2984e+001 -1.8109e+002  4.0307e+000 19858 113705,113783,113757
 2.8000e+000 113881 -2.7803e+001 -1.5822e+002 -2.7742e+000 19858 113705,113809,113783
 2.8000e+000 113858  2.1169e+001 -1.2901e+002 -3.3407e+001 19858 113679,113809,113705
 2.8000e+000 113835 -2.8033e+001 -1.2079e+002  4.1069e+001 19858 113705,113757,113731
 2.8000e+000 114152 -5.5008e+001 -1.2691e+002 -1.4658e+001 19454 114175,114005,113979
 2.8000e+000 114129 -5.5929e+001 -1.2598e+002 -1.4927e+001 19454 114175,113979,114057
 2.8000e+000 114106 -6.6776e+001 -1.4689e+002 -7.3212e+000 19454 113927,114057,113979
 2.8000e+000 114083 -3.5086e+001 -1.2570e+002 -2.9621e+001 19454 113927,113979,113953
 2.8000e+000 114201 -3.8486e+001 -1.2004e+002 -1.6789e+001 19454 114031,114005,114175
 2.8000e+000 114224 -5.5640e+001 -1.2610e+002 -1.4952e+001 19454 114031,114175,114057
 2.8000e+000 114472 -5.0300e+001 -1.9513e+002 -7.3381e+000 19000 114495,114273,114247
 2.8000e+000 114449 -5.9318e+001 -2.0546e+002 -1.1699e+001 19000 114495,114247,114325
 2.8000e+000 114426 -7.9138e+001 -2.1035e+002  5.1833e+000 19000 114247,114377,114325
 2.8000e+000 114403 -9.3227e+001 -2.1634e+002 -3.0679e+001 19000 114325,114377,114351
 2.8000e+000 114521 -2.0064e+001 -1.8630e+002  1.2226e+001 19000 114299,114273,114495
 2.8000e+000 114544 -5.0531e+001 -2.2173e+002 -9.2873e-001 19000 114299,114495,114325
 2.8000e+000 114948 -4.6594e+001 -1.8887e+002 -2.1508e+000 18560 114674,114726,114700
 2.8000e+000 114925 -2.1794e+001 -1.4428e+002 -1.3318e+001 18560 114674,114830,114726
 2.8000e+000 114902 -2.1128e+001 -1.4374e+002 -1.8321e+001 18560 114726,114830,114804
 2.8000e+000 114879 -6.0749e+001 -2.7963e+002 -4.5925e+001 18560 114726,114804,114752
 2.8000e+000 114856  1.9259e+001 -3.6315e+002 -6.0495e+001 18560 114752,114804,114778
 2.8000e+000 115098 -1.1100e+002 -2.8132e+002 -2.3068e+000 18156 114971,115023,114997
 2.8000e+000 115075 -1.1301e+002 -1.5451e+002 -3.6920e+000 18156 114971,115049,115023
 2.8000e+000 115248 -8.7373e+001 -2.3978e+002 -2.0569e+000 17602 115147,115199,115173
 2.8000e+000 115225 -2.1516e+001 -2.2677e+002  4.1371e+000 17602 115121,115199,115147
 2.8000e+000 115652 -6.2861e+000 -1.5300e+002 -4.4195e+000 17354 115430,115534,115508
 2.8000e+000 115629 -2.7551e+001 -1.9776e+002  7.1127e+000 17354 115404,115534,115430
 2.8000e+000 115606  3.6168e+001 -1.2300e+002  7.9501e+001 17354 115378,115534,115404
 2.8000e+000 115583  1.3874e+001 -1.8312e+002 -2.1475e+001 17354 115456,115508,115482
 2.8000e+000 115560 -3.1714e+001 -2.1319e+002 -6.2391e+000 17354 115430,115508,115456
 2.8000e+000 115873 -5.7105e+001 -2.8723e+002 -1.0078e+001 16950 115749,115801,115775
 2.8000e+000 115850 -1.0685e+002 -2.7217e+002 -4.1586e+000 16950 115697,115801,115749
 2.8000e+000 115827 -9.9182e+001 -2.8731e+002  6.5794e+000 16950 115697,115749,115723
 2.8000e+000 116023 -1.1372e+002 -2.8692e+002 -3.4755e+001 16496 115922,115974,115948
 2.8000e+000 116000 -1.1440e+002 -2.3644e+002 -1.5732e+001 16496 115896,115974,115922
 2.8000e+000 116126  2.1474e+000 -1.8559e+002  6.7045e+000 16298 116048,116100,116074
 2.8000e+000 116278  5.7270e+001 -3.0482e+002 -6.9229e+000 15892 116151,116203,116177
 2.8000e+000 116255  1.4136e+001 -3.9944e+002  3.4662e+000 15892 116151,116229,116203
 2.8000e+000 116430 -1.1030e+001 -1.0278e+002 -2.1871e+000 15545 116303,116355,116329
 2.8000e+000 116407 -4.1640e+001 -1.9758e+002 -4.7781e+001 15545 116303,116381,116355
 2.8000e+000 116785  2.0675e+001 -1.0702e+002  3.6170e+001 421 116612,116690,116664
 2.8000e+000 116762 -2.0096e+001 -2.0271e+002  2.3360e+001 421 116560,116690,116612
 2.8000e+000 116739 -8.7830e+001 -2.3109e+002  2.5383e+001 421 116560,116612,116586
 2.8000e+000 116716 -5.9035e+001 -2.3996e+002 -2.0521e+000 421 116612,116664,116638
 2.9000e+000 68048 -2.0576e+001 -2.3544e+002 -8.4490e+000 67642 67898,67950,67924
 2.9000e+000 68025 -4.8540e+001 -2.6917e+002  6.5165e+000 67642 67898,67976,67950
 2.9000e+000 68002  3.0039e+001 -2.4162e+002  1.6661e+001 67642 67872,67976,67898
 2.9000e+000 68367  1.5396e+001 -1.1350e+002 -4.4587e+000 67444 68119,68223,68197
 2.9000e+000 68344 -3.1710e+001 -2.3877e+002  7.7863e+000 67444 68119,68249,68223
 2.9000e+000 68321 -3.2840e+001 -2.3721e+002  4.0639e+000 67444 68093,68249,68119
 2.9000e+000 68298 -3.8652e+001 -2.4411e+002  1.9512e+000 67444 68119,68197,68171
 2.9000e+000 68275 -1.1094e+002 -2.3371e+002  1.5633e+001 67444 68119,68171,68145
 2.9000e+000 68468 -7.3258e+000 -2.7997e+002  1.4254e+001 67268 68390,68442,68416
 2.9000e+000 68765 -7.6427e+001 -2.5849e+002  5.2058e+000 66956 68788,68517,68491
 2.9000e+000 68742 -6.8906e+001 -2.8528e+002  8.8964e-001 66956 68788,68491,68621
 2.9000e+000 68719 -6.6008e+001 -2.8064e+002 -5.6626e+001 66956 68543,68621,68569
 2.9000e+000 68696 -6.8938e+001 -2.8722e+002 -9.4202e-001 66956 68491,68647,68621
 2.9000e+000 68673 -8.8840e+001 -1.8289e+002 -4.4692e+001 66956 68569,68621,68595
 2.9000e+000 68814 -7.5077e+001 -2.7865e+002  1.2833e+001 66956 68543,68517,68788
 2.9000e+000 68837 -6.5774e+001 -3.0392e+002  6.1428e+000 66956 68543,68788,68621
 2.9000e+000 69107 -1.6208e+001 -2.8079e+002 -8.8284e+000 66758 68882,68986,68908
 2.9000e+000 69084 -5.6115e+001 -2.8555e+002  7.2272e+000 66758 68882,69012,68986
 2.9000e+000 69061 -9.9196e+000 -2.4474e+002 -2.3878e+001 66758 68908,68960,68934
 2.9000e+000 69038  8.6376e+000 -2.3547e+002 -1.9532e+001 66758 68908,68986,68960
 2.9000e+000 69308 -1.5975e+001 -2.2488e+002 -5.5968e+000 66560 69331,69184,69158
 2.9000e+000 69285  8.1414e+000 -2.4665e+002 -7.5925e+000 66560 69331,69158,69132
 2.9000e+000 69262 -2.6235e+001 -2.8646e+002 -5.7006e+000 66560 69184,69236,69210
 2.9000e+000 69357 -1.6745e+001 -2.4196e+002  1.3983e+000 66560 69236,69184,69331
 2.9000e+000 69380 -8.6125e+000 -2.7770e+002  5.6045e+000 66560 69236,69331,69132
 2.9000e+000 69554 -6.1878e+001 -3.5686e+002  2.2038e+001 66270 69427,69479,69453
 2.9000e+000 69531 -1.7722e+001 -2.5336e+002  4.2291e+001 66270 69427,69505,69479
 2.9000e+000 69804 -2.3593e+001 -2.1688e+002 -1.4744e+001 66066 69579,69683,69657
 2.9000e+000 69781  1.1290e+002 -1.5681e+002 -3.9606e+001 66066 69579,69709,69683
 2.9000e+000 69758 -1.2050e+000 -1.0330e+002 -2.0934e+001 66066 69579,69657,69631
 2.9000e+000 69735 -1.8086e+001 -1.4020e+002 -2.8246e+001 66066 69579,69631,69605
 2.9000e+000 70257  1.6522e+001 -7.9939e+001  5.4388e+000 65776 69960,70090,69986
 2.9000e+000 70234 -1.4107e+001 -1.3114e+002 -1.1934e+001 65776 69934,70090,69960
 2.9000e+000 70211  2.4651e+000 -1.2671e+002 -1.3300e+001 65776 69934,70116,70090
 2.9000e+000 70188  1.3385e+001 -1.3180e+002  0.0000e+000 65776 70038,70090,70064
 2.9000e+000 70165  8.2544e+000 -1.3377e+002  1.9966e-001 65776 69986,70090,70038
 2.9000e+000 70142  1.3543e+001 -1.2469e+002  3.2214e+000 65776 69986,70038,70012
 2.9000e+000 70456 -3.7214e+001 -9.3900e+001 -1.6029e+001 65372 70479,70306,70280
 2.9000e+000 70433 -1.5110e+001 -1.1998e+002 -3.8772e+001 65372 70479,70280,70384
 2.9000e+000 70410  4.2953e+000 -9.2510e+001 -6.2783e-001 65372 70551,70332,70306
 2.9000e+000 70505 -8.7700e+000 -8.0707e+001 -1.2556e+001 65372 70551,70306,70479
 2.9000e+000 70528  2.3403e+001 -1.0517e+002 -3.4156e+001 65372 70358,70479,70384
 2.9000e+000 70577 -8.3086e+000 -1.1194e+002 -6.6007e+000 65372 70358,70332,70551
 2.9000e+000 70600 -2.2956e+001 -1.0462e+002 -1.8596e+001 65372 70358,70551,70479
 2.9000e+000 70821 -3.1725e+001 -3.4428e+002 -7.6219e+000 65174 70645,70723,70671
 2.9000e+000 70798 -8.1181e+001 -3.5703e+002  8.9829e+000 65174 70645,70749,70723
 2.9000e+000 70775 -1.4090e+001 -3.1763e+002 -1.6029e+001 65174 70671,70723,70697
 2.9000e+000 71071 -2.2430e+001 -1.4149e+002 -5.3404e+000 64770 71094,70898,70872
 2.9000e+000 71048 -1.4755e+001 -1.4169e+002  4.2624e+000 64770 71166,71094,70872
 2.9000e+000 71025 -1.9226e+001 -1.5734e+002 -6.1967e+000 64770 71166,70872,70846
 2.9000e+000 71002 -2.2042e+001 -8.3482e+001  2.1256e+001 64770 70898,70950,70924
 2.9000e+000 71120 -1.9300e+001 -1.1867e+002 -8.1130e+000 64770 70950,70898,71094
 2.9000e+000 71143 -5.6190e+000 -1.4179e+002  8.5593e+000 64770 70950,71094,70976
 2.9000e+000 71192 -1.6420e+001 -1.7155e+002 -1.2020e-001 64770 70976,71094,71166
 2.9000e+000 71215 -1.3202e+001 -1.7723e+002 -1.0408e+001 64770 70976,71166,70846
 2.9000e+000 71514  8.2158e+000 -1.6322e+002 -2.7358e+000 64572 71681,71537,71318
 2.9000e+000 71491 -2.6755e+001 -1.5894e+002 -7.1116e+000 64572 71537,71266,71240
 2.9000e+000 71468 -3.1862e+001 -1.2659e+002 -3.2742e+001 64572 71609,71396,71370
 2.9000e+000 71445 -1.0273e+000 -1.5819e+002 -4.6766e+000 64572 71681,71318,71292
 2.9000e+000 71422 -1.7818e+001 -2.3923e+002 -2.7123e+001 64572 71753,71344,71318
 2.9000e+000 71563  1.1794e+001 -1.8927e+002 -1.2039e+001 64572 71753,71318,71537
 2.9000e+000 71586 -1.9218e+001 -1.4670e+002 -9.1315e+000 64572 71609,71370,71537
 2.9000e+000 71635 -6.3726e-001 -5.8585e+001 -4.2776e+001 64572 71240,71396,71609
 2.9000e+000 71658 -5.4989e+000 -1.0526e+002 -1.5707e+001 64572 71240,71609,71537
 2.9000e+000 71707 -1.2136e+001 -1.5542e+002 -1.1141e+001 64572 71266,71537,71681
 2.9000e+000 71730 -3.9043e+001 -1.6250e+002 -1.1935e+001 64572 71266,71681,71292
 2.9000e+000 71779 -3.0677e+001 -1.6866e+002 -2.7856e+001 64572 71370,71344,71753
 2.9000e+000 71802 -2.5228e+001 -1.6555e+002 -2.5538e+001 64572 71370,71753,71537
 2.9000e+000 72052 -1.4767e+001 -2.0240e+002  1.9990e+001 64374 72075,71879,71827
 2.9000e+000 72029  5.9699e+001 -1.5752e+002 -7.5275e+000 64374 72147,72075,71827
 2.9000e+000 72006  1.2433e+002 -1.7989e+002 -4.5792e+001 64374 72147,71827,71957
 2.9000e+000 71983  1.2705e+001 -1.7603e+002  6.0794e+000 64374 71827,71879,71853
 2.9000e+000 72101 -4.3289e+000 -2.5969e+002  6.7406e+001 64374 71905,71879,72075
 2.9000e+000 72124  7.1779e+001 -2.1091e+002  4.4162e+001 64374 71905,72075,71931
 2.9000e+000 72173  4.8360e+000 -2.2259e+002  1.9699e+001 64374 71931,72075,72147
 2.9000e+000 72196  4.6285e+001 -2.5806e+002 -1.3736e+001 64374 71931,72147,71957
 2.9000e+000 72649  1.0199e+001 -9.1682e+001 -4.7487e+000 63948 72352,72508,72482
 2.9000e+000 72626  1.8185e+001 -6.2539e+001  2.7784e+001 63948 72326,72508,72352
 2.9000e+000 72603 -3.0499e+001 -1.6683e+002 -2.1767e+001 63948 72672,72430,72378
 2.9000e+000 72580 -4.2991e+000 -1.9202e+002 -1.6834e+001 63948 72672,72378,72352
 2.9000e+000 72557 -8.8838e+000 -1.7489e+002 -1.3273e+001 63948 72744,72456,72430
 2.9000e+000 72534 -3.9882e+001 -2.1827e+002 -4.5970e+001 63948 72378,72430,72404
 2.9000e+000 72698 -1.4340e+001 -1.7234e+002 -1.1306e+001 63948 72744,72430,72672
 2.9000e+000 72721  1.3421e+001 -1.5712e+002  5.4897e+000 63948 72482,72672,72352
 2.9000e+000 72770 -6.0873e+000 -1.7198e+002 -1.4417e+001 63948 72482,72456,72744
 2.9000e+000 72793 -9.4682e+000 -1.6602e+002 -1.3455e+001 63948 72482,72744,72672
 2.9000e+000 72894 -7.9708e+000 -1.8601e+002 -1.4130e+001 63494 72816,72868,72842
 2.9000e+000 73093 -4.4197e+001 -9.1211e+001 -1.2716e+001 63132 72943,72995,72969
 2.9000e+000 73070 -3.8050e+001 -8.1472e+001  4.2315e+000 63132 72943,73021,72995
 2.9000e+000 73047 -3.5016e+001 -9.9872e+001  1.1572e+001 63132 72917,73021,72943
 2.9000e+000 73294 -6.2142e+000 -5.5531e+001 -2.8277e+001 62792 73317,73144,73118
 2.9000e+000 73271 -8.1268e+000 -4.8061e+001 -1.1211e+001 62792 73317,73118,73222
 2.9000e+000 73248 -1.9420e+001 -6.0080e+001 -3.5721e+001 62792 73144,73196,73170
 2.9000e+000 73343 -2.3919e+001 -6.6089e+001 -3.2844e+001 62792 73196,73144,73317
 2.9000e+000 73366 -2.3968e+001 -5.6663e+001 -1.5026e+001 62792 73196,73317,73222
 2.9000e+000 73616 -4.9753e+001 -1.6088e+002  2.3370e+001 62388 73639,73417,73391
 2.9000e+000 73593 -3.7117e+001 -1.3309e+002  1.6646e+001 62388 73711,73639,73391
 2.9000e+000 73570 -2.0768e+001 -8.3634e+001  7.9379e+000 62388 73711,73391,73521
 2.9000e+000 73547 -1.2800e+001 -1.3348e+002  1.2034e+000 62388 73469,73521,73495
 2.9000e+000 73665 -2.4209e+001 -1.5040e+002  2.1201e+001 62388 73443,73417,73639
 2.9000e+000 73688 -3.0147e+001 -1.8171e+002  1.9642e+001 62388 73443,73639,73469
 2.9000e+000 73737 -1.7676e+001 -1.6609e+002  1.0623e+001 62388 73469,73639,73711
 2.9000e+000 73760 -2.4821e+001 -1.4666e+002  1.2452e+001 62388 73469,73711,73521
 2.9000e+000 74010 -2.1349e+001 -5.3858e+001 -1.1569e+001 61848 74033,73837,73811
 2.9000e+000 73987 -6.2836e+001 -3.8634e+001 -5.9244e+001 61848 74033,73811,73785
 2.9000e+000 73964 -6.1029e+000 -6.5682e+001 -2.1285e+001 61848 73837,73915,73889
 2.9000e+000 73941  1.9448e+000 -4.9991e+001 -1.7992e+001 61848 73837,73889,73863
 2.9000e+000 74059 -1.5735e+001 -8.1322e+001 -2.5728e+001 61848 73915,73837,74033
 2.9000e+000 74082 -1.9273e+001 -1.0705e+002 -4.1365e+001 61848 73915,74033,73785
 2.9000e+000 74283  1.8859e+001 -5.0289e+001  2.2124e+001 61444 74306,74133,74107
 2.9000e+000 74260  2.7431e+001 -1.4853e+001  3.8879e+001 61444 74306,74107,74211
 2.9000e+000 74237  1.2015e+001  3.7601e+001  5.4125e+000 61444 74378,74185,74159
 2.9000e+000 74332  1.2455e+001 -5.4361e+001  1.4872e+000 61444 74159,74133,74306
 2.9000e+000 74355  2.9189e+001 -1.8671e+001  1.3928e+001 61444 74378,74159,74306
 2.9000e+000 74404 -3.5963e+000 -2.2575e+001  2.3636e+001 61444 74211,74185,74378
 2.9000e+000 74427  7.7527e+000 -3.9239e+001  2.2460e+001 61444 74211,74378,74306
 2.9000e+000 74628 -7.5116e+000 -4.5743e+001 -2.1024e+001 60990 74478,74530,74504
 2.9000e+000 74605 -6.6590e+000 -6.1520e+001 -3.4529e+001 60990 74452,74530,74478
 2.9000e+000 74582 -2.2299e+001 -6.2218e+001 -3.4879e+001 60990 74452,74556,74530
 2.9000e+000 75089 -1.6261e+000 -5.0013e+001 -1.4485e+001 60486 75112,74945,74919
 2.9000e+000 75066 -6.2283e+000 -4.0975e+000  5.4093e+000 60486 75112,74919,74867
 2.9000e+000 75043 -9.0388e+000 -1.0171e+002  1.0634e+001 60486 74841,74971,74867
 2.9000e+000 75020  3.8963e-001  1.6565e+000  6.6192e-001 60486 74867,74919,74893
 2.9000e+000 74997 -8.3365e+000 -8.5407e+001  2.7480e+001 60486 74815,74971,74841
 2.9000e+000 75138 -1.6607e+001 -6.5709e+001 -3.5298e+001 60486 74971,74945,75112
 2.9000e+000 75161 -2.2962e+001 -3.6800e+001 -1.2648e+001 60486 74971,75112,74867
 2.9000e+000 75409 -1.3923e+001 -9.6084e+000  1.2529e+001 59932 75576,75432,75288
 2.9000e+000 75386 -1.2641e+001 -1.1398e+001  9.5002e+000 59932 75504,75314,75288
 2.9000e+000 75363 -3.6684e+000  7.6351e+000  2.4007e+001 59932 75432,75236,75210
 2.9000e+000 75340 -3.7661e+000 -1.5644e+001  2.7183e+000 59932 75576,75288,75262
 2.9000e+000 75458 -1.4997e+001 -8.6098e+000  8.6933e+000 59932 75504,75288,75432
 2.9000e+000 75481 -1.7880e+001 -8.8549e+000  9.2272e+000 59932 75184,75432,75210
 2.9000e+000 75530 -8.7444e+000 -2.7225e+001  3.1952e+000 59932 75184,75314,75504
 2.9000e+000 75553 -1.8106e+001 -1.1562e+001  6.9854e+000 59932 75184,75504,75432
 2.9000e+000 75602 -2.0942e+001 -2.6022e+001  1.6720e+001 59932 75236,75432,75576
 2.9000e+000 75625 -1.2929e+001 -3.1836e+001  1.2059e+001 59932 75236,75576,75262
 2.9000e+000 75873 -3.1351e+001 -1.5451e+002  1.0470e+001 59478 75674,75752,75700
 2.9000e+000 75850 -6.5969e+001 -1.6799e+002  3.2850e+001 59478 75648,75752,75674
 2.9000e+000 75827 -2.8951e+001 -1.4126e+002  1.7008e+001 59478 75700,75752,75726
 2.9000e+000 75804 -5.8292e+001 -1.7551e+002  3.3653e+001 59478 75648,75778,75752
 2.9000e+000 76206 -1.3143e+001 -1.3426e+002  3.0960e+000 59024 75981,76059,76007
 2.9000e+000 76183 -2.0163e+001 -1.4585e+002  7.1855e+000 59024 75981,76111,76059
 2.9000e+000 76160 -2.0154e+001 -9.9763e+001 -2.2959e+001 59024 76007,76059,76033
 2.9000e+000 76137  2.9248e+000 -1.4211e+002  5.0287e+001 59024 76059,76111,76085
 2.9000e+000 76761 -9.6626e+001 -9.7826e+001 -1.4836e+001 58562 76389,76441,76415
 2.9000e+000 76738 -8.1985e+001 -9.1356e+001  2.2764e+001 58562 76856,76784,76389
 2.9000e+000 76715 -5.6821e+001 -3.9581e+001 -4.7949e+001 58562 76784,76571,76467
 2.9000e+000 76692 -2.1224e+001 -1.1054e+002  2.8270e+001 58562 76856,76389,76597
 2.9000e+000 76669 -6.1777e+001 -2.4689e+002  1.2721e+001 58562 76467,76545,76493
 2.9000e+000 76646 -2.2095e+001 -1.7169e+002 -9.3285e+001 58562 76467,76571,76545
 2.9000e+000 76623 -1.9520e+001 -2.2235e+002  2.2869e+001 58562 76493,76545,76519
 2.9000e+000 76810 -6.7098e+001 -9.8484e+001  8.6694e+000 58562 76441,76389,76784
 2.9000e+000 76833 -1.5981e+002 -2.2794e+002 -1.0632e+002 58562 76441,76784,76467
 2.9000e+000 76882 -1.6109e+001 -6.1661e+001  5.1468e+001 58562 76571,76784,76856
 2.9000e+000 76905  2.1616e+001 -9.6375e+001  5.7571e+001 58562 76571,76856,76597
 2.9000e+000 77055  1.0659e+000 -1.7808e+002 -2.5982e+001 57844 76928,76980,76954
 2.9000e+000 77032 -4.9689e+001 -1.2693e+002 -2.0222e+001 57844 76928,77006,76980
 2.9000e+000 77533 -5.6590e+001 -2.6689e+002 -8.5546e+000 57226 77628,77556,77291
 2.9000e+000 77510 -4.9396e+001 -4.5978e+001  1.8966e+001 57226 77556,77187,77343
 2.9000e+000 77487  5.5283e+000 -1.5961e+002 -4.7460e+001 57226 77628,77291,77265
 2.9000e+000 77464 -2.8519e+001 -3.2765e+002  6.1357e+001 57226 77700,77213,77187
 2.9000e+000 77441 -2.3567e+001 -7.4441e+001 -3.5202e+001 57226 77161,77343,77187
 2.9000e+000 77418 -4.3526e+001 -8.7754e+001 -2.9436e+001 57226 77161,77369,77343
 2.9000e+000 77395 -8.9585e+001 -5.9148e+001  1.8404e+001 57226 77213,77265,77239
 2.9000e+000 77582 -5.5484e+001 -2.2278e+002  3.7627e+001 57226 77317,77291,77556
 2.9000e+000 77605 -6.9543e+001 -1.5374e+002  1.2016e+001 57226 77317,77556,77343
 2.9000e+000 77654  3.9384e+001 -1.5282e+002  4.9676e+001 57226 77187,77556,77628
 2.9000e+000 77677 -1.8920e+001 -2.9708e+002  5.7176e+001 57226 77700,77187,77628
 2.9000e+000 77726 -5.5634e+001 -3.5653e+002 -6.1665e+001 57226 77265,77213,77700
 2.9000e+000 77749 -1.0908e+001 -2.4633e+002 -6.0755e+001 57226 77265,77700,77628
 2.9000e+000 78046 -3.1106e+000 -1.5766e+002  5.1645e+001 56936 77798,77850,77824
 2.9000e+000 78023 -2.0689e+001 -1.4575e+002  5.6854e+001 56936 78069,77798,77902
 2.9000e+000 78000 -4.7656e+001 -1.5248e+002  4.9665e+001 56936 78069,77902,77876
 2.9000e+000 77977  1.2450e+001 -1.4303e+002 -1.7106e+000 56936 77798,77928,77902
 2.9000e+000 77954 -1.9794e+001 -3.0519e+001  2.2000e+001 56936 77772,77928,77798
 2.9000e+000 78095 -1.0460e+001 -1.4905e+002  6.0632e+001 56936 77850,77798,78069
 2.9000e+000 78118 -2.2829e+001 -1.4532e+002  5.4003e+001 56936 77850,78069,77876
 2.9000e+000 78754 -1.3413e+000 -1.0216e+002 -1.9245e+001 56475 78777,78486,78408
 2.9000e+000 78731  2.1353e+001 -9.7885e+001 -1.9450e+001 56475 78777,78408,78382
 2.9000e+000 78708  2.7687e+001 -1.2611e+002 -3.0533e+001 56475 78849,78512,78486
 2.9000e+000 78685  9.5811e+000 -6.6738e+001 -1.2489e+001 56475 78382,78590,78564
 2.9000e+000 78662  1.6151e+001 -1.0288e+002 -4.4977e+001 56475 78512,78564,78538
 2.9000e+000 78639  9.9568e-001 -2.6175e+002  2.9243e+001 56475 78434,78486,78460
 2.9000e+000 78616 -6.0062e+001 -2.2252e+002  6.4401e+000 56475 78408,78486,78434
 2.9000e+000 78803  1.1093e+001 -1.1702e+002 -1.5894e+001 56475 78849,78486,78777
 2.9000e+000 78826  2.4139e+001 -9.3695e+001 -1.1896e+001 56475 78564,78777,78382
 2.9000e+000 78875  3.8857e+001 -1.0486e+002 -3.6060e+001 56475 78564,78512,78849
 2.9000e+000 78898  2.8835e+001 -8.8471e+001 -2.3766e+001 56475 78564,78849,78777
 2.9000e+000 79276 -3.0153e+001 -8.6440e+001 -8.3217e+000 55964 79299,79080,79028
 2.9000e+000 79253 -2.4507e+001 -9.1580e+001 -1.2048e+000 55964 79299,79028,79132
 2.9000e+000 79230 -3.6301e+001 -1.2597e+002 -9.0657e+000 55964 79028,79080,79054
 2.9000e+000 79207 -1.6851e+001 -7.1789e+001  7.9100e+000 55964 79002,79132,79028
 2.9000e+000 79184 -7.5864e-001 -6.3995e+001 -1.9630e+000 55964 79002,79158,79132
 2.9000e+000 79325 -2.5906e+001 -7.7791e+001 -6.9611e+000 55964 79106,79080,79299
 2.9000e+000 79348 -2.1219e+001 -8.5038e+001 -9.9413e-002 55964 79106,79299,79132
 2.9000e+000 79498 -2.0339e+001 -1.2291e+002  1.0804e+001 55452 79397,79449,79423
 2.9000e+000 79475 -4.0528e+001 -9.4740e+001  2.0208e+000 55452 79371,79449,79397
 2.9000e+000 79795 -2.7317e+001 -1.2898e+002  7.7040e-001 55048 79962,79818,79573
 2.9000e+000 79772 -1.5376e+001 -9.5746e+001 -8.7090e+000 55048 79818,79521,79677
 2.9000e+000 79749 -2.9969e+001 -1.6721e+002  2.6692e+001 55048 79599,79651,79625
 2.9000e+000 79726 -3.4889e+001 -1.5658e+002  2.6098e+001 55048 79890,79651,79599
 2.9000e+000 79703 -1.9591e+001 -1.3075e+002  1.2323e+001 55048 79962,79573,79547
 2.9000e+000 79844 -1.8184e+001 -1.1816e+002  4.6846e+000 55048 79599,79573,79818
 2.9000e+000 79867 -3.0249e+001 -1.3601e+002  1.0010e+001 55048 79890,79599,79818
 2.9000e+000 79916 -8.0584e+000 -1.4172e+002  6.9209e+000 55048 79677,79651,79890
 2.9000e+000 79939 -9.6185e+000 -1.3326e+002 -8.1193e+000 55048 79677,79890,79818
 2.9000e+000 79988 -4.2983e+001 -1.3339e+002  3.5821e+000 55048 79521,79818,79962
 2.9000e+000 80011 -4.2939e+001 -1.3577e+002  1.3519e+001 55048 79521,79962,79547
 2.9000e+000 80212 -5.0774e+001 -1.3437e+002  4.7308e+001 54436 80235,80088,80036
 2.9000e+000 80189 -2.8723e+001 -9.9060e+001  3.2909e+001 54436 80235,80036,80140
 2.9000e+000 80166 -4.6074e+001 -2.1554e+002 -3.4116e+000 54436 80036,80088,80062
 2.9000e+000 80261 -2.7979e+001 -1.8014e+002  6.8355e+001 54436 80114,80088,80235
 2.9000e+000 80284  4.0348e-001 -1.4503e+002  5.0826e+001 54436 80114,80235,80140
 2.9000e+000 80534 -1.2492e+001 -8.6875e+001  1.4941e+001 54032 80557,80361,80335
 2.9000e+000 80511 -7.0009e+000 -1.0517e+002  2.8358e+001 54032 80557,80335,80309
 2.9000e+000 80488 -3.3498e+000 -9.5760e+001  1.1408e+001 54032 80629,80413,80387
 2.9000e+000 80465 -2.9471e+001 -1.3992e+002  1.8273e+001 54032 80309,80439,80413
 2.9000e+000 80583 -6.7490e-001 -3.5230e+001  1.3375e+001 54032 80387,80361,80557
 2.9000e+000 80606 -3.0090e-001 -8.5755e+001  1.9816e+001 54032 80629,80387,80557
 2.9000e+000 80655 -1.1262e+001 -9.8017e+001  6.4280e+000 54032 80309,80413,80629
 2.9000e+000 80678 -1.5751e+001 -9.5590e+001  1.3600e+001 54032 80309,80629,80557
 2.9000e+000 81139 -9.5824e+000 -5.9346e+001  2.8008e+001 53784 80865,80995,80917
 2.9000e+000 81116 -8.2047e+000 -4.8847e+001  4.7635e+000 53784 80865,81021,80995
 2.9000e+000 81093 -3.2525e+001 -1.6247e+002  5.7238e+001 53784 80943,80995,80969
 2.9000e+000 81070 -3.8079e+001 -7.5256e+001  2.0548e+001 53784 80917,80995,80943
 2.9000e+000 81047 -1.8357e+000 -3.9225e+002 -3.2439e+000 53784 80865,80917,80891
 2.9000e+000 81468 -9.5585e+000 -9.4182e+001  3.2745e+001 53230 81295,81373,81347
 2.9000e+000 81445  4.4842e+000 -1.1240e+002  4.3405e+001 53230 81243,81373,81295
 2.9000e+000 81422 -5.7615e+001 -1.4905e+002  2.2988e+000 53230 81243,81295,81269
 2.9000e+000 81399  2.6498e+000 -6.8353e+001 -2.1762e+001 53230 81295,81347,81321
 2.9000e+000 81618 -4.8566e+000 -7.0021e+000 -2.6711e+000 52790 81491,81543,81517
 2.9000e+000 81595 -6.6574e-001 -6.2991e+001  3.8082e+000 52790 81491,81569,81543
 2.9000e+000 82126  6.7672e+001  3.0559e+001 -6.3975e+001 52386 82149,81907,81881
 2.9000e+000 82103  1.7893e+001 -5.5634e+001 -2.3493e+001 52386 82149,81881,81855
 2.9000e+000 82080 -2.0571e+000 -6.6893e+001 -3.6443e+000 52386 82221,81803,81985
 2.9000e+000 82057 -4.7005e+001 -9.7392e+001  1.4060e+000 52386 81803,81855,81829
 2.9000e+000 82034  3.1677e+001 -5.4287e+001 -6.0406e+001 52386 81907,81985,81933
 2.9000e+000 82011  4.0355e+001 -5.3154e+001 -6.0741e+001 52386 81933,81985,81959
 2.9000e+000 82175  7.0126e+000 -5.4270e+001 -1.9620e+001 52386 81985,81907,82149
 2.9000e+000 82198  3.0490e+001 -6.2216e+001 -8.7463e+000 52386 82221,81985,82149
 2.9000e+000 82247 -1.2835e+001 -6.5109e+001  1.5995e+001 52386 81855,81803,82221
 2.9000e+000 82270  3.9906e-001 -7.1810e+001  9.5854e+000 52386 81855,82221,82149
 2.9000e+000 82825 -5.9103e+001 -1.2507e+002  1.3703e+001 51782 82505,82661,82635
 2.9000e+000 82802 -1.1445e+002 -1.8433e+002 -1.6711e+001 51782 82479,82661,82505
 2.9000e+000 82779 -5.1311e+001 -2.0802e+002 -6.6397e+001 51782 82557,82635,82609
 2.9000e+000 82756 -4.7313e+001 -1.9626e+002 -4.5802e+000 51782 82531,82635,82557
 2.9000e+000 82733 -8.1156e+001 -1.5125e+002 -1.4887e+001 51782 82505,82635,82531
 2.9000e+000 82710 -1.7234e+001 -1.0055e+002  3.1970e+001 51782 82453,82661,82479
 2.9000e+000 82687 -2.1216e-001 -1.2206e+002 -3.5359e+001 51782 82557,82609,82583
 2.9000e+000 83171 -2.8437e+001 -1.3515e+002  1.8561e+001 51442 83194,82978,82900
 2.9000e+000 83148 -5.3915e+001 -1.1428e+002  1.4153e+001 51442 83194,82900,82874
 2.9000e+000 83125 -5.0136e+001 -1.4492e+002  1.3114e+001 51442 82900,82978,82926
 2.9000e+000 83102 -3.3136e+001 -9.9160e+001  7.5896e-001 51442 82874,83030,83004
 2.9000e+000 83079 -1.2688e+001 -1.3224e+002  1.2446e+001 51442 82926,82978,82952
 2.9000e+000 83056 -1.9306e+001 -9.9539e+001  1.1488e+000 51442 82848,83030,82874
 2.9000e+000 83220 -1.1568e+001 -1.2529e+002  1.4207e+001 51442 83004,82978,83194
 2.9000e+000 83243 -3.9317e+001 -1.0535e+002  9.7579e+000 51442 83004,83194,82874
 2.9000e+000 83751 -3.3927e+001 -6.2912e+001  1.4704e+000 50938 83428,83584,83454
 2.9000e+000 83728 -1.9867e+001 -5.8308e+001  1.1576e+001 50938 83428,83610,83584
 2.9000e+000 83705 -3.8102e+001 -8.3664e+001 -2.8386e+000 50938 83454,83584,83558
 2.9000e+000 83682 -3.1132e+001 -9.0801e+001  4.5550e+000 50938 83454,83532,83480
 2.9000e+000 83659 -4.0109e+001 -8.2300e+001  5.2885e+000 50938 83454,83558,83532
 2.9000e+000 83636 -6.0499e+001 -1.3822e+002 -1.5282e+001 50938 83480,83532,83506
 2.9000e+000 84355 -3.7463e+001 -2.0298e+002  1.9574e+001 50377 84378,83960,83934
 2.9000e+000 84332 -1.0252e+001 -1.3994e+002  1.7051e+001 50377 84522,84378,83934
 2.9000e+000 84309 -2.2047e+001 -1.3204e+002  7.3373e+000 50377 84450,84038,84012
 2.9000e+000 84286 -1.5931e+001 -1.1511e+002  1.3092e+001 50377 84522,83934,84142
 2.9000e+000 84263 -1.3246e+001 -1.1487e+002  3.1652e+000 50377 84594,84090,84038
 2.9000e+000 84240 -1.0334e+002 -1.7200e+002  1.0552e+000 50377 83960,84012,83986
 2.9000e+000 84217 -3.3854e+001 -1.1990e+002  9.1225e+000 50377 83934,84168,84142
 2.9000e+000 84194 -1.4272e+001 -7.6071e+001  3.0731e+001 50377 84038,84090,84064
 2.9000e+000 84404 -7.3287e+001 -1.7963e+002 -2.0888e+001 50377 84012,83960,84378
 2.9000e+000 84427 -1.5105e+001 -1.3067e+002  3.0009e+000 50377 84450,84012,84378
 2.9000e+000 84476 -2.2158e+001 -1.2600e+002 -6.9824e-001 50377 84594,84038,84450
 2.9000e+000 84499 -1.9755e+001 -1.7784e+002 -6.9143e+000 50377 84116,84450,84378
 2.9000e+000 84548 -1.9884e+000 -1.7741e+002  4.4594e+000 50377 84116,84378,84522
 2.9000e+000 84571 -2.1739e+000 -1.4537e+002 -7.2786e-001 50377 84116,84522,84142
 2.9000e+000 84620  7.0246e+000 -1.3392e+002  1.2603e+001 50377 84116,84090,84594
 2.9000e+000 84643  1.8455e-001 -1.4276e+002  9.5961e+000 50377 84116,84594,84450
 2.9000e+000 84842 -3.0858e+001 -1.4962e+002  8.9707e+000 49923 84865,84692,84666
 2.9000e+000 84819 -4.7983e+001 -1.4364e+002 -5.0934e+000 49923 84865,84666,84770
 2.9000e+000 84796 -7.0369e+000 -2.0582e+002 -1.6837e+001 49923 84692,84744,84718
 2.9000e+000 84891 -4.2148e+001 -1.5639e+002  2.7144e-001 49923 84744,84692,84865
 2.9000e+000 84914 -6.2849e+001 -1.5825e+002 -1.5463e+001 49923 84744,84865,84770
 2.9000e+000 85501 -2.9651e+001 -1.5429e+002  1.7214e+001 49618 85524,85282,85204
 2.9000e+000 85478 -2.8005e+001 -1.5581e+002  1.4674e+001 49618 85596,85524,85204
 2.9000e+000 85455 -2.4788e+001 -1.6784e+002  1.3471e+001 49618 85596,85204,85178
 2.9000e+000 85432 -5.7479e+001 -1.7964e+002  2.8113e+001 49618 85204,85282,85256
 2.9000e+000 85409 -6.6768e+001 -2.3936e+002  9.4994e-001 49618 85282,85334,85308
 2.9000e+000 85386 -5.6836e+001 -1.9996e+002 -9.9990e+000 49618 85204,85256,85230
 2.9000e+000 85550 -3.0263e+001 -1.5877e+002  1.4723e+001 49618 85334,85282,85524
 2.9000e+000 85573 -2.9712e+001 -1.5762e+002  1.8379e+001 49618 85334,85524,85360
 2.9000e+000 85622 -3.2667e+001 -1.7094e+002  1.9047e+001 49618 85360,85524,85596
 2.9000e+000 85645 -2.5275e+001 -1.7798e+002  1.6952e+001 49618 85360,85596,85178
 2.9000e+000 85795 -6.9709e+001 -2.2465e+002 -1.5439e+001 49278 85694,85746,85720
 2.9000e+000 85772 -9.3010e+001 -4.2970e+002 -1.4212e+001 49278 85668,85746,85694
 2.9000e+000 86197 -5.3108e+001 -2.9095e+002 -4.1038e+001 48916 86001,86079,86027
 2.9000e+000 86174 -4.1660e+000 -1.3867e+002 -2.0391e+001 48916 85949,86079,86001
 2.9000e+000 86151 -2.8275e+000 -2.9960e+002 -3.8335e+000 48916 85949,86001,85975
 2.9000e+000 86128 -6.7764e+001 -3.0535e+002 -2.9683e+001 48916 86027,86079,86053
 2.9000e+000 86105 -9.0688e+000 -9.1865e+001  2.2769e+001 48916 85923,86079,85949
 2.9000e+000 86477 -4.7060e+000 -9.7113e+001  6.0783e+000 48398 86327,86379,86353
 2.9000e+000 86454  1.5944e+001 -9.2390e+001  1.9527e+001 48398 86500,86379,86327
 2.9000e+000 86431 -1.3359e+001 -5.6303e+001  8.4196e+000 48398 86301,86405,86379
 2.9000e+000 86526 -1.1792e+001 -8.3458e+001  3.0649e+001 48398 86301,86379,86500
 2.9000e+000 87032 -2.3836e+001 -1.4016e+002 -2.7370e+001 48008 87127,87055,86787
 2.9000e+000 87009 -4.2150e+001 -2.1862e+002  1.2944e+001 48008 87055,86735,86709
 2.9000e+000 86986 -6.1614e+001 -1.1766e+002 -2.1184e+001 48008 87127,86787,86761
 2.9000e+000 86963 -3.8844e+001 -1.0962e+002 -1.7125e+001 48008 86787,86865,86839
 2.9000e+000 86940 -1.0513e+001 -8.9954e+001  1.9842e+001 48008 86709,86891,86865
 2.9000e+000 86917 -6.3188e+001 -1.0623e+002 -1.0635e+001 48008 86787,86839,86813
 2.9000e+000 87081 -3.9613e+001 -1.4587e+002 -1.3267e+001 48008 86865,86787,87055
 2.9000e+000 87104 -1.3559e+001 -1.0280e+002  2.8193e+001 48008 86865,87055,86709
 2.9000e+000 87153 -6.8777e+001 -1.8650e+002 -4.6006e+001 48008 86735,87055,87127
 2.9000e+000 87176 -1.1597e+002 -1.4221e+002 -4.0924e+001 48008 86735,87127,86761
 2.9000e+000 87456 -1.4645e+001 -1.1667e+002  1.8108e+001 47604 87306,87358,87332
 2.9000e+000 87433  4.3197e+001 -7.5307e+001 -3.5030e+000 47604 87306,87384,87358
 2.9000e+000 87410 -4.8945e+000 -9.5266e+001  5.1568e+000 47604 87280,87384,87306
 2.9000e+000 87785 -1.9019e-002 -1.0835e+002  1.9164e+001 47264 87638,87690,87664
 2.9000e+000 87762 -2.9158e+001 -1.8520e+002  3.8818e+001 47264 87612,87690,87638
 2.9000e+000 87739 -3.8272e+001 -2.1541e+002  4.0299e+001 47264 87560,87690,87612
 2.9000e+000 87716 -2.2821e+001 -2.3470e+002  1.9827e+001 47264 87560,87612,87586
 2.9000e+000 87935  3.6773e+000 -7.6220e+001  1.5564e+000 46952 87808,87860,87834
 2.9000e+000 87912 -1.3448e+001 -1.1753e+002  3.1002e+000 46952 87808,87886,87860
 2.9000e+000 88281 -1.7016e+001 -1.3485e+002  1.3061e+001 46526 88304,88114,88036
 2.9000e+000 88258 -1.7236e+001 -1.2668e+002  1.6305e+001 46526 88304,88036,87984
 2.9000e+000 88235 -1.4072e+001 -1.3147e+002  6.8060e+000 46526 88036,88114,88062
 2.9000e+000 88212 -1.6460e+001 -1.1574e+002  1.8513e+001 46526 87958,88140,87984
 2.9000e+000 88189 -1.8298e+001 -1.3084e+002  3.3180e+001 46526 87984,88036,88010
 2.9000e+000 88166 -8.3983e+000 -9.7556e+001  2.6020e+001 46526 88062,88114,88088
 2.9000e+000 88330 -2.0136e+001 -1.2645e+002  1.1685e+001 46526 88140,88114,88304
 2.9000e+000 88353 -2.0690e+001 -1.1837e+002  1.3751e+001 46526 88140,88304,87984
 2.9000e+000 88701  3.8328e+001 -8.6457e+001  3.3425e+001 45822 88724,88378,88534
 2.9000e+000 88678  4.1191e+001 -3.4621e+001  4.0118e+001 45822 88378,88560,88534
 2.9000e+000 88655 -1.0251e+001 -1.0265e+002  2.9074e+001 45822 88724,88534,88508
 2.9000e+000 88632 -5.2301e+001 -1.3261e+002  4.1375e+000 45822 88404,88508,88456
 2.9000e+000 88609 -3.8879e+001 -1.1119e+002 -1.0288e+001 45822 88404,88456,88430
 2.9000e+000 88586 -1.8285e+001 -6.2821e+001 -3.3678e+001 45822 88456,88508,88482
 2.9000e+000 88750 -2.8312e-001 -7.9635e+001  5.8096e+000 45822 88404,88378,88724
 2.9000e+000 88773 -3.8171e+001 -8.9508e+001  1.0602e+000 45822 88404,88724,88508
 2.9000e+000 89106 -6.8989e+001 -1.0993e+002  2.7901e+001 45418 88881,88985,88907
 2.9000e+000 89083 -7.3575e+001 -1.4237e+002  3.6746e+001 45418 88881,89011,88985
 2.9000e+000 89060 -9.9054e+000 -1.0201e+002  2.7397e+001 45418 88907,88985,88933
 2.9000e+000 89037 -5.5553e+001 -1.0350e+002  5.8936e+000 45418 88933,88985,88959
 2.9000e+000 89435 -2.8802e+001 -1.1190e+002  3.3411e+001 44914 89210,89288,89236
 2.9000e+000 89412 -6.8804e+001 -1.6469e+002  5.5623e+001 44914 89210,89314,89288
 2.9000e+000 89389 -1.4576e+001 -1.1175e+002  3.1591e+001 44914 89210,89340,89314
 2.9000e+000 89366 -4.1410e+001 -1.2212e+002  4.2222e+001 44914 89236,89288,89262
 2.9000e+000 89634 -2.1048e+001 -1.0681e+002  4.0869e+001 44538 89510,89562,89536
 2.9000e+000 89611 -3.6764e+001 -6.9653e+001  3.1787e+000 44538 89458,89562,89510
 2.9000e+000 89588 -4.7204e+001 -1.2133e+002  9.3922e+000 44538 89458,89510,89484
 2.9000e+000 90044 -1.4407e+001 -7.3556e+001  8.7135e+000 44134 89819,89923,89845
 2.9000e+000 90021 -4.9489e+001 -7.1566e+001 -4.9221e+001 44134 89819,89949,89923
 2.9000e+000 89998 -9.1372e+000 -3.7743e+001  7.7426e+000 44134 89845,89923,89897
 2.9000e+000 89975 -4.0433e+001 -1.2629e+002  1.2673e+001 44134 89845,89897,89871
 2.9000e+000 90520 -1.8117e+001 -1.2910e+002  1.4730e+001 43457 90543,90252,90226
 2.9000e+000 90497 -8.0831e+000 -1.7082e+002 -1.2114e+001 43457 90543,90226,90330
 2.9000e+000 90474 -3.9553e+001 -1.8335e+002 -2.8912e+001 43457 90200,90330,90226
 2.9000e+000 90451 -6.2885e+001 -1.3361e+002  5.7800e+001 43457 90200,90356,90330
 2.9000e+000 90428 -6.6296e+000 -1.1068e+002 -1.3342e+001 43457 90252,90304,90278
 2.9000e+000 90405 -7.8268e+001 -1.2525e+002  5.2208e+001 43457 90174,90356,90200
 2.9000e+000 90382 -4.7789e+001 -4.5389e+001  7.8155e+001 43457 90148,90356,90174
 2.9000e+000 90569 -1.6578e+001 -1.7178e+002  1.8482e+000 43457 90304,90252,90543
 2.9000e+000 90592 -2.6811e+001 -2.3681e+002 -2.8353e+001 43457 90304,90543,90330
 2.9000e+000 91098 -7.1190e+000 -9.6058e+001 -1.2697e+001 42789 90801,90905,90853
 2.9000e+000 91075 -3.6090e+001 -1.2300e+002 -2.2345e-001 42789 90775,90905,90801
 2.9000e+000 91052 -3.0146e+001 -1.3398e+002  1.8704e+001 42789 90775,90931,90905
 2.9000e+000 91029 -2.5695e+001 -1.6825e+002  7.6791e-001 42789 90801,90853,90827
 2.9000e+000 91006  2.1902e+001 -8.8044e+001  1.2346e+001 42789 90853,90905,90879
 2.9000e+000 90983 -2.7290e+001 -1.1215e+002  1.6761e+001 42789 90775,90957,90931
 2.9000e+000 91427 -5.5801e+001 -1.6356e+002 -4.9233e+000 42227 91228,91280,91254
 2.9000e+000 91404  7.6987e+000 -1.5889e+002 -6.1159e+000 42227 91228,91306,91280
 2.9000e+000 91381 -5.5126e+001 -1.7826e+002  1.8013e+001 42227 91202,91306,91228
 2.9000e+000 91358  3.6989e+000 -1.2204e+002 -1.7107e+001 42227 91202,91332,91306
 2.9000e+000 91675 -2.2283e+001 -1.0527e+002  1.4176e+001 41773 91698,91476,91450
 2.9000e+000 91652 -1.0780e+001 -1.0220e+002  4.7149e+001 41773 91698,91450,91554
 2.9000e+000 91629 -3.6335e+001 -7.7738e+001  4.9790e+001 41773 91450,91580,91554
 2.9000e+000 91606 -1.4238e+001 -1.4727e+002  2.7002e+001 41773 91502,91554,91528
 2.9000e+000 91724 -4.8226e+001 -1.1370e+002  8.7792e+000 41773 91502,91476,91698
 2.9000e+000 91747 -4.2649e+001 -1.1298e+002  4.2187e+001 41773 91502,91698,91554
 2.9000e+000 92127 -1.0843e+002 -2.1300e+002  7.7914e+000 41255 92150,91905,91879
 2.9000e+000 92104 -6.0245e+001 -1.9763e+002 -1.1772e+001 41255 92150,91879,91957
 2.9000e+000 92081 -3.9093e+001 -2.7193e+002  4.9236e+001 41255 91853,91957,91879
 2.9000e+000 92058 -6.2986e+001 -3.2697e+002  4.3329e+001 41255 91853,91983,91957
 2.9000e+000 92035 -8.9198e+000 -2.6990e+002  1.9689e+001 41255 91853,92009,91983
 2.9000e+000 92176 -6.2787e+001 -2.3587e+002 -2.0351e+001 41255 91931,91905,92150
 2.9000e+000 92199  1.3204e+001 -1.8378e+002 -5.0770e+001 41255 91931,92150,91957
 2.9000e+000 92518 -7.9237e+001 -2.8533e+002 -2.5578e+001 41007 92244,92374,92270
 2.9000e+000 92495 -1.6225e+002 -3.1962e+002 -1.2040e+001 41007 92244,92400,92374
 2.9000e+000 92472 -4.8849e+001 -2.4177e+002 -3.9627e+000 41007 92270,92374,92348
 2.9000e+000 92449 -7.3250e+001 -1.4507e+002  1.5412e+001 41007 92296,92348,92322
 2.9000e+000 92426 -6.1348e+001 -1.7801e+002 -5.9417e+000 41007 92270,92348,92296
 2.9000e+000 92668 -5.6412e+001 -1.5176e+002 -2.5299e+001 40717 92823,92691,92567
 2.9000e+000 92645 -6.8971e+001 -1.3995e+002 -2.7483e+001 40717 92895,92823,92567
 2.9000e+000 92717 -1.0709e+001 -1.3156e+002 -2.0120e+001 40717 92593,92567,92691
 2.9000e+000 92849 -3.2374e+001 -1.4076e+002 -3.4426e+001 40717 92619,92691,92823
 2.9000e+000 92872 -5.6659e+001 -1.3257e+002 -1.6121e+001 40717 92619,92823,92541
 2.9000e+000 92921 -7.0176e+001 -1.5497e+002 -1.0072e+001 40717 92541,92823,92895
 2.9000e+000 93634 -8.7790e+001 -4.1365e+002 -1.8169e+001 40206 93366,93444,93418
 2.9000e+000 93611 -3.0731e+001 -1.5597e+002 -2.2272e+001 40206 93288,93444,93366
 2.9000e+000 93588 -1.2613e+002 -2.9388e+002  1.9491e+001 40206 93288,93366,93314
 2.9000e+000 93565 -8.1390e+001 -1.6100e+002  6.4631e-001 40206 93262,93444,93288
 2.9000e+000 93542 -2.9874e+001 -3.2785e+002  2.6516e+001 40206 93366,93418,93392
 2.9000e+000 93519 -8.0867e+001 -2.0267e+002  7.4122e+000 40206 93262,93470,93444
 2.9000e+000 93496 -4.6009e+001 -2.6026e+002  3.9792e+001 40206 93314,93366,93340
 2.9000e+000 94189 -3.0550e+001 -9.4817e+001  2.5318e+001 39802 93843,93999,93973
 2.9000e+000 94166  4.0796e+001 -4.9998e+001 -8.5580e+000 39802 93817,93999,93843
 2.9000e+000 94143 -1.4079e+001 -6.5726e+001  1.3510e+000 39802 93869,93973,93947
 2.9000e+000 94120 -7.0750e+000 -7.1382e+001  1.5673e+001 39802 93843,93973,93869
 2.9000e+000 94097 -9.8850e+000 -7.6388e+001  2.6673e+000 39802 93869,93921,93895
 2.9000e+000 94074 -4.1919e+000 -6.4407e+001 -1.7205e+000 39802 93869,93947,93921
 2.9000e+000 94051 -4.6258e+001 -8.5872e+001  2.5282e+001 39802 93817,94025,93999
 2.9000e+000 94290 -7.4982e+000 -7.8845e+001 -1.6143e+001 39398 94212,94264,94238
 2.9000e+000 94798 -2.1223e+001 -1.3230e+002 -8.3701e+000 38701 94501,94657,94631
 2.9000e+000 94775 -4.0770e+001 -1.1011e+002  7.3800e+000 38701 94475,94657,94501
 2.9000e+000 94752  2.8904e+001 -1.2945e+002 -2.7036e+001 38701 94579,94631,94605
 2.9000e+000 94729 -2.7295e+001 -2.3672e+002 -4.7971e+001 38701 94553,94631,94579
 2.9000e+000 94706 -5.8838e+001 -2.2951e+002  1.5103e+001 38701 94501,94631,94553
 2.9000e+000 94683 -3.2783e+001 -4.0873e+002  5.0210e+000 38701 94501,94553,94527
 2.9000e+000 95255 -7.0745e+001 -1.9350e+002 -1.2451e+001 38247 95278,95085,95007
 2.9000e+000 95232 -4.4465e+001 -1.8422e+002 -1.3284e+001 38247 95278,95007,95137
 2.9000e+000 95209 -2.3250e+001 -1.4564e+002 -4.9966e+000 38247 94981,95137,95007
 2.9000e+000 95186 -5.0516e+001 -1.3775e+002 -2.2250e+001 38247 95007,95059,95033
 2.9000e+000 95163 -5.2550e+001 -1.4777e+002 -3.2186e+001 38247 95007,95085,95059
 2.9000e+000 95304 -7.9115e+001 -1.9198e+002  9.5734e+000 38247 95111,95085,95278
 2.9000e+000 95327 -5.5806e+001 -1.8137e+002  5.9755e+000 38247 95111,95278,95137
 2.9000e+000 95575 -2.3353e+001 -2.5273e+001 -4.3118e+000 37564 95376,95428,95402
 2.9000e+000 95552 -1.0133e+001 -6.0283e+001 -7.5104e+000 37564 95376,95454,95428
 2.9000e+000 95529  1.4337e+001 -4.4514e+001  2.2341e+000 37564 95376,95480,95454
 2.9000e+000 95506  5.5905e+001 -9.3173e+001 -5.5034e+000 37564 95350,95480,95376
 2.9000e+000 96034 -5.8208e+001 -2.5264e+002 -1.3417e+001 37224 95786,95838,95812
 2.9000e+000 96011 -3.0931e+001 -1.9391e+002 -6.4399e+000 37224 95786,95890,95838
 2.9000e+000 95988 -5.3655e+001 -1.7155e+002 -1.5061e+000 37224 95786,95916,95890
 2.9000e+000 95965 -2.9046e+000 -1.2836e+002 -3.6855e+001 37224 95760,95916,95786
 2.9000e+000 95942  3.3915e+001 -2.0037e+002 -3.9879e+001 37224 95838,95890,95864
 2.9000e+000 96363 -3.0047e+000 -2.7323e+001 -1.2144e+001 36884 96216,96268,96242
 2.9000e+000 96340  1.5654e+001 -3.4270e+001 -1.4514e+001 36884 96164,96268,96216
 2.9000e+000 96317  4.7045e+001 -2.6446e+001 -1.1875e+001 36884 96138,96268,96164
 2.9000e+000 96294  7.9157e+000 -4.7271e+001 -6.7940e+000 36884 96164,96216,96190
 2.9000e+000 96839 -5.1177e+001 -2.1679e+002  3.1008e+001 36572 96862,96649,96597
 2.9000e+000 96816 -2.2388e+001 -1.8751e+002  1.8672e+001 36572 97006,96862,96597
 2.9000e+000 96793 -2.0827e+001 -1.1851e+002 -1.7032e+001 36572 96934,96467,96675
 2.9000e+000 96770 -2.2938e+001 -1.8405e+002  1.4924e+001 36572 97006,96597,96571
 2.9000e+000 96747 -4.9837e+001 -2.0380e+002  1.8161e+001 36572 96467,96519,96493
 2.9000e+000 96724 -9.9201e+000 -1.6503e+002  7.9998e+000 36572 96519,96571,96545
 2.9000e+000 96701 -7.0903e+001 -1.7288e+002 -1.3976e+001 36572 96597,96649,96623
 2.9000e+000 96888 -2.3298e+001 -2.2252e+002 -1.4952e+001 36572 96675,96649,96862
 2.9000e+000 96911 -4.2620e+000 -1.7463e+002 -2.0873e+001 36572 96934,96675,96862
 2.9000e+000 96960 -4.1876e+001 -1.7014e+002 -5.0377e+000 36572 96519,96467,96934
 2.9000e+000 96983 -1.7803e+001 -2.1285e+002 -1.2972e+000 36572 97078,96934,96862
 2.9000e+000 97032 -2.7715e+001 -2.0475e+002  1.5922e+001 36572 97078,96862,97006
 2.9000e+000 97055 -2.4118e+001 -1.8539e+002  1.4201e+001 36572 96519,97006,96571
 2.9000e+000 97104 -6.9975e+000 -1.8834e+002 -3.6580e+000 36572 96519,96934,97078
 2.9000e+000 97127 -1.4442e+001 -1.7952e+002  1.0960e+001 36572 96519,97078,97006
 2.9000e+000 97761 -6.4007e+001 -1.8985e+002 -2.0528e+001 36118 97784,97493,97415
 2.9000e+000 97738 -4.9194e+001 -2.0537e+002 -4.8045e+000 36118 97784,97415,97597
 2.9000e+000 97715 -3.1331e+001 -2.1593e+002 -3.1320e+001 36118 97389,97597,97415
 2.9000e+000 97692 -2.4990e+001 -2.4797e+002  5.2446e+001 36118 97415,97467,97441
 2.9000e+000 97669 -8.2737e+001 -2.1630e+002 -1.1794e+001 36118 97415,97493,97467
 2.9000e+000 97646 -7.8873e+001 -1.4136e+002 -1.4861e-001 36118 97493,97571,97519
 2.9000e+000 97623 -6.3408e+001 -1.6391e+002  3.1288e+001 36118 97519,97571,97545
 2.9000e+000 97810 -5.5213e+001 -1.7364e+002 -1.7160e+001 36118 97571,97493,97784
 2.9000e+000 97833 -3.4340e+001 -1.8193e+002  1.9929e+000 36118 97571,97784,97597
 2.9000e+000 98081 -5.9024e+001 -1.8340e+002  1.8072e+000 35564 98104,97908,97856
 2.9000e+000 98058 -6.0101e+001 -1.8132e+002  2.8215e+000 35564 98104,97856,97986
 2.9000e+000 98035 -1.1038e+001 -1.9001e+002  2.7752e+001 35564 97934,97986,97960
 2.9000e+000 98012 -6.5616e+001 -2.0585e+002  1.8375e+001 35564 97856,97908,97882
 2.9000e+000 98130 -6.2242e+001 -1.8980e+002  2.3764e-001 35564 97934,97908,98104
 2.9000e+000 98153 -5.9740e+001 -1.8326e+002  2.0762e+000 35564 97934,98104,97986
 2.9000e+000 98374 -1.1086e+002 -1.9039e+002  7.6642e-001 35152 98224,98302,98276
 2.9000e+000 98351 -1.4075e+002 -2.7011e+002  1.4109e+001 35152 98198,98302,98224
 2.9000e+000 98328 -1.2156e+002 -1.8981e+002  1.5287e+000 35152 98224,98276,98250
 2.9000e+000 98884 -7.2800e+000 -1.1434e+002 -2.5424e+001 34698 98691,98743,98717
 2.9000e+000 98861 -1.9776e+001 -1.3509e+002 -3.9377e+001 34698 98561,98743,98691
 2.9000e+000 98838 -3.8747e+001 -1.2244e+002 -4.3452e+001 34698 98907,98587,98561
 2.9000e+000 98815 -5.3165e+001 -1.4394e+002 -2.9527e+001 34698 98907,98561,98691
 2.9000e+000 98792 -7.0409e+001 -1.4383e+002 -2.4012e+001 34698 98587,98639,98613
 2.9000e+000 98769 -5.3649e+001 -1.0793e+002 -2.8412e+001 34698 98587,98665,98639
 2.9000e+000 98933 -4.5820e+001 -1.3483e+002 -2.1509e+001 34698 98665,98587,98907
 2.9000e+000 98956 -6.8042e+001 -1.6920e+002 -6.3139e+000 34698 98665,98907,98691
 2.9000e+000 99204 -2.3386e-001 -1.6749e+002 -1.4285e+001 34144 99227,99031,99005
 2.9000e+000 99181 -1.3632e+001 -1.6004e+002 -2.6251e+001 34144 99299,99227,99005
 2.9000e+000 99158 -1.3618e+001 -1.5799e+002 -2.3062e+001 34144 99299,99005,99109
 2.9000e+000 99135 -1.6051e+001 -1.1985e+002 -1.1180e+001 34144 98979,99109,99005
 2.9000e+000 99253 -8.8711e+000 -1.9214e+002 -1.5483e+001 34144 99057,99031,99227
 2.9000e+000 99276 -1.4778e+001 -1.6761e+002 -2.7543e+001 34144 99057,99227,99083
 2.9000e+000 99325 -1.2169e+001 -1.5457e+002 -2.4229e+001 34144 99083,99227,99299
 2.9000e+000 99348 -1.0052e+001 -1.5167e+002 -2.0470e+001 34144 99083,99299,99109
 2.9000e+000 99498 -3.9771e+000 -7.2205e+001  1.8825e+001 33433 99397,99449,99423
 2.9000e+000 99475 -2.5044e+001 -3.7883e+001 -6.2573e-001 33433 99371,99449,99397
 2.9000e+000 100008 -2.8774e+001 -1.0431e+002 -1.6936e+001 32979 100103,100031,99815
 2.9000e+000 99985 -3.8316e+001 -1.3040e+002 -2.4396e+001 32979 100175,100031,99763
 2.9000e+000 99962 -9.6826e+000 -1.2580e+002 -3.7626e+001 32979 100103,99815,99789
 2.9000e+000 99939 -4.2296e+001 -1.5492e+002 -2.6893e+001 32979 100175,99763,99737
 2.9000e+000 99916 -4.7022e+001 -1.4251e+002 -2.0025e+001 32979 99685,99867,99737
 2.9000e+000 99893 -6.7263e+001 -2.3350e+002 -3.0807e+001 32979 99685,99737,99711
 2.9000e+000 100057 -2.6717e+001 -1.0772e+002 -5.7749e+000 32979 99841,99815,100031
 2.9000e+000 100080 -2.0163e+001 -7.0702e+001 -2.5757e+001 32979 99841,100031,99867
 2.9000e+000 100129 -3.1150e+001 -1.4870e+002 -1.3985e+001 32979 99763,100031,100103
 2.9000e+000 100152 -2.3187e+001 -1.8376e+002 -3.7082e+001 32979 99763,100103,99789
 2.9000e+000 100201 -3.9646e+001 -1.1800e+002 -1.1883e+001 32979 99867,100031,100175
 2.9000e+000 100224 -4.1858e+001 -1.3197e+002 -1.8354e+001 32979 99867,100175,99737
 2.9000e+000 100553 -1.7064e+001 -1.2603e+002 -1.6034e+001 32503 100354,100406,100380
 2.9000e+000 100530 -9.8604e+000 -1.4979e+002  5.8567e+000 32503 100328,100406,100354
 2.9000e+000 100507 -4.7870e+001 -2.0597e+002  3.3308e+001 32503 100328,100458,100406
 2.9000e+000 100484 -1.3906e+001 -2.5724e+002  5.0377e+001 32503 100406,100458,100432
 2.9000e+000 100850 -6.8680e+001 -2.3349e+002 -1.7531e+001 31899 100873,100654,100628
 2.9000e+000 100827 -5.6594e+001 -2.2580e+002 -1.4103e+001 31899 100945,100873,100628
 2.9000e+000 100804 -4.8106e+001 -2.0515e+002 -1.0239e+001 31899 100945,100628,100602
 2.9000e+000 100781 -5.5052e+001 -1.5482e+002 -1.2633e+001 31899 100576,100732,100602
 2.9000e+000 100758 -1.0956e+002 -1.9035e+002 -1.0426e+002 31899 100654,100706,100680
 2.9000e+000 100899 -4.8925e+001 -2.2015e+002 -2.4747e+001 31899 100706,100654,100873
 2.9000e+000 100922 -9.8382e+001 -2.2652e+002 -3.9321e+001 31899 100706,100873,100732
 2.9000e+000 100971 -8.3040e+001 -1.9267e+002 -2.6662e+001 31899 100732,100873,100945
 2.9000e+000 100994 -7.2211e+001 -1.6912e+002 -2.1472e+001 31899 100732,100945,100602
 2.9000e+000 101551 -3.9330e+001 -1.5792e+002 -1.7080e+001 31338 101205,101387,101231
 2.9000e+000 101528 -3.6645e-001 -1.4098e+002  5.8608e+000 31338 101179,101387,101205
 2.9000e+000 101505 -4.8716e+001 -1.4113e+002  2.2997e+001 31338 101574,101309,101257
 2.9000e+000 101482 -5.3190e+001 -1.7547e+002  1.1132e+001 31338 101646,101574,101257
 2.9000e+000 101459 -5.5277e+001 -1.5049e+002 -4.2331e-002 31338 101646,101257,101231
 2.9000e+000 101436 -6.1319e+001 -1.9758e+002  1.4376e+001 31338 101309,101361,101335
 2.9000e+000 101413 -1.1676e+001 -1.2600e+002  2.1669e+001 31338 101257,101309,101283
 2.9000e+000 101600 -4.8162e+001 -1.7500e+002  1.9807e+001 31338 101361,101309,101574
 2.9000e+000 101623 -4.9212e+001 -2.0855e+002 -1.1159e+001 31338 101361,101574,101387
 2.9000e+000 101672 -3.0611e+001 -1.5634e+002 -3.6726e+000 31338 101387,101574,101646
 2.9000e+000 101695 -4.2714e+001 -1.4657e+002 -1.3989e+001 31338 101387,101646,101231
 2.9000e+000 101943 -1.1584e+001 -1.7320e+002 -8.6092e+000 30748 101966,101796,101744
 2.9000e+000 101920  3.3762e+000 -1.7187e+002 -6.1136e+000 30748 101966,101744,101718
 2.9000e+000 101897 -2.7512e+001 -1.7868e+002  1.8258e+001 30748 101718,101848,101822
 2.9000e+000 101874 -4.7228e+001 -1.7195e+002 -2.2859e+001 30748 101744,101796,101770
 2.9000e+000 101992 -1.9265e+001 -1.6820e+002 -5.6713e+000 30748 101822,101796,101966
 2.9000e+000 102015 -9.2452e+000 -1.7078e+002 -3.3970e+000 30748 101822,101966,101718
 2.9000e+000 102493 -9.0146e+001 -1.9729e+002 -7.4422e+000 30344 102516,102173,102147
 2.9000e+000 102470 -7.3515e+001 -1.7566e+002 -1.7563e+001 30344 102660,102516,102147
 2.9000e+000 102447 -5.7737e+001 -1.8559e+002 -1.8547e+001 30344 102588,102199,102173
 2.9000e+000 102424 -4.5025e+001 -1.7566e+002 -2.0971e+001 30344 102660,102147,102329
 2.9000e+000 102401 -3.9429e+001 -1.8645e+002 -4.7227e+001 30344 102199,102277,102251
 2.9000e+000 102378 -1.8465e+001 -1.3782e+002 -7.8304e+001 30344 102199,102251,102225
 2.9000e+000 102355 -1.5581e+000 -1.5065e+002  1.0542e+001 30344 102121,102329,102147
 2.9000e+000 102542 -6.2518e+001 -1.8505e+002 -1.8387e+001 30344 102588,102173,102516
 2.9000e+000 102565 -9.5694e+001 -1.9804e+002 -6.1104e+000 30344 102277,102516,102303
 2.9000e+000 102614 -6.3356e+001 -1.8491e+002 -1.9189e+001 30344 102277,102199,102588
 2.9000e+000 102637 -6.8624e+001 -1.8519e+002 -2.0061e+001 30344 102277,102588,102516
 2.9000e+000 102686 -4.1401e+001 -1.7710e+002 -4.1098e+000 30344 102303,102516,102660
 2.9000e+000 102709 -2.4151e+001 -1.8522e+002 -5.7648e+000 30344 102303,102660,102329
 2.9000e+000 103294 -2.3778e+001 -1.7963e+002  4.2562e+000 29726 103317,103101,103075
 2.9000e+000 103271 -4.3489e-001 -1.3959e+002  1.4256e+001 29726 103317,103075,102997
 2.9000e+000 103248  3.7376e+001 -1.2222e+002 -3.9925e+001 29726 102971,103153,102997
 2.9000e+000 103225 -5.9388e+001 -2.0181e+002 -1.4947e+001 29726 103101,103153,103127
 2.9000e+000 103202 -1.2215e+001 -2.1536e+002  8.7512e+000 29726 102997,103075,103023
 2.9000e+000 103179 -2.5258e+001 -1.6759e+002 -3.7748e+001 29726 103023,103075,103049
 2.9000e+000 103343 -3.6502e+001 -1.4195e+002 -6.5994e-001 29726 103153,103101,103317
 2.9000e+000 103366 -2.7769e+001 -1.2277e+002  3.5479e+000 29726 103153,103317,102997
 2.9000e+000 103614  2.7969e+001 -9.9480e+001 -2.0745e+001 29200 103781,103637,103467
 2.9000e+000 103591 -3.9743e+001 -1.3428e+002  2.2449e+001 29200 103709,103637,103415
 2.9000e+000 103568 -5.7483e+001 -1.3091e+002  9.0175e+000 29200 103709,103415,103389
 2.9000e+000 103545  1.6088e+001 -6.2563e+001 -5.1160e+001 29200 103781,103467,103441
 2.9000e+000 103663  3.9766e+001 -1.2312e+002  5.1739e+000 29200 103853,103637,103493
 2.9000e+000 103686  2.8503e+001 -5.8048e+001  7.3159e+000 29200 103493,103637,103519
 2.9000e+000 103735 -8.8989e+000 -1.3484e+002  2.4069e+001 29200 103519,103637,103709
 2.9000e+000 103758 -2.9221e+001 -1.3115e+002  1.3074e+001 29200 103519,103709,103389
 2.9000e+000 103807  1.2502e+001 -1.6869e+002 -8.4557e+000 29200 103415,103637,103781
 2.9000e+000 103830  5.4330e+000 -1.4413e+002 -5.0684e+001 29200 103415,103781,103441
 2.9000e+000 103879  3.6433e+000 -1.2543e+002 -1.0344e+001 29200 103467,103637,103853
 2.9000e+000 104545 -1.8136e+001 -1.2201e+002 -1.9550e+001 28860 104274,104352,104326
 2.9000e+000 104522 -5.5341e+001 -1.2444e+002 -1.5963e+001 28860 104248,104352,104274
 2.9000e+000 104499 -3.8406e+001 -1.1775e+002 -1.6122e+001 28860 104248,104404,104352
 2.9000e+000 104476 -9.6064e+001 -1.1090e+002 -2.0199e+001 28860 104222,104404,104248
 2.9000e+000 104453 -1.7942e+001 -8.6817e+001 -2.5398e+001 28860 104352,104404,104378
 2.9000e+000 104430 -4.1942e+001 -1.3252e+002 -1.6879e+001 28860 104274,104326,104300
 2.9000e+000 104744  1.3655e+000 -1.6839e+002 -4.0931e+001 28456 104839,104767,104646
 2.9000e+000 104721 -7.8612e+001 -2.2927e+002 -2.2543e+001 28456 104767,104594,104568
 2.9000e+000 104698 -8.0043e+000 -1.3900e+002 -1.9759e+001 28456 104839,104646,104620
 2.9000e+000 104793 -2.0253e+001 -1.9397e+002 -2.2429e+001 28456 104672,104646,104767
 2.9000e+000 104816 -9.3375e+001 -2.5074e+002  1.9821e+001 28456 104911,104767,104568
 2.9000e+000 104865 -3.7468e+001 -1.9836e+002 -8.0832e+000 28456 104594,104767,104839
 2.9000e+000 104888  1.5724e+001 -1.8727e+001 -1.9783e+001 28456 105041,104839,104620
 2.9000e+000 104937 -5.6912e+000 -1.2532e+002 -2.3527e+001 28456 104672,104767,104911
 2.9000e+000 105067 -3.2041e+001 -1.8743e+002 -3.2422e+001 28456 104594,104839,105041
 2.9000e+000 105573 -4.2698e+001 -1.8652e+002 -1.5129e+001 28094 105812,105596,105328
 2.9000e+000 105550 -4.6020e+001 -1.6238e+002  5.0046e+000 28094 105596,105276,105250
 2.9000e+000 105527 -1.8574e+001 -2.1321e+002 -1.1805e+001 28094 105740,105668,105432
 2.9000e+000 105504 -3.3689e+001 -2.3613e+002 -4.0715e+000 28094 105740,105432,105380
 2.9000e+000 105481 -2.8783e+001 -1.9612e+002 -7.4159e+000 28094 105812,105328,105302
 2.9000e+000 105458 -5.7915e+001 -2.2302e+002 -3.9048e+000 28094 105380,105432,105406
 2.9000e+000 105622 -1.2706e+001 -1.2797e+002 -2.7713e+001 28094 105354,105328,105596
 2.9000e+000 105645 -1.0995e+001 -1.3281e+002  1.8393e+001 28094 105668,105354,105596
 2.9000e+000 105694 -2.8365e+000 -1.5838e+002 -1.8173e+001 28094 105250,105432,105668
 2.9000e+000 105717 -4.5997e+001 -1.9522e+002  3.7415e+000 28094 105250,105668,105596
 2.9000e+000 105766 -4.0013e+001 -1.9641e+002  3.5556e+001 28094 105354,105668,105740
 2.9000e+000 105789 -6.1036e+001 -2.3684e+002  4.4660e+001 28094 105354,105740,105380
 2.9000e+000 105838 -3.0052e+001 -1.6838e+002 -9.4530e+000 28094 105276,105596,105812
 2.9000e+000 105861  6.6100e+000 -1.6883e+002  1.0896e+001 28094 105276,105812,105302
 2.9000e+000 106367 -6.1017e+001 -2.2957e+002 -2.1351e+001 27390 106070,106122,106096
 2.9000e+000 106344 -4.4244e+001 -2.4587e+002 -2.5423e+001 27390 106070,106226,106122
 2.9000e+000 106321 -1.7679e+001 -2.4642e+002 -1.1211e+001 27390 106174,106226,106200
 2.9000e+000 106298 -2.7228e+001 -2.3035e+002 -1.0607e+001 27390 106122,106226,106174
 2.9000e+000 106275 -4.4234e+001 -2.3299e+002  2.1689e+001 27390 106122,106174,106148
 2.9000e+000 106252 -6.5913e+001 -2.6164e+002 -4.5380e+001 27390 106044,106226,106070
 2.9000e+000 106615 -3.8638e+001 -2.0088e+002 -6.6082e+000 26978 106638,106494,106416
 2.9000e+000 106592 -4.2853e+001 -2.0550e+002 -8.3975e+000 26978 106638,106416,106390
 2.9000e+000 106569 -3.5622e+001 -1.9501e+002  5.1037e+000 26978 106416,106494,106442
 2.9000e+000 106546 -8.5543e+000 -2.0750e+002 -8.3138e+000 26978 106442,106494,106468
 2.9000e+000 106664 -2.6591e+001 -2.0586e+002 -4.7399e+000 26978 106520,106494,106638
 2.9000e+000 106687 -3.5758e+001 -2.1365e+002 -8.3174e+000 26978 106520,106638,106390
 2.9000e+000 106837  1.2116e+000 -4.7355e+002 -1.6955e-001 26524 106710,106762,106736
 2.9000e+000 106814  4.2003e-001 -4.6907e+002  2.2147e-001 26524 106710,106788,106762
 2.9000e+000 107426 -7.6295e+001 -1.7170e+002  2.2472e+001 26120 107129,107207,107155
 2.9000e+000 107403 -6.1375e+001 -1.5308e+002  1.5956e+001 26120 107129,107285,107207
 2.9000e+000 107380 -8.0823e+001 -1.7555e+002 -4.2121e-001 26120 107207,107285,107259
 2.9000e+000 107357  3.4626e-001 -1.3151e+002  5.3638e+000 26120 107155,107207,107181
 2.9000e+000 107334 -5.5690e+001 -1.4878e+002  1.9901e+001 26120 107103,107285,107129
 2.9000e+000 107311 -7.5838e+001 -1.6670e+002  2.8430e+000 26120 107207,107259,107233
 2.9000e+000 107755 -4.1000e+001 -1.4227e+002  2.0739e+000 25758 107556,107634,107608
 2.9000e+000 107732 -8.2686e+000 -1.0303e+002 -1.2436e+001 25758 107556,107660,107634
 2.9000e+000 107709 -6.8489e+001 -1.3106e+002 -2.4975e+001 25758 107556,107608,107582
 2.9000e+000 107686 -1.1902e+001 -2.1890e+001  1.0732e+001 25758 107530,107660,107556
 2.9000e+000 108438 -6.8601e+001 -2.3554e+002 -5.6924e+000 25468 108121,108199,108173
 2.9000e+000 108415 -1.2408e+001 -1.0434e+002 -9.8899e+000 25468 108095,108199,108121
 2.9000e+000 108392 -1.3060e+001 -1.1797e+002 -1.0713e+001 25468 108095,108251,108199
 2.9000e+000 108369 -4.1689e+001 -1.4596e+002  5.8443e+000 25468 108069,108251,108095
 2.9000e+000 108346 -4.1086e+001 -1.2663e+002 -2.6344e+001 25468 108199,108251,108225
 2.9000e+000 108323 -1.5234e+001 -1.7400e+002  2.5749e+001 25468 108017,108251,108069
 2.9000e+000 108300 -7.0706e+001 -1.4189e+002 -2.0033e+001 25468 108121,108173,108147
 2.9000e+000 108277 -2.2130e+000 -1.6044e+002  1.7909e+001 25468 108017,108069,108043
 2.9000e+000 108588 -4.7357e+001 -1.9681e+002 -5.1737e+001 25064 108611,108513,108487
 2.9000e+000 108565 -1.0867e+002 -1.7800e+002 -2.9955e+001 25064 108683,108611,108487
 2.9000e+000 108637 -2.2424e+001 -1.6560e+002 -6.3436e+001 25064 108539,108513,108611
 2.9000e+000 108660 -3.8565e+001 -1.4003e+002 -4.1312e+001 25064 108539,108611,108461
 2.9000e+000 108709 -3.6790e+001 -1.2897e+002 -5.1290e+001 25064 108461,108611,108683
 2.9000e+000 109345 -1.3682e+002 -2.3630e+002  6.2891e+001 24410 108999,109155,109103
 2.9000e+000 109322 -8.8795e+001 -2.4203e+002  1.9872e+001 24410 108973,109155,108999
 2.9000e+000 109299 -4.3354e+001 -3.4623e+002  8.9493e+001 24410 109103,109155,109129
 2.9000e+000 109276 -1.1976e+002 -2.2266e+002  1.3448e+001 24410 108973,109181,109155
 2.9000e+000 109253 -8.5545e+001 -1.9038e+002  3.9149e+001 24410 109025,109103,109077
 2.9000e+000 109230 -1.4323e+002 -2.0359e+002  5.4101e+001 24410 108999,109103,109025
 2.9000e+000 109207 -7.0543e+001 -1.7583e+002  3.3141e+001 24410 109025,109077,109051
 2.9000e+000 109723 -5.9511e+001 -1.9550e+002  2.1289e+000 23856 109475,109579,109553
 2.9000e+000 109700 -7.3954e+001 -1.9845e+002  1.0258e+001 23856 109475,109605,109579
 2.9000e+000 109677 -7.7033e+001 -2.4735e+002  2.3946e+001 23856 109475,109553,109527
 2.9000e+000 109654 -7.0336e+001 -1.9654e+002 -3.9486e+000 23856 109449,109605,109475
 2.9000e+000 109631  1.1559e+001 -2.2869e+002  3.0852e+001 23856 109475,109527,109501
 2.9000e+000 110101 -3.8676e+001 -1.8672e+002 -3.1366e+001 23566 109853,109931,109879
 2.9000e+000 110078 -2.1179e+001 -1.7287e+002 -2.2688e+001 23566 109827,109931,109853
 2.9000e+000 110055 -4.6068e+001 -1.9032e+002 -1.4123e+001 23566 109827,109983,109931
 2.9000e+000 110032 -9.2253e+000 -1.7117e+002 -2.5754e+001 23566 109879,109931,109905
 2.9000e+000 110009 -3.2865e+001 -1.5848e+002 -1.3597e+001 23566 109931,109983,109957
 2.9000e+000 110735 -4.5094e+001 -1.2432e+002 -1.4721e+001 23162 110415,110571,110519
 2.9000e+000 110712 -7.4009e+001 -1.6197e+002 -2.7308e+001 23162 110389,110571,110415
 2.9000e+000 110689 -3.5144e+001 -1.2009e+002 -1.4606e+001 23162 110415,110519,110493
 2.9000e+000 110666 -5.8083e+001 -1.3770e+002  1.1792e+000 23162 110363,110571,110389
 2.9000e+000 110643  2.9498e+001 -7.7671e+001  3.1923e+001 23162 110441,110493,110467
 2.9000e+000 110620 -1.7513e+001 -1.2790e+002 -1.2309e+001 23162 110415,110493,110441
 2.9000e+000 110597 -4.8735e+001 -1.4694e+002 -1.4404e+001 23162 110519,110571,110545
 2.9000e+000 111211 -6.6825e+001 -2.0371e+002 -2.0144e+001 22708 111378,111306,111021
 2.9000e+000 111188 -1.6735e+001 -1.9545e+002 -6.8939e+000 22708 111234,110969,110917
 2.9000e+000 111165 -6.0428e+001 -1.9421e+002 -1.3989e+001 22708 111450,111234,110917
 2.9000e+000 111142 -6.7135e+001 -1.8490e+002 -4.8273e+001 22708 111378,111021,110995
 2.9000e+000 111119 -6.6583e+001 -1.9093e+002 -3.2182e+001 22708 111450,110917,110865
 2.9000e+000 111096  1.9783e+001 -2.3553e+002  1.8703e+001 22708 110917,110969,110943
 2.9000e+000 111073 -4.4169e+001 -2.9231e+002 -8.3001e+001 22708 110865,110917,110891
 2.9000e+000 111260 -4.7780e+000 -1.9388e+002 -1.9004e+001 22708 111306,110969,111234
 2.9000e+000 111283 -2.6355e+001 -1.6859e+002 -1.4946e+001 22708 111047,111234,110839
 2.9000e+000 111332 -4.4359e+000 -2.4896e+002  2.2850e+001 22708 111047,111021,111306
 2.9000e+000 111355 -2.7541e+001 -2.0273e+002 -2.3689e+001 22708 111047,111306,111234
 2.9000e+000 111404 -6.2776e+000 -1.7493e+002 -3.8558e+001 22708 110969,111306,111378
 2.9000e+000 111427 -2.2696e+001 -1.6663e+002 -5.1559e+001 22708 110969,111378,110995
 2.9000e+000 111476 -3.2016e+001 -1.8537e+002 -1.3315e+001 22708 110839,111234,111450
 2.9000e+000 111499 -3.2377e+001 -1.8031e+002 -3.3248e+001 22708 110839,111450,110865
 2.9000e+000 111600 -4.1315e+001 -1.5168e+002  3.7379e+000 22460 111522,111574,111548
 2.9000e+000 112059 -2.7441e+001 -1.3528e+002 -1.1258e+001 22056 111811,111889,111863
 2.9000e+000 112036 -3.0559e+000 -1.2846e+002 -1.5313e+001 22056 111811,111915,111889
 2.9000e+000 112013 -2.1763e+001 -1.3460e+002 -1.4680e+001 22056 111785,111915,111811
 2.9000e+000 111990 -1.6892e+001 -1.1465e+002 -3.2618e+001 22056 111785,111941,111915
 2.9000e+000 111967 -4.9717e+001 -1.5371e+002  2.1648e-001 22056 111811,111863,111837
 2.9000e+000 112486  5.1720e+000 -1.3225e+002 -1.1399e+001 21594 112509,112267,112215
 2.9000e+000 112463 -3.5856e+001 -1.5293e+002  6.8315e+000 21594 112509,112215,112163
 2.9000e+000 112440 -1.2492e+001 -9.1859e+001 -5.5931e+001 21594 112581,112293,112267
 2.9000e+000 112417 -4.9295e+001 -1.4295e+002  6.3453e+000 21594 112215,112267,112241
 2.9000e+000 112394  1.5573e+001 -1.3393e+002  2.5568e+000 21594 112163,112345,112319
 2.9000e+000 112371 -4.1468e+001 -1.4397e+002 -1.5477e+000 21594 112163,112215,112189
 2.9000e+000 112535  1.6706e+001 -1.1839e+002 -2.9400e+001 21594 112581,112267,112509
 2.9000e+000 112558 -1.3596e+001 -1.2764e+002 -3.9046e+000 21594 112319,112509,112163
 2.9000e+000 112607 -6.4041e+001 -1.1777e+002 -4.7019e+001 21594 112319,112293,112581
 2.9000e+000 112630 -3.5176e+001 -1.5005e+002 -1.5722e+001 21594 112319,112581,112509
 2.9000e+000 112900 -5.1197e+001 -1.8126e+002 -2.0906e+000 20974 112675,112779,112701
 2.9000e+000 112877 -2.7571e+001 -1.7723e+002 -2.6091e+000 20974 112675,112805,112779
 2.9000e+000 112854 -5.9985e+000 -1.5168e+002  1.2433e+001 20974 112701,112779,112753
 2.9000e+000 112831 -1.9117e+001 -7.3161e+001 -3.7332e+001 20974 112701,112753,112727
 2.9000e+000 113359 -1.1481e+001 -1.6396e+002 -2.3218e+001 20520 113454,113137,113111
 2.9000e+000 113336  1.1206e+001 -1.7441e+002 -3.2625e+001 20520 113454,113111,113085
 2.9000e+000 113313  1.6552e+001 -6.1225e+001  3.8831e+001 20520 113382,113163,113137
 2.9000e+000 113290 -1.2457e+001 -1.7893e+002 -1.5075e+001 20520 113526,113382,113137
 2.9000e+000 113267 -4.6929e+001 -2.7495e+002 -1.3714e+001 20520 113189,113241,113215
 2.9000e+000 113408 -3.7704e+001 -1.8195e+002  2.1634e+001 20520 113189,113163,113382
 2.9000e+000 113431 -2.4179e+001 -2.0651e+002 -3.4968e+001 20520 113189,113382,113241
 2.9000e+000 113480 -1.5502e+001 -1.7590e+002 -1.6909e+001 20520 113526,113137,113454
 2.9000e+000 113503 -2.5154e+000 -1.9343e+002 -2.5783e+001 20520 113241,113454,113085
 2.9000e+000 113552 -6.6415e+000 -1.7475e+002 -1.6928e+001 20520 113241,113382,113526
 2.9000e+000 113575 -9.1766e+000 -1.7180e+002 -1.8669e+001 20520 113241,113526,113454
 2.9000e+000 113904 -4.0996e+001 -2.0170e+002  4.9079e+000 19858 113705,113783,113757
 2.9000e+000 113881 -2.0820e+001 -1.7231e+002 -4.0734e+000 19858 113705,113809,113783
 2.9000e+000 113858  3.4716e+001 -1.3954e+002 -3.7526e+001 19858 113679,113809,113705
 2.9000e+000 113835 -2.3679e+001 -1.3244e+002  4.7035e+001 19858 113705,113757,113731
 2.9000e+000 114152 -5.7874e+001 -1.3230e+002 -1.5967e+001 19454 114175,114005,113979
 2.9000e+000 114129 -5.8737e+001 -1.3280e+002 -1.6306e+001 19454 114175,113979,114057
 2.9000e+000 114106 -6.8883e+001 -1.5283e+002 -9.9862e+000 19454 113927,114057,113979
 2.9000e+000 114083 -3.8467e+001 -1.3694e+002 -3.2553e+001 19454 113927,113979,113953
 2.9000e+000 114201 -3.8443e+001 -1.2413e+002 -1.0995e+001 19454 114031,114005,114175
 2.9000e+000 114224 -5.7933e+001 -1.3412e+002 -1.6155e+001 19454 114031,114175,114057
 2.9000e+000 114472 -5.1623e+001 -2.1631e+002 -7.4051e+000 19000 114495,114273,114247
 2.9000e+000 114449 -6.1648e+001 -2.2840e+002 -1.2176e+001 19000 114495,114247,114325
 2.9000e+000 114426 -8.4416e+001 -2.3366e+002  7.3396e+000 19000 114247,114377,114325
 2.9000e+000 114403 -1.0026e+002 -2.3829e+002 -3.5688e+001 19000 114325,114377,114351
 2.9000e+000 114521 -1.7852e+001 -2.0655e+002  1.4884e+001 19000 114299,114273,114495
 2.9000e+000 114544 -5.1759e+001 -2.4690e+002  6.4002e-002 19000 114299,114495,114325
 2.9000e+000 114948 -4.9066e+001 -2.1145e+002 -2.0855e+000 18560 114674,114726,114700
 2.9000e+000 114925 -1.9352e+001 -1.5836e+002 -1.5455e+001 18560 114674,114830,114726
 2.9000e+000 114902 -1.8494e+001 -1.5791e+002 -2.3149e+001 18560 114726,114830,114804
 2.9000e+000 114879 -6.1302e+001 -3.1965e+002 -5.4800e+001 18560 114726,114804,114752
 2.9000e+000 114856  2.3888e+001 -4.1988e+002 -6.9140e+001 18560 114752,114804,114778
 2.9000e+000 115098 -1.2202e+002 -3.0538e+002 -2.4635e+000 18156 114971,115023,114997
 2.9000e+000 115075 -1.2510e+002 -1.7120e+002 -3.5012e+000 18156 114971,115049,115023
 2.9000e+000 115248 -9.6877e+001 -2.6881e+002 -1.3065e+000 17602 115147,115199,115173
 2.9000e+000 115225 -2.6119e+001 -2.5286e+002  6.1828e+000 17602 115121,115199,115147
 2.9000e+000 115652 -6.0720e+000 -1.7006e+002 -5.2453e+000 17354 115430,115534,115508
 2.9000e+000 115629 -3.1664e+001 -2.2023e+002  8.1748e+000 17354 115404,115534,115430
 2.9000e+000 115606  3.6776e+001 -1.3826e+002  8.4413e+001 17354 115378,115534,115404
 2.9000e+000 115583  2.1643e+001 -2.0503e+002 -2.4269e+001 17354 115456,115508,115482
 2.9000e+000 115560 -3.4077e+001 -2.3710e+002 -6.5561e+000 17354 115430,115508,115456
 2.9000e+000 115873 -6.4104e+001 -3.2541e+002 -1.1274e+001 16950 115749,115801,115775
 2.9000e+000 115850 -1.2031e+002 -3.0830e+002 -4.5542e+000 16950 115697,115801,115749
 2.9000e+000 115827 -1.1192e+002 -3.2606e+002  7.5234e+000 16950 115697,115749,115723
 2.9000e+000 116023 -1.2549e+002 -3.2502e+002 -3.9668e+001 16496 115922,115974,115948
 2.9000e+000 116000 -1.2772e+002 -2.6420e+002 -1.6802e+001 16496 115896,115974,115922
 2.9000e+000 116126  4.3009e-002 -2.0560e+002  7.4158e+000 16298 116048,116100,116074
 2.9000e+000 116278  6.3926e+001 -3.4511e+002 -7.7540e+000 15892 116151,116203,116177
 2.9000e+000 116255  1.5580e+001 -4.5115e+002  3.8993e+000 15892 116151,116229,116203
 2.9000e+000 116430 -1.5171e+001 -1.1459e+002 -2.4195e+000 15545 116303,116355,116329
 2.9000e+000 116407 -4.9013e+001 -2.1932e+002 -5.2821e+001 15545 116303,116381,116355
 2.9000e+000 116785  3.1192e+001 -1.1707e+002  4.3829e+001 421 116612,116690,116664
 2.9000e+000 116762 -1.7060e+001 -2.3037e+002  2.8793e+001 421 116560,116690,116612
 2.9000e+000 116739 -9.8728e+001 -2.6301e+002  2.8053e+001 421 116560,116612,116586
 2.9000e+000 116716 -6.0999e+001 -2.7060e+002 -3.3737e-001 421 116612,116664,116638
 3.0000e+000 68048 -2.4656e+001 -2.5540e+002 -1.0441e+001 67642 67898,67950,67924
 3.0000e+000 68025 -5.7423e+001 -2.9424e+002  7.2492e+000 67642 67898,67976,67950
 3.0000e+000 68002  2.8886e+001 -2.6235e+002  1.4639e+001 67642 67872,67976,67898
 3.0000e+000 68367  9.7594e+000 -1.3548e+002 -8.1017e+000 67444 68119,68223,68197
 3.0000e+000 68344 -4.2213e+001 -2.6706e+002  6.4514e+000 67444 68119,68249,68223
 3.0000e+000 68321 -4.7387e+001 -2.6719e+002  2.8671e+000 67444 68093,68249,68119
 3.0000e+000 68298 -4.7970e+001 -2.7611e+002  9.7361e-001 67444 68119,68197,68171
 3.0000e+000 68275 -1.2548e+002 -2.6443e+002  1.5973e+001 67444 68119,68171,68145
 3.0000e+000 68468 -1.2301e+001 -3.1222e+002  1.6235e+001 67268 68390,68442,68416
 3.0000e+000 68765 -8.8342e+001 -2.9101e+002  5.2198e+000 66956 68788,68517,68491
 3.0000e+000 68742 -8.2840e+001 -3.1858e+002  3.6060e-001 66956 68788,68491,68621
 3.0000e+000 68719 -7.8626e+001 -3.1345e+002 -6.2987e+001 66956 68543,68621,68569
 3.0000e+000 68696 -8.6153e+001 -3.2662e+002  1.3528e-001 66956 68491,68647,68621
 3.0000e+000 68673 -1.1567e+002 -2.1193e+002 -5.3789e+001 66956 68569,68621,68595
 3.0000e+000 68814 -8.4277e+001 -3.1217e+002  1.3121e+001 66956 68543,68517,68788
 3.0000e+000 68837 -7.7533e+001 -3.3864e+002  5.8093e+000 66956 68543,68788,68621
 3.0000e+000 69107 -1.8086e+001 -3.0634e+002 -9.8535e+000 66758 68882,68986,68908
 3.0000e+000 69084 -6.0576e+001 -3.1151e+002  7.0800e+000 66758 68882,69012,68986
 3.0000e+000 69061 -1.1158e+001 -2.6833e+002 -2.6244e+001 66758 68908,68960,68934
 3.0000e+000 69038  8.5441e+000 -2.5765e+002 -2.1322e+001 66758 68908,68986,68960
 3.0000e+000 69308 -1.8920e+001 -2.5737e+002 -6.7052e+000 66560 69331,69184,69158
 3.0000e+000 69285  8.3812e+000 -2.7865e+002 -8.1008e+000 66560 69331,69158,69132
 3.0000e+000 69262 -3.0953e+001 -3.2246e+002 -9.2551e+000 66560 69184,69236,69210
 3.0000e+000 69357 -2.1852e+001 -2.7362e+002  8.6597e-004 66560 69236,69184,69331
 3.0000e+000 69380 -1.1752e+001 -3.0961e+002  5.1084e+000 66560 69236,69331,69132
 3.0000e+000 69554 -6.9207e+001 -3.9996e+002  2.4391e+001 66270 69427,69479,69453
 3.0000e+000 69531 -2.0151e+001 -2.8492e+002  4.6873e+001 66270 69427,69505,69479
 3.0000e+000 69804 -3.0459e+001 -2.4643e+002 -1.6943e+001 66066 69579,69683,69657
 3.0000e+000 69781  1.2159e+002 -1.7968e+002 -4.3069e+001 66066 69579,69709,69683
 3.0000e+000 69758 -2.8853e+000 -1.2144e+002 -2.5304e+001 66066 69579,69657,69631
 3.0000e+000 69735 -2.1638e+001 -1.6293e+002 -3.2010e+001 66066 69579,69631,69605
 3.0000e+000 70257 -1.7485e+000 -1.0792e+002  1.4595e+001 65776 69960,70090,69986
 3.0000e+000 70234 -3.0258e+001 -1.4541e+002 -8.1936e+000 65776 69934,70090,69960
 3.0000e+000 70211  3.3473e+000 -1.4016e+002 -1.4994e+001 65776 69934,70116,70090
 3.0000e+000 70188 -7.3065e-001 -1.5474e+002  0.0000e+000 65776 70038,70090,70064
 3.0000e+000 70165 -3.3416e+000 -1.5976e+002  4.5782e+000 65776 69986,70090,70038
 3.0000e+000 70142  6.2291e+000 -1.6045e+002  6.0133e+000 65776 69986,70038,70012
 3.0000e+000 70456 -4.3659e+001 -1.1153e+002 -2.2312e+001 65372 70479,70306,70280
 3.0000e+000 70433 -2.1594e+001 -1.3792e+002 -4.5047e+001 65372 70479,70280,70384
 3.0000e+000 70410 -1.7501e-001 -1.1277e+002 -3.2590e+000 65372 70551,70332,70306
 3.0000e+000 70505 -1.3987e+001 -9.7491e+001 -1.8081e+001 65372 70551,70306,70479
 3.0000e+000 70528  1.9656e+001 -1.2411e+002 -4.1339e+001 65372 70358,70479,70384
 3.0000e+000 70577 -1.2820e+001 -1.3729e+002 -9.8877e+000 65372 70358,70332,70551
 3.0000e+000 70600 -2.9508e+001 -1.2803e+002 -2.4506e+001 65372 70358,70551,70479
 3.0000e+000 70821 -3.7364e+001 -3.7757e+002 -8.6931e+000 65174 70645,70723,70671
 3.0000e+000 70798 -8.6555e+001 -3.9028e+002  7.8009e+000 65174 70645,70749,70723
 3.0000e+000 70775 -1.7627e+001 -3.4592e+002 -1.8365e+001 65174 70671,70723,70697
 3.0000e+000 71071 -2.4013e+001 -1.5679e+002 -4.5711e+000 64770 71094,70898,70872
 3.0000e+000 71048 -1.6120e+001 -1.5657e+002  4.1343e+000 64770 71166,71094,70872
 3.0000e+000 71025 -2.0384e+001 -1.7449e+002 -7.9882e+000 64770 71166,70872,70846
 3.0000e+000 71002 -2.4161e+001 -9.5832e+001  2.4143e+001 64770 70898,70950,70924
 3.0000e+000 71120 -2.1739e+001 -1.3453e+002 -7.9235e+000 64770 70950,70898,71094
 3.0000e+000 71143 -7.3719e+000 -1.5831e+002  9.3130e+000 64770 70950,71094,70976
 3.0000e+000 71192 -1.9035e+001 -1.9106e+002 -1.8404e-001 64770 70976,71094,71166
 3.0000e+000 71215 -1.4620e+001 -1.9747e+002 -1.2228e+001 64770 70976,71166,70846
 3.0000e+000 71514  2.2795e-002 -1.9144e+002 -1.6539e+000 64572 71681,71537,71318
 3.0000e+000 71491 -2.7458e+001 -1.8428e+002 -1.0516e+001 64572 71537,71266,71240
 3.0000e+000 71468 -3.8942e+001 -1.5024e+002 -3.3269e+001 64572 71609,71396,71370
 3.0000e+000 71445 -1.0112e+001 -1.8602e+002 -3.7404e+000 64572 71681,71318,71292
 3.0000e+000 71422 -3.8132e+001 -2.6776e+002 -1.9284e+001 64572 71753,71344,71318
 3.0000e+000 71563 -7.8643e+000 -2.2006e+002 -2.0891e+000 64572 71753,71318,71537
 3.0000e+000 71586 -2.4785e+001 -1.7711e+002 -2.9017e+000 64572 71609,71370,71537
 3.0000e+000 71635  4.4671e+000 -5.9009e+001 -5.3209e+001 64572 71240,71396,71609
 3.0000e+000 71658 -9.5275e+000 -1.2256e+002 -1.7270e+001 64572 71240,71609,71537
 3.0000e+000 71707 -2.2417e+001 -1.8251e+002 -1.0917e+001 64572 71266,71537,71681
 3.0000e+000 71730 -5.2077e+001 -1.9045e+002 -1.1674e+001 64572 71266,71681,71292
 3.0000e+000 71779 -5.5066e+001 -1.9928e+002 -1.8392e+001 64572 71370,71344,71753
 3.0000e+000 71802 -4.7489e+001 -1.9716e+002 -1.5203e+001 64572 71370,71753,71537
 3.0000e+000 72052 -2.3807e+001 -2.2880e+002  2.2435e+001 64374 72075,71879,71827
 3.0000e+000 72029  5.4965e+001 -1.8064e+002 -7.9768e+000 64374 72147,72075,71827
 3.0000e+000 72006  1.2313e+002 -2.0490e+002 -4.8926e+001 64374 72147,71827,71957
 3.0000e+000 71983  7.9658e+000 -2.0139e+002  5.9817e+000 64374 71827,71879,71853
 3.0000e+000 72101 -1.3474e+001 -2.9201e+002  7.3095e+001 64374 71905,71879,72075
 3.0000e+000 72124  6.9496e+001 -2.3848e+002  4.7405e+001 64374 71905,72075,71931
 3.0000e+000 72173 -3.4385e+000 -2.5154e+002  2.0726e+001 64374 71931,72075,72147
 3.0000e+000 72196  4.0665e+001 -2.8935e+002 -1.4890e+001 64374 71931,72147,71957
 3.0000e+000 72649  6.3180e+000 -1.0920e+002 -4.8104e+000 63948 72352,72508,72482
 3.0000e+000 72626  1.4720e+001 -7.7014e+001  3.1266e+001 63948 72326,72508,72352
 3.0000e+000 72603 -3.4442e+001 -1.8776e+002 -2.3880e+001 63948 72672,72430,72378
 3.0000e+000 72580 -9.1241e+000 -2.2014e+002 -1.6669e+001 63948 72672,72378,72352
 3.0000e+000 72557 -1.3179e+001 -1.9250e+002 -1.4899e+001 63948 72744,72456,72430
 3.0000e+000 72534 -4.4598e+001 -2.4241e+002 -4.9214e+001 63948 72378,72430,72404
 3.0000e+000 72698 -1.7943e+001 -1.9083e+002 -1.3497e+001 63948 72744,72430,72672
 3.0000e+000 72721  1.1879e+001 -1.7743e+002  5.3633e+000 63948 72482,72672,72352
 3.0000e+000 72770 -9.6718e+000 -1.9106e+002 -1.5981e+001 63948 72482,72456,72744
 3.0000e+000 72793 -1.3367e+001 -1.8725e+002 -1.5606e+001 63948 72482,72744,72672
 3.0000e+000 72894 -1.7745e+001 -2.3165e+002 -1.7810e+001 63494 72816,72868,72842
 3.0000e+000 73093 -4.3794e+001 -9.5428e+001 -8.8595e+000 63132 72943,72995,72969
 3.0000e+000 73070 -4.0933e+001 -8.8555e+001  3.6880e+000 63132 72943,73021,72995
 3.0000e+000 73047 -3.6124e+001 -1.0783e+002  1.2770e+001 63132 72917,73021,72943
 3.0000e+000 73294 -6.1130e+000 -6.6986e+001 -3.2563e+001 62792 73317,73144,73118
 3.0000e+000 73271 -9.1845e+000 -5.9906e+001 -1.2449e+001 62792 73317,73118,73222
 3.0000e+000 73248 -2.3288e+001 -6.8981e+001 -4.0336e+001 62792 73144,73196,73170
 3.0000e+000 73343 -2.7462e+001 -7.7587e+001 -3.6092e+001 62792 73196,73144,73317
 3.0000e+000 73366 -2.8783e+001 -6.9169e+001 -1.5018e+001 62792 73196,73317,73222
 3.0000e+000 73616 -5.6955e+001 -1.8267e+002  2.4897e+001 62388 73639,73417,73391
 3.0000e+000 73593 -4.2913e+001 -1.5187e+002  1.7303e+001 62388 73711,73639,73391
 3.0000e+000 73570 -2.3944e+001 -9.5842e+001  7.2408e+000 62388 73711,73391,73521
 3.0000e+000 73547 -1.2616e+001 -1.5121e+002 -2.7870e+000 62388 73469,73521,73495
 3.0000e+000 73665 -2.5776e+001 -1.6942e+002  2.4849e+001 62388 73443,73417,73639
 3.0000e+000 73688 -3.4420e+001 -2.0910e+002  2.2349e+001 62388 73443,73639,73469
 3.0000e+000 73737 -2.0552e+001 -1.8934e+002  1.0568e+001 62388 73469,73639,73711
 3.0000e+000 73760 -2.8395e+001 -1.6745e+002  1.2527e+001 62388 73469,73711,73521
 3.0000e+000 74010 -2.3143e+001 -6.2995e+001 -1.3448e+001 61848 74033,73837,73811
 3.0000e+000 73987 -7.1384e+001 -4.8845e+001 -6.3646e+001 61848 74033,73811,73785
 3.0000e+000 73964 -5.6742e+000 -7.3670e+001 -2.4297e+001 61848 73837,73915,73889
 3.0000e+000 73941  5.3430e+000 -5.4141e+001 -1.9681e+001 61848 73837,73889,73863
 3.0000e+000 74059 -1.6663e+001 -9.2576e+001 -2.9046e+001 61848 73915,73837,74033
 3.0000e+000 74082 -2.0786e+001 -1.1981e+002 -4.5502e+001 61848 73915,74033,73785
 3.0000e+000 74283  1.8077e+001 -6.3948e+001  2.0536e+001 61444 74306,74133,74107
 3.0000e+000 74260  2.4552e+001 -2.9051e+001  4.2360e+001 61444 74306,74107,74211
 3.0000e+000 74237  3.6843e+000  3.3390e+001  4.8043e+000 61444 74378,74185,74159
 3.0000e+000 74332  7.4642e+000 -6.9849e+001 -1.0429e-001 61444 74159,74133,74306
 3.0000e+000 74355  2.5885e+001 -3.1152e+001  1.5766e+001 61444 74378,74159,74306
 3.0000e+000 74404 -1.3208e+001 -3.4975e+001  2.7380e+001 61444 74211,74185,74378
 3.0000e+000 74427  7.0067e-002 -5.4969e+001  2.5911e+001 61444 74211,74378,74306
 3.0000e+000 74628 -9.7348e+000 -5.2294e+001 -2.5786e+001 60990 74478,74530,74504
 3.0000e+000 74605 -6.8473e+000 -6.8490e+001 -4.0077e+001 60990 74452,74530,74478
 3.0000e+000 74582 -2.4358e+001 -6.8425e+001 -4.0912e+001 60990 74452,74556,74530
 3.0000e+000 75089 -3.2151e-001 -5.8248e+001 -1.5585e+001 60486 75112,74945,74919
 3.0000e+000 75066 -5.8241e+000 -7.0962e+000  6.9137e+000 60486 75112,74919,74867
 3.0000e+000 75043 -8.7580e+000 -1.1192e+002  1.2549e+001 60486 74841,74971,74867
 3.0000e+000 75020 -4.0143e-001 -2.3902e-001 -1.2554e-001 60486 74867,74919,74893
 3.0000e+000 74997 -9.7274e+000 -9.4882e+001  3.0786e+001 60486 74815,74971,74841
 3.0000e+000 75138 -1.7701e+001 -7.5951e+001 -3.8566e+001 60486 74971,74945,75112
 3.0000e+000 75161 -2.4864e+001 -4.3365e+001 -1.3055e+001 60486 74971,75112,74867
 3.0000e+000 75409 -1.6623e+001 -1.7356e+001  7.7699e+000 59932 75576,75432,75288
 3.0000e+000 75386 -1.8194e+001 -1.9568e+001  4.3117e+000 59932 75504,75314,75288
 3.0000e+000 75363 -1.6859e+000  3.6868e+000  2.5019e+001 59932 75432,75236,75210
 3.0000e+000 75340 -9.6107e-001 -2.6145e+001 -6.8131e+000 59932 75576,75288,75262
 3.0000e+000 75458 -2.0209e+001 -1.7308e+001  3.6646e+000 59932 75504,75288,75432
 3.0000e+000 75481 -2.2905e+001 -1.8782e+001  5.8436e+000 59932 75184,75432,75210
 3.0000e+000 75530 -2.0512e+001 -3.8069e+001  2.1532e+000 59932 75184,75314,75504
 3.0000e+000 75553 -2.2240e+001 -2.0190e+001  2.7297e+000 59932 75184,75504,75432
 3.0000e+000 75602 -2.7383e+001 -4.1490e+001  1.4054e+001 59932 75236,75432,75576
 3.0000e+000 75625 -1.5438e+001 -5.0321e+001  7.0205e+000 59932 75236,75576,75262
 3.0000e+000 75873 -3.8493e+001 -1.7155e+002  1.1921e+001 59478 75674,75752,75700
 3.0000e+000 75850 -7.5791e+001 -1.8604e+002  3.5469e+001 59478 75648,75752,75674
 3.0000e+000 75827 -3.4072e+001 -1.5765e+002  1.8676e+001 59478 75700,75752,75726
 3.0000e+000 75804 -6.6382e+001 -1.9486e+002  3.6374e+001 59478 75648,75778,75752
 3.0000e+000 76206 -1.6373e+001 -1.5345e+002  3.4569e-001 59024 75981,76059,76007
 3.0000e+000 76183 -2.8692e+001 -1.6984e+002  6.4493e+000 59024 75981,76111,76059
 3.0000e+000 76160 -2.1164e+001 -1.1702e+002 -2.6775e+001 59024 76007,76059,76033
 3.0000e+000 76137 -4.6740e+000 -1.7149e+002  5.5924e+001 59024 76059,76111,76085
 3.0000e+000 76761 -9.4710e+001 -1.0624e+002 -1.3935e+001 58562 76389,76441,76415
 3.0000e+000 76738 -8.5551e+001 -1.0198e+002  2.5449e+001 58562 76856,76784,76389
 3.0000e+000 76715 -6.0032e+001 -4.3971e+001 -5.0902e+001 58562 76784,76571,76467
 3.0000e+000 76692 -2.2734e+001 -1.2408e+002  3.1953e+001 58562 76856,76389,76597
 3.0000e+000 76669 -6.6000e+001 -2.6419e+002  1.2645e+001 58562 76467,76545,76493
 3.0000e+000 76646 -2.2181e+001 -1.8345e+002 -9.9106e+001 58562 76467,76571,76545
 3.0000e+000 76623 -2.0014e+001 -2.4355e+002  2.0071e+001 58562 76493,76545,76519
 3.0000e+000 76810 -6.6525e+001 -1.0718e+002  8.3347e+000 58562 76441,76389,76784
 3.0000e+000 76833 -1.7101e+002 -2.4648e+002 -1.1378e+002 58562 76441,76784,76467
 3.0000e+000 76882 -1.8008e+001 -6.8398e+001  5.4822e+001 58562 76571,76784,76856
 3.0000e+000 76905  2.1582e+001 -1.0615e+002  6.1555e+001 58562 76571,76856,76597
 3.0000e+000 77055  7.1945e-001 -1.9203e+002 -2.8714e+001 57844 76928,76980,76954
 3.0000e+000 77032 -5.1573e+001 -1.3234e+002 -2.3791e+001 57844 76928,77006,76980
 3.0000e+000 77533 -6.9131e+001 -2.8884e+002 -1.0566e+001 57226 77628,77556,77291
 3.0000e+000 77510 -5.7604e+001 -4.9929e+001  2.1298e+001 57226 77556,77187,77343
 3.0000e+000 77487  5.5728e+000 -1.7515e+002 -5.2897e+001 57226 77628,77291,77265
 3.0000e+000 77464 -3.0278e+001 -3.5367e+002  6.6513e+001 57226 77700,77213,77187
 3.0000e+000 77441 -2.6091e+001 -8.3558e+001 -4.2785e+001 57226 77161,77343,77187
 3.0000e+000 77418 -5.3805e+001 -1.0536e+002 -3.3433e+001 57226 77161,77369,77343
 3.0000e+000 77395 -9.9705e+001 -6.6169e+001  2.6815e+001 57226 77213,77265,77239
 3.0000e+000 77582 -6.7657e+001 -2.3723e+002  4.1968e+001 57226 77317,77291,77556
 3.0000e+000 77605 -7.8291e+001 -1.6392e+002  1.4405e+001 57226 77317,77556,77343
 3.0000e+000 77654  4.1905e+001 -1.6174e+002  5.3548e+001 57226 77187,77556,77628
 3.0000e+000 77677 -2.0955e+001 -3.2097e+002  6.0279e+001 57226 77700,77187,77628
 3.0000e+000 77726 -5.4693e+001 -3.8350e+002 -6.4392e+001 57226 77265,77213,77700
 3.0000e+000 77749 -8.0590e+000 -2.6615e+002 -6.5507e+001 57226 77265,77700,77628
 3.0000e+000 78046 -1.4269e+001 -1.7706e+002  5.0635e+001 56936 77798,77850,77824
 3.0000e+000 78023 -3.2415e+001 -1.6330e+002  6.0099e+001 56936 78069,77798,77902
 3.0000e+000 78000 -4.5735e+001 -1.7191e+002  5.5602e+001 56936 78069,77902,77876
 3.0000e+000 77977  1.6036e+001 -1.5509e+002 -2.0580e+000 56936 77798,77928,77902
 3.0000e+000 77954 -2.8818e+001 -3.3653e+001  2.1660e+001 56936 77772,77928,77798
 3.0000e+000 78095 -2.6671e+001 -1.6782e+002  6.4039e+001 56936 77850,77798,78069
 3.0000e+000 78118 -3.2791e+001 -1.7003e+002  6.0983e+001 56936 77850,78069,77876
 3.0000e+000 78754 -2.1045e+000 -1.1623e+002 -2.4919e+001 56475 78777,78486,78408
 3.0000e+000 78731  5.5434e+000 -1.1487e+002 -2.4932e+001 56475 78777,78408,78382
 3.0000e+000 78708 -8.3414e+000 -1.4693e+002 -3.7611e+001 56475 78849,78512,78486
 3.0000e+000 78685 -1.2106e+001 -8.1943e+001 -6.4593e+000 56475 78382,78590,78564
 3.0000e+000 78662 -1.2679e+001 -1.5234e+002 -3.0705e+001 56475 78512,78564,78538
 3.0000e+000 78639  2.5578e+000 -2.8893e+002  3.2168e+001 56475 78434,78486,78460
 3.0000e+000 78616 -6.7576e+001 -2.4725e+002  7.5045e+000 56475 78408,78486,78434
 3.0000e+000 78803 -1.3371e+000 -1.3260e+002 -2.5709e+001 56475 78849,78486,78777
 3.0000e+000 78826  1.1943e+001 -1.0478e+002 -8.8458e+000 56475 78564,78777,78382
 3.0000e+000 78875 -3.4933e+000 -1.2232e+002 -2.6234e+001 56475 78564,78512,78849
 3.0000e+000 78898 -3.6965e+000 -1.0902e+002 -1.7442e+001 56475 78564,78849,78777
 3.0000e+000 79276 -3.1444e+001 -1.0139e+002 -8.7571e+000 55964 79299,79080,79028
 3.0000e+000 79253 -2.7647e+001 -1.0893e+002  1.4284e-001 55964 79299,79028,79132
 3.0000e+000 79230 -3.6943e+001 -1.5050e+002 -1.0987e+001 55964 79028,79080,79054
 3.0000e+000 79207 -1.9177e+001 -8.9398e+001  9.1267e+000 55964 79002,79132,79028
 3.0000e+000 79184 -1.6703e+000 -8.0784e+001 -2.8671e+000 55964 79002,79158,79132
 3.0000e+000 79325 -2.7495e+001 -8.9436e+001 -9.6241e+000 55964 79106,79080,79299
 3.0000e+000 79348 -2.5236e+001 -9.9714e+001 -8.9219e-001 55964 79106,79299,79132
 3.0000e+000 79498 -1.6625e+001 -1.4321e+002  1.2677e+001 55452 79397,79449,79423
 3.0000e+000 79475 -4.3034e+001 -1.1537e+002  1.1838e+000 55452 79371,79449,79397
 3.0000e+000 79795 -2.8269e+001 -1.4008e+002  1.8454e+000 55048 79962,79818,79573
 3.0000e+000 79772 -1.6034e+001 -1.0476e+002 -1.0545e+001 55048 79818,79521,79677
 3.0000e+000 79749 -2.5388e+001 -1.6432e+002  2.8545e+001 55048 79599,79651,79625
 3.0000e+000 79726 -3.1882e+001 -1.6806e+002  2.5968e+001 55048 79890,79651,79599
 3.0000e+000 79703 -1.7525e+001 -1.3950e+002  1.6402e+001 55048 79962,79573,79547
 3.0000e+000 79844 -1.8639e+001 -1.3852e+002  4.6221e+000 55048 79599,79573,79818
 3.0000e+000 79867 -2.8079e+001 -1.4880e+002  8.6505e+000 55048 79890,79599,79818
 3.0000e+000 79916 -3.0699e+000 -1.5261e+002  8.0624e+000 55048 79677,79651,79890
 3.0000e+000 79939 -5.1989e+000 -1.4469e+002 -8.0833e+000 55048 79677,79890,79818
 3.0000e+000 79988 -4.7061e+001 -1.4658e+002  3.2255e+000 55048 79521,79818,79962
 3.0000e+000 80011 -4.6612e+001 -1.4855e+002  1.5664e+001 55048 79521,79962,79547
 3.0000e+000 80212 -5.6366e+001 -1.4869e+002  5.3017e+001 54436 80235,80088,80036
 3.0000e+000 80189 -3.2048e+001 -1.1664e+002  3.9749e+001 54436 80235,80036,80140
 3.0000e+000 80166 -4.7660e+001 -2.3371e+002 -4.9018e+000 54436 80036,80088,80062
 3.0000e+000 80261 -3.2214e+001 -1.9257e+002  7.4819e+001 54436 80114,80088,80235
 3.0000e+000 80284 -7.3775e-001 -1.5962e+002  5.8792e+001 54436 80114,80235,80140
 3.0000e+000 80534 -1.1994e+001 -9.9264e+001  1.7886e+001 54032 80557,80361,80335
 3.0000e+000 80511 -7.7949e+000 -1.1852e+002  3.1793e+001 54032 80557,80335,80309
 3.0000e+000 80488 -1.4989e+001 -1.1369e+002  2.0168e+001 54032 80629,80413,80387
 3.0000e+000 80465 -3.4094e+001 -1.5615e+002  2.2561e+001 54032 80309,80439,80413
 3.0000e+000 80583 -2.4703e-001 -3.5068e+001  1.3632e+001 54032 80387,80361,80557
 3.0000e+000 80606 -9.4847e+000 -9.9251e+001  2.4566e+001 54032 80629,80387,80557
 3.0000e+000 80655 -1.7094e+001 -1.1251e+002  1.0607e+001 54032 80309,80413,80629
 3.0000e+000 80678 -1.8688e+001 -1.0906e+002  1.4421e+001 54032 80309,80629,80557
 3.0000e+000 81139 -5.7066e+000 -5.8821e+001  3.1701e+001 53784 80865,80995,80917
 3.0000e+000 81116 -6.3078e+000 -4.7638e+001  5.2853e+000 53784 80865,81021,80995
 3.0000e+000 81093 -3.1016e+001 -1.6959e+002  6.3188e+001 53784 80943,80995,80969
 3.0000e+000 81070 -3.9534e+001 -7.8723e+001  2.2507e+001 53784 80917,80995,80943
 3.0000e+000 81047  2.1059e-001 -4.2081e+002 -1.2543e+000 53784 80865,80917,80891
 3.0000e+000 81468 -7.4226e+000 -9.9169e+001  3.6281e+001 53230 81295,81373,81347
 3.0000e+000 81445  4.3763e+000 -1.2403e+002  4.6361e+001 53230 81243,81373,81295
 3.0000e+000 81422 -6.2902e+001 -1.6389e+002  1.7992e+000 53230 81243,81295,81269
 3.0000e+000 81399  7.5887e+000 -6.8046e+001 -2.9071e+001 53230 81295,81347,81321
 3.0000e+000 81618 -5.2924e+000 -9.0598e+000 -3.6731e+000 52790 81491,81543,81517
 3.0000e+000 81595  6.1820e-001 -7.1347e+001  3.1909e+000 52790 81491,81569,81543
 3.0000e+000 82126  3.4833e+001 -2.2318e+001 -4.1931e+001 52386 82149,81907,81881
 3.0000e+000 82103  4.7425e+000 -8.2915e+001 -2.7700e+001 52386 82149,81881,81855
 3.0000e+000 82080  2.0245e-001 -5.4815e+001  5.7442e+000 52386 82221,81803,81985
 3.0000e+000 82057 -5.7771e+001 -1.1790e+002 -6.4316e+000 52386 81803,81855,81829
 3.0000e+000 82034  1.4170e+000 -9.7452e+001 -2.0898e+001 52386 81907,81985,81933
 3.0000e+000 82011 -1.8770e+001 -6.9637e+001 -3.4292e+001 52386 81933,81985,81959
 3.0000e+000 82175  7.6131e+000 -7.2701e+001 -1.4803e+001 52386 81985,81907,82149
 3.0000e+000 82198  2.0237e+001 -6.4716e+001 -9.1772e+000 52386 82221,81985,82149
 3.0000e+000 82247 -1.2382e+001 -7.5999e+001  1.2965e+001 52386 81855,81803,82221
 3.0000e+000 82270 -2.0342e-001 -9.2446e+001  2.4983e-001 52386 81855,82221,82149
 3.0000e+000 82825 -6.6449e+001 -1.3672e+002  1.3238e+001 51782 82505,82661,82635
 3.0000e+000 82802 -1.3024e+002 -2.0672e+002 -2.1490e+001 51782 82479,82661,82505
 3.0000e+000 82779 -5.3579e+001 -2.2971e+002 -7.7706e+001 51782 82557,82635,82609
 3.0000e+000 82756 -5.0772e+001 -2.2045e+002 -6.0594e+000 51782 82531,82635,82557
 3.0000e+000 82733 -9.1892e+001 -1.6623e+002 -1.8573e+001 51782 82505,82635,82531
 3.0000e+000 82710 -2.2814e+001 -1.1085e+002  3.5158e+001 51782 82453,82661,82479
 3.0000e+000 82687  2.6680e+000 -1.4259e+002 -4.5757e+001 51782 82557,82609,82583
 3.0000e+000 83171 -3.1072e+001 -1.4472e+002  1.6953e+001 51442 83194,82978,82900
 3.0000e+000 83148 -6.0213e+001 -1.2692e+002  1.1183e+001 51442 83194,82900,82874
 3.0000e+000 83125 -5.3037e+001 -1.5427e+002  1.5376e+001 51442 82900,82978,82926
 3.0000e+000 83102 -3.4302e+001 -1.1533e+002 -1.3757e+000 51442 82874,83030,83004
 3.0000e+000 83079 -1.0921e+001 -1.3931e+002  1.5410e+001 51442 82926,82978,82952
 3.0000e+000 83056 -2.2736e+001 -1.0947e+002  1.3939e+000 51442 82848,83030,82874
 3.0000e+000 83220 -9.2819e+000 -1.3753e+002  1.3632e+001 51442 83004,82978,83194
 3.0000e+000 83243 -4.1918e+001 -1.2199e+002  7.3074e+000 51442 83004,83194,82874
 3.0000e+000 83751 -3.2576e+001 -6.9762e+001  4.3225e+000 50938 83428,83584,83454
 3.0000e+000 83728 -1.0625e+001 -6.1147e+001  9.7164e+000 50938 83428,83610,83584
 3.0000e+000 83705 -3.6752e+001 -9.4563e+001 -6.1088e-001 50938 83454,83584,83558
 3.0000e+000 83682 -2.5437e+001 -1.0239e+002  1.1925e+001 50938 83454,83532,83480
 3.0000e+000 83659 -3.0219e+001 -8.8678e+001  1.0787e+001 50938 83454,83558,83532
 3.0000e+000 83636 -6.5140e+001 -1.4298e+002 -5.2683e+000 50938 83480,83532,83506
 3.0000e+000 84355 -3.7896e+001 -2.1586e+002  2.1128e+001 50377 84378,83960,83934
 3.0000e+000 84332 -8.6087e+000 -1.4687e+002  1.9976e+001 50377 84522,84378,83934
 3.0000e+000 84309 -2.1774e+001 -1.4041e+002  5.8096e+000 50377 84450,84038,84012
 3.0000e+000 84286 -1.5572e+001 -1.1988e+002  1.5815e+001 50377 84522,83934,84142
 3.0000e+000 84263 -1.2956e+001 -1.2093e+002  1.1429e+000 50377 84594,84090,84038
 3.0000e+000 84240 -1.0905e+002 -1.7997e+002 -2.7942e-001 50377 83960,84012,83986
 3.0000e+000 84217 -4.0752e+001 -1.2841e+002  1.3334e+001 50377 83934,84168,84142
 3.0000e+000 84194 -1.7029e+001 -8.1130e+001  2.9928e+001 50377 84038,84090,84064
 3.0000e+000 84404 -7.8214e+001 -1.9067e+002 -2.3268e+001 50377 84012,83960,84378
 3.0000e+000 84427 -1.5426e+001 -1.3894e+002  2.4535e+000 50377 84450,84012,84378
 3.0000e+000 84476 -2.1393e+001 -1.3291e+002 -2.5781e+000 50377 84594,84038,84450
 3.0000e+000 84499 -1.9550e+001 -1.8598e+002 -7.9176e+000 50377 84116,84450,84378
 3.0000e+000 84548 -1.2993e+000 -1.8706e+002  6.3947e+000 50377 84116,84378,84522
 3.0000e+000 84571 -2.4477e+000 -1.5239e+002  9.9860e-001 50377 84116,84522,84142
 3.0000e+000 84620  6.9693e+000 -1.4145e+002  1.1267e+001 50377 84116,84090,84594
 3.0000e+000 84643  5.2643e-001 -1.5115e+002  8.4664e+000 50377 84116,84594,84450
 3.0000e+000 84842 -3.3320e+001 -1.6814e+002  8.0276e+000 49923 84865,84692,84666
 3.0000e+000 84819 -5.2548e+001 -1.6369e+002 -5.1167e+000 49923 84865,84666,84770
 3.0000e+000 84796 -7.6081e+000 -2.2547e+002 -2.0091e+001 49923 84692,84744,84718
 3.0000e+000 84891 -4.5718e+001 -1.7356e+002 -2.1420e+000 49923 84744,84692,84865
 3.0000e+000 84914 -6.8281e+001 -1.7654e+002 -1.7020e+001 49923 84744,84865,84770
 3.0000e+000 85501 -3.0207e+001 -1.6827e+002  1.9271e+001 49618 85524,85282,85204
 3.0000e+000 85478 -2.8006e+001 -1.6971e+002  1.6584e+001 49618 85596,85524,85204
 3.0000e+000 85455 -2.3424e+001 -1.8315e+002  1.5478e+001 49618 85596,85204,85178
 3.0000e+000 85432 -5.9961e+001 -1.8925e+002  2.8455e+001 49618 85204,85282,85256
 3.0000e+000 85409 -6.9966e+001 -2.5794e+002 -3.4064e-002 49618 85282,85334,85308
 3.0000e+000 85386 -5.9496e+001 -2.0793e+002 -6.3310e+000 49618 85204,85256,85230
 3.0000e+000 85550 -2.9867e+001 -1.7218e+002  1.5302e+001 49618 85334,85282,85524
 3.0000e+000 85573 -3.4333e+001 -1.7307e+002  1.9232e+001 49618 85334,85524,85360
 3.0000e+000 85622 -3.5035e+001 -1.8687e+002  2.1830e+001 49618 85360,85524,85596
 3.0000e+000 85645 -2.5727e+001 -1.9470e+002  1.9572e+001 49618 85360,85596,85178
 3.0000e+000 85795 -7.8868e+001 -2.4594e+002 -1.4770e+001 49278 85694,85746,85720
 3.0000e+000 85772 -1.1123e+002 -4.8778e+002 -1.6059e+001 49278 85668,85746,85694
 3.0000e+000 86197 -5.5324e+001 -3.1235e+002 -4.2794e+001 48916 86001,86079,86027
 3.0000e+000 86174 -9.7324e-003 -1.4417e+002 -2.2117e+001 48916 85949,86079,86001
 3.0000e+000 86151  3.1578e+000 -3.1847e+002 -4.7536e+000 48916 85949,86001,85975
 3.0000e+000 86128 -7.0444e+001 -3.2282e+002 -2.9216e+001 48916 86027,86079,86053
 3.0000e+000 86105 -1.0954e+001 -9.5795e+001  2.4198e+001 48916 85923,86079,85949
 3.0000e+000 86477 -1.8779e+000 -1.1147e+002  6.1976e+000 48398 86327,86379,86353
 3.0000e+000 86454  2.7403e+001 -1.0369e+002  2.5171e+001 48398 86500,86379,86327
 3.0000e+000 86431 -1.4082e+001 -6.7104e+001  1.2696e+001 48398 86301,86405,86379
 3.0000e+000 86526 -7.1059e+000 -9.5223e+001  3.7056e+001 48398 86301,86379,86500
 3.0000e+000 87032 -2.5861e+001 -1.5967e+002 -3.1642e+001 48008 87127,87055,86787
 3.0000e+000 87009 -4.7351e+001 -2.5124e+002  1.4110e+001 48008 87055,86735,86709
 3.0000e+000 86986 -7.0152e+001 -1.3360e+002 -2.4430e+001 48008 87127,86787,86761
 3.0000e+000 86963 -4.7339e+001 -1.2932e+002 -2.2133e+001 48008 86787,86865,86839
 3.0000e+000 86940 -1.5164e+001 -1.0628e+002  2.2376e+001 48008 86709,86891,86865
 3.0000e+000 86917 -7.4036e+001 -1.2077e+002 -1.1780e+001 48008 86787,86839,86813
 3.0000e+000 87081 -4.4371e+001 -1.6773e+002 -1.5636e+001 48008 86865,86787,87055
 3.0000e+000 87104 -1.4572e+001 -1.1878e+002  3.1129e+001 48008 86865,87055,86709
 3.0000e+000 87153 -7.8015e+001 -2.1479e+002 -5.3637e+001 48008 86735,87055,87127
 3.0000e+000 87176 -1.3218e+002 -1.6174e+002 -4.8238e+001 48008 86735,87127,86761
 3.0000e+000 87456 -2.9916e+001 -1.3921e+002  3.2034e+001 47604 87306,87358,87332
 3.0000e+000 87433  3.1579e+001 -8.7359e+001  1.5290e+000 47604 87306,87384,87358
 3.0000e+000 87410 -2.3211e-001 -9.9941e+001  1.6037e+001 47604 87280,87384,87306
 3.0000e+000 87785 -4.2716e-001 -1.1019e+002  1.5743e+001 47264 87638,87690,87664
 3.0000e+000 87762 -3.6724e+001 -1.9239e+002  3.7923e+001 47264 87612,87690,87638
 3.0000e+000 87739 -3.9572e+001 -2.0427e+002  3.9306e+001 47264 87560,87690,87612
 3.0000e+000 87716 -3.5419e+001 -2.6036e+002  1.8325e+001 47264 87560,87612,87586
 3.0000e+000 87935  9.1730e+000 -6.8880e+001  1.4021e+000 46952 87808,87860,87834
 3.0000e+000 87912 -9.8223e+000 -1.1485e+002  3.0157e+000 46952 87808,87886,87860
 3.0000e+000 88281 -2.0819e+001 -1.5018e+002  1.5262e+001 46526 88304,88114,88036
 3.0000e+000 88258 -2.1361e+001 -1.4238e+002  1.8351e+001 46526 88304,88036,87984
 3.0000e+000 88235 -1.4794e+001 -1.4579e+002  9.8275e+000 46526 88036,88114,88062
 3.0000e+000 88212 -2.1378e+001 -1.3196e+002  2.2723e+001 46526 87958,88140,87984
 3.0000e+000 88189 -2.1103e+001 -1.4403e+002  3.9944e+001 46526 87984,88036,88010
 3.0000e+000 88166 -9.4444e+000 -1.1059e+002  2.9828e+001 46526 88062,88114,88088
 3.0000e+000 88330 -2.3625e+001 -1.4222e+002  1.3935e+001 46526 88140,88114,88304
 3.0000e+000 88353 -2.4400e+001 -1.3443e+002  1.5893e+001 46526 88140,88304,87984
 3.0000e+000 88701  3.2419e+001 -9.7559e+001  3.4160e+001 45822 88724,88378,88534
 3.0000e+000 88678  3.6756e+001 -4.3597e+001  4.0201e+001 45822 88378,88560,88534
 3.0000e+000 88655 -1.3956e+001 -1.1736e+002  3.6892e+001 45822 88724,88534,88508
 3.0000e+000 88632 -5.9974e+001 -1.5954e+002  1.2392e+001 45822 88404,88508,88456
 3.0000e+000 88609 -4.4350e+001 -1.3411e+002 -3.5423e+000 45822 88404,88456,88430
 3.0000e+000 88586 -1.8353e+001 -6.9514e+001 -3.6644e+001 45822 88456,88508,88482
 3.0000e+000 88750 -4.2871e+000 -8.2302e+001  6.5176e+000 45822 88404,88378,88724
 3.0000e+000 88773 -4.0154e+001 -9.6851e+001  8.3568e+000 45822 88404,88724,88508
 3.0000e+000 89106 -7.0545e+001 -1.1217e+002  3.1488e+001 45418 88881,88985,88907
 3.0000e+000 89083 -7.9211e+001 -1.4727e+002  4.1587e+001 45418 88881,89011,88985
 3.0000e+000 89060 -9.7368e+000 -1.0853e+002  2.8416e+001 45418 88907,88985,88933
 3.0000e+000 89037 -5.5102e+001 -1.0591e+002  6.9833e+000 45418 88933,88985,88959
 3.0000e+000 89435 -3.4046e+001 -1.2461e+002  3.6304e+001 44914 89210,89288,89236
 3.0000e+000 89412 -7.7673e+001 -1.8535e+002  5.9520e+001 44914 89210,89314,89288
 3.0000e+000 89389 -1.7790e+001 -1.3041e+002  3.4747e+001 44914 89210,89340,89314
 3.0000e+000 89366 -4.2564e+001 -1.3553e+002  4.8961e+001 44914 89236,89288,89262
 3.0000e+000 89634 -2.8559e+001 -1.2224e+002  4.2163e+001 44538 89510,89562,89536
 3.0000e+000 89611 -4.0500e+001 -8.1015e+001  7.4899e+000 44538 89458,89562,89510
 3.0000e+000 89588 -5.0235e+001 -1.3555e+002  1.3537e+001 44538 89458,89510,89484
 3.0000e+000 90044 -1.4476e+001 -7.5927e+001  9.3608e+000 44134 89819,89923,89845
 3.0000e+000 90021 -5.3645e+001 -7.2882e+001 -5.6324e+001 44134 89819,89949,89923
 3.0000e+000 89998 -6.5811e+000 -3.5101e+001  7.2746e+000 44134 89845,89923,89897
 3.0000e+000 89975 -3.9067e+001 -1.3494e+002  1.7292e+001 44134 89845,89897,89871
 3.0000e+000 90520 -1.7593e+001 -1.4129e+002  1.8485e+001 43457 90543,90252,90226
 3.0000e+000 90497 -5.7645e+000 -1.8861e+002 -1.2133e+001 43457 90543,90226,90330
 3.0000e+000 90474 -4.1950e+001 -1.9638e+002 -3.1989e+001 43457 90200,90330,90226
 3.0000e+000 90451 -6.5783e+001 -1.4260e+002  6.1154e+001 43457 90200,90356,90330
 3.0000e+000 90428 -5.6196e+000 -1.2678e+002 -1.0617e+001 43457 90252,90304,90278
 3.0000e+000 90405 -8.6107e+001 -1.2826e+002  5.3851e+001 43457 90174,90356,90200
 3.0000e+000 90382 -4.2112e+001 -5.3065e+001  8.0341e+001 43457 90148,90356,90174
 3.0000e+000 90569 -1.6374e+001 -1.8962e+002  4.3020e+000 43457 90304,90252,90543
 3.0000e+000 90592 -2.7316e+001 -2.6338e+002 -3.0045e+001 43457 90304,90543,90330
 3.0000e+000 91098 -6.3128e+000 -1.0772e+002 -1.4362e+001 42789 90801,90905,90853
 3.0000e+000 91075 -4.1143e+001 -1.4568e+002  6.9200e-001 42789 90775,90905,90801
 3.0000e+000 91052 -3.0147e+001 -1.5239e+002  2.5973e+001 42789 90775,90931,90905
 3.0000e+000 91029 -2.7738e+001 -1.8756e+002 -5.8163e-001 42789 90801,90853,90827
 3.0000e+000 91006  2.4351e+001 -9.9497e+001  1.4456e+001 42789 90853,90905,90879
 3.0000e+000 90983 -2.9433e+001 -1.3891e+002  2.5069e+001 42789 90775,90957,90931
 3.0000e+000 91427 -5.7966e+001 -1.8409e+002 -4.1067e+000 42227 91228,91280,91254
 3.0000e+000 91404  1.4671e+001 -1.7871e+002 -5.4967e+000 42227 91228,91306,91280
 3.0000e+000 91381 -5.6839e+001 -2.0042e+002  2.3036e+001 42227 91202,91306,91228
 3.0000e+000 91358  9.0702e+000 -1.3450e+002 -1.5546e+001 42227 91202,91332,91306
 3.0000e+000 91675 -2.5823e+001 -1.1484e+002  1.5371e+001 41773 91698,91476,91450
 3.0000e+000 91652 -1.4293e+001 -1.1379e+002  5.1185e+001 41773 91698,91450,91554
 3.0000e+000 91629 -4.1378e+001 -8.7714e+001  5.3969e+001 41773 91450,91580,91554
 3.0000e+000 91606 -1.6164e+001 -1.6465e+002  3.0613e+001 41773 91502,91554,91528
 3.0000e+000 91724 -5.3698e+001 -1.2464e+002  1.1320e+001 41773 91502,91476,91698
 3.0000e+000 91747 -4.8672e+001 -1.2623e+002  4.7642e+001 41773 91502,91698,91554
 3.0000e+000 92127 -1.1528e+002 -2.3196e+002  6.2993e+000 41255 92150,91905,91879
 3.0000e+000 92104 -6.3482e+001 -2.1020e+002 -1.4862e+001 41255 92150,91879,91957
 3.0000e+000 92081 -3.6387e+001 -2.9063e+002  5.2262e+001 41255 91853,91957,91879
 3.0000e+000 92058 -6.0913e+001 -3.4721e+002  4.6523e+001 41255 91853,91983,91957
 3.0000e+000 92035 -7.7781e+000 -2.8499e+002  2.1091e+001 41255 91853,92009,91983
 3.0000e+000 92176 -6.5125e+001 -2.6163e+002 -2.8193e+001 41255 91931,91905,92150
 3.0000e+000 92199  1.8677e+001 -1.9627e+002 -6.2201e+001 41255 91931,92150,91957
 3.0000e+000 92518 -7.4172e+001 -3.0029e+002 -2.7685e+001 41007 92244,92374,92270
 3.0000e+000 92495 -1.6345e+002 -3.2515e+002 -1.9032e+001 41007 92244,92400,92374
 3.0000e+000 92472 -4.0745e+001 -2.5385e+002 -4.7271e+000 41007 92270,92374,92348
 3.0000e+000 92449 -7.0155e+001 -1.4520e+002  2.0117e+001 41007 92296,92348,92322
 3.0000e+000 92426 -5.4205e+001 -1.8696e+002 -6.7077e+000 41007 92270,92348,92296
 3.0000e+000 92668 -6.5365e+001 -1.7405e+002 -2.5783e+001 40717 92823,92691,92567
 3.0000e+000 92645 -8.2488e+001 -1.5807e+002 -2.8792e+001 40717 92895,92823,92567
 3.0000e+000 92717 -1.0047e+001 -1.4985e+002 -2.1445e+001 40717 92593,92567,92691
 3.0000e+000 92849 -3.1693e+001 -1.5837e+002 -3.8577e+001 40717 92619,92691,92823
 3.0000e+000 92872 -6.4934e+001 -1.4997e+002 -1.6683e+001 40717 92619,92823,92541
 3.0000e+000 92921 -8.0569e+001 -1.7387e+002 -9.0312e+000 40717 92541,92823,92895
 3.0000e+000 93634 -9.9828e+001 -4.5646e+002 -2.1799e+001 40206 93366,93444,93418
 3.0000e+000 93611 -3.5465e+001 -1.7177e+002 -2.5395e+001 40206 93288,93444,93366
 3.0000e+000 93588 -1.4124e+002 -3.2076e+002  2.1221e+001 40206 93288,93366,93314
 3.0000e+000 93565 -9.5089e+001 -1.7839e+002  3.7811e-001 40206 93262,93444,93288
 3.0000e+000 93542 -3.9760e+001 -3.5659e+002  3.0955e+001 40206 93366,93418,93392
 3.0000e+000 93519 -9.0835e+001 -2.2741e+002  7.5472e+000 40206 93262,93470,93444
 3.0000e+000 93496 -5.0976e+001 -2.8282e+002  4.2907e+001 40206 93314,93366,93340
 3.0000e+000 94189 -3.8526e+001 -1.0926e+002  3.0148e+001 39802 93843,93999,93973
 3.0000e+000 94166  4.1223e+001 -5.8159e+001 -9.8664e+000 39802 93817,93999,93843
 3.0000e+000 94143 -1.5422e+001 -7.1765e+001  1.2951e+000 39802 93869,93973,93947
 3.0000e+000 94120 -8.7633e+000 -7.8869e+001  1.7863e+001 39802 93843,93973,93869
 3.0000e+000 94097 -1.0266e+001 -8.3145e+001  2.8674e+000 39802 93869,93921,93895
 3.0000e+000 94074 -4.2172e+000 -7.0402e+001 -2.1700e+000 39802 93869,93947,93921
 3.0000e+000 94051 -5.5224e+001 -9.8328e+001  2.7691e+001 39802 93817,94025,93999
 3.0000e+000 94290 -1.1018e+001 -8.8664e+001 -1.8078e+001 39398 94212,94264,94238
 3.0000e+000 94798 -2.2929e+001 -1.4629e+002 -9.5374e+000 38701 94501,94657,94631
 3.0000e+000 94775 -4.0718e+001 -1.1820e+002  9.4872e+000 38701 94475,94657,94501
 3.0000e+000 94752  3.3798e+001 -1.4535e+002 -2.8970e+001 38701 94579,94631,94605
 3.0000e+000 94729 -2.9683e+001 -2.6391e+002 -5.3685e+001 38701 94553,94631,94579
 3.0000e+000 94706 -6.4725e+001 -2.5547e+002  1.6802e+001 38701 94501,94631,94553
 3.0000e+000 94683 -3.6432e+001 -4.4984e+002  6.1655e+000 38701 94501,94553,94527
 3.0000e+000 95255 -7.7783e+001 -2.1641e+002 -1.4142e+001 38247 95278,95085,95007
 3.0000e+000 95232 -4.8615e+001 -2.0606e+002 -1.4969e+001 38247 95278,95007,95137
 3.0000e+000 95209 -2.4622e+001 -1.6060e+002 -5.9401e+000 38247 94981,95137,95007
 3.0000e+000 95186 -5.4495e+001 -1.5289e+002 -2.4648e+001 38247 95007,95059,95033
 3.0000e+000 95163 -5.7858e+001 -1.6669e+002 -3.5655e+001 38247 95007,95085,95059
 3.0000e+000 95304 -8.7108e+001 -2.1461e+002  1.0298e+001 38247 95111,95085,95278
 3.0000e+000 95327 -6.1266e+001 -2.0287e+002  6.4005e+000 38247 95111,95278,95137
 3.0000e+000 95575 -2.5841e+001 -2.7986e+001 -5.7727e+000 37564 95376,95428,95402
 3.0000e+000 95552 -1.2176e+001 -6.6913e+001 -8.9427e+000 37564 95376,95454,95428
 3.0000e+000 95529  1.6304e+001 -4.8710e+001  2.1593e+000 37564 95376,95480,95454
 3.0000e+000 95506  7.0108e+001 -1.0386e+002 -5.7552e+000 37564 95350,95480,95376
 3.0000e+000 96034 -6.5812e+001 -2.7391e+002 -2.3377e+001 37224 95786,95838,95812
 3.0000e+000 96011 -3.0410e+001 -2.0068e+002 -1.2156e+001 37224 95786,95890,95838
 3.0000e+000 95988 -6.3142e+001 -1.8182e+002 -3.7114e+000 37224 95786,95916,95890
 3.0000e+000 95965 -1.1563e+000 -1.3380e+002 -3.9684e+001 37224 95760,95916,95786
 3.0000e+000 95942  6.7012e+000 -2.2783e+002 -5.8177e+001 37224 95838,95890,95864
 3.0000e+000 96363 -3.7661e+000 -3.0169e+001 -1.4214e+001 36884 96216,96268,96242
 3.0000e+000 96340  1.5948e+001 -3.7256e+001 -1.6607e+001 36884 96164,96268,96216
 3.0000e+000 96317  5.5333e+001 -2.5990e+001 -1.4736e+001 36884 96138,96268,96164
 3.0000e+000 96294  7.4806e+000 -5.0818e+001 -7.2305e+000 36884 96164,96216,96190
 3.0000e+000 96839 -5.2950e+001 -2.3430e+002  3.2925e+001 36572 96862,96649,96597
 3.0000e+000 96816 -2.2661e+001 -2.0183e+002  1.9908e+001 36572 97006,96862,96597
 3.0000e+000 96793 -2.1187e+001 -1.3671e+002 -1.5181e+001 36572 96934,96467,96675
 3.0000e+000 96770 -2.2087e+001 -1.9713e+002  1.5278e+001 36572 97006,96597,96571
 3.0000e+000 96747 -5.4262e+001 -2.3124e+002  2.5568e+001 36572 96467,96519,96493
 3.0000e+000 96724 -7.2906e+000 -1.7639e+002  1.0618e+001 36572 96519,96571,96545
 3.0000e+000 96701 -7.3770e+001 -1.8785e+002 -1.4671e+001 36572 96597,96649,96623
 3.0000e+000 96888 -2.4112e+001 -2.4016e+002 -1.4412e+001 36572 96675,96649,96862
 3.0000e+000 96911 -5.0510e+000 -1.9280e+002 -1.9144e+001 36572 96934,96675,96862
 3.0000e+000 96960 -4.3605e+001 -1.8771e+002 -2.8618e+000 36572 96519,96467,96934
 3.0000e+000 96983 -1.8103e+001 -2.3053e+002  1.9074e-001 36572 97078,96934,96862
 3.0000e+000 97032 -2.6214e+001 -2.2153e+002  1.7726e+001 36572 97078,96862,97006
 3.0000e+000 97055 -2.1650e+001 -2.0047e+002  1.6756e+001 36572 96519,97006,96571
 3.0000e+000 97104 -6.8563e+000 -2.0452e+002 -8.6635e-001 36572 96519,96934,97078
 3.0000e+000 97127 -1.4186e+001 -1.9564e+002  1.3801e+001 36572 96519,97078,97006
 3.0000e+000 97761 -4.7387e+001 -2.0702e+002 -1.7288e+001 36118 97784,97493,97415
 3.0000e+000 97738 -4.0109e+001 -2.3016e+002  2.6232e+000 36118 97784,97415,97597
 3.0000e+000 97715 -3.3016e+001 -2.4664e+002 -2.6949e+001 36118 97389,97597,97415
 3.0000e+000 97692 -8.4968e+001 -2.6424e+002  3.5593e+001 36118 97415,97467,97441
 3.0000e+000 97669 -1.0162e+002 -2.4816e+002  1.5035e+001 36118 97415,97493,97467
 3.0000e+000 97646 -8.5053e+001 -1.3756e+002 -2.2364e+000 36118 97493,97571,97519
 3.0000e+000 97623 -7.1833e+001 -1.7194e+002  3.1975e+001 36118 97519,97571,97545
 3.0000e+000 97810 -4.5750e+001 -1.7501e+002 -2.2538e+001 36118 97571,97493,97784
 3.0000e+000 97833 -4.4554e+001 -1.9646e+002  3.7865e+000 36118 97571,97784,97597
 3.0000e+000 98081 -5.4886e+001 -1.9101e+002  3.0181e+000 35564 98104,97908,97856
 3.0000e+000 98058 -5.6018e+001 -1.8776e+002  4.2372e+000 35564 98104,97856,97986
 3.0000e+000 98035 -9.7503e-001 -2.1141e+002  3.2203e+001 35564 97934,97986,97960
 3.0000e+000 98012 -6.2556e+001 -2.1610e+002  1.9940e+001 35564 97856,97908,97882
 3.0000e+000 98130 -5.8943e+001 -2.0108e+002  8.7631e-001 35564 97934,97908,98104
 3.0000e+000 98153 -5.4950e+001 -1.9092e+002  3.0358e+000 35564 97934,98104,97986
 3.0000e+000 98374 -1.0867e+002 -1.8797e+002  1.1432e+000 35152 98224,98302,98276
 3.0000e+000 98351 -1.4473e+002 -2.8166e+002  1.3456e+001 35152 98198,98302,98224
 3.0000e+000 98328 -1.2176e+002 -1.8754e+002  2.1676e+000 35152 98224,98276,98250
 3.0000e+000 98884 -6.9664e+000 -1.2719e+002 -2.9148e+001 34698 98691,98743,98717
 3.0000e+000 98861 -2.1256e+001 -1.5156e+002 -4.4193e+001 34698 98561,98743,98691
 3.0000e+000 98838 -4.2687e+001 -1.3622e+002 -4.8933e+001 34698 98907,98587,98561
 3.0000e+000 98815 -5.8871e+001 -1.6025e+002 -3.3320e+001 34698 98907,98561,98691
 3.0000e+000 98792 -7.5337e+001 -1.5596e+002 -2.9193e+001 34698 98587,98639,98613
 3.0000e+000 98769 -5.9269e+001 -1.1955e+002 -3.2272e+001 34698 98587,98665,98639
 3.0000e+000 98933 -5.0754e+001 -1.5006e+002 -2.4342e+001 34698 98665,98587,98907
 3.0000e+000 98956 -7.5710e+001 -1.8855e+002 -7.2904e+000 34698 98665,98907,98691
 3.0000e+000 99204 -1.2132e+000 -1.8606e+002 -1.6775e+001 34144 99227,99031,99005
 3.0000e+000 99181 -1.4533e+001 -1.7730e+002 -3.0067e+001 34144 99299,99227,99005
 3.0000e+000 99158 -1.4298e+001 -1.7477e+002 -2.6267e+001 34144 99299,99005,99109
 3.0000e+000 99135 -1.7643e+001 -1.3269e+002 -1.3270e+001 34144 98979,99109,99005
 3.0000e+000 99253 -9.8430e+000 -2.1327e+002 -1.7333e+001 34144 99057,99031,99227
 3.0000e+000 99276 -1.6514e+001 -1.8611e+002 -3.0726e+001 34144 99057,99227,99083
 3.0000e+000 99325 -1.3186e+001 -1.7093e+002 -2.6823e+001 34144 99083,99227,99299
 3.0000e+000 99348 -9.6543e+000 -1.6703e+002 -2.2301e+001 34144 99083,99299,99109
 3.0000e+000 99498 -4.6675e+000 -7.9012e+001  2.0291e+001 33433 99397,99449,99423
 3.0000e+000 99475 -2.6020e+001 -3.8362e+001 -3.2918e-001 33433 99371,99449,99397
 3.0000e+000 100008 -3.1616e+001 -1.1251e+002 -1.8116e+001 32979 100103,100031,99815
 3.0000e+000 99985 -4.6954e+001 -1.4161e+002 -2.7166e+001 32979 100175,100031,99763
 3.0000e+000 99962 -9.1086e+000 -1.3661e+002 -4.1607e+001 32979 100103,99815,99789
 3.0000e+000 99939 -5.0376e+001 -1.6875e+002 -3.0723e+001 32979 100175,99763,99737
 3.0000e+000 99916 -5.1755e+001 -1.5371e+002 -2.0553e+001 32979 99685,99867,99737
 3.0000e+000 99893 -7.2430e+001 -2.5102e+002 -3.3042e+001 32979 99685,99737,99711
 3.0000e+000 100057 -2.9615e+001 -1.1661e+002 -5.2035e+000 32979 99841,99815,100031
 3.0000e+000 100080 -2.3189e+001 -7.6176e+001 -2.8749e+001 32979 99841,100031,99867
 3.0000e+000 100129 -3.6866e+001 -1.6179e+002 -1.3873e+001 32979 99763,100031,100103
 3.0000e+000 100152 -2.5927e+001 -2.0066e+002 -3.9798e+001 32979 99763,100103,99789
 3.0000e+000 100201 -4.6913e+001 -1.2731e+002 -1.3256e+001 32979 99867,100031,100175
 3.0000e+000 100224 -4.9123e+001 -1.4324e+002 -2.1205e+001 32979 99867,100175,99737
 3.0000e+000 100553 -1.3687e+001 -1.1085e+002 -2.4660e+001 32503 100354,100406,100380
 3.0000e+000 100530  1.2003e+001 -1.4198e+002  7.9860e+000 32503 100328,100406,100354
 3.0000e+000 100507 -3.1688e+001 -2.1808e+002  3.1564e+001 32503 100328,100458,100406
 3.0000e+000 100484 -2.7109e+001 -2.7048e+002  3.5066e+001 32503 100406,100458,100432
 3.0000e+000 100850 -6.0336e+001 -2.4079e+002 -1.5249e+001 31899 100873,100654,100628
 3.0000e+000 100827 -4.8322e+001 -2.3718e+002 -1.5136e+001 31899 100945,100873,100628
 3.0000e+000 100804 -4.1360e+001 -2.0951e+002 -1.1777e+001 31899 100945,100628,100602
 3.0000e+000 100781 -5.0155e+001 -1.4706e+002 -1.4146e+001 31899 100576,100732,100602
 3.0000e+000 100758 -1.0457e+002 -2.0548e+002 -1.0694e+002 31899 100654,100706,100680
 3.0000e+000 100899 -4.0076e+001 -2.3919e+002 -2.1153e+001 31899 100706,100654,100873
 3.0000e+000 100922 -9.5099e+001 -2.3868e+002 -4.6820e+001 31899 100706,100873,100732
 3.0000e+000 100971 -7.5283e+001 -1.9490e+002 -3.1295e+001 31899 100732,100873,100945
 3.0000e+000 100994 -6.5977e+001 -1.6409e+002 -2.6287e+001 31899 100732,100945,100602
 3.0000e+000 101551 -4.0564e+001 -1.7446e+002 -2.2098e+001 31338 101205,101387,101231
 3.0000e+000 101528 -1.1641e+000 -1.5716e+002  4.0681e+000 31338 101179,101387,101205
 3.0000e+000 101505 -5.2885e+001 -1.5357e+002  2.6736e+001 31338 101574,101309,101257
 3.0000e+000 101482 -5.6544e+001 -1.9348e+002  1.3053e+001 31338 101646,101574,101257
 3.0000e+000 101459 -5.7997e+001 -1.6236e+002  3.5758e-001 31338 101646,101257,101231
 3.0000e+000 101436 -6.8374e+001 -2.1502e+002  1.7616e+001 31338 101309,101361,101335
 3.0000e+000 101413 -1.0327e+001 -1.3599e+002  2.4924e+001 31338 101257,101309,101283
 3.0000e+000 101600 -5.4067e+001 -1.9266e+002  2.4074e+001 31338 101361,101309,101574
 3.0000e+000 101623 -5.3148e+001 -2.3238e+002 -1.3280e+001 31338 101361,101574,101387
 3.0000e+000 101672 -3.0418e+001 -1.7015e+002 -5.6943e+000 31338 101387,101574,101646
 3.0000e+000 101695 -4.4248e+001 -1.5832e+002 -1.7566e+001 31338 101387,101646,101231
 3.0000e+000 101943 -1.3647e+001 -1.9359e+002 -1.0105e+001 30748 101966,101796,101744
 3.0000e+000 101920  2.9080e+000 -1.9084e+002 -7.0101e+000 30748 101966,101744,101718
 3.0000e+000 101897 -2.9383e+001 -1.9631e+002  1.9639e+001 30748 101718,101848,101822
 3.0000e+000 101874 -5.2416e+001 -1.9173e+002 -2.6153e+001 30748 101744,101796,101770
 3.0000e+000 101992 -2.2376e+001 -1.8692e+002 -6.7975e+000 30748 101822,101796,101966
 3.0000e+000 102015 -1.1365e+001 -1.8853e+002 -4.1261e+000 30748 101822,101966,101718
 3.0000e+000 102493 -9.3699e+001 -2.1126e+002 -8.4275e+000 30344 102516,102173,102147
 3.0000e+000 102470 -7.5768e+001 -1.8499e+002 -1.8136e+001 30344 102660,102516,102147
 3.0000e+000 102447 -6.0600e+001 -2.0122e+002 -1.9026e+001 30344 102588,102199,102173
 3.0000e+000 102424 -4.6461e+001 -1.8095e+002 -2.2763e+001 30344 102660,102147,102329
 3.0000e+000 102401 -4.1815e+001 -2.0610e+002 -5.3063e+001 30344 102199,102277,102251
 3.0000e+000 102378 -1.7975e+001 -1.5295e+002 -8.6942e+001 30344 102199,102251,102225
 3.0000e+000 102355 -8.6168e-001 -1.5417e+002  1.2099e+001 30344 102121,102329,102147
 3.0000e+000 102542 -6.4996e+001 -1.9861e+002 -1.9619e+001 30344 102588,102173,102516
 3.0000e+000 102565 -1.0221e+002 -2.1503e+002 -5.4624e+000 30344 102277,102516,102303
 3.0000e+000 102614 -6.5196e+001 -2.0212e+002 -1.9930e+001 30344 102277,102199,102588
 3.0000e+000 102637 -7.0953e+001 -2.0148e+002 -2.1622e+001 30344 102277,102588,102516
 3.0000e+000 102686 -4.2364e+001 -1.9148e+002 -4.1333e+000 30344 102303,102516,102660
 3.0000e+000 102709 -2.5267e+001 -1.9629e+002 -6.4199e+000 30344 102303,102660,102329
 3.0000e+000 103294 -2.3209e+001 -2.1325e+002  9.6713e+000 29726 103317,103101,103075
 3.0000e+000 103271  5.5486e-001 -1.3816e+002  1.8815e+001 29726 103317,103075,102997
 3.0000e+000 103248 -2.9566e+001 -1.2661e+002 -3.3723e+001 29726 102971,103153,102997
 3.0000e+000 103225 -5.8428e+001 -2.1555e+002 -1.0329e+001 29726 103101,103153,103127
 3.0000e+000 103202 -3.9236e+001 -2.5648e+002  2.6088e+001 29726 102997,103075,103023
 3.0000e+000 103179 -5.6430e+001 -1.8706e+002 -4.1768e+001 29726 103023,103075,103049
 3.0000e+000 103343 -3.1138e+001 -1.4772e+002 -1.9278e+000 29726 103153,103101,103317
 3.0000e+000 103366 -3.1378e+001 -1.0729e+002 -1.2627e-002 29726 103153,103317,102997
 3.0000e+000 103614  3.2396e+001 -1.0609e+002 -2.0835e+001 29200 103781,103637,103467
 3.0000e+000 103591 -4.1827e+001 -1.4665e+002  2.7324e+001 29200 103709,103637,103415
 3.0000e+000 103568 -6.0393e+001 -1.4086e+002  1.2833e+001 29200 103709,103415,103389
 3.0000e+000 103545  1.8650e+001 -6.3974e+001 -5.5549e+001 29200 103781,103467,103441
 3.0000e+000 103663  4.2338e+001 -1.3352e+002  6.6441e+000 29200 103853,103637,103493
 3.0000e+000 103686  3.0082e+001 -6.5278e+001  8.7181e+000 29200 103493,103637,103519
 3.0000e+000 103735 -9.2909e+000 -1.4494e+002  2.7895e+001 29200 103519,103637,103709
 3.0000e+000 103758 -3.1091e+001 -1.3945e+002  1.5988e+001 29200 103519,103709,103389
 3.0000e+000 103807  1.4759e+001 -1.8497e+002 -6.8485e+000 29200 103415,103637,103781
 3.0000e+000 103830  6.4916e+000 -1.5690e+002 -5.5075e+001 29200 103415,103781,103441
 3.0000e+000 103879  6.5359e+000 -1.3509e+002 -9.7340e+000 29200 103467,103637,103853
 3.0000e+000 104545 -1.7269e+001 -1.2854e+002 -2.1489e+001 28860 104274,104352,104326
 3.0000e+000 104522 -6.3019e+001 -1.3287e+002 -1.7955e+001 28860 104248,104352,104274
 3.0000e+000 104499 -4.5178e+001 -1.2610e+002 -1.7687e+001 28860 104248,104404,104352
 3.0000e+000 104476 -1.0431e+002 -1.1923e+002 -2.1945e+001 28860 104222,104404,104248
 3.0000e+000 104453 -2.0982e+001 -9.1966e+001 -2.9169e+001 28860 104352,104404,104378
 3.0000e+000 104430 -4.3636e+001 -1.3995e+002 -1.8728e+001 28860 104274,104326,104300
 3.0000e+000 104744  9.9167e-001 -1.8631e+002 -4.5546e+001 28456 104839,104767,104646
 3.0000e+000 104721 -8.7733e+001 -2.5191e+002 -2.4879e+001 28456 104767,104594,104568
 3.0000e+000 104698 -9.2879e+000 -1.5443e+002 -2.2644e+001 28456 104839,104646,104620
 3.0000e+000 104793 -2.2502e+001 -2.1352e+002 -2.5984e+001 28456 104672,104646,104767
 3.0000e+000 104816 -1.0494e+002 -2.7546e+002  2.0737e+001 28456 104911,104767,104568
 3.0000e+000 104865 -4.2171e+001 -2.2011e+002 -9.3309e+000 28456 104594,104767,104839
 3.0000e+000 104888  1.6662e+001 -2.2075e+001 -2.2666e+001 28456 105041,104839,104620
 3.0000e+000 104937 -6.6987e+000 -1.3532e+002 -2.7850e+001 28456 104672,104767,104911
 3.0000e+000 105067 -3.6160e+001 -2.0791e+002 -3.6650e+001 28456 104594,104839,105041
 3.0000e+000 105573 -4.6612e+001 -2.0879e+002 -1.7779e+001 28094 105812,105596,105328
 3.0000e+000 105550 -4.8254e+001 -1.7969e+002  3.8613e+000 28094 105596,105276,105250
 3.0000e+000 105527 -1.9438e+001 -2.3694e+002 -1.3822e+001 28094 105740,105668,105432
 3.0000e+000 105504 -3.5861e+001 -2.6269e+002 -5.7416e+000 28094 105740,105432,105380
 3.0000e+000 105481 -3.0588e+001 -2.1985e+002 -8.8592e+000 28094 105812,105328,105302
 3.0000e+000 105458 -6.5360e+001 -2.4166e+002 -6.8474e+000 28094 105380,105432,105406
 3.0000e+000 105622 -1.5474e+001 -1.4279e+002 -3.0693e+001 28094 105354,105328,105596
 3.0000e+000 105645 -1.0724e+001 -1.4681e+002  2.0256e+001 28094 105668,105354,105596
 3.0000e+000 105694 -1.6298e+000 -1.7491e+002 -2.1067e+001 28094 105250,105432,105668
 3.0000e+000 105717 -5.0450e+001 -2.1638e+002  3.5734e+000 28094 105250,105668,105596
 3.0000e+000 105766 -4.2371e+001 -2.1753e+002  3.9231e+001 28094 105354,105668,105740
 3.0000e+000 105789 -6.5686e+001 -2.6301e+002  4.8813e+001 28094 105354,105740,105380
 3.0000e+000 105838 -3.2699e+001 -1.8650e+002 -1.1337e+001 28094 105276,105596,105812
 3.0000e+000 105861  6.1606e+000 -1.8902e+002  1.3284e+001 28094 105276,105812,105302
 3.0000e+000 106367 -7.6538e+001 -2.5024e+002 -2.0601e+001 27390 106070,106122,106096
 3.0000e+000 106344 -4.9044e+001 -2.6687e+002 -2.8064e+001 27390 106070,106226,106122
 3.0000e+000 106321 -1.4101e+001 -2.6824e+002 -1.4967e+001 27390 106174,106226,106200
 3.0000e+000 106298 -3.2014e+001 -2.5384e+002 -1.1896e+001 27390 106122,106226,106174
 3.0000e+000 106275 -4.3257e+001 -2.5342e+002  2.3305e+001 27390 106122,106174,106148
 3.0000e+000 106252 -9.2368e+001 -2.9068e+002 -4.4671e+001 27390 106044,106226,106070
 3.0000e+000 106615 -3.3926e+001 -2.0962e+002 -5.5345e+000 26978 106638,106494,106416
 3.0000e+000 106592 -3.5452e+001 -2.2043e+002 -8.3679e+000 26978 106638,106416,106390
 3.0000e+000 106569 -2.9325e+001 -2.0284e+002  6.7659e+000 26978 106416,106494,106442
 3.0000e+000 106546 -3.4324e+000 -2.1368e+002 -5.2504e+000 26978 106442,106494,106468
 3.0000e+000 106664 -2.3635e+001 -2.2119e+002 -8.9008e-001 26978 106520,106494,106638
 3.0000e+000 106687 -2.8373e+001 -2.3356e+002 -7.3307e+000 26978 106520,106638,106390
 3.0000e+000 106837  1.9388e+000 -5.1446e+002 -3.6657e-001 26524 106710,106762,106736
 3.0000e+000 106814  3.6051e-001 -5.2392e+002  2.9511e-001 26524 106710,106788,106762
 3.0000e+000 107426 -8.5934e+001 -1.8897e+002  2.6492e+001 26120 107129,107207,107155
 3.0000e+000 107403 -6.5743e+001 -1.6667e+002  1.7667e+001 26120 107129,107285,107207
 3.0000e+000 107380 -8.6969e+001 -1.9235e+002  4.7322e-001 26120 107207,107285,107259
 3.0000e+000 107357  3.6618e+000 -1.4159e+002  5.8205e+000 26120 107155,107207,107181
 3.0000e+000 107334 -5.7044e+001 -1.6125e+002  2.1423e+001 26120 107103,107285,107129
 3.0000e+000 107311 -8.0914e+001 -1.8304e+002  3.9834e+000 26120 107207,107259,107233
 3.0000e+000 107755 -4.4164e+001 -1.5855e+002  2.2774e+000 25758 107556,107634,107608
 3.0000e+000 107732 -8.9775e+000 -1.1567e+002 -1.3473e+001 25758 107556,107660,107634
 3.0000e+000 107709 -7.4719e+001 -1.4601e+002 -2.7852e+001 25758 107556,107608,107582
 3.0000e+000 107686 -1.3981e+001 -2.6023e+001  1.1965e+001 25758 107530,107660,107556
 3.0000e+000 108438 -7.4645e+001 -2.5831e+002 -5.7631e+000 25468 108121,108199,108173
 3.0000e+000 108415 -1.2233e+001 -1.1245e+002 -1.0263e+001 25468 108095,108199,108121
 3.0000e+000 108392 -1.2091e+001 -1.2907e+002 -1.0909e+001 25468 108095,108251,108199
 3.0000e+000 108369 -4.3489e+001 -1.6124e+002  6.9158e+000 25468 108069,108251,108095
 3.0000e+000 108346 -4.2795e+001 -1.3867e+002 -2.7480e+001 25468 108199,108251,108225
 3.0000e+000 108323 -1.3055e+001 -1.8722e+002  2.9028e+001 25468 108017,108251,108069
 3.0000e+000 108300 -7.6931e+001 -1.4874e+002 -2.2531e+001 25468 108121,108173,108147
 3.0000e+000 108277  2.3865e+000 -1.7290e+002  1.9258e+001 25468 108017,108069,108043
 3.0000e+000 108588 -4.8270e+001 -2.1600e+002 -5.6385e+001 25064 108611,108513,108487
 3.0000e+000 108565 -1.1658e+002 -1.9340e+002 -3.1170e+001 25064 108683,108611,108487
 3.0000e+000 108637 -2.0386e+001 -1.7984e+002 -6.9302e+001 25064 108539,108513,108611
 3.0000e+000 108660 -3.8750e+001 -1.4951e+002 -4.3309e+001 25064 108539,108611,108461
 3.0000e+000 108709 -3.7788e+001 -1.3961e+002 -5.4573e+001 25064 108461,108611,108683
 3.0000e+000 109345 -1.5060e+002 -2.6078e+002  7.1128e+001 24410 108999,109155,109103
 3.0000e+000 109322 -9.8588e+001 -2.6777e+002  2.3150e+001 24410 108973,109155,108999
 3.0000e+000 109299 -4.5316e+001 -3.7747e+002  1.0145e+002 24410 109103,109155,109129
 3.0000e+000 109276 -1.3322e+002 -2.4813e+002  1.6785e+001 24410 108973,109181,109155
 3.0000e+000 109253 -9.4090e+001 -2.0904e+002  4.4811e+001 24410 109025,109103,109077
 3.0000e+000 109230 -1.5781e+002 -2.2374e+002  6.1167e+001 24410 108999,109103,109025
 3.0000e+000 109207 -7.5789e+001 -1.9222e+002  3.7773e+001 24410 109025,109077,109051
 3.0000e+000 109723 -6.4533e+001 -2.1649e+002  2.2612e+000 23856 109475,109579,109553
 3.0000e+000 109700 -8.0682e+001 -2.1990e+002  1.1343e+001 23856 109475,109605,109579
 3.0000e+000 109677 -8.5014e+001 -2.7656e+002  2.6536e+001 23856 109475,109553,109527
 3.0000e+000 109654 -7.4633e+001 -2.1698e+002 -1.3021e+000 23856 109449,109605,109475
 3.0000e+000 109631  1.4314e+001 -2.5238e+002  3.5749e+001 23856 109475,109527,109501
 3.0000e+000 110101 -4.5937e+001 -2.0713e+002 -3.2709e+001 23566 109853,109931,109879
 3.0000e+000 110078 -2.2851e+001 -1.9004e+002 -2.2594e+001 23566 109827,109931,109853
 3.0000e+000 110055 -4.8781e+001 -2.0544e+002 -1.4192e+001 23566 109827,109983,109931
 3.0000e+000 110032 -9.0993e+000 -1.9056e+002 -2.8096e+001 23566 109879,109931,109905
 3.0000e+000 110009 -3.5056e+001 -1.7019e+002 -1.5531e+001 23566 109931,109983,109957
 3.0000e+000 110735 -5.0791e+001 -1.2954e+002 -1.6129e+001 23162 110415,110571,110519
 3.0000e+000 110712 -7.8119e+001 -1.6931e+002 -2.8265e+001 23162 110389,110571,110415
 3.0000e+000 110689 -3.5715e+001 -1.2385e+002 -1.8588e+001 23162 110415,110519,110493
 3.0000e+000 110666 -6.8302e+001 -1.4452e+002  4.6042e+000 23162 110363,110571,110389
 3.0000e+000 110643  2.9787e+001 -7.8815e+001  3.2920e+001 23162 110441,110493,110467
 3.0000e+000 110620 -2.0041e+001 -1.3339e+002 -1.5526e+001 23162 110415,110493,110441
 3.0000e+000 110597 -5.0747e+001 -1.4985e+002 -1.7619e+001 23162 110519,110571,110545
 3.0000e+000 111211 -7.3012e+001 -2.2493e+002 -2.3172e+001 22708 111378,111306,111021
 3.0000e+000 111188 -1.6775e+001 -2.1541e+002 -7.9416e+000 22708 111234,110969,110917
 3.0000e+000 111165 -6.5924e+001 -2.1343e+002 -1.5778e+001 22708 111450,111234,110917
 3.0000e+000 111142 -7.2723e+001 -2.0223e+002 -5.4946e+001 22708 111378,111021,110995
 3.0000e+000 111119 -7.2798e+001 -2.1018e+002 -3.5705e+001 22708 111450,110917,110865
 3.0000e+000 111096  2.2746e+001 -2.6077e+002  2.0870e+001 22708 110917,110969,110943
 3.0000e+000 111073 -4.7243e+001 -3.2140e+002 -9.2173e+001 22708 110865,110917,110891
 3.0000e+000 111260 -2.6142e+000 -2.1277e+002 -2.2010e+001 22708 111306,110969,111234
 3.0000e+000 111283 -2.8012e+001 -1.8564e+002 -1.6522e+001 22708 111047,111234,110839
 3.0000e+000 111332 -4.7045e+000 -2.7338e+002  2.3731e+001 22708 111047,111021,111306
 3.0000e+000 111355 -2.9453e+001 -2.2344e+002 -2.6220e+001 22708 111047,111306,111234
 3.0000e+000 111404 -4.0387e+000 -1.9026e+002 -4.4487e+001 22708 110969,111306,111378
 3.0000e+000 111427 -2.2767e+001 -1.8106e+002 -5.9292e+001 22708 110969,111378,110995
 3.0000e+000 111476 -3.4517e+001 -2.0412e+002 -1.4566e+001 22708 110839,111234,111450
 3.0000e+000 111499 -3.5118e+001 -1.9910e+002 -3.6401e+001 22708 110839,111450,110865
 3.0000e+000 111600 -4.0144e+001 -1.5993e+002  1.2457e+000 22460 111522,111574,111548
 3.0000e+000 112059 -2.8638e+001 -1.4366e+002 -1.1982e+001 22056 111811,111889,111863
 3.0000e+000 112036  2.1943e+000 -1.3391e+002 -1.7486e+001 22056 111811,111915,111889
 3.0000e+000 112013 -1.8393e+001 -1.4039e+002 -1.6473e+001 22056 111785,111915,111811
 3.0000e+000 111990 -1.4632e+001 -1.1729e+002 -3.7870e+001 22056 111785,111941,111915
 3.0000e+000 111967 -5.5028e+001 -1.6374e+002  1.8064e+000 22056 111811,111863,111837
 3.0000e+000 112486  1.1550e+001 -1.3570e+002 -1.2107e+001 21594 112509,112267,112215
 3.0000e+000 112463 -3.3599e+001 -1.5837e+002  7.5208e+000 21594 112509,112215,112163
 3.0000e+000 112440 -8.3666e+000 -9.1152e+001 -6.1851e+001 21594 112581,112293,112267
 3.0000e+000 112417 -4.7034e+001 -1.4569e+002  6.8284e+000 21594 112215,112267,112241
 3.0000e+000 112394  1.8948e+001 -1.4521e+002  6.9094e+000 21594 112163,112345,112319
 3.0000e+000 112371 -4.1910e+001 -1.6060e+002  1.0954e-001 21594 112163,112215,112189
 3.0000e+000 112535  2.4301e+001 -1.2051e+002 -3.2168e+001 21594 112581,112267,112509
 3.0000e+000 112558 -9.3511e+000 -1.3085e+002 -4.1734e+000 21594 112319,112509,112163
 3.0000e+000 112607 -6.6376e+001 -1.2007e+002 -5.2160e+001 21594 112319,112293,112581
 3.0000e+000 112630 -3.3870e+001 -1.5552e+002 -1.7061e+001 21594 112319,112581,112509
 3.0000e+000 112900 -5.5234e+001 -1.9833e+002 -2.1407e+000 20974 112675,112779,112701
 3.0000e+000 112877 -2.9676e+001 -1.9278e+002 -3.3416e+000 20974 112675,112805,112779
 3.0000e+000 112854 -5.6441e+000 -1.6804e+002  1.3298e+001 20974 112701,112779,112753
 3.0000e+000 112831 -2.1264e+001 -8.1295e+001 -4.1722e+001 20974 112701,112753,112727
 3.0000e+000 113359 -9.0490e+000 -1.7895e+002 -2.5060e+001 20520 113454,113137,113111
 3.0000e+000 113336  1.5785e+001 -1.9177e+002 -3.6218e+001 20520 113454,113111,113085
 3.0000e+000 113313  1.9382e+001 -6.4712e+001  4.3395e+001 20520 113382,113163,113137
 3.0000e+000 113290 -1.1145e+001 -1.9638e+002 -1.6837e+001 20520 113526,113382,113137
 3.0000e+000 113267 -5.0318e+001 -3.0109e+002 -1.5441e+001 20520 113189,113241,113215
 3.0000e+000 113408 -4.1161e+001 -1.9998e+002  2.5357e+001 20520 113189,113163,113382
 3.0000e+000 113431 -2.5101e+001 -2.2748e+002 -3.8430e+001 20520 113189,113382,113241
 3.0000e+000 113480 -1.4010e+001 -1.9315e+002 -1.8590e+001 20520 113526,113137,113454
 3.0000e+000 113503  3.0914e-001 -2.1355e+002 -2.8584e+001 20520 113241,113454,113085
 3.0000e+000 113552 -5.5680e+000 -1.9183e+002 -1.8796e+001 20520 113241,113382,113526
 3.0000e+000 113575 -8.0247e+000 -1.8882e+002 -2.0499e+001 20520 113241,113526,113454
 3.0000e+000 113904 -4.2497e+001 -2.2232e+002  5.7700e+000 19858 113705,113783,113757
 3.0000e+000 113881 -1.8918e+001 -1.8826e+002 -4.7083e+000 19858 113705,113809,113783
 3.0000e+000 113858  4.3140e+001 -1.5170e+002 -4.1872e+001 19858 113679,113809,113705
 3.0000e+000 113835 -2.3428e+001 -1.4556e+002  5.3022e+001 19858 113705,113757,113731
 3.0000e+000 114152 -6.2883e+001 -1.4403e+002 -1.6981e+001 19454 114175,114005,113979
 3.0000e+000 114129 -6.3992e+001 -1.4440e+002 -1.7400e+001 19454 114175,113979,114057
 3.0000e+000 114106 -7.5863e+001 -1.6853e+002 -1.1104e+001 19454 113927,114057,113979
 3.0000e+000 114083 -4.1965e+001 -1.5090e+002 -3.6228e+001 19454 113927,113979,113953
 3.0000e+000 114201 -3.6563e+001 -1.3289e+002 -1.1257e+001 19454 114031,114005,114175
 3.0000e+000 114224 -6.2906e+001 -1.4604e+002 -1.7227e+001 19454 114031,114175,114057
 3.0000e+000 114472 -5.4582e+001 -2.3936e+002 -7.8056e+000 19000 114495,114273,114247
 3.0000e+000 114449 -6.5419e+001 -2.5308e+002 -1.2877e+001 19000 114495,114247,114325
 3.0000e+000 114426 -9.0682e+001 -2.5658e+002  9.4941e+000 19000 114247,114377,114325
 3.0000e+000 114403 -1.0817e+002 -2.5964e+002 -4.0591e+001 19000 114325,114377,114351
 3.0000e+000 114521 -1.7720e+001 -2.2881e+002  1.7096e+001 19000 114299,114273,114495
 3.0000e+000 114544 -5.4565e+001 -2.7376e+002  7.7915e-001 19000 114299,114495,114325
 3.0000e+000 114948 -5.3693e+001 -2.3436e+002 -2.0540e+000 18560 114674,114726,114700
 3.0000e+000 114925 -2.0128e+001 -1.7473e+002 -1.7145e+001 18560 114674,114830,114726
 3.0000e+000 114902 -1.9319e+001 -1.7475e+002 -2.6578e+001 18560 114726,114830,114804
 3.0000e+000 114879 -6.5168e+001 -3.5607e+002 -6.1486e+001 18560 114726,114804,114752
 3.0000e+000 114856  2.6677e+001 -4.6817e+002 -7.6547e+001 18560 114752,114804,114778
 3.0000e+000 115098 -1.3054e+002 -3.3386e+002 -1.1266e+000 18156 114971,115023,114997
 3.0000e+000 115075 -1.3410e+002 -1.8538e+002 -2.1757e+000 18156 114971,115049,115023
 3.0000e+000 115248 -1.0695e+002 -2.9668e+002 -1.4437e+000 17602 115147,115199,115173
 3.0000e+000 115225 -2.8507e+001 -2.7775e+002  7.3733e+000 17602 115121,115199,115147
 3.0000e+000 115652 -4.7488e+000 -1.8513e+002 -6.4306e+000 17354 115430,115534,115508
 3.0000e+000 115629 -3.5047e+001 -2.4053e+002  8.9607e+000 17354 115404,115534,115430
 3.0000e+000 115606  3.8634e+001 -1.5186e+002  9.0561e+001 17354 115378,115534,115404
 3.0000e+000 115583  3.3690e+001 -2.2124e+002 -2.8922e+001 17354 115456,115508,115482
 3.0000e+000 115560 -3.5681e+001 -2.6004e+002 -7.0934e+000 17354 115430,115508,115456
 3.0000e+000 115873 -7.0744e+001 -3.6385e+002 -1.2441e+001 16950 115749,115801,115775
 3.0000e+000 115850 -1.3323e+002 -3.4434e+002 -4.7719e+000 16950 115697,115801,115749
 3.0000e+000 115827 -1.2417e+002 -3.6483e+002  8.6319e+000 16950 115697,115749,115723
 3.0000e+000 116023 -1.3856e+002 -3.6167e+002 -4.4605e+001 16496 115922,115974,115948
 3.0000e+000 116000 -1.4049e+002 -2.9185e+002 -1.8305e+001 16496 115896,115974,115922
 3.0000e+000 116126  5.0755e+000 -2.0996e+002  7.7444e+000 16298 116048,116100,116074
 3.0000e+000 116278  7.0879e+001 -3.8577e+002 -8.5595e+000 15892 116151,116203,116177
 3.0000e+000 116255  1.7472e+001 -5.0288e+002  4.3240e+000 15892 116151,116229,116203
 3.0000e+000 116430 -1.0931e+001 -1.1484e+002 -2.5427e+000 15545 116303,116355,116329
 3.0000e+000 116407 -4.6449e+001 -2.2475e+002 -5.5450e+001 15545 116303,116381,116355
 3.0000e+000 116785  3.8177e+001 -1.2726e+002  4.9629e+001 421 116612,116690,116664
 3.0000e+000 116762 -1.6107e+001 -2.5476e+002  3.2914e+001 421 116560,116690,116612
 3.0000e+000 116739 -1.0943e+002 -2.9138e+002  3.0673e+001 421 116560,116612,116586
 3.0000e+000 116716 -6.4424e+001 -2.9887e+002  4.0632e-001 421 116612,116664,116638
 3.1000e+000 68048 -3.2928e+001 -2.1956e+002 -1.1927e+001 67642 67898,67950,67924
 3.1000e+000 68025 -6.0076e+001 -2.4466e+002  4.4287e+000 67642 67898,67976,67950
 3.1000e+000 68002 -2.0095e+000 -2.2318e+002  9.0089e+000 67642 67872,67976,67898
 3.1000e+000 68367 -1.3506e+001 -1.3851e+002 -3.6186e+000 67444 68119,68223,68197
 3.1000e+000 68344 -5.8870e+001 -2.5253e+002  9.2451e+000 67444 68119,68249,68223
 3.1000e+000 68321 -7.8267e+001 -2.5406e+002 -2.1442e+000 67444 68093,68249,68119
 3.1000e+000 68298 -6.0665e+001 -2.5264e+002  2.4541e+000 67444 68119,68197,68171
 3.1000e+000 68275 -1.1212e+002 -2.4682e+002  1.1245e+001 67444 68119,68171,68145
 3.1000e+000 68468 -4.0829e+001 -2.9554e+002  3.4827e+001 67268 68390,68442,68416
 3.1000e+000 68765 -1.0861e+002 -2.7032e+002  2.3019e-001 66956 68788,68517,68491
 3.1000e+000 68742 -1.3475e+002 -2.9073e+002 -9.0061e+000 66956 68788,68491,68621
 3.1000e+000 68719 -1.2546e+002 -3.0811e+002 -4.7763e+001 66956 68543,68621,68569
 3.1000e+000 68696 -1.4498e+002 -3.0397e+002  2.7528e-001 66956 68491,68647,68621
 3.1000e+000 68673 -1.6735e+002 -2.4933e+002 -4.7130e+001 66956 68569,68621,68595
 3.1000e+000 68814 -7.2695e+001 -2.9008e+002  6.3010e+000 66956 68543,68517,68788
 3.1000e+000 68837 -1.0522e+002 -3.1517e+002 -4.7121e+000 66956 68543,68788,68621
 3.1000e+000 69107 -3.5991e+001 -2.8039e+002 -6.5677e+000 66758 68882,68986,68908
 3.1000e+000 69084 -4.7909e+001 -2.7644e+002  6.3227e+000 66758 68882,69012,68986
 3.1000e+000 69061 -1.5263e+001 -2.5111e+002 -1.5639e+001 66758 68908,68960,68934
 3.1000e+000 69038 -1.9132e+001 -2.4556e+002 -1.3786e+001 66758 68908,68986,68960
 3.1000e+000 69308 -2.3342e+001 -2.5972e+002 -7.3023e+000 66560 69331,69184,69158
 3.1000e+000 69285  4.3360e+000 -2.7249e+002 -6.4662e+000 66560 69331,69158,69132
 3.1000e+000 69262 -3.6537e+001 -3.1512e+002 -1.7491e+001 66560 69184,69236,69210
 3.1000e+000 69357 -3.2015e+001 -2.6806e+002 -3.7161e+000 66560 69236,69184,69331
 3.1000e+000 69380 -1.9399e+001 -2.9279e+002  2.3504e+000 66560 69236,69331,69132
 3.1000e+000 69554 -6.2967e+001 -3.7471e+002  2.2230e+001 66270 69427,69479,69453
 3.1000e+000 69531 -1.7569e+001 -2.6829e+002  4.3049e+001 66270 69427,69505,69479
 3.1000e+000 69804 -3.9327e+001 -2.3989e+002 -1.8584e+001 66066 69579,69683,69657
 3.1000e+000 69781  8.4151e+001 -1.8555e+002 -3.9855e+001 66066 69579,69709,69683
 3.1000e+000 69758 -5.9292e+000 -1.3371e+002 -3.0531e+001 66066 69579,69657,69631
 3.1000e+000 69735 -2.5314e+001 -1.7685e+002 -3.6463e+001 66066 69579,69631,69605
 3.1000e+000 70257 -4.2000e+001 -1.4441e+002  1.0565e+001 65776 69960,70090,69986
 3.1000e+000 70234 -5.7427e+001 -1.6594e+002 -1.0121e+000 65776 69934,70090,69960
 3.1000e+000 70211 -4.2343e+001 -1.6936e+002 -1.0233e+001 65776 69934,70116,70090
 3.1000e+000 70188 -5.1479e+001 -1.7959e+002  0.0000e+000 65776 70038,70090,70064
 3.1000e+000 70165 -4.8238e+001 -1.8451e+002  6.7745e+000 65776 69986,70090,70038
 3.1000e+000 70142 -4.3241e+001 -1.9500e+002  5.1532e+000 65776 69986,70038,70012
 3.1000e+000 70456 -4.9395e+001 -1.2868e+002 -1.9336e+001 65372 70479,70306,70280
 3.1000e+000 70433 -3.5910e+001 -1.5999e+002 -3.6618e+001 65372 70479,70280,70384
 3.1000e+000 70410 -2.5431e+001 -1.3565e+002  2.5016e+000 65372 70551,70332,70306
 3.1000e+000 70505 -3.2683e+001 -1.1862e+002 -1.2205e+001 65372 70551,70306,70479
 3.1000e+000 70528  5.0098e+000 -1.4453e+002 -3.1913e+001 65372 70358,70479,70384
 3.1000e+000 70577 -2.9141e+001 -1.6120e+002 -1.8139e+000 65372 70358,70332,70551
 3.1000e+000 70600 -4.1982e+001 -1.5151e+002 -1.5482e+001 65372 70358,70551,70479
 3.1000e+000 70821 -3.1668e+001 -3.1227e+002 -6.6369e+000 65174 70645,70723,70671
 3.1000e+000 70798 -7.6862e+001 -3.2479e+002  6.7284e+000 65174 70645,70749,70723
 3.1000e+000 70775 -1.7272e+001 -2.9181e+002 -1.3315e+001 65174 70671,70723,70697
 3.1000e+000 71071 -3.0122e+001 -1.4226e+002 -2.4713e+000 64770 71094,70898,70872
 3.1000e+000 71048 -1.8464e+001 -1.3964e+002  3.8104e+000 64770 71166,71094,70872
 3.1000e+000 71025 -2.0160e+001 -1.5921e+002 -1.0024e+001 64770 71166,70872,70846
 3.1000e+000 71002 -2.7039e+001 -9.0947e+001  2.4809e+001 64770 70898,70950,70924
 3.1000e+000 71120 -2.6775e+001 -1.2557e+002 -3.6266e+000 64770 70950,70898,71094
 3.1000e+000 71143 -1.0112e+001 -1.4580e+002  1.1537e+001 64770 70950,71094,70976
 3.1000e+000 71192 -2.5250e+001 -1.7789e+002  1.5633e+000 64770 70976,71094,71166
 3.1000e+000 71215 -1.7939e+001 -1.8455e+002 -1.2618e+001 64770 70976,71166,70846
 3.1000e+000 71514 -2.6115e+001 -2.1220e+002  4.6350e+000 64572 71681,71537,71318
 3.1000e+000 71491 -4.9551e+001 -2.1052e+002 -8.6284e-001 64572 71537,71266,71240
 3.1000e+000 71468 -6.2696e+001 -1.7777e+002 -2.2384e+001 64572 71609,71396,71370
 3.1000e+000 71445 -3.4490e+001 -2.0629e+002  2.3410e+000 64572 71681,71318,71292
 3.1000e+000 71422 -6.2368e+001 -2.8058e+002 -1.2311e+001 64572 71753,71344,71318
 3.1000e+000 71563 -3.4611e+001 -2.3975e+002  4.9381e+000 64572 71753,71318,71537
 3.1000e+000 71586 -4.9197e+001 -2.0121e+002  4.3306e+000 64572 71609,71370,71537
 3.1000e+000 71635 -2.5644e+001 -9.8587e+001 -3.7300e+001 64572 71240,71396,71609
 3.1000e+000 71658 -3.4919e+001 -1.5351e+002 -6.1058e+000 64572 71240,71609,71537
 3.1000e+000 71707 -4.3139e+001 -2.0882e+002 -2.3904e+000 64572 71266,71537,71681
 3.1000e+000 71730 -6.6070e+001 -2.1319e+002 -4.4282e+000 64572 71266,71681,71292
 3.1000e+000 71779 -8.1096e+001 -2.2090e+002 -1.0066e+001 64572 71370,71344,71753
 3.1000e+000 71802 -7.2502e+001 -2.1990e+002 -6.4786e+000 64572 71370,71753,71537
 3.1000e+000 72052 -3.9438e+001 -2.1646e+002  2.2915e+001 64374 72075,71879,71827
 3.1000e+000 72029  2.1305e+001 -1.7931e+002 -4.3228e-001 64374 72147,72075,71827
 3.1000e+000 72006  7.1352e+001 -1.9968e+002 -3.2870e+001 64374 72147,71827,71957
 3.1000e+000 71983 -5.2697e+000 -1.9271e+002  4.4455e+000 64374 71827,71879,71853
 3.1000e+000 72101 -3.1676e+001 -2.6911e+002  6.3628e+001 64374 71905,71879,72075
 3.1000e+000 72124  4.1646e+001 -2.2460e+002  4.3690e+001 64374 71905,72075,71931
 3.1000e+000 72173 -2.2334e+001 -2.3710e+002  2.0238e+001 64374 71931,72075,72147
 3.1000e+000 72196  1.1043e+001 -2.6682e+002 -7.5014e+000 64374 71931,72147,71957
 3.1000e+000 72649 -3.6917e+001 -1.4217e+002 -4.8563e+000 63948 72352,72508,72482
 3.1000e+000 72626 -2.8265e+001 -1.1400e+002  2.6183e+001 63948 72326,72508,72352
 3.1000e+000 72603 -5.5516e+001 -2.0235e+002 -1.7314e+001 63948 72672,72430,72378
 3.1000e+000 72580 -5.0486e+001 -2.3424e+002 -8.2126e+000 63948 72672,72378,72352
 3.1000e+000 72557 -5.0405e+001 -2.0416e+002 -1.4964e+001 63948 72744,72456,72430
 3.1000e+000 72534 -6.0358e+001 -2.5691e+002 -5.3874e+001 63948 72378,72430,72404
 3.1000e+000 72698 -5.0806e+001 -2.0318e+002 -1.4364e+001 63948 72744,72430,72672
 3.1000e+000 72721 -3.1065e+001 -1.9190e+002  2.1143e+000 63948 72482,72672,72352
 3.1000e+000 72770 -5.2112e+001 -2.0229e+002 -1.4857e+001 63948 72482,72456,72744
 3.1000e+000 72793 -5.1135e+001 -1.9970e+002 -1.4068e+001 63948 72482,72744,72672
 3.1000e+000 72894 -6.1147e+001 -2.5892e+002 -1.8369e+001 63494 72816,72868,72842
 3.1000e+000 73093 -4.7169e+001 -7.9022e+001  9.9399e-001 63132 72943,72995,72969
 3.1000e+000 73070 -3.4432e+001 -7.0734e+001  5.9262e+000 63132 72943,73021,72995
 3.1000e+000 73047 -3.0378e+001 -7.7806e+001  1.1232e+001 63132 72917,73021,72943
 3.1000e+000 73294 -1.3556e+001 -8.2198e+001 -4.6728e+001 62792 73317,73144,73118
 3.1000e+000 73271 -2.1861e+001 -8.6104e+001 -2.3812e+001 62792 73317,73118,73222
 3.1000e+000 73248 -2.5897e+001 -7.3327e+001 -4.2185e+001 62792 73144,73196,73170
 3.1000e+000 73343 -4.0731e+001 -8.2027e+001 -3.8479e+001 62792 73196,73144,73317
 3.1000e+000 73366 -4.9987e+001 -9.0796e+001 -1.4022e+001 62792 73196,73317,73222
 3.1000e+000 73616 -8.0321e+001 -1.9715e+002  2.4988e+001 62388 73639,73417,73391
 3.1000e+000 73593 -6.7865e+001 -1.7015e+002  1.6852e+001 62388 73711,73639,73391
 3.1000e+000 73570 -4.4100e+001 -1.2160e+002  5.5077e+000 62388 73711,73391,73521
 3.1000e+000 73547 -3.0052e+001 -1.6399e+002  6.1677e+000 62388 73469,73521,73495
 3.1000e+000 73665 -5.6521e+001 -1.8797e+002  1.9682e+001 62388 73443,73417,73639
 3.1000e+000 73688 -5.7684e+001 -2.1694e+002  2.0389e+001 62388 73443,73639,73469
 3.1000e+000 73737 -3.9076e+001 -2.0140e+002  1.2571e+001 62388 73469,73639,73711
 3.1000e+000 73760 -4.2905e+001 -1.8585e+002  1.3326e+001 62388 73469,73711,73521
 3.1000e+000 74010 -2.4673e+001 -8.0764e+001 -2.4509e+001 61848 74033,73837,73811
 3.1000e+000 73987 -6.7292e+001 -7.3668e+001 -6.0720e+001 61848 74033,73811,73785
 3.1000e+000 73964 -4.4226e+000 -8.0721e+001 -2.9789e+001 61848 73837,73915,73889
 3.1000e+000 73941  2.2977e+000 -6.0770e+001 -2.7444e+001 61848 73837,73889,73863
 3.1000e+000 74059 -1.9248e+001 -1.0343e+002 -3.6934e+001 61848 73915,73837,74033
 3.1000e+000 74082 -2.2938e+001 -1.2319e+002 -4.8804e+001 61848 73915,74033,73785
 3.1000e+000 74283  1.0905e+001 -6.6822e+001  1.0078e+001 61444 74306,74133,74107
 3.1000e+000 74260  1.1045e+001 -4.1847e+001  3.8603e+001 61444 74306,74107,74211
 3.1000e+000 74237 -2.1821e+001  8.2194e+000  1.0768e+000 61444 74378,74185,74159
 3.1000e+000 74332 -6.2218e+000 -7.4991e+001 -3.9077e+000 61444 74159,74133,74306
 3.1000e+000 74355  1.0157e+001 -4.2484e+001  1.6091e+001 61444 74378,74159,74306
 3.1000e+000 74404 -3.0120e+001 -4.5029e+001  2.8301e+001 61444 74211,74185,74378
 3.1000e+000 74427 -1.8207e+001 -6.4195e+001  2.6653e+001 61444 74211,74378,74306
 3.1000e+000 74628 -1.6190e+001 -6.3981e+001 -3.4944e+001 60990 74478,74530,74504
 3.1000e+000 74605 -5.4123e+000 -7.4210e+001 -4.6235e+001 60990 74452,74530,74478
 3.1000e+000 74582 -2.7432e+001 -7.6635e+001 -4.6008e+001 60990 74452,74556,74530
 3.1000e+000 75089 -1.3246e+000 -4.9635e+001 -1.4635e+001 60486 75112,74945,74919
 3.1000e+000 75066 -7.5232e+000 -3.7097e+000  7.0131e+000 60486 75112,74919,74867
 3.1000e+000 75043 -8.7459e+000 -9.7421e+001  1.3838e+001 60486 74841,74971,74867
 3.1000e+000 75020 -8.9300e-001  3.2456e+000  5.5136e-001 60486 74867,74919,74893
 3.1000e+000 74997 -7.2712e+000 -8.4954e+001  2.6502e+001 60486 74815,74971,74841
 3.1000e+000 75138 -1.8801e+001 -6.6119e+001 -3.5110e+001 60486 74971,74945,75112
 3.1000e+000 75161 -2.5904e+001 -3.6409e+001 -1.0909e+001 60486 74971,75112,74867
 3.1000e+000 75409 -2.6204e+001 -1.7768e+001 -4.9689e+000 59932 75576,75432,75288
 3.1000e+000 75386 -2.8101e+001 -2.3247e+001 -6.2864e+000 59932 75504,75314,75288
 3.1000e+000 75363 -1.1807e+001  1.3714e-001  1.2983e+001 59932 75432,75236,75210
 3.1000e+000 75340 -8.1847e+000 -2.5182e+001 -1.9075e+001 59932 75576,75288,75262
 3.1000e+000 75458 -3.1007e+001 -1.8738e+001 -7.6507e+000 59932 75504,75288,75432
 3.1000e+000 75481 -3.6516e+001 -2.1690e+001 -3.7555e+000 59932 75184,75432,75210
 3.1000e+000 75530 -2.8321e+001 -5.1699e+001 -1.2054e+001 59932 75184,75314,75504
 3.1000e+000 75553 -3.4854e+001 -2.3275e+001 -9.5970e+000 59932 75184,75504,75432
 3.1000e+000 75602 -3.8354e+001 -4.0741e+001  1.4848e+000 59932 75236,75432,75576
 3.1000e+000 75625 -2.6201e+001 -4.9596e+001 -5.6527e+000 59932 75236,75576,75262
 3.1000e+000 75873 -4.6258e+001 -1.8317e+002  6.3779e+000 59478 75674,75752,75700
 3.1000e+000 75850 -7.7193e+001 -1.9472e+002  3.6117e+001 59478 75648,75752,75674
 3.1000e+000 75827 -3.9157e+001 -1.7007e+002  1.2642e+001 59478 75700,75752,75726
 3.1000e+000 75804 -7.1368e+001 -2.0725e+002  3.8470e+001 59478 75648,75778,75752
 3.1000e+000 76206 -2.9285e+001 -1.7340e+002  1.0600e+001 59024 75981,76059,76007
 3.1000e+000 76183 -3.8135e+001 -1.9024e+002  1.6353e+001 59024 75981,76111,76059
 3.1000e+000 76160 -3.0377e+001 -1.3565e+002 -1.6627e+001 59024 76007,76059,76033
 3.1000e+000 76137 -1.3854e+001 -1.9440e+002  6.7770e+001 59024 76059,76111,76085
 3.1000e+000 76761 -6.1717e+001 -8.2031e+001 -6.0478e+000 58562 76389,76441,76415
 3.1000e+000 76738 -6.2047e+001 -7.8157e+001  2.3474e+001 58562 76856,76784,76389
 3.1000e+000 76715 -4.3536e+001 -3.1418e+001 -3.9865e+001 58562 76784,76571,76467
 3.1000e+000 76692 -1.8853e+001 -9.5542e+001  2.8721e+001 58562 76856,76389,76597
 3.1000e+000 76669 -4.9917e+001 -2.0833e+002  1.2072e+001 58562 76467,76545,76493
 3.1000e+000 76646 -1.6477e+001 -1.4481e+002 -7.8579e+001 58562 76467,76571,76545
 3.1000e+000 76623 -1.7364e+001 -1.8745e+002  2.1066e+001 58562 76493,76545,76519
 3.1000e+000 76810 -4.3651e+001 -8.2301e+001  7.1089e+000 58562 76441,76389,76784
 3.1000e+000 76833 -1.3233e+002 -1.9486e+002 -8.9488e+001 58562 76441,76784,76467
 3.1000e+000 76882 -1.5412e+001 -5.2396e+001  4.3758e+001 58562 76571,76784,76856
 3.1000e+000 76905  1.2250e+001 -8.0255e+001  4.8891e+001 58562 76571,76856,76597
 3.1000e+000 77055  2.9144e+000 -1.4935e+002 -2.2898e+001 57844 76928,76980,76954
 3.1000e+000 77032 -4.3240e+001 -9.1762e+001 -1.9215e+001 57844 76928,77006,76980
 3.1000e+000 77533 -5.9202e+001 -2.2447e+002 -1.6521e+001 57226 77628,77556,77291
 3.1000e+000 77510 -4.7417e+001 -3.0191e+001  1.0327e+001 57226 77556,77187,77343
 3.1000e+000 77487  8.0730e+000 -1.5331e+002 -4.5100e+001 57226 77628,77291,77265
 3.1000e+000 77464 -7.7589e+000 -2.6190e+002  2.7756e+001 57226 77700,77213,77187
 3.1000e+000 77441 -1.8971e+001 -5.8473e+001 -4.5485e+001 57226 77161,77343,77187
 3.1000e+000 77418 -3.4277e+001 -7.3975e+001 -3.9019e+001 57226 77161,77369,77343
 3.1000e+000 77395 -3.2294e+001 -1.8364e+001 -1.5591e+001 57226 77213,77265,77239
 3.1000e+000 77582 -6.5649e+001 -1.9538e+002  3.4009e+001 57226 77317,77291,77556
 3.1000e+000 77605 -6.0747e+001 -1.2197e+002  6.0888e+000 57226 77317,77556,77343
 3.1000e+000 77654  4.0859e+001 -1.2088e+002  3.5070e+001 57226 77187,77556,77628
 3.1000e+000 77677  1.5797e+000 -2.4143e+002  2.9882e+001 57226 77700,77187,77628
 3.1000e+000 77726 -3.7336e+001 -2.8712e+002 -6.0013e+001 57226 77265,77213,77700
 3.1000e+000 77749 -2.9612e+000 -2.0967e+002 -5.3800e+001 57226 77265,77700,77628
 3.1000e+000 78046 -1.7852e+001 -1.6857e+002  4.6656e+001 56936 77798,77850,77824
 3.1000e+000 78023 -3.3403e+001 -1.6720e+002  5.3465e+001 56936 78069,77798,77902
 3.1000e+000 78000 -4.5103e+001 -1.7233e+002  4.9963e+001 56936 78069,77902,77876
 3.1000e+000 77977  2.6760e+001 -1.5391e+002 -1.0764e+001 56936 77798,77928,77902
 3.1000e+000 77954 -2.3577e+001 -3.6170e+001  1.1673e+001 56936 77772,77928,77798
 3.1000e+000 78095 -2.8538e+001 -1.6986e+002  5.5984e+001 56936 77850,77798,78069
 3.1000e+000 78118 -3.3883e+001 -1.6989e+002  5.3227e+001 56936 77850,78069,77876
 3.1000e+000 78754  8.8942e-001 -1.2556e+002 -2.1974e+001 56475 78777,78486,78408
 3.1000e+000 78731 -1.5942e+000 -1.3274e+002 -1.8014e+001 56475 78777,78408,78382
 3.1000e+000 78708 -9.6300e+000 -1.4765e+002 -3.3145e+001 56475 78849,78512,78486
 3.1000e+000 78685 -2.9973e+001 -1.0599e+002 -1.3318e+000 56475 78382,78590,78564
 3.1000e+000 78662 -2.0152e+001 -1.5043e+002 -3.0156e+001 56475 78512,78564,78538
 3.1000e+000 78639  6.0799e-001 -3.0146e+002  3.3032e+001 56475 78434,78486,78460
 3.1000e+000 78616 -7.0972e+001 -2.6973e+002  1.3711e+001 56475 78408,78486,78434
 3.1000e+000 78803 -3.6913e+000 -1.3683e+002 -2.4326e+001 56475 78849,78486,78777
 3.1000e+000 78826  6.6058e+000 -1.1645e+002 -8.7901e+000 56475 78564,78777,78382
 3.1000e+000 78875 -6.2104e+000 -1.2919e+002 -2.4053e+001 56475 78564,78512,78849
 3.1000e+000 78898 -6.1002e+000 -1.1937e+002 -1.7580e+001 56475 78564,78849,78777
 3.1000e+000 79276 -4.7961e+001 -1.1591e+002 -3.5838e+000 55964 79299,79080,79028
 3.1000e+000 79253 -4.1875e+001 -1.2185e+002  4.4734e+000 55964 79299,79028,79132
 3.1000e+000 79230 -5.7810e+001 -1.5944e+002 -2.5645e+000 55964 79028,79080,79054
 3.1000e+000 79207 -2.8139e+001 -1.1130e+002  9.1112e+000 55964 79002,79132,79028
 3.1000e+000 79184 -3.6386e-001 -9.8230e+001 -3.2135e+000 55964 79002,79158,79132
 3.1000e+000 79325 -4.3238e+001 -1.0605e+002 -2.2020e+000 55964 79106,79080,79299
 3.1000e+000 79348 -3.8256e+001 -1.1438e+002  5.5768e+000 55964 79106,79299,79132
 3.1000e+000 79498 -3.4290e+001 -1.6524e+002  1.3436e+001 55452 79397,79449,79423
 3.1000e+000 79475 -6.9356e+001 -1.4265e+002 -1.8376e+000 55452 79371,79449,79397
 3.1000e+000 79795 -4.7817e+001 -1.5193e+002  1.5938e+000 55048 79962,79818,79573
 3.1000e+000 79772 -3.6042e+001 -1.2322e+002 -1.0542e+001 55048 79818,79521,79677
 3.1000e+000 79749 -4.4126e+001 -2.0242e+002  3.3327e+001 55048 79599,79651,79625
 3.1000e+000 79726 -5.7929e+001 -1.8576e+002  3.0710e+001 55048 79890,79651,79599
 3.1000e+000 79703 -3.7627e+001 -1.4991e+002  1.4518e+001 55048 79962,79573,79547
 3.1000e+000 79844 -3.9898e+001 -1.4271e+002  4.9644e+000 55048 79599,79573,79818
 3.1000e+000 79867 -5.3320e+001 -1.6288e+002  1.0897e+001 55048 79890,79599,79818
 3.1000e+000 79916 -2.5228e+001 -1.6798e+002  9.6090e+000 55048 79677,79651,79890
 3.1000e+000 79939 -2.7597e+001 -1.5848e+002 -8.8840e+000 55048 79677,79890,79818
 3.1000e+000 79988 -6.4157e+001 -1.5831e+002  1.6428e+000 55048 79521,79818,79962
 3.1000e+000 80011 -6.3469e+001 -1.5954e+002  1.2642e+001 55048 79521,79962,79547
 3.1000e+000 80212 -5.2545e+001 -1.2546e+002  3.7306e+001 54436 80235,80088,80036
 3.1000e+000 80189 -2.6494e+001 -9.1250e+001  2.3182e+001 54436 80235,80036,80140
 3.1000e+000 80166 -5.0992e+001 -2.0049e+002 -5.9307e+000 54436 80036,80088,80062
 3.1000e+000 80261 -2.6540e+001 -1.7257e+002  6.0506e+001 54436 80114,80088,80235
 3.1000e+000 80284  7.2113e+000 -1.3731e+002  4.3423e+001 54436 80114,80235,80140
 3.1000e+000 80534 -1.1244e+001 -8.9968e+001  1.6628e+001 54032 80557,80361,80335
 3.1000e+000 80511 -8.1119e+000 -1.0799e+002  2.9434e+001 54032 80557,80335,80309
 3.1000e+000 80488 -1.3638e+001 -1.0499e+002  1.6421e+001 54032 80629,80413,80387
 3.1000e+000 80465 -3.3897e+001 -1.5022e+002  1.8669e+001 54032 80309,80439,80413
 3.1000e+000 80583 -5.2669e-002 -2.8014e+001  1.2518e+001 54032 80387,80361,80557
 3.1000e+000 80606 -7.7825e+000 -8.9199e+001  2.2552e+001 54032 80629,80387,80557
 3.1000e+000 80655 -1.7619e+001 -1.0448e+002  6.5067e+000 54032 80309,80413,80629
 3.1000e+000 80678 -2.0102e+001 -1.0056e+002  1.1777e+001 54032 80309,80629,80557
 3.1000e+000 81139  9.1512e-001 -3.0481e+001  3.0606e+001 53784 80865,80995,80917
 3.1000e+000 81116 -1.5727e+000 -1.8398e+001 -2.1441e-001 53784 80865,81021,80995
 3.1000e+000 81093 -2.0275e+001 -1.2273e+002  5.8400e+001 53784 80943,80995,80969
 3.1000e+000 81070 -3.2161e+001 -5.2207e+001  2.0809e+001 53784 80917,80995,80943
 3.1000e+000 81047  6.0376e+000 -3.2841e+002  3.7028e+000 53784 80865,80917,80891
 3.1000e+000 81468 -4.8805e+000 -8.3103e+001  2.8033e+001 53230 81295,81373,81347
 3.1000e+000 81445  6.2189e+000 -1.0469e+002  3.7269e+001 53230 81243,81373,81295
 3.1000e+000 81422 -5.2645e+001 -1.3661e+002 -2.2548e+000 53230 81243,81295,81269
 3.1000e+000 81399  7.5176e+000 -5.8453e+001 -2.2924e+001 53230 81295,81347,81321
 3.1000e+000 81618 -1.1750e+001 -1.2433e+001 -3.7748e+000 52790 81491,81543,81517
 3.1000e+000 81595 -6.4414e+000 -9.1195e+001  5.4309e+000 52790 81491,81569,81543
 3.1000e+000 82126  3.5808e+001 -2.2351e+001 -4.3246e+001 52386 82149,81907,81881
 3.1000e+000 82103  5.9294e+000 -7.9890e+001 -2.5703e+001 52386 82149,81881,81855
 3.1000e+000 82080 -4.0213e+000 -6.1971e+001  1.2856e+000 52386 82221,81803,81985
 3.1000e+000 82057 -6.2925e+001 -1.1217e+002 -7.6651e+000 52386 81803,81855,81829
 3.1000e+000 82034  1.0950e+000 -1.0340e+002 -2.3633e+001 52386 81907,81985,81933
 3.1000e+000 82011 -2.1453e+001 -7.4756e+001 -3.7395e+001 52386 81933,81985,81959
 3.1000e+000 82175  8.9511e+000 -7.2598e+001 -1.6235e+001 52386 81985,81907,82149
 3.1000e+000 82198  2.0102e+001 -6.7891e+001 -1.1250e+001 52386 82221,81985,82149
 3.1000e+000 82247 -1.6238e+001 -7.7030e+001  1.2109e+001 52386 81855,81803,82221
 3.1000e+000 82270 -3.3372e+000 -9.0998e+001  8.4733e-001 52386 81855,82221,82149
 3.1000e+000 82825 -5.3379e+001 -1.1434e+002  6.6298e+000 51782 82505,82661,82635
 3.1000e+000 82802 -1.0944e+002 -1.7337e+002 -2.4357e+001 51782 82479,82661,82505
 3.1000e+000 82779 -4.7518e+001 -2.0107e+002 -6.9585e+001 51782 82557,82635,82609
 3.1000e+000 82756 -4.1987e+001 -1.8585e+002 -7.3818e+000 51782 82531,82635,82557
 3.1000e+000 82733 -7.6864e+001 -1.3858e+002 -1.7938e+001 51782 82505,82635,82531
 3.1000e+000 82710 -1.7189e+001 -8.8783e+001  2.6538e+001 51782 82453,82661,82479
 3.1000e+000 82687  1.4585e+000 -1.1840e+002 -3.9738e+001 51782 82557,82609,82583
 3.1000e+000 83171 -5.0263e+001 -1.6202e+002  2.2355e+001 51442 83194,82978,82900
 3.1000e+000 83148 -7.9705e+001 -1.4182e+002  1.6847e+001 51442 83194,82900,82874
 3.1000e+000 83125 -6.0897e+001 -1.6690e+002  1.8449e+001 51442 82900,82978,82926
 3.1000e+000 83102 -5.4252e+001 -1.2891e+002  5.3248e+000 51442 82874,83030,83004
 3.1000e+000 83079 -1.6760e+001 -1.5352e+002  1.5814e+001 51442 82926,82978,82952
 3.1000e+000 83056 -2.6355e+001 -1.3664e+002  3.2258e+000 51442 82848,83030,82874
 3.1000e+000 83220 -2.9345e+001 -1.5339e+002  1.8444e+001 51442 83004,82978,83194
 3.1000e+000 83243 -6.1978e+001 -1.3504e+002  1.2564e+001 51442 83004,83194,82874
 3.1000e+000 83751 -5.1754e+001 -6.7363e+001  9.3786e-001 50938 83428,83584,83454
 3.1000e+000 83728 -3.2433e+001 -5.9930e+001  6.5183e+000 50938 83428,83610,83584
 3.1000e+000 83705 -5.0796e+001 -9.1548e+001 -2.7011e+000 50938 83454,83584,83558
 3.1000e+000 83682 -2.7864e+001 -9.6596e+001  1.1994e+001 50938 83454,83532,83480
 3.1000e+000 83659 -3.8863e+001 -8.2486e+001  1.2298e+001 50938 83454,83558,83532
 3.1000e+000 83636 -6.5826e+001 -1.4059e+002 -6.5868e+000 50938 83480,83532,83506
 3.1000e+000 84355 -1.3076e+001 -1.6367e+002  1.0261e+001 50377 84378,83960,83934
 3.1000e+000 84332  1.0462e+001 -1.0421e+002  1.5030e+001 50377 84522,84378,83934
 3.1000e+000 84309 -8.3326e+000 -1.0745e+002 -2.5570e+000 50377 84450,84038,84012
 3.1000e+000 84286 -5.8213e-001 -7.7882e+001  1.1887e+001 50377 84522,83934,84142
 3.1000e+000 84263 -2.3377e+000 -8.3765e+001 -5.2386e+000 50377 84594,84090,84038
 3.1000e+000 84240 -7.5357e+001 -1.3206e+002 -6.2196e+000 50377 83960,84012,83986
 3.1000e+000 84217 -2.8906e+000 -6.3310e+001 -1.3963e+001 50377 83934,84168,84142
 3.1000e+000 84194 -1.3059e+001 -5.1119e+001  1.9716e+001 50377 84038,84090,84064
 3.1000e+000 84404 -5.0044e+001 -1.4461e+002 -2.5724e+001 50377 84012,83960,84378
 3.1000e+000 84427  2.2811e+000 -1.0367e+002 -4.4151e+000 50377 84450,84012,84378
 3.1000e+000 84476 -5.1145e+000 -9.6346e+001 -6.8479e+000 50377 84594,84038,84450
 3.1000e+000 84499 -5.2031e+000 -1.4199e+002 -9.0149e+000 50377 84116,84450,84378
 3.1000e+000 84548  1.1888e+001 -1.4163e+002  1.9385e+000 50377 84116,84378,84522
 3.1000e+000 84571  6.0556e+000 -1.0836e+002 -2.0478e+000 50377 84116,84522,84142
 3.1000e+000 84620  8.1401e+000 -1.0397e+002  4.4797e+000 50377 84116,84090,84594
 3.1000e+000 84643  6.1383e+000 -1.1520e+002  3.7891e+000 50377 84116,84594,84450
 3.1000e+000 84842 -3.5005e+001 -1.7716e+002  1.3558e+001 49923 84865,84692,84666
 3.1000e+000 84819 -6.4057e+001 -1.7817e+002  2.7230e+000 49923 84865,84666,84770
 3.1000e+000 84796 -1.1591e+001 -2.2676e+002 -1.9959e+001 49923 84692,84744,84718
 3.1000e+000 84891 -5.2948e+001 -1.7792e+002 -3.3445e+000 49923 84744,84692,84865
 3.1000e+000 84914 -8.4707e+001 -1.8550e+002 -1.6324e+001 49923 84744,84865,84770
 3.1000e+000 85501 -1.8238e+001 -1.3203e+002  1.7072e+001 49618 85524,85282,85204
 3.1000e+000 85478 -1.3040e+001 -1.3378e+002  1.2681e+001 49618 85596,85524,85204
 3.1000e+000 85455 -5.3804e+000 -1.4790e+002  1.2155e+001 49618 85596,85204,85178
 3.1000e+000 85432 -3.9278e+001 -1.4835e+002  2.4163e+001 49618 85204,85282,85256
 3.1000e+000 85409 -5.5354e+001 -2.1069e+002 -3.0262e+000 49618 85282,85334,85308
 3.1000e+000 85386 -3.8442e+001 -1.6220e+002 -4.4502e+000 49618 85204,85256,85230
 3.1000e+000 85550 -1.7328e+001 -1.3574e+002  1.2045e+001 49618 85334,85282,85524
 3.1000e+000 85573 -2.9723e+001 -1.4081e+002  1.2704e+001 49618 85334,85524,85360
 3.1000e+000 85622 -2.5067e+001 -1.5082e+002  1.8695e+001 49618 85360,85524,85596
 3.1000e+000 85645 -1.2348e+001 -1.5905e+002  1.6447e+001 49618 85360,85596,85178
 3.1000e+000 85795 -8.7807e+001 -2.5907e+002 -1.7486e+001 49278 85694,85746,85720
 3.1000e+000 85772 -1.1922e+002 -4.9260e+002 -1.8724e+001 49278 85668,85746,85694
 3.1000e+000 86197 -4.3621e+001 -2.4398e+002 -2.7835e+001 48916 86001,86079,86027
 3.1000e+000 86174  5.0055e+000 -1.0851e+002 -1.8363e+001 48916 85949,86079,86001
 3.1000e+000 86151  6.4357e+000 -2.5047e+002 -3.7692e+000 48916 85949,86001,85975
 3.1000e+000 86128 -5.5197e+001 -2.5823e+002 -1.9980e+001 48916 86027,86079,86053
 3.1000e+000 86105 -7.1792e+000 -7.0430e+001  1.8938e+001 48916 85923,86079,85949
 3.1000e+000 86477 -1.6910e+001 -1.0022e+002  2.8588e+000 48398 86327,86379,86353
 3.1000e+000 86454  1.4877e+001 -9.1741e+001  2.3329e+001 48398 86500,86379,86327
 3.1000e+000 86431 -1.2023e+001 -5.9371e+001  1.5158e+001 48398 86301,86405,86379
 3.1000e+000 86526 -9.2225e+000 -8.2318e+001  3.4222e+001 48398 86301,86379,86500
 3.1000e+000 87032 -2.1507e+001 -1.3960e+002 -2.9330e+001 48008 87127,87055,86787
 3.1000e+000 87009 -4.0339e+001 -2.1890e+002  1.1142e+001 48008 87055,86735,86709
 3.1000e+000 86986 -5.8937e+001 -1.1736e+002 -2.3151e+001 48008 87127,86787,86761
 3.1000e+000 86963 -4.1586e+001 -1.0882e+002 -2.2448e+001 48008 86787,86865,86839
 3.1000e+000 86940 -1.3521e+001 -9.2607e+001  1.8560e+001 48008 86709,86891,86865
 3.1000e+000 86917 -6.5556e+001 -1.0195e+002 -1.3603e+001 48008 86787,86839,86813
 3.1000e+000 87081 -3.7245e+001 -1.4575e+002 -1.5383e+001 48008 86865,86787,87055
 3.1000e+000 87104 -1.1241e+001 -1.0287e+002  2.5979e+001 48008 86865,87055,86709
 3.1000e+000 87153 -6.5950e+001 -1.8612e+002 -4.7965e+001 48008 86735,87055,87127
 3.1000e+000 87176 -1.1202e+002 -1.4134e+002 -4.3170e+001 48008 86735,87127,86761
 3.1000e+000 87456 -3.2491e+001 -1.3936e+002  2.7913e+001 47604 87306,87358,87332
 3.1000e+000 87433  2.8108e+001 -9.1137e+001  6.6524e-001 47604 87306,87384,87358
 3.1000e+000 87410 -1.0796e+001 -1.0728e+002  8.2335e+000 47604 87280,87384,87306
 3.1000e+000 87785 -1.1808e+000 -1.2118e+002  2.2448e+001 47264 87638,87690,87664
 3.1000e+000 87762 -3.9886e+001 -1.9343e+002  4.3515e+001 47264 87612,87690,87638
 3.1000e+000 87739 -4.6243e+001 -2.1885e+002  4.6123e+001 47264 87560,87690,87612
 3.1000e+000 87716 -3.4856e+001 -2.6147e+002  2.2232e+001 47264 87560,87612,87586
 3.1000e+000 87935  1.1914e+001 -3.4612e+001  2.6027e+000 46952 87808,87860,87834
 3.1000e+000 87912  8.3778e-001 -6.3172e+001  2.4224e+000 46952 87808,87886,87860
 3.1000e+000 88281 -2.8158e+001 -1.5009e+002  1.3254e+001 46526 88304,88114,88036
 3.1000e+000 88258 -2.9272e+001 -1.4636e+002  1.4709e+001 46526 88304,88036,87984
 3.1000e+000 88235 -2.1909e+001 -1.4582e+002  8.4401e+000 46526 88036,88114,88062
 3.1000e+000 88212 -2.3382e+001 -1.3772e+002  2.4729e+001 46526 87958,88140,87984
 3.1000e+000 88189 -2.5735e+001 -1.4038e+002  3.5972e+001 46526 87984,88036,88010
 3.1000e+000 88166 -1.8521e+001 -1.1124e+002  2.8281e+001 46526 88062,88114,88088
 3.1000e+000 88330 -2.8971e+001 -1.4638e+002  1.2550e+001 46526 88140,88114,88304
 3.1000e+000 88353 -2.9960e+001 -1.4248e+002  1.3449e+001 46526 88140,88304,87984
 3.1000e+000 88701  3.2659e+001 -9.8644e+001  3.4563e+001 45822 88724,88378,88534
 3.1000e+000 88678  3.7728e+001 -4.7579e+001  3.9647e+001 45822 88378,88560,88534
 3.1000e+000 88655 -1.3675e+001 -1.1820e+002  3.6953e+001 45822 88724,88534,88508
 3.1000e+000 88632 -5.7936e+001 -1.5108e+002  1.2678e+001 45822 88404,88508,88456
 3.1000e+000 88609 -4.3987e+001 -1.2838e+002 -1.7830e+000 45822 88404,88456,88430
 3.1000e+000 88586 -1.8840e+001 -6.5044e+001 -3.4089e+001 45822 88456,88508,88482
 3.1000e+000 88750 -4.1584e+000 -8.3769e+001  7.0291e+000 45822 88404,88378,88724
 3.1000e+000 88773 -3.9994e+001 -9.8024e+001  8.5452e+000 45822 88404,88724,88508
 3.1000e+000 89106 -4.5128e+001 -6.6735e+001  2.6351e+001 45418 88881,88985,88907
 3.1000e+000 89083 -3.9779e+001 -9.1921e+001  3.1849e+001 45418 88881,89011,88985
 3.1000e+000 89060  5.9795e-001 -7.0424e+001  2.0428e+001 45418 88907,88985,88933
 3.1000e+000 89037 -2.1936e+001 -4.8441e+001  9.3004e+000 45418 88933,88985,88959
 3.1000e+000 89435 -3.4249e+001 -1.2054e+002  3.6232e+001 44914 89210,89288,89236
 3.1000e+000 89412 -7.6226e+001 -1.8056e+002  5.8065e+001 44914 89210,89314,89288
 3.1000e+000 89389 -1.7214e+001 -1.2318e+002  3.2049e+001 44914 89210,89340,89314
 3.1000e+000 89366 -4.1303e+001 -1.3033e+002  4.7941e+001 44914 89236,89288,89262
 3.1000e+000 89634 -2.8541e+001 -1.2599e+002  4.9278e+001 44538 89510,89562,89536
 3.1000e+000 89611 -4.3657e+001 -9.3728e+001  1.4966e+001 44538 89458,89562,89510
 3.1000e+000 89588 -4.8363e+001 -1.3426e+002  1.8452e+001 44538 89458,89510,89484
 3.1000e+000 90044 -7.2824e+000 -5.7024e+001  1.1581e+001 44134 89819,89923,89845
 3.1000e+000 90021 -4.2958e+001 -5.8684e+001 -4.4956e+001 44134 89819,89949,89923
 3.1000e+000 89998  1.9910e+000 -1.3664e+001  8.9519e+000 44134 89845,89923,89897
 3.1000e+000 89975 -2.5603e+001 -9.9611e+001  1.8069e+001 44134 89845,89897,89871
 3.1000e+000 90520 -1.0539e+001 -1.0977e+002  2.3156e+001 43457 90543,90252,90226
 3.1000e+000 90497  1.2518e+000 -1.5522e+002 -6.1429e+000 43457 90543,90226,90330
 3.1000e+000 90474 -2.7434e+001 -1.5041e+002 -2.2958e+001 43457 90200,90330,90226
 3.1000e+000 90451 -4.4529e+001 -1.1180e+002  4.3835e+001 43457 90200,90356,90330
 3.1000e+000 90428 -2.1374e+000 -1.0848e+002 -2.1116e+000 43457 90252,90304,90278
 3.1000e+000 90405 -6.4818e+001 -8.1311e+001  3.7175e+001 43457 90174,90356,90200
 3.1000e+000 90382 -2.8505e+001 -4.0728e+001  5.3283e+001 43457 90148,90356,90174
 3.1000e+000 90569 -9.7078e+000 -1.5611e+002  9.9685e+000 43457 90304,90252,90543
 3.1000e+000 90592 -1.9484e+001 -2.2678e+002 -2.2827e+001 43457 90304,90543,90330
 3.1000e+000 91098 -7.5782e+000 -9.9006e+001 -1.3494e+001 42789 90801,90905,90853
 3.1000e+000 91075 -3.8406e+001 -1.3428e+002 -1.3251e-001 42789 90775,90905,90801
 3.1000e+000 91052 -2.8708e+001 -1.4217e+002  2.3377e+001 42789 90775,90931,90905
 3.1000e+000 91029 -2.5847e+001 -1.7078e+002  1.5876e-001 42789 90801,90853,90827
 3.1000e+000 91006  2.1420e+001 -9.1428e+001  1.3943e+001 42789 90853,90905,90879
 3.1000e+000 90983 -2.7908e+001 -1.3313e+002  2.2556e+001 42789 90775,90957,90931
 3.1000e+000 91427 -3.2120e+001 -1.6707e+002  6.7214e-001 42227 91228,91280,91254
 3.1000e+000 91404  1.8318e+001 -1.5005e+002 -6.3581e+000 42227 91228,91306,91280
 3.1000e+000 91381 -4.2318e+001 -1.6874e+002  1.7169e+001 42227 91202,91306,91228
 3.1000e+000 91358  1.1370e+001 -1.1001e+002 -1.3155e+001 42227 91202,91332,91306
 3.1000e+000 91675 -2.4017e+001 -1.0963e+002  1.7155e+001 41773 91698,91476,91450
 3.1000e+000 91652 -1.3077e+001 -1.0727e+002  4.9081e+001 41773 91698,91450,91554
 3.1000e+000 91629 -3.9653e+001 -8.6649e+001  5.2585e+001 41773 91450,91580,91554
 3.1000e+000 91606 -1.5836e+001 -1.5288e+002  2.9172e+001 41773 91502,91554,91528
 3.1000e+000 91724 -4.9058e+001 -1.1793e+002  1.2358e+001 41773 91502,91476,91698
 3.1000e+000 91747 -4.3877e+001 -1.1787e+002  4.4713e+001 41773 91502,91698,91554
 3.1000e+000 92127 -9.3198e+001 -1.7815e+002 -6.1107e+000 41255 92150,91905,91879
 3.1000e+000 92104 -3.8376e+001 -1.6097e+002 -2.8305e+001 41255 92150,91879,91957
 3.1000e+000 92081 -7.5426e+000 -2.3796e+002  3.7119e+001 41255 91853,91957,91879
 3.1000e+000 92058 -1.6041e+001 -2.5719e+002  3.1791e+001 41255 91853,91983,91957
 3.1000e+000 92035 -6.0369e+000 -1.8854e+002  6.7904e+000 41255 91853,92009,91983
 3.1000e+000 92176 -4.1496e+001 -2.0400e+002 -3.7864e+001 41255 91931,91905,92150
 3.1000e+000 92199  4.4678e+001 -1.4541e+002 -7.2312e+001 41255 91931,92150,91957
 3.1000e+000 92518 -3.9328e+001 -2.3952e+002 -2.9516e+001 41007 92244,92374,92270
 3.1000e+000 92495 -1.2114e+002 -2.5069e+002 -2.7305e+001 41007 92244,92400,92374
 3.1000e+000 92472 -1.4207e+001 -2.0626e+002 -1.3170e+001 41007 92270,92374,92348
 3.1000e+000 92449  2.8851e+001 -1.4815e+001  4.4429e+001 41007 92296,92348,92322
 3.1000e+000 92426  1.4430e+001 -1.4314e+002 -2.8152e+001 41007 92270,92348,92296
 3.1000e+000 92668 -4.5969e+001 -1.4108e+002 -2.8626e+001 40717 92823,92691,92567
 3.1000e+000 92645 -5.2581e+001 -1.3105e+002 -2.9314e+001 40717 92895,92823,92567
 3.1000e+000 92717 -1.1164e+001 -1.2553e+002 -2.3367e+001 40717 92593,92567,92691
 3.1000e+000 92849 -2.7810e+001 -1.3391e+002 -3.5451e+001 40717 92619,92691,92823
 3.1000e+000 92872 -4.8286e+001 -1.2670e+002 -1.9633e+001 40717 92619,92823,92541
 3.1000e+000 92921 -6.2748e+001 -1.4882e+002 -1.2535e+001 40717 92541,92823,92895
 3.1000e+000 93634 -8.6504e+001 -4.1024e+002 -1.7194e+001 40206 93366,93444,93418
 3.1000e+000 93611 -2.9427e+001 -1.5361e+002 -2.0984e+001 40206 93288,93444,93366
 3.1000e+000 93588 -1.2162e+002 -2.8721e+002  1.9356e+001 40206 93288,93366,93314
 3.1000e+000 93565 -8.0888e+001 -1.5898e+002  1.9727e+000 40206 93262,93444,93288
 3.1000e+000 93542 -2.8218e+001 -3.2033e+002  2.9915e+001 40206 93366,93418,93392
 3.1000e+000 93519 -7.8340e+001 -2.0197e+002  8.4587e+000 40206 93262,93470,93444
 3.1000e+000 93496 -5.0943e+001 -2.5781e+002  4.4493e+001 40206 93314,93366,93340
 3.1000e+000 94189 -3.5556e+001 -1.0274e+002  2.9044e+001 39802 93843,93999,93973
 3.1000e+000 94166  3.7691e+001 -5.5834e+001 -7.6047e+000 39802 93817,93999,93843
 3.1000e+000 94143 -1.3556e+001 -6.6822e+001  1.9557e+000 39802 93869,93973,93947
 3.1000e+000 94120 -8.3326e+000 -7.4043e+001  1.7726e+001 39802 93843,93973,93869
 3.1000e+000 94097 -9.9777e+000 -7.7313e+001  3.5579e+000 39802 93869,93921,93895
 3.1000e+000 94074 -3.9976e+000 -6.4680e+001 -1.1128e+000 39802 93869,93947,93921
 3.1000e+000 94051 -5.5257e+001 -9.3531e+001  2.8538e+001 39802 93817,94025,93999
 3.1000e+000 94290 -1.7008e+001 -8.7121e+001 -1.7156e+001 39398 94212,94264,94238
 3.1000e+000 94798 -2.0368e+001 -1.3347e+002 -9.2780e+000 38701 94501,94657,94631
 3.1000e+000 94775 -3.5155e+001 -1.0845e+002  7.6645e+000 38701 94475,94657,94501
 3.1000e+000 94752  3.1965e+001 -1.2780e+002 -2.6310e+001 38701 94579,94631,94605
 3.1000e+000 94729 -2.6076e+001 -2.3984e+002 -4.7430e+001 38701 94553,94631,94579
 3.1000e+000 94706 -5.8295e+001 -2.3325e+002  1.4627e+001 38701 94501,94631,94553
 3.1000e+000 94683 -3.1687e+001 -4.0880e+002  5.0871e+000 38701 94501,94553,94527
 3.1000e+000 95255 -6.8735e+001 -1.9909e+002 -1.2264e+001 38247 95278,95085,95007
 3.1000e+000 95232 -4.2448e+001 -1.9135e+002 -1.5200e+001 38247 95278,95007,95137
 3.1000e+000 95209 -1.9035e+001 -1.5126e+002 -5.5969e+000 38247 94981,95137,95007
 3.1000e+000 95186 -4.5540e+001 -1.3874e+002 -1.8668e+001 38247 95007,95059,95033
 3.1000e+000 95163 -4.9113e+001 -1.5402e+002 -3.1725e+001 38247 95007,95085,95059
 3.1000e+000 95304 -7.8700e+001 -2.0113e+002  1.0085e+001 38247 95111,95085,95278
 3.1000e+000 95327 -5.4320e+001 -1.8961e+002  4.2375e+000 38247 95111,95278,95137
 3.1000e+000 95575 -2.6011e+001 -2.5306e+001 -6.0294e+000 37564 95376,95428,95402
 3.1000e+000 95552 -1.5048e+001 -6.2243e+001 -8.2898e+000 37564 95376,95454,95428
 3.1000e+000 95529  1.1005e+001 -4.5772e+001  1.5877e+000 37564 95376,95480,95454
 3.1000e+000 95506  6.0731e+001 -9.6520e+001 -5.6610e+000 37564 95350,95480,95376
 3.1000e+000 96034 -7.2799e+001 -2.2073e+002 -3.6432e+001 37224 95786,95838,95812
 3.1000e+000 96011 -2.9430e+001 -1.5558e+002 -4.7194e+000 37224 95786,95890,95838
 3.1000e+000 95988 -5.5973e+001 -1.4418e+002  2.4650e+000 37224 95786,95916,95890
 3.1000e+000 95965 -2.5722e+000 -1.0228e+002 -2.9480e+001 37224 95760,95916,95786
 3.1000e+000 95942 -2.1424e+001 -1.8205e+002 -3.7956e+001 37224 95838,95890,95864
 3.1000e+000 96363 -3.7202e+000 -2.5981e+001 -1.3143e+001 36884 96216,96268,96242
 3.1000e+000 96340  1.4585e+001 -3.2540e+001 -1.5361e+001 36884 96164,96268,96216
 3.1000e+000 96317  4.9842e+001 -2.3006e+001 -1.3137e+001 36884 96138,96268,96164
 3.1000e+000 96294  6.6732e+000 -4.4723e+001 -5.8928e+000 36884 96164,96216,96190
 3.1000e+000 96839 -4.1115e+001 -1.9127e+002  3.5871e+001 36572 96862,96649,96597
 3.1000e+000 96816 -4.2051e+000 -1.6369e+002  2.0292e+001 36572 97006,96862,96597
 3.1000e+000 96793  2.0055e+000 -8.2608e+001 -1.6349e+001 36572 96934,96467,96675
 3.1000e+000 96770 -2.4445e+000 -1.6170e+002  1.8846e+001 36572 97006,96597,96571
 3.1000e+000 96747 -2.0599e+001 -1.6545e+002  1.6808e+001 36572 96467,96519,96493
 3.1000e+000 96724  1.1736e+001 -1.2931e+002  1.0779e+001 36572 96519,96571,96545
 3.1000e+000 96701 -5.9181e+001 -1.5274e+002 -4.4905e+000 36572 96597,96649,96623
 3.1000e+000 96888 -2.2223e+000 -1.9307e+002 -1.1735e+001 36572 96675,96649,96862
 3.1000e+000 96911  1.6866e+001 -1.4324e+002 -2.1255e+001 36572 96934,96675,96862
 3.1000e+000 96960 -1.5575e+001 -1.4001e+002 -4.7018e+000 36572 96519,96467,96934
 3.1000e+000 96983  5.7917e+000 -1.8511e+002  4.7674e-001 36572 97078,96934,96862
 3.1000e+000 97032 -7.8381e+000 -1.7794e+002  1.8319e+001 36572 97078,96862,97006
 3.1000e+000 97055 -3.5240e+000 -1.5963e+002  1.7132e+001 36572 96519,97006,96571
 3.1000e+000 97104  1.7110e+001 -1.6019e+002 -4.1010e+000 36572 96519,96934,97078
 3.1000e+000 97127  8.7097e+000 -1.5107e+002  1.1274e+001 36572 96519,97078,97006
 3.1000e+000 97761 -2.1965e+001 -1.5353e+002 -1.4466e+001 36118 97784,97493,97415
 3.1000e+000 97738 -2.0593e+001 -1.7347e+002  1.6949e+000 36118 97784,97415,97597
 3.1000e+000 97715 -1.9347e+001 -1.8864e+002 -2.2190e+001 36118 97389,97597,97415
 3.1000e+000 97692 -5.7314e+001 -1.8205e+002  1.2545e+001 36118 97415,97467,97441
 3.1000e+000 97669 -5.8996e+001 -1.7533e+002  8.7024e+000 36118 97415,97493,97467
 3.1000e+000 97646 -5.8429e+001 -9.2060e+001 -5.5283e+000 36118 97493,97571,97519
 3.1000e+000 97623 -5.3156e+001 -1.2315e+002  1.6887e+001 36118 97519,97571,97545
 3.1000e+000 97810 -2.4271e+001 -1.2339e+002 -2.2417e+001 36118 97571,97493,97784
 3.1000e+000 97833 -3.3142e+001 -1.4485e+002 -3.0690e-001 36118 97571,97784,97597
 3.1000e+000 98081 -2.6236e+001 -1.0493e+002 -2.3060e+000 35564 98104,97908,97856
 3.1000e+000 98058 -2.2029e+001 -1.0946e+002 -5.7302e+000 35564 98104,97856,97986
 3.1000e+000 98035  3.3840e+001 -1.0043e+002  2.3805e+001 35564 97934,97986,97960
 3.1000e+000 98012 -2.2154e+001 -1.1106e+002  3.4380e+001 35564 97856,97908,97882
 3.1000e+000 98130 -1.5985e+001 -9.2220e+001  2.1352e+000 35564 97934,97908,98104
 3.1000e+000 98153 -2.0823e+001 -1.0603e+002 -4.3408e+000 35564 97934,98104,97986
 3.1000e+000 98374 -4.2419e+001 -9.7179e+001 -3.5436e+000 35152 98224,98302,98276
 3.1000e+000 98351 -6.6839e+001 -1.6153e+002  6.4378e+000 35152 98198,98302,98224
 3.1000e+000 98328 -2.8698e+001 -8.7160e+001 -7.9833e+000 35152 98224,98276,98250
 3.1000e+000 98884 -6.4757e+000 -1.1313e+002 -2.6479e+001 34698 98691,98743,98717
 3.1000e+000 98861 -2.0485e+001 -1.3678e+002 -4.1490e+001 34698 98561,98743,98691
 3.1000e+000 98838 -3.7918e+001 -1.1848e+002 -4.8189e+001 34698 98907,98587,98561
 3.1000e+000 98815 -5.4006e+001 -1.4194e+002 -3.2160e+001 34698 98907,98561,98691
 3.1000e+000 98792 -6.4100e+001 -1.2894e+002 -3.0414e+001 34698 98587,98639,98613
 3.1000e+000 98769 -5.4238e+001 -1.0485e+002 -3.1300e+001 34698 98587,98665,98639
 3.1000e+000 98933 -4.6327e+001 -1.3223e+002 -2.4234e+001 34698 98665,98587,98907
 3.1000e+000 98956 -7.1139e+001 -1.6985e+002 -6.7725e+000 34698 98665,98907,98691
 3.1000e+000 99204  1.6180e+000 -1.6980e+002 -1.4399e+001 34144 99227,99031,99005
 3.1000e+000 99181 -1.1716e+001 -1.6111e+002 -2.7606e+001 34144 99299,99227,99005
 3.1000e+000 99158 -1.1599e+001 -1.5897e+002 -2.4337e+001 34144 99299,99005,99109
 3.1000e+000 99135 -1.4770e+001 -1.2015e+002 -1.2329e+001 34144 98979,99109,99005
 3.1000e+000 99253 -7.1418e+000 -1.9677e+002 -1.5130e+001 34144 99057,99031,99227
 3.1000e+000 99276 -1.3658e+001 -1.7008e+002 -2.8272e+001 34144 99057,99227,99083
 3.1000e+000 99325 -1.0671e+001 -1.5571e+002 -2.4603e+001 34144 99083,99227,99299
 3.1000e+000 99348 -7.5206e+000 -1.5231e+002 -2.0704e+001 34144 99083,99299,99109
 3.1000e+000 99498 -4.4990e+000 -7.1012e+001  1.9704e+001 33433 99397,99449,99423
 3.1000e+000 99475 -2.3682e+001 -3.3776e+001  1.0830e+000 33433 99371,99449,99397
 3.1000e+000 100008 -2.4578e+001 -8.8038e+001 -1.0384e+001 32979 100103,100031,99815
 3.1000e+000 99985 -4.1533e+001 -1.1827e+002 -2.1337e+001 32979 100175,100031,99763
 3.1000e+000 99962 -2.4228e+000 -1.1199e+002 -3.3762e+001 32979 100103,99815,99789
 3.1000e+000 99939 -4.4376e+001 -1.4685e+002 -2.5722e+001 32979 100175,99763,99737
 3.1000e+000 99916 -4.2129e+001 -1.1690e+002 -1.6286e+001 32979 99685,99867,99737
 3.1000e+000 99893 -5.7378e+001 -2.0589e+002 -3.1451e+001 32979 99685,99737,99711
 3.1000e+000 100057 -1.8691e+001 -9.1420e+001  4.7599e+000 32979 99841,99815,100031
 3.1000e+000 100080 -1.5279e+001 -5.5345e+001 -2.1524e+001 32979 99841,100031,99867
 3.1000e+000 100129 -2.9106e+001 -1.3720e+002 -6.4544e+000 32979 99763,100031,100103
 3.1000e+000 100152 -1.8723e+001 -1.7598e+002 -3.2326e+001 32979 99763,100103,99789
 3.1000e+000 100201 -4.0198e+001 -1.0277e+002 -6.6378e+000 32979 99867,100031,100175
 3.1000e+000 100224 -4.2370e+001 -1.1992e+002 -1.5623e+001 32979 99867,100175,99737
 3.1000e+000 100553 -9.2055e+000 -6.4766e+001 -1.4395e+001 32503 100354,100406,100380
 3.1000e+000 100530  5.0443e+000 -1.1822e+002  3.4222e+001 32503 100328,100406,100354
 3.1000e+000 100507 -4.8703e+000 -1.4057e+002  3.6076e+001 32503 100328,100458,100406
 3.1000e+000 100484 -1.9773e+001 -1.9777e+002  3.0692e+001 32503 100406,100458,100432
 3.1000e+000 100850 -3.3479e+001 -1.9668e+002 -8.4963e+000 31899 100873,100654,100628
 3.1000e+000 100827 -1.4844e+001 -1.9191e+002 -8.9982e+000 31899 100945,100873,100628
 3.1000e+000 100804  1.0889e-001 -1.7630e+002 -2.5593e+000 31899 100945,100628,100602
 3.1000e+000 100781 -2.6302e+001 -1.2339e+002  6.4627e+000 31899 100576,100732,100602
 3.1000e+000 100758 -8.5290e+001 -1.6278e+002 -9.9588e+001 31899 100654,100706,100680
 3.1000e+000 100899 -1.9698e+001 -1.9687e+002 -1.2353e+001 31899 100706,100654,100873
 3.1000e+000 100922 -6.6572e+001 -1.9553e+002 -3.5382e+001 31899 100706,100873,100732
 3.1000e+000 100971 -5.1439e+001 -1.6266e+002 -1.9713e+001 31899 100732,100873,100945
 3.1000e+000 100994 -3.3188e+001 -1.4349e+002 -1.2006e+001 31899 100732,100945,100602
 3.1000e+000 101551 -1.7621e+001 -1.3757e+002 -1.9698e+001 31338 101205,101387,101231
 3.1000e+000 101528 -1.6122e-001 -1.3002e+002  2.8422e+000 31338 101179,101387,101205
 3.1000e+000 101505 -3.5523e+001 -1.2741e+002  2.7156e+001 31338 101574,101309,101257
 3.1000e+000 101482 -3.5030e+001 -1.6420e+002  1.4817e+001 31338 101646,101574,101257
 3.1000e+000 101459 -3.3414e+001 -1.2948e+002  4.0955e+000 31338 101646,101257,101231
 3.1000e+000 101436 -5.7164e+001 -1.8064e+002  1.5123e+001 31338 101309,101361,101335
 3.1000e+000 101413  5.7889e+000 -1.1136e+002  2.6894e+001 31338 101257,101309,101283
 3.1000e+000 101600 -3.9143e+001 -1.6375e+002  2.6070e+001 31338 101361,101309,101574
 3.1000e+000 101623 -3.6141e+001 -2.0419e+002 -1.2712e+001 31338 101361,101574,101387
 3.1000e+000 101672 -1.1920e+001 -1.3996e+002 -6.7276e+000 31338 101387,101574,101646
 3.1000e+000 101695 -2.3740e+001 -1.2748e+002 -1.7244e+001 31338 101387,101646,101231
 3.1000e+000 101943 -1.2279e+001 -1.7828e+002 -1.0302e+001 30748 101966,101796,101744
 3.1000e+000 101920  5.4072e+000 -1.7570e+002 -7.0884e+000 30748 101966,101744,101718
 3.1000e+000 101897 -2.7580e+001 -1.8125e+002  1.8213e+001 30748 101718,101848,101822
 3.1000e+000 101874 -4.9737e+001 -1.7773e+002 -2.4501e+001 30748 101744,101796,101770
 3.1000e+000 101992 -2.1554e+001 -1.7147e+002 -6.7799e+000 30748 101822,101796,101966
 3.1000e+000 102015 -9.7691e+000 -1.7355e+002 -3.9698e+000 30748 101822,101966,101718
 3.1000e+000 102493 -6.9459e+001 -1.6879e+002 -6.2576e+000 30344 102516,102173,102147
 3.1000e+000 102470 -5.1622e+001 -1.4113e+002 -1.5309e+001 30344 102660,102516,102147
 3.1000e+000 102447 -3.6663e+001 -1.6190e+002 -2.1970e+001 30344 102588,102199,102173
 3.1000e+000 102424 -2.9081e+001 -1.3820e+002 -1.8813e+001 30344 102660,102147,102329
 3.1000e+000 102401 -1.7987e+001 -1.6711e+002 -5.4752e+001 30344 102199,102277,102251
 3.1000e+000 102378  6.0643e+000 -1.1417e+002 -8.8478e+001 30344 102199,102251,102225
 3.1000e+000 102355 -1.4038e+000 -1.2057e+002  8.9336e+000 30344 102121,102329,102147
 3.1000e+000 102542 -4.2718e+001 -1.5680e+002 -2.3304e+001 30344 102588,102173,102516
 3.1000e+000 102565 -6.7840e+001 -1.5696e+002 -1.6685e+001 30344 102277,102516,102303
 3.1000e+000 102614 -4.2461e+001 -1.6431e+002 -2.3437e+001 30344 102277,102199,102588
 3.1000e+000 102637 -5.1082e+001 -1.6282e+002 -2.6376e+001 30344 102277,102588,102516
 3.1000e+000 102686 -2.5981e+001 -1.4604e+002 -4.5290e+000 30344 102303,102516,102660
 3.1000e+000 102709 -1.2795e+001 -1.4989e+002 -6.2458e+000 30344 102303,102660,102329
 3.1000e+000 103294  1.7725e-001 -1.7243e+002  1.0102e+001 29726 103317,103101,103075
 3.1000e+000 103271  2.4450e+001 -9.6587e+001  1.9425e+001 29726 103317,103075,102997
 3.1000e+000 103248 -1.7510e+001 -8.5907e+001 -2.7493e+001 29726 102971,103153,102997
 3.1000e+000 103225 -2.8215e+001 -1.5858e+002 -1.2769e+001 29726 103101,103153,103127
 3.1000e+000 103202 -1.4370e+001 -2.1117e+002  2.6730e+001 29726 102997,103075,103023
 3.1000e+000 103179 -4.4004e+001 -1.4770e+002 -3.9474e+001 29726 103023,103075,103049
 3.1000e+000 103343 -8.0902e+000 -1.0631e+002 -1.6186e+000 29726 103153,103101,103317
 3.1000e+000 103366 -8.0817e+000 -6.5519e+001  3.7012e-001 29726 103153,103317,102997
 3.1000e+000 103614  3.0445e+001 -1.0058e+002 -8.6594e+000 29200 103781,103637,103467
 3.1000e+000 103591 -1.9604e+001 -1.0322e+002  2.1210e+001 29200 103709,103637,103415
 3.1000e+000 103568 -3.2066e+001 -9.7650e+001  1.1108e+001 29200 103709,103415,103389
 3.1000e+000 103545  2.1301e+001 -7.9156e+001 -2.6917e+001 29200 103781,103467,103441
 3.1000e+000 103663  3.9943e+001 -1.0399e+002  9.6802e+000 29200 103853,103637,103493
 3.1000e+000 103686  3.2658e+001 -3.4096e+001  1.3472e+001 29200 103493,103637,103519
 3.1000e+000 103735  2.5895e+000 -1.0039e+002  2.0804e+001 29200 103519,103637,103709
 3.1000e+000 103758 -1.2482e+001 -9.5513e+001  1.2466e+001 29200 103519,103709,103389
 3.1000e+000 103807  1.8379e+001 -1.3720e+002 -6.9183e+000 29200 103415,103637,103781
 3.1000e+000 103830  6.1255e+000 -1.2642e+002 -3.1487e+001 29200 103415,103781,103441
 3.1000e+000 103879  2.1597e+001 -1.0012e+002 -5.1972e+000 29200 103467,103637,103853
 3.1000e+000 104545 -1.1028e+001 -1.1719e+002 -1.9222e+001 28860 104274,104352,104326
 3.1000e+000 104522 -5.8461e+001 -1.0994e+002 -7.9590e+000 28860 104248,104352,104274
 3.1000e+000 104499 -3.7995e+001 -9.9613e+001 -1.1675e+001 28860 104248,104404,104352
 3.1000e+000 104476 -8.5696e+001 -8.3789e+001 -1.2016e+001 28860 104222,104404,104248
 3.1000e+000 104453 -1.3574e+001 -6.2942e+001 -2.2793e+001 28860 104352,104404,104378
 3.1000e+000 104430 -4.2585e+001 -1.3092e+002 -1.5817e+001 28860 104274,104326,104300
 3.1000e+000 104744 -1.4423e-002 -1.6735e+002 -4.1832e+001 28456 104839,104767,104646
 3.1000e+000 104721 -7.5365e+001 -2.2453e+002 -2.6014e+001 28456 104767,104594,104568
 3.1000e+000 104698 -8.7251e+000 -1.3758e+002 -2.0550e+001 28456 104839,104646,104620
 3.1000e+000 104793 -1.8674e+001 -1.9028e+002 -2.4984e+001 28456 104672,104646,104767
 3.1000e+000 104816 -8.9208e+001 -2.4509e+002  1.5097e+001 28456 104911,104767,104568
 3.1000e+000 104865 -3.5061e+001 -1.9265e+002 -1.1530e+001 28456 104594,104767,104839
 3.1000e+000 104888  1.4293e+001 -2.1524e+001 -2.0710e+001 28456 105041,104839,104620
 3.1000e+000 104937 -4.8409e+000 -1.2344e+002 -2.6314e+001 28456 104672,104767,104911
 3.1000e+000 105067 -3.3086e+001 -1.8404e+002 -3.3560e+001 28456 104594,104839,105041
 3.1000e+000 105573 -3.9905e+001 -1.8357e+002 -1.5307e+001 28094 105812,105596,105328
 3.1000e+000 105550 -3.9100e+001 -1.5867e+002  3.4015e+000 28094 105596,105276,105250
 3.1000e+000 105527 -1.5111e+001 -2.1741e+002 -1.2832e+001 28094 105740,105668,105432
 3.1000e+000 105504 -2.9732e+001 -2.4310e+002 -6.6656e+000 28094 105740,105432,105380
 3.1000e+000 105481 -2.6444e+001 -1.9271e+002 -7.9103e+000 28094 105812,105328,105302
 3.1000e+000 105458 -5.8541e+001 -2.3007e+002 -5.8321e+000 28094 105380,105432,105406
 3.1000e+000 105622 -1.2910e+001 -1.2374e+002 -2.6421e+001 28094 105354,105328,105596
 3.1000e+000 105645 -4.8737e+000 -1.2593e+002  2.0718e+001 28094 105668,105354,105596
 3.1000e+000 105694  2.9920e+000 -1.5812e+002 -1.8295e+001 28094 105250,105432,105668
 3.1000e+000 105717 -4.4054e+001 -1.9700e+002  4.3847e+000 28094 105250,105668,105596
 3.1000e+000 105766 -3.4007e+001 -1.9701e+002  3.9130e+001 28094 105354,105668,105740
 3.1000e+000 105789 -5.6094e+001 -2.4225e+002  4.6579e+001 28094 105354,105740,105380
 3.1000e+000 105838 -2.7959e+001 -1.6548e+002 -9.8653e+000 28094 105276,105596,105812
 3.1000e+000 105861  6.0756e+000 -1.6664e+002  1.0161e+001 28094 105276,105812,105302
 3.1000e+000 106367 -5.3808e+001 -2.0338e+002 -1.8737e+001 27390 106070,106122,106096
 3.1000e+000 106344 -2.0642e+001 -2.1823e+002 -2.8179e+001 27390 106070,106226,106122
 3.1000e+000 106321  1.4412e+001 -2.1315e+002 -1.9516e+001 27390 106174,106226,106200
 3.1000e+000 106298 -6.3416e+000 -2.0728e+002 -1.4578e+001 27390 106122,106226,106174
 3.1000e+000 106275 -5.2661e+000 -2.0257e+002  1.4028e+001 27390 106122,106174,106148
 3.1000e+000 106252 -7.6782e+001 -2.4679e+002 -4.3000e+001 27390 106044,106226,106070
 3.1000e+000 106615 -1.0452e+001 -1.5783e+002 -3.5031e+000 26978 106638,106494,106416
 3.1000e+000 106592 -9.9770e+000 -1.7095e+002 -6.5630e+000 26978 106638,106416,106390
 3.1000e+000 106569 -6.4984e+000 -1.5249e+002  5.8743e+000 26978 106416,106494,106442
 3.1000e+000 106546  1.3530e+001 -1.5722e+002 -8.4353e-001 26978 106442,106494,106468
 3.1000e+000 106664 -3.1518e+000 -1.7167e+002  2.1267e+000 26978 106520,106494,106638
 3.1000e+000 106687 -4.1398e+000 -1.8493e+002 -5.1063e+000 26978 106520,106638,106390
 3.1000e+000 106837  1.4764e+000 -4.9078e+002 -3.8635e-001 26524 106710,106762,106736
 3.1000e+000 106814  3.4344e-001 -4.8271e+002  1.7451e-001 26524 106710,106788,106762
 3.1000e+000 107426 -6.3006e+001 -1.5666e+002  2.0270e+001 26120 107129,107207,107155
 3.1000e+000 107403 -4.9465e+001 -1.4048e+002  1.4354e+001 26120 107129,107285,107207
 3.1000e+000 107380 -6.6998e+001 -1.6073e+002 -3.9523e-001 26120 107207,107285,107259
 3.1000e+000 107357  1.1947e+001 -1.1439e+002 -1.6000e+000 26120 107155,107207,107181
 3.1000e+000 107334 -3.6651e+001 -1.3377e+002  1.7384e+001 26120 107103,107285,107129
 3.1000e+000 107311 -6.3756e+001 -1.4730e+002  4.1390e+000 26120 107207,107259,107233
 3.1000e+000 107755 -3.4708e+001 -1.3928e+002  2.1085e+000 25758 107556,107634,107608
 3.1000e+000 107732 -5.3171e+000 -9.9759e+001 -1.1851e+001 25758 107556,107660,107634
 3.1000e+000 107709 -5.9608e+001 -1.2748e+002 -2.2831e+001 25758 107556,107608,107582
 3.1000e+000 107686 -9.9905e+000 -1.9309e+001  1.1001e+001 25758 107530,107660,107556
 3.1000e+000 108438 -6.1853e+001 -2.2201e+002 -6.2926e+000 25468 108121,108199,108173
 3.1000e+000 108415 -6.0540e+000 -8.9146e+001 -7.2378e+000 25468 108095,108199,108121
 3.1000e+000 108392 -1.6680e+000 -1.1001e+002 -6.4556e+000 25468 108095,108251,108199
 3.1000e+000 108369 -2.9365e+001 -1.3785e+002  9.4056e+000 25468 108069,108251,108095
 3.1000e+000 108346 -3.2780e+001 -1.1995e+002 -2.2108e+001 25468 108199,108251,108225
 3.1000e+000 108323  1.3985e+000 -1.6023e+002  3.1256e+001 25468 108017,108251,108069
 3.1000e+000 108300 -6.3628e+001 -1.2944e+002 -2.0334e+001 25468 108121,108173,108147
 3.1000e+000 108277  1.5576e+001 -1.4450e+002  2.2975e+001 25468 108017,108069,108043
 3.1000e+000 108588 -4.8424e+001 -1.8529e+002 -4.6443e+001 25064 108611,108513,108487
 3.1000e+000 108565 -9.5364e+001 -1.6661e+002 -2.7055e+001 25064 108683,108611,108487
 3.1000e+000 108637 -3.5316e+001 -1.5488e+002 -5.0827e+001 25064 108539,108513,108611
 3.1000e+000 108660 -3.3189e+001 -1.2953e+002 -3.2431e+001 25064 108539,108611,108461
 3.1000e+000 108709 -3.2697e+001 -1.1718e+002 -4.8790e+001 25064 108461,108611,108683
 3.1000e+000 109345 -1.2627e+002 -2.1744e+002  7.0751e+001 24410 108999,109155,109103
 3.1000e+000 109322 -6.2836e+001 -2.2157e+002  1.9997e+001 24410 108973,109155,108999
 3.1000e+000 109299 -2.6846e+001 -3.4109e+002  9.8698e+001 24410 109103,109155,109129
 3.1000e+000 109276 -1.0206e+002 -1.9342e+002  1.0525e+001 24410 108973,109181,109155
 3.1000e+000 109253 -7.7653e+001 -1.8212e+002  4.3785e+001 24410 109025,109103,109077
 3.1000e+000 109230 -1.3104e+002 -1.9063e+002  6.3456e+001 24410 108999,109103,109025
 3.1000e+000 109207 -6.0471e+001 -1.6142e+002  3.5661e+001 24410 109025,109077,109051
 3.1000e+000 109723 -4.9455e+001 -1.8410e+002  2.3469e+000 23856 109475,109579,109553
 3.1000e+000 109700 -6.8140e+001 -1.9300e+002  1.2372e+001 23856 109475,109605,109579
 3.1000e+000 109677 -7.0310e+001 -2.4399e+002  2.4357e+001 23856 109475,109553,109527
 3.1000e+000 109654 -5.9169e+001 -1.8883e+002 -9.5841e-002 23856 109449,109605,109475
 3.1000e+000 109631  2.7781e+001 -2.1578e+002  3.5477e+001 23856 109475,109527,109501
 3.1000e+000 110101 -1.7320e+001 -1.6783e+002 -4.4149e+001 23566 109853,109931,109879
 3.1000e+000 110078  8.8541e-001 -1.4215e+002 -2.2082e+001 23566 109827,109931,109853
 3.1000e+000 110055 -3.8488e+001 -1.5846e+002 -1.0686e+001 23566 109827,109983,109931
 3.1000e+000 110032 -1.2996e+001 -1.3979e+002 -2.1880e+001 23566 109879,109931,109905
 3.1000e+000 110009 -2.3439e+001 -1.3758e+002  3.4958e+000 23566 109931,109983,109957
 3.1000e+000 110735 -2.1083e+001 -7.7222e+001 -1.5719e+001 23162 110415,110571,110519
 3.1000e+000 110712 -4.5300e+001 -1.1453e+002 -2.6593e+001 23162 110389,110571,110415
 3.1000e+000 110689 -9.5810e+000 -7.3161e+001 -1.8663e+001 23162 110415,110519,110493
 3.1000e+000 110666 -4.1945e+001 -9.2019e+001  6.6271e+000 23162 110363,110571,110389
 3.1000e+000 110643  4.0380e+001 -3.2640e+001  2.5539e+001 23162 110441,110493,110467
 3.1000e+000 110620  1.1635e+000 -7.8675e+001 -1.6967e+001 23162 110415,110493,110441
 3.1000e+000 110597 -1.2717e+001 -9.0448e+001 -2.1199e+001 23162 110519,110571,110545
 3.1000e+000 111211 -6.1422e+001 -1.9979e+002 -2.4854e+001 22708 111378,111306,111021
 3.1000e+000 111188 -8.7280e+000 -1.9135e+002 -8.1346e+000 22708 111234,110969,110917
 3.1000e+000 111165 -5.5177e+001 -1.8730e+002 -1.5047e+001 22708 111450,111234,110917
 3.1000e+000 111142 -6.0319e+001 -1.7623e+002 -5.5228e+001 22708 111378,111021,110995
 3.1000e+000 111119 -6.1204e+001 -1.8523e+002 -3.1746e+001 22708 111450,110917,110865
 3.1000e+000 111096  2.5582e+001 -2.3310e+002  1.8202e+001 22708 110917,110969,110943
 3.1000e+000 111073 -3.6261e+001 -2.8967e+002 -8.5747e+001 22708 110865,110917,110891
 3.1000e+000 111260  6.9390e+000 -1.8614e+002 -2.2849e+001 22708 111306,110969,111234
 3.1000e+000 111283 -2.1319e+001 -1.6330e+002 -1.5410e+001 22708 111047,111234,110839
 3.1000e+000 111332 -3.4448e+000 -2.3499e+002  1.4488e+001 22708 111047,111021,111306
 3.1000e+000 111355 -2.3721e+001 -1.9886e+002 -2.4678e+001 22708 111047,111306,111234
 3.1000e+000 111404  5.1739e+000 -1.6391e+002 -4.5861e+001 22708 110969,111306,111378
 3.1000e+000 111427 -1.3031e+001 -1.5535e+002 -6.0200e+001 22708 110969,111378,110995
 3.1000e+000 111476 -2.8388e+001 -1.8037e+002 -1.2983e+001 22708 110839,111234,111450
 3.1000e+000 111499 -2.9344e+001 -1.7722e+002 -3.1299e+001 22708 110839,111450,110865
 3.1000e+000 111600 -1.6528e+001 -1.1153e+002  2.4535e+000 22460 111522,111574,111548
 3.1000e+000 112059  2.8817e+000 -9.8017e+001 -1.0811e+001 22056 111811,111889,111863
 3.1000e+000 112036  3.1335e+001 -8.5263e+001 -1.7188e+001 22056 111811,111915,111889
 3.1000e+000 112013  7.0925e+000 -9.2262e+001 -1.5273e+001 22056 111785,111915,111811
 3.1000e+000 111990  4.8914e+000 -6.7709e+001 -3.9995e+001 22056 111785,111941,111915
 3.1000e+000 111967 -1.8078e+001 -1.0466e+002  1.2219e+000 22056 111811,111863,111837
 3.1000e+000 112486  3.4648e+001 -8.5605e+001 -1.1695e+001 21594 112509,112267,112215
 3.1000e+000 112463 -1.0785e+001 -1.0797e+002  5.5768e+000 21594 112509,112215,112163
 3.1000e+000 112440  1.5062e+001 -4.7669e+001 -5.9016e+001 21594 112581,112293,112267
 3.1000e+000 112417 -1.7488e+001 -1.0034e+002  5.7203e+000 21594 112215,112267,112241
 3.1000e+000 112394  3.2103e+001 -9.6467e+001  4.3010e+000 21594 112163,112345,112319
 3.1000e+000 112371 -1.6582e+001 -1.0813e+002 -4.3566e-002 21594 112163,112215,112189
 3.1000e+000 112535  4.5620e+001 -7.4430e+001 -3.1357e+001 21594 112581,112267,112509
 3.1000e+000 112558  1.3533e+001 -8.1362e+001 -6.2694e+000 21594 112319,112509,112163
 3.1000e+000 112607 -4.0329e+001 -7.4013e+001 -5.1513e+001 21594 112319,112293,112581
 3.1000e+000 112630 -8.8904e+000 -1.0452e+002 -1.8457e+001 21594 112319,112581,112509
 3.1000e+000 112900 -4.2842e+001 -1.6865e+002 -2.8988e+000 20974 112675,112779,112701
 3.1000e+000 112877 -2.1022e+001 -1.6326e+002 -4.2730e+000 20974 112675,112805,112779
 3.1000e+000 112854 -3.7140e+000 -1.4525e+002  9.1739e+000 20974 112701,112779,112753
 3.1000e+000 112831 -1.9322e+001 -7.2823e+001 -3.7230e+001 20974 112701,112753,112727
 3.1000e+000 113359  1.0376e+001 -1.4550e+002 -2.0985e+001 20520 113454,113137,113111
 3.1000e+000 113336  3.4578e+001 -1.6456e+002 -3.5975e+001 20520 113454,113111,113085
 3.1000e+000 113313  2.4761e+001 -3.9207e+001  4.3406e+001 20520 113382,113163,113137
 3.1000e+000 113290  3.2013e+000 -1.6838e+002 -1.5734e+001 20520 113526,113382,113137
 3.1000e+000 113267 -3.9431e+001 -2.7013e+002 -1.3493e+001 20520 113189,113241,113215
 3.1000e+000 113408 -3.4400e+001 -1.7324e+002  3.0578e+001 20520 113189,113163,113382
 3.1000e+000 113431 -1.5921e+001 -2.0079e+002 -3.5106e+001 20520 113189,113382,113241
 3.1000e+000 113480  2.8816e+000 -1.6500e+002 -1.6137e+001 20520 113526,113137,113454
 3.1000e+000 113503  1.6999e+001 -1.8863e+002 -2.7128e+001 20520 113241,113454,113085
 3.1000e+000 113552  4.0483e+000 -1.6297e+002 -1.7610e+001 20520 113241,113382,113526
 3.1000e+000 113575  3.1230e+000 -1.6087e+002 -1.8343e+001 20520 113241,113526,113454
 3.1000e+000 113904 -2.0243e+001 -1.9504e+002  6.3735e+000 19858 113705,113783,113757
 3.1000e+000 113881  2.9293e+000 -1.5811e+002 -4.1410e+000 19858 113705,113809,113783
 3.1000e+000 113858  5.9744e+001 -1.2453e+002 -3.8541e+001 19858 113679,113809,113705
 3.1000e+000 113835 -1.2414e+000 -1.2159e+002  4.8714e+001 19858 113705,113757,113731
 3.1000e+000 114152 -4.7875e+001 -9.7460e+001 -1.8795e+001 19454 114175,114005,113979
 3.1000e+000 114129 -4.8684e+001 -9.5482e+001 -1.8963e+001 19454 114175,113979,114057
 3.1000e+000 114106 -6.6297e+001 -1.3031e+002 -8.0885e+000 19454 113927,114057,113979
 3.1000e+000 114083 -3.5716e+001 -1.1378e+002 -3.0606e+001 19454 113927,113979,113953
 3.1000e+000 114201 -3.6739e+001 -9.2985e+001 -2.6356e+001 19454 114031,114005,114175
 3.1000e+000 114224 -4.8921e+001 -9.4655e+001 -1.9108e+001 19454 114031,114175,114057
 3.1000e+000 114472 -4.3017e+001 -2.1163e+002 -5.2380e+000 19000 114495,114273,114247
 3.1000e+000 114449 -5.6983e+001 -2.2348e+002 -1.2518e+001 19000 114495,114247,114325
 3.1000e+000 114426 -8.7379e+001 -2.3784e+002  1.1403e+001 19000 114247,114377,114325
 3.1000e+000 114403 -9.9104e+001 -2.2671e+002 -3.9267e+001 19000 114325,114377,114351
 3.1000e+000 114521  2.1037e+000 -1.9775e+002  2.0364e+001 19000 114299,114273,114495
 3.1000e+000 114544 -4.4118e+001 -2.4475e+002  1.7245e+000 19000 114299,114495,114325
 3.1000e+000 114948 -4.1761e+001 -2.0904e+002 -1.3785e+000 18560 114674,114726,114700
 3.1000e+000 114925 -6.5764e+000 -1.4851e+002 -1.7138e+001 18560 114674,114830,114726
 3.1000e+000 114902 -7.7719e+000 -1.5347e+002 -2.7753e+001 18560 114726,114830,114804
 3.1000e+000 114879 -4.6949e+001 -3.2955e+002 -6.0105e+001 18560 114726,114804,114752
 3.1000e+000 114856  2.8718e+001 -4.4280e+002 -7.0291e+001 18560 114752,114804,114778
 3.1000e+000 115098 -9.8128e+001 -2.8087e+002 -9.3127e-001 18156 114971,115023,114997
 3.1000e+000 115075 -1.0353e+002 -1.4442e+002 -1.0519e+000 18156 114971,115049,115023
 3.1000e+000 115248 -8.9872e+001 -2.6651e+002 -3.6523e+000 17602 115147,115199,115173
 3.1000e+000 115225 -2.3159e+001 -2.4075e+002  7.9333e+000 17602 115121,115199,115147
 3.1000e+000 115652  2.2339e+001 -1.5604e+002 -6.3361e+000 17354 115430,115534,115508
 3.1000e+000 115629 -8.7410e+000 -2.0677e+002  8.6945e+000 17354 115404,115534,115430
 3.1000e+000 115606  5.9474e+001 -1.1872e+002  7.9209e+001 17354 115378,115534,115404
 3.1000e+000 115583  6.7433e+001 -1.8513e+002 -2.8213e+001 17354 115456,115508,115482
 3.1000e+000 115560 -5.3288e+000 -2.2449e+002 -5.5844e+000 17354 115430,115508,115456
 3.1000e+000 115873 -6.1899e+001 -3.3925e+002 -1.1234e+001 16950 115749,115801,115775
 3.1000e+000 115850 -1.1878e+002 -3.1778e+002 -2.6880e+000 16950 115697,115801,115749
 3.1000e+000 115827 -1.1219e+002 -3.4122e+002  9.3503e+000 16950 115697,115749,115723
 3.1000e+000 116023 -1.1878e+002 -3.2388e+002 -4.4023e+001 16496 115922,115974,115948
 3.1000e+000 116000 -1.2378e+002 -2.5878e+002 -1.9638e+001 16496 115896,115974,115922
 3.1000e+000 116126  2.5466e+001 -1.5189e+002  6.4145e+000 16298 116048,116100,116074
 3.1000e+000 116278  6.5218e+001 -3.5913e+002 -7.7294e+000 15892 116151,116203,116177
 3.1000e+000 116255  1.6733e+001 -4.6496e+002  4.2087e+000 15892 116151,116229,116203
 3.1000e+000 116430  1.2899e+001 -7.3650e+001 -1.9980e+000 15545 116303,116355,116329
 3.1000e+000 116407 -1.6908e+001 -1.6456e+002 -4.5690e+001 15545 116303,116381,116355
 3.1000e+000 116785  4.8158e+001 -1.0605e+002  4.8485e+001 421 116612,116690,116664
 3.1000e+000 116762 -3.9631e+000 -2.2847e+002  3.2610e+001 421 116560,116690,116612
 3.1000e+000 116739 -9.5541e+001 -2.6356e+002  2.8734e+001 421 116560,116612,116586
 3.1000e+000 116716 -4.8579e+001 -2.6835e+002  2.0256e+000 421 116612,116664,116638
 3.2000e+000 68048 -3.2768e+001 -1.9412e+002 -1.2987e+001 67642 67898,67950,67924
 3.2000e+000 68025 -5.6500e+001 -2.1032e+002  2.6850e+000 67642 67898,67976,67950
 3.2000e+000 68002 -1.4199e+001 -1.9384e+002  3.8132e+000 67642 67872,67976,67898
 3.2000e+000 68367 -1.7496e+001 -1.2599e+002 -1.7192e+000 67444 68119,68223,68197
 3.2000e+000 68344 -5.8532e+001 -2.2755e+002  1.0178e+001 67444 68119,68249,68223
 3.2000e+000 68321 -8.1784e+001 -2.2964e+002 -3.0026e+000 67444 68093,68249,68119
 3.2000e+000 68298 -5.8267e+001 -2.2461e+002  3.4874e+000 67444 68119,68197,68171
 3.2000e+000 68275 -9.8876e+001 -2.2172e+002  9.4111e+000 67444 68119,68171,68145
 3.2000e+000 68468 -4.0761e+001 -2.6544e+002  3.3944e+001 67268 68390,68442,68416
 3.2000e+000 68765 -1.0475e+002 -2.4287e+002 -7.6133e-001 66956 68788,68517,68491
 3.2000e+000 68742 -1.3706e+002 -2.6057e+002 -1.0576e+001 66956 68788,68491,68621
 3.2000e+000 68719 -1.2790e+002 -2.8268e+002 -3.9752e+001 66956 68543,68621,68569
 3.2000e+000 68696 -1.5462e+002 -2.8561e+002  3.7393e+000 66956 68491,68647,68621
 3.2000e+000 68673 -1.7121e+002 -2.3009e+002 -4.0540e+001 66956 68569,68621,68595
 3.2000e+000 68814 -6.3672e+001 -2.6095e+002  4.4549e+000 66956 68543,68517,68788
 3.2000e+000 68837 -1.0373e+002 -2.8434e+002 -6.8551e+000 66956 68543,68788,68621
 3.2000e+000 69107 -3.7239e+001 -2.5334e+002 -5.5388e+000 66758 68882,68986,68908
 3.2000e+000 69084 -4.1625e+001 -2.4703e+002  6.5356e+000 66758 68882,69012,68986
 3.2000e+000 69061 -1.5881e+001 -2.3184e+002 -1.2543e+001 66758 68908,68960,68934
 3.2000e+000 69038 -2.4640e+001 -2.2627e+002 -1.0924e+001 66758 68908,68986,68960
 3.2000e+000 69308 -2.0493e+001 -2.3312e+002 -6.3737e+000 66560 69331,69184,69158
 3.2000e+000 69285  5.8918e+000 -2.4370e+002 -5.1676e+000 66560 69331,69158,69132
 3.2000e+000 69262 -3.2515e+001 -2.8274e+002 -1.8149e+001 66560 69184,69236,69210
 3.2000e+000 69357 -3.0175e+001 -2.3967e+002 -3.4909e+000 66560 69236,69184,69331
 3.2000e+000 69380 -1.7724e+001 -2.6113e+002  2.4541e+000 66560 69236,69331,69132
 3.2000e+000 69554 -5.9632e+001 -3.3880e+002  2.0179e+001 66270 69427,69479,69453
 3.2000e+000 69531 -1.5973e+001 -2.3649e+002  4.0212e+001 66270 69427,69505,69479
 3.2000e+000 69804 -3.5862e+001 -2.1560e+002 -1.6821e+001 66066 69579,69683,69657
 3.2000e+000 69781  6.7625e+001 -1.6974e+002 -3.8163e+001 66066 69579,69709,69683
 3.2000e+000 69758 -5.5377e+000 -1.2130e+002 -2.7710e+001 66066 69579,69657,69631
 3.2000e+000 69735 -2.2884e+001 -1.5952e+002 -3.4021e+001 66066 69579,69631,69605
 3.2000e+000 70257 -4.1962e+001 -1.3717e+002  1.0337e+001 65776 69960,70090,69986
 3.2000e+000 70234 -5.6053e+001 -1.5612e+002 -6.9898e-001 65776 69934,70090,69960
 3.2000e+000 70211 -4.6603e+001 -1.6049e+002 -8.8454e+000 65776 69934,70116,70090
 3.2000e+000 70188 -4.6316e+001 -1.6894e+002  0.0000e+000 65776 70038,70090,70064
 3.2000e+000 70165 -4.7608e+001 -1.7522e+002  6.5223e+000 65776 69986,70090,70038
 3.2000e+000 70142 -3.8245e+001 -1.8259e+002  6.3580e+000 65776 69986,70038,70012
 3.2000e+000 70456 -4.6341e+001 -1.2201e+002 -1.7120e+001 65372 70479,70306,70280
 3.2000e+000 70433 -3.9032e+001 -1.5173e+002 -2.9317e+001 65372 70479,70280,70384
 3.2000e+000 70410 -3.2047e+001 -1.3082e+002  5.0188e+000 65372 70551,70332,70306
 3.2000e+000 70505 -3.6856e+001 -1.1434e+002 -8.7051e+000 65372 70551,70306,70479
 3.2000e+000 70528 -4.7588e+000 -1.3762e+002 -2.4687e+001 65372 70358,70479,70384
 3.2000e+000 70577 -3.2834e+001 -1.5506e+002  1.6544e+000 65372 70358,70332,70551
 3.2000e+000 70600 -4.3698e+001 -1.4586e+002 -1.0843e+001 65372 70358,70551,70479
 3.2000e+000 70821 -2.7028e+001 -2.6637e+002 -6.2986e+000 65174 70645,70723,70671
 3.2000e+000 70798 -6.2331e+001 -2.7605e+002  4.4984e+000 65174 70645,70749,70723
 3.2000e+000 70775 -1.5673e+001 -2.5013e+002 -1.1582e+001 65174 70671,70723,70697
 3.2000e+000 71071 -3.2071e+001 -1.2857e+002 -2.1260e+000 64770 71094,70898,70872
 3.2000e+000 71048 -1.9585e+001 -1.2570e+002  4.3254e+000 64770 71166,71094,70872
 3.2000e+000 71025 -2.1464e+001 -1.4489e+002 -9.2385e+000 64770 71166,70872,70846
 3.2000e+000 71002 -2.7787e+001 -8.3304e+001  2.2593e+001 64770 70898,70950,70924
 3.2000e+000 71120 -2.7782e+001 -1.1336e+002 -2.1678e+000 64770 70950,70898,71094
 3.2000e+000 71143 -7.7620e+000 -1.3175e+002  1.2205e+001 64770 70950,71094,70976
 3.2000e+000 71192 -2.5913e+001 -1.6320e+002  1.8531e+000 64770 70976,71094,71166
 3.2000e+000 71215 -1.8881e+001 -1.6972e+002 -1.2016e+001 64770 70976,71166,70846
 3.2000e+000 71514 -2.9624e+001 -1.9784e+002  4.7518e+000 64572 71681,71537,71318
 3.2000e+000 71491 -5.1827e+001 -1.9753e+002  4.3941e-001 64572 71537,71266,71240
 3.2000e+000 71468 -6.1316e+001 -1.6808e+002 -1.8869e+001 64572 71609,71396,71370
 3.2000e+000 71445 -3.6172e+001 -1.9337e+002  3.0271e+000 64572 71681,71318,71292
 3.2000e+000 71422 -6.2314e+001 -2.5980e+002 -1.0236e+001 64572 71753,71344,71318
 3.2000e+000 71563 -3.7565e+001 -2.2336e+002  5.0796e+000 64572 71753,71318,71537
 3.2000e+000 71586 -4.9580e+001 -1.8871e+002  4.5815e+000 64572 71609,71370,71537
 3.2000e+000 71635 -2.8528e+001 -9.8206e+001 -3.2442e+001 64572 71240,71396,71609
 3.2000e+000 71658 -3.7207e+001 -1.4672e+002 -4.9671e+000 64572 71240,71609,71537
 3.2000e+000 71707 -4.3003e+001 -1.9468e+002 -7.4441e-001 64572 71266,71537,71681
 3.2000e+000 71730 -6.1061e+001 -1.9831e+002 -2.1749e+000 64572 71266,71681,71292
 3.2000e+000 71779 -7.8959e+001 -2.0662e+002 -8.2025e+000 64572 71370,71344,71753
 3.2000e+000 71802 -7.1386e+001 -2.0570e+002 -5.0458e+000 64572 71370,71753,71537
 3.2000e+000 72052 -4.3558e+001 -1.9294e+002  2.0911e+001 64374 72075,71879,71827
 3.2000e+000 72029  7.7640e+000 -1.6167e+002  1.4680e+000 64374 72147,72075,71827
 3.2000e+000 72006  4.9095e+001 -1.7909e+002 -2.5888e+001 64374 72147,71827,71957
 3.2000e+000 71983 -1.0725e+001 -1.7291e+002  2.7682e+000 64374 71827,71879,71853
 3.2000e+000 72101 -3.6987e+001 -2.3854e+002  5.5836e+001 64374 71905,71879,72075
 3.2000e+000 72124  2.8239e+001 -2.0002e+002  3.9150e+001 64374 71905,72075,71931
 3.2000e+000 72173 -2.8476e+001 -2.1140e+002  1.8356e+001 64374 71931,72075,72147
 3.2000e+000 72196 -5.0559e-001 -2.3624e+002 -4.8515e+000 64374 71931,72147,71957
 3.2000e+000 72649 -3.7104e+001 -1.3440e+002 -3.5395e+000 63948 72352,72508,72482
 3.2000e+000 72626 -2.8265e+001 -1.0783e+002  2.5459e+001 63948 72326,72508,72352
 3.2000e+000 72603 -5.4783e+001 -1.8913e+002 -1.5217e+001 63948 72672,72430,72378
 3.2000e+000 72580 -4.9633e+001 -2.1872e+002 -6.8407e+000 63948 72672,72378,72352
 3.2000e+000 72557 -4.9521e+001 -1.9014e+002 -1.2716e+001 63948 72744,72456,72430
 3.2000e+000 72534 -5.8335e+001 -2.3901e+002 -5.0595e+001 63948 72378,72430,72404
 3.2000e+000 72698 -4.9920e+001 -1.8938e+002 -1.2243e+001 63948 72744,72430,72672
 3.2000e+000 72721 -3.1737e+001 -1.7977e+002  2.8000e+000 63948 72482,72672,72352
 3.2000e+000 72770 -5.0696e+001 -1.8884e+002 -1.2646e+001 63948 72482,72456,72744
 3.2000e+000 72793 -5.0078e+001 -1.8688e+002 -1.2068e+001 63948 72482,72744,72672
 3.2000e+000 72894 -5.6367e+001 -2.4172e+002 -1.7881e+001 63494 72816,72868,72842
 3.2000e+000 73093 -4.8026e+001 -7.7192e+001  1.6047e+000 63132 72943,72995,72969
 3.2000e+000 73070 -3.5214e+001 -6.8671e+001  7.0130e+000 63132 72943,73021,72995
 3.2000e+000 73047 -2.9099e+001 -6.8834e+001  1.2306e+001 63132 72917,73021,72943
 3.2000e+000 73294 -1.4709e+001 -7.6111e+001 -4.6737e+001 62792 73317,73144,73118
 3.2000e+000 73271 -2.3892e+001 -8.2974e+001 -2.4689e+001 62792 73317,73118,73222
 3.2000e+000 73248 -2.3726e+001 -6.6597e+001 -3.7964e+001 62792 73144,73196,73170
 3.2000e+000 73343 -4.1484e+001 -7.2869e+001 -3.5650e+001 62792 73196,73144,73317
 3.2000e+000 73366 -5.2314e+001 -8.6021e+001 -1.2016e+001 62792 73196,73317,73222
 3.2000e+000 73616 -8.0411e+001 -1.8635e+002  2.5626e+001 62388 73639,73417,73391
 3.2000e+000 73593 -6.8513e+001 -1.6051e+002  1.7826e+001 62388 73711,73639,73391
 3.2000e+000 73570 -4.5409e+001 -1.1594e+002  6.9623e+000 62388 73711,73391,73521
 3.2000e+000 73547 -3.1428e+001 -1.5192e+002  9.6282e+000 62388 73469,73521,73495
 3.2000e+000 73665 -6.2022e+001 -1.8010e+002  1.6607e+001 62388 73443,73417,73639
 3.2000e+000 73688 -5.9288e+001 -2.0025e+002  1.8833e+001 62388 73443,73639,73469
 3.2000e+000 73737 -4.0583e+001 -1.8896e+002  1.4106e+001 62388 73469,73639,73711
 3.2000e+000 73760 -4.3484e+001 -1.7523e+002  1.4606e+001 62388 73469,73711,73521
 3.2000e+000 74010 -2.3031e+001 -7.7464e+001 -2.6016e+001 61848 74033,73837,73811
 3.2000e+000 73987 -6.1463e+001 -7.4168e+001 -5.3801e+001 61848 74033,73811,73785
 3.2000e+000 73964 -3.7685e+000 -7.2878e+001 -2.9615e+001 61848 73837,73915,73889
 3.2000e+000 73941  2.3847e+000 -5.3278e+001 -2.7526e+001 61848 73837,73889,73863
 3.2000e+000 74059 -1.8300e+001 -9.5725e+001 -3.6442e+001 61848 73915,73837,74033
 3.2000e+000 74082 -2.1679e+001 -1.1101e+002 -4.5594e+001 61848 73915,74033,73785
 3.2000e+000 74283  1.1796e+001 -6.3842e+001  3.4997e+000 61444 74306,74133,74107
 3.2000e+000 74260  7.7347e+000 -4.6547e+001  3.5423e+001 61444 74306,74107,74211
 3.2000e+000 74237 -2.9505e+001  2.4884e+000 -4.8649e-001 61444 74378,74185,74159
 3.2000e+000 74332 -9.2425e+000 -7.3374e+001 -6.0540e+000 61444 74159,74133,74306
 3.2000e+000 74355  5.9977e+000 -4.4345e+001  1.5906e+001 61444 74378,74159,74306
 3.2000e+000 74404 -3.4903e+001 -4.6560e+001  2.8815e+001 61444 74211,74185,74378
 3.2000e+000 74427 -2.3944e+001 -6.5882e+001  2.6891e+001 61444 74211,74378,74306
 3.2000e+000 74628 -1.4647e+001 -5.8655e+001 -3.2629e+001 60990 74478,74530,74504
 3.2000e+000 74605 -4.3401e+000 -6.8100e+001 -4.3226e+001 60990 74452,74530,74478
 3.2000e+000 74582 -2.5320e+001 -7.1081e+001 -4.2645e+001 60990 74452,74556,74530
 3.2000e+000 75089 -3.6699e+000 -4.8215e+001 -1.0582e+001 60486 75112,74945,74919
 3.2000e+000 75066 -9.4205e+000 -5.8511e+000  9.5540e+000 60486 75112,74919,74867
 3.2000e+000 75043 -1.0047e+001 -8.5295e+001  1.5023e+001 60486 74841,74971,74867
 3.2000e+000 75020 -6.4202e-001  2.6185e+000  2.1192e+000 60486 74867,74919,74893
 3.2000e+000 74997 -6.1443e+000 -7.5940e+001  2.3569e+001 60486 74815,74971,74841
 3.2000e+000 75138 -2.0137e+001 -6.3451e+001 -2.9382e+001 60486 74971,74945,75112
 3.2000e+000 75161 -2.6638e+001 -3.5944e+001 -6.9449e+000 60486 74971,75112,74867
 3.2000e+000 75409 -2.9864e+001 -1.6798e+001 -9.9171e+000 59932 75576,75432,75288
 3.2000e+000 75386 -3.2535e+001 -2.3492e+001 -9.6206e+000 59932 75504,75314,75288
 3.2000e+000 75363 -1.6779e+001 -3.2183e+000  8.1018e+000 59932 75432,75236,75210
 3.2000e+000 75340 -9.4174e+000 -2.1584e+001 -2.2231e+001 59932 75576,75288,75262
 3.2000e+000 75458 -3.5831e+001 -1.8849e+001 -1.0993e+001 59932 75504,75288,75432
 3.2000e+000 75481 -4.4985e+001 -2.3090e+001 -4.3744e+000 59932 75184,75432,75210
 3.2000e+000 75530 -2.3329e+001 -4.6815e+001 -2.1528e+001 59932 75184,75314,75504
 3.2000e+000 75553 -4.1410e+001 -2.3711e+001 -1.4130e+001 59932 75184,75504,75432
 3.2000e+000 75602 -4.3394e+001 -3.6224e+001 -3.6243e+000 59932 75236,75432,75576
 3.2000e+000 75625 -3.1866e+001 -4.4567e+001 -1.0412e+001 59932 75236,75576,75262
 3.2000e+000 75873 -4.4326e+001 -1.7144e+002  6.0778e+000 59478 75674,75752,75700
 3.2000e+000 75850 -7.2434e+001 -1.8193e+002  3.5514e+001 59478 75648,75752,75674
 3.2000e+000 75827 -3.5939e+001 -1.5830e+002  1.2323e+001 59478 75700,75752,75726
 3.2000e+000 75804 -6.7792e+001 -1.9808e+002  3.8932e+001 59478 75648,75778,75752
 3.2000e+000 76206 -2.9975e+001 -1.6466e+002  1.2903e+001 59024 75981,76059,76007
 3.2000e+000 76183 -3.7773e+001 -1.7644e+002  1.7138e+001 59024 75981,76111,76059
 3.2000e+000 76160 -3.0250e+001 -1.2852e+002 -1.2951e+001 59024 76007,76059,76033
 3.2000e+000 76137 -1.5529e+001 -1.8123e+002  6.4734e+001 59024 76059,76111,76085
 3.2000e+000 76761 -5.2611e+001 -7.2412e+001 -9.1155e+000 58562 76389,76441,76415
 3.2000e+000 76738 -5.4283e+001 -6.8161e+001  1.9190e+001 58562 76856,76784,76389
 3.2000e+000 76715 -4.0755e+001 -3.0100e+001 -3.2601e+001 58562 76784,76571,76467
 3.2000e+000 76692 -1.9524e+001 -8.2958e+001  2.3733e+001 58562 76856,76389,76597
 3.2000e+000 76669 -4.3489e+001 -1.8357e+002  1.2881e+001 58562 76467,76545,76493
 3.2000e+000 76646 -2.0416e+001 -1.3103e+002 -6.6827e+001 58562 76467,76571,76545
 3.2000e+000 76623 -1.8072e+001 -1.6051e+002  2.3847e+001 58562 76493,76545,76519
 3.2000e+000 76810 -3.5225e+001 -7.0297e+001  2.7914e+000 58562 76441,76389,76784
 3.2000e+000 76833 -1.1507e+002 -1.6527e+002 -7.6168e+001 58562 76441,76784,76467
 3.2000e+000 76882 -1.7120e+001 -4.6460e+001  3.5376e+001 58562 76571,76784,76856
 3.2000e+000 76905  5.4340e+000 -6.9504e+001  3.9688e+001 58562 76571,76856,76597
 3.2000e+000 77055 -5.9807e+000 -1.3041e+002 -1.6434e+001 57844 76928,76980,76954
 3.2000e+000 77032 -4.0363e+001 -7.4758e+001 -1.5493e+001 57844 76928,77006,76980
 3.2000e+000 77533 -5.5174e+001 -1.9427e+002 -1.6277e+001 57226 77628,77556,77291
 3.2000e+000 77510 -4.3114e+001 -2.6703e+001  8.8869e+000 57226 77556,77187,77343
 3.2000e+000 77487  4.6138e+000 -1.3139e+002 -4.1507e+001 57226 77628,77291,77265
 3.2000e+000 77464 -9.1582e+000 -2.2871e+002  2.3528e+001 57226 77700,77213,77187
 3.2000e+000 77441 -2.3129e+001 -5.2521e+001 -3.9556e+001 57226 77161,77343,77187
 3.2000e+000 77418 -3.4351e+001 -6.4202e+001 -3.4733e+001 57226 77161,77369,77343
 3.2000e+000 77395 -2.2070e+001 -9.7245e+000 -1.7904e+001 57226 77213,77265,77239
 3.2000e+000 77582 -5.8974e+001 -1.6571e+002  2.8040e+001 57226 77317,77291,77556
 3.2000e+000 77605 -5.4255e+001 -1.0496e+002  5.1627e+000 57226 77317,77556,77343
 3.2000e+000 77654  3.3723e+001 -1.0366e+002  2.9023e+001 57226 77187,77556,77628
 3.2000e+000 77677 -1.3617e+000 -2.1023e+002  2.4412e+001 57226 77700,77187,77628
 3.2000e+000 77726 -3.3659e+001 -2.4911e+002 -5.3368e+001 57226 77265,77213,77700
 3.2000e+000 77749 -3.8720e+000 -1.8072e+002 -4.8915e+001 57226 77265,77700,77628
 3.2000e+000 78046 -2.0979e+001 -1.5734e+002  4.2556e+001 56936 77798,77850,77824
 3.2000e+000 78023 -3.3268e+001 -1.5645e+002  4.7707e+001 56936 78069,77798,77902
 3.2000e+000 78000 -4.3093e+001 -1.6063e+002  4.4794e+001 56936 78069,77902,77876
 3.2000e+000 77977  2.2349e+001 -1.4415e+002 -1.2498e+001 56936 77798,77928,77902
 3.2000e+000 77954 -2.3217e+001 -4.4529e+001  6.2818e+000 56936 77772,77928,77798
 3.2000e+000 78095 -2.9134e+001 -1.5857e+002  4.9746e+001 56936 77850,77798,78069
 3.2000e+000 78118 -3.3627e+001 -1.5853e+002  4.7434e+001 56936 77850,78069,77876
 3.2000e+000 78754  2.7306e-001 -1.1627e+002 -1.9336e+001 56475 78777,78486,78408
 3.2000e+000 78731 -4.6401e+000 -1.2430e+002 -1.5131e+001 56475 78777,78408,78382
 3.2000e+000 78708 -1.0543e+001 -1.3572e+002 -2.9955e+001 56475 78849,78512,78486
 3.2000e+000 78685 -3.1301e+001 -9.9493e+001 -1.1752e+000 56475 78382,78590,78564
 3.2000e+000 78662 -2.0474e+001 -1.3824e+002 -2.7784e+001 56475 78512,78564,78538
 3.2000e+000 78639  7.2824e-001 -2.7613e+002  2.8670e+001 56475 78434,78486,78460
 3.2000e+000 78616 -6.6078e+001 -2.5026e+002  1.2626e+001 56475 78408,78486,78434
 3.2000e+000 78803 -5.6157e+000 -1.2616e+002 -2.2055e+001 56475 78849,78486,78777
 3.2000e+000 78826  3.0919e+000 -1.0837e+002 -8.3584e+000 56475 78564,78777,78382
 3.2000e+000 78875 -7.4270e+000 -1.1941e+002 -2.2107e+001 56475 78564,78512,78849
 3.2000e+000 78898 -7.4733e+000 -1.1061e+002 -1.6278e+001 56475 78564,78849,78777
 3.2000e+000 79276 -5.0145e+001 -1.0837e+002 -2.3887e+000 55964 79299,79080,79028
 3.2000e+000 79253 -4.2578e+001 -1.1293e+002  4.7663e+000 55964 79299,79028,79132
 3.2000e+000 79230 -5.8007e+001 -1.4741e+002 -2.0693e+000 55964 79028,79080,79054
 3.2000e+000 79207 -2.7693e+001 -1.0393e+002  8.6498e+000 55964 79002,79132,79028
 3.2000e+000 79184 -1.6065e+000 -9.1586e+001 -3.4215e+000 55964 79002,79158,79132
 3.2000e+000 79325 -4.4957e+001 -1.0038e+002  6.7190e-001 55964 79106,79080,79299
 3.2000e+000 79348 -3.8124e+001 -1.0698e+002  7.4747e+000 55964 79106,79299,79132
 3.2000e+000 79498 -3.7372e+001 -1.5335e+002  1.2439e+001 55452 79397,79449,79423
 3.2000e+000 79475 -6.8083e+001 -1.3423e+002 -9.3103e-001 55452 79371,79449,79397
 3.2000e+000 79795 -5.1335e+001 -1.4192e+002  2.1946e+000 55048 79962,79818,79573
 3.2000e+000 79772 -3.8776e+001 -1.1796e+002 -8.2265e+000 55048 79818,79521,79677
 3.2000e+000 79749 -4.1866e+001 -1.9022e+002  3.3185e+001 55048 79599,79651,79625
 3.2000e+000 79726 -5.8009e+001 -1.7296e+002  2.9968e+001 55048 79890,79651,79599
 3.2000e+000 79703 -4.2398e+001 -1.4147e+002  1.4127e+001 55048 79962,79573,79547
 3.2000e+000 79844 -4.3089e+001 -1.3055e+002  5.9529e+000 55048 79599,79573,79818
 3.2000e+000 79867 -5.4373e+001 -1.5280e+002  1.1121e+001 55048 79890,79599,79818
 3.2000e+000 79916 -2.7094e+001 -1.5636e+002  1.1454e+001 55048 79677,79651,79890
 3.2000e+000 79939 -2.9652e+001 -1.4794e+002 -6.1293e+000 55048 79677,79890,79818
 3.2000e+000 79988 -6.6768e+001 -1.4728e+002  3.3433e+000 55048 79521,79818,79962
 3.2000e+000 80011 -6.6307e+001 -1.4894e+002  1.3553e+001 55048 79521,79962,79547
 3.2000e+000 80212 -5.1033e+001 -1.1258e+002  2.9512e+001 54436 80235,80088,80036
 3.2000e+000 80189 -2.6738e+001 -8.4391e+001  1.7784e+001 54436 80235,80036,80140
 3.2000e+000 80166 -4.9408e+001 -1.7261e+002 -6.1983e+000 54436 80036,80088,80062
 3.2000e+000 80261 -2.7241e+001 -1.5296e+002  5.0182e+001 54436 80114,80088,80235
 3.2000e+000 80284  4.3090e+000 -1.2319e+002  3.6071e+001 54436 80114,80235,80140
 3.2000e+000 80534 -1.0805e+001 -8.2362e+001  1.5425e+001 54032 80557,80361,80335
 3.2000e+000 80511 -9.1845e+000 -9.8377e+001  2.6581e+001 54032 80557,80335,80309
 3.2000e+000 80488 -1.5547e+001 -9.6085e+001  1.5522e+001 54032 80629,80413,80387
 3.2000e+000 80465 -3.2710e+001 -1.3998e+002  1.7765e+001 54032 80309,80439,80413
 3.2000e+000 80583 -1.7478e+000 -2.6869e+001  1.1064e+001 54032 80387,80361,80557
 3.2000e+000 80606 -1.0090e+001 -8.1707e+001  2.0393e+001 54032 80629,80387,80557
 3.2000e+000 80655 -1.8466e+001 -9.5226e+001  6.2586e+000 54032 80309,80413,80629
 3.2000e+000 80678 -2.0254e+001 -9.1682e+001  1.0441e+001 54032 80309,80629,80557
 3.2000e+000 81139 -7.6228e+000 -2.8392e+001  2.8700e+001 53784 80865,80995,80917
 3.2000e+000 81116 -3.0717e-002 -1.2610e+001 -1.7377e+000 53784 80865,81021,80995
 3.2000e+000 81093 -1.8078e+001 -1.0808e+002  5.5046e+001 53784 80943,80995,80969
 3.2000e+000 81070 -3.0804e+001 -4.8734e+001  2.0070e+001 53784 80917,80995,80943
 3.2000e+000 81047  5.5856e+000 -2.5472e+002  3.4960e+000 53784 80865,80917,80891
 3.2000e+000 81468 -9.1644e+000 -7.6431e+001  2.3956e+001 53230 81295,81373,81347
 3.2000e+000 81445 -1.0419e+000 -9.5158e+001  3.1074e+001 53230 81243,81373,81295
 3.2000e+000 81422 -5.0133e+001 -1.2181e+002 -1.8595e+000 53230 81243,81295,81269
 3.2000e+000 81399  5.4234e+000 -5.3380e+001 -2.0318e+001 53230 81295,81347,81321
 3.2000e+000 81618 -5.6713e+000 -6.8606e+000 -3.1046e+000 52790 81491,81543,81517
 3.2000e+000 81595 -2.4011e+000 -8.2790e+001  6.2695e+000 52790 81491,81569,81543
 3.2000e+000 82126  3.4615e+001 -2.0434e+001 -4.0338e+001 52386 82149,81907,81881
 3.2000e+000 82103  6.3000e+000 -7.3954e+001 -2.2288e+001 52386 82149,81881,81855
 3.2000e+000 82080 -5.4367e+000 -5.8339e+001  1.7359e+000 52386 82221,81803,81985
 3.2000e+000 82057 -5.9595e+001 -1.0407e+002 -4.2894e+000 52386 81803,81855,81829
 3.2000e+000 82034  1.3271e+000 -9.6490e+001 -2.1571e+001 52386 81907,81985,81933
 3.2000e+000 82011 -1.9675e+001 -6.8685e+001 -3.4823e+001 52386 81933,81985,81959
 3.2000e+000 82175  8.8990e+000 -6.7764e+001 -1.5014e+001 52386 81985,81907,82149
 3.2000e+000 82198  1.9551e+001 -6.3316e+001 -1.0267e+001 52386 82221,81985,82149
 3.2000e+000 82247 -1.7575e+001 -7.1997e+001  1.3466e+001 52386 81855,81803,82221
 3.2000e+000 82270 -4.6434e+000 -8.5393e+001  2.5131e+000 52386 81855,82221,82149
 3.2000e+000 82825 -4.7017e+001 -9.9512e+001  4.2522e+000 51782 82505,82661,82635
 3.2000e+000 82802 -9.9114e+001 -1.5390e+002 -2.4599e+001 51782 82479,82661,82505
 3.2000e+000 82779 -4.3339e+001 -1.7728e+002 -6.1748e+001 51782 82557,82635,82609
 3.2000e+000 82756 -3.7395e+001 -1.6154e+002 -8.1069e+000 51782 82531,82635,82557
 3.2000e+000 82733 -6.7928e+001 -1.2090e+002 -1.7371e+001 51782 82505,82635,82531
 3.2000e+000 82710 -1.1860e+001 -7.6313e+001  2.1461e+001 51782 82453,82661,82479
 3.2000e+000 82687  2.2392e+000 -1.0510e+002 -3.5329e+001 51782 82557,82609,82583
 3.2000e+000 83171 -5.0605e+001 -1.5208e+002  2.1114e+001 51442 83194,82978,82900
 3.2000e+000 83148 -7.9333e+001 -1.3286e+002  1.5683e+001 51442 83194,82900,82874
 3.2000e+000 83125 -5.8257e+001 -1.5563e+002  1.7928e+001 51442 82900,82978,82926
 3.2000e+000 83102 -5.3480e+001 -1.2103e+002  6.2968e+000 51442 82874,83030,83004
 3.2000e+000 83079 -1.6162e+001 -1.4302e+002  1.5238e+001 51442 82926,82978,82952
 3.2000e+000 83056 -2.6132e+001 -1.2669e+002  5.0022e+000 51442 82848,83030,82874
 3.2000e+000 83220 -2.9990e+001 -1.4397e+002  1.7420e+001 51442 83004,82978,83194
 3.2000e+000 83243 -6.1904e+001 -1.2665e+002  1.1587e+001 51442 83004,83194,82874
 3.2000e+000 83751 -5.3495e+001 -6.4255e+001  6.7107e-001 50938 83428,83584,83454
 3.2000e+000 83728 -3.6767e+001 -5.8156e+001  7.6290e+000 50938 83428,83610,83584
 3.2000e+000 83705 -4.8532e+001 -8.5823e+001 -1.6318e+000 50938 83454,83584,83558
 3.2000e+000 83682 -2.4030e+001 -8.6960e+001  1.2279e+001 50938 83454,83532,83480
 3.2000e+000 83659 -3.5359e+001 -7.6342e+001  1.3277e+001 50938 83454,83558,83532
 3.2000e+000 83636 -5.9493e+001 -1.2290e+002 -2.9648e+000 50938 83480,83532,83506
 3.2000e+000 84355 -8.0076e+000 -1.3599e+002  7.3232e+000 50377 84378,83960,83934
 3.2000e+000 84332  1.0569e+001 -8.7854e+001  1.2908e+001 50377 84522,84378,83934
 3.2000e+000 84309 -6.2176e+000 -9.3813e+001 -5.5426e+000 50377 84450,84038,84012
 3.2000e+000 84286  2.0511e+000 -6.6418e+001  1.0294e+001 50377 84522,83934,84142
 3.2000e+000 84263  1.5407e-001 -6.7017e+001 -7.1342e+000 50377 84594,84090,84038
 3.2000e+000 84240 -6.2199e+001 -1.1258e+002 -6.0430e+000 50377 83960,84012,83986
 3.2000e+000 84217  3.0924e+000 -5.0748e+001 -1.5046e+001 50377 83934,84168,84142
 3.2000e+000 84194 -8.2298e+000 -3.4143e+001  1.7677e+001 50377 84038,84090,84064
 3.2000e+000 84404 -4.1341e+001 -1.2153e+002 -2.1906e+001 50377 84012,83960,84378
 3.2000e+000 84427  3.7912e+000 -8.8996e+001 -3.6919e+000 50377 84450,84012,84378
 3.2000e+000 84476 -1.1114e+000 -7.9473e+001 -8.1794e+000 50377 84594,84038,84450
 3.2000e+000 84499 -2.0107e+000 -1.1876e+002 -7.3045e+000 50377 84116,84450,84378
 3.2000e+000 84548  1.2519e+001 -1.1859e+002  2.1558e+000 50377 84116,84378,84522
 3.2000e+000 84571  8.3001e+000 -9.1438e+001 -1.1961e+000 50377 84116,84522,84142
 3.2000e+000 84620  8.1330e+000 -8.7223e+001  2.4826e+000 50377 84116,84090,84594
 3.2000e+000 84643  7.3463e+000 -9.8547e+001  2.3485e+000 50377 84116,84594,84450
 3.2000e+000 84842 -2.9139e+001 -1.6317e+002  1.4556e+001 49923 84865,84692,84666
 3.2000e+000 84819 -6.0327e+001 -1.6382e+002  2.4262e+000 49923 84865,84666,84770
 3.2000e+000 84796 -1.0762e+001 -2.0762e+002 -1.8181e+001 49923 84692,84744,84718
 3.2000e+000 84891 -4.8488e+001 -1.6438e+002 -3.5432e+000 49923 84744,84692,84865
 3.2000e+000 84914 -8.2732e+001 -1.7235e+002 -1.8007e+001 49923 84744,84865,84770
 3.2000e+000 85501 -1.3795e+001 -1.1331e+002  1.4929e+001 49618 85524,85282,85204
 3.2000e+000 85478 -9.5034e+000 -1.1469e+002  1.1363e+001 49618 85596,85524,85204
 3.2000e+000 85455 -2.8414e+000 -1.2536e+002  1.1160e+001 49618 85596,85204,85178
 3.2000e+000 85432 -3.1804e+001 -1.2551e+002  2.0292e+001 49618 85204,85282,85256
 3.2000e+000 85409 -4.7054e+001 -1.8363e+002 -3.7011e+000 49618 85282,85334,85308
 3.2000e+000 85386 -3.0081e+001 -1.3383e+002 -2.7022e+000 49618 85204,85256,85230
 3.2000e+000 85550 -1.2379e+001 -1.1553e+002  1.0075e+001 49618 85334,85282,85524
 3.2000e+000 85573 -2.6172e+001 -1.2142e+002  9.8305e+000 49618 85334,85524,85360
 3.2000e+000 85622 -2.0000e+001 -1.2738e+002  1.6089e+001 49618 85360,85524,85596
 3.2000e+000 85645 -9.4748e+000 -1.3358e+002  1.4434e+001 49618 85360,85596,85178
 3.2000e+000 85795 -8.4371e+001 -2.4431e+002 -1.8986e+001 49278 85694,85746,85720
 3.2000e+000 85772 -1.1016e+002 -4.5208e+002 -1.8824e+001 49278 85668,85746,85694
 3.2000e+000 86197 -4.8089e+001 -2.0914e+002 -1.7506e+001 48916 86001,86079,86027
 3.2000e+000 86174 -7.8975e+000 -1.0242e+002 -1.3297e+001 48916 85949,86079,86001
 3.2000e+000 86151 -2.5886e+000 -2.1539e+002 -2.8825e+000 48916 85949,86001,85975
 3.2000e+000 86128 -5.7029e+001 -2.2755e+002 -1.4460e+001 48916 86027,86079,86053
 3.2000e+000 86105 -5.6114e+000 -6.6309e+001  1.8184e+001 48916 85923,86079,85949
 3.2000e+000 86477 -2.1841e+001 -8.7605e+001  2.3543e+000 48398 86327,86379,86353
 3.2000e+000 86454  5.1009e+000 -8.4685e+001  2.0266e+001 48398 86500,86379,86327
 3.2000e+000 86431 -1.3390e+001 -5.6430e+001  1.6049e+001 48398 86301,86405,86379
 3.2000e+000 86526 -1.4158e+001 -7.4958e+001  3.0643e+001 48398 86301,86379,86500
 3.2000e+000 87032 -2.1643e+001 -1.2158e+002 -2.5304e+001 48008 87127,87055,86787
 3.2000e+000 87009 -3.7356e+001 -1.9144e+002  8.9209e+000 48008 87055,86735,86709
 3.2000e+000 86986 -5.3335e+001 -1.0292e+002 -1.9943e+001 48008 87127,86787,86761
 3.2000e+000 86963 -3.7190e+001 -9.7796e+001 -1.7074e+001 48008 86787,86865,86839
 3.2000e+000 86940 -1.2098e+001 -8.3347e+001  1.6303e+001 48008 86709,86891,86865
 3.2000e+000 86917 -5.6368e+001 -9.2517e+001 -1.0019e+001 48008 86787,86839,86813
 3.2000e+000 87081 -3.5985e+001 -1.2811e+002 -1.2818e+001 48008 86865,86787,87055
 3.2000e+000 87104 -1.2235e+001 -9.1641e+001  2.1933e+001 48008 86865,87055,86709
 3.2000e+000 87153 -5.9049e+001 -1.6284e+002 -4.1616e+001 48008 86735,87055,87127
 3.2000e+000 87176 -9.6007e+001 -1.2226e+002 -3.8319e+001 48008 86735,87127,86761
 3.2000e+000 87456 -3.0217e+001 -1.2674e+002  2.5083e+001 47604 87306,87358,87332
 3.2000e+000 87433  2.4648e+001 -8.4164e+001  1.5134e+000 47604 87306,87384,87358
 3.2000e+000 87410 -1.0163e+001 -9.8791e+001  5.8382e+000 47604 87280,87384,87306
 3.2000e+000 87785 -8.1383e-001 -1.1318e+002  2.2046e+001 47264 87638,87690,87664
 3.2000e+000 87762 -3.8955e+001 -1.7701e+002  4.1576e+001 47264 87612,87690,87638
 3.2000e+000 87739 -4.7647e+001 -2.0408e+002  4.2284e+001 47264 87560,87690,87612
 3.2000e+000 87716 -3.3315e+001 -2.3272e+002  1.9783e+001 47264 87560,87612,87586
 3.2000e+000 87935  5.4967e+000 -1.0769e+001  1.1584e+000 46952 87808,87860,87834
 3.2000e+000 87912 -8.6023e+000 -4.3625e+001  3.1821e+000 46952 87808,87886,87860
 3.2000e+000 88281 -2.7394e+001 -1.3594e+002  1.0800e+001 46526 88304,88114,88036
 3.2000e+000 88258 -2.9218e+001 -1.3318e+002  1.1849e+001 46526 88304,88036,87984
 3.2000e+000 88235 -2.2517e+001 -1.3248e+002  6.6781e+000 46526 88036,88114,88062
 3.2000e+000 88212 -1.9532e+001 -1.2427e+002  2.2143e+001 46526 87958,88140,87984
 3.2000e+000 88189 -2.5679e+001 -1.2678e+002  2.9709e+001 46526 87984,88036,88010
 3.2000e+000 88166 -1.9506e+001 -1.0057e+002  2.4997e+001 46526 88062,88114,88088
 3.2000e+000 88330 -2.7387e+001 -1.3330e+002  1.0197e+001 46526 88140,88114,88304
 3.2000e+000 88353 -2.8847e+001 -1.3020e+002  1.0816e+001 46526 88140,88304,87984
 3.2000e+000 88701  2.8685e+001 -8.9743e+001  3.2412e+001 45822 88724,88378,88534
 3.2000e+000 88678  3.2287e+001 -4.8247e+001  3.6890e+001 45822 88378,88560,88534
 3.2000e+000 88655 -1.3058e+001 -1.0716e+002  3.4276e+001 45822 88724,88534,88508
 3.2000e+000 88632 -5.2329e+001 -1.3464e+002  1.2244e+001 45822 88404,88508,88456
 3.2000e+000 88609 -4.2448e+001 -1.1888e+002  1.3921e+000 45822 88404,88456,88430
 3.2000e+000 88586 -1.7245e+001 -5.6521e+001 -3.0155e+001 45822 88456,88508,88482
 3.2000e+000 88750 -4.6658e+000 -7.6591e+001  7.6207e+000 45822 88404,88378,88724
 3.2000e+000 88773 -3.6917e+001 -8.9180e+001  8.7154e+000 45822 88404,88724,88508
 3.2000e+000 89106 -4.1223e+001 -4.9195e+001  2.7117e+001 45418 88881,88985,88907
 3.2000e+000 89083 -2.3953e+001 -7.5754e+001  3.1247e+001 45418 88881,89011,88985
 3.2000e+000 89060 -5.4946e+000 -5.6184e+001  2.0171e+001 45418 88907,88985,88933
 3.2000e+000 89037 -1.0462e+001 -2.6398e+001  1.7141e+001 45418 88933,88985,88959
 3.2000e+000 89435 -3.1260e+001 -1.0779e+002  3.3013e+001 44914 89210,89288,89236
 3.2000e+000 89412 -6.8184e+001 -1.6082e+002  5.2138e+001 44914 89210,89314,89288
 3.2000e+000 89389 -1.4558e+001 -1.0882e+002  2.8563e+001 44914 89210,89340,89314
 3.2000e+000 89366 -3.8586e+001 -1.1638e+002  4.2545e+001 44914 89236,89288,89262
 3.2000e+000 89634 -2.7585e+001 -1.1671e+002  4.6349e+001 44538 89510,89562,89536
 3.2000e+000 89611 -4.0824e+001 -8.8513e+001  1.6375e+001 44538 89458,89562,89510
 3.2000e+000 89588 -4.2207e+001 -1.2054e+002  1.8217e+001 44538 89458,89510,89484
 3.2000e+000 90044 -5.4611e+000 -4.7185e+001  1.2622e+001 44134 89819,89923,89845
 3.2000e+000 90021 -3.7630e+001 -5.2111e+001 -3.5830e+001 44134 89819,89949,89923
 3.2000e+000 89998  4.3390e+000 -5.0561e+000  9.6968e+000 44134 89845,89923,89897
 3.2000e+000 89975 -1.9128e+001 -7.9660e+001  1.8301e+001 44134 89845,89897,89871
 3.2000e+000 90520 -4.6680e+000 -8.8782e+001  2.5188e+001 43457 90543,90252,90226
 3.2000e+000 90497  4.8203e+000 -1.3040e+002 -1.4280e+000 43457 90543,90226,90330
 3.2000e+000 90474 -1.9912e+001 -1.2150e+002 -1.6401e+001 43457 90200,90330,90226
 3.2000e+000 90451 -3.3831e+001 -9.1946e+001  3.5253e+001 43457 90200,90356,90330
 3.2000e+000 90428  1.9880e+000 -9.3645e+001  1.0100e+000 43457 90252,90304,90278
 3.2000e+000 90405 -4.7290e+001 -4.8111e+001  3.1781e+001 43457 90174,90356,90200
 3.2000e+000 90382 -2.0361e+001 -3.0939e+001  4.0273e+001 43457 90148,90356,90174
 3.2000e+000 90569 -2.8452e+000 -1.3159e+002  1.2105e+001 43457 90304,90252,90543
 3.2000e+000 90592 -1.3747e+001 -1.9652e+002 -1.7939e+001 43457 90304,90543,90330
 3.2000e+000 91098 -1.2091e+001 -9.0990e+001 -9.2730e+000 42789 90801,90905,90853
 3.2000e+000 91075 -3.7677e+001 -1.2235e+002  1.8518e+000 42789 90775,90905,90801
 3.2000e+000 91052 -2.9137e+001 -1.2846e+002  2.1706e+001 42789 90775,90931,90905
 3.2000e+000 91029 -2.6718e+001 -1.5094e+002  2.8483e+000 42789 90801,90853,90827
 3.2000e+000 91006  1.7474e+001 -8.2016e+001  1.0527e+001 42789 90853,90905,90879
 3.2000e+000 90983 -2.6221e+001 -1.2224e+002  2.0092e+001 42789 90775,90957,90931
 3.2000e+000 91427 -2.6282e+001 -1.4874e+002  3.5443e+000 42227 91228,91280,91254
 3.2000e+000 91404  1.6990e+001 -1.2765e+002 -5.4538e+000 42227 91228,91306,91280
 3.2000e+000 91381 -3.5818e+001 -1.4417e+002  1.4374e+001 42227 91202,91306,91228
 3.2000e+000 91358  9.4145e+000 -9.3174e+001 -1.0868e+001 42227 91202,91332,91306
 3.2000e+000 91675 -2.1359e+001 -9.9270e+001  1.8071e+001 41773 91698,91476,91450
 3.2000e+000 91652 -1.1131e+001 -9.5235e+001  4.5301e+001 41773 91698,91450,91554
 3.2000e+000 91629 -3.5935e+001 -7.9298e+001  4.9080e+001 41773 91450,91580,91554
 3.2000e+000 91606 -1.4132e+001 -1.3275e+002  2.7030e+001 41773 91502,91554,91528
 3.2000e+000 91724 -4.3027e+001 -1.0579e+002  1.2396e+001 41773 91502,91476,91698
 3.2000e+000 91747 -3.7663e+001 -1.0364e+002  3.9958e+001 41773 91502,91698,91554
 3.2000e+000 92127 -8.0272e+001 -1.4750e+002 -9.5920e+000 41255 92150,91905,91879
 3.2000e+000 92104 -2.6491e+001 -1.3476e+002 -3.1217e+001 41255 92150,91879,91957
 3.2000e+000 92081  5.6773e+000 -2.0867e+002  3.2209e+001 41255 91853,91957,91879
 3.2000e+000 92058  3.2309e+000 -2.1373e+002  2.6339e+001 41255 91853,91983,91957
 3.2000e+000 92035 -6.1448e+000 -1.3539e+002 -8.3173e-001 41255 91853,92009,91983
 3.2000e+000 92176 -3.0261e+001 -1.6892e+002 -3.7409e+001 41255 91931,91905,92150
 3.2000e+000 92199  5.2651e+001 -1.1877e+002 -7.0150e+001 41255 91931,92150,91957
 3.2000e+000 92518 -4.3768e+001 -2.1577e+002 -2.3152e+001 41007 92244,92374,92270
 3.2000e+000 92495 -1.1406e+002 -2.2957e+002 -1.9179e+001 41007 92244,92400,92374
 3.2000e+000 92472 -2.1757e+001 -1.8010e+002 -5.2105e+000 41007 92270,92374,92348
 3.2000e+000 92449 -1.4190e+001 -4.8842e+001  2.6841e+001 41007 92296,92348,92322
 3.2000e+000 92426 -1.3579e+001 -1.1713e+002 -1.3676e+001 41007 92270,92348,92296
 3.2000e+000 92668 -4.0449e+001 -1.2210e+002 -2.4748e+001 40717 92823,92691,92567
 3.2000e+000 92645 -4.3850e+001 -1.1552e+002 -2.4920e+001 40717 92895,92823,92567
 3.2000e+000 92717 -1.2480e+001 -1.0941e+002 -1.9018e+001 40717 92593,92567,92691
 3.2000e+000 92849 -3.0741e+001 -1.1785e+002 -2.8433e+001 40717 92619,92691,92823
 3.2000e+000 92872 -4.2518e+001 -1.1052e+002 -1.5746e+001 40717 92619,92823,92541
 3.2000e+000 92921 -5.4222e+001 -1.3110e+002 -1.0897e+001 40717 92541,92823,92895
 3.2000e+000 93634 -7.7629e+001 -3.5243e+002 -1.0269e+001 40206 93366,93444,93418
 3.2000e+000 93611 -3.1432e+001 -1.3783e+002 -1.4537e+001 40206 93288,93444,93366
 3.2000e+000 93588 -1.0963e+002 -2.5305e+002  1.9529e+001 40206 93288,93366,93314
 3.2000e+000 93565 -7.1435e+001 -1.4229e+002  2.9587e+000 40206 93262,93444,93288
 3.2000e+000 93542 -1.9805e+001 -2.8151e+002  2.5673e+001 40206 93366,93418,93392
 3.2000e+000 93519 -6.8079e+001 -1.7904e+002  8.1646e+000 40206 93262,93470,93444
 3.2000e+000 93496 -5.0437e+001 -2.2850e+002  4.1635e+001 40206 93314,93366,93340
 3.2000e+000 94189 -3.1769e+001 -8.9640e+001  2.5222e+001 39802 93843,93999,93973
 3.2000e+000 94166  3.3898e+001 -4.8118e+001 -6.4955e+000 39802 93817,93999,93843
 3.2000e+000 94143 -1.2070e+001 -5.7614e+001  1.5660e+000 39802 93869,93973,93947
 3.2000e+000 94120 -8.3721e+000 -6.4328e+001  1.5438e+001 39802 93843,93973,93869
 3.2000e+000 94097 -9.1972e+000 -6.6733e+001  3.3625e+000 39802 93869,93921,93895
 3.2000e+000 94074 -4.2768e+000 -5.6530e+001 -8.6339e-001 39802 93869,93947,93921
 3.2000e+000 94051 -5.0233e+001 -8.2113e+001  2.6182e+001 39802 93817,94025,93999
 3.2000e+000 94290 -1.7586e+001 -7.7582e+001 -1.6887e+001 39398 94212,94264,94238
 3.2000e+000 94798 -1.9611e+001 -1.1957e+002 -7.3807e+000 38701 94501,94657,94631
 3.2000e+000 94775 -3.2826e+001 -9.7233e+001  7.8666e+000 38701 94475,94657,94501
 3.2000e+000 94752  2.7654e+001 -1.0944e+002 -2.0644e+001 38701 94579,94631,94605
 3.2000e+000 94729 -2.3785e+001 -2.0829e+002 -3.9561e+001 38701 94553,94631,94579
 3.2000e+000 94706 -5.5055e+001 -2.0448e+002  1.3701e+001 38701 94501,94631,94553
 3.2000e+000 94683 -3.1767e+001 -3.5718e+002  5.1398e+000 38701 94501,94553,94527
 3.2000e+000 95255 -6.1757e+001 -1.7577e+002 -9.6002e+000 38247 95278,95085,95007
 3.2000e+000 95232 -3.8093e+001 -1.6934e+002 -1.3036e+001 38247 95278,95007,95137
 3.2000e+000 95209 -1.6372e+001 -1.3729e+002 -3.1958e+000 38247 94981,95137,95007
 3.2000e+000 95186 -4.1020e+001 -1.2121e+002 -1.4104e+001 38247 95007,95059,95033
 3.2000e+000 95163 -4.3069e+001 -1.3315e+002 -2.7940e+001 38247 95007,95085,95059
 3.2000e+000 95304 -7.1284e+001 -1.7904e+002  1.0657e+001 38247 95111,95085,95278
 3.2000e+000 95327 -4.8966e+001 -1.6833e+002  4.5588e+000 38247 95111,95278,95137
 3.2000e+000 95575 -2.3347e+001 -2.1901e+001 -5.9802e+000 37564 95376,95428,95402
 3.2000e+000 95552 -1.3632e+001 -5.3167e+001 -8.0476e+000 37564 95376,95454,95428
 3.2000e+000 95529  6.8297e+000 -3.9571e+001  7.3782e-001 37564 95376,95480,95454
 3.2000e+000 95506  5.0103e+001 -8.4289e+001 -5.6965e+000 37564 95350,95480,95376
 3.2000e+000 96034 -6.2984e+001 -1.9625e+002 -3.5189e+001 37224 95786,95838,95812
 3.2000e+000 96011 -2.0110e+001 -1.3071e+002 -4.5439e+000 37224 95786,95890,95838
 3.2000e+000 95988 -4.8331e+001 -1.2244e+002  3.4270e+000 37224 95786,95916,95890
 3.2000e+000 95965  5.7928e-001 -8.3386e+001 -2.6978e+001 37224 95760,95916,95786
 3.2000e+000 95942 -1.7702e+001 -1.5685e+002 -3.5014e+001 37224 95838,95890,95864
 3.2000e+000 96363 -4.4946e+000 -1.9791e+001 -1.2208e+001 36884 96216,96268,96242
 3.2000e+000 96340  1.2571e+001 -2.5995e+001 -1.4318e+001 36884 96164,96268,96216
 3.2000e+000 96317  4.2818e+001 -1.8646e+001 -1.1587e+001 36884 96138,96268,96164
 3.2000e+000 96294  5.4562e+000 -3.7469e+001 -6.5365e+000 36884 96164,96216,96190
 3.2000e+000 96839 -3.1215e+001 -1.6329e+002  3.3461e+001 36572 96862,96649,96597
 3.2000e+000 96816  1.6090e+000 -1.4225e+002  1.9684e+001 36572 97006,96862,96597
 3.2000e+000 96793  7.6529e+000 -6.3741e+001 -1.2213e+001 36572 96934,96467,96675
 3.2000e+000 96770  3.3728e+000 -1.4175e+002  1.9781e+001 36572 97006,96597,96571
 3.2000e+000 96747 -1.0001e+001 -1.3641e+002  1.6461e+001 36572 96467,96519,96493
 3.2000e+000 96724  1.6605e+001 -1.0958e+002  1.0996e+001 36572 96519,96571,96545
 3.2000e+000 96701 -4.4201e+001 -1.2267e+002 -1.3769e+000 36572 96597,96649,96623
 3.2000e+000 96888  3.6161e+000 -1.6420e+002 -7.2690e+000 36572 96675,96649,96862
 3.2000e+000 96911  2.0601e+001 -1.1934e+002 -1.6864e+001 36572 96934,96675,96862
 3.2000e+000 96960 -6.6023e+000 -1.1678e+002 -2.0294e+000 36572 96519,96467,96934
 3.2000e+000 96983  1.1551e+001 -1.5740e+002  2.9867e+000 36572 97078,96934,96862
 3.2000e+000 97032 -1.7440e+000 -1.5206e+002  1.8001e+001 36572 97078,96862,97006
 3.2000e+000 97055  2.0464e+000 -1.3741e+002  1.7100e+001 36572 96519,97006,96571
 3.2000e+000 97104  2.1245e+001 -1.3649e+002 -2.0995e+000 36572 96519,96934,97078
 3.2000e+000 97127  1.3877e+001 -1.2882e+002  1.0954e+001 36572 96519,97078,97006
 3.2000e+000 97761 -1.3499e+001 -1.2926e+002 -1.3022e+001 36118 97784,97493,97415
 3.2000e+000 97738 -1.3230e+001 -1.4656e+002  8.3151e-001 36118 97784,97415,97597
 3.2000e+000 97715 -1.2578e+001 -1.5946e+002 -1.9137e+001 36118 97389,97597,97415
 3.2000e+000 97692 -4.9026e+001 -1.6196e+002  1.4365e+001 36118 97415,97467,97441
 3.2000e+000 97669 -5.0593e+001 -1.5267e+002  9.8175e+000 36118 97415,97493,97467
 3.2000e+000 97646 -4.4880e+001 -7.5895e+001 -6.4895e+000 36118 97493,97571,97519
 3.2000e+000 97623 -4.2402e+001 -1.0360e+002  1.0608e+001 36118 97519,97571,97545
 3.2000e+000 97810 -1.6137e+001 -1.0222e+002 -2.0636e+001 36118 97571,97493,97784
 3.2000e+000 97833 -2.5839e+001 -1.2149e+002 -1.4935e+000 36118 97571,97784,97597
 3.2000e+000 98081 -1.6481e+001 -8.4178e+001 -8.9581e+000 35564 98104,97908,97856
 3.2000e+000 98058 -1.3889e+001 -9.0577e+001 -1.1585e+001 35564 98104,97856,97986
 3.2000e+000 98035  3.8823e+001 -7.2802e+001  1.8529e+001 35564 97934,97986,97960
 3.2000e+000 98012 -1.8763e+001 -9.8398e+001  1.2190e+001 35564 97856,97908,97882
 3.2000e+000 98130 -8.0567e+000 -6.4708e+001 -4.5821e+000 35564 97934,97908,98104
 3.2000e+000 98153 -1.5723e+001 -8.4516e+001 -9.2710e+000 35564 97934,98104,97986
 3.2000e+000 98374 -3.1818e+001 -7.2557e+001 -5.2653e+000 35152 98224,98302,98276
 3.2000e+000 98351 -5.6553e+001 -1.3831e+002  5.7174e+000 35152 98198,98302,98224
 3.2000e+000 98328 -1.0503e+001 -5.9196e+001 -1.1450e+001 35152 98224,98276,98250
 3.2000e+000 98884 -4.9879e+000 -9.9766e+001 -2.4285e+001 34698 98691,98743,98717
 3.2000e+000 98861 -1.7102e+001 -1.2056e+002 -3.6803e+001 34698 98561,98743,98691
 3.2000e+000 98838 -3.3165e+001 -1.0316e+002 -4.1435e+001 34698 98907,98587,98561
 3.2000e+000 98815 -4.6376e+001 -1.2314e+002 -2.8899e+001 34698 98907,98561,98691
 3.2000e+000 98792 -5.6721e+001 -1.1396e+002 -2.4453e+001 34698 98587,98639,98613
 3.2000e+000 98769 -4.6247e+001 -9.1277e+001 -2.7063e+001 34698 98587,98665,98639
 3.2000e+000 98933 -3.9382e+001 -1.1455e+002 -2.1137e+001 34698 98665,98587,98907
 3.2000e+000 98956 -5.9722e+001 -1.4642e+002 -7.4484e+000 34698 98665,98907,98691
 3.2000e+000 99204  4.7398e+000 -1.4723e+002 -1.2986e+001 34144 99227,99031,99005
 3.2000e+000 99181 -9.6479e+000 -1.3996e+002 -2.5096e+001 34144 99299,99227,99005
 3.2000e+000 99158 -9.7135e+000 -1.3816e+002 -2.2247e+001 34144 99299,99005,99109
 3.2000e+000 99135 -1.2665e+001 -1.0499e+002 -1.1978e+001 34144 98979,99109,99005
 3.2000e+000 99253 -4.7525e+000 -1.7050e+002 -1.5219e+001 34144 99057,99031,99227
 3.2000e+000 99276 -1.3318e+001 -1.4742e+002 -2.6672e+001 34144 99057,99227,99083
 3.2000e+000 99325 -8.4491e+000 -1.3517e+002 -2.3116e+001 34144 99083,99227,99299
 3.2000e+000 99348 -6.4758e+000 -1.3254e+002 -1.9753e+001 34144 99083,99299,99109
 3.2000e+000 99498 -6.2012e+000 -5.8433e+001  1.7555e+001 33433 99397,99449,99423
 3.2000e+000 99475 -2.0943e+001 -2.4292e+001  2.4076e+000 33433 99371,99449,99397
 3.2000e+000 100008 -2.2846e+001 -7.5022e+001 -5.7862e+000 32979 100103,100031,99815
 3.2000e+000 99985 -3.9378e+001 -1.0350e+002 -1.7923e+001 32979 100175,100031,99763
 3.2000e+000 99962 -3.2107e+000 -9.6898e+001 -2.7038e+001 32979 100103,99815,99789
 3.2000e+000 99939 -4.0900e+001 -1.3119e+002 -2.3194e+001 32979 100175,99763,99737
 3.2000e+000 99916 -3.5827e+001 -9.7606e+001 -1.3609e+001 32979 99685,99867,99737
 3.2000e+000 99893 -4.9416e+001 -1.8041e+002 -2.8403e+001 32979 99685,99737,99711
 3.2000e+000 100057 -1.4485e+001 -7.7285e+001  9.0550e+000 32979 99841,99815,100031
 3.2000e+000 100080 -1.2668e+001 -4.4914e+001 -1.7304e+001 32979 99841,100031,99867
 3.2000e+000 100129 -2.5787e+001 -1.2019e+002 -2.6551e+000 32979 99763,100031,100103
 3.2000e+000 100152 -1.7325e+001 -1.5581e+002 -2.6309e+001 32979 99763,100103,99789
 3.2000e+000 100201 -3.6089e+001 -8.7860e+001 -3.6808e+000 32979 99867,100031,100175
 3.2000e+000 100224 -3.7982e+001 -1.0518e+002 -1.3378e+001 32979 99867,100175,99737
 3.2000e+000 100553 -8.2212e+000 -5.2615e+001 -1.5641e+001 32503 100354,100406,100380
 3.2000e+000 100530  9.1692e+000 -1.0397e+002  3.2098e+001 32503 100328,100406,100354
 3.2000e+000 100507  7.7324e-001 -1.2066e+002  3.5188e+001 32503 100328,100458,100406
 3.2000e+000 100484 -1.5101e+001 -1.7328e+002  2.9239e+001 32503 100406,100458,100432
 3.2000e+000 100850 -2.3431e+001 -1.6936e+002 -6.4335e+000 31899 100873,100654,100628
 3.2000e+000 100827 -5.0674e+000 -1.6532e+002 -7.4717e+000 31899 100945,100873,100628
 3.2000e+000 100804  1.0129e+001 -1.5297e+002 -9.9191e-001 31899 100945,100628,100602
 3.2000e+000 100781 -2.0437e+001 -1.0552e+002  1.0580e+001 31899 100576,100732,100602
 3.2000e+000 100758 -7.4754e+001 -1.4476e+002 -9.0333e+001 31899 100654,100706,100680
 3.2000e+000 100899 -1.2015e+001 -1.7143e+002 -9.3905e+000 31899 100706,100654,100873
 3.2000e+000 100922 -5.3842e+001 -1.6927e+002 -3.1154e+001 31899 100706,100873,100732
 3.2000e+000 100971 -4.0555e+001 -1.4054e+002 -1.6442e+001 31899 100732,100873,100945
 3.2000e+000 100994 -2.2157e+001 -1.2483e+002 -8.8564e+000 31899 100732,100945,100602
 3.2000e+000 101551 -9.4225e+000 -1.1859e+002 -1.4771e+001 31338 101205,101387,101231
 3.2000e+000 101528  1.5785e+000 -1.1422e+002  2.7825e+000 31338 101179,101387,101205
 3.2000e+000 101505 -2.8865e+001 -1.0683e+002  2.5355e+001 31338 101574,101309,101257
 3.2000e+000 101482 -2.5353e+001 -1.3653e+002  1.5645e+001 31338 101646,101574,101257
 3.2000e+000 101459 -2.0950e+001 -1.0509e+002  9.0103e+000 31338 101646,101257,101231
 3.2000e+000 101436 -4.8268e+001 -1.5412e+002  1.2857e+001 31338 101309,101361,101335
 3.2000e+000 101413  9.6091e+000 -9.3302e+001  2.7228e+001 31338 101257,101309,101283
 3.2000e+000 101600 -3.0386e+001 -1.3698e+002  2.3623e+001 31338 101361,101309,101574
 3.2000e+000 101623 -3.1302e+001 -1.7473e+002 -1.1440e+001 31338 101361,101574,101387
 3.2000e+000 101672 -9.8286e+000 -1.1619e+002 -4.4908e+000 31338 101387,101574,101646
 3.2000e+000 101695 -1.7259e+001 -1.0557e+002 -1.1590e+001 31338 101387,101646,101231
 3.2000e+000 101943 -1.3538e+001 -1.5419e+002 -1.0936e+001 30748 101966,101796,101744
 3.2000e+000 101920  4.8024e+000 -1.5169e+002 -7.6474e+000 30748 101966,101744,101718
 3.2000e+000 101897 -2.5773e+001 -1.5603e+002  1.5201e+001 30748 101718,101848,101822
 3.2000e+000 101874 -4.8320e+001 -1.5832e+002 -1.9226e+001 30748 101744,101796,101770
 3.2000e+000 101992 -2.3141e+001 -1.4727e+002 -7.2877e+000 30748 101822,101796,101966
 3.2000e+000 102015 -1.0912e+001 -1.4960e+002 -4.3953e+000 30748 101822,101966,101718
 3.2000e+000 102493 -5.6085e+001 -1.4398e+002 -6.2431e+000 30344 102516,102173,102147
 3.2000e+000 102470 -3.9506e+001 -1.1737e+002 -1.4311e+001 30344 102660,102516,102147
 3.2000e+000 102447 -2.6616e+001 -1.3813e+002 -2.1654e+001 30344 102588,102199,102173
 3.2000e+000 102424 -2.1432e+001 -1.1348e+002 -1.7575e+001 30344 102660,102147,102329
 3.2000e+000 102401 -8.0127e+000 -1.4258e+002 -5.2144e+001 30344 102199,102277,102251
 3.2000e+000 102378  1.4419e+001 -9.0717e+001 -8.5355e+001 30344 102199,102251,102225
 3.2000e+000 102355 -2.8846e-001 -9.9595e+001  6.0444e+000 30344 102121,102329,102147
 3.2000e+000 102542 -3.2266e+001 -1.3323e+002 -2.2941e+001 30344 102588,102173,102516
 3.2000e+000 102565 -5.2890e+001 -1.3099e+002 -1.8181e+001 30344 102277,102516,102303
 3.2000e+000 102614 -3.2030e+001 -1.4055e+002 -2.3065e+001 30344 102277,102199,102588
 3.2000e+000 102637 -4.0136e+001 -1.3910e+002 -2.5857e+001 30344 102277,102588,102516
 3.2000e+000 102686 -1.8691e+001 -1.2339e+002 -5.5978e+000 30344 102303,102516,102660
 3.2000e+000 102709 -8.3943e+000 -1.2517e+002 -7.2011e+000 30344 102303,102660,102329
 3.2000e+000 103294  6.3693e+000 -1.5186e+002  8.0595e+000 29726 103317,103101,103075
 3.2000e+000 103271  2.8961e+001 -8.0225e+001  1.6729e+001 29726 103317,103075,102997
 3.2000e+000 103248 -1.3395e+001 -6.9530e+001 -2.4446e+001 29726 102971,103153,102997
 3.2000e+000 103225 -1.6702e+001 -1.3126e+002 -1.4771e+001 29726 103101,103153,103127
 3.2000e+000 103202 -8.8113e+000 -1.8709e+002  2.4618e+001 29726 102997,103075,103023
 3.2000e+000 103179 -3.7075e+001 -1.2903e+002 -3.6142e+001 29726 103023,103075,103049
 3.2000e+000 103343 -1.1797e+000 -8.9569e+001 -2.9984e+000 29726 103153,103101,103317
 3.2000e+000 103366 -1.4177e+000 -5.0902e+001 -1.1918e+000 29726 103153,103317,102997
 3.2000e+000 103614  3.1226e+001 -8.3158e+001 -5.9845e+000 29200 103781,103637,103467
 3.2000e+000 103591 -1.0976e+001 -8.3503e+001  1.8994e+001 29200 103709,103637,103415
 3.2000e+000 103568 -2.1933e+001 -8.0131e+001  1.0399e+001 29200 103709,103415,103389
 3.2000e+000 103545  2.3237e+001 -6.5197e+001 -2.1394e+001 29200 103781,103467,103441
 3.2000e+000 103663  3.6884e+001 -8.5738e+001  1.0528e+001 29200 103853,103637,103493
 3.2000e+000 103686  3.4793e+001 -2.2076e+001  1.5453e+001 29200 103493,103637,103519
 3.2000e+000 103735  8.2234e+000 -8.2567e+001  1.9401e+001 29200 103519,103637,103709
 3.2000e+000 103758 -4.6878e+000 -7.9385e+001  1.2328e+001 29200 103519,103709,103389
 3.2000e+000 103807  2.0541e+001 -1.1340e+002 -5.4402e+000 29200 103415,103637,103781
 3.2000e+000 103830  8.9787e+000 -1.0492e+002 -2.6054e+001 29200 103415,103781,103441
 3.2000e+000 103879  2.4880e+001 -8.0043e+001 -3.5963e+000 29200 103467,103637,103853
 3.2000e+000 104545 -4.6548e+000 -9.8554e+001 -2.0215e+001 28860 104274,104352,104326
 3.2000e+000 104522 -4.9518e+001 -8.6872e+001 -6.4649e+000 28860 104248,104352,104274
 3.2000e+000 104499 -3.5843e+001 -8.0337e+001 -8.3724e+000 28860 104248,104404,104352
 3.2000e+000 104476 -6.8631e+001 -6.2660e+001 -6.5766e+000 28860 104222,104404,104248
 3.2000e+000 104453 -1.7269e+001 -4.4901e+001 -1.5229e+001 28860 104352,104404,104378
 3.2000e+000 104430 -3.2028e+001 -1.1049e+002 -1.7270e+001 28860 104274,104326,104300
 3.2000e+000 104744  2.1349e-001 -1.4413e+002 -3.6742e+001 28456 104839,104767,104646
 3.2000e+000 104721 -6.1652e+001 -1.9176e+002 -2.2837e+001 28456 104767,104594,104568
 3.2000e+000 104698 -4.9086e+000 -1.1604e+002 -1.7089e+001 28456 104839,104646,104620
 3.2000e+000 104793 -1.6626e+001 -1.6313e+002 -2.3268e+001 28456 104672,104646,104767
 3.2000e+000 104816 -7.6628e+001 -2.1096e+002  1.2956e+001 28456 104911,104767,104568
 3.2000e+000 104865 -2.8664e+001 -1.6098e+002 -1.0075e+001 28456 104594,104767,104839
 3.2000e+000 104888  1.3127e+001 -1.6385e+001 -1.6104e+001 28456 105041,104839,104620
 3.2000e+000 104937 -3.5184e+000 -1.0682e+002 -2.3342e+001 28456 104672,104767,104911
 3.2000e+000 105067 -2.7440e+001 -1.5442e+002 -2.7205e+001 28456 104594,104839,105041
 3.2000e+000 105573 -3.5537e+001 -1.4964e+002 -1.4162e+001 28094 105812,105596,105328
 3.2000e+000 105550 -3.2016e+001 -1.2966e+002  3.7261e+000 28094 105596,105276,105250
 3.2000e+000 105527 -1.4431e+001 -1.9048e+002 -1.2060e+001 28094 105740,105668,105432
 3.2000e+000 105504 -2.8830e+001 -2.1603e+002 -6.0805e+000 28094 105740,105432,105380
 3.2000e+000 105481 -2.4591e+001 -1.5707e+002 -8.1586e+000 28094 105812,105328,105302
 3.2000e+000 105458 -5.6949e+001 -2.1237e+002 -2.9549e+000 28094 105380,105432,105406
 3.2000e+000 105622 -6.9874e+000 -9.1839e+001 -2.6085e+001 28094 105354,105328,105596
 3.2000e+000 105645 -3.1355e+000 -9.5731e+001  2.0364e+001 28094 105668,105354,105596
 3.2000e+000 105694  4.0588e+000 -1.3632e+002 -1.4438e+001 28094 105250,105432,105668
 3.2000e+000 105717 -3.9397e+001 -1.7146e+002  5.7534e+000 28094 105250,105668,105596
 3.2000e+000 105766 -3.2728e+001 -1.7007e+002  3.9413e+001 28094 105354,105668,105740
 3.2000e+000 105789 -5.4575e+001 -2.1500e+002  4.6642e+001 28094 105354,105740,105380
 3.2000e+000 105838 -2.4562e+001 -1.3782e+002 -9.5750e+000 28094 105276,105596,105812
 3.2000e+000 105861  9.8838e+000 -1.3459e+002  4.3809e+000 28094 105276,105812,105302
 3.2000e+000 106367 -4.3870e+001 -1.7765e+002 -1.6893e+001 27390 106070,106122,106096
 3.2000e+000 106344 -1.0829e+001 -1.9080e+002 -2.6464e+001 27390 106070,106226,106122
 3.2000e+000 106321  2.2022e+001 -1.8712e+002 -2.0300e+001 27390 106174,106226,106200
 3.2000e+000 106298  4.4661e-001 -1.8420e+002 -1.4745e+001 27390 106122,106226,106174
 3.2000e+000 106275  3.8323e+000 -1.7950e+002  7.6159e+000 27390 106122,106174,106148
 3.2000e+000 106252 -6.6724e+001 -2.1825e+002 -3.8316e+001 27390 106044,106226,106070
 3.2000e+000 106615 -8.3798e-001 -1.3128e+002 -2.9907e+000 26978 106638,106494,106416
 3.2000e+000 106592 -6.0583e-001 -1.4364e+002 -5.9080e+000 26978 106638,106416,106390
 3.2000e+000 106569  2.0888e+000 -1.2700e+002  4.7834e+000 26978 106416,106494,106442
 3.2000e+000 106546  2.0559e+001 -1.3220e+002 -1.9986e+000 26978 106442,106494,106468
 3.2000e+000 106664  6.4524e+000 -1.4426e+002  2.2775e+000 26978 106520,106494,106638
 3.2000e+000 106687  5.1170e+000 -1.5687e+002 -4.5721e+000 26978 106520,106638,106390
 3.2000e+000 106837  1.2200e+000 -4.5534e+002 -5.8914e-001 26524 106710,106762,106736
 3.2000e+000 106814  2.7222e-001 -4.2080e+002  6.7630e-003 26524 106710,106788,106762
 3.2000e+000 107426 -6.1805e+001 -1.3803e+002  2.0470e+001 26120 107129,107207,107155
 3.2000e+000 107403 -4.2136e+001 -1.1835e+002  1.1872e+001 26120 107129,107285,107207
 3.2000e+000 107380 -5.7119e+001 -1.3743e+002  2.8399e-001 26120 107207,107285,107259
 3.2000e+000 107357  1.1207e+001 -9.7593e+001  4.2118e-001 26120 107155,107207,107181
 3.2000e+000 107334 -2.8218e+001 -1.1308e+002  1.1226e+001 26120 107103,107285,107129
 3.2000e+000 107311 -5.4844e+001 -1.2502e+002  4.4020e+000 26120 107207,107259,107233
 3.2000e+000 107755 -3.5404e+001 -1.1507e+002  3.7814e+000 25758 107556,107634,107608
 3.2000e+000 107732 -5.7174e+000 -7.2307e+001 -1.0934e+001 25758 107556,107660,107634
 3.2000e+000 107709 -5.3721e+001 -1.1044e+002 -1.3439e+001 25758 107556,107608,107582
 3.2000e+000 107686 -5.9626e+000 -7.9969e+000  7.7862e+000 25758 107530,107660,107556
 3.2000e+000 108438 -4.9923e+001 -1.8315e+002 -6.9596e+000 25468 108121,108199,108173
 3.2000e+000 108415 -3.7327e+000 -7.1500e+001 -5.6502e+000 25468 108095,108199,108121
 3.2000e+000 108392  2.7189e+000 -9.1460e+001 -4.0477e+000 25468 108095,108251,108199
 3.2000e+000 108369 -2.1772e+001 -1.1633e+002  9.9218e+000 25468 108069,108251,108095
 3.2000e+000 108346 -2.6520e+001 -1.0107e+002 -1.7489e+001 25468 108199,108251,108225
 3.2000e+000 108323  5.8840e+000 -1.3490e+002  2.9394e+001 25468 108017,108251,108069
 3.2000e+000 108300 -5.1876e+001 -1.1103e+002 -1.8222e+001 25468 108121,108173,108147
 3.2000e+000 108277  1.8113e+001 -1.2151e+002  2.2202e+001 25468 108017,108069,108043
 3.2000e+000 108588 -4.1582e+001 -1.6441e+002 -4.3181e+001 25064 108611,108513,108487
 3.2000e+000 108565 -8.1512e+001 -1.4661e+002 -2.5375e+001 25064 108683,108611,108487
 3.2000e+000 108637 -3.0307e+001 -1.3695e+002 -4.6785e+001 25064 108539,108513,108611
 3.2000e+000 108660 -2.8804e+001 -1.1329e+002 -2.9509e+001 25064 108539,108611,108461
 3.2000e+000 108709 -2.9451e+001 -1.0513e+002 -4.3622e+001 25064 108461,108611,108683
 3.2000e+000 109345 -1.0828e+002 -1.8958e+002  6.5395e+001 24410 108999,109155,109103
 3.2000e+000 109322 -5.1923e+001 -1.9274e+002  2.1217e+001 24410 108973,109155,108999
 3.2000e+000 109299 -1.8825e+001 -3.0612e+002  9.0267e+001 24410 109103,109155,109129
 3.2000e+000 109276 -8.8152e+001 -1.7083e+002  1.3994e+001 24410 108973,109181,109155
 3.2000e+000 109253 -6.5826e+001 -1.6110e+002  4.0754e+001 24410 109025,109103,109077
 3.2000e+000 109230 -1.1261e+002 -1.6762e+002  5.9471e+001 24410 108999,109103,109025
 3.2000e+000 109207 -5.2566e+001 -1.4051e+002  3.3058e+001 24410 109025,109077,109051
 3.2000e+000 109723 -4.2877e+001 -1.6088e+002  1.4045e+000 23856 109475,109579,109553
 3.2000e+000 109700 -5.9940e+001 -1.6881e+002  1.0576e+001 23856 109475,109605,109579
 3.2000e+000 109677 -6.0935e+001 -2.1328e+002  2.1661e+001 23856 109475,109553,109527
 3.2000e+000 109654 -5.0661e+001 -1.6460e+002  1.5040e+000 23856 109449,109605,109475
 3.2000e+000 109631  2.9156e+001 -1.8766e+002  3.1767e+001 23856 109475,109527,109501
 3.2000e+000 110101 -8.6464e+000 -1.4656e+002 -4.2666e+001 23566 109853,109931,109879
 3.2000e+000 110078  6.5550e+000 -1.2188e+002 -2.0505e+001 23566 109827,109931,109853
 3.2000e+000 110055 -2.6974e+001 -1.3609e+002 -1.0740e+001 23566 109827,109983,109931
 3.2000e+000 110032 -8.4435e+000 -1.1747e+002 -1.8504e+001 23566 109879,109931,109905
 3.2000e+000 110009 -1.3249e+001 -1.1733e+002  2.4640e+000 23566 109931,109983,109957
 3.2000e+000 110735 -1.0613e+001 -5.6719e+001 -1.4503e+001 23162 110415,110571,110519
 3.2000e+000 110712 -3.1846e+001 -8.9444e+001 -2.4039e+001 23162 110389,110571,110415
 3.2000e+000 110689 -1.6598e+000 -5.4032e+001 -1.8582e+001 23162 110415,110519,110493
 3.2000e+000 110666 -2.8939e+001 -6.9772e+001  5.0718e+000 23162 110363,110571,110389
 3.2000e+000 110643  4.5679e+001 -1.6116e+001  2.3103e+001 23162 110441,110493,110467
 3.2000e+000 110620  1.0131e+001 -5.9017e+001 -1.7135e+001 23162 110415,110493,110441
 3.2000e+000 110597 -6.5964e-001 -6.6339e+001 -2.0589e+001 23162 110519,110571,110545
 3.2000e+000 111211 -5.3264e+001 -1.7246e+002 -2.1332e+001 22708 111378,111306,111021
 3.2000e+000 111188 -7.1895e+000 -1.6586e+002 -7.0757e+000 22708 111234,110969,110917
 3.2000e+000 111165 -4.6539e+001 -1.6231e+002 -1.2915e+001 22708 111450,111234,110917
 3.2000e+000 111142 -5.2830e+001 -1.5327e+002 -4.7580e+001 22708 111378,111021,110995
 3.2000e+000 111119 -5.1719e+001 -1.6045e+002 -2.7325e+001 22708 111450,110917,110865
 3.2000e+000 111096  2.2319e+001 -2.0160e+002  1.5491e+001 22708 110917,110969,110943
 3.2000e+000 111073 -2.9153e+001 -2.5501e+002 -7.6357e+001 22708 110865,110917,110891
 3.2000e+000 111260  5.8059e+000 -1.6130e+002 -1.9185e+001 22708 111306,110969,111234
 3.2000e+000 111283 -1.7794e+001 -1.4051e+002 -1.3029e+001 22708 111047,111234,110839
 3.2000e+000 111332 -2.4646e+000 -2.0269e+002  1.3116e+001 22708 111047,111021,111306
 3.2000e+000 111355 -2.0781e+001 -1.7222e+002 -2.1421e+001 22708 111047,111306,111234
 3.2000e+000 111404  3.8116e+000 -1.4324e+002 -3.9060e+001 22708 110969,111306,111378
 3.2000e+000 111427 -1.1757e+001 -1.3567e+002 -5.1348e+001 22708 110969,111378,110995
 3.2000e+000 111476 -2.3517e+001 -1.5624e+002 -1.1256e+001 22708 110839,111234,111450
 3.2000e+000 111499 -2.4308e+001 -1.5342e+002 -2.7063e+001 22708 110839,111450,110865
 3.2000e+000 111600 -7.4893e+000 -9.0592e+001  2.6558e+000 22460 111522,111574,111548
 3.2000e+000 112059  1.1017e+001 -7.9029e+001 -1.1188e+001 22056 111811,111889,111863
 3.2000e+000 112036  3.7335e+001 -6.7878e+001 -1.6866e+001 22056 111811,111915,111889
 3.2000e+000 112013  1.2561e+001 -7.4837e+001 -1.4677e+001 22056 111785,111915,111811
 3.2000e+000 111990  9.1156e+000 -5.1952e+001 -3.8153e+001 22056 111785,111941,111915
 3.2000e+000 111967 -6.5601e+000 -8.2421e+001 -8.3676e-001 22056 111811,111863,111837
 3.2000e+000 112486  4.1050e+001 -6.4598e+001 -1.1362e+001 21594 112509,112267,112215
 3.2000e+000 112463 -1.9619e+000 -8.5800e+001  5.1582e+000 21594 112509,112215,112163
 3.2000e+000 112440  2.2830e+001 -3.0459e+001 -5.4918e+001 21594 112581,112293,112267
 3.2000e+000 112417 -7.0495e+000 -8.1329e+001  5.0160e+000 21594 112215,112267,112241
 3.2000e+000 112394  3.6600e+001 -7.5011e+001  4.2033e+000 21594 112163,112345,112319
 3.2000e+000 112371 -7.9314e+000 -8.6481e+001 -4.6107e-001 21594 112163,112215,112189
 3.2000e+000 112535  5.0922e+001 -5.4920e+001 -2.9540e+001 21594 112581,112267,112509
 3.2000e+000 112558  2.1271e+001 -5.9830e+001 -6.0925e+000 21594 112319,112509,112163
 3.2000e+000 112607 -2.8346e+001 -5.4542e+001 -4.8341e+001 21594 112319,112293,112581
 3.2000e+000 112630  7.6962e-001 -8.2032e+001 -1.7935e+001 21594 112319,112581,112509
 3.2000e+000 112900 -3.7435e+001 -1.4711e+002 -2.3701e+000 20974 112675,112779,112701
 3.2000e+000 112877 -1.8777e+001 -1.4341e+002 -3.0574e+000 20974 112675,112805,112779
 3.2000e+000 112854 -3.4263e+000 -1.2534e+002  8.4517e+000 20974 112701,112779,112753
 3.2000e+000 112831 -1.6395e+001 -6.2602e+001 -3.1753e+001 20974 112701,112753,112727
 3.2000e+000 113359  1.5985e+001 -1.2078e+002 -1.7733e+001 20520 113454,113137,113111
 3.2000e+000 113336  3.7392e+001 -1.4098e+002 -3.3092e+001 20520 113454,113111,113085
 3.2000e+000 113313  2.5714e+001 -2.7600e+001  3.8889e+001 20520 113382,113163,113137
 3.2000e+000 113290  7.7135e+000 -1.4381e+002 -1.4382e+001 20520 113526,113382,113137
 3.2000e+000 113267 -3.0422e+001 -2.3557e+002 -1.2294e+001 20520 113189,113241,113215
 3.2000e+000 113408 -2.7560e+001 -1.4855e+002  2.8103e+001 20520 113189,113163,113382
 3.2000e+000 113431 -1.0636e+001 -1.7339e+002 -3.1486e+001 20520 113189,113382,113241
 3.2000e+000 113480  7.9697e+000 -1.4090e+002 -1.4445e+001 20520 113526,113137,113454
 3.2000e+000 113503  2.0851e+001 -1.6508e+002 -2.5140e+001 20520 113241,113454,113085
 3.2000e+000 113552  7.4301e+000 -1.3901e+002 -1.5965e+001 20520 113241,113382,113526
 3.2000e+000 113575  6.9556e+000 -1.3742e+002 -1.6391e+001 20520 113241,113526,113454
 3.2000e+000 113904 -1.1649e+001 -1.7107e+002  5.7368e+000 19858 113705,113783,113757
 3.2000e+000 113881  8.3812e+000 -1.3531e+002 -3.5907e+000 19858 113705,113809,113783
 3.2000e+000 113858  5.9753e+001 -1.0513e+002 -3.4052e+001 19858 113679,113809,113705
 3.2000e+000 113835  6.0396e+000 -1.0300e+002  4.4627e+001 19858 113705,113757,113731
 3.2000e+000 114152 -3.7048e+001 -7.9411e+001 -1.8212e+001 19454 114175,114005,113979
 3.2000e+000 114129 -3.7948e+001 -7.6678e+001 -1.8366e+001 19454 114175,113979,114057
 3.2000e+000 114106 -5.4898e+001 -1.1011e+002 -7.7474e+000 19454 113927,114057,113979
 3.2000e+000 114083 -2.8398e+001 -9.3452e+001 -2.6648e+001 19454 113927,113979,113953
 3.2000e+000 114201 -2.4786e+001 -7.4476e+001 -2.8787e+001 19454 114031,114005,114175
 3.2000e+000 114224 -3.8336e+001 -7.5448e+001 -1.8574e+001 19454 114031,114175,114057
 3.2000e+000 114472 -3.2548e+001 -1.8793e+002 -4.0447e+000 19000 114495,114273,114247
 3.2000e+000 114449 -4.6729e+001 -1.9870e+002 -1.1598e+001 19000 114495,114247,114325
 3.2000e+000 114426 -7.5224e+001 -2.1238e+002  1.0750e+001 19000 114247,114377,114325
 3.2000e+000 114403 -8.6632e+001 -2.0332e+002 -3.6287e+001 19000 114325,114377,114351
 3.2000e+000 114521  1.2721e+001 -1.7379e+002  2.0543e+001 19000 114299,114273,114495
 3.2000e+000 114544 -3.3932e+001 -2.1914e+002  2.1364e+000 19000 114299,114495,114325
 3.2000e+000 114948 -3.3499e+001 -1.8257e+002 -2.0747e+000 18560 114674,114726,114700
 3.2000e+000 114925 -2.2709e+000 -1.2498e+002 -1.6180e+001 18560 114674,114830,114726
 3.2000e+000 114902 -5.2279e+000 -1.3419e+002 -2.7528e+001 18560 114726,114830,114804
 3.2000e+000 114879 -3.8329e+001 -2.9304e+002 -5.6055e+001 18560 114726,114804,114752
 3.2000e+000 114856  2.5911e+001 -3.9861e+002 -6.3695e+001 18560 114752,114804,114778
 3.2000e+000 115098 -8.0871e+001 -2.4402e+002 -9.0655e-001 18156 114971,115023,114997
 3.2000e+000 115075 -8.7856e+001 -1.2402e+002 -1.4091e-001 18156 114971,115049,115023
 3.2000e+000 115248 -7.9717e+001 -2.4380e+002 -3.7963e+000 17602 115147,115199,115173
 3.2000e+000 115225 -2.1672e+001 -2.1756e+002  7.9001e+000 17602 115121,115199,115147
 3.2000e+000 115652  3.0393e+001 -1.3836e+002 -5.7629e+000 17354 115430,115534,115508
 3.2000e+000 115629 -1.7788e-001 -1.8647e+002  8.7979e+000 17354 115404,115534,115430
 3.2000e+000 115606  6.4503e+001 -9.9235e+001  7.2473e+001 17354 115378,115534,115404
 3.2000e+000 115583  7.1938e+001 -1.6731e+002 -2.5415e+001 17354 115456,115508,115482
 3.2000e+000 115560  4.4699e+000 -2.0300e+002 -4.5899e+000 17354 115430,115508,115456
 3.2000e+000 115873 -5.3306e+001 -2.9201e+002 -9.7528e+000 16950 115749,115801,115775
 3.2000e+000 115850 -1.0233e+002 -2.7331e+002 -2.2961e+000 16950 115697,115801,115749
 3.2000e+000 115827 -9.6664e+001 -2.9361e+002  8.0752e+000 16950 115697,115749,115723
 3.2000e+000 116023 -1.0278e+002 -2.8996e+002 -4.0485e+001 16496 115922,115974,115948
 3.2000e+000 116000 -1.1045e+002 -2.3045e+002 -1.8353e+001 16496 115896,115974,115922
 3.2000e+000 116126  3.1090e+001 -1.2843e+002  5.7871e+000 16298 116048,116100,116074
 3.2000e+000 116278  5.6821e+001 -3.0917e+002 -6.7028e+000 15892 116151,116203,116177
 3.2000e+000 116255  1.4777e+001 -4.0090e+002  3.6701e+000 15892 116151,116229,116203
 3.2000e+000 116430  2.0071e+001 -5.8030e+001 -1.7574e+000 15545 116303,116355,116329
 3.2000e+000 116407 -6.7850e+000 -1.3954e+002 -4.0904e+001 15545 116303,116381,116355
 3.2000e+000 116785  4.6714e+001 -9.0215e+001  4.3835e+001 421 116612,116690,116664
 3.2000e+000 116762  2.2761e-001 -1.9938e+002  2.9428e+001 421 116560,116690,116612
 3.2000e+000 116739 -8.0891e+001 -2.2987e+002  2.4830e+001 421 116560,116612,116586
 3.2000e+000 116716 -3.9037e+001 -2.3240e+002  2.8296e+000 421 116612,116664,116638
 3.3000e+000 68048 -3.4602e+001 -1.7364e+002 -1.3020e+001 67642 67898,67950,67924
 3.3000e+000 68025 -5.3036e+001 -1.7903e+002  8.8269e-001 67642 67898,67976,67950
 3.3000e+000 68002 -2.4865e+001 -1.6795e+002  1.0627e+000 67642 67872,67976,67898
 3.3000e+000 68367 -2.3348e+001 -1.1499e+002 -3.0280e-001 67444 68119,68223,68197
 3.3000e+000 68344 -6.0040e+001 -2.0496e+002  1.0473e+001 67444 68119,68249,68223
 3.3000e+000 68321 -8.4207e+001 -2.0677e+002 -3.8880e+000 67444 68093,68249,68119
 3.3000e+000 68298 -5.8132e+001 -1.9893e+002  3.7531e+000 67444 68119,68197,68171
 3.3000e+000 68275 -8.7800e+001 -1.9611e+002  8.4907e+000 67444 68119,68171,68145
 3.3000e+000 68468 -3.7674e+001 -2.3211e+002  3.5901e+001 67268 68390,68442,68416
 3.3000e+000 68765 -1.0183e+002 -2.1349e+002 -1.1001e+000 66956 68788,68517,68491
 3.3000e+000 68742 -1.3370e+002 -2.2778e+002 -1.0109e+001 66956 68788,68491,68621
 3.3000e+000 68719 -1.2759e+002 -2.5135e+002 -3.0580e+001 66956 68543,68621,68569
 3.3000e+000 68696 -1.5019e+002 -2.5431e+002  8.7873e-001 66956 68491,68647,68621
 3.3000e+000 68673 -1.7122e+002 -2.0656e+002 -3.2684e+001 66956 68569,68621,68595
 3.3000e+000 68814 -6.2440e+001 -2.2912e+002  3.2408e+000 66956 68543,68517,68788
 3.3000e+000 68837 -1.0197e+002 -2.4906e+002 -6.9760e+000 66956 68543,68788,68621
 3.3000e+000 69107 -4.0493e+001 -2.2471e+002 -3.9715e+000 66758 68882,68986,68908
 3.3000e+000 69084 -3.6170e+001 -2.1654e+002  5.8414e+000 66758 68882,69012,68986
 3.3000e+000 69061 -1.6067e+001 -2.0775e+002 -9.2102e+000 66758 68908,68960,68934
 3.3000e+000 69038 -3.1066e+001 -2.0237e+002 -7.9799e+000 66758 68908,68986,68960
 3.3000e+000 69308 -1.7266e+001 -2.0414e+002 -4.8663e+000 66560 69331,69184,69158
 3.3000e+000 69285  5.2197e+000 -2.1304e+002 -3.8103e+000 66560 69331,69158,69132
 3.3000e+000 69262 -3.1166e+001 -2.5724e+002 -1.5266e+001 66560 69184,69236,69210
 3.3000e+000 69357 -2.5505e+001 -2.0954e+002 -2.4858e+000 66560 69236,69184,69331
 3.3000e+000 69380 -1.4864e+001 -2.2767e+002  2.5908e+000 66560 69236,69331,69132
 3.3000e+000 69554 -5.1565e+001 -2.9876e+002  1.7784e+001 66270 69427,69479,69453
 3.3000e+000 69531 -1.3740e+001 -2.1016e+002  3.5154e+001 66270 69427,69505,69479
 3.3000e+000 69804 -3.6821e+001 -1.9273e+002 -1.3714e+001 66066 69579,69683,69657
 3.3000e+000 69781  5.4197e+001 -1.5214e+002 -3.5035e+001 66066 69579,69709,69683
 3.3000e+000 69758 -6.3335e+000 -1.0832e+002 -2.5110e+001 66066 69579,69657,69631
 3.3000e+000 69735 -2.0779e+001 -1.4044e+002 -2.9054e+001 66066 69579,69631,69605
 3.3000e+000 70257 -4.4530e+001 -1.3136e+002  1.1334e+001 65776 69960,70090,69986
 3.3000e+000 70234 -5.5798e+001 -1.4398e+002  8.4422e-001 65776 69934,70090,69960
 3.3000e+000 70211 -5.1105e+001 -1.5040e+002 -7.7414e+000 65776 69934,70116,70090
 3.3000e+000 70188 -4.6955e+001 -1.5834e+002  0.0000e+000 65776 70038,70090,70064
 3.3000e+000 70165 -4.7741e+001 -1.6458e+002  6.6660e+000 65776 69986,70090,70038
 3.3000e+000 70142 -3.7031e+001 -1.7235e+002  6.6287e+000 65776 69986,70038,70012
 3.3000e+000 70456 -4.2593e+001 -1.1249e+002 -1.6056e+001 65372 70479,70306,70280
 3.3000e+000 70433 -3.8796e+001 -1.4223e+002 -2.5561e+001 65372 70479,70280,70384
 3.3000e+000 70410 -3.2020e+001 -1.2128e+002  6.5913e+000 65372 70551,70332,70306
 3.3000e+000 70505 -3.6616e+001 -1.0570e+002 -6.3635e+000 65372 70551,70306,70479
 3.3000e+000 70528 -9.7923e+000 -1.2809e+002 -2.0303e+001 65372 70358,70479,70384
 3.3000e+000 70577 -3.2789e+001 -1.4418e+002  3.3902e+000 65372 70358,70332,70551
 3.3000e+000 70600 -4.3101e+001 -1.3547e+002 -8.4086e+000 65372 70358,70551,70479
 3.3000e+000 70821 -2.2475e+001 -2.2576e+002 -4.9901e+000 65174 70645,70723,70671
 3.3000e+000 70798 -5.2336e+001 -2.3429e+002  3.4893e+000 65174 70645,70749,70723
 3.3000e+000 70775 -1.2967e+001 -2.1219e+002 -9.4129e+000 65174 70671,70723,70697
 3.3000e+000 71071 -3.2489e+001 -1.1485e+002 -1.5642e+000 64770 71094,70898,70872
 3.3000e+000 71048 -2.0822e+001 -1.1214e+002  4.3512e+000 64770 71166,71094,70872
 3.3000e+000 71025 -2.2267e+001 -1.2892e+002 -7.5769e+000 64770 71166,70872,70846
 3.3000e+000 71002 -2.4763e+001 -7.7105e+001  1.8101e+001 64770 70898,70950,70924
 3.3000e+000 71120 -2.8182e+001 -1.0136e+002 -1.1879e+000 64770 70950,70898,71094
 3.3000e+000 71143 -9.8719e+000 -1.1760e+002  1.1527e+001 64770 70950,71094,70976
 3.3000e+000 71192 -2.6600e+001 -1.4533e+002  2.2607e+000 64770 70976,71094,71166
 3.3000e+000 71215 -2.0206e+001 -1.5095e+002 -9.9433e+000 64770 70976,71166,70846
 3.3000e+000 71514 -3.6307e+001 -1.8080e+002  2.2922e+000 64572 71681,71537,71318
 3.3000e+000 71491 -5.1683e+001 -1.8031e+002 -1.2094e+000 64572 71537,71266,71240
 3.3000e+000 71468 -5.9206e+001 -1.5275e+002 -1.3790e+001 64572 71609,71396,71370
 3.3000e+000 71445 -4.0684e+001 -1.7789e+002  1.1684e+000 64572 71681,71318,71292
 3.3000e+000 71422 -7.0391e+001 -2.3951e+002 -3.3145e+000 64572 71753,71344,71318
 3.3000e+000 71563 -4.9196e+001 -2.0381e+002  7.3829e+000 64572 71753,71318,71537
 3.3000e+000 71586 -5.0184e+001 -1.7039e+002  5.9236e+000 64572 71609,71370,71537
 3.3000e+000 71635 -3.0084e+001 -9.2226e+001 -2.8546e+001 64572 71240,71396,71609
 3.3000e+000 71658 -4.0952e+001 -1.3458e+002 -4.8935e+000 64572 71240,71609,71537
 3.3000e+000 71707 -4.5844e+001 -1.7821e+002 -1.6184e+000 64572 71266,71537,71681
 3.3000e+000 71730 -5.8353e+001 -1.8096e+002 -2.4177e+000 64572 71266,71681,71292
 3.3000e+000 71779 -7.9446e+001 -1.8923e+002 -3.6474e+000 64572 71370,71344,71753
 3.3000e+000 71802 -7.5665e+001 -1.8690e+002 -2.0485e+000 64572 71370,71753,71537
 3.3000e+000 72052 -4.4445e+001 -1.7014e+002  1.9019e+001 64374 72075,71879,71827
 3.3000e+000 72029 -1.9420e+000 -1.4488e+002  4.1004e+000 64374 72147,72075,71827
 3.3000e+000 72006  3.0354e+001 -1.5953e+002 -1.8231e+001 64374 72147,71827,71957
 3.3000e+000 71983 -1.2029e+001 -1.4431e+002  1.8429e+000 64374 71827,71879,71853
 3.3000e+000 72101 -3.8566e+001 -2.0855e+002  4.8826e+001 64374 71905,71879,72075
 3.3000e+000 72124  2.0293e+001 -1.7562e+002  3.5576e+001 64374 71905,72075,71931
 3.3000e+000 72173 -3.0338e+001 -1.8568e+002  1.7031e+001 64374 71931,72075,72147
 3.3000e+000 72196 -8.0296e+000 -2.0588e+002 -1.7605e+000 64374 71931,72147,71957
 3.3000e+000 72649 -3.4395e+001 -1.2329e+002 -3.0206e+000 63948 72352,72508,72482
 3.3000e+000 72626 -2.6408e+001 -9.9356e+001  2.3115e+001 63948 72326,72508,72352
 3.3000e+000 72603 -4.9636e+001 -1.7002e+002 -1.1733e+001 63948 72672,72430,72378
 3.3000e+000 72580 -4.6218e+001 -1.9496e+002 -4.5902e+000 63948 72672,72378,72352
 3.3000e+000 72557 -4.5601e+001 -1.7112e+002 -1.0144e+001 63948 72744,72456,72430
 3.3000e+000 72534 -5.2956e+001 -2.1699e+002 -4.5228e+001 63948 72378,72430,72404
 3.3000e+000 72698 -4.6202e+001 -1.7031e+002 -9.6225e+000 63948 72744,72430,72672
 3.3000e+000 72721 -3.1233e+001 -1.6215e+002  2.7336e+000 63948 72482,72672,72352
 3.3000e+000 72770 -4.6305e+001 -1.6983e+002 -1.0186e+001 63948 72482,72456,72744
 3.3000e+000 72793 -4.5968e+001 -1.6783e+002 -9.6407e+000 63948 72482,72744,72672
 3.3000e+000 72894 -5.2427e+001 -2.2630e+002 -1.7289e+001 63494 72816,72868,72842
 3.3000e+000 73093 -5.3815e+001 -7.2997e+001  8.2481e+000 63132 72943,72995,72969
 3.3000e+000 73070 -3.3363e+001 -6.2877e+001  9.0705e+000 63132 72943,73021,72995
 3.3000e+000 73047 -2.9220e+001 -5.5930e+001  1.0868e+001 63132 72917,73021,72943
 3.3000e+000 73294 -1.4810e+001 -7.0978e+001 -4.2844e+001 62792 73317,73144,73118
 3.3000e+000 73271 -2.3598e+001 -7.8329e+001 -2.2506e+001 62792 73317,73118,73222
 3.3000e+000 73248 -2.2291e+001 -6.0256e+001 -3.4319e+001 62792 73144,73196,73170
 3.3000e+000 73343 -3.9718e+001 -6.7149e+001 -3.1654e+001 62792 73196,73144,73317
 3.3000e+000 73366 -5.0225e+001 -8.0767e+001 -9.8312e+000 62792 73196,73317,73222
 3.3000e+000 73616 -7.6068e+001 -1.6740e+002  2.3494e+001 62388 73639,73417,73391
 3.3000e+000 73593 -6.5431e+001 -1.4445e+002  1.5721e+001 62388 73711,73639,73391
 3.3000e+000 73570 -4.1613e+001 -1.0575e+002  4.9317e+000 62388 73711,73391,73521
 3.3000e+000 73547 -2.6421e+001 -1.3457e+002  1.0417e+001 62388 73469,73521,73495
 3.3000e+000 73665 -6.1868e+001 -1.6329e+002  1.2208e+001 62388 73443,73417,73639
 3.3000e+000 73688 -5.5958e+001 -1.7678e+002  1.5698e+001 62388 73443,73639,73469
 3.3000e+000 73737 -3.6308e+001 -1.6849e+002  1.3284e+001 62388 73469,73639,73711
 3.3000e+000 73760 -3.7300e+001 -1.5831e+002  1.3223e+001 62388 73469,73711,73521
 3.3000e+000 74010 -1.9738e+001 -7.0617e+001 -2.3717e+001 61848 74033,73837,73811
 3.3000e+000 73987 -5.5271e+001 -6.9811e+001 -4.5834e+001 61848 74033,73811,73785
 3.3000e+000 73964 -1.5353e+000 -6.4929e+001 -2.5938e+001 61848 73837,73915,73889
 3.3000e+000 73941  2.8929e+000 -4.8805e+001 -2.4524e+001 61848 73837,73889,73863
 3.3000e+000 74059 -1.5558e+001 -8.6055e+001 -3.2777e+001 61848 73915,73837,74033
 3.3000e+000 74082 -1.8710e+001 -9.8304e+001 -4.0084e+001 61848 73915,74033,73785
 3.3000e+000 74283  1.8929e+000 -5.9883e+001  6.0088e+000 61444 74306,74133,74107
 3.3000e+000 74260  3.4677e-001 -4.1669e+001  3.2065e+001 61444 74306,74107,74211
 3.3000e+000 74237 -3.1249e+001 -4.2620e+000  4.2350e-001 61444 74378,74185,74159
 3.3000e+000 74332 -1.4305e+001 -6.7324e+001 -3.7933e+000 61444 74159,74133,74306
 3.3000e+000 74355 -1.1198e+000 -4.2003e+001  1.4206e+001 61444 74378,74159,74306
 3.3000e+000 74404 -3.5040e+001 -4.3692e+001  2.4844e+001 61444 74211,74185,74378
 3.3000e+000 74427 -2.5893e+001 -5.9566e+001  2.3268e+001 61444 74211,74378,74306
 3.3000e+000 74628 -1.1604e+001 -5.3229e+001 -2.8867e+001 60990 74478,74530,74504
 3.3000e+000 74605 -3.4854e+000 -6.2198e+001 -3.8588e+001 60990 74452,74530,74478
 3.3000e+000 74582 -2.2928e+001 -6.3614e+001 -3.8684e+001 60990 74452,74556,74530
 3.3000e+000 75089 -2.6007e+000 -3.9976e+001 -1.0740e+001 60486 75112,74945,74919
 3.3000e+000 75066 -8.8001e+000 -2.9939e+000  8.1318e+000 60486 75112,74919,74867
 3.3000e+000 75043 -9.4397e+000 -7.3073e+001  1.3717e+001 60486 74841,74971,74867
 3.3000e+000 75020 -3.0111e-001  4.7063e+000  1.6793e+000 60486 74867,74919,74893
 3.3000e+000 74997 -4.4941e+000 -6.6101e+001  1.9393e+001 60486 74815,74971,74841
 3.3000e+000 75138 -1.8675e+001 -5.3888e+001 -2.7084e+001 60486 74971,74945,75112
 3.3000e+000 75161 -2.5034e+001 -2.9543e+001 -6.3258e+000 60486 74971,75112,74867
 3.3000e+000 75409 -2.7889e+001 -1.5831e+001 -1.1515e+001 59932 75576,75432,75288
 3.3000e+000 75386 -3.1935e+001 -2.2520e+001 -1.1130e+001 59932 75504,75314,75288
 3.3000e+000 75363 -1.6987e+001 -5.6038e+000  4.0466e+000 59932 75432,75236,75210
 3.3000e+000 75340 -9.1935e+000 -1.8804e+001 -2.1350e+001 59932 75576,75288,75262
 3.3000e+000 75458 -3.4413e+001 -1.8162e+001 -1.2449e+001 59932 75504,75288,75432
 3.3000e+000 75481 -4.0794e+001 -2.1697e+001 -5.6132e+000 59932 75184,75432,75210
 3.3000e+000 75530 -3.4266e+001 -5.1093e+001 -1.5432e+001 59932 75184,75314,75504
 3.3000e+000 75553 -3.7839e+001 -2.2539e+001 -1.4114e+001 59932 75184,75504,75432
 3.3000e+000 75602 -4.0071e+001 -3.0915e+001 -6.1928e+000 59932 75236,75432,75576
 3.3000e+000 75625 -3.0389e+001 -3.7892e+001 -1.1906e+001 59932 75236,75576,75262
 3.3000e+000 75873 -3.9167e+001 -1.5325e+002  5.3027e+000 59478 75674,75752,75700
 3.3000e+000 75850 -6.6665e+001 -1.6368e+002  3.2861e+001 59478 75648,75752,75674
 3.3000e+000 75827 -3.1814e+001 -1.4089e+002  1.1216e+001 59478 75700,75752,75726
 3.3000e+000 75804 -6.0694e+001 -1.7958e+002  3.5992e+001 59478 75648,75778,75752
 3.3000e+000 76206 -2.9526e+001 -1.4889e+002  1.3149e+001 59024 75981,76059,76007
 3.3000e+000 76183 -3.6782e+001 -1.5824e+002  1.6655e+001 59024 75981,76111,76059
 3.3000e+000 76160 -3.2139e+001 -1.1728e+002 -9.8362e+000 59024 76007,76059,76033
 3.3000e+000 76137 -1.9443e+001 -1.6522e+002  5.6229e+001 59024 76059,76111,76085
 3.3000e+000 76761 -3.9220e+001 -6.1682e+001 -4.3914e+000 58562 76389,76441,76415
 3.3000e+000 76738 -4.6198e+001 -5.7339e+001  1.7545e+001 58562 76856,76784,76389
 3.3000e+000 76715 -3.6601e+001 -2.6739e+001 -2.6160e+001 58562 76784,76571,76467
 3.3000e+000 76692 -1.9893e+001 -6.9266e+001  2.1256e+001 58562 76856,76389,76597
 3.3000e+000 76669 -3.7386e+001 -1.5678e+002  1.2517e+001 58562 76467,76545,76493
 3.3000e+000 76646 -1.8848e+001 -1.1306e+002 -5.5126e+001 58562 76467,76571,76545
 3.3000e+000 76623 -1.7909e+001 -1.3466e+002  2.3493e+001 58562 76493,76545,76519
 3.3000e+000 76810 -2.8058e+001 -5.9320e+001  1.9511e+000 58562 76441,76389,76784
 3.3000e+000 76833 -9.9259e+001 -1.4017e+002 -6.3719e+001 58562 76441,76784,76467
 3.3000e+000 76882 -1.7855e+001 -4.0343e+001  2.9896e+001 58562 76571,76784,76856
 3.3000e+000 76905 -7.6993e-001 -5.8528e+001  3.3383e+001 58562 76571,76856,76597
 3.3000e+000 77055 -4.4450e+000 -1.1245e+002 -1.2433e+001 57844 76928,76980,76954
 3.3000e+000 77032 -3.6917e+001 -5.9881e+001 -1.1520e+001 57844 76928,77006,76980
 3.3000e+000 77533 -4.6055e+001 -1.6449e+002 -1.4997e+001 57226 77628,77556,77291
 3.3000e+000 77510 -3.5600e+001 -2.2789e+001  6.3299e+000 57226 77556,77187,77343
 3.3000e+000 77487  4.5333e+000 -1.1306e+002 -3.5794e+001 57226 77628,77291,77265
 3.3000e+000 77464 -6.2396e+000 -1.9333e+002  1.7770e+001 57226 77700,77213,77187
 3.3000e+000 77441 -2.0341e+001 -4.5779e+001 -3.5860e+001 57226 77161,77343,77187
 3.3000e+000 77418 -2.7951e+001 -5.1016e+001 -3.3665e+001 57226 77161,77369,77343
 3.3000e+000 77395 -1.2042e+001 -5.9264e+000 -1.8696e+001 57226 77213,77265,77239
 3.3000e+000 77582 -5.0598e+001 -1.4324e+002  2.3864e+001 57226 77317,77291,77556
 3.3000e+000 77605 -4.3901e+001 -8.9258e+001  3.5687e+000 57226 77317,77556,77343
 3.3000e+000 77654  2.9364e+001 -8.8478e+001  2.3111e+001 57226 77187,77556,77628
 3.3000e+000 77677  2.2638e-001 -1.7800e+002  1.8521e+001 57226 77700,77187,77628
 3.3000e+000 77726 -2.6934e+001 -2.0973e+002 -4.5650e+001 57226 77265,77213,77700
 3.3000e+000 77749 -2.3060e+000 -1.5323e+002 -4.1899e+001 57226 77265,77700,77628
 3.3000e+000 78046 -1.9071e+001 -1.3207e+002  3.6475e+001 56936 77798,77850,77824
 3.3000e+000 78023 -3.2443e+001 -1.4137e+002  4.1369e+001 56936 78069,77798,77902
 3.3000e+000 78000 -4.0368e+001 -1.4409e+002  3.9144e+001 56936 78069,77902,77876
 3.3000e+000 77977  1.8862e+001 -1.2956e+002 -1.2018e+001 56936 77798,77928,77902
 3.3000e+000 77954 -2.1985e+001 -3.8716e+001  5.2892e+000 56936 77772,77928,77798
 3.3000e+000 78095 -2.8776e+001 -1.4243e+002  4.2623e+001 56936 77850,77798,78069
 3.3000e+000 78118 -3.2383e+001 -1.4194e+002  4.0748e+001 56936 77850,78069,77876
 3.3000e+000 78754 -2.6243e+000 -1.0403e+002 -1.8630e+001 56475 78777,78486,78408
 3.3000e+000 78731 -7.7442e+000 -1.1195e+002 -1.4508e+001 56475 78777,78408,78382
 3.3000e+000 78708 -1.0834e+001 -1.2061e+002 -2.8163e+001 56475 78849,78512,78486
 3.3000e+000 78685 -3.0471e+001 -8.7265e+001 -3.7752e+000 56475 78382,78590,78564
 3.3000e+000 78662 -2.0744e+001 -1.2617e+002 -2.7881e+001 56475 78512,78564,78538
 3.3000e+000 78639 -1.6716e+000 -2.4316e+002  2.5132e+001 56475 78434,78486,78460
 3.3000e+000 78616 -6.1908e+001 -2.2222e+002  1.1908e+001 56475 78408,78486,78434
 3.3000e+000 78803 -7.9689e+000 -1.1255e+002 -2.1067e+001 56475 78849,78486,78777
 3.3000e+000 78826 -8.1028e-001 -9.7292e+001 -9.5961e+000 56475 78564,78777,78382
 3.3000e+000 78875 -7.7156e+000 -1.0635e+002 -2.2182e+001 56475 78564,78512,78849
 3.3000e+000 78898 -8.4702e+000 -9.8494e+001 -1.6879e+001 56475 78564,78849,78777
 3.3000e+000 79276 -4.8535e+001 -1.0005e+002 -4.5321e-002 55964 79299,79080,79028
 3.3000e+000 79253 -4.0719e+001 -1.0295e+002  5.5159e+000 55964 79299,79028,79132
 3.3000e+000 79230 -5.4856e+001 -1.3581e+002 -2.8874e-001 55964 79028,79080,79054
 3.3000e+000 79207 -2.4815e+001 -9.1686e+001  1.0439e+001 55964 79002,79132,79028
 3.3000e+000 79184  1.4871e-001 -7.9690e+001 -2.9519e+000 55964 79002,79158,79132
 3.3000e+000 79325 -4.3690e+001 -9.4505e+001  3.8496e+000 55964 79106,79080,79299
 3.3000e+000 79348 -3.6242e+001 -9.8925e+001  9.0468e+000 55964 79106,79299,79132
 3.3000e+000 79498 -3.6335e+001 -1.3753e+002  1.3069e+001 55452 79397,79449,79423
 3.3000e+000 79475 -6.6378e+001 -1.2377e+002 -1.3385e-004 55452 79371,79449,79397
 3.3000e+000 79795 -4.9460e+001 -1.2633e+002  2.6724e+000 55048 79962,79818,79573
 3.3000e+000 79772 -3.9178e+001 -1.0782e+002 -6.2254e+000 55048 79818,79521,79677
 3.3000e+000 79749 -4.1702e+001 -1.7057e+002  2.9933e+001 55048 79599,79651,79625
 3.3000e+000 79726 -5.5863e+001 -1.5443e+002  2.7207e+001 55048 79890,79651,79599
 3.3000e+000 79703 -4.0580e+001 -1.2633e+002  1.4688e+001 55048 79962,79573,79547
 3.3000e+000 79844 -4.2986e+001 -1.1408e+002  6.0956e+000 55048 79599,79573,79818
 3.3000e+000 79867 -5.2743e+001 -1.3681e+002  1.0675e+001 55048 79890,79599,79818
 3.3000e+000 79916 -2.8868e+001 -1.3992e+002  1.1110e+001 55048 79677,79651,79890
 3.3000e+000 79939 -3.1125e+001 -1.3249e+002 -4.3245e+000 55048 79677,79890,79818
 3.3000e+000 79988 -6.5151e+001 -1.3159e+002  4.1762e+000 55048 79521,79818,79962
 3.3000e+000 80011 -6.4722e+001 -1.3343e+002  1.4476e+001 55048 79521,79962,79547
 3.3000e+000 80212 -4.6311e+001 -9.8154e+001  2.3245e+001 54436 80235,80088,80036
 3.3000e+000 80189 -2.4580e+001 -7.3592e+001  1.3017e+001 54436 80235,80036,80140
 3.3000e+000 80166 -4.4614e+001 -1.4789e+002 -7.2091e+000 54436 80036,80088,80062
 3.3000e+000 80261 -2.5153e+001 -1.3346e+002  4.1433e+001 54436 80114,80088,80235
 3.3000e+000 80284  3.0484e+000 -1.0741e+002  2.9152e+001 54436 80114,80235,80140
 3.3000e+000 80534 -8.5931e+000 -7.2321e+001  1.3403e+001 54032 80557,80361,80335
 3.3000e+000 80511 -9.3212e+000 -8.7985e+001  2.3923e+001 54032 80557,80335,80309
 3.3000e+000 80488 -1.5280e+001 -8.3907e+001  1.2330e+001 54032 80629,80413,80387
 3.3000e+000 80465 -2.7380e+001 -1.2558e+002  1.4263e+001 54032 80309,80439,80413
 3.3000e+000 80583 -2.0169e+000 -2.1624e+001  8.1726e+000 54032 80387,80361,80557
 3.3000e+000 80606 -1.0497e+001 -7.1261e+001  1.6841e+001 54032 80629,80387,80557
 3.3000e+000 80655 -1.8010e+001 -8.3214e+001  4.2574e+000 54032 80309,80413,80629
 3.3000e+000 80678 -1.9715e+001 -8.0093e+001  8.1339e+000 54032 80309,80629,80557
 3.3000e+000 81139 -7.7902e+000 -2.1528e+001  2.6900e+001 53784 80865,80995,80917
 3.3000e+000 81116  1.1249e+000 -5.8882e+000 -2.2648e+000 53784 80865,81021,80995
 3.3000e+000 81093 -1.5059e+001 -9.2891e+001  5.1769e+001 53784 80943,80995,80969
 3.3000e+000 81070 -2.7331e+001 -3.9811e+001  1.9241e+001 53784 80917,80995,80943
 3.3000e+000 81047  4.6235e+000 -2.1044e+002  5.2637e+000 53784 80865,80917,80891
 3.3000e+000 81468 -8.7294e+000 -6.5245e+001  1.9306e+001 53230 81295,81373,81347
 3.3000e+000 81445 -1.1212e+000 -8.2464e+001  2.5938e+001 53230 81243,81373,81295
 3.3000e+000 81422 -4.4571e+001 -1.0372e+002 -3.7034e+000 53230 81243,81295,81269
 3.3000e+000 81399  2.9326e+000 -4.6681e+001 -1.6407e+001 53230 81295,81347,81321
 3.3000e+000 81618 -3.5482e+000 -5.8332e+000 -1.3271e+000 52790 81491,81543,81517
 3.3000e+000 81595 -3.5167e+000 -7.6917e+001  8.2627e+000 52790 81491,81569,81543
 3.3000e+000 82126  3.1288e+001 -1.7682e+001 -3.5825e+001 52386 82149,81907,81881
 3.3000e+000 82103  5.8300e+000 -6.5644e+001 -1.9305e+001 52386 82149,81881,81855
 3.3000e+000 82080 -4.6976e+000 -5.3023e+001  1.5607e+000 52386 82221,81803,81985
 3.3000e+000 82057 -5.3126e+001 -8.8637e+001 -3.7798e+000 52386 81803,81855,81829
 3.3000e+000 82034  6.1108e-001 -8.7738e+001 -1.9628e+001 52386 81907,81985,81933
 3.3000e+000 82011 -1.7671e+001 -6.2409e+001 -3.1638e+001 52386 81933,81985,81959
 3.3000e+000 82175  7.6441e+000 -6.0424e+001 -1.3048e+001 52386 81985,81907,82149
 3.3000e+000 82198  1.7330e+001 -5.7038e+001 -8.7357e+000 52386 82221,81985,82149
 3.3000e+000 82247 -1.5209e+001 -6.4382e+001  1.2108e+001 52386 81855,81803,82221
 3.3000e+000 82270 -4.0003e+000 -7.5881e+001  2.6454e+000 52386 81855,82221,82149
 3.3000e+000 82825 -3.9015e+001 -8.4942e+001  2.5856e+000 51782 82505,82661,82635
 3.3000e+000 82802 -8.2185e+001 -1.2849e+002 -2.1620e+001 51782 82479,82661,82505
 3.3000e+000 82779 -3.8753e+001 -1.5272e+002 -5.2175e+001 51782 82557,82635,82609
 3.3000e+000 82756 -3.2441e+001 -1.3642e+002 -8.0728e+000 51782 82531,82635,82557
 3.3000e+000 82733 -5.7214e+001 -1.0315e+002 -1.5593e+001 51782 82505,82635,82531
 3.3000e+000 82710 -1.2139e+001 -6.4279e+001  1.7250e+001 51782 82453,82661,82479
 3.3000e+000 82687  1.3129e+000 -9.0525e+001 -2.9301e+001 51782 82557,82609,82583
 3.3000e+000 83171 -4.7740e+001 -1.3830e+002  2.0008e+001 51442 83194,82978,82900
 3.3000e+000 83148 -7.3609e+001 -1.2013e+002  1.5230e+001 51442 83194,82900,82874
 3.3000e+000 83125 -5.6705e+001 -1.4236e+002  1.7490e+001 51442 82900,82978,82926
 3.3000e+000 83102 -5.0471e+001 -1.0859e+002  6.3809e+000 51442 82874,83030,83004
 3.3000e+000 83079 -1.6003e+001 -1.2989e+002  1.5217e+001 51442 82926,82978,82952
 3.3000e+000 83056 -2.3176e+001 -1.1210e+002  5.9309e+000 51442 82848,83030,82874
 3.3000e+000 83220 -2.9532e+001 -1.3042e+002  1.6446e+001 51442 83004,82978,83194
 3.3000e+000 83243 -5.8148e+001 -1.1379e+002  1.1378e+001 51442 83004,83194,82874
 3.3000e+000 83751 -5.5605e+001 -5.9264e+001  3.2354e-001 50938 83428,83584,83454
 3.3000e+000 83728 -3.6736e+001 -5.2484e+001  8.6943e+000 50938 83428,83610,83584
 3.3000e+000 83705 -4.6797e+001 -7.6150e+001 -3.3264e-001 50938 83454,83584,83558
 3.3000e+000 83682 -2.3870e+001 -7.4945e+001  1.2704e+001 50938 83454,83532,83480
 3.3000e+000 83659 -3.1948e+001 -6.6353e+001  1.3277e+001 50938 83454,83558,83532
 3.3000e+000 83636 -5.6471e+001 -1.0586e+002 -4.2396e-001 50938 83480,83532,83506
 3.3000e+000 84355 -3.5772e+000 -1.1306e+002  5.7700e+000 50377 84378,83960,83934
 3.3000e+000 84332  1.1882e+001 -7.2429e+001  1.1324e+001 50377 84522,84378,83934
 3.3000e+000 84309 -4.0922e+000 -8.0436e+001 -8.1123e+000 50377 84450,84038,84012
 3.3000e+000 84286  4.9897e+000 -5.4354e+001  9.0837e+000 50377 84522,83934,84142
 3.3000e+000 84263  3.7665e+000 -5.1042e+001 -8.2959e+000 50377 84594,84090,84038
 3.3000e+000 84240 -4.7695e+001 -8.8693e+001 -7.2424e+000 50377 83960,84012,83986
 3.3000e+000 84217  6.4953e+000 -3.8972e+001 -1.5395e+001 50377 83934,84168,84142
 3.3000e+000 84194 -2.9030e+000 -1.9539e+001  1.5325e+001 50377 84038,84090,84064
 3.3000e+000 84404 -3.3742e+001 -1.0143e+002 -1.8969e+001 50377 84012,83960,84378
 3.3000e+000 84427  5.7763e+000 -7.4593e+001 -3.1200e+000 50377 84450,84012,84378
 3.3000e+000 84476  2.5696e+000 -6.3494e+001 -9.3249e+000 50377 84594,84038,84450
 3.3000e+000 84499  1.6609e+000 -9.8045e+001 -6.4132e+000 50377 84116,84450,84378
 3.3000e+000 84548  1.3836e+001 -9.8351e+001  2.2463e+000 50377 84116,84378,84522
 3.3000e+000 84571  1.0572e+001 -7.5462e+001 -6.3545e-001 50377 84116,84522,84142
 3.3000e+000 84620  1.1708e+001 -7.0955e+001  1.1494e+000 50377 84116,84090,84594
 3.3000e+000 84643  1.0966e+001 -8.2309e+001  1.0271e+000 50377 84116,84594,84450
 3.3000e+000 84842 -2.6992e+001 -1.4834e+002  1.4358e+001 49923 84865,84692,84666
 3.3000e+000 84819 -5.5719e+001 -1.4810e+002  2.2303e+000 49923 84865,84666,84770
 3.3000e+000 84796 -1.0915e+001 -1.8736e+002 -1.4599e+001 49923 84692,84744,84718
 3.3000e+000 84891 -4.4889e+001 -1.5028e+002 -2.1189e+000 49923 84744,84692,84865
 3.3000e+000 84914 -7.6675e+001 -1.5728e+002 -1.6444e+001 49923 84744,84865,84770
 3.3000e+000 85501 -1.1318e+001 -9.6766e+001  1.3209e+001 49618 85524,85282,85204
 3.3000e+000 85478 -8.9586e+000 -9.8183e+001  1.0448e+001 49618 85596,85524,85204
 3.3000e+000 85455 -4.1052e+000 -1.0644e+002  1.0216e+001 49618 85596,85204,85178
 3.3000e+000 85432 -2.7876e+001 -1.0630e+002  1.7464e+001 49618 85204,85282,85256
 3.3000e+000 85409 -3.8486e+001 -1.5536e+002 -2.8013e+000 49618 85282,85334,85308
 3.3000e+000 85386 -2.5835e+001 -1.1157e+002 -1.6830e+000 49618 85204,85256,85230
 3.3000e+000 85550 -9.7329e+000 -9.8287e+001  8.5827e+000 49618 85334,85282,85524
 3.3000e+000 85573 -2.1960e+001 -1.0345e+002  8.6147e+000 49618 85334,85524,85360
 3.3000e+000 85622 -1.6467e+001 -1.0809e+002  1.4023e+001 49618 85360,85524,85596
 3.3000e+000 85645 -8.6211e+000 -1.1287e+002  1.2726e+001 49618 85360,85596,85178
 3.3000e+000 85795 -7.6324e+001 -2.2318e+002 -1.8024e+001 49278 85694,85746,85720
 3.3000e+000 85772 -9.6102e+001 -4.0425e+002 -1.6388e+001 49278 85668,85746,85694
 3.3000e+000 86197 -4.5318e+001 -1.7520e+002 -8.7204e+000 48916 86001,86079,86027
 3.3000e+000 86174 -8.9792e+000 -8.7504e+001 -1.0973e+001 48916 85949,86079,86001
 3.3000e+000 86151 -2.2125e+000 -1.8120e+002 -3.0043e+000 48916 85949,86001,85975
 3.3000e+000 86128 -5.1537e+001 -1.9519e+002 -9.4915e+000 48916 86027,86079,86053
 3.3000e+000 86105 -6.5311e+000 -5.6922e+001  1.5491e+001 48916 85923,86079,85949
 3.3000e+000 86477 -2.8632e+001 -7.6969e+001  3.2356e+000 48398 86327,86379,86353
 3.3000e+000 86454 -7.1857e+000 -7.8234e+001  1.7983e+001 48398 86500,86379,86327
 3.3000e+000 86431 -1.5876e+001 -5.2427e+001  1.7220e+001 48398 86301,86405,86379
 3.3000e+000 86526 -1.9247e+001 -6.7136e+001  2.8129e+001 48398 86301,86379,86500
 3.3000e+000 87032 -2.1160e+001 -1.0663e+002 -2.2110e+001 48008 87127,87055,86787
 3.3000e+000 87009 -3.4001e+001 -1.6636e+002  7.5021e+000 48008 87055,86735,86709
 3.3000e+000 86986 -4.7558e+001 -9.1117e+001 -1.7573e+001 48008 87127,86787,86761
 3.3000e+000 86963 -3.2169e+001 -8.1340e+001 -1.3352e+001 48008 86787,86865,86839
 3.3000e+000 86940 -1.0329e+001 -7.4255e+001  1.5553e+001 48008 86709,86891,86865
 3.3000e+000 86917 -5.4311e+001 -7.9979e+001 -8.4696e+000 48008 86787,86839,86813
 3.3000e+000 87081 -3.3768e+001 -1.1176e+002 -1.0855e+001 48008 86865,86787,87055
 3.3000e+000 87104 -1.2463e+001 -8.0124e+001  1.9195e+001 48008 86865,87055,86709
 3.3000e+000 87153 -5.2411e+001 -1.4143e+002 -3.5848e+001 48008 86735,87055,87127
 3.3000e+000 87176 -8.2827e+001 -1.0707e+002 -3.3188e+001 48008 86735,87127,86761
 3.3000e+000 87456 -3.0786e+001 -1.1359e+002  2.2503e+001 47604 87306,87358,87332
 3.3000e+000 87433  2.1790e+001 -7.4659e+001  1.7187e+000 47604 87306,87384,87358
 3.3000e+000 87410 -1.2929e+001 -8.9345e+001  4.6039e+000 47604 87280,87384,87306
 3.3000e+000 87785  4.2424e-001 -1.0071e+002  1.9787e+001 47264 87638,87690,87664
 3.3000e+000 87762 -3.2406e+001 -1.5690e+002  3.6803e+001 47264 87612,87690,87638
 3.3000e+000 87739 -3.7558e+001 -1.8315e+002  4.0976e+001 47264 87560,87690,87612
 3.3000e+000 87716 -2.1938e+001 -2.0798e+002  1.8353e+001 47264 87560,87612,87586
 3.3000e+000 87935  5.0909e+000 -2.6218e+000  1.2836e+000 46952 87808,87860,87834
 3.3000e+000 87912 -6.1411e+000 -2.9881e+001  2.2041e+000 46952 87808,87886,87860
 3.3000e+000 88281 -2.5522e+001 -1.2137e+002  1.0141e+001 46526 88304,88114,88036
 3.3000e+000 88258 -2.6407e+001 -1.1838e+002  1.1305e+001 46526 88304,88036,87984
 3.3000e+000 88235 -2.2207e+001 -1.1871e+002  6.4451e+000 46526 88036,88114,88062
 3.3000e+000 88212 -1.7872e+001 -1.0984e+002  1.9572e+001 46526 87958,88140,87984
 3.3000e+000 88189 -2.2233e+001 -1.1005e+002  2.5297e+001 46526 87984,88036,88010
 3.3000e+000 88166 -1.6569e+001 -9.0242e+001  2.2498e+001 46526 88062,88114,88088
 3.3000e+000 88330 -2.6134e+001 -1.1844e+002  9.5776e+000 46526 88140,88114,88304
 3.3000e+000 88353 -2.6907e+001 -1.1530e+002  1.0302e+001 46526 88140,88304,87984
 3.3000e+000 88701  2.6303e+001 -7.9033e+001  3.0466e+001 45822 88724,88378,88534
 3.3000e+000 88678  2.8580e+001 -4.5877e+001  3.4429e+001 45822 88378,88560,88534
 3.3000e+000 88655 -1.0470e+001 -9.3047e+001  3.0030e+001 45822 88724,88534,88508
 3.3000e+000 88632 -4.6530e+001 -1.1877e+002  1.2067e+001 45822 88404,88508,88456
 3.3000e+000 88609 -4.0184e+001 -1.0936e+002  3.9549e+000 45822 88404,88456,88430
 3.3000e+000 88586 -1.3642e+001 -4.7989e+001 -2.6139e+001 45822 88456,88508,88482
 3.3000e+000 88750 -3.2323e+000 -7.0057e+001  8.9972e+000 45822 88404,88378,88724
 3.3000e+000 88773 -3.1697e+001 -7.9552e+001  8.0398e+000 45822 88404,88724,88508
 3.3000e+000 89106 -3.5779e+001 -3.4793e+001  2.5478e+001 45418 88881,88985,88907
 3.3000e+000 89083 -1.2064e+001 -4.9072e+001  2.5483e+001 45418 88881,89011,88985
 3.3000e+000 89060 -4.5811e+000 -4.2972e+001  1.8254e+001 45418 88907,88985,88933
 3.3000e+000 89037 -3.7669e+000 -1.6016e+001  1.8006e+001 45418 88933,88985,88959
 3.3000e+000 89435 -2.9944e+001 -9.7413e+001  3.0802e+001 44914 89210,89288,89236
 3.3000e+000 89412 -6.1742e+001 -1.4296e+002  4.7301e+001 44914 89210,89314,89288
 3.3000e+000 89389 -1.1347e+001 -9.4635e+001  2.5403e+001 44914 89210,89340,89314
 3.3000e+000 89366 -3.6681e+001 -1.0396e+002  3.7303e+001 44914 89236,89288,89262
 3.3000e+000 89634 -2.3357e+001 -1.0355e+002  4.2981e+001 44538 89510,89562,89536
 3.3000e+000 89611 -3.7167e+001 -8.0478e+001  1.4656e+001 44538 89458,89562,89510
 3.3000e+000 89588 -3.5273e+001 -1.0307e+002  1.4855e+001 44538 89458,89510,89484
 3.3000e+000 90044 -3.1127e+000 -3.8545e+001  1.1123e+001 44134 89819,89923,89845
 3.3000e+000 90021 -3.1545e+001 -4.4942e+001 -3.0099e+001 44134 89819,89949,89923
 3.3000e+000 89998  6.4739e+000  3.9888e-001  8.1805e+000 44134 89845,89923,89897
 3.3000e+000 89975 -1.4316e+001 -6.6393e+001  1.6152e+001 44134 89845,89897,89871
 3.3000e+000 90520 -2.8418e+000 -7.1325e+001  2.2944e+001 43457 90543,90252,90226
 3.3000e+000 90497  6.3117e+000 -1.0856e+002 -9.2257e-001 43457 90543,90226,90330
 3.3000e+000 90474 -1.1998e+001 -9.9716e+001 -1.2226e+001 43457 90200,90330,90226
 3.3000e+000 90451 -2.6792e+001 -7.6591e+001  3.0513e+001 43457 90200,90356,90330
 3.3000e+000 90428  4.4129e-001 -8.1084e+001  1.8468e+000 43457 90252,90304,90278
 3.3000e+000 90405 -3.5185e+001 -3.2994e+001  2.9050e+001 43457 90174,90356,90200
 3.3000e+000 90382 -1.5009e+001 -2.7413e+001  3.3477e+001 43457 90148,90356,90174
 3.3000e+000 90569 -1.8103e+000 -1.0950e+002  1.1795e+001 43457 90304,90252,90543
 3.3000e+000 90592 -1.0479e+001 -1.6737e+002 -1.5008e+001 43457 90304,90543,90330
 3.3000e+000 91098 -1.5695e+001 -8.4070e+001 -6.1917e+000 42789 90801,90905,90853
 3.3000e+000 91075 -3.5532e+001 -1.0945e+002  2.4483e+000 42789 90775,90905,90801
 3.3000e+000 91052 -2.8108e+001 -1.1596e+002  2.0373e+001 42789 90775,90931,90905
 3.3000e+000 91029 -2.8335e+001 -1.3634e+002  4.3813e+000 42789 90801,90853,90827
 3.3000e+000 91006  1.2411e+001 -7.4731e+001  7.6157e+000 42789 90853,90905,90879
 3.3000e+000 90983 -2.7896e+001 -1.1026e+002  1.9875e+001 42789 90775,90957,90931
 3.3000e+000 91427 -1.9244e+001 -1.2914e+002  4.4899e+000 42227 91228,91280,91254
 3.3000e+000 91404  1.7067e+001 -1.0764e+002 -4.8014e+000 42227 91228,91306,91280
 3.3000e+000 91381 -3.0232e+001 -1.2255e+002  1.2774e+001 42227 91202,91306,91228
 3.3000e+000 91358  9.0965e+000 -8.0910e+001 -9.8968e+000 42227 91202,91332,91306
 3.3000e+000 91675 -1.9558e+001 -8.9465e+001  1.8025e+001 41773 91698,91476,91450
 3.3000e+000 91652 -1.0065e+001 -8.4201e+001  4.1169e+001 41773 91698,91450,91554
 3.3000e+000 91629 -3.4504e+001 -7.3410e+001  4.5640e+001 41773 91450,91580,91554
 3.3000e+000 91606 -1.4161e+001 -1.1541e+002  2.4199e+001 41773 91502,91554,91528
 3.3000e+000 91724 -3.8229e+001 -9.4486e+001  1.1746e+001 41773 91502,91476,91698
 3.3000e+000 91747 -3.2829e+001 -9.0752e+001  3.5144e+001 41773 91502,91698,91554
 3.3000e+000 92127 -6.8059e+001 -1.2425e+002 -9.5040e+000 41255 92150,91905,91879
 3.3000e+000 92104 -1.9817e+001 -1.1339e+002 -2.8921e+001 41255 92150,91879,91957
 3.3000e+000 92081  9.0438e+000 -1.7974e+002  2.7745e+001 41255 91853,91957,91879
 3.3000e+000 92058  7.0015e+000 -1.8379e+002  2.1931e+001 41255 91853,91983,91957
 3.3000e+000 92035 -4.9151e+000 -1.0814e+002 -3.9516e+000 41255 91853,92009,91983
 3.3000e+000 92176 -2.3498e+001 -1.4311e+002 -3.4149e+001 41255 91931,91905,92150
 3.3000e+000 92199  5.0755e+001 -9.8977e+001 -6.3433e+001 41255 91931,92150,91957
 3.3000e+000 92518 -3.4922e+001 -1.8446e+002 -2.0041e+001 41007 92244,92374,92270
 3.3000e+000 92495 -9.4671e+001 -1.9742e+002 -1.6069e+001 41007 92244,92400,92374
 3.3000e+000 92472 -1.7262e+001 -1.5244e+002 -3.7574e+000 41007 92270,92374,92348
 3.3000e+000 92449 -1.1625e+001 -3.9776e+001  2.1655e+001 41007 92296,92348,92322
 3.3000e+000 92426 -1.1123e+001 -9.4327e+001 -1.1108e+001 41007 92270,92348,92296
 3.3000e+000 92668 -3.4900e+001 -1.0447e+002 -2.3123e+001 40717 92823,92691,92567
 3.3000e+000 92645 -3.6287e+001 -1.0071e+002 -2.3058e+001 40717 92895,92823,92567
 3.3000e+000 92717 -1.5367e+001 -9.5394e+001 -1.7426e+001 40717 92593,92567,92691
 3.3000e+000 92849 -3.1186e+001 -1.0336e+002 -2.4504e+001 40717 92619,92691,92823
 3.3000e+000 92872 -3.7061e+001 -9.5404e+001 -1.3355e+001 40717 92619,92823,92541
 3.3000e+000 92921 -4.7537e+001 -1.1604e+002 -9.7682e+000 40717 92541,92823,92895
 3.3000e+000 93634 -6.8923e+001 -3.0216e+002 -7.5357e+000 40206 93366,93444,93418
 3.3000e+000 93611 -2.9658e+001 -1.2082e+002 -1.0965e+001 40206 93288,93444,93366
 3.3000e+000 93588 -9.3295e+001 -2.1704e+002  1.6562e+001 40206 93288,93366,93314
 3.3000e+000 93565 -6.0539e+001 -1.2396e+002  3.1068e+000 40206 93262,93444,93288
 3.3000e+000 93542 -1.4482e+001 -2.4551e+002  2.0324e+001 40206 93366,93418,93392
 3.3000e+000 93519 -5.9698e+001 -1.5407e+002  7.7715e+000 40206 93262,93470,93444
 3.3000e+000 93496 -4.8343e+001 -1.9854e+002  3.6187e+001 40206 93314,93366,93340
 3.3000e+000 94189 -2.7457e+001 -7.7791e+001  2.1804e+001 39802 93843,93999,93973
 3.3000e+000 94166  3.1747e+001 -4.1232e+001 -4.9194e+000 39802 93817,93999,93843
 3.3000e+000 94143 -1.1182e+001 -4.9462e+001  1.2364e+000 39802 93869,93973,93947
 3.3000e+000 94120 -6.6057e+000 -5.4610e+001  1.3030e+001 39802 93843,93973,93869
 3.3000e+000 94097 -9.0574e+000 -5.7404e+001  3.1362e+000 39802 93869,93921,93895
 3.3000e+000 94074 -4.5103e+000 -4.8052e+001 -8.9732e-001 39802 93869,93947,93921
 3.3000e+000 94051 -4.6296e+001 -6.9948e+001  2.5222e+001 39802 93817,94025,93999
 3.3000e+000 94290 -1.5036e+001 -6.7296e+001 -1.5004e+001 39398 94212,94264,94238
 3.3000e+000 94798 -1.8797e+001 -1.0720e+002 -6.0126e+000 38701 94501,94657,94631
 3.3000e+000 94775 -3.1794e+001 -8.8173e+001  7.2792e+000 38701 94475,94657,94501
 3.3000e+000 94752  2.1012e+001 -9.3165e+001 -1.7834e+001 38701 94579,94631,94605
 3.3000e+000 94729 -2.2877e+001 -1.8147e+002 -3.2423e+001 38701 94553,94631,94579
 3.3000e+000 94706 -5.0916e+001 -1.7923e+002  1.2348e+001 38701 94501,94631,94553
 3.3000e+000 94683 -3.0965e+001 -3.1311e+002  4.4639e+000 38701 94501,94553,94527
 3.3000e+000 95255 -5.5221e+001 -1.5388e+002 -7.6139e+000 38247 95278,95085,95007
 3.3000e+000 95232 -3.5548e+001 -1.4902e+002 -1.1178e+001 38247 95278,95007,95137
 3.3000e+000 95209 -1.5912e+001 -1.2237e+002 -1.8718e+000 38247 94981,95137,95007
 3.3000e+000 95186 -3.5654e+001 -1.0448e+002 -1.0948e+001 38247 95007,95059,95033
 3.3000e+000 95163 -3.7891e+001 -1.1622e+002 -2.3770e+001 38247 95007,95085,95059
 3.3000e+000 95304 -6.3603e+001 -1.5766e+002  9.4589e+000 38247 95111,95085,95278
 3.3000e+000 95327 -4.4757e+001 -1.4846e+002  3.6413e+000 38247 95111,95278,95137
 3.3000e+000 95575 -2.2849e+001 -2.0217e+001 -5.3903e+000 37564 95376,95428,95402
 3.3000e+000 95552 -1.6434e+001 -4.5176e+001 -6.5391e+000 37564 95376,95454,95428
 3.3000e+000 95529  4.9895e+000 -3.2084e+001  8.8919e-001 37564 95376,95480,95454
 3.3000e+000 95506  3.9975e+001 -7.0539e+001 -4.9322e+000 37564 95350,95480,95376
 3.3000e+000 96034 -5.3083e+001 -1.6863e+002 -3.2750e+001 37224 95786,95838,95812
 3.3000e+000 96011 -1.3442e+001 -1.0928e+002 -3.5444e+000 37224 95786,95890,95838
 3.3000e+000 95988 -3.9481e+001 -1.0300e+002  3.9477e+000 37224 95786,95916,95890
 3.3000e+000 95965  5.0316e-001 -6.8357e+001 -2.4995e+001 37224 95760,95916,95786
 3.3000e+000 95942 -1.3293e+001 -1.3321e+002 -3.0626e+001 37224 95838,95890,95864
 3.3000e+000 96363 -6.7732e+000 -1.7210e+001 -1.0837e+001 36884 96216,96268,96242
 3.3000e+000 96340  9.0551e+000 -2.2002e+001 -1.2410e+001 36884 96164,96268,96216
 3.3000e+000 96317  3.4144e+001 -1.6979e+001 -9.0762e+000 36884 96138,96268,96164
 3.3000e+000 96294  2.2370e+000 -3.3358e+001 -5.4643e+000 36884 96164,96216,96190
 3.3000e+000 96839 -2.5562e+001 -1.3744e+002  2.8418e+001 36572 96862,96649,96597
 3.3000e+000 96816  3.6796e+000 -1.1969e+002  1.6160e+001 36572 97006,96862,96597
 3.3000e+000 96793  1.0086e+001 -5.0491e+001 -1.0663e+001 36572 96934,96467,96675
 3.3000e+000 96770  6.4297e+000 -1.1882e+002  1.6217e+001 36572 97006,96597,96571
 3.3000e+000 96747 -3.8139e+000 -1.1502e+002  1.4496e+001 36572 96467,96519,96493
 3.3000e+000 96724  1.7046e+001 -9.0692e+001  9.5271e+000 36572 96519,96571,96545
 3.3000e+000 96701 -3.4848e+001 -9.8671e+001 -8.1148e-001 36572 96597,96649,96623
 3.3000e+000 96888  5.0768e+000 -1.3816e+002 -7.2135e+000 36572 96675,96649,96862
 3.3000e+000 96911  1.9960e+001 -9.9114e+001 -1.5118e+001 36572 96934,96675,96862
 3.3000e+000 96960 -8.0093e-001 -9.7390e+001 -2.1796e+000 36572 96519,96467,96934
 3.3000e+000 96983  1.3883e+001 -1.3229e+002  2.3090e+000 36572 97078,96934,96862
 3.3000e+000 97032  2.0976e+000 -1.2785e+002  1.5218e+001 36572 97078,96862,97006
 3.3000e+000 97055  5.5504e+000 -1.1533e+002  1.4248e+001 36572 96519,97006,96571
 3.3000e+000 97104  2.2226e+001 -1.1441e+002 -2.4247e+000 36572 96519,96934,97078
 3.3000e+000 97127  1.5984e+001 -1.0776e+002  8.8433e+000 36572 96519,97078,97006
 3.3000e+000 97761 -8.8125e+000 -1.1018e+002 -1.1802e+001 36118 97784,97493,97415
 3.3000e+000 97738 -9.5740e+000 -1.2515e+002 -3.9065e-002 36118 97784,97415,97597
 3.3000e+000 97715 -1.0322e+001 -1.3586e+002 -1.5859e+001 36118 97389,97597,97415
 3.3000e+000 97692 -4.2270e+001 -1.4129e+002  1.1446e+001 36118 97415,97467,97441
 3.3000e+000 97669 -4.1941e+001 -1.3144e+002  8.5196e+000 36118 97415,97493,97467
 3.3000e+000 97646 -3.6370e+001 -6.4140e+001 -6.9141e+000 36118 97493,97571,97519
 3.3000e+000 97623 -3.4747e+001 -8.6056e+001  6.1419e+000 36118 97519,97571,97545
 3.3000e+000 97810 -1.1796e+001 -8.6537e+001 -1.8976e+001 36118 97571,97493,97784
 3.3000e+000 97833 -2.2052e+001 -1.0375e+002 -2.5892e+000 36118 97571,97784,97597
 3.3000e+000 98081 -9.8808e+000 -6.5642e+001 -9.0449e+000 35564 98104,97908,97856
 3.3000e+000 98058 -7.7617e+000 -7.1937e+001 -1.1348e+001 35564 98104,97856,97986
 3.3000e+000 98035  4.0489e+001 -5.5048e+001  1.6722e+001 35564 97934,97986,97960
 3.3000e+000 98012 -1.1479e+001 -7.6729e+001  8.4852e+000 35564 97856,97908,97882
 3.3000e+000 98130 -2.3802e+000 -4.6301e+001 -4.9845e+000 35564 97934,97908,98104
 3.3000e+000 98153 -1.0033e+001 -6.5825e+001 -9.0271e+000 35564 97934,98104,97986
 3.3000e+000 98374 -1.7658e+001 -4.6349e+001 -5.5353e+000 35152 98224,98302,98276
 3.3000e+000 98351 -4.0823e+001 -1.0769e+002  4.4523e+000 35152 98198,98302,98224
 3.3000e+000 98328  4.7389e+000 -3.2819e+001 -1.1869e+001 35152 98224,98276,98250
 3.3000e+000 98884 -4.9263e+000 -8.7657e+001 -2.1335e+001 34698 98691,98743,98717
 3.3000e+000 98861 -1.4904e+001 -1.0461e+002 -3.1959e+001 34698 98561,98743,98691
 3.3000e+000 98838 -2.8835e+001 -8.9404e+001 -3.6245e+001 34698 98907,98587,98561
 3.3000e+000 98815 -4.0496e+001 -1.0697e+002 -2.4999e+001 34698 98907,98561,98691
 3.3000e+000 98792 -4.9367e+001 -9.9048e+001 -2.0548e+001 34698 98587,98639,98613
 3.3000e+000 98769 -3.9666e+001 -7.9351e+001 -2.3733e+001 34698 98587,98665,98639
 3.3000e+000 98933 -3.4411e+001 -9.9469e+001 -1.8573e+001 34698 98665,98587,98907
 3.3000e+000 98956 -5.2335e+001 -1.2740e+002 -6.3181e+000 34698 98665,98907,98691
 3.3000e+000 99204  4.1108e+000 -1.2662e+002 -1.1394e+001 34144 99227,99031,99005
 3.3000e+000 99181 -9.5542e+000 -1.2059e+002 -2.1988e+001 34144 99299,99227,99005
 3.3000e+000 99158 -9.7053e+000 -1.1908e+002 -1.9538e+001 34144 99299,99005,99109
 3.3000e+000 99135 -1.1168e+001 -9.2361e+001 -1.1152e+001 34144 98979,99109,99005
 3.3000e+000 99253 -4.9193e+000 -1.4686e+002 -1.3979e+001 34144 99057,99031,99227
 3.3000e+000 99276 -1.2802e+001 -1.2681e+002 -2.3921e+001 34144 99057,99227,99083
 3.3000e+000 99325 -8.2929e+000 -1.1645e+002 -2.0838e+001 34144 99083,99227,99299
 3.3000e+000 99348 -7.2198e+000 -1.1446e+002 -1.7982e+001 34144 99083,99299,99109
 3.3000e+000 99498 -8.5881e+000 -5.0585e+001  1.6497e+001 33433 99397,99449,99423
 3.3000e+000 99475 -2.0038e+001 -1.9663e+001  4.0720e+000 33433 99371,99449,99397
 3.3000e+000 100008 -2.2816e+001 -6.4459e+001 -3.3236e+000 32979 100103,100031,99815
 3.3000e+000 99985 -3.8617e+001 -9.0678e+001 -1.5941e+001 32979 100175,100031,99763
 3.3000e+000 99962 -4.6861e+000 -8.4939e+001 -2.3178e+001 32979 100103,99815,99789
 3.3000e+000 99939 -3.9050e+001 -1.1612e+002 -2.1585e+001 32979 100175,99763,99737
 3.3000e+000 99916 -3.1835e+001 -8.1770e+001 -1.2173e+001 32979 99685,99867,99737
 3.3000e+000 99893 -4.3746e+001 -1.5468e+002 -2.5331e+001 32979 99685,99737,99711
 3.3000e+000 100057 -1.2768e+001 -6.5785e+001  1.0860e+001 32979 99841,99815,100031
 3.3000e+000 100080 -1.2341e+001 -3.6993e+001 -1.5246e+001 32979 99841,100031,99867
 3.3000e+000 100129 -2.4866e+001 -1.0698e+002 -6.5950e-001 32979 99763,100031,100103
 3.3000e+000 100152 -1.7464e+001 -1.4046e+002 -2.2840e+001 32979 99763,100103,99789
 3.3000e+000 100201 -3.3981e+001 -7.5802e+001 -2.8571e+000 32979 99867,100031,100175
 3.3000e+000 100224 -3.5565e+001 -9.2285e+001 -1.2538e+001 32979 99867,100175,99737
 3.3000e+000 100553 -5.6076e+000 -3.9569e+001 -1.4181e+001 32503 100354,100406,100380
 3.3000e+000 100530  1.2489e+001 -8.6589e+001  3.0099e+001 32503 100328,100406,100354
 3.3000e+000 100507  6.2470e+000 -1.0015e+002  3.1613e+001 32503 100328,100458,100406
 3.3000e+000 100484 -8.9994e+000 -1.4886e+002  2.5862e+001 32503 100406,100458,100432
 3.3000e+000 100850 -1.5171e+001 -1.4379e+002 -4.9329e+000 31899 100873,100654,100628
 3.3000e+000 100827  1.9377e+000 -1.4035e+002 -6.1616e+000 31899 100945,100873,100628
 3.3000e+000 100804  1.6190e+001 -1.2954e+002 -9.9553e-002 31899 100945,100628,100602
 3.3000e+000 100781 -1.5676e+001 -8.7365e+001  1.1228e+001 31899 100576,100732,100602
 3.3000e+000 100758 -6.0472e+001 -1.1778e+002 -8.0087e+001 31899 100654,100706,100680
 3.3000e+000 100899 -5.6163e+000 -1.4683e+002 -7.2496e+000 31899 100706,100654,100873
 3.3000e+000 100922 -4.2876e+001 -1.4414e+002 -2.7587e+001 31899 100706,100873,100732
 3.3000e+000 100971 -3.0886e+001 -1.1822e+002 -1.4145e+001 31899 100732,100873,100945
 3.3000e+000 100994 -1.3677e+001 -1.0434e+002 -7.0886e+000 31899 100732,100945,100602
 3.3000e+000 101551 -2.6328e+000 -1.0023e+002 -1.2788e+001 31338 101205,101387,101231
 3.3000e+000 101528  1.0521e+000 -9.9149e+001  2.8412e+000 31338 101179,101387,101205
 3.3000e+000 101505 -2.4043e+001 -8.9670e+001  2.2656e+001 31338 101574,101309,101257
 3.3000e+000 101482 -1.8325e+001 -1.1284e+002  1.5321e+001 31338 101646,101574,101257
 3.3000e+000 101459 -1.1680e+001 -8.2760e+001  1.1512e+001 31338 101646,101257,101231
 3.3000e+000 101436 -4.1521e+001 -1.3122e+002  1.0698e+001 31338 101309,101361,101335
 3.3000e+000 101413  1.0468e+001 -7.9130e+001  2.6720e+001 31338 101257,101309,101283
 3.3000e+000 101600 -2.4354e+001 -1.1370e+002  2.0769e+001 31338 101361,101309,101574
 3.3000e+000 101623 -2.7645e+001 -1.4894e+002 -1.1203e+001 31338 101361,101574,101387
 3.3000e+000 101672 -7.9510e+000 -9.4790e+001 -4.3779e+000 31338 101387,101574,101646
 3.3000e+000 101695 -1.2312e+001 -8.5098e+001 -9.1519e+000 31338 101387,101646,101231
 3.3000e+000 101943 -1.2741e+001 -1.3299e+002 -9.4895e+000 30748 101966,101796,101744
 3.3000e+000 101920  3.0414e+000 -1.3182e+002 -6.9161e+000 30748 101966,101744,101718
 3.3000e+000 101897 -2.4724e+001 -1.3710e+002  1.3034e+001 30748 101718,101848,101822
 3.3000e+000 101874 -4.3330e+001 -1.3741e+002 -1.5936e+001 30748 101744,101796,101770
 3.3000e+000 101992 -2.0871e+001 -1.2789e+002 -6.3764e+000 30748 101822,101796,101966
 3.3000e+000 102015 -1.0307e+001 -1.3086e+002 -4.0126e+000 30748 101822,101966,101718
 3.3000e+000 102493 -4.5895e+001 -1.2166e+002 -5.7674e+000 30344 102516,102173,102147
 3.3000e+000 102470 -3.0649e+001 -9.7098e+001 -1.3165e+001 30344 102660,102516,102147
 3.3000e+000 102447 -1.8271e+001 -1.1698e+002 -2.0046e+001 30344 102588,102199,102173
 3.3000e+000 102424 -1.5814e+001 -9.3101e+001 -1.6087e+001 30344 102660,102147,102329
 3.3000e+000 102401 -2.0332e+000 -1.2120e+002 -4.7368e+001 30344 102199,102277,102251
 3.3000e+000 102378  1.6381e+001 -7.3972e+001 -7.7935e+001 30344 102199,102251,102225
 3.3000e+000 102355  7.4341e-002 -8.2254e+001  4.1099e+000 30344 102121,102329,102147
 3.3000e+000 102542 -2.3980e+001 -1.1171e+002 -2.1446e+001 30344 102588,102173,102516
 3.3000e+000 102565 -4.1150e+001 -1.0796e+002 -1.8533e+001 30344 102277,102516,102303
 3.3000e+000 102614 -2.3606e+001 -1.1953e+002 -2.1475e+001 30344 102277,102199,102588
 3.3000e+000 102637 -3.1933e+001 -1.1791e+002 -2.4426e+001 30344 102277,102588,102516
 3.3000e+000 102686 -1.3365e+001 -1.0299e+002 -5.9684e+000 30344 102303,102516,102660
 3.3000e+000 102709 -5.0457e+000 -1.0375e+002 -7.4136e+000 30344 102303,102660,102329
 3.3000e+000 103294  9.6689e+000 -1.3326e+002  7.1332e+000 29726 103317,103101,103075
 3.3000e+000 103271  3.0235e+001 -6.6850e+001  1.5034e+001 29726 103317,103075,102997
 3.3000e+000 103248 -9.5583e+000 -5.5059e+001 -1.9676e+001 29726 102971,103153,102997
 3.3000e+000 103225 -9.5936e+000 -1.0961e+002 -1.3819e+001 29726 103101,103153,103127
 3.3000e+000 103202 -2.8528e+000 -1.6159e+002  2.1673e+001 29726 102997,103075,103023
 3.3000e+000 103179 -3.0510e+001 -1.1162e+002 -3.1372e+001 29726 103023,103075,103049
 3.3000e+000 103343  2.9551e+000 -7.5464e+001 -3.1214e+000 29726 103153,103101,103317
 3.3000e+000 103366  2.3816e+000 -3.9542e+001 -1.5420e+000 29726 103153,103317,102997
 3.3000e+000 103614  2.7625e+001 -6.7043e+001 -4.7903e+000 29200 103781,103637,103467
 3.3000e+000 103591 -4.8185e+000 -6.5781e+001  1.5211e+001 29200 103709,103637,103415
 3.3000e+000 103568 -1.3561e+001 -6.4961e+001  8.7085e+000 29200 103709,103415,103389
 3.3000e+000 103545  2.1213e+001 -5.2825e+001 -1.7037e+001 29200 103781,103467,103441
 3.3000e+000 103663  3.0993e+001 -6.8419e+001  1.0203e+001 29200 103853,103637,103493
 3.3000e+000 103686  3.1829e+001 -1.6405e+001  1.5054e+001 29200 103493,103637,103519
 3.3000e+000 103735  1.0170e+001 -6.7034e+001  1.6519e+001 29200 103519,103637,103709
 3.3000e+000 103758  2.9992e-001 -6.5830e+001  1.1201e+001 29200 103519,103709,103389
 3.3000e+000 103807  1.8948e+001 -9.0689e+001 -4.7631e+000 29200 103415,103637,103781
 3.3000e+000 103830  9.2812e+000 -8.4226e+001 -2.1076e+001 29200 103415,103781,103441
 3.3000e+000 103879  2.2896e+001 -6.1855e+001 -3.1091e+000 29200 103467,103637,103853
 3.3000e+000 104545 -6.3885e-001 -7.8680e+001 -2.0160e+001 28860 104274,104352,104326
 3.3000e+000 104522 -4.1747e+001 -6.6065e+001 -6.3699e+000 28860 104248,104352,104274
 3.3000e+000 104499 -3.4869e+001 -6.3747e+001 -5.8004e+000 28860 104248,104404,104352
 3.3000e+000 104476 -5.4554e+001 -4.6398e+001 -2.7141e+000 28860 104222,104404,104248
 3.3000e+000 104453 -2.3035e+001 -3.1683e+001 -8.1666e+000 28860 104352,104404,104378
 3.3000e+000 104430 -1.9520e+001 -8.7890e+001 -1.7321e+001 28860 104274,104326,104300
 3.3000e+000 104744  7.7908e-001 -1.2278e+002 -3.1621e+001 28456 104839,104767,104646
 3.3000e+000 104721 -5.1973e+001 -1.6423e+002 -2.0135e+001 28456 104767,104594,104568
 3.3000e+000 104698 -3.2937e+000 -9.7880e+001 -1.4212e+001 28456 104839,104646,104620
 3.3000e+000 104793 -1.5036e+001 -1.3989e+002 -1.9744e+001 28456 104672,104646,104767
 3.3000e+000 104816 -6.2325e+001 -1.7976e+002  1.0611e+001 28456 104911,104767,104568
 3.3000e+000 104865 -2.3389e+001 -1.3553e+002 -8.6820e+000 28456 104594,104767,104839
 3.3000e+000 104888  1.1959e+001 -1.2515e+001 -1.3184e+001 28456 105041,104839,104620
 3.3000e+000 104937 -3.0431e+000 -9.4805e+001 -1.8738e+001 28456 104672,104767,104911
 3.3000e+000 105067 -2.2429e+001 -1.3022e+002 -2.2563e+001 28456 104594,104839,105041
 3.3000e+000 105573 -3.1408e+001 -1.2776e+002 -1.1756e+001 28094 105812,105596,105328
 3.3000e+000 105550 -3.0372e+001 -1.1181e+002  4.3571e+000 28094 105596,105276,105250
 3.3000e+000 105527 -1.3639e+001 -1.6493e+002 -1.0812e+001 28094 105740,105668,105432
 3.3000e+000 105504 -2.6310e+001 -1.8724e+002 -5.4809e+000 28094 105740,105432,105380
 3.3000e+000 105481 -2.1924e+001 -1.3424e+002 -6.5499e+000 28094 105812,105328,105302
 3.3000e+000 105458 -5.0077e+001 -1.8853e+002 -1.7051e+000 28094 105380,105432,105406
 3.3000e+000 105622 -4.0731e+000 -7.7978e+001 -2.3338e+001 28094 105354,105328,105596
 3.3000e+000 105645 -3.6906e+000 -8.2763e+001  1.7425e+001 28094 105668,105354,105596
 3.3000e+000 105694  2.5626e+000 -1.1790e+002 -1.2658e+001 28094 105250,105432,105668
 3.3000e+000 105717 -3.4598e+001 -1.4840e+002  5.0055e+000 28094 105250,105668,105596
 3.3000e+000 105766 -2.9816e+001 -1.4739e+002  3.4038e+001 28094 105354,105668,105740
 3.3000e+000 105789 -4.8906e+001 -1.8656e+002  4.0447e+001 28094 105354,105740,105380
 3.3000e+000 105838 -2.1402e+001 -1.1836e+002 -7.6955e+000 28094 105276,105596,105812
 3.3000e+000 105861  1.0740e+001 -1.1424e+002  3.6821e+000 28094 105276,105812,105302
 3.3000e+000 106367 -3.4337e+001 -1.4973e+002 -1.6104e+001 27390 106070,106122,106096
 3.3000e+000 106344 -5.0497e+000 -1.6567e+002 -2.4251e+001 27390 106070,106226,106122
 3.3000e+000 106321  2.4582e+001 -1.5817e+002 -1.8808e+001 27390 106174,106226,106200
 3.3000e+000 106298  5.8465e+000 -1.5783e+002 -1.3685e+001 27390 106122,106226,106174
 3.3000e+000 106275  1.0116e+001 -1.5311e+002  6.5709e+000 27390 106122,106174,106148
 3.3000e+000 106252 -5.5797e+001 -1.9058e+002 -3.4961e+001 27390 106044,106226,106070
 3.3000e+000 106615  3.9851e+000 -1.1119e+002 -2.7889e+000 26978 106638,106494,106416
 3.3000e+000 106592  4.0297e+000 -1.2081e+002 -5.0856e+000 26978 106638,106416,106390
 3.3000e+000 106569  6.5424e+000 -1.0681e+002  5.6430e+000 26978 106416,106494,106442
 3.3000e+000 106546  2.1189e+001 -1.1097e+002  2.4111e-001 26978 106442,106494,106468
 3.3000e+000 106664  1.0001e+001 -1.2135e+002  1.3247e+000 26978 106520,106494,106638
 3.3000e+000 106687  8.6673e+000 -1.3129e+002 -4.0546e+000 26978 106520,106638,106390
 3.3000e+000 106837  4.8814e-001 -4.0194e+002 -3.8052e-001 26524 106710,106762,106736
 3.3000e+000 106814  2.1434e-001 -3.6375e+002 -6.8589e-002 26524 106710,106788,106762
 3.3000e+000 107426 -6.1509e+001 -1.2238e+002  1.9314e+001 26120 107129,107207,107155
 3.3000e+000 107403 -3.7443e+001 -9.9952e+001  8.7987e+000 26120 107129,107285,107207
 3.3000e+000 107380 -5.0501e+001 -1.1967e+002  4.9975e-001 26120 107207,107285,107259
 3.3000e+000 107357  7.2040e+000 -8.5198e+001  1.9329e+000 26120 107155,107207,107181
 3.3000e+000 107334 -2.3037e+001 -9.6009e+001  5.2010e+000 26120 107103,107285,107129
 3.3000e+000 107311 -4.9082e+001 -1.1051e+002  3.5129e+000 26120 107207,107259,107233
 3.3000e+000 107755 -3.1302e+001 -9.8673e+001  3.1614e+000 25758 107556,107634,107608
 3.3000e+000 107732 -5.2810e+000 -6.0565e+001 -9.8707e+000 25758 107556,107660,107634
 3.3000e+000 107709 -4.6453e+001 -9.5378e+001 -1.0916e+001 25758 107556,107608,107582
 3.3000e+000 107686 -4.4271e+000 -6.2945e+000  6.0750e+000 25758 107530,107660,107556
 3.3000e+000 108438 -4.3591e+001 -1.5845e+002 -5.6898e+000 25468 108121,108199,108173
 3.3000e+000 108415 -2.5335e+000 -5.8811e+001 -4.0181e+000 25468 108095,108199,108121
 3.3000e+000 108392  3.6037e+000 -7.7834e+001 -2.5005e+000 25468 108095,108251,108199
 3.3000e+000 108369 -1.6323e+001 -9.8832e+001  8.6922e+000 25468 108069,108251,108095
 3.3000e+000 108346 -2.2865e+001 -8.6376e+001 -1.5386e+001 25468 108199,108251,108225
 3.3000e+000 108323  9.0657e+000 -1.1448e+002  2.6413e+001 25468 108017,108251,108069
 3.3000e+000 108300 -4.4251e+001 -9.8948e+001 -1.4312e+001 25468 108121,108173,108147
 3.3000e+000 108277  1.8976e+001 -1.0519e+002  2.0161e+001 25468 108017,108069,108043
 3.3000e+000 108588 -3.4896e+001 -1.4039e+002 -3.8244e+001 25064 108611,108513,108487
 3.3000e+000 108565 -6.7724e+001 -1.2401e+002 -2.2403e+001 25064 108683,108611,108487
 3.3000e+000 108637 -2.5958e+001 -1.1551e+002 -4.0705e+001 25064 108539,108513,108611
 3.3000e+000 108660 -2.3920e+001 -9.5010e+001 -2.5848e+001 25064 108539,108611,108461
 3.3000e+000 108709 -2.4521e+001 -8.7723e+001 -3.8416e+001 25064 108461,108611,108683
 3.3000e+000 109345 -9.4573e+001 -1.6544e+002  5.8498e+001 24410 108999,109155,109103
 3.3000e+000 109322 -4.6484e+001 -1.6751e+002  2.1941e+001 24410 108973,109155,108999
 3.3000e+000 109299 -1.8821e+001 -2.7066e+002  7.9249e+001 24410 109103,109155,109129
 3.3000e+000 109276 -8.0411e+001 -1.5277e+002  1.7370e+001 24410 108973,109181,109155
 3.3000e+000 109253 -5.7073e+001 -1.4261e+002  3.6668e+001 24410 109025,109103,109077
 3.3000e+000 109230 -9.8529e+001 -1.4800e+002  5.3855e+001 24410 108999,109103,109025
 3.3000e+000 109207 -4.6105e+001 -1.2290e+002  2.9472e+001 24410 109025,109077,109051
 3.3000e+000 109723 -3.8143e+001 -1.3953e+002  1.6379e+000 23856 109475,109579,109553
 3.3000e+000 109700 -5.2697e+001 -1.4712e+002  9.3702e+000 23856 109475,109605,109579
 3.3000e+000 109677 -5.2995e+001 -1.8311e+002  1.9433e+001 23856 109475,109553,109527
 3.3000e+000 109654 -4.4711e+001 -1.4345e+002 -1.2275e+000 23856 109449,109605,109475
 3.3000e+000 109631  2.4756e+001 -1.6257e+002  2.7469e+001 23856 109475,109527,109501
 3.3000e+000 110101 -4.9500e+000 -1.2618e+002 -4.0570e+001 23566 109853,109931,109879
 3.3000e+000 110078  8.0180e+000 -1.0315e+002 -1.9420e+001 23566 109827,109931,109853
 3.3000e+000 110055 -1.9683e+001 -1.1645e+002 -1.1062e+001 23566 109827,109983,109931
 3.3000e+000 110032 -6.9309e+000 -9.7869e+001 -1.6542e+001 23566 109879,109931,109905
 3.3000e+000 110009 -6.3493e+000 -9.6592e+001  3.5883e-001 23566 109931,109983,109957
 3.3000e+000 110735 -4.5805e+000 -4.2483e+001 -1.2868e+001 23162 110415,110571,110519
 3.3000e+000 110712 -2.3044e+001 -7.2400e+001 -2.1247e+001 23162 110389,110571,110415
 3.3000e+000 110689  2.8759e+000 -4.0335e+001 -1.6613e+001 23162 110415,110519,110493
 3.3000e+000 110666 -2.1219e+001 -5.3774e+001  6.9374e+000 23162 110363,110571,110389
 3.3000e+000 110643  4.4275e+001 -7.1773e+000  1.9801e+001 23162 110441,110493,110467
 3.3000e+000 110620  1.3041e+001 -4.4597e+001 -1.5385e+001 23162 110415,110493,110441
 3.3000e+000 110597  5.4230e+000 -4.9561e+001 -1.8806e+001 23162 110519,110571,110545
 3.3000e+000 111211 -4.5674e+001 -1.4883e+002 -1.8507e+001 22708 111378,111306,111021
 3.3000e+000 111188 -5.5281e+000 -1.4403e+002 -5.8695e+000 22708 111234,110969,110917
 3.3000e+000 111165 -3.9170e+001 -1.4009e+002 -1.0658e+001 22708 111450,111234,110917
 3.3000e+000 111142 -4.5587e+001 -1.3275e+002 -4.1394e+001 22708 111378,111021,110995
 3.3000e+000 111119 -4.3481e+001 -1.3834e+002 -2.2850e+001 22708 111450,110917,110865
 3.3000e+000 111096  2.1096e+001 -1.7500e+002  1.3774e+001 22708 110917,110969,110943
 3.3000e+000 111073 -2.3624e+001 -2.2339e+002 -6.6675e+001 22708 110865,110917,110891
 3.3000e+000 111260  5.8841e+000 -1.3940e+002 -1.6267e+001 22708 111306,110969,111234
 3.3000e+000 111283 -1.4970e+001 -1.2100e+002 -1.1057e+001 22708 111047,111234,110839
 3.3000e+000 111332 -1.8392e+000 -1.7473e+002  1.1247e+001 22708 111047,111021,111306
 3.3000e+000 111355 -1.7773e+001 -1.4907e+002 -1.8510e+001 22708 111047,111306,111234
 3.3000e+000 111404  3.8089e+000 -1.2433e+002 -3.3726e+001 22708 110969,111306,111378
 3.3000e+000 111427 -9.7005e+000 -1.1767e+002 -4.4393e+001 22708 110969,111378,110995
 3.3000e+000 111476 -1.9886e+001 -1.3473e+002 -9.5560e+000 22708 110839,111234,111450
 3.3000e+000 111499 -2.0440e+001 -1.3204e+002 -2.2927e+001 22708 110839,111450,110865
 3.3000e+000 111600  7.8960e-001 -6.8806e+001  3.2256e+000 22460 111522,111574,111548
 3.3000e+000 112059  1.5863e+001 -6.5586e+001 -9.8722e+000 22056 111811,111889,111863
 3.3000e+000 112036  3.9372e+001 -5.3215e+001 -1.5777e+001 22056 111811,111915,111889
 3.3000e+000 112013  1.7105e+001 -5.8940e+001 -1.3185e+001 22056 111785,111915,111811
 3.3000e+000 111990  1.2657e+001 -3.7484e+001 -3.5563e+001 22056 111785,111941,111915
 3.3000e+000 111967  2.2116e+000 -6.4280e+001 -1.3703e+000 22056 111811,111863,111837
 3.3000e+000 112486  4.1280e+001 -4.9479e+001 -1.0043e+001 21594 112509,112267,112215
 3.3000e+000 112463  3.3263e+000 -6.8072e+001  3.9103e+000 21594 112509,112215,112163
 3.3000e+000 112440  2.5088e+001 -1.9905e+001 -4.8592e+001 21594 112581,112293,112267
 3.3000e+000 112417 -5.0792e-001 -6.4981e+001  4.2706e+000 21594 112215,112267,112241
 3.3000e+000 112394  3.6152e+001 -5.9178e+001  2.8904e+000 21594 112163,112345,112319
 3.3000e+000 112371 -3.3854e-003 -6.3466e+001 -8.3054e-001 21594 112163,112215,112189
 3.3000e+000 112535  4.9854e+001 -4.1411e+001 -2.6244e+001 21594 112581,112267,112509
 3.3000e+000 112558  2.3694e+001 -4.5886e+001 -6.0246e+000 21594 112319,112509,112163
 3.3000e+000 112607 -2.0129e+001 -4.1049e+001 -4.2965e+001 21594 112319,112293,112581
 3.3000e+000 112630  5.6404e+000 -6.5003e+001 -1.6158e+001 21594 112319,112581,112509
 3.3000e+000 112900 -3.2274e+001 -1.2744e+002 -2.5860e+000 20974 112675,112779,112701
 3.3000e+000 112877 -1.5934e+001 -1.2481e+002 -2.8598e+000 20974 112675,112805,112779
 3.3000e+000 112854 -2.8396e+000 -1.0750e+002  7.0332e+000 20974 112701,112779,112753
 3.3000e+000 112831 -1.4110e+001 -5.3876e+001 -2.7419e+001 20974 112701,112753,112727
 3.3000e+000 113359  1.5248e+001 -1.0517e+002 -1.5294e+001 20520 113454,113137,113111
 3.3000e+000 113336  3.4702e+001 -1.2216e+002 -2.8395e+001 20520 113454,113111,113085
 3.3000e+000 113313  2.3509e+001 -2.3254e+001  3.4734e+001 20520 113382,113163,113137
 3.3000e+000 113290  8.1424e+000 -1.2485e+002 -1.1913e+001 20520 113526,113382,113137
 3.3000e+000 113267 -2.5973e+001 -2.0742e+002 -9.5414e+000 20520 113189,113241,113215
 3.3000e+000 113408 -2.3129e+001 -1.2916e+002  2.5455e+001 20520 113189,113163,113382
 3.3000e+000 113431 -8.3949e+000 -1.5093e+002 -2.6904e+001 20520 113189,113382,113241
 3.3000e+000 113480  8.5878e+000 -1.2216e+002 -1.1859e+001 20520 113526,113137,113454
 3.3000e+000 113503  1.9916e+001 -1.4246e+002 -2.0968e+001 20520 113241,113454,113085
 3.3000e+000 113552  7.5719e+000 -1.2048e+002 -1.3328e+001 20520 113241,113382,113526
 3.3000e+000 113575  7.2936e+000 -1.1905e+002 -1.3624e+001 20520 113241,113526,113454
 3.3000e+000 113904 -9.0517e+000 -1.4790e+002  5.4182e+000 19858 113705,113783,113757
 3.3000e+000 113881  6.9724e+000 -1.1626e+002 -2.2328e+000 19858 113705,113809,113783
 3.3000e+000 113858  5.0321e+001 -9.0776e+001 -2.8036e+001 19858 113679,113809,113705
 3.3000e+000 113835  6.3696e+000 -8.8132e+001  3.9868e+001 19858 113705,113757,113731
 3.3000e+000 114152 -2.7805e+001 -6.0153e+001 -1.6513e+001 19454 114175,114005,113979
 3.3000e+000 114129 -2.8499e+001 -5.7278e+001 -1.6584e+001 19454 114175,113979,114057
 3.3000e+000 114106 -4.5800e+001 -9.1716e+001 -6.2169e+000 19454 113927,114057,113979
 3.3000e+000 114083 -2.2303e+001 -7.3192e+001 -2.1968e+001 19454 113927,113979,113953
 3.3000e+000 114201 -2.1400e+001 -5.7739e+001 -2.9259e+001 19454 114031,114005,114175
 3.3000e+000 114224 -2.9077e+001 -5.5397e+001 -1.6903e+001 19454 114031,114175,114057
 3.3000e+000 114472 -2.5066e+001 -1.6416e+002 -2.3370e+000 19000 114495,114273,114247
 3.3000e+000 114449 -3.9973e+001 -1.7382e+002 -1.0491e+001 19000 114495,114247,114325
 3.3000e+000 114426 -6.6125e+001 -1.8738e+002  9.7070e+000 19000 114247,114377,114325
 3.3000e+000 114403 -7.6320e+001 -1.8009e+002 -3.1299e+001 19000 114325,114377,114351
 3.3000e+000 114521  2.1879e+001 -1.4920e+002  2.1741e+001 19000 114299,114273,114495
 3.3000e+000 114544 -2.6855e+001 -1.9386e+002  3.0433e+000 19000 114299,114495,114325
 3.3000e+000 114948 -2.7694e+001 -1.5745e+002 -2.1443e+000 18560 114674,114726,114700
 3.3000e+000 114925 -9.9086e-001 -1.0622e+002 -1.4267e+001 18560 114674,114830,114726
 3.3000e+000 114902 -4.6708e+000 -1.1690e+002 -2.4523e+001 18560 114726,114830,114804
 3.3000e+000 114879 -3.3944e+001 -2.5593e+002 -4.9548e+001 18560 114726,114804,114752
 3.3000e+000 114856  2.2794e+001 -3.4995e+002 -5.6184e+001 18560 114752,114804,114778
 3.3000e+000 115098 -6.6230e+001 -2.1028e+002 -1.6636e+000 18156 114971,115023,114997
 3.3000e+000 115075 -7.3959e+001 -1.0280e+002 -3.9733e-001 18156 114971,115049,115023
 3.3000e+000 115248 -7.0305e+001 -2.1770e+002 -4.4188e+000 17602 115147,115199,115173
 3.3000e+000 115225 -1.8729e+001 -1.9292e+002  6.5946e+000 17602 115121,115199,115147
 3.3000e+000 115652  3.2784e+001 -1.2065e+002 -5.4643e+000 17354 115430,115534,115508
 3.3000e+000 115629  5.7858e+000 -1.6218e+002  7.2746e+000 17354 115404,115534,115430
 3.3000e+000 115606  6.4454e+001 -8.1742e+001  6.3925e+001 17354 115378,115534,115404
 3.3000e+000 115583  6.9959e+001 -1.4531e+002 -2.2956e+001 17354 115456,115508,115482
 3.3000e+000 115560  9.9100e+000 -1.7787e+002 -4.2662e+000 17354 115430,115508,115456
 3.3000e+000 115873 -4.5811e+001 -2.5270e+002 -8.4669e+000 16950 115749,115801,115775
 3.3000e+000 115850 -8.8018e+001 -2.3608e+002 -1.8159e+000 16950 115697,115801,115749
 3.3000e+000 115827 -8.3398e+001 -2.5429e+002  7.0771e+000 16950 115697,115749,115723
 3.3000e+000 116023 -8.9771e+001 -2.5319e+002 -3.5866e+001 16496 115922,115974,115948
 3.3000e+000 116000 -9.6845e+001 -2.0176e+002 -1.6769e+001 16496 115896,115974,115922
 3.3000e+000 116126  3.2169e+001 -1.0555e+002  4.9147e+000 16298 116048,116100,116074
 3.3000e+000 116278  4.9502e+001 -2.6745e+002 -5.8186e+000 15892 116151,116203,116177
 3.3000e+000 116255  1.2985e+001 -3.4705e+002  3.2230e+000 15892 116151,116229,116203
 3.3000e+000 116430  2.2328e+001 -4.5372e+001 -1.5762e+000 15545 116303,116355,116329
 3.3000e+000 116407 -2.0784e-001 -1.1496e+002 -3.4988e+001 15545 116303,116381,116355
 3.3000e+000 116785  4.1702e+001 -7.7840e+001  3.8286e+001 421 116612,116690,116664
 3.3000e+000 116762  9.5292e-001 -1.7349e+002  2.5713e+001 421 116560,116690,116612
 3.3000e+000 116739 -6.8923e+001 -1.9984e+002  2.1957e+001 421 116560,116612,116586
 3.3000e+000 116716 -3.3242e+001 -2.0198e+002  2.4556e+000 421 116612,116664,116638
 3.4000e+000 68048 -2.9750e+001 -1.4455e+002 -1.2565e+001 67642 67898,67950,67924
 3.4000e+000 68025 -4.6078e+001 -1.4641e+002  4.5148e-001 67642 67898,67976,67950
 3.4000e+000 68002 -1.9491e+001 -1.3599e+002  6.3396e-001 67642 67872,67976,67898
 3.4000e+000 68367 -2.1403e+001 -9.7566e+001  2.3790e+000 67444 68119,68223,68197
 3.4000e+000 68344 -5.3512e+001 -1.7727e+002  1.1663e+001 67444 68119,68249,68223
 3.4000e+000 68321 -7.5974e+001 -1.7792e+002 -3.5837e+000 67444 68093,68249,68119
 3.4000e+000 68298 -5.1136e+001 -1.6894e+002  5.0963e+000 67444 68119,68197,68171
 3.4000e+000 68275 -7.3732e+001 -1.6739e+002  8.3514e+000 67444 68119,68171,68145
 3.4000e+000 68468 -4.5827e+001 -2.0798e+002  3.0503e+001 67268 68390,68442,68416
 3.4000e+000 68765 -9.0104e+001 -1.8503e+002 -2.5770e+000 66956 68788,68517,68491
 3.4000e+000 68742 -1.1800e+002 -1.9590e+002 -1.0108e+001 66956 68788,68491,68621
 3.4000e+000 68719 -1.0165e+002 -2.1062e+002 -2.8108e+001 66956 68543,68621,68569
 3.4000e+000 68696 -1.2818e+002 -2.0645e+002  1.1345e+000 66956 68491,68647,68621
 3.4000e+000 68673 -1.4730e+002 -1.6150e+002 -2.9985e+001 66956 68569,68621,68595
 3.4000e+000 68814 -5.5945e+001 -1.9742e+002  7.2150e-001 66956 68543,68517,68788
 3.4000e+000 68837 -9.0590e+001 -2.1326e+002 -7.7298e+000 66956 68543,68788,68621
 3.4000e+000 69107 -3.7030e+001 -2.0035e+002 -3.3919e+000 66758 68882,68986,68908
 3.4000e+000 69084 -3.0802e+001 -1.9142e+002  6.4413e+000 66758 68882,69012,68986
 3.4000e+000 69061 -1.4141e+001 -1.8634e+002 -8.4271e+000 66758 68908,68960,68934
 3.4000e+000 69038 -2.8772e+001 -1.8020e+002 -6.8980e+000 66758 68908,68986,68960
 3.4000e+000 69308 -1.7271e+001 -1.7594e+002 -3.6130e+000 66560 69331,69184,69158
 3.4000e+000 69285  1.6767e+000 -1.8564e+002 -3.2948e+000 66560 69331,69158,69132
 3.4000e+000 69262 -2.4693e+001 -2.2118e+002 -1.3991e+001 66560 69184,69236,69210
 3.4000e+000 69357 -2.2752e+001 -1.8279e+002 -7.0016e-001 66560 69236,69184,69331
 3.4000e+000 69380 -1.4363e+001 -2.0099e+002  3.3467e+000 66560 69236,69331,69132
 3.4000e+000 69554 -4.5180e+001 -2.5682e+002  1.5260e+001 66270 69427,69479,69453
 3.4000e+000 69531 -1.2505e+001 -1.8032e+002  3.0277e+001 66270 69427,69505,69479
 3.4000e+000 69804 -2.9756e+001 -1.6410e+002 -1.0936e+001 66066 69579,69683,69657
 3.4000e+000 69781  4.1160e+001 -1.3220e+002 -3.0433e+001 66066 69579,69709,69683
 3.4000e+000 69758 -4.7243e+000 -9.0669e+001 -2.0054e+001 66066 69579,69657,69631
 3.4000e+000 69735 -1.7232e+001 -1.1821e+002 -2.4035e+001 66066 69579,69631,69605
 3.4000e+000 70257 -3.8445e+001 -1.1311e+002  7.9647e+000 65776 69960,70090,69986
 3.4000e+000 70234 -4.7888e+001 -1.2570e+002  4.8253e-001 65776 69934,70090,69960
 3.4000e+000 70211 -4.6532e+001 -1.3256e+002 -7.3371e+000 65776 69934,70116,70090
 3.4000e+000 70188 -4.1717e+001 -1.3721e+002  0.0000e+000 65776 70038,70090,70064
 3.4000e+000 70165 -4.3509e+001 -1.4277e+002  5.5132e+000 65776 69986,70090,70038
 3.4000e+000 70142 -3.3878e+001 -1.4848e+002  5.7812e+000 65776 69986,70038,70012
 3.4000e+000 70456 -3.7739e+001 -9.6545e+001 -1.4082e+001 65372 70479,70306,70280
 3.4000e+000 70433 -3.5722e+001 -1.2280e+002 -2.1449e+001 65372 70479,70280,70384
 3.4000e+000 70410 -3.3122e+001 -1.0699e+002  6.7813e+000 65372 70551,70332,70306
 3.4000e+000 70505 -3.5100e+001 -9.1606e+001 -5.4463e+000 65372 70551,70306,70479
 3.4000e+000 70528 -8.2134e+000 -1.1112e+002 -1.7535e+001 65372 70358,70479,70384
 3.4000e+000 70577 -3.0718e+001 -1.2907e+002  4.5364e+000 65372 70358,70332,70551
 3.4000e+000 70600 -3.9066e+001 -1.2068e+002 -6.2962e+000 65372 70358,70551,70479
 3.4000e+000 70821 -2.1311e+001 -1.8505e+002 -3.4411e+000 65174 70645,70723,70671
 3.4000e+000 70798 -3.9541e+001 -1.8962e+002  3.3514e+000 65174 70645,70749,70723
 3.4000e+000 70775 -1.4862e+001 -1.7532e+002 -6.5208e+000 65174 70671,70723,70697
 3.4000e+000 71071 -2.9600e+001 -9.4842e+001 -2.4252e+000 64770 71094,70898,70872
 3.4000e+000 71048 -1.8619e+001 -9.1855e+001  1.9127e+000 64770 71166,71094,70872
 3.4000e+000 71025 -1.8668e+001 -1.0453e+002 -7.3019e+000 64770 71166,70872,70846
 3.4000e+000 71002 -2.2010e+001 -6.1226e+001  1.9085e+001 64770 70898,70950,70924
 3.4000e+000 71120 -2.4870e+001 -8.5839e+001 -6.7968e-001 64770 70950,70898,71094
 3.4000e+000 71143 -9.4506e+000 -9.6883e+001  8.3177e+000 64770 70950,71094,70976
 3.4000e+000 71192 -2.4138e+001 -1.1715e+002  1.1240e+000 64770 70976,71094,71166
 3.4000e+000 71215 -1.8380e+001 -1.2124e+002 -8.4409e+000 64770 70976,71166,70846
 3.4000e+000 71514 -2.8322e+001 -1.6088e+002  3.5635e+000 64572 71681,71537,71318
 3.4000e+000 71491 -4.5016e+001 -1.5841e+002 -3.5764e-001 64572 71537,71266,71240
 3.4000e+000 71468 -5.1856e+001 -1.3512e+002 -1.3489e+001 64572 71609,71396,71370
 3.4000e+000 71445 -3.4019e+001 -1.5729e+002  2.1981e+000 64572 71681,71318,71292
 3.4000e+000 71422 -5.4326e+001 -2.0773e+002 -6.6460e+000 64572 71753,71344,71318
 3.4000e+000 71563 -3.5277e+001 -1.7921e+002  4.8319e+000 64572 71753,71318,71537
 3.4000e+000 71586 -4.3157e+001 -1.5150e+002  4.9051e+000 64572 71609,71370,71537
 3.4000e+000 71635 -2.5141e+001 -7.9095e+001 -2.6174e+001 64572 71240,71396,71609
 3.4000e+000 71658 -3.4146e+001 -1.1817e+002 -4.2717e+000 64572 71240,71609,71537
 3.4000e+000 71707 -4.0519e+001 -1.5720e+002 -1.4140e+000 64572 71266,71537,71681
 3.4000e+000 71730 -5.6697e+001 -1.6091e+002 -2.3097e+000 64572 71266,71681,71292
 3.4000e+000 71779 -6.6465e+001 -1.6630e+002 -5.2815e+000 64572 71370,71344,71753
 3.4000e+000 71802 -6.0990e+001 -1.6541e+002 -3.0032e+000 64572 71370,71753,71537
 3.4000e+000 72052 -3.9210e+001 -1.4725e+002  1.5336e+001 64374 72075,71879,71827
 3.4000e+000 72029 -6.2241e+000 -1.2806e+002  4.5260e+000 64374 72147,72075,71827
 3.4000e+000 72006  1.6293e+001 -1.3994e+002 -1.2578e+001 64374 72147,71827,71957
 3.4000e+000 71983 -1.3235e+001 -1.2485e+002  1.7531e+000 64374 71827,71879,71853
 3.4000e+000 72101 -3.4259e+001 -1.7886e+002  3.9910e+001 64374 71905,71879,72075
 3.4000e+000 72124  1.8068e+001 -1.5138e+002  2.9887e+001 64374 71905,72075,71931
 3.4000e+000 72173 -2.6860e+001 -1.6067e+002  1.3431e+001 64374 71931,72075,72147
 3.4000e+000 72196 -1.0671e+001 -1.7599e+002 -6.9566e-001 64374 71931,72147,71957
 3.4000e+000 72649 -3.1280e+001 -1.0937e+002 -1.9355e+000 63948 72352,72508,72482
 3.4000e+000 72626 -2.5017e+001 -8.9165e+001  2.0382e+001 63948 72326,72508,72352
 3.4000e+000 72603 -4.7610e+001 -1.5084e+002 -1.0132e+001 63948 72672,72430,72378
 3.4000e+000 72580 -4.1749e+001 -1.7265e+002 -4.2030e+000 63948 72672,72378,72352
 3.4000e+000 72557 -4.1180e+001 -1.5125e+002 -7.6194e+000 63948 72744,72456,72430
 3.4000e+000 72534 -4.9660e+001 -1.9195e+002 -4.1362e+001 63948 72378,72430,72404
 3.4000e+000 72698 -4.2699e+001 -1.5073e+002 -7.1753e+000 63948 72744,72430,72672
 3.4000e+000 72721 -2.8749e+001 -1.4456e+002  3.3455e+000 63948 72482,72672,72352
 3.4000e+000 72770 -4.0269e+001 -1.5067e+002 -7.9392e+000 63948 72482,72456,72744
 3.4000e+000 72793 -4.1349e+001 -1.4938e+002 -7.7873e+000 63948 72482,72744,72672
 3.4000e+000 72894 -4.7202e+001 -1.9400e+002 -1.4424e+001 63494 72816,72868,72842
 3.4000e+000 73093 -5.0140e+001 -6.3871e+001  4.1603e+000 63132 72943,72995,72969
 3.4000e+000 73070 -3.0586e+001 -5.3440e+001  6.7830e+000 63132 72943,73021,72995
 3.4000e+000 73047 -2.2508e+001 -4.2154e+001  1.0827e+001 63132 72917,73021,72943
 3.4000e+000 73294 -1.5646e+001 -5.9432e+001 -3.9429e+001 62792 73317,73144,73118
 3.4000e+000 73271 -2.4589e+001 -6.8659e+001 -2.1048e+001 62792 73317,73118,73222
 3.4000e+000 73248 -1.8140e+001 -5.0253e+001 -2.7531e+001 62792 73144,73196,73170
 3.4000e+000 73343 -3.8544e+001 -5.3555e+001 -2.6817e+001 62792 73196,73144,73317
 3.4000e+000 73366 -4.9596e+001 -6.9697e+001 -7.0221e+000 62792 73196,73317,73222
 3.4000e+000 73616 -7.2433e+001 -1.5002e+002  2.4028e+001 62388 73639,73417,73391
 3.4000e+000 73593 -6.1968e+001 -1.2751e+002  1.5881e+001 62388 73711,73639,73391
 3.4000e+000 73570 -4.0643e+001 -9.2739e+001  6.2215e+000 62388 73711,73391,73521
 3.4000e+000 73547 -2.6709e+001 -1.1606e+002  1.2110e+001 62388 73469,73521,73495
 3.4000e+000 73665 -5.9162e+001 -1.4657e+002  1.0893e+001 62388 73443,73417,73639
 3.4000e+000 73688 -5.3602e+001 -1.5405e+002  1.3938e+001 62388 73443,73639,73469
 3.4000e+000 73737 -3.5938e+001 -1.4917e+002  1.3608e+001 62388 73469,73639,73711
 3.4000e+000 73760 -3.6856e+001 -1.4005e+002  1.3572e+001 62388 73469,73711,73521
 3.4000e+000 74010 -1.8008e+001 -6.1599e+001 -2.1188e+001 61848 74033,73837,73811
 3.4000e+000 73987 -4.8316e+001 -6.1209e+001 -3.9482e+001 61848 74033,73811,73785
 3.4000e+000 73964 -3.1440e+000 -5.5901e+001 -2.3631e+001 61848 73837,73915,73889
 3.4000e+000 73941 -8.0857e-002 -4.0832e+001 -2.2844e+001 61848 73837,73889,73863
 3.4000e+000 74059 -1.4515e+001 -7.4462e+001 -2.8801e+001 61848 73915,73837,74033
 3.4000e+000 74082 -1.7312e+001 -8.4666e+001 -3.4893e+001 61848 73915,74033,73785
 3.4000e+000 74283 -2.1096e+000 -5.1354e+001  5.0697e+000 61444 74306,74133,74107
 3.4000e+000 74260 -3.2041e+000 -3.6134e+001  2.6438e+001 61444 74306,74107,74211
 3.4000e+000 74237 -2.8813e+001 -6.0507e+000  7.8681e-001 61444 74378,74185,74159
 3.4000e+000 74332 -1.5526e+001 -5.7500e+001 -3.1686e+000 61444 74159,74133,74306
 3.4000e+000 74355 -4.6058e+000 -3.6604e+001  1.1774e+001 61444 74378,74159,74306
 3.4000e+000 74404 -3.2068e+001 -3.8333e+001  2.0285e+001 61444 74211,74185,74378
 3.4000e+000 74427 -2.4505e+001 -5.0893e+001  1.9081e+001 61444 74211,74378,74306
 3.4000e+000 74628 -9.0048e+000 -4.5485e+001 -2.4237e+001 60990 74478,74530,74504
 3.4000e+000 74605 -2.8251e+000 -5.3890e+001 -3.3052e+001 60990 74452,74530,74478
 3.4000e+000 74582 -1.9086e+001 -5.2564e+001 -3.4335e+001 60990 74452,74556,74530
 3.4000e+000 75089 -6.5039e-001 -3.5052e+001 -9.7976e+000 60486 75112,74945,74919
 3.4000e+000 75066 -7.2385e+000 -2.9122e+000  7.8731e+000 60486 75112,74919,74867
 3.4000e+000 75043 -6.0293e+000 -6.2540e+001  1.4648e+001 60486 74841,74971,74867
 3.4000e+000 75020 -1.9285e+000  3.3039e+000  1.8174e+000 60486 74867,74919,74893
 3.4000e+000 74997 -5.8605e+000 -5.8760e+001  1.8687e+001 60486 74815,74971,74841
 3.4000e+000 75138 -1.6222e+001 -4.7674e+001 -2.3779e+001 60486 74971,74945,75112
 3.4000e+000 75161 -2.2389e+001 -2.6015e+001 -4.5938e+000 60486 74971,75112,74867
 3.4000e+000 75409 -2.4806e+001 -1.1578e+001 -1.1780e+001 59932 75576,75432,75288
 3.4000e+000 75386 -3.0011e+001 -1.7613e+001 -1.1444e+001 59932 75504,75314,75288
 3.4000e+000 75363 -1.9805e+001 -5.1668e+000  2.8036e-001 59932 75432,75236,75210
 3.4000e+000 75340 -6.5275e+000 -1.3026e+001 -1.9902e+001 59932 75576,75288,75262
 3.4000e+000 75458 -3.1933e+001 -1.4256e+001 -1.2449e+001 59932 75504,75288,75432
 3.4000e+000 75481 -3.6799e+001 -1.6720e+001 -6.7262e+000 59932 75184,75432,75210
 3.4000e+000 75530 -3.2663e+001 -4.0550e+001 -1.4386e+001 59932 75184,75314,75504
 3.4000e+000 75553 -3.4533e+001 -1.7717e+001 -1.3683e+001 59932 75184,75504,75432
 3.4000e+000 75602 -3.6400e+001 -2.3371e+001 -7.0749e+000 59932 75236,75432,75576
 3.4000e+000 75625 -2.7801e+001 -2.9535e+001 -1.2153e+001 59932 75236,75576,75262
 3.4000e+000 75873 -3.2616e+001 -1.3318e+002  5.1352e+000 59478 75674,75752,75700
 3.4000e+000 75850 -5.9883e+001 -1.4372e+002  3.0060e+001 59478 75648,75752,75674
 3.4000e+000 75827 -2.9294e+001 -1.2214e+002  1.0595e+001 59478 75700,75752,75726
 3.4000e+000 75804 -5.5083e+001 -1.6340e+002  3.4291e+001 59478 75648,75778,75752
 3.4000e+000 76206 -2.9581e+001 -1.3389e+002  1.4423e+001 59024 75981,76059,76007
 3.4000e+000 76183 -3.2134e+001 -1.3834e+002  1.5976e+001 59024 75981,76111,76059
 3.4000e+000 76160 -3.0050e+001 -1.0405e+002 -6.8706e+000 59024 76007,76059,76033
 3.4000e+000 76137 -1.7368e+001 -1.4781e+002  5.2293e+001 59024 76059,76111,76085
 3.4000e+000 76761 -4.0714e+001 -4.8922e+001 -8.0908e+000 58562 76389,76441,76415
 3.4000e+000 76738 -3.9062e+001 -4.6921e+001  1.5022e+001 58562 76856,76784,76389
 3.4000e+000 76715 -3.1029e+001 -2.5165e+001 -2.2283e+001 58562 76784,76571,76467
 3.4000e+000 76692 -1.9246e+001 -5.3321e+001  1.6824e+001 58562 76856,76389,76597
 3.4000e+000 76669 -3.0312e+001 -1.3224e+002  1.1549e+001 58562 76467,76545,76493
 3.4000e+000 76646 -1.9191e+001 -9.7202e+001 -4.6383e+001 58562 76467,76571,76545
 3.4000e+000 76623 -1.7331e+001 -1.0977e+002  2.3293e+001 58562 76493,76545,76519
 3.4000e+000 76810 -2.5874e+001 -5.1910e+001  2.8503e+000 58562 76441,76389,76784
 3.4000e+000 76833 -8.2381e+001 -1.1899e+002 -5.2531e+001 58562 76441,76784,76467
 3.4000e+000 76882 -1.7627e+001 -3.7173e+001  2.4380e+001 58562 76571,76784,76856
 3.4000e+000 76905 -5.1572e+000 -4.8548e+001  2.6379e+001 58562 76571,76856,76597
 3.4000e+000 77055 -8.5807e+000 -9.3104e+001 -9.9483e+000 57844 76928,76980,76954
 3.4000e+000 77032 -3.3692e+001 -4.9486e+001 -9.6783e+000 57844 76928,77006,76980
 3.4000e+000 77533 -3.6964e+001 -1.3680e+002 -1.4962e+001 57226 77628,77556,77291
 3.4000e+000 77510 -2.8747e+001 -1.5846e+001  2.7202e+000 57226 77556,77187,77343
 3.4000e+000 77487  4.9841e+000 -9.3688e+001 -3.2320e+001 57226 77628,77291,77265
 3.4000e+000 77464 -4.4321e+000 -1.6180e+002  1.3159e+001 57226 77700,77213,77187
 3.4000e+000 77441 -2.0689e+001 -3.5411e+001 -3.0761e+001 57226 77161,77343,77187
 3.4000e+000 77418 -1.8836e+001 -3.7039e+001 -3.0325e+001 57226 77161,77369,77343
 3.4000e+000 77395 -6.5106e+000 -1.0544e+000 -1.8366e+001 57226 77213,77265,77239
 3.4000e+000 77582 -4.2543e+001 -1.2270e+002  1.9170e+001 57226 77317,77291,77556
 3.4000e+000 77605 -3.4660e+001 -7.3697e+001  7.9223e-001 57226 77317,77556,77343
 3.4000e+000 77654  2.5672e+001 -7.3181e+001  1.7170e+001 57226 77187,77556,77628
 3.4000e+000 77677  8.2621e-001 -1.4869e+002  1.3389e+001 57226 77700,77187,77628
 3.4000e+000 77726 -2.1331e+001 -1.7484e+002 -4.0243e+001 57226 77265,77213,77700
 3.4000e+000 77749 -7.4550e-001 -1.2706e+002 -3.7487e+001 57226 77265,77700,77628
 3.4000e+000 78046 -1.4829e+001 -1.1536e+002  3.1111e+001 56936 77798,77850,77824
 3.4000e+000 78023 -2.6685e+001 -1.2563e+002  3.5820e+001 56936 78069,77798,77902
 3.4000e+000 78000 -3.6704e+001 -1.2598e+002  3.3573e+001 56936 78069,77902,77876
 3.4000e+000 77977  1.6725e+001 -1.1574e+002 -1.0300e+001 56936 77798,77928,77902
 3.4000e+000 77954 -1.9438e+001 -3.4703e+001  5.2751e+000 56936 77772,77928,77798
 3.4000e+000 78095 -2.3247e+001 -1.2547e+002  3.6223e+001 56936 77850,77798,78069
 3.4000e+000 78118 -2.7963e+001 -1.2261e+002  3.3663e+001 56936 77850,78069,77876
 3.4000e+000 78754 -9.4841e-002 -9.0309e+001 -1.5831e+001 56475 78777,78486,78408
 3.4000e+000 78731 -4.3893e+000 -9.7416e+001 -1.2112e+001 56475 78777,78408,78382
 3.4000e+000 78708 -8.3788e+000 -1.0591e+002 -2.4573e+001 56475 78849,78512,78486
 3.4000e+000 78685 -3.1770e+001 -7.6714e+001  2.1829e-001 56475 78382,78590,78564
 3.4000e+000 78662 -1.7972e+001 -1.0856e+002 -2.3985e+001 56475 78512,78564,78538
 3.4000e+000 78639 -3.9507e-002 -2.1166e+002  2.1375e+001 56475 78434,78486,78460
 3.4000e+000 78616 -5.2899e+001 -1.9585e+002  1.1132e+001 56475 78408,78486,78434
 3.4000e+000 78803 -4.9716e+000 -9.8280e+001 -1.8070e+001 56475 78849,78486,78777
 3.4000e+000 78826  2.0684e+000 -8.3923e+001 -7.1057e+000 56475 78564,78777,78382
 3.4000e+000 78875 -5.6111e+000 -9.2628e+001 -1.8668e+001 56475 78564,78512,78849
 3.4000e+000 78898 -5.8665e+000 -8.5381e+001 -1.3828e+001 56475 78564,78849,78777
 3.4000e+000 79276 -4.7106e+001 -8.7278e+001 -6.7425e-001 55964 79299,79080,79028
 3.4000e+000 79253 -3.8118e+001 -8.8527e+001  3.6194e+000 55964 79299,79028,79132
 3.4000e+000 79230 -5.3509e+001 -1.2014e+002 -5.3881e-001 55964 79028,79080,79054
 3.4000e+000 79207 -2.3411e+001 -8.0642e+001  6.9790e+000 55964 79002,79132,79028
 3.4000e+000 79184 -5.7079e-002 -6.9609e+001 -3.6128e+000 55964 79002,79158,79132
 3.4000e+000 79325 -4.2145e+001 -8.4022e+001  4.6266e+000 55964 79106,79080,79299
 3.4000e+000 79348 -3.3134e+001 -8.6347e+001  8.5011e+000 55964 79106,79299,79132
 3.4000e+000 79498 -3.1554e+001 -1.1634e+002  1.2946e+001 55452 79397,79449,79423
 3.4000e+000 79475 -5.8163e+001 -1.0635e+002  1.3770e+000 55452 79371,79449,79397
 3.4000e+000 79795 -4.6503e+001 -1.1062e+002  3.3089e+000 55048 79962,79818,79573
 3.4000e+000 79772 -3.6842e+001 -9.7603e+001 -4.4431e+000 55048 79818,79521,79677
 3.4000e+000 79749 -3.4534e+001 -1.5607e+002  2.8567e+001 55048 79599,79651,79625
 3.4000e+000 79726 -5.0811e+001 -1.3626e+002  2.5637e+001 55048 79890,79651,79599
 3.4000e+000 79703 -3.8270e+001 -1.1077e+002  1.4471e+001 55048 79962,79573,79547
 3.4000e+000 79844 -4.0535e+001 -9.8067e+001  6.6492e+000 55048 79599,79573,79818
 3.4000e+000 79867 -4.8420e+001 -1.2112e+002  1.0494e+001 55048 79890,79599,79818
 3.4000e+000 79916 -2.6332e+001 -1.2324e+002  1.1898e+001 55048 79677,79651,79890
 3.4000e+000 79939 -2.8581e+001 -1.1679e+002 -2.2407e+000 55048 79677,79890,79818
 3.4000e+000 79988 -6.1032e+001 -1.1542e+002  4.8302e+000 55048 79521,79818,79962
 3.4000e+000 80011 -6.0627e+001 -1.1720e+002  1.4412e+001 55048 79521,79962,79547
 3.4000e+000 80212 -4.0461e+001 -8.6720e+001  1.7156e+001 54436 80235,80088,80036
 3.4000e+000 80189 -2.0273e+001 -6.7483e+001  9.0137e+000 54436 80235,80036,80140
 3.4000e+000 80166 -4.0102e+001 -1.2604e+002 -5.8115e+000 54436 80036,80088,80062
 3.4000e+000 80261 -2.1290e+001 -1.1644e+002  3.3213e+001 54436 80114,80088,80235
 3.4000e+000 80284  5.0269e+000 -9.5206e+001  2.3514e+001 54436 80114,80235,80140
 3.4000e+000 80534 -7.4595e+000 -6.1559e+001  1.2875e+001 54032 80557,80361,80335
 3.4000e+000 80511 -8.9435e+000 -7.5221e+001  2.1903e+001 54032 80557,80335,80309
 3.4000e+000 80488 -1.2384e+001 -7.0763e+001  1.0414e+001 54032 80629,80413,80387
 3.4000e+000 80465 -2.6232e+001 -1.0858e+002  1.3242e+001 54032 80309,80439,80413
 3.4000e+000 80583 -2.3076e+000 -1.9257e+001  8.2855e+000 54032 80387,80361,80557
 3.4000e+000 80606 -8.5064e+000 -6.0191e+001  1.5184e+001 54032 80629,80387,80557
 3.4000e+000 80655 -1.6049e+001 -7.0819e+001  3.9709e+000 54032 80309,80413,80629
 3.4000e+000 80678 -1.8077e+001 -6.8208e+001  8.0418e+000 54032 80309,80629,80557
 3.4000e+000 81139 -8.2533e+000 -1.8783e+001  2.4043e+001 53784 80865,80995,80917
 3.4000e+000 81116  2.1783e+000 -3.1206e+000 -4.0493e+000 53784 80865,81021,80995
 3.4000e+000 81093 -1.4031e+001 -7.8423e+001  4.4490e+001 53784 80943,80995,80969
 3.4000e+000 81070 -2.3613e+001 -3.4062e+001  1.7721e+001 53784 80917,80995,80943
 3.4000e+000 81047  6.0640e+000 -1.6858e+002  4.5955e+000 53784 80865,80917,80891
 3.4000e+000 81468 -1.1608e+001 -5.8174e+001  1.7892e+001 53230 81295,81373,81347
 3.4000e+000 81445 -4.9464e+000 -7.2716e+001  2.3668e+001 53230 81243,81373,81295
 3.4000e+000 81422 -4.0330e+001 -8.7512e+001 -1.0437e+000 53230 81243,81295,81269
 3.4000e+000 81399  3.3781e+000 -3.9976e+001 -1.3268e+001 53230 81295,81347,81321
 3.4000e+000 81618  5.2070e-001  2.7694e+000 -6.6427e-001 52790 81491,81543,81517
 3.4000e+000 81595 -2.1165e+000 -6.5822e+001  9.3077e+000 52790 81491,81569,81543
 3.4000e+000 82126  2.9543e+001 -1.2791e+001 -3.1250e+001 52386 82149,81907,81881
 3.4000e+000 82103  6.9425e+000 -5.5001e+001 -1.6039e+001 52386 82149,81881,81855
 3.4000e+000 82080 -2.2627e+000 -4.6236e+001  1.0473e+000 52386 82221,81803,81985
 3.4000e+000 82057 -4.5970e+001 -7.4131e+001 -4.3346e+000 52386 81803,81855,81829
 3.4000e+000 82034  1.5921e+000 -7.5511e+001 -1.7931e+001 52386 81907,81985,81933
 3.4000e+000 82011 -1.5114e+001 -5.4122e+001 -2.8064e+001 52386 81933,81985,81959
 3.4000e+000 82175  7.4161e+000 -5.0922e+001 -1.1074e+001 52386 81985,81907,82149
 3.4000e+000 82198  1.6474e+001 -4.8882e+001 -7.0428e+000 52386 82221,81985,82149
 3.4000e+000 82247 -1.0882e+001 -5.4828e+001  1.0258e+001 52386 81855,81803,82221
 3.4000e+000 82270 -1.5379e+000 -6.3827e+001  2.7307e+000 52386 81855,82221,82149
 3.4000e+000 82825 -3.3566e+001 -7.0708e+001  2.5287e+000 51782 82505,82661,82635
 3.4000e+000 82802 -7.1921e+001 -1.0971e+002 -1.8890e+001 51782 82479,82661,82505
 3.4000e+000 82779 -3.2185e+001 -1.2988e+002 -4.6220e+001 51782 82557,82635,82609
 3.4000e+000 82756 -2.6142e+001 -1.1443e+002 -7.3415e+000 51782 82531,82635,82557
 3.4000e+000 82733 -4.9285e+001 -8.7268e+001 -1.4559e+001 51782 82505,82635,82531
 3.4000e+000 82710 -9.6078e+000 -5.2098e+001  1.6230e+001 51782 82453,82661,82479
 3.4000e+000 82687  2.4195e+000 -7.3242e+001 -2.5581e+001 51782 82557,82609,82583
 3.4000e+000 83171 -4.6551e+001 -1.2347e+002  1.7877e+001 51442 83194,82978,82900
 3.4000e+000 83148 -6.9507e+001 -1.0666e+002  1.3721e+001 51442 83194,82900,82874
 3.4000e+000 83125 -5.1167e+001 -1.2550e+002  1.7435e+001 51442 82900,82978,82926
 3.4000e+000 83102 -4.7128e+001 -9.5904e+001  7.9619e+000 51442 82874,83030,83004
 3.4000e+000 83079 -1.5871e+001 -1.1682e+002  1.3034e+001 51442 82926,82978,82952
 3.4000e+000 83056 -1.9863e+001 -9.6674e+001  8.6069e+000 51442 82848,83030,82874
 3.4000e+000 83220 -3.0594e+001 -1.1598e+002  1.4514e+001 51442 83004,82978,83194
 3.4000e+000 83243 -5.5898e+001 -1.0041e+002  1.0154e+001 51442 83004,83194,82874
 3.4000e+000 83751 -4.8741e+001 -5.1017e+001  1.1425e+000 50938 83428,83584,83454
 3.4000e+000 83728 -3.8712e+001 -4.7931e+001  8.7810e+000 50938 83428,83610,83584
 3.4000e+000 83705 -4.3086e+001 -6.7403e+001 -2.0581e-001 50938 83454,83584,83558
 3.4000e+000 83682 -2.3627e+001 -6.4596e+001  1.1124e+001 50938 83454,83532,83480
 3.4000e+000 83659 -3.0459e+001 -5.8972e+001  1.1888e+001 50938 83454,83558,83532
 3.4000e+000 83636 -4.7878e+001 -9.2918e+001 -8.1326e-001 50938 83480,83532,83506
 3.4000e+000 84355 -1.2777e+000 -8.9831e+001  2.7673e+000 50377 84378,83960,83934
 3.4000e+000 84332  1.0653e+001 -5.7653e+001  8.3216e+000 50377 84522,84378,83934
 3.4000e+000 84309 -2.7933e+000 -6.8156e+001 -8.5880e+000 50377 84450,84038,84012
 3.4000e+000 84286  4.6306e+000 -4.1879e+001  6.3882e+000 50377 84522,83934,84142
 3.4000e+000 84263  3.8847e+000 -4.0764e+001 -8.3393e+000 50377 84594,84090,84038
 3.4000e+000 84240 -3.8458e+001 -7.3083e+001 -6.0836e+000 50377 83960,84012,83986
 3.4000e+000 84217  8.1642e+000 -2.8061e+001 -1.4138e+001 50377 83934,84168,84142
 3.4000e+000 84194 -7.6548e-001 -1.2427e+001  1.2717e+001 50377 84038,84090,84064
 3.4000e+000 84404 -2.6244e+001 -8.1737e+001 -1.5938e+001 50377 84012,83960,84378
 3.4000e+000 84427  6.0639e+000 -6.2580e+001 -3.1385e+000 50377 84450,84012,84378
 3.4000e+000 84476  3.7547e+000 -5.2188e+001 -8.9254e+000 50377 84594,84038,84450
 3.4000e+000 84499  2.3357e+000 -8.1079e+001 -5.2866e+000 50377 84116,84450,84378
 3.4000e+000 84548  1.2450e+001 -8.0415e+001  3.2704e-001 50377 84116,84378,84522
 3.4000e+000 84571  9.6112e+000 -6.0422e+001 -2.1761e+000 50377 84116,84522,84142
 3.4000e+000 84620  9.4302e+000 -5.8629e+001  8.5557e-002 50377 84116,84090,84594
 3.4000e+000 84643  9.5013e+000 -6.9225e+001  3.1833e-001 50377 84116,84594,84450
 3.4000e+000 84842 -2.4146e+001 -1.2975e+002  1.2837e+001 49923 84865,84692,84666
 3.4000e+000 84819 -5.1583e+001 -1.2818e+002 -3.0008e-001 49923 84865,84666,84770
 3.4000e+000 84796 -9.9473e+000 -1.6513e+002 -1.3394e+001 49923 84692,84744,84718
 3.4000e+000 84891 -4.1387e+001 -1.3289e+002 -2.6439e+000 49923 84744,84692,84865
 3.4000e+000 84914 -7.2153e+001 -1.3904e+002 -1.7963e+001 49923 84744,84865,84770
 3.4000e+000 85501 -7.6694e+000 -7.9513e+001  1.0664e+001 49618 85524,85282,85204
 3.4000e+000 85478 -5.4851e+000 -8.0644e+001  8.3187e+000 49618 85596,85524,85204
 3.4000e+000 85455 -6.2108e-001 -8.9375e+001  8.0025e+000 49618 85596,85204,85178
 3.4000e+000 85432 -2.2110e+001 -8.9619e+001  1.5092e+001 49618 85204,85282,85256
 3.4000e+000 85409 -3.0627e+001 -1.3003e+002 -4.4072e+000 49618 85282,85334,85308
 3.4000e+000 85386 -1.9921e+001 -9.2930e+001 -1.3147e+000 49618 85204,85256,85230
 3.4000e+000 85550 -5.6032e+000 -8.0441e+001  5.5120e+000 49618 85334,85282,85524
 3.4000e+000 85573 -1.9045e+001 -8.5935e+001  6.2916e+000 49618 85334,85524,85360
 3.4000e+000 85622 -1.3231e+001 -9.1190e+001  1.2083e+001 49618 85360,85524,85596
 3.4000e+000 85645 -5.2509e+000 -9.6275e+001  1.0677e+001 49618 85360,85596,85178
 3.4000e+000 85795 -7.1684e+001 -2.0308e+002 -1.7807e+001 49278 85694,85746,85720
 3.4000e+000 85772 -8.9264e+001 -3.6308e+002 -1.6352e+001 49278 85668,85746,85694
 3.4000e+000 86197 -4.3812e+001 -1.4504e+002 -2.2877e+000 48916 86001,86079,86027
 3.4000e+000 86174 -1.2126e+001 -7.5446e+001 -8.9212e+000 48916 85949,86079,86001
 3.4000e+000 86151 -4.9239e+000 -1.5180e+002 -2.9021e+000 48916 85949,86001,85975
 3.4000e+000 86128 -4.7645e+001 -1.6960e+002 -7.7016e+000 48916 86027,86079,86053
 3.4000e+000 86105 -6.1506e+000 -4.8532e+001  1.3282e+001 48916 85923,86079,85949
 3.4000e+000 86477 -2.8446e+001 -6.4505e+001  3.9621e+000 48398 86327,86379,86353
 3.4000e+000 86454 -1.1984e+001 -6.6193e+001  1.5343e+001 48398 86500,86379,86327
 3.4000e+000 86431 -1.5489e+001 -4.5476e+001  1.6158e+001 48398 86301,86405,86379
 3.4000e+000 86526 -1.7388e+001 -5.5761e+001  2.3852e+001 48398 86301,86379,86500
 3.4000e+000 87032 -1.8977e+001 -9.0645e+001 -1.8384e+001 48008 87127,87055,86787
 3.4000e+000 87009 -2.9212e+001 -1.4173e+002  6.2860e+000 48008 87055,86735,86709
 3.4000e+000 86986 -4.1198e+001 -7.7554e+001 -1.4521e+001 48008 87127,86787,86761
 3.4000e+000 86963 -2.7770e+001 -6.5676e+001 -1.0077e+001 48008 86787,86865,86839
 3.4000e+000 86940 -9.6847e+000 -6.4584e+001  1.4122e+001 48008 86709,86891,86865
 3.4000e+000 86917 -4.5751e+001 -6.7406e+001 -8.0508e+000 48008 86787,86839,86813
 3.4000e+000 87081 -3.0341e+001 -9.5530e+001 -8.2792e+000 48008 86865,86787,87055
 3.4000e+000 87104 -1.1319e+001 -6.8841e+001  1.6739e+001 48008 86865,87055,86709
 3.4000e+000 87153 -4.5075e+001 -1.2067e+002 -3.0153e+001 48008 86735,87055,87127
 3.4000e+000 87176 -6.9731e+001 -9.0482e+001 -2.8274e+001 48008 86735,87127,86761
 3.4000e+000 87456 -2.7979e+001 -9.8366e+001  1.9740e+001 47604 87306,87358,87332
 3.4000e+000 87433  1.8953e+001 -6.4409e+001  1.9646e+000 47604 87306,87384,87358
 3.4000e+000 87410 -1.5445e+001 -7.9026e+001  3.7991e+000 47604 87280,87384,87306
 3.4000e+000 87785  2.3897e+000 -8.8958e+001  1.9048e+001 47264 87638,87690,87664
 3.4000e+000 87762 -2.7602e+001 -1.3722e+002  3.4083e+001 47264 87612,87690,87638
 3.4000e+000 87739 -3.4368e+001 -1.6335e+002  3.6491e+001 47264 87560,87690,87612
 3.4000e+000 87716 -2.0409e+001 -1.8207e+002  1.7268e+001 47264 87560,87612,87586
 3.4000e+000 87935  2.0324e+000  2.2137e-001  2.9237e+000 46952 87808,87860,87834
 3.4000e+000 87912 -5.6606e+000 -2.1740e+001  1.4378e+000 46952 87808,87886,87860
 3.4000e+000 88281 -2.4762e+001 -1.0604e+002  8.0886e+000 46526 88304,88114,88036
 3.4000e+000 88258 -2.4179e+001 -1.0357e+002  9.0914e+000 46526 88304,88036,87984
 3.4000e+000 88235 -2.4132e+001 -1.0449e+002  4.3570e+000 46526 88036,88114,88062
 3.4000e+000 88212 -1.5984e+001 -9.5273e+001  1.7304e+001 46526 87958,88140,87984
 3.4000e+000 88189 -2.0568e+001 -9.6219e+001  2.0166e+001 46526 87984,88036,88010
 3.4000e+000 88166 -1.7234e+001 -7.7265e+001  1.9558e+001 46526 88062,88114,88088
 3.4000e+000 88330 -2.6265e+001 -1.0338e+002  7.7409e+000 46526 88140,88114,88304
 3.4000e+000 88353 -2.5982e+001 -1.0108e+002  8.3883e+000 46526 88140,88304,87984
 3.4000e+000 88701  2.2120e+001 -6.9523e+001  2.8110e+001 45822 88724,88378,88534
 3.4000e+000 88678  2.2806e+001 -4.3557e+001  3.1937e+001 45822 88378,88560,88534
 3.4000e+000 88655 -1.0952e+001 -8.1536e+001  2.6805e+001 45822 88724,88534,88508
 3.4000e+000 88632 -4.0706e+001 -1.0022e+002  1.0031e+001 45822 88404,88508,88456
 3.4000e+000 88609 -3.8838e+001 -9.9057e+001  5.2677e+000 45822 88404,88456,88430
 3.4000e+000 88586 -1.2465e+001 -4.2018e+001 -2.1250e+001 45822 88456,88508,88482
 3.4000e+000 88750 -4.3881e+000 -6.2668e+001  9.0751e+000 45822 88404,88378,88724
 3.4000e+000 88773 -3.0041e+001 -7.0513e+001  7.3784e+000 45822 88404,88724,88508
 3.4000e+000 89106 -3.1374e+001 -2.5698e+001  2.2035e+001 45418 88881,88985,88907
 3.4000e+000 89083 -3.3662e+000 -4.2153e+001  2.1987e+001 45418 88881,89011,88985
 3.4000e+000 89060 -3.7633e+000 -3.4651e+001  1.4692e+001 45418 88907,88985,88933
 3.4000e+000 89037  1.7356e+000 -5.8809e+000  1.6596e+001 45418 88933,88985,88959
 3.4000e+000 89435 -2.7039e+001 -8.4951e+001  2.7212e+001 44914 89210,89288,89236
 3.4000e+000 89412 -5.4549e+001 -1.2406e+002  4.1580e+001 44914 89210,89314,89288
 3.4000e+000 89389 -1.0477e+001 -8.0684e+001  2.1867e+001 44914 89210,89340,89314
 3.4000e+000 89366 -3.4584e+001 -9.0549e+001  3.1599e+001 44914 89236,89288,89262
 3.4000e+000 89634 -2.2903e+001 -9.0875e+001  3.7961e+001 44538 89510,89562,89536
 3.4000e+000 89611 -3.4554e+001 -7.1942e+001  1.4312e+001 44538 89458,89562,89510
 3.4000e+000 89588 -3.1968e+001 -9.1094e+001  1.4096e+001 44538 89458,89510,89484
 3.4000e+000 90044 -2.8778e+000 -3.3458e+001  9.6054e+000 44134 89819,89923,89845
 3.4000e+000 90021 -2.7092e+001 -3.8976e+001 -2.5249e+001 44134 89819,89949,89923
 3.4000e+000 89998  5.2722e+000  1.2238e-001  7.1438e+000 44134 89845,89923,89897
 3.4000e+000 89975 -1.0301e+001 -5.2583e+001  1.4687e+001 44134 89845,89897,89871
 3.4000e+000 90520 -1.2380e+000 -5.8806e+001  1.9946e+001 43457 90543,90252,90226
 3.4000e+000 90497  6.8438e+000 -9.1311e+001 -8.7198e-001 43457 90543,90226,90330
 3.4000e+000 90474 -9.6622e+000 -8.4570e+001 -1.0965e+001 43457 90200,90330,90226
 3.4000e+000 90451 -2.2713e+001 -6.6317e+001  2.3579e+001 43457 90200,90356,90330
 3.4000e+000 90428  2.7621e-001 -7.1279e+001  1.8929e+000 43457 90252,90304,90278
 3.4000e+000 90405 -2.6954e+001 -2.6384e+001  2.3610e+001 43457 90174,90356,90200
 3.4000e+000 90382 -1.0674e+001 -2.4759e+001  2.6440e+001 43457 90148,90356,90174
 3.4000e+000 90569 -4.4117e-001 -9.2132e+001  1.0301e+001 43457 90304,90252,90543
 3.4000e+000 90592 -7.8140e+000 -1.4257e+002 -1.3055e+001 43457 90304,90543,90330
 3.4000e+000 91098 -1.5069e+001 -7.1151e+001 -5.0562e+000 42789 90801,90905,90853
 3.4000e+000 91075 -3.1531e+001 -9.3397e+001  2.1245e+000 42789 90775,90905,90801
 3.4000e+000 91052 -2.4315e+001 -9.7445e+001  1.7784e+001 42789 90775,90931,90905
 3.4000e+000 91029 -2.7009e+001 -1.1687e+002  2.8110e+000 42789 90801,90853,90827
 3.4000e+000 91006  6.7610e+000 -6.3688e+001  4.2323e+000 42789 90853,90905,90879
 3.4000e+000 90983 -2.7455e+001 -9.6725e+001  1.8756e+001 42789 90775,90957,90931
 3.4000e+000 91427 -1.3310e+001 -1.1255e+002  3.8730e+000 42227 91228,91280,91254
 3.4000e+000 91404  1.4213e+001 -9.3196e+001 -4.5613e+000 42227 91228,91306,91280
 3.4000e+000 91381 -2.3121e+001 -1.0480e+002  1.0071e+001 42227 91202,91306,91228
 3.4000e+000 91358  1.0032e+001 -6.6493e+001 -8.2936e+000 42227 91202,91332,91306
 3.4000e+000 91675 -1.6200e+001 -7.8615e+001  1.7778e+001 41773 91698,91476,91450
 3.4000e+000 91652 -7.2875e+000 -7.1904e+001  3.7084e+001 41773 91698,91450,91554
 3.4000e+000 91629 -2.9631e+001 -6.4203e+001  4.1500e+001 41773 91450,91580,91554
 3.4000e+000 91606 -1.3928e+001 -9.7019e+001  2.1173e+001 41773 91502,91554,91528
 3.4000e+000 91724 -3.2168e+001 -8.2179e+001  1.0717e+001 41773 91502,91476,91698
 3.4000e+000 91747 -2.6620e+001 -7.6658e+001  3.0199e+001 41773 91502,91698,91554
 3.4000e+000 92127 -5.6620e+001 -1.0193e+002 -8.5075e+000 41255 92150,91905,91879
 3.4000e+000 92104 -1.3776e+001 -9.2738e+001 -2.5780e+001 41255 92150,91879,91957
 3.4000e+000 92081  1.3190e+001 -1.4933e+002  2.2758e+001 41255 91853,91957,91879
 3.4000e+000 92058  1.0844e+001 -1.5409e+002  1.7586e+001 41255 91853,91983,91957
 3.4000e+000 92035 -2.8787e+000 -8.4516e+001 -5.8508e+000 41255 91853,92009,91983
 3.4000e+000 92176 -1.7170e+001 -1.1827e+002 -3.0093e+001 41255 91931,91905,92150
 3.4000e+000 92199  4.8677e+001 -7.9783e+001 -5.6039e+001 41255 91931,92150,91957
 3.4000e+000 92518 -2.8401e+001 -1.5720e+002 -1.7276e+001 41007 92244,92374,92270
 3.4000e+000 92495 -7.8504e+001 -1.6539e+002 -1.5271e+001 41007 92244,92400,92374
 3.4000e+000 92472 -1.3300e+001 -1.2965e+002 -3.2450e+000 41007 92270,92374,92348
 3.4000e+000 92449 -1.1421e+001 -3.5324e+001  1.9250e+001 41007 92296,92348,92322
 3.4000e+000 92426 -1.1286e+001 -8.0891e+001 -8.4020e+000 41007 92270,92348,92296
 3.4000e+000 92668 -2.8549e+001 -8.7869e+001 -2.0545e+001 40717 92823,92691,92567
 3.4000e+000 92645 -2.8828e+001 -8.3542e+001 -2.0091e+001 40717 92895,92823,92567
 3.4000e+000 92717 -1.1623e+001 -7.9987e+001 -1.5328e+001 40717 92593,92567,92691
 3.4000e+000 92849 -2.5917e+001 -8.5573e+001 -2.1622e+001 40717 92619,92691,92823
 3.4000e+000 92872 -3.0763e+001 -7.8957e+001 -1.2311e+001 40717 92619,92823,92541
 3.4000e+000 92921 -3.9353e+001 -9.6337e+001 -9.5288e+000 40717 92541,92823,92895
 3.4000e+000 93634 -5.8893e+001 -2.5106e+002 -5.2876e+000 40206 93366,93444,93418
 3.4000e+000 93611 -2.7159e+001 -1.0203e+002 -8.4809e+000 40206 93288,93444,93366
 3.4000e+000 93588 -8.1737e+001 -1.8484e+002  1.5104e+001 40206 93288,93366,93314
 3.4000e+000 93565 -5.1530e+001 -1.0480e+002  2.2133e+000 40206 93262,93444,93288
 3.4000e+000 93542 -1.1961e+001 -2.0830e+002  1.5144e+001 40206 93366,93418,93392
 3.4000e+000 93519 -5.2390e+001 -1.3017e+002  6.4826e+000 40206 93262,93470,93444
 3.4000e+000 93496 -4.3375e+001 -1.6916e+002  3.3472e+001 40206 93314,93366,93340
 3.4000e+000 94189 -2.3668e+001 -6.4657e+001  1.7533e+001 39802 93843,93999,93973
 3.4000e+000 94166  2.7699e+001 -3.3618e+001 -4.1978e+000 39802 93817,93999,93843
 3.4000e+000 94143 -9.8320e+000 -4.0213e+001  1.2969e-001 39802 93869,93973,93947
 3.4000e+000 94120 -5.7638e+000 -4.4413e+001  9.9686e+000 39802 93843,93973,93869
 3.4000e+000 94097 -7.7349e+000 -4.7222e+001  2.0597e+000 39802 93869,93921,93895
 3.4000e+000 94074 -4.1534e+000 -4.0088e+001 -1.5677e+000 39802 93869,93947,93921
 3.4000e+000 94051 -3.8372e+001 -5.9009e+001  2.1343e+001 39802 93817,94025,93999
 3.4000e+000 94290 -1.4352e+001 -5.8203e+001 -1.3177e+001 39398 94212,94264,94238
 3.4000e+000 94798 -1.5694e+001 -9.1329e+001 -4.1446e+000 38701 94501,94657,94631
 3.4000e+000 94775 -2.7149e+001 -7.4167e+001  7.8874e+000 38701 94475,94657,94501
 3.4000e+000 94752  1.7443e+001 -7.9692e+001 -1.3148e+001 38701 94579,94631,94605
 3.4000e+000 94729 -2.0945e+001 -1.5293e+002 -2.7538e+001 38701 94553,94631,94579
 3.4000e+000 94706 -4.4587e+001 -1.5080e+002  1.1606e+001 38701 94501,94631,94553
 3.4000e+000 94683 -2.9427e+001 -2.6637e+002  4.0131e+000 38701 94501,94553,94527
 3.4000e+000 95255 -4.7170e+001 -1.3203e+002 -5.7652e+000 38247 95278,95085,95007
 3.4000e+000 95232 -3.0805e+001 -1.2726e+002 -7.7583e+000 38247 95278,95007,95137
 3.4000e+000 95209 -1.5154e+001 -1.0566e+002 -4.1032e-001 38247 94981,95137,95007
 3.4000e+000 95186 -3.1250e+001 -8.8052e+001 -8.8075e+000 38247 95007,95059,95033
 3.4000e+000 95163 -3.3250e+001 -9.8366e+001 -2.0144e+001 38247 95007,95085,95059
 3.4000e+000 95304 -5.3341e+001 -1.3358e+002  8.2414e+000 38247 95111,95085,95278
 3.4000e+000 95327 -3.8158e+001 -1.2634e+002  4.4501e+000 38247 95111,95278,95137
 3.4000e+000 95575 -1.9325e+001 -1.7326e+001 -4.7343e+000 37564 95376,95428,95402
 3.4000e+000 95552 -1.4512e+001 -3.7646e+001 -5.5147e+000 37564 95376,95454,95428
 3.4000e+000 95529  2.6851e+000 -2.7031e+001  6.1564e-001 37564 95376,95480,95454
 3.4000e+000 95506  3.0389e+001 -5.7454e+001 -3.9719e+000 37564 95350,95480,95376
 3.4000e+000 96034 -4.4069e+001 -1.4262e+002 -2.9569e+001 37224 95786,95838,95812
 3.4000e+000 96011 -9.2603e+000 -9.0574e+001 -3.9246e+000 37224 95786,95890,95838
 3.4000e+000 95988 -3.1212e+001 -8.6256e+001  2.4889e+000 37224 95786,95916,95890
 3.4000e+000 95965  1.4606e+000 -5.6930e+001 -2.2724e+001 37224 95760,95916,95786
 3.4000e+000 95942 -1.0752e+001 -1.1174e+002 -2.7219e+001 37224 95838,95890,95864
 3.4000e+000 96363 -6.3353e+000 -1.3640e+001 -8.9441e+000 36884 96216,96268,96242
 3.4000e+000 96340  7.6536e+000 -1.7778e+001 -1.0301e+001 36884 96164,96268,96216
 3.4000e+000 96317  2.6978e+001 -1.4747e+001 -6.9032e+000 36884 96138,96268,96164
 3.4000e+000 96294  5.7630e-001 -2.9792e+001 -3.3989e+000 36884 96164,96216,96190
 3.4000e+000 96839 -2.1864e+001 -1.1487e+002  2.6234e+001 36572 96862,96649,96597
 3.4000e+000 96816  5.1852e+000 -9.8121e+001  1.4885e+001 36572 97006,96862,96597
 3.4000e+000 96793  1.1523e+001 -3.9897e+001 -9.2706e+000 36572 96934,96467,96675
 3.4000e+000 96770  7.2848e+000 -9.7474e+001  1.4945e+001 36572 97006,96597,96571
 3.4000e+000 96747 -2.5684e+000 -1.0105e+002  1.2431e+001 36572 96467,96519,96493
 3.4000e+000 96724  1.6126e+001 -7.4921e+001  8.6288e+000 36572 96519,96571,96545
 3.4000e+000 96701 -2.8981e+001 -8.0769e+001  1.9360e+000 36572 96597,96649,96623
 3.4000e+000 96888  7.5216e+000 -1.1455e+002 -5.2294e+000 36572 96675,96649,96862
 3.4000e+000 96911  2.0075e+001 -8.1086e+001 -1.2994e+001 36572 96934,96675,96862
 3.4000e+000 96960  2.7107e+000 -7.9264e+001 -2.2541e+000 36572 96519,96467,96934
 3.4000e+000 96983  1.4246e+001 -1.0968e+002  1.9886e+000 36572 97078,96934,96862
 3.4000e+000 97032  3.2774e+000 -1.0566e+002  1.3844e+001 36572 97078,96862,97006
 3.4000e+000 97055  6.1104e+000 -9.4383e+001  1.2817e+001 36572 96519,97006,96571
 3.4000e+000 97104  2.1856e+001 -9.3422e+001 -2.4675e+000 36572 96519,96934,97078
 3.4000e+000 97127  1.6120e+001 -8.7297e+001  7.9074e+000 36572 96519,97078,97006
 3.4000e+000 97761 -5.5997e+000 -9.3694e+001 -1.0200e+001 36118 97784,97493,97415
 3.4000e+000 97738 -6.7205e+000 -1.0630e+002 -4.0855e-001 36118 97784,97415,97597
 3.4000e+000 97715 -8.0997e+000 -1.1509e+002 -1.2935e+001 36118 97389,97597,97415
 3.4000e+000 97692 -3.4002e+001 -1.1836e+002  9.3724e+000 36118 97415,97467,97441
 3.4000e+000 97669 -3.3394e+001 -1.0993e+002  7.1447e+000 36118 97415,97493,97467
 3.4000e+000 97646 -3.0626e+001 -5.2507e+001 -5.3344e+000 36118 97493,97571,97519
 3.4000e+000 97623 -2.8537e+001 -6.8843e+001  5.5610e+000 36118 97519,97571,97545
 3.4000e+000 97810 -8.5049e+000 -7.3478e+001 -1.6605e+001 36118 97571,97493,97784
 3.4000e+000 97833 -1.8168e+001 -8.8308e+001 -2.8656e+000 36118 97571,97784,97597
 3.4000e+000 98081 -7.4299e+000 -4.9687e+001 -8.2256e+000 35564 98104,97908,97856
 3.4000e+000 98058 -4.5857e+000 -5.8137e+001 -1.1327e+001 35564 98104,97856,97986
 3.4000e+000 98035  3.7862e+001 -4.2420e+001  1.5037e+001 35564 97934,97986,97960
 3.4000e+000 98012 -8.7920e+000 -5.8301e+001  4.6417e+000 35564 97856,97908,97882
 3.4000e+000 98130  2.6053e+000 -2.3963e+001 -2.8026e+000 35564 97934,97908,98104
 3.4000e+000 98153 -7.6240e+000 -5.0056e+001 -8.2555e+000 35564 97934,98104,97986
 3.4000e+000 98374 -9.3762e+000 -3.7106e+001 -4.3375e+000 35152 98224,98302,98276
 3.4000e+000 98351 -3.1052e+001 -9.3273e+001  3.2227e+000 35152 98198,98302,98224
 3.4000e+000 98328  1.0645e+001 -2.4947e+001 -1.0021e+001 35152 98224,98276,98250
 3.4000e+000 98884 -3.3893e+000 -7.4737e+001 -1.8380e+001 34698 98691,98743,98717
 3.4000e+000 98861 -1.1811e+001 -8.9395e+001 -2.6947e+001 34698 98561,98743,98691
 3.4000e+000 98838 -2.4445e+001 -7.6939e+001 -2.9069e+001 34698 98907,98587,98561
 3.4000e+000 98815 -3.3203e+001 -9.0741e+001 -2.1189e+001 34698 98907,98561,98691
 3.4000e+000 98792 -4.2381e+001 -8.5721e+001 -1.4949e+001 34698 98587,98639,98613
 3.4000e+000 98769 -3.2723e+001 -6.8128e+001 -1.9323e+001 34698 98587,98665,98639
 3.4000e+000 98933 -2.7986e+001 -8.4570e+001 -1.5201e+001 34698 98665,98587,98907
 3.4000e+000 98956 -4.1433e+001 -1.0642e+002 -6.5846e+000 34698 98665,98907,98691
 3.4000e+000 99204  3.7529e+000 -1.0719e+002 -9.9002e+000 34144 99227,99031,99005
 3.4000e+000 99181 -8.4264e+000 -1.0243e+002 -1.8690e+001 34144 99299,99227,99005
 3.4000e+000 99158 -8.5703e+000 -1.0127e+002 -1.6774e+001 34144 99299,99005,99109
 3.4000e+000 99135 -8.6257e+000 -7.9159e+001 -9.7039e+000 34144 98979,99109,99005
 3.4000e+000 99253 -4.3524e+000 -1.2327e+002 -1.2724e+001 34144 99057,99031,99227
 3.4000e+000 99276 -1.2199e+001 -1.0733e+002 -2.0655e+001 34144 99057,99227,99083
 3.4000e+000 99325 -7.3345e+000 -9.9117e+001 -1.7975e+001 34144 99083,99227,99299
 3.4000e+000 99348 -6.6939e+000 -9.7651e+001 -1.5746e+001 34144 99083,99299,99109
 3.4000e+000 99498 -7.4485e+000 -4.1921e+001  1.6010e+001 33433 99397,99449,99423
 3.4000e+000 99475 -1.8550e+001 -1.6533e+001  4.6792e+000 33433 99371,99449,99397
 3.4000e+000 100008 -2.1829e+001 -5.5556e+001 -1.2951e+000 32979 100103,100031,99815
 3.4000e+000 99985 -3.2389e+001 -7.7453e+001 -1.4089e+001 32979 100175,100031,99763
 3.4000e+000 99962 -7.1001e+000 -7.4096e+001 -1.8896e+001 32979 100103,99815,99789
 3.4000e+000 99939 -3.3671e+001 -9.9953e+001 -1.8355e+001 32979 100175,99763,99737
 3.4000e+000 99916 -2.6326e+001 -6.6057e+001 -9.6364e+000 32979 99685,99867,99737
 3.4000e+000 99893 -3.9206e+001 -1.3550e+002 -2.0647e+001 32979 99685,99737,99711
 3.4000e+000 100057 -1.0362e+001 -5.5428e+001  1.0632e+001 32979 99841,99815,100031
 3.4000e+000 100080 -9.3482e+000 -2.6001e+001 -1.4663e+001 32979 99841,100031,99867
 3.4000e+000 100129 -2.0395e+001 -9.4389e+001 -1.0935e-001 32979 99763,100031,100103
 3.4000e+000 100152 -1.6478e+001 -1.2522e+002 -2.0143e+001 32979 99763,100103,99789
 3.4000e+000 100201 -2.9594e+001 -6.4764e+001 -2.5456e+000 32979 99867,100031,100175
 3.4000e+000 100224 -3.1207e+001 -7.8902e+001 -1.0383e+001 32979 99867,100175,99737
 3.4000e+000 100553 -3.8448e+000 -2.8921e+001 -1.1244e+001 32503 100354,100406,100380
 3.4000e+000 100530  1.3614e+001 -6.9160e+001  2.7185e+001 32503 100328,100406,100354
 3.4000e+000 100507  8.4013e+000 -8.1161e+001  2.7988e+001 32503 100328,100458,100406
 3.4000e+000 100484 -4.5950e+000 -1.2353e+002  2.3134e+001 32503 100406,100458,100432
 3.4000e+000 100850 -1.1483e+001 -1.2168e+002 -3.9197e+000 31899 100873,100654,100628
 3.4000e+000 100827  3.7828e+000 -1.1872e+002 -5.1082e+000 31899 100945,100873,100628
 3.4000e+000 100804  1.6967e+001 -1.1077e+002  4.6186e-001 31899 100945,100628,100602
 3.4000e+000 100781 -1.1776e+001 -7.5934e+001  1.0918e+001 31899 100576,100732,100602
 3.4000e+000 100758 -4.8908e+001 -9.5999e+001 -6.8654e+001 31899 100654,100706,100680
 3.4000e+000 100899 -2.7778e+000 -1.2441e+002 -6.0371e+000 31899 100706,100654,100873
 3.4000e+000 100922 -3.5395e+001 -1.2251e+002 -2.3267e+001 31899 100706,100873,100732
 3.4000e+000 100971 -2.5481e+001 -1.0117e+002 -1.1365e+001 31899 100732,100873,100945
 3.4000e+000 100994 -9.6678e+000 -9.0545e+001 -4.9846e+000 31899 100732,100945,100602
 3.4000e+000 101551 -2.4532e+000 -8.5379e+001 -9.5952e+000 31338 101205,101387,101231
 3.4000e+000 101528  6.5670e-001 -8.4833e+001  2.1612e+000 31338 101179,101387,101205
 3.4000e+000 101505 -2.0867e+001 -7.4813e+001  1.9993e+001 31338 101574,101309,101257
 3.4000e+000 101482 -1.6048e+001 -9.3834e+001  1.3985e+001 31338 101646,101574,101257
 3.4000e+000 101459 -9.9674e+000 -6.8708e+001  1.1355e+001 31338 101646,101257,101231
 3.4000e+000 101436 -3.5343e+001 -1.1090e+002  7.7770e+000 31338 101309,101361,101335
 3.4000e+000 101413  1.1484e+001 -6.5796e+001  2.5091e+001 31338 101257,101309,101283
 3.4000e+000 101600 -1.9221e+001 -9.4900e+001  1.7343e+001 31338 101361,101309,101574
 3.4000e+000 101623 -2.4820e+001 -1.2572e+002 -9.7827e+000 31338 101361,101574,101387
 3.4000e+000 101672 -8.3825e+000 -7.9065e+001 -2.6008e+000 31338 101387,101574,101646
 3.4000e+000 101695 -1.1440e+001 -7.1101e+001 -6.1593e+000 31338 101387,101646,101231
 3.4000e+000 101943 -1.2020e+001 -1.1194e+002 -7.3905e+000 30748 101966,101796,101744
 3.4000e+000 101920  1.0902e+000 -1.1244e+002 -5.6371e+000 30748 101966,101744,101718
 3.4000e+000 101897 -2.0560e+001 -1.1758e+002  1.1502e+001 30748 101718,101848,101822
 3.4000e+000 101874 -3.6201e+001 -1.1538e+002 -1.2544e+001 30748 101744,101796,101770
 3.4000e+000 101992 -1.8543e+001 -1.0895e+002 -4.8599e+000 30748 101822,101796,101966
 3.4000e+000 102015 -9.6981e+000 -1.1286e+002 -3.0821e+000 30748 101822,101966,101718
 3.4000e+000 102493 -3.7931e+001 -1.0377e+002 -4.2170e+000 30344 102516,102173,102147
 3.4000e+000 102470 -2.3483e+001 -7.9978e+001 -1.1035e+001 30344 102660,102516,102147
 3.4000e+000 102447 -1.2493e+001 -9.9028e+001 -1.8986e+001 30344 102588,102199,102173
 3.4000e+000 102424 -1.2230e+001 -7.5599e+001 -1.3644e+001 30344 102660,102147,102329
 3.4000e+000 102401  1.8843e+000 -1.0176e+002 -4.2312e+001 30344 102199,102277,102251
 3.4000e+000 102378  1.8325e+001 -6.0144e+001 -6.9190e+001 30344 102199,102251,102225
 3.4000e+000 102355 -1.0544e-001 -6.6911e+001  4.1776e+000 30344 102121,102329,102147
 3.4000e+000 102542 -1.8091e+001 -9.4654e+001 -2.0073e+001 30344 102588,102173,102516
 3.4000e+000 102565 -3.1586e+001 -8.8275e+001 -1.8687e+001 30344 102277,102516,102303
 3.4000e+000 102614 -1.7958e+001 -1.0101e+002 -2.0286e+001 30344 102277,102199,102588
 3.4000e+000 102637 -2.5783e+001 -9.9763e+001 -2.2834e+001 30344 102277,102588,102516
 3.4000e+000 102686 -1.0220e+001 -8.6209e+001 -5.5539e+000 30344 102303,102516,102660
 3.4000e+000 102709 -4.1256e+000 -8.5621e+001 -6.8549e+000 30344 102303,102660,102329
 3.4000e+000 103294  1.2324e+001 -1.1116e+002  7.7720e+000 29726 103317,103101,103075
 3.4000e+000 103271  3.0790e+001 -5.2350e+001  1.4928e+001 29726 103317,103075,102997
 3.4000e+000 103248 -5.8226e+000 -4.2384e+001 -1.5914e+001 29726 102971,103153,102997
 3.4000e+000 103225 -4.2712e+000 -8.9105e+001 -1.1888e+001 29726 103101,103153,103127
 3.4000e+000 103202  1.2662e+000 -1.3974e+002  2.0271e+001 29726 102997,103075,103023
 3.4000e+000 103179 -2.5611e+001 -9.5901e+001 -2.6835e+001 29726 103023,103075,103049
 3.4000e+000 103343  6.1805e+000 -5.9956e+001 -1.2223e+000 29726 103153,103101,103317
 3.4000e+000 103366  5.9118e+000 -2.8134e+001  2.9031e-001 29726 103153,103317,102997
 3.4000e+000 103614  2.3736e+001 -5.7284e+001 -3.0652e+000 29200 103781,103637,103467
 3.4000e+000 103591 -3.1879e+000 -5.3667e+001  1.3046e+001 29200 103709,103637,103415
 3.4000e+000 103568 -1.0786e+001 -5.2982e+001  7.4085e+000 29200 103709,103415,103389
 3.4000e+000 103545  1.8016e+001 -4.5885e+001 -1.3006e+001 29200 103781,103467,103441
 3.4000e+000 103663  2.4517e+001 -5.7416e+001  9.5462e+000 29200 103853,103637,103493
 3.4000e+000 103686  2.8522e+001 -9.5965e+000  1.5073e+001 29200 103493,103637,103519
 3.4000e+000 103735  9.8849e+000 -5.4764e+001  1.4182e+001 29200 103519,103637,103709
 3.4000e+000 103758  1.3136e+000 -5.3740e+001  9.5739e+000 29200 103519,103709,103389
 3.4000e+000 103807  1.6107e+001 -7.5490e+001 -4.2419e+000 29200 103415,103637,103781
 3.4000e+000 103830  6.4952e+000 -7.1034e+001 -1.7340e+001 29200 103415,103781,103441
 3.4000e+000 103879  2.1306e+001 -5.0020e+001 -2.3518e+000 29200 103467,103637,103853
 3.4000e+000 104545 -2.6570e+000 -6.6825e+001 -1.8862e+001 28860 104274,104352,104326
 3.4000e+000 104522 -3.5455e+001 -5.2151e+001 -4.8840e+000 28860 104248,104352,104274
 3.4000e+000 104499 -2.9846e+001 -5.0076e+001 -4.7101e+000 28860 104248,104404,104352
 3.4000e+000 104476 -4.5108e+001 -3.3028e+001 -1.2275e+000 28860 104222,104404,104248
 3.4000e+000 104453 -2.1018e+001 -2.0762e+001 -5.3309e+000 28860 104352,104404,104378
 3.4000e+000 104430 -1.5085e+001 -6.9875e+001 -1.9711e+001 28860 104274,104326,104300
 3.4000e+000 104744  8.2191e-001 -1.0358e+002 -2.6917e+001 28456 104839,104767,104646
 3.4000e+000 104721 -4.0599e+001 -1.3698e+002 -1.6260e+001 28456 104767,104594,104568
 3.4000e+000 104698 -6.8601e-001 -8.1268e+001 -1.1604e+001 28456 104839,104646,104620
 3.4000e+000 104793 -1.3585e+001 -1.1769e+002 -1.7595e+001 28456 104672,104646,104767
 3.4000e+000 104816 -5.2412e+001 -1.5133e+002  9.3911e+000 28456 104911,104767,104568
 3.4000e+000 104865 -1.9108e+001 -1.1159e+002 -6.9018e+000 28456 104594,104767,104839
 3.4000e+000 104888  1.0730e+001 -9.6176e+000 -9.8191e+000 28456 105041,104839,104620
 3.4000e+000 104937 -2.5703e+000 -8.1585e+001 -1.5800e+001 28456 104672,104767,104911
 3.4000e+000 105067 -1.7966e+001 -1.0727e+002 -1.7721e+001 28456 104594,104839,105041
 3.4000e+000 105573 -2.7050e+001 -1.0708e+002 -9.4144e+000 28094 105812,105596,105328
 3.4000e+000 105550 -2.6336e+001 -9.4854e+001  4.3708e+000 28094 105596,105276,105250
 3.4000e+000 105527 -1.2537e+001 -1.4015e+002 -8.9012e+000 28094 105740,105668,105432
 3.4000e+000 105504 -2.3488e+001 -1.5915e+002 -4.1844e+000 28094 105740,105432,105380
 3.4000e+000 105481 -1.9292e+001 -1.1228e+002 -5.2265e+000 28094 105812,105328,105302
 3.4000e+000 105458 -4.2128e+001 -1.6299e+002 -4.9001e-001 28094 105380,105432,105406
 3.4000e+000 105622 -3.4041e+000 -6.5594e+001 -1.9479e+001 28094 105354,105328,105596
 3.4000e+000 105645 -3.9148e+000 -7.0089e+001  1.5038e+001 28094 105668,105354,105596
 3.4000e+000 105694  1.2719e+000 -1.0073e+002 -1.0116e+001 28094 105250,105432,105668
 3.4000e+000 105717 -2.9661e+001 -1.2633e+002  4.7475e+000 28094 105250,105668,105596
 3.4000e+000 105766 -2.6501e+001 -1.2544e+002  2.9275e+001 28094 105354,105668,105740
 3.4000e+000 105789 -4.2816e+001 -1.5873e+002  3.4900e+001 28094 105354,105740,105380
 3.4000e+000 105838 -1.8510e+001 -1.0048e+002 -6.0750e+000 28094 105276,105596,105812
 3.4000e+000 105861  9.9797e+000 -9.5648e+001  2.2931e+000 28094 105276,105812,105302
 3.4000e+000 106367 -2.7325e+001 -1.2664e+002 -1.4563e+001 27390 106070,106122,106096
 3.4000e+000 106344 -1.1295e-001 -1.4042e+002 -2.2257e+001 27390 106070,106226,106122
 3.4000e+000 106321  2.4935e+001 -1.3351e+002 -1.7656e+001 27390 106174,106226,106200
 3.4000e+000 106298  8.9220e+000 -1.3488e+002 -1.3049e+001 27390 106122,106226,106174
 3.4000e+000 106275  1.2483e+001 -1.3083e+002  5.0543e+000 27390 106122,106174,106148
 3.4000e+000 106252 -4.6650e+001 -1.6279e+002 -3.0665e+001 27390 106044,106226,106070
 3.4000e+000 106615  5.3188e+000 -9.2316e+001 -2.6229e+000 26978 106638,106494,106416
 3.4000e+000 106592  4.8536e+000 -9.9460e+001 -4.4100e+000 26978 106638,106416,106390
 3.4000e+000 106569  7.4201e+000 -8.8735e+001  4.2782e+000 26978 106416,106494,106442
 3.4000e+000 106546  1.9747e+001 -9.1631e+001  1.5754e-001 26978 106442,106494,106468
 3.4000e+000 106664  1.1044e+001 -1.0025e+002  5.6731e-001 26978 106520,106494,106638
 3.4000e+000 106687  8.9192e+000 -1.0811e+002 -3.6091e+000 26978 106520,106638,106390
 3.4000e+000 106837  5.2351e-001 -3.4683e+002 -5.2221e-001 26524 106710,106762,106736
 3.4000e+000 106814  1.8141e-001 -3.0963e+002 -1.8415e-001 26524 106710,106788,106762
 3.4000e+000 107426 -5.4177e+001 -1.0404e+002  1.6195e+001 26120 107129,107207,107155
 3.4000e+000 107403 -3.3790e+001 -8.3788e+001  7.2894e+000 26120 107129,107285,107207
 3.4000e+000 107380 -4.6522e+001 -1.0296e+002 -8.3556e-001 26120 107207,107285,107259
 3.4000e+000 107357  2.8517e+000 -7.4087e+001  3.3381e+000 26120 107155,107207,107181
 3.4000e+000 107334 -1.9817e+001 -7.9970e+001  3.7890e+000 26120 107103,107285,107129
 3.4000e+000 107311 -4.5203e+001 -9.1862e+001  2.7748e+000 26120 107207,107259,107233
 3.4000e+000 107755 -2.9252e+001 -8.4166e+001  3.2688e+000 25758 107556,107634,107608
 3.4000e+000 107732 -5.1178e+000 -5.0173e+001 -8.5231e+000 25758 107556,107660,107634
 3.4000e+000 107709 -4.2117e+001 -8.1701e+001 -8.5735e+000 25758 107556,107608,107582
 3.4000e+000 107686 -3.6522e+000 -5.3438e+000  4.7577e+000 25758 107530,107660,107556
 3.4000e+000 108438 -3.6785e+001 -1.3320e+002 -4.9043e+000 25468 108121,108199,108173
 3.4000e+000 108415 -1.8255e+000 -4.8006e+001 -3.0167e+000 25468 108095,108199,108121
 3.4000e+000 108392  3.8236e+000 -6.5499e+001 -1.6231e+000 25468 108095,108251,108199
 3.4000e+000 108369 -1.3228e+001 -8.2163e+001  8.2530e+000 25468 108069,108251,108095
 3.4000e+000 108346 -2.0065e+001 -7.3186e+001 -1.3354e+001 25468 108199,108251,108225
 3.4000e+000 108323  9.3232e+000 -9.5347e+001  2.3912e+001 25468 108017,108251,108069
 3.4000e+000 108300 -3.6890e+001 -8.6737e+001 -1.1330e+001 25468 108121,108173,108147
 3.4000e+000 108277  1.8917e+001 -8.6822e+001  1.7734e+001 25468 108017,108069,108043
 3.4000e+000 108588 -3.0146e+001 -1.2139e+002 -3.3709e+001 25064 108611,108513,108487
 3.4000e+000 108565 -5.7824e+001 -1.0658e+002 -1.9635e+001 25064 108683,108611,108487
 3.4000e+000 108637 -2.2989e+001 -9.9190e+001 -3.5384e+001 25064 108539,108513,108611
 3.4000e+000 108660 -2.0566e+001 -8.1443e+001 -2.2626e+001 25064 108539,108611,108461
 3.4000e+000 108709 -2.0866e+001 -7.4244e+001 -3.3929e+001 25064 108461,108611,108683
 3.4000e+000 109345 -8.0625e+001 -1.3974e+002  5.0138e+001 24410 108999,109155,109103
 3.4000e+000 109322 -3.8639e+001 -1.4067e+002  1.9732e+001 24410 108973,109155,108999
 3.4000e+000 109299 -1.8089e+001 -2.3251e+002  6.6969e+001 24410 109103,109155,109129
 3.4000e+000 109276 -6.8679e+001 -1.3007e+002  1.6610e+001 24410 108973,109181,109155
 3.4000e+000 109253 -4.9306e+001 -1.2195e+002  3.2612e+001 24410 109025,109103,109077
 3.4000e+000 109230 -8.1320e+001 -1.2591e+002  4.6181e+001 24410 108999,109103,109025
 3.4000e+000 109207 -3.9986e+001 -1.0804e+002  2.7364e+001 24410 109025,109077,109051
 3.4000e+000 109723 -3.3872e+001 -1.1925e+002  1.7110e+000 23856 109475,109579,109553
 3.4000e+000 109700 -4.5564e+001 -1.2455e+002  8.0019e+000 23856 109475,109605,109579
 3.4000e+000 109677 -4.5193e+001 -1.5311e+002  1.6642e+001 23856 109475,109553,109527
 3.4000e+000 109654 -3.9005e+001 -1.2153e+002 -8.4324e-001 23856 109449,109605,109475
 3.4000e+000 109631  2.1162e+001 -1.3597e+002  2.3346e+001 23856 109475,109527,109501
 3.4000e+000 110101 -5.0655e+000 -1.0489e+002 -3.2342e+001 23566 109853,109931,109879
 3.4000e+000 110078  7.5602e+000 -8.6721e+001 -1.6693e+001 23566 109827,109931,109853
 3.4000e+000 110055 -1.6306e+001 -9.7936e+001 -9.5358e+000 23566 109827,109983,109931
 3.4000e+000 110032 -7.0148e+000 -8.1731e+001 -1.2642e+001 23566 109879,109931,109905
 3.4000e+000 110009 -4.4584e+000 -8.0905e+001  1.1540e+000 23566 109931,109983,109957
 3.4000e+000 110735 -3.3076e-001 -3.2851e+001 -1.1103e+001 23162 110415,110571,110519
 3.4000e+000 110712 -1.5725e+001 -5.7234e+001 -1.8058e+001 23162 110389,110571,110415
 3.4000e+000 110689  5.6297e+000 -3.1154e+001 -1.4180e+001 23162 110415,110519,110493
 3.4000e+000 110666 -1.4207e+001 -4.1736e+001  5.4625e+000 23162 110363,110571,110389
 3.4000e+000 110643  3.6699e+001 -3.3933e+000  1.5815e+001 23162 110441,110493,110467
 3.4000e+000 110620  1.1612e+001 -3.3924e+001 -1.3363e+001 23162 110415,110493,110441
 3.4000e+000 110597  9.9132e+000 -3.7209e+001 -1.6983e+001 23162 110519,110571,110545
 3.4000e+000 111211 -3.8912e+001 -1.2587e+002 -1.5535e+001 22708 111378,111306,111021
 3.4000e+000 111188 -4.8003e+000 -1.2250e+002 -4.8309e+000 22708 111234,110969,110917
 3.4000e+000 111165 -3.2503e+001 -1.1895e+002 -8.7080e+000 22708 111450,111234,110917
 3.4000e+000 111142 -3.9270e+001 -1.1330e+002 -3.4838e+001 22708 111378,111021,110995
 3.4000e+000 111119 -3.6009e+001 -1.1719e+002 -1.8951e+001 22708 111450,110917,110865
 3.4000e+000 111096  1.8794e+001 -1.4866e+002  1.1856e+001 22708 110917,110969,110943
 3.4000e+000 111073 -1.9136e+001 -1.9107e+002 -5.6808e+001 22708 110865,110917,110891
 3.4000e+000 111260  4.5856e+000 -1.1846e+002 -1.3291e+001 22708 111306,110969,111234
 3.4000e+000 111283 -1.2682e+001 -1.0253e+002 -9.3238e+000 22708 111047,111234,110839
 3.4000e+000 111332 -1.6089e+000 -1.4811e+002  9.8435e+000 22708 111047,111021,111306
 3.4000e+000 111355 -1.5459e+001 -1.2655e+002 -1.5761e+001 22708 111047,111306,111234
 3.4000e+000 111404  2.4493e+000 -1.0668e+002 -2.8023e+001 22708 110969,111306,111378
 3.4000e+000 111427 -8.8054e+000 -1.0093e+002 -3.6932e+001 22708 110969,111378,110995
 3.4000e+000 111476 -1.6538e+001 -1.1408e+002 -8.2258e+000 22708 110839,111234,111450
 3.4000e+000 111499 -1.6817e+001 -1.1136e+002 -1.9456e+001 22708 110839,111450,110865
 3.4000e+000 111600  2.5831e+000 -5.6599e+001  3.5408e+000 22460 111522,111574,111548
 3.4000e+000 112059  1.9849e+001 -4.7498e+001 -9.0063e+000 22056 111811,111889,111863
 3.4000e+000 112036  3.9255e+001 -3.9561e+001 -1.3097e+001 22056 111811,111915,111889
 3.4000e+000 112013  2.0542e+001 -4.5234e+001 -1.1914e+001 22056 111785,111915,111811
 3.4000e+000 111990  1.4752e+001 -2.6894e+001 -3.1670e+001 22056 111785,111941,111915
 3.4000e+000 111967  6.8497e+000 -4.9404e+001 -1.2774e+000 22056 111811,111863,111837
 3.4000e+000 112486  4.0851e+001 -3.6880e+001 -9.3217e+000 21594 112509,112267,112215
 3.4000e+000 112463  5.5360e+000 -5.4131e+001  3.4119e+000 21594 112509,112215,112163
 3.4000e+000 112440  2.5693e+001 -1.1928e+001 -4.4023e+001 21594 112581,112293,112267
 3.4000e+000 112417  3.5199e+000 -5.3543e+001  3.7474e+000 21594 112215,112267,112241
 3.4000e+000 112394  3.3798e+001 -4.4199e+001  1.9086e+000 21594 112163,112345,112319
 3.4000e+000 112371  2.6070e+000 -4.9842e+001 -8.3408e-001 21594 112163,112215,112189
 3.4000e+000 112535  4.8056e+001 -3.0884e+001 -2.3945e+001 21594 112581,112267,112509
 3.4000e+000 112558  2.4520e+001 -3.2555e+001 -5.7379e+000 21594 112319,112509,112163
 3.4000e+000 112607 -1.5730e+001 -3.0634e+001 -3.9781e+001 21594 112319,112293,112581
 3.4000e+000 112630  8.0929e+000 -5.0750e+001 -1.5502e+001 21594 112319,112581,112509
 3.4000e+000 112900 -2.7456e+001 -1.0907e+002 -1.9399e+000 20974 112675,112779,112701
 3.4000e+000 112877 -1.3675e+001 -1.0761e+002 -1.7628e+000 20974 112675,112805,112779
 3.4000e+000 112854 -2.6457e+000 -9.0981e+001  6.4618e+000 20974 112701,112779,112753
 3.4000e+000 112831 -1.1725e+001 -4.5205e+001 -2.2927e+001 20974 112701,112753,112727
 3.4000e+000 113359  1.3228e+001 -8.7445e+001 -1.2949e+001 20520 113454,113137,113111
 3.4000e+000 113336  3.1477e+001 -1.0351e+002 -2.5329e+001 20520 113454,113111,113085
 3.4000e+000 113313  2.1147e+001 -1.7978e+001  3.0728e+001 20520 113382,113163,113137
 3.4000e+000 113290  6.8116e+000 -1.0594e+002 -9.7138e+000 20520 113526,113382,113137
 3.4000e+000 113267 -2.2268e+001 -1.7870e+002 -7.5970e+000 20520 113189,113241,113215
 3.4000e+000 113408 -1.9287e+001 -1.0952e+002  2.2096e+001 20520 113189,113163,113382
 3.4000e+000 113431 -6.9518e+000 -1.2832e+002 -2.3017e+001 20520 113189,113382,113241
 3.4000e+000 113480  6.8994e+000 -1.0354e+002 -9.8308e+000 20520 113526,113137,113454
 3.4000e+000 113503  1.7680e+001 -1.2327e+002 -1.8609e+001 20520 113241,113454,113085
 3.4000e+000 113552  6.9172e+000 -1.0199e+002 -1.1041e+001 20520 113241,113382,113526
 3.4000e+000 113575  6.4640e+000 -1.0062e+002 -1.1432e+001 20520 113241,113526,113454
 3.4000e+000 113904 -7.6488e+000 -1.2650e+002  5.1417e+000 19858 113705,113783,113757
 3.4000e+000 113881  4.0303e+000 -9.9858e+001 -6.5827e-001 19858 113705,113809,113783
 3.4000e+000 113858  4.0816e+001 -7.7693e+001 -2.4470e+001 19858 113679,113809,113705
 3.4000e+000 113835  5.8543e+000 -7.4657e+001  3.4483e+001 19858 113705,113757,113731
 3.4000e+000 114152 -2.3322e+001 -4.9286e+001 -1.3919e+001 19454 114175,114005,113979
 3.4000e+000 114129 -2.3438e+001 -4.8210e+001 -1.3895e+001 19454 114175,113979,114057
 3.4000e+000 114106 -3.8145e+001 -7.7533e+001 -5.1521e+000 19454 113927,114057,113979
 3.4000e+000 114083 -1.9145e+001 -6.3388e+001 -1.8122e+001 19454 113927,113979,113953
 3.4000e+000 114201 -2.2203e+001 -4.9083e+001 -1.8158e+001 19454 114031,114005,114175
 3.4000e+000 114224 -2.3711e+001 -4.7667e+001 -1.3970e+001 19454 114031,114175,114057
 3.4000e+000 114472 -2.1764e+001 -1.4465e+002  1.7490e+000 19000 114495,114273,114247
 3.4000e+000 114449 -3.5725e+001 -1.5015e+002 -6.3524e+000 19000 114495,114247,114325
 3.4000e+000 114426 -5.5434e+001 -1.5780e+002  9.5868e+000 19000 114247,114377,114325
 3.4000e+000 114403 -6.4184e+001 -1.5359e+002 -2.3099e+001 19000 114325,114377,114351
 3.4000e+000 114521  2.0802e+001 -1.3042e+002  2.0389e+001 19000 114299,114273,114495
 3.4000e+000 114544 -2.4139e+001 -1.6567e+002  4.3047e+000 19000 114299,114495,114325
 3.4000e+000 114948 -2.3669e+001 -1.3457e+002 -1.8469e+000 18560 114674,114726,114700
 3.4000e+000 114925 -5.1601e-001 -9.0059e+001 -1.2362e+001 18560 114674,114830,114726
 3.4000e+000 114902 -3.8117e+000 -9.9505e+001 -2.0945e+001 18560 114726,114830,114804
 3.4000e+000 114879 -2.9315e+001 -2.1860e+002 -4.2474e+001 18560 114726,114804,114752
 3.4000e+000 114856  1.9512e+001 -3.0065e+002 -4.8036e+001 18560 114752,114804,114778
 3.4000e+000 115098 -5.6219e+001 -1.8321e+002 -1.5846e+000 18156 114971,115023,114997
 3.4000e+000 115075 -6.2458e+001 -9.0201e+001 -7.2174e-001 18156 114971,115049,115023
 3.4000e+000 115248 -6.0150e+001 -1.9194e+002 -4.2390e+000 17602 115147,115199,115173
 3.4000e+000 115225 -1.5612e+001 -1.6755e+002  6.5342e+000 17602 115121,115199,115147
 3.4000e+000 115652  3.3943e+001 -1.0021e+002 -4.4932e+000 17354 115430,115534,115508
 3.4000e+000 115629  9.7894e+000 -1.3660e+002  6.8093e+000 17354 115404,115534,115430
 3.4000e+000 115606  5.8343e+001 -7.2085e+001  5.5619e+001 17354 115378,115534,115404
 3.4000e+000 115583  6.6181e+001 -1.2426e+002 -1.9350e+001 17354 115456,115508,115482
 3.4000e+000 115560  1.3601e+001 -1.5124e+002 -3.2815e+000 17354 115430,115508,115456
 3.4000e+000 115873 -3.9027e+001 -2.1278e+002 -7.2327e+000 16950 115749,115801,115775
 3.4000e+000 115850 -7.4391e+001 -1.9893e+002 -1.6842e+000 16950 115697,115801,115749
 3.4000e+000 115827 -7.0453e+001 -2.1402e+002  5.7713e+000 16950 115697,115749,115723
 3.4000e+000 116023 -7.4783e+001 -2.1505e+002 -2.9409e+001 16496 115922,115974,115948
 3.4000e+000 116000 -8.1074e+001 -1.6895e+002 -1.2321e+001 16496 115896,115974,115922
 3.4000e+000 116126  3.1985e+001 -8.7795e+001  4.2872e+000 16298 116048,116100,116074
 3.4000e+000 116278  4.2322e+001 -2.2511e+002 -4.9693e+000 15892 116151,116203,116177
 3.4000e+000 116255  1.1176e+001 -2.9305e+002  2.7216e+000 15892 116151,116229,116203
 3.4000e+000 116430  2.3403e+001 -3.5778e+001 -1.3313e+000 15545 116303,116355,116329
 3.4000e+000 116407  3.5493e+000 -9.6513e+001 -3.0466e+001 15545 116303,116381,116355
 3.4000e+000 116785  3.5779e+001 -6.6042e+001  3.2394e+001 421 116612,116690,116664
 3.4000e+000 116762  1.2408e+000 -1.4709e+002  2.1505e+001 421 116560,116690,116612
 3.4000e+000 116739 -5.6604e+001 -1.6938e+002  1.9360e+001 421 116560,116612,116586
 3.4000e+000 116716 -2.8574e+001 -1.7153e+002  1.7390e+000 421 116612,116664,116638
 3.5000e+000 68048 -2.5218e+001 -1.1231e+002 -8.8529e+000 67642 67898,67950,67924
 3.5000e+000 68025 -3.8283e+001 -1.1786e+002  5.9973e-001 67642 67898,67976,67950
 3.5000e+000 68002 -2.4792e+001 -1.1325e+002  1.7866e+000 67642 67872,67976,67898
 3.5000e+000 68367 -2.5205e+001 -8.6791e+001  3.6506e+000 67444 68119,68223,68197
 3.5000e+000 68344 -5.3307e+001 -1.5397e+002  1.2186e+001 67444 68119,68249,68223
 3.5000e+000 68321 -8.0348e+001 -1.5528e+002 -5.1917e+000 67444 68093,68249,68119
 3.5000e+000 68298 -4.8373e+001 -1.4260e+002  6.1999e+000 67444 68119,68197,68171
 3.5000e+000 68275 -6.1212e+001 -1.4123e+002  8.3402e+000 67444 68119,68171,68145
 3.5000e+000 68468 -3.5807e+001 -1.7169e+002  2.8344e+001 67268 68390,68442,68416
 3.5000e+000 68765 -8.2224e+001 -1.5149e+002 -1.5791e+000 66956 68788,68517,68491
 3.5000e+000 68742 -1.0739e+002 -1.6233e+002 -8.5934e+000 66956 68788,68491,68621
 3.5000e+000 68719 -9.5480e+001 -1.7951e+002 -1.9761e+001 66956 68543,68621,68569
 3.5000e+000 68696 -1.1952e+002 -1.7870e+002  1.8797e+000 66956 68491,68647,68621
 3.5000e+000 68673 -1.3200e+002 -1.3298e+002 -1.9783e+001 66956 68569,68621,68595
 3.5000e+000 68814 -5.1369e+001 -1.6366e+002  1.7741e+000 66956 68543,68517,68788
 3.5000e+000 68837 -8.2617e+001 -1.7898e+002 -6.1581e+000 66956 68543,68788,68621
 3.5000e+000 69107 -3.3997e+001 -1.6727e+002 -2.3802e+000 66758 68882,68986,68908
 3.5000e+000 69084 -2.4200e+001 -1.5851e+002  5.1459e+000 66758 68882,69012,68986
 3.5000e+000 69061 -1.2009e+001 -1.5811e+002 -5.4840e+000 66758 68908,68960,68934
 3.5000e+000 69038 -2.8880e+001 -1.5323e+002 -4.5374e+000 66758 68908,68986,68960
 3.5000e+000 69308 -1.3939e+001 -1.4634e+002 -2.9839e+000 66560 69331,69184,69158
 3.5000e+000 69285  1.9126e+000 -1.5424e+002 -2.6618e+000 66560 69331,69158,69132
 3.5000e+000 69262 -2.2157e+001 -1.8954e+002 -1.2187e+001 66560 69184,69236,69210
 3.5000e+000 69357 -1.8773e+001 -1.5165e+002 -7.1371e-001 66560 69236,69184,69331
 3.5000e+000 69380 -1.1698e+001 -1.6659e+002  2.6937e+000 66560 69236,69331,69132
 3.5000e+000 69554 -3.9580e+001 -2.2084e+002  1.3847e+001 66270 69427,69479,69453
 3.5000e+000 69531 -1.0589e+001 -1.5299e+002  2.7177e+001 66270 69427,69505,69479
 3.5000e+000 69804 -2.8545e+001 -1.4105e+002 -9.3445e+000 66066 69579,69683,69657
 3.5000e+000 69781  3.0021e+001 -1.1455e+002 -2.6762e+001 66066 69579,69709,69683
 3.5000e+000 69758 -5.5029e+000 -7.6311e+001 -1.7847e+001 66066 69579,69657,69631
 3.5000e+000 69735 -1.6231e+001 -9.9907e+001 -2.1051e+001 66066 69579,69631,69605
 3.5000e+000 70257 -4.4668e+001 -1.0743e+002  7.0571e+000 65776 69960,70090,69986
 3.5000e+000 70234 -4.9774e+001 -1.1300e+002  2.1846e+000 65776 69934,70090,69960
 3.5000e+000 70211 -4.7737e+001 -1.1961e+002 -5.6165e+000 65776 69934,70116,70090
 3.5000e+000 70188 -4.8824e+001 -1.2469e+002  0.0000e+000 65776 70038,70090,70064
 3.5000e+000 70165 -4.9254e+001 -1.3001e+002  5.7699e+000 65776 69986,70090,70038
 3.5000e+000 70142 -4.2105e+001 -1.3857e+002  4.9559e+000 65776 69986,70038,70012
 3.5000e+000 70456 -3.5312e+001 -8.7656e+001 -1.4519e+001 65372 70479,70306,70280
 3.5000e+000 70433 -3.7750e+001 -1.1307e+002 -1.8216e+001 65372 70479,70280,70384
 3.5000e+000 70410 -3.4211e+001 -9.6972e+001  6.3877e+000 65372 70551,70332,70306
 3.5000e+000 70505 -3.6533e+001 -8.3619e+001 -4.3294e+000 65372 70551,70306,70479
 3.5000e+000 70528 -1.8887e+001 -1.0163e+002 -1.3412e+001 65372 70358,70479,70384
 3.5000e+000 70577 -3.3006e+001 -1.1645e+002  4.1454e+000 65372 70358,70332,70551
 3.5000e+000 70600 -4.0678e+001 -1.0913e+002 -5.4086e+000 65372 70358,70551,70479
 3.5000e+000 70821 -1.7789e+001 -1.5048e+002 -2.3106e+000 65174 70645,70723,70671
 3.5000e+000 70798 -3.7283e+001 -1.5558e+002  4.4523e+000 65174 70645,70749,70723
 3.5000e+000 70775 -1.1918e+001 -1.4244e+002 -4.9951e+000 65174 70671,70723,70697
 3.5000e+000 71071 -2.8828e+001 -7.6426e+001 -1.2276e+000 64770 71094,70898,70872
 3.5000e+000 71048 -1.8487e+001 -7.4281e+001  4.6701e+000 64770 71166,71094,70872
 3.5000e+000 71025 -2.0122e+001 -8.5204e+001 -2.9787e+000 64770 71166,70872,70846
 3.5000e+000 71002 -1.5462e+001 -4.8261e+001  1.4874e+001 64770 70898,70950,70924
 3.5000e+000 71120 -2.3265e+001 -6.6999e+001  1.0887e+000 64770 70950,70898,71094
 3.5000e+000 71143 -5.4533e+000 -7.7333e+001  9.9224e+000 64770 70950,71094,70976
 3.5000e+000 71192 -2.1691e+001 -9.5821e+001  2.8844e+000 64770 70976,71094,71166
 3.5000e+000 71215 -1.8171e+001 -9.9554e+001 -4.8483e+000 64770 70976,71166,70846
 3.5000e+000 71514 -3.5675e+001 -1.4139e+002  6.7430e-001 64572 71681,71537,71318
 3.5000e+000 71491 -4.4217e+001 -1.3989e+002 -1.6290e+000 64572 71537,71266,71240
 3.5000e+000 71468 -4.9798e+001 -1.1826e+002 -7.8894e+000 64572 71609,71396,71370
 3.5000e+000 71445 -3.7542e+001 -1.4060e+002  3.8480e-001 64572 71681,71318,71292
 3.5000e+000 71422 -6.3878e+001 -1.8509e+002 -1.5255e-001 64572 71753,71344,71318
 3.5000e+000 71563 -4.8185e+001 -1.5755e+002  7.1535e+000 64572 71753,71318,71537
 3.5000e+000 71586 -4.3982e+001 -1.3092e+002  6.0447e+000 64572 71609,71370,71537
 3.5000e+000 71635 -2.8180e+001 -7.4237e+001 -2.0458e+001 64572 71240,71396,71609
 3.5000e+000 71658 -3.8196e+001 -1.0522e+002 -3.3739e+000 64572 71240,71609,71537
 3.5000e+000 71707 -4.0917e+001 -1.3846e+002 -1.4421e+000 64572 71266,71537,71681
 3.5000e+000 71730 -4.7283e+001 -1.4067e+002 -1.1886e+000 64572 71266,71681,71292
 3.5000e+000 71779 -6.9624e+001 -1.4684e+002 -7.5771e-001 64572 71370,71344,71753
 3.5000e+000 71802 -6.7648e+001 -1.4478e+002  8.6144e-002 64572 71370,71753,71537
 3.5000e+000 72052 -3.4276e+001 -1.1902e+002  1.3852e+001 64374 72075,71879,71827
 3.5000e+000 72029 -8.3245e+000 -1.0399e+002  5.4810e+000 64374 72147,72075,71827
 3.5000e+000 72006  9.9713e+000 -1.1361e+002 -8.3877e+000 64374 72147,71827,71957
 3.5000e+000 71983 -1.0653e+001 -1.0294e+002  9.2009e-001 64374 71827,71879,71853
 3.5000e+000 72101 -3.0460e+001 -1.4319e+002  3.2677e+001 64374 71905,71879,72075
 3.5000e+000 72124  9.9576e+000 -1.2230e+002  2.5276e+001 64374 71905,72075,71931
 3.5000e+000 72173 -2.4750e+001 -1.3030e+002  1.2510e+001 64374 71931,72075,72147
 3.5000e+000 72196 -1.1433e+001 -1.4264e+002  1.0820e+000 64374 71931,72147,71957
 3.5000e+000 72649 -3.5949e+001 -9.8519e+001 -2.1165e+000 63948 72352,72508,72482
 3.5000e+000 72626 -3.1192e+001 -8.2850e+001  1.5272e+001 63948 72326,72508,72352
 3.5000e+000 72603 -4.5272e+001 -1.3103e+002 -6.5835e+000 63948 72672,72430,72378
 3.5000e+000 72580 -4.3992e+001 -1.4667e+002 -2.0292e+000 63948 72672,72378,72352
 3.5000e+000 72557 -4.2242e+001 -1.3320e+002 -6.3014e+000 63948 72744,72456,72430
 3.5000e+000 72534 -4.6795e+001 -1.6873e+002 -3.6054e+001 63948 72378,72430,72404
 3.5000e+000 72698 -4.3687e+001 -1.3207e+002 -5.5110e+000 63948 72744,72430,72672
 3.5000e+000 72721 -3.4528e+001 -1.2582e+002  2.1003e+000 63948 72482,72672,72352
 3.5000e+000 72770 -4.2411e+001 -1.3164e+002 -6.5159e+000 63948 72482,72456,72744
 3.5000e+000 72793 -4.2689e+001 -1.2889e+002 -5.8771e+000 63948 72482,72744,72672
 3.5000e+000 72894 -5.3636e+001 -1.7704e+002 -1.1193e+001 63494 72816,72868,72842
 3.5000e+000 73093 -4.2463e+001 -5.2927e+001 -5.4020e-001 63132 72943,72995,72969
 3.5000e+000 73070 -2.4293e+001 -4.1146e+001  7.4132e+000 63132 72943,73021,72995
 3.5000e+000 73047 -1.9833e+001 -3.4670e+001  9.6032e+000 63132 72917,73021,72943
 3.5000e+000 73294 -1.5915e+001 -5.4535e+001 -3.4390e+001 62792 73317,73144,73118
 3.5000e+000 73271 -2.4373e+001 -6.3965e+001 -1.7743e+001 62792 73317,73118,73222
 3.5000e+000 73248 -1.4612e+001 -4.2321e+001 -2.3580e+001 62792 73144,73196,73170
 3.5000e+000 73343 -3.6993e+001 -4.8096e+001 -2.1678e+001 62792 73196,73144,73317
 3.5000e+000 73366 -4.7634e+001 -6.4420e+001 -3.7155e+000 62792 73196,73317,73222
 3.5000e+000 73616 -6.7979e+001 -1.2932e+002  2.1362e+001 62388 73639,73417,73391
 3.5000e+000 73593 -5.9035e+001 -1.1023e+002  1.3552e+001 62388 73711,73639,73391
 3.5000e+000 73570 -3.7388e+001 -8.1328e+001  4.0900e+000 62388 73711,73391,73521
 3.5000e+000 73547 -2.2535e+001 -1.0147e+002  9.6209e+000 62388 73469,73521,73495
 3.5000e+000 73665 -5.8428e+001 -1.2756e+002  7.2986e+000 62388 73443,73417,73639
 3.5000e+000 73688 -5.0658e+001 -1.3028e+002  1.1226e+001 62388 73443,73639,73469
 3.5000e+000 73737 -3.2626e+001 -1.2752e+002  1.2458e+001 62388 73469,73639,73711
 3.5000e+000 73760 -3.1618e+001 -1.2159e+002  1.1826e+001 62388 73469,73711,73521
 3.5000e+000 74010 -1.6299e+001 -5.5066e+001 -1.9290e+001 61848 74033,73837,73811
 3.5000e+000 73987 -4.5251e+001 -5.7309e+001 -3.2745e+001 61848 74033,73811,73785
 3.5000e+000 73964 -2.0550e+000 -4.9363e+001 -2.0554e+001 61848 73837,73915,73889
 3.5000e+000 73941  1.4644e+000 -3.5497e+001 -1.9449e+001 61848 73837,73889,73863
 3.5000e+000 74059 -1.3032e+001 -6.5674e+001 -2.5987e+001 61848 73915,73837,74033
 3.5000e+000 74082 -1.5547e+001 -7.3242e+001 -3.0460e+001 61848 73915,74033,73785
 3.5000e+000 74283 -6.0393e+000 -4.0072e+001  4.3596e+000 61444 74306,74133,74107
 3.5000e+000 74260 -7.0143e+000 -2.8196e+001  2.1413e+001 61444 74306,74107,74211
 3.5000e+000 74237 -2.8537e+001 -9.2100e+000  8.9230e-001 61444 74378,74185,74159
 3.5000e+000 74332 -1.6460e+001 -4.4815e+001 -1.5683e+000 61444 74159,74133,74306
 3.5000e+000 74355 -8.2574e+000 -2.9224e+001  1.0017e+001 61444 74378,74159,74306
 3.5000e+000 74404 -2.8877e+001 -3.0173e+001  1.7001e+001 61444 74211,74185,74378
 3.5000e+000 74427 -2.4412e+001 -3.9807e+001  1.5816e+001 61444 74211,74378,74306
 3.5000e+000 74628 -8.6201e+000 -4.1001e+001 -1.8846e+001 60990 74478,74530,74504
 3.5000e+000 74605 -6.5227e+000 -4.9249e+001 -2.6521e+001 60990 74452,74530,74478
 3.5000e+000 74582 -1.8944e+001 -5.1668e+001 -2.5818e+001 60990 74452,74556,74530
 3.5000e+000 75089 -7.6450e-001 -3.0432e+001 -8.7971e+000 60486 75112,74945,74919
 3.5000e+000 75066 -7.1234e+000 -1.0806e+000  7.6695e+000 60486 75112,74919,74867
 3.5000e+000 75043 -7.6682e-001 -5.1256e+001  1.7249e+001 60486 74841,74971,74867
 3.5000e+000 75020  2.2509e-001  6.0939e+000  1.3448e+000 60486 74867,74919,74893
 3.5000e+000 74997 -4.7865e+000 -5.3898e+001  1.6035e+001 60486 74815,74971,74841
 3.5000e+000 75138 -1.5382e+001 -4.2065e+001 -2.1428e+001 60486 74971,74945,75112
 3.5000e+000 75161 -2.1178e+001 -2.2074e+001 -3.6154e+000 60486 74971,75112,74867
 3.5000e+000 75409 -2.2917e+001 -1.0809e+001 -9.4814e+000 59932 75576,75432,75288
 3.5000e+000 75386 -2.7915e+001 -1.5637e+001 -9.3815e+000 59932 75504,75314,75288
 3.5000e+000 75363 -1.9313e+001 -5.7770e+000 -4.2198e-003 59932 75432,75236,75210
 3.5000e+000 75340 -8.4773e+000 -1.2282e+001 -1.6261e+001 59932 75576,75288,75262
 3.5000e+000 75458 -2.9206e+001 -1.3146e+001 -1.0129e+001 59932 75504,75288,75432
 3.5000e+000 75481 -3.1403e+001 -1.4525e+001 -5.7186e+000 59932 75184,75432,75210
 3.5000e+000 75530 -3.6822e+001 -3.8237e+001 -7.4877e+000 59932 75184,75314,75504
 3.5000e+000 75553 -3.0211e+001 -1.5909e+001 -1.0344e+001 59932 75184,75504,75432
 3.5000e+000 75602 -3.2213e+001 -2.0221e+001 -5.7133e+000 59932 75236,75432,75576
 3.5000e+000 75625 -2.5577e+001 -2.5570e+001 -1.0023e+001 59932 75236,75576,75262
 3.5000e+000 75873 -2.8848e+001 -1.1349e+002  4.7258e+000 59478 75674,75752,75700
 3.5000e+000 75850 -5.1504e+001 -1.2220e+002  2.7877e+001 59478 75648,75752,75674
 3.5000e+000 75827 -2.4236e+001 -1.0462e+002  9.0213e+000 59478 75700,75752,75726
 3.5000e+000 75804 -4.5573e+001 -1.4253e+002  3.2073e+001 59478 75648,75778,75752
 3.5000e+000 76206 -2.8241e+001 -1.1525e+002  1.2468e+001 59024 75981,76059,76007
 3.5000e+000 76183 -3.1525e+001 -1.1745e+002  1.3518e+001 59024 75981,76111,76059
 3.5000e+000 76160 -2.6743e+001 -8.7913e+001 -6.6803e+000 59024 76007,76059,76033
 3.5000e+000 76137 -1.9707e+001 -1.2858e+002  4.5329e+001 59024 76059,76111,76085
 3.5000e+000 76761 -1.8735e+001 -3.5347e+001 -1.9560e+000 58562 76389,76441,76415
 3.5000e+000 76738 -3.0226e+001 -3.7971e+001  1.3390e+001 58562 76856,76784,76389
 3.5000e+000 76715 -2.5607e+001 -1.6027e+001 -1.7537e+001 58562 76784,76571,76467
 3.5000e+000 76692 -1.8682e+001 -4.6469e+001  1.6297e+001 58562 76856,76389,76597
 3.5000e+000 76669 -2.4232e+001 -1.0869e+002  1.1535e+001 58562 76467,76545,76493
 3.5000e+000 76646 -1.3978e+001 -7.8686e+001 -3.8194e+001 58562 76467,76571,76545
 3.5000e+000 76623 -1.3551e+001 -8.6638e+001  2.3205e+001 58562 76493,76545,76519
 3.5000e+000 76810 -1.4086e+001 -3.8186e+001 -5.8726e-002 58562 76441,76389,76784
 3.5000e+000 76833 -6.7752e+001 -9.3309e+001 -4.2346e+001 58562 76441,76784,76467
 3.5000e+000 76882 -1.8233e+001 -2.6407e+001  1.8625e+001 58562 76571,76784,76856
 3.5000e+000 76905 -1.0011e+001 -3.7169e+001  2.0927e+001 58562 76571,76856,76597
 3.5000e+000 77055 -1.0220e+001 -7.0531e+001 -6.6064e+000 57844 76928,76980,76954
 3.5000e+000 77032 -2.8562e+001 -3.1032e+001 -7.4993e+000 57844 76928,77006,76980
 3.5000e+000 77533 -3.1127e+001 -1.1129e+002 -1.2432e+001 57226 77628,77556,77291
 3.5000e+000 77510 -2.4002e+001 -1.1315e+001  2.6310e+000 57226 77556,77187,77343
 3.5000e+000 77487  1.9121e+000 -7.6460e+001 -2.6339e+001 57226 77628,77291,77265
 3.5000e+000 77464 -6.0801e+000 -1.3181e+002  1.0498e+001 57226 77700,77213,77187
 3.5000e+000 77441 -2.1751e+001 -2.8943e+001 -2.4903e+001 57226 77161,77343,77187
 3.5000e+000 77418 -1.3236e+001 -2.6312e+001 -2.6371e+001 57226 77161,77369,77343
 3.5000e+000 77395 -1.5541e+000  2.3036e+000 -2.0627e+001 57226 77213,77265,77239
 3.5000e+000 77582 -3.4080e+001 -9.6760e+001  1.5044e+001 57226 77317,77291,77556
 3.5000e+000 77605 -2.8735e+001 -5.9086e+001  1.0331e+000 57226 77317,77556,77343
 3.5000e+000 77654  1.9170e+001 -5.8684e+001  1.4466e+001 57226 77187,77556,77628
 3.5000e+000 77677 -1.4019e+000 -1.2102e+002  1.1247e+001 57226 77700,77187,77628
 3.5000e+000 77726 -2.1147e+001 -1.4271e+002 -3.3787e+001 57226 77265,77213,77700
 3.5000e+000 77749 -3.7712e+000 -1.0317e+002 -3.0863e+001 57226 77265,77700,77628
 3.5000e+000 78046 -1.2411e+001 -9.8131e+001  2.7351e+001 56936 77798,77850,77824
 3.5000e+000 78023 -2.2347e+001 -1.0586e+002  3.0376e+001 56936 78069,77798,77902
 3.5000e+000 78000 -3.1850e+001 -1.0740e+002  2.8028e+001 56936 78069,77902,77876
 3.5000e+000 77977  1.2866e+001 -9.8081e+001 -8.3064e+000 56936 77798,77928,77902
 3.5000e+000 77954 -1.0969e+001 -2.7580e+001  6.4157e+000 56936 77772,77928,77798
 3.5000e+000 78095 -1.8892e+001 -1.0642e+002  3.1265e+001 56936 77850,77798,78069
 3.5000e+000 78118 -2.3338e+001 -1.0460e+002  2.8900e+001 56936 77850,78069,77876
 3.5000e+000 78754 -2.7910e-001 -7.5906e+001 -1.3916e+001 56475 78777,78486,78408
 3.5000e+000 78731 -8.8670e+000 -8.3947e+001 -1.0077e+001 56475 78777,78408,78382
 3.5000e+000 78708 -9.4293e+000 -8.9189e+001 -2.2783e+001 56475 78849,78512,78486
 3.5000e+000 78685 -2.9839e+001 -6.2281e+001 -3.4303e+000 56475 78382,78590,78564
 3.5000e+000 78662 -1.8607e+001 -9.7041e+001 -2.3789e+001 56475 78512,78564,78538
 3.5000e+000 78639  1.1389e-002 -1.7304e+002  1.5698e+001 56475 78434,78486,78460
 3.5000e+000 78616 -4.3012e+001 -1.6126e+002  7.9277e+000 56475 78408,78486,78434
 3.5000e+000 78803 -7.7186e+000 -8.2810e+001 -1.6974e+001 56475 78849,78486,78777
 3.5000e+000 78826 -3.1367e+000 -7.0969e+001 -8.7337e+000 56475 78564,78777,78382
 3.5000e+000 78875 -6.6726e+000 -7.7746e+001 -1.8540e+001 56475 78564,78512,78849
 3.5000e+000 78898 -7.4248e+000 -7.1267e+001 -1.4143e+001 56475 78564,78849,78777
 3.5000e+000 79276 -4.4789e+001 -7.6213e+001  5.2416e-001 55964 79299,79080,79028
 3.5000e+000 79253 -3.5353e+001 -7.6401e+001  3.9002e+000 55964 79299,79028,79132
 3.5000e+000 79230 -4.9673e+001 -1.0764e+002 -9.5429e-002 55964 79028,79080,79054
 3.5000e+000 79207 -2.0205e+001 -6.6366e+001  8.2626e+000 55964 79002,79132,79028
 3.5000e+000 79184  1.2418e+000 -5.6193e+001 -1.9389e+000 55964 79002,79158,79132
 3.5000e+000 79325 -3.9895e+001 -7.4476e+001  6.5553e+000 55964 79106,79080,79299
 3.5000e+000 79348 -3.0189e+001 -7.5425e+001  9.4904e+000 55964 79106,79299,79132
 3.5000e+000 79498 -3.4850e+001 -1.0053e+002  1.0059e+001 55452 79397,79449,79423
 3.5000e+000 79475 -5.5625e+001 -9.1334e+001  1.0230e+000 55452 79371,79449,79397
 3.5000e+000 79795 -4.6710e+001 -9.2898e+001  3.4917e+000 55048 79962,79818,79573
 3.5000e+000 79772 -3.7438e+001 -8.5521e+001 -2.8937e+000 55048 79818,79521,79677
 3.5000e+000 79749 -3.4051e+001 -1.3487e+002  2.4811e+001 55048 79599,79651,79625
 3.5000e+000 79726 -4.8654e+001 -1.1573e+002  2.2322e+001 55048 79890,79651,79599
 3.5000e+000 79703 -3.9732e+001 -9.3353e+001  1.3080e+001 55048 79962,79573,79547
 3.5000e+000 79844 -4.1098e+001 -7.9494e+001  6.8686e+000 55048 79599,79573,79818
 3.5000e+000 79867 -4.6624e+001 -1.0302e+002  9.7892e+000 55048 79890,79599,79818
 3.5000e+000 79916 -2.8473e+001 -1.0495e+002  1.0823e+001 55048 79677,79651,79890
 3.5000e+000 79939 -3.0307e+001 -9.9503e+001 -8.8952e-001 55048 79677,79890,79818
 3.5000e+000 79988 -5.9242e+001 -9.6921e+001  5.0250e+000 55048 79521,79818,79962
 3.5000e+000 80011 -5.8933e+001 -9.8593e+001  1.3272e+001 55048 79521,79962,79547
 3.5000e+000 80212 -3.4785e+001 -7.3061e+001  1.3520e+001 54436 80235,80088,80036
 3.5000e+000 80189 -1.8812e+001 -5.7292e+001  6.8770e+000 54436 80235,80036,80140
 3.5000e+000 80166 -3.4352e+001 -1.0481e+002 -5.4026e+000 54436 80036,80088,80062
 3.5000e+000 80261 -1.9434e+001 -9.7019e+001  2.6358e+001 54436 80114,80088,80235
 3.5000e+000 80284  1.3836e+000 -7.9768e+001  1.8432e+001 54436 80114,80235,80140
 3.5000e+000 80534 -6.7180e+000 -4.9342e+001  1.0184e+001 54032 80557,80361,80335
 3.5000e+000 80511 -8.6997e+000 -6.1741e+001  1.8272e+001 54032 80557,80335,80309
 3.5000e+000 80488 -8.7771e+000 -5.5386e+001  6.1432e+000 54032 80629,80413,80387
 3.5000e+000 80465 -2.1543e+001 -9.1344e+001  1.0374e+001 54032 80309,80439,80413
 3.5000e+000 80583 -2.9001e+000 -1.5861e+001  6.3681e+000 54032 80387,80361,80557
 3.5000e+000 80606 -6.2673e+000 -4.7913e+001  1.1339e+001 54032 80629,80387,80557
 3.5000e+000 80655 -1.3437e+001 -5.6408e+001  2.0896e+000 54032 80309,80413,80629
 3.5000e+000 80678 -1.6033e+001 -5.4615e+001  6.5242e+000 54032 80309,80629,80557
 3.5000e+000 81139 -8.3722e+000 -1.1968e+001  1.9365e+001 53784 80865,80995,80917
 3.5000e+000 81116  3.9285e+000  2.6421e+000 -4.5939e+000 53784 80865,81021,80995
 3.5000e+000 81093 -1.0879e+001 -6.2365e+001  3.7604e+001 53784 80943,80995,80969
 3.5000e+000 81070 -2.0725e+001 -2.6591e+001  1.3501e+001 53784 80917,80995,80943
 3.5000e+000 81047  3.7106e+000 -1.2871e+002  3.8336e+000 53784 80865,80917,80891
 3.5000e+000 81468 -9.0899e+000 -4.3948e+001  1.1909e+001 53230 81295,81373,81347
 3.5000e+000 81445 -4.2693e+000 -5.9073e+001  1.6658e+001 53230 81243,81373,81295
 3.5000e+000 81422 -3.2235e+001 -7.1364e+001 -2.8004e+000 53230 81243,81295,81269
 3.5000e+000 81399  2.7092e+000 -3.0219e+001 -1.1166e+001 53230 81295,81347,81321
 3.5000e+000 81618  2.3060e+000  5.3010e+000 -8.4118e-001 52790 81491,81543,81517
 3.5000e+000 81595 -7.3437e-001 -5.6296e+001  8.3117e+000 52790 81491,81569,81543
 3.5000e+000 82126  2.2780e+001 -1.1680e+001 -2.7323e+001 52386 82149,81907,81881
 3.5000e+000 82103  3.8394e+000 -4.6754e+001 -1.4138e+001 52386 82149,81881,81855
 3.5000e+000 82080 -4.9152e+000 -3.9911e+001 -2.2852e-001 52386 82221,81803,81985
 3.5000e+000 82057 -3.7556e+001 -6.0592e+001 -1.9712e+000 52386 81803,81855,81829
 3.5000e+000 82034 -3.4940e-001 -6.3871e+001 -1.5064e+001 52386 81907,81985,81933
 3.5000e+000 82011 -1.3288e+001 -4.5660e+001 -2.3642e+001 52386 81933,81985,81959
 3.5000e+000 82175  5.0385e+000 -4.3590e+001 -1.0387e+001 52386 81985,81907,82149
 3.5000e+000 82198  1.2142e+001 -4.1901e+001 -7.2329e+000 52386 82221,81985,82149
 3.5000e+000 82247 -1.2498e+001 -4.6774e+001  8.4018e+000 52386 81855,81803,82221
 3.5000e+000 82270 -4.2212e+000 -5.4632e+001  1.7878e+000 52386 81855,82221,82149
 3.5000e+000 82825 -2.7864e+001 -5.9538e+001  1.5181e+000 51782 82505,82661,82635
 3.5000e+000 82802 -5.8628e+001 -9.0873e+001 -1.5634e+001 51782 82479,82661,82505
 3.5000e+000 82779 -3.2732e+001 -1.0808e+002 -3.7831e+001 51782 82557,82635,82609
 3.5000e+000 82756 -2.6877e+001 -9.3221e+001 -7.2775e+000 51782 82531,82635,82557
 3.5000e+000 82733 -4.0039e+001 -7.2000e+001 -1.1120e+001 51782 82505,82635,82531
 3.5000e+000 82710 -6.5140e+000 -4.4612e+001  1.2070e+001 51782 82453,82661,82479
 3.5000e+000 82687  3.9379e-001 -6.2703e+001 -2.0691e+001 51782 82557,82609,82583
 3.5000e+000 83171 -4.3492e+001 -1.0846e+002  1.5883e+001 51442 83194,82978,82900
 3.5000e+000 83148 -6.2462e+001 -9.2597e+001  1.2691e+001 51442 83194,82900,82874
 3.5000e+000 83125 -4.6354e+001 -1.0974e+002  1.5358e+001 51442 82900,82978,82926
 3.5000e+000 83102 -4.3132e+001 -8.1694e+001  8.1061e+000 51442 82874,83030,83004
 3.5000e+000 83079 -1.7255e+001 -1.0318e+002  1.1074e+001 51442 82926,82978,82952
 3.5000e+000 83056 -1.8120e+001 -8.0402e+001  9.5015e+000 51442 82848,83030,82874
 3.5000e+000 83220 -3.1117e+001 -1.0098e+002  1.2583e+001 51442 83004,82978,83194
 3.5000e+000 83243 -5.1741e+001 -8.5757e+001  9.3845e+000 51442 83004,83194,82874
 3.5000e+000 83751 -4.4459e+001 -4.2923e+001  1.6687e+000 50938 83428,83584,83454
 3.5000e+000 83728 -3.7181e+001 -4.0967e+001  8.8535e+000 50938 83428,83610,83584
 3.5000e+000 83705 -3.9455e+001 -5.5837e+001  7.1969e-001 50938 83454,83584,83558
 3.5000e+000 83682 -1.7670e+001 -4.9885e+001  9.2198e+000 50938 83454,83532,83480
 3.5000e+000 83659 -2.5401e+001 -4.7370e+001  1.0709e+001 50938 83454,83558,83532
 3.5000e+000 83636 -3.3738e+001 -7.3996e+001 -8.6140e-001 50938 83480,83532,83506
 3.5000e+000 84355  1.6236e+000 -7.1548e+001  1.2176e+000 50377 84378,83960,83934
 3.5000e+000 84332  1.0789e+001 -4.6244e+001  6.4192e+000 50377 84522,84378,83934
 3.5000e+000 84309 -1.7193e-001 -5.2362e+001 -6.6188e+000 50377 84450,84038,84012
 3.5000e+000 84286  6.3484e+000 -3.4261e+001  4.9378e+000 50377 84522,83934,84142
 3.5000e+000 84263  5.0294e+000 -3.1681e+001 -6.4620e+000 50377 84594,84090,84038
 3.5000e+000 84240 -2.8132e+001 -5.8414e+001 -8.0658e+000 50377 83960,84012,83986
 3.5000e+000 84217  1.1120e+001 -1.9367e+001 -1.6463e+001 50377 83934,84168,84142
 3.5000e+000 84194  2.6519e+000 -6.0851e+000  1.2286e+001 50377 84038,84090,84064
 3.5000e+000 84404 -2.0853e+001 -6.5431e+001 -1.4247e+001 50377 84012,83960,84378
 3.5000e+000 84427  7.2095e+000 -4.8072e+001 -3.1019e+000 50377 84450,84012,84378
 3.5000e+000 84476  4.6159e+000 -4.0539e+001 -7.0402e+000 50377 84594,84038,84450
 3.5000e+000 84499  3.7738e+000 -6.4156e+001 -4.7964e+000 50377 84116,84450,84378
 3.5000e+000 84548  1.2497e+001 -6.3734e+001  2.7548e-001 50377 84116,84378,84522
 3.5000e+000 84571  1.0513e+001 -4.8506e+001 -1.6635e+000 50377 84116,84522,84142
 3.5000e+000 84620  9.7598e+000 -4.5595e+001  9.0961e-002 50377 84116,84090,84594
 3.5000e+000 84643  9.5650e+000 -5.3762e+001  1.4714e-001 50377 84116,84594,84450
 3.5000e+000 84842 -2.1605e+001 -1.1247e+002  1.1822e+001 49923 84865,84692,84666
 3.5000e+000 84819 -4.7265e+001 -1.0958e+002 -2.1299e+000 49923 84865,84666,84770
 3.5000e+000 84796 -9.3691e+000 -1.4498e+002 -1.1737e+001 49923 84692,84744,84718
 3.5000e+000 84891 -3.7884e+001 -1.1677e+002 -2.3919e+000 49923 84744,84692,84865
 3.5000e+000 84914 -6.7089e+001 -1.2196e+002 -1.8474e+001 49923 84744,84865,84770
 3.5000e+000 85501 -7.6678e+000 -6.4500e+001  8.8888e+000 49618 85524,85282,85204
 3.5000e+000 85478 -6.6496e+000 -6.5715e+001  6.9522e+000 49618 85596,85524,85204
 3.5000e+000 85455 -3.5200e+000 -7.2844e+001  6.4941e+000 49618 85596,85204,85178
 3.5000e+000 85432 -2.0290e+001 -7.2148e+001  1.2287e+001 49618 85204,85282,85256
 3.5000e+000 85409 -2.6529e+001 -1.0311e+002 -3.2973e+000 49618 85282,85334,85308
 3.5000e+000 85386 -1.8796e+001 -7.5080e+001 -6.0553e-001 49618 85204,85256,85230
 3.5000e+000 85550 -6.3735e+000 -6.5946e+001  4.9051e+000 49618 85334,85282,85524
 3.5000e+000 85573 -1.5209e+001 -6.9440e+001  5.9158e+000 49618 85334,85524,85360
 3.5000e+000 85622 -1.1667e+001 -7.4498e+001  9.8484e+000 49618 85360,85524,85596
 3.5000e+000 85645 -6.0436e+000 -7.8667e+001  8.6428e+000 49618 85360,85596,85178
 3.5000e+000 85795 -6.3994e+001 -1.8221e+002 -1.8421e+001 49278 85694,85746,85720
 3.5000e+000 85772 -7.4873e+001 -3.1708e+002 -1.5027e+001 49278 85668,85746,85694
 3.5000e+000 86197 -3.6509e+001 -1.1751e+002 -3.4591e+000 48916 86001,86079,86027
 3.5000e+000 86174 -1.1905e+001 -6.1571e+001 -7.1824e+000 48916 85949,86079,86001
 3.5000e+000 86151 -3.3947e+000 -1.2216e+002 -3.2187e+000 48916 85949,86001,85975
 3.5000e+000 86128 -4.0062e+001 -1.3675e+002 -6.9667e+000 48916 86027,86079,86053
 3.5000e+000 86105 -4.0478e+000 -3.8463e+001  1.1108e+001 48916 85923,86079,85949
 3.5000e+000 86477 -2.8171e+001 -5.2134e+001  4.4795e+000 48398 86327,86379,86353
 3.5000e+000 86454 -1.7241e+001 -5.9308e+001  1.2932e+001 48398 86500,86379,86327
 3.5000e+000 86431 -1.6232e+001 -3.9924e+001  1.5168e+001 48398 86301,86405,86379
 3.5000e+000 86526 -2.1831e+001 -4.9113e+001  2.1162e+001 48398 86301,86379,86500
 3.5000e+000 87032 -1.7574e+001 -7.5588e+001 -1.4941e+001 48008 87127,87055,86787
 3.5000e+000 87009 -2.6235e+001 -1.1711e+002  5.8340e+000 48008 87055,86735,86709
 3.5000e+000 86986 -3.5270e+001 -6.5213e+001 -1.1822e+001 48008 87127,86787,86761
 3.5000e+000 86963 -2.1877e+001 -5.2864e+001 -7.0304e+000 48008 86787,86865,86839
 3.5000e+000 86940 -8.1700e+000 -5.4547e+001  1.2987e+001 48008 86709,86891,86865
 3.5000e+000 86917 -4.2032e+001 -5.8643e+001 -7.4662e+000 48008 86787,86839,86813
 3.5000e+000 87081 -2.6432e+001 -7.8991e+001 -6.8833e+000 48008 86865,86787,87055
 3.5000e+000 87104 -1.1055e+001 -5.6893e+001  1.4124e+001 48008 86865,87055,86709
 3.5000e+000 87153 -3.8385e+001 -9.9194e+001 -2.4236e+001 48008 86735,87055,87127
 3.5000e+000 87176 -5.8275e+001 -7.5593e+001 -2.2565e+001 48008 86735,87127,86761
 3.5000e+000 87456 -2.6316e+001 -8.1433e+001  1.5401e+001 47604 87306,87358,87332
 3.5000e+000 87433  1.6139e+001 -5.2871e+001  1.3637e+000 47604 87306,87384,87358
 3.5000e+000 87410 -1.4386e+001 -6.5917e+001  1.7271e+000 47604 87280,87384,87306
 3.5000e+000 87785  5.4333e+000 -7.7259e+001  1.7359e+001 47264 87638,87690,87664
 3.5000e+000 87762 -2.3085e+001 -1.1684e+002  3.0619e+001 47264 87612,87690,87638
 3.5000e+000 87739 -2.9638e+001 -1.3850e+002  3.1613e+001 47264 87560,87690,87612
 3.5000e+000 87716 -1.9325e+001 -1.5521e+002  1.6444e+001 47264 87560,87612,87586
 3.5000e+000 87935  1.3332e+000  2.7790e+000  2.0214e+000 46952 87808,87860,87834
 3.5000e+000 87912 -2.0472e+000 -8.8678e+000  1.0204e-001 46952 87808,87886,87860
 3.5000e+000 88281 -2.2872e+001 -9.0497e+001  6.2486e+000 46526 88304,88114,88036
 3.5000e+000 88258 -2.1345e+001 -8.7639e+001  7.4294e+000 46526 88304,88036,87984
 3.5000e+000 88235 -2.3345e+001 -8.9587e+001  3.0272e+000 46526 88036,88114,88062
 3.5000e+000 88212 -1.2392e+001 -7.8593e+001  1.4063e+001 46526 87958,88140,87984
 3.5000e+000 88189 -1.7760e+001 -7.9809e+001  1.3502e+001 46526 87984,88036,88010
 3.5000e+000 88166 -2.0043e+001 -6.7506e+001  1.5576e+001 46526 88062,88114,88088
 3.5000e+000 88330 -2.5039e+001 -8.7341e+001  5.9004e+000 46526 88140,88114,88304
 3.5000e+000 88353 -2.4073e+001 -8.4854e+001  6.6915e+000 46526 88140,88304,87984
 3.5000e+000 88701  1.9632e+001 -5.6546e+001  2.4933e+001 45822 88724,88378,88534
 3.5000e+000 88678  2.0421e+001 -3.6203e+001  2.7690e+001 45822 88378,88560,88534
 3.5000e+000 88655 -9.2925e+000 -6.6299e+001  2.2623e+001 45822 88724,88534,88508
 3.5000e+000 88632 -3.3410e+001 -8.3145e+001  6.9289e+000 45822 88404,88508,88456
 3.5000e+000 88609 -3.3871e+001 -8.4505e+001  6.4595e+000 45822 88404,88456,88430
 3.5000e+000 88586 -1.0089e+001 -3.5542e+001 -1.8650e+001 45822 88456,88508,88482
 3.5000e+000 88750 -3.7059e+000 -5.2035e+001  8.4367e+000 45822 88404,88378,88724
 3.5000e+000 88773 -2.6148e+001 -5.7980e+001  5.8708e+000 45822 88404,88724,88508
 3.5000e+000 89106 -2.5019e+001 -1.8179e+001  1.8580e+001 45418 88881,88985,88907
 3.5000e+000 89083 -1.2732e+000 -2.4153e+001  1.6395e+001 45418 88881,89011,88985
 3.5000e+000 89060 -3.5502e+000 -2.5555e+001  1.2647e+001 45418 88907,88985,88933
 3.5000e+000 89037  1.7735e+000 -2.1184e+000  1.4589e+001 45418 88933,88985,88959
 3.5000e+000 89435 -2.4270e+001 -7.1610e+001  2.4245e+001 44914 89210,89288,89236
 3.5000e+000 89412 -4.6503e+001 -1.0335e+002  3.5806e+001 44914 89210,89314,89288
 3.5000e+000 89389 -7.4133e+000 -6.4923e+001  1.8335e+001 44914 89210,89340,89314
 3.5000e+000 89366 -3.2905e+001 -7.6659e+001  2.7001e+001 44914 89236,89288,89262
 3.5000e+000 89634 -2.2750e+001 -7.8224e+001  3.4992e+001 44538 89510,89562,89536
 3.5000e+000 89611 -3.3528e+001 -6.2547e+001  1.3954e+001 44538 89458,89562,89510
 3.5000e+000 89588 -2.7018e+001 -7.3027e+001  1.1884e+001 44538 89458,89510,89484
 3.5000e+000 90044 -2.2190e+000 -2.7657e+001  8.0982e+000 44134 89819,89923,89845
 3.5000e+000 90021 -2.1500e+001 -3.2444e+001 -1.9207e+001 44134 89819,89949,89923
 3.5000e+000 89998  3.6275e+000 -4.0819e-001  6.5100e+000 44134 89845,89923,89897
 3.5000e+000 89975 -9.2226e+000 -4.4109e+001  1.2812e+001 44134 89845,89897,89871
 3.5000e+000 90520  1.2084e-001 -4.5453e+001  1.6699e+001 43457 90543,90252,90226
 3.5000e+000 90497  6.8172e+000 -7.1764e+001 -1.6119e-001 43457 90543,90226,90330
 3.5000e+000 90474 -5.1252e+000 -6.7298e+001 -7.4307e+000 43457 90200,90330,90226
 3.5000e+000 90451 -1.5485e+001 -5.1802e+001  2.1541e+001 43457 90200,90356,90330
 3.5000e+000 90428  2.7942e+000 -5.0632e+001  1.8854e+000 43457 90252,90304,90278
 3.5000e+000 90405 -1.9503e+001 -1.9168e+001  2.1404e+001 43457 90174,90356,90200
 3.5000e+000 90382 -7.3885e+000 -1.7117e+001  2.3820e+001 43457 90148,90356,90174
 3.5000e+000 90569  6.1952e-001 -7.2587e+001  8.9611e+000 43457 90304,90252,90543
 3.5000e+000 90592 -5.1243e+000 -1.1336e+002 -9.9376e+000 43457 90304,90543,90330
 3.5000e+000 91098 -1.6760e+001 -6.1801e+001 -2.3422e+000 42789 90801,90905,90853
 3.5000e+000 91075 -2.7492e+001 -7.8654e+001  2.3519e+000 42789 90775,90905,90801
 3.5000e+000 91052 -2.0803e+001 -7.8782e+001  1.4231e+001 42789 90775,90931,90905
 3.5000e+000 91029 -2.8572e+001 -1.0326e+002  3.3073e+000 42789 90801,90853,90827
 3.5000e+000 91006  4.8470e+000 -5.3525e+001  2.1343e+000 42789 90853,90905,90879
 3.5000e+000 90983 -2.5654e+001 -8.5827e+001  1.6041e+001 42789 90775,90957,90931
 3.5000e+000 91427 -1.0760e+001 -9.3892e+001  3.6712e+000 42227 91228,91280,91254
 3.5000e+000 91404  1.1735e+001 -7.5695e+001 -4.3002e+000 42227 91228,91306,91280
 3.5000e+000 91381 -1.9601e+001 -8.5644e+001  7.3633e+000 42227 91202,91306,91228
 3.5000e+000 91358  6.7322e+000 -5.8358e+001 -8.0505e+000 42227 91202,91332,91306
 3.5000e+000 91675 -1.4706e+001 -6.8413e+001  1.7106e+001 41773 91698,91476,91450
 3.5000e+000 91652 -6.5818e+000 -6.0796e+001  3.2702e+001 41773 91698,91450,91554
 3.5000e+000 91629 -2.5532e+001 -5.6372e+001  3.6758e+001 41773 91450,91580,91554
 3.5000e+000 91606 -1.1947e+001 -7.9855e+001  1.8288e+001 41773 91502,91554,91528
 3.5000e+000 91724 -2.7940e+001 -7.0670e+001  9.6320e+000 41773 91502,91476,91698
 3.5000e+000 91747 -2.2487e+001 -6.3935e+001  2.5338e+001 41773 91502,91698,91554
 3.5000e+000 92127 -4.6086e+001 -8.0946e+001 -8.1559e+000 41255 92150,91905,91879
 3.5000e+000 92104 -1.1206e+001 -7.3021e+001 -2.2274e+001 41255 92150,91879,91957
 3.5000e+000 92081  1.2483e+001 -1.2171e+002  1.9301e+001 41255 91853,91957,91879
 3.5000e+000 92058  1.1166e+001 -1.2401e+002  1.4293e+001 41255 91853,91983,91957
 3.5000e+000 92035 -4.2945e+000 -6.4946e+001 -5.1850e+000 41255 91853,92009,91983
 3.5000e+000 92176 -1.3937e+001 -9.4628e+001 -2.6082e+001 41255 91931,91905,92150
 3.5000e+000 92199  3.9920e+001 -6.2457e+001 -4.7359e+001 41255 91931,92150,91957
 3.5000e+000 92518 -2.0251e+001 -1.2384e+002 -1.3201e+001 41007 92244,92374,92270
 3.5000e+000 92495 -6.1124e+001 -1.3059e+002 -1.1539e+001 41007 92244,92400,92374
 3.5000e+000 92472 -8.8972e+000 -1.0195e+002 -1.9875e+000 41007 92270,92374,92348
 3.5000e+000 92449 -8.7723e+000 -2.8241e+001  1.5452e+001 41007 92296,92348,92322
 3.5000e+000 92426 -7.7494e+000 -6.2705e+001 -5.9718e+000 41007 92270,92348,92296
 3.5000e+000 92668 -2.4627e+001 -7.4114e+001 -1.7668e+001 40717 92823,92691,92567
 3.5000e+000 92645 -2.5190e+001 -6.8400e+001 -1.7117e+001 40717 92895,92823,92567
 3.5000e+000 92717 -1.0665e+001 -6.7467e+001 -1.2044e+001 40717 92593,92567,92691
 3.5000e+000 92849 -1.9745e+001 -7.0147e+001 -1.9648e+001 40717 92619,92691,92823
 3.5000e+000 92872 -2.6602e+001 -6.4795e+001 -1.0912e+001 40717 92619,92823,92541
 3.5000e+000 92921 -3.4523e+001 -7.9626e+001 -7.9331e+000 40717 92541,92823,92895
 3.5000e+000 93634 -5.2111e+001 -2.0857e+002 -3.6824e+000 40206 93366,93444,93418
 3.5000e+000 93611 -2.5580e+001 -8.6389e+001 -5.9023e+000 40206 93288,93444,93366
 3.5000e+000 93588 -6.9360e+001 -1.5593e+002  1.2760e+001 40206 93288,93366,93314
 3.5000e+000 93565 -4.5029e+001 -8.8603e+001  2.6800e+000 40206 93262,93444,93288
 3.5000e+000 93542 -9.6095e+000 -1.7477e+002  1.1910e+001 40206 93366,93418,93392
 3.5000e+000 93519 -4.2878e+001 -1.1631e+002  6.5763e+000 40206 93262,93470,93444
 3.5000e+000 93496 -3.7836e+001 -1.4307e+002  2.7295e+001 40206 93314,93366,93340
 3.5000e+000 94189 -1.8975e+001 -5.1349e+001  1.3845e+001 39802 93843,93999,93973
 3.5000e+000 94166  2.4863e+001 -2.5797e+001 -2.7006e+000 39802 93817,93999,93843
 3.5000e+000 94143 -9.5507e+000 -3.1993e+001 -2.5895e-001 39802 93869,93973,93947
 3.5000e+000 94120 -4.3375e+000 -3.4600e+001  7.6429e+000 39802 93843,93973,93869
 3.5000e+000 94097 -7.2865e+000 -3.8696e+001  2.2073e+000 39802 93869,93921,93895
 3.5000e+000 94074 -4.5326e+000 -3.3512e+001 -1.5784e+000 39802 93869,93947,93921
 3.5000e+000 94051 -3.2768e+001 -4.6264e+001  1.9461e+001 39802 93817,94025,93999
 3.5000e+000 94290 -1.2506e+001 -4.7186e+001 -1.2559e+001 39398 94212,94264,94238
 3.5000e+000 94798 -1.3608e+001 -7.9066e+001 -3.3190e+000 38701 94501,94657,94631
 3.5000e+000 94775 -2.0773e+001 -6.4911e+001  6.3852e+000 38701 94475,94657,94501
 3.5000e+000 94752  1.4191e+001 -6.5153e+001 -9.5708e+000 38701 94579,94631,94605
 3.5000e+000 94729 -1.9144e+001 -1.2752e+002 -2.2588e+001 38701 94553,94631,94579
 3.5000e+000 94706 -3.9475e+001 -1.2618e+002  9.9364e+000 38701 94501,94631,94553
 3.5000e+000 94683 -2.6597e+001 -2.2391e+002  3.4159e+000 38701 94501,94553,94527
 3.5000e+000 95255 -4.0872e+001 -1.1054e+002 -4.6659e+000 38247 95278,95085,95007
 3.5000e+000 95232 -2.7885e+001 -1.0658e+002 -6.0142e+000 38247 95278,95007,95137
 3.5000e+000 95209 -1.3885e+001 -8.9412e+001  9.3268e-001 38247 94981,95137,95007
 3.5000e+000 95186 -2.7821e+001 -7.3363e+001 -6.3243e+000 38247 95007,95059,95033
 3.5000e+000 95163 -2.8405e+001 -8.0218e+001 -1.7585e+001 38247 95007,95085,95059
 3.5000e+000 95304 -4.5552e+001 -1.1136e+002  6.4158e+000 38247 95111,95085,95278
 3.5000e+000 95327 -3.3631e+001 -1.0572e+002  3.6613e+000 38247 95111,95278,95137
 3.5000e+000 95575 -1.7004e+001 -1.4572e+001 -4.8684e+000 37564 95376,95428,95402
 3.5000e+000 95552 -1.4230e+001 -2.8734e+001 -5.1923e+000 37564 95376,95454,95428
 3.5000e+000 95529  1.2772e+000 -1.9237e+001  2.2114e-001 37564 95376,95480,95454
 3.5000e+000 95506  1.9008e+001 -4.4104e+001 -4.1636e+000 37564 95350,95480,95376
 3.5000e+000 96034 -3.3790e+001 -1.1052e+002 -2.6006e+001 37224 95786,95838,95812
 3.5000e+000 96011 -5.8509e+000 -7.2128e+001 -3.0298e+000 37224 95786,95890,95838
 3.5000e+000 95988 -2.2595e+001 -6.7507e+001  1.7437e+000 37224 95786,95916,95890
 3.5000e+000 95965  2.5844e+000 -4.3602e+001 -1.9639e+001 37224 95760,95916,95786
 3.5000e+000 95942 -8.5766e+000 -8.9829e+001 -2.1946e+001 37224 95838,95890,95864
 3.5000e+000 96363 -6.4723e+000 -1.0615e+001 -7.4847e+000 36884 96216,96268,96242
 3.5000e+000 96340  4.9763e+000 -1.3539e+001 -8.4111e+000 36884 96164,96268,96216
 3.5000e+000 96317  1.9585e+001 -1.2099e+001 -4.9956e+000 36884 96138,96268,96164
 3.5000e+000 96294 -2.3311e+000 -2.6114e+001 -1.5258e+000 36884 96164,96216,96190
 3.5000e+000 96839 -1.7252e+001 -9.1439e+001  2.1376e+001 36572 96862,96649,96597
 3.5000e+000 96816  6.6427e+000 -7.7508e+001  1.1359e+001 36572 97006,96862,96597
 3.5000e+000 96793  1.2763e+001 -2.7708e+001 -8.7205e+000 36572 96934,96467,96675
 3.5000e+000 96770  9.0225e+000 -7.7095e+001  1.1756e+001 36572 97006,96597,96571
 3.5000e+000 96747  3.6984e+000 -7.3903e+001  9.0400e+000 36572 96467,96519,96493
 3.5000e+000 96724  1.5540e+001 -5.9116e+001  7.2844e+000 36572 96519,96571,96545
 3.5000e+000 96701 -2.7017e+001 -7.0026e+001 -3.1904e-001 36572 96597,96649,96623
 3.5000e+000 96888  8.8074e+000 -9.0629e+001 -5.1966e+000 36572 96675,96649,96862
 3.5000e+000 96911  1.9325e+001 -6.2420e+001 -1.2041e+001 36572 96934,96675,96862
 3.5000e+000 96960  5.8141e+000 -6.1305e+001 -2.9169e+000 36572 96519,96467,96934
 3.5000e+000 96983  1.5041e+001 -8.6721e+001  7.3016e-001 36572 97078,96934,96862
 3.5000e+000 97032  5.6574e+000 -8.3397e+001  1.0736e+001 36572 97078,96862,97006
 3.5000e+000 97055  8.4723e+000 -7.3891e+001  1.0203e+001 36572 96519,97006,96571
 3.5000e+000 97104  2.1523e+001 -7.2877e+001 -3.0975e+000 36572 96519,96934,97078
 3.5000e+000 97127  1.6630e+001 -6.7749e+001  5.6524e+000 36572 96519,97078,97006
 3.5000e+000 97761 -1.7043e+000 -7.4136e+001 -8.9284e+000 36118 97784,97493,97415
 3.5000e+000 97738 -3.5030e+000 -8.4357e+001 -1.1915e+000 36118 97784,97415,97597
 3.5000e+000 97715 -5.7537e+000 -9.1831e+001 -1.1214e+001 36118 97389,97597,97415
 3.5000e+000 97692 -2.6717e+001 -9.5080e+001  7.2870e+000 36118 97415,97467,97441
 3.5000e+000 97669 -2.5367e+001 -8.7291e+001  5.9626e+000 36118 97415,97493,97467
 3.5000e+000 97646 -2.1747e+001 -3.9647e+001 -5.4446e+000 36118 97493,97571,97519
 3.5000e+000 97623 -2.1564e+001 -5.2523e+001  1.1869e+000 36118 97519,97571,97545
 3.5000e+000 97810 -4.7719e+000 -5.7109e+001 -1.4792e+001 36118 97571,97493,97784
 3.5000e+000 97833 -1.4509e+001 -6.9755e+001 -3.7500e+000 36118 97571,97784,97597
 3.5000e+000 98081 -7.0256e+000 -3.0108e+001 -6.2183e+000 35564 98104,97908,97856
 3.5000e+000 98058 -2.6182e+000 -4.0800e+001 -1.0690e+001 35564 98104,97856,97986
 3.5000e+000 98035  3.5940e+001 -2.6836e+001  1.4637e+001 35564 97934,97986,97960
 3.5000e+000 98012 -9.1552e+000 -3.7734e+001 -1.8676e-003 35564 97856,97908,97882
 3.5000e+000 98130  7.3002e+000  2.5694e+000  1.2002e+000 35564 97934,97908,98104
 3.5000e+000 98153 -5.5520e+000 -3.0604e+001 -6.7793e+000 35564 97934,98104,97986
 3.5000e+000 98374  3.0825e+000 -1.6465e+001 -2.3302e+000 35152 98224,98302,98276
 3.5000e+000 98351 -1.6890e+001 -6.5863e+001  1.1938e+000 35152 98198,98302,98224
 3.5000e+000 98328  1.4361e+001 -8.5198e+000 -5.8856e+000 35152 98224,98276,98250
 3.5000e+000 98884 -3.1368e+000 -6.3371e+001 -1.5234e+001 34698 98691,98743,98717
 3.5000e+000 98861 -9.7529e+000 -7.4981e+001 -2.2010e+001 34698 98561,98743,98691
 3.5000e+000 98838 -2.0144e+001 -6.5334e+001 -2.3427e+001 34698 98907,98587,98561
 3.5000e+000 98815 -2.6881e+001 -7.6015e+001 -1.7384e+001 34698 98907,98561,98691
 3.5000e+000 98792 -3.5090e+001 -7.1799e+001 -1.2092e+001 34698 98587,98639,98613
 3.5000e+000 98769 -2.6644e+001 -5.7121e+001 -1.6355e+001 34698 98587,98665,98639
 3.5000e+000 98933 -2.2767e+001 -7.1171e+001 -1.2842e+001 34698 98665,98587,98907
 3.5000e+000 98956 -3.3079e+001 -8.7992e+001 -6.2422e+000 34698 98665,98907,98691
 3.5000e+000 99204  2.9941e+000 -8.9050e+001 -8.2647e+000 34144 99227,99031,99005
 3.5000e+000 99181 -8.4717e+000 -8.5754e+001 -1.5333e+001 34144 99299,99227,99005
 3.5000e+000 99158 -8.8972e+000 -8.4921e+001 -1.3753e+001 34144 99299,99005,99109
 3.5000e+000 99135 -8.3548e+000 -6.7445e+001 -8.0968e+000 34144 98979,99109,99005
 3.5000e+000 99253 -4.6079e+000 -1.0163e+002 -1.1507e+001 34144 99057,99031,99227
 3.5000e+000 99276 -1.1741e+001 -8.9119e+001 -1.7749e+001 34144 99057,99227,99083
 3.5000e+000 99325 -7.2286e+000 -8.2987e+001 -1.5587e+001 34144 99083,99227,99299
 3.5000e+000 99348 -7.8136e+000 -8.2255e+001 -1.3802e+001 34144 99083,99299,99109
 3.5000e+000 99498 -7.9523e+000 -3.4136e+001  1.4109e+001 33433 99397,99449,99423
 3.5000e+000 99475 -1.6625e+001 -1.0858e+001  4.7368e+000 33433 99371,99449,99397
 3.5000e+000 100008 -2.2018e+001 -4.7339e+001 -2.4776e-001 32979 100103,100031,99815
 3.5000e+000 99985 -2.8403e+001 -6.5266e+001 -1.2179e+001 32979 100175,100031,99763
 3.5000e+000 99962 -1.1175e+001 -6.2668e+001 -1.4493e+001 32979 100103,99815,99789
 3.5000e+000 99939 -2.9481e+001 -8.4419e+001 -1.5835e+001 32979 100175,99763,99737
 3.5000e+000 99916 -2.2836e+001 -5.3013e+001 -8.5493e+000 32979 99685,99867,99737
 3.5000e+000 99893 -3.3252e+001 -1.1148e+002 -1.8327e+001 32979 99685,99737,99711
 3.5000e+000 100057 -1.0434e+001 -4.6269e+001  9.3666e+000 32979 99841,99815,100031
 3.5000e+000 100080 -9.2890e+000 -1.9769e+001 -1.2822e+001 32979 99841,100031,99867
 3.5000e+000 100129 -1.8151e+001 -7.9626e+001 -2.7030e-001 32979 99763,100031,100103
 3.5000e+000 100152 -1.7110e+001 -1.0550e+002 -1.6781e+001 32979 99763,100103,99789
 3.5000e+000 100201 -2.6177e+001 -5.4402e+001 -2.2252e+000 32979 99867,100031,100175
 3.5000e+000 100224 -2.7469e+001 -6.6268e+001 -8.9533e+000 32979 99867,100175,99737
 3.5000e+000 100553 -5.6893e-001 -1.5307e+001 -8.6390e+000 32503 100354,100406,100380
 3.5000e+000 100530  1.5515e+001 -5.0574e+001  2.5229e+001 32503 100328,100406,100354
 3.5000e+000 100507  1.2220e+001 -6.0402e+001  2.4208e+001 32503 100328,100458,100406
 3.5000e+000 100484  5.2428e-001 -9.7113e+001  1.9816e+001 32503 100406,100458,100432
 3.5000e+000 100850 -7.8301e+000 -1.0031e+002 -3.7104e+000 31899 100873,100654,100628
 3.5000e+000 100827  6.0850e+000 -9.7167e+001 -4.4332e+000 31899 100945,100873,100628
 3.5000e+000 100804  1.7826e+001 -8.9238e+001  5.4229e-001 31899 100945,100628,100602
 3.5000e+000 100781 -1.0068e+001 -5.9730e+001  7.2881e+000 31899 100576,100732,100602
 3.5000e+000 100758 -4.0373e+001 -7.5365e+001 -6.0739e+001 31899 100654,100706,100680
 3.5000e+000 100899 -1.6855e-001 -1.0185e+002 -5.6839e+000 31899 100706,100654,100873
 3.5000e+000 100922 -2.9549e+001 -1.0023e+002 -2.1074e+001 31899 100706,100873,100732
 3.5000e+000 100971 -2.0351e+001 -8.0365e+001 -1.0466e+001 31899 100732,100873,100945
 3.5000e+000 100994 -6.2415e+000 -6.9989e+001 -4.7266e+000 31899 100732,100945,100602
 3.5000e+000 101551 -1.4931e+000 -7.1754e+001 -7.9873e+000 31338 101205,101387,101231
 3.5000e+000 101528  1.2732e-001 -7.2043e+001  1.1139e+000 31338 101179,101387,101205
 3.5000e+000 101505 -1.7460e+001 -5.9457e+001  1.6149e+001 31338 101574,101309,101257
 3.5000e+000 101482 -1.2177e+001 -7.5254e+001  1.1268e+001 31338 101646,101574,101257
 3.5000e+000 101459 -6.0360e+000 -5.4707e+001  1.0339e+001 31338 101646,101257,101231
 3.5000e+000 101436 -2.9811e+001 -9.1955e+001  5.5754e+000 31338 101309,101361,101335
 3.5000e+000 101413  9.4676e+000 -5.3456e+001  2.2649e+001 31338 101257,101309,101283
 3.5000e+000 101600 -1.5643e+001 -7.6600e+001  1.3661e+001 31338 101361,101309,101574
 3.5000e+000 101623 -2.1532e+001 -1.0326e+002 -9.4546e+000 31338 101361,101574,101387
 3.5000e+000 101672 -8.0066e+000 -6.3837e+001 -2.5204e+000 31338 101387,101574,101646
 3.5000e+000 101695 -9.1798e+000 -5.7556e+001 -4.4560e+000 31338 101387,101646,101231
 3.5000e+000 101943 -1.1990e+001 -9.2756e+001 -6.4608e+000 30748 101966,101796,101744
 3.5000e+000 101920 -5.2862e-001 -9.4137e+001 -5.1755e+000 30748 101966,101744,101718
 3.5000e+000 101897 -1.9782e+001 -9.9711e+001  9.6172e+000 30748 101718,101848,101822
 3.5000e+000 101874 -3.2107e+001 -9.5975e+001 -1.0364e+001 30748 101744,101796,101770
 3.5000e+000 101992 -1.7523e+001 -9.1008e+001 -4.2918e+000 30748 101822,101796,101966
 3.5000e+000 102015 -9.7315e+000 -9.5346e+001 -2.8513e+000 30748 101822,101966,101718
 3.5000e+000 102493 -2.8297e+001 -8.2557e+001 -3.8569e+000 30344 102516,102173,102147
 3.5000e+000 102470 -1.6456e+001 -6.3346e+001 -9.5701e+000 30344 102660,102516,102147
 3.5000e+000 102447 -5.4678e+000 -7.7977e+001 -1.5703e+001 30344 102588,102199,102173
 3.5000e+000 102424 -8.7545e+000 -5.9624e+001 -1.1568e+001 30344 102660,102147,102329
 3.5000e+000 102401  5.4912e+000 -8.0438e+001 -3.7371e+001 30344 102199,102277,102251
 3.5000e+000 102378  2.0205e+001 -4.3897e+001 -6.0892e+001 30344 102199,102251,102225
 3.5000e+000 102355 -3.0373e-001 -5.3157e+001  3.3663e+000 30344 102121,102329,102147
 3.5000e+000 102542 -1.1204e+001 -7.4710e+001 -1.6394e+001 30344 102588,102173,102516
 3.5000e+000 102565 -2.3320e+001 -6.9903e+001 -1.5807e+001 30344 102277,102516,102303
 3.5000e+000 102614 -1.1405e+001 -7.9137e+001 -1.6856e+001 30344 102277,102199,102588
 3.5000e+000 102637 -1.8898e+001 -7.8375e+001 -1.8957e+001 30344 102277,102588,102516
 3.5000e+000 102686 -7.2314e+000 -6.8440e+001 -5.7874e+000 30344 102303,102516,102660
 3.5000e+000 102709 -3.1694e+000 -6.7396e+001 -6.7923e+000 30344 102303,102660,102329
 3.5000e+000 103294  1.3996e+001 -9.4020e+001  6.7024e+000 29726 103317,103101,103075
 3.5000e+000 103271  3.1156e+001 -4.0449e+001  1.3419e+001 29726 103317,103075,102997
 3.5000e+000 103248 -2.8589e+000 -3.0799e+001 -1.3538e+001 29726 102971,103153,102997
 3.5000e+000 103225  5.8488e-001 -6.8866e+001 -1.0662e+001 29726 103101,103153,103127
 3.5000e+000 103202  6.6634e+000 -1.1614e+002  1.7204e+001 29726 102997,103075,103023
 3.5000e+000 103179 -2.0398e+001 -7.9099e+001 -2.3639e+001 29726 103023,103075,103049
 3.5000e+000 103343  8.0740e+000 -4.7346e+001 -1.3749e+000 29726 103153,103101,103317
 3.5000e+000 103366  8.1120e+000 -1.8388e+001  1.3468e-001 29726 103153,103317,102997
 3.5000e+000 103614  2.1824e+001 -4.3451e+001 -2.5547e+000 29200 103781,103637,103467
 3.5000e+000 103591  3.1330e-001 -4.0186e+001  9.8717e+000 29200 103709,103637,103415
 3.5000e+000 103568 -5.8580e+000 -3.9226e+001  5.2284e+000 29200 103709,103415,103389
 3.5000e+000 103545  1.7148e+001 -3.4268e+001 -1.0580e+001 29200 103781,103467,103441
 3.5000e+000 103663  2.1628e+001 -4.3606e+001  7.1114e+000 29200 103853,103637,103493
 3.5000e+000 103686  2.6303e+001 -3.0165e+000  1.2232e+001 29200 103493,103637,103519
 3.5000e+000 103735  1.0951e+001 -4.0828e+001  1.0663e+001 29200 103519,103637,103709
 3.5000e+000 103758  3.9062e+000 -3.9684e+001  6.8663e+000 29200 103519,103709,103389
 3.5000e+000 103807  1.5409e+001 -5.7767e+001 -4.0045e+000 29200 103415,103637,103781
 3.5000e+000 103830  7.0998e+000 -5.4435e+001 -1.4509e+001 29200 103415,103781,103441
 3.5000e+000 103879  1.9480e+001 -3.7954e+001 -1.8170e+000 29200 103467,103637,103853
 3.5000e+000 104545 -3.3313e+000 -5.3039e+001 -1.2153e+001 28860 104274,104352,104326
 3.5000e+000 104522 -3.1371e+001 -4.3857e+001 -2.3874e+000 28860 104248,104352,104274
 3.5000e+000 104499 -2.6528e+001 -4.0713e+001 -4.3670e+000 28860 104248,104404,104352
 3.5000e+000 104476 -3.7265e+001 -2.3171e+001 -2.3744e-001 28860 104222,104404,104248
 3.5000e+000 104453 -2.1188e+001 -1.0544e+001 -2.0963e+000 28860 104352,104404,104378
 3.5000e+000 104430 -1.4429e+001 -5.9408e+001 -9.7184e+000 28860 104274,104326,104300
 3.5000e+000 104744  1.2405e+000 -8.5225e+001 -2.2306e+001 28456 104839,104767,104646
 3.5000e+000 104721 -3.2521e+001 -1.1217e+002 -1.3271e+001 28456 104767,104594,104568
 3.5000e+000 104698  1.7679e+000 -6.5945e+001 -9.3208e+000 28456 104839,104646,104620
 3.5000e+000 104793 -1.1708e+001 -9.7085e+001 -1.4771e+001 28456 104672,104646,104767
 3.5000e+000 104816 -4.1466e+001 -1.2363e+002  7.6327e+000 28456 104911,104767,104568
 3.5000e+000 104865 -1.4825e+001 -8.9520e+001 -5.2228e+000 28456 104594,104767,104839
 3.5000e+000 104888  9.6713e+000 -7.7191e+000 -6.9646e+000 28456 105041,104839,104620
 3.5000e+000 104937 -2.1246e+000 -6.9605e+001 -1.2574e+001 28456 104672,104767,104911
 3.5000e+000 105067 -1.3478e+001 -8.6049e+001 -1.3396e+001 28456 104594,104839,105041
 3.5000e+000 105573 -2.2725e+001 -8.6248e+001 -7.3020e+000 28094 105812,105596,105328
 3.5000e+000 105550 -2.3212e+001 -7.7617e+001  4.7415e+000 28094 105596,105276,105250
 3.5000e+000 105527 -1.1732e+001 -1.1659e+002 -7.6648e+000 28094 105740,105668,105432
 3.5000e+000 105504 -2.0669e+001 -1.3287e+002 -4.1047e+000 28094 105740,105432,105380
 3.5000e+000 105481 -1.6591e+001 -9.0506e+001 -3.9157e+000 28094 105812,105328,105302
 3.5000e+000 105458 -3.5909e+001 -1.3863e+002 -4.1101e-001 28094 105380,105432,105406
 3.5000e+000 105622 -6.5849e-001 -5.1637e+001 -1.6825e+001 28094 105354,105328,105596
 3.5000e+000 105645 -3.7852e+000 -5.6689e+001  1.2665e+001 28094 105668,105354,105596
 3.5000e+000 105694  3.2461e-001 -8.3942e+001 -7.8344e+000 28094 105250,105432,105668
 3.5000e+000 105717 -2.4755e+001 -1.0489e+002  4.3826e+000 28094 105250,105668,105596
 3.5000e+000 105766 -2.2653e+001 -1.0386e+002  2.4675e+001 28094 105354,105668,105740
 3.5000e+000 105789 -3.6306e+001 -1.3230e+002  2.8943e+001 28094 105354,105740,105380
 3.5000e+000 105838 -1.5218e+001 -8.2188e+001 -4.5226e+000 28094 105276,105596,105812
 3.5000e+000 105861  1.0691e+001 -7.6472e+001  1.1843e+000 28094 105276,105812,105302
 3.5000e+000 106367 -2.2613e+001 -1.0717e+002 -1.1851e+001 27390 106070,106122,106096
 3.5000e+000 106344  3.0522e+000 -1.1533e+002 -1.9544e+001 27390 106070,106226,106122
 3.5000e+000 106321  2.5293e+001 -1.0785e+002 -1.5259e+001 27390 106174,106226,106200
 3.5000e+000 106298  1.1484e+001 -1.0974e+002 -1.1185e+001 27390 106122,106226,106174
 3.5000e+000 106275  1.5958e+001 -1.0616e+002  1.2500e+000 27390 106122,106174,106148
 3.5000e+000 106252 -3.7867e+001 -1.3516e+002 -2.7381e+001 27390 106044,106226,106070
 3.5000e+000 106615  7.6552e+000 -7.2525e+001 -1.7201e+000 26978 106638,106494,106416
 3.5000e+000 106592  7.1327e+000 -7.9319e+001 -3.4335e+000 26978 106638,106416,106390
 3.5000e+000 106569  8.4726e+000 -7.0283e+001  3.1360e+000 26978 106416,106494,106442
 3.5000e+000 106546  1.8688e+001 -7.3571e+001 -9.0277e-001 26978 106442,106494,106468
 3.5000e+000 106664  1.3040e+001 -7.9676e+001  1.1484e+000 26978 106520,106494,106638
 3.5000e+000 106687  1.1012e+001 -8.7055e+001 -2.7705e+000 26978 106520,106638,106390
 3.5000e+000 106837  2.7447e-001 -2.9389e+002 -3.8186e-001 26524 106710,106762,106736
 3.5000e+000 106814  1.1758e-001 -2.5781e+002 -1.2939e-001 26524 106710,106788,106762
 3.5000e+000 107426 -4.5517e+001 -8.6889e+001  1.3987e+001 26120 107129,107207,107155
 3.5000e+000 107403 -2.8870e+001 -6.4465e+001  6.7220e+000 26120 107129,107285,107207
 3.5000e+000 107380 -4.1444e+001 -8.3482e+001 -1.2619e+000 26120 107207,107285,107259
 3.5000e+000 107357 -7.0779e-001 -6.2658e+001  2.6391e+000 26120 107155,107207,107181
 3.5000e+000 107334 -2.1986e+001 -6.5449e+001 -5.5428e-001 26120 107103,107285,107129
 3.5000e+000 107311 -3.9472e+001 -7.4319e+001  1.8042e+000 26120 107207,107259,107233
 3.5000e+000 107755 -2.5519e+001 -6.8138e+001  2.9937e+000 25758 107556,107634,107608
 3.5000e+000 107732 -4.5477e+000 -3.8840e+001 -7.1995e+000 25758 107556,107660,107634
 3.5000e+000 107709 -3.5930e+001 -6.7450e+001 -6.2238e+000 25758 107556,107608,107582
 3.5000e+000 107686 -2.4173e+000 -3.9849e+000  3.2568e+000 25758 107530,107660,107556
 3.5000e+000 108438 -3.0236e+001 -1.0925e+002 -4.5246e+000 25468 108121,108199,108173
 3.5000e+000 108415 -1.3513e+000 -3.8453e+001 -2.4350e+000 25468 108095,108199,108121
 3.5000e+000 108392  3.6036e+000 -5.3513e+001 -1.2037e+000 25468 108095,108251,108199
 3.5000e+000 108369 -1.0134e+001 -6.6851e+001  6.7726e+000 25468 108069,108251,108095
 3.5000e+000 108346 -1.7670e+001 -6.0507e+001 -1.0953e+001 25468 108199,108251,108225
 3.5000e+000 108323  8.9316e+000 -7.8047e+001  2.0032e+001 25468 108017,108251,108069
 3.5000e+000 108300 -3.0380e+001 -7.5051e+001 -9.2667e+000 25468 108121,108173,108147
 3.5000e+000 108277  1.6373e+001 -6.9671e+001  1.5706e+001 25468 108017,108069,108043
 3.5000e+000 108588 -2.3267e+001 -9.6020e+001 -2.8441e+001 25064 108611,108513,108487
 3.5000e+000 108565 -4.6153e+001 -8.3987e+001 -1.6903e+001 25064 108683,108611,108487
 3.5000e+000 108637 -1.6937e+001 -7.8871e+001 -3.0235e+001 25064 108539,108513,108611
 3.5000e+000 108660 -1.5551e+001 -6.2721e+001 -1.8450e+001 25064 108539,108611,108461
 3.5000e+000 108709 -1.7350e+001 -6.0956e+001 -2.7030e+001 25064 108461,108611,108683
 3.5000e+000 109345 -6.6916e+001 -1.1508e+002  4.0989e+001 24410 108999,109155,109103
 3.5000e+000 109322 -3.2352e+001 -1.1544e+002  1.6682e+001 24410 108973,109155,108999
 3.5000e+000 109299 -1.6614e+001 -1.9306e+002  5.4408e+001 24410 109103,109155,109129
 3.5000e+000 109276 -5.4163e+001 -1.0636e+002  1.3835e+001 24410 108973,109181,109155
 3.5000e+000 109253 -4.2253e+001 -1.0292e+002  2.6688e+001 24410 109025,109103,109077
 3.5000e+000 109230 -6.6159e+001 -1.0513e+002  3.7998e+001 24410 108999,109103,109025
 3.5000e+000 109207 -3.3389e+001 -9.0440e+001  2.1924e+001 24410 109025,109077,109051
 3.5000e+000 109723 -2.9391e+001 -9.9964e+001  1.9917e+000 23856 109475,109579,109553
 3.5000e+000 109700 -3.8541e+001 -1.0268e+002  7.0520e+000 23856 109475,109605,109579
 3.5000e+000 109677 -3.7223e+001 -1.2413e+002  1.3954e+001 23856 109475,109553,109527
 3.5000e+000 109654 -3.4717e+001 -1.0085e+002 -1.8502e+000 23856 109449,109605,109475
 3.5000e+000 109631  1.6703e+001 -1.1125e+002  1.8946e+001 23856 109475,109527,109501
 3.5000e+000 110101 -4.5777e+000 -8.7411e+001 -2.6918e+001 23566 109853,109931,109879
 3.5000e+000 110078  5.5601e+000 -7.2528e+001 -1.4062e+001 23566 109827,109931,109853
 3.5000e+000 110055 -1.3952e+001 -8.1484e+001 -8.2515e+000 23566 109827,109983,109931
 3.5000e+000 110032 -8.7766e+000 -6.7776e+001 -9.6217e+000 23566 109879,109931,109905
 3.5000e+000 110009 -2.6872e+000 -6.3635e+001  4.5745e-001 23566 109931,109983,109957
 3.5000e+000 110735  4.3243e+000 -2.0185e+001 -9.6255e+000 23162 110415,110571,110519
 3.5000e+000 110712 -9.2842e+000 -4.0792e+001 -1.5720e+001 23162 110389,110571,110415
 3.5000e+000 110689  8.6837e+000 -1.8889e+001 -1.1680e+001 23162 110415,110519,110493
 3.5000e+000 110666 -9.0303e+000 -2.8005e+001  4.3658e+000 23162 110363,110571,110389
 3.5000e+000 110643  3.2523e+001  7.2325e+000  1.1603e+001 23162 110441,110493,110467
 3.5000e+000 110620  1.2788e+001 -1.7376e+001 -1.2430e+001 23162 110415,110493,110441
 3.5000e+000 110597  1.2994e+001 -2.5577e+001 -1.4736e+001 23162 110519,110571,110545
 3.5000e+000 111211 -3.2524e+001 -1.0438e+002 -1.2606e+001 22708 111378,111306,111021
 3.5000e+000 111188 -4.2821e+000 -1.0210e+002 -3.7225e+000 22708 111234,110969,110917
 3.5000e+000 111165 -2.6460e+001 -9.9202e+001 -6.8191e+000 22708 111450,111234,110917
 3.5000e+000 111142 -3.3253e+001 -9.5060e+001 -2.8468e+001 22708 111378,111021,110995
 3.5000e+000 111119 -2.9146e+001 -9.7327e+001 -1.5185e+001 22708 111450,110917,110865
 3.5000e+000 111096  1.6259e+001 -1.2355e+002  1.0069e+001 22708 110917,110969,110943
 3.5000e+000 111073 -1.5037e+001 -1.6062e+002 -4.7400e+001 22708 110865,110917,110891
 3.5000e+000 111260  3.1580e+000 -9.8931e+001 -1.0437e+001 22708 111306,110969,111234
 3.5000e+000 111283 -1.0750e+001 -8.5645e+001 -7.8330e+000 22708 111047,111234,110839
 3.5000e+000 111332 -1.6955e+000 -1.2438e+002  8.5865e+000 22708 111047,111021,111306
 3.5000e+000 111355 -1.3168e+001 -1.0540e+002 -1.3146e+001 22708 111047,111306,111234
 3.5000e+000 111404  1.0719e+000 -9.0098e+001 -2.2513e+001 22708 110969,111306,111378
 3.5000e+000 111427 -8.0437e+000 -8.5269e+001 -2.9751e+001 22708 110969,111378,110995
 3.5000e+000 111476 -1.3745e+001 -9.4770e+001 -6.9965e+000 22708 110839,111234,111450
 3.5000e+000 111499 -1.3697e+001 -9.1890e+001 -1.6164e+001 22708 110839,111450,110865
 3.5000e+000 111600  5.3589e+000 -4.2380e+001  3.7249e+000 22460 111522,111574,111548
 3.5000e+000 112059  2.1149e+001 -3.2618e+001 -7.4017e+000 22056 111811,111889,111863
 3.5000e+000 112036  3.8311e+001 -2.7390e+001 -1.0403e+001 22056 111811,111915,111889
 3.5000e+000 112013  2.1195e+001 -3.3547e+001 -1.0440e+001 22056 111785,111915,111811
 3.5000e+000 111990  1.5413e+001 -1.6509e+001 -2.8904e+001 22056 111785,111941,111915
 3.5000e+000 111967  1.0538e+001 -3.4087e+001 -1.0803e+000 22056 111811,111863,111837
 3.5000e+000 112486  3.8011e+001 -2.6303e+001 -8.7679e+000 21594 112509,112267,112215
 3.5000e+000 112463  6.2767e+000 -4.1722e+001  2.2215e+000 21594 112509,112215,112163
 3.5000e+000 112440  2.4350e+001 -6.7393e+000 -3.8674e+001 21594 112581,112293,112267
 3.5000e+000 112417  5.3576e+000 -4.3598e+001  2.9380e+000 21594 112215,112267,112241
 3.5000e+000 112394  2.9079e+001 -3.1279e+001  2.5091e-001 21594 112163,112345,112319
 3.5000e+000 112371  4.6327e+000 -3.4672e+001 -1.6581e+000 21594 112163,112215,112189
 3.5000e+000 112535  4.3616e+001 -2.2670e+001 -2.1467e+001 21594 112581,112267,112509
 3.5000e+000 112558  2.3341e+001 -2.1594e+001 -5.9133e+000 21594 112319,112509,112163
 3.5000e+000 112607 -1.2100e+001 -2.2450e+001 -3.5969e+001 21594 112319,112293,112581
 3.5000e+000 112630  9.0528e+000 -3.8195e+001 -1.4932e+001 21594 112319,112581,112509
 3.5000e+000 112900 -2.3657e+001 -9.1989e+001 -1.6315e+000 20974 112675,112779,112701
 3.5000e+000 112877 -1.2590e+001 -9.1652e+001 -1.0404e+000 20974 112675,112805,112779
 3.5000e+000 112854 -3.1695e+000 -7.5815e+001  5.5896e+000 20974 112701,112779,112753
 3.5000e+000 112831 -9.9341e+000 -3.7508e+001 -1.8943e+001 20974 112701,112753,112727
 3.5000e+000 113359  1.1258e+001 -7.2387e+001 -1.0587e+001 20520 113454,113137,113111
 3.5000e+000 113336  2.6717e+001 -8.6058e+001 -2.1113e+001 20520 113454,113111,113085
 3.5000e+000 113313  1.8468e+001 -1.4064e+001  2.6081e+001 20520 113382,113163,113137
 3.5000e+000 113290  5.9260e+000 -8.7897e+001 -7.9110e+000 20520 113526,113382,113137
 3.5000e+000 113267 -1.9029e+001 -1.5102e+002 -5.4479e+000 20520 113189,113241,113215
 3.5000e+000 113408 -1.5571e+001 -9.1007e+001  1.8594e+001 20520 113189,113163,113382
 3.5000e+000 113431 -5.3537e+000 -1.0664e+002 -1.9044e+001 20520 113189,113382,113241
 3.5000e+000 113480  5.8901e+000 -8.5996e+001 -8.0602e+000 20520 113526,113137,113454
 3.5000e+000 113503  1.5026e+001 -1.0329e+002 -1.5545e+001 20520 113241,113454,113085
 3.5000e+000 113552  6.1789e+000 -8.4820e+001 -8.9580e+000 20520 113241,113382,113526
 3.5000e+000 113575  5.7549e+000 -8.3691e+001 -9.3097e+000 20520 113241,113526,113454
 3.5000e+000 113904 -7.2773e+000 -1.0454e+002  3.4086e+000 19858 113705,113783,113757
 3.5000e+000 113881  1.5277e+000 -8.2270e+001 -1.0986e+000 19858 113705,113809,113783
 3.5000e+000 113858  3.1416e+001 -6.4411e+001 -1.9929e+001 19858 113679,113809,113705
 3.5000e+000 113835  3.4231e+000 -6.3540e+001  2.6485e+001 19858 113705,113757,113731
 3.5000e+000 114152 -1.6696e+001 -3.6877e+001 -1.1594e+001 19454 114175,114005,113979
 3.5000e+000 114129 -1.6912e+001 -3.6396e+001 -1.1643e+001 19454 114175,113979,114057
 3.5000e+000 114106 -2.9335e+001 -6.0562e+001 -3.2926e+000 19454 113927,114057,113979
 3.5000e+000 114083 -1.4801e+001 -5.0501e+001 -1.3429e+001 19454 113927,113979,113953
 3.5000e+000 114201 -1.4766e+001 -3.6315e+001 -1.3911e+001 19454 114031,114005,114175
 3.5000e+000 114224 -1.7013e+001 -3.6042e+001 -1.1706e+001 19454 114031,114175,114057
 3.5000e+000 114472 -1.5667e+001 -1.1960e+002  2.4341e+000 19000 114495,114273,114247
 3.5000e+000 114449 -2.7858e+001 -1.2375e+002 -4.7297e+000 19000 114495,114247,114325
 3.5000e+000 114426 -4.4888e+001 -1.2868e+002  9.5187e+000 19000 114247,114377,114325
 3.5000e+000 114403 -5.2493e+001 -1.2616e+002 -1.7425e+001 19000 114325,114377,114351
 3.5000e+000 114521  2.1103e+001 -1.0717e+002  1.7945e+001 19000 114299,114273,114495
 3.5000e+000 114544 -1.7959e+001 -1.3669e+002  4.1840e+000 19000 114299,114495,114325
 3.5000e+000 114948 -1.9276e+001 -1.1046e+002 -2.8945e+000 18560 114674,114726,114700
 3.5000e+000 114925 -1.0258e+000 -7.5171e+001 -1.1189e+001 18560 114674,114830,114726
 3.5000e+000 114902 -4.2568e+000 -8.4145e+001 -1.8203e+001 18560 114726,114830,114804
 3.5000e+000 114879 -2.5585e+001 -1.8217e+002 -3.6000e+001 18560 114726,114804,114752
 3.5000e+000 114856  1.5751e+001 -2.5182e+002 -4.0673e+001 18560 114752,114804,114778
 3.5000e+000 115098 -4.6466e+001 -1.5504e+002 -1.2749e+000 18156 114971,115023,114997
 3.5000e+000 115075 -5.3553e+001 -7.6416e+001  1.6389e-001 18156 114971,115049,115023
 3.5000e+000 115248 -4.8948e+001 -1.5907e+002 -4.2416e+000 17602 115147,115199,115173
 3.5000e+000 115225 -1.1776e+001 -1.3787e+002  5.1035e+000 17602 115121,115199,115147
 3.5000e+000 115652  3.5014e+001 -8.3151e+001 -3.8913e+000 17354 115430,115534,115508
 3.5000e+000 115629  1.3549e+001 -1.1644e+002  6.2703e+000 17354 115404,115534,115430
 3.5000e+000 115606  5.4260e+001 -6.0794e+001  4.5908e+001 17354 115378,115534,115404
 3.5000e+000 115583  6.1414e+001 -1.0366e+002 -1.6809e+001 17354 115456,115508,115482
 3.5000e+000 115560  1.7088e+001 -1.2798e+002 -2.9544e+000 17354 115430,115508,115456
 3.5000e+000 115873 -3.2369e+001 -1.7547e+002 -6.0201e+000 16950 115749,115801,115775
 3.5000e+000 115850 -6.1747e+001 -1.6407e+002 -1.4529e+000 16950 115697,115801,115749
 3.5000e+000 115827 -5.8365e+001 -1.7632e+002  4.7554e+000 16950 115697,115749,115723
 3.5000e+000 116023 -6.1298e+001 -1.7518e+002 -2.3961e+001 16496 115922,115974,115948
 3.5000e+000 116000 -6.5837e+001 -1.3794e+002 -1.0146e+001 16496 115896,115974,115922
 3.5000e+000 116126  2.8414e+001 -7.2207e+001  3.5826e+000 16298 116048,116100,116074
 3.5000e+000 116278  3.5059e+001 -1.8588e+002 -4.1316e+000 15892 116151,116203,116177
 3.5000e+000 116255  9.1678e+000 -2.4235e+002  2.2698e+000 15892 116151,116229,116203
 3.5000e+000 116430  2.1178e+001 -2.9468e+001 -1.0536e+000 15545 116303,116355,116329
 3.5000e+000 116407  4.6683e+000 -7.9438e+001 -2.5000e+001 15545 116303,116381,116355
 3.5000e+000 116785  2.9606e+001 -5.5397e+001  2.6763e+001 421 116612,116690,116664
 3.5000e+000 116762  1.2435e+000 -1.2194e+002  1.7545e+001 421 116560,116690,116612
 3.5000e+000 116739 -4.5589e+001 -1.4011e+002  1.6075e+001 421 116560,116612,116586
 3.5000e+000 116716 -2.4202e+001 -1.4260e+002  1.2347e+000 421 116612,116664,116638
 3.6000e+000 68048 -2.0307e+001 -8.3892e+001 -7.4630e+000 67642 67898,67950,67924
 3.6000e+000 68025 -3.0540e+001 -8.7663e+001  8.5185e-002 67642 67898,67976,67950
 3.6000e+000 68002 -2.6788e+001 -8.6335e+001 -4.0531e-001 67642 67872,67976,67898
 3.6000e+000 68367 -2.8222e+001 -7.3808e+001  5.6554e+000 67444 68119,68223,68197
 3.6000e+000 68344 -5.0301e+001 -1.2817e+002  1.2118e+001 67444 68119,68249,68223
 3.6000e+000 68321 -7.7308e+001 -1.2993e+002 -4.3950e+000 67444 68093,68249,68119
 3.6000e+000 68298 -4.5430e+001 -1.1461e+002  6.1874e+000 67444 68119,68197,68171
 3.6000e+000 68275 -4.7904e+001 -1.1354e+002  7.0823e+000 67444 68119,68171,68145
 3.6000e+000 68468 -3.3819e+001 -1.4436e+002  2.6134e+001 67268 68390,68442,68416
 3.6000e+000 68765 -7.8189e+001 -1.2348e+002 -1.0152e+000 66956 68788,68517,68491
 3.6000e+000 68742 -9.7078e+001 -1.3322e+002 -6.6212e+000 66956 68788,68491,68621
 3.6000e+000 68719 -7.9161e+001 -1.4361e+002 -1.5124e+001 66956 68543,68621,68569
 3.6000e+000 68696 -1.0734e+002 -1.5014e+002 -2.8727e-001 66956 68491,68647,68621
 3.6000e+000 68673 -1.1231e+002 -9.7601e+001 -1.4326e+001 66956 68569,68621,68595
 3.6000e+000 68814 -5.4517e+001 -1.3380e+002  1.9265e+000 66956 68543,68517,68788
 3.6000e+000 68837 -7.7984e+001 -1.4689e+002 -4.5053e+000 66956 68543,68788,68621
 3.6000e+000 69107 -3.4003e+001 -1.3946e+002 -1.7308e+000 66758 68882,68986,68908
 3.6000e+000 69084 -2.1655e+001 -1.2999e+002  5.3799e+000 66758 68882,69012,68986
 3.6000e+000 69061 -6.8095e+000 -1.3476e+002 -3.1622e+000 66758 68908,68960,68934
 3.6000e+000 69038 -3.1378e+001 -1.3047e+002 -2.8200e+000 66758 68908,68986,68960
 3.6000e+000 69308 -1.1666e+001 -1.1856e+002 -2.5941e+000 66560 69331,69184,69158
 3.6000e+000 69285  3.5210e+000 -1.2623e+002 -2.3112e+000 66560 69331,69158,69132
 3.6000e+000 69262 -1.9499e+001 -1.5868e+002 -1.0561e+001 66560 69184,69236,69210
 3.6000e+000 69357 -1.5952e+001 -1.2366e+002 -4.2002e-001 66560 69236,69184,69331
 3.6000e+000 69380 -9.1987e+000 -1.3810e+002  2.8350e+000 66560 69236,69331,69132
 3.6000e+000 69554 -3.3436e+001 -1.7987e+002  1.1784e+001 66270 69427,69479,69453
 3.6000e+000 69531 -8.6638e+000 -1.2191e+002  2.3182e+001 66270 69427,69505,69479
 3.6000e+000 69804 -2.6612e+001 -1.1531e+002 -6.6987e+000 66066 69579,69683,69657
 3.6000e+000 69781  1.4375e+001 -9.6292e+001 -2.3934e+001 66066 69579,69709,69683
 3.6000e+000 69758 -4.4503e+000 -6.2197e+001 -1.5308e+001 66066 69579,69657,69631
 3.6000e+000 69735 -1.2709e+001 -8.0602e+001 -1.6615e+001 66066 69579,69631,69605
 3.6000e+000 70257 -4.0266e+001 -9.1041e+001  3.0402e+000 65776 69960,70090,69986
 3.6000e+000 70234 -4.3362e+001 -9.7259e+001  1.9333e+000 65776 69934,70090,69960
 3.6000e+000 70211 -4.5680e+001 -1.0511e+002 -5.5842e+000 65776 69934,70116,70090
 3.6000e+000 70188 -4.6679e+001 -1.0457e+002  0.0000e+000 65776 70038,70090,70064
 3.6000e+000 70165 -4.6802e+001 -1.0853e+002  4.3728e+000 65776 69986,70090,70038
 3.6000e+000 70142 -4.1776e+001 -1.1510e+002  3.6734e+000 65776 69986,70038,70012
 3.6000e+000 70456 -2.9700e+001 -7.0766e+001 -1.2725e+001 65372 70479,70306,70280
 3.6000e+000 70433 -3.4787e+001 -9.5419e+001 -1.4179e+001 65372 70479,70280,70384
 3.6000e+000 70410 -3.7241e+001 -8.2445e+001  7.3677e+000 65372 70551,70332,70306
 3.6000e+000 70505 -3.6079e+001 -6.8939e+001 -2.7175e+000 65372 70551,70306,70479
 3.6000e+000 70528 -1.5785e+001 -8.4812e+001 -9.9107e+000 65372 70358,70479,70384
 3.6000e+000 70577 -3.1271e+001 -1.0137e+002  6.4723e+000 65372 70358,70332,70551
 3.6000e+000 70600 -3.6641e+001 -9.4306e+001 -2.0689e+000 65372 70358,70551,70479
 3.6000e+000 70821 -1.3327e+001 -1.1501e+002 -2.6039e+000 65174 70645,70723,70671
 3.6000e+000 70798 -2.6938e+001 -1.1807e+002  3.4319e+000 65174 70645,70749,70723
 3.6000e+000 70775 -7.4231e+000 -1.0522e+002 -5.5524e+000 65174 70671,70723,70697
 3.6000e+000 71071 -2.6174e+001 -6.0873e+001 -3.5530e+000 64770 71094,70898,70872
 3.6000e+000 71048 -1.4557e+001 -5.8328e+001  2.6750e+000 64770 71166,71094,70872
 3.6000e+000 71025 -1.5012e+001 -6.7002e+001 -3.5612e+000 64770 71166,70872,70846
 3.6000e+000 71002 -1.7302e+001 -3.8688e+001  8.9524e+000 64770 70898,70950,70924
 3.6000e+000 71120 -1.9301e+001 -5.0373e+001 -4.3203e-001 64770 70950,70898,71094
 3.6000e+000 71143 -5.2737e+000 -6.0465e+001  7.7339e+000 64770 70950,71094,70976
 3.6000e+000 71192 -1.8223e+001 -7.5149e+001  2.1330e+000 64770 70976,71094,71166
 3.6000e+000 71215 -1.4830e+001 -7.8072e+001 -4.3185e+000 64770 70976,71166,70846
 3.6000e+000 71514 -2.7159e+001 -1.2132e+002  2.0358e+000 64572 71681,71537,71318
 3.6000e+000 71491 -3.9037e+001 -1.1782e+002 -7.7049e-001 64572 71537,71266,71240
 3.6000e+000 71468 -3.8290e+001 -9.9827e+001 -4.9778e+000 64572 71609,71396,71370
 3.6000e+000 71445 -3.0560e+001 -1.1993e+002  1.5313e+000 64572 71681,71318,71292
 3.6000e+000 71422 -4.7799e+001 -1.5272e+002 -2.7232e+000 64572 71753,71344,71318
 3.6000e+000 71563 -3.4466e+001 -1.3283e+002  5.3035e+000 64572 71753,71318,71537
 3.6000e+000 71586 -3.4552e+001 -1.1055e+002  6.4487e+000 64572 71609,71370,71537
 3.6000e+000 71635 -1.9154e+001 -6.2100e+001 -1.8278e+001 64572 71240,71396,71609
 3.6000e+000 71658 -3.0830e+001 -8.8972e+001 -3.7599e+000 64572 71240,71609,71537
 3.6000e+000 71707 -3.5590e+001 -1.1676e+002 -1.3558e+000 64572 71266,71537,71681
 3.6000e+000 71730 -4.6322e+001 -1.2028e+002 -1.0673e+000 64572 71266,71681,71292
 3.6000e+000 71779 -5.6222e+001 -1.2374e+002 -1.7502e+000 64572 71370,71344,71753
 3.6000e+000 71802 -5.2389e+001 -1.2314e+002 -1.6086e-001 64572 71370,71753,71537
 3.6000e+000 72052 -3.1464e+001 -9.1584e+001  1.0732e+001 64374 72075,71879,71827
 3.6000e+000 72029 -1.3435e+001 -8.1274e+001  5.1579e+000 64374 72147,72075,71827
 3.6000e+000 72006 -6.0919e-001 -8.9190e+001 -5.6331e+000 64374 72147,71827,71957
 3.6000e+000 71983 -1.1588e+001 -7.6528e+001  2.9312e-002 64374 71827,71879,71853
 3.6000e+000 72101 -2.8853e+001 -1.0857e+002  2.3837e+001 64374 71905,71879,72075
 3.6000e+000 72124  6.8546e-001 -9.4388e+001  1.9491e+001 64374 71905,72075,71931
 3.6000e+000 72173 -2.5198e+001 -1.0203e+002  9.8687e+000 64374 71931,72075,72147
 3.6000e+000 72196 -1.5369e+001 -1.1157e+002  1.1093e+000 64374 71931,72147,71957
 3.6000e+000 72649 -3.8112e+001 -8.7243e+001 -1.4826e+000 63948 72352,72508,72482
 3.6000e+000 72626 -3.4021e+001 -7.5012e+001  1.1947e+001 63948 72326,72508,72352
 3.6000e+000 72603 -4.2382e+001 -1.1160e+002 -3.8334e+000 63948 72672,72430,72378
 3.6000e+000 72580 -4.4287e+001 -1.2363e+002 -2.5342e-002 63948 72672,72378,72352
 3.6000e+000 72557 -4.2174e+001 -1.1372e+002 -4.7728e+000 63948 72744,72456,72430
 3.6000e+000 72534 -4.1456e+001 -1.4148e+002 -3.1848e+001 63948 72378,72430,72404
 3.6000e+000 72698 -4.2982e+001 -1.1266e+002 -4.0806e+000 63948 72744,72430,72672
 3.6000e+000 72721 -3.7104e+001 -1.0734e+002  1.6261e+000 63948 72482,72672,72352
 3.6000e+000 72770 -4.3086e+001 -1.1205e+002 -4.8251e+000 63948 72482,72456,72744
 3.6000e+000 72793 -4.2665e+001 -1.0941e+002 -4.1083e+000 63948 72482,72744,72672
 3.6000e+000 72894 -5.0102e+001 -1.4465e+002 -9.7146e+000 63494 72816,72868,72842
 3.6000e+000 73093 -2.4576e+001 -3.6250e+001  1.0460e+000 63132 72943,72995,72969
 3.6000e+000 73070 -1.3809e+001 -2.7758e+001  8.2591e+000 63132 72943,73021,72995
 3.6000e+000 73047 -1.4556e+001 -2.0647e+001  5.8472e+000 63132 72917,73021,72943
 3.6000e+000 73294 -1.3942e+001 -4.6872e+001 -3.1068e+001 62792 73317,73144,73118
 3.6000e+000 73271 -2.2342e+001 -5.7161e+001 -1.5648e+001 62792 73317,73118,73222
 3.6000e+000 73248 -1.2381e+001 -3.5563e+001 -1.8881e+001 62792 73144,73196,73170
 3.6000e+000 73343 -3.3779e+001 -3.9570e+001 -1.7789e+001 62792 73196,73144,73317
 3.6000e+000 73366 -4.4526e+001 -5.6987e+001 -1.1097e+000 62792 73196,73317,73222
 3.6000e+000 73616 -6.2024e+001 -1.0593e+002  1.7709e+001 62388 73639,73417,73391
 3.6000e+000 73593 -5.4945e+001 -9.0891e+001  1.0988e+001 62388 73711,73639,73391
 3.6000e+000 73570 -3.5395e+001 -6.9265e+001  2.6734e+000 62388 73711,73391,73521
 3.6000e+000 73547 -2.1717e+001 -7.7620e+001  1.2781e+001 62388 73469,73521,73495
 3.6000e+000 73665 -5.6783e+001 -1.0594e+002  3.7272e+000 62388 73443,73417,73639
 3.6000e+000 73688 -4.7432e+001 -1.0368e+002  8.2247e+000 62388 73443,73639,73469
 3.6000e+000 73737 -3.0889e+001 -1.0328e+002  1.0859e+001 62388 73469,73639,73711
 3.6000e+000 73760 -2.8746e+001 -1.0039e+002  9.9180e+000 62388 73469,73711,73521
 3.6000e+000 74010 -1.3480e+001 -4.4920e+001 -1.6506e+001 61848 74033,73837,73811
 3.6000e+000 73987 -3.9427e+001 -4.6529e+001 -2.9099e+001 61848 74033,73811,73785
 3.6000e+000 73964 -1.8995e+000 -4.0693e+001 -1.8349e+001 61848 73837,73915,73889
 3.6000e+000 73941  9.0806e-001 -3.0222e+001 -1.7417e+001 61848 73837,73889,73863
 3.6000e+000 74059 -1.0705e+001 -5.4707e+001 -2.2480e+001 61848 73915,73837,74033
 3.6000e+000 74082 -1.3215e+001 -6.1878e+001 -2.6715e+001 61848 73915,74033,73785
 3.6000e+000 74283 -1.0706e+001 -3.4272e+001  5.5373e+000 61444 74306,74133,74107
 3.6000e+000 74260 -1.1591e+001 -2.6693e+001  1.7255e+001 61444 74306,74107,74211
 3.6000e+000 74237 -2.1567e+001 -1.2907e+001  6.8131e+000 61444 74378,74185,74159
 3.6000e+000 74332 -1.9311e+001 -3.8157e+001  1.0474e+000 61444 74159,74133,74306
 3.6000e+000 74355 -1.3573e+001 -2.7663e+001  1.0363e+001 61444 74378,74159,74306
 3.6000e+000 74404 -2.4335e+001 -2.8861e+001  1.3926e+001 61444 74211,74185,74378
 3.6000e+000 74427 -2.1456e+001 -3.4066e+001  1.3357e+001 61444 74211,74378,74306
 3.6000e+000 74628 -6.6720e+000 -3.5373e+001 -1.4730e+001 60990 74478,74530,74504
 3.6000e+000 74605 -6.5600e+000 -4.1943e+001 -2.0469e+001 60990 74452,74530,74478
 3.6000e+000 74582 -1.5649e+001 -4.5046e+001 -1.9309e+001 60990 74452,74556,74530
 3.6000e+000 75089 -8.8389e-001 -1.9614e+001 -1.0301e+001 60486 75112,74945,74919
 3.6000e+000 75066 -5.3637e+000  4.4393e+000  2.5082e+000 60486 75112,74919,74867
 3.6000e+000 75043  4.9404e-001 -3.9959e+001  1.1100e+001 60486 74841,74971,74867
 3.6000e+000 75020  1.3709e+000  7.2649e+000  2.1153e+000 60486 74867,74919,74893
 3.6000e+000 74997 -3.3661e+000 -4.0385e+001  1.2164e+001 60486 74815,74971,74841
 3.6000e+000 75138 -1.2222e+001 -2.8921e+001 -2.0801e+001 60486 74971,74945,75112
 3.6000e+000 75161 -1.6575e+001 -1.2875e+001 -6.8557e+000 60486 74971,75112,74867
 3.6000e+000 75409 -1.8099e+001 -7.1575e+000 -1.1257e+001 59932 75576,75432,75288
 3.6000e+000 75386 -2.3621e+001 -1.3009e+001 -1.0526e+001 59932 75504,75314,75288
 3.6000e+000 75363 -1.6590e+001 -4.8520e+000 -2.8389e+000 59932 75432,75236,75210
 3.6000e+000 75340 -2.8352e+000 -6.9151e+000 -1.6534e+001 59932 75576,75288,75262
 3.6000e+000 75458 -2.5273e+001 -1.0055e+001 -1.1403e+001 59932 75504,75288,75432
 3.6000e+000 75481 -2.6855e+001 -1.1430e+001 -6.5438e+000 59932 75184,75432,75210
 3.6000e+000 75530 -3.8236e+001 -4.3603e+001 -5.9281e+000 59932 75184,75314,75504
 3.6000e+000 75553 -2.5942e+001 -1.3539e+001 -1.1251e+001 59932 75184,75504,75432
 3.6000e+000 75602 -2.7571e+001 -1.4326e+001 -7.7519e+000 59932 75236,75432,75576
 3.6000e+000 75625 -2.1214e+001 -1.8727e+001 -1.1427e+001 59932 75236,75576,75262
 3.6000e+000 75873 -2.3512e+001 -9.1181e+001  3.4274e+000 59478 75674,75752,75700
 3.6000e+000 75850 -4.3204e+001 -9.8796e+001  2.3331e+001 59478 75648,75752,75674
 3.6000e+000 75827 -2.0633e+001 -8.3226e+001  7.3483e+000 59478 75700,75752,75726
 3.6000e+000 75804 -3.8936e+001 -1.1819e+002  2.7522e+001 59478 75648,75778,75752
 3.6000e+000 76206 -2.9035e+001 -9.8007e+001  1.4755e+001 59024 75981,76059,76007
 3.6000e+000 76183 -2.8366e+001 -9.6938e+001  1.4394e+001 59024 75981,76111,76059
 3.6000e+000 76160 -3.0697e+001 -7.6971e+001 -4.2858e-001 59024 76007,76059,76033
 3.6000e+000 76137 -1.9327e+001 -1.1018e+002  4.2278e+001 59024 76059,76111,76085
 3.6000e+000 76761 -1.0868e+001 -1.4488e+001 -2.5085e+000 58562 76389,76441,76415
 3.6000e+000 76738 -2.1013e+001 -2.4219e+001  1.0783e+001 58562 76856,76784,76389
 3.6000e+000 76715 -1.9254e+001 -1.1562e+001 -1.3731e+001 58562 76784,76571,76467
 3.6000e+000 76692 -1.7238e+001 -2.7073e+001  1.1752e+001 58562 76856,76389,76597
 3.6000e+000 76669 -1.6799e+001 -8.2567e+001  9.2248e+000 58562 76467,76545,76493
 3.6000e+000 76646 -1.2190e+001 -6.0605e+001 -2.9901e+001 58562 76467,76571,76545
 3.6000e+000 76623 -1.2995e+001 -6.3362e+001  1.9846e+001 58562 76493,76545,76519
 3.6000e+000 76810 -8.6770e+000 -2.7239e+001 -1.8114e-001 58562 76441,76389,76784
 3.6000e+000 76833 -5.0627e+001 -6.9378e+001 -3.2052e+001 58562 76441,76784,76467
 3.6000e+000 76882 -1.6947e+001 -2.0288e+001  1.2556e+001 58562 76571,76784,76856
 3.6000e+000 76905 -1.4267e+001 -2.3875e+001  1.3326e+001 58562 76571,76856,76597
 3.6000e+000 77055 -5.5641e+000 -5.4807e+001 -4.6049e+000 57844 76928,76980,76954
 3.6000e+000 77032 -2.3567e+001 -1.9023e+001 -5.0480e+000 57844 76928,77006,76980
 3.6000e+000 77533 -2.4314e+001 -8.4259e+001 -9.0453e+000 57226 77628,77556,77291
 3.6000e+000 77510 -1.8780e+001 -9.5097e+000  2.3794e+000 57226 77556,77187,77343
 3.6000e+000 77487  9.2913e-002 -5.6856e+001 -1.9777e+001 57226 77628,77291,77265
 3.6000e+000 77464 -6.9922e+000 -1.0152e+002  1.0216e+001 57226 77700,77213,77187
 3.6000e+000 77441 -1.9475e+001 -2.3546e+001 -1.8273e+001 57226 77161,77343,77187
 3.6000e+000 77418 -6.7044e+000 -2.0039e+001 -2.0261e+001 57226 77161,77369,77343
 3.6000e+000 77395 -2.5031e+000 -1.7120e+000 -1.3852e+001 57226 77213,77265,77239
 3.6000e+000 77582 -2.6466e+001 -7.3370e+001  1.1835e+001 57226 77317,77291,77556
 3.6000e+000 77605 -2.1585e+001 -4.5452e+001  1.4613e+000 57226 77317,77556,77343
 3.6000e+000 77654  1.2483e+001 -4.5086e+001  1.1176e+001 57226 77187,77556,77628
 3.6000e+000 77677 -4.0437e+000 -9.2813e+001  9.5781e+000 57226 77700,77187,77628
 3.6000e+000 77726 -1.6532e+001 -1.0872e+002 -2.4095e+001 57226 77265,77213,77700
 3.6000e+000 77749 -3.6792e+000 -7.7720e+001 -2.3154e+001 57226 77265,77700,77628
 3.6000e+000 78046 -1.3601e+001 -7.6087e+001  2.2432e+001 56936 77798,77850,77824
 3.6000e+000 78023 -2.0849e+001 -8.4428e+001  2.4397e+001 56936 78069,77798,77902
 3.6000e+000 78000 -2.5026e+001 -8.6214e+001  2.3165e+001 56936 78069,77902,77876
 3.6000e+000 77977  7.5903e+000 -7.8232e+001 -6.9445e+000 56936 77798,77928,77902
 3.6000e+000 77954 -1.3227e+001 -2.8345e+001  2.9398e+000 56936 77772,77928,77798
 3.6000e+000 78095 -1.9088e+001 -8.5301e+001  2.5239e+001 56936 77850,77798,78069
 3.6000e+000 78118 -2.1014e+001 -8.5314e+001  2.4258e+001 56936 77850,78069,77876
 3.6000e+000 78754  2.1609e-001 -6.2676e+001 -1.0791e+001 56475 78777,78486,78408
 3.6000e+000 78731 -6.7545e+000 -6.9233e+001 -7.6598e+000 56475 78777,78408,78382
 3.6000e+000 78708 -7.9419e+000 -7.4228e+001 -1.8253e+001 56475 78849,78512,78486
 3.6000e+000 78685 -3.0186e+001 -5.2703e+001  2.2071e-001 56475 78382,78590,78564
 3.6000e+000 78662 -1.6706e+001 -7.8406e+001 -1.8900e+001 56475 78512,78564,78538
 3.6000e+000 78639  5.3145e-001 -1.4603e+002  1.4519e+001 56475 78434,78486,78460
 3.6000e+000 78616 -3.7614e+001 -1.3804e+002  8.9195e+000 56475 78408,78486,78434
 3.6000e+000 78803 -5.9633e+000 -6.8678e+001 -1.3349e+001 56475 78849,78486,78777
 3.6000e+000 78826 -1.8917e+000 -5.8411e+001 -5.9678e+000 56475 78564,78777,78382
 3.6000e+000 78875 -5.7455e+000 -6.4390e+001 -1.4196e+001 56475 78564,78512,78849
 3.6000e+000 78898 -6.2059e+000 -5.8946e+001 -1.0518e+001 56475 78564,78849,78777
 3.6000e+000 79276 -4.3758e+001 -6.3498e+001  1.1737e+000 55964 79299,79080,79028
 3.6000e+000 79253 -3.4005e+001 -6.2276e+001  3.2342e+000 55964 79299,79028,79132
 3.6000e+000 79230 -4.8120e+001 -8.9295e+001  8.7701e-001 55964 79028,79080,79054
 3.6000e+000 79207 -1.9411e+001 -5.6285e+001  5.7028e+000 55964 79002,79132,79028
 3.6000e+000 79184  1.5522e+000 -4.6554e+001 -2.0597e+000 55964 79002,79158,79132
 3.6000e+000 79325 -3.8990e+001 -6.3908e+001  8.1874e+000 55964 79106,79080,79299
 3.6000e+000 79348 -2.8613e+001 -6.2991e+001  9.7846e+000 55964 79106,79299,79132
 3.6000e+000 79498 -2.4258e+001 -8.0399e+001  1.1445e+001 55452 79397,79449,79423
 3.6000e+000 79475 -4.8301e+001 -7.5603e+001  9.8767e-001 55452 79371,79449,79397
 3.6000e+000 79795 -4.5060e+001 -7.8237e+001  3.6862e+000 55048 79962,79818,79573
 3.6000e+000 79772 -3.7833e+001 -7.3285e+001 -1.2733e+000 55048 79818,79521,79677
 3.6000e+000 79749 -2.9788e+001 -1.2046e+002  2.5144e+001 55048 79599,79651,79625
 3.6000e+000 79726 -4.8637e+001 -9.8276e+001  2.1757e+001 55048 79890,79651,79599
 3.6000e+000 79703 -3.8690e+001 -7.9117e+001  1.2644e+001 55048 79962,79573,79547
 3.6000e+000 79844 -4.1354e+001 -6.4723e+001  6.5921e+000 55048 79599,79573,79818
 3.6000e+000 79867 -4.7277e+001 -8.7352e+001  9.6295e+000 55048 79890,79599,79818
 3.6000e+000 79916 -2.9257e+001 -8.8154e+001  1.2013e+001 55048 79677,79651,79890
 3.6000e+000 79939 -3.1256e+001 -8.3393e+001  6.9412e-001 55048 79677,79890,79818
 3.6000e+000 79988 -5.6905e+001 -8.1815e+001  5.5247e+000 55048 79521,79818,79962
 3.6000e+000 80011 -5.6654e+001 -8.3508e+001  1.3246e+001 55048 79521,79962,79547
 3.6000e+000 80212 -2.9381e+001 -5.7208e+001  9.2830e+000 54436 80235,80088,80036
 3.6000e+000 80189 -1.6103e+001 -4.8184e+001  5.2886e+000 54436 80235,80036,80140
 3.6000e+000 80166 -2.7519e+001 -7.8324e+001 -5.7825e+000 54436 80036,80088,80062
 3.6000e+000 80261 -1.7140e+001 -7.3275e+001  1.9101e+001 54436 80114,80088,80235
 3.6000e+000 80284  3.0820e-001 -6.2328e+001  1.4448e+001 54436 80114,80235,80140
 3.6000e+000 80534 -4.0731e+000 -3.7930e+001  7.3541e+000 54032 80557,80361,80335
 3.6000e+000 80511 -6.5319e+000 -5.1137e+001  1.5908e+001 54032 80557,80335,80309
 3.6000e+000 80488 -5.8055e+000 -4.1356e+001  3.7294e+000 54032 80629,80413,80387
 3.6000e+000 80465 -1.8693e+001 -7.2819e+001  9.2842e+000 54032 80309,80439,80413
 3.6000e+000 80583 -1.3572e+000 -8.1834e+000  3.4696e+000 54032 80387,80361,80557
 3.6000e+000 80606 -4.4136e+000 -3.6834e+001  7.9141e+000 54032 80629,80387,80557
 3.6000e+000 80655 -9.8036e+000 -4.2574e+001  1.7335e+000 54032 80309,80413,80629
 3.6000e+000 80678 -1.1968e+001 -4.1360e+001  5.2948e+000 54032 80309,80629,80557
 3.6000e+000 81139 -5.8789e+000 -7.5773e+000  1.5381e+001 53784 80865,80995,80917
 3.6000e+000 81116  3.3887e+000  4.3208e+000 -5.1336e+000 53784 80865,81021,80995
 3.6000e+000 81093 -9.0068e+000 -4.8883e+001  2.9085e+001 53784 80943,80995,80969
 3.6000e+000 81070 -1.5185e+001 -1.8751e+001  1.0917e+001 53784 80917,80995,80943
 3.6000e+000 81047  4.5535e+000 -1.0464e+002  2.3335e+000 53784 80865,80917,80891
 3.6000e+000 81468 -7.9311e+000 -3.4546e+001  7.5653e+000 53230 81295,81373,81347
 3.6000e+000 81445 -5.6588e+000 -4.4682e+001  1.0258e+001 53230 81243,81373,81295
 3.6000e+000 81422 -2.8020e+001 -5.5877e+001 -5.0653e+000 53230 81243,81295,81269
 3.6000e+000 81399  2.2578e+000 -2.3723e+001 -9.6863e+000 53230 81295,81347,81321
 3.6000e+000 81618  9.5661e+000  1.3034e+001  5.8871e-001 52790 81491,81543,81517
 3.6000e+000 81595  3.3589e+000 -4.4950e+001  1.0102e+001 52790 81491,81569,81543
 3.6000e+000 82126  2.0870e+001 -8.1072e+000 -2.1891e+001 52386 82149,81907,81881
 3.6000e+000 82103  5.0137e+000 -3.6958e+001 -1.0125e+001 52386 82149,81881,81855
 3.6000e+000 82080 -2.0769e+000 -3.3666e+001 -5.8572e-002 52386 82221,81803,81985
 3.6000e+000 82057 -3.2666e+001 -4.3658e+001 -3.5474e+000 52386 81803,81855,81829
 3.6000e+000 82034 -1.4652e+000 -5.4129e+001 -1.2100e+001 52386 81907,81985,81933
 3.6000e+000 82011 -1.0732e+001 -3.8654e+001 -1.9339e+001 52386 81933,81985,81959
 3.6000e+000 82175  3.7579e+000 -3.4977e+001 -7.8782e+000 52386 81985,81907,82149
 3.6000e+000 82198  1.0769e+001 -3.4525e+001 -4.7684e+000 52386 82221,81985,82149
 3.6000e+000 82247 -7.4927e+000 -3.7869e+001  6.6500e+000 52386 81855,81803,82221
 3.6000e+000 82270 -1.4280e+000 -4.3145e+001  2.1049e+000 52386 81855,82221,82149
 3.6000e+000 82825 -2.1423e+001 -4.5789e+001  1.5424e+000 51782 82505,82661,82635
 3.6000e+000 82802 -4.4997e+001 -7.0617e+001 -1.1420e+001 51782 82479,82661,82505
 3.6000e+000 82779 -2.5156e+001 -8.5289e+001 -3.1001e+001 51782 82557,82635,82609
 3.6000e+000 82756 -1.9360e+001 -7.0760e+001 -6.1210e+000 51782 82531,82635,82557
 3.6000e+000 82733 -3.0845e+001 -5.6311e+001 -9.6808e+000 51782 82505,82635,82531
 3.6000e+000 82710 -5.9681e+000 -3.3743e+001  1.1486e+001 51782 82453,82661,82479
 3.6000e+000 82687  7.6132e-001 -4.5909e+001 -1.6432e+001 51782 82557,82609,82583
 3.6000e+000 83171 -4.1894e+001 -9.4238e+001  1.4956e+001 51442 83194,82978,82900
 3.6000e+000 83148 -5.8618e+001 -7.8676e+001  1.2340e+001 51442 83194,82900,82874
 3.6000e+000 83125 -4.2868e+001 -9.4636e+001  1.5319e+001 51442 82900,82978,82926
 3.6000e+000 83102 -3.8743e+001 -6.6385e+001  8.2948e+000 51442 82874,83030,83004
 3.6000e+000 83079 -1.6902e+001 -9.0109e+001  9.9902e+000 51442 82926,82978,82952
 3.6000e+000 83056 -1.6163e+001 -6.4941e+001  9.6776e+000 51442 82848,83030,82874
 3.6000e+000 83220 -3.1638e+001 -8.6499e+001  1.1580e+001 51442 83004,82978,83194
 3.6000e+000 83243 -4.9571e+001 -7.1166e+001  9.0976e+000 51442 83004,83194,82874
 3.6000e+000 83751 -4.4356e+001 -3.6044e+001  6.9404e-001 50938 83428,83584,83454
 3.6000e+000 83728 -3.7686e+001 -3.4307e+001  7.4869e+000 50938 83428,83610,83584
 3.6000e+000 83705 -3.5634e+001 -4.6888e+001  9.4675e-001 50938 83454,83584,83558
 3.6000e+000 83682 -1.4829e+001 -3.6772e+001  7.8139e+000 50938 83454,83532,83480
 3.6000e+000 83659 -2.1530e+001 -3.8720e+001  9.7636e+000 50938 83454,83558,83532
 3.6000e+000 83636 -2.7221e+001 -5.2696e+001  1.2059e+000 50938 83480,83532,83506
 3.6000e+000 84355  1.1563e-001 -5.6369e+001  1.6935e+000 50377 84378,83960,83934
 3.6000e+000 84332  7.7555e+000 -3.6475e+001  4.2978e+000 50377 84522,84378,83934
 3.6000e+000 84309  1.4451e+000 -3.9543e+001 -4.3318e+000 50377 84450,84038,84012
 3.6000e+000 84286  3.5726e+000 -2.6340e+001  3.1417e+000 50377 84522,83934,84142
 3.6000e+000 84263  3.9349e+000 -2.0714e+001 -6.3128e+000 50377 84594,84090,84038
 3.6000e+000 84240 -2.1248e+001 -4.6536e+001 -5.8796e+000 50377 83960,84012,83986
 3.6000e+000 84217  5.7550e+000 -1.7393e+001 -1.0185e+001 50377 83934,84168,84142
 3.6000e+000 84194 -7.5369e-001 -3.0749e+000  7.1832e+000 50377 84038,84090,84064
 3.6000e+000 84404 -1.5969e+001 -5.1123e+001 -1.0280e+001 50377 84012,83960,84378
 3.6000e+000 84427  5.3936e+000 -3.7008e+001 -1.7512e+000 50377 84450,84012,84378
 3.6000e+000 84476  5.0341e+000 -2.9323e+001 -6.3146e+000 50377 84594,84038,84450
 3.6000e+000 84499  3.2157e+000 -5.1049e+001 -4.0197e+000 50377 84116,84450,84378
 3.6000e+000 84548  8.4396e+000 -5.0896e+001 -8.2437e-001 50377 84116,84378,84522
 3.6000e+000 84571  6.2510e+000 -3.8118e+001 -2.3165e+000 50377 84116,84522,84142
 3.6000e+000 84620  5.8626e+000 -3.3751e+001 -2.2458e-001 50377 84116,84090,84594
 3.6000e+000 84643  6.8468e+000 -4.1955e+001  3.7402e-001 50377 84116,84594,84450
 3.6000e+000 84842 -1.8663e+001 -9.5124e+001  1.1490e+001 49923 84865,84692,84666
 3.6000e+000 84819 -4.2514e+001 -9.0582e+001 -3.6270e+000 49923 84865,84666,84770
 3.6000e+000 84796 -8.3968e+000 -1.2574e+002 -9.5857e+000 49923 84692,84744,84718
 3.6000e+000 84891 -3.4023e+001 -1.0091e+002 -1.3844e+000 49923 84744,84692,84865
 3.6000e+000 84914 -6.1727e+001 -1.0499e+002 -1.8597e+001 49923 84744,84865,84770
 3.6000e+000 85501 -5.1199e+000 -4.8280e+001  7.5356e+000 49618 85524,85282,85204
 3.6000e+000 85478 -4.2592e+000 -5.0121e+001  4.9024e+000 49618 85596,85524,85204
 3.6000e+000 85455 -1.2632e+000 -5.7625e+001  4.3467e+000 49618 85596,85204,85178
 3.6000e+000 85432 -1.4196e+001 -5.5281e+001  1.0576e+001 49618 85204,85282,85256
 3.6000e+000 85409 -2.0557e+001 -8.2150e+001 -3.0627e+000 49618 85282,85334,85308
 3.6000e+000 85386 -1.2540e+001 -5.7294e+001 -1.3893e+000 49618 85204,85256,85230
 3.6000e+000 85550 -4.2023e+000 -5.0709e+001  3.4964e+000 49618 85334,85282,85524
 3.6000e+000 85573 -1.1983e+001 -5.3835e+001  4.1887e+000 49618 85334,85524,85360
 3.6000e+000 85622 -8.9125e+000 -5.9634e+001  7.9083e+000 49618 85360,85524,85596
 3.6000e+000 85645 -3.2650e+000 -6.3987e+001  6.6339e+000 49618 85360,85596,85178
 3.6000e+000 85795 -5.8989e+001 -1.6163e+002 -1.8229e+001 49278 85694,85746,85720
 3.6000e+000 85772 -6.5941e+001 -2.7634e+002 -1.4070e+001 49278 85668,85746,85694
 3.6000e+000 86197 -2.4364e+001 -9.3012e+001 -5.6345e+000 48916 86001,86079,86027
 3.6000e+000 86174 -4.8359e+000 -4.4324e+001 -5.5339e+000 48916 85949,86079,86001
 3.6000e+000 86151 -2.7253e+000 -9.6466e+001 -5.5595e-001 48916 85949,86001,85975
 3.6000e+000 86128 -2.8565e+001 -1.0653e+002 -6.0087e+000 48916 86027,86079,86053
 3.6000e+000 86105 -2.8696e+000 -2.7150e+001  9.0968e+000 48916 85923,86079,85949
 3.6000e+000 86477 -2.8212e+001 -4.0417e+001  5.2385e+000 48398 86327,86379,86353
 3.6000e+000 86454 -2.2223e+001 -4.6621e+001  1.0192e+001 48398 86500,86379,86327
 3.6000e+000 86431 -1.6527e+001 -3.2820e+001  1.4907e+001 48398 86301,86405,86379
 3.6000e+000 86526 -2.2127e+001 -3.7140e+001  1.7070e+001 48398 86301,86379,86500
 3.6000e+000 87032 -1.6880e+001 -6.0835e+001 -1.1315e+001 48008 87127,87055,86787
 3.6000e+000 87009 -2.3663e+001 -9.3358e+001  4.7700e+000 48008 87055,86735,86709
 3.6000e+000 86986 -3.0048e+001 -5.2908e+001 -9.0011e+000 48008 87127,86787,86761
 3.6000e+000 86963 -1.8658e+001 -4.0881e+001 -4.3380e+000 48008 86787,86865,86839
 3.6000e+000 86940 -7.4463e+000 -4.4460e+001  1.0455e+001 48008 86709,86891,86865
 3.6000e+000 86917 -3.6403e+001 -4.9068e+001 -6.9070e+000 48008 86787,86839,86813
 3.6000e+000 87081 -2.3834e+001 -6.3528e+001 -4.9699e+000 48008 86865,86787,87055
 3.6000e+000 87104 -1.1732e+001 -4.6501e+001  1.1176e+001 48008 86865,87055,86709
 3.6000e+000 87153 -3.2587e+001 -7.9187e+001 -1.8495e+001 48008 86735,87055,87127
 3.6000e+000 87176 -4.6911e+001 -6.0531e+001 -1.7505e+001 48008 86735,87127,86761
 3.6000e+000 87456 -2.3182e+001 -6.7005e+001  1.3525e+001 47604 87306,87358,87332
 3.6000e+000 87433  1.6278e+001 -4.2317e+001  2.2384e+000 47604 87306,87384,87358
 3.6000e+000 87410 -1.3630e+001 -5.5182e+001  1.1351e+000 47604 87280,87384,87306
 3.6000e+000 87785  3.5137e+000 -6.4139e+001  1.5072e+001 47264 87638,87690,87664
 3.6000e+000 87762 -1.8935e+001 -9.5135e+001  2.5485e+001 47264 87612,87690,87638
 3.6000e+000 87739 -2.3059e+001 -1.1618e+002  2.8839e+001 47264 87560,87690,87612
 3.6000e+000 87716 -9.8347e+000 -1.2705e+002  1.2676e+001 47264 87560,87612,87586
 3.6000e+000 87935  4.0013e+000  8.6972e+000  8.6564e-001 46952 87808,87860,87834
 3.6000e+000 87912 -4.0363e-001 -6.1397e-001  2.1472e+000 46952 87808,87886,87860
 3.6000e+000 88281 -2.2174e+001 -7.5668e+001  4.9080e+000 46526 88304,88114,88036
 3.6000e+000 88258 -2.1100e+001 -7.2950e+001  6.0196e+000 46526 88304,88036,87984
 3.6000e+000 88235 -2.5893e+001 -7.6468e+001  2.7189e+000 46526 88036,88114,88062
 3.6000e+000 88212 -1.0957e+001 -6.3934e+001  1.1419e+001 46526 87958,88140,87984
 3.6000e+000 88189 -1.7827e+001 -6.5438e+001  8.0810e+000 46526 87984,88036,88010
 3.6000e+000 88166 -2.0542e+001 -5.7197e+001  1.3429e+001 46526 88062,88114,88088
 3.6000e+000 88330 -2.4003e+001 -7.2733e+001  4.5516e+000 46526 88140,88114,88304
 3.6000e+000 88353 -2.3359e+001 -7.0287e+001  5.2871e+000 46526 88140,88304,87984
 3.6000e+000 88701  1.7155e+001 -4.4980e+001  2.2506e+001 45822 88724,88378,88534
 3.6000e+000 88678  1.7823e+001 -3.3964e+001  2.3694e+001 45822 88378,88560,88534
 3.6000e+000 88655 -6.8225e+000 -5.1845e+001  1.8701e+001 45822 88724,88534,88508
 3.6000e+000 88632 -2.3733e+001 -6.3640e+001  4.8589e+000 45822 88404,88508,88456
 3.6000e+000 88609 -2.6060e+001 -6.7953e+001  6.5399e+000 45822 88404,88456,88430
 3.6000e+000 88586 -7.0529e+000 -2.9032e+001 -1.3786e+001 45822 88456,88508,88482
 3.6000e+000 88750 -2.1438e+000 -4.3732e+001  9.2795e+000 45822 88404,88378,88724
 3.6000e+000 88773 -2.0830e+001 -4.7209e+001  5.4114e+000 45822 88404,88724,88508
 3.6000e+000 89106 -1.6432e+001 -1.0985e+001  1.4717e+001 45418 88881,88985,88907
 3.6000e+000 89083 -3.2729e+000 -1.2881e+001  1.2977e+001 45418 88881,89011,88985
 3.6000e+000 89060 -3.8389e+000 -1.9230e+001  9.0532e+000 45418 88907,88985,88933
 3.6000e+000 89037  3.1773e+000  2.1682e+000  1.1835e+001 45418 88933,88985,88959
 3.6000e+000 89435 -2.1025e+001 -5.9391e+001  2.1638e+001 44914 89210,89288,89236
 3.6000e+000 89412 -3.8597e+001 -8.2800e+001  3.1314e+001 44914 89210,89314,89288
 3.6000e+000 89389 -6.5655e+000 -4.8222e+001  1.5448e+001 44914 89210,89340,89314
 3.6000e+000 89366 -3.0302e+001 -6.3287e+001  2.2046e+001 44914 89236,89288,89262
 3.6000e+000 89634 -1.7324e+001 -6.3637e+001  3.1644e+001 44538 89510,89562,89536
 3.6000e+000 89611 -2.8912e+001 -5.3437e+001  1.2118e+001 44538 89458,89562,89510
 3.6000e+000 89588 -2.1517e+001 -5.7384e+001  9.4418e+000 44538 89458,89510,89484
 3.6000e+000 90044 -1.1785e+000 -2.1228e+001  6.0413e+000 44134 89819,89923,89845
 3.6000e+000 90021 -1.6778e+001 -2.5219e+001 -1.5869e+001 44134 89819,89949,89923
 3.6000e+000 89998  4.5842e+000  1.0150e+000  4.2476e+000 44134 89845,89923,89897
 3.6000e+000 89975 -5.4850e+000 -3.5110e+001  1.0289e+001 44134 89845,89897,89871
 3.6000e+000 90520 -4.0250e-001 -3.2769e+001  1.3416e+001 43457 90543,90252,90226
 3.6000e+000 90497  6.2748e+000 -5.5363e+001 -1.1379e+000 43457 90543,90226,90330
 3.6000e+000 90474 -1.2246e+000 -5.0490e+001 -5.9071e+000 43457 90200,90330,90226
 3.6000e+000 90451 -9.4944e+000 -4.0778e+001  1.3283e+001 43457 90200,90356,90330
 3.6000e+000 90428  1.2401e+000 -3.6567e+001  1.5076e+000 43457 90252,90304,90278
 3.6000e+000 90405 -9.0380e+000 -1.2607e+001  1.4704e+001 43457 90174,90356,90200
 3.6000e+000 90382 -1.7520e+000 -1.2231e+001  1.6049e+001 43457 90148,90356,90174
 3.6000e+000 90569 -8.2231e-001 -5.5942e+001  7.5596e+000 43457 90304,90252,90543
 3.6000e+000 90592 -4.2906e+000 -9.0719e+001 -8.5753e+000 43457 90304,90543,90330
 3.6000e+000 91098 -1.7113e+001 -5.1714e+001 -1.6176e+000 42789 90801,90905,90853
 3.6000e+000 91075 -2.5628e+001 -6.3933e+001  2.0996e+000 42789 90775,90905,90801
 3.6000e+000 91052 -2.0362e+001 -6.3442e+001  1.0970e+001 42789 90775,90931,90905
 3.6000e+000 91029 -2.8135e+001 -8.4512e+001  4.2733e-001 42789 90801,90853,90827
 3.6000e+000 91006  9.4838e-001 -4.4177e+001 -1.0101e+000 42789 90853,90905,90879
 3.6000e+000 90983 -1.9844e+001 -7.1336e+001  1.0558e+001 42789 90775,90957,90931
 3.6000e+000 91427 -7.4515e+000 -7.4037e+001  3.9246e+000 42227 91228,91280,91254
 3.6000e+000 91404  8.9273e+000 -5.7557e+001 -3.3427e+000 42227 91228,91306,91280
 3.6000e+000 91381 -1.4949e+001 -6.5160e+001  5.5119e+000 42227 91202,91306,91228
 3.6000e+000 91358  5.3410e+000 -4.3389e+001 -6.1989e+000 42227 91202,91332,91306
 3.6000e+000 91675 -1.1860e+001 -5.6544e+001  1.6434e+001 41773 91698,91476,91450
 3.6000e+000 91652 -4.4716e+000 -4.8168e+001  2.8674e+001 41773 91698,91450,91554
 3.6000e+000 91629 -2.2124e+001 -4.8459e+001  3.3119e+001 41773 91450,91580,91554
 3.6000e+000 91606 -9.8292e+000 -6.1720e+001  1.5764e+001 41773 91502,91554,91528
 3.6000e+000 91724 -2.2591e+001 -5.7653e+001  8.7065e+000 41773 91502,91476,91698
 3.6000e+000 91747 -1.7253e+001 -4.9888e+001  2.0997e+001 41773 91502,91698,91554
 3.6000e+000 92127 -3.5580e+001 -6.0928e+001 -5.8691e+000 41255 92150,91905,91879
 3.6000e+000 92104 -6.5829e+000 -5.4992e+001 -1.7621e+001 41255 92150,91879,91957
 3.6000e+000 92081  1.4928e+001 -9.2768e+001  1.5049e+001 41255 91853,91957,91879
 3.6000e+000 92058  1.2561e+001 -9.7664e+001  1.1381e+001 41255 91853,91983,91957
 3.6000e+000 92035 -5.3473e+000 -4.4516e+001 -5.6854e+000 41255 91853,92009,91983
 3.6000e+000 92176 -8.9460e+000 -7.1644e+001 -2.0271e+001 41255 91931,91905,92150
 3.6000e+000 92199  3.5625e+001 -4.6003e+001 -3.7836e+001 41255 91931,92150,91957
 3.6000e+000 92518 -1.3926e+001 -9.4479e+001 -9.7224e+000 41007 92244,92374,92270
 3.6000e+000 92495 -4.5702e+001 -9.6937e+001 -9.8099e+000 41007 92244,92400,92374
 3.6000e+000 92472 -5.4103e+000 -7.6429e+001 -3.9917e-001 41007 92270,92374,92348
 3.6000e+000 92449 -6.4070e+000 -2.0343e+001  1.1052e+001 41007 92296,92348,92322
 3.6000e+000 92426 -4.3104e+000 -4.3138e+001 -3.8086e+000 41007 92270,92348,92296
 3.6000e+000 92668 -1.9978e+001 -5.6476e+001 -1.4721e+001 40717 92823,92691,92567
 3.6000e+000 92645 -1.9002e+001 -5.4067e+001 -1.4147e+001 40717 92895,92823,92567
 3.6000e+000 92717 -8.1356e+000 -5.0922e+001 -1.0596e+001 40717 92593,92567,92691
 3.6000e+000 92849 -1.9106e+001 -5.6021e+001 -1.5061e+001 40717 92619,92691,92823
 3.6000e+000 92872 -2.1707e+001 -5.1887e+001 -9.3663e+000 40717 92619,92823,92541
 3.6000e+000 92921 -2.7728e+001 -6.3235e+001 -7.1281e+000 40717 92541,92823,92895
 3.6000e+000 93634 -4.3062e+001 -1.6408e+002 -1.3661e+000 40206 93366,93444,93418
 3.6000e+000 93611 -2.3329e+001 -7.2045e+001 -3.2438e+000 40206 93288,93444,93366
 3.6000e+000 93588 -5.4853e+001 -1.2268e+002  1.0148e+001 40206 93288,93366,93314
 3.6000e+000 93565 -3.5249e+001 -7.2824e+001  2.9520e+000 40206 93262,93444,93288
 3.6000e+000 93542 -7.1900e+000 -1.4359e+002  7.0543e+000 40206 93366,93418,93392
 3.6000e+000 93519 -3.4357e+001 -8.8992e+001  5.2793e+000 40206 93262,93470,93444
 3.6000e+000 93496 -3.1915e+001 -1.1343e+002  2.2877e+001 40206 93314,93366,93340
 3.6000e+000 94189 -1.5642e+001 -3.8985e+001  1.0750e+001 39802 93843,93999,93973
 3.6000e+000 94166  2.1179e+001 -1.8521e+001 -1.0091e+000 39802 93817,93999,93843
 3.6000e+000 94143 -7.7184e+000 -2.3643e+001 -8.7941e-001 39802 93869,93973,93947
 3.6000e+000 94120 -3.1490e+000 -2.5627e+001  5.5372e+000 39802 93843,93973,93869
 3.6000e+000 94097 -4.3352e+000 -2.8266e+001  1.1981e-001 39802 93869,93921,93895
 3.6000e+000 94074 -2.5554e+000 -2.5223e+001 -2.2344e+000 39802 93869,93947,93921
 3.6000e+000 94051 -2.8094e+001 -3.4664e+001  1.7843e+001 39802 93817,94025,93999
 3.6000e+000 94290 -1.2704e+001 -3.8378e+001 -1.0807e+001 39398 94212,94264,94238
 3.6000e+000 94798 -1.4024e+001 -6.4387e+001 -2.8724e+000 38701 94501,94657,94631
 3.6000e+000 94775 -1.9040e+001 -5.2272e+001  5.3393e+000 38701 94475,94657,94501
 3.6000e+000 94752  6.0678e+000 -5.8086e+001 -4.8193e+000 38701 94579,94631,94605
 3.6000e+000 94729 -2.0118e+001 -1.0114e+002 -1.7441e+001 38701 94553,94631,94579
 3.6000e+000 94706 -3.3937e+001 -9.9548e+001  7.1682e+000 38701 94501,94631,94553
 3.6000e+000 94683 -2.3440e+001 -1.7422e+002  2.3320e+000 38701 94501,94553,94527
 3.6000e+000 95255 -3.4521e+001 -8.8583e+001 -2.5867e+000 38247 95278,95085,95007
 3.6000e+000 95232 -2.5688e+001 -8.6108e+001 -3.8264e+000 38247 95278,95007,95137
 3.6000e+000 95209 -1.3446e+001 -7.6030e+001  3.0975e+000 38247 94981,95137,95007
 3.6000e+000 95186 -2.4614e+001 -6.1006e+001 -3.5698e+000 38247 95007,95059,95033
 3.6000e+000 95163 -2.3638e+001 -6.3382e+001 -1.3302e+001 38247 95007,95085,95059
 3.6000e+000 95304 -3.7975e+001 -8.9821e+001  4.9884e+000 38247 95111,95085,95278
 3.6000e+000 95327 -2.9711e+001 -8.5838e+001  2.7781e+000 38247 95111,95278,95137
 3.6000e+000 95575 -1.6339e+001 -1.1156e+001 -3.3903e+000 37564 95376,95428,95402
 3.6000e+000 95552 -1.4094e+001 -2.0847e+001 -3.7392e+000 37564 95376,95454,95428
 3.6000e+000 95529 -2.2874e+000 -1.3557e+001  4.7735e-001 37564 95376,95480,95454
 3.6000e+000 95506  8.9899e+000 -3.0631e+001 -2.6458e+000 37564 95350,95480,95376
 3.6000e+000 96034 -2.2758e+001 -8.1581e+001 -2.1674e+001 37224 95786,95838,95812
 3.6000e+000 96011  1.1803e+000 -4.7948e+001 -2.5653e+000 37224 95786,95890,95838
 3.6000e+000 95988 -1.3488e+001 -4.7259e+001  1.9432e+000 37224 95786,95916,95890
 3.6000e+000 95965  3.5677e+000 -2.8291e+001 -1.6740e+001 37224 95760,95916,95786
 3.6000e+000 95942 -3.5608e+000 -6.1842e+001 -1.6360e+001 37224 95838,95890,95864
 3.6000e+000 96363 -5.9641e+000 -8.2707e+000 -5.4555e+000 36884 96216,96268,96242
 3.6000e+000 96340  3.8563e+000 -9.3396e+000 -5.6701e+000 36884 96164,96268,96216
 3.6000e+000 96317  1.3180e+001 -9.5810e+000 -2.3360e+000 36884 96138,96268,96164
 3.6000e+000 96294 -3.4448e+000 -2.2370e+001  5.4709e-001 36884 96164,96216,96190
 3.6000e+000 96839 -1.4309e+001 -7.1836e+001  1.7543e+001 36572 96862,96649,96597
 3.6000e+000 96816  5.7314e+000 -6.1015e+001  9.1594e+000 36572 97006,96862,96597
 3.6000e+000 96793  1.1151e+001 -1.8097e+001 -7.6842e+000 36572 96934,96467,96675
 3.6000e+000 96770  7.7106e+000 -6.1064e+001  9.8907e+000 36572 97006,96597,96571
 3.6000e+000 96747  5.8455e+000 -5.2496e+001  5.3336e+000 36572 96467,96519,96493
 3.6000e+000 96724  1.3638e+001 -4.5407e+001  5.2817e+000 36572 96519,96571,96545
 3.6000e+000 96701 -1.8370e+001 -4.6842e+001  1.3594e+000 36572 96597,96649,96623
 3.6000e+000 96888  7.7125e+000 -7.1014e+001 -4.5118e+000 36572 96675,96649,96862
 3.6000e+000 96911  1.6488e+001 -4.7343e+001 -1.0526e+001 36572 96934,96675,96862
 3.6000e+000 96960  6.1383e+000 -4.6525e+001 -3.0308e+000 36572 96519,96467,96934
 3.6000e+000 96983  1.3332e+001 -6.7775e+001  2.4868e-001 36572 97078,96934,96862
 3.6000e+000 97032  4.7563e+000 -6.5278e+001  8.6091e+000 36572 97078,96862,97006
 3.6000e+000 97055  6.9208e+000 -5.7888e+001  8.1153e+000 36572 96519,97006,96571
 3.6000e+000 97104  1.8652e+001 -5.6586e+001 -3.3751e+000 36572 96519,96934,97078
 3.6000e+000 97127  1.4376e+001 -5.2311e+001  4.0110e+000 36572 96519,97078,97006
 3.6000e+000 97761  2.9971e+000 -5.2209e+001 -6.2714e+000 36118 97784,97493,97415
 3.6000e+000 97738  3.6373e-001 -5.9838e+001 -7.8196e-001 36118 97784,97415,97597
 3.6000e+000 97715 -3.1729e+000 -6.6227e+001 -8.3887e+000 36118 97389,97597,97415
 3.6000e+000 97692 -1.8550e+001 -6.8917e+001  6.3337e+000 36118 97415,97467,97441
 3.6000e+000 97669 -1.5610e+001 -5.9468e+001  6.0053e+000 36118 97415,97493,97467
 3.6000e+000 97646 -1.3195e+001 -2.5461e+001 -4.3691e+000 36118 97493,97571,97519
 3.6000e+000 97623 -1.5899e+001 -3.8883e+001 -1.2942e+000 36118 97519,97571,97545
 3.6000e+000 97810 -2.9202e-001 -3.8887e+001 -1.1549e+001 36118 97571,97493,97784
 3.6000e+000 97833 -1.0173e+001 -4.9123e+001 -3.4859e+000 36118 97571,97784,97597
 3.6000e+000 98081 -1.2798e+000 -1.4562e+001 -2.6192e+000 35564 98104,97908,97856
 3.6000e+000 98058  2.3788e+000 -2.1770e+001 -6.0913e+000 35564 98104,97856,97986
 3.6000e+000 98035  3.1993e+001 -1.3577e+001  1.2466e+001 35564 97934,97986,97960
 3.6000e+000 98012 -2.9872e+000 -2.1682e+001  4.7204e+000 35564 97856,97908,97882
 3.6000e+000 98130  9.5756e+000  7.0876e+000  2.7558e+000 35564 97934,97908,98104
 3.6000e+000 98153  1.0846e+000 -1.5192e+001 -3.5420e+000 35564 97934,98104,97986
 3.6000e+000 98374 -1.5204e+001 -1.2663e+001 -3.7863e+000 35152 98224,98302,98276
 3.6000e+000 98351 -1.9813e+001 -2.6978e+001  1.8980e+000 35152 98198,98302,98224
 3.6000e+000 98328  3.4054e+000 -3.8081e+000 -8.2801e+000 35152 98224,98276,98250
 3.6000e+000 98884 -3.1696e+000 -5.1305e+001 -1.2035e+001 34698 98691,98743,98717
 3.6000e+000 98861 -8.2963e+000 -6.0107e+001 -1.7749e+001 34698 98561,98743,98691
 3.6000e+000 98838 -1.6413e+001 -5.2867e+001 -1.8280e+001 34698 98907,98587,98561
 3.6000e+000 98815 -2.1089e+001 -6.0532e+001 -1.4329e+001 34698 98907,98561,98691
 3.6000e+000 98792 -2.9014e+001 -5.8898e+001 -8.5919e+000 34698 98587,98639,98613
 3.6000e+000 98769 -2.0947e+001 -4.6205e+001 -1.3478e+001 34698 98587,98665,98639
 3.6000e+000 98933 -1.7944e+001 -5.6872e+001 -1.0837e+001 34698 98665,98587,98907
 3.6000e+000 98956 -2.5063e+001 -6.8831e+001 -6.5133e+000 34698 98665,98907,98691
 3.6000e+000 99204  2.2932e+000 -7.0293e+001 -6.1270e+000 34144 99227,99031,99005
 3.6000e+000 99181 -7.5131e+000 -6.8273e+001 -1.1359e+001 34144 99299,99227,99005
 3.6000e+000 99158 -8.0311e+000 -6.7724e+001 -1.0166e+001 34144 99299,99005,99109
 3.6000e+000 99135 -6.5226e+000 -5.5182e+001 -5.9944e+000 34144 98979,99109,99005
 3.6000e+000 99253 -4.1359e+000 -7.9553e+001 -9.1915e+000 34144 99057,99031,99227
 3.6000e+000 99276 -9.7344e+000 -7.0308e+001 -1.3803e+001 34144 99057,99227,99083
 3.6000e+000 99325 -6.2579e+000 -6.6064e+001 -1.2243e+001 34144 99083,99227,99299
 3.6000e+000 99348 -7.5532e+000 -6.5876e+001 -1.0929e+001 34144 99083,99299,99109
 3.6000e+000 99498 -7.7353e+000 -2.6805e+001  1.2232e+001 33433 99397,99449,99423
 3.6000e+000 99475 -1.5411e+001 -6.4876e+000  3.9831e+000 33433 99371,99449,99397
 3.6000e+000 100008 -2.5845e+001 -3.9434e+001  1.7646e+000 32979 100103,100031,99815
 3.6000e+000 99985 -2.2379e+001 -5.0557e+001 -1.0439e+001 32979 100175,100031,99763
 3.6000e+000 99962 -2.1189e+001 -5.1344e+001 -8.4582e+000 32979 100103,99815,99789
 3.6000e+000 99939 -2.3412e+001 -6.4067e+001 -1.2789e+001 32979 100175,99763,99737
 3.6000e+000 99916 -1.7852e+001 -3.9350e+001 -7.4994e+000 32979 99685,99867,99737
 3.6000e+000 99893 -2.5824e+001 -8.6519e+001 -1.5860e+001 32979 99685,99737,99711
 3.6000e+000 100057 -9.8151e+000 -3.5318e+001  8.2938e+000 32979 99841,99815,100031
 3.6000e+000 100080 -9.6137e+000 -1.3084e+001 -1.2094e+001 32979 99841,100031,99867
 3.6000e+000 100129 -1.5336e+001 -6.5496e+001 -1.0116e+000 32979 99763,100031,100103
 3.6000e+000 100152 -2.0823e+001 -8.6832e+001 -1.3761e+001 32979 99763,100103,99789
 3.6000e+000 100201 -2.1182e+001 -4.3070e+001 -3.4783e+000 32979 99867,100031,100175
 3.6000e+000 100224 -2.2191e+001 -5.1382e+001 -7.9897e+000 32979 99867,100175,99737
 3.6000e+000 100553  2.4746e+000 -3.6456e+000 -6.4010e+000 32503 100354,100406,100380
 3.6000e+000 100530  1.8044e+001 -3.2837e+001  2.2221e+001 32503 100328,100406,100354
 3.6000e+000 100507  1.6776e+001 -3.8801e+001  2.0339e+001 32503 100328,100458,100406
 3.6000e+000 100484  3.1041e+000 -6.9235e+001  1.4841e+001 32503 100406,100458,100432
 3.6000e+000 100850 -5.0621e+000 -7.8668e+001 -3.7871e+000 31899 100873,100654,100628
 3.6000e+000 100827  5.5517e+000 -7.6553e+001 -4.5692e+000 31899 100945,100873,100628
 3.6000e+000 100804  1.4415e+001 -6.9317e+001 -7.9005e-001 31899 100945,100628,100602
 3.6000e+000 100781 -1.0882e+001 -4.7927e+001  2.2257e+000 31899 100576,100732,100602
 3.6000e+000 100758 -3.1678e+001 -5.6492e+001 -5.1814e+001 31899 100654,100706,100680
 3.6000e+000 100899  1.6715e+000 -8.0613e+001 -5.4504e+000 31899 100706,100654,100873
 3.6000e+000 100922 -2.2815e+001 -7.9114e+001 -1.8461e+001 31899 100706,100873,100732
 3.6000e+000 100971 -1.5001e+001 -6.2169e+001 -9.7972e+000 31899 100732,100873,100945
 3.6000e+000 100994 -4.3092e+000 -5.2994e+001 -5.3795e+000 31899 100732,100945,100602
 3.6000e+000 101551 -1.3237e+000 -5.5483e+001 -5.9817e+000 31338 101205,101387,101231
 3.6000e+000 101528 -3.8186e-002 -5.6115e+001  4.4018e-001 31338 101179,101387,101205
 3.6000e+000 101505 -1.4022e+001 -4.5218e+001  1.2139e+001 31338 101574,101309,101257
 3.6000e+000 101482 -8.7375e+000 -5.6732e+001  8.7077e+000 31338 101646,101574,101257
 3.6000e+000 101459 -2.9578e+000 -4.0653e+001  8.9965e+000 31338 101646,101257,101231
 3.6000e+000 101436 -2.3402e+001 -7.1905e+001  4.1419e+000 31338 101309,101361,101335
 3.6000e+000 101413  6.7530e+000 -4.1509e+001  1.8552e+001 31338 101257,101309,101283
 3.6000e+000 101600 -1.2278e+001 -5.8130e+001  1.0063e+001 31338 101361,101309,101574
 3.6000e+000 101623 -1.7727e+001 -7.9468e+001 -8.1772e+000 31338 101361,101574,101387
 3.6000e+000 101672 -7.2434e+000 -4.8357e+001 -2.2906e+000 31338 101387,101574,101646
 3.6000e+000 101695 -7.0689e+000 -4.3659e+001 -2.9971e+000 31338 101387,101646,101231
 3.6000e+000 101943 -1.0538e+001 -7.2387e+001 -4.5330e+000 30748 101966,101796,101744
 3.6000e+000 101920 -1.8836e+000 -7.4575e+001 -3.8623e+000 30748 101966,101744,101718
 3.6000e+000 101897 -1.7901e+001 -8.0494e+001  7.8601e+000 30748 101718,101848,101822
 3.6000e+000 101874 -2.5967e+001 -7.5133e+001 -7.2295e+000 30748 101744,101796,101770
 3.6000e+000 101992 -1.4542e+001 -7.2057e+001 -2.9372e+000 30748 101822,101796,101966
 3.6000e+000 102015 -8.6032e+000 -7.6459e+001 -1.9938e+000 30748 101822,101966,101718
 3.6000e+000 102493 -1.9818e+001 -6.3843e+001 -2.4435e+000 30344 102516,102173,102147
 3.6000e+000 102470 -9.4899e+000 -4.7038e+001 -7.4161e+000 30344 102660,102516,102147
 3.6000e+000 102447  1.4898e+000 -5.9456e+001 -1.3349e+001 30344 102588,102199,102173
 3.6000e+000 102424 -5.0681e+000 -4.3815e+001 -8.8732e+000 30344 102660,102147,102329
 3.6000e+000 102401  8.4710e+000 -6.0961e+001 -3.0839e+001 30344 102199,102277,102251
 3.6000e+000 102378  2.1092e+001 -2.9836e+001 -5.0857e+001 30344 102199,102251,102225
 3.6000e+000 102355 -1.8296e-003 -3.9704e+001  1.6805e+000 30344 102121,102329,102147
 3.6000e+000 102542 -4.6402e+000 -5.6835e+001 -1.3783e+001 30344 102588,102173,102516
 3.6000e+000 102565 -1.4719e+001 -5.0941e+001 -1.4557e+001 30344 102277,102516,102303
 3.6000e+000 102614 -5.1910e+000 -6.0017e+001 -1.4448e+001 30344 102277,102199,102588
 3.6000e+000 102637 -1.2798e+001 -5.9552e+001 -1.6338e+001 30344 102277,102588,102516
 3.6000e+000 102686 -4.0884e+000 -5.1354e+001 -5.2296e+000 30344 102303,102516,102660
 3.6000e+000 102709 -1.9246e+000 -4.9808e+001 -5.9686e+000 30344 102303,102660,102329
 3.6000e+000 103294  1.6202e+001 -7.1007e+001  7.1259e+000 29726 103317,103101,103075
 3.6000e+000 103271  3.1000e+001 -2.5193e+001  1.2957e+001 29726 103317,103075,102997
 3.6000e+000 103248  2.8574e-001 -1.7411e+001 -1.0023e+001 29726 102971,103153,102997
 3.6000e+000 103225  6.2937e+000 -4.6128e+001 -9.2132e+000 29726 103101,103153,103127
 3.6000e+000 103202  1.2446e+001 -8.9851e+001  1.4414e+001 29726 102997,103075,103023
 3.6000e+000 103179 -1.3797e+001 -5.8928e+001 -2.0581e+001 29726 103023,103075,103049
 3.6000e+000 103343  1.1039e+001 -3.1022e+001  2.6428e-001 29726 103153,103101,103317
 3.6000e+000 103366  1.1172e+001 -6.2625e+000  1.6105e+000 29726 103153,103317,102997
 3.6000e+000 103614  1.6688e+001 -3.1127e+001 -1.8392e+000 29200 103781,103637,103467
 3.6000e+000 103591  1.4155e+000 -2.7360e+001  6.2602e+000 29200 103709,103637,103415
 3.6000e+000 103568 -3.3820e+000 -2.7658e+001  2.8453e+000 29200 103709,103415,103389
 3.6000e+000 103545  1.3131e+001 -2.5154e+001 -7.1795e+000 29200 103781,103467,103441
 3.6000e+000 103663  1.6844e+001 -3.0617e+001  5.6649e+000 29200 103853,103637,103493
 3.6000e+000 103686  2.0966e+001 -1.8342e-001  9.7035e+000 29200 103493,103637,103519
 3.6000e+000 103735  9.5922e+000 -2.9005e+001  7.4417e+000 29200 103519,103637,103709
 3.6000e+000 103758  4.3680e+000 -2.8848e+001  4.6738e+000 29200 103519,103709,103389
 3.6000e+000 103807  1.1905e+001 -4.0089e+001 -3.7161e+000 29200 103415,103637,103781
 3.6000e+000 103830  4.9959e+000 -3.8486e+001 -1.0615e+001 29200 103415,103781,103441
 3.6000e+000 103879  1.5699e+001 -2.5778e+001 -1.6306e+000 29200 103467,103637,103853
 3.6000e+000 104545 -4.3905e+000 -4.4333e+001 -1.0441e+001 28860 104274,104352,104326
 3.6000e+000 104522 -2.6650e+001 -3.3532e+001 -4.4394e-001 28860 104248,104352,104274
 3.6000e+000 104499 -2.1649e+001 -2.9424e+001 -3.8481e+000 28860 104248,104404,104352
 3.6000e+000 104476 -3.0910e+001 -1.1667e+001  4.9985e-001 28860 104222,104404,104248
 3.6000e+000 104453 -2.3207e+001 -4.9557e+000  2.5533e+000 28860 104352,104404,104378
 3.6000e+000 104430 -1.3105e+001 -5.0311e+001 -7.7090e+000 28860 104274,104326,104300
 3.6000e+000 104744  1.6124e+000 -6.7159e+001 -1.7793e+001 28456 104839,104767,104646
 3.6000e+000 104721 -2.4674e+001 -8.7287e+001 -1.0250e+001 28456 104767,104594,104568
 3.6000e+000 104698  3.7469e+000 -5.1199e+001 -7.2835e+000 28456 104839,104646,104620
 3.6000e+000 104793 -9.7242e+000 -7.6622e+001 -1.2125e+001 28456 104672,104646,104767
 3.6000e+000 104816 -3.0472e+001 -9.5392e+001  5.0644e+000 28456 104911,104767,104568
 3.6000e+000 104865 -1.0944e+001 -6.9401e+001 -3.9434e+000 28456 104594,104767,104839
 3.6000e+000 104888  8.8261e+000 -4.8960e+000 -4.6172e+000 28456 105041,104839,104620
 3.6000e+000 104937 -2.0184e+000 -5.7452e+001 -9.8932e+000 28456 104672,104767,104911
 3.6000e+000 105067 -1.0593e+001 -6.6978e+001 -1.0327e+001 28456 104594,104839,105041
 3.6000e+000 105573 -1.9471e+001 -6.7661e+001 -4.9045e+000 28094 105812,105596,105328
 3.6000e+000 105550 -2.0181e+001 -6.2037e+001  5.0898e+000 28094 105596,105276,105250
 3.6000e+000 105527 -1.2013e+001 -9.3260e+001 -5.7688e+000 28094 105740,105668,105432
 3.6000e+000 105504 -1.9547e+001 -1.0616e+002 -2.4583e+000 28094 105740,105432,105380
 3.6000e+000 105481 -1.4647e+001 -7.0905e+001 -2.3154e+000 28094 105812,105328,105302
 3.6000e+000 105458 -2.9999e+001 -1.1317e+002  8.5721e-001 28094 105380,105432,105406
 3.6000e+000 105622  5.3239e-001 -3.9779e+001 -1.3653e+001 28094 105354,105328,105596
 3.6000e+000 105645 -5.6147e+000 -4.5467e+001  1.0230e+001 28094 105668,105354,105596
 3.6000e+000 105694 -2.2383e+000 -6.8316e+001 -5.1414e+000 28094 105250,105432,105668
 3.6000e+000 105717 -2.0751e+001 -8.4382e+001  4.4302e+000 28094 105250,105668,105596
 3.6000e+000 105766 -2.1615e+001 -8.3514e+001  2.0084e+001 28094 105354,105668,105740
 3.6000e+000 105789 -3.2705e+001 -1.0607e+002  2.3993e+001 28094 105354,105740,105380
 3.6000e+000 105838 -1.3127e+001 -6.5729e+001 -2.6917e+000 28094 105276,105596,105812
 3.6000e+000 105861  9.8621e+000 -5.9487e+001  7.0969e-001 28094 105276,105812,105302
 3.6000e+000 106367 -1.6738e+001 -8.3682e+001 -9.3257e+000 27390 106070,106122,106096
 3.6000e+000 106344  7.3236e+000 -8.8969e+001 -1.6754e+001 27390 106070,106226,106122
 3.6000e+000 106321  2.3418e+001 -8.2216e+001 -1.2808e+001 27390 106174,106226,106200
 3.6000e+000 106298  1.3737e+001 -8.6403e+001 -9.5854e+000 27390 106122,106226,106174
 3.6000e+000 106275  1.6236e+001 -8.3784e+001  2.1828e+000 27390 106122,106174,106148
 3.6000e+000 106252 -2.8323e+001 -1.0643e+002 -2.4101e+001 27390 106044,106226,106070
 3.6000e+000 106615  9.1201e+000 -5.1813e+001 -1.3216e+000 26978 106638,106494,106416
 3.6000e+000 106592  8.4645e+000 -5.8077e+001 -2.9301e+000 26978 106638,106416,106390
 3.6000e+000 106569  8.9431e+000 -5.0577e+001  2.0260e+000 26978 106416,106494,106442
 3.6000e+000 106546  1.9472e+001 -5.3071e+001 -1.5111e+000 26978 106442,106494,106468
 3.6000e+000 106664  1.4569e+001 -5.8572e+001  1.3821e+000 26978 106520,106494,106638
 3.6000e+000 106687  1.2283e+001 -6.5563e+001 -2.3029e+000 26978 106520,106638,106390
 3.6000e+000 106837  5.8510e-001 -2.3823e+002 -4.3257e-001 26524 106710,106762,106736
 3.6000e+000 106814  3.2719e-001 -2.0514e+002 -1.4689e-001 26524 106710,106788,106762
 3.6000e+000 107426 -3.7985e+001 -6.8441e+001  1.1519e+001 26120 107129,107207,107155
 3.6000e+000 107403 -2.4463e+001 -4.7898e+001  5.6171e+000 26120 107129,107285,107207
 3.6000e+000 107380 -3.5798e+001 -6.5516e+001 -1.3124e+000 26120 107207,107285,107259
 3.6000e+000 107357 -5.7474e+000 -5.0827e+001  3.0136e+000 26120 107155,107207,107181
 3.6000e+000 107334 -2.3582e+001 -5.2054e+001 -3.0982e+000 26120 107103,107285,107129
 3.6000e+000 107311 -3.3349e+001 -5.8126e+001  1.2431e+000 26120 107207,107259,107233
 3.6000e+000 107755 -2.2592e+001 -5.3326e+001  2.0850e+000 25758 107556,107634,107608
 3.6000e+000 107732 -4.6657e+000 -2.8764e+001 -6.5227e+000 25758 107556,107660,107634
 3.6000e+000 107709 -2.9689e+001 -5.3727e+001 -3.9507e+000 25758 107556,107608,107582
 3.6000e+000 107686 -1.4854e+000 -2.3096e+000  1.6013e+000 25758 107530,107660,107556
 3.6000e+000 108438 -2.3871e+001 -8.5782e+001 -3.7008e+000 25468 108121,108199,108173
 3.6000e+000 108415 -9.5363e-001 -2.9292e+001 -1.6255e+000 25468 108095,108199,108121
 3.6000e+000 108392  3.1394e+000 -4.1307e+001 -5.9037e-001 25468 108095,108251,108199
 3.6000e+000 108369 -7.1328e+000 -5.1481e+001  5.3262e+000 25468 108069,108251,108095
 3.6000e+000 108346 -1.4247e+001 -4.6931e+001 -9.0251e+000 25468 108199,108251,108225
 3.6000e+000 108323  7.8852e+000 -5.9584e+001  1.5702e+001 25468 108017,108251,108069
 3.6000e+000 108300 -2.3555e+001 -6.3385e+001 -6.5217e+000 25468 108121,108173,108147
 3.6000e+000 108277  1.2850e+001 -5.1791e+001  1.3392e+001 25468 108017,108069,108043
 3.6000e+000 108588 -1.7649e+001 -7.5223e+001 -2.2151e+001 25064 108611,108513,108487
 3.6000e+000 108565 -3.4903e+001 -6.5683e+001 -1.3117e+001 25064 108683,108611,108487
 3.6000e+000 108637 -1.2520e+001 -6.1295e+001 -2.3599e+001 25064 108539,108513,108611
 3.6000e+000 108660 -1.2433e+001 -4.9939e+001 -1.5126e+001 25064 108539,108611,108461
 3.6000e+000 108709 -1.3012e+001 -4.6835e+001 -2.1435e+001 25064 108461,108611,108683
 3.6000e+000 109345 -5.3583e+001 -9.0463e+001  3.2113e+001 24410 108999,109155,109103
 3.6000e+000 109322 -2.6360e+001 -8.9224e+001  1.5635e+001 24410 108973,109155,108999
 3.6000e+000 109299 -1.6027e+001 -1.5306e+002  4.1944e+001 24410 109103,109155,109129
 3.6000e+000 109276 -4.1593e+001 -7.8428e+001  1.1872e+001 24410 108973,109181,109155
 3.6000e+000 109253 -3.4930e+001 -8.4734e+001  2.1115e+001 24410 109025,109103,109077
 3.6000e+000 109230 -5.2357e+001 -8.5581e+001  3.0549e+001 24410 108999,109103,109025
 3.6000e+000 109207 -2.8961e+001 -7.4540e+001  1.7342e+001 24410 109025,109077,109051
 3.6000e+000 109723 -2.4435e+001 -7.9759e+001  1.6581e+000 23856 109475,109579,109553
 3.6000e+000 109700 -3.1787e+001 -8.1610e+001  5.7521e+000 23856 109475,109605,109579
 3.6000e+000 109677 -2.9255e+001 -9.5771e+001  1.1477e+001 23856 109475,109553,109527
 3.6000e+000 109654 -3.0548e+001 -8.0936e+001 -1.4064e+000 23856 109449,109605,109475
 3.6000e+000 109631  1.1585e+001 -8.6903e+001  1.4877e+001 23856 109475,109527,109501
 3.6000e+000 110101 -4.5965e+000 -6.9691e+001 -2.2972e+001 23566 109853,109931,109879
 3.6000e+000 110078  3.3482e+000 -5.6868e+001 -1.1617e+001 23566 109827,109931,109853
 3.6000e+000 110055 -1.1268e+001 -6.3043e+001 -7.3688e+000 23566 109827,109983,109931
 3.6000e+000 110032 -7.7807e+000 -5.2979e+001 -8.3855e+000 23566 109879,109931,109905
 3.6000e+000 110009 -1.9150e+000 -5.0393e+001  1.8122e+000 23566 109931,109983,109957
 3.6000e+000 110735  8.4521e+000 -7.7436e+000 -9.4725e+000 23162 110415,110571,110519
 3.6000e+000 110712 -2.3359e+000 -2.4591e+001 -1.4335e+001 23162 110389,110571,110415
 3.6000e+000 110689  1.3119e+001 -5.9381e+000 -1.0082e+001 23162 110415,110519,110493
 3.6000e+000 110666 -3.1036e+000 -1.4296e+001  2.4847e+000 23162 110363,110571,110389
 3.6000e+000 110643  2.8894e+001  1.5429e+001  9.0532e+000 23162 110441,110493,110467
 3.6000e+000 110620  1.5067e+001 -3.9231e+000 -1.0937e+001 23162 110415,110493,110441
 3.6000e+000 110597  1.7270e+001 -9.5830e+000 -1.4409e+001 23162 110519,110571,110545
 3.6000e+000 111211 -2.6214e+001 -8.3130e+001 -9.5433e+000 22708 111378,111306,111021
 3.6000e+000 111188 -3.5199e+000 -8.1399e+001 -2.5518e+000 22708 111234,110969,110917
 3.6000e+000 111165 -2.0648e+001 -7.9331e+001 -4.9846e+000 22708 111450,111234,110917
 3.6000e+000 111142 -2.7058e+001 -7.6356e+001 -2.2125e+001 22708 111378,111021,110995
 3.6000e+000 111119 -2.2693e+001 -7.7548e+001 -1.1703e+001 22708 111450,110917,110865
 3.6000e+000 111096  1.4636e+001 -9.7888e+001  8.2469e+000 22708 110917,110969,110943
 3.6000e+000 111073 -1.0939e+001 -1.2843e+002 -3.8075e+001 22708 110865,110917,110891
 3.6000e+000 111260  2.1128e+000 -7.9101e+001 -7.6668e+000 22708 111306,110969,111234
 3.6000e+000 111283 -8.5888e+000 -6.8650e+001 -6.0207e+000 22708 111047,111234,110839
 3.6000e+000 111332 -1.5217e+000 -1.0001e+002  7.5631e+000 22708 111047,111021,111306
 3.6000e+000 111355 -1.0741e+001 -8.4124e+001 -1.0220e+001 22708 111047,111306,111234
 3.6000e+000 111404  2.4884e-001 -7.2655e+001 -1.7205e+001 22708 110969,111306,111378
 3.6000e+000 111427 -6.9020e+000 -6.8781e+001 -2.2892e+001 22708 110969,111378,110995
 3.6000e+000 111476 -1.0649e+001 -7.5473e+001 -5.5004e+000 22708 110839,111234,111450
 3.6000e+000 111499 -1.0434e+001 -7.2736e+001 -1.2859e+001 22708 110839,111450,110865
 3.6000e+000 111600  7.1291e+000 -2.5819e+001  3.8052e+000 22460 111522,111574,111548
 3.6000e+000 112059  2.1409e+001 -2.4235e+001 -6.6497e+000 22056 111811,111889,111863
 3.6000e+000 112036  3.5524e+001 -1.5147e+001 -1.0766e+001 22056 111811,111915,111889
 3.6000e+000 112013  1.9747e+001 -1.9729e+001 -9.5212e+000 22056 111785,111915,111811
 3.6000e+000 111990  1.7244e+001 -5.4612e+000 -2.4237e+001 22056 111785,111941,111915
 3.6000e+000 111967  1.2310e+001 -2.4027e+001 -1.0561e+000 22056 111811,111863,111837
 3.6000e+000 112486  3.6114e+001 -1.3075e+001 -6.7974e+000 21594 112509,112267,112215
 3.6000e+000 112463  8.4267e+000 -2.6309e+001  1.5518e+000 21594 112509,112215,112163
 3.6000e+000 112440  2.4169e+001  1.5601e+000 -3.2244e+001 21594 112581,112293,112267
 3.6000e+000 112417  1.0379e+001 -2.8805e+001  2.6403e+000 21594 112215,112267,112241
 3.6000e+000 112394  2.7555e+001 -1.5934e+001 -1.4489e+000 21594 112163,112345,112319
 3.6000e+000 112371  8.7496e+000 -1.5776e+001 -1.5249e+000 21594 112163,112215,112189
 3.6000e+000 112535  4.0368e+001 -1.1428e+001 -1.7860e+001 21594 112581,112267,112509
 3.6000e+000 112558  2.3164e+001 -9.5756e+000 -5.5537e+000 21594 112319,112509,112163
 3.6000e+000 112607 -6.9679e+000 -1.1296e+001 -3.0703e+001 21594 112319,112293,112581
 3.6000e+000 112630  1.1288e+001 -2.3225e+001 -1.2949e+001 21594 112319,112581,112509
 3.6000e+000 112900 -1.9621e+001 -7.4409e+001 -1.7494e+000 20974 112675,112779,112701
 3.6000e+000 112877 -1.0934e+001 -7.4676e+001 -9.9941e-001 20974 112675,112805,112779
 3.6000e+000 112854 -2.0200e+000 -6.0169e+001  4.5337e+000 20974 112701,112779,112753
 3.6000e+000 112831 -7.4807e+000 -2.9747e+001 -1.4992e+001 20974 112701,112753,112727
 3.6000e+000 113359  8.5738e+000 -5.7414e+001 -8.7309e+000 20520 113454,113137,113111
 3.6000e+000 113336  2.1374e+001 -6.8119e+001 -1.7058e+001 20520 113454,113111,113085
 3.6000e+000 113313  1.5620e+001 -1.0473e+001  2.1554e+001 20520 113382,113163,113137
 3.6000e+000 113290  4.6289e+000 -7.0351e+001 -6.0396e+000 20520 113526,113382,113137
 3.6000e+000 113267 -1.4974e+001 -1.2227e+002 -4.1847e+000 20520 113189,113241,113215
 3.6000e+000 113408 -1.2007e+001 -7.2710e+001  1.5030e+001 20520 113189,113163,113382
 3.6000e+000 113431 -4.0100e+000 -8.5397e+001 -1.5413e+001 20520 113189,113382,113241
 3.6000e+000 113480  4.2737e+000 -6.8456e+001 -6.3589e+000 20520 113526,113137,113454
 3.6000e+000 113503  1.1986e+001 -8.1731e+001 -1.2531e+001 20520 113241,113454,113085
 3.6000e+000 113552  5.5007e+000 -6.7418e+001 -7.0873e+000 20520 113241,113382,113526
 3.6000e+000 113575  4.8939e+000 -6.6147e+001 -7.5577e+000 20520 113241,113526,113454
 3.6000e+000 113904 -7.2077e+000 -8.2633e+001  2.7768e+000 19858 113705,113783,113757
 3.6000e+000 113881 -1.9211e+000 -6.6725e+001 -8.6936e-002 19858 113705,113809,113783
 3.6000e+000 113858  2.0671e+001 -5.2902e+001 -1.5503e+001 19858 113679,113809,113705
 3.6000e+000 113835  7.6465e-001 -5.2079e+001  1.9920e+001 19858 113705,113757,113731
 3.6000e+000 114152 -1.0122e+001 -2.1759e+001 -1.1740e+001 19454 114175,114005,113979
 3.6000e+000 114129 -1.0025e+001 -2.2665e+001 -1.1764e+001 19454 114175,113979,114057
 3.6000e+000 114106 -2.3011e+001 -4.7617e+001 -2.5114e+000 19454 113927,114057,113979
 3.6000e+000 114083 -9.4976e+000 -3.2677e+001 -1.0410e+001 19454 113927,113979,113953
 3.6000e+000 114201 -1.0059e+001 -2.1941e+001 -6.9113e+000 19454 114031,114005,114175
 3.6000e+000 114224 -9.9083e+000 -2.3604e+001 -1.1579e+001 19454 114031,114175,114057
 3.6000e+000 114472 -1.0251e+001 -9.6794e+001  4.1656e+000 19000 114495,114273,114247
 3.6000e+000 114449 -2.1677e+001 -9.8507e+001 -2.8354e+000 19000 114495,114247,114325
 3.6000e+000 114426 -3.5030e+001 -1.0095e+002  8.7338e+000 19000 114247,114377,114325
 3.6000e+000 114403 -4.1591e+001 -1.0083e+002 -1.1873e+001 19000 114325,114377,114351
 3.6000e+000 114521  2.3565e+001 -8.4959e+001  1.6425e+001 19000 114299,114273,114495
 3.6000e+000 114544 -1.2742e+001 -1.0875e+002  4.3466e+000 19000 114299,114495,114325
 3.6000e+000 114948 -1.5624e+001 -8.8097e+001 -2.3583e+000 18560 114674,114726,114700
 3.6000e+000 114925 -1.3284e+000 -5.9394e+001 -8.8890e+000 18560 114674,114830,114726
 3.6000e+000 114902 -4.2703e+000 -6.7431e+001 -1.4607e+001 18560 114726,114830,114804
 3.6000e+000 114879 -2.1525e+001 -1.4559e+002 -2.8848e+001 18560 114726,114804,114752
 3.6000e+000 114856  1.2867e+001 -2.0211e+002 -3.2874e+001 18560 114752,114804,114778
 3.6000e+000 115098 -3.5832e+001 -1.2571e+002 -1.7662e+000 18156 114971,115023,114997
 3.6000e+000 115075 -4.3002e+001 -6.0812e+001 -6.3455e-002 18156 114971,115049,115023
 3.6000e+000 115248 -3.9105e+001 -1.3158e+002 -4.7571e+000 17602 115147,115199,115173
 3.6000e+000 115225 -9.4646e+000 -1.1189e+002  3.8665e+000 17602 115121,115199,115147
 3.6000e+000 115652  3.2347e+001 -6.6816e+001 -3.1337e+000 17354 115430,115534,115508
 3.6000e+000 115629  1.5141e+001 -9.4976e+001  5.1946e+000 17354 115404,115534,115430
 3.6000e+000 115606  4.9638e+001 -4.7634e+001  3.8646e+001 17354 115378,115534,115404
 3.6000e+000 115583  5.4121e+001 -8.5707e+001 -1.4493e+001 17354 115456,115508,115482
 3.6000e+000 115560  1.6454e+001 -1.0604e+002 -2.7832e+000 17354 115430,115508,115456
 3.6000e+000 115873 -2.5538e+001 -1.3832e+002 -4.7916e+000 16950 115749,115801,115775
 3.6000e+000 115850 -4.8924e+001 -1.2931e+002 -1.1785e+000 16950 115697,115801,115749
 3.6000e+000 115827 -4.6103e+001 -1.3875e+002  3.7876e+000 16950 115697,115749,115723
 3.6000e+000 116023 -4.7252e+001 -1.3487e+002 -1.7728e+001 16496 115922,115974,115948
 3.6000e+000 116000 -5.1435e+001 -1.0659e+002 -7.2795e+000 16496 115896,115974,115922
 3.6000e+000 116126  2.9236e+001 -4.8798e+001  2.7255e+000 16298 116048,116100,116074
 3.6000e+000 116278  2.7831e+001 -1.4662e+002 -3.2893e+000 15892 116151,116203,116177
 3.6000e+000 116255  7.2221e+000 -1.9155e+002  1.8119e+000 15892 116151,116229,116203
 3.6000e+000 116430  2.3882e+001 -1.5734e+001 -8.3840e-001 15545 116303,116355,116329
 3.6000e+000 116407  1.0960e+001 -5.5037e+001 -1.9662e+001 15545 116303,116381,116355
 3.6000e+000 116785  2.3964e+001 -4.3870e+001  2.1311e+001 421 116612,116690,116664
 3.6000e+000 116762  1.1892e+000 -9.7282e+001  1.3791e+001 421 116560,116690,116612
 3.6000e+000 116739 -3.5466e+001 -1.1184e+002  1.3308e+001 421 116560,116612,116586
 3.6000e+000 116716 -1.9612e+001 -1.1383e+002  7.0538e-001 421 116612,116664,116638
 3.7000e+000 68048 -1.9161e+001 -6.2232e+001 -7.0721e+000 67642 67898,67950,67924
 3.7000e+000 68025 -2.7574e+001 -6.2026e+001 -6.7129e-002 67642 67898,67976,67950
 3.7000e+000 68002 -1.7070e+001 -5.7909e+001 -6.2719e-001 67642 67872,67976,67898
 3.7000e+000 68367 -3.0589e+001 -6.0669e+001  7.8823e+000 67444 68119,68223,68197
 3.7000e+000 68344 -4.7488e+001 -1.0477e+002  1.2443e+001 67444 68119,68249,68223
 3.7000e+000 68321 -7.4086e+001 -1.0604e+002 -4.6645e+000 67444 68093,68249,68119
 3.7000e+000 68298 -4.2914e+001 -8.9060e+001  6.5012e+000 67444 68119,68197,68171
 3.7000e+000 68275 -3.6614e+001 -8.7555e+001  6.7528e+000 67444 68119,68171,68145
 3.7000e+000 68468 -2.2879e+001 -1.0516e+002  2.4575e+001 67268 68390,68442,68416
 3.7000e+000 68765 -6.9225e+001 -9.2652e+001 -2.5904e-001 66956 68788,68517,68491
 3.7000e+000 68742 -8.4657e+001 -9.9049e+001 -4.5060e+000 66956 68788,68491,68621
 3.7000e+000 68719 -6.8139e+001 -1.0761e+002 -5.1739e+000 66956 68543,68621,68569
 3.7000e+000 68696 -9.4768e+001 -1.1590e+002  1.5768e+000 66956 68491,68647,68621
 3.7000e+000 68673 -1.0934e+002 -6.6011e+001 -7.0417e+000 66956 68569,68621,68595
 3.7000e+000 68814 -5.0180e+001 -9.9651e+001  1.6073e+000 66956 68543,68517,68788
 3.7000e+000 68837 -6.9370e+001 -1.0880e+002 -3.1771e+000 66956 68543,68788,68621
 3.7000e+000 69107 -2.9749e+001 -1.1360e+002 -7.8973e-001 66758 68882,68986,68908
 3.7000e+000 69084 -1.6917e+001 -1.0465e+002  5.2681e+000 66758 68882,69012,68986
 3.7000e+000 69061 -1.3522e+001 -1.1348e+002 -3.6100e+000 66758 68908,68960,68934
 3.7000e+000 69038 -2.7820e+001 -1.0600e+002 -1.5806e+000 66758 68908,68986,68960
 3.7000e+000 69308 -9.0382e+000 -8.8127e+001 -5.3470e-001 66560 69331,69184,69158
 3.7000e+000 69285  2.0309e-001 -9.3548e+001 -5.4993e-001 66560 69331,69158,69132
 3.7000e+000 69262 -1.4303e+001 -1.2379e+002 -8.1181e+000 66560 69184,69236,69210
 3.7000e+000 69357 -1.1036e+001 -9.1958e+001  1.0723e+000 66560 69236,69184,69331
 3.7000e+000 69380 -7.1151e+000 -1.0173e+002  2.9821e+000 66560 69236,69331,69132
 3.7000e+000 69554 -2.5490e+001 -1.3885e+002  9.3399e+000 66270 69427,69479,69453
 3.7000e+000 69531 -4.9967e+000 -9.0928e+001  1.8776e+001 66270 69427,69505,69479
 3.7000e+000 69804 -2.3508e+001 -8.9541e+001 -3.8972e+000 66066 69579,69683,69657
 3.7000e+000 69781  1.3335e+000 -7.7502e+001 -1.9787e+001 66066 69579,69709,69683
 3.7000e+000 69758 -4.1149e+000 -4.6065e+001 -1.1567e+001 66066 69579,69657,69631
 3.7000e+000 69735 -9.7437e+000 -5.8564e+001 -1.2062e+001 66066 69579,69631,69605
 3.7000e+000 70257 -3.7553e+001 -7.5418e+001  9.3475e-001 65776 69960,70090,69986
 3.7000e+000 70234 -3.8347e+001 -7.9314e+001  2.1376e+000 65776 69934,70090,69960
 3.7000e+000 70211 -4.0741e+001 -8.6529e+001 -4.6736e+000 65776 69934,70116,70090
 3.7000e+000 70188 -4.9797e+001 -8.5803e+001  0.0000e+000 65776 70038,70090,70064
 3.7000e+000 70165 -4.3088e+001 -8.6088e+001  2.9571e+000 65776 69986,70090,70038
 3.7000e+000 70142 -4.6037e+001 -9.4570e+001  4.8535e-001 65776 69986,70038,70012
 3.7000e+000 70456 -2.6650e+001 -5.6913e+001 -1.2173e+001 65372 70479,70306,70280
 3.7000e+000 70433 -3.3062e+001 -7.8099e+001 -1.1812e+001 65372 70479,70280,70384
 3.7000e+000 70410 -3.5306e+001 -6.7071e+001  5.5017e+000 65372 70551,70332,70306
 3.7000e+000 70505 -3.3899e+001 -5.5756e+001 -2.8391e+000 65372 70551,70306,70479
 3.7000e+000 70528 -1.9388e+001 -6.9020e+001 -7.8404e+000 65372 70358,70479,70384
 3.7000e+000 70577 -3.0051e+001 -8.2821e+001  4.8195e+000 65372 70358,70332,70551
 3.7000e+000 70600 -3.4149e+001 -7.6895e+001 -2.2019e+000 65372 70358,70551,70479
 3.7000e+000 70821 -9.9590e+000 -7.7398e+001 -2.3953e+000 65174 70645,70723,70671
 3.7000e+000 70798 -1.6210e+001 -7.8154e+001  2.1344e+000 65174 70645,70749,70723
 3.7000e+000 70775 -7.6308e+000 -7.3828e+001 -3.5195e+000 65174 70671,70723,70697
 3.7000e+000 71071 -2.1086e+001 -4.6677e+001 -2.7196e+000 64770 71094,70898,70872
 3.7000e+000 71048 -9.4539e+000 -4.3414e+001  1.5348e+000 64770 71166,71094,70872
 3.7000e+000 71025 -7.2440e+000 -4.9695e+001 -3.4655e+000 64770 71166,70872,70846
 3.7000e+000 71002 -1.4640e+001 -3.1004e+001  6.7027e+000 64770 70898,70950,70924
 3.7000e+000 71120 -1.4511e+001 -3.8091e+001  5.9432e-001 64770 70950,70898,71094
 3.7000e+000 71143 -6.7940e+000 -4.6058e+001  6.5890e+000 64770 70950,71094,70976
 3.7000e+000 71192 -1.4652e+001 -5.6019e+001  2.9399e+000 64770 70976,71094,71166
 3.7000e+000 71215 -9.8971e+000 -5.7775e+001 -2.5638e+000 64770 70976,71166,70846
 3.7000e+000 71514 -2.5513e+001 -1.0032e+002  1.5656e+000 64572 71681,71537,71318
 3.7000e+000 71491 -3.3179e+001 -9.5938e+001 -9.3420e-001 64572 71537,71266,71240
 3.7000e+000 71468 -3.5613e+001 -8.1512e+001 -4.3714e+000 64572 71609,71396,71370
 3.7000e+000 71445 -2.8923e+001 -9.8791e+001  1.0092e+000 64572 71681,71318,71292
 3.7000e+000 71422 -4.2094e+001 -1.2363e+002 -2.0055e+000 64572 71753,71344,71318
 3.7000e+000 71563 -3.1449e+001 -1.0816e+002  4.5974e+000 64572 71753,71318,71537
 3.7000e+000 71586 -3.1989e+001 -9.0775e+001  5.6135e+000 64572 71609,71370,71537
 3.7000e+000 71635 -1.9347e+001 -4.9012e+001 -1.4956e+001 64572 71240,71396,71609
 3.7000e+000 71658 -2.8367e+001 -7.2030e+001 -2.4361e+000 64572 71240,71609,71537
 3.7000e+000 71707 -3.3539e+001 -9.6479e+001 -1.6651e+000 64572 71266,71537,71681
 3.7000e+000 71730 -4.3903e+001 -9.9646e+001 -1.5775e+000 64572 71266,71681,71292
 3.7000e+000 71779 -4.9415e+001 -1.0113e+002 -9.6394e-001 64572 71370,71344,71753
 3.7000e+000 71802 -4.6146e+001 -1.0074e+002  3.8747e-001 64572 71370,71753,71537
 3.7000e+000 72052 -2.7231e+001 -6.8255e+001  7.6006e+000 64374 72075,71879,71827
 3.7000e+000 72029 -1.7710e+001 -6.3331e+001  5.5695e+000 64374 72147,72075,71827
 3.7000e+000 72006 -1.1866e+001 -6.8228e+001 -5.1029e-001 64374 72147,71827,71957
 3.7000e+000 71983 -1.1798e+001 -5.4476e+001 -4.5354e-001 64374 71827,71879,71853
 3.7000e+000 72101 -2.5877e+001 -7.6485e+001  1.4070e+001 64374 71905,71879,72075
 3.7000e+000 72124 -8.4957e+000 -6.9950e+001  1.3290e+001 64374 71905,72075,71931
 3.7000e+000 72173 -2.3696e+001 -7.6620e+001  7.5035e+000 64374 71931,72075,72147
 3.7000e+000 72196 -1.8464e+001 -8.1737e+001  2.8183e+000 64374 71931,72147,71957
 3.7000e+000 72649 -3.4869e+001 -7.2681e+001 -2.2620e+000 63948 72352,72508,72482
 3.7000e+000 72626 -3.6345e+001 -6.5816e+001  7.0267e+000 63948 72326,72508,72352
 3.7000e+000 72603 -3.5866e+001 -9.0052e+001 -9.6695e-001 63948 72672,72430,72378
 3.7000e+000 72580 -4.1432e+001 -9.8254e+001  2.0872e+000 63948 72672,72378,72352
 3.7000e+000 72557 -3.7745e+001 -9.2100e+001 -3.4457e+000 63948 72744,72456,72430
 3.7000e+000 72534 -3.4139e+001 -1.1501e+002 -2.6498e+001 63948 72378,72430,72404
 3.7000e+000 72698 -3.8818e+001 -9.0910e+001 -2.6577e+000 63948 72744,72430,72672
 3.7000e+000 72721 -3.6759e+001 -8.6808e+001  5.3128e-001 63948 72482,72672,72352
 3.7000e+000 72770 -3.8720e+001 -9.0295e+001 -3.5028e+000 63948 72482,72456,72744
 3.7000e+000 72793 -3.8404e+001 -8.7334e+001 -2.7197e+000 63948 72482,72744,72672
 3.7000e+000 72894 -4.8479e+001 -1.1643e+002 -5.3975e+000 63494 72816,72868,72842
 3.7000e+000 73093 -2.1150e+001 -2.8870e+001  5.7130e+000 63132 72943,72995,72969
 3.7000e+000 73070 -8.2056e+000 -2.1466e+001  7.1333e+000 63132 72943,73021,72995
 3.7000e+000 73047 -7.2369e+000 -9.6974e+000  4.9945e+000 63132 72917,73021,72943
 3.7000e+000 73294 -1.5129e+001 -3.8786e+001 -2.6581e+001 62792 73317,73144,73118
 3.7000e+000 73271 -2.3256e+001 -4.9953e+001 -1.3352e+001 62792 73317,73118,73222
 3.7000e+000 73248 -1.0945e+001 -2.7046e+001 -1.3510e+001 62792 73144,73196,73170
 3.7000e+000 73343 -3.2477e+001 -3.0258e+001 -1.2787e+001 62792 73196,73144,73317
 3.7000e+000 73366 -4.3135e+001 -4.8723e+001  1.5841e+000 62792 73196,73317,73222
 3.7000e+000 73616 -5.6109e+001 -8.4712e+001  1.5472e+001 62388 73639,73417,73391
 3.7000e+000 73593 -5.0267e+001 -7.2273e+001  9.8758e+000 62388 73711,73639,73391
 3.7000e+000 73570 -3.1598e+001 -5.4286e+001  2.0666e+000 62388 73711,73391,73521
 3.7000e+000 73547 -1.8360e+001 -6.0494e+001  1.2108e+001 62388 73469,73521,73495
 3.7000e+000 73665 -5.5297e+001 -8.6633e+001  1.0981e+000 62388 73443,73417,73639
 3.7000e+000 73688 -4.3500e+001 -8.1101e+001  6.6575e+000 62388 73443,73639,73469
 3.7000e+000 73737 -2.7178e+001 -8.2154e+001  1.0258e+001 62388 73469,73639,73711
 3.7000e+000 73760 -2.4374e+001 -8.0834e+001  9.1256e+000 62388 73469,73711,73521
 3.7000e+000 74010 -1.1329e+001 -3.7570e+001 -1.3821e+001 61848 74033,73837,73811
 3.7000e+000 73987 -3.6404e+001 -4.2417e+001 -2.1027e+001 61848 74033,73811,73785
 3.7000e+000 73964 -1.2536e+000 -3.1923e+001 -1.5740e+001 61848 73837,73915,73889
 3.7000e+000 73941  4.9349e-001 -2.2545e+001 -1.5281e+001 61848 73837,73889,73863
 3.7000e+000 74059 -8.6254e+000 -4.4805e+001 -1.8911e+001 61848 73915,73837,74033
 3.7000e+000 74082 -1.0818e+001 -4.9074e+001 -2.1344e+001 61848 73915,74033,73785
 3.7000e+000 74283 -1.4781e+001 -2.6908e+001  5.3540e+000 61444 74306,74133,74107
 3.7000e+000 74260 -1.4581e+001 -2.2551e+001  1.0063e+001 61444 74306,74107,74211
 3.7000e+000 74237 -2.5268e+001 -1.0911e+001 -6.3086e-001 61444 74378,74185,74159
 3.7000e+000 74332 -1.5664e+001 -2.7374e+001  3.2239e+000 61444 74159,74133,74306
 3.7000e+000 74355 -1.2837e+001 -2.1230e+001  4.8732e+000 61444 74378,74159,74306
 3.7000e+000 74404 -2.4981e+001 -2.1924e+001  8.6044e+000 61444 74211,74185,74378
 3.7000e+000 74427 -2.1885e+001 -2.7007e+001  8.1032e+000 61444 74211,74378,74306
 3.7000e+000 74628 -3.6474e+000 -3.0616e+001 -9.6916e+000 60990 74478,74530,74504
 3.7000e+000 74605 -6.1894e+000 -3.6056e+001 -1.3773e+001 60990 74452,74530,74478
 3.7000e+000 74582 -1.3923e+001 -3.8931e+001 -1.2671e+001 60990 74452,74556,74530
 3.7000e+000 75089  1.2628e+000 -1.8078e+001 -9.6423e+000 60486 75112,74945,74919
 3.7000e+000 75066 -5.5452e+000  2.8960e+000  4.5122e+000 60486 75112,74919,74867
 3.7000e+000 75043 -6.5484e-002 -3.3846e+001  1.3998e+001 60486 74841,74971,74867
 3.7000e+000 75020 -6.0828e-001  7.3199e+000  8.3934e-001 60486 74867,74919,74893
 3.7000e+000 74997 -2.5135e+000 -3.7233e+001  1.1440e+001 60486 74815,74971,74841
 3.7000e+000 75138 -1.2631e+001 -2.7608e+001 -1.8315e+001 60486 74971,74945,75112
 3.7000e+000 75161 -1.7960e+001 -1.2400e+001 -3.4614e+000 60486 74971,75112,74867
 3.7000e+000 75409 -1.3112e+001 -5.9475e+000 -1.0720e+001 59932 75576,75432,75288
 3.7000e+000 75386 -1.8820e+001 -1.1485e+001 -9.4172e+000 59932 75504,75314,75288
 3.7000e+000 75363 -1.5318e+001 -8.1070e+000 -5.4865e+000 59932 75432,75236,75210
 3.7000e+000 75340 -2.7044e-001 -4.2980e+000 -1.3625e+001 59932 75576,75288,75262
 3.7000e+000 75458 -2.0119e+001 -9.0638e+000 -1.0133e+001 59932 75504,75288,75432
 3.7000e+000 75481 -2.0984e+001 -1.0455e+001 -5.7799e+000 59932 75184,75432,75210
 3.7000e+000 75530 -3.4066e+001 -3.8709e+001 -3.6317e+000 59932 75184,75314,75504
 3.7000e+000 75553 -2.0110e+001 -1.1844e+001 -9.6258e+000 59932 75184,75504,75432
 3.7000e+000 75602 -2.1088e+001 -9.2652e+000 -8.1387e+000 59932 75236,75432,75576
 3.7000e+000 75625 -1.6760e+001 -1.2334e+001 -1.0691e+001 59932 75236,75576,75262
 3.7000e+000 75873 -1.8126e+001 -6.9162e+001  3.9922e+000 59478 75674,75752,75700
 3.7000e+000 75850 -3.5259e+001 -7.5904e+001  1.9209e+001 59478 75648,75752,75674
 3.7000e+000 75827 -1.4200e+001 -6.3494e+001  6.6891e+000 59478 75700,75752,75726
 3.7000e+000 75804 -3.1754e+001 -9.6213e+001  2.3722e+001 59478 75648,75778,75752
 3.7000e+000 76206 -2.4586e+001 -7.8679e+001  1.2178e+001 59024 75981,76059,76007
 3.7000e+000 76183 -2.2691e+001 -7.4454e+001  1.0812e+001 59024 75981,76111,76059
 3.7000e+000 76160 -2.6760e+001 -6.2523e+001  3.7851e-001 59024 76007,76059,76033
 3.7000e+000 76137 -1.6541e+001 -8.9340e+001  3.4308e+001 59024 76059,76111,76085
 3.7000e+000 76761 -5.9678e+000 -1.6614e+001 -9.6287e-001 58562 76389,76441,76415
 3.7000e+000 76738 -1.3978e+001 -1.7024e+001  8.4766e+000 58562 76856,76784,76389
 3.7000e+000 76715 -1.3775e+001 -7.9329e+000 -9.9026e+000 58562 76784,76571,76467
 3.7000e+000 76692 -1.4176e+001 -1.8785e+001  9.1564e+000 58562 76856,76389,76597
 3.7000e+000 76669 -1.2074e+001 -5.8233e+001  7.5600e+000 58562 76467,76545,76493
 3.7000e+000 76646 -9.2800e+000 -4.2489e+001 -2.1235e+001 58562 76467,76571,76545
 3.7000e+000 76623 -1.1687e+001 -4.2523e+001  1.6461e+001 58562 76493,76545,76519
 3.7000e+000 76810 -3.2091e+000 -1.9110e+001 -9.4880e-001 58562 76441,76389,76784
 3.7000e+000 76833 -3.6768e+001 -5.0303e+001 -2.3431e+001 58562 76441,76784,76467
 3.7000e+000 76882 -1.4143e+001 -1.4764e+001  8.3964e+000 58562 76571,76784,76856
 3.7000e+000 76905 -1.3950e+001 -1.6246e+001  8.8100e+000 58562 76571,76856,76597
 3.7000e+000 77055 -5.8788e+000 -3.9084e+001 -2.2499e+000 57844 76928,76980,76954
 3.7000e+000 77032 -1.6807e+001 -5.6044e+000 -4.2009e+000 57844 76928,77006,76980
 3.7000e+000 77533 -1.6894e+001 -5.9136e+001 -7.5088e+000 57226 77628,77556,77291
 3.7000e+000 77510 -1.2921e+001 -6.0834e+000  4.5005e-001 57226 77556,77187,77343
 3.7000e+000 77487 -6.5359e-001 -4.0785e+001 -1.4672e+001 57226 77628,77291,77265
 3.7000e+000 77464 -5.9276e+000 -7.1162e+001  5.8708e+000 57226 77700,77213,77187
 3.7000e+000 77441 -2.0881e+001 -1.9338e+001 -1.4957e+001 57226 77161,77343,77187
 3.7000e+000 77418 -6.0471e+000 -1.4448e+001 -1.7571e+001 57226 77161,77369,77343
 3.7000e+000 77395  5.0056e-001  1.1246e+000 -1.2715e+001 57226 77213,77265,77239
 3.7000e+000 77582 -1.9200e+001 -5.2895e+001  8.1769e+000 57226 77317,77291,77556
 3.7000e+000 77605 -1.3497e+001 -3.2123e+001  3.8758e-001 57226 77317,77556,77343
 3.7000e+000 77654  7.8178e+000 -3.1779e+001  6.8267e+000 57226 77187,77556,77628
 3.7000e+000 77677 -3.7015e+000 -6.5003e+001  5.6433e+000 57226 77700,77187,77628
 3.7000e+000 77726 -1.2677e+001 -7.6013e+001 -1.7929e+001 57226 77265,77213,77700
 3.7000e+000 77749 -3.5921e+000 -5.4392e+001 -1.7044e+001 57226 77265,77700,77628
 3.7000e+000 78046 -1.0792e+001 -5.9213e+001  1.6695e+001 56936 77798,77850,77824
 3.7000e+000 78023 -1.6807e+001 -6.5241e+001  1.7292e+001 56936 78069,77798,77902
 3.7000e+000 78000 -2.3883e+001 -6.6767e+001  1.5475e+001 56936 78069,77902,77876
 3.7000e+000 77977  3.1781e+000 -6.1067e+001 -5.5203e+000 56936 77798,77928,77902
 3.7000e+000 77954 -7.2390e+000 -2.4931e+001  2.3903e+000 56936 77772,77928,77798
 3.7000e+000 78095 -1.4003e+001 -6.5952e+001  1.8181e+001 56936 77850,77798,78069
 3.7000e+000 78118 -1.7238e+001 -6.4774e+001  1.6468e+001 56936 77850,78069,77876
 3.7000e+000 78754 -1.2226e+000 -4.8318e+001 -8.5556e+000 56475 78777,78486,78408
 3.7000e+000 78731 -7.2915e+000 -5.3329e+001 -6.2346e+000 56475 78777,78408,78382
 3.7000e+000 78708 -9.0229e+000 -5.8411e+001 -1.4825e+001 56475 78849,78512,78486
 3.7000e+000 78685 -3.0961e+001 -3.9150e+001  1.8867e+000 56475 78382,78590,78564
 3.7000e+000 78662 -1.7081e+001 -6.1406e+001 -1.4749e+001 56475 78512,78564,78538
 3.7000e+000 78639 -5.9293e+000 -1.1466e+002  1.0897e+001 56475 78434,78486,78460
 3.7000e+000 78616 -2.9548e+001 -1.0541e+002  5.3173e+000 56475 78408,78486,78434
 3.7000e+000 78803 -6.5492e+000 -5.3537e+001 -1.0764e+001 56475 78849,78486,78777
 3.7000e+000 78826 -3.2817e+000 -4.4625e+001 -4.1905e+000 56475 78564,78777,78382
 3.7000e+000 78875 -7.4318e+000 -4.9916e+001 -1.0642e+001 56475 78564,78512,78849
 3.7000e+000 78898 -7.6030e+000 -4.5464e+001 -7.6656e+000 56475 78564,78849,78777
 3.7000e+000 79276 -4.2163e+001 -5.1052e+001  2.2848e+000 55964 79299,79080,79028
 3.7000e+000 79253 -3.2463e+001 -4.8896e+001  3.3862e+000 55964 79299,79028,79132
 3.7000e+000 79230 -4.4978e+001 -7.5440e+001  1.2121e+000 55964 79028,79080,79054
 3.7000e+000 79207 -1.8592e+001 -4.4392e+001  5.1711e+000 55964 79002,79132,79028
 3.7000e+000 79184  1.2243e+000 -3.5230e+001 -1.7930e+000 55964 79002,79158,79132
 3.7000e+000 79325 -3.7757e+001 -5.2913e+001  9.5727e+000 55964 79106,79080,79299
 3.7000e+000 79348 -2.7239e+001 -5.0755e+001  1.0214e+001 55964 79106,79299,79132
 3.7000e+000 79498 -2.9623e+001 -6.4943e+001  9.0307e+000 55452 79397,79449,79423
 3.7000e+000 79475 -4.7185e+001 -6.0307e+001  1.3915e+000 55452 79371,79449,79397
 3.7000e+000 79795 -4.0002e+001 -6.1339e+001  4.8222e+000 55048 79962,79818,79573
 3.7000e+000 79772 -3.5645e+001 -5.9136e+001  5.4729e-001 55048 79818,79521,79677
 3.7000e+000 79749 -3.4215e+001 -9.6613e+001  1.9590e+001 55048 79599,79651,79625
 3.7000e+000 79726 -4.4437e+001 -7.8391e+001  1.8327e+001 55048 79890,79651,79599
 3.7000e+000 79703 -3.4063e+001 -6.1158e+001  1.2657e+001 55048 79962,79573,79547
 3.7000e+000 79844 -3.7851e+001 -5.0234e+001  6.9848e+000 55048 79599,79573,79818
 3.7000e+000 79867 -4.2892e+001 -6.9113e+001  9.5483e+000 55048 79890,79599,79818
 3.7000e+000 79916 -3.0255e+001 -7.0729e+001  9.9358e+000 55048 79677,79651,79890
 3.7000e+000 79939 -3.1491e+001 -6.6729e+001  1.7213e+000 55048 79677,79890,79818
 3.7000e+000 79988 -4.9872e+001 -6.4796e+001  5.5605e+000 55048 79521,79818,79962
 3.7000e+000 80011 -4.9540e+001 -6.6040e+001  1.2297e+001 55048 79521,79962,79547
 3.7000e+000 80212 -2.6768e+001 -4.5610e+001  4.0609e+000 54436 80235,80088,80036
 3.7000e+000 80189 -1.6029e+001 -4.3175e+001  2.6374e+000 54436 80235,80036,80140
 3.7000e+000 80166 -2.4679e+001 -5.5175e+001 -4.7605e+000 54436 80036,80088,80062
 3.7000e+000 80261 -1.7439e+001 -5.3851e+001  1.1001e+001 54436 80114,80088,80235
 3.7000e+000 80284 -3.1508e+000 -4.9024e+001  9.5303e+000 54436 80114,80235,80140
 3.7000e+000 80534 -4.7555e+000 -2.9712e+001  5.3391e+000 54032 80557,80361,80335
 3.7000e+000 80511 -8.6700e+000 -4.0125e+001  1.1781e+001 54032 80557,80335,80309
 3.7000e+000 80488 -7.0640e+000 -3.0820e+001  1.0454e+000 54032 80629,80413,80387
 3.7000e+000 80465 -1.5651e+001 -5.5411e+001  5.7556e+000 54032 80309,80439,80413
 3.7000e+000 80583 -4.4210e+000 -9.6641e+000  1.5880e+000 54032 80387,80361,80557
 3.7000e+000 80606 -6.5424e+000 -2.8551e+001  4.5485e+000 54032 80629,80387,80557
 3.7000e+000 80655 -1.0739e+001 -3.2213e+001  3.7839e-001 54032 80309,80413,80629
 3.7000e+000 80678 -1.2738e+001 -3.1696e+001  3.3607e+000 54032 80309,80629,80557
 3.7000e+000 81139 -2.7631e+000 -1.5986e+000  1.2898e+001 53784 80865,80995,80917
 3.7000e+000 81116  3.1446e+000  8.2959e+000 -6.2603e+000 53784 80865,81021,80995
 3.7000e+000 81093 -6.2539e+000 -3.3843e+001  2.2861e+001 53784 80943,80995,80969
 3.7000e+000 81070 -1.1928e+001 -1.2616e+001  8.5037e+000 53784 80917,80995,80943
 3.7000e+000 81047  3.5942e+000 -7.3818e+001  3.9916e+000 53784 80865,80917,80891
 3.7000e+000 81468 -1.0016e+001 -2.4553e+001  4.9727e+000 53230 81295,81373,81347
 3.7000e+000 81445 -5.6779e+000 -3.4009e+001  8.8424e+000 53230 81243,81373,81295
 3.7000e+000 81422 -2.1012e+001 -4.1910e+001 -1.7122e+000 53230 81243,81295,81269
 3.7000e+000 81399  4.0388e+000 -1.4049e+001 -7.3333e+000 53230 81295,81347,81321
 3.7000e+000 81618  8.7428e+000  1.7675e+001  3.5707e-001 52790 81491,81543,81517
 3.7000e+000 81595  1.7785e+000 -3.6638e+001  9.5840e+000 52790 81491,81569,81543
 3.7000e+000 82126  1.3859e+001 -8.7117e+000 -1.6421e+001 52386 82149,81907,81881
 3.7000e+000 82103  2.9117e+000 -2.8457e+001 -8.0366e+000 52386 82149,81881,81855
 3.7000e+000 82080 -2.8508e+000 -2.5595e+001 -9.5575e-001 52386 82221,81803,81985
 3.7000e+000 82057 -2.9084e+001 -3.2409e+001 -4.6191e+000 52386 81803,81855,81829
 3.7000e+000 82034 -1.4973e+000 -3.9557e+001 -8.6464e+000 52386 81907,81985,81933
 3.7000e+000 82011 -8.1715e+000 -2.6045e+001 -1.4924e+001 52386 81933,81985,81959
 3.7000e+000 82175  2.4234e+000 -2.7117e+001 -6.8101e+000 52386 81985,81907,82149
 3.7000e+000 82198  7.1442e+000 -2.6356e+001 -4.7253e+000 52386 82221,81985,82149
 3.7000e+000 82247 -7.0507e+000 -2.8910e+001  4.2302e+000 52386 81855,81803,82221
 3.7000e+000 82270 -2.3201e+000 -3.3126e+001  6.0437e-001 52386 81855,82221,82149
 3.7000e+000 82825 -1.7905e+001 -3.4666e+001  9.8685e-001 51782 82505,82661,82635
 3.7000e+000 82802 -3.2633e+001 -5.3952e+001 -6.3043e+000 51782 82479,82661,82505
 3.7000e+000 82779 -2.2446e+001 -6.2068e+001 -2.3242e+001 51782 82557,82635,82609
 3.7000e+000 82756 -1.7231e+001 -4.9066e+001 -4.3713e+000 51782 82531,82635,82557
 3.7000e+000 82733 -2.3834e+001 -4.1525e+001 -6.4647e+000 51782 82505,82635,82531
 3.7000e+000 82710 -3.0353e+000 -2.9679e+001  7.7440e+000 51782 82453,82661,82479
 3.7000e+000 82687  1.2135e+000 -3.5518e+001 -1.2725e+001 51782 82557,82609,82583
 3.7000e+000 83171 -3.8805e+001 -7.9309e+001  1.3832e+001 51442 83194,82978,82900
 3.7000e+000 83148 -5.2686e+001 -6.4088e+001  1.1949e+001 51442 83194,82900,82874
 3.7000e+000 83125 -4.0667e+001 -8.0073e+001  1.4364e+001 51442 82900,82978,82926
 3.7000e+000 83102 -3.6449e+001 -5.2379e+001  9.5782e+000 51442 82874,83030,83004
 3.7000e+000 83079 -1.6257e+001 -7.6715e+001  8.3447e+000 51442 82926,82978,82952
 3.7000e+000 83056 -1.2203e+001 -4.8478e+001  1.1988e+001 51442 82848,83030,82874
 3.7000e+000 83220 -3.1286e+001 -7.1419e+001  1.0434e+001 51442 83004,82978,83194
 3.7000e+000 83243 -4.5826e+001 -5.5938e+001  8.8519e+000 51442 83004,83194,82874
 3.7000e+000 83751 -3.1481e+001 -2.6554e+001  2.7289e+000 50938 83428,83584,83454
 3.7000e+000 83728 -3.5757e+001 -2.9173e+001  7.4469e+000 50938 83428,83610,83584
 3.7000e+000 83705 -3.0280e+001 -3.7610e+001  1.1752e+000 50938 83454,83584,83558
 3.7000e+000 83682 -2.2132e+001 -3.0963e+001  5.0480e+000 50938 83454,83532,83480
 3.7000e+000 83659 -1.8482e+001 -3.1848e+001  4.2936e+000 50938 83454,83558,83532
 3.7000e+000 83636 -2.5650e+001 -4.2083e+001  5.5357e-001 50938 83480,83532,83506
 3.7000e+000 84355  2.9387e+000 -3.6079e+001  8.2939e-001 50377 84378,83960,83934
 3.7000e+000 84332  7.9438e+000 -2.2103e+001  3.9905e+000 50377 84522,84378,83934
 3.7000e+000 84309  3.8495e+000 -2.3973e+001 -3.9748e+000 50377 84450,84038,84012
 3.7000e+000 84286  5.3332e+000 -1.5726e+001  3.2644e+000 50377 84522,83934,84142
 3.7000e+000 84263  5.2912e+000 -1.1823e+001 -5.4449e+000 50377 84594,84090,84038
 3.7000e+000 84240 -1.6220e+001 -3.4325e+001 -5.2148e+000 50377 83960,84012,83986
 3.7000e+000 84217  6.8357e+000 -7.4183e+000 -9.4099e+000 50377 83934,84168,84142
 3.7000e+000 84194  3.5423e+000  2.3503e+000  5.0857e+000 50377 84038,84090,84064
 3.7000e+000 84404 -1.1312e+001 -3.2713e+001 -8.3281e+000 50377 84012,83960,84378
 3.7000e+000 84427  5.3681e+000 -2.2568e+001 -1.7237e+000 50377 84450,84012,84378
 3.7000e+000 84476  6.2054e+000 -1.7180e+001 -5.3684e+000 50377 84594,84038,84450
 3.7000e+000 84499  4.7248e+000 -2.9977e+001 -3.4113e+000 50377 84116,84450,84378
 3.7000e+000 84548  8.3087e+000 -3.1080e+001  7.9053e-001 50377 84116,84378,84522
 3.7000e+000 84571  6.9367e+000 -2.3063e+001 -1.4166e-001 50377 84116,84522,84142
 3.7000e+000 84620  6.1252e+000 -2.0122e+001 -1.5877e+000 50377 84116,84090,84594
 3.7000e+000 84643  6.9299e+000 -2.5246e+001 -1.1348e+000 50377 84116,84594,84450
 3.7000e+000 84842 -1.6530e+001 -7.5874e+001  9.3719e+000 49923 84865,84692,84666
 3.7000e+000 84819 -3.8397e+001 -7.0094e+001 -6.3738e+000 49923 84865,84666,84770
 3.7000e+000 84796 -7.1815e+000 -1.0393e+002 -8.9831e+000 49923 84692,84744,84718
 3.7000e+000 84891 -3.0782e+001 -8.2801e+001 -2.0955e+000 49923 84744,84692,84865
 3.7000e+000 84914 -5.6672e+001 -8.5903e+001 -1.9862e+001 49923 84744,84865,84770
 3.7000e+000 85501 -4.0570e+000 -3.7428e+001  5.1805e+000 49618 85524,85282,85204
 3.7000e+000 85478 -3.6086e+000 -3.8606e+001  3.5373e+000 49618 85596,85524,85204
 3.7000e+000 85455 -1.5193e+000 -4.3393e+001  3.2247e+000 49618 85596,85204,85178
 3.7000e+000 85432 -1.1961e+001 -3.7479e+001  5.4255e+000 49618 85204,85282,85256
 3.7000e+000 85409 -1.4641e+001 -5.5496e+001 -2.8740e+000 49618 85282,85334,85308
 3.7000e+000 85386 -1.0163e+001 -3.6670e+001 -2.0988e+000 49618 85204,85256,85230
 3.7000e+000 85550 -3.0861e+000 -3.8542e+001  2.1528e+000 49618 85334,85282,85524
 3.7000e+000 85573 -1.0155e+001 -4.1435e+001  2.5689e+000 49618 85334,85524,85360
 3.7000e+000 85622 -7.2651e+000 -4.4833e+001  5.6053e+000 49618 85360,85524,85596
 3.7000e+000 85645 -3.5160e+000 -4.7621e+001  4.7963e+000 49618 85360,85596,85178
 3.7000e+000 85795 -5.4035e+001 -1.3859e+002 -1.7546e+001 49278 85694,85746,85720
 3.7000e+000 85772 -5.6752e+001 -2.3432e+002 -1.2393e+001 49278 85668,85746,85694
 3.7000e+000 86197 -1.7358e+001 -6.9733e+001 -4.5263e+000 48916 86001,86079,86027
 3.7000e+000 86174 -3.2490e+000 -3.4001e+001 -3.9165e+000 48916 85949,86079,86001
 3.7000e+000 86151  9.4057e-001 -7.1519e+001 -1.1215e+000 48916 85949,86001,85975
 3.7000e+000 86128 -2.0953e+001 -7.7635e+001 -3.2775e+000 48916 86027,86079,86053
 3.7000e+000 86105  1.1100e+000 -2.0004e+001  7.2428e+000 48916 85923,86079,85949
 3.7000e+000 86477 -1.9625e+001 -2.9061e+001  5.5236e+000 48398 86327,86379,86353
 3.7000e+000 86454 -2.0920e+001 -3.6628e+001  5.8022e+000 48398 86500,86379,86327
 3.7000e+000 86431 -2.1296e+001 -3.0411e+001  1.1072e+001 48398 86301,86405,86379
 3.7000e+000 86526 -2.3097e+001 -3.0451e+001  1.0710e+001 48398 86301,86379,86500
 3.7000e+000 87032 -1.4167e+001 -4.5732e+001 -7.0033e+000 48008 87127,87055,86787
 3.7000e+000 87009 -1.9968e+001 -6.8882e+001  4.7091e+000 48008 87055,86735,86709
 3.7000e+000 86986 -2.4083e+001 -3.9668e+001 -5.2546e+000 48008 87127,86787,86761
 3.7000e+000 86963 -1.3489e+001 -2.6027e+001 -2.7194e+000 48008 86787,86865,86839
 3.7000e+000 86940 -4.8102e+000 -3.6180e+001  9.8274e+000 48008 86709,86891,86865
 3.7000e+000 86917 -2.9033e+001 -3.6667e+001 -7.4389e+000 48008 86787,86839,86813
 3.7000e+000 87081 -1.8323e+001 -4.7586e+001 -3.2828e+000 48008 86865,86787,87055
 3.7000e+000 87104 -1.0919e+001 -3.5668e+001  8.5869e+000 48008 86865,87055,86709
 3.7000e+000 87153 -2.5891e+001 -5.8384e+001 -1.2055e+001 48008 86735,87055,87127
 3.7000e+000 87176 -3.7572e+001 -4.5698e+001 -1.0858e+001 48008 86735,87127,86761
 3.7000e+000 87456 -2.3376e+001 -5.2617e+001  8.6811e+000 47604 87306,87358,87332
 3.7000e+000 87433  7.7500e+000 -3.5842e+001  2.3111e+000 47604 87306,87384,87358
 3.7000e+000 87410 -1.2737e+001 -4.4604e+001  2.4318e+000 47604 87280,87384,87306
 3.7000e+000 87785  5.4912e+000 -5.1927e+001  1.2527e+001 47264 87638,87690,87664
 3.7000e+000 87762 -1.6786e+001 -7.4362e+001  2.1489e+001 47264 87612,87690,87638
 3.7000e+000 87739 -2.3148e+001 -9.0982e+001  2.0845e+001 47264 87560,87690,87612
 3.7000e+000 87716 -1.5749e+001 -9.8459e+001  1.1250e+001 47264 87560,87612,87586
 3.7000e+000 87935  3.0129e+000  1.4243e+001  1.1938e+000 46952 87808,87860,87834
 3.7000e+000 87912  1.7276e+000  1.0588e+001  9.9342e-001 46952 87808,87886,87860
 3.7000e+000 88281 -2.0568e+001 -5.9593e+001  3.0176e+000 46526 88304,88114,88036
 3.7000e+000 88258 -1.8571e+001 -5.6872e+001  4.1573e+000 46526 88304,88036,87984
 3.7000e+000 88235 -2.4644e+001 -6.0758e+001  1.4520e+000 46526 88036,88114,88062
 3.7000e+000 88212 -8.6171e+000 -4.7734e+001  8.7749e+000 46526 87958,88140,87984
 3.7000e+000 88189 -1.5313e+001 -4.9056e+001  2.7752e+000 46526 87984,88036,88010
 3.7000e+000 88166 -2.1259e+001 -4.6010e+001  9.7176e+000 46526 88062,88114,88088
 3.7000e+000 88330 -2.3061e+001 -5.6496e+001  2.7370e+000 46526 88140,88114,88304
 3.7000e+000 88353 -2.1762e+001 -5.4254e+001  3.5088e+000 46526 88140,88304,87984
 3.7000e+000 88701  1.0973e+001 -3.3785e+001  1.7849e+001 45822 88724,88378,88534
 3.7000e+000 88678  1.2386e+001 -2.9228e+001  1.7355e+001 45822 88378,88560,88534
 3.7000e+000 88655 -8.2119e+000 -3.8417e+001  1.3472e+001 45822 88724,88534,88508
 3.7000e+000 88632 -2.1889e+001 -4.6292e+001  3.2427e+000 45822 88404,88508,88456
 3.7000e+000 88609 -2.7306e+001 -5.5981e+001  7.8372e+000 45822 88404,88456,88430
 3.7000e+000 88586 -7.1874e+000 -2.0115e+001 -1.0686e+001 45822 88456,88508,88482
 3.7000e+000 88750 -4.5286e+000 -3.4550e+001  7.5131e+000 45822 88404,88378,88724
 3.7000e+000 88773 -1.9512e+001 -3.6293e+001  3.1877e+000 45822 88404,88724,88508
 3.7000e+000 89106 -1.0763e+001 -2.0373e+000  1.2760e+001 45418 88881,88985,88907
 3.7000e+000 89083  2.1103e+000 -1.0678e+000  1.0302e+001 45418 88881,89011,88985
 3.7000e+000 89060 -3.4833e+000 -1.0914e+001  7.1919e+000 45418 88907,88985,88933
 3.7000e+000 89037  3.3176e+000  6.3038e+000  9.9724e+000 45418 88933,88985,88959
 3.7000e+000 89435 -1.7313e+001 -4.6059e+001  1.8089e+001 44914 89210,89288,89236
 3.7000e+000 89412 -3.1541e+001 -6.4099e+001  2.6214e+001 44914 89210,89314,89288
 3.7000e+000 89389 -4.7048e+000 -3.3502e+001  1.2098e+001 44914 89210,89340,89314
 3.7000e+000 89366 -2.6912e+001 -4.9431e+001  1.7407e+001 44914 89236,89288,89262
 3.7000e+000 89634 -1.6487e+001 -5.2456e+001  2.7425e+001 44538 89510,89562,89536
 3.7000e+000 89611 -2.6075e+001 -4.4272e+001  1.1372e+001 44538 89458,89562,89510
 3.7000e+000 89588 -1.6726e+001 -4.3376e+001  7.7507e+000 44538 89458,89510,89484
 3.7000e+000 90044 -5.5396e-001 -1.3129e+001  3.5523e+000 44134 89819,89923,89845
 3.7000e+000 90021 -1.2086e+001 -1.6972e+001 -1.2021e+001 44134 89819,89949,89923
 3.7000e+000 89998  3.6281e+000  4.1444e+000  2.3156e+000 44134 89845,89923,89897
 3.7000e+000 89975 -2.6629e+000 -2.3425e+001  9.0436e+000 44134 89845,89897,89871
 3.7000e+000 90520  1.3092e-001 -2.0081e+001  8.8103e+000 43457 90543,90252,90226
 3.7000e+000 90497  6.0678e+000 -3.6949e+001 -2.1718e+000 43457 90543,90226,90330
 3.7000e+000 90474  1.1385e+000 -3.6233e+001 -5.0720e+000 43457 90200,90330,90226
 3.7000e+000 90451 -8.7209e+000 -2.9574e+001  1.0528e+001 43457 90200,90356,90330
 3.7000e+000 90428 -1.9457e+000 -3.0154e+001  9.9077e-001 43457 90252,90304,90278
 3.7000e+000 90405 -8.5967e+000 -6.0394e+000  1.1651e+001 43457 90174,90356,90200
 3.7000e+000 90382 -7.1437e+000 -1.1486e+001  1.0641e+001 43457 90148,90356,90174
 3.7000e+000 90569 -1.0467e+000 -3.7354e+001  5.1851e+000 43457 90304,90252,90543
 3.7000e+000 90592 -2.1855e+000 -6.3114e+001 -6.8175e+000 43457 90304,90543,90330
 3.7000e+000 91098 -1.7708e+001 -4.1023e+001 -5.0191e-002 42789 90801,90905,90853
 3.7000e+000 91075 -2.1085e+001 -4.7333e+001  1.4274e+000 42789 90775,90905,90801
 3.7000e+000 91052 -1.6560e+001 -4.6569e+001  8.7747e+000 42789 90775,90931,90905
 3.7000e+000 91029 -2.6952e+001 -6.4703e+001 -4.0381e-001 42789 90801,90853,90827
 3.7000e+000 91006 -3.8238e+000 -3.4547e+001 -2.8616e+000 42789 90853,90905,90879
 3.7000e+000 90983 -1.8898e+001 -5.0845e+001  9.4781e+000 42789 90775,90957,90931
 3.7000e+000 91427 -4.4728e+000 -5.1833e+001  1.8616e+000 42227 91228,91280,91254
 3.7000e+000 91404  9.8462e+000 -4.2177e+001 -2.3367e+000 42227 91228,91306,91280
 3.7000e+000 91381 -9.9881e+000 -4.8820e+001  3.9049e+000 42227 91202,91306,91228
 3.7000e+000 91358  6.1971e+000 -3.1466e+001 -5.4644e+000 42227 91202,91332,91306
 3.7000e+000 91675 -1.0565e+001 -4.6555e+001  1.5176e+001 41773 91698,91476,91450
 3.7000e+000 91652 -4.3947e+000 -3.7575e+001  2.2777e+001 41773 91698,91450,91554
 3.7000e+000 91629 -1.8861e+001 -4.2217e+001  2.7081e+001 41773 91450,91580,91554
 3.7000e+000 91606 -9.6275e+000 -4.5070e+001  1.1655e+001 41773 91502,91554,91528
 3.7000e+000 91724 -1.7820e+001 -4.6217e+001  7.4159e+000 41773 91502,91476,91698
 3.7000e+000 91747 -1.2851e+001 -3.7488e+001  1.4994e+001 41773 91502,91698,91554
 3.7000e+000 92127 -2.5773e+001 -3.9960e+001 -5.1553e+000 41255 92150,91905,91879
 3.7000e+000 92104 -3.6413e+000 -3.4749e+001 -1.4166e+001 41255 92150,91879,91957
 3.7000e+000 92081  1.5585e+001 -6.4449e+001  1.1820e+001 41255 91853,91957,91879
 3.7000e+000 92058  1.3672e+001 -6.8151e+001  7.6940e+000 41255 91853,91983,91957
 3.7000e+000 92035 -5.5614e+000 -2.4752e+001 -5.8073e+000 41255 91853,92009,91983
 3.7000e+000 92176 -5.2187e+000 -4.8681e+001 -1.6652e+001 41255 91931,91905,92150
 3.7000e+000 92199  2.9128e+001 -2.7886e+001 -3.0254e+001 41255 91931,92150,91957
 3.7000e+000 92518 -5.5631e+000 -6.4260e+001 -6.5723e+000 41007 92244,92374,92270
 3.7000e+000 92495 -2.4892e+001 -5.7193e+001 -1.0850e+001 41007 92244,92400,92374
 3.7000e+000 92472 -1.0227e+000 -5.1057e+001  3.9130e-001 41007 92270,92374,92348
 3.7000e+000 92449 -3.9536e+000 -1.3202e+001  7.3563e+000 41007 92296,92348,92322
 3.7000e+000 92426 -1.9433e+000 -2.5764e+001 -1.6320e+000 41007 92270,92348,92296
 3.7000e+000 92668 -1.5540e+001 -4.0698e+001 -1.0891e+001 40717 92823,92691,92567
 3.7000e+000 92645 -1.3639e+001 -4.0486e+001 -1.0334e+001 40717 92895,92823,92567
 3.7000e+000 92717 -5.0997e+000 -3.5963e+001 -8.5409e+000 40717 92593,92567,92691
 3.7000e+000 92849 -1.5343e+001 -4.2475e+001 -1.0856e+001 40717 92619,92691,92823
 3.7000e+000 92872 -1.7480e+001 -4.0616e+001 -7.9010e+000 40717 92619,92823,92541
 3.7000e+000 92921 -2.2620e+001 -4.8118e+001 -5.2221e+000 40717 92541,92823,92895
 3.7000e+000 93634 -3.3890e+001 -1.1351e+002 -1.3913e+000 40206 93366,93444,93418
 3.7000e+000 93611 -1.9713e+001 -5.3299e+001 -1.7405e+000 40206 93288,93444,93366
 3.7000e+000 93588 -4.2708e+001 -8.8783e+001  8.1480e+000 40206 93288,93366,93314
 3.7000e+000 93565 -2.7013e+001 -5.2902e+001  3.4665e+000 40206 93262,93444,93288
 3.7000e+000 93542 -7.2093e+000 -1.0453e+002  1.1943e+000 40206 93366,93418,93392
 3.7000e+000 93519 -2.6577e+001 -6.6547e+001  5.4907e+000 40206 93262,93470,93444
 3.7000e+000 93496 -2.5389e+001 -8.1789e+001  1.6765e+001 40206 93314,93366,93340
 3.7000e+000 94189 -1.1420e+001 -2.5967e+001  7.1245e+000 39802 93843,93999,93973
 3.7000e+000 94166  1.8385e+001 -1.0424e+001 -2.0246e-001 39802 93817,93999,93843
 3.7000e+000 94143 -6.3895e+000 -1.5229e+001 -1.8857e+000 39802 93869,93973,93947
 3.7000e+000 94120 -3.9850e-001 -1.5537e+001  2.6431e+000 39802 93843,93973,93869
 3.7000e+000 94097 -3.4419e+000 -2.0093e+001 -3.6996e-001 39802 93869,93921,93895
 3.7000e+000 94074 -2.4235e+000 -1.8826e+001 -2.6610e+000 39802 93869,93947,93921
 3.7000e+000 94051 -2.4207e+001 -2.3705e+001  1.6035e+001 39802 93817,94025,93999
 3.7000e+000 94290 -1.1644e+001 -2.8901e+001 -9.8307e+000 39398 94212,94264,94238
 3.7000e+000 94798 -1.2923e+001 -4.9940e+001 -2.8199e+000 38701 94501,94657,94631
 3.7000e+000 94775 -1.3767e+001 -4.1210e+001  2.7779e+000 38701 94475,94657,94501
 3.7000e+000 94752 -3.8193e+000 -4.5511e+001 -2.4014e+000 38701 94579,94631,94605
 3.7000e+000 94729 -2.2860e+001 -7.5487e+001 -1.2181e+001 38701 94553,94631,94579
 3.7000e+000 94706 -2.7635e+001 -7.2620e+001  4.1602e+000 38701 94501,94631,94553
 3.7000e+000 94683 -2.0137e+001 -1.2862e+002  4.0239e-001 38701 94501,94553,94527
 3.7000e+000 95255 -2.8378e+001 -6.6697e+001  1.2364e-001 38247 95278,95085,95007
 3.7000e+000 95232 -2.2319e+001 -6.5118e+001 -9.0360e-001 38247 95278,95007,95137
 3.7000e+000 95209 -1.2324e+001 -5.7693e+001  4.8822e+000 38247 94981,95137,95007
 3.7000e+000 95186 -2.3640e+001 -5.1522e+001 -1.3425e+000 38247 95007,95059,95033
 3.7000e+000 95163 -2.0519e+001 -4.7379e+001 -8.0668e+000 38247 95007,95085,95059
 3.7000e+000 95304 -3.0840e+001 -6.7786e+001  5.3368e+000 38247 95111,95085,95278
 3.7000e+000 95327 -2.5085e+001 -6.4973e+001  3.6331e+000 38247 95111,95278,95137
 3.7000e+000 95575 -1.5263e+001 -8.4038e+000 -2.7158e+000 37564 95376,95428,95402
 3.7000e+000 95552 -1.3252e+001 -1.2897e+001 -3.2337e+000 37564 95376,95454,95428
 3.7000e+000 95529 -4.8493e+000 -7.7269e+000 -2.6030e-001 37564 95376,95480,95454
 3.7000e+000 95506 -2.1915e+000 -1.7348e+001 -2.5046e+000 37564 95350,95480,95376
 3.7000e+000 96034 -1.4378e+001 -5.4380e+001 -1.8954e+001 37224 95786,95838,95812
 3.7000e+000 96011  4.9987e+000 -3.0539e+001 -1.1054e+000 37224 95786,95890,95838
 3.7000e+000 95988 -6.2276e+000 -2.8519e+001  2.2102e+000 37224 95786,95916,95890
 3.7000e+000 95965  4.7055e+000 -1.3111e+001 -1.4625e+001 37224 95760,95916,95786
 3.7000e+000 95942 -1.0604e+000 -4.2251e+001 -1.1928e+001 37224 95838,95890,95864
 3.7000e+000 96363 -5.9796e+000 -6.4883e+000 -3.9892e+000 36884 96216,96268,96242
 3.7000e+000 96340  1.0453e+000 -6.4196e+000 -3.8071e+000 36884 96164,96268,96216
 3.7000e+000 96317  6.7367e+000 -7.7121e+000 -6.3190e-001 36884 96138,96268,96164
 3.7000e+000 96294 -6.1043e+000 -2.0019e+001  1.0782e+000 36884 96164,96216,96190
 3.7000e+000 96839 -7.4191e+000 -4.8706e+001  1.2857e+001 36572 96862,96649,96597
 3.7000e+000 96816  6.2493e+000 -3.8266e+001  7.0682e+000 36572 97006,96862,96597
 3.7000e+000 96793  8.2980e+000 -1.3009e+001 -5.1423e+000 36572 96934,96467,96675
 3.7000e+000 96770  7.3520e+000 -3.7745e+001  6.9104e+000 36572 97006,96597,96571
 3.7000e+000 96747 -1.2334e+000 -3.9881e+001  1.3954e+000 36572 96467,96519,96493
 3.7000e+000 96724  1.1352e+001 -2.5373e+001  6.0955e+000 36572 96519,96571,96545
 3.7000e+000 96701 -9.9332e+000 -2.7528e+001  3.9409e-001 36572 96597,96649,96623
 3.7000e+000 96888  7.0603e+000 -4.8768e+001 -3.2703e+000 36572 96675,96649,96862
 3.7000e+000 96911  1.3137e+001 -3.2721e+001 -6.7470e+000 36572 96934,96675,96862
 3.7000e+000 96960  1.7670e+000 -3.1152e+001 -1.1988e+000 36572 96519,96467,96934
 3.7000e+000 96983  9.2930e+000 -4.6243e+001  2.5134e-001 36572 97078,96934,96862
 3.7000e+000 97032  5.6208e+000 -4.3271e+001  6.6137e+000 36572 97078,96862,97006
 3.7000e+000 97055  8.1835e+000 -3.6257e+001  7.2404e+000 36572 96519,97006,96571
 3.7000e+000 97104  1.3437e+001 -3.6845e+001 -6.6220e-001 36572 96519,96934,97078
 3.7000e+000 97127  1.0704e+001 -3.3615e+001  4.7143e+000 36572 96519,97078,97006
 3.7000e+000 97761  4.7508e+000 -3.3001e+001 -3.4919e+000 36118 97784,97493,97415
 3.7000e+000 97738  3.6858e+000 -3.8988e+001  1.0309e+000 36118 97784,97415,97597
 3.7000e+000 97715 -9.5021e-001 -4.4416e+001 -4.4884e+000 36118 97389,97597,97415
 3.7000e+000 97692 -1.3182e+001 -4.4233e+001  4.3259e+000 36118 97415,97467,97441
 3.7000e+000 97669 -1.0844e+001 -4.3187e+001  6.0307e+000 36118 97415,97493,97467
 3.7000e+000 97646 -1.0255e+001 -1.4598e+001 -2.1026e+000 36118 97493,97571,97519
 3.7000e+000 97623 -1.0893e+001 -2.5169e+001  2.2631e+000 36118 97519,97571,97545
 3.7000e+000 97810  2.9624e+000 -2.3108e+001 -6.8946e+000 36118 97571,97493,97784
 3.7000e+000 97833 -2.7174e+000 -3.0509e+001 -4.4470e-001 36118 97571,97784,97597
 3.7000e+000 98081  2.4406e+000 -2.9540e+000 -2.7282e+000 35564 98104,97908,97856
 3.7000e+000 98058  5.5158e+000 -8.7695e+000 -5.6149e+000 35564 98104,97856,97986
 3.7000e+000 98035  2.9221e+001 -3.4037e+000  9.2483e+000 35564 97934,97986,97960
 3.7000e+000 98012  1.8082e+000 -6.6191e+000  2.4277e+000 35564 97856,97908,97882
 3.7000e+000 98130  1.1420e+001  1.4467e+001  1.6838e+000 35564 97934,97908,98104
 3.7000e+000 98153  4.5935e+000 -3.5032e+000 -3.5659e+000 35564 97934,98104,97986
 3.7000e+000 98374 -8.5371e+000 -2.0012e+000 -2.9595e+000 35152 98224,98302,98276
 3.7000e+000 98351 -1.3919e+001 -1.6908e+001  8.8469e-001 35152 98198,98302,98224
 3.7000e+000 98328  9.5567e+000  6.6509e+000 -7.3432e+000 35152 98224,98276,98250
 3.7000e+000 98884 -2.0690e+000 -3.6945e+001 -8.8340e+000 34698 98691,98743,98717
 3.7000e+000 98861 -5.8026e+000 -4.3752e+001 -1.2734e+001 34698 98561,98743,98691
 3.7000e+000 98838 -1.1417e+001 -3.9519e+001 -1.2616e+001 34698 98907,98587,98561
 3.7000e+000 98815 -1.3938e+001 -4.3759e+001 -1.0585e+001 34698 98907,98561,98691
 3.7000e+000 98792 -2.0123e+001 -4.2344e+001 -6.7988e+000 34698 98587,98639,98613
 3.7000e+000 98769 -1.5016e+001 -3.4616e+001 -1.0093e+001 34698 98587,98665,98639
 3.7000e+000 98933 -1.2158e+001 -4.1728e+001 -8.4518e+000 34698 98665,98587,98907
 3.7000e+000 98956 -1.6010e+001 -4.8358e+001 -6.2216e+000 34698 98665,98907,98691
 3.7000e+000 99204  1.9632e+000 -5.0949e+001 -3.8756e+000 34144 99227,99031,99005
 3.7000e+000 99181 -7.5853e+000 -5.0231e+001 -7.7187e+000 34144 99299,99227,99005
 3.7000e+000 99158 -8.2707e+000 -5.0003e+001 -6.9276e+000 34144 99299,99005,99109
 3.7000e+000 99135 -4.7190e+000 -4.1595e+001 -3.8997e+000 34144 98979,99109,99005
 3.7000e+000 99253 -4.2353e+000 -5.7467e+001 -7.3934e+000 34144 99057,99031,99227
 3.7000e+000 99276 -9.1115e+000 -5.0973e+001 -1.0655e+001 34144 99057,99227,99083
 3.7000e+000 99325 -6.1991e+000 -4.8646e+001 -9.6184e+000 34144 99083,99227,99299
 3.7000e+000 99348 -8.6507e+000 -4.9204e+001 -8.8215e+000 34144 99083,99299,99109
 3.7000e+000 99498 -7.8228e+000 -1.9834e+001  9.2940e+000 33433 99397,99449,99423
 3.7000e+000 99475 -1.4767e+001 -2.2936e+000  1.9585e+000 33433 99371,99449,99397
 3.7000e+000 100008 -2.7094e+001 -2.9628e+001  3.1964e+000 32979 100103,100031,99815
 3.7000e+000 99985 -1.5318e+001 -3.4010e+001 -7.8655e+000 32979 100175,100031,99763
 3.7000e+000 99962 -2.8834e+001 -3.6549e+001 -1.7751e+000 32979 100103,99815,99789
 3.7000e+000 99939 -1.7516e+001 -4.2285e+001 -8.0255e+000 32979 100175,99763,99737
 3.7000e+000 99916 -1.4340e+001 -2.5665e+001 -4.2230e+000 32979 99685,99867,99737
 3.7000e+000 99893 -1.8940e+001 -5.6563e+001 -1.0377e+001 32979 99685,99737,99711
 3.7000e+000 100057 -8.9315e+000 -2.3548e+001  6.9574e+000 32979 99841,99815,100031
 3.7000e+000 100080 -9.7266e+000 -7.5100e+000 -9.9637e+000 32979 99841,100031,99867
 3.7000e+000 100129 -1.1615e+001 -4.6200e+001 -1.8442e+000 32979 99763,100031,100103
 3.7000e+000 100152 -2.2438e+001 -6.0189e+001 -9.2550e+000 32979 99763,100103,99789
 3.7000e+000 100201 -1.7273e+001 -3.0338e+001 -3.6330e+000 32979 99867,100031,100175
 3.7000e+000 100224 -1.8177e+001 -3.4556e+001 -5.1665e+000 32979 99867,100175,99737
 3.7000e+000 100553  2.1412e+000  2.2780e+000 -6.7812e+000 32503 100354,100406,100380
 3.7000e+000 100530  1.6229e+001 -2.3071e+001  1.8223e+001 32503 100328,100406,100354
 3.7000e+000 100507  1.7948e+001 -2.5013e+001  1.3933e+001 32503 100328,100458,100406
 3.7000e+000 100484  5.0043e+000 -4.6491e+001  8.5384e+000 32503 100406,100458,100432
 3.7000e+000 100850  1.2455e-001 -5.9497e+001 -2.7330e+000 31899 100873,100654,100628
 3.7000e+000 100827  9.1302e+000 -5.7868e+001 -3.5342e+000 31899 100945,100873,100628
 3.7000e+000 100804  1.6096e+001 -5.0626e+001 -5.3578e-001 31899 100945,100628,100602
 3.7000e+000 100781 -5.6115e+000 -2.9146e+001  4.0456e+000 31899 100576,100732,100602
 3.7000e+000 100758 -2.1916e+001 -4.0751e+001 -3.9161e+001 31899 100654,100706,100680
 3.7000e+000 100899  3.0763e+000 -6.2355e+001 -3.2201e+000 31899 100706,100654,100873
 3.7000e+000 100922 -1.4410e+001 -5.9172e+001 -1.5118e+001 31899 100706,100873,100732
 3.7000e+000 100971 -7.6795e+000 -4.4456e+001 -8.4693e+000 31899 100732,100873,100945
 3.7000e+000 100994  7.7925e-001 -3.5578e+001 -4.8929e+000 31899 100732,100945,100602
 3.7000e+000 101551 -1.6098e+000 -3.4846e+001 -3.4489e+000 31338 101205,101387,101231
 3.7000e+000 101528  2.0746e+000 -3.4646e+001  4.5511e-001 31338 101179,101387,101205
 3.7000e+000 101505 -9.9560e+000 -3.0454e+001  8.5762e+000 31338 101574,101309,101257
 3.7000e+000 101482 -6.3222e+000 -3.7689e+001  6.4576e+000 31338 101646,101574,101257
 3.7000e+000 101459 -2.1029e+000 -2.6141e+001  6.7295e+000 31338 101646,101257,101231
 3.7000e+000 101436 -1.5905e+001 -5.0261e+001  3.3571e+000 31338 101309,101361,101335
 3.7000e+000 101413  2.9284e+000 -2.9179e+001  1.4115e+001 31338 101257,101309,101283
 3.7000e+000 101600 -8.2263e+000 -3.8652e+001  6.9178e+000 31338 101361,101309,101574
 3.7000e+000 101623 -1.2689e+001 -5.3583e+001 -5.6114e+000 31338 101361,101574,101387
 3.7000e+000 101672 -5.3827e+000 -3.1766e+001 -1.4341e+000 31338 101387,101574,101646
 3.7000e+000 101695 -5.1686e+000 -2.8381e+001 -1.8858e+000 31338 101387,101646,101231
 3.7000e+000 101943 -1.0185e+001 -5.2850e+001 -3.2592e+000 30748 101966,101796,101744
 3.7000e+000 101920 -4.2152e+000 -5.5349e+001 -3.0550e+000 30748 101966,101744,101718
 3.7000e+000 101897 -1.6091e+001 -6.0721e+001  5.6841e+000 30748 101718,101848,101822
 3.7000e+000 101874 -2.1356e+001 -5.5341e+001 -4.6782e+000 30748 101744,101796,101770
 3.7000e+000 101992 -1.2808e+001 -5.3491e+001 -2.1904e+000 30748 101822,101796,101966
 3.7000e+000 102015 -8.6645e+000 -5.7501e+001 -1.6638e+000 30748 101822,101966,101718
 3.7000e+000 102493 -1.1940e+001 -4.2763e+001 -2.4361e+000 30344 102516,102173,102147
 3.7000e+000 102470 -3.9146e+000 -2.9889e+001 -6.3837e+000 30344 102660,102516,102147
 3.7000e+000 102447  7.9285e+000 -3.9742e+001 -1.0831e+001 30344 102588,102199,102173
 3.7000e+000 102424 -3.5595e+000 -2.7145e+001 -7.2006e+000 30344 102660,102147,102329
 3.7000e+000 102401  1.1192e+001 -4.1469e+001 -2.5841e+001 30344 102199,102277,102251
 3.7000e+000 102378  2.2143e+001 -1.7057e+001 -4.1345e+001 30344 102199,102251,102225
 3.7000e+000 102355  9.4548e-002 -2.4255e+001  3.7839e-001 30344 102121,102329,102147
 3.7000e+000 102542  1.0501e+000 -3.6770e+001 -1.1317e+001 30344 102588,102173,102516
 3.7000e+000 102565 -6.6849e+000 -3.0749e+001 -1.4148e+001 30344 102277,102516,102303
 3.7000e+000 102614  5.4431e-001 -4.0357e+001 -1.2037e+001 30344 102277,102199,102588
 3.7000e+000 102637 -8.0281e+000 -3.9827e+001 -1.4157e+001 30344 102277,102588,102516
 3.7000e+000 102686 -3.1669e+000 -3.3398e+001 -6.1284e+000 30344 102303,102516,102660
 3.7000e+000 102709 -3.4045e+000 -3.1118e+001 -6.5450e+000 30344 102303,102660,102329
 3.7000e+000 103294  1.4338e+001 -5.5213e+001  6.2539e+000 29726 103317,103101,103075
 3.7000e+000 103271  2.5856e+001 -1.6177e+001  1.0740e+001 29726 103317,103075,102997
 3.7000e+000 103248 -1.7257e+000 -8.0484e+000 -4.6299e+000 29726 102971,103153,102997
 3.7000e+000 103225  8.2352e+000 -2.9135e+001 -4.2060e+000 29726 103101,103153,103127
 3.7000e+000 103202  9.9454e+000 -7.1260e+001  1.1998e+001 29726 102997,103075,103023
 3.7000e+000 103179 -1.2691e+001 -4.6787e+001 -1.6086e+001 29726 103023,103075,103049
 3.7000e+000 103343  1.0746e+001 -2.1383e+001  3.3529e-001 29726 103153,103101,103317
 3.7000e+000 103366  9.9349e+000 -2.6772e-002  1.1783e+000 29726 103153,103317,102997
 3.7000e+000 103614  1.2072e+001 -1.8216e+001 -2.9905e-001 29200 103781,103637,103467
 3.7000e+000 103591  5.0627e+000 -1.3501e+001  4.7340e+000 29200 103709,103637,103415
 3.7000e+000 103568  3.9753e+000 -1.6136e+001  4.4290e+000 29200 103709,103415,103389
 3.7000e+000 103545  9.6420e+000 -1.4383e+001 -3.7608e+000 29200 103781,103467,103441
 3.7000e+000 103663  1.4116e+001 -1.6197e+001  5.1959e+000 29200 103853,103637,103493
 3.7000e+000 103686  1.3966e+001  2.0840e+000  6.7843e+000 29200 103493,103637,103519
 3.7000e+000 103735  6.3096e+000 -1.6543e+001  6.3042e+000 29200 103519,103637,103709
 3.7000e+000 103758  5.6964e+000 -1.8371e+001  6.0972e+000 29200 103519,103709,103389
 3.7000e+000 103807  8.5506e+000 -2.3397e+001 -2.3395e+000 29200 103415,103637,103781
 3.7000e+000 103830  3.1375e+000 -2.2795e+001 -6.7023e+000 29200 103415,103781,103441
 3.7000e+000 103879  1.1343e+001 -1.3363e+001 -1.7599e-001 29200 103467,103637,103853
 3.7000e+000 104545 -5.7335e+000 -3.0026e+001 -5.4435e+000 28860 104274,104352,104326
 3.7000e+000 104522 -2.3920e+001 -2.2993e+001  1.5586e+000 28860 104248,104352,104274
 3.7000e+000 104499 -1.7298e+001 -1.8280e+001 -1.8051e+000 28860 104248,104404,104352
 3.7000e+000 104476 -2.6196e+001 -4.4213e+000  1.4118e+000 28860 104222,104404,104248
 3.7000e+000 104453 -2.1683e+001  3.9091e-001  5.5511e+000 28860 104352,104404,104378
 3.7000e+000 104430 -1.4431e+001 -3.1363e+001 -6.8329e+000 28860 104274,104326,104300
 3.7000e+000 104744  1.0383e+000 -4.7905e+001 -1.2874e+001 28456 104839,104767,104646
 3.7000e+000 104721 -1.7781e+001 -6.0456e+001 -6.6996e+000 28456 104767,104594,104568
 3.7000e+000 104698  2.9704e+000 -3.5676e+001 -4.8501e+000 28456 104839,104646,104620
 3.7000e+000 104793 -8.8300e+000 -5.4791e+001 -9.2903e+000 28456 104672,104646,104767
 3.7000e+000 104816 -2.0124e+001 -6.4810e+001  2.3524e+000 28456 104911,104767,104568
 3.7000e+000 104865 -8.0114e+000 -4.8149e+001 -2.2949e+000 28456 104594,104767,104839
 3.7000e+000 104888  6.2275e+000 -2.3996e+000 -2.6668e+000 28456 105041,104839,104620
 3.7000e+000 104937 -3.1691e+000 -4.4125e+001 -7.1188e+000 28456 104672,104767,104911
 3.7000e+000 105067 -6.7120e+000 -4.6188e+001 -6.2761e+000 28456 104594,104839,105041
 3.7000e+000 105573 -1.5182e+001 -4.7592e+001 -3.6089e+000 28094 105812,105596,105328
 3.7000e+000 105550 -1.4558e+001 -4.3965e+001  3.8004e+000 28094 105596,105276,105250
 3.7000e+000 105527 -1.0438e+001 -6.8715e+001 -4.5181e+000 28094 105740,105668,105432
 3.7000e+000 105504 -1.6509e+001 -7.8593e+001 -1.6519e+000 28094 105740,105432,105380
 3.7000e+000 105481 -1.1730e+001 -4.9988e+001 -1.7151e+000 28094 105812,105328,105302
 3.7000e+000 105458 -2.4202e+001 -8.5703e+001  1.2862e+000 28094 105380,105432,105406
 3.7000e+000 105622  1.0858e+000 -2.6175e+001 -1.0767e+001 28094 105354,105328,105596
 3.7000e+000 105645 -5.3933e+000 -3.1316e+001  7.4788e+000 28094 105668,105354,105596
 3.7000e+000 105694 -2.8287e+000 -5.0933e+001 -3.2221e+000 28094 105250,105432,105668
 3.7000e+000 105717 -1.5851e+001 -6.2395e+001  3.6512e+000 28094 105250,105668,105596
 3.7000e+000 105766 -1.8406e+001 -6.1513e+001  1.5359e+001 28094 105354,105668,105740
 3.7000e+000 105789 -2.7061e+001 -7.8751e+001  1.8706e+001 28094 105354,105740,105380
 3.7000e+000 105838 -1.0180e+001 -4.6985e+001 -1.9479e+000 28094 105276,105596,105812
 3.7000e+000 105861  8.4098e+000 -4.1284e+001 -1.2228e-001 28094 105276,105812,105302
 3.7000e+000 106367 -1.2481e+001 -6.3475e+001 -6.1627e+000 27390 106070,106122,106096
 3.7000e+000 106344  8.0783e+000 -6.4089e+001 -1.2854e+001 27390 106070,106226,106122
 3.7000e+000 106321  1.9734e+001 -5.7798e+001 -1.0511e+001 27390 106174,106226,106200
 3.7000e+000 106298  1.1761e+001 -6.5581e+001 -7.3091e+000 27390 106122,106226,106174
 3.7000e+000 106275  1.4092e+001 -6.3705e+001 -1.5894e-001 27390 106122,106174,106148
 3.7000e+000 106252 -2.3905e+001 -7.9089e+001 -1.7398e+001 27390 106044,106226,106070
 3.7000e+000 106615  9.5224e+000 -3.5744e+001 -1.1433e-001 26978 106638,106494,106416
 3.7000e+000 106592  9.4273e+000 -4.1692e+001 -1.5573e+000 26978 106638,106416,106390
 3.7000e+000 106569  8.6141e+000 -3.5555e+001  1.3385e+000 26978 106416,106494,106442
 3.7000e+000 106546  1.6401e+001 -3.5124e+001  3.3619e-001 26978 106442,106494,106468
 3.7000e+000 106664  1.3623e+001 -4.2244e+001  2.5019e+000 26978 106520,106494,106638
 3.7000e+000 106687  1.2476e+001 -4.8541e+001 -8.9251e-001 26978 106520,106638,106390
 3.7000e+000 106837  6.5409e-001 -1.7911e+002 -3.5607e-001 26524 106710,106762,106736
 3.7000e+000 106814  3.0772e-003 -1.5095e+002  8.4467e-002 26524 106710,106788,106762
 3.7000e+000 107426 -3.0814e+001 -4.8588e+001  9.2707e+000 26120 107129,107207,107155
 3.7000e+000 107403 -1.9282e+001 -2.9729e+001  4.2349e+000 26120 107129,107285,107207
 3.7000e+000 107380 -2.7745e+001 -4.2748e+001 -1.0308e+000 26120 107207,107285,107259
 3.7000e+000 107357 -8.4808e+000 -3.6211e+001  3.0514e+000 26120 107155,107207,107181
 3.7000e+000 107334 -2.4526e+001 -3.5786e+001 -3.3588e+000 26120 107103,107285,107129
 3.7000e+000 107311 -2.6273e+001 -3.5744e+001  1.3059e+000 26120 107207,107259,107233
 3.7000e+000 107755 -1.9601e+001 -3.8813e+001  2.4920e+000 25758 107556,107634,107608
 3.7000e+000 107732 -4.3647e+000 -1.8570e+001 -4.6859e+000 25758 107556,107660,107634
 3.7000e+000 107709 -2.5375e+001 -4.0860e+001 -1.9518e+000 25758 107556,107608,107582
 3.7000e+000 107686 -9.1075e-001 -1.1018e+000  8.4108e-001 25758 107530,107660,107556
 3.7000e+000 108438 -1.7652e+001 -6.2187e+001 -2.3401e+000 25468 108121,108199,108173
 3.7000e+000 108415 -7.7736e-001 -2.0645e+001 -8.7458e-001 25468 108095,108199,108121
 3.7000e+000 108392  2.6507e+000 -2.9684e+001  3.7259e-002 25468 108095,108251,108199
 3.7000e+000 108369 -5.3690e+000 -3.7812e+001  4.6121e+000 25468 108069,108251,108095
 3.7000e+000 108346 -1.0357e+001 -3.3866e+001 -6.4305e+000 25468 108199,108251,108225
 3.7000e+000 108323  4.8098e+000 -4.0886e+001  1.1359e+001 25468 108017,108251,108069
 3.7000e+000 108300 -1.7645e+001 -4.8106e+001 -4.2224e+000 25468 108121,108173,108147
 3.7000e+000 108277  4.5612e+000 -3.8600e+001  1.2133e+001 25468 108017,108069,108043
 3.7000e+000 108588 -1.3839e+001 -5.4770e+001 -1.6507e+001 25064 108611,108513,108487
 3.7000e+000 108565 -2.6114e+001 -4.8332e+001 -1.0287e+001 25064 108683,108611,108487
 3.7000e+000 108637 -9.4806e+000 -4.4734e+001 -1.7966e+001 25064 108539,108513,108611
 3.7000e+000 108660 -1.1544e+001 -3.8766e+001 -1.3084e+001 25064 108539,108611,108461
 3.7000e+000 108709 -1.0562e+001 -3.3815e+001 -1.6715e+001 25064 108461,108611,108683
 3.7000e+000 109345 -3.9920e+001 -6.3631e+001  2.2596e+001 24410 108999,109155,109103
 3.7000e+000 109322 -1.9436e+001 -6.1861e+001  1.1665e+001 24410 108973,109155,108999
 3.7000e+000 109299 -1.6206e+001 -1.0719e+002  2.8639e+001 24410 109103,109155,109129
 3.7000e+000 109276 -2.9504e+001 -5.7759e+001  1.0340e+001 24410 108973,109181,109155
 3.7000e+000 109253 -2.6709e+001 -6.2483e+001  1.4549e+001 24410 109025,109103,109077
 3.7000e+000 109230 -3.8656e+001 -6.2379e+001  2.2087e+001 24410 108999,109103,109025
 3.7000e+000 109207 -2.2980e+001 -5.7720e+001  1.2680e+001 24410 109025,109077,109051
 3.7000e+000 109723 -1.9210e+001 -5.7548e+001  1.5426e+000 23856 109475,109579,109553
 3.7000e+000 109700 -2.4053e+001 -5.7992e+001  4.3137e+000 23856 109475,109605,109579
 3.7000e+000 109677 -2.1195e+001 -6.5389e+001  8.2614e+000 23856 109475,109553,109527
 3.7000e+000 109654 -2.4076e+001 -5.7938e+001  6.0548e-001 23856 109449,109605,109475
 3.7000e+000 109631  5.2529e+000 -5.7868e+001  1.1302e+001 23856 109475,109527,109501
 3.7000e+000 110101 -3.4322e+000 -4.9889e+001 -1.7161e+001 23566 109853,109931,109879
 3.7000e+000 110078  1.7755e+000 -4.1122e+001 -9.3806e+000 23566 109827,109931,109853
 3.7000e+000 110055 -1.0825e+001 -4.7482e+001 -5.5218e+000 23566 109827,109983,109931
 3.7000e+000 110032 -9.3030e+000 -3.7879e+001 -5.8501e+000 23566 109879,109931,109905
 3.7000e+000 110009 -2.5582e+000 -3.5464e+001  1.8595e+000 23566 109931,109983,109957
 3.7000e+000 110735  9.3202e+000  3.0499e+000 -7.2141e+000 23162 110415,110571,110519
 3.7000e+000 110712  1.1783e+000 -1.2512e+001 -1.1053e+001 23162 110389,110571,110415
 3.7000e+000 110689  1.1583e+001  3.2153e+000 -1.0220e+001 23162 110415,110519,110493
 3.7000e+000 110666  5.4298e-002 -3.7047e+000  3.6614e+000 23162 110363,110571,110389
 3.7000e+000 110643  2.3787e+001  1.9510e+001  4.3515e+000 23162 110441,110493,110467
 3.7000e+000 110620  1.3651e+001  5.0223e+000 -1.1001e+001 23162 110415,110493,110441
 3.7000e+000 110597  1.4609e+001  1.6814e+000 -1.0198e+001 23162 110519,110571,110545
 3.7000e+000 111211 -1.9222e+001 -6.0209e+001 -6.6119e+000 22708 111378,111306,111021
 3.7000e+000 111188 -2.4715e+000 -5.9709e+001 -1.6035e+000 22708 111234,110969,110917
 3.7000e+000 111165 -1.4294e+001 -5.8360e+001 -3.3028e+000 22708 111450,111234,110917
 3.7000e+000 111142 -2.0412e+001 -5.6721e+001 -1.5642e+001 22708 111378,111021,110995
 3.7000e+000 111119 -1.5767e+001 -5.6800e+001 -8.4119e+000 22708 111450,110917,110865
 3.7000e+000 111096  1.1660e+001 -7.2263e+001  6.6431e+000 22708 110917,110969,110943
 3.7000e+000 111073 -7.0732e+000 -9.5455e+001 -2.8294e+001 22708 110865,110917,110891
 3.7000e+000 111260  1.0687e+000 -5.8158e+001 -4.7768e+000 22708 111306,110969,111234
 3.7000e+000 111283 -5.8687e+000 -4.9655e+001 -4.0898e+000 22708 111047,111234,110839
 3.7000e+000 111332 -1.0442e+000 -7.3181e+001  6.0725e+000 22708 111047,111021,111306
 3.7000e+000 111355 -8.2083e+000 -6.1640e+001 -7.4436e+000 22708 111047,111306,111234
 3.7000e+000 111404 -7.7062e-001 -5.4773e+001 -1.1613e+001 22708 110969,111306,111378
 3.7000e+000 111427 -5.6854e+000 -5.1805e+001 -1.5569e+001 22708 110969,111378,110995
 3.7000e+000 111476 -6.8776e+000 -5.5136e+001 -4.0505e+000 22708 110839,111234,111450
 3.7000e+000 111499 -6.5723e+000 -5.2714e+001 -9.6419e+000 22708 110839,111450,110865
 3.7000e+000 111600  8.2495e+000 -1.5626e+001  3.8141e+000 22460 111522,111574,111548
 3.7000e+000 112059  1.9779e+001 -1.0195e+001 -5.5661e+000 22056 111811,111889,111863
 3.7000e+000 112036  3.3226e+001 -3.0601e+000 -8.9650e+000 22056 111811,111915,111889
 3.7000e+000 112013  2.1303e+001 -6.0186e+000 -7.4292e+000 22056 111785,111915,111811
 3.7000e+000 111990  1.9054e+001  7.9258e+000 -2.1730e+001 22056 111785,111941,111915
 3.7000e+000 111967  1.5709e+001 -6.9205e+000 -2.6882e+000 22056 111811,111863,111837
 3.7000e+000 112486  3.3627e+001 -3.6813e+000 -6.3563e+000 21594 112509,112267,112215
 3.7000e+000 112463  8.8685e+000 -1.5441e+001  7.0475e-001 21594 112509,112215,112163
 3.7000e+000 112440  2.2543e+001  6.0077e+000 -2.7850e+001 21594 112581,112293,112267
 3.7000e+000 112417  1.1841e+001 -1.9046e+001  1.8437e+000 21594 112215,112267,112241
 3.7000e+000 112394  2.2347e+001 -4.7632e+000 -2.1567e+000 21594 112163,112345,112319
 3.7000e+000 112371  9.8522e+000 -5.4948e+000 -1.5346e+000 21594 112163,112215,112189
 3.7000e+000 112535  3.6377e+001 -4.3308e+000 -1.5717e+001 21594 112581,112267,112509
 3.7000e+000 112558  2.1977e+001  8.5094e-001 -5.4424e+000 21594 112319,112509,112163
 3.7000e+000 112607 -5.1083e+000 -4.3755e+000 -2.7893e+001 21594 112319,112293,112581
 3.7000e+000 112630  1.1385e+001 -1.2123e+001 -1.2581e+001 21594 112319,112581,112509
 3.7000e+000 112900 -1.4758e+001 -5.6313e+001 -6.7032e-001 20974 112675,112779,112701
 3.7000e+000 112877 -8.3736e+000 -5.7212e+001  2.5811e-001 20974 112675,112805,112779
 3.7000e+000 112854 -2.1491e+000 -4.4808e+001  4.1297e+000 20974 112701,112779,112753
 3.7000e+000 112831 -5.3936e+000 -2.1405e+001 -1.0795e+001 20974 112701,112753,112727
 3.7000e+000 113359  6.0884e+000 -4.2120e+001 -6.5897e+000 20520 113454,113137,113111
 3.7000e+000 113336  1.5774e+001 -5.0784e+001 -1.3244e+001 20520 113454,113111,113085
 3.7000e+000 113313  1.1972e+001 -6.7597e+000  1.6345e+001 20520 113382,113163,113137
 3.7000e+000 113290  3.0724e+000 -5.2317e+001 -4.6673e+000 20520 113526,113382,113137
 3.7000e+000 113267 -1.0565e+001 -9.2006e+001 -3.2687e+000 20520 113189,113241,113215
 3.7000e+000 113408 -9.1126e+000 -5.4144e+001  1.1147e+001 20520 113189,113163,113382
 3.7000e+000 113431 -3.0901e+000 -6.3644e+001 -1.1762e+001 20520 113189,113382,113241
 3.7000e+000 113480  2.5856e+000 -5.0973e+001 -5.0196e+000 20520 113526,113137,113454
 3.7000e+000 113503  8.5606e+000 -6.2066e+001 -9.9779e+000 20520 113241,113454,113085
 3.7000e+000 113552  4.0192e+000 -5.0269e+001 -5.4256e+000 20520 113241,113382,113526
 3.7000e+000 113575  3.4233e+000 -4.9299e+001 -5.8612e+000 20520 113241,113526,113454
 3.7000e+000 113904 -7.5544e+000 -6.0307e+001  1.0040e+000 19858 113705,113783,113757
 3.7000e+000 113881 -4.7665e+000 -5.0008e+001 -6.2397e-001 19858 113705,113809,113783
 3.7000e+000 113858  9.9099e+000 -4.0889e+001 -1.1154e+001 19858 113679,113809,113705
 3.7000e+000 113835 -1.7415e+000 -3.9227e+001  1.1705e+001 19858 113705,113757,113731
 3.7000e+000 114152 -7.8200e+000 -1.2464e+001 -8.5420e+000 19454 114175,114005,113979
 3.7000e+000 114129 -7.4879e+000 -1.3775e+001 -8.5091e+000 19454 114175,113979,114057
 3.7000e+000 114106 -1.7472e+001 -3.2787e+001 -1.1081e+000 19454 113927,114057,113979
 3.7000e+000 114083 -7.4837e+000 -1.5730e+001 -5.2847e+000 19454 113927,113979,113953
 3.7000e+000 114201 -1.1126e+001 -1.4089e+001 -2.5129e+000 19454 114031,114005,114175
 3.7000e+000 114224 -7.2975e+000 -1.4723e+001 -8.3351e+000 19454 114031,114175,114057
 3.7000e+000 114472 -6.8837e+000 -7.3139e+001  7.1199e+000 19000 114495,114273,114247
 3.7000e+000 114449 -1.7824e+001 -7.2226e+001  7.8140e-002 19000 114495,114247,114325
 3.7000e+000 114426 -2.6366e+001 -7.2087e+001  7.9582e+000 19000 114247,114377,114325
 3.7000e+000 114403 -3.1120e+001 -7.3947e+001 -4.4671e+000 19000 114325,114377,114351
 3.7000e+000 114521  2.4463e+001 -6.1660e+001  1.6016e+001 19000 114299,114273,114495
 3.7000e+000 114544 -9.7791e+000 -7.9682e+001  5.4847e+000 19000 114299,114495,114325
 3.7000e+000 114948 -1.1563e+001 -6.3642e+001 -2.7799e+000 18560 114674,114726,114700
 3.7000e+000 114925 -8.9793e-001 -4.4162e+001 -7.5922e+000 18560 114674,114830,114726
 3.7000e+000 114902 -2.8846e+000 -4.9512e+001 -1.1062e+001 18560 114726,114830,114804
 3.7000e+000 114879 -1.6376e+001 -1.0713e+002 -2.1768e+001 18560 114726,114804,114752
 3.7000e+000 114856  9.1304e+000 -1.5005e+002 -2.4640e+001 18560 114752,114804,114778
 3.7000e+000 115098 -2.7547e+001 -1.0278e+002 -1.8628e+000 18156 114971,115023,114997
 3.7000e+000 115075 -3.4074e+001 -4.8055e+001 -2.5220e-001 18156 114971,115049,115023
 3.7000e+000 115248 -3.3732e+001 -1.0730e+002 -4.0507e+000 17602 115147,115199,115173
 3.7000e+000 115225 -6.2430e+000 -9.2415e+001  2.5283e+000 17602 115121,115199,115147
 3.7000e+000 115652  2.8314e+001 -5.4213e+001 -3.2979e+000 17354 115430,115534,115508
 3.7000e+000 115629  1.4609e+001 -7.5357e+001  3.1751e+000 17354 115404,115534,115430
 3.7000e+000 115606  4.2571e+001 -3.6818e+001  3.0160e+001 17354 115378,115534,115404
 3.7000e+000 115583  4.2967e+001 -6.7198e+001 -1.1355e+001 17354 115456,115508,115482
 3.7000e+000 115560  1.6534e+001 -8.3642e+001 -2.7147e+000 17354 115430,115508,115456
 3.7000e+000 115873 -1.8859e+001 -9.9104e+001 -3.5281e+000 16950 115749,115801,115775
 3.7000e+000 115850 -3.5672e+001 -9.2933e+001 -1.0598e+000 16950 115697,115801,115749
 3.7000e+000 115827 -3.3533e+001 -9.9388e+001  2.5136e+000 16950 115697,115749,115723
 3.7000e+000 116023 -3.3284e+001 -9.3364e+001 -1.1328e+001 16496 115922,115974,115948
 3.7000e+000 116000 -3.5765e+001 -7.2719e+001 -3.6833e+000 16496 115896,115974,115922
 3.7000e+000 116126  2.5447e+001 -3.5534e+001  2.0384e+000 16298 116048,116100,116074
 3.7000e+000 116278  2.0185e+001 -1.0551e+002 -2.4156e+000 15892 116151,116203,116177
 3.7000e+000 116255  5.1032e+000 -1.3846e+002  1.2806e+000 15892 116151,116229,116203
 3.7000e+000 116430  2.1948e+001 -1.0579e+001 -6.0429e-001 15545 116303,116355,116329
 3.7000e+000 116407  1.2425e+001 -3.9430e+001 -1.4410e+001 15545 116303,116381,116355
 3.7000e+000 116785  1.7904e+001 -3.2685e+001  1.5825e+001 421 116612,116690,116664
 3.7000e+000 116762  1.4113e+000 -7.1360e+001  1.0045e+001 421 116560,116690,116612
 3.7000e+000 116739 -2.5437e+001 -8.2073e+001  9.7960e+000 421 116560,116612,116586
 3.7000e+000 116716 -1.4566e+001 -8.3748e+001  5.8324e-001 421 116612,116664,116638
 3.8000e+000 68048 -1.5483e+001 -1.6146e+001 -1.3676e+000 67642 67898,67950,67924
 3.8000e+000 68025 -1.8775e+001 -1.9357e+001  6.0159e-001 67642 67898,67976,67950
 3.8000e+000 68002 -1.1293e+001 -1.7476e+001  2.3275e+000 67642 67872,67976,67898
 3.8000e+000 68367 -3.0950e+001 -4.9190e+001  8.6976e+000 67444 68119,68223,68197
 3.8000e+000 68344 -4.1450e+001 -7.9993e+001  1.1001e+001 67444 68119,68249,68223
 3.8000e+000 68321 -6.6397e+001 -8.1423e+001 -4.6161e+000 67444 68093,68249,68119
 3.8000e+000 68298 -3.7700e+001 -6.3798e+001  5.9487e+000 67444 68119,68197,68171
 3.8000e+000 68275 -2.6408e+001 -6.3525e+001  4.9632e+000 67444 68119,68171,68145
 3.8000e+000 68468 -2.5190e+001 -7.7595e+001  1.8535e+001 67268 68390,68442,68416
 3.8000e+000 68765 -5.4759e+001 -5.9762e+001 -4.2173e-001 66956 68788,68517,68491
 3.8000e+000 68742 -6.6774e+001 -6.5688e+001 -3.9287e+000 66956 68788,68491,68621
 3.8000e+000 68719 -5.1181e+001 -7.2280e+001 -4.3657e+000 66956 68543,68621,68569
 3.8000e+000 68696 -7.4167e+001 -7.5929e+001  2.0413e+000 66956 68491,68647,68621
 3.8000e+000 68673 -9.0689e+001 -4.9707e+001 -8.6727e+000 66956 68569,68621,68595
 3.8000e+000 68814 -3.9527e+001 -6.6151e+001  1.3693e+000 66956 68543,68517,68788
 3.8000e+000 68837 -5.4497e+001 -7.4238e+001 -2.6494e+000 66956 68543,68788,68621
 3.8000e+000 69107 -2.8183e+001 -8.9276e+001 -5.6663e-001 66758 68882,68986,68908
 3.8000e+000 69084 -1.2544e+001 -7.9718e+001  4.7692e+000 66758 68882,69012,68986
 3.8000e+000 69061 -1.5616e+001 -9.0587e+001 -2.0822e+000 66758 68908,68960,68934
 3.8000e+000 69038 -2.7992e+001 -8.4861e+001 -6.0847e-001 66758 68908,68986,68960
 3.8000e+000 69308 -1.0777e+001 -5.8466e+001 -3.2552e+000 66560 69331,69184,69158
 3.8000e+000 69285  5.1008e+000 -6.4727e+001 -2.5067e+000 66560 69331,69158,69132
 3.8000e+000 69262 -2.2734e+001 -9.1878e+001 -7.1511e+000 66560 69184,69236,69210
 3.8000e+000 69357 -1.7045e+001 -6.2202e+001 -1.5927e+000 66560 69236,69184,69331
 3.8000e+000 69380 -9.5236e+000 -7.4971e+001  1.9888e+000 66560 69236,69331,69132
 3.8000e+000 69554 -2.6417e+001 -1.0202e+002  8.8450e+000 66270 69427,69479,69453
 3.8000e+000 69531 -6.9261e+000 -5.6445e+001  1.7820e+001 66270 69427,69505,69479
 3.8000e+000 69804 -2.1516e+001 -6.3098e+001  1.5038e-001 66066 69579,69683,69657
 3.8000e+000 69781 -9.1401e+000 -5.6531e+001 -1.3487e+001 66066 69579,69709,69683
 3.8000e+000 69758 -4.7212e+000 -3.1907e+001 -6.8151e+000 66066 69579,69657,69631
 3.8000e+000 69735 -9.2241e+000 -4.2134e+001 -6.2029e+000 66066 69579,69631,69605
 3.8000e+000 70257 -3.5233e+001 -6.1925e+001 -5.6634e-001 65776 69960,70090,69986
 3.8000e+000 70234 -3.4064e+001 -6.3200e+001  2.1886e+000 65776 69934,70090,69960
 3.8000e+000 70211 -3.6723e+001 -6.9186e+001 -3.2084e+000 65776 69934,70116,70090
 3.8000e+000 70188 -4.2672e+001 -6.7410e+001  0.0000e+000 65776 70038,70090,70064
 3.8000e+000 70165 -4.1675e+001 -6.9575e+001  2.8143e+000 65776 69986,70090,70038
 3.8000e+000 70142 -4.1492e+001 -7.5777e+001  1.3973e+000 65776 69986,70038,70012
 3.8000e+000 70456 -2.3916e+001 -4.5580e+001 -8.5356e+000 65372 70479,70306,70280
 3.8000e+000 70433 -2.9758e+001 -6.2405e+001 -7.6617e+000 65372 70479,70280,70384
 3.8000e+000 70410 -3.4607e+001 -5.5945e+001  5.9788e+000 65372 70551,70332,70306
 3.8000e+000 70505 -3.1774e+001 -4.5617e+001 -1.2880e+000 65372 70551,70306,70479
 3.8000e+000 70528 -1.6756e+001 -5.5883e+001 -5.1999e+000 65372 70358,70479,70384
 3.8000e+000 70577 -2.7585e+001 -6.9878e+001  5.9891e+000 65372 70358,70332,70551
 3.8000e+000 70600 -3.0296e+001 -6.4630e+001  8.9914e-002 65372 70358,70551,70479
 3.8000e+000 70821 -1.4362e+001 -4.1846e+001 -1.4532e+000 65174 70645,70723,70671
 3.8000e+000 70798 -3.3915e+001 -4.7855e+001  3.4601e+000 65174 70645,70749,70723
 3.8000e+000 70775 -1.2157e+001 -4.2250e+001 -1.9650e+000 65174 70671,70723,70697
 3.8000e+000 71071 -1.6453e+001 -2.7730e+001  3.0918e+000 64770 71094,70898,70872
 3.8000e+000 71048 -1.4273e+001 -2.7537e+001  5.0070e+000 64770 71166,71094,70872
 3.8000e+000 71025 -1.6073e+001 -3.2167e+001  1.9641e+000 64770 71166,70872,70846
 3.8000e+000 71002 -1.2187e+001 -2.7779e+001  1.2733e+000 64770 70898,70950,70924
 3.8000e+000 71120 -1.5249e+001 -2.5672e+001  3.5920e+000 64770 70950,70898,71094
 3.8000e+000 71143 -6.5426e+000 -2.8832e+001  6.6795e+000 64770 70950,71094,70976
 3.8000e+000 71192 -1.4639e+001 -3.6776e+001  3.4673e+000 64770 70976,71094,71166
 3.8000e+000 71215 -1.4117e+001 -3.8476e+001  5.5276e-001 64770 70976,71166,70846
 3.8000e+000 71514 -2.6863e+001 -8.0925e+001  4.6190e-002 64572 71681,71537,71318
 3.8000e+000 71491 -3.0992e+001 -7.5878e+001 -1.5164e+000 64572 71537,71266,71240
 3.8000e+000 71468 -3.2724e+001 -6.5337e+001 -3.5361e+000 64572 71609,71396,71370
 3.8000e+000 71445 -2.8618e+001 -8.0949e+001  9.1687e-002 64572 71681,71318,71292
 3.8000e+000 71422 -3.9633e+001 -9.8774e+001  1.4377e+000 64572 71753,71344,71318
 3.8000e+000 71563 -3.2890e+001 -8.5747e+001  3.9204e+000 64572 71753,71318,71537
 3.8000e+000 71586 -3.0083e+001 -7.2657e+001  4.2798e+000 64572 71609,71370,71537
 3.8000e+000 71635 -1.9640e+001 -3.9441e+001 -1.2510e+001 64572 71240,71396,71609
 3.8000e+000 71658 -2.7467e+001 -5.7808e+001 -2.5876e+000 64572 71240,71609,71537
 3.8000e+000 71707 -3.2000e+001 -7.6529e+001 -1.9787e+000 64572 71266,71537,71681
 3.8000e+000 71730 -3.8342e+001 -7.9486e+001 -1.0894e+000 64572 71266,71681,71292
 3.8000e+000 71779 -4.0583e+001 -8.1051e+001  5.9671e-001 64572 71370,71344,71753
 3.8000e+000 71802 -4.0420e+001 -7.9716e+001  6.7804e-001 64572 71370,71753,71537
 3.8000e+000 72052 -2.5481e+001 -4.5937e+001  6.4233e+000 64374 72075,71879,71827
 3.8000e+000 72029 -2.5076e+001 -4.5922e+001  6.6593e+000 64374 72147,72075,71827
 3.8000e+000 72006 -2.6781e+001 -4.9401e+001  4.0084e+000 64374 72147,71827,71957
 3.8000e+000 71983 -1.4639e+001 -3.8373e+001  4.6243e-001 64374 71827,71879,71853
 3.8000e+000 72101 -2.6067e+001 -4.8340e+001  6.9130e+000 64374 71905,71879,72075
 3.8000e+000 72124 -1.7617e+001 -4.7021e+001  8.3605e+000 64374 71905,72075,71931
 3.8000e+000 72173 -2.4999e+001 -5.3173e+001  5.3667e+000 64374 71931,72075,72147
 3.8000e+000 72196 -2.4323e+001 -5.5245e+001  3.7448e+000 64374 71931,72147,71957
 3.8000e+000 72649 -3.5684e+001 -6.0246e+001 -8.1897e-001 63948 72352,72508,72482
 3.8000e+000 72626 -3.3163e+001 -5.4519e+001  5.2376e+000 63948 72326,72508,72352
 3.8000e+000 72603 -3.1375e+001 -7.1983e+001  1.8668e-001 63948 72672,72430,72378
 3.8000e+000 72580 -3.7326e+001 -7.8696e+001  2.8369e+000 63948 72672,72378,72352
 3.8000e+000 72557 -3.3546e+001 -7.3633e+001 -2.4850e+000 63948 72744,72456,72430
 3.8000e+000 72534 -2.8814e+001 -9.0143e+001 -2.1267e+001 63948 72378,72430,72404
 3.8000e+000 72698 -3.4684e+001 -7.2549e+001 -1.7515e+000 63948 72744,72430,72672
 3.8000e+000 72721 -3.3786e+001 -6.9576e+001  2.8627e-001 63948 72482,72672,72352
 3.8000e+000 72770 -3.3868e+001 -7.2093e+001 -2.6585e+000 63948 72482,72456,72744
 3.8000e+000 72793 -3.3896e+001 -6.9495e+001 -2.0184e+000 63948 72482,72744,72672
 3.8000e+000 72894 -4.4326e+001 -8.9505e+001 -5.8786e+000 63494 72816,72868,72842
 3.8000e+000 73093 -1.5861e+001 -2.3813e+001  5.9300e-001 63132 72943,72995,72969
 3.8000e+000 73070 -5.0785e+000 -1.6445e+001  4.3107e+000 63132 72943,73021,72995
 3.8000e+000 73047 -4.4730e+000 -8.6512e+000  2.8761e+000 63132 72917,73021,72943
 3.8000e+000 73294 -1.6030e+001 -3.4731e+001 -1.7467e+001 62792 73317,73144,73118
 3.8000e+000 73271 -2.1843e+001 -4.3830e+001 -9.5991e+000 62792 73317,73118,73222
 3.8000e+000 73248 -7.5011e+000 -1.8133e+001 -1.0664e+001 62792 73144,73196,73170
 3.8000e+000 73343 -2.6987e+001 -2.7468e+001 -6.7901e+000 62792 73196,73144,73317
 3.8000e+000 73366 -3.4828e+001 -4.2124e+001  1.8259e+000 62792 73196,73317,73222
 3.8000e+000 73616 -5.2230e+001 -6.7123e+001  1.3766e+001 62388 73639,73417,73391
 3.8000e+000 73593 -4.6731e+001 -5.5835e+001  6.1466e+000 62388 73711,73639,73391
 3.8000e+000 73570 -3.0068e+001 -4.4474e+001 -6.0362e-001 62388 73711,73391,73521
 3.8000e+000 73547 -1.8810e+001 -4.5736e+001  1.0965e+001 62388 73469,73521,73495
 3.8000e+000 73665 -4.7374e+001 -6.7315e+001 -1.1217e+000 62388 73443,73417,73639
 3.8000e+000 73688 -3.9939e+001 -5.7336e+001  2.1369e+000 62388 73443,73639,73469
 3.8000e+000 73737 -2.6137e+001 -6.1335e+001  7.3456e+000 62388 73469,73639,73711
 3.8000e+000 73760 -2.2240e+001 -6.2660e+001  5.8897e+000 62388 73469,73711,73521
 3.8000e+000 74010 -1.2930e+001 -3.2221e+001 -1.0719e+001 61848 74033,73837,73811
 3.8000e+000 73987 -2.5268e+001 -3.2478e+001 -1.7402e+001 61848 74033,73811,73785
 3.8000e+000 73964 -9.6099e+000 -2.7002e+001 -1.4317e+001 61848 73837,73915,73889
 3.8000e+000 73941 -5.5568e+000 -2.1531e+001 -1.2486e+001 61848 73837,73889,73863
 3.8000e+000 74059 -1.1754e+001 -3.7324e+001 -1.3602e+001 61848 73915,73837,74033
 3.8000e+000 74082 -1.3054e+001 -4.1109e+001 -1.5857e+001 61848 73915,74033,73785
 3.8000e+000 74283 -1.7074e+001 -2.1583e+001  3.4798e+000 61444 74306,74133,74107
 3.8000e+000 74260 -1.5449e+001 -1.8195e+001  2.8807e+000 61444 74306,74107,74211
 3.8000e+000 74237 -2.0014e+001 -7.6757e+000 -4.1080e+000 61444 74378,74185,74159
 3.8000e+000 74332 -1.3477e+001 -2.0107e+001  1.7573e+000 61444 74159,74133,74306
 3.8000e+000 74355 -1.2226e+001 -1.6316e+001 -7.0842e-001 61444 74378,74159,74306
 3.8000e+000 74404 -2.0490e+001 -1.6755e+001  2.0050e+000 61444 74211,74185,74378
 3.8000e+000 74427 -1.8455e+001 -2.0596e+001  1.5568e+000 61444 74211,74378,74306
 3.8000e+000 74628 -3.5065e+000 -2.8665e+001 -5.6366e+000 60990 74478,74530,74504
 3.8000e+000 74605 -1.0478e+001 -3.2532e+001 -7.1641e+000 60990 74452,74530,74478
 3.8000e+000 74582 -1.3676e+001 -4.1371e+001 -3.0607e+000 60990 74452,74556,74530
 3.8000e+000 75089 -3.0190e+000 -1.3716e+001 -7.7225e+000 60486 75112,74945,74919
 3.8000e+000 75066 -9.2266e+000 -2.7830e+000  2.4205e+000 60486 75112,74919,74867
 3.8000e+000 75043 -6.7734e+000 -2.1708e+001  8.9923e+000 60486 74841,74971,74867
 3.8000e+000 75020  5.0319e-001  1.3344e+000  1.8086e+000 60486 74867,74919,74893
 3.8000e+000 74997  3.3479e+000 -2.2076e+001  5.0993e+000 60486 74815,74971,74841
 3.8000e+000 75138 -1.3960e+001 -1.9982e+001 -1.1797e+001 60486 74971,74945,75112
 3.8000e+000 75161 -1.8151e+001 -1.0954e+001 -1.5637e+000 60486 74971,75112,74867
 3.8000e+000 75409 -1.1712e+001 -8.7888e+000 -9.9015e+000 59932 75576,75432,75288
 3.8000e+000 75386 -1.8054e+001 -1.3245e+001 -8.2211e+000 59932 75504,75314,75288
 3.8000e+000 75363 -1.5139e+001 -1.4920e+001 -7.5508e+000 59932 75432,75236,75210
 3.8000e+000 75340 -2.3069e+000 -4.9788e+000 -9.2446e+000 59932 75576,75288,75262
 3.8000e+000 75458 -1.8457e+001 -1.2097e+001 -8.5650e+000 59932 75504,75288,75432
 3.8000e+000 75481 -1.8752e+001 -1.3366e+001 -3.5285e+000 59932 75184,75432,75210
 3.8000e+000 75530 -3.3091e+001 -3.1978e+001 -7.9375e-001 59932 75184,75314,75504
 3.8000e+000 75553 -1.7319e+001 -1.3488e+001 -7.5036e+000 59932 75184,75504,75432
 3.8000e+000 75602 -1.7368e+001 -6.2529e+000 -8.7298e+000 59932 75236,75432,75576
 3.8000e+000 75625 -1.5895e+001 -7.2908e+000 -9.5886e+000 59932 75236,75576,75262
 3.8000e+000 75873 -1.6097e+001 -5.2321e+001  4.8116e+000 59478 75674,75752,75700
 3.8000e+000 75850 -2.8794e+001 -5.7396e+001  1.5407e+001 59478 75648,75752,75674
 3.8000e+000 75827 -9.8630e+000 -4.9605e+001  5.8666e+000 59478 75700,75752,75726
 3.8000e+000 75804 -2.4967e+001 -7.7268e+001  1.9714e+001 59478 75648,75778,75752
 3.8000e+000 76206 -2.3348e+001 -6.0285e+001  1.1844e+001 59024 75981,76059,76007
 3.8000e+000 76183 -2.1104e+001 -5.6338e+001  1.0506e+001 59024 75981,76111,76059
 3.8000e+000 76160 -2.6504e+001 -5.0115e+001  4.1390e+000 59024 76007,76059,76033
 3.8000e+000 76137 -1.7723e+001 -6.9252e+001  2.7022e+001 59024 76059,76111,76085
 3.8000e+000 76761 -3.7228e+000 -6.3564e+000  8.5935e-001 58562 76389,76441,76415
 3.8000e+000 76738 -8.0378e+000 -9.8885e+000  6.7275e+000 58562 76856,76784,76389
 3.8000e+000 76715 -9.2218e+000 -9.5888e+000 -2.5846e+000 58562 76784,76571,76467
 3.8000e+000 76692 -9.3846e+000 -8.0998e+000  6.0519e+000 58562 76856,76389,76597
 3.8000e+000 76669 -5.4080e+000 -3.0849e+001  4.7286e+000 58562 76467,76545,76493
 3.8000e+000 76646 -8.9770e+000 -2.5930e+001 -8.0231e+000 58562 76467,76571,76545
 3.8000e+000 76623 -9.3485e+000 -2.3730e+001  9.1150e+000 58562 76493,76545,76519
 3.8000e+000 76810 -2.1797e+000 -1.3550e+001  1.0199e+000 58562 76441,76389,76784
 3.8000e+000 76833 -2.1767e+001 -3.1304e+001 -1.1504e+001 58562 76441,76784,76467
 3.8000e+000 76882 -8.7314e+000 -1.2621e+001  6.4280e+000 58562 76571,76784,76856
 3.8000e+000 76905 -1.0113e+001 -1.0852e+001  6.0361e+000 58562 76571,76856,76597
 3.8000e+000 77055 -4.6882e-001 -2.3145e+001 -8.7846e-001 57844 76928,76980,76954
 3.8000e+000 77032 -6.9402e+000 -5.0335e+000 -1.7982e+000 57844 76928,77006,76980
 3.8000e+000 77533 -1.0945e+001 -3.0499e+001 -6.2186e+000 57226 77628,77556,77291
 3.8000e+000 77510 -7.1794e+000 -5.5080e+000 -1.4581e+000 57226 77556,77187,77343
 3.8000e+000 77487 -3.1962e+000 -2.1034e+001 -9.8262e+000 57226 77628,77291,77265
 3.8000e+000 77464 -6.3270e+000 -3.7146e+001  1.4338e+000 57226 77700,77213,77187
 3.8000e+000 77441 -1.2454e+001 -1.3723e+001 -1.0899e+001 57226 77161,77343,77187
 3.8000e+000 77418 -5.3632e+000 -1.0980e+001 -1.2373e+001 57226 77161,77369,77343
 3.8000e+000 77395  7.9829e+000  8.4392e+000 -1.4623e+001 57226 77213,77265,77239
 3.8000e+000 77582 -1.1780e+001 -2.5775e+001  3.0294e+000 57226 77317,77291,77556
 3.8000e+000 77605 -4.8637e+000 -1.7375e+001 -3.7128e-001 57226 77317,77556,77343
 3.8000e+000 77654  8.9904e-001 -1.6514e+001  1.2757e+000 57226 77187,77556,77628
 3.8000e+000 77677 -5.3366e+000 -3.3737e+001  9.6029e-001 57226 77700,77187,77628
 3.8000e+000 77726 -9.2708e+000 -3.9302e+001 -1.1097e+001 57226 77265,77213,77700
 3.8000e+000 77749 -4.6445e+000 -2.7740e+001 -1.1013e+001 57226 77265,77700,77628
 3.8000e+000 78046 -1.0953e+001 -4.3211e+001  1.0386e+001 56936 77798,77850,77824
 3.8000e+000 78023 -1.4311e+001 -4.8410e+001  9.6895e+000 56936 78069,77798,77902
 3.8000e+000 78000 -1.8267e+001 -5.0453e+001  8.4600e+000 56936 78069,77902,77876
 3.8000e+000 77977 -6.9819e+000 -4.7726e+001 -3.0866e+000 56936 77798,77928,77902
 3.8000e+000 77954 -1.2950e+001 -2.6169e+001  1.7727e+000 56936 77772,77928,77798
 3.8000e+000 78095 -1.2543e+001 -4.9397e+001  1.0606e+001 56936 77850,77798,78069
 3.8000e+000 78118 -1.4366e+001 -4.9686e+001  9.6941e+000 56936 77850,78069,77876
 3.8000e+000 78754 -1.5757e+000 -3.5085e+001 -7.0235e+000 56475 78777,78486,78408
 3.8000e+000 78731 -9.1055e+000 -3.9648e+001 -5.1041e+000 56475 78777,78408,78382
 3.8000e+000 78708 -1.0495e+001 -4.1900e+001 -1.1740e+001 56475 78849,78512,78486
 3.8000e+000 78685 -2.8802e+001 -2.7129e+001  2.7075e-001 56475 78382,78590,78564
 3.8000e+000 78662 -1.7405e+001 -5.0723e+001 -1.1480e+001 56475 78512,78564,78538
 3.8000e+000 78639 -3.4274e+000 -8.1941e+001  8.0323e+000 56475 78434,78486,78460
 3.8000e+000 78616 -2.3359e+001 -7.7830e+001  5.2100e+000 56475 78408,78486,78434
 3.8000e+000 78803 -7.4789e+000 -3.8467e+001 -9.3034e+000 56475 78849,78486,78777
 3.8000e+000 78826 -6.0882e+000 -3.2779e+001 -4.5519e+000 56475 78564,78777,78382
 3.8000e+000 78875 -9.8378e+000 -3.6299e+001 -8.1047e+000 56475 78564,78512,78849
 3.8000e+000 78898 -9.2890e+000 -3.3601e+001 -6.3989e+000 56475 78564,78849,78777
 3.8000e+000 79276 -3.7548e+001 -3.9029e+001  2.3852e+000 55964 79299,79080,79028
 3.8000e+000 79253 -2.9206e+001 -3.7173e+001  3.3261e+000 55964 79299,79028,79132
 3.8000e+000 79230 -3.8636e+001 -6.2764e+001  3.3190e-001 55964 79028,79080,79054
 3.8000e+000 79207 -1.6251e+001 -3.3500e+001  4.7385e+000 55964 79002,79132,79028
 3.8000e+000 79184 -4.1955e-001 -2.6219e+001 -4.0037e-001 55964 79002,79158,79132
 3.8000e+000 79325 -3.3734e+001 -4.0568e+001  8.6448e+000 55964 79106,79080,79299
 3.8000e+000 79348 -2.4690e+001 -3.8709e+001  9.1911e+000 55964 79106,79299,79132
 3.8000e+000 79498 -2.5208e+001 -4.3007e+001  6.3360e+000 55452 79397,79449,79423
 3.8000e+000 79475 -3.8543e+001 -4.3453e+001  5.2927e-001 55452 79371,79449,79397
 3.8000e+000 79795 -3.8487e+001 -4.2687e+001  5.0112e+000 55048 79962,79818,79573
 3.8000e+000 79772 -3.5099e+001 -4.7384e+001  1.1008e+000 55048 79818,79521,79677
 3.8000e+000 79749 -2.8263e+001 -7.1829e+001  1.8424e+001 55048 79599,79651,79625
 3.8000e+000 79726 -4.0655e+001 -5.7354e+001  1.6136e+001 55048 79890,79651,79599
 3.8000e+000 79703 -3.2570e+001 -4.1627e+001  1.2337e+001 55048 79962,79573,79547
 3.8000e+000 79844 -3.7800e+001 -3.3659e+001  6.5069e+000 55048 79599,79573,79818
 3.8000e+000 79867 -4.0275e+001 -5.1175e+001  7.9947e+000 55048 79890,79599,79818
 3.8000e+000 79916 -2.7886e+001 -5.0864e+001  1.0757e+001 55048 79677,79651,79890
 3.8000e+000 79939 -2.9436e+001 -4.8090e+001  3.1619e+000 55048 79677,79890,79818
 3.8000e+000 79988 -4.7811e+001 -4.6361e+001  5.0255e+000 55048 79521,79818,79962
 3.8000e+000 80011 -4.7335e+001 -4.7182e+001  1.1277e+001 55048 79521,79962,79547
 3.8000e+000 80212 -2.3061e+001 -3.3231e+001 -4.1917e-001 54436 80235,80088,80036
 3.8000e+000 80189 -1.5110e+001 -3.5894e+001  1.7098e-001 54436 80235,80036,80140
 3.8000e+000 80166 -2.0306e+001 -3.3722e+001 -5.0048e+000 54436 80036,80088,80062
 3.8000e+000 80261 -1.6905e+001 -3.5145e+001  3.6922e+000 54436 80114,80088,80235
 3.8000e+000 80284 -6.1730e+000 -3.5263e+001  4.6947e+000 54436 80114,80235,80140
 3.8000e+000 80534 -4.3812e+000 -1.9071e+001  2.0658e+000 54032 80557,80361,80335
 3.8000e+000 80511 -9.0162e+000 -2.7670e+001  7.1613e+000 54032 80557,80335,80309
 3.8000e+000 80488 -1.0409e+001 -1.9375e+001  1.6936e-001 54032 80629,80413,80387
 3.8000e+000 80465 -1.3960e+001 -3.8900e+001  3.6555e+000 54032 80309,80439,80413
 3.8000e+000 80583 -5.5186e+000 -2.6862e+000 -2.0502e+000 54032 80387,80361,80557
 3.8000e+000 80606 -1.0017e+001 -1.8184e+001  1.1442e+000 54032 80629,80387,80557
 3.8000e+000 80655 -1.1267e+001 -1.9572e+001 -5.0606e-001 54032 80309,80413,80629
 3.8000e+000 80678 -1.1805e+001 -1.9366e+001  3.3342e-001 54032 80309,80629,80557
 3.8000e+000 81139 -8.8394e-001  3.2145e+000  1.0303e+001 53784 80865,80995,80917
 3.8000e+000 81116  2.0361e+000  9.0293e+000 -1.7557e+000 53784 80865,81021,80995
 3.8000e+000 81093 -3.0941e+000 -1.6853e+001  1.5511e+001 53784 80943,80995,80969
 3.8000e+000 81070 -6.3724e+000 -4.8025e+000  7.2070e+000 53784 80917,80995,80943
 3.8000e+000 81047  5.4777e+000 -3.2972e+001  4.1157e+000 53784 80865,80917,80891
 3.8000e+000 81468 -1.3334e+001 -1.5774e+001  5.0710e-001 53230 81295,81373,81347
 3.8000e+000 81445 -1.0757e+001 -2.7583e+001  3.5797e+000 53230 81243,81373,81295
 3.8000e+000 81422 -1.7501e+001 -2.8692e+001 -1.7293e+000 53230 81243,81295,81269
 3.8000e+000 81399  2.9123e+000 -6.2849e+000 -6.7521e+000 53230 81295,81347,81321
 3.8000e+000 81618  1.6438e+001  2.5945e+001 -2.8388e-001 52790 81491,81543,81517
 3.8000e+000 81595  7.9929e+000 -2.2520e+001  8.5595e+000 52790 81491,81569,81543
 3.8000e+000 82126  8.1246e+000 -4.7333e+000 -9.0786e+000 52386 82149,81907,81881
 3.8000e+000 82103  1.2992e+000 -1.7923e+001 -4.9417e+000 52386 82149,81881,81855
 3.8000e+000 82080 -5.5104e-001 -1.6563e+001  9.8714e-002 52386 82221,81803,81985
 3.8000e+000 82057 -2.1813e+001 -1.5825e+001 -4.9891e+000 52386 81803,81855,81829
 3.8000e+000 82034 -4.7211e+000 -3.2467e+001 -2.1148e+000 52386 81907,81985,81933
 3.8000e+000 82011 -1.1210e+001 -2.4202e+001 -5.9727e+000 52386 81933,81985,81959
 3.8000e+000 82175  1.8827e+000 -1.6740e+001 -2.7125e+000 52386 81985,81907,82149
 3.8000e+000 82198  4.1787e+000 -1.6923e+001 -1.7038e+000 52386 82221,81985,82149
 3.8000e+000 82247 -2.5802e+000 -1.8299e+001  2.5314e+000 52386 81855,81803,82221
 3.8000e+000 82270 -3.1124e-001 -2.0267e+001  8.1386e-001 52386 81855,82221,82149
 3.8000e+000 82825 -1.0950e+001 -2.1475e+001 -8.4233e-001 51782 82505,82661,82635
 3.8000e+000 82802 -2.0622e+001 -3.3230e+001 -5.8154e+000 51782 82479,82661,82505
 3.8000e+000 82779 -1.7204e+001 -3.9395e+001 -1.6760e+001 51782 82557,82635,82609
 3.8000e+000 82756 -1.2253e+001 -2.7301e+001 -4.4687e+000 51782 82531,82635,82557
 3.8000e+000 82733 -1.3776e+001 -2.5065e+001 -4.9282e+000 51782 82505,82635,82531
 3.8000e+000 82710 -5.6976e-001 -1.7042e+001  3.5689e+000 51782 82453,82661,82479
 3.8000e+000 82687  7.3415e-002 -2.2527e+001 -9.8166e+000 51782 82557,82609,82583
 3.8000e+000 83171 -3.3600e+001 -6.0585e+001  9.9302e+000 51442 83194,82978,82900
 3.8000e+000 83148 -4.3794e+001 -4.9256e+001  8.5723e+000 51442 83194,82900,82874
 3.8000e+000 83125 -2.6536e+001 -5.7664e+001  8.9101e+000 51442 82900,82978,82926
 3.8000e+000 83102 -3.1258e+001 -4.0958e+001  8.5379e+000 51442 82874,83030,83004
 3.8000e+000 83079 -1.5090e+001 -5.5413e+001  6.8586e+000 51442 82926,82978,82952
 3.8000e+000 83056 -1.1736e+001 -3.9680e+001  9.7636e+000 51442 82848,83030,82874
 3.8000e+000 83220 -2.8037e+001 -5.4627e+001  7.3655e+000 51442 83004,82978,83194
 3.8000e+000 83243 -3.8699e+001 -4.3072e+001  6.2384e+000 51442 83004,83194,82874
 3.8000e+000 83751 -3.1179e+001 -1.7198e+001  2.7554e+000 50938 83428,83584,83454
 3.8000e+000 83728 -3.6927e+001 -2.0117e+001  5.3020e+000 50938 83428,83610,83584
 3.8000e+000 83705 -2.8204e+001 -3.1006e+001  1.1343e+000 50938 83454,83584,83558
 3.8000e+000 83682 -1.9707e+001 -2.1717e+001  4.3986e+000 50938 83454,83532,83480
 3.8000e+000 83659 -1.8058e+001 -2.5862e+001  4.6348e+000 50938 83454,83558,83532
 3.8000e+000 83636 -1.8495e+001 -2.7457e+001  2.2179e+000 50938 83480,83532,83506
 3.8000e+000 84355  6.1593e+000 -2.2166e+001 -3.3784e-002 50377 84378,83960,83934
 3.8000e+000 84332  9.3756e+000 -1.2708e+001  2.7646e+000 50377 84522,84378,83934
 3.8000e+000 84309  8.5187e+000 -1.0887e+001 -4.0037e+000 50377 84450,84038,84012
 3.8000e+000 84286  7.2351e+000 -8.9780e+000  2.4686e+000 50377 84522,83934,84142
 3.8000e+000 84263  7.7274e+000  5.8979e-001 -7.2074e+000 50377 84594,84090,84038
 3.8000e+000 84240 -5.6913e+000 -2.0803e+001 -8.7899e+000 50377 83960,84012,83986
 3.8000e+000 84217  8.1034e+000 -2.7396e-001 -1.1182e+001 50377 83934,84168,84142
 3.8000e+000 84194  3.7444e+000  1.2002e+001  1.7712e+000 50377 84038,84090,84064
 3.8000e+000 84404 -7.4223e+000 -2.0123e+001 -7.4389e+000 50377 84012,83960,84378
 3.8000e+000 84427  6.8101e+000 -1.0841e+001 -1.7759e+000 50377 84450,84012,84378
 3.8000e+000 84476  1.0214e+001 -4.7200e+000 -6.5487e+000 50377 84594,84038,84450
 3.8000e+000 84499  7.7154e+000 -1.5129e+001 -3.9846e+000 50377 84116,84450,84378
 3.8000e+000 84548  8.7444e+000 -1.7684e+001  9.3883e-001 50377 84116,84378,84522
 3.8000e+000 84571  7.2628e+000 -1.3075e+001  5.7604e-001 50377 84116,84522,84142
 3.8000e+000 84620  6.0167e+000 -7.1194e+000 -3.6775e+000 50377 84116,84090,84594
 3.8000e+000 84643  8.0633e+000 -1.2465e+001 -2.6572e+000 50377 84116,84594,84450
 3.8000e+000 84842 -1.1287e+001 -5.7094e+001  7.4184e+000 49923 84865,84692,84666
 3.8000e+000 84819 -3.2935e+001 -5.1466e+001 -8.0557e+000 49923 84865,84666,84770
 3.8000e+000 84796 -6.6010e+000 -7.9835e+001 -9.1726e+000 49923 84692,84744,84718
 3.8000e+000 84891 -2.5441e+001 -6.3833e+001 -4.0104e+000 49923 84744,84692,84865
 3.8000e+000 84914 -5.1034e+001 -6.6936e+001 -2.1479e+001 49923 84744,84865,84770
 3.8000e+000 85501 -3.2826e+000 -2.0182e+001  1.9943e+000 49618 85524,85282,85204
 3.8000e+000 85478 -4.5143e+000 -2.1621e+001  7.7670e-001 49618 85596,85524,85204
 3.8000e+000 85455 -4.4545e+000 -2.4274e+001  3.4773e-001 49618 85596,85204,85178
 3.8000e+000 85432 -7.8182e+000 -1.7595e+001  1.0985e+000 49618 85204,85282,85256
 3.8000e+000 85409 -8.7044e+000 -3.0278e+001 -2.5639e+000 49618 85282,85334,85308
 3.8000e+000 85386 -4.9465e+000 -1.1074e+001 -5.5881e-001 49618 85204,85256,85230
 3.8000e+000 85550 -3.0082e+000 -2.1908e+001 -9.0932e-002 49618 85334,85282,85524
 3.8000e+000 85573 -5.7795e+000 -2.2970e+001  3.8527e-001 49618 85334,85524,85360
 3.8000e+000 85622 -4.7813e+000 -2.5449e+001  1.7166e+000 49618 85360,85524,85596
 3.8000e+000 85645 -3.8401e+000 -2.6992e+001  1.2089e+000 49618 85360,85596,85178
 3.8000e+000 85795 -4.6720e+001 -1.1546e+002 -1.5357e+001 49278 85694,85746,85720
 3.8000e+000 85772 -4.8741e+001 -1.9389e+002 -1.1005e+001 49278 85668,85746,85694
 3.8000e+000 86197 -1.0994e+001 -4.6595e+001 -7.0579e+000 48916 86001,86079,86027
 3.8000e+000 86174 -3.7354e+000 -2.2013e+001 -2.2634e+000 48916 85949,86079,86001
 3.8000e+000 86151 -1.9581e+000 -4.7481e+001 -4.2350e-002 48916 85949,86001,85975
 3.8000e+000 86128 -1.1920e+001 -4.1781e+001 -3.6657e+000 48916 86027,86079,86053
 3.8000e+000 86105 -1.4874e+000 -1.2942e+001  5.1160e+000 48916 85923,86079,85949
 3.8000e+000 86477 -2.3293e+001 -2.3710e+001  7.3880e+000 48398 86327,86379,86353
 3.8000e+000 86454 -2.9351e+001 -2.8451e+001  4.0710e+000 48398 86500,86379,86327
 3.8000e+000 86431 -2.5134e+001 -2.7017e+001  1.1892e+001 48398 86301,86405,86379
 3.8000e+000 86526 -2.3266e+001 -2.1510e+001  8.0070e+000 48398 86301,86379,86500
 3.8000e+000 87032 -1.3284e+001 -2.8541e+001 -3.3355e+000 48008 87127,87055,86787
 3.8000e+000 87009 -1.7790e+001 -4.4591e+001  3.6796e+000 48008 87055,86735,86709
 3.8000e+000 86986 -1.8658e+001 -2.5228e+001 -2.3812e+000 48008 87127,86787,86761
 3.8000e+000 86963 -1.1825e+001 -1.4470e+001 -8.4494e-001 48008 86787,86865,86839
 3.8000e+000 86940 -9.1932e+000 -2.6610e+001  6.9124e+000 48008 86709,86891,86865
 3.8000e+000 86917 -2.8500e+001 -2.6011e+001 -6.0103e+000 48008 86787,86839,86813
 3.8000e+000 87081 -1.5837e+001 -3.0910e+001 -1.4870e+000 48008 86865,86787,87055
 3.8000e+000 87104 -1.1400e+001 -2.4253e+001  5.0406e+000 48008 86865,87055,86709
 3.8000e+000 87153 -1.9596e+001 -3.7356e+001 -6.6601e+000 48008 86735,87055,87127
 3.8000e+000 87176 -2.4142e+001 -2.7766e+001 -6.8491e+000 48008 86735,87127,86761
 3.8000e+000 87456 -2.3300e+001 -4.0178e+001  6.1151e+000 47604 87306,87358,87332
 3.8000e+000 87433  5.0484e+000 -2.5379e+001  7.6131e-001 47604 87306,87384,87358
 3.8000e+000 87410 -1.5436e+001 -3.4200e+001 -2.4874e-001 47604 87280,87384,87306
 3.8000e+000 87785  1.0457e+001 -3.9336e+001  1.3261e+001 47264 87638,87690,87664
 3.8000e+000 87762 -1.0258e+001 -5.1627e+001  2.0193e+001 47264 87612,87690,87638
 3.8000e+000 87739 -1.7757e+001 -6.8084e+001  1.8276e+001 47264 87560,87690,87612
 3.8000e+000 87716 -1.0406e+001 -7.8170e+001  7.8653e+000 47264 87560,87612,87586
 3.8000e+000 87935 -1.2313e+000  6.9699e+000 -2.4842e-001 46952 87808,87860,87834
 3.8000e+000 87912  5.4579e+000  2.4929e+001  3.9219e-001 46952 87808,87886,87860
 3.8000e+000 88281 -1.8826e+001 -4.7847e+001  1.9085e+000 46526 88304,88114,88036
 3.8000e+000 88258 -1.7107e+001 -4.6234e+001  2.6004e+000 46526 88304,88036,87984
 3.8000e+000 88235 -2.4043e+001 -4.9421e+001  1.4863e-001 46526 88036,88114,88062
 3.8000e+000 88212 -7.4611e+000 -3.8616e+001  7.7573e+000 46526 87958,88140,87984
 3.8000e+000 88189 -1.5258e+001 -4.1724e+001  1.3999e+000 46526 87984,88036,88010
 3.8000e+000 88166 -1.7449e+001 -3.5673e+001  7.5202e+000 46526 88062,88114,88088
 3.8000e+000 88330 -2.0702e+001 -4.5939e+001  1.7935e+000 46526 88140,88114,88304
 3.8000e+000 88353 -1.9551e+001 -4.4726e+001  2.2728e+000 46526 88140,88304,87984
 3.8000e+000 88701  1.0073e+001 -2.7819e+001  1.3570e+001 45822 88724,88378,88534
 3.8000e+000 88678  1.0520e+001 -2.2927e+001  1.3820e+001 45822 88378,88560,88534
 3.8000e+000 88655 -7.0137e+000 -3.3493e+001  1.2103e+001 45822 88724,88534,88508
 3.8000e+000 88632 -1.7916e+001 -3.4018e+001  2.1428e+000 45822 88404,88508,88456
 3.8000e+000 88609 -2.3794e+001 -4.3649e+001  8.5078e+000 45822 88404,88456,88430
 3.8000e+000 88586 -4.2517e+000 -1.7285e+001 -6.4059e+000 45822 88456,88508,88482
 3.8000e+000 88750 -3.7126e+000 -2.5351e+001  3.9387e+000 45822 88404,88378,88724
 3.8000e+000 88773 -1.6972e+001 -2.8754e+001  2.3356e+000 45822 88404,88724,88508
 3.8000e+000 89106  1.8081e+000  1.1321e+001  1.0789e+001 45418 88881,88985,88907
 3.8000e+000 89083  9.5381e+000  1.0203e+001  9.5953e+000 45418 88881,89011,88985
 3.8000e+000 89060 -2.7299e+000  8.3061e-001  5.3090e+000 45418 88907,88985,88933
 3.8000e+000 89037  1.1030e+001  1.5225e+001  1.1429e+001 45418 88933,88985,88959
 3.8000e+000 89435 -1.3665e+001 -3.4378e+001  1.5086e+001 44914 89210,89288,89236
 3.8000e+000 89412 -2.4936e+001 -5.0991e+001  2.0775e+001 44914 89210,89314,89288
 3.8000e+000 89389 -2.9385e+000 -2.9244e+001  1.0874e+001 44914 89210,89340,89314
 3.8000e+000 89366 -2.0422e+001 -3.7414e+001  1.5715e+001 44914 89236,89288,89262
 3.8000e+000 89634 -1.1814e+001 -3.7855e+001  2.0038e+001 44538 89510,89562,89536
 3.8000e+000 89611 -1.8536e+001 -4.0214e+001  1.2597e+001 44538 89458,89562,89510
 3.8000e+000 89588 -1.0126e+001 -3.4019e+001  9.1103e+000 44538 89458,89510,89484
 3.8000e+000 90044 -3.4300e-001 -9.2035e+000  1.9843e+000 44134 89819,89923,89845
 3.8000e+000 90021 -7.8259e+000 -1.3405e+001 -7.0198e+000 44134 89819,89949,89923
 3.8000e+000 89998  8.1438e-001  1.6900e+000  1.9724e+000 44134 89845,89923,89897
 3.8000e+000 89975 -2.7151e+000 -1.3282e+001  5.4262e+000 44134 89845,89897,89871
 3.8000e+000 90520  3.6977e-001 -1.1045e+001  6.8162e+000 43457 90543,90252,90226
 3.8000e+000 90497  2.6689e+000 -2.1019e+001  4.6804e-001 43457 90543,90226,90330
 3.8000e+000 90474 -8.5520e-001 -1.9179e+001 -1.7343e+000 43457 90200,90330,90226
 3.8000e+000 90451 -3.3184e+000 -1.6600e+001  3.5451e+000 43457 90200,90356,90330
 3.8000e+000 90428  8.9127e-001 -1.6004e+001  1.6338e+000 43457 90252,90304,90278
 3.8000e+000 90405  4.2045e-001  1.2170e+001  6.2812e+000 43457 90174,90356,90200
 3.8000e+000 90382 -1.5160e+000 -1.0386e+001  4.7393e-002 43457 90148,90356,90174
 3.8000e+000 90569  7.0950e-001 -2.1447e+001  3.7036e+000 43457 90304,90252,90543
 3.8000e+000 90592 -1.7823e+000 -3.6891e+001 -3.4522e+000 43457 90304,90543,90330
 3.8000e+000 91098 -2.1580e+001 -3.7591e+001  3.7035e+000 42789 90801,90905,90853
 3.8000e+000 91075 -2.0648e+001 -3.6024e+001  3.2959e+000 42789 90775,90905,90801
 3.8000e+000 91052 -1.7274e+001 -3.3923e+001  7.6868e+000 42789 90775,90931,90905
 3.8000e+000 91029 -2.9187e+001 -4.9807e+001 -4.5125e-001 42789 90801,90853,90827
 3.8000e+000 91006 -7.1837e+000 -2.9233e+001 -6.7538e+000 42789 90853,90905,90879
 3.8000e+000 90983 -1.8002e+001 -4.5826e+001  7.8126e+000 42789 90775,90957,90931
 3.8000e+000 91427 -4.0106e+000 -2.8869e+001  1.8254e+000 42227 91228,91280,91254
 3.8000e+000 91404  4.8638e+000 -2.2789e+001 -8.1772e-001 42227 91228,91306,91280
 3.8000e+000 91381 -6.3016e+000 -2.6770e+001  1.8469e+000 42227 91202,91306,91228
 3.8000e+000 91358  1.5561e+000 -2.3490e+001 -4.0392e+000 42227 91202,91332,91306
 3.8000e+000 91675 -7.5824e+000 -3.3016e+001  1.2803e+001 41773 91698,91476,91450
 3.8000e+000 91652 -3.4092e+000 -2.5645e+001  1.6216e+001 41773 91698,91450,91554
 3.8000e+000 91629 -1.5874e+001 -3.2163e+001  2.0307e+001 41773 91450,91580,91554
 3.8000e+000 91606 -7.4394e+000 -2.7697e+001  8.6591e+000 41773 91502,91554,91528
 3.8000e+000 91724 -1.1353e+001 -3.1932e+001  6.6792e+000 41773 91502,91476,91698
 3.8000e+000 91747 -7.6560e+000 -2.4561e+001  1.0034e+001 41773 91502,91698,91554
 3.8000e+000 92127 -1.4494e+001 -1.5390e+001 -5.3920e+000 41255 92150,91905,91879
 3.8000e+000 92104  2.5807e+000 -1.3826e+001 -1.2288e+001 41255 92150,91879,91957
 3.8000e+000 92081  2.2093e+001 -3.7332e+001  9.0599e+000 41255 91853,91957,91879
 3.8000e+000 92058  2.0992e+001 -3.9047e+001  4.6121e+000 41255 91853,91983,91957
 3.8000e+000 92035 -4.6340e+000  4.2107e+000 -8.2886e+000 41255 91853,92009,91983
 3.8000e+000 92176  7.6357e-001 -1.9898e+001 -1.2364e+001 41255 91931,91905,92150
 3.8000e+000 92199  2.6284e+001 -8.1750e+000 -2.2254e+001 41255 91931,92150,91957
 3.8000e+000 92518 -3.2595e-001 -3.7489e+001 -2.7109e+000 41007 92244,92374,92270
 3.8000e+000 92495 -1.3596e+001 -2.6853e+001 -8.5000e+000 41007 92244,92400,92374
 3.8000e+000 92472 -3.3455e+000 -2.7522e+001  3.0768e+000 41007 92270,92374,92348
 3.8000e+000 92449 -6.4809e-001 -6.3666e-001  1.0454e+000 41007 92296,92348,92322
 3.8000e+000 92426 -7.8788e-002 -4.0850e-001 -4.4362e-001 41007 92270,92348,92296
 3.8000e+000 92668 -1.2933e+001 -2.5482e+001 -7.5118e+000 40717 92823,92691,92567
 3.8000e+000 92645 -9.6733e+000 -2.6203e+001 -6.6971e+000 40717 92895,92823,92567
 3.8000e+000 92717 -5.9271e+000 -2.2040e+001 -3.6002e+000 40717 92593,92567,92691
 3.8000e+000 92849 -1.4851e+001 -2.8360e+001 -6.6556e+000 40717 92619,92691,92823
 3.8000e+000 92872 -1.5119e+001 -2.7139e+001 -5.1668e+000 40717 92619,92823,92541
 3.8000e+000 92921 -1.9431e+001 -3.3079e+001 -2.7908e+000 40717 92541,92823,92895
 3.8000e+000 93634 -2.4258e+001 -6.1794e+001  2.2682e+000 40206 93366,93444,93418
 3.8000e+000 93611 -1.7815e+001 -3.2881e+001  1.8350e+000 40206 93288,93444,93366
 3.8000e+000 93588 -3.1834e+001 -5.4201e+001  7.8900e+000 40206 93288,93366,93314
 3.8000e+000 93565 -1.6957e+001 -3.2548e+001  1.8360e+000 40206 93262,93444,93288
 3.8000e+000 93542 -2.1852e+000 -6.4312e+001 -1.4273e+000 40206 93366,93418,93392
 3.8000e+000 93519 -1.7716e+001 -3.9887e+001  3.1368e+000 40206 93262,93470,93444
 3.8000e+000 93496 -2.2583e+001 -5.0399e+001  1.0333e+001 40206 93314,93366,93340
 3.8000e+000 94189 -6.3134e+000 -1.4681e+001  4.0651e+000 39802 93843,93999,93973
 3.8000e+000 94166  1.4580e+001 -4.2141e+000 -1.4531e-001 39802 93817,93999,93843
 3.8000e+000 94143 -5.5012e+000 -8.3855e+000 -1.6028e+000 39802 93869,93973,93947
 3.8000e+000 94120  2.3522e+000 -6.5583e+000  5.4718e-001 39802 93843,93973,93869
 3.8000e+000 94097 -2.8028e+000 -1.2150e+001 -6.3151e-001 39802 93869,93921,93895
 3.8000e+000 94074 -2.4049e+000 -1.2249e+001 -2.0924e+000 39802 93869,93947,93921
 3.8000e+000 94051 -1.9305e+001 -1.6055e+001  1.2837e+001 39802 93817,94025,93999
 3.8000e+000 94290 -1.1051e+001 -2.1415e+001 -7.8535e+000 39398 94212,94264,94238
 3.8000e+000 94798 -1.4488e+001 -3.4598e+001 -2.0673e+000 38701 94501,94657,94631
 3.8000e+000 94775 -1.2975e+001 -2.8356e+001  1.6903e+000 38701 94475,94657,94501
 3.8000e+000 94752 -1.3714e+001 -3.8192e+001  4.6381e+000 38701 94579,94631,94605
 3.8000e+000 94729 -2.5954e+001 -4.7844e+001 -5.5040e+000 38701 94553,94631,94579
 3.8000e+000 94706 -2.4455e+001 -4.5000e+001  2.0180e+000 38701 94501,94631,94553
 3.8000e+000 94683 -1.9464e+001 -7.0195e+001  8.3060e-001 38701 94501,94553,94527
 3.8000e+000 95255 -1.9458e+001 -4.3803e+001  1.7875e+000 38247 95278,95085,95007
 3.8000e+000 95232 -1.7630e+001 -4.3185e+001  1.6769e+000 38247 95278,95007,95137
 3.8000e+000 95209 -1.0349e+001 -4.2879e+001  6.7562e+000 38247 94981,95137,95007
 3.8000e+000 95186 -1.7215e+001 -3.7514e+001  8.5575e-001 38247 95007,95059,95033
 3.8000e+000 95163 -1.4212e+001 -3.2303e+001 -3.0824e+000 38247 95007,95085,95059
 3.8000e+000 95304 -2.0088e+001 -4.3817e+001  3.4174e+000 38247 95111,95085,95278
 3.8000e+000 95327 -1.8473e+001 -4.3063e+001  3.1169e+000 38247 95111,95278,95137
 3.8000e+000 95575 -1.3060e+001 -4.5081e+000 -1.3833e+000 37564 95376,95428,95402
 3.8000e+000 95552 -1.1714e+001 -6.7158e+000 -1.7679e+000 37564 95376,95454,95428
 3.8000e+000 95529 -8.1492e+000 -4.3567e+000 -2.4611e-001 37564 95376,95480,95454
 3.8000e+000 95506 -1.0026e+001 -1.0785e+001 -2.2300e+000 37564 95350,95480,95376
 3.8000e+000 96034 -4.1075e+000 -2.6499e+001 -1.5051e+001 37224 95786,95838,95812
 3.8000e+000 96011  1.2382e+001 -5.5581e+000 -3.1842e-001 37224 95786,95890,95838
 3.8000e+000 95988 -4.5814e+000 -1.1847e+001  5.5866e+000 37224 95786,95916,95890
 3.8000e+000 95965  5.0548e+000  2.0277e+000 -9.7362e+000 37224 95760,95916,95786
 3.8000e+000 95942 -5.4159e-001 -1.5115e+001 -5.9353e+000 37224 95838,95890,95864
 3.8000e+000 96363 -4.8509e+000 -2.9771e+000 -1.6646e+000 36884 96216,96268,96242
 3.8000e+000 96340 -2.5560e-002 -2.4504e+000 -1.3477e+000 36884 96164,96268,96216
 3.8000e+000 96317  8.5970e-001 -5.2596e+000  1.7415e+000 36884 96138,96268,96164
 3.8000e+000 96294 -5.5620e+000 -1.2993e+001  2.4206e+000 36884 96164,96216,96190
 3.8000e+000 96839 -3.1443e+000 -2.4342e+001  8.6275e+000 36572 96862,96649,96597
 3.8000e+000 96816  3.9140e+000 -1.8594e+001  5.6309e+000 36572 97006,96862,96597
 3.8000e+000 96793  4.3060e+000 -4.1821e+000 -4.3329e-001 36572 96934,96467,96675
 3.8000e+000 96770  4.1149e+000 -1.7286e+001  4.3629e+000 36572 97006,96597,96571
 3.8000e+000 96747 -4.4219e-001 -1.7655e+001  3.4688e+000 36572 96467,96519,96493
 3.8000e+000 96724  4.7319e+000 -1.3097e+001  3.9080e+000 36572 96519,96571,96545
 3.8000e+000 96701 -2.1090e+000 -7.4523e+000  2.5450e+000 36572 96597,96649,96623
 3.8000e+000 96888  4.2058e+000 -2.4398e+001  3.8060e-001 36572 96675,96649,96862
 3.8000e+000 96911  7.4954e+000 -1.5822e+001 -1.2944e+000 36572 96934,96675,96862
 3.8000e+000 96960  3.3401e-001 -1.4884e+001  1.9275e+000 36572 96519,96467,96934
 3.8000e+000 96983  5.2257e+000 -2.3210e+001  2.5173e+000 36572 97078,96934,96862
 3.8000e+000 97032  3.3693e+000 -2.2025e+001  5.2759e+000 36572 97078,96862,97006
 3.8000e+000 97055  3.5549e+000 -1.8740e+001  4.2768e+000 36572 96519,97006,96571
 3.8000e+000 97104  6.9646e+000 -1.9335e+001  1.9415e+000 36572 96519,96934,97078
 3.8000e+000 97127  5.7488e+000 -1.7919e+001  4.3086e+000 36572 96519,97078,97006
 3.8000e+000 97761  3.9988e+000 -1.1868e+001  3.9555e-001 36118 97784,97493,97415
 3.8000e+000 97738  3.0610e+000 -1.4558e+001  2.3267e+000 36118 97784,97415,97597
 3.8000e+000 97715 -7.6122e-001 -1.6546e+001  1.5696e+000 36118 97389,97597,97415
 3.8000e+000 97692 -6.8223e+000 -2.5613e+001  5.6493e+000 36118 97415,97467,97441
 3.8000e+000 97669 -5.4969e+000 -2.1706e+001  5.4924e+000 36118 97415,97493,97467
 3.8000e+000 97646 -3.8031e+000 -7.7528e+000 -1.1461e+000 36118 97493,97571,97519
 3.8000e+000 97623 -2.8647e+000 -1.2119e+001  2.2425e+000 36118 97519,97571,97545
 3.8000e+000 97810  2.8690e+000 -7.5885e+000 -1.3523e+000 36118 97571,97493,97784
 3.8000e+000 97833 -4.3195e-001 -1.1088e+001  1.4302e+000 36118 97571,97784,97597
 3.8000e+000 98081  5.4401e+000  1.0625e+001 -5.7156e+000 35564 98104,97908,97856
 3.8000e+000 98058  6.6090e+000  6.1206e+000 -7.1480e+000 35564 98104,97856,97986
 3.8000e+000 98035  2.5583e+001  1.7193e+001  5.0099e+000 35564 97934,97986,97960
 3.8000e+000 98012  3.5335e+000  4.4820e+000 -1.7543e+000 35564 97856,97908,97882
 3.8000e+000 98130  1.0214e+001  2.4366e+001 -2.9949e+000 35564 97934,97908,98104
 3.8000e+000 98153  4.7079e+000  1.0511e+001 -5.4744e+000 35564 97934,98104,97986
 3.8000e+000 98374  5.9009e+000  2.0277e+001 -3.5301e+000 35152 98224,98302,98276
 3.8000e+000 98351  1.8907e+000  9.5457e+000 -1.0314e+000 35152 98198,98302,98224
 3.8000e+000 98328  2.1829e+001  2.7717e+001 -7.3317e+000 35152 98224,98276,98250
 3.8000e+000 98884 -2.1010e+000 -2.4062e+001 -5.3679e+000 34698 98691,98743,98717
 3.8000e+000 98861 -4.1236e+000 -2.7767e+001 -7.9401e+000 34698 98561,98743,98691
 3.8000e+000 98838 -7.2078e+000 -2.4858e+001 -7.7700e+000 34698 98907,98587,98561
 3.8000e+000 98815 -7.7581e+000 -2.5726e+001 -7.2566e+000 34698 98907,98561,98691
 3.8000e+000 98792 -1.2812e+001 -2.7077e+001 -4.5121e+000 34698 98587,98639,98613
 3.8000e+000 98769 -1.0065e+001 -2.4030e+001 -6.9729e+000 34698 98587,98665,98639
 3.8000e+000 98933 -7.4753e+000 -2.5355e+001 -6.9284e+000 34698 98665,98587,98907
 3.8000e+000 98956 -8.3250e+000 -2.6722e+001 -6.3670e+000 34698 98665,98907,98691
 3.8000e+000 99204  2.7154e+000 -2.9783e+001 -1.1366e+000 34144 99227,99031,99005
 3.8000e+000 99181 -5.8132e+000 -2.9991e+001 -3.7185e+000 34144 99299,99227,99005
 3.8000e+000 99158 -6.5932e+000 -3.0317e+001 -3.7446e+000 34144 99299,99005,99109
 3.8000e+000 99135 -3.5095e+000 -2.6335e+001 -2.1843e+000 34144 98979,99109,99005
 3.8000e+000 99253 -3.0631e+000 -3.3287e+001 -5.0127e+000 34144 99057,99031,99227
 3.8000e+000 99276 -7.5206e+000 -2.9889e+001 -6.7719e+000 34144 99057,99227,99083
 3.8000e+000 99325 -4.7589e+000 -2.9789e+001 -6.2534e+000 34144 99083,99227,99299
 3.8000e+000 99348 -7.9569e+000 -3.1170e+001 -6.4237e+000 34144 99083,99299,99109
 3.8000e+000 99498 -6.1175e+000 -1.0650e+001  7.8352e+000 33433 99397,99449,99423
 3.8000e+000 99475 -1.3276e+001  1.1133e+000  1.2472e+000 33433 99371,99449,99397
 3.8000e+000 100008 -2.7779e+001 -2.0897e+001  6.8716e+000 32979 100103,100031,99815
 3.8000e+000 99985 -1.2327e+001 -1.9964e+001 -3.9266e+000 32979 100175,100031,99763
 3.8000e+000 99962 -3.5466e+001 -2.2658e+001  7.1296e+000 32979 100103,99815,99789
 3.8000e+000 99939 -1.4128e+001 -2.4502e+001 -3.5295e+000 32979 100175,99763,99737
 3.8000e+000 99916 -1.1922e+001 -1.0997e+001 -1.9012e+000 32979 99685,99867,99737
 3.8000e+000 99893 -1.5436e+001 -3.0040e+001 -5.0054e+000 32979 99685,99737,99711
 3.8000e+000 100057 -7.3591e+000 -1.3277e+001  9.0724e+000 32979 99841,99815,100031
 3.8000e+000 100080 -1.0509e+001 -6.0873e+000 -4.9603e+000 32979 99841,100031,99867
 3.8000e+000 100129 -9.3116e+000 -2.6816e+001  2.3449e-001 32979 99763,100031,100103
 3.8000e+000 100152 -2.4138e+001 -3.2738e+001 -1.6057e+000 32979 99763,100103,99789
 3.8000e+000 100201 -1.4321e+001 -1.8271e+001 -1.6214e+000 32979 99867,100031,100175
 3.8000e+000 100224 -1.4939e+001 -2.0271e+001 -1.9844e+000 32979 99867,100175,99737
 3.8000e+000 100553  2.8555e+000  7.2157e+000 -2.6144e+000 32503 100354,100406,100380
 3.8000e+000 100530  1.5897e+001 -8.9595e+000  1.4401e+001 32503 100328,100406,100354
 3.8000e+000 100507  1.4988e+001 -1.1256e+001  1.4401e+001 32503 100328,100458,100406
 3.8000e+000 100484  4.3068e+000 -2.1350e+001  9.7707e+000 32503 100406,100458,100432
 3.8000e+000 100850  4.3202e+000 -3.2585e+001 -1.0715e-001 31899 100873,100654,100628
 3.8000e+000 100827  1.2160e+001 -3.1072e+001 -7.2934e-001 31899 100945,100873,100628
 3.8000e+000 100804  1.8861e+001 -2.8229e+001  2.0781e+000 31899 100945,100628,100602
 3.8000e+000 100781 -2.5963e-001 -1.5791e+001  6.2030e+000 31899 100576,100732,100602
 3.8000e+000 100758 -1.3364e+001 -2.7808e+001 -2.4126e+001 31899 100654,100706,100680
 3.8000e+000 100899  5.9250e+000 -3.4702e+001 -3.0649e-001 31899 100706,100654,100873
 3.8000e+000 100922 -6.1987e+000 -3.2677e+001 -8.3162e+000 31899 100706,100873,100732
 3.8000e+000 100971 -2.0972e+000 -2.3850e+001 -3.2545e+000 31899 100732,100873,100945
 3.8000e+000 100994  5.8576e+000 -1.9756e+001 -9.9853e-002 31899 100732,100945,100602
 3.8000e+000 101551 -3.2192e+000 -1.4191e+001 -9.2139e-001 31338 101205,101387,101231
 3.8000e+000 101528  2.4817e-001 -1.4484e+001 -1.6498e+000 31338 101179,101387,101205
 3.8000e+000 101505 -6.5480e+000 -1.7125e+001  5.5017e+000 31338 101574,101309,101257
 3.8000e+000 101482 -3.8166e+000 -1.8566e+001  5.2444e+000 31338 101646,101574,101257
 3.8000e+000 101459 -1.9293e-001 -1.0228e+001  6.0494e+000 31338 101646,101257,101231
 3.8000e+000 101436 -8.3064e+000 -2.8687e+001  3.2504e+000 31338 101309,101361,101335
 3.8000e+000 101413  2.8161e-001 -1.7055e+001  9.3612e+000 31338 101257,101309,101283
 3.8000e+000 101600 -4.4126e+000 -1.9165e+001  4.1377e+000 31338 101361,101309,101574
 3.8000e+000 101623 -8.7996e+000 -2.8328e+001 -3.0425e+000 31338 101361,101574,101387
 3.8000e+000 101672 -4.1797e+000 -1.4644e+001 -5.5046e-001 31338 101387,101574,101646
 3.8000e+000 101695 -3.3609e+000 -1.2300e+001 -3.8430e-001 31338 101387,101646,101231
 3.8000e+000 101943 -7.0678e+000 -3.0650e+001 -8.8357e-001 30748 101966,101796,101744
 3.8000e+000 101920 -3.8476e+000 -3.3472e+001 -1.1583e+000 30748 101966,101744,101718
 3.8000e+000 101897 -1.1946e+001 -3.8500e+001  4.0925e+000 30748 101718,101848,101822
 3.8000e+000 101874 -1.2872e+001 -3.1138e+001 -2.4707e+000 30748 101744,101796,101770
 3.8000e+000 101992 -8.2646e+000 -3.2301e+001 -3.6003e-001 30748 101822,101796,101966
 3.8000e+000 102015 -5.9522e+000 -3.5908e+001 -2.5884e-001 30748 101822,101966,101718
 3.8000e+000 102493 -3.3082e+000 -1.9854e+001 -2.8170e+000 30344 102516,102173,102147
 3.8000e+000 102470  2.2516e-001 -9.7710e+000 -2.7456e+000 30344 102660,102516,102147
 3.8000e+000 102447  6.8102e+000 -2.0841e+001 -9.1714e+000 30344 102588,102199,102173
 3.8000e+000 102424 -2.9549e+000 -7.1651e+000 -3.0715e+000 30344 102660,102147,102329
 3.8000e+000 102401  9.0869e+000 -2.2910e+001 -1.8895e+001 30344 102199,102277,102251
 3.8000e+000 102378  1.1527e+001 -3.8700e+000 -3.2045e+001 30344 102199,102251,102225
 3.8000e+000 102355  1.6951e+000 -4.6600e+000  3.7195e-001 30344 102121,102329,102147
 3.8000e+000 102542  1.9850e+000 -1.7212e+001 -1.0023e+001 30344 102588,102173,102516
 3.8000e+000 102565 -2.1120e+000 -8.2152e+000 -1.2660e+001 30344 102277,102516,102303
 3.8000e+000 102614  2.0285e+000 -2.2400e+001 -1.0251e+001 30344 102277,102199,102588
 3.8000e+000 102637 -4.6491e+000 -2.1361e+001 -1.2356e+001 30344 102277,102588,102516
 3.8000e+000 102686 -3.0520e+000 -1.2949e+001 -4.1513e+000 30344 102303,102516,102660
 3.8000e+000 102709 -5.4335e+000 -9.7972e+000 -4.3146e+000 30344 102303,102660,102329
 3.8000e+000 103294  1.2570e+001 -3.2639e+001  5.7469e+000 29726 103317,103101,103075
 3.8000e+000 103271  2.2985e+001 -3.8975e+000  9.9787e+000 29726 103317,103075,102997
 3.8000e+000 103248  1.4565e+000  3.5733e+000  5.1381e-001 29726 102971,103153,102997
 3.8000e+000 103225  6.9004e+000 -1.1327e+001 -9.5032e-002 29726 103101,103153,103127
 3.8000e+000 103202  1.2276e+001 -4.4045e+001  1.0188e+001 29726 102997,103075,103023
 3.8000e+000 103179 -5.7354e+000 -2.6845e+001 -1.0016e+001 29726 103023,103075,103049
 3.8000e+000 103343  8.3515e+000 -7.2261e+000  1.6457e+000 29726 103153,103101,103317
 3.8000e+000 103366  9.3349e+000  8.0558e+000  2.8369e+000 29726 103153,103317,102997
 3.8000e+000 103614  7.9470e+000  1.5621e-001  3.8327e-001 29200 103781,103637,103467
 3.8000e+000 103591  4.3500e+000  1.5583e+000  2.3945e+000 29200 103709,103637,103415
 3.8000e+000 103568  4.0336e+000 -3.7654e+000  3.1291e+000 29200 103709,103415,103389
 3.8000e+000 103545  7.9378e+000  3.5753e-001  2.1871e-001 29200 103781,103467,103441
 3.8000e+000 103663  8.4384e+000 -1.6624e+000  2.9211e+000 29200 103853,103637,103493
 3.8000e+000 103686  8.8632e+000  6.5792e+000  3.7973e+000 29200 103493,103637,103519
 3.8000e+000 103735  3.9943e+000 -4.0443e+000  5.1639e+000 29200 103519,103637,103709
 3.8000e+000 103758  4.8617e+000 -7.8499e+000  5.8555e+000 29200 103519,103709,103389
 3.8000e+000 103807  7.9465e+000 -3.2813e-001  6.0943e-001 29200 103415,103637,103781
 3.8000e+000 103830  8.1331e+000 -1.0742e-001  3.6490e-001 29200 103415,103781,103441
 3.8000e+000 103879  9.4213e+000  9.7456e-001 -2.2292e-001 29200 103467,103637,103853
 3.8000e+000 104545 -8.3585e+000 -1.4813e+001  2.6479e+000 28860 104274,104352,104326
 3.8000e+000 104522 -2.7018e+001 -1.4176e+001  5.5929e+000 28860 104248,104352,104274
 3.8000e+000 104499 -1.4214e+001 -6.6074e+000  1.5204e+000 28860 104248,104404,104352
 3.8000e+000 104476 -2.2777e+001  3.3488e+000  3.6023e+000 28860 104222,104404,104248
 3.8000e+000 104453 -2.1874e+001  3.2810e+000  9.5445e+000 28860 104352,104404,104378
 3.8000e+000 104430 -1.2335e+001 -1.4253e+001  8.5855e-001 28860 104274,104326,104300
 3.8000e+000 104744 -9.6139e-001 -2.9573e+001 -7.7757e+000 28456 104839,104767,104646
 3.8000e+000 104721 -8.5951e+000 -3.3882e+001 -2.9060e+000 28456 104767,104594,104568
 3.8000e+000 104698 -3.8238e+000 -2.1015e+001 -1.4793e+000 28456 104839,104646,104620
 3.8000e+000 104793 -1.1080e+001 -3.3498e+001 -7.2127e+000 28456 104672,104646,104767
 3.8000e+000 104816 -9.5797e+000 -3.4988e+001 -1.0488e+000 28456 104911,104767,104568
 3.8000e+000 104865 -5.9385e+000 -2.7934e+001 -1.1978e+000 28456 104594,104767,104839
 3.8000e+000 104888  9.7853e-001  1.1740e-001 -1.8088e+000 28456 105041,104839,104620
 3.8000e+000 104937 -5.4267e+000 -3.1273e+001 -3.7577e+000 28456 104672,104767,104911
 3.8000e+000 105067 -2.7100e+000 -2.6422e+001 -1.6778e+000 28456 104594,104839,105041
 3.8000e+000 105573 -9.3113e+000 -3.2268e+001 -2.3940e+000 28094 105812,105596,105328
 3.8000e+000 105550 -9.4936e+000 -2.9872e+001  2.3642e+000 28094 105596,105276,105250
 3.8000e+000 105527 -7.0258e+000 -4.0873e+001 -2.6446e+000 28094 105740,105668,105432
 3.8000e+000 105504 -1.0734e+001 -4.6083e+001 -5.7944e-001 28094 105740,105432,105380
 3.8000e+000 105481 -7.1773e+000 -3.3693e+001 -1.2609e+000 28094 105812,105328,105302
 3.8000e+000 105458 -1.4283e+001 -5.1781e+001  1.3865e+000 28094 105380,105432,105406
 3.8000e+000 105622 -1.1877e+000 -2.0470e+001 -5.9337e+000 28094 105354,105328,105596
 3.8000e+000 105645 -4.6888e+000 -2.3263e+001  3.8386e+000 28094 105668,105354,105596
 3.8000e+000 105694 -3.0502e+000 -3.0332e+001 -2.5748e+000 28094 105250,105432,105668
 3.8000e+000 105717 -9.5161e+000 -3.7316e+001  2.0500e+000 28094 105250,105668,105596
 3.8000e+000 105766 -1.2333e+001 -3.7524e+001  7.9202e+000 28094 105354,105668,105740
 3.8000e+000 105789 -1.7172e+001 -4.6556e+001  1.0285e+001 28094 105354,105740,105380
 3.8000e+000 105838 -6.3422e+000 -3.1734e+001 -1.3932e+000 28094 105276,105596,105812
 3.8000e+000 105861  4.5951e+000 -2.8491e+001 -1.7616e-001 28094 105276,105812,105302
 3.8000e+000 106367 -2.9317e+000 -3.2411e+001 -5.4388e+000 27390 106070,106122,106096
 3.8000e+000 106344  1.1326e+001 -3.6221e+001 -9.8202e+000 27390 106070,106226,106122
 3.8000e+000 106321  2.0591e+001 -2.8862e+001 -9.3802e+000 27390 106174,106226,106200
 3.8000e+000 106298  1.3580e+001 -3.7301e+001 -6.3656e+000 27390 106122,106226,106174
 3.8000e+000 106275  1.5865e+001 -3.5591e+001 -1.0442e-001 27390 106122,106174,106148
 3.8000e+000 106252 -1.2516e+001 -4.6273e+001 -9.6054e+000 27390 106044,106226,106070
 3.8000e+000 106615  1.1235e+001 -1.8135e+001 -1.3936e-001 26978 106638,106494,106416
 3.8000e+000 106592  1.0575e+001 -1.9350e+001 -5.3863e-001 26978 106638,106416,106390
 3.8000e+000 106569  9.8115e+000 -1.8160e+001  1.3166e+000 26978 106416,106494,106442
 3.8000e+000 106546  1.2466e+001 -1.8498e+001  6.5842e-001 26978 106442,106494,106468
 3.8000e+000 106664  1.3452e+001 -1.9611e+001  4.2878e-001 26978 106520,106494,106638
 3.8000e+000 106687  1.1905e+001 -2.1385e+001 -4.3212e-001 26978 106520,106638,106390
 3.8000e+000 106837  1.2194e-001 -1.0605e+002 -1.3070e-001 26524 106710,106762,106736
 3.8000e+000 106814  8.0331e-001 -8.9397e+001 -3.3189e-001 26524 106710,106788,106762
 3.8000e+000 107426 -2.1686e+001 -2.7821e+001  5.8824e+000 26120 107129,107207,107155
 3.8000e+000 107403 -1.4354e+001 -1.2907e+001  2.6747e+000 26120 107129,107285,107207
 3.8000e+000 107380 -2.0660e+001 -2.2772e+001 -1.1581e+000 26120 107207,107285,107259
 3.8000e+000 107357 -1.1341e+001 -2.2637e+001  3.9677e+000 26120 107155,107207,107181
 3.8000e+000 107334 -2.5871e+001 -2.0348e+001 -2.7109e+000 26120 107103,107285,107129
 3.8000e+000 107311 -1.9777e+001 -1.6645e+001  8.4488e-001 26120 107207,107259,107233
 3.8000e+000 107755 -1.0837e+001 -2.6216e+001  7.7573e-001 25758 107556,107634,107608
 3.8000e+000 107732 -1.9281e+000 -1.5241e+001 -3.2348e+000 25758 107556,107660,107634
 3.8000e+000 107709 -1.4890e+001 -2.5809e+001 -2.8163e+000 25758 107556,107608,107582
 3.8000e+000 107686 -9.5546e-001 -2.0267e+000  7.6580e-001 25758 107530,107660,107556
 3.8000e+000 108438 -1.0843e+001 -4.0194e+001  1.2599e+000 25468 108121,108199,108173
 3.8000e+000 108415  1.3665e+000 -1.0547e+001  1.8083e+000 25468 108095,108199,108121
 3.8000e+000 108392  2.2267e+000 -1.7830e+001  1.8216e+000 25468 108095,108251,108199
 3.8000e+000 108369 -1.3776e+000 -2.2036e+001  3.7512e+000 25468 108069,108251,108095
 3.8000e+000 108346 -4.1311e+000 -1.9509e+001 -3.1280e+000 25468 108199,108251,108225
 3.8000e+000 108323  4.3844e+000 -1.9772e+001  7.0762e+000 25468 108017,108251,108069
 3.8000e+000 108300 -8.7719e+000 -3.0162e+001  1.2547e+000 25468 108121,108173,108147
 3.8000e+000 108277  5.1298e-001 -1.5723e+001  1.1466e+001 25468 108017,108069,108043
 3.8000e+000 108588 -1.0690e+001 -2.8672e+001 -8.8767e+000 25064 108611,108513,108487
 3.8000e+000 108565 -1.3500e+001 -2.9542e+001 -9.0226e+000 25064 108683,108611,108487
 3.8000e+000 108637 -7.6921e+000 -2.5197e+001 -1.0321e+001 25064 108539,108513,108611
 3.8000e+000 108660 -1.5058e+001 -3.5157e+001 -1.6326e+001 25064 108539,108611,108461
 3.8000e+000 108709 -6.8263e+000 -1.6564e+001 -1.4882e+001 25064 108461,108611,108683
 3.8000e+000 109345 -2.7954e+001 -3.7883e+001  1.3200e+001 24410 108999,109155,109103
 3.8000e+000 109322 -1.2882e+001 -3.5733e+001  6.6454e+000 24410 108973,109155,108999
 3.8000e+000 109299 -1.5294e+001 -6.3605e+001  1.6345e+001 24410 109103,109155,109129
 3.8000e+000 109276 -1.6788e+001 -3.4864e+001  6.3894e+000 24410 108973,109181,109155
 3.8000e+000 109253 -2.2946e+001 -4.7308e+001  9.2587e+000 24410 109025,109103,109077
 3.8000e+000 109230 -3.4961e+001 -4.7250e+001  1.6738e+001 24410 108999,109103,109025
 3.8000e+000 109207 -1.8725e+001 -4.3959e+001  7.7805e+000 24410 109025,109077,109051
 3.8000e+000 109723 -1.4376e+001 -3.8319e+001  3.1968e+000 23856 109475,109579,109553
 3.8000e+000 109700 -1.8422e+001 -3.8639e+001  5.5124e+000 23856 109475,109605,109579
 3.8000e+000 109677 -1.3142e+001 -3.7352e+001  7.3602e+000 23856 109475,109553,109527
 3.8000e+000 109654 -2.1076e+001 -3.9754e+001  3.7623e+000 23856 109449,109605,109475
 3.8000e+000 109631  7.5041e-001 -3.2237e+001  9.5063e+000 23856 109475,109527,109501
 3.8000e+000 110101 -4.2885e+000 -3.0344e+001 -1.0299e+001 23566 109853,109931,109879
 3.8000e+000 110078  1.3849e+000 -2.5902e+001 -7.7234e+000 23566 109827,109931,109853
 3.8000e+000 110055 -1.6519e+001 -3.6954e+001 -1.8623e+000 23566 109827,109983,109931
 3.8000e+000 110032 -7.5809e+000 -2.5167e+001 -5.3415e+000 23566 109879,109931,109905
 3.8000e+000 110009 -5.9998e+000 -2.1263e+001  7.1881e+000 23566 109931,109983,109957
 3.8000e+000 110735  1.2542e+001  1.3985e+001 -3.3673e+000 23162 110415,110571,110519
 3.8000e+000 110712  7.6552e+000  3.9935e+000 -5.7114e+000 23162 110389,110571,110415
 3.8000e+000 110689  1.3017e+001  1.3303e+001 -6.7448e+000 23162 110415,110519,110493
 3.8000e+000 110666  6.9564e+000  1.0300e+001  4.8086e+000 23162 110363,110571,110389
 3.8000e+000 110643  1.2255e+001  2.2190e+001 -6.3080e-001 23162 110441,110493,110467
 3.8000e+000 110620  1.0196e+001  1.6727e+001 -7.9377e+000 23162 110415,110493,110441
 3.8000e+000 110597  1.8449e+001  1.5902e+001 -6.4473e+000 23162 110519,110571,110545
 3.8000e+000 111211 -1.1252e+001 -3.6679e+001 -3.9577e+000 22708 111378,111306,111021
 3.8000e+000 111188  1.0157e-001 -3.7282e+001 -2.9534e-001 22708 111234,110969,110917
 3.8000e+000 111165 -6.6811e+000 -3.5379e+001 -1.0114e+000 22708 111450,111234,110917
 3.8000e+000 111142 -1.2174e+001 -3.4603e+001 -1.0061e+001 22708 111378,111021,110995
 3.8000e+000 111119 -7.3232e+000 -3.4237e+001 -3.6963e+000 22708 111450,110917,110865
 3.8000e+000 111096  1.1708e+001 -4.5070e+001  5.0582e+000 22708 110917,110969,110943
 3.8000e+000 111073 -1.0497e+000 -6.0386e+001 -1.7563e+001 22708 110865,110917,110891
 3.8000e+000 111260  2.6890e+000 -3.5274e+001 -2.2969e+000 22708 111306,110969,111234
 3.8000e+000 111283 -2.4945e+000 -2.9981e+001 -1.8518e+000 22708 111047,111234,110839
 3.8000e+000 111332 -8.8805e-001 -4.5697e+001  3.5002e+000 22708 111047,111021,111306
 3.8000e+000 111355 -4.4914e+000 -3.8006e+001 -4.1609e+000 22708 111047,111306,111234
 3.8000e+000 111404  1.1430e+000 -3.3338e+001 -7.2594e+000 22708 110969,111306,111378
 3.8000e+000 111427 -2.1627e+000 -3.1353e+001 -9.9171e+000 22708 110969,111378,110995
 3.8000e+000 111476 -3.0292e+000 -3.3302e+001 -1.8730e+000 22708 110839,111234,111450
 3.8000e+000 111499 -2.6562e+000 -3.1524e+001 -4.8058e+000 22708 110839,111450,110865
 3.8000e+000 111600  1.0721e+001 -3.4176e+000  4.3023e+000 22460 111522,111574,111548
 3.8000e+000 112059  2.1103e+001  9.0210e+000 -3.7564e+000 22056 111811,111889,111863
 3.8000e+000 112036  2.9840e+001  9.1281e+000 -4.4073e+000 22056 111811,111915,111889
 3.8000e+000 112013  2.1999e+001  5.1258e+000 -5.7898e+000 22056 111785,111915,111811
 3.8000e+000 111990  1.8357e+001  1.5281e+001 -1.6843e+001 22056 111785,111941,111915
 3.8000e+000 111967  1.9103e+001  1.1657e+001 -2.2218e+000 22056 111811,111863,111837
 3.8000e+000 112486  2.9743e+001  6.1769e+000 -5.1905e+000 21594 112509,112267,112215
 3.8000e+000 112463  9.2708e+000 -3.4724e+000  2.2931e-001 21594 112509,112215,112163
 3.8000e+000 112440  2.0405e+001  1.0580e+001 -2.1332e+001 21594 112581,112293,112267
 3.8000e+000 112417  1.3415e+001 -1.0389e+001  1.4841e+000 21594 112215,112267,112241
 3.8000e+000 112394  1.6061e+001  5.4450e+000 -1.6418e+000 21594 112163,112345,112319
 3.8000e+000 112371  1.0595e+001  5.5391e+000 -1.3735e+000 21594 112163,112215,112189
 3.8000e+000 112535  3.0876e+001  3.4040e+000 -1.2282e+001 21594 112581,112267,112509
 3.8000e+000 112558  2.0059e+001  1.1323e+001 -4.6598e+000 21594 112319,112509,112163
 3.8000e+000 112607 -1.7816e+000  3.3402e+000 -2.2850e+001 21594 112319,112293,112581
 3.8000e+000 112630  1.1690e+001 -3.4159e-002 -1.1053e+001 21594 112319,112581,112509
 3.8000e+000 112900 -9.5043e+000 -3.4971e+001 -9.8445e-001 20974 112675,112779,112701
 3.8000e+000 112877 -4.7207e+000 -3.5439e+001 -3.9876e-001 20974 112675,112805,112779
 3.8000e+000 112854 -1.4076e+000 -2.7273e+001  2.1694e+000 20974 112701,112779,112753
 3.8000e+000 112831 -3.6813e+000 -1.3454e+001 -6.7082e+000 20974 112701,112753,112727
 3.8000e+000 113359  3.9238e+000 -2.7201e+001 -3.0261e+000 20520 113454,113137,113111
 3.8000e+000 113336  1.0909e+001 -3.1654e+001 -6.6955e+000 20520 113454,113111,113085
 3.8000e+000 113313  9.4831e+000 -3.2493e+000  1.3356e+001 20520 113382,113163,113137
 3.8000e+000 113290  2.7380e+000 -3.3784e+001 -7.3031e-001 20520 113526,113382,113137
 3.8000e+000 113267 -8.0661e+000 -6.2045e+001  5.8564e-001 20520 113189,113241,113215
 3.8000e+000 113408 -4.6320e+000 -3.4785e+001  9.4787e+000 20520 113189,113163,113382
 3.8000e+000 113431 -8.8665e-001 -4.1239e+001 -5.8762e+000 20520 113189,113382,113241
 3.8000e+000 113480  2.0463e+000 -3.2337e+001 -1.1990e+000 20520 113526,113137,113454
 3.8000e+000 113503  6.3093e+000 -3.7725e+001 -4.3277e+000 20520 113241,113454,113085
 3.8000e+000 113552  4.1237e+000 -3.1759e+001 -1.5153e+000 20520 113241,113382,113526
 3.8000e+000 113575  3.4096e+000 -3.0603e+001 -2.0367e+000 20520 113241,113526,113454
 3.8000e+000 113904 -9.8082e+000 -3.9465e+001  3.6342e-001 19858 113705,113783,113757
 3.8000e+000 113881 -8.6896e+000 -3.5187e+001 -2.9846e-001 19858 113705,113809,113783
 3.8000e+000 113858 -4.6120e-001 -3.0328e+001 -5.3166e+000 19858 113679,113809,113705
 3.8000e+000 113835 -7.2501e+000 -3.0850e+001  4.0746e+000 19858 113705,113757,113731
 3.8000e+000 114152 -5.5194e+000 -4.5110e+000 -5.2957e+000 19454 114175,114005,113979
 3.8000e+000 114129 -5.4233e+000 -5.0952e+000 -5.3006e+000 19454 114175,113979,114057
 3.8000e+000 114106 -1.0482e+001 -1.5159e+001 -2.2554e+000 19454 113927,114057,113979
 3.8000e+000 114083 -7.0473e+000 -4.4071e+000 -2.3335e+000 19454 113927,113979,113953
 3.8000e+000 114201 -3.1221e+000 -3.7120e+000 -7.4527e-001 19454 114031,114005,114175
 3.8000e+000 114224 -5.2618e+000 -6.1625e+000 -5.0949e+000 19454 114031,114175,114057
 3.8000e+000 114472 -3.7446e+000 -4.9918e+001  7.3268e+000 19000 114495,114273,114247
 3.8000e+000 114449 -1.2003e+001 -4.8619e+001  1.9238e+000 19000 114495,114247,114325
 3.8000e+000 114426 -1.9692e+001 -4.7113e+001  9.4093e+000 19000 114247,114377,114325
 3.8000e+000 114403 -2.1186e+001 -4.5575e+001  2.7371e+000 19000 114325,114377,114351
 3.8000e+000 114521  1.9678e+001 -4.1198e+001  1.3301e+001 19000 114299,114273,114495
 3.8000e+000 114544 -6.0347e+000 -5.3612e+001  5.6109e+000 19000 114299,114495,114325
 3.8000e+000 114948 -8.6374e+000 -4.2372e+001 -2.0363e+000 18560 114674,114726,114700
 3.8000e+000 114925 -3.0176e+000 -3.0779e+001 -4.6136e+000 18560 114674,114830,114726
 3.8000e+000 114902 -4.2261e+000 -3.4137e+001 -7.2175e+000 18560 114726,114830,114804
 3.8000e+000 114879 -1.3482e+001 -7.2317e+001 -1.4391e+001 18560 114726,114804,114752
 3.8000e+000 114856  5.5776e+000 -1.0181e+002 -1.6812e+001 18560 114752,114804,114778
 3.8000e+000 115098 -1.8270e+001 -7.2459e+001 -1.4781e+000 18156 114971,115023,114997
 3.8000e+000 115075 -2.5277e+001 -3.4790e+001  6.2997e-001 18156 114971,115049,115023
 3.8000e+000 115248 -2.5526e+001 -7.9194e+001 -1.2398e+000 17602 115147,115199,115173
 3.8000e+000 115225 -4.9812e+000 -7.0710e+001  2.5679e+000 17602 115121,115199,115147
 3.8000e+000 115652  2.7217e+001 -3.9081e+001 -2.6409e+000 17354 115430,115534,115508
 3.8000e+000 115629  1.6134e+001 -5.5359e+001  2.4915e+000 17354 115404,115534,115430
 3.8000e+000 115606  3.4070e+001 -2.8363e+001  1.7802e+001 17354 115378,115534,115404
 3.8000e+000 115583  3.6424e+001 -5.0900e+001 -8.0122e+000 17354 115456,115508,115482
 3.8000e+000 115560  1.8000e+001 -6.2306e+001 -2.0008e+000 17354 115430,115508,115456
 3.8000e+000 115873 -1.0886e+001 -6.1967e+001 -2.1264e+000 16950 115749,115801,115775
 3.8000e+000 115850 -2.1383e+001 -5.7351e+001 -2.6139e-001 16950 115697,115801,115749
 3.8000e+000 115827 -2.0406e+001 -6.2411e+001  1.9284e+000 16950 115697,115749,115723
 3.8000e+000 116023 -2.0609e+001 -5.0583e+001 -5.2648e+000 16496 115922,115974,115948
 3.8000e+000 116000 -1.8724e+001 -4.0293e+001 -1.3081e+000 16496 115896,115974,115922
 3.8000e+000 116126  2.3022e+001 -1.7468e+001  1.4394e+000 16298 116048,116100,116074
 3.8000e+000 116278  1.2688e+001 -6.5584e+001 -1.4566e+000 15892 116151,116203,116177
 3.8000e+000 116255  3.5373e+000 -8.5462e+001  8.4151e-001 15892 116151,116229,116203
 3.8000e+000 116430  2.0740e+001 -1.6741e+000 -2.4212e-001 15545 116303,116355,116329
 3.8000e+000 116407  1.3264e+001 -2.1786e+001 -9.8263e+000 15545 116303,116381,116355
 3.8000e+000 116785  1.3383e+001 -1.9499e+001  1.0460e+001 421 116612,116690,116664
 3.8000e+000 116762  2.2075e+000 -4.5695e+001  6.5662e+000 421 116560,116690,116612
 3.8000e+000 116739 -1.3745e+001 -5.2509e+001  7.3012e+000 421 116560,116612,116586
 3.8000e+000 116716 -8.6158e+000 -5.3543e+001  1.9272e-001 421 116612,116664,116638
 3.9000e+000 68048 -2.3449e+001  3.9936e+000  1.0751e-001 67642 67898,67950,67924
 3.9000e+000 68025 -2.4815e+001 -2.2281e-001  2.4753e-001 67642 67898,67976,67950
 3.9000e+000 68002 -2.9644e+001  9.1708e-002 -6.1431e+000 67642 67872,67976,67898
 3.9000e+000 68367 -3.2826e+001 -3.8784e+001  8.8612e+000 67444 68119,68223,68197
 3.9000e+000 68344 -3.6946e+001 -5.5326e+001  9.0723e+000 67444 68119,68249,68223
 3.9000e+000 68321 -6.2698e+001 -5.7759e+001 -5.2879e+000 67444 68093,68249,68119
 3.9000e+000 68298 -3.5111e+001 -4.2238e+001  4.7587e+000 67444 68119,68197,68171
 3.9000e+000 68275 -1.6921e+001 -4.3774e+001  1.9998e+000 67444 68119,68171,68145
 3.9000e+000 68468 -2.3477e+001 -3.6835e+001  1.2191e+001 67268 68390,68442,68416
 3.9000e+000 68765 -3.9117e+001 -2.7017e+001  1.1931e+000 66956 68788,68517,68491
 3.9000e+000 68742 -4.7361e+001 -2.8952e+001 -7.5912e-001 66956 68788,68491,68621
 3.9000e+000 68719 -3.2112e+001 -3.0005e+001 -4.9426e-001 66956 68543,68621,68569
 3.9000e+000 68696 -5.4932e+001 -4.2673e+001  2.7806e+000 66956 68491,68647,68621
 3.9000e+000 68673 -5.2437e+001 -3.2688e+001 -3.9876e+000 66956 68569,68621,68595
 3.9000e+000 68814 -2.9576e+001 -2.9834e+001  1.8629e+000 66956 68543,68517,68788
 3.9000e+000 68837 -3.9845e+001 -3.3270e+001 -2.5244e-001 66956 68543,68788,68621
 3.9000e+000 69107 -2.9851e+001 -6.2243e+001  1.1974e-001 66758 68882,68986,68908
 3.9000e+000 69084 -4.4820e+000 -4.9959e+001  3.9181e+000 66758 68882,69012,68986
 3.9000e+000 69061 -2.1258e+001 -6.8040e+001  3.8229e-001 66758 68908,68960,68934
 3.9000e+000 69038 -3.3152e+001 -6.3068e+001  1.5968e+000 66758 68908,68986,68960
 3.9000e+000 69308 -2.4919e+001 -2.9547e+001 -2.4930e+000 66560 69331,69184,69158
 3.9000e+000 69285 -9.7839e+000 -3.2736e+001 -1.0625e+000 66560 69331,69158,69132
 3.9000e+000 69262 -4.1896e+001 -5.8373e+001 -2.0499e+000 66560 69184,69236,69210
 3.9000e+000 69357 -3.2133e+001 -3.0597e+001 -1.9035e+000 66560 69236,69184,69331
 3.9000e+000 69380 -2.4226e+001 -3.9075e+001  1.8013e+000 66560 69236,69331,69132
 3.9000e+000 69554 -2.9574e+001 -6.2450e+001  8.0950e+000 66270 69427,69479,69453
 3.9000e+000 69531 -1.1714e+001 -2.0691e+001  1.6322e+001 66270 69427,69505,69479
 3.9000e+000 69804 -2.4570e+001 -4.2172e+001  4.6549e+000 66066 69579,69683,69657
 3.9000e+000 69781 -2.8089e+001 -4.2594e+001 -6.2579e+000 66066 69579,69709,69683
 3.9000e+000 69758 -1.3669e+001 -2.9546e+001 -2.8194e-001 66066 69579,69657,69631
 3.9000e+000 69735 -1.1578e+001 -2.5209e+001  2.9142e+000 66066 69579,69631,69605
 3.9000e+000 70257 -3.2588e+001 -5.0001e+001  3.0248e-001 65776 69960,70090,69986
 3.9000e+000 70234 -3.2333e+001 -5.1546e+001  1.7105e+000 65776 69934,70090,69960
 3.9000e+000 70211 -3.8351e+001 -5.6592e+001 -1.4412e+000 65776 69934,70116,70090
 3.9000e+000 70188 -3.7005e+001 -5.4192e+001  0.0000e+000 65776 70038,70090,70064
 3.9000e+000 70165 -3.6057e+001 -5.5493e+001  1.8303e+000 65776 69986,70090,70038
 3.9000e+000 70142 -3.5313e+001 -5.9253e+001  1.0797e+000 65776 69986,70038,70012
 3.9000e+000 70456 -1.9780e+001 -3.6938e+001 -7.7543e+000 65372 70479,70306,70280
 3.9000e+000 70433 -2.9610e+001 -4.9776e+001 -2.7946e+000 65372 70479,70280,70384
 3.9000e+000 70410 -3.3718e+001 -4.6113e+001  5.3944e+000 65372 70551,70332,70306
 3.9000e+000 70505 -3.1069e+001 -3.8208e+001 -4.8522e-002 65372 70551,70306,70479
 3.9000e+000 70528 -2.6605e+001 -4.5331e+001 -3.7777e-001 65372 70358,70479,70384
 3.9000e+000 70577 -2.7895e+001 -5.6666e+001  5.5177e+000 65372 70358,70332,70551
 3.9000e+000 70600 -2.9579e+001 -5.2670e+001  1.1609e+000 65372 70358,70551,70479
 3.9000e+000 70821 -2.9730e+001 -1.2686e+001  1.5568e+000 65174 70645,70723,70671
 3.9000e+000 70798 -3.0406e+001 -1.0491e+001  7.5852e+000 65174 70645,70749,70723
 3.9000e+000 70775 -3.2169e+001 -1.8791e+001  3.0704e+000 65174 70671,70723,70697
 3.9000e+000 71071 -2.2866e+001 -1.7191e+000  1.8191e+000 64770 71094,70898,70872
 3.9000e+000 71048 -2.1114e+001 -8.4919e-001  1.4198e+000 64770 71166,71094,70872
 3.9000e+000 71025 -2.1185e+001 -3.7406e+000 -6.7142e-001 64770 71166,70872,70846
 3.9000e+000 71002 -1.6397e+001 -1.6280e+000  3.0762e+000 64770 70898,70950,70924
 3.9000e+000 71120 -2.2400e+001 -3.6817e+000  2.6384e+000 64770 70950,70898,71094
 3.9000e+000 71143 -1.7228e+001 -3.1568e+000  2.9664e+000 64770 70950,71094,70976
 3.9000e+000 71192 -2.2455e+001 -6.5778e+000  1.2964e+000 64770 70976,71094,71166
 3.9000e+000 71215 -2.1235e+001 -7.5244e+000 -8.7252e-001 64770 70976,71166,70846
 3.9000e+000 71514 -2.9568e+001 -6.2357e+001  1.6132e+000 64572 71681,71537,71318
 3.9000e+000 71491 -3.1351e+001 -5.8353e+001  9.2892e-001 64572 71537,71266,71240
 3.9000e+000 71468 -3.4717e+001 -5.2189e+001 -2.0954e+000 64572 71609,71396,71370
 3.9000e+000 71445 -3.0605e+001 -6.2515e+001  1.6998e+000 64572 71681,71318,71292
 3.9000e+000 71422 -3.6651e+001 -7.3744e+001  3.4676e+000 64572 71753,71344,71318
 3.9000e+000 71563 -3.2972e+001 -6.4819e+001  3.8668e+000 64572 71753,71318,71537
 3.9000e+000 71586 -3.2050e+001 -5.7494e+001  3.7912e+000 64572 71609,71370,71537
 3.9000e+000 71635 -2.5832e+001 -3.3760e+001 -6.7404e+000 64572 71240,71396,71609
 3.9000e+000 71658 -2.9346e+001 -4.6620e+001  3.8398e-001 64572 71240,71609,71537
 3.9000e+000 71707 -3.2855e+001 -5.9273e+001  3.3192e-001 64572 71266,71537,71681
 3.9000e+000 71730 -3.6852e+001 -6.1304e+001  1.0217e+000 64572 71266,71681,71292
 3.9000e+000 71779 -3.5149e+001 -6.2220e+001  2.1901e+000 64572 71370,71344,71753
 3.9000e+000 71802 -3.6117e+001 -6.0839e+001  1.8058e+000 64572 71370,71753,71537
 3.9000e+000 72052 -2.2166e+001 -1.7370e+001  3.6199e+000 64374 72075,71879,71827
 3.9000e+000 72029 -2.2886e+001 -1.7181e+001  2.7710e+000 64374 72147,72075,71827
 3.9000e+000 72006 -2.2063e+001 -1.9914e+001  7.6183e-002 64374 72147,71827,71957
 3.9000e+000 71983 -2.9028e+001 -1.6458e+001  8.1269e+000 64374 71827,71879,71853
 3.9000e+000 72101 -2.3376e+001 -1.8024e+001  2.2578e+000 64374 71905,71879,72075
 3.9000e+000 72124 -2.3866e+001 -1.9150e+001  3.2109e+000 64374 71905,72075,71931
 3.9000e+000 72173 -2.4358e+001 -2.3159e+001  2.7831e+000 64374 71931,72075,72147
 3.9000e+000 72196 -2.2843e+001 -2.5477e+001  8.2419e-001 64374 71931,72147,71957
 3.9000e+000 72649 -3.2170e+001 -4.9362e+001 -4.4569e-001 63948 72352,72508,72482
 3.9000e+000 72626 -2.9434e+001 -4.5648e+001  3.0020e+000 63948 72326,72508,72352
 3.9000e+000 72603 -3.3911e+001 -5.6881e+001  1.1071e+000 63948 72672,72430,72378
 3.9000e+000 72580 -3.5170e+001 -6.1366e+001  2.5819e+000 63948 72672,72378,72352
 3.9000e+000 72557 -3.1894e+001 -5.6750e+001  3.0020e-001 63948 72744,72456,72430
 3.9000e+000 72534 -3.0308e+001 -6.8825e+001 -1.7212e+001 63948 72378,72430,72404
 3.9000e+000 72698 -3.4367e+001 -5.6347e+001  7.6921e-001 63948 72744,72430,72672
 3.9000e+000 72721 -3.3369e+001 -5.6652e+001  1.0470e+000 63948 72482,72672,72352
 3.9000e+000 72770 -2.9486e+001 -5.6833e+001 -2.7870e-001 63948 72482,72456,72744
 3.9000e+000 72793 -3.1910e+001 -5.5943e+001 -4.2839e-001 63948 72482,72744,72672
 3.9000e+000 72894 -3.5922e+001 -6.7515e+001 -5.5060e+000 63494 72816,72868,72842
 3.9000e+000 73093 -1.0140e+001  4.0798e+000 -1.4703e+000 63132 72943,72995,72969
 3.9000e+000 73070 -1.8902e+001  2.1616e+000 -1.1271e+000 63132 72943,73021,72995
 3.9000e+000 73047 -1.9823e+001 -3.8720e+000 -3.1586e-001 63132 72917,73021,72943
 3.9000e+000 73294 -1.8163e+001 -3.3153e+001 -1.0084e+001 62792 73317,73144,73118
 3.9000e+000 73271 -2.2103e+001 -4.1153e+001 -7.7607e+000 62792 73317,73118,73222
 3.9000e+000 73248 -1.8207e+001 -1.6044e+001 -5.9121e+000 62792 73144,73196,73170
 3.9000e+000 73343 -2.2506e+001 -2.5767e+001 -1.3058e+000 62792 73196,73144,73317
 3.9000e+000 73366 -2.8282e+001 -3.8209e+001  1.4034e+000 62792 73196,73317,73222
 3.9000e+000 73616 -4.5371e+001 -4.4049e+001  9.9218e+000 62388 73639,73417,73391
 3.9000e+000 73593 -4.3157e+001 -4.0086e+001  3.5898e+000 62388 73711,73639,73391
 3.9000e+000 73570 -2.7935e+001 -3.9354e+001 -2.1418e+000 62388 73711,73391,73521
 3.9000e+000 73547 -1.7805e+001 -3.2684e+001  1.2065e+001 62388 73469,73521,73495
 3.9000e+000 73665 -4.3542e+001 -4.4939e+001 -1.4663e+000 62388 73443,73417,73639
 3.9000e+000 73688 -3.6442e+001 -3.4348e+001  1.6082e+000 62388 73443,73639,73469
 3.9000e+000 73737 -2.4040e+001 -3.8352e+001  6.5372e+000 62388 73469,73639,73711
 3.9000e+000 73760 -1.7808e+001 -4.4831e+001  4.3582e+000 62388 73469,73711,73521
 3.9000e+000 74010 -1.8039e+001 -2.8348e+001 -1.2363e+000 61848 74033,73837,73811
 3.9000e+000 73987 -2.0168e+001 -2.6261e+001 -5.5573e+000 61848 74033,73811,73785
 3.9000e+000 73964 -1.9546e+001 -3.2004e+001 -3.1901e+000 61848 73837,73915,73889
 3.9000e+000 73941 -1.9728e+001 -1.5324e+001 -4.0053e+000 61848 73837,73889,73863
 3.9000e+000 74059 -1.7757e+001 -3.0452e+001 -2.2213e+000 61848 73915,73837,74033
 3.9000e+000 74082 -1.8045e+001 -3.2797e+001 -3.6967e+000 61848 73915,74033,73785
 3.9000e+000 74283 -1.7760e+001 -1.2975e+001  1.9369e+000 61444 74306,74133,74107
 3.9000e+000 74260 -1.6469e+001 -1.3657e+001 -2.6542e+000 61444 74306,74107,74211
 3.9000e+000 74237 -1.3501e+001 -1.3060e+001 -1.3752e+000 61444 74378,74185,74159
 3.9000e+000 74332 -1.3424e+001 -1.1106e+001  2.0814e+000 61444 74159,74133,74306
 3.9000e+000 74355 -1.4737e+001 -1.2766e+001 -2.0569e+000 61444 74378,74159,74306
 3.9000e+000 74404 -1.3876e+001 -1.3011e+001 -2.3817e+000 61444 74211,74185,74378
 3.9000e+000 74427 -1.3925e+001 -1.2490e+001 -2.3132e+000 61444 74211,74378,74306
 3.9000e+000 74628 -1.4871e+000 -2.2349e+001 -1.8158e+000 60990 74478,74530,74504
 3.9000e+000 74605 -1.5226e+001 -2.8031e+001 -3.0993e+000 60990 74452,74530,74478
 3.9000e+000 74582 -1.0774e+001 -3.8646e+001  2.0517e+000 60990 74452,74556,74530
 3.9000e+000 75089 -7.0953e+000 -1.0145e+001 -3.8471e+000 60486 75112,74945,74919
 3.9000e+000 75066 -1.0803e+001 -8.8265e+000  4.1716e-001 60486 75112,74919,74867
 3.9000e+000 75043 -8.6955e+000 -9.8799e+000  4.5843e+000 60486 74841,74971,74867
 3.9000e+000 75020 -5.5438e-001 -4.5301e+000 -1.6644e-001 60486 74867,74919,74893
 3.9000e+000 74997 -1.6934e+001 -1.5589e+001  1.6953e+000 60486 74815,74971,74841
 3.9000e+000 75138 -1.2599e+001 -1.2368e+001 -3.8058e+000 60486 74971,74945,75112
 3.9000e+000 75161 -1.4647e+001 -9.9936e+000  1.5776e-001 60486 74971,75112,74867
 3.9000e+000 75409 -1.5158e+001 -1.6721e+001 -2.8061e+000 59932 75576,75432,75288
 3.9000e+000 75386 -1.6978e+001 -1.6385e+001 -3.5816e+000 59932 75504,75314,75288
 3.9000e+000 75363 -1.1787e+001 -1.7352e+001 -2.9457e+000 59932 75432,75236,75210
 3.9000e+000 75340 -1.6914e+001 -1.3974e+001  8.4715e-001 59932 75576,75288,75262
 3.9000e+000 75458 -1.6353e+001 -1.6957e+001 -3.4179e+000 59932 75504,75288,75432
 3.9000e+000 75481 -1.4564e+001 -1.6676e+001 -5.5900e-001 59932 75184,75432,75210
 3.9000e+000 75530 -2.9197e+001 -2.1429e+001  4.6092e+000 59932 75184,75314,75504
 3.9000e+000 75553 -1.3945e+001 -1.6288e+001 -1.8222e+000 59932 75184,75504,75432
 3.9000e+000 75602 -1.3807e+001 -1.0623e+001 -3.9878e+000 59932 75236,75432,75576
 3.9000e+000 75625 -1.6230e+001 -8.7331e+000 -2.4097e+000 59932 75236,75576,75262
 3.9000e+000 75873 -1.3300e+001 -3.0363e+001  2.5601e+000 59478 75674,75752,75700
 3.9000e+000 75850 -2.4164e+001 -3.4854e+001  7.5911e+000 59478 75648,75752,75674
 3.9000e+000 75827 -1.3100e+001 -3.1131e+001  2.1508e+000 59478 75700,75752,75726
 3.9000e+000 75804 -1.5368e+001 -4.9419e+001  9.7964e+000 59478 75648,75778,75752
 3.9000e+000 76206 -2.6584e+001 -4.6050e+001  1.0868e+001 59024 75981,76059,76007
 3.9000e+000 76183 -2.0199e+001 -3.8921e+001  8.1164e+000 59024 75981,76111,76059
 3.9000e+000 76160 -2.2518e+001 -3.7327e+001  5.4429e+000 59024 76007,76059,76033
 3.9000e+000 76137 -1.6765e+001 -5.1220e+001  2.4145e+001 59024 76059,76111,76085
 3.9000e+000 76761 -1.1643e+001  2.0603e+000  9.9183e+000 58562 76389,76441,76415
 3.9000e+000 76738 -1.4946e+001 -6.4729e+000  1.2363e-001 58562 76856,76784,76389
 3.9000e+000 76715 -1.3475e+001 -8.2645e+000  1.9698e+000 58562 76784,76571,76467
 3.9000e+000 76692 -1.4121e+001 -5.5111e+000 -2.9840e-001 58562 76856,76389,76597
 3.9000e+000 76669 -5.6294e+000 -1.2601e+001  1.9314e+000 58562 76467,76545,76493
 3.9000e+000 76646 -9.3398e+000 -1.3438e+001  6.0204e-001 58562 76467,76571,76545
 3.9000e+000 76623 -7.7851e-001 -1.0116e+001  2.9576e+000 58562 76493,76545,76519
 3.9000e+000 76810 -1.8788e+001 -7.5748e+000  3.0002e+000 58562 76441,76389,76784
 3.9000e+000 76833 -1.0159e+001 -2.9281e+000  4.8098e+000 58562 76441,76784,76467
 3.9000e+000 76882 -1.3738e+001 -7.9211e+000  6.6607e-001 58562 76571,76784,76856
 3.9000e+000 76905 -1.3570e+001 -7.4081e+000  4.8474e-001 58562 76571,76856,76597
 3.9000e+000 77055 -1.2983e+001  8.2613e+000 -7.1489e-001 57844 76928,76980,76954
 3.9000e+000 77032 -7.6360e+000  1.4598e+001 -3.0108e+000 57844 76928,77006,76980
 3.9000e+000 77533 -7.9533e+000 -1.1358e+001 -1.3385e+000 57226 77628,77556,77291
 3.9000e+000 77510 -7.6060e+000 -8.9703e+000 -5.7633e-001 57226 77556,77187,77343
 3.9000e+000 77487 -7.9800e+000 -5.9943e+000 -2.7999e+000 57226 77628,77291,77265
 3.9000e+000 77464 -9.9159e+000 -1.4315e+001  1.3413e+000 57226 77700,77213,77187
 3.9000e+000 77441 -8.5147e+000 -1.2171e+001 -4.9473e+000 57226 77161,77343,77187
 3.9000e+000 77418 -8.9671e+000 -1.1435e+001 -5.3237e+000 57226 77161,77369,77343
 3.9000e+000 77395  2.7333e+000 -6.1552e-001 -1.0663e+001 57226 77213,77265,77239
 3.9000e+000 77582 -6.7877e+000 -8.4585e+000 -1.2343e+000 57226 77317,77291,77556
 3.9000e+000 77605 -7.7522e+000 -9.9376e+000 -6.3617e-001 57226 77317,77556,77343
 3.9000e+000 77654 -7.3882e+000 -9.7420e+000 -3.5307e-001 57226 77187,77556,77628
 3.9000e+000 77677 -9.6801e+000 -1.3154e+001  1.0270e+000 57226 77700,77187,77628
 3.9000e+000 77726 -1.0504e+001 -1.4884e+001 -3.4673e+000 57226 77265,77213,77700
 3.9000e+000 77749 -8.8792e+000 -1.0597e+001 -3.5948e+000 57226 77265,77700,77628
 3.9000e+000 78046 -1.5125e+001 -2.1980e+001  6.0658e+000 56936 77798,77850,77824
 3.9000e+000 78023 -1.5189e+001 -2.9305e+001  4.1911e+000 56936 78069,77798,77902
 3.9000e+000 78000 -1.3778e+001 -3.0429e+001  4.2967e+000 56936 78069,77902,77876
 3.9000e+000 77977 -1.5943e+001 -3.0634e+001 -9.8868e-001 56936 77798,77928,77902
 3.9000e+000 77954 -1.3536e+001 -2.5385e+001  9.6356e-001 56936 77772,77928,77798
 3.9000e+000 78095 -1.5330e+001 -2.9946e+001  4.5977e+000 56936 77850,77798,78069
 3.9000e+000 78118 -1.4625e+001 -3.1208e+001  5.0266e+000 56936 77850,78069,77876
 3.9000e+000 78754 -9.4717e+000 -2.5429e+001 -1.5635e+000 56475 78777,78486,78408
 3.9000e+000 78731 -1.3983e+001 -2.7565e+001 -7.5762e-001 56475 78777,78408,78382
 3.9000e+000 78708 -1.3563e+001 -3.2556e+001 -6.3465e+000 56475 78849,78512,78486
 3.9000e+000 78685 -3.2172e+001 -1.7251e+001  3.2596e+000 56475 78382,78590,78564
 3.9000e+000 78662 -1.8247e+001 -3.6809e+001 -7.4967e+000 56475 78512,78564,78538
 3.9000e+000 78639 -1.2460e+000 -5.0389e+001  2.2151e+000 56475 78434,78486,78460
 3.9000e+000 78616 -1.9343e+001 -4.7687e+001  1.7919e-001 56475 78408,78486,78434
 3.9000e+000 78803 -1.3473e+001 -2.9435e+001 -3.2279e+000 56475 78849,78486,78777
 3.9000e+000 78826 -1.2277e+001 -2.3577e+001 -7.7764e-001 56475 78564,78777,78382
 3.9000e+000 78875 -1.1906e+001 -2.6752e+001 -4.7408e+000 56475 78564,78512,78849
 3.9000e+000 78898 -1.2601e+001 -2.3271e+001 -2.3226e+000 56475 78564,78849,78777
 3.9000e+000 79276 -3.6329e+001 -2.9244e+001  3.3210e+000 55964 79299,79080,79028
 3.9000e+000 79253 -2.8248e+001 -2.6588e+001  3.3663e+000 55964 79299,79028,79132
 3.9000e+000 79230 -3.6588e+001 -4.6990e+001  1.4364e+000 55964 79028,79080,79054
 3.9000e+000 79207 -1.4002e+001 -2.4411e+001  4.0319e+000 55964 79002,79132,79028
 3.9000e+000 79184  1.5844e+000 -1.7261e+001 -7.6925e-001 55964 79002,79158,79132
 3.9000e+000 79325 -3.2766e+001 -3.2136e+001  9.9434e+000 55964 79106,79080,79299
 3.9000e+000 79348 -2.3778e+001 -2.9176e+001  9.5986e+000 55964 79106,79299,79132
 3.9000e+000 79498 -1.9218e+001 -2.7214e+001  7.1362e+000 55452 79397,79449,79423
 3.9000e+000 79475 -3.0765e+001 -3.2599e+001  2.1045e+000 55452 79371,79449,79397
 3.9000e+000 79795 -3.6424e+001 -3.0715e+001  6.3091e+000 55048 79962,79818,79573
 3.9000e+000 79772 -3.4166e+001 -3.7152e+001  4.2855e+000 55048 79818,79521,79677
 3.9000e+000 79749 -2.5092e+001 -4.9022e+001  1.8145e+001 55048 79599,79651,79625
 3.9000e+000 79726 -3.9213e+001 -4.1140e+001  1.4630e+001 55048 79890,79651,79599
 3.9000e+000 79703 -3.3571e+001 -2.9640e+001  9.5652e+000 55048 79962,79573,79547
 3.9000e+000 79844 -3.6458e+001 -2.2302e+001  7.5401e+000 55048 79599,79573,79818
 3.9000e+000 79867 -3.8943e+001 -3.6760e+001  8.9297e+000 55048 79890,79599,79818
 3.9000e+000 79916 -3.0178e+001 -3.6532e+001  1.0802e+001 55048 79677,79651,79890
 3.9000e+000 79939 -3.1268e+001 -3.4568e+001  5.4852e+000 55048 79677,79890,79818
 3.9000e+000 79988 -4.0594e+001 -3.2599e+001  5.9085e+000 55048 79521,79818,79962
 3.9000e+000 80011 -4.0272e+001 -3.2696e+001  8.6547e+000 55048 79521,79962,79547
 3.9000e+000 80212 -1.2929e+001 -1.7242e+001 -1.0459e+000 54436 80235,80088,80036
 3.9000e+000 80189 -1.1918e+001 -2.1447e+001  4.5705e-001 54436 80235,80036,80140
 3.9000e+000 80166 -1.1720e+001 -1.2508e+001 -1.8341e-001 54436 80036,80088,80062
 3.9000e+000 80261 -1.2579e+001 -1.3977e+001 -1.2305e+000 54436 80114,80088,80235
 3.9000e+000 80284 -1.1022e+001 -1.7149e+001  6.9843e-001 54436 80114,80235,80140
 3.9000e+000 80534 -6.8440e+000 -9.4495e+000  3.1767e-001 54032 80557,80361,80335
 3.9000e+000 80511 -9.7023e+000 -1.5982e+001  4.2897e+000 54032 80557,80335,80309
 3.9000e+000 80488 -8.9944e+000 -7.5180e+000 -9.8423e-001 54032 80629,80413,80387
 3.9000e+000 80465 -9.1073e+000 -2.1567e+001  2.6403e+000 54032 80309,80439,80413
 3.9000e+000 80583 -7.8720e+000 -1.1351e+000 -2.1024e+000 54032 80387,80361,80557
 3.9000e+000 80606 -9.6765e+000 -9.0245e+000 -6.1557e-001 54032 80629,80387,80557
 3.9000e+000 80655 -9.7768e+000 -8.1555e+000  3.1292e-001 54032 80309,80413,80629
 3.9000e+000 80678 -1.0119e+001 -8.4768e+000  6.1557e-001 54032 80309,80629,80557
 3.9000e+000 81139 -5.0196e+000  3.5702e+000  2.5805e+000 53784 80865,80995,80917
 3.9000e+000 81116 -2.6799e-001  7.8862e+000 -3.7287e+000 53784 80865,81021,80995
 3.9000e+000 81093  9.0235e-001 -3.7257e+000  5.2856e+000 53784 80943,80995,80969
 3.9000e+000 81070 -2.3916e+000 -2.0823e+000  9.5146e-001 53784 80917,80995,80943
 3.9000e+000 81047 -4.6779e+000  9.1611e+000  2.7186e+000 53784 80865,80917,80891
 3.9000e+000 81468 -1.0714e+001 -9.0725e+000 -2.8070e+000 53230 81295,81373,81347
 3.9000e+000 81445 -5.4970e+000 -1.1574e+001  8.4746e-001 53230 81243,81373,81295
 3.9000e+000 81422 -8.1227e+000 -1.0489e+001 -1.7322e+000 53230 81243,81295,81269
 3.9000e+000 81399  1.2358e+000 -4.1891e+000 -2.6466e+000 53230 81295,81347,81321
 3.9000e+000 81618  2.1398e+001  3.2886e+001  6.0469e-001 52790 81491,81543,81517
 3.9000e+000 81595  1.0044e+001 -1.6030e+001  1.0284e+001 52790 81491,81569,81543
 3.9000e+000 82126  1.5241e+000 -6.1102e+000 -2.8646e+000 52386 82149,81907,81881
 3.9000e+000 82103 -2.2159e+000 -1.3437e+001 -6.9910e-001 52386 82149,81881,81855
 3.9000e+000 82080 -1.5409e+000 -1.2964e+001  1.9873e+000 52386 82221,81803,81985
 3.9000e+000 82057 -2.0596e+001 -4.5409e+000 -5.0364e+000 52386 81803,81855,81829
 3.9000e+000 82034 -7.4739e+000 -2.1916e+001  8.6094e-001 52386 81907,81985,81933
 3.9000e+000 82011 -1.4540e+001 -1.6541e+001 -1.6772e+000 52386 81933,81985,81959
 3.9000e+000 82175 -3.6605e+000 -1.2836e+001  5.2833e-001 52386 81985,81907,82149
 3.9000e+000 82198 -1.1989e+000 -1.3254e+001  1.6044e+000 52386 82221,81985,82149
 3.9000e+000 82247 -1.8004e+000 -1.3481e+001  2.0819e+000 52386 81855,81803,82221
 3.9000e+000 82270 -1.5708e+000 -1.3887e+001  1.7588e+000 52386 81855,82221,82149
 3.9000e+000 82825 -9.7574e+000 -1.0360e+001 -3.5706e+000 51782 82505,82661,82635
 3.9000e+000 82802 -8.2578e+000 -1.4716e+001 -1.4895e+000 51782 82479,82661,82505
 3.9000e+000 82779 -1.1381e+001 -1.6180e+001 -9.4042e+000 51782 82557,82635,82609
 3.9000e+000 82756 -9.6061e+000 -1.1731e+001 -2.9149e+000 51782 82531,82635,82557
 3.9000e+000 82733 -9.4810e+000 -9.7680e+000 -2.7757e+000 51782 82505,82635,82531
 3.9000e+000 82710 -4.1623e+000 -1.3728e+001 -1.5241e+000 51782 82453,82661,82479
 3.9000e+000 82687 -1.1189e+000 -1.6618e+001 -8.3745e+000 51782 82557,82609,82583
 3.9000e+000 83171 -3.0988e+001 -4.9169e+001  9.2183e+000 51442 83194,82978,82900
 3.9000e+000 83148 -3.9391e+001 -3.7215e+001  8.4434e+000 51442 83194,82900,82874
 3.9000e+000 83125 -2.1624e+001 -4.5354e+001  7.1344e+000 51442 82900,82978,82926
 3.9000e+000 83102 -2.9534e+001 -2.8403e+001  9.0456e+000 51442 82874,83030,83004
 3.9000e+000 83079 -1.0863e+001 -4.2752e+001  5.7514e+000 51442 82926,82978,82952
 3.9000e+000 83056 -8.8150e+000 -3.0267e+001  9.0586e+000 51442 82848,83030,82874
 3.9000e+000 83220 -2.7488e+001 -4.2432e+001  6.3625e+000 51442 83004,82978,83194
 3.9000e+000 83243 -3.5865e+001 -2.9749e+001  6.0024e+000 51442 83004,83194,82874
 3.9000e+000 83751 -2.8284e+001 -1.3027e+001  2.6649e+000 50938 83428,83584,83454
 3.9000e+000 83728 -3.2798e+001 -1.5362e+001  4.7849e+000 50938 83428,83610,83584
 3.9000e+000 83705 -2.8102e+001 -2.1914e+001  1.2095e+000 50938 83454,83584,83558
 3.9000e+000 83682 -1.3350e+001 -1.2049e+001  2.4390e+000 50938 83454,83532,83480
 3.9000e+000 83659 -1.3424e+001 -1.5286e+001  2.9583e+000 50938 83454,83558,83532
 3.9000e+000 83636 -1.1815e+001 -1.6570e+001  7.7737e-001 50938 83480,83532,83506
 3.9000e+000 84355  4.5609e+000 -4.2227e+000 -2.3853e+000 50377 84378,83960,83934
 3.9000e+000 84332  4.5139e+000 -3.1201e+000 -4.9028e-001 50377 84522,84378,83934
 3.9000e+000 84309  6.1566e+000 -3.2165e+000 -4.8574e+000 50377 84450,84038,84012
 3.9000e+000 84286  5.0656e+000 -2.5792e+000 -7.1518e-001 50377 84522,83934,84142
 3.9000e+000 84263  4.1367e+000  9.7948e+000 -7.9876e+000 50377 84594,84090,84038
 3.9000e+000 84240  1.2848e+000 -1.0273e+001 -7.5380e+000 50377 83960,84012,83986
 3.9000e+000 84217  5.8454e+000  1.7884e+000 -7.4044e+000 50377 83934,84168,84142
 3.9000e+000 84194 -3.8829e+000  9.2111e+000 -6.8965e+000 50377 84038,84090,84064
 3.9000e+000 84404 -2.2690e+000 -4.9866e+000 -4.1386e+000 50377 84012,83960,84378
 3.9000e+000 84427  4.2183e+000 -2.9508e+000 -1.6849e+000 50377 84450,84012,84378
 3.9000e+000 84476  8.5853e+000  4.0755e+000 -6.6228e+000 50377 84594,84038,84450
 3.9000e+000 84499  5.1430e+000 -3.1127e+000 -2.6254e+000 50377 84116,84450,84378
 3.9000e+000 84548  5.4573e+000 -4.0983e+000 -7.8653e-001 50377 84116,84378,84522
 3.9000e+000 84571  6.1860e+000 -3.3345e+000 -1.0862e+000 50377 84116,84522,84142
 3.9000e+000 84620 -8.5925e-001  2.2609e+000 -4.5989e+000 50377 84116,84090,84594
 3.9000e+000 84643  2.7273e+000 -3.8227e+000 -2.8669e+000 50377 84116,84594,84450
 3.9000e+000 84842 -8.7169e+000 -4.2166e+001  5.6589e+000 49923 84865,84692,84666
 3.9000e+000 84819 -2.9716e+001 -3.7015e+001 -8.9623e+000 49923 84865,84666,84770
 3.9000e+000 84796 -4.1687e+000 -5.6727e+001 -7.7922e+000 49923 84692,84744,84718
 3.9000e+000 84891 -2.2409e+001 -4.8377e+001 -5.4752e+000 49923 84744,84692,84865
 3.9000e+000 84914 -4.7134e+001 -5.1493e+001 -2.2011e+001 49923 84744,84865,84770
 3.9000e+000 85501 -3.2762e+000 -4.4794e+000 -4.1775e-001 49618 85524,85282,85204
 3.9000e+000 85478 -7.6581e+000 -8.3342e+000 -3.1913e+000 49618 85596,85524,85204
 3.9000e+000 85455 -1.0114e+001 -1.1431e+001 -4.2805e+000 49618 85596,85204,85178
 3.9000e+000 85432 -2.9937e+000  1.4843e+000 -2.7934e+000 49618 85204,85282,85256
 3.9000e+000 85409 -5.2380e+000 -1.3960e+000 -4.0313e+000 49618 85282,85334,85308
 3.9000e+000 85386 -1.8377e+000  6.0904e+000 -4.4884e-001 49618 85204,85256,85230
 3.9000e+000 85550 -4.3296e+000 -9.9346e+000 -2.9104e+000 49618 85334,85282,85524
 3.9000e+000 85573 -2.4218e+000 -9.0450e+000 -2.5502e+000 49618 85334,85524,85360
 3.9000e+000 85622 -3.7671e+000 -1.3495e+001 -2.6350e+000 49618 85360,85524,85596
 3.9000e+000 85645 -5.2710e+000 -1.5294e+001 -3.3679e+000 49618 85360,85596,85178
 3.9000e+000 85795 -4.0918e+001 -9.2740e+001 -1.3190e+001 49278 85694,85746,85720
 3.9000e+000 85772 -4.5545e+001 -1.6701e+002 -1.0526e+001 49278 85668,85746,85694
 3.9000e+000 86197 -3.7614e+000 -1.5424e+001 -6.2170e+000 48916 86001,86079,86027
 3.9000e+000 86174 -5.0758e-001 -2.8183e+000 -2.6729e+000 48916 85949,86079,86001
 3.9000e+000 86151 -5.7134e+000 -1.3779e+001  6.5784e-002 48916 85949,86001,85975
 3.9000e+000 86128 -2.9036e+000 -9.5949e+000 -4.4569e+000 48916 86027,86079,86053
 3.9000e+000 86105 -1.2139e+001 -5.0966e+000 -1.5421e+000 48916 85923,86079,85949
 3.9000e+000 86477 -2.1435e+001 -1.2328e+001  3.5526e+000 48398 86327,86379,86353
 3.9000e+000 86454 -2.5507e+001 -2.1584e+001  2.2226e+000 48398 86500,86379,86327
 3.9000e+000 86431 -2.0390e+001 -1.9825e+001  1.1012e+001 48398 86301,86405,86379
 3.9000e+000 86526 -1.9814e+001 -1.4063e+001  6.6719e+000 48398 86301,86379,86500
 3.9000e+000 87032 -1.3605e+001 -1.6436e+001 -9.6619e-001 48008 87127,87055,86787
 3.9000e+000 87009 -1.7072e+001 -2.3374e+001  3.0311e+000 48008 87055,86735,86709
 3.9000e+000 86986 -1.3870e+001 -1.6386e+001 -9.0557e-001 48008 87127,86787,86761
 3.9000e+000 86963 -1.1856e+001 -8.9894e+000 -7.4343e-001 48008 86787,86865,86839
 3.9000e+000 86940 -1.2030e+001 -2.0485e+001  5.8949e+000 48008 86709,86891,86865
 3.9000e+000 86917 -2.4033e+001 -1.9907e+001 -6.2936e+000 48008 86787,86839,86813
 3.9000e+000 87081 -1.3756e+001 -1.7058e+001 -1.0301e+000 48008 86865,86787,87055
 3.9000e+000 87104 -1.2891e+001 -1.4528e+001  1.8689e+000 48008 86865,87055,86709
 3.9000e+000 87153 -1.3687e+001 -1.8536e+001 -1.6100e+000 48008 86735,87055,87127
 3.9000e+000 87176 -1.2208e+001 -1.5737e+001 -2.3998e+000 48008 86735,87127,86761
 3.9000e+000 87456 -2.4361e+001 -2.8484e+001  5.8173e+000 47604 87306,87358,87332
 3.9000e+000 87433 -1.1077e+000 -1.8607e+001  3.5256e+000 47604 87306,87384,87358
 3.9000e+000 87410 -1.5069e+001 -2.4683e+001  1.4321e+000 47604 87280,87384,87306
 3.9000e+000 87785  4.5823e+000 -2.8942e+001  1.1509e+001 47264 87638,87690,87664
 3.9000e+000 87762 -1.2258e+001 -3.6418e+001  1.6737e+001 47264 87612,87690,87638
 3.9000e+000 87739 -1.8152e+001 -4.8198e+001  1.4821e+001 47264 87560,87690,87612
 3.9000e+000 87716 -1.7391e+001 -5.7255e+001  1.0988e+001 47264 87560,87612,87586
 3.9000e+000 87935 -2.4604e-001  2.0729e+001 -3.7565e-002 46952 87808,87860,87834
 3.9000e+000 87912  2.9153e+000  2.9346e+001  3.7451e-001 46952 87808,87886,87860
 3.9000e+000 88281 -1.7703e+001 -3.3528e+001  4.9008e-001 46526 88304,88114,88036
 3.9000e+000 88258 -1.6177e+001 -3.4091e+001  3.1228e-001 46526 88304,88036,87984
 3.9000e+000 88235 -2.3440e+001 -3.5523e+001 -6.7256e-001 46526 88036,88114,88062
 3.9000e+000 88212 -6.6444e+000 -2.9054e+001  7.0867e+000 46526 87958,88140,87984
 3.9000e+000 88189 -1.4511e+001 -3.0081e+001 -1.0430e-001 46526 87984,88036,88010
 3.9000e+000 88166 -1.6596e+001 -2.4699e+001  4.9735e+000 46526 88062,88114,88088
 3.9000e+000 88330 -1.8551e+001 -3.3894e+001  7.1844e-001 46526 88140,88114,88304
 3.9000e+000 88353 -1.7430e+001 -3.4777e+001  6.3996e-001 46526 88140,88304,87984
 3.9000e+000 88701  2.4579e-001 -2.4669e+001  1.2322e+001 45822 88724,88378,88534
 3.9000e+000 88678  3.3035e+000 -2.0715e+001  1.0524e+001 45822 88378,88560,88534
 3.9000e+000 88655 -1.0006e+001 -2.8508e+001  1.2117e+001 45822 88724,88534,88508
 3.9000e+000 88632 -1.9132e+001 -2.4791e+001  8.1541e+000 45822 88404,88508,88456
 3.9000e+000 88609 -2.1755e+001 -3.1952e+001  6.6476e+000 45822 88404,88456,88430
 3.9000e+000 88586 -2.4241e+001 -2.2962e+001  6.4266e+000 45822 88456,88508,88482
 3.9000e+000 88750 -8.0626e+000 -2.2235e+001  6.3930e+000 45822 88404,88378,88724
 3.9000e+000 88773 -1.5974e+001 -2.4783e+001  6.0535e+000 45822 88404,88724,88508
 3.9000e+000 89106  7.9785e+000  2.0368e+001  1.0460e+001 45418 88881,88985,88907
 3.9000e+000 89083  1.4024e+001  1.9096e+001  9.5352e+000 45418 88881,89011,88985
 3.9000e+000 89060 -5.3445e+000  9.2972e+000  5.3968e+000 45418 88907,88985,88933
 3.9000e+000 89037  1.4588e+001  2.2441e+001  1.4450e+001 45418 88933,88985,88959
 3.9000e+000 89435 -7.4241e+000 -2.1213e+001  1.1405e+001 44914 89210,89288,89236
 3.9000e+000 89412 -1.5793e+001 -3.3898e+001  1.5517e+001 44914 89210,89314,89288
 3.9000e+000 89389 -2.7043e+000 -1.9123e+001  8.7067e+000 44914 89210,89340,89314
 3.9000e+000 89366 -1.6097e+001 -2.4776e+001  1.1657e+001 44914 89236,89288,89262
 3.9000e+000 89634 -7.0740e+000 -2.6382e+001  1.8488e+001 44538 89510,89562,89536
 3.9000e+000 89611 -1.4666e+001 -3.1719e+001  1.1347e+001 44538 89458,89562,89510
 3.9000e+000 89588 -6.5424e+000 -2.6824e+001  8.0184e+000 44538 89458,89510,89484
 3.9000e+000 90044 -1.2004e+000 -1.6028e+000 -1.5342e+000 44134 89819,89923,89845
 3.9000e+000 90021 -1.7650e+000 -3.4146e+000 -1.3187e+000 44134 89819,89949,89923
 3.9000e+000 89998  5.4218e-001  4.6609e+000 -2.0960e+000 44134 89845,89923,89897
 3.9000e+000 89975  9.6998e-001 -4.2264e+000  3.8066e+000 44134 89845,89897,89871
 3.9000e+000 90520 -1.0197e+000  4.6755e+000  8.7807e-001 43457 90543,90252,90226
 3.9000e+000 90497  8.3889e-001  3.4029e-001 -1.9765e+000 43457 90543,90226,90330
 3.9000e+000 90474  2.1450e+000  3.0242e+000 -1.4774e+000 43457 90200,90330,90226
 3.9000e+000 90451 -2.9666e-002 -2.2351e+000 -8.0696e+000 43457 90200,90356,90330
 3.9000e+000 90428 -1.8439e+000  9.5382e-001 -8.2957e-002 43457 90252,90304,90278
 3.9000e+000 90405  5.1594e+000 -5.0829e+000 -6.1495e+000 43457 90174,90356,90200
 3.9000e+000 90382 -2.4999e+000 -9.8303e+000 -8.0773e+000 43457 90148,90356,90174
 3.9000e+000 90569 -1.7586e+000  6.8224e-002  2.7539e-001 43457 90304,90252,90543
 3.9000e+000 90592 -1.5162e+000 -6.4797e+000 -2.7859e+000 43457 90304,90543,90330
 3.9000e+000 91098 -1.9451e+001 -1.9595e+001  2.5605e+000 42789 90801,90905,90853
 3.9000e+000 91075 -1.7780e+001 -2.1462e+001  1.8299e+000 42789 90775,90905,90801
 3.9000e+000 91052 -1.2974e+001 -1.6903e+001  6.9909e+000 42789 90775,90931,90905
 3.9000e+000 91029 -2.5468e+001 -3.0776e+001  8.5040e-002 42789 90801,90853,90827
 3.9000e+000 91006 -2.3035e+001 -1.9850e+001 -3.2400e+000 42789 90853,90905,90879
 3.9000e+000 90983 -1.5261e+001 -3.3802e+001  7.8165e+000 42789 90775,90957,90931
 3.9000e+000 91427 -4.4926e-001 -1.1097e+001  6.2841e-001 42227 91228,91280,91254
 3.9000e+000 91404  3.0728e+000 -8.0654e+000 -6.9577e-001 42227 91228,91306,91280
 3.9000e+000 91381 -2.1628e+000 -9.8266e+000  9.6011e-001 42227 91202,91306,91228
 3.9000e+000 91358  2.7802e+000 -6.2667e+000 -2.3729e+000 42227 91202,91332,91306
 3.9000e+000 91675 -5.2059e+000 -1.7877e+001  7.6960e+000 41773 91698,91476,91450
 3.9000e+000 91652 -3.1216e+000 -1.3603e+001  8.6227e+000 41773 91698,91450,91554
 3.9000e+000 91629 -1.0602e+001 -1.8117e+001  1.1164e+001 41773 91450,91580,91554
 3.9000e+000 91606 -5.6369e+000 -1.3841e+001  4.5909e+000 41773 91502,91554,91528
 3.9000e+000 91724 -6.5582e+000 -1.6948e+001  4.2515e+000 41773 91502,91476,91698
 3.9000e+000 91747 -4.5594e+000 -1.2597e+001  5.1298e+000 41773 91502,91698,91554
 3.9000e+000 92127 -8.3167e+000  1.1159e+001 -5.1470e+000 41255 92150,91905,91879
 3.9000e+000 92104  6.7233e+000  1.1136e+001 -1.1193e+001 41255 92150,91879,91957
 3.9000e+000 92081  2.5185e+001 -2.1238e+000  2.2554e+000 41255 91853,91957,91879
 3.9000e+000 92058  2.9699e+001  9.1347e+000 -1.2028e+000 41255 91853,91983,91957
 3.9000e+000 92035 -4.8998e+000  1.2445e+001  1.6119e-001 41255 91853,92009,91983
 3.9000e+000 92176  4.9398e+000  8.5329e+000 -1.0186e+001 41255 91931,91905,92150
 3.9000e+000 92199  2.6879e+001  1.6399e+001 -1.8564e+001 41255 91931,92150,91957
 3.9000e+000 92518  7.9823e+000 -4.8395e+000 -4.0454e-001 41007 92244,92374,92270
 3.9000e+000 92495  2.8329e+000  6.1541e+000 -6.0673e+000 41007 92244,92400,92374
 3.9000e+000 92472  2.7813e+000  2.2083e+000  3.9434e+000 41007 92270,92374,92348
 3.9000e+000 92449  2.5329e+000  8.9347e+000 -4.5941e+000 41007 92296,92348,92322
 3.9000e+000 92426  2.4395e+000  2.3257e+001  2.1334e+000 41007 92270,92348,92296
 3.9000e+000 92668 -7.1387e+000 -1.0178e+001 -3.2693e+000 40717 92823,92691,92567
 3.9000e+000 92645 -5.8167e+000 -1.0874e+001 -2.9924e+000 40717 92895,92823,92567
 3.9000e+000 92717 -5.5747e+000 -9.5919e+000 -4.0011e+000 40717 92593,92567,92691
 3.9000e+000 92849 -8.3911e+000 -1.1890e+001 -2.7209e+000 40717 92619,92691,92823
 3.9000e+000 92872 -8.2382e+000 -1.1225e+001 -2.0308e+000 40717 92619,92823,92541
 3.9000e+000 92921 -1.0152e+001 -1.4105e+001 -1.0647e+000 40717 92541,92823,92895
 3.9000e+000 93634 -1.1209e+001 -1.9097e+001  5.4003e+000 40206 93366,93444,93418
 3.9000e+000 93611 -1.3742e+001 -1.6467e+001  3.1772e+000 40206 93288,93444,93366
 3.9000e+000 93588 -2.0698e+001 -2.3082e+001  6.5187e+000 40206 93288,93366,93314
 3.9000e+000 93565 -1.0267e+001 -1.4498e+001  4.1655e+000 40206 93262,93444,93288
 3.9000e+000 93542 -4.1477e+000 -2.4101e+001  1.7710e+000 40206 93366,93418,93392
 3.9000e+000 93519 -8.2206e+000 -1.9628e+001  4.4261e+000 40206 93262,93470,93444
 3.9000e+000 93496 -2.0388e+001 -2.3032e+001  7.1059e+000 40206 93314,93366,93340
 3.9000e+000 94189 -1.7955e+000 -3.0304e+000  1.4173e+000 39802 93843,93999,93973
 3.9000e+000 94166  9.7087e+000  1.8271e+000  1.0445e+000 39802 93817,93999,93843
 3.9000e+000 94143 -4.2943e+000 -1.4073e+000 -9.3711e-001 39802 93869,93973,93947
 3.9000e+000 94120  1.9523e+000  5.6696e-001 -1.1241e-001 39802 93843,93973,93869
 3.9000e+000 94097 -4.5751e+000 -5.8338e+000 -1.7429e-001 39802 93869,93921,93895
 3.9000e+000 94074 -3.9311e+000 -5.2617e+000 -6.2037e-001 39802 93869,93947,93921
 3.9000e+000 94051 -1.2891e+001 -6.2175e+000  9.7043e+000 39802 93817,94025,93999
 3.9000e+000 94290 -1.1158e+001 -1.3350e+001 -4.9849e+000 39398 94212,94264,94238
 3.9000e+000 94798 -1.4073e+001 -2.1420e+001  1.4065e+000 38701 94501,94657,94631
 3.9000e+000 94775 -9.0069e+000 -1.2223e+001  6.5815e+000 38701 94475,94657,94501
 3.9000e+000 94752 -1.6089e+001 -1.8431e+001  2.6283e+000 38701 94579,94631,94605
 3.9000e+000 94729 -2.1566e+001 -2.4325e+001 -1.4622e+000 38701 94553,94631,94579
 3.9000e+000 94706 -1.8146e+001 -2.1713e+001  2.5717e+000 38701 94501,94631,94553
 3.9000e+000 94683 -1.8511e+001 -2.9604e+001  1.6817e+000 38701 94501,94553,94527
 3.9000e+000 95255 -1.3049e+001 -2.3142e+001  1.9162e+000 38247 95278,95085,95007
 3.9000e+000 95232 -1.2574e+001 -2.2109e+001  3.1373e+000 38247 95278,95007,95137
 3.9000e+000 95209 -1.0638e+001 -1.8882e+001  3.9704e+000 38247 94981,95137,95007
 3.9000e+000 95186 -1.2055e+001 -2.1419e+001  8.6356e-001 38247 95007,95059,95033
 3.9000e+000 95163 -8.6620e+000 -1.4636e+001 -1.6879e+000 38247 95007,95085,95059
 3.9000e+000 95304 -1.2275e+001 -2.1074e+001  2.1296e+000 38247 95111,95085,95278
 3.9000e+000 95327 -1.2457e+001 -2.1427e+001  3.3817e+000 38247 95111,95278,95137
 3.9000e+000 95575 -1.2672e+001 -2.1651e+000  8.8676e-002 37564 95376,95428,95402
 3.9000e+000 95552 -1.2551e+001 -5.5087e-001 -3.0157e-002 37564 95376,95454,95428
 3.9000e+000 95529 -1.1237e+001 -1.0375e-001 -1.2816e-001 37564 95376,95480,95454
 3.9000e+000 95506 -1.9192e+001 -1.2561e+000 -1.4920e+000 37564 95350,95480,95376
 3.9000e+000 96034  4.1579e+000 -1.2113e+000 -1.1934e+001 37224 95786,95838,95812
 3.9000e+000 96011  1.6015e+001  1.1467e+001  3.4662e-001 37224 95786,95890,95838
 3.9000e+000 95988  4.1433e+000  1.0116e+001  4.1867e+000 37224 95786,95916,95890
 3.9000e+000 95965  4.3473e+000  1.6276e+001 -4.9864e+000 37224 95760,95916,95786
 3.9000e+000 95942 -2.0532e-001  3.1487e+000 -2.5562e+000 37224 95838,95890,95864
 3.9000e+000 96363 -5.5250e+000 -6.9792e-001  4.5240e-001 36884 96216,96268,96242
 3.9000e+000 96340 -1.6730e+000  7.8856e-001  1.1368e+000 36884 96164,96268,96216
 3.9000e+000 96317 -8.4409e+000 -4.8662e+000  4.5228e+000 36884 96138,96268,96164
 3.9000e+000 96294 -7.1775e+000 -8.9223e+000  6.0023e+000 36884 96164,96216,96190
 3.9000e+000 96839 -1.3248e+000 -2.5825e+000  5.2320e+000 36572 96862,96649,96597
 3.9000e+000 96816  4.8037e+000  1.3883e-001  2.6732e+000 36572 97006,96862,96597
 3.9000e+000 96793  5.7493e+000  7.2552e+000 -1.4204e+000 36572 96934,96467,96675
 3.9000e+000 96770  4.2250e+000 -4.9559e-001  3.1152e+000 36572 97006,96597,96571
 3.9000e+000 96747  4.8482e+000  4.4280e+000 -3.5228e-001 36572 96467,96519,96493
 3.9000e+000 96724  4.0534e+000  3.8259e-001  1.7240e+000 36572 96519,96571,96545
 3.9000e+000 96701  2.7396e+000  7.3874e+000  6.0368e+000 36572 96597,96649,96623
 3.9000e+000 96888  7.3631e+000 -2.2692e-001  1.8912e+000 36572 96675,96649,96862
 3.9000e+000 96911  7.9701e+000  2.8713e+000 -1.4865e+000 36572 96934,96675,96862
 3.9000e+000 96960  4.3903e+000  3.4277e+000 -5.9506e-001 36572 96519,96467,96934
 3.9000e+000 96983  5.4950e+000 -7.8321e-001  3.0076e-001 36572 97078,96934,96862
 3.9000e+000 97032  3.4196e+000 -3.2177e-001  2.1339e+000 36572 97078,96862,97006
 3.9000e+000 97055  3.5855e+000  1.0971e+000  1.9994e+000 36572 96519,97006,96571
 3.9000e+000 97104  6.6768e+000  1.6582e+000 -6.4727e-001 36572 96519,96934,97078
 3.9000e+000 97127  5.7334e+000  2.5946e+000  9.8733e-001 36572 96519,97078,97006
 3.9000e+000 97761  9.2688e+000  6.4826e+000  1.2962e+000 36118 97784,97493,97415
 3.9000e+000 97738  6.2603e+000  6.8198e+000  3.5086e-001 36118 97784,97415,97597
 3.9000e+000 97715  2.5147e+000  7.4491e+000  3.5311e+000 36118 97389,97597,97415
 3.9000e+000 97692 -1.0577e-001 -3.0828e+000  2.7094e-001 36118 97415,97467,97441
 3.9000e+000 97669  3.8902e+000 -2.1366e+000  3.6061e+000 36118 97415,97493,97467
 3.9000e+000 97646  1.6960e+000  4.9495e+000 -1.4407e+000 36118 97493,97571,97519
 3.9000e+000 97623  3.7805e+000  7.9604e+000 -1.5532e-001 36118 97519,97571,97545
 3.9000e+000 97810  7.0935e+000  7.2618e+000 -5.2564e-001 36118 97571,97493,97784
 3.9000e+000 97833  1.3688e+000  5.8804e+000 -1.3558e+000 36118 97571,97784,97597
 3.9000e+000 98081  1.1212e+001  2.7568e+001 -6.9072e+000 35564 98104,97908,97856
 3.9000e+000 98058  1.1730e+001  2.3357e+001 -7.8668e+000 35564 98104,97856,97986
 3.9000e+000 98035  2.4941e+001  3.1565e+001  1.6055e+000 35564 97934,97986,97960
 3.9000e+000 98012  6.8745e+000  1.7318e+001 -6.7248e+000 35564 97856,97908,97882
 3.9000e+000 98130  1.4711e+001  4.0611e+001 -4.6637e+000 35564 97934,97908,98104
 3.9000e+000 98153  9.4490e+000  2.7663e+001 -6.2376e+000 35564 97934,98104,97986
 3.9000e+000 98374  1.6127e+001  3.5920e+001 -3.3184e+000 35152 98224,98302,98276
 3.9000e+000 98351  1.2372e+001  2.5613e+001 -5.3466e-001 35152 98198,98302,98224
 3.9000e+000 98328  3.1400e+001  4.3053e+001 -6.9632e+000 35152 98224,98276,98250
 3.9000e+000 98884 -1.0554e+000 -1.1970e+001 -1.8680e+000 34698 98691,98743,98717
 3.9000e+000 98861 -1.8445e+000 -1.3325e+001 -3.6419e+000 34698 98561,98743,98691
 3.9000e+000 98838 -3.2256e+000 -1.3809e+001 -2.9480e+000 34698 98907,98587,98561
 3.9000e+000 98815 -2.4735e+000 -1.2561e+001 -3.5762e+000 34698 98907,98561,98691
 3.9000e+000 98792 -7.8494e+000 -1.6934e+001 -1.5711e+000 34698 98587,98639,98613
 3.9000e+000 98769 -6.1854e+000 -1.5249e+001 -3.1690e+000 34698 98587,98665,98639
 3.9000e+000 98933 -2.9249e+000 -1.3113e+001 -4.1754e+000 34698 98665,98587,98907
 3.9000e+000 98956 -1.7897e+000 -1.1176e+001 -4.8626e+000 34698 98665,98907,98691
 3.9000e+000 99204  1.6422e+000 -1.4649e+001  1.6876e+000 34144 99227,99031,99005
 3.9000e+000 99181 -5.3833e+000 -1.5789e+001  5.2415e-001 34144 99299,99227,99005
 3.9000e+000 99158 -6.1104e+000 -1.6590e+001 -2.9063e-001 34144 99299,99005,99109
 3.9000e+000 99135 -7.2982e-001 -1.6105e+001  3.3502e-001 34144 98979,99109,99005
 3.9000e+000 99253 -3.2197e+000 -1.5492e+001 -2.0553e+000 34144 99057,99031,99227
 3.9000e+000 99276 -6.2734e+000 -1.4925e+001 -2.4138e+000 34144 99057,99227,99083
 3.9000e+000 99325 -4.6738e+000 -1.6921e+001 -2.5686e+000 34144 99083,99227,99299
 3.9000e+000 99348 -8.3953e+000 -1.9014e+001 -3.6696e+000 34144 99083,99299,99109
 3.9000e+000 99498 -6.9548e+000 -4.7716e+000  7.2279e+000 33433 99397,99449,99423
 3.9000e+000 99475 -1.5789e+001  3.3255e+000  7.6432e-002 33433 99371,99449,99397
 3.9000e+000 100008 -2.0066e+001 -9.0278e+000  7.4070e+000 32979 100103,100031,99815
 3.9000e+000 99985 -7.6029e+000 -7.0949e+000  1.5342e+000 32979 100175,100031,99763
 3.9000e+000 99962 -2.6404e+001 -8.9537e+000  8.7927e+000 32979 100103,99815,99789
 3.9000e+000 99939 -8.5380e+000 -7.0661e+000  2.3055e+000 32979 100175,99763,99737
 3.9000e+000 99916 -7.8614e+000 -4.5997e-001  1.7937e+000 32979 99685,99867,99737
 3.9000e+000 99893 -9.9667e+000 -1.0729e+001  3.1576e-001 32979 99685,99737,99711
 3.9000e+000 100057 -4.9378e+000 -3.4794e+000  9.2916e+000 32979 99841,99815,100031
 3.9000e+000 100080 -9.8745e+000 -7.3922e+000  1.6489e+000 32979 99841,100031,99867
 3.9000e+000 100129 -7.2709e+000 -1.0762e+001  2.6933e+000 32979 99763,100031,100103
 3.9000e+000 100152 -1.7916e+001 -1.2812e+001  2.7566e+000 32979 99763,100103,99789
 3.9000e+000 100201 -9.2133e+000 -7.5903e+000  1.5694e+000 32979 99867,100031,100175
 3.9000e+000 100224 -9.3365e+000 -6.9541e+000  2.3094e+000 32979 99867,100175,99737
 3.9000e+000 100553  3.8476e+000  1.3060e+001 -1.8586e+000 32503 100354,100406,100380
 3.9000e+000 100530  1.5067e+001  1.9068e+000  1.0450e+001 32503 100328,100406,100354
 3.9000e+000 100507  1.6415e+001  4.4198e+000  9.8365e+000 32503 100328,100458,100406
 3.9000e+000 100484  6.5750e+000  1.4916e+000  5.4087e+000 32503 100406,100458,100432
 3.9000e+000 100850  8.9318e+000 -1.1315e+001  7.5975e-001 31899 100873,100654,100628
 3.9000e+000 100827  1.5946e+001 -9.8532e+000  2.9054e-001 31899 100945,100873,100628
 3.9000e+000 100804  2.1802e+001 -7.8057e+000  2.7352e+000 31899 100945,100628,100602
 3.9000e+000 100781  8.2525e+000  6.3337e+000  9.6965e+000 31899 100576,100732,100602
 3.9000e+000 100758 -1.6116e-001 -1.6587e+000 -1.2069e+001 31899 100654,100706,100680
 3.9000e+000 100899  7.9950e+000 -1.3305e+001  1.2618e+000 31899 100706,100654,100873
 3.9000e+000 100922  8.4041e-001 -1.0630e+001 -5.2862e+000 31899 100706,100873,100732
 3.9000e+000 100971  3.8165e+000 -4.2185e+000 -1.6537e+000 31899 100732,100873,100945
 3.9000e+000 100994  1.0736e+001 -1.1262e+000  1.0683e+000 31899 100732,100945,100602
 3.9000e+000 101551 -3.0456e+000 -5.1643e+000  2.9957e+000 31338 101205,101387,101231
 3.9000e+000 101528  1.0683e+000 -5.3555e+000  4.4628e-001 31338 101179,101387,101205
 3.9000e+000 101505 -2.3375e+000 -3.7554e+000  3.0200e+000 31338 101574,101309,101257
 3.9000e+000 101482  6.8809e-001 -2.9224e+000  3.5403e+000 31338 101646,101574,101257
 3.9000e+000 101459  3.6977e+000 -1.1403e+000  6.0905e+000 31338 101646,101257,101231
 3.9000e+000 101436 -3.9511e+000 -7.6319e+000  1.2740e-001 31338 101309,101361,101335
 3.9000e+000 101413  3.7480e-001 -4.6131e+000  5.8825e+000 31338 101257,101309,101283
 3.9000e+000 101600 -5.8223e-001 -3.8898e+000  2.0261e+000 31338 101361,101309,101574
 3.9000e+000 101623 -4.4246e+000 -7.8058e+000 -4.6364e-001 31338 101361,101574,101387
 3.9000e+000 101672 -3.5220e+000 -3.3299e+000  1.8330e+000 31338 101387,101574,101646
 3.9000e+000 101695 -8.4904e-001 -3.3431e+000  3.7620e+000 31338 101387,101646,101231
 3.9000e+000 101943 -5.1725e+000 -1.3376e+001  3.9420e-001 30748 101966,101796,101744
 3.9000e+000 101920 -2.4597e+000 -1.7053e+001 -1.7649e-001 30748 101966,101744,101718
 3.9000e+000 101897 -1.1462e+001 -2.3429e+001  3.0931e+000 30748 101718,101848,101822
 3.9000e+000 101874 -6.8208e+000 -1.2931e+001 -6.7299e-001 30748 101744,101796,101770
 3.9000e+000 101992 -5.9770e+000 -1.5886e+001  7.8251e-001 30748 101822,101796,101966
 3.9000e+000 102015 -3.9618e+000 -2.0203e+001  7.0528e-001 30748 101822,101966,101718
 3.9000e+000 102493  3.9451e+000 -7.0868e-002 -1.5405e+000 30344 102516,102173,102147
 3.9000e+000 102470  6.8146e+000  7.7493e+000 -1.6281e+000 30344 102660,102516,102147
 3.9000e+000 102447  7.6343e+000 -1.1908e+000 -6.0618e+000 30344 102588,102199,102173
 3.9000e+000 102424  3.4806e+000  1.1652e+001 -2.2877e+000 30344 102660,102147,102329
 3.9000e+000 102401  9.8758e+000 -3.3959e+000 -1.2377e+001 30344 102199,102277,102251
 3.9000e+000 102378  7.1129e+000  7.2283e+000 -2.0447e+001 30344 102199,102251,102225
 3.9000e+000 102355  2.5184e+000  1.1549e+001  1.7930e-003 30344 102121,102329,102147
 3.9000e+000 102542  6.0298e+000  1.1043e+000 -6.7076e+000 30344 102588,102173,102516
 3.9000e+000 102565  7.2486e+000  7.5235e+000 -8.9417e+000 30344 102277,102516,102303
 3.9000e+000 102614  6.3776e+000 -2.5623e+000 -6.5973e+000 30344 102277,102199,102588
 3.9000e+000 102637  3.6743e+000 -1.7602e+000 -7.7298e+000 30344 102277,102588,102516
 3.9000e+000 102686  3.4735e+000  2.9963e+000 -3.0883e+000 30344 102303,102516,102660
 3.9000e+000 102709  8.0382e-001  7.3306e+000 -3.4255e+000 30344 102303,102660,102329
 3.9000e+000 103294  1.2667e+001 -7.8649e+000  3.5382e+000 29726 103317,103101,103075
 3.9000e+000 103271  1.9416e+001  8.3456e+000  6.3405e+000 29726 103317,103075,102997
 3.9000e+000 103248  5.4462e+000  1.2989e+001  2.3964e+000 29726 102971,103153,102997
 3.9000e+000 103225  1.0568e+001  8.8561e+000  1.2154e+000 29726 103101,103153,103127
 3.9000e+000 103202  1.4184e+001 -1.5420e+001  5.6093e+000 29726 102997,103075,103023
 3.9000e+000 103179  4.7178e-002 -7.7748e+000 -5.0115e+000 29726 103023,103075,103049
 3.9000e+000 103343  9.6083e+000  6.6477e+000  1.3481e+000 29726 103153,103101,103317
 3.9000e+000 103366  1.0895e+001  1.5096e+001  2.2832e+000 29726 103153,103317,102997
 3.9000e+000 103614  6.8403e+000  9.6758e+000  3.9600e+000 29200 103781,103637,103467
 3.9000e+000 103591  7.4024e+000  1.0707e+001  3.8562e-001 29200 103709,103637,103415
 3.9000e+000 103568  7.0319e+000  9.4854e+000  3.3857e-001 29200 103709,103415,103389
 3.9000e+000 103545  5.9381e+000  9.4890e+000  3.9072e+000 29200 103781,103467,103441
 3.9000e+000 103663  5.0145e+000  8.2543e+000  1.9719e+000 29200 103853,103637,103493
 3.9000e+000 103686  7.4247e+000  1.0146e+001  2.9144e+000 29200 103493,103637,103519
 3.9000e+000 103735  7.6881e+000  9.4150e+000  1.0385e+000 29200 103519,103637,103709
 3.9000e+000 103758  7.5338e+000  8.5322e+000  1.0129e+000 29200 103519,103709,103389
 3.9000e+000 103807  5.5649e+000  1.1783e+001  1.3765e+000 29200 103415,103637,103781
 3.9000e+000 103830  2.0132e+000  1.0233e+001  1.6300e+000 29200 103415,103781,103441
 3.9000e+000 103879  1.0725e+001  1.0075e+001  2.4208e+000 29200 103467,103637,103853
 3.9000e+000 104545 -1.1588e+001 -7.9039e+000  9.2389e+000 28860 104274,104352,104326
 3.9000e+000 104522 -2.6966e+001 -8.4793e+000  1.0971e+001 28860 104248,104352,104274
 3.9000e+000 104499 -8.8817e+000  2.3630e+000  4.9940e+000 28860 104248,104404,104352
 3.9000e+000 104476 -1.6593e+001  8.3372e+000  5.9856e+000 28860 104222,104404,104248
 3.9000e+000 104453 -1.7567e+001  3.2017e+000  1.1911e+001 28860 104352,104404,104378
 3.9000e+000 104430 -2.0063e+001 -1.1156e+001  9.5952e+000 28860 104274,104326,104300
 3.9000e+000 104744 -1.5247e-001 -1.3002e+001 -3.0465e+000 28456 104839,104767,104646
 3.9000e+000 104721 -3.6093e+000 -1.1951e+001 -4.2259e-001 28456 104767,104594,104568
 3.9000e+000 104698 -2.1519e+000 -7.0466e+000  1.3527e+000 28456 104839,104646,104620
 3.9000e+000 104793 -7.6382e+000 -1.5053e+001 -3.4697e+000 28456 104672,104646,104767
 3.9000e+000 104816  1.2725e+000 -8.9934e+000 -2.9035e+000 28456 104911,104767,104568
 3.9000e+000 104865 -1.7301e+000 -8.9636e+000  5.4580e-001 28456 104594,104767,104839
 3.9000e+000 104888  5.8949e-001  3.5001e+000  9.7746e-001 28456 105041,104839,104620
 3.9000e+000 104937 -4.8633e+000 -2.0900e+001 -7.2709e-001 28456 104672,104767,104911
 3.9000e+000 105067  8.6400e-001 -8.4458e+000  2.1070e+000 28456 104594,104839,105041
 3.9000e+000 105573 -4.9878e+000 -1.3754e+001 -2.5111e-001 28094 105812,105596,105328
 3.9000e+000 105550 -3.8083e+000 -1.2514e+001  1.9237e+000 28094 105596,105276,105250
 3.9000e+000 105527 -6.0631e+000 -1.8738e+001 -1.3303e+000 28094 105740,105668,105432
 3.9000e+000 105504 -7.8588e+000 -2.1518e+001 -4.2700e-001 28094 105740,105432,105380
 3.9000e+000 105481 -3.8845e+000 -1.4441e+001  3.0195e-001 28094 105812,105328,105302
 3.9000e+000 105458 -7.9230e+000 -2.5524e+001  5.9097e-001 28094 105380,105432,105406
 3.9000e+000 105622  5.2892e-001 -7.1202e+000 -2.7046e+000 28094 105354,105328,105596
 3.9000e+000 105645 -4.1345e+000 -9.7629e+000  2.1230e+000 28094 105668,105354,105596
 3.9000e+000 105694 -3.4443e+000 -1.4006e+001 -2.0737e-001 28094 105250,105432,105668
 3.9000e+000 105717 -4.6778e+000 -1.6922e+001  2.1621e+000 28094 105250,105668,105596
 3.9000e+000 105766 -8.4275e+000 -1.6803e+001  4.2642e+000 28094 105354,105668,105740
 3.9000e+000 105789 -1.0902e+001 -2.1634e+001  5.3032e+000 28094 105354,105740,105380
 3.9000e+000 105838 -3.4257e+000 -1.3710e+001  2.5330e-001 28094 105276,105596,105812
 3.9000e+000 105861  2.5334e+000 -1.1776e+001  6.7177e-001 28094 105276,105812,105302
 3.9000e+000 106367  4.8995e+000 -1.2362e+001 -2.7104e+000 27390 106070,106122,106096
 3.9000e+000 106344  1.4207e+001 -8.2813e+000 -6.1129e+000 27390 106070,106226,106122
 3.9000e+000 106321  1.9292e+001 -2.0432e+000 -7.6862e+000 27390 106174,106226,106200
 3.9000e+000 106298  1.3626e+001 -1.2598e+001 -4.7899e+000 27390 106122,106226,106174
 3.9000e+000 106275  1.7672e+001 -1.0809e+001 -3.5144e+000 27390 106122,106174,106148
 3.9000e+000 106252 -2.7800e+000 -1.5245e+001 -5.1882e+000 27390 106044,106226,106070
 3.9000e+000 106615  1.2523e+001  2.1363e+000  6.2436e-001 26978 106638,106494,106416
 3.9000e+000 106592  1.3477e+001 -5.9684e-001  1.2071e-001 26978 106638,106416,106390
 3.9000e+000 106569  1.3256e+001  2.2966e+000  2.7172e-001 26978 106416,106494,106442
 3.9000e+000 106546  1.0766e+001  2.9979e+000  1.2389e+000 26978 106442,106494,106468
 3.9000e+000 106664  1.2067e+001 -5.6679e-001  1.7454e+000 26978 106520,106494,106638
 3.9000e+000 106687  1.3662e+001 -2.6353e+000  4.6765e-001 26978 106520,106638,106390
 3.9000e+000 106837 -9.9980e-002 -4.9242e+001 -5.6778e-002 26524 106710,106762,106736
 3.9000e+000 106814 -9.2572e-002 -4.3427e+001 -1.3120e-002 26524 106710,106788,106762
 3.9000e+000 107426 -5.0187e+000 -5.3783e+000  1.9671e+000 26120 107129,107207,107155
 3.9000e+000 107403 -5.9036e+000 -8.7714e-001  2.3460e+000 26120 107129,107285,107207
 3.9000e+000 107380 -8.0063e+000 -5.2714e-001 -1.1035e+000 26120 107207,107285,107259
 3.9000e+000 107357 -4.5327e+000 -6.8134e+000  4.8628e+000 26120 107155,107207,107181
 3.9000e+000 107334 -1.5389e+001 -6.8113e+000 -1.7220e+000 26120 107103,107285,107129
 3.9000e+000 107311 -1.0380e+001  6.3417e+000  8.1202e-001 26120 107207,107259,107233
 3.9000e+000 107755 -7.9176e+000 -1.0414e+001  1.3555e-001 25758 107556,107634,107608
 3.9000e+000 107732 -1.5514e+000 -4.8507e+000 -2.2388e+000 25758 107556,107660,107634
 3.9000e+000 107709 -8.5187e+000 -1.1089e+001 -1.7783e-001 25758 107556,107608,107582
 3.9000e+000 107686  6.7704e-001  1.8642e-001 -5.0026e-001 25758 107530,107660,107556
 3.9000e+000 108438 -5.9293e+000 -1.8425e+001  1.1330e+000 25468 108121,108199,108173
 3.9000e+000 108415  1.1590e+000 -7.2567e-001  2.0790e+000 25468 108095,108199,108121
 3.9000e+000 108392  2.1167e+000 -7.0565e+000  2.1689e+000 25468 108095,108251,108199
 3.9000e+000 108369  2.2472e-003 -7.4718e+000  3.7670e+000 25468 108069,108251,108095
 3.9000e+000 108346 -3.8458e+000 -8.9598e+000 -8.8692e-001 25468 108199,108251,108225
 3.9000e+000 108323  3.9687e+000 -2.8468e+000  5.6706e+000 25468 108017,108251,108069
 3.9000e+000 108300 -4.8319e+000 -1.4451e+001  1.3203e+000 25468 108121,108173,108147
 3.9000e+000 108277 -2.6238e+000  5.1618e-001  1.2248e+001 25468 108017,108069,108043
 3.9000e+000 108588 -1.1496e+000 -2.3945e+000 -1.4865e+000 25064 108611,108513,108487
 3.9000e+000 108565  3.4005e-001 -6.0856e+000 -4.2089e+000 25064 108683,108611,108487
 3.9000e+000 108637  1.5380e-001 -4.8994e+000 -2.6357e+000 25064 108539,108513,108611
 3.9000e+000 108660 -5.5308e+000 -1.4045e+001 -8.3721e+000 25064 108539,108611,108461
 3.9000e+000 108709 -2.9246e-001 -3.8099e+000 -5.2686e+000 25064 108461,108611,108683
 3.9000e+000 109345 -1.3282e+001 -1.5134e+001  6.8425e+000 24410 108999,109155,109103
 3.9000e+000 109322 -5.0126e+000 -1.4212e+001  2.7932e+000 24410 108973,109155,108999
 3.9000e+000 109299 -9.6444e+000 -3.0756e+001  7.3010e+000 24410 109103,109155,109129
 3.9000e+000 109276 -3.0418e+000 -1.0060e+001  1.0592e+000 24410 108973,109181,109155
 3.9000e+000 109253 -1.4114e+001 -2.5252e+001  7.1916e+000 24410 109025,109103,109077
 3.9000e+000 109230 -1.9833e+001 -2.5338e+001  1.0571e+001 24410 108999,109103,109025
 3.9000e+000 109207 -9.0101e+000 -2.1181e+001  5.4021e+000 24410 109025,109077,109051
 3.9000e+000 109723 -5.8763e+000 -1.6001e+001  3.4880e+000 23856 109475,109579,109553
 3.9000e+000 109700 -9.7752e+000 -1.8106e+001  5.5471e+000 23856 109475,109605,109579
 3.9000e+000 109677 -4.1983e+000 -1.2876e+001  5.2573e+000 23856 109475,109553,109527
 3.9000e+000 109654 -1.5031e+001 -2.0367e+001  5.5743e+000 23856 109449,109605,109475
 3.9000e+000 109631  3.8671e+000 -8.5496e+000  7.1294e+000 23856 109475,109527,109501
 3.9000e+000 110101 -1.7487e+000 -1.6304e+001 -2.7425e+000 23566 109853,109931,109879
 3.9000e+000 110078 -2.1005e+000 -1.4107e+001 -2.8407e-001 23566 109827,109931,109853
 3.9000e+000 110055 -1.5512e+001 -2.0717e+001  3.7934e+000 23566 109827,109983,109931
 3.9000e+000 110032 -4.8683e+000 -1.2354e+001  1.1555e+000 23566 109879,109931,109905
 3.9000e+000 110009 -7.9171e+000 -1.2036e+001  1.2671e+001 23566 109931,109983,109957
 3.9000e+000 110735  1.4000e+001  2.0253e+001 -2.4164e+000 23162 110415,110571,110519
 3.9000e+000 110712  1.2242e+001  1.5753e+001 -3.3137e+000 23162 110389,110571,110415
 3.9000e+000 110689  1.0569e+001  1.8520e+001 -3.4973e+000 23162 110415,110519,110493
 3.9000e+000 110666  1.2987e+001  1.9750e+001  2.6447e+000 23162 110363,110571,110389
 3.9000e+000 110643  1.3523e+001  2.3924e+001 -1.7764e+000 23162 110441,110493,110467
 3.9000e+000 110620  1.3507e+001  2.2221e+001 -5.0361e+000 23162 110415,110493,110441
 3.9000e+000 110597  1.7804e+001  2.6085e+001 -4.0552e+000 23162 110519,110571,110545
 3.9000e+000 111211 -5.1906e+000 -1.5561e+001 -8.9317e-001 22708 111378,111306,111021
 3.9000e+000 111188 -1.6882e-001 -1.6593e+001  2.2868e-001 22708 111234,110969,110917
 3.9000e+000 111165 -1.4305e+000 -1.5471e+001  2.7239e-001 22708 111450,111234,110917
 3.9000e+000 111142 -5.9540e+000 -1.5643e+001 -3.3729e+000 22708 111378,111021,110995
 3.9000e+000 111119 -1.4005e+000 -1.4650e+001 -4.6873e-001 22708 111450,110917,110865
 3.9000e+000 111096  6.0455e+000 -1.8997e+001  2.0938e+000 22708 110917,110969,110943
 3.9000e+000 111073  2.4878e+000 -2.5683e+001 -7.5185e+000 22708 110865,110917,110891
 3.9000e+000 111260  4.1603e-001 -1.5566e+001 -1.6453e-002 22708 111306,110969,111234
 3.9000e+000 111283 -1.0685e+000 -1.3357e+001 -4.8112e-001 22708 111047,111234,110839
 3.9000e+000 111332 -7.7673e-001 -2.1541e+001  2.5647e+000 22708 111047,111021,111306
 3.9000e+000 111355 -2.2310e+000 -1.6448e+001 -1.4292e+000 22708 111047,111306,111234
 3.9000e+000 111404 -4.4831e-001 -1.5470e+001 -1.9382e+000 22708 110969,111306,111378
 3.9000e+000 111427 -1.6711e+000 -1.4613e+001 -2.9415e+000 22708 110969,111378,110995
 3.9000e+000 111476 -8.3794e-001 -1.4297e+001 -7.1136e-001 22708 110839,111234,111450
 3.9000e+000 111499 -3.9707e-001 -1.3008e+001 -1.5100e+000 22708 110839,111450,110865
 3.9000e+000 111600  1.2150e+001  9.9573e+000  2.9325e+000 22460 111522,111574,111548
 3.9000e+000 112059  2.0783e+001  1.0956e+001 -2.1434e+000 22056 111811,111889,111863
 3.9000e+000 112036  2.6186e+001  1.6096e+001 -4.2847e+000 22056 111811,111915,111889
 3.9000e+000 112013  2.0888e+001  1.4230e+001 -4.2346e+000 22056 111785,111915,111811
 3.9000e+000 111990  1.7527e+001  2.1327e+001 -1.2224e+001 22056 111785,111941,111915
 3.9000e+000 111967  2.3389e+001  1.6683e+001 -3.0690e+000 22056 111811,111863,111837
 3.9000e+000 112486  2.6998e+001  1.8324e+001 -3.7240e+000 21594 112509,112267,112215
 3.9000e+000 112463  1.1731e+001  1.1171e+001  8.5945e-002 21594 112509,112215,112163
 3.9000e+000 112440  2.0626e+001  2.3026e+001 -1.6283e+001 21594 112581,112293,112267
 3.9000e+000 112417  1.6236e+001  7.7635e+000  6.3453e-001 21594 112215,112267,112241
 3.9000e+000 112394  1.4154e+001  1.5162e+001 -1.4381e+000 21594 112163,112345,112319
 3.9000e+000 112371  1.2662e+001  1.6148e+001 -5.9678e-001 21594 112163,112215,112189
 3.9000e+000 112535  2.8466e+001  1.7393e+001 -9.4605e+000 21594 112581,112267,112509
 3.9000e+000 112558  1.9852e+001  2.0267e+001 -3.8456e+000 21594 112319,112509,112163
 3.9000e+000 112607  4.9529e+000  1.7227e+001 -1.6419e+001 21594 112319,112293,112581
 3.9000e+000 112630  1.4349e+001  1.3187e+001 -7.7843e+000 21594 112319,112581,112509
 3.9000e+000 112900 -5.4329e+000 -1.7208e+001 -3.2869e-001 20974 112675,112779,112701
 3.9000e+000 112877 -3.7703e+000 -1.8023e+001  2.2653e-001 20974 112675,112805,112779
 3.9000e+000 112854 -1.2599e+000 -1.2851e+001  1.3863e+000 20974 112701,112779,112753
 3.9000e+000 112831 -1.6860e+000 -5.9213e+000 -2.9866e+000 20974 112701,112753,112727
 3.9000e+000 113359  5.7980e+000 -6.8206e+000  3.2244e-001 20520 113454,113137,113111
 3.9000e+000 113336  1.0746e+001 -1.2405e+001 -3.8017e+000 20520 113454,113111,113085
 3.9000e+000 113313  6.6594e+000  6.9451e-001  8.9525e+000 20520 113382,113163,113137
 3.9000e+000 113290  3.3340e+000 -1.5213e+001  1.5999e+000 20520 113526,113382,113137
 3.9000e+000 113267 -4.5360e+000 -3.2174e+001  1.1941e+000 20520 113189,113241,113215
 3.9000e+000 113408 -5.2504e-001 -1.5111e+001  6.4338e+000 20520 113189,113163,113382
 3.9000e+000 113431 -1.7190e-001 -1.9679e+001 -2.6884e+000 20520 113189,113382,113241
 3.9000e+000 113480  3.2080e+000 -1.3336e+001  1.4047e+000 20520 113526,113137,113454
 3.9000e+000 113503  6.8516e+000 -1.7065e+001 -1.6740e+000 20520 113241,113454,113085
 3.9000e+000 113552  3.7359e+000 -1.2211e+001  5.6658e-001 20520 113241,113382,113526
 3.9000e+000 113575  3.2609e+000 -1.1058e+001  1.8377e-001 20520 113241,113526,113454
 3.9000e+000 113904 -2.7295e+000 -1.8412e+001 -8.4317e-001 19858 113705,113783,113757
 3.9000e+000 113881 -4.3603e+000 -1.8336e+001 -2.6879e-001 19858 113705,113809,113783
 3.9000e+000 113858 -1.2721e+000 -1.5882e+001 -4.4163e+000 19858 113679,113809,113705
 3.9000e+000 113835  4.6536e-002 -1.1306e+001 -1.1276e-001 19858 113705,113757,113731
 3.9000e+000 114152 -6.3084e-001  7.5132e-001 -3.4855e+000 19454 114175,114005,113979
 3.9000e+000 114129 -7.2126e-001  1.1356e-001 -3.5602e+000 19454 114175,113979,114057
 3.9000e+000 114106 -3.2891e+000 -6.2389e+000 -4.0072e+000 19454 113927,114057,113979
 3.9000e+000 114083 -3.3873e+000  7.0695e+000 -2.1981e-001 19454 113927,113979,113953
 3.9000e+000 114201  2.1335e+000  1.6788e+000 -5.1155e-001 19454 114031,114005,114175
 3.9000e+000 114224 -4.4118e-001 -3.5840e-001 -3.5083e+000 19454 114031,114175,114057
 3.9000e+000 114472  1.0866e-001 -2.6550e+001  6.2437e+000 19000 114495,114273,114247
 3.9000e+000 114449 -6.3760e+000 -2.5057e+001  1.9373e+000 19000 114495,114247,114325
 3.9000e+000 114426 -1.1591e+001 -2.4919e+001  6.7527e+000 19000 114247,114377,114325
 3.9000e+000 114403 -1.1006e+001 -2.1304e+001  3.8601e+000 19000 114325,114377,114351
 3.9000e+000 114521  1.8441e+001 -1.9651e+001  1.0561e+001 19000 114299,114273,114495
 3.9000e+000 114544 -1.7700e+000 -2.8701e+001  4.6548e+000 19000 114299,114495,114325
 3.9000e+000 114948 -3.9185e+000 -2.0445e+001 -1.5990e+000 18560 114674,114726,114700
 3.9000e+000 114925 -8.3111e-001 -1.6152e+001 -2.9501e+000 18560 114674,114830,114726
 3.9000e+000 114902 -9.6796e-001 -1.6684e+001 -3.9738e+000 18560 114726,114830,114804
 3.9000e+000 114879 -5.6748e+000 -3.6943e+001 -7.7162e+000 18560 114726,114804,114752
 3.9000e+000 114856  3.5364e+000 -5.3304e+001 -8.6617e+000 18560 114752,114804,114778
 3.9000e+000 115098 -5.3750e+000 -3.4572e+001  2.0738e+000 18156 114971,115023,114997
 3.9000e+000 115075 -5.4617e+000 -8.0737e+000  1.5351e+000 18156 114971,115049,115023
 3.9000e+000 115248 -1.4535e+001 -4.7063e+001 -1.0399e+000 17602 115147,115199,115173
 3.9000e+000 115225 -1.2306e+000 -4.0833e+001  1.7360e+000 17602 115121,115199,115147
 3.9000e+000 115652  2.4964e+001 -1.9450e+001 -1.6382e+000 17354 115430,115534,115508
 3.9000e+000 115629  1.4904e+001 -3.2047e+001  2.7495e+000 17354 115404,115534,115430
 3.9000e+000 115606  2.8209e+001 -6.0740e+000  8.7436e+000 17354 115378,115534,115404
 3.9000e+000 115583  2.8515e+001 -2.8763e+001 -4.5683e+000 17354 115456,115508,115482
 3.9000e+000 115560  1.7834e+001 -3.8038e+001 -5.6842e-001 17354 115430,115508,115456
 3.9000e+000 115873 -4.5952e+000 -2.3922e+001 -8.5192e-001 16950 115749,115801,115775
 3.9000e+000 115850 -8.9557e+000 -2.2344e+001 -2.2188e-001 16950 115697,115801,115749
 3.9000e+000 115827 -8.3719e+000 -2.3947e+001  7.0809e-001 16950 115697,115749,115723
 3.9000e+000 116023 -8.8210e+000 -2.1059e+001 -2.7911e+000 16496 115922,115974,115948
 3.9000e+000 116000 -7.8462e+000 -1.4308e+001 -2.0437e-001 16496 115896,115974,115922
 3.9000e+000 116126  2.1195e+001  9.0346e-001  7.8843e-001 16298 116048,116100,116074
 3.9000e+000 116278  4.9631e+000 -2.5574e+001 -5.7395e-001 15892 116151,116203,116177
 3.9000e+000 116255  1.3861e+000 -3.3375e+001  3.0634e-001 15892 116151,116229,116203
 3.9000e+000 116430  1.9596e+001  1.0302e+001 -2.3644e-001 15545 116303,116355,116329
 3.9000e+000 116407  1.6074e+001 -5.4464e-001 -5.4194e+000 15545 116303,116381,116355
 3.9000e+000 116785  6.8330e+000 -9.6413e+000  4.8183e+000 421 116612,116690,116664
 3.9000e+000 116762  2.0524e+000 -2.0846e+001  3.0450e+000 421 116560,116690,116612
 3.9000e+000 116739 -2.9719e+000 -2.3318e+001  3.9086e+000 421 116560,116612,116586
 3.9000e+000 116716 -2.8336e+000 -2.3676e+001  4.0663e-001 421 116612,116664,116638
 4.0000e+000 68048 -3.8746e+001  3.4943e+001 -4.1154e-001 67642 67898,67950,67924
 4.0000e+000 68025 -4.8860e+001  1.5323e+001  3.2413e+000 67642 67898,67976,67950
 4.0000e+000 68002 -2.2972e+001  2.5810e+001  2.4508e+000 67642 67872,67976,67898
 4.0000e+000 68367 -3.3956e+001 -2.8330e+001  1.3049e+000 67444 68119,68223,68197
 4.0000e+000 68344 -4.2938e+001 -3.4590e+001  6.4068e+000 67444 68119,68249,68223
 4.0000e+000 68321 -6.0724e+001 -3.5422e+001 -5.0655e+000 67444 68093,68249,68119
 4.0000e+000 68298 -3.1296e+001 -2.4184e+001  5.7605e+000 67444 68119,68197,68171
 4.0000e+000 68275 -2.3995e+001 -2.5928e+001  3.9958e+000 67444 68119,68171,68145
 4.0000e+000 68468 -4.8301e+001 -1.6555e+001 -1.8315e+000 67268 68390,68442,68416
 4.0000e+000 68765 -3.9196e+001 -1.4376e+000  1.3283e-001 66956 68788,68517,68491
 4.0000e+000 68742 -3.4898e+001 -3.3654e+000  5.2751e-001 66956 68788,68491,68621
 4.0000e+000 68719 -3.7803e+001 -1.9640e+000 -3.7158e+000 66956 68543,68621,68569
 4.0000e+000 68696 -3.3795e+001 -9.6464e-001 -2.2269e-001 66956 68491,68647,68621
 4.0000e+000 68673 -4.2870e+001  2.5524e+001  1.3992e+000 66956 68569,68621,68595
 4.0000e+000 68814 -4.2818e+001 -2.3213e+000  6.2214e-001 66956 68543,68517,68788
 4.0000e+000 68837 -3.7479e+001 -3.4493e+000  8.3073e-001 66956 68543,68788,68621
 4.0000e+000 69107 -3.3826e+001 -3.9688e+001  5.9047e-001 66758 68882,68986,68908
 4.0000e+000 69084 -3.2179e+000 -2.5795e+001  3.7750e+000 66758 68882,69012,68986
 4.0000e+000 69061 -2.7435e+001 -4.8640e+001  1.8490e+000 66758 68908,68960,68934
 4.0000e+000 69038 -3.9238e+001 -4.3891e+001  2.9834e+000 66758 68908,68986,68960
 4.0000e+000 69308 -4.5286e+001 -5.0405e+000  1.5446e-001 66560 69331,69184,69158
 4.0000e+000 69285 -4.2970e+001 -9.1454e+000 -5.4368e-001 66560 69331,69158,69132
 4.0000e+000 69262 -4.8360e+001 -2.3231e+001  5.9820e-001 66560 69184,69236,69210
 4.0000e+000 69357 -4.4110e+001 -8.7862e+000  1.6524e+000 66560 69236,69184,69331
 4.0000e+000 69380 -4.3829e+001 -1.4851e+001  1.8619e+000 66560 69236,69331,69132
 4.0000e+000 69554 -4.6939e+001 -2.6696e+001  2.4224e+000 66270 69427,69479,69453
 4.0000e+000 69531 -3.9762e+001 -9.9247e+000  5.7331e+000 66270 69427,69505,69479
 4.0000e+000 69804 -3.7753e+001 -1.9754e+001  2.6123e+000 66066 69579,69683,69657
 4.0000e+000 69781 -5.2317e+001 -2.5291e+001 -4.2539e+000 66066 69579,69709,69683
 4.0000e+000 69758 -3.5211e+001 -1.4498e+001  1.5801e+000 66066 69579,69657,69631
 4.0000e+000 69735 -3.1989e+001 -6.1639e+000  1.0337e+000 66066 69579,69631,69605
 4.0000e+000 70257 -3.1454e+001 -3.8022e+001 -5.2038e-001 65776 69960,70090,69986
 4.0000e+000 70234 -3.0750e+001 -3.8500e+001  9.3627e-001 65776 69934,70090,69960
 4.0000e+000 70211 -3.5874e+001 -4.1904e+001 -7.8781e-001 65776 69934,70116,70090
 4.0000e+000 70188 -3.6127e+001 -4.2049e+001  0.0000e+000 65776 70038,70090,70064
 4.0000e+000 70165 -3.4290e+001 -4.2125e+001  8.1279e-001 65776 69986,70090,70038
 4.0000e+000 70142 -3.3945e+001 -4.3962e+001  4.4807e-001 65776 69986,70038,70012
 4.0000e+000 70456 -1.9986e+001 -2.6243e+001 -6.3732e+000 65372 70479,70306,70280
 4.0000e+000 70433 -2.9533e+001 -3.6726e+001 -1.0905e+000 65372 70479,70280,70384
 4.0000e+000 70410 -3.4727e+001 -3.3091e+001  3.0876e+000 65372 70551,70332,70306
 4.0000e+000 70505 -3.1497e+001 -2.8192e+001  5.3126e-002 65372 70551,70306,70479
 4.0000e+000 70528 -2.9253e+001 -3.2669e+001  1.4364e+000 65372 70358,70479,70384
 4.0000e+000 70577 -2.8881e+001 -3.9278e+001  3.7879e+000 65372 70358,70332,70551
 4.0000e+000 70600 -2.8877e+001 -3.6980e+001  1.5999e+000 65372 70358,70551,70479
 4.0000e+000 70821 -4.3206e+001 -2.1775e+001 -4.8548e+000 65174 70645,70723,70671
 4.0000e+000 70798 -2.1316e+001 -1.0824e+001  2.7371e-001 65174 70645,70749,70723
 4.0000e+000 70775 -4.1178e+001 -1.1163e+001 -6.9299e+000 65174 70671,70723,70697
 4.0000e+000 71071 -2.4885e+001  2.5952e+001  6.4129e-002 64770 71094,70898,70872
 4.0000e+000 71048 -2.0822e+001  2.8069e+001 -1.1137e+000 64770 71166,71094,70872
 4.0000e+000 71025 -1.7882e+001  2.9695e+001 -4.6471e-001 64770 71166,70872,70846
 4.0000e+000 71002 -1.8790e+001  2.4156e+001  2.8619e+000 64770 70898,70950,70924
 4.0000e+000 71120 -2.2370e+001  2.3157e+001  2.7038e+000 64770 70950,70898,71094
 4.0000e+000 71143 -2.4127e+001  2.6533e+001  3.6604e-001 64770 70950,71094,70976
 4.0000e+000 71192 -2.3595e+001  3.1355e+001  1.5985e+000 64770 70976,71094,71166
 4.0000e+000 71215 -2.1979e+001  3.2132e+001  1.8385e+000 64770 70976,71166,70846
 4.0000e+000 71514 -3.3472e+001 -4.2425e+001  9.7374e-001 64572 71681,71537,71318
 4.0000e+000 71491 -2.9843e+001 -3.8589e+001  8.2464e-001 64572 71537,71266,71240
 4.0000e+000 71468 -3.6272e+001 -3.8000e+001 -1.5813e+000 64572 71609,71396,71370
 4.0000e+000 71445 -3.3382e+001 -4.2847e+001  1.1433e+000 64572 71681,71318,71292
 4.0000e+000 71422 -3.5320e+001 -4.5717e+001  6.3612e+000 64572 71753,71344,71318
 4.0000e+000 71563 -3.5938e+001 -4.1475e+001  3.3049e+000 64572 71753,71318,71537
 4.0000e+000 71586 -3.3934e+001 -4.1056e+001  2.0534e+000 64572 71609,71370,71537
 4.0000e+000 71635 -3.1695e+001 -2.7550e+001 -2.2908e+000 64572 71240,71396,71609
 4.0000e+000 71658 -3.1431e+001 -3.4497e+001  1.7615e+000 64572 71240,71609,71537
 4.0000e+000 71707 -3.4391e+001 -4.0502e+001  6.4062e-001 64572 71266,71537,71681
 4.0000e+000 71730 -3.5235e+001 -4.1467e+001  1.2063e+000 64572 71266,71681,71292
 4.0000e+000 71779 -2.9315e+001 -4.1685e+001  3.9941e+000 64572 71370,71344,71753
 4.0000e+000 71802 -3.2535e+001 -3.9947e+001  2.6892e+000 64572 71370,71753,71537
 4.0000e+000 72052 -3.3306e+001  7.9556e+000 -3.7376e+000 64374 72075,71879,71827
 4.0000e+000 72029 -3.1113e+001  8.7873e+000 -3.6935e+000 64374 72147,72075,71827
 4.0000e+000 72006 -2.7143e+001  6.6323e+000 -6.7645e+000 64374 72147,71827,71957
 4.0000e+000 71983 -4.2759e+001  1.6611e+001  3.5089e+000 64374 71827,71879,71853
 4.0000e+000 72101 -3.2892e+001  9.6001e+000 -4.0271e+000 64374 71905,71879,72075
 4.0000e+000 72124 -3.4747e+001  6.8575e+000 -1.9314e+000 64374 71905,72075,71931
 4.0000e+000 72173 -3.4771e+001  2.3187e+000 -2.2297e+000 64374 71931,72075,72147
 4.0000e+000 72196 -3.1705e+001 -2.7487e-001 -4.6838e+000 64374 71931,72147,71957
 4.0000e+000 72649 -2.9394e+001 -3.5572e+001 -4.5737e-001 63948 72352,72508,72482
 4.0000e+000 72626 -2.9045e+001 -3.4815e+001  3.8981e-001 63948 72326,72508,72352
 4.0000e+000 72603 -2.8373e+001 -3.8800e+001 -1.9267e-001 63948 72672,72430,72378
 4.0000e+000 72580 -2.9882e+001 -4.1720e+001  8.4252e-001 63948 72672,72378,72352
 4.0000e+000 72557 -2.8239e+001 -3.8506e+001 -7.6387e-001 63948 72744,72456,72430
 4.0000e+000 72534 -2.4930e+001 -4.2482e+001 -1.0941e+001 63948 72378,72430,72404
 4.0000e+000 72698 -2.8988e+001 -3.8374e+001 -6.1446e-001 63948 72744,72430,72672
 4.0000e+000 72721 -2.8647e+001 -3.8513e+001 -1.4368e-001 63948 72482,72672,72352
 4.0000e+000 72770 -2.7517e+001 -3.8580e+001 -9.3486e-001 63948 72482,72456,72744
 4.0000e+000 72793 -2.8244e+001 -3.8292e+001 -9.7890e-001 63948 72482,72744,72672
 4.0000e+000 72894 -3.2173e+001 -4.7590e+001 -3.2306e+000 63494 72816,72868,72842
 4.0000e+000 73093  3.0889e+000  3.2246e+001  2.9634e+000 63132 72943,72995,72969
 4.0000e+000 73070 -2.5209e+001  1.9938e+001 -3.1254e+000 63132 72943,73021,72995
 4.0000e+000 73047 -2.1690e+001  2.5404e+001 -1.4733e+000 63132 72917,73021,72943
 4.0000e+000 73294 -3.4581e+001 -2.4909e+001 -2.6967e+000 62792 73317,73144,73118
 4.0000e+000 73271 -3.7133e+001 -3.1781e+001 -4.1735e+000 62792 73317,73118,73222
 4.0000e+000 73248 -3.3438e+001 -1.3112e+001  1.6894e+000 62792 73144,73196,73170
 4.0000e+000 73343 -3.4298e+001 -1.8047e+001  4.0798e+000 62792 73196,73144,73317
 4.0000e+000 73366 -3.8424e+001 -2.8273e+001  2.7264e+000 62792 73196,73317,73222
 4.0000e+000 73616 -3.2548e+001 -2.4162e+001  3.0700e+000 62388 73639,73417,73391
 4.0000e+000 73593 -3.3321e+001 -2.5993e+001  2.9423e+000 62388 73711,73639,73391
 4.0000e+000 73570 -3.1523e+001 -2.8948e+001  2.3864e+000 62388 73711,73391,73521
 4.0000e+000 73547 -2.8955e+001 -2.1962e+001  5.2057e+000 62388 73469,73521,73495
 4.0000e+000 73665 -3.4284e+001 -2.5023e+001  2.2245e+000 62388 73443,73417,73639
 4.0000e+000 73688 -3.2288e+001 -2.2821e+001  3.1100e+000 62388 73443,73639,73469
 4.0000e+000 73737 -3.0867e+001 -2.3624e+001  3.9104e+000 62388 73469,73639,73711
 4.0000e+000 73760 -2.9315e+001 -2.6053e+001  3.3837e+000 62388 73469,73711,73521
 4.0000e+000 74010 -2.8628e+001 -6.2712e+000  5.1562e+000 61848 74033,73837,73811
 4.0000e+000 73987 -3.8367e+001 -5.6672e+000 -1.1997e+000 61848 74033,73811,73785
 4.0000e+000 73964 -3.6764e+001 -1.3468e+001 -4.2546e+000 61848 73837,73915,73889
 4.0000e+000 73941 -3.1785e+001 -1.3035e+000 -2.2613e+000 61848 73837,73889,73863
 4.0000e+000 74059 -2.7611e+001 -1.0478e+001  2.6922e+000 61848 73915,73837,74033
 4.0000e+000 74082 -2.8736e+001 -1.4128e+001  4.7840e-001 61848 73915,74033,73785
 4.0000e+000 74283 -2.5366e+001  8.1640e+000 -5.2327e+000 61444 74306,74133,74107
 4.0000e+000 74260 -2.7686e+001  4.2913e+000 -3.1264e+000 61444 74306,74107,74211
 4.0000e+000 74237 -2.8741e+001  6.7491e+000 -2.0057e+000 61444 74378,74185,74159
 4.0000e+000 74332 -2.7884e+001  7.1661e+000 -3.1716e+000 61444 74159,74133,74306
 4.0000e+000 74355 -2.7971e+001  6.5556e+000 -1.7996e+000 61444 74378,74159,74306
 4.0000e+000 74404 -2.8515e+001  5.9230e+000 -1.1433e+000 61444 74211,74185,74378
 4.0000e+000 74427 -2.9203e+001  5.7146e+000 -1.3499e+000 61444 74211,74378,74306
 4.0000e+000 74628 -2.6085e+001 -7.0827e+000  4.6280e+000 60990 74478,74530,74504
 4.0000e+000 74605 -3.0597e+001 -1.4244e+001 -5.0923e-001 60990 74452,74530,74478
 4.0000e+000 74582 -3.6447e+001 -2.6883e+001  5.2956e+000 60990 74452,74556,74530
 4.0000e+000 75089  3.0591e+000  2.0028e+001 -9.5537e+000 60486 75112,74945,74919
 4.0000e+000 75066 -4.5934e+000  1.3819e+001 -3.8400e+000 60486 75112,74919,74867
 4.0000e+000 75043  1.6649e-001  2.3897e+001  5.2633e+000 60486 74841,74971,74867
 4.0000e+000 75020 -5.5357e+000  9.1435e+000  2.3182e+000 60486 74867,74919,74893
 4.0000e+000 74997 -1.7465e+001  9.5895e+000 -3.2569e+000 60486 74815,74971,74841
 4.0000e+000 75138 -6.3212e+000  1.7969e+001 -5.5235e+000 60486 74971,74945,75112
 4.0000e+000 75161 -9.9052e+000  1.7390e+001 -9.7801e-001 60486 74971,75112,74867
 4.0000e+000 75409 -2.5956e+001 -3.4686e+000  1.3333e+000 59932 75576,75432,75288
 4.0000e+000 75386 -3.1476e+001 -2.9674e+000 -6.0832e+000 59932 75504,75314,75288
 4.0000e+000 75363 -2.4744e+001  9.2322e+000  3.4186e+000 59932 75432,75236,75210
 4.0000e+000 75340 -1.9085e+001  2.2184e+000  4.9496e+000 59932 75576,75288,75262
 4.0000e+000 75458 -3.1635e+001 -2.7811e+000 -6.1163e+000 59932 75504,75288,75432
 4.0000e+000 75481 -2.7488e+001  3.7333e+000 -2.7795e+000 59932 75184,75432,75210
 4.0000e+000 75530 -4.5915e+001 -1.5388e+001  2.2604e+000 59932 75184,75314,75504
 4.0000e+000 75553 -2.9637e+001 -3.0735e+000 -4.6486e+000 59932 75184,75504,75432
 4.0000e+000 75602 -2.9533e+001  3.9516e+000  1.3013e+000 59932 75236,75432,75576
 4.0000e+000 75625 -3.0051e+001  4.7212e+000  1.8908e+000 59932 75236,75576,75262
 4.0000e+000 75873 -2.4568e+001 -1.4271e+001  2.8096e+000 59478 75674,75752,75700
 4.0000e+000 75850 -2.8226e+001 -1.5874e+001  1.7343e+000 59478 75648,75752,75674
 4.0000e+000 75827 -3.0281e+001 -1.5728e+001  2.3723e+000 59478 75700,75752,75726
 4.0000e+000 75804 -2.5086e+001 -2.4224e+001  3.2743e+000 59478 75648,75778,75752
 4.0000e+000 76206 -2.8284e+001 -2.7732e+001  6.2456e+000 59024 75981,76059,76007
 4.0000e+000 76183 -2.3146e+001 -2.5586e+001  4.9735e+000 59024 75981,76111,76059
 4.0000e+000 76160 -3.1550e+001 -2.8004e+001  5.8897e+000 59024 76007,76059,76033
 4.0000e+000 76137 -2.2644e+001 -3.4032e+001  1.2399e+001 59024 76059,76111,76085
 4.0000e+000 76761 -6.7058e+000  2.7445e+001  1.6830e+001 58562 76389,76441,76415
 4.0000e+000 76738 -1.7837e+001  1.6116e+001 -4.4398e+000 58562 76856,76784,76389
 4.0000e+000 76715 -1.7367e+001  1.3401e+001 -4.4181e+000 58562 76784,76571,76467
 4.0000e+000 76692 -2.9501e+001  2.0128e+001 -5.6861e+000 58562 76856,76389,76597
 4.0000e+000 76669 -2.6727e+001  1.4650e+000 -2.2856e+000 58562 76467,76545,76493
 4.0000e+000 76646 -1.5795e+001  7.7778e+000 -6.1351e+000 58562 76467,76571,76545
 4.0000e+000 76623 -3.7097e+000  4.9673e+000 -2.1879e+000 58562 76493,76545,76519
 4.0000e+000 76810 -2.5273e+001  1.3361e+001  9.9207e-001 58562 76441,76389,76784
 4.0000e+000 76833 -6.9773e+000  2.6350e+001  8.4669e+000 58562 76441,76784,76467
 4.0000e+000 76882 -3.0096e+001  9.9882e+000 -9.8602e+000 58562 76571,76784,76856
 4.0000e+000 76905 -3.7610e+001  1.6844e+001 -1.1160e+001 58562 76571,76856,76597
 4.0000e+000 77055 -1.9041e+001  2.4060e+001  7.3207e-001 57844 76928,76980,76954
 4.0000e+000 77032 -2.7451e+000  4.5008e+001 -6.4988e+000 57844 76928,77006,76980
 4.0000e+000 77533 -2.1570e+001  7.6383e-001  1.0825e+000 57226 77628,77556,77291
 4.0000e+000 77510 -2.1267e+001  2.0137e+000  2.6747e+000 57226 77556,77187,77343
 4.0000e+000 77487 -1.5752e+001  8.0455e+000 -1.6695e+000 57226 77628,77291,77265
 4.0000e+000 77464 -1.5446e+001 -1.9063e+000  2.8504e+000 57226 77700,77213,77187
 4.0000e+000 77441 -3.9073e+001 -2.3723e+000  6.5913e+000 57226 77161,77343,77187
 4.0000e+000 77418 -2.6431e+001  1.9407e+001 -2.2685e+000 57226 77161,77369,77343
 4.0000e+000 77395 -4.5484e+000  5.7705e-003 -8.3590e+000 57226 77213,77265,77239
 4.0000e+000 77582 -1.8530e+001  6.2762e+000 -1.4360e+000 57226 77317,77291,77556
 4.0000e+000 77605 -2.7122e+001  3.5048e+000  9.3122e-002 57226 77317,77556,77343
 4.0000e+000 77654 -1.3808e+001  3.2520e+000  1.5711e+000 57226 77187,77556,77628
 4.0000e+000 77677 -1.5685e+001 -9.5142e-001  1.9726e+000 57226 77700,77187,77628
 4.0000e+000 77726 -1.4628e+001 -1.8038e+000 -1.0207e+000 57226 77265,77213,77700
 4.0000e+000 77749 -1.3718e+001  1.6841e+000 -1.8212e+000 57226 77265,77700,77628
 4.0000e+000 78046 -2.5645e+001 -1.8411e+000  4.8814e+000 56936 77798,77850,77824
 4.0000e+000 78023 -2.2422e+001 -8.1623e+000  1.9852e+000 56936 78069,77798,77902
 4.0000e+000 78000 -2.1116e+001 -7.1513e+000  2.4583e+000 56936 78069,77902,77876
 4.0000e+000 77977 -3.1804e+001 -1.2307e+001  1.2714e+000 56936 77798,77928,77902
 4.0000e+000 77954 -4.3201e+001 -8.7019e+000  7.5586e-001 56936 77772,77928,77798
 4.0000e+000 78095 -2.3008e+001 -7.5907e+000  1.5243e+000 56936 77850,77798,78069
 4.0000e+000 78118 -2.2413e+001 -7.2553e+000  1.8145e+000 56936 77850,78069,77876
 4.0000e+000 78754 -1.7611e+001 -1.8633e+001  9.4528e-001 56475 78777,78486,78408
 4.0000e+000 78731 -2.2010e+001 -2.2227e+001  2.6031e+000 56475 78777,78408,78382
 4.0000e+000 78708 -1.8205e+001 -1.8475e+001 -6.0359e-001 56475 78849,78512,78486
 4.0000e+000 78685 -3.7863e+001 -1.4756e+001  3.5099e+000 56475 78382,78590,78564
 4.0000e+000 78662 -1.9832e+001 -2.6746e+001 -2.8366e+000 56475 78512,78564,78538
 4.0000e+000 78639 -2.0356e+001 -2.3210e+001  2.1954e+000 56475 78434,78486,78460
 4.0000e+000 78616 -2.0404e+001 -2.3990e+001  2.6911e+000 56475 78408,78486,78434
 4.0000e+000 78803 -2.0322e+001 -1.8576e+001  1.3452e-002 56475 78849,78486,78777
 4.0000e+000 78826 -2.0890e+001 -1.8656e+001 -1.7125e-001 56475 78564,78777,78382
 4.0000e+000 78875 -1.7546e+001 -1.8063e+001 -1.7182e+000 56475 78564,78512,78849
 4.0000e+000 78898 -1.8665e+001 -1.7441e+001 -1.1398e+000 56475 78564,78849,78777
 4.0000e+000 79276 -3.1573e+001 -2.1867e+001  1.3548e+000 55964 79299,79080,79028
 4.0000e+000 79253 -2.7493e+001 -1.9688e+001  5.3472e-001 55964 79299,79028,79132
 4.0000e+000 79230 -3.1986e+001 -3.3353e+001  2.8201e-001 55964 79028,79080,79054
 4.0000e+000 79207 -1.4537e+001 -2.0134e+001 -7.8267e-003 55964 79002,79132,79028
 4.0000e+000 79184  7.8522e-001 -1.3579e+001 -9.8756e-002 55964 79002,79158,79132
 4.0000e+000 79325 -2.9979e+001 -2.4628e+001  5.1163e+000 55964 79106,79080,79299
 4.0000e+000 79348 -2.5242e+001 -2.2013e+001  4.0966e+000 55964 79106,79299,79132
 4.0000e+000 79498 -1.0300e+001 -1.8972e+001  5.1747e+000 55452 79397,79449,79423
 4.0000e+000 79475 -2.1162e+001 -2.1817e+001  4.4125e-001 55452 79371,79449,79397
 4.0000e+000 79795 -2.8104e+001 -1.7216e+001  2.9496e+000 55048 79962,79818,79573
 4.0000e+000 79772 -2.5931e+001 -2.0412e+001  2.7023e+000 55048 79818,79521,79677
 4.0000e+000 79749 -2.5911e+001 -1.8171e+001  7.9964e+000 55048 79599,79651,79625
 4.0000e+000 79726 -2.8637e+001 -2.0625e+001  6.6654e+000 55048 79890,79651,79599
 4.0000e+000 79703 -2.9397e+001 -1.6598e+001  9.8064e-001 55048 79962,79573,79547
 4.0000e+000 79844 -2.7425e+001 -1.3857e+001  3.6180e+000 55048 79599,79573,79818
 4.0000e+000 79867 -2.8613e+001 -1.8954e+001  4.2262e+000 55048 79890,79599,79818
 4.0000e+000 79916 -2.4877e+001 -1.8752e+001  5.3168e+000 55048 79677,79651,79890
 4.0000e+000 79939 -2.5358e+001 -1.7935e+001  3.0413e+000 55048 79677,79890,79818
 4.0000e+000 79988 -2.5735e+001 -1.6659e+001  2.2966e+000 55048 79521,79818,79962
 4.0000e+000 80011 -2.5735e+001 -1.6061e+001  5.6337e-001 55048 79521,79962,79547
 4.0000e+000 80212 -1.9792e+001 -4.0076e+000  2.3521e+000 54436 80235,80088,80036
 4.0000e+000 80189 -2.1878e+001 -9.3809e+000  4.4391e+000 54436 80235,80036,80140
 4.0000e+000 80166 -1.7351e+001  2.2315e+000  2.2184e+000 54436 80036,80088,80062
 4.0000e+000 80261 -2.2285e+001  2.2342e+000  1.8908e-002 54436 80114,80088,80235
 4.0000e+000 80284 -2.4861e+001 -2.7318e+000  2.5980e+000 54436 80114,80235,80140
 4.0000e+000 80534 -1.2525e+001 -3.7257e+000  9.1451e-001 54032 80557,80361,80335
 4.0000e+000 80511 -1.5396e+001 -8.6852e+000  3.8173e+000 54032 80557,80335,80309
 4.0000e+000 80488 -1.1490e+001 -1.3816e+000 -2.7370e+000 54032 80629,80413,80387
 4.0000e+000 80465 -1.8659e+001 -1.0692e+001  1.3126e+000 54032 80309,80439,80413
 4.0000e+000 80583 -1.3444e+001  1.9926e-001 -5.4612e-001 54032 80387,80361,80557
 4.0000e+000 80606 -1.2371e+001 -2.8141e+000 -4.7562e-001 54032 80629,80387,80557
 4.0000e+000 80655 -1.4417e+001 -3.0370e+000 -9.9102e-001 54032 80309,80413,80629
 4.0000e+000 80678 -1.5956e+001 -3.4101e+000  9.3031e-001 54032 80309,80629,80557
 4.0000e+000 81139  1.4763e+000  2.4874e+001  1.0520e+001 53784 80865,80995,80917
 4.0000e+000 81116 -1.0882e+001  2.5165e+001 -4.0685e+000 53784 80865,81021,80995
 4.0000e+000 81093  5.9475e+000  2.5469e+001  6.8859e+000 53784 80943,80995,80969
 4.0000e+000 81070  4.0865e+000  1.6973e+001  8.1648e+000 53784 80917,80995,80943
 4.0000e+000 81047 -1.9028e+001  6.7928e+001  2.4669e+001 53784 80865,80917,80891
 4.0000e+000 81468 -1.5745e+001 -2.2658e+000 -2.2337e+000 53230 81295,81373,81347
 4.0000e+000 81445 -1.3390e+001 -6.6282e-001 -7.3498e-001 53230 81243,81373,81295
 4.0000e+000 81422 -9.1359e+000 -6.8694e-001  2.2890e+000 53230 81243,81295,81269
 4.0000e+000 81399 -1.2005e+001 -1.0376e+000 -1.4096e+000 53230 81295,81347,81321
 4.0000e+000 81618  1.2340e+001  2.0644e+001  4.1309e-001 52790 81491,81543,81517
 4.0000e+000 81595  5.4217e+000 -1.2252e+001  6.7478e+000 52790 81491,81569,81543
 4.0000e+000 82126 -1.1798e+001 -8.2957e+000 -8.6357e-001 52386 82149,81907,81881
 4.0000e+000 82103 -1.3823e+001 -1.2737e+001 -3.0763e-001 52386 82149,81881,81855
 4.0000e+000 82080 -1.1982e+001 -1.5803e+001  3.2712e-001 52386 82221,81803,81985
 4.0000e+000 82057 -1.2934e+001 -1.3405e+001 -1.2970e+000 52386 81803,81855,81829
 4.0000e+000 82034 -1.5623e+001 -1.6528e+001  5.4765e-001 52386 81907,81985,81933
 4.0000e+000 82011 -2.3046e+001 -1.8156e+001  1.1534e+000 52386 81933,81985,81959
 4.0000e+000 82175 -1.4567e+001 -1.2708e+001  1.4185e+000 52386 81985,81907,82149
 4.0000e+000 82198 -1.3749e+001 -1.4878e+001  1.7731e+000 52386 82221,81985,82149
 4.0000e+000 82247 -1.0686e+001 -1.3712e+001 -5.2649e-001 52386 81855,81803,82221
 4.0000e+000 82270 -1.1562e+001 -1.2093e+001  7.2673e-001 52386 81855,82221,82149
 4.0000e+000 82825 -1.4111e+001 -4.8884e+000 -6.8319e+000 51782 82505,82661,82635
 4.0000e+000 82802 -4.2831e+000  4.9625e+000 -1.3281e+000 51782 82479,82661,82505
 4.0000e+000 82779 -1.1059e+001 -1.3105e-001  1.1505e+000 51782 82557,82635,82609
 4.0000e+000 82756 -1.0444e+001  1.2164e+000 -6.0908e-001 51782 82531,82635,82557
 4.0000e+000 82733 -9.0041e+000  1.2209e+000 -7.2273e-002 51782 82505,82635,82531
 4.0000e+000 82710 -9.4260e+000 -3.4845e+000 -7.4311e+000 51782 82453,82661,82479
 4.0000e+000 82687 -6.2330e+000 -1.8366e+000  1.2037e+000 51782 82557,82609,82583
 4.0000e+000 83171 -2.5823e+001 -3.5002e+001  4.2233e+000 51442 83194,82978,82900
 4.0000e+000 83148 -2.8977e+001 -2.5661e+001  4.5552e+000 51442 83194,82900,82874
 4.0000e+000 83125 -1.3442e+001 -2.9843e+001  2.7857e+000 51442 82900,82978,82926
 4.0000e+000 83102 -2.3868e+001 -1.8464e+001  7.5808e+000 51442 82874,83030,83004
 4.0000e+000 83079 -1.0931e+001 -3.0746e+001  7.4800e-001 51442 82926,82978,82952
 4.0000e+000 83056 -8.2504e+000 -1.9208e+001  7.8876e+000 51442 82848,83030,82874
 4.0000e+000 83220 -2.6495e+001 -2.9125e+001  1.7850e+000 51442 83004,82978,83194
 4.0000e+000 83243 -2.8875e+001 -1.8501e+001  2.6847e+000 51442 83004,83194,82874
 4.0000e+000 83751 -2.5659e+001 -1.1446e+001  1.6496e+000 50938 83428,83584,83454
 4.0000e+000 83728 -2.7161e+001 -1.2952e+001  6.4575e+000 50938 83428,83610,83584
 4.0000e+000 83705 -2.5891e+001 -1.3250e+001  1.2946e+000 50938 83454,83584,83558
 4.0000e+000 83682 -1.6811e+001 -1.0579e+001 -8.5042e-002 50938 83454,83532,83480
 4.0000e+000 83659 -1.5905e+001 -9.4522e+000 -4.7751e-001 50938 83454,83558,83532
 4.0000e+000 83636 -2.1147e+001 -2.0351e+001 -4.0278e+000 50938 83480,83532,83506
 4.0000e+000 84355  1.2482e-001  2.5670e+000  2.2913e+000 50377 84378,83960,83934
 4.0000e+000 84332  5.2435e+000  1.2910e+001 -4.9642e-001 50377 84522,84378,83934
 4.0000e+000 84309  6.8192e+000  4.5617e+000 -6.1131e+000 50377 84450,84038,84012
 4.0000e+000 84286  5.7813e+000  1.5808e+001 -1.1777e+000 50377 84522,83934,84142
 4.0000e+000 84263  5.4816e+000  1.5707e+001 -8.7357e+000 50377 84594,84090,84038
 4.0000e+000 84240  7.3774e+000  4.1968e+000 -3.9897e+000 50377 83960,84012,83986
 4.0000e+000 84217 -7.9400e-001  1.3241e+001 -1.3252e+000 50377 83934,84168,84142
 4.0000e+000 84194  1.1526e+000  1.3118e+001 -9.7606e+000 50377 84038,84090,84064
 4.0000e+000 84404  4.9977e+000  7.9017e+000 -1.6725e+000 50377 84012,83960,84378
 4.0000e+000 84427  3.9254e+000  4.6664e+000 -2.2433e+000 50377 84450,84012,84378
 4.0000e+000 84476  9.1145e+000  1.1309e+001 -7.6093e+000 50377 84594,84038,84450
 4.0000e+000 84499  6.0615e+000  7.6048e+000 -3.3768e+000 50377 84116,84450,84378
 4.0000e+000 84548  8.2205e+000  7.7389e+000 -2.1913e+000 50377 84116,84378,84522
 4.0000e+000 84571  9.5918e+000  1.1699e+001 -3.1484e+000 50377 84116,84522,84142
 4.0000e+000 84620  9.3976e-001  9.6493e+000 -6.0192e+000 50377 84116,84090,84594
 4.0000e+000 84643  3.8625e+000  4.9450e+000 -4.6127e+000 50377 84116,84594,84450
 4.0000e+000 84842 -5.7823e+000 -2.6437e+001  2.2907e+000 49923 84865,84692,84666
 4.0000e+000 84819 -1.9835e+001 -2.2331e+001 -8.2834e+000 49923 84865,84666,84770
 4.0000e+000 84796 -4.5592e+000 -3.5706e+001 -6.2034e+000 49923 84692,84744,84718
 4.0000e+000 84891 -1.5065e+001 -3.1346e+001 -5.0443e+000 49923 84744,84692,84865
 4.0000e+000 84914 -3.1789e+001 -3.3158e+001 -1.6935e+001 49923 84744,84865,84770
 4.0000e+000 85501 -8.8918e+000  9.0134e+000  4.8061e-001 49618 85524,85282,85204
 4.0000e+000 85478 -1.4450e+001  4.5533e+000 -2.5147e+000 49618 85596,85524,85204
 4.0000e+000 85455 -1.7813e+001  5.6314e+000 -3.1100e+000 49618 85596,85204,85178
 4.0000e+000 85432 -1.1117e+001  1.1334e+001 -3.7432e-001 49618 85204,85282,85256
 4.0000e+000 85409 -9.4227e+000  1.5903e+001 -4.1134e+000 49618 85282,85334,85308
 4.0000e+000 85386 -1.0023e+001  1.6248e+001  2.7927e+000 49618 85204,85256,85230
 4.0000e+000 85550 -9.0526e+000  4.5362e+000 -3.0810e+000 49618 85334,85282,85524
 4.0000e+000 85573 -1.2876e+001  2.2981e+000 -5.7081e+000 49618 85334,85524,85360
 4.0000e+000 85622 -9.2952e+000  5.2693e+000 -3.5466e+000 49618 85360,85524,85596
 4.0000e+000 85645 -1.3201e+001  5.8361e+000 -3.5417e+000 49618 85360,85596,85178
 4.0000e+000 85795 -3.3354e+001 -6.4399e+001 -1.1301e+001 49278 85694,85746,85720
 4.0000e+000 85772 -3.2295e+001 -1.0518e+002 -7.8741e+000 49278 85668,85746,85694
 4.0000e+000 86197 -1.0161e+001  7.7014e+000 -1.7061e+000 48916 86001,86079,86027
 4.0000e+000 86174 -9.6831e+000  4.7338e+000 -3.8819e+000 48916 85949,86079,86001
 4.0000e+000 86151 -1.6212e+001  3.5825e+000 -1.8200e+000 48916 85949,86001,85975
 4.0000e+000 86128 -5.8586e+000  4.6721e+000 -7.4698e+000 48916 86027,86079,86053
 4.0000e+000 86105 -4.6843e+001 -1.1714e+001 -8.3257e+000 48916 85923,86079,85949
 4.0000e+000 86477 -2.2869e+001 -8.0663e+000  1.9026e+000 48398 86327,86379,86353
 4.0000e+000 86454 -2.6096e+001 -1.3220e+001  5.2868e-001 48398 86500,86379,86327
 4.0000e+000 86431 -2.0696e+001 -1.5139e+001  7.5990e+000 48398 86301,86405,86379
 4.0000e+000 86526 -1.9070e+001 -8.3990e+000  2.7377e+000 48398 86301,86379,86500
 4.0000e+000 87032 -1.4460e+001 -8.4616e+000 -6.9226e-001 48008 87127,87055,86787
 4.0000e+000 87009 -1.4852e+001 -9.0050e+000  1.8755e-001 48008 87055,86735,86709
 4.0000e+000 86986 -1.3108e+001 -9.0859e+000 -9.6936e-001 48008 87127,86787,86761
 4.0000e+000 86963 -1.0905e+001 -1.2199e+000  9.7836e-001 48008 86787,86865,86839
 4.0000e+000 86940 -1.4282e+001 -1.1797e+001  2.4004e+000 48008 86709,86891,86865
 4.0000e+000 86917 -1.2722e+001 -4.7903e+000 -1.1535e+000 48008 86787,86839,86813
 4.0000e+000 87081 -1.4582e+001 -8.2325e+000 -4.7300e-001 48008 86865,86787,87055
 4.0000e+000 87104 -1.4136e+001 -7.8338e+000 -1.6494e-001 48008 86865,87055,86709
 4.0000e+000 87153 -1.2791e+001 -7.8387e+000 -3.2819e-001 48008 86735,87055,87127
 4.0000e+000 87176 -1.0179e+001 -7.8413e+000 -1.0205e+000 48008 86735,87127,86761
 4.0000e+000 87456 -1.8423e+001 -1.3184e+001  2.0403e+000 47604 87306,87358,87332
 4.0000e+000 87433 -5.8258e+000 -9.8602e+000  2.6708e+000 47604 87306,87384,87358
 4.0000e+000 87410 -1.0947e+001 -1.2072e+001  2.1480e+000 47604 87280,87384,87306
 4.0000e+000 87785 -9.4030e+000 -2.1041e+001  8.1869e+000 47264 87638,87690,87664
 4.0000e+000 87762 -1.8083e+001 -2.2269e+001  1.0457e+001 47264 87612,87690,87638
 4.0000e+000 87739 -2.1386e+001 -2.5716e+001  8.2601e+000 47264 87560,87690,87612
 4.0000e+000 87716 -2.9425e+001 -2.8971e+001  1.4646e+001 47264 87560,87612,87586
 4.0000e+000 87935 -1.5117e+001  1.7299e+001 -2.4644e-003 46952 87808,87860,87834
 4.0000e+000 87912 -7.0665e+000  3.4246e+001 -2.2587e+000 46952 87808,87886,87860
 4.0000e+000 88281 -1.7045e+001 -2.3522e+001 -1.2710e+000 46526 88304,88114,88036
 4.0000e+000 88258 -1.7765e+001 -2.4543e+001 -1.6963e+000 46526 88304,88036,87984
 4.0000e+000 88235 -2.2501e+001 -2.5898e+001 -9.8104e-001 46526 88036,88114,88062
 4.0000e+000 88212 -5.2722e+000 -1.9404e+001  5.6247e+000 46526 87958,88140,87984
 4.0000e+000 88189 -1.7117e+001 -2.2520e+001 -6.1741e+000 46526 87984,88036,88010
 4.0000e+000 88166 -1.7156e+001 -1.8745e+001  2.6740e+000 46526 88062,88114,88088
 4.0000e+000 88330 -1.6235e+001 -2.4666e+001 -1.1495e+000 46526 88140,88114,88304
 4.0000e+000 88353 -1.6711e+001 -2.5520e+001 -1.4420e+000 46526 88140,88304,87984
 4.0000e+000 88701 -7.3374e+000 -2.0746e+001  8.9021e+000 45822 88724,88378,88534
 4.0000e+000 88678 -4.5308e+000 -2.0414e+001  6.6208e+000 45822 88378,88560,88534
 4.0000e+000 88655 -1.3149e+001 -2.2100e+001  7.5239e+000 45822 88724,88534,88508
 4.0000e+000 88632 -1.7050e+001 -1.5682e+001  5.2986e+000 45822 88404,88508,88456
 4.0000e+000 88609 -1.8926e+001 -2.2102e+001  2.2057e+000 45822 88404,88456,88430
 4.0000e+000 88586 -2.3804e+001 -2.1906e+001  8.0371e+000 45822 88456,88508,88482
 4.0000e+000 88750 -1.2291e+001 -2.0910e+001  5.6170e+000 45822 88404,88378,88724
 4.0000e+000 88773 -1.6757e+001 -2.1339e+001  4.2483e+000 45822 88404,88724,88508
 4.0000e+000 89106  5.2977e+000  1.8982e+001  2.2864e+000 45418 88881,88985,88907
 4.0000e+000 89083  1.0473e+001  1.2733e+001  2.7605e+000 45418 88881,89011,88985
 4.0000e+000 89060 -3.7026e+000  1.4874e+001  7.5555e-001 45418 88907,88985,88933
 4.0000e+000 89037  1.2522e+001  2.1443e+001  8.2327e+000 45418 88933,88985,88959
 4.0000e+000 89435 -5.8185e+000 -1.1750e+001  3.6353e+000 44914 89210,89288,89236
 4.0000e+000 89412 -1.0418e+001 -1.8317e+001  6.0256e+000 44914 89210,89314,89288
 4.0000e+000 89389 -2.2720e+000 -1.2771e+001  3.6096e+000 44914 89210,89340,89314
 4.0000e+000 89366 -1.4101e+001 -1.3871e+001  1.7397e+000 44914 89236,89288,89262
 4.0000e+000 89634 -1.1192e+001 -1.9827e+001  1.0455e+001 44538 89510,89562,89536
 4.0000e+000 89611 -1.4418e+001 -2.3612e+001  8.1096e+000 44538 89458,89562,89510
 4.0000e+000 89588 -8.2068e+000 -2.2615e+001  5.6649e+000 44538 89458,89510,89484
 4.0000e+000 90044 -7.6627e+000  2.2318e-001 -8.1969e-001 44134 89819,89923,89845
 4.0000e+000 90021 -5.9068e+000  8.3564e+000 -2.9389e+000 44134 89819,89949,89923
 4.0000e+000 89998 -5.1870e+000  5.6014e+000 -1.8053e+000 44134 89845,89923,89897
 4.0000e+000 89975  8.5219e-001  7.7554e+000  6.1268e+000 44134 89845,89897,89871
 4.0000e+000 90520 -4.8419e+000  7.8544e+000 -6.7814e+000 43457 90543,90252,90226
 4.0000e+000 90497 -3.4463e+000  7.4487e+000 -7.1885e+000 43457 90543,90226,90330
 4.0000e+000 90474  1.3592e+000  3.3893e+000 -4.0322e+000 43457 90200,90330,90226
 4.0000e+000 90451  5.6420e-001 -1.3583e+000 -1.0663e+001 43457 90200,90356,90330
 4.0000e+000 90428 -5.5147e+000  5.3609e+000 -4.0793e+000 43457 90252,90304,90278
 4.0000e+000 90405  4.7927e+000  7.9741e-001 -8.8804e+000 43457 90174,90356,90200
 4.0000e+000 90382  4.7056e+000  1.2607e+000 -8.3942e+000 43457 90148,90356,90174
 4.0000e+000 90569 -6.0223e+000  7.5770e+000 -5.8272e+000 43457 90304,90252,90543
 4.0000e+000 90592 -4.1320e+000  7.2052e+000 -6.0401e+000 43457 90304,90543,90330
 4.0000e+000 91098 -1.5429e+001 -8.6882e+000  2.5181e+000 42789 90801,90905,90853
 4.0000e+000 91075 -1.0980e+001 -6.1368e+000  5.7268e-001 42789 90775,90905,90801
 4.0000e+000 91052 -7.8090e+000 -5.8362e+000  5.7947e+000 42789 90775,90931,90905
 4.0000e+000 91029 -1.7283e+001 -8.0150e+000 -3.9462e-001 42789 90801,90853,90827
 4.0000e+000 91006 -2.1198e+001 -1.0327e+001 -1.1621e+000 42789 90853,90905,90879
 4.0000e+000 90983 -9.1737e+000 -1.3443e+001  6.0980e+000 42789 90775,90957,90931
 4.0000e+000 91427  1.7427e+000  1.9063e+000 -3.1005e+000 42227 91228,91280,91254
 4.0000e+000 91404  1.3279e+000  1.0631e+000 -2.7197e+000 42227 91228,91306,91280
 4.0000e+000 91381  1.1980e+000  1.3813e+000 -1.3217e+000 42227 91202,91306,91228
 4.0000e+000 91358 -1.1507e+000 -4.7550e+000 -9.0842e-001 42227 91202,91332,91306
 4.0000e+000 91675 -4.0487e+000 -6.8238e+000  2.4636e+000 41773 91698,91476,91450
 4.0000e+000 91652 -3.0632e+000 -4.7514e+000  2.8350e+000 41773 91698,91450,91554
 4.0000e+000 91629 -5.5172e+000 -9.6184e+000  4.1720e+000 41773 91450,91580,91554
 4.0000e+000 91606 -1.4964e+000 -3.8313e+000  1.3380e+000 41773 91502,91554,91528
 4.0000e+000 91724 -4.6651e+000 -6.3622e+000  8.0858e-001 41773 91502,91476,91698
 4.0000e+000 91747 -3.7065e+000 -4.2464e+000  1.1553e+000 41773 91502,91698,91554
 4.0000e+000 92127 -6.4772e+000  2.4226e+001 -4.5409e+000 41255 92150,91905,91879
 4.0000e+000 92104  1.2126e+000  2.3037e+001 -7.6029e+000 41255 92150,91879,91957
 4.0000e+000 92081  2.4946e+001  5.6059e+000  9.9675e+000 41255 91853,91957,91879
 4.0000e+000 92058  2.2521e+001  2.1666e+000 -1.5286e+000 41255 91853,91983,91957
 4.0000e+000 92035  7.5630e-002  1.0457e+000  4.0233e-001 41255 91853,92009,91983
 4.0000e+000 92176 -1.9899e-002  2.3789e+001 -6.3188e+000 41255 91931,91905,92150
 4.0000e+000 92199  1.0779e+001  2.5842e+001 -1.0332e+001 41255 91931,92150,91957
 4.0000e+000 92518  7.5581e+000  5.4980e+000 -1.5737e+000 41007 92244,92374,92270
 4.0000e+000 92495 -1.2101e+000  1.2367e+001 -5.3599e+000 41007 92244,92400,92374
 4.0000e+000 92472  5.8499e+000  1.4129e+001  3.3672e+000 41007 92270,92374,92348
 4.0000e+000 92449  2.1212e+000  1.3450e+001 -7.0985e+000 41007 92296,92348,92322
 4.0000e+000 92426  1.2695e+000  3.3553e+001  3.0586e+000 41007 92270,92348,92296
 4.0000e+000 92668 -7.0931e-001  4.6203e+000 -2.8622e+000 40717 92823,92691,92567
 4.0000e+000 92645  1.1307e+000  5.3389e+000 -2.2624e+000 40717 92895,92823,92567
 4.0000e+000 92717 -5.7394e+000  2.1971e+000 -5.3899e+000 40717 92593,92567,92691
 4.0000e+000 92849  1.3221e+000  3.3275e+000 -3.5226e+000 40717 92619,92691,92823
 4.0000e+000 92872 -3.2138e+000  2.9545e+000 -2.1094e+000 40717 92619,92823,92541
 4.0000e+000 92921 -7.3775e+000 -5.4271e-001  9.9617e-001 40717 92541,92823,92895
 4.0000e+000 93634 -4.4846e+000  3.6169e+000  1.4152e+000 40206 93366,93444,93418
 4.0000e+000 93611 -6.8680e+000 -2.4680e+000  7.8203e-001 40206 93288,93444,93366
 4.0000e+000 93588 -9.9555e+000 -1.2559e+000  2.6238e+000 40206 93288,93366,93314
 4.0000e+000 93565 -1.6739e+001 -4.0595e+000  4.4657e+000 40206 93262,93444,93288
 4.0000e+000 93542 -1.1139e+001  2.6115e+000  1.5470e+000 40206 93366,93418,93392
 4.0000e+000 93519 -5.1505e+000 -1.9867e+000  1.2599e+000 40206 93262,93470,93444
 4.0000e+000 93496 -8.9303e+000 -1.3131e-001 -1.1175e+001 40206 93314,93366,93340
 4.0000e+000 94189 -3.9355e+000 -1.7224e+000  1.8418e-001 39802 93843,93999,93973
 4.0000e+000 94166 -1.1322e+000 -2.0206e+000  3.2729e+000 39802 93817,93999,93843
 4.0000e+000 94143 -7.8759e+000 -3.0591e+000 -2.7513e-001 39802 93869,93973,93947
 4.0000e+000 94120 -5.7843e+000 -2.9243e+000  8.8825e-001 39802 93843,93973,93869
 4.0000e+000 94097 -1.8667e+001 -9.6007e+000  6.8916e+000 39802 93869,93921,93895
 4.0000e+000 94074 -1.6606e+001 -6.0622e+000  2.6464e+000 39802 93869,93947,93921
 4.0000e+000 94051 -1.1716e+001 -3.6953e+000  7.2062e+000 39802 93817,94025,93999
 4.0000e+000 94290 -1.1417e+001 -1.0112e+001 -3.8663e+000 39398 94212,94264,94238
 4.0000e+000 94798 -1.2893e+001 -1.1832e+001  2.6147e+000 38701 94501,94657,94631
 4.0000e+000 94775 -8.5669e+000 -4.5777e+000  6.6649e+000 38701 94475,94657,94501
 4.0000e+000 94752 -1.5053e+001 -1.1193e+001 -4.2299e-001 38701 94579,94631,94605
 4.0000e+000 94729 -1.2339e+001 -8.0507e+000  1.0496e+000 38701 94553,94631,94579
 4.0000e+000 94706 -1.1518e+001 -7.5235e+000  1.6856e+000 38701 94501,94631,94553
 4.0000e+000 94683 -1.5613e+001 -9.4349e-001  1.2803e+000 38701 94501,94553,94527
 4.0000e+000 95255 -9.8821e+000 -8.7668e+000  6.7153e-001 38247 95278,95085,95007
 4.0000e+000 95232 -8.9482e+000 -7.2587e+000  2.3250e+000 38247 95278,95007,95137
 4.0000e+000 95209 -6.4381e+000 -2.9231e+000  3.3725e+000 38247 94981,95137,95007
 4.0000e+000 95186 -8.3239e+000 -1.1004e+001 -3.4179e+000 38247 95007,95059,95033
 4.0000e+000 95163 -6.3621e+000 -5.2229e+000 -8.5593e-001 38247 95007,95085,95059
 4.0000e+000 95304 -8.9351e+000 -5.9321e+000  1.2674e+000 38247 95111,95085,95278
 4.0000e+000 95327 -8.9504e+000 -6.3090e+000  2.9338e+000 38247 95111,95278,95137
 4.0000e+000 95575 -1.4088e+001 -3.2493e+000  9.1196e-002 37564 95376,95428,95402
 4.0000e+000 95552 -1.3960e+001 -1.6934e+000 -2.7038e-002 37564 95376,95454,95428
 4.0000e+000 95529 -1.3054e+001 -1.3970e+000 -1.1316e-001 37564 95376,95480,95454
 4.0000e+000 95506 -2.2493e+001  9.8094e-001 -7.2023e-001 37564 95350,95480,95376
 4.0000e+000 96034  1.4526e+001  2.4111e+001 -1.5692e+001 37224 95786,95838,95812
 4.0000e+000 96011  2.6372e+001  2.9995e+001  1.4508e+000 37224 95786,95890,95838
 4.0000e+000 95988  1.2305e+001  2.7519e+001  6.0938e+000 37224 95786,95916,95890
 4.0000e+000 95965  7.5681e+000  3.3771e+001 -6.0404e+000 37224 95760,95916,95786
 4.0000e+000 95942  1.7719e+000  2.1825e+001  2.0669e+000 37224 95838,95890,95864
 4.0000e+000 96363 -8.5545e+000 -1.5890e+000  1.0305e+000 36884 96216,96268,96242
 4.0000e+000 96340 -6.7617e+000 -9.7250e-001  1.3157e+000 36884 96164,96268,96216
 4.0000e+000 96317 -1.3880e+001 -6.4326e+000  4.3914e+000 36884 96138,96268,96164
 4.0000e+000 96294 -1.0209e+001 -6.5349e+000  5.1056e+000 36884 96164,96216,96190
 4.0000e+000 96839  1.1521e+000  1.1503e+001 -9.2609e-001 36572 96862,96649,96597
 4.0000e+000 96816  2.8893e+000  1.2641e+001 -1.6565e+000 36572 97006,96862,96597
 4.0000e+000 96793  2.8426e+000  9.7972e+000 -3.7601e+000 36572 96934,96467,96675
 4.0000e+000 96770  1.0454e+000  1.1648e+001 -1.2825e+000 36572 97006,96597,96571
 4.0000e+000 96747  3.7553e+000  1.7870e+001 -9.3616e+000 36572 96467,96519,96493
 4.0000e+000 96724  7.6466e-001  1.3914e+001 -3.2409e+000 36572 96519,96571,96545
 4.0000e+000 96701  6.1071e+000  2.6954e+001 -1.4709e+000 36572 96597,96649,96623
 4.0000e+000 96888  4.9783e+000  1.3207e+001 -6.3084e-001 36572 96675,96649,96862
 4.0000e+000 96911  4.1091e+000  1.2360e+001 -3.0654e+000 36572 96934,96675,96862
 4.0000e+000 96960  3.0613e+000  1.2721e+001 -4.1430e+000 36572 96519,96467,96934
 4.0000e+000 96983  1.5905e+000  1.2668e+001 -3.4104e+000 36572 97078,96934,96862
 4.0000e+000 97032  4.1988e-001  1.2791e+001 -2.5750e+000 36572 97078,96862,97006
 4.0000e+000 97055 -4.5488e-002  1.3310e+001 -2.8489e+000 36572 96519,97006,96571
 4.0000e+000 97104  2.1786e+000  1.3839e+001 -4.0135e+000 36572 96519,96934,97078
 4.0000e+000 97127  1.7319e+000  1.4265e+001 -3.2597e+000 36572 96519,97078,97006
 4.0000e+000 97761  1.9115e+001  2.3534e+001  4.7457e+000 36118 97784,97493,97415
 4.0000e+000 97738  1.3301e+001  2.6475e+001  1.1107e+000 36118 97784,97415,97597
 4.0000e+000 97715  6.1368e+000  2.8204e+001  8.0005e+000 36118 97389,97597,97415
 4.0000e+000 97692  5.4135e+000  8.4580e+000  2.8521e+000 36118 97415,97467,97441
 4.0000e+000 97669  1.1195e+001  9.4422e+000  7.8837e+000 36118 97415,97493,97467
 4.0000e+000 97646  1.1599e+001  1.5746e+001 -9.6750e-001 36118 97493,97571,97519
 4.0000e+000 97623  1.4976e+001  2.0301e+001  1.2538e+000 36118 97519,97571,97545
 4.0000e+000 97810  1.5062e+001  2.1964e+001  1.9788e+000 36118 97571,97493,97784
 4.0000e+000 97833  4.9592e+000  2.1666e+001 -2.0481e+000 36118 97571,97784,97597
 4.0000e+000 98081  9.9796e+000  3.9249e+001 -1.0594e+001 35564 98104,97908,97856
 4.0000e+000 98058  1.0616e+001  3.7991e+001 -1.1198e+001 35564 98104,97856,97986
 4.0000e+000 98035  1.4533e+001  4.0933e+001 -8.7135e+000 35564 97934,97986,97960
 4.0000e+000 98012  6.8182e+000  3.1223e+001 -9.1310e+000 35564 97856,97908,97882
 4.0000e+000 98130  1.1930e+001  4.3027e+001 -9.6202e+000 35564 97934,97908,98104
 4.0000e+000 98153  1.0472e+001  3.9179e+001 -1.0729e+001 35564 97934,98104,97986
 4.0000e+000 98374  2.7299e+001  5.3567e+001 -4.2843e+000 35152 98224,98302,98276
 4.0000e+000 98351  2.4233e+001  4.5246e+001 -2.0083e+000 35152 98198,98302,98224
 4.0000e+000 98328  4.7849e+001  6.2823e+001 -9.0774e+000 35152 98224,98276,98250
 4.0000e+000 98884 -3.4787e+000 -3.4972e+000 -3.1869e-001 34698 98691,98743,98717
 4.0000e+000 98861 -4.5652e+000 -8.4810e+000  1.6738e+000 34698 98561,98743,98691
 4.0000e+000 98838 -4.0198e+000 -6.7223e+000  1.4454e+000 34698 98907,98587,98561
 4.0000e+000 98815 -2.3890e+000 -3.6893e+000  4.4158e-001 34698 98907,98561,98691
 4.0000e+000 98792 -7.8718e+000 -1.1269e+001 -1.2087e+000 34698 98587,98639,98613
 4.0000e+000 98769 -1.0275e+001 -1.3119e+001  1.4546e+000 34698 98587,98665,98639
 4.0000e+000 98933 -3.9103e+000 -5.2850e+000 -1.5263e+000 34698 98665,98587,98907
 4.0000e+000 98956 -1.4485e+000 -6.0145e-001 -2.6425e+000 34698 98665,98907,98691
 4.0000e+000 99204 -4.8444e+000 -4.0724e+000  9.9713e-001 34144 99227,99031,99005
 4.0000e+000 99181 -7.5778e+000 -5.5417e+000  1.5537e+000 34144 99299,99227,99005
 4.0000e+000 99158 -7.9985e+000 -6.0901e+000  9.4950e-001 34144 99299,99005,99109
 4.0000e+000 99135 -9.5001e+000 -6.0009e+000  8.5094e-001 34144 98979,99109,99005
 4.0000e+000 99253 -6.7881e+000 -1.5272e+000 -1.1649e+000 34144 99057,99031,99227
 4.0000e+000 99276 -8.7869e+000 -4.0943e+000  3.9642e-003 34144 99057,99227,99083
 4.0000e+000 99325 -7.2681e+000 -6.4455e+000 -2.4477e-001 34144 99083,99227,99299
 4.0000e+000 99348 -9.4412e+000 -7.7509e+000 -1.0342e+000 34144 99083,99299,99109
 4.0000e+000 99498 -9.2419e+000 -1.7800e+000  4.6153e+000 33433 99397,99449,99423
 4.0000e+000 99475 -1.6601e+001  3.2957e-002 -5.7253e-001 33433 99371,99449,99397
 4.0000e+000 100008 -9.2190e+000  1.8496e+000  2.5213e+000 32979 100103,100031,99815
 4.0000e+000 99985 -3.2768e+000  2.8232e+000  2.1396e-003 32979 100175,100031,99763
 4.0000e+000 99962 -1.2970e+001  2.7716e+000  4.0167e+000 32979 100103,99815,99789
 4.0000e+000 99939 -5.3109e+000  2.3981e+000  1.5699e+000 32979 100175,99763,99737
 4.0000e+000 99916 -5.1631e+000  5.2662e+000  2.6140e+000 32979 99685,99867,99737
 4.0000e+000 99893 -1.8746e+000  6.4192e+000 -4.3873e-001 32979 99685,99737,99711
 4.0000e+000 100057 -1.1568e+000  4.4088e+000  4.5736e+000 32979 99841,99815,100031
 4.0000e+000 100080 -5.0412e+000 -7.3642e-001  5.0841e-001 32979 99841,100031,99867
 4.0000e+000 100129 -3.0662e+000  2.8517e+000  1.6827e-001 32979 99763,100031,100103
 4.0000e+000 100152 -8.4113e+000  3.3061e+000  1.1356e+000 32979 99763,100103,99789
 4.0000e+000 100201 -6.5920e+000  1.9463e+000  2.1850e-001 32979 99867,100031,100175
 4.0000e+000 100224 -6.9667e+000  2.8474e+000  1.6634e+000 32979 99867,100175,99737
 4.0000e+000 100553  2.2681e+000  1.0538e+001  2.8633e+000 32503 100354,100406,100380
 4.0000e+000 100530  8.5173e+000  1.1160e+001  3.9272e+000 32503 100328,100406,100354
 4.0000e+000 100507  5.8758e+000  7.4140e+000  5.9234e+000 32503 100328,100458,100406
 4.0000e+000 100484  4.5361e+000  7.0660e+000  5.4644e+000 32503 100406,100458,100432
 4.0000e+000 100850  1.3860e+001  1.6385e+001  1.3431e+000 31899 100873,100654,100628
 4.0000e+000 100827  1.8609e+001  1.9408e+001  2.6868e+000 31899 100945,100873,100628
 4.0000e+000 100804  2.4163e+001  1.3743e+001  4.8630e+000 31899 100945,100628,100602
 4.0000e+000 100781  1.0213e+001  9.1288e+000  9.6586e+000 31899 100576,100732,100602
 4.0000e+000 100758  6.7263e+000  1.9665e+001 -4.9622e+000 31899 100654,100706,100680
 4.0000e+000 100899  1.2875e+001  2.1429e+001  9.9841e-001 31899 100706,100654,100873
 4.0000e+000 100922  1.2676e+001  1.8697e+001  4.3484e+000 31899 100706,100873,100732
 4.0000e+000 100971  1.0811e+001  1.4254e+001  4.9567e+000 31899 100732,100873,100945
 4.0000e+000 100994  1.7010e+001  8.9375e+000  7.0094e+000 31899 100732,100945,100602
 4.0000e+000 101551  3.0341e+000  4.3986e+000  6.6986e+000 31338 101205,101387,101231
 4.0000e+000 101528  1.1513e+000  1.2666e+000 -7.2168e-002 31338 101179,101387,101205
 4.0000e+000 101505 -7.5054e-001  3.8293e+000  1.0854e+000 31338 101574,101309,101257
 4.0000e+000 101482  1.9013e+000  4.7390e+000  1.6005e+000 31338 101646,101574,101257
 4.0000e+000 101459  3.4326e+000  2.0180e+000  4.2216e+000 31338 101646,101257,101231
 4.0000e+000 101436 -5.8828e+000  9.5284e+000 -3.8543e+000 31338 101309,101361,101335
 4.0000e+000 101413 -2.4936e-001  3.6496e+000  1.6405e+000 31338 101257,101309,101283
 4.0000e+000 101600 -1.2879e+000  4.0388e+000  1.4012e+000 31338 101361,101309,101574
 4.0000e+000 101623 -1.5338e+000  4.8401e+000  2.2157e+000 31338 101361,101574,101387
 4.0000e+000 101672 -3.0238e+000  1.9329e+000  2.9308e+000 31338 101387,101574,101646
 4.0000e+000 101695 -2.6498e-001  5.4267e-001  5.1717e+000 31338 101387,101646,101231
 4.0000e+000 101943 -8.1581e+000 -1.4968e+000  4.9944e-001 30748 101966,101796,101744
 4.0000e+000 101920 -6.3599e+000 -4.9463e+000 -1.4246e-001 30748 101966,101744,101718
 4.0000e+000 101897 -1.1626e+001 -9.8236e+000  1.0125e+000 30748 101718,101848,101822
 4.0000e+000 101874 -5.4195e+000 -8.2253e-001  7.7880e-001 30748 101744,101796,101770
 4.0000e+000 101992 -8.5512e+000 -4.0596e+000  7.2396e-001 30748 101822,101796,101966
 4.0000e+000 102015 -7.1636e+000 -7.9135e+000  5.4723e-001 30748 101822,101966,101718
 4.0000e+000 102493  1.1091e+001  1.5220e+001 -1.8108e+000 30344 102516,102173,102147
 4.0000e+000 102470  1.2351e+001  1.9245e+001 -1.5974e+000 30344 102660,102516,102147
 4.0000e+000 102447  1.2348e+001  1.3945e+001 -3.4578e+000 30344 102588,102199,102173
 4.0000e+000 102424  1.0257e+001  2.1968e+001 -2.0835e+000 30344 102660,102147,102329
 4.0000e+000 102401  9.1252e+000  1.0346e+001 -7.1042e+000 30344 102199,102277,102251
 4.0000e+000 102378  9.4902e+000  1.6200e+001 -1.1239e+001 30344 102199,102251,102225
 4.0000e+000 102355  1.1990e+001  2.3295e+001  1.8581e+000 30344 102121,102329,102147
 4.0000e+000 102542  1.1763e+001  1.5633e+001 -3.9769e+000 30344 102588,102173,102516
 4.0000e+000 102565  1.2342e+001  1.8017e+001 -5.0112e+000 30344 102277,102516,102303
 4.0000e+000 102614  1.2132e+001  1.2908e+001 -3.7609e+000 30344 102277,102199,102588
 4.0000e+000 102637  1.0789e+001  1.3577e+001 -4.5225e+000 30344 102277,102588,102516
 4.0000e+000 102686  1.0313e+001  1.5906e+001 -2.4966e+000 30344 102303,102516,102660
 4.0000e+000 102709  8.5864e+000  1.8861e+001 -2.7397e+000 30344 102303,102660,102329
 4.0000e+000 103294  1.4117e+001  9.6875e+000 -2.5299e+000 29726 103317,103101,103075
 4.0000e+000 103271  1.3553e+001  1.6619e+001 -2.9258e+000 29726 103317,103075,102997
 4.0000e+000 103248  4.1330e+000  1.8655e+001  5.1983e-001 29726 102971,103153,102997
 4.0000e+000 103225  1.8339e+001  2.2838e+001 -9.2323e-001 29726 103101,103153,103127
 4.0000e+000 103202  1.3140e+001  1.9596e+001 -2.0388e+000 29726 102997,103075,103023
 4.0000e+000 103179  8.2947e+000  1.8980e+001 -2.8476e+000 29726 103023,103075,103049
 4.0000e+000 103343  1.5478e+001  1.4979e+001 -3.8272e+000 29726 103153,103101,103317
 4.0000e+000 103366  1.3190e+001  1.9414e+001 -4.4059e+000 29726 103153,103317,102997
 4.0000e+000 103614  2.5856e+000  1.0426e+001  3.6009e+000 29200 103781,103637,103467
 4.0000e+000 103591  5.2876e+000  1.5393e+001 -2.9157e+000 29200 103709,103637,103415
 4.0000e+000 103568  5.5844e+000  1.4198e+001 -2.4909e+000 29200 103709,103415,103389
 4.0000e+000 103545  1.4217e+000  8.6601e+000  4.7026e+000 29200 103781,103467,103441
 4.0000e+000 103663  3.5716e+000  1.1634e+001  5.1977e-001 29200 103853,103637,103493
 4.0000e+000 103686  1.8317e+000  9.5565e+000 -2.2391e-001 29200 103493,103637,103519
 4.0000e+000 103735  4.4206e+000  1.4194e+001 -2.3574e+000 29200 103519,103637,103709
 4.0000e+000 103758  5.0059e+000  1.3300e+001 -1.9967e+000 29200 103519,103709,103389
 4.0000e+000 103807  8.5281e-001  1.6617e+001 -1.4324e+000 29200 103415,103637,103781
 4.0000e+000 103830 -5.1426e+000  1.2973e+001  6.4342e-001 29200 103415,103781,103441
 4.0000e+000 103879  9.8323e+000  1.3900e+001  6.3630e-001 29200 103467,103637,103853
 4.0000e+000 104545 -3.9454e+000  2.6581e-001  6.6085e+000 28860 104274,104352,104326
 4.0000e+000 104522 -1.2315e+001 -2.3360e-001  7.4338e+000 28860 104248,104352,104274
 4.0000e+000 104499  8.9663e-001  7.9717e+000  2.6319e+000 28860 104248,104404,104352
 4.0000e+000 104476 -5.4339e+000  1.3145e+001  3.5347e+000 28860 104222,104404,104248
 4.0000e+000 104453 -8.5249e+000  3.4733e+000  8.9895e+000 28860 104352,104404,104378
 4.0000e+000 104430 -7.0511e+000  1.4363e+000  4.5050e+000 28860 104274,104326,104300
 4.0000e+000 104744 -5.3638e+000 -1.5364e+000  7.0654e-002 28456 104839,104767,104646
 4.0000e+000 104721 -5.8853e+000  2.2893e+000  3.9113e-001 28456 104767,104594,104568
 4.0000e+000 104698 -8.5989e+000  5.5220e-001  2.0289e+000 28456 104839,104646,104620
 4.0000e+000 104793 -9.7174e+000 -2.6061e+000 -2.9474e-001 28456 104672,104646,104767
 4.0000e+000 104816  4.5845e+000  8.6175e+000 -4.8761e+000 28456 104911,104767,104568
 4.0000e+000 104865 -4.4839e+000  2.3388e+000  6.8301e-001 28456 104594,104767,104839
 4.0000e+000 104888 -6.5048e+000  1.0336e+000  7.6579e-001 28456 105041,104839,104620
 4.0000e+000 104937 -9.8234e+000 -1.4949e+001  1.4952e+000 28456 104672,104767,104911
 4.0000e+000 105067 -1.3833e+000  2.6217e+000  3.4826e+000 28456 104594,104839,105041
 4.0000e+000 105573 -6.1752e+000  3.8880e+000  1.1804e+000 28094 105812,105596,105328
 4.0000e+000 105550 -2.9936e+000  1.8577e+000 -6.5364e-001 28094 105596,105276,105250
 4.0000e+000 105527 -8.8274e+000 -2.2345e+000 -1.3500e+000 28094 105740,105668,105432
 4.0000e+000 105504 -9.2969e+000 -3.0527e+000 -1.1491e+000 28094 105740,105432,105380
 4.0000e+000 105481 -6.5338e+000  4.1595e+000  9.6988e-001 28094 105812,105328,105302
 4.0000e+000 105458 -6.9461e+000 -5.4915e+000 -8.8907e-001 28094 105380,105432,105406
 4.0000e+000 105622 -5.3321e+000  2.2221e+000  7.0743e-001 28094 105354,105328,105596
 4.0000e+000 105645 -7.5863e+000  1.4493e+000 -6.6300e-001 28094 105668,105354,105596
 4.0000e+000 105694 -7.6360e+000 -3.0365e+000  5.9073e-001 28094 105250,105432,105668
 4.0000e+000 105717 -5.6147e+000 -2.2639e+000  4.7403e-001 28094 105250,105668,105596
 4.0000e+000 105766 -9.3917e+000 -1.6365e+000  2.5493e-001 28094 105354,105668,105740
 4.0000e+000 105789 -1.0085e+001 -3.0551e+000  4.8800e-001 28094 105354,105740,105380
 4.0000e+000 105838 -5.9645e+000  2.1643e+000  1.0922e+000 28094 105276,105596,105812
 4.0000e+000 105861 -4.0696e+000  3.9910e+000 -4.6108e-001 28094 105276,105812,105302
 4.0000e+000 106367  1.1991e+001  1.4423e+001 -7.3231e-001 27390 106070,106122,106096
 4.0000e+000 106344  1.6894e+001  1.7984e+001 -2.6399e+000 27390 106070,106226,106122
 4.0000e+000 106321  1.7126e+001  2.0769e+001 -5.8095e+000 27390 106174,106226,106200
 4.0000e+000 106298  1.3427e+001  1.0413e+001 -3.4965e+000 27390 106122,106226,106174
 4.0000e+000 106275  1.9270e+001  1.2872e+001 -2.9291e+000 27390 106122,106174,106148
 4.0000e+000 106252  8.5613e+000  1.3655e+001 -4.7849e+000 27390 106044,106226,106070
 4.0000e+000 106615  1.5981e+001  2.2613e+001  4.1656e-001 26978 106638,106494,106416
 4.0000e+000 106592  1.6650e+001  2.2419e+001  4.7670e-001 26978 106638,106416,106390
 4.0000e+000 106569  1.5087e+001  2.1809e+001 -6.8272e-001 26978 106416,106494,106442
 4.0000e+000 106546  1.4389e+001  2.2692e+001  1.0454e-001 26978 106442,106494,106468
 4.0000e+000 106664  1.4689e+001  2.2067e+001  6.6152e-001 26978 106520,106494,106638
 4.0000e+000 106687  1.5928e+001  2.2248e+001  6.5896e-001 26978 106520,106638,106390
 4.0000e+000 106837 -5.7807e+000 -1.8119e+000  4.1710e-001 26524 106710,106762,106736
 4.0000e+000 106814 -7.9857e+000 -4.6337e+000  1.3961e+000 26524 106710,106788,106762
 4.0000e+000 107426  3.8410e+000  4.1524e+000  2.2401e-001 26120 107129,107207,107155
 4.0000e+000 107403  1.3039e+000  6.6281e+000  1.3254e+000 26120 107129,107285,107207
 4.0000e+000 107380  9.3448e-001  9.7382e+000 -1.0962e+000 26120 107207,107285,107259
 4.0000e+000 107357 -6.7929e-002  1.0870e+000  2.9063e+000 26120 107155,107207,107181
 4.0000e+000 107334 -2.3918e+000  3.8619e+000 -1.1306e+000 26120 107103,107285,107129
 4.0000e+000 107311 -1.7858e+000  1.5927e+001  5.7768e-001 26120 107207,107259,107233
 4.0000e+000 107755 -8.9759e+000 -1.3528e+000  4.3595e-001 25758 107556,107634,107608
 4.0000e+000 107732 -6.1294e+000  1.3209e+000 -6.6577e-001 25758 107556,107660,107634
 4.0000e+000 107709 -5.7562e+000  1.2840e+000  2.5589e+000 25758 107556,107608,107582
 4.0000e+000 107686 -4.0462e+000 -1.2504e+000 -1.1859e+000 25758 107530,107660,107556
 4.0000e+000 108438 -3.8468e+000  2.7882e+000 -6.1889e-001 25468 108121,108199,108173
 4.0000e+000 108415 -3.4659e+000  5.2832e+000  1.4089e+000 25468 108095,108199,108121
 4.0000e+000 108392 -2.2079e+000  3.8902e-001  1.6731e+000 25468 108095,108251,108199
 4.0000e+000 108369 -2.1840e+000  4.6978e+000  2.6333e+000 25468 108069,108251,108095
 4.0000e+000 108346 -9.1703e+000 -2.7947e+000  2.7474e+000 25468 108199,108251,108225
 4.0000e+000 108323  8.0943e-002  5.1986e+000  3.9890e+000 25468 108017,108251,108069
 4.0000e+000 108300 -5.2155e+000  3.5078e+000 -1.5723e+000 25468 108121,108173,108147
 4.0000e+000 108277 -3.6744e+000  9.0704e+000  8.2346e+000 25468 108017,108069,108043
 4.0000e+000 108588  4.4200e+000  1.2718e+001  6.6355e-001 25064 108611,108513,108487
 4.0000e+000 108565  1.0912e+001  1.2115e+001 -7.5971e-001 25064 108683,108611,108487
 4.0000e+000 108637  2.3043e+000  1.0473e+001  1.7125e+000 25064 108539,108513,108611
 4.0000e+000 108660  2.6339e+000  8.7644e+000  3.6236e-001 25064 108539,108611,108461
 4.0000e+000 108709  1.9912e+000  6.1691e+000  1.8174e+000 25064 108461,108611,108683
 4.0000e+000 109345  3.1338e+000  2.6617e+000  5.1040e-001 24410 108999,109155,109103
 4.0000e+000 109322  4.1344e+000  3.0957e+000  5.6371e-001 24410 108973,109155,108999
 4.0000e+000 109299 -1.1761e+000  2.1625e+000 -1.0480e+000 24410 109103,109155,109129
 4.0000e+000 109276  3.5990e+000  7.0316e+000 -1.0049e+000 24410 108973,109181,109155
 4.0000e+000 109253 -5.6040e-001 -2.7910e-001  6.5387e+000 24410 109025,109103,109077
 4.0000e+000 109230  3.8624e+000 -1.6226e+000  1.6729e+000 24410 108999,109103,109025
 4.0000e+000 109207  3.2330e+000  3.3377e+000  5.0182e+000 24410 109025,109077,109051
 4.0000e+000 109723  5.8085e-001  2.8759e+000  2.5377e+000 23856 109475,109579,109553
 4.0000e+000 109700 -8.1949e-001 -4.6789e-001  3.0284e+000 23856 109475,109605,109579
 4.0000e+000 109677  2.2303e+000  7.4914e+000  9.7693e-001 23856 109475,109553,109527
 4.0000e+000 109654 -6.4908e+000 -2.9371e+000  4.7391e+000 23856 109449,109605,109475
 4.0000e+000 109631  3.3988e+000  9.9236e+000  2.0854e+000 23856 109475,109527,109501
 4.0000e+000 110101  2.0249e+000  2.9351e+000  3.2929e+000 23566 109853,109931,109879
 4.0000e+000 110078  2.3916e+000  2.2904e+000  2.1540e+000 23566 109827,109931,109853
 4.0000e+000 110055 -2.0119e+000  1.4622e+000  3.2421e+000 23566 109827,109983,109931
 4.0000e+000 110032  6.8312e-001  2.6271e+000  3.1923e+000 23566 109879,109931,109905
 4.0000e+000 110009  1.2730e+000  3.1542e+000  8.9085e+000 23566 109931,109983,109957
 4.0000e+000 110735  1.6698e+001  2.4370e+001 -2.8822e+000 23162 110415,110571,110519
 4.0000e+000 110712  1.7732e+001  2.2827e+001 -2.6057e+000 23162 110389,110571,110415
 4.0000e+000 110689  1.2754e+001  2.3089e+001 -1.3933e+000 23162 110415,110519,110493
 4.0000e+000 110666  1.7193e+001  2.3538e+001 -1.0780e+000 23162 110363,110571,110389
 4.0000e+000 110643  1.5127e+001  2.4788e+001 -8.4170e-002 23162 110441,110493,110467
 4.0000e+000 110620  1.6072e+001  2.4414e+001 -2.0424e+000 23162 110415,110493,110441
 4.0000e+000 110597  1.9155e+001  3.0210e+001 -3.7844e+000 23162 110519,110571,110545
 4.0000e+000 111211 -5.3057e+000  7.9661e-001  4.9783e-002 22708 111378,111306,111021
 4.0000e+000 111188 -4.7489e+000  1.0403e+000 -6.8755e-002 22708 111234,110969,110917
 4.0000e+000 111165 -2.2895e+000  1.1066e+000  3.6694e-001 22708 111450,111234,110917
 4.0000e+000 111142 -5.1113e+000  1.3795e+000 -1.2575e-001 22708 111378,111021,110995
 4.0000e+000 111119 -1.5791e+000  1.1452e+000  2.0454e+000 22708 111450,110917,110865
 4.0000e+000 111096 -4.1267e+000  2.0184e+000 -5.8473e-001 22708 110917,110969,110943
 4.0000e+000 111073 -4.1375e-001  5.8018e+000  2.3625e+000 22708 110865,110917,110891
 4.0000e+000 111260 -4.8528e+000  1.0665e+000  5.0714e-002 22708 111306,110969,111234
 4.0000e+000 111283 -5.0920e+000 -1.4908e+000 -4.0972e-001 22708 111047,111234,110839
 4.0000e+000 111332 -6.4584e+000 -1.3163e+000 -3.6678e-001 22708 111047,111021,111306
 4.0000e+000 111355 -5.1316e+000  9.2442e-001  1.8868e-001 22708 111047,111306,111234
 4.0000e+000 111404 -4.7309e+000  1.7009e+000 -2.3861e-001 22708 110969,111306,111378
 4.0000e+000 111427 -4.9145e+000  1.6789e+000 -3.6441e-001 22708 110969,111378,110995
 4.0000e+000 111476 -5.1101e+000  7.0473e-001 -1.7968e-001 22708 110839,111234,111450
 4.0000e+000 111499 -4.8470e+000  7.6750e-001  1.6685e+000 22708 110839,111450,110865
 4.0000e+000 111600  1.7220e+001  2.4218e+001  1.1877e+000 22460 111522,111574,111548
 4.0000e+000 112059  2.0424e+001  1.7904e+001 -1.7090e+000 22056 111811,111889,111863
 4.0000e+000 112036  2.0280e+001  2.1018e+001 -2.7584e+000 22056 111811,111915,111889
 4.0000e+000 112013  2.0015e+001  2.0153e+001 -3.6448e+000 22056 111785,111915,111811
 4.0000e+000 111990  1.4524e+001  2.4145e+001 -9.2931e+000 22056 111785,111941,111915
 4.0000e+000 111967  2.3635e+001  2.1831e+001 -3.2173e+000 22056 111811,111863,111837
 4.0000e+000 112486  2.1666e+001  2.4918e+001 -5.0088e-001 21594 112509,112267,112215
 4.0000e+000 112463  1.7101e+001  2.3007e+001 -6.7780e-001 21594 112509,112215,112163
 4.0000e+000 112440  1.9594e+001  2.5575e+001 -4.6065e+000 21594 112581,112293,112267
 4.0000e+000 112417  2.0448e+001  2.0924e+001  2.8466e-001 21594 112215,112267,112241
 4.0000e+000 112394  1.5456e+001  2.6754e+001 -3.7247e+000 21594 112163,112345,112319
 4.0000e+000 112371  1.8999e+001  2.9268e+001 -8.2693e-001 21594 112163,112215,112189
 4.0000e+000 112535  2.1950e+001  2.3978e+001 -2.5820e+000 21594 112581,112267,112509
 4.0000e+000 112558  1.9227e+001  2.4152e+001 -1.8608e+000 21594 112319,112509,112163
 4.0000e+000 112607  1.4656e+001  2.3950e+001 -4.9227e+000 21594 112319,112293,112581
 4.0000e+000 112630  1.7646e+001  2.3159e+001 -2.2895e+000 21594 112319,112581,112509
 4.0000e+000 112900 -4.9284e+000  8.7669e-001  6.6166e-002 20974 112675,112779,112701
 4.0000e+000 112877 -5.9940e+000  9.3940e-001 -4.1544e-002 20974 112675,112805,112779
 4.0000e+000 112854 -6.5770e+000 -7.0215e-001 -5.7704e-001 20974 112701,112779,112753
 4.0000e+000 112831 -8.2987e+000 -4.7287e+000  1.7148e+000 20974 112701,112753,112727
 4.0000e+000 113359  2.8369e+000  8.7162e+000  2.4222e+000 20520 113454,113137,113111
 4.0000e+000 113336  4.5611e+000  2.4130e+000 -1.7519e+000 20520 113454,113111,113085
 4.0000e+000 113313 -3.5414e-001  4.7095e+000  3.2517e+000 20520 113382,113163,113137
 4.0000e+000 113290 -4.3452e-001  1.1198e+000  1.5746e+000 20520 113526,113382,113137
 4.0000e+000 113267 -3.7934e+000 -3.3999e+000  6.0408e-001 20520 113189,113241,113215
 4.0000e+000 113408 -1.8651e+000  1.4385e+000  2.6117e+000 20520 113189,113163,113382
 4.0000e+000 113431 -2.7421e+000 -4.2068e-001 -3.1960e-001 20520 113189,113382,113241
 4.0000e+000 113480 -5.2222e-002  2.2163e+000  1.7042e+000 20520 113526,113137,113454
 4.0000e+000 113503  2.0588e+000 -2.4357e+000 -8.5912e-001 20520 113241,113454,113085
 4.0000e+000 113552 -1.0233e+000  2.9098e+000  1.0247e+000 20520 113241,113382,113526
 4.0000e+000 113575 -1.0045e+000  3.4292e+000  9.8640e-001 20520 113241,113526,113454
 4.0000e+000 113904  7.0733e+000  1.8848e+000 -1.7281e+000 19858 113705,113783,113757
 4.0000e+000 113881 -9.5993e-001 -7.8180e-001  1.2887e+000 19858 113705,113809,113783
 4.0000e+000 113858 -2.2537e-001  9.1220e-001 -3.6640e+000 19858 113679,113809,113705
 4.0000e+000 113835  1.0578e+001  1.0603e+001 -1.1770e+000 19858 113705,113757,113731
 4.0000e+000 114152  4.8863e+000  7.1054e+000 -1.1007e+000 19454 114175,114005,113979
 4.0000e+000 114129  4.9465e+000  6.2874e+000 -1.1342e+000 19454 114175,113979,114057
 4.0000e+000 114106  5.9763e+000  8.7298e+000 -1.1632e+000 19454 113927,114057,113979
 4.0000e+000 114083  2.8723e+000  1.2252e+001  2.6050e+000 19454 113927,113979,113953
 4.0000e+000 114201  6.6060e+000  7.5788e+000  3.4460e+000 19454 114031,114005,114175
 4.0000e+000 114224  5.1914e+000  5.4257e+000 -9.9061e-001 19454 114031,114175,114057
 4.0000e+000 114472  6.3010e+000  1.3568e+000  3.7235e+000 19000 114495,114273,114247
 4.0000e+000 114449  1.9293e+000  2.2988e+000  8.2730e-001 19000 114495,114247,114325
 4.0000e+000 114426  1.1185e+000  2.1334e+000  1.5186e+000 19000 114247,114377,114325
 4.0000e+000 114403  5.5384e-001  4.0052e-001  2.0420e+000 19000 114325,114377,114351
 4.0000e+000 114521  1.8517e+001  5.9652e+000  6.5372e+000 19000 114299,114273,114495
 4.0000e+000 114544  5.0000e+000 -5.9020e-002  2.5935e+000 19000 114299,114495,114325
 4.0000e+000 114948  1.7252e+000  2.4976e+000 -2.2363e+000 18560 114674,114726,114700
 4.0000e+000 114925  1.0149e+000 -5.6968e-001 -1.8599e+000 18560 114674,114830,114726
 4.0000e+000 114902  7.5097e-001 -9.1831e-001 -5.3115e-001 18560 114726,114830,114804
 4.0000e+000 114879 -1.7136e+000 -9.1313e-001 -1.2412e+000 18560 114726,114804,114752
 4.0000e+000 114856 -5.5116e+000 -5.5251e+000  3.7365e-001 18560 114752,114804,114778
 4.0000e+000 115098  1.1955e+001  5.6442e+000  6.7985e-001 18156 114971,115023,114997
 4.0000e+000 115075  1.0813e+001  1.3172e+001  9.5232e-001 18156 114971,115049,115023
 4.0000e+000 115248 -9.9643e-001 -9.5098e+000 -1.4005e+000 17602 115147,115199,115173
 4.0000e+000 115225 -6.2942e-001 -4.7517e+000  6.0221e-001 17602 115121,115199,115147
 4.0000e+000 115652  2.0875e+001  4.1373e+000 -8.6802e-001 17354 115430,115534,115508
 4.0000e+000 115629  1.6007e+001 -2.5026e-001  1.0422e+000 17354 115404,115534,115430
 4.0000e+000 115606  2.2220e+001  1.2847e+001  2.9668e+000 17354 115378,115534,115404
 4.0000e+000 115583  2.0432e+001 -6.4702e-001 -6.7288e-001 17354 115456,115508,115482
 4.0000e+000 115560  1.8594e+001 -2.4361e+000  5.2340e-002 17354 115430,115508,115456
 4.0000e+000 115873 -5.6021e+000  2.2371e+000  5.0909e-001 16950 115749,115801,115775
 4.0000e+000 115850 -4.5237e+000  3.2207e+000  9.3399e-001 16950 115697,115801,115749
 4.0000e+000 115827 -5.5411e+000  1.2314e+000  5.7407e-001 16950 115697,115749,115723
 4.0000e+000 116023  3.8187e+000  1.6438e+000 -2.3046e+000 16496 115922,115974,115948
 4.0000e+000 116000  2.9611e+000  5.4008e+000 -9.2461e-001 16496 115896,115974,115922
 4.0000e+000 116126  2.0867e+001  2.4082e+001 -2.8945e-002 16298 116048,116100,116074
 4.0000e+000 116278 -8.3677e+000  3.1064e+000  4.1611e-001 15892 116151,116203,116177
 4.0000e+000 116255 -4.7128e+000  9.2618e+000 -1.3722e+000 15892 116151,116229,116203
 4.0000e+000 116430  2.0796e+001  2.2924e+001  6.7075e-002 15545 116303,116355,116329
 4.0000e+000 116407  2.0512e+001  2.2980e+001  1.1073e-001 15545 116303,116381,116355
 4.0000e+000 116785 -3.6166e+000 -1.6595e+000 -1.2185e+000 421 116612,116690,116664
 4.0000e+000 116762 -2.0780e+000  1.9323e+000 -1.1070e+000 421 116560,116690,116612
 4.0000e+000 116739  4.2098e+000  4.0766e+000 -3.5705e-001 421 116560,116612,116586
 4.0000e+000 116716 -1.9875e+000  3.3202e+000 -1.8995e-001 421 116612,116664,116638
