time zIndex S11 S22 S12 block gridPoints
f i f f f i l
 1.0000e-001 68477  7.0541e+000  1.2146e+001  9.8389e-001 68018 68327,68379,68353
 1.0000e-001 68454  7.5756e+000  1.7216e+001 -4.5301e-001 68018 68301,68379,68327
 1.0000e-001 68431  2.0762e+001  1.7541e+001  4.7814e+000 68018 68301,68405,68379
 1.0000e-001 68578 -2.0857e+000  1.5270e+001 -1.1934e-001 67820 68500,68552,68526
 1.0000e-001 68728  2.1121e+000  1.6614e+001  4.5632e-001 67508 68601,68653,68627
 1.0000e-001 68705  9.4864e+000  9.8607e+000  3.6437e+000 67508 68601,68679,68653
 1.0000e-001 68927 -4.9975e+000  4.2812e+000  1.8573e-001 67310 68777,68829,68803
 1.0000e-001 68904 -3.6950e+000  5.6320e+000 -3.5836e-001 67310 68751,68829,68777
 1.0000e-001 68881 -2.5934e+000  7.0695e+000  1.8210e-001 67310 68751,68855,68829
 1.0000e-001 69386 -1.8786e+000  1.9882e+001 -2.0843e+000 67020 69216,69268,69242
 1.0000e-001 69363 -1.3273e+000  1.4050e+001  7.2288e-001 67020 69138,69268,69216
 1.0000e-001 69340  1.0774e-001  2.3022e+001  7.6090e+000 67020 69112,69268,69138
 1.0000e-001 69317  4.2833e+000  1.4655e+001 -6.3399e+000 67020 69138,69190,69164
 1.0000e-001 69294  6.6660e+000  1.6297e+001 -2.5997e+000 67020 69138,69216,69190
 1.0000e-001 69536 -2.7866e+001 -1.3954e+001  4.4351e+000 66708 69435,69487,69461
 1.0000e-001 69513 -2.4153e+001 -8.3889e+000  1.8027e+000 66708 69409,69487,69435
 1.0000e-001 69735  2.2927e+000  1.9940e+001 -5.4173e-001 66346 69585,69637,69611
 1.0000e-001 69712  6.3275e-001  1.9517e+001 -9.6385e-002 66346 69559,69637,69585
 1.0000e-001 69689  1.6951e-001  2.0960e+001  2.6649e+000 66346 69559,69663,69637
 1.0000e-001 69985 -6.6209e+000  7.4330e+000  6.4924e-001 66148 69786,69890,69864
 1.0000e-001 69962 -1.8133e+000  9.6492e+000  9.7985e-002 66148 69760,69890,69786
 1.0000e-001 69939 -6.2998e+000  9.9210e+000  1.2801e+000 66148 69786,69864,69838
 1.0000e-001 69916 -6.4913e+000  1.1078e+001  2.5169e+000 66148 69786,69838,69812
 1.0000e-001 70137 -6.0942e+000  4.4991e+000  6.8231e-001 65950 70036,70088,70062
 1.0000e-001 70114 -1.0309e+001  5.1022e+000 -1.0450e+000 65950 70010,70088,70036
 1.0000e-001 70470 -5.7208e+000  2.9297e+000  6.5933e-001 65546 70245,70323,70271
 1.0000e-001 70447 -4.9989e+000  3.3925e+000 -8.2116e-002 65546 70245,70375,70323
 1.0000e-001 70424 -3.8863e+000  5.6402e+000  3.1444e-001 65546 70323,70375,70349
 1.0000e-001 70401 -5.9092e+000  2.8422e+000  6.8941e-001 65546 70271,70323,70297
 1.0000e-001 70620 -4.7117e+000  9.9247e+000 -1.1961e+000 65348 70493,70545,70519
 1.0000e-001 70597 -2.8116e+000  1.3413e+001 -7.6061e-002 65348 70493,70571,70545
 1.0000e-001 70721  1.1937e-001  3.7515e+000  1.2230e-001 65150 70643,70695,70669
 1.0000e-001 71020 -4.0350e+000  8.4231e-001  2.0239e-001 64952 71043,70850,70824
 1.0000e-001 70997 -4.3760e+000  5.6142e-001  6.5731e-001 64952 71043,70824,70772
 1.0000e-001 70974 -4.7614e+000  3.1028e+000 -3.4701e-001 64952 71115,70746,70876
 1.0000e-001 70951 -4.4417e+000  3.1426e+000 -4.1168e-001 64952 70746,70902,70876
 1.0000e-001 70928 -4.8605e+000  1.5815e+000 -3.2738e-002 64952 70772,70824,70798
 1.0000e-001 71069 -4.8955e+000  2.3090e-001 -4.1936e-001 64952 70876,70850,71043
 1.0000e-001 71092 -4.0951e+000  2.1503e+000 -6.9983e-002 64952 71115,70876,71043
 1.0000e-001 71141 -4.8957e+000  2.1223e+000  2.8673e-001 64952 70772,70746,71115
 1.0000e-001 71164 -4.8315e+000  6.1444e-001  7.0230e-001 64952 70772,71115,71043
 1.0000e-001 71365 -4.9599e+000  2.2559e+000  3.2979e-001 64662 71215,71293,71267
 1.0000e-001 71342 -6.6846e+000 -3.6177e-001  1.2199e+000 64662 71189,71293,71215
 1.0000e-001 71319 -6.2117e+000 -1.6530e+000  5.3042e-001 64662 71215,71267,71241
 1.0000e-001 71615  2.7551e+000  1.3104e+001  3.4606e-001 64350 71710,71638,71468
 1.0000e-001 71592 -6.1542e-001  1.3537e+001  6.1666e-002 64350 71638,71416,71390
 1.0000e-001 71569  3.0325e+000  1.2782e+001  3.4605e-002 64350 71710,71468,71442
 1.0000e-001 71546  1.7332e+001  1.5395e+001 -8.6345e+000 64350 71390,71520,71494
 1.0000e-001 71664  3.1364e+000  1.3208e+001  5.3322e-001 64350 71494,71468,71638
 1.0000e-001 71687  1.7955e+000  1.4780e+001 -4.0550e-001 64350 71494,71638,71390
 1.0000e-001 71736  2.1725e+000  1.2406e+001  6.9753e-001 64350 71416,71638,71710
 1.0000e-001 71759  2.7661e+000  1.2298e+001  3.5073e-001 64350 71416,71710,71442
 1.0000e-001 72318  3.8534e+000  3.6963e+000  1.3346e+000 63837 71972,72024,71998
 1.0000e-001 72295 -3.9845e+000  3.3634e+000  2.3275e+000 63837 72341,71972,71946
 1.0000e-001 72272 -1.2700e+000  6.1158e+000  9.7277e-002 63837 72413,72341,71946
 1.0000e-001 72249 -2.0568e+000  7.6155e+000 -2.2537e-001 63837 72413,71946,72128
 1.0000e-001 72226 -1.5969e+000  4.4358e+000 -3.3646e+000 63837 72024,72076,72050
 1.0000e-001 72203 -2.3608e+000  1.7707e+000 -1.7452e+000 63837 72024,72102,72076
 1.0000e-001 72180 -3.3464e+000  6.9734e+000  2.1491e-001 63837 71946,72154,72128
 1.0000e-001 72367 -1.9353e-002  4.8751e+000  1.3822e+000 63837 72024,71972,72341
 1.0000e-001 72390 -8.9832e-001  3.9969e+000 -6.2344e-001 63837 72024,72341,72102
 1.0000e-001 72439 -1.5276e+000  3.7480e+000 -5.8937e-001 63837 72102,72341,72413
 1.0000e-001 72462 -1.9984e+000  5.5640e+000 -6.8674e-001 63837 72102,72413,72128
 1.0000e-001 72791 -1.7469e+000  5.9071e+000  1.6410e+000 63383 72592,72696,72670
 1.0000e-001 72768  1.0185e+000  1.1148e+001  2.9825e+000 63383 72566,72696,72592
 1.0000e-001 72745  6.4686e-001  5.5592e+000  8.0540e-001 63383 72592,72670,72618
 1.0000e-001 72722  6.8104e-001  5.0991e+000  1.2100e+000 63383 72618,72670,72644
 1.0000e-001 73297 -5.5708e+000  9.6465e-001 -2.5080e+000 63185 73000,73156,73130
 1.0000e-001 73274 -3.2995e+000  6.1386e+000 -1.9069e+000 63185 72974,73156,73000
 1.0000e-001 73251 -2.6321e+000  5.9562e+000 -1.8075e+000 63185 73000,73052,73026
 1.0000e-001 73228 -1.3104e+000  3.7772e+000 -1.2587e+000 63185 73000,73130,73052
 1.0000e-001 73205 -1.4594e+000  5.0529e+000  1.6541e-001 63185 73052,73130,73104
 1.0000e-001 73182 -8.3874e-001  7.0315e+000  6.2436e-001 63185 73052,73104,73078
 1.0000e-001 73545 -2.6963e+000  4.9036e+000 -5.2041e-001 62781 73568,73398,73372
 1.0000e-001 73522 -3.3728e+000  3.3112e+000 -6.9098e-001 62781 73568,73372,73346
 1.0000e-001 73499 -2.0208e+000  3.8268e+000  2.7664e-001 62781 73640,73320,73424
 1.0000e-001 73476 -3.8222e+000  1.6414e+000  1.0911e+000 62781 73320,73450,73424
 1.0000e-001 73594 -3.5123e+000  3.5433e+000 -9.1478e-002 62781 73424,73398,73568
 1.0000e-001 73617 -2.5527e+000  3.5482e+000  9.9362e-002 62781 73640,73424,73568
 1.0000e-001 73666 -2.1877e+000  3.5268e+000 -2.5312e-001 62781 73346,73320,73640
 1.0000e-001 73689 -2.4680e+000  3.2858e+000 -4.1689e-001 62781 73346,73640,73568
 1.0000e-001 74035 -9.6372e-002  1.5220e+001  7.2525e-001 62363 74058,73868,73842
 1.0000e-001 74012 -2.3353e+000  1.1799e+001  3.0501e+000 62363 74130,74058,73842
 1.0000e-001 73989 -3.4332e+000  1.2210e+001  4.3800e+000 62363 74130,73842,73816
 1.0000e-001 73966  2.5792e+000  1.8232e+001 -4.7777e-001 62363 74202,73764,73894
 1.0000e-001 73943  5.8796e+000  1.4409e+001 -9.7107e-001 62363 73712,73894,73764
 1.0000e-001 73920  7.9767e+000  1.5501e+001  3.3838e-001 62363 73712,73764,73738
 1.0000e-001 74084 -1.5363e+000  1.3784e+001  1.3054e-001 62363 73894,73868,74058
 1.0000e-001 74107  1.1759e+000  1.6189e+001 -1.3449e+000 62363 74202,73894,74058
 1.0000e-001 74156 -5.5695e-001  1.4145e+001  3.4634e-001 62363 73790,74058,74130
 1.0000e-001 74179 -4.2345e+000  1.3973e+001  1.5830e+000 62363 73790,74130,73816
 1.0000e-001 74228  3.8720e+000  1.8828e+001  2.3646e+000 62363 73790,73764,74202
 1.0000e-001 74251  2.6600e+000  1.6553e+001  1.5390e+000 62363 73790,74202,74058
 1.0000e-001 74403 -9.1050e+000  1.2842e+001 -1.0484e+000 62115 74426,74302,74276
 1.0000e-001 74380 -1.3019e+001  1.2902e+001 -2.6273e+000 62115 74426,74276,74354
 1.0000e-001 74452 -5.7399e+000  1.1616e+001 -1.1874e+000 62115 74328,74302,74426
 1.0000e-001 74475 -9.2784e+000  1.1904e+001 -2.8908e+000 62115 74328,74426,74354
 1.0000e-001 74578 -3.8861e+000  3.5968e+000  3.6212e-001 61825 74500,74552,74526
 1.0000e-001 74982  2.2364e+000  1.8955e+001  1.0473e+000 61513 75005,74734,74708
 1.0000e-001 74959  5.0417e+000  1.7875e+001  1.0092e+000 61513 75005,74708,74864
 1.0000e-001 74936  9.1375e+000  2.0846e+001  8.0826e-001 61513 75077,74812,74734
 1.0000e-001 74913 -1.4495e+000  1.7201e+001  3.3417e+000 61513 74734,74786,74760
 1.0000e-001 74890 -2.6252e+000  1.4363e+001  3.3584e+000 61513 74734,74812,74786
 1.0000e-001 75031  4.2219e+000  2.0116e+001  1.7273e+000 61513 75077,74734,75005
 1.0000e-001 75054  2.4879e+000  1.8142e+001 -1.9263e+000 61513 74838,75005,74864
 1.0000e-001 75103  1.1507e+001  2.0604e+001 -4.0337e+000 61513 74838,74812,75077
 1.0000e-001 75126  8.4436e+000  2.1052e+001 -3.0556e+000 61513 74838,75077,75005
 1.0000e-001 75553  1.3804e+000  1.3180e+001 -1.4393e+000 61060 75576,75360,75308
 1.0000e-001 75530  5.8755e-002  1.5529e+001 -1.9380e+000 61060 75576,75308,75230
 1.0000e-001 75507  1.9925e+000  1.3188e+001 -1.6899e+000 61060 75308,75360,75334
 1.0000e-001 75484  2.5484e+000  2.1803e+001 -1.2914e+000 61060 75230,75308,75256
 1.0000e-001 75461  1.3900e+000  1.7512e+001  1.0940e+000 61060 75256,75308,75282
 1.0000e-001 75438  4.6377e+000  1.0525e+001 -6.0823e+000 61060 75360,75412,75386
 1.0000e-001 75602  1.6554e+000  1.4756e+001 -2.3606e+000 61060 75412,75360,75576
 1.0000e-001 75625  8.8812e-001  1.8061e+001 -2.7309e+000 61060 75412,75576,75230
 1.0000e-001 76052 -2.7227e+000  5.3497e+000  1.1508e+000 60442 75755,75859,75833
 1.0000e-001 76029 -5.9435e-001  4.8261e+000  2.5365e+000 60442 75729,75859,75755
 1.0000e-001 76006 -6.5924e-001  6.3331e+000 -7.2048e-001 60442 75755,75833,75807
 1.0000e-001 75983 -1.6742e+000  5.5057e+000 -1.0907e+000 60442 75755,75807,75781
 1.0000e-001 75960  1.9461e+000  6.0253e+000  1.8485e+000 60442 75729,75911,75859
 1.0000e-001 75937  4.0376e+000  9.7568e+000  2.8729e+000 60442 75859,75911,75885
 1.0000e-001 76430 -1.8057e+000  4.6470e+000  2.7590e-001 59788 76453,76286,76234
 1.0000e-001 76407 -1.1646e+000  5.9411e+000  5.2654e-001 59788 76453,76234,76182
 1.0000e-001 76384 -1.5510e+000  4.2112e+000 -3.5678e-001 59788 76525,76156,76312
 1.0000e-001 76361 -2.5587e+000  9.8063e+000  4.7328e-001 59788 76182,76234,76208
 1.0000e-001 76338 -2.0020e-001  6.0944e+000  9.5644e-001 59788 76234,76286,76260
 1.0000e-001 76479 -2.1811e+000  5.2929e+000 -3.2417e-001 59788 76312,76286,76453
 1.0000e-001 76502 -1.9439e+000  5.1750e+000 -1.0609e-001 59788 76525,76312,76453
 1.0000e-001 76551 -1.2873e+000  5.5142e+000 -5.2595e-001 59788 76182,76156,76525
 1.0000e-001 76574 -1.5131e+000  5.8442e+000 -3.0969e-001 59788 76182,76525,76453
 1.0000e-001 77031 -2.6548e+000  3.8957e+000  1.1420e+000 59448 76835,76887,76861
 1.0000e-001 77008 -4.9914e+000 -3.5357e-001  2.3206e-001 59448 76835,76913,76887
 1.0000e-001 76985 -3.8656e+000  5.3182e-001 -5.6594e-001 59448 76809,76913,76835
 1.0000e-001 76962 -1.7832e+000  1.4952e+000  8.9061e-001 59448 76757,76913,76809
 1.0000e-001 76939 -2.4232e+000  5.5503e-001  1.1735e+000 59448 76757,76809,76783
 1.0000e-001 77537  2.0461e+000  2.2387e+001 -8.8518e-001 58994 77560,77344,77292
 1.0000e-001 77514  6.8679e+000  1.9999e+001 -3.7099e-001 58994 77560,77292,77240
 1.0000e-001 77491 -1.1465e+000  1.6987e+001  2.2256e+000 58994 77632,77214,77370
 1.0000e-001 77468  5.0005e+000  2.3900e+001 -3.7564e+000 58994 77292,77344,77318
 1.0000e-001 77445 -2.1662e+000  2.3304e+001  7.7980e-001 58994 77214,77396,77370
 1.0000e-001 77422  1.0634e+001  2.8137e+001 -1.4488e+000 58994 77240,77292,77266
 1.0000e-001 77586  5.0460e+000  2.1074e+001 -1.0676e+000 58994 77370,77344,77560
 1.0000e-001 77609  3.3005e+000  1.9654e+001 -1.6894e+000 58994 77632,77370,77560
 1.0000e-001 77658 -3.5671e+000  1.4207e+001  6.2435e+000 58994 77240,77214,77632
 1.0000e-001 77681 -2.9460e-001  1.3692e+001  2.6918e+000 58994 77240,77632,77560
 1.0000e-001 78138  6.7556e+000  7.9889e+000  1.7107e+000 58440 77864,77994,77890
 1.0000e-001 78115  5.8739e+000  5.8573e+000  2.9505e+000 58440 77864,78020,77994
 1.0000e-001 78092  2.5449e+000  7.3511e+000  3.5443e+000 58440 77942,77994,77968
 1.0000e-001 78069  1.3643e+000  6.9928e+000  2.3005e+000 58440 77890,77994,77942
 1.0000e-001 78046  2.4281e+000  8.0314e+000  1.7333e+000 58440 77890,77942,77916
 1.0000e-001 78467  2.0597e+000  1.6622e+001 -1.5823e-001 57928 78562,78490,78346
 1.0000e-001 78444  1.9821e+000  1.5849e+001 -8.7944e-001 57928 78490,78294,78268
 1.0000e-001 78421  1.7867e+000  1.7070e+001 -4.1984e-001 57928 78562,78346,78320
 1.0000e-001 78398 -1.0251e+000  1.3216e+001 -1.5650e+000 57928 78242,78372,78268
 1.0000e-001 78516  2.3079e+000  1.7289e+001  1.0115e-001 57928 78372,78346,78490
 1.0000e-001 78539  2.2193e+000  1.6324e+001 -2.8881e-001 57928 78372,78490,78268
 1.0000e-001 78588  2.4232e+000  1.7219e+001 -4.6490e-001 57928 78294,78490,78562
 1.0000e-001 78611  2.2146e+000  1.7961e+001 -6.6265e-001 57928 78294,78562,78320
 1.0000e-001 79068  1.7303e+000  8.2459e+000  3.1293e+000 57467 78794,78924,78820
 1.0000e-001 79045 -9.4081e-001  6.9790e+000  2.6318e+000 57467 78794,78950,78924
 1.0000e-001 79022 -3.4294e+000  5.3893e+000 -3.9735e-001 57467 78820,78898,78872
 1.0000e-001 78999  1.9941e-001  9.4926e+000  1.8950e+000 57467 78820,78924,78898
 1.0000e-001 78976 -1.2368e+000  6.6067e+000 -9.5274e-001 57467 78820,78872,78846
 1.0000e-001 79446  1.4991e+000  1.4199e+001  9.6266e-001 57120 79172,79302,79250
 1.0000e-001 79423  1.3820e+000  1.4067e+001  2.5611e+000 57120 79172,79328,79302
 1.0000e-001 79400 -7.9853e-001  9.5912e+000  2.3156e+000 57120 79172,79250,79198
 1.0000e-001 79377 -1.9096e+000  1.7457e+001 -1.6524e-001 57120 79250,79302,79276
 1.0000e-001 79354 -4.5354e+000  1.4545e+001  7.2937e+000 57120 79198,79250,79224
 1.0000e-001 79952  1.0917e-001  5.2393e+000 -1.2691e+000 56773 79629,79785,79655
 1.0000e-001 79929 -3.0546e+000  4.6495e+000 -2.0881e+000 56773 79629,79811,79785
 1.0000e-001 79906 -4.9700e-001  7.1174e+000 -1.1270e+000 56773 79655,79733,79681
 1.0000e-001 79883  1.0591e+000  6.3666e+000 -7.6690e-001 56773 79655,79785,79733
 1.0000e-001 79860  2.8986e-001  7.4006e+000  6.1613e-001 56773 79733,79785,79759
 1.0000e-001 79837 -2.2971e+000  6.2213e+000 -2.8881e+000 56773 79681,79733,79707
 1.0000e-001 80281  3.2153e+000  9.1597e+000  1.7257e+000 56319 80108,80160,80134
 1.0000e-001 80258  4.8103e-001  1.1462e+001  1.3368e+000 56319 80056,80160,80108
 1.0000e-001 80235  1.0332e+000  1.0824e+001 -1.7114e+000 56319 80056,80186,80160
 1.0000e-001 80212 -6.3694e-001  1.4379e+001  2.3749e+000 56319 80056,80108,80082
 1.0000e-001 80738 -4.7188e+000  8.5005e+000 -2.3059e+000 55957 80516,80620,80594
 1.0000e-001 80715 -4.7968e+000  5.4796e+000 -3.0500e+000 55957 80464,80620,80516
 1.0000e-001 80692 -4.1462e+000  7.7971e+000 -1.0086e+000 55957 80761,80568,80542
 1.0000e-001 80669 -7.5249e+000  8.2504e+000 -1.1623e+000 55957 80761,80542,80516
 1.0000e-001 80646 -4.5684e+000  5.9583e+000 -4.7689e+000 55957 80464,80516,80490
 1.0000e-001 80787 -1.6497e+000  8.3243e+000 -8.9527e-001 55957 80594,80568,80761
 1.0000e-001 80810 -4.7355e+000  8.9633e+000 -1.1327e+000 55957 80594,80761,80516
 1.0000e-001 81210 -1.3968e+000  4.2987e+000  1.8203e+000 55317 80936,80988,80962
 1.0000e-001 81187 -3.3700e+000  2.1261e+000  3.1671e-001 55317 80936,81066,80988
 1.0000e-001 81164 -3.3034e+000  3.1391e+000 -3.6723e-002 55317 80936,81092,81066
 1.0000e-001 81141 -9.5760e-001  3.0972e+000  1.7781e-001 55317 80988,81066,81014
 1.0000e-001 81118 -5.0375e+000  7.3741e-001 -1.0192e+000 55317 81014,81066,81040
 1.0000e-001 81539  3.3159e+000  1.4935e+001 -1.2896e+000 54913 81340,81418,81392
 1.0000e-001 81516 -2.3758e+000  1.0916e+001  5.6082e-001 54913 81340,81444,81418
 1.0000e-001 81493 -2.6249e+000  1.1343e+001  2.2154e+000 54913 81314,81444,81340
 1.0000e-001 81470  2.4328e+000  2.1535e+001 -8.6276e-001 54913 81340,81392,81366
 1.0000e-001 81787  7.0750e-001  1.2897e+001 -2.3973e-001 54601 81588,81692,81640
 1.0000e-001 81764  3.5917e+000  1.2743e+001  2.9067e-001 54601 81562,81692,81588
 1.0000e-001 81741 -6.8724e-001  1.2592e+001 -1.2979e+000 54601 81588,81640,81614
 1.0000e-001 81718 -5.7659e-001  1.7051e+001  4.0479e+000 54601 81640,81692,81666
 1.0000e-001 82344  2.1337e+000  2.1292e+001  3.1276e+000 54090 81998,82102,82076
 1.0000e-001 82321  8.2236e+000  2.4020e+001  9.8215e-001 54090 81998,82154,82102
 1.0000e-001 82298  4.4905e+000  2.1053e+001 -3.1199e-001 54090 81972,82154,81998
 1.0000e-001 82275  7.6606e+000  1.9927e+001  3.0893e+000 54090 81998,82076,82024
 1.0000e-001 82252  7.1251e+000  2.6822e+001 -1.2414e+001 54090 81972,82180,82154
 1.0000e-001 82229  1.1160e+001  2.5873e+001 -9.8792e-001 54090 82102,82154,82128
 1.0000e-001 82206 -2.6593e+000  1.3534e+001  6.3139e+000 54090 82024,82076,82050
 1.0000e-001 82722  9.9397e+000  1.5233e+001  1.2619e+000 53579 82500,82578,82552
 1.0000e-001 82699  7.4616e+000  1.5070e+001  3.2240e-001 53579 82448,82578,82500
 1.0000e-001 82676  9.8557e+000  1.6293e+001 -1.2662e+000 53579 82448,82500,82474
 1.0000e-001 82653  9.6416e+000  1.6675e+001 -2.4548e+000 53579 82448,82604,82578
 1.0000e-001 82630  5.0512e+000  1.3915e+001  1.3325e+000 53579 82500,82552,82526
 1.0000e-001 83356 -1.7440e+000  4.0870e+000  6.5882e-001 53189 83379,83088,83036
 1.0000e-001 83333 -1.8172e+000  3.9438e+000  6.2813e-001 53189 83379,83036,82984
 1.0000e-001 83310 -4.4358e+000  1.8252e+000 -1.9661e+000 53189 82984,83192,83166
 1.0000e-001 83287 -7.1841e+000  2.2155e+000  1.1063e+000 53189 83036,83088,83062
 1.0000e-001 83264 -1.7701e+000  6.5445e+000  1.0942e+000 53189 82984,83036,83010
 1.0000e-001 83241  7.0938e-001  2.6010e+000  7.5816e-001 53189 83114,83166,83140
 1.0000e-001 83218 -1.6743e+000  2.5127e+000  2.7268e-001 53189 83088,83166,83114
 1.0000e-001 83405 -1.6138e+000  3.9988e+000  7.2872e-001 53189 83166,83088,83379
 1.0000e-001 83428 -1.6879e+000  3.8604e+000  6.9308e-001 53189 83166,83379,82984
 1.0000e-001 83725  4.2850e+000  1.9268e+001  1.2945e+000 52585 83748,83529,83503
 1.0000e-001 83702  6.8105e-001  1.7840e+001  9.6534e-001 52585 83820,83748,83503
 1.0000e-001 83679 -3.1651e+000  1.8305e+001  1.1795e+000 52585 83820,83503,83477
 1.0000e-001 83656 -1.7683e+000  1.7073e+001 -1.6860e-001 52585 83477,83607,83581
 1.0000e-001 83633  2.9917e-001  1.7785e+001 -5.9411e-001 52585 83451,83607,83477
 1.0000e-001 83774  3.5659e+000  1.7063e+001  3.3140e-001 52585 83555,83529,83748
 1.0000e-001 83797  5.5403e+000  1.8133e+001 -1.2997e-001 52585 83555,83748,83581
 1.0000e-001 83846  4.2912e+000  1.7613e+001 -9.0297e-001 52585 83581,83748,83820
 1.0000e-001 83869  1.1671e+000  1.8359e+001 -3.6246e-001 52585 83581,83820,83477
 1.0000e-001 84200  7.2456e+000  1.9183e+001 -5.6929e-001 52024 84001,84105,84079
 1.0000e-001 84177  2.2785e+000  1.8841e+001  1.4715e+000 52024 83975,84105,84001
 1.0000e-001 84154  5.6064e+000  1.9895e+001 -1.3090e+000 52024 84001,84079,84053
 1.0000e-001 84131  3.1382e+000  1.3374e+001 -4.6902e+000 52024 84001,84053,84027
 1.0000e-001 84399  1.7410e+000  1.5668e+001  7.7024e-002 51470 84422,84275,84249
 1.0000e-001 84376  1.1342e+000  1.5666e+001 -8.1494e-002 51470 84422,84249,84223
 1.0000e-001 84353  2.4624e+000  1.6901e+001  2.2233e+000 51470 84275,84327,84301
 1.0000e-001 84448  2.2524e+000  1.5530e+001 -1.4590e-002 51470 84327,84275,84422
 1.0000e-001 84471  1.6122e+000  1.5512e+001 -1.2456e-001 51470 84327,84422,84223
 1.0000e-001 84753  3.8969e+000  1.8685e+001 -5.2670e-001 51073 84603,84655,84629
 1.0000e-001 84730  1.1445e+001  2.1794e+001  5.7277e-002 51073 84776,84655,84603
 1.0000e-001 84707  2.7519e+000  1.4654e+001  2.3446e+000 51073 84577,84681,84655
 1.0000e-001 84802  2.0817e+000  1.6606e+001  2.7881e+000 51073 84577,84655,84776
 1.0000e-001 85178  4.2120e-001  9.3272e+000  1.4096e+000 50519 85201,85008,84982
 1.0000e-001 85155  5.9956e-001  1.0147e+001  7.1662e-001 50519 85273,85201,84982
 1.0000e-001 85132  3.1808e-001  1.0156e+001  8.9769e-001 50519 85273,84982,84930
 1.0000e-001 85109 -1.0312e+000  9.9542e+000  1.2285e+000 50519 84930,84982,84956
 1.0000e-001 85086  1.3571e+000  9.3533e+000 -6.0281e-001 50519 85008,85060,85034
 1.0000e-001 85227  6.4404e-001  9.8184e+000  1.9393e-001 50519 85060,85008,85201
 1.0000e-001 85250  2.6349e-001  1.2289e+001  4.4650e-001 50519 85060,85201,84904
 1.0000e-001 85299  2.7651e-001  1.0367e+001  1.4166e+000 50519 84904,85201,85273
 1.0000e-001 85322 -9.3559e-001  8.6866e+000  1.9501e+000 50519 84904,85273,84930
 1.0000e-001 85958  2.7785e-001  9.0184e+000  4.5122e-001 50093 85981,85768,85716
 1.0000e-001 85935 -5.4261e-001  7.2344e+000  2.4258e-001 50093 85981,85716,85612
 1.0000e-001 85912  1.3737e+000  8.2638e+000 -6.1092e-001 50093 85612,85716,85664
 1.0000e-001 85889 -1.3805e+000  9.6549e+000  1.7073e-001 50093 85716,85768,85742
 1.0000e-001 85866  4.6164e-001  6.5192e+000  1.0478e+000 50093 85664,85716,85690
 1.0000e-001 85843 -1.5545e-001  5.1281e+000  1.6350e+000 50093 85586,85794,85612
 1.0000e-001 85820 -1.0491e+000  1.2690e+001 -2.2080e+000 50093 85612,85664,85638
 1.0000e-001 86007  2.1348e+000  1.0747e+001  3.0868e+000 50093 85794,85768,85981
 1.0000e-001 86030 -5.0430e-001  5.3393e+000  2.2091e+000 50093 85794,85981,85612
 1.0000e-001 86131 -3.1748e+000  2.5408e+001 -5.9494e+000 49895 86053,86105,86079
 1.0000e-001 86639 -1.4447e+000  6.9543e+000  9.3667e-001 49391 86662,86394,86368
 1.0000e-001 86616 -1.6799e+000  7.2597e+000  4.9430e-001 49391 86662,86368,86342
 1.0000e-001 86593 -8.4201e-001  6.6898e+000 -5.0227e-001 49391 86342,86498,86472
 1.0000e-001 86570 -2.8635e+000  6.5232e+000 -9.1008e-001 49391 86316,86498,86342
 1.0000e-001 86547  2.2912e+000  1.3672e+001  2.1189e-001 49391 86394,86472,86446
 1.0000e-001 86524 -4.7096e+000  1.2712e+001 -8.3319e-001 49391 86394,86446,86420
 1.0000e-001 86688 -4.5291e-001  7.1853e+000  8.5108e-001 49391 86472,86394,86662
 1.0000e-001 86711 -1.2415e+000  7.2368e+000  6.1260e-001 49391 86472,86662,86342
 1.0000e-001 87089  4.2372e+000  1.3133e+001 -5.6871e-001 48987 86815,86919,86867
 1.0000e-001 87066  5.1212e+000  1.4492e+001 -1.2069e+000 48987 86815,86971,86919
 1.0000e-001 87043  2.7022e+000  1.4003e+001  4.0267e-001 48987 86867,86919,86893
 1.0000e-001 87020  5.0943e+000  1.5472e+001 -1.6645e+000 48987 86815,86867,86841
 1.0000e-001 86997  4.7031e+000  1.0078e+001 -2.3958e+000 48987 86919,86971,86945
 1.0000e-001 87467  8.5099e+000  1.2292e+001 -1.3877e+000 48540 87490,87245,87219
 1.0000e-001 87444  2.8287e+000  1.0266e+001 -1.6457e-002 48540 87562,87490,87219
 1.0000e-001 87421  4.1626e+000  1.0735e+001  1.2532e+000 48540 87562,87219,87349
 1.0000e-001 87398 -7.3150e-001  1.2177e+001 -2.0042e+000 48540 87245,87297,87271
 1.0000e-001 87375  4.2174e+000  8.6746e+000  5.4800e-001 48540 87193,87349,87219
 1.0000e-001 87516  2.9520e+000  1.0264e+001 -1.3700e+000 48540 87297,87245,87490
 1.0000e-001 87539  2.0459e+000  1.1774e+001  7.2548e-001 48540 87297,87490,87323
 1.0000e-001 87588  4.3410e+000  1.2644e+001  6.5017e-001 48540 87323,87490,87562
 1.0000e-001 87611  4.7643e+000  1.1559e+001  1.6097e+000 48540 87323,87562,87349
 1.0000e-001 87810  7.2108e+000  4.1654e+001 -1.2361e+000 48136 87660,87712,87686
 1.0000e-001 87787 -2.4595e+000  2.2380e+001  2.0241e+000 48136 87660,87738,87712
 1.0000e-001 87764  8.5477e+000  2.1166e+001  8.3318e+000 48136 87634,87738,87660
 1.0000e-001 88205  4.1956e+000  1.4499e+001  2.8543e-001 47210 88300,88228,87937
 1.0000e-001 88182  3.6575e+000  1.5298e+001 -1.6128e-001 47210 88228,87833,88041
 1.0000e-001 88159  4.1209e+000  1.4945e+001  8.6009e-001 47210 88300,87937,87911
 1.0000e-001 88136  5.0552e+000  1.5273e+001  1.5280e+000 47210 87833,87911,87859
 1.0000e-001 88113  1.9302e+000  1.1217e+001  2.1802e-002 47210 87937,87989,87963
 1.0000e-001 88090  3.7556e+000  1.2561e+001 -1.8729e+000 47210 87989,88041,88015
 1.0000e-001 88067  5.0346e+000  1.5358e+001  1.9882e+000 47210 87859,87911,87885
 1.0000e-001 88254  3.8745e+000  1.2368e+001  4.9735e-001 47210 87989,87937,88228
 1.0000e-001 88277  4.5918e+000  1.4145e+001 -2.7891e-001 47210 87989,88228,88041
 1.0000e-001 88326  3.2685e+000  1.3936e+001 -2.1122e-003 47210 87833,88228,88300
 1.0000e-001 88349  3.4229e+000  1.4368e+001  5.8219e-001 47210 87833,88300,87911
 1.0000e-001 88780  1.6699e+001  2.9048e+001  5.7968e+000 46642 88803,88509,88483
 1.0000e-001 88757  8.6969e+000  2.4338e+001  2.1474e+000 46642 88803,88483,88639
 1.0000e-001 88734  1.2226e+001  1.8121e+001  2.2447e+000 46642 88875,88561,88509
 1.0000e-001 88711  1.3491e+001  1.7444e+001  2.7036e-001 46642 88509,88561,88535
 1.0000e-001 88688  6.2166e+000  2.7064e+001  2.5152e-001 46642 88457,88639,88483
 1.0000e-001 88665  1.5113e+001  3.2895e+001 -7.6179e-001 46642 88561,88613,88587
 1.0000e-001 88829  1.1503e+001  2.0840e+001  2.6750e+000 46642 88875,88509,88803
 1.0000e-001 88852  1.1085e+001  2.6117e+001  3.8535e-001 46642 88613,88803,88639
 1.0000e-001 88901  1.0113e+001  2.1619e+001  1.8974e-001 46642 88613,88561,88875
 1.0000e-001 88924  1.0820e+001  2.6066e+001  3.9089e-001 46642 88613,88875,88803
 1.0000e-001 89253  3.5728e+000  1.8728e+001 -9.1271e-002 46444 89080,89158,89132
 1.0000e-001 89230  3.4431e+000  1.8384e+001 -6.1390e-003 46444 89028,89158,89080
 1.0000e-001 89207  7.8931e-001  2.0363e+001 -3.5018e-001 46444 89028,89080,89054
 1.0000e-001 89184  1.9310e+000  1.9676e+001  1.2364e+000 46444 89080,89132,89106
 1.0000e-001 89631  1.5312e+000  1.0467e+001  1.9936e-002 46040 89383,89461,89435
 1.0000e-001 89608  1.1490e+000  9.3146e+000 -4.4183e-001 46040 89383,89487,89461
 1.0000e-001 89585  1.1948e+000  1.1086e+001  5.5552e-002 46040 89383,89435,89409
 1.0000e-001 89562 -2.0446e-001  7.0893e+000  5.0296e-001 46040 89383,89513,89487
 1.0000e-001 89539 -3.6637e+000  5.3177e+000  1.4511e+000 46040 89357,89513,89383
 1.0000e-001 90009 -1.3220e-001  8.4059e+000 -7.9135e-002 45636 89813,89891,89839
 1.0000e-001 89986 -1.1853e-001  7.8576e+000 -4.4829e-001 45636 89787,89891,89813
 1.0000e-001 89963 -7.9759e-001  7.0686e+000  3.7927e-001 45636 89839,89891,89865
 1.0000e-001 89940  3.7056e-003  8.8473e+000 -4.4095e-001 45636 89735,89891,89787
 1.0000e-001 89917 -6.0992e-001  1.0665e+001  5.4066e-001 45636 89735,89787,89761
 1.0000e-001 90208  1.3581e-001  9.3721e+000  7.9671e-001 45175 90231,90058,90032
 1.0000e-001 90185  3.0643e-001  9.2443e+000  1.3188e+000 45175 90231,90032,90136
 1.0000e-001 90162 -1.2510e+000  9.6807e+000  2.2572e-001 45175 90058,90110,90084
 1.0000e-001 90257  3.1071e-001  9.9182e+000  8.7471e-001 45175 90110,90058,90231
 1.0000e-001 90280  5.0134e-001  9.6969e+000  1.4201e+000 45175 90110,90231,90136
 1.0000e-001 90528  1.1661e+000  1.0610e+001  1.1365e+000 44513 90695,90551,90407
 1.0000e-001 90505  2.8512e+000  1.1656e+001  1.6713e+000 44513 90551,90355,90329
 1.0000e-001 90482  2.3898e+000  1.0624e+001  9.3911e-001 44513 90623,90303,90433
 1.0000e-001 90459  1.0730e+000  9.5739e+000  3.9885e-001 44513 90695,90407,90381
 1.0000e-001 90577  2.0004e+000  1.0975e+001  1.0734e+000 44513 90433,90407,90551
 1.0000e-001 90600  1.8764e+000  1.0838e+001  8.0912e-001 44513 90623,90433,90551
 1.0000e-001 90649  2.5578e+000  1.0810e+001  5.9446e-001 44513 90329,90303,90623
 1.0000e-001 90672  2.3490e+000  1.1027e+001  6.4278e-001 44513 90329,90623,90551
 1.0000e-001 90721  1.7671e+000  9.0238e+000  1.5361e+000 44513 90355,90551,90695
 1.0000e-001 90744  1.9776e+000  8.2009e+000  1.2001e+000 44513 90355,90695,90381
 1.0000e-001 91077  2.1406e-001  1.0440e+001 -2.0985e+000 44059 91100,90930,90904
 1.0000e-001 91054  5.2420e+000  1.3268e+001 -7.4625e-001 44059 91100,90904,90982
 1.0000e-001 91031  7.1635e+000  1.3909e+001  1.6962e-001 44059 90878,90982,90904
 1.0000e-001 91008  3.8508e+000  1.1816e+001 -7.7518e-001 44059 90852,90982,90878
 1.0000e-001 91126  8.7385e+000  1.3956e+001 -9.7342e-001 44059 91172,91100,90956
 1.0000e-001 91149  6.0471e+000  1.5536e+001  7.9029e-001 44059 90956,91100,90982
 1.0000e-001 91198  1.8768e+000  8.0152e+000  1.6286e+000 44059 90930,91100,91172
 1.0000e-001 91677  8.0203e+000  1.3275e+001 -2.0179e+000 43549 91455,91533,91481
 1.0000e-001 91654  2.5608e+000  1.3181e+001 -2.6266e+000 43549 91429,91533,91455
 1.0000e-001 91631  7.5719e+000  1.1100e+001 -3.0357e+000 43549 91481,91533,91507
 1.0000e-001 91608 -4.2118e+000  1.0299e+001 -2.1245e+000 43549 91429,91559,91533
 1.0000e-001 91585  1.2974e+000  8.3284e+000  3.7197e+000 43549 91403,91559,91429
 1.0000e-001 92006  1.3191e+000  9.5867e+000  6.4536e-002 43059 91781,91885,91807
 1.0000e-001 91983  1.3727e+000  8.1427e+000 -2.4116e+000 43059 91781,91911,91885
 1.0000e-001 91960  3.4956e+000  1.0280e+001 -1.3557e-001 43059 91807,91885,91833
 1.0000e-001 91937 -1.1511e+000  8.3511e+000 -2.8998e-002 43059 91833,91885,91859
 1.0000e-001 92561  7.8177e+000  1.3281e+001 -8.3838e-002 42598 92584,92215,92189
 1.0000e-001 92538  6.2537e+000  1.3398e+001  1.0080e+000 42598 92656,92584,92189
 1.0000e-001 92515  4.6359e+000  1.4194e+001  5.5999e-001 42598 92656,92189,92397
 1.0000e-001 92492 -1.3795e+000  1.2525e+001  8.2298e-001 42598 92241,92319,92293
 1.0000e-001 92469  4.0827e+000  1.2181e+001 -6.5463e-001 42598 92319,92397,92371
 1.0000e-001 92446  2.4131e+000  1.2852e+001 -2.8461e+000 42598 92319,92371,92345
 1.0000e-001 92423 -6.4374e+000  1.3123e+001  5.6401e+000 42598 92241,92293,92267
 1.0000e-001 92610  5.5384e+000  1.2728e+001  4.5264e-001 42598 92241,92215,92584
 1.0000e-001 92633  5.3012e+000  1.2268e+001  1.1956e+000 42598 92241,92584,92319
 1.0000e-001 92682  4.3133e+000  1.2034e+001  2.5214e-001 42598 92319,92584,92656
 1.0000e-001 92705  3.2119e+000  1.2946e+001 -2.5225e-001 42598 92319,92656,92397
 1.0000e-001 92953  2.1848e+000  1.0434e+001 -4.3114e-001 42094 92976,92806,92780
 1.0000e-001 92930  3.6482e+000  1.0681e+001  8.0024e-001 42094 92976,92780,92754
 1.0000e-001 92907 -8.7725e-001  9.3980e+000 -4.1612e-002 42094 93048,92832,92806
 1.0000e-001 92884  2.9008e+000  1.1586e+001  8.1689e-003 42094 92728,92858,92754
 1.0000e-001 93002  5.8547e-001  1.0044e+001 -5.0545e-001 42094 93048,92806,92976
 1.0000e-001 93025  2.1984e+000  1.0374e+001 -3.3398e-001 42094 92858,92976,92754
 1.0000e-001 93074  1.4131e+000  9.4826e+000 -8.2845e-001 42094 92858,92832,93048
 1.0000e-001 93097  2.2867e+000  9.4324e+000 -1.0221e+000 42094 92858,93048,92976
 1.0000e-001 93605  2.1885e+000  1.3726e+001 -1.8141e-002 41846 93628,93412,93386
 1.0000e-001 93582  3.2636e+000  1.1036e+001  6.0110e-001 41846 93628,93386,93308
 1.0000e-001 93559  1.8784e+000  1.0207e+001  6.4112e-001 41846 93700,93464,93438
 1.0000e-001 93536  5.2320e+000  1.3490e+001 -5.1322e-001 41846 93308,93386,93334
 1.0000e-001 93513  6.3246e+000  1.3527e+001 -5.1066e-001 41846 93334,93386,93360
 1.0000e-001 93490 -2.9237e+000  1.3004e+001  1.7008e+000 41846 93282,93464,93308
 1.0000e-001 93654  1.1666e+000  1.1563e+001  5.3954e-001 41846 93438,93412,93628
 1.0000e-001 93677  2.6786e+000  1.0645e+001  1.0787e-001 41846 93700,93438,93628
 1.0000e-001 93726  1.2647e+000  9.6919e+000  1.6085e+000 41846 93308,93464,93700
 1.0000e-001 93749  1.9918e+000  9.9328e+000  1.1068e+000 41846 93308,93700,93628
 1.0000e-001 94255  4.8089e-001  9.2357e+000 -5.2598e-002 41385 93958,94114,94088
 1.0000e-001 94232 -1.1370e+000  9.2826e+000  1.4671e-002 41385 93932,94114,93958
 1.0000e-001 94209  2.6753e+000  1.0642e+001 -1.0819e+000 41385 93958,94088,94062
 1.0000e-001 94186  1.6509e+000  7.4606e+000 -3.0865e-001 41385 93958,94062,93984
 1.0000e-001 94163 -5.1484e+000  7.2621e+000  2.0909e+000 41385 93984,94062,94036
 1.0000e-001 94140 -9.5935e+000  2.6309e+001 -2.3100e+000 41385 93984,94036,94010
 1.0000e-001 94476  2.7411e-001  1.2116e+001  9.9315e-001 40881 94326,94378,94352
 1.0000e-001 94453 -1.9200e+000  8.5031e+000 -1.1397e-001 40881 94300,94378,94326
 1.0000e-001 94430 -6.1378e-001  8.0502e+000  5.3195e-001 40881 94300,94404,94378
 1.0000e-001 94626  9.3995e+000  1.4562e+001 -3.2194e+000 40591 94649,94551,94525
 1.0000e-001 94603  2.7002e+000  1.1935e+001 -1.3922e+000 40591 94781,94577,94551
 1.0000e-001 94675  2.8087e+000  1.1792e+001 -1.5707e+000 40591 94781,94551,94649
 1.0000e-001 94807  2.9661e+000  1.2307e+001 -1.1451e+000 40591 94499,94577,94781
 1.0000e-001 94830  2.9513e+000  1.1925e+001 -1.3223e+000 40591 94499,94781,94649
 1.0000e-001 95336  6.9028e+000  1.3138e+001  2.6435e-002 40187 95013,95169,95039
 1.0000e-001 95313  3.8904e+000  1.3490e+001 -2.1975e+000 40187 95013,95195,95169
 1.0000e-001 95290  1.8143e+000  1.1872e+001 -1.5001e+000 40187 95039,95143,95065
 1.0000e-001 95267  8.8475e+000  1.4497e+001  6.6332e-001 40187 95039,95169,95143
 1.0000e-001 95244  4.7769e+000  1.3259e+001  9.7714e-001 40187 95091,95143,95117
 1.0000e-001 95221  2.0012e+000  1.2393e+001 -1.3783e+000 40187 95065,95143,95091
 1.0000e-001 95665  2.4543e+000  1.3177e+001 -2.9391e+000 39626 95466,95570,95544
 1.0000e-001 95642  6.1740e+000  1.2227e+001 -1.1152e+000 39626 95440,95570,95466
 1.0000e-001 95619  1.7143e+000  1.3422e+001 -7.3691e-001 39626 95466,95544,95492
 1.0000e-001 95596  7.8803e+000  1.3025e+001 -5.0350e-001 39626 95492,95544,95518
 1.0000e-001 95913  3.1258e+000  1.0295e+001  1.9325e+000 39136 96080,95936,95766
 1.0000e-001 95890  4.0006e+000  1.1638e+001  4.8287e-001 39136 95936,95714,95688
 1.0000e-001 95867  6.8923e+000  1.1563e+001 -1.8681e-001 39136 96008,95792,95766
 1.0000e-001 95844  1.6069e+000  9.7557e+000  1.2840e+000 39136 96080,95766,95740
 1.0000e-001 95962  5.2628e+000  1.2001e+001  1.1913e+000 39136 96008,95766,95936
 1.0000e-001 95985  2.7947e+000  1.3121e+001  4.0599e-001 39136 95818,95936,95688
 1.0000e-001 96034  2.9258e+000  9.8271e+000 -5.2503e-001 39136 95818,95792,96008
 1.0000e-001 96057  2.4967e+000  1.0707e+001  8.4483e-001 39136 95818,96008,95936
 1.0000e-001 96106  2.3731e+000  1.0206e+001 -1.7142e-001 39136 95714,95936,96080
 1.0000e-001 96129 -5.5840e-002  9.5219e+000 -6.6335e-001 39136 95714,96080,95740
 1.0000e-001 96350  6.6818e+000  1.6652e+001  1.1976e-002 38824 96200,96278,96252
 1.0000e-001 96327  5.7265e+000  1.6409e+001  9.3602e-002 38824 96174,96278,96200
 1.0000e-001 96304  6.3199e+000  1.5839e+001  1.9640e-001 38824 96200,96252,96226
 1.0000e-001 96830  1.0145e+001  1.8196e+001  2.6561e-001 38320 97069,96536,96484
 1.0000e-001 96807  1.0117e+001  1.8442e+001  2.2273e-001 38320 97069,96484,96853
 1.0000e-001 96784  1.0816e+001  1.9729e+001 -1.5972e+000 38320 96853,96484,96458
 1.0000e-001 96761  1.2011e+001  1.6102e+001 -6.9555e-001 38320 96925,96640,96614
 1.0000e-001 96738  1.0804e+001  1.4794e+001 -7.6228e-001 38320 96997,96666,96640
 1.0000e-001 96715  9.4929e+000  1.8547e+001  6.4750e-001 38320 97141,96588,96562
 1.0000e-001 96692  1.3645e+001  2.2544e+001 -1.2738e+000 38320 96484,96536,96510
 1.0000e-001 96879  9.2336e+000  1.8464e+001  5.6419e-001 38320 97141,96562,96853
 1.0000e-001 96902  1.0501e+001  1.8185e+001 -8.3790e-001 38320 96925,96614,96853
 1.0000e-001 96951  1.0987e+001  1.5277e+001 -1.2841e+000 38320 96997,96640,96925
 1.0000e-001 96974  9.3227e+000  1.5871e+001 -1.3511e+000 38320 96458,96925,96853
 1.0000e-001 97023  9.7169e+000  1.3796e+001 -2.4377e-001 38320 96458,96666,96997
 1.0000e-001 97046  1.0320e+001  1.4444e+001 -8.4451e-001 38320 96458,96997,96925
 1.0000e-001 97095  1.3035e+001  2.1611e+001 -2.5986e+000 38320 96562,96536,97069
 1.0000e-001 97118  9.1340e+000  1.8615e+001 -1.8050e-001 38320 96562,97069,96853
 1.0000e-001 97167  1.0303e+001  1.8238e+001  7.0768e-001 38320 96614,96588,97141
 1.0000e-001 97190  9.7623e+000  1.7919e+001  5.5189e-001 38320 96614,97141,96853
 1.0000e-001 97519  7.9995e+000  1.7065e+001 -5.3181e+000 37766 97542,97398,97372
 1.0000e-001 97496  8.5562e+000  1.4273e+001 -4.4734e+000 37766 97542,97372,97346
 1.0000e-001 97473  7.8333e+000  1.6599e+001 -1.3920e+000 37766 97294,97424,97346
 1.0000e-001 97450  1.1439e+001  2.5021e+001 -1.8386e+000 37766 97294,97346,97320
 1.0000e-001 97568  6.3366e+000  1.7930e+001 -2.9209e+000 37766 97424,97398,97542
 1.0000e-001 97591  7.2462e+000  1.4623e+001 -2.2482e+000 37766 97424,97542,97346
 1.0000e-001 98048  5.8861e+000  1.2629e+001  2.8503e+000 37262 98071,97878,97852
 1.0000e-001 98025  4.7835e+000  1.5217e+001  5.9631e-001 37262 98071,97852,97800
 1.0000e-001 98002  5.2516e+000  1.7942e+001  9.4177e-001 37262 97800,97852,97826
 1.0000e-001 97979 -2.6923e-001  1.4309e+001 -9.5648e-001 37262 97800,97930,97904
 1.0000e-001 97956  1.2710e+000  1.9316e+001 -1.3351e-001 37262 97774,97930,97800
 1.0000e-001 98097  8.9653e+000  1.4199e+001  1.5122e+000 37262 97904,97878,98071
 1.0000e-001 98120  6.5134e+000  1.7314e+001 -4.4026e-001 37262 97904,98071,97800
 1.0000e-001 98449  6.9054e-001  8.0916e+000  6.4431e-001 36950 98472,98302,98250
 1.0000e-001 98426 -1.6216e-001  8.1525e+000  6.9647e-001 36950 98472,98250,98354
 1.0000e-001 98403  3.0069e+000  1.1901e+001 -6.6753e-001 36950 98250,98302,98276
 1.0000e-001 98380 -3.3200e+000  6.5379e+000  1.1586e-001 36950 98224,98354,98250
 1.0000e-001 98498  6.1837e-002  8.3044e+000  2.1070e-001 36950 98328,98302,98472
 1.0000e-001 98521 -8.1067e-001  8.4030e+000  4.0052e-001 36950 98328,98472,98354
 1.0000e-001 99125  6.8072e+000  1.4662e+001  1.6938e-001 36296 98704,98756,98730
 1.0000e-001 99102  6.3523e+000  1.1488e+001  4.8109e-001 36296 98704,98938,98756
 1.0000e-001 99079  2.7162e+000  1.1209e+001  3.2917e-002 36296 99148,98938,98912
 1.0000e-001 99056  7.9721e-001  1.0306e+001 -2.6187e+000 36296 99292,99220,98782
 1.0000e-001 99033  2.9158e+000  1.0594e+001  1.9863e-001 36296 99148,98912,98834
 1.0000e-001 99010  6.5518e-001  8.0227e+000 -3.2837e+000 36296 99292,98782,98756
 1.0000e-001 98987  3.2719e+000  1.6203e+001  2.2673e+000 36296 98834,98912,98886
 1.0000e-001 98964 -5.1384e+000  1.8243e+001 -2.0912e+000 36296 98834,98886,98860
 1.0000e-001 99174  2.6366e+000  1.1970e+001 -1.9912e-002 36296 99220,98938,99148
 1.0000e-001 99197  2.1546e+000  1.2644e+001 -8.1645e-001 36296 98808,99148,98834
 1.0000e-001 99246  1.1404e-001  8.7178e+000 -1.9526e+000 36296 98808,98782,99220
 1.0000e-001 99269 -2.0290e-001  8.1724e+000 -1.7996e+000 36296 98808,99220,99148
 1.0000e-001 99318  2.2114e+000  8.2914e+000 -1.0873e+000 36296 98938,99220,99292
 1.0000e-001 99341  2.4441e+000  8.6856e+000 -1.6349e+000 36296 98938,99292,98756
 1.0000e-001 99719 -2.4206e-003  8.5354e+000  6.1403e-001 35742 99742,99471,99601
 1.0000e-001 99696  2.4157e-001  7.7876e+000  2.7550e-001 35742 99445,99601,99471
 1.0000e-001 99673 -2.9420e-001  7.8150e+000 -9.6322e-001 35742 99742,99601,99575
 1.0000e-001 99650  8.2021e-001  1.2339e+001 -5.2635e-001 35742 99814,99549,99523
 1.0000e-001 99627  9.7660e-001  8.5309e+000 -1.6547e-001 35742 99471,99523,99497
 1.0000e-001 99768  4.1953e-001  9.1258e+000  1.7064e-002 35742 99523,99471,99742
 1.0000e-001 99791  8.5846e-001  1.1188e+001 -7.2753e-001 35742 99814,99523,99742
 1.0000e-001 99840  1.9341e+000  1.0523e+001 -9.8317e-002 35742 99575,99549,99814
 1.0000e-001 99863  1.5290e+000  8.8233e+000 -4.4284e-001 35742 99575,99814,99742
 1.0000e-001 100111  4.0711e+000  1.1393e+001 -1.9549e+000 35302 100134,99990,99938
 1.0000e-001 100088  2.7147e+000  8.7848e+000 -1.4658e+000 35302 100134,99938,99912
 1.0000e-001 100065  2.6633e+000  9.3860e+000 -5.2316e-002 35302 100206,99886,100016
 1.0000e-001 100042  4.3243e+000  1.4938e+001 -1.4027e+000 35302 99938,99990,99964
 1.0000e-001 100160  2.9527e+000  1.1064e+001 -2.0548e-001 35302 100016,99990,100134
 1.0000e-001 100183  2.4631e+000  9.6169e+000 -4.4408e-002 35302 100206,100016,100134
 1.0000e-001 100232  2.8747e+000  9.6460e+000 -2.1688e-001 35302 99912,99886,100206
 1.0000e-001 100255  2.6927e+000  9.9339e+000 -1.9925e-001 35302 99912,100206,100134
 1.0000e-001 100586  8.2384e-001  7.2968e+000 -1.1768e-002 35012 100609,100387,100361
 1.0000e-001 100563  2.1890e+000  8.3204e+000  1.4667e+000 35012 100609,100361,100465
 1.0000e-001 100540  5.3312e+000  1.1091e+001  5.7265e-002 35012 100361,100491,100465
 1.0000e-001 100517 -5.6179e+000  1.2190e+001  1.7269e+000 35012 100413,100465,100439
 1.0000e-001 100635 -1.4077e+000  6.4291e+000 -1.8506e+000 35012 100413,100387,100609
 1.0000e-001 100658  4.3771e-001  8.4272e+000 -2.1681e-001 35012 100413,100609,100465
 1.0000e-001 100987  3.6273e+000  1.1392e+001 -1.4508e+000 34700 100788,100866,100814
 1.0000e-001 100964  1.9666e+000  9.8857e+000 -2.0809e+000 34700 101010,100866,100788
 1.0000e-001 100941  1.1411e+000  1.0661e+001 -3.9208e+000 34700 100762,100892,100866
 1.0000e-001 100918  4.7920e+000  1.3722e+001 -2.7588e-001 34700 100814,100866,100840
 1.0000e-001 101036  4.9497e-001  8.9279e+000 -2.7983e+000 34700 100762,100866,101010
 1.0000e-001 101493  6.2548e+000  9.8269e+000  9.0693e-001 34132 101516,101349,101297
 1.0000e-001 101470  7.9889e+000  1.3726e+001  1.8673e+000 34132 101588,101516,101297
 1.0000e-001 101447  8.2133e+000  1.5349e+001  3.1364e+000 34132 101588,101297,101245
 1.0000e-001 101424  3.3077e+000  1.7392e+001  3.4389e+000 34132 101245,101297,101271
 1.0000e-001 101401  7.0146e+000  9.7450e+000  1.3630e+000 34132 101297,101349,101323
 1.0000e-001 101542  7.4694e+000  1.2738e+001  2.8123e-001 34132 101375,101349,101516
 1.0000e-001 101565  5.3420e+000  1.1907e+001  1.6181e-002 34132 101375,101516,101219
 1.0000e-001 101614  5.5333e+000  1.4081e+001  2.5934e-001 34132 101219,101516,101588
 1.0000e-001 101637  6.9011e+000  1.5547e+001  1.4957e+000 34132 101219,101588,101245
 1.0000e-001 101858  5.1418e+000  2.1496e+001 -1.6355e+000 33720 101708,101786,101760
 1.0000e-001 101835  7.5721e+000  2.6460e+001 -6.9731e-001 33720 101682,101786,101708
 1.0000e-001 101812  8.1671e+000  2.3120e+001 -7.6755e-001 33720 101708,101760,101734
 1.0000e-001 102128 -4.2776e-001  8.5104e+000  5.3784e-001 33130 101903,102007,101929
 1.0000e-001 102105  1.9694e-003  1.0255e+001 -1.9052e-001 33130 101903,102033,102007
 1.0000e-001 102082  7.4836e-001  9.5379e+000  1.1502e+000 33130 101929,102007,101955
 1.0000e-001 102059  6.3865e-001  7.6831e+000 -6.1406e-002 33130 101955,102007,101981
 1.0000e-001 102461  1.1908e+001  2.2880e+001  5.5031e-001 32840 102236,102340,102262
 1.0000e-001 102438  1.2399e+001  1.9096e+001 -3.3843e+000 32840 102236,102366,102340
 1.0000e-001 102415  8.9430e+000  2.1199e+001  1.2488e+000 32840 102262,102340,102288
 1.0000e-001 102392  1.4830e+001  2.2959e+001  3.1699e+000 32840 102288,102340,102314
 1.0000e-001 102997  1.6716e+000  3.9057e+000 -2.9210e+000 32493 102749,102879,102853
 1.0000e-001 102974  2.4949e+000  8.3434e+000  1.5146e+000 32493 102723,102879,102749
 1.0000e-001 102951  5.3486e+000  7.2597e+000 -1.4907e+000 32493 102749,102801,102775
 1.0000e-001 102928  5.2862e+000  7.1562e+000 -1.4398e+000 32493 102749,102853,102801
 1.0000e-001 102905  4.8921e+000  5.9065e+000 -1.6980e+000 32493 102801,102853,102827
 1.0000e-001 103454  1.3974e+000  1.4352e+001 -2.8770e-001 32089 103206,103336,103310
 1.0000e-001 103431  8.9263e-001  1.8310e+001 -1.3269e+000 32089 103180,103336,103206
 1.0000e-001 103408  9.8175e+000  1.9376e+001  1.4510e+000 32089 103206,103284,103258
 1.0000e-001 103385  1.0910e+001  1.9377e+001  1.7541e+000 32089 103206,103310,103284
 1.0000e-001 103362  7.8689e+000  1.4461e+001  5.9861e-001 32089 103206,103258,103232
 1.0000e-001 103783  1.1160e+001  1.8746e+001 -2.8223e-001 31742 103558,103662,103584
 1.0000e-001 103760  1.1994e+001  2.1622e+001  8.4356e-001 31742 103558,103688,103662
 1.0000e-001 103737  6.8044e+000  1.6158e+001  7.9105e-001 31742 103584,103662,103636
 1.0000e-001 103714  8.3358e+000  1.5371e+001 -6.7967e-002 31742 103584,103636,103610
 1.0000e-001 104112  6.4744e+000  1.8481e+001 -1.8533e-001 31402 103939,103991,103965
 1.0000e-001 104089  4.3480e+000  1.5744e+001 -1.1380e+000 31402 103913,103991,103939
 1.0000e-001 104066  9.0829e+000  2.0147e+001  1.1821e+000 31402 103913,104017,103991
 1.0000e-001 104043  9.7736e+000  1.8985e+001  1.7355e+000 31402 103887,104017,103913
 1.0000e-001 104569  7.4549e+000  1.6950e+001  6.2756e-001 30998 104321,104425,104373
 1.0000e-001 104546  1.6451e+000  1.4841e+001  3.5183e-001 30998 104321,104451,104425
 1.0000e-001 104523  5.4925e+000  1.5166e+001 -2.5506e-001 30998 104373,104425,104399
 1.0000e-001 104500 -3.2241e-001  2.2365e+001  3.9219e+000 30998 104295,104451,104321
 1.0000e-001 104477  9.3400e+000  1.9990e+001 -4.6007e-001 30998 104321,104373,104347
 1.0000e-001 104947  5.5883e+000  9.4423e+000  8.9637e-001 30608 104751,104803,104777
 1.0000e-001 104924  2.7988e+000  1.1153e+001 -7.1230e-002 30608 104725,104803,104751
 1.0000e-001 104901  4.6809e+000  1.1517e+001 -3.5219e-001 30608 104699,104803,104725
 1.0000e-001 104878  3.9417e+000  1.1611e+001 -8.8063e-001 30608 104673,104803,104699
 1.0000e-001 104855  5.2706e+000  1.4031e+001 -1.3978e+000 30608 104673,104829,104803
 1.0000e-001 105276  7.9016e+000  1.5360e+001 -5.2949e-001 30204 105427,105129,105077
 1.0000e-001 105253  6.4486e+000  1.7581e+001 -2.7947e+000 30204 105427,105077,105051
 1.0000e-001 105230  7.4019e+000  1.5030e+001 -6.7220e-001 30204 105077,105129,105103
 1.0000e-001 105207  1.2100e+001  1.3254e+001 -1.9259e+000 30204 105299,105181,105155
 1.0000e-001 105325  8.9369e+000  1.1760e+001 -1.3655e+000 30204 105129,105181,105299
 1.0000e-001 105453  8.8350e+000  1.6337e+001 -2.5082e+000 30204 105181,105129,105427
 1.0000e-001 105476  1.0383e+001  1.9949e+001 -5.1849e+000 30204 105181,105427,105051
 1.0000e-001 105903 -3.7041e-001  5.6606e+000  3.5394e-001 29700 105606,105762,105736
 1.0000e-001 105880 -4.4767e-001  6.0430e+000  1.7165e+000 29700 105580,105762,105606
 1.0000e-001 105857  2.4743e+000  8.3820e+000  8.8516e-001 29700 105606,105710,105632
 1.0000e-001 105834  6.7208e-001  6.0109e+000 -1.6823e-002 29700 105606,105736,105710
 1.0000e-001 105811  4.5621e+000  8.5168e+000 -2.7287e-001 29700 105632,105710,105684
 1.0000e-001 105788  3.9926e+000  7.2357e+000  4.8151e-001 29700 105632,105684,105658
 1.0000e-001 106102  3.9163e+000  1.2505e+001 -3.8996e-001 29124 105978,106030,106004
 1.0000e-001 106079  4.2106e+000  1.4775e+001  5.1370e-001 29124 105926,106030,105978
 1.0000e-001 106056  3.6467e+000  1.3409e+001  5.4264e-001 29124 105926,105978,105952
 1.0000e-001 106301  1.0533e+000  7.8172e+000 -2.1545e-001 28712 106151,106229,106203
 1.0000e-001 106278  1.7862e+000  8.4056e+000  5.0773e-002 28712 106125,106229,106151
 1.0000e-001 106255  4.1915e-001  7.4296e+000 -3.5677e-002 28712 106151,106203,106177
 1.0000e-001 106551  4.0244e+000  1.4070e+001  9.3874e-001 28258 106352,106404,106378
 1.0000e-001 106528  6.1216e+000  1.5387e+001  2.3352e-001 28258 106352,106456,106404
 1.0000e-001 106505  6.0081e+000  1.4034e+001 -3.0801e-001 28258 106326,106456,106352
 1.0000e-001 106482  5.8214e+000  1.4382e+001  8.6850e-002 28258 106404,106456,106430
 1.0000e-001 107012  5.4402e+000  1.1232e+001 -2.5667e+000 27818 107035,106790,106764
 1.0000e-001 106989  4.5513e+000  9.7318e+000 -1.4854e+000 27818 107035,106764,106868
 1.0000e-001 106966  3.8986e+000  1.1874e+001 -1.3778e+000 27818 107107,106842,106816
 1.0000e-001 106943  6.3163e+000  8.7931e+000 -1.0207e+000 27818 106738,106868,106764
 1.0000e-001 106920  6.7431e+000  8.8765e+000 -2.5574e+000 27818 106738,106894,106868
 1.0000e-001 107061  3.3740e+000  1.0371e+001 -2.3908e+000 27818 106816,106790,107035
 1.0000e-001 107084  4.4461e+000  1.1183e+001 -1.4360e+000 27818 107107,106816,107035
 1.0000e-001 107133  3.8230e+000  1.0853e+001 -8.8112e-001 27818 106868,106842,107107
 1.0000e-001 107156  4.1581e+000  9.8010e+000 -1.0715e+000 27818 106868,107107,107035
 1.0000e-001 107613  9.2781e-001  8.5604e+000 -1.4112e+000 27312 107339,107469,107365
 1.0000e-001 107590 -3.7526e-001  1.0167e+001 -2.3717e+000 27312 107339,107495,107469
 1.0000e-001 107567  5.5645e-001  7.7747e+000 -1.5199e+000 27312 107391,107469,107443
 1.0000e-001 107544  9.0424e-001  8.5934e+000 -1.2769e+000 27312 107365,107469,107391
 1.0000e-001 107521  1.4086e+000  8.3133e+000 -1.9619e+000 27312 107391,107443,107417
 1.0000e-001 107991  8.9540e+000  1.9550e+001 -5.6242e-001 26858 108086,108014,107795
 1.0000e-001 107968  8.3652e+000  1.9273e+001 -7.1386e-001 26858 108014,107717,107873
 1.0000e-001 107945  8.6284e+000  1.9494e+001 -2.6620e-001 26858 108158,108086,107795
 1.0000e-001 107922  7.8669e+000  1.9420e+001 -2.0366e-001 26858 108158,107795,107769
 1.0000e-001 107899  9.3721e+000  2.2340e+001 -1.3072e+000 26858 107821,107873,107847
 1.0000e-001 108040  8.6130e+000  1.9950e+001 -9.6573e-001 26858 107821,107795,108014
 1.0000e-001 108063  8.1697e+000  1.9441e+001 -7.7709e-001 26858 107821,108014,107873
 1.0000e-001 108112  8.1826e+000  1.9242e+001 -4.9424e-001 26858 107717,108014,108086
 1.0000e-001 108135  8.2282e+000  1.9580e+001 -5.2687e-001 26858 107717,108086,107743
 1.0000e-001 108184  7.7009e+000  1.9396e+001 -5.4588e-001 26858 107743,108086,108158
 1.0000e-001 108207  7.3785e+000  1.9633e+001 -5.3959e-001 26858 107743,108158,107769
 1.0000e-001 108634  6.6362e+000  1.6861e+001  1.2513e-001 26404 108657,108415,108363
 1.0000e-001 108611  6.6762e+000  1.6386e+001 -7.1295e-001 26404 108657,108363,108337
 1.0000e-001 108588  7.0280e+000  1.5178e+001 -4.1004e-001 26404 108729,108311,108467
 1.0000e-001 108565  7.1803e+000  1.7210e+001  7.3743e-001 26404 108801,108441,108415
 1.0000e-001 108542  6.6696e+000  1.5851e+001 -3.0895e+000 26404 108311,108493,108467
 1.0000e-001 108519  5.8856e+000  1.5662e+001 -3.9136e-001 26404 108363,108415,108389
 1.0000e-001 108683  7.7618e+000  1.6738e+001  6.4339e-001 26404 108801,108415,108657
 1.0000e-001 108706  7.4713e+000  1.5915e+001 -1.3116e-001 26404 108729,108467,108657
 1.0000e-001 108755  6.4489e+000  1.6023e+001 -5.2854e-001 26404 108337,108311,108729
 1.0000e-001 108778  6.7232e+000  1.6667e+001 -3.9692e-001 26404 108337,108729,108657
 1.0000e-001 108827  7.8722e+000  1.8167e+001  1.0650e+000 26404 108467,108441,108801
 1.0000e-001 108850  8.2775e+000  1.7396e+001  9.3671e-001 26404 108467,108801,108657
 1.0000e-001 109228  2.8475e+000  1.1157e+001  8.3637e-002 26064 109006,109084,109058
 1.0000e-001 109205  3.2457e+000  1.0795e+001 -6.4226e-001 26064 108980,109084,109006
 1.0000e-001 109182  2.6941e+000  9.4534e+000  4.8616e-001 26064 108980,109110,109084
 1.0000e-001 109159  2.7504e+000  1.2851e+001 -1.1524e+000 26064 109006,109058,109032
 1.0000e-001 109136  1.2359e+000  6.8322e+000 -4.3927e-001 26064 108954,109110,108980
 1.0000e-001 109427  3.1024e+000  1.1702e+001  3.1909e+000 25660 109303,109355,109329
 1.0000e-001 109404  4.4054e+000  1.4082e+001  7.5859e-001 25660 109277,109355,109303
 1.0000e-001 109381  4.1780e+000  1.4430e+001  8.9612e-001 25660 109251,109355,109277
 1.0000e-001 109577  6.1933e+000  1.2357e+001 -4.1070e+000 25306 109476,109528,109502
 1.0000e-001 109554  3.2571e+000  1.2983e+001 -1.5362e+000 25306 109450,109528,109476
 1.0000e-001 109778  4.6960e-001  8.8858e+000 -6.4926e-001 24944 109628,109706,109654
 1.0000e-001 109755  1.2374e+000  9.9770e+000 -2.9624e-001 24944 109602,109706,109628
 1.0000e-001 109732 -4.7559e-001  8.2821e+000  7.5541e-001 24944 109654,109706,109680
 1.0000e-001 110126  9.6719e+000  2.2547e+001 -9.8927e-001 24440 110149,109907,109855
 1.0000e-001 110103  1.0824e+001  2.2099e+001 -6.4801e-001 24440 110149,109855,109985
 1.0000e-001 110080  8.4861e+000  2.1577e+001 -2.3176e-001 24440 109855,109907,109881
 1.0000e-001 110057  8.9919e+000  1.8340e+001 -3.7283e+000 24440 109829,109985,109855
 1.0000e-001 110034  9.6518e+000  2.4008e+001  3.3016e-001 24440 109907,109959,109933
 1.0000e-001 110011  1.1985e+001  2.0295e+001 -7.5407e-001 24440 109803,109985,109829
 1.0000e-001 110175  1.0228e+001  2.2513e+001 -2.4548e-001 24440 109959,109907,110149
 1.0000e-001 110198  1.1917e+001  2.2476e+001  1.0549e-001 24440 109959,110149,109985
 1.0000e-001 110301  5.8940e+000  2.0984e+001  9.9291e-001 24028 110223,110275,110249
 1.0000e-001 110573  9.4087e-001  1.1654e+001  4.0554e-002 23467 110400,110452,110426
 1.0000e-001 110550 -7.2361e-001  9.4767e+000 -8.2019e-001 23467 110374,110452,110400
 1.0000e-001 110527  2.4493e+000  1.0834e+001 -9.3126e-001 23467 110348,110452,110374
 1.0000e-001 110504  9.8823e-001  9.3246e+000 -3.3649e-001 23467 110348,110478,110452
 1.0000e-001 111004  7.8180e+000  1.6205e+001  1.2111e+000 22963 111027,110733,110707
 1.0000e-001 110981  7.4062e+000  1.5153e+001 -1.5286e+000 22963 111027,110707,110681
 1.0000e-001 110958  1.9758e+000  1.2117e+001 -4.9459e-001 22963 111099,110759,110733
 1.0000e-001 110935  4.8832e+000  1.4300e+001  7.3657e-001 22963 111171,110863,110811
 1.0000e-001 110912 -8.0237e-001  1.1252e+001  5.7040e-001 22963 110759,110811,110785
 1.0000e-001 110889  5.5161e+000  1.5768e+001  6.1764e-001 22963 110811,110863,110837
 1.0000e-001 111053  5.1914e+000  1.3324e+001 -5.9245e-001 22963 111099,110733,111027
 1.0000e-001 111076  4.8056e+000  1.4495e+001  7.0669e-001 22963 111171,110811,111027
 1.0000e-001 111125  2.2164e+000  1.2514e+001  1.6278e+000 22963 110811,110759,111099
 1.0000e-001 111148  3.1455e+000  1.3002e+001  1.8246e+000 22963 110811,111099,111027
 1.0000e-001 111197  4.8435e+000  1.4085e+001  7.4012e-001 22963 110681,110863,111171
 1.0000e-001 111220  4.7493e+000  1.4252e+001  6.4555e-001 22963 110681,111171,111027
 1.0000e-001 111726  6.9631e+000  1.3934e+001 -1.6222e-001 22459 111749,111507,111429
 1.0000e-001 111703  5.4392e+000  1.3296e+001 -3.4183e-002 22459 111749,111429,111585
 1.0000e-001 111680  2.2610e+000  1.4487e+001 -8.4502e-001 22459 111403,111585,111429
 1.0000e-001 111657  5.9570e+000  1.6286e+001 -3.0349e-001 22459 111507,111559,111533
 1.0000e-001 111634  8.2900e+000  1.4896e+001  6.6356e-001 22459 111455,111507,111481
 1.0000e-001 111611  9.9792e+000  1.4658e+001 -1.2716e+000 22459 111429,111507,111455
 1.0000e-001 111775  6.3780e+000  1.4257e+001 -1.2796e+000 22459 111559,111507,111749
 1.0000e-001 111798  5.2319e+000  1.3680e+001 -1.0816e+000 22459 111559,111749,111585
 1.0000e-001 112046  9.3512e-001  1.0875e+001  2.0569e-002 21898 112069,111925,111873
 1.0000e-001 112023  6.2002e-001  1.0400e+001 -7.6852e-001 21898 112069,111873,111847
 1.0000e-001 112000  1.1409e+000  1.1586e+001  2.9064e-001 21898 111821,111951,111847
 1.0000e-001 111977  2.6926e+000  9.6298e+000 -2.2907e-002 21898 111873,111925,111899
 1.0000e-001 112095  2.0959e+000  1.1133e+001  6.6078e-001 21898 111951,111925,112069
 1.0000e-001 112118  1.3587e+000  1.0561e+001 -1.1665e-001 21898 111951,112069,111847
 1.0000e-001 112498  6.2621e+000  1.3336e+001  8.0139e-001 21608 112521,112276,112224
 1.0000e-001 112475  5.2372e+000  1.3602e+001  2.5140e-003 21608 112521,112224,112380
 1.0000e-001 112452  5.9009e+000  1.5439e+001 -3.8710e-001 21608 112302,112380,112354
 1.0000e-001 112429  6.4199e+000  1.6210e+001  7.9151e-001 21608 112224,112276,112250
 1.0000e-001 112406 -5.0717e-002  1.6364e+001  1.0587e+000 21608 112302,112354,112328
 1.0000e-001 112547  5.3967e+000  1.1911e+001  4.2860e-001 21608 112302,112276,112521
 1.0000e-001 112570  4.8465e+000  1.3073e+001 -1.7813e-001 21608 112302,112521,112380
 1.0000e-001 112948  7.5953e+000  1.7118e+001  9.0124e-001 20882 112971,112752,112700
 1.0000e-001 112925  5.8113e+000  1.6641e+001  1.5924e+000 20882 112971,112700,112830
 1.0000e-001 112902  9.2299e+000  1.9388e+001 -2.9896e-001 20882 112778,112830,112804
 1.0000e-001 112879  3.6766e+000  1.1602e+001  9.8547e-001 20882 112674,112830,112700
 1.0000e-001 112856  8.7189e+000  1.7722e+001  4.9431e-001 20882 112700,112752,112726
 1.0000e-001 112997  7.7499e+000  1.7355e+001 -6.2756e-002 20882 112778,112752,112971
 1.0000e-001 113020  6.7061e+000  1.7160e+001  6.5084e-001 20882 112778,112971,112830
 1.0000e-001 113526  8.6325e+000  1.9891e+001 -1.6821e-001 20428 113255,113385,113333
 1.0000e-001 113503  9.6440e+000  2.2152e+001  9.8169e-002 20428 113229,113385,113255
 1.0000e-001 113480  3.7760e+000  1.9944e+001 -4.7552e-002 20428 113255,113333,113281
 1.0000e-001 113457  7.5161e+000  2.2223e+001  2.6522e-001 20428 113203,113385,113229
 1.0000e-001 113434  7.3537e+000  2.1197e+001  1.1299e+000 20428 113281,113333,113307
 1.0000e-001 113411  1.0326e+001  1.8649e+001 -4.6534e-001 20428 113333,113385,113359
 1.0000e-001 113774  2.7188e+000  1.1948e+001 -5.9083e-001 19917 113797,113601,113549
 1.0000e-001 113751  3.3788e+000  1.1905e+001 -6.1057e-001 19917 113869,113797,113549
 1.0000e-001 113728  3.3456e+000  1.1921e+001 -7.0512e-001 19917 113869,113549,113679
 1.0000e-001 113705  2.5639e+000  1.1927e+001 -4.1051e-001 19917 113549,113601,113575
 1.0000e-001 113823  3.4153e+000  1.2148e+001 -2.3810e-001 19917 113627,113601,113797
 1.0000e-001 113846  3.7248e+000  1.1743e+001 -6.2148e-001 19917 113627,113797,113653
 1.0000e-001 113895  3.3010e+000  1.1690e+001 -5.9852e-001 19917 113653,113797,113869
 1.0000e-001 113918  3.2920e+000  1.1715e+001 -7.1512e-001 19917 113653,113869,113679
 1.0000e-001 114166  7.6623e+000  1.5595e+001  4.5371e-001 19413 113993,114045,114019
 1.0000e-001 114143  6.2506e+000  1.4368e+001 -6.6119e-002 19413 113967,114045,113993
 1.0000e-001 114120  5.2298e+000  1.4008e+001 -6.9312e-001 19413 113967,114071,114045
 1.0000e-001 114097  3.2577e+000  1.5731e+001  3.6513e-001 19413 113941,114071,113967
 1.0000e-001 114438  2.1848e+000  1.1601e+001  2.9113e-001 19001 114213,114265,114239
 1.0000e-001 114415  1.7356e+000  9.9646e+000  2.1620e-001 19001 114213,114343,114265
 1.0000e-001 114392  2.8331e+000  1.2280e+001  6.2283e-001 19001 114265,114343,114317
 1.0000e-001 114369  1.1423e+000  1.1168e+001 -1.4675e-001 19001 114265,114317,114291
 1.0000e-001 114639  1.8947e+000  1.0951e+001  2.6571e-001 18554 114489,114541,114515
 1.0000e-001 114616  3.5724e-001  1.0954e+001  4.6980e-001 18554 114489,114567,114541
 1.0000e-001 114593 -1.9264e+000  9.7955e+000 -2.2186e-001 18554 114463,114567,114489
 1.0000e-001 115043  5.0636e+000  1.5150e+001 -4.1444e-001 18164 114795,114925,114821
 1.0000e-001 115020  3.8693e+000  1.5916e+001 -1.2318e+000 18164 114769,114925,114795
 1.0000e-001 114997  4.7348e+000  1.5648e+001  4.2845e-002 18164 115066,114873,114821
 1.0000e-001 114974  4.2702e+000  1.4100e+001  1.6594e-002 18164 115066,114821,114925
 1.0000e-001 114951  2.5479e+000  1.5006e+001  2.6102e-001 18164 114821,114873,114847
 1.0000e-001 115092  5.5995e+000  1.4497e+001  9.2565e-001 18164 114899,114873,115066
 1.0000e-001 115115  4.6711e+000  1.2162e+001  9.1024e-001 18164 114899,115066,114925
 1.0000e-001 115265  9.8793e+000  2.2529e+001  2.8011e-002 17852 115164,115216,115190
 1.0000e-001 115242  9.1664e+000  2.2115e+001 -2.6179e-001 17852 115138,115216,115164
 1.0000e-001 115464  4.0668e+000  1.5848e+001 -1.7599e+000 17346 115288,115366,115340
 1.0000e-001 115441  8.1708e+000  1.2722e+001 -1.1979e+000 17346 115288,115392,115366
 1.0000e-001 115418  5.1860e+000  2.2459e+001  9.2916e-001 17346 115288,115340,115314
 1.0000e-001 115736  8.7712e+000  2.0506e+001  2.5145e-002 16942 115563,115641,115615
 1.0000e-001 115713  8.5409e+000  1.8900e+001  2.3125e-001 16942 115511,115641,115563
 1.0000e-001 115690  1.6524e+001  2.3082e+001 -1.2493e+000 16942 115563,115615,115589
 1.0000e-001 115667  9.7288e+000  2.1526e+001 -1.9545e-001 16942 115511,115563,115537
 1.0000e-001 116091  5.6517e+000  1.2709e+001  4.8002e-001 16388 115918,115970,115944
 1.0000e-001 116068  5.2489e+000  1.0794e+001  4.7465e-001 16388 115918,115996,115970
 1.0000e-001 116045  6.7281e+000  1.2762e+001 -1.7233e-001 16388 115892,115996,115918
 1.0000e-001 116022  7.1167e+000  1.4717e+001 -5.2376e-002 16388 115866,115996,115892
 1.0000e-001 116192  4.2193e+000  2.5076e+001  4.1606e+000 15810 116114,116166,116140
 1.0000e-001 116342  7.7160e-001  1.1549e+001 -6.5815e-001 15419 116241,116293,116267
 1.0000e-001 116319  1.0478e+000  1.3677e+001  1.3459e-001 15419 116215,116293,116241
 1.0000e-001 116445  7.4754e+000  1.5379e+001  2.3608e-001 421 116367,116419,116393
 2.0000e-001 68477  1.4464e+001  2.2663e+001  1.1719e+000 68018 68327,68379,68353
 2.0000e-001 68454  1.5268e+001  3.1193e+001 -1.2360e+000 68018 68301,68379,68327
 2.0000e-001 68431  3.9555e+001  3.2795e+001  8.4222e+000 68018 68301,68405,68379
 2.0000e-001 68578  6.9222e-001  2.6140e+001  8.1180e-001 67820 68500,68552,68526
 2.0000e-001 68728  4.0268e+000  2.5614e+001  1.4500e+000 67508 68601,68653,68627
 2.0000e-001 68705  1.8823e+001  1.8075e+001  7.8524e+000 67508 68601,68679,68653
 2.0000e-001 68927 -5.6498e-001  1.6411e+001  1.2307e-001 67310 68777,68829,68803
 2.0000e-001 68904  8.3316e-001  1.7735e+001 -4.5233e-001 67310 68751,68829,68777
 2.0000e-001 68881  3.1476e+000  2.0043e+001  8.2431e-001 67310 68751,68855,68829
 2.0000e-001 69386 -2.1499e+000  3.9095e+001 -5.1047e+000 67020 69216,69268,69242
 2.0000e-001 69363 -7.6520e-001  2.7848e+001  6.5950e-001 67020 69138,69268,69216
 2.0000e-001 69340  4.3166e+000  4.4369e+001  1.2777e+001 67020 69112,69268,69138
 2.0000e-001 69317  1.1360e+001  3.0358e+001 -1.1779e+001 67020 69138,69190,69164
 2.0000e-001 69294  1.5152e+001  3.3144e+001 -5.9725e+000 67020 69138,69216,69190
 2.0000e-001 69536 -4.7524e+001 -2.4570e+001  8.2737e+000 66708 69435,69487,69461
 2.0000e-001 69513 -3.7009e+001 -1.2958e+001  2.9110e+000 66708 69409,69487,69435
 2.0000e-001 69735  6.4708e+000  3.3621e+001 -1.1328e+000 66346 69585,69637,69611
 2.0000e-001 69712  2.4167e+000  3.1376e+001  1.6958e-001 66346 69559,69637,69585
 2.0000e-001 69689  1.4740e+000  3.2380e+001  3.7064e+000 66346 69559,69663,69637
 2.0000e-001 69985 -3.5515e+000  2.0803e+001  1.4695e+000 66148 69786,69890,69864
 2.0000e-001 69962  3.3278e+000  2.4313e+001  1.9935e-001 66148 69760,69890,69786
 2.0000e-001 69939 -3.4770e+000  2.5180e+001  3.1341e+000 66148 69786,69864,69838
 2.0000e-001 69916 -2.8164e+000  2.8296e+001  4.2471e+000 66148 69786,69838,69812
 2.0000e-001 70137 -2.7851e+000  1.6182e+001  7.7729e-001 65950 70036,70088,70062
 2.0000e-001 70114 -9.4620e+000  1.6982e+001 -1.8180e+000 65950 70010,70088,70036
 2.0000e-001 70470 -3.2789e+000  1.2985e+001  1.3045e+000 65546 70245,70323,70271
 2.0000e-001 70447 -1.9772e+000  1.4069e+001  9.4286e-002 65546 70245,70375,70323
 2.0000e-001 70424  5.2091e-001  1.7774e+001  1.2141e+000 65546 70323,70375,70349
 2.0000e-001 70401 -3.6658e+000  1.2185e+001  1.7781e+000 65546 70271,70323,70297
 2.0000e-001 70620 -2.6169e+000  2.5454e+001 -1.7827e+000 65348 70493,70545,70519
 2.0000e-001 70597 -1.3137e+000  3.2004e+001 -7.5166e-002 65348 70493,70571,70545
 2.0000e-001 70721  9.0916e+000  1.7569e+001  6.6610e-004 65150 70643,70695,70669
 2.0000e-001 71020  2.4913e-001  9.7788e+000 -8.6910e-001 64952 71043,70850,70824
 2.0000e-001 70997 -1.2808e+000  7.4158e+000  2.8199e-001 64952 71043,70824,70772
 2.0000e-001 70974 -2.0267e+000  1.3983e+001 -9.7522e-001 64952 71115,70746,70876
 2.0000e-001 70951 -1.1658e+000  1.5026e+001 -2.2981e-001 64952 70746,70902,70876
 2.0000e-001 70928 -1.5644e+000  8.2919e+000 -2.9439e-001 64952 70772,70824,70798
 2.0000e-001 71069 -2.3442e+000  8.4994e+000 -1.3818e+000 64952 70876,70850,71043
 2.0000e-001 71092 -8.7520e-001  1.2056e+001 -4.9884e-001 64952 71115,70876,71043
 2.0000e-001 71141 -1.9849e+000  1.2001e+001  3.5263e-001 64952 70772,70746,71115
 2.0000e-001 71164 -1.9887e+000  8.9669e+000  1.0792e+000 64952 70772,71115,71043
 2.0000e-001 71365 -6.0097e+000  1.3601e+001  8.2779e-001 64662 71215,71293,71267
 2.0000e-001 71342 -1.0334e+001  7.1096e+000  3.0873e+000 64662 71189,71293,71215
 2.0000e-001 71319 -9.2135e+000  3.7612e+000  1.2691e+000 64662 71215,71267,71241
 2.0000e-001 71615  1.0508e+001  2.8633e+001  1.3268e-001 64350 71710,71638,71468
 2.0000e-001 71592  4.3954e+000  2.9135e+001  3.3146e-001 64350 71638,71416,71390
 2.0000e-001 71569  1.1259e+001  2.7764e+001 -7.0825e-001 64350 71710,71468,71442
 2.0000e-001 71546  4.1401e+001  3.4046e+001 -1.6744e+001 64350 71390,71520,71494
 2.0000e-001 71664  9.5135e+000  2.8214e+001  1.3696e-001 64350 71494,71468,71638
 2.0000e-001 71687  8.5158e+000  3.1759e+001 -7.9851e-001 64350 71494,71638,71390
 2.0000e-001 71736  8.7954e+000  2.6932e+001  1.2839e+000 64350 71416,71638,71710
 2.0000e-001 71759  1.0620e+001  2.6756e+001  3.8758e-001 64350 71416,71710,71442
 2.0000e-001 72318  1.1317e+001  1.0823e+001  1.6812e+000 63837 71972,72024,71998
 2.0000e-001 72295 -2.2385e+000  1.1015e+001  3.1659e+000 63837 72341,71972,71946
 2.0000e-001 72272  1.8112e+000  1.5519e+001  3.5636e-002 63837 72413,72341,71946
 2.0000e-001 72249  1.2910e-001  1.8114e+001 -4.8309e-001 63837 72413,71946,72128
 2.0000e-001 72226  1.8842e+000  1.2955e+001 -7.1487e+000 63837 72024,72076,72050
 2.0000e-001 72203 -1.1542e+000  6.6843e+000 -3.5113e+000 63837 72024,72102,72076
 2.0000e-001 72180 -2.0085e+000  1.7192e+001 -4.1673e-001 63837 71946,72154,72128
 2.0000e-001 72367  3.5281e+000  1.3209e+001  1.7706e+000 63837 72024,71972,72341
 2.0000e-001 72390  2.1077e+000  1.1547e+001 -1.0667e+000 63837 72024,72341,72102
 2.0000e-001 72439  9.8818e-001  1.1314e+001 -1.2303e+000 63837 72102,72341,72413
 2.0000e-001 72462 -6.0494e-002  1.4519e+001 -1.3415e+000 63837 72102,72413,72128
 2.0000e-001 72791  3.4777e+000  1.7734e+001  3.4854e+000 63383 72592,72696,72670
 2.0000e-001 72768  9.0523e+000  2.9826e+001  4.8792e+000 63383 72566,72696,72592
 2.0000e-001 72745  7.5137e+000  1.7448e+001  2.3199e+000 63383 72592,72670,72618
 2.0000e-001 72722  7.7570e+000  1.5843e+001  3.9601e+000 63383 72618,72670,72644
 2.0000e-001 73297 -7.7185e+000  5.9637e+000 -5.2886e+000 63185 73000,73156,73130
 2.0000e-001 73274 -2.8727e+000  1.6781e+001 -3.0446e+000 63185 72974,73156,73000
 2.0000e-001 73251 -6.9817e-001  1.6344e+001 -3.8902e+000 63185 73000,73052,73026
 2.0000e-001 73228  1.5990e+000  1.1878e+001 -2.7249e+000 63185 73000,73130,73052
 2.0000e-001 73205  9.8437e-001  1.4856e+001  1.1676e+000 63185 73052,73130,73104
 2.0000e-001 73182  2.0537e+000  1.8280e+001  1.9612e+000 63185 73052,73104,73078
 2.0000e-001 73545 -2.2650e-001  2.4353e+001 -3.2560e+000 62781 73568,73398,73372
 2.0000e-001 73522 -3.4306e+000  1.5229e+001 -3.6640e+000 62781 73568,73372,73346
 2.0000e-001 73499  1.8072e+000  1.6657e+001  6.7204e-001 62781 73640,73320,73424
 2.0000e-001 73476 -2.1776e+000  1.1636e+001  2.5184e+000 62781 73320,73450,73424
 2.0000e-001 73594 -3.6469e+000  1.6408e+001 -1.0356e+000 62781 73424,73398,73568
 2.0000e-001 73617  5.0496e-001  1.5793e+001 -3.3836e-001 62781 73640,73424,73568
 2.0000e-001 73666  1.1183e+000  1.5296e+001 -7.9344e-001 62781 73346,73320,73640
 2.0000e-001 73689  3.7592e-001  1.4235e+001 -1.7193e+000 62781 73346,73640,73568
 2.0000e-001 74035  1.4446e+000  2.5753e+001  1.2711e+000 62363 74058,73868,73842
 2.0000e-001 74012 -1.9538e+000  1.9919e+001  5.3404e+000 62363 74130,74058,73842
 2.0000e-001 73989 -3.8249e+000  2.0718e+001  7.7594e+000 62363 74130,73842,73816
 2.0000e-001 73966  5.4291e+000  3.0404e+001 -4.8814e-001 62363 74202,73764,73894
 2.0000e-001 73943  1.1348e+001  2.3854e+001 -1.2944e+000 62363 73712,73894,73764
 2.0000e-001 73920  1.5766e+001  2.8505e+001  1.0408e+000 62363 73712,73764,73738
 2.0000e-001 74084 -3.7933e-001  2.5654e+001  6.5006e-001 62363 73894,73868,74058
 2.0000e-001 74107  3.4353e+000  2.7433e+001 -1.6860e+000 62363 74202,73894,74058
 2.0000e-001 74156  1.1616e+000  2.4195e+001  8.5166e-001 62363 73790,74058,74130
 2.0000e-001 74179 -4.9333e+000  2.4139e+001  3.1493e+000 62363 73790,74130,73816
 2.0000e-001 74228  7.3010e+000  3.1271e+001  3.6769e+000 62363 73790,73764,74202
 2.0000e-001 74251  5.5528e+000  2.7945e+001  2.5411e+000 62363 73790,74202,74058
 2.0000e-001 74403 -1.3520e+001  2.3705e+001 -2.3199e+000 62115 74426,74302,74276
 2.0000e-001 74380 -2.0847e+001  2.3415e+001 -5.2850e+000 62115 74426,74276,74354
 2.0000e-001 74452 -7.0917e+000  2.1102e+001 -2.5162e+000 62115 74328,74302,74426
 2.0000e-001 74475 -1.3736e+001  2.1211e+001 -5.7036e+000 62115 74328,74426,74354
 2.0000e-001 74578 -2.5100e+000  1.6568e+001  9.0631e-001 61825 74500,74552,74526
 2.0000e-001 74982  4.2828e+000  3.0875e+001  1.3597e+000 61513 75005,74734,74708
 2.0000e-001 74959  8.6231e+000  2.8696e+001  1.4446e+000 61513 75005,74708,74864
 2.0000e-001 74936  1.5463e+001  3.4021e+001  8.5539e-001 61513 75077,74812,74734
 2.0000e-001 74913 -2.1328e+000  2.5595e+001  5.8017e+000 61513 74734,74786,74760
 2.0000e-001 74890 -2.3280e+000  2.4124e+001  4.8013e+000 61513 74734,74812,74786
 2.0000e-001 75031  7.3381e+000  3.2876e+001  2.4370e+000 61513 75077,74734,75005
 2.0000e-001 75054  4.5297e+000  2.9656e+001 -3.4718e+000 61513 74838,75005,74864
 2.0000e-001 75103  1.9380e+001  3.3666e+001 -7.1161e+000 61513 74838,74812,75077
 2.0000e-001 75126  1.4321e+001  3.4484e+001 -5.4430e+000 61513 74838,75077,75005
 2.0000e-001 75553  3.7318e+000  2.3149e+001 -2.5396e+000 61060 75576,75360,75308
 2.0000e-001 75530  1.2077e+000  2.7396e+001 -3.4993e+000 61060 75576,75308,75230
 2.0000e-001 75507  5.4765e+000  2.3971e+001 -2.3086e+000 61060 75308,75360,75334
 2.0000e-001 75484  5.3194e+000  3.7838e+001 -2.3056e+000 61060 75230,75308,75256
 2.0000e-001 75461  4.0562e+000  3.3183e+001  2.8346e-001 61060 75256,75308,75282
 2.0000e-001 75438  1.1524e+001  2.1600e+001 -1.1696e+001 61060 75360,75412,75386
 2.0000e-001 75602  4.3725e+000  2.6136e+001 -4.2733e+000 61060 75412,75360,75576
 2.0000e-001 75625  2.8590e+000  3.2149e+001 -5.0017e+000 61060 75412,75576,75230
 2.0000e-001 76052 -4.1134e+000  6.6582e+000  2.5520e+000 60442 75755,75859,75833
 2.0000e-001 76029  1.1710e+000  7.6769e+000  3.4549e+000 60442 75729,75859,75755
 2.0000e-001 76006  5.3905e-001  1.0396e+001 -1.0901e+000 60442 75755,75833,75807
 2.0000e-001 75983 -1.2181e+000  5.7450e+000 -2.3441e+000 60442 75755,75807,75781
 2.0000e-001 75960  9.7175e+000  7.2991e+000  2.2388e+000 60442 75729,75911,75859
 2.0000e-001 75937  5.2123e+000  1.5470e+000 -1.3675e+000 60442 75859,75911,75885
 2.0000e-001 76430  6.4258e+000  1.7835e+001 -3.8654e-001 59788 76453,76286,76234
 2.0000e-001 76407  8.1412e+000  2.0981e+001  5.7324e-001 59788 76453,76234,76182
 2.0000e-001 76384  6.7580e+000  1.7718e+001 -1.5753e+000 59788 76525,76156,76312
 2.0000e-001 76361  5.1525e+000  2.7304e+001  6.9187e-001 59788 76182,76234,76208
 2.0000e-001 76338  1.1491e+001  2.0014e+001  3.9352e-001 59788 76234,76286,76260
 2.0000e-001 76479  5.1404e+000  1.9364e+001 -1.8962e+000 59788 76312,76286,76453
 2.0000e-001 76502  6.0824e+000  1.9381e+001 -1.1419e+000 59788 76525,76312,76453
 2.0000e-001 76551  7.2240e+000  1.9988e+001 -1.8629e+000 59788 76182,76156,76525
 2.0000e-001 76574  6.8307e+000  2.0550e+001 -1.4935e+000 59788 76182,76525,76453
 2.0000e-001 77031  1.2870e+000  1.3847e+001  3.7632e+000 59448 76835,76887,76861
 2.0000e-001 77008 -3.4326e+000  7.2085e+000  1.3641e+000 59448 76835,76913,76887
 2.0000e-001 76985 -3.4131e-001  8.8100e+000 -1.0823e+000 59448 76809,76913,76835
 2.0000e-001 76962  4.3526e+000  1.1503e+001  2.0812e+000 59448 76757,76913,76809
 2.0000e-001 76939  1.3401e+000  8.4042e+000  3.3563e+000 59448 76757,76809,76783
 2.0000e-001 77537  4.1490e+000  3.7261e+001 -1.4797e+000 58994 77560,77344,77292
 2.0000e-001 77514  1.1960e+001  3.3069e+001 -7.0953e-001 58994 77560,77292,77240
 2.0000e-001 77491 -6.8414e-001  2.7803e+001  2.8857e+000 58994 77632,77214,77370
 2.0000e-001 77468  8.0157e+000  3.9348e+001 -6.4737e+000 58994 77292,77344,77318
 2.0000e-001 77445 -4.7514e+000  3.7492e+001  1.0368e+000 58994 77214,77396,77370
 2.0000e-001 77422  1.8379e+001  4.6977e+001 -2.5023e+000 58994 77240,77292,77266
 2.0000e-001 77586  8.8682e+000  3.4581e+001 -1.6192e+000 58994 77370,77344,77560
 2.0000e-001 77609  6.1778e+000  3.1846e+001 -2.8228e+000 58994 77632,77370,77560
 2.0000e-001 77658 -4.4984e+000  2.3551e+001  9.3648e+000 58994 77240,77214,77632
 2.0000e-001 77681  7.0125e-001  2.2983e+001  4.2134e+000 58994 77240,77632,77560
 2.0000e-001 78138  8.3128e+000  1.3737e+001 -5.8097e-001 58440 77864,77994,77890
 2.0000e-001 78115  1.0190e+001  1.3611e+001 -2.5406e-001 58440 77864,78020,77994
 2.0000e-001 78092  5.4039e+000  1.5173e+001  6.2549e+000 58440 77942,77994,77968
 2.0000e-001 78069  2.6639e+000  1.5771e+001  2.7578e+000 58440 77890,77994,77942
 2.0000e-001 78046 -1.2580e+000  1.6447e+001  5.6063e+000 58440 77890,77942,77916
 2.0000e-001 78467  4.6885e+000  2.9250e+001 -5.6268e-001 57928 78562,78490,78346
 2.0000e-001 78444  4.1675e+000  2.7355e+001 -1.8674e+000 57928 78490,78294,78268
 2.0000e-001 78421  4.6818e+000  2.9050e+001 -5.3460e-001 57928 78562,78346,78320
 2.0000e-001 78398 -7.5762e-001  2.3327e+001 -2.5739e+000 57928 78242,78372,78268
 2.0000e-001 78516  5.1016e+000  3.1755e+001  3.8506e-001 57928 78372,78346,78490
 2.0000e-001 78539  4.4520e+000  2.8341e+001 -5.2070e-001 57928 78372,78490,78268
 2.0000e-001 78588  4.5503e+000  2.9255e+001 -5.7827e-001 57928 78294,78490,78562
 2.0000e-001 78611  4.6110e+000  2.9136e+001 -5.3031e-001 57928 78294,78562,78320
 2.0000e-001 79068  1.0782e+001  2.5142e+001  6.8185e+000 57467 78794,78924,78820
 2.0000e-001 79045  4.8283e+000  2.2494e+001  6.3139e+000 57467 78794,78950,78924
 2.0000e-001 79022 -1.5482e+000  1.8845e+001 -1.4632e+000 57467 78820,78898,78872
 2.0000e-001 78999  7.4982e+000  2.8756e+001  4.0235e+000 57467 78820,78924,78898
 2.0000e-001 78976  2.8196e+000  2.0790e+001 -1.8591e+000 57467 78820,78872,78846
 2.0000e-001 79446  6.4442e+000  2.8753e+001  6.8236e-001 57120 79172,79302,79250
 2.0000e-001 79423  6.1530e+000  2.8382e+001  5.5147e+000 57120 79172,79328,79302
 2.0000e-001 79400  4.2728e+000  2.0705e+001  2.6546e+000 57120 79172,79250,79198
 2.0000e-001 79377 -3.7500e+000  3.5749e+001 -2.8219e+000 57120 79250,79302,79276
 2.0000e-001 79354  6.9464e-001  2.9836e+001  1.1027e+001 57120 79198,79250,79224
 2.0000e-001 79952  6.1171e+000  1.5948e+001 -3.1400e+000 56773 79629,79785,79655
 2.0000e-001 79929 -2.7978e+000  1.3881e+001 -4.8954e+000 56773 79629,79811,79785
 2.0000e-001 79906  4.8567e+000  1.9562e+001 -3.6699e+000 56773 79655,79733,79681
 2.0000e-001 79883  4.5849e+000  1.7133e+001 -2.5706e+000 56773 79655,79785,79733
 2.0000e-001 79860  2.7044e+000  2.0991e+001  1.3933e+000 56773 79733,79785,79759
 2.0000e-001 79837 -1.2178e-001  1.7124e+001 -7.9821e+000 56773 79681,79733,79707
 2.0000e-001 80281  1.4813e+001  2.2417e+001  4.3133e+000 56319 80108,80160,80134
 2.0000e-001 80258  5.3503e+000  2.3677e+001  2.0139e+000 56319 80056,80160,80108
 2.0000e-001 80235  1.3765e+001  2.5287e+001 -4.7196e+000 56319 80056,80186,80160
 2.0000e-001 80212  1.0524e+000  3.3174e+001  5.7950e+000 56319 80056,80108,80082
 2.0000e-001 80738 -5.3246e+000  1.9849e+001 -5.1791e+000 55957 80516,80620,80594
 2.0000e-001 80715 -5.8375e+000  1.4229e+001 -6.6224e+000 55957 80464,80620,80516
 2.0000e-001 80692 -4.7808e+000  1.8357e+001 -2.5384e+000 55957 80761,80568,80542
 2.0000e-001 80669 -9.8640e+000  1.9355e+001 -2.6678e+000 55957 80761,80542,80516
 2.0000e-001 80646 -4.5592e+000  1.7077e+001 -1.0958e+001 55957 80464,80516,80490
 2.0000e-001 80787 -1.1481e+000  1.9324e+001 -2.5268e+000 55957 80594,80568,80761
 2.0000e-001 80810 -5.7740e+000  2.0620e+001 -2.7914e+000 55957 80594,80761,80516
 2.0000e-001 81210 -4.4741e-001  1.4225e+001  4.9121e+000 55317 80936,80988,80962
 2.0000e-001 81187 -6.1898e+000  7.4583e+000  7.5090e-001 55317 80936,81066,80988
 2.0000e-001 81164 -5.3270e+000  9.1114e+000  1.2101e-001 55317 80936,81092,81066
 2.0000e-001 81141 -3.1653e-001  1.0031e+001  1.1095e+000 55317 80988,81066,81014
 2.0000e-001 81118 -9.4390e+000  4.1503e+000 -1.7235e+000 55317 81014,81066,81040
 2.0000e-001 81539  5.4443e+000  1.7787e+001 -1.2675e+000 54913 81340,81418,81392
 2.0000e-001 81516 -6.1088e+000  1.4468e+001  1.2006e+000 54913 81340,81444,81418
 2.0000e-001 81493 -9.2579e+000  1.4704e+001  6.0293e+000 54913 81314,81444,81340
 2.0000e-001 81470  2.3730e+001  9.5382e+000  3.3805e+000 54913 81340,81392,81366
 2.0000e-001 81787  3.2226e+000  2.5633e+001 -7.1505e-001 54601 81588,81692,81640
 2.0000e-001 81764  1.0631e+001  2.3920e+001  3.7827e-001 54601 81562,81692,81588
 2.0000e-001 81741 -1.3999e+000  2.4516e+001 -3.8327e+000 54601 81588,81640,81614
 2.0000e-001 81718  1.0988e+000  3.6689e+001  8.7747e+000 54601 81640,81692,81666
 2.0000e-001 82344  2.5428e+000  3.4203e+001  4.9731e+000 54090 81998,82102,82076
 2.0000e-001 82321  1.1855e+001  3.8389e+001  1.4092e+000 54090 81998,82154,82102
 2.0000e-001 82298  5.0666e+000  3.3591e+001 -7.7256e-001 54090 81972,82154,81998
 2.0000e-001 82275  1.0961e+001  3.0405e+001  5.4750e+000 54090 81998,82076,82024
 2.0000e-001 82252  7.8055e+000  4.1549e+001 -1.8395e+001 54090 81972,82180,82154
 2.0000e-001 82229  1.7331e+001  4.1524e+001 -2.3403e+000 54090 82102,82154,82128
 2.0000e-001 82206 -8.8960e+000  1.8324e+001  1.1416e+001 54090 82024,82076,82050
 2.0000e-001 82722  2.0395e+001  3.0840e+001  2.5414e+000 53579 82500,82578,82552
 2.0000e-001 82699  1.5479e+001  3.0017e+001  6.5511e-001 53579 82448,82578,82500
 2.0000e-001 82676  1.9672e+001  3.2811e+001 -1.9891e+000 53579 82448,82500,82474
 2.0000e-001 82653  1.9902e+001  3.3200e+001 -4.6794e+000 53579 82448,82604,82578
 2.0000e-001 82630  1.1218e+001  2.8590e+001  2.8549e+000 53579 82500,82552,82526
 2.0000e-001 83356  5.6454e+000  1.1325e+001  2.4777e+000 53189 83379,83088,83036
 2.0000e-001 83333  3.9472e+000  1.3939e+001  1.5806e+000 53189 83379,83036,82984
 2.0000e-001 83310  5.9960e-002  1.0948e+001 -5.2515e+000 53189 82984,83192,83166
 2.0000e-001 83287  8.1757e+000  1.2526e+001  2.8203e+000 53189 83036,83088,83062
 2.0000e-001 83264  3.6512e+000  2.2019e+001  3.3579e+000 53189 82984,83036,83010
 2.0000e-001 83241  1.1571e+001  9.3869e+000  2.0492e-001 53189 83114,83166,83140
 2.0000e-001 83218  9.0997e+000  1.0234e+001 -1.0620e+000 53189 83088,83166,83114
 2.0000e-001 83405  7.3705e+000  1.2965e+001  1.6740e+000 53189 83166,83088,83379
 2.0000e-001 83428  4.9034e+000  1.5057e+001  1.0125e+000 53189 83166,83379,82984
 2.0000e-001 83725  7.6547e+000  3.4007e+001  3.4893e+000 52585 83748,83529,83503
 2.0000e-001 83702  6.9809e-001  3.1055e+001  3.5692e+000 52585 83820,83748,83503
 2.0000e-001 83679 -5.9914e+000  3.1336e+001  3.7094e+000 52585 83820,83503,83477
 2.0000e-001 83656 -9.2107e+000  2.4509e+001  1.0006e+001 52585 83477,83607,83581
 2.0000e-001 83633 -5.5021e+000  2.2650e+001  3.3477e-001 52585 83451,83607,83477
 2.0000e-001 83774  8.6035e+000  3.3968e+001 -8.1960e-001 52585 83555,83529,83748
 2.0000e-001 83797  6.9828e+000  3.1642e+001  2.1376e-001 52585 83555,83748,83581
 2.0000e-001 83846  6.8123e+000  2.9965e+001  3.6877e-001 52585 83581,83748,83820
 2.0000e-001 83869  1.4654e+000  3.0854e+001  1.0938e+000 52585 83581,83820,83477
 2.0000e-001 84200  1.1333e+001  3.2330e+001 -4.8189e-001 52024 84001,84105,84079
 2.0000e-001 84177  3.1249e+000  3.1349e+001  2.3262e+000 52024 83975,84105,84001
 2.0000e-001 84154  8.3885e+000  3.4851e+001 -2.6526e+000 52024 84001,84079,84053
 2.0000e-001 84131  2.1084e+000  1.8887e+001 -8.4041e+000 52024 84001,84053,84027
 2.0000e-001 84399  4.9252e+000  3.0423e+001  1.1113e+000 51470 84422,84275,84249
 2.0000e-001 84376  4.5630e+000  3.2081e+001  1.2518e+000 51470 84422,84249,84223
 2.0000e-001 84353  4.1740e+000  3.1175e+001  5.2812e+000 51470 84275,84327,84301
 2.0000e-001 84448  5.1219e+000  3.1663e+001  8.5051e-001 51470 84327,84275,84422
 2.0000e-001 84471  4.4796e+000  3.2978e+001  1.0545e+000 51470 84327,84422,84223
 2.0000e-001 84753  5.1438e+000  2.9518e+001 -8.7217e-001 51073 84603,84655,84629
 2.0000e-001 84730  1.8144e+001  3.4718e+001 -2.2568e-002 51073 84776,84655,84603
 2.0000e-001 84707  4.2433e+000  2.2489e+001  3.7280e+000 51073 84577,84681,84655
 2.0000e-001 84802  2.4640e+000  2.5893e+001  4.8126e+000 51073 84577,84655,84776
 2.0000e-001 85178  5.4465e+000  1.8382e+001  2.5462e+000 50519 85201,85008,84982
 2.0000e-001 85155  6.2915e+000  2.1085e+001  1.3154e+000 50519 85273,85201,84982
 2.0000e-001 85132  4.6641e+000  2.1543e+001  2.4155e+000 50519 85273,84982,84930
 2.0000e-001 85109  1.1749e+000  2.0983e+001  3.2781e+000 50519 84930,84982,84956
 2.0000e-001 85086  9.7466e+000  1.9214e+001 -5.0034e+000 50519 85008,85060,85034
 2.0000e-001 85227  5.1922e+000  1.9355e+001 -7.4862e-001 50519 85060,85008,85201
 2.0000e-001 85250  4.8155e+000  2.5404e+001  1.4855e-002 50519 85060,85201,84904
 2.0000e-001 85299  4.1581e+000  2.0737e+001  2.3383e+000 50519 84904,85201,85273
 2.0000e-001 85322  1.6201e-001  1.8175e+001  4.2838e+000 50519 84904,85273,84930
 2.0000e-001 85958  3.6316e+000  2.0445e+001  5.7620e-001 50093 85981,85768,85716
 2.0000e-001 85935  1.8491e+000  1.6188e+001  5.0484e-001 50093 85981,85716,85612
 2.0000e-001 85912  5.8213e+000  1.5052e+001 -1.2990e+000 50093 85612,85716,85664
 2.0000e-001 85889 -7.5026e-001  2.1626e+001 -2.4856e-001 50093 85716,85768,85742
 2.0000e-001 85866  6.0086e+000  1.7216e+001 -3.7501e+000 50093 85664,85716,85690
 2.0000e-001 85843  2.3075e+000  1.2089e+001  5.1693e+000 50093 85586,85794,85612
 2.0000e-001 85820  1.0555e+001  8.4471e+000  1.6763e+000 50093 85612,85664,85638
 2.0000e-001 86007  7.3215e+000  2.4168e+001  6.6015e+000 50093 85794,85768,85981
 2.0000e-001 86030  1.7955e+000  1.1794e+001  5.0148e+000 50093 85794,85981,85612
 2.0000e-001 86131 -4.6807e+000  4.3694e+001 -9.8342e+000 49895 86053,86105,86079
 2.0000e-001 86639 -4.6827e+000  1.1278e+000  5.2094e+000 49391 86662,86394,86368
 2.0000e-001 86616 -5.3343e+000  7.6563e+000  1.3211e+000 49391 86662,86368,86342
 2.0000e-001 86593 -1.8462e+000  7.2449e+000 -2.7217e+000 49391 86342,86498,86472
 2.0000e-001 86570 -3.8290e+000  1.0240e+001 -2.4382e+000 49391 86316,86498,86342
 2.0000e-001 86547  3.1219e+000  4.7226e+000  7.5961e-001 49391 86394,86472,86446
 2.0000e-001 86524  6.8104e+000  3.7637e+000  8.7090e-001 49391 86394,86446,86420
 2.0000e-001 86688  4.1624e+000  6.9041e+000  2.7051e+000 49391 86472,86394,86662
 2.0000e-001 86711 -2.8172e+000  9.0643e+000  7.6543e-001 49391 86472,86662,86342
 2.0000e-001 87089  8.0599e+000  2.4864e+001 -3.2227e-001 48987 86815,86919,86867
 2.0000e-001 87066  1.1145e+001  2.8589e+001 -2.0435e+000 48987 86815,86971,86919
 2.0000e-001 87043  6.4162e+000  2.7431e+001  1.9570e+000 48987 86867,86919,86893
 2.0000e-001 87020  1.0743e+001  3.1432e+001 -1.2605e+000 48987 86815,86867,86841
 2.0000e-001 86997  9.9074e+000  1.9527e+001 -4.0764e+000 48987 86919,86971,86945
 2.0000e-001 87467  1.5776e+001  2.4303e+001 -1.1577e+000 48540 87490,87245,87219
 2.0000e-001 87444  6.3281e+000  2.1398e+001  1.0062e+000 48540 87562,87490,87219
 2.0000e-001 87421  9.8224e+000  2.2732e+001  3.0215e+000 48540 87562,87219,87349
 2.0000e-001 87398 -1.4462e+000  2.7678e+001 -2.9773e+000 48540 87245,87297,87271
 2.0000e-001 87375  9.8108e+000  1.8158e+001  1.4467e+000 48540 87193,87349,87219
 2.0000e-001 87516  6.4784e+000  2.1250e+001 -7.0305e-001 48540 87297,87245,87490
 2.0000e-001 87539  3.8716e+000  2.2887e+001  3.8649e+000 48540 87297,87490,87323
 2.0000e-001 87588  9.9477e+000  2.4859e+001  3.0799e+000 48540 87323,87490,87562
 2.0000e-001 87611  1.1388e+001  2.3417e+001  4.5528e+000 48540 87323,87562,87349
 2.0000e-001 87810  8.8438e+000  6.8041e+001 -1.8947e+000 48136 87660,87712,87686
 2.0000e-001 87787 -6.5171e+000  3.7311e+001  3.2307e+000 48136 87660,87738,87712
 2.0000e-001 87764  1.3754e+001  3.6407e+001  1.3253e+001 48136 87634,87738,87660
 2.0000e-001 88205  6.3294e+000  2.5541e+001  2.3580e-001 47210 88300,88228,87937
 2.0000e-001 88182  5.8804e+000  2.5449e+001 -4.9540e-001 47210 88228,87833,88041
 2.0000e-001 88159  6.3073e+000  2.6195e+001  8.8378e-001 47210 88300,87937,87911
 2.0000e-001 88136  4.0840e+000  1.3465e+001  1.1956e+000 47210 87833,87911,87859
 2.0000e-001 88113  2.7031e+000  2.1367e+001 -1.5361e-001 47210 87937,87989,87963
 2.0000e-001 88090  6.9305e+000  2.4103e+001 -2.6798e+000 47210 87989,88041,88015
 2.0000e-001 88067  2.1245e+001  5.6366e+001  1.0778e+001 47210 87859,87911,87885
 2.0000e-001 88254  5.9536e+000  2.3066e+001  4.7993e-001 47210 87989,87937,88228
 2.0000e-001 88277  7.5234e+000  2.4948e+001 -3.4202e-001 47210 87989,88228,88041
 2.0000e-001 88326  5.3441e+000  2.4797e+001 -2.6011e-001 47210 87833,88228,88300
 2.0000e-001 88349  5.5277e+000  2.5309e+001  4.1411e-001 47210 87833,88300,87911
 2.0000e-001 88780  2.6884e+001  4.8739e+001  1.0649e+001 46642 88803,88509,88483
 2.0000e-001 88757  1.3798e+001  4.0699e+001  3.8004e+000 46642 88803,88483,88639
 2.0000e-001 88734  1.9597e+001  2.8818e+001  4.8242e+000 46642 88875,88561,88509
 2.0000e-001 88711  2.1008e+001  2.7132e+001  1.0571e+000 46642 88509,88561,88535
 2.0000e-001 88688  8.5716e+000  4.2308e+001  3.2556e-001 46642 88457,88639,88483
 2.0000e-001 88665  2.4855e+001  5.3450e+001 -1.7455e+000 46642 88561,88613,88587
 2.0000e-001 88829  1.7856e+001  3.3922e+001  5.5568e+000 46642 88875,88509,88803
 2.0000e-001 88852  1.7527e+001  4.3528e+001  1.0665e+000 46642 88613,88803,88639
 2.0000e-001 88901  1.6070e+001  3.5348e+001  1.0193e+000 46642 88613,88561,88875
 2.0000e-001 88924  1.7122e+001  4.3737e+001  1.2641e+000 46642 88613,88875,88803
 2.0000e-001 89253  6.9527e-001  2.4018e+001 -2.3398e+000 46444 89080,89158,89132
 2.0000e-001 89230  3.4781e+000  2.9384e+001  3.0371e-001 46444 89028,89158,89080
 2.0000e-001 89207 -7.2263e-001  3.2715e+001 -3.0190e-001 46444 89028,89080,89054
 2.0000e-001 89184  1.2246e+001  4.3384e+001  1.1901e+001 46444 89080,89132,89106
 2.0000e-001 89631  1.2389e+001  3.4220e+001 -1.4528e+000 46040 89383,89461,89435
 2.0000e-001 89608  8.8724e+000  2.5172e+001 -2.8241e+000 46040 89383,89487,89461
 2.0000e-001 89585  8.7643e+000  3.8859e+001 -1.4321e+000 46040 89383,89435,89409
 2.0000e-001 89562  1.2501e+001  2.4339e+001 -2.5347e+000 46040 89383,89513,89487
 2.0000e-001 89539  1.2247e+001  2.5315e+001 -5.6360e+000 46040 89357,89513,89383
 2.0000e-001 90009 -2.7806e-001  2.2376e+001 -6.3360e-001 45636 89813,89891,89839
 2.0000e-001 89986  1.3144e+000  2.2752e+001 -2.9712e+000 45636 89787,89891,89813
 2.0000e-001 89963 -2.2480e-001  2.0632e+001 -1.4973e-001 45636 89839,89891,89865
 2.0000e-001 89940  2.8221e+000  2.2059e+001 -2.1509e+000 45636 89735,89891,89787
 2.0000e-001 89917  3.6106e+000  2.4711e+001 -2.1482e+000 45636 89735,89787,89761
 2.0000e-001 90208  2.5842e+000  1.9682e+001  1.8851e+000 45175 90231,90058,90032
 2.0000e-001 90185  6.1272e+000  2.0072e+001  4.7220e+000 45175 90231,90032,90136
 2.0000e-001 90162 -9.5792e+000  2.4895e+001  6.3560e-001 45175 90058,90110,90084
 2.0000e-001 90257  1.7281e+000  2.2174e+001  5.2560e+000 45175 90110,90058,90231
 2.0000e-001 90280  7.3590e+000  2.2874e+001  8.0882e+000 45175 90110,90231,90136
 2.0000e-001 90528  4.8388e+000  2.3953e+001  3.9736e+000 44513 90695,90551,90407
 2.0000e-001 90505  9.4848e+000  2.5522e+001  7.4384e+000 44513 90551,90355,90329
 2.0000e-001 90482  6.4490e+000  2.5475e+001  4.2305e+000 44513 90623,90303,90433
 2.0000e-001 90459  8.4990e+000  1.8593e+001 -6.2861e-001 44513 90695,90407,90381
 2.0000e-001 90577  7.1398e+000  2.4734e+001  5.1633e+000 44513 90433,90407,90551
 2.0000e-001 90600  6.3966e+000  2.3653e+001  4.0168e+000 44513 90623,90433,90551
 2.0000e-001 90649  5.5543e+000  2.3388e+001  4.2849e+000 44513 90329,90303,90623
 2.0000e-001 90672  6.1806e+000  2.2816e+001  4.1646e+000 44513 90329,90623,90551
 2.0000e-001 90721  4.9130e+000  1.4914e+001  6.6255e+000 44513 90355,90551,90695
 2.0000e-001 90744  8.1679e+000  9.2695e+000  4.3510e+000 44513 90355,90695,90381
 2.0000e-001 91077 -8.0558e-001  1.9453e+001 -4.8462e+000 44059 91100,90930,90904
 2.0000e-001 91054  8.9961e+000  2.5855e+001 -8.5473e-001 44059 91100,90904,90982
 2.0000e-001 91031  1.2190e+001  2.5788e+001  7.1048e-001 44059 90878,90982,90904
 2.0000e-001 91008  6.7854e+000  2.2726e+001 -5.2282e-001 44059 90852,90982,90878
 2.0000e-001 91126  1.7487e+001  2.7615e+001 -2.6669e+000 44059 91172,91100,90956
 2.0000e-001 91149  1.1398e+001  3.2220e+001  2.1129e+000 44059 90956,91100,90982
 2.0000e-001 91198  2.8318e+000  1.4875e+001  2.9000e+000 44059 90930,91100,91172
 2.0000e-001 91677  9.5921e+000  1.8333e+001 -4.2143e+000 43549 91455,91533,91481
 2.0000e-001 91654 -7.6523e-002  1.9592e+001 -4.8647e+000 43549 91429,91533,91455
 2.0000e-001 91631  9.2938e+000  1.5347e+001 -6.3420e+000 43549 91481,91533,91507
 2.0000e-001 91608 -1.1419e+001  1.4776e+001 -3.7387e+000 43549 91429,91559,91533
 2.0000e-001 91585 -2.2227e+000  9.1107e+000  6.7480e+000 43549 91403,91559,91429
 2.0000e-001 92006  1.7202e+001  2.8211e+001 -2.1987e-002 43059 91781,91885,91807
 2.0000e-001 91983  1.8680e+001  2.5401e+001 -9.9494e+000 43059 91781,91911,91885
 2.0000e-001 91960  1.6870e+001  2.5960e+001  1.2246e+000 43059 91807,91885,91833
 2.0000e-001 91937  2.1718e+001  2.8385e+001  2.6419e+000 43059 91833,91885,91859
 2.0000e-001 92561  1.1576e+001  2.1826e+001  1.8962e-002 42598 92584,92215,92189
 2.0000e-001 92538  8.6963e+000  2.1952e+001  2.0143e+000 42598 92656,92584,92189
 2.0000e-001 92515  5.5698e+000  2.3423e+001  1.1818e+000 42598 92656,92189,92397
 2.0000e-001 92492 -4.1489e+000  2.0491e+001  1.9455e+000 42598 92241,92319,92293
 2.0000e-001 92469  6.5758e+000  2.0006e+001 -2.0950e+000 42598 92319,92397,92371
 2.0000e-001 92446  5.8539e+000  2.1206e+001 -3.4144e+000 42598 92319,92371,92345
 2.0000e-001 92423 -1.4461e+001  2.1173e+001  1.0743e+001 42598 92241,92293,92267
 2.0000e-001 92610  7.4351e+000  2.0970e+001  1.2266e+000 42598 92241,92215,92584
 2.0000e-001 92633  6.8881e+000  1.9853e+001  2.4905e+000 42598 92241,92584,92319
 2.0000e-001 92682  4.9434e+000  1.9406e+001  5.5956e-001 42598 92319,92584,92656
 2.0000e-001 92705  2.8401e+000  2.1128e+001 -3.9354e-001 42598 92319,92656,92397
 2.0000e-001 92953  5.6110e+000  3.3319e+001 -6.3207e+000 42094 92976,92806,92780
 2.0000e-001 92930  5.4583e+000  2.6463e+001 -4.5787e+000 42094 92976,92780,92754
 2.0000e-001 92907 -5.4153e-001  2.4491e+001 -1.5545e+000 42094 93048,92832,92806
 2.0000e-001 92884  1.3424e+001  2.9458e+001 -1.8987e+000 42094 92728,92858,92754
 2.0000e-001 93002  2.5146e+000  2.8377e+001 -2.9088e+000 42094 93048,92806,92976
 2.0000e-001 93025  6.3093e+000  2.6748e+001 -4.3043e+000 42094 92858,92976,92754
 2.0000e-001 93074  5.2069e+000  2.3231e+001 -5.1487e+000 42094 92858,92832,93048
 2.0000e-001 93097  6.2292e+000  2.4376e+001 -5.5791e+000 42094 92858,93048,92976
 2.0000e-001 93605 -1.2330e-001  3.1715e+001 -1.5167e-001 41846 93628,93412,93386
 2.0000e-001 93582  2.9633e+000  2.2041e+001  1.6947e+000 41846 93628,93386,93308
 2.0000e-001 93559  1.0992e+000  2.2169e+001  3.8225e+000 41846 93700,93464,93438
 2.0000e-001 93536  8.0134e+000  2.7475e+001 -1.4297e+000 41846 93308,93386,93334
 2.0000e-001 93513  1.1671e+001  2.9882e+001 -2.4747e+000 41846 93334,93386,93360
 2.0000e-001 93490 -8.1525e+000  2.6562e+001  4.6391e+000 41846 93282,93464,93308
 2.0000e-001 93654 -7.5232e+000  2.4396e+001  2.8316e+000 41846 93438,93412,93628
 2.0000e-001 93677  1.8152e+000  2.2809e+001  2.0073e+000 41846 93700,93438,93628
 2.0000e-001 93726 -4.3792e-002  1.9999e+001  4.4247e+000 41846 93308,93464,93700
 2.0000e-001 93749  3.7457e-001  1.9933e+001  2.6498e+000 41846 93308,93700,93628
 2.0000e-001 94255  2.8992e-001  2.3530e+001  6.0195e-001 41385 93958,94114,94088
 2.0000e-001 94232 -8.0820e+000  2.3546e+001  8.4165e-001 41385 93932,94114,93958
 2.0000e-001 94209  4.9684e+000  2.5194e+001  1.0420e+000 41385 93958,94088,94062
 2.0000e-001 94186 -3.9476e+000  1.4232e+001  4.9599e+000 41385 93958,94062,93984
 2.0000e-001 94163 -6.2260e+000  1.8857e+001  1.0927e+001 41385 93984,94062,94036
 2.0000e-001 94140 -1.4883e+001  1.0217e+001  1.4408e+001 41385 93984,94036,94010
 2.0000e-001 94476  1.3276e+000  2.6205e+001  2.3415e+000 40881 94326,94378,94352
 2.0000e-001 94453 -4.6150e+000  2.0906e+001  5.9482e-002 40881 94300,94378,94326
 2.0000e-001 94430 -1.3035e+000  2.1282e+001  4.9373e-001 40881 94300,94404,94378
 2.0000e-001 94626  1.5246e+001  2.4811e+001 -5.2950e+000 40591 94649,94551,94525
 2.0000e-001 94603  4.0408e+000  1.9870e+001 -2.3739e+000 40591 94781,94577,94551
 2.0000e-001 94675  4.0185e+000  1.9749e+001 -2.3968e+000 40591 94781,94551,94649
 2.0000e-001 94807  4.0673e+000  2.0227e+001 -2.0799e+000 40591 94499,94577,94781
 2.0000e-001 94830  3.8985e+000  1.9795e+001 -2.0713e+000 40591 94499,94781,94649
 2.0000e-001 95336  1.0609e+001  2.3331e+001  1.7621e-001 40187 95013,95169,95039
 2.0000e-001 95313  5.2229e+000  2.3899e+001 -3.7129e+000 40187 95013,95195,95169
 2.0000e-001 95290  2.0983e+000  2.0993e+001 -3.2860e+000 40187 95039,95143,95065
 2.0000e-001 95267  1.5573e+001  2.5901e+001  1.5808e+000 40187 95039,95169,95143
 2.0000e-001 95244  1.8342e+000  1.8191e+001 -3.2944e+000 40187 95091,95143,95117
 2.0000e-001 95221  1.0862e+000  1.8058e+001 -3.9610e+000 40187 95065,95143,95091
 2.0000e-001 95665  3.8695e+000  2.3316e+001 -4.7055e+000 39626 95466,95570,95544
 2.0000e-001 95642  1.0570e+001  2.2945e+001 -1.4608e+000 39626 95440,95570,95466
 2.0000e-001 95619  1.9703e+000  2.3248e+001 -1.8143e+000 39626 95466,95544,95492
 2.0000e-001 95596  1.4117e+001  2.2674e+001 -1.2780e+000 39626 95492,95544,95518
 2.0000e-001 95913  1.9919e+001  2.5913e+001  5.3007e-001 39136 96080,95936,95766
 2.0000e-001 95890  2.1486e+001  2.8424e+001  1.4136e+000 39136 95936,95714,95688
 2.0000e-001 95867  2.0108e+001  2.8864e+001 -2.6610e+000 39136 96008,95792,95766
 2.0000e-001 95844  1.9830e+001  2.5858e+001  6.3119e-001 39136 96080,95766,95740
 2.0000e-001 95962  1.7664e+001  3.0063e+001 -4.7393e-001 39136 96008,95766,95936
 2.0000e-001 95985  1.8184e+001  3.6085e+001  4.5654e-001 39136 95818,95936,95688
 2.0000e-001 96034  1.3988e+001  2.6113e+001 -3.7787e+000 39136 95818,95792,96008
 2.0000e-001 96057  1.3374e+001  2.7760e+001 -1.5446e+000 39136 95818,96008,95936
 2.0000e-001 96106  1.9962e+001  2.6183e+001  3.2274e-001 39136 95714,95936,96080
 2.0000e-001 96129  1.9739e+001  2.6027e+001  4.4267e-001 39136 95714,96080,95740
 2.0000e-001 96350  5.4658e+000  2.3968e+001 -6.5348e-002 38824 96200,96278,96252
 2.0000e-001 96327  5.3697e+000  2.4317e+001  3.2662e-001 38824 96174,96278,96200
 2.0000e-001 96304  4.8311e+000  2.2146e+001  2.8856e-001 38824 96200,96252,96226
 2.0000e-001 96830  1.4612e+001  3.0495e+001  1.2792e-001 38320 97069,96536,96484
 2.0000e-001 96807  1.4615e+001  3.0702e+001  8.6654e-002 38320 97069,96484,96853
 2.0000e-001 96784  1.6213e+001  3.3007e+001 -2.9252e+000 38320 96853,96484,96458
 2.0000e-001 96761  1.9118e+001  2.6935e+001 -1.4382e+000 38320 96925,96640,96614
 2.0000e-001 96738  1.6384e+001  2.4267e+001 -1.0773e+000 38320 96997,96666,96640
 2.0000e-001 96715  1.3686e+001  3.2089e+001  9.4611e-001 38320 97141,96588,96562
 2.0000e-001 96692  1.9146e+001  3.4546e+001 -1.8993e+000 38320 96484,96536,96510
 2.0000e-001 96879  1.3559e+001  3.1335e+001  8.1771e-001 38320 97141,96562,96853
 2.0000e-001 96902  1.5763e+001  3.0356e+001 -1.5048e+000 38320 96925,96614,96853
 2.0000e-001 96951  1.6829e+001  2.5419e+001 -2.3182e+000 38320 96997,96640,96925
 2.0000e-001 96974  1.3576e+001  2.6305e+001 -2.4577e+000 38320 96458,96925,96853
 2.0000e-001 97023  1.3881e+001  2.1716e+001  9.7203e-002 38320 96458,96666,96997
 2.0000e-001 97046  1.5229e+001  2.3232e+001 -1.3464e+000 38320 96458,96997,96925
 2.0000e-001 97095  1.9662e+001  3.7321e+001 -4.2226e+000 38320 96562,96536,97069
 2.0000e-001 97118  1.3210e+001  3.1186e+001 -4.8592e-001 38320 96562,97069,96853
 2.0000e-001 97167  1.4794e+001  3.0905e+001  1.2991e+000 38320 96614,96588,97141
 2.0000e-001 97190  1.4321e+001  2.9828e+001  9.3418e-001 38320 96614,97141,96853
 2.0000e-001 97519  1.2859e+001  2.9547e+001 -9.6227e+000 37766 97542,97398,97372
 2.0000e-001 97496  1.3819e+001  2.4564e+001 -8.1375e+000 37766 97542,97372,97346
 2.0000e-001 97473  1.2656e+001  2.9219e+001 -2.5108e+000 37766 97294,97424,97346
 2.0000e-001 97450  1.8655e+001  4.3221e+001 -3.2632e+000 37766 97294,97346,97320
 2.0000e-001 97568  9.9719e+000  3.1068e+001 -5.4387e+000 37766 97424,97398,97542
 2.0000e-001 97591  1.1556e+001  2.5184e+001 -4.2569e+000 37766 97424,97542,97346
 2.0000e-001 98048  8.3550e+000  2.1115e+001  5.3553e+000 37262 98071,97878,97852
 2.0000e-001 98025  5.9765e+000  2.5664e+001  8.9667e-001 37262 98071,97852,97800
 2.0000e-001 98002  6.6881e+000  3.0148e+001  1.5165e+000 37262 97800,97852,97826
 2.0000e-001 97979 -3.1547e+000  2.3486e+001 -2.1074e+000 37262 97800,97930,97904
 2.0000e-001 97956  1.0409e-001  3.2520e+001 -4.4713e-001 37262 97774,97930,97800
 2.0000e-001 98097  1.4897e+001  2.4311e+001  3.2253e+000 37262 97904,97878,98071
 2.0000e-001 98120  9.5119e+000  2.9237e+001 -8.1756e-001 37262 97904,98071,97800
 2.0000e-001 98449  3.6232e+000  1.6298e+001  1.6127e+000 36950 98472,98302,98250
 2.0000e-001 98426  1.5027e+000  1.6260e+001  1.8045e+000 36950 98472,98250,98354
 2.0000e-001 98403  6.5524e+000  2.1292e+001  6.1442e-002 36950 98250,98302,98276
 2.0000e-001 98380 -6.3684e+000  1.3506e+001  2.0794e+000 36950 98224,98354,98250
 2.0000e-001 98498  2.0575e+000  1.7103e+001  4.9557e-001 36950 98328,98302,98472
 2.0000e-001 98521 -1.8596e-001  1.7060e+001  1.0326e+000 36950 98328,98472,98354
 2.0000e-001 99125  1.0606e+001  2.0851e+001 -2.7580e+000 36296 98704,98756,98730
 2.0000e-001 99102  7.1528e+000  1.2032e+001 -1.0661e+000 36296 98704,98938,98756
 2.0000e-001 99079  2.8432e+000  1.8192e+001 -2.8008e+000 36296 99148,98938,98912
 2.0000e-001 99056  2.1347e-001  1.4106e+001 -6.2454e+000 36296 99292,99220,98782
 2.0000e-001 99033  2.3594e+000  1.4098e+001 -2.7200e+000 36296 99148,98912,98834
 2.0000e-001 99010 -4.0430e-001  1.0242e+001 -6.9763e+000 36296 99292,98782,98756
 2.0000e-001 98987  5.2132e+000  1.3602e+001 -6.4380e+000 36296 98834,98912,98886
 2.0000e-001 98964  1.4244e+001  1.0085e+001 -1.6922e+000 36296 98834,98886,98860
 2.0000e-001 99174  2.5361e+000  1.6103e+001 -2.4944e+000 36296 99220,98938,99148
 2.0000e-001 99197  2.2484e+000  1.5473e+001 -3.3873e+000 36296 98808,99148,98834
 2.0000e-001 99246 -3.3183e-001  1.2847e+001 -4.3691e+000 36296 98808,98782,99220
 2.0000e-001 99269 -6.3303e-001  1.0738e+001 -5.0490e+000 36296 98808,99220,99148
 2.0000e-001 99318  1.4784e+000  1.0449e+001 -3.6551e+000 36296 98938,99220,99292
 2.0000e-001 99341  1.8031e+000  1.1022e+001 -4.3345e+000 36296 98938,99292,98756
 2.0000e-001 99719  5.2473e+000  1.7078e+001  1.7140e+000 35742 99742,99471,99601
 2.0000e-001 99696  5.7042e+000  1.6048e+001  1.2464e+000 35742 99445,99601,99471
 2.0000e-001 99673  5.3980e+000  1.7380e+001 -2.4953e-001 35742 99742,99601,99575
 2.0000e-001 99650  5.5121e+000  2.7406e+001 -9.2545e-001 35742 99814,99549,99523
 2.0000e-001 99627  9.2325e+000  1.9628e+001 -2.0272e+000 35742 99471,99523,99497
 2.0000e-001 99768  5.2249e+000  1.8651e+001 -4.7545e-001 35742 99523,99471,99742
 2.0000e-001 99791  6.9488e+000  2.3944e+001 -1.2424e+000 35742 99814,99523,99742
 2.0000e-001 99840  6.3793e+000  2.2747e+001  3.8518e-001 35742 99575,99549,99814
 2.0000e-001 99863  6.8688e+000  1.8024e+001 -1.4692e-001 35742 99575,99814,99742
 2.0000e-001 100111  6.7518e+000  1.6391e+001 -1.7182e+000 35302 100134,99990,99938
 2.0000e-001 100088  5.0055e+000  1.7811e+001  7.0645e-001 35302 100134,99938,99912
 2.0000e-001 100065  2.8112e+000  1.8391e+001 -8.0727e-001 35302 100206,99886,100016
 2.0000e-001 100042  1.6664e+001  1.2174e+001  3.4146e-001 35302 99938,99990,99964
 2.0000e-001 100160  4.0389e+000  1.5180e+001 -2.3096e+000 35302 100016,99990,100134
 2.0000e-001 100183  5.8090e+000  1.7110e+001 -4.8280e-001 35302 100206,100016,100134
 2.0000e-001 100232 -1.6374e+000  1.6918e+001 -6.6736e-001 35302 99912,99886,100206
 2.0000e-001 100255  1.8460e+000  1.5943e+001 -1.3370e-001 35302 99912,100206,100134
 2.0000e-001 100586  1.2219e+000  1.3004e+001 -5.4157e-001 35012 100609,100387,100361
 2.0000e-001 100563  3.7499e+000  1.4658e+001  2.3397e+000 35012 100609,100361,100465
 2.0000e-001 100540  9.3276e+000  1.9535e+001 -1.6299e-001 35012 100361,100491,100465
 2.0000e-001 100517 -1.0544e+001  2.1564e+001  2.9974e+000 35012 100413,100465,100439
 2.0000e-001 100635 -2.9963e+000  1.1348e+001 -3.7119e+000 35012 100413,100387,100609
 2.0000e-001 100658  3.7514e-001  1.4691e+001 -5.4709e-001 35012 100413,100609,100465
 2.0000e-001 100987  6.0161e+000  1.7761e+001 -1.3810e+000 34700 100788,100866,100814
 2.0000e-001 100964  3.1233e+000  1.6038e+001 -2.2731e+000 34700 101010,100866,100788
 2.0000e-001 100941  4.1250e+000  1.7446e+001 -5.9321e+000 34700 100762,100892,100866
 2.0000e-001 100918  8.3921e+000  2.2878e+001 -5.6921e-002 34700 100814,100866,100840
 2.0000e-001 101036  2.1275e+000  1.4622e+001 -4.2718e+000 34700 100762,100866,101010
 2.0000e-001 101493  1.0016e+001  1.4064e+001 -1.2371e+000 34132 101516,101349,101297
 2.0000e-001 101470  1.3419e+001  1.5991e+001 -3.2189e-002 34132 101588,101516,101297
 2.0000e-001 101447  1.1435e+001  1.3089e+001  2.1552e+000 34132 101588,101297,101245
 2.0000e-001 101424  1.5936e+001  1.2314e+001  1.6143e+000 34132 101245,101297,101271
 2.0000e-001 101401  5.5131e+000  1.3178e+001 -2.2084e+000 34132 101297,101349,101323
 2.0000e-001 101542  5.0384e+000  1.5836e+001  3.3825e-001 34132 101375,101349,101516
 2.0000e-001 101565  1.0531e+001  2.0676e+001  2.6421e+000 34132 101375,101516,101219
 2.0000e-001 101614  9.8505e+000  1.3218e+001  1.8249e+000 34132 101219,101516,101588
 2.0000e-001 101637  1.0565e+001  1.2080e+001  3.6142e+000 34132 101219,101588,101245
 2.0000e-001 101858  3.0842e+000  3.2953e+001 -2.9282e+000 33720 101708,101786,101760
 2.0000e-001 101835  7.2364e+000  4.1636e+001 -1.3432e+000 33720 101682,101786,101708
 2.0000e-001 101812  1.1371e+001  3.7081e+001 -1.2696e+000 33720 101708,101760,101734
 2.0000e-001 102128  1.0763e+000  1.8479e+001  1.2520e+000 33130 101903,102007,101929
 2.0000e-001 102105  2.1839e+000  2.2560e+001 -4.5403e-001 33130 101903,102033,102007
 2.0000e-001 102082  3.9489e+000  2.1013e+001  2.7703e+000 33130 101929,102007,101955
 2.0000e-001 102059  3.5480e+000  1.6536e+001 -1.3378e-001 33130 101955,102007,101981
 2.0000e-001 102461  1.6994e+001  3.5457e+001  8.5691e-001 32840 102236,102340,102262
 2.0000e-001 102438  1.8466e+001  2.9832e+001 -6.4375e+000 32840 102236,102366,102340
 2.0000e-001 102415  1.1606e+001  3.2298e+001  2.2329e+000 32840 102262,102340,102288
 2.0000e-001 102392  2.1524e+001  3.4992e+001  6.2329e+000 32840 102288,102340,102314
 2.0000e-001 102997  1.6117e+001  1.6095e+001  9.2885e-002 32493 102749,102879,102853
 2.0000e-001 102974  1.5355e+001  1.5423e+001  2.1014e+000 32493 102723,102879,102749
 2.0000e-001 102951  1.4999e+001  1.8459e+001 -6.5475e-001 32493 102749,102801,102775
 2.0000e-001 102928  1.2333e+001  1.6202e+001  3.7039e-001 32493 102749,102853,102801
 2.0000e-001 102905  1.5267e+001  2.2998e+001  1.9463e-002 32493 102801,102853,102827
 2.0000e-001 103454 -1.1307e+000  2.3511e+001 -7.6437e-001 32089 103206,103336,103310
 2.0000e-001 103431 -1.4232e+000  2.9260e+001 -1.9649e+000 32089 103180,103336,103206
 2.0000e-001 103408  1.3466e+001  3.1236e+001  2.9417e+000 32089 103206,103284,103258
 2.0000e-001 103385  1.5920e+001  3.2344e+001  2.6333e+000 32089 103206,103310,103284
 2.0000e-001 103362  9.5499e+000  2.1658e+001  1.9873e+000 32089 103206,103258,103232
 2.0000e-001 103783  2.0023e+001  3.4305e+001 -1.9914e-001 31742 103558,103662,103584
 2.0000e-001 103760  2.0987e+001  3.8068e+001  1.6659e+000 31742 103558,103688,103662
 2.0000e-001 103737  1.1978e+001  2.9363e+001  1.9008e+000 31742 103584,103662,103636
 2.0000e-001 103714  1.4473e+001  2.7306e+001  4.5278e-001 31742 103584,103636,103610
 2.0000e-001 104112  6.5527e+000  2.9094e+001 -3.6955e-001 31402 103939,103991,103965
 2.0000e-001 104089  3.1003e+000  2.4195e+001 -1.8845e+000 31402 103913,103991,103939
 2.0000e-001 104066  1.0923e+001  3.1603e+001  2.0434e+000 31402 103913,104017,103991
 2.0000e-001 104043  1.3063e+001  3.1149e+001  3.3979e+000 31402 103887,104017,103913
 2.0000e-001 104569  1.2783e+001  3.0268e+001  1.1255e+000 30998 104321,104425,104373
 2.0000e-001 104546  2.8302e+000  2.6285e+001  1.2602e+000 30998 104321,104451,104425
 2.0000e-001 104523  9.5386e+000  2.5808e+001 -1.3125e+000 30998 104373,104425,104399
 2.0000e-001 104500 -1.3514e+000  3.9959e+001  7.7567e+000 30998 104295,104451,104321
 2.0000e-001 104477  1.6080e+001  3.5062e+001 -1.0889e+000 30998 104321,104373,104347
 2.0000e-001 104947  1.0060e+001  2.3309e+001  2.0778e+000 30608 104751,104803,104777
 2.0000e-001 104924  3.9529e+000  2.2047e+001 -2.7022e-001 30608 104725,104803,104751
 2.0000e-001 104901  8.9876e+000  2.2482e+001 -1.5782e+000 30608 104699,104803,104725
 2.0000e-001 104878  7.4882e+000  2.1692e+001 -1.2671e+000 30608 104673,104803,104699
 2.0000e-001 104855  9.8344e+000  2.5280e+001 -2.3822e+000 30608 104673,104829,104803
 2.0000e-001 105276  1.2680e+001  2.6402e+001 -1.4873e-001 30204 105427,105129,105077
 2.0000e-001 105253  9.4661e+000  3.0342e+001 -4.8214e+000 30204 105427,105077,105051
 2.0000e-001 105230  1.0289e+001  2.7915e+001  9.3812e-001 30204 105077,105129,105103
 2.0000e-001 105207  2.1385e+001  2.2447e+001 -3.7700e+000 30204 105299,105181,105155
 2.0000e-001 105325  1.6606e+001  1.9856e+001 -1.8059e+000 30204 105129,105181,105299
 2.0000e-001 105453  1.4704e+001  2.8291e+001 -3.6544e+000 30204 105181,105129,105427
 2.0000e-001 105476  1.7594e+001  3.5039e+001 -9.1099e+000 30204 105181,105427,105051
 2.0000e-001 105903  1.1129e+000  1.1138e+001  8.9266e-001 29700 105606,105762,105736
 2.0000e-001 105880  1.5803e+000  1.2504e+001  4.7298e+000 29700 105580,105762,105606
 2.0000e-001 105857  5.8853e+000  1.3953e+001  1.6900e-001 29700 105606,105710,105632
 2.0000e-001 105834  4.8419e+000  1.3268e+001 -5.0747e-001 29700 105606,105736,105710
 2.0000e-001 105811  1.1497e+001  2.2962e+001 -2.2149e+000 29700 105632,105710,105684
 2.0000e-001 105788  1.2371e+001  2.4961e+001 -2.8706e+000 29700 105632,105684,105658
 2.0000e-001 106102  1.1161e+001  1.8947e+001  1.0455e+000 29124 105978,106030,106004
 2.0000e-001 106079  7.9390e+000  2.7549e+001  4.3372e+000 29124 105926,106030,105978
 2.0000e-001 106056  7.3773e+000  2.6676e+001  3.6996e+000 29124 105926,105978,105952
 2.0000e-001 106301  4.3994e+000  1.7140e+001 -5.3177e-001 28712 106151,106229,106203
 2.0000e-001 106278  6.6998e+000  1.8858e+001  2.3392e-001 28712 106125,106229,106151
 2.0000e-001 106255  4.2429e+000  1.7488e+001 -9.5575e-001 28712 106151,106203,106177
 2.0000e-001 106551  5.4308e+000  3.0273e+001 -1.3147e+000 28258 106352,106404,106378
 2.0000e-001 106528  6.1987e+000  2.8976e+001  7.6927e-001 28258 106352,106456,106404
 2.0000e-001 106505  8.0637e+000  2.6213e+001 -2.7652e-001 28258 106326,106456,106352
 2.0000e-001 106482  3.0511e+000  2.7179e+001  4.6717e+000 28258 106404,106456,106430
 2.0000e-001 107012  1.3947e+001  2.4210e+001 -4.1899e+000 27818 107035,106790,106764
 2.0000e-001 106989  1.2751e+001  2.2629e+001 -1.9382e+000 27818 107035,106764,106868
 2.0000e-001 106966  1.0429e+001  2.6873e+001 -2.5429e+000 27818 107107,106842,106816
 2.0000e-001 106943  1.1673e+001  1.9945e+001 -7.1964e-001 27818 106738,106868,106764
 2.0000e-001 106920  1.3097e+001  1.9710e+001 -6.6978e+000 27818 106738,106894,106868
 2.0000e-001 107061  1.1195e+001  2.3079e+001 -3.9720e+000 27818 106816,106790,107035
 2.0000e-001 107084  1.2919e+001  2.4718e+001 -2.5868e+000 27818 107107,106816,107035
 2.0000e-001 107133  7.3927e+000  2.4238e+001 -1.3666e+000 27818 106868,106842,107107
 2.0000e-001 107156  1.0169e+001  2.1859e+001 -1.4606e+000 27818 106868,107107,107035
 2.0000e-001 107613  4.6976e-001  1.7185e+001 -3.6761e+000 27312 107339,107469,107365
 2.0000e-001 107590  9.4336e-001  1.8767e+001 -4.4969e+000 27312 107339,107495,107469
 2.0000e-001 107567  2.2003e+000  1.6247e+001 -2.2506e+000 27312 107391,107469,107443
 2.0000e-001 107544  1.5826e-001  1.7479e+001 -2.3469e+000 27312 107365,107469,107391
 2.0000e-001 107521  4.5966e+000  1.7383e+001 -2.6075e+000 27312 107391,107443,107417
 2.0000e-001 107991  1.1879e+001  3.0655e+001 -1.9843e+000 26858 108086,108014,107795
 2.0000e-001 107968  1.1475e+001  3.2074e+001 -1.3912e+000 26858 108014,107717,107873
 2.0000e-001 107945  1.1138e+001  3.0563e+001 -1.2987e+000 26858 108158,108086,107795
 2.0000e-001 107922  9.9786e+000  3.0958e+001 -1.3947e+000 26858 108158,107795,107769
 2.0000e-001 107899  1.2466e+001  3.6835e+001 -4.0912e+000 26858 107821,107873,107847
 2.0000e-001 108040  1.1923e+001  3.3371e+001 -2.6683e+000 26858 107821,107795,108014
 2.0000e-001 108063  1.0186e+001  3.1142e+001 -1.9135e+000 26858 107821,108014,107873
 2.0000e-001 108112  1.0568e+001  3.0340e+001 -1.0494e+000 26858 107717,108014,108086
 2.0000e-001 108135  1.0540e+001  2.9435e+001 -8.9126e-001 26858 107717,108086,107743
 2.0000e-001 108184  9.8897e+000  2.9818e+001 -1.7466e+000 26858 107743,108086,108158
 2.0000e-001 108207  9.2589e+000  3.0592e+001 -1.8020e+000 26858 107743,108158,107769
 2.0000e-001 108634  1.1479e+001  2.7221e+001  6.7019e-001 26404 108657,108415,108363
 2.0000e-001 108611  1.2280e+001  2.8042e+001 -9.2354e-001 26404 108657,108363,108337
 2.0000e-001 108588  1.1163e+001  2.7097e+001 -5.7876e-001 26404 108729,108311,108467
 2.0000e-001 108565  1.2826e+001  3.0085e+001  7.6522e-001 26404 108801,108441,108415
 2.0000e-001 108542  1.1631e+001  2.8594e+001 -4.8134e+000 26404 108311,108493,108467
 2.0000e-001 108519  1.1196e+001  2.8312e+001  1.1341e+000 26404 108363,108415,108389
 2.0000e-001 108683  1.4365e+001  2.8274e+001  5.9076e-001 26404 108801,108415,108657
 2.0000e-001 108706  1.3077e+001  2.7772e+001 -1.9679e-001 26404 108729,108467,108657
 2.0000e-001 108755  9.8559e+000  2.8082e+001 -6.1924e-001 26404 108337,108311,108729
 2.0000e-001 108778  1.0847e+001  2.8093e+001 -2.4284e-001 26404 108337,108729,108657
 2.0000e-001 108827  1.4120e+001  3.4028e+001  1.7904e+000 26404 108467,108441,108801
 2.0000e-001 108850  1.4648e+001  3.0728e+001  1.7080e+000 26404 108467,108801,108657
 2.0000e-001 109228  3.6162e+000  2.4340e+001  1.1008e+000 26064 109006,109084,109058
 2.0000e-001 109205  7.0648e+000  2.4282e+001 -8.3525e-001 26064 108980,109084,109006
 2.0000e-001 109182  6.0605e+000  2.2024e+001  1.0388e+000 26064 108980,109110,109084
 2.0000e-001 109159  6.5633e+000  3.0813e+001 -3.0221e+000 26064 109006,109058,109032
 2.0000e-001 109136  3.1070e+000  1.5785e+001 -1.1026e+000 26064 108954,109110,108980
 2.0000e-001 109427  1.3536e+001  2.7900e+001  6.3278e+000 25660 109303,109355,109329
 2.0000e-001 109404  1.7142e+001  3.6418e+001  6.6102e+000 25660 109277,109355,109303
 2.0000e-001 109381  9.5622e+000  3.1272e+001  4.3527e+000 25660 109251,109355,109277
 2.0000e-001 109577  6.7077e+000  1.8127e+001 -7.3975e+000 25306 109476,109528,109502
 2.0000e-001 109554  1.6542e+000  1.9357e+001 -2.7486e+000 25306 109450,109528,109476
 2.0000e-001 109778  2.8628e+000  1.7077e+001 -1.2464e+000 24944 109628,109706,109654
 2.0000e-001 109755  4.5668e+000  2.2528e+001 -9.8992e-001 24944 109602,109706,109628
 2.0000e-001 109732  2.7000e+000  1.9314e+001  8.9023e-001 24944 109654,109706,109680
 2.0000e-001 110126  1.3907e+001  3.5191e+001 -1.8206e+000 24440 110149,109907,109855
 2.0000e-001 110103  1.5385e+001  3.5415e+001 -1.8254e+000 24440 110149,109855,109985
 2.0000e-001 110080  1.1727e+001  3.3883e+001 -3.0877e-001 24440 109855,109907,109881
 2.0000e-001 110057  1.2029e+001  2.9179e+001 -6.8343e+000 24440 109829,109985,109855
 2.0000e-001 110034  1.3740e+001  3.8297e+001  9.3898e-001 24440 109907,109959,109933
 2.0000e-001 110011  1.7722e+001  3.2940e+001 -9.9348e-001 24440 109803,109985,109829
 2.0000e-001 110175  1.4534e+001  3.4361e+001 -5.9723e-001 24440 109959,109907,110149
 2.0000e-001 110198  1.6799e+001  3.5061e+001 -6.7902e-001 24440 109959,110149,109985
 2.0000e-001 110301  6.3845e+000  3.4440e+001  1.8937e+000 24028 110223,110275,110249
 2.0000e-001 110573  3.1065e+000  3.6324e+001 -1.3353e+000 23467 110400,110452,110426
 2.0000e-001 110550 -4.5101e+000  2.0968e+001 -3.9073e+000 23467 110374,110452,110400
 2.0000e-001 110527  7.3179e+000  2.6059e+001 -2.9720e+000 23467 110348,110452,110374
 2.0000e-001 110504  2.6614e+000  2.2031e+001 -1.2422e+000 23467 110348,110478,110452
 2.0000e-001 111004  2.2259e+001  2.9200e+001  1.0080e+000 22963 111027,110733,110707
 2.0000e-001 110981  8.4472e+000  2.3078e+001 -6.6137e-002 22963 111027,110707,110681
 2.0000e-001 110958  4.5095e-001  2.0171e+001 -2.2965e+000 22963 111099,110759,110733
 2.0000e-001 110935  7.1855e+000  2.5452e+001  2.7040e+000 22963 111171,110863,110811
 2.0000e-001 110912 -3.5984e+000  2.2390e+001  6.7222e-001 22963 110759,110811,110785
 2.0000e-001 110889  9.3576e+000  2.8701e+001  1.4832e+000 22963 110811,110863,110837
 2.0000e-001 111053  6.6203e+000  2.1572e+001 -1.4893e+000 22963 111099,110733,111027
 2.0000e-001 111076  7.1219e+000  2.5163e+001  2.7798e+000 22963 111171,110811,111027
 2.0000e-001 111125  1.2689e+000  2.1734e+001  2.1067e+000 22963 110811,110759,111099
 2.0000e-001 111148  3.4422e+000  2.3377e+001  3.3262e+000 22963 110811,111099,111027
 2.0000e-001 111197  6.9224e+000  2.6423e+001  2.4036e+000 22963 110681,110863,111171
 2.0000e-001 111220  6.2375e+000  2.5730e+001  2.7269e+000 22963 110681,111171,111027
 2.0000e-001 111726  1.5800e+001  2.5570e+001 -9.4491e-001 22459 111749,111507,111429
 2.0000e-001 111703  1.2817e+001  2.4377e+001 -1.4861e-001 22459 111749,111429,111585
 2.0000e-001 111680  7.0889e+000  2.8509e+001 -1.3901e+000 22459 111403,111585,111429
 2.0000e-001 111657  1.4764e+001  2.9836e+001 -1.8827e+000 22459 111507,111559,111533
 2.0000e-001 111634  2.8034e+001  3.2852e+001  2.8220e-001 22459 111455,111507,111481
 2.0000e-001 111611  1.9037e+001  2.7997e+001 -2.2411e+000 22459 111429,111507,111455
 2.0000e-001 111775  1.4883e+001  2.6976e+001 -3.2459e+000 22459 111559,111507,111749
 2.0000e-001 111798  1.2478e+001  2.5422e+001 -2.3548e+000 22459 111559,111749,111585
 2.0000e-001 112046  1.1935e+001  2.9758e+001 -3.5648e+000 21898 112069,111925,111873
 2.0000e-001 112023  1.1109e+001  2.7108e+001 -1.4312e+000 21898 112069,111873,111847
 2.0000e-001 112000  6.8186e+000  2.8502e+001  1.1448e+000 21898 111821,111951,111847
 2.0000e-001 111977  7.9485e+000  2.6233e+001 -5.0517e+000 21898 111873,111925,111899
 2.0000e-001 112095  9.2618e+000  2.7976e+001 -1.6656e+000 21898 111951,111925,112069
 2.0000e-001 112118  9.8678e+000  2.6182e+001  2.8693e-001 21898 111951,112069,111847
 2.0000e-001 112498  6.6660e+000  1.6486e+001  5.6533e+000 21608 112521,112276,112224
 2.0000e-001 112475  2.9136e+000  1.9467e+001  2.2848e-001 21608 112521,112224,112380
 2.0000e-001 112452  3.4304e+000  7.0917e+000 -4.1581e+000 21608 112302,112380,112354
 2.0000e-001 112429  9.0830e+000  2.9027e+001  4.8011e+000 21608 112224,112276,112250
 2.0000e-001 112406  8.2957e+000  1.0798e+001 -2.4275e+000 21608 112302,112354,112328
 2.0000e-001 112547  3.2183e+000  5.0110e+000  5.6178e+000 21608 112302,112276,112521
 2.0000e-001 112570  2.9622e+000  1.4133e+001  1.0420e+000 21608 112302,112521,112380
 2.0000e-001 112948  6.7585e+000  2.5527e+001  4.2461e+000 20882 112971,112752,112700
 2.0000e-001 112925  7.6771e+000  2.5251e+001  2.5189e+000 20882 112971,112700,112830
 2.0000e-001 112902  2.1403e+001  1.9107e+001  3.9047e+000 20882 112778,112830,112804
 2.0000e-001 112879  4.2629e+000  1.8987e+001  1.2016e+000 20882 112674,112830,112700
 2.0000e-001 112856  9.8449e+000  3.3023e+001  2.5417e+000 20882 112700,112752,112726
 2.0000e-001 112997  6.1258e+000  2.4095e+001  4.5916e+000 20882 112778,112752,112971
 2.0000e-001 113020  6.8347e+000  2.3832e+001  2.9361e+000 20882 112778,112971,112830
 2.0000e-001 113526  1.1034e+001  2.9142e+001  1.4166e-001 20428 113255,113385,113333
 2.0000e-001 113503  1.2414e+001  3.2229e+001  5.0449e-001 20428 113229,113385,113255
 2.0000e-001 113480  4.0588e+000  2.9040e+001  2.3127e-001 20428 113255,113333,113281
 2.0000e-001 113457  9.7053e+000  3.2112e+001  6.0871e-001 20428 113203,113385,113229
 2.0000e-001 113434  1.0216e+001  3.1915e+001  2.3429e+000 20428 113281,113333,113307
 2.0000e-001 113411  1.5250e+001  2.8329e+001 -8.9760e-001 20428 113333,113385,113359
 2.0000e-001 113774  8.3302e+000  2.4034e+001 -2.1039e+000 19917 113797,113601,113549
 2.0000e-001 113751  8.6999e+000  2.2961e+001 -1.7323e+000 19917 113869,113797,113549
 2.0000e-001 113728  8.5720e+000  2.2775e+001 -1.3222e+000 19917 113869,113549,113679
 2.0000e-001 113705  8.5259e+000  2.4004e+001 -2.3567e+000 19917 113549,113601,113575
 2.0000e-001 113823  8.8994e+000  2.2277e+001 -1.6996e+000 19917 113627,113601,113797
 2.0000e-001 113846  1.1753e+001  2.4292e+001 -3.6718e+000 19917 113627,113797,113653
 2.0000e-001 113895  8.6223e+000  2.4650e+001 -3.0276e+000 19917 113653,113797,113869
 2.0000e-001 113918  6.9553e+000  2.3793e+001 -2.3891e+000 19917 113653,113869,113679
 2.0000e-001 114166  4.0708e+000  3.2165e+001  5.8134e-001 19413 113993,114045,114019
 2.0000e-001 114143  7.4839e-001  2.1643e+001 -2.9595e+000 19413 113967,114045,113993
 2.0000e-001 114120  7.0015e+000  2.3921e+001  2.6143e-001 19413 113967,114071,114045
 2.0000e-001 114097  6.0732e+000  1.2308e+001 -5.9039e+000 19413 113941,114071,113967
 2.0000e-001 114438  3.1154e+000  1.8265e+001 -6.9459e-001 19001 114213,114265,114239
 2.0000e-001 114415  3.8981e+000  1.8792e+001 -1.2748e+000 19001 114213,114343,114265
 2.0000e-001 114392  2.1764e+000  1.5128e+001 -1.8701e+000 19001 114265,114343,114317
 2.0000e-001 114369  1.9660e+001  2.0940e+001 -3.8022e+000 19001 114265,114317,114291
 2.0000e-001 114639  1.1009e+001  7.2941e+000  5.7754e+000 18554 114489,114541,114515
 2.0000e-001 114616 -7.0149e-001  1.6652e+001  4.8046e+000 18554 114489,114567,114541
 2.0000e-001 114593 -1.6474e+001  1.6586e+001  1.5941e+000 18554 114463,114567,114489
 2.0000e-001 115043  8.0149e+000  3.2291e+001 -9.4831e-001 18164 114795,114925,114821
 2.0000e-001 115020  8.1756e+000  3.8481e+001 -1.5675e+000 18164 114769,114925,114795
 2.0000e-001 114997  1.2637e+001  3.1632e+001 -8.5538e-002 18164 115066,114873,114821
 2.0000e-001 114974  9.0281e+000  3.0090e+001 -2.5865e+000 18164 115066,114821,114925
 2.0000e-001 114951  5.5190e+000  2.8771e+001 -3.7336e-001 18164 114821,114873,114847
 2.0000e-001 115092  1.6291e+001  3.0025e+001  1.5021e+000 18164 114899,114873,115066
 2.0000e-001 115115  1.3675e+001  2.8011e+001 -1.5602e+000 18164 114899,115066,114925
 2.0000e-001 115265  1.4398e+001  3.4599e+001 -1.2286e-001 17852 115164,115216,115190
 2.0000e-001 115242  1.3274e+001  3.4616e+001 -5.5265e-001 17852 115138,115216,115164
 2.0000e-001 115464  2.9031e+000  2.8889e+001 -4.4728e+000 17346 115288,115366,115340
 2.0000e-001 115441  2.7132e+001  2.8567e+001 -6.7685e+000 17346 115288,115392,115366
 2.0000e-001 115418  5.2034e+000  4.6135e+001  2.5265e+000 17346 115288,115340,115314
 2.0000e-001 115736  1.2896e+001  3.1841e+001  5.7758e-001 16942 115563,115641,115615
 2.0000e-001 115713  1.2156e+001  2.8711e+001  7.3528e-001 16942 115511,115641,115563
 2.0000e-001 115690  2.5454e+001  3.6041e+001 -1.4251e+000 16942 115563,115615,115589
 2.0000e-001 115667  1.4727e+001  3.4907e+001 -1.3341e-001 16942 115511,115563,115537
 2.0000e-001 116091  1.4592e+001  2.5754e+001  2.6060e-001 16388 115918,115970,115944
 2.0000e-001 116068  1.3996e+001  2.4539e+001  4.0976e-002 16388 115918,115996,115970
 2.0000e-001 116045  1.4580e+001  2.6173e+001 -2.6909e-001 16388 115892,115996,115918
 2.0000e-001 116022  1.9179e+001  3.4875e+001  1.6605e+000 16388 115866,115996,115892
 2.0000e-001 116192  4.8272e+000  3.7466e+001  6.9308e+000 15810 116114,116166,116140
 2.0000e-001 116342 -6.4990e+000  7.3888e-001 -4.8978e-002 15419 116241,116293,116267
 2.0000e-001 116319  1.4497e+000  6.7914e-001  3.5267e-001 15419 116215,116293,116241
 2.0000e-001 116445  3.2160e+001  3.7670e+001 -1.0437e+000 421 116367,116419,116393
 3.0000e-001 68477  2.9457e+001  4.1780e+001  2.8947e+000 68018 68327,68379,68353
 3.0000e-001 68454  3.4322e+001  5.0718e+001 -1.6756e-001 68018 68301,68379,68327
 3.0000e-001 68431  6.4929e+001  5.1433e+001  1.1960e+001 68018 68301,68405,68379
 3.0000e-001 68578  8.8882e+000  4.3276e+001 -3.4091e-001 67820 68500,68552,68526
 3.0000e-001 68728  8.8477e+000  4.3902e+001  2.3065e+000 67508 68601,68653,68627
 3.0000e-001 68705  2.5813e+001  2.5299e+001  9.6171e+000 67508 68601,68679,68653
 3.0000e-001 68927 -3.2492e+000  2.6928e+001  2.7000e+000 67310 68777,68829,68803
 3.0000e-001 68904  2.3963e+000  2.7031e+001  7.3387e-001 67310 68751,68829,68777
 3.0000e-001 68881  4.8801e+000  2.6080e+001  2.7838e+000 67310 68751,68855,68829
 3.0000e-001 69386  7.5756e+000  4.8969e+001 -9.1418e+000 67020 69216,69268,69242
 3.0000e-001 69363  1.8192e+001  4.2808e+001  4.7557e+000 67020 69138,69268,69216
 3.0000e-001 69340  1.5102e+001  6.0885e+001  1.9994e+001 67020 69112,69268,69138
 3.0000e-001 69317  2.7260e+001  4.0656e+001 -3.0287e+000 67020 69138,69190,69164
 3.0000e-001 69294  2.9514e+001  4.2655e+001  1.0862e-001 67020 69138,69216,69190
 3.0000e-001 69536 -4.7032e+001 -2.7619e+001  1.0123e+001 66708 69435,69487,69461
 3.0000e-001 69513 -3.8577e+001 -1.2162e+001  2.7198e+000 66708 69409,69487,69435
 3.0000e-001 69735  4.7062e+000  5.1385e+001 -1.4330e+000 66346 69585,69637,69611
 3.0000e-001 69712 -1.1688e+000  4.6805e+001  6.8965e-001 66346 69559,69637,69585
 3.0000e-001 69689 -4.3435e+000  4.4775e+001  6.7721e+000 66346 69559,69663,69637
 3.0000e-001 69985 -8.5441e+000  3.1570e+001  2.7428e+000 66148 69786,69890,69864
 3.0000e-001 69962  4.0665e+000  3.8053e+001  3.4539e-001 66148 69760,69890,69786
 3.0000e-001 69939 -2.0719e+001  3.8889e+001  1.9504e+001 66148 69786,69864,69838
 3.0000e-001 69916 -1.1634e+001  4.9534e+001  1.0362e+001 66148 69786,69838,69812
 3.0000e-001 70137  5.7842e-001  2.4920e+001  6.4414e-001 65950 70036,70088,70062
 3.0000e-001 70114 -8.3282e+000  2.4891e+001 -1.8313e+000 65950 70010,70088,70036
 3.0000e-001 70470 -2.1112e-001  2.0444e+001  1.7743e+000 65546 70245,70323,70271
 3.0000e-001 70447  1.2864e+000  2.1676e+001  3.7427e-001 65546 70245,70375,70323
 3.0000e-001 70424  4.5249e+000  2.5569e+001  1.9816e+000 65546 70323,70375,70349
 3.0000e-001 70401 -1.7242e+000  1.6949e+001  3.8725e+000 65546 70271,70323,70297
 3.0000e-001 70620 -9.4530e+000  4.0062e+001 -4.6573e+000 65348 70493,70545,70519
 3.0000e-001 70597 -6.9762e-002  5.4630e+001  2.7418e-001 65348 70493,70571,70545
 3.0000e-001 70721  1.6269e+001  2.8177e+001 -1.1564e-001 65150 70643,70695,70669
 3.0000e-001 71020  3.9282e+000  1.6947e+001 -1.5739e+000 64952 71043,70850,70824
 3.0000e-001 70997  1.8640e+000  1.3583e+001 -1.6226e-001 64952 71043,70824,70772
 3.0000e-001 70974  1.1689e+000  2.2427e+001 -1.5774e+000 64952 71115,70746,70876
 3.0000e-001 70951  2.2930e+000  2.4122e+001 -2.7560e-001 64952 70746,70902,70876
 3.0000e-001 70928  5.4374e+000  1.6404e+001 -1.4743e+000 64952 70772,70824,70798
 3.0000e-001 71069  4.4396e-001  1.5232e+001 -2.2531e+000 64952 70876,70850,71043
 3.0000e-001 71092  2.3878e+000  1.9939e+001 -1.0768e+000 64952 71115,70876,71043
 3.0000e-001 71141  1.4943e+000  1.9798e+001  2.2428e-001 64952 70772,70746,71115
 3.0000e-001 71164  1.3113e+000  1.5904e+001  1.0099e+000 64952 70772,71115,71043
 3.0000e-001 71365 -5.5855e+000  2.2806e+001  1.2042e+000 64662 71215,71293,71267
 3.0000e-001 71342 -1.2021e+001  1.3508e+001  4.7054e+000 64662 71189,71293,71215
 3.0000e-001 71319 -1.0264e+001  8.4816e+000  1.8282e+000 64662 71215,71267,71241
 3.0000e-001 71615  2.7257e+001  4.9300e+001 -1.2780e+000 64350 71710,71638,71468
 3.0000e-001 71592  2.4718e+001  4.6259e+001  3.6779e-001 64350 71638,71416,71390
 3.0000e-001 71569  2.9198e+001  4.5144e+001 -4.9434e+000 64350 71710,71468,71442
 3.0000e-001 71546  6.9951e+001  5.0441e+001 -2.1998e+001 64350 71390,71520,71494
 3.0000e-001 71664  2.6262e+001  4.8339e+001  5.4159e-001 64350 71494,71468,71638
 3.0000e-001 71687  2.4728e+001  4.7173e+001 -2.3860e-001 64350 71494,71638,71390
 3.0000e-001 71736  2.3709e+001  4.0665e+001 -6.1384e-001 64350 71416,71638,71710
 3.0000e-001 71759  2.5919e+001  3.7353e+001 -5.1089e+000 64350 71416,71710,71442
 3.0000e-001 72318  1.0018e+001  1.3564e+001  9.7837e+000 63837 71972,72024,71998
 3.0000e-001 72295 -1.1025e+001  1.3263e+001  9.6850e+000 63837 72341,71972,71946
 3.0000e-001 72272 -6.1698e+000  1.8364e+001  5.7899e+000 63837 72413,72341,71946
 3.0000e-001 72249 -1.0823e+001  2.2576e+001  5.1848e+000 63837 72413,71946,72128
 3.0000e-001 72226 -2.3733e-001  1.0112e+001 -1.4182e+000 63837 72024,72076,72050
 3.0000e-001 72203 -1.0829e+000  5.2335e+000  1.6231e+000 63837 72024,72102,72076
 3.0000e-001 72180 -8.4970e+000  2.4111e+001  2.6396e+000 63837 71946,72154,72128
 3.0000e-001 72367 -3.0484e+000  1.6745e+001  1.0172e+001 63837 72024,71972,72341
 3.0000e-001 72390 -6.5423e+000  1.1284e+001  5.4503e+000 63837 72024,72341,72102
 3.0000e-001 72439 -1.0280e+001  1.1843e+001  3.4642e+000 63837 72102,72341,72413
 3.0000e-001 72462 -1.3317e+001  1.7509e+001  3.5949e+000 63837 72102,72413,72128
 3.0000e-001 72791  1.8140e+000  2.3104e+001  5.8166e+000 63383 72592,72696,72670
 3.0000e-001 72768  1.0866e+001  4.1539e+001  9.1111e+000 63383 72566,72696,72592
 3.0000e-001 72745  8.6543e+000  2.4231e+001  5.1460e+000 63383 72592,72670,72618
 3.0000e-001 72722  8.5233e+000  2.0299e+001  7.8171e+000 63383 72618,72670,72644
 3.0000e-001 73297 -5.8624e+000  8.6364e+000 -1.8967e+000 63185 73000,73156,73130
 3.0000e-001 73274  1.9454e+000  2.7540e+001 -4.7292e+000 63185 72974,73156,73000
 3.0000e-001 73251 -3.9695e+000  1.4088e+001 -6.1866e-001 63185 73000,73052,73026
 3.0000e-001 73228  9.8978e-001  1.2257e+001 -5.3091e-001 63185 73000,73130,73052
 3.0000e-001 73205  1.2941e+000  1.8031e+001  3.8197e+000 63185 73052,73130,73104
 3.0000e-001 73182  2.3464e+000  1.8873e+001  4.2108e+000 63185 73052,73104,73078
 3.0000e-001 73545  2.2780e+000  3.7271e+001 -4.7517e+000 62781 73568,73398,73372
 3.0000e-001 73522 -2.2703e+000  2.4382e+001 -5.3472e+000 62781 73568,73372,73346
 3.0000e-001 73499  5.5123e+000  2.6841e+001  1.0920e+000 62781 73640,73320,73424
 3.0000e-001 73476 -1.1065e+000  1.9431e+001  3.9362e+000 62781 73320,73450,73424
 3.0000e-001 73594 -2.9640e+000  2.6124e+001 -1.5426e+000 62781 73424,73398,73568
 3.0000e-001 73617  3.3472e+000  2.5455e+001 -4.2923e-001 62781 73640,73424,73568
 3.0000e-001 73666  4.4416e+000  2.4743e+001 -1.2886e+000 62781 73346,73320,73640
 3.0000e-001 73689  3.2172e+000  2.3105e+001 -2.6836e+000 62781 73346,73640,73568
 3.0000e-001 74035  1.1512e+001  4.3637e+001  4.2974e-001 62363 74058,73868,73842
 3.0000e-001 74012  1.0680e+001  3.8776e+001  4.3220e+000 62363 74130,74058,73842
 3.0000e-001 73989  9.9198e+000  3.8466e+001  4.2995e+000 62363 74130,73842,73816
 3.0000e-001 73966  1.7605e+001  4.9243e+001 -4.9962e-001 62363 74202,73764,73894
 3.0000e-001 73943  2.0323e+001  4.1459e+001 -2.0923e+000 62363 73712,73894,73764
 3.0000e-001 73920  2.6607e+001  4.7090e+001  1.4053e+000 62363 73712,73764,73738
 3.0000e-001 74084  1.0442e+001  4.1532e+001 -9.2143e-002 62363 73894,73868,74058
 3.0000e-001 74107  1.4615e+001  4.4993e+001 -2.4014e+000 62363 74202,73894,74058
 3.0000e-001 74156  1.1743e+001  3.9024e+001  1.0600e+000 62363 73790,74058,74130
 3.0000e-001 74179  7.4700e+000  3.7195e+001  6.9202e-001 62363 73790,74130,73816
 3.0000e-001 74228  2.0405e+001  5.0534e+001  5.4385e+000 62363 73790,73764,74202
 3.0000e-001 74251  1.7863e+001  4.5822e+001  3.6209e+000 62363 73790,74202,74058
 3.0000e-001 74403 -2.6140e+001  4.1490e+001 -4.2196e+000 62115 74426,74302,74276
 3.0000e-001 74380 -3.0024e+001  4.2791e+001 -5.7545e+000 62115 74426,74276,74354
 3.0000e-001 74452 -2.3070e+001  4.1310e+001 -4.5967e+000 62115 74328,74302,74426
 3.0000e-001 74475 -2.6502e+001  4.2930e+001 -6.2868e+000 62115 74328,74426,74354
 3.0000e-001 74578 -1.0865e+000  2.6748e+001  1.2885e+000 61825 74500,74552,74526
 3.0000e-001 74982  5.1594e+000  3.2352e+001  1.3860e+000 61513 75005,74734,74708
 3.0000e-001 74959  8.0172e+000  3.4903e+001  3.1486e-001 61513 75005,74708,74864
 3.0000e-001 74936  1.7934e+001  3.7099e+001  1.9024e-001 61513 75077,74812,74734
 3.0000e-001 74913  1.4279e-001  2.7202e+001  5.0475e+000 61513 74734,74786,74760
 3.0000e-001 74890  4.7683e-001  2.7205e+001  4.2393e+000 61513 74734,74812,74786
 3.0000e-001 75031  6.4191e+000  3.5167e+001  2.1179e+000 61513 75077,74734,75005
 3.0000e-001 75054 -3.1922e+000  2.9282e+001 -9.9340e+000 61513 74838,75005,74864
 3.0000e-001 75103  2.3388e+001  3.6192e+001 -1.1221e+001 61513 74838,74812,75077
 3.0000e-001 75126  1.6232e+001  3.6986e+001 -9.1383e+000 61513 74838,75077,75005
 3.0000e-001 75553 -3.5831e-002  1.2549e+001 -4.1983e+000 61060 75576,75360,75308
 3.0000e-001 75530  8.3499e-001  1.7032e+001 -3.7561e+000 61060 75576,75308,75230
 3.0000e-001 75507  1.0178e+000  4.3152e+000 -1.4416e+001 61060 75308,75360,75334
 3.0000e-001 75484 -3.5112e+000  1.0843e+001  3.2260e+000 61060 75230,75308,75256
 3.0000e-001 75461  2.0267e+001  1.3058e+001  4.2706e+000 61060 75256,75308,75282
 3.0000e-001 75438  4.2073e+000  1.7707e+001 -1.5033e+001 61060 75360,75412,75386
 3.0000e-001 75602 -5.1539e+000  1.6541e+001 -7.1800e+000 61060 75412,75360,75576
 3.0000e-001 75625 -1.4888e+000  2.5084e+001 -5.6067e+000 61060 75412,75576,75230
 3.0000e-001 76052  2.7115e+001  1.8237e+001 -2.3059e+000 60442 75755,75859,75833
 3.0000e-001 76029  1.7213e+001  1.3918e+001 -1.3589e+000 60442 75729,75859,75755
 3.0000e-001 76006  2.4395e+001  2.4225e+001  2.9050e+000 60442 75755,75833,75807
 3.0000e-001 75983  2.2082e+001  7.3732e+000 -8.0161e-001 60442 75755,75807,75781
 3.0000e-001 75960  2.8088e+001  1.3453e+001 -2.9066e+000 60442 75729,75911,75859
 3.0000e-001 75937  2.1825e+001  2.4792e+000 -6.0544e+000 60442 75859,75911,75885
 3.0000e-001 76430  1.1521e+001  2.6853e+001 -8.3753e-001 59788 76453,76286,76234
 3.0000e-001 76407  1.3999e+001  3.1140e+001  7.8381e-001 59788 76453,76234,76182
 3.0000e-001 76384  1.1362e+001  2.7324e+001 -2.3634e+000 59788 76525,76156,76312
 3.0000e-001 76361  1.0485e+001  3.8438e+001  9.3959e-001 59788 76182,76234,76208
 3.0000e-001 76338  1.8469e+001  2.8982e+001 -2.5964e-001 59788 76234,76286,76260
 3.0000e-001 76479  9.5944e+000  2.8949e+001 -2.9447e+000 59788 76312,76286,76453
 3.0000e-001 76502  1.1071e+001  2.9221e+001 -1.8188e+000 59788 76525,76312,76453
 3.0000e-001 76551  1.2101e+001  2.9735e+001 -2.4257e+000 59788 76182,76156,76525
 3.0000e-001 76574  1.1658e+001  3.0316e+001 -2.0398e+000 59788 76182,76525,76453
 3.0000e-001 77031  4.5584e+000  2.1062e+001  5.3744e+000 59448 76835,76887,76861
 3.0000e-001 77008 -1.2722e+000  1.3497e+001  2.2273e+000 59448 76835,76913,76887
 3.0000e-001 76985  2.2177e+000  1.5280e+001 -5.4235e-001 59448 76809,76913,76835
 3.0000e-001 76962  7.6505e+000  2.0478e+001  2.6407e+000 59448 76757,76913,76809
 3.0000e-001 76939  3.7807e+000  1.4608e+001  4.3592e+000 59448 76757,76809,76783
 3.0000e-001 77537  3.5182e+000  4.2175e+001  1.2384e+000 58994 77560,77344,77292
 3.0000e-001 77514  1.0586e+001  3.3076e+001  8.9876e-001 58994 77560,77292,77240
 3.0000e-001 77491  1.2107e+000  2.6881e+001  5.1691e+000 58994 77632,77214,77370
 3.0000e-001 77468  8.1412e+000  4.4806e+001 -6.3619e+000 58994 77292,77344,77318
 3.0000e-001 77445  1.5884e+000  9.6467e+000  9.4938e+000 58994 77214,77396,77370
 3.0000e-001 77422  1.7304e+001  4.8096e+001 -4.2461e-001 58994 77240,77292,77266
 3.0000e-001 77586  6.2363e+000  3.5012e+001  2.4939e+000 58994 77370,77344,77560
 3.0000e-001 77609  7.0248e+000  3.0296e+001  3.7231e-001 58994 77632,77370,77560
 3.0000e-001 77658 -2.0046e+000  2.3309e+001  1.0639e+001 58994 77240,77214,77632
 3.0000e-001 77681  2.4112e+000  2.2848e+001  6.3147e+000 58994 77240,77632,77560
 3.0000e-001 78138 -2.3139e+000  6.4379e+000  5.9262e+000 58440 77864,77994,77890
 3.0000e-001 78115  4.2541e+000  1.0942e+001  3.9243e+000 58440 77864,78020,77994
 3.0000e-001 78092 -1.6716e+000  5.9258e+000  9.2739e+000 58440 77942,77994,77968
 3.0000e-001 78069 -6.7249e+000  3.3403e+000  4.3910e+000 58440 77890,77994,77942
 3.0000e-001 78046 -1.9077e+001  3.7783e+000  1.3082e+001 58440 77890,77942,77916
 3.0000e-001 78467  1.2368e+001  4.1957e+001 -1.0610e+000 57928 78562,78490,78346
 3.0000e-001 78444  1.5084e+001  4.0833e+001  6.2951e+000 57928 78490,78294,78268
 3.0000e-001 78421  1.5705e+001  3.4126e+001  2.5010e+000 57928 78562,78346,78320
 3.0000e-001 78398  1.1313e+001  4.7573e+001  9.4340e+000 57928 78242,78372,78268
 3.0000e-001 78516  1.4316e+001  5.5043e+001  3.8895e+000 57928 78372,78346,78490
 3.0000e-001 78539  5.8007e+000  3.7308e+001  6.4048e+000 57928 78372,78490,78268
 3.0000e-001 78588  1.1526e+001  3.1279e+001  4.9132e+000 57928 78294,78490,78562
 3.0000e-001 78611  1.1365e+001  1.5562e+001  6.4083e+000 57928 78294,78562,78320
 3.0000e-001 79068  1.3232e+001  3.1471e+001  7.5215e+000 57467 78794,78924,78820
 3.0000e-001 79045  9.0110e+000  2.9944e+001  8.3720e+000 57467 78794,78950,78924
 3.0000e-001 79022 -1.8094e+000  2.3726e+001 -1.6648e+000 57467 78820,78898,78872
 3.0000e-001 78999  1.1664e+001  3.7173e+001  5.5620e+000 57467 78820,78924,78898
 3.0000e-001 78976  4.5662e+000  2.6776e+001 -2.5552e+000 57467 78820,78872,78846
 3.0000e-001 79446  1.4695e+001  1.6146e+001 -3.2125e+000 57120 79172,79302,79250
 3.0000e-001 79423  1.3383e+001  1.6043e+001 -1.1879e+001 57120 79172,79328,79302
 3.0000e-001 79400  8.8873e+000  1.9617e+001 -2.6274e+000 57120 79172,79250,79198
 3.0000e-001 79377  2.3440e+001  1.2856e+001 -9.1796e-002 57120 79250,79302,79276
 3.0000e-001 79354  2.6371e+001  2.6073e+001 -1.5082e+000 57120 79198,79250,79224
 3.0000e-001 79952  7.0383e+000  1.9551e+001 -3.5568e+000 56773 79629,79785,79655
 3.0000e-001 79929 -2.1241e+000  1.7573e+001 -5.5623e+000 56773 79629,79811,79785
 3.0000e-001 79906  6.9165e+000  2.2872e+001 -4.4946e+000 56773 79655,79733,79681
 3.0000e-001 79883  6.2191e+000  2.0152e+001 -3.2680e+000 56773 79655,79785,79733
 3.0000e-001 79860  4.2711e+000  2.6382e+001  1.8157e+000 56773 79733,79785,79759
 3.0000e-001 79837  1.7258e+000  2.0211e+001 -1.0651e+001 56773 79681,79733,79707
 3.0000e-001 80281  2.9796e+001  5.6646e+000  1.4174e+001 56319 80108,80160,80134
 3.0000e-001 80258  1.6388e+001  9.3694e+000  1.1184e+001 56319 80056,80160,80108
 3.0000e-001 80235  1.8221e+001  9.1630e+000  7.7903e+000 56319 80056,80186,80160
 3.0000e-001 80212  1.6207e+001  3.5703e+000  1.0605e+001 56319 80056,80108,80082
 3.0000e-001 80738 -5.2289e+000  1.9884e+001 -4.7134e+000 55957 80516,80620,80594
 3.0000e-001 80715 -1.8767e+000  1.7567e+001 -4.7407e+000 55957 80464,80620,80516
 3.0000e-001 80692 -2.0811e+000  1.7967e+001 -2.8410e+000 55957 80761,80568,80542
 3.0000e-001 80669 -3.4854e+000  1.9826e+001 -2.3683e+000 55957 80761,80542,80516
 3.0000e-001 80646 -3.0509e+000  1.4763e+001 -6.8146e+000 55957 80464,80516,80490
 3.0000e-001 80787 -1.8651e+000  1.9274e+001 -3.7954e+000 55957 80594,80568,80761
 3.0000e-001 80810 -3.0639e+000  2.1301e+001 -3.4062e+000 55957 80594,80761,80516
 3.0000e-001 81210  1.4315e+000  2.0906e+001  6.9036e+000 55317 80936,80988,80962
 3.0000e-001 81187 -6.6280e+000  1.2335e+001  6.2522e-001 55317 80936,81066,80988
 3.0000e-001 81164 -6.1232e+000  1.4125e+001 -2.6669e-002 55317 80936,81092,81066
 3.0000e-001 81141  4.7057e-001  1.5538e+001  1.3749e+000 55317 80988,81066,81014
 3.0000e-001 81118 -1.2656e+001  6.6947e+000 -2.8010e+000 55317 81014,81066,81040
 3.0000e-001 81539  7.5405e+000  1.9669e+001  4.3889e+000 54913 81340,81418,81392
 3.0000e-001 81516  2.1155e+000  1.2878e+001  6.9405e+000 54913 81340,81444,81418
 3.0000e-001 81493  9.0315e+000  1.6390e+001  8.8646e+000 54913 81314,81444,81340
 3.0000e-001 81470  1.9136e+001  1.0897e+001  6.9631e+000 54913 81340,81392,81366
 3.0000e-001 81787  1.0630e+001  1.8196e+001  5.8220e+000 54601 81588,81692,81640
 3.0000e-001 81764  2.1430e+001  2.1962e+001  8.7000e+000 54601 81562,81692,81588
 3.0000e-001 81741  1.7979e+001  2.0505e+001  8.7823e+000 54601 81588,81640,81614
 3.0000e-001 81718  1.3978e+001  3.7754e+001  1.2031e+001 54601 81640,81692,81666
 3.0000e-001 82344  3.6305e+000  3.0888e+001  4.2040e+000 54090 81998,82102,82076
 3.0000e-001 82321  8.8178e+000  3.3288e+001  9.7846e-001 54090 81998,82154,82102
 3.0000e-001 82298  3.5943e+000  2.8666e+001 -9.6763e-001 54090 81972,82154,81998
 3.0000e-001 82275  8.3620e+000  2.4313e+001  5.9270e+000 54090 81998,82076,82024
 3.0000e-001 82252  6.7220e+000  3.6997e+001 -1.9144e+001 54090 81972,82180,82154
 3.0000e-001 82229  1.5848e+001  3.8359e+001 -3.5840e+000 54090 82102,82154,82128
 3.0000e-001 82206 -5.8705e+000  1.6818e+001  8.7556e+000 54090 82024,82076,82050
 3.0000e-001 82722  1.5365e+001  2.2629e+001  2.0864e+000 53579 82500,82578,82552
 3.0000e-001 82699  1.5504e+001  2.6439e+001  2.3101e+000 53579 82448,82578,82500
 3.0000e-001 82676  7.4955e+000  1.8741e+001  6.8644e+000 53579 82448,82500,82474
 3.0000e-001 82653  1.3422e+001  2.6936e+001 -3.2915e+000 53579 82448,82604,82578
 3.0000e-001 82630  1.1760e+001  1.9678e+001  5.3305e-001 53579 82500,82552,82526
 3.0000e-001 83356  8.0555e+000  1.5009e+001  2.6589e+000 53189 83379,83088,83036
 3.0000e-001 83333  5.6446e+000  1.8392e+001  1.3958e+000 53189 83379,83036,82984
 3.0000e-001 83310  1.7478e+000  1.4760e+001 -7.7060e+000 53189 82984,83192,83166
 3.0000e-001 83287  1.0677e+001  1.5893e+001  2.4119e+000 53189 83036,83088,83062
 3.0000e-001 83264  5.9566e+000  2.7599e+001  2.9402e+000 53189 82984,83036,83010
 3.0000e-001 83241  1.7584e+001  1.2768e+001  1.5543e-001 53189 83114,83166,83140
 3.0000e-001 83218  1.2611e+001  1.3611e+001 -1.6937e+000 53189 83088,83166,83114
 3.0000e-001 83405  1.0544e+001  1.7113e+001  1.6604e+000 53189 83166,83088,83379
 3.0000e-001 83428  7.0828e+000  1.9790e+001  7.1232e-001 53189 83166,83379,82984
 3.0000e-001 83725  3.0967e+001  2.8719e+001  2.0299e+001 52585 83748,83529,83503
 3.0000e-001 83702  2.2825e+001  2.7690e+001  1.1531e+001 52585 83820,83748,83503
 3.0000e-001 83679  2.0369e+001  2.3712e+001  9.7853e+000 52585 83820,83503,83477
 3.0000e-001 83656  1.8365e+001  1.7139e+001  3.8340e+000 52585 83477,83607,83581
 3.0000e-001 83633  1.4804e+001  1.6012e+001  4.8711e+000 52585 83451,83607,83477
 3.0000e-001 83774  2.2391e+001  7.8417e+000  1.9110e+001 52585 83555,83529,83748
 3.0000e-001 83797  2.8381e+001  2.4450e+001  1.1675e+001 52585 83555,83748,83581
 3.0000e-001 83846  2.5151e+001  2.1229e+001  9.9811e+000 52585 83581,83748,83820
 3.0000e-001 83869  2.4277e+001  1.8637e+001  8.7024e+000 52585 83581,83820,83477
 3.0000e-001 84200  7.0816e-002  2.0371e+001  3.9377e+000 52024 84001,84105,84079
 3.0000e-001 84177  1.5860e+000  2.0956e+001  3.9619e+000 52024 83975,84105,84001
 3.0000e-001 84154  3.9409e+000  2.5464e+001  1.0921e+000 52024 84001,84079,84053
 3.0000e-001 84131  1.0246e-001  1.6871e+001  2.8015e+000 52024 84001,84053,84027
 3.0000e-001 84399  5.3131e+000 -3.2204e+000  2.7567e+000 51470 84422,84275,84249
 3.0000e-001 84376  6.6380e+000  2.5828e+000  3.9241e+000 51470 84422,84249,84223
 3.0000e-001 84353  3.7958e+000  1.3027e+000  2.3924e-001 51470 84275,84327,84301
 3.0000e-001 84448  3.6822e+000  1.8216e+000  2.2478e+000 51470 84327,84275,84422
 3.0000e-001 84471  4.1451e+000  6.4716e+000  3.4221e+000 51470 84327,84422,84223
 3.0000e-001 84753  8.9594e+000  2.4499e+001  2.0975e+000 51073 84603,84655,84629
 3.0000e-001 84730  1.3899e+001  2.5728e+001  1.6641e+000 51073 84776,84655,84603
 3.0000e-001 84707  6.1300e+000  1.9564e+001  3.2964e+000 51073 84577,84681,84655
 3.0000e-001 84802  3.1422e+000  1.9751e+001  4.8326e+000 51073 84577,84655,84776
 3.0000e-001 85178  6.8308e+000  1.8188e+001  5.2970e-001 50519 85201,85008,84982
 3.0000e-001 85155  7.4448e+000  2.0672e+001 -1.2747e+000 50519 85273,85201,84982
 3.0000e-001 85132  6.4413e+000  2.0791e+001 -6.1851e-001 50519 85273,84982,84930
 3.0000e-001 85109  4.7471e-001  2.4969e+001 -8.0350e-002 50519 84930,84982,84956
 3.0000e-001 85086  1.4313e+001  2.2279e+001 -6.2533e+000 50519 85008,85060,85034
 3.0000e-001 85227  9.0516e+000  1.9966e+001 -2.0691e+000 50519 85060,85008,85201
 3.0000e-001 85250  6.7594e+000  2.4497e+001 -2.0220e+000 50519 85060,85201,84904
 3.0000e-001 85299  6.2151e+000  2.0740e+001 -1.5109e-001 50519 84904,85201,85273
 3.0000e-001 85322  3.2855e+000  1.7908e+001  1.2150e+000 50519 84904,85273,84930
 3.0000e-001 85958  5.3493e+000  2.9555e+001  3.4221e-001 50093 85981,85768,85716
 3.0000e-001 85935  2.6361e+000  2.3466e+001 -1.5684e-001 50093 85981,85716,85612
 3.0000e-001 85912  8.6884e+000  2.2322e+001 -2.8990e+000 50093 85612,85716,85664
 3.0000e-001 85889 -7.7022e-001  3.1679e+001 -7.2999e-001 50093 85716,85768,85742
 3.0000e-001 85866  9.2388e+000  2.6184e+001 -7.1841e+000 50093 85664,85716,85690
 3.0000e-001 85843  4.2320e+000  1.7761e+001  6.5660e+000 50093 85586,85794,85612
 3.0000e-001 85820  1.4563e+001  1.1530e+001  9.6737e-001 50093 85612,85664,85638
 3.0000e-001 86007  1.1343e+001  3.5259e+001  9.1798e+000 50093 85794,85768,85981
 3.0000e-001 86030  2.7338e+000  1.7097e+001  6.4416e+000 50093 85794,85981,85612
 3.0000e-001 86131 -1.0387e+001  3.5581e+001 -1.0939e+001 49895 86053,86105,86079
 3.0000e-001 86639 -7.1629e+000  8.0287e-001  5.5751e+000 49391 86662,86394,86368
 3.0000e-001 86616 -8.5622e+000  8.4954e+000  1.9215e-001 49391 86662,86368,86342
 3.0000e-001 86593 -2.3698e+000  8.3946e+000 -3.8705e+000 49391 86342,86498,86472
 3.0000e-001 86570 -4.5665e+000  1.3392e+001 -3.1941e+000 49391 86316,86498,86342
 3.0000e-001 86547  4.4556e+000  6.1941e+000  8.9780e-001 49391 86394,86472,86446
 3.0000e-001 86524  8.8151e+000  4.9347e+000  9.9108e-001 49391 86394,86446,86420
 3.0000e-001 86688  5.1495e+000  7.5870e+000  2.6767e+000 49391 86472,86394,86662
 3.0000e-001 86711 -4.4887e+000  9.9704e+000 -6.2103e-002 49391 86472,86662,86342
 3.0000e-001 87089  1.9252e+001  1.8018e+001 -5.4880e+000 48987 86815,86919,86867
 3.0000e-001 87066  9.1324e+000  5.8121e+000  1.4837e-001 48987 86815,86971,86919
 3.0000e-001 87043  3.5608e+000  1.7200e+001 -2.9133e+000 48987 86867,86919,86893
 3.0000e-001 87020  1.2362e+001  5.7883e-001 -1.2670e+000 48987 86815,86867,86841
 3.0000e-001 86997  1.5521e+001  1.7452e+001 -2.3939e+000 48987 86919,86971,86945
 3.0000e-001 87467  2.8673e+001  2.8291e+001 -1.1475e+001 48540 87490,87245,87219
 3.0000e-001 87444  4.4180e+000  1.9705e+001 -5.6383e+000 48540 87562,87490,87219
 3.0000e-001 87421  1.2402e+001  2.2680e+001 -1.3577e-001 48540 87562,87219,87349
 3.0000e-001 87398 -1.7326e+001  3.5524e+001 -1.5252e+001 48540 87245,87297,87271
 3.0000e-001 87375  1.8400e+001  1.8363e+001 -1.1975e+000 48540 87193,87349,87219
 3.0000e-001 87516  4.8754e+000  2.0644e+001 -1.0112e+001 48540 87297,87245,87490
 3.0000e-001 87539 -9.9393e-001  2.5030e+001  5.3684e-001 48540 87297,87490,87323
 3.0000e-001 87588  1.2897e+001  2.9592e+001 -1.1643e+000 48540 87323,87490,87562
 3.0000e-001 87611  1.5978e+001  2.5349e+001  2.9065e+000 48540 87323,87562,87349
 3.0000e-001 87810  5.8073e+000  5.2824e+001 -8.8507e-001 48136 87660,87712,87686
 3.0000e-001 87787 -6.9751e+000  2.3896e+001  1.8141e+000 48136 87660,87738,87712
 3.0000e-001 87764  4.1649e+000  2.0342e+001  1.1030e+001 48136 87634,87738,87660
 3.0000e-001 88205  1.8341e+001  2.3575e+001  3.4972e-001 47210 88300,88228,87937
 3.0000e-001 88182  2.1193e+001  3.8200e+001  9.1564e+000 47210 88228,87833,88041
 3.0000e-001 88159  1.6702e+001  1.4045e+001 -4.6792e+000 47210 88300,87937,87911
 3.0000e-001 88136  3.0806e+001  1.9875e+001  8.8365e+000 47210 87833,87911,87859
 3.0000e-001 88113  9.9378e+000  3.4079e+001 -3.5112e+000 47210 87937,87989,87963
 3.0000e-001 88090  1.6026e+001  5.4697e+001 -3.5571e+000 47210 87989,88041,88015
 3.0000e-001 88067  2.2945e+001 -8.5504e-001  1.0269e+000 47210 87859,87911,87885
 3.0000e-001 88254  2.2801e+001  4.1972e+001 -1.6587e-001 47210 87989,87937,88228
 3.0000e-001 88277  6.4444e+000  3.0410e+001  4.8790e+000 47210 87989,88228,88041
 3.0000e-001 88326  2.4099e+001  3.1357e+001  7.7564e+000 47210 87833,88228,88300
 3.0000e-001 88349  2.1940e+001  2.5566e+001  2.1133e+000 47210 87833,88300,87911
 3.0000e-001 88780  1.8544e+001  3.1393e+001  1.4091e+001 46642 88803,88509,88483
 3.0000e-001 88757  9.9016e+000  2.4302e+001  4.9183e+000 46642 88803,88483,88639
 3.0000e-001 88734  1.2011e+001  1.8037e+001  8.3247e+000 46642 88875,88561,88509
 3.0000e-001 88711  5.8240e+000  1.5737e+001  8.5502e+000 46642 88509,88561,88535
 3.0000e-001 88688  2.9421e+000  2.4743e+001  5.0617e-001 46642 88457,88639,88483
 3.0000e-001 88665  1.4796e+001  2.0160e+001  1.2857e+000 46642 88561,88613,88587
 3.0000e-001 88829  1.0557e+001  2.0114e+001  8.4787e+000 46642 88875,88509,88803
 3.0000e-001 88852  1.0518e+001  1.6344e+001  1.7571e+000 46642 88613,88803,88639
 3.0000e-001 88901  1.1498e+001  2.0580e+001  6.9030e+000 46642 88613,88561,88875
 3.0000e-001 88924  1.1393e+001  2.4084e+001  6.7404e+000 46642 88613,88875,88803
 3.0000e-001 89253 -6.2245e+000  1.6851e+000 -1.4466e+000 46444 89080,89158,89132
 3.0000e-001 89230 -1.1212e+000  1.1662e+001  3.0776e+000 46444 89028,89158,89080
 3.0000e-001 89207 -1.1504e+000 -4.1306e+000  7.9540e+000 46444 89028,89080,89054
 3.0000e-001 89184  1.2117e+000  3.8954e+000 -1.5554e+000 46444 89080,89132,89106
 3.0000e-001 89631  1.5633e+001  4.7422e+001 -3.7330e+000 46040 89383,89461,89435
 3.0000e-001 89608  1.0214e+001  3.4005e+001 -4.8735e+000 46040 89383,89487,89461
 3.0000e-001 89585  1.1814e+001  5.0879e+001 -3.9658e+000 46040 89383,89435,89409
 3.0000e-001 89562  1.6460e+001  3.3620e+001 -4.8102e+000 46040 89383,89513,89487
 3.0000e-001 89539  1.6523e+001  3.5409e+001 -9.8650e+000 46040 89357,89513,89383
 3.0000e-001 90009 -1.6213e+000  3.2746e+001 -1.3137e+000 45636 89813,89891,89839
 3.0000e-001 89986  1.0557e+000  3.3212e+001 -5.3462e+000 45636 89787,89891,89813
 3.0000e-001 89963 -1.4119e+000  3.0450e+001 -6.9359e-001 45636 89839,89891,89865
 3.0000e-001 89940  3.3717e+000  3.1116e+001 -4.0271e+000 45636 89735,89891,89787
 3.0000e-001 89917  6.1006e+000  3.5663e+001 -5.1909e+000 45636 89735,89787,89761
 3.0000e-001 90208  1.9999e+000  2.3133e+001 -1.1752e+000 45175 90231,90058,90032
 3.0000e-001 90185  8.5275e+000  2.3891e+001  3.9476e+000 45175 90231,90032,90136
 3.0000e-001 90162 -1.6243e+001  3.3436e+001 -1.6913e+000 45175 90058,90110,90084
 3.0000e-001 90257  3.7944e-001  2.7649e+001  5.0677e+000 45175 90110,90058,90231
 3.0000e-001 90280  1.0774e+001  2.9004e+001  1.0175e+001 45175 90110,90231,90136
 3.0000e-001 90528  3.0325e+000  3.0094e+001  2.8590e+000 44513 90695,90551,90407
 3.0000e-001 90505  9.8513e+000  3.5113e+001  6.8675e+000 44513 90551,90355,90329
 3.0000e-001 90482  5.6559e+000  2.4536e+001  4.0954e-001 44513 90623,90303,90433
 3.0000e-001 90459  8.5707e+000  2.2278e+001 -3.8978e+000 44513 90695,90407,90381
 3.0000e-001 90577  7.8302e+000  3.1928e+001  4.1064e+000 44513 90433,90407,90551
 3.0000e-001 90600  5.7989e+000  2.8996e+001  9.3698e-001 44513 90623,90433,90551
 3.0000e-001 90649  7.8696e+000  2.9680e+001  2.4354e-001 44513 90329,90303,90623
 3.0000e-001 90672  6.3993e+000  3.1092e+001  5.4816e-001 44513 90329,90623,90551
 3.0000e-001 90721  2.9418e+000  1.6720e+001  6.8052e+000 44513 90355,90551,90695
 3.0000e-001 90744  7.8046e+000  8.4370e+000  3.4688e+000 44513 90355,90695,90381
 3.0000e-001 91077  1.6683e+001  3.4400e+001 -6.0651e+000 44059 91100,90930,90904
 3.0000e-001 91054  1.8352e+001  3.8507e+001 -7.7731e-001 44059 91100,90904,90982
 3.0000e-001 91031  2.4590e+001  4.2189e+001  2.1391e+000 44059 90878,90982,90904
 3.0000e-001 91008  2.1309e+001  4.3100e+001  3.8150e+000 44059 90852,90982,90878
 3.0000e-001 91126  2.8743e+001  4.3385e+001 -7.0664e+000 44059 91172,91100,90956
 3.0000e-001 91149  2.4912e+001  5.4642e+001  2.3304e+000 44059 90956,91100,90982
 3.0000e-001 91198  1.6176e+001  2.3573e+001 -8.4763e-001 44059 90930,91100,91172
 3.0000e-001 91677  3.9029e-001  1.7178e+001 -1.6605e+000 43549 91455,91533,91481
 3.0000e-001 91654 -6.4990e+000  1.0318e+001 -4.4585e+000 43549 91429,91533,91455
 3.0000e-001 91631  5.3376e+000  2.3476e+001 -7.0745e+000 43549 91481,91533,91507
 3.0000e-001 91608 -1.4810e+001  6.8293e+000 -2.5931e+000 43549 91429,91559,91533
 3.0000e-001 91585 -8.7345e+000 -6.1367e+000  7.1735e+000 43549 91403,91559,91429
 3.0000e-001 92006  2.4481e+001  4.0890e+001 -1.4304e+000 43059 91781,91885,91807
 3.0000e-001 91983  2.6096e+001  3.5001e+001 -1.6666e+001 43059 91781,91911,91885
 3.0000e-001 91960  2.2038e+001  3.6369e+001  9.1563e-001 43059 91807,91885,91833
 3.0000e-001 91937  2.9452e+001  4.0101e+001  3.1672e+000 43059 91833,91885,91859
 3.0000e-001 92561  1.3305e+001  3.0831e+001  1.1276e+000 42598 92584,92215,92189
 3.0000e-001 92538  5.3523e+000  3.3217e+001  6.9434e+000 42598 92656,92584,92189
 3.0000e-001 92515  3.4589e+000  3.6459e+001  5.2850e+000 42598 92656,92189,92397
 3.0000e-001 92492 -2.8748e+001  2.6666e+001  5.6666e+000 42598 92241,92319,92293
 3.0000e-001 92469 -1.2177e+000  2.0695e+001  5.5574e+000 42598 92319,92397,92371
 3.0000e-001 92446  2.2398e+000  1.7595e+001  1.0804e+001 42598 92319,92371,92345
 3.0000e-001 92423 -3.3214e+001  3.1769e+001  1.8158e+001 42598 92241,92293,92267
 3.0000e-001 92610  1.9959e+000  2.6162e+001  7.0748e-001 42598 92241,92215,92584
 3.0000e-001 92633  2.2065e+000  2.7653e+001  8.1888e+000 42598 92241,92584,92319
 3.0000e-001 92682  3.3866e+000  2.8595e+001  5.9251e+000 42598 92319,92584,92656
 3.0000e-001 92705  1.1270e+000  3.1021e+001  4.6090e+000 42598 92319,92656,92397
 3.0000e-001 92953  4.0872e+000  4.8655e+001 -1.2388e+001 42094 92976,92806,92780
 3.0000e-001 92930  1.8345e+000  3.5386e+001 -1.0755e+001 42094 92976,92780,92754
 3.0000e-001 92907 -5.2432e+000  3.3728e+001 -3.8051e+000 42094 93048,92832,92806
 3.0000e-001 92884  1.5780e+001  3.9140e+001 -5.6776e+000 42094 92728,92858,92754
 3.0000e-001 93002 -3.5457e-001  3.9738e+001 -5.9403e+000 42094 93048,92806,92976
 3.0000e-001 93025  5.9639e+000  3.6614e+001 -8.8604e+000 42094 92858,92976,92754
 3.0000e-001 93074  3.8841e+000  3.1843e+001 -9.3838e+000 42094 92858,92832,93048
 3.0000e-001 93097  5.5852e+000  3.3579e+001 -1.0071e+001 42094 92858,93048,92976
 3.0000e-001 93605 -5.3612e+000  3.9224e+001 -2.1734e+000 41846 93628,93412,93386
 3.0000e-001 93582  2.9488e+000  2.8097e+001  2.2691e+000 41846 93628,93386,93308
 3.0000e-001 93559 -5.5422e+000  2.7875e+001  4.5573e+000 41846 93700,93464,93438
 3.0000e-001 93536  6.4346e+000  2.3185e+001 -2.5441e+000 41846 93308,93386,93334
 3.0000e-001 93513  1.3505e+001  5.5527e+001 -1.7326e+001 41846 93334,93386,93360
 3.0000e-001 93490 -2.9186e+001  3.9845e+001  8.4323e+000 41846 93282,93464,93308
 3.0000e-001 93654 -1.5201e+001  3.1915e+001  1.4859e+000 41846 93438,93412,93628
 3.0000e-001 93677 -2.5041e+000  2.9927e+001  4.4249e-001 41846 93700,93438,93628
 3.0000e-001 93726 -8.8099e+000  2.3308e+001  7.9030e+000 41846 93308,93464,93700
 3.0000e-001 93749 -6.4036e+000  2.3790e+001  3.9260e+000 41846 93308,93700,93628
 3.0000e-001 94255 -2.2724e+000  3.3206e+001  4.4038e-001 41385 93958,94114,94088
 3.0000e-001 94232 -1.6552e+001  3.2887e+001  6.8320e-001 41385 93932,94114,93958
 3.0000e-001 94209  4.5025e+000  3.5513e+001  1.2816e+000 41385 93958,94088,94062
 3.0000e-001 94186 -9.7683e+000  1.8523e+001  7.4588e+000 41385 93958,94062,93984
 3.0000e-001 94163 -1.3080e+001  2.5243e+001  1.6122e+001 41385 93984,94062,94036
 3.0000e-001 94140 -2.7712e+001  1.4059e+001  2.1103e+001 41385 93984,94036,94010
 3.0000e-001 94476 -3.0618e-001  3.7353e+001  3.3644e+000 40881 94326,94378,94352
 3.0000e-001 94453 -9.3117e+000  2.9190e+001 -1.1480e-001 40881 94300,94378,94326
 3.0000e-001 94430 -3.4527e+000  3.0070e+001  4.8409e-001 40881 94300,94404,94378
 3.0000e-001 94626  4.4619e+001  5.0369e+001 -1.3569e+001 40591 94649,94551,94525
 3.0000e-001 94603  3.0888e+001  4.0170e+001 -7.3841e+000 40591 94781,94577,94551
 3.0000e-001 94675  3.2629e+001  4.0356e+001 -9.2587e+000 40591 94781,94551,94649
 3.0000e-001 94807  3.4456e+001  3.8990e+001 -9.2704e+000 40591 94499,94577,94781
 3.0000e-001 94830  3.7210e+001  4.1539e+001 -1.1728e+001 40591 94499,94781,94649
 3.0000e-001 95336  2.3892e+001  3.3894e+001 -1.8786e+000 40187 95013,95169,95039
 3.0000e-001 95313  1.3688e+001  3.4488e+001 -8.5629e+000 40187 95013,95195,95169
 3.0000e-001 95290  2.2996e+001  2.2856e+001  9.2126e-001 40187 95039,95143,95065
 3.0000e-001 95267  2.2595e+001  2.3607e+001 -4.6034e+000 40187 95039,95169,95143
 3.0000e-001 95244  2.7228e+001  6.5166e+001  2.5462e+000 40187 95091,95143,95117
 3.0000e-001 95221  2.3831e+001  4.8083e+001  4.5898e+000 40187 95065,95143,95091
 3.0000e-001 95665  4.8892e+000  3.0901e+001 -3.7202e+000 39626 95466,95570,95544
 3.0000e-001 95642  6.6436e+000  3.6681e+001 -3.0639e+000 39626 95440,95570,95466
 3.0000e-001 95619  4.3646e+000  3.1832e+001  7.9838e-001 39626 95466,95544,95492
 3.0000e-001 95596  2.1328e+001  3.5890e+001  3.2837e+000 39626 95492,95544,95518
 3.0000e-001 95913  2.2997e+001  3.3722e+001 -6.8355e-001 39136 96080,95936,95766
 3.0000e-001 95890  2.4905e+001  3.8377e+001 -4.7744e-001 39136 95936,95714,95688
 3.0000e-001 95867  2.3441e+001  3.8340e+001 -4.9309e+000 39136 96008,95792,95766
 3.0000e-001 95844  2.2356e+001  3.3346e+001 -5.8094e-002 39136 96080,95766,95740
 3.0000e-001 95962  2.0582e+001  4.0013e+001 -2.3117e+000 39136 96008,95766,95936
 3.0000e-001 95985  2.1398e+001  5.0036e+001 -2.2262e+000 39136 95818,95936,95688
 3.0000e-001 96034  1.6156e+001  3.5022e+001 -6.6278e+000 39136 95818,95792,96008
 3.0000e-001 96057  1.5436e+001  3.7071e+001 -3.9230e+000 39136 95818,96008,95936
 3.0000e-001 96106  2.3190e+001  3.5269e+001 -2.0157e+000 39136 95714,95936,96080
 3.0000e-001 96129  2.1705e+001  3.4258e+001 -1.2743e+000 39136 95714,96080,95740
 3.0000e-001 96350 -6.6813e-001  2.9897e+001 -6.7540e-001 38824 96200,96278,96252
 3.0000e-001 96327 -3.6445e+000  2.8995e+001 -5.6831e-001 38824 96174,96278,96200
 3.0000e-001 96304 -2.8485e+000  2.7478e+001  2.4348e-001 38824 96200,96252,96226
 3.0000e-001 96830  1.2015e+001  3.8785e+001 -3.2544e-001 38320 97069,96536,96484
 3.0000e-001 96807  1.1949e+001  3.9253e+001 -4.0462e-001 38320 97069,96484,96853
 3.0000e-001 96784  7.9462e+000  3.9677e+001 -4.0572e+000 38320 96853,96484,96458
 3.0000e-001 96761  2.5161e+001  3.7336e+001 -6.1991e+000 38320 96925,96640,96614
 3.0000e-001 96738  1.1176e+001  2.7887e+001 -2.1561e+000 38320 96997,96666,96640
 3.0000e-001 96715  9.1479e+000  3.0321e+001 -1.1911e+000 38320 97141,96588,96562
 3.0000e-001 96692  1.8880e+001  4.5434e+001 -3.3834e+000 38320 96484,96536,96510
 3.0000e-001 96879  7.1397e+000  3.4513e+001 -1.2432e+000 38320 97141,96562,96853
 3.0000e-001 96902  1.0266e+001  3.9594e+001 -3.8176e+000 38320 96925,96614,96853
 3.0000e-001 96951  1.3636e+001  3.2526e+001 -6.8713e+000 38320 96997,96640,96925
 3.0000e-001 96974  7.4551e+000  3.4775e+001 -5.0426e+000 38320 96458,96925,96853
 3.0000e-001 97023 -1.8083e+000  1.8224e+001  4.1892e+000 38320 96458,96666,96997
 3.0000e-001 97046  6.2836e+000  2.5098e+001 -1.2840e+000 38320 96458,96997,96925
 3.0000e-001 97095  2.0425e+001  4.9492e+001 -8.0507e+000 38320 96562,96536,97069
 3.0000e-001 97118  9.3782e+000  3.9905e+001 -1.4584e+000 38320 96562,97069,96853
 3.0000e-001 97167  1.1207e+001  3.5111e+001 -3.0207e+000 38320 96614,96588,97141
 3.0000e-001 97190  8.3326e+000  3.8823e+001 -2.3003e+000 38320 96614,97141,96853
 3.0000e-001 97519  2.3723e+001  4.0727e+001 -1.4230e+001 37766 97542,97398,97372
 3.0000e-001 97496  1.5956e+001  2.9434e+001 -1.7739e+001 37766 97542,97372,97346
 3.0000e-001 97473  1.5679e+001  3.2429e+001 -7.4427e+000 37766 97294,97424,97346
 3.0000e-001 97450  3.0707e+001  6.9368e+001 -7.9861e+000 37766 97294,97346,97320
 3.0000e-001 97568  3.0912e+001  5.1719e+001 -1.2946e+000 37766 97424,97398,97542
 3.0000e-001 97591  2.0365e+001  3.6036e+001 -5.8697e+000 37766 97424,97542,97346
 3.0000e-001 98048  5.4341e+000  2.5635e+001 -3.1487e+000 37262 98071,97878,97852
 3.0000e-001 98025  3.7560e+000  2.9989e+001 -6.7465e+000 37262 98071,97852,97800
 3.0000e-001 98002  5.1664e+000  3.1709e+001 -7.5325e+000 37262 97800,97852,97826
 3.0000e-001 97979 -1.6795e+001  2.5753e+001 -5.4615e+000 37262 97800,97930,97904
 3.0000e-001 97956 -1.1471e+001  4.7022e+001 -2.4306e+000 37262 97774,97930,97800
 3.0000e-001 98097  1.0020e+001  2.8096e+001 -5.7675e+000 37262 97904,97878,98071
 3.0000e-001 98120  6.5117e+000  3.3932e+001 -8.7415e+000 37262 97904,98071,97800
 3.0000e-001 98449  2.6595e+000  2.2302e+001  2.1223e+000 36950 98472,98302,98250
 3.0000e-001 98426 -3.2742e-001  2.1946e+001  2.4916e+000 36950 98472,98250,98354
 3.0000e-001 98403  7.0666e+000  2.9804e+001 -2.1907e-001 36950 98250,98302,98276
 3.0000e-001 98380 -1.2090e+001  1.7921e+001  3.0252e+000 36950 98224,98354,98250
 3.0000e-001 98498  4.4354e-001  2.3899e+001  4.7913e-001 36950 98328,98302,98472
 3.0000e-001 98521 -2.8391e+000  2.3373e+001  1.3412e+000 36950 98328,98472,98354
 3.0000e-001 99125  3.4997e+001  3.5914e+001 -6.3588e+000 36296 98704,98756,98730
 3.0000e-001 99102  6.9679e+000  2.7750e+001  4.5508e+000 36296 98704,98938,98756
 3.0000e-001 99079 -4.6448e-001  3.0219e+001 -3.1127e+000 36296 99148,98938,98912
 3.0000e-001 99056 -3.6777e+000  1.9231e+001 -3.5763e+000 36296 99292,99220,98782
 3.0000e-001 99033 -4.1286e-001  1.7394e+001 -1.9738e+000 36296 99148,98912,98834
 3.0000e-001 99010 -5.0733e+000  1.5652e+001 -3.3920e+000 36296 99292,98782,98756
 3.0000e-001 98987  3.4845e+000  1.6117e+001 -7.3172e+000 36296 98834,98912,98886
 3.0000e-001 98964  1.3508e+001  1.0911e+000 -1.5122e+000 36296 98834,98886,98860
 3.0000e-001 99174 -3.4172e+000  1.9429e+001 -1.1068e+000 36296 99220,98938,99148
 3.0000e-001 99197 -1.6525e-001  1.3412e+001 -4.2689e-002 36296 98808,99148,98834
 3.0000e-001 99246 -8.7898e+000  7.3751e+000  3.4957e+000 36296 98808,98782,99220
 3.0000e-001 99269 -8.4234e-001  1.6158e+001 -2.8724e+000 36296 98808,99220,99148
 3.0000e-001 99318 -4.8101e+000  1.5362e+001 -1.1897e+000 36296 98938,99220,99292
 3.0000e-001 99341 -4.6570e+000  1.5701e+001 -1.2591e+000 36296 98938,99292,98756
 3.0000e-001 99719  4.2281e+000  2.2724e+001  2.8957e+000 35742 99742,99471,99601
 3.0000e-001 99696  4.3617e+000  2.1130e+001  2.1776e+000 35742 99445,99601,99471
 3.0000e-001 99673  4.6228e+000  2.3560e+001 -5.1816e-001 35742 99742,99601,99575
 3.0000e-001 99650  5.2511e+000  4.0092e+001 -1.5872e+000 35742 99814,99549,99523
 3.0000e-001 99627  7.6453e+000  2.7537e+001 -2.6370e+000 35742 99471,99523,99497
 3.0000e-001 99768  3.8875e+000  2.5507e+001 -1.1307e+000 35742 99523,99471,99742
 3.0000e-001 99791  6.9628e+000  3.4586e+001 -2.2177e+000 35742 99814,99523,99742
 3.0000e-001 99840  7.6607e+000  3.2422e+001  4.6602e-001 35742 99575,99549,99814
 3.0000e-001 99863  7.7119e+000  2.4758e+001 -5.9270e-001 35742 99575,99814,99742
 3.0000e-001 100111  3.5866e+000  2.1084e+001 -3.0764e+000 35302 100134,99990,99938
 3.0000e-001 100088  1.7058e+000  2.4594e+001  2.8146e-001 35302 100134,99938,99912
 3.0000e-001 100065 -1.9857e+000  2.4634e+001 -2.5820e+000 35302 100206,99886,100016
 3.0000e-001 100042  2.1112e+001  1.4814e+001  7.1881e-001 35302 99938,99990,99964
 3.0000e-001 100160  9.7199e-001  1.9870e+001 -4.2072e+000 35302 100016,99990,100134
 3.0000e-001 100183  3.2838e+000  2.2591e+001 -1.9695e+000 35302 100206,100016,100134
 3.0000e-001 100232 -1.0223e+001  2.2258e+001 -2.6146e+000 35302 99912,99886,100206
 3.0000e-001 100255 -3.9708e+000  2.0918e+001 -1.5793e+000 35302 99912,100206,100134
 3.0000e-001 100586  2.3363e+000  1.4835e+001 -6.9911e-001 35012 100609,100387,100361
 3.0000e-001 100563  4.7990e+000  1.9071e+001  5.6036e-001 35012 100609,100361,100465
 3.0000e-001 100540  1.2871e+001  4.1914e+001 -2.6947e+000 35012 100361,100491,100465
 3.0000e-001 100517 -5.1118e+000  1.9381e+001 -6.0563e+000 35012 100413,100465,100439
 3.0000e-001 100635 -1.1770e+000  1.3635e+001 -7.0469e+000 35012 100413,100387,100609
 3.0000e-001 100658  2.7977e+000  2.1163e+001 -5.4245e+000 35012 100413,100609,100465
 3.0000e-001 100987  1.0778e+001  1.8746e+001 -3.7981e+000 34700 100788,100866,100814
 3.0000e-001 100964  2.8212e+001  1.1519e+001 -2.3802e+000 34700 101010,100866,100788
 3.0000e-001 100941  3.2280e+001  3.9087e+001 -4.6662e+000 34700 100762,100892,100866
 3.0000e-001 100918  1.3817e+001  2.0771e+001  1.1754e+001 34700 100814,100866,100840
 3.0000e-001 101036  1.8911e+001  1.4477e+001  1.0622e+001 34700 100762,100866,101010
 3.0000e-001 101493  6.3048e+000  1.3644e+001 -3.1462e+000 34132 101516,101349,101297
 3.0000e-001 101470  1.1341e+001  1.9246e+001 -1.0365e+000 34132 101588,101516,101297
 3.0000e-001 101447  8.4608e+000  1.4959e+001  2.0553e+000 34132 101588,101297,101245
 3.0000e-001 101424  1.7305e+001  1.3684e+001  9.3415e-001 34132 101245,101297,101271
 3.0000e-001 101401 -7.5261e+000  1.3632e+001 -9.5340e+000 34132 101297,101349,101323
 3.0000e-001 101542 -1.1650e+000  1.8759e+001 -9.5637e-001 34132 101375,101349,101516
 3.0000e-001 101565  6.8418e+000  2.7733e+001  3.5574e+000 34132 101375,101516,101219
 3.0000e-001 101614  6.3518e+000  1.5237e+001  1.7289e+000 34132 101219,101516,101588
 3.0000e-001 101637  7.3069e+000  1.3505e+001  4.2477e+000 34132 101219,101588,101245
 3.0000e-001 101858 -6.0610e+000  4.3485e+001 -4.7622e+000 33720 101708,101786,101760
 3.0000e-001 101835  4.9170e-001  5.4161e+001 -1.9935e+000 33720 101682,101786,101708
 3.0000e-001 101812  5.5749e+000  4.9129e+001 -2.7744e+000 33720 101708,101760,101734
 3.0000e-001 102128 -1.9066e+000  2.6651e+001  1.3446e+000 33130 101903,102007,101929
 3.0000e-001 102105 -4.4365e-001  3.2001e+001 -8.9259e-001 33130 101903,102033,102007
 3.0000e-001 102082 -1.7986e+000  3.3399e+001  7.6738e+000 33130 101929,102007,101955
 3.0000e-001 102059  1.5081e+000  2.2385e+001 -9.1674e-002 33130 101955,102007,101981
 3.0000e-001 102461  1.5161e+001  4.5865e+001  1.1985e+000 32840 102236,102340,102262
 3.0000e-001 102438  1.9457e+001  4.0012e+001 -1.1777e+001 32840 102236,102366,102340
 3.0000e-001 102415  7.4629e+000  4.1134e+001  3.3898e+000 32840 102262,102340,102288
 3.0000e-001 102392  2.2699e+001  4.5526e+001  8.8225e+000 32840 102288,102340,102314
 3.0000e-001 102997  2.0381e+001  2.4443e+001  4.4155e+000 32493 102749,102879,102853
 3.0000e-001 102974  1.9532e+001  2.3670e+001  6.6085e+000 32493 102723,102879,102749
 3.0000e-001 102951  1.6770e+001  2.5615e+001 -1.2800e+000 32493 102749,102801,102775
 3.0000e-001 102928  1.1581e+001  1.8810e+001  1.9974e+000 32493 102749,102853,102801
 3.0000e-001 102905  2.0526e+001  4.3454e+001  4.4925e+000 32493 102801,102853,102827
 3.0000e-001 103454 -1.3750e+001  2.6647e+001 -2.7723e+000 32089 103206,103336,103310
 3.0000e-001 103431 -1.2434e+001  4.2084e+001 -4.5216e+000 32089 103180,103336,103206
 3.0000e-001 103408  1.3416e+001  3.7396e+001  1.7625e+000 32089 103206,103284,103258
 3.0000e-001 103385  1.3527e+001  3.9148e+001  2.2215e-001 32089 103206,103310,103284
 3.0000e-001 103362  7.5646e+000  2.3396e+001  1.1265e+000 32089 103206,103258,103232
 3.0000e-001 103783  1.8671e+001  3.3783e+001 -5.4169e+000 31742 103558,103662,103584
 3.0000e-001 103760  1.8626e+001  3.5969e+001 -2.4738e+000 31742 103558,103688,103662
 3.0000e-001 103737  1.0890e+001  2.6712e+001 -1.7264e+000 31742 103584,103662,103636
 3.0000e-001 103714  1.0146e+001  2.7358e+001 -1.2921e+000 31742 103584,103636,103610
 3.0000e-001 104112  8.5630e+000  2.9323e+001 -1.6545e+000 31402 103939,103991,103965
 3.0000e-001 104089  2.3217e+000  3.0515e+001 -5.0983e+000 31402 103913,103991,103939
 3.0000e-001 104066  1.1420e+001  3.8874e+001 -7.1698e-001 31402 103913,104017,103991
 3.0000e-001 104043  1.5003e+001  4.5367e+001  7.1704e-001 31402 103887,104017,103913
 3.0000e-001 104569  1.2753e+001  2.1068e+001  6.2524e-001 30998 104321,104425,104373
 3.0000e-001 104546  6.9375e+000  2.1696e+001 -4.1174e+000 30998 104321,104451,104425
 3.0000e-001 104523  1.3207e+001  1.8691e+001 -9.7841e-001 30998 104373,104425,104399
 3.0000e-001 104500 -1.1955e+000  3.6488e+001  3.0102e+000 30998 104295,104451,104321
 3.0000e-001 104477  1.8096e+001  3.0250e+001 -2.1242e+000 30998 104321,104373,104347
 3.0000e-001 104947  1.3054e+001  1.1138e+001  1.2252e+000 30608 104751,104803,104777
 3.0000e-001 104924  5.7970e+000  2.5499e+000 -1.8913e+000 30608 104725,104803,104751
 3.0000e-001 104901  4.9033e+000  5.1182e+000  1.0684e+000 30608 104699,104803,104725
 3.0000e-001 104878  8.2383e+000  3.1567e+000  5.6274e+000 30608 104673,104803,104699
 3.0000e-001 104855  1.4250e+001  2.0674e+001  5.2204e+000 30608 104673,104829,104803
 3.0000e-001 105276  1.7952e+001  1.5711e+001 -3.0512e-001 30204 105427,105129,105077
 3.0000e-001 105253  1.3498e+001  2.2852e+001 -7.3357e+000 30204 105427,105077,105051
 3.0000e-001 105230  3.6570e+000  1.4204e+001  1.6579e-001 30204 105077,105129,105103
 3.0000e-001 105207  4.1735e+001  1.4864e+001 -2.1776e+001 30204 105299,105181,105155
 3.0000e-001 105325  1.5387e+001 -2.7092e+000 -3.1580e-001 30204 105129,105181,105299
 3.0000e-001 105453  2.0786e+001  1.8769e+001 -6.5293e+000 30204 105181,105129,105427
 3.0000e-001 105476  2.5666e+001  3.0236e+001 -1.4861e+001 30204 105181,105427,105051
 3.0000e-001 105903 -8.9504e-001  1.4115e+001  1.8771e+000 29700 105606,105762,105736
 3.0000e-001 105880  2.7507e+000  1.6051e+001  3.2191e+000 29700 105580,105762,105606
 3.0000e-001 105857  4.7362e+000  2.0265e+001  6.7216e-001 29700 105606,105710,105632
 3.0000e-001 105834  3.7111e+000  2.0311e+001 -1.5276e-001 29700 105606,105736,105710
 3.0000e-001 105811  9.3644e+000  3.6935e+001 -5.0817e-001 29700 105632,105710,105684
 3.0000e-001 105788  1.4304e+001  4.8659e+001  3.0096e+000 29700 105632,105684,105658
 3.0000e-001 106102  9.1749e+000  2.8795e+000  2.4252e+000 29124 105978,106030,106004
 3.0000e-001 106079  2.5245e+001  3.1236e+000  2.9897e+000 29124 105926,106030,105978
 3.0000e-001 106056  2.9407e+001  2.1975e+001 -8.9256e+000 29124 105926,105978,105952
 3.0000e-001 106301  3.3676e+000  2.4752e+001 -1.1815e-001 28712 106151,106229,106203
 3.0000e-001 106278  5.6073e+000  2.6856e+001  8.6230e-001 28712 106125,106229,106151
 3.0000e-001 106255  4.5553e+000  2.5380e+001 -3.5078e-001 28712 106151,106203,106177
 3.0000e-001 106551  1.8565e+001  3.4256e+000  1.7545e+000 28258 106352,106404,106378
 3.0000e-001 106528  1.3593e+001  5.6384e+000 -3.5743e+000 28258 106352,106456,106404
 3.0000e-001 106505  1.6382e+001  1.0427e+001 -1.5862e+000 28258 106326,106456,106352
 3.0000e-001 106482  5.9636e+000 -4.1302e+000  2.5427e+000 28258 106404,106456,106430
 3.0000e-001 107012  1.3296e+001  2.7541e+001 -4.3719e+000 27818 107035,106790,106764
 3.0000e-001 106989  1.0945e+001  2.4637e+001  4.3561e-001 27818 107035,106764,106868
 3.0000e-001 106966  6.3215e+000  3.1808e+001 -8.0908e-001 27818 107107,106842,106816
 3.0000e-001 106943  2.9425e+000  2.1458e+001  1.7624e+000 27818 106738,106868,106764
 3.0000e-001 106920  4.4026e+000  1.7957e+001 -9.8296e+000 27818 106738,106894,106868
 3.0000e-001 107061  7.7316e+000  2.5103e+001 -3.7809e+000 27818 106816,106790,107035
 3.0000e-001 107084  1.1100e+001  2.7824e+001 -8.6174e-001 27818 107107,106816,107035
 3.0000e-001 107133  9.3915e-002  2.7107e+001  1.2590e+000 27818 106868,106842,107107
 3.0000e-001 107156  5.6249e+000  2.2928e+001  1.1998e+000 27818 106868,107107,107035
 3.0000e-001 107613  3.8777e-001  1.3086e+001  7.4685e-001 27312 107339,107469,107365
 3.0000e-001 107590 -1.2918e+000  1.5199e+001 -5.1625e-001 27312 107339,107495,107469
 3.0000e-001 107567  1.5555e+000  1.3963e+001 -4.2311e+000 27312 107391,107469,107443
 3.0000e-001 107544  2.5495e+000  1.2343e+001 -4.4091e+000 27312 107365,107469,107391
 3.0000e-001 107521 -1.6599e+000  1.6349e+001 -1.2880e+001 27312 107391,107443,107417
 3.0000e-001 107991  8.7791e+000  2.7626e+001 -1.0046e+000 26858 108086,108014,107795
 3.0000e-001 107968  1.0561e+001  2.7342e+001 -5.9476e-001 26858 108014,107717,107873
 3.0000e-001 107945  8.7200e+000  2.7563e+001 -9.6753e-001 26858 108158,108086,107795
 3.0000e-001 107922  5.2513e+000  2.6731e+001 -4.9728e-001 26858 108158,107795,107769
 3.0000e-001 107899  1.3465e+001  3.2425e+001  1.8821e+000 26858 107821,107873,107847
 3.0000e-001 108040  1.0726e+001  3.1151e+001 -2.4466e-001 26858 107821,107795,108014
 3.0000e-001 108063  1.1388e+001  2.7941e+001 -2.5978e-001 26858 107821,108014,107873
 3.0000e-001 108112  1.0473e+001  2.8631e+001  1.3111e-001 26858 107717,108014,108086
 3.0000e-001 108135  8.0218e+000  2.8913e+001 -1.7576e+000 26858 107717,108086,107743
 3.0000e-001 108184  4.4896e+000  2.7875e+001 -2.1545e+000 26858 107743,108086,108158
 3.0000e-001 108207  3.1447e+000  2.8580e+001 -2.0655e+000 26858 107743,108158,107769
 3.0000e-001 108634  1.4218e+001  1.3189e+001  3.2814e+000 26404 108657,108415,108363
 3.0000e-001 108611  1.7676e+001  2.1366e+001  3.2111e+000 26404 108657,108363,108337
 3.0000e-001 108588  1.0203e+001  2.4377e+001 -1.3077e-001 26404 108729,108311,108467
 3.0000e-001 108565  1.9075e+001  1.7873e+001 -4.7210e-001 26404 108801,108441,108415
 3.0000e-001 108542  1.2431e+001  2.7142e+001 -6.0792e+000 26404 108311,108493,108467
 3.0000e-001 108519  2.2853e+001  1.3007e+001  3.2657e+000 26404 108363,108415,108389
 3.0000e-001 108683  1.8312e+001  1.8053e+001 -2.8923e-001 26404 108801,108415,108657
 3.0000e-001 108706  1.7004e+001  2.2035e+001 -3.3128e-001 26404 108729,108467,108657
 3.0000e-001 108755  7.8011e+000  2.2791e+001  6.3313e-001 26404 108337,108311,108729
 3.0000e-001 108778  1.0962e+001  1.7601e+001  1.6067e+000 26404 108337,108729,108657
 3.0000e-001 108827  1.7248e+001  1.9586e+001 -5.2376e-001 26404 108467,108441,108801
 3.0000e-001 108850  1.5707e+001  1.8820e+001  1.0160e-001 26404 108467,108801,108657
 3.0000e-001 109228  1.8121e+000  2.9051e+001  2.7676e+000 26064 109006,109084,109058
 3.0000e-001 109205  4.1333e+000  2.8124e+001  2.0678e-001 26064 108980,109084,109006
 3.0000e-001 109182  2.2060e+000  2.6288e+001  1.3765e+000 26064 108980,109110,109084
 3.0000e-001 109159  6.4076e+000  3.5543e+001 -1.0703e+000 26064 109006,109058,109032
 3.0000e-001 109136 -6.5731e-001  1.5459e+001 -2.0749e+000 26064 108954,109110,108980
 3.0000e-001 109427  1.1052e+001  1.8396e+001  2.4665e+000 25660 109303,109355,109329
 3.0000e-001 109404  8.9104e+000  1.2904e+001  6.7528e-001 25660 109277,109355,109303
 3.0000e-001 109381  3.1192e+001  7.0635e+000 -1.3095e+000 25660 109251,109355,109277
 3.0000e-001 109577  3.3338e+000  1.9814e+001 -1.0719e+001 25306 109476,109528,109502
 3.0000e-001 109554 -6.1668e+000  2.0003e+001 -5.1012e+000 25306 109450,109528,109476
 3.0000e-001 109778  2.2287e-001  2.2202e+001 -5.8440e-001 24944 109628,109706,109654
 3.0000e-001 109755  4.0510e+000  2.8861e+001  9.6358e-001 24944 109602,109706,109628
 3.0000e-001 109732  2.2306e-001  2.3937e+001  8.2060e-001 24944 109654,109706,109680
 3.0000e-001 110126  1.3082e+001  4.1757e+001 -2.9943e+000 24440 110149,109907,109855
 3.0000e-001 110103  1.6933e+001  4.1862e+001 -2.7413e+000 24440 110149,109855,109985
 3.0000e-001 110080  9.5351e+000  3.9231e+001 -6.3516e-001 24440 109855,109907,109881
 3.0000e-001 110057  1.0306e+001  3.2295e+001 -9.9485e+000 24440 109829,109985,109855
 3.0000e-001 110034  1.2674e+001  4.7165e+001  2.7660e+000 24440 109907,109959,109933
 3.0000e-001 110011  1.7210e+001  3.6744e+001 -3.3574e+000 24440 109803,109985,109829
 3.0000e-001 110175  1.4776e+001  4.0098e+001  2.8574e-002 24440 109959,109907,110149
 3.0000e-001 110198  2.0614e+001  4.1470e+001  1.3599e-001 24440 109959,110149,109985
 3.0000e-001 110301  3.4702e+000  4.0020e+001  8.0757e-001 24028 110223,110275,110249
 3.0000e-001 110573  1.6040e+000  4.2455e+001 -1.5521e+000 23467 110400,110452,110426
 3.0000e-001 110550 -6.2264e+000  2.5897e+001 -4.0008e+000 23467 110374,110452,110400
 3.0000e-001 110527  7.0847e+000  3.1624e+001 -3.0415e+000 23467 110348,110452,110374
 3.0000e-001 110504  9.4094e-001  2.6596e+001 -8.1998e-001 23467 110348,110478,110452
 3.0000e-001 111004  2.8850e+001  2.1671e+001 -2.6202e+001 22963 111027,110733,110707
 3.0000e-001 110981  1.4240e+001  2.1410e+001 -7.6559e+000 22963 111027,110707,110681
 3.0000e-001 110958  4.5094e+000  2.8809e+001 -1.4454e+001 22963 111099,110759,110733
 3.0000e-001 110935  1.7859e+001  2.8474e+001 -3.2324e+000 22963 111171,110863,110811
 3.0000e-001 110912 -7.3301e+000  4.3719e+001 -1.1534e+001 22963 110759,110811,110785
 3.0000e-001 110889  2.3615e+001  3.6707e+001 -6.6429e+000 22963 110811,110863,110837
 3.0000e-001 111053  1.2302e+001  3.0890e+001 -1.3782e+001 22963 111099,110733,111027
 3.0000e-001 111076  1.6152e+001  3.2176e+001 -3.7543e+000 22963 111171,110811,111027
 3.0000e-001 111125  5.4358e+000  3.0493e+001 -8.9466e+000 22963 110811,110759,111099
 3.0000e-001 111148  7.9947e+000  3.2299e+001 -7.6986e+000 22963 110811,111099,111027
 3.0000e-001 111197  1.6450e+001  2.4920e+001 -3.6562e+000 22963 110681,110863,111171
 3.0000e-001 111220  1.3533e+001  2.7530e+001 -5.2239e+000 22963 110681,111171,111027
 3.0000e-001 111726  1.4925e+001  2.9782e+001 -1.7142e+000 22459 111749,111507,111429
 3.0000e-001 111703  1.0355e+001  2.8135e+001  1.3170e+000 22459 111749,111429,111585
 3.0000e-001 111680 -8.2566e+000  3.3399e+001 -3.6151e+000 22459 111403,111585,111429
 3.0000e-001 111657  8.7361e+000  4.8423e+001  1.0872e+000 22459 111507,111559,111533
 3.0000e-001 111634  3.2206e+001  5.1187e+001  4.9121e+000 22459 111455,111507,111481
 3.0000e-001 111611  1.4167e+001  4.0535e+001 -2.1170e+000 22459 111429,111507,111455
 3.0000e-001 111775  1.4297e+001  3.4610e+001 -5.6355e+000 22459 111559,111507,111749
 3.0000e-001 111798  1.0092e+001  3.0822e+001 -2.6042e+000 22459 111559,111749,111585
 3.0000e-001 112046  1.2260e+001  3.4544e+001 -3.6785e+000 21898 112069,111925,111873
 3.0000e-001 112023  1.1420e+001  3.1517e+001 -5.1466e-001 21898 112069,111873,111847
 3.0000e-001 112000  5.5917e+000  3.2667e+001  2.0758e+000 21898 111821,111951,111847
 3.0000e-001 111977  8.0045e+000  2.9104e+001 -5.6839e+000 21898 111873,111925,111899
 3.0000e-001 112095  8.1986e+000  3.2165e+001 -1.7250e+000 21898 111951,111925,112069
 3.0000e-001 112118  9.4140e+000  3.0267e+001  1.2047e+000 21898 111951,112069,111847
 3.0000e-001 112498  1.4758e+001  1.5331e+001 -1.4184e+000 21608 112521,112276,112224
 3.0000e-001 112475  1.5405e+001  1.8490e+001 -5.0609e+000 21608 112521,112224,112380
 3.0000e-001 112452  1.4192e+001  6.1160e+000 -7.7332e-001 21608 112302,112380,112354
 3.0000e-001 112429  2.2690e+001  1.3431e+001 -5.1615e+000 21608 112224,112276,112250
 3.0000e-001 112406  6.6001e+000  4.7853e+000 -5.6041e-001 21608 112302,112354,112328
 3.0000e-001 112547  1.4858e+001  6.0269e+000  9.9188e-001 21608 112302,112276,112521
 3.0000e-001 112570  1.8101e+001  1.3343e+001 -2.5234e+000 21608 112302,112521,112380
 3.0000e-001 112948  2.3421e-002  2.9363e+001  8.6865e+000 20882 112971,112752,112700
 3.0000e-001 112925  1.2576e+001  3.2718e+001  3.8254e+000 20882 112971,112700,112830
 3.0000e-001 112902  1.9291e+001  2.4697e+001  1.1237e+001 20882 112778,112830,112804
 3.0000e-001 112879  9.1735e+000  2.2127e+001  3.3517e+000 20882 112674,112830,112700
 3.0000e-001 112856  1.0580e+001  4.4997e+001  3.8633e+000 20882 112700,112752,112726
 3.0000e-001 112997 -1.2440e+000  2.7283e+001  1.5484e+001 20882 112778,112752,112971
 3.0000e-001 113020  6.1224e+000  2.8683e+001  1.0485e+001 20882 112778,112971,112830
 3.0000e-001 113526  9.6111e+000  3.6148e+001  8.8983e-001 20428 113255,113385,113333
 3.0000e-001 113503  1.0961e+001  3.9372e+001  1.1817e+000 20428 113229,113385,113255
 3.0000e-001 113480 -3.9306e+000  3.6669e+001  1.3966e+000 20428 113255,113333,113281
 3.0000e-001 113457  7.0158e+000  4.2771e+001  3.2044e+000 20428 113203,113385,113229
 3.0000e-001 113434  3.9839e+000  4.0410e+001  4.1175e+000 20428 113281,113333,113307
 3.0000e-001 113411  1.0317e+001  3.3517e+001  1.0443e+000 20428 113333,113385,113359
 3.0000e-001 113774  9.4437e+000  2.3754e+001  1.6848e+000 19917 113797,113601,113549
 3.0000e-001 113751  5.9387e+000  2.3492e+001  1.9693e+000 19917 113869,113797,113549
 3.0000e-001 113728  4.8737e+000  2.3331e+001  1.0948e+000 19917 113869,113549,113679
 3.0000e-001 113705  5.8362e+000  2.6914e+001  7.5177e+000 19917 113549,113601,113575
 3.0000e-001 113823  5.2454e+000  1.5892e+001 -3.8203e-002 19917 113627,113601,113797
 3.0000e-001 113846  1.0416e+001  2.4780e+001 -2.1866e+000 19917 113627,113797,113653
 3.0000e-001 113895  4.2320e+000  2.4394e+001 -1.6125e+000 19917 113653,113797,113869
 3.0000e-001 113918 -9.1746e-001  2.2366e+001 -2.2388e+000 19917 113653,113869,113679
 3.0000e-001 114166  2.3864e+001  5.0260e+001  1.6052e-002 19413 113993,114045,114019
 3.0000e-001 114143  2.0751e+001  3.7692e+001 -4.1253e+000 19413 113967,114045,113993
 3.0000e-001 114120  2.6311e+001  3.9453e+001  8.9014e-001 19413 113967,114071,114045
 3.0000e-001 114097  2.6749e+001  2.6644e+001 -6.0124e+000 19413 113941,114071,113967
 3.0000e-001 114438  1.6946e+000  1.7348e+001 -2.7566e-001 19001 114213,114265,114239
 3.0000e-001 114415  2.2133e+000  1.9056e+001 -2.4422e-001 19001 114213,114343,114265
 3.0000e-001 114392  9.0956e-002  1.5135e+001 -1.7725e+000 19001 114265,114343,114317
 3.0000e-001 114369  2.0137e+001  2.1563e+001 -4.4000e+000 19001 114265,114317,114291
 3.0000e-001 114639  1.1564e+001  8.2575e+000  6.7573e+000 18554 114489,114541,114515
 3.0000e-001 114616 -2.3181e+000  1.9125e+001  5.6672e+000 18554 114489,114567,114541
 3.0000e-001 114593 -1.9852e+001  1.9579e+001  2.2025e+000 18554 114463,114567,114489
 3.0000e-001 115043  1.8530e+001  4.3406e+001 -3.6236e+000 18164 114795,114925,114821
 3.0000e-001 115020  1.3150e+001  5.0597e+001 -7.7391e+000 18164 114769,114925,114795
 3.0000e-001 114997  2.1309e+001  3.0602e+001 -5.2635e+000 18164 115066,114873,114821
 3.0000e-001 114974  2.1103e+001  3.9298e+001 -7.3306e+000 18164 115066,114821,114925
 3.0000e-001 114951  3.3091e+001  3.2675e+001 -8.2344e+000 18164 114821,114873,114847
 3.0000e-001 115092  1.8844e+001  3.6646e+001 -9.5875e+000 18164 114899,114873,115066
 3.0000e-001 115115  2.2532e+001  5.0028e+001 -1.2219e+001 18164 114899,115066,114925
 3.0000e-001 115265  1.4033e+001  4.2762e+001  5.5488e-002 17852 115164,115216,115190
 3.0000e-001 115242  1.2289e+001  4.1806e+001 -6.5144e-001 17852 115138,115216,115164
 3.0000e-001 115464 -2.8142e+001 -2.2213e+001 -1.4553e+001 17346 115288,115366,115340
 3.0000e-001 115441 -8.2259e+000  8.6050e-001 -2.3663e+001 17346 115288,115392,115366
 3.0000e-001 115418 -1.4114e+001  1.2559e+000 -4.7331e+000 17346 115288,115340,115314
 3.0000e-001 115736  1.0975e+001  3.7686e+001  2.8648e-002 16942 115563,115641,115615
 3.0000e-001 115713  1.0481e+001  3.3142e+001  7.4402e-001 16942 115511,115641,115563
 3.0000e-001 115690  2.8200e+001  4.3386e+001 -2.8491e+000 16942 115563,115615,115589
 3.0000e-001 115667  1.4130e+001  3.9981e+001 -6.9831e-001 16942 115511,115563,115537
 3.0000e-001 116091  2.9108e+000  1.0276e+001  2.4232e+000 16388 115918,115970,115944
 3.0000e-001 116068  4.8588e+000  7.1808e+000  4.0630e+000 16388 115918,115996,115970
 3.0000e-001 116045  7.5942e+000  1.9479e+000  3.4317e+000 16388 115892,115996,115918
 3.0000e-001 116022  4.0720e+001  3.1186e+001  1.8512e+001 16388 115866,115996,115892
 3.0000e-001 116192  7.9548e-001  5.0902e+001  1.0380e+001 15810 116114,116166,116140
 3.0000e-001 116342 -8.9758e+000  7.1793e-001 -1.5808e-001 15419 116241,116293,116267
 3.0000e-001 116319  1.0438e+000  5.3694e-001  3.0853e-001 15419 116215,116293,116241
 3.0000e-001 116445  4.5618e+001  6.0288e+001 -4.5049e+000 421 116367,116419,116393
 4.0000e-001 68477  2.9887e+001  4.4970e+001  5.4307e+000 68018 68327,68379,68353
 4.0000e-001 68454  3.5268e+001  5.3557e+001  2.3931e+000 68018 68301,68379,68327
 4.0000e-001 68431  6.4737e+001  5.0516e+001  1.3966e+001 68018 68301,68405,68379
 4.0000e-001 68578  4.8277e+001 -4.9909e+001  1.2737e+001 67820 68500,68552,68526
 4.0000e-001 68728  2.3490e-001  2.7572e-003  7.9439e-002 67508 68601,68653,68627
 4.0000e-001 68705 -6.8643e-001  2.0600e-001 -3.0252e-001 67508 68601,68679,68653
 4.0000e-001 68927  6.6300e+000  4.5063e+000 -8.8895e+000 67310 68777,68829,68803
 4.0000e-001 68904 -1.1873e+001  1.1617e+001 -2.9672e+000 67310 68751,68829,68777
 4.0000e-001 68881 -5.9062e+000  1.5547e+001  7.2055e-001 67310 68751,68855,68829
 4.0000e-001 69386  1.3960e+001  4.9884e+001 -1.1485e+001 67020 69216,69268,69242
 4.0000e-001 69363  2.7708e+001  4.7568e+001  4.3780e+000 67020 69138,69268,69216
 4.0000e-001 69340  2.4216e+001  6.2811e+001  1.7434e+001 67020 69112,69268,69138
 4.0000e-001 69317  3.3720e+001  5.0132e+001 -4.8330e+000 67020 69138,69190,69164
 4.0000e-001 69294  3.5146e+001  4.6691e+001  1.3397e+000 67020 69138,69216,69190
 4.0000e-001 69536 -3.5738e+001 -2.6287e+001  1.2370e+001 66708 69435,69487,69461
 4.0000e-001 69513 -2.2514e+001 -3.5425e+000  1.5125e+000 66708 69409,69487,69435
 4.0000e-001 69735 -3.7171e+001 -5.2720e+000 -5.9563e+000 66346 69585,69637,69611
 4.0000e-001 69712 -5.2902e+001 -4.0152e+000 -2.6717e+000 66346 69559,69637,69585
 4.0000e-001 69689 -4.9961e+001 -7.7398e-001 -6.8443e+000 66346 69559,69663,69637
 4.0000e-001 69985 -2.5233e+001  7.3756e+000  9.8427e+000 66148 69786,69890,69864
 4.0000e-001 69962  2.9291e+000  2.1487e+001  5.0067e+000 66148 69760,69890,69786
 4.0000e-001 69939 -4.5099e+001  3.7003e+001  4.4408e+001 66148 69786,69864,69838
 4.0000e-001 69916 -2.4769e+001  5.3745e+001  1.8403e+001 66148 69786,69838,69812
 4.0000e-001 70137 -9.2698e-001  1.7954e+001 -1.7236e+000 65950 70036,70088,70062
 4.0000e-001 70114 -2.2839e+000  1.9306e+001 -3.3204e+000 65950 70010,70088,70036
 4.0000e-001 70470  1.2772e+000  2.6709e+001 -2.7048e+000 65546 70245,70323,70271
 4.0000e-001 70447 -2.0769e+000  1.8656e+001 -2.2580e+000 65546 70245,70375,70323
 4.0000e-001 70424  2.1262e+000  2.4093e+001 -2.3813e-001 65546 70323,70375,70349
 4.0000e-001 70401 -1.1046e+001  1.3948e+001  3.9415e+000 65546 70271,70323,70297
 4.0000e-001 70620 -1.2684e+001  3.6774e+001 -4.6661e+000 65348 70493,70545,70519
 4.0000e-001 70597  8.9019e+000  5.9993e+001  4.3492e+000 65348 70493,70571,70545
 4.0000e-001 70721  1.7448e+001  3.1852e+001 -5.7706e-001 65150 70643,70695,70669
 4.0000e-001 71020 -1.8085e-001  1.5519e+001 -3.9135e+000 64952 71043,70850,70824
 4.0000e-001 70997 -2.0935e+000  1.1869e+001 -3.0366e+000 64952 71043,70824,70772
 4.0000e-001 70974 -2.0313e+000  1.9220e+001 -3.2611e+000 64952 71115,70746,70876
 4.0000e-001 70951 -1.0213e-001  2.2910e+001 -2.5842e-001 64952 70746,70902,70876
 4.0000e-001 70928  1.2410e+000  1.3041e+001 -3.3587e+000 64952 70772,70824,70798
 4.0000e-001 71069 -3.1879e+000  1.4188e+001 -4.1390e+000 64952 70876,70850,71043
 4.0000e-001 71092 -1.8361e+000  1.7479e+001 -3.1913e+000 64952 71115,70876,71043
 4.0000e-001 71141 -1.0335e+000  1.7321e+001 -1.8460e+000 64952 70772,70746,71115
 4.0000e-001 71164 -1.5936e+000  1.4668e+001 -1.6704e+000 64952 70772,71115,71043
 4.0000e-001 71365 -1.5449e+001  2.5311e+001  1.7050e+000 64662 71215,71293,71267
 4.0000e-001 71342 -2.4234e+001  1.2486e+001  6.4335e+000 64662 71189,71293,71215
 4.0000e-001 71319 -2.2328e+001  4.9165e+000  2.3298e+000 64662 71215,71267,71241
 4.0000e-001 71615  3.9676e+001  5.7636e+001  5.9942e-001 64350 71710,71638,71468
 4.0000e-001 71592  4.3117e+001  5.3834e+001  6.9042e-001 64350 71638,71416,71390
 4.0000e-001 71569  4.0853e+001  5.2790e+001 -3.4396e+000 64350 71710,71468,71442
 4.0000e-001 71546  8.7873e+001  5.3937e+001 -2.3411e+001 64350 71390,71520,71494
 4.0000e-001 71664  4.4776e+001  5.8732e+001  4.1067e+000 64350 71494,71468,71638
 4.0000e-001 71687  3.9340e+001  5.1550e+001  1.6460e+000 64350 71494,71638,71390
 4.0000e-001 71736  3.8364e+001  4.7764e+001 -1.3978e+000 64350 71416,71638,71710
 4.0000e-001 71759  3.7115e+001  4.2521e+001 -6.6810e+000 64350 71416,71710,71442
 4.0000e-001 72318  1.1571e+001  1.7977e+001  1.5442e+001 63837 71972,72024,71998
 4.0000e-001 72295 -1.3180e+001  1.7846e+001  1.5001e+001 63837 72341,71972,71946
 4.0000e-001 72272 -8.6031e+000  2.2429e+001  1.1226e+001 63837 72413,72341,71946
 4.0000e-001 72249 -2.0123e+001  2.7284e+001  1.1287e+001 63837 72413,71946,72128
 4.0000e-001 72226 -2.4441e+000  1.2332e+001 -6.1633e-001 63837 72024,72076,72050
 4.0000e-001 72203 -5.6080e+000  7.5027e+000  2.0767e+000 63837 72024,72102,72076
 4.0000e-001 72180 -6.7870e+000  3.3390e+001  9.1847e+000 63837 71946,72154,72128
 4.0000e-001 72367 -6.7649e+000  2.0845e+001  1.6456e+001 63837 72024,71972,72341
 4.0000e-001 72390 -9.7448e+000  1.8473e+001  8.5191e+000 63837 72024,72341,72102
 4.0000e-001 72439 -2.1874e+001  1.5201e+001  7.5219e+000 63837 72102,72341,72413
 4.0000e-001 72462 -2.9715e+001  2.3136e+001  8.6917e+000 63837 72102,72413,72128
 4.0000e-001 72791  1.3574e+001  3.9666e+001  1.1645e+001 63383 72592,72696,72670
 4.0000e-001 72768  2.0832e+001  6.3245e+001  6.7137e+000 63383 72566,72696,72592
 4.0000e-001 72745  1.1051e+001  3.5179e+001  8.6001e+000 63383 72592,72670,72618
 4.0000e-001 72722  9.5903e+000  2.6183e+001  1.2551e+001 63383 72618,72670,72644
 4.0000e-001 73297 -6.6811e+000  1.4839e+001 -2.0752e+000 63185 73000,73156,73130
 4.0000e-001 73274  5.4337e+000  4.4718e+001 -9.2076e+000 63185 72974,73156,73000
 4.0000e-001 73251 -1.4240e+000  1.5034e+001 -6.5685e-001 63185 73000,73052,73026
 4.0000e-001 73228  7.4028e+000  1.7870e+001 -2.3965e+000 63185 73000,73130,73052
 4.0000e-001 73205  4.4679e+000  2.1039e+001  6.5639e+000 63185 73052,73130,73104
 4.0000e-001 73182  2.8841e+000  2.0703e+001  6.1206e+000 63185 73052,73104,73078
 4.0000e-001 73545 -5.8467e+000  4.8668e+001 -8.2691e+000 62781 73568,73398,73372
 4.0000e-001 73522 -1.4064e+001  2.6971e+001 -9.7486e+000 62781 73568,73372,73346
 4.0000e-001 73499 -1.0030e-001  3.0884e+001  1.0614e+000 62781 73640,73320,73424
 4.0000e-001 73476 -1.0368e+001  1.9438e+001  5.4619e+000 62781 73320,73450,73424
 4.0000e-001 73594 -1.4050e+001  2.9738e+001 -2.9670e+000 62781 73424,73398,73568
 4.0000e-001 73617 -4.0194e+000  2.8522e+001 -1.2279e+000 62781 73640,73424,73568
 4.0000e-001 73666 -1.8068e+000  2.7600e+001 -3.0971e+000 62781 73346,73320,73640
 4.0000e-001 73689 -3.9875e+000  2.5010e+001 -5.2008e+000 62781 73346,73640,73568
 4.0000e-001 74035 -1.3983e-001  4.0969e+001 -5.6996e+000 62363 74058,73868,73842
 4.0000e-001 74012  6.0626e+000  3.9977e+001 -3.2997e+000 62363 74130,74058,73842
 4.0000e-001 73989  4.3125e+000  3.9462e+001 -3.0374e+000 62363 74130,73842,73816
 4.0000e-001 73966  2.2130e+001  4.4719e+001 -2.2040e+001 62363 74202,73764,73894
 4.0000e-001 73943  4.6078e+001  3.3643e+001 -2.1308e+001 62363 73712,73894,73764
 4.0000e-001 73920  4.3129e+001  8.0032e+000 -1.8796e+001 62363 73712,73764,73738
 4.0000e-001 74084  1.2305e+001  3.9219e+001 -1.6442e+000 62363 73894,73868,74058
 4.0000e-001 74107  2.8343e+001  4.2234e+001 -1.2186e+001 62363 74202,73894,74058
 4.0000e-001 74156  8.4207e+000  4.0899e+001 -9.9471e+000 62363 73790,74058,74130
 4.0000e-001 74179 -4.1795e-001  3.7437e+001 -1.0358e+001 62363 73790,74130,73816
 4.0000e-001 74228  1.0997e+001  3.9990e+001 -1.9974e+001 62363 73790,73764,74202
 4.0000e-001 74251  1.2109e+001  3.5063e+001 -9.7021e+000 62363 73790,74202,74058
 4.0000e-001 74403 -3.3465e+001  4.7151e+001 -4.6067e+000 62115 74426,74302,74276
 4.0000e-001 74380 -4.1754e+001  5.0467e+001 -7.8715e+000 62115 74426,74276,74354
 4.0000e-001 74452 -2.6969e+001  4.7124e+001 -5.4979e+000 62115 74328,74302,74426
 4.0000e-001 74475 -3.4253e+001  5.1164e+001 -9.1073e+000 62115 74328,74426,74354
 4.0000e-001 74578 -9.8219e+000  3.0482e+001  1.5533e+000 61825 74500,74552,74526
 4.0000e-001 74982 -1.4557e+001  5.4566e+001 -8.0205e+000 61513 75005,74734,74708
 4.0000e-001 74959  7.8105e+000  8.0983e+001 -1.8231e+001 61513 75005,74708,74864
 4.0000e-001 74936  2.2957e+001  5.4559e+001 -8.4951e+000 61513 75077,74812,74734
 4.0000e-001 74913  5.9040e-002  3.2912e+001  3.5050e+000 61513 74734,74786,74760
 4.0000e-001 74890  1.6765e+000  3.6037e+001  2.7032e+000 61513 74734,74812,74786
 4.0000e-001 75031  1.9517e+000  5.1849e+001 -4.1466e+000 61513 75077,74734,75005
 4.0000e-001 75054 -1.5416e+001  4.4540e+001 -2.9833e+001 61513 74838,75005,74864
 4.0000e-001 75103  3.3402e+001  5.4717e+001 -2.8869e+001 61513 74838,74812,75077
 4.0000e-001 75126  2.0316e+001  5.7122e+001 -2.4345e+001 61513 74838,75077,75005
 4.0000e-001 75553 -1.1617e+001  6.2218e+000 -8.1465e+000 61060 75576,75360,75308
 4.0000e-001 75530 -1.1473e+001  1.1031e+001 -7.9980e+000 61060 75576,75308,75230
 4.0000e-001 75507 -1.6849e+001 -1.6833e+001 -3.3323e+001 61060 75308,75360,75334
 4.0000e-001 75484 -1.6215e+001  2.2609e+000 -3.8336e+000 61060 75230,75308,75256
 4.0000e-001 75461  9.1364e+000  1.1636e+000 -6.8391e-001 61060 75256,75308,75282
 4.0000e-001 75438 -6.4153e+000  1.7099e+001 -1.7316e+001 61060 75360,75412,75386
 4.0000e-001 75602 -1.5705e+001  1.0250e+001 -1.1038e+001 61060 75412,75360,75576
 4.0000e-001 75625 -1.3003e+001  1.8852e+001 -9.8965e+000 61060 75412,75576,75230
 4.0000e-001 76052  4.1835e+001  2.5996e+001 -4.9089e+000 60442 75755,75859,75833
 4.0000e-001 76029  2.9188e+001  2.2672e+001 -6.1071e+000 60442 75729,75859,75755
 4.0000e-001 76006  3.6801e+001  3.6941e+001  4.6805e+000 60442 75755,75833,75807
 4.0000e-001 75983  2.9173e+001  1.4547e+001 -1.1993e+000 60442 75755,75807,75781
 4.0000e-001 75960  3.9068e+001  1.6713e+001 -6.1325e+000 60442 75729,75911,75859
 4.0000e-001 75937  3.1971e+001  1.5534e+000 -7.9821e+000 60442 75859,75911,75885
 4.0000e-001 76430  1.2417e+001  3.1069e+001 -2.9977e+000 59788 76453,76286,76234
 4.0000e-001 76407  1.6280e+001  3.7093e+001  1.3478e-001 59788 76453,76234,76182
 4.0000e-001 76384  1.1932e+001  3.3770e+001 -4.2104e+000 59788 76525,76156,76312
 4.0000e-001 76361  1.5514e+001  4.4503e+001 -5.1611e-001 59788 76182,76234,76208
 4.0000e-001 76338  1.9231e+001  3.1777e+001 -3.2199e+000 59788 76234,76286,76260
 4.0000e-001 76479  8.5393e+000  3.3953e+001 -6.1753e+000 59788 76312,76286,76453
 4.0000e-001 76502  1.1597e+001  3.4844e+001 -3.9196e+000 59788 76525,76312,76453
 4.0000e-001 76551  1.2277e+001  3.5183e+001 -4.3339e+000 59788 76182,76156,76525
 4.0000e-001 76574  1.2011e+001  3.5533e+001 -4.1017e+000 59788 76182,76525,76453
 4.0000e-001 77031  2.1156e+000  2.3103e+001  6.3812e+000 59448 76835,76887,76861
 4.0000e-001 77008 -3.8704e+000  1.8545e+001  2.2239e+000 59448 76835,76913,76887
 4.0000e-001 76985 -3.6791e-001  1.9473e+001 -8.1951e-001 59448 76809,76913,76835
 4.0000e-001 76962  7.4165e+000  2.9068e+001  3.2485e+000 59448 76757,76913,76809
 4.0000e-001 76939  2.7783e-001  2.1849e+001  6.2644e+000 59448 76757,76809,76783
 4.0000e-001 77537 -6.9453e+000  4.4435e+001 -1.1096e+000 58994 77560,77344,77292
 4.0000e-001 77514  9.3106e+000  3.8183e+001  9.9612e-001 58994 77560,77292,77240
 4.0000e-001 77491 -1.5852e+001  2.6514e+001  2.0676e+000 58994 77632,77214,77370
 4.0000e-001 77468  1.0235e+001  5.2435e+001 -8.8520e+000 58994 77292,77344,77318
 4.0000e-001 77445 -9.5753e-001  4.7756e+000  5.4455e+000 58994 77214,77396,77370
 4.0000e-001 77422  1.5208e+001  5.3798e+001  2.7158e+000 58994 77240,77292,77266
 4.0000e-001 77586 -3.7351e-001  4.0149e+001 -1.1600e+000 58994 77370,77344,77560
 4.0000e-001 77609 -4.6391e+000  3.2560e+001 -4.5217e+000 58994 77632,77370,77560
 4.0000e-001 77658 -2.1301e+001  2.2159e+001  1.3533e+001 58994 77240,77214,77632
 4.0000e-001 77681 -1.1718e+001  2.3063e+001  7.8378e+000 58994 77240,77632,77560
 4.0000e-001 78138 -5.8400e+000  3.9560e+000  6.9458e+000 58440 77864,77994,77890
 4.0000e-001 78115  1.6059e+000  9.2645e+000  4.5460e+000 58440 77864,78020,77994
 4.0000e-001 78092 -4.3671e+000  5.6920e+000  9.2073e+000 58440 77942,77994,77968
 4.0000e-001 78069 -9.7228e+000  5.8564e-001  5.0294e+000 58440 77890,77994,77942
 4.0000e-001 78046 -2.7917e+001 -1.2621e+000  1.7390e+001 58440 77890,77942,77916
 4.0000e-001 78467 -7.0525e+000  5.4013e+001 -7.1782e+000 57928 78562,78490,78346
 4.0000e-001 78444  5.0212e+000  4.5596e+001 -4.0105e+000 57928 78490,78294,78268
 4.0000e-001 78421 -6.7650e+000  4.9622e+001 -6.2719e+000 57928 78562,78346,78320
 4.0000e-001 78398  4.2337e+000  5.7135e+001  5.7781e+000 57928 78242,78372,78268
 4.0000e-001 78516  6.3170e+000  8.4743e+001  4.8905e+000 57928 78372,78346,78490
 4.0000e-001 78539 -6.2885e+000  4.4621e+001  1.2201e+000 57928 78372,78490,78268
 4.0000e-001 78588  3.7893e+000  4.4894e+001 -1.0680e+000 57928 78294,78490,78562
 4.0000e-001 78611 -3.7154e+000  2.8316e+001 -3.7929e+000 57928 78294,78562,78320
 4.0000e-001 79068  1.3761e+001  3.4204e+001  8.6829e+000 57467 78794,78924,78820
 4.0000e-001 79045  8.4044e+000  3.2619e+001  1.0968e+001 57467 78794,78950,78924
 4.0000e-001 79022 -6.9010e+000  2.4058e+001 -3.1130e+000 57467 78820,78898,78872
 4.0000e-001 78999  1.1575e+001  4.1469e+001  6.0541e+000 57467 78820,78924,78898
 4.0000e-001 78976  6.3883e+000  2.9154e+001 -3.1023e+000 57467 78820,78872,78846
 4.0000e-001 79446  8.1250e+000  2.3246e+001 -9.5690e+000 57120 79172,79302,79250
 4.0000e-001 79423  1.4357e+001  2.6500e+001 -1.9946e+001 57120 79172,79328,79302
 4.0000e-001 79400  2.3252e+000  1.8790e+001 -7.4990e+000 57120 79172,79250,79198
 4.0000e-001 79377  4.0621e+001  1.9997e+001  2.3598e+000 57120 79250,79302,79276
 4.0000e-001 79354  1.9081e+001  4.2885e+001  8.3769e+000 57120 79198,79250,79224
 4.0000e-001 79952  9.1318e+000  2.1117e+001 -2.5956e+000 56773 79629,79785,79655
 4.0000e-001 79929 -1.9754e+000  1.8736e+001 -5.0551e+000 56773 79629,79811,79785
 4.0000e-001 79906  7.2575e+000  2.1718e+001 -2.4814e+000 56773 79655,79733,79681
 4.0000e-001 79883  7.7987e+000  2.1526e+001 -2.3872e+000 56773 79655,79785,79733
 4.0000e-001 79860  7.1807e+000  2.7399e+001  9.2426e-001 56773 79733,79785,79759
 4.0000e-001 79837 -2.3636e+000  1.7390e+001 -5.3358e+000 56773 79681,79733,79707
 4.0000e-001 80281  4.1559e+001  1.2968e+000  2.1404e+001 56319 80108,80160,80134
 4.0000e-001 80258  2.6982e+001  1.3680e+001  1.9313e+001 56319 80056,80160,80108
 4.0000e-001 80235  2.4159e+001  1.0429e+001  1.2194e+001 56319 80056,80186,80160
 4.0000e-001 80212  2.2361e+001  2.8747e+000  2.0873e+001 56319 80056,80108,80082
 4.0000e-001 80738 -3.3613e+000  2.1769e+001 -6.1795e+000 55957 80516,80620,80594
 4.0000e-001 80715 -1.9399e+000  1.8506e+001 -6.7403e+000 55957 80464,80620,80516
 4.0000e-001 80692 -1.8489e+000  2.0803e+001 -4.5843e+000 55957 80761,80568,80542
 4.0000e-001 80669 -1.6528e+000  2.1927e+001 -4.2058e+000 55957 80761,80542,80516
 4.0000e-001 80646 -3.5524e+000  1.4682e+001 -8.5461e+000 55957 80464,80516,80490
 4.0000e-001 80787 -2.5836e+000  2.1512e+001 -5.2809e+000 55957 80594,80568,80761
 4.0000e-001 80810 -2.3462e+000  2.2690e+001 -4.9312e+000 55957 80594,80761,80516
 4.0000e-001 81210 -1.0363e+001  1.8178e+001  9.4530e+000 55317 80936,80988,80962
 4.0000e-001 81187 -2.1526e+001  5.5628e+000  1.1111e+000 55317 80936,81066,80988
 4.0000e-001 81164 -1.9942e+001  8.5776e+000 -3.8439e-002 55317 80936,81092,81066
 4.0000e-001 81141 -1.1541e+001  1.0193e+001  2.5793e+000 55317 80988,81066,81014
 4.0000e-001 81118 -2.7815e+001 -2.5100e+000 -3.0482e+000 55317 81014,81066,81040
 4.0000e-001 81539 -7.8226e+000  3.0581e+001  4.2324e+000 54913 81340,81418,81392
 4.0000e-001 81516  3.3384e+000  3.0556e+000  9.9959e+000 54913 81340,81444,81418
 4.0000e-001 81493  1.7823e+001  1.2702e+001  2.1072e+001 54913 81314,81444,81340
 4.0000e-001 81470  3.6555e+001  1.6707e+001  1.5976e+001 54913 81340,81392,81366
 4.0000e-001 81787  2.1231e+001  2.0334e+001  7.2885e+000 54601 81588,81692,81640
 4.0000e-001 81764  4.2397e+001  2.5432e+001  1.2465e+001 54601 81562,81692,81588
 4.0000e-001 81741  3.8755e+001  2.5121e+001  1.7174e+001 54601 81588,81640,81614
 4.0000e-001 81718  2.7815e+001  4.5703e+001  1.1984e+001 54601 81640,81692,81666
 4.0000e-001 82344  9.0675e+000  2.6186e+001  2.0827e+000 54090 81998,82102,82076
 4.0000e-001 82321  3.3175e+000  2.3887e+001 -9.1089e-001 54090 81998,82154,82102
 4.0000e-001 82298  3.8088e+000  2.1691e+001 -1.4835e+000 54090 81972,82154,81998
 4.0000e-001 82275  6.3807e+000  1.9515e+001  4.4793e+000 54090 81998,82076,82024
 4.0000e-001 82252  1.8254e+000  2.8978e+001 -2.2405e+001 54090 81972,82180,82154
 4.0000e-001 82229  1.7767e+001  3.5151e+001 -1.0080e+001 54090 82102,82154,82128
 4.0000e-001 82206 -4.1706e+000  1.4040e+001  6.4740e+000 54090 82024,82076,82050
 4.0000e-001 82722  1.0885e+001  1.9695e+001 -2.4659e+000 53579 82500,82578,82552
 4.0000e-001 82699  1.5853e+001  2.7763e+001 -2.3466e-001 53579 82448,82578,82500
 4.0000e-001 82676  6.7703e+000  1.3501e+001  3.7624e+000 53579 82448,82500,82474
 4.0000e-001 82653  1.2554e+001  2.7812e+001 -6.1505e+000 53579 82448,82604,82578
 4.0000e-001 82630  9.7296e+000  1.4839e+001 -6.1269e+000 53579 82500,82552,82526
 4.0000e-001 83356  1.0956e+001  1.3740e+001 -1.3531e+000 53189 83379,83088,83036
 4.0000e-001 83333  1.0467e+001  1.6021e+001 -1.6605e+000 53189 83379,83036,82984
 4.0000e-001 83310  1.2869e+000  9.8208e+000 -1.3144e+001 53189 82984,83192,83166
 4.0000e-001 83287  9.4604e+000  1.3215e+001 -1.2478e+000 53189 83036,83088,83062
 4.0000e-001 83264  8.0328e+000  1.8651e+001  6.4351e-001 53189 82984,83036,83010
 4.0000e-001 83241  1.7688e+001  9.9100e+000 -1.4772e+000 53189 83114,83166,83140
 4.0000e-001 83218  1.1701e+001  1.1309e+001 -4.0210e+000 53189 83088,83166,83114
 4.0000e-001 83405  1.1300e+001  1.5242e+001 -2.2375e+000 53189 83166,83088,83379
 4.0000e-001 83428  1.0395e+001  1.7209e+001 -2.3872e+000 53189 83166,83379,82984
 4.0000e-001 83725 -9.3452e+000 -7.6827e+000 -3.6946e-001 52585 83748,83529,83503
 4.0000e-001 83702 -1.4487e+001 -9.2129e+000 -2.6899e+000 52585 83820,83748,83503
 4.0000e-001 83679 -1.6478e+001 -2.1501e+000  4.2318e-001 52585 83820,83503,83477
 4.0000e-001 83656 -2.2114e+001  2.7573e+000  1.8362e+000 52585 83477,83607,83581
 4.0000e-001 83633 -1.9917e+001  1.8308e+000 -3.4539e+000 52585 83451,83607,83477
 4.0000e-001 83774 -1.0415e+001 -1.1822e+001 -3.4277e+000 52585 83555,83529,83748
 4.0000e-001 83797 -1.8615e+001 -6.1292e+000 -6.0847e+000 52585 83555,83748,83581
 4.0000e-001 83846 -1.2690e+001  4.5084e-001 -3.0873e+000 52585 83581,83748,83820
 4.0000e-001 83869 -1.6079e+001  5.7471e+000 -2.0487e-001 52585 83581,83820,83477
 4.0000e-001 84200  1.1936e+001  1.6046e+001 -6.4465e+000 52024 84001,84105,84079
 4.0000e-001 84177 -9.0121e+000  1.0143e+001 -3.8516e+000 52024 83975,84105,84001
 4.0000e-001 84154 -8.1521e-002  7.3773e+000 -2.4530e+000 52024 84001,84079,84053
 4.0000e-001 84131  1.3192e+000  1.1677e+001  2.0798e+000 52024 84001,84053,84027
 4.0000e-001 84399  6.4892e+000 -4.7776e-001 -1.3032e+000 51470 84422,84275,84249
 4.0000e-001 84376  1.8926e+001 -6.4187e-001  1.9111e+000 51470 84422,84249,84223
 4.0000e-001 84353 -5.4433e+000  7.0951e-002  8.9177e-002 51470 84275,84327,84301
 4.0000e-001 84448 -4.3917e+000  2.7370e+000  6.0289e-001 51470 84327,84275,84422
 4.0000e-001 84471  8.7159e+000  2.8913e+000  2.7885e+000 51470 84327,84422,84223
 4.0000e-001 84753  8.3773e+000  1.5320e+001  3.1452e+000 51073 84603,84655,84629
 4.0000e-001 84730  6.2331e+000  1.4099e+001  2.6384e+000 51073 84776,84655,84603
 4.0000e-001 84707  7.9843e+000  1.5915e+001  1.0138e+000 51073 84577,84681,84655
 4.0000e-001 84802  7.2101e-002  1.0510e+001  4.7728e+000 51073 84577,84655,84776
 4.0000e-001 85178  2.9077e+000  2.2509e+001 -7.0863e+000 50519 85201,85008,84982
 4.0000e-001 85155  1.2816e+000  1.8584e+001 -6.9477e+000 50519 85273,85201,84982
 4.0000e-001 85132  1.6806e+000  1.7891e+001 -7.2940e+000 50519 85273,84982,84930
 4.0000e-001 85109 -6.8123e+000  1.6482e+001 -5.1897e+000 50519 84930,84982,84956
 4.0000e-001 85086  1.2865e-001  2.0943e+001 -6.6296e-001 50519 85008,85060,85034
 4.0000e-001 85227  3.3171e+000  2.1496e+001 -3.4414e+000 50519 85060,85008,85201
 4.0000e-001 85250  2.6550e+000  1.9099e+001 -3.9534e+000 50519 85060,85201,84904
 4.0000e-001 85299  2.4254e+000  2.0252e+001 -4.5474e+000 50519 84904,85201,85273
 4.0000e-001 85322  9.4177e-001  1.4485e+001 -4.1247e+000 50519 84904,85273,84930
 4.0000e-001 85958 -4.3426e+000  2.3872e+001  2.5408e+000 50093 85981,85768,85716
 4.0000e-001 85935 -7.3188e+000  1.6879e+001  2.3081e+000 50093 85981,85716,85612
 4.0000e-001 85912 -1.1978e+000  9.8467e+000 -5.2331e-001 50093 85612,85716,85664
 4.0000e-001 85889 -1.0779e+001  2.0622e+001  4.9438e-001 50093 85716,85768,85742
 4.0000e-001 85866  5.0830e-001  1.2948e+001 -3.4405e+000 50093 85664,85716,85690
 4.0000e-001 85843 -6.7272e+000  1.0780e+001  1.1198e+001 50093 85586,85794,85612
 4.0000e-001 85820  4.3659e+000  4.9911e+000  2.7850e+000 50093 85612,85664,85638
 4.0000e-001 86007  1.8985e+000  3.0086e+001  1.2482e+001 50093 85794,85768,85981
 4.0000e-001 86030 -7.3692e+000  9.6470e+000  9.7486e+000 50093 85794,85981,85612
 4.0000e-001 86131 -1.1451e+001  2.5257e+001 -9.9625e+000 49895 86053,86105,86079
 4.0000e-001 86639  1.4990e+001  5.4130e+000  5.6080e+000 49391 86662,86394,86368
 4.0000e-001 86616  1.9935e+001  1.4187e+001  7.7880e+000 49391 86662,86368,86342
 4.0000e-001 86593  5.7062e+000  1.2547e+001 -8.4952e-001 49391 86342,86498,86472
 4.0000e-001 86570 -8.5859e-001  1.5108e+001 -1.5067e+000 49391 86316,86498,86342
 4.0000e-001 86547  6.9714e+000  7.4316e+000  9.7687e-001 49391 86394,86472,86446
 4.0000e-001 86524  1.0534e+001  6.3150e+000  1.0311e+000 49391 86394,86446,86420
 4.0000e-001 86688  9.6980e+000  1.3724e+001  1.5789e+000 49391 86472,86394,86662
 4.0000e-001 86711  1.3414e+001  1.8082e+001  3.1615e+000 49391 86472,86662,86342
 4.0000e-001 87089  3.5407e+001  1.3165e+001  3.2096e-002 48987 86815,86919,86867
 4.0000e-001 87066  1.9336e+001  1.0872e+001  4.6380e-001 48987 86815,86971,86919
 4.0000e-001 87043  2.7101e+001 -9.8682e-002 -8.3117e+000 48987 86867,86919,86893
 4.0000e-001 87020  2.9662e+001  1.3859e-001 -1.4188e+000 48987 86815,86867,86841
 4.0000e-001 86997  2.6831e+001  2.6163e+001 -1.9128e+000 48987 86919,86971,86945
 4.0000e-001 87467  2.7543e+001  1.9079e+001 -8.5827e+000 48540 87490,87245,87219
 4.0000e-001 87444  9.4861e+000  1.7607e+001 -5.4794e+000 48540 87562,87490,87219
 4.0000e-001 87421  1.5659e+001  2.0025e+001 -2.6160e+000 48540 87562,87219,87349
 4.0000e-001 87398 -7.3342e+000  2.9504e+001 -1.8748e+001 48540 87245,87297,87271
 4.0000e-001 87375  1.9267e+001  2.5417e+001 -5.0833e-001 48540 87193,87349,87219
 4.0000e-001 87516  9.7318e+000  1.0096e+001 -1.1650e+001 48540 87297,87245,87490
 4.0000e-001 87539  6.3661e+000  1.8123e+001 -2.6041e+000 48540 87297,87490,87323
 4.0000e-001 87588  1.5688e+001  2.2354e+001 -1.6677e+000 48540 87323,87490,87562
 4.0000e-001 87611  1.8427e+001  2.0569e+001  3.7546e-001 48540 87323,87562,87349
 4.0000e-001 87810  1.7039e+000  4.1069e+001 -5.2588e-001 48136 87660,87712,87686
 4.0000e-001 87787 -1.0094e+001  1.2007e+001  8.6398e-001 48136 87660,87738,87712
 4.0000e-001 87764 -2.5898e+000  8.9868e+000  7.8274e+000 48136 87634,87738,87660
 4.0000e-001 88205 -3.7165e+000 -7.1255e-001 -5.1482e+000 47210 88300,88228,87937
 4.0000e-001 88182 -1.7407e+000 -6.8037e+000 -5.5290e+000 47210 88228,87833,88041
 4.0000e-001 88159 -2.7534e-001  3.4967e+000 -8.9886e+000 47210 88300,87937,87911
 4.0000e-001 88136  7.2638e+000 -1.5484e+000 -1.0281e+001 47210 87833,87911,87859
 4.0000e-001 88113 -2.5824e+001  9.4405e-001 -2.7583e+000 47210 87937,87989,87963
 4.0000e-001 88090 -7.8533e+000  5.9852e-001  8.3196e-001 47210 87989,88041,88015
 4.0000e-001 88067  6.8073e+000  3.6918e-001  1.2079e-001 47210 87859,87911,87885
 4.0000e-001 88254 -4.0210e+000  1.9166e+000 -5.9590e+000 47210 87989,87937,88228
 4.0000e-001 88277 -8.7229e+000 -6.6824e-002 -5.0941e+000 47210 87989,88228,88041
 4.0000e-001 88326  5.0349e+000 -1.0473e-002 -8.5206e+000 47210 87833,88228,88300
 4.0000e-001 88349  5.4107e+000  4.6217e-001 -1.1801e+001 47210 87833,88300,87911
 4.0000e-001 88780  1.4537e+001  2.4488e+001  1.4467e+001 46642 88803,88509,88483
 4.0000e-001 88757  8.9985e+000  1.8784e+001  5.5671e+000 46642 88803,88483,88639
 4.0000e-001 88734  1.1233e+001  1.3423e+001  1.0082e+001 46642 88875,88561,88509
 4.0000e-001 88711  2.4619e+000  1.0781e+001  1.1438e+001 46642 88509,88561,88535
 4.0000e-001 88688  6.1823e-001  1.5484e+001  7.3522e-001 46642 88457,88639,88483
 4.0000e-001 88665  1.2994e+001  3.1246e+000  2.8148e+000 46642 88561,88613,88587
 4.0000e-001 88829  7.7867e+000  1.4932e+001  9.7360e+000 46642 88875,88509,88803
 4.0000e-001 88852  8.6603e+000  7.7774e+000  2.3604e+000 46642 88613,88803,88639
 4.0000e-001 88901  1.3510e+001  1.4906e+001  9.4435e+000 46642 88613,88561,88875
 4.0000e-001 88924  1.1743e+001  1.7764e+001  8.5004e+000 46642 88613,88875,88803
 4.0000e-001 89253  2.2272e+000 -5.0597e+000  6.3301e+000 46444 89080,89158,89132
 4.0000e-001 89230  2.1369e+000 -4.9953e+000  5.7083e+000 46444 89028,89158,89080
 4.0000e-001 89207 -6.2229e+000 -1.8419e+001  1.0690e+001 46444 89028,89080,89054
 4.0000e-001 89184  2.5320e+000 -7.9182e+000  3.6569e+000 46444 89080,89132,89106
 4.0000e-001 89631  9.0094e+000  9.5347e+000 -7.7600e+000 46040 89383,89461,89435
 4.0000e-001 89608  1.0566e+001  1.7650e+001  3.4245e-001 46040 89383,89487,89461
 4.0000e-001 89585  2.3403e+001  1.3422e+001 -3.8571e+000 46040 89383,89435,89409
 4.0000e-001 89562  1.4338e+001  1.6507e+001  7.6047e-001 46040 89383,89513,89487
 4.0000e-001 89539  1.2028e+001  1.5713e+001  2.7462e-001 46040 89357,89513,89383
 4.0000e-001 90009 -1.1657e+001  7.9790e+000  2.0857e+000 45636 89813,89891,89839
 4.0000e-001 89986 -9.6954e+000  4.9535e+000 -2.9984e+000 45636 89787,89891,89813
 4.0000e-001 89963 -9.4238e+000  9.7966e+000  1.2983e+000 45636 89839,89891,89865
 4.0000e-001 89940 -5.1094e+000  1.2909e+001 -1.0743e+000 45636 89735,89891,89787
 4.0000e-001 89917 -3.2654e+000  1.2707e+001 -2.6884e+000 45636 89735,89787,89761
 4.0000e-001 90208 -1.1148e+001  3.3726e+000 -1.1295e+000 45175 90231,90058,90032
 4.0000e-001 90185 -1.3335e+001  2.3488e+000 -8.1855e-001 45175 90231,90032,90136
 4.0000e-001 90162 -1.2149e+000 -1.0954e-001 -2.3757e-001 45175 90058,90110,90084
 4.0000e-001 90257 -9.5258e+000  4.0122e+000 -3.6084e+000 45175 90110,90058,90231
 4.0000e-001 90280 -1.3404e+001  2.2284e+000 -3.1777e+000 45175 90110,90231,90136
 4.0000e-001 90528 -3.8156e+000  1.7917e+001  8.2510e+000 44513 90695,90551,90407
 4.0000e-001 90505  2.7176e+000  2.4867e+001  8.8165e+000 44513 90551,90355,90329
 4.0000e-001 90482 -2.3715e+000  1.0270e+001  8.9954e-001 44513 90623,90303,90433
 4.0000e-001 90459 -3.0193e+000  1.2705e+001  4.3026e+000 44513 90695,90407,90381
 4.0000e-001 90577  4.8652e+000  2.1467e+001  9.1411e+000 44513 90433,90407,90551
 4.0000e-001 90600  1.9854e+000  1.8216e+001  3.0604e+000 44513 90623,90433,90551
 4.0000e-001 90649  1.1712e+000  2.0121e+001  3.2452e+000 44513 90329,90303,90623
 4.0000e-001 90672 -3.8166e-001  2.1391e+001  3.4949e+000 44513 90329,90623,90551
 4.0000e-001 90721 -1.7243e+000  9.6693e+000  1.0450e+001 44513 90355,90551,90695
 4.0000e-001 90744 -5.1587e-003  5.1044e+000  8.6002e+000 44513 90355,90695,90381
 4.0000e-001 91077  3.1807e+001  3.3631e+001 -9.6621e+000 44059 91100,90930,90904
 4.0000e-001 91054  2.7832e+001  3.2065e+001 -9.7075e+000 44059 91100,90904,90982
 4.0000e-001 91031  2.8443e+001  3.0801e+001 -9.3597e+000 44059 90878,90982,90904
 4.0000e-001 91008  4.5206e+001  2.7948e+001 -1.6349e+001 44059 90852,90982,90878
 4.0000e-001 91126  2.8190e+001  3.5784e+001 -1.1703e+001 44059 91172,91100,90956
 4.0000e-001 91149  3.2664e+001  4.4282e+001 -6.1430e+000 44059 90956,91100,90982
 4.0000e-001 91198  2.7518e+001  2.1607e+001 -9.2208e+000 44059 90930,91100,91172
 4.0000e-001 91677 -5.1420e+000  1.0544e+001 -2.0741e+000 43549 91455,91533,91481
 4.0000e-001 91654 -1.0160e+001  4.1743e+000 -4.5250e+000 43549 91429,91533,91455
 4.0000e-001 91631  7.8585e-001  1.7545e+001 -9.0666e+000 43549 91481,91533,91507
 4.0000e-001 91608 -1.9197e+001  3.8929e-001 -2.3012e+000 43549 91429,91559,91533
 4.0000e-001 91585 -1.4957e+001 -1.6327e+001  6.8767e+000 43549 91403,91559,91429
 4.0000e-001 92006  9.7379e+000  2.6847e+001  2.3446e+000 43059 91781,91885,91807
 4.0000e-001 91983  7.8678e+000  2.4268e+001  5.2465e+000 43059 91781,91911,91885
 4.0000e-001 91960 -6.6282e+000  2.0676e+001  4.3855e+000 43059 91807,91885,91833
 4.0000e-001 91937  1.1951e+001  2.8895e+001  5.8317e+000 43059 91833,91885,91859
 4.0000e-001 92561  1.2316e+001  3.1455e+001  2.1759e+000 42598 92584,92215,92189
 4.0000e-001 92538  5.4762e+000  3.9415e+001  8.1179e+000 42598 92656,92584,92189
 4.0000e-001 92515  5.2919e+000  4.4376e+001  5.6805e+000 42598 92656,92189,92397
 4.0000e-001 92492 -3.3677e+001  2.5019e+001  9.3778e-001 42598 92241,92319,92293
 4.0000e-001 92469  1.1464e+000  2.5051e+001  7.2400e+000 42598 92319,92397,92371
 4.0000e-001 92446  4.3016e+000  1.9739e+001  1.3040e+001 42598 92319,92371,92345
 4.0000e-001 92423 -1.6512e+001  3.4266e+001  5.3196e+000 42598 92241,92293,92267
 4.0000e-001 92610  3.2482e-001  2.3082e+001 -3.6809e+000 42598 92241,92215,92584
 4.0000e-001 92633  3.7721e+000  3.2412e+001  6.1070e+000 42598 92241,92584,92319
 4.0000e-001 92682  5.9205e+000  3.3000e+001  7.7688e+000 42598 92319,92584,92656
 4.0000e-001 92705  3.7706e+000  3.5996e+001  6.1730e+000 42598 92319,92656,92397
 4.0000e-001 92953  1.6125e+001  5.9497e+001 -1.3520e+001 42094 92976,92806,92780
 4.0000e-001 92930  9.5128e+000  3.7929e+001 -1.3475e+001 42094 92976,92780,92754
 4.0000e-001 92907  9.3427e+000  4.1822e+001 -1.0816e+000 42094 93048,92832,92806
 4.0000e-001 92884  1.0079e+001  3.3776e+001 -6.4794e+000 42094 92728,92858,92754
 4.0000e-001 93002  1.3538e+001  4.6104e+001 -2.7805e+000 42094 93048,92806,92976
 4.0000e-001 93025  1.6218e+001  3.8258e+001 -4.1648e+000 42094 92858,92976,92754
 4.0000e-001 93074  1.6900e+001  4.0714e+001 -5.1838e+000 42094 92858,92832,93048
 4.0000e-001 93097  1.8628e+001  4.1771e+001 -5.7620e+000 42094 92858,93048,92976
 4.0000e-001 93605 -1.0630e+001  1.0657e+001 -4.8741e-001 41846 93628,93412,93386
 4.0000e-001 93582 -1.1629e+000  1.4056e+001  4.0151e+000 41846 93628,93386,93308
 4.0000e-001 93559 -9.4012e+000  2.0146e+001  6.8446e+000 41846 93700,93464,93438
 4.0000e-001 93536  1.9371e+000  1.1169e+001  2.1291e-001 41846 93308,93386,93334
 4.0000e-001 93513  1.3194e+001  5.2805e+000  3.1788e+000 41846 93334,93386,93360
 4.0000e-001 93490 -2.4935e+001  2.6147e+001  6.2669e+000 41846 93282,93464,93308
 4.0000e-001 93654 -2.1270e+001  1.6724e+001  1.6878e+000 41846 93438,93412,93628
 4.0000e-001 93677 -9.4342e+000  2.0764e+001  3.3831e+000 41846 93700,93438,93628
 4.0000e-001 93726 -1.0914e+001  1.5769e+001  6.1569e+000 41846 93308,93464,93700
 4.0000e-001 93749 -1.1550e+001  1.5016e+001  2.7255e+000 41846 93308,93700,93628
 4.0000e-001 94255 -2.1973e+000  2.4939e+001  3.4224e+000 41385 93958,94114,94088
 4.0000e-001 94232 -4.2393e+000  3.3568e+001  7.5758e+000 41385 93932,94114,93958
 4.0000e-001 94209  1.9036e+000  2.6760e+001  3.0936e+000 41385 93958,94088,94062
 4.0000e-001 94186 -5.6126e+000  1.1732e+001  7.3719e+000 41385 93958,94062,93984
 4.0000e-001 94163 -1.2343e+001  1.3351e+001  1.1733e+001 41385 93984,94062,94036
 4.0000e-001 94140 -2.1173e+001  9.8359e+000  1.3881e+001 41385 93984,94036,94010
 4.0000e-001 94476 -7.2127e+000  2.3467e+001  1.4799e+000 40881 94326,94378,94352
 4.0000e-001 94453 -1.7123e+001  2.1283e+001 -1.2651e+000 40881 94300,94378,94326
 4.0000e-001 94430 -5.7428e+000  2.6940e+001 -3.2170e+000 40881 94300,94404,94378
 4.0000e-001 94626  3.8378e+001  7.3514e+001 -8.3185e+000 40591 94649,94551,94525
 4.0000e-001 94603  1.2751e+001  4.8003e+001  7.2244e+000 40591 94781,94577,94551
 4.0000e-001 94675  1.7699e+001  4.7395e+001  1.4610e+000 40591 94781,94551,94649
 4.0000e-001 94807  2.3116e+001  4.6811e+001  3.6274e+000 40591 94499,94577,94781
 4.0000e-001 94830  2.9993e+001  5.1027e+001 -3.6167e+000 40591 94499,94781,94649
 4.0000e-001 95336  5.0398e+000  2.9816e+001 -2.0246e+001 40187 95013,95169,95039
 4.0000e-001 95313  1.4843e+001  4.2527e+001 -3.3497e+001 40187 95013,95195,95169
 4.0000e-001 95290  5.5548e+000  1.9294e+001 -1.1447e+001 40187 95039,95143,95065
 4.0000e-001 95267  1.4641e+001  2.4592e+001 -2.0024e+001 40187 95039,95169,95143
 4.0000e-001 95244  1.5724e+001  3.1516e+000 -4.7006e+000 40187 95091,95143,95117
 4.0000e-001 95221  1.2518e+001  1.1806e+001 -1.0621e+001 40187 95065,95143,95091
 4.0000e-001 95665  1.7039e+001  3.5056e+001 -3.8516e+000 39626 95466,95570,95544
 4.0000e-001 95642  2.3073e+001  5.7809e+001 -1.6970e+000 39626 95440,95570,95466
 4.0000e-001 95619  4.5411e+001  4.9467e+001  5.6585e+000 39626 95466,95544,95492
 4.0000e-001 95596  2.3074e+001  2.8174e+001 -3.2793e+000 39626 95492,95544,95518
 4.0000e-001 95913  1.8368e+001  2.0453e+001  6.3668e-001 39136 96080,95936,95766
 4.0000e-001 95890  2.2016e+001  2.8552e+001 -1.6612e+000 39136 95936,95714,95688
 4.0000e-001 95867  2.9073e+001  2.8719e+001 -9.6519e+000 39136 96008,95792,95766
 4.0000e-001 95844  1.5501e+001  1.9149e+001  1.1387e+000 39136 96080,95766,95740
 4.0000e-001 95962  2.1252e+001  3.1310e+001 -2.9300e+000 39136 96008,95766,95936
 4.0000e-001 95985  1.5422e+001  4.2534e+001 -3.3053e+000 39136 95818,95936,95688
 4.0000e-001 96034  9.9010e+000  2.0266e+001 -1.1806e+001 39136 95818,95792,96008
 4.0000e-001 96057  7.8720e+000  2.4797e+001 -5.0644e+000 39136 95818,96008,95936
 4.0000e-001 96106  1.7913e+001  2.3286e+001 -4.1878e+000 39136 95714,95936,96080
 4.0000e-001 96129  1.2448e+001  2.0612e+001 -3.2972e+000 39136 95714,96080,95740
 4.0000e-001 96350 -2.3070e+000  2.1565e+001 -2.3107e+000 38824 96200,96278,96252
 4.0000e-001 96327 -7.2866e+000  2.0310e+001 -1.8713e+000 38824 96174,96278,96200
 4.0000e-001 96304 -7.4586e+000  1.5867e+001 -1.4071e-001 38824 96200,96252,96226
 4.0000e-001 96830  7.4885e+000  2.7365e+001 -6.0014e-001 38320 97069,96536,96484
 4.0000e-001 96807  7.4579e+000  2.7615e+001 -6.4341e-001 38320 97069,96484,96853
 4.0000e-001 96784  3.3669e+000  2.8151e+001 -4.5620e+000 38320 96853,96484,96458
 4.0000e-001 96761  2.5868e+001  2.4763e+001 -1.1281e+001 38320 96925,96640,96614
 4.0000e-001 96738  6.7862e+000  1.5545e+001 -6.9917e+000 38320 96997,96666,96640
 4.0000e-001 96715  8.4457e+000  2.2386e+001  2.6942e-001 38320 97141,96588,96562
 4.0000e-001 96692  1.2771e+001  3.4326e+001 -2.9154e+000 38320 96484,96536,96510
 4.0000e-001 96879  4.5602e+000  2.4522e+001 -5.6440e-001 38320 97141,96562,96853
 4.0000e-001 96902  7.0980e+000  2.1304e+001 -6.9653e+000 38320 96925,96614,96853
 4.0000e-001 96951  9.3015e+000  1.9206e+001 -1.0448e+001 38320 96997,96640,96925
 4.0000e-001 96974  5.1521e+000  2.2656e+001 -7.8221e+000 38320 96458,96925,96853
 4.0000e-001 97023 -5.7070e+000  8.6990e+000 -7.0617e-001 38320 96458,96666,96997
 4.0000e-001 97046  2.8688e+000  1.4728e+001 -4.6891e+000 38320 96458,96997,96925
 4.0000e-001 97095  1.2753e+001  3.4221e+001 -5.3236e+000 38320 96562,96536,97069
 4.0000e-001 97118  5.9016e+000  2.8054e+001 -1.2805e+000 38320 96562,97069,96853
 4.0000e-001 97167  1.7196e+001  2.3129e+001 -5.2960e-001 38320 96614,96588,97141
 4.0000e-001 97190  1.0180e+001  2.2835e+001 -1.4527e+000 38320 96614,97141,96853
 4.0000e-001 97519  7.4104e+000  2.5589e+000 -3.3815e+000 37766 97542,97398,97372
 4.0000e-001 97496  1.2442e+001  3.8920e+000 -1.0456e-001 37766 97542,97372,97346
 4.0000e-001 97473  2.7267e+000 -1.1069e+001 -7.9454e+000 37766 97294,97424,97346
 4.0000e-001 97450  2.1439e+001  4.0951e+001 -4.2242e+000 37766 97294,97346,97320
 4.0000e-001 97568  8.9968e-001 -1.8256e+000 -6.2855e+000 37766 97424,97398,97542
 4.0000e-001 97591  8.0134e+000  1.0029e+000 -2.7247e+000 37766 97424,97542,97346
 4.0000e-001 98048 -2.8910e+000  1.2625e+001  1.3544e+000 37262 98071,97878,97852
 4.0000e-001 98025 -3.3646e+000  1.3573e+001  4.4753e-001 37262 98071,97852,97800
 4.0000e-001 98002  9.9779e-001  2.0025e+001 -1.6645e+000 37262 97800,97852,97826
 4.0000e-001 97979 -8.7989e+000  8.9824e+000 -5.6235e+000 37262 97800,97930,97904
 4.0000e-001 97956 -8.5263e+000  2.7250e+001 -4.6010e+000 37262 97774,97930,97800
 4.0000e-001 98097 -1.3700e+000  1.3311e+001  1.1480e+000 37262 97904,97878,98071
 4.0000e-001 98120 -2.6246e+000  1.4017e+001  2.6118e-001 37262 97904,98071,97800
 4.0000e-001 98449 -1.3026e+000  1.6337e+001  2.1421e+000 36950 98472,98302,98250
 4.0000e-001 98426 -4.0131e+000  1.7051e+001  2.1381e+000 36950 98472,98250,98354
 4.0000e-001 98403  2.5610e+000  1.9783e+001 -1.8212e+000 36950 98250,98302,98276
 4.0000e-001 98380 -1.1974e+001  1.6778e+001  5.8190e+000 36950 98224,98354,98250
 4.0000e-001 98498 -3.2889e+000  1.6220e+001  8.7982e-001 36950 98328,98302,98472
 4.0000e-001 98521 -5.8551e+000  1.7332e+001  1.3028e+000 36950 98328,98472,98354
 4.0000e-001 99125  1.1317e+001  1.1637e+001 -5.3228e+000 36296 98704,98756,98730
 4.0000e-001 99102  5.8031e+000  1.6467e+001 -3.4724e+000 36296 98704,98938,98756
 4.0000e-001 99079 -2.0991e+000  2.9221e+001 -5.4929e+000 36296 99148,98938,98912
 4.0000e-001 99056 -7.4584e+000  1.2595e+001 -8.9412e+000 36296 99292,99220,98782
 4.0000e-001 99033 -2.6496e+000  1.2290e+001 -4.3297e+000 36296 99148,98912,98834
 4.0000e-001 99010 -6.9466e+000  8.7080e+000 -1.0843e+001 36296 99292,98782,98756
 4.0000e-001 98987 -8.9985e-001  1.0659e+001 -7.1975e+000 36296 98834,98912,98886
 4.0000e-001 98964  8.9504e+000  4.5992e+000 -1.9048e+000 36296 98834,98886,98860
 4.0000e-001 99174 -3.2198e+000  1.5883e+001 -3.7797e+000 36296 99220,98938,99148
 4.0000e-001 99197 -3.8586e+000  6.1677e+000 -1.4097e+000 36296 98808,99148,98834
 4.0000e-001 99246 -1.3682e+001 -1.8192e+000 -2.6154e+000 36296 98808,98782,99220
 4.0000e-001 99269 -6.3362e+000  8.8834e+000 -7.1494e+000 36296 98808,99220,99148
 4.0000e-001 99318 -2.9426e+000  1.0035e+001 -6.5824e+000 36296 98938,99220,99292
 4.0000e-001 99341 -2.6052e+000  1.0407e+001 -8.0379e+000 36296 98938,99292,98756
 4.0000e-001 99719  1.5856e+000  1.7704e+001  2.4332e+000 35742 99742,99471,99601
 4.0000e-001 99696  2.5741e+000  1.5966e+001  1.6427e+000 35742 99445,99601,99471
 4.0000e-001 99673  2.3424e+000  1.9417e+001  4.4005e-001 35742 99742,99601,99575
 4.0000e-001 99650  2.2452e+000  3.4647e+001 -1.1457e+000 35742 99814,99549,99523
 4.0000e-001 99627  1.4998e+000  2.3214e+001 -3.2419e+000 35742 99471,99523,99497
 4.0000e-001 99768 -7.1364e-001  2.0236e+001 -2.2748e+000 35742 99523,99471,99742
 4.0000e-001 99791  3.2550e+000  2.9566e+001 -1.8513e+000 35742 99814,99523,99742
 4.0000e-001 99840  5.5483e+000  2.7195e+001  7.4741e-001 35742 99575,99549,99814
 4.0000e-001 99863  4.8540e+000  1.9947e+001 -4.4849e-001 35742 99575,99814,99742
 4.0000e-001 100111  2.6929e-002  1.0186e+001 -2.6484e+000 35302 100134,99990,99938
 4.0000e-001 100088 -5.0309e+000  6.3077e+000  1.3719e+000 35302 100134,99938,99912
 4.0000e-001 100065 -3.8547e+000 -8.6411e+000  7.2758e+000 35302 100206,99886,100016
 4.0000e-001 100042  1.4389e+001  1.1075e+001  1.2974e+000 35302 99938,99990,99964
 4.0000e-001 100160 -3.1046e+000  9.5698e+000  5.7368e+000 35302 100016,99990,100134
 4.0000e-001 100183 -6.9710e+000 -2.9556e+000  7.8240e+000 35302 100206,100016,100134
 4.0000e-001 100232 -5.7756e+000 -1.8797e+000  1.1982e+000 35302 99912,99886,100206
 4.0000e-001 100255 -7.0495e+000  6.7182e+000  2.5938e+000 35302 99912,100206,100134
 4.0000e-001 100586  2.9072e+001  2.0513e+001 -1.2393e+001 35012 100609,100387,100361
 4.0000e-001 100563  2.9993e+001  1.9693e+001 -1.0488e+001 35012 100609,100361,100465
 4.0000e-001 100540  2.2442e+001  1.0100e+001 -7.1713e+000 35012 100361,100491,100465
 4.0000e-001 100517  1.1720e+001  2.2728e+001 -7.8737e+000 35012 100413,100465,100439
 4.0000e-001 100635  2.6965e+001  1.9600e+001 -1.2152e+001 35012 100413,100387,100609
 4.0000e-001 100658  2.7904e+001  1.8692e+001 -1.0167e+001 35012 100413,100609,100465
 4.0000e-001 100987 -1.0008e+001  9.3007e+000 -2.3860e+001 34700 100788,100866,100814
 4.0000e-001 100964  3.4598e+001  6.2794e+000 -1.6706e+001 34700 101010,100866,100788
 4.0000e-001 100941  5.7881e+000  2.4200e+000 -9.6344e+000 34700 100762,100892,100866
 4.0000e-001 100918 -4.8519e+000  1.3318e+001  1.1977e+000 34700 100814,100866,100840
 4.0000e-001 101036  1.1694e+001  1.5752e+000 -7.9448e+000 34700 100762,100866,101010
 4.0000e-001 101493  7.0329e+000  1.1507e+001 -4.8851e-001 34132 101516,101349,101297
 4.0000e-001 101470  7.6508e+000  1.5558e+001  1.7085e-001 34132 101588,101516,101297
 4.0000e-001 101447  4.7103e+000  9.5772e+000  1.4463e+000 34132 101588,101297,101245
 4.0000e-001 101424  8.9395e+000  8.6396e+000  9.8756e-001 34132 101245,101297,101271
 4.0000e-001 101401 -6.7996e+000  1.3740e+001 -9.6765e+000 34132 101297,101349,101323
 4.0000e-001 101542  2.2664e+000  1.5184e+001  8.8204e-001 34132 101375,101349,101516
 4.0000e-001 101565  7.3343e+000  2.4981e+001  6.2175e+000 34132 101375,101516,101219
 4.0000e-001 101614  6.0765e+000  1.1392e+001  4.7418e+000 34132 101219,101516,101588
 4.0000e-001 101637  5.2588e+000  7.9731e+000  5.5293e+000 34132 101219,101588,101245
 4.0000e-001 101858 -7.1780e+000  3.1772e+001 -3.2665e+000 33720 101708,101786,101760
 4.0000e-001 101835 -3.7997e+000  3.7636e+001 -1.8706e+000 33720 101682,101786,101708
 4.0000e-001 101812  1.1478e+000  3.5709e+001 -2.0718e+000 33720 101708,101760,101734
 4.0000e-001 102128 -7.7976e+000  1.9041e+001  1.7977e+000 33130 101903,102007,101929
 4.0000e-001 102105 -4.5895e+000  2.6214e+001 -1.2227e+000 33130 101903,102033,102007
 4.0000e-001 102082 -4.2400e+000  2.4709e+001  6.0619e+000 33130 101929,102007,101955
 4.0000e-001 102059 -2.6591e+000  1.5678e+001 -1.4210e-001 33130 101955,102007,101981
 4.0000e-001 102461  9.7278e+000  3.6021e+001  1.4702e+000 32840 102236,102340,102262
 4.0000e-001 102438  1.1861e+001  2.8643e+001 -8.4825e+000 32840 102236,102366,102340
 4.0000e-001 102415  1.5414e+000  3.1960e+001  2.7978e+000 32840 102262,102340,102288
 4.0000e-001 102392  1.6951e+001  3.6055e+001  9.2704e+000 32840 102288,102340,102314
 4.0000e-001 102997  7.0448e+000  1.2464e+001 -7.6499e-001 32493 102749,102879,102853
 4.0000e-001 102974  6.0995e+000  8.9191e+000 -3.0998e+000 32493 102723,102879,102749
 4.0000e-001 102951  9.9116e+000  1.7096e+001 -5.0233e+000 32493 102749,102801,102775
 4.0000e-001 102928  8.2311e+000  1.0716e+001 -1.7470e+000 32493 102749,102853,102801
 4.0000e-001 102905  1.2576e+001  2.2446e+001 -7.4684e-001 32493 102801,102853,102827
 4.0000e-001 103454 -1.3291e+001  1.9854e+001 -2.1255e+000 32089 103206,103336,103310
 4.0000e-001 103431 -1.2697e+001  2.7553e+001 -3.0398e+000 32089 103180,103336,103206
 4.0000e-001 103408  8.6565e+000  2.7766e+001  3.0154e+000 32089 103206,103284,103258
 4.0000e-001 103385  1.0322e+001  3.0845e+001  7.1897e-001 32089 103206,103310,103284
 4.0000e-001 103362  4.0040e+000  1.7159e+001  3.8196e+000 32089 103206,103258,103232
 4.0000e-001 103783  1.6358e+001  3.0478e+001 -6.5465e+000 31742 103558,103662,103584
 4.0000e-001 103760  1.6295e+001  2.6804e+001 -1.1016e+001 31742 103558,103688,103662
 4.0000e-001 103737  1.5260e+001  2.5713e+001 -3.2883e+000 31742 103584,103662,103636
 4.0000e-001 103714  6.6708e+000  2.5736e+001  1.2423e+000 31742 103584,103636,103610
 4.0000e-001 104112  4.3287e+000  2.5933e+001 -1.1922e+000 31402 103939,103991,103965
 4.0000e-001 104089  2.7300e+000  2.4502e+001 -1.9528e+000 31402 103913,103991,103939
 4.0000e-001 104066  1.1209e+001  3.3374e+001  2.9134e+000 31402 103913,104017,103991
 4.0000e-001 104043  1.3792e+001  3.5737e+001  4.2153e+000 31402 103887,104017,103913
 4.0000e-001 104569  1.0812e+001  1.2201e+001  6.8162e+000 30998 104321,104425,104373
 4.0000e-001 104546  1.3771e+001  1.1816e+001  9.3493e+000 30998 104321,104451,104425
 4.0000e-001 104523  1.4529e+001  1.8513e+001  1.0385e+001 30998 104373,104425,104399
 4.0000e-001 104500  2.8684e+001  2.5104e+000  4.6357e+000 30998 104295,104451,104321
 4.0000e-001 104477  1.3963e+001  1.4845e+001  3.5513e+000 30998 104321,104373,104347
 4.0000e-001 104947 -7.6584e+000  5.8288e+000 -1.0513e+001 30608 104751,104803,104777
 4.0000e-001 104924 -1.2077e+001 -2.1891e+000 -1.2543e+001 30608 104725,104803,104751
 4.0000e-001 104901 -2.4554e+001 -7.8080e+000 -1.3974e+001 30608 104699,104803,104725
 4.0000e-001 104878  4.2209e+000 -6.1482e+000 -9.6801e-001 30608 104673,104803,104699
 4.0000e-001 104855  1.6382e+001  1.0268e+001 -7.3868e+000 30608 104673,104829,104803
 4.0000e-001 105276  8.7080e+000  1.1128e+001  1.7400e+000 30204 105427,105129,105077
 4.0000e-001 105253  4.6271e+000  1.1055e+000  1.0335e+000 30204 105427,105077,105051
 4.0000e-001 105230  1.0390e+001  1.9273e+000 -3.6655e+000 30204 105077,105129,105103
 4.0000e-001 105207  7.2699e+000  1.3635e+000  5.9926e+000 30204 105299,105181,105155
 4.0000e-001 105325  1.9449e+001  5.2102e+000  1.0378e+001 30204 105129,105181,105299
 4.0000e-001 105453  1.0624e+001  9.3567e+000  1.0613e+001 30204 105181,105129,105427
 4.0000e-001 105476  6.1043e+000 -1.1846e+000  1.0860e+001 30204 105181,105427,105051
 4.0000e-001 105903 -7.9594e+000  1.4363e+000  2.9323e+000 29700 105606,105762,105736
 4.0000e-001 105880 -6.2120e+000  4.4029e+000  1.0258e+001 29700 105580,105762,105606
 4.0000e-001 105857  2.5056e+000  6.7092e+000  3.5119e+000 29700 105606,105710,105632
 4.0000e-001 105834 -1.8776e+000  3.3395e+000  7.8081e-001 29700 105606,105736,105710
 4.0000e-001 105811  7.1508e+000  3.8404e+000  6.6810e-001 29700 105632,105710,105684
 4.0000e-001 105788  5.6614e+000  3.3716e-001  1.6579e-001 29700 105632,105684,105658
 4.0000e-001 106102  2.2181e+001 -4.6327e+000  6.3363e+000 29124 105978,106030,106004
 4.0000e-001 106079  4.6448e+001  4.7527e+000  1.0759e+001 29124 105926,106030,105978
 4.0000e-001 106056  4.2558e+001  2.0777e+001 -2.3226e+001 29124 105926,105978,105952
 4.0000e-001 106301 -1.6437e+000  1.3645e+001 -8.8517e-001 28712 106151,106229,106203
 4.0000e-001 106278  1.6493e+000  1.7104e+001  7.5605e-001 28712 106125,106229,106151
 4.0000e-001 106255 -4.1495e+000  1.3532e+001 -1.6721e+000 28712 106151,106203,106177
 4.0000e-001 106551  2.3470e+001  4.5422e+000  7.2909e+000 28258 106352,106404,106378
 4.0000e-001 106528  2.4902e+001  1.1126e+001 -6.7971e-001 28258 106352,106456,106404
 4.0000e-001 106505  1.6018e+001  2.2369e+001  3.5288e+000 28258 106326,106456,106352
 4.0000e-001 106482  1.2921e+001 -5.5167e+000  8.0846e+000 28258 106404,106456,106430
 4.0000e-001 107012  3.5397e+000  2.1422e+001 -2.9165e+000 27818 107035,106790,106764
 4.0000e-001 106989  4.9143e+000  2.5686e+001 -1.0741e+000 27818 107035,106764,106868
 4.0000e-001 106966 -5.1059e+000  4.6094e+001 -6.7382e+000 27818 107107,106842,106816
 4.0000e-001 106943 -3.9058e+000  1.3310e+001  4.4741e+000 27818 106738,106868,106764
 4.0000e-001 106920 -1.7835e+000  1.6925e+001  2.1171e+000 27818 106738,106894,106868
 4.0000e-001 107061  4.0131e+000  2.5279e+001 -6.5416e+000 27818 106816,106790,107035
 4.0000e-001 107084  7.3098e+000  3.5287e+001 -6.9695e+000 27818 107107,106816,107035
 4.0000e-001 107133 -2.0027e+001  3.3028e+001 -8.9780e-001 27818 106868,106842,107107
 4.0000e-001 107156 -6.2207e+000  2.1065e+001 -1.3928e+000 27818 106868,107107,107035
 4.0000e-001 107613 -9.7084e+000  2.7735e+000 -4.2104e+000 27312 107339,107469,107365
 4.0000e-001 107590  1.3971e+000  6.9266e+000 -5.6609e+000 27312 107339,107495,107469
 4.0000e-001 107567 -8.2516e+000  1.0956e+001 -1.4643e+001 27312 107391,107469,107443
 4.0000e-001 107544  4.0198e+000  5.5290e+000 -1.3642e+001 27312 107365,107469,107391
 4.0000e-001 107521 -2.3096e+001  1.1142e+001 -2.9221e+001 27312 107391,107443,107417
 4.0000e-001 107991  6.2772e+000  2.3537e+001 -1.9456e+000 26858 108086,108014,107795
 4.0000e-001 107968  7.8042e+000  2.0881e+001 -1.3364e+000 26858 108014,107717,107873
 4.0000e-001 107945  8.4870e+000  2.7442e+001 -2.8465e+000 26858 108158,108086,107795
 4.0000e-001 107922  1.1011e+001  3.2441e+001 -4.8420e+000 26858 108158,107795,107769
 4.0000e-001 107899  9.6203e+000  2.9234e+001 -4.4800e+000 26858 107821,107873,107847
 4.0000e-001 108040  8.1415e+000  2.8484e+001 -1.6363e+000 26858 107821,107795,108014
 4.0000e-001 108063  7.7122e+000  2.4232e+001 -1.1988e+000 26858 107821,108014,107873
 4.0000e-001 108112  9.3911e+000  2.4984e+001 -1.4261e+000 26858 107717,108014,108086
 4.0000e-001 108135  9.5695e+000  1.9324e+001 -1.7369e-001 26858 107717,108086,107743
 4.0000e-001 108184  1.2381e+001  2.1982e+001 -2.3557e+000 26858 107743,108086,108158
 4.0000e-001 108207  1.2363e+001  2.5170e+001 -3.0504e+000 26858 107743,108158,107769
 4.0000e-001 108634  8.8600e+000  7.3690e+000  1.1074e+001 26404 108657,108415,108363
 4.0000e-001 108611  1.3874e+001  2.1274e+001  1.3979e+001 26404 108657,108363,108337
 4.0000e-001 108588  2.1420e+000  1.3850e+001  5.6809e+000 26404 108729,108311,108467
 4.0000e-001 108565  1.8702e+001  8.9756e+000  7.0836e+000 26404 108801,108441,108415
 4.0000e-001 108542  1.4653e+001  2.0199e+001  2.0709e+000 26404 108311,108493,108467
 4.0000e-001 108519  3.1241e+001  7.0728e+000  1.1110e+001 26404 108363,108415,108389
 4.0000e-001 108683  1.4561e+001  1.2557e+001  7.7224e+000 26404 108801,108415,108657
 4.0000e-001 108706  1.3370e+001  1.4255e+001  6.7547e+000 26404 108729,108467,108657
 4.0000e-001 108755 -3.9309e+000  1.5776e+001  6.1474e+000 26404 108337,108311,108729
 4.0000e-001 108778  1.6144e+000  1.1925e+001  8.0809e+000 26404 108337,108729,108657
 4.0000e-001 108827  1.3916e+001  3.2348e+000  4.9870e+000 26404 108467,108441,108801
 4.0000e-001 108850  1.0841e+001  8.6183e+000  5.9772e+000 26404 108467,108801,108657
 4.0000e-001 109228  9.2850e+000  3.2671e+001  5.6767e+000 26064 109006,109084,109058
 4.0000e-001 109205  6.6045e+000  2.9278e+001  2.3159e+000 26064 108980,109084,109006
 4.0000e-001 109182  8.7828e+000  2.7443e+001  4.7948e+000 26064 108980,109110,109084
 4.0000e-001 109159  1.3125e+001  3.1795e+001  7.0049e+000 26064 109006,109058,109032
 4.0000e-001 109136  7.5006e+000  1.8124e+001  1.9669e+000 26064 108954,109110,108980
 4.0000e-001 109427  1.9199e+001  3.1454e+001  4.2517e+000 25660 109303,109355,109329
 4.0000e-001 109404  1.4924e+001  1.9674e+001 -2.6124e+000 25660 109277,109355,109303
 4.0000e-001 109381  4.7218e+001  1.3509e+001 -4.5974e+000 25660 109251,109355,109277
 4.0000e-001 109577 -2.2761e+000  1.4424e+001 -9.0822e+000 25306 109476,109528,109502
 4.0000e-001 109554 -1.2803e+001  1.2957e+001 -5.3213e+000 25306 109450,109528,109476
 4.0000e-001 109778 -3.9407e+000  1.7823e+001 -5.0903e-001 24944 109628,109706,109654
 4.0000e-001 109755 -5.5066e+000  2.0965e+001 -2.1623e+000 24944 109602,109706,109628
 4.0000e-001 109732 -5.3534e+000  1.6705e+001  1.4177e+000 24944 109654,109706,109680
 4.0000e-001 110126  5.4824e+000  2.0565e+001 -3.7530e+000 24440 110149,109907,109855
 4.0000e-001 110103  5.8395e+000  2.2366e+001 -4.7229e+000 24440 110149,109855,109985
 4.0000e-001 110080  4.4434e+000  1.4209e+001 -4.4695e+000 24440 109855,109907,109881
 4.0000e-001 110057  1.1746e+000  1.8007e+001 -7.4794e+000 24440 109829,109985,109855
 4.0000e-001 110034  1.1180e+001  1.2728e+001 -4.9843e+000 24440 109907,109959,109933
 4.0000e-001 110011  6.7702e+000  2.1708e+001 -1.7282e+000 24440 109803,109985,109829
 4.0000e-001 110175  5.4861e+000  1.8637e+001 -2.8098e+000 24440 109959,109907,110149
 4.0000e-001 110198  6.2792e+000  2.0454e+001 -3.9990e+000 24440 109959,110149,109985
 4.0000e-001 110301 -3.4063e+000  2.5284e+001 -1.2589e+000 24028 110223,110275,110249
 4.0000e-001 110573 -4.3845e+000  2.8292e+001 -9.5990e-001 23467 110400,110452,110426
 4.0000e-001 110550 -8.7677e+000  1.9559e+001 -2.4664e+000 23467 110374,110452,110400
 4.0000e-001 110527 -6.4912e-001  2.3034e+001 -2.6348e+000 23467 110348,110452,110374
 4.0000e-001 110504 -3.7079e+000  1.8613e+001 -1.1223e+000 23467 110348,110478,110452
 4.0000e-001 111004  3.1914e+001  2.7844e+001 -3.8597e+001 22963 111027,110733,110707
 4.0000e-001 110981  1.5979e+000  2.3192e+001 -1.2813e+001 22963 111027,110707,110681
 4.0000e-001 110958 -4.7508e+000  3.2438e+001 -2.0368e+001 22963 111099,110759,110733
 4.0000e-001 110935  1.3443e+001  3.5257e+001 -1.1184e+001 22963 111171,110863,110811
 4.0000e-001 110912 -1.7234e+001  5.0829e+001 -1.5063e+001 22963 110759,110811,110785
 4.0000e-001 110889  2.4773e+001  4.2591e+001 -2.1971e+001 22963 110811,110863,110837
 4.0000e-001 111053  7.2133e+000  3.8615e+001 -2.2563e+001 22963 111099,110733,111027
 4.0000e-001 111076  1.2027e+001  3.5633e+001 -1.1014e+001 22963 111171,110811,111027
 4.0000e-001 111125 -4.5239e+000  3.2290e+001 -1.3056e+001 22963 110811,110759,111099
 4.0000e-001 111148 -1.7899e+000  3.2825e+001 -1.3860e+001 22963 110811,111099,111027
 4.0000e-001 111197  1.0968e+001  3.8949e+001 -1.3257e+001 22963 110681,110863,111171
 4.0000e-001 111220  5.0881e+000  3.6257e+001 -1.2208e+001 22963 110681,111171,111027
 4.0000e-001 111726  4.3444e+000  2.3573e+001 -2.3605e+000 22459 111749,111507,111429
 4.0000e-001 111703 -1.2169e+001  1.6521e+001 -2.2624e+000 22459 111749,111429,111585
 4.0000e-001 111680 -5.0930e+001  2.8076e+001 -1.2436e+001 22459 111403,111585,111429
 4.0000e-001 111657  6.0333e-001  2.4434e+001 -1.4659e+001 22459 111507,111559,111533
 4.0000e-001 111634  1.8629e+001  4.9589e+001  2.1920e+001 22459 111455,111507,111481
 4.0000e-001 111611 -7.2131e+000  2.9428e+001  1.3931e+000 22459 111429,111507,111455
 4.0000e-001 111775 -2.5508e+000  2.5287e+001 -1.4163e+001 22459 111559,111507,111749
 4.0000e-001 111798 -1.4589e+001  2.0061e+001 -1.3219e+001 22459 111559,111749,111585
 4.0000e-001 112046  6.6345e+000  2.4815e+001 -8.2007e-001 21898 112069,111925,111873
 4.0000e-001 112023  5.9893e+000  2.1747e+001  3.8311e+000 21898 112069,111873,111847
 4.0000e-001 112000 -9.6368e+000  2.6629e+001  7.4743e+000 21898 111821,111951,111847
 4.0000e-001 111977  2.6653e+000  1.7645e+001 -3.2137e+000 21898 111873,111925,111899
 4.0000e-001 112095  4.8385e-001  2.1689e+001  7.8631e-001 21898 111951,111925,112069
 4.0000e-001 112118  2.7606e+000  2.0073e+001  5.1461e+000 21898 111951,112069,111847
 4.0000e-001 112498  2.6067e+001  2.2221e+001 -7.4432e+000 21608 112521,112276,112224
 4.0000e-001 112475  3.0836e+001  2.5485e+001 -9.3349e+000 21608 112521,112224,112380
 4.0000e-001 112452  2.9007e+001  1.3163e+001  1.2657e+000 21608 112302,112380,112354
 4.0000e-001 112429  2.8854e+001  1.7235e+001 -8.8527e+000 21608 112224,112276,112250
 4.0000e-001 112406  1.4639e+001  8.4298e+000  2.2313e-001 21608 112302,112354,112328
 4.0000e-001 112547  2.9457e+001  1.5058e+001 -2.7993e+000 21608 112302,112276,112521
 4.0000e-001 112570  3.5914e+001  2.0528e+001 -5.2467e+000 21608 112302,112521,112380
 4.0000e-001 112948 -3.4860e+001  2.3326e+001  1.7207e+001 20882 112971,112752,112700
 4.0000e-001 112925 -1.0171e+001  3.0315e+001  8.6942e+000 20882 112971,112700,112830
 4.0000e-001 112902  1.4619e+000  1.6768e+001  2.2973e+001 20882 112778,112830,112804
 4.0000e-001 112879 -1.0879e+001  1.7474e+001  1.0647e+001 20882 112674,112830,112700
 4.0000e-001 112856 -1.5524e+001  4.9067e+001  8.6622e+000 20882 112700,112752,112726
 4.0000e-001 112997 -3.6915e+001  2.0290e+001  3.0730e+001 20882 112778,112752,112971
 4.0000e-001 113020 -2.2550e+001  2.3330e+001  2.1870e+001 20882 112778,112971,112830
 4.0000e-001 113526  6.0886e+000  3.4290e+001 -4.8559e+000 20428 113255,113385,113333
 4.0000e-001 113503 -1.9195e+000  2.7649e+001 -1.0410e+001 20428 113229,113385,113255
 4.0000e-001 113480 -2.4750e+001  4.4944e+001  6.5473e-001 20428 113255,113333,113281
 4.0000e-001 113457  1.5429e+001  2.4916e+001 -1.2904e+001 20428 113203,113385,113229
 4.0000e-001 113434 -4.4126e+000  3.6447e+001  5.5434e+000 20428 113281,113333,113307
 4.0000e-001 113411  6.3104e+000  2.5118e+001 -3.7068e+000 20428 113333,113385,113359
 4.0000e-001 113774 -1.4411e+001  5.4811e+000 -1.0384e+000 19917 113797,113601,113549
 4.0000e-001 113751 -1.2836e+001  2.5989e+000 -7.1042e-002 19917 113869,113797,113549
 4.0000e-001 113728 -1.3704e+001  2.4047e+000 -5.9143e-001 19917 113869,113549,113679
 4.0000e-001 113705 -1.0498e+001  4.5215e+000 -6.2553e+000 19917 113549,113601,113575
 4.0000e-001 113823 -1.2012e+001  1.1543e+001 -1.4815e-001 19917 113627,113601,113797
 4.0000e-001 113846 -1.0807e+001  5.4984e+000 -2.8523e+000 19917 113627,113797,113653
 4.0000e-001 113895 -1.4176e+001  3.9994e+000 -3.3614e+000 19917 113653,113797,113869
 4.0000e-001 113918 -1.8822e+001  2.0898e+000 -3.5963e+000 19917 113653,113869,113679
 4.0000e-001 114166  3.8185e+001  6.5129e+001 -1.0437e+000 19413 113993,114045,114019
 4.0000e-001 114143  3.7856e+001  5.0728e+001 -5.4557e+000 19413 113967,114045,113993
 4.0000e-001 114120  3.8787e+001  5.0238e+001  1.7574e+000 19413 113967,114071,114045
 4.0000e-001 114097  4.5219e+001  3.7801e+001 -5.3667e+000 19413 113941,114071,113967
 4.0000e-001 114438  9.3613e-001  7.3008e+000 -8.7709e-001 19001 114213,114265,114239
 4.0000e-001 114415 -2.9627e+000  8.1207e-001  8.3074e-001 19001 114213,114343,114265
 4.0000e-001 114392 -9.6837e-001  6.7119e+000 -6.8388e-001 19001 114265,114343,114317
 4.0000e-001 114369  8.9362e+000  9.9552e+000 -1.8612e+000 19001 114265,114317,114291
 4.0000e-001 114639  5.3572e+000  6.2906e+000  4.5497e+000 18554 114489,114541,114515
 4.0000e-001 114616 -5.2067e+000  1.3091e+001  4.1185e+000 18554 114489,114567,114541
 4.0000e-001 114593 -1.6552e+001  1.6328e+001  2.4563e+000 18554 114463,114567,114489
 4.0000e-001 115043  3.0408e+001  5.3231e+001 -4.4774e+000 18164 114795,114925,114821
 4.0000e-001 115020  2.1829e+001  5.8365e+001 -1.0305e+001 18164 114769,114925,114795
 4.0000e-001 114997  3.1187e+001  3.8041e+001 -6.3031e+000 18164 115066,114873,114821
 4.0000e-001 114974  3.2331e+001  4.8630e+001 -7.7215e+000 18164 115066,114821,114925
 4.0000e-001 114951  4.2937e+001  3.9518e+001 -1.0034e+001 18164 114821,114873,114847
 4.0000e-001 115092  2.6929e+001  4.5624e+001 -1.1891e+001 18164 114899,114873,115066
 4.0000e-001 115115  3.2176e+001  6.1788e+001 -1.3740e+001 18164 114899,115066,114925
 4.0000e-001 115265 -1.1058e+001  6.8337e+001  4.8619e+000 17852 115164,115216,115190
 4.0000e-001 115242  3.1618e+000  5.4990e+001  9.7453e+000 17852 115138,115216,115164
 4.0000e-001 115464 -5.9763e+001 -3.4050e+001 -2.1441e+001 17346 115288,115366,115340
 4.0000e-001 115441 -4.1840e+001  6.0754e+000 -3.5562e+001 17346 115288,115392,115366
 4.0000e-001 115418 -3.8037e+001 -4.9468e-001 -7.3484e+000 17346 115288,115340,115314
 4.0000e-001 115736  2.4114e+001  5.5937e+001 -3.8342e+000 16942 115563,115641,115615
 4.0000e-001 115713  2.1946e+001  5.5500e+001 -5.5474e+000 16942 115511,115641,115563
 4.0000e-001 115690  6.7186e+001  6.8598e+001 -1.4583e+001 16942 115563,115615,115589
 4.0000e-001 115667  2.1161e+001  6.7094e+001 -3.8343e+000 16942 115511,115563,115537
 4.0000e-001 116091 -2.7274e+000  1.1437e+001  1.0266e+000 16388 115918,115970,115944
 4.0000e-001 116068 -1.9475e+000  1.3958e+001  1.1918e+000 16388 115918,115996,115970
 4.0000e-001 116045 -5.6800e+000  6.3195e+000  2.9949e+000 16388 115892,115996,115918
 4.0000e-001 116022  5.2122e+001  6.0866e+001  2.9175e+001 16388 115866,115996,115892
 4.0000e-001 116192 -6.0464e+001 -5.2790e+000  6.0937e+000 15810 116114,116166,116140
 4.0000e-001 116342 -8.4943e+000  1.3164e+000 -1.7587e-001 15419 116241,116293,116267
 4.0000e-001 116319  2.6249e+000  1.4091e+000  4.4905e-001 15419 116215,116293,116241
 4.0000e-001 116445  5.1104e+001  8.0273e+001 -9.7053e+000 421 116367,116419,116393
 5.0000e-001 68477  6.4830e+000  1.4632e+001  2.1462e+000 68018 68327,68379,68353
 5.0000e-001 68454  1.0977e+001  1.9192e+001  3.1441e-001 68018 68301,68379,68327
 5.0000e-001 68431  2.5679e+001  1.8960e+001  6.1346e+000 68018 68301,68405,68379
 5.0000e-001 68578 -6.2803e+000  8.9400e+000 -1.8042e+000 67820 68500,68552,68526
 5.0000e-001 68728  4.4985e-001 -1.6830e-001 -4.6058e-001 67508 68601,68653,68627
 5.0000e-001 68705  7.2593e-001  3.2697e-001 -3.2119e-001 67508 68601,68679,68653
 5.0000e-001 68927  2.1978e+001  1.4343e+001 -7.0867e+000 67310 68777,68829,68803
 5.0000e-001 68904  5.5602e+000  1.6824e+001 -1.5682e+000 67310 68751,68829,68777
 5.0000e-001 68881  8.8256e+000  2.3598e+001 -4.6424e-001 67310 68751,68855,68829
 5.0000e-001 69386  2.9287e+000  2.0191e+001 -8.1729e+000 67020 69216,69268,69242
 5.0000e-001 69363  1.0370e+001  1.8678e+001  5.0204e-001 67020 69138,69268,69216
 5.0000e-001 69340  9.7922e+000  2.7665e+001  7.8665e+000 67020 69112,69268,69138
 5.0000e-001 69317  4.2589e+000  1.9302e+001 -9.9201e+000 67020 69138,69190,69164
 5.0000e-001 69294  9.8715e+000  2.1147e+001  6.6100e-001 67020 69138,69216,69190
 5.0000e-001 69536 -1.5994e+001 -1.6796e+001  8.3834e+000 66708 69435,69487,69461
 5.0000e-001 69513 -6.5658e+000 -3.4830e+000  2.1083e+000 66708 69409,69487,69435
 5.0000e-001 69735 -7.6405e+000  8.4258e-002  1.3212e+000 66346 69585,69637,69611
 5.0000e-001 69712 -3.8321e+000  5.5538e-001  3.8761e-001 66346 69559,69637,69585
 5.0000e-001 69689 -3.5336e+000  2.6376e-001 -7.1159e-001 66346 69559,69663,69637
 5.0000e-001 69985 -3.0861e+001 -7.4205e+000  8.4182e+000 66148 69786,69890,69864
 5.0000e-001 69962 -2.1235e+001  1.7934e+000  5.2187e-001 66148 69760,69890,69786
 5.0000e-001 69939 -4.8721e+001  1.7968e+001  3.8931e+001 66148 69786,69864,69838
 5.0000e-001 69916 -3.2167e+001  3.1223e+001  1.7522e+001 66148 69786,69838,69812
 5.0000e-001 70137 -7.6728e+000  1.5222e+001 -1.5342e-001 65950 70036,70088,70062
 5.0000e-001 70114 -2.0956e+001  1.5579e+001 -4.2007e+000 65950 70010,70088,70036
 5.0000e-001 70470 -1.2122e+001  9.4698e-001  4.4422e+000 65546 70245,70323,70271
 5.0000e-001 70447 -5.6484e+000  1.0823e+001  7.0029e-001 65546 70245,70375,70323
 5.0000e-001 70424 -4.2533e+000  9.5569e+000  1.8955e+000 65546 70323,70375,70349
 5.0000e-001 70401 -9.3029e+000  6.2791e+000  1.3196e+000 65546 70271,70323,70297
 5.0000e-001 70620 -1.7946e+001  1.3923e+001 -3.6640e+000 65348 70493,70545,70519
 5.0000e-001 70597  3.9710e+000  3.5258e+001  4.9825e+000 65348 70493,70571,70545
 5.0000e-001 70721  1.2404e+001  2.4884e+001 -7.5466e-001 65150 70643,70695,70669
 5.0000e-001 71020 -3.1342e+000  9.6303e+000 -4.8554e+000 64952 71043,70850,70824
 5.0000e-001 70997 -6.4914e+000  2.5293e+000 -3.8771e+000 64952 71043,70824,70772
 5.0000e-001 70974 -6.0520e+000  1.3534e+001 -2.9763e+000 64952 71115,70746,70876
 5.0000e-001 70951 -6.5661e+000  1.6154e+001 -2.3178e-001 64952 70746,70902,70876
 5.0000e-001 70928 -1.8610e+000  6.0520e+000 -5.4956e+000 64952 70772,70824,70798
 5.0000e-001 71069 -7.4432e+000  8.2226e+000 -3.9671e+000 64952 70876,70850,71043
 5.0000e-001 71092 -6.1051e+000  1.1482e+001 -3.0147e+000 64952 71115,70876,71043
 5.0000e-001 71141 -4.5596e+000  1.1211e+001 -1.2044e+000 64952 70772,70746,71115
 5.0000e-001 71164 -5.4107e+000  8.1048e+000 -1.1597e+000 64952 70772,71115,71043
 5.0000e-001 71365 -1.9179e+001  1.9166e+001  1.5777e+000 64662 71215,71293,71267
 5.0000e-001 71342 -2.7124e+001  7.5515e+000  5.8469e+000 64662 71189,71293,71215
 5.0000e-001 71319 -2.5475e+001  3.2544e-001  2.2276e+000 64662 71215,71267,71241
 5.0000e-001 71615  2.7446e+001  3.4941e+001 -3.4347e-001 64350 71710,71638,71468
 5.0000e-001 71592  2.7574e+001  2.8860e+001 -6.6524e-002 64350 71638,71416,71390
 5.0000e-001 71569  2.8963e+001  3.0341e+001 -4.2703e+000 64350 71710,71468,71442
 5.0000e-001 71546  4.7536e+001  2.3048e+001 -1.1083e+001 64350 71390,71520,71494
 5.0000e-001 71664  3.3477e+001  3.5612e+001  5.8792e+000 64350 71494,71468,71638
 5.0000e-001 71687  2.6475e+001  2.4097e+001  2.9359e+000 64350 71494,71638,71390
 5.0000e-001 71736  2.5099e+001  2.5414e+001 -1.1899e+000 64350 71416,71638,71710
 5.0000e-001 71759  2.5342e+001  2.0954e+001 -6.1985e+000 64350 71416,71710,71442
 5.0000e-001 72318 -1.2941e+000  7.2431e+000  1.3917e+001 63837 71972,72024,71998
 5.0000e-001 72295 -1.8135e+001  6.2231e+000  1.2993e+001 63837 72341,71972,71946
 5.0000e-001 72272 -1.4609e+001  8.8477e+000  9.6353e+000 63837 72413,72341,71946
 5.0000e-001 72249 -2.4397e+001  1.2153e+001  9.9201e+000 63837 72413,71946,72128
 5.0000e-001 72226 -7.2362e+000  6.6419e+000 -2.1131e+000 63837 72024,72076,72050
 5.0000e-001 72203 -1.1443e+001 -1.0020e+000  2.2586e+000 63837 72024,72102,72076
 5.0000e-001 72180 -1.1863e+001  1.7404e+001  1.0206e+001 63837 71946,72154,72128
 5.0000e-001 72367 -1.2932e+001  8.7471e+000  1.4664e+001 63837 72024,71972,72341
 5.0000e-001 72390 -1.5301e+001  7.4937e+000  7.3053e+000 63837 72024,72341,72102
 5.0000e-001 72439 -2.6384e+001  4.1175e+000  6.8131e+000 63837 72102,72341,72413
 5.0000e-001 72462 -3.3084e+001  9.9715e+000  7.9319e+000 63837 72102,72413,72128
 5.0000e-001 72791 -2.9618e+000  2.4670e+000 -9.5571e-001 63383 72592,72696,72670
 5.0000e-001 72768  1.6401e+001  4.8255e+001  6.2550e-001 63383 72566,72696,72592
 5.0000e-001 72745  1.4705e+001  2.3957e+001  1.2299e+001 63383 72592,72670,72618
 5.0000e-001 72722 -1.1474e+000  5.2986e-001  1.6487e-001 63383 72618,72670,72644
 5.0000e-001 73297 -9.8532e+000  7.7103e+000 -1.1261e+000 63185 73000,73156,73130
 5.0000e-001 73274  2.5599e-001  3.2633e+001 -6.9565e+000 63185 72974,73156,73000
 5.0000e-001 73251 -7.4648e+000  1.1563e+001 -1.4086e+000 63185 73000,73052,73026
 5.0000e-001 73228 -3.3318e+000  9.3411e+000 -1.1141e+000 63185 73000,73130,73052
 5.0000e-001 73205 -3.4481e-001  2.1523e+001  3.0500e+000 63185 73052,73130,73104
 5.0000e-001 73182  1.8209e+000  1.2887e+001  2.2603e+000 63185 73052,73104,73078
 5.0000e-001 73545 -1.1247e+001  4.6702e+001 -9.3089e+000 62781 73568,73398,73372
 5.0000e-001 73522 -2.0737e+001  2.1717e+001 -1.1037e+001 62781 73568,73372,73346
 5.0000e-001 73499 -5.1779e+000  2.5118e+001  5.8469e-001 62781 73640,73320,73424
 5.0000e-001 73476 -1.4632e+001  1.3198e+001  4.9666e+000 62781 73320,73450,73424
 5.0000e-001 73594 -1.9935e+001  2.4666e+001 -3.3195e+000 62781 73424,73398,73568
 5.0000e-001 73617 -9.2747e+000  2.2713e+001 -1.6048e+000 62781 73640,73424,73568
 5.0000e-001 73666 -6.8691e+000  2.1890e+001 -3.6902e+000 62781 73346,73320,73640
 5.0000e-001 73689 -9.1351e+000  1.9347e+001 -5.7038e+000 62781 73346,73640,73568
 5.0000e-001 74035 -2.1590e+001 -1.4086e-001 -3.7358e+000 62363 74058,73868,73842
 5.0000e-001 74012 -1.1312e+001  1.5411e+000 -2.5752e+000 62363 74130,74058,73842
 5.0000e-001 73989 -1.0349e+001  7.1560e-001 -4.4738e+000 62363 74130,73842,73816
 5.0000e-001 73966 -1.0885e+001 -3.2141e-002 -5.0092e-001 62363 74202,73764,73894
 5.0000e-001 73943 -3.7054e+000 -1.0176e+000  3.0693e-001 62363 73712,73894,73764
 5.0000e-001 73920 -2.1606e+000 -5.3315e-001  1.3505e+000 62363 73712,73764,73738
 5.0000e-001 74084 -1.3057e+001  3.4339e+000 -5.9019e-001 62363 73894,73868,74058
 5.0000e-001 74107 -1.2312e+001 -1.1940e+000 -1.8582e+000 62363 74202,73894,74058
 5.0000e-001 74156 -1.3091e+001 -1.6774e+000 -1.1212e+000 62363 73790,74058,74130
 5.0000e-001 74179 -1.1035e+001 -2.7872e+000 -3.1481e+000 62363 73790,74130,73816
 5.0000e-001 74228 -9.1329e+000  7.4554e-001  1.2447e+000 62363 73790,73764,74202
 5.0000e-001 74251 -1.0031e+001 -3.8050e-001 -1.1768e-001 62363 73790,74202,74058
 5.0000e-001 74403 -2.7598e+001  1.0669e+001 -3.7870e+000 62115 74426,74302,74276
 5.0000e-001 74380 -3.6870e+001  1.0925e+001 -7.5227e+000 62115 74426,74276,74354
 5.0000e-001 74452 -1.9551e+001  7.7440e+000 -4.1225e+000 62115 74328,74302,74426
 5.0000e-001 74475 -2.7916e+001  8.5530e+000 -8.1555e+000 62115 74328,74426,74354
 5.0000e-001 74578 -1.4195e+001  2.3827e+001  1.4993e+000 61825 74500,74552,74526
 5.0000e-001 74982 -1.3992e+001  1.2643e+001  2.3274e+000 61513 75005,74734,74708
 5.0000e-001 74959 -5.2783e+000  1.4412e+001  7.5896e-001 61513 75005,74708,74864
 5.0000e-001 74936 -9.4605e+000  4.3667e+000  1.8073e+000 61513 75077,74812,74734
 5.0000e-001 74913 -2.1466e+001 -1.9130e+000  2.7823e+000 61513 74734,74786,74760
 5.0000e-001 74890 -2.5359e+001 -6.6932e+000  7.4796e+000 61513 74734,74812,74786
 5.0000e-001 75031 -6.5645e+000  6.9269e+000  3.4095e+000 61513 75077,74734,75005
 5.0000e-001 75054  3.5952e+000  1.4702e+001  1.0456e+001 61513 74838,75005,74864
 5.0000e-001 75103 -9.6827e+000  9.0309e+000  5.9665e+000 61513 74838,74812,75077
 5.0000e-001 75126 -8.1380e+000  1.1154e+001  7.2754e+000 61513 74838,75077,75005
 5.0000e-001 75553 -1.6717e+001 -5.8800e+000 -1.1873e+001 61060 75576,75360,75308
 5.0000e-001 75530 -1.5118e+001 -3.6387e+000 -1.1174e+001 61060 75576,75308,75230
 5.0000e-001 75507 -3.2448e+001 -2.6081e+001 -2.9106e+001 61060 75308,75360,75334
 5.0000e-001 75484 -1.7221e+001 -6.5559e+000 -7.6765e+000 61060 75230,75308,75256
 5.0000e-001 75461 -7.9279e-001 -8.6544e+000 -4.8312e+000 61060 75256,75308,75282
 5.0000e-001 75438 -1.7222e+001  5.2346e+000 -1.4872e+001 61060 75360,75412,75386
 5.0000e-001 75602 -2.1184e+001 -3.5859e+000 -1.3762e+001 61060 75412,75360,75576
 5.0000e-001 75625 -1.7609e+001  1.4278e+000 -1.2202e+001 61060 75412,75576,75230
 5.0000e-001 76052  3.1331e+001  1.0444e+001 -1.1226e+001 60442 75755,75859,75833
 5.0000e-001 76029  1.5680e+001  2.4884e+000 -8.4899e+000 60442 75729,75859,75755
 5.0000e-001 76006  1.6355e+001  6.7347e+000  3.7149e+000 60442 75755,75833,75807
 5.0000e-001 75983 -5.6582e+000  2.4417e-001 -2.1030e+000 60442 75755,75807,75781
 5.0000e-001 75960  2.3834e+001  4.8013e+000 -1.0319e+001 60442 75729,75911,75859
 5.0000e-001 75937  2.5240e+001  6.1649e-001 -5.4199e+000 60442 75859,75911,75885
 5.0000e-001 76430  7.6364e+000  2.7362e+001 -3.4527e+000 59788 76453,76286,76234
 5.0000e-001 76407  1.1901e+001  3.4464e+001 -4.0914e-001 59788 76453,76234,76182
 5.0000e-001 76384  6.2495e+000  2.6769e+001 -6.2796e+000 59788 76525,76156,76312
 5.0000e-001 76361  9.7498e+000  4.3565e+001 -8.5709e-001 59788 76182,76234,76208
 5.0000e-001 76338  1.5253e+001  2.8945e+001 -3.2489e+000 59788 76234,76286,76260
 5.0000e-001 76479  4.3999e+000  3.0726e+001 -6.8657e+000 59788 76312,76286,76453
 5.0000e-001 76502  6.7826e+000  3.0864e+001 -4.9813e+000 59788 76525,76312,76453
 5.0000e-001 76551  8.4281e+000  3.1840e+001 -5.7890e+000 59788 76182,76156,76525
 5.0000e-001 76574  7.5439e+000  3.2896e+001 -5.0791e+000 59788 76182,76525,76453
 5.0000e-001 77031 -2.2807e+000  1.7266e+001  3.8302e+000 59448 76835,76887,76861
 5.0000e-001 77008 -9.5207e+000  1.1714e+001 -1.1816e+000 59448 76835,76913,76887
 5.0000e-001 76985 -4.8620e+000  1.8226e+001 -3.6079e+000 59448 76809,76913,76835
 5.0000e-001 76962 -2.6023e+000  1.2201e+001 -4.0771e-001 59448 76757,76913,76809
 5.0000e-001 76939 -9.6035e+000  4.6494e+001  8.5894e-001 59448 76757,76809,76783
 5.0000e-001 77537 -8.9836e-001  3.6001e+001  3.5035e+000 58994 77560,77344,77292
 5.0000e-001 77514 -8.7636e+000  9.4585e+000 -3.3325e+000 58994 77560,77292,77240
 5.0000e-001 77491  1.5519e+000  1.6259e+000  1.3398e+001 58994 77632,77214,77370
 5.0000e-001 77468  5.7584e-001  3.6838e+001  1.1243e+000 58994 77292,77344,77318
 5.0000e-001 77445 -3.1759e+000  7.1978e+000  1.2681e+001 58994 77214,77396,77370
 5.0000e-001 77422 -8.8647e+000  2.6771e+001  1.8103e+001 58994 77240,77292,77266
 5.0000e-001 77586  1.2619e+001  1.3438e+001  6.6126e+000 58994 77370,77344,77560
 5.0000e-001 77609  8.9580e+000  6.6965e+000  3.6199e+000 58994 77632,77370,77560
 5.0000e-001 77658 -3.6978e+000 -6.6083e+000  1.9107e+001 58994 77240,77214,77632
 5.0000e-001 77681  4.8426e-001 -9.6668e+000  9.9476e+000 58994 77240,77632,77560
 5.0000e-001 78138 -1.4070e+001 -6.2826e+000  5.0231e+000 58440 77864,77994,77890
 5.0000e-001 78115 -8.5780e+000 -6.5974e+000  5.9543e+000 58440 77864,78020,77994
 5.0000e-001 78092 -1.1189e+001 -1.3728e+000  4.5329e+000 58440 77942,77994,77968
 5.0000e-001 78069 -1.6604e+001 -1.0487e+001  2.0020e+000 58440 77890,77994,77942
 5.0000e-001 78046 -2.6367e+001 -9.6975e+000  8.9419e+000 58440 77890,77942,77916
 5.0000e-001 78467 -8.7890e+000  1.8724e+001  1.6411e+001 57928 78562,78490,78346
 5.0000e-001 78444 -1.3992e+001  2.2283e+001  4.1483e+000 57928 78490,78294,78268
 5.0000e-001 78421 -1.6077e+001  3.5746e+001  8.4311e+000 57928 78562,78346,78320
 5.0000e-001 78398 -8.2394e-001  1.3470e+001  1.4491e+000 57928 78242,78372,78268
 5.0000e-001 78516 -1.4009e+001 -7.9785e+000  6.3466e+000 57928 78372,78346,78490
 5.0000e-001 78539  1.0973e+000  2.8300e+001  4.4296e+000 57928 78372,78490,78268
 5.0000e-001 78588 -5.6750e+000  4.1708e+001  3.5475e+000 57928 78294,78490,78562
 5.0000e-001 78611 -6.0902e+000  7.4984e+001 -1.8811e-001 57928 78294,78562,78320
 5.0000e-001 79068  8.8517e+000  2.7587e+001  1.0899e+001 57467 78794,78924,78820
 5.0000e-001 79045  1.9591e+001  3.2606e+001  1.2647e+001 57467 78794,78950,78924
 5.0000e-001 79022 -1.2723e+001  2.0528e+001 -3.1447e+000 57467 78820,78898,78872
 5.0000e-001 78999  5.0889e+000  3.8596e+001  6.6192e+000 57467 78820,78924,78898
 5.0000e-001 78976  3.5699e+000  2.6490e+001 -2.7134e+000 57467 78820,78872,78846
 5.0000e-001 79446  1.3456e+001 -4.6269e+000 -3.1651e+001 57120 79172,79302,79250
 5.0000e-001 79423 -7.1701e+000 -1.5029e+001 -6.6891e+000 57120 79172,79328,79302
 5.0000e-001 79400 -7.7851e+000  2.9282e+001 -3.3129e+001 57120 79172,79250,79198
 5.0000e-001 79377  2.2455e+001  1.2749e+001 -2.7443e+001 57120 79250,79302,79276
 5.0000e-001 79354  3.8680e+001  7.5548e+001 -5.7027e+000 57120 79198,79250,79224
 5.0000e-001 79952  4.7798e+000  1.3394e+001 -3.5506e+000 56773 79629,79785,79655
 5.0000e-001 79929  1.9008e+000  1.4693e+001 -6.8028e+000 56773 79629,79811,79785
 5.0000e-001 79906  4.0458e+000  1.6046e+001 -2.2246e+000 56773 79655,79733,79681
 5.0000e-001 79883  4.7632e+000  1.6176e+001 -2.2743e+000 56773 79655,79785,79733
 5.0000e-001 79860  4.3524e+000  2.2137e+001  8.2823e-001 56773 79733,79785,79759
 5.0000e-001 79837 -4.0499e+000  1.2454e+001 -3.9438e+000 56773 79681,79733,79707
 5.0000e-001 80281  1.9012e+001 -1.3103e+001  1.7201e+001 56319 80108,80160,80134
 5.0000e-001 80258  5.3152e+000 -4.1535e+000  1.4882e+001 56319 80056,80160,80108
 5.0000e-001 80235  2.0881e+000 -6.6350e+000  1.0967e+001 56319 80056,80186,80160
 5.0000e-001 80212 -8.2473e+000 -1.3933e+001  2.2059e+001 56319 80056,80108,80082
 5.0000e-001 80738 -7.0791e+000  1.4842e+001 -6.8331e+000 55957 80516,80620,80594
 5.0000e-001 80715 -8.2309e+000  1.2810e+001 -7.5082e+000 55957 80464,80620,80516
 5.0000e-001 80692 -6.7584e+000  1.6029e+001 -5.4868e+000 55957 80761,80568,80542
 5.0000e-001 80669 -5.5465e+000  1.5866e+001 -5.4308e+000 55957 80761,80542,80516
 5.0000e-001 80646 -9.7134e+000  9.3281e+000 -8.2690e+000 55957 80464,80516,80490
 5.0000e-001 80787 -7.6754e+000  1.5839e+001 -5.5321e+000 55957 80594,80568,80761
 5.0000e-001 80810 -6.5680e+000  1.5610e+001 -5.4460e+000 55957 80594,80761,80516
 5.0000e-001 81210 -1.5941e+001  1.5535e+001  1.0064e+001 55317 80936,80988,80962
 5.0000e-001 81187 -2.8202e+001  1.6773e+000  9.0681e-001 55317 80936,81066,80988
 5.0000e-001 81164 -2.6825e+001  3.7378e+000  1.0048e-001 55317 80936,81092,81066
 5.0000e-001 81141 -1.7380e+001  6.8275e+000  2.9418e+000 55317 80988,81066,81014
 5.0000e-001 81118 -3.5696e+001 -7.1261e+000 -3.3031e+000 55317 81014,81066,81040
 5.0000e-001 81539 -2.7754e+001  3.0807e+001  1.8110e+000 54913 81340,81418,81392
 5.0000e-001 81516 -3.1122e+001 -3.8175e+000  1.1402e+001 54913 81340,81444,81418
 5.0000e-001 81493 -3.0002e+001 -2.9642e+000  1.2618e+001 54913 81314,81444,81340
 5.0000e-001 81470  3.8229e+001  1.7235e+001  1.9846e+001 54913 81340,81392,81366
 5.0000e-001 81787  9.0135e+000  1.8718e+001  3.1307e+000 54601 81588,81692,81640
 5.0000e-001 81764  2.4514e+001  1.2820e+001  4.9260e+000 54601 81562,81692,81588
 5.0000e-001 81741  2.3907e+001  2.2830e+001  1.1259e+001 54601 81588,81640,81614
 5.0000e-001 81718  1.1303e+001  2.8632e+001  5.3979e+000 54601 81640,81692,81666
 5.0000e-001 82344 -3.1345e+001  1.5287e+001  6.5807e+000 54090 81998,82102,82076
 5.0000e-001 82321 -7.4211e+000  2.5804e+001  1.4417e+000 54090 81998,82154,82102
 5.0000e-001 82298 -3.1504e+001  1.9188e+000 -8.2677e+000 54090 81972,82154,81998
 5.0000e-001 82275 -1.2717e+001  1.8583e+001  3.9132e+000 54090 81998,82076,82024
 5.0000e-001 82252 -4.3721e+001  1.3240e+000 -1.9929e+001 54090 81972,82180,82154
 5.0000e-001 82229 -9.2978e+000 -1.4660e+000 -3.4658e+000 54090 82102,82154,82128
 5.0000e-001 82206 -2.4856e+001  2.0692e+001 -4.1222e+000 54090 82024,82076,82050
 5.0000e-001 82722  1.0548e+000  1.3678e+001 -3.3076e+000 53579 82500,82578,82552
 5.0000e-001 82699  2.0712e+000  1.6807e+001 -2.7850e+000 53579 82448,82578,82500
 5.0000e-001 82676 -4.9017e+000  1.5082e+001  2.2266e+000 53579 82448,82500,82474
 5.0000e-001 82653  2.6716e+000  1.7842e+001 -5.9764e+000 53579 82448,82604,82578
 5.0000e-001 82630  5.8566e-001  1.1857e+001 -4.6731e+000 53579 82500,82552,82526
 5.0000e-001 83356  5.2169e+000  8.3832e+000 -1.0785e+000 53189 83379,83088,83036
 5.0000e-001 83333  4.7263e+000  1.0842e+001 -1.3914e+000 53189 83379,83036,82984
 5.0000e-001 83310 -5.6328e+000  3.9891e+000 -1.3823e+001 53189 82984,83192,83166
 5.0000e-001 83287  3.0601e+000  7.4907e+000 -1.1520e+000 53189 83036,83088,83062
 5.0000e-001 83264  2.5171e+000  1.2406e+001  5.4225e-001 53189 82984,83036,83010
 5.0000e-001 83241  1.1363e+001  4.2356e+000 -1.7010e+000 53189 83114,83166,83140
 5.0000e-001 83218  6.1497e+000  5.7521e+000 -4.1570e+000 53189 83088,83166,83114
 5.0000e-001 83405  5.5403e+000  1.0012e+001 -2.0435e+000 53189 83166,83088,83379
 5.0000e-001 83428  4.6120e+000  1.2138e+001 -2.1881e+000 53189 83166,83379,82984
 5.0000e-001 83725 -5.1193e-001  9.9610e+000  4.1207e+000 52585 83748,83529,83503
 5.0000e-001 83702 -1.6399e+001  4.0456e+000  1.2833e+000 52585 83820,83748,83503
 5.0000e-001 83679 -3.3205e+001  9.4048e+000  3.6766e+000 52585 83820,83503,83477
 5.0000e-001 83656 -1.8800e+000  1.8212e+001  2.0532e+000 52585 83477,83607,83581
 5.0000e-001 83633 -2.6037e+000  1.5908e+001 -3.5788e+000 52585 83451,83607,83477
 5.0000e-001 83774 -6.0986e+000 -4.4390e+000  1.8308e+000 52585 83555,83529,83748
 5.0000e-001 83797  4.0235e+000  6.4531e+000 -2.9784e+000 52585 83555,83748,83581
 5.0000e-001 83846 -8.0908e-001  7.8399e+000 -6.5225e+000 52585 83581,83748,83820
 5.0000e-001 83869 -1.5313e+001  1.3512e+001 -2.9110e+000 52585 83581,83820,83477
 5.0000e-001 84200  8.3246e+000  2.6082e+001 -5.4498e+000 52024 84001,84105,84079
 5.0000e-001 84177 -1.0752e+001  2.4680e+001  2.1993e+000 52024 83975,84105,84001
 5.0000e-001 84154 -2.4664e+000  2.0377e+001 -3.2767e+000 52024 84001,84079,84053
 5.0000e-001 84131 -5.3826e+000  1.4768e+001  2.0400e+000 52024 84001,84053,84027
 5.0000e-001 84399 -1.2679e+001  1.1879e+000  4.1286e+000 51470 84422,84275,84249
 5.0000e-001 84376  3.7332e+000  4.0097e+000  8.7988e+000 51470 84422,84249,84223
 5.0000e-001 84353 -2.9206e+001  3.3784e-001 -1.4729e+000 51470 84275,84327,84301
 5.0000e-001 84448 -2.7246e+001  7.9275e+000  6.2656e+000 51470 84327,84275,84422
 5.0000e-001 84471 -1.0420e+001  1.0559e+001  9.6391e+000 51470 84327,84422,84223
 5.0000e-001 84753  1.1221e+001  3.1614e+001 -8.7311e-001 51073 84603,84655,84629
 5.0000e-001 84730  1.6964e+001  2.9178e+001 -5.2741e+000 51073 84776,84655,84603
 5.0000e-001 84707  2.2417e+001  5.3270e+000 -9.6115e+000 51073 84577,84681,84655
 5.0000e-001 84802  6.4243e+000  2.2513e+001 -6.1325e-001 51073 84577,84655,84776
 5.0000e-001 85178 -1.8990e+000  1.4453e+001 -6.4370e+000 50519 85201,85008,84982
 5.0000e-001 85155 -2.9958e+000  1.1556e+001 -5.9060e+000 50519 85273,85201,84982
 5.0000e-001 85132 -3.6284e+000  1.1511e+001 -5.5084e+000 50519 85273,84982,84930
 5.0000e-001 85109 -9.0106e+000  9.2067e+000 -3.9164e+000 50519 84930,84982,84956
 5.0000e-001 85086 -4.2023e+000  1.1929e+001 -7.5640e-001 50519 85008,85060,85034
 5.0000e-001 85227 -1.2902e+000  1.3577e+001 -2.9596e+000 50519 85060,85008,85201
 5.0000e-001 85250 -2.3130e+000  1.0201e+001 -3.7046e+000 50519 85060,85201,84904
 5.0000e-001 85299 -3.6358e+000  1.1932e+001 -4.6426e+000 50519 84904,85201,85273
 5.0000e-001 85322 -5.9965e+000  8.8105e+000 -3.5944e+000 50519 84904,85273,84930
 5.0000e-001 85958 -1.0379e+001  2.1499e+001  2.1165e+000 50093 85981,85768,85716
 5.0000e-001 85935 -1.3758e+001  1.3735e+001  1.6767e+000 50093 85981,85716,85612
 5.0000e-001 85912 -6.3205e+000  7.6257e+000 -1.7390e+000 50093 85612,85716,85664
 5.0000e-001 85889 -1.7524e+001  1.9531e+001  1.1977e-001 50093 85716,85768,85742
 5.0000e-001 85866 -4.5176e+000  1.1519e+001 -5.5423e+000 50093 85664,85716,85690
 5.0000e-001 85843 -1.2805e+001  6.6299e+000  1.0960e+001 50093 85586,85794,85612
 5.0000e-001 85820 -5.0766e-001  1.0054e+000  1.8217e+000 50093 85612,85664,85638
 5.0000e-001 86007 -3.1534e+000  2.8551e+001  1.3239e+001 50093 85794,85768,85981
 5.0000e-001 86030 -1.3751e+001  5.6714e+000  9.9948e+000 50093 85794,85981,85612
 5.0000e-001 86131 -5.3428e+001  2.7001e+001 -2.0797e+001 49895 86053,86105,86079
 5.0000e-001 86639  9.9098e+000  5.2014e-001  5.3836e+000 49391 86662,86394,86368
 5.0000e-001 86616  1.4390e+001  8.3920e+000  7.3945e+000 49391 86662,86368,86342
 5.0000e-001 86593  2.1710e+000  7.3337e+000 -1.2466e-001 49391 86342,86498,86472
 5.0000e-001 86570 -3.6462e+000  9.2112e+000 -7.9154e-001 49391 86316,86498,86342
 5.0000e-001 86547  2.8462e+000  2.8469e+000  1.6429e+000 49391 86394,86472,86446
 5.0000e-001 86524  4.3819e+000  1.7278e+000  1.4764e+000 49391 86394,86446,86420
 5.0000e-001 86688  5.0509e+000  7.9792e+000  1.7658e+000 49391 86472,86394,86662
 5.0000e-001 86711  8.4859e+000  1.1904e+001  3.2183e+000 49391 86472,86662,86342
 5.0000e-001 87089  1.8589e+001  8.3863e+000  1.2018e+000 48987 86815,86919,86867
 5.0000e-001 87066  4.7124e+000  5.8724e+000  1.8494e+000 48987 86815,86971,86919
 5.0000e-001 87043  9.9883e+000  5.4447e-001 -2.9908e+000 48987 86867,86919,86893
 5.0000e-001 87020  1.4867e+001  2.1426e-001 -6.1719e-001 48987 86815,86867,86841
 5.0000e-001 86997  1.1259e+001  1.4768e+001 -1.8774e+000 48987 86919,86971,86945
 5.0000e-001 87467  1.2710e+001  1.1572e+001 -5.0456e+000 48540 87490,87245,87219
 5.0000e-001 87444  6.4628e-001  1.0671e+001 -2.9894e+000 48540 87562,87490,87219
 5.0000e-001 87421  3.9028e+000  1.1979e+001 -1.8976e+000 48540 87562,87219,87349
 5.0000e-001 87398 -8.1348e+000  1.8655e+001 -1.0963e+001 48540 87245,87297,87271
 5.0000e-001 87375  4.4385e+000  1.5449e+001 -6.6747e-001 48540 87193,87349,87219
 5.0000e-001 87516  5.2126e-001  6.1025e+000 -6.2951e+000 48540 87297,87245,87490
 5.0000e-001 87539 -2.1027e+000  1.0253e+001 -3.6576e-001 48540 87297,87490,87323
 5.0000e-001 87588  3.8285e+000  1.2326e+001 -8.6621e-001 48540 87323,87490,87562
 5.0000e-001 87611  5.3801e+000  1.1831e+001 -1.2177e-001 48540 87323,87562,87349
 5.0000e-001 87810 -1.3388e+001  3.2413e+001 -1.7286e+000 48136 87660,87712,87686
 5.0000e-001 87787 -1.9016e+001  1.4046e+001 -3.1628e+000 48136 87660,87738,87712
 5.0000e-001 87764 -2.8852e+001 -3.7800e+000  1.4173e+001 48136 87634,87738,87660
 5.0000e-001 88205 -1.3182e+001 -4.8562e+000  6.6666e+000 47210 88300,88228,87937
 5.0000e-001 88182 -1.2671e+001 -2.3663e+000  6.2811e+000 47210 88228,87833,88041
 5.0000e-001 88159 -1.1314e+001 -2.2347e+000  4.8932e+000 47210 88300,87937,87911
 5.0000e-001 88136 -5.9668e+000 -5.8416e-001  4.1587e+000 47210 87833,87911,87859
 5.0000e-001 88113 -5.4707e+000 -1.3493e+001  3.0582e+000 47210 87937,87989,87963
 5.0000e-001 88090 -1.4462e+001 -5.4184e-001  8.8714e-001 47210 87989,88041,88015
 5.0000e-001 88067 -4.9697e+000  4.5659e-001 -2.5462e-001 47210 87859,87911,87885
 5.0000e-001 88254 -1.3405e+001 -9.3185e+000  7.4670e+000 47210 87989,87937,88228
 5.0000e-001 88277 -1.5668e+001 -4.3872e+000  5.3088e+000 47210 87989,88228,88041
 5.0000e-001 88326 -8.7807e+000 -4.8786e+000  4.4837e+000 47210 87833,88228,88300
 5.0000e-001 88349 -8.5178e+000 -4.4494e+000  3.0389e+000 47210 87833,88300,87911
 5.0000e-001 88780  2.8528e+000  1.4542e+001  8.1862e+000 46642 88803,88509,88483
 5.0000e-001 88757 -1.1698e+001  5.5546e+000  4.5284e-001 46642 88803,88483,88639
 5.0000e-001 88734  1.1804e+000 -9.1268e-001  1.3202e+000 46642 88875,88561,88509
 5.0000e-001 88711  1.8210e+000  2.4513e-001  2.8380e+000 46642 88509,88561,88535
 5.0000e-001 88688 -1.9404e+001  1.4723e+001 -5.5333e+000 46642 88457,88639,88483
 5.0000e-001 88665  4.1909e+000 -5.9180e+000  1.3884e+000 46642 88561,88613,88587
 5.0000e-001 88829 -7.1409e+000  1.8526e+000  3.0211e-001 46642 88875,88509,88803
 5.0000e-001 88852 -6.4886e+000 -3.6150e+000 -7.5709e+000 46642 88613,88803,88639
 5.0000e-001 88901  7.6698e+000  1.5234e+000  4.7459e-001 46642 88613,88561,88875
 5.0000e-001 88924  3.0140e+000  7.0179e+000 -1.9474e+000 46642 88613,88875,88803
 5.0000e-001 89253 -6.6048e+000 -2.7293e+000  1.4164e+000 46444 89080,89158,89132
 5.0000e-001 89230 -7.8022e+000 -6.4544e+000  3.4553e+000 46444 89028,89158,89080
 5.0000e-001 89207 -3.9781e+000 -6.4306e+000  3.0667e+000 46444 89028,89080,89054
 5.0000e-001 89184 -5.6964e+000 -2.8325e+000  1.0713e+000 46444 89080,89132,89106
 5.0000e-001 89631  5.3060e+000  8.1264e+000 -8.4537e+000 46040 89383,89461,89435
 5.0000e-001 89608  6.7171e+000  1.5636e+001 -8.2774e-001 46040 89383,89487,89461
 5.0000e-001 89585  1.9883e+001  1.1957e+001 -4.5206e+000 46040 89383,89435,89409
 5.0000e-001 89562  1.0188e+001  1.4164e+001 -2.6781e-001 46040 89383,89513,89487
 5.0000e-001 89539  7.1822e+000  1.3366e+001 -1.5768e+000 46040 89357,89513,89383
 5.0000e-001 90009 -1.8538e+001  5.1702e+000  1.7770e+000 45636 89813,89891,89839
 5.0000e-001 89986 -1.6406e+001  2.0667e+000 -3.6309e+000 45636 89787,89891,89813
 5.0000e-001 89963 -1.6231e+001  6.7390e+000  1.0505e+000 45636 89839,89891,89865
 5.0000e-001 89940 -1.2051e+001  9.4956e+000 -1.7968e+000 45636 89735,89891,89787
 5.0000e-001 89917 -7.9496e+000  1.2686e+001 -4.4659e+000 45636 89735,89787,89761
 5.0000e-001 90208 -1.5045e+001 -2.1055e+000 -2.0152e+000 45175 90231,90058,90032
 5.0000e-001 90185 -1.6708e+001 -3.3484e+000 -5.5487e-001 45175 90231,90032,90136
 5.0000e-001 90162 -8.8347e+000 -3.4604e+000 -2.3963e+000 45175 90058,90110,90084
 5.0000e-001 90257 -1.3150e+001 -2.7646e-001 -4.1308e+000 45175 90110,90058,90231
 5.0000e-001 90280 -1.6330e+001 -2.4302e+000 -2.5063e+000 45175 90110,90231,90136
 5.0000e-001 90528 -7.3444e+000  1.0995e+001  6.6989e+000 44513 90695,90551,90407
 5.0000e-001 90505 -1.3101e+000  1.6616e+001  8.3745e+000 44513 90551,90355,90329
 5.0000e-001 90482 -6.0935e+000  3.9093e+000  9.4487e-001 44513 90623,90303,90433
 5.0000e-001 90459 -4.1973e+000  4.5716e+000  1.4230e+000 44513 90695,90407,90381
 5.0000e-001 90577  2.0873e-001  1.3957e+001  8.2359e+000 44513 90433,90407,90551
 5.0000e-001 90600 -2.6485e+000  1.0455e+001  2.6821e+000 44513 90623,90433,90551
 5.0000e-001 90649 -3.1587e+000  1.2004e+001  2.7827e+000 44513 90329,90303,90623
 5.0000e-001 90672 -4.4732e+000  1.3094e+001  2.9991e+000 44513 90329,90623,90551
 5.0000e-001 90721 -6.3654e+000  3.2638e-001  9.7346e+000 44513 90355,90551,90695
 5.0000e-001 90744 -3.1027e+000 -6.0068e+000  7.1818e+000 44513 90355,90695,90381
 5.0000e-001 91077  1.6860e+001  1.8097e+001 -5.4639e+000 44059 91100,90930,90904
 5.0000e-001 91054  1.0894e+001  1.5748e+001 -5.5283e+000 44059 91100,90904,90982
 5.0000e-001 91031  1.3221e+001  1.5095e+001 -4.3634e+000 44059 90878,90982,90904
 5.0000e-001 91008  2.2509e+001  1.3539e+001 -8.2141e+000 44059 90852,90982,90878
 5.0000e-001 91126  1.3265e+001  1.9601e+001 -8.7632e+000 44059 91172,91100,90956
 5.0000e-001 91149  1.5162e+001  2.6066e+001 -4.2222e+000 44059 90956,91100,90982
 5.0000e-001 91198  1.2106e+001  7.5525e+000 -6.5155e+000 44059 90930,91100,91172
 5.0000e-001 91677 -1.1177e+001 -3.4137e+000 -2.9031e+000 43549 91455,91533,91481
 5.0000e-001 91654 -1.6696e+001 -5.5714e+000 -4.1403e+000 43549 91429,91533,91455
 5.0000e-001 91631 -9.5409e+000 -3.9765e+000 -7.1816e+000 43549 91481,91533,91507
 5.0000e-001 91608 -2.6093e+001 -9.5347e+000 -2.5100e+000 43549 91429,91559,91533
 5.0000e-001 91585 -1.9944e+001 -2.0576e+001  6.7347e+000 43549 91403,91559,91429
 5.0000e-001 92006  5.8556e+000  2.3445e+001  1.4962e+000 43059 91781,91885,91807
 5.0000e-001 91983  3.5733e+000  1.9672e+001  4.0602e+000 43059 91781,91911,91885
 5.0000e-001 91960 -1.0010e+001  1.7761e+001  3.3054e+000 43059 91807,91885,91833
 5.0000e-001 91937  6.4316e+000  2.5301e+001  5.5661e+000 43059 91833,91885,91859
 5.0000e-001 92561  8.3051e-001  3.4727e+000  6.0179e-001 42598 92584,92215,92189
 5.0000e-001 92538 -2.1612e+000  4.9349e+000  2.8826e+000 42598 92656,92584,92189
 5.0000e-001 92515 -4.1418e+000  7.6063e+000  1.5000e+000 42598 92656,92189,92397
 5.0000e-001 92492 -7.1751e+000  3.7627e+000  4.9629e+000 42598 92241,92319,92293
 5.0000e-001 92469 -6.3303e+000  1.2506e+000  6.8400e-001 42598 92319,92397,92371
 5.0000e-001 92446 -5.9966e+000 -5.3532e-001  1.8070e+000 42598 92319,92371,92345
 5.0000e-001 92423 -2.5373e+001  1.4626e-001  1.1662e+001 42598 92241,92293,92267
 5.0000e-001 92610 -3.4358e+000  2.2542e+000  1.3061e+000 42598 92241,92215,92584
 5.0000e-001 92633 -4.2688e+000  6.7620e-001  4.0996e+000 42598 92241,92584,92319
 5.0000e-001 92682 -4.2926e+000  1.1002e+000  1.8699e+000 42598 92319,92584,92656
 5.0000e-001 92705 -6.3466e+000  3.2269e+000  7.1304e-001 42598 92319,92656,92397
 5.0000e-001 92953  1.0270e+001  5.6422e+001 -1.7303e+001 42094 92976,92806,92780
 5.0000e-001 92930  2.6798e+000  3.1802e+001 -1.7292e+001 42094 92976,92780,92754
 5.0000e-001 92907  2.3119e+000  3.5957e+001 -3.0830e+000 42094 93048,92832,92806
 5.0000e-001 92884  6.7240e+000  2.6953e+001 -8.8328e+000 42094 92728,92858,92754
 5.0000e-001 93002  7.1989e+000  4.1155e+001 -5.0942e+000 42094 93048,92806,92976
 5.0000e-001 93025  1.0706e+001  3.2432e+001 -7.0493e+000 42094 92858,92976,92754
 5.0000e-001 93074  1.1184e+001  3.4522e+001 -8.0468e+000 42094 92858,92832,93048
 5.0000e-001 93097  1.3124e+001  3.5844e+001 -8.7192e+000 42094 92858,93048,92976
 5.0000e-001 93605 -1.7216e+001  1.8706e+000 -4.2922e+000 41846 93628,93412,93386
 5.0000e-001 93582 -6.7990e+000  4.7322e+000  6.9596e-001 41846 93628,93386,93308
 5.0000e-001 93559 -1.3924e+001  1.4026e+001  5.7258e+000 41846 93700,93464,93438
 5.0000e-001 93536 -2.6968e+000  6.4780e+000 -2.6437e+000 41846 93308,93386,93334
 5.0000e-001 93513  8.6287e+000  1.0103e+000  1.2590e-001 41846 93334,93386,93360
 5.0000e-001 93490 -1.9897e+001  1.5529e+001  3.6146e+000 41846 93282,93464,93308
 5.0000e-001 93654 -3.2913e+001  8.3002e+000 -7.6212e-001 41846 93438,93412,93628
 5.0000e-001 93677 -1.5537e+001  1.4086e+001  1.6595e+000 41846 93700,93438,93628
 5.0000e-001 93726 -1.4954e+001  8.5443e+000  2.7899e+000 41846 93308,93464,93700
 5.0000e-001 93749 -1.7319e+001  6.9621e+000 -1.2947e+000 41846 93308,93700,93628
 5.0000e-001 94255 -9.1269e+000  2.1658e+001  3.0822e+000 41385 93958,94114,94088
 5.0000e-001 94232 -1.2657e+001  3.0078e+001  7.1773e+000 41385 93932,94114,93958
 5.0000e-001 94209 -4.3716e+000  2.3836e+001  2.5688e+000 41385 93958,94088,94062
 5.0000e-001 94186 -1.1770e+001  7.2692e+000  7.0793e+000 41385 93958,94062,93984
 5.0000e-001 94163 -1.9263e+001  9.1706e+000  1.2042e+001 41385 93984,94062,94036
 5.0000e-001 94140 -2.4833e+001  7.8206e+000  1.3165e+001 41385 93984,94036,94010
 5.0000e-001 94476 -1.4142e+001  2.1332e+001  1.8327e+000 40881 94326,94378,94352
 5.0000e-001 94453 -2.5043e+001  1.7685e+001 -1.3851e+000 40881 94300,94378,94326
 5.0000e-001 94430 -1.2830e+001  2.3306e+001 -3.1241e+000 40881 94300,94404,94378
 5.0000e-001 94626 -1.2615e+001  6.2818e+000  3.2220e+000 40591 94649,94551,94525
 5.0000e-001 94603 -2.1024e+001  1.1016e+000  1.1268e+001 40591 94781,94577,94551
 5.0000e-001 94675 -1.7255e+001 -1.6709e+000  5.9722e+000 40591 94781,94551,94649
 5.0000e-001 94807 -1.2343e+001  5.1170e+000  1.2487e+001 40591 94499,94577,94781
 5.0000e-001 94830 -9.1173e+000  1.8800e+000  6.4292e+000 40591 94499,94781,94649
 5.0000e-001 95336  1.6906e+000  1.4578e+001 -9.9604e+000 40187 95013,95169,95039
 5.0000e-001 95313  4.9860e+000  2.0671e+001 -1.7095e+001 40187 95013,95195,95169
 5.0000e-001 95290  1.5943e+000  8.9155e+000 -6.0744e+000 40187 95039,95143,95065
 5.0000e-001 95267  5.3881e+000  1.1226e+001 -1.0208e+001 40187 95039,95169,95143
 5.0000e-001 95244  6.9899e+000  5.0625e-001 -2.8360e+000 40187 95091,95143,95117
 5.0000e-001 95221  5.4914e+000  4.3416e+000 -5.6693e+000 40187 95065,95143,95091
 5.0000e-001 95665  1.7639e+001  1.4148e+001 -6.2850e-001 39626 95466,95570,95544
 5.0000e-001 95642  1.7312e+001  2.8656e+001 -1.2740e+000 39626 95440,95570,95466
 5.0000e-001 95619  2.8823e+001  1.8788e+001 -9.4054e-001 39626 95466,95544,95492
 5.0000e-001 95596  1.3115e+001  1.1028e+001 -4.6660e+000 39626 95492,95544,95518
 5.0000e-001 95913  1.6336e+001  1.8518e+001 -9.2542e-001 39136 96080,95936,95766
 5.0000e-001 95890  2.4913e+001  2.6754e+001 -5.1166e+000 39136 95936,95714,95688
 5.0000e-001 95867  2.5465e+001  2.5555e+001 -1.0558e+001 39136 96008,95792,95766
 5.0000e-001 95844  1.2925e+001  1.6920e+001 -4.3640e-002 39136 96080,95766,95740
 5.0000e-001 95962  1.8704e+001  2.9305e+001 -4.4162e+000 39136 96008,95766,95936
 5.0000e-001 95985  1.4422e+001  3.9073e+001 -5.6623e+000 39136 95818,95936,95688
 5.0000e-001 96034  8.2797e+000  1.7748e+001 -1.4368e+001 39136 95818,95792,96008
 5.0000e-001 96057  6.5618e+000  2.2460e+001 -8.0417e+000 39136 95818,96008,95936
 5.0000e-001 96106  1.5955e+001  2.2408e+001 -6.8406e+000 39136 95714,95936,96080
 5.0000e-001 96129  9.2892e+000  1.8990e+001 -5.4792e+000 39136 95714,96080,95740
 5.0000e-001 96350 -1.0481e+001  5.7802e+000  7.0188e-002 38824 96200,96278,96252
 5.0000e-001 96327 -1.2596e+001  3.8623e+000 -1.1648e+000 38824 96174,96278,96200
 5.0000e-001 96304 -1.3297e+001  8.5829e+000  7.9727e-001 38824 96200,96252,96226
 5.0000e-001 96830 -4.2995e+000  1.3288e+001  2.0499e+000 38320 97069,96536,96484
 5.0000e-001 96807 -3.5167e+000  1.2873e+001  1.9743e+000 38320 97069,96484,96853
 5.0000e-001 96784 -8.5762e-001  1.6602e+001 -2.8592e+000 38320 96853,96484,96458
 5.0000e-001 96761  1.7372e+000  4.9439e+000 -1.9308e+000 38320 96925,96640,96614
 5.0000e-001 96738 -1.7581e+000  2.4557e+000 -3.5555e+000 38320 96997,96666,96640
 5.0000e-001 96715 -2.8323e+000  1.7295e+001  3.9591e+000 38320 97141,96588,96562
 5.0000e-001 96692  5.4311e+000  2.4710e+001 -2.2427e+000 38320 96484,96536,96510
 5.0000e-001 96879 -4.3386e+000  1.5433e+001  3.3052e+000 38320 97141,96562,96853
 5.0000e-001 96902 -1.9352e+000  9.4816e+000 -2.1744e+000 38320 96925,96614,96853
 5.0000e-001 96951 -1.3133e+000  2.5999e+000 -3.5310e+000 38320 96997,96640,96925
 5.0000e-001 96974 -4.1695e+000  5.1930e+000 -3.1471e+000 38320 96458,96925,96853
 5.0000e-001 97023 -3.6388e+000  2.6128e+000 -2.5196e+000 38320 96458,96666,96997
 5.0000e-001 97046 -1.9688e+000  3.2216e+000 -2.4770e+000 38320 96458,96997,96925
 5.0000e-001 97095  5.8843e+000  3.1017e+001 -3.7280e+000 38320 96562,96536,97069
 5.0000e-001 97118 -5.1276e+000  1.4582e+001  1.3344e+000 38320 96562,97069,96853
 5.0000e-001 97167  2.7985e+000  1.3772e+001  4.8745e+000 38320 96614,96588,97141
 5.0000e-001 97190 -6.0043e-001  1.0274e+001  3.4683e+000 38320 96614,97141,96853
 5.0000e-001 97519 -9.2568e+000  2.6888e-001  1.5930e+000 37766 97542,97398,97372
 5.0000e-001 97496 -1.3541e+000  2.8052e+000  6.6649e+000 37766 97542,97372,97346
 5.0000e-001 97473 -3.9343e+000  5.1614e+000  5.2357e+000 37766 97294,97424,97346
 5.0000e-001 97450  1.4605e+000  1.9178e+001  5.5860e+000 37766 97294,97346,97320
 5.0000e-001 97568 -1.9307e+001 -6.7738e+000 -3.3243e+000 37766 97424,97398,97542
 5.0000e-001 97591 -8.1524e+000 -1.7963e+000  2.2223e+000 37766 97424,97542,97346
 5.0000e-001 98048 -1.6935e+001  2.4648e+000  9.7053e+000 37262 98071,97878,97852
 5.0000e-001 98025 -2.0191e+001  5.9075e+000  4.6744e+000 37262 98071,97852,97800
 5.0000e-001 98002 -1.5826e+001  1.2696e+001  2.6558e+000 37262 97800,97852,97826
 5.0000e-001 97979 -2.2000e+001  1.4302e+000 -1.4975e+000 37262 97800,97930,97904
 5.0000e-001 97956 -1.5034e+001  6.0668e+000  1.3116e+000 37262 97774,97930,97800
 5.0000e-001 98097 -7.1134e+000  6.5546e+000  1.0138e+001 37262 97904,97878,98071
 5.0000e-001 98120 -1.5718e+001  6.6434e+000  4.6620e+000 37262 97904,98071,97800
 5.0000e-001 98449 -7.8540e+000  1.1410e+001  2.4202e+000 36950 98472,98302,98250
 5.0000e-001 98426 -1.1282e+001  1.2575e+001  2.3297e+000 36950 98472,98250,98354
 5.0000e-001 98403 -3.1152e+000  1.6196e+001 -2.0974e+000 36950 98250,98302,98276
 5.0000e-001 98380 -2.0513e+001  1.1654e+001  5.7797e+000 36950 98224,98354,98250
 5.0000e-001 98498 -1.0348e+001  1.0862e+001  8.8967e-001 36950 98328,98302,98472
 5.0000e-001 98521 -1.3487e+001  1.2672e+001  1.3327e+000 36950 98328,98472,98354
 5.0000e-001 99125  7.9581e+000  8.8116e+000 -6.6421e+000 36296 98704,98756,98730
 5.0000e-001 99102  1.2887e+000  1.5866e+001 -4.4636e+000 36296 98704,98938,98756
 5.0000e-001 99079 -8.2340e+000  3.3130e+001 -9.5587e+000 36296 99148,98938,98912
 5.0000e-001 99056 -1.8711e+000  1.3768e+001 -1.5471e+001 36296 99292,99220,98782
 5.0000e-001 99033 -8.8952e+000  1.4750e+001 -8.3304e+000 36296 99148,98912,98834
 5.0000e-001 99010 -5.9620e+000  8.2839e+000 -1.3161e+001 36296 99292,98782,98756
 5.0000e-001 98987 -9.5375e+000  9.1817e+000 -1.0025e+001 36296 98834,98912,98886
 5.0000e-001 98964  6.4785e+000  3.3119e+000 -1.6265e+000 36296 98834,98886,98860
 5.0000e-001 99174 -6.0420e+000  2.0066e+001 -8.8818e+000 36296 99220,98938,99148
 5.0000e-001 99197 -1.3701e+001  7.0967e+000 -4.7895e+000 36296 98808,99148,98834
 5.0000e-001 99246 -1.0631e+001 -7.2112e+000 -3.4232e+001 36296 98808,98782,99220
 5.0000e-001 99269 -1.9595e+001  7.4598e+000 -1.4585e+001 36296 98808,99220,99148
 5.0000e-001 99318 -9.4502e+000  5.4194e+000 -1.1059e+001 36296 98938,99220,99292
 5.0000e-001 99341 -9.0171e+000  6.7861e+000 -9.8391e+000 36296 98938,99292,98756
 5.0000e-001 99719 -4.9631e+000  1.3330e+001  5.7997e-001 35742 99742,99471,99601
 5.0000e-001 99696 -3.0560e+000  1.0155e+001 -8.6403e-001 35742 99445,99601,99471
 5.0000e-001 99673 -4.9799e+000  1.3255e+001 -7.1530e-001 35742 99742,99601,99575
 5.0000e-001 99650 -5.3804e+000  2.8360e+001 -1.5983e+000 35742 99814,99549,99523
 5.0000e-001 99627 -2.9739e+000  1.7583e+001 -4.8851e+000 35742 99471,99523,99497
 5.0000e-001 99768 -7.7715e+000  1.4819e+001 -2.9563e+000 35742 99523,99471,99742
 5.0000e-001 99791 -3.9896e+000  2.3276e+001 -2.2195e+000 35742 99814,99523,99742
 5.0000e-001 99840 -2.8196e+000  2.1157e+001  3.0164e-001 35742 99575,99549,99814
 5.0000e-001 99863 -3.0149e+000  1.4026e+001 -7.4500e-001 35742 99575,99814,99742
 5.0000e-001 100111 -7.7875e+000  4.0341e+000 -3.3548e+000 35302 100134,99990,99938
 5.0000e-001 100088 -1.2367e+001  1.6893e+000  7.2140e-001 35302 100134,99938,99912
 5.0000e-001 100065 -1.1115e+001 -1.3629e+001  5.7292e+000 35302 100206,99886,100016
 5.0000e-001 100042  6.2074e+000  4.3674e+000  4.1990e-001 35302 99938,99990,99964
 5.0000e-001 100160 -1.1072e+001  3.2496e+000  3.8111e+000 35302 100016,99990,100134
 5.0000e-001 100183 -1.4259e+001 -8.0524e+000  6.2496e+000 35302 100206,100016,100134
 5.0000e-001 100232 -1.2860e+001 -6.9894e+000 -2.0590e-001 35302 99912,99886,100206
 5.0000e-001 100255 -1.4219e+001  1.4211e+000  1.1352e+000 35302 99912,100206,100134
 5.0000e-001 100586  1.6561e+001  2.0548e+001 -1.1803e+001 35012 100609,100387,100361
 5.0000e-001 100563  1.8093e+001  1.6017e+001 -6.7561e+000 35012 100609,100361,100465
 5.0000e-001 100540  1.3314e+001  3.2412e+000 -4.8038e+000 35012 100361,100491,100465
 5.0000e-001 100517  1.0024e+001  1.8060e+001 -2.0592e-001 35012 100413,100465,100439
 5.0000e-001 100635  1.2107e+001  1.8486e+001 -8.1720e+000 35012 100413,100387,100609
 5.0000e-001 100658  1.2988e+001  1.2168e+001 -3.0583e+000 35012 100413,100609,100465
 5.0000e-001 100987 -1.0856e+001  8.9124e+000 -2.3599e+001 34700 100788,100866,100814
 5.0000e-001 100964  3.2707e+001  6.6929e+000 -1.6446e+001 34700 101010,100866,100788
 5.0000e-001 100941  4.9378e+000  2.3156e+000 -8.1873e+000 34700 100762,100892,100866
 5.0000e-001 100918 -4.2068e+000  1.5935e+001  2.9388e+000 34700 100814,100866,100840
 5.0000e-001 101036  1.0217e+001  2.3760e+000 -7.2628e+000 34700 100762,100866,101010
 5.0000e-001 101493  2.6720e-001  6.9957e+000 -1.9461e+000 34132 101516,101349,101297
 5.0000e-001 101470  4.9936e+000  1.0922e+001 -1.2380e-001 34132 101588,101516,101297
 5.0000e-001 101447  1.4041e+000  4.8746e+000  2.8984e+000 34132 101588,101297,101245
 5.0000e-001 101424  4.3218e+000  4.2867e+000  2.5683e+000 34132 101245,101297,101271
 5.0000e-001 101401 -1.0459e+001  5.5556e+000 -5.1068e+000 34132 101297,101349,101323
 5.0000e-001 101542 -8.7735e+000  1.0850e+001  8.6933e-001 34132 101375,101349,101516
 5.0000e-001 101565  1.3169e+000  2.1418e+001  6.1105e+000 34132 101375,101516,101219
 5.0000e-001 101614  3.3592e-001  5.8904e+000  4.1066e+000 34132 101219,101516,101588
 5.0000e-001 101637  7.3449e-001  3.0088e+000  6.4587e+000 34132 101219,101588,101245
 5.0000e-001 101858 -1.4961e+001  2.3006e+001 -2.1260e+000 33720 101708,101786,101760
 5.0000e-001 101835 -1.2004e+001  2.1187e+001 -2.8942e-001 33720 101682,101786,101708
 5.0000e-001 101812 -7.6991e+000  2.5861e+001 -2.3831e+000 33720 101708,101760,101734
 5.0000e-001 102128 -1.3834e+001  1.2174e+001  2.1882e+000 33130 101903,102007,101929
 5.0000e-001 102105 -1.0997e+001  2.0890e+001 -1.4653e+000 33130 101903,102033,102007
 5.0000e-001 102082 -8.6089e+000  1.7033e+001  5.1834e+000 33130 101929,102007,101955
 5.0000e-001 102059 -8.9820e+000  8.0353e+000 -7.1118e-001 33130 101955,102007,101981
 5.0000e-001 102461  2.5797e+000  3.1941e+001  3.5475e+000 32840 102236,102340,102262
 5.0000e-001 102438  2.2381e+000  1.9537e+001 -5.5147e+000 32840 102236,102366,102340
 5.0000e-001 102415 -8.7882e+000  2.8330e+001  3.2910e+000 32840 102262,102340,102288
 5.0000e-001 102392  1.3082e+001  3.3431e+001  1.4489e+001 32840 102288,102340,102314
 5.0000e-001 102997  7.5618e+000  9.9444e+000  9.5538e-001 32493 102749,102879,102853
 5.0000e-001 102974  5.5400e+000  8.3218e+000  6.5790e+000 32493 102723,102879,102749
 5.0000e-001 102951  7.4294e+000  1.5464e+001 -3.0942e+000 32493 102749,102801,102775
 5.0000e-001 102928  3.5105e+000  8.4146e+000  3.9597e-001 32493 102749,102853,102801
 5.0000e-001 102905  9.9766e+000  2.2395e+001 -1.2795e+000 32493 102801,102853,102827
 5.0000e-001 103454 -2.7065e+001  1.3178e+001 -4.9223e-001 32089 103206,103336,103310
 5.0000e-001 103431 -2.4615e+001  2.1453e+001 -1.9741e-001 32089 103180,103336,103206
 5.0000e-001 103408 -3.5921e+000  2.3664e+001  8.5663e+000 32089 103206,103284,103258
 5.0000e-001 103385  2.3412e+000  2.8663e+001  5.7353e+000 32089 103206,103310,103284
 5.0000e-001 103362 -7.8572e+000  1.4276e+001  1.0127e+001 32089 103206,103258,103232
 5.0000e-001 103783  9.4509e+000  3.3179e+001 -5.1301e+000 31742 103558,103662,103584
 5.0000e-001 103760  8.1484e+000  2.7023e+001 -8.9692e+000 31742 103558,103688,103662
 5.0000e-001 103737  1.1111e+000  2.3310e+001  5.0195e-001 31742 103584,103662,103636
 5.0000e-001 103714 -2.5101e+000  2.3991e+001  2.4492e+000 31742 103584,103636,103610
 5.0000e-001 104112 -1.3414e+001  2.3565e+001 -1.2035e+000 31402 103939,103991,103965
 5.0000e-001 104089 -1.3816e+001  1.7913e+001 -1.0171e+000 31402 103913,103991,103939
 5.0000e-001 104066 -1.8329e+000  2.9917e+001  5.4633e+000 31402 103913,104017,103991
 5.0000e-001 104043  2.0427e+000  2.8379e+001  8.0093e+000 31402 103887,104017,103913
 5.0000e-001 104569  1.3223e-001  1.2548e+001  9.5302e+000 30998 104321,104425,104373
 5.0000e-001 104546  5.2602e+000  1.4393e+001  9.8057e+000 30998 104321,104451,104425
 5.0000e-001 104523  4.5694e+000  2.2985e+001  1.5652e+001 30998 104373,104425,104399
 5.0000e-001 104500 -3.1910e+000  1.0961e+001  8.3895e+000 30998 104295,104451,104321
 5.0000e-001 104477  1.0188e+001  2.8411e+001  3.5384e+000 30998 104321,104373,104347
 5.0000e-001 104947  8.0792e+000  4.0654e+001 -1.5636e+000 30608 104751,104803,104777
 5.0000e-001 104924 -1.7343e+001  3.2248e+000 -1.2835e+001 30608 104725,104803,104751
 5.0000e-001 104901 -2.4016e+001 -3.6892e+000 -1.7677e+001 30608 104699,104803,104725
 5.0000e-001 104878  2.1478e+001 -1.6326e+000  3.5026e+000 30608 104673,104803,104699
 5.0000e-001 104855  2.1261e+001  6.9331e+000  6.2397e+000 30608 104673,104829,104803
 5.0000e-001 105276  5.8032e+000  1.0484e+001  5.1361e+000 30204 105427,105129,105077
 5.0000e-001 105253  4.3819e+000  7.7590e+000  4.6223e+000 30204 105427,105077,105051
 5.0000e-001 105230  4.7602e+000 -1.3037e+000 -1.4890e+000 30204 105077,105129,105103
 5.0000e-001 105207  4.1256e+000  2.0947e+000  3.8409e+000 30204 105299,105181,105155
 5.0000e-001 105325  1.3599e+001  4.9173e+000  7.8266e+000 30204 105129,105181,105299
 5.0000e-001 105453  6.5114e+000  1.0082e+001  7.5489e+000 30204 105181,105129,105427
 5.0000e-001 105476  5.3571e+000  7.3866e+000  7.2668e+000 30204 105181,105427,105051
 5.0000e-001 105903 -1.6862e+001 -4.8596e+000  1.9073e+000 29700 105606,105762,105736
 5.0000e-001 105880 -1.3484e+001 -9.5368e-001  1.0049e+001 29700 105580,105762,105606
 5.0000e-001 105857 -5.0340e+000 -2.8921e+000  1.5951e+000 29700 105606,105710,105632
 5.0000e-001 105834 -8.5375e+000 -4.4245e+000 -8.5133e-001 29700 105606,105736,105710
 5.0000e-001 105811  3.8881e+000  1.1547e+000 -3.0564e+000 29700 105632,105710,105684
 5.0000e-001 105788  3.1819e+000 -2.8904e-001 -8.1527e-002 29700 105632,105684,105658
 5.0000e-001 106102  2.3623e+001 -5.6993e+000  6.7316e+000 29124 105978,106030,106004
 5.0000e-001 106079  4.3316e+001  5.4060e+000  1.1711e+001 29124 105926,106030,105978
 5.0000e-001 106056  3.9790e+001  2.2746e+001 -2.3068e+001 29124 105926,105978,105952
 5.0000e-001 106301 -7.6438e+000  6.9997e+000 -1.7897e+000 28712 106151,106229,106203
 5.0000e-001 106278 -2.2548e+000  1.1627e+001  3.3175e-001 28712 106125,106229,106151
 5.0000e-001 106255 -1.3484e+001  5.6066e+000 -2.4320e+000 28712 106151,106203,106177
 5.0000e-001 106551  1.9626e+001  2.6620e+000  1.3317e+001 28258 106352,106404,106378
 5.0000e-001 106528  2.4803e+001  1.2373e+001  3.0322e+000 28258 106352,106456,106404
 5.0000e-001 106505  1.7013e+001  2.4089e+001  7.4455e+000 28258 106326,106456,106352
 5.0000e-001 106482  1.2624e+001 -8.3751e+000  9.5344e+000 28258 106404,106456,106430
 5.0000e-001 107012 -2.6696e+000  1.3159e+001  1.7894e-001 27818 107035,106790,106764
 5.0000e-001 106989  2.0174e+000  2.4273e+001  2.4314e-001 27818 107035,106764,106868
 5.0000e-001 106966 -1.1050e+001  5.5873e+001 -9.0544e+000 27818 107107,106842,106816
 5.0000e-001 106943 -1.1077e+001  5.2908e+000  8.7729e+000 27818 106738,106868,106764
 5.0000e-001 106920 -4.2122e+000  1.7506e+001  2.1226e+000 27818 106738,106894,106868
 5.0000e-001 107061 -3.0374e+000  2.2776e+001 -9.3652e+000 27818 106816,106790,107035
 5.0000e-001 107084  3.4584e+000  4.1422e+001 -9.7282e+000 27818 107107,106816,107035
 5.0000e-001 107133 -2.3509e+001  3.6783e+001 -1.5608e-001 27818 106868,106842,107107
 5.0000e-001 107156 -9.7522e+000  1.8254e+001 -2.1723e+000 27818 106868,107107,107035
 5.0000e-001 107613 -3.5296e+001 -7.1570e-001 -8.9938e+000 27312 107339,107469,107365
 5.0000e-001 107590 -2.0725e+001 -1.7770e+000 -7.3806e+000 27312 107339,107495,107469
 5.0000e-001 107567 -2.8062e+001  1.9449e+001 -1.3868e+001 27312 107391,107469,107443
 5.0000e-001 107544 -2.3139e+001  1.8826e+000 -1.6868e+001 27312 107365,107469,107391
 5.0000e-001 107521 -4.7404e+001  9.5342e+000 -9.2600e+000 27312 107391,107443,107417
 5.0000e-001 107991 -3.0147e+000  3.3234e+001 -2.7441e+000 26858 108086,108014,107795
 5.0000e-001 107968 -2.9336e+000  2.5317e+001 -1.5894e+000 26858 108014,107717,107873
 5.0000e-001 107945 -1.8046e-001  3.8407e+001 -3.8473e+000 26858 108158,108086,107795
 5.0000e-001 107922  4.2560e+000  4.5413e+001 -6.6878e+000 26858 108158,107795,107769
 5.0000e-001 107899 -7.2775e-001  4.7714e+001 -6.4848e+000 26858 107821,107873,107847
 5.0000e-001 108040 -8.8834e-001  4.7521e+001 -4.7135e+000 26858 107821,107795,108014
 5.0000e-001 108063 -5.8066e+000  3.5177e+001 -2.1588e+000 26858 107821,108014,107873
 5.0000e-001 108112  8.1261e-001  3.5103e+001 -1.7591e+000 26858 107717,108014,108086
 5.0000e-001 108135  1.5002e+000  2.6468e+001  4.7300e-001 26858 107717,108086,107743
 5.0000e-001 108184  6.2186e+000  3.0699e+001 -2.8833e+000 26858 107743,108086,108158
 5.0000e-001 108207  6.5723e+000  3.4759e+001 -3.8387e+000 26858 107743,108158,107769
 5.0000e-001 108634 -2.9528e+000 -8.7664e-001  1.9286e+001 26404 108657,108415,108363
 5.0000e-001 108611  7.9590e+000  2.8279e+001  2.3892e+001 26404 108657,108363,108337
 5.0000e-001 108588 -1.2391e+001  1.5710e+001  8.5835e+000 26404 108729,108311,108467
 5.0000e-001 108565  1.1625e+001  6.6193e+000  9.7823e+000 26404 108801,108441,108415
 5.0000e-001 108542  3.6440e+000  2.6095e+001 -3.4685e+000 26404 108311,108493,108467
 5.0000e-001 108519  3.0930e+001 -2.9485e+000  1.8692e+001 26404 108363,108415,108389
 5.0000e-001 108683  6.5529e+000  1.0766e+001  1.0587e+001 26404 108801,108415,108657
 5.0000e-001 108706  5.6307e+000  1.5722e+001  1.0119e+001 26404 108729,108467,108657
 5.0000e-001 108755 -2.1786e+001  1.8084e+001  9.4396e+000 26404 108337,108311,108729
 5.0000e-001 108778 -1.2916e+001  1.1221e+001  1.2520e+001 26404 108337,108729,108657
 5.0000e-001 108827  5.5509e+000  5.5642e-001  7.3548e+000 26404 108467,108441,108801
 5.0000e-001 108850  1.4646e+000  6.4797e+000  8.7037e+000 26404 108467,108801,108657
 5.0000e-001 109228  1.2260e+001  3.4999e+001  7.9238e+000 26064 109006,109084,109058
 5.0000e-001 109205  2.1444e+000  2.9635e+001  5.7740e+000 26064 108980,109084,109006
 5.0000e-001 109182  8.5369e+000  2.8328e+001  9.0947e+000 26064 108980,109110,109084
 5.0000e-001 109159  1.2108e+001  2.8435e+001  1.2631e+001 26064 109006,109058,109032
 5.0000e-001 109136  7.4823e+000  2.1561e+001  7.0319e+000 26064 108954,109110,108980
 5.0000e-001 109427  2.4303e+001  4.1070e+001 -1.6502e+000 25660 109303,109355,109329
 5.0000e-001 109404  1.7084e+001  2.2011e+001 -1.0207e+001 25660 109277,109355,109303
 5.0000e-001 109381  4.8316e+001  2.0855e+001 -1.0160e+001 25660 109251,109355,109277
 5.0000e-001 109577 -1.7377e+001  6.8318e+000 -1.3874e+001 25306 109476,109528,109502
 5.0000e-001 109554 -3.1440e+001  6.6319e+000 -6.2627e+000 25306 109450,109528,109476
 5.0000e-001 109778 -9.2762e+000  1.4890e+001 -3.0845e-002 24944 109628,109706,109654
 5.0000e-001 109755 -1.3849e+001  2.2228e+001 -4.5466e+000 24944 109602,109706,109628
 5.0000e-001 109732 -1.1470e+001  1.3681e+001  3.3891e+000 24944 109654,109706,109680
 5.0000e-001 110126 -4.9778e+000  2.3690e+001 -3.6266e+000 24440 110149,109907,109855
 5.0000e-001 110103 -7.3091e+000  2.3472e+001 -3.6936e+000 24440 110149,109855,109985
 5.0000e-001 110080 -1.0969e+001  1.8957e+001  2.4174e-001 24440 109855,109907,109881
 5.0000e-001 110057 -1.2599e+001  1.5732e+001 -9.5498e+000 24440 109829,109985,109855
 5.0000e-001 110034  2.1716e+000  1.1997e+001 -1.0356e+001 24440 109907,109959,109933
 5.0000e-001 110011 -3.5785e+000  2.2362e+001  2.5680e+000 24440 109803,109985,109829
 5.0000e-001 110175 -5.9783e+000  2.4850e+001 -5.5026e+000 24440 109959,109907,110149
 5.0000e-001 110198 -9.5320e+000  2.3875e+001 -5.4655e+000 24440 109959,110149,109985
 5.0000e-001 110301 -2.1375e+001  2.3734e+001  6.0744e-001 24028 110223,110275,110249
 5.0000e-001 110573 -1.0602e+001  1.9434e+001 -5.5910e-001 23467 110400,110452,110426
 5.0000e-001 110550 -1.3272e+001  1.6611e+001 -2.1096e+000 23467 110374,110452,110400
 5.0000e-001 110527 -7.2411e+000  1.9181e+001 -2.7022e+000 23467 110348,110452,110374
 5.0000e-001 110504 -8.5533e+000  1.6291e+001 -1.8427e+000 23467 110348,110478,110452
 5.0000e-001 111004  1.9014e+001  1.4743e+001 -3.3014e+001 22963 111027,110733,110707
 5.0000e-001 110981 -1.1090e+001  8.1418e+000 -1.3517e+001 22963 111027,110707,110681
 5.0000e-001 110958 -2.1519e+001  7.8679e+000 -8.7148e+000 22963 111099,110759,110733
 5.0000e-001 110935 -5.7119e+000  1.8910e+001 -1.3813e+001 22963 111171,110863,110811
 5.0000e-001 110912 -5.8457e+001  3.2096e+001 -6.3905e+000 22963 110759,110811,110785
 5.0000e-001 110889 -1.6533e+001  4.3999e+001  1.1829e+001 22963 110811,110863,110837
 5.0000e-001 111053 -1.5788e+000  2.4355e+001 -1.9029e+001 22963 111099,110733,111027
 5.0000e-001 111076 -3.8286e+000  1.0352e+001 -1.2283e+001 22963 111171,110811,111027
 5.0000e-001 111125 -2.3459e+001  2.3691e+000  1.3207e+000 22963 110811,110759,111099
 5.0000e-001 111148 -2.1564e+001 -1.4358e+000 -5.6889e+000 22963 110811,111099,111027
 5.0000e-001 111197 -6.6577e+000  3.3931e+001 -1.6362e+001 22963 110681,110863,111171
 5.0000e-001 111220 -9.4422e+000  2.2819e+001 -1.0708e+001 22963 110681,111171,111027
 5.0000e-001 111726  8.7398e+000  1.5528e+000 -9.8544e+000 22459 111749,111507,111429
 5.0000e-001 111703 -3.2260e+000 -1.5819e+000  1.1243e+001 22459 111749,111429,111585
 5.0000e-001 111680 -4.4979e+001  3.2186e+001  2.6194e+000 22459 111403,111585,111429
 5.0000e-001 111657  1.2236e+001  3.5708e+001 -2.1636e+001 22459 111507,111559,111533
 5.0000e-001 111634  1.3818e+000  5.8322e+001 -8.6582e+000 22459 111455,111507,111481
 5.0000e-001 111611 -2.8111e+001  5.0469e+001  6.6537e-001 22459 111429,111507,111455
 5.0000e-001 111775  1.2460e+001  3.3016e+001 -2.2936e+001 22459 111559,111507,111749
 5.0000e-001 111798 -2.2517e+000  1.2859e+001 -2.9256e+000 22459 111559,111749,111585
 5.0000e-001 112046  2.1477e+000  1.9851e+001  8.3730e-001 21898 112069,111925,111873
 5.0000e-001 112023  1.2191e+000  1.5865e+001  6.2440e+000 21898 112069,111873,111847
 5.0000e-001 112000 -1.9953e+001  2.5259e+001  1.2280e+001 21898 111821,111951,111847
 5.0000e-001 111977 -1.6292e+000  1.1120e+001 -1.9164e+000 21898 111873,111925,111899
 5.0000e-001 112095 -4.9402e+000  1.6107e+001  3.0923e+000 21898 111951,111925,112069
 5.0000e-001 112118 -2.4423e+000  1.3872e+001  8.1448e+000 21898 111951,112069,111847
 5.0000e-001 112498  3.2915e+001  2.4050e+001 -1.4811e+001 21608 112521,112276,112224
 5.0000e-001 112475  4.0183e+001  2.4479e+001 -1.2032e+001 21608 112521,112224,112380
 5.0000e-001 112452  3.5985e+001  1.8154e+001  9.6542e-001 21608 112302,112380,112354
 5.0000e-001 112429  2.2673e+001  1.4777e+001 -1.0227e+001 21608 112224,112276,112250
 5.0000e-001 112406  2.1166e+001  1.2958e+001 -3.1257e-001 21608 112302,112354,112328
 5.0000e-001 112547  3.8736e+001  2.7050e+001 -1.0667e+001 21608 112302,112276,112521
 5.0000e-001 112570  4.4633e+001  2.4397e+001 -9.0778e+000 21608 112302,112521,112380
 5.0000e-001 112948 -5.9875e+001 -6.7079e+000  1.7025e+001 20882 112971,112752,112700
 5.0000e-001 112925 -3.8141e+001  2.1217e+000  1.6585e+001 20882 112971,112700,112830
 5.0000e-001 112902 -2.3854e+001 -1.0984e+000  2.8235e+001 20882 112778,112830,112804
 5.0000e-001 112879 -4.0667e+001 -1.0312e+001  1.7133e+001 20882 112674,112830,112700
 5.0000e-001 112856 -5.1101e+001  1.0245e+001  1.2611e+001 20882 112700,112752,112726
 5.0000e-001 112997 -5.9014e+001 -2.9955e+000  2.9649e+001 20882 112778,112752,112971
 5.0000e-001 113020 -4.7249e+001  1.5266e+000  2.8499e+001 20882 112778,112971,112830
 5.0000e-001 113526 -1.7851e+000  2.0782e+000  7.5326e-001 20428 113255,113385,113333
 5.0000e-001 113503 -3.6525e+000 -4.9795e-001 -2.2763e-001 20428 113229,113385,113255
 5.0000e-001 113480 -6.7313e+000 -1.1636e+000 -6.5135e-001 20428 113255,113333,113281
 5.0000e-001 113457 -2.5729e+000 -4.0995e-001 -2.3218e-001 20428 113203,113385,113229
 5.0000e-001 113434  7.4706e+000 -2.9275e+000  3.2382e+000 20428 113281,113333,113307
 5.0000e-001 113411  1.6347e+000 -2.7626e+000  4.7191e-001 20428 113333,113385,113359
 5.0000e-001 113774 -2.4632e+001 -5.4305e+000  8.8050e-001 19917 113797,113601,113549
 5.0000e-001 113751 -2.3387e+001 -1.0025e+001  2.4917e+000 19917 113869,113797,113549
 5.0000e-001 113728 -2.4283e+001 -1.0473e+001  2.7172e+000 19917 113869,113549,113679
 5.0000e-001 113705 -2.4557e+001 -1.0064e+001 -1.2765e+000 19917 113549,113601,113575
 5.0000e-001 113823 -2.2040e+001  2.8816e+000  1.7342e+000 19917 113627,113601,113797
 5.0000e-001 113846 -2.0614e+001 -4.9157e+000 -1.6367e+000 19917 113627,113797,113653
 5.0000e-001 113895 -2.4517e+001 -6.3294e+000 -2.0215e+000 19917 113653,113797,113869
 5.0000e-001 113918 -3.0676e+001 -9.1231e+000 -1.2254e+000 19917 113653,113869,113679
 5.0000e-001 114166  4.5612e+001  3.4211e+001 -1.8434e+000 19413 113993,114045,114019
 5.0000e-001 114143  5.3161e+001  3.4380e+001 -1.0069e+000 19413 113967,114045,113993
 5.0000e-001 114120  4.1620e+001  2.8968e+001  2.9279e+000 19413 113967,114071,114045
 5.0000e-001 114097  5.6537e+001  3.2432e+001  3.7603e+000 19413 113941,114071,113967
 5.0000e-001 114438 -1.2423e+000 -4.4191e-001  2.4475e-001 19001 114213,114265,114239
 5.0000e-001 114415 -6.1598e+000 -9.3174e+000  2.1871e+000 19001 114213,114343,114265
 5.0000e-001 114392 -2.1511e+000  1.0805e+000  1.0862e+000 19001 114265,114343,114317
 5.0000e-001 114369  2.9465e+000  2.2025e+000 -4.6746e-001 19001 114265,114317,114291
 5.0000e-001 114639  5.9326e-001  5.0728e+000  3.4045e+000 18554 114489,114541,114515
 5.0000e-001 114616 -8.6963e+000  9.5696e+000  3.4267e+000 18554 114489,114567,114541
 5.0000e-001 114593 -1.6927e+001  1.6103e+001  3.0450e+000 18554 114463,114567,114489
 5.0000e-001 115043  3.1284e+001  2.4955e+001 -2.7089e+000 18164 114795,114925,114821
 5.0000e-001 115020  2.6908e+001  2.2076e+001 -5.0445e+000 18164 114769,114925,114795
 5.0000e-001 114997  2.6884e+001  1.8712e+001 -3.2059e+000 18164 115066,114873,114821
 5.0000e-001 114974  3.0232e+001  2.4513e+001 -1.8442e+000 18164 115066,114821,114925
 5.0000e-001 114951  2.4742e+001  1.7150e+001 -4.1948e+000 18164 114821,114873,114847
 5.0000e-001 115092  2.2105e+001  2.3263e+001 -6.8831e+000 18164 114899,114873,115066
 5.0000e-001 115115  2.6463e+001  3.1870e+001 -5.2602e+000 18164 114899,115066,114925
 5.0000e-001 115265  5.3006e+000  2.5359e+000 -2.4808e+000 17852 115164,115216,115190
 5.0000e-001 115242 -3.6415e+000  8.6283e+000 -5.6582e+000 17852 115138,115216,115164
 5.0000e-001 115464 -6.2241e+001 -1.3991e+001 -8.0314e+000 17346 115288,115366,115340
 5.0000e-001 115441 -1.1797e+001 -1.7502e+001 -1.1924e+001 17346 115288,115392,115366
 5.0000e-001 115418 -4.6794e+001 -2.7571e+000 -3.1206e+000 17346 115288,115340,115314
 5.0000e-001 115736 -4.0562e+000  4.9716e-002 -3.3011e-001 16942 115563,115641,115615
 5.0000e-001 115713 -4.2540e+000  1.6964e+000 -9.0411e-001 16942 115511,115641,115563
 5.0000e-001 115690 -2.3386e+000  7.4469e-001 -1.7020e-001 16942 115563,115615,115589
 5.0000e-001 115667 -5.9155e+000  8.8453e-001 -6.1245e-004 16942 115511,115563,115537
 5.0000e-001 116091 -3.9492e+000  7.8233e-001  4.1088e+000 16388 115918,115970,115944
 5.0000e-001 116068  1.6867e+000 -7.1280e+000  8.7146e+000 16388 115918,115996,115970
 5.0000e-001 116045  1.1829e+001 -1.5443e+001  5.6663e+000 16388 115892,115996,115918
 5.0000e-001 116022  2.3436e+000 -2.2949e+000  5.5158e-001 16388 115866,115996,115892
 5.0000e-001 116192 -3.1526e-023  6.8566e-023  6.1358e-024 15810 116114,116166,116140
 5.0000e-001 116342 -9.6935e+000  1.1837e+000 -7.5880e-003 15419 116241,116293,116267
 5.0000e-001 116319  1.9547e+000  9.4637e-001  5.2451e-001 15419 116215,116293,116241
 5.0000e-001 116445  2.5972e+001  4.3472e+001 -8.7297e+000 421 116367,116419,116393
 6.0000e-001 68477  8.0079e+000  1.1581e+001  2.1895e+000 68018 68327,68379,68353
 6.0000e-001 68454  1.0552e+001  1.5530e+001  7.8361e-001 68018 68301,68379,68327
 6.0000e-001 68431  1.9846e+001  1.3834e+001  4.4208e+000 68018 68301,68405,68379
 6.0000e-001 68578  2.0957e+000  1.6813e+000 -1.6777e-001 67820 68500,68552,68526
 6.0000e-001 68728 -8.8721e-002 -8.1857e-001  4.9982e-001 67508 68601,68653,68627
 6.0000e-001 68705  8.2687e-002 -8.0150e-001  5.9348e-001 67508 68601,68679,68653
 6.0000e-001 68927  2.1564e+001  1.3901e+001 -5.0525e+000 67310 68777,68829,68803
 6.0000e-001 68904  9.3412e+000  1.4246e+001 -8.3881e-001 67310 68751,68829,68777
 6.0000e-001 68881  1.1494e+001  1.8639e+001 -9.6616e-002 67310 68751,68855,68829
 6.0000e-001 69386  6.3338e+000  1.5257e+001 -6.6357e+000 67020 69216,69268,69242
 6.0000e-001 69363  1.2775e+001  1.6693e+001 -1.6378e-001 67020 69138,69268,69216
 6.0000e-001 69340  1.3980e+001  2.1143e+001  3.1416e+000 67020 69112,69268,69138
 6.0000e-001 69317  6.7403e+000  1.7732e+001 -8.3526e+000 67020 69138,69190,69164
 6.0000e-001 69294  1.0501e+001  1.6692e+001  7.7004e-001 67020 69138,69216,69190
 6.0000e-001 69536 -7.2234e-001 -6.0442e+000  5.2743e+000 66708 69435,69487,69461
 6.0000e-001 69513  7.8911e+000  4.7790e+000  2.1855e-001 66708 69409,69487,69435
 6.0000e-001 69735 -2.5482e+000 -7.1407e-001  1.3188e+000 66346 69585,69637,69611
 6.0000e-001 69712  5.4678e-001 -1.8920e+000  8.3674e-001 66346 69559,69637,69585
 6.0000e-001 69689  1.2178e+000 -4.5581e-001  6.2814e-001 66346 69559,69663,69637
 6.0000e-001 69985 -1.7593e+001 -4.7014e+000  6.1919e+000 66148 69786,69890,69864
 6.0000e-001 69962 -1.0000e+001  2.0417e+000  7.1058e-001 66148 69760,69890,69786
 6.0000e-001 69939 -3.3713e+001  1.5585e+001  3.2665e+001 66148 69786,69864,69838
 6.0000e-001 69916 -1.8958e+001  2.6747e+001  1.3113e+001 66148 69786,69838,69812
 6.0000e-001 70137  1.0388e+000  1.3295e+001 -4.8746e-001 65950 70036,70088,70062
 6.0000e-001 70114 -6.6889e+000  1.2922e+001 -2.3220e+000 65950 70010,70088,70036
 6.0000e-001 70470 -2.6904e+000  3.5336e+000  2.9939e+000 65546 70245,70323,70271
 6.0000e-001 70447  1.7203e+000  1.0500e+001  5.6553e-001 65546 70245,70375,70323
 6.0000e-001 70424  2.3732e+000  7.7515e+000  1.4936e+000 65546 70323,70375,70349
 6.0000e-001 70401 -3.6809e-001  5.7362e+000  1.8753e+000 65546 70271,70323,70297
 6.0000e-001 70620 -9.0845e+000  1.3674e+001 -2.7994e+000 65348 70493,70545,70519
 6.0000e-001 70597  9.6964e+000  2.9171e+001  3.9794e+000 65348 70493,70571,70545
 6.0000e-001 70721  1.3303e+001  2.1107e+001 -7.7031e-001 65150 70643,70695,70669
 6.0000e-001 71020  2.9400e+000  1.0218e+001 -4.3180e+000 64952 71043,70850,70824
 6.0000e-001 70997  3.3895e-001  4.6292e+000 -3.6305e+000 64952 71043,70824,70772
 6.0000e-001 70974  7.4245e-001  1.2053e+001 -2.3804e+000 64952 71115,70746,70876
 6.0000e-001 70951  4.3477e-001  1.4543e+001  1.6881e-001 64952 70746,70902,70876
 6.0000e-001 70928  3.7931e+000  5.9435e+000 -4.0260e+000 64952 70772,70824,70798
 6.0000e-001 71069 -1.6236e-001  9.4169e+000 -3.1641e+000 64952 70876,70850,71043
 6.0000e-001 71092  4.4243e-001  1.0921e+001 -2.5168e+000 64952 71115,70876,71043
 6.0000e-001 71141  1.8745e+000  1.0748e+001 -1.3409e+000 64952 70772,70746,71115
 6.0000e-001 71164  1.2281e+000  9.0657e+000 -1.4698e+000 64952 70772,71115,71043
 6.0000e-001 71365 -9.7013e+000  1.7559e+001  1.1223e+000 64662 71215,71293,71267
 6.0000e-001 71342 -1.5405e+001  9.5707e+000  4.3218e+000 64662 71189,71293,71215
 6.0000e-001 71319 -1.4138e+001  4.1769e+000  1.6261e+000 64662 71215,71267,71241
 6.0000e-001 71615  2.6427e+001  2.9659e+001 -2.1268e-001 64350 71710,71638,71468
 6.0000e-001 71592  2.9042e+001  2.4987e+001  4.5958e-002 64350 71638,71416,71390
 6.0000e-001 71569  2.7398e+001  2.6007e+001 -3.2785e+000 64350 71710,71468,71442
 6.0000e-001 71546  4.1421e+001  2.0321e+001 -7.6802e+000 64350 71390,71520,71494
 6.0000e-001 71664  3.1118e+001  3.0318e+001  4.1680e+000 64350 71494,71468,71638
 6.0000e-001 71687  2.6299e+001  2.1010e+001  2.2806e+000 64350 71494,71638,71390
 6.0000e-001 71736  2.5106e+001  2.2166e+001 -1.4069e+000 64350 71416,71638,71710
 6.0000e-001 71759  2.4554e+001  1.8365e+001 -5.3792e+000 64350 71416,71710,71442
 6.0000e-001 72318  1.6628e+000  5.6063e+000  1.1842e+001 63837 71972,72024,71998
 6.0000e-001 72295 -1.0232e+001  7.1166e+000  1.0249e+001 63837 72341,71972,71946
 6.0000e-001 72272 -8.5422e+000  8.4890e+000  8.6963e+000 63837 72413,72341,71946
 6.0000e-001 72249 -1.6686e+001  1.0963e+001  9.0114e+000 63837 72413,71946,72128
 6.0000e-001 72226 -2.7024e+000  5.6551e+000 -3.5015e-001 63837 72024,72076,72050
 6.0000e-001 72203 -4.8355e+000  4.9211e-001  2.7011e+000 63837 72024,72102,72076
 6.0000e-001 72180 -4.9969e+000  1.6130e+001  8.0218e+000 63837 71946,72154,72128
 6.0000e-001 72367 -7.9532e+000  8.4095e+000  1.1984e+001 63837 72024,71972,72341
 6.0000e-001 72390 -9.5494e+000  7.5651e+000  7.0286e+000 63837 72024,72341,72102
 6.0000e-001 72439 -1.8496e+001  5.0064e+000  6.4533e+000 63837 72102,72341,72413
 6.0000e-001 72462 -2.4083e+001  9.5768e+000  7.4266e+000 63837 72102,72413,72128
 6.0000e-001 72791  1.7434e+000  3.2961e+000 -9.5754e-001 63383 72592,72696,72670
 6.0000e-001 72768  1.5920e+001  3.7467e+001 -3.5375e-001 63383 72566,72696,72592
 6.0000e-001 72745  1.5209e+001  2.0038e+001  9.4434e+000 63383 72592,72670,72618
 6.0000e-001 72722  2.1636e+000  2.6385e-001 -1.4733e-001 63383 72618,72670,72644
 6.0000e-001 73297 -2.2378e+000  9.3104e+000  6.8693e-001 63185 73000,73156,73130
 6.0000e-001 73274  4.4882e+000  2.6264e+001 -4.8168e+000 63185 72974,73156,73000
 6.0000e-001 73251 -2.2315e+000  9.5602e+000 -4.2715e-001 63185 73000,73052,73026
 6.0000e-001 73228  8.9288e-001  8.5401e+000 -4.1144e-001 63185 73000,73130,73052
 6.0000e-001 73205  3.0718e+000  1.7329e+001  2.5469e+000 63185 73052,73130,73104
 6.0000e-001 73182  4.4662e+000  9.9955e+000  1.7659e+000 63185 73052,73104,73078
 6.0000e-001 73545 -5.2106e+000  3.9002e+001 -7.6640e+000 62781 73568,73398,73372
 6.0000e-001 73522 -1.2760e+001  1.8488e+001 -8.8774e+000 62781 73568,73372,73346
 6.0000e-001 73499 -5.2111e-001  2.1154e+001  5.2036e-001 62781 73640,73320,73424
 6.0000e-001 73476 -7.7094e+000  1.2682e+001  3.7107e+000 62781 73320,73450,73424
 6.0000e-001 73594 -1.2411e+001  2.0938e+001 -2.7376e+000 62781 73424,73398,73568
 6.0000e-001 73617 -3.6247e+000  1.9270e+001 -1.3360e+000 62781 73640,73424,73568
 6.0000e-001 73666 -1.8996e+000  1.8494e+001 -2.7821e+000 62781 73346,73320,73640
 6.0000e-001 73689 -3.6317e+000  1.6407e+001 -4.4872e+000 62781 73346,73640,73568
 6.0000e-001 74035 -1.6696e+001 -9.6421e-001 -3.5887e+000 62363 74058,73868,73842
 6.0000e-001 74012 -6.3698e+000 -1.9140e-001 -1.6469e+000 62363 74130,74058,73842
 6.0000e-001 73989 -5.8583e+000 -4.3291e-001 -2.3420e+000 62363 74130,73842,73816
 6.0000e-001 73966 -4.8437e+000  1.8911e-001 -8.0113e-001 62363 74202,73764,73894
 6.0000e-001 73943 -4.4574e-001  4.0328e-001 -9.3568e-002 62363 73712,73894,73764
 6.0000e-001 73920 -1.2095e-001  1.5355e-002  2.3318e-001 62363 73712,73764,73738
 6.0000e-001 74084 -7.5916e+000  3.1432e+000 -2.0939e-001 62363 73894,73868,74058
 6.0000e-001 74107 -6.2188e+000 -1.3592e+000 -1.8886e+000 62363 74202,73894,74058
 6.0000e-001 74156 -7.2361e+000 -1.4365e+000 -4.8083e-001 62363 73790,74058,74130
 6.0000e-001 74179 -5.6444e+000 -1.4916e+000 -1.1572e+000 62363 73790,74130,73816
 6.0000e-001 74228 -3.3963e+000  8.4450e-001  1.4399e+000 62363 73790,73764,74202
 6.0000e-001 74251 -4.4185e+000 -7.9934e-001  3.6995e-001 62363 73790,74202,74058
 6.0000e-001 74403 -1.5354e+001  9.5095e+000 -2.4055e+000 62115 74426,74302,74276
 6.0000e-001 74380 -2.4399e+001  1.0101e+001 -6.0436e+000 62115 74426,74276,74354
 6.0000e-001 74452 -7.6336e+000  6.9900e+000 -2.8021e+000 62115 74328,74302,74426
 6.0000e-001 74475 -1.5772e+001  8.1464e+000 -6.7388e+000 62115 74328,74426,74354
 6.0000e-001 74578 -7.1062e+000  2.0077e+001  1.0977e+000 61825 74500,74552,74526
 6.0000e-001 74982 -8.2359e+000  8.6780e+000  1.5848e+000 61513 75005,74734,74708
 6.0000e-001 74959 -2.5830e+000  1.0044e+001  5.0516e-001 61513 75005,74708,74864
 6.0000e-001 74936 -6.0963e+000  2.4190e+000  1.1378e+000 61513 75077,74812,74734
 6.0000e-001 74913 -1.2581e+001 -2.1979e-001  1.1014e+000 61513 74734,74786,74760
 6.0000e-001 74890 -1.6046e+001 -4.7852e+000  4.9641e+000 61513 74734,74812,74786
 6.0000e-001 75031 -3.3810e+000  4.3987e+000  2.2149e+000 61513 75077,74734,75005
 6.0000e-001 75054  4.0691e+000  1.0338e+001  7.7480e+000 61513 74838,75005,74864
 6.0000e-001 75103 -6.5246e+000  5.9275e+000  4.7732e+000 61513 74838,74812,75077
 6.0000e-001 75126 -5.0227e+000  7.4470e+000  5.6257e+000 61513 74838,75077,75005
 6.0000e-001 75553 -1.0964e+001 -4.2853e+000 -1.0339e+001 61060 75576,75360,75308
 6.0000e-001 75530 -9.1093e+000 -2.2688e+000 -9.5388e+000 61060 75576,75308,75230
 6.0000e-001 75507 -2.6488e+001 -2.1991e+001 -2.4685e+001 61060 75308,75360,75334
 6.0000e-001 75484 -1.0074e+001 -3.2787e+000 -7.3843e+000 61060 75230,75308,75256
 6.0000e-001 75461  2.9498e+000 -6.5343e+000 -4.1954e+000 61060 75256,75308,75282
 6.0000e-001 75438 -1.3894e+001  5.3522e+000 -1.1626e+001 61060 75360,75412,75386
 6.0000e-001 75602 -1.5609e+001 -2.1856e+000 -1.2132e+001 61060 75412,75360,75576
 6.0000e-001 75625 -1.1808e+001  2.5316e+000 -1.0469e+001 61060 75412,75576,75230
 6.0000e-001 76052  2.7682e+001  1.1139e+001 -9.3431e+000 60442 75755,75859,75833
 6.0000e-001 76029  1.6512e+001  5.9510e+000 -7.9267e+000 60442 75729,75859,75755
 6.0000e-001 76006  1.5741e+001  7.8078e+000  2.4128e+000 60442 75755,75833,75807
 6.0000e-001 75983 -7.9284e-001  3.3895e+000 -1.8745e+000 60442 75755,75807,75781
 6.0000e-001 75960  2.0450e+001  6.3215e+000 -8.6253e+000 60442 75729,75911,75859
 6.0000e-001 75937  2.1207e+001  8.7096e-001 -3.9665e+000 60442 75859,75911,75885
 6.0000e-001 76430  1.0187e+001  2.2560e+001 -3.2650e+000 59788 76453,76286,76234
 6.0000e-001 76407  1.3271e+001  2.7686e+001 -1.0559e+000 59788 76453,76234,76182
 6.0000e-001 76384  9.3606e+000  2.1956e+001 -5.2635e+000 59788 76525,76156,76312
 6.0000e-001 76361  1.2056e+001  3.4138e+001 -1.4641e+000 59788 76182,76234,76208
 6.0000e-001 76338  1.5680e+001  2.3450e+001 -3.2617e+000 59788 76234,76286,76260
 6.0000e-001 76479  7.7498e+000  2.4970e+001 -5.7382e+000 59788 76312,76286,76453
 6.0000e-001 76502  9.5281e+000  2.5016e+001 -4.3180e+000 59788 76525,76312,76453
 6.0000e-001 76551  1.0856e+001  2.5743e+001 -5.0283e+000 59788 76182,76156,76525
 6.0000e-001 76574  1.0193e+001  2.6584e+001 -4.4677e+000 59788 76182,76525,76453
 6.0000e-001 77031  2.0793e+000  1.4058e+001  2.6345e+000 59448 76835,76887,76861
 6.0000e-001 77008 -2.2571e+000  1.2436e+001 -8.6020e-001 59448 76835,76913,76887
 6.0000e-001 76985  1.0947e+000  1.6418e+001 -2.8220e+000 59448 76809,76913,76835
 6.0000e-001 76962  2.0976e+000  1.2138e+001 -1.0309e+000 59448 76757,76913,76809
 6.0000e-001 76939 -4.2603e+000  3.9099e+001  2.7088e-001 59448 76757,76809,76783
 6.0000e-001 77537  1.1864e+000  3.0762e+001  3.9443e+000 58994 77560,77344,77292
 6.0000e-001 77514 -7.5302e+000  7.6152e+000 -2.3873e+000 58994 77560,77292,77240
 6.0000e-001 77491  3.2874e+000 -2.3676e-001  1.0565e+001 58994 77632,77214,77370
 6.0000e-001 77468  4.6690e-001  3.0727e+001  8.0843e-001 58994 77292,77344,77318
 6.0000e-001 77445  1.8942e+000  4.9857e+000  9.4426e+000 58994 77214,77396,77370
 6.0000e-001 77422 -7.3256e+000  2.2125e+001  1.4608e+001 58994 77240,77292,77266
 6.0000e-001 77586  1.4365e+001  1.0539e+001  6.5635e+000 58994 77370,77344,77560
 6.0000e-001 77609  9.2158e+000  3.6658e+000  3.5259e+000 58994 77632,77370,77560
 6.0000e-001 77658 -6.8854e-001 -6.0855e+000  1.5405e+001 58994 77240,77214,77632
 6.0000e-001 77681  2.9660e+000 -8.0067e+000  8.8581e+000 58994 77240,77632,77560
 6.0000e-001 78138 -1.1416e+001 -4.3478e+000  4.2969e+000 58440 77864,77994,77890
 6.0000e-001 78115 -5.9248e+000 -4.0095e+000  4.8100e+000 58440 77864,78020,77994
 6.0000e-001 78092 -7.4482e+000 -1.2371e+000  3.5488e+000 58440 77942,77994,77968
 6.0000e-001 78069 -1.2210e+001 -8.3813e+000  9.5308e-001 58440 77890,77994,77942
 6.0000e-001 78046 -2.1989e+001 -8.1166e+000  7.8197e+000 58440 77890,77942,77916
 6.0000e-001 78467 -4.4833e+000  1.4876e+001  1.3394e+001 57928 78562,78490,78346
 6.0000e-001 78444 -9.2819e+000  1.7038e+001  2.5589e+000 57928 78490,78294,78268
 6.0000e-001 78421 -1.0400e+001  2.8716e+001  6.9253e+000 57928 78562,78346,78320
 6.0000e-001 78398  2.7464e+000  9.7818e+000  8.2217e-001 57928 78242,78372,78268
 6.0000e-001 78516 -8.7862e+000 -6.5517e+000  5.3095e+000 57928 78372,78346,78490
 6.0000e-001 78539  3.7069e+000  2.2489e+001  3.2166e+000 57928 78372,78490,78268
 6.0000e-001 78588 -2.3707e+000  3.3751e+001  2.7940e+000 57928 78294,78490,78562
 6.0000e-001 78611 -2.4434e+000  6.1169e+001 -1.1951e-001 57928 78294,78562,78320
 6.0000e-001 79068  8.6361e+000  2.0206e+001  6.9227e+000 57467 78794,78924,78820
 6.0000e-001 79045  1.6884e+001  2.4071e+001  8.2998e+000 57467 78794,78950,78924
 6.0000e-001 79022 -6.1323e+000  1.5627e+001 -3.0950e+000 57467 78820,78898,78872
 6.0000e-001 78999  6.4896e+000  2.8832e+001  4.1110e+000 57467 78820,78924,78898
 6.0000e-001 78976  6.7864e+000  2.0679e+001 -3.2311e+000 57467 78820,78872,78846
 6.0000e-001 79446  1.1135e+001 -4.7220e+000 -2.7156e+001 57120 79172,79302,79250
 6.0000e-001 79423 -5.1448e+000 -1.2990e+001 -5.6104e+000 57120 79172,79328,79302
 6.0000e-001 79400 -6.7713e+000  2.1321e+001 -2.8005e+001 57120 79172,79250,79198
 6.0000e-001 79377  2.1311e+001  8.3378e+000 -2.2735e+001 57120 79250,79302,79276
 6.0000e-001 79354  3.1916e+001  6.0336e+001 -4.8307e+000 57120 79198,79250,79224
 6.0000e-001 79952  5.8624e+000  1.1063e+001 -2.5651e+000 56773 79629,79785,79655
 6.0000e-001 79929  4.6474e+000  1.2015e+001 -4.4895e+000 56773 79629,79811,79785
 6.0000e-001 79906  6.1895e+000  1.1290e+001 -1.7339e+000 56773 79655,79733,79681
 6.0000e-001 79883  5.9116e+000  1.2083e+001 -2.0977e+000 56773 79655,79785,79733
 6.0000e-001 79860  6.0898e+000  1.5685e+001 -7.3688e-001 56773 79733,79785,79759
 6.0000e-001 79837 -5.6269e-001  8.4169e+000 -1.4954e+000 56773 79681,79733,79707
 6.0000e-001 80281  1.8156e+001 -1.1877e+001  1.4626e+001 56319 80108,80160,80134
 6.0000e-001 80258  5.1768e+000 -2.6504e+000  1.2536e+001 56319 80056,80160,80108
 6.0000e-001 80235  3.6552e+000 -4.1766e+000  9.4484e+000 56319 80056,80186,80160
 6.0000e-001 80212 -6.5311e+000 -1.2021e+001  1.8622e+001 56319 80056,80108,80082
 6.0000e-001 80738 -1.5782e+000  1.1245e+001 -4.4351e+000 55957 80516,80620,80594
 6.0000e-001 80715 -3.3566e+000  1.0391e+001 -4.9253e+000 55957 80464,80620,80516
 6.0000e-001 80692 -2.1068e+000  1.1939e+001 -4.1973e+000 55957 80761,80568,80542
 6.0000e-001 80669 -4.0259e-001  1.1671e+001 -4.1312e+000 55957 80761,80542,80516
 6.0000e-001 80646 -5.0830e+000  6.3805e+000 -4.5665e+000 55957 80464,80516,80490
 6.0000e-001 80787 -3.3569e+000  1.1642e+001 -4.2297e+000 55957 80594,80568,80761
 6.0000e-001 80810 -1.8015e+000  1.1279e+001 -4.1203e+000 55957 80594,80761,80516
 6.0000e-001 81210 -1.0083e+001  1.2702e+001  7.3004e+000 55317 80936,80988,80962
 6.0000e-001 81187 -1.9400e+001  2.1102e+000  3.6813e-001 55317 80936,81066,80988
 6.0000e-001 81164 -1.8853e+001  2.9859e+000  2.8078e-002 55317 80936,81092,81066
 6.0000e-001 81141 -1.1725e+001  5.8649e+000  2.1528e+000 55317 80988,81066,81014
 6.0000e-001 81118 -2.6002e+001 -4.9858e+000 -2.7081e+000 55317 81014,81066,81040
 6.0000e-001 81539 -2.2813e+001  2.3227e+001  4.0876e-001 54913 81340,81418,81392
 6.0000e-001 81516 -2.8212e+001 -4.8986e+000  8.5866e+000 54913 81340,81444,81418
 6.0000e-001 81493 -2.4405e+001 -3.0003e+000  9.5472e+000 54913 81314,81444,81340
 6.0000e-001 81470  3.1322e+001  1.4443e+001  1.5557e+001 54913 81340,81392,81366
 6.0000e-001 81787  7.7603e+000  1.3061e+001  3.2490e+000 54601 81588,81692,81640
 6.0000e-001 81764  2.0393e+001  8.6296e+000  4.7899e+000 54601 81562,81692,81588
 6.0000e-001 81741  1.8581e+001  1.6223e+001  8.4789e+000 54601 81588,81640,81614
 6.0000e-001 81718  1.0104e+001  2.1618e+001  4.6594e+000 54601 81640,81692,81666
 6.0000e-001 82344 -1.9561e+001  6.2299e+000  4.4092e+000 54090 81998,82102,82076
 6.0000e-001 82321 -6.4394e+000  1.2138e+001 -9.9282e-001 54090 81998,82154,82102
 6.0000e-001 82298 -2.3094e+001 -1.9455e+000 -7.0105e+000 54090 81972,82154,81998
 6.0000e-001 82275 -1.0448e+001  8.8061e+000  2.7860e+000 54090 81998,82076,82024
 6.0000e-001 82252 -3.3663e+001 -3.0494e+000 -1.5575e+001 54090 81972,82180,82154
 6.0000e-001 82229 -7.5614e+000 -1.9380e+000 -3.4128e+000 54090 82102,82154,82128
 6.0000e-001 82206 -1.6371e+001  1.1767e+001 -3.4965e+000 54090 82024,82076,82050
 6.0000e-001 82722 -3.6616e-001  8.0228e+000 -2.5826e+000 53579 82500,82578,82552
 6.0000e-001 82699  4.0067e-001  1.1993e+001 -2.1159e+000 53579 82448,82578,82500
 6.0000e-001 82676 -6.1293e+000  9.1195e+000  2.3138e+000 53579 82448,82500,82474
 6.0000e-001 82653  7.6977e-001  1.2593e+001 -3.9243e+000 53579 82448,82604,82578
 6.0000e-001 82630 -1.0710e+000  6.6981e+000 -3.4919e+000 53579 82500,82552,82526
 6.0000e-001 83356  5.8879e+000  6.1988e+000 -2.1861e+000 53189 83379,83088,83036
 6.0000e-001 83333  5.2739e+000  7.7644e+000 -2.5302e+000 53189 83379,83036,82984
 6.0000e-001 83310 -1.4197e+000  2.8294e+000 -1.1403e+001 53189 82984,83192,83166
 6.0000e-001 83287  3.3886e+000  4.9080e+000 -2.6996e+000 53189 83036,83088,83062
 6.0000e-001 83264  4.0904e+000  7.4880e+000 -1.7088e+000 53189 82984,83036,83010
 6.0000e-001 83241  1.1152e+001  3.5208e+000 -2.1425e+000 53189 83114,83166,83140
 6.0000e-001 83218  7.0298e+000  4.7980e+000 -4.1464e+000 53189 83088,83166,83114
 6.0000e-001 83405  6.4945e+000  7.2276e+000 -2.7474e+000 53189 83166,83088,83379
 6.0000e-001 83428  5.5238e+000  8.5382e+000 -2.9700e+000 53189 83166,83379,82984
 6.0000e-001 83725 -3.9554e-001  5.8815e+000  4.2727e+000 52585 83748,83529,83503
 6.0000e-001 83702 -1.3000e+001  8.4942e-001  3.2535e+000 52585 83820,83748,83503
 6.0000e-001 83679 -2.8529e+001  6.7983e+000  5.8906e+000 52585 83820,83503,83477
 6.0000e-001 83656 -1.0579e+000  1.5821e+001  3.0914e+000 52585 83477,83607,83581
 6.0000e-001 83633 -1.1186e+000  1.4229e+001 -1.3037e+000 52585 83451,83607,83477
 6.0000e-001 83774 -5.2632e+000 -5.5383e+000  4.4069e+000 52585 83555,83529,83748
 6.0000e-001 83797  7.2127e+000  3.6692e+000  3.8514e-001 52585 83555,83748,83581
 6.0000e-001 83846  1.4729e+000  5.8015e+000 -3.9079e+000 52585 83581,83748,83820
 6.0000e-001 83869 -1.2176e+001  1.1766e+001 -1.9981e-001 52585 83581,83820,83477
 6.0000e-001 84200  1.0392e+001  2.0408e+001 -3.4717e+000 52024 84001,84105,84079
 6.0000e-001 84177 -2.4019e+000  2.1147e+001  3.8815e+000 52024 83975,84105,84001
 6.0000e-001 84154  5.3774e-001  1.6411e+001 -2.3145e+000 52024 84001,84079,84053
 6.0000e-001 84131 -1.3972e+000  1.2865e+001  1.9185e+000 52024 84001,84053,84027
 6.0000e-001 84399 -1.1514e+001 -3.9279e-001  4.8634e+000 51470 84422,84275,84249
 6.0000e-001 84376  4.7373e-001  1.5759e+000  8.2656e+000 51470 84422,84249,84223
 6.0000e-001 84353 -2.2763e+001  8.0099e-003 -1.3620e+000 51470 84275,84327,84301
 6.0000e-001 84448 -2.2159e+001  4.4696e+000  6.4290e+000 51470 84327,84275,84422
 6.0000e-001 84471 -9.8657e+000  6.3096e+000  8.8813e+000 51470 84327,84422,84223
 6.0000e-001 84753  9.1196e+000  2.0622e+001  6.1873e-001 51073 84603,84655,84629
 6.0000e-001 84730  5.8041e+000  1.5265e+001 -3.6602e+000 51073 84776,84655,84603
 6.0000e-001 84707  2.0626e+001  1.2508e+000 -6.9538e+000 51073 84577,84681,84655
 6.0000e-001 84802  3.7638e+000  1.1447e+001  2.1128e+000 51073 84577,84655,84776
 6.0000e-001 85178 -5.7036e-001  1.0809e+001 -5.1252e+000 50519 85201,85008,84982
 6.0000e-001 85155 -1.4091e+000  8.5252e+000 -4.6012e+000 50519 85273,85201,84982
 6.0000e-001 85132 -1.9775e+000  8.5462e+000 -4.2357e+000 50519 85273,84982,84930
 6.0000e-001 85109 -5.9951e+000  5.8777e+000 -2.8742e+000 50519 84930,84982,84956
 6.0000e-001 85086 -2.5782e+000  7.6959e+000 -3.4027e-001 50519 85008,85060,85034
 6.0000e-001 85227  1.6947e-001  1.0151e+001 -2.1558e+000 50519 85060,85008,85201
 6.0000e-001 85250 -8.1032e-001  6.8737e+000 -2.8760e+000 50519 85060,85201,84904
 6.0000e-001 85299 -2.0441e+000  8.6536e+000 -3.8341e+000 50519 84904,85201,85273
 6.0000e-001 85322 -3.8105e+000  6.7247e+000 -3.0243e+000 50519 84904,85273,84930
 6.0000e-001 85958 -7.6168e+000  1.6681e+001  1.1108e+000 50093 85981,85768,85716
 6.0000e-001 85935 -1.0335e+001  1.0667e+001  5.2251e-001 50093 85981,85716,85612
 6.0000e-001 85912 -3.7910e+000  7.2272e+000 -2.4635e+000 50093 85612,85716,85664
 6.0000e-001 85889 -1.3198e+001  1.6375e+001 -2.4277e-001 50093 85716,85768,85742
 6.0000e-001 85866 -3.3406e+000  1.0570e+001 -6.1872e+000 50093 85664,85716,85690
 6.0000e-001 85843 -8.6121e+000  5.3387e+000  7.6630e+000 50093 85586,85794,85612
 6.0000e-001 85820 -2.2298e-001  1.2554e-001 -7.1686e-002 50093 85612,85664,85638
 6.0000e-001 86007 -1.5000e+000  2.2418e+001  9.8942e+000 50093 85794,85768,85981
 6.0000e-001 86030 -1.0177e+001  4.3668e+000  7.0743e+000 50093 85794,85981,85612
 6.0000e-001 86131 -4.1033e+001  1.0912e+001 -1.5987e+001 49895 86053,86105,86079
 6.0000e-001 86639  1.0309e+001  1.4589e+000  3.3665e+000 49391 86662,86394,86368
 6.0000e-001 86616  1.3932e+001  7.5317e+000  5.1315e+000 49391 86662,86368,86342
 6.0000e-001 86593  4.8056e+000  7.4345e+000 -6.9719e-002 49391 86342,86498,86472
 6.0000e-001 86570 -1.2905e+000  8.4151e+000 -9.8177e-001 49391 86316,86498,86342
 6.0000e-001 86547  4.4503e+000  3.3560e+000  9.2917e-001 49391 86394,86472,86446
 6.0000e-001 86524  5.1365e+000  2.6623e+000  7.9753e-001 49391 86394,86446,86420
 6.0000e-001 86688  6.0867e+000  7.2218e+000  5.6229e-001 49391 86472,86394,86662
 6.0000e-001 86711  9.1198e+000  1.0299e+001  1.8063e+000 49391 86472,86662,86342
 6.0000e-001 87089  1.3004e+001  6.1692e+000  1.6167e+000 48987 86815,86919,86867
 6.0000e-001 87066  2.7955e+000  3.9807e+000  2.2636e+000 48987 86815,86971,86919
 6.0000e-001 87043  6.8261e+000  5.9569e-001 -1.3512e+000 48987 86867,86919,86893
 6.0000e-001 87020  1.0319e+001  5.7070e-001 -6.8180e-001 48987 86815,86867,86841
 6.0000e-001 86997  7.8346e+000  1.1457e+001 -3.7302e-001 48987 86919,86971,86945
 6.0000e-001 87467  7.0425e+000  7.7186e+000 -2.1880e+000 48540 87490,87245,87219
 6.0000e-001 87444  3.2058e-001  8.0631e+000 -1.2522e+000 48540 87562,87490,87219
 6.0000e-001 87421  2.1368e+000  8.8231e+000 -1.0349e+000 48540 87562,87219,87349
 6.0000e-001 87398 -3.6338e+000  1.2449e+001 -6.4446e+000 48540 87245,87297,87271
 6.0000e-001 87375  1.6239e+000  1.2382e+001  1.5227e-001 48540 87193,87349,87219
 6.0000e-001 87516  1.6148e-001  4.2695e+000 -3.3467e+000 48540 87297,87245,87490
 6.0000e-001 87539 -1.3431e+000  6.9700e+000  2.3043e-001 48540 87297,87490,87323
 6.0000e-001 87588  1.9837e+000  8.1724e+000  1.9446e-002 48540 87323,87490,87562
 6.0000e-001 87611  2.9543e+000  8.3174e+000  1.2235e-001 48540 87323,87562,87349
 6.0000e-001 87810 -1.3282e+001  1.3096e+001 -1.0125e+000 48136 87660,87712,87686
 6.0000e-001 87787 -1.7245e+001 -2.8417e+000 -3.4231e+000 48136 87660,87738,87712
 6.0000e-001 87764 -2.7209e+001 -1.5846e+001  7.9740e+000 48136 87634,87738,87660
 6.0000e-001 88205 -9.1425e+000 -4.3004e+000  5.5561e+000 47210 88300,88228,87937
 6.0000e-001 88182 -8.6744e+000 -6.6027e-001  5.9819e+000 47210 88228,87833,88041
 6.0000e-001 88159 -8.4614e+000 -3.8252e+000  4.4705e+000 47210 88300,87937,87911
 6.0000e-001 88136 -5.7757e+000 -5.4327e-001  4.4403e+000 47210 87833,87911,87859
 6.0000e-001 88113 -4.4760e+000 -1.0996e+001  2.3704e+000 47210 87937,87989,87963
 6.0000e-001 88090 -9.2302e+000  2.2406e-003  3.3142e-001 47210 87989,88041,88015
 6.0000e-001 88067 -4.8581e+000  1.7126e-001 -4.2895e-001 47210 87859,87911,87885
 6.0000e-001 88254 -8.7939e+000 -6.5530e+000  6.3225e+000 47210 87989,87937,88228
 6.0000e-001 88277 -1.0301e+001 -3.5845e+000  5.0236e+000 47210 87989,88228,88041
 6.0000e-001 88326 -6.9338e+000 -3.7844e+000  5.1535e+000 47210 87833,88228,88300
 6.0000e-001 88349 -6.9565e+000 -3.9642e+000  4.1624e+000 47210 87833,88300,87911
 6.0000e-001 88780 -3.1252e+000  3.0799e+000  6.1036e+000 46642 88803,88509,88483
 6.0000e-001 88757 -1.3179e+001 -3.1375e+000  7.4598e-001 46642 88803,88483,88639
 6.0000e-001 88734 -1.6841e+000 -6.5585e+000  1.4488e+000 46642 88875,88561,88509
 6.0000e-001 88711 -1.7595e+000 -6.0131e+000  2.4130e+000 46642 88509,88561,88535
 6.0000e-001 88688 -1.9360e+001 -2.1701e+000 -3.2499e+000 46642 88457,88639,88483
 6.0000e-001 88665  2.0683e+000 -1.7393e+001  1.2637e+000 46642 88561,88613,88587
 6.0000e-001 88829 -1.0129e+001 -5.0851e+000  1.3808e-001 46642 88875,88509,88803
 6.0000e-001 88852 -9.0275e+000 -1.2690e+001 -6.3600e+000 46642 88613,88803,88639
 6.0000e-001 88901  6.3619e+000 -5.8252e+000  1.6458e+000 46642 88613,88561,88875
 6.0000e-001 88924  1.0427e+000 -2.3772e+000 -1.0320e+000 46642 88613,88875,88803
 6.0000e-001 89253 -3.6268e+000 -5.6111e+000  4.0878e+000 46444 89080,89158,89132
 6.0000e-001 89230 -7.0635e+000 -1.4421e+001  5.7256e+000 46444 89028,89158,89080
 6.0000e-001 89207 -3.0163e+000 -1.1417e+001  4.3940e+000 46444 89028,89080,89054
 6.0000e-001 89184 -3.5389e+000 -8.3466e+000  1.5941e+000 46444 89080,89132,89106
 6.0000e-001 89631  5.9989e+000  7.3992e+000 -7.4234e+000 46040 89383,89461,89435
 6.0000e-001 89608  7.0268e+000  1.3289e+001 -1.0937e+000 46040 89383,89487,89461
 6.0000e-001 89585  1.8093e+001  1.1086e+001 -4.0709e+000 46040 89383,89435,89409
 6.0000e-001 89562  9.9296e+000  1.2446e+001 -7.8746e-001 46040 89383,89513,89487
 6.0000e-001 89539  7.4005e+000  1.1994e+001 -2.5176e+000 46040 89357,89513,89383
 6.0000e-001 90009 -1.5946e+001  3.1914e+000  1.2858e+000 45636 89813,89891,89839
 6.0000e-001 89986 -1.3987e+001  7.4388e-001 -3.4274e+000 45636 89787,89891,89813
 6.0000e-001 89963 -1.3280e+001  4.7387e+000  5.2097e-001 45636 89839,89891,89865
 6.0000e-001 89940 -1.0193e+001  6.0327e+000 -1.7617e+000 45636 89735,89891,89787
 6.0000e-001 89917 -6.7903e+000  9.7526e+000 -3.7061e+000 45636 89735,89787,89761
 6.0000e-001 90208 -1.0818e+001 -1.3877e+000 -3.2874e+000 45175 90231,90058,90032
 6.0000e-001 90185 -1.1747e+001 -2.5708e+000 -1.1839e+000 45175 90231,90032,90136
 6.0000e-001 90162 -7.6459e+000 -3.2441e+000 -4.2597e+000 45175 90058,90110,90084
 6.0000e-001 90257 -9.0402e+000  1.0279e+000 -4.7673e+000 45175 90110,90058,90231
 6.0000e-001 90280 -1.1097e+001 -1.0305e+000 -2.4952e+000 45175 90110,90231,90136
 6.0000e-001 90528 -4.6361e+000  7.9928e+000  4.3478e+000 44513 90695,90551,90407
 6.0000e-001 90505 -3.7770e-001  1.1600e+001  6.2438e+000 44513 90551,90355,90329
 6.0000e-001 90482 -4.0894e+000  3.3023e+000  4.3473e-001 44513 90623,90303,90433
 6.0000e-001 90459 -6.4818e-001  2.2111e+000 -6.1927e-001 44513 90695,90407,90381
 6.0000e-001 90577  8.1573e-001  1.0047e+001  5.9617e+000 44513 90433,90407,90551
 6.0000e-001 90600 -1.4192e+000  7.2856e+000  1.6637e+000 44513 90623,90433,90551
 6.0000e-001 90649 -2.3897e+000  8.2570e+000  1.9333e+000 44513 90329,90303,90623
 6.0000e-001 90672 -3.0430e+000  8.7643e+000  2.0302e+000 44513 90329,90623,90551
 6.0000e-001 90721 -4.6398e+000 -1.8595e+000  7.2511e+000 44513 90355,90551,90695
 6.0000e-001 90744 -1.1049e+000 -7.9453e+000  4.8027e+000 44513 90355,90695,90381
 6.0000e-001 91077  9.9328e+000  1.0053e+001 -2.7600e+000 44059 91100,90930,90904
 6.0000e-001 91054  5.2967e+000  7.9400e+000 -3.2489e+000 44059 91100,90904,90982
 6.0000e-001 91031  7.3999e+000  7.6371e+000 -2.2082e+000 44059 90878,90982,90904
 6.0000e-001 91008  1.1520e+001  6.6312e+000 -4.1924e+000 44059 90852,90982,90878
 6.0000e-001 91126  7.4170e+000  1.1106e+001 -5.6215e+000 44059 91172,91100,90956
 6.0000e-001 91149  8.4991e+000  1.5653e+001 -2.3739e+000 44059 90956,91100,90982
 6.0000e-001 91198  5.9039e+000  1.0584e+000 -3.6192e+000 44059 90930,91100,91172
 6.0000e-001 91677 -1.4423e+001 -9.8440e+000 -2.6385e+000 43549 91455,91533,91481
 6.0000e-001 91654 -1.9440e+001 -1.1357e+001 -3.6282e+000 43549 91429,91533,91455
 6.0000e-001 91631 -1.2472e+001 -9.4301e+000 -6.7238e+000 43549 91481,91533,91507
 6.0000e-001 91608 -2.6187e+001 -1.4184e+001 -1.9477e+000 43549 91429,91559,91533
 6.0000e-001 91585 -2.3669e+001 -2.7101e+001  4.4264e+000 43549 91403,91559,91429
 6.0000e-001 92006  5.0030e+000  1.8727e+001  1.1913e+000 43059 91781,91885,91807
 6.0000e-001 91983  3.2719e+000  1.6128e+001  3.5484e+000 43059 91781,91911,91885
 6.0000e-001 91960 -8.4388e+000  1.4229e+001  2.5443e+000 43059 91807,91885,91833
 6.0000e-001 91937  5.3451e+000  2.0522e+001  4.3376e+000 43059 91833,91885,91859
 6.0000e-001 92561 -1.2519e+000  7.7830e-001  1.2818e+000 42598 92584,92215,92189
 6.0000e-001 92538 -2.7601e+000  3.7385e+000  2.7882e+000 42598 92656,92584,92189
 6.0000e-001 92515 -3.5258e+000  6.3567e+000  1.4766e+000 42598 92656,92189,92397
 6.0000e-001 92492 -4.2948e+000  2.5736e+000  3.5846e+000 42598 92241,92319,92293
 6.0000e-001 92469 -3.5334e+000  2.6012e-001  7.3372e-001 42598 92319,92397,92371
 6.0000e-001 92446 -3.5539e+000 -5.2286e-001  1.0391e+000 42598 92319,92371,92345
 6.0000e-001 92423 -1.9682e+001 -2.2178e+000  6.0982e+000 42598 92241,92293,92267
 6.0000e-001 92610 -4.1333e+000 -1.1005e+000  8.2252e-002 42598 92241,92215,92584
 6.0000e-001 92633 -3.8199e+000 -2.6693e-002  2.7179e+000 42598 92241,92584,92319
 6.0000e-001 92682 -3.4110e+000  2.2900e-001  2.2972e+000 42598 92319,92584,92656
 6.0000e-001 92705 -4.8409e+000  2.0070e+000  1.3428e+000 42598 92319,92656,92397
 6.0000e-001 92953  7.9454e+000  4.7715e+001 -1.6977e+001 42094 92976,92806,92780
 6.0000e-001 92930  6.3338e-001  2.4339e+001 -1.7062e+001 42094 92976,92780,92754
 6.0000e-001 92907  1.6275e+000  2.7732e+001 -3.5367e+000 42094 93048,92832,92806
 6.0000e-001 92884  6.6473e+000  2.0088e+001 -8.6723e+000 42094 92728,92858,92754
 6.0000e-001 93002  5.5309e+000  3.3340e+001 -5.3656e+000 42094 93048,92806,92976
 6.0000e-001 93025  8.3780e+000  2.5060e+001 -7.6126e+000 42094 92858,92976,92754
 6.0000e-001 93074  9.2793e+000  2.5746e+001 -8.6404e+000 42094 92858,92832,93048
 6.0000e-001 93097  1.0362e+001  2.7508e+001 -9.1895e+000 42094 92858,93048,92976
 6.0000e-001 93605 -1.4338e+001 -1.9435e+000 -4.2359e+000 41846 93628,93412,93386
 6.0000e-001 93582 -6.3455e+000  2.0385e+000 -4.7764e-001 41846 93628,93386,93308
 6.0000e-001 93559 -1.0762e+001  1.1256e+001  4.5542e+000 41846 93700,93464,93438
 6.0000e-001 93536 -2.8255e+000  4.2492e+000 -3.1288e+000 41846 93308,93386,93334
 6.0000e-001 93513  6.4471e+000 -8.1698e-001 -5.9394e-001 41846 93334,93386,93360
 6.0000e-001 93490 -1.1887e+001  9.5353e+000  1.4413e+000 41846 93282,93464,93308
 6.0000e-001 93654 -2.7824e+001  4.8980e+000 -1.3625e+000 41846 93438,93412,93628
 6.0000e-001 93677 -1.3050e+001  1.0904e+001  1.1856e+000 41846 93700,93438,93628
 6.0000e-001 93726 -1.1159e+001  6.5468e+000  8.5575e-001 41846 93308,93464,93700
 6.0000e-001 93749 -1.4093e+001  4.8173e+000 -2.5599e+000 41846 93308,93700,93628
 6.0000e-001 94255 -7.8872e+000  1.7726e+001  2.4527e+000 41385 93958,94114,94088
 6.0000e-001 94232 -1.1053e+001  2.4960e+001  5.9747e+000 41385 93932,94114,93958
 6.0000e-001 94209 -4.0228e+000  1.9608e+001  1.8145e+000 41385 93958,94088,94062
 6.0000e-001 94186 -1.0159e+001  5.6262e+000  5.5957e+000 41385 93958,94062,93984
 6.0000e-001 94163 -1.6316e+001  7.1883e+000  9.6766e+000 41385 93984,94062,94036
 6.0000e-001 94140 -2.0897e+001  5.8199e+000  1.0668e+001 41385 93984,94036,94010
 6.0000e-001 94476 -1.2270e+001  1.7553e+001  1.4622e+000 40881 94326,94378,94352
 6.0000e-001 94453 -2.1837e+001  1.4180e+001 -1.3892e+000 40881 94300,94378,94326
 6.0000e-001 94430 -1.0720e+001  1.9219e+001 -2.9108e+000 40881 94300,94404,94378
 6.0000e-001 94626 -1.0534e+001  4.9301e+000  2.5776e+000 40591 94649,94551,94525
 6.0000e-001 94603 -1.5118e+001  5.5189e-001  7.0116e+000 40591 94781,94577,94551
 6.0000e-001 94675 -1.3724e+001 -1.3774e+000  4.6875e+000 40591 94781,94551,94649
 6.0000e-001 94807 -1.1566e+001  4.1603e+000  9.1702e+000 40591 94499,94577,94781
 6.0000e-001 94830 -1.1236e+001  2.7468e-001  6.7241e+000 40591 94499,94781,94649
 6.0000e-001 95336  1.1557e+000  6.8024e+000 -5.7318e+000 40187 95013,95169,95039
 6.0000e-001 95313  3.4985e+000  1.0162e+001 -9.3648e+000 40187 95013,95195,95169
 6.0000e-001 95290  1.0828e+000  4.9583e+000 -3.2522e+000 40187 95039,95143,95065
 6.0000e-001 95267  3.6129e+000  6.4063e+000 -5.4471e+000 40187 95039,95169,95143
 6.0000e-001 95244  4.0113e+000  6.6572e-001 -1.3027e+000 40187 95091,95143,95117
 6.0000e-001 95221  3.2654e+000  2.9461e+000 -2.9500e+000 40187 95065,95143,95091
 6.0000e-001 95665  7.9139e+000  7.4432e+000 -1.1177e+000 39626 95466,95570,95544
 6.0000e-001 95642  8.3071e+000  1.4976e+001 -1.1720e+000 39626 95440,95570,95466
 6.0000e-001 95619  1.5351e+001  1.0837e+001 -1.1000e-001 39626 95466,95544,95492
 6.0000e-001 95596  7.0178e+000  6.4933e+000 -2.1656e+000 39626 95492,95544,95518
 6.0000e-001 95913  1.4914e+001  1.5263e+001 -1.4673e+000 39136 96080,95936,95766
 6.0000e-001 95890  2.2500e+001  2.2316e+001 -5.5829e+000 39136 95936,95714,95688
 6.0000e-001 95867  2.2669e+001  2.1059e+001 -9.1696e+000 39136 96008,95792,95766
 6.0000e-001 95844  1.1684e+001  1.3773e+001 -7.7625e-001 39136 96080,95766,95740
 6.0000e-001 95962  1.7439e+001  2.4092e+001 -4.3859e+000 39136 96008,95766,95936
 6.0000e-001 95985  1.3753e+001  3.1760e+001 -5.8628e+000 39136 95818,95936,95688
 6.0000e-001 96034  9.3382e+000  1.4988e+001 -1.2266e+001 39136 95818,95792,96008
 6.0000e-001 96057  8.0167e+000  1.8711e+001 -7.3259e+000 39136 95818,96008,95936
 6.0000e-001 96106  1.4468e+001  1.8688e+001 -6.9854e+000 39136 95714,95936,96080
 6.0000e-001 96129  8.2355e+000  1.5568e+001 -5.8484e+000 39136 95714,96080,95740
 6.0000e-001 96350 -1.3360e+001 -3.6700e+000 -7.2618e-001 38824 96200,96278,96252
 6.0000e-001 96327 -1.6046e+001 -4.9425e+000 -1.1007e+000 38824 96174,96278,96200
 6.0000e-001 96304 -1.6147e+001 -4.3842e+000  2.6382e-001 38824 96200,96252,96226
 6.0000e-001 96830 -8.8552e+000  1.8150e+000  5.3468e-001 38320 97069,96536,96484
 6.0000e-001 96807 -8.2610e+000  1.4658e+000  4.8387e-001 38320 97069,96484,96853
 6.0000e-001 96784 -7.2041e+000  3.6925e+000 -2.7823e+000 38320 96853,96484,96458
 6.0000e-001 96761  8.9970e-001 -2.2564e+000 -5.1236e+000 38320 96925,96640,96614
 6.0000e-001 96738 -6.2677e+000 -4.6499e+000 -4.1517e+000 38320 96997,96666,96640
 6.0000e-001 96715 -6.6444e+000  4.1389e+000  3.2245e+000 38320 97141,96588,96562
 6.0000e-001 96692 -2.9962e+000  9.7210e+000 -2.0295e+000 38320 96484,96536,96510
 6.0000e-001 96879 -8.6910e+000  2.5061e+000  2.4461e+000 38320 97141,96562,96853
 6.0000e-001 96902 -6.0137e+000 -4.0752e+000 -3.4184e+000 38320 96925,96614,96853
 6.0000e-001 96951 -5.8562e+000 -4.2682e+000 -4.4415e+000 38320 96997,96640,96925
 6.0000e-001 96974 -7.7207e+000 -2.6630e+000 -4.1700e+000 38320 96458,96925,96853
 6.0000e-001 97023 -8.1687e+000 -5.2937e+000 -3.1636e+000 38320 96458,96666,96997
 6.0000e-001 97046 -6.7274e+000 -4.5088e+000 -3.5013e+000 38320 96458,96997,96925
 6.0000e-001 97095 -2.2458e+000  1.3899e+001 -2.7875e+000 38320 96562,96536,97069
 6.0000e-001 97118 -9.0993e+000  2.7219e+000  1.5765e-001 38320 96562,97069,96853
 6.0000e-001 97167  2.8561e-001  5.9672e-001  4.0634e+000 38320 96614,96588,97141
 6.0000e-001 97190 -4.1163e+000 -3.0380e+000  2.4980e+000 38320 96614,97141,96853
 6.0000e-001 97519 -8.1993e+000 -3.0988e+000  1.1564e+000 37766 97542,97398,97372
 6.0000e-001 97496 -1.3565e+000 -1.4834e+000  5.6294e+000 37766 97542,97372,97346
 6.0000e-001 97473 -4.7179e+000  1.7574e+000  5.2837e+000 37766 97294,97424,97346
 6.0000e-001 97450 -9.9425e-001  8.8390e+000  3.6453e+000 37766 97294,97346,97320
 6.0000e-001 97568 -1.7093e+001 -8.9699e+000 -2.6439e+000 37766 97424,97398,97542
 6.0000e-001 97591 -7.4074e+000 -5.3558e+000  2.2025e+000 37766 97424,97542,97346
 6.0000e-001 98048 -1.8885e+001 -9.6554e+000  1.0307e+001 37262 98071,97878,97852
 6.0000e-001 98025 -2.1964e+001 -4.3454e+000  4.7489e+000 37262 98071,97852,97800
 6.0000e-001 98002 -1.7312e+001  1.2334e+000  2.1340e+000 37262 97800,97852,97826
 6.0000e-001 97979 -2.0213e+001 -4.0643e+000 -2.5918e+000 37262 97800,97930,97904
 6.0000e-001 97956 -1.7189e+001 -1.9470e+000 -1.3680e+000 37262 97774,97930,97800
 6.0000e-001 98097 -1.0168e+001 -5.5473e+000  8.2236e+000 37262 97904,97878,98071
 6.0000e-001 98120 -1.7400e+001 -5.3464e-001  2.9901e+000 37262 97904,98071,97800
 6.0000e-001 98449 -7.6213e+000  8.8937e+000  1.8804e+000 36950 98472,98302,98250
 6.0000e-001 98426 -1.0538e+001  9.7064e+000  1.8615e+000 36950 98472,98250,98354
 6.0000e-001 98403 -3.6873e+000  1.2599e+001 -2.0344e+000 36950 98250,98302,98276
 6.0000e-001 98380 -1.8170e+001  9.0527e+000  4.8600e+000 36950 98224,98354,98250
 6.0000e-001 98498 -9.7514e+000  8.6997e+000  5.3581e-001 36950 98328,98302,98472
 6.0000e-001 98521 -1.2494e+001  9.9652e+000  9.7490e-001 36950 98328,98472,98354
 6.0000e-001 99125  6.1024e+000  7.2496e+000 -6.3491e+000 36296 98704,98756,98730
 6.0000e-001 99102  5.3547e-001  1.4057e+001 -4.5666e+000 36296 98704,98938,98756
 6.0000e-001 99079 -7.5825e+000  3.0530e+001 -9.0178e+000 36296 99148,98938,98912
 6.0000e-001 99056 -2.1867e+000  1.2104e+001 -1.4560e+001 36296 99292,99220,98782
 6.0000e-001 99033 -8.4769e+000  1.2846e+001 -7.9885e+000 36296 99148,98912,98834
 6.0000e-001 99010 -5.9921e+000  6.6569e+000 -1.2531e+001 36296 99292,98782,98756
 6.0000e-001 98987 -9.1045e+000  7.7155e+000 -9.5099e+000 36296 98834,98912,98886
 6.0000e-001 98964  2.4714e+000 -8.9111e-001 -3.2321e+000 36296 98834,98886,98860
 6.0000e-001 99174 -5.6929e+000  1.7798e+001 -8.2889e+000 36296 99220,98938,99148
 6.0000e-001 99197 -1.2448e+001  5.7742e+000 -4.7031e+000 36296 98808,99148,98834
 6.0000e-001 99246 -9.9480e+000 -6.4046e+000 -3.0799e+001 36296 98808,98782,99220
 6.0000e-001 99269 -1.7884e+001  6.0005e+000 -1.3651e+001 36296 98808,99220,99148
 6.0000e-001 99318 -8.9680e+000  4.0698e+000 -1.0243e+001 36296 98938,99220,99292
 6.0000e-001 99341 -8.5385e+000  5.3722e+000 -9.2039e+000 36296 98938,99292,98756
 6.0000e-001 99719 -5.8441e+000  1.0590e+001 -1.5719e-001 35742 99742,99471,99601
 6.0000e-001 99696 -4.6714e+000  7.0279e+000 -1.7686e+000 35742 99445,99601,99471
 6.0000e-001 99673 -6.1223e+000  9.9063e+000 -1.4276e+000 35742 99742,99601,99575
 6.0000e-001 99650 -6.3244e+000  2.4622e+001 -1.9386e+000 35742 99814,99549,99523
 6.0000e-001 99627 -4.6822e+000  1.5107e+001 -4.8983e+000 35742 99471,99523,99497
 6.0000e-001 99768 -8.6390e+000  1.1772e+001 -3.2595e+000 35742 99523,99471,99742
 6.0000e-001 99791 -5.0506e+000  1.9774e+001 -2.5429e+000 35742 99814,99523,99742
 6.0000e-001 99840 -3.7581e+000  1.7718e+001 -1.3019e-001 35742 99575,99549,99814
 6.0000e-001 99863 -4.0161e+000  1.0898e+001 -1.1504e+000 35742 99575,99814,99742
 6.0000e-001 100111 -7.9217e+000  1.9099e+000 -4.3969e+000 35302 100134,99990,99938
 6.0000e-001 100088 -1.2227e+001 -5.1879e-001 -6.4718e-001 35302 100134,99938,99912
 6.0000e-001 100065 -1.1228e+001 -1.4299e+001  4.0568e+000 35302 100206,99886,100016
 6.0000e-001 100042  3.6076e+000  2.5180e+000 -1.2421e+000 35302 99938,99990,99964
 6.0000e-001 100160 -1.0805e+001  1.2649e+000  2.4373e+000 35302 100016,99990,100134
 6.0000e-001 100183 -1.3869e+001 -9.3004e+000  4.5586e+000 35302 100206,100016,100134
 6.0000e-001 100232 -1.3219e+001 -8.3321e+000 -1.3780e+000 35302 99912,99886,100206
 6.0000e-001 100255 -1.4179e+001 -7.0468e-001 -1.0475e-001 35302 99912,100206,100134
 6.0000e-001 100586  5.0884e+000  9.1507e+000 -7.7060e+000 35012 100609,100387,100361
 6.0000e-001 100563  7.0407e+000  6.9540e+000 -3.4207e+000 35012 100609,100361,100465
 6.0000e-001 100540  6.2798e+000  1.1108e+000 -3.1976e+000 35012 100361,100491,100465
 6.0000e-001 100517  4.1887e+000  9.9053e+000  3.6284e-001 35012 100413,100465,100439
 6.0000e-001 100635  6.0928e-001  7.1814e+000 -6.5923e+000 35012 100413,100387,100609
 6.0000e-001 100658  2.4696e+000  4.4892e+000 -2.1565e+000 35012 100413,100609,100465
 6.0000e-001 100987 -9.8512e+000  6.5547e+000 -1.9519e+001 34700 100788,100866,100814
 6.0000e-001 100964  2.5444e+001  5.4268e+000 -1.3595e+001 34700 101010,100866,100788
 6.0000e-001 100941  3.6900e+000  2.0383e+000 -6.5472e+000 34700 100762,100892,100866
 6.0000e-001 100918 -3.8451e+000  1.3384e+001  2.6638e+000 34700 100814,100866,100840
 6.0000e-001 101036  7.9736e+000  2.3161e+000 -5.9637e+000 34700 100762,100866,101010
 6.0000e-001 101493 -5.0121e-001  5.4855e+000 -2.2525e+000 34132 101516,101349,101297
 6.0000e-001 101470  4.0934e+000  9.4312e+000 -4.6597e-001 34132 101588,101516,101297
 6.0000e-001 101447  7.6628e-001  3.9717e+000  2.5089e+000 34132 101588,101297,101245
 6.0000e-001 101424  3.3881e+000  3.3269e+000  2.2398e+000 34132 101245,101297,101271
 6.0000e-001 101401 -1.1253e+001  4.3932e+000 -5.8608e+000 34132 101297,101349,101323
 6.0000e-001 101542 -8.7740e+000  9.2667e+000  3.0682e-001 34132 101375,101349,101516
 6.0000e-001 101565  3.9441e-001  1.8933e+001  5.1082e+000 34132 101375,101516,101219
 6.0000e-001 101614 -5.4139e-001  4.7652e+000  3.3061e+000 34132 101219,101516,101588
 6.0000e-001 101637 -3.4701e-003  2.2504e+000  5.6513e+000 34132 101219,101588,101245
 6.0000e-001 101858 -1.6255e+001  6.7177e+000 -1.2662e+000 33720 101708,101786,101760
 6.0000e-001 101835 -1.5265e+001  6.0293e+000 -6.4403e-001 33720 101682,101786,101708
 6.0000e-001 101812 -1.3243e+001  7.9162e+000 -1.3417e+000 33720 101708,101760,101734
 6.0000e-001 102128 -1.3843e+001  9.0891e+000  1.7446e+000 33130 101903,102007,101929
 6.0000e-001 102105 -1.0993e+001  1.6533e+001 -1.3825e+000 33130 101903,102033,102007
 6.0000e-001 102082 -9.1174e+000  1.3699e+001  4.6574e+000 33130 101929,102007,101955
 6.0000e-001 102059 -9.4953e+000  5.6467e+000 -6.1254e-001 33130 101955,102007,101981
 6.0000e-001 102461 -5.5692e+000  1.3389e+001  2.3915e+000 32840 102236,102340,102262
 6.0000e-001 102438 -6.0061e+000  5.2599e+000 -3.1396e+000 32840 102236,102366,102340
 6.0000e-001 102415 -1.4518e+001  1.0447e+001  2.2916e+000 32840 102262,102340,102288
 6.0000e-001 102392  8.3870e-001  1.4269e+001  9.4737e+000 32840 102288,102340,102314
 6.0000e-001 102997  5.8440e+000  7.7513e+000  3.8706e-002 32493 102749,102879,102853
 6.0000e-001 102974  4.0531e+000  6.8193e+000  5.9316e+000 32493 102723,102879,102749
 6.0000e-001 102951  6.8532e+000  1.3131e+001 -3.1361e+000 32493 102749,102801,102775
 6.0000e-001 102928  2.2810e+000  6.9677e+000 -1.6034e-001 32493 102749,102853,102801
 6.0000e-001 102905  8.1516e+000  2.0043e+001 -1.3349e+000 32493 102801,102853,102827
 6.0000e-001 103454 -2.6665e+001  1.9146e+000 -5.6106e-003 32089 103206,103336,103310
 6.0000e-001 103431 -2.4263e+001  8.2045e+000  6.0162e-001 32089 103180,103336,103206
 6.0000e-001 103408 -1.0261e+001  9.2698e+000  6.0237e+000 32089 103206,103284,103258
 6.0000e-001 103385 -5.0373e+000  1.3005e+001  4.1315e+000 32089 103206,103310,103284
 6.0000e-001 103362 -1.2641e+001  3.7745e+000  6.2583e+000 32089 103206,103258,103232
 6.0000e-001 103783  6.3703e+000  2.2433e+001 -4.4832e+000 31742 103558,103662,103584
 6.0000e-001 103760  4.3187e+000  1.7119e+001 -4.9975e+000 31742 103558,103688,103662
 6.0000e-001 103737 -3.9923e+000  1.3884e+001 -1.9205e-001 31742 103584,103662,103636
 6.0000e-001 103714 -6.4108e+000  1.3564e+001  1.0627e+000 31742 103584,103636,103610
 6.0000e-001 104112 -1.5587e+001  1.1164e+001 -9.3146e-001 31402 103939,103991,103965
 6.0000e-001 104089 -1.5993e+001  8.2885e+000 -9.4690e-001 31402 103913,103991,103939
 6.0000e-001 104066 -5.7199e+000  1.9249e+001  5.0992e+000 31402 103913,104017,103991
 6.0000e-001 104043 -4.9387e+000  1.4511e+001  6.1233e+000 31402 103887,104017,103913
 6.0000e-001 104569 -3.8487e+000  8.8578e+000  7.2078e+000 30998 104321,104425,104373
 6.0000e-001 104546 -6.2466e-001  9.9943e+000  7.4176e+000 30998 104321,104451,104425
 6.0000e-001 104523 -7.1898e-001  1.4502e+001  1.0423e+001 30998 104373,104425,104399
 6.0000e-001 104500 -1.3711e+001  1.1087e+001  8.2208e+000 30998 104295,104451,104321
 6.0000e-001 104477  3.2792e+000  2.0075e+001  2.9371e+000 30998 104321,104373,104347
 6.0000e-001 104947  5.2325e+000  3.2278e+001 -1.3387e+000 30608 104751,104803,104777
 6.0000e-001 104924 -1.6005e+001  2.4431e+000 -1.0683e+001 30608 104725,104803,104751
 6.0000e-001 104901 -2.0693e+001 -3.2821e+000 -1.4984e+001 30608 104699,104803,104725
 6.0000e-001 104878  1.6868e+001 -1.4903e+000  2.3993e+000 30608 104673,104803,104699
 6.0000e-001 104855  1.7089e+001  6.9365e+000  4.6875e+000 30608 104673,104829,104803
 6.0000e-001 105276  7.5865e-001  7.3635e+000  3.5821e+000 30204 105427,105129,105077
 6.0000e-001 105253 -5.7530e-002  7.5713e+000  2.6678e+000 30204 105427,105077,105051
 6.0000e-001 105230 -2.2331e+000 -7.4693e-001 -7.7479e-001 30204 105077,105129,105103
 6.0000e-001 105207  1.0904e+000  1.0487e+000  1.2268e+000 30204 105299,105181,105155
 6.0000e-001 105325  5.3852e+000  1.9704e+000  4.2313e+000 30204 105129,105181,105299
 6.0000e-001 105453  1.2429e+000  7.6176e+000  3.4089e+000 30204 105181,105129,105427
 6.0000e-001 105476  1.5486e+000  8.3253e+000  2.3980e+000 30204 105181,105427,105051
 6.0000e-001 105903 -1.7234e+001 -6.3659e+000  1.5443e+000 29700 105606,105762,105736
 6.0000e-001 105880 -1.4105e+001 -2.7826e+000  8.9776e+000 29700 105580,105762,105606
 6.0000e-001 105857 -6.4308e+000 -4.5649e+000  1.4915e+000 29700 105606,105710,105632
 6.0000e-001 105834 -9.7770e+000 -5.4662e+000 -9.7058e-001 29700 105606,105736,105710
 6.0000e-001 105811  1.7238e+000  2.5824e-001 -2.6673e+000 29700 105632,105710,105684
 6.0000e-001 105788  1.3967e+000 -3.3707e-001 -1.8178e-001 29700 105632,105684,105658
 6.0000e-001 106102  1.6116e+001 -3.9627e+000  4.4274e+000 29124 105978,106030,106004
 6.0000e-001 106079  3.3062e+001  3.3412e+000  7.8187e+000 29124 105926,106030,105978
 6.0000e-001 106056  3.1542e+001  2.0227e+001 -1.9845e+001 29124 105926,105978,105952
 6.0000e-001 106301 -8.8035e+000  4.6088e+000 -1.6947e+000 28712 106151,106229,106203
 6.0000e-001 106278 -3.9302e+000  8.3345e+000 -2.6572e-002 28712 106125,106229,106151
 6.0000e-001 106255 -1.4168e+001  3.3566e+000 -2.3134e+000 28712 106151,106203,106177
 6.0000e-001 106551  1.1703e+001 -3.6425e-001  9.4586e+000 28258 106352,106404,106378
 6.0000e-001 106528  1.3429e+001  7.3150e+000  1.8085e-001 28258 106352,106456,106404
 6.0000e-001 106505  9.4327e+000  1.9490e+001  4.9008e+000 28258 106326,106456,106352
 6.0000e-001 106482  4.4309e+000 -6.3568e+000  6.0233e+000 28258 106404,106456,106430
 6.0000e-001 107012 -3.8825e+000  1.0176e+001 -3.5750e-001 27818 107035,106790,106764
 6.0000e-001 106989  6.9657e-002  1.9855e+001  2.5095e-001 27818 107035,106764,106868
 6.0000e-001 106966 -1.2052e+001  4.8688e+001 -8.1889e+000 27818 107107,106842,106816
 6.0000e-001 106943 -1.1818e+001  3.8440e+000  7.4287e+000 27818 106738,106868,106764
 6.0000e-001 106920 -6.3053e+000  1.3277e+001  1.4512e+000 27818 106738,106894,106868
 6.0000e-001 107061 -4.9691e+000  1.8511e+001 -8.8772e+000 27818 106816,106790,107035
 6.0000e-001 107084  1.2634e+000  3.5454e+001 -8.8028e+000 27818 107107,106816,107035
 6.0000e-001 107133 -2.3565e+001  3.1232e+001 -5.9782e-002 27818 106868,106842,107107
 6.0000e-001 107156 -1.0899e+001  1.4308e+001 -1.8886e+000 27818 106868,107107,107035
 6.0000e-001 107613 -3.2112e+001 -1.0752e+000 -8.4755e+000 27312 107339,107469,107365
 6.0000e-001 107590 -2.0729e+001 -1.6319e+000 -7.3643e+000 27312 107339,107495,107469
 6.0000e-001 107567 -2.7353e+001  1.4839e+001 -1.2830e+001 27312 107391,107469,107443
 6.0000e-001 107544 -2.1317e+001  1.4740e+000 -1.4701e+001 27312 107365,107469,107391
 6.0000e-001 107521 -4.3114e+001  6.5707e+000 -8.6344e+000 27312 107391,107443,107417
 6.0000e-001 107991 -9.4838e+000  1.5410e+001 -1.8372e+000 26858 108086,108014,107795
 6.0000e-001 107968 -8.7257e+000  1.0652e+001 -3.7913e-001 26858 108014,107717,107873
 6.0000e-001 107945 -8.0669e+000  1.7996e+001 -2.3893e+000 26858 108158,108086,107795
 6.0000e-001 107922 -6.2155e+000  2.1774e+001 -3.8955e+000 26858 108158,107795,107769
 6.0000e-001 107899 -6.3711e+000  2.9224e+001 -3.9210e+000 26858 107821,107873,107847
 6.0000e-001 108040 -7.0450e+000  2.8576e+001 -3.2213e+000 26858 107821,107795,108014
 6.0000e-001 108063 -1.1275e+001  1.7294e+001 -9.8288e-001 26858 107821,108014,107873
 6.0000e-001 108112 -6.5310e+000  1.7092e+001 -1.4194e-001 26858 107717,108014,108086
 6.0000e-001 108135 -7.1203e+000  1.1028e+001  6.1787e-001 26858 107717,108086,107743
 6.0000e-001 108184 -5.2134e+000  1.3708e+001 -2.0616e+000 26858 107743,108086,108158
 6.0000e-001 108207 -5.2834e+000  1.6094e+001 -2.5723e+000 26858 107743,108158,107769
 6.0000e-001 108634 -5.9675e+000 -4.2015e+000  1.3523e+001 26404 108657,108415,108363
 6.0000e-001 108611  1.3613e+000  1.5804e+001  1.7263e+001 26404 108657,108363,108337
 6.0000e-001 108588 -1.4078e+001  6.7151e+000  6.4821e+000 26404 108729,108311,108467
 6.0000e-001 108565  3.9285e+000  8.7676e-001  7.3248e+000 26404 108801,108441,108415
 6.0000e-001 108542 -3.5778e+000  1.3600e+001 -1.6616e+000 26404 108311,108493,108467
 6.0000e-001 108519  1.7873e+001 -4.9250e+000  1.3407e+001 26404 108363,108415,108389
 6.0000e-001 108683  5.9514e-001  3.5056e+000  7.8697e+000 26404 108801,108415,108657
 6.0000e-001 108706 -9.8756e-002  6.9091e+000  7.7265e+000 26404 108729,108467,108657
 6.0000e-001 108755 -2.1445e+001  8.7042e+000  7.1271e+000 26404 108337,108311,108729
 6.0000e-001 108778 -1.4546e+001  3.5923e+000  9.5269e+000 26404 108337,108729,108657
 6.0000e-001 108827 -1.1221e-001 -2.8948e+000  5.7600e+000 26404 108467,108441,108801
 6.0000e-001 108850 -2.8695e+000  8.0265e-001  6.6858e+000 26404 108467,108801,108657
 6.0000e-001 109228  8.6498e+000  2.9984e+001  7.2034e+000 26064 109006,109084,109058
 6.0000e-001 109205 -1.8237e-001  2.5167e+001  5.1367e+000 26064 108980,109084,109006
 6.0000e-001 109182  5.0683e+000  2.4036e+001  7.9186e+000 26064 108980,109110,109084
 6.0000e-001 109159  8.8735e+000  2.4373e+001  1.1291e+001 26064 109006,109058,109032
 6.0000e-001 109136  4.2806e+000  1.6740e+001  5.7350e+000 26064 108954,109110,108980
 6.0000e-001 109427  1.6275e+001  3.1871e+001 -8.7147e-001 25660 109303,109355,109329
 6.0000e-001 109404  1.0834e+001  1.7115e+001 -8.7663e+000 25660 109277,109355,109303
 6.0000e-001 109381  3.6965e+001  1.6835e+001 -8.4263e+000 25660 109251,109355,109277
 6.0000e-001 109577 -2.1994e+001 -6.7834e+000 -9.9906e+000 25306 109476,109528,109502
 6.0000e-001 109554 -3.0758e+001 -6.1023e+000 -4.0643e+000 25306 109450,109528,109476
 6.0000e-001 109778 -1.0645e+001  1.1894e+001 -1.9017e-001 24944 109628,109706,109654
 6.0000e-001 109755 -1.4611e+001  1.8329e+001 -4.1173e+000 24944 109602,109706,109628
 6.0000e-001 109732 -1.2683e+001  1.0593e+001  2.8417e+000 24944 109654,109706,109680
 6.0000e-001 110126 -1.3797e+001  8.1578e+000 -2.5904e+000 24440 110149,109907,109855
 6.0000e-001 110103 -1.4242e+001  8.2959e+000 -2.7028e+000 24440 110149,109855,109985
 6.0000e-001 110080 -1.7344e+001  3.9788e+000 -6.4583e-001 24440 109855,109907,109881
 6.0000e-001 110057 -1.8118e+001  3.0288e+000 -6.5983e+000 24440 109829,109985,109855
 6.0000e-001 110034 -1.0253e+001  1.6583e+000 -5.3946e+000 24440 109907,109959,109933
 6.0000e-001 110011 -1.0921e+001  8.1047e+000  2.1580e+000 24440 109803,109985,109829
 6.0000e-001 110175 -1.3978e+001  8.2755e+000 -2.8839e+000 24440 109959,109907,110149
 6.0000e-001 110198 -1.4636e+001  8.2526e+000 -2.9935e+000 24440 109959,110149,109985
 6.0000e-001 110301 -2.5045e+001  6.2278e+000  1.0431e+000 24028 110223,110275,110249
 6.0000e-001 110573 -1.1820e+001  1.6358e+001 -5.1744e-001 23467 110400,110452,110426
 6.0000e-001 110550 -1.4403e+001  1.3451e+001 -1.9736e+000 23467 110374,110452,110400
 6.0000e-001 110527 -8.5935e+000  1.5926e+001 -2.6082e+000 23467 110348,110452,110374
 6.0000e-001 110504 -9.8436e+000  1.2901e+001 -1.7319e+000 23467 110348,110478,110452
 6.0000e-001 111004  1.4115e+001  1.2208e+001 -2.8492e+001 22963 111027,110733,110707
 6.0000e-001 110981 -1.0418e+001  6.9101e+000 -1.2457e+001 22963 111027,110707,110681
 6.0000e-001 110958 -2.1264e+001  5.6550e+000 -8.1896e+000 22963 111099,110759,110733
 6.0000e-001 110935 -6.3212e+000  1.5891e+001 -1.1847e+001 22963 111171,110863,110811
 6.0000e-001 110912 -5.3217e+001  2.5749e+001 -5.6810e+000 22963 110759,110811,110785
 6.0000e-001 110889 -1.5511e+001  3.7179e+001  9.8133e+000 22963 110811,110863,110837
 6.0000e-001 111053 -3.0604e+000  2.0106e+001 -1.6969e+001 22963 111099,110733,111027
 6.0000e-001 111076 -4.8034e+000  8.7157e+000 -1.0548e+001 22963 111171,110811,111027
 6.0000e-001 111125 -2.2797e+001  1.1996e+000  1.1633e+000 22963 110811,110759,111099
 6.0000e-001 111148 -2.0804e+001 -1.8332e+000 -4.6967e+000 22963 110811,111099,111027
 6.0000e-001 111197 -7.2446e+000  2.8752e+001 -1.4113e+001 22963 110681,110863,111171
 6.0000e-001 111220 -9.9072e+000  1.9257e+001 -9.2919e+000 22963 110681,111171,111027
 6.0000e-001 111726  6.3102e+000  1.3130e+000 -8.6163e+000 22459 111749,111507,111429
 6.0000e-001 111703 -4.1491e+000 -1.4691e+000  9.1246e+000 22459 111749,111429,111585
 6.0000e-001 111680 -4.1122e+001  2.7851e+001  1.4225e+000 22459 111403,111585,111429
 6.0000e-001 111657  8.9784e+000  2.9694e+001 -1.9006e+001 22459 111507,111559,111533
 6.0000e-001 111634  1.0647e+000  4.9249e+001 -7.9552e+000 22459 111455,111507,111481
 6.0000e-001 111611 -2.4543e+001  4.2465e+001  1.0091e-001 22459 111429,111507,111455
 6.0000e-001 111775  9.2937e+000  2.7828e+001 -1.9912e+001 22459 111559,111507,111749
 6.0000e-001 111798 -3.3864e+000  1.0750e+001 -3.0556e+000 22459 111559,111749,111585
 6.0000e-001 112046 -4.8926e-001  1.6426e+001  7.2302e-001 21898 112069,111925,111873
 6.0000e-001 112023 -1.3379e+000  1.2816e+001  5.5685e+000 21898 112069,111873,111847
 6.0000e-001 112000 -2.0305e+001  2.1218e+001  1.1008e+001 21898 111821,111951,111847
 6.0000e-001 111977 -3.6286e+000  8.4980e+000 -1.7334e+000 21898 111873,111925,111899
 6.0000e-001 112095 -6.8375e+000  1.3059e+001  2.7786e+000 21898 111951,111925,112069
 6.0000e-001 112118 -4.6122e+000  1.1025e+001  7.3051e+000 21898 111951,112069,111847
 6.0000e-001 112498  2.2029e+001  1.7633e+001 -1.2504e+001 21608 112521,112276,112224
 6.0000e-001 112475  2.7226e+001  1.8517e+001 -1.1236e+001 21608 112521,112224,112380
 6.0000e-001 112452  2.3645e+001  1.0684e+001 -1.3889e+000 21608 112302,112380,112354
 6.0000e-001 112429  1.5816e+001  1.0956e+001 -9.7482e+000 21608 112224,112276,112250
 6.0000e-001 112406  1.1691e+001  8.6537e+000 -1.0062e+000 21608 112302,112354,112328
 6.0000e-001 112547  2.6129e+001  1.8048e+001 -9.1630e+000 21608 112302,112276,112521
 6.0000e-001 112570  3.0846e+001  1.7544e+001 -8.7011e+000 21608 112302,112521,112380
 6.0000e-001 112948 -5.1497e+001 -6.3073e+000  1.3809e+001 20882 112971,112752,112700
 6.0000e-001 112925 -3.2295e+001  8.4943e-001  1.1727e+001 20882 112971,112700,112830
 6.0000e-001 112902 -2.1844e+001 -2.6981e+000  2.1817e+001 20882 112778,112830,112804
 6.0000e-001 112879 -3.5832e+001 -1.2499e+001  1.1695e+001 20882 112674,112830,112700
 6.0000e-001 112856 -4.2025e+001  9.3499e+000  9.3148e+000 20882 112700,112752,112726
 6.0000e-001 112997 -5.1320e+001 -4.4441e+000  2.4775e+001 20882 112778,112752,112971
 6.0000e-001 113020 -4.0709e+001 -8.9496e-001  2.2157e+001 20882 112778,112971,112830
 6.0000e-001 113526 -9.4920e+000 -1.2188e+000 -7.7531e-001 20428 113255,113385,113333
 6.0000e-001 113503 -9.5300e+000 -4.7372e-001 -1.0382e+000 20428 113229,113385,113255
 6.0000e-001 113480 -2.0920e+001 -9.6506e-001 -4.3833e-001 20428 113255,113333,113281
 6.0000e-001 113457 -6.9015e+000 -3.2293e+000 -2.6273e+000 20428 113203,113385,113229
 6.0000e-001 113434 -7.5221e+000 -2.3692e+000  3.2610e+000 20428 113281,113333,113307
 6.0000e-001 113411 -8.9662e+000 -7.7161e+000 -5.7582e-002 20428 113333,113385,113359
 6.0000e-001 113774 -2.4097e+001 -6.2575e+000  8.1090e-001 19917 113797,113601,113549
 6.0000e-001 113751 -2.3161e+001 -1.0390e+001  2.2697e+000 19917 113869,113797,113549
 6.0000e-001 113728 -2.4022e+001 -1.0791e+001  2.3978e+000 19917 113869,113549,113679
 6.0000e-001 113705 -2.4076e+001 -1.0306e+001 -1.0205e+000 19917 113549,113601,113575
 6.0000e-001 113823 -2.1978e+001  1.2047e+000  1.4686e+000 19917 113627,113601,113797
 6.0000e-001 113846 -2.0716e+001 -5.7611e+000 -1.5330e+000 19917 113627,113797,113653
 6.0000e-001 113895 -2.4281e+001 -7.1214e+000 -1.9282e+000 19917 113653,113797,113869
 6.0000e-001 113918 -3.0029e+001 -9.7052e+000 -1.2862e+000 19917 113653,113869,113679
 6.0000e-001 114166  3.1758e+001  2.8915e+001 -1.7946e+000 19413 113993,114045,114019
 6.0000e-001 114143  3.6207e+001  2.6915e+001 -1.9393e+000 19413 113967,114045,113993
 6.0000e-001 114120  2.8023e+001  2.3144e+001  3.0217e-001 19413 113967,114071,114045
 6.0000e-001 114097  3.8523e+001  2.5132e+001  6.4666e-001 19413 113941,114071,113967
 6.0000e-001 114438 -3.3950e+000 -1.7284e+000  1.3971e-001 19001 114213,114265,114239
 6.0000e-001 114415 -8.0279e+000 -1.0048e+001  1.9825e+000 19001 114213,114343,114265
 6.0000e-001 114392 -4.3445e+000 -4.6466e-001  9.3211e-001 19001 114265,114343,114317
 6.0000e-001 114369  3.7333e-001  7.7881e-001 -1.4933e-001 19001 114265,114317,114291
 6.0000e-001 114639 -1.7638e+000  3.0202e+000  3.1162e+000 18554 114489,114541,114515
 6.0000e-001 114616 -1.0327e+001  7.1105e+000  3.1516e+000 18554 114489,114567,114541
 6.0000e-001 114593 -1.8018e+001  1.2741e+001  2.7015e+000 18554 114463,114567,114489
 6.0000e-001 115043  2.0892e+001  2.1208e+001 -2.5689e+000 18164 114795,114925,114821
 6.0000e-001 115020  1.6943e+001  1.9159e+001 -4.7393e+000 18164 114769,114925,114795
 6.0000e-001 114997  1.8236e+001  1.4437e+001 -3.0568e+000 18164 115066,114873,114821
 6.0000e-001 114974  2.0473e+001  2.0050e+001 -2.5273e+000 18164 115066,114821,114925
 6.0000e-001 114951  1.7159e+001  1.3590e+001 -3.6310e+000 18164 114821,114873,114847
 6.0000e-001 115092  1.4518e+001  1.8691e+001 -6.3872e+000 18164 114899,114873,115066
 6.0000e-001 115115  1.8188e+001  2.7112e+001 -5.7891e+000 18164 114899,115066,114925
 6.0000e-001 115265 -1.2944e+001 -2.2306e+000 -1.7148e+000 17852 115164,115216,115190
 6.0000e-001 115242 -1.3671e+001  4.3331e+000 -1.7313e+000 17852 115138,115216,115164
 6.0000e-001 115464 -5.6262e+001 -1.4011e+001 -7.5686e+000 17346 115288,115366,115340
 6.0000e-001 115441 -1.1286e+001 -1.6599e+001 -1.1214e+001 17346 115288,115392,115366
 6.0000e-001 115418 -4.1445e+001 -3.8056e+000 -3.0884e+000 17346 115288,115340,115314
 6.0000e-001 115736 -1.1552e+001 -9.6385e-001 -1.2642e+000 16942 115563,115641,115615
 6.0000e-001 115713 -1.1178e+001  1.3799e+000 -1.5308e+000 16942 115511,115641,115563
 6.0000e-001 115690 -7.1362e+000  8.7571e-001 -1.0075e+000 16942 115563,115615,115589
 6.0000e-001 115667 -1.2169e+001  1.7082e+000 -9.0501e-001 16942 115511,115563,115537
 6.0000e-001 116091 -5.4484e+000 -7.8386e-001  3.5872e+000 16388 115918,115970,115944
 6.0000e-001 116068 -3.7666e-001 -7.7114e+000  7.7069e+000 16388 115918,115996,115970
 6.0000e-001 116045  8.6321e+000 -1.5184e+001  5.0045e+000 16388 115892,115996,115918
 6.0000e-001 116022  1.5839e+000 -2.7020e+000  1.1086e+000 16388 115866,115996,115892
 6.0000e-001 116192  1.0099e-064 -1.6594e-063 -6.1842e-064 15810 116114,116166,116140
 6.0000e-001 116342 -1.1246e+001 -3.6793e-001 -1.3395e-001 15419 116241,116293,116267
 6.0000e-001 116319 -8.0924e-001 -8.6711e-001  2.3814e-001 15419 116215,116293,116241
 6.0000e-001 116445  1.9425e+001  3.7525e+001 -7.6689e+000 421 116367,116419,116393
 7.0000e-001 68477  7.5665e+000  9.5541e+000  1.5046e+000 68018 68327,68379,68353
 7.0000e-001 68454  8.8479e+000  1.1481e+001  8.1333e-001 68018 68301,68379,68327
 7.0000e-001 68431  1.5045e+001  1.0113e+001  3.2338e+000 68018 68301,68405,68379
 7.0000e-001 68578  1.2360e+000  3.3475e-002 -6.8598e-002 67820 68500,68552,68526
 7.0000e-001 68728 -1.7921e-001 -6.1667e-004  3.7343e-001 67508 68601,68653,68627
 7.0000e-001 68705 -5.1589e-001 -1.3656e+000  2.4510e-001 67508 68601,68679,68653
 7.0000e-001 68927  1.7257e+001  1.0954e+001 -3.4461e+000 67310 68777,68829,68803
 7.0000e-001 68904  7.7876e+000  1.1019e+001 -1.6720e-001 67310 68751,68829,68777
 7.0000e-001 68881  8.9919e+000  1.3065e+001  3.2990e-001 67310 68751,68855,68829
 7.0000e-001 69386  5.4070e+000  1.1157e+001 -5.4275e+000 67020 69216,69268,69242
 7.0000e-001 69363  1.0756e+001  1.3127e+001 -3.4692e-001 67020 69138,69268,69216
 7.0000e-001 69340  1.2721e+001  1.6103e+001  1.5971e+000 67020 69112,69268,69138
 7.0000e-001 69317  6.2433e+000  1.3614e+001 -5.7057e+000 67020 69138,69190,69164
 7.0000e-001 69294  8.8648e+000  1.3142e+001  4.2876e-001 67020 69138,69216,69190
 7.0000e-001 69536  2.0012e+000 -3.4745e+000  4.1394e+000 66708 69435,69487,69461
 7.0000e-001 69513  1.0628e+001  6.2009e+000 -3.3704e-001 66708 69409,69487,69435
 7.0000e-001 69735 -2.6711e+000 -7.5366e-001  8.0928e-001 66346 69585,69637,69611
 7.0000e-001 69712 -9.8751e-001 -1.9816e+000  6.5114e-001 66346 69559,69637,69585
 7.0000e-001 69689 -4.1437e-001 -4.4888e-001  8.0070e-001 66346 69559,69663,69637
 7.0000e-001 69985 -1.2509e+001 -2.9553e+000  5.0097e+000 66148 69786,69890,69864
 7.0000e-001 69962 -8.0079e+000  1.9877e+000  4.1707e-001 66148 69760,69890,69786
 7.0000e-001 69939 -2.6387e+001  1.2726e+001  2.7060e+001 66148 69786,69864,69838
 7.0000e-001 69916 -1.4010e+001  2.1592e+001  1.0317e+001 66148 69786,69838,69812
 7.0000e-001 70137  2.1083e+000  9.9182e+000 -4.1048e-001 65950 70036,70088,70062
 7.0000e-001 70114 -1.9839e+000  9.6181e+000 -1.2905e+000 65950 70010,70088,70036
 7.0000e-001 70470  2.0072e-001  3.3300e+000  1.9509e+000 65546 70245,70323,70271
 7.0000e-001 70447  3.2507e+000  8.1734e+000  2.8527e-001 65546 70245,70375,70323
 7.0000e-001 70424  3.1781e+000  5.6034e+000  6.7388e-001 65546 70323,70375,70349
 7.0000e-001 70401  1.8598e+000  4.3534e+000  1.5173e+000 65546 70271,70323,70297
 7.0000e-001 70620 -5.4177e+000  1.0531e+001 -2.1451e+000 65348 70493,70545,70519
 7.0000e-001 70597  8.8631e+000  2.2756e+001  3.1093e+000 65348 70493,70571,70545
 7.0000e-001 70721  1.0799e+001  1.6066e+001 -5.7133e-001 65150 70643,70695,70669
 7.0000e-001 71020  3.2544e+000  8.1091e+000 -3.2163e+000 64952 71043,70850,70824
 7.0000e-001 70997  1.4457e+000  4.0294e+000 -2.8949e+000 64952 71043,70824,70772
 7.0000e-001 70974  1.9493e+000  9.2028e+000 -1.7934e+000 64952 71115,70746,70876
 7.0000e-001 70951  1.8737e+000  1.1091e+001  8.8609e-002 64952 70746,70902,70876
 7.0000e-001 70928  3.7812e+000  4.9192e+000 -3.1630e+000 64952 70772,70824,70798
 7.0000e-001 71069  1.1746e+000  7.6150e+000 -2.3395e+000 64952 70876,70850,71043
 7.0000e-001 71092  1.5324e+000  8.5024e+000 -1.9763e+000 64952 71115,70876,71043
 7.0000e-001 71141  2.9025e+000  8.3534e+000 -1.0841e+000 64952 70772,70746,71115
 7.0000e-001 71164  2.3496e+000  7.3349e+000 -1.2954e+000 64952 70772,71115,71043
 7.0000e-001 71365 -6.1491e+000  1.3750e+001  8.1984e-001 64662 71215,71293,71267
 7.0000e-001 71342 -1.0285e+001  7.7710e+000  3.0686e+000 64662 71189,71293,71215
 7.0000e-001 71319 -9.4535e+000  3.9483e+000  1.1228e+000 64662 71215,71267,71241
 7.0000e-001 71615  2.1394e+001  2.2596e+001  5.2134e-001 64350 71710,71638,71468
 7.0000e-001 71592  2.4619e+001  1.9681e+001  2.9781e-001 64350 71638,71416,71390
 7.0000e-001 71569  2.1830e+001  2.0148e+001 -1.4871e+000 64350 71710,71468,71442
 7.0000e-001 71546  3.3717e+001  1.6164e+001 -5.7781e+000 64350 71390,71520,71494
 7.0000e-001 71664  2.5775e+001  2.3544e+001  3.5018e+000 64350 71494,71468,71638
 7.0000e-001 71687  2.1879e+001  1.6636e+001  1.9137e+000 64350 71494,71638,71390
 7.0000e-001 71736  2.1148e+001  1.7512e+001 -9.4346e-001 64350 71416,71638,71710
 7.0000e-001 71759  1.9899e+001  1.4629e+001 -3.6364e+000 64350 71416,71710,71442
 7.0000e-001 72318  1.7186e+000  4.7341e+000  1.0049e+001 63837 71972,72024,71998
 7.0000e-001 72295 -7.3983e+000  6.0503e+000  8.4407e+000 63837 72341,71972,71946
 7.0000e-001 72272 -6.1370e+000  6.9783e+000  7.2346e+000 63837 72413,72341,71946
 7.0000e-001 72249 -1.3074e+001  9.0028e+000  7.5259e+000 63837 72413,71946,72128
 7.0000e-001 72226 -2.0406e+000  3.9093e+000  5.2012e-001 63837 72024,72076,72050
 7.0000e-001 72203 -3.1766e+000  6.6552e-001  2.4666e+000 63837 72024,72102,72076
 7.0000e-001 72180 -2.5243e+000  1.3701e+001  6.4716e+000 63837 71946,72154,72128
 7.0000e-001 72367 -5.6397e+000  7.1059e+000  1.0090e+001 63837 72024,71972,72341
 7.0000e-001 72390 -7.0257e+000  6.2952e+000  5.9190e+000 63837 72024,72341,72102
 7.0000e-001 72439 -1.4698e+001  4.1660e+000  5.3559e+000 63837 72102,72341,72413
 7.0000e-001 72462 -1.9457e+001  7.9727e+000  6.1960e+000 63837 72102,72413,72128
 7.0000e-001 72791  1.8483e+000  2.6478e+000 -7.2609e-001 63383 72592,72696,72670
 7.0000e-001 72768  1.2544e+001  2.8302e+001 -1.6237e-001 63383 72566,72696,72592
 7.0000e-001 72745  1.1907e+001  1.5384e+001  7.2318e+000 63383 72592,72670,72618
 7.0000e-001 72722  1.9195e+000 -4.1794e-002  1.1750e-001 63383 72618,72670,72644
 7.0000e-001 73297  3.7326e-001  8.0118e+000  1.5577e+000 63185 73000,73156,73130
 7.0000e-001 73274  5.9901e+000  2.2379e+001 -3.9329e+000 63185 72974,73156,73000
 7.0000e-001 73251 -8.4602e-001  6.2881e+000  6.1009e-001 63185 73000,73052,73026
 7.0000e-001 73228  1.5411e+000  6.5346e+000  3.0165e-001 63185 73000,73130,73052
 7.0000e-001 73205  3.2700e+000  1.3064e+001  2.2674e+000 63185 73052,73130,73104
 7.0000e-001 73182  4.6332e+000  7.0677e+000  1.6847e+000 63185 73052,73104,73078
 7.0000e-001 73545 -2.9595e+000  2.9221e+001 -5.7862e+000 62781 73568,73398,73372
 7.0000e-001 73522 -8.4719e+000  1.4142e+001 -6.6456e+000 62781 73568,73372,73346
 7.0000e-001 73499  5.2891e-001  1.6156e+001  2.8879e-001 62781 73640,73320,73424
 7.0000e-001 73476 -4.6725e+000  1.0086e+001  2.5828e+000 62781 73320,73450,73424
 7.0000e-001 73594 -8.3432e+000  1.5953e+001 -2.1476e+000 62781 73424,73398,73568
 7.0000e-001 73617 -1.7892e+000  1.4749e+001 -1.0940e+000 62781 73640,73424,73568
 7.0000e-001 73666 -4.9403e-001  1.4182e+001 -2.1650e+000 62781 73346,73320,73640
 7.0000e-001 73689 -1.7931e+000  1.2624e+001 -3.4359e+000 62781 73346,73640,73568
 7.0000e-001 74035 -1.2179e+001 -9.5561e-001 -3.1557e+000 62363 74058,73868,73842
 7.0000e-001 74012 -3.3381e+000  2.3024e-001 -1.9372e+000 62363 74130,74058,73842
 7.0000e-001 73989 -2.7903e+000  6.0824e-002 -2.5413e+000 62363 74130,73842,73816
 7.0000e-001 73966 -2.7481e+000 -2.8169e-001 -5.4313e-001 62363 74202,73764,73894
 7.0000e-001 73943 -2.0661e-001  6.8287e-001  8.3390e-002 62363 73712,73894,73764
 7.0000e-001 73920 -8.6986e-002  2.0070e-001  2.8054e-001 62363 73712,73764,73738
 7.0000e-001 74084 -4.4742e+000  2.2534e+000 -3.1652e-001 62363 73894,73868,74058
 7.0000e-001 74107 -3.7617e+000 -1.3322e+000 -1.3919e+000 62363 74202,73894,74058
 7.0000e-001 74156 -4.2573e+000 -8.8783e-001 -4.0737e-001 62363 73790,74058,74130
 7.0000e-001 74179 -2.2148e+000 -6.5546e-001 -9.4091e-001 62363 73790,74130,73816
 7.0000e-001 74228 -1.6072e+000  2.3052e-001  9.6239e-001 62363 73790,73764,74202
 7.0000e-001 74251 -2.3261e+000 -8.5947e-001  1.2150e-001 62363 73790,74202,74058
 7.0000e-001 74403 -1.0834e+001  7.7473e+000 -2.0303e+000 62115 74426,74302,74276
 7.0000e-001 74380 -1.8045e+001  8.1629e+000 -4.9317e+000 62115 74426,74276,74354
 7.0000e-001 74452 -4.6150e+000  5.6260e+000 -2.3256e+000 62115 74328,74302,74426
 7.0000e-001 74475 -1.1110e+001  6.4859e+000 -5.4640e+000 62115 74328,74426,74354
 7.0000e-001 74578 -4.3062e+000  1.5352e+001  7.4796e-001 61825 74500,74552,74526
 7.0000e-001 74982 -5.8096e+000  5.5233e+000  1.0834e+000 61513 75005,74734,74708
 7.0000e-001 74959 -2.2262e+000  6.0630e+000  4.9074e-001 61513 75005,74708,74864
 7.0000e-001 74936 -4.1144e+000  1.9588e+000  8.7237e-001 61513 75077,74812,74734
 7.0000e-001 74913 -9.5274e+000 -2.7458e-001  1.2881e-001 61513 74734,74786,74760
 7.0000e-001 74890 -1.2077e+001 -3.2293e+000  3.3755e+000 61513 74734,74812,74786
 7.0000e-001 75031 -2.7366e+000  3.0638e+000  1.5190e+000 61513 75077,74734,75005
 7.0000e-001 75054  1.7694e+000  6.4800e+000  4.7507e+000 61513 74838,75005,74864
 7.0000e-001 75103 -4.2764e+000  3.9907e+000  2.8024e+000 61513 74838,74812,75077
 7.0000e-001 75126 -3.5351e+000  4.8694e+000  3.3210e+000 61513 74838,75077,75005
 7.0000e-001 75553 -7.7707e+000 -4.5849e+000 -8.0350e+000 61060 75576,75360,75308
 7.0000e-001 75530 -6.1257e+000 -2.8916e+000 -7.3271e+000 61060 75576,75308,75230
 7.0000e-001 75507 -2.0837e+001 -1.9082e+001 -1.9627e+001 61060 75308,75360,75334
 7.0000e-001 75484 -6.2509e+000 -2.0704e+000 -5.4364e+000 61060 75230,75308,75256
 7.0000e-001 75461  2.4554e+000 -4.5097e+000 -3.1557e+000 61060 75256,75308,75282
 7.0000e-001 75438 -1.1689e+001  1.9873e+000 -8.4543e+000 61060 75360,75412,75386
 7.0000e-001 75602 -1.1841e+001 -2.7776e+000 -9.5860e+000 61060 75412,75360,75576
 7.0000e-001 75625 -8.5043e+000  1.2596e+000 -8.1250e+000 61060 75412,75576,75230
 7.0000e-001 76052  2.3483e+001  8.9669e+000 -7.8528e+000 60442 75755,75859,75833
 7.0000e-001 76029  1.3503e+001  4.4311e+000 -6.6964e+000 60442 75729,75859,75755
 7.0000e-001 76006  1.3468e+001  5.4410e+000  1.7216e+000 60442 75755,75833,75807
 7.0000e-001 75983  6.1126e-001  2.2356e+000 -1.5708e+000 60442 75755,75807,75781
 7.0000e-001 75960  1.7584e+001  4.6438e+000 -7.3776e+000 60442 75729,75911,75859
 7.0000e-001 75937  1.8385e+001  3.0335e-001 -3.3293e+000 60442 75859,75911,75885
 7.0000e-001 76430  8.3816e+000  1.7048e+001 -2.4586e+000 59788 76453,76286,76234
 7.0000e-001 76407  1.0578e+001  2.0824e+001 -1.0001e+000 59788 76453,76234,76182
 7.0000e-001 76384  8.1891e+000  1.7388e+001 -3.8097e+000 59788 76525,76156,76312
 7.0000e-001 76361  1.0210e+001  2.5577e+001 -1.4533e+000 59788 76182,76234,76208
 7.0000e-001 76338  1.2519e+001  1.7598e+001 -2.5254e+000 59788 76234,76286,76260
 7.0000e-001 76479  6.6522e+000  1.8890e+001 -4.3184e+000 59788 76312,76286,76453
 7.0000e-001 76502  7.9644e+000  1.9107e+001 -3.3121e+000 59788 76525,76312,76453
 7.0000e-001 76551  8.8727e+000  1.9558e+001 -3.8476e+000 59788 76182,76156,76525
 7.0000e-001 76574  8.4777e+000  2.0082e+001 -3.4999e+000 59788 76182,76525,76453
 7.0000e-001 77031  3.2066e+000  1.1362e+001  1.6863e+000 59448 76835,76887,76861
 7.0000e-001 77008  6.4909e-002  1.0909e+001 -1.0556e+000 59448 76835,76913,76887
 7.0000e-001 76985  1.9481e+000  1.3161e+001 -2.1531e+000 59448 76809,76913,76835
 7.0000e-001 76962  2.2627e+000  9.6824e+000 -1.0997e+000 59448 76757,76913,76809
 7.0000e-001 76939 -2.8139e+000  3.0439e+001 -3.8742e-002 59448 76757,76809,76783
 7.0000e-001 77537  1.3302e+000  2.1038e+001  3.3019e+000 58994 77560,77344,77292
 7.0000e-001 77514 -4.8474e+000  5.2414e+000 -1.0624e+000 58994 77560,77292,77240
 7.0000e-001 77491  2.3994e+000 -1.6714e+000  5.7782e+000 58994 77632,77214,77370
 7.0000e-001 77468  4.2250e-001  2.0869e+001  7.4276e-001 58994 77292,77344,77318
 7.0000e-001 77445  2.0434e+000  2.3826e+000  4.8016e+000 58994 77214,77396,77370
 7.0000e-001 77422 -4.4656e+000  1.4956e+001  9.5211e+000 58994 77240,77292,77266
 7.0000e-001 77586  1.1099e+001  6.7728e+000  5.0705e+000 58994 77370,77344,77560
 7.0000e-001 77609  6.2848e+000  6.5432e-001  2.3673e+000 58994 77632,77370,77560
 7.0000e-001 77658  1.9881e-001 -4.2500e+000  9.3494e+000 58994 77240,77214,77632
 7.0000e-001 77681  3.0653e+000 -4.6957e+000  6.2558e+000 58994 77240,77632,77560
 7.0000e-001 78138 -9.6099e+000 -4.6592e+000  4.2395e+000 58440 77864,77994,77890
 7.0000e-001 78115 -4.4307e+000 -4.1146e+000  4.5789e+000 58440 77864,78020,77994
 7.0000e-001 78092 -6.9501e+000 -2.0753e+000  3.4912e+000 58440 77942,77994,77968
 7.0000e-001 78069 -1.1023e+001 -8.3702e+000  1.3489e+000 58440 77890,77994,77942
 7.0000e-001 78046 -2.0926e+001 -7.7569e+000  8.3589e+000 58440 77890,77942,77916
 7.0000e-001 78467 -1.9053e+000  1.0628e+001  1.0348e+001 57928 78562,78490,78346
 7.0000e-001 78444 -5.9640e+000  1.2462e+001  2.4699e+000 57928 78490,78294,78268
 7.0000e-001 78421 -6.0327e+000  2.0621e+001  5.7989e+000 57928 78562,78346,78320
 7.0000e-001 78398  2.7201e+000  4.6116e+000  3.6842e-001 57928 78242,78372,78268
 7.0000e-001 78516 -5.5412e+000 -5.9407e+000  4.0711e+000 57928 78372,78346,78490
 7.0000e-001 78539  3.9291e+000  1.6418e+001  2.6702e+000 57928 78372,78490,78268
 7.0000e-001 78588 -1.0678e+000  2.4291e+001  2.6259e+000 57928 78294,78490,78562
 7.0000e-001 78611 -6.7478e-001  4.4440e+001  7.6326e-001 57928 78294,78562,78320
 7.0000e-001 79068  6.4572e+000  1.4079e+001  4.6295e+000 57467 78794,78924,78820
 7.0000e-001 79045  1.3586e+001  1.7487e+001  6.0484e+000 57467 78794,78950,78924
 7.0000e-001 79022 -4.0872e+000  1.0985e+001 -2.5421e+000 57467 78820,78898,78872
 7.0000e-001 78999  5.1235e+000  2.0599e+001  2.6994e+000 57467 78820,78924,78898
 7.0000e-001 78976  5.8048e+000  1.4908e+001 -2.7268e+000 57467 78820,78872,78846
 7.0000e-001 79446  9.2375e+000 -4.7000e+000 -2.1860e+001 57120 79172,79302,79250
 7.0000e-001 79423 -3.3378e+000 -1.1097e+001 -4.4821e+000 57120 79172,79328,79302
 7.0000e-001 79400 -5.8296e+000  1.4537e+001 -2.2127e+001 57120 79172,79250,79198
 7.0000e-001 79377  1.7026e+001  3.3170e+000 -1.8574e+001 57120 79250,79302,79276
 7.0000e-001 79354  2.2893e+001  4.5280e+001 -3.4781e+000 57120 79198,79250,79224
 7.0000e-001 79952  4.3092e+000  7.7333e+000 -1.2724e+000 56773 79629,79785,79655
 7.0000e-001 79929  5.1293e+000  9.1170e+000 -2.7400e+000 56773 79629,79811,79785
 7.0000e-001 79906  4.6107e+000  7.8291e+000 -1.1128e+000 56773 79655,79733,79681
 7.0000e-001 79883  4.7590e+000  7.9659e+000 -1.1730e+000 56773 79655,79785,79733
 7.0000e-001 79860  5.7868e+000  1.1592e+001 -8.2775e-001 56773 79733,79785,79759
 7.0000e-001 79837  4.5715e-001  6.0943e+000 -5.1345e-001 56773 79681,79733,79707
 7.0000e-001 80281  1.4991e+001 -1.0564e+001  1.2918e+001 56319 80108,80160,80134
 7.0000e-001 80258  4.0645e+000 -3.0067e+000  1.1128e+001 56319 80056,80160,80108
 7.0000e-001 80235  1.9505e+000 -4.6419e+000  8.5281e+000 56319 80056,80186,80160
 7.0000e-001 80212 -7.3816e+000 -1.2414e+001  1.7048e+001 56319 80056,80108,80082
 7.0000e-001 80738 -5.7206e-003  7.8373e+000 -2.6321e+000 55957 80516,80620,80594
 7.0000e-001 80715 -1.7191e+000  7.3509e+000 -3.0231e+000 55957 80464,80620,80516
 7.0000e-001 80692 -6.1279e-001  7.4456e+000 -2.5375e+000 55957 80761,80568,80542
 7.0000e-001 80669 -9.0411e-001  7.5013e+000 -2.5455e+000 55957 80761,80542,80516
 7.0000e-001 80646 -3.0093e+000  4.3440e+000 -3.0772e+000 55957 80464,80516,80490
 7.0000e-001 80787 -4.1322e-001  7.5142e+000 -2.5486e+000 55957 80594,80568,80761
 7.0000e-001 80810 -6.7849e-001  7.5868e+000 -2.5644e+000 55957 80594,80761,80516
 7.0000e-001 81210 -6.4173e+000  9.8053e+000  5.1777e+000 55317 80936,80988,80962
 7.0000e-001 81187 -1.3259e+001  2.1186e+000  4.1182e-002 55317 80936,81066,80988
 7.0000e-001 81164 -1.3102e+001  2.6439e+000 -1.5072e-001 55317 80936,81092,81066
 7.0000e-001 81141 -7.9080e+000  4.7822e+000  1.4397e+000 55317 80988,81066,81014
 7.0000e-001 81118 -1.8675e+001 -3.5390e+000 -2.2620e+000 55317 81014,81066,81040
 7.0000e-001 81539 -1.8337e+001  1.7340e+001  7.8676e-001 54913 81340,81418,81392
 7.0000e-001 81516 -2.3591e+001 -6.7798e+000  7.8959e+000 54913 81340,81444,81418
 7.0000e-001 81493 -2.1869e+001 -5.8976e+000  8.4051e+000 54913 81314,81444,81340
 7.0000e-001 81470  2.2477e+001  1.0630e+001  1.2251e+001 54913 81340,81392,81366
 7.0000e-001 81787  5.4723e+000  6.3939e+000  3.6802e+000 54601 81588,81692,81640
 7.0000e-001 81764  1.5357e+001  3.4971e+000  5.0061e+000 54601 81562,81692,81588
 7.0000e-001 81741  1.2410e+001  8.8412e+000  5.4557e+000 54601 81588,81640,81614
 7.0000e-001 81718  8.4922e+000  1.4729e+001  3.9547e+000 54601 81640,81692,81666
 7.0000e-001 82344 -1.2106e+001  2.2272e+000  2.9206e+000 54090 81998,82102,82076
 7.0000e-001 82321 -4.3452e+000  5.7659e+000 -1.0435e+000 54090 81998,82154,82102
 7.0000e-001 82298 -1.5343e+001 -3.3960e+000 -4.9776e+000 54090 81972,82154,81998
 7.0000e-001 82275 -7.4142e+000  3.2391e+000  2.1846e+000 54090 81998,82076,82024
 7.0000e-001 82252 -2.3892e+001 -4.6721e+000 -1.0914e+001 54090 81972,82180,82154
 7.0000e-001 82229 -4.2565e+000 -3.5454e+000 -3.3289e+000 54090 82102,82154,82128
 7.0000e-001 82206 -1.0033e+001  6.2749e+000 -2.7071e+000 54090 82024,82076,82050
 7.0000e-001 82722 -4.6660e-001  4.6709e+000 -1.4262e+000 53579 82500,82578,82552
 7.0000e-001 82699 -4.9379e-001  7.8904e+000 -1.2923e+000 53579 82448,82578,82500
 7.0000e-001 82676 -5.9470e+000  4.5136e+000  2.2002e+000 53579 82448,82500,82474
 7.0000e-001 82653  2.9872e-001  8.5124e+000 -2.4646e+000 53579 82448,82604,82578
 7.0000e-001 82630 -4.0863e-001  3.6278e+000 -2.2847e+000 53579 82500,82552,82526
 7.0000e-001 83356  5.4600e+000  4.6688e+000 -2.2684e+000 53189 83379,83088,83036
 7.0000e-001 83333  5.0795e+000  5.7208e+000 -2.4843e+000 53189 83379,83036,82984
 7.0000e-001 83310 -4.3175e-001  1.9178e+000 -8.6826e+000 53189 82984,83192,83166
 7.0000e-001 83287  4.6388e+000  3.6711e+000 -3.3942e+000 53189 83036,83088,83062
 7.0000e-001 83264  3.6820e+000  4.2164e+000 -1.7412e+000 53189 82984,83036,83010
 7.0000e-001 83241  8.7514e+000  2.4847e+000 -1.7331e+000 53189 83114,83166,83140
 7.0000e-001 83218  5.7766e+000  3.5090e+000 -3.2618e+000 53189 83088,83166,83114
 7.0000e-001 83405  5.8022e+000  5.3487e+000 -2.6464e+000 53189 83166,83088,83379
 7.0000e-001 83428  5.1904e+000  6.2341e+000 -2.7822e+000 53189 83166,83379,82984
 7.0000e-001 83725 -2.1193e+000 -3.0758e-002  3.5265e+000 52585 83748,83529,83503
 7.0000e-001 83702 -1.0177e+001 -3.3008e+000  3.0719e+000 52585 83820,83748,83503
 7.0000e-001 83679 -2.1710e+001  8.2956e-001  4.9083e+000 52585 83820,83503,83477
 7.0000e-001 83656  6.5212e-001  8.0085e+000  2.6509e+000 52585 83477,83607,83581
 7.0000e-001 83633  5.2789e-001  7.1155e+000  2.8805e-001 52585 83451,83607,83477
 7.0000e-001 83774 -6.6430e+000 -9.5333e+000  5.7503e+000 52585 83555,83529,83748
 7.0000e-001 83797  6.8378e+000 -1.4370e+000  2.2416e+000 52585 83555,83748,83581
 7.0000e-001 83846  5.8636e-001 -4.4136e-002 -2.2789e+000 52585 83581,83748,83820
 7.0000e-001 83869 -9.4815e+000  4.1746e+000  3.7176e-001 52585 83581,83820,83477
 7.0000e-001 84200  8.9058e+000  1.2708e+001 -3.2027e+000 52024 84001,84105,84079
 7.0000e-001 84177 -2.0819e+000  1.3181e+001  2.9109e+000 52024 83975,84105,84001
 7.0000e-001 84154  1.1795e+000  1.1116e+001 -3.3429e+000 52024 84001,84079,84053
 7.0000e-001 84131  1.1163e+000  1.1974e+001  1.0695e+000 52024 84001,84053,84027
 7.0000e-001 84399 -9.9369e+000 -1.0678e+000  5.0518e+000 51470 84422,84275,84249
 7.0000e-001 84376 -2.0293e+000 -2.2634e+000  6.9403e+000 51470 84422,84249,84223
 7.0000e-001 84353 -1.5615e+001 -1.3792e-001 -1.0075e+000 51470 84275,84327,84301
 7.0000e-001 84448 -1.6728e+001  1.4725e-001  6.3787e+000 51470 84327,84275,84422
 7.0000e-001 84471 -8.2289e+000 -6.3270e-001  7.5908e+000 51470 84327,84422,84223
 7.0000e-001 84753  5.5761e+000  1.0741e+001 -1.0197e+000 51073 84603,84655,84629
 7.0000e-001 84730  1.4985e+000  8.4919e+000 -1.9091e+000 51073 84776,84655,84603
 7.0000e-001 84707  1.6515e+001 -1.7621e+000 -6.0965e+000 51073 84577,84681,84655
 7.0000e-001 84802  2.5977e+000  7.2007e+000  1.4256e+000 51073 84577,84655,84776
 7.0000e-001 85178 -4.9632e-001  7.8219e+000 -3.1988e+000 50519 85201,85008,84982
 7.0000e-001 85155 -1.1720e+000  6.0809e+000 -2.9496e+000 50519 85273,85201,84982
 7.0000e-001 85132 -1.2698e+000  5.9354e+000 -2.9066e+000 50519 85273,84982,84930
 7.0000e-001 85109 -4.1594e+000  3.9878e+000 -1.9222e+000 50519 84930,84982,84956
 7.0000e-001 85086 -2.1667e+000  5.2398e+000  2.9940e-001 50519 85008,85060,85034
 7.0000e-001 85227  7.7955e-002  7.3914e+000 -1.1415e+000 50519 85060,85008,85201
 7.0000e-001 85250 -6.1084e-001  5.2447e+000 -1.6257e+000 50519 85060,85201,84904
 7.0000e-001 85299 -1.1775e+000  6.4291e+000 -2.2508e+000 50519 84904,85201,85273
 7.0000e-001 85322 -2.0179e+000  4.6970e+000 -1.9166e+000 50519 84904,85273,84930
 7.0000e-001 85958 -5.5183e+000  1.2767e+001  7.9400e-001 50093 85981,85768,85716
 7.0000e-001 85935 -7.6894e+000  8.3128e+000 -2.4950e-002 50093 85981,85716,85612
 7.0000e-001 85912 -2.7861e+000  5.8122e+000 -2.2610e+000 50093 85612,85716,85664
 7.0000e-001 85889 -9.1841e+000  1.2682e+001 -7.5810e-002 50093 85716,85768,85742
 7.0000e-001 85866 -2.4097e+000  8.7877e+000 -5.5855e+000 50093 85664,85716,85690
 7.0000e-001 85843 -5.5661e+000  4.3124e+000  5.0430e+000 50093 85586,85794,85612
 7.0000e-001 85820 -4.5859e-001  1.6796e-001 -6.3121e-001 50093 85612,85664,85638
 7.0000e-001 86007 -2.5189e-001  1.7407e+001  7.5327e+000 50093 85794,85768,85981
 7.0000e-001 86030 -7.3790e+000  3.5636e+000  4.9813e+000 50093 85794,85981,85612
 7.0000e-001 86131 -2.7493e+001  6.7896e+000 -1.0476e+001 49895 86053,86105,86079
 7.0000e-001 86639  9.2280e+000  1.4818e+000  2.4301e+000 49391 86662,86394,86368
 7.0000e-001 86616  1.1988e+001  6.1626e+000  3.7473e+000 49391 86662,86368,86342
 7.0000e-001 86593  4.8703e+000  6.4000e+000  3.4419e-001 49391 86342,86498,86472
 7.0000e-001 86570  9.6615e-001  6.2930e+000 -3.9813e-001 49391 86316,86498,86342
 7.0000e-001 86547  4.8545e+000  2.9861e+000  5.1534e-001 49391 86394,86472,86446
 7.0000e-001 86524  4.9023e+000  2.5449e+000  3.8999e-001 49391 86394,86446,86420
 7.0000e-001 86688  6.1068e+000  5.9408e+000  2.6546e-001 49391 86472,86394,86662
 7.0000e-001 86711  8.3707e+000  8.3042e+000  1.2005e+000 49391 86472,86662,86342
 7.0000e-001 87089  7.5290e+000  4.0441e+000  1.7556e+000 48987 86815,86919,86867
 7.0000e-001 87066  6.9279e-001  2.1745e+000  2.3902e+000 48987 86815,86971,86919
 7.0000e-001 87043  3.8646e+000  7.7098e-001  1.9661e-002 48987 86867,86919,86893
 7.0000e-001 87020  5.6587e+000  3.8211e-001 -6.2633e-001 48987 86815,86867,86841
 7.0000e-001 86997  4.8855e+000  8.5740e+000  2.6271e-001 48987 86919,86971,86945
 7.0000e-001 87467  1.9611e+000  4.3561e+000 -5.4741e-002 48540 87490,87245,87219
 7.0000e-001 87444 -3.2923e-001  5.6996e+000 -4.1935e-002 48540 87562,87490,87219
 7.0000e-001 87421  1.0462e+000  6.3068e+000 -2.7481e-001 48540 87562,87219,87349
 7.0000e-001 87398 -1.9874e+000  7.3940e+000 -2.8878e+000 48540 87245,87297,87271
 7.0000e-001 87375 -1.1456e-001  8.8569e+000  5.1988e-001 48540 87193,87349,87219
 7.0000e-001 87516 -4.0054e-001  2.6727e+000 -1.0805e+000 48540 87297,87245,87490
 7.0000e-001 87539 -1.3053e+000  4.0865e+000  9.5936e-001 48540 87297,87490,87323
 7.0000e-001 87588  8.4477e-001  4.9789e+000  1.0271e+000 48540 87323,87490,87562
 7.0000e-001 87611  1.6805e+000  5.5144e+000  7.8844e-001 48540 87323,87562,87349
 7.0000e-001 87810 -9.9050e+000  7.1962e+000 -6.0846e-001 48136 87660,87712,87686
 7.0000e-001 87787 -1.3644e+001 -6.3397e+000 -2.1855e+000 48136 87660,87738,87712
 7.0000e-001 87764 -2.1133e+001 -1.4235e+001  4.0843e+000 48136 87634,87738,87660
 7.0000e-001 88205 -6.7281e+000 -2.9845e+000  4.0460e+000 47210 88300,88228,87937
 7.0000e-001 88182 -6.1831e+000 -9.2872e-003  4.0988e+000 47210 88228,87833,88041
 7.0000e-001 88159 -5.9871e+000 -2.1678e+000  3.1357e+000 47210 88300,87937,87911
 7.0000e-001 88136 -4.7216e+000 -4.5564e-001  2.2256e+000 47210 87833,87911,87859
 7.0000e-001 88113 -1.6269e+000 -7.9209e+000  2.6895e+000 47210 87937,87989,87963
 7.0000e-001 88090 -6.0772e+000 -3.8966e-002  3.9820e-001 47210 87989,88041,88015
 7.0000e-001 88067 -3.8206e+000  7.7063e-001 -8.2522e-001 47210 87859,87911,87885
 7.0000e-001 88254 -6.4528e+000 -6.0089e+000  4.9214e+000 47210 87989,87937,88228
 7.0000e-001 88277 -6.8370e+000 -2.5206e+000  3.3979e+000 47210 87989,88228,88041
 7.0000e-001 88326 -4.7088e+000 -2.7271e+000  3.3947e+000 47210 87833,88228,88300
 7.0000e-001 88349 -4.6490e+000 -2.6870e+000  2.6012e+000 47210 87833,88300,87911
 7.0000e-001 88780 -3.0155e+000 -7.5797e-001  4.6906e+000 46642 88803,88509,88483
 7.0000e-001 88757 -9.9622e+000 -5.0870e+000  9.0031e-001 46642 88803,88483,88639
 7.0000e-001 88734 -2.0171e+000 -6.9871e+000  1.3716e+000 46642 88875,88561,88509
 7.0000e-001 88711 -2.1676e+000 -6.2907e+000  2.6391e+000 46642 88509,88561,88535
 7.0000e-001 88688 -1.4588e+001 -4.9185e+000 -2.0185e+000 46642 88457,88639,88483
 7.0000e-001 88665 -7.6787e-001 -1.9610e+001  1.0066e+000 46642 88561,88613,88587
 7.0000e-001 88829 -7.8646e+000 -6.1743e+000  4.2224e-001 46642 88875,88509,88803
 7.0000e-001 88852 -7.1700e+000 -1.2427e+001 -4.1762e+000 46642 88613,88803,88639
 7.0000e-001 88901  3.8079e+000 -6.8177e+000  1.7100e+000 46642 88613,88561,88875
 7.0000e-001 88924  2.0923e-002 -4.7764e+000 -1.8059e-001 46642 88613,88875,88803
 7.0000e-001 89253 -2.5946e+000 -7.1768e+000  4.0351e+000 46444 89080,89158,89132
 7.0000e-001 89230 -5.6922e+000 -1.5008e+001  5.2578e+000 46444 89028,89158,89080
 7.0000e-001 89207 -1.3328e+000 -1.2865e+001  4.1615e+000 46444 89028,89080,89054
 7.0000e-001 89184 -4.1463e+000 -8.9644e+000  2.8640e+000 46444 89080,89132,89106
 7.0000e-001 89631  5.7134e+000  6.0977e+000 -5.5465e+000 46040 89383,89461,89435
 7.0000e-001 89608  6.3907e+000  1.0286e+001 -8.0389e-001 46040 89383,89487,89461
 7.0000e-001 89585  1.5074e+001  9.0941e+000 -2.9273e+000 46040 89383,89435,89409
 7.0000e-001 89562  8.6555e+000  9.7614e+000 -6.2042e-001 46040 89383,89513,89487
 7.0000e-001 89539  6.3026e+000  9.2057e+000 -1.8410e+000 46040 89357,89513,89383
 7.0000e-001 90009 -1.2294e+001  1.9561e+000  1.0788e+000 45636 89813,89891,89839
 7.0000e-001 89986 -1.0628e+001 -3.8096e-002 -2.8747e+000 45636 89787,89891,89813
 7.0000e-001 89963 -1.0178e+001  3.1166e+000  4.9074e-001 45636 89839,89891,89865
 7.0000e-001 89940 -7.8273e+000  3.8980e+000 -1.6468e+000 45636 89735,89891,89787
 7.0000e-001 89917 -5.3240e+000  7.2539e+000 -2.9216e+000 45636 89735,89787,89761
 7.0000e-001 90208 -7.5051e+000 -1.0626e+000 -3.0754e+000 45175 90231,90058,90032
 7.0000e-001 90185 -8.2235e+000 -2.1767e+000 -9.2569e-001 45175 90231,90032,90136
 7.0000e-001 90162 -5.3151e+000 -2.7951e+000 -4.1633e+000 45175 90058,90110,90084
 7.0000e-001 90257 -5.8611e+000  1.3402e+000 -4.3224e+000 45175 90110,90058,90231
 7.0000e-001 90280 -7.5546e+000 -5.9406e-001 -2.0130e+000 45175 90110,90231,90136
 7.0000e-001 90528 -2.1746e+000  5.5510e+000  2.8156e+000 44513 90695,90551,90407
 7.0000e-001 90505  9.6133e-002  7.1606e+000  4.3392e+000 44513 90551,90355,90329
 7.0000e-001 90482 -2.2076e+000  3.7472e+000  3.7093e-001 44513 90623,90303,90433
 7.0000e-001 90459  1.9117e+000  8.6430e-001 -1.3705e+000 44513 90695,90407,90381
 7.0000e-001 90577  1.3857e+000  6.8072e+000  4.3832e+000 44513 90433,90407,90551
 7.0000e-001 90600 -1.9894e-001  4.9873e+000  1.1054e+000 44513 90623,90433,90551
 7.0000e-001 90649 -1.8034e+000  5.4657e+000  1.6031e+000 44513 90329,90303,90623
 7.0000e-001 90672 -1.7066e+000  5.2697e+000  1.5507e+000 44513 90329,90623,90551
 7.0000e-001 90721 -2.8282e+000 -2.6067e+000  5.2914e+000 44513 90355,90551,90695
 7.0000e-001 90744  4.7840e-001 -7.8246e+000  3.1955e+000 44513 90355,90695,90381
 7.0000e-001 91077  5.3701e+000  5.0706e+000 -1.1170e+000 44059 91100,90930,90904
 7.0000e-001 91054  2.1078e+000  3.5506e+000 -1.5121e+000 44059 91100,90904,90982
 7.0000e-001 91031  3.4560e+000  3.4089e+000 -8.4711e-001 44059 90878,90982,90904
 7.0000e-001 91008  5.9360e+000  3.0335e+000 -1.8382e+000 44059 90852,90982,90878
 7.0000e-001 91126  3.1643e+000  5.6623e+000 -3.0139e+000 44059 91172,91100,90956
 7.0000e-001 91149  4.2933e+000  8.8370e+000 -8.2290e-001 44059 90956,91100,90982
 7.0000e-001 91198  2.5975e+000 -9.5787e-001 -1.7974e+000 44059 90930,91100,91172
 7.0000e-001 91677 -1.2732e+001 -1.0231e+001 -1.7507e+000 43549 91455,91533,91481
 7.0000e-001 91654 -1.6710e+001 -1.2320e+001 -2.8032e+000 43549 91429,91533,91455
 7.0000e-001 91631 -1.0521e+001 -8.4562e+000 -5.1530e+000 43549 91481,91533,91507
 7.0000e-001 91608 -2.0944e+001 -1.4092e+001 -1.6852e+000 43549 91429,91559,91533
 7.0000e-001 91585 -1.8470e+001 -2.2333e+001  3.2065e+000 43549 91403,91559,91429
 7.0000e-001 92006  4.4041e+000  1.4024e+001  1.1952e+000 43059 91781,91885,91807
 7.0000e-001 91983  3.3713e+000  1.2517e+001  2.6688e+000 43059 91781,91911,91885
 7.0000e-001 91960 -6.0065e+000  1.0861e+001  2.0614e+000 43059 91807,91885,91833
 7.0000e-001 91937  5.0759e+000  1.5780e+001  2.9849e+000 43059 91833,91885,91859
 7.0000e-001 92561 -6.7342e-001 -1.2271e-001  1.2262e+000 42598 92584,92215,92189
 7.0000e-001 92538 -1.7647e+000  2.9491e+000  2.4663e+000 42598 92656,92584,92189
 7.0000e-001 92515 -2.6514e+000  5.4226e+000  1.2217e+000 42598 92656,92189,92397
 7.0000e-001 92492 -4.1017e+000  7.2306e-001  2.2459e+000 42598 92241,92319,92293
 7.0000e-001 92469 -3.3257e+000  3.4911e-001  6.8574e-001 42598 92319,92397,92371
 7.0000e-001 92446 -3.3337e+000 -2.5363e-002  8.3809e-001 42598 92319,92371,92345
 7.0000e-001 92423 -1.1915e+001 -1.7046e+000  3.5501e+000 42598 92241,92293,92267
 7.0000e-001 92610 -3.1449e+000 -2.0175e+000 -2.5330e-001 42598 92241,92215,92584
 7.0000e-001 92633 -2.5774e+000 -4.0827e-001  1.9589e+000 42598 92241,92584,92319
 7.0000e-001 92682 -2.5794e+000 -4.0402e-001  1.9322e+000 42598 92319,92584,92656
 7.0000e-001 92705 -4.0120e+000  1.3173e+000  1.0066e+000 42598 92319,92656,92397
 7.0000e-001 92953  6.2366e+000  3.7603e+001 -1.4394e+001 42094 92976,92806,92780
 7.0000e-001 92930 -1.2515e-001  1.7624e+001 -1.4566e+001 42094 92976,92780,92754
 7.0000e-001 92907  2.1160e+000  2.0362e+001 -3.0058e+000 42094 93048,92832,92806
 7.0000e-001 92884  5.2985e+000  1.4565e+001 -7.1627e+000 42094 92728,92858,92754
 7.0000e-001 93002  4.7812e+000  2.5469e+001 -4.4494e+000 42094 93048,92806,92976
 7.0000e-001 93025  6.3803e+000  1.8179e+001 -6.4449e+000 42094 92858,92976,92754
 7.0000e-001 93074  7.6985e+000  1.8232e+001 -7.4798e+000 42094 92858,92832,93048
 7.0000e-001 93097  8.0540e+000  2.0076e+001 -7.8748e+000 42094 92858,93048,92976
 7.0000e-001 93605 -1.0518e+001 -3.1175e+000 -3.3992e+000 41846 93628,93412,93386
 7.0000e-001 93582 -4.8067e+000  5.5150e-001 -7.4537e-001 41846 93628,93386,93308
 7.0000e-001 93559 -7.2355e+000  8.6134e+000  3.8973e+000 41846 93700,93464,93438
 7.0000e-001 93536 -2.0179e+000  2.5407e+000 -2.7749e+000 41846 93308,93386,93334
 7.0000e-001 93513  4.6167e+000 -1.2259e+000 -9.0126e-001 41846 93334,93386,93360
 7.0000e-001 93490 -5.7565e+000  6.1285e+000  8.7760e-001 41846 93282,93464,93308
 7.0000e-001 93654 -2.1350e+001  2.7815e+000 -1.1378e+000 41846 93438,93412,93628
 7.0000e-001 93677 -9.5410e+000  8.1395e+000  1.1505e+000 41846 93700,93438,93628
 7.0000e-001 93726 -7.3399e+000  4.6983e+000  2.7680e-001 41846 93308,93464,93700
 7.0000e-001 93749 -1.0184e+001  3.0945e+000 -2.5230e+000 41846 93308,93700,93628
 7.0000e-001 94255 -5.7339e+000  1.3799e+001  1.9349e+000 41385 93958,94114,94088
 7.0000e-001 94232 -8.3568e+000  1.9713e+001  4.8165e+000 41385 93932,94114,93958
 7.0000e-001 94209 -2.6413e+000  1.5448e+001  1.1403e+000 41385 93958,94088,94062
 7.0000e-001 94186 -7.8971e+000  4.7465e+000  4.1639e+000 41385 93958,94062,93984
 7.0000e-001 94163 -1.1771e+001  6.1329e+000  7.1784e+000 41385 93984,94062,94036
 7.0000e-001 94140 -1.6667e+001  4.3219e+000  8.3316e+000 41385 93984,94036,94010
 7.0000e-001 94476 -9.2711e+000  1.4005e+001  1.2909e+000 40881 94326,94378,94352
 7.0000e-001 94453 -1.7305e+001  1.0958e+001 -1.1378e+000 40881 94300,94378,94326
 7.0000e-001 94430 -8.1199e+000  1.5044e+001 -2.3342e+000 40881 94300,94404,94378
 7.0000e-001 94626 -8.0729e+000 -9.8315e-001  3.1749e+000 40591 94649,94551,94525
 7.0000e-001 94603 -1.2376e+001 -1.0008e+000  6.0222e+000 40591 94781,94577,94551
 7.0000e-001 94675 -1.0993e+001 -2.3448e+000  3.9407e+000 40591 94781,94551,94649
 7.0000e-001 94807 -9.0338e+000  1.2159e+000  7.0602e+000 40591 94499,94577,94781
 7.0000e-001 94830 -8.1402e+000 -9.0701e-001  4.7500e+000 40591 94499,94781,94649
 7.0000e-001 95336 -1.3218e-001  3.4578e+000 -2.4048e+000 40187 95013,95169,95039
 7.0000e-001 95313  8.8512e-001  5.8102e+000 -5.2998e+000 40187 95013,95195,95169
 7.0000e-001 95290  2.1745e-001  1.8437e+000 -1.2192e+000 40187 95039,95143,95065
 7.0000e-001 95267  1.1214e+000  2.4386e+000 -2.4610e+000 40187 95039,95169,95143
 7.0000e-001 95244  1.3433e+000 -1.2783e-001 -4.9984e-001 40187 95091,95143,95117
 7.0000e-001 95221  1.1522e+000  5.8042e-001 -1.1444e+000 40187 95065,95143,95091
 7.0000e-001 95665  4.3663e+000  2.9572e+000 -1.4068e-001 39626 95466,95570,95544
 7.0000e-001 95642  4.1833e+000  9.1131e+000 -4.2728e-001 39626 95440,95570,95466
 7.0000e-001 95619  6.2041e+000  3.6872e+000 -3.1745e-001 39626 95466,95544,95492
 7.0000e-001 95596  3.2990e+000  2.2810e+000 -9.9576e-001 39626 95492,95544,95518
 7.0000e-001 95913  1.2659e+001  1.1286e+001 -8.4140e-001 39136 96080,95936,95766
 7.0000e-001 95890  1.7706e+001  1.7000e+001 -4.4171e+000 39136 95936,95714,95688
 7.0000e-001 95867  1.9930e+001  1.5994e+001 -7.0925e+000 39136 96008,95792,95766
 7.0000e-001 95844  9.7836e+000  9.9867e+000 -3.9303e-001 39136 96080,95766,95740
 7.0000e-001 95962  1.5642e+001  1.8190e+001 -3.2315e+000 39136 96008,95766,95936
 7.0000e-001 95985  1.1937e+001  2.4385e+001 -4.8408e+000 39136 95818,95936,95688
 7.0000e-001 96034  9.2231e+000  1.1154e+001 -9.2801e+000 39136 95818,95792,96008
 7.0000e-001 96057  8.1244e+000  1.4039e+001 -5.3192e+000 39136 95818,96008,95936
 7.0000e-001 96106  1.2157e+001  1.4004e+001 -5.6458e+000 39136 95714,95936,96080
 7.0000e-001 96129  6.7085e+000  1.1367e+001 -4.8117e+000 39136 95714,96080,95740
 7.0000e-001 96350 -1.1846e+001 -5.0781e+000 -5.2912e-001 38824 96200,96278,96252
 7.0000e-001 96327 -1.3669e+001 -6.1419e+000 -9.8899e-001 38824 96174,96278,96200
 7.0000e-001 96304 -1.3743e+001 -4.7707e+000  8.2868e-002 38824 96200,96252,96226
 7.0000e-001 96830 -8.2757e+000 -7.2196e-001  1.8188e-002 38320 97069,96536,96484
 7.0000e-001 96807 -7.6562e+000 -1.1732e+000 -1.7677e-002 38320 97069,96484,96853
 7.0000e-001 96784 -6.7024e+000  4.1221e-001 -2.1969e+000 38320 96853,96484,96458
 7.0000e-001 96761  2.0645e-001 -4.2786e+000 -3.9542e+000 38320 96925,96640,96614
 7.0000e-001 96738 -5.8478e+000 -6.4321e+000 -3.7211e+000 38320 96997,96666,96640
 7.0000e-001 96715 -6.0055e+000  1.3110e+000  2.1251e+000 38320 97141,96588,96562
 7.0000e-001 96692 -3.6936e+000  5.0006e+000 -1.9972e+000 38320 96484,96536,96510
 7.0000e-001 96879 -7.7048e+000  1.0107e-001  1.4968e+000 38320 97141,96562,96853
 7.0000e-001 96902 -5.5299e+000 -5.0388e+000 -2.6950e+000 38320 96925,96614,96853
 7.0000e-001 96951 -5.4539e+000 -6.2519e+000 -3.7653e+000 38320 96997,96640,96925
 7.0000e-001 96974 -7.0144e+000 -4.4889e+000 -3.3473e+000 38320 96458,96925,96853
 7.0000e-001 97023 -7.5717e+000 -6.5126e+000 -2.7871e+000 38320 96458,96666,96997
 7.0000e-001 97046 -6.1115e+000 -5.9223e+000 -2.8336e+000 38320 96458,96997,96925
 7.0000e-001 97095 -2.9321e+000  9.7302e+000 -2.1568e+000 38320 96562,96536,97069
 7.0000e-001 97118 -8.1419e+000 -5.4125e-002 -1.9986e-001 38320 96562,97069,96853
 7.0000e-001 97167 -2.5335e-001 -1.3429e+000  2.7181e+000 38320 96614,96588,97141
 7.0000e-001 97190 -3.8852e+000 -4.1779e+000  1.4735e+000 38320 96614,97141,96853
 7.0000e-001 97519 -6.0393e+000 -3.8907e+000  1.7742e+000 37766 97542,97398,97372
 7.0000e-001 97496 -3.1101e+000 -3.6957e+000  3.7693e+000 37766 97542,97372,97346
 7.0000e-001 97473 -4.3229e+000 -7.1942e-001  4.6796e+000 37766 97294,97424,97346
 7.0000e-001 97450 -3.6080e+000  1.5628e+000  5.0355e+000 37766 97294,97346,97320
 7.0000e-001 97568 -9.9913e+000 -6.1715e+000  6.0425e-001 37766 97424,97398,97542
 7.0000e-001 97591 -5.8289e+000 -5.2378e+000  2.7237e+000 37766 97424,97542,97346
 7.0000e-001 98048 -1.5378e+001 -8.1540e+000  7.2636e+000 37262 98071,97878,97852
 7.0000e-001 98025 -1.7857e+001 -4.7327e+000  3.1321e+000 37262 98071,97852,97800
 7.0000e-001 98002 -1.5019e+001 -2.0774e+000  1.3258e+000 37262 97800,97852,97826
 7.0000e-001 97979 -1.5648e+001 -5.0858e+000 -1.2535e+000 37262 97800,97930,97904
 7.0000e-001 97956 -1.4228e+001 -6.1702e+000 -7.8404e-001 37262 97774,97930,97800
 7.0000e-001 98097 -8.0832e+000 -4.9317e+000  6.6293e+000 37262 97904,97878,98071
 7.0000e-001 98120 -1.4290e+001 -2.9574e+000  2.4426e+000 37262 97904,98071,97800
 7.0000e-001 98449 -5.5617e+000  7.1686e+000  1.3557e+000 36950 98472,98302,98250
 7.0000e-001 98426 -7.9088e+000  7.2984e+000  1.5119e+000 36950 98472,98250,98354
 7.0000e-001 98403 -2.9246e+000  9.4736e+000 -1.3788e+000 36950 98250,98302,98276
 7.0000e-001 98380 -1.4548e+001  6.6411e+000  4.0002e+000 36950 98224,98354,98250
 7.0000e-001 98498 -7.3026e+000  7.8094e+000  1.4798e-001 36950 98328,98302,98472
 7.0000e-001 98521 -9.7220e+000  8.0213e+000  6.8444e-001 36950 98328,98472,98354
 7.0000e-001 99125  2.4694e+000  5.5935e+000 -4.6745e+000 36296 98704,98756,98730
 7.0000e-001 99102 -3.7945e-001  1.0555e+001 -3.8224e+000 36296 98704,98938,98756
 7.0000e-001 99079 -5.7444e+000  2.4360e+001 -7.3811e+000 36296 99148,98938,98912
 7.0000e-001 99056 -1.8517e+000  9.1646e+000 -1.1540e+001 36296 99292,99220,98782
 7.0000e-001 99033 -6.2160e+000  9.3458e+000 -6.3486e+000 36296 99148,98912,98834
 7.0000e-001 99010 -5.0039e+000  4.6012e+000 -9.8761e+000 36296 99292,98782,98756
 7.0000e-001 98987 -6.6747e+000  5.6405e+000 -7.4423e+000 36296 98834,98912,98886
 7.0000e-001 98964  4.5159e-001 -2.8602e+000 -3.4210e+000 36296 98834,98886,98860
 7.0000e-001 99174 -4.6324e+000  1.3381e+001 -6.5986e+000 36296 99220,98938,99148
 7.0000e-001 99197 -9.5626e+000  3.1616e+000 -3.4728e+000 36296 98808,99148,98834
 7.0000e-001 99246 -7.8676e+000 -5.1085e+000 -2.3557e+001 36296 98808,98782,99220
 7.0000e-001 99269 -1.3716e+001  4.1523e+000 -1.0816e+001 36296 98808,99220,99148
 7.0000e-001 99318 -7.3477e+000  2.5637e+000 -7.9852e+000 36296 98938,99220,99292
 7.0000e-001 99341 -7.0192e+000  3.5740e+000 -7.1301e+000 36296 98938,99292,98756
 7.0000e-001 99719 -4.8590e+000  7.6330e+000 -9.8891e-003 35742 99742,99471,99601
 7.0000e-001 99696 -4.7131e+000  4.5946e+000 -1.3772e+000 35742 99445,99601,99471
 7.0000e-001 99673 -5.0033e+000  7.2564e+000 -1.5643e+000 35742 99742,99601,99575
 7.0000e-001 99650 -5.0250e+000  2.0994e+001 -2.1100e+000 35742 99814,99549,99523
 7.0000e-001 99627 -3.8890e+000  1.3043e+001 -4.3287e+000 35742 99471,99523,99497
 7.0000e-001 99768 -6.9661e+000  8.9878e+000 -2.9881e+000 35742 99523,99471,99742
 7.0000e-001 99791 -3.7954e+000  1.6464e+001 -2.6668e+000 35742 99814,99523,99742
 7.0000e-001 99840 -2.7039e+000  1.4568e+001 -4.2167e-001 35742 99575,99549,99814
 7.0000e-001 99863 -2.8930e+000  8.2104e+000 -1.3604e+000 35742 99575,99814,99742
 7.0000e-001 100111 -5.2700e+000  1.2447e+000 -4.6662e+000 35302 100134,99990,99938
 7.0000e-001 100088 -9.6031e+000 -2.0771e+000 -1.2198e+000 35302 100134,99938,99912
 7.0000e-001 100065 -9.1063e+000 -1.2846e+001  3.2794e+000 35302 100206,99886,100016
 7.0000e-001 100042  3.3826e+000  2.3125e+000 -2.2154e+000 35302 99938,99990,99964
 7.0000e-001 100160 -8.0635e+000  6.1782e-001  1.9820e+000 35302 100016,99990,100134
 7.0000e-001 100183 -1.0872e+001 -8.8337e+000  3.7525e+000 35302 100206,100016,100134
 7.0000e-001 100232 -1.1448e+001 -8.0670e+000 -1.2550e+000 35302 99912,99886,100206
 7.0000e-001 100255 -1.1730e+001 -1.8016e+000 -1.0384e-001 35302 99912,100206,100134
 7.0000e-001 100586  1.7578e+000  4.4832e+000 -4.7950e+000 35012 100609,100387,100361
 7.0000e-001 100563  3.5377e+000  3.0935e+000 -1.2531e+000 35012 100609,100361,100465
 7.0000e-001 100540  2.3953e+000 -5.9083e-001 -8.0257e-001 35012 100361,100491,100465
 7.0000e-001 100517 -1.2824e+000  5.1097e+000  1.1141e+000 35012 100413,100465,100439
 7.0000e-001 100635 -2.1140e+000  2.8071e+000 -4.4143e+000 35012 100413,100387,100609
 7.0000e-001 100658 -2.8472e-001  1.2872e+000 -7.2327e-001 35012 100413,100609,100465
 7.0000e-001 100987 -7.4098e+000  4.7484e+000 -1.4630e+001 34700 100788,100866,100814
 7.0000e-001 100964  1.8540e+001  4.1041e+000 -1.0250e+001 34700 101010,100866,100788
 7.0000e-001 100941  2.7373e+000  1.5011e+000 -4.7760e+000 34700 100762,100892,100866
 7.0000e-001 100918 -2.9240e+000  9.6974e+000  2.1841e+000 34700 100814,100866,100840
 7.0000e-001 101036  5.9146e+000  1.9538e+000 -4.5211e+000 34700 100762,100866,101010
 7.0000e-001 101493  6.0491e-001  4.1205e+000 -1.3888e+000 34132 101516,101349,101297
 7.0000e-001 101470  3.1538e+000  8.0761e+000 -1.8775e-001 34132 101588,101516,101297
 7.0000e-001 101447  5.5474e-001  3.5019e+000  1.7766e+000 34132 101588,101297,101245
 7.0000e-001 101424  3.2948e+000  2.8230e+000  1.4958e+000 34132 101245,101297,101271
 7.0000e-001 101401 -7.1682e+000  4.0999e+000 -4.9595e+000 34132 101297,101349,101323
 7.0000e-001 101542 -4.8901e+000  7.7491e+000  2.3395e-001 34132 101375,101349,101516
 7.0000e-001 101565  1.0452e+000  1.5935e+001  4.5038e+000 34132 101375,101516,101219
 7.0000e-001 101614  2.1252e-001  4.4218e+000  3.0871e+000 34132 101219,101516,101588
 7.0000e-001 101637  2.9005e-001  2.1381e+000  4.5775e+000 34132 101219,101588,101245
 7.0000e-001 101858 -1.4490e+001  1.3229e+000 -1.2324e+000 33720 101708,101786,101760
 7.0000e-001 101835 -1.3099e+001  1.8363e+000 -4.8896e-001 33720 101682,101786,101708
 7.0000e-001 101812 -1.1911e+001  2.4217e+000 -1.1342e+000 33720 101708,101760,101734
 7.0000e-001 102128 -1.1287e+001  6.9937e+000  1.2372e+000 33130 101903,102007,101929
 7.0000e-001 102105 -8.5983e+000  1.2184e+001 -9.5422e-001 33130 101903,102033,102007
 7.0000e-001 102082 -7.2152e+000  1.1132e+001  3.9054e+000 33130 101929,102007,101955
 7.0000e-001 102059 -7.3732e+000  4.9715e+000 -1.4746e-001 33130 101955,102007,101981
 7.0000e-001 102461 -6.2241e+000  6.7394e+000  1.8897e+000 32840 102236,102340,102262
 7.0000e-001 102438 -6.6489e+000  2.5770e-001 -2.3730e+000 32840 102236,102366,102340
 7.0000e-001 102415 -1.3127e+001  4.5992e+000  1.6789e+000 32840 102262,102340,102288
 7.0000e-001 102392 -2.2166e+000  7.2216e+000  7.0377e+000 32840 102288,102340,102314
 7.0000e-001 102997  3.5527e+000  5.2923e+000  1.6887e-001 32493 102749,102879,102853
 7.0000e-001 102974  2.9257e+000  5.8482e+000  3.8063e+000 32493 102723,102879,102749
 7.0000e-001 102951  3.7916e+000  7.2702e+000 -1.1083e+000 32493 102749,102801,102775
 7.0000e-001 102928  2.3006e+000  4.9144e+000  4.5659e-002 32493 102749,102853,102801
 7.0000e-001 102905  5.1020e+000  1.1591e+001 -1.1768e-001 32493 102801,102853,102827
 7.0000e-001 103454 -2.0792e+001  2.4627e-001  3.1266e-001 32089 103206,103336,103310
 7.0000e-001 103431 -1.9308e+001  3.5283e+000  7.9407e-001 32089 103180,103336,103206
 7.0000e-001 103408 -9.5576e+000  5.1873e+000  4.3393e+000 32089 103206,103284,103258
 7.0000e-001 103385 -4.7031e+000  8.2188e+000  2.9754e+000 32089 103206,103310,103284
 7.0000e-001 103362 -1.2323e+001 -1.2752e+000  4.4218e+000 32089 103206,103258,103232
 7.0000e-001 103783  3.9600e+000  1.6591e+001 -3.4660e+000 31742 103558,103662,103584
 7.0000e-001 103760  2.3333e+000  1.2727e+001 -3.4300e+000 31742 103558,103688,103662
 7.0000e-001 103737 -4.4194e+000  9.3339e+000  2.5247e-001 31742 103584,103662,103636
 7.0000e-001 103714 -6.0520e+000  1.0110e+001  1.1622e+000 31742 103584,103636,103610
 7.0000e-001 104112 -1.2757e+001  7.9577e+000 -2.5337e-001 31402 103939,103991,103965
 7.0000e-001 104089 -1.4015e+001  3.6008e+000 -6.2447e-001 31402 103913,103991,103939
 7.0000e-001 104066 -6.1553e+000  1.1959e+001  3.9837e+000 31402 103913,104017,103991
 7.0000e-001 104043 -5.6177e+000  9.0655e+000  4.6448e+000 31402 103887,104017,103913
 7.0000e-001 104569 -3.9400e+000  5.8325e+000  5.5231e+000 30998 104321,104425,104373
 7.0000e-001 104546 -3.3094e+000  6.0980e+000  5.4930e+000 30998 104321,104451,104425
 7.0000e-001 104523 -1.4092e+000  9.8511e+000  7.7715e+000 30998 104373,104425,104399
 7.0000e-001 104500 -1.2848e+001  7.2505e+000  6.2480e+000 30998 104295,104451,104321
 7.0000e-001 104477  3.6566e-001  1.2427e+001  2.8346e+000 30998 104321,104373,104347
 7.0000e-001 104947  3.8868e+000  2.2144e+001 -2.3085e-002 30608 104751,104803,104777
 7.0000e-001 104924 -1.2775e+001  1.0178e+000 -7.2436e+000 30608 104725,104803,104751
 7.0000e-001 104901 -1.5993e+001 -3.4227e+000 -1.0719e+001 30608 104699,104803,104725
 7.0000e-001 104878  1.2219e+001 -1.6682e+000  1.8010e+000 30608 104673,104803,104699
 7.0000e-001 104855  1.2605e+001  4.9190e+000  3.3885e+000 30608 104673,104829,104803
 7.0000e-001 105276 -2.1109e-001  5.0103e+000  2.6878e+000 30204 105427,105129,105077
 7.0000e-001 105253 -1.0603e+000  5.6080e+000  1.6041e+000 30204 105427,105077,105051
 7.0000e-001 105230 -3.6196e+000 -1.4189e+000 -6.7178e-001 30204 105077,105129,105103
 7.0000e-001 105207 -3.4763e-001  6.5526e-001  1.0188e+000 30204 105299,105181,105155
 7.0000e-001 105325  3.0020e+000  1.5657e+000  2.7039e+000 30204 105129,105181,105299
 7.0000e-001 105453  3.1938e-001  5.3967e+000  2.1300e+000 30204 105181,105129,105427
 7.0000e-001 105476  8.4516e-001  6.6183e+000  8.9646e-001 30204 105181,105427,105051
 7.0000e-001 105903 -1.3842e+001 -6.2365e+000  1.4037e+000 29700 105606,105762,105736
 7.0000e-001 105880 -1.2282e+001 -3.6677e+000  7.6803e+000 29700 105580,105762,105606
 7.0000e-001 105857 -5.0601e+000 -4.4855e+000  1.5512e+000 29700 105606,105710,105632
 7.0000e-001 105834 -7.8131e+000 -3.9268e+000 -7.6433e-001 29700 105606,105736,105710
 7.0000e-001 105811  8.8347e-001  3.0552e-002 -1.3982e+000 29700 105632,105710,105684
 7.0000e-001 105788  6.9150e-001 -3.3626e-001 -1.9177e-001 29700 105632,105684,105658
 7.0000e-001 106102  1.1795e+001 -3.8658e+000  3.3780e+000 29124 105978,106030,106004
 7.0000e-001 106079  2.3886e+001  1.6335e+000  5.9146e+000 29124 105926,106030,105978
 7.0000e-001 106056  2.3070e+001  1.4871e+001 -1.4621e+001 29124 105926,105978,105952
 7.0000e-001 106301 -7.0620e+000  3.4754e+000 -1.2053e+000 28712 106151,106229,106203
 7.0000e-001 106278 -3.7265e+000  5.6270e+000 -2.8120e-001 28712 106125,106229,106151
 7.0000e-001 106255 -1.0852e+001  2.7527e+000 -1.8134e+000 28712 106151,106203,106177
 7.0000e-001 106551  7.5442e+000 -1.1237e+000  6.5101e+000 28258 106352,106404,106378
 7.0000e-001 106528  8.6282e+000  4.0168e+000  2.6849e-001 28258 106352,106456,106404
 7.0000e-001 106505  5.0779e+000  1.2942e+001  3.7120e+000 28258 106326,106456,106352
 7.0000e-001 106482  1.3574e+000 -6.7700e+000  5.1494e+000 28258 106404,106456,106430
 7.0000e-001 107012 -1.1322e+000  1.0634e+001 -1.3462e+000 27818 107035,106790,106764
 7.0000e-001 106989  7.6071e-001  1.5541e+001 -5.6262e-001 27818 107035,106764,106868
 7.0000e-001 106966 -8.2717e+000  3.8206e+001 -6.1042e+000 27818 107107,106842,106816
 7.0000e-001 106943 -6.8469e+000  5.6356e+000  3.8710e+000 27818 106738,106868,106764
 7.0000e-001 106920 -5.0522e+000  8.0482e+000  8.1542e-001 27818 106738,106894,106868
 7.0000e-001 107061 -2.3392e+000  1.5651e+001 -6.6519e+000 27818 106816,106790,107035
 7.0000e-001 107084  2.2198e+000  2.7945e+001 -6.5534e+000 27818 107107,106816,107035
 7.0000e-001 107133 -1.7751e+001  2.4791e+001  1.1493e-001 27818 106868,106842,107107
 7.0000e-001 107156 -7.5668e+000  1.1867e+001 -1.2032e+000 27818 106868,107107,107035
 7.0000e-001 107613 -2.4461e+001 -1.4944e+000 -6.2065e+000 27312 107339,107469,107365
 7.0000e-001 107590 -1.5665e+001 -1.0209e+000 -5.8363e+000 27312 107339,107495,107469
 7.0000e-001 107567 -2.0683e+001  9.9893e+000 -9.2665e+000 27312 107391,107469,107443
 7.0000e-001 107544 -1.6499e+001  4.3780e-001 -1.0625e+001 27312 107365,107469,107391
 7.0000e-001 107521 -3.3214e+001  3.6923e+000 -6.5822e+000 27312 107391,107443,107417
 7.0000e-001 107991 -8.0439e+000  9.6494e+000 -2.0111e+000 26858 108086,108014,107795
 7.0000e-001 107968 -7.6610e+000  7.6773e+000 -8.1152e-001 26858 108014,107717,107873
 7.0000e-001 107945 -7.8067e+000  1.0342e+001 -2.0220e+000 26858 108158,108086,107795
 7.0000e-001 107922 -6.9892e+000  1.1928e+001 -2.6561e+000 26858 108158,107795,107769
 7.0000e-001 107899 -5.3379e+000  2.1564e+001 -2.7782e+000 26858 107821,107873,107847
 7.0000e-001 108040 -6.4033e+000  1.9204e+001 -3.1247e+000 26858 107821,107795,108014
 7.0000e-001 108063 -9.7464e+000  1.1036e+001 -1.4084e+000 26858 107821,108014,107873
 7.0000e-001 108112 -6.9593e+000  1.0531e+001 -3.5842e-001 26858 107717,108014,108086
 7.0000e-001 108135 -7.4694e+000  6.8002e+000 -2.2713e-003 26858 107717,108086,107743
 7.0000e-001 108184 -6.5872e+000  8.5099e+000 -1.8825e+000 26858 107743,108086,108158
 7.0000e-001 108207 -6.5994e+000  9.4878e+000 -2.0949e+000 26858 107743,108158,107769
 7.0000e-001 108634 -6.1499e+000 -4.6134e+000  9.8303e+000 26404 108657,108415,108363
 7.0000e-001 108611 -1.5557e-001  1.1784e+001  1.2951e+001 26404 108657,108363,108337
 7.0000e-001 108588 -1.2248e+001  2.9787e+000  4.2289e+000 26404 108729,108311,108467
 7.0000e-001 108565  1.8129e+000 -4.2576e-001  4.8805e+000 26404 108801,108441,108415
 7.0000e-001 108542 -4.4716e+000  8.1572e+000 -2.0496e+000 26404 108311,108493,108467
 7.0000e-001 108519  1.2112e+001 -5.0716e+000  9.7798e+000 26404 108363,108415,108389
 7.0000e-001 108683 -7.7109e-001  1.6017e+000  5.3056e+000 26404 108801,108415,108657
 7.0000e-001 108706 -1.5825e+000  3.6917e+000  5.3600e+000 26404 108729,108467,108657
 7.0000e-001 108755 -1.8156e+001  5.0816e+000  4.6236e+000 26404 108337,108311,108729
 7.0000e-001 108778 -1.2852e+001  1.8038e+000  6.4940e+000 26404 108337,108729,108657
 7.0000e-001 108827 -1.3746e+000 -3.3440e+000  3.6572e+000 26404 108467,108441,108801
 7.0000e-001 108850 -3.5293e+000 -5.0384e-001  4.3841e+000 26404 108467,108801,108657
 7.0000e-001 109228  6.1750e+000  2.3211e+001  5.9505e+000 26064 109006,109084,109058
 7.0000e-001 109205 -3.6340e-001  1.9361e+001  4.0190e+000 26064 108980,109084,109006
 7.0000e-001 109182  2.6775e+000  1.8840e+001  5.4974e+000 26064 108980,109110,109084
 7.0000e-001 109159  7.2547e+000  1.9038e+001  9.1531e+000 26064 109006,109058,109032
 7.0000e-001 109136  2.3075e+000  1.0789e+001  3.1433e+000 26064 108954,109110,108980
 7.0000e-001 109427  1.1119e+001  2.3108e+001  1.2186e+000 25660 109303,109355,109329
 7.0000e-001 109404  7.2551e+000  1.2221e+001 -5.8362e+000 25660 109277,109355,109303
 7.0000e-001 109381  2.6641e+001  1.1819e+001 -5.6471e+000 25660 109251,109355,109277
 7.0000e-001 109577 -1.7714e+001 -6.8066e+000 -7.0099e+000 25306 109476,109528,109502
 7.0000e-001 109554 -2.4365e+001 -6.6927e+000 -3.1068e+000 25306 109450,109528,109476
 7.0000e-001 109778 -8.7049e+000  9.3922e+000 -2.1256e-001 24944 109628,109706,109654
 7.0000e-001 109755 -1.1464e+001  1.3141e+001 -2.8160e+000 24944 109602,109706,109628
 7.0000e-001 109732 -1.0371e+001  7.6405e+000  1.7086e+000 24944 109654,109706,109680
 7.0000e-001 110126 -1.2800e+001  3.2989e+000 -1.9499e+000 24440 110149,109907,109855
 7.0000e-001 110103 -1.2732e+001  3.1134e+000 -1.8416e+000 24440 110149,109855,109985
 7.0000e-001 110080 -1.5278e+001  2.9600e-001 -6.1295e-001 24440 109855,109907,109881
 7.0000e-001 110057 -1.5554e+001 -1.0324e+000 -4.9805e+000 24440 109829,109985,109855
 7.0000e-001 110034 -9.8664e+000 -5.7052e-002 -3.2570e+000 24440 109907,109959,109933
 7.0000e-001 110011 -1.0853e+001  2.3819e+000  1.1747e+000 24440 109803,109985,109829
 7.0000e-001 110175 -1.2761e+001  3.4312e+000 -1.9631e+000 24440 109959,109907,110149
 7.0000e-001 110198 -1.2681e+001  3.2814e+000 -1.8372e+000 24440 109959,110149,109985
 7.0000e-001 110301 -1.9808e+001  2.3716e+000  4.6949e-001 24028 110223,110275,110249
 7.0000e-001 110573 -9.4887e+000  1.2941e+001 -4.3952e-001 23467 110400,110452,110426
 7.0000e-001 110550 -1.1421e+001  1.0225e+001 -1.3909e+000 23467 110374,110452,110400
 7.0000e-001 110527 -7.1122e+000  1.2058e+001 -1.9947e+000 23467 110348,110452,110374
 7.0000e-001 110504 -8.0768e+000  9.2182e+000 -1.2115e+000 23467 110348,110478,110452
 7.0000e-001 111004  1.0756e+001  8.8622e+000 -2.2352e+001 22963 111027,110733,110707
 7.0000e-001 110981 -7.0212e+000  5.4994e+000 -9.3156e+000 22963 111027,110707,110681
 7.0000e-001 110958 -1.5779e+001  4.4535e+000 -6.1911e+000 22963 111099,110759,110733
 7.0000e-001 110935 -4.4090e+000  1.3030e+001 -9.0085e+000 22963 111171,110863,110811
 7.0000e-001 110912 -4.0141e+001  1.9611e+001 -4.0392e+000 22963 110759,110811,110785
 7.0000e-001 110889 -1.1866e+001  2.9482e+001  8.0744e+000 22963 110811,110863,110837
 7.0000e-001 111053 -1.3860e+000  1.5799e+001 -1.3056e+001 22963 111099,110733,111027
 7.0000e-001 111076 -2.9455e+000  6.8298e+000 -7.9059e+000 22963 111171,110811,111027
 7.0000e-001 111125 -1.6971e+001  1.0056e+000  1.1970e+000 22963 110811,110759,111099
 7.0000e-001 111148 -1.5344e+001 -1.3393e+000 -3.3679e+000 22963 110811,111099,111027
 7.0000e-001 111197 -4.9344e+000  2.3632e+001 -1.0740e+001 22963 110681,110863,111171
 7.0000e-001 111220 -6.5688e+000  1.5790e+001 -6.7138e+000 22963 110681,111171,111027
 7.0000e-001 111726  4.6922e+000  1.3291e+000 -6.4301e+000 22459 111749,111507,111429
 7.0000e-001 111703 -3.8211e+000 -1.0300e+000  6.7557e+000 22459 111749,111429,111585
 7.0000e-001 111680 -3.1238e+001  2.2607e+001  1.2550e+000 22459 111403,111585,111429
 7.0000e-001 111657  6.5119e+000  2.1315e+001 -1.5269e+001 22459 111507,111559,111533
 7.0000e-001 111634  9.8709e-001  3.6960e+001 -5.9417e+000 22459 111455,111507,111481
 7.0000e-001 111611 -1.8245e+001  3.1863e+001 -2.7319e-002 22459 111429,111507,111455
 7.0000e-001 111775  6.6201e+000  2.1123e+001 -1.5366e+001 22459 111559,111507,111749
 7.0000e-001 111798 -3.3616e+000  8.1970e+000 -2.7907e+000 22459 111559,111749,111585
 7.0000e-001 112046 -6.7588e-001  1.2626e+001  5.4739e-001 21898 112069,111925,111873
 7.0000e-001 112023 -1.2343e+000  9.9957e+000  4.4989e+000 21898 112069,111873,111847
 7.0000e-001 112000 -1.6061e+001  1.5869e+001  8.2711e+000 21898 111821,111951,111847
 7.0000e-001 111977 -3.1650e+000  6.3771e+000 -1.3910e+000 21898 111873,111925,111899
 7.0000e-001 112095 -5.8913e+000  9.9656e+000  1.9360e+000 21898 111951,111925,112069
 7.0000e-001 112118 -3.9650e+000  8.5738e+000  5.6391e+000 21898 111951,112069,111847
 7.0000e-001 112498  1.4631e+001  1.1814e+001 -8.8602e+000 21608 112521,112276,112224
 7.0000e-001 112475  1.8348e+001  1.2738e+001 -8.3166e+000 21608 112521,112224,112380
 7.0000e-001 112452  1.5762e+001  6.1571e+000 -1.0205e+000 21608 112302,112380,112354
 7.0000e-001 112429  9.6836e+000  6.9128e+000 -6.6566e+000 21608 112224,112276,112250
 7.0000e-001 112406  6.7090e+000  4.9148e+000 -5.3920e-001 21608 112302,112354,112328
 7.0000e-001 112547  1.7542e+001  1.1297e+001 -6.2835e+000 21608 112302,112276,112521
 7.0000e-001 112570  2.1166e+001  1.1639e+001 -6.2923e+000 21608 112302,112521,112380
 7.0000e-001 112948 -4.0733e+001 -6.1788e+000  1.0026e+001 20882 112971,112752,112700
 7.0000e-001 112925 -2.6457e+001 -8.8056e-001  8.4120e+000 20882 112971,112700,112830
 7.0000e-001 112902 -1.8404e+001 -3.2740e+000  1.5748e+001 20882 112778,112830,112804
 7.0000e-001 112879 -2.9189e+001 -1.1266e+001  8.4006e+000 20882 112674,112830,112700
 7.0000e-001 112856 -3.3286e+001  5.5564e+000  6.5521e+000 20882 112700,112752,112726
 7.0000e-001 112997 -4.0668e+001 -4.9638e+000  1.8169e+001 20882 112778,112752,112971
 7.0000e-001 113020 -3.2772e+001 -2.3396e+000  1.6170e+001 20882 112778,112971,112830
 7.0000e-001 113526 -8.4651e+000 -2.0699e+000 -1.0266e+000 20428 113255,113385,113333
 7.0000e-001 113503 -8.4258e+000 -1.4168e+000 -1.1877e+000 20428 113229,113385,113255
 7.0000e-001 113480 -1.8256e+001 -1.4455e+000 -5.4569e-001 20428 113255,113333,113281
 7.0000e-001 113457 -6.9369e+000 -3.7356e+000 -2.4801e+000 20428 113203,113385,113229
 7.0000e-001 113434 -8.2580e+000 -2.4453e+000  2.2179e+000 20428 113281,113333,113307
 7.0000e-001 113411 -7.5309e+000 -6.9832e+000 -6.3124e-001 20428 113333,113385,113359
 7.0000e-001 113774 -1.7187e+001 -5.3558e+000  1.2302e+000 19917 113797,113601,113549
 7.0000e-001 113751 -1.7376e+001 -8.5737e+000  2.4152e+000 19917 113869,113797,113549
 7.0000e-001 113728 -1.8124e+001 -8.9114e+000  2.4911e+000 19917 113869,113549,113679
 7.0000e-001 113705 -1.7007e+001 -8.3363e+000 -3.2048e-001 19917 113549,113601,113575
 7.0000e-001 113823 -1.6532e+001  7.3741e-002  1.2440e+000 19917 113627,113601,113797
 7.0000e-001 113846 -1.5690e+001 -4.7082e+000 -7.9650e-001 19917 113627,113797,113653
 7.0000e-001 113895 -1.8358e+001 -5.8457e+000 -1.1681e+000 19917 113653,113797,113869
 7.0000e-001 113918 -2.3276e+001 -8.0469e+000 -6.5930e-001 19917 113653,113869,113679
 7.0000e-001 114166  2.2101e+001  2.0795e+001 -1.4279e+000 19413 113993,114045,114019
 7.0000e-001 114143  2.5603e+001  1.8992e+001 -1.6111e+000 19413 113967,114045,113993
 7.0000e-001 114120  1.9318e+001  1.5969e+001  1.1533e+000 19413 113967,114071,114045
 7.0000e-001 114097  2.7097e+001  1.7772e+001  1.5884e+000 19413 113941,114071,113967
 7.0000e-001 114438 -2.4109e+000 -1.7288e+000  3.3371e-002 19001 114213,114265,114239
 7.0000e-001 114415 -6.3996e+000 -7.9302e+000  1.9141e+000 19001 114213,114343,114265
 7.0000e-001 114392 -3.8006e+000 -7.3526e-001  5.9673e-001 19001 114265,114343,114317
 7.0000e-001 114369 -1.8107e-001  3.0970e-001 -7.4163e-002 19001 114265,114317,114291
 7.0000e-001 114639 -1.5663e+000  2.0073e+000  2.4950e+000 18554 114489,114541,114515
 7.0000e-001 114616 -8.4003e+000  5.2929e+000  2.5175e+000 18554 114489,114567,114541
 7.0000e-001 114593 -1.4491e+001  9.3821e+000  2.0884e+000 18554 114463,114567,114489
 7.0000e-001 115043  1.4178e+001  1.5492e+001 -2.2065e+000 18164 114795,114925,114821
 7.0000e-001 115020  1.1056e+001  1.4316e+001 -3.9741e+000 18164 114769,114925,114795
 7.0000e-001 114997  1.2443e+001  1.0194e+001 -2.5601e+000 18164 115066,114873,114821
 7.0000e-001 114974  1.3952e+001  1.4463e+001 -2.3086e+000 18164 115066,114821,114925
 7.0000e-001 114951  1.1657e+001  9.7817e+000 -2.7121e+000 18164 114821,114873,114847
 7.0000e-001 115092  9.7917e+000  1.3405e+001 -5.0525e+000 18164 114899,114873,115066
 7.0000e-001 115115  1.2479e+001  1.9829e+001 -4.7843e+000 18164 114899,115066,114925
 7.0000e-001 115265 -1.1436e+001  2.0088e+000 -3.0443e-001 17852 115164,115216,115190
 7.0000e-001 115242 -1.2495e+001  2.8020e+000 -6.8199e-001 17852 115138,115216,115164
 7.0000e-001 115464 -4.2871e+001 -1.1491e+001 -5.8576e+000 17346 115288,115366,115340
 7.0000e-001 115441 -9.1417e+000 -1.3128e+001 -8.6936e+000 17346 115288,115392,115366
 7.0000e-001 115418 -2.9025e+001 -3.9816e+000 -2.4886e+000 17346 115288,115340,115314
 7.0000e-001 115736 -9.9520e+000 -5.9928e-001 -1.3084e+000 16942 115563,115641,115615
 7.0000e-001 115713 -9.7209e+000  1.2208e+000 -1.5650e+000 16942 115511,115641,115563
 7.0000e-001 115690 -5.6139e+000  1.8081e+000  2.5720e-001 16942 115563,115615,115589
 7.0000e-001 115667 -1.1097e+001  3.3365e-001 -8.3952e-001 16942 115511,115563,115537
 7.0000e-001 116091 -5.3834e+000 -1.6804e+000  2.1531e+000 16388 115918,115970,115944
 7.0000e-001 116068 -5.3981e-001 -5.7379e+000  5.7526e+000 16388 115918,115996,115970
 7.0000e-001 116045  6.6386e+000 -1.2318e+001  3.6379e+000 16388 115892,115996,115918
 7.0000e-001 116022  1.7167e+000 -2.1597e+000  8.6984e-001 16388 115866,115996,115892
 7.0000e-001 116192 -1.2735e+000 -1.2282e+000 -1.1883e+000 15810 116114,116166,116140
 7.0000e-001 116342 -9.1938e+000 -6.2448e-001 -1.6808e-001 15419 116241,116293,116267
 7.0000e-001 116319 -7.5962e-001 -9.9896e-001  1.4388e-001 15419 116215,116293,116241
 7.0000e-001 116445  1.1230e+001  2.5791e+001 -6.0964e+000 421 116367,116419,116393
 8.0000e-001 68477  7.8370e+000  7.1787e+000  1.3684e+000 68018 68327,68379,68353
 8.0000e-001 68454  7.9223e+000  8.9475e+000  8.7989e-001 68018 68301,68379,68327
 8.0000e-001 68431  1.0823e+001  8.0721e+000  2.0085e+000 68018 68301,68405,68379
 8.0000e-001 68578  1.2355e+000 -9.4298e-001  2.8157e-001 67820 68500,68552,68526
 8.0000e-001 68728 -4.8696e-002  2.7860e-001  6.0947e-001 67508 68601,68653,68627
 8.0000e-001 68705 -8.7293e-002 -2.9818e-001  6.1238e-001 67508 68601,68679,68653
 8.0000e-001 68927  1.2702e+001  8.2685e+000 -2.2481e+000 67310 68777,68829,68803
 8.0000e-001 68904  5.6464e+000  7.8404e+000  2.2839e-001 67310 68751,68829,68777
 8.0000e-001 68881  6.5356e+000  8.3348e+000  7.9723e-001 67310 68751,68855,68829
 8.0000e-001 69386  4.9118e+000  8.2950e+000 -4.1315e+000 67020 69216,69268,69242
 8.0000e-001 69363  9.5572e+000  1.0652e+001  3.7859e-002 67020 69138,69268,69216
 8.0000e-001 69340  1.0966e+001  1.1602e+001  4.7970e-001 67020 69112,69268,69138
 8.0000e-001 69317  6.6666e+000  1.1601e+001 -3.5659e+000 67020 69138,69190,69164
 8.0000e-001 69294  7.6159e+000  8.9470e+000  8.6695e-001 67020 69138,69216,69190
 8.0000e-001 69536  3.4245e+000 -1.2880e+000  3.0310e+000 66708 69435,69487,69461
 8.0000e-001 69513  1.1270e+001  6.2441e+000 -4.0227e-001 66708 69409,69487,69435
 8.0000e-001 69735 -2.4899e+000 -1.0345e+000  4.6036e-001 66346 69585,69637,69611
 8.0000e-001 69712 -1.9729e+000 -2.7631e+000  6.5132e-001 66346 69559,69637,69585
 8.0000e-001 69689 -9.8073e-001 -3.8411e-001  6.2179e-001 66346 69559,69663,69637
 8.0000e-001 69985 -7.8366e+000 -1.8029e+000  3.4466e+000 66148 69786,69890,69864
 8.0000e-001 69962 -5.4917e+000  1.2343e+000  3.9715e-001 66148 69760,69890,69786
 8.0000e-001 69939 -1.9893e+001  9.3239e+000  2.1588e+001 66148 69786,69864,69838
 8.0000e-001 69916 -9.4323e+000  1.6818e+001  7.4618e+000 66148 69786,69838,69812
 8.0000e-001 70137  3.1787e+000  6.9869e+000 -3.8844e-001 65950 70036,70088,70062
 8.0000e-001 70114  4.3175e-001  6.3140e+000 -5.5521e-001 65950 70010,70088,70036
 8.0000e-001 70470  1.8434e+000  2.9115e+000  1.2706e+000 65546 70245,70323,70271
 8.0000e-001 70447  3.7432e+000  5.8250e+000  1.8063e-001 65546 70245,70375,70323
 8.0000e-001 70424  3.8235e+000  3.8344e+000  5.7749e-001 65546 70323,70375,70349
 8.0000e-001 70401  1.7363e+000  2.5222e+000  1.5128e+000 65546 70271,70323,70297
 8.0000e-001 70620 -4.4850e+000  8.6657e+000 -1.4413e+000 65348 70493,70545,70519
 8.0000e-001 70597  7.1485e+000  1.7038e+001  2.4804e+000 65348 70493,70571,70545
 8.0000e-001 70721  8.3223e+000  1.1206e+001 -4.3579e-001 65150 70643,70695,70669
 8.0000e-001 71020  4.1836e+000  6.4210e+000 -2.3807e+000 64952 71043,70850,70824
 8.0000e-001 70997  2.8984e+000  3.6456e+000 -2.0524e+000 64952 71043,70824,70772
 8.0000e-001 70974  3.0868e+000  6.5964e+000 -1.1289e+000 64952 71115,70746,70876
 8.0000e-001 70951  2.4244e+000  7.6383e+000  1.1089e-001 64952 70746,70902,70876
 8.0000e-001 70928  4.4224e+000  4.4595e+000 -2.3720e+000 64952 70772,70824,70798
 8.0000e-001 71069  2.7574e+000  6.1803e+000 -1.5425e+000 64952 70876,70850,71043
 8.0000e-001 71092  2.8031e+000  6.3286e+000 -1.2519e+000 64952 71115,70876,71043
 8.0000e-001 71141  3.6194e+000  6.2485e+000 -8.1704e-001 64952 70772,70746,71115
 8.0000e-001 71164  3.3236e+000  5.8680e+000 -9.6964e-001 64952 70772,71115,71043
 8.0000e-001 71365 -2.4491e+000  9.7765e+000  4.9313e-001 64662 71215,71293,71267
 8.0000e-001 71342 -4.9047e+000  6.2783e+000  1.8479e+000 64662 71189,71293,71215
 8.0000e-001 71319 -4.4679e+000  3.8684e+000  6.4334e-001 64662 71215,71267,71241
 8.0000e-001 71615  1.6519e+001  1.7343e+001  8.0907e-001 64350 71710,71638,71468
 8.0000e-001 71592  1.9923e+001  1.5440e+001  7.4778e-001 64350 71638,71416,71390
 8.0000e-001 71569  1.6765e+001  1.5635e+001 -5.7847e-001 64350 71710,71468,71442
 8.0000e-001 71546  2.6347e+001  1.3271e+001 -3.8559e+000 64350 71390,71520,71494
 8.0000e-001 71664  1.9235e+001  1.7974e+001  2.5093e+000 64350 71494,71468,71638
 8.0000e-001 71687  1.7086e+001  1.3349e+001  1.7146e+000 64350 71494,71638,71390
 8.0000e-001 71736  1.6541e+001  1.3817e+001 -4.0018e-001 64350 71416,71638,71710
 8.0000e-001 71759  1.5429e+001  1.1717e+001 -2.2838e+000 64350 71416,71710,71442
 8.0000e-001 72318  2.7701e+000  3.7682e+000  8.7270e+000 63837 71972,72024,71998
 8.0000e-001 72295 -4.5050e+000  5.0898e+000  6.5371e+000 63837 72341,71972,71946
 8.0000e-001 72272 -4.5397e+000  4.6100e+000  6.3472e+000 63837 72413,72341,71946
 8.0000e-001 72249 -1.0352e+001  5.8923e+000  6.7079e+000 63837 72413,71946,72128
 8.0000e-001 72226 -1.5313e+000  1.5054e+000  2.1464e+000 63837 72024,72076,72050
 8.0000e-001 72203 -1.3525e+000 -1.3217e-001  3.2346e+000 63837 72024,72102,72076
 8.0000e-001 72180 -3.4665e+000  9.0891e+000  5.4105e+000 63837 71946,72154,72128
 8.0000e-001 72367 -4.2002e+000  5.6564e+000  8.8744e+000 63837 72024,71972,72341
 8.0000e-001 72390 -5.5770e+000  4.1262e+000  5.9542e+000 63837 72024,72341,72102
 8.0000e-001 72439 -1.1955e+001  2.8864e+000  4.9164e+000 63837 72102,72341,72413
 8.0000e-001 72462 -1.5966e+001  5.6229e+000  5.6842e+000 63837 72102,72413,72128
 8.0000e-001 72791  1.4602e+000  1.6969e+000 -5.4327e-001 63383 72592,72696,72670
 8.0000e-001 72768  9.2557e+000  2.0238e+001  3.0831e-003 63383 72566,72696,72592
 8.0000e-001 72745  7.9731e+000  1.0898e+001  5.3808e+000 63383 72592,72670,72618
 8.0000e-001 72722  8.9130e-001  2.5517e-001  1.2321e-001 63383 72618,72670,72644
 8.0000e-001 73297  3.1923e+000  6.5240e+000  2.2422e+000 63185 73000,73156,73130
 8.0000e-001 73274  7.0320e+000  1.6488e+001 -2.1012e+000 63185 72974,73156,73000
 8.0000e-001 73251 -2.5154e-001  3.1996e+000  1.3153e+000 63185 73000,73052,73026
 8.0000e-001 73228  1.5104e+000  4.1471e+000  8.4866e-001 63185 73000,73130,73052
 8.0000e-001 73205  2.8540e+000  9.1277e+000  2.2952e+000 63185 73052,73130,73104
 8.0000e-001 73182  3.0370e+000  3.6669e+000  1.5029e+000 63185 73052,73104,73078
 8.0000e-001 73545 -6.6925e-001  1.9979e+001 -3.8537e+000 62781 73568,73398,73372
 8.0000e-001 73522 -4.2886e+000  9.9500e+000 -4.3849e+000 62781 73568,73372,73346
 8.0000e-001 73499  1.5202e+000  1.1144e+001  1.0946e-001 62781 73640,73320,73424
 8.0000e-001 73476 -1.6673e+000  7.2181e+000  1.5645e+000 62781 73320,73450,73424
 8.0000e-001 73594 -4.1819e+000  1.1135e+001 -1.4444e+000 62781 73424,73398,73568
 8.0000e-001 73617  8.4084e-002  1.0263e+001 -7.7638e-001 62781 73640,73424,73568
 8.0000e-001 73666  8.6994e-001  9.8850e+000 -1.4224e+000 62781 73346,73320,73640
 8.0000e-001 73689  6.4359e-002  8.8971e+000 -2.2358e+000 62781 73346,73640,73568
 8.0000e-001 74035 -7.6080e+000 -5.5914e-001 -2.2587e+000 62363 74058,73868,73842
 8.0000e-001 74012 -9.4831e-001  4.1852e-001 -1.4131e+000 62363 74130,74058,73842
 8.0000e-001 73989 -4.5370e-001  4.3330e-001 -1.6933e+000 62363 74130,73842,73816
 8.0000e-001 73966 -1.2541e+000 -7.1289e-002 -3.0324e-001 62363 74202,73764,73894
 8.0000e-001 73943  5.3843e-001  7.1192e-001  1.6700e-001 62363 73712,73894,73764
 8.0000e-001 73920 -5.3787e-001  7.2827e-001 -5.8393e-001 62363 73712,73764,73738
 8.0000e-001 74084 -1.8535e+000  2.3963e+000 -9.5376e-002 62363 73894,73868,74058
 8.0000e-001 74107 -1.7454e+000 -6.7016e-001 -6.6982e-001 62363 74202,73894,74058
 8.0000e-001 74156 -1.6392e+000 -1.5631e-001  1.1903e-001 62363 73790,74058,74130
 8.0000e-001 74179  4.3443e-001  4.2520e-001 -3.9924e-002 62363 73790,74130,73816
 8.0000e-001 74228 -7.1912e-001  1.7189e-001  5.8078e-001 62363 73790,73764,74202
 8.0000e-001 74251 -1.1026e+000 -4.7855e-001  2.2211e-001 62363 73790,74202,74058
 8.0000e-001 74403 -6.1285e+000  5.2308e+000 -1.3041e+000 62115 74426,74302,74276
 8.0000e-001 74380 -1.2126e+001  6.2714e+000 -3.7010e+000 62115 74426,74276,74354
 8.0000e-001 74452 -1.1317e+000  4.0279e+000 -1.6743e+000 62115 74328,74302,74426
 8.0000e-001 74475 -6.4909e+000  5.4887e+000 -4.2861e+000 62115 74328,74426,74354
 8.0000e-001 74578 -1.3186e+000  1.0710e+001  4.2052e-001 61825 74500,74552,74526
 8.0000e-001 74982 -4.2841e+000  2.6978e+000  6.7243e-001 61513 75005,74734,74708
 8.0000e-001 74959 -1.9024e+000  3.2692e+000  2.1802e-001 61513 75005,74708,74864
 8.0000e-001 74936 -2.6594e+000  1.0209e+000  6.7295e-001 61513 75077,74812,74734
 8.0000e-001 74913 -7.0940e+000 -1.6973e+000 -5.2257e-001 61513 74734,74786,74760
 8.0000e-001 74890 -8.5054e+000 -2.4386e+000  2.1719e+000 61513 74734,74812,74786
 8.0000e-001 75031 -2.2646e+000  1.4989e+000  1.0193e+000 61513 75077,74734,75005
 8.0000e-001 75054 -9.1906e-002  3.0501e+000  2.3071e+000 61513 74838,75005,74864
 8.0000e-001 75103 -2.6069e+000  1.9477e+000  1.3025e+000 61513 74838,74812,75077
 8.0000e-001 75126 -2.4069e+000  2.3835e+000  1.5937e+000 61513 74838,75077,75005
 8.0000e-001 75553 -5.2267e+000 -3.4267e+000 -5.4108e+000 61060 75576,75360,75308
 8.0000e-001 75530 -3.8773e+000 -2.3797e+000 -4.8365e+000 61060 75576,75308,75230
 8.0000e-001 75507 -1.4629e+001 -1.3330e+001 -1.3122e+001 61060 75308,75360,75334
 8.0000e-001 75484 -3.2537e+000  2.5157e-001 -2.8819e+000 61060 75230,75308,75256
 8.0000e-001 75461  1.6238e+000 -1.7060e+000 -1.2622e+000 61060 75256,75308,75282
 8.0000e-001 75438 -8.9600e+000 -3.8900e-002 -5.3011e+000 61060 75360,75412,75386
 8.0000e-001 75602 -8.2647e+000 -2.2199e+000 -6.4830e+000 61060 75412,75360,75576
 8.0000e-001 75625 -5.7101e+000  4.8277e-001 -5.3609e+000 61060 75412,75576,75230
 8.0000e-001 76052  1.7123e+001  6.1741e+000 -4.9760e+000 60442 75755,75859,75833
 8.0000e-001 76029  1.0630e+001  4.0575e+000 -5.1386e+000 60442 75729,75859,75755
 8.0000e-001 76006  1.0300e+001  4.4406e+000  1.7893e+000 60442 75755,75833,75807
 8.0000e-001 75983  2.3796e+000  2.2926e+000 -2.7462e-001 60442 75755,75807,75781
 8.0000e-001 75960  1.1445e+001  2.6097e+000 -4.9057e+000 60442 75729,75911,75859
 8.0000e-001 75937  1.1830e+001 -2.7259e-001 -2.4220e+000 60442 75859,75911,75885
 8.0000e-001 76430  7.0571e+000  1.1663e+001 -1.9055e+000 59788 76453,76286,76234
 8.0000e-001 76407  8.6492e+000  1.3997e+001 -4.7883e-001 59788 76453,76234,76182
 8.0000e-001 76384  6.4777e+000  1.1500e+001 -2.5134e+000 59788 76525,76156,76312
 8.0000e-001 76361  8.7883e+000  1.6394e+001 -8.0107e-001 59788 76182,76234,76208
 8.0000e-001 76338  9.0566e+000  1.1858e+001 -1.9783e+000 59788 76234,76286,76260
 8.0000e-001 76479  5.4278e+000  1.2679e+001 -3.0834e+000 59788 76312,76286,76453
 8.0000e-001 76502  6.6338e+000  1.2730e+001 -2.1244e+000 59788 76525,76312,76453
 8.0000e-001 76551  7.1237e+000  1.3016e+001 -2.3724e+000 59788 76182,76156,76525
 8.0000e-001 76574  6.8651e+000  1.3339e+001 -2.1570e+000 59788 76182,76525,76453
 8.0000e-001 77031  3.1768e+000  7.5921e+000  1.3237e+000 59448 76835,76887,76861
 8.0000e-001 77008  1.3971e+000  8.3030e+000 -5.0932e-001 59448 76835,76913,76887
 8.0000e-001 76985  2.4639e+000  9.9185e+000 -1.0266e+000 59448 76809,76913,76835
 8.0000e-001 76962  2.3749e+000  7.7741e+000 -6.0496e-001 59448 76757,76913,76809
 8.0000e-001 76939  2.9099e-001  2.1887e+001 -4.1005e-001 59448 76757,76809,76783
 8.0000e-001 77537  6.1907e-001  1.2340e+001  2.0970e+000 58994 77560,77344,77292
 8.0000e-001 77514 -2.5141e+000  2.7455e+000 -4.2594e-001 58994 77560,77292,77240
 8.0000e-001 77491  1.3186e+000 -2.3724e+000  2.1452e+000 58994 77632,77214,77370
 8.0000e-001 77468  4.3716e-001  1.2411e+001  3.1600e-001 58994 77292,77344,77318
 8.0000e-001 77445  1.5535e+000  1.7296e+000  1.0706e+000 58994 77214,77396,77370
 8.0000e-001 77422 -2.3601e+000  8.2582e+000  5.7198e+000 58994 77240,77292,77266
 8.0000e-001 77586  6.0185e+000  3.3954e+000  3.3251e+000 58994 77370,77344,77560
 8.0000e-001 77609  3.3234e+000 -1.3372e+000  1.2239e+000 58994 77632,77370,77560
 8.0000e-001 77658  4.4183e-001 -2.8624e+000  4.2942e+000 58994 77240,77214,77632
 8.0000e-001 77681  2.2532e+000 -2.5260e+000  3.5324e+000 58994 77240,77632,77560
 8.0000e-001 78138 -7.3827e+000 -3.9334e+000  3.6454e+000 58440 77864,77994,77890
 8.0000e-001 78115 -3.0958e+000 -3.1349e+000  3.7037e+000 58440 77864,78020,77994
 8.0000e-001 78092 -5.3040e+000 -3.3749e+000  3.6156e+000 58440 77942,77994,77968
 8.0000e-001 78069 -8.3943e+000 -6.7827e+000  1.4065e+000 58440 77890,77994,77942
 8.0000e-001 78046 -1.7997e+001 -6.7846e+000  8.1005e+000 58440 77890,77942,77916
 8.0000e-001 78467  9.6542e-001  5.9285e+000  7.2836e+000 57928 78562,78490,78346
 8.0000e-001 78444 -3.2228e+000  7.4454e+000  1.9930e+000 57928 78490,78294,78268
 8.0000e-001 78421 -1.6932e+000  1.2657e+001  4.3157e+000 57928 78562,78346,78320
 8.0000e-001 78398  1.5384e+000 -1.2249e+000 -3.1978e-001 57928 78242,78372,78268
 8.0000e-001 78516 -2.9776e+000 -6.8460e+000  2.3792e+000 57928 78372,78346,78490
 8.0000e-001 78539  3.6589e+000  1.0196e+001  2.1284e+000 57928 78372,78490,78268
 8.0000e-001 78588  2.4514e-001  1.5541e+001  1.7407e+000 57928 78294,78490,78562
 8.0000e-001 78611  1.3142e+000  3.0037e+001  8.7412e-001 57928 78294,78562,78320
 8.0000e-001 79068  4.3418e+000  8.8134e+000  2.4805e+000 57467 78794,78924,78820
 8.0000e-001 79045  1.0499e+001  1.1926e+001  4.2870e+000 57467 78794,78950,78924
 8.0000e-001 79022 -1.3893e+000  6.8507e+000 -1.4308e+000 57467 78820,78898,78872
 8.0000e-001 78999  4.0403e+000  1.2557e+001  1.6870e+000 57467 78820,78924,78898
 8.0000e-001 78976  5.1484e+000  9.4349e+000 -1.5401e+000 57467 78820,78872,78846
 8.0000e-001 79446  6.6589e+000 -3.7820e+000 -1.5682e+001 57120 79172,79302,79250
 8.0000e-001 79423 -1.2710e+000 -7.8761e+000 -3.1164e+000 57120 79172,79328,79302
 8.0000e-001 79400 -5.3801e+000  8.1963e+000 -1.5308e+001 57120 79172,79250,79198
 8.0000e-001 79377  1.2342e+001  2.4835e+000 -1.3262e+001 57120 79250,79302,79276
 8.0000e-001 79354  1.5040e+001  2.8660e+001 -3.2508e+000 57120 79198,79250,79224
 8.0000e-001 79952  3.7329e+000  5.3365e+000 -4.3586e-001 56773 79629,79785,79655
 8.0000e-001 79929  5.9159e+000  6.7572e+000 -1.2539e+000 56773 79629,79811,79785
 8.0000e-001 79906  4.0754e+000  4.1027e+000 -1.9458e-001 56773 79655,79733,79681
 8.0000e-001 79883  4.6412e+000  5.0112e+000 -5.9990e-001 56773 79655,79785,79733
 8.0000e-001 79860  5.3137e+000  6.9308e+000 -5.7210e-001 56773 79733,79785,79759
 8.0000e-001 79837  2.2084e+000  3.3550e+000  5.2144e-001 56773 79681,79733,79707
 8.0000e-001 80281  1.3110e+001 -8.7064e+000  1.1071e+001 56319 80108,80160,80134
 8.0000e-001 80258  3.5561e+000 -2.2421e+000  9.4834e+000 56319 80056,80160,80108
 8.0000e-001 80235  1.5221e+000 -3.8330e+000  6.9225e+000 56319 80056,80186,80160
 8.0000e-001 80212 -5.5479e+000 -1.0156e+001  1.4139e+001 56319 80056,80108,80082
 8.0000e-001 80738  1.7055e+000  4.6085e+000 -1.3209e+000 55957 80516,80620,80594
 8.0000e-001 80715 -2.4721e-001  5.5947e+000 -1.3946e+000 55957 80464,80620,80516
 8.0000e-001 80692  8.9025e-001  3.1913e+000 -9.4345e-001 55957 80761,80568,80542
 8.0000e-001 80669 -9.6288e-002  3.7101e+000 -8.6466e-001 55957 80761,80542,80516
 8.0000e-001 80646 -1.7377e+000  2.1435e+000 -8.3431e-001 55957 80464,80516,80490
 8.0000e-001 80787  1.4386e+000  3.6223e+000 -1.1596e+000 55957 80594,80568,80761
 8.0000e-001 80810  5.5693e-001  4.2167e+000 -1.1165e+000 55957 80594,80761,80516
 8.0000e-001 81210 -3.4559e+000  6.4268e+000  2.8926e+000 55317 80936,80988,80962
 8.0000e-001 81187 -7.4509e+000  1.8897e+000 -8.6520e-002 55317 80936,81066,80988
 8.0000e-001 81164 -7.8666e+000  2.0389e+000 -1.0862e-001 55317 80936,81092,81066
 8.0000e-001 81141 -4.7606e+000  3.2971e+000  8.4471e-001 55317 80988,81066,81014
 8.0000e-001 81118 -1.1914e+001 -2.3288e+000 -1.6397e+000 55317 81014,81066,81040
 8.0000e-001 81539 -1.3652e+001  1.1336e+001  1.2698e+000 54913 81340,81418,81392
 8.0000e-001 81516 -1.8373e+001 -7.3638e+000  6.8806e+000 54913 81340,81444,81418
 8.0000e-001 81493 -1.7522e+001 -6.7530e+000  7.6782e+000 54913 81314,81444,81340
 8.0000e-001 81470  1.3101e+001  5.3914e+000  8.6596e+000 54913 81340,81392,81366
 8.0000e-001 81787  3.4289e+000  1.4265e-001  3.7924e+000 54601 81588,81692,81640
 8.0000e-001 81764  1.1990e+001 -6.7882e-001  5.2907e+000 54601 81562,81692,81588
 8.0000e-001 81741  7.3973e+000  2.0836e+000  2.7803e+000 54601 81588,81640,81614
 8.0000e-001 81718  6.9746e+000  8.5766e+000  3.3397e+000 54601 81640,81692,81666
 8.0000e-001 82344 -5.1285e+000  1.6619e-001  1.0188e+000 54090 81998,82102,82076
 8.0000e-001 82321 -3.2733e+000  1.0731e+000 -1.0313e+000 54090 81998,82154,82102
 8.0000e-001 82298 -9.5716e+000 -5.2609e+000 -3.5963e+000 54090 81972,82154,81998
 8.0000e-001 82275 -5.6689e+000 -3.8153e-001  1.2410e+000 54090 81998,82076,82024
 8.0000e-001 82252 -1.6573e+001 -6.5420e+000 -7.8526e+000 54090 81972,82180,82154
 8.0000e-001 82229 -2.8533e+000 -5.4332e+000 -2.9233e+000 54090 82102,82154,82128
 8.0000e-001 82206 -7.0909e+000  1.3841e+000 -1.5609e+000 54090 82024,82076,82050
 8.0000e-001 82722 -4.8244e-001  1.8482e+000 -1.8119e-001 53579 82500,82578,82552
 8.0000e-001 82699 -8.1011e-001  4.0022e+000 -2.0836e-001 53579 82448,82578,82500
 8.0000e-001 82676 -4.7517e+000  2.7365e-001  2.0441e+000 53579 82448,82500,82474
 8.0000e-001 82653 -9.4635e-001  4.0795e+000 -7.5982e-001 53579 82448,82604,82578
 8.0000e-001 82630 -1.2808e+000  4.4560e-001 -1.1315e+000 53579 82500,82552,82526
 8.0000e-001 83356  4.3681e+000  3.1791e+000 -2.0944e+000 53189 83379,83088,83036
 8.0000e-001 83333  4.6193e+000  3.2169e+000 -1.9748e+000 53189 83379,83036,82984
 8.0000e-001 83310  1.0934e+000  7.2718e-001 -5.6292e+000 53189 82984,83192,83166
 8.0000e-001 83287  3.1663e+000  2.0026e+000 -3.2685e+000 53189 83036,83088,83062
 8.0000e-001 83264  3.9914e+000  6.5623e-001 -2.0035e+000 53189 82984,83036,83010
 8.0000e-001 83241  5.9536e+000  1.2522e+000 -1.2318e+000 53189 83114,83166,83140
 8.0000e-001 83218  4.1665e+000  2.3476e+000 -2.5399e+000 53189 83088,83166,83114
 8.0000e-001 83405  4.1015e+000  3.2377e+000 -2.1625e+000 53189 83166,83088,83379
 8.0000e-001 83428  4.4127e+000  3.3074e+000 -2.0528e+000 53189 83166,83379,82984
 8.0000e-001 83725 -3.8868e+000 -5.1628e+000  1.6399e+000 52585 83748,83529,83503
 8.0000e-001 83702 -6.6509e+000 -6.6252e+000  2.7339e+000 52585 83820,83748,83503
 8.0000e-001 83679 -1.4210e+001 -3.8726e+000  3.9585e+000 52585 83820,83503,83477
 8.0000e-001 83656  2.3882e+000  1.9034e+000  1.5616e+000 52585 83477,83607,83581
 8.0000e-001 83633  3.1641e+000  2.0882e+000  1.1866e+000 52585 83451,83607,83477
 8.0000e-001 83774 -7.2832e+000 -1.0727e+001  6.2961e+000 52585 83555,83529,83748
 8.0000e-001 83797  7.1755e+000 -5.3542e+000  4.0263e+000 52585 83555,83748,83581
 8.0000e-001 83846  4.0917e-001 -4.4117e+000 -7.7212e-001 52585 83581,83748,83820
 8.0000e-001 83869 -6.2090e+000 -1.6194e+000  9.8362e-001 52585 83581,83820,83477
 8.0000e-001 84200  6.3581e+000  5.0995e+000 -2.2895e+000 52024 84001,84105,84079
 8.0000e-001 84177 -2.0176e+000  4.7172e+000  1.3870e+000 52024 83975,84105,84001
 8.0000e-001 84154 -6.8718e-001  4.2353e+000 -2.8156e+000 52024 84001,84079,84053
 8.0000e-001 84131 -3.4219e-001  5.7931e+000  4.8788e-001 52024 84001,84053,84027
 8.0000e-001 84399 -8.0271e+000 -2.1944e+000  5.0273e+000 51470 84422,84275,84249
 8.0000e-001 84376 -4.8836e+000 -5.9336e+000  5.3130e+000 51470 84422,84249,84223
 8.0000e-001 84353 -7.4900e+000  9.9152e-002 -4.8013e-001 51470 84275,84327,84301
 8.0000e-001 84448 -1.0466e+001 -4.3519e+000  5.9567e+000 51470 84327,84275,84422
 8.0000e-001 84471 -6.5762e+000 -7.2713e+000  5.9080e+000 51470 84327,84422,84223
 8.0000e-001 84753  4.3846e+000  3.8870e+000 -4.3819e-001 51073 84603,84655,84629
 8.0000e-001 84730 -1.5134e+000  1.8552e+000 -4.9225e-001 51073 84776,84655,84603
 8.0000e-001 84707  1.0043e+001 -3.7027e+000 -3.3371e+000 51073 84577,84681,84655
 8.0000e-001 84802  5.5294e-001  1.5156e+000  1.7572e+000 51073 84577,84655,84776
 8.0000e-001 85178  3.0664e-001  4.6262e+000 -1.8029e+000 50519 85201,85008,84982
 8.0000e-001 85155 -1.7616e-001  3.4548e+000 -1.7517e+000 50519 85273,85201,84982
 8.0000e-001 85132 -7.9833e-002  3.3023e+000 -1.8335e+000 50519 85273,84982,84930
 8.0000e-001 85109 -2.0870e+000  2.0470e+000 -1.1676e+000 50519 84930,84982,84956
 8.0000e-001 85086 -1.1001e+000  2.9481e+000  9.7670e-001 50519 85008,85060,85034
 8.0000e-001 85227  9.4855e-001  4.4604e+000 -4.7099e-001 50519 85060,85008,85201
 8.0000e-001 85250  3.5755e-001  3.1068e+000 -8.1723e-001 50519 85060,85201,84904
 8.0000e-001 85299  9.6725e-002  3.8414e+000 -1.2006e+000 50519 84904,85201,85273
 8.0000e-001 85322 -2.3483e-001  2.5263e+000 -1.1083e+000 50519 84904,85273,84930
 8.0000e-001 85958 -3.2715e+000  8.7656e+000  2.9483e-001 50093 85981,85768,85716
 8.0000e-001 85935 -4.8348e+000  5.7488e+000 -4.8649e-001 50093 85981,85716,85612
 8.0000e-001 85912 -1.3161e+000  4.5424e+000 -2.0851e+000 50093 85612,85716,85664
 8.0000e-001 85889 -5.9669e+000  9.0759e+000 -2.8241e-001 50093 85716,85768,85742
 8.0000e-001 85866 -1.1728e+000  6.6707e+000 -4.5155e+000 50093 85664,85716,85690
 8.0000e-001 85843 -2.9394e+000  3.0356e+000  2.9068e+000 50093 85586,85794,85612
 8.0000e-001 85820  1.9960e-001 -2.2996e-001 -9.4916e-001 50093 85612,85664,85638
 8.0000e-001 86007  7.3574e-001  1.2143e+001  5.0048e+000 50093 85794,85768,85981
 8.0000e-001 86030 -4.5110e+000  2.4762e+000  3.0013e+000 50093 85794,85981,85612
 8.0000e-001 86131 -1.8412e+001  5.2320e-001 -6.7570e+000 49895 86053,86105,86079
 8.0000e-001 86639  8.1265e+000  2.6454e+000  1.1997e+000 49391 86662,86394,86368
 8.0000e-001 86616  9.8907e+000  4.9185e+000  2.3800e+000 49391 86662,86368,86342
 8.0000e-001 86593  6.1191e+000  5.3699e+000  4.7848e-001 49391 86342,86498,86472
 8.0000e-001 86570  2.7802e+000  4.9765e+000 -2.2146e-001 49391 86316,86498,86342
 8.0000e-001 86547  4.6765e+000  3.2554e+000  6.1915e-001 49391 86394,86472,86446
 8.0000e-001 86524  4.8465e+000  2.6182e+000  4.4857e-001 49391 86394,86446,86420
 8.0000e-001 86688  5.3330e+000  4.8522e+000  9.9618e-002 49391 86472,86394,86662
 8.0000e-001 86711  7.3818e+000  6.1011e+000  8.5733e-001 49391 86472,86662,86342
 8.0000e-001 87089  3.5673e+000  2.5963e+000  1.5662e+000 48987 86815,86919,86867
 8.0000e-001 87066  3.5707e-001  1.0758e+000  2.1839e+000 48987 86815,86971,86919
 8.0000e-001 87043  2.9371e+000  7.8036e-001  3.1811e-001 48987 86867,86919,86893
 8.0000e-001 87020  2.3085e+000  1.5785e-001 -1.1610e-001 48987 86815,86867,86841
 8.0000e-001 86997  3.2943e+000  6.0424e+000  8.7285e-001 48987 86919,86971,86945
 8.0000e-001 87467 -6.0270e-001  1.7297e+000  9.0852e-001 48540 87490,87245,87219
 8.0000e-001 87444 -8.6322e-002  3.1539e+000  4.7435e-001 48540 87562,87490,87219
 8.0000e-001 87421  9.7403e-001  3.6221e+000  2.9401e-001 48540 87562,87219,87349
 8.0000e-001 87398 -5.0654e-001  3.0592e+000 -5.4664e-001 48540 87245,87297,87271
 8.0000e-001 87375 -1.2651e+000  6.0213e+000  9.6036e-001 48540 87193,87349,87219
 8.0000e-001 87516 -3.5022e-002  1.3153e+000  1.2503e-001 48540 87297,87245,87490
 8.0000e-001 87539 -3.7145e-001  1.9032e+000  9.1741e-001 48540 87297,87490,87323
 8.0000e-001 87588  8.0278e-001  2.5801e+000  1.2900e+000 48540 87323,87490,87562
 8.0000e-001 87611  1.4499e+000  2.9944e+000  1.1054e+000 48540 87323,87562,87349
 8.0000e-001 87810 -8.2865e+000 -1.2031e+000 -8.5031e-002 48136 87660,87712,87686
 8.0000e-001 87787 -9.1718e+000 -7.5488e+000 -1.9243e+000 48136 87660,87738,87712
 8.0000e-001 87764 -1.5235e+001 -1.3128e+001  2.1596e+000 48136 87634,87738,87660
 8.0000e-001 88205 -4.1692e+000 -1.9130e+000  1.4703e+000 47210 88300,88228,87937
 8.0000e-001 88182 -3.8227e+000 -6.2929e-001  1.3351e+000 47210 88228,87833,88041
 8.0000e-001 88159 -3.6336e+000 -1.1998e+000  9.2256e-001 47210 88300,87937,87911
 8.0000e-001 88136 -3.7209e+000 -2.3844e+000 -7.6875e-002 47210 87833,87911,87859
 8.0000e-001 88113 -1.0631e+000 -4.0955e+000  1.3780e+000 47210 87937,87989,87963
 8.0000e-001 88090 -3.3826e+000 -1.3036e-001  2.0347e-001 47210 87989,88041,88015
 8.0000e-001 88067 -2.7622e+000 -1.7798e-001 -2.6405e-001 47210 87859,87911,87885
 8.0000e-001 88254 -4.0772e+000 -3.9846e+000  1.9931e+000 47210 87989,87937,88228
 8.0000e-001 88277 -4.0020e+000 -1.7820e+000  1.0327e+000 47210 87989,88228,88041
 8.0000e-001 88326 -2.8810e+000 -1.8722e+000  8.9078e-001 47210 87833,88228,88300
 8.0000e-001 88349 -2.8097e+000 -1.7620e+000  4.3294e-001 47210 87833,88300,87911
 8.0000e-001 88780 -3.1863e+000 -3.7317e+000  3.7308e+000 46642 88803,88509,88483
 8.0000e-001 88757 -6.7874e+000 -6.2717e+000  9.9229e-001 46642 88803,88483,88639
 8.0000e-001 88734 -1.5053e+000 -7.7980e+000  1.9674e+000 46642 88875,88561,88509
 8.0000e-001 88711 -3.3775e+000 -8.1525e+000  2.6106e+000 46642 88509,88561,88535
 8.0000e-001 88688 -1.0879e+001 -8.6799e+000 -1.2655e+000 46642 88457,88639,88483
 8.0000e-001 88665 -7.6600e-001 -1.9317e+001  1.3948e+000 46642 88561,88613,88587
 8.0000e-001 88829 -6.1816e+000 -7.2349e+000  1.1915e+000 46642 88875,88509,88803
 8.0000e-001 88852 -5.3592e+000 -1.2232e+001 -2.3144e+000 46642 88613,88803,88639
 8.0000e-001 88901  3.1758e+000 -7.8063e+000  2.3167e+000 46642 88613,88561,88875
 8.0000e-001 88924  1.0970e-001 -6.3120e+000  7.9304e-001 46642 88613,88875,88803
 8.0000e-001 89253 -1.8646e+000 -8.5392e+000  3.8191e+000 46444 89080,89158,89132
 8.0000e-001 89230 -4.5871e+000 -1.5071e+001  4.1025e+000 46444 89028,89158,89080
 8.0000e-001 89207 -3.9617e+000 -1.4692e+001  3.9229e+000 46444 89028,89080,89054
 8.0000e-001 89184 -3.6163e+000 -9.9007e+000  3.0905e+000 46444 89080,89132,89106
 8.0000e-001 89631  5.2566e+000  4.5904e+000 -3.5861e+000 46040 89383,89461,89435
 8.0000e-001 89608  5.8143e+000  7.6276e+000 -4.3113e-001 46040 89383,89487,89461
 8.0000e-001 89585  1.1474e+001  6.8636e+000 -1.7963e+000 46040 89383,89435,89409
 8.0000e-001 89562  7.2510e+000  7.6538e+000 -4.6392e-001 46040 89383,89513,89487
 8.0000e-001 89539  5.7055e+000  7.4211e+000 -1.6456e+000 46040 89357,89513,89383
 8.0000e-001 90009 -8.7671e+000  7.7295e-001  7.5508e-001 45636 89813,89891,89839
 8.0000e-001 89986 -7.5063e+000 -6.4954e-001 -2.1828e+000 45636 89787,89891,89813
 8.0000e-001 89963 -6.6161e+000  2.0069e+000  1.4208e-001 45636 89839,89891,89865
 8.0000e-001 89940 -5.4130e+000  2.2952e+000 -1.2655e+000 45636 89735,89891,89787
 8.0000e-001 89917 -3.8631e+000  4.4040e+000 -2.0477e+000 45636 89735,89787,89761
 8.0000e-001 90208 -3.9496e+000 -6.7220e-001 -3.0187e+000 45175 90231,90058,90032
 8.0000e-001 90185 -4.0801e+000 -1.5635e+000 -8.1393e-001 45175 90231,90032,90136
 8.0000e-001 90162 -2.3747e+000 -2.0605e+000 -3.5392e+000 45175 90058,90110,90084
 8.0000e-001 90257 -2.6744e+000  1.7208e+000 -3.6026e+000 45175 90110,90058,90231
 8.0000e-001 90280 -3.3365e+000  1.8123e-001 -1.2621e+000 45175 90110,90231,90136
 8.0000e-001 90528  1.9493e-001  3.7457e+000  1.4025e+000 44513 90695,90551,90407
 8.0000e-001 90505  8.5651e-001  3.9038e+000  2.7558e+000 44513 90551,90355,90329
 8.0000e-001 90482 -6.8161e-001  3.3141e+000  1.3902e-001 44513 90623,90303,90433
 8.0000e-001 90459  4.4861e+000  1.0660e-001 -2.0561e+000 44513 90695,90407,90381
 8.0000e-001 90577  2.1330e+000  4.3184e+000  2.9268e+000 44513 90433,90407,90551
 8.0000e-001 90600  1.0375e+000  3.0802e+000  6.2728e-001 44513 90623,90433,90551
 8.0000e-001 90649 -9.9177e-001  3.2696e+000  1.2584e+000 44513 90329,90303,90623
 8.0000e-001 90672 -4.4939e-001  2.6968e+000  1.1301e+000 44513 90329,90623,90551
 8.0000e-001 90721 -1.1025e+000 -2.8178e+000  3.4808e+000 44513 90355,90551,90695
 8.0000e-001 90744  2.0626e+000 -7.2287e+000  1.7150e+000 44513 90355,90695,90381
 8.0000e-001 91077  1.8894e+000  1.2611e+000 -7.2871e-003 44059 91100,90930,90904
 8.0000e-001 91054  2.0250e-002  2.7989e-001 -4.0255e-001 44059 91100,90904,90982
 8.0000e-001 91031  8.2243e-001  3.4658e-001 -1.2553e-002 44059 90878,90982,90904
 8.0000e-001 91008  8.5993e-001  1.1950e-001 -2.1747e-001 44059 90852,90982,90878
 8.0000e-001 91126  6.6799e-001  1.6167e+000 -1.2139e+000 44059 91172,91100,90956
 8.0000e-001 91149  1.3288e+000  3.4558e+000  5.4130e-002 44059 90956,91100,90982
 8.0000e-001 91198  1.1294e-001 -2.7311e+000 -3.7185e-001 44059 90930,91100,91172
 8.0000e-001 91677 -9.3220e+000 -9.5819e+000 -1.1614e+000 43549 91455,91533,91481
 8.0000e-001 91654 -1.1976e+001 -1.0911e+001 -1.8437e+000 43549 91429,91533,91455
 8.0000e-001 91631 -8.3639e+000 -9.4890e+000 -3.2741e+000 43549 91481,91533,91507
 8.0000e-001 91608 -1.4744e+001 -1.2062e+001 -9.0005e-001 43549 91429,91559,91533
 8.0000e-001 91585 -1.3832e+001 -1.9496e+001  2.2580e+000 43549 91403,91559,91429
 8.0000e-001 92006  4.1415e+000  9.6279e+000  9.6426e-001 43059 91781,91885,91807
 8.0000e-001 91983  3.7031e+000  9.3093e+000  2.0906e+000 43059 91781,91911,91885
 8.0000e-001 91960 -3.5309e+000  7.3905e+000  1.5500e+000 43059 91807,91885,91833
 8.0000e-001 91937  4.5556e+000  1.0834e+001  1.6857e+000 43059 91833,91885,91859
 8.0000e-001 92561 -9.2609e-001 -5.2915e-001  1.3744e+000 42598 92584,92215,92189
 8.0000e-001 92538 -1.5407e+000  2.4011e+000  2.2667e+000 42598 92656,92584,92189
 8.0000e-001 92515 -2.3960e+000  4.7507e+000  1.0849e+000 42598 92656,92189,92397
 8.0000e-001 92492 -4.1870e+000 -9.1760e-001  1.5201e+000 42598 92241,92319,92293
 8.0000e-001 92469 -3.0015e+000  4.0808e-002  5.5810e-001 42598 92319,92397,92371
 8.0000e-001 92446 -2.5230e+000 -3.8675e-001  1.2909e+000 42598 92319,92371,92345
 8.0000e-001 92423 -8.9121e+000 -1.9473e+000  3.1308e+000 42598 92241,92293,92267
 8.0000e-001 92610 -2.7280e+000 -2.1051e+000 -1.4745e-002 42598 92241,92215,92584
 8.0000e-001 92633 -2.2215e+000 -7.0153e-001  1.7288e+000 42598 92241,92584,92319
 8.0000e-001 92682 -2.3207e+000 -7.4979e-001  1.7596e+000 42598 92319,92584,92656
 8.0000e-001 92705 -3.6825e+000  8.9605e-001  8.7567e-001 42598 92319,92656,92397
 8.0000e-001 92953  4.6903e+000  2.7758e+001 -1.1578e+001 42094 92976,92806,92780
 8.0000e-001 92930 -5.7387e-001  1.1489e+001 -1.1792e+001 42094 92976,92780,92754
 8.0000e-001 92907  2.7442e+000  1.3530e+001 -2.4024e+000 42094 93048,92832,92806
 8.0000e-001 92884  4.2022e+000  8.8717e+000 -5.5028e+000 42094 92728,92858,92754
 8.0000e-001 93002  4.1425e+000  1.8011e+001 -3.4343e+000 42094 93048,92806,92976
 8.0000e-001 93025  4.5220e+000  1.1830e+001 -5.0833e+000 42094 92858,92976,92754
 8.0000e-001 93074  6.2772e+000  1.1353e+001 -6.1447e+000 42094 92858,92832,93048
 8.0000e-001 93097  5.9049e+000  1.3213e+001 -6.3740e+000 42094 92858,93048,92976
 8.0000e-001 93605 -6.9188e+000 -3.0729e+000 -2.6251e+000 41846 93628,93412,93386
 8.0000e-001 93582 -3.1813e+000 -1.6759e-001 -9.0746e-001 41846 93628,93386,93308
 8.0000e-001 93559 -3.9797e+000  6.5813e+000  3.1322e+000 41846 93700,93464,93438
 8.0000e-001 93536 -1.1516e+000  1.6184e+000 -2.2823e+000 41846 93308,93386,93334
 8.0000e-001 93513  2.9378e+000 -1.2497e+000 -8.7804e-001 41846 93334,93386,93360
 8.0000e-001 93490 -1.3094e+000  3.1956e+000  1.2936e-001 41846 93282,93464,93308
 8.0000e-001 93654 -1.5365e+001  1.5631e+000 -8.6391e-001 41846 93438,93412,93628
 8.0000e-001 93677 -6.1810e+000  6.0293e+000  1.0510e+000 41846 93700,93438,93628
 8.0000e-001 93726 -3.8592e+000  3.4806e+000 -2.2612e-001 41846 93308,93464,93700
 8.0000e-001 93749 -6.4791e+000  2.0652e+000 -2.3627e+000 41846 93308,93700,93628
 8.0000e-001 94255 -3.7171e+000  9.8656e+000  1.4337e+000 41385 93958,94114,94088
 8.0000e-001 94232 -5.5699e+000  1.4446e+001  3.6607e+000 41385 93932,94114,93958
 8.0000e-001 94209 -1.3144e+000  1.1238e+001  6.3652e-001 41385 93958,94088,94062
 8.0000e-001 94186 -5.4786e+000  3.7174e+000  2.8706e+000 41385 93958,94062,93984
 8.0000e-001 94163 -7.7919e+000  4.6463e+000  4.7836e+000 41385 93984,94062,94036
 8.0000e-001 94140 -1.2128e+001  2.8008e+000  5.8688e+000 41385 93984,94036,94010
 8.0000e-001 94476 -6.4098e+000  9.9968e+000  9.4809e-001 40881 94326,94378,94352
 8.0000e-001 94453 -1.2657e+001  7.7131e+000 -9.2682e-001 40881 94300,94378,94326
 8.0000e-001 94430 -5.2829e+000  1.1022e+001 -1.9100e+000 40881 94300,94404,94378
 8.0000e-001 94626 -3.9258e+000 -5.2568e-001  1.5830e+000 40591 94649,94551,94525
 8.0000e-001 94603 -8.4991e+000 -1.0116e+000  3.9685e+000 40591 94781,94577,94551
 8.0000e-001 94675 -7.0558e+000 -1.3184e+000  2.2279e+000 40591 94781,94551,94649
 8.0000e-001 94807 -5.3749e+000 -1.1318e+000  3.0888e+000 40591 94499,94577,94781
 8.0000e-001 94830 -3.4344e+000 -1.8727e-001  9.2437e-001 40591 94499,94781,94649
 8.0000e-001 95336 -1.6191e+000  1.0965e+000 -5.9722e-001 40187 95013,95169,95039
 8.0000e-001 95313 -2.3024e+000  2.2891e+000 -2.7419e+000 40187 95013,95195,95169
 8.0000e-001 95290 -2.5330e-001  6.0044e-001  2.8151e-001 40187 95039,95143,95065
 8.0000e-001 95267 -7.5801e-001  5.3529e-001 -6.0193e-001 40187 95039,95169,95143
 8.0000e-001 95244 -4.8085e-001 -1.7301e-001  1.2331e-001 40187 95091,95143,95117
 8.0000e-001 95221 -1.9258e-001 -2.7654e-001  1.7833e-001 40187 95065,95143,95091
 8.0000e-001 95665  1.6763e+000  4.9928e-001  4.9441e-001 39626 95466,95570,95544
 8.0000e-001 95642  1.0873e+000  3.7401e+000  1.0856e-001 39626 95440,95570,95466
 8.0000e-001 95619  7.2114e-001 -8.4014e-002 -2.1356e-001 39626 95466,95544,95492
 8.0000e-001 95596 -8.5066e-001 -4.9540e-001 -4.5617e-001 39626 95492,95544,95518
 8.0000e-001 95913  1.0777e+001  7.5449e+000 -3.1744e-001 39136 96080,95936,95766
 8.0000e-001 95890  1.3838e+001  1.2449e+001 -3.2968e+000 39136 95936,95714,95688
 8.0000e-001 95867  1.7016e+001  1.1787e+001 -4.9800e+000 39136 96008,95792,95766
 8.0000e-001 95844  8.3134e+000  6.4320e+000  6.4475e-002 39136 96080,95766,95740
 8.0000e-001 95962  1.3914e+001  1.2960e+001 -2.2777e+000 39136 96008,95766,95936
 8.0000e-001 95985  1.0482e+001  1.7778e+001 -3.7579e+000 39136 95818,95936,95688
 8.0000e-001 96034  9.3715e+000  8.3941e+000 -6.0357e+000 39136 95818,95792,96008
 8.0000e-001 96057  8.5676e+000  1.0259e+001 -3.3103e+000 39136 95818,96008,95936
 8.0000e-001 96106  1.0353e+001  9.8870e+000 -4.4299e+000 39136 95714,95936,96080
 8.0000e-001 96129  5.6860e+000  7.6294e+000 -3.7167e+000 39136 95714,96080,95740
 8.0000e-001 96350 -9.9093e+000 -6.3720e+000 -1.3207e-001 38824 96200,96278,96252
 8.0000e-001 96327 -1.0101e+001 -6.8937e+000 -6.0141e-001 38824 96174,96278,96200
 8.0000e-001 96304 -1.0237e+001 -4.7697e+000 -1.4715e-001 38824 96200,96252,96226
 8.0000e-001 96830 -6.8608e+000 -2.9150e+000 -3.8779e-001 38320 97069,96536,96484
 8.0000e-001 96807 -6.4815e+000 -3.1805e+000 -4.1188e-001 38320 97069,96484,96853
 8.0000e-001 96784 -5.8819e+000 -2.5077e+000 -1.1958e+000 38320 96853,96484,96458
 8.0000e-001 96761 -8.7803e-001 -5.0092e+000 -2.4719e+000 38320 96925,96640,96614
 8.0000e-001 96738 -4.9952e+000 -6.7340e+000 -2.1778e+000 38320 96997,96666,96640
 8.0000e-001 96715 -5.0952e+000 -6.9908e-001  7.9911e-001 38320 97141,96588,96562
 8.0000e-001 96692 -4.8014e+000 -8.9493e-002 -1.2890e+000 38320 96484,96536,96510
 8.0000e-001 96879 -6.1219e+000 -1.6397e+000  3.9353e-001 38320 97141,96562,96853
 8.0000e-001 96902 -4.8597e+000 -5.2580e+000 -1.6555e+000 38320 96925,96614,96853
 8.0000e-001 96951 -4.5928e+000 -6.3753e+000 -2.4423e+000 38320 96997,96640,96925
 8.0000e-001 96974 -5.8273e+000 -5.3458e+000 -2.0799e+000 38320 96458,96925,96853
 8.0000e-001 97023 -6.7855e+000 -7.4457e+000 -1.2543e+000 38320 96458,96666,96997
 8.0000e-001 97046 -5.4379e+000 -6.7095e+000 -1.5729e+000 38320 96458,96997,96925
 8.0000e-001 97095 -3.8236e+000  3.2466e+000 -1.4599e+000 38320 96562,96536,97069
 8.0000e-001 97118 -6.6628e+000 -2.4666e+000 -4.7468e-001 38320 96562,97069,96853
 8.0000e-001 97167 -1.3617e+000 -2.6540e+000  1.2656e+000 38320 96614,96588,97141
 8.0000e-001 97190 -3.6376e+000 -4.6578e+000  4.2069e-001 38320 96614,97141,96853
 8.0000e-001 97519 -3.5583e+000 -2.2801e+000  9.5401e-001 37766 97542,97398,97372
 8.0000e-001 97496 -2.8369e+000 -3.5084e+000  1.6548e+000 37766 97542,97372,97346
 8.0000e-001 97473 -3.5024e+000 -2.5175e+000  2.9428e+000 37766 97294,97424,97346
 8.0000e-001 97450 -2.8164e+000  5.6330e-001  3.9335e+000 37766 97294,97346,97320
 8.0000e-001 97568 -4.9128e+000 -2.2516e+000  1.8362e+000 37766 97424,97398,97542
 8.0000e-001 97591 -3.8357e+000 -3.5906e+000  2.4784e+000 37766 97424,97542,97346
 8.0000e-001 98048 -1.0640e+001 -6.0855e+000  3.9853e+000 37262 98071,97878,97852
 8.0000e-001 98025 -1.2360e+001 -4.3912e+000  1.3897e+000 37262 98071,97852,97800
 8.0000e-001 98002 -1.1032e+001 -3.3990e+000  4.7301e-001 37262 97800,97852,97826
 8.0000e-001 97979 -1.2243e+001 -5.7043e+000 -9.0367e-001 37262 97800,97930,97904
 8.0000e-001 97956 -9.8305e+000 -5.1792e+000  1.3394e-002 37262 97774,97930,97800
 8.0000e-001 98097 -5.5919e+000 -3.9636e+000  4.1000e+000 37262 97904,97878,98071
 8.0000e-001 98120 -1.0004e+001 -3.8520e+000  1.2940e+000 37262 97904,98071,97800
 8.0000e-001 98449 -3.7648e+000  5.1061e+000  8.7106e-001 36950 98472,98302,98250
 8.0000e-001 98426 -5.4768e+000  4.8974e+000  1.0841e+000 36950 98472,98250,98354
 8.0000e-001 98403 -2.2470e+000  6.3125e+000 -7.7674e-001 36950 98250,98302,98276
 8.0000e-001 98380 -1.0545e+001  4.4492e+000  3.0566e+000 36950 98224,98354,98250
 8.0000e-001 98498 -5.0428e+000  6.0315e+000 -7.7513e-002 36950 98328,98302,98472
 8.0000e-001 98521 -6.9282e+000  5.7211e+000  4.1895e-001 36950 98328,98472,98354
 8.0000e-001 99125  1.4846e+000  3.1240e+000 -3.4970e+000 36296 98704,98756,98730
 8.0000e-001 99102  8.5182e-002  7.2300e+000 -3.1481e+000 36296 98704,98938,98756
 8.0000e-001 99079 -3.6760e+000  1.8864e+001 -5.8068e+000 36296 99148,98938,98912
 8.0000e-001 99056 -1.6389e+000  6.8007e+000 -8.7169e+000 36296 99292,99220,98782
 8.0000e-001 99033 -3.6797e+000  6.8259e+000 -4.7699e+000 36296 99148,98912,98834
 8.0000e-001 99010 -3.7454e+000  3.4591e+000 -7.7078e+000 36296 99292,98782,98756
 8.0000e-001 98987 -4.5082e+000  3.4380e+000 -5.2687e+000 36296 98834,98912,98886
 8.0000e-001 98964 -5.0681e-002 -2.8005e+000 -2.7047e+000 36296 98834,98886,98860
 8.0000e-001 99174 -3.1363e+000  9.9492e+000 -5.0627e+000 36296 99220,98938,99148
 8.0000e-001 99197 -6.6134e+000  1.5203e+000 -2.3052e+000 36296 98808,99148,98834
 8.0000e-001 99246 -6.1062e+000 -3.7426e+000 -1.6481e+001 36296 98808,98782,99220
 8.0000e-001 99269 -9.5734e+000  3.2089e+000 -8.1533e+000 36296 98808,99220,99148
 8.0000e-001 99318 -5.0052e+000  2.1785e+000 -6.1590e+000 36296 98938,99220,99292
 8.0000e-001 99341 -4.7558e+000  2.9020e+000 -5.6592e+000 36296 98938,99292,98756
 8.0000e-001 99719 -3.6371e+000  4.9913e+000  1.3021e-002 35742 99742,99471,99601
 8.0000e-001 99696 -4.0778e+000  2.7196e+000 -1.0041e+000 35742 99445,99601,99471
 8.0000e-001 99673 -3.7504e+000  4.6893e+000 -1.4973e+000 35742 99742,99601,99575
 8.0000e-001 99650 -3.6585e+000  1.6251e+001 -1.9352e+000 35742 99814,99549,99523
 8.0000e-001 99627 -2.8469e+000  9.8250e+000 -3.4625e+000 35742 99471,99523,99497
 8.0000e-001 99768 -5.1023e+000  6.2182e+000 -2.4514e+000 35742 99523,99471,99742
 8.0000e-001 99791 -2.5706e+000  1.2444e+001 -2.3915e+000 35742 99814,99523,99742
 8.0000e-001 99840 -1.7965e+000  1.0877e+001 -5.1571e-001 35742 99575,99549,99814
 8.0000e-001 99863 -1.8871e+000  5.5488e+000 -1.2853e+000 35742 99575,99814,99742
 8.0000e-001 100111 -2.7561e+000  8.0636e-001 -4.4963e+000 35302 100134,99990,99938
 8.0000e-001 100088 -6.6585e+000 -2.3835e+000 -1.4665e+000 35302 100134,99938,99912
 8.0000e-001 100065 -6.5111e+000 -1.0800e+001  2.3916e+000 35302 100206,99886,100016
 8.0000e-001 100042  3.1525e+000  1.6804e+000 -2.8024e+000 35302 99938,99990,99964
 8.0000e-001 100160 -5.2770e+000  2.2257e-001  1.3185e+000 35302 100016,99990,100134
 8.0000e-001 100183 -7.6157e+000 -7.6785e+000  2.8127e+000 35302 100206,100016,100134
 8.0000e-001 100232 -8.9343e+000 -7.0592e+000 -1.3013e+000 35302 99912,99886,100206
 8.0000e-001 100255 -8.7690e+000 -2.0581e+000 -3.0177e-001 35302 99912,100206,100134
 8.0000e-001 100586 -1.6407e+000  3.5836e-001 -1.7182e+000 35012 100609,100387,100361
 8.0000e-001 100563 -1.6317e-001 -6.3892e-002  7.8796e-001 35012 100609,100361,100465
 8.0000e-001 100540 -5.4750e-001 -7.5767e-001  9.5175e-001 35012 100361,100491,100465
 8.0000e-001 100517 -5.1902e+000  2.1434e+000  2.0571e+000 35012 100413,100465,100439
 8.0000e-001 100635 -4.5971e+000 -8.8768e-001 -2.1553e+000 35012 100413,100387,100609
 8.0000e-001 100658 -2.9217e+000 -1.0376e+000  4.8902e-001 35012 100413,100609,100465
 8.0000e-001 100987 -5.1046e+000  3.3051e+000 -9.1193e+000 34700 100788,100866,100814
 8.0000e-001 100964  1.1484e+001  2.4449e+000 -6.4309e+000 34700 101010,100866,100788
 8.0000e-001 100941  1.7978e+000  1.1742e+000 -3.0864e+000 34700 100762,100892,100866
 8.0000e-001 100918 -1.8884e+000  7.1986e+000  1.7751e+000 34700 100814,100866,100840
 8.0000e-001 101036  3.5407e+000  1.1307e+000 -2.7357e+000 34700 100762,100866,101010
 8.0000e-001 101493  2.0169e+000  3.2416e+000 -5.3718e-001 34132 101516,101349,101297
 8.0000e-001 101470  3.1882e+000  6.6193e+000  2.0072e-001 34132 101588,101516,101297
 8.0000e-001 101447  1.2656e+000  3.0796e+000  1.4713e+000 34132 101588,101297,101245
 8.0000e-001 101424  2.2258e+000  2.2670e+000  1.5101e+000 34132 101245,101297,101271
 8.0000e-001 101401 -2.4723e-001  3.1368e+000 -1.4531e+000 34132 101297,101349,101323
 8.0000e-001 101542 -1.1909e+000  6.2083e+000  3.4987e-001 34132 101375,101349,101516
 8.0000e-001 101565  2.1388e+000  1.2420e+001  3.7203e+000 34132 101375,101516,101219
 8.0000e-001 101614  1.3543e+000  3.9091e+000  2.7914e+000 34132 101219,101516,101588
 8.0000e-001 101637  1.2381e+000  2.0595e+000  3.7207e+000 34132 101219,101588,101245
 8.0000e-001 101858 -1.1199e+001 -2.5199e+000 -9.2479e-001 33720 101708,101786,101760
 8.0000e-001 101835 -1.0225e+001 -9.4576e-001 -5.1200e-001 33720 101682,101786,101708
 8.0000e-001 101812 -9.3809e+000 -1.6440e+000 -6.2782e-001 33720 101708,101760,101734
 8.0000e-001 102128 -8.5265e+000  4.4610e+000  8.6396e-001 33130 101903,102007,101929
 8.0000e-001 102105 -6.1814e+000  7.9240e+000 -6.0721e-001 33130 101903,102033,102007
 8.0000e-001 102082 -5.2734e+000  7.9019e+000  3.1233e+000 33130 101929,102007,101955
 8.0000e-001 102059 -5.1231e+000  3.4563e+000  1.5889e-001 33130 101955,102007,101981
 8.0000e-001 102461 -6.2059e+000  6.8373e-001  1.0778e+000 32840 102236,102340,102262
 8.0000e-001 102438 -6.8427e+000 -4.1146e+000 -1.4512e+000 32840 102236,102366,102340
 8.0000e-001 102415 -9.7959e+000 -4.0975e-001  9.4768e-001 32840 102262,102340,102288
 8.0000e-001 102392 -4.2532e+000  7.1689e-001  4.2428e+000 32840 102288,102340,102314
 8.0000e-001 102997  2.4334e+000  2.5356e+000  3.0589e-001 32493 102749,102879,102853
 8.0000e-001 102974  2.3305e+000  3.8344e+000  3.0565e+000 32493 102723,102879,102749
 8.0000e-001 102951  3.2705e+000  2.6978e+000 -1.6454e-001 32493 102749,102801,102775
 8.0000e-001 102928  2.4506e+000  2.1206e+000  8.8465e-002 32493 102749,102853,102801
 8.0000e-001 102905  3.0620e+000  2.9336e+000 -5.3258e-001 32493 102801,102853,102827
 8.0000e-001 103454 -1.5411e+001 -2.9743e+000  1.4256e-001 32089 103206,103336,103310
 8.0000e-001 103431 -1.4595e+001 -2.1632e+000  5.8101e-001 32089 103180,103336,103206
 8.0000e-001 103408 -8.1343e+000  1.4557e+000  2.4493e+000 32089 103206,103284,103258
 8.0000e-001 103385 -5.4115e+000  2.3726e+000  2.3854e+000 32089 103206,103310,103284
 8.0000e-001 103362 -1.0371e+001 -3.8718e+000  2.2643e+000 32089 103206,103258,103232
 8.0000e-001 103783  8.1083e-001  9.0860e+000 -1.7111e+000 31742 103558,103662,103584
 8.0000e-001 103760  9.3254e-002  7.6488e+000 -1.3545e+000 31742 103558,103688,103662
 8.0000e-001 103737 -4.7559e+000  4.6488e+000  4.7991e-001 31742 103584,103662,103636
 8.0000e-001 103714 -5.9732e+000  5.0096e+000  1.1451e+000 31742 103584,103636,103610
 8.0000e-001 104112 -9.7638e+000  2.5318e+000  1.7189e-001 31402 103939,103991,103965
 8.0000e-001 104089 -1.0209e+001  9.6580e-001  4.2389e-002 31402 103913,103991,103939
 8.0000e-001 104066 -5.7091e+000  5.1810e+000  2.2689e+000 31402 103913,104017,103991
 8.0000e-001 104043 -5.2607e+000  3.6683e+000  2.7158e+000 31402 103887,104017,103913
 8.0000e-001 104569 -3.8125e+000  3.5834e+000  3.9508e+000 30998 104321,104425,104373
 8.0000e-001 104546 -4.1119e+000  3.5854e+000  3.7547e+000 30998 104321,104451,104425
 8.0000e-001 104523 -2.3486e+000  4.6080e+000  4.4115e+000 30998 104373,104425,104399
 8.0000e-001 104500 -9.8266e+000  5.9628e+000  4.9990e+000 30998 104295,104451,104321
 8.0000e-001 104477 -1.4071e+000  7.2097e+000  2.4135e+000 30998 104321,104373,104347
 8.0000e-001 104947  2.6951e+000  1.1774e+001  9.7209e-001 30608 104751,104803,104777
 8.0000e-001 104924 -9.3664e+000 -3.8252e-001 -4.1064e+000 30608 104725,104803,104751
 8.0000e-001 104901 -1.1207e+001 -3.1125e+000 -6.2861e+000 30608 104699,104803,104725
 8.0000e-001 104878  8.3982e+000 -1.2209e+000  1.4977e+000 30608 104673,104803,104699
 8.0000e-001 104855  9.2302e+000  4.3505e+000  2.3693e+000 30608 104673,104829,104803
 8.0000e-001 105276 -1.0980e+000  2.9145e+000  1.8902e+000 30204 105427,105129,105077
 8.0000e-001 105253 -1.9174e+000  3.7096e+000  7.6948e-001 30204 105427,105077,105051
 8.0000e-001 105230 -2.9723e+000 -1.0892e+000 -2.2454e-001 30204 105077,105129,105103
 8.0000e-001 105207 -4.8966e-001  7.4018e-001  4.5495e-001 30204 105299,105181,105155
 8.0000e-001 105325  1.1595e+000  1.1320e+000  1.4736e+000 30204 105129,105181,105299
 8.0000e-001 105453 -5.6906e-001  3.3484e+000  1.1698e+000 30204 105181,105129,105427
 8.0000e-001 105476  5.6446e-002  4.8046e+000 -1.2390e-001 30204 105181,105427,105051
 8.0000e-001 105903 -1.0440e+001 -6.3293e+000  1.1306e+000 29700 105606,105762,105736
 8.0000e-001 105880 -9.5402e+000 -4.3612e+000  6.3514e+000 29700 105580,105762,105606
 8.0000e-001 105857 -3.7623e+000 -5.0929e+000  1.1819e+000 29700 105606,105710,105632
 8.0000e-001 105834 -5.6245e+000 -3.2947e+000 -7.0163e-001 29700 105606,105736,105710
 8.0000e-001 105811  1.0122e+000  1.5300e-001 -1.0515e+000 29700 105632,105710,105684
 8.0000e-001 105788  8.0995e-001 -2.5663e-001 -1.1831e-001 29700 105632,105684,105658
 8.0000e-001 106102  7.4452e+000 -3.9718e+000  2.2712e+000 29124 105978,106030,106004
 8.0000e-001 106079  1.4594e+001  2.4202e-001  4.1527e+000 29124 105926,106030,105978
 8.0000e-001 106056  1.4092e+001  8.9489e+000 -9.2806e+000 29124 105926,105978,105952
 8.0000e-001 106301 -5.2063e+000  1.9070e+000 -8.1858e-001 28712 106151,106229,106203
 8.0000e-001 106278 -2.8450e+000  3.0088e+000 -3.9457e-001 28712 106125,106229,106151
 8.0000e-001 106255 -7.6488e+000  1.5753e+000 -1.3518e+000 28712 106151,106203,106177
 8.0000e-001 106551  2.8448e+000 -1.3575e+000  3.4281e+000 28258 106352,106404,106378
 8.0000e-001 106528  4.1157e+000  1.7310e+000 -1.4550e-002 28258 106352,106456,106404
 8.0000e-001 106505  1.7766e+000  6.7841e+000  1.9276e+000 28258 106326,106456,106352
 8.0000e-001 106482 -5.4732e-001 -5.0986e+000  3.1678e+000 28258 106404,106456,106430
 8.0000e-001 107012  5.3803e-001  8.7582e+000 -1.4627e+000 27818 107035,106790,106764
 8.0000e-001 106989  1.2982e+000  1.0696e+001 -1.2073e+000 27818 107035,106764,106868
 8.0000e-001 106966 -4.3098e+000  2.6771e+001 -4.3072e+000 27818 107107,106842,106816
 8.0000e-001 106943 -1.4279e+000  5.8094e+000  9.9810e-001 27818 106738,106868,106764
 8.0000e-001 106920 -1.6941e+000  5.0351e+000  7.4934e-001 27818 106738,106894,106868
 8.0000e-001 107061 -3.9625e-001  1.1648e+001 -4.5968e+000 27818 106816,106790,107035
 8.0000e-001 107084  2.5730e+000  1.9885e+001 -4.6367e+000 27818 107107,106816,107035
 8.0000e-001 107133 -1.0126e+001  1.7658e+001 -6.1249e-002 27818 106868,106842,107107
 8.0000e-001 107156 -3.6339e+000  8.8160e+000 -1.0446e+000 27818 106868,107107,107035
 8.0000e-001 107613 -1.7365e+001 -2.3508e+000 -3.8740e+000 27312 107339,107469,107365
 8.0000e-001 107590 -1.0978e+001 -6.5253e-001 -4.3362e+000 27312 107339,107495,107469
 8.0000e-001 107567 -1.4439e+001  4.8148e+000 -6.3906e+000 27312 107391,107469,107443
 8.0000e-001 107544 -1.1451e+001 -9.0503e-001 -7.1163e+000 27312 107365,107469,107391
 8.0000e-001 107521 -2.2453e+001  6.4195e-001 -4.3381e+000 27312 107391,107443,107417
 8.0000e-001 107991 -7.0274e+000  2.9595e+000 -1.3894e+000 26858 108086,108014,107795
 8.0000e-001 107968 -6.8118e+000  2.1974e+000 -6.9731e-001 26858 108014,107717,107873
 8.0000e-001 107945 -7.4312e+000  2.6682e+000 -1.0921e+000 26858 108158,108086,107795
 8.0000e-001 107922 -7.8092e+000  2.9149e+000 -1.1683e+000 26858 108158,107795,107769
 8.0000e-001 107899 -4.1369e+000  1.2707e+001 -1.6303e+000 26858 107821,107873,107847
 8.0000e-001 108040 -5.9074e+000  9.2927e+000 -2.0969e+000 26858 107821,107795,108014
 8.0000e-001 108063 -7.9180e+000  3.7672e+000 -1.0240e+000 26858 107821,108014,107873
 8.0000e-001 108112 -6.9127e+000  3.3587e+000 -1.5860e-002 26858 107717,108014,108086
 8.0000e-001 108135 -7.5088e+000  1.5405e+000 -1.0247e-001 26858 107717,108086,107743
 8.0000e-001 108184 -7.8022e+000  2.2685e+000 -1.2460e+000 26858 107743,108086,108158
 8.0000e-001 108207 -8.0438e+000  2.6120e+000 -1.2777e+000 26858 107743,108158,107769
 8.0000e-001 108634 -5.4978e+000 -4.3696e+000  6.1095e+000 26404 108657,108415,108363
 8.0000e-001 108611 -1.4890e+000  6.6538e+000  8.2917e+000 26404 108657,108363,108337
 8.0000e-001 108588 -1.0288e+001  4.1030e-001  2.5616e+000 26404 108729,108311,108467
 8.0000e-001 108565  3.0544e-001 -1.2961e+000  2.8848e+000 26404 108801,108441,108415
 8.0000e-001 108542 -5.4115e+000  3.4583e+000 -7.2541e-001 26404 108311,108493,108467
 8.0000e-001 108519  5.8694e+000 -4.7297e+000  6.0446e+000 26404 108363,108415,108389
 8.0000e-001 108683 -1.3759e+000 -1.2867e-001  3.1827e+000 26404 108801,108415,108657
 8.0000e-001 108706 -2.5759e+000  1.0551e+000  3.4198e+000 26404 108729,108467,108657
 8.0000e-001 108755 -1.4638e+001  2.0932e+000  2.8209e+000 26404 108337,108311,108729
 8.0000e-001 108778 -1.0801e+001 -1.4336e-001  4.1787e+000 26404 108337,108729,108657
 8.0000e-001 108827 -1.9848e+000 -2.5289e+000  2.1712e+000 26404 108467,108441,108801
 8.0000e-001 108850 -3.6208e+000 -1.1410e+000  2.7530e+000 26404 108467,108801,108657
 8.0000e-001 109228  3.8056e+000  1.5728e+001  4.3214e+000 26064 109006,109084,109058
 8.0000e-001 109205 -5.0698e-001  1.3219e+001  3.0886e+000 26064 108980,109084,109006
 8.0000e-001 109182  1.2104e+000  1.3057e+001  3.7934e+000 26064 108980,109110,109084
 8.0000e-001 109159  4.9911e+000  1.3168e+001  6.3795e+000 26064 109006,109058,109032
 8.0000e-001 109136  1.9075e+000  6.5442e+000  2.0052e+000 26064 108954,109110,108980
 8.0000e-001 109427  5.6569e+000  1.3963e+001  2.6056e+000 25660 109303,109355,109329
 8.0000e-001 109404  3.5419e+000  7.4870e+000 -3.1254e+000 25660 109277,109355,109303
 8.0000e-001 109381  1.5939e+001  6.5198e+000 -3.2856e+000 25660 109251,109355,109277
 8.0000e-001 109577 -1.3808e+001 -8.0679e+000 -4.1701e+000 25306 109476,109528,109502
 8.0000e-001 109554 -1.7979e+001 -8.2350e+000 -2.0754e+000 25306 109450,109528,109476
 8.0000e-001 109778 -6.7072e+000  6.0763e+000 -1.7753e-001 24944 109628,109706,109654
 8.0000e-001 109755 -8.3496e+000  8.6350e+000 -1.7833e+000 24944 109602,109706,109628
 8.0000e-001 109732 -7.8007e+000  4.7698e+000  9.5658e-001 24944 109654,109706,109680
 8.0000e-001 110126 -1.0885e+001 -1.2482e+000 -1.2093e+000 24440 110149,109907,109855
 8.0000e-001 110103 -1.0184e+001 -1.5744e+000 -9.7209e-001 24440 110149,109855,109985
 8.0000e-001 110080 -1.1966e+001 -2.3682e+000 -5.7883e-001 24440 109855,109907,109881
 8.0000e-001 110057 -1.2286e+001 -4.1715e+000 -2.8301e+000 24440 109829,109985,109855
 8.0000e-001 110034 -9.4797e+000 -1.8148e+000 -1.0649e+000 24440 109907,109959,109933
 8.0000e-001 110011 -1.0354e+001 -2.5021e+000  8.5548e-001 24440 109803,109985,109829
 8.0000e-001 110175 -1.0518e+001 -1.0830e+000 -8.0939e-001 24440 109959,109907,110149
 8.0000e-001 110198 -9.5223e+000 -1.1738e+000 -5.5143e-001 24440 109959,110149,109985
 8.0000e-001 110301 -1.4828e+001 -3.4377e+000 -1.7954e-001 24028 110223,110275,110249
 8.0000e-001 110573 -7.0696e+000  9.5826e+000 -3.5193e-001 23467 110400,110452,110426
 8.0000e-001 110550 -8.6937e+000  6.8941e+000 -1.0489e+000 23467 110374,110452,110400
 8.0000e-001 110527 -5.3387e+000  8.3204e+000 -1.5411e+000 23467 110348,110452,110374
 8.0000e-001 110504 -6.1669e+000  5.8178e+000 -8.5503e-001 23467 110348,110478,110452
 8.0000e-001 111004  6.9279e+000  6.1775e+000 -1.4517e+001 22963 111027,110733,110707
 8.0000e-001 110981 -3.6305e+000  4.3067e+000 -6.4525e+000 22963 111027,110707,110681
 8.0000e-001 110958 -1.0335e+001  2.5966e+000 -4.2074e+000 22963 111099,110759,110733
 8.0000e-001 110935 -2.9482e+000  9.6198e+000 -6.2915e+000 22963 111171,110863,110811
 8.0000e-001 110912 -2.6720e+001  1.3808e+001 -2.3385e+000 22963 110759,110811,110785
 8.0000e-001 110889 -8.2202e+000  2.1710e+001  5.9197e+000 22963 110811,110863,110837
 8.0000e-001 111053 -1.0359e-001  1.0486e+001 -8.9038e+000 22963 111099,110733,111027
 8.0000e-001 111076 -1.5806e+000  4.5514e+000 -5.4147e+000 22963 111171,110811,111027
 8.0000e-001 111125 -1.1113e+001  3.2379e-001  1.1027e+000 22963 110811,110759,111099
 8.0000e-001 111148 -9.8881e+000 -1.2239e+000 -1.9875e+000 22963 110811,111099,111027
 8.0000e-001 111197 -3.0263e+000  1.7795e+001 -7.4275e+000 22963 110681,110863,111171
 8.0000e-001 111220 -3.6068e+000  1.1779e+001 -4.2904e+000 22963 110681,111171,111027
 8.0000e-001 111726  3.7935e+000  9.9404e-001 -4.4109e+000 22459 111749,111507,111429
 8.0000e-001 111703 -2.3595e+000 -7.2774e-001  4.7406e+000 22459 111749,111429,111585
 8.0000e-001 111680 -2.0807e+001  1.7353e+001  1.2756e+000 22459 111403,111585,111429
 8.0000e-001 111657  4.5769e+000  1.4798e+001 -1.0767e+001 22459 111507,111559,111533
 8.0000e-001 111634  5.9331e-001  2.5797e+001 -4.0614e+000 22459 111455,111507,111481
 8.0000e-001 111611 -1.2533e+001  2.2426e+001  1.0743e-001 22459 111429,111507,111455
 8.0000e-001 111775  5.0463e+000  1.4767e+001 -1.0798e+001 22459 111559,111507,111749
 8.0000e-001 111798 -2.0733e+000  5.7198e+000 -2.0508e+000 22459 111559,111749,111585
 8.0000e-001 112046 -7.8010e-001  8.9435e+000  2.4592e-001 21898 112069,111925,111873
 8.0000e-001 112023 -1.1682e+000  7.0699e+000  3.1292e+000 21898 112069,111873,111847
 8.0000e-001 112000 -1.1284e+001  1.0877e+001  5.6660e+000 21898 111821,111951,111847
 8.0000e-001 111977 -2.5652e+000  4.5589e+000 -1.1201e+000 21898 111873,111925,111899
 8.0000e-001 112095 -4.5924e+000  7.0144e+000  1.2169e+000 21898 111951,111925,112069
 8.0000e-001 112118 -3.1707e+000  6.0379e+000  3.9203e+000 21898 111951,112069,111847
 8.0000e-001 112498  8.2523e+000  6.5304e+000 -5.1859e+000 21608 112521,112276,112224
 8.0000e-001 112475  1.0126e+001  7.3285e+000 -5.3253e+000 21608 112521,112224,112380
 8.0000e-001 112452  8.4707e+000  2.6327e+000 -9.8767e-001 21608 112302,112380,112354
 8.0000e-001 112429  4.7760e+000  4.2383e+000 -3.6122e+000 21608 112224,112276,112250
 8.0000e-001 112406  2.6305e+000  1.9551e+000 -5.9612e-001 21608 112302,112354,112328
 8.0000e-001 112547  9.6774e+000  5.2773e+000 -3.6747e+000 21608 112302,112276,112521
 8.0000e-001 112570  1.1791e+001  6.2501e+000 -4.0666e+000 21608 112302,112521,112380
 8.0000e-001 112948 -2.9526e+001 -4.6392e+000  6.5936e+000 20882 112971,112752,112700
 8.0000e-001 112925 -1.9379e+001 -1.1298e+000  4.7655e+000 20882 112971,112700,112830
 8.0000e-001 112902 -1.4897e+001 -2.7894e+000  9.7872e+000 20882 112778,112830,112804
 8.0000e-001 112879 -2.1492e+001 -8.7507e+000  4.6763e+000 20882 112674,112830,112700
 8.0000e-001 112856 -2.2785e+001  5.1584e+000  3.5326e+000 20882 112700,112752,112726
 8.0000e-001 112997 -2.9730e+001 -4.3807e+000  1.2303e+001 20882 112778,112752,112971
 8.0000e-001 113020 -2.4033e+001 -2.6944e+000  1.0242e+001 20882 112778,112971,112830
 8.0000e-001 113526 -6.9358e+000 -2.0252e+000 -1.5490e+000 20428 113255,113385,113333
 8.0000e-001 113503 -6.7916e+000 -1.5751e+000 -1.5484e+000 20428 113229,113385,113255
 8.0000e-001 113480 -1.3843e+001 -7.9201e-001 -8.3830e-001 20428 113255,113333,113281
 8.0000e-001 113457 -6.4948e+000 -3.9997e+000 -2.8250e+000 20428 113203,113385,113229
 8.0000e-001 113434 -8.1201e+000 -1.5102e+000  7.2412e-001 20428 113281,113333,113307
 8.0000e-001 113411 -5.4862e+000 -4.8273e+000 -1.5743e+000 20428 113333,113385,113359
 8.0000e-001 113774 -1.0465e+001 -3.9768e+000  1.0198e+000 19917 113797,113601,113549
 8.0000e-001 113751 -1.1072e+001 -6.2716e+000  1.8901e+000 19917 113869,113797,113549
 8.0000e-001 113728 -1.1529e+001 -6.5436e+000  2.1395e+000 19917 113869,113549,113679
 8.0000e-001 113705 -1.0180e+001 -5.7178e+000 -1.0649e-001 19917 113549,113601,113575
 8.0000e-001 113823 -1.0477e+001 -5.1173e-001  8.0356e-001 19917 113627,113601,113797
 8.0000e-001 113846 -9.9479e+000 -3.3337e+000 -4.2967e-001 19917 113627,113797,113653
 8.0000e-001 113895 -1.1611e+001 -3.9798e+000 -6.2105e-001 19917 113653,113797,113869
 8.0000e-001 113918 -1.5008e+001 -5.5573e+000 -2.9496e-002 19917 113653,113869,113679
 8.0000e-001 114166  1.1913e+001  1.2320e+001 -9.8335e-001 19413 113993,114045,114019
 8.0000e-001 114143  1.5594e+001  1.1310e+001 -9.0664e-001 19413 113967,114045,113993
 8.0000e-001 114120  1.0567e+001  8.9149e+000  1.1149e+000 19413 113967,114071,114045
 8.0000e-001 114097  1.7224e+001  1.0159e+001  1.3277e+000 19413 113941,114071,113967
 8.0000e-001 114438 -1.5386e+000 -1.4204e+000 -5.2358e-003 19001 114213,114265,114239
 8.0000e-001 114415 -4.5174e+000 -5.3904e+000  1.6016e+000 19001 114213,114343,114265
 8.0000e-001 114392 -2.9549e+000 -6.9392e-001  3.1573e-001 19001 114265,114343,114317
 8.0000e-001 114369 -2.2533e-001  1.7809e-001 -4.3449e-002 19001 114265,114317,114291
 8.0000e-001 114639 -1.3903e+000  9.8829e-001  1.9148e+000 18554 114489,114541,114515
 8.0000e-001 114616 -6.5358e+000  3.5531e+000  1.9071e+000 18554 114489,114567,114541
 8.0000e-001 114593 -1.1337e+001  6.0812e+000  1.4319e+000 18554 114463,114567,114489
 8.0000e-001 115043  8.0192e+000  9.8900e+000 -1.6189e+000 18164 114795,114925,114821
 8.0000e-001 115020  6.3805e+000  9.9075e+000 -2.6201e+000 18164 114769,114925,114795
 8.0000e-001 114997  7.0865e+000  5.9054e+000 -1.8932e+000 18164 115066,114873,114821
 8.0000e-001 114974  8.0753e+000  9.2890e+000 -1.8570e+000 18164 115066,114821,114925
 8.0000e-001 114951  6.1244e+000  5.6122e+000 -1.8063e+000 18164 114821,114873,114847
 8.0000e-001 115092  5.1696e+000  8.4165e+000 -3.8206e+000 18164 114899,114873,115066
 8.0000e-001 115115  7.1871e+000  1.3527e+001 -3.8094e+000 18164 114899,115066,114925
 8.0000e-001 115265 -1.3403e+001 -3.5154e+000 -8.8496e-001 17852 115164,115216,115190
 8.0000e-001 115242 -1.0899e+001  1.1287e+000  2.5442e-001 17852 115138,115216,115164
 8.0000e-001 115464 -2.9027e+001 -8.9700e+000 -4.1308e+000 17346 115288,115366,115340
 8.0000e-001 115441 -6.9586e+000 -9.5914e+000 -6.1338e+000 17346 115288,115392,115366
 8.0000e-001 115418 -1.6965e+001 -4.5678e+000 -2.0578e+000 17346 115288,115340,115314
 8.0000e-001 115736 -8.3504e+000 -3.5072e-001 -1.0260e+000 16942 115563,115641,115615
 8.0000e-001 115713 -8.3943e+000  5.9257e-001 -1.2956e+000 16942 115511,115641,115563
 8.0000e-001 115690 -4.0562e+000  1.9463e+000  3.3857e-001 16942 115563,115615,115589
 8.0000e-001 115667 -9.0735e+000  1.0194e+000 -8.4491e-001 16942 115511,115563,115537
 8.0000e-001 116091 -3.5854e+000 -1.9949e+000  1.2119e+000 16388 115918,115970,115944
 8.0000e-001 116068  2.3515e-001 -4.0500e+000  3.9017e+000 16388 115918,115996,115970
 8.0000e-001 116045  5.1490e+000 -9.2520e+000  2.4983e+000 16388 115892,115996,115918
 8.0000e-001 116022  2.1532e+000 -1.9419e+000  7.7581e-001 16388 115866,115996,115892
 8.0000e-001 116192 -1.4701e+000 -5.8547e-001 -1.5286e+000 15810 116114,116166,116140
 8.0000e-001 116342 -7.2750e+000 -9.5465e-001 -1.8529e-001 15419 116241,116293,116267
 8.0000e-001 116319 -1.0458e+000 -1.3094e+000  1.7176e-002 15419 116215,116293,116241
 8.0000e-001 116445  5.4691e+000  1.7635e+001 -4.6424e+000 421 116367,116419,116393
 9.0000e-001 68477  5.2451e+000  4.5773e+000  1.1003e+000 68018 68327,68379,68353
 9.0000e-001 68454  5.5607e+000  5.8823e+000  7.0613e-001 68018 68301,68379,68327
 9.0000e-001 68431  8.2072e+000  4.6045e+000  1.7222e+000 68018 68301,68405,68379
 9.0000e-001 68578  2.3457e+000  9.6025e-001  1.5279e-001 67820 68500,68552,68526
 9.0000e-001 68728  2.3759e-001  1.1148e-001  2.6841e-002 67508 68601,68653,68627
 9.0000e-001 68705  3.7392e-001 -1.2833e-001  1.0679e-001 67508 68601,68679,68653
 9.0000e-001 68927  9.5518e+000  5.7524e+000 -1.3250e+000 67310 68777,68829,68803
 9.0000e-001 68904  4.9881e+000  5.3145e+000  2.8873e-001 67310 68751,68829,68777
 9.0000e-001 68881  5.4143e+000  4.8707e+000  6.9673e-001 67310 68751,68855,68829
 9.0000e-001 69386  3.5815e+000  5.3425e+000 -2.3848e+000 67020 69216,69268,69242
 9.0000e-001 69363  6.3368e+000  7.0874e+000 -4.4110e-002 67020 69138,69268,69216
 9.0000e-001 69340  7.8714e+000  7.8303e+000  2.0253e-001 67020 69112,69268,69138
 9.0000e-001 69317  4.3645e+000  6.6565e+000 -2.0634e+000 67020 69138,69190,69164
 9.0000e-001 69294  5.2900e+000  6.1521e+000  4.0326e-001 67020 69138,69216,69190
 9.0000e-001 69536  3.9562e+000  8.4612e-001  1.8182e+000 66708 69435,69487,69461
 9.0000e-001 69513  9.4907e+000  5.6195e+000 -3.3416e-001 66708 69409,69487,69435
 9.0000e-001 69735 -1.2980e+000 -1.3170e+000  2.2775e-001 66346 69585,69637,69611
 9.0000e-001 69712 -1.2662e+000 -2.6968e+000  4.6513e-001 66346 69559,69637,69585
 9.0000e-001 69689 -7.2526e-001 -1.0263e+000  8.4631e-001 66346 69559,69663,69637
 9.0000e-001 69985 -3.2399e+000 -8.4596e-001  2.2122e+000 66148 69786,69890,69864
 9.0000e-001 69962 -2.3225e+000  7.3757e-001  4.5674e-001 66148 69760,69890,69786
 9.0000e-001 69939 -1.1083e+001  5.8697e+000  1.3784e+001 66148 69786,69864,69838
 9.0000e-001 69916 -4.3347e+000  1.0700e+001  4.6970e+000 66148 69786,69838,69812
 9.0000e-001 70137  4.4123e+000  4.5480e+000 -2.9928e-001 65950 70036,70088,70062
 9.0000e-001 70114  3.8798e+000  4.1581e+000 -9.8383e-002 65950 70010,70088,70036
 9.0000e-001 70470  3.0940e+000  2.4445e+000  7.0046e-001 65546 70245,70323,70271
 9.0000e-001 70447  4.1263e+000  4.0124e+000  1.0057e-001 65546 70245,70375,70323
 9.0000e-001 70424  4.2459e+000  2.2239e+000  4.9043e-001 65546 70323,70375,70349
 9.0000e-001 70401  3.0950e+000  1.6977e+000  1.1967e+000 65546 70271,70323,70297
 9.0000e-001 70620 -1.2681e+000  5.9659e+000 -7.0381e-001 65348 70493,70545,70519
 9.0000e-001 70597  5.3106e+000  1.0816e+001  1.5403e+000 65348 70493,70571,70545
 9.0000e-001 70721  6.0847e+000  6.9051e+000 -2.6108e-001 65150 70643,70695,70669
 9.0000e-001 71020  4.2587e+000  4.7322e+000 -1.3626e+000 64952 71043,70850,70824
 9.0000e-001 70997  3.7238e+000  3.2454e+000 -1.4939e+000 64952 71043,70824,70772
 9.0000e-001 70974  4.2186e+000  4.3567e+000 -6.3738e-001 64952 71115,70746,70876
 9.0000e-001 70951  3.4712e+000  4.9420e+000  1.8106e-001 64952 70746,70902,70876
 9.0000e-001 70928  3.9264e+000  2.8520e+000 -1.2265e+000 64952 70772,70824,70798
 9.0000e-001 71069  3.8134e+000  4.7573e+000 -8.5875e-001 64952 70876,70850,71043
 9.0000e-001 71092  3.6763e+000  4.4359e+000 -8.6801e-001 64952 71115,70876,71043
 9.0000e-001 71141  4.7630e+000  4.3729e+000 -5.6648e-001 64952 70772,70746,71115
 9.0000e-001 71164  4.4380e+000  4.5504e+000 -8.7727e-001 64952 70772,71115,71043
 9.0000e-001 71365  7.1161e-001  6.4258e+000  2.2954e-001 64662 71215,71293,71267
 9.0000e-001 71342 -3.6074e-001  4.8080e+000  7.8660e-001 64662 71189,71293,71215
 9.0000e-001 71319 -2.7584e-001  3.6557e+000  2.5068e-001 64662 71215,71267,71241
 9.0000e-001 71615  1.0547e+001  1.1102e+001  6.4426e-001 64350 71710,71638,71468
 9.0000e-001 71592  1.2892e+001  1.0287e+001  3.7383e-001 64350 71638,71416,71390
 9.0000e-001 71569  1.0414e+001  1.0387e+001  1.1433e-001 64350 71710,71468,71442
 9.0000e-001 71546  1.7380e+001  9.2329e+000 -2.3354e+000 64350 71390,71520,71494
 9.0000e-001 71664  1.2457e+001  1.1650e+001  1.4935e+000 64350 71494,71468,71638
 9.0000e-001 71687  1.1113e+001  8.9848e+000  9.7386e-001 64350 71494,71638,71390
 9.0000e-001 71736  1.0949e+001  9.6531e+000 -2.4839e-001 64350 71416,71638,71710
 9.0000e-001 71759  9.8619e+000  8.5715e+000 -1.0210e+000 64350 71416,71710,71442
 9.0000e-001 72318  1.9261e+000  4.9946e+000  5.9047e+000 63837 71972,72024,71998
 9.0000e-001 72295 -1.6083e+000  4.2663e+000  4.4415e+000 63837 72341,71972,71946
 9.0000e-001 72272 -1.5915e+000  3.6048e+000  4.0942e+000 63837 72413,72341,71946
 9.0000e-001 72249 -5.3119e+000  4.3210e+000  4.3547e+000 63837 72413,71946,72128
 9.0000e-001 72226  5.0271e-001  1.7440e+000  1.7853e+000 63837 72024,72076,72050
 9.0000e-001 72203  8.3432e-001  9.3681e-001  2.3561e+000 63837 72024,72102,72076
 9.0000e-001 72180  1.8923e-001  6.9964e+000  2.7538e+000 63837 71946,72154,72128
 9.0000e-001 72367 -1.0321e+000  4.8499e+000  6.2577e+000 63837 72024,71972,72341
 9.0000e-001 72390 -2.1684e+000  3.4860e+000  4.0246e+000 63837 72024,72341,72102
 9.0000e-001 72439 -6.4509e+000  2.7447e+000  3.2314e+000 63837 72102,72341,72413
 9.0000e-001 72462 -9.0156e+000  4.3908e+000  3.7362e+000 63837 72102,72413,72128
 9.0000e-001 72791  1.9839e+000  1.4992e+000 -3.8818e-001 63383 72592,72696,72670
 9.0000e-001 72768  6.2726e+000  1.1841e+001 -2.0846e-001 63383 72566,72696,72592
 9.0000e-001 72745  5.6264e+000  6.7940e+000  3.0471e+000 63383 72592,72670,72618
 9.0000e-001 72722  1.1683e+000  1.6274e-001 -3.0528e-001 63383 72618,72670,72644
 9.0000e-001 73297  4.1811e+000  5.2446e+000  2.1217e+000 63185 73000,73156,73130
 9.0000e-001 73274  6.1812e+000  1.0641e+001 -9.8561e-001 63185 72974,73156,73000
 9.0000e-001 73251  1.3800e+000  1.9978e+000  1.5022e+000 63185 73000,73052,73026
 9.0000e-001 73228  2.4634e+000  3.2507e+000  1.0062e+000 63185 73000,73130,73052
 9.0000e-001 73205  3.1542e+000  5.8944e+000  1.8230e+000 63185 73052,73130,73104
 9.0000e-001 73182  3.5639e+000  2.1317e+000  1.3476e+000 63185 73052,73104,73078
 9.0000e-001 73545  1.2573e+000  1.1912e+001 -2.2069e+000 62781 73568,73398,73372
 9.0000e-001 73522 -7.4046e-001  6.2838e+000 -2.4763e+000 62781 73568,73372,73346
 9.0000e-001 73499  2.4118e+000  6.8793e+000 -1.4831e-002 62781 73640,73320,73424
 9.0000e-001 73476  1.0527e+000  5.0139e+000  6.5132e-001 62781 73320,73450,73424
 9.0000e-001 73594 -6.5716e-001  6.9385e+000 -8.6490e-001 62781 73424,73398,73568
 9.0000e-001 73617  1.6769e+000  6.4159e+000 -5.0868e-001 62781 73640,73424,73568
 9.0000e-001 73666  2.0629e+000  6.1978e+000 -8.0062e-001 62781 73346,73320,73640
 9.0000e-001 73689  1.6416e+000  5.6567e+000 -1.2545e+000 62781 73346,73640,73568
 9.0000e-001 74035 -3.8637e+000  4.6373e-002 -1.2972e+000 62363 74058,73868,73842
 9.0000e-001 74012  4.2532e-001  1.3174e+000 -1.2943e+000 62363 74130,74058,73842
 9.0000e-001 73989  8.5126e-001  1.2415e+000 -1.6761e+000 62363 74130,73842,73816
 9.0000e-001 73966  1.2640e-001  2.1465e-002 -7.3087e-002 62363 74202,73764,73894
 9.0000e-001 73943  3.1526e-001  4.7537e-001  7.7549e-002 62363 73712,73894,73764
 9.0000e-001 73920  1.0370e-001  2.0450e-001  1.2716e-004 62363 73712,73764,73738
 9.0000e-001 74084 -2.9226e-001  6.5787e-001 -4.8441e-002 62363 73894,73868,74058
 9.0000e-001 74107 -1.2893e-001 -2.1602e-001 -3.0301e-001 62363 74202,73894,74058
 9.0000e-001 74156 -2.7817e-001  5.4221e-001 -3.9896e-003 62363 73790,74058,74130
 9.0000e-001 74179  1.4373e+000  8.6495e-001 -3.1105e-001 62363 73790,74130,73816
 9.0000e-001 74228  4.2306e-001  1.5462e-001  2.8598e-001 62363 73790,73764,74202
 9.0000e-001 74251  2.5134e-001 -8.6746e-002  5.6516e-002 62363 73790,74202,74058
 9.0000e-001 74403 -2.4307e+000  3.7265e+000 -4.0647e-001 62115 74426,74302,74276
 9.0000e-001 74380 -5.8521e+000  4.1519e+000 -1.7779e+000 62115 74426,74276,74354
 9.0000e-001 74452  4.2835e-001  2.9070e+000 -5.8332e-001 62115 74328,74302,74426
 9.0000e-001 74475 -2.6420e+000  3.5581e+000 -2.0732e+000 62115 74328,74426,74354
 9.0000e-001 74578  1.1914e+000  6.7529e+000  1.5185e-001 61825 74500,74552,74526
 9.0000e-001 74982 -2.5061e+000  1.3401e-001  2.9180e-001 61513 75005,74734,74708
 9.0000e-001 74959 -1.2515e+000  7.2601e-001 -3.0421e-002 61513 75005,74708,74864
 9.0000e-001 74936 -9.8499e-001  3.8858e-001  6.2968e-001 61513 75077,74812,74734
 9.0000e-001 74913 -5.0444e+000 -4.2175e+000 -1.0225e+000 61513 74734,74786,74760
 9.0000e-001 74890 -4.5768e+000 -1.1175e+000  9.4924e-001 61513 74734,74812,74786
 9.0000e-001 75031 -1.4507e+000  1.7450e-001  5.6941e-001 61513 75077,74734,75005
 9.0000e-001 75054 -1.5049e+000 -2.0175e-001  4.8439e-002 61513 74838,75005,74864
 9.0000e-001 75103 -8.3134e-001  8.6038e-002  8.7593e-002 61513 74838,74812,75077
 9.0000e-001 75126 -1.1062e+000 -3.6073e-002  4.9774e-002 61513 74838,75077,75005
 9.0000e-001 75553 -1.9925e+000 -8.3457e-001 -3.0656e+000 61060 75576,75360,75308
 9.0000e-001 75530 -1.3876e+000 -2.8364e-001 -2.8067e+000 61060 75576,75308,75230
 9.0000e-001 75507 -6.5496e+000 -5.9119e+000 -7.1320e+000 61060 75308,75360,75334
 9.0000e-001 75484 -1.2612e+000  5.4668e-001 -1.9050e+000 61060 75230,75308,75256
 9.0000e-001 75461  7.9697e-001 -1.1018e+000 -7.4558e-001 61060 75256,75308,75282
 9.0000e-001 75438 -3.8297e+000  1.4930e+000 -2.9476e+000 61060 75360,75412,75386
 9.0000e-001 75602 -3.5015e+000 -1.2845e-001 -3.6618e+000 61060 75412,75360,75576
 9.0000e-001 75625 -2.2605e+000  1.3097e+000 -3.1178e+000 61060 75412,75576,75230
 9.0000e-001 76052  9.9921e+000  4.0512e+000 -2.0160e+000 60442 75755,75859,75833
 9.0000e-001 76029  6.2146e+000  2.9753e+000 -2.2814e+000 60442 75729,75859,75755
 9.0000e-001 76006  7.3768e+000  5.3620e+000  1.3214e+000 60442 75755,75833,75807
 9.0000e-001 75983  3.0377e+000  1.7965e+000 -2.6597e-001 60442 75755,75807,75781
 9.0000e-001 75960  7.3465e+000  2.5238e+000 -2.3443e+000 60442 75729,75911,75859
 9.0000e-001 75937  6.9639e+000 -7.2036e-001 -8.5518e-001 60442 75859,75911,75885
 9.0000e-001 76430  5.4911e+000  7.1229e+000 -1.0768e+000 59788 76453,76286,76234
 9.0000e-001 76407  6.2962e+000  8.4487e+000 -4.8850e-001 59788 76453,76234,76182
 9.0000e-001 76384  5.1136e+000  7.1447e+000 -1.6126e+000 59788 76525,76156,76312
 9.0000e-001 76361  6.6306e+000  9.5631e+000 -7.1610e-001 59788 76182,76234,76208
 9.0000e-001 76338  6.4724e+000  6.9284e+000 -1.2786e+000 59788 76234,76286,76260
 9.0000e-001 76479  4.9212e+000  7.7625e+000 -1.7159e+000 59788 76312,76286,76453
 9.0000e-001 76502  5.3578e+000  7.8296e+000 -1.3796e+000 59788 76525,76312,76453
 9.0000e-001 76551  5.5571e+000  7.9771e+000 -1.4470e+000 59788 76182,76156,76525
 9.0000e-001 76574  5.4180e+000  8.1264e+000 -1.3455e+000 59788 76182,76525,76453
 9.0000e-001 77031  3.2550e+000  5.0660e+000  2.2730e-001 59448 76835,76887,76861
 9.0000e-001 77008  3.2288e+000  6.4043e+000 -1.8340e-001 59448 76835,76913,76887
 9.0000e-001 76985  3.8310e+000  7.3967e+000 -4.5071e-001 59448 76809,76913,76835
 9.0000e-001 76962  3.0758e+000  5.5881e+000 -6.4327e-001 59448 76757,76913,76809
 9.0000e-001 76939  1.7010e+000  1.4422e+001 -4.9729e-001 59448 76757,76809,76783
 9.0000e-001 77537  2.7472e-001  5.3871e+000  7.6448e-001 58994 77560,77344,77292
 9.0000e-001 77514 -5.1481e-001  1.1919e+000 -2.1964e-001 58994 77560,77292,77240
 9.0000e-001 77491  6.3439e-001 -1.5748e+000 -1.9509e-001 58994 77632,77214,77370
 9.0000e-001 77468  2.6698e-002  5.3610e+000 -2.4702e-001 58994 77292,77344,77318
 9.0000e-001 77445  9.3481e-001 -4.8518e-001 -5.1802e-001 58994 77214,77396,77370
 9.0000e-001 77422 -4.8499e-001  2.8273e+000  1.6344e+000 58994 77240,77292,77266
 9.0000e-001 77586  2.1102e+000  1.3659e+000  1.4134e+000 58994 77370,77344,77560
 9.0000e-001 77609  1.2591e+000 -1.3851e+000  1.8464e-001 58994 77632,77370,77560
 9.0000e-001 77658  5.3324e-001 -1.1341e+000  7.2140e-001 58994 77240,77214,77632
 9.0000e-001 77681  1.3633e+000 -5.7972e-001  1.1469e+000 58994 77240,77632,77560
 9.0000e-001 78138 -4.0172e+000 -2.4840e+000  2.3120e+000 58440 77864,77994,77890
 9.0000e-001 78115 -2.1175e+000 -8.7251e-001  1.5334e+000 58440 77864,78020,77994
 9.0000e-001 78092 -2.5865e+000 -1.7697e+000  2.7510e+000 58440 77942,77994,77968
 9.0000e-001 78069 -4.5550e+000 -3.8091e+000  1.2883e+000 58440 77890,77994,77942
 9.0000e-001 78046 -1.0873e+001 -4.0654e+000  5.6495e+000 58440 77890,77942,77916
 9.0000e-001 78467  1.0959e+000  3.1939e+000  2.4223e+000 57928 78562,78490,78346
 9.0000e-001 78444 -7.5858e-001  3.8661e+000  8.2156e-001 57928 78490,78294,78268
 9.0000e-001 78421  4.9739e-001  5.0490e+000  1.7022e+000 57928 78562,78346,78320
 9.0000e-001 78398  3.1075e-001 -6.7036e-001 -5.7887e-001 57928 78242,78372,78268
 9.0000e-001 78516 -6.5059e-001 -1.4649e+000  6.1528e-001 57928 78372,78346,78490
 9.0000e-001 78539  1.6584e+000  4.6924e+000  6.5332e-001 57928 78372,78490,78268
 9.0000e-001 78588  1.1837e-001  5.9306e+000  7.8159e-001 57928 78294,78490,78562
 9.0000e-001 78611  8.9475e-001  1.0352e+001  7.8712e-001 57928 78294,78562,78320
 9.0000e-001 79068  3.6794e+000  4.8354e+000  8.8582e-001 57467 78794,78924,78820
 9.0000e-001 79045  8.2131e+000  7.1140e+000  2.1697e+000 57467 78794,78950,78924
 9.0000e-001 79022  6.4372e-001  3.8673e+000 -8.4707e-001 57467 78820,78898,78872
 9.0000e-001 78999  3.8314e+000  6.7957e+000  6.8067e-001 57467 78820,78924,78898
 9.0000e-001 78976  4.3411e+000  5.4107e+000 -1.0301e+000 57467 78820,78872,78846
 9.0000e-001 79446  2.6532e+000 -1.7580e+000 -7.7735e+000 57120 79172,79302,79250
 9.0000e-001 79423 -8.0836e-001 -3.5334e+000 -2.2954e+000 57120 79172,79328,79302
 9.0000e-001 79400 -3.8058e+000  3.4814e+000 -7.3708e+000 57120 79172,79250,79198
 9.0000e-001 79377  5.9910e+000  1.2600e+000 -6.3810e+000 57120 79250,79302,79276
 9.0000e-001 79354  6.1477e+000  1.2829e+001 -2.0263e+000 57120 79198,79250,79224
 9.0000e-001 79952  3.0800e+000  3.2971e+000  2.7692e-001 56773 79629,79785,79655
 9.0000e-001 79929  5.5985e+000  4.5153e+000 -9.2161e-002 56773 79629,79811,79785
 9.0000e-001 79906  3.4324e+000  2.2586e+000  2.6960e-001 56773 79655,79733,79681
 9.0000e-001 79883  3.8062e+000  2.7910e+000  3.2687e-002 56773 79655,79785,79733
 9.0000e-001 79860  4.7383e+000  3.8994e+000 -6.0823e-001 56773 79733,79785,79759
 9.0000e-001 79837  2.8536e+000  2.0725e+000  1.1291e+000 56773 79681,79733,79707
 9.0000e-001 80281  8.5136e+000 -5.0248e+000  7.2962e+000 56319 80108,80160,80134
 9.0000e-001 80258  3.1660e+000 -6.1996e-001  6.5196e+000 56319 80056,80160,80108
 9.0000e-001 80235  1.8533e+000 -1.7549e+000  4.4847e+000 56319 80056,80186,80160
 9.0000e-001 80212 -2.2395e+000 -6.3334e+000  9.1622e+000 56319 80056,80108,80082
 9.0000e-001 80738  2.9287e+000  2.8806e+000 -2.6483e-001 55957 80516,80620,80594
 9.0000e-001 80715  1.3506e+000  4.1027e+000 -2.2144e-001 55957 80464,80620,80516
 9.0000e-001 80692  2.3501e+000  1.2983e+000  2.1578e-001 55957 80761,80568,80542
 9.0000e-001 80669  7.6272e-001  1.9334e+000  2.7865e-001 55957 80761,80542,80516
 9.0000e-001 80646  3.3829e-001  1.7581e+000  7.3269e-002 55957 80464,80516,80490
 9.0000e-001 80787  3.3994e+000  1.8537e+000  8.2688e-003 55957 80594,80568,80761
 9.0000e-001 80810  1.9706e+000  2.5993e+000  1.9443e-002 55957 80594,80761,80516
 9.0000e-001 81210 -4.4323e-001  4.2114e+000  1.4651e+000 55317 80936,80988,80962
 9.0000e-001 81187 -2.5087e+000  1.9880e+000 -1.3553e-001 55317 80936,81066,80988
 9.0000e-001 81164 -2.6303e+000  1.8414e+000 -7.6521e-002 55317 80936,81092,81066
 9.0000e-001 81141 -1.3662e+000  2.6173e+000  3.6616e-001 55317 80988,81066,81014
 9.0000e-001 81118 -4.7849e+000  6.6013e-002 -7.8561e-001 55317 81014,81066,81040
 9.0000e-001 81539 -8.0899e+000  3.3156e+000  1.7680e+000 54913 81340,81418,81392
 9.0000e-001 81516 -1.0518e+001 -5.6653e+000  4.4875e+000 54913 81340,81444,81418
 9.0000e-001 81493 -1.0108e+001 -4.9980e+000  6.0346e+000 54913 81314,81444,81340
 9.0000e-001 81470  3.1010e+000  5.6531e-001  4.8495e+000 54913 81340,81392,81366
 9.0000e-001 81787  2.8014e+000  4.9078e-001  2.6874e+000 54601 81588,81692,81640
 9.0000e-001 81764  8.1075e+000 -6.0971e-001  3.4955e+000 54601 81562,81692,81588
 9.0000e-001 81741  4.9073e+000  1.5442e+000  2.0582e+000 54601 81588,81640,81614
 9.0000e-001 81718  4.5929e+000  4.7137e+000  2.4359e+000 54601 81640,81692,81666
 9.0000e-001 82344  9.4472e-001 -2.9619e+000 -6.6732e-001 54090 81998,82102,82076
 9.0000e-001 82321 -2.0762e+000 -4.2140e+000 -1.4111e+000 54090 81998,82154,82102
 9.0000e-001 82298 -4.4453e+000 -5.9036e+000 -2.1771e+000 54090 81972,82154,81998
 9.0000e-001 82275 -3.7128e+000 -3.9845e+000  6.7164e-002 54090 81998,82076,82024
 9.0000e-001 82252 -7.9506e+000 -6.5046e+000 -4.4379e+000 54090 81972,82180,82154
 9.0000e-001 82229 -7.9127e-001 -6.0989e+000 -2.9154e+000 54090 82102,82154,82128
 9.0000e-001 82206 -3.7637e-001 -2.6575e+000 -8.4533e-002 54090 82024,82076,82050
 9.0000e-001 82722  9.6485e-001  8.4466e-001  6.4809e-001 53579 82500,82578,82552
 9.0000e-001 82699  2.2282e-001  2.2225e+000  4.3028e-001 53579 82448,82578,82500
 9.0000e-001 82676 -2.1824e+000 -5.2747e-001  1.7047e+000 53579 82448,82500,82474
 9.0000e-001 82653 -4.8681e-002  2.1885e+000  1.0025e-001 53579 82448,82604,82578
 9.0000e-001 82630  2.2363e-001 -1.1424e-001  4.4107e-002 53579 82500,82552,82526
 9.0000e-001 83356  3.8057e+000  2.1987e+000 -1.6092e+000 53189 83379,83088,83036
 9.0000e-001 83333  3.9066e+000  2.1638e+000 -1.5596e+000 53189 83379,83036,82984
 9.0000e-001 83310  1.5495e+000  6.9288e-001 -3.1637e+000 53189 82984,83192,83166
 9.0000e-001 83287  3.2304e+000  1.3287e+000 -2.6832e+000 53189 83036,83088,83062
 9.0000e-001 83264  3.3007e+000 -6.1568e-001 -1.6466e+000 53189 82984,83036,83010
 9.0000e-001 83241  4.2920e+000  1.1498e+000 -8.3073e-001 53189 83114,83166,83140
 9.0000e-001 83218  3.5610e+000  1.8715e+000 -1.5870e+000 53189 83088,83166,83114
 9.0000e-001 83405  3.7005e+000  2.1933e+000 -1.6185e+000 53189 83166,83088,83379
 9.0000e-001 83428  3.8319e+000  2.1767e+000 -1.5758e+000 53189 83166,83379,82984
 9.0000e-001 83725 -4.3171e+000 -6.3249e+000 -3.8650e-001 52585 83748,83529,83503
 9.0000e-001 83702 -4.0830e+000 -6.7356e+000  1.4788e+000 52585 83820,83748,83503
 9.0000e-001 83679 -8.0470e+000 -3.8453e+000  2.7584e+000 52585 83820,83503,83477
 9.0000e-001 83656  1.0228e+000  1.2360e+000  1.1581e+000 52585 83477,83607,83581
 9.0000e-001 83633  1.3924e+000  1.2540e+000  7.8970e-001 52585 83451,83607,83477
 9.0000e-001 83774 -5.8202e+000 -7.6365e+000  3.8697e+000 52585 83555,83529,83748
 9.0000e-001 83797  3.8125e+000 -5.2440e+000  2.8917e+000 52585 83555,83748,83581
 9.0000e-001 83846 -3.6557e-001 -3.4944e+000 -2.5664e-001 52585 83581,83748,83820
 9.0000e-001 83869 -4.2065e+000 -9.8599e-001  1.2185e+000 52585 83581,83820,83477
 9.0000e-001 84200  2.6151e+000  1.0827e+000 -9.3055e-001 52024 84001,84105,84079
 9.0000e-001 84177 -7.8765e-001  8.4986e-002 -5.6014e-001 52024 83975,84105,84001
 9.0000e-001 84154 -5.7906e-001  8.8219e-001 -1.2981e+000 52024 84001,84079,84053
 9.0000e-001 84131 -7.7907e-001  7.0326e-001 -3.8346e-002 52024 84001,84053,84027
 9.0000e-001 84399 -4.7713e+000 -1.5612e+000  2.6939e+000 51470 84422,84275,84249
 9.0000e-001 84376 -5.2164e+000 -2.1229e+000  2.4967e+000 51470 84422,84249,84223
 9.0000e-001 84353 -2.9702e+000 -2.7115e-001 -5.9920e-001 51470 84275,84327,84301
 9.0000e-001 84448 -4.3116e+000 -2.1371e+000  2.6915e+000 51470 84327,84275,84422
 9.0000e-001 84471 -4.6916e+000 -2.5973e+000  2.5204e+000 51470 84327,84422,84223
 9.0000e-001 84753  3.6933e-001 -4.2224e+000  8.7042e-001 51073 84603,84655,84629
 9.0000e-001 84730 -4.4456e+000 -6.1205e+000  5.8570e-001 51073 84776,84655,84603
 9.0000e-001 84707  3.9933e+000 -5.4540e+000 -2.0931e+000 51073 84577,84681,84655
 9.0000e-001 84802 -1.6307e+000 -5.0982e+000  7.9459e-001 51073 84577,84655,84776
 9.0000e-001 85178  1.2228e+000  3.3114e+000 -3.5888e-001 50519 85201,85008,84982
 9.0000e-001 85155  8.4753e-001  2.4676e+000 -4.3589e-001 50519 85273,85201,84982
 9.0000e-001 85132  1.0345e+000  2.2260e+000 -5.8742e-001 50519 85273,84982,84930
 9.0000e-001 85109 -2.0773e-002 -1.5581e-002  5.1459e-002 50519 84930,84982,84956
 9.0000e-001 85086  8.8029e-003  2.0306e+000  1.4084e+000 50519 85008,85060,85034
 9.0000e-001 85227  1.5107e+000  3.1960e+000  3.6357e-001 50519 85060,85008,85201
 9.0000e-001 85250  1.2616e+000  2.7588e+000  2.3650e-001 50519 85060,85201,84904
 9.0000e-001 85299  1.3536e+000  2.9602e+000  1.3919e-001 50519 84904,85201,85273
 9.0000e-001 85322  1.2122e+000  1.5720e+000  1.2660e-001 50519 84904,85273,84930
 9.0000e-001 85958 -8.8198e-001  5.4017e+000 -3.6816e-002 50093 85981,85768,85716
 9.0000e-001 85935 -1.7254e+000  3.8506e+000 -5.3527e-001 50093 85981,85716,85612
 9.0000e-001 85912  4.1064e-001  3.5600e+000 -1.5013e+000 50093 85612,85716,85664
 9.0000e-001 85889 -2.4573e+000  6.0803e+000 -2.9098e-001 50093 85716,85768,85742
 9.0000e-001 85866  1.7828e-001  4.9837e+000 -3.2640e+000 50093 85664,85716,85690
 9.0000e-001 85843 -2.2436e-002  2.7272e+000  1.2937e+000 50093 85586,85794,85612
 9.0000e-001 85820  1.1536e+000 -1.8573e-001 -8.4861e-001 50093 85612,85664,85638
 9.0000e-001 86007  1.3969e+000  7.2515e+000  2.4480e+000 50093 85794,85768,85981
 9.0000e-001 86030 -1.4849e+000  2.1550e+000  1.2967e+000 50093 85794,85981,85612
 9.0000e-001 86131 -7.5863e+000 -6.5786e+000 -2.4173e+000 49895 86053,86105,86079
 9.0000e-001 86639  6.6330e+000  3.1685e+000  4.6843e-001 49391 86662,86394,86368
 9.0000e-001 86616  7.4901e+000  4.0611e+000  1.1409e+000 49391 86662,86368,86342
 9.0000e-001 86593  5.5397e+000  4.5552e+000  8.1828e-001 49391 86342,86498,86472
 9.0000e-001 86570  4.0050e+000  3.5752e+000  3.2425e-001 49391 86316,86498,86342
 9.0000e-001 86547  4.6366e+000  3.0241e+000  3.1772e-001 49391 86394,86472,86446
 9.0000e-001 86524  5.3622e+000  2.6169e+000  2.7607e-001 49391 86394,86446,86420
 9.0000e-001 86688  5.0607e+000  4.0515e+000  1.8223e-002 49391 86472,86394,86662
 9.0000e-001 86711  6.2364e+000  4.5847e+000  4.3470e-001 49391 86472,86662,86342
 9.0000e-001 87089  1.9260e+000  1.6718e+000  1.3268e+000 48987 86815,86919,86867
 9.0000e-001 87066  3.7203e-001  3.1933e-001  1.9326e+000 48987 86815,86971,86919
 9.0000e-001 87043  2.2905e+000  8.9965e-001  6.6768e-001 48987 86867,86919,86893
 9.0000e-001 87020  1.1441e+000  2.4234e-001  7.2935e-003 48987 86815,86867,86841
 9.0000e-001 86997  1.9480e+000  3.7298e+000  1.5056e+000 48987 86919,86971,86945
 9.0000e-001 87467 -1.9928e+000 -5.5938e-002  2.0501e+000 48540 87490,87245,87219
 9.0000e-001 87444  5.4767e-001  1.6108e+000  1.2473e+000 48540 87562,87490,87219
 9.0000e-001 87421  9.3872e-001  1.8061e+000  8.9785e-001 48540 87562,87219,87349
 9.0000e-001 87398  2.3078e+000  7.3102e-001  1.0507e+000 48540 87245,87297,87271
 9.0000e-001 87375 -7.0102e-001  3.6080e+000  1.4017e+000 48540 87193,87349,87219
 9.0000e-001 87516  5.9887e-001  2.8556e-001  1.2816e+000 48540 87297,87245,87490
 9.0000e-001 87539  8.9219e-001  4.9863e-001  9.8100e-001 48540 87297,87490,87323
 9.0000e-001 87588  8.0775e-001  8.2508e-001  1.6186e+000 48540 87323,87490,87562
 9.0000e-001 87611  1.1200e+000  1.2817e+000  1.3249e+000 48540 87323,87562,87349
 9.0000e-001 87810 -5.9128e+000 -6.6631e+000 -1.5710e-002 48136 87660,87712,87686
 9.0000e-001 87787 -6.6247e+000 -1.1019e+001 -1.1466e+000 48136 87660,87738,87712
 9.0000e-001 87764 -8.8389e+000 -1.2119e+001 -7.9777e-001 48136 87634,87738,87660
 9.0000e-001 88205 -2.4983e+000 -2.7152e+000 -7.7493e-001 47210 88300,88228,87937
 9.0000e-001 88182 -2.6956e+000  3.6352e-001 -6.0131e-001 47210 88228,87833,88041
 9.0000e-001 88159 -2.2386e+000 -2.4172e+000 -1.0858e+000 47210 88300,87937,87911
 9.0000e-001 88136 -2.3852e+000 -5.3171e+000 -1.3121e+000 47210 87833,87911,87859
 9.0000e-001 88113 -1.4445e+000 -3.7648e+000  3.4532e-001 47210 87937,87989,87963
 9.0000e-001 88090 -2.4619e+000  9.5930e-002  1.9554e-001 47210 87989,88041,88015
 9.0000e-001 88067 -2.7294e-001  1.3098e-001  3.9196e-001 47210 87859,87911,87885
 9.0000e-001 88254 -2.4884e+000 -4.9034e+000 -2.9223e-001 47210 87989,87937,88228
 9.0000e-001 88277 -3.6676e+000 -2.3497e+000 -1.4039e+000 47210 87989,88228,88041
 9.0000e-001 88326 -1.8123e+000 -2.6634e+000 -1.0445e+000 47210 87833,88228,88300
 9.0000e-001 88349 -1.7992e+000 -2.6650e+000 -1.3134e+000 47210 87833,88300,87911
 9.0000e-001 88780 -3.6298e+000 -6.2861e+000  1.8824e+000 46642 88803,88509,88483
 9.0000e-001 88757 -3.7040e+000 -6.6727e+000  9.5231e-001 46642 88803,88483,88639
 9.0000e-001 88734 -1.5851e+000 -6.9442e+000  1.8173e+000 46642 88875,88561,88509
 9.0000e-001 88711 -3.8767e+000 -7.5373e+000  2.3381e+000 46642 88509,88561,88535
 9.0000e-001 88688 -6.0691e+000 -8.9215e+000 -2.4362e-001 46642 88457,88639,88483
 9.0000e-001 88665 -1.4754e+000 -1.6390e+001  1.2324e+000 46642 88561,88613,88587
 9.0000e-001 88829 -4.2668e+000 -6.9626e+000  1.3016e+000 46642 88875,88509,88803
 9.0000e-001 88852 -3.5382e+000 -1.0190e+001 -3.3950e-001 46642 88613,88803,88639
 9.0000e-001 88901  1.4583e+000 -7.3186e+000  2.2441e+000 46642 88613,88561,88875
 9.0000e-001 88924 -4.4709e-001 -6.9952e+000  1.3177e+000 46642 88613,88875,88803
 9.0000e-001 89253 -1.3509e+000 -9.1905e+000  3.1454e+000 46444 89080,89158,89132
 9.0000e-001 89230 -3.0681e+000 -1.3148e+001  2.9578e+000 46444 89028,89158,89080
 9.0000e-001 89207 -3.2070e+000 -1.3117e+001  2.9619e+000 46444 89028,89080,89054
 9.0000e-001 89184 -2.9534e+000 -9.2770e+000  3.5301e+000 46444 89080,89132,89106
 9.0000e-001 89631  4.7082e+000  3.2207e+000 -1.6872e+000 46040 89383,89461,89435
 9.0000e-001 89608  5.3518e+000  5.4914e+000 -3.0673e-001 46040 89383,89487,89461
 9.0000e-001 89585  8.0699e+000  4.5494e+000 -7.0169e-001 46040 89383,89435,89409
 9.0000e-001 89562  5.9835e+000  5.3511e+000 -2.5813e-001 46040 89383,89513,89487
 9.0000e-001 89539  4.8373e+000  5.1750e+000 -1.1237e+000 46040 89357,89513,89383
 9.0000e-001 90009 -4.6736e+000  4.0543e-001  4.2718e-001 45636 89813,89891,89839
 9.0000e-001 89986 -3.8491e+000 -3.6609e-001 -1.3943e+000 45636 89787,89891,89813
 9.0000e-001 89963 -2.9836e+000  1.1903e+000 -2.4964e-003 45636 89839,89891,89865
 9.0000e-001 89940 -2.4021e+000  1.3454e+000 -7.4182e-001 45636 89735,89891,89787
 9.0000e-001 89917 -1.6926e+000  3.0449e+000 -9.1509e-001 45636 89735,89787,89761
 9.0000e-001 90208 -8.2709e-001  2.8011e-001 -2.2859e+000 45175 90231,90058,90032
 9.0000e-001 90185 -8.4647e-001 -3.7292e-001 -5.8817e-001 45175 90231,90032,90136
 9.0000e-001 90162  7.7042e-001 -1.2438e+000 -2.4406e+000 45175 90058,90110,90084
 9.0000e-001 90257  1.0874e-001  2.1102e+000 -2.6608e+000 45175 90110,90058,90231
 9.0000e-001 90280 -2.7008e-001  9.7851e-001 -8.6209e-001 45175 90110,90231,90136
 9.0000e-001 90528  2.1278e+000  2.2357e+000  4.1915e-001 44513 90695,90551,90407
 9.0000e-001 90505  1.4040e+000  9.7358e-001  1.4490e+000 44513 90551,90355,90329
 9.0000e-001 90482  8.7209e-001  3.6650e+000  3.4304e-001 44513 90623,90303,90433
 9.0000e-001 90459  6.0652e+000 -3.4196e-001 -2.1978e+000 44513 90695,90407,90381
 9.0000e-001 90577  2.6595e+000  2.2217e+000  1.8695e+000 44513 90433,90407,90551
 9.0000e-001 90600  2.0678e+000  1.6400e+000  4.8074e-001 44513 90623,90433,90551
 9.0000e-001 90649 -2.5526e-001  1.5447e+000  1.2381e+000 44513 90329,90303,90623
 9.0000e-001 90672  7.2939e-001  5.1448e-001  1.0082e+000 44513 90329,90623,90551
 9.0000e-001 90721  5.0702e-001 -2.5987e+000  2.0243e+000 44513 90355,90551,90695
 9.0000e-001 90744  3.2083e+000 -6.0250e+000  6.5637e-001 44513 90355,90695,90381
 9.0000e-001 91077 -8.7308e-001 -2.2035e+000  5.0664e-002 44059 91100,90930,90904
 9.0000e-001 91054 -8.7496e-001 -2.1553e+000  1.2536e-001 44059 91100,90904,90982
 9.0000e-001 91031 -1.0938e+000 -3.1268e+000  5.4507e-002 44059 90878,90982,90904
 9.0000e-001 91008 -1.4538e+000 -2.2332e+000  9.3895e-001 44059 90852,90982,90878
 9.0000e-001 91126 -1.5245e+000 -2.0546e+000  2.5052e-001 44059 91172,91100,90956
 9.0000e-001 91149 -4.9204e-001 -1.0990e+000  7.6708e-001 44059 90956,91100,90982
 9.0000e-001 91198 -9.6559e-001 -2.7841e+000  2.3663e-001 44059 90930,91100,91172
 9.0000e-001 91677 -6.7657e+000 -8.9016e+000 -4.8800e-001 43549 91455,91533,91481
 9.0000e-001 91654 -7.5060e+000 -9.3772e+000 -7.0975e-001 43549 91429,91533,91455
 9.0000e-001 91631 -5.5219e+000 -7.0389e+000 -1.5921e+000 43549 91481,91533,91507
 9.0000e-001 91608 -8.6260e+000 -9.8348e+000 -9.8073e-002 43549 91429,91559,91533
 9.0000e-001 91585 -9.2684e+000 -1.5162e+001  9.3350e-001 43549 91403,91559,91429
 9.0000e-001 92006  3.6116e+000  5.3742e+000  1.0974e+000 43059 91781,91885,91807
 9.0000e-001 91983  3.6509e+000  5.7514e+000  1.5374e+000 43059 91781,91911,91885
 9.0000e-001 91960 -4.7107e-001  4.8347e+000  1.0400e+000 43059 91807,91885,91833
 9.0000e-001 91937  3.8715e+000  6.6174e+000  8.6619e-001 43059 91833,91885,91859
 9.0000e-001 92561 -1.3394e+000 -1.4058e+000  8.0042e-001 42598 92584,92215,92189
 9.0000e-001 92538 -1.3695e+000  1.4057e+000  1.2743e+000 42598 92656,92584,92189
 9.0000e-001 92515 -1.9222e+000  3.5199e+000  2.1945e-001 42598 92656,92189,92397
 9.0000e-001 92492 -3.3121e+000 -1.9041e+000  4.5686e-001 42598 92241,92319,92293
 9.0000e-001 92469 -2.4083e+000 -6.1352e-001 -7.8996e-002 42598 92319,92397,92371
 9.0000e-001 92446 -1.7888e+000 -1.1973e+000  8.7881e-001 42598 92319,92371,92345
 9.0000e-001 92423 -3.7905e+000 -2.0796e+000  5.1746e-001 42598 92241,92293,92267
 9.0000e-001 92610 -2.2882e+000 -2.6404e+000 -5.7665e-001 42598 92241,92215,92584
 9.0000e-001 92633 -1.8207e+000 -1.3850e+000  7.3726e-001 42598 92241,92584,92319
 9.0000e-001 92682 -1.7847e+000 -1.4048e+000  9.1535e-001 42598 92319,92584,92656
 9.0000e-001 92705 -2.9179e+000  8.0783e-003  1.5883e-001 42598 92319,92656,92397
 9.0000e-001 92953  3.7837e+000  1.7867e+001 -8.0542e+000 42094 92976,92806,92780
 9.0000e-001 92930 -1.6783e-001  6.1240e+000 -8.3429e+000 42094 92976,92780,92754
 9.0000e-001 92907  3.1034e+000  7.6152e+000 -1.5141e+000 42094 93048,92832,92806
 9.0000e-001 92884  3.9947e+000  4.0721e+000 -3.5866e+000 42094 92728,92858,92754
 9.0000e-001 93002  3.7222e+000  1.0923e+001 -2.1719e+000 42094 93048,92806,92976
 9.0000e-001 93025  3.5865e+000  6.3899e+000 -3.4534e+000 42094 92858,92976,92754
 9.0000e-001 93074  5.1109e+000  5.8361e+000 -4.2380e+000 42094 92858,92832,93048
 9.0000e-001 93097  4.5223e+000  7.2897e+000 -4.3481e+000 42094 92858,93048,92976
 9.0000e-001 93605 -3.3221e+000 -4.0507e+000 -1.8410e+000 41846 93628,93412,93386
 9.0000e-001 93582 -1.4160e+000 -1.3155e+000 -1.0104e+000 41846 93628,93386,93308
 9.0000e-001 93559 -1.0290e+000  3.8386e+000  2.3030e+000 41846 93700,93464,93438
 9.0000e-001 93536 -6.0910e-001 -1.9128e-001 -1.4309e+000 41846 93308,93386,93334
 9.0000e-001 93513  5.0871e-001 -1.3001e+000 -9.0004e-001 41846 93334,93386,93360
 9.0000e-001 93490  1.7450e+000  6.3708e-001 -1.8074e-001 41846 93282,93464,93308
 9.0000e-001 93654 -8.6476e+000 -2.6746e-001 -8.3724e-001 41846 93438,93412,93628
 9.0000e-001 93677 -2.8422e+000  3.3570e+000  7.3567e-001 41846 93700,93438,93628
 9.0000e-001 93726 -8.7032e-001  1.4797e+000 -4.1501e-001 41846 93308,93464,93700
 9.0000e-001 93749 -3.0014e+000  3.4621e-001 -2.0290e+000 41846 93308,93700,93628
 9.0000e-001 94255 -1.1356e+000  6.5151e+000  9.2251e-001 41385 93958,94114,94088
 9.0000e-001 94232 -2.1499e+000  9.5598e+000  2.3974e+000 41385 93932,94114,93958
 9.0000e-001 94209  2.7476e-001  7.4827e+000  1.3373e-001 41385 93958,94088,94062
 9.0000e-001 94186 -2.6405e+000  3.1310e+000  1.5439e+000 41385 93958,94062,93984
 9.0000e-001 94163 -3.1845e+000  3.8757e+000  2.5741e+000 41385 93984,94062,94036
 9.0000e-001 94140 -6.8835e+000  1.8878e+000  3.6088e+000 41385 93984,94036,94010
 9.0000e-001 94476 -2.8757e+000  6.9232e+000  7.1151e-001 40881 94326,94378,94352
 9.0000e-001 94453 -7.2079e+000  5.1735e+000 -6.1513e-001 40881 94300,94378,94326
 9.0000e-001 94430 -2.1611e+000  7.3769e+000 -1.2396e+000 40881 94300,94404,94378
 9.0000e-001 94626 -8.6746e-001  4.8840e-001  3.0197e-001 40591 94649,94551,94525
 9.0000e-001 94603 -4.3222e+000 -5.6795e-001  2.4198e+000 40591 94781,94577,94551
 9.0000e-001 94675 -3.0162e+000 -6.7643e-001  9.0912e-001 40591 94781,94551,94649
 9.0000e-001 94807 -1.5732e+000 -1.0270e+000  1.3462e+000 40591 94499,94577,94781
 9.0000e-001 94830  3.2407e-001  2.8600e-001 -5.7119e-001 40591 94499,94781,94649
 9.0000e-001 95336 -3.9600e+000 -1.3280e+000 -2.5144e-001 40187 95013,95169,95039
 9.0000e-001 95313 -5.1459e+000 -8.3422e-001 -1.6490e+000 40187 95013,95195,95169
 9.0000e-001 95290 -1.3743e+000 -5.0479e-001  1.3647e+000 40187 95039,95143,95065
 9.0000e-001 95267 -2.7734e+000 -8.7552e-001  4.3993e-002 40187 95039,95169,95143
 9.0000e-001 95244 -1.7223e+000 -2.8339e-001  7.4349e-001 40187 95091,95143,95117
 9.0000e-001 95221 -1.1439e+000 -1.2273e+000  1.3276e+000 40187 95065,95143,95091
 9.0000e-001 95665 -3.5715e-001  3.0971e-001  8.1798e-001 39626 95466,95570,95544
 9.0000e-001 95642 -1.2387e+000  4.0885e-001  3.9381e-001 39626 95440,95570,95466
 9.0000e-001 95619 -2.3414e+000 -3.2567e-001  1.6282e+000 39626 95466,95544,95492
 9.0000e-001 95596 -3.1330e+000 -1.4603e+000  1.1749e+000 39626 95492,95544,95518
 9.0000e-001 95913  8.3302e+000  4.4179e+000  1.7405e-002 39136 96080,95936,95766
 9.0000e-001 95890  1.0043e+001  7.6533e+000 -2.3201e+000 39136 95936,95714,95688
 9.0000e-001 95867  1.2611e+001  7.0777e+000 -2.7275e+000 39136 96008,95792,95766
 9.0000e-001 95844  6.5101e+000  3.6030e+000  2.5600e-001 39136 96080,95766,95740
 9.0000e-001 95962  1.0892e+001  7.6896e+000 -1.2388e+000 39136 96008,95766,95936
 9.0000e-001 95985  8.4564e+000  1.0634e+001 -2.6339e+000 39136 95818,95936,95688
 9.0000e-001 96034  8.3977e+000  5.2093e+000 -3.2974e+000 39136 95818,95792,96008
 9.0000e-001 96057  7.9439e+000  6.2048e+000 -1.7991e+000 39136 95818,96008,95936
 9.0000e-001 96106  7.9908e+000  6.0859e+000 -3.0185e+000 39136 95714,95936,96080
 9.0000e-001 96129  4.5549e+000  4.4481e+000 -2.5361e+000 39136 95714,96080,95740
 9.0000e-001 96350 -7.7027e+000 -6.5876e+000  6.2614e-002 38824 96200,96278,96252
 9.0000e-001 96327 -7.5244e+000 -6.5730e+000  1.5276e-002 38824 96174,96278,96200
 9.0000e-001 96304 -7.5650e+000 -6.2838e+000 -7.9405e-003 38824 96200,96252,96226
 9.0000e-001 96830 -5.3278e+000 -4.4910e+000 -5.6411e-001 38320 97069,96536,96484
 9.0000e-001 96807 -5.0610e+000 -4.6706e+000 -5.8242e-001 38320 97069,96484,96853
 9.0000e-001 96784 -5.1176e+000 -4.4704e+000 -9.8456e-001 38320 96853,96484,96458
 9.0000e-001 96761 -8.9687e-001 -4.6676e+000 -2.3406e+000 38320 96925,96640,96614
 9.0000e-001 96738 -4.2942e+000 -5.7606e+000 -1.3483e+000 38320 96997,96666,96640
 9.0000e-001 96715 -4.4861e+000 -4.2860e+000  2.4506e-001 38320 97141,96588,96562
 9.0000e-001 96692 -5.3574e+000 -3.9110e+000 -5.3920e-001 38320 96484,96536,96510
 9.0000e-001 96879 -5.0364e+000 -4.6734e+000  4.1842e-002 38320 97141,96562,96853
 9.0000e-001 96902 -4.2180e+000 -6.3393e+000 -1.3548e+000 38320 96925,96614,96853
 9.0000e-001 96951 -4.0875e+000 -5.3918e+000 -1.7154e+000 38320 96997,96640,96925
 9.0000e-001 96974 -4.6675e+000 -4.9910e+000 -1.5537e+000 38320 96458,96925,96853
 9.0000e-001 97023 -5.5401e+000 -6.5965e+000 -7.3075e-001 38320 96458,96666,96997
 9.0000e-001 97046 -4.7662e+000 -5.9994e+000 -1.1639e+000 38320 96458,96997,96925
 9.0000e-001 97095 -4.2891e+000 -2.0244e+000 -6.6212e-001 38320 96562,96536,97069
 9.0000e-001 97118 -5.0553e+000 -4.3979e+000 -5.7534e-001 38320 96562,97069,96853
 9.0000e-001 97167 -2.6261e+000 -5.1891e+000  4.5182e-001 38320 96614,96588,97141
 9.0000e-001 97190 -3.8114e+000 -6.1146e+000  4.5749e-002 38320 96614,97141,96853
 9.0000e-001 97519 -1.9599e+000 -1.5814e+000 -2.5928e-001 37766 97542,97398,97372
 9.0000e-001 97496 -1.3940e+000 -2.3539e+000  2.5749e-001 37766 97542,97372,97346
 9.0000e-001 97473 -2.6188e+000 -1.7676e+000  1.0731e+000 37766 97294,97424,97346
 9.0000e-001 97450 -2.3101e+000 -1.0658e+000  1.0197e+000 37766 97294,97346,97320
 9.0000e-001 97568 -2.9718e+000 -1.6279e+000  2.9510e-001 37766 97424,97398,97542
 9.0000e-001 97591 -2.1393e+000 -2.4543e+000  7.7741e-001 37766 97424,97542,97346
 9.0000e-001 98048 -5.7920e+000 -4.8030e+000  1.5666e+000 37262 98071,97878,97852
 9.0000e-001 98025 -6.4562e+000 -3.5049e+000  3.1244e-001 37262 98071,97852,97800
 9.0000e-001 98002 -6.8545e+000 -5.4150e+000  1.3286e-001 37262 97800,97852,97826
 9.0000e-001 97979 -5.6882e+000 -2.6317e+000 -6.9902e-001 37262 97800,97930,97904
 9.0000e-001 97956 -5.4525e+000 -3.8879e+000 -6.7610e-001 37262 97774,97930,97800
 9.0000e-001 98097 -4.0125e+000 -3.9070e+000  8.5000e-001 37262 97904,97878,98071
 9.0000e-001 98120 -5.4452e+000 -2.3449e+000 -2.5666e-001 37262 97904,98071,97800
 9.0000e-001 98449 -1.4483e+000  3.6722e+000  4.9830e-001 36950 98472,98302,98250
 9.0000e-001 98426 -2.5927e+000  3.2105e+000  7.4608e-001 36950 98472,98250,98354
 9.0000e-001 98403 -9.1300e-001  3.9840e+000 -1.5250e-001 36950 98250,98302,98276
 9.0000e-001 98380 -6.1819e+000  2.8076e+000  2.0269e+000 36950 98224,98354,98250
 9.0000e-001 98498 -2.3020e+000  4.7690e+000 -2.0053e-001 36950 98328,98302,98472
 9.0000e-001 98521 -3.6871e+000  4.0701e+000  2.4179e-001 36950 98328,98472,98354
 9.0000e-001 99125  5.5028e-001  1.5369e+000 -1.9572e+000 36296 98704,98756,98730
 9.0000e-001 99102  4.7920e-001  4.2993e+000 -2.0461e+000 36296 98704,98938,98756
 9.0000e-001 99079 -1.5814e+000  1.2389e+001 -3.9856e+000 36296 99148,98938,98912
 9.0000e-001 99056 -6.5025e-001  4.5417e+000 -5.3561e+000 36296 99292,99220,98782
 9.0000e-001 99033 -1.1581e+000  4.3245e+000 -3.0525e+000 36296 99148,98912,98834
 9.0000e-001 99010 -1.8106e+000  2.7762e+000 -4.7731e+000 36296 99292,98782,98756
 9.0000e-001 98987 -1.3831e+000  2.5734e+000 -3.5604e+000 36296 98834,98912,98886
 9.0000e-001 98964  7.6952e-001 -2.5352e+000 -2.2152e+000 36296 98834,98886,98860
 9.0000e-001 99174 -1.6366e+000  6.1923e+000 -3.3384e+000 36296 99220,98938,99148
 9.0000e-001 99197 -3.4096e+000  2.5836e-001 -1.1640e+000 36296 98808,99148,98834
 9.0000e-001 99246 -3.5578e+000 -2.2853e+000 -9.3756e+000 36296 98808,98782,99220
 9.0000e-001 99269 -4.9096e+000  2.5400e+000 -5.0238e+000 36296 98808,99220,99148
 9.0000e-001 99318 -2.6165e+000  1.9982e+000 -3.9666e+000 36296 98938,99220,99292
 9.0000e-001 99341 -2.4680e+000  2.4265e+000 -3.6742e+000 36296 98938,99292,98756
 9.0000e-001 99719 -2.0139e+000  3.0372e+000  7.8688e-002 35742 99742,99471,99601
 9.0000e-001 99696 -2.9963e+000  1.2357e+000 -7.2191e-001 35742 99445,99601,99471
 9.0000e-001 99673 -2.1567e+000  2.6694e+000 -1.3518e+000 35742 99742,99601,99575
 9.0000e-001 99650 -1.8204e+000  1.1210e+001 -1.5294e+000 35742 99814,99549,99523
 9.0000e-001 99627 -1.2098e+000  6.7747e+000 -2.2811e+000 35742 99471,99523,99497
 9.0000e-001 99768 -2.6838e+000  3.9983e+000 -1.6014e+000 35742 99523,99471,99742
 9.0000e-001 99791 -1.0290e+000  8.4548e+000 -1.8589e+000 35742 99814,99523,99742
 9.0000e-001 99840 -4.9466e-001  7.3229e+000 -5.0091e-001 35742 99575,99549,99814
 9.0000e-001 99863 -5.5208e-001  3.4702e+000 -1.0557e+000 35742 99575,99814,99742
 9.0000e-001 100111 -5.1676e-001  6.6812e-001 -3.6033e+000 35302 100134,99990,99938
 9.0000e-001 100088 -3.6036e+000 -2.2909e+000 -1.3704e+000 35302 100134,99938,99912
 9.0000e-001 100065 -3.5094e+000 -7.6011e+000  1.6073e+000 35302 100206,99886,100016
 9.0000e-001 100042  2.3082e+000  1.6644e+000 -2.7130e+000 35302 99938,99990,99964
 9.0000e-001 100160 -2.6487e+000  1.2696e-001  7.7627e-001 35302 100016,99990,100134
 9.0000e-001 100183 -4.2858e+000 -5.4932e+000  1.8859e+000 35302 100206,100016,100134
 9.0000e-001 100232 -5.0966e+000 -5.0861e+000 -8.6526e-001 35302 99912,99886,100206
 9.0000e-001 100255 -5.0259e+000 -1.7213e+000 -2.0138e-001 35302 99912,100206,100134
 9.0000e-001 100586 -4.0109e+000 -2.5405e+000  6.7956e-001 35012 100609,100387,100361
 9.0000e-001 100563 -3.2667e+000 -2.6017e+000  1.8502e+000 35012 100609,100361,100465
 9.0000e-001 100540 -3.0314e+000 -2.1092e+000  1.7509e+000 35012 100361,100491,100465
 9.0000e-001 100517 -7.9191e+000 -7.2710e-001  2.7136e+000 35012 100413,100465,100439
 9.0000e-001 100635 -5.4422e+000 -3.1359e+000  3.0944e-001 35012 100413,100387,100609
 9.0000e-001 100658 -4.5677e+000 -2.9846e+000  1.5522e+000 35012 100413,100609,100465
 9.0000e-001 100987 -2.9350e+000  1.3499e+000 -3.9908e+000 34700 100788,100866,100814
 9.0000e-001 100964  4.9684e+000  1.1050e+000 -2.6776e+000 34700 101010,100866,100788
 9.0000e-001 100941  8.0067e-001  4.5211e-001 -1.3765e+000 34700 100762,100892,100866
 9.0000e-001 100918 -1.0710e+000  4.0463e+000  9.5182e-001 34700 100814,100866,100840
 9.0000e-001 101036  1.4060e+000  4.0490e-001 -1.2282e+000 34700 100762,100866,101010
 9.0000e-001 101493  2.1360e+000  2.7982e+000 -1.4651e-001 34132 101516,101349,101297
 9.0000e-001 101470  2.8720e+000  4.8778e+000  3.1207e-001 34132 101588,101516,101297
 9.0000e-001 101447  1.8842e+000  2.9839e+000  8.7639e-001 34132 101588,101297,101245
 9.0000e-001 101424  2.7897e+000  2.3049e+000  8.9199e-001 34132 101245,101297,101271
 9.0000e-001 101401  1.7837e+000  2.0640e+000  6.1513e-001 34132 101297,101349,101323
 9.0000e-001 101542 -2.9819e-002  4.7554e+000  4.5540e-001 34132 101375,101349,101516
 9.0000e-001 101565  2.3022e+000  8.5587e+000  2.4863e+000 34132 101375,101516,101219
 9.0000e-001 101614  2.1328e+000  3.4971e+000  1.7230e+000 34132 101219,101516,101588
 9.0000e-001 101637  1.9901e+000  2.4703e+000  2.1177e+000 34132 101219,101588,101245
 9.0000e-001 101858 -7.4503e+000 -4.2529e+000 -5.3388e-001 33720 101708,101786,101760
 9.0000e-001 101835 -6.7528e+000 -1.9392e+000 -3.4234e-001 33720 101682,101786,101708
 9.0000e-001 101812 -6.7196e+000 -3.7713e+000 -1.2412e-001 33720 101708,101760,101734
 9.0000e-001 102128 -4.8758e+000  2.7955e+000  4.4713e-001 33130 101903,102007,101929
 9.0000e-001 102105 -3.2887e+000  4.3766e+000 -2.3321e-001 33130 101903,102033,102007
 9.0000e-001 102082 -2.7375e+000  5.2874e+000  2.1504e+000 33130 101929,102007,101955
 9.0000e-001 102059 -2.5629e+000  2.5869e+000  3.3671e-001 33130 101955,102007,101981
 9.0000e-001 102461 -5.8260e+000 -3.6238e+000 -1.8828e-002 32840 102236,102340,102262
 9.0000e-001 102438 -6.3500e+000 -5.9370e+000 -8.1547e-001 32840 102236,102366,102340
 9.0000e-001 102415 -7.3488e+000 -4.4055e+000  2.5500e-001 32840 102262,102340,102288
 9.0000e-001 102392 -4.4568e+000 -3.7380e+000  1.7501e+000 32840 102288,102340,102314
 9.0000e-001 102997  2.2248e+000  1.6352e+000  6.2891e-002 32493 102749,102879,102853
 9.0000e-001 102974  2.5425e+000  3.3697e+000  1.8129e+000 32493 102723,102879,102749
 9.0000e-001 102951  2.8036e+000  1.2196e+000  4.6038e-001 32493 102749,102801,102775
 9.0000e-001 102928  2.2451e+000  1.7693e+000  1.3162e-001 32493 102749,102853,102801
 9.0000e-001 102905  1.9429e+000  6.9303e-001 -1.7415e-001 32493 102801,102853,102827
 9.0000e-001 103454 -8.7535e+000 -5.1534e+000 -4.7087e-001 32089 103206,103336,103310
 9.0000e-001 103431 -7.8050e+000 -3.9539e+000 -6.1455e-003 32089 103180,103336,103206
 9.0000e-001 103408 -6.7869e+000 -3.9135e+000  1.1018e+000 32089 103206,103284,103258
 9.0000e-001 103385 -5.4213e+000 -3.0720e+000  7.2704e-001 32089 103206,103310,103284
 9.0000e-001 103362 -7.4088e+000 -5.6645e+000  3.6916e-001 32089 103206,103258,103232
 9.0000e-001 103783 -2.3664e+000  9.3840e-001  1.3157e-001 31742 103558,103662,103584
 9.0000e-001 103760 -2.3006e+000  1.3926e+000  5.1074e-001 31742 103558,103688,103662
 9.0000e-001 103737 -5.1113e+000 -3.1800e-001  5.3624e-001 31742 103584,103662,103636
 9.0000e-001 103714 -5.5170e+000 -1.2290e+000  6.9254e-001 31742 103584,103636,103610
 9.0000e-001 104112 -5.8671e+000 -1.9695e+000  3.7236e-001 31402 103939,103991,103965
 9.0000e-001 104089 -6.1917e+000 -2.3634e+000  2.2537e-001 31402 103913,103991,103939
 9.0000e-001 104066 -4.3448e+000 -9.7006e-001  8.9537e-001 31402 103913,104017,103991
 9.0000e-001 104043 -4.6260e+000 -2.4066e+000  8.8898e-001 31402 103887,104017,103913
 9.0000e-001 104569 -4.1523e+000  2.5498e-001  1.1701e+000 30998 104321,104425,104373
 9.0000e-001 104546 -5.3392e+000 -6.3936e-001  1.8721e+000 30998 104321,104451,104425
 9.0000e-001 104523 -2.5534e+000  4.8675e-001  1.0989e+000 30998 104373,104425,104399
 9.0000e-001 104500 -7.0127e+000  2.7652e+000  3.5082e+000 30998 104295,104451,104321
 9.0000e-001 104477 -3.5480e+000  6.8057e-001  4.9428e-001 30998 104321,104373,104347
 9.0000e-001 104947  1.9844e+000  4.8230e+000  1.6528e+000 30608 104751,104803,104777
 9.0000e-001 104924 -5.2065e+000 -9.2929e-001 -1.3065e+000 30608 104725,104803,104751
 9.0000e-001 104901 -5.8929e+000 -2.3234e+000 -2.5055e+000 30608 104699,104803,104725
 9.0000e-001 104878  5.0576e+000 -4.7068e-001  7.3484e-001 30608 104673,104803,104699
 9.0000e-001 104855  4.8839e+000  1.9661e+000  1.6117e+000 30608 104673,104829,104803
 9.0000e-001 105276 -1.2420e+000  2.3108e+000  6.8177e-001 30204 105427,105129,105077
 9.0000e-001 105253 -2.1899e+000  2.5412e+000 -3.7281e-001 30204 105427,105077,105051
 9.0000e-001 105230 -2.1238e+000  1.4136e+000  2.5208e-001 30204 105077,105129,105103
 9.0000e-001 105207 -3.2901e-002  8.1954e-001 -6.0474e-001 30204 105299,105181,105155
 9.0000e-001 105325  5.3548e-001  6.5702e-001  7.4838e-001 30204 105129,105181,105299
 9.0000e-001 105453 -7.0000e-001  2.6100e+000  4.3923e-001 30204 105181,105129,105427
 9.0000e-001 105476 -3.5404e-001  3.4170e+000 -7.2630e-001 30204 105181,105427,105051
 9.0000e-001 105903 -6.3754e+000 -4.7752e+000  8.0778e-001 29700 105606,105762,105736
 9.0000e-001 105880 -6.1874e+000 -3.5810e+000  4.4725e+000 29700 105580,105762,105606
 9.0000e-001 105857 -1.8454e+000 -3.8344e+000  8.5647e-001 29700 105606,105710,105632
 9.0000e-001 105834 -3.0077e+000 -1.6384e+000 -5.5908e-001 29700 105606,105736,105710
 9.0000e-001 105811  1.4957e+000  1.2890e+000 -5.8364e-001 29700 105632,105710,105684
 9.0000e-001 105788  1.5139e+000  1.4083e+000  6.1239e-001 29700 105632,105684,105658
 9.0000e-001 106102  3.6829e+000 -6.7528e-001  1.2454e+000 29124 105978,106030,106004
 9.0000e-001 106079  6.8434e+000  1.1599e+000  2.0657e+000 29124 105926,106030,105978
 9.0000e-001 106056  6.4491e+000  4.5986e+000 -3.8854e+000 29124 105926,105978,105952
 9.0000e-001 106301 -2.8227e+000  1.2626e+000 -4.5007e-001 28712 106151,106229,106203
 9.0000e-001 106278 -1.6023e+000  1.3513e+000 -4.9366e-001 28712 106125,106229,106151
 9.0000e-001 106255 -4.1378e+000  1.1737e+000 -8.3178e-001 28712 106151,106203,106177
 9.0000e-001 106551 -7.8768e-002 -1.3327e+000  1.0536e+000 28258 106352,106404,106378
 9.0000e-001 106528 -3.4008e-001 -1.0868e-001 -6.8343e-001 28258 106352,106456,106404
 9.0000e-001 106505 -1.6750e+000  2.6801e+000  3.8891e-001 28258 106326,106456,106352
 9.0000e-001 106482 -2.1669e+000 -2.1027e+000  9.8417e-001 28258 106404,106456,106430
 9.0000e-001 107012  1.5805e+000  5.8607e+000 -8.7015e-001 27818 107035,106790,106764
 9.0000e-001 106989  1.8504e+000  6.5912e+000 -7.0301e-001 27818 107035,106764,106868
 9.0000e-001 106966 -1.3352e+000  1.6047e+001 -2.3479e+000 27818 107107,106842,106816
 9.0000e-001 106943  1.4024e-001  4.1832e+000  3.7714e-001 27818 106738,106868,106764
 9.0000e-001 106920 -1.7867e-001  3.4417e+000  3.8986e-001 27818 106738,106894,106868
 9.0000e-001 107061  9.6600e-001  7.3440e+000 -2.5233e+000 27818 106816,106790,107035
 9.0000e-001 107084  2.6673e+000  1.2046e+001 -2.5388e+000 27818 107107,106816,107035
 9.0000e-001 107133 -4.7064e+000  1.0752e+001  1.1853e-001 27818 106868,106842,107107
 9.0000e-001 107156 -9.3183e-001  5.6169e+000 -4.5313e-001 27818 106868,107107,107035
 9.0000e-001 107613 -9.5508e+000 -1.3908e+000 -2.2004e+000 27312 107339,107469,107365
 9.0000e-001 107590 -6.5349e+000  1.6277e-001 -2.8244e+000 27312 107339,107495,107469
 9.0000e-001 107567 -8.2242e+000  1.8695e+000 -3.3369e+000 27312 107391,107469,107443
 9.0000e-001 107544 -5.8817e+000 -2.3015e-001 -3.3784e+000 27312 107365,107469,107391
 9.0000e-001 107521 -1.1897e+001 -4.1691e-002 -2.4065e+000 27312 107391,107443,107417
 9.0000e-001 107991 -5.7374e+000 -3.7990e+000 -9.0048e-001 26858 108086,108014,107795
 9.0000e-001 107968 -4.4052e+000 -2.5017e+000  2.3521e-001 26858 108014,107717,107873
 9.0000e-001 107945 -6.4594e+000 -4.9192e+000 -5.5708e-001 26858 108158,108086,107795
 9.0000e-001 107922 -7.7997e+000 -5.8023e+000 -1.6500e-001 26858 108158,107795,107769
 9.0000e-001 107899 -3.5668e+000  8.5062e-001 -1.1627e-001 26858 107821,107873,107847
 9.0000e-001 108040 -3.8777e+000  2.1210e+000 -8.5170e-001 26858 107821,107795,108014
 9.0000e-001 108063 -5.1661e+000 -2.8989e+000 -6.5571e-002 26858 107821,108014,107873
 9.0000e-001 108112 -5.2271e+000 -3.0975e+000  1.0089e+000 26858 107717,108014,108086
 9.0000e-001 108135 -6.7080e+000 -4.4009e+000  1.5939e-001 26858 107717,108086,107743
 9.0000e-001 108184 -8.1678e+000 -4.1300e+000 -9.5834e-001 26858 107743,108086,108158
 9.0000e-001 108207 -8.5704e+000 -4.3359e+000 -8.4053e-001 26858 107743,108158,107769
 9.0000e-001 108634 -4.1687e+000 -3.5062e+000  2.0143e+000 26404 108657,108415,108363
 9.0000e-001 108611 -3.1069e+000 -1.8864e-001  3.1817e+000 26404 108657,108363,108337
 9.0000e-001 108588 -7.6967e+000 -2.6098e+000  1.3041e+000 26404 108729,108311,108467
 9.0000e-001 108565 -1.7772e+000 -2.4142e+000  1.3427e+000 26404 108801,108441,108415
 9.0000e-001 108542 -4.9849e+000 -1.4109e+000  1.0846e+000 26404 108311,108493,108467
 9.0000e-001 108519 -1.9076e-001 -2.8455e+000  2.3290e+000 26404 108363,108415,108389
 9.0000e-001 108683 -2.2899e+000 -2.3423e+000  1.4718e+000 26404 108801,108415,108657
 9.0000e-001 108706 -3.4048e+000 -2.1755e+000  1.8053e+000 26404 108729,108467,108657
 9.0000e-001 108755 -1.0140e+001 -1.6166e+000  1.4391e+000 26404 108337,108311,108729
 9.0000e-001 108778 -7.9958e+000 -2.7727e+000  2.2015e+000 26404 108337,108729,108657
 9.0000e-001 108827 -2.6743e+000 -1.9564e+000  1.2439e+000 26404 108467,108441,108801
 9.0000e-001 108850 -3.4551e+000 -2.1968e+000  1.5557e+000 26404 108467,108801,108657
 9.0000e-001 109228  2.5117e+000  9.2891e+000  2.8095e+000 26064 109006,109084,109058
 9.0000e-001 109205  5.3719e-003  7.7987e+000  2.0477e+000 26064 108980,109084,109006
 9.0000e-001 109182  6.6189e-001  7.7108e+000  2.3422e+000 26064 108980,109110,109084
 9.0000e-001 109159  3.7730e+000  7.8039e+000  4.1065e+000 26064 109006,109058,109032
 9.0000e-001 109136  2.3221e+000  3.5572e+000  1.3449e+000 26064 108954,109110,108980
 9.0000e-001 109427  1.7153e+000  6.9396e+000  2.7046e+000 25660 109303,109355,109329
 9.0000e-001 109404  5.4204e-001  3.1760e+000 -1.0544e+000 25660 109277,109355,109303
 9.0000e-001 109381  6.5354e+000  2.4166e+000 -1.2456e+000 25660 109251,109355,109277
 9.0000e-001 109577 -7.8513e+000 -6.5786e+000 -1.1762e+000 25306 109476,109528,109502
 9.0000e-001 109554 -1.0202e+001 -7.5715e+000 -1.3192e+000 25306 109450,109528,109476
 9.0000e-001 109778 -3.9660e+000  3.8757e+000 -6.9094e-002 24944 109628,109706,109654
 9.0000e-001 109755 -4.6102e+000  5.2688e+000 -7.6634e-001 24944 109602,109706,109628
 9.0000e-001 109732 -4.6472e+000  2.7192e+000  3.5968e-001 24944 109654,109706,109680
 9.0000e-001 110126 -8.1099e+000 -5.5661e+000 -7.4268e-001 24440 110149,109907,109855
 9.0000e-001 110103 -7.0475e+000 -5.4088e+000 -7.4445e-001 24440 110149,109855,109985
 9.0000e-001 110080 -8.4965e+000 -5.8698e+000 -4.9306e-001 24440 109855,109907,109881
 9.0000e-001 110057 -8.3094e+000 -6.0286e+000 -9.4286e-001 24440 109829,109985,109855
 9.0000e-001 110034 -8.1296e+000 -4.3114e+000  7.5970e-001 24440 109907,109959,109933
 9.0000e-001 110011 -7.4839e+000 -5.2489e+000  9.2790e-001 24440 109803,109985,109829
 9.0000e-001 110175 -7.6208e+000 -5.9925e+000  1.0432e-001 24440 109959,109907,110149
 9.0000e-001 110198 -6.0193e+000 -5.5134e+000  5.7692e-002 24440 109959,110149,109985
 9.0000e-001 110301 -8.5781e+000 -6.6603e+000 -1.0086e+000 24028 110223,110275,110249
 9.0000e-001 110573 -3.9912e+000  5.9978e+000 -2.0341e-001 23467 110400,110452,110426
 9.0000e-001 110550 -4.8920e+000  4.2790e+000 -5.3239e-001 23467 110374,110452,110400
 9.0000e-001 110527 -3.0197e+000  5.0727e+000 -9.0589e-001 23467 110348,110452,110374
 9.0000e-001 110504 -3.4476e+000  3.3319e+000 -4.5656e-001 23467 110348,110478,110452
 9.0000e-001 111004  4.4237e+000  3.3391e+000 -8.2218e+000 22963 111027,110733,110707
 9.0000e-001 110981 -1.2066e+000  2.4929e+000 -3.4826e+000 22963 111027,110707,110681
 9.0000e-001 110958 -4.9807e+000  1.5301e+000 -1.7999e+000 22963 111099,110759,110733
 9.0000e-001 110935 -1.4722e+000  5.6440e+000 -3.6354e+000 22963 111171,110863,110811
 9.0000e-001 110912 -1.4150e+001  7.8381e+000 -7.6081e-001 22963 110759,110811,110785
 9.0000e-001 110889 -4.5916e+000  1.3214e+001  3.7318e+000 22963 110811,110863,110837
 9.0000e-001 111053  8.1645e-001  6.2553e+000 -4.7405e+000 22963 111099,110733,111027
 9.0000e-001 111076 -4.7686e-001  2.3394e+000 -3.0780e+000 22963 111171,110811,111027
 9.0000e-001 111125 -5.5185e+000  3.6060e-002  1.1135e+000 22963 110811,110759,111099
 9.0000e-001 111148 -4.9365e+000 -1.0449e+000 -8.7499e-001 22963 110811,111099,111027
 9.0000e-001 111197 -1.2971e+000  1.0539e+001 -4.1792e+000 22963 110681,110863,111171
 9.0000e-001 111220 -1.1432e+000  6.9150e+000 -2.2530e+000 22963 110681,111171,111027
 9.0000e-001 111726  2.7940e+000  6.8166e-001 -2.3595e+000 22459 111749,111507,111429
 9.0000e-001 111703 -8.3559e-001 -3.5824e-001  2.6813e+000 22459 111749,111429,111585
 9.0000e-001 111680 -1.0853e+001  1.1271e+001  9.9714e-001 22459 111403,111585,111429
 9.0000e-001 111657  2.6299e+000  8.2025e+000 -6.0724e+000 22459 111507,111559,111533
 9.0000e-001 111634  3.5135e-001  1.4255e+001 -2.3010e+000 22459 111455,111507,111481
 9.0000e-001 111611 -6.7915e+000  1.2615e+001  2.9944e-001 22459 111429,111507,111455
 9.0000e-001 111775  3.3938e+000  8.2947e+000 -6.0527e+000 22459 111559,111507,111749
 9.0000e-001 111798 -7.1177e-001  3.2356e+000 -1.2183e+000 22459 111559,111749,111585
 9.0000e-001 112046 -2.4350e-001  5.4549e+000  1.8753e-001 21898 112069,111925,111873
 9.0000e-001 112023 -4.4387e-001  4.3820e+000  1.9934e+000 21898 112069,111873,111847
 9.0000e-001 112000 -6.2935e+000  6.4684e+000  3.3821e+000 21898 111821,111951,111847
 9.0000e-001 111977 -1.3230e+000  2.7490e+000 -6.5210e-001 21898 111873,111925,111899
 9.0000e-001 112095 -2.6413e+000  4.2748e+000  7.0371e-001 21898 111951,111925,112069
 9.0000e-001 112118 -1.7152e+000  3.7490e+000  2.4007e+000 21898 111951,112069,111847
 9.0000e-001 112498  2.2037e+000  1.7080e+000 -1.9900e+000 21608 112521,112276,112224
 9.0000e-001 112475  2.4749e+000  2.4067e+000 -2.7362e+000 21608 112521,112224,112380
 9.0000e-001 112452  1.3541e+000 -1.5373e+000 -1.0196e+000 21608 112302,112380,112354
 9.0000e-001 112429  7.5861e-001  6.0174e-001 -1.3403e+000 21608 112224,112276,112250
 9.0000e-001 112406 -2.0745e+000 -1.6899e+000 -6.2889e-001 21608 112302,112354,112328
 9.0000e-001 112547  2.3359e+000 -2.5430e-001 -1.3892e+000 21608 112302,112276,112521
 9.0000e-001 112570  3.1482e+000  1.2953e+000 -2.1281e+000 21608 112302,112521,112380
 9.0000e-001 112948 -1.6222e+001 -3.6631e+000  2.7929e+000 20882 112971,112752,112700
 9.0000e-001 112925 -1.0275e+001 -1.6989e+000  1.4719e+000 20882 112971,112700,112830
 9.0000e-001 112902 -9.5448e+000 -1.4827e+000  4.0155e+000 20882 112778,112830,112804
 9.0000e-001 112879 -1.0407e+001 -5.3697e+000  2.0842e+000 20882 112674,112830,112700
 9.0000e-001 112856 -1.1062e+001  2.3729e+000  5.9700e-001 20882 112700,112752,112726
 9.0000e-001 112997 -1.6407e+001 -3.6723e+000  6.1160e+000 20882 112778,112752,112971
 9.0000e-001 113020 -1.3043e+001 -2.7533e+000  4.6694e+000 20882 112778,112971,112830
 9.0000e-001 113526 -5.9586e+000 -2.6515e+000 -1.6211e+000 20428 113255,113385,113333
 9.0000e-001 113503 -5.2356e+000 -6.1341e-001 -1.5576e+000 20428 113229,113385,113255
 9.0000e-001 113480 -1.1055e+001 -6.6310e-001 -5.9309e-001 20428 113255,113333,113281
 9.0000e-001 113457 -5.2358e+000 -2.4342e+000 -2.4998e+000 20428 113203,113385,113229
 9.0000e-001 113434 -9.1954e+000 -1.1079e+000 -1.1120e-001 20428 113281,113333,113307
 9.0000e-001 113411 -5.8708e+000 -5.4592e+000 -1.2762e+000 20428 113333,113385,113359
 9.0000e-001 113774 -4.7780e+000 -2.5818e+000  9.0076e-001 19917 113797,113601,113549
 9.0000e-001 113751 -5.6208e+000 -3.9964e+000  1.4625e+000 19917 113869,113797,113549
 9.0000e-001 113728 -5.9178e+000 -4.1785e+000  1.6406e+000 19917 113869,113549,113679
 9.0000e-001 113705 -4.2525e+000 -3.1167e+000  1.6881e-002 19917 113549,113601,113575
 9.0000e-001 113823 -5.2818e+000 -5.9499e-001  5.1660e-001 19917 113627,113601,113797
 9.0000e-001 113846 -5.0891e+000 -2.0492e+000 -4.8537e-002 19917 113627,113797,113653
 9.0000e-001 113895 -5.9686e+000 -2.4618e+000 -1.9492e-001 19917 113653,113797,113869
 9.0000e-001 113918 -8.2070e+000 -3.5055e+000  2.1147e-001 19917 113653,113869,113679
 9.0000e-001 114166  2.8687e+000  6.2522e+000 -6.6706e-001 19413 113993,114045,114019
 9.0000e-001 114143  5.8541e+000  5.0841e+000 -7.1059e-001 19413 113967,114045,113993
 9.0000e-001 114120  2.4118e+000  3.4921e+000  2.8277e-001 19413 113967,114071,114045
 9.0000e-001 114097  6.8337e+000  4.1927e+000  3.5803e-001 19413 113941,114071,113967
 9.0000e-001 114438 -2.3603e-001 -8.7585e-001 -5.4933e-003 19001 114213,114265,114239
 9.0000e-001 114415 -2.2317e+000 -3.1133e+000  1.2003e+000 19001 114213,114343,114265
 9.0000e-001 114392 -1.3789e+000 -3.0933e-001  1.7832e-001 19001 114265,114343,114317
 9.0000e-001 114369 -6.7766e-002  9.0741e-002 -2.4860e-002 19001 114265,114317,114291
 9.0000e-001 114639 -5.6577e-001  7.6910e-001  1.1496e+000 18554 114489,114541,114515
 9.0000e-001 114616 -3.7129e+000  2.2846e+000  1.1593e+000 18554 114489,114567,114541
 9.0000e-001 114593 -6.5671e+000  3.7012e+000  8.5988e-001 18554 114463,114567,114489
 9.0000e-001 115043  1.6818e+000  4.4899e+000 -1.0241e+000 18164 114795,114925,114821
 9.0000e-001 115020  1.3575e+000  5.5287e+000 -1.3420e+000 18164 114769,114925,114795
 9.0000e-001 114997  1.5732e+000  1.8770e+000 -1.1826e+000 18164 115066,114873,114821
 9.0000e-001 114974  1.9590e+000  4.1776e+000 -1.3834e+000 18164 115066,114821,114925
 9.0000e-001 114951  4.9572e-001  1.8253e+000 -7.2818e-001 18164 114821,114873,114847
 9.0000e-001 115092  5.2028e-001  3.5416e+000 -2.4294e+000 18164 114899,114873,115066
 9.0000e-001 115115  1.7377e+000  7.0452e+000 -2.6993e+000 18164 114899,115066,114925
 9.0000e-001 115265 -1.1455e+001 -2.9151e+000 -2.3624e-002 17852 115164,115216,115190
 9.0000e-001 115242 -8.7956e+000 -1.6406e+000  1.0377e+000 17852 115138,115216,115164
 9.0000e-001 115464 -1.5614e+001 -6.4673e+000 -2.4000e+000 17346 115288,115366,115340
 9.0000e-001 115441 -5.1691e+000 -6.2330e+000 -3.5205e+000 17346 115288,115392,115366
 9.0000e-001 115418 -6.2797e+000 -5.4168e+000 -1.7443e+000 17346 115288,115340,115314
 9.0000e-001 115736 -5.8624e+000 -9.1972e-001 -6.2814e-001 16942 115563,115641,115615
 9.0000e-001 115713 -5.6201e+000  8.2062e-001 -8.5568e-001 16942 115511,115641,115563
 9.0000e-001 115690 -3.0516e+000  4.6707e-001  7.1537e-002 16942 115563,115615,115589
 9.0000e-001 115667 -6.4543e+000  8.4830e-001 -3.5555e-001 16942 115511,115563,115537
 9.0000e-001 116091 -1.8903e+000 -1.8489e+000  4.9384e-001 16388 115918,115970,115944
 9.0000e-001 116068  7.3548e-001 -2.5227e+000  2.2462e+000 16388 115918,115996,115970
 9.0000e-001 116045  3.6240e+000 -6.1196e+000  1.4554e+000 16388 115892,115996,115918
 9.0000e-001 116022  2.4228e+000 -1.7479e+000  7.1452e-001 16388 115866,115996,115892
 9.0000e-001 116192 -9.0650e-001  1.5903e+000 -2.7494e-001 15810 116114,116166,116140
 9.0000e-001 116342 -4.1195e+000 -3.3658e-001 -1.5423e-001 15419 116241,116293,116267
 9.0000e-001 116319 -2.1527e-001 -3.8476e-001  3.7166e-002 15419 116215,116293,116241
 9.0000e-001 116445  1.0860e-001  8.4894e+000 -3.1640e+000 421 116367,116419,116393
 1.0000e+000 68477  1.5343e+000 -4.8682e-001  1.2299e-001 68018 68327,68379,68353
 1.0000e+000 68454  8.5368e-001 -2.9154e+000  8.6905e-001 68018 68301,68379,68327
 1.0000e+000 68431  2.3586e+000 -2.4281e+000  1.4846e+000 68018 68301,68405,68379
 1.0000e+000 68578  2.9832e+000 -3.1576e+000  6.2747e-001 67820 68500,68552,68526
 1.0000e+000 68728  1.5748e+000 -4.5671e+000  2.5453e-002 67508 68601,68653,68627
 1.0000e+000 68705 -2.2920e-001  1.3793e-002 -7.2924e-001 67508 68601,68679,68653
 1.0000e+000 68927  7.9840e+000  4.8926e+000 -7.0946e-001 67310 68777,68829,68803
 1.0000e+000 68904  5.0688e+000  3.7708e+000  3.7965e-001 67310 68751,68829,68777
 1.0000e+000 68881  4.6597e+000  2.9839e+000  2.2970e-001 67310 68751,68855,68829
 1.0000e+000 69386  2.9419e+000 -8.6616e-002 -1.4855e-001 67020 69216,69268,69242
 1.0000e+000 69363  3.0453e+000  3.8861e-001 -2.1615e-001 67020 69138,69268,69216
 1.0000e+000 69340  6.1402e+000  6.8211e-001 -6.8831e-001 67020 69112,69268,69138
 1.0000e+000 69317  2.1051e+000  2.5376e-001  5.1147e-001 67020 69138,69190,69164
 1.0000e+000 69294  2.1721e+000  8.4282e-001  1.3310e-001 67020 69138,69216,69190
 1.0000e+000 69536  5.4069e+000  1.3342e+000 -6.2212e-001 66708 69435,69487,69461
 1.0000e+000 69513  7.4663e+000 -1.2316e+000  7.5879e-001 66708 69409,69487,69435
 1.0000e+000 69735 -8.5041e-001 -8.1378e+000  4.8579e-001 66346 69585,69637,69611
 1.0000e+000 69712  5.8691e-001 -7.8812e+000  1.1943e-001 66346 69559,69637,69585
 1.0000e+000 69689  1.8493e+000 -5.5866e+000 -7.0387e-001 66346 69559,69663,69637
 1.0000e+000 69985  3.4811e+000  7.6148e-001  6.9270e-001 66148 69786,69890,69864
 1.0000e+000 69962  2.3614e+000  7.0414e-001  1.6753e-001 66148 69760,69890,69786
 1.0000e+000 69939 -4.4628e-001  2.2434e+000  5.7219e+000 66148 69786,69864,69838
 1.0000e+000 69916  2.8253e+000  3.8633e+000  7.9060e-001 66148 69786,69838,69812
 1.0000e+000 70137  4.6794e+000  3.4083e+000 -5.7592e-002 65950 70036,70088,70062
 1.0000e+000 70114  4.9031e+000  3.1225e+000  2.6228e-001 65950 70010,70088,70036
 1.0000e+000 70470  4.4503e+000  2.8131e+000  2.2819e-001 65546 70245,70323,70271
 1.0000e+000 70447  4.5959e+000  3.2305e+000  2.4318e-001 65546 70245,70375,70323
 1.0000e+000 70424  4.2715e+000  1.7322e+000  2.7180e-001 65546 70323,70375,70349
 1.0000e+000 70401  4.8782e+000  1.4613e+000  1.1910e+000 65546 70271,70323,70297
 1.0000e+000 70620  3.5242e+000  2.0210e+000  3.4714e-002 65348 70493,70545,70519
 1.0000e+000 70597  4.9102e+000  2.9529e+000  4.8729e-001 65348 70493,70571,70545
 1.0000e+000 70721  4.5293e+000  3.9921e+000 -1.0960e-001 65150 70643,70695,70669
 1.0000e+000 71020  4.5209e+000  3.7440e+000 -4.3866e-001 64952 71043,70850,70824
 1.0000e+000 70997  4.3393e+000  3.0152e+000 -6.6390e-001 64952 71043,70824,70772
 1.0000e+000 70974  4.7023e+000  3.3098e+000 -1.1491e-001 64952 71115,70746,70876
 1.0000e+000 70951  4.3592e+000  3.3513e+000  3.7481e-002 64952 70746,70902,70876
 1.0000e+000 70928  4.1146e+000  3.0113e+000 -6.8947e-001 64952 70772,70824,70798
 1.0000e+000 71069  4.5264e+000  3.8788e+000 -1.1841e-001 64952 70876,70850,71043
 1.0000e+000 71092  4.3576e+000  3.4641e+000 -2.6077e-001 64952 71115,70876,71043
 1.0000e+000 71141  5.0000e+000  3.4252e+000 -1.4715e-001 64952 70772,70746,71115
 1.0000e+000 71164  4.8319e+000  3.6908e+000 -3.4979e-001 64952 70772,71115,71043
 1.0000e+000 71365  4.0990e+000  4.0929e+000 -4.5599e-003 64662 71215,71293,71267
 1.0000e+000 71342  4.1778e+000  4.2851e+000 -1.7553e-002 64662 71189,71293,71215
 1.0000e+000 71319  4.2081e+000  4.1866e+000  8.6737e-002 64662 71215,71267,71241
 1.0000e+000 71615  4.2984e+000  2.3933e+000  7.9813e-001 64350 71710,71638,71468
 1.0000e+000 71592  5.8231e+000  3.0560e+000  2.4816e-001 64350 71638,71416,71390
 1.0000e+000 71569  3.8862e+000  2.9825e+000  1.3478e+000 64350 71710,71468,71442
 1.0000e+000 71546  6.2825e+000  3.0508e+000  4.6009e-002 64350 71390,71520,71494
 1.0000e+000 71664  5.4627e+000  2.9683e+000  5.1035e-001 64350 71494,71468,71638
 1.0000e+000 71687  5.1112e+000  2.7829e+000  3.2367e-001 64350 71494,71638,71390
 1.0000e+000 71736  5.2858e+000  3.3924e+000  1.4046e-001 64350 71416,71638,71710
 1.0000e+000 71759  4.2527e+000  3.5623e+000  7.2529e-001 64350 71416,71710,71442
 1.0000e+000 72318  2.4972e+000  4.2047e+000  2.5239e+000 63837 71972,72024,71998
 1.0000e+000 72295  2.9893e+000  3.4009e+000  1.3759e+000 63837 72341,71972,71946
 1.0000e+000 72272  2.4819e+000  2.2407e+000  1.4747e+000 63837 72413,72341,71946
 1.0000e+000 72249  7.4251e-001  2.1204e+000  1.7244e+000 63837 72413,71946,72128
 1.0000e+000 72226  2.0581e+000  1.1366e+000  1.1127e+000 63837 72024,72076,72050
 1.0000e+000 72203  2.6368e+000  1.5415e+000  9.3174e-001 63837 72024,72102,72076
 1.0000e+000 72180  2.7905e+000  3.1664e+000  8.8932e-001 63837 71946,72154,72128
 1.0000e+000 72367  2.6955e+000  3.5246e+000  2.7122e+000 63837 72024,71972,72341
 1.0000e+000 72390  2.1594e+000  2.8555e+000  1.7040e+000 63837 72024,72341,72102
 1.0000e+000 72439 -1.4359e-002  2.5405e+000  1.2363e+000 63837 72102,72341,72413
 1.0000e+000 72462 -1.2404e+000  2.8110e+000  1.5431e+000 63837 72102,72413,72128
 1.0000e+000 72791  3.2571e+000  1.6117e+000 -7.7656e-001 63383 72592,72696,72670
 1.0000e+000 72768  4.7510e+000  5.4470e+000 -9.1393e-001 63383 72566,72696,72592
 1.0000e+000 72745  4.5475e+000  4.1447e+000  9.7181e-001 63383 72592,72670,72618
 1.0000e+000 72722  2.1581e+000  1.1501e-002 -3.8926e-001 63383 72618,72670,72644
 1.0000e+000 73297  5.1133e+000  4.2211e+000  1.3645e+000 63185 73000,73156,73130
 1.0000e+000 73274  5.2913e+000  5.1075e+000 -6.0684e-001 63185 72974,73156,73000
 1.0000e+000 73251  3.1601e+000  1.5897e+000  8.2057e-001 63185 73000,73052,73026
 1.0000e+000 73228  2.9587e+000  2.5356e+000  5.4538e-001 63185 73000,73130,73052
 1.0000e+000 73205  3.2168e+000  3.5497e+000  8.7373e-001 63185 73052,73130,73104
 1.0000e+000 73182  3.5369e+000  1.6741e+000  6.6640e-001 63185 73052,73104,73078
 1.0000e+000 73545  3.2191e+000  5.1679e+000 -5.5240e-001 62781 73568,73398,73372
 1.0000e+000 73522  2.7874e+000  3.6909e+000 -5.4444e-001 62781 73568,73372,73346
 1.0000e+000 73499  3.4640e+000  3.8523e+000  7.6466e-002 62781 73640,73320,73424
 1.0000e+000 73476  3.6005e+000  3.8911e+000  4.4954e-002 62781 73320,73450,73424
 1.0000e+000 73594  2.6359e+000  3.8845e+000 -1.8728e-001 62781 73424,73398,73568
 1.0000e+000 73617  3.3257e+000  3.7454e+000 -7.8932e-002 62781 73640,73424,73568
 1.0000e+000 73666  3.3643e+000  3.6480e+000 -9.1377e-002 62781 73346,73320,73640
 1.0000e+000 73689  3.2801e+000  3.4958e+000 -2.3324e-001 62781 73346,73640,73568
 1.0000e+000 74035  6.0999e-003 -3.6668e+000 -4.9546e-001 62363 74058,73868,73842
 1.0000e+000 74012  1.3074e+000 -2.5787e+000 -1.0872e+000 62363 74130,74058,73842
 1.0000e+000 73989  1.5896e+000 -2.7957e+000 -1.6048e+000 62363 74130,73842,73816
 1.0000e+000 73966  3.0010e-002 -4.9825e+000  1.7757e-001 62363 74202,73764,73894
 1.0000e+000 73943 -1.2200e+000 -3.9606e+000  2.6214e-001 62363 73712,73894,73764
 1.0000e+000 73920 -3.1002e+000 -4.2145e+000 -1.0162e+000 62363 73712,73764,73738
 1.0000e+000 74084  1.0507e+000 -2.7055e+000 -6.9971e-002 62363 73894,73868,74058
 1.0000e+000 74107  3.0526e-001 -4.2767e+000  1.8755e-001 62363 74202,73894,74058
 1.0000e+000 74156  7.3084e-001 -3.5609e+000 -5.2593e-001 62363 73790,74058,74130
 1.0000e+000 74179  1.4812e+000 -3.7895e+000 -1.0700e+000 62363 73790,74130,73816
 1.0000e+000 74228 -9.2362e-002 -5.0469e+000 -7.2725e-001 62363 73790,73764,74202
 1.0000e+000 74251  2.5548e-001 -4.2094e+000 -7.4109e-001 62363 73790,74202,74058
 1.0000e+000 74403  2.2010e+000 -2.4452e+000  9.9935e-002 62115 74426,74302,74276
 1.0000e+000 74380  2.4893e+000 -1.7814e+000  2.3229e-001 62115 74426,74276,74354
 1.0000e+000 74452  1.7658e+000 -1.9330e+000  2.4177e-002 62115 74328,74302,74426
 1.0000e+000 74475  2.0683e+000 -1.2374e+000  1.4854e-001 62115 74328,74426,74354
 1.0000e+000 74578  3.5160e+000  3.8556e+000  6.8463e-002 61825 74500,74552,74526
 1.0000e+000 74982 -3.9340e-001 -6.7891e+000 -1.3139e-001 61513 75005,74734,74708
 1.0000e+000 74959 -1.5309e+000 -6.6704e+000 -2.6943e-002 61513 75005,74708,74864
 1.0000e+000 74936 -2.5466e+000 -7.2275e+000 -2.1481e-001 61513 75077,74812,74734
 1.0000e+000 74913  1.1887e+000 -5.2172e+000 -1.9361e+000 61513 74734,74786,74760
 1.0000e+000 74890  6.4925e-001 -5.4856e+000 -8.8793e-001 61513 74734,74812,74786
 1.0000e+000 75031 -1.3507e+000 -7.0235e+000 -4.1282e-001 61513 75077,74734,75005
 1.0000e+000 75054 -1.0620e+000 -6.5217e+000  4.3418e-001 61513 74838,75005,74864
 1.0000e+000 75103 -3.1151e+000 -7.1172e+000  9.8605e-001 61513 74838,74812,75077
 1.0000e+000 75126 -2.3729e+000 -7.1958e+000  7.7016e-001 61513 74838,75077,75005
 1.0000e+000 75553 -1.1973e-001 -1.7101e+000  8.2976e-002 61060 75576,75360,75308
 1.0000e+000 75530  9.6397e-002 -2.2466e+000  1.6138e-001 61060 75576,75308,75230
 1.0000e+000 75507  2.7537e-001 -2.3563e+000 -8.4808e-001 61060 75308,75360,75334
 1.0000e+000 75484 -8.3841e-001 -4.5487e+000  8.2255e-003 61060 75230,75308,75256
 1.0000e+000 75461 -1.6716e-001 -1.6238e+000 -1.6295e+000 61060 75256,75308,75282
 1.0000e+000 75438 -8.3988e-001 -3.8338e+000  5.1926e-001 61060 75360,75412,75386
 1.0000e+000 75602 -7.5687e-002 -2.0935e+000  3.1926e-001 61060 75412,75360,75576
 1.0000e+000 75625 -1.9852e-002 -2.8934e+000  3.5064e-001 61060 75412,75576,75230
 1.0000e+000 76052  2.0185e+000 -3.3196e-001  3.0731e-001 60442 75755,75859,75833
 1.0000e+000 76029  5.1805e-001 -8.0080e-001  2.4660e-001 60442 75729,75859,75755
 1.0000e+000 76006  1.7395e+000  7.9181e-001  1.0345e+000 60442 75755,75833,75807
 1.0000e+000 75983  7.7232e-001 -1.1970e+000  4.5323e-001 60442 75755,75807,75781
 1.0000e+000 75960  8.1776e-001  1.5713e-001 -3.8199e-002 60442 75729,75911,75859
 1.0000e+000 75937  8.9344e-001 -3.4545e-001  4.7695e-001 60442 75859,75911,75885
 1.0000e+000 76430  3.9761e+000  3.6490e+000 -2.9796e-002 59788 76453,76286,76234
 1.0000e+000 76407  4.1340e+000  4.1251e+000 -1.1193e-001 59788 76453,76234,76182
 1.0000e+000 76384  3.8482e+000  3.8395e+000 -4.4653e-001 59788 76525,76156,76312
 1.0000e+000 76361  4.6797e+000  3.5085e+000 -1.9638e-001 59788 76182,76234,76208
 1.0000e+000 76338  4.6316e+000  3.4682e+000 -1.9372e-001 59788 76234,76286,76260
 1.0000e+000 76479  4.2171e+000  3.9615e+000 -2.2484e-001 59788 76312,76286,76453
 1.0000e+000 76502  4.0677e+000  4.0393e+000 -3.6306e-001 59788 76525,76312,76453
 1.0000e+000 76551  4.0624e+000  4.0769e+000 -3.1209e-001 59788 76182,76156,76525
 1.0000e+000 76574  4.0185e+000  4.0875e+000 -3.0149e-001 59788 76182,76525,76453
 1.0000e+000 77031  3.6969e+000  3.3516e+000 -3.2568e-002 59448 76835,76887,76861
 1.0000e+000 77008  4.0371e+000  4.7598e+000 -1.2830e-001 59448 76835,76913,76887
 1.0000e+000 76985  4.2399e+000  4.7368e+000 -3.2829e-001 59448 76809,76913,76835
 1.0000e+000 76962  3.5486e+000  4.1042e+000 -7.3999e-001 59448 76757,76913,76809
 1.0000e+000 76939  2.6384e+000  8.6364e+000 -5.8898e-001 59448 76757,76809,76783
 1.0000e+000 77537 -5.1077e-001 -6.5871e+000  1.8080e-001 58994 77560,77344,77292
 1.0000e+000 77514 -2.1621e+000 -6.1829e+000 -7.6602e-002 58994 77560,77292,77240
 1.0000e+000 77491  3.1867e-001 -5.7379e+000 -9.3971e-001 58994 77632,77214,77370
 1.0000e+000 77468 -2.9780e+000 -7.6786e+000  4.9669e-001 58994 77292,77344,77318
 1.0000e+000 77445  1.4489e+000 -7.1855e+000 -7.4697e-001 58994 77214,77396,77370
 1.0000e+000 77422 -3.3934e+000 -9.0006e+000  8.1903e-002 58994 77240,77292,77266
 1.0000e+000 77586 -8.1793e-001 -6.5529e+000  2.2305e-001 58994 77370,77344,77560
 1.0000e+000 77609 -8.3634e-001 -6.4690e+000  2.6113e-001 58994 77632,77370,77560
 1.0000e+000 77658  1.0218e+000 -4.7849e+000 -1.9188e+000 58994 77240,77214,77632
 1.0000e+000 77681  2.4858e-001 -4.5251e+000 -8.1339e-001 58994 77240,77632,77560
 1.0000e+000 78138 -1.3518e-001 -1.2162e+000  2.5519e-001 58440 77864,77994,77890
 1.0000e+000 78115 -5.7702e-002 -8.8819e-002 -4.5613e-001 58440 77864,78020,77994
 1.0000e+000 78092  9.2601e-001  1.7512e-001  1.2916e+000 58440 77942,77994,77968
 1.0000e+000 78069 -4.4681e-002 -8.3104e-001  5.7076e-001 58440 77890,77994,77942
 1.0000e+000 78046 -2.4844e+000 -5.0125e-001  2.3258e+000 58440 77890,77942,77916
 1.0000e+000 78467 -4.8939e-001 -4.2259e+000 -6.2866e-001 57928 78562,78490,78346
 1.0000e+000 78444 -9.5283e-001 -5.3169e+000 -1.1710e+000 57928 78490,78294,78268
 1.0000e+000 78421 -3.7337e-001 -4.3623e+000 -5.2752e-001 57928 78562,78346,78320
 1.0000e+000 78398 -1.5761e-001 -4.6231e+000 -1.7080e-001 57928 78242,78372,78268
 1.0000e+000 78516 -4.5636e-001 -2.7607e+000 -8.0633e-002 57928 78372,78346,78490
 1.0000e+000 78539 -1.0161e+000 -4.8447e+000 -4.0478e-001 57928 78372,78490,78268
 1.0000e+000 78588 -7.6396e-001 -4.3977e+000 -5.5370e-001 57928 78294,78490,78562
 1.0000e+000 78611 -6.0181e-001 -4.5455e+000 -4.4295e-001 57928 78294,78562,78320
 1.0000e+000 79068  2.8183e+000  2.5047e+000  4.2641e-002 57467 78794,78924,78820
 1.0000e+000 79045  5.2653e+000  3.6898e+000  5.8193e-001 57467 78794,78950,78924
 1.0000e+000 79022  2.8406e+000  2.4319e+000 -1.5657e-001 57467 78820,78898,78872
 1.0000e+000 78999  3.0405e+000  2.8861e+000  1.3350e-001 57467 78820,78924,78898
 1.0000e+000 78976  3.6172e+000  2.7180e+000 -1.3866e-001 57467 78820,78872,78846
 1.0000e+000 79446 -5.2651e-002 -1.2721e+000 -1.4082e+000 57120 79172,79302,79250
 1.0000e+000 79423 -1.2305e+000 -1.8139e+000 -7.2244e-001 57120 79172,79328,79302
 1.0000e+000 79400 -1.8020e+000 -2.5283e+000 -8.0070e-001 57120 79172,79250,79198
 1.0000e+000 79377 -5.4702e-001 -1.5014e+000 -1.6006e+000 57120 79250,79302,79276
 1.0000e+000 79354 -2.4477e+000 -2.9772e+000 -1.0025e+000 57120 79198,79250,79224
 1.0000e+000 79952  3.1495e+000  2.4376e+000  8.2329e-001 56773 79629,79785,79655
 1.0000e+000 79929  4.5772e+000  3.2410e+000  4.5999e-001 56773 79629,79811,79785
 1.0000e+000 79906  3.1394e+000  1.1324e+000  5.3690e-001 56773 79655,79733,79681
 1.0000e+000 79883  3.2333e+000  1.4779e+000  3.8130e-001 56773 79655,79785,79733
 1.0000e+000 79860  3.6677e+000  2.1503e+000  1.5075e-001 56773 79733,79785,79759
 1.0000e+000 79837  2.8926e+000  1.0860e+000  1.3620e+000 56773 79681,79733,79707
 1.0000e+000 80281  2.9984e+000 -1.8475e+000  2.8116e+000 56319 80108,80160,80134
 1.0000e+000 80258  1.6849e+000 -4.7889e-001  2.6616e+000 56319 80056,80160,80108
 1.0000e+000 80235  5.5963e-001 -1.3103e+000  1.4077e+000 56319 80056,80186,80160
 1.0000e+000 80212 -7.6053e-001 -3.5286e+000  3.7998e+000 56319 80056,80108,80082
 1.0000e+000 80738  3.5532e+000  1.6562e+000  4.9456e-001 55957 80516,80620,80594
 1.0000e+000 80715  2.4884e+000  2.8197e+000  6.0563e-001 55957 80464,80620,80516
 1.0000e+000 80692  2.9827e+000  1.5066e-001  7.5401e-001 55957 80761,80568,80542
 1.0000e+000 80669  1.5950e+000  7.0891e-001  8.0986e-001 55957 80761,80542,80516
 1.0000e+000 80646  2.0780e+000  1.8632e+000  4.2421e-001 55957 80464,80516,80490
 1.0000e+000 80787  3.8428e+000  6.3615e-001  5.6080e-001 55957 80594,80568,80761
 1.0000e+000 80810  2.5939e+000  1.2912e+000  5.7141e-001 55957 80594,80761,80516
 1.0000e+000 81210  2.5279e+000  3.1234e+000  2.1585e-001 55317 80936,80988,80962
 1.0000e+000 81187  2.0711e+000  2.5274e+000 -9.2238e-002 55317 80936,81066,80988
 1.0000e+000 81164  2.0588e+000  2.2641e+000 -7.5699e-004 55317 80936,81092,81066
 1.0000e+000 81141  2.2199e+000  2.6459e+000  9.5752e-002 55317 80988,81066,81014
 1.0000e+000 81118  1.5608e+000  2.1953e+000 -1.1566e-001 55317 81014,81066,81040
 1.0000e+000 81539 -2.6289e+000 -2.3396e+000  1.1041e+000 54913 81340,81418,81392
 1.0000e+000 81516 -3.3134e+000 -4.4416e+000  1.7571e+000 54913 81340,81444,81418
 1.0000e+000 81493 -4.8904e+000 -4.7509e+000  2.8495e+000 54913 81314,81444,81340
 1.0000e+000 81470 -4.1899e+000 -3.3186e+000  5.3181e-001 54913 81340,81392,81366
 1.0000e+000 81787  1.2727e+000 -1.0527e-001  1.1987e+000 54601 81588,81692,81640
 1.0000e+000 81764  2.9382e+000 -1.8121e+000  1.1737e+000 54601 81562,81692,81588
 1.0000e+000 81741  1.6561e+000  2.3630e-001  5.1589e-001 54601 81588,81640,81614
 1.0000e+000 81718  1.3126e+000 -5.1990e-001  9.0139e-001 54601 81640,81692,81666
 1.0000e+000 82344  1.0839e+000 -7.2260e+000 -1.1891e+000 54090 81998,82102,82076
 1.0000e+000 82321 -2.2687e+000 -8.6851e+000 -7.6606e-001 54090 81998,82154,82102
 1.0000e+000 82298 -1.7312e+000 -7.2751e+000 -2.9753e-001 54090 81972,82154,81998
 1.0000e+000 82275 -3.2445e+000 -7.9362e+000 -5.8363e-001 54090 81998,82076,82024
 1.0000e+000 82252 -1.8834e+000 -9.3105e+000  4.7882e+000 54090 81972,82180,82154
 1.0000e+000 82229 -2.1315e+000 -7.5653e+000 -6.1178e-001 54090 82102,82154,82128
 1.0000e+000 82206 -9.8811e-001 -8.1341e+000  6.4301e-001 54090 82024,82076,82050
 1.0000e+000 82722  1.7250e+000  2.5738e-001  1.1014e+000 53579 82500,82578,82552
 1.0000e+000 82699  4.5425e-001  7.6972e-001  6.4565e-001 53579 82448,82578,82500
 1.0000e+000 82676 -5.1442e-001  3.6004e-002  1.2371e+000 53579 82448,82500,82474
 1.0000e+000 82653  9.7000e-001  9.8227e-001  6.6768e-001 53579 82448,82604,82578
 1.0000e+000 82630  8.8069e-001  5.6978e-001  1.5518e+000 53579 82500,82552,82526
 1.0000e+000 83356  3.0714e+000  1.6044e+000 -4.0211e-001 53189 83379,83088,83036
 1.0000e+000 83333  2.9076e+000  1.8739e+000 -4.8931e-001 53189 83379,83036,82984
 1.0000e+000 83310  3.7158e+000  2.2551e+000 -6.7978e-001 53189 82984,83192,83166
 1.0000e+000 83287  2.6337e+000  1.1275e+000 -9.1038e-001 53189 83036,83088,83062
 1.0000e+000 83264  3.1380e+000  2.7375e-001 -9.6726e-001 53189 82984,83036,83010
 1.0000e+000 83241  3.3084e+000  2.1578e+000  9.9409e-002 53189 83114,83166,83140
 1.0000e+000 83218  2.7635e+000  2.0229e+000  8.3417e-002 53189 83088,83166,83114
 1.0000e+000 83405  3.2386e+000  1.7803e+000 -4.9052e-001 53189 83166,83088,83379
 1.0000e+000 83428  2.9985e+000  1.9978e+000 -5.5398e-001 53189 83166,83379,82984
 1.0000e+000 83725 -5.3165e+000 -6.5500e+000 -2.8537e+000 52585 83748,83529,83503
 1.0000e+000 83702 -3.2133e+000 -6.2497e+000 -7.1524e-001 52585 83820,83748,83503
 1.0000e+000 83679 -2.8756e+000 -5.4239e+000 -3.5243e-001 52585 83820,83503,83477
 1.0000e+000 83656 -2.6535e+000 -3.9485e+000 -6.2103e-001 52585 83477,83607,83581
 1.0000e+000 83633 -2.5607e+000 -3.8287e+000 -3.6639e-001 52585 83451,83607,83477
 1.0000e+000 83774 -3.6184e+000 -2.0790e+000 -1.9733e+000 52585 83555,83529,83748
 1.0000e+000 83797 -3.5660e+000 -5.5507e+000 -4.0677e-001 52585 83555,83748,83581
 1.0000e+000 83846 -3.5288e+000 -4.9310e+000 -4.8139e-001 52585 83581,83748,83820
 1.0000e+000 83869 -3.4840e+000 -4.3776e+000 -2.0056e-001 52585 83581,83820,83477
 1.0000e+000 84200  3.3275e-001 -4.2605e+000 -4.7675e-001 52024 84001,84105,84079
 1.0000e+000 84177 -1.1196e-001 -4.4932e+000 -5.6529e-001 52024 83975,84105,84001
 1.0000e+000 84154 -9.7135e-001 -3.7587e+000 -1.0213e+000 52024 84001,84079,84053
 1.0000e+000 84131 -1.2155e+000 -4.1417e+000 -1.9262e-001 52024 84001,84053,84027
 1.0000e+000 84399 -2.3712e+000 -4.3969e-002  4.5474e-001 51470 84422,84275,84249
 1.0000e+000 84376 -3.7204e+000 -9.7124e-001 -2.9857e-002 51470 84422,84249,84223
 1.0000e+000 84353 -5.7909e-001 -5.6180e-002 -1.0612e-001 51470 84275,84327,84301
 1.0000e+000 84448 -1.1223e+000 -1.1505e+000  3.6601e-001 51470 84327,84275,84422
 1.0000e+000 84471 -2.3967e+000 -1.9247e+000 -2.6465e-002 51470 84327,84422,84223
 1.0000e+000 84753 -2.9442e+000 -1.0526e+001 -1.0835e+000 51073 84603,84655,84629
 1.0000e+000 84730 -6.5282e+000 -9.6426e+000  1.0285e+000 51073 84776,84655,84603
 1.0000e+000 84707 -2.7519e-001 -5.9557e+000 -1.9492e+000 51073 84577,84681,84655
 1.0000e+000 84802 -2.9246e+000 -7.3104e+000 -6.6474e-001 51073 84577,84655,84776
 1.0000e+000 85178  1.6424e+000  1.0694e+000  9.8384e-001 50519 85201,85008,84982
 1.0000e+000 85155  1.5632e+000  9.4196e-001  8.7901e-001 50519 85273,85201,84982
 1.0000e+000 85132  1.6283e+000  8.1267e-001  8.2024e-001 50519 85273,84982,84930
 1.0000e+000 85109  2.8263e+000 -1.0437e+000  8.9911e-001 50519 84930,84982,84956
 1.0000e+000 85086  5.9829e-001  6.2534e-001  1.3548e+000 50519 85008,85060,85034
 1.0000e+000 85227  1.3432e+000  1.0107e+000  7.8039e-001 50519 85060,85008,85201
 1.0000e+000 85250  1.5735e+000  1.6978e+000  9.3793e-001 50519 85060,85201,84904
 1.0000e+000 85299  1.7516e+000  1.1824e+000  1.2067e+000 50519 84904,85201,85273
 1.0000e+000 85322  1.5779e+000  3.6944e-001  1.2472e+000 50519 84904,85273,84930
 1.0000e+000 85958  1.5904e+000  2.6891e+000 -4.1064e-002 50093 85981,85768,85716
 1.0000e+000 85935  1.4403e+000  2.5001e+000 -2.1728e-001 50093 85981,85716,85612
 1.0000e+000 85912  2.1644e+000  2.4206e+000 -5.4454e-001 50093 85612,85716,85664
 1.0000e+000 85889  1.3910e+000  2.9756e+000 -3.9662e-002 50093 85716,85768,85742
 1.0000e+000 85866  1.7321e+000  2.8138e+000 -1.1856e+000 50093 85664,85716,85690
 1.0000e+000 85843  2.2093e+000  2.4642e+000 -7.6516e-002 50093 85586,85794,85612
 1.0000e+000 85820  1.8953e+000  1.0456e+000 -5.9372e-001 50093 85612,85664,85638
 1.0000e+000 86007  2.0884e+000  3.0296e+000  3.2672e-001 50093 85794,85768,85981
 1.0000e+000 86030  1.5293e+000  2.2728e+000  4.8067e-002 50093 85794,85981,85612
 1.0000e+000 86131  1.5043e+000 -8.5001e+000  2.3115e+000 49895 86053,86105,86079
 1.0000e+000 86639  4.0388e+000  1.8133e+000  3.9077e-001 49391 86662,86394,86368
 1.0000e+000 86616  4.4577e+000  2.3939e+000  6.5170e-001 49391 86662,86368,86342
 1.0000e+000 86593  4.2461e+000  3.2009e+000  8.3240e-001 49391 86342,86498,86472
 1.0000e+000 86570  3.6536e+000  2.6904e+000  6.1332e-001 49391 86316,86498,86342
 1.0000e+000 86547  3.3020e+000  2.0622e+000  7.4528e-001 49391 86394,86472,86446
 1.0000e+000 86524  3.1338e+000  1.4669e+000  5.5077e-001 49391 86394,86446,86420
 1.0000e+000 86688  3.4096e+000  2.3928e+000  1.0457e-001 49391 86472,86394,86662
 1.0000e+000 86711  3.8552e+000  2.6952e+000  2.7239e-001 49391 86472,86662,86342
 1.0000e+000 87089 -4.7104e-002 -8.3221e-002  1.1706e+000 48987 86815,86919,86867
 1.0000e+000 87066 -6.7519e-001 -1.0701e+000  1.6344e+000 48987 86815,86971,86919
 1.0000e+000 87043  6.9918e-001  1.4074e-001  1.1888e+000 48987 86867,86919,86893
 1.0000e+000 87020 -7.2681e-001 -1.6160e+000  9.9137e-001 48987 86815,86867,86841
 1.0000e+000 86997 -1.2240e-001  2.8126e-001  1.5420e+000 48987 86919,86971,86945
 1.0000e+000 87467 -2.4211e+000 -1.4644e+000  2.5613e+000 48540 87490,87245,87219
 1.0000e+000 87444  1.0338e+000 -3.0445e-001  1.7461e+000 48540 87562,87490,87219
 1.0000e+000 87421  5.8350e-001 -4.5518e-001  1.2176e+000 48540 87562,87219,87349
 1.0000e+000 87398  4.3915e+000 -2.2539e+000  3.0554e+000 48540 87245,87297,87271
 1.0000e+000 87375  4.6918e-001  6.4882e-002  1.3886e+000 48540 87193,87349,87219
 1.0000e+000 87516  1.0532e+000 -3.1617e-001  2.4000e+000 48540 87297,87245,87490
 1.0000e+000 87539  1.6468e+000 -9.8031e-001  1.2035e+000 48540 87297,87490,87323
 1.0000e+000 87588  4.7063e-001 -1.2712e+000  1.5153e+000 48540 87323,87490,87562
 1.0000e+000 87611  3.6978e-001 -7.8899e-001  1.1078e+000 48540 87323,87562,87349
 1.0000e+000 87810 -4.7817e+000 -1.1625e+001  3.4491e-001 48136 87660,87712,87686
 1.0000e+000 87787 -3.1212e+000 -7.9133e+000 -2.7198e-002 48136 87660,87738,87712
 1.0000e+000 87764 -2.7393e+000 -6.0015e+000 -2.1824e+000 48136 87634,87738,87660
 1.0000e+000 88205 -3.8516e+000 -4.8119e+000 -1.9825e+000 47210 88300,88228,87937
 1.0000e+000 88182 -4.2304e+000 -4.3753e+000 -2.2650e+000 47210 88228,87833,88041
 1.0000e+000 88159 -3.6705e+000 -4.2234e+000 -1.8497e+000 47210 88300,87937,87911
 1.0000e+000 88136 -3.2649e+000 -5.2377e+000 -1.8891e+000 47210 87833,87911,87859
 1.0000e+000 88113 -2.7616e+000 -4.9707e+000 -1.4284e+000 47210 87937,87989,87963
 1.0000e+000 88090 -2.1224e+000  1.0885e-001  1.4555e-001 47210 87989,88041,88015
 1.0000e+000 88067 -3.3176e+000 -5.2697e+000 -1.6264e+000 47210 87859,87911,87885
 1.0000e+000 88254 -4.1702e+000 -6.0551e+000 -1.9612e+000 47210 87989,87937,88228
 1.0000e+000 88277 -4.5392e+000 -4.9348e+000 -2.4487e+000 47210 87989,88228,88041
 1.0000e+000 88326 -3.8654e+000 -5.1645e+000 -2.4415e+000 47210 87833,88228,88300
 1.0000e+000 88349 -3.7461e+000 -4.8646e+000 -2.2617e+000 47210 87833,88300,87911
 1.0000e+000 88780 -4.6467e+000 -7.4424e+000  4.1448e-001 46642 88803,88509,88483
 1.0000e+000 88757 -1.7222e+000 -6.2132e+000  4.6176e-001 46642 88803,88483,88639
 1.0000e+000 88734 -3.1033e+000 -6.3371e+000  1.6359e+000 46642 88875,88561,88509
 1.0000e+000 88711 -4.4046e+000 -6.4147e+000  2.3686e+000 46642 88509,88561,88535
 1.0000e+000 88688 -2.6211e+000 -8.5682e+000  1.9770e-001 46642 88457,88639,88483
 1.0000e+000 88665 -4.3192e+000 -1.1886e+001  1.4973e+000 46642 88561,88613,88587
 1.0000e+000 88829 -3.5547e+000 -6.4712e+000  1.5216e+000 46642 88875,88509,88803
 1.0000e+000 88852 -2.9470e+000 -7.2988e+000  1.3092e+000 46642 88613,88803,88639
 1.0000e+000 88901 -2.4463e+000 -6.5998e+000  1.8267e+000 46642 88613,88561,88875
 1.0000e+000 88924 -2.8294e+000 -6.7605e+000  1.6477e+000 46642 88613,88875,88803
 1.0000e+000 89253 -5.2184e-002 -3.8804e+000  1.1213e+000 46444 89080,89158,89132
 1.0000e+000 89230 -1.0872e+000 -6.2013e+000  8.6508e-001 46444 89028,89158,89080
 1.0000e+000 89207 -1.0962e+000 -8.3557e+000  1.5300e+000 46444 89028,89080,89054
 1.0000e+000 89184  1.1298e-002 -5.9356e+000 -7.5626e-001 46444 89080,89132,89106
 1.0000e+000 89631  3.1222e+000  1.5694e+000 -8.5760e-001 46040 89383,89461,89435
 1.0000e+000 89608  3.3952e+000  2.6588e+000 -3.9369e-002 46040 89383,89487,89461
 1.0000e+000 89585  4.3383e+000  2.2960e+000 -4.5669e-001 46040 89383,89435,89409
 1.0000e+000 89562  3.4144e+000  2.9789e+000 -1.7259e-001 46040 89383,89513,89487
 1.0000e+000 89539  3.4490e+000  3.1498e+000 -6.2227e-001 46040 89357,89513,89383
 1.0000e+000 90009  2.2752e-001  9.9908e-001  2.2366e-001 45636 89813,89891,89839
 1.0000e+000 89986  5.2527e-001  7.7503e-001 -3.9977e-001 45636 89787,89891,89813
 1.0000e+000 89963  9.0799e-001  1.3728e+000  3.4436e-002 45636 89839,89891,89865
 1.0000e+000 89940  8.6557e-001  1.2743e+000 -2.5187e-001 45636 89735,89891,89787
 1.0000e+000 89917  4.7800e-001  1.2512e+000  6.9278e-002 45636 89735,89787,89761
 1.0000e+000 90208  1.8153e+000  7.5094e-001 -7.3209e-001 45175 90231,90058,90032
 1.0000e+000 90185  1.8569e+000  5.3767e-001 -1.2409e-001 45175 90231,90032,90136
 1.0000e+000 90162  1.8183e+000  4.8081e-001 -9.6901e-001 45175 90058,90110,90084
 1.0000e+000 90257  2.1283e+000  1.4010e+000 -8.3035e-001 45175 90110,90058,90231
 1.0000e+000 90280  2.0651e+000  1.0258e+000 -1.8788e-001 45175 90110,90231,90136
 1.0000e+000 90528  2.2014e+000  2.2066e-002  7.6088e-002 44513 90695,90551,90407
 1.0000e+000 90505  8.7963e-001 -1.7694e+000 -4.4647e-002 44513 90551,90355,90329
 1.0000e+000 90482  1.9788e+000  2.8840e+000  5.0659e-001 44513 90623,90303,90433
 1.0000e+000 90459  3.8720e+000 -9.2885e-001 -9.2767e-001 44513 90695,90407,90381
 1.0000e+000 90577  2.0561e+000 -1.7674e-001  9.0689e-001 44513 90433,90407,90551
 1.0000e+000 90600  1.9859e+000  7.0328e-002  2.0416e-001 44513 90623,90433,90551
 1.0000e+000 90649  5.5536e-001 -3.7725e-001  6.8999e-001 44513 90329,90303,90623
 1.0000e+000 90672  1.4909e+000 -1.2972e+000  4.9061e-001 44513 90329,90623,90551
 1.0000e+000 90721  1.4311e+000 -1.7977e+000  6.9866e-001 44513 90355,90551,90695
 1.0000e+000 90744  2.5371e+000 -3.1359e+000  1.6634e-001 44513 90355,90695,90381
 1.0000e+000 91077 -3.3028e+000 -4.9195e+000  8.7462e-001 44059 91100,90930,90904
 1.0000e+000 91054 -2.0772e+000 -4.5768e+000  6.7371e-001 44059 91100,90904,90982
 1.0000e+000 91031 -2.3505e+000 -5.7271e+000  5.8301e-001 44059 90878,90982,90904
 1.0000e+000 91008 -1.9898e+000 -4.1082e+000  1.9089e+000 44059 90852,90982,90878
 1.0000e+000 91126 -3.3367e+000 -5.1747e+000  1.6340e+000 44059 91172,91100,90956
 1.0000e+000 91149 -2.5632e+000 -5.5924e+000  1.1556e+000 44059 90956,91100,90982
 1.0000e+000 91198 -2.6675e+000 -3.9949e+000  1.2819e+000 44059 90930,91100,91172
 1.0000e+000 91677 -6.1213e+000 -8.3172e+000  6.7044e-002 43549 91455,91533,91481
 1.0000e+000 91654 -5.3743e+000 -7.7048e+000  3.3109e-001 43549 91429,91533,91455
 1.0000e+000 91631 -4.9994e+000 -5.4607e+000  1.7936e-001 43549 91481,91533,91507
 1.0000e+000 91608 -4.1448e+000 -7.1742e+000  4.5584e-001 43549 91429,91559,91533
 1.0000e+000 91585 -5.4417e+000 -8.7219e+000 -2.9834e-001 43549 91403,91559,91429
 1.0000e+000 92006  1.7169e+000  2.0017e+000  4.1014e-001 43059 91781,91885,91807
 1.0000e+000 91983  1.9799e+000  3.1049e+000  1.1576e+000 43059 91781,91911,91885
 1.0000e+000 91960  1.9595e-001  1.7470e+000  4.1911e-001 43059 91807,91885,91833
 1.0000e+000 91937  1.6353e+000  2.2970e+000  2.1019e-001 43059 91833,91885,91859
 1.0000e+000 92561 -1.2289e+000 -2.3030e+000  7.6375e-001 42598 92584,92215,92189
 1.0000e+000 92538 -6.1978e-001  2.0553e-001  7.5119e-001 42598 92656,92584,92189
 1.0000e+000 92515 -3.3786e-001  1.5490e+000  1.0429e-001 42598 92656,92189,92397
 1.0000e+000 92492 -1.3888e+000 -2.4242e+000 -5.4579e-001 42598 92241,92319,92293
 1.0000e+000 92469 -4.9945e-001 -8.8808e-001  4.1852e-001 42598 92319,92397,92371
 1.0000e+000 92446 -4.4877e-001 -1.9643e+000  9.2379e-001 42598 92319,92371,92345
 1.0000e+000 92423  2.6761e+000 -1.8691e+000 -2.4952e+000 42598 92241,92293,92267
 1.0000e+000 92610 -1.2428e+000 -3.4215e+000 -1.0126e+000 42598 92241,92215,92584
 1.0000e+000 92633 -4.3067e-001 -1.4182e+000 -1.3362e-001 42598 92241,92584,92319
 1.0000e+000 92682 -7.9788e-002 -1.4541e+000  8.0134e-001 42598 92319,92584,92656
 1.0000e+000 92705 -5.0095e-001 -7.3119e-001  4.2150e-001 42598 92319,92656,92397
 1.0000e+000 92953  2.1199e+000  4.6649e+000 -2.3891e+000 42094 92976,92806,92780
 1.0000e+000 92930  7.8638e-001  1.2786e+000 -2.6434e+000 42094 92976,92780,92754
 1.0000e+000 92907  2.6227e+000  1.9196e+000 -6.0702e-001 42094 93048,92832,92806
 1.0000e+000 92884  1.2076e+000  1.0242e+000 -1.2500e+000 42094 92728,92858,92754
 1.0000e+000 93002  2.4393e+000  2.7601e+000 -6.8902e-001 42094 93048,92806,92976
 1.0000e+000 93025  1.9684e+000  1.3346e+000 -9.9212e-001 42094 92858,92976,92754
 1.0000e+000 93074  2.7111e+000  1.3952e+000 -1.2169e+000 42094 92858,92832,93048
 1.0000e+000 93097  2.3057e+000  1.8523e+000 -1.2007e+000 42094 92858,93048,92976
 1.0000e+000 93605 -3.9526e-001 -3.7573e+000 -4.6509e-001 41846 93628,93412,93386
 1.0000e+000 93582 -6.7490e-001 -2.1504e+000 -6.5955e-001 41846 93628,93386,93308
 1.0000e+000 93559  9.6049e-001  4.4223e-001  1.0983e+000 41846 93700,93464,93438
 1.0000e+000 93536 -6.0547e-001 -1.5512e+000 -5.4242e-001 41846 93308,93386,93334
 1.0000e+000 93513 -1.7690e+000 -1.3715e+000 -6.5052e-001 41846 93334,93386,93360
 1.0000e+000 93490  4.9904e+000 -2.7507e+000 -6.5355e-001 41846 93282,93464,93308
 1.0000e+000 93654 -2.2073e+000 -1.9205e+000 -1.9383e-001 41846 93438,93412,93628
 1.0000e+000 93677 -3.0397e-001 -1.2606e-002  6.4713e-001 41846 93700,93438,93628
 1.0000e+000 93726  1.3564e+000 -4.2137e-001 -7.0570e-001 41846 93308,93464,93700
 1.0000e+000 93749 -1.7966e-002 -1.0760e+000 -1.1951e+000 41846 93308,93700,93628
 1.0000e+000 94255  8.8539e-001  2.5304e+000  3.6139e-001 41385 93958,94114,94088
 1.0000e+000 94232  1.2101e+000  3.8056e+000  9.5857e-001 41385 93932,94114,93958
 1.0000e+000 94209  1.1271e+000  2.7640e+000  9.2032e-002 41385 93958,94088,94062
 1.0000e+000 94186  8.0515e-001  1.6406e+000  3.5601e-001 41385 93958,94062,93984
 1.0000e+000 94163  5.3209e-001  1.6004e+000  4.1704e-001 41385 93984,94062,94036
 1.0000e+000 94140  4.1607e-001  8.0245e-001  6.3939e-001 41385 93984,94036,94010
 1.0000e+000 94476  4.3933e-001  2.4567e+000  5.9943e-002 40881 94326,94378,94352
 1.0000e+000 94453 -6.3964e-001  2.5803e+000 -1.8127e-001 40881 94300,94378,94326
 1.0000e+000 94430  7.3307e-001  3.3905e+000 -5.1769e-001 40881 94300,94404,94378
 1.0000e+000 94626 -1.3576e+000  2.0091e-001  9.5745e-001 40591 94649,94551,94525
 1.0000e+000 94603 -3.3725e+000 -9.2736e-001  2.4535e+000 40591 94781,94577,94551
 1.0000e+000 94675 -2.3485e+000 -7.8905e-001  1.3571e+000 40591 94781,94551,94649
 1.0000e+000 94807 -1.2982e+000 -1.7784e+000  1.2185e+000 40591 94499,94577,94781
 1.0000e+000 94830  3.9447e-001 -1.0980e-001 -2.3307e-001 40591 94499,94781,94649
 1.0000e+000 95336 -6.7311e+000 -4.6381e+000  3.2858e-001 40187 95013,95169,95039
 1.0000e+000 95313 -7.9065e+000 -3.9129e+000 -1.4053e+000 40187 95013,95195,95169
 1.0000e+000 95290 -2.7153e+000 -1.9706e+000  2.2056e+000 40187 95039,95143,95065
 1.0000e+000 95267 -4.4699e+000 -2.5463e+000  1.1949e+000 40187 95039,95169,95143
 1.0000e+000 95244 -3.2566e+000 -6.4812e-001  1.1313e+000 40187 95091,95143,95117
 1.0000e+000 95221 -2.4790e+000 -2.5369e+000  2.1919e+000 40187 95065,95143,95091
 1.0000e+000 95665 -1.5883e+000  4.2749e-001  1.0938e+000 39626 95466,95570,95544
 1.0000e+000 95642 -2.2805e+000 -1.1237e+000  8.1403e-001 39626 95440,95570,95466
 1.0000e+000 95619 -5.4821e+000 -6.5383e-001  3.3310e+000 39626 95466,95544,95492
 1.0000e+000 95596 -5.6077e+000 -3.4601e+000  2.3224e+000 39626 95492,95544,95518
 1.0000e+000 95913  3.0070e+000  3.5912e-001  1.7839e-001 39136 96080,95936,95766
 1.0000e+000 95890  3.7659e+000  1.2617e+000 -6.3810e-001 39136 95936,95714,95688
 1.0000e+000 95867  3.5247e+000  9.5905e-001 -2.0017e-001 39136 96008,95792,95766
 1.0000e+000 95844  2.3241e+000  6.9627e-002  1.7003e-001 39136 96080,95766,95740
 1.0000e+000 95962  3.4584e+000  1.1470e+000 -1.0660e-001 39136 96008,95766,95936
 1.0000e+000 95985  3.2461e+000  2.1537e+000 -7.2394e-001 39136 95818,95936,95688
 1.0000e+000 96034  3.2964e+000  8.3128e-001 -4.4809e-001 39136 95818,95792,96008
 1.0000e+000 96057  3.2790e+000  9.4842e-001 -3.3550e-001 39136 95818,96008,95936
 1.0000e+000 96106  2.8374e+000  7.7707e-001 -8.3482e-001 39136 95714,95936,96080
 1.0000e+000 96129  1.6400e+000  2.6021e-001 -7.6150e-001 39136 95714,96080,95740
 1.0000e+000 96350 -6.4699e+000 -6.7980e+000 -1.7888e-001 38824 96200,96278,96252
 1.0000e+000 96327 -5.9427e+000 -5.8183e+000  6.4402e-001 38824 96174,96278,96200
 1.0000e+000 96304 -5.6222e+000 -9.4278e+000 -2.6076e-001 38824 96200,96252,96226
 1.0000e+000 96830 -3.5587e+000 -5.5553e+000 -1.2343e+000 38320 97069,96536,96484
 1.0000e+000 96807 -3.6296e+000 -5.3835e+000 -1.2534e+000 38320 97069,96484,96853
 1.0000e+000 96784 -3.4227e+000 -5.3565e+000 -1.1536e+000 38320 96853,96484,96458
 1.0000e+000 96761 -1.4068e+000 -4.9213e+000 -1.7350e+000 38320 96925,96640,96614
 1.0000e+000 96738 -3.1491e+000 -5.1424e+000 -1.5372e+000 38320 96997,96666,96640
 1.0000e+000 96715 -3.2187e+000 -4.7756e+000 -9.1937e-001 38320 97141,96588,96562
 1.0000e+000 96692 -6.4094e+000 -9.4881e+000  9.7380e-003 38320 96484,96536,96510
 1.0000e+000 96879 -3.0447e+000 -5.3721e+000 -9.4476e-001 38320 97141,96562,96853
 1.0000e+000 96902 -2.9059e+000 -6.1646e+000 -1.1887e+000 38320 96925,96614,96853
 1.0000e+000 96951 -3.1581e+000 -5.2912e+000 -1.3543e+000 38320 96997,96640,96925
 1.0000e+000 96974 -3.1446e+000 -4.9611e+000 -1.2946e+000 38320 96458,96925,96853
 1.0000e+000 97023 -3.0461e+000 -4.7134e+000 -1.5609e+000 38320 96458,96666,96997
 1.0000e+000 97046 -3.0072e+000 -4.8490e+000 -1.3432e+000 38320 96458,96997,96925
 1.0000e+000 97095 -6.0491e+000 -9.8856e+000  1.8529e-001 38320 96562,96536,97069
 1.0000e+000 97118 -3.2584e+000 -5.7921e+000 -1.1072e+000 38320 96562,97069,96853
 1.0000e+000 97167 -3.1452e+000 -5.5480e+000 -6.4921e-001 38320 96614,96588,97141
 1.0000e+000 97190 -2.9744e+000 -6.1808e+000 -8.1047e-001 38320 96614,97141,96853
 1.0000e+000 97519 -1.9292e+000 -2.8054e+000 -1.4515e+000 37766 97542,97398,97372
 1.0000e+000 97496 -1.5036e+000 -3.7739e+000 -9.9999e-001 37766 97542,97372,97346
 1.0000e+000 97473 -2.8000e+000 -4.9661e+000 -8.4799e-001 37766 97294,97424,97346
 1.0000e+000 97450 -4.0993e+000 -6.6281e+000  3.1658e-001 37766 97294,97346,97320
 1.0000e+000 97568 -2.8030e+000 -2.6945e+000 -7.3178e-001 37766 97424,97398,97542
 1.0000e+000 97591 -2.1553e+000 -3.7767e+000 -3.3125e-001 37766 97424,97542,97346
 1.0000e+000 98048 -2.2494e+000 -4.4962e+000 -1.0396e-001 37262 98071,97878,97852
 1.0000e+000 98025 -2.1302e+000 -4.4262e+000  1.6161e-003 37262 98071,97852,97800
 1.0000e+000 98002 -2.1897e+000 -4.2429e+000  1.0674e-001 37262 97800,97852,97826
 1.0000e+000 97979 -9.3742e-001 -3.5390e+000 -2.6264e-001 37262 97800,97930,97904
 1.0000e+000 97956 -1.9250e+000 -6.4522e+000 -7.7583e-001 37262 97774,97930,97800
 1.0000e+000 98097 -2.7504e+000 -4.6453e+000 -4.2983e-001 37262 97904,97878,98071
 1.0000e+000 98120 -2.2909e+000 -4.0743e+000 -2.1287e-001 37262 97904,98071,97800
 1.0000e+000 98449  5.3362e-001  1.6999e+000  1.1354e-001 36950 98472,98302,98250
 1.0000e+000 98426  2.2881e-001  1.6775e+000  1.4662e-001 36950 98472,98250,98354
 1.0000e+000 98403  6.4400e-001  1.4158e+000 -2.3346e-001 36950 98250,98302,98276
 1.0000e+000 98380 -2.0777e-001  1.9311e+000  7.1236e-001 36950 98224,98354,98250
 1.0000e+000 98498  3.0594e-001  1.8472e+000 -5.3090e-002 36950 98328,98302,98472
 1.0000e+000 98521 -2.4657e-002  1.8138e+000  3.0499e-002 36950 98328,98472,98354
 1.0000e+000 99125 -2.8125e+000 -1.1977e+000 -1.5559e-001 36296 98704,98756,98730
 1.0000e+000 99102 -1.2242e+000 -6.1054e-001 -7.7347e-001 36296 98704,98938,98756
 1.0000e+000 99079  1.2350e-001  3.2768e+000 -1.2542e+000 36296 99148,98938,98912
 1.0000e+000 99056  1.5500e-001  1.1925e+000 -1.8679e+000 36296 99292,99220,98782
 1.0000e+000 99033  2.1961e-001  6.2906e-001 -9.7080e-001 36296 99148,98912,98834
 1.0000e+000 99010 -6.5638e-001 -1.2683e-001 -1.4903e+000 36296 99292,98782,98756
 1.0000e+000 98987 -2.6882e-001 -2.4105e-001 -7.6155e-001 36296 98834,98912,98886
 1.0000e+000 98964 -1.2652e+000 -1.6378e+000 -1.1867e+000 36296 98834,98886,98860
 1.0000e+000 99174 -3.7293e-001  1.3593e+000 -9.0688e-001 36296 99220,98938,99148
 1.0000e+000 99197 -6.1415e-002  1.4838e-001 -7.4789e-001 36296 98808,99148,98834
 1.0000e+000 99246 -5.5595e-001 -4.6182e-001 -2.0380e+000 36296 98808,98782,99220
 1.0000e+000 99269 -7.1725e-001 -1.2191e-001 -1.6366e+000 36296 98808,99220,99148
 1.0000e+000 99318 -1.1188e+000 -6.1251e-001 -8.6428e-001 36296 98938,99220,99292
 1.0000e+000 99341 -1.0211e+000 -3.3340e-001 -6.8087e-001 36296 98938,99292,98756
 1.0000e+000 99719  2.6636e-001  1.6291e+000 -3.4689e-001 35742 99742,99471,99601
 1.0000e+000 99696 -8.6594e-002  8.8893e-001 -6.7596e-001 35742 99445,99601,99471
 1.0000e+000 99673  1.4264e-001  1.3369e+000 -4.8830e-001 35742 99742,99601,99575
 1.0000e+000 99650  2.0986e-001  3.2128e+000 -4.1919e-001 35742 99814,99549,99523
 1.0000e+000 99627 -9.5379e-002  2.3360e+000 -7.1301e-001 35742 99471,99523,99497
 1.0000e+000 99768 -1.8500e-001  1.6769e+000 -6.4944e-001 35742 99523,99471,99742
 1.0000e+000 99791  2.7976e-001  2.6483e+000 -5.0671e-001 35742 99814,99523,99742
 1.0000e+000 99840  6.5206e-001  2.3712e+000 -2.1303e-001 35742 99575,99549,99814
 1.0000e+000 99863  5.2301e-001  1.5573e+000 -3.6100e-001 35742 99575,99814,99742
 1.0000e+000 100111  9.4258e-003  2.1191e-001 -1.1728e+000 35302 100134,99990,99938
 1.0000e+000 100088 -6.9064e-001 -1.3247e+000 -9.9176e-001 35302 100134,99938,99912
 1.0000e+000 100065 -5.3952e-001 -1.7598e+000  9.9329e-002 35302 100206,99886,100016
 1.0000e+000 100042  1.1064e+000  6.1249e-001 -8.2378e-001 35302 99938,99990,99964
 1.0000e+000 100160 -2.3281e-001  2.2552e-001  2.0060e-001 35302 100016,99990,100134
 1.0000e+000 100183 -8.9847e-001 -1.3274e+000  1.1708e-001 35302 100206,100016,100134
 1.0000e+000 100232 -4.2834e-001 -1.2447e+000 -3.0159e-001 35302 99912,99886,100206
 1.0000e+000 100255 -6.9325e-001 -6.3889e-001 -2.4016e-001 35302 99912,100206,100134
 1.0000e+000 100586 -7.3108e+000 -7.6697e+000  4.2982e+000 35012 100609,100387,100361
 1.0000e+000 100563 -7.2967e+000 -6.0970e+000  3.3932e+000 35012 100609,100361,100465
 1.0000e+000 100540 -5.6785e+000 -4.3687e+000  2.6739e+000 35012 100361,100491,100465
 1.0000e+000 100517 -9.0151e+000 -3.6256e+000  2.5170e+000 35012 100413,100465,100439
 1.0000e+000 100635 -6.8074e+000 -7.3750e+000  2.6727e+000 35012 100413,100387,100609
 1.0000e+000 100658 -6.4564e+000 -4.9847e+000  1.8019e+000 35012 100413,100609,100465
 1.0000e+000 100987 -8.9247e-001 -1.0864e+000  5.5046e-002 34700 100788,100866,100814
 1.0000e+000 100964 -1.4464e+000 -1.0032e+000 -2.1259e-002 34700 101010,100866,100788
 1.0000e+000 100941 -9.3818e-001 -2.1685e+000  9.6806e-001 34700 100762,100892,100866
 1.0000e+000 100918 -7.4546e-001 -6.9497e-001 -8.0965e-002 34700 100814,100866,100840
 1.0000e+000 101036 -1.0542e+000 -8.3638e-001  9.9775e-004 34700 100762,100866,101010
 1.0000e+000 101493  7.8531e-001  4.8795e-001 -8.4606e-002 34132 101516,101349,101297
 1.0000e+000 101470  7.2308e-001  1.9394e+000  6.9807e-002 34132 101588,101516,101297
 1.0000e+000 101447  6.1989e-001  1.5164e+000 -1.3498e-001 34132 101588,101297,101245
 1.0000e+000 101424  1.4495e+000  9.1758e-001 -1.2549e-001 34132 101245,101297,101271
 1.0000e+000 101401  8.9748e-001  5.8866e-001 -1.5984e-001 34132 101297,101349,101323
 1.0000e+000 101542  1.5367e-001  1.9065e+000  2.8978e-002 34132 101375,101349,101516
 1.0000e+000 101565  8.1987e-001  3.6655e+000  1.0124e+000 34132 101375,101516,101219
 1.0000e+000 101614  1.1561e+000  1.8007e+000  4.5056e-001 34132 101219,101516,101588
 1.0000e+000 101637  8.8820e-001  1.4577e+000  2.4168e-001 34132 101219,101588,101245
 1.0000e+000 101858 -4.5966e+000 -9.0041e+000 -2.3040e-001 33720 101708,101786,101760
 1.0000e+000 101835 -4.5838e+000 -5.5753e+000 -5.2476e-001 33720 101682,101786,101708
 1.0000e+000 101812 -4.7658e+000 -8.7910e+000  4.0369e-001 33720 101708,101760,101734
 1.0000e+000 102128 -9.0010e-001  1.2409e+000  8.5964e-002 33130 101903,102007,101929
 1.0000e+000 102105 -2.3363e-001  1.7725e+000 -1.4504e-001 33130 101903,102033,102007
 1.0000e+000 102082 -2.5768e-001  1.9551e+000  5.6548e-001 33130 101929,102007,101955
 1.0000e+000 102059 -1.6823e-001  1.2238e+000  6.7791e-002 33130 101955,102007,101981
 1.0000e+000 102461 -5.2590e+000 -9.0691e+000 -5.4502e-001 32840 102236,102340,102262
 1.0000e+000 102438 -6.1879e+000 -9.8048e+000  6.9063e-001 32840 102236,102366,102340
 1.0000e+000 102415 -4.0347e+000 -8.8495e+000 -3.4205e-001 32840 102262,102340,102288
 1.0000e+000 102392 -5.1554e+000 -9.2557e+000 -5.1156e-001 32840 102288,102340,102314
 1.0000e+000 102997  5.0163e-001  1.0529e+000  4.9706e-001 32493 102749,102879,102853
 1.0000e+000 102974  9.9466e-001  2.2530e+000  5.5307e-001 32493 102723,102879,102749
 1.0000e+000 102951  6.5373e-001 -5.5124e-002  2.4920e-001 32493 102749,102801,102775
 1.0000e+000 102928  9.7898e-001  3.0419e-001  7.9486e-002 32493 102749,102853,102801
 1.0000e+000 102905  7.4760e-001  1.4252e-001  4.4598e-001 32493 102801,102853,102827
 1.0000e+000 103454 -1.8067e+000 -6.8470e+000  3.7507e-001 32089 103206,103336,103310
 1.0000e+000 103431 -2.2144e+000 -8.8645e+000  4.3934e-001 32089 103180,103336,103206
 1.0000e+000 103408 -5.1144e+000 -8.3307e+000  6.6999e-001 32089 103206,103284,103258
 1.0000e+000 103385 -4.5153e+000 -7.8632e+000  4.1663e-001 32089 103206,103310,103284
 1.0000e+000 103362 -4.3856e+000 -7.0595e+000 -4.4797e-001 32089 103206,103258,103232
 1.0000e+000 103783 -4.8917e+000 -6.7446e+000  1.8082e+000 31742 103558,103662,103584
 1.0000e+000 103760 -3.7706e+000 -4.2929e+000  1.5128e+000 31742 103558,103688,103662
 1.0000e+000 103737 -4.7517e+000 -4.6836e+000  3.4177e-001 31742 103584,103662,103636
 1.0000e+000 103714 -5.1678e+000 -5.9809e+000  4.7866e-001 31742 103584,103636,103610
 1.0000e+000 104112 -2.7790e+000 -7.5332e+000  5.8207e-001 31402 103939,103991,103965
 1.0000e+000 104089 -2.8797e+000 -5.1537e+000  3.6261e-001 31402 103913,103991,103939
 1.0000e+000 104066 -3.8154e+000 -6.4267e+000 -3.8900e-001 31402 103913,104017,103991
 1.0000e+000 104043 -4.0668e+000 -6.8421e+000 -4.9406e-001 31402 103887,104017,103913
 1.0000e+000 104569 -4.6752e+000 -2.1977e+000  4.1682e-001 30998 104321,104425,104373
 1.0000e+000 104546 -6.2036e+000 -3.4981e+000  1.5638e+000 30998 104321,104451,104425
 1.0000e+000 104523 -2.6547e+000 -1.9317e+000  3.0909e-001 30998 104373,104425,104399
 1.0000e+000 104500 -7.3698e+000 -1.2081e+000  2.6667e+000 30998 104295,104451,104321
 1.0000e+000 104477 -6.3654e+000 -4.2881e+000  1.7712e+000 30998 104321,104373,104347
 1.0000e+000 104947  4.5920e-002 -2.3372e+000  1.7850e+000 30608 104751,104803,104777
 1.0000e+000 104924 -1.8970e+000 -2.4546e+000  1.0501e+000 30608 104725,104803,104751
 1.0000e+000 104901 -2.2785e+000 -2.4281e+000  1.2103e+000 30608 104699,104803,104725
 1.0000e+000 104878 -8.4254e-001 -1.4052e+000  5.3620e-001 30608 104673,104803,104699
 1.0000e+000 104855 -9.5760e-002 -6.6214e-001  6.0381e-002 30608 104673,104829,104803
 1.0000e+000 105276 -3.1140e+000 -8.1801e-001  3.7240e-001 30204 105427,105129,105077
 1.0000e+000 105253 -3.4800e+000 -5.8501e-001 -8.4843e-002 30204 105427,105077,105051
 1.0000e+000 105230 -2.2027e+000 -1.3861e+000 -3.4169e-002 30204 105077,105129,105103
 1.0000e+000 105207 -2.7345e+000 -2.4564e+000  3.3746e-001 30204 105299,105181,105155
 1.0000e+000 105325 -1.8862e+000 -2.0958e+000  3.2550e-001 30204 105129,105181,105299
 1.0000e+000 105453 -2.9052e+000 -6.5393e-001  1.1372e-001 30204 105181,105129,105427
 1.0000e+000 105476 -2.6937e+000 -1.5954e-001 -4.0500e-001 30204 105181,105427,105051
 1.0000e+000 105903 -1.3264e+000 -8.5137e-001  2.0885e-001 29700 105606,105762,105736
 1.0000e+000 105880 -1.0716e+000 -4.6594e-001  1.1247e+000 29700 105580,105762,105606
 1.0000e+000 105857 -3.5151e-001 -8.0675e-001  2.2284e-001 29700 105606,105710,105632
 1.0000e+000 105834 -5.9721e-001 -3.7091e-001 -7.0348e-002 29700 105606,105736,105710
 1.0000e+000 105811  4.1214e-001  2.6142e-001 -1.1538e-001 29700 105632,105710,105684
 1.0000e+000 105788  4.3062e-001  3.2531e-001  1.3305e-001 29700 105632,105684,105658
 1.0000e+000 106102 -7.4558e-001 -1.0791e+000 -4.6603e-001 29124 105978,106030,106004
 1.0000e+000 106079 -1.8589e+000 -7.4121e-001 -3.6965e-001 29124 105926,106030,105978
 1.0000e+000 106056 -2.5757e+000 -2.6847e+000 -5.0303e-002 29124 105926,105978,105952
 1.0000e+000 106301 -2.4769e-001  4.6862e-001 -1.5138e-001 28712 106151,106229,106203
 1.0000e+000 106278 -1.1062e-002  5.7668e-001 -1.1019e-001 28712 106125,106229,106151
 1.0000e+000 106255 -6.6052e-001  3.6239e-001 -1.8858e-001 28712 106151,106203,106177
 1.0000e+000 106551 -3.6542e+000 -2.8477e+000 -3.9557e-001 28258 106352,106404,106378
 1.0000e+000 106528 -3.4469e+000 -2.8130e+000 -3.3919e-001 28258 106352,106456,106404
 1.0000e+000 106505 -4.8214e+000 -1.8465e+000  7.0659e-003 28258 106326,106456,106352
 1.0000e+000 106482 -2.2944e+000 -6.6605e-003 -4.3857e-001 28258 106404,106456,106430
 1.0000e+000 107012  4.4161e-001  1.0192e+000 -1.5016e-001 27818 107035,106790,106764
 1.0000e+000 106989  3.4513e-001  9.5445e-001  1.4366e-001 27818 107035,106764,106868
 1.0000e+000 106966 -5.8504e-002  1.9610e+000 -1.7514e-002 27818 107107,106842,106816
 1.0000e+000 106943  1.0952e-001  8.9244e-001  1.6802e-001 27818 106738,106868,106764
 1.0000e+000 106920  7.8726e-002  7.7718e-001  8.7339e-002 27818 106738,106894,106868
 1.0000e+000 107061 -1.4586e-001  9.9881e-001 -3.2038e-001 27818 106816,106790,107035
 1.0000e+000 107084  2.7781e-001  1.5558e+000 -4.8966e-002 27818 107107,106816,107035
 1.0000e+000 107133 -1.9947e-001  1.4155e+000  2.4424e-001 27818 106868,106842,107107
 1.0000e+000 107156  5.3135e-002  8.4266e-001  1.5230e-001 27818 106868,107107,107035
 1.0000e+000 107613 -2.4715e+000 -4.7491e-001 -1.2966e-002 27312 107339,107469,107365
 1.0000e+000 107590 -2.0583e+000 -1.2607e-001 -1.7183e-001 27312 107339,107495,107469
 1.0000e+000 107567 -1.7659e+000 -1.6799e+000  2.9892e-002 27312 107391,107469,107443
 1.0000e+000 107544 -3.0357e+000 -7.0160e-001  1.6532e-002 27312 107365,107469,107391
 1.0000e+000 107521 -1.3690e+000 -1.3683e+000 -3.3219e-001 27312 107391,107443,107417
 1.0000e+000 107991 -4.1702e+000 -7.5806e+000 -7.1681e-001 26858 108086,108014,107795
 1.0000e+000 107968 -2.8428e+000 -5.5602e+000  5.0313e-001 26858 108014,107717,107873
 1.0000e+000 107945 -4.9352e+000 -9.9577e+000 -7.2802e-001 26858 108158,108086,107795
 1.0000e+000 107922 -5.5110e+000 -1.2622e+001  2.9767e-001 26858 108158,107795,107769
 1.0000e+000 107899 -2.8200e+000 -4.5720e+000  8.0457e-001 26858 107821,107873,107847
 1.0000e+000 108040 -2.8294e+000 -4.2970e+000 -4.1978e-001 26858 107821,107795,108014
 1.0000e+000 108063 -3.8072e+000 -6.7580e+000  8.5992e-002 26858 107821,108014,107873
 1.0000e+000 108112 -3.3504e+000 -6.9239e+000  5.0711e-001 26858 107717,108014,108086
 1.0000e+000 108135 -4.7918e+000 -6.3274e+000 -6.8631e-001 26858 107717,108086,107743
 1.0000e+000 108184 -6.0198e+000 -6.8000e+000 -6.7149e-001 26858 107743,108086,108158
 1.0000e+000 108207 -5.6737e+000 -8.7915e+000 -2.9858e-001 26858 107743,108158,107769
 1.0000e+000 108634 -4.2301e+000 -3.5993e+000 -5.4014e-001 26404 108657,108415,108363
 1.0000e+000 108611 -4.8399e+000 -4.4833e+000  2.9600e-001 26404 108657,108363,108337
 1.0000e+000 108588 -5.9896e+000 -5.7238e+000  5.0653e-001 26404 108729,108311,108467
 1.0000e+000 108565 -3.5237e+000 -4.6034e+000  1.3320e-001 26404 108801,108441,108415
 1.0000e+000 108542 -5.6308e+000 -5.9453e+000  1.6930e+000 26404 108311,108493,108467
 1.0000e+000 108519 -4.2483e+000 -3.7258e+000 -5.8974e-001 26404 108363,108415,108389
 1.0000e+000 108683 -4.0788e+000 -4.3128e+000  2.4472e-001 26404 108801,108415,108657
 1.0000e+000 108706 -5.1260e+000 -5.1520e+000  7.6599e-001 26404 108729,108467,108657
 1.0000e+000 108755 -6.7077e+000 -5.0098e+000  4.4304e-001 26404 108337,108311,108729
 1.0000e+000 108778 -6.2389e+000 -4.7075e+000  6.3360e-001 26404 108337,108729,108657
 1.0000e+000 108827 -4.3002e+000 -4.6986e+000 -4.6142e-002 26404 108467,108441,108801
 1.0000e+000 108850 -4.9279e+000 -4.4623e+000  1.8910e-001 26404 108467,108801,108657
 1.0000e+000 109228  6.2709e-001  1.6074e+000  5.4729e-001 26064 109006,109084,109058
 1.0000e+000 109205 -1.1025e-001  1.4036e+000  6.5548e-001 26064 108980,109084,109006
 1.0000e+000 109182  2.3565e-001  1.5390e+000  6.3408e-001 26064 108980,109110,109084
 1.0000e+000 109159  6.5594e-001  1.5574e+000  5.8828e-001 26064 109006,109058,109032
 1.0000e+000 109136  6.1086e-001  8.8926e-001  4.9193e-001 26064 108954,109110,108980
 1.0000e+000 109427 -2.5775e+000 -1.7153e+000  2.0327e+000 25660 109303,109355,109329
 1.0000e+000 109404 -2.9793e+000 -2.7053e+000  1.8569e+000 25660 109277,109355,109303
 1.0000e+000 109381 -3.9609e+000 -3.0618e+000  1.6935e+000 25660 109251,109355,109277
 1.0000e+000 109577 -3.6450e+000 -7.4849e+000  4.9689e-001 25306 109476,109528,109502
 1.0000e+000 109554 -3.6084e+000 -7.8171e+000 -1.9920e-002 25306 109450,109528,109476
 1.0000e+000 109778 -7.2530e-001  7.3670e-001  2.0596e-002 24944 109628,109706,109654
 1.0000e+000 109755 -8.6932e-001  1.2838e+000 -1.7627e-001 24944 109602,109706,109628
 1.0000e+000 109732 -7.6805e-001  7.3099e-001  1.0161e-001 24944 109654,109706,109680
 1.0000e+000 110126 -5.3885e+000 -8.5911e+000  7.0779e-002 24440 110149,109907,109855
 1.0000e+000 110103 -4.7315e+000 -8.6201e+000  1.3956e-001 24440 110149,109855,109985
 1.0000e+000 110080 -5.0695e+000 -8.3232e+000 -1.3187e-001 24440 109855,109907,109881
 1.0000e+000 110057 -5.2843e+000 -8.2977e+000  6.3307e-001 24440 109829,109985,109855
 1.0000e+000 110034 -6.7366e+000 -8.2805e+000  6.6323e-001 24440 109907,109959,109933
 1.0000e+000 110011 -5.3950e+000 -8.3217e+000  7.4998e-001 24440 109803,109985,109829
 1.0000e+000 110175 -5.0575e+000 -8.6840e+000  5.4877e-001 24440 109959,109907,110149
 1.0000e+000 110198 -4.0872e+000 -8.5102e+000  6.0632e-001 24440 109959,110149,109985
 1.0000e+000 110301 -4.6328e+000 -9.9488e+000 -4.2442e-001 24028 110223,110275,110249
 1.0000e+000 110573 -6.2192e-001  1.3489e+000 -3.6424e-002 23467 110400,110452,110426
 1.0000e+000 110550 -8.6094e-001  9.6683e-001 -1.4246e-001 23467 110374,110452,110400
 1.0000e+000 110527 -4.6065e-001  1.1371e+000 -1.9760e-001 23467 110348,110452,110374
 1.0000e+000 110504 -4.5493e-001  8.7758e-001 -1.4370e-001 23467 110348,110478,110452
 1.0000e+000 111004 -2.5034e+000 -1.2518e+000  1.3775e-001 22963 111027,110733,110707
 1.0000e+000 110981 -1.3899e+000 -8.0104e-001  7.6321e-002 22963 111027,110707,110681
 1.0000e+000 110958 -2.7248e+000 -1.5193e+000 -9.0582e-001 22963 111099,110759,110733
 1.0000e+000 110935 -1.4905e+000 -1.2792e-001  5.2557e-001 22963 111171,110863,110811
 1.0000e+000 110912 -2.5569e+000 -2.5000e-001 -1.2923e-001 22963 110759,110811,110785
 1.0000e+000 110889 -1.0513e+000  1.5695e+000  7.4643e-001 22963 110811,110863,110837
 1.0000e+000 111053 -1.8706e+000 -1.6826e+000 -4.0579e-001 22963 111099,110733,111027
 1.0000e+000 111076 -1.4399e+000 -4.6804e-001  5.9272e-001 22963 111171,110811,111027
 1.0000e+000 111125 -2.4649e+000 -9.6921e-001 -1.7368e-001 22963 110811,110759,111099
 1.0000e+000 111148 -2.0045e+000 -4.6375e-001  3.2299e-001 22963 110811,111099,111027
 1.0000e+000 111197 -1.5496e+000  5.2187e-001  3.9947e-001 22963 110681,110863,111171
 1.0000e+000 111220 -1.7389e+000  4.4230e-002  6.4094e-001 22963 110681,111171,111027
 1.0000e+000 111726 -2.4250e-002  1.2822e-002 -9.2291e-002 22459 111749,111507,111429
 1.0000e+000 111703 -3.7755e-001 -8.4330e-002  4.2082e-001 22459 111749,111429,111585
 1.0000e+000 111680 -1.3897e+000  1.9508e+000  3.4459e-001 22459 111403,111585,111429
 1.0000e+000 111657  4.6887e-001  7.4763e-001 -4.8525e-001 22459 111507,111559,111533
 1.0000e+000 111634 -6.5543e-001  6.6428e-001 -1.7760e-001 22459 111455,111507,111481
 1.0000e+000 111611 -1.1108e+000  7.2756e-001  2.4500e-001 22459 111429,111507,111455
 1.0000e+000 111775  4.3319e-002  7.8467e-001 -4.5842e-001 22459 111559,111507,111749
 1.0000e+000 111798 -3.6375e-001  2.7465e-001  3.3348e-002 22459 111559,111749,111585
 1.0000e+000 112046  1.1256e-001  1.1523e+000  4.7687e-002 21898 112069,111925,111873
 1.0000e+000 112023  6.1991e-002  9.0672e-001  4.2831e-001 21898 112069,111873,111847
 1.0000e+000 112000 -1.1908e+000  1.4269e+000  7.7044e-001 21898 111821,111951,111847
 1.0000e+000 111977  4.4014e-002  4.2697e-001 -1.4371e-001 21898 111873,111925,111899
 1.0000e+000 112095 -3.9129e-001  8.9808e-001  1.7375e-001 21898 111951,111925,112069
 1.0000e+000 112118 -2.0303e-001  7.7074e-001  5.3064e-001 21898 111951,112069,111847
 1.0000e+000 112498 -3.4688e+000 -4.5867e+000  1.0141e+000 21608 112521,112276,112224
 1.0000e+000 112475 -4.1688e+000 -4.8866e+000  1.0684e+000 21608 112521,112224,112380
 1.0000e+000 112452 -4.3206e+000 -5.0093e+000 -5.0958e-001 21608 112302,112380,112354
 1.0000e+000 112429 -3.8204e+000 -2.7570e+000  1.2183e+000 21608 112224,112276,112250
 1.0000e+000 112406 -3.5101e+000 -3.7460e+000  2.0315e-001 21608 112302,112354,112328
 1.0000e+000 112547 -3.9886e+000 -4.0648e+000  4.4675e-001 21608 112302,112276,112521
 1.0000e+000 112570 -4.7821e+000 -4.4350e+000  5.9647e-001 21608 112302,112521,112380
 1.0000e+000 112948 -7.9352e+000 -5.4119e+000  2.8412e-001 20882 112971,112752,112700
 1.0000e+000 112925 -5.4722e+000 -4.8077e+000 -8.1825e-001 20882 112971,112700,112830
 1.0000e+000 112902 -7.3033e+000 -3.8894e+000 -1.2055e-001 20882 112778,112830,112804
 1.0000e+000 112879 -4.9099e+000 -4.2165e+000 -5.1371e-001 20882 112674,112830,112700
 1.0000e+000 112856 -5.4845e+000 -5.4685e+000 -4.6602e-001 20882 112700,112752,112726
 1.0000e+000 112997 -8.1599e+000 -5.7733e+000  1.5819e+000 20882 112778,112752,112971
 1.0000e+000 113020 -6.6875e+000 -5.5378e+000  4.5089e-001 20882 112778,112971,112830
 1.0000e+000 113526 -4.2053e+000 -7.3209e+000 -7.6186e-001 20428 113255,113385,113333
 1.0000e+000 113503 -3.0029e+000 -3.1671e+000 -8.9069e-001 20428 113229,113385,113255
 1.0000e+000 113480 -3.1198e+000 -4.9252e+000  3.3212e-001 20428 113255,113333,113281
 1.0000e+000 113457 -3.2695e+000 -1.4729e+000  2.9313e-002 20428 113203,113385,113229
 1.0000e+000 113434 -5.5855e+000 -4.7889e+000 -3.6105e-001 20428 113281,113333,113307
 1.0000e+000 113411 -4.4729e+000 -5.9971e+000 -8.6311e-001 20428 113333,113385,113359
 1.0000e+000 113774 -9.0319e-001 -5.8854e-001  1.5663e-001 19917 113797,113601,113549
 1.0000e+000 113751 -9.3310e-001 -7.5012e-001  2.1721e-001 19917 113869,113797,113549
 1.0000e+000 113728 -9.5118e-001 -7.7105e-001  2.5819e-001 19917 113869,113549,113679
 1.0000e+000 113705 -8.5414e-001 -7.8259e-001  8.0318e-003 19917 113549,113601,113575
 1.0000e+000 113823 -8.8709e-001 -3.3827e-001  1.4993e-001 19917 113627,113601,113797
 1.0000e+000 113846 -8.6363e-001 -5.3886e-001  7.4715e-002 19917 113627,113797,113653
 1.0000e+000 113895 -9.4336e-001 -5.6227e-001  7.0374e-002 19917 113653,113797,113869
 1.0000e+000 113918 -1.1360e+000 -6.5968e-001  1.3680e-001 19917 113653,113869,113679
 1.0000e+000 114166 -5.3150e+000 -2.0199e+000 -3.2686e-001 19413 113993,114045,114019
 1.0000e+000 114143 -1.3646e+000 -2.7430e+000 -1.3458e-001 19413 113967,114045,113993
 1.0000e+000 114120 -4.7183e+000 -4.1787e+000 -1.1097e-001 19413 113967,114071,114045
 1.0000e+000 114097  1.3958e-002 -3.9169e+000 -2.9259e-001 19413 113941,114071,113967
 1.0000e+000 114438  1.3279e-001 -2.8339e-001  1.9157e-002 19001 114213,114265,114239
 1.0000e+000 114415 -3.2875e-001 -7.4791e-001  3.1415e-001 19001 114213,114343,114265
 1.0000e+000 114392 -1.3427e-001 -9.0581e-002  5.7132e-002 19001 114265,114343,114317
 1.0000e+000 114369  1.3576e-001 -2.5567e-002 -1.1857e-002 19001 114265,114317,114291
 1.0000e+000 114639  1.8736e-001  1.5413e-001  2.6531e-001 18554 114489,114541,114515
 1.0000e+000 114616 -5.9643e-001  4.7955e-001  2.8188e-001 18554 114489,114567,114541
 1.0000e+000 114593 -1.3174e+000  7.2195e-001  1.8357e-001 18554 114463,114567,114489
 1.0000e+000 115043 -3.5659e+000 -1.7102e+000 -1.1853e-001 18164 114795,114925,114821
 1.0000e+000 115020 -2.6456e+000 -1.0296e+000  3.6415e-001 18164 114769,114925,114795
 1.0000e+000 114997 -2.7964e+000 -1.6883e+000 -1.4095e-001 18164 115066,114873,114821
 1.0000e+000 114974 -3.2249e+000 -1.7690e+000 -4.6036e-001 18164 115066,114821,114925
 1.0000e+000 114951 -2.2674e+000 -1.2882e+000  1.2803e-001 18164 114821,114873,114847
 1.0000e+000 115092 -2.3932e+000 -1.7984e+000 -9.9781e-003 18164 114899,114873,115066
 1.0000e+000 115115 -2.6585e+000 -1.8778e+000 -4.0202e-001 18164 114899,115066,114925
 1.0000e+000 115265 -6.8131e+000 -8.7360e+000 -1.7519e-001 17852 115164,115216,115190
 1.0000e+000 115242 -5.6085e+000 -7.4753e+000  3.2914e-001 17852 115138,115216,115164
 1.0000e+000 115464 -3.3726e+000 -2.2062e+000 -6.2132e-001 17346 115288,115366,115340
 1.0000e+000 115441 -2.3476e+000 -2.0568e+000 -7.8315e-001 17346 115288,115392,115366
 1.0000e+000 115418 -2.8079e+000 -2.6099e+000 -7.6661e-001 17346 115288,115340,115314
 1.0000e+000 115736 -5.4656e+000 -8.0235e+000 -5.9947e-001 16942 115563,115641,115615
 1.0000e+000 115713 -4.6960e+000 -5.7694e+000 -5.1180e-001 16942 115511,115641,115563
 1.0000e+000 115690 -7.9228e+000 -8.8152e+000  3.7056e-002 16942 115563,115615,115589
 1.0000e+000 115667 -5.5268e+000 -7.5224e+000 -2.0486e-001 16942 115511,115563,115537
 1.0000e+000 116091 -1.9082e-002 -6.3613e-001  3.5039e-001 16388 115918,115970,115944
 1.0000e+000 116068 -6.8796e-002 -1.2081e+000  3.9369e-001 16388 115918,115996,115970
 1.0000e+000 116045  6.7149e-002 -1.5847e+000  3.6949e-001 16388 115892,115996,115918
 1.0000e+000 116022  3.5318e-001 -7.3254e-001  4.7844e-001 16388 115866,115996,115892
 1.0000e+000 116192  6.0368e-002 -6.5212e+000 -2.1313e+000 15810 116114,116166,116140
 1.0000e+000 116342 -6.6402e-001 -3.4426e-002 -8.7166e-002 15419 116241,116293,116267
 1.0000e+000 116319  1.2426e-001  1.0197e-001  6.0286e-003 15419 116215,116293,116241
 1.0000e+000 116445 -5.7482e+000 -2.6984e+000 -2.1275e+000 421 116367,116419,116393
 1.1000e+000 68477 -7.2035e+000 -1.4990e+001  3.1905e-002 68018 68327,68379,68353
 1.1000e+000 68454 -8.2926e+000 -2.3647e+001  2.5124e+000 68018 68301,68379,68327
 1.1000e+000 68431 -3.4169e+000 -2.8956e+001  4.2954e+000 68018 68301,68405,68379
 1.1000e+000 68578 -1.4739e+000 -1.9469e+001  1.1156e+000 67820 68500,68552,68526
 1.1000e+000 68728 -4.4779e+000 -2.0168e+001  3.6212e-001 67508 68601,68653,68627
 1.1000e+000 68705 -1.1789e+001 -1.2989e+001 -2.7831e+000 67508 68601,68679,68653
 1.1000e+000 68927  8.3244e+000 -3.3875e+000 -1.2191e+000 67310 68777,68829,68803
 1.1000e+000 68904  3.4576e+000 -5.3908e+000  6.0694e-001 67310 68751,68829,68777
 1.1000e+000 68881  2.1428e+000 -7.5007e+000  4.0714e-002 67310 68751,68855,68829
 1.1000e+000 69386  4.2638e+000 -1.4038e+001  2.7810e-001 67020 69216,69268,69242
 1.1000e+000 69363  3.0502e+000 -1.0510e+001 -2.3816e+000 67020 69138,69268,69216
 1.1000e+000 69340  1.3686e+001 -1.0555e+001 -4.8533e+000 67020 69112,69268,69138
 1.1000e+000 69317 -1.5673e-001 -1.0691e+001  1.9635e+000 67020 69138,69190,69164
 1.1000e+000 69294 -6.0813e-001 -8.5500e+000 -9.2031e-001 67020 69138,69216,69190
 1.1000e+000 69536  4.9242e+000 -1.7901e+001 -3.3917e+000 66708 69435,69487,69461
 1.1000e+000 69513  2.3017e+001 -2.0822e+001 -1.0745e+000 66708 69409,69487,69435
 1.1000e+000 69735 -6.0902e+000 -2.3144e+001  1.2226e+000 66346 69585,69637,69611
 1.1000e+000 69712 -2.4165e+000 -2.2360e+001  2.6359e-001 66346 69559,69637,69585
 1.1000e+000 69689 -7.5991e-001 -2.1138e+001 -2.7370e+000 66346 69559,69663,69637
 1.1000e+000 69985 -1.1312e+000 -1.1626e+001  8.9985e-001 66148 69786,69890,69864
 1.1000e+000 69962 -3.3089e+000 -1.2605e+001  1.1125e+000 66148 69760,69890,69786
 1.1000e+000 69939  1.7343e+000 -1.0007e+001 -1.7032e+000 66148 69786,69864,69838
 1.1000e+000 69916  6.1230e-001 -1.2130e+001 -1.1776e+000 66148 69786,69838,69812
 1.1000e+000 70137  6.7291e+000 -4.7481e+000 -6.5310e-001 65950 70036,70088,70062
 1.1000e+000 70114  1.0876e+001 -5.8649e+000  1.5190e+000 65950 70010,70088,70036
 1.1000e+000 70470  6.9950e+000 -2.3716e+000 -7.0808e-001 65546 70245,70323,70271
 1.1000e+000 70447  6.1562e+000 -3.2253e+000 -7.3414e-003 65546 70245,70375,70323
 1.1000e+000 70424  5.0434e+000 -5.7317e+000 -3.5974e-001 65546 70323,70375,70349
 1.1000e+000 70401  6.7902e+000 -2.9675e+000 -3.4292e-001 65546 70271,70323,70297
 1.1000e+000 70620  4.4481e+000 -1.1856e+001  1.3250e+000 65348 70493,70545,70519
 1.1000e+000 70597  3.1461e+000 -1.3861e+001  6.4512e-001 65348 70493,70571,70545
 1.1000e+000 70721  8.5540e-001 -3.3609e+000 -3.1491e-001 65150 70643,70695,70669
 1.1000e+000 71020  5.4307e+000 -5.5244e-001 -6.5401e-001 64952 71043,70850,70824
 1.1000e+000 70997  5.5444e+000 -3.7443e-001 -7.3760e-001 64952 71043,70824,70772
 1.1000e+000 70974  5.5301e+000 -3.0846e+000  2.5956e-001 64952 71115,70746,70876
 1.1000e+000 70951  5.0917e+000 -2.8468e+000  6.3593e-001 64952 70746,70902,70876
 1.1000e+000 70928  4.3218e+000 -2.2856e+000  2.9641e-001 64952 70772,70824,70798
 1.1000e+000 71069  5.9868e+000  4.9307e-002  2.4692e-001 64952 70876,70850,71043
 1.1000e+000 71092  5.0872e+000 -2.0760e+000  7.7914e-002 64952 71115,70876,71043
 1.1000e+000 71141  5.3108e+000 -2.0232e+000 -4.8119e-001 64952 70772,70746,71115
 1.1000e+000 71164  5.4188e+000 -4.5072e-001 -7.7020e-001 64952 70772,71115,71043
 1.1000e+000 71365  5.2999e+000 -1.6531e+000 -3.3167e-001 64662 71215,71293,71267
 1.1000e+000 71342  6.9124e+000  1.1314e+000 -1.0351e+000 64662 71189,71293,71215
 1.1000e+000 71319  6.6161e+000  2.3022e+000 -4.7429e-001 64662 71215,71267,71241
 1.1000e+000 71615  2.5368e+000 -1.2776e+001  2.7278e-001 64350 71710,71638,71468
 1.1000e+000 71592  3.1666e+000 -1.1854e+001 -4.1664e-001 64350 71638,71416,71390
 1.1000e+000 71569  1.6328e+000 -1.0340e+001  2.3700e+000 64350 71710,71468,71442
 1.1000e+000 71546  5.0874e+000 -1.2101e+001  1.2380e+000 64350 71390,71520,71494
 1.1000e+000 71664  3.0465e+000 -1.2484e+001  1.2775e-002 64350 71494,71468,71638
 1.1000e+000 71687  3.7709e+000 -1.3094e+001  4.9616e-001 64350 71494,71638,71390
 1.1000e+000 71736  4.0850e+000 -7.9964e+000  3.2442e-001 64350 71416,71638,71710
 1.1000e+000 71759  3.4272e+000 -5.8635e+000  2.9259e+000 64350 71416,71710,71442
 1.1000e+000 72318  2.4606e+000 -1.5248e+001 -1.0400e+000 63837 71972,72024,71998
 1.1000e+000 72295  2.7331e+000 -8.7117e+000 -4.4832e-002 63837 72341,71972,71946
 1.1000e+000 72272  2.5494e+000 -6.3614e+000  1.3518e+000 63837 72413,72341,71946
 1.1000e+000 72249  2.2752e+000 -5.3111e+000  1.0908e+000 63837 72413,71946,72128
 1.1000e+000 72226 -7.6879e-001 -7.1751e+000  4.9549e-001 63837 72024,72076,72050
 1.1000e+000 72203  1.1516e+000 -6.3609e+000  2.3610e-001 63837 72024,72102,72076
 1.1000e+000 72180  2.4157e+000 -5.2676e+000  1.1532e+000 63837 71946,72154,72128
 1.1000e+000 72367  1.2087e-001 -1.0245e+001 -2.3158e+000 63837 72024,71972,72341
 1.1000e+000 72390  1.9700e+000 -7.1025e+000 -2.4569e-001 63837 72024,72341,72102
 1.1000e+000 72439  2.6107e+000 -7.9661e+000  9.1734e-001 63837 72102,72341,72413
 1.1000e+000 72462  2.4865e+000 -6.7464e+000  7.9781e-001 63837 72102,72413,72128
 1.1000e+000 72791  1.1553e-001 -5.4164e+000 -1.5686e+000 63383 72592,72696,72670
 1.1000e+000 72768  1.8351e-001 -2.9318e+000 -3.5574e+000 63383 72566,72696,72592
 1.1000e+000 72745 -3.2454e-001 -3.9563e+000 -2.8646e-001 63383 72592,72670,72618
 1.1000e+000 72722 -9.8857e-001 -4.9153e+000 -8.0077e-001 63383 72618,72670,72644
 1.1000e+000 73297 -3.1800e+000 -5.3131e+000 -4.7133e-001 63185 73000,73156,73130
 1.1000e+000 73274 -2.8690e+000 -4.8635e+000  8.3913e-001 63185 72974,73156,73000
 1.1000e+000 73251 -1.3038e+000 -8.4022e+000 -1.4729e-001 63185 73000,73052,73026
 1.1000e+000 73228 -5.6283e-001 -5.5543e+000 -1.1067e+000 63185 73000,73130,73052
 1.1000e+000 73205 -1.3941e+000 -8.5284e+000 -1.9120e+000 63185 73052,73130,73104
 1.1000e+000 73182 -1.7888e+000 -9.1820e+000 -2.1081e+000 63185 73052,73104,73078
 1.1000e+000 73545  2.8251e+000 -3.7357e+000 -2.6198e-002 62781 73568,73398,73372
 1.1000e+000 73522  3.3860e+000 -3.2960e+000  3.3840e-001 62781 73568,73372,73346
 1.1000e+000 73499  2.1866e+000 -3.6784e+000 -1.8666e-001 62781 73640,73320,73424
 1.1000e+000 73476  3.6852e+000 -1.6064e+000 -9.2506e-001 62781 73320,73450,73424
 1.1000e+000 73594  2.9145e+000 -3.3240e+000 -1.2271e-001 62781 73424,73398,73568
 1.1000e+000 73617  2.7134e+000 -3.4588e+000 -1.8978e-001 62781 73640,73424,73568
 1.1000e+000 73666  2.2641e+000 -3.5741e+000  2.6339e-001 62781 73346,73320,73640
 1.1000e+000 73689  2.5361e+000 -3.4766e+000  2.6373e-001 62781 73346,73640,73568
 1.1000e+000 74035 -8.4214e-001 -1.8198e+001 -8.9177e-001 62363 74058,73868,73842
 1.1000e+000 74012  3.0296e+000 -1.3803e+001 -3.6269e+000 62363 74130,74058,73842
 1.1000e+000 73989  4.7191e+000 -1.4743e+001 -6.1654e+000 62363 74130,73842,73816
 1.1000e+000 73966 -2.3318e+000 -2.1344e+001  1.1127e+000 62363 74202,73764,73894
 1.1000e+000 73943 -7.9082e+000 -1.9049e+001  8.8765e-001 62363 73712,73894,73764
 1.1000e+000 73920 -1.1057e+001 -2.1367e+001 -9.2751e-001 62363 73712,73764,73738
 1.1000e+000 74084  1.3433e+000 -1.7610e+001 -1.1118e-001 62363 73894,73868,74058
 1.1000e+000 74107 -1.4097e+000 -1.9583e+001  1.4639e+000 62363 74202,73894,74058
 1.1000e+000 74156  1.9879e-001 -1.8178e+001 -2.1890e-001 62363 73790,74058,74130
 1.1000e+000 74179  4.9336e+000 -1.8811e+001 -2.7717e+000 62363 73790,74130,73816
 1.1000e+000 74228 -3.1265e+000 -2.1717e+001 -1.3637e+000 62363 73790,73764,74202
 1.1000e+000 74251 -2.1703e+000 -1.9667e+001 -1.0590e+000 62363 73790,74202,74058
 1.1000e+000 74403  7.0618e+000 -1.6203e+001  1.1155e+000 62115 74426,74302,74276
 1.1000e+000 74380  9.0801e+000 -1.6029e+001  1.9346e+000 62115 74426,74276,74354
 1.1000e+000 74452  5.2439e+000 -1.5357e+001  1.1418e+000 62115 74328,74302,74426
 1.1000e+000 74475  7.0835e+000 -1.5285e+001  2.0202e+000 62115 74328,74426,74354
 1.1000e+000 74578  4.0598e+000 -3.2851e+000 -3.0543e-001 61825 74500,74552,74526
 1.1000e+000 74982 -8.0398e+000 -2.2426e+001  1.7356e-001 61513 75005,74734,74708
 1.1000e+000 74959 -8.8619e+000 -2.0962e+001 -1.4071e-001 61513 75005,74708,74864
 1.1000e+000 74936 -1.3621e+001 -2.3180e+001  1.8427e+000 61513 75077,74812,74734
 1.1000e+000 74913 -8.8647e+000 -1.8216e+001 -1.3628e+000 61513 74734,74786,74760
 1.1000e+000 74890 -9.6389e+000 -1.9352e+001 -6.0840e-001 61513 74734,74812,74786
 1.1000e+000 75031 -8.0726e+000 -2.3091e+001  6.8446e-002 61513 75077,74734,75005
 1.1000e+000 75054 -5.6750e+000 -2.2308e+001  3.9042e+000 61513 74838,75005,74864
 1.1000e+000 75103 -1.6722e+001 -2.4555e+001  6.8372e+000 61513 74838,74812,75077
 1.1000e+000 75126 -1.3149e+001 -2.5865e+001  5.0859e+000 61513 74838,75077,75005
 1.1000e+000 75553 -8.4692e-001 -1.4881e+001  2.1618e-001 61060 75576,75360,75308
 1.1000e+000 75530  1.5858e-001 -1.6461e+001  5.9783e-001 61060 75576,75308,75230
 1.1000e+000 75507 -1.7281e+000 -1.4504e+001  1.0422e+000 61060 75308,75360,75334
 1.1000e+000 75484 -2.7064e+000 -2.3074e+001  8.8385e-001 61060 75230,75308,75256
 1.1000e+000 75461 -1.4397e+000 -1.5027e+001 -3.6673e+000 61060 75256,75308,75282
 1.1000e+000 75438 -1.7597e+000 -1.3483e+001  1.8614e+000 61060 75360,75412,75386
 1.1000e+000 75602 -1.2441e+000 -1.5881e+001  7.7559e-001 61060 75412,75360,75576
 1.1000e+000 75625 -5.3928e-001 -1.8008e+001  1.1072e+000 61060 75412,75576,75230
 1.1000e+000 76052  9.0651e-001 -1.0907e+001  2.9643e-001 60442 75755,75859,75833
 1.1000e+000 76029 -4.4899e-001 -1.0090e+001 -1.1173e+000 60442 75729,75859,75755
 1.1000e+000 76006  4.4354e-001 -1.0847e+001  8.2199e-001 60442 75755,75833,75807
 1.1000e+000 75983  9.3235e-001 -1.4809e+001  1.6862e-001 60442 75755,75807,75781
 1.1000e+000 75960  4.7708e+000 -2.3200e+001  1.3391e+000 60442 75729,75911,75859
 1.1000e+000 75937 -6.6904e+000 -5.4923e+001  2.9166e+000 60442 75859,75911,75885
 1.1000e+000 76430  3.0695e+000 -4.6881e+000  2.6587e-001 59788 76453,76286,76234
 1.1000e+000 76407  2.6320e+000 -5.2940e+000 -1.5858e-001 59788 76453,76234,76182
 1.1000e+000 76384  3.6642e+000 -3.3695e+000  7.1091e-001 59788 76525,76156,76312
 1.1000e+000 76361  5.0460e+000 -8.1446e+000 -5.1660e-001 59788 76182,76234,76208
 1.1000e+000 76338  3.9704e+000 -4.0715e+000  5.3584e-001 59788 76234,76286,76260
 1.1000e+000 76479  3.3791e+000 -4.8719e+000  4.8240e-001 59788 76312,76286,76453
 1.1000e+000 76502  3.2398e+000 -4.5741e+000  3.0174e-001 59788 76525,76312,76453
 1.1000e+000 76551  2.8796e+000 -4.8480e+000  4.1879e-001 59788 76182,76156,76525
 1.1000e+000 76574  3.1301e+000 -5.1056e+000  2.4258e-001 59788 76182,76525,76453
 1.1000e+000 77031  4.5086e+000 -3.2653e+000 -6.0438e-001 59448 76835,76887,76861
 1.1000e+000 77008  6.6755e+000  1.5401e+000 -1.0653e-002 59448 76835,76913,76887
 1.1000e+000 76985  5.2377e+000  1.1449e+000  1.2340e+000 59448 76809,76913,76835
 1.1000e+000 76962  2.5134e+000  5.2063e-001 -8.1963e-001 59448 76757,76913,76809
 1.1000e+000 76939  3.9154e+000  1.8728e+000 -1.4093e+000 59448 76757,76809,76783
 1.1000e+000 77537 -8.2303e-001 -1.7794e+001 -4.2632e-001 58994 77560,77344,77292
 1.1000e+000 77514 -7.5585e+000 -1.9040e+001 -2.0427e+000 58994 77560,77292,77240
 1.1000e+000 77491  4.1856e+000 -1.6902e+001 -4.1736e+000 58994 77632,77214,77370
 1.1000e+000 77468 -9.8501e+000 -2.1889e+001  2.1389e+000 58994 77292,77344,77318
 1.1000e+000 77445  2.1718e+000 -2.9325e+001 -7.4884e-001 58994 77214,77396,77370
 1.1000e+000 77422 -6.6956e+000 -1.7781e+001 -3.0157e+000 58994 77240,77292,77266
 1.1000e+000 77586 -4.0408e+000 -1.9973e+001  6.1867e-001 58994 77370,77344,77560
 1.1000e+000 77609 -1.0724e+000 -2.0088e+001  5.3640e-001 58994 77632,77370,77560
 1.1000e+000 77658  7.1356e+000 -1.3362e+001 -8.9241e+000 58994 77240,77214,77632
 1.1000e+000 77681  3.3181e+000 -1.2696e+001 -4.6459e+000 58994 77240,77632,77560
 1.1000e+000 78138  8.9478e-001 -4.7479e+000  1.4965e+000 58440 77864,77994,77890
 1.1000e+000 78115  1.4427e+000  7.6799e-001 -1.9463e+000 58440 77864,78020,77994
 1.1000e+000 78092  1.4515e+000 -5.7134e+000 -4.4530e-001 58440 77942,77994,77968
 1.1000e+000 78069  2.0131e+000 -5.8043e+000  2.5793e-001 58440 77890,77994,77942
 1.1000e+000 78046  2.7840e+000 -4.9790e+000 -1.4213e-001 58440 77890,77942,77916
 1.1000e+000 78467 -5.5129e-001 -1.5639e+001 -2.7873e-001 57928 78562,78490,78346
 1.1000e+000 78444 -1.8735e+000 -1.4763e+001  6.3473e-001 57928 78490,78294,78268
 1.1000e+000 78421  2.6950e-001 -1.6839e+001  4.8056e-001 57928 78562,78346,78320
 1.1000e+000 78398  8.2672e-001 -1.4116e+001  6.0000e-001 57928 78242,78372,78268
 1.1000e+000 78516 -2.0763e+000 -1.7451e+001 -1.0229e+000 57928 78372,78346,78490
 1.1000e+000 78539 -1.8328e+000 -1.5293e+001 -2.0840e-001 57928 78372,78490,78268
 1.1000e+000 78588 -2.6084e+000 -1.6835e+001  2.1872e-001 57928 78294,78490,78562
 1.1000e+000 78611 -1.3668e+000 -1.7995e+001  1.0645e+000 57928 78294,78562,78320
 1.1000e+000 79068 -3.6577e+000 -1.1748e+001 -4.9618e+000 57467 78794,78924,78820
 1.1000e+000 79045  9.1797e-002 -1.0180e+001 -4.9846e+000 57467 78794,78950,78924
 1.1000e+000 79022  1.8439e+000 -8.1979e+000  2.0080e-001 57467 78820,78898,78872
 1.1000e+000 78999 -6.9919e-001 -1.2964e+001 -2.7619e+000 57467 78820,78924,78898
 1.1000e+000 78976  1.2661e+000 -8.4435e+000  2.3582e-001 57467 78820,78872,78846
 1.1000e+000 79446 -2.7464e+000 -1.4885e+001 -9.3018e-001 57120 79172,79302,79250
 1.1000e+000 79423 -2.6275e+000 -1.4831e+001 -1.0482e+000 57120 79172,79328,79302
 1.1000e+000 79400 -2.3801e+000 -1.1563e+001 -1.6316e+000 57120 79172,79250,79198
 1.1000e+000 79377 -5.0066e-001 -1.4967e+001 -8.8747e-002 57120 79250,79302,79276
 1.1000e+000 79354 -1.9560e-001 -1.5351e+001 -5.2718e+000 57120 79198,79250,79224
 1.1000e+000 79952 -2.9664e+000 -6.9378e+000 -3.2942e-002 56773 79629,79785,79655
 1.1000e+000 79929  3.6085e+000 -4.5222e+000  4.7755e-002 56773 79629,79811,79785
 1.1000e+000 79906 -4.6696e-001 -8.4412e+000  3.0083e-001 56773 79655,79733,79681
 1.1000e+000 79883 -1.3721e+000 -7.3037e+000 -2.2695e-001 56773 79655,79785,79733
 1.1000e+000 79860 -8.4708e-001 -9.7241e+000 -1.9203e+000 56773 79733,79785,79759
 1.1000e+000 79837  1.9515e+000 -7.2290e+000  2.7410e+000 56773 79681,79733,79707
 1.1000e+000 80281 -1.1340e+000 -9.0339e+000 -7.9030e-001 56319 80108,80160,80134
 1.1000e+000 80258 -7.0984e-001 -1.1417e+001 -1.0170e+000 56319 80056,80160,80108
 1.1000e+000 80235  3.7231e-001 -1.0160e+001  1.7923e+000 56319 80056,80186,80160
 1.1000e+000 80212 -3.2124e-001 -1.0968e+001 -1.2068e+000 56319 80056,80108,80082
 1.1000e+000 80738  2.8441e+000 -7.8578e+000  1.2415e+000 55957 80516,80620,80594
 1.1000e+000 80715  8.2687e-001 -4.8984e+000  1.6343e+000 55957 80464,80620,80516
 1.1000e+000 80692  1.6803e+000 -9.8142e+000  1.2050e+000 55957 80761,80568,80542
 1.1000e+000 80669  2.6602e+000 -9.0053e+000  1.5524e+000 55957 80761,80542,80516
 1.1000e+000 80646  4.4446e-001 -5.7048e+000  3.8050e+000 55957 80464,80516,80490
 1.1000e+000 80787  4.8863e-001 -9.3628e+000  6.1218e-001 55957 80594,80568,80761
 1.1000e+000 80810  1.4318e+000 -8.5549e+000  9.5639e-001 55957 80594,80761,80516
 1.1000e+000 81210  3.0515e+000 -4.8066e+000 -2.0432e-001 55317 80936,80988,80962
 1.1000e+000 81187  2.9387e+000 -5.8211e+000  1.2703e-001 55317 80936,81066,80988
 1.1000e+000 81164  2.7103e+000 -5.4110e+000  1.9278e-003 55317 80936,81092,81066
 1.1000e+000 81141  3.9724e-001 -7.2855e+000 -1.2055e+000 55317 80988,81066,81014
 1.1000e+000 81118  5.0118e+000 -2.6866e+000  6.4843e-001 55317 81014,81066,81040
 1.1000e+000 81539 -4.1753e+000 -1.3086e+001  9.8056e-001 54913 81340,81418,81392
 1.1000e+000 81516 -7.9478e-002 -1.2504e+001  2.6345e-001 54913 81340,81444,81418
 1.1000e+000 81493 -1.5947e+000 -1.3296e+001 -2.2575e-001 54913 81314,81444,81340
 1.1000e+000 81470 -5.7616e+000 -2.0801e+001 -3.1013e-001 54913 81340,81392,81366
 1.1000e+000 81787 -3.5412e-001 -1.2253e+001  9.6249e-001 54601 81588,81692,81640
 1.1000e+000 81764 -4.3938e+000 -1.3948e+001 -1.7246e-001 54601 81562,81692,81588
 1.1000e+000 81741 -3.4669e-001 -1.2501e+001  1.8968e+000 54601 81588,81640,81614
 1.1000e+000 81718 -6.0841e-001 -1.8229e+001 -2.0721e+000 54601 81640,81692,81666
 1.1000e+000 82344  9.2465e-001 -2.0018e+001 -3.3263e+000 54090 81998,82102,82076
 1.1000e+000 82321 -5.9598e+000 -2.3022e+001 -2.3341e+000 54090 81998,82154,82102
 1.1000e+000 82298 -6.9805e+000 -2.1286e+001 -1.9566e+000 54090 81972,82154,81998
 1.1000e+000 82275 -9.5360e+000 -2.0405e+001 -2.2876e+000 54090 81998,82076,82024
 1.1000e+000 82252 -9.5752e+000 -2.3589e+001  1.1910e+000 54090 81972,82180,82154
 1.1000e+000 82229 -9.6673e+000 -2.5916e+001  2.1625e-002 54090 82102,82154,82128
 1.1000e+000 82206  4.9958e-001 -1.6604e+001 -2.4920e+000 54090 82024,82076,82050
 1.1000e+000 82722 -4.7402e+000 -1.2723e+001  1.1277e+000 53579 82500,82578,82552
 1.1000e+000 82699 -3.8661e+000 -1.2904e+001  1.4486e+000 53579 82448,82578,82500
 1.1000e+000 82676 -5.5127e+000 -1.4578e+001  2.3651e+000 53579 82448,82500,82474
 1.1000e+000 82653 -5.5985e+000 -1.4013e+001  2.9878e+000 53579 82448,82604,82578
 1.1000e+000 82630 -2.5667e+000 -1.1888e+001  1.3000e+000 53579 82500,82552,82526
 1.1000e+000 83356  9.7975e-001 -6.0346e+000 -1.0755e+000 53189 83379,83088,83036
 1.1000e+000 83333  2.2220e-001 -6.5756e+000 -1.4227e+000 53189 83379,83036,82984
 1.1000e+000 83310  3.2408e+000 -5.6101e+000  5.0991e-001 53189 82984,83192,83166
 1.1000e+000 83287  5.0915e+000 -4.4762e+000 -1.1734e+000 53189 83036,83088,83062
 1.1000e+000 83264  7.8267e-001 -8.8359e+000 -2.2711e+000 53189 82984,83036,83010
 1.1000e+000 83241  3.8498e+000 -8.7003e+000  9.6153e-001 53189 83114,83166,83140
 1.1000e+000 83218 -4.3832e-001 -9.5578e+000  6.5681e-001 53189 83088,83166,83114
 1.1000e+000 83405  1.9320e+000 -6.4552e+000 -7.0216e-001 53189 83166,83088,83379
 1.1000e+000 83428  1.0469e+000 -7.0469e+000 -1.0448e+000 53189 83166,83379,82984
 1.1000e+000 83725 -4.9974e+000 -2.0569e+001 -2.3506e+000 52585 83748,83529,83503
 1.1000e+000 83702 -1.5092e+000 -1.9494e+001 -9.0605e-001 52585 83820,83748,83503
 1.1000e+000 83679  1.4583e+000 -1.8215e+001 -3.5042e-001 52585 83820,83503,83477
 1.1000e+000 83656  2.8323e-001 -1.5152e+001  2.3761e-001 52585 83477,83607,83581
 1.1000e+000 83633 -5.9962e-001 -1.5099e+001  1.4705e+000 52585 83451,83607,83477
 1.1000e+000 83774 -3.3654e+000 -1.6262e+001 -1.4881e+000 52585 83555,83529,83748
 1.1000e+000 83797 -6.1964e+000 -1.8798e+001 -3.7355e-001 52585 83555,83748,83581
 1.1000e+000 83846 -4.2696e+000 -1.6966e+001  6.5123e-001 52585 83581,83748,83820
 1.1000e+000 83869 -2.2691e+000 -1.6353e+001  8.6115e-001 52585 83581,83820,83477
 1.1000e+000 84200 -6.5621e+000 -1.9372e+001  6.7448e-001 52024 84001,84105,84079
 1.1000e+000 84177 -1.0835e+000 -1.8298e+001 -6.4130e-001 52024 83975,84105,84001
 1.1000e+000 84154 -5.4081e+000 -1.9072e+001  6.5187e-001 52024 84001,84079,84053
 1.1000e+000 84131 -2.9280e+000 -1.2523e+001  4.0213e+000 52024 84001,84053,84027
 1.1000e+000 84399 -4.2688e+000 -1.2451e+001  2.9550e-001 51470 84422,84275,84249
 1.1000e+000 84376 -5.0118e+000 -1.4878e+001 -2.4487e-001 51470 84422,84249,84223
 1.1000e+000 84353 -3.4804e+000 -1.5797e+001 -2.1639e+000 51470 84275,84327,84301
 1.1000e+000 84448 -3.4095e+000 -1.4596e+001  4.7612e-001 51470 84327,84275,84422
 1.1000e+000 84471 -3.8089e+000 -1.6554e+001 -5.1864e-002 51470 84327,84422,84223
 1.1000e+000 84753 -4.8120e+000 -2.2720e+001  5.5481e-002 51073 84603,84655,84629
 1.1000e+000 84730 -1.4817e+001 -2.5234e+001  9.0764e-001 51073 84776,84655,84603
 1.1000e+000 84707  5.3989e-002 -1.6802e+001 -6.0983e+000 51073 84577,84681,84655
 1.1000e+000 84802 -7.7003e+000 -2.0681e+001 -2.3385e+000 51073 84577,84655,84776
 1.1000e+000 85178 -1.0648e+000 -9.9346e+000  5.5838e-001 50519 85201,85008,84982
 1.1000e+000 85155 -1.0284e+000 -1.0099e+001  9.9651e-001 50519 85273,85201,84982
 1.1000e+000 85132 -1.1932e+000 -1.0034e+001  1.1101e+000 50519 85273,84982,84930
 1.1000e+000 85109  9.4994e-001 -1.1940e+001  9.9293e-001 50519 84930,84982,84956
 1.1000e+000 85086 -3.1436e+000 -9.4345e+000  1.0116e+000 50519 85008,85060,85034
 1.1000e+000 85227 -2.6913e+000 -1.0522e+001  2.7528e-001 50519 85060,85008,85201
 1.1000e+000 85250 -1.3383e+000 -9.8412e+000  7.2490e-001 50519 85060,85201,84904
 1.1000e+000 85299 -1.3061e+000 -1.0244e+001  9.2994e-001 50519 84904,85201,85273
 1.1000e+000 85322 -1.5604e+000 -1.0118e+001  1.0715e+000 50519 84904,85273,84930
 1.1000e+000 85958  1.2010e+000 -8.0672e+000 -8.7296e-002 50093 85981,85768,85716
 1.1000e+000 85935  1.5971e+000 -6.9480e+000 -2.4598e-001 50093 85981,85716,85612
 1.1000e+000 85912  2.1482e-001 -7.3298e+000  3.7318e-001 50093 85612,85716,85664
 1.1000e+000 85889  1.9927e+000 -8.8049e+000 -2.5834e-002 50093 85716,85768,85742
 1.1000e+000 85866 -1.4980e-001 -5.9151e+000 -1.4338e+000 50093 85664,85716,85690
 1.1000e+000 85843  6.0957e+000 -3.4917e+000 -3.4436e-001 50093 85586,85794,85612
 1.1000e+000 85820  8.7192e-001 -1.1201e+001  9.8823e-001 50093 85612,85664,85638
 1.1000e+000 86007  5.6034e-001 -8.8703e+000 -1.5649e+000 50093 85794,85768,85981
 1.1000e+000 86030  1.6913e+000 -5.8359e+000 -1.3595e+000 50093 85794,85981,85612
 1.1000e+000 86131 -1.0280e+000 -2.6446e+001  4.5276e+000 49895 86053,86105,86079
 1.1000e+000 86639  1.9542e-001 -7.5361e+000 -3.6507e-001 49391 86662,86394,86368
 1.1000e+000 86616  5.4383e-001 -7.1773e+000 -8.9751e-002 49391 86662,86368,86342
 1.1000e+000 86593  1.3746e+000 -6.0884e+000  1.7915e-001 49391 86342,86498,86472
 1.1000e+000 86570  2.1975e+000 -6.5208e+000  2.3791e-001 49391 86316,86498,86342
 1.1000e+000 86547 -2.7226e+000 -1.2681e+001  7.2275e-001 49391 86394,86472,86446
 1.1000e+000 86524  3.5898e+000 -1.2677e+001  1.4083e+000 49391 86394,86446,86420
 1.1000e+000 86688 -4.3031e-001 -7.1717e+000 -5.5050e-001 49391 86472,86394,86662
 1.1000e+000 86711  5.3185e-002 -6.9558e+000 -3.7954e-001 49391 86472,86662,86342
 1.1000e+000 87089 -5.0931e+000 -1.4055e+001  1.1845e+000 48987 86815,86919,86867
 1.1000e+000 87066 -4.9176e+000 -1.5760e+001  2.0407e+000 48987 86815,86971,86919
 1.1000e+000 87043 -1.2719e+000 -1.3197e+001  1.0580e+000 48987 86867,86919,86893
 1.1000e+000 87020 -6.0438e+000 -1.6889e+001  3.2102e+000 48987 86815,86867,86841
 1.1000e+000 86997 -4.5792e+000 -1.1531e+001  3.2456e+000 48987 86919,86971,86945
 1.1000e+000 87467 -9.8521e+000 -1.3087e+001  3.1847e+000 48540 87490,87245,87219
 1.1000e+000 87444 -2.4259e+000 -1.1118e+001  1.5635e+000 48540 87562,87490,87219
 1.1000e+000 87421 -3.5696e+000 -1.1532e+001  6.0583e-001 48540 87562,87219,87349
 1.1000e+000 87398  2.9683e+000 -1.4466e+001  4.5856e+000 48540 87245,87297,87271
 1.1000e+000 87375 -8.0657e-001 -1.2118e+001  6.0011e-001 48540 87193,87349,87219
 1.1000e+000 87516 -2.3520e+000 -1.0365e+001  3.1421e+000 48540 87297,87245,87490
 1.1000e+000 87539 -1.0665e+000 -1.2157e+001  3.6056e-001 48540 87297,87490,87323
 1.1000e+000 87588 -3.7202e+000 -1.2885e+001  9.3513e-001 48540 87323,87490,87562
 1.1000e+000 87611 -4.1067e+000 -1.2092e+001  2.1456e-001 48540 87323,87562,87349
 1.1000e+000 87810 -7.4067e+000 -3.2008e+001  7.5722e-001 48136 87660,87712,87686
 1.1000e+000 87787 -2.7698e+000 -2.3462e+001 -1.1313e+000 48136 87660,87738,87712
 1.1000e+000 87764 -9.9023e+000 -2.2003e+001 -6.0262e+000 48136 87634,87738,87660
 1.1000e+000 88205 -7.4930e+000 -1.9638e+001 -1.9262e+000 47210 88300,88228,87937
 1.1000e+000 88182 -6.5132e+000 -2.0783e+001 -5.1984e-001 47210 88228,87833,88041
 1.1000e+000 88159 -7.8787e+000 -2.1526e+001 -2.7953e+000 47210 88300,87937,87911
 1.1000e+000 88136 -7.3373e+000 -1.9588e+001 -1.6420e+000 47210 87833,87911,87859
 1.1000e+000 88113 -1.0688e+001 -1.5368e+001 -3.1842e+000 47210 87937,87989,87963
 1.1000e+000 88090 -6.8448e+000 -1.5187e+001  1.3724e+000 47210 87989,88041,88015
 1.1000e+000 88067 -6.8920e+000 -1.8833e+001 -2.6976e+000 47210 87859,87911,87885
 1.1000e+000 88254 -6.6072e+000 -1.3474e+001 -2.5686e+000 47210 87989,87937,88228
 1.1000e+000 88277 -8.4712e+000 -1.8602e+001 -3.2884e-001 47210 87989,88228,88041
 1.1000e+000 88326 -6.5650e+000 -1.8183e+001 -4.6122e-001 47210 87833,88228,88300
 1.1000e+000 88349 -6.9891e+000 -1.9294e+001 -1.4560e+000 47210 87833,88300,87911
 1.1000e+000 88780 -1.3880e+001 -2.5666e+001 -3.2649e+000 46642 88803,88509,88483
 1.1000e+000 88757 -7.7019e+000 -2.2044e+001 -4.8284e-001 46642 88803,88483,88639
 1.1000e+000 88734 -1.0426e+001 -1.7749e+001 -4.6224e-001 46642 88875,88561,88509
 1.1000e+000 88711 -1.1302e+001 -1.7041e+001  1.3108e+000 46642 88509,88561,88535
 1.1000e+000 88688 -7.2619e+000 -2.6008e+001  2.9402e-001 46642 88457,88639,88483
 1.1000e+000 88665 -1.1319e+001 -2.7259e+001  3.6053e-001 46642 88561,88613,88587
 1.1000e+000 88829 -9.9451e+000 -1.9671e+001 -7.7410e-001 46642 88875,88509,88803
 1.1000e+000 88852 -9.5351e+000 -2.3073e+001  9.7666e-001 46642 88613,88803,88639
 1.1000e+000 88901 -8.9053e+000 -2.0165e+001  9.6116e-001 46642 88613,88561,88875
 1.1000e+000 88924 -9.4244e+000 -2.3301e+001  8.0958e-001 46642 88613,88875,88803
 1.1000e+000 89253 -2.4949e+000 -2.0109e+001  7.3699e-001 46444 89080,89158,89132
 1.1000e+000 89230 -2.3993e+000 -1.9864e+001  6.9119e-001 46444 89028,89158,89080
 1.1000e+000 89207 -8.8605e-001 -2.1426e+001  1.0215e+000 46444 89028,89080,89054
 1.1000e+000 89184  1.0093e+000 -2.2404e+001 -2.3409e+000 46444 89080,89132,89106
 1.1000e+000 89631 -1.3014e+000 -1.0337e+001 -4.2142e-001 46040 89383,89461,89435
 1.1000e+000 89608 -8.4717e-001 -8.9550e+000  1.4609e-001 46040 89383,89487,89461
 1.1000e+000 89585 -1.2478e+000 -9.5148e+000 -2.6229e-001 46040 89383,89435,89409
 1.1000e+000 89562 -3.1884e-001 -6.5390e+000 -8.6568e-001 46040 89383,89513,89487
 1.1000e+000 89539  3.0500e+000 -4.7757e+000 -1.8992e+000 46040 89357,89513,89383
 1.1000e+000 90009  9.5185e-001 -7.4351e+000 -2.8322e-002 45636 89813,89891,89839
 1.1000e+000 89986  1.0845e+000 -6.8080e+000  1.5380e-001 45636 89787,89891,89813
 1.1000e+000 89963  1.1546e+000 -6.8858e+000 -2.0792e-001 45636 89839,89891,89865
 1.1000e+000 89940  7.3370e-001 -9.2088e+000  1.0779e-001 45636 89735,89891,89787
 1.1000e+000 89917 -8.5951e-001 -1.1758e+001  8.1195e-001 45636 89735,89787,89761
 1.1000e+000 90208 -1.0540e+000 -9.6273e+000 -6.7838e-001 45175 90231,90058,90032
 1.1000e+000 90185 -1.0480e+000 -9.6791e+000 -5.3474e-001 45175 90231,90032,90136
 1.1000e+000 90162  3.6620e-001 -1.0046e+001 -1.7563e-001 45175 90058,90110,90084
 1.1000e+000 90257 -9.6814e-001 -9.4732e+000 -7.2311e-001 45175 90110,90058,90231
 1.1000e+000 90280 -1.0019e+000 -9.5698e+000 -5.7071e-001 45175 90110,90231,90136
 1.1000e+000 90528 -8.8183e-001 -1.0132e+001 -9.3320e-001 44513 90695,90551,90407
 1.1000e+000 90505 -2.8010e+000 -1.2880e+001 -1.7092e+000 44513 90551,90355,90329
 1.1000e+000 90482 -1.2980e+000 -8.5219e+000  2.6924e-001 44513 90623,90303,90433
 1.1000e+000 90459 -1.0516e+000 -9.5963e+000 -5.1145e-001 44513 90695,90407,90381
 1.1000e+000 90577 -1.4960e+000 -1.0539e+001 -4.8547e-002 44513 90433,90407,90551
 1.1000e+000 90600 -1.5519e+000 -1.0676e+001 -3.9770e-002 44513 90623,90433,90551
 1.1000e+000 90649 -2.3574e+000 -1.1060e+001  2.2604e-001 44513 90329,90303,90623
 1.1000e+000 90672 -1.6835e+000 -1.1675e+001  9.7582e-002 44513 90329,90623,90551
 1.1000e+000 90721 -1.0490e+000 -9.2917e+000 -1.1622e+000 44513 90355,90551,90695
 1.1000e+000 90744 -1.2722e+000 -8.7921e+000 -9.6001e-001 44513 90355,90695,90381
 1.1000e+000 91077 -3.6067e+000 -1.2419e+001  3.3522e+000 44059 91100,90930,90904
 1.1000e+000 91054 -6.4874e+000 -1.4533e+001  1.8213e+000 44059 91100,90904,90982
 1.1000e+000 91031 -7.9140e+000 -1.4450e+001  1.1211e+000 44059 90878,90982,90904
 1.1000e+000 91008 -4.4869e+000 -1.4156e+001  4.6243e-001 44059 90852,90982,90878
 1.1000e+000 91126 -1.0686e+001 -1.5958e+001  3.1746e+000 44059 91172,91100,90956
 1.1000e+000 91149 -8.0921e+000 -1.8582e+001  6.3751e-001 44059 90956,91100,90982
 1.1000e+000 91198 -4.2192e+000 -8.7816e+000  4.6472e-001 44059 90930,91100,91172
 1.1000e+000 91677 -9.7229e+000 -1.6406e+001  1.3537e+000 43549 91455,91533,91481
 1.1000e+000 91654 -6.2243e+000 -1.6512e+001  1.6932e+000 43549 91429,91533,91455
 1.1000e+000 91631 -8.7277e+000 -1.3807e+001  1.5144e+000 43549 91481,91533,91507
 1.1000e+000 91608 -1.6786e+000 -1.4580e+001  1.2748e+000 43549 91429,91559,91533
 1.1000e+000 91585 -4.7225e+000 -1.2333e+001 -2.3084e+000 43549 91403,91559,91429
 1.1000e+000 92006 -1.6531e+000 -8.8560e+000 -4.6256e-001 43059 91781,91885,91807
 1.1000e+000 91983 -5.3294e-001 -5.6983e+000  3.1726e-001 43059 91781,91911,91885
 1.1000e+000 91960 -4.0955e+000 -9.9753e+000 -4.5005e-002 43059 91807,91885,91833
 1.1000e+000 91937  4.1070e-001 -8.1190e+000 -2.0149e-001 43059 91833,91885,91859
 1.1000e+000 92561 -5.9904e+000 -1.2141e+001  5.4557e-001 42598 92584,92215,92189
 1.1000e+000 92538 -5.5894e+000 -1.1942e+001  3.0230e-001 42598 92656,92584,92189
 1.1000e+000 92515 -3.7013e+000 -1.3268e+001  1.0185e+000 42598 92656,92189,92397
 1.1000e+000 92492 -4.7299e+000 -1.1502e+001 -1.3799e+000 42598 92241,92319,92293
 1.1000e+000 92469 -4.0639e+000 -1.4272e+001  2.8364e+000 42598 92319,92397,92371
 1.1000e+000 92446 -1.2154e+000 -1.9387e+001  8.1985e+000 42598 92319,92371,92345
 1.1000e+000 92423  7.6962e+000 -9.5479e+000 -6.9410e+000 42598 92241,92293,92267
 1.1000e+000 92610 -5.6812e+000 -1.3056e+001 -1.1078e+000 42598 92241,92215,92584
 1.1000e+000 92633 -4.3444e+000 -9.8980e+000 -7.9977e-001 42598 92241,92584,92319
 1.1000e+000 92682 -3.3927e+000 -9.8885e+000  1.1980e+000 42598 92319,92584,92656
 1.1000e+000 92705 -1.9481e+000 -1.1196e+001  1.9150e+000 42598 92319,92656,92397
 1.1000e+000 92953 -2.3760e+000 -1.0263e+001  4.3650e-001 42094 92976,92806,92780
 1.1000e+000 92930 -3.9323e+000 -1.0534e+001 -8.7159e-001 42094 92976,92780,92754
 1.1000e+000 92907  6.8496e-001 -9.3994e+000  7.2204e-002 42094 93048,92832,92806
 1.1000e+000 92884 -2.4202e+000 -1.1512e+001 -2.1868e-001 42094 92728,92858,92754
 1.1000e+000 93002 -7.2919e-001 -9.8359e+000  4.9191e-001 42094 93048,92806,92976
 1.1000e+000 93025 -2.0918e+000 -1.0003e+001  4.2589e-002 42094 92858,92976,92754
 1.1000e+000 93074 -1.5329e+000 -9.6229e+000  6.7688e-001 42094 92858,92832,93048
 1.1000e+000 93097 -2.4283e+000 -9.4805e+000  8.5954e-001 42094 92858,93048,92976
 1.1000e+000 93605 -5.6852e-001 -1.3120e+001  2.9731e-001 41846 93628,93412,93386
 1.1000e+000 93582 -2.3703e+000 -1.0523e+001 -6.7489e-001 41846 93628,93386,93308
 1.1000e+000 93559  4.5294e-001 -8.6205e+000  5.1775e-001 41846 93700,93464,93438
 1.1000e+000 93536 -3.6709e+000 -1.1566e+001  2.3711e-001 41846 93308,93386,93334
 1.1000e+000 93513 -6.2848e+000 -1.2969e+001  8.3421e-001 41846 93334,93386,93360
 1.1000e+000 93490  5.8163e+000 -1.5001e+001 -1.9247e+000 41846 93282,93464,93308
 1.1000e+000 93654 -3.3165e-002 -1.0905e+001 -1.3166e-001 41846 93438,93412,93628
 1.1000e+000 93677 -8.9311e-001 -9.2153e+000  6.4123e-001 41846 93700,93438,93628
 1.1000e+000 93726  1.1166e+000 -8.7810e+000 -1.2338e+000 41846 93308,93464,93700
 1.1000e+000 93749 -2.3952e-001 -9.3485e+000 -1.1566e+000 41846 93308,93700,93628
 1.1000e+000 94255 -2.5889e-001 -8.6554e+000 -6.5187e-002 41385 93958,94114,94088
 1.1000e+000 94232  1.1390e+000 -8.9493e+000 -2.4348e-001 41385 93932,94114,93958
 1.1000e+000 94209 -2.4423e+000 -9.9785e+000  8.1088e-001 41385 93958,94088,94062
 1.1000e+000 94186 -1.0468e+000 -7.2133e+000  2.0738e-002 41385 93958,94062,93984
 1.1000e+000 94163  5.1704e+000 -7.0515e+000 -2.1965e+000 41385 93984,94062,94036
 1.1000e+000 94140  8.4105e+000 -2.3324e+001  1.6505e+000 41385 93984,94036,94010
 1.1000e+000 94476  9.7318e-002 -1.1100e+001 -8.6343e-001 40881 94326,94378,94352
 1.1000e+000 94453  2.3416e+000 -7.8313e+000  2.0050e-001 40881 94300,94378,94326
 1.1000e+000 94430  8.0572e-001 -7.6165e+000 -3.0870e-001 40881 94300,94404,94378
 1.1000e+000 94626 -3.3460e+000 -4.7982e+000  1.8239e+000 40591 94649,94551,94525
 1.1000e+000 94603 -1.3972e+000 -6.0359e+000  2.8872e+000 40591 94781,94577,94551
 1.1000e+000 94675 -1.6773e-001 -5.7301e+000  1.6262e+000 40591 94781,94551,94649
 1.1000e+000 94807  1.1310e+000 -7.3898e+000  1.1126e+000 40591 94499,94577,94781
 1.1000e+000 94830  3.3194e+000 -4.9298e+000 -6.1095e-001 40591 94499,94781,94649
 1.1000e+000 95336 -1.3583e+001 -1.4424e+001 -9.0936e-001 40187 95013,95169,95039
 1.1000e+000 95313 -8.8089e+000 -1.2757e+001 -6.6884e-001 40187 95013,95195,95169
 1.1000e+000 95290 -6.3240e+000 -1.1562e+001  2.8093e+000 40187 95039,95143,95065
 1.1000e+000 95267 -1.1167e+001 -1.3109e+001 -2.1038e-001 40187 95039,95169,95143
 1.1000e+000 95244 -9.4938e+000 -1.5575e+001  1.9558e-001 40187 95091,95143,95117
 1.1000e+000 95221 -5.1696e+000 -1.2260e+001  3.0203e+000 40187 95065,95143,95091
 1.1000e+000 95665 -6.0628e+000 -9.7900e+000  5.0215e+000 39626 95466,95570,95544
 1.1000e+000 95642 -9.0095e+000 -8.2099e+000  3.5556e+000 39626 95440,95570,95466
 1.1000e+000 95619 -4.3487e+000 -9.2476e+000  4.3028e+000 39626 95466,95544,95492
 1.1000e+000 95596 -1.1113e+001 -1.0174e+001  3.5643e+000 39626 95492,95544,95518
 1.1000e+000 95913 -2.5266e+000 -9.5065e+000 -1.2952e+000 39136 96080,95936,95766
 1.1000e+000 95890 -3.3232e+000 -1.0042e+001 -4.7732e-001 39136 95936,95714,95688
 1.1000e+000 95867 -4.9576e+000 -9.8940e+000  2.3380e-001 39136 96008,95792,95766
 1.1000e+000 95844 -1.6064e+000 -9.1999e+000 -7.7524e-001 39136 96080,95766,95740
 1.1000e+000 95962 -3.7205e+000 -1.0497e+001 -8.6997e-001 39136 96008,95766,95936
 1.1000e+000 95985 -2.1087e+000 -1.1048e+001 -5.0070e-001 39136 95818,95936,95688
 1.1000e+000 96034 -1.7589e+000 -8.4694e+000  7.0856e-001 39136 95818,95792,96008
 1.1000e+000 96057 -1.4684e+000 -9.3448e+000 -4.1113e-001 39136 95818,96008,95936
 1.1000e+000 96106 -1.9844e+000 -9.1745e+000 -1.0415e-001 39136 95714,95936,96080
 1.1000e+000 96129 -5.9135e-001 -8.8690e+000  3.3106e-001 39136 95714,96080,95740
 1.1000e+000 96350 -8.0248e+000 -1.7246e+001 -2.3786e-001 38824 96200,96278,96252
 1.1000e+000 96327 -8.2673e+000 -1.6891e+001  2.1017e-001 38824 96174,96278,96200
 1.1000e+000 96304 -7.6476e+000 -1.8905e+001 -2.3693e-001 38824 96200,96252,96226
 1.1000e+000 96830 -1.1490e+001 -1.7822e+001 -1.3126e+000 38320 97069,96536,96484
 1.1000e+000 96807 -1.1124e+001 -1.8189e+001 -1.3142e+000 38320 97069,96484,96853
 1.1000e+000 96784 -1.1066e+001 -1.8959e+001  1.1555e-001 38320 96853,96484,96458
 1.1000e+000 96761 -1.0143e+001 -1.6489e+001 -2.5788e-001 38320 96925,96640,96614
 1.1000e+000 96738 -1.0108e+001 -1.5669e+001 -3.9212e-001 38320 96997,96666,96640
 1.1000e+000 96715 -9.7901e+000 -1.9152e+001 -7.7472e-001 38320 97141,96588,96562
 1.1000e+000 96692 -1.2655e+001 -1.8564e+001 -7.8659e-001 38320 96484,96536,96510
 1.1000e+000 96879 -1.0377e+001 -1.8333e+001 -8.3903e-001 38320 97141,96562,96853
 1.1000e+000 96902 -9.9325e+000 -1.7695e+001 -4.8872e-002 38320 96925,96614,96853
 1.1000e+000 96951 -1.0399e+001 -1.6245e+001  1.9588e-001 38320 96997,96640,96925
 1.1000e+000 96974 -1.0014e+001 -1.6338e+001 -8.6288e-002 38320 96458,96925,96853
 1.1000e+000 97023 -8.6787e+000 -1.4666e+001 -1.0976e+000 38320 96458,96666,96997
 1.1000e+000 97046 -9.6002e+000 -1.5479e+001 -4.3174e-001 38320 96458,96997,96925
 1.1000e+000 97095 -1.2323e+001 -1.6818e+001  1.0164e+000 38320 96562,96536,97069
 1.1000e+000 97118 -1.0149e+001 -1.7761e+001 -9.0444e-001 38320 96562,97069,96853
 1.1000e+000 97167 -8.9524e+000 -1.8300e+001 -1.1281e+000 38320 96614,96588,97141
 1.1000e+000 97190 -9.8687e+000 -1.7704e+001 -1.0651e+000 38320 96614,97141,96853
 1.1000e+000 97519 -8.4813e+000 -1.6463e+001  2.4337e+000 37766 97542,97398,97372
 1.1000e+000 97496 -9.2758e+000 -1.6155e+001  1.8330e+000 37766 97542,97372,97346
 1.1000e+000 97473 -8.4385e+000 -2.2027e+001 -8.7377e-001 37766 97294,97424,97346
 1.1000e+000 97450 -9.3080e+000 -2.3222e+001 -1.5477e-001 37766 97294,97346,97320
 1.1000e+000 97568 -7.2922e+000 -1.6005e+001  2.4269e+000 37766 97424,97398,97542
 1.1000e+000 97591 -8.4388e+000 -1.5817e+001  1.8165e+000 37766 97424,97542,97346
 1.1000e+000 98048 -4.5112e+000 -1.2065e+001 -3.0941e+000 37262 98071,97878,97852
 1.1000e+000 98025 -3.3416e+000 -1.4870e+001 -6.8666e-001 37262 98071,97852,97800
 1.1000e+000 98002 -3.2225e+000 -1.6325e+001 -1.2063e+000 37262 97800,97852,97826
 1.1000e+000 97979  2.5342e+000 -1.4029e+001  8.2255e-001 37262 97800,97930,97904
 1.1000e+000 97956 -4.5007e-001 -1.6984e+001 -4.2722e-001 37262 97774,97930,97800
 1.1000e+000 98097 -7.6494e+000 -1.3712e+001 -1.4982e+000 37262 97904,97878,98071
 1.1000e+000 98120 -5.1632e+000 -1.7314e+001  5.3620e-001 37262 97904,98071,97800
 1.1000e+000 98449 -5.4307e-001 -7.6805e+000 -5.1474e-001 36950 98472,98302,98250
 1.1000e+000 98426  2.2046e-001 -7.6552e+000 -5.8743e-001 36950 98472,98250,98354
 1.1000e+000 98403 -2.4448e+000 -1.1113e+001  3.7568e-001 36950 98250,98302,98276
 1.1000e+000 98380  3.0919e+000 -6.2576e+000 -1.5505e-001 36950 98224,98354,98250
 1.1000e+000 98498  7.2433e-003 -7.9682e+000 -1.2129e-001 36950 98328,98302,98472
 1.1000e+000 98521  8.1305e-001 -7.9401e+000 -3.1622e-001 36950 98328,98472,98354
 1.1000e+000 99125 -9.1118e+000 -9.2216e+000  1.4219e+000 36296 98704,98756,98730
 1.1000e+000 99102 -5.3584e+000 -9.2138e+000  1.2633e-002 36296 98704,98938,98756
 1.1000e+000 99079 -1.2085e+000 -9.2693e+000  4.2524e-001 36296 99148,98938,98912
 1.1000e+000 99056  1.2009e+000 -8.5190e+000  2.7605e+000 36296 99292,99220,98782
 1.1000e+000 99033 -1.5599e+000 -9.0443e+000  2.0752e-001 36296 99148,98912,98834
 1.1000e+000 99010  8.9602e-001 -6.6858e+000  3.7308e+000 36296 99292,98782,98756
 1.1000e+000 98987 -2.2310e+000 -1.3648e+001 -1.0224e+000 36296 98834,98912,98886
 1.1000e+000 98964  3.9918e+000 -1.4265e+001  2.1731e+000 36296 98834,98886,98860
 1.1000e+000 99174 -1.1607e+000 -1.0137e+001  4.9891e-001 36296 99220,98938,99148
 1.1000e+000 99197 -6.5007e-001 -1.0680e+001  1.0288e+000 36296 98808,99148,98834
 1.1000e+000 99246  1.1911e+000 -8.5516e+000  1.3308e+000 36296 98808,98782,99220
 1.1000e+000 99269  1.3181e+000 -7.0683e+000  1.9275e+000 36296 98808,99220,99148
 1.1000e+000 99318 -1.1198e+000 -7.3381e+000  1.6457e+000 36296 98938,99220,99292
 1.1000e+000 99341 -1.2906e+000 -7.5373e+000  2.3782e+000 36296 98938,99292,98756
 1.1000e+000 99719 -3.7747e-001 -8.3126e+000 -5.0568e-001 35742 99742,99471,99601
 1.1000e+000 99696 -6.9698e-001 -7.8840e+000 -3.0969e-001 35742 99445,99601,99471
 1.1000e+000 99673 -1.7403e-001 -7.8076e+000  6.9984e-001 35742 99742,99601,99575
 1.1000e+000 99650 -9.1104e-001 -1.1880e+001  4.5882e-001 35742 99814,99549,99523
 1.1000e+000 99627 -1.1988e+000 -8.5562e+000  3.1173e-001 35742 99471,99523,99497
 1.1000e+000 99768 -5.9173e-001 -8.8275e+000  9.6014e-002 35742 99523,99471,99742
 1.1000e+000 99791 -1.0874e+000 -1.0750e+001  6.2583e-001 35742 99814,99523,99742
 1.1000e+000 99840 -1.7478e+000 -1.0179e+001  3.6384e-002 35742 99575,99549,99814
 1.1000e+000 99863 -1.5295e+000 -8.5523e+000  3.2183e-001 35742 99575,99814,99742
 1.1000e+000 100111 -3.2900e+000 -1.0146e+001  1.2949e+000 35302 100134,99990,99938
 1.1000e+000 100088 -2.4821e+000 -8.5769e+000  1.0094e+000 35302 100134,99938,99912
 1.1000e+000 100065 -2.4298e+000 -9.0077e+000  1.7656e-001 35302 100206,99886,100016
 1.1000e+000 100042 -3.5578e+000 -1.3538e+001  7.6217e-001 35302 99938,99990,99964
 1.1000e+000 100160 -2.6491e+000 -9.9614e+000  2.5164e-001 35302 100016,99990,100134
 1.1000e+000 100183 -2.3564e+000 -9.1151e+000  1.6892e-001 35302 100206,100016,100134
 1.1000e+000 100232 -2.5174e+000 -9.1305e+000  2.5735e-001 35302 99912,99886,100206
 1.1000e+000 100255 -2.4546e+000 -9.2670e+000  2.4401e-001 35302 99912,100206,100134
 1.1000e+000 100586 -6.4064e+000 -1.4082e+001  2.4771e+000 35012 100609,100387,100361
 1.1000e+000 100563 -7.2143e+000 -1.4130e+001  1.2750e+000 35012 100609,100361,100465
 1.1000e+000 100540 -9.4253e+000 -1.5587e+001  2.2781e+000 35012 100361,100491,100465
 1.1000e+000 100517 -2.6369e+000 -1.5389e+001  8.6273e-001 35012 100413,100465,100439
 1.1000e+000 100635 -4.9000e+000 -1.3461e+001  2.9852e+000 35012 100413,100387,100609
 1.1000e+000 100658 -5.8706e+000 -1.3793e+001  1.7033e+000 35012 100413,100609,100465
 1.1000e+000 100987 -4.4010e+000 -1.1922e+001  5.1163e-001 34700 100788,100866,100814
 1.1000e+000 100964 -3.7712e+000 -1.0068e+001  1.0432e+000 34700 101010,100866,100788
 1.1000e+000 100941 -4.4126e+000 -1.1666e+001  2.4362e+000 34700 100762,100892,100866
 1.1000e+000 100918 -6.2147e+000 -1.5730e+001 -7.9474e-001 34700 100814,100866,100840
 1.1000e+000 101036 -3.5471e+000 -9.8505e+000  1.2990e+000 34700 100762,100866,101010
 1.1000e+000 101493 -5.0399e+000 -9.6702e+000 -2.4173e-001 34132 101516,101349,101297
 1.1000e+000 101470 -6.5133e+000 -1.2064e+001 -9.4853e-001 34132 101588,101516,101297
 1.1000e+000 101447 -6.5452e+000 -1.3073e+001 -2.0387e+000 34132 101588,101297,101245
 1.1000e+000 101424 -3.1407e+000 -1.5405e+001 -2.0265e+000 34132 101245,101297,101271
 1.1000e+000 101401 -5.2470e+000 -9.3237e+000 -7.7565e-001 34132 101297,101349,101323
 1.1000e+000 101542 -5.6607e+000 -1.1384e+001  9.4571e-002 34132 101375,101349,101516
 1.1000e+000 101565 -4.4719e+000 -1.0696e+001  3.7728e-001 34132 101375,101516,101219
 1.1000e+000 101614 -4.4607e+000 -1.2142e+001  1.1811e-001 34132 101219,101516,101588
 1.1000e+000 101637 -5.5234e+000 -1.3154e+001 -9.2102e-001 34132 101219,101588,101245
 1.1000e+000 101858 -6.0142e+000 -2.1096e+001  7.7020e-001 33720 101708,101786,101760
 1.1000e+000 101835 -7.3572e+000 -2.1257e+001  2.4954e-002 33720 101682,101786,101708
 1.1000e+000 101812 -9.4222e+000 -2.2522e+001  6.9831e-001 33720 101708,101760,101734
 1.1000e+000 102128  2.7696e-001 -8.4973e+000 -4.6177e-001 33130 101903,102007,101929
 1.1000e+000 102105 -2.9532e-001 -1.0083e+001  2.0313e-001 33130 101903,102033,102007
 1.1000e+000 102082 -1.1345e+000 -9.6243e+000 -1.0965e+000 33130 101929,102007,101955
 1.1000e+000 102059 -7.3720e-001 -7.8032e+000  5.0708e-002 33130 101955,102007,101981
 1.1000e+000 102461 -1.1408e+001 -2.2161e+001 -1.3223e+000 32840 102236,102340,102262
 1.1000e+000 102438 -1.0521e+001 -1.7022e+001  9.8866e-001 32840 102236,102366,102340
 1.1000e+000 102415 -7.8984e+000 -2.0878e+001 -1.4167e+000 32840 102262,102340,102288
 1.1000e+000 102392 -1.2458e+001 -2.2208e+001 -3.0002e+000 32840 102288,102340,102314
 1.1000e+000 102997 -1.7252e+000 -4.9393e+000  2.8561e+000 32493 102749,102879,102853
 1.1000e+000 102974 -2.3533e+000 -8.2436e+000 -3.5571e-001 32493 102723,102879,102749
 1.1000e+000 102951 -4.0685e+000 -7.6244e+000  8.4761e-001 32493 102749,102801,102775
 1.1000e+000 102928 -4.3317e+000 -8.3659e+000  1.2248e+000 32493 102749,102853,102801
 1.1000e+000 102905 -3.9381e+000 -7.2656e+000  1.3486e+000 32493 102801,102853,102827
 1.1000e+000 103454 -9.6819e+000 -1.7328e+001 -2.4657e-001 32089 103206,103336,103310
 1.1000e+000 103431 -9.6620e+000 -1.6947e+001 -2.9329e-001 32089 103180,103336,103206
 1.1000e+000 103408 -1.2625e+001 -2.2698e+001 -9.6858e-001 32089 103206,103284,103258
 1.1000e+000 103385 -1.3807e+001 -2.0766e+001 -3.0254e+000 32089 103206,103310,103284
 1.1000e+000 103362 -1.0328e+001 -1.6946e+001 -6.2747e-002 32089 103206,103258,103232
 1.1000e+000 103783 -1.2684e+001 -2.1244e+001  1.9024e+000 31742 103558,103662,103584
 1.1000e+000 103760 -1.2355e+001 -2.1124e+001  1.0461e+000 31742 103558,103688,103662
 1.1000e+000 103737 -8.7706e+000 -1.7504e+001 -8.6700e-002 31742 103584,103662,103636
 1.1000e+000 103714 -1.0821e+001 -1.8593e+001  9.2817e-001 31742 103584,103636,103610
 1.1000e+000 104112 -5.0053e+000 -1.9780e+001  1.0267e+000 31402 103939,103991,103965
 1.1000e+000 104089 -1.7090e+000 -1.4807e+001  2.4525e+000 31402 103913,103991,103939
 1.1000e+000 104066 -8.1682e+000 -1.9961e+001 -9.6247e-002 31402 103913,104017,103991
 1.1000e+000 104043 -7.4166e+000 -1.3878e+001 -3.3266e-001 31402 103887,104017,103913
 1.1000e+000 104569 -9.5189e+000 -1.7014e+001 -2.3222e-001 30998 104321,104425,104373
 1.1000e+000 104546 -6.4007e+000 -1.6021e+001  1.4286e-001 30998 104321,104451,104425
 1.1000e+000 104523 -6.9159e+000 -1.5630e+001  3.0365e-001 30998 104373,104425,104399
 1.1000e+000 104500 -4.2158e+000 -2.1005e+001 -2.2441e+000 30998 104295,104451,104321
 1.1000e+000 104477 -1.2483e+001 -2.0832e+001  2.0529e+000 30998 104321,104373,104347
 1.1000e+000 104947 -5.4731e+000 -1.1936e+001 -4.1169e-001 30608 104751,104803,104777
 1.1000e+000 104924 -3.8152e+000 -1.2304e+001  1.9438e-001 30608 104725,104803,104751
 1.1000e+000 104901 -5.5993e+000 -1.3249e+001 -1.5653e-001 30608 104699,104803,104725
 1.1000e+000 104878 -3.2322e+000 -1.2778e+001  4.4956e-001 30608 104673,104803,104699
 1.1000e+000 104855 -4.1626e+000 -1.6317e+001  2.6542e-001 30608 104673,104829,104803
 1.1000e+000 105276 -9.1233e+000 -1.5172e+001  1.7948e-001 30204 105427,105129,105077
 1.1000e+000 105253 -8.0204e+000 -1.6913e+001  1.9175e+000 30204 105427,105077,105051
 1.1000e+000 105230 -7.5576e+000 -1.4958e+001  1.6031e-001 30204 105077,105129,105103
 1.1000e+000 105207 -1.1458e+001 -1.3550e+001  1.0882e+000 30204 105299,105181,105155
 1.1000e+000 105325 -9.6426e+000 -1.2724e+001  8.7557e-001 30204 105129,105181,105299
 1.1000e+000 105453 -9.8334e+000 -1.5923e+001  1.7162e+000 30204 105181,105129,105427
 1.1000e+000 105476 -1.1044e+001 -1.8741e+001  3.7749e+000 30204 105181,105427,105051
 1.1000e+000 105903 -1.9714e-001 -6.3887e+000 -2.3335e-001 29700 105606,105762,105736
 1.1000e+000 105880  1.3402e-001 -6.5999e+000 -1.3834e+000 29700 105580,105762,105606
 1.1000e+000 105857 -2.6114e+000 -9.3135e+000 -5.6810e-001 29700 105606,105710,105632
 1.1000e+000 105834 -1.0913e+000 -6.9176e+000  1.0389e-001 29700 105606,105736,105710
 1.1000e+000 105811 -4.2816e+000 -9.8187e+000  3.2452e-001 29700 105632,105710,105684
 1.1000e+000 105788 -3.6115e+000 -8.2682e+000  2.6440e-002 29700 105632,105684,105658
 1.1000e+000 106102 -4.3858e+000 -1.2904e+001  3.9053e-003 29124 105978,106030,106004
 1.1000e+000 106079 -6.0049e+000 -1.5329e+001 -1.0036e+000 29124 105926,106030,105978
 1.1000e+000 106056 -5.3867e+000 -1.3852e+001 -1.0055e+000 29124 105926,105978,105952
 1.1000e+000 106301 -1.2083e+000 -8.3388e+000  9.7646e-002 28712 106151,106229,106203
 1.1000e+000 106278 -1.6752e+000 -8.7034e+000 -6.6381e-002 28712 106125,106229,106151
 1.1000e+000 106255 -9.6338e-001 -8.2469e+000  8.9192e-002 28712 106151,106203,106177
 1.1000e+000 106551 -7.2929e+000 -1.4188e+001 -1.2641e+000 28258 106352,106404,106378
 1.1000e+000 106528 -7.7529e+000 -1.5384e+001  8.3948e-002 28258 106352,106456,106404
 1.1000e+000 106505 -9.3970e+000 -1.5205e+001  1.0883e-001 28258 106326,106456,106352
 1.1000e+000 106482 -7.7229e+000 -1.5651e+001 -1.3723e-001 28258 106404,106456,106430
 1.1000e+000 107012 -4.9125e+000 -1.1995e+001  2.7010e+000 27818 107035,106790,106764
 1.1000e+000 106989 -3.7761e+000 -1.0062e+001  1.3480e+000 27818 107035,106764,106868
 1.1000e+000 106966 -3.1046e+000 -1.1936e+001  1.1117e+000 27818 107107,106842,106816
 1.1000e+000 106943 -5.4330e+000 -9.4616e+000  1.0412e+000 27818 106738,106868,106764
 1.1000e+000 106920 -6.0905e+000 -9.7526e+000  3.1347e+000 27818 106738,106894,106868
 1.1000e+000 107061 -2.6584e+000 -1.0763e+001  2.2219e+000 27818 106816,106790,107035
 1.1000e+000 107084 -3.7205e+000 -1.1284e+001  1.1489e+000 27818 107107,106816,107035
 1.1000e+000 107133 -2.6997e+000 -1.1028e+001  6.8271e-001 27818 106868,106842,107107
 1.1000e+000 107156 -3.2259e+000 -1.0140e+001  8.0274e-001 27818 106868,107107,107035
 1.1000e+000 107613 -1.5780e+000 -8.8408e+000  1.3198e+000 27312 107339,107469,107365
 1.1000e+000 107590 -1.3742e-002 -1.0844e+001  2.5166e+000 27312 107339,107495,107469
 1.1000e+000 107567 -4.9256e-001 -8.7597e+000  1.2661e+000 27312 107391,107469,107443
 1.1000e+000 107544 -1.4561e+000 -8.8704e+000  1.0683e+000 27312 107365,107469,107391
 1.1000e+000 107521 -1.2322e+000 -9.3005e+000  1.8089e+000 27312 107391,107443,107417
 1.1000e+000 107991 -8.6877e+000 -2.1118e+001 -2.1130e-002 26858 108086,108014,107795
 1.1000e+000 107968 -7.4639e+000 -1.9468e+001  9.5404e-001 26858 108014,107717,107873
 1.1000e+000 107945 -9.1464e+000 -2.3278e+001 -2.5934e-001 26858 108158,108086,107795
 1.1000e+000 107922 -9.1176e+000 -2.5833e+001  6.9790e-001 26858 108158,107795,107769
 1.1000e+000 107899 -8.2675e+000 -2.1350e+001  3.1303e+000 26858 107821,107873,107847
 1.1000e+000 108040 -7.6666e+000 -1.9543e+001  4.5030e-001 26858 107821,107795,108014
 1.1000e+000 108063 -8.0964e+000 -2.0524e+001  6.6611e-001 26858 107821,108014,107873
 1.1000e+000 108112 -7.6115e+000 -2.0492e+001  6.5627e-001 26858 107717,108014,108086
 1.1000e+000 108135 -8.7862e+000 -1.9497e+001 -4.1638e-001 26858 107717,108086,107743
 1.1000e+000 108184 -9.5906e+000 -2.0094e+001 -1.4950e-002 26858 107743,108086,108158
 1.1000e+000 108207 -8.9564e+000 -2.2202e+001  3.3127e-001 26858 107743,108158,107769
 1.1000e+000 108634 -8.1756e+000 -1.5977e+001 -8.3686e-001 26404 108657,108415,108363
 1.1000e+000 108611 -9.0469e+000 -1.7090e+001  5.7992e-001 26404 108657,108363,108337
 1.1000e+000 108588 -1.0221e+001 -1.7772e+001  8.6980e-001 26404 108729,108311,108467
 1.1000e+000 108565 -7.5672e+000 -1.7633e+001 -3.5886e-001 26404 108801,108441,108415
 1.1000e+000 108542 -9.7643e+000 -1.8598e+001  4.1483e+000 26404 108311,108493,108467
 1.1000e+000 108519 -8.0706e+000 -1.5064e+001 -4.4142e-001 26404 108363,108415,108389
 1.1000e+000 108683 -8.7428e+000 -1.6842e+001 -1.4626e-001 26404 108801,108415,108657
 1.1000e+000 108706 -9.9848e+000 -1.7508e+001  9.7583e-001 26404 108729,108467,108657
 1.1000e+000 108755 -1.0465e+001 -1.7491e+001  8.3929e-001 26404 108337,108311,108729
 1.1000e+000 108778 -1.0325e+001 -1.7284e+001  9.0138e-001 26404 108337,108729,108657
 1.1000e+000 108827 -9.0869e+000 -1.8457e+001 -8.3254e-001 26404 108467,108441,108801
 1.1000e+000 108850 -1.0217e+001 -1.7507e+001 -4.2854e-001 26404 108467,108801,108657
 1.1000e+000 109228 -2.6818e+000 -1.1243e+001  1.2541e-002 26064 109006,109084,109058
 1.1000e+000 109205 -3.0887e+000 -1.1001e+001  5.7437e-001 26064 108980,109084,109006
 1.1000e+000 109182 -2.5227e+000 -9.8878e+000 -3.2709e-001 26064 108980,109110,109084
 1.1000e+000 109159 -2.8421e+000 -1.2764e+001  1.0772e+000 26064 109006,109058,109032
 1.1000e+000 109136 -4.2014e-001 -6.8415e+000  7.9700e-001 26064 108954,109110,108980
 1.1000e+000 109427 -4.5283e+000 -1.2770e+001 -2.2388e+000 25660 109303,109355,109329
 1.1000e+000 109404 -5.4845e+000 -1.4500e+001 -4.0171e-001 25660 109277,109355,109303
 1.1000e+000 109381 -5.7777e+000 -1.5410e+001 -7.7711e-001 25660 109251,109355,109277
 1.1000e+000 109577 -4.4601e+000 -1.2063e+001  4.5393e+000 25306 109476,109528,109502
 1.1000e+000 109554 -2.7587e+000 -1.4000e+001  7.3194e-001 25306 109450,109528,109476
 1.1000e+000 109778 -7.4897e-001 -9.4099e+000  5.8094e-001 24944 109628,109706,109654
 1.1000e+000 109755 -1.3028e+000 -1.0198e+001  3.2659e-001 24944 109602,109706,109628
 1.1000e+000 109732  1.7411e-001 -8.6565e+000 -6.5835e-001 24944 109654,109706,109680
 1.1000e+000 110126 -9.6977e+000 -2.2954e+001  8.2105e-001 24440 110149,109907,109855
 1.1000e+000 110103 -9.7076e+000 -2.3512e+001  1.1293e+000 24440 110149,109855,109985
 1.1000e+000 110080 -8.3526e+000 -2.1621e+001  1.9498e-002 24440 109855,109907,109881
 1.1000e+000 110057 -8.6008e+000 -2.0072e+001  4.1321e+000 24440 109829,109985,109855
 1.1000e+000 110034 -1.0243e+001 -2.4356e+001 -1.7726e-001 24440 109907,109959,109933
 1.1000e+000 110011 -1.1174e+001 -2.1824e+001  1.2915e+000 24440 109803,109985,109829
 1.1000e+000 110175 -9.6313e+000 -2.2370e+001  6.2420e-001 24440 109959,109907,110149
 1.1000e+000 110198 -9.7173e+000 -2.2898e+001  9.9673e-001 24440 109959,110149,109985
 1.1000e+000 110301 -4.8121e+000 -2.4232e+001 -2.4860e+000 24028 110223,110275,110249
 1.1000e+000 110573 -1.1234e+000 -1.1968e+001 -4.4654e-002 23467 110400,110452,110426
 1.1000e+000 110550  3.5122e-001 -9.8449e+000  6.6860e-001 23467 110374,110452,110400
 1.1000e+000 110527 -2.4751e+000 -1.1052e+001  8.2989e-001 23467 110348,110452,110374
 1.1000e+000 110504 -1.0308e+000 -9.4026e+000  2.0855e-001 23467 110348,110478,110452
 1.1000e+000 111004 -8.7373e+000 -1.6107e+001 -4.7224e-001 22963 111027,110733,110707
 1.1000e+000 110981 -6.8346e+000 -1.4810e+001  1.0760e+000 22963 111027,110707,110681
 1.1000e+000 110958 -2.9668e+000 -1.3070e+001  2.2847e-001 22963 111099,110759,110733
 1.1000e+000 110935 -4.7280e+000 -1.4180e+001 -4.9062e-001 22963 111171,110863,110811
 1.1000e+000 110912 -6.9028e-001 -1.2216e+001 -3.4482e-001 22963 110759,110811,110785
 1.1000e+000 110889 -5.7737e+000 -1.5573e+001  1.6994e-001 22963 110811,110863,110837
 1.1000e+000 111053 -5.1770e+000 -1.4003e+001  4.0901e-001 22963 111099,110733,111027
 1.1000e+000 111076 -4.6813e+000 -1.4499e+001 -4.2754e-001 22963 111171,110811,111027
 1.1000e+000 111125 -3.0886e+000 -1.3244e+001 -1.1885e+000 22963 110811,110759,111099
 1.1000e+000 111148 -3.6864e+000 -1.3501e+001 -1.2289e+000 22963 110811,111099,111027
 1.1000e+000 111197 -4.8027e+000 -1.3593e+001 -6.1833e-001 22963 110681,110863,111171
 1.1000e+000 111220 -4.9880e+000 -1.4041e+001 -3.9221e-001 22963 110681,111171,111027
 1.1000e+000 111726 -5.8265e+000 -1.3468e+001  2.1328e-001 22459 111749,111507,111429
 1.1000e+000 111703 -4.6030e+000 -1.2984e+001 -1.5599e-001 22459 111749,111429,111585
 1.1000e+000 111680 -1.0435e+000 -1.3906e+001  7.9853e-001 22459 111403,111585,111429
 1.1000e+000 111657 -5.2657e+000 -1.5852e+001  3.2217e-001 22459 111507,111559,111533
 1.1000e+000 111634 -7.3956e+000 -1.4428e+001 -8.0297e-001 22459 111455,111507,111481
 1.1000e+000 111611 -8.1205e+000 -1.3795e+001  1.0418e+000 22459 111429,111507,111455
 1.1000e+000 111775 -5.4635e+000 -1.4086e+001  1.1644e+000 22459 111559,111507,111749
 1.1000e+000 111798 -4.4626e+000 -1.3414e+001  7.5837e-001 22459 111559,111749,111585
 1.1000e+000 112046 -1.0554e+000 -1.1057e+001 -7.9860e-002 21898 112069,111925,111873
 1.1000e+000 112023 -8.2360e-001 -1.0737e+001  5.9091e-001 21898 112069,111873,111847
 1.1000e+000 112000 -1.3353e+000 -1.1510e+001 -1.3762e-001 21898 111821,111951,111847
 1.1000e+000 111977 -2.6650e+000 -9.7734e+000 -5.1318e-003 21898 111873,111925,111899
 1.1000e+000 112095 -2.0342e+000 -1.1300e+001 -5.4606e-001 21898 111951,111925,112069
 1.1000e+000 112118 -1.4369e+000 -1.0885e+001  1.1165e-001 21898 111951,112069,111847
 1.1000e+000 112498 -6.9895e+000 -1.3960e+001 -2.5031e-001 21608 112521,112276,112224
 1.1000e+000 112475 -6.5122e+000 -1.4622e+001  7.9192e-001 21608 112521,112224,112380
 1.1000e+000 112452 -7.2619e+000 -1.5552e+001  3.5749e-002 21608 112302,112380,112354
 1.1000e+000 112429 -9.6583e+000 -1.4805e+001  9.7822e-001 21608 112224,112276,112250
 1.1000e+000 112406 -2.1020e+000 -1.4745e+001 -1.6522e-001 21608 112302,112354,112328
 1.1000e+000 112547 -6.5225e+000 -1.1654e+001 -4.3222e-001 21608 112302,112276,112521
 1.1000e+000 112570 -6.7330e+000 -1.3494e+001  4.7993e-001 21608 112302,112521,112380
 1.1000e+000 112948 -1.1341e+001 -1.8628e+001 -6.8267e-001 20882 112971,112752,112700
 1.1000e+000 112925 -7.9969e+000 -1.7859e+001 -2.3128e+000 20882 112971,112700,112830
 1.1000e+000 112902 -1.2464e+001 -1.9990e+001 -9.9086e-002 20882 112778,112830,112804
 1.1000e+000 112879 -7.2355e+000 -1.4814e+001 -2.3339e+000 20882 112674,112830,112700
 1.1000e+000 112856 -1.1007e+001 -1.8725e+001 -7.7578e-001 20882 112700,112752,112726
 1.1000e+000 112997 -1.1761e+001 -1.9387e+001  1.0887e+000 20882 112778,112752,112971
 1.1000e+000 113020 -9.7623e+000 -1.9107e+001 -5.6396e-001 20882 112778,112971,112830
 1.1000e+000 113526 -8.2841e+000 -2.1009e+001 -8.7076e-001 20428 113255,113385,113333
 1.1000e+000 113503 -8.2830e+000 -1.9689e+001 -1.2707e+000 20428 113229,113385,113255
 1.1000e+000 113480 -2.9208e+000 -1.8172e+001  3.4191e-001 20428 113255,113333,113281
 1.1000e+000 113457 -7.8843e+000 -1.6655e+001  3.1191e-001 20428 113203,113385,113229
 1.1000e+000 113434 -8.0168e+000 -2.0223e+001 -1.3655e+000 20428 113281,113333,113307
 1.1000e+000 113411 -9.7803e+000 -1.9511e+001 -6.5997e-001 20428 113333,113385,113359
 1.1000e+000 113774 -2.4532e+000 -1.2232e+001  5.1676e-001 19917 113797,113601,113549
 1.1000e+000 113751 -3.1592e+000 -1.2331e+001  5.9077e-001 19917 113869,113797,113549
 1.1000e+000 113728 -3.0057e+000 -1.2396e+001  9.9015e-001 19917 113869,113549,113679
 1.1000e+000 113705 -2.1308e+000 -1.2187e+001  1.3978e-001 19917 113549,113601,113575
 1.1000e+000 113823 -3.1324e+000 -1.2708e+001  1.8980e-001 19917 113627,113601,113797
 1.1000e+000 113846 -3.2630e+000 -1.1925e+001  5.1796e-001 19917 113627,113797,113653
 1.1000e+000 113895 -2.8378e+000 -1.1617e+001  6.5792e-001 19917 113653,113797,113869
 1.1000e+000 113918 -2.6421e+000 -1.1646e+001  1.1268e+000 19917 113653,113869,113679
 1.1000e+000 114166 -1.0602e+001 -1.6952e+001 -4.7885e-001 19413 113993,114045,114019
 1.1000e+000 114143 -6.2685e+000 -1.5825e+001  3.1501e-001 19413 113967,114045,113993
 1.1000e+000 114120 -9.1948e+000 -1.7047e+001  8.2765e-002 19413 113967,114071,114045
 1.1000e+000 114097 -2.2540e+000 -1.8517e+001 -1.1804e+000 19413 113941,114071,113967
 1.1000e+000 114438 -2.1238e+000 -1.1633e+001 -2.3859e-001 19001 114213,114265,114239
 1.1000e+000 114415 -1.6275e+000 -1.0046e+001 -2.2321e-001 19001 114213,114343,114265
 1.1000e+000 114392 -2.6378e+000 -1.2212e+001 -5.5062e-001 19001 114265,114343,114317
 1.1000e+000 114369 -1.0963e+000 -1.1216e+001  1.2325e-001 19001 114265,114317,114291
 1.1000e+000 114639 -1.9929e+000 -1.1066e+001 -2.6485e-001 18554 114489,114541,114515
 1.1000e+000 114616 -4.8487e-001 -1.1079e+001 -4.6207e-001 18554 114489,114567,114541
 1.1000e+000 114593  1.5490e+000 -1.0093e+001  1.4506e-001 18554 114463,114567,114489
 1.1000e+000 115043 -6.1969e+000 -1.5381e+001  5.7987e-001 18164 114795,114925,114821
 1.1000e+000 115020 -4.2700e+000 -1.5867e+001  1.8116e+000 18164 114769,114925,114795
 1.1000e+000 114997 -5.5086e+000 -1.5773e+001  1.2065e-001 18164 115066,114873,114821
 1.1000e+000 114974 -5.2255e+000 -1.4242e+001  7.5185e-003 18164 115066,114821,114925
 1.1000e+000 114951 -3.4654e+000 -1.5258e+001 -1.8623e-001 18164 114821,114873,114847
 1.1000e+000 115092 -6.2251e+000 -1.4665e+001 -7.1260e-001 18164 114899,114873,115066
 1.1000e+000 115115 -5.4019e+000 -1.2338e+001 -8.6756e-001 18164 114899,115066,114925
 1.1000e+000 115265 -1.0802e+001 -2.5330e+001 -5.7074e-001 17852 115164,115216,115190
 1.1000e+000 115242 -9.3750e+000 -2.2391e+001  8.6135e-002 17852 115138,115216,115164
 1.1000e+000 115464 -4.2159e+000 -1.5418e+001  1.6395e+000 17346 115288,115366,115340
 1.1000e+000 115441 -7.7440e+000 -1.2630e+001  1.1107e+000 17346 115288,115392,115366
 1.1000e+000 115418 -5.6716e+000 -2.1448e+001 -8.2070e-001 17346 115288,115340,115314
 1.1000e+000 115736 -9.0258e+000 -2.1607e+001 -7.0328e-001 16942 115563,115641,115615
 1.1000e+000 115713 -7.9195e+000 -1.7834e+001 -7.1027e-001 16942 115511,115641,115563
 1.1000e+000 115690 -1.7227e+001 -2.3767e+001  2.0588e+000 16942 115563,115615,115589
 1.1000e+000 115667 -9.8728e+000 -2.2222e+001 -1.6573e-002 16942 115511,115563,115537
 1.1000e+000 116091 -4.9488e+000 -1.2997e+001 -2.9345e-001 16388 115918,115970,115944
 1.1000e+000 116068 -4.5637e+000 -1.1216e+001 -2.8161e-001 16388 115918,115996,115970
 1.1000e+000 116045 -5.8606e+000 -1.2900e+001  2.8278e-001 16388 115892,115996,115918
 1.1000e+000 116022 -6.1943e+000 -1.4186e+001  1.6582e-001 16388 115866,115996,115892
 1.1000e+000 116192 -1.7924e+000 -2.4583e+001 -4.0749e+000 15810 116114,116166,116140
 1.1000e+000 116342 -8.9070e-001 -1.1610e+001  6.1993e-001 15419 116241,116293,116267
 1.1000e+000 116319 -1.3809e+000 -1.3565e+001 -1.1980e-001 15419 116215,116293,116241
 1.1000e+000 116445 -1.0190e+001 -1.6032e+001 -1.4348e+000 421 116367,116419,116393
 1.2000e+000 68477 -1.6172e+001 -2.8533e+001  1.2142e+000 68018 68327,68379,68353
 1.2000e+000 68454 -1.7857e+001 -4.0877e+001  4.7700e+000 68018 68301,68379,68327
 1.2000e+000 68431 -1.0210e+001 -5.1723e+001  7.4907e+000 68018 68301,68405,68379
 1.2000e+000 68578 -3.7491e+000 -3.2739e+001  5.5942e-001 67820 68500,68552,68526
 1.2000e+000 68728 -1.0112e+001 -3.2688e+001 -9.8059e-002 67508 68601,68653,68627
 1.2000e+000 68705 -2.4265e+001 -2.2577e+001 -6.2185e+000 67508 68601,68679,68653
 1.2000e+000 68927  7.2752e+000 -1.5070e+001 -2.1125e+000 67310 68777,68829,68803
 1.2000e+000 68904 -3.0004e-001 -1.9066e+001  7.8877e-001 67310 68751,68829,68777
 1.2000e+000 68881 -2.3477e+000 -2.1387e+001 -2.8480e-001 67310 68751,68855,68829
 1.2000e+000 69386  1.9891e+000 -2.9762e+001  2.1075e-001 67020 69216,69268,69242
 1.2000e+000 69363  1.0929e+000 -2.2251e+001 -3.6137e+000 67020 69138,69268,69216
 1.2000e+000 69340  1.6680e+001 -2.3079e+001 -7.8495e+000 67020 69112,69268,69138
 1.2000e+000 69317 -5.1699e+000 -2.4659e+001  2.7965e+000 67020 69138,69190,69164
 1.2000e+000 69294 -4.9273e+000 -1.9560e+001 -1.1993e+000 67020 69138,69216,69190
 1.2000e+000 69536  2.7954e+000 -3.4976e+001 -5.7683e+000 66708 69435,69487,69461
 1.2000e+000 69513  3.0116e+001 -4.1169e+001 -1.3640e+000 66708 69409,69487,69435
 1.2000e+000 69735 -1.2601e+001 -3.7411e+001  1.5951e+000 66346 69585,69637,69611
 1.2000e+000 69712 -7.9087e+000 -3.6623e+001  4.0791e-001 66346 69559,69637,69585
 1.2000e+000 69689 -7.1472e+000 -3.8883e+001 -4.0072e+000 66346 69559,69663,69637
 1.2000e+000 69985 -9.4007e+000 -2.8455e+001  8.6453e-001 66148 69786,69890,69864
 1.2000e+000 69962 -1.2389e+001 -3.0025e+001  1.4775e+000 66148 69760,69890,69786
 1.2000e+000 69939 -2.6979e+000 -2.5689e+001 -5.6124e+000 66148 69786,69864,69838
 1.2000e+000 69916 -6.7013e+000 -3.1106e+001 -2.1563e+000 66148 69786,69838,69812
 1.2000e+000 70137  6.3827e+000 -1.7176e+001 -1.1140e+000 65950 70036,70088,70062
 1.2000e+000 70114  1.2908e+001 -1.9713e+001  3.0082e+000 65950 70010,70088,70036
 1.2000e+000 70470  6.1122e+000 -1.3243e+001 -1.1468e+000 65546 70245,70323,70271
 1.2000e+000 70447  4.8314e+000 -1.4516e+001 -6.1811e-002 65546 70245,70375,70323
 1.2000e+000 70424  2.9315e+000 -2.0011e+001 -4.5556e-001 65546 70323,70375,70349
 1.2000e+000 70401  6.3691e+000 -1.4037e+001 -5.8045e-001 65546 70271,70323,70297
 1.2000e+000 70620  1.0832e+000 -2.8859e+001  2.1119e+000 65348 70493,70545,70519
 1.2000e+000 70597  2.4311e-001 -3.3353e+001  9.5037e-001 65348 70493,70571,70545
 1.2000e+000 70721 -6.3296e+000 -1.7415e+001 -7.0797e-001 65150 70643,70695,70669
 1.2000e+000 71020  4.4510e+000 -9.6914e+000 -1.2654e+000 64952 71043,70850,70824
 1.2000e+000 70997  4.7303e+000 -9.1276e+000 -1.3687e+000 64952 71043,70824,70772
 1.2000e+000 70974  4.4191e+000 -1.5237e+001  5.9592e-001 64952 71115,70746,70876
 1.2000e+000 70951  2.6743e+000 -1.5606e+001  8.0015e-001 64952 70746,70902,70876
 1.2000e+000 70928  5.9068e+000 -1.2348e+001  7.6734e-001 64952 70772,70824,70798
 1.2000e+000 71069  5.7559e+000 -8.3230e+000  7.4311e-001 64952 70876,70850,71043
 1.2000e+000 71092  3.7576e+000 -1.3050e+001  3.2941e-001 64952 71115,70876,71043
 1.2000e+000 71141  3.6653e+000 -1.2894e+001 -1.0791e+000 64952 70772,70746,71115
 1.2000e+000 71164  4.0917e+000 -9.5223e+000 -1.5378e+000 64952 70772,71115,71043
 1.2000e+000 71365  5.1179e+000 -1.2665e+001 -8.4541e-001 64662 71215,71293,71267
 1.2000e+000 71342  9.3720e+000 -5.9031e+000 -2.9247e+000 64662 71189,71293,71215
 1.2000e+000 71319  8.5421e+000 -2.5557e+000 -1.1377e+000 64662 71215,71267,71241
 1.2000e+000 71615 -7.9730e-001 -2.7459e+001  3.6089e-001 64350 71710,71638,71468
 1.2000e+000 71592  3.1374e-001 -2.5899e+001 -8.9429e-001 64350 71638,71416,71390
 1.2000e+000 71569 -2.2964e+000 -2.3804e+001  3.5373e+000 64350 71710,71468,71442
 1.2000e+000 71546  1.9053e+000 -2.6856e+001  1.6551e+000 64350 71390,71520,71494
 1.2000e+000 71664  3.9032e-001 -2.6837e+001 -5.3245e-002 64350 71494,71468,71638
 1.2000e+000 71687  1.2271e+000 -2.7849e+001  5.3572e-001 64350 71494,71638,71390
 1.2000e+000 71736  1.8138e+000 -1.9902e+001  2.7812e-001 64350 71416,71638,71710
 1.2000e+000 71759  5.6734e-001 -1.6747e+001  4.2297e+000 64350 71416,71710,71442
 1.2000e+000 72318  2.4420e-001 -3.6570e+001 -1.7642e+000 63837 71972,72024,71998
 1.2000e+000 72295 -3.8369e-001 -2.1836e+001 -4.9565e-001 63837 72341,71972,71946
 1.2000e+000 72272 -7.3339e-001 -1.7845e+001  1.9244e+000 63837 72413,72341,71946
 1.2000e+000 72249 -8.3085e-001 -1.6355e+001  1.5179e+000 63837 72413,71946,72128
 1.2000e+000 72226 -5.2582e+000 -1.7994e+001  1.7435e+000 63837 72024,72076,72050
 1.2000e+000 72203 -2.7790e+000 -1.5650e+001  5.7008e-001 63837 72024,72102,72076
 1.2000e+000 72180  4.2009e-002 -1.6234e+001  2.6607e+000 63837 71946,72154,72128
 1.2000e+000 72367 -5.1528e+000 -2.4671e+001 -4.8242e+000 63837 72024,71972,72341
 1.2000e+000 72390 -1.5465e+000 -1.8383e+001 -1.0580e+000 63837 72024,72341,72102
 1.2000e+000 72439 -6.6394e-002 -2.0144e+001  1.3766e+000 63837 72102,72341,72413
 1.2000e+000 72462 -4.8199e-002 -1.8489e+001  1.1626e+000 63837 72102,72413,72128
 1.2000e+000 72791 -5.3470e+000 -1.7071e+001 -3.2723e+000 63383 72592,72696,72670
 1.2000e+000 72768 -5.8028e+000 -1.4537e+001 -6.4072e+000 63383 72566,72696,72592
 1.2000e+000 72745 -6.8095e+000 -1.4220e+001 -6.2866e-001 63383 72592,72670,72618
 1.2000e+000 72722 -8.2260e+000 -1.5129e+001 -2.5773e+000 63383 72618,72670,72644
 1.2000e+000 73297 -1.0316e+001 -1.6229e+001 -6.0445e-001 63185 73000,73156,73130
 1.2000e+000 73274 -1.0063e+001 -1.6265e+001  2.2293e+000 63185 72974,73156,73000
 1.2000e+000 73251 -6.2401e+000 -2.0959e+001 -5.7006e-002 63185 73000,73052,73026
 1.2000e+000 73228 -6.0262e+000 -1.6411e+001 -1.4943e+000 63185 73000,73130,73052
 1.2000e+000 73205 -6.8746e+000 -2.1800e+001 -4.3529e+000 63185 73052,73130,73104
 1.2000e+000 73182 -6.0478e+000 -2.4115e+001 -4.5012e+000 63185 73052,73104,73078
 1.2000e+000 73545 -1.6396e-001 -1.5818e+001 -4.1481e-002 62781 73568,73398,73372
 1.2000e+000 73522  1.0353e+000 -1.5088e+001  7.9118e-001 62781 73568,73372,73346
 1.2000e+000 73499 -2.0562e+000 -1.6860e+001 -9.8090e-001 62781 73640,73320,73424
 1.2000e+000 73476  2.5070e+000 -1.2050e+001 -2.8707e+000 62781 73320,73450,73424
 1.2000e+000 73594  6.1087e-001 -1.5327e+001 -2.9809e-001 62781 73424,73398,73568
 1.2000e+000 73617 -4.7733e-001 -1.6101e+001 -6.6988e-001 62781 73640,73424,73568
 1.2000e+000 73666 -1.6701e+000 -1.6209e+001  4.9085e-001 62781 73346,73320,73640
 1.2000e+000 73689 -8.3916e-001 -1.5661e+001  7.8268e-001 62781 73346,73640,73568
 1.2000e+000 74035 -3.3237e+000 -3.0877e+001 -1.5544e+000 62363 74058,73868,73842
 1.2000e+000 74012  2.6889e+000 -2.3283e+001 -6.4508e+000 62363 74130,74058,73842
 1.2000e+000 73989  5.1436e+000 -2.4386e+001 -9.7259e+000 62363 74130,73842,73816
 1.2000e+000 73966 -5.5352e+000 -3.6393e+001  1.7347e+000 62363 74202,73764,73894
 1.2000e+000 73943 -1.6384e+001 -3.1051e+001  1.5135e+000 62363 73712,73894,73764
 1.2000e+000 73920 -2.0096e+001 -3.4949e+001 -4.1950e-001 62363 73712,73764,73738
 1.2000e+000 74084  2.1779e-001 -3.1800e+001 -4.3357e-001 62363 73894,73868,74058
 1.2000e+000 74107 -3.9724e+000 -3.3203e+001  2.2261e+000 62363 74202,73894,74058
 1.2000e+000 74156 -1.4113e+000 -2.9073e+001 -7.1469e-001 62363 73790,74058,74130
 1.2000e+000 74179  6.4155e+000 -2.9160e+001 -3.8746e+000 62363 73790,74130,73816
 1.2000e+000 74228 -6.6085e+000 -3.6907e+001 -2.6115e+000 62363 73790,73764,74202
 1.2000e+000 74251 -4.9200e+000 -3.3180e+001 -2.2111e+000 62363 73790,74202,74058
 1.2000e+000 74403  8.1598e+000 -3.1515e+001  2.8046e+000 62115 74426,74302,74276
 1.2000e+000 74380  1.1395e+001 -2.9548e+001  4.1585e+000 62115 74426,74276,74354
 1.2000e+000 74452  4.8924e+000 -2.8777e+001  2.5282e+000 62115 74328,74302,74426
 1.2000e+000 74475  7.9502e+000 -2.6845e+001  3.9340e+000 62115 74328,74426,74354
 1.2000e+000 74578  2.6093e+000 -1.6950e+001 -6.5831e-001 61825 74500,74552,74526
 1.2000e+000 74982 -1.4318e+001 -3.7824e+001  2.3864e-001 61513 75005,74734,74708
 1.2000e+000 74959 -1.5018e+001 -3.4402e+001 -6.4350e-001 61513 75005,74708,74864
 1.2000e+000 74936 -2.3300e+001 -3.9144e+001  3.3279e+000 61513 75077,74812,74734
 1.2000e+000 74913 -1.5563e+001 -3.0281e+001 -2.2826e+000 61513 74734,74786,74760
 1.2000e+000 74890 -1.7314e+001 -3.2998e+001 -7.3904e-001 61513 74734,74812,74786
 1.2000e+000 75031 -1.3749e+001 -3.9062e+001  2.0587e-001 61513 75077,74734,75005
 1.2000e+000 75054 -9.8193e+000 -3.7893e+001  6.4479e+000 61513 74838,75005,74864
 1.2000e+000 75103 -2.8659e+001 -4.1718e+001  1.1806e+001 61513 74838,74812,75077
 1.2000e+000 75126 -2.2464e+001 -4.4031e+001  8.7348e+000 61513 74838,75077,75005
 1.2000e+000 75553 -2.8985e+000 -2.7141e+001 -4.3642e-001 61060 75576,75360,75308
 1.2000e+000 75530 -9.5961e-001 -2.9476e+001  3.1259e-001 61060 75576,75308,75230
 1.2000e+000 75507 -2.6704e+000 -2.5775e+001  1.0892e+000 61060 75308,75360,75334
 1.2000e+000 75484 -5.4868e+000 -3.9630e+001  1.2724e+000 61060 75230,75308,75256
 1.2000e+000 75461 -4.6987e+000 -2.9834e+001 -4.3361e+000 61060 75256,75308,75282
 1.2000e+000 75438 -4.7717e+000 -2.5867e+001  1.5527e+000 61060 75360,75412,75386
 1.2000e+000 75602 -4.1522e+000 -2.8580e+001  2.9183e-001 61060 75412,75360,75576
 1.2000e+000 75625 -2.4786e+000 -3.1505e+001  1.0618e+000 61060 75412,75576,75230
 1.2000e+000 76052 -1.8607e+000 -2.3049e+001  5.4646e-001 60442 75755,75859,75833
 1.2000e+000 76029 -3.5582e+000 -2.1470e+001 -1.8333e+000 60442 75729,75859,75755
 1.2000e+000 76006 -2.3422e+000 -2.2719e+001  1.1935e+000 60442 75755,75833,75807
 1.2000e+000 75983  1.0448e-001 -2.9841e+001  3.4649e-001 60442 75755,75807,75781
 1.2000e+000 75960  3.8590e+000 -4.6515e+001  3.2658e+000 60442 75729,75911,75859
 1.2000e+000 75937 -1.6795e+001 -1.0569e+002  7.3367e+000 60442 75859,75911,75885
 1.2000e+000 76430  9.8263e-001 -1.6903e+001  3.4754e-001 59788 76453,76286,76234
 1.2000e+000 76407 -5.2033e-002 -1.8473e+001 -5.3122e-001 59788 76453,76234,76182
 1.2000e+000 76384  8.8809e-001 -1.6552e+001  6.5339e-001 59788 76525,76156,76312
 1.2000e+000 76361  4.0429e+000 -2.4182e+001 -1.0347e+000 59788 76182,76234,76208
 1.2000e+000 76338  2.5414e+000 -1.4872e+001  1.3670e+000 59788 76234,76286,76260
 1.2000e+000 76479  2.2433e+000 -1.7549e+001  1.1472e+000 59788 76312,76286,76453
 1.2000e+000 76502  1.3722e+000 -1.7469e+001  4.2691e-001 59788 76525,76312,76453
 1.2000e+000 76551  7.0864e-001 -1.7792e+001  8.8564e-001 59788 76182,76156,76525
 1.2000e+000 76574  9.0686e-001 -1.8136e+001  6.6380e-001 59788 76182,76525,76453
 1.2000e+000 77031  1.9430e+000 -1.6038e+001 -1.4796e+000 59448 76835,76887,76861
 1.2000e+000 77008  7.1675e+000 -5.4786e+000  2.4872e-001 59448 76835,76913,76887
 1.2000e+000 76985  4.6283e+000 -5.6862e+000  2.5977e+000 59448 76809,76913,76835
 1.2000e+000 76962 -1.5309e+000 -8.5786e+000 -1.7044e+000 59448 76757,76913,76809
 1.2000e+000 76939  1.6112e+000 -4.7711e+000 -3.0590e+000 59448 76757,76809,76783
 1.2000e+000 77537 -1.8093e+000 -3.0135e+001 -9.1085e-001 58994 77560,77344,77292
 1.2000e+000 77514 -1.2388e+001 -3.0769e+001 -3.1878e+000 58994 77560,77292,77240
 1.2000e+000 77491  5.6512e+000 -2.6064e+001 -5.4563e+000 58994 77632,77214,77370
 1.2000e+000 77468 -1.6654e+001 -3.6997e+001  4.7902e+000 58994 77292,77344,77318
 1.2000e+000 77445  6.1730e+000 -4.2627e+001 -1.3792e+000 58994 77214,77396,77370
 1.2000e+000 77422 -1.1750e+001 -3.0276e+001 -4.4300e+000 58994 77240,77292,77266
 1.2000e+000 77586 -6.9808e+000 -3.2053e+001  3.9581e-001 58994 77370,77344,77560
 1.2000e+000 77609 -2.3815e+000 -3.0776e+001  9.2326e-001 58994 77632,77370,77560
 1.2000e+000 77658  9.9426e+000 -2.1392e+001 -1.3042e+001 58994 77240,77214,77632
 1.2000e+000 77681  3.7902e+000 -2.0924e+001 -7.3182e+000 58994 77240,77632,77560
 1.2000e+000 78138 -1.8330e+000 -1.2004e+001  3.3162e+000 58440 77864,77994,77890
 1.2000e+000 78115  4.7697e-001 -3.8783e+000 -1.5544e+000 58440 77864,78020,77994
 1.2000e+000 78092 -2.3281e+000 -1.4546e+001 -1.9633e+000 58440 77942,77994,77968
 1.2000e+000 78069 -4.9714e-001 -1.4929e+001  3.6458e-001 58440 77890,77994,77942
 1.2000e+000 78046  2.9718e+000 -1.2558e+001 -1.6581e+000 58440 77890,77942,77916
 1.2000e+000 78467 -1.9263e+000 -2.7627e+001 -6.5548e-001 57928 78562,78490,78346
 1.2000e+000 78444 -3.4893e+000 -2.4994e+001  1.5892e+000 57928 78490,78294,78268
 1.2000e+000 78421 -6.7315e-001 -2.9501e+001  5.1080e-001 57928 78562,78346,78320
 1.2000e+000 78398  2.0313e-001 -2.5879e+001  1.8478e-001 57928 78242,78372,78268
 1.2000e+000 78516 -4.4465e+000 -3.2237e+001 -2.4869e+000 57928 78372,78346,78490
 1.2000e+000 78539 -3.4928e+000 -2.6518e+001 -7.6451e-001 57928 78372,78490,78268
 1.2000e+000 78588 -4.9526e+000 -2.9563e+001  1.7575e-001 57928 78294,78490,78562
 1.2000e+000 78611 -3.1439e+000 -3.1515e+001  1.4337e+000 57928 78294,78562,78320
 1.2000e+000 79068 -1.1310e+001 -2.8877e+001 -9.8847e+000 57467 78794,78924,78820
 1.2000e+000 79045 -3.6818e+000 -2.5678e+001 -9.9043e+000 57467 78794,78950,78924
 1.2000e+000 79022 -4.2974e-001 -2.2161e+001  3.5125e-001 57467 78820,78898,78872
 1.2000e+000 78999 -5.9199e+000 -3.2013e+001 -5.7320e+000 57467 78820,78924,78898
 1.2000e+000 78976 -2.8234e-001 -2.2172e+001  4.5212e-001 57467 78820,78872,78846
 1.2000e+000 79446 -6.1681e+000 -2.8347e+001 -1.6208e+000 57120 79172,79302,79250
 1.2000e+000 79423 -4.8092e+000 -2.7698e+001 -2.9865e+000 57120 79172,79328,79302
 1.2000e+000 79400 -3.5217e+000 -2.1514e+001 -3.4662e+000 57120 79172,79250,79198
 1.2000e+000 79377 -1.5347e+000 -3.1400e+001 -2.1420e-002 57120 79250,79302,79276
 1.2000e+000 79354  1.7594e+000 -2.9809e+001 -1.1580e+001 57120 79198,79250,79224
 1.2000e+000 79952 -9.9769e+000 -1.9870e+001  1.2278e-001 56773 79629,79785,79655
 1.2000e+000 79929  3.1558e+000 -1.5068e+001  3.1463e-001 56773 79629,79811,79785
 1.2000e+000 79906 -4.1036e+000 -2.3388e+001  8.0540e-001 56773 79655,79733,79681
 1.2000e+000 79883 -6.5775e+000 -2.0844e+001 -3.8008e-001 56773 79655,79785,79733
 1.2000e+000 79860 -5.1075e+000 -2.6514e+001 -4.6360e+000 56773 79733,79785,79759
 1.2000e+000 79837  1.3717e-001 -2.1261e+001  5.0702e+000 56773 79681,79733,79707
 1.2000e+000 80281 -5.1738e+000 -2.0983e+001 -2.7834e+000 56319 80108,80160,80134
 1.2000e+000 80258 -3.3393e+000 -2.3809e+001 -2.7049e+000 56319 80056,80160,80108
 1.2000e+000 80235 -7.0490e-001 -2.1122e+001  2.8329e+000 56319 80056,80186,80160
 1.2000e+000 80212 -4.4812e+000 -2.9654e+001 -2.7062e+000 56319 80056,80108,80082
 1.2000e+000 80738  1.6401e+000 -2.0828e+001  2.7507e+000 55957 80516,80620,80594
 1.2000e+000 80715 -2.2341e+000 -1.6391e+001  3.2033e+000 55957 80464,80620,80516
 1.2000e+000 80692 -9.8522e-001 -2.4198e+001  2.3189e+000 55957 80761,80568,80542
 1.2000e+000 80669  8.3533e-001 -2.2999e+001  2.8667e+000 55957 80761,80542,80516
 1.2000e+000 80646 -2.2778e+000 -1.6353e+001  6.7792e+000 55957 80464,80516,80490
 1.2000e+000 80787 -3.0170e+000 -2.3538e+001  1.3918e+000 55957 80594,80568,80761
 1.2000e+000 80810 -1.2801e+000 -2.2357e+001  1.9425e+000 55957 80594,80761,80516
 1.2000e+000 81210  5.3441e-001 -1.7553e+001 -1.7372e-001 55317 80936,80988,80962
 1.2000e+000 81187  4.0013e-001 -1.8974e+001  3.2127e-001 55317 80936,81066,80988
 1.2000e+000 81164 -1.5956e-001 -1.8419e+001  1.6980e-001 55317 80936,81092,81066
 1.2000e+000 81141 -4.7066e+000 -2.1987e+001 -2.5964e+000 55317 80988,81066,81014
 1.2000e+000 81118  4.0251e+000 -1.2101e+001  1.2189e+000 55317 81014,81066,81040
 1.2000e+000 81539 -8.8105e+000 -2.8479e+001  1.2403e+000 54913 81340,81418,81392
 1.2000e+000 81516  2.3512e-001 -2.3602e+001 -1.2986e+000 54913 81340,81444,81418
 1.2000e+000 81493 -5.6645e-001 -2.4516e+001 -3.0958e+000 54913 81314,81444,81340
 1.2000e+000 81470 -9.8193e+000 -4.0224e+001 -3.0215e-001 54913 81340,81392,81366
 1.2000e+000 81787 -3.4014e+000 -2.6141e+001 -1.2553e-002 54601 81588,81692,81640
 1.2000e+000 81764 -8.2223e+000 -2.7422e+001 -1.2147e+000 54601 81562,81692,81588
 1.2000e+000 81741 -1.8915e+000 -2.5945e+001  1.6277e+000 54601 81588,81640,81614
 1.2000e+000 81718 -4.1417e+000 -3.5894e+001 -4.4791e+000 54601 81640,81692,81666
 1.2000e+000 82344  5.0400e-001 -3.2233e+001 -5.0116e+000 54090 81998,82102,82076
 1.2000e+000 82321 -9.4887e+000 -3.6593e+001 -3.5639e+000 54090 81998,82154,82102
 1.2000e+000 82298 -1.0025e+001 -3.3173e+001 -2.6453e+000 54090 81972,82154,81998
 1.2000e+000 82275 -1.2735e+001 -3.1325e+001 -4.1461e+000 54090 81998,82076,82024
 1.2000e+000 82252 -1.4354e+001 -3.6097e+001  2.4599e-001 54090 81972,82180,82154
 1.2000e+000 82229 -1.5900e+001 -4.1932e+001  4.3098e-001 54090 82102,82154,82128
 1.2000e+000 82206  3.5315e+000 -2.3880e+001 -6.0311e+000 54090 82024,82076,82050
 1.2000e+000 82722 -1.3134e+001 -2.5915e+001  1.2018e+000 53579 82500,82578,82552
 1.2000e+000 82699 -1.1209e+001 -2.7426e+001  1.8584e+000 53579 82448,82578,82500
 1.2000e+000 82676 -1.2804e+001 -2.9687e+001  2.6115e+000 53579 82448,82500,82474
 1.2000e+000 82653 -1.4526e+001 -2.9659e+001  5.2486e+000 53579 82448,82604,82578
 1.2000e+000 82630 -9.3396e+000 -2.3989e+001  1.8817e+000 53579 82500,82552,82526
 1.2000e+000 83356 -2.3517e+000 -1.7844e+001 -2.3676e+000 53189 83379,83088,83036
 1.2000e+000 83333 -3.3340e+000 -1.9531e+001 -2.7869e+000 53189 83379,83036,82984
 1.2000e+000 83310  2.3820e+000 -1.7833e+001  1.1183e+000 53189 82984,83192,83166
 1.2000e+000 83287  4.9789e+000 -1.4846e+001 -2.1759e+000 53189 83036,83088,83062
 1.2000e+000 83264 -1.9716e+000 -2.4186e+001 -4.6871e+000 53189 82984,83036,83010
 1.2000e+000 83241  2.8140e+000 -2.4286e+001  2.0504e+000 53189 83114,83166,83140
 1.2000e+000 83218 -6.1424e+000 -2.6039e+001  1.3806e+000 53189 83088,83166,83114
 1.2000e+000 83405 -1.0174e+000 -1.9055e+001 -1.4615e+000 53189 83166,83088,83379
 1.2000e+000 83428 -2.0407e+000 -2.0703e+001 -1.9328e+000 53189 83166,83379,82984
 1.2000e+000 83725 -7.4766e+000 -3.7063e+001 -3.8721e+000 52585 83748,83529,83503
 1.2000e+000 83702 -1.3050e+000 -3.4940e+001 -2.1274e+000 52585 83820,83748,83503
 1.2000e+000 83679  4.4797e+000 -3.3350e+001 -1.4424e+000 52585 83820,83503,83477
 1.2000e+000 83656  2.7296e+000 -2.8511e+001  7.0071e-001 52585 83477,83607,83581
 1.2000e+000 83633  1.3231e+000 -2.8539e+001  2.3350e+000 52585 83451,83607,83477
 1.2000e+000 83774 -5.2745e+000 -3.1000e+001 -2.2310e+000 52585 83555,83529,83748
 1.2000e+000 83797 -9.8744e+000 -3.4111e+001 -8.7615e-001 52585 83555,83748,83581
 1.2000e+000 83846 -6.7063e+000 -3.1337e+001  8.4689e-001 52585 83581,83748,83820
 1.2000e+000 83869 -2.5724e+000 -3.0792e+001  9.1058e-001 52585 83581,83820,83477
 1.2000e+000 84200 -1.0439e+001 -3.5607e+001  6.5414e-001 52024 84001,84105,84079
 1.2000e+000 84177 -2.9214e+000 -3.3821e+001 -7.3224e-001 52024 83975,84105,84001
 1.2000e+000 84154 -9.5858e+000 -3.5609e+001  7.8961e-001 52024 84001,84079,84053
 1.2000e+000 84131 -4.2867e+000 -2.1908e+001  6.7113e+000 52024 84001,84053,84027
 1.2000e+000 84399 -6.3569e+000 -2.7672e+001 -4.8056e-001 51470 84422,84275,84249
 1.2000e+000 84376 -7.0989e+000 -2.9766e+001 -9.7334e-001 51470 84422,84249,84223
 1.2000e+000 84353 -6.1031e+000 -3.3328e+001 -6.0676e+000 51470 84275,84327,84301
 1.2000e+000 84448 -5.4500e+000 -2.9549e+001 -3.5742e-001 51470 84327,84275,84422
 1.2000e+000 84471 -5.8941e+000 -3.1236e+001 -8.2891e-001 51470 84327,84422,84223
 1.2000e+000 84753 -7.1336e+000 -3.5354e+001  2.5311e-001 51073 84603,84655,84629
 1.2000e+000 84730 -2.3664e+001 -3.9411e+001  1.7558e+000 51073 84776,84655,84603
 1.2000e+000 84707 -3.3640e-001 -2.8625e+001 -9.1704e+000 51073 84577,84681,84655
 1.2000e+000 84802 -1.2044e+001 -3.2068e+001 -3.3727e+000 51073 84577,84655,84776
 1.2000e+000 85178 -2.5202e+000 -2.3884e+001  1.1848e+000 50519 85201,85008,84982
 1.2000e+000 85155 -2.0067e+000 -2.3366e+001  2.4087e+000 50519 85273,85201,84982
 1.2000e+000 85132 -3.3030e+000 -2.2793e+001  3.3117e+000 50519 85273,84982,84930
 1.2000e+000 85109  1.9939e+000 -2.8598e+001  3.2235e+000 50519 84930,84982,84956
 1.2000e+000 85086 -8.0802e+000 -2.6749e+001  3.3377e-001 50519 85008,85060,85034
 1.2000e+000 85227 -7.0250e+000 -2.5310e+001 -2.1772e-001 50519 85060,85008,85201
 1.2000e+000 85250 -3.5560e+000 -2.3100e+001  1.0009e+000 50519 85060,85201,84904
 1.2000e+000 85299 -4.0474e+000 -2.4543e+001  1.7059e+000 50519 84904,85201,85273
 1.2000e+000 85322 -5.8034e+000 -2.3042e+001  2.7249e+000 50519 84904,85273,84930
 1.2000e+000 85958 -2.3840e+000 -2.2171e+001 -4.0448e-001 50093 85981,85768,85716
 1.2000e+000 85935 -1.4478e+000 -1.9955e+001 -3.4874e-001 50093 85981,85716,85612
 1.2000e+000 85912 -4.2865e+000 -2.0607e+001  9.2399e-001 50093 85612,85716,85664
 1.2000e+000 85889 -5.0860e-001 -2.3484e+001 -1.8601e-001 50093 85716,85768,85742
 1.2000e+000 85866 -5.6570e+000 -1.7839e+001 -2.8854e+000 50093 85664,85716,85690
 1.2000e+000 85843  8.5047e+000 -1.2513e+001 -6.7393e-001 50093 85586,85794,85612
 1.2000e+000 85820 -2.8261e+000 -3.1003e+001  2.4081e+000 50093 85612,85664,85638
 1.2000e+000 86007 -4.3458e+000 -2.4137e+001 -3.5710e+000 50093 85794,85768,85981
 1.2000e+000 86030 -1.4229e+000 -1.7648e+001 -2.7177e+000 50093 85794,85981,85612
 1.2000e+000 86131  6.4441e-001 -4.0333e+001  7.5113e+000 49895 86053,86105,86079
 1.2000e+000 86639 -1.5723e+000 -1.6831e+001 -2.8535e+000 49391 86662,86394,86368
 1.2000e+000 86616 -1.5321e+000 -1.8736e+001 -1.9066e+000 49391 86662,86368,86342
 1.2000e+000 86593 -3.6085e-001 -1.7516e+001 -3.5033e-002 49391 86342,86498,86472
 1.2000e+000 86570  1.6804e+000 -1.8507e+001  1.2814e-001 49391 86316,86498,86342
 1.2000e+000 86547 -8.8486e+000 -3.0666e+001 -3.1263e-001 49391 86394,86472,86446
 1.2000e+000 86524  5.0790e+000 -2.9393e+001  1.5755e+000 49391 86394,86446,86420
 1.2000e+000 86688 -3.7399e+000 -1.8518e+001 -2.1126e+000 49391 86472,86394,86662
 1.2000e+000 86711 -2.0440e+000 -1.9195e+001 -1.6551e+000 49391 86472,86662,86342
 1.2000e+000 87089 -9.7284e+000 -3.0789e+001  7.8447e-001 48987 86815,86919,86867
 1.2000e+000 87066 -1.0427e+001 -3.1988e+001  1.3513e+000 48987 86815,86971,86919
 1.2000e+000 87043 -2.2441e+000 -3.1559e+001 -1.3213e+000 48987 86867,86919,86893
 1.2000e+000 87020 -1.0092e+001 -3.2695e+001  4.2987e+000 48987 86815,86867,86841
 1.2000e+000 86997 -9.5392e+000 -2.4568e+001  3.1496e+000 48987 86919,86971,86945
 1.2000e+000 87467 -2.2436e+001 -2.9604e+001  3.0772e+000 48540 87490,87245,87219
 1.2000e+000 87444 -1.5156e+001 -2.7185e+001  1.3656e+000 48540 87562,87490,87219
 1.2000e+000 87421 -1.4523e+001 -2.6854e+001  6.1533e-001 48540 87562,87219,87349
 1.2000e+000 87398 -1.4468e+001 -2.1872e+001  1.2307e+000 48540 87245,87297,87271
 1.2000e+000 87375 -1.0704e+001 -2.7145e+001  7.8602e-001 48540 87193,87349,87219
 1.2000e+000 87516 -1.5002e+001 -2.6789e+001  3.1824e+000 48540 87297,87245,87490
 1.2000e+000 87539 -1.4811e+001 -2.9012e+001  1.7182e+000 48540 87297,87490,87323
 1.2000e+000 87588 -1.4787e+001 -2.8839e+001  2.0090e+000 48540 87323,87490,87562
 1.2000e+000 87611 -1.4232e+001 -2.7901e+001  1.3861e+000 48540 87323,87562,87349
 1.2000e+000 87810 -1.0753e+001 -5.5275e+001  1.3470e+000 48136 87660,87712,87686
 1.2000e+000 87787 -7.0792e-001 -3.6331e+001 -2.5431e+000 48136 87660,87738,87712
 1.2000e+000 87764 -1.5712e+001 -3.5000e+001 -1.0715e+001 48136 87634,87738,87660
 1.2000e+000 88205 -1.2357e+001 -3.4349e+001 -2.6627e+000 47210 88300,88228,87937
 1.2000e+000 88182 -1.0890e+001 -3.6128e+001 -5.6381e-001 47210 88228,87833,88041
 1.2000e+000 88159 -1.2662e+001 -3.6830e+001 -4.2595e+000 47210 88300,87937,87911
 1.2000e+000 88136 -1.2079e+001 -3.4701e+001 -3.1623e+000 47210 87833,87911,87859
 1.2000e+000 88113 -1.9402e+001 -2.7296e+001 -3.4520e+000 47210 87937,87989,87963
 1.2000e+000 88090 -1.2198e+001 -2.9033e+001  6.3953e+000 47210 87989,88041,88015
 1.2000e+000 88067 -1.3161e+001 -3.7751e+001 -5.0018e+000 47210 87859,87911,87885
 1.2000e+000 88254 -1.1150e+001 -2.5476e+001 -3.6405e+000 47210 87989,87937,88228
 1.2000e+000 88277 -1.4525e+001 -3.2892e+001 -4.0116e-001 47210 87989,88228,88041
 1.2000e+000 88326 -1.0293e+001 -3.2155e+001 -7.8213e-001 47210 87833,88228,88300
 1.2000e+000 88349 -1.0908e+001 -3.3802e+001 -2.5216e+000 47210 87833,88300,87911
 1.2000e+000 88780 -2.2324e+001 -4.2766e+001 -6.1227e+000 46642 88803,88509,88483
 1.2000e+000 88757 -1.1789e+001 -3.6724e+001 -1.7302e+000 46642 88803,88483,88639
 1.2000e+000 88734 -1.6483e+001 -2.9753e+001 -1.4198e+000 46642 88875,88561,88509
 1.2000e+000 88711 -1.9162e+001 -2.9060e+001  1.5250e+000 46642 88509,88561,88535
 1.2000e+000 88688 -1.0354e+001 -4.1245e+001 -2.5996e-001 46642 88457,88639,88483
 1.2000e+000 88665 -1.9140e+001 -4.7065e+001  1.2174e+000 46642 88561,88613,88587
 1.2000e+000 88829 -1.5771e+001 -3.2851e+001 -1.9349e+000 46642 88875,88509,88803
 1.2000e+000 88852 -1.5034e+001 -3.8908e+001  7.3738e-001 46642 88613,88803,88639
 1.2000e+000 88901 -1.3795e+001 -3.3806e+001  9.7689e-001 46642 88613,88561,88875
 1.2000e+000 88924 -1.4702e+001 -3.8891e+001  6.9939e-001 46642 88613,88875,88803
 1.2000e+000 89253 -3.9865e+000 -3.5717e+001  6.6420e-001 46444 89080,89158,89132
 1.2000e+000 89230 -3.2418e+000 -3.4063e+001  8.8264e-001 46444 89028,89158,89080
 1.2000e+000 89207 -1.5748e+000 -3.6451e+001  1.4525e+000 46444 89028,89080,89054
 1.2000e+000 89184  1.8305e+000 -3.7967e+001 -3.0322e+000 46444 89080,89132,89106
 1.2000e+000 89631 -5.0222e+000 -2.3151e+001 -8.4943e-001 46040 89383,89461,89435
 1.2000e+000 89608 -4.2304e+000 -2.1118e+001 -5.5139e-001 46040 89383,89487,89461
 1.2000e+000 89585 -4.5158e+000 -2.5433e+001 -1.1411e+000 46040 89383,89435,89409
 1.2000e+000 89562 -3.9209e+000 -1.8061e+001 -1.8266e+000 46040 89383,89513,89487
 1.2000e+000 89539  3.5743e+000 -1.4073e+001 -4.3105e+000 46040 89357,89513,89383
 1.2000e+000 90009 -2.6898e+000 -2.2077e+001  3.7530e-001 45636 89813,89891,89839
 1.2000e+000 89986 -2.1219e+000 -1.8533e+001  1.6982e+000 45636 89787,89891,89813
 1.2000e+000 89963 -1.4991e+000 -1.9425e+001 -5.1817e-001 45636 89839,89891,89865
 1.2000e+000 89940 -4.4383e+000 -2.3926e+001  8.0348e-001 45636 89735,89891,89787
 1.2000e+000 89917 -4.9386e+000 -2.6258e+001  6.3494e-001 45636 89735,89787,89761
 1.2000e+000 90208 -2.8332e+000 -2.2333e+001 -3.6657e+000 45175 90231,90058,90032
 1.2000e+000 90185 -1.7977e+000 -2.1981e+001 -3.4613e+000 45175 90231,90032,90136
 1.2000e+000 90162  1.4181e+000 -1.9132e+001 -5.4793e-001 45175 90058,90110,90084
 1.2000e+000 90257 -3.3876e+000 -2.2238e+001 -2.5928e+000 45175 90110,90058,90231
 1.2000e+000 90280 -1.6414e+000 -2.1633e+001 -2.4228e+000 45175 90110,90231,90136
 1.2000e+000 90528 -4.9345e-001 -1.7905e+001 -9.3517e-001 44513 90695,90551,90407
 1.2000e+000 90505 -1.8607e+000 -1.7268e+001 -2.7373e+000 44513 90551,90355,90329
 1.2000e+000 90482 -9.5174e-001 -2.4183e+001 -2.6117e+000 44513 90623,90303,90433
 1.2000e+000 90459 -1.6423e+000 -1.6439e+001  3.4463e-001 44513 90695,90407,90381
 1.2000e+000 90577  1.7300e-001 -1.7599e+001 -1.0693e+000 44513 90433,90407,90551
 1.2000e+000 90600 -5.4561e-001 -1.8807e+001 -1.9094e+000 44513 90623,90433,90551
 1.2000e+000 90649  1.6778e+000 -1.7979e+001 -2.6588e+000 44513 90329,90303,90623
 1.2000e+000 90672 -3.3369e-002 -1.6338e+001 -2.3072e+000 44513 90329,90623,90551
 1.2000e+000 90721 -3.6957e-001 -1.5393e+001 -1.6899e+000 44513 90355,90551,90695
 1.2000e+000 90744 -1.3312e+000 -1.3805e+001 -1.0526e+000 44513 90355,90695,90381
 1.2000e+000 91077 -5.4706e-001 -1.8281e+001  4.0462e+000 44059 91100,90930,90904
 1.2000e+000 91054 -9.6232e+000 -2.2656e+001  2.7220e+000 44059 91100,90904,90982
 1.2000e+000 91031 -1.2023e+001 -2.3335e+001  1.5745e+000 44059 90878,90982,90904
 1.2000e+000 91008 -4.9645e+000 -2.1156e+001  1.5928e+000 44059 90852,90982,90878
 1.2000e+000 91126 -1.5001e+001 -2.2805e+001  2.0189e+000 44059 91172,91100,90956
 1.2000e+000 91149 -9.1734e+000 -2.1908e+001  1.5010e+000 44059 90956,91100,90982
 1.2000e+000 91198 -3.9524e+000 -1.7048e+001 -1.5459e+000 44059 90930,91100,91172
 1.2000e+000 91677 -1.3524e+001 -2.4384e+001  2.2003e+000 43549 91455,91533,91481
 1.2000e+000 91654 -5.6607e+000 -2.3932e+001  3.1707e+000 43549 91429,91533,91455
 1.2000e+000 91631 -1.2895e+001 -2.1993e+001  3.0084e+000 43549 91481,91533,91507
 1.2000e+000 91608  1.0567e+000 -2.1079e+001  2.5024e+000 43549 91429,91559,91533
 1.2000e+000 91585 -5.1940e+000 -1.8103e+001 -4.3545e+000 43549 91403,91559,91429
 1.2000e+000 92006 -7.2403e+000 -2.2649e+001 -5.3529e-001 43059 91781,91885,91807
 1.2000e+000 91983 -6.0804e+000 -1.8189e+001  2.1402e+000 43059 91781,91911,91885
 1.2000e+000 91960 -1.0063e+001 -2.3272e+001 -4.3338e-001 43059 91807,91885,91833
 1.2000e+000 91937 -3.5518e+000 -2.0571e+001 -5.9034e-001 43059 91833,91885,91859
 1.2000e+000 92561 -9.4027e+000 -2.1125e+001  9.4736e-001 42598 92584,92215,92189
 1.2000e+000 92538 -8.3116e+000 -2.1264e+001  1.7604e-001 42598 92656,92584,92189
 1.2000e+000 92515 -5.7753e+000 -2.3564e+001  1.3928e+000 42598 92656,92189,92397
 1.2000e+000 92492 -3.5520e+000 -2.0070e+001 -2.3419e+000 42598 92241,92319,92293
 1.2000e+000 92469 -5.9334e+000 -2.3755e+001  3.6830e+000 42598 92319,92397,92371
 1.2000e+000 92446 -7.9517e-001 -3.0609e+001  1.2378e+001 42598 92319,92371,92345
 1.2000e+000 92423  1.6770e+001 -1.7464e+001 -1.2594e+001 42598 92241,92293,92267
 1.2000e+000 92610 -8.2460e+000 -2.2077e+001 -1.2932e+000 42598 92241,92215,92584
 1.2000e+000 92633 -6.2894e+000 -1.7554e+001 -1.6591e+000 42598 92241,92584,92319
 1.2000e+000 92682 -5.4487e+000 -1.7803e+001  1.4049e+000 42598 92319,92584,92656
 1.2000e+000 92705 -3.2753e+000 -1.9852e+001  2.5257e+000 42598 92319,92656,92397
 1.2000e+000 92953 -4.2171e+000 -2.3213e+001  2.5963e+000 42094 92976,92806,92780
 1.2000e+000 92930 -5.4743e+000 -2.1018e+001  8.7548e-001 42094 92976,92780,92754
 1.2000e+000 92907  4.5403e+000 -1.9882e+001  3.5314e-001 42094 93048,92832,92806
 1.2000e+000 92884 -8.4233e+000 -2.0850e+001  1.0656e+000 42094 92728,92858,92754
 1.2000e+000 93002  6.7834e-002 -2.0766e+001  1.6048e+000 42094 93048,92806,92976
 1.2000e+000 93025 -5.4057e+000 -2.1266e+001  1.9146e+000 42094 92858,92976,92754
 1.2000e+000 93074 -2.3591e+000 -2.0919e+001  1.8558e+000 42094 92858,92832,93048
 1.2000e+000 93097 -5.3462e+000 -2.0235e+001  2.4286e+000 42094 92858,93048,92976
 1.2000e+000 93605 -7.7635e+000 -2.9105e+001 -1.5771e-001 41846 93628,93412,93386
 1.2000e+000 93582 -7.4332e+000 -2.2302e+001 -2.4267e-001 41846 93628,93386,93308
 1.2000e+000 93559 -9.4830e+000 -2.3594e+001 -3.8437e+000 41846 93700,93464,93438
 1.2000e+000 93536 -1.1325e+001 -2.7094e+001  1.9750e+000 41846 93308,93386,93334
 1.2000e+000 93513 -1.2952e+001 -2.7752e+001  2.2456e+000 41846 93334,93386,93360
 1.2000e+000 93490 -1.0707e+001 -1.8072e+001 -2.7677e+000 41846 93282,93464,93308
 1.2000e+000 93654 -3.6797e+000 -2.3882e+001 -1.9536e+000 41846 93438,93412,93628
 1.2000e+000 93677 -9.2729e+000 -2.3863e+001 -1.8839e+000 41846 93700,93438,93628
 1.2000e+000 93726 -8.7466e+000 -2.1119e+001 -3.1665e+000 41846 93308,93464,93700
 1.2000e+000 93749 -8.1915e+000 -2.0610e+001 -1.2184e+000 41846 93308,93700,93628
 1.2000e+000 94255 -5.4659e+000 -2.3863e+001  1.6757e+000 41385 93958,94114,94088
 1.2000e+000 94232 -4.7964e+000 -2.5026e+001  1.1044e+000 41385 93932,94114,93958
 1.2000e+000 94209 -1.2102e+001 -2.8274e+001  5.1113e+000 41385 93958,94088,94062
 1.2000e+000 94186 -1.3536e+001 -2.0797e+001  4.1840e+000 41385 93958,94062,93984
 1.2000e+000 94163 -1.0045e+001 -1.9389e+001  4.3920e+000 41385 93984,94062,94036
 1.2000e+000 94140 -7.7783e+000 -2.5725e+001  5.7445e+000 41385 93984,94036,94010
 1.2000e+000 94476 -1.9349e+000 -3.2400e+001 -2.6345e+000 40881 94326,94378,94352
 1.2000e+000 94453  6.5264e+000 -2.1890e+001  1.0877e+000 40881 94300,94378,94326
 1.2000e+000 94430 -6.5777e-001 -2.2365e+001 -1.2617e-001 40881 94300,94404,94378
 1.2000e+000 94626 -6.4668e+000 -1.2727e+001  2.6045e+000 40591 94649,94551,94525
 1.2000e+000 94603 -4.6104e-001 -1.2324e+001  3.0088e+000 40591 94781,94577,94551
 1.2000e+000 94675  9.5647e-001 -1.2253e+001  1.4434e+000 40591 94781,94551,94649
 1.2000e+000 94807  2.5338e+000 -1.3475e+001  1.2878e+000 40591 94499,94577,94781
 1.2000e+000 94830  4.8802e+000 -1.1267e+001 -7.8421e-001 40591 94499,94781,94649
 1.2000e+000 95336 -2.0884e+001 -2.5496e+001 -3.2624e+000 40187 95013,95169,95039
 1.2000e+000 95313 -1.3194e+001 -2.3841e+001 -1.3556e+000 40187 95013,95195,95169
 1.2000e+000 95290 -8.5605e+000 -2.3198e+001  2.6758e+000 40187 95039,95143,95065
 1.2000e+000 95267 -1.9020e+001 -2.6637e+001 -3.2555e+000 40187 95039,95169,95143
 1.2000e+000 95244 -1.4686e+001 -2.9573e+001 -1.2218e+000 40187 95091,95143,95117
 1.2000e+000 95221 -7.3933e+000 -2.2093e+001  3.1401e+000 40187 95065,95143,95091
 1.2000e+000 95665 -9.7773e+000 -2.0239e+001  6.7613e+000 39626 95466,95570,95544
 1.2000e+000 95642 -1.3389e+001 -1.5887e+001  4.8876e+000 39626 95440,95570,95466
 1.2000e+000 95619 -5.4986e+000 -1.9022e+001  4.4044e+000 39626 95466,95544,95492
 1.2000e+000 95596 -1.6958e+001 -1.9617e+001  3.5047e+000 39626 95492,95544,95518
 1.2000e+000 95913 -5.3064e+000 -2.0717e+001 -3.3746e+000 39136 96080,95936,95766
 1.2000e+000 95890 -3.8901e+000 -2.3060e+001 -1.0416e+000 39136 95936,95714,95688
 1.2000e+000 95867 -1.3745e+001 -2.2624e+001  1.2016e+000 39136 96008,95792,95766
 1.2000e+000 95844 -2.9472e+000 -1.9832e+001 -2.6412e+000 39136 96080,95766,95740
 1.2000e+000 95962 -9.9925e+000 -2.3696e+001 -1.9791e+000 39136 96008,95766,95936
 1.2000e+000 95985 -4.5734e+000 -2.7528e+001  2.0054e-002 39136 95818,95936,95688
 1.2000e+000 96034 -4.6251e+000 -1.8628e+001  2.0217e+000 39136 95818,95792,96008
 1.2000e+000 96057 -3.6431e+000 -2.0704e+001 -1.1451e+000 39136 95818,96008,95936
 1.2000e+000 96106 -4.2811e+000 -2.1040e+001  5.6247e-002 39136 95714,95936,96080
 1.2000e+000 96129 -3.5747e-001 -1.9753e+001  5.3083e-001 39136 95714,96080,95740
 1.2000e+000 96350 -9.4864e+000 -2.6935e+001 -7.8500e-001 38824 96200,96278,96252
 1.2000e+000 96327 -9.9660e+000 -2.6633e+001 -3.0879e-001 38824 96174,96278,96200
 1.2000e+000 96304 -9.7295e+000 -2.9054e+001 -5.4023e-001 38824 96200,96252,96226
 1.2000e+000 96830 -1.7356e+001 -3.0092e+001 -1.2595e+000 38320 97069,96536,96484
 1.2000e+000 96807 -1.6711e+001 -3.0986e+001 -1.2137e+000 38320 97069,96484,96853
 1.2000e+000 96784 -1.6741e+001 -3.1974e+001  5.4642e-001 38320 96853,96484,96458
 1.2000e+000 96761 -1.7694e+001 -2.8354e+001  7.5715e-001 38320 96925,96640,96614
 1.2000e+000 96738 -1.6039e+001 -2.6663e+001  6.8245e-003 38320 96997,96666,96640
 1.2000e+000 96715 -1.4924e+001 -3.5196e+001 -7.9948e-001 38320 97141,96588,96562
 1.2000e+000 96692 -2.1167e+001 -3.3017e+001  4.5471e-001 38320 96484,96536,96510
 1.2000e+000 96879 -1.6119e+001 -3.2392e+001 -7.8900e-001 38320 97141,96562,96853
 1.2000e+000 96902 -1.5795e+001 -2.9282e+001  5.8306e-001 38320 96925,96614,96853
 1.2000e+000 96951 -1.6558e+001 -2.7698e+001  1.0655e+000 38320 96997,96640,96925
 1.2000e+000 96974 -1.5570e+001 -2.7843e+001  6.7941e-001 38320 96458,96925,96853
 1.2000e+000 97023 -1.3369e+001 -2.4495e+001 -1.2896e+000 38320 96458,96666,96997
 1.2000e+000 97046 -1.4997e+001 -2.5970e+001 -6.0273e-002 38320 96458,96997,96925
 1.2000e+000 97095 -1.8203e+001 -2.7242e+001  2.4967e+000 38320 96562,96536,97069
 1.2000e+000 97118 -1.5173e+001 -3.0275e+001 -5.6623e-001 38320 96562,97069,96853
 1.2000e+000 97167 -1.4047e+001 -3.1905e+001 -2.0198e+000 38320 96614,96588,97141
 1.2000e+000 97190 -1.5662e+001 -2.9296e+001 -1.4604e+000 38320 96614,97141,96853
 1.2000e+000 97519 -1.2235e+001 -2.9465e+001  5.9786e+000 37766 97542,97398,97372
 1.2000e+000 97496 -1.4528e+001 -2.7441e+001  4.0616e+000 37766 97542,97372,97346
 1.2000e+000 97473 -1.3259e+001 -3.5155e+001 -5.9815e-001 37766 97294,97424,97346
 1.2000e+000 97450 -1.6745e+001 -4.1488e+001  1.1586e+000 37766 97294,97346,97320
 1.2000e+000 97568 -8.4686e+000 -2.8662e+001  4.9225e+000 37766 97424,97398,97542
 1.2000e+000 97591 -1.1824e+001 -2.6726e+001  3.0586e+000 37766 97424,97542,97346
 1.2000e+000 98048 -5.7679e+000 -1.9955e+001 -6.6004e+000 37262 98071,97878,97852
 1.2000e+000 98025 -3.5595e+000 -2.4981e+001 -2.1650e+000 37262 98071,97852,97800
 1.2000e+000 98002 -3.1285e+000 -2.7828e+001 -3.3625e+000 37262 97800,97852,97826
 1.2000e+000 97979  6.2879e+000 -2.3435e+001  1.9450e+000 37262 97800,97930,97904
 1.2000e+000 97956  2.3079e+000 -3.0592e+001  1.1132e-001 37262 97774,97930,97800
 1.2000e+000 98097 -1.1507e+001 -2.2988e+001 -3.5686e+000 37262 97904,97878,98071
 1.2000e+000 98120 -6.9468e+000 -2.9625e+001  1.6485e-001 37262 97904,98071,97800
 1.2000e+000 98449 -6.3132e-001 -1.2809e+001 -1.5026e+000 36950 98472,98302,98250
 1.2000e+000 98426  1.1630e+000 -1.3040e+001 -1.5783e+000 36950 98472,98250,98354
 1.2000e+000 98403 -2.1862e+000 -1.2427e+001  1.1740e+000 36950 98250,98302,98276
 1.2000e+000 98380  1.1707e+001 -9.0060e+000 -1.4783e+000 36950 98224,98354,98250
 1.2000e+000 98498  6.7512e-001 -1.3086e+001 -6.2380e-001 36950 98328,98302,98472
 1.2000e+000 98521  2.4637e+000 -1.3456e+001 -9.8515e-001 36950 98328,98472,98354
 1.2000e+000 99125 -1.6612e+001 -1.6649e+001  2.5351e+000 36296 98704,98756,98730
 1.2000e+000 99102 -1.0939e+001 -1.7695e+001  4.4681e-001 36296 98704,98938,98756
 1.2000e+000 99079 -4.8127e+000 -1.9237e+001 -1.9502e-001 36296 99148,98938,98912
 1.2000e+000 99056 -6.3174e+000 -1.8259e+001  5.2010e+000 36296 99292,99220,98782
 1.2000e+000 99033 -5.7421e+000 -2.0646e+001 -5.9698e-001 36296 99148,98912,98834
 1.2000e+000 99010 -5.3290e+000 -1.5129e+001  5.2833e+000 36296 99292,98782,98756
 1.2000e+000 98987 -5.8578e+000 -3.1799e+001 -5.4150e+000 36296 98834,98912,98886
 1.2000e+000 98964  1.0940e+001 -3.0558e+001  3.0533e+000 36296 98834,98886,98860
 1.2000e+000 99174 -7.1361e+000 -2.3122e+001  9.1251e-001 36296 99220,98938,99148
 1.2000e+000 99197 -1.5039e+000 -2.3044e+001  7.0502e-001 36296 98808,99148,98834
 1.2000e+000 99246 -6.0719e+000 -1.7611e+001  1.6559e+001 36296 98808,98782,99220
 1.2000e+000 99269  3.6768e+000 -1.5438e+001  4.2739e+000 36296 98808,99220,99148
 1.2000e+000 99318 -5.8610e+000 -1.4768e+001  2.9689e+000 36296 98938,99220,99292
 1.2000e+000 99341 -6.1321e+000 -1.5341e+001  3.1926e+000 36296 98938,99292,98756
 1.2000e+000 99719 -7.5878e+000 -2.2483e+001  4.7226e-001 35742 99742,99471,99601
 1.2000e+000 99696 -9.2121e+000 -1.5008e+001  3.8462e+000 35742 99445,99601,99471
 1.2000e+000 99673 -7.0517e+000 -2.1258e+001 -6.0185e-001 35742 99742,99601,99575
 1.2000e+000 99650 -5.4306e+000 -2.8974e+001 -2.3241e-001 35742 99814,99549,99523
 1.2000e+000 99627 -4.5814e+000 -2.1814e+001  1.5453e+000 35742 99471,99523,99497
 1.2000e+000 99768 -4.5066e+000 -2.2081e+001  1.5293e+000 35742 99523,99471,99742
 1.2000e+000 99791 -6.8951e+000 -2.6020e+001 -1.4811e-002 35742 99814,99523,99742
 1.2000e+000 99840 -5.6906e+000 -2.5160e+001 -1.3513e+000 35742 99575,99549,99814
 1.2000e+000 99863 -6.4285e+000 -2.1217e+001 -9.9183e-001 35742 99575,99814,99742
 1.2000e+000 100111 -6.5160e+000 -1.7941e+001  3.6284e+000 35302 100134,99990,99938
 1.2000e+000 100088 -4.3692e+000 -1.5496e+001  2.2244e+000 35302 100134,99938,99912
 1.2000e+000 100065 -3.9949e+000 -1.7129e+001  1.3820e+000 35302 100206,99886,100016
 1.2000e+000 100042 -7.6884e+000 -1.8219e+001  3.2795e+000 35302 99938,99990,99964
 1.2000e+000 100160 -3.4437e+000 -1.6712e+001  2.6301e+000 35302 100016,99990,100134
 1.2000e+000 100183 -4.1642e+000 -1.6844e+001  1.4067e+000 35302 100206,100016,100134
 1.2000e+000 100232 -4.0635e+000 -1.6810e+001  1.0997e+000 35302 99912,99886,100206
 1.2000e+000 100255 -4.1490e+000 -1.6390e+001  1.1624e+000 35302 99912,100206,100134
 1.2000e+000 100586 -5.8410e+000 -1.9742e+001  1.8195e+000 35012 100609,100387,100361
 1.2000e+000 100563 -7.6100e+000 -2.0765e+001 -2.7140e-001 35012 100609,100361,100465
 1.2000e+000 100540 -1.2585e+001 -2.4795e+001  1.9692e+000 35012 100361,100491,100465
 1.2000e+000 100517  3.3030e+000 -2.4992e+001 -6.3719e-001 35012 100413,100465,100439
 1.2000e+000 100635 -2.8292e+000 -1.8554e+001  3.9145e+000 35012 100413,100387,100609
 1.2000e+000 100658 -5.1573e+000 -2.0692e+001  1.6278e+000 35012 100413,100609,100465
 1.2000e+000 100987 -9.4399e+000 -2.2871e+001  1.7649e+000 34700 100788,100866,100814
 1.2000e+000 100964 -7.9060e+000 -2.0412e+001  2.5905e+000 34700 101010,100866,100788
 1.2000e+000 100941 -8.6745e+000 -2.1256e+001  4.2082e+000 34700 100762,100892,100866
 1.2000e+000 100918 -1.1580e+001 -2.7038e+001 -7.4192e-001 34700 100814,100866,100840
 1.2000e+000 101036 -6.9058e+000 -1.9620e+001  3.3606e+000 34700 100762,100866,101010
 1.2000e+000 101493 -1.0711e+001 -2.2257e+001 -1.2580e+000 34132 101516,101349,101297
 1.2000e+000 101470 -1.4738e+001 -2.8353e+001 -3.1367e+000 34132 101588,101516,101297
 1.2000e+000 101447 -1.4954e+001 -3.0957e+001 -5.5752e+000 34132 101588,101297,101245
 1.2000e+000 101424 -6.3969e+000 -3.5243e+001 -5.9185e+000 34132 101245,101297,101271
 1.2000e+000 101401 -1.2350e+001 -2.1924e+001 -2.4396e+000 34132 101297,101349,101323
 1.2000e+000 101542 -1.1116e+001 -2.6958e+001 -7.7874e-001 34132 101375,101349,101516
 1.2000e+000 101565 -9.5606e+000 -2.5996e+001 -3.7206e-001 34132 101375,101516,101219
 1.2000e+000 101614 -1.0072e+001 -2.8710e+001 -4.8201e-001 34132 101219,101516,101588
 1.2000e+000 101637 -1.2547e+001 -3.1199e+001 -2.8261e+000 34132 101219,101588,101245
 1.2000e+000 101858 -5.1905e+000 -3.0741e+001  2.1608e+000 33720 101708,101786,101760
 1.2000e+000 101835 -9.5439e+000 -3.6333e+001  1.9007e-001 33720 101682,101786,101708
 1.2000e+000 101812 -1.1203e+001 -3.3627e+001  1.1991e+000 33720 101708,101760,101734
 1.2000e+000 102128  2.3992e+000 -2.1852e+001 -5.9624e-001 33130 101903,102007,101929
 1.2000e+000 102105  9.6959e-001 -2.6662e+001  1.4146e+000 33130 101903,102033,102007
 1.2000e+000 102082  4.3524e+000 -2.7834e+001 -6.8654e+000 33130 101929,102007,101955
 1.2000e+000 102059 -8.7031e-002 -1.7513e+001  6.3995e-001 33130 101955,102007,101981
 1.2000e+000 102461 -1.5461e+001 -3.4782e+001 -2.5547e+000 32840 102236,102340,102262
 1.2000e+000 102438 -1.3121e+001 -2.3963e+001  1.3903e+000 32840 102236,102366,102340
 1.2000e+000 102415 -9.3291e+000 -3.2852e+001 -2.3961e+000 32840 102262,102340,102288
 1.2000e+000 102392 -1.7682e+001 -3.4990e+001 -6.1313e+000 32840 102288,102340,102314
 1.2000e+000 102997 -4.2662e+000 -1.1340e+001  5.8677e+000 32493 102749,102879,102853
 1.2000e+000 102974 -4.0756e+000 -1.6007e+001 -3.1110e+000 32493 102723,102879,102749
 1.2000e+000 102951 -9.6043e+000 -1.7534e+001  2.5498e+000 32493 102749,102801,102775
 1.2000e+000 102928 -9.3633e+000 -1.7891e+001  2.7559e+000 32493 102749,102853,102801
 1.2000e+000 102905 -8.8034e+000 -1.5882e+001  3.3332e+000 32493 102801,102853,102827
 1.2000e+000 103454 -1.5772e+001 -2.8957e+001 -1.4261e+000 32089 103206,103336,103310
 1.2000e+000 103431 -1.3034e+001 -2.6216e+001  3.3863e-002 32089 103180,103336,103206
 1.2000e+000 103408 -1.8906e+001 -3.7651e+001 -3.1810e+000 32089 103206,103284,103258
 1.2000e+000 103385 -2.4003e+001 -3.5506e+001 -6.5102e+000 32089 103206,103310,103284
 1.2000e+000 103362 -1.4299e+001 -2.5400e+001  4.7532e-001 32089 103206,103258,103232
 1.2000e+000 103783 -1.9479e+001 -3.4463e+001  1.3956e+000 31742 103558,103662,103584
 1.2000e+000 103760 -1.9937e+001 -3.6695e+001 -5.9458e-002 31742 103558,103688,103662
 1.2000e+000 103737 -1.1472e+001 -2.9218e+001 -9.3019e-001 31742 103584,103662,103636
 1.2000e+000 103714 -1.5244e+001 -2.9438e+001  1.0511e+000 31742 103584,103636,103610
 1.2000e+000 104112 -5.2615e+000 -3.1991e+001  1.0443e+000 31402 103939,103991,103965
 1.2000e+000 104089  1.1977e+000 -2.4521e+001  3.9958e+000 31402 103913,103991,103939
 1.2000e+000 104066 -1.0842e+001 -3.3646e+001 -4.0570e-001 31402 103913,104017,103991
 1.2000e+000 104043 -9.3571e+000 -2.3516e+001 -6.5694e-001 31402 103887,104017,103913
 1.2000e+000 104569 -1.3451e+001 -3.0237e+001 -2.5032e-001 30998 104321,104425,104373
 1.2000e+000 104546 -6.0735e+000 -2.7269e+001 -3.7490e-001 30998 104321,104451,104425
 1.2000e+000 104523 -9.3675e+000 -2.7179e+001  1.1637e+000 30998 104373,104425,104399
 1.2000e+000 104500 -2.6088e+000 -3.8221e+001 -5.5966e+000 30998 104295,104451,104321
 1.2000e+000 104477 -1.8817e+001 -3.8404e+001  3.1379e+000 30998 104321,104373,104347
 1.2000e+000 104947 -1.2502e+001 -2.2478e+001 -2.8540e+000 30608 104751,104803,104777
 1.2000e+000 104924 -7.5986e+000 -2.3221e+001 -1.0450e+000 30608 104725,104803,104751
 1.2000e+000 104901 -1.2375e+001 -2.3576e+001  2.5101e-001 30608 104699,104803,104725
 1.2000e+000 104878 -1.1035e+001 -2.4092e+001  1.7030e+000 30608 104673,104803,104699
 1.2000e+000 104855 -6.9902e-001 -2.9781e+001 -9.4788e+000 30608 104673,104829,104803
 1.2000e+000 105276 -1.4428e+001 -2.7766e+001  6.2254e-001 30204 105427,105129,105077
 1.2000e+000 105253 -1.2248e+001 -3.1494e+001  4.1570e+000 30204 105427,105077,105051
 1.2000e+000 105230 -1.2518e+001 -2.7176e+001  7.8699e-001 30204 105077,105129,105103
 1.2000e+000 105207 -1.9448e+001 -2.4054e+001  2.7987e+000 30204 105299,105181,105155
 1.2000e+000 105325 -1.5818e+001 -2.2336e+001  2.1509e+000 30204 105129,105181,105299
 1.2000e+000 105453 -1.5847e+001 -2.9335e+001  3.9312e+000 30204 105181,105129,105427
 1.2000e+000 105476 -1.8398e+001 -3.5273e+001  8.1379e+000 30204 105181,105427,105051
 1.2000e+000 105903 -1.1349e+000 -1.5046e+001 -1.5371e+000 29700 105606,105762,105736
 1.2000e+000 105880 -4.8966e+000 -1.5953e+001  6.6448e-001 29700 105580,105762,105606
 1.2000e+000 105857 -6.4345e+000 -2.1099e+001 -9.8824e-001 29700 105606,105710,105632
 1.2000e+000 105834 -4.3167e+000 -1.6226e+001 -3.9607e-001 29700 105606,105736,105710
 1.2000e+000 105811 -1.0420e+001 -2.2719e+001  1.1086e+000 29700 105632,105710,105684
 1.2000e+000 105788 -9.0916e+000 -1.9681e+001  3.4027e-003 29700 105632,105684,105658
 1.2000e+000 106102 -8.2967e+000 -2.3722e+001  8.0822e-001 29124 105978,106030,106004
 1.2000e+000 106079 -1.0227e+001 -2.7823e+001 -8.6898e-001 29124 105926,106030,105978
 1.2000e+000 106056 -9.3525e+000 -2.5917e+001 -6.2252e-001 29124 105926,105978,105952
 1.2000e+000 106301 -2.0941e+000 -1.9735e+001 -1.9775e-002 28712 106151,106229,106203
 1.2000e+000 106278 -3.2641e+000 -2.2385e+001 -1.3795e+000 28712 106125,106229,106151
 1.2000e+000 106255 -1.9022e+000 -1.9549e+001 -1.4711e-001 28712 106151,106203,106177
 1.2000e+000 106551 -1.0018e+001 -2.6987e+001 -6.7374e-001 28258 106352,106404,106378
 1.2000e+000 106528 -1.1705e+001 -2.8425e+001  3.9226e-001 28258 106352,106456,106404
 1.2000e+000 106505 -1.2551e+001 -2.6941e+001  9.5875e-001 28258 106326,106456,106352
 1.2000e+000 106482 -1.0868e+001 -2.6235e+001  4.1347e-001 28258 106404,106456,106430
 1.2000e+000 107012 -1.0150e+001 -2.5934e+001  5.2852e+000 27818 107035,106790,106764
 1.2000e+000 106989 -8.1366e+000 -2.2596e+001  2.7286e+000 27818 107035,106764,106868
 1.2000e+000 106966 -6.9115e+000 -2.6239e+001  2.3816e+000 27818 107107,106842,106816
 1.2000e+000 106943 -1.2315e+001 -2.1467e+001  2.1333e+000 27818 106738,106868,106764
 1.2000e+000 106920 -1.3447e+001 -2.1412e+001  6.6856e+000 27818 106738,106894,106868
 1.2000e+000 107061 -5.4393e+000 -2.3808e+001  4.7245e+000 27818 106816,106790,107035
 1.2000e+000 107084 -7.7391e+000 -2.5124e+001  2.4851e+000 27818 107107,106816,107035
 1.2000e+000 107133 -7.0003e+000 -2.4535e+001  1.5445e+000 27818 106868,106842,107107
 1.2000e+000 107156 -7.4105e+000 -2.2764e+001  1.8906e+000 27818 106868,107107,107035
 1.2000e+000 107613 -1.8295e+000 -1.8997e+001  3.7961e+000 27312 107339,107469,107365
 1.2000e+000 107590  1.9237e+000 -2.0178e+001  4.7078e+000 27312 107339,107495,107469
 1.2000e+000 107567  6.7052e-001 -1.6745e+001  2.1057e+000 27312 107391,107469,107443
 1.2000e+000 107544 -8.6785e-001 -1.9415e+001  1.2416e+000 27312 107365,107469,107391
 1.2000e+000 107521 -2.4999e+000 -1.8499e+001  3.1554e+000 27312 107391,107443,107417
 1.2000e+000 107991 -1.1434e+001 -3.3736e+001  5.5406e-001 26858 108086,108014,107795
 1.2000e+000 107968 -1.0913e+001 -3.3430e+001  7.6899e-001 26858 108014,107717,107873
 1.2000e+000 107945 -1.1737e+001 -3.5962e+001  1.4437e-001 26858 108158,108086,107795
 1.2000e+000 107922 -1.1765e+001 -3.9142e+001  1.3395e+000 26858 108158,107795,107769
 1.2000e+000 107899 -1.2041e+001 -3.7054e+001  5.1644e+000 26858 107821,107873,107847
 1.2000e+000 108040 -1.1282e+001 -3.4760e+001  9.5867e-001 26858 107821,107795,108014
 1.2000e+000 108063 -1.0914e+001 -3.3649e+001  7.5663e-001 26858 107821,108014,107873
 1.2000e+000 108112 -1.0510e+001 -3.3422e+001  2.5426e-001 26858 107717,108014,108086
 1.2000e+000 108135 -1.1414e+001 -3.0731e+001 -9.4953e-001 26858 107717,108086,107743
 1.2000e+000 108184 -1.2364e+001 -3.2090e+001  4.1590e-001 26858 107743,108086,108158
 1.2000e+000 108207 -1.1624e+001 -3.4715e+001  8.5676e-001 26858 107743,108158,107769
 1.2000e+000 108634 -1.1794e+001 -2.9174e+001 -4.6821e-001 26404 108657,108415,108363
 1.2000e+000 108611 -1.2658e+001 -2.9618e+001  1.9078e+000 26404 108657,108363,108337
 1.2000e+000 108588 -1.3508e+001 -3.0658e+001  1.3706e+000 26404 108729,108311,108467
 1.2000e+000 108565 -1.1714e+001 -3.2173e+001 -2.9731e-001 26404 108801,108441,108415
 1.2000e+000 108542 -1.2093e+001 -3.1637e+001  6.4402e+000 26404 108311,108493,108467
 1.2000e+000 108519 -9.0257e+000 -2.8606e+001 -2.0161e-001 26404 108363,108415,108389
 1.2000e+000 108683 -1.3732e+001 -3.0281e+001 -3.7977e-003 26404 108801,108415,108657
 1.2000e+000 108706 -1.3924e+001 -3.0626e+001  1.3463e+000 26404 108729,108467,108657
 1.2000e+000 108755 -1.3348e+001 -3.0656e+001  1.3454e+000 26404 108337,108311,108729
 1.2000e+000 108778 -1.3559e+001 -3.0472e+001  1.2735e+000 26404 108337,108729,108657
 1.2000e+000 108827 -1.3839e+001 -3.5568e+001 -1.3896e+000 26404 108467,108441,108801
 1.2000e+000 108850 -1.5119e+001 -3.2514e+001 -1.0048e+000 26404 108467,108801,108657
 1.2000e+000 109228 -6.2449e+000 -2.5399e+001 -7.8754e-002 26064 109006,109084,109058
 1.2000e+000 109205 -6.8689e+000 -2.4768e+001  1.1528e+000 26064 108980,109084,109006
 1.2000e+000 109182 -6.0173e+000 -2.2398e+001 -8.7717e-001 26064 108980,109110,109084
 1.2000e+000 109159 -5.8304e+000 -2.8706e+001  2.3737e+000 26064 109006,109058,109032
 1.2000e+000 109136 -7.9584e-001 -1.6845e+001  1.3364e+000 26064 108954,109110,108980
 1.2000e+000 109427 -7.4031e+000 -2.5203e+001 -5.4600e+000 25660 109303,109355,109329
 1.2000e+000 109404 -9.1238e+000 -2.7989e+001 -9.9129e-001 25660 109277,109355,109303
 1.2000e+000 109381 -9.8812e+000 -2.7703e+001 -8.8784e-001 25660 109251,109355,109277
 1.2000e+000 109577 -4.4185e+000 -1.8158e+001  9.2046e+000 25306 109476,109528,109502
 1.2000e+000 109554  8.3358e-003 -2.1247e+001  2.1747e+000 25306 109450,109528,109476
 1.2000e+000 109778 -1.8670e+000 -2.1333e+001  1.1209e+000 24944 109628,109706,109654
 1.2000e+000 109755 -2.9971e+000 -2.2867e+001  5.8903e-001 24944 109602,109706,109628
 1.2000e+000 109732 -2.5388e-004 -2.0680e+001 -2.0906e+000 24944 109654,109706,109680
 1.2000e+000 110126 -1.4190e+001 -3.8889e+001  2.2273e+000 24440 110149,109907,109855
 1.2000e+000 110103 -1.5240e+001 -4.0754e+001  3.1756e+000 24440 110149,109855,109985
 1.2000e+000 110080 -1.1205e+001 -3.5838e+001  4.7164e-001 24440 109855,109907,109881
 1.2000e+000 110057 -1.1128e+001 -3.3871e+001  8.5725e+000 24440 109829,109985,109855
 1.2000e+000 110034 -1.4360e+001 -3.9254e+001 -3.3291e-001 24440 109907,109959,109933
 1.2000e+000 110011 -1.7087e+001 -3.7550e+001  3.6046e+000 24440 109803,109985,109829
 1.2000e+000 110175 -1.4458e+001 -3.6540e+001  7.3615e-001 24440 109959,109907,110149
 1.2000e+000 110198 -1.6305e+001 -3.8648e+001  1.9372e+000 24440 109959,110149,109985
 1.2000e+000 110301 -4.3040e+000 -4.0908e+001 -4.0899e+000 24028 110223,110275,110249
 1.2000e+000 110573 -2.4830e+000 -2.7379e+001 -1.1478e-001 23467 110400,110452,110426
 1.2000e+000 110550  8.5176e-001 -2.2859e+001  1.5696e+000 23467 110374,110452,110400
 1.2000e+000 110527 -5.8228e+000 -2.5716e+001  1.7142e+000 23467 110348,110452,110374
 1.2000e+000 110504 -2.0558e+000 -2.2490e+001  3.2166e-001 23467 110348,110478,110452
 1.2000e+000 111004 -1.5221e+001 -3.2698e+001 -1.6956e+000 22963 111027,110733,110707
 1.2000e+000 110981 -1.4243e+001 -3.0976e+001  2.3867e+000 22963 111027,110707,110681
 1.2000e+000 110958 -4.4411e+000 -2.6468e+001  4.5589e-001 22963 111099,110759,110733
 1.2000e+000 110935 -9.1946e+000 -2.9177e+001 -1.8567e+000 22963 111171,110863,110811
 1.2000e+000 110912  7.0153e-001 -2.2833e+001 -8.8384e-001 22963 110759,110811,110785
 1.2000e+000 110889 -1.0395e+001 -3.1979e+001 -1.6427e+000 22963 110811,110863,110837
 1.2000e+000 111053 -9.7038e+000 -2.8401e+001  5.7052e-001 22963 111099,110733,111027
 1.2000e+000 111076 -8.9184e+000 -3.0255e+001 -1.6639e+000 22963 111171,110811,111027
 1.2000e+000 111125 -4.8392e+000 -2.7128e+001 -3.0241e+000 22963 110811,110759,111099
 1.2000e+000 111148 -6.3872e+000 -2.7966e+001 -3.3885e+000 22963 110811,111099,111027
 1.2000e+000 111197 -9.2195e+000 -2.7468e+001 -2.1052e+000 22963 110681,110863,111171
 1.2000e+000 111220 -9.3605e+000 -2.8743e+001 -1.4368e+000 22963 110681,111171,111027
 1.2000e+000 111726 -1.2528e+001 -2.9167e+001  4.8243e-001 22459 111749,111507,111429
 1.2000e+000 111703 -9.9934e+000 -2.8219e+001 -7.9476e-001 22459 111749,111429,111585
 1.2000e+000 111680 -3.9823e+000 -3.0769e+001  7.0841e-001 22459 111403,111585,111429
 1.2000e+000 111657 -1.1479e+001 -3.5118e+001  7.1047e-001 22459 111507,111559,111533
 1.2000e+000 111634 -2.2056e+001 -3.2441e+001  6.5537e-001 22459 111455,111507,111481
 1.2000e+000 111611 -1.7503e+001 -2.9772e+001  2.2713e+000 22459 111429,111507,111455
 1.2000e+000 111775 -1.1990e+001 -3.1202e+001  2.5821e+000 22459 111559,111507,111749
 1.2000e+000 111798 -9.7709e+000 -2.9415e+001  1.2691e+000 22459 111559,111749,111585
 1.2000e+000 112046 -2.4879e+000 -2.5267e+001 -8.0239e-002 21898 112069,111925,111873
 1.2000e+000 112023 -1.8111e+000 -2.4200e+001  1.4791e+000 21898 112069,111873,111847
 1.2000e+000 112000 -2.4767e+000 -2.6289e+001 -6.2384e-001 21898 111821,111951,111847
 1.2000e+000 111977 -6.3983e+000 -2.2275e+001  6.8546e-002 21898 111873,111925,111899
 1.2000e+000 112095 -4.8060e+000 -2.5743e+001 -1.4657e+000 21898 111951,111925,112069
 1.2000e+000 112118 -3.3028e+000 -2.4504e+001  7.5792e-002 21898 111951,112069,111847
 1.2000e+000 112498 -1.2039e+001 -2.7084e+001 -1.1833e+000 21608 112521,112276,112224
 1.2000e+000 112475 -1.0221e+001 -2.7954e+001  7.2939e-001 21608 112521,112224,112380
 1.2000e+000 112452 -1.1256e+001 -2.9978e+001  7.9332e-001 21608 112302,112380,112354
 1.2000e+000 112429 -1.4908e+001 -3.1120e+001  6.6751e-002 21608 112224,112276,112250
 1.2000e+000 112406 -1.1959e+000 -3.0806e+001 -1.1713e+000 21608 112302,112354,112328
 1.2000e+000 112547 -1.0447e+001 -2.3324e+001 -7.8113e-001 21608 112302,112276,112521
 1.2000e+000 112570 -9.8160e+000 -2.6346e+001  7.6064e-001 21608 112302,112521,112380
 1.2000e+000 112948 -1.5064e+001 -3.2672e+001 -1.4851e+000 20882 112971,112752,112700
 1.2000e+000 112925 -1.0676e+001 -3.1520e+001 -3.2465e+000 20882 112971,112700,112830
 1.2000e+000 112902 -1.8503e+001 -3.4942e+001  1.1054e-001 20882 112778,112830,112804
 1.2000e+000 112879 -1.0491e+001 -2.5731e+001 -4.2251e+000 20882 112674,112830,112700
 1.2000e+000 112856 -1.6789e+001 -3.2717e+001 -9.4837e-001 20882 112700,112752,112726
 1.2000e+000 112997 -1.5499e+001 -3.3387e+001  8.8357e-001 20882 112778,112752,112971
 1.2000e+000 113020 -1.2922e+001 -3.2919e+001 -9.2543e-001 20882 112778,112971,112830
 1.2000e+000 113526 -1.1869e+001 -3.3914e+001 -7.7944e-001 20428 113255,113385,113333
 1.2000e+000 113503 -1.2156e+001 -3.2978e+001 -1.3347e+000 20428 113229,113385,113255
 1.2000e+000 113480 -2.5139e+000 -3.2209e+001 -1.7384e-001 20428 113255,113333,113281
 1.2000e+000 113457 -1.0819e+001 -3.0824e+001 -2.7133e-001 20428 113203,113385,113229
 1.2000e+000 113434 -8.7369e+000 -3.3516e+001 -2.1163e+000 20428 113281,113333,113307
 1.2000e+000 113411 -1.4370e+001 -3.2652e+001 -2.6404e-001 20428 113333,113385,113359
 1.2000e+000 113774 -4.8895e+000 -2.7008e+001  1.1934e+000 19917 113797,113601,113549
 1.2000e+000 113751 -6.4313e+000 -2.7223e+001  1.3551e+000 19917 113869,113797,113549
 1.2000e+000 113728 -6.2521e+000 -2.7331e+001  1.9156e+000 19917 113869,113549,113679
 1.2000e+000 113705 -4.1291e+000 -2.6704e+001  3.9577e-001 19917 113549,113601,113575
 1.2000e+000 113823 -6.3789e+000 -2.7267e+001  4.2891e-001 19917 113627,113601,113797
 1.2000e+000 113846 -7.0026e+000 -2.6401e+001  1.2150e+000 19917 113627,113797,113653
 1.2000e+000 113895 -6.0185e+000 -2.6082e+001  1.2875e+000 19917 113653,113797,113869
 1.2000e+000 113918 -5.9698e+000 -2.6224e+001  1.9666e+000 19917 113653,113869,113679
 1.2000e+000 114166 -1.5211e+001 -3.2176e+001 -1.3031e+000 19413 113993,114045,114019
 1.2000e+000 114143 -9.7522e+000 -2.8880e+001  2.6662e-001 19413 113967,114045,113993
 1.2000e+000 114120 -1.1131e+001 -2.9591e+001  1.2691e+000 19413 113967,114071,114045
 1.2000e+000 114097 -2.5749e+000 -3.3902e+001 -1.6297e+000 19413 113941,114071,113967
 1.2000e+000 114438 -4.4755e+000 -2.5857e+001 -4.4276e-001 19001 114213,114265,114239
 1.2000e+000 114415 -3.2442e+000 -2.1860e+001 -3.8633e-001 19001 114213,114343,114265
 1.2000e+000 114392 -5.8770e+000 -2.7526e+001 -1.2136e+000 19001 114265,114343,114317
 1.2000e+000 114369 -2.4112e+000 -2.5226e+001  4.0226e-001 19001 114265,114317,114291
 1.2000e+000 114639 -4.8984e+000 -2.5506e+001 -6.3094e-001 18554 114489,114541,114515
 1.2000e+000 114616 -1.2868e+000 -2.5531e+001 -1.1055e+000 18554 114489,114567,114541
 1.2000e+000 114593  3.4797e+000 -2.3086e+001  3.4350e-001 18554 114463,114567,114489
 1.2000e+000 115043 -9.5412e+000 -2.9688e+001  6.8578e-001 18164 114795,114925,114821
 1.2000e+000 115020 -7.1315e+000 -3.2416e+001  2.4712e+000 18164 114769,114925,114795
 1.2000e+000 114997 -8.5004e+000 -3.0670e+001 -1.9351e-001 18164 115066,114873,114821
 1.2000e+000 114974 -7.7410e+000 -2.7386e+001 -3.1636e-001 18164 115066,114821,114925
 1.2000e+000 114951 -5.0592e+000 -2.9372e+001 -1.5879e-001 18164 114821,114873,114847
 1.2000e+000 115092 -1.0164e+001 -2.8262e+001 -2.0186e+000 18164 114899,114873,115066
 1.2000e+000 115115 -8.3162e+000 -2.3285e+001 -2.2033e+000 18164 114899,115066,114925
 1.2000e+000 115265 -1.4117e+001 -3.7043e+001  3.1470e-001 17852 115164,115216,115190
 1.2000e+000 115242 -1.3529e+001 -3.7996e+001  4.9270e-001 17852 115138,115216,115164
 1.2000e+000 115464 -7.4762e+000 -3.2271e+001  3.0942e+000 17346 115288,115366,115340
 1.2000e+000 115441 -2.5708e+001 -2.7131e+001  3.2990e+000 17346 115288,115392,115366
 1.2000e+000 115418 -1.0820e+001 -4.4458e+001 -1.8920e+000 17346 115288,115340,115314
 1.2000e+000 115736 -1.1913e+001 -3.2777e+001 -4.0764e-002 16942 115563,115641,115615
 1.2000e+000 115713 -1.1841e+001 -3.0110e+001 -6.4147e-001 16942 115511,115641,115563
 1.2000e+000 115690 -2.5899e+001 -3.7303e+001  2.7073e+000 16942 115563,115615,115589
 1.2000e+000 115667 -1.5179e+001 -3.6904e+001  6.2018e-001 16942 115511,115563,115537
 1.2000e+000 116091 -1.0597e+001 -2.8104e+001 -1.0711e+000 16388 115918,115970,115944
 1.2000e+000 116068 -9.3216e+000 -2.3373e+001 -8.7981e-001 16388 115918,115996,115970
 1.2000e+000 116045 -1.2300e+001 -2.7652e+001  4.4300e-001 16388 115892,115996,115918
 1.2000e+000 116022 -1.2659e+001 -3.0229e+001  3.5936e-001 16388 115866,115996,115892
 1.2000e+000 116192 -3.7866e+000 -4.2434e+001 -7.6688e+000 15810 116114,116166,116140
 1.2000e+000 116342 -2.2732e+000 -2.6789e+001  1.4677e+000 15419 116241,116293,116267
 1.2000e+000 116319 -2.9859e+000 -3.1272e+001 -2.0844e-001 15419 116215,116293,116241
 1.2000e+000 116445 -1.3988e+001 -3.0610e+001 -1.3565e+000 421 116367,116419,116393
 1.3000e+000 68477 -2.6098e+001 -4.3087e+001  1.6537e+000 68018 68327,68379,68353
 1.3000e+000 68454 -2.8304e+001 -5.8752e+001  6.1766e+000 68018 68301,68379,68327
 1.3000e+000 68431 -1.6187e+001 -7.2300e+001  1.0590e+001 68018 68301,68405,68379
 1.3000e+000 68578 -8.3025e+000 -4.5261e+001  1.5717e+000 67820 68500,68552,68526
 1.3000e+000 68728 -1.5790e+001 -4.5080e+001  1.3641e-001 67508 68601,68653,68627
 1.3000e+000 68705 -3.2078e+001 -2.8382e+001 -6.9149e+000 67508 68601,68679,68653
 1.3000e+000 68927  6.1436e+000 -2.7923e+001 -3.1688e+000 67310 68777,68829,68803
 1.3000e+000 68904 -3.6433e+000 -3.3405e+001  6.0088e-001 67310 68751,68829,68777
 1.3000e+000 68881 -6.4403e+000 -3.6194e+001 -9.4182e-001 67310 68751,68855,68829
 1.3000e+000 69386  1.4272e-001 -4.3348e+001  8.2177e-001 67020 69216,69268,69242
 1.3000e+000 69363 -1.7276e+000 -3.3295e+001 -5.0265e+000 67020 69138,69268,69216
 1.3000e+000 69340  1.9439e+001 -3.4337e+001 -1.0715e+001 67020 69112,69268,69138
 1.3000e+000 69317 -1.0883e+001 -3.6883e+001  2.3919e+000 67020 69138,69190,69164
 1.3000e+000 69294 -9.9724e+000 -3.0021e+001 -1.7120e+000 67020 69138,69216,69190
 1.3000e+000 69536  1.2574e+000 -5.1551e+001 -8.0910e+000 66708 69435,69487,69461
 1.3000e+000 69513  3.6805e+001 -6.0974e+001 -1.6665e+000 66708 69409,69487,69435
 1.3000e+000 69735 -1.7834e+001 -5.0736e+001  1.8492e+000 66346 69585,69637,69611
 1.3000e+000 69712 -1.2838e+001 -5.0854e+001  7.5465e-001 66346 69559,69637,69585
 1.3000e+000 69689 -1.1179e+001 -5.2361e+001 -5.1765e+000 66346 69559,69663,69637
 1.3000e+000 69985 -1.8242e+001 -4.5231e+001  1.1948e+000 66148 69786,69890,69864
 1.3000e+000 69962 -2.1928e+001 -4.7063e+001  1.8036e+000 66148 69760,69890,69786
 1.3000e+000 69939 -8.6321e+000 -4.1463e+001 -8.1592e+000 66148 69786,69864,69838
 1.3000e+000 69916 -1.4423e+001 -4.8219e+001 -2.3624e+000 66148 69786,69838,69812
 1.3000e+000 70137  4.9693e+000 -3.1478e+001 -1.5302e+000 65950 70036,70088,70062
 1.3000e+000 70114  1.6514e+001 -3.3915e+001  3.9168e+000 65950 70010,70088,70036
 1.3000e+000 70470  5.7486e+000 -2.3995e+001 -1.6951e+000 65546 70245,70323,70271
 1.3000e+000 70447  3.8010e+000 -2.6547e+001 -3.5740e-001 65546 70245,70375,70323
 1.3000e+000 70424  8.2485e-001 -3.4977e+001 -1.0044e+000 65546 70323,70375,70349
 1.3000e+000 70401  5.7022e+000 -2.4779e+001 -1.1813e+000 65546 70271,70323,70297
 1.3000e+000 70620 -2.3302e+000 -4.4018e+001  2.7694e+000 65348 70493,70545,70519
 1.3000e+000 70597 -1.7101e+000 -4.9573e+001  1.6236e+000 65348 70493,70571,70545
 1.3000e+000 70721 -1.4838e+001 -3.2715e+001 -1.0199e+000 65150 70643,70695,70669
 1.3000e+000 71020  3.4600e+000 -1.9786e+001 -2.0613e+000 64952 71043,70850,70824
 1.3000e+000 70997  3.6991e+000 -1.9041e+001 -1.9373e+000 64952 71043,70824,70772
 1.3000e+000 70974  2.9529e+000 -2.8823e+001  1.2518e+000 64952 71115,70746,70876
 1.3000e+000 70951 -1.0307e+000 -3.0325e+001  1.0682e+000 64952 70746,70902,70876
 1.3000e+000 70928  5.9527e+000 -2.4231e+001  1.5497e+000 64952 70772,70824,70798
 1.3000e+000 71069  5.2494e+000 -1.7637e+001  1.3507e+000 64952 70876,70850,71043
 1.3000e+000 71092  1.9976e+000 -2.5302e+001  8.6927e-001 64952 71115,70876,71043
 1.3000e+000 71141  1.5772e+000 -2.5026e+001 -1.4859e+000 64952 70772,70746,71115
 1.3000e+000 71164  2.3384e+000 -1.9604e+001 -2.1603e+000 64952 70772,71115,71043
 1.3000e+000 71365  4.8684e+000 -2.5166e+001 -1.3935e+000 64662 71215,71293,71267
 1.3000e+000 71342  1.1757e+001 -1.4118e+001 -4.7226e+000 64662 71189,71293,71215
 1.3000e+000 71319  1.0604e+001 -8.4671e+000 -1.7803e+000 64662 71215,71267,71241
 1.3000e+000 71615 -4.3086e+000 -4.1972e+001  4.9711e-001 64350 71710,71638,71468
 1.3000e+000 71592 -3.5605e+000 -3.9808e+001 -1.5301e+000 64350 71638,71416,71390
 1.3000e+000 71569 -6.5496e+000 -3.6239e+001  5.4527e+000 64350 71710,71468,71442
 1.3000e+000 71546 -1.8199e+000 -4.2474e+001  1.9597e+000 64350 71390,71520,71494
 1.3000e+000 71664 -2.2980e+000 -4.1050e+001  2.3502e-001 64350 71494,71468,71638
 1.3000e+000 71687 -1.4727e+000 -4.3023e+001  9.1286e-001 64350 71494,71638,71390
 1.3000e+000 71736 -4.2590e-001 -3.0206e+001  5.5204e-001 64350 71416,71638,71710
 1.3000e+000 71759 -2.0983e+000 -2.5173e+001  6.7326e+000 64350 71416,71710,71442
 1.3000e+000 72318 -9.8230e-001 -5.9142e+001 -3.1019e+000 63837 71972,72024,71998
 1.3000e+000 72295 -3.8773e+000 -3.5500e+001 -9.4995e-002 63837 72341,71972,71946
 1.3000e+000 72272 -3.0688e+000 -2.7260e+001  2.8822e+000 63837 72413,72341,71946
 1.3000e+000 72249 -2.9231e+000 -2.4025e+001  1.9551e+000 63837 72413,71946,72128
 1.3000e+000 72226 -1.1544e+001 -2.9842e+001  3.4750e+000 63837 72024,72076,72050
 1.3000e+000 72203 -6.6341e+000 -2.4365e+001  6.0881e-001 63837 72024,72102,72076
 1.3000e+000 72180 -2.6649e-001 -2.3296e+001  3.7904e+000 63837 71946,72154,72128
 1.3000e+000 72367 -9.7275e+000 -3.9496e+001 -8.1771e+000 63837 72024,71972,72341
 1.3000e+000 72390 -4.0251e+000 -2.9432e+001 -2.4397e+000 63837 72024,72341,72102
 1.3000e+000 72439 -1.0802e+000 -3.2322e+001  1.7426e+000 63837 72102,72341,72413
 1.3000e+000 72462 -7.9366e-001 -2.8814e+001  1.2205e+000 63837 72102,72413,72128
 1.3000e+000 72791 -1.1150e+001 -2.9962e+001 -4.9112e+000 63383 72592,72696,72670
 1.3000e+000 72768 -1.2359e+001 -2.7967e+001 -9.1697e+000 63383 72566,72696,72592
 1.3000e+000 72745 -1.3127e+001 -2.5760e+001 -1.0539e+000 63383 72592,72670,72618
 1.3000e+000 72722 -1.5287e+001 -2.6597e+001 -4.4372e+000 63383 72618,72670,72644
 1.3000e+000 73297 -1.7300e+001 -2.7214e+001 -1.3939e+000 63185 73000,73156,73130
 1.3000e+000 73274 -1.7408e+001 -2.8621e+001  3.6993e+000 63185 72974,73156,73000
 1.3000e+000 73251 -1.0832e+001 -3.2941e+001 -2.4213e-001 63185 73000,73052,73026
 1.3000e+000 73228 -1.1008e+001 -2.6724e+001 -2.1606e+000 63185 73000,73130,73052
 1.3000e+000 73205 -1.2393e+001 -3.5372e+001 -6.7015e+000 63185 73052,73130,73104
 1.3000e+000 73182 -1.1706e+001 -3.8761e+001 -7.0493e+000 63185 73052,73104,73078
 1.3000e+000 73545 -3.4222e+000 -2.8863e+001 -2.2840e-001 62781 73568,73398,73372
 1.3000e+000 73522 -1.6553e+000 -2.8251e+001  1.1157e+000 62781 73568,73372,73346
 1.3000e+000 73499 -6.5843e+000 -3.1346e+001 -1.7092e+000 62781 73640,73320,73424
 1.3000e+000 73476  2.4581e-001 -2.3793e+001 -4.6222e+000 62781 73320,73450,73424
 1.3000e+000 73594 -2.2455e+000 -2.8618e+001 -5.2363e-001 62781 73424,73398,73568
 1.3000e+000 73617 -3.9639e+000 -3.0075e+001 -1.1581e+000 62781 73640,73424,73568
 1.3000e+000 73666 -5.9265e+000 -3.0225e+001  7.2154e-001 62781 73346,73320,73640
 1.3000e+000 73689 -4.5328e+000 -2.9282e+001  1.2384e+000 62781 73346,73640,73568
 1.3000e+000 74035 -5.8011e+000 -4.4392e+001 -2.4291e+000 62363 74058,73868,73842
 1.3000e+000 74012  1.9474e+000 -3.4758e+001 -8.6094e+000 62363 74130,74058,73842
 1.3000e+000 73989  5.1938e+000 -3.5984e+001 -1.2574e+001 62363 74130,73842,73816
 1.3000e+000 73966 -9.3751e+000 -5.1306e+001  2.2585e+000 62363 74202,73764,73894
 1.3000e+000 73943 -2.4272e+001 -4.3838e+001  1.9870e+000 62363 73712,73894,73764
 1.3000e+000 73920 -2.8139e+001 -4.5137e+001 -5.2698e-001 62363 73712,73764,73738
 1.3000e+000 74084 -1.4097e+000 -4.4990e+001 -9.9756e-001 62363 73894,73868,74058
 1.3000e+000 74107 -7.4342e+000 -4.7201e+001  2.7955e+000 62363 74202,73894,74058
 1.3000e+000 74156 -3.2843e+000 -4.1811e+001 -7.8750e-001 62363 73790,74058,74130
 1.3000e+000 74179  7.4187e+000 -4.1392e+001 -4.5188e+000 62363 73790,74130,73816
 1.3000e+000 74228 -1.0672e+001 -5.1928e+001 -3.3282e+000 62363 73790,73764,74202
 1.3000e+000 74251 -8.5219e+000 -4.7111e+001 -2.9106e+000 62363 73790,74202,74058
 1.3000e+000 74403  9.6994e+000 -4.6427e+001  3.5332e+000 62115 74426,74302,74276
 1.3000e+000 74380  1.3597e+001 -4.2329e+001  5.2059e+000 62115 74426,74276,74354
 1.3000e+000 74452  5.3214e+000 -4.1824e+001  2.9152e+000 62115 74328,74302,74426
 1.3000e+000 74475  9.1161e+000 -3.7642e+001  4.6065e+000 62115 74328,74426,74354
 1.3000e+000 74578  3.9062e-001 -3.2330e+001 -1.0011e+000 61825 74500,74552,74526
 1.3000e+000 74982 -2.0223e+001 -5.1940e+001  3.0181e-002 61513 75005,74734,74708
 1.3000e+000 74959 -2.0717e+001 -4.6394e+001 -1.4771e+000 61513 75005,74708,74864
 1.3000e+000 74936 -3.1915e+001 -5.3391e+001  4.5953e+000 61513 75077,74812,74734
 1.3000e+000 74913 -2.1238e+001 -4.0722e+001 -3.3813e+000 61513 74734,74786,74760
 1.3000e+000 74890 -2.3892e+001 -4.4900e+001 -1.1062e+000 61513 74734,74812,74786
 1.3000e+000 75031 -1.9025e+001 -5.3559e+001  1.0485e-001 61513 75077,74734,75005
 1.3000e+000 75054 -1.4169e+001 -5.2414e+001  8.0700e+000 61513 74838,75005,74864
 1.3000e+000 75103 -3.9275e+001 -5.7280e+001  1.5957e+001 61513 74838,74812,75077
 1.3000e+000 75126 -3.0900e+001 -6.0724e+001  1.1557e+001 61513 74838,75077,75005
 1.3000e+000 75553 -5.1260e+000 -3.8212e+001 -1.2012e+000 61060 75576,75360,75308
 1.3000e+000 75530 -1.9902e+000 -4.1969e+001  1.0398e-002 61060 75576,75308,75230
 1.3000e+000 75507 -6.3137e+000 -3.7915e+001 -3.3804e-001 61060 75308,75360,75334
 1.3000e+000 75484 -8.4260e+000 -5.6002e+001  2.0670e+000 61060 75230,75308,75256
 1.3000e+000 75461 -6.9419e+000 -4.5140e+001 -4.0883e+000 61060 75256,75308,75282
 1.3000e+000 75438 -1.0189e+001 -3.8161e+001  3.1873e+000 61060 75360,75412,75386
 1.3000e+000 75602 -7.1958e+000 -4.0506e+001 -4.8534e-002 61060 75412,75360,75576
 1.3000e+000 75625 -4.4659e+000 -4.5182e+001  1.2067e+000 61060 75412,75576,75230
 1.3000e+000 76052 -6.9179e+000 -3.5402e+001  2.0691e+000 60442 75755,75859,75833
 1.3000e+000 76029 -9.7646e+000 -3.2870e+001 -1.7941e+000 60442 75729,75859,75755
 1.3000e+000 76006 -6.6078e+000 -3.2527e+001  2.8160e+000 60442 75755,75833,75807
 1.3000e+000 75983 -6.5094e+000 -4.3226e+001  7.9519e-001 60442 75755,75807,75781
 1.3000e+000 75960  4.3201e+000 -6.8394e+001  4.9130e+000 60442 75729,75911,75859
 1.3000e+000 75937 -3.0465e+001 -1.6564e+002  1.0235e+001 60442 75859,75911,75885
 1.3000e+000 76430 -1.3975e+000 -3.0130e+001  4.6986e-001 59788 76453,76286,76234
 1.3000e+000 76407 -3.0032e+000 -3.2250e+001 -1.1820e+000 59788 76453,76234,76182
 1.3000e+000 76384 -1.4341e+000 -3.0547e+001  4.2373e-001 59788 76525,76156,76312
 1.3000e+000 76361  2.5241e+000 -4.0544e+001 -1.7909e+000 59788 76182,76234,76208
 1.3000e+000 76338  8.0860e-001 -2.6520e+001  2.3335e+000 59788 76234,76286,76260
 1.3000e+000 76479  9.2507e-001 -3.0960e+001  1.6561e+000 59788 76312,76286,76453
 1.3000e+000 76502 -7.8035e-001 -3.1121e+001  3.1876e-001 59788 76525,76312,76453
 1.3000e+000 76551 -1.3530e+000 -3.1295e+001  7.5273e-001 59788 76182,76156,76525
 1.3000e+000 76574 -1.1921e+000 -3.1583e+001  5.6783e-001 59788 76182,76525,76453
 1.3000e+000 77031 -2.7584e-002 -2.9017e+001 -2.4954e+000 59448 76835,76887,76861
 1.3000e+000 77008  7.6481e+000 -1.3097e+001 -7.3904e-002 59448 76835,76913,76887
 1.3000e+000 76985  3.5860e+000 -1.2905e+001  3.8453e+000 59448 76809,76913,76835
 1.3000e+000 76962 -5.8735e+000 -1.8193e+001 -2.5671e+000 59448 76757,76913,76809
 1.3000e+000 76939 -1.3331e+000 -1.2330e+001 -4.5400e+000 59448 76757,76809,76783
 1.3000e+000 77537 -4.1455e+000 -4.0519e+001 -9.9965e-001 58994 77560,77344,77292
 1.3000e+000 77514 -1.8325e+001 -4.2718e+001 -4.3160e+000 58994 77560,77292,77240
 1.3000e+000 77491  6.6711e+000 -3.6587e+001 -7.0435e+000 58994 77632,77214,77370
 1.3000e+000 77468 -2.3361e+001 -4.9358e+001  5.8980e+000 58994 77292,77344,77318
 1.3000e+000 77445  4.7024e+000 -6.2871e+001 -1.5821e-001 58994 77214,77396,77370
 1.3000e+000 77422 -1.7193e+001 -4.1571e+001 -6.1919e+000 58994 77240,77292,77266
 1.3000e+000 77586 -1.2012e+001 -4.4432e+001  1.2231e+000 58994 77370,77344,77560
 1.3000e+000 77609 -4.4549e+000 -4.3112e+001  1.7370e+000 58994 77632,77370,77560
 1.3000e+000 77658  1.2559e+001 -3.0237e+001 -1.7570e+001 58994 77240,77214,77632
 1.3000e+000 77681  4.0274e+000 -2.9626e+001 -9.6993e+000 58994 77240,77632,77560
 1.3000e+000 78138 -3.5630e+000 -1.8936e+001  4.4791e+000 58440 77864,77994,77890
 1.3000e+000 78115 -1.4463e+000 -6.3722e+000 -3.2323e+000 58440 77864,78020,77994
 1.3000e+000 78092 -6.4834e+000 -2.4017e+001 -3.8077e+000 58440 77942,77994,77968
 1.3000e+000 78069 -2.4367e+000 -2.3025e+001  5.5112e-001 58440 77890,77994,77942
 1.3000e+000 78046  2.9028e+000 -2.3440e+001 -3.2499e+000 58440 77890,77942,77916
 1.3000e+000 78467  4.1913e-001 -3.6985e+001  5.7451e-001 57928 78562,78490,78346
 1.3000e+000 78444 -5.0602e+000 -3.3930e+001  2.7242e+000 57928 78490,78294,78268
 1.3000e+000 78421  2.2501e+000 -3.9031e+001  2.1677e+000 57928 78562,78346,78320
 1.3000e+000 78398  5.9101e-001 -3.5488e+001  1.5039e+000 57928 78242,78372,78268
 1.3000e+000 78516 -5.8060e+000 -4.5264e+001 -2.7998e+000 57928 78372,78346,78490
 1.3000e+000 78539 -4.2549e+000 -3.5070e+001  4.7840e-001 57928 78372,78490,78268
 1.3000e+000 78588 -6.2541e+000 -3.8296e+001  7.2932e-001 57928 78294,78490,78562
 1.3000e+000 78611 -2.1346e+000 -3.8222e+001  3.1370e+000 57928 78294,78562,78320
 1.3000e+000 79068 -1.9175e+001 -4.7232e+001 -1.4879e+001 57467 78794,78924,78820
 1.3000e+000 79045 -9.0260e+000 -4.3078e+001 -1.5255e+001 57467 78794,78950,78924
 1.3000e+000 79022 -2.5148e+000 -3.6508e+001  4.3302e-001 57467 78820,78898,78872
 1.3000e+000 78999 -1.1615e+001 -5.1944e+001 -9.0083e+000 57467 78820,78924,78898
 1.3000e+000 78976 -1.6318e+000 -3.6486e+001  9.0337e-001 57467 78820,78872,78846
 1.3000e+000 79446 -1.7424e+001 -4.6291e+001  7.9235e-001 57120 79172,79302,79250
 1.3000e+000 79423 -1.3845e+001 -4.4539e+001 -3.6054e+000 57120 79172,79328,79302
 1.3000e+000 79400 -1.7155e+001 -3.7076e+001 -9.9808e-001 57120 79172,79250,79198
 1.3000e+000 79377 -7.2851e+000 -5.9193e+001  3.9983e+000 57120 79250,79302,79276
 1.3000e+000 79354 -2.2577e+001 -3.9129e+001 -1.3694e+000 57120 79198,79250,79224
 1.3000e+000 79952 -1.5917e+001 -3.2802e+001 -1.6634e-001 56773 79629,79785,79655
 1.3000e+000 79929  1.3557e+000 -2.7326e+001  1.2318e+000 56773 79629,79811,79785
 1.3000e+000 79906 -7.3257e+000 -3.6997e+001  8.0313e-001 56773 79655,79733,79681
 1.3000e+000 79883 -1.2169e+001 -3.3821e+001 -6.9740e-001 56773 79655,79785,79733
 1.3000e+000 79860 -9.5043e+000 -4.2880e+001 -7.8812e+000 56773 79733,79785,79759
 1.3000e+000 79837 -9.5833e-001 -3.3775e+001  7.6044e+000 56773 79681,79733,79707
 1.3000e+000 80281 -9.7138e+000 -3.3039e+001 -4.6905e+000 56319 80108,80160,80134
 1.3000e+000 80258 -4.4440e+000 -3.6572e+001 -3.8167e+000 56319 80056,80160,80108
 1.3000e+000 80235 -2.8278e+000 -3.3786e+001  3.5804e+000 56319 80056,80186,80160
 1.3000e+000 80212 -2.9020e+000 -4.8842e+001 -6.2455e+000 56319 80056,80108,80082
 1.3000e+000 80738  1.4422e+000 -3.3493e+001  3.6108e+000 55957 80516,80620,80594
 1.3000e+000 80715 -4.4796e+000 -2.6699e+001  4.3063e+000 55957 80464,80620,80516
 1.3000e+000 80692 -2.8111e+000 -3.8015e+001  3.0513e+000 55957 80761,80568,80542
 1.3000e+000 80669  1.1143e+000 -3.6453e+001  3.9032e+000 55957 80761,80542,80516
 1.3000e+000 80646 -5.4575e+000 -2.8771e+001  9.8593e+000 55957 80464,80516,80490
 1.3000e+000 80787 -6.8225e+000 -3.7273e+001  1.6515e+000 55957 80594,80568,80761
 1.3000e+000 80810 -3.1277e+000 -3.5808e+001  2.5399e+000 55957 80594,80761,80516
 1.3000e+000 81210 -2.1122e+000 -3.0579e+001 -3.6115e-001 55317 80936,80988,80962
 1.3000e+000 81187 -2.3065e+000 -3.2978e+001  5.2086e-001 55317 80936,81066,80988
 1.3000e+000 81164 -2.9444e+000 -3.2025e+001  2.3761e-001 55317 80936,81092,81066
 1.3000e+000 81141 -1.0045e+001 -3.7629e+001 -4.1844e+000 55317 80988,81066,81014
 1.3000e+000 81118  3.8730e+000 -2.1657e+001  1.9529e+000 55317 81014,81066,81040
 1.3000e+000 81539 -1.1841e+001 -3.6024e+001  3.0721e-001 54913 81340,81418,81392
 1.3000e+000 81516  2.4349e+000 -3.0091e+001 -3.2306e+000 54913 81340,81444,81418
 1.3000e+000 81493  1.8422e+000 -3.2024e+001 -8.4791e+000 54913 81314,81444,81340
 1.3000e+000 81470 -1.3772e+001 -4.4486e+001 -1.1670e+000 54913 81340,81392,81366
 1.3000e+000 81787 -5.2617e+000 -3.7801e+001 -5.6512e-001 54601 81588,81692,81640
 1.3000e+000 81764 -1.3483e+001 -3.9592e+001 -2.5343e+000 54601 81562,81692,81588
 1.3000e+000 81741 -2.8255e+000 -3.7868e+001  3.5215e+000 54601 81588,81640,81614
 1.3000e+000 81718 -6.7251e+000 -5.2119e+001 -6.5639e+000 54601 81640,81692,81666
 1.3000e+000 82344  2.0704e+000 -4.3861e+001 -6.9377e+000 54090 81998,82102,82076
 1.3000e+000 82321 -1.3187e+001 -5.0510e+001 -4.8981e+000 54090 81998,82154,82102
 1.3000e+000 82298 -1.4614e+001 -4.7108e+001 -4.0910e+000 54090 81972,82154,81998
 1.3000e+000 82275 -1.9236e+001 -4.4229e+001 -4.9503e+000 54090 81998,82076,82024
 1.3000e+000 82252 -2.0491e+001 -5.1548e+001  1.0892e+000 54090 81972,82180,82154
 1.3000e+000 82229 -2.1530e+001 -5.7368e+001  3.2043e-001 54090 82102,82154,82128
 1.3000e+000 82206  3.2557e+000 -3.2338e+001 -9.4920e+000 54090 82024,82076,82050
 1.3000e+000 82722 -2.1187e+001 -4.0740e+001  9.4579e-001 53579 82500,82578,82552
 1.3000e+000 82699 -1.7935e+001 -4.1606e+001  2.1307e+000 53579 82448,82578,82500
 1.3000e+000 82676 -2.0050e+001 -4.4469e+001  3.1585e+000 53579 82448,82500,82474
 1.3000e+000 82653 -2.2003e+001 -4.4420e+001  6.5915e+000 53579 82448,82604,82578
 1.3000e+000 82630 -1.5582e+001 -3.7015e+001  2.6630e+000 53579 82500,82552,82526
 1.3000e+000 83356 -5.3457e+000 -2.9774e+001 -3.9302e+000 53189 83379,83088,83036
 1.3000e+000 83333 -6.8125e+000 -3.2861e+001 -4.5386e+000 53189 83379,83036,82984
 1.3000e+000 83310  6.1960e-001 -3.0961e+001  2.0956e+000 53189 82984,83192,83166
 1.3000e+000 83287  7.0356e+000 -2.4543e+001 -3.3268e+000 53189 83036,83088,83062
 1.3000e+000 83264 -5.3040e+000 -3.9814e+001 -6.9883e+000 53189 82984,83036,83010
 1.3000e+000 83241  2.8819e+000 -4.0461e+001  3.2459e+000 53189 83114,83166,83140
 1.3000e+000 83218 -1.1179e+001 -4.2913e+001  1.9482e+000 53189 83088,83166,83114
 1.3000e+000 83405 -3.3165e+000 -3.1972e+001 -2.3323e+000 53189 83166,83088,83379
 1.3000e+000 83428 -4.7730e+000 -3.4941e+001 -3.0515e+000 53189 83166,83379,82984
 1.3000e+000 83725 -1.3277e+001 -5.4830e+001 -4.8040e+000 52585 83748,83529,83503
 1.3000e+000 83702 -4.4087e+000 -5.1594e+001 -2.9707e+000 52585 83820,83748,83503
 1.3000e+000 83679  5.1510e+000 -4.8828e+001 -1.7770e+000 52585 83820,83503,83477
 1.3000e+000 83656 -6.1637e+000 -4.5515e+001  8.2752e+000 52585 83477,83607,83581
 1.3000e+000 83633  3.6270e+000 -4.1415e+001  8.3662e+000 52585 83451,83607,83477
 1.3000e+000 83774 -9.9659e+000 -4.6269e+001 -3.3918e+000 52585 83555,83529,83748
 1.3000e+000 83797 -1.9848e+001 -5.0291e+001 -1.6810e+000 52585 83555,83748,83581
 1.3000e+000 83846 -1.3360e+001 -4.5386e+001  1.9719e+000 52585 83581,83748,83820
 1.3000e+000 83869 -6.5705e+000 -4.4392e+001  2.1253e+000 52585 83581,83820,83477
 1.3000e+000 84200 -1.3292e+001 -4.9806e+001  4.2799e-001 52024 84001,84105,84079
 1.3000e+000 84177 -4.1012e+000 -4.8334e+001 -2.2230e+000 52024 83975,84105,84001
 1.3000e+000 84154 -1.2582e+001 -5.1033e+001  1.3727e+000 52024 84001,84079,84053
 1.3000e+000 84131 -6.3976e+000 -3.4562e+001  1.0437e+001 52024 84001,84053,84027
 1.3000e+000 84399 -7.2051e+000 -4.1077e+001 -8.1756e-001 51470 84422,84275,84249
 1.3000e+000 84376 -7.5989e+000 -4.3296e+001 -1.2373e+000 51470 84422,84249,84223
 1.3000e+000 84353 -6.6474e+000 -4.6128e+001 -8.5863e+000 51470 84275,84327,84301
 1.3000e+000 84448 -6.6594e+000 -4.3007e+001 -6.0346e-001 51470 84327,84275,84422
 1.3000e+000 84471 -6.7216e+000 -4.4786e+001 -1.0337e+000 51470 84327,84422,84223
 1.3000e+000 84753 -9.8053e+000 -4.9030e+001  1.2249e+000 51073 84603,84655,84629
 1.3000e+000 84730 -3.2665e+001 -5.5705e+001  2.2217e+000 51073 84776,84655,84603
 1.3000e+000 84707 -1.0428e+000 -3.9319e+001 -1.2745e+001 51073 84577,84681,84655
 1.3000e+000 84802 -1.7120e+001 -4.5761e+001 -4.8754e+000 51073 84577,84655,84776
 1.3000e+000 85178 -4.2900e+000 -3.7183e+001  1.2045e+000 50519 85201,85008,84982
 1.3000e+000 85155 -3.5654e+000 -3.6548e+001  3.0995e+000 50519 85273,85201,84982
 1.3000e+000 85132 -5.5375e+000 -3.5581e+001  4.4860e+000 50519 85273,84982,84930
 1.3000e+000 85109  1.4294e+000 -4.4321e+001  4.5728e+000 50519 84930,84982,84956
 1.3000e+000 85086 -1.2531e+001 -4.1871e+001 -8.9557e-002 50519 85008,85060,85034
 1.3000e+000 85227 -1.1127e+001 -3.9431e+001 -6.6878e-001 50519 85060,85008,85201
 1.3000e+000 85250 -5.9145e+000 -3.6308e+001  1.1343e+000 50519 85060,85201,84904
 1.3000e+000 85299 -6.6863e+000 -3.8307e+001  2.1064e+000 50519 84904,85201,85273
 1.3000e+000 85322 -9.4516e+000 -3.6104e+001  3.7016e+000 50519 84904,85273,84930
 1.3000e+000 85958 -5.7260e+000 -3.6838e+001 -5.5809e-001 50093 85981,85768,85716
 1.3000e+000 85935 -4.3039e+000 -3.3485e+001 -4.5872e-001 50093 85981,85716,85612
 1.3000e+000 85912 -8.6306e+000 -3.4307e+001  1.4827e+000 50093 85612,85716,85664
 1.3000e+000 85889 -2.7041e+000 -3.8665e+001 -1.5768e-001 50093 85716,85768,85742
 1.3000e+000 85866 -9.9903e+000 -2.9566e+001 -4.6242e+000 50093 85664,85716,85690
 1.3000e+000 85843  1.1109e+001 -2.2093e+001 -1.0012e+000 50093 85586,85794,85612
 1.3000e+000 85820 -6.2020e+000 -5.0076e+001  3.8434e+000 50093 85612,85664,85638
 1.3000e+000 86007 -8.7386e+000 -3.9838e+001 -5.3702e+000 50093 85794,85768,85981
 1.3000e+000 86030 -4.2800e+000 -2.9986e+001 -4.0573e+000 50093 85794,85981,85612
 1.3000e+000 86131 -8.3405e-001 -5.4814e+001  9.9028e+000 49895 86053,86105,86079
 1.3000e+000 86639 -3.5727e+000 -2.7237e+001 -4.2787e+000 49391 86662,86394,86368
 1.3000e+000 86616 -3.6182e+000 -3.0544e+001 -2.7815e+000 49391 86662,86368,86342
 1.3000e+000 86593 -2.0181e+000 -2.9265e+001 -2.6125e-001 49391 86342,86498,86472
 1.3000e+000 86570  1.3178e+000 -3.0712e+001  4.2286e-002 49391 86316,86498,86342
 1.3000e+000 86547 -1.5080e+001 -4.9497e+001 -5.0540e-001 49391 86394,86472,86446
 1.3000e+000 86524  5.8315e+000 -4.7298e+001  2.4121e+000 49391 86394,86446,86420
 1.3000e+000 86688 -6.9443e+000 -3.0202e+001 -2.9660e+000 49391 86472,86394,86662
 1.3000e+000 86711 -4.2432e+000 -3.1387e+001 -2.2476e+000 49391 86472,86662,86342
 1.3000e+000 87089 -1.3976e+001 -4.5304e+001  1.2508e+000 48987 86815,86919,86867
 1.3000e+000 87066 -1.5009e+001 -4.5980e+001  1.5423e+000 48987 86815,86971,86919
 1.3000e+000 87043 -2.9578e+000 -4.8316e+001 -3.2757e+000 48987 86867,86919,86893
 1.3000e+000 87020 -1.5002e+001 -4.9155e+001  6.0739e+000 48987 86815,86867,86841
 1.3000e+000 86997 -1.4876e+001 -3.7472e+001  4.5550e+000 48987 86919,86971,86945
 1.3000e+000 87467 -3.1741e+001 -4.4551e+001  3.3012e+000 48540 87490,87245,87219
 1.3000e+000 87444 -2.2844e+001 -4.2125e+001  1.3413e+000 48540 87562,87490,87219
 1.3000e+000 87421 -2.1906e+001 -4.1664e+001  5.9515e-001 48540 87562,87219,87349
 1.3000e+000 87398 -2.2173e+001 -3.3405e+001  9.9758e-001 48540 87245,87297,87271
 1.3000e+000 87375 -1.6778e+001 -4.0662e+001  1.3032e+000 48540 87193,87349,87219
 1.3000e+000 87516 -2.2625e+001 -4.0732e+001  3.8920e+000 48540 87297,87245,87490
 1.3000e+000 87539 -2.2636e+001 -4.4050e+001  2.1244e+000 48540 87297,87490,87323
 1.3000e+000 87588 -2.2162e+001 -4.3800e+001  2.2324e+000 48540 87323,87490,87562
 1.3000e+000 87611 -2.1446e+001 -4.2808e+001  1.6019e+000 48540 87323,87562,87349
 1.3000e+000 87810 -1.2379e+001 -7.4685e+001  1.8208e+000 48136 87660,87712,87686
 1.3000e+000 87787  7.9373e-001 -4.9946e+001 -3.3299e+000 48136 87660,87738,87712
 1.3000e+000 87764 -2.1614e+001 -4.8653e+001 -1.4676e+001 48136 87634,87738,87660
 1.3000e+000 88205 -1.6827e+001 -4.9857e+001 -4.0513e+000 47210 88300,88228,87937
 1.3000e+000 88182 -1.4652e+001 -5.1617e+001 -1.0325e+000 47210 88228,87833,88041
 1.3000e+000 88159 -1.7281e+001 -5.3405e+001 -6.2922e+000 47210 88300,87937,87911
 1.3000e+000 88136 -1.6472e+001 -4.8672e+001 -4.9671e+000 47210 87833,87911,87859
 1.3000e+000 88113 -2.8758e+001 -3.9949e+001 -4.3047e+000 47210 87937,87989,87963
 1.3000e+000 88090 -1.5642e+001 -4.0994e+001  9.9447e+000 47210 87989,88041,88015
 1.3000e+000 88067 -1.9037e+001 -5.5027e+001 -6.2289e+000 47210 87859,87911,87885
 1.3000e+000 88254 -1.4999e+001 -3.7787e+001 -5.2372e+000 47210 87989,87937,88228
 1.3000e+000 88277 -1.9585e+001 -4.7673e+001 -9.1814e-001 47210 87989,88228,88041
 1.3000e+000 88326 -1.3863e+001 -4.6688e+001 -1.3252e+000 47210 87833,88228,88300
 1.3000e+000 88349 -1.4728e+001 -4.9003e+001 -3.7671e+000 47210 87833,88300,87911
 1.3000e+000 88780 -3.1258e+001 -6.1151e+001 -9.2467e+000 46642 88803,88509,88483
 1.3000e+000 88757 -1.7699e+001 -5.2921e+001 -2.4096e+000 46642 88803,88483,88639
 1.3000e+000 88734 -2.3332e+001 -4.1871e+001 -3.1105e+000 46642 88875,88561,88509
 1.3000e+000 88711 -2.6020e+001 -4.0239e+001  1.4200e+000 46642 88509,88561,88535
 1.3000e+000 88688 -1.4742e+001 -5.9611e+001  2.8568e-001 46642 88457,88639,88483
 1.3000e+000 88665 -2.9359e+001 -7.3057e+001  7.1680e-001 46642 88561,88613,88587
 1.3000e+000 88829 -2.2158e+001 -4.6628e+001 -3.8866e+000 46642 88875,88509,88803
 1.3000e+000 88852 -2.1519e+001 -5.5678e+001  4.3486e-001 46642 88613,88803,88639
 1.3000e+000 88901 -1.9494e+001 -4.8117e+001  5.6078e-001 46642 88613,88561,88875
 1.3000e+000 88924 -2.0819e+001 -5.5926e+001  1.6793e-001 46642 88613,88875,88803
 1.3000e+000 89253 -5.4149e+000 -5.0005e+001  1.7806e+000 46444 89080,89158,89132
 1.3000e+000 89230 -5.7414e+000 -5.0637e+001  1.4765e+000 46444 89028,89158,89080
 1.3000e+000 89207 -4.1882e+000 -5.2904e+001  2.0213e+000 46444 89028,89080,89054
 1.3000e+000 89184  9.3675e-001 -5.3783e+001 -3.4562e+000 46444 89080,89132,89106
 1.3000e+000 89631 -9.2978e+000 -3.7238e+001 -8.0018e-001 46040 89383,89461,89435
 1.3000e+000 89608 -8.0123e+000 -3.4134e+001 -6.7752e-001 46040 89383,89487,89461
 1.3000e+000 89585 -8.9175e+000 -4.1198e+001 -1.4180e+000 46040 89383,89435,89409
 1.3000e+000 89562 -7.0124e+000 -2.9801e+001 -2.4939e+000 46040 89383,89513,89487
 1.3000e+000 89539  4.1870e+000 -2.3694e+001 -6.6316e+000 46040 89357,89513,89383
 1.3000e+000 90009 -4.9761e+000 -3.6264e+001  6.0695e-001 45636 89813,89891,89839
 1.3000e+000 89986 -4.2090e+000 -3.0583e+001  2.9602e+000 45636 89787,89891,89813
 1.3000e+000 89963 -3.4884e+000 -3.2598e+001 -6.0871e-001 45636 89839,89891,89865
 1.3000e+000 89940 -8.3337e+000 -3.8568e+001  1.2756e+000 45636 89735,89891,89787
 1.3000e+000 89917 -9.1915e+000 -4.2849e+001  9.1627e-001 45636 89735,89787,89761
 1.3000e+000 90208 -4.9901e+000 -3.4961e+001 -5.3376e+000 45175 90231,90058,90032
 1.3000e+000 90185 -3.6577e+000 -3.4382e+001 -5.4091e+000 45175 90231,90032,90136
 1.3000e+000 90162  9.6678e-001 -3.0212e+001 -9.0904e-001 45175 90058,90110,90084
 1.3000e+000 90257 -5.9091e+000 -3.5194e+001 -3.8419e+000 45175 90110,90058,90231
 1.3000e+000 90280 -3.5629e+000 -3.4183e+001 -3.9781e+000 45175 90110,90231,90136
 1.3000e+000 90528 -2.1757e+000 -2.8296e+001 -9.4978e-001 44513 90695,90551,90407
 1.3000e+000 90505 -4.4657e+000 -2.6656e+001 -3.7497e+000 44513 90551,90355,90329
 1.3000e+000 90482 -2.7114e+000 -3.7617e+001 -3.8428e+000 44513 90623,90303,90433
 1.3000e+000 90459 -3.4975e+000 -2.5977e+001  9.8193e-001 44513 90695,90407,90381
 1.3000e+000 90577 -1.6101e+000 -2.7939e+001 -1.6609e+000 44513 90433,90407,90551
 1.3000e+000 90600 -2.4498e+000 -2.9225e+001 -2.8577e+000 44513 90623,90433,90551
 1.3000e+000 90649  1.4435e+000 -2.7951e+001 -4.1387e+000 44513 90329,90303,90623
 1.3000e+000 90672 -1.3599e+000 -2.5305e+001 -3.5761e+000 44513 90329,90623,90551
 1.3000e+000 90721 -2.3728e+000 -2.4483e+001 -2.0528e+000 44513 90355,90551,90695
 1.3000e+000 90744 -3.6311e+000 -2.2126e+001 -1.1038e+000 44513 90355,90695,90381
 1.3000e+000 91077  4.9463e-001 -2.7331e+001  5.6279e+000 44059 91100,90930,90904
 1.3000e+000 91054 -1.3764e+001 -3.4193e+001  3.5660e+000 44059 91100,90904,90982
 1.3000e+000 91031 -1.8205e+001 -3.6378e+001  1.4768e+000 44059 90878,90982,90904
 1.3000e+000 91008 -5.0999e+000 -3.1588e+001  2.1589e+000 44059 90852,90982,90878
 1.3000e+000 91126 -2.2405e+001 -3.4387e+001  2.5449e+000 44059 91172,91100,90956
 1.3000e+000 91149 -1.2947e+001 -3.2701e+001  1.8802e+000 44059 90956,91100,90982
 1.3000e+000 91198 -4.8506e+000 -2.5550e+001 -3.0670e+000 44059 90930,91100,91172
 1.3000e+000 91677 -1.6686e+001 -3.1617e+001  3.6970e+000 43549 91455,91533,91481
 1.3000e+000 91654 -6.2084e+000 -3.2309e+001  4.5992e+000 43549 91429,91533,91455
 1.3000e+000 91631 -1.6067e+001 -2.8799e+001  4.9292e+000 43549 91481,91533,91507
 1.3000e+000 91608  4.6571e+000 -2.7699e+001  3.3681e+000 43549 91429,91559,91533
 1.3000e+000 91585 -3.2197e+000 -2.0705e+001 -6.2716e+000 43549 91403,91559,91429
 1.3000e+000 92006 -1.1924e+001 -3.6487e+001 -7.0826e-001 43059 91781,91885,91807
 1.3000e+000 91983 -1.0450e+001 -3.0117e+001  3.7989e+000 43059 91781,91911,91885
 1.3000e+000 91960 -1.6207e+001 -3.7500e+001 -5.1560e-001 43059 91807,91885,91833
 1.3000e+000 91937 -5.2833e+000 -3.2992e+001 -8.6094e-001 43059 91833,91885,91859
 1.3000e+000 92561 -1.3295e+001 -3.0194e+001  1.4188e+000 42598 92584,92215,92189
 1.3000e+000 92538 -1.1456e+001 -3.1211e+001 -7.2407e-003 42598 92656,92584,92189
 1.3000e+000 92515 -9.4507e+000 -3.4910e+001  1.8753e+000 42598 92656,92189,92397
 1.3000e+000 92492 -1.7095e+001 -2.4460e+001 -3.5415e+000 42598 92241,92319,92293
 1.3000e+000 92469 -1.1971e+001 -3.2828e+001  4.7666e+000 42598 92319,92397,92371
 1.3000e+000 92446 -4.0203e+000 -4.3096e+001  1.8071e+001 42598 92319,92371,92345
 1.3000e+000 92423 -2.2739e+001 -3.0597e+001 -1.0676e+001 42598 92241,92293,92267
 1.3000e+000 92610 -1.1365e+001 -3.1024e+001 -1.1083e+000 42598 92241,92215,92584
 1.3000e+000 92633 -8.6473e+000 -2.4926e+001 -3.1230e+000 42598 92241,92584,92319
 1.3000e+000 92682 -9.4510e+000 -2.6092e+001  1.0642e+000 42598 92319,92584,92656
 1.3000e+000 92705 -6.9561e+000 -2.8832e+001  2.5468e+000 42598 92319,92656,92397
 1.3000e+000 92953 -7.4246e+000 -3.7230e+001  4.8970e+000 42094 92976,92806,92780
 1.3000e+000 92930 -9.4700e+000 -3.2975e+001  1.9091e+000 42094 92976,92780,92754
 1.3000e+000 92907  6.6536e+000 -3.1541e+001  8.7285e-001 42094 93048,92832,92806
 1.3000e+000 92884 -1.4536e+001 -3.3259e+001  1.2238e+000 42094 92728,92858,92754
 1.3000e+000 93002 -6.0165e-001 -3.2816e+001  2.8793e+000 42094 93048,92806,92976
 1.3000e+000 93025 -8.9087e+000 -3.3009e+001  2.9228e+000 42094 92858,92976,92754
 1.3000e+000 93074 -4.4624e+000 -3.3273e+001  3.2271e+000 42094 92858,92832,93048
 1.3000e+000 93097 -9.3529e+000 -3.2064e+001  4.1492e+000 42094 92858,93048,92976
 1.3000e+000 93605 -1.2617e+001 -4.4469e+001 -8.7485e-001 41846 93628,93412,93386
 1.3000e+000 93582 -1.1351e+001 -3.4187e+001 -6.3050e-001 41846 93628,93386,93308
 1.3000e+000 93559 -1.5037e+001 -3.5617e+001 -5.7218e+000 41846 93700,93464,93438
 1.3000e+000 93536 -1.7076e+001 -4.1495e+001  2.5519e+000 41846 93308,93386,93334
 1.3000e+000 93513 -1.8976e+001 -4.2472e+001  2.9654e+000 41846 93334,93386,93360
 1.3000e+000 93490 -1.6802e+001 -2.7580e+001 -4.1466e+000 41846 93282,93464,93308
 1.3000e+000 93654 -7.4946e+000 -3.6299e+001 -3.3329e+000 41846 93438,93412,93628
 1.3000e+000 93677 -1.4732e+001 -3.5965e+001 -3.1038e+000 41846 93700,93438,93628
 1.3000e+000 93726 -1.4041e+001 -3.2261e+001 -4.7987e+000 41846 93308,93464,93700
 1.3000e+000 93749 -1.3274e+001 -3.1570e+001 -2.1956e+000 41846 93308,93700,93628
 1.3000e+000 94255 -9.0794e+000 -3.8394e+001  2.6931e+000 41385 93958,94114,94088
 1.3000e+000 94232 -7.8850e+000 -4.0799e+001  1.5166e+000 41385 93932,94114,93958
 1.3000e+000 94209 -1.9693e+001 -4.5393e+001  8.0823e+000 41385 93958,94088,94062
 1.3000e+000 94186 -2.1493e+001 -3.2711e+001  6.3617e+000 41385 93958,94062,93984
 1.3000e+000 94163 -1.7140e+001 -3.0879e+001  6.7048e+000 41385 93984,94062,94036
 1.3000e+000 94140 -1.1692e+001 -4.0737e+001  8.5470e+000 41385 93984,94036,94010
 1.3000e+000 94476 -3.5704e+000 -5.1693e+001 -4.0550e+000 40881 94326,94378,94352
 1.3000e+000 94453  9.7007e+000 -3.5658e+001  1.7111e+000 40881 94300,94378,94326
 1.3000e+000 94430 -1.9247e+000 -3.6730e+001 -1.5596e-002 40881 94300,94404,94378
 1.3000e+000 94626 -9.7008e+000 -2.3549e+001  4.8252e+000 40591 94649,94551,94525
 1.3000e+000 94603  1.3958e+000 -1.7849e+001  3.2865e+000 40591 94781,94577,94551
 1.3000e+000 94675  2.9308e+000 -1.7850e+001  1.5601e+000 40591 94781,94551,94649
 1.3000e+000 94807  4.6961e+000 -1.8876e+001  1.5927e+000 40591 94499,94577,94781
 1.3000e+000 94830  7.1525e+000 -1.6738e+001 -6.6801e-001 40591 94499,94781,94649
 1.3000e+000 95336 -2.7576e+001 -3.6979e+001 -5.1108e+000 40187 95013,95169,95039
 1.3000e+000 95313 -1.4957e+001 -3.4327e+001 -1.8906e+000 40187 95013,95195,95169
 1.3000e+000 95290 -1.0537e+001 -3.4795e+001  2.9902e+000 40187 95039,95143,95065
 1.3000e+000 95267 -2.6828e+001 -4.0226e+001 -5.7976e+000 40187 95039,95169,95143
 1.3000e+000 95244 -1.9592e+001 -4.3277e+001 -2.1276e+000 40187 95091,95143,95117
 1.3000e+000 95221 -9.4398e+000 -3.1749e+001  3.7047e+000 40187 95065,95143,95091
 1.3000e+000 95665 -1.3307e+001 -3.0955e+001  8.8340e+000 39626 95466,95570,95544
 1.3000e+000 95642 -1.8679e+001 -2.5363e+001  6.0761e+000 39626 95440,95570,95466
 1.3000e+000 95619 -7.4560e+000 -2.9467e+001  4.8804e+000 39626 95466,95544,95492
 1.3000e+000 95596 -2.3322e+001 -2.9236e+001  4.0178e+000 39626 95492,95544,95518
 1.3000e+000 95913 -9.6468e+000 -3.2302e+001 -4.7862e+000 39136 96080,95936,95766
 1.3000e+000 95890 -5.4682e+000 -3.5143e+001 -1.6937e+000 39136 95936,95714,95688
 1.3000e+000 95867 -2.1712e+001 -3.4309e+001  1.7808e+000 39136 96008,95792,95766
 1.3000e+000 95844 -6.0617e+000 -3.1019e+001 -3.2804e+000 39136 96080,95766,95740
 1.3000e+000 95962 -1.6227e+001 -3.6151e+001 -2.9277e+000 39136 96008,95766,95936
 1.3000e+000 95985 -8.4723e+000 -4.3796e+001  6.8421e-001 39136 95818,95936,95688
 1.3000e+000 96034 -8.2108e+000 -2.8353e+001  3.3197e+000 39136 95818,95792,96008
 1.3000e+000 96057 -6.7844e+000 -3.1538e+001 -1.3948e+000 39136 95818,96008,95936
 1.3000e+000 96106 -7.8603e+000 -3.2001e+001  1.3089e-001 39136 95714,95936,96080
 1.3000e+000 96129 -2.1574e+000 -3.0385e+001  1.2733e+000 39136 95714,96080,95740
 1.3000e+000 96350 -1.1154e+001 -3.5856e+001 -7.3943e-001 38824 96200,96278,96252
 1.3000e+000 96327 -1.1566e+001 -3.5833e+001 -5.7392e-001 38824 96174,96278,96200
 1.3000e+000 96304 -9.9233e+000 -3.6119e+001 -1.1332e+000 38824 96200,96252,96226
 1.3000e+000 96830 -2.3196e+001 -4.2113e+001 -2.1596e+000 38320 97069,96536,96484
 1.3000e+000 96807 -2.2165e+001 -4.3417e+001 -2.1121e+000 38320 97069,96484,96853
 1.3000e+000 96784 -2.2748e+001 -4.5529e+001  1.2759e+000 38320 96853,96484,96458
 1.3000e+000 96761 -2.3687e+001 -3.5965e+001 -8.6212e-001 38320 96925,96640,96614
 1.3000e+000 96738 -2.1506e+001 -3.3007e+001  1.9127e+000 38320 96997,96666,96640
 1.3000e+000 96715 -1.9613e+001 -4.7762e+001 -1.0442e+000 38320 97141,96588,96562
 1.3000e+000 96692 -2.8332e+001 -4.7984e+001  1.0919e-001 38320 96484,96536,96510
 1.3000e+000 96879 -2.0839e+001 -4.5371e+001 -1.0928e+000 38320 97141,96562,96853
 1.3000e+000 96902 -2.1274e+001 -4.3303e+001  1.8963e-001 38320 96925,96614,96853
 1.3000e+000 96951 -2.2325e+001 -3.3346e+001  1.9618e+000 38320 96997,96640,96925
 1.3000e+000 96974 -1.9511e+001 -3.6448e+001  9.5419e-001 38320 96458,96925,96853
 1.3000e+000 97023 -1.8302e+001 -3.3135e+001  1.5066e-001 38320 96458,96666,96997
 1.3000e+000 97046 -2.1174e+001 -3.4249e+001  1.8052e-001 38320 96458,96997,96925
 1.3000e+000 97095 -2.5694e+001 -3.9747e+001  4.3674e+000 38320 96562,96536,97069
 1.3000e+000 97118 -1.9629e+001 -4.2536e+001 -1.0505e+000 38320 96562,97069,96853
 1.3000e+000 97167 -1.8357e+001 -4.4970e+001 -2.1109e+000 38320 96614,96588,97141
 1.3000e+000 97190 -2.0108e+001 -4.2869e+001 -1.7129e+000 38320 96614,97141,96853
 1.3000e+000 97519 -1.4204e+001 -3.9467e+001  1.0687e+001 37766 97542,97398,97372
 1.3000e+000 97496 -1.8101e+001 -3.5313e+001  7.3152e+000 37766 97542,97372,97346
 1.3000e+000 97473 -1.6492e+001 -4.2895e+001  1.2300e+000 37766 97294,97424,97346
 1.3000e+000 97450 -1.9799e+001 -4.9965e+001  2.1155e+000 37766 97294,97346,97320
 1.3000e+000 97568 -7.6035e+000 -3.8454e+001  8.1996e+000 37766 97424,97398,97542
 1.3000e+000 97591 -1.3330e+001 -3.4279e+001  4.9727e+000 37766 97424,97542,97346
 1.3000e+000 98048 -1.1643e+001 -2.8316e+001 -8.9223e+000 37262 98071,97878,97852
 1.3000e+000 98025 -7.3208e+000 -3.4812e+001 -1.5562e+000 37262 98071,97852,97800
 1.3000e+000 98002 -6.2582e+000 -4.0207e+001 -4.0500e+000 37262 97800,97852,97826
 1.3000e+000 97979 -7.2712e+000 -3.4786e+001  2.7025e+000 37262 97800,97930,97904
 1.3000e+000 97956  1.9937e+001 -4.5407e+001  1.2086e+001 37262 97774,97930,97800
 1.3000e+000 98097 -2.4310e+001 -3.4011e+001 -7.3214e+000 37262 97904,97878,98071
 1.3000e+000 98120 -1.3628e+001 -3.8534e+001 -5.5396e-003 37262 97904,98071,97800
 1.3000e+000 98449 -1.4364e+000 -2.0515e+001 -2.3753e+000 36950 98472,98302,98250
 1.3000e+000 98426  1.4085e+000 -2.1204e+001 -2.3892e+000 36950 98472,98250,98354
 1.3000e+000 98403 -4.0637e+000 -1.9938e+001  2.1082e+000 36950 98250,98302,98276
 1.3000e+000 98380  1.7229e+001 -1.5256e+001 -2.3795e+000 36950 98224,98354,98250
 1.3000e+000 98498  6.4608e-001 -2.0476e+001 -1.0402e+000 36950 98328,98302,98472
 1.3000e+000 98521  3.3586e+000 -2.1554e+001 -1.5028e+000 36950 98328,98472,98354
 1.3000e+000 99125 -2.4135e+001 -2.5640e+001  4.0852e+000 36296 98704,98756,98730
 1.3000e+000 99102 -1.5661e+001 -2.6959e+001  9.5180e-001 36296 98704,98938,98756
 1.3000e+000 99079 -8.4344e+000 -3.0437e+001  3.8518e-001 36296 99148,98938,98912
 1.3000e+000 99056 -1.0453e+001 -2.8124e+001  7.4918e+000 36296 99292,99220,98782
 1.3000e+000 99033 -6.9848e+000 -3.0783e+001  1.2330e+000 36296 99148,98912,98834
 1.3000e+000 99010 -8.7770e+000 -2.3411e+001  7.4193e+000 36296 99292,98782,98756
 1.3000e+000 98987 -5.7602e+000 -5.6853e+001 -1.1805e+001 36296 98834,98912,98886
 1.3000e+000 98964 -1.9419e+001 -8.7563e+001 -1.7182e+001 36296 98834,98886,98860
 1.3000e+000 99174 -1.1154e+001 -3.3732e+001  1.5539e+000 36296 99220,98938,99148
 1.3000e+000 99197 -5.9048e+000 -3.5861e+001  3.7264e+000 36296 98808,99148,98834
 1.3000e+000 99246 -7.3621e+000 -2.0825e+001  1.8243e+001 36296 98808,98782,99220
 1.3000e+000 99269  4.2153e-001 -2.3518e+001  6.1521e+000 36296 98808,99220,99148
 1.3000e+000 99318 -9.3182e+000 -2.2702e+001  4.0865e+000 36296 98938,99220,99292
 1.3000e+000 99341 -9.7353e+000 -2.3625e+001  4.2804e+000 36296 98938,99292,98756
 1.3000e+000 99719 -1.1839e+001 -3.4744e+001  4.5295e-001 35742 99742,99471,99601
 1.3000e+000 99696 -1.3779e+001 -2.3974e+001  5.3105e+000 35742 99445,99601,99471
 1.3000e+000 99673 -1.1240e+001 -3.3386e+001 -1.1740e+000 35742 99742,99601,99575
 1.3000e+000 99650 -8.6790e+000 -4.4838e+001 -3.5535e-001 35742 99814,99549,99523
 1.3000e+000 99627 -7.6349e+000 -3.3606e+001  2.3753e+000 35742 99471,99523,99497
 1.3000e+000 99768 -7.2851e+000 -3.4340e+001  2.2772e+000 35742 99523,99471,99742
 1.3000e+000 99791 -1.0916e+001 -4.0378e+001 -3.2123e-002 35742 99814,99523,99742
 1.3000e+000 99840 -8.9826e+000 -3.9073e+001 -2.0554e+000 35742 99575,99549,99814
 1.3000e+000 99863 -1.0135e+001 -3.3130e+001 -1.5231e+000 35742 99575,99814,99742
 1.3000e+000 100111 -9.6775e+000 -2.8623e+001  5.3350e+000 35302 100134,99990,99938
 1.3000e+000 100088 -6.7390e+000 -2.5649e+001  3.2730e+000 35302 100134,99938,99912
 1.3000e+000 100065 -6.0192e+000 -2.7634e+001  2.2884e+000 35302 100206,99886,100016
 1.3000e+000 100042 -1.2823e+001 -2.8108e+001  4.5675e+000 35302 99938,99990,99964
 1.3000e+000 100160 -5.5830e+000 -2.6987e+001  3.9848e+000 35302 100016,99990,100134
 1.3000e+000 100183 -6.5947e+000 -2.7174e+001  2.2693e+000 35302 100206,100016,100134
 1.3000e+000 100232 -5.4697e+000 -2.7125e+001  1.9995e+000 35302 99912,99886,100206
 1.3000e+000 100255 -6.0317e+000 -2.6579e+001  1.9877e+000 35302 99912,100206,100134
 1.3000e+000 100586 -4.7525e+000 -2.4231e+001  2.9098e+000 35012 100609,100387,100361
 1.3000e+000 100563 -7.8923e+000 -2.6057e+001 -7.9305e-001 35012 100609,100361,100465
 1.3000e+000 100540 -1.5652e+001 -3.1756e+001  2.7160e+000 35012 100361,100491,100465
 1.3000e+000 100517  9.6592e+000 -3.4368e+001 -1.7996e+000 35012 100413,100465,100439
 1.3000e+000 100635  5.6557e-001 -2.2135e+001  6.6095e+000 35012 100413,100387,100609
 1.3000e+000 100658 -3.5578e+000 -2.5927e+001  2.5615e+000 35012 100413,100609,100465
 1.3000e+000 100987 -1.4165e+001 -3.2125e+001  2.1340e+000 34700 100788,100866,100814
 1.3000e+000 100964 -1.1326e+001 -2.8732e+001  3.3981e+000 34700 101010,100866,100788
 1.3000e+000 100941 -1.2306e+001 -3.0380e+001  6.5635e+000 34700 100762,100892,100866
 1.3000e+000 100918 -1.5159e+001 -3.3278e+001 -1.3444e+000 34700 100814,100866,100840
 1.3000e+000 101036 -9.9901e+000 -2.7441e+001  4.8815e+000 34700 100762,100866,101010
 1.3000e+000 101493 -1.5564e+001 -3.3628e+001 -2.0027e+000 34132 101516,101349,101297
 1.3000e+000 101470 -2.1156e+001 -4.3399e+001 -4.7669e+000 34132 101588,101516,101297
 1.3000e+000 101447 -2.1246e+001 -4.6817e+001 -8.5124e+000 34132 101588,101297,101245
 1.3000e+000 101424 -8.6891e+000 -5.6481e+001 -8.1979e+000 34132 101245,101297,101271
 1.3000e+000 101401 -1.8563e+001 -3.3567e+001 -3.4726e+000 34132 101297,101349,101323
 1.3000e+000 101542 -1.6766e+001 -4.1074e+001 -1.0520e+000 34132 101375,101349,101516
 1.3000e+000 101565 -1.3631e+001 -4.0124e+001 -8.2506e-001 34132 101375,101516,101219
 1.3000e+000 101614 -1.4052e+001 -4.3623e+001 -1.1344e+000 34132 101219,101516,101588
 1.3000e+000 101637 -1.7680e+001 -4.7058e+001 -4.6981e+000 34132 101219,101588,101245
 1.3000e+000 101858 -5.2416e+000 -4.4094e+001  2.6817e+000 33720 101708,101786,101760
 1.3000e+000 101835 -1.0643e+001 -5.0687e+001  2.0591e-001 33720 101682,101786,101708
 1.3000e+000 101812 -1.4165e+001 -4.8273e+001  1.4889e+000 33720 101708,101760,101734
 1.3000e+000 102128  3.5452e+000 -3.3915e+001 -1.0031e+000 33130 101903,102007,101929
 1.3000e+000 102105  1.0766e+000 -4.1867e+001  2.3216e+000 33130 101903,102033,102007
 1.3000e+000 102082  6.2614e+000 -4.3023e+001 -1.0486e+001 33130 101929,102007,101955
 1.3000e+000 102059 -1.9745e-001 -2.6977e+001  1.1320e+000 33130 101955,102007,101981
 1.3000e+000 102461 -2.0513e+001 -4.9593e+001 -3.4059e+000 32840 102236,102340,102262
 1.3000e+000 102438 -1.8098e+001 -3.5957e+001  2.6114e+000 32840 102236,102366,102340
 1.3000e+000 102415 -1.2082e+001 -4.6666e+001 -3.4700e+000 32840 102262,102340,102288
 1.3000e+000 102392 -2.4986e+001 -5.0115e+001 -8.8351e+000 32840 102288,102340,102314
 1.3000e+000 102997 -9.3792e+000 -1.8617e+001  6.0925e+000 32493 102749,102879,102853
 1.3000e+000 102974 -5.7303e+000 -1.0776e+001  4.6948e+000 32493 102723,102879,102749
 1.3000e+000 102951 -1.4109e+001 -2.5808e+001  4.3137e+000 32493 102749,102801,102775
 1.3000e+000 102928 -1.3880e+001 -2.4177e+001  3.4609e+000 32493 102749,102853,102801
 1.3000e+000 102905 -1.3871e+001 -2.3461e+001  4.0894e+000 32493 102801,102853,102827
 1.3000e+000 103454 -2.1473e+001 -4.0399e+001 -1.7031e+000 32089 103206,103336,103310
 1.3000e+000 103431 -1.8566e+001 -3.8477e+001  1.6261e-002 32089 103180,103336,103206
 1.3000e+000 103408 -2.5536e+001 -5.2108e+001 -4.8206e+000 32089 103206,103284,103258
 1.3000e+000 103385 -3.2073e+001 -4.9377e+001 -9.0708e+000 32089 103206,103310,103284
 1.3000e+000 103362 -1.9381e+001 -3.5386e+001  9.9073e-001 32089 103206,103258,103232
 1.3000e+000 103783 -2.7772e+001 -4.7889e+001  9.3291e-001 31742 103558,103662,103584
 1.3000e+000 103760 -2.9815e+001 -5.4646e+001 -1.4628e+000 31742 103558,103688,103662
 1.3000e+000 103737 -1.6119e+001 -4.1629e+001 -1.4575e+000 31742 103584,103662,103636
 1.3000e+000 103714 -2.1752e+001 -4.1794e+001  1.5128e+000 31742 103584,103636,103610
 1.3000e+000 104112 -5.4944e+000 -4.2061e+001  1.5372e+000 31402 103939,103991,103965
 1.3000e+000 104089  3.7173e+000 -3.2127e+001  5.7957e+000 31402 103913,103991,103939
 1.3000e+000 104066 -1.3481e+001 -4.4140e+001  2.5139e-001 31402 103913,104017,103991
 1.3000e+000 104043 -1.1242e+001 -3.0602e+001  7.1363e-002 31402 103887,104017,103913
 1.3000e+000 104569 -1.7860e+001 -4.4514e+001 -1.2898e+000 30998 104321,104425,104373
 1.3000e+000 104546 -6.2935e+000 -3.9878e+001 -1.4583e+000 30998 104321,104451,104425
 1.3000e+000 104523 -1.1826e+001 -3.9137e+001  1.3553e+000 30998 104373,104425,104399
 1.3000e+000 104500 -6.3747e-001 -5.7142e+001 -9.7061e+000 30998 104295,104451,104321
 1.3000e+000 104477 -2.4826e+001 -5.5447e+001  2.9155e+000 30998 104321,104373,104347
 1.3000e+000 104947 -2.4911e+001 -3.6525e+001 -5.7018e+000 30608 104751,104803,104777
 1.3000e+000 104924 -1.4678e+001 -3.7030e+001 -1.8784e+000 30608 104725,104803,104751
 1.3000e+000 104901 -2.2235e+001 -3.7312e+001  4.5948e-001 30608 104699,104803,104725
 1.3000e+000 104878 -2.2734e+001 -3.8927e+001  2.4792e+000 30608 104673,104803,104699
 1.3000e+000 104855 -1.8178e+001 -3.9454e+001 -1.8804e+000 30608 104673,104829,104803
 1.3000e+000 105276 -1.8973e+001 -4.0249e+001  7.1665e-001 30204 105427,105129,105077
 1.3000e+000 105253 -1.5587e+001 -4.5930e+001  6.1645e+000 30204 105427,105077,105051
 1.3000e+000 105230 -1.6475e+001 -3.9789e+001  7.5305e-001 30204 105077,105129,105103
 1.3000e+000 105207 -2.8124e+001 -3.4578e+001  4.6717e+000 30204 105299,105181,105155
 1.3000e+000 105325 -2.2865e+001 -3.1968e+001  3.3233e+000 30204 105129,105181,105299
 1.3000e+000 105453 -2.1168e+001 -4.2660e+001  5.7838e+000 30204 105181,105129,105427
 1.3000e+000 105476 -2.5074e+001 -5.1750e+001  1.2263e+001 30204 105181,105427,105051
 1.3000e+000 105903 -1.7843e+000 -2.3500e+001 -2.2235e+000 29700 105606,105762,105736
 1.3000e+000 105880 -8.0501e+000 -2.5129e+001  1.0545e+000 29700 105580,105762,105606
 1.3000e+000 105857 -9.5245e+000 -3.1980e+001 -1.3451e+000 29700 105606,105710,105632
 1.3000e+000 105834 -6.5097e+000 -2.4725e+001 -5.7289e-001 29700 105606,105736,105710
 1.3000e+000 105811 -1.5472e+001 -3.5091e+001  1.7272e+000 29700 105632,105710,105684
 1.3000e+000 105788 -1.3216e+001 -2.9913e+001  1.9295e-001 29700 105632,105684,105658
 1.3000e+000 106102 -9.5054e+000 -3.6327e+001  3.9488e-001 29124 105978,106030,106004
 1.3000e+000 106079 -1.4863e+001 -4.1746e+001 -1.9095e+000 29124 105926,106030,105978
 1.3000e+000 106056 -1.3493e+001 -3.9745e+001 -1.7754e-001 29124 105926,105978,105952
 1.3000e+000 106301 -3.2564e+000 -3.0353e+001  9.3825e-002 28712 106151,106229,106203
 1.3000e+000 106278 -5.3308e+000 -3.4785e+001 -2.1722e+000 28712 106125,106229,106151
 1.3000e+000 106255 -2.9879e+000 -3.0006e+001 -1.7554e-001 28712 106151,106203,106177
 1.3000e+000 106551 -1.1957e+001 -4.0999e+001 -6.6074e-001 28258 106352,106404,106378
 1.3000e+000 106528 -1.5537e+001 -4.3039e+001  2.6945e-001 28258 106352,106456,106404
 1.3000e+000 106505 -1.6073e+001 -4.1680e+001  7.9518e-001 28258 106326,106456,106352
 1.3000e+000 106482 -1.4862e+001 -4.0733e+001  6.1844e-001 28258 106404,106456,106430
 1.3000e+000 107012 -1.4802e+001 -3.8880e+001  7.9886e+000 27818 107035,106790,106764
 1.3000e+000 106989 -1.1910e+001 -3.4132e+001  4.2248e+000 27818 107035,106764,106868
 1.3000e+000 106966 -1.0167e+001 -3.9862e+001  3.7656e+000 27818 107107,106842,106816
 1.3000e+000 106943 -1.9385e+001 -3.2933e+001  3.5394e+000 27818 106738,106868,106764
 1.3000e+000 106920 -2.0925e+001 -3.2680e+001  1.0060e+001 27818 106738,106894,106868
 1.3000e+000 107061 -7.3352e+000 -3.5919e+001  7.4999e+000 27818 106816,106790,107035
 1.3000e+000 107084 -1.1078e+001 -3.8286e+001  3.9577e+000 27818 107107,106816,107035
 1.3000e+000 107133 -1.1241e+001 -3.7276e+001  2.4606e+000 27818 106868,106842,107107
 1.3000e+000 107156 -1.1243e+001 -3.4471e+001  3.1171e+000 27818 106868,107107,107035
 1.3000e+000 107613  3.9259e+000 -2.6886e+001  6.1462e+000 27312 107339,107469,107365
 1.3000e+000 107590  6.2140e+000 -2.7036e+001  6.3931e+000 27312 107339,107495,107469
 1.3000e+000 107567  3.2491e+000 -2.4181e+001  3.2753e+000 27312 107391,107469,107443
 1.3000e+000 107544  4.6173e+000 -2.7686e+001  2.7529e+000 27312 107365,107469,107391
 1.3000e+000 107521 -2.7752e+000 -2.7564e+001  5.4014e+000 27312 107391,107443,107417
 1.3000e+000 107991 -1.5493e+001 -4.7842e+001  1.0608e+000 26858 108086,108014,107795
 1.3000e+000 107968 -1.4864e+001 -4.8912e+001  8.6657e-001 26858 108014,107717,107873
 1.3000e+000 107945 -1.5233e+001 -4.9837e+001  1.8204e-001 26858 108158,108086,107795
 1.3000e+000 107922 -1.4724e+001 -5.3169e+001  1.4099e+000 26858 108158,107795,107769
 1.3000e+000 107899 -1.6231e+001 -5.3851e+001  7.2509e+000 26858 107821,107873,107847
 1.3000e+000 108040 -1.5473e+001 -5.0372e+001  1.7485e+000 26858 107821,107795,108014
 1.3000e+000 108063 -1.4207e+001 -4.8046e+001  1.1524e+000 26858 107821,108014,107873
 1.3000e+000 108112 -1.3644e+001 -4.7317e+001  5.4971e-002 26858 107717,108014,108086
 1.3000e+000 108135 -1.4573e+001 -4.3922e+001 -1.3057e+000 26858 107717,108086,107743
 1.3000e+000 108184 -1.5248e+001 -4.5625e+001  6.7022e-001 26858 107743,108086,108158
 1.3000e+000 108207 -1.4225e+001 -4.8580e+001  1.1321e+000 26858 107743,108158,107769
 1.3000e+000 108634 -1.4126e+001 -4.1044e+001 -1.3722e+000 26404 108657,108415,108363
 1.3000e+000 108611 -1.5868e+001 -4.2698e+001  2.3057e+000 26404 108657,108363,108337
 1.3000e+000 108588 -1.6852e+001 -4.2473e+001  1.6920e+000 26404 108729,108311,108467
 1.3000e+000 108565 -1.5745e+001 -4.5834e+001 -9.0675e-001 26404 108801,108441,108415
 1.3000e+000 108542 -1.5629e+001 -4.4269e+001  9.1399e+000 26404 108311,108493,108467
 1.3000e+000 108519 -1.0066e+001 -4.0242e+001 -9.9640e-001 26404 108363,108415,108389
 1.3000e+000 108683 -1.8282e+001 -4.3232e+001 -5.6759e-001 26404 108801,108415,108657
 1.3000e+000 108706 -1.7446e+001 -4.3033e+001  1.4580e+000 26404 108729,108467,108657
 1.3000e+000 108755 -1.6264e+001 -4.3140e+001  1.7644e+000 26404 108337,108311,108729
 1.3000e+000 108778 -1.6599e+001 -4.3532e+001  1.6206e+000 26404 108337,108729,108657
 1.3000e+000 108827 -1.8214e+001 -5.1004e+001 -2.4106e+000 26404 108467,108441,108801
 1.3000e+000 108850 -1.9527e+001 -4.6542e+001 -2.0633e+000 26404 108467,108801,108657
 1.3000e+000 109228 -9.5293e+000 -3.9189e+001 -2.4003e-001 26064 109006,109084,109058
 1.3000e+000 109205 -1.0148e+001 -3.8171e+001  1.5380e+000 26064 108980,109084,109006
 1.3000e+000 109182 -9.3018e+000 -3.4538e+001 -1.7183e+000 26064 108980,109110,109084
 1.3000e+000 109159 -8.9196e+000 -4.4551e+001  3.7248e+000 26064 109006,109058,109032
 1.3000e+000 109136 -1.1235e+000 -2.5895e+001  1.7335e+000 26064 108954,109110,108980
 1.3000e+000 109427 -1.0794e+001 -3.8597e+001 -6.6131e+000 25660 109303,109355,109329
 1.3000e+000 109404 -1.3446e+001 -4.3357e+001 -1.4150e+000 25660 109277,109355,109303
 1.3000e+000 109381 -1.3502e+001 -4.2959e+001 -1.2512e+000 25660 109251,109355,109277
 1.3000e+000 109577 -3.2738e+000 -2.3375e+001  1.3125e+001 25306 109476,109528,109502
 1.3000e+000 109554  2.9513e+000 -2.7693e+001  3.2826e+000 25306 109450,109528,109476
 1.3000e+000 109778 -2.7554e+000 -3.2723e+001  1.6872e+000 24944 109628,109706,109654
 1.3000e+000 109755 -4.3419e+000 -3.5574e+001  1.0614e+000 24944 109602,109706,109628
 1.3000e+000 109732  2.3639e-001 -3.1752e+001 -3.5206e+000 24944 109654,109706,109680
 1.3000e+000 110126 -1.8130e+001 -5.5622e+001  3.2030e+000 24440 110149,109907,109855
 1.3000e+000 110103 -2.0269e+001 -5.7820e+001  4.2483e+000 24440 110149,109855,109985
 1.3000e+000 110080 -1.3853e+001 -5.0749e+001  8.1444e-001 24440 109855,109907,109881
 1.3000e+000 110057 -1.4120e+001 -4.6925e+001  1.2903e+001 24440 109829,109985,109855
 1.3000e+000 110034 -1.7541e+001 -5.6663e+001 -8.0787e-001 24440 109907,109959,109933
 1.3000e+000 110011 -2.3133e+001 -5.2652e+001  4.6900e+000 24440 109803,109985,109829
 1.3000e+000 110175 -1.8863e+001 -5.2582e+001  7.6777e-001 24440 109959,109907,110149
 1.3000e+000 110198 -2.2389e+001 -5.5353e+001  2.1360e+000 24440 109959,110149,109985
 1.3000e+000 110301 -4.1106e+000 -5.8418e+001 -5.9315e+000 24028 110223,110275,110249
 1.3000e+000 110573 -3.6613e+000 -4.1740e+001 -2.1152e-001 23467 110400,110452,110426
 1.3000e+000 110550  1.5561e+000 -3.4868e+001  2.4739e+000 23467 110374,110452,110400
 1.3000e+000 110527 -8.4593e+000 -3.9157e+001  2.6057e+000 23467 110348,110452,110374
 1.3000e+000 110504 -3.1444e+000 -3.4700e+001  6.6095e-001 23467 110348,110478,110452
 1.3000e+000 111004 -2.3234e+001 -4.8711e+001 -3.5421e+000 22963 111027,110733,110707
 1.3000e+000 110981 -2.2372e+001 -4.6002e+001  3.7853e+000 22963 111027,110707,110681
 1.3000e+000 110958 -6.3530e+000 -3.8886e+001  4.2101e-001 22963 111099,110759,110733
 1.3000e+000 110935 -1.3234e+001 -4.2367e+001 -3.3726e+000 22963 111171,110863,110811
 1.3000e+000 110912  7.8029e-001 -3.3765e+001 -1.7436e+000 22963 110759,110811,110785
 1.3000e+000 110889 -1.6234e+001 -5.0705e+001 -3.4349e+000 22963 110811,110863,110837
 1.3000e+000 111053 -1.4117e+001 -4.1485e+001  3.1682e-001 22963 111099,110733,111027
 1.3000e+000 111076 -1.2651e+001 -4.4813e+001 -2.9272e+000 22963 111171,110811,111027
 1.3000e+000 111125 -7.0589e+000 -4.0128e+001 -4.8001e+000 22963 110811,110759,111099
 1.3000e+000 111148 -9.4549e+000 -4.1559e+001 -5.5667e+000 22963 110811,111099,111027
 1.3000e+000 111197 -1.3421e+001 -3.8206e+001 -4.0598e+000 22963 110681,110863,111171
 1.3000e+000 111220 -1.4047e+001 -4.1278e+001 -2.4673e+000 22963 110681,111171,111027
 1.3000e+000 111726 -1.8884e+001 -4.4801e+001  2.7223e-001 22459 111749,111507,111429
 1.3000e+000 111703 -1.4700e+001 -4.3191e+001 -1.3989e+000 22459 111749,111429,111585
 1.3000e+000 111680 -5.5073e+000 -4.8008e+001  7.9958e-001 22459 111403,111585,111429
 1.3000e+000 111657 -1.7124e+001 -5.3240e+001  9.3749e-001 22459 111507,111559,111533
 1.3000e+000 111634 -3.3099e+001 -4.8552e+001  9.6027e-001 22459 111455,111507,111481
 1.3000e+000 111611 -2.6002e+001 -4.4756e+001  2.7720e+000 22459 111429,111507,111455
 1.3000e+000 111775 -1.7857e+001 -4.7618e+001  3.6254e+000 22459 111559,111507,111749
 1.3000e+000 111798 -1.4319e+001 -4.5008e+001  1.8628e+000 22459 111559,111749,111585
 1.3000e+000 112046 -3.6067e+000 -3.8618e+001 -1.2108e-001 21898 112069,111925,111873
 1.3000e+000 112023 -2.5365e+000 -3.6925e+001  2.3268e+000 21898 112069,111873,111847
 1.3000e+000 112000 -3.3772e+000 -4.0611e+001 -1.1642e+000 21898 111821,111951,111847
 1.3000e+000 111977 -9.6584e+000 -3.4018e+001  1.0005e-001 21898 111873,111925,111899
 1.3000e+000 112095 -7.2512e+000 -3.9358e+001 -2.3249e+000 21898 111951,111925,112069
 1.3000e+000 112118 -4.8846e+000 -3.7398e+001  9.5654e-002 21898 111951,112069,111847
 1.3000e+000 112498 -1.7647e+001 -4.1270e+001 -3.0689e+000 21608 112521,112276,112224
 1.3000e+000 112475 -1.4071e+001 -4.2898e+001  5.8663e-001 21608 112521,112224,112380
 1.3000e+000 112452 -1.5596e+001 -4.4319e+001  1.6813e+000 21608 112302,112380,112354
 1.3000e+000 112429 -1.9560e+001 -4.7832e+001 -2.3235e+000 21608 112224,112276,112250
 1.3000e+000 112406 -2.0356e+000 -4.7589e+001 -2.3783e+000 21608 112302,112354,112328
 1.3000e+000 112547 -1.4540e+001 -3.4102e+001 -2.2422e+000 21608 112302,112276,112521
 1.3000e+000 112570 -1.3233e+001 -3.9844e+001  6.9177e-001 21608 112302,112521,112380
 1.3000e+000 112948 -1.7890e+001 -4.7289e+001 -2.9629e+000 20882 112971,112752,112700
 1.3000e+000 112925 -1.2586e+001 -4.5784e+001 -4.7957e+000 20882 112971,112700,112830
 1.3000e+000 112902 -2.2620e+001 -5.0983e+001 -2.0119e-001 20882 112778,112830,112804
 1.3000e+000 112879 -1.1670e+001 -3.5056e+001 -6.1862e+000 20882 112674,112830,112700
 1.3000e+000 112856 -2.2329e+001 -5.1394e+001 -1.1826e+000 20882 112700,112752,112726
 1.3000e+000 112997 -1.8281e+001 -4.7837e+001 -7.1738e-002 20882 112778,112752,112971
 1.3000e+000 113020 -1.5200e+001 -4.7191e+001 -1.9821e+000 20882 112778,112971,112830
 1.3000e+000 113526 -1.5481e+001 -4.9396e+001 -6.9279e-001 20428 113255,113385,113333
 1.3000e+000 113503 -1.6322e+001 -4.9661e+001 -1.4059e+000 20428 113229,113385,113255
 1.3000e+000 113480 -9.4364e-001 -4.6825e+001  2.0956e-001 20428 113255,113333,113281
 1.3000e+000 113457 -1.4182e+001 -4.8797e+001 -1.0685e+000 20428 113203,113385,113229
 1.3000e+000 113434 -9.6290e+000 -4.9214e+001 -2.5674e+000 20428 113281,113333,113307
 1.3000e+000 113411 -1.9425e+001 -4.6443e+001 -6.1099e-003 20428 113333,113385,113359
 1.3000e+000 113774 -7.0869e+000 -4.1193e+001  1.7351e+000 19917 113797,113601,113549
 1.3000e+000 113751 -9.4763e+000 -4.1599e+001  2.0123e+000 19917 113869,113797,113549
 1.3000e+000 113728 -9.2780e+000 -4.1753e+001  2.7420e+000 19917 113869,113549,113679
 1.3000e+000 113705 -5.8744e+000 -4.0687e+001  4.7370e-001 19917 113549,113601,113575
 1.3000e+000 113823 -9.3860e+000 -4.0959e+001  5.1684e-001 19917 113627,113601,113797
 1.3000e+000 113846 -1.0607e+001 -4.0287e+001  1.7778e+000 19917 113627,113797,113653
 1.3000e+000 113895 -8.9955e+000 -3.9998e+001  1.7478e+000 19917 113653,113797,113869
 1.3000e+000 113918 -9.1711e+000 -4.0289e+001  2.6513e+000 19917 113653,113869,113679
 1.3000e+000 114166 -1.9323e+001 -4.4989e+001 -1.4402e+000 19413 113993,114045,114019
 1.3000e+000 114143 -1.3650e+001 -4.2059e+001  4.0593e-002 19413 113967,114045,113993
 1.3000e+000 114120 -1.2549e+001 -4.1729e+001  1.1881e+000 19413 113967,114071,114045
 1.3000e+000 114097 -2.7451e+000 -4.6839e+001 -2.2267e+000 19413 113941,114071,113967
 1.3000e+000 114438 -6.5666e+000 -3.9443e+001 -7.8351e-001 19001 114213,114265,114239
 1.3000e+000 114415 -5.0306e+000 -3.3885e+001 -5.3749e-001 19001 114213,114343,114265
 1.3000e+000 114392 -8.9027e+000 -4.2113e+001 -1.8926e+000 19001 114265,114343,114317
 1.3000e+000 114369 -3.6686e+000 -3.8547e+001  7.0595e-001 19001 114265,114317,114291
 1.3000e+000 114639 -7.1977e+000 -3.9013e+001 -9.4564e-001 18554 114489,114541,114515
 1.3000e+000 114616 -1.6812e+000 -3.9006e+001 -1.6825e+000 18554 114489,114567,114541
 1.3000e+000 114593  5.6564e+000 -3.5203e+001  5.5608e-001 18554 114463,114567,114489
 1.3000e+000 115043 -1.3506e+001 -4.3582e+001  1.0671e+000 18164 114795,114925,114821
 1.3000e+000 115020 -1.0183e+001 -4.6631e+001  3.4468e+000 18164 114769,114925,114795
 1.3000e+000 114997 -1.2415e+001 -4.6049e+001 -2.3889e-001 18164 115066,114873,114821
 1.3000e+000 114974 -1.1049e+001 -4.0621e+001 -3.5564e-001 18164 115066,114821,114925
 1.3000e+000 114951 -7.4679e+000 -4.3995e+001  5.1379e-002 18164 114821,114873,114847
 1.3000e+000 115092 -1.5308e+001 -4.2037e+001 -3.2958e+000 18164 114899,114873,115066
 1.3000e+000 115115 -1.2188e+001 -3.3812e+001 -3.4909e+000 18164 114899,115066,114925
 1.3000e+000 115265 -1.7257e+001 -5.1694e+001  6.5597e-001 17852 115164,115216,115190
 1.3000e+000 115242 -1.6949e+001 -5.4127e+001  6.6631e-001 17852 115138,115216,115164
 1.3000e+000 115464 -1.1442e+001 -4.9099e+001  4.4909e+000 17346 115288,115366,115340
 1.3000e+000 115441 -3.8777e+001 -4.1042e+001  4.7023e+000 17346 115288,115392,115366
 1.3000e+000 115418 -1.4890e+001 -6.6046e+001 -2.4138e+000 17346 115288,115340,115314
 1.3000e+000 115736 -1.5106e+001 -4.7903e+001  5.6005e-001 16942 115563,115641,115615
 1.3000e+000 115713 -1.4956e+001 -4.3617e+001 -3.7812e-001 16942 115511,115641,115563
 1.3000e+000 115690 -3.6437e+001 -5.5242e+001  3.7073e+000 16942 115563,115615,115589
 1.3000e+000 115667 -1.8990e+001 -5.1297e+001  1.2033e+000 16942 115511,115563,115537
 1.3000e+000 116091 -1.5947e+001 -4.2448e+001 -2.1072e+000 16388 115918,115970,115944
 1.3000e+000 116068 -1.3645e+001 -3.4402e+001 -1.6969e+000 16388 115918,115996,115970
 1.3000e+000 116045 -1.8441e+001 -4.1523e+001  4.4744e-001 16388 115892,115996,115918
 1.3000e+000 116022 -1.9252e+001 -4.5893e+001  2.0711e-001 16388 115866,115996,115892
 1.3000e+000 116192 -4.3061e+000 -6.1507e+001 -1.0934e+001 15810 116114,116166,116140
 1.3000e+000 116342 -3.1888e+000 -4.0973e+001  2.2607e+000 15419 116241,116293,116267
 1.3000e+000 116319 -4.2321e+000 -4.7816e+001 -2.9572e-001 15419 116215,116293,116241
 1.3000e+000 116445 -1.7060e+001 -4.3267e+001 -1.6457e+000 421 116367,116419,116393
 1.4000e+000 68477 -3.4981e+001 -5.6050e+001  2.2273e+000 68018 68327,68379,68353
 1.4000e+000 68454 -3.6890e+001 -7.5263e+001  7.6689e+000 68018 68301,68379,68327
 1.4000e+000 68431 -2.3375e+001 -9.1787e+001  1.2551e+001 68018 68301,68405,68379
 1.4000e+000 68578 -1.4429e+001 -6.0167e+001  1.1782e+000 67820 68500,68552,68526
 1.4000e+000 68728 -2.1622e+001 -5.7373e+001  4.3562e-002 67508 68601,68653,68627
 1.4000e+000 68705 -4.6376e+001 -4.1275e+001 -1.0705e+001 67508 68601,68679,68653
 1.4000e+000 68927  7.1575e+000 -3.8405e+001 -3.4459e+000 67310 68777,68829,68803
 1.4000e+000 68904 -4.8777e+000 -4.6359e+001  1.2720e+000 67310 68751,68829,68777
 1.4000e+000 68881 -8.1113e+000 -5.2011e+001 -2.9326e-002 67310 68751,68855,68829
 1.4000e+000 69386 -2.8707e+000 -5.7447e+001  1.1783e+000 67020 69216,69268,69242
 1.4000e+000 69363 -5.0807e+000 -4.5335e+001 -5.8245e+000 67020 69138,69268,69216
 1.4000e+000 69340  2.1364e+001 -4.8128e+001 -1.4133e+001 67020 69112,69268,69138
 1.4000e+000 69317 -1.6591e+001 -4.8242e+001  4.1852e+000 67020 69138,69190,69164
 1.4000e+000 69294 -1.6499e+001 -4.1922e+001 -1.2143e+000 67020 69138,69216,69190
 1.4000e+000 69536 -8.0857e-001 -6.7733e+001 -1.0637e+001 66708 69435,69487,69461
 1.4000e+000 69513  3.9048e+001 -8.4314e+001 -3.9397e-001 66708 69409,69487,69435
 1.4000e+000 69735 -2.4262e+001 -6.5267e+001  2.3799e+000 66346 69585,69637,69611
 1.4000e+000 69712 -1.7266e+001 -6.4098e+001  6.1100e-001 66346 69559,69637,69585
 1.4000e+000 69689 -1.4526e+001 -6.4370e+001 -6.7943e+000 66346 69559,69663,69637
 1.4000e+000 69985 -2.5782e+001 -6.2165e+001  1.6579e+000 66148 69786,69890,69864
 1.4000e+000 69962 -2.8346e+001 -6.3636e+001  2.3587e+000 66148 69760,69890,69786
 1.4000e+000 69939 -1.2429e+001 -5.5794e+001 -1.0874e+001 66148 69786,69864,69838
 1.4000e+000 69916 -1.9906e+001 -6.4950e+001 -3.7276e+000 66148 69786,69838,69812
 1.4000e+000 70137  8.0527e+000 -4.5748e+001 -4.1022e+000 65950 70036,70088,70062
 1.4000e+000 70114  1.9004e+001 -5.3206e+001  5.7029e+000 65950 70010,70088,70036
 1.4000e+000 70470  7.3011e+000 -3.4305e+001 -2.9838e-001 65546 70245,70323,70271
 1.4000e+000 70447  4.7453e+000 -3.8507e+001  1.0238e+000 65546 70245,70375,70323
 1.4000e+000 70424  4.4915e+000 -4.5566e+001  2.0535e+000 65546 70323,70375,70349
 1.4000e+000 70401  5.6928e+000 -3.5495e+001  2.5211e-001 65546 70271,70323,70297
 1.4000e+000 70620 -5.3062e+000 -5.8512e+001  3.5232e+000 65348 70493,70545,70519
 1.4000e+000 70597 -5.9687e+000 -6.5602e+001  1.8075e+000 65348 70493,70571,70545
 1.4000e+000 70721 -2.9198e+001 -5.1216e+001  1.0179e-001 65150 70643,70695,70669
 1.4000e+000 71020 -1.5013e+001 -3.2737e+001  1.6375e+000 64952 71043,70850,70824
 1.4000e+000 70997 -1.0676e+001 -2.7145e+001 -2.5138e+000 64952 71043,70824,70772
 1.4000e+000 70974 -8.2668e+000 -4.4835e+001  1.3603e+000 64952 71115,70746,70876
 1.4000e+000 70951 -1.0222e+001 -4.3495e+001  3.3107e+000 64952 70746,70902,70876
 1.4000e+000 70928 -1.3620e+001 -2.6511e+001 -3.2668e+000 64952 70772,70824,70798
 1.4000e+000 71069 -6.5429e+000 -2.8324e+001  3.8761e+000 64952 70876,70850,71043
 1.4000e+000 71092 -1.1064e+001 -3.9420e+001  2.0396e-001 64952 71115,70876,71043
 1.4000e+000 71141 -8.8529e+000 -3.9118e+001 -2.5377e+000 64952 70772,70746,71115
 1.4000e+000 71164 -8.5580e+000 -3.0643e+001 -4.3303e+000 64952 70772,71115,71043
 1.4000e+000 71365  8.9598e+000 -4.1154e+001 -2.1310e+000 64662 71215,71293,71267
 1.4000e+000 71342  2.0191e+001 -2.4970e+001 -8.2576e+000 64662 71189,71293,71215
 1.4000e+000 71319  1.7429e+001 -1.5755e+001 -3.0294e+000 64662 71215,71267,71241
 1.4000e+000 71615 -8.4386e+000 -5.6619e+001  7.0967e-001 64350 71710,71638,71468
 1.4000e+000 71592 -8.0066e+000 -5.3501e+001 -1.5460e+000 64350 71638,71416,71390
 1.4000e+000 71569 -1.1127e+001 -4.9593e+001  6.7651e+000 64350 71710,71468,71442
 1.4000e+000 71546 -3.5520e+000 -5.5502e+001  1.7548e+000 64350 71390,71520,71494
 1.4000e+000 71664 -6.9388e+000 -5.5737e+001 -1.3216e-001 64350 71494,71468,71638
 1.4000e+000 71687 -5.2187e+000 -5.6660e+001  9.6388e-001 64350 71494,71638,71390
 1.4000e+000 71736 -3.9226e+000 -4.2225e+001  1.0112e+000 64350 71416,71638,71710
 1.4000e+000 71759 -5.6891e+000 -3.5951e+001  8.5908e+000 64350 71416,71710,71442
 1.4000e+000 72318 -4.3458e+000 -8.0780e+001 -3.6353e+000 63837 71972,72024,71998
 1.4000e+000 72295 -8.4140e+000 -4.9109e+001  2.4333e-001 63837 72341,71972,71946
 1.4000e+000 72272 -7.2108e+000 -3.8587e+001  3.8150e+000 63837 72413,72341,71946
 1.4000e+000 72249 -6.1316e+000 -3.4885e+001  2.6405e+000 63837 72413,71946,72128
 1.4000e+000 72226 -1.6534e+001 -4.0576e+001  4.3016e+000 63837 72024,72076,72050
 1.4000e+000 72203 -1.0982e+001 -3.4050e+001  8.4562e-001 63837 72024,72102,72076
 1.4000e+000 72180 -4.6207e+000 -3.4505e+001  3.8397e+000 63837 71946,72154,72128
 1.4000e+000 72367 -1.5840e+001 -5.4280e+001 -1.0524e+001 63837 72024,71972,72341
 1.4000e+000 72390 -8.2216e+000 -4.0695e+001 -3.0986e+000 63837 72024,72341,72102
 1.4000e+000 72439 -3.6842e+000 -4.4492e+001  2.6417e+000 63837 72102,72341,72413
 1.4000e+000 72462 -2.7185e+000 -4.0691e+001  1.8934e+000 63837 72102,72413,72128
 1.4000e+000 72791 -1.5127e+001 -4.0713e+001 -5.2006e+000 63383 72592,72696,72670
 1.4000e+000 72768 -1.7084e+001 -3.8482e+001 -1.1236e+001 63383 72566,72696,72592
 1.4000e+000 72745 -1.8149e+001 -3.5434e+001 -2.2716e-001 63383 72592,72670,72618
 1.4000e+000 72722 -1.9558e+001 -3.4548e+001 -3.4943e+000 63383 72618,72670,72644
 1.4000e+000 73297 -2.3981e+001 -3.7671e+001 -9.8589e-001 63185 73000,73156,73130
 1.4000e+000 73274 -2.3040e+001 -3.6821e+001  4.9539e+000 63185 72974,73156,73000
 1.4000e+000 73251 -1.5177e+001 -4.5699e+001  1.1946e-002 63185 73000,73052,73026
 1.4000e+000 73228 -1.5265e+001 -3.7617e+001 -2.4948e+000 63185 73000,73130,73052
 1.4000e+000 73205 -1.6755e+001 -4.8669e+001 -8.8949e+000 63185 73052,73130,73104
 1.4000e+000 73182 -1.5295e+001 -5.2373e+001 -9.0984e+000 63185 73052,73104,73078
 1.4000e+000 73545 -4.0899e+000 -3.8741e+001  3.7499e-001 62781 73568,73398,73372
 1.4000e+000 73522  9.4980e-001 -3.3049e+001  3.2103e+000 62781 73568,73372,73346
 1.4000e+000 73499 -7.9096e+000 -3.8798e+001 -4.4345e+000 62781 73640,73320,73424
 1.4000e+000 73476  1.8284e+000 -3.4916e+001 -6.9421e+000 62781 73320,73450,73424
 1.4000e+000 73594 -3.8571e+000 -3.4099e+001 -5.4927e-001 62781 73424,73398,73568
 1.4000e+000 73617 -5.7744e+000 -3.6983e+001 -1.5116e+000 62781 73640,73424,73568
 1.4000e+000 73666 -6.1569e+000 -3.5191e+001 -1.6199e+000 62781 73346,73320,73640
 1.4000e+000 73689 -4.8445e+000 -3.2430e+001  1.0486e+000 62781 73346,73640,73568
 1.4000e+000 74035 -1.0374e+001 -5.7564e+001 -2.6466e+000 62363 74058,73868,73842
 1.4000e+000 74012 -1.1591e+000 -4.5579e+001 -1.0442e+001 62363 74130,74058,73842
 1.4000e+000 73989  2.8748e+000 -4.7174e+001 -1.5486e+001 62363 74130,73842,73816
 1.4000e+000 73966 -1.4486e+001 -6.5761e+001  2.4147e+000 62363 74202,73764,73894
 1.4000e+000 73943 -3.1357e+001 -5.6893e+001  2.2110e+000 62363 73712,73894,73764
 1.4000e+000 73920 -3.7649e+001 -6.3950e+001 -1.0019e+000 62363 73712,73764,73738
 1.4000e+000 74084 -5.2096e+000 -5.9710e+001 -1.0736e+000 62363 73894,73868,74058
 1.4000e+000 74107 -1.1940e+001 -6.0878e+001  3.3780e+000 62363 74202,73894,74058
 1.4000e+000 74156 -7.6779e+000 -5.4494e+001 -8.6725e-001 62363 73790,74058,74130
 1.4000e+000 74179  5.4454e+000 -5.4162e+001 -5.6543e+000 62363 73790,74130,73816
 1.4000e+000 74228 -1.6332e+001 -6.6627e+001 -4.1904e+000 62363 73790,73764,74202
 1.4000e+000 74251 -1.3699e+001 -6.0972e+001 -3.3592e+000 62363 73790,74202,74058
 1.4000e+000 74403  8.1521e+000 -6.1671e+001  4.8217e+000 62115 74426,74302,74276
 1.4000e+000 74380  1.3337e+001 -5.7721e+001  7.0115e+000 62115 74426,74276,74354
 1.4000e+000 74452  2.6777e+000 -5.6645e+001  4.2415e+000 62115 74328,74302,74426
 1.4000e+000 74475  7.6324e+000 -5.2693e+001  6.4946e+000 62115 74328,74426,74354
 1.4000e+000 74578  1.4529e+000 -4.7756e+001 -2.0722e+000 61825 74500,74552,74526
 1.4000e+000 74982 -2.6943e+001 -6.5695e+001  2.4961e-001 61513 75005,74734,74708
 1.4000e+000 74959 -2.7581e+001 -5.9677e+001 -1.3728e+000 61513 75005,74708,74864
 1.4000e+000 74936 -4.0895e+001 -6.8070e+001  5.2552e+000 61513 75077,74812,74734
 1.4000e+000 74913 -2.8423e+001 -5.4891e+001 -4.4744e+000 61513 74734,74786,74760
 1.4000e+000 74890 -3.1167e+001 -5.8267e+001 -1.1785e+000 61513 74734,74812,74786
 1.4000e+000 75031 -2.5644e+001 -6.7955e+001  2.5724e-001 61513 75077,74734,75005
 1.4000e+000 75054 -1.9073e+001 -6.5741e+001  1.0346e+001 61513 74838,75005,74864
 1.4000e+000 75103 -4.9478e+001 -7.1991e+001  1.8995e+001 61513 74838,74812,75077
 1.4000e+000 75126 -3.9631e+001 -7.5723e+001  1.4059e+001 61513 74838,75077,75005
 1.4000e+000 75553 -1.0013e+001 -5.1528e+001 -1.1928e+000 61060 75576,75360,75308
 1.4000e+000 75530 -5.8798e+000 -5.6043e+001  4.1185e-001 61060 75576,75308,75230
 1.4000e+000 75507 -1.1373e+001 -5.2033e+001 -1.2068e+000 61060 75308,75360,75334
 1.4000e+000 75484 -1.3985e+001 -7.3547e+001  3.2970e+000 61060 75230,75308,75256
 1.4000e+000 75461 -1.1747e+001 -5.8024e+001 -5.4771e+000 61060 75256,75308,75282
 1.4000e+000 75438 -1.4801e+001 -4.7847e+001  3.3838e+000 61060 75360,75412,75386
 1.4000e+000 75602 -1.3101e+001 -5.4352e+001  1.6629e-001 61060 75412,75360,75576
 1.4000e+000 75625 -9.3241e+000 -5.9835e+001  1.8943e+000 61060 75412,75576,75230
 1.4000e+000 76052 -1.0626e+001 -4.7468e+001  2.4375e+000 60442 75755,75859,75833
 1.4000e+000 76029 -1.3342e+001 -4.4298e+001 -2.0770e+000 60442 75729,75859,75755
 1.4000e+000 76006 -1.0969e+001 -4.4438e+001  3.9516e+000 60442 75755,75833,75807
 1.4000e+000 75983 -1.1045e+001 -5.8497e+001  1.2522e+000 60442 75755,75807,75781
 1.4000e+000 75960  3.5717e+000 -9.1324e+001  7.0959e+000 60442 75729,75911,75859
 1.4000e+000 75937 -4.2686e+001 -2.1967e+002  1.3603e+001 60442 75859,75911,75885
 1.4000e+000 76430 -1.3957e+001 -4.5007e+001 -4.0538e-001 59788 76453,76286,76234
 1.4000e+000 76407 -1.5605e+001 -5.1113e+001  1.4895e+000 59788 76453,76234,76182
 1.4000e+000 76384 -1.4434e+001 -2.6397e+001  7.8610e+000 59788 76525,76156,76312
 1.4000e+000 76361 -6.1950e+000 -6.0371e+001 -1.2392e-001 59788 76182,76234,76208
 1.4000e+000 76338 -6.8503e+000 -4.1456e+001  9.7183e-001 59788 76234,76286,76260
 1.4000e+000 76479 -1.7020e+001 -4.7763e+001  1.1030e+000 59788 76312,76286,76453
 1.4000e+000 76502 -1.3442e+001 -4.3110e+001  2.9163e+000 59788 76525,76312,76453
 1.4000e+000 76551 -2.1687e+001 -4.7398e+001  7.6079e+000 59788 76182,76156,76525
 1.4000e+000 76574 -1.7939e+001 -5.2293e+001  4.3653e+000 59788 76182,76525,76453
 1.4000e+000 77031  1.8268e+000 -2.1639e+001 -6.4825e+000 59448 76835,76887,76861
 1.4000e+000 77008  1.1147e+001 -1.2919e+001 -4.6815e-001 59448 76835,76913,76887
 1.4000e+000 76985  5.5531e+000 -1.4962e+001  4.2225e+000 59448 76809,76913,76835
 1.4000e+000 76962 -5.1916e+000 -1.8674e+001 -3.5862e+000 59448 76757,76913,76809
 1.4000e+000 76939 -7.9618e-001 -1.5865e+001 -5.3719e+000 59448 76757,76809,76783
 1.4000e+000 77537 -7.2539e+000 -5.2472e+001 -1.4719e+000 58994 77560,77344,77292
 1.4000e+000 77514 -2.4439e+001 -5.4636e+001 -5.3915e+000 58994 77560,77292,77240
 1.4000e+000 77491  5.8556e+000 -4.7164e+001 -9.1781e+000 58994 77632,77214,77370
 1.4000e+000 77468 -3.0453e+001 -6.3147e+001  6.8985e+000 58994 77292,77344,77318
 1.4000e+000 77445  5.7634e+000 -7.6214e+001 -1.8955e+000 58994 77214,77396,77370
 1.4000e+000 77422 -2.3443e+001 -5.4061e+001 -7.5578e+000 58994 77240,77292,77266
 1.4000e+000 77586 -1.6989e+001 -5.6818e+001  1.1631e+000 58994 77370,77344,77560
 1.4000e+000 77609 -7.8661e+000 -5.5248e+001  1.7709e+000 58994 77632,77370,77560
 1.4000e+000 77658  1.3211e+001 -3.9025e+001 -2.2095e+001 58994 77240,77214,77632
 1.4000e+000 77681  2.7527e+000 -3.8190e+001 -1.2269e+001 58994 77240,77632,77560
 1.4000e+000 78138 -6.1506e+000 -2.5675e+001  6.7425e+000 58440 77864,77994,77890
 1.4000e+000 78115 -3.8853e+000 -1.0067e+001 -2.8799e+000 58440 77864,78020,77994
 1.4000e+000 78092 -1.0266e+001 -3.2815e+001 -5.2811e+000 58440 77942,77994,77968
 1.4000e+000 78069 -5.0282e+000 -3.2211e+001  6.4495e-001 58440 77890,77994,77942
 1.4000e+000 78046  3.0477e+000 -2.9614e+001 -4.5622e+000 58440 77890,77942,77916
 1.4000e+000 78467 -2.6399e+000 -4.9987e+001  9.8567e-001 57928 78562,78490,78346
 1.4000e+000 78444 -9.5816e+000 -4.5696e+001  3.5147e+000 57928 78490,78294,78268
 1.4000e+000 78421 -6.3771e-001 -5.1930e+001  2.6801e+000 57928 78562,78346,78320
 1.4000e+000 78398 -1.6016e+000 -4.6654e+001  2.0891e+000 57928 78242,78372,78268
 1.4000e+000 78516 -1.0694e+001 -6.1674e+001 -3.7429e+000 57928 78372,78346,78490
 1.4000e+000 78539 -8.1709e+000 -4.7078e+001  5.2863e-001 57928 78372,78490,78268
 1.4000e+000 78588 -1.0796e+001 -5.0737e+001  6.9123e-001 57928 78294,78490,78562
 1.4000e+000 78611 -5.6835e+000 -4.9422e+001  3.5552e+000 57928 78294,78562,78320
 1.4000e+000 79068 -2.3558e+001 -6.4932e+001 -2.0229e+001 57467 78794,78924,78820
 1.4000e+000 79045 -1.2411e+001 -6.0310e+001 -2.0436e+001 57467 78794,78950,78924
 1.4000e+000 79022  3.6741e+000 -4.7607e+001  1.1195e+000 57467 78820,78898,78872
 1.4000e+000 78999 -1.4610e+001 -7.1942e+001 -1.3056e+001 57467 78820,78924,78898
 1.4000e+000 78976 -6.8703e-001 -4.9362e+001  1.2369e+000 57467 78820,78872,78846
 1.4000e+000 79446 -2.3855e+001 -6.0683e+001  1.2714e+000 57120 79172,79302,79250
 1.4000e+000 79423 -1.9247e+001 -5.8406e+001 -4.8254e+000 57120 79172,79328,79302
 1.4000e+000 79400 -2.3479e+001 -5.0468e+001 -7.3056e-001 57120 79172,79250,79198
 1.4000e+000 79377 -1.1820e+001 -7.7973e+001  4.9830e+000 57120 79250,79302,79276
 1.4000e+000 79354 -3.0835e+001 -5.4653e+001 -2.3930e+000 57120 79198,79250,79224
 1.4000e+000 79952 -2.2465e+001 -4.6505e+001 -7.9653e-001 56773 79629,79785,79655
 1.4000e+000 79929  2.8800e+000 -3.8542e+001  1.3493e+000 56773 79629,79811,79785
 1.4000e+000 79906 -9.3726e+000 -5.0966e+001  8.8567e-001 56773 79655,79733,79681
 1.4000e+000 79883 -1.5896e+001 -4.6841e+001 -1.0625e+000 56773 79655,79785,79733
 1.4000e+000 79860 -1.1945e+001 -6.1842e+001 -1.2403e+001 56773 79733,79785,79759
 1.4000e+000 79837 -1.4844e+000 -4.6843e+001  1.1101e+001 56773 79681,79733,79707
 1.4000e+000 80281 -1.3360e+001 -4.4454e+001 -6.5344e+000 56319 80108,80160,80134
 1.4000e+000 80258 -7.7669e+000 -4.8235e+001 -5.6131e+000 56319 80056,80160,80108
 1.4000e+000 80235 -5.3185e+000 -4.4266e+001  4.7137e+000 56319 80056,80186,80160
 1.4000e+000 80212 -7.1923e+000 -6.6330e+001 -8.1458e+000 56319 80056,80108,80082
 1.4000e+000 80738  2.0409e+000 -4.6047e+001  4.3969e+000 55957 80516,80620,80594
 1.4000e+000 80715 -7.1299e+000 -3.7442e+001  5.0131e+000 55957 80464,80620,80516
 1.4000e+000 80692 -4.4793e+000 -5.4023e+001  4.3794e+000 55957 80761,80568,80542
 1.4000e+000 80669  6.3671e-001 -5.1005e+001  5.8057e+000 55957 80761,80542,80516
 1.4000e+000 80646 -7.8849e+000 -3.8958e+001  1.1574e+001 55957 80464,80516,80490
 1.4000e+000 80787 -1.0171e+001 -5.2418e+001  1.9724e+000 55957 80594,80568,80761
 1.4000e+000 80810 -5.3046e+000 -4.9471e+001  3.4175e+000 55957 80594,80761,80516
 1.4000e+000 81210 -4.6378e+000 -4.4076e+001 -3.4103e+000 55317 80936,80988,80962
 1.4000e+000 81187 -4.0554e+000 -4.7486e+001 -1.0520e+000 55317 80936,81066,80988
 1.4000e+000 81164 -4.2169e+000 -5.0347e+001 -5.6010e-002 55317 80936,81092,81066
 1.4000e+000 81141 -1.5657e+001 -5.3674e+001 -5.4797e+000 55317 80988,81066,81014
 1.4000e+000 81118  3.7533e+000 -3.1666e+001  3.0110e+000 55317 81014,81066,81040
 1.4000e+000 81539 -1.7743e+001 -4.9805e+001  3.2689e-001 54913 81340,81418,81392
 1.4000e+000 81516  1.0897e+000 -4.0868e+001 -4.6361e+000 54913 81340,81444,81418
 1.4000e+000 81493 -2.0340e-001 -4.3466e+001 -1.1049e+001 54913 81314,81444,81340
 1.4000e+000 81470 -2.1621e+001 -6.0399e+001 -1.9609e+000 54913 81340,81392,81366
 1.4000e+000 81787 -8.1851e+000 -5.1969e+001 -1.3804e+000 54601 81588,81692,81640
 1.4000e+000 81764 -1.8104e+001 -5.3266e+001 -3.5780e+000 54601 81562,81692,81588
 1.4000e+000 81741 -4.2500e+000 -5.1806e+001  4.2019e+000 54601 81588,81640,81614
 1.4000e+000 81718 -9.1951e+000 -6.9220e+001 -9.7271e+000 54601 81640,81692,81666
 1.4000e+000 82344 -1.6317e-001 -5.7776e+001 -9.8880e+000 54090 81998,82102,82076
 1.4000e+000 82321 -1.8115e+001 -6.5668e+001 -6.2444e+000 54090 81998,82154,82102
 1.4000e+000 82298 -1.9294e+001 -6.1172e+001 -5.0944e+000 54090 81972,82154,81998
 1.4000e+000 82275 -2.4325e+001 -5.8539e+001 -7.5184e+000 54090 81998,82076,82024
 1.4000e+000 82252 -2.8640e+001 -6.7485e+001  1.2317e+000 54090 81972,82180,82154
 1.4000e+000 82229 -2.8078e+001 -7.3262e+001  1.3129e-001 54090 82102,82154,82128
 1.4000e+000 82206  4.8141e+000 -4.1328e+001 -1.5585e+001 54090 82024,82076,82050
 1.4000e+000 82722 -2.9777e+001 -5.4503e+001  7.8488e-001 53579 82500,82578,82552
 1.4000e+000 82699 -2.4736e+001 -5.7335e+001  2.5535e+000 53579 82448,82578,82500
 1.4000e+000 82676 -2.6180e+001 -5.9041e+001  3.3080e+000 53579 82448,82500,82474
 1.4000e+000 82653 -3.0318e+001 -6.1094e+001  8.2516e+000 53579 82448,82604,82578
 1.4000e+000 82630 -2.2617e+001 -4.8976e+001  3.6009e+000 53579 82500,82552,82526
 1.4000e+000 83356 -1.2103e+001 -4.1683e+001 -4.1223e+000 53189 83379,83088,83036
 1.4000e+000 83333 -1.2452e+001 -4.6910e+001 -4.1265e+000 53189 83379,83036,82984
 1.4000e+000 83310 -1.0445e+000 -4.2283e+001  8.4082e+000 53189 82984,83192,83166
 1.4000e+000 83287  4.7795e+000 -3.4615e+001 -3.4101e+000 53189 83036,83088,83062
 1.4000e+000 83264 -9.5589e+000 -5.6142e+001 -8.0376e+000 53189 82984,83036,83010
 1.4000e+000 83241 -2.5645e+000 -5.1064e+001  2.1075e+000 53189 83114,83166,83140
 1.4000e+000 83218 -1.9247e+001 -5.6447e+001  2.5813e+000 53189 83088,83166,83114
 1.4000e+000 83405 -1.1174e+001 -4.5234e+001 -1.8214e+000 53189 83166,83088,83379
 1.4000e+000 83428 -1.0955e+001 -4.9959e+001 -2.1158e+000 53189 83166,83379,82984
 1.4000e+000 83725 -1.8816e+001 -7.0700e+001 -5.6640e+000 52585 83748,83529,83503
 1.4000e+000 83702 -8.1716e+000 -6.6693e+001 -3.9144e+000 52585 83820,83748,83503
 1.4000e+000 83679  3.6603e+000 -6.3685e+001 -2.6200e+000 52585 83820,83503,83477
 1.4000e+000 83656 -1.0849e+001 -6.0274e+001  1.0289e+001 52585 83477,83607,83581
 1.4000e+000 83633  2.4866e+000 -5.5068e+001  9.3136e+000 52585 83451,83607,83477
 1.4000e+000 83774 -1.5086e+001 -6.1061e+001 -4.0836e+000 52585 83555,83529,83748
 1.4000e+000 83797 -2.7219e+001 -6.5227e+001 -2.3316e+000 52585 83555,83748,83581
 1.4000e+000 83846 -1.9260e+001 -5.9448e+001  2.1859e+000 52585 83581,83748,83820
 1.4000e+000 83869 -1.0770e+001 -5.8536e+001  2.2067e+000 52585 83581,83820,83477
 1.4000e+000 84200 -2.0386e+001 -6.7314e+001 -1.0076e-001 52024 84001,84105,84079
 1.4000e+000 84177 -7.9574e+000 -6.4595e+001 -2.7054e+000 52024 83975,84105,84001
 1.4000e+000 84154 -1.6826e+001 -6.6340e+001 -2.0181e-001 52024 84001,84079,84053
 1.4000e+000 84131 -8.0319e+000 -4.3365e+001  1.0729e+001 52024 84001,84053,84027
 1.4000e+000 84399 -1.0373e+001 -5.6730e+001 -8.6119e-001 51470 84422,84275,84249
 1.4000e+000 84376 -1.0970e+001 -5.8526e+001 -1.2739e+000 51470 84422,84249,84223
 1.4000e+000 84353 -1.0746e+001 -6.4841e+001 -1.1077e+001 51470 84275,84327,84301
 1.4000e+000 84448 -9.6844e+000 -5.8267e+001 -7.4796e-001 51470 84327,84275,84422
 1.4000e+000 84471 -1.0034e+001 -5.9722e+001 -1.1491e+000 51470 84327,84422,84223
 1.4000e+000 84753 -1.4956e+001 -6.2831e+001 -4.8915e-001 51073 84603,84655,84629
 1.4000e+000 84730 -4.1592e+001 -6.9520e+001  1.7691e+000 51073 84776,84655,84603
 1.4000e+000 84707 -3.8554e+000 -5.0261e+001 -1.5249e+001 51073 84577,84681,84655
 1.4000e+000 84802 -2.2484e+001 -5.7727e+001 -6.1347e+000 51073 84577,84655,84776
 1.4000e+000 85178 -6.5439e+000 -5.2240e+001  1.7081e+000 50519 85201,85008,84982
 1.4000e+000 85155 -5.5608e+000 -5.1478e+001  4.4527e+000 50519 85273,85201,84982
 1.4000e+000 85132 -7.9317e+000 -5.0263e+001  6.1270e+000 50519 85273,84982,84930
 1.4000e+000 85109  3.0977e+000 -5.9490e+001  5.4217e+000 50519 84930,84982,84956
 1.4000e+000 85086 -1.8050e+001 -5.9809e+001 -2.7558e-002 50519 85008,85060,85034
 1.4000e+000 85227 -1.5835e+001 -5.5323e+001 -7.5519e-001 50519 85060,85008,85201
 1.4000e+000 85250 -8.5209e+000 -5.1621e+001  1.6780e+000 50519 85060,85201,84904
 1.4000e+000 85299 -9.4394e+000 -5.3885e+001  2.7768e+000 50519 84904,85201,85273
 1.4000e+000 85322 -1.2316e+001 -5.0128e+001  4.5295e+000 50519 84904,85273,84930
 1.4000e+000 85958 -1.0587e+001 -5.2784e+001 -9.1596e-001 50093 85981,85768,85716
 1.4000e+000 85935 -8.4498e+000 -4.7805e+001 -7.0685e-001 50093 85981,85716,85612
 1.4000e+000 85912 -1.4365e+001 -4.8099e+001  1.9562e+000 50093 85612,85716,85664
 1.4000e+000 85889 -6.0668e+000 -5.3994e+001 -6.2114e-002 50093 85716,85768,85742
 1.4000e+000 85866 -1.5692e+001 -4.1819e+001 -5.9278e+000 50093 85664,85716,85690
 1.4000e+000 85843  1.0906e+001 -3.2912e+001 -2.6332e+000 50093 85586,85794,85612
 1.4000e+000 85820 -1.0667e+001 -6.7120e+001  5.2083e+000 50093 85612,85664,85638
 1.4000e+000 86007 -1.5174e+001 -5.7299e+001 -8.1008e+000 50093 85794,85768,85981
 1.4000e+000 86030 -8.4400e+000 -4.2593e+001 -6.0759e+000 50093 85794,85981,85612
 1.4000e+000 86131  8.2352e-001 -7.0706e+001  1.3000e+001 49895 86053,86105,86079
 1.4000e+000 86639 -6.3148e+000 -3.7336e+001 -5.5128e+000 49391 86662,86394,86368
 1.4000e+000 86616 -6.4843e+000 -4.2683e+001 -3.2143e+000 49391 86662,86368,86342
 1.4000e+000 86593 -2.2986e+000 -4.0125e+001  8.8625e-001 49391 86342,86498,86472
 1.4000e+000 86570  2.4111e+000 -4.4124e+001  8.9237e-001 49391 86316,86498,86342
 1.4000e+000 86547 -2.1565e+001 -6.5985e+001 -3.9106e-001 49391 86394,86472,86446
 1.4000e+000 86524  4.4406e+000 -6.4219e+001  2.9449e+000 49391 86394,86446,86420
 1.4000e+000 86688 -1.1515e+001 -4.2160e+001 -3.3706e+000 49391 86472,86394,86662
 1.4000e+000 86711 -7.3666e+000 -4.4099e+001 -2.2788e+000 49391 86472,86662,86342
 1.4000e+000 87089 -1.8979e+001 -6.1306e+001  1.4882e+000 48987 86815,86919,86867
 1.4000e+000 87066 -2.0397e+001 -6.1767e+001  1.6555e+000 48987 86815,86971,86919
 1.4000e+000 87043 -4.8933e+000 -6.5077e+001 -4.2387e+000 48987 86867,86919,86893
 1.4000e+000 87020 -2.0957e+001 -6.7914e+001  8.0473e+000 48987 86815,86867,86841
 1.4000e+000 86997 -2.0391e+001 -4.9827e+001  6.0799e+000 48987 86919,86971,86945
 1.4000e+000 87467 -4.2928e+001 -6.0548e+001  4.4816e+000 48540 87490,87245,87219
 1.4000e+000 87444 -3.0537e+001 -5.6042e+001  1.4707e+000 48540 87562,87490,87219
 1.4000e+000 87421 -2.8864e+001 -5.5201e+001 -9.3076e-002 48540 87562,87219,87349
 1.4000e+000 87398 -3.0712e+001 -4.5053e+001  8.1090e-001 48540 87245,87297,87271
 1.4000e+000 87375 -2.3011e+001 -5.3510e+001  9.0298e-001 48540 87193,87349,87219
 1.4000e+000 87516 -3.0347e+001 -5.5569e+001  4.9291e+000 48540 87297,87245,87490
 1.4000e+000 87539 -3.0785e+001 -6.0081e+001  3.1227e+000 48540 87297,87490,87323
 1.4000e+000 87588 -2.9411e+001 -5.9546e+001  3.1020e+000 48540 87323,87490,87562
 1.4000e+000 87611 -2.8066e+001 -5.7523e+001  1.7919e+000 48540 87323,87562,87349
 1.4000e+000 87810 -1.6917e+001 -1.0619e+002  2.6508e+000 48136 87660,87712,87686
 1.4000e+000 87787  5.2443e+000 -6.4357e+001 -5.9146e+000 48136 87660,87738,87712
 1.4000e+000 87764 -2.8563e+001 -6.3827e+001 -2.1285e+001 48136 87634,87738,87660
 1.4000e+000 88205 -2.2658e+001 -6.4192e+001 -4.8142e+000 47210 88300,88228,87937
 1.4000e+000 88182 -1.9305e+001 -6.6566e+001 -1.1451e+000 47210 88228,87833,88041
 1.4000e+000 88159 -2.2784e+001 -6.8167e+001 -8.1871e+000 47210 88300,87937,87911
 1.4000e+000 88136 -2.1554e+001 -6.3955e+001 -6.9351e+000 47210 87833,87911,87859
 1.4000e+000 88113 -3.5955e+001 -5.1355e+001 -4.3397e+000 47210 87937,87989,87963
 1.4000e+000 88090 -2.1510e+001 -5.5944e+001  1.3923e+001 47210 87989,88041,88015
 1.4000e+000 88067 -2.4711e+001 -7.1407e+001 -7.2037e+000 47210 87859,87911,87885
 1.4000e+000 88254 -2.0204e+001 -4.9743e+001 -6.0245e+000 47210 87989,87937,88228
 1.4000e+000 88277 -2.5344e+001 -6.1412e+001 -9.2717e-001 47210 87989,88228,88041
 1.4000e+000 88326 -1.7809e+001 -6.0057e+001 -1.7384e+000 47210 87833,88228,88300
 1.4000e+000 88349 -1.8847e+001 -6.2913e+001 -5.3013e+000 47210 87833,88300,87911
 1.4000e+000 88780 -4.1888e+001 -8.2110e+001 -1.5108e+001 46642 88803,88509,88483
 1.4000e+000 88757 -2.3582e+001 -7.0685e+001 -5.0588e+000 46642 88803,88483,88639
 1.4000e+000 88734 -3.1209e+001 -5.5852e+001 -6.5233e+000 46642 88875,88561,88509
 1.4000e+000 88711 -3.3489e+001 -5.2335e+001  9.1119e-001 46642 88509,88561,88535
 1.4000e+000 88688 -1.8994e+001 -8.0158e+001 -9.9061e-001 46642 88457,88639,88483
 1.4000e+000 88665 -3.8594e+001 -9.2606e+001 -7.3444e-001 46642 88561,88613,88587
 1.4000e+000 88829 -2.9183e+001 -6.2119e+001 -7.4567e+000 46642 88875,88509,88803
 1.4000e+000 88852 -2.8498e+001 -7.2474e+001 -8.3525e-001 46642 88613,88803,88639
 1.4000e+000 88901 -2.6747e+001 -6.4000e+001 -1.7757e+000 46642 88613,88561,88875
 1.4000e+000 88924 -2.8151e+001 -7.4349e+001 -2.1273e+000 46642 88613,88875,88803
 1.4000e+000 89253 -1.0472e+001 -6.4400e+001  1.5886e+000 46444 89080,89158,89132
 1.4000e+000 89230 -1.1167e+001 -6.5549e+001  5.0236e-001 46444 89028,89158,89080
 1.4000e+000 89207 -5.0987e+000 -6.4090e+001 -5.5412e-001 46444 89028,89080,89054
 1.4000e+000 89184 -2.6370e+000 -6.8545e+001 -4.4061e+000 46444 89080,89132,89106
 1.4000e+000 89631 -1.3627e+001 -5.0680e+001 -9.3400e-001 46040 89383,89461,89435
 1.4000e+000 89608 -1.2011e+001 -4.6880e+001 -9.6280e-001 46040 89383,89487,89461
 1.4000e+000 89585 -1.3500e+001 -5.6278e+001 -1.8991e+000 46040 89383,89435,89409
 1.4000e+000 89562 -1.0659e+001 -4.1193e+001 -3.3475e+000 46040 89383,89513,89487
 1.4000e+000 89539  4.0225e+000 -3.3190e+001 -8.7594e+000 46040 89357,89513,89383
 1.4000e+000 90009 -8.4926e+000 -5.0270e+001  8.4044e-001 45636 89813,89891,89839
 1.4000e+000 89986 -7.5305e+000 -4.2560e+001  4.1624e+000 45636 89787,89891,89813
 1.4000e+000 89963 -6.6059e+000 -4.5868e+001 -6.3142e-001 45636 89839,89891,89865
 1.4000e+000 89940 -1.3090e+001 -5.3433e+001  1.8974e+000 45636 89735,89891,89787
 1.4000e+000 89917 -1.2906e+001 -5.7691e+001  6.5799e-001 45636 89735,89787,89761
 1.4000e+000 90208 -7.5102e+000 -4.8322e+001 -7.0939e+000 45175 90231,90058,90032
 1.4000e+000 90185 -5.5786e+000 -4.7693e+001 -6.6397e+000 45175 90231,90032,90136
 1.4000e+000 90162  5.6129e-001 -3.9578e+001 -1.1348e+000 45175 90058,90110,90084
 1.4000e+000 90257 -8.5611e+000 -4.8135e+001 -5.0566e+000 45175 90110,90058,90231
 1.4000e+000 90280 -5.2851e+000 -4.7038e+001 -4.6671e+000 45175 90110,90231,90136
 1.4000e+000 90528 -2.7652e+000 -3.8150e+001 -1.4705e+000 44513 90695,90551,90407
 1.4000e+000 90505 -5.1258e+000 -3.5804e+001 -5.4564e+000 44513 90551,90355,90329
 1.4000e+000 90482 -2.8187e+000 -5.0324e+001 -5.4890e+000 44513 90623,90303,90433
 1.4000e+000 90459 -5.6517e+000 -3.5090e+001  1.2889e+000 44513 90695,90407,90381
 1.4000e+000 90577 -1.3414e+000 -3.7390e+001 -2.4018e+000 44513 90433,90407,90551
 1.4000e+000 90600 -2.5505e+000 -3.9195e+001 -4.2058e+000 44513 90623,90433,90551
 1.4000e+000 90649  2.6877e+000 -3.7565e+001 -5.9650e+000 44513 90329,90303,90623
 1.4000e+000 90672 -9.9031e-001 -3.3993e+001 -5.1949e+000 44513 90329,90623,90551
 1.4000e+000 90721 -2.2273e+000 -3.2777e+001 -3.1154e+000 44513 90355,90551,90695
 1.4000e+000 90744 -4.5228e+000 -2.9332e+001 -1.7365e+000 44513 90355,90695,90381
 1.4000e+000 91077  1.6207e+000 -3.5760e+001  7.8996e+000 44059 91100,90930,90904
 1.4000e+000 91054 -1.8170e+001 -4.5672e+001  4.4431e+000 44059 91100,90904,90982
 1.4000e+000 91031 -2.3675e+001 -4.7738e+001  1.8305e+000 44059 90878,90982,90904
 1.4000e+000 91008 -6.7824e+000 -4.1658e+001  2.6254e+000 44059 90852,90982,90878
 1.4000e+000 91126 -3.2276e+001 -4.6318e+001  3.9795e+000 44059 91172,91100,90956
 1.4000e+000 91149 -1.7255e+001 -4.3967e+001  2.6749e+000 44059 90956,91100,90982
 1.4000e+000 91198 -5.9031e+000 -3.3084e+001 -4.4410e+000 44059 90930,91100,91172
 1.4000e+000 91677 -1.9157e+001 -3.8097e+001  5.4707e+000 43549 91455,91533,91481
 1.4000e+000 91654 -3.3224e+000 -3.8773e+001  6.9441e+000 43549 91429,91533,91455
 1.4000e+000 91631 -1.8571e+001 -3.6387e+001  5.7351e+000 43549 91481,91533,91507
 1.4000e+000 91608  1.2534e+001 -3.2030e+001  5.5139e+000 43549 91429,91559,91533
 1.4000e+000 91585 -6.0802e-001 -2.5545e+001 -8.9750e+000 43549 91403,91559,91429
 1.4000e+000 92006 -1.7284e+001 -4.9777e+001 -9.0069e-001 43059 91781,91885,91807
 1.4000e+000 91983 -1.5622e+001 -4.1961e+001  5.1766e+000 43059 91781,91911,91885
 1.4000e+000 91960 -2.2441e+001 -5.0878e+001 -7.3672e-001 43059 91807,91885,91833
 1.4000e+000 91937 -8.1341e+000 -4.4800e+001 -5.4889e-001 43059 91833,91885,91859
 1.4000e+000 92561 -1.7990e+001 -4.0010e+001 -1.9550e+000 42598 92584,92215,92189
 1.4000e+000 92538 -1.8898e+001 -4.2967e+001 -1.8106e+000 42598 92656,92584,92189
 1.4000e+000 92515 -1.5747e+001 -4.7840e+001  6.9067e-001 42598 92656,92189,92397
 1.4000e+000 92492 -2.0314e+001 -3.3927e+001 -3.2353e+000 42598 92241,92319,92293
 1.4000e+000 92469 -1.9645e+001 -4.3701e+001  5.2208e+000 42598 92319,92397,92371
 1.4000e+000 92446 -7.5616e+000 -5.6227e+001  2.4158e+001 42598 92319,92371,92345
 1.4000e+000 92423 -2.1215e+001 -3.7456e+001 -9.0470e+000 42598 92241,92293,92267
 1.4000e+000 92610 -1.8901e+001 -4.1357e+001 -3.5364e+000 42598 92241,92215,92584
 1.4000e+000 92633 -1.6527e+001 -3.5828e+001 -3.6342e+000 42598 92241,92584,92319
 1.4000e+000 92682 -1.5623e+001 -3.6123e+001 -1.7980e-001 42598 92319,92584,92656
 1.4000e+000 92705 -1.2092e+001 -3.9872e+001  1.8553e+000 42598 92319,92656,92397
 1.4000e+000 92953 -1.0538e+001 -4.9778e+001  6.1281e+000 42094 92976,92806,92780
 1.4000e+000 92930 -1.3134e+001 -4.4667e+001  2.4156e+000 42094 92976,92780,92754
 1.4000e+000 92907  7.1797e+000 -4.2946e+001  1.2168e+000 42094 93048,92832,92806
 1.4000e+000 92884 -1.8843e+001 -4.4867e+001  1.8248e+000 42094 92728,92858,92754
 1.4000e+000 93002 -1.9739e+000 -4.4387e+001  3.7231e+000 42094 93048,92806,92976
 1.4000e+000 93025 -1.2470e+001 -4.4737e+001  3.7330e+000 42094 92858,92976,92754
 1.4000e+000 93074 -6.7929e+000 -4.5241e+001  4.0448e+000 42094 92858,92832,93048
 1.4000e+000 93097 -1.3021e+001 -4.3643e+001  5.2084e+000 42094 92858,93048,92976
 1.4000e+000 93605 -1.6524e+001 -6.0284e+001 -1.4765e+000 41846 93628,93412,93386
 1.4000e+000 93582 -1.4549e+001 -4.6048e+001 -1.0315e+000 41846 93628,93386,93308
 1.4000e+000 93559 -1.9499e+001 -4.7532e+001 -8.0115e+000 41846 93700,93464,93438
 1.4000e+000 93536 -2.3011e+001 -5.7122e+001  3.5887e+000 41846 93308,93386,93334
 1.4000e+000 93513 -2.4137e+001 -5.6763e+001  3.3977e+000 41846 93334,93386,93360
 1.4000e+000 93490 -2.1070e+001 -3.5959e+001 -6.2195e+000 41846 93282,93464,93308
 1.4000e+000 93654 -1.0613e+001 -4.8909e+001 -4.5594e+000 41846 93438,93412,93628
 1.4000e+000 93677 -1.9496e+001 -4.8234e+001 -4.1583e+000 41846 93700,93438,93628
 1.4000e+000 93726 -1.7828e+001 -4.2739e+001 -7.2872e+000 41846 93308,93464,93700
 1.4000e+000 93749 -1.7158e+001 -4.1920e+001 -3.4714e+000 41846 93308,93700,93628
 1.4000e+000 94255 -1.3864e+001 -5.2373e+001  3.7119e+000 41385 93958,94114,94088
 1.4000e+000 94232 -1.1360e+001 -5.5685e+001  2.0681e+000 41385 93932,94114,93958
 1.4000e+000 94209 -2.8248e+001 -6.2072e+001  1.1444e+001 41385 93958,94088,94062
 1.4000e+000 94186 -2.9753e+001 -4.4304e+001  8.7946e+000 41385 93958,94062,93984
 1.4000e+000 94163 -2.3536e+001 -4.2102e+001  8.8265e+000 41385 93984,94062,94036
 1.4000e+000 94140 -1.5314e+001 -5.4578e+001  1.0977e+001 41385 93984,94036,94010
 1.4000e+000 94476 -6.3813e+000 -7.0657e+001 -5.3615e+000 40881 94326,94378,94352
 1.4000e+000 94453  1.1714e+001 -4.8878e+001  2.4867e+000 40881 94300,94378,94326
 1.4000e+000 94430 -4.2854e+000 -5.0438e+001  1.7617e-001 40881 94300,94404,94378
 1.4000e+000 94626 -1.4408e+001 -3.6336e+001  3.0279e+000 40591 94649,94551,94525
 1.4000e+000 94603 -1.2062e+000 -2.8097e+001  3.1611e+000 40591 94781,94577,94551
 1.4000e+000 94675  1.8202e+000 -2.9869e+001 -9.4074e-001 40591 94781,94551,94649
 1.4000e+000 94807  5.7061e+000 -2.5621e+001  3.5203e+000 40591 94499,94577,94781
 1.4000e+000 94830  8.6249e+000 -2.7107e+001 -1.2545e+000 40591 94499,94781,94649
 1.4000e+000 95336 -3.5016e+001 -4.8208e+001 -6.1311e+000 40187 95013,95169,95039
 1.4000e+000 95313 -1.9551e+001 -4.4700e+001 -2.5661e+000 40187 95013,95195,95169
 1.4000e+000 95290 -1.3224e+001 -4.6321e+001  3.3856e+000 40187 95039,95143,95065
 1.4000e+000 95267 -3.5605e+001 -5.3960e+001 -7.6441e+000 40187 95039,95169,95143
 1.4000e+000 95244 -2.5834e+001 -5.8659e+001 -3.4079e+000 40187 95091,95143,95117
 1.4000e+000 95221 -1.2245e+001 -4.2302e+001  4.2034e+000 40187 95065,95143,95091
 1.4000e+000 95665 -1.8386e+001 -4.1348e+001  9.8785e+000 39626 95466,95570,95544
 1.4000e+000 95642 -2.3729e+001 -3.4868e+001  7.1090e+000 39626 95440,95570,95466
 1.4000e+000 95619 -1.6337e+001 -4.1692e+001  5.0058e+000 39626 95466,95544,95492
 1.4000e+000 95596 -3.0751e+001 -3.9728e+001  4.8534e+000 39626 95492,95544,95518
 1.4000e+000 95913 -1.3235e+001 -4.2475e+001 -6.1747e+000 39136 96080,95936,95766
 1.4000e+000 95890 -7.2913e+000 -4.6402e+001 -2.7196e+000 39136 95936,95714,95688
 1.4000e+000 95867 -2.9393e+001 -4.5834e+001  2.6592e+000 39136 96008,95792,95766
 1.4000e+000 95844 -8.8792e+000 -4.0914e+001 -4.3474e+000 39136 96080,95766,95740
 1.4000e+000 95962 -2.1898e+001 -4.7797e+001 -3.6517e+000 39136 96008,95766,95936
 1.4000e+000 95985 -1.1376e+001 -5.7362e+001  3.4569e-001 39136 95818,95936,95688
 1.4000e+000 96034 -1.1148e+001 -3.7871e+001  4.0404e+000 39136 95818,95792,96008
 1.4000e+000 96057 -9.1913e+000 -4.1938e+001 -2.2149e+000 39136 95818,96008,95936
 1.4000e+000 96106 -1.1095e+001 -4.2160e+001 -2.1926e-001 39136 95714,95936,96080
 1.4000e+000 96129 -4.1752e+000 -4.0198e+001  1.1650e+000 39136 95714,96080,95740
 1.4000e+000 96350 -1.2304e+001 -4.2723e+001 -3.2579e-001 38824 96200,96278,96252
 1.4000e+000 96327 -1.2666e+001 -4.2771e+001 -2.4929e-001 38824 96174,96278,96200
 1.4000e+000 96304 -1.1238e+001 -4.2696e+001 -6.8653e-001 38824 96200,96252,96226
 1.4000e+000 96830 -2.5160e+001 -4.7065e+001 -2.1223e+000 38320 97069,96536,96484
 1.4000e+000 96807 -2.4295e+001 -4.8246e+001 -2.0654e+000 38320 97069,96484,96853
 1.4000e+000 96784 -2.6323e+001 -5.1699e+001  2.7031e+000 38320 96853,96484,96458
 1.4000e+000 96761 -1.4751e+001 -3.9745e+001 -3.0568e+000 38320 96925,96640,96614
 1.4000e+000 96738 -2.2543e+001 -4.0358e+001  2.3781e-001 38320 96997,96666,96640
 1.4000e+000 96715 -1.7847e+001 -5.8045e+001  5.4795e-001 38320 97141,96588,96562
 1.4000e+000 96692 -3.3997e+001 -5.6530e+001  1.7971e+000 38320 96484,96536,96510
 1.4000e+000 96879 -2.3192e+001 -5.1633e+001 -1.5358e-001 38320 97141,96562,96853
 1.4000e+000 96902 -2.1442e+001 -4.9473e+001  2.4822e-001 38320 96925,96614,96853
 1.4000e+000 96951 -2.2331e+001 -4.0195e+001  1.3137e-001 38320 96997,96640,96925
 1.4000e+000 96974 -2.0508e+001 -4.0409e+001  6.4683e-001 38320 96458,96925,96853
 1.4000e+000 97023 -2.3533e+001 -4.0553e+001  7.6424e-001 38320 96458,96666,96997
 1.4000e+000 97046 -2.2748e+001 -4.0169e+001  6.4417e-001 38320 96458,96997,96925
 1.4000e+000 97095 -2.9092e+001 -4.7720e+001  4.8264e+000 38320 96562,96536,97069
 1.4000e+000 97118 -2.1737e+001 -4.7756e+001 -1.0020e+000 38320 96562,97069,96853
 1.4000e+000 97167 -8.7854e+000 -5.1884e+001 -2.1999e+000 38320 96614,96588,97141
 1.4000e+000 97190 -1.7514e+001 -4.7870e+001 -2.0723e+000 38320 96614,97141,96853
 1.4000e+000 97519 -1.8003e+001 -4.8434e+001  1.3215e+001 37766 97542,97398,97372
 1.4000e+000 97496 -2.3945e+001 -4.2918e+001  8.2060e+000 37766 97542,97372,97346
 1.4000e+000 97473 -2.1394e+001 -4.8480e+001  2.0854e+000 37766 97294,97424,97346
 1.4000e+000 97450 -2.4357e+001 -5.5551e+001  2.3400e+000 37766 97294,97346,97320
 1.4000e+000 97568 -8.1475e+000 -4.6539e+001  1.0110e+001 37766 97424,97398,97542
 1.4000e+000 97591 -1.6841e+001 -4.1160e+001  5.2676e+000 37766 97424,97542,97346
 1.4000e+000 98048 -2.1872e+001 -3.7700e+001 -1.1256e+001 37262 98071,97878,97852
 1.4000e+000 98025 -1.7542e+001 -4.4527e+001 -3.7474e+000 37262 98071,97852,97800
 1.4000e+000 98002 -2.2045e+001 -5.2825e+001 -2.0266e+000 37262 97800,97852,97826
 1.4000e+000 97979 -2.2721e+001 -4.7353e+001  1.1587e+000 37262 97800,97930,97904
 1.4000e+000 97956 -1.5454e+001 -5.1801e+001  3.5956e+000 37262 97774,97930,97800
 1.4000e+000 98097 -3.4234e+001 -4.3390e+001 -9.0165e+000 37262 97904,97878,98071
 1.4000e+000 98120 -2.3867e+001 -4.9045e+001 -1.7485e+000 37262 97904,98071,97800
 1.4000e+000 98449 -2.7693e+000 -2.8105e+001 -3.1163e+000 36950 98472,98302,98250
 1.4000e+000 98426  9.4246e-001 -2.8847e+001 -3.1857e+000 36950 98472,98250,98354
 1.4000e+000 98403 -6.6249e+000 -2.7909e+001  3.0657e+000 36950 98250,98302,98276
 1.4000e+000 98380  2.3016e+001 -2.0466e+001 -3.0600e+000 36950 98224,98354,98250
 1.4000e+000 98498 -6.4751e-002 -2.8280e+001 -1.3513e+000 36950 98328,98302,98472
 1.4000e+000 98521  3.5309e+000 -2.9451e+001 -2.0072e+000 36950 98328,98472,98354
 1.4000e+000 99125 -2.9499e+001 -3.0591e+001  4.8718e+000 36296 98704,98756,98730
 1.4000e+000 99102 -1.9732e+001 -3.3382e+001  1.3153e+000 36296 98704,98938,98756
 1.4000e+000 99079 -1.0662e+001 -3.7328e+001  2.1946e-001 36296 99148,98938,98912
 1.4000e+000 99056 -1.3335e+001 -3.4971e+001  9.1924e+000 36296 99292,99220,98782
 1.4000e+000 99033 -8.5701e+000 -3.8540e+001  1.5053e+000 36296 99148,98912,98834
 1.4000e+000 99010 -1.1338e+001 -2.9144e+001  9.1807e+000 36296 99292,98782,98756
 1.4000e+000 98987 -6.9361e+000 -7.2648e+001 -1.5561e+001 36296 98834,98912,98886
 1.4000e+000 98964 -2.4230e+001 -1.1410e+002 -2.2232e+001 36296 98834,98886,98860
 1.4000e+000 99174 -1.4387e+001 -4.2056e+001  1.8426e+000 36296 99220,98938,99148
 1.4000e+000 99197 -7.5896e+000 -4.5333e+001  4.8261e+000 36296 98808,99148,98834
 1.4000e+000 99246 -9.8788e+000 -2.6802e+001  2.2922e+001 36296 98808,98782,99220
 1.4000e+000 99269  3.4776e-001 -2.9342e+001  7.5508e+000 36296 98808,99220,99148
 1.4000e+000 99318 -1.2135e+001 -2.8364e+001  5.0156e+000 36296 98938,99220,99292
 1.4000e+000 99341 -1.2637e+001 -2.9459e+001  5.3104e+000 36296 98938,99292,98756
 1.4000e+000 99719 -1.6330e+001 -4.7077e+001  1.0659e+000 35742 99742,99471,99601
 1.4000e+000 99696 -1.8563e+001 -3.2788e+001  7.5071e+000 35742 99445,99601,99471
 1.4000e+000 99673 -1.5382e+001 -4.4923e+001 -1.3602e+000 35742 99742,99601,99575
 1.4000e+000 99650 -1.1922e+001 -5.9323e+001 -4.8198e-001 35742 99814,99549,99523
 1.4000e+000 99627 -1.0405e+001 -4.5081e+001  3.2033e+000 35742 99471,99523,99497
 1.4000e+000 99768 -1.0100e+001 -4.6222e+001  3.1402e+000 35742 99523,99471,99742
 1.4000e+000 99791 -1.4788e+001 -5.3701e+001 -8.4506e-002 35742 99814,99523,99742
 1.4000e+000 99840 -1.2298e+001 -5.2091e+001 -2.6141e+000 35742 99575,99549,99814
 1.4000e+000 99863 -1.3801e+001 -4.4608e+001 -1.9565e+000 35742 99575,99814,99742
 1.4000e+000 100111 -1.3033e+001 -3.8054e+001  6.8691e+000 35302 100134,99990,99938
 1.4000e+000 100088 -9.4817e+000 -3.4306e+001  4.4356e+000 35302 100134,99938,99912
 1.4000e+000 100065 -8.5821e+000 -3.6931e+001  3.2373e+000 35302 100206,99886,100016
 1.4000e+000 100042 -1.6672e+001 -3.7169e+001  6.0202e+000 35302 99938,99990,99964
 1.4000e+000 100160 -8.1037e+000 -3.6085e+001  5.2256e+000 35302 100016,99990,100134
 1.4000e+000 100183 -9.3066e+000 -3.6347e+001  3.2142e+000 35302 100206,100016,100134
 1.4000e+000 100232 -7.9557e+000 -3.6230e+001  2.8079e+000 35302 99912,99886,100206
 1.4000e+000 100255 -8.6388e+000 -3.5503e+001  2.8058e+000 35302 99912,100206,100134
 1.4000e+000 100586 -1.3199e+001 -2.9329e+001  2.1958e+000 35012 100609,100387,100361
 1.4000e+000 100563 -1.3469e+001 -3.1550e+001  3.0906e+000 35012 100609,100361,100465
 1.4000e+000 100540 -2.0087e+001 -3.8163e+001  6.0420e+000 35012 100361,100491,100465
 1.4000e+000 100517 -1.2281e+001 -2.9956e+001  6.8409e+000 35012 100413,100465,100439
 1.4000e+000 100635 -1.3463e+001 -2.9559e+001  4.6177e+000 35012 100413,100387,100609
 1.4000e+000 100658 -1.4254e+001 -3.3010e+001  5.4420e+000 35012 100413,100609,100465
 1.4000e+000 100987 -1.6438e+001 -3.6834e+001  3.7133e+000 34700 100788,100866,100814
 1.4000e+000 100964 -1.5050e+001 -3.5131e+001  4.3416e+000 34700 101010,100866,100788
 1.4000e+000 100941 -1.4884e+001 -3.7354e+001  8.6579e+000 34700 100762,100892,100866
 1.4000e+000 100918 -1.9060e+001 -4.1433e+001 -8.5860e-001 34700 100814,100866,100840
 1.4000e+000 101036 -1.2585e+001 -3.3232e+001  6.1254e+000 34700 100762,100866,101010
 1.4000e+000 101493 -2.0535e+001 -4.4236e+001 -2.8158e+000 34132 101516,101349,101297
 1.4000e+000 101470 -2.7816e+001 -5.7499e+001 -6.4793e+000 34132 101588,101516,101297
 1.4000e+000 101447 -2.8120e+001 -6.2186e+001 -1.1110e+001 34132 101588,101297,101245
 1.4000e+000 101424 -1.2623e+001 -7.5349e+001 -1.0420e+001 34132 101245,101297,101271
 1.4000e+000 101401 -2.4597e+001 -4.4413e+001 -4.4768e+000 34132 101297,101349,101323
 1.4000e+000 101542 -2.1910e+001 -5.4550e+001 -1.5982e+000 34132 101375,101349,101516
 1.4000e+000 101565 -1.8052e+001 -5.3674e+001 -1.4957e+000 34132 101375,101516,101219
 1.4000e+000 101614 -1.8969e+001 -5.8053e+001 -1.6075e+000 34132 101219,101516,101588
 1.4000e+000 101637 -2.3582e+001 -6.2589e+001 -6.0392e+000 34132 101219,101588,101245
 1.4000e+000 101858 -6.0279e+000 -5.0253e+001  3.2724e+000 33720 101708,101786,101760
 1.4000e+000 101835 -1.1666e+001 -5.9410e+001  8.8917e-001 33720 101682,101786,101708
 1.4000e+000 101812 -1.5286e+001 -5.4781e+001  1.6038e+000 33720 101708,101760,101734
 1.4000e+000 102128  3.8601e+000 -4.5686e+001 -1.2860e+000 33130 101903,102007,101929
 1.4000e+000 102105  9.6944e-001 -5.5917e+001  2.9848e+000 33130 101903,102033,102007
 1.4000e+000 102082  7.2681e+000 -5.7608e+001 -1.3671e+001 33130 101929,102007,101955
 1.4000e+000 102059 -7.3117e-001 -3.6519e+001  1.5425e+000 33130 101955,102007,101981
 1.4000e+000 102461 -2.5235e+001 -6.1670e+001 -5.2304e+000 32840 102236,102340,102262
 1.4000e+000 102438 -2.0088e+001 -4.0874e+001  1.0923e+000 32840 102236,102366,102340
 1.4000e+000 102415 -1.1528e+001 -5.7653e+001 -4.5665e+000 32840 102262,102340,102288
 1.4000e+000 102392 -3.0092e+001 -6.2810e+001 -1.1738e+001 32840 102288,102340,102314
 1.4000e+000 102997 -1.1854e+001 -2.4753e+001  8.5578e+000 32493 102749,102879,102853
 1.4000e+000 102974 -7.4772e+000 -1.5036e+001  7.4298e+000 32493 102723,102879,102749
 1.4000e+000 102951 -1.8756e+001 -3.4744e+001  6.4918e+000 32493 102749,102801,102775
 1.4000e+000 102928 -1.8645e+001 -3.2134e+001  5.1112e+000 32493 102749,102853,102801
 1.4000e+000 102905 -1.8563e+001 -3.1373e+001  5.6207e+000 32493 102801,102853,102827
 1.4000e+000 103454 -2.6723e+001 -5.0310e+001 -3.1477e+000 32089 103206,103336,103310
 1.4000e+000 103431 -2.1624e+001 -4.6884e+001 -1.4646e-001 32089 103180,103336,103206
 1.4000e+000 103408 -3.0539e+001 -6.4580e+001 -6.5033e+000 32089 103206,103284,103258
 1.4000e+000 103385 -4.1755e+001 -6.1946e+001 -1.1956e+001 32089 103206,103310,103284
 1.4000e+000 103362 -2.3046e+001 -4.3829e+001  1.6184e+000 32089 103206,103258,103232
 1.4000e+000 103783 -3.4609e+001 -5.4963e+001 -4.0411e+000 31742 103558,103662,103584
 1.4000e+000 103760 -3.0064e+001 -4.8917e+001 -1.0216e+001 31742 103558,103688,103662
 1.4000e+000 103737 -1.2641e+001 -4.4437e+001 -7.6239e+000 31742 103584,103662,103636
 1.4000e+000 103714 -3.0665e+001 -5.1461e+001  1.4652e+000 31742 103584,103636,103610
 1.4000e+000 104112 -8.3176e+000 -5.2582e+001  1.2690e+000 31402 103939,103991,103965
 1.4000e+000 104089  4.8937e+000 -3.7514e+001  7.3176e+000 31402 103913,103991,103939
 1.4000e+000 104066 -1.5731e+001 -4.7985e+001  3.5333e+000 31402 103913,104017,103991
 1.4000e+000 104043 -1.4134e+001 -4.1097e+001  3.7200e+000 31402 103887,104017,103913
 1.4000e+000 104569 -3.5775e+001 -6.5105e+001  6.6411e-001 30998 104321,104425,104373
 1.4000e+000 104546 -3.6861e+001 -6.4692e+001 -7.0808e-001 30998 104321,104451,104425
 1.4000e+000 104523 -3.1567e+001 -6.3337e+001  1.2260e+000 30998 104373,104425,104399
 1.4000e+000 104500 -3.4460e+001 -6.5955e+001 -1.3525e+000 30998 104295,104451,104321
 1.4000e+000 104477 -5.1836e+001 -9.1554e+001  9.6159e+000 30998 104321,104373,104347
 1.4000e+000 104947 -2.8682e+001 -4.6884e+001 -5.8963e+000 30608 104751,104803,104777
 1.4000e+000 104924 -1.5223e+001 -4.6588e+001 -8.2093e-001 30608 104725,104803,104751
 1.4000e+000 104901 -2.5081e+001 -4.6229e+001  2.9715e+000 30608 104699,104803,104725
 1.4000e+000 104878 -2.7716e+001 -4.8021e+001  4.0931e+000 30608 104673,104803,104699
 1.4000e+000 104855 -2.1439e+001 -4.8697e+001 -1.8904e+000 30608 104673,104829,104803
 1.4000e+000 105276 -1.6134e+001 -4.2366e+001  4.9886e+000 30204 105427,105129,105077
 1.4000e+000 105253 -7.8012e+000 -4.3670e+001  1.4005e+001 30204 105427,105077,105051
 1.4000e+000 105230 -1.2743e+001 -4.6525e+001  2.3027e+000 30204 105077,105129,105103
 1.4000e+000 105207 -3.1551e+001 -3.9448e+001  5.9147e+000 30204 105299,105181,105155
 1.4000e+000 105325 -2.4038e+001 -3.5842e+001  4.3972e+000 30204 105129,105181,105299
 1.4000e+000 105453 -2.1021e+001 -4.4779e+001  6.2166e+000 30204 105181,105129,105427
 1.4000e+000 105476 -2.3686e+001 -5.0975e+001  1.6124e+001 30204 105181,105427,105051
 1.4000e+000 105903 -2.3967e+000 -3.1377e+001 -2.8158e+000 29700 105606,105762,105736
 1.4000e+000 105880 -1.0715e+001 -3.3597e+001  1.3427e+000 29700 105580,105762,105606
 1.4000e+000 105857 -1.2517e+001 -4.2184e+001 -1.4954e+000 29700 105606,105710,105632
 1.4000e+000 105834 -8.7841e+000 -3.2975e+001 -5.8914e-001 29700 105606,105736,105710
 1.4000e+000 105811 -2.1126e+001 -4.7129e+001  2.9161e+000 29700 105632,105710,105684
 1.4000e+000 105788 -1.7775e+001 -3.9415e+001  1.0080e+000 29700 105632,105684,105658
 1.4000e+000 106102 -1.0945e+001 -4.6642e+001  2.7716e+000 29124 105978,106030,106004
 1.4000e+000 106079 -1.7333e+001 -5.2396e+001  3.0286e-001 29124 105926,106030,105978
 1.4000e+000 106056 -1.5895e+001 -5.3532e+001  6.5463e+000 29124 105926,105978,105952
 1.4000e+000 106301 -4.6594e+000 -4.0679e+001  2.2303e-001 28712 106151,106229,106203
 1.4000e+000 106278 -7.5143e+000 -4.6635e+001 -2.8174e+000 28712 106125,106229,106151
 1.4000e+000 106255 -3.9686e+000 -4.0092e+001 -1.4694e-001 28712 106151,106203,106177
 1.4000e+000 106551 -1.7562e+001 -5.7020e+001 -2.7748e+000 28258 106352,106404,106378
 1.4000e+000 106528 -1.9789e+001 -5.8981e+001 -1.2853e+000 28258 106352,106456,106404
 1.4000e+000 106505 -1.4994e+001 -6.5032e+001 -3.5562e+000 28258 106326,106456,106352
 1.4000e+000 106482 -2.0620e+001 -5.7658e+001  8.5430e-001 28258 106404,106456,106430
 1.4000e+000 107012 -1.9576e+001 -5.1892e+001  1.0914e+001 27818 107035,106790,106764
 1.4000e+000 106989 -1.5751e+001 -4.5731e+001  5.7210e+000 27818 107035,106764,106868
 1.4000e+000 106966 -1.3303e+001 -5.3317e+001  5.2293e+000 27818 107107,106842,106816
 1.4000e+000 106943 -2.6216e+001 -4.4407e+001  4.9261e+000 27818 106738,106868,106764
 1.4000e+000 106920 -2.7699e+001 -4.2702e+001  1.3674e+001 27818 106738,106894,106868
 1.4000e+000 107061 -9.3257e+000 -4.7967e+001  1.0380e+001 27818 106816,106790,107035
 1.4000e+000 107084 -1.4488e+001 -5.1221e+001  5.4892e+000 27818 107107,106816,107035
 1.4000e+000 107133 -1.4821e+001 -4.9843e+001  3.4734e+000 27818 106868,106842,107107
 1.4000e+000 107156 -1.4764e+001 -4.6078e+001  4.3649e+000 27818 106868,107107,107035
 1.4000e+000 107613  4.6882e+000 -3.5715e+001  8.6077e+000 27312 107339,107469,107365
 1.4000e+000 107590  7.8861e+000 -3.4408e+001  8.1319e+000 27312 107339,107495,107469
 1.4000e+000 107567  4.5181e+000 -3.2659e+001  5.3304e+000 27312 107391,107469,107443
 1.4000e+000 107544  5.0668e+000 -3.6875e+001  4.5043e+000 27312 107365,107469,107391
 1.4000e+000 107521 -1.7783e+000 -3.6618e+001  8.5522e+000 27312 107391,107443,107417
 1.4000e+000 107991 -2.0321e+001 -6.4346e+001  2.5823e+000 26858 108086,108014,107795
 1.4000e+000 107968 -2.0479e+001 -6.7222e+001  1.9281e+000 26858 108014,107717,107873
 1.4000e+000 107945 -1.9543e+001 -6.5648e+001  1.4217e+000 26858 108158,108086,107795
 1.4000e+000 107922 -1.8584e+001 -6.8537e+001  2.4626e+000 26858 108158,107795,107769
 1.4000e+000 107899 -2.2674e+001 -7.2709e+001  1.0042e+001 26858 107821,107873,107847
 1.4000e+000 108040 -2.1088e+001 -6.8229e+001  2.9449e+000 26858 107821,107795,108014
 1.4000e+000 108063 -1.9859e+001 -6.4750e+001  2.2849e+000 26858 107821,108014,107873
 1.4000e+000 108112 -1.8255e+001 -6.3973e+001  6.1235e-001 26858 107717,108014,108086
 1.4000e+000 108135 -1.8728e+001 -5.9926e+001 -5.3482e-001 26858 107717,108086,107743
 1.4000e+000 108184 -1.8961e+001 -6.1896e+001  2.0285e+000 26858 107743,108086,108158
 1.4000e+000 108207 -1.7841e+001 -6.4665e+001  2.4317e+000 26858 107743,108158,107769
 1.4000e+000 108634 -2.4914e+001 -5.6867e+001 -6.8426e-001 26404 108657,108415,108363
 1.4000e+000 108611 -2.6514e+001 -5.7503e+001  3.9990e+000 26404 108657,108363,108337
 1.4000e+000 108588 -2.5499e+001 -5.7157e+001  4.7090e+000 26404 108729,108311,108467
 1.4000e+000 108565 -3.1177e+001 -5.9303e+001 -1.5207e+000 26404 108801,108441,108415
 1.4000e+000 108542 -1.6301e+001 -5.7837e+001  1.9351e+001 26404 108311,108493,108467
 1.4000e+000 108519 -2.0956e+001 -5.8346e+001 -1.2827e+000 26404 108363,108415,108389
 1.4000e+000 108683 -3.2036e+001 -5.8592e+001 -1.3828e+000 26404 108801,108415,108657
 1.4000e+000 108706 -3.1259e+001 -5.7916e+001  3.9836e+000 26404 108729,108467,108657
 1.4000e+000 108755 -2.2148e+001 -5.8717e+001  4.5675e+000 26404 108337,108311,108729
 1.4000e+000 108778 -2.5033e+001 -5.7351e+001  3.5374e+000 26404 108337,108729,108657
 1.4000e+000 108827 -3.2163e+001 -6.0399e+001 -1.9354e+000 26404 108467,108441,108801
 1.4000e+000 108850 -3.2822e+001 -5.9349e+001 -1.7174e+000 26404 108467,108801,108657
 1.4000e+000 109228 -1.2543e+001 -5.2254e+001 -1.3728e-001 26064 109006,109084,109058
 1.4000e+000 109205 -1.3285e+001 -5.0875e+001  2.2197e+000 26064 108980,109084,109006
 1.4000e+000 109182 -1.2164e+001 -4.5881e+001 -2.2677e+000 26064 108980,109110,109084
 1.4000e+000 109159 -1.1498e+001 -5.9399e+001  5.1875e+000 26064 109006,109058,109032
 1.4000e+000 109136 -7.1249e-001 -3.4273e+001  2.4238e+000 26064 108954,109110,108980
 1.4000e+000 109427 -1.1879e+001 -5.1368e+001 -8.7847e+000 25660 109303,109355,109329
 1.4000e+000 109404 -1.5529e+001 -5.7804e+001 -1.2548e+000 25660 109277,109355,109303
 1.4000e+000 109381 -1.2628e+001 -5.8556e+001 -1.5000e+000 25660 109251,109355,109277
 1.4000e+000 109577 -1.6053e+000 -2.7994e+001  1.7431e+001 25306 109476,109528,109502
 1.4000e+000 109554  6.5289e+000 -3.3683e+001  4.5076e+000 25306 109450,109528,109476
 1.4000e+000 109778 -3.7172e+000 -4.3621e+001  2.3369e+000 24944 109628,109706,109654
 1.4000e+000 109755 -5.6658e+000 -4.7444e+001  1.6239e+000 24944 109602,109706,109628
 1.4000e+000 109732  2.4888e-001 -4.2399e+001 -4.6209e+000 24944 109654,109706,109680
 1.4000e+000 110126 -2.1871e+001 -7.2962e+001  4.6197e+000 24440 110149,109907,109855
 1.4000e+000 110103 -2.4724e+001 -7.5435e+001  5.7596e+000 24440 110149,109855,109985
 1.4000e+000 110080 -1.5652e+001 -6.5600e+001  1.2156e+000 24440 109855,109907,109881
 1.4000e+000 110057 -1.6285e+001 -6.0690e+001  1.7433e+001 24440 109829,109985,109855
 1.4000e+000 110034 -2.1852e+001 -7.4232e+001 -3.7121e-001 24440 109907,109959,109933
 1.4000e+000 110011 -2.9362e+001 -6.8724e+001  6.7003e+000 24440 109803,109985,109829
 1.4000e+000 110175 -2.2863e+001 -6.9307e+001  1.5480e+000 24440 109959,109907,110149
 1.4000e+000 110198 -2.7502e+001 -7.2573e+001  3.0679e+000 24440 109959,110149,109985
 1.4000e+000 110301 -2.9150e+000 -7.5438e+001 -7.8235e+000 24028 110223,110275,110249
 1.4000e+000 110573 -4.9406e+000 -5.5685e+001 -2.6926e-001 23467 110400,110452,110426
 1.4000e+000 110550  2.0318e+000 -4.6576e+001  3.3388e+000 23467 110374,110452,110400
 1.4000e+000 110527 -1.1341e+001 -5.2304e+001  3.4941e+000 23467 110348,110452,110374
 1.4000e+000 110504 -4.3395e+000 -4.6479e+001  9.4209e-001 23467 110348,110478,110452
 1.4000e+000 111004 -2.9957e+001 -6.6823e+001 -3.7432e+000 22963 111027,110733,110707
 1.4000e+000 110981 -2.7239e+001 -6.2514e+001  6.1596e+000 22963 111027,110707,110681
 1.4000e+000 110958 -5.9645e+000 -5.2804e+001  1.0447e+000 22963 111099,110759,110733
 1.4000e+000 110935 -1.6745e+001 -5.7123e+001 -3.6846e+000 22963 111171,110863,110811
 1.4000e+000 110912  3.9632e+000 -4.5786e+001 -2.0704e+000 22963 110759,110811,110785
 1.4000e+000 110889 -2.0996e+001 -6.7783e+001 -3.2484e+000 22963 110811,110863,110837
 1.4000e+000 111053 -1.7016e+001 -5.6962e+001  1.3943e+000 22963 111099,110733,111027
 1.4000e+000 111076 -1.5556e+001 -6.0914e+001 -3.0440e+000 22963 111171,110811,111027
 1.4000e+000 111125 -6.7849e+000 -5.4154e+001 -6.2256e+000 22963 110811,110759,111099
 1.4000e+000 111148 -9.9943e+000 -5.5836e+001 -6.8968e+000 22963 110811,111099,111027
 1.4000e+000 111197 -1.6473e+001 -5.1698e+001 -4.2489e+000 22963 110681,110863,111171
 1.4000e+000 111220 -1.6088e+001 -5.5730e+001 -2.0782e+000 22963 110681,111171,111027
 1.4000e+000 111726 -2.3910e+001 -5.9684e+001  7.8992e-001 22459 111749,111507,111429
 1.4000e+000 111703 -1.8218e+001 -5.7509e+001 -1.6166e+000 22459 111749,111429,111585
 1.4000e+000 111680 -4.1492e+000 -6.3436e+001  1.9085e+000 22459 111403,111585,111429
 1.4000e+000 111657 -2.1832e+001 -7.1913e+001  1.4644e+000 22459 111507,111559,111533
 1.4000e+000 111634 -4.4383e+001 -6.6143e+001  1.5979e+000 22459 111455,111507,111481
 1.4000e+000 111611 -3.3942e+001 -6.0530e+001  4.3689e+000 22459 111429,111507,111455
 1.4000e+000 111775 -2.2575e+001 -6.3709e+001  5.3788e+000 22459 111559,111507,111749
 1.4000e+000 111798 -1.7719e+001 -6.0052e+001  2.8570e+000 22459 111559,111749,111585
 1.4000e+000 112046 -4.7596e+000 -5.1513e+001 -2.4017e-001 21898 112069,111925,111873
 1.4000e+000 112023 -3.3817e+000 -4.9384e+001  3.0613e+000 21898 112069,111873,111847
 1.4000e+000 112000 -4.2664e+000 -5.4065e+001 -1.3798e+000 21898 111821,111951,111847
 1.4000e+000 111977 -1.2894e+001 -4.5220e+001  8.2417e-002 21898 111873,111925,111899
 1.4000e+000 112095 -9.6612e+000 -5.2556e+001 -3.0691e+000 21898 111951,111925,112069
 1.4000e+000 112118 -6.5221e+000 -5.0041e+001  1.8983e-001 21898 111951,112069,111847
 1.4000e+000 112498 -2.3688e+001 -5.4210e+001 -4.8264e+000 21608 112521,112276,112224
 1.4000e+000 112475 -1.8116e+001 -5.5872e+001 -2.1516e-001 21608 112521,112224,112380
 1.4000e+000 112452 -2.0466e+001 -6.0882e+001  2.2609e+000 21608 112302,112380,112354
 1.4000e+000 112429 -2.6126e+001 -6.1102e+001 -3.8423e+000 21608 112224,112276,112250
 1.4000e+000 112406  4.2841e-001 -6.3705e+001 -2.5508e+000 21608 112302,112354,112328
 1.4000e+000 112547 -1.8938e+001 -4.5651e+001 -2.9654e+000 21608 112302,112276,112521
 1.4000e+000 112570 -1.6150e+001 -5.2496e+001  5.8870e-001 21608 112302,112521,112380
 1.4000e+000 112948 -2.7077e+001 -6.1128e+001 -1.6640e+000 20882 112971,112752,112700
 1.4000e+000 112925 -1.9773e+001 -5.9156e+001 -4.4474e+000 20882 112971,112700,112830
 1.4000e+000 112902 -3.4813e+001 -6.5764e+001  1.6103e+000 20882 112778,112830,112804
 1.4000e+000 112879 -1.8060e+001 -4.5766e+001 -5.7652e+000 20882 112674,112830,112700
 1.4000e+000 112856 -3.2152e+001 -6.2766e+001  6.4416e-002 20882 112700,112752,112726
 1.4000e+000 112997 -2.7756e+001 -6.2209e+001  2.2719e+000 20882 112778,112752,112971
 1.4000e+000 113020 -2.3463e+001 -6.1380e+001 -5.9766e-001 20882 112778,112971,112830
 1.4000e+000 113526 -1.9797e+001 -6.2060e+001 -3.3586e-001 20428 113255,113385,113333
 1.4000e+000 113503 -2.1274e+001 -6.5160e+001 -7.8442e-001 20428 113229,113385,113255
 1.4000e+000 113480 -1.8312e+000 -5.9383e+001  5.4696e-001 20428 113255,113333,113281
 1.4000e+000 113457 -1.7674e+001 -6.3839e+001 -2.9688e-001 20428 113203,113385,113229
 1.4000e+000 113434 -1.1529e+001 -6.1744e+001 -2.5170e+000 20428 113281,113333,113307
 1.4000e+000 113411 -2.6096e+001 -6.1038e+001  1.2456e+000 20428 113333,113385,113359
 1.4000e+000 113774 -8.5215e+000 -5.4924e+001  2.5406e+000 19917 113797,113601,113549
 1.4000e+000 113751 -1.2060e+001 -5.5412e+001  2.9102e+000 19917 113869,113797,113549
 1.4000e+000 113728 -1.1784e+001 -5.5643e+001  3.9760e+000 19917 113869,113549,113679
 1.4000e+000 113705 -6.9715e+000 -5.4493e+001  8.3213e-001 19917 113549,113601,113575
 1.4000e+000 113823 -1.1988e+001 -5.5295e+001  7.4770e-001 19917 113627,113601,113797
 1.4000e+000 113846 -1.3423e+001 -5.3599e+001  2.4760e+000 19917 113627,113797,113653
 1.4000e+000 113895 -1.1370e+001 -5.3100e+001  2.5212e+000 19917 113653,113797,113869
 1.4000e+000 113918 -1.1641e+001 -5.3530e+001  3.8386e+000 19917 113653,113869,113679
 1.4000e+000 114166 -2.7535e+001 -6.1515e+001 -1.7949e+000 19413 113993,114045,114019
 1.4000e+000 114143 -2.1208e+001 -5.5922e+001  5.6289e-001 19413 113967,114045,113993
 1.4000e+000 114120 -2.1030e+001 -5.5940e+001  1.3289e+000 19413 113967,114071,114045
 1.4000e+000 114097 -9.9673e+000 -6.1221e+001 -2.2645e+000 19413 113941,114071,113967
 1.4000e+000 114438 -8.4931e+000 -5.2738e+001 -1.0669e+000 19001 114213,114265,114239
 1.4000e+000 114415 -6.3075e+000 -4.4855e+001 -7.2428e-001 19001 114213,114343,114265
 1.4000e+000 114392 -1.1675e+001 -5.6266e+001 -2.5951e+000 19001 114265,114343,114317
 1.4000e+000 114369 -4.9623e+000 -5.1627e+001  8.5168e-001 19001 114265,114317,114291
 1.4000e+000 114639 -9.5967e+000 -5.1804e+001 -1.2798e+000 18554 114489,114541,114515
 1.4000e+000 114616 -2.2046e+000 -5.1826e+001 -2.2585e+000 18554 114489,114567,114541
 1.4000e+000 114593  7.5955e+000 -4.7055e+001  6.7061e-001 18554 114463,114567,114489
 1.4000e+000 115043 -1.7394e+001 -5.9622e+001  1.6271e+000 18164 114795,114925,114821
 1.4000e+000 115020 -1.3489e+001 -6.3377e+001  4.4432e+000 18164 114769,114925,114795
 1.4000e+000 114997 -1.5228e+001 -6.2944e+001 -2.3245e-001 18164 115066,114873,114821
 1.4000e+000 114974 -1.3599e+001 -5.5263e+001 -6.3616e-001 18164 115066,114821,114925
 1.4000e+000 114951 -8.4110e+000 -6.0170e+001  9.4049e-002 18164 114821,114873,114847
 1.4000e+000 115092 -1.9067e+001 -5.7317e+001 -4.4877e+000 18164 114899,114873,115066
 1.4000e+000 115115 -1.4817e+001 -4.5651e+001 -5.0563e+000 18164 114899,115066,114925
 1.4000e+000 115265 -2.3244e+001 -7.1716e+001 -4.6595e-002 17852 115164,115216,115190
 1.4000e+000 115242 -2.0255e+001 -7.0189e+001  1.1477e+000 17852 115138,115216,115164
 1.4000e+000 115464 -1.3168e+001 -6.6616e+001  6.6423e+000 17346 115288,115366,115340
 1.4000e+000 115441 -5.2232e+001 -5.5470e+001  7.0724e+000 17346 115288,115392,115366
 1.4000e+000 115418 -1.7436e+001 -9.1617e+001 -3.5252e+000 17346 115288,115340,115314
 1.4000e+000 115736 -1.9087e+001 -6.1794e+001  9.3704e-001 16942 115563,115641,115615
 1.4000e+000 115713 -1.9562e+001 -5.8722e+001 -2.2400e-001 16942 115511,115641,115563
 1.4000e+000 115690 -4.5285e+001 -7.0885e+001  4.5910e+000 16942 115563,115615,115589
 1.4000e+000 115667 -2.3582e+001 -6.6837e+001  1.3027e+000 16942 115511,115563,115537
 1.4000e+000 116091 -2.0158e+001 -5.6947e+001 -2.5343e+000 16388 115918,115970,115944
 1.4000e+000 116068 -1.7022e+001 -4.6454e+001 -1.9147e+000 16388 115918,115996,115970
 1.4000e+000 116045 -2.3209e+001 -5.6056e+001  8.7837e-001 16388 115892,115996,115918
 1.4000e+000 116022 -2.4063e+001 -6.1808e+001  6.6592e-001 16388 115866,115996,115892
 1.4000e+000 116192 -7.0427e+000 -7.7132e+001 -1.2393e+001 15810 116114,116166,116140
 1.4000e+000 116342 -4.2138e+000 -5.4439e+001  3.0270e+000 15419 116241,116293,116267
 1.4000e+000 116319 -5.5786e+000 -6.3653e+001 -4.1369e-001 15419 116215,116293,116241
 1.4000e+000 116445 -2.7591e+001 -6.1083e+001 -8.2004e-001 421 116367,116419,116393
 1.5000e+000 68477 -4.0701e+001 -6.2641e+001  6.7040e-001 68018 68327,68379,68353
 1.5000e+000 68454 -4.2484e+001 -8.6105e+001  7.2385e+000 68018 68301,68379,68327
 1.5000e+000 68431 -1.8479e+001 -9.8365e+001  1.6396e+001 68018 68301,68405,68379
 1.5000e+000 68578 -2.0159e+001 -7.0344e+001  7.8291e-001 67820 68500,68552,68526
 1.5000e+000 68728 -2.8456e+001 -6.7108e+001 -2.2274e-001 67508 68601,68653,68627
 1.5000e+000 68705 -5.3972e+001 -5.0844e+001 -1.1301e+001 67508 68601,68679,68653
 1.5000e+000 68927  2.7100e+000 -5.0746e+001 -3.1613e+000 67310 68777,68829,68803
 1.5000e+000 68904 -8.7119e+000 -5.9740e+001  1.4156e+000 67310 68751,68829,68777
 1.5000e+000 68881 -1.2205e+001 -6.7115e+001  2.6206e-001 67310 68751,68855,68829
 1.5000e+000 69386 -2.4204e+001 -7.4538e+001 -2.4382e+000 67020 69216,69268,69242
 1.5000e+000 69363 -1.9870e+001 -5.5549e+001 -4.9172e+000 67020 69138,69268,69216
 1.5000e+000 69340 -1.7309e+001 -4.8480e+001  1.7170e-001 67020 69112,69268,69138
 1.5000e+000 69317 -2.9743e+001 -6.6522e+001  1.1452e+001 67020 69138,69190,69164
 1.5000e+000 69294 -3.1851e+001 -5.8810e+001  5.5079e-002 67020 69138,69216,69190
 1.5000e+000 69536 -4.3712e+001 -1.2326e+002 -7.6355e+000 66708 69435,69487,69461
 1.5000e+000 69513 -3.6057e+001 -1.3573e+002 -1.0189e+000 66708 69409,69487,69435
 1.5000e+000 69735 -3.2487e+001 -7.6839e+001  2.9244e+000 66346 69585,69637,69611
 1.5000e+000 69712 -2.4336e+001 -7.6439e+001  1.0337e+000 66346 69559,69637,69585
 1.5000e+000 69689 -2.1697e+001 -7.7683e+001 -7.1472e+000 66346 69559,69663,69637
 1.5000e+000 69985 -3.4966e+001 -7.5397e+001  1.9411e+000 66148 69786,69890,69864
 1.5000e+000 69962 -3.7693e+001 -7.6942e+001  2.6600e+000 66148 69760,69890,69786
 1.5000e+000 69939 -2.0263e+001 -6.9595e+001 -1.2333e+001 66148 69786,69864,69838
 1.5000e+000 69916 -2.8754e+001 -7.9039e+001 -3.5132e+000 66148 69786,69838,69812
 1.5000e+000 70137  8.6421e+000 -6.1722e+001 -4.8320e+000 65950 70036,70088,70062
 1.5000e+000 70114  1.9798e+001 -7.1814e+001  7.4073e+000 65950 70010,70088,70036
 1.5000e+000 70470  7.3302e+000 -4.6103e+001  3.3889e-001 65546 70245,70323,70271
 1.5000e+000 70447  4.5906e+000 -5.1854e+001  1.1245e+000 65546 70245,70375,70323
 1.5000e+000 70424  5.3777e+000 -6.1019e+001  3.2438e+000 65546 70323,70375,70349
 1.5000e+000 70401  2.8755e+000 -4.8130e+001  1.0212e+000 65546 70271,70323,70297
 1.5000e+000 70620 -1.1330e+001 -7.2036e+001  4.1945e+000 65348 70493,70545,70519
 1.5000e+000 70597 -9.4870e+000 -8.0104e+001  2.6956e+000 65348 70493,70571,70545
 1.5000e+000 70721 -3.9721e+001 -7.1668e+001  1.0862e-001 65150 70643,70695,70669
 1.5000e+000 71020 -2.0135e+001 -4.5369e+001  2.1533e+000 64952 71043,70850,70824
 1.5000e+000 70997 -1.4371e+001 -3.7247e+001 -2.8071e+000 64952 71043,70824,70772
 1.5000e+000 70974 -1.2158e+001 -6.2148e+001  1.9835e+000 64952 71115,70746,70876
 1.5000e+000 70951 -1.6577e+001 -6.0998e+001  4.5457e+000 64952 70746,70902,70876
 1.5000e+000 70928 -1.8935e+001 -3.5987e+001 -4.1440e+000 64952 70772,70824,70798
 1.5000e+000 71069 -8.8292e+000 -3.9321e+001  5.5220e+000 64952 70876,70850,71043
 1.5000e+000 71092 -1.5125e+001 -5.4722e+001  7.6814e-001 64952 71115,70876,71043
 1.5000e+000 71141 -1.3908e+001 -5.4188e+001 -3.5818e+000 64952 70772,70746,71115
 1.5000e+000 71164 -1.2937e+001 -4.2664e+001 -5.5463e+000 64952 70772,71115,71043
 1.5000e+000 71365  1.3952e+001 -5.7834e+001 -3.0492e+000 64662 71215,71293,71267
 1.5000e+000 71342  3.0224e+001 -3.4515e+001 -1.1975e+001 64662 71189,71293,71215
 1.5000e+000 71319  2.6089e+001 -2.1495e+001 -4.3115e+000 64662 71215,71267,71241
 1.5000e+000 71615 -9.9701e+000 -6.6463e+001  9.2799e-001 64350 71710,71638,71468
 1.5000e+000 71592 -5.0806e+000 -6.2035e+001 -2.0768e+000 64350 71638,71416,71390
 1.5000e+000 71569 -1.3260e+001 -5.9670e+001  6.9243e+000 64350 71710,71468,71442
 1.5000e+000 71546  2.2313e+001 -6.0293e+001 -1.0112e+001 64350 71390,71520,71494
 1.5000e+000 71664 -6.8711e+000 -6.4510e+001 -1.2594e+000 64350 71494,71468,71638
 1.5000e+000 71687 -5.4148e+000 -6.4641e+001 -3.9550e-001 64350 71494,71638,71390
 1.5000e+000 71736 -3.8302e+000 -5.2409e+001 -5.2123e-001 64350 71416,71638,71710
 1.5000e+000 71759 -7.9295e+000 -4.7189e+001  6.7773e+000 64350 71416,71710,71442
 1.5000e+000 72318 -8.5951e+000 -1.0270e+002 -5.3962e+000 63837 71972,72024,71998
 1.5000e+000 72295 -1.2810e+001 -6.2850e+001 -1.2168e-002 63837 72341,71972,71946
 1.5000e+000 72272 -1.0992e+001 -4.8345e+001  4.6966e+000 63837 72413,72341,71946
 1.5000e+000 72249 -1.1107e+001 -4.2792e+001  3.1498e+000 63837 72413,71946,72128
 1.5000e+000 72226 -2.5085e+001 -5.2829e+001  2.8202e+000 63837 72024,72076,72050
 1.5000e+000 72203 -1.7720e+001 -4.5568e+001 -8.5906e-001 63837 72024,72102,72076
 1.5000e+000 72180 -8.7463e+000 -4.2408e+001  6.0040e+000 63837 71946,72154,72128
 1.5000e+000 72367 -2.2502e+001 -6.9602e+001 -1.4056e+001 63837 72024,71972,72341
 1.5000e+000 72390 -1.2604e+001 -5.1757e+001 -4.7485e+000 63837 72024,72341,72102
 1.5000e+000 72439 -8.0552e+000 -5.7113e+001  2.6590e+000 63837 72102,72341,72413
 1.5000e+000 72462 -7.8230e+000 -5.1012e+001  1.8256e+000 63837 72102,72413,72128
 1.5000e+000 72791 -2.1774e+001 -5.2626e+001 -6.0268e+000 63383 72592,72696,72670
 1.5000e+000 72768 -2.4261e+001 -5.0564e+001 -1.3025e+001 63383 72566,72696,72592
 1.5000e+000 72745 -2.4205e+001 -4.6201e+001 -2.5963e-001 63383 72592,72670,72618
 1.5000e+000 72722 -2.4998e+001 -4.4131e+001 -3.2590e+000 63383 72618,72670,72644
 1.5000e+000 73297 -3.2470e+001 -4.8731e+001 -1.1561e+000 63185 73000,73156,73130
 1.5000e+000 73274 -3.2741e+001 -5.1102e+001  6.4030e+000 63185 72974,73156,73000
 1.5000e+000 73251 -2.2974e+001 -5.6871e+001 -2.5184e-001 63185 73000,73052,73026
 1.5000e+000 73228 -2.1958e+001 -4.8592e+001 -2.9254e+000 63185 73000,73130,73052
 1.5000e+000 73205 -2.3720e+001 -6.1331e+001 -1.0219e+001 63185 73052,73130,73104
 1.5000e+000 73182 -2.1112e+001 -6.5544e+001 -1.0217e+001 63185 73052,73104,73078
 1.5000e+000 73545 -4.5920e+000 -5.1341e+001  1.4132e-001 62781 73568,73398,73372
 1.5000e+000 73522  2.0981e+000 -4.4667e+001  4.1289e+000 62781 73568,73372,73346
 1.5000e+000 73499 -1.0154e+001 -5.3393e+001 -6.6522e+000 62781 73640,73320,73424
 1.5000e+000 73476  3.4659e+000 -4.8710e+001 -9.9815e+000 62781 73320,73450,73424
 1.5000e+000 73594 -4.2626e+000 -4.6131e+001 -9.1077e-001 62781 73424,73398,73568
 1.5000e+000 73617 -6.9598e+000 -5.0707e+001 -2.3693e+000 62781 73640,73424,73568
 1.5000e+000 73666 -7.5784e+000 -4.8104e+001 -2.4764e+000 62781 73346,73320,73640
 1.5000e+000 73689 -5.6214e+000 -4.4048e+001  1.4345e+000 62781 73346,73640,73568
 1.5000e+000 74035 -1.4247e+001 -6.8315e+001 -4.4247e+000 62363 74058,73868,73842
 1.5000e+000 74012 -1.3214e+000 -5.3619e+001 -1.3575e+001 62363 74130,74058,73842
 1.5000e+000 73989  3.7710e+000 -5.5600e+001 -1.9898e+001 62363 74130,73842,73816
 1.5000e+000 73966 -1.8654e+001 -7.8268e+001  3.2113e+000 62363 74202,73764,73894
 1.5000e+000 73943 -4.0720e+001 -6.7023e+001  2.8540e+000 62363 73712,73894,73764
 1.5000e+000 73920 -4.6320e+001 -7.0397e+001 -5.2853e-001 62363 73712,73764,73738
 1.5000e+000 74084 -6.8529e+000 -6.8899e+001 -1.9820e+000 62363 73894,73868,74058
 1.5000e+000 74107 -1.6037e+001 -7.2423e+001  3.7784e+000 62363 74202,73894,74058
 1.5000e+000 74156 -9.5717e+000 -6.4824e+001 -1.3139e+000 62363 73790,74058,74130
 1.5000e+000 74179  7.2034e+000 -6.4260e+001 -7.2953e+000 62363 73790,74130,73816
 1.5000e+000 74228 -2.0165e+001 -7.8998e+001 -4.7241e+000 62363 73790,73764,74202
 1.5000e+000 74251 -1.7153e+001 -7.2102e+001 -4.3337e+000 62363 73790,74202,74058
 1.5000e+000 74403  1.3951e+001 -6.7352e+001  4.3536e+000 62115 74426,74302,74276
 1.5000e+000 74380  2.0777e+001 -6.4264e+001  7.1857e+000 62115 74426,74276,74354
 1.5000e+000 74452  7.1626e+000 -6.2626e+001  4.0350e+000 62115 74328,74302,74426
 1.5000e+000 74475  1.3554e+001 -5.9690e+001  7.0041e+000 62115 74328,74426,74354
 1.5000e+000 74578  2.6953e+000 -6.7196e+001 -2.9718e+000 61825 74500,74552,74526
 1.5000e+000 74982 -3.5092e+001 -8.0081e+001  1.4625e-001 61513 75005,74734,74708
 1.5000e+000 74959 -3.5720e+001 -7.0352e+001 -2.5247e+000 61513 75005,74708,74864
 1.5000e+000 74936 -5.1703e+001 -8.3130e+001  6.1879e+000 61513 75077,74812,74734
 1.5000e+000 74913 -3.5532e+001 -6.5446e+001 -5.3611e+000 61513 74734,74786,74760
 1.5000e+000 74890 -3.9531e+001 -7.1270e+001 -1.4681e+000 61513 74734,74812,74786
 1.5000e+000 75031 -3.3450e+001 -8.3061e+001  1.3845e-001 61513 75077,74734,75005
 1.5000e+000 75054 -2.7098e+001 -8.0876e+001  1.1017e+001 61513 74838,75005,74864
 1.5000e+000 75103 -6.2098e+001 -8.8189e+001  2.2581e+001 61513 74838,74812,75077
 1.5000e+000 75126 -5.0279e+001 -9.2711e+001  1.6619e+001 61513 74838,75077,75005
 1.5000e+000 75553 -1.3810e+001 -6.3520e+001 -8.2377e-001 61060 75576,75360,75308
 1.5000e+000 75530 -8.7380e+000 -7.0744e+001  1.1090e+000 61060 75576,75308,75230
 1.5000e+000 75507 -1.5569e+001 -6.3154e+001  3.6554e-001 61060 75308,75360,75334
 1.5000e+000 75484 -1.7896e+001 -9.0786e+001  3.9188e+000 61060 75230,75308,75256
 1.5000e+000 75461 -1.3966e+001 -7.3552e+001 -5.6746e+000 61060 75256,75308,75282
 1.5000e+000 75438 -2.2819e+001 -6.2878e+001  9.1029e+000 61060 75360,75412,75386
 1.5000e+000 75602 -1.6212e+001 -6.8405e+001  1.8552e+000 61060 75412,75360,75576
 1.5000e+000 75625 -1.2473e+001 -7.8148e+001  3.5973e+000 61060 75412,75576,75230
 1.5000e+000 76052 -1.8275e+001 -5.8841e+001  4.6673e-001 60442 75755,75859,75833
 1.5000e+000 76029 -1.9670e+001 -5.2996e+001 -6.4784e+000 60442 75729,75859,75755
 1.5000e+000 76006 -1.9762e+001 -5.4610e+001  3.6724e+000 60442 75755,75833,75807
 1.5000e+000 75983 -1.8157e+001 -6.5571e+001  1.9171e+000 60442 75755,75807,75781
 1.5000e+000 75960  4.2348e+000 -1.1250e+002  4.7942e+000 60442 75729,75911,75859
 1.5000e+000 75937 -5.0070e+001 -2.6849e+002  1.5884e+001 60442 75859,75911,75885
 1.5000e+000 76430 -1.8605e+001 -5.9977e+001 -8.9645e-001 59788 76453,76286,76234
 1.5000e+000 76407 -2.0690e+001 -6.8481e+001  2.2058e+000 59788 76453,76234,76182
 1.5000e+000 76384 -2.0202e+001 -3.7302e+001  1.0207e+001 59788 76525,76156,76312
 1.5000e+000 76361 -9.1945e+000 -8.0849e+001  3.5530e-001 59788 76182,76234,76208
 1.5000e+000 76338 -9.1633e+000 -5.5087e+001  1.0316e+000 59788 76234,76286,76260
 1.5000e+000 76479 -2.3168e+001 -6.4082e+001  1.3500e+000 59788 76312,76286,76453
 1.5000e+000 76502 -1.8220e+001 -5.8422e+001  4.0343e+000 59788 76525,76312,76453
 1.5000e+000 76551 -2.8977e+001 -6.3920e+001  1.0304e+001 59788 76182,76156,76525
 1.5000e+000 76574 -2.4243e+001 -7.0251e+001  6.1196e+000 59788 76182,76525,76453
 1.5000e+000 77031  1.6332e+000 -2.9643e+001 -8.1187e+000 59448 76835,76887,76861
 1.5000e+000 77008  1.3225e+001 -1.9735e+001 -3.6851e-001 59448 76835,76913,76887
 1.5000e+000 76985  5.6335e+000 -2.0988e+001  6.4737e+000 59448 76809,76913,76835
 1.5000e+000 76962 -8.8234e+000 -2.6265e+001 -3.9581e+000 59448 76757,76913,76809
 1.5000e+000 76939 -3.6390e+000 -2.3342e+001 -6.0480e+000 59448 76757,76809,76783
 1.5000e+000 77537 -1.1710e+001 -6.6655e+001 -5.6595e-001 58994 77560,77344,77292
 1.5000e+000 77514 -3.3111e+001 -6.9434e+001 -5.4578e+000 58994 77560,77292,77240
 1.5000e+000 77491  3.5139e+000 -6.1031e+001 -1.0142e+001 58994 77632,77214,77370
 1.5000e+000 77468 -4.1849e+001 -8.0554e+001  1.0596e+001 58994 77292,77344,77318
 1.5000e+000 77445  5.3527e+000 -9.5586e+001 -1.7893e+000 58994 77214,77396,77370
 1.5000e+000 77422 -3.1034e+001 -6.8009e+001 -9.6983e+000 58994 77240,77292,77266
 1.5000e+000 77586 -2.1720e+001 -7.2088e+001  2.3718e+000 58994 77370,77344,77560
 1.5000e+000 77609 -1.2490e+001 -7.0546e+001  2.9628e+000 58994 77632,77370,77560
 1.5000e+000 77658  1.2110e+001 -5.1384e+001 -2.5120e+001 58994 77240,77214,77632
 1.5000e+000 77681  5.7016e-002 -5.0193e+001 -1.3329e+001 58994 77240,77632,77560
 1.5000e+000 78138 -1.0771e+001 -3.4469e+001  6.3973e+000 58440 77864,77994,77890
 1.5000e+000 78115 -5.3402e+000 -1.4817e+001 -5.3727e+000 58440 77864,78020,77994
 1.5000e+000 78092 -1.3661e+001 -4.1923e+001 -7.7525e+000 58440 77942,77994,77968
 1.5000e+000 78069 -7.2413e+000 -4.1163e+001 -5.0342e-001 58440 77890,77994,77942
 1.5000e+000 78046  1.5459e+000 -4.2264e+001 -6.8367e+000 58440 77890,77942,77916
 1.5000e+000 78467 -5.5894e+000 -6.1962e+001  1.6028e+000 57928 78562,78490,78346
 1.5000e+000 78444 -1.3593e+001 -5.7210e+001  3.8090e+000 57928 78490,78294,78268
 1.5000e+000 78421 -3.4330e+000 -6.4003e+001  3.4192e+000 57928 78562,78346,78320
 1.5000e+000 78398 -1.4412e+000 -5.7378e+001  2.8142e+000 57928 78242,78372,78268
 1.5000e+000 78516 -1.4722e+001 -7.5806e+001 -3.9793e+000 57928 78372,78346,78490
 1.5000e+000 78539 -1.1243e+001 -5.8496e+001  4.0325e-001 57928 78372,78490,78268
 1.5000e+000 78588 -1.4890e+001 -6.2407e+001  1.0356e+000 57928 78294,78490,78562
 1.5000e+000 78611 -9.0308e+000 -6.0408e+001  4.2669e+000 57928 78294,78562,78320
 1.5000e+000 79068 -2.9573e+001 -8.1477e+001 -2.3531e+001 57467 78794,78924,78820
 1.5000e+000 79045 -1.8763e+001 -7.7180e+001 -2.4367e+001 57467 78794,78950,78924
 1.5000e+000 79022  5.7347e+000 -6.2516e+001  3.0176e+000 57467 78820,78898,78872
 1.5000e+000 78999 -2.0431e+001 -9.4558e+001 -1.5284e+001 57467 78820,78924,78898
 1.5000e+000 78976  8.8388e-001 -6.5301e+001  4.3839e+000 57467 78820,78872,78846
 1.5000e+000 79446 -3.0276e+001 -7.1687e+001  9.0303e-001 57120 79172,79302,79250
 1.5000e+000 79423 -2.6448e+001 -6.9782e+001 -4.4920e+000 57120 79172,79328,79302
 1.5000e+000 79400 -2.9598e+001 -6.0536e+001 -1.3403e+000 57120 79172,79250,79198
 1.5000e+000 79377 -1.7030e+001 -9.3424e+001  4.8612e+000 57120 79250,79302,79276
 1.5000e+000 79354 -3.6880e+001 -6.4673e+001 -2.9799e+000 57120 79198,79250,79224
 1.5000e+000 79952 -3.0420e+001 -6.0530e+001  9.6656e-001 56773 79629,79785,79655
 1.5000e+000 79929 -1.7990e-001 -5.1199e+001  3.7490e+000 56773 79629,79811,79785
 1.5000e+000 79906 -1.6838e+001 -7.1812e+001  5.8573e+000 56773 79655,79733,79681
 1.5000e+000 79883 -2.0004e+001 -6.0606e+001  7.4900e-001 56773 79655,79785,79733
 1.5000e+000 79860 -1.5070e+001 -8.3145e+001 -1.5102e+001 56773 79733,79785,79759
 1.5000e+000 79837  7.6946e+000 -6.0314e+001  1.9557e+001 56773 79681,79733,79707
 1.5000e+000 80281 -1.8984e+001 -5.5984e+001 -9.2179e+000 56319 80108,80160,80134
 1.5000e+000 80258 -1.3382e+001 -5.9608e+001 -8.2725e+000 56319 80056,80160,80108
 1.5000e+000 80235 -6.8200e+000 -5.3531e+001  3.3842e+000 56319 80056,80186,80160
 1.5000e+000 80212 -1.3931e+001 -8.1838e+001 -1.0608e+001 56319 80056,80108,80082
 1.5000e+000 80738 -3.1051e+000 -5.8756e+001  5.5634e+000 55957 80516,80620,80594
 1.5000e+000 80715 -1.4520e+001 -5.0277e+001  5.7964e+000 55957 80464,80620,80516
 1.5000e+000 80692 -1.2264e+001 -6.2108e+001  4.2812e+000 55957 80761,80568,80542
 1.5000e+000 80669 -7.9302e+000 -6.2245e+001  4.6205e+000 55957 80761,80542,80516
 1.5000e+000 80646 -1.4442e+001 -4.9865e+001  1.2120e+001 55957 80464,80516,80490
 1.5000e+000 80787 -1.5665e+001 -6.2459e+001  3.8469e+000 55957 80594,80568,80761
 1.5000e+000 80810 -1.1681e+001 -6.2807e+001  4.2808e+000 55957 80594,80761,80516
 1.5000e+000 81210 -5.5930e+000 -5.7137e+001 -5.1191e+000 55317 80936,80988,80962
 1.5000e+000 81187 -4.6457e+000 -6.1242e+001 -1.9644e+000 55317 80936,81066,80988
 1.5000e+000 81164 -4.8412e+000 -6.6578e+001 -1.1466e-001 55317 80936,81092,81066
 1.5000e+000 81141 -1.9689e+001 -6.9085e+001 -7.1076e+000 55317 80988,81066,81014
 1.5000e+000 81118  4.1921e+000 -4.0731e+001  3.6713e+000 55317 81014,81066,81040
 1.5000e+000 81539 -2.3129e+001 -6.1837e+001 -2.5956e-001 54913 81340,81418,81392
 1.5000e+000 81516 -3.2492e-001 -4.9266e+001 -6.7347e+000 54913 81340,81444,81418
 1.5000e+000 81493 -2.9098e+000 -5.2508e+001 -1.3473e+001 54913 81314,81444,81340
 1.5000e+000 81470 -2.7166e+001 -7.4779e+001 -2.8441e+000 54913 81340,81392,81366
 1.5000e+000 81787 -9.9189e+000 -6.5699e+001 -2.8018e+000 54601 81588,81692,81640
 1.5000e+000 81764 -2.4282e+001 -6.6799e+001 -5.8223e+000 54601 81562,81692,81588
 1.5000e+000 81741 -7.6024e+000 -6.7398e+001  7.1938e+000 54601 81588,81640,81614
 1.5000e+000 81718 -1.0030e+001 -8.6741e+001 -1.4652e+001 54601 81640,81692,81666
 1.5000e+000 82344 -1.5861e+001 -7.4809e+001 -1.0876e+001 54090 81998,82102,82076
 1.5000e+000 82321 -2.5537e+001 -7.9129e+001 -7.6768e+000 54090 81998,82154,82102
 1.5000e+000 82298 -2.4310e+001 -7.5197e+001 -6.4040e+000 54090 81972,82154,81998
 1.5000e+000 82275 -1.9226e+001 -7.2165e+001 -1.1442e+001 54090 81998,82076,82024
 1.5000e+000 82252 -3.5015e+001 -8.2300e+001  5.1895e-001 54090 81972,82180,82154
 1.5000e+000 82229 -4.3625e+001 -9.3313e+001  3.8008e+000 54090 82102,82154,82128
 1.5000e+000 82206  4.0539e+001 -4.5655e+001 -1.7294e+001 54090 82024,82076,82050
 1.5000e+000 82722 -4.0940e+001 -7.6774e+001 -2.9424e+000 53579 82500,82578,82552
 1.5000e+000 82699 -3.1367e+001 -7.3447e+001  8.0680e-001 53579 82448,82578,82500
 1.5000e+000 82676 -3.5001e+001 -7.9293e+001  2.3775e+000 53579 82448,82500,82474
 1.5000e+000 82653 -3.9869e+001 -7.8878e+001  8.2763e+000 53579 82448,82604,82578
 1.5000e+000 82630 -2.4479e+001 -7.1902e+001 -2.8260e+000 53579 82500,82552,82526
 1.5000e+000 83356 -1.5671e+001 -5.3870e+001 -5.4457e+000 53189 83379,83088,83036
 1.5000e+000 83333 -1.5279e+001 -6.1362e+001 -5.0256e+000 53189 83379,83036,82984
 1.5000e+000 83310 -1.1590e-001 -5.4773e+001  1.2623e+001 53189 82984,83192,83166
 1.5000e+000 83287  4.8965e+000 -4.5472e+001 -4.9332e+000 53189 83036,83088,83062
 1.5000e+000 83264 -1.1061e+001 -7.6244e+001 -1.1006e+001 53189 82984,83036,83010
 1.5000e+000 83241 -4.6506e+000 -6.5833e+001  2.7151e+000 53189 83114,83166,83140
 1.5000e+000 83218 -2.5264e+001 -7.2385e+001  3.2206e+000 53189 83088,83166,83114
 1.5000e+000 83405 -1.5342e+001 -5.8911e+001 -2.2995e+000 53189 83166,83088,83379
 1.5000e+000 83428 -1.3909e+001 -6.5559e+001 -2.3382e+000 53189 83166,83379,82984
 1.5000e+000 83725 -2.3469e+001 -8.3377e+001 -6.0608e+000 52585 83748,83529,83503
 1.5000e+000 83702 -1.1598e+001 -7.8853e+001 -4.3160e+000 52585 83820,83748,83503
 1.5000e+000 83679  1.9172e+000 -7.5416e+001 -2.8370e+000 52585 83820,83503,83477
 1.5000e+000 83656 -1.4092e+001 -7.1066e+001  1.0098e+001 52585 83477,83607,83581
 1.5000e+000 83633  2.2821e+000 -6.4451e+001  9.5358e+000 52585 83451,83607,83477
 1.5000e+000 83774 -1.9340e+001 -7.2795e+001 -4.4774e+000 52585 83555,83529,83748
 1.5000e+000 83797 -3.3550e+001 -7.7312e+001 -2.5891e+000 52585 83555,83748,83581
 1.5000e+000 83846 -2.4326e+001 -7.0784e+001  2.6737e+000 52585 83581,83748,83820
 1.5000e+000 83869 -1.4611e+001 -6.9721e+001  2.7060e+000 52585 83581,83820,83477
 1.5000e+000 84200 -2.4685e+001 -7.8750e+001  3.8303e-002 52024 84001,84105,84079
 1.5000e+000 84177 -9.1841e+000 -7.5190e+001 -2.9843e+000 52024 83975,84105,84001
 1.5000e+000 84154 -2.0797e+001 -7.9610e+001  1.2341e+000 52024 84001,84079,84053
 1.5000e+000 84131 -1.1538e+001 -5.5015e+001  1.4542e+001 52024 84001,84053,84027
 1.5000e+000 84399 -1.4077e+001 -6.8468e+001 -1.2950e+000 51470 84422,84275,84249
 1.5000e+000 84376 -1.4679e+001 -6.9800e+001 -1.6429e+000 51470 84422,84249,84223
 1.5000e+000 84353 -1.5140e+001 -7.8407e+001 -1.3160e+001 51470 84275,84327,84301
 1.5000e+000 84448 -1.3432e+001 -6.9679e+001 -1.2286e+000 51470 84327,84275,84422
 1.5000e+000 84471 -1.3858e+001 -7.0762e+001 -1.5542e+000 51470 84327,84422,84223
 1.5000e+000 84753 -1.7705e+001 -7.1863e+001  4.0982e-001 51073 84603,84655,84629
 1.5000e+000 84730 -4.7092e+001 -8.1706e+001  4.1227e-001 51073 84776,84655,84603
 1.5000e+000 84707 -2.9689e+000 -6.2824e+001 -2.0725e+001 51073 84577,84681,84655
 1.5000e+000 84802 -2.6847e+001 -6.8744e+001 -8.8617e+000 51073 84577,84655,84776
 1.5000e+000 85178 -3.3480e+001 -8.3682e+001  1.0678e+001 50519 85201,85008,84982
 1.5000e+000 85155 -3.0541e+001 -7.5371e+001  8.3006e+000 50519 85273,85201,84982
 1.5000e+000 85132 -2.8875e+001 -7.4883e+001  7.3032e+000 50519 85273,84982,84930
 1.5000e+000 85109 -2.9371e+001 -6.9748e+001  6.4713e+000 50519 84930,84982,84956
 1.5000e+000 85086 -2.4017e+001 -8.2623e+001  2.6188e+000 50519 85008,85060,85034
 1.5000e+000 85227 -2.5392e+001 -7.8479e+001  5.1138e+000 50519 85060,85008,85201
 1.5000e+000 85250 -3.0661e+001 -7.8663e+001  3.7169e+000 50519 85060,85201,84904
 1.5000e+000 85299 -2.9275e+001 -7.7434e+001  3.1628e+000 50519 84904,85201,85273
 1.5000e+000 85322 -2.1387e+001 -6.4882e+001 -2.0774e-001 50519 84904,85273,84930
 1.5000e+000 85958 -1.4679e+001 -6.6444e+001 -1.4793e+000 50093 85981,85768,85716
 1.5000e+000 85935 -1.2136e+001 -6.0237e+001 -1.5155e+000 50093 85981,85716,85612
 1.5000e+000 85912 -1.8234e+001 -5.8527e+001  1.2503e+000 50093 85612,85716,85664
 1.5000e+000 85889 -8.7286e+000 -6.6238e+001 -5.4605e-002 50093 85716,85768,85742
 1.5000e+000 85866 -1.9904e+001 -5.1562e+001 -7.5727e+000 50093 85664,85716,85690
 1.5000e+000 85843  1.3892e+001 -4.1659e+001 -4.8282e+000 50093 85586,85794,85612
 1.5000e+000 85820 -1.3463e+001 -8.2782e+001  5.4177e+000 50093 85612,85664,85638
 1.5000e+000 86007 -1.9833e+001 -7.1775e+001 -1.0269e+001 50093 85794,85768,85981
 1.5000e+000 86030 -1.1973e+001 -5.3794e+001 -8.0989e+000 50093 85794,85981,85612
 1.5000e+000 86131 -8.7433e+000 -7.6860e+001  1.2155e+001 49895 86053,86105,86079
 1.5000e+000 86639 -6.8365e+000 -4.2734e+001 -1.1490e+001 49391 86662,86394,86368
 1.5000e+000 86616 -8.9638e+000 -5.5134e+001 -8.3804e+000 49391 86662,86368,86342
 1.5000e+000 86593  1.8650e+000 -5.1014e+001  1.4195e+000 49391 86342,86498,86472
 1.5000e+000 86570  1.7368e+001 -5.7666e+001  2.8369e+000 49391 86316,86498,86342
 1.5000e+000 86547 -2.4657e+001 -8.0079e+001 -1.2561e+000 49391 86394,86472,86446
 1.5000e+000 86524  4.9961e+000 -7.7488e+001  2.7123e+000 49391 86394,86446,86420
 1.5000e+000 86688 -1.3769e+001 -5.4035e+001 -6.3499e+000 49391 86472,86394,86662
 1.5000e+000 86711 -8.0818e+000 -5.8996e+001 -5.0830e+000 49391 86472,86662,86342
 1.5000e+000 87089 -2.2595e+001 -7.2398e+001  1.9952e+000 48987 86815,86919,86867
 1.5000e+000 87066 -2.3436e+001 -7.4826e+001  3.1683e+000 48987 86815,86971,86919
 1.5000e+000 87043 -7.2542e+000 -7.8405e+001 -5.6901e+000 48987 86867,86919,86893
 1.5000e+000 87020 -2.4763e+001 -7.9521e+001  8.7803e+000 48987 86815,86867,86841
 1.5000e+000 86997 -2.6142e+001 -6.2831e+001  1.0527e+001 48987 86919,86971,86945
 1.5000e+000 87467 -4.9475e+001 -6.9999e+001  4.2576e+000 48540 87490,87245,87219
 1.5000e+000 87444 -3.6177e+001 -6.5069e+001  1.0020e+000 48540 87562,87490,87219
 1.5000e+000 87421 -2.8955e+001 -6.2091e+001  2.4282e+000 48540 87562,87219,87349
 1.5000e+000 87398 -3.7165e+001 -5.7168e+001 -8.4274e-001 48540 87245,87297,87271
 1.5000e+000 87375 -2.3886e+001 -6.4653e+001  1.9069e+000 48540 87193,87349,87219
 1.5000e+000 87516 -3.4877e+001 -6.5993e+001  2.5432e+000 48540 87297,87245,87490
 1.5000e+000 87539 -3.5651e+001 -6.7702e+001  2.7183e+000 48540 87297,87490,87323
 1.5000e+000 87588 -2.9358e+001 -6.3383e+001  5.9477e+000 48540 87323,87490,87562
 1.5000e+000 87611 -2.5654e+001 -6.3411e+001  6.8023e+000 48540 87323,87562,87349
 1.5000e+000 87810 -1.5151e+001 -1.3925e+002 -1.9614e+001 48136 87660,87712,87686
 1.5000e+000 87787 -9.2217e-001 -7.4945e+001 -7.7054e+000 48136 87660,87738,87712
 1.5000e+000 87764 -4.1770e+001 -8.0646e+001 -1.8637e+001 48136 87634,87738,87660
 1.5000e+000 88205 -2.8011e+001 -7.6502e+001 -6.3358e+000 47210 88300,88228,87937
 1.5000e+000 88182 -2.4578e+001 -7.7838e+001 -1.6178e+000 47210 88228,87833,88041
 1.5000e+000 88159 -2.8372e+001 -8.1556e+001 -1.0177e+001 47210 88300,87937,87911
 1.5000e+000 88136 -2.6966e+001 -7.6905e+001 -8.1945e+000 47210 87833,87911,87859
 1.5000e+000 88113 -4.6230e+001 -6.2401e+001 -6.3523e+000 47210 87937,87989,87963
 1.5000e+000 88090 -2.7774e+001 -6.5931e+001  1.6716e+001 47210 87989,88041,88015
 1.5000e+000 88067 -3.1073e+001 -8.6769e+001 -9.1140e+000 47210 87859,87911,87885
 1.5000e+000 88254 -2.5150e+001 -5.9189e+001 -7.8468e+000 47210 87989,87937,88228
 1.5000e+000 88277 -3.2672e+001 -7.3000e+001 -1.8138e+000 47210 87989,88228,88041
 1.5000e+000 88326 -2.2699e+001 -7.1535e+001 -2.3880e+000 47210 87833,88228,88300
 1.5000e+000 88349 -2.3963e+001 -7.4986e+001 -6.4933e+000 47210 87833,88300,87911
 1.5000e+000 88780 -5.0521e+001 -9.5379e+001 -1.5736e+001 46642 88803,88509,88483
 1.5000e+000 88757 -3.4798e+001 -8.5305e+001 -6.4032e+000 46642 88803,88483,88639
 1.5000e+000 88734 -4.0026e+001 -6.8277e+001 -8.6825e+000 46642 88875,88561,88509
 1.5000e+000 88711 -4.0396e+001 -6.2867e+001  6.7352e-001 46642 88509,88561,88535
 1.5000e+000 88688 -7.6905e+000 -9.1998e+001  1.1344e+001 46642 88457,88639,88483
 1.5000e+000 88665 -4.7734e+001 -1.1290e+002 -2.0662e+000 46642 88561,88613,88587
 1.5000e+000 88829 -3.9043e+001 -7.5377e+001 -9.9895e+000 46642 88875,88509,88803
 1.5000e+000 88852 -3.8605e+001 -9.0593e+001 -4.3851e+000 46642 88613,88803,88639
 1.5000e+000 88901 -3.3337e+001 -7.7718e+001 -3.0700e+000 46642 88613,88561,88875
 1.5000e+000 88924 -3.5873e+001 -8.9291e+001 -3.9260e+000 46642 88613,88875,88803
 1.5000e+000 89253 -1.3226e+001 -7.6928e+001  1.7241e+000 46444 89080,89158,89132
 1.5000e+000 89230 -1.4906e+001 -8.0543e+001  9.7028e-001 46444 89028,89158,89080
 1.5000e+000 89207 -4.3027e+000 -7.6794e+001 -1.2449e+000 46444 89028,89080,89054
 1.5000e+000 89184 -5.1377e+000 -8.2466e+001 -5.6070e+000 46444 89080,89132,89106
 1.5000e+000 89631 -1.8046e+001 -6.2411e+001  1.2102e+000 46040 89383,89461,89435
 1.5000e+000 89608 -1.5029e+001 -5.6224e+001 -5.0812e-001 46040 89383,89487,89461
 1.5000e+000 89585 -1.6893e+001 -5.7408e+001  2.3561e+000 46040 89383,89435,89409
 1.5000e+000 89562 -1.3968e+001 -4.9056e+001 -3.5056e+000 46040 89383,89513,89487
 1.5000e+000 89539  3.3676e+000 -3.9041e+001 -1.1519e+001 46040 89357,89513,89383
 1.5000e+000 90009 -1.2760e+001 -6.2553e+001  1.2899e+000 45636 89813,89891,89839
 1.5000e+000 89986 -1.1685e+001 -5.3378e+001  5.3557e+000 45636 89787,89891,89813
 1.5000e+000 89963 -1.0058e+001 -5.6338e+001 -7.9343e-001 45636 89839,89891,89865
 1.5000e+000 89940 -1.8347e+001 -6.4470e+001  2.5330e+000 45636 89735,89891,89787
 1.5000e+000 89917 -1.6596e+001 -6.8349e+001  6.1053e-002 45636 89735,89787,89761
 1.5000e+000 90208  6.3775e+000 -4.0093e+001 -3.3061e+000 45175 90231,90058,90032
 1.5000e+000 90185  8.5330e+000 -3.5828e+001 -1.2226e+001 45175 90231,90032,90136
 1.5000e+000 90162 -9.5093e-001 -5.5158e+001  1.5666e-001 45175 90058,90110,90084
 1.5000e+000 90257  2.3358e-001 -4.9911e+001  7.2753e-001 45175 90110,90058,90231
 1.5000e+000 90280  5.6851e+000 -4.2542e+001 -8.8149e+000 45175 90110,90231,90136
 1.5000e+000 90528 -1.2416e+001 -5.5105e+001 -5.2490e+000 44513 90695,90551,90407
 1.5000e+000 90505 -1.5759e+001 -4.7558e+001 -3.1869e+000 44513 90551,90355,90329
 1.5000e+000 90482 -1.7598e+001 -4.3088e+001 -7.4660e+000 44513 90623,90303,90433
 1.5000e+000 90459 -8.0992e+000 -4.9528e+001 -2.0009e+000 44513 90695,90407,90381
 1.5000e+000 90577 -2.1780e+001 -5.7749e+001 -1.3517e+001 44513 90433,90407,90551
 1.5000e+000 90600 -1.5971e+001 -4.7560e+001 -7.4656e+000 44513 90623,90433,90551
 1.5000e+000 90649 -1.9987e+001 -4.7947e+001 -6.1577e+000 44513 90329,90303,90623
 1.5000e+000 90672 -1.8053e+001 -4.9901e+001 -6.5883e+000 44513 90329,90623,90551
 1.5000e+000 90721 -1.8471e+001 -4.7401e+001 -6.8547e+000 44513 90355,90551,90695
 1.5000e+000 90744 -1.7600e+001 -4.4236e+001 -5.5357e+000 44513 90355,90695,90381
 1.5000e+000 91077  5.6365e+000 -4.1526e+001  1.0623e+001 44059 91100,90930,90904
 1.5000e+000 91054 -2.0962e+001 -5.5498e+001  4.9778e+000 44059 91100,90904,90982
 1.5000e+000 91031 -2.7740e+001 -5.5434e+001  1.6686e+000 44059 90878,90982,90904
 1.5000e+000 91008 -8.2127e+000 -4.7980e+001  2.9579e+000 44059 90852,90982,90878
 1.5000e+000 91126 -3.8933e+001 -5.5961e+001  4.6357e+000 44059 91172,91100,90956
 1.5000e+000 91149 -2.0035e+001 -5.4002e+001  2.2274e+000 44059 90956,91100,90982
 1.5000e+000 91198 -5.2585e+000 -3.9969e+001 -5.9660e+000 44059 90930,91100,91172
 1.5000e+000 91677 -2.5900e+001 -4.7816e+001  6.8535e+000 43549 91455,91533,91481
 1.5000e+000 91654 -3.7310e+000 -4.6675e+001  9.5423e+000 43549 91429,91533,91455
 1.5000e+000 91631 -2.4319e+001 -4.5177e+001  5.7039e+000 43549 91481,91533,91507
 1.5000e+000 91608  2.4327e+000 -4.4143e+001  6.3634e+000 43549 91429,91559,91533
 1.5000e+000 91585  2.0566e+001 -1.0240e+001  1.3170e+001 43549 91403,91559,91429
 1.5000e+000 92006 -2.2213e+001 -6.2531e+001 -1.7338e-001 43059 91781,91885,91807
 1.5000e+000 91983 -2.0704e+001 -5.3368e+001  8.5877e+000 43059 91781,91911,91885
 1.5000e+000 91960 -2.7671e+001 -6.3824e+001  7.2121e-002 43059 91807,91885,91833
 1.5000e+000 91937 -1.0197e+001 -5.6515e+001 -1.1947e-001 43059 91833,91885,91859
 1.5000e+000 92561 -2.1000e+001 -4.8813e+001 -3.4707e+000 42598 92584,92215,92189
 1.5000e+000 92538 -2.2410e+001 -5.3081e+001 -3.1925e+000 42598 92656,92584,92189
 1.5000e+000 92515 -1.8993e+001 -5.9255e+001 -4.2788e-002 42598 92656,92189,92397
 1.5000e+000 92492 -2.4713e+001 -4.1171e+001 -4.4767e+000 42598 92241,92319,92293
 1.5000e+000 92469 -2.3947e+001 -5.2503e+001  5.2186e+000 42598 92319,92397,92371
 1.5000e+000 92446 -1.0080e+001 -6.7117e+001  2.7040e+001 42598 92319,92371,92345
 1.5000e+000 92423 -2.7467e+001 -4.5141e+001 -9.7254e+000 42598 92241,92293,92267
 1.5000e+000 92610 -2.2306e+001 -5.0152e+001 -4.7930e+000 42598 92241,92215,92584
 1.5000e+000 92633 -1.9708e+001 -4.4132e+001 -5.1568e+000 42598 92241,92584,92319
 1.5000e+000 92682 -1.8964e+001 -4.4558e+001 -1.3734e+000 42598 92319,92584,92656
 1.5000e+000 92705 -1.4782e+001 -4.9163e+001  1.1224e+000 42598 92319,92656,92397
 1.5000e+000 92953 -1.1981e+001 -6.2820e+001  7.5139e+000 42094 92976,92806,92780
 1.5000e+000 92930 -1.7780e+001 -5.9146e+001  1.3450e+000 42094 92976,92780,92754
 1.5000e+000 92907  7.4509e+000 -5.5103e+001  2.7470e+000 42094 93048,92832,92806
 1.5000e+000 92884 -1.0364e+001 -6.2750e+001  3.9810e+000 42094 92728,92858,92754
 1.5000e+000 93002 -2.1859e+000 -5.7553e+001  5.5264e+000 42094 93048,92806,92976
 1.5000e+000 93025 -1.2107e+001 -5.7466e+001  4.0365e+000 42094 92858,92976,92754
 1.5000e+000 93074 -7.5715e+000 -5.7007e+001  6.4010e+000 42094 92858,92832,93048
 1.5000e+000 93097 -1.3853e+001 -5.5812e+001  7.6435e+000 42094 92858,93048,92976
 1.5000e+000 93605 -2.4229e+001 -7.5524e+001 -1.0699e+000 41846 93628,93412,93386
 1.5000e+000 93582 -2.0089e+001 -5.9270e+001  3.5744e-001 41846 93628,93386,93308
 1.5000e+000 93559 -2.7634e+001 -6.0583e+001 -7.7444e+000 41846 93700,93464,93438
 1.5000e+000 93536 -3.0407e+001 -7.3516e+001  5.7650e+000 41846 93308,93386,93334
 1.5000e+000 93513 -3.1499e+001 -7.3030e+001  5.5160e+000 41846 93334,93386,93360
 1.5000e+000 93490 -2.7049e+001 -4.8974e+001 -5.4170e+000 41846 93282,93464,93308
 1.5000e+000 93654 -1.9407e+001 -6.2142e+001 -4.1050e+000 41846 93438,93412,93628
 1.5000e+000 93677 -2.7460e+001 -6.1262e+001 -3.6202e+000 41846 93700,93438,93628
 1.5000e+000 93726 -2.5903e+001 -5.5363e+001 -6.7402e+000 41846 93308,93464,93700
 1.5000e+000 93749 -2.5012e+001 -5.4412e+001 -2.6503e+000 41846 93308,93700,93628
 1.5000e+000 94255 -1.8747e+001 -6.5455e+001  4.8704e+000 41385 93958,94114,94088
 1.5000e+000 94232 -1.5559e+001 -6.8733e+001  3.2244e+000 41385 93932,94114,93958
 1.5000e+000 94209 -3.6344e+001 -7.7363e+001  1.4421e+001 41385 93958,94088,94062
 1.5000e+000 94186 -3.8452e+001 -5.6199e+001  1.1336e+001 41385 93958,94062,93984
 1.5000e+000 94163 -3.0520e+001 -5.3454e+001  1.1305e+001 41385 93984,94062,94036
 1.5000e+000 94140 -2.0209e+001 -6.9448e+001  1.4099e+001 41385 93984,94036,94010
 1.5000e+000 94476 -9.6215e+000 -8.8158e+001 -6.4879e+000 40881 94326,94378,94352
 1.5000e+000 94453  1.2244e+001 -6.0889e+001  3.1459e+000 40881 94300,94378,94326
 1.5000e+000 94430 -7.2685e+000 -6.2496e+001  9.1670e-002 40881 94300,94404,94378
 1.5000e+000 94626 -1.8357e+001 -4.6263e+001  3.3900e+000 40591 94649,94551,94525
 1.5000e+000 94603 -2.7120e+000 -3.5447e+001  2.9216e+000 40591 94781,94577,94551
 1.5000e+000 94675  6.1701e-001 -3.7402e+001 -1.5925e+000 40591 94781,94551,94649
 1.5000e+000 94807  4.9310e+000 -3.2807e+001  3.2352e+000 40591 94499,94577,94781
 1.5000e+000 94830  8.1835e+000 -3.4357e+001 -2.0325e+000 40591 94499,94781,94649
 1.5000e+000 95336 -4.3141e+001 -5.9642e+001 -8.6942e+000 40187 95013,95169,95039
 1.5000e+000 95313 -2.5128e+001 -5.5641e+001 -4.4204e+000 40187 95013,95195,95169
 1.5000e+000 95290 -1.6857e+001 -5.9672e+001  3.8146e+000 40187 95039,95143,95065
 1.5000e+000 95267 -4.5750e+001 -6.9346e+001 -1.1498e+001 40187 95039,95169,95143
 1.5000e+000 95244 -3.1508e+001 -7.7803e+001 -3.8247e+000 40187 95091,95143,95117
 1.5000e+000 95221 -1.4319e+001 -5.4795e+001  5.1634e+000 40187 95065,95143,95091
 1.5000e+000 95665 -2.3651e+001 -5.3661e+001  1.1273e+001 39626 95466,95570,95544
 1.5000e+000 95642 -2.9054e+001 -4.4589e+001  8.3968e+000 39626 95440,95570,95466
 1.5000e+000 95619 -2.1626e+001 -5.4243e+001  5.4633e+000 39626 95466,95544,95492
 1.5000e+000 95596 -3.7692e+001 -5.0194e+001  5.9646e+000 39626 95492,95544,95518
 1.5000e+000 95913 -1.9953e+001 -5.4990e+001 -8.8467e+000 39136 96080,95936,95766
 1.5000e+000 95890 -1.5562e+001 -5.9119e+001 -4.5839e+000 39136 95936,95714,95688
 1.5000e+000 95867 -3.9268e+001 -5.8832e+001  1.6683e+000 39136 96008,95792,95766
 1.5000e+000 95844 -1.4686e+001 -5.3148e+001 -6.3433e+000 39136 96080,95766,95740
 1.5000e+000 95962 -3.0229e+001 -6.1098e+001 -5.9166e+000 39136 96008,95766,95936
 1.5000e+000 95985 -1.7516e+001 -6.9378e+001 -2.0713e+000 39136 95818,95936,95688
 1.5000e+000 96034 -1.7356e+001 -4.9280e+001  3.2429e+000 39136 95818,95792,96008
 1.5000e+000 96057 -1.4983e+001 -5.4109e+001 -4.2657e+000 39136 95818,96008,95936
 1.5000e+000 96106 -1.7178e+001 -5.4039e+001 -1.7828e+000 39136 95714,95936,96080
 1.5000e+000 96129 -8.9613e+000 -5.1902e+001  2.0338e-001 39136 95714,96080,95740
 1.5000e+000 96350 -1.5542e+001 -5.2506e+001  8.5801e-003 38824 96200,96278,96252
 1.5000e+000 96327 -1.4255e+001 -5.2310e+001 -2.3792e-001 38824 96174,96278,96200
 1.5000e+000 96304 -1.3029e+001 -5.0018e+001 -1.0289e+000 38824 96200,96252,96226
 1.5000e+000 96830 -3.0890e+001 -5.8350e+001 -2.6308e+000 38320 97069,96536,96484
 1.5000e+000 96807 -2.9463e+001 -6.0331e+001 -2.5306e+000 38320 97069,96484,96853
 1.5000e+000 96784 -3.2763e+001 -6.4782e+001  3.1239e+000 38320 96853,96484,96458
 1.5000e+000 96761 -1.7269e+001 -4.9798e+001 -5.0869e+000 38320 96925,96640,96614
 1.5000e+000 96738 -2.8088e+001 -5.0638e+001 -8.4417e-001 38320 96997,96666,96640
 1.5000e+000 96715 -2.1711e+001 -7.1878e+001  2.7578e-001 38320 97141,96588,96562
 1.5000e+000 96692 -4.1384e+001 -6.8782e+001  2.0421e+000 38320 96484,96536,96510
 1.5000e+000 96879 -2.7762e+001 -6.4770e+001 -5.3637e-001 38320 97141,96562,96853
 1.5000e+000 96902 -2.6464e+001 -6.3067e+001 -5.6567e-001 38320 96925,96614,96853
 1.5000e+000 96951 -2.7735e+001 -5.0524e+001 -8.2358e-001 38320 96997,96640,96925
 1.5000e+000 96974 -2.4935e+001 -5.0491e+001  8.9355e-002 38320 96458,96925,96853
 1.5000e+000 97023 -2.9609e+001 -5.0492e+001 -2.0869e-003 38320 96458,96666,96997
 1.5000e+000 97046 -2.8258e+001 -5.0000e+001  3.4198e-002 38320 96458,96997,96925
 1.5000e+000 97095 -3.5863e+001 -5.7022e+001  7.8168e+000 38320 96562,96536,97069
 1.5000e+000 97118 -2.5520e+001 -5.9294e+001 -8.8630e-001 38320 96562,97069,96853
 1.5000e+000 97167 -1.1294e+001 -6.5225e+001 -2.7318e+000 38320 96614,96588,97141
 1.5000e+000 97190 -2.1239e+001 -6.0900e+001 -2.6573e+000 38320 96614,97141,96853
 1.5000e+000 97519 -2.2155e+001 -5.9322e+001  1.6145e+001 37766 97542,97398,97372
 1.5000e+000 97496 -3.0324e+001 -5.2162e+001  9.3292e+000 37766 97542,97372,97346
 1.5000e+000 97473 -2.6465e+001 -5.8065e+001  2.0731e+000 37766 97294,97424,97346
 1.5000e+000 97450 -3.0854e+001 -6.9242e+001  1.9344e+000 37766 97294,97346,97320
 1.5000e+000 97568 -8.6850e+000 -5.6427e+001  1.2377e+001 37766 97424,97398,97542
 1.5000e+000 97591 -2.0634e+001 -4.9589e+001  5.7589e+000 37766 97424,97542,97346
 1.5000e+000 98048 -2.6667e+001 -4.5407e+001 -1.4551e+001 37262 98071,97878,97852
 1.5000e+000 98025 -2.1349e+001 -5.3812e+001 -5.3207e+000 37262 98071,97852,97800
 1.5000e+000 98002 -2.7540e+001 -6.8751e+001 -3.9577e+000 37262 97800,97852,97826
 1.5000e+000 97979 -2.7698e+001 -5.6852e+001  6.7182e-001 37262 97800,97930,97904
 1.5000e+000 97956 -1.9084e+001 -6.4087e+001  3.4539e+000 37262 97774,97930,97800
 1.5000e+000 98097 -4.2085e+001 -5.2441e+001 -1.2079e+001 37262 97904,97878,98071
 1.5000e+000 98120 -2.9136e+001 -5.9011e+001 -3.0653e+000 37262 97904,98071,97800
 1.5000e+000 98449 -4.5437e+000 -3.6203e+001 -3.6560e+000 36950 98472,98302,98250
 1.5000e+000 98426 -1.8449e-001 -3.6892e+001 -3.7970e+000 36950 98472,98250,98354
 1.5000e+000 98403 -9.4929e+000 -3.6290e+001  4.0739e+000 36950 98250,98302,98276
 1.5000e+000 98380  2.6619e+001 -2.6647e+001 -3.5510e+000 36950 98224,98354,98250
 1.5000e+000 98498 -1.3625e+000 -3.6677e+001 -1.5432e+000 36950 98328,98302,98472
 1.5000e+000 98521  2.9316e+000 -3.7772e+001 -2.3762e+000 36950 98328,98472,98354
 1.5000e+000 99125 -3.7884e+001 -3.8431e+001  6.3392e+000 36296 98704,98756,98730
 1.5000e+000 99102 -2.5776e+001 -4.2528e+001  1.9521e+000 36296 98704,98938,98756
 1.5000e+000 99079 -1.6212e+001 -4.8199e+001  1.3006e-001 36296 99148,98938,98912
 1.5000e+000 99056 -1.8854e+001 -4.4573e+001  1.1541e+001 36296 99292,99220,98782
 1.5000e+000 99033 -1.3780e+001 -4.8605e+001  1.5376e+000 36296 99148,98912,98834
 1.5000e+000 99010 -1.6108e+001 -3.6507e+001  1.1543e+001 36296 99292,98782,98756
 1.5000e+000 98987 -1.1734e+001 -9.0348e+001 -1.9364e+001 36296 98834,98912,98886
 1.5000e+000 98964 -3.0150e+001 -1.3866e+002 -2.6242e+001 36296 98834,98886,98860
 1.5000e+000 99174 -2.0420e+001 -5.3303e+001  1.9395e+000 36296 99220,98938,99148
 1.5000e+000 99197 -1.2370e+001 -5.6941e+001  5.6220e+000 36296 98808,99148,98834
 1.5000e+000 99246 -1.5111e+001 -3.5721e+001  2.7638e+001 36296 98808,98782,99220
 1.5000e+000 99269 -2.2449e+000 -3.6914e+001  9.3346e+000 36296 98808,99220,99148
 1.5000e+000 99318 -1.7249e+001 -3.5480e+001  5.7867e+000 36296 98938,99220,99292
 1.5000e+000 99341 -1.7926e+001 -3.6951e+001  6.2082e+000 36296 98938,99292,98756
 1.5000e+000 99719 -2.1439e+001 -6.0636e+001  1.3467e+000 35742 99742,99471,99601
 1.5000e+000 99696 -2.4188e+001 -4.2217e+001  9.6450e+000 35742 99445,99601,99471
 1.5000e+000 99673 -2.0092e+001 -5.7559e+001 -1.5245e+000 35742 99742,99601,99575
 1.5000e+000 99650 -1.6019e+001 -7.5824e+001 -6.8105e-001 35742 99814,99549,99523
 1.5000e+000 99627 -1.4138e+001 -5.7541e+001  3.8747e+000 35742 99471,99523,99497
 1.5000e+000 99768 -1.3680e+001 -5.9470e+001  3.7898e+000 35742 99523,99471,99742
 1.5000e+000 99791 -1.9498e+001 -6.8813e+001 -1.6473e-001 35742 99814,99523,99742
 1.5000e+000 99840 -1.6673e+001 -6.6757e+001 -3.3342e+000 35742 99575,99549,99814
 1.5000e+000 99863 -1.8426e+001 -5.7401e+001 -2.4780e+000 35742 99575,99814,99742
 1.5000e+000 100111 -1.7690e+001 -4.9453e+001  8.7071e+000 35302 100134,99990,99938
 1.5000e+000 100088 -1.2456e+001 -4.3484e+001  5.2875e+000 35302 100134,99938,99912
 1.5000e+000 100065 -1.0965e+001 -4.8798e+001  3.5803e+000 35302 100206,99886,100016
 1.5000e+000 100042 -2.1928e+001 -4.7931e+001  7.7845e+000 35302 99938,99990,99964
 1.5000e+000 100160 -1.0417e+001 -4.6539e+001  6.3959e+000 35302 100016,99990,100134
 1.5000e+000 100183 -1.2324e+001 -4.7470e+001  3.5843e+000 35302 100206,100016,100134
 1.5000e+000 100232 -1.0060e+001 -4.7252e+001  2.5163e+000 35302 99912,99886,100206
 1.5000e+000 100255 -1.1240e+001 -4.5515e+001  2.6051e+000 35302 99912,100206,100134
 1.5000e+000 100586 -1.7409e+001 -3.5622e+001  2.3463e+000 35012 100609,100387,100361
 1.5000e+000 100563 -1.7725e+001 -3.9281e+001  4.0160e+000 35012 100609,100361,100465
 1.5000e+000 100540 -2.5197e+001 -4.7155e+001  7.3392e+000 35012 100361,100491,100465
 1.5000e+000 100517 -1.4688e+001 -3.9417e+001  8.9275e+000 35012 100413,100465,100439
 1.5000e+000 100635 -1.8078e+001 -3.6102e+001  6.3545e+000 35012 100413,100387,100609
 1.5000e+000 100658 -1.9251e+001 -4.1794e+001  7.9179e+000 35012 100413,100609,100465
 1.5000e+000 100987 -2.1883e+001 -4.5458e+001  5.6101e+000 34700 100788,100866,100814
 1.5000e+000 100964 -1.9684e+001 -4.3104e+001  6.5268e+000 34700 101010,100866,100788
 1.5000e+000 100941 -1.9278e+001 -4.5364e+001  9.8579e+000 34700 100762,100892,100866
 1.5000e+000 100918 -2.5499e+001 -5.2118e+001  2.2804e-001 34700 100814,100866,100840
 1.5000e+000 101036 -1.5254e+001 -4.0887e+001  7.3805e+000 34700 100762,100866,101010
 1.5000e+000 101493 -2.7943e+001 -5.7715e+001 -3.6417e+000 34132 101516,101349,101297
 1.5000e+000 101470 -3.7113e+001 -7.3279e+001 -8.1200e+000 34132 101588,101516,101297
 1.5000e+000 101447 -3.7104e+001 -7.8332e+001 -1.4058e+001 34132 101588,101297,101245
 1.5000e+000 101424 -1.9106e+001 -9.4348e+001 -1.3071e+001 34132 101245,101297,101271
 1.5000e+000 101401 -3.2796e+001 -5.7669e+001 -5.9511e+000 34132 101297,101349,101323
 1.5000e+000 101542 -2.8893e+001 -6.9788e+001 -2.4410e+000 34132 101375,101349,101516
 1.5000e+000 101565 -2.5091e+001 -6.9167e+001 -2.4842e+000 34132 101375,101516,101219
 1.5000e+000 101614 -2.5890e+001 -7.3417e+001 -2.6567e+000 34132 101219,101516,101588
 1.5000e+000 101637 -3.1528e+001 -7.8621e+001 -8.2831e+000 34132 101219,101588,101245
 1.5000e+000 101858 -6.6777e+000 -6.0839e+001  4.1370e+000 33720 101708,101786,101760
 1.5000e+000 101835 -1.3959e+001 -7.1973e+001  9.9754e-001 33720 101682,101786,101708
 1.5000e+000 101812 -1.7707e+001 -6.6231e+001  2.1527e+000 33720 101708,101760,101734
 1.5000e+000 102128  3.6143e+000 -5.8725e+001 -1.5685e+000 33130 101903,102007,101929
 1.5000e+000 102105 -1.1731e-001 -7.1438e+001  3.7391e+000 33130 101903,102033,102007
 1.5000e+000 102082  7.6542e+000 -7.3709e+001 -1.7083e+001 33130 101929,102007,101955
 1.5000e+000 102059 -2.1677e+000 -4.7376e+001  1.9097e+000 33130 101955,102007,101981
 1.5000e+000 102461 -2.9375e+001 -7.2618e+001 -5.7832e+000 32840 102236,102340,102262
 1.5000e+000 102438 -2.4485e+001 -5.0051e+001  2.4409e+000 32840 102236,102366,102340
 1.5000e+000 102415 -1.3805e+001 -6.7710e+001 -5.3856e+000 32840 102262,102340,102288
 1.5000e+000 102392 -3.5911e+001 -7.3760e+001 -1.4175e+001 32840 102288,102340,102314
 1.5000e+000 102997 -1.7101e+001 -3.2038e+001  1.0424e+001 32493 102749,102879,102853
 1.5000e+000 102974 -1.2075e+001 -2.0999e+001  8.9258e+000 32493 102723,102879,102749
 1.5000e+000 102951 -2.4991e+001 -4.4246e+001  7.1814e+000 32493 102749,102801,102775
 1.5000e+000 102928 -2.4663e+001 -4.1688e+001  5.8422e+000 32493 102749,102853,102801
 1.5000e+000 102905 -2.4545e+001 -4.0568e+001  6.5963e+000 32493 102801,102853,102827
 1.5000e+000 103454 -3.1328e+001 -5.9040e+001 -4.2999e+000 32089 103206,103336,103310
 1.5000e+000 103431 -2.5337e+001 -5.6201e+001 -5.7067e-001 32089 103180,103336,103206
 1.5000e+000 103408 -3.4842e+001 -7.4142e+001 -9.3162e+000 32089 103206,103284,103258
 1.5000e+000 103385 -4.9334e+001 -7.2776e+001 -1.4544e+001 32089 103206,103310,103284
 1.5000e+000 103362 -2.6617e+001 -5.0498e+001  1.8498e+000 32089 103206,103258,103232
 1.5000e+000 103783 -4.4157e+001 -6.4029e+001 -4.8043e+000 31742 103558,103662,103584
 1.5000e+000 103760 -4.1967e+001 -6.1904e+001 -8.7803e+000 31742 103558,103688,103662
 1.5000e+000 103737 -3.4934e+001 -5.7391e+001 -7.9164e+000 31742 103584,103662,103636
 1.5000e+000 103714 -2.3582e+001 -6.7720e+001 -1.4553e+001 31742 103584,103636,103610
 1.5000e+000 104112 -5.6993e+000 -5.6745e+001  3.2062e+000 31402 103939,103991,103965
 1.5000e+000 104089  8.0880e+000 -4.4696e+001  9.7738e+000 31402 103913,103991,103939
 1.5000e+000 104066 -1.7571e+001 -5.8944e+001  4.1763e+000 31402 103913,104017,103991
 1.5000e+000 104043 -1.4098e+001 -4.7608e+001  4.9956e+000 31402 103887,104017,103913
 1.5000e+000 104569 -4.0272e+001 -7.6774e+001  2.4706e-001 30998 104321,104425,104373
 1.5000e+000 104546 -4.3815e+001 -7.7431e+001 -9.5168e-001 30998 104321,104451,104425
 1.5000e+000 104523 -3.7186e+001 -7.0114e+001  4.1299e+000 30998 104373,104425,104399
 1.5000e+000 104500 -3.9729e+001 -7.9288e+001 -1.9158e+000 30998 104295,104451,104321
 1.5000e+000 104477 -5.8022e+001 -1.0009e+002  1.3686e+001 30998 104321,104373,104347
 1.5000e+000 104947 -3.5521e+001 -5.7795e+001 -6.6229e+000 30608 104751,104803,104777
 1.5000e+000 104924 -1.9175e+001 -5.6800e+001 -4.2690e-001 30608 104725,104803,104751
 1.5000e+000 104901 -3.0990e+001 -5.6332e+001  4.1536e+000 30608 104699,104803,104725
 1.5000e+000 104878 -3.4630e+001 -5.8469e+001  5.2233e+000 30608 104673,104803,104699
 1.5000e+000 104855 -2.7505e+001 -6.0806e+001 -2.0187e+000 30608 104673,104829,104803
 1.5000e+000 105276 -1.9625e+001 -5.1078e+001  5.8956e+000 30204 105427,105129,105077
 1.5000e+000 105253 -9.8000e+000 -5.3419e+001  1.6803e+001 30204 105427,105077,105051
 1.5000e+000 105230 -1.6368e+001 -5.4570e+001  3.6041e+000 30204 105077,105129,105103
 1.5000e+000 105207 -3.8512e+001 -4.8934e+001  6.5941e+000 30204 105299,105181,105155
 1.5000e+000 105325 -2.9154e+001 -4.4919e+001  6.3057e+000 30204 105129,105181,105299
 1.5000e+000 105453 -2.5434e+001 -5.4164e+001  8.1006e+000 30204 105181,105129,105427
 1.5000e+000 105476 -2.9019e+001 -6.2498e+001  2.0165e+001 30204 105181,105427,105051
 1.5000e+000 105903 -4.4080e+000 -4.1052e+001 -3.7516e+000 29700 105606,105762,105736
 1.5000e+000 105880 -1.4790e+001 -4.3727e+001  1.7492e+000 29700 105580,105762,105606
 1.5000e+000 105857 -1.7297e+001 -5.4628e+001 -2.0870e+000 29700 105606,105710,105632
 1.5000e+000 105834 -1.2530e+001 -4.2806e+001 -9.4333e-001 29700 105606,105736,105710
 1.5000e+000 105811 -2.7847e+001 -6.0368e+001  3.3487e+000 29700 105632,105710,105684
 1.5000e+000 105788 -2.3631e+001 -5.0688e+001  4.2222e-001 29700 105632,105684,105658
 1.5000e+000 106102 -1.5634e+001 -5.7087e+001  4.2422e+000 29124 105978,106030,106004
 1.5000e+000 106079 -2.2131e+001 -6.3131e+001  1.6559e+000 29124 105926,106030,105978
 1.5000e+000 106056 -2.0432e+001 -6.5006e+001  9.7619e+000 29124 105926,105978,105952
 1.5000e+000 106301 -6.9481e+000 -5.2460e+001  2.3786e-001 28712 106151,106229,106203
 1.5000e+000 106278 -1.0517e+001 -5.9947e+001 -3.5866e+000 28712 106125,106229,106151
 1.5000e+000 106255 -6.2369e+000 -5.1730e+001 -2.7422e-001 28712 106151,106203,106177
 1.5000e+000 106551 -1.9949e+001 -7.1124e+001 -1.7490e+000 28258 106352,106404,106378
 1.5000e+000 106528 -2.5748e+001 -7.4228e+001 -5.0546e-001 28258 106352,106456,106404
 1.5000e+000 106505 -2.0046e+001 -7.8910e+001 -2.2043e+000 28258 106326,106456,106352
 1.5000e+000 106482 -2.5777e+001 -7.0215e+001  2.0285e+000 28258 106404,106456,106430
 1.5000e+000 107012 -2.5687e+001 -6.4672e+001  1.2995e+001 27818 107035,106790,106764
 1.5000e+000 106989 -2.1244e+001 -5.7634e+001  6.7396e+000 27818 107035,106764,106868
 1.5000e+000 106966 -1.8043e+001 -6.7380e+001  6.3760e+000 27818 107107,106842,106816
 1.5000e+000 106943 -3.3728e+001 -5.6181e+001  5.8502e+000 27818 106738,106868,106764
 1.5000e+000 106920 -3.5874e+001 -5.4831e+001  1.6672e+001 27818 106738,106894,106868
 1.5000e+000 107061 -1.3151e+001 -6.0226e+001  1.2688e+001 27818 106816,106790,107035
 1.5000e+000 107084 -1.9610e+001 -6.4626e+001  6.7157e+000 27818 107107,106816,107035
 1.5000e+000 107133 -2.0006e+001 -6.2857e+001  4.0910e+000 27818 106868,106842,107107
 1.5000e+000 107156 -1.9961e+001 -5.7936e+001  5.2518e+000 27818 106868,107107,107035
 1.5000e+000 107613  2.7459e+000 -4.4200e+001  1.0305e+001 27312 107339,107469,107365
 1.5000e+000 107590  6.7963e+000 -4.3034e+001  9.9674e+000 27312 107339,107495,107469
 1.5000e+000 107567  3.0037e+000 -4.1960e+001  6.1657e+000 27312 107391,107469,107443
 1.5000e+000 107544  2.9913e+000 -4.5694e+001  5.3444e+000 27312 107365,107469,107391
 1.5000e+000 107521 -3.7251e+000 -4.6466e+001  1.0260e+001 27312 107391,107443,107417
 1.5000e+000 107991 -2.2774e+001 -7.8390e+001  2.3068e+000 26858 108086,108014,107795
 1.5000e+000 107968 -2.2901e+001 -7.9969e+001  8.2560e-001 26858 108014,107717,107873
 1.5000e+000 107945 -2.2237e+001 -7.9824e+001  1.3364e+000 26858 108158,108086,107795
 1.5000e+000 107922 -2.0929e+001 -8.2676e+001  2.3472e+000 26858 108158,107795,107769
 1.5000e+000 107899 -2.5730e+001 -9.3949e+001  1.2632e+001 26858 107821,107873,107847
 1.5000e+000 108040 -2.3998e+001 -8.6629e+001  3.4245e+000 26858 107821,107795,108014
 1.5000e+000 108063 -2.0469e+001 -7.9685e+001  1.7315e+000 26858 107821,108014,107873
 1.5000e+000 108112 -2.1724e+001 -7.8533e+001 -6.0359e-003 26858 107717,108014,108086
 1.5000e+000 108135 -2.1521e+001 -7.4078e+001 -7.2937e-001 26858 107717,108086,107743
 1.5000e+000 108184 -2.1269e+001 -7.6031e+001  2.0595e+000 26858 107743,108086,108158
 1.5000e+000 108207 -1.9986e+001 -7.8894e+001  2.4539e+000 26858 107743,108158,107769
 1.5000e+000 108634 -3.4111e+001 -7.1360e+001 -1.2318e+000 26404 108657,108415,108363
 1.5000e+000 108611 -3.7328e+001 -7.4044e+001  6.1137e+000 26404 108657,108363,108337
 1.5000e+000 108588 -3.3041e+001 -7.0752e+001  7.1002e+000 26404 108729,108311,108467
 1.5000e+000 108565 -4.1375e+001 -7.9290e+001 -2.9533e+000 26404 108801,108441,108415
 1.5000e+000 108542 -5.7868e+001 -8.2741e+001  1.2140e+001 26404 108311,108493,108467
 1.5000e+000 108519 -2.8193e+001 -7.2414e+001 -1.6345e+000 26404 108363,108415,108389
 1.5000e+000 108683 -4.6373e+001 -7.4525e+001 -2.2358e+000 26404 108801,108415,108657
 1.5000e+000 108706 -4.4951e+001 -7.3235e+001  5.3067e+000 26404 108729,108467,108657
 1.5000e+000 108755 -2.5659e+001 -7.4938e+001  6.9625e+000 26404 108337,108311,108729
 1.5000e+000 108778 -3.1688e+001 -7.3119e+001  4.7695e+000 26404 108337,108729,108657
 1.5000e+000 108827 -4.6622e+001 -8.8131e+001 -5.7396e+000 26404 108467,108441,108801
 1.5000e+000 108850 -4.9677e+001 -8.0317e+001 -4.8380e+000 26404 108467,108801,108657
 1.5000e+000 109228 -1.7115e+001 -6.6734e+001 -3.3427e-001 26064 109006,109084,109058
 1.5000e+000 109205 -1.7982e+001 -6.5075e+001  2.4894e+000 26064 108980,109084,109006
 1.5000e+000 109182 -1.6780e+001 -5.9142e+001 -2.8809e+000 26064 108980,109110,109084
 1.5000e+000 109159 -1.5907e+001 -7.5721e+001  6.3437e+000 26064 109006,109058,109032
 1.5000e+000 109136 -2.6188e+000 -4.4679e+001  2.9518e+000 26064 108954,109110,108980
 1.5000e+000 109427 -1.5182e+001 -6.3226e+001 -1.1154e+001 25660 109303,109355,109329
 1.5000e+000 109404 -1.9846e+001 -7.1269e+001 -9.3519e-001 25660 109277,109355,109303
 1.5000e+000 109381 -1.5727e+001 -7.1318e+001 -8.6807e-001 25660 109251,109355,109277
 1.5000e+000 109577  2.3257e-001 -3.1089e+001  2.1307e+001 25306 109476,109528,109502
 1.5000e+000 109554  9.4112e+000 -3.8712e+001  4.9740e+000 25306 109450,109528,109476
 1.5000e+000 109778 -5.9330e+000 -5.6065e+001  2.8441e+000 24944 109628,109706,109654
 1.5000e+000 109755 -8.4822e+000 -6.0912e+001  1.8845e+000 24944 109602,109706,109628
 1.5000e+000 109732 -1.0422e+000 -5.4667e+001 -5.8248e+000 24944 109654,109706,109680
 1.5000e+000 110126 -2.3842e+001 -8.7926e+001  5.2611e+000 24440 110149,109907,109855
 1.5000e+000 110103 -2.7260e+001 -9.0322e+001  6.3134e+000 24440 110149,109855,109985
 1.5000e+000 110080 -1.6573e+001 -7.8864e+001  1.3964e+000 24440 109855,109907,109881
 1.5000e+000 110057 -1.7850e+001 -7.2172e+001  2.0991e+001 24440 109829,109985,109855
 1.5000e+000 110034 -2.3654e+001 -9.0426e+001 -6.4632e-001 24440 109907,109959,109933
 1.5000e+000 110011 -3.4459e+001 -8.2398e+001  7.2811e+000 24440 109803,109985,109829
 1.5000e+000 110175 -2.5097e+001 -8.4160e+001  1.7926e+000 24440 109959,109907,110149
 1.5000e+000 110198 -3.0572e+001 -8.7535e+001  3.2325e+000 24440 109959,110149,109985
 1.5000e+000 110301 -1.0162e+000 -8.9967e+001 -1.0357e+001 24028 110223,110275,110249
 1.5000e+000 110573 -7.4820e+000 -7.0907e+001 -3.2539e-001 23467 110400,110452,110426
 1.5000e+000 110550  1.1571e+000 -5.9739e+001  4.1748e+000 23467 110374,110452,110400
 1.5000e+000 110527 -1.5670e+001 -6.6946e+001  4.4039e+000 23467 110348,110452,110374
 1.5000e+000 110504 -6.6692e+000 -5.9530e+001  1.1385e+000 23467 110348,110478,110452
 1.5000e+000 111004 -3.7046e+001 -8.3932e+001 -4.7370e+000 22963 111027,110733,110707
 1.5000e+000 110981 -3.3707e+001 -7.8547e+001  7.7318e+000 22963 111027,110707,110681
 1.5000e+000 110958 -8.1438e+000 -6.6415e+001  1.6000e+000 22963 111099,110759,110733
 1.5000e+000 110935 -2.2095e+001 -7.1936e+001 -4.2658e+000 22963 111171,110863,110811
 1.5000e+000 110912  3.6521e+000 -5.7504e+001 -2.3491e+000 22963 110759,110811,110785
 1.5000e+000 110889 -2.7288e+001 -8.4742e+001 -3.6332e+000 22963 110811,110863,110837
 1.5000e+000 111053 -2.1775e+001 -7.1517e+001  2.0035e+000 22963 111099,110733,111027
 1.5000e+000 111076 -2.0446e+001 -7.6573e+001 -3.5154e+000 22963 111171,110811,111027
 1.5000e+000 111125 -9.1570e+000 -6.8085e+001 -7.3619e+000 22963 110811,110759,111099
 1.5000e+000 111148 -1.3142e+001 -7.0187e+001 -8.2166e+000 22963 110811,111099,111027
 1.5000e+000 111197 -2.1453e+001 -6.5724e+001 -4.7002e+000 22963 110681,110863,111171
 1.5000e+000 111220 -2.0255e+001 -7.0300e+001 -2.1855e+000 22963 110681,111171,111027
 1.5000e+000 111726 -3.0956e+001 -7.4535e+001  1.2935e+000 22459 111749,111507,111429
 1.5000e+000 111703 -2.4187e+001 -7.1973e+001 -1.7734e+000 22459 111749,111429,111585
 1.5000e+000 111680 -6.5974e+000 -7.9319e+001  2.6420e+000 22459 111403,111585,111429
 1.5000e+000 111657 -2.8214e+001 -9.0108e+001  1.7764e+000 22459 111507,111559,111533
 1.5000e+000 111634 -5.6275e+001 -8.3290e+001  1.8834e+000 22459 111455,111507,111481
 1.5000e+000 111611 -4.3463e+001 -7.6169e+001  5.7902e+000 22459 111429,111507,111455
 1.5000e+000 111775 -2.9455e+001 -7.9604e+001  6.7953e+000 22459 111559,111507,111749
 1.5000e+000 111798 -2.3615e+001 -7.5095e+001  3.6057e+000 22459 111559,111749,111585
 1.5000e+000 112046 -7.3742e+000 -6.5784e+001 -3.5772e-001 21898 112069,111925,111873
 1.5000e+000 112023 -5.6511e+000 -6.3095e+001  3.6954e+000 21898 112069,111873,111847
 1.5000e+000 112000 -6.5877e+000 -6.9155e+001 -1.9574e+000 21898 111821,111951,111847
 1.5000e+000 111977 -1.7484e+001 -5.7755e+001  9.1807e-002 21898 111873,111925,111899
 1.5000e+000 112095 -1.3411e+001 -6.7045e+001 -3.9072e+000 21898 111951,111925,112069
 1.5000e+000 112118 -9.5300e+000 -6.3895e+001  9.6677e-002 21898 111951,112069,111847
 1.5000e+000 112498 -3.0575e+001 -6.9154e+001 -6.4315e+000 21608 112521,112276,112224
 1.5000e+000 112475 -2.2998e+001 -7.1519e+001 -2.8679e-002 21608 112521,112224,112380
 1.5000e+000 112452 -2.5674e+001 -7.6436e+001  3.3629e+000 21608 112302,112380,112354
 1.5000e+000 112429 -3.2393e+001 -7.7498e+001 -5.7705e+000 21608 112224,112276,112250
 1.5000e+000 112406  9.4154e-001 -8.0850e+001 -3.3058e+000 21608 112302,112354,112328
 1.5000e+000 112547 -2.4133e+001 -5.7259e+001 -3.9790e+000 21608 112302,112276,112521
 1.5000e+000 112570 -2.0433e+001 -6.6818e+001  9.7646e-001 21608 112302,112521,112380
 1.5000e+000 112948 -3.3532e+001 -7.4856e+001 -1.9446e+000 20882 112971,112752,112700
 1.5000e+000 112925 -2.4038e+001 -7.2209e+001 -5.3396e+000 20882 112971,112700,112830
 1.5000e+000 112902 -4.4940e+001 -8.1272e+001  2.8572e+000 20882 112778,112830,112804
 1.5000e+000 112879 -2.2724e+001 -5.8656e+001 -6.9831e+000 20882 112674,112830,112700
 1.5000e+000 112856 -4.0082e+001 -7.7940e+001  3.8350e-001 20882 112700,112752,112726
 1.5000e+000 112997 -3.4339e+001 -7.6084e+001  3.1989e+000 20882 112778,112752,112971
 1.5000e+000 113020 -2.8788e+001 -7.4945e+001 -3.2006e-001 20882 112778,112971,112830
 1.5000e+000 113526 -2.2827e+001 -7.7843e+001 -4.4687e-001 20428 113255,113385,113333
 1.5000e+000 113503 -2.4719e+001 -8.1557e+001 -1.1008e+000 20428 113229,113385,113255
 1.5000e+000 113480  5.2655e-002 -7.4033e+001  8.6103e-001 20428 113255,113333,113281
 1.5000e+000 113457 -2.0474e+001 -8.0610e+001 -8.4887e-001 20428 113203,113385,113229
 1.5000e+000 113434 -1.2610e+001 -7.7923e+001 -3.2342e+000 20428 113281,113333,113307
 1.5000e+000 113411 -3.0028e+001 -7.5134e+001  1.1594e+000 20428 113333,113385,113359
 1.5000e+000 113774 -1.2161e+001 -6.9474e+001  3.0190e+000 19917 113797,113601,113549
 1.5000e+000 113751 -1.6364e+001 -6.9981e+001  3.4312e+000 19917 113869,113797,113549
 1.5000e+000 113728 -1.6075e+001 -7.0234e+001  4.5793e+000 19917 113869,113549,113679
 1.5000e+000 113705 -1.0317e+001 -6.8945e+001  9.9437e-001 19917 113549,113601,113575
 1.5000e+000 113823 -1.6306e+001 -6.9754e+001  8.6498e-001 19917 113627,113601,113797
 1.5000e+000 113846 -1.8160e+001 -6.7948e+001  2.9932e+000 19917 113627,113797,113653
 1.5000e+000 113895 -1.5633e+001 -6.7460e+001  2.9683e+000 19917 113653,113797,113869
 1.5000e+000 113918 -1.5985e+001 -6.7950e+001  4.3925e+000 19917 113653,113869,113679
 1.5000e+000 114166 -3.4859e+001 -7.6441e+001 -2.1265e+000 19413 113993,114045,114019
 1.5000e+000 114143 -2.8586e+001 -7.0250e+001  4.0705e-001 19413 113967,114045,113993
 1.5000e+000 114120 -2.7191e+001 -6.9644e+001  3.1551e-001 19413 113967,114071,114045
 1.5000e+000 114097 -1.6441e+001 -7.5430e+001 -3.5282e+000 19413 113941,114071,113967
 1.5000e+000 114438 -1.2124e+001 -6.7201e+001 -1.3992e+000 19001 114213,114265,114239
 1.5000e+000 114415 -9.4391e+000 -5.7511e+001 -9.7555e-001 19001 114213,114343,114265
 1.5000e+000 114392 -1.6116e+001 -7.1707e+001 -3.3001e+000 19001 114265,114343,114317
 1.5000e+000 114369 -7.5526e+000 -6.5843e+001  1.0021e+000 19001 114265,114317,114291
 1.5000e+000 114639 -1.3403e+001 -6.6018e+001 -1.6090e+000 18554 114489,114541,114515
 1.5000e+000 114616 -4.1312e+000 -6.6055e+001 -2.8339e+000 18554 114489,114567,114541
 1.5000e+000 114593  8.1216e+000 -6.0232e+001  8.0053e-001 18554 114463,114567,114489
 1.5000e+000 115043 -2.2435e+001 -7.5021e+001  2.1691e+000 18164 114795,114925,114821
 1.5000e+000 115020 -1.7983e+001 -7.9823e+001  5.4402e+000 18164 114769,114925,114795
 1.5000e+000 114997 -1.9693e+001 -7.9107e+001 -1.6093e-001 18164 115066,114873,114821
 1.5000e+000 114974 -1.7701e+001 -6.9644e+001 -6.7192e-001 18164 115066,114821,114925
 1.5000e+000 114951 -1.0932e+001 -7.5865e+001 -1.5975e-001 18164 114821,114873,114847
 1.5000e+000 115092 -2.4391e+001 -7.2174e+001 -5.3986e+000 18164 114899,114873,115066
 1.5000e+000 115115 -1.9167e+001 -5.7804e+001 -6.1159e+000 18164 114899,115066,114925
 1.5000e+000 115265 -2.2902e+001 -8.2260e+001  8.9017e-001 17852 115164,115216,115190
 1.5000e+000 115242 -2.2262e+001 -8.5479e+001  9.9411e-001 17852 115138,115216,115164
 1.5000e+000 115464 -1.7322e+001 -8.4069e+001  7.9787e+000 17346 115288,115366,115340
 1.5000e+000 115441 -6.6145e+001 -6.9582e+001  8.3603e+000 17346 115288,115392,115366
 1.5000e+000 115418 -2.2764e+001 -1.1488e+002 -4.5572e+000 17346 115288,115340,115314
 1.5000e+000 115736 -2.0745e+001 -7.5899e+001  1.2445e+000 16942 115563,115641,115615
 1.5000e+000 115713 -2.0903e+001 -7.0681e+001 -1.8361e-001 16942 115511,115641,115563
 1.5000e+000 115690 -5.5268e+001 -8.8086e+001  5.5521e+000 16942 115563,115615,115589
 1.5000e+000 115667 -2.6440e+001 -8.1803e+001  1.9248e+000 16942 115511,115563,115537
 1.5000e+000 116091 -2.6428e+001 -7.1576e+001 -3.2940e+000 16388 115918,115970,115944
 1.5000e+000 116068 -2.2506e+001 -5.8606e+001 -2.4991e+000 16388 115918,115996,115970
 1.5000e+000 116045 -2.9889e+001 -7.0018e+001  8.3096e-001 16388 115892,115996,115918
 1.5000e+000 116022 -3.1245e+001 -7.8094e+001  4.5603e-001 16388 115866,115996,115892
 1.5000e+000 116192 -6.6832e+000 -9.6158e+001 -1.6110e+001 15810 116114,116166,116140
 1.5000e+000 116342 -6.6359e+000 -6.9265e+001  3.7709e+000 15419 116241,116293,116267
 1.5000e+000 116319 -8.4408e+000 -8.0875e+001 -5.6882e-001 15419 116215,116293,116241
 1.5000e+000 116445 -3.5901e+001 -7.5813e+001 -9.5482e-001 421 116367,116419,116393
 1.6000e+000 68477 -4.9040e+001 -7.4783e+001  1.3511e+000 68018 68327,68379,68353
 1.6000e+000 68454 -5.2108e+001 -1.0157e+002  8.9902e+000 68018 68301,68379,68327
 1.6000e+000 68431 -2.4122e+001 -1.1741e+002  1.9618e+001 68018 68301,68405,68379
 1.6000e+000 68578 -2.6293e+001 -8.4746e+001  8.8532e-001 67820 68500,68552,68526
 1.6000e+000 68728 -3.5396e+001 -8.0392e+001 -5.8592e-003 67508 68601,68653,68627
 1.6000e+000 68705 -6.8055e+001 -6.3557e+001 -1.4211e+001 67508 68601,68679,68653
 1.6000e+000 68927  2.2693e-001 -6.2690e+001 -3.5231e+000 67310 68777,68829,68803
 1.6000e+000 68904 -1.3038e+001 -7.3064e+001  1.7868e+000 67310 68751,68829,68777
 1.6000e+000 68881 -1.7028e+001 -8.2248e+001  6.1994e-001 67310 68751,68855,68829
 1.6000e+000 69386 -2.9896e+001 -8.9797e+001 -3.1327e+000 67020 69216,69268,69242
 1.6000e+000 69363 -2.4029e+001 -6.5916e+001 -5.7975e+000 67020 69138,69268,69216
 1.6000e+000 69340 -2.0340e+001 -5.8892e+001 -1.0025e+000 67020 69112,69268,69138
 1.6000e+000 69317 -3.5891e+001 -7.9715e+001  1.2939e+001 67020 69138,69190,69164
 1.6000e+000 69294 -3.8031e+001 -7.0364e+001  2.4665e-002 67020 69138,69216,69190
 1.6000e+000 69536 -5.3869e+001 -1.4756e+002 -8.8486e+000 66708 69435,69487,69461
 1.6000e+000 69513 -4.1911e+001 -1.6205e+002 -1.0135e+000 66708 69409,69487,69435
 1.6000e+000 69735 -3.9009e+001 -9.0156e+001  3.2978e+000 66346 69585,69637,69611
 1.6000e+000 69712 -2.8974e+001 -8.7733e+001  6.2754e-001 66346 69559,69637,69585
 1.6000e+000 69689 -2.5795e+001 -8.9053e+001 -9.0295e+000 66346 69559,69663,69637
 1.6000e+000 69985 -4.3479e+001 -9.0451e+001  2.1011e+000 66148 69786,69890,69864
 1.6000e+000 69962 -4.6215e+001 -9.2341e+001  3.3053e+000 66148 69760,69890,69786
 1.6000e+000 69939 -2.6043e+001 -8.4465e+001 -1.5167e+001 66148 69786,69864,69838
 1.6000e+000 69916 -3.6466e+001 -9.5525e+001 -3.9593e+000 66148 69786,69838,69812
 1.6000e+000 70137  9.4075e+000 -7.6142e+001 -5.6326e+000 65950 70036,70088,70062
 1.6000e+000 70114  2.0911e+001 -8.9069e+001  9.2646e+000 65950 70010,70088,70036
 1.6000e+000 70470  6.3789e+000 -5.7635e+001  1.2085e+000 65546 70245,70323,70271
 1.6000e+000 70447  3.5138e+000 -6.4474e+001  1.6115e+000 65546 70245,70375,70323
 1.6000e+000 70424  5.0483e+000 -7.4832e+001  4.4586e+000 65546 70323,70375,70349
 1.6000e+000 70401  3.9720e-001 -5.9813e+001  1.7629e+000 65546 70271,70323,70297
 1.6000e+000 70620 -1.5803e+001 -8.6782e+001  5.1649e+000 65348 70493,70545,70519
 1.6000e+000 70597 -1.3256e+001 -9.7448e+001  3.2026e+000 65348 70493,70571,70545
 1.6000e+000 70721 -5.0142e+001 -8.9118e+001  1.7631e-001 65150 70643,70695,70669
 1.6000e+000 71020 -2.5439e+001 -5.6460e+001  2.7786e+000 64952 71043,70850,70824
 1.6000e+000 70997 -1.8554e+001 -4.6498e+001 -2.9360e+000 64952 71043,70824,70772
 1.6000e+000 70974 -1.6331e+001 -7.6909e+001  2.6862e+000 64952 71115,70746,70876
 1.6000e+000 70951 -2.1526e+001 -7.5439e+001  5.8122e+000 64952 70746,70902,70876
 1.6000e+000 70928 -2.3416e+001 -4.4781e+001 -4.5919e+000 64952 70772,70824,70798
 1.6000e+000 71069 -1.1862e+001 -4.9101e+001  7.0560e+000 64952 70876,70850,71043
 1.6000e+000 71092 -1.9547e+001 -6.7889e+001  1.3740e+000 64952 71115,70876,71043
 1.6000e+000 71141 -1.8908e+001 -6.7210e+001 -4.1604e+000 64952 70772,70746,71115
 1.6000e+000 71164 -1.7479e+001 -5.3262e+001 -6.3269e+000 64952 70772,71115,71043
 1.6000e+000 71365  1.6853e+001 -7.2227e+001 -3.7936e+000 64662 71215,71293,71267
 1.6000e+000 71342  3.6732e+001 -4.3433e+001 -1.4581e+001 64662 71189,71293,71215
 1.6000e+000 71319  3.1705e+001 -2.7136e+001 -5.6124e+000 64662 71215,71267,71241
 1.6000e+000 71615 -1.4178e+001 -8.0781e+001  9.2626e-001 64350 71710,71638,71468
 1.6000e+000 71592 -8.2916e+000 -7.5817e+001 -2.4734e+000 64350 71638,71416,71390
 1.6000e+000 71569 -1.7936e+001 -7.2698e+001  8.0213e+000 64350 71710,71468,71442
 1.6000e+000 71546  2.3725e+001 -7.4886e+001 -1.2825e+001 64350 71390,71520,71494
 1.6000e+000 71664 -1.0653e+001 -7.8601e+001 -1.4281e+000 64350 71494,71468,71638
 1.6000e+000 71687 -8.7925e+000 -7.9235e+001 -2.7706e-001 64350 71494,71638,71390
 1.6000e+000 71736 -7.0545e+000 -6.4246e+001 -6.7869e-001 64350 71416,71638,71710
 1.6000e+000 71759 -1.1673e+001 -5.7981e+001  7.9571e+000 64350 71416,71710,71442
 1.6000e+000 72318 -1.1248e+001 -1.2601e+002 -7.3235e+000 63837 71972,72024,71998
 1.6000e+000 72295 -1.7784e+001 -7.7846e+001 -1.6446e-001 63837 72341,71972,71946
 1.6000e+000 72272 -1.5060e+001 -5.9441e+001  5.2557e+000 63837 72413,72341,71946
 1.6000e+000 72249 -1.5536e+001 -5.2294e+001  3.3050e+000 63837 72413,71946,72128
 1.6000e+000 72226 -3.2082e+001 -6.4126e+001  2.0245e+000 63837 72024,72076,72050
 1.6000e+000 72203 -2.5362e+001 -5.6689e+001 -1.8577e+000 63837 72024,72102,72076
 1.6000e+000 72180 -1.3147e+001 -5.1816e+001  5.7710e+000 63837 71946,72154,72128
 1.6000e+000 72367 -2.9015e+001 -8.5916e+001 -1.7732e+001 63837 72024,71972,72341
 1.6000e+000 72390 -1.6955e+001 -6.4021e+001 -6.6654e+000 63837 72024,72341,72102
 1.6000e+000 72439 -1.1721e+001 -7.0834e+001  2.5468e+000 63837 72102,72341,72413
 1.6000e+000 72462 -1.1656e+001 -6.2911e+001  1.5313e+000 63837 72102,72413,72128
 1.6000e+000 72791 -2.7729e+001 -6.4198e+001 -7.1507e+000 63383 72592,72696,72670
 1.6000e+000 72768 -3.0935e+001 -6.3178e+001 -1.4765e+001 63383 72566,72696,72592
 1.6000e+000 72745 -3.0992e+001 -5.7132e+001 -6.6915e-001 63383 72592,72670,72618
 1.6000e+000 72722 -3.1601e+001 -5.5000e+001 -3.3723e+000 63383 72618,72670,72644
 1.6000e+000 73297 -4.0675e+001 -6.0353e+001 -1.7970e+000 63185 73000,73156,73130
 1.6000e+000 73274 -4.0777e+001 -6.2902e+001  8.1485e+000 63185 72974,73156,73000
 1.6000e+000 73251 -2.8227e+001 -6.8082e+001 -1.0403e+000 63185 73000,73052,73026
 1.6000e+000 73228 -2.9640e+001 -5.9907e+001 -3.4423e+000 63185 73000,73130,73052
 1.6000e+000 73205 -3.1340e+001 -7.3616e+001 -1.1717e+001 63185 73052,73130,73104
 1.6000e+000 73182 -2.7335e+001 -7.8326e+001 -1.1445e+001 63185 73052,73104,73078
 1.6000e+000 73545 -5.5585e+000 -6.3721e+001  2.3966e-001 62781 73568,73398,73372
 1.6000e+000 73522  2.8424e+000 -5.5641e+001  5.3237e+000 62781 73568,73372,73346
 1.6000e+000 73499 -1.2633e+001 -6.6619e+001 -8.1437e+000 62781 73640,73320,73424
 1.6000e+000 73476  4.0741e+000 -6.0809e+001 -1.2244e+001 62781 73320,73450,73424
 1.6000e+000 73594 -5.2567e+000 -5.7430e+001 -1.0104e+000 62781 73424,73398,73568
 1.6000e+000 73617 -8.5227e+000 -6.3225e+001 -2.8278e+000 62781 73640,73424,73568
 1.6000e+000 73666 -9.4127e+000 -6.0029e+001 -2.8327e+000 62781 73346,73320,73640
 1.6000e+000 73689 -6.9133e+000 -5.4973e+001  2.0221e+000 62781 73346,73640,73568
 1.6000e+000 74035 -1.8230e+001 -8.1627e+001 -5.5636e+000 62363 74058,73868,73842
 1.6000e+000 74012 -2.3864e+000 -6.4697e+001 -1.5867e+001 62363 74130,74058,73842
 1.6000e+000 73989  3.7590e+000 -6.6896e+001 -2.3197e+001 62363 74130,73842,73816
 1.6000e+000 73966 -2.2577e+001 -9.2226e+001  3.2274e+000 62363 74202,73764,73894
 1.6000e+000 73943 -4.7169e+001 -7.9981e+001  2.7571e+000 62363 73712,73894,73764
 1.6000e+000 73920 -5.5396e+001 -8.9773e+001 -1.3493e+000 62363 73712,73764,73738
 1.6000e+000 74084 -9.1392e+000 -8.2429e+001 -2.5670e+000 62363 73894,73868,74058
 1.6000e+000 74107 -1.9624e+001 -8.6042e+001  4.0781e+000 62363 74202,73894,74058
 1.6000e+000 74156 -1.2109e+001 -7.7659e+001 -1.0437e+000 62363 73790,74058,74130
 1.6000e+000 74179  8.2543e+000 -7.6608e+001 -7.9094e+000 62363 73790,74130,73816
 1.6000e+000 74228 -2.4560e+001 -9.3160e+001 -5.3010e+000 62363 73790,73764,74202
 1.6000e+000 74251 -2.1304e+001 -8.5899e+001 -4.6271e+000 62363 73790,74202,74058
 1.6000e+000 74403  1.5353e+001 -8.2380e+001  5.6871e+000 62115 74426,74302,74276
 1.6000e+000 74380  2.3269e+001 -7.6988e+001  9.0149e+000 62115 74426,74276,74354
 1.6000e+000 74452  7.1590e+000 -7.5343e+001  4.9483e+000 62115 74328,74302,74426
 1.6000e+000 74475  1.4686e+001 -6.9994e+001  8.3893e+000 62115 74328,74426,74354
 1.6000e+000 74578  3.8155e+000 -8.3802e+001 -3.8855e+000 61825 74500,74552,74526
 1.6000e+000 74982 -4.1170e+001 -9.3846e+001  3.2598e-001 61513 75005,74734,74708
 1.6000e+000 74959 -4.2130e+001 -8.3514e+001 -2.4737e+000 61513 75005,74708,74864
 1.6000e+000 74936 -6.0464e+001 -9.7751e+001  7.0440e+000 61513 75077,74812,74734
 1.6000e+000 74913 -4.3068e+001 -7.8750e+001 -6.4155e+000 61513 74734,74786,74760
 1.6000e+000 74890 -4.7555e+001 -8.4735e+001 -1.5041e+000 61513 74734,74812,74786
 1.6000e+000 75031 -3.9547e+001 -9.7582e+001  2.0355e-001 61513 75077,74734,75005
 1.6000e+000 75054 -3.1746e+001 -9.4476e+001  1.3163e+001 61513 74838,75005,74864
 1.6000e+000 75103 -7.2111e+001 -1.0286e+002  2.5859e+001 61513 74838,74812,75077
 1.6000e+000 75126 -5.8570e+001 -1.0795e+002  1.9092e+001 61513 74838,75077,75005
 1.6000e+000 75553 -1.7307e+001 -7.5704e+001 -7.3239e-001 61060 75576,75360,75308
 1.6000e+000 75530 -1.1359e+001 -8.4315e+001  1.5302e+000 61060 75576,75308,75230
 1.6000e+000 75507 -1.8724e+001 -7.5058e+001  6.4394e-001 61060 75308,75360,75334
 1.6000e+000 75484 -2.2750e+001 -1.0947e+002  4.6428e+000 61060 75230,75308,75256
 1.6000e+000 75461 -1.7288e+001 -8.8087e+001 -7.1928e+000 61060 75256,75308,75282
 1.6000e+000 75438 -2.7558e+001 -7.4959e+001  1.0913e+001 61060 75360,75412,75386
 1.6000e+000 75602 -1.9965e+001 -8.1573e+001  2.5112e+000 61060 75412,75360,75576
 1.6000e+000 75625 -1.5676e+001 -9.3276e+001  4.5136e+000 61060 75412,75576,75230
 1.6000e+000 76052 -2.1807e+001 -7.0305e+001  3.8395e-002 60442 75755,75859,75833
 1.6000e+000 76029 -2.4343e+001 -6.3642e+001 -8.2437e+000 60442 75729,75859,75755
 1.6000e+000 76006 -2.4105e+001 -6.6294e+001  4.0377e+000 60442 75755,75833,75807
 1.6000e+000 75983 -2.1806e+001 -7.7640e+001  2.3551e+000 60442 75755,75807,75781
 1.6000e+000 75960  2.9390e+000 -1.3501e+002  5.5303e+000 60442 75729,75911,75859
 1.6000e+000 75937 -6.3365e+001 -3.2516e+002  1.8950e+001 60442 75859,75911,75885
 1.6000e+000 76430 -2.3416e+001 -7.4197e+001 -7.2197e-001 59788 76453,76286,76234
 1.6000e+000 76407 -2.5882e+001 -8.4463e+001  3.1306e+000 59788 76453,76234,76182
 1.6000e+000 76384 -2.5905e+001 -4.8166e+001  1.2383e+001 59788 76525,76156,76312
 1.6000e+000 76361 -1.3464e+001 -1.0000e+002  1.3847e+000 59788 76182,76234,76208
 1.6000e+000 76338 -1.1148e+001 -6.7790e+001  1.8138e+000 59788 76234,76286,76260
 1.6000e+000 76479 -2.8871e+001 -7.9232e+001  2.0641e+000 59788 76312,76286,76453
 1.6000e+000 76502 -2.3034e+001 -7.2717e+001  5.2675e+000 59788 76525,76312,76453
 1.6000e+000 76551 -3.5856e+001 -7.9215e+001  1.2783e+001 59788 76182,76156,76525
 1.6000e+000 76574 -3.0278e+001 -8.6649e+001  7.8666e+000 59788 76182,76525,76453
 1.6000e+000 77031  5.1305e-002 -3.7695e+001 -9.6265e+000 59448 76835,76887,76861
 1.6000e+000 77008  1.3877e+001 -2.6198e+001 -2.9009e-001 59448 76835,76913,76887
 1.6000e+000 76985  3.9622e+000 -2.7816e+001  8.6591e+000 59448 76809,76913,76835
 1.6000e+000 76962 -1.3491e+001 -3.3447e+001 -4.0970e+000 59448 76757,76913,76809
 1.6000e+000 76939 -7.3385e+000 -3.0587e+001 -6.5510e+000 59448 76757,76809,76783
 1.6000e+000 77537 -1.3638e+001 -7.7597e+001 -7.1729e-001 58994 77560,77344,77292
 1.6000e+000 77514 -3.8772e+001 -8.1187e+001 -6.5242e+000 58994 77560,77292,77240
 1.6000e+000 77491  4.6113e+000 -7.1573e+001 -1.2339e+001 58994 77632,77214,77370
 1.6000e+000 77468 -4.9450e+001 -9.4091e+001  1.2289e+001 58994 77292,77344,77318
 1.6000e+000 77445  6.0804e+000 -1.1338e+002 -2.1360e+000 58994 77214,77396,77370
 1.6000e+000 77422 -3.6681e+001 -7.9881e+001 -1.0946e+001 58994 77240,77292,77266
 1.6000e+000 77586 -2.5834e+001 -8.4462e+001  2.9208e+000 58994 77370,77344,77560
 1.6000e+000 77609 -1.4493e+001 -8.2984e+001  3.4563e+000 58994 77632,77370,77560
 1.6000e+000 77658  1.4940e+001 -5.9787e+001 -3.0139e+001 58994 77240,77214,77632
 1.6000e+000 77681  6.3648e-001 -5.8263e+001 -1.5916e+001 58994 77240,77632,77560
 1.6000e+000 78138 -1.4784e+001 -4.3527e+001  7.6144e+000 58440 77864,77994,77890
 1.6000e+000 78115 -8.4833e+000 -1.9139e+001 -7.0370e+000 58440 77864,78020,77994
 1.6000e+000 78092 -1.8318e+001 -5.2095e+001 -1.0236e+001 58440 77942,77994,77968
 1.6000e+000 78069 -9.3953e+000 -5.0764e+001 -2.8314e-001 58440 77890,77994,77942
 1.6000e+000 78046  1.0756e+000 -5.3436e+001 -8.0649e+000 58440 77890,77942,77916
 1.6000e+000 78467 -6.7407e+000 -7.3977e+001  2.5278e+000 57928 78562,78490,78346
 1.6000e+000 78444 -1.6935e+001 -6.8835e+001  4.3685e+000 57928 78490,78294,78268
 1.6000e+000 78421 -4.3016e+000 -7.5820e+001  4.5070e+000 57928 78562,78346,78320
 1.6000e+000 78398 -2.9785e+000 -6.9520e+001  3.2523e+000 57928 78242,78372,78268
 1.6000e+000 78516 -1.7939e+001 -9.0669e+001 -4.2118e+000 57928 78372,78346,78490
 1.6000e+000 78539 -1.3567e+001 -6.9825e+001  8.0740e-001 57928 78372,78490,78268
 1.6000e+000 78588 -1.8059e+001 -7.3758e+001  1.4058e+000 57928 78294,78490,78562
 1.6000e+000 78611 -1.0841e+001 -7.0099e+001  5.2655e+000 57928 78294,78562,78320
 1.6000e+000 79068 -3.7048e+001 -9.6898e+001 -2.6575e+001 57467 78794,78924,78820
 1.6000e+000 79045 -2.4722e+001 -9.2184e+001 -2.8165e+001 57467 78794,78950,78924
 1.6000e+000 79022  5.1465e+000 -7.6844e+001  4.8394e+000 57467 78820,78898,78872
 1.6000e+000 78999 -2.6893e+001 -1.1506e+002 -1.6852e+001 57467 78820,78924,78898
 1.6000e+000 78976 -1.6903e+000 -8.1126e+001  7.2952e+000 57467 78820,78872,78846
 1.6000e+000 79446 -3.7126e+001 -8.6547e+001  1.6454e+000 57120 79172,79302,79250
 1.6000e+000 79423 -3.1804e+001 -8.3911e+001 -5.6597e+000 57120 79172,79328,79302
 1.6000e+000 79400 -3.5572e+001 -7.2788e+001 -1.2773e+000 57120 79172,79250,79198
 1.6000e+000 79377 -2.1052e+001 -1.1361e+002  6.4186e+000 57120 79250,79302,79276
 1.6000e+000 79354 -4.6086e+001 -7.9658e+001 -4.3917e+000 57120 79198,79250,79224
 1.6000e+000 79952 -3.9200e+001 -7.3147e+001  2.2663e+000 56773 79629,79785,79655
 1.6000e+000 79929 -3.8937e+000 -6.2055e+001  5.2395e+000 56773 79629,79811,79785
 1.6000e+000 79906 -2.5207e+001 -8.7522e+001  8.2787e+000 56773 79655,79733,79681
 1.6000e+000 79883 -2.5502e+001 -7.3416e+001  1.8982e+000 56773 79655,79785,79733
 1.6000e+000 79860 -1.9965e+001 -1.0034e+002 -1.6623e+001 56773 79733,79785,79759
 1.6000e+000 79837  2.4256e+000 -7.4442e+001  2.5577e+001 56773 79681,79733,79707
 1.6000e+000 80281 -2.3298e+001 -6.8487e+001 -1.1483e+001 56319 80108,80160,80134
 1.6000e+000 80258 -1.6006e+001 -7.1493e+001 -1.0010e+001 56319 80056,80160,80108
 1.6000e+000 80235 -7.9753e+000 -6.4340e+001  3.2511e+000 56319 80056,80186,80160
 1.6000e+000 80212 -1.8322e+001 -9.9885e+001 -1.1995e+001 56319 80056,80108,80082
 1.6000e+000 80738 -7.7198e+000 -7.0347e+001  5.9854e+000 55957 80516,80620,80594
 1.6000e+000 80715 -2.1010e+001 -6.1329e+001  6.0497e+000 55957 80464,80620,80516
 1.6000e+000 80692 -1.8006e+001 -7.4701e+001  3.7626e+000 55957 80761,80568,80542
 1.6000e+000 80669 -1.1958e+001 -7.4594e+001  4.3322e+000 55957 80761,80542,80516
 1.6000e+000 80646 -2.1031e+001 -6.1128e+001  1.2838e+001 55957 80464,80516,80490
 1.6000e+000 80787 -2.2942e+001 -7.5065e+001  3.0211e+000 55957 80594,80568,80761
 1.6000e+000 80810 -1.7366e+001 -7.5235e+001  3.7140e+000 55957 80594,80761,80516
 1.6000e+000 81210 -6.5232e+000 -7.0733e+001 -6.2034e+000 55317 80936,80988,80962
 1.6000e+000 81187 -5.2074e+000 -7.4500e+001 -2.7385e+000 55317 80936,81066,80988
 1.6000e+000 81164 -6.1999e+000 -8.1814e+001 -1.5228e-001 55317 80936,81092,81066
 1.6000e+000 81141 -2.4145e+001 -8.4264e+001 -8.8528e+000 55317 80988,81066,81014
 1.6000e+000 81118  4.7845e+000 -4.9660e+001  4.2722e+000 55317 81014,81066,81040
 1.6000e+000 81539 -2.7664e+001 -7.5180e+001  1.9879e-001 54913 81340,81418,81392
 1.6000e+000 81516 -9.2119e-001 -6.0949e+001 -7.2585e+000 54913 81340,81444,81418
 1.6000e+000 81493 -4.9538e+000 -6.5250e+001 -1.5409e+001 54913 81314,81444,81340
 1.6000e+000 81470 -3.2759e+001 -9.0144e+001 -2.9193e+000 54913 81340,81392,81366
 1.6000e+000 81787 -1.0568e+001 -7.9988e+001 -2.9755e+000 54601 81588,81692,81640
 1.6000e+000 81764 -2.8792e+001 -8.0549e+001 -6.6370e+000 54601 81562,81692,81588
 1.6000e+000 81741 -8.4462e+000 -8.2526e+001  9.8563e+000 54601 81588,81640,81614
 1.6000e+000 81718 -1.0798e+001 -1.0578e+002 -1.7353e+001 54601 81640,81692,81666
 1.6000e+000 82344 -1.8724e+001 -8.7810e+001 -1.3023e+001 54090 81998,82102,82076
 1.6000e+000 82321 -3.0111e+001 -9.2931e+001 -8.5567e+000 54090 81998,82154,82102
 1.6000e+000 82298 -2.8296e+001 -8.9348e+001 -7.3140e+000 54090 81972,82154,81998
 1.6000e+000 82275 -2.1622e+001 -8.3889e+001 -1.4044e+001 54090 81998,82076,82024
 1.6000e+000 82252 -4.0958e+001 -9.8194e+001  2.0661e+000 54090 81972,82180,82154
 1.6000e+000 82229 -5.0896e+001 -1.0922e+002  4.6315e+000 54090 82102,82154,82128
 1.6000e+000 82206  4.8385e+001 -5.4235e+001 -1.9188e+001 54090 82024,82076,82050
 1.6000e+000 82722 -5.1165e+001 -9.4907e+001 -4.9305e+000 53579 82500,82578,82552
 1.6000e+000 82699 -3.7868e+001 -8.9028e+001  3.3474e-001 53579 82448,82578,82500
 1.6000e+000 82676 -4.3026e+001 -9.7756e+001  2.4734e+000 53579 82448,82500,82474
 1.6000e+000 82653 -4.8917e+001 -9.5808e+001  8.9174e+000 53579 82448,82604,82578
 1.6000e+000 82630 -2.4495e+001 -8.8712e+001 -6.1242e+000 53579 82500,82552,82526
 1.6000e+000 83356 -1.9026e+001 -6.6399e+001 -5.8482e+000 53189 83379,83088,83036
 1.6000e+000 83333 -1.8358e+001 -7.5284e+001 -5.2560e+000 53189 83379,83036,82984
 1.6000e+000 83310 -2.4463e+000 -6.7726e+001  1.7064e+001 53189 82984,83192,83166
 1.6000e+000 83287  7.8059e+000 -5.5620e+001 -5.4813e+000 53189 83036,83088,83062
 1.6000e+000 83264 -1.5632e+001 -9.5622e+001 -1.1193e+001 53189 82984,83036,83010
 1.6000e+000 83241 -5.4244e+000 -8.1307e+001  3.4217e+000 53189 83114,83166,83140
 1.6000e+000 83218 -3.0220e+001 -8.8852e+001  3.7581e+000 53189 83088,83166,83114
 1.6000e+000 83405 -1.8894e+001 -7.2364e+001 -2.1585e+000 53189 83166,83088,83379
 1.6000e+000 83428 -1.6941e+001 -8.0221e+001 -2.1200e+000 53189 83166,83379,82984
 1.6000e+000 83725 -2.7858e+001 -9.9732e+001 -6.7973e+000 52585 83748,83529,83503
 1.6000e+000 83702 -1.4025e+001 -9.4485e+001 -4.6680e+000 52585 83820,83748,83503
 1.6000e+000 83679  1.7692e+000 -9.0090e+001 -2.7722e+000 52585 83820,83503,83477
 1.6000e+000 83656 -1.7643e+001 -8.4617e+001  1.1981e+001 52585 83477,83607,83581
 1.6000e+000 83633  2.0759e+000 -7.7079e+001  1.0059e+001 52585 83451,83607,83477
 1.6000e+000 83774 -2.3066e+001 -8.7391e+001 -4.8461e+000 52585 83555,83529,83748
 1.6000e+000 83797 -3.9885e+001 -9.2532e+001 -2.7035e+000 52585 83555,83748,83581
 1.6000e+000 83846 -2.8864e+001 -8.4352e+001  3.5213e+000 52585 83581,83748,83820
 1.6000e+000 83869 -1.7615e+001 -8.2849e+001  3.6965e+000 52585 83581,83820,83477
 1.6000e+000 84200 -3.0305e+001 -9.4420e+001  3.6807e-001 52024 84001,84105,84079
 1.6000e+000 84177 -1.1127e+001 -8.9865e+001 -3.1655e+000 52024 83975,84105,84001
 1.6000e+000 84154 -2.5324e+001 -9.4277e+001  1.0563e+000 52024 84001,84079,84053
 1.6000e+000 84131 -1.3030e+001 -6.1962e+001  1.7202e+001 52024 84001,84053,84027
 1.6000e+000 84399 -1.6900e+001 -8.1706e+001 -1.2019e+000 51470 84422,84275,84249
 1.6000e+000 84376 -1.7163e+001 -8.3881e+001 -1.5817e+000 51470 84422,84249,84223
 1.6000e+000 84353 -1.8802e+001 -9.4103e+001 -1.3917e+001 51470 84275,84327,84301
 1.6000e+000 84448 -1.6492e+001 -8.3549e+001 -9.7179e-001 51470 84327,84275,84422
 1.6000e+000 84471 -1.6427e+001 -8.5294e+001 -1.3731e+000 51470 84327,84422,84223
 1.6000e+000 84753 -1.9892e+001 -8.2469e+001 -1.0585e-001 51073 84603,84655,84629
 1.6000e+000 84730 -5.5603e+001 -9.3998e+001  3.2808e-001 51073 84776,84655,84603
 1.6000e+000 84707 -3.2880e+000 -7.1607e+001 -2.3798e+001 51073 84577,84681,84655
 1.6000e+000 84802 -3.1048e+001 -7.8744e+001 -1.0031e+001 51073 84577,84655,84776
 1.6000e+000 85178 -4.6782e+001 -1.0427e+002  9.7637e+000 50519 85201,85008,84982
 1.6000e+000 85155 -4.3947e+001 -9.6355e+001  7.6498e+000 50519 85273,85201,84982
 1.6000e+000 85132 -4.0862e+001 -9.6176e+001  5.7065e+000 50519 85273,84982,84930
 1.6000e+000 85109 -3.9638e+001 -9.2033e+001  4.6815e+000 50519 84930,84982,84956
 1.6000e+000 85086 -3.9773e+001 -1.0075e+002  5.8742e+000 50519 85008,85060,85034
 1.6000e+000 85227 -3.8150e+001 -9.9058e+001  4.8713e+000 50519 85060,85008,85201
 1.6000e+000 85250 -4.3307e+001 -1.0153e+002  3.1772e+000 50519 85060,85201,84904
 1.6000e+000 85299 -4.0848e+001 -9.8140e+001  1.5848e+000 50519 84904,85201,85273
 1.6000e+000 85322 -2.9468e+001 -8.3201e+001 -3.4776e+000 50519 84904,85273,84930
 1.6000e+000 85958 -1.8175e+001 -7.9572e+001 -2.1264e+000 50093 85981,85768,85716
 1.6000e+000 85935 -1.5301e+001 -7.2308e+001 -2.4161e+000 50093 85981,85716,85612
 1.6000e+000 85912 -2.1861e+001 -6.9376e+001  5.7094e-001 50093 85612,85716,85664
 1.6000e+000 85889 -1.1231e+001 -7.7884e+001 -2.2172e-001 50093 85716,85768,85742
 1.6000e+000 85866 -2.4277e+001 -5.9816e+001 -1.1577e+001 50093 85664,85716,85690
 1.6000e+000 85843  1.6825e+001 -5.0087e+001 -6.3183e+000 50093 85586,85794,85612
 1.6000e+000 85820 -1.4746e+001 -1.0164e+002  6.5072e+000 50093 85612,85664,85638
 1.6000e+000 86007 -2.3737e+001 -8.5561e+001 -1.2267e+001 50093 85794,85768,85981
 1.6000e+000 86030 -1.4989e+001 -6.4822e+001 -1.0023e+001 50093 85794,85981,85612
 1.6000e+000 86131 -1.1197e+001 -9.2920e+001  1.4286e+001 49895 86053,86105,86079
 1.6000e+000 86639 -9.5580e+000 -5.4855e+001 -8.4741e+000 49391 86662,86394,86368
 1.6000e+000 86616 -1.2077e+001 -6.6374e+001 -6.2825e+000 49391 86662,86368,86342
 1.6000e+000 86593  1.5775e+000 -6.1321e+001  3.8394e+000 49391 86342,86498,86472
 1.6000e+000 86570  1.6183e+001 -7.0732e+001  4.4867e+000 49391 86316,86498,86342
 1.6000e+000 86547 -2.9229e+001 -1.0049e+002 -7.8905e-001 49391 86394,86472,86446
 1.6000e+000 86524  8.1253e+000 -9.8384e+001  3.8488e+000 49391 86394,86446,86420
 1.6000e+000 86688 -1.4366e+001 -6.5432e+001 -3.6284e+000 49391 86472,86394,86662
 1.6000e+000 86711 -1.0299e+001 -7.0163e+001 -2.8431e+000 49391 86472,86662,86342
 1.6000e+000 87089 -2.7339e+001 -8.4830e+001  2.8674e+000 48987 86815,86919,86867
 1.6000e+000 87066 -2.7154e+001 -8.8384e+001  4.6476e+000 48987 86815,86971,86919
 1.6000e+000 87043 -9.3064e+000 -9.2501e+001 -6.6295e+000 48987 86867,86919,86893
 1.6000e+000 87020 -3.0563e+001 -9.4580e+001  1.0179e+001 48987 86815,86867,86841
 1.6000e+000 86997 -3.1348e+001 -7.4335e+001  1.4361e+001 48987 86919,86971,86945
 1.6000e+000 87467 -5.7045e+001 -8.2137e+001  5.2953e+000 48540 87490,87245,87219
 1.6000e+000 87444 -4.0346e+001 -7.6650e+001  1.3826e+000 48540 87562,87490,87219
 1.6000e+000 87421 -2.9248e+001 -7.2087e+001  3.7503e+000 48540 87562,87219,87349
 1.6000e+000 87398 -4.3313e+001 -6.5280e+001  1.3380e-001 48540 87245,87297,87271
 1.6000e+000 87375 -2.5189e+001 -7.6929e+001  2.3749e+000 48540 87193,87349,87219
 1.6000e+000 87516 -3.8565e+001 -7.6174e+001  4.2466e+000 48540 87297,87245,87490
 1.6000e+000 87539 -4.1056e+001 -8.0077e+001  5.6767e+000 48540 87297,87490,87323
 1.6000e+000 87588 -2.9791e+001 -7.3745e+001  8.9731e+000 48540 87323,87490,87562
 1.6000e+000 87611 -2.4168e+001 -7.3989e+001  1.0430e+001 48540 87323,87562,87349
 1.6000e+000 87810 -1.6174e+001 -1.5987e+002 -2.3076e+001 48136 87660,87712,87686
 1.6000e+000 87787 -1.2105e+000 -8.8675e+001 -8.9127e+000 48136 87660,87738,87712
 1.6000e+000 87764 -5.0524e+001 -9.6435e+001 -2.1041e+001 48136 87634,87738,87660
 1.6000e+000 88205 -3.3212e+001 -9.0588e+001 -7.3866e+000 47210 88300,88228,87937
 1.6000e+000 88182 -2.9018e+001 -9.2188e+001 -1.7311e+000 47210 88228,87833,88041
 1.6000e+000 88159 -3.3630e+001 -9.6691e+001 -1.2064e+001 47210 88300,87937,87911
 1.6000e+000 88136 -3.1814e+001 -9.0407e+001 -9.7580e+000 47210 87833,87911,87859
 1.6000e+000 88113 -5.3798e+001 -7.3636e+001 -7.6482e+000 47210 87937,87989,87963
 1.6000e+000 88090 -3.2341e+001 -7.6259e+001  1.9379e+001 47210 87989,88041,88015
 1.6000e+000 88067 -3.6497e+001 -1.0177e+002 -1.1181e+001 47210 87859,87911,87885
 1.6000e+000 88254 -2.9791e+001 -6.9792e+001 -9.2141e+000 47210 87989,87937,88228
 1.6000e+000 88277 -3.8821e+001 -8.6358e+001 -1.9767e+000 47210 87989,88228,88041
 1.6000e+000 88326 -2.6740e+001 -8.4604e+001 -2.6656e+000 47210 87833,88228,88300
 1.6000e+000 88349 -2.8285e+001 -8.8817e+001 -7.6601e+000 47210 87833,88300,87911
 1.6000e+000 88780 -5.9734e+001 -1.1254e+002 -1.8944e+001 46642 88803,88509,88483
 1.6000e+000 88757 -4.1373e+001 -1.0056e+002 -7.4608e+000 46642 88803,88483,88639
 1.6000e+000 88734 -4.7172e+001 -8.0033e+001 -1.0596e+001 46642 88875,88561,88509
 1.6000e+000 88711 -4.7616e+001 -7.4208e+001 -4.9112e-001 46642 88509,88561,88535
 1.6000e+000 88688 -9.0337e+000 -1.0807e+002  1.3642e+001 46642 88457,88639,88483
 1.6000e+000 88665 -5.4890e+001 -1.2834e+002 -1.8381e+000 46642 88561,88613,88587
 1.6000e+000 88829 -4.6021e+001 -8.8510e+001 -1.2163e+001 46642 88875,88509,88803
 1.6000e+000 88852 -4.5585e+001 -1.0639e+002 -5.2233e+000 46642 88613,88803,88639
 1.6000e+000 88901 -3.9145e+001 -9.1336e+001 -3.8757e+000 46642 88613,88561,88875
 1.6000e+000 88924 -4.2195e+001 -1.0516e+002 -4.9074e+000 46642 88613,88875,88803
 1.6000e+000 89253 -1.5877e+001 -9.2136e+001  1.6725e+000 46444 89080,89158,89132
 1.6000e+000 89230 -1.6962e+001 -9.4424e+001  1.0816e+000 46444 89028,89158,89080
 1.6000e+000 89207 -3.5169e+000 -8.9302e+001 -1.8401e+000 46444 89028,89080,89054
 1.6000e+000 89184 -6.6249e+000 -9.8429e+001 -6.6760e+000 46444 89080,89132,89106
 1.6000e+000 89631 -1.2818e+001 -5.3278e+001  1.0852e+000 46040 89383,89461,89435
 1.6000e+000 89608 -1.4408e+001 -5.9087e+001 -2.6683e+000 46040 89383,89487,89461
 1.6000e+000 89585 -1.4685e+001 -6.8908e+001 -2.1106e+000 46040 89383,89435,89409
 1.6000e+000 89562 -1.3511e+001 -5.3784e+001 -4.8882e+000 46040 89383,89513,89487
 1.6000e+000 89539  8.5038e+000 -4.0243e+001 -1.7421e+001 46040 89357,89513,89383
 1.6000e+000 90009 -1.6020e+001 -7.4293e+001  1.5445e+000 45636 89813,89891,89839
 1.6000e+000 89986 -1.5293e+001 -6.3170e+001  7.4064e+000 45636 89787,89891,89813
 1.6000e+000 89963 -1.2940e+001 -6.6260e+001 -1.0979e+000 45636 89839,89891,89865
 1.6000e+000 89940 -2.4124e+001 -7.4254e+001  3.4616e+000 45636 89735,89891,89787
 1.6000e+000 89917 -1.9386e+001 -7.2658e+001 -1.5691e-001 45636 89735,89787,89761
 1.6000e+000 90208 -1.3529e+001 -5.6978e+001 -1.4936e+001 45175 90231,90058,90032
 1.6000e+000 90185 -4.2898e+000 -5.0611e+001 -2.1654e+001 45175 90231,90032,90136
 1.6000e+000 90162 -1.8003e+001 -4.3698e+001 -9.5256e-001 45175 90058,90110,90084
 1.6000e+000 90257 -2.3247e+001 -6.5520e+001 -3.4951e+000 45175 90110,90058,90231
 1.6000e+000 90280 -5.8347e+000 -5.4444e+001 -1.1046e+001 45175 90110,90231,90136
 1.6000e+000 90528 -1.3759e+001 -5.4945e+001 -7.3831e+000 44513 90695,90551,90407
 1.6000e+000 90505 -1.7045e+001 -5.2650e+001 -4.0595e+000 44513 90551,90355,90329
 1.6000e+000 90482 -1.9496e+001 -4.7157e+001 -5.6406e+000 44513 90623,90303,90433
 1.6000e+000 90459 -8.6711e+000 -5.1520e+001 -5.8373e+000 44513 90695,90407,90381
 1.6000e+000 90577 -2.2384e+001 -5.7907e+001 -1.1744e+001 44513 90433,90407,90551
 1.6000e+000 90600 -1.8369e+001 -5.1889e+001 -5.8173e+000 44513 90623,90433,90551
 1.6000e+000 90649 -2.1981e+001 -5.2431e+001 -4.6364e+000 44513 90329,90303,90623
 1.6000e+000 90672 -2.0088e+001 -5.4309e+001 -5.0464e+000 44513 90329,90623,90551
 1.6000e+000 90721 -1.9316e+001 -5.0733e+001 -8.0095e+000 44513 90355,90551,90695
 1.6000e+000 90744 -1.7508e+001 -4.9588e+001 -7.5050e+000 44513 90355,90695,90381
 1.6000e+000 91077  7.2044e+000 -4.9419e+001  1.2398e+001 44059 91100,90930,90904
 1.6000e+000 91054 -2.4687e+001 -6.6042e+001  5.8254e+000 44059 91100,90904,90982
 1.6000e+000 91031 -3.2862e+001 -6.6068e+001  1.8386e+000 44059 90878,90982,90904
 1.6000e+000 91008 -1.0048e+001 -5.6939e+001  3.7132e+000 44059 90852,90982,90878
 1.6000e+000 91126 -4.5281e+001 -6.6154e+001  5.0032e+000 44059 91172,91100,90956
 1.6000e+000 91149 -2.3206e+001 -6.3375e+001  2.5650e+000 44059 90956,91100,90982
 1.6000e+000 91198 -5.9864e+000 -4.8395e+001 -7.2174e+000 44059 90930,91100,91172
 1.6000e+000 91677 -2.9567e+001 -5.5742e+001  7.7816e+000 43549 91455,91533,91481
 1.6000e+000 91654 -3.9302e+000 -5.3700e+001  1.1107e+001 43549 91429,91533,91455
 1.6000e+000 91631 -2.8504e+001 -5.4572e+001  6.4396e+000 43549 91481,91533,91507
 1.6000e+000 91608  4.0432e+000 -5.0416e+001  7.1699e+000 43549 91429,91559,91533
 1.6000e+000 91585  2.6367e+001 -8.4959e+000  1.5493e+001 43549 91403,91559,91429
 1.6000e+000 92006 -2.7186e+001 -7.7508e+001  2.3166e+000 43059 91781,91885,91807
 1.6000e+000 91983 -2.5934e+001 -6.7269e+001  1.3754e+001 43059 91781,91911,91885
 1.6000e+000 91960 -2.3878e+001 -7.6574e+001  2.0822e+000 43059 91807,91885,91833
 1.6000e+000 91937 -1.0263e+001 -7.1256e+001  5.4598e-001 43059 91833,91885,91859
 1.6000e+000 92561 -2.4560e+001 -5.7034e+001 -5.0383e+000 42598 92584,92215,92189
 1.6000e+000 92538 -2.6685e+001 -6.3213e+001 -4.5789e+000 42598 92656,92584,92189
 1.6000e+000 92515 -2.2525e+001 -7.1021e+001 -5.9986e-001 42598 92656,92189,92397
 1.6000e+000 92492 -2.9223e+001 -4.8950e+001 -5.4992e+000 42598 92241,92319,92293
 1.6000e+000 92469 -2.8304e+001 -6.2606e+001  5.7143e+000 42598 92319,92397,92371
 1.6000e+000 92446 -1.1560e+001 -7.7525e+001  3.0948e+001 42598 92319,92371,92345
 1.6000e+000 92423 -3.0547e+001 -5.2890e+001 -1.1744e+001 42598 92241,92293,92267
 1.6000e+000 92610 -2.6240e+001 -5.8090e+001 -5.6754e+000 42598 92241,92215,92584
 1.6000e+000 92633 -2.3635e+001 -5.2072e+001 -6.1938e+000 42598 92241,92584,92319
 1.6000e+000 92682 -2.2502e+001 -5.2347e+001 -2.3304e+000 42598 92319,92584,92656
 1.6000e+000 92705 -1.7270e+001 -5.8100e+001  7.8966e-001 42598 92319,92656,92397
 1.6000e+000 92953 -2.5623e+001 -8.4269e+001  6.6511e+000 42094 92976,92806,92780
 1.6000e+000 92930 -2.9849e+001 -7.7365e+001  9.9032e-001 42094 92976,92780,92754
 1.6000e+000 92907  4.0209e+000 -8.1035e+001 -8.0732e-002 42094 93048,92832,92806
 1.6000e+000 92884 -4.1591e+001 -7.3987e+001 -6.7255e+000 42094 92728,92858,92754
 1.6000e+000 93002 -1.1880e+001 -7.6001e+001  3.1164e+000 42094 93048,92806,92976
 1.6000e+000 93025 -2.5848e+001 -7.4849e+001 -2.1341e+000 42094 92858,92976,92754
 1.6000e+000 93074 -1.7824e+001 -8.9556e+001 -1.0770e+000 42094 92858,92832,93048
 1.6000e+000 93097 -3.0996e+001 -8.3082e+001  8.5204e-001 42094 92858,93048,92976
 1.6000e+000 93605 -2.7723e+001 -9.1381e+001 -1.4298e+000 41846 93628,93412,93386
 1.6000e+000 93582 -2.3203e+001 -7.0523e+001  1.4206e-002 41846 93628,93386,93308
 1.6000e+000 93559 -3.2334e+001 -7.2481e+001 -1.0106e+001 41846 93700,93464,93438
 1.6000e+000 93536 -3.6375e+001 -8.9179e+001  6.7724e+000 41846 93308,93386,93334
 1.6000e+000 93513 -3.6736e+001 -8.7489e+001  5.9796e+000 41846 93334,93386,93360
 1.6000e+000 93490 -3.1702e+001 -5.7536e+001 -6.7927e+000 41846 93282,93464,93308
 1.6000e+000 93654 -2.0251e+001 -7.4343e+001 -5.6633e+000 41846 93438,93412,93628
 1.6000e+000 93677 -3.1889e+001 -7.3219e+001 -5.0287e+000 41846 93700,93438,93628
 1.6000e+000 93726 -3.0323e+001 -6.6054e+001 -8.5802e+000 41846 93308,93464,93700
 1.6000e+000 93749 -2.8992e+001 -6.4784e+001 -3.5383e+000 41846 93308,93700,93628
 1.6000e+000 94255 -2.3013e+001 -7.9311e+001  6.2366e+000 41385 93958,94114,94088
 1.6000e+000 94232 -1.8294e+001 -8.2888e+001  4.4063e+000 41385 93932,94114,93958
 1.6000e+000 94209 -4.4321e+001 -9.3901e+001  1.8152e+001 41385 93958,94088,94062
 1.6000e+000 94186 -4.7180e+001 -6.8689e+001  1.4553e+001 41385 93958,94062,93984
 1.6000e+000 94163 -3.6603e+001 -6.5228e+001  1.4292e+001 41385 93984,94062,94036
 1.6000e+000 94140 -2.3895e+001 -8.4459e+001  1.7614e+001 41385 93984,94036,94010
 1.6000e+000 94476 -1.1303e+001 -1.0723e+002 -7.9205e+000 40881 94326,94378,94352
 1.6000e+000 94453  1.5805e+001 -7.3088e+001  4.0758e+000 40881 94300,94378,94326
 1.6000e+000 94430 -8.8743e+000 -7.5168e+001  2.4768e-001 40881 94300,94404,94378
 1.6000e+000 94626 -2.2926e+001 -5.6545e+001  4.2142e+000 40591 94649,94551,94525
 1.6000e+000 94603 -2.8882e+000 -4.2763e+001  2.8116e+000 40591 94781,94577,94551
 1.6000e+000 94675  7.3015e-001 -4.4984e+001 -2.1336e+000 40591 94781,94551,94649
 1.6000e+000 94807  5.3997e+000 -3.9625e+001  3.3833e+000 40591 94499,94577,94781
 1.6000e+000 94830  8.8103e+000 -4.1658e+001 -2.3526e+000 40591 94499,94781,94649
 1.6000e+000 95336 -5.0254e+001 -7.0553e+001 -1.0495e+001 40187 95013,95169,95039
 1.6000e+000 95313 -2.9178e+001 -6.6033e+001 -5.2589e+000 40187 95013,95195,95169
 1.6000e+000 95290 -1.9583e+001 -7.1163e+001  3.7685e+000 40187 95039,95143,95065
 1.6000e+000 95267 -5.3928e+001 -8.2720e+001 -1.4075e+001 40187 95039,95169,95143
 1.6000e+000 95244 -3.7641e+001 -9.4280e+001 -5.5372e+000 40187 95091,95143,95117
 1.6000e+000 95221 -1.6706e+001 -6.5683e+001  5.2905e+000 40187 95065,95143,95091
 1.6000e+000 95665 -2.7424e+001 -6.3796e+001  1.2749e+001 39626 95466,95570,95544
 1.6000e+000 95642 -3.4262e+001 -5.3402e+001  9.1437e+000 39626 95440,95570,95466
 1.6000e+000 95619 -2.5225e+001 -6.4359e+001  6.7001e+000 39626 95466,95544,95492
 1.6000e+000 95596 -4.4566e+001 -6.1590e+001  6.5537e+000 39626 95492,95544,95518
 1.6000e+000 95913 -2.5601e+001 -6.5506e+001 -9.9207e+000 39136 96080,95936,95766
 1.6000e+000 95890 -1.8575e+001 -7.1795e+001 -4.6594e+000 39136 95936,95714,95688
 1.6000e+000 95867 -5.0397e+001 -7.1194e+001  3.9584e+000 39136 96008,95792,95766
 1.6000e+000 95844 -1.9276e+001 -6.3182e+001 -7.6044e+000 39136 96080,95766,95740
 1.6000e+000 95962 -3.8628e+001 -7.4181e+001 -5.9251e+000 39136 96008,95766,95936
 1.6000e+000 95985 -2.2581e+001 -8.7114e+001 -7.0104e-001 39136 95818,95936,95688
 1.6000e+000 96034 -2.1866e+001 -5.8751e+001  6.0484e+000 39136 95818,95792,96008
 1.6000e+000 96057 -1.8778e+001 -6.5060e+001 -3.7365e+000 39136 95818,96008,95936
 1.6000e+000 96106 -2.2683e+001 -6.5617e+001 -1.1116e+000 39136 95714,95936,96080
 1.6000e+000 96129 -1.2470e+001 -6.2500e+001  5.4345e-001 39136 95714,96080,95740
 1.6000e+000 96350 -1.8055e+001 -6.2268e+001  2.9903e-001 38824 96200,96278,96252
 1.6000e+000 96327 -1.6655e+001 -6.2300e+001 -2.2020e-001 38824 96174,96278,96200
 1.6000e+000 96304 -1.4597e+001 -5.8281e+001 -1.1719e+000 38824 96200,96252,96226
 1.6000e+000 96830 -3.5735e+001 -6.8138e+001 -3.3505e+000 38320 97069,96536,96484
 1.6000e+000 96807 -3.4339e+001 -7.0336e+001 -3.2018e+000 38320 97069,96484,96853
 1.6000e+000 96784 -3.8815e+001 -7.6151e+001  4.0679e+000 38320 96853,96484,96458
 1.6000e+000 96761 -1.9581e+001 -5.7510e+001 -5.1802e+000 38320 96925,96640,96614
 1.6000e+000 96738 -3.2419e+001 -5.8842e+001 -5.4780e-001 38320 96997,96666,96640
 1.6000e+000 96715 -2.4975e+001 -8.6319e+001 -1.8084e-001 38320 97141,96588,96562
 1.6000e+000 96692 -4.8117e+001 -8.0727e+001  2.1583e+000 38320 96484,96536,96510
 1.6000e+000 96879 -3.2655e+001 -7.6290e+001 -1.0813e+000 38320 97141,96562,96853
 1.6000e+000 96902 -3.0656e+001 -7.2000e+001 -4.3336e-002 38320 96925,96614,96853
 1.6000e+000 96951 -3.2031e+001 -5.8700e+001 -5.4730e-001 38320 96997,96640,96925
 1.6000e+000 96974 -2.9326e+001 -5.8372e+001  5.2310e-001 38320 96458,96925,96853
 1.6000e+000 97023 -3.4463e+001 -5.8801e+001  5.7165e-001 38320 96458,96666,96997
 1.6000e+000 97046 -3.2773e+001 -5.8160e+001  5.7956e-001 38320 96458,96997,96925
 1.6000e+000 97095 -4.2348e+001 -6.8638e+001  8.8335e+000 38320 96562,96536,97069
 1.6000e+000 97118 -2.9774e+001 -6.9373e+001 -1.3031e+000 38320 96562,97069,96853
 1.6000e+000 97167 -1.2552e+001 -7.6425e+001 -4.4604e+000 38320 96614,96588,97141
 1.6000e+000 97190 -2.4926e+001 -6.9679e+001 -3.9684e+000 38320 96614,97141,96853
 1.6000e+000 97519 -2.5948e+001 -6.9771e+001  1.8739e+001 37766 97542,97398,97372
 1.6000e+000 97496 -3.4979e+001 -6.1737e+001  1.1187e+001 37766 97542,97372,97346
 1.6000e+000 97473 -3.0980e+001 -6.8494e+001  2.9474e+000 37766 97294,97424,97346
 1.6000e+000 97450 -3.5083e+001 -8.0062e+001  1.9964e+000 37766 97294,97346,97320
 1.6000e+000 97568 -1.1059e+001 -6.6665e+001  1.4420e+001 37766 97424,97398,97542
 1.6000e+000 97591 -2.4268e+001 -5.8950e+001  7.0986e+000 37766 97424,97542,97346
 1.6000e+000 98048 -3.1369e+001 -5.3500e+001 -1.8176e+001 37262 98071,97878,97852
 1.6000e+000 98025 -2.5141e+001 -6.3648e+001 -7.2597e+000 37262 98071,97852,97800
 1.6000e+000 98002 -3.0947e+001 -7.8066e+001 -6.0994e+000 37262 97800,97852,97826
 1.6000e+000 97979 -3.2332e+001 -6.7400e+001  1.7771e+000 37262 97800,97930,97904
 1.6000e+000 97956 -2.2495e+001 -7.5643e+001  4.9523e+000 37262 97774,97930,97800
 1.6000e+000 98097 -4.9008e+001 -6.1704e+001 -1.4545e+001 37262 97904,97878,98071
 1.6000e+000 98120 -3.4265e+001 -7.0656e+001 -4.0990e+000 37262 97904,98071,97800
 1.6000e+000 98449 -4.8795e+000 -4.3720e+001 -4.5517e+000 36950 98472,98302,98250
 1.6000e+000 98426  2.0173e-001 -4.4653e+001 -4.6727e+000 36950 98472,98250,98354
 1.6000e+000 98403 -1.0873e+001 -4.3903e+001  4.7624e+000 36950 98250,98302,98276
 1.6000e+000 98380  3.2926e+001 -3.2050e+001 -4.2426e+000 36950 98224,98354,98250
 1.6000e+000 98498 -1.1782e+000 -4.4072e+001 -2.1203e+000 36950 98328,98302,98472
 1.6000e+000 98521  3.7733e+000 -4.5551e+001 -3.0450e+000 36950 98328,98472,98354
 1.6000e+000 99125 -4.4982e+001 -4.5542e+001  7.5714e+000 36296 98704,98756,98730
 1.6000e+000 99102 -3.0305e+001 -5.0577e+001  2.2520e+000 36296 98704,98938,98756
 1.6000e+000 99079 -1.8888e+001 -5.7713e+001  4.7407e-001 36296 99148,98938,98912
 1.6000e+000 99056 -2.2557e+001 -5.3625e+001  1.3774e+001 36296 99292,99220,98782
 1.6000e+000 99033 -1.6032e+001 -5.8250e+001  2.1321e+000 36296 99148,98912,98834
 1.6000e+000 99010 -1.9195e+001 -4.4323e+001  1.3572e+001 36296 99292,98782,98756
 1.6000e+000 98987 -1.4155e+001 -1.0696e+002 -2.1613e+001 36296 98834,98912,98886
 1.6000e+000 98964 -3.6804e+001 -1.6387e+002 -3.0197e+001 36296 98834,98886,98860
 1.6000e+000 99174 -2.3869e+001 -6.3785e+001  2.6190e+000 36296 99220,98938,99148
 1.6000e+000 99197 -1.4354e+001 -6.8026e+001  6.9230e+000 36296 98808,99148,98834
 1.6000e+000 99246 -1.7551e+001 -4.1831e+001  3.3414e+001 36296 98808,98782,99220
 1.6000e+000 99269 -2.5007e+000 -4.4592e+001  1.1276e+001 36296 98808,99220,99148
 1.6000e+000 99318 -2.0133e+001 -4.2939e+001  7.0906e+000 36296 98938,99220,99292
 1.6000e+000 99341 -2.0916e+001 -4.4675e+001  7.4428e+000 36296 98938,99292,98756
 1.6000e+000 99719 -2.7268e+001 -7.4023e+001  1.0670e-001 35742 99742,99471,99601
 1.6000e+000 99696 -3.0931e+001 -5.3045e+001  9.5625e+000 35742 99445,99601,99471
 1.6000e+000 99673 -2.6218e+001 -7.1650e+001 -3.3120e+000 35742 99742,99601,99575
 1.6000e+000 99650 -2.0827e+001 -9.3071e+001 -1.5335e+000 35742 99814,99549,99523
 1.6000e+000 99627 -1.9295e+001 -7.0047e+001  3.7453e+000 35742 99471,99523,99497
 1.6000e+000 99768 -1.8446e+001 -7.3191e+001  3.5685e+000 35742 99523,99471,99742
 1.6000e+000 99791 -2.5369e+001 -8.4528e+001 -9.7030e-001 35742 99814,99523,99742
 1.6000e+000 99840 -2.1061e+001 -8.2191e+001 -4.7744e+000 35742 99575,99549,99814
 1.6000e+000 99863 -2.3589e+001 -7.0881e+001 -3.8454e+000 35742 99575,99814,99742
 1.6000e+000 100111 -2.3353e+001 -6.1581e+001  8.4819e+000 35302 100134,99990,99938
 1.6000e+000 100088 -1.6631e+001 -5.3242e+001  4.3429e+000 35302 100134,99938,99912
 1.6000e+000 100065 -1.7219e+001 -5.3305e+001 -1.7593e-001 35302 100206,99886,100016
 1.6000e+000 100042 -2.9342e+001 -5.8397e+001  7.3174e+000 35302 99938,99990,99964
 1.6000e+000 100160 -1.4308e+001 -5.8127e+001  3.5996e+000 35302 100016,99990,100134
 1.6000e+000 100183 -1.4979e+001 -5.4816e+001 -4.4766e-002 35302 100206,100016,100134
 1.6000e+000 100232 -1.9807e+001 -5.5078e+001  6.6628e-001 35302 99912,99886,100206
 1.6000e+000 100255 -1.7488e+001 -5.6758e+001  8.2523e-001 35302 99912,100206,100134
 1.6000e+000 100586 -1.9726e+001 -4.1552e+001  2.0800e+000 35012 100609,100387,100361
 1.6000e+000 100563 -1.9905e+001 -4.5670e+001  4.2277e+000 35012 100609,100361,100465
 1.6000e+000 100540 -2.9247e+001 -5.5449e+001  8.3847e+000 35012 100361,100491,100465
 1.6000e+000 100517 -1.6124e+001 -4.6665e+001  9.1951e+000 35012 100413,100465,100439
 1.6000e+000 100635 -2.0806e+001 -4.2224e+001  6.4109e+000 35012 100413,100387,100609
 1.6000e+000 100658 -2.1900e+001 -4.8535e+001  8.4588e+000 35012 100413,100609,100465
 1.6000e+000 100987 -2.5778e+001 -5.4861e+001  6.2031e+000 34700 100788,100866,100814
 1.6000e+000 100964 -2.3023e+001 -5.2243e+001  7.2760e+000 34700 101010,100866,100788
 1.6000e+000 100941 -2.2984e+001 -5.4442e+001  1.1846e+001 34700 100762,100892,100866
 1.6000e+000 100918 -3.0237e+001 -6.3114e+001 -3.1683e-001 34700 100814,100866,100840
 1.6000e+000 101036 -1.8319e+001 -4.9424e+001  9.0955e+000 34700 100762,100866,101010
 1.6000e+000 101493 -3.5053e+001 -6.9589e+001 -4.9270e+000 34132 101516,101349,101297
 1.6000e+000 101470 -4.5484e+001 -8.7559e+001 -1.0054e+001 34132 101588,101516,101297
 1.6000e+000 101447 -4.5830e+001 -9.3763e+001 -1.6343e+001 34132 101588,101297,101245
 1.6000e+000 101424 -2.4238e+001 -1.1277e+002 -1.5204e+001 34132 101245,101297,101271
 1.6000e+000 101401 -4.0855e+001 -6.9801e+001 -7.3498e+000 34132 101297,101349,101323
 1.6000e+000 101542 -3.5734e+001 -8.3745e+001 -3.6668e+000 34132 101375,101349,101516
 1.6000e+000 101565 -3.1970e+001 -8.3292e+001 -3.8071e+000 34132 101375,101516,101219
 1.6000e+000 101614 -3.3486e+001 -8.8199e+001 -3.5874e+000 34132 101219,101516,101588
 1.6000e+000 101637 -3.9702e+001 -9.4258e+001 -9.5962e+000 34132 101219,101588,101245
 1.6000e+000 101858 -7.4087e+000 -7.1654e+001  4.7496e+000 33720 101708,101786,101760
 1.6000e+000 101835 -1.5570e+001 -8.4982e+001  1.3053e+000 33720 101682,101786,101708
 1.6000e+000 101812 -2.0450e+001 -7.8059e+001  2.3371e+000 33720 101708,101760,101734
 1.6000e+000 102128  4.6978e+000 -7.2336e+001 -2.2087e+000 33130 101903,102007,101929
 1.6000e+000 102105  8.9491e-002 -8.8519e+001  4.5415e+000 33130 101903,102033,102007
 1.6000e+000 102082  1.0118e+001 -9.0832e+001 -2.1531e+001 33130 101929,102007,101955
 1.6000e+000 102059 -2.7596e+000 -5.8055e+001  2.2412e+000 33130 101955,102007,101981
 1.6000e+000 102461 -3.4593e+001 -8.5886e+001 -7.0438e+000 32840 102236,102340,102262
 1.6000e+000 102438 -2.8645e+001 -5.8855e+001  2.6351e+000 32840 102236,102366,102340
 1.6000e+000 102415 -1.6374e+001 -8.0148e+001 -6.5728e+000 32840 102262,102340,102288
 1.6000e+000 102392 -4.2447e+001 -8.7153e+001 -1.7307e+001 32840 102288,102340,102314
 1.6000e+000 102997 -2.1179e+001 -3.9336e+001  1.2270e+001 32493 102749,102879,102853
 1.6000e+000 102974 -1.5641e+001 -2.7037e+001  1.0857e+001 32493 102723,102879,102749
 1.6000e+000 102951 -3.0954e+001 -5.3674e+001  8.9030e+000 32493 102749,102801,102775
 1.6000e+000 102928 -3.0776e+001 -5.0301e+001  7.1211e+000 32493 102749,102853,102801
 1.6000e+000 102905 -3.0633e+001 -4.9037e+001  7.9497e+000 32493 102801,102853,102827
 1.6000e+000 103454 -3.6744e+001 -7.0016e+001 -5.4583e+000 32089 103206,103336,103310
 1.6000e+000 103431 -2.9198e+001 -6.5425e+001 -9.3733e-001 32089 103180,103336,103206
 1.6000e+000 103408 -4.0727e+001 -8.8548e+001 -1.1867e+001 32089 103206,103284,103258
 1.6000e+000 103385 -5.8046e+001 -8.6724e+001 -1.8279e+001 32089 103206,103310,103284
 1.6000e+000 103362 -3.1507e+001 -6.1614e+001  1.8233e+000 32089 103206,103258,103232
 1.6000e+000 103783 -5.2153e+001 -7.5153e+001 -6.5005e+000 31742 103558,103662,103584
 1.6000e+000 103760 -4.9522e+001 -7.2949e+001 -1.1720e+001 31742 103558,103688,103662
 1.6000e+000 103737 -4.1159e+001 -6.7274e+001 -1.0185e+001 31742 103584,103662,103636
 1.6000e+000 103714 -2.6408e+001 -7.9714e+001 -1.8744e+001 31742 103584,103636,103610
 1.6000e+000 104112 -5.8841e+000 -6.7731e+001  3.2074e+000 31402 103939,103991,103965
 1.6000e+000 104089  1.1268e+001 -5.2225e+001  1.1340e+001 31402 103913,103991,103939
 1.6000e+000 104066 -1.9155e+001 -6.8354e+001  5.2607e+000 31402 103913,104017,103991
 1.6000e+000 104043 -1.5841e+001 -5.5821e+001  5.8491e+000 31402 103887,104017,103913
 1.6000e+000 104569 -4.7346e+001 -9.1452e+001 -1.7784e-001 30998 104321,104425,104373
 1.6000e+000 104546 -5.2575e+001 -9.2865e+001 -1.2181e+000 30998 104321,104451,104425
 1.6000e+000 104523 -4.3441e+001 -8.2586e+001  5.0188e+000 30998 104373,104425,104399
 1.6000e+000 104500 -4.7629e+001 -9.5890e+001 -2.7522e+000 30998 104295,104451,104321
 1.6000e+000 104477 -6.8167e+001 -1.1819e+002  1.5964e+001 30998 104321,104373,104347
 1.6000e+000 104947 -4.3011e+001 -7.0234e+001 -7.8444e+000 30608 104751,104803,104777
 1.6000e+000 104924 -2.3294e+001 -6.9580e+001 -3.9261e-001 30608 104725,104803,104751
 1.6000e+000 104901 -3.7817e+001 -6.9187e+001  5.0486e+000 30608 104699,104803,104725
 1.6000e+000 104878 -4.1967e+001 -7.1603e+001  6.2383e+000 30608 104673,104803,104699
 1.6000e+000 104855 -3.2976e+001 -7.2979e+001 -2.4335e+000 30608 104673,104829,104803
 1.6000e+000 105276 -2.2925e+001 -6.0801e+001  6.6585e+000 30204 105427,105129,105077
 1.6000e+000 105253 -1.0866e+001 -6.3379e+001  1.9939e+001 30204 105427,105077,105051
 1.6000e+000 105230 -1.8499e+001 -6.4600e+001  4.0848e+000 30204 105077,105129,105103
 1.6000e+000 105207 -4.5048e+001 -5.7322e+001  7.9605e+000 30204 105299,105181,105155
 1.6000e+000 105325 -3.4372e+001 -5.2463e+001  6.6934e+000 30204 105129,105181,105299
 1.6000e+000 105453 -3.0039e+001 -6.4506e+001  9.1074e+000 30204 105181,105129,105427
 1.6000e+000 105476 -3.4276e+001 -7.4360e+001  2.3772e+001 30204 105181,105427,105051
 1.6000e+000 105903 -6.6848e+000 -5.0236e+001 -4.9995e+000 29700 105606,105762,105736
 1.6000e+000 105880 -1.9308e+001 -5.3465e+001  1.7587e+000 29700 105580,105762,105606
 1.6000e+000 105857 -2.2235e+001 -6.7054e+001 -2.8157e+000 29700 105606,105710,105632
 1.6000e+000 105834 -1.6582e+001 -5.2583e+001 -1.5596e+000 29700 105606,105736,105710
 1.6000e+000 105811 -3.4670e+001 -7.2880e+001  3.6754e+000 29700 105632,105710,105684
 1.6000e+000 105788 -2.9735e+001 -6.1563e+001 -9.4319e-002 29700 105632,105684,105658
 1.6000e+000 106102 -1.8101e+001 -6.9167e+001  4.8603e+000 29124 105978,106030,106004
 1.6000e+000 106079 -2.6306e+001 -7.6987e+001  1.5213e+000 29124 105926,106030,105978
 1.6000e+000 106056 -2.3682e+001 -7.7797e+001  1.1187e+001 29124 105926,105978,105952
 1.6000e+000 106301 -9.2070e+000 -6.4111e+001  6.6125e-002 28712 106151,106229,106203
 1.6000e+000 106278 -1.3359e+001 -7.3723e+001 -4.8766e+000 28712 106125,106229,106151
 1.6000e+000 106255 -8.8966e+000 -6.3422e+001 -5.4766e-001 28712 106151,106203,106177
 1.6000e+000 106551 -2.2879e+001 -8.5384e+001 -1.6938e+000 28258 106352,106404,106378
 1.6000e+000 106528 -3.0175e+001 -8.8711e+001 -8.9232e-001 28258 106352,106456,106404
 1.6000e+000 106505 -2.3393e+001 -9.4799e+001 -3.1210e+000 28258 106326,106456,106352
 1.6000e+000 106482 -3.0822e+001 -8.4961e+001  2.4619e+000 28258 106404,106456,106430
 1.6000e+000 107012 -3.1720e+001 -7.8321e+001  1.5488e+001 27818 107035,106790,106764
 1.6000e+000 106989 -2.6375e+001 -6.9859e+001  7.9506e+000 27818 107035,106764,106868
 1.6000e+000 106966 -2.2672e+001 -8.0878e+001  7.4614e+000 27818 107107,106842,106816
 1.6000e+000 106943 -4.1111e+001 -6.7469e+001  6.5919e+000 27818 106738,106868,106764
 1.6000e+000 106920 -4.3435e+001 -6.5536e+001  1.9147e+001 27818 106738,106894,106868
 1.6000e+000 107061 -1.6806e+001 -7.2884e+001  1.4977e+001 27818 106816,106790,107035
 1.6000e+000 107084 -2.4401e+001 -7.7807e+001  7.8433e+000 27818 107107,106816,107035
 1.6000e+000 107133 -2.4954e+001 -7.5751e+001  4.8695e+000 27818 106868,106842,107107
 1.6000e+000 107156 -2.4839e+001 -7.0209e+001  6.1877e+000 27818 106868,107107,107035
 1.6000e+000 107613  3.3355e+000 -5.3585e+001  1.2309e+001 27312 107339,107469,107365
 1.6000e+000 107590  7.2711e+000 -5.2256e+001  1.1875e+001 27312 107339,107495,107469
 1.6000e+000 107567  3.1650e+000 -5.0250e+001  7.7426e+000 27312 107391,107469,107443
 1.6000e+000 107544  3.5900e+000 -5.5280e+001  6.7165e+000 27312 107365,107469,107391
 1.6000e+000 107521 -5.0341e+000 -5.5805e+001  1.2892e+001 27312 107391,107443,107417
 1.6000e+000 107991 -2.6566e+001 -9.4110e+001  2.7973e+000 26858 108086,108014,107795
 1.6000e+000 107968 -2.6477e+001 -9.5529e+001  1.3158e+000 26858 108014,107717,107873
 1.6000e+000 107945 -2.5769e+001 -9.5466e+001  1.6021e+000 26858 108158,108086,107795
 1.6000e+000 107922 -2.4066e+001 -9.8420e+001  2.6333e+000 26858 108158,107795,107769
 1.6000e+000 107899 -2.9776e+001 -1.1158e+002  1.5253e+001 26858 107821,107873,107847
 1.6000e+000 108040 -2.7847e+001 -1.0351e+002  4.1726e+000 26858 107821,107795,108014
 1.6000e+000 108063 -2.3900e+001 -9.5478e+001  2.2619e+000 26858 107821,108014,107873
 1.6000e+000 108112 -2.5095e+001 -9.4150e+001  1.9272e-001 26858 107717,108014,108086
 1.6000e+000 108135 -2.4863e+001 -8.9419e+001 -5.6213e-001 26858 107717,108086,107743
 1.6000e+000 108184 -2.4366e+001 -9.1463e+001  2.4758e+000 26858 107743,108086,108158
 1.6000e+000 108207 -2.2877e+001 -9.4567e+001  2.8855e+000 26858 107743,108158,107769
 1.6000e+000 108634 -3.8952e+001 -8.3358e+001 -1.6890e+000 26404 108657,108415,108363
 1.6000e+000 108611 -4.3498e+001 -8.8069e+001  7.3436e+000 26404 108657,108363,108337
 1.6000e+000 108588 -3.7681e+001 -8.2851e+001  9.0204e+000 26404 108729,108311,108467
 1.6000e+000 108565 -4.8808e+001 -9.3872e+001 -3.2659e+000 26404 108801,108441,108415
 1.6000e+000 108542 -6.8607e+001 -9.7631e+001  1.4795e+001 26404 108311,108493,108467
 1.6000e+000 108519 -3.2387e+001 -8.4751e+001 -2.2325e+000 26404 108363,108415,108389
 1.6000e+000 108683 -5.4806e+001 -8.7996e+001 -2.4256e+000 26404 108801,108415,108657
 1.6000e+000 108706 -5.2448e+001 -8.6188e+001  6.7163e+000 26404 108729,108467,108657
 1.6000e+000 108755 -2.8405e+001 -8.8278e+001  8.8819e+000 26404 108337,108311,108729
 1.6000e+000 108778 -3.5901e+001 -8.6314e+001  6.1454e+000 26404 108337,108729,108657
 1.6000e+000 108827 -5.4933e+001 -1.0503e+002 -6.6790e+000 26404 108467,108441,108801
 1.6000e+000 108850 -5.8402e+001 -9.5236e+001 -5.6873e+000 26404 108467,108801,108657
 1.6000e+000 109228 -2.1732e+001 -8.0180e+001 -5.3577e-001 26064 109006,109084,109058
 1.6000e+000 109205 -2.2599e+001 -7.8076e+001  2.9209e+000 26064 108980,109084,109006
 1.6000e+000 109182 -2.1332e+001 -7.0907e+001 -3.6242e+000 26064 108980,109110,109084
 1.6000e+000 109159 -2.0293e+001 -9.0732e+001  7.3076e+000 26064 109006,109058,109032
 1.6000e+000 109136 -4.7175e+000 -5.4640e+001  3.0174e+000 26064 108954,109110,108980
 1.6000e+000 109427 -1.8099e+001 -7.6567e+001 -1.3210e+001 25660 109303,109355,109329
 1.6000e+000 109404 -2.3826e+001 -8.6638e+001 -1.3719e+000 25660 109277,109355,109303
 1.6000e+000 109381 -1.8684e+001 -8.6544e+001 -1.2257e+000 25660 109251,109355,109277
 1.6000e+000 109577  1.8412e+000 -3.4816e+001  2.6080e+001 25306 109476,109528,109502
 1.6000e+000 109554  1.3146e+001 -4.4265e+001  5.8908e+000 25306 109450,109528,109476
 1.6000e+000 109778 -8.3693e+000 -6.7911e+001  3.1541e+000 24944 109628,109706,109654
 1.6000e+000 109755 -1.1677e+001 -7.3629e+001  1.8099e+000 24944 109602,109706,109628
 1.6000e+000 109732 -2.5751e+000 -6.6318e+001 -7.1698e+000 24944 109654,109706,109680
 1.6000e+000 110126 -2.7654e+001 -1.0597e+002  6.2780e+000 24440 110149,109907,109855
 1.6000e+000 110103 -3.1978e+001 -1.0847e+002  7.3154e+000 24440 110149,109855,109985
 1.6000e+000 110080 -1.9077e+001 -9.4763e+001  1.8472e+000 24440 109855,109907,109881
 1.6000e+000 110057 -2.0381e+001 -8.6518e+001  2.4995e+001 24440 109829,109985,109855
 1.6000e+000 110034 -2.7502e+001 -1.0960e+002 -9.8540e-001 24440 109907,109959,109933
 1.6000e+000 110011 -4.0483e+001 -9.9042e+001  7.7692e+000 24440 109803,109985,109829
 1.6000e+000 110175 -2.9302e+001 -1.0175e+002  2.0739e+000 24440 109959,109907,110149
 1.6000e+000 110198 -3.6161e+001 -1.0552e+002  3.5408e+000 24440 109959,110149,109985
 1.6000e+000 110301  8.0602e-001 -1.0580e+002 -1.2775e+001 24028 110223,110275,110249
 1.6000e+000 110573 -1.0239e+001 -8.5370e+001 -3.7948e-001 23467 110400,110452,110426
 1.6000e+000 110550 -1.3229e-001 -7.2269e+001  4.8761e+000 23467 110374,110452,110400
 1.6000e+000 110527 -1.9966e+001 -8.0765e+001  5.0205e+000 23467 110348,110452,110374
 1.6000e+000 110504 -9.1049e+000 -7.2280e+001  1.1780e+000 23467 110348,110478,110452
 1.6000e+000 111004 -4.4436e+001 -1.0022e+002 -5.1269e+000 22963 111027,110733,110707
 1.6000e+000 110981 -4.0646e+001 -9.4029e+001  9.2728e+000 22963 111027,110707,110681
 1.6000e+000 110958 -9.9322e+000 -7.9683e+001  2.1761e+000 22963 111099,110759,110733
 1.6000e+000 110935 -2.6905e+001 -8.6336e+001 -5.1162e+000 22963 111171,110863,110811
 1.6000e+000 110912  3.9580e+000 -6.9174e+001 -2.7065e+000 22963 110759,110811,110785
 1.6000e+000 110889 -3.2868e+001 -1.0083e+002 -4.2927e+000 22963 110811,110863,110837
 1.6000e+000 111053 -2.6363e+001 -8.5792e+001  2.6197e+000 22963 111099,110733,111027
 1.6000e+000 111076 -2.4919e+001 -9.1890e+001 -4.2184e+000 22963 111171,110811,111027
 1.6000e+000 111125 -1.1166e+001 -8.1725e+001 -8.6314e+000 22963 110811,110759,111099
 1.6000e+000 111148 -1.5996e+001 -8.4296e+001 -9.7001e+000 22963 110811,111099,111027
 1.6000e+000 111197 -2.6107e+001 -7.8965e+001 -5.6090e+000 22963 110681,110863,111171
 1.6000e+000 111220 -2.4599e+001 -8.4400e+001 -2.6142e+000 22963 110681,111171,111027
 1.6000e+000 111726 -3.7495e+001 -8.9520e+001  1.6534e+000 22459 111749,111507,111429
 1.6000e+000 111703 -2.9504e+001 -8.6532e+001 -2.2771e+000 22459 111749,111429,111585
 1.6000e+000 111680 -8.2416e+000 -9.5276e+001  3.0757e+000 22459 111403,111585,111429
 1.6000e+000 111657 -3.4646e+001 -1.0861e+002  2.1731e+000 22459 111507,111559,111533
 1.6000e+000 111634 -6.7892e+001 -1.0038e+002  2.3198e+000 22459 111455,111507,111481
 1.6000e+000 111611 -5.2327e+001 -9.1765e+001  7.0028e+000 22459 111429,111507,111455
 1.6000e+000 111775 -3.5852e+001 -9.5940e+001  8.2177e+000 22459 111559,111507,111749
 1.6000e+000 111798 -2.8864e+001 -9.0374e+001  4.1646e+000 22459 111559,111749,111585
 1.6000e+000 112046 -1.0222e+001 -7.9191e+001 -3.8624e-001 21898 112069,111925,111873
 1.6000e+000 112023 -8.1341e+000 -7.5886e+001  4.3869e+000 21898 112069,111873,111847
 1.6000e+000 112000 -9.2926e+000 -8.3175e+001 -2.4662e+000 21898 111821,111951,111847
 1.6000e+000 111977 -2.2207e+001 -6.9789e+001  1.1492e-001 21898 111873,111925,111899
 1.6000e+000 112095 -1.7356e+001 -8.0640e+001 -4.6972e+000 21898 111951,111925,112069
 1.6000e+000 112118 -1.2734e+001 -7.6811e+001  2.3537e-002 21898 111951,112069,111847
 1.6000e+000 112498 -3.6757e+001 -8.3710e+001 -8.2864e+000 21608 112521,112276,112224
 1.6000e+000 112475 -2.7279e+001 -8.6640e+001 -3.1374e-001 21608 112521,112224,112380
 1.6000e+000 112452 -3.0621e+001 -9.2961e+001  4.0074e+000 21608 112302,112380,112354
 1.6000e+000 112429 -3.8785e+001 -9.3911e+001 -7.5698e+000 21608 112224,112276,112250
 1.6000e+000 112406  5.4303e-001 -9.7850e+001 -3.6240e+000 21608 112302,112354,112328
 1.6000e+000 112547 -2.8712e+001 -6.9064e+001 -5.1719e+000 21608 112302,112276,112521
 1.6000e+000 112570 -2.4045e+001 -8.0938e+001  9.8650e-001 21608 112302,112521,112380
 1.6000e+000 112948 -3.8827e+001 -9.0178e+001 -3.1700e+000 20882 112971,112752,112700
 1.6000e+000 112925 -2.7618e+001 -8.6625e+001 -6.0526e+000 20882 112971,112700,112830
 1.6000e+000 112902 -5.1725e+001 -9.6127e+001  3.5481e+000 20882 112778,112830,112804
 1.6000e+000 112879 -2.5411e+001 -6.7292e+001 -8.1550e+000 20882 112674,112830,112700
 1.6000e+000 112856 -4.6600e+001 -9.4755e+001 -3.1521e-001 20882 112700,112752,112726
 1.6000e+000 112997 -3.9349e+001 -9.0613e+001  3.0149e+000 20882 112778,112752,112971
 1.6000e+000 113020 -3.2925e+001 -8.8965e+001 -7.8342e-002 20882 112778,112971,112830
 1.6000e+000 113526 -2.6034e+001 -9.1973e+001 -3.8650e-001 20428 113255,113385,113333
 1.6000e+000 113503 -2.9075e+001 -9.8592e+001 -1.2406e+000 20428 113229,113385,113255
 1.6000e+000 113480  2.1936e+000 -8.9184e+001  3.3476e-001 20428 113255,113333,113281
 1.6000e+000 113457 -2.3076e+001 -9.7598e+001 -1.0715e+000 20428 113203,113385,113229
 1.6000e+000 113434 -1.3107e+001 -9.3357e+001 -4.5481e+000 20428 113281,113333,113307
 1.6000e+000 113411 -3.5142e+001 -8.9257e+001  1.7386e+000 20428 113333,113385,113359
 1.6000e+000 113774 -1.5538e+001 -8.3442e+001  3.6169e+000 19917 113797,113601,113549
 1.6000e+000 113751 -2.0625e+001 -8.4078e+001  4.1245e+000 19917 113869,113797,113549
 1.6000e+000 113728 -2.0327e+001 -8.4384e+001  5.4448e+000 19917 113869,113549,113679
 1.6000e+000 113705 -1.3366e+001 -8.3155e+001  1.0818e+000 19917 113549,113601,113575
 1.6000e+000 113823 -2.0567e+001 -8.3762e+001  1.0028e+000 19917 113627,113601,113797
 1.6000e+000 113846 -2.2732e+001 -8.1603e+001  3.5020e+000 19917 113627,113797,113653
 1.6000e+000 113895 -1.9831e+001 -8.1084e+001  3.4475e+000 19917 113653,113797,113869
 1.6000e+000 113918 -2.0437e+001 -8.1737e+001  5.1014e+000 19917 113653,113869,113679
 1.6000e+000 114166 -4.1408e+001 -9.1105e+001 -3.3331e+000 19413 113993,114045,114019
 1.6000e+000 114143 -3.3546e+001 -8.3725e+001 -2.7288e-001 19413 113967,114045,113993
 1.6000e+000 114120 -3.1428e+001 -8.2884e+001  2.3925e-001 19413 113967,114071,114045
 1.6000e+000 114097 -1.9332e+001 -8.9585e+001 -4.1919e+000 19413 113941,114071,113967
 1.6000e+000 114438 -1.5645e+001 -8.0496e+001 -1.6043e+000 19001 114213,114265,114239
 1.6000e+000 114415 -1.2438e+001 -6.9042e+001 -1.1344e+000 19001 114213,114343,114265
 1.6000e+000 114392 -2.0321e+001 -8.5826e+001 -3.8438e+000 19001 114265,114343,114317
 1.6000e+000 114369 -1.0282e+001 -7.8884e+001  1.3166e+000 19001 114265,114317,114291
 1.6000e+000 114639 -1.7432e+001 -7.9641e+001 -1.9015e+000 18554 114489,114541,114515
 1.6000e+000 114616 -6.4306e+000 -7.9667e+001 -3.3596e+000 18554 114489,114567,114541
 1.6000e+000 114593  7.9831e+000 -7.2775e+001  9.2397e-001 18554 114463,114567,114489
 1.6000e+000 115043 -2.6735e+001 -8.9499e+001  2.1394e+000 18164 114795,114925,114821
 1.6000e+000 115020 -2.2062e+001 -9.6791e+001  5.8322e+000 18164 114769,114925,114795
 1.6000e+000 114997 -2.3427e+001 -9.3919e+001 -5.3106e-001 18164 115066,114873,114821
 1.6000e+000 114974 -2.1254e+001 -8.3290e+001 -1.1554e+000 18164 115066,114821,114925
 1.6000e+000 114951 -1.2901e+001 -8.9619e+001 -7.9839e-003 18164 114821,114873,114847
 1.6000e+000 115092 -2.8643e+001 -8.6128e+001 -6.4058e+000 18164 114899,114873,115066
 1.6000e+000 115115 -2.2810e+001 -6.9982e+001 -7.2726e+000 18164 114899,115066,114925
 1.6000e+000 115265 -2.6150e+001 -9.9825e+001  9.7285e-001 17852 115164,115216,115190
 1.6000e+000 115242 -2.5612e+001 -1.0341e+002  1.0224e+000 17852 115138,115216,115164
 1.6000e+000 115464 -2.1096e+001 -1.0100e+002  9.7042e+000 17346 115288,115366,115340
 1.6000e+000 115441 -7.9454e+001 -8.4288e+001  1.0360e+001 17346 115288,115392,115366
 1.6000e+000 115418 -2.7656e+001 -1.3874e+002 -5.6505e+000 17346 115288,115340,115314
 1.6000e+000 115736 -2.3602e+001 -9.1442e+001  1.7673e+000 16942 115563,115641,115615
 1.6000e+000 115713 -2.3767e+001 -8.4805e+001 -1.9639e-002 16942 115511,115641,115563
 1.6000e+000 115690 -6.5392e+001 -1.0647e+002  6.3457e+000 16942 115563,115615,115589
 1.6000e+000 115667 -3.0499e+001 -9.7963e+001  2.5833e+000 16942 115511,115563,115537
 1.6000e+000 116091 -3.2497e+001 -8.6277e+001 -3.8852e+000 16388 115918,115970,115944
 1.6000e+000 116068 -2.7699e+001 -7.0767e+001 -2.8653e+000 16388 115918,115996,115970
 1.6000e+000 116045 -3.6615e+001 -8.5002e+001  1.1851e+000 16388 115892,115996,115918
 1.6000e+000 116022 -3.8086e+001 -9.4321e+001  7.9811e-001 16388 115866,115996,115892
 1.6000e+000 116192 -6.1030e+000 -1.1662e+002 -2.0212e+001 15810 116114,116166,116140
 1.6000e+000 116342 -9.4120e+000 -8.3483e+001  4.4713e+000 15419 116241,116293,116267
 1.6000e+000 116319 -1.1442e+001 -9.7076e+001 -6.0526e-001 15419 116215,116293,116241
 1.6000e+000 116445 -4.1944e+001 -9.0183e+001 -1.9936e+000 421 116367,116419,116393
 1.7000e+000 68477 -6.5196e+001 -9.5087e+001  2.7162e+000 68018 68327,68379,68353
 1.7000e+000 68454 -6.8101e+001 -1.2510e+002  1.1209e+001 68018 68301,68379,68327
 1.7000e+000 68431 -3.2377e+001 -1.4491e+002  2.4778e+001 68018 68301,68405,68379
 1.7000e+000 68578 -3.9782e+001 -9.5200e+001  9.1861e-001 67820 68500,68552,68526
 1.7000e+000 68728 -4.5812e+001 -9.2690e+001 -1.4943e+000 67508 68601,68653,68627
 1.7000e+000 68705 -7.3540e+001 -6.8112e+001 -1.3534e+001 67508 68601,68679,68653
 1.7000e+000 68927  3.4818e-001 -7.4088e+001 -4.5458e+000 67310 68777,68829,68803
 1.7000e+000 68904 -1.5954e+001 -8.6450e+001  1.9527e+000 67310 68751,68829,68777
 1.7000e+000 68881 -2.1140e+001 -9.7302e+001  2.2048e-001 67310 68751,68855,68829
 1.7000e+000 69386 -3.7142e+001 -1.0555e+002 -5.4683e+000 67020 69216,69268,69242
 1.7000e+000 69363 -3.1409e+001 -7.8110e+001 -9.6308e+000 67020 69138,69268,69216
 1.7000e+000 69340 -2.5079e+001 -6.8687e+001 -3.5182e+000 67020 69112,69268,69138
 1.7000e+000 69317 -4.5972e+001 -9.1373e+001  8.3110e+000 67020 69138,69190,69164
 1.7000e+000 69294 -4.7072e+001 -8.1112e+001 -3.1593e+000 67020 69138,69216,69190
 1.7000e+000 69536 -6.6704e+001 -1.8027e+002 -1.1351e+001 66708 69435,69487,69461
 1.7000e+000 69513 -5.2153e+001 -1.9921e+002 -1.1549e+000 66708 69409,69487,69435
 1.7000e+000 69735 -4.5051e+001 -1.0411e+002  2.5304e+000 66346 69585,69637,69611
 1.7000e+000 69712 -3.5966e+001 -9.9021e+001 -3.9908e-001 66346 69559,69637,69585
 1.7000e+000 69689 -3.1544e+001 -9.7260e+001 -9.9858e+000 66346 69559,69663,69637
 1.7000e+000 69985 -5.1388e+001 -1.0665e+002  2.5822e+000 66148 69786,69890,69864
 1.7000e+000 69962 -5.4231e+001 -1.0860e+002  3.8228e+000 66148 69760,69890,69786
 1.7000e+000 69939 -3.0519e+001 -9.9264e+001 -1.7979e+001 66148 69786,69864,69838
 1.7000e+000 69916 -4.2756e+001 -1.1241e+002 -4.9616e+000 66148 69786,69838,69812
 1.7000e+000 70137  9.1219e+000 -8.9855e+001 -6.3150e+000 65950 70036,70088,70062
 1.7000e+000 70114  2.3592e+001 -1.0398e+002  1.0503e+001 65950 70010,70088,70036
 1.7000e+000 70470  6.1797e+000 -6.8242e+001  1.2242e+000 65546 70245,70323,70271
 1.7000e+000 70447  2.8690e+000 -7.5853e+001  1.8377e+000 65546 70245,70375,70323
 1.7000e+000 70424  4.4513e+000 -8.8946e+001  5.1851e+000 65546 70323,70375,70349
 1.7000e+000 70401 -8.3642e-001 -7.1379e+001  2.2623e+000 65546 70271,70323,70297
 1.7000e+000 70620 -1.8559e+001 -1.0155e+002  5.6137e+000 65348 70493,70545,70519
 1.7000e+000 70597 -1.6682e+001 -1.1220e+002  3.5385e+000 65348 70493,70571,70545
 1.7000e+000 70721 -6.0648e+001 -1.0670e+002  1.6120e-001 65150 70643,70695,70669
 1.7000e+000 71020 -3.1172e+001 -6.7891e+001  3.1668e+000 64952 71043,70850,70824
 1.7000e+000 70997 -2.3181e+001 -5.6461e+001 -3.5759e+000 64952 71043,70824,70772
 1.7000e+000 70974 -2.0526e+001 -9.1838e+001  3.1123e+000 64952 71115,70746,70876
 1.7000e+000 70951 -2.6683e+001 -9.0542e+001  6.3784e+000 64952 70746,70902,70876
 1.7000e+000 70928 -2.8529e+001 -5.4270e+001 -5.5850e+000 64952 70772,70824,70798
 1.7000e+000 71069 -1.5298e+001 -5.9246e+001  8.2679e+000 64952 70876,70850,71043
 1.7000e+000 71092 -2.4322e+001 -8.1312e+001  1.5618e+000 64952 71115,70876,71043
 1.7000e+000 71141 -2.3494e+001 -8.0472e+001 -4.9024e+000 64952 70772,70746,71115
 1.7000e+000 71164 -2.1853e+001 -6.4187e+001 -7.4528e+000 64952 70772,71115,71043
 1.7000e+000 71365  1.8503e+001 -8.6777e+001 -4.4937e+000 64662 71215,71293,71267
 1.7000e+000 71342  4.2037e+001 -5.2552e+001 -1.7213e+001 64662 71189,71293,71215
 1.7000e+000 71319  3.6276e+001 -3.3301e+001 -6.4586e+000 64662 71215,71267,71241
 1.7000e+000 71615 -1.7785e+001 -9.5171e+001  4.9903e-001 64350 71710,71638,71468
 1.7000e+000 71592 -7.9647e+000 -8.9107e+001 -4.0310e+000 64350 71638,71416,71390
 1.7000e+000 71569 -2.2547e+001 -8.5768e+001  8.8287e+000 64350 71710,71468,71442
 1.7000e+000 71546  3.3209e+001 -8.7000e+001 -1.6757e+001 64350 71390,71520,71494
 1.7000e+000 71664 -1.2083e+001 -9.1931e+001 -2.3466e+000 64350 71494,71468,71638
 1.7000e+000 71687 -1.0604e+001 -9.3818e+001 -1.2931e+000 64350 71494,71638,71390
 1.7000e+000 71736 -8.3671e+000 -7.5896e+001 -2.4911e+000 64350 71416,71638,71710
 1.7000e+000 71759 -1.5230e+001 -6.9153e+001  7.5114e+000 64350 71416,71710,71442
 1.7000e+000 72318 -1.4867e+001 -1.4582e+002 -8.7748e+000 63837 71972,72024,71998
 1.7000e+000 72295 -2.1435e+001 -9.1166e+001 -4.7096e-001 63837 72341,71972,71946
 1.7000e+000 72272 -1.8306e+001 -7.0024e+001  5.7476e+000 63837 72413,72341,71946
 1.7000e+000 72249 -1.8425e+001 -6.1818e+001  3.4537e+000 63837 72413,71946,72128
 1.7000e+000 72226 -3.7574e+001 -7.4434e+001  2.7600e+000 63837 72024,72076,72050
 1.7000e+000 72203 -3.0404e+001 -6.6231e+001 -1.5558e+000 63837 72024,72102,72076
 1.7000e+000 72180 -1.4388e+001 -6.0968e+001  7.4548e+000 63837 71946,72154,72128
 1.7000e+000 72367 -3.4164e+001 -1.0037e+002 -2.0671e+001 63837 72024,71972,72341
 1.7000e+000 72390 -2.0463e+001 -7.5741e+001 -7.7126e+000 63837 72024,72341,72102
 1.7000e+000 72439 -1.3801e+001 -8.3191e+001  2.7015e+000 63837 72102,72341,72413
 1.7000e+000 72462 -1.3431e+001 -7.4195e+001  1.4666e+000 63837 72102,72413,72128
 1.7000e+000 72791 -3.1840e+001 -7.5193e+001 -8.7552e+000 63383 72592,72696,72670
 1.7000e+000 72768 -3.5595e+001 -7.4492e+001 -1.7247e+001 63383 72566,72696,72592
 1.7000e+000 72745 -3.7096e+001 -6.6914e+001 -8.2737e-001 63383 72592,72670,72618
 1.7000e+000 72722 -3.7874e+001 -6.4077e+001 -4.3685e+000 63383 72618,72670,72644
 1.7000e+000 73297 -4.7433e+001 -7.1641e+001 -1.9892e+000 63185 73000,73156,73130
 1.7000e+000 73274 -4.8098e+001 -7.5857e+001  9.4057e+000 63185 72974,73156,73000
 1.7000e+000 73251 -3.4598e+001 -8.1114e+001 -4.3570e-001 63185 73000,73052,73026
 1.7000e+000 73228 -3.5737e+001 -7.0856e+001 -3.5118e+000 63185 73000,73130,73052
 1.7000e+000 73205 -3.7266e+001 -8.6455e+001 -1.3789e+001 63185 73052,73130,73104
 1.7000e+000 73182 -3.1565e+001 -9.1500e+001 -1.3148e+001 63185 73052,73104,73078
 1.7000e+000 73545 -7.9103e+000 -7.6205e+001  3.0827e-001 62781 73568,73398,73372
 1.7000e+000 73522  1.7999e+000 -6.6732e+001  6.1512e+000 62781 73568,73372,73346
 1.7000e+000 73499 -1.6062e+001 -7.9700e+001 -9.7114e+000 62781 73640,73320,73424
 1.7000e+000 73476  3.6616e+000 -7.3051e+001 -1.4503e+001 62781 73320,73450,73424
 1.7000e+000 73594 -7.5218e+000 -6.8872e+001 -1.1570e+000 62781 73424,73398,73568
 1.7000e+000 73617 -1.1425e+001 -7.5748e+001 -3.3190e+000 62781 73640,73424,73568
 1.7000e+000 73666 -1.2237e+001 -7.1846e+001 -3.5959e+000 62781 73346,73320,73640
 1.7000e+000 73689 -9.3869e+000 -6.5826e+001  2.2407e+000 62781 73346,73640,73568
 1.7000e+000 74035 -4.2894e+001 -9.8922e+001 -4.0814e+000 62363 74058,73868,73842
 1.7000e+000 74012 -3.3352e+001 -8.9744e+001 -9.4277e+000 62363 74130,74058,73842
 1.7000e+000 73989 -3.0468e+001 -8.8627e+001 -9.4368e+000 62363 74130,73842,73816
 1.7000e+000 73966 -4.8252e+001 -1.0388e+002  1.0920e+000 62363 74202,73764,73894
 1.7000e+000 73943 -6.0514e+001 -9.2710e+001  2.1511e+000 62363 73712,73894,73764
 1.7000e+000 73920 -6.7870e+001 -1.0047e+002 -1.6935e+000 62363 73712,73764,73738
 1.7000e+000 74084 -3.6175e+001 -9.4209e+001 -1.4589e+000 62363 73894,73868,74058
 1.7000e+000 74107 -4.4660e+001 -9.9185e+001  3.5791e+000 62363 74202,73894,74058
 1.7000e+000 74156 -3.6856e+001 -9.0558e+001  1.5013e+000 62363 73790,74058,74130
 1.7000e+000 74179 -2.2208e+001 -8.4390e+001  2.6423e+000 62363 73790,74130,73816
 1.7000e+000 74228 -5.1973e+001 -1.0555e+002 -5.5215e+000 62363 73790,73764,74202
 1.7000e+000 74251 -4.9049e+001 -1.0041e+002 -3.1078e+000 62363 73790,74202,74058
 1.7000e+000 74403  1.7849e+001 -9.9641e+001  7.7541e+000 62115 74426,74302,74276
 1.7000e+000 74380  2.3385e+001 -9.4706e+001  1.0110e+001 62115 74426,74276,74354
 1.7000e+000 74452  1.1807e+001 -9.3702e+001  7.0062e+000 62115 74328,74302,74426
 1.7000e+000 74475  1.7142e+001 -8.8711e+001  9.4110e+000 62115 74328,74426,74354
 1.7000e+000 74578  3.0353e+000 -1.0057e+002 -4.4145e+000 61825 74500,74552,74526
 1.7000e+000 74982 -4.8953e+001 -9.0184e+001  3.4289e-001 61513 75005,74734,74708
 1.7000e+000 74959 -4.8386e+001 -8.8853e+001 -1.0401e-001 61513 75005,74708,74864
 1.7000e+000 74936 -6.1599e+001 -9.5486e+001  3.7007e+000 61513 75077,74812,74734
 1.7000e+000 74913 -5.0017e+001 -8.9342e+001 -7.4075e+000 61513 74734,74786,74760
 1.7000e+000 74890 -5.2163e+001 -8.7853e+001 -7.1117e-001 61513 74734,74812,74786
 1.7000e+000 75031 -4.6898e+001 -9.3927e+001  3.3065e-001 61513 75077,74734,75005
 1.7000e+000 75054 -3.5388e+001 -8.8012e+001  1.3917e+001 61513 74838,75005,74864
 1.7000e+000 75103 -6.9056e+001 -9.6226e+001  1.7776e+001 61513 74838,74812,75077
 1.7000e+000 75126 -5.9733e+001 -9.8200e+001  1.4296e+001 61513 74838,75077,75005
 1.7000e+000 75553 -2.0161e+001 -7.9780e+001 -1.3732e+000 61060 75576,75360,75308
 1.7000e+000 75530 -1.6196e+001 -8.7613e+001  9.5302e-002 61060 75576,75308,75230
 1.7000e+000 75507 -1.8729e+001 -7.5644e+001  2.9221e+000 61060 75308,75360,75334
 1.7000e+000 75484 -2.1085e+001 -9.8247e+001  1.7061e+000 61060 75230,75308,75256
 1.7000e+000 75461 -2.4289e+001 -9.6691e+001  4.8959e-001 61060 75256,75308,75282
 1.7000e+000 75438 -2.8006e+001 -7.7891e+001  1.1007e+001 61060 75360,75412,75386
 1.7000e+000 75602 -2.0110e+001 -8.5495e+001  2.0819e+000 61060 75412,75360,75576
 1.7000e+000 75625 -1.8403e+001 -9.7096e+001  2.9340e+000 61060 75412,75576,75230
 1.7000e+000 76052 -2.8295e+001 -8.0634e+001 -4.6400e-001 60442 75755,75859,75833
 1.7000e+000 76029 -2.8354e+001 -7.1099e+001 -1.0955e+001 60442 75729,75859,75755
 1.7000e+000 76006 -2.9807e+001 -7.3096e+001  4.0053e+000 60442 75755,75833,75807
 1.7000e+000 75983 -3.2256e+001 -8.7027e+001  8.3818e-001 60442 75755,75807,75781
 1.7000e+000 75960  3.4494e+000 -1.5384e+002  5.0461e+000 60442 75729,75911,75859
 1.7000e+000 75937 -7.2183e+001 -3.7473e+002  2.2990e+001 60442 75859,75911,75885
 1.7000e+000 76430 -2.8689e+001 -8.8250e+001 -6.8381e-001 59788 76453,76286,76234
 1.7000e+000 76407 -3.1559e+001 -1.0002e+002  3.6376e+000 59788 76453,76234,76182
 1.7000e+000 76384 -3.1335e+001 -5.7610e+001  1.4485e+001 59788 76525,76156,76312
 1.7000e+000 76361 -1.7264e+001 -1.1806e+002  1.6453e+000 59788 76182,76234,76208
 1.7000e+000 76338 -1.3854e+001 -8.0754e+001  2.2383e+000 59788 76234,76286,76260
 1.7000e+000 76479 -3.4887e+001 -9.3975e+001  2.4844e+000 59788 76312,76286,76453
 1.7000e+000 76502 -2.8168e+001 -8.6340e+001  6.1408e+000 59788 76525,76312,76453
 1.7000e+000 76551 -4.3059e+001 -9.3807e+001  1.4832e+001 59788 76182,76156,76525
 1.7000e+000 76574 -3.6495e+001 -1.0249e+002  9.0874e+000 59788 76182,76525,76453
 1.7000e+000 77031 -1.0230e+000 -4.5788e+001 -1.1445e+001 59448 76835,76887,76861
 1.7000e+000 77008  1.5476e+001 -3.1979e+001 -3.2852e-001 59448 76835,76913,76887
 1.7000e+000 76985  4.1419e+000 -3.4318e+001  9.7541e+000 59448 76809,76913,76835
 1.7000e+000 76962 -1.6121e+001 -4.0869e+001 -5.0492e+000 59448 76757,76913,76809
 1.7000e+000 76939 -9.8868e+000 -3.8379e+001 -7.5175e+000 59448 76757,76809,76783
 1.7000e+000 77537 -3.9978e+001 -8.9383e+001  3.2935e+000 58994 77560,77344,77292
 1.7000e+000 77514 -5.3813e+001 -8.8290e+001  7.0453e-001 58994 77560,77292,77240
 1.7000e+000 77491 -3.2044e+001 -8.2909e+001 -3.1621e+000 58994 77632,77214,77370
 1.7000e+000 77468 -6.3490e+001 -1.0062e+002  1.6322e+001 58994 77292,77344,77318
 1.7000e+000 77445 -3.2826e+001 -1.0068e+002  1.3929e+000 58994 77214,77396,77370
 1.7000e+000 77422 -5.4513e+001 -9.4506e+001 -4.7064e+000 58994 77240,77292,77266
 1.7000e+000 77586 -4.4316e+001 -9.0362e+001  4.2441e+000 58994 77370,77344,77560
 1.7000e+000 77609 -4.1545e+001 -8.8627e+001  4.9976e+000 58994 77632,77370,77560
 1.7000e+000 77658 -2.6788e+001 -7.6775e+001 -1.1970e+001 58994 77240,77214,77632
 1.7000e+000 77681 -3.3818e+001 -7.5826e+001 -4.5882e+000 58994 77240,77632,77560
 1.7000e+000 78138 -1.7854e+001 -5.0887e+001  8.4102e+000 58440 77864,77994,77890
 1.7000e+000 78115 -1.1263e+001 -2.4245e+001 -7.6250e+000 58440 77864,78020,77994
 1.7000e+000 78092 -2.2421e+001 -6.0126e+001 -1.1803e+001 58440 77942,77994,77968
 1.7000e+000 78069 -1.2378e+001 -5.9118e+001 -3.9847e-001 58440 77890,77994,77942
 1.7000e+000 78046  5.3230e-001 -6.0063e+001 -9.5983e+000 58440 77890,77942,77916
 1.7000e+000 78467 -7.1024e+000 -8.4043e+001  2.9993e+000 57928 78562,78490,78346
 1.7000e+000 78444 -1.8496e+001 -7.7285e+001  5.6505e+000 57928 78490,78294,78268
 1.7000e+000 78421 -4.0006e+000 -8.6915e+001  5.6061e+000 57928 78562,78346,78320
 1.7000e+000 78398 -1.1205e+001 -7.8804e+001  1.3358e+000 57928 78242,78372,78268
 1.7000e+000 78516 -1.9955e+001 -1.0430e+002 -5.1418e+000 57928 78372,78346,78490
 1.7000e+000 78539 -1.4381e+001 -7.8956e+001  5.9063e-001 57928 78372,78490,78268
 1.7000e+000 78588 -2.0460e+001 -8.4630e+001  2.1497e+000 57928 78294,78490,78562
 1.7000e+000 78611 -1.2014e+001 -8.1654e+001  6.7995e+000 57928 78294,78562,78320
 1.7000e+000 79068 -4.3007e+001 -1.1459e+002 -3.1357e+001 57467 78794,78924,78820
 1.7000e+000 79045 -2.9016e+001 -1.0899e+002 -3.2321e+001 57467 78794,78950,78924
 1.7000e+000 79022  5.5959e+000 -9.0140e+001  5.3813e+000 57467 78820,78898,78872
 1.7000e+000 78999 -3.1430e+001 -1.3516e+002 -2.0302e+001 57467 78820,78924,78898
 1.7000e+000 78976 -2.7074e+000 -9.5367e+001  8.4037e+000 57467 78820,78872,78846
 1.7000e+000 79446 -4.3056e+001 -9.6389e+001  2.3764e+000 57120 79172,79302,79250
 1.7000e+000 79423 -3.9239e+001 -9.4412e+001 -4.7338e+000 57120 79172,79328,79302
 1.7000e+000 79400 -4.0878e+001 -8.2664e+001 -6.7496e-001 57120 79172,79250,79198
 1.7000e+000 79377 -2.4864e+001 -1.2959e+002  7.6611e+000 57120 79250,79302,79276
 1.7000e+000 79354 -5.3912e+001 -9.1519e+001 -4.8173e+000 57120 79198,79250,79224
 1.7000e+000 79952 -4.6914e+001 -8.7847e+001  2.4987e+000 56773 79629,79785,79655
 1.7000e+000 79929 -3.8566e+000 -7.4268e+001  6.0465e+000 56773 79629,79811,79785
 1.7000e+000 79906 -3.0638e+001 -1.0373e+002  9.8846e+000 56773 79655,79733,79681
 1.7000e+000 79883 -3.1340e+001 -8.7317e+001  2.4620e+000 56773 79655,79785,79733
 1.7000e+000 79860 -2.4129e+001 -1.1822e+002 -1.9837e+001 56773 79733,79785,79759
 1.7000e+000 79837  1.5759e+000 -8.8485e+001  2.9964e+001 56773 79681,79733,79707
 1.7000e+000 80281 -2.7668e+001 -8.0236e+001 -1.2898e+001 56319 80108,80160,80134
 1.7000e+000 80258 -1.9549e+001 -8.2267e+001 -1.1071e+001 56319 80056,80160,80108
 1.7000e+000 80235 -9.7936e+000 -7.4068e+001  3.3164e+000 56319 80056,80186,80160
 1.7000e+000 80212 -2.1397e+001 -1.1309e+002 -1.3637e+001 56319 80056,80108,80082
 1.7000e+000 80738 -9.9426e+000 -8.4111e+001  6.7748e+000 55957 80516,80620,80594
 1.7000e+000 80715 -2.5805e+001 -7.3045e+001  6.9263e+000 55957 80464,80620,80516
 1.7000e+000 80692 -2.2528e+001 -8.7903e+001  4.0720e+000 55957 80761,80568,80542
 1.7000e+000 80669 -1.4737e+001 -8.8547e+001  4.5529e+000 55957 80761,80542,80516
 1.7000e+000 80646 -2.6841e+001 -7.5166e+001  1.5029e+001 55957 80464,80516,80490
 1.7000e+000 80787 -2.8556e+001 -8.8828e+001  3.5338e+000 55957 80594,80568,80761
 1.7000e+000 80810 -2.1410e+001 -8.9871e+001  4.1966e+000 55957 80594,80761,80516
 1.7000e+000 81210 -8.4247e+000 -8.3238e+001 -7.3204e+000 55317 80936,80988,80962
 1.7000e+000 81187 -7.1344e+000 -8.8614e+001 -3.1258e+000 55317 80936,81066,80988
 1.7000e+000 81164 -8.2549e+000 -9.7127e+001 -1.1857e-001 55317 80936,81092,81066
 1.7000e+000 81141 -2.9330e+001 -1.0009e+002 -1.0404e+001 55317 80988,81066,81014
 1.7000e+000 81118  4.8101e+000 -5.9203e+001  5.0995e+000 55317 81014,81066,81040
 1.7000e+000 81539 -3.1291e+001 -8.6666e+001  1.1850e+000 54913 81340,81418,81392
 1.7000e+000 81516 -1.9393e+000 -6.9723e+001 -7.3510e+000 54913 81340,81444,81418
 1.7000e+000 81493 -7.1102e+000 -7.4823e+001 -1.6506e+001 54913 81314,81444,81340
 1.7000e+000 81470 -3.6999e+001 -1.0592e+002 -2.5725e+000 54913 81340,81392,81366
 1.7000e+000 81787 -1.4193e+001 -9.3811e+001 -2.9929e+000 54601 81588,81692,81640
 1.7000e+000 81764 -3.4511e+001 -9.3020e+001 -6.7839e+000 54601 81562,81692,81588
 1.7000e+000 81741 -1.1363e+001 -9.6742e+001  1.2430e+001 54601 81588,81640,81614
 1.7000e+000 81718 -1.3071e+001 -1.2080e+002 -2.0054e+001 54601 81640,81692,81666
 1.7000e+000 82344 -3.1854e+001 -1.0794e+002 -1.2318e+001 54090 81998,82102,82076
 1.7000e+000 82321 -4.8041e+001 -1.1515e+002 -7.2301e+000 54090 81998,82154,82102
 1.7000e+000 82298 -4.0679e+001 -1.1024e+002 -4.9490e+000 54090 81972,82154,81998
 1.7000e+000 82275 -3.9060e+001 -1.0202e+002 -1.3604e+001 54090 81998,82076,82024
 1.7000e+000 82252 -5.3284e+001 -1.1894e+002  4.0710e+000 54090 81972,82180,82154
 1.7000e+000 82229 -6.8425e+001 -1.3272e+002  5.3240e+000 54090 82102,82154,82128
 1.7000e+000 82206  3.1247e+001 -7.1478e+001 -1.9715e+001 54090 82024,82076,82050
 1.7000e+000 82722 -5.9739e+001 -1.1236e+002 -5.7632e+000 53579 82500,82578,82552
 1.7000e+000 82699 -4.4201e+001 -1.0378e+002  4.6579e-001 53579 82448,82578,82500
 1.7000e+000 82676 -5.0645e+001 -1.1511e+002  3.0471e+000 53579 82448,82500,82474
 1.7000e+000 82653 -5.7290e+001 -1.1174e+002  1.0336e+001 53579 82448,82604,82578
 1.7000e+000 82630 -2.8824e+001 -1.0442e+002 -6.5349e+000 53579 82500,82552,82526
 1.7000e+000 83356 -2.3128e+001 -7.8825e+001 -6.6849e+000 53189 83379,83088,83036
 1.7000e+000 83333 -2.2470e+001 -8.9081e+001 -6.0566e+000 53189 83379,83036,82984
 1.7000e+000 83310 -3.5678e+000 -8.0106e+001  2.0119e+001 53189 82984,83192,83166
 1.7000e+000 83287  8.7821e+000 -6.6071e+001 -6.3575e+000 53189 83036,83088,83062
 1.7000e+000 83264 -1.8781e+001 -1.1248e+002 -1.3297e+001 53189 82984,83036,83010
 1.7000e+000 83241 -7.1199e+000 -9.6409e+001  4.4870e+000 53189 83114,83166,83140
 1.7000e+000 83218 -3.6339e+001 -1.0515e+002  4.7638e+000 53189 83088,83166,83114
 1.7000e+000 83405 -2.2829e+001 -8.5748e+001 -2.3862e+000 53189 83166,83088,83379
 1.7000e+000 83428 -2.0718e+001 -9.4835e+001 -2.3914e+000 53189 83166,83379,82984
 1.7000e+000 83725 -3.3604e+001 -1.1708e+002 -8.1642e+000 52585 83748,83529,83503
 1.7000e+000 83702 -1.6108e+001 -1.1041e+002 -5.5903e+000 52585 83820,83748,83503
 1.7000e+000 83679  3.7357e+000 -1.0738e+002 -4.3020e+000 52585 83820,83503,83477
 1.7000e+000 83656 -1.9991e+001 -1.0375e+002  1.5162e+001 52585 83477,83607,83581
 1.7000e+000 83633  4.4295e+000 -9.4308e+001  1.3089e+001 52585 83451,83607,83477
 1.7000e+000 83774 -2.7622e+001 -1.0168e+002 -5.7567e+000 52585 83555,83529,83748
 1.7000e+000 83797 -4.6937e+001 -1.0913e+002 -2.5999e+000 52585 83555,83748,83581
 1.7000e+000 83846 -3.4766e+001 -1.0145e+002  4.4936e+000 52585 83581,83748,83820
 1.7000e+000 83869 -1.9946e+001 -1.0132e+002  3.7741e+000 52585 83581,83820,83477
 1.7000e+000 84200 -3.6910e+001 -1.1165e+002 -1.4102e+000 52024 84001,84105,84079
 1.7000e+000 84177 -1.9935e+001 -1.0926e+002 -6.7451e+000 52024 83975,84105,84001
 1.7000e+000 84154 -3.3152e+001 -1.1138e+002 -9.9810e-001 52024 84001,84079,84053
 1.7000e+000 84131 -1.8504e+001 -7.3209e+001  1.6682e+001 52024 84001,84053,84027
 1.7000e+000 84399 -1.9725e+001 -9.7293e+001 -6.8301e-001 51470 84422,84275,84249
 1.7000e+000 84376 -1.9574e+001 -9.8197e+001 -7.7379e-001 51470 84422,84249,84223
 1.7000e+000 84353 -2.1634e+001 -1.0848e+002 -1.5882e+001 51470 84275,84327,84301
 1.7000e+000 84448 -1.9734e+001 -9.7935e+001 -5.6749e-001 51470 84327,84275,84422
 1.7000e+000 84471 -1.9436e+001 -9.8658e+001 -6.8887e-001 51470 84327,84422,84223
 1.7000e+000 84753 -3.3808e+001 -1.0116e+002 -1.2098e+000 51073 84603,84655,84629
 1.7000e+000 84730 -6.9846e+001 -1.1291e+002 -8.9488e-001 51073 84776,84655,84603
 1.7000e+000 84707 -1.9647e+001 -8.9985e+001 -2.2370e+001 51073 84577,84681,84655
 1.7000e+000 84802 -4.1786e+001 -9.6171e+001 -1.1413e+001 51073 84577,84655,84776
 1.7000e+000 85178 -5.4962e+001 -1.2173e+002  1.1572e+001 50519 85201,85008,84982
 1.7000e+000 85155 -5.1644e+001 -1.1248e+002  9.1265e+000 50519 85273,85201,84982
 1.7000e+000 85132 -4.8096e+001 -1.1229e+002  6.8890e+000 50519 85273,84982,84930
 1.7000e+000 85109 -4.6295e+001 -1.0799e+002  5.7092e+000 50519 84930,84982,84956
 1.7000e+000 85086 -4.7508e+001 -1.1849e+002  7.4810e+000 50519 85008,85060,85034
 1.7000e+000 85227 -4.4903e+001 -1.1567e+002  5.9012e+000 50519 85060,85008,85201
 1.7000e+000 85250 -5.0956e+001 -1.1865e+002  3.9011e+000 50519 85060,85201,84904
 1.7000e+000 85299 -4.8122e+001 -1.1463e+002  2.0062e+000 50519 84904,85201,85273
 1.7000e+000 85322 -3.4902e+001 -9.7149e+001 -3.8679e+000 50519 84904,85273,84930
 1.7000e+000 85958 -2.2115e+001 -9.4393e+001 -2.5085e+000 50093 85981,85768,85716
 1.7000e+000 85935 -1.8723e+001 -8.5872e+001 -2.8011e+000 50093 85981,85716,85612
 1.7000e+000 85912 -2.6304e+001 -8.2526e+001  6.4999e-001 50093 85612,85716,85664
 1.7000e+000 85889 -1.3856e+001 -9.2255e+001 -2.2120e-001 50093 85716,85768,85742
 1.7000e+000 85866 -2.8639e+001 -7.0986e+001 -1.3762e+001 50093 85664,85716,85690
 1.7000e+000 85843  1.9089e+001 -5.9675e+001 -7.3556e+000 50093 85586,85794,85612
 1.7000e+000 85820 -1.7539e+001 -1.2081e+002  7.8520e+000 50093 85612,85664,85638
 1.7000e+000 86007 -2.8744e+001 -1.0148e+002 -1.4462e+001 50093 85794,85768,85981
 1.7000e+000 86030 -1.8377e+001 -7.7055e+001 -1.1766e+001 50093 85794,85981,85612
 1.7000e+000 86131 -2.1982e+001 -1.1315e+002  1.6609e+001 49895 86053,86105,86079
 1.7000e+000 86639 -1.1414e+001 -6.4802e+001 -1.0396e+001 49391 86662,86394,86368
 1.7000e+000 86616 -1.4342e+001 -7.8491e+001 -7.7121e+000 49391 86662,86368,86342
 1.7000e+000 86593  2.8178e-001 -7.2864e+001  4.6383e+000 49391 86342,86498,86472
 1.7000e+000 86570  1.7642e+001 -8.3607e+001  5.5033e+000 49391 86316,86498,86342
 1.7000e+000 86547 -3.4750e+001 -1.1856e+002 -1.1379e+000 49391 86394,86472,86446
 1.7000e+000 86524  9.0597e+000 -1.1597e+002  4.3295e+000 49391 86394,86446,86420
 1.7000e+000 86688 -1.7309e+001 -7.7406e+001 -4.6261e+000 49391 86472,86394,86662
 1.7000e+000 86711 -1.2325e+001 -8.3000e+001 -3.6436e+000 49391 86472,86662,86342
 1.7000e+000 87089 -3.1625e+001 -9.9714e+001  3.6281e+000 48987 86815,86919,86867
 1.7000e+000 87066 -3.2230e+001 -1.0358e+002  5.5306e+000 48987 86815,86971,86919
 1.7000e+000 87043 -1.0265e+001 -1.0892e+002 -7.7153e+000 48987 86867,86919,86893
 1.7000e+000 87020 -3.5243e+001 -1.1085e+002  1.2479e+001 48987 86815,86867,86841
 1.7000e+000 86997 -3.7662e+001 -8.8897e+001  1.6809e+001 48987 86919,86971,86945
 1.7000e+000 87467 -6.7186e+001 -9.6771e+001  6.2119e+000 48540 87490,87245,87219
 1.7000e+000 87444 -4.8281e+001 -9.0766e+001  1.8343e+000 48540 87562,87490,87219
 1.7000e+000 87421 -3.5184e+001 -8.5397e+001  4.8424e+000 48540 87562,87219,87349
 1.7000e+000 87398 -5.1404e+001 -7.6657e+001 -4.9639e-002 48540 87245,87297,87271
 1.7000e+000 87375 -2.8876e+001 -9.1597e+001  3.1607e+000 48540 87193,87349,87219
 1.7000e+000 87516 -4.6194e+001 -9.0009e+001  5.0069e+000 48540 87297,87245,87490
 1.7000e+000 87539 -4.9109e+001 -9.4427e+001  6.7619e+000 48540 87297,87490,87323
 1.7000e+000 87588 -3.5882e+001 -8.6973e+001  1.0669e+001 48540 87323,87490,87562
 1.7000e+000 87611 -2.9280e+001 -8.7481e+001  1.2556e+001 48540 87323,87562,87349
 1.7000e+000 87810 -2.7200e+001 -1.8500e+002 -2.3687e+001 48136 87660,87712,87686
 1.7000e+000 87787 -8.5679e+000 -1.0314e+002 -9.1997e+000 48136 87660,87738,87712
 1.7000e+000 87764 -6.0464e+001 -1.1095e+002 -2.2380e+001 48136 87634,87738,87660
 1.7000e+000 88205 -3.9039e+001 -1.0622e+002 -8.2602e+000 47210 88300,88228,87937
 1.7000e+000 88182 -3.4322e+001 -1.0804e+002 -1.9767e+000 47210 88228,87833,88041
 1.7000e+000 88159 -3.9354e+001 -1.1281e+002 -1.3620e+001 47210 88300,87937,87911
 1.7000e+000 88136 -3.7279e+001 -1.0664e+002 -1.1210e+001 47210 87833,87911,87859
 1.7000e+000 88113 -6.5008e+001 -8.7082e+001 -7.8195e+000 47210 87937,87989,87963
 1.7000e+000 88090 -3.8306e+001 -9.0515e+001  2.3113e+001 47210 87989,88041,88015
 1.7000e+000 88067 -4.2558e+001 -1.1936e+002 -1.2480e+001 47210 87859,87911,87885
 1.7000e+000 88254 -3.5217e+001 -8.3056e+001 -1.0288e+001 47210 87989,87937,88228
 1.7000e+000 88277 -4.5541e+001 -1.0141e+002 -2.2683e+000 47210 87989,88228,88041
 1.7000e+000 88326 -3.1464e+001 -9.9542e+001 -3.1628e+000 47210 87833,88228,88300
 1.7000e+000 88349 -3.3161e+001 -1.0420e+002 -8.8490e+000 47210 87833,88300,87911
 1.7000e+000 88780 -7.1475e+001 -1.2922e+002 -2.1927e+001 46642 88803,88509,88483
 1.7000e+000 88757 -5.1260e+001 -1.1592e+002 -9.0089e+000 46642 88803,88483,88639
 1.7000e+000 88734 -5.7465e+001 -9.2689e+001 -1.2679e+001 46642 88875,88561,88509
 1.7000e+000 88711 -5.6509e+001 -8.5227e+001 -7.4955e-001 46642 88509,88561,88535
 1.7000e+000 88688 -2.0329e+001 -1.2758e+002  1.1734e+001 46642 88457,88639,88483
 1.7000e+000 88665 -6.7651e+001 -1.5097e+002 -3.0828e+000 46642 88561,88613,88587
 1.7000e+000 88829 -5.6161e+001 -1.0224e+002 -1.4442e+001 46642 88875,88509,88803
 1.7000e+000 88852 -5.5786e+001 -1.2225e+002 -6.6234e+000 46642 88613,88803,88639
 1.7000e+000 88901 -4.8515e+001 -1.0535e+002 -5.1506e+000 46642 88613,88561,88875
 1.7000e+000 88924 -5.1935e+001 -1.2091e+002 -6.3047e+000 46642 88613,88875,88803
 1.7000e+000 89253 -2.1390e+001 -1.0821e+002  9.0904e-001 46444 89080,89158,89132
 1.7000e+000 89230 -2.2067e+001 -1.0937e+002 -7.8181e-002 46444 89028,89158,89080
 1.7000e+000 89207 -8.7647e+000 -1.0478e+002 -2.8185e+000 46444 89028,89080,89054
 1.7000e+000 89184 -1.0446e+001 -1.1459e+002 -7.9945e+000 46444 89080,89132,89106
 1.7000e+000 89631 -1.5774e+001 -6.3137e+001  1.0070e+000 46040 89383,89461,89435
 1.7000e+000 89608 -1.7847e+001 -7.0234e+001 -3.0060e+000 46040 89383,89487,89461
 1.7000e+000 89585 -1.7506e+001 -8.2052e+001 -2.7434e+000 46040 89383,89435,89409
 1.7000e+000 89562 -1.6061e+001 -6.3536e+001 -5.8207e+000 46040 89383,89513,89487
 1.7000e+000 89539  9.7728e+000 -4.7589e+001 -2.0685e+001 46040 89357,89513,89383
 1.7000e+000 90009 -1.9344e+001 -8.7707e+001  1.7913e+000 45636 89813,89891,89839
 1.7000e+000 89986 -1.8433e+001 -7.4707e+001  8.5421e+000 45636 89787,89891,89813
 1.7000e+000 89963 -1.5687e+001 -7.8542e+001 -1.2409e+000 45636 89839,89891,89865
 1.7000e+000 89940 -2.8961e+001 -8.7910e+001  3.8382e+000 45636 89735,89891,89787
 1.7000e+000 89917 -2.3491e+001 -8.6477e+001 -4.4393e-001 45636 89735,89787,89761
 1.7000e+000 90208 -1.5731e+001 -6.7103e+001 -1.7768e+001 45175 90231,90058,90032
 1.7000e+000 90185 -4.8880e+000 -5.9605e+001 -2.5725e+001 45175 90231,90032,90136
 1.7000e+000 90162 -2.1050e+001 -5.1428e+001 -1.3535e+000 45175 90058,90110,90084
 1.7000e+000 90257 -2.7181e+001 -7.7225e+001 -4.3299e+000 45175 90110,90058,90231
 1.7000e+000 90280 -6.7273e+000 -6.4172e+001 -1.3272e+001 45175 90110,90231,90136
 1.7000e+000 90528 -1.5816e+001 -6.4830e+001 -9.1527e+000 44513 90695,90551,90407
 1.7000e+000 90505 -1.9310e+001 -6.2327e+001 -4.9192e+000 44513 90551,90355,90329
 1.7000e+000 90482 -2.2451e+001 -5.4900e+001 -6.5243e+000 44513 90623,90303,90433
 1.7000e+000 90459 -1.0139e+001 -6.0678e+001 -7.1885e+000 44513 90695,90407,90381
 1.7000e+000 90577 -2.6209e+001 -6.8413e+001 -1.4340e+001 44513 90433,90407,90551
 1.7000e+000 90600 -2.1316e+001 -6.1222e+001 -6.8713e+000 44513 90623,90433,90551
 1.7000e+000 90649 -2.5726e+001 -6.1986e+001 -5.4188e+000 44513 90329,90303,90623
 1.7000e+000 90672 -2.3302e+001 -6.4393e+001 -5.9447e+000 44513 90329,90623,90551
 1.7000e+000 90721 -2.2133e+001 -5.9615e+001 -9.9924e+000 44513 90355,90551,90695
 1.7000e+000 90744 -2.0183e+001 -5.8058e+001 -9.3154e+000 44513 90355,90695,90381
 1.7000e+000 91077  9.1724e+000 -5.7547e+001  1.4452e+001 44059 91100,90930,90904
 1.7000e+000 91054 -2.8643e+001 -7.7089e+001  6.9165e+000 44059 91100,90904,90982
 1.7000e+000 91031 -3.8512e+001 -7.7991e+001  2.1368e+000 44059 90878,90982,90904
 1.7000e+000 91008 -1.0642e+001 -6.6615e+001  4.6213e+000 44059 90852,90982,90878
 1.7000e+000 91126 -5.2901e+001 -7.7372e+001  5.7233e+000 44059 91172,91100,90956
 1.7000e+000 91149 -2.6976e+001 -7.4195e+001  2.7936e+000 44059 90956,91100,90982
 1.7000e+000 91198 -6.2453e+000 -5.5612e+001 -8.8918e+000 44059 90930,91100,91172
 1.7000e+000 91677 -3.7192e+001 -6.5942e+001  8.2893e+000 43549 91455,91533,91481
 1.7000e+000 91654 -8.2988e+000 -6.4382e+001  1.1813e+001 43549 91429,91533,91455
 1.7000e+000 91631 -3.5256e+001 -6.2925e+001  6.6818e+000 43549 91481,91533,91507
 1.7000e+000 91608 -5.9173e-001 -6.1217e+001  7.7072e+000 43549 91429,91559,91533
 1.7000e+000 91585  2.0420e+001 -1.8483e+001  1.4542e+001 43549 91403,91559,91429
 1.7000e+000 92006 -3.2213e+001 -9.1409e+001  2.5453e+000 43059 91781,91885,91807
 1.7000e+000 91983 -3.0701e+001 -7.9523e+001  1.5604e+001 43059 91781,91911,91885
 1.7000e+000 91960 -2.8387e+001 -9.0009e+001  2.0927e+000 43059 91807,91885,91833
 1.7000e+000 91937 -1.2671e+001 -8.3855e+001  3.8390e-001 43059 91833,91885,91859
 1.7000e+000 92561 -3.0996e+001 -6.8226e+001 -6.0304e+000 42598 92584,92215,92189
 1.7000e+000 92538 -3.3085e+001 -7.5788e+001 -5.8180e+000 42598 92656,92584,92189
 1.7000e+000 92515 -2.8342e+001 -8.5185e+001 -1.0346e+000 42598 92656,92189,92397
 1.7000e+000 92492 -3.6322e+001 -5.9604e+001 -7.2369e+000 42598 92241,92319,92293
 1.7000e+000 92469 -3.4957e+001 -7.4971e+001  6.1567e+000 42598 92319,92397,92371
 1.7000e+000 92446 -1.5720e+001 -9.3738e+001  3.5803e+001 42598 92319,92371,92345
 1.7000e+000 92423 -3.7602e+001 -6.4005e+001 -1.4356e+001 42598 92241,92293,92267
 1.7000e+000 92610 -3.2338e+001 -6.9075e+001 -6.5489e+000 42598 92241,92215,92584
 1.7000e+000 92633 -2.9425e+001 -6.2424e+001 -7.7345e+000 42598 92241,92584,92319
 1.7000e+000 92682 -2.8396e+001 -6.2864e+001 -3.2412e+000 42598 92319,92584,92656
 1.7000e+000 92705 -2.2244e+001 -6.9737e+001  4.8711e-001 42598 92319,92656,92397
 1.7000e+000 92953 -3.0370e+001 -9.9395e+001  7.4788e+000 42094 92976,92806,92780
 1.7000e+000 92930 -3.5568e+001 -9.1038e+001  5.5083e-001 42094 92976,92780,92754
 1.7000e+000 92907  5.0891e+000 -9.5002e+001 -6.6345e-001 42094 93048,92832,92806
 1.7000e+000 92884 -4.8674e+001 -8.7112e+001 -8.1201e+000 42094 92728,92858,92754
 1.7000e+000 93002 -1.3860e+001 -8.9437e+001  3.2112e+000 42094 93048,92806,92976
 1.7000e+000 93025 -3.0689e+001 -8.8076e+001 -2.8678e+000 42094 92858,92976,92754
 1.7000e+000 93074 -2.1151e+001 -1.0490e+002 -1.4928e+000 42094 92858,92832,93048
 1.7000e+000 93097 -3.6704e+001 -9.7382e+001  8.0291e-001 42094 92858,93048,92976
 1.7000e+000 93605 -3.2310e+001 -1.0794e+002 -1.7813e+000 41846 93628,93412,93386
 1.7000e+000 93582 -2.7073e+001 -8.4015e+001 -1.0097e-001 41846 93628,93386,93308
 1.7000e+000 93559 -3.7566e+001 -8.6399e+001 -1.2054e+001 41846 93700,93464,93438
 1.7000e+000 93536 -4.2152e+001 -1.0505e+002  7.7304e+000 41846 93308,93386,93334
 1.7000e+000 93513 -4.2697e+001 -1.0320e+002  6.8572e+000 41846 93334,93386,93360
 1.7000e+000 93490 -3.6707e+001 -6.7763e+001 -8.0117e+000 41846 93282,93464,93308
 1.7000e+000 93654 -2.3814e+001 -8.8439e+001 -6.6116e+000 41846 93438,93412,93628
 1.7000e+000 93677 -3.7131e+001 -8.7326e+001 -5.9643e+000 41846 93700,93438,93628
 1.7000e+000 93726 -3.5110e+001 -7.8694e+001 -1.0333e+001 41846 93308,93464,93700
 1.7000e+000 93749 -3.3615e+001 -7.7214e+001 -4.2892e+000 41846 93308,93700,93628
 1.7000e+000 94255 -2.7446e+001 -9.3265e+001  7.2093e+000 41385 93958,94114,94088
 1.7000e+000 94232 -2.2134e+001 -9.7518e+001  5.0411e+000 41385 93932,94114,93958
 1.7000e+000 94209 -5.2457e+001 -1.1023e+002  2.0878e+001 41385 93958,94088,94062
 1.7000e+000 94186 -5.5371e+001 -8.0718e+001  1.6563e+001 41385 93958,94062,93984
 1.7000e+000 94163 -4.2916e+001 -7.6646e+001  1.6251e+001 41385 93984,94062,94036
 1.7000e+000 94140 -2.9040e+001 -1.0056e+002  2.0652e+001 41385 93984,94036,94010
 1.7000e+000 94476 -1.4084e+001 -1.2535e+002 -9.1527e+000 40881 94326,94378,94352
 1.7000e+000 94453  1.7300e+001 -8.6165e+001  4.6803e+000 40881 94300,94378,94326
 1.7000e+000 94430 -1.1179e+001 -8.8669e+001  3.4221e-001 40881 94300,94404,94378
 1.7000e+000 94626 -2.7067e+001 -6.7600e+001  4.5153e+000 40591 94649,94551,94525
 1.7000e+000 94603 -4.1033e+000 -5.2072e+001  2.7478e+000 40591 94781,94577,94551
 1.7000e+000 94675 -3.3275e-001 -5.4830e+001 -2.5811e+000 40591 94781,94551,94649
 1.7000e+000 94807  4.7977e+000 -4.8110e+001  3.8625e+000 40591 94499,94577,94781
 1.7000e+000 94830  8.0918e+000 -5.1199e+001 -2.2600e+000 40591 94499,94781,94649
 1.7000e+000 95336 -5.9260e+001 -8.4358e+001 -1.1916e+001 40187 95013,95169,95039
 1.7000e+000 95313 -3.3635e+001 -7.8673e+001 -5.8315e+000 40187 95013,95195,95169
 1.7000e+000 95290 -2.2715e+001 -8.4938e+001  3.8256e+000 40187 95039,95143,95065
 1.7000e+000 95267 -6.3891e+001 -9.9013e+001 -1.6261e+001 40187 95039,95169,95143
 1.7000e+000 95244 -4.3254e+001 -1.1086e+002 -6.3084e+000 40187 95091,95143,95117
 1.7000e+000 95221 -1.9544e+001 -7.7504e+001  5.6949e+000 40187 95065,95143,95091
 1.7000e+000 95665 -3.2151e+001 -7.5513e+001  1.4657e+001 39626 95466,95570,95544
 1.7000e+000 95642 -3.9754e+001 -6.3764e+001  1.0646e+001 39626 95440,95570,95466
 1.7000e+000 95619 -2.8453e+001 -7.5916e+001  6.6582e+000 39626 95466,95544,95492
 1.7000e+000 95596 -5.1827e+001 -7.2972e+001  6.3456e+000 39626 95492,95544,95518
 1.7000e+000 95913 -3.0021e+001 -7.6939e+001 -1.1866e+001 39136 96080,95936,95766
 1.7000e+000 95890 -2.2044e+001 -8.4310e+001 -5.7548e+000 39136 95936,95714,95688
 1.7000e+000 95867 -5.8879e+001 -8.3697e+001  4.2354e+000 39136 96008,95792,95766
 1.7000e+000 95844 -2.2680e+001 -7.4239e+001 -9.1838e+000 39136 96080,95766,95740
 1.7000e+000 95962 -4.5230e+001 -8.7071e+001 -7.2010e+000 39136 96008,95766,95936
 1.7000e+000 95985 -2.6513e+001 -1.0181e+002 -1.2529e+000 39136 95818,95936,95688
 1.7000e+000 96034 -2.5767e+001 -6.9271e+001  6.5436e+000 39136 95818,95792,96008
 1.7000e+000 96057 -2.2185e+001 -7.6540e+001 -4.7634e+000 39136 95818,96008,95936
 1.7000e+000 96106 -2.6644e+001 -7.7092e+001 -1.6236e+000 39136 95714,95936,96080
 1.7000e+000 96129 -1.4782e+001 -7.3465e+001  2.8964e-001 39136 95714,96080,95740
 1.7000e+000 96350 -1.9691e+001 -7.1252e+001 -1.2625e+000 38824 96200,96278,96252
 1.7000e+000 96327 -2.0675e+001 -7.1420e+001 -1.0940e+000 38824 96174,96278,96200
 1.7000e+000 96304 -1.7693e+001 -7.1405e+001 -1.9223e+000 38824 96200,96252,96226
 1.7000e+000 96830 -4.5266e+001 -8.1162e+001 -6.5907e+000 38320 97069,96536,96484
 1.7000e+000 96807 -4.4305e+001 -8.2628e+001 -6.4978e+000 38320 97069,96484,96853
 1.7000e+000 96784 -4.7163e+001 -8.8858e+001  2.6802e+000 38320 96853,96484,96458
 1.7000e+000 96761 -2.7433e+001 -6.8472e+001 -6.3238e+000 38320 96925,96640,96614
 1.7000e+000 96738 -4.0770e+001 -6.9729e+001 -1.0983e+000 38320 96997,96666,96640
 1.7000e+000 96715 -3.4934e+001 -9.5306e+001 -1.5833e+000 38320 97141,96588,96562
 1.7000e+000 96692 -5.7037e+001 -9.4631e+001 -1.3879e+000 38320 96484,96536,96510
 1.7000e+000 96879 -4.2798e+001 -8.6480e+001 -2.6809e+000 38320 97141,96562,96853
 1.7000e+000 96902 -3.8913e+001 -8.4042e+001 -8.8534e-001 38320 96925,96614,96853
 1.7000e+000 96951 -4.0390e+001 -6.9496e+001 -1.2138e+000 38320 96997,96640,96925
 1.7000e+000 96974 -3.7704e+001 -6.9495e+001 -3.7263e-001 38320 96458,96925,96853
 1.7000e+000 97023 -4.2452e+001 -6.9908e+001 -1.9269e-001 38320 96458,96666,96997
 1.7000e+000 97046 -4.1058e+001 -6.9287e+001 -3.1881e-001 38320 96458,96997,96925
 1.7000e+000 97095 -4.9109e+001 -8.0796e+001  9.7740e-001 38320 96562,96536,97069
 1.7000e+000 97118 -4.1488e+001 -8.1993e+001 -5.3256e+000 38320 96562,97069,96853
 1.7000e+000 97167 -2.1072e+001 -8.7237e+001 -5.3101e+000 38320 96614,96588,97141
 1.7000e+000 97190 -3.4089e+001 -8.2128e+001 -5.3637e+000 38320 96614,97141,96853
 1.7000e+000 97519 -3.0487e+001 -8.2903e+001  2.1920e+001 37766 97542,97398,97372
 1.7000e+000 97496 -4.1164e+001 -7.3132e+001  1.2951e+001 37766 97542,97372,97346
 1.7000e+000 97473 -3.7436e+001 -8.0560e+001  3.2190e+000 37766 97294,97424,97346
 1.7000e+000 97450 -4.2637e+001 -9.5635e+001  1.7124e+000 37766 97294,97346,97320
 1.7000e+000 97568 -1.2840e+001 -7.9392e+001  1.6517e+001 37766 97424,97398,97542
 1.7000e+000 97591 -2.8462e+001 -6.9928e+001  7.8469e+000 37766 97424,97542,97346
 1.7000e+000 98048 -3.7444e+001 -6.2316e+001 -1.8739e+001 37262 98071,97878,97852
 1.7000e+000 98025 -3.0686e+001 -7.3267e+001 -6.9264e+000 37262 98071,97852,97800
 1.7000e+000 98002 -3.8365e+001 -8.9620e+001 -4.6203e+000 37262 97800,97852,97826
 1.7000e+000 97979 -3.7385e+001 -7.6807e+001  2.7943e+000 37262 97800,97930,97904
 1.7000e+000 97956 -2.7220e+001 -8.8934e+001  5.8780e+000 37262 97774,97930,97800
 1.7000e+000 98097 -5.6590e+001 -7.1207e+001 -1.4877e+001 37262 97904,97878,98071
 1.7000e+000 98120 -4.0568e+001 -8.0771e+001 -3.5526e+000 37262 97904,98071,97800
 1.7000e+000 98449 -6.7685e+000 -5.1741e+001 -5.2653e+000 36950 98472,98302,98250
 1.7000e+000 98426 -8.7841e-001 -5.2865e+001 -5.3913e+000 36950 98472,98250,98354
 1.7000e+000 98403 -1.3616e+001 -5.1797e+001  5.4720e+000 36950 98250,98302,98276
 1.7000e+000 98380  3.6711e+001 -3.8557e+001 -5.1248e+000 36950 98224,98354,98250
 1.7000e+000 98498 -2.4731e+000 -5.2087e+001 -2.4522e+000 36950 98328,98302,98472
 1.7000e+000 98521  3.2506e+000 -5.3866e+001 -3.5094e+000 36950 98328,98472,98354
 1.7000e+000 99125 -5.1539e+001 -5.2468e+001  8.6726e+000 36296 98704,98756,98730
 1.7000e+000 99102 -3.4981e+001 -5.8395e+001  2.6791e+000 36296 98704,98938,98756
 1.7000e+000 99079 -2.2071e+001 -6.6957e+001  4.4165e-001 36296 99148,98938,98912
 1.7000e+000 99056 -2.6126e+001 -6.2290e+001  1.6139e+001 36296 99292,99220,98782
 1.7000e+000 99033 -1.8730e+001 -6.7754e+001  2.3970e+000 36296 99148,98912,98834
 1.7000e+000 99010 -2.2137e+001 -5.1169e+001  1.5930e+001 36296 99292,98782,98756
 1.7000e+000 98987 -1.6169e+001 -1.2451e+002 -2.5669e+001 36296 98834,98912,98886
 1.7000e+000 98964 -4.3100e+001 -1.9206e+002 -3.5868e+001 36296 98834,98886,98860
 1.7000e+000 99174 -2.7820e+001 -7.4288e+001  2.9502e+000 36296 99220,98938,99148
 1.7000e+000 99197 -1.6850e+001 -7.9570e+001  8.1843e+000 36296 98808,99148,98834
 1.7000e+000 99246 -2.0321e+001 -4.8626e+001  3.8796e+001 36296 98808,98782,99220
 1.7000e+000 99269 -2.8367e+000 -5.1627e+001  1.3181e+001 36296 98808,99220,99148
 1.7000e+000 99318 -2.3316e+001 -4.9562e+001  8.1663e+000 36296 98938,99220,99292
 1.7000e+000 99341 -2.4243e+001 -5.1611e+001  8.6107e+000 36296 98938,99292,98756
 1.7000e+000 99719 -3.2762e+001 -8.7525e+001  1.7248e-001 35742 99742,99471,99601
 1.7000e+000 99696 -3.6848e+001 -6.2926e+001  1.1257e+001 35742 99445,99601,99471
 1.7000e+000 99673 -3.1320e+001 -8.4256e+001 -4.0502e+000 35742 99742,99601,99575
 1.7000e+000 99650 -2.5034e+001 -1.0939e+002 -2.2166e+000 35742 99814,99549,99523
 1.7000e+000 99627 -2.2516e+001 -8.2164e+001  4.0039e+000 35742 99471,99523,99497
 1.7000e+000 99768 -2.2037e+001 -8.6246e+001  4.0083e+000 35742 99523,99471,99742
 1.7000e+000 99791 -3.0232e+001 -9.9438e+001 -1.5409e+000 35742 99814,99523,99742
 1.7000e+000 99840 -2.5453e+001 -9.6668e+001 -5.9881e+000 35742 99575,99549,99814
 1.7000e+000 99863 -2.8287e+001 -8.3480e+001 -4.8732e+000 35742 99575,99814,99742
 1.7000e+000 100111 -2.7824e+001 -7.2943e+001  9.8663e+000 35302 100134,99990,99938
 1.7000e+000 100088 -1.9989e+001 -6.3446e+001  4.9571e+000 35302 100134,99938,99912
 1.7000e+000 100065 -2.0678e+001 -6.3293e+001 -2.5660e-001 35302 100206,99886,100016
 1.7000e+000 100042 -3.4794e+001 -6.9032e+001  8.5383e+000 35302 99938,99990,99964
 1.7000e+000 100160 -1.7197e+001 -6.8874e+001  4.2418e+000 35302 100016,99990,100134
 1.7000e+000 100183 -1.8039e+001 -6.5041e+001 -9.5650e-002 35302 100206,100016,100134
 1.7000e+000 100232 -2.3617e+001 -6.5423e+001  7.9781e-001 35302 99912,99886,100206
 1.7000e+000 100255 -2.0914e+001 -6.7409e+001  9.7803e-001 35302 99912,100206,100134
 1.7000e+000 100586 -2.1571e+001 -4.7877e+001  1.9756e+000 35012 100609,100387,100361
 1.7000e+000 100563 -2.1833e+001 -5.1675e+001  3.8071e+000 35012 100609,100361,100465
 1.7000e+000 100540 -3.4088e+001 -6.3643e+001  9.2810e+000 35012 100361,100491,100465
 1.7000e+000 100517 -1.7586e+001 -5.1037e+001  9.1320e+000 35012 100413,100465,100439
 1.7000e+000 100635 -2.2376e+001 -4.8418e+001  6.0241e+000 35012 100413,100387,100609
 1.7000e+000 100658 -2.3501e+001 -5.4268e+001  7.7535e+000 35012 100413,100609,100465
 1.7000e+000 100987 -2.9762e+001 -6.3099e+001  7.2427e+000 34700 100788,100866,100814
 1.7000e+000 100964 -2.6811e+001 -5.9942e+001  8.4723e+000 34700 101010,100866,100788
 1.7000e+000 100941 -2.6278e+001 -6.3677e+001  1.3678e+001 34700 100762,100892,100866
 1.7000e+000 100918 -3.4894e+001 -7.2633e+001 -1.7176e-001 34700 100814,100866,100840
 1.7000e+000 101036 -2.1137e+001 -5.6977e+001  9.8093e+000 34700 100762,100866,101010
 1.7000e+000 101493 -4.1090e+001 -8.1485e+001 -6.2730e+000 34132 101516,101349,101297
 1.7000e+000 101470 -5.3013e+001 -1.0283e+002 -1.2229e+001 34132 101588,101516,101297
 1.7000e+000 101447 -5.3487e+001 -1.1024e+002 -1.9573e+001 34132 101588,101297,101245
 1.7000e+000 101424 -2.8094e+001 -1.3234e+002 -1.8283e+001 34132 101245,101297,101271
 1.7000e+000 101401 -4.8274e+001 -8.1861e+001 -9.1294e+000 34132 101297,101349,101323
 1.7000e+000 101542 -4.2558e+001 -9.8243e+001 -4.5547e+000 34132 101375,101349,101516
 1.7000e+000 101565 -3.7291e+001 -9.7415e+001 -4.6338e+000 34132 101375,101516,101219
 1.7000e+000 101614 -3.9004e+001 -1.0371e+002 -4.5143e+000 34132 101219,101516,101588
 1.7000e+000 101637 -4.6300e+001 -1.1087e+002 -1.1538e+001 34132 101219,101588,101245
 1.7000e+000 101858 -4.1128e+000 -7.9928e+001  6.0846e+000 33720 101708,101786,101760
 1.7000e+000 101835 -1.6322e+001 -9.4253e+001  4.3734e-001 33720 101682,101786,101708
 1.7000e+000 101812 -2.2587e+001 -8.8599e+001  3.5730e+000 33720 101708,101760,101734
 1.7000e+000 102128  4.3166e+000 -8.5009e+001 -2.6606e+000 33130 101903,102007,101929
 1.7000e+000 102105 -1.0248e+000 -1.0426e+002  5.3630e+000 33130 101903,102033,102007
 1.7000e+000 102082  1.0722e+001 -1.0696e+002 -2.5623e+001 33130 101929,102007,101955
 1.7000e+000 102059 -4.6983e+000 -6.8065e+001  2.6429e+000 33130 101955,102007,101981
 1.7000e+000 102461 -3.2855e+001 -8.9044e+001 -7.4488e+000 32840 102236,102340,102262
 1.7000e+000 102438 -2.7189e+001 -6.2393e+001  2.4757e+000 32840 102236,102366,102340
 1.7000e+000 102415 -1.7543e+001 -8.4372e+001 -6.8959e+000 32840 102262,102340,102288
 1.7000e+000 102392 -4.5072e+001 -9.1160e+001 -1.9918e+001 32840 102288,102340,102314
 1.7000e+000 102997 -2.4389e+001 -4.5979e+001  1.4555e+001 32493 102749,102879,102853
 1.7000e+000 102974 -1.7607e+001 -3.0935e+001  1.2792e+001 32493 102723,102879,102749
 1.7000e+000 102951 -3.5918e+001 -6.2444e+001  1.0501e+001 32493 102749,102801,102775
 1.7000e+000 102928 -3.5979e+001 -5.8797e+001  8.5572e+000 32493 102749,102853,102801
 1.7000e+000 102905 -3.5541e+001 -5.6917e+001  9.2916e+000 32493 102801,102853,102827
 1.7000e+000 103454 -3.9126e+001 -7.5119e+001 -3.6740e+000 32089 103206,103336,103310
 1.7000e+000 103431 -3.3101e+001 -7.3160e+001  2.3051e-001 32089 103180,103336,103206
 1.7000e+000 103408 -4.2560e+001 -8.5680e+001 -1.2251e+001 32089 103206,103284,103258
 1.7000e+000 103385 -5.8192e+001 -8.9037e+001 -1.3580e+001 32089 103206,103310,103284
 1.7000e+000 103362 -3.7267e+001 -6.7242e+001  3.4572e+000 32089 103206,103258,103232
 1.7000e+000 103783 -5.8548e+001 -8.8191e+001 -7.6176e+000 31742 103558,103662,103584
 1.7000e+000 103760 -5.3012e+001 -8.1296e+001 -1.5736e+001 31742 103558,103688,103662
 1.7000e+000 103737 -4.1756e+001 -7.4363e+001 -1.4541e+001 31742 103584,103662,103636
 1.7000e+000 103714 -2.4447e+001 -8.4667e+001 -2.4334e+001 31742 103584,103636,103610
 1.7000e+000 104112 -5.1119e+000 -7.4557e+001  1.7607e+001 31402 103939,103991,103965
 1.7000e+000 104089 -2.1345e+001 -6.6401e+001  8.3944e+000 31402 103913,103991,103939
 1.7000e+000 104066 -3.0372e+001 -7.4721e+001  4.0097e+000 31402 103913,104017,103991
 1.7000e+000 104043 -3.5235e+001 -6.5290e+001  6.3274e-003 31402 103887,104017,103913
 1.7000e+000 104569 -5.5375e+001 -1.0476e+002 -8.6578e-002 30998 104321,104425,104373
 1.7000e+000 104546 -6.1209e+001 -1.0664e+002 -7.4998e-001 30998 104321,104451,104425
 1.7000e+000 104523 -5.0045e+001 -9.2779e+001  6.9298e+000 30998 104373,104425,104399
 1.7000e+000 104500 -5.5334e+001 -1.1144e+002 -3.1425e+000 30998 104295,104451,104321
 1.7000e+000 104477 -7.8506e+001 -1.3197e+002  1.9366e+001 30998 104321,104373,104347
 1.7000e+000 104947 -4.9518e+001 -8.0835e+001 -9.1120e+000 30608 104751,104803,104777
 1.7000e+000 104924 -2.6655e+001 -8.0032e+001 -4.6551e-001 30608 104725,104803,104751
 1.7000e+000 104901 -4.3348e+001 -7.9466e+001  5.9021e+000 30608 104699,104803,104725
 1.7000e+000 104878 -4.8355e+001 -8.2246e+001  7.1486e+000 30608 104673,104803,104699
 1.7000e+000 104855 -3.8241e+001 -8.4947e+001 -2.9299e+000 30608 104673,104829,104803
 1.7000e+000 105276 -2.7236e+001 -7.0505e+001  8.0040e+000 30204 105427,105129,105077
 1.7000e+000 105253 -1.2857e+001 -7.3362e+001  2.3767e+001 30204 105427,105077,105051
 1.7000e+000 105230 -2.1640e+001 -7.4698e+001  5.1000e+000 30204 105077,105129,105103
 1.7000e+000 105207 -5.2119e+001 -6.5749e+001  8.3975e+000 30204 105299,105181,105155
 1.7000e+000 105325 -4.0441e+001 -6.0658e+001  7.7657e+000 30204 105129,105181,105299
 1.7000e+000 105453 -3.5720e+001 -7.4847e+001  1.0669e+001 30204 105181,105129,105427
 1.7000e+000 105476 -4.0657e+001 -8.6324e+001  2.8057e+001 30204 105181,105427,105051
 1.7000e+000 105903 -8.5797e+000 -5.8805e+001 -6.4806e+000 29700 105606,105762,105736
 1.7000e+000 105880 -2.3715e+001 -6.2685e+001  1.5876e+000 29700 105580,105762,105606
 1.7000e+000 105857 -2.6302e+001 -7.9482e+001 -3.6824e+000 29700 105606,105710,105632
 1.7000e+000 105834 -1.9879e+001 -6.1838e+001 -2.5231e+000 29700 105606,105736,105710
 1.7000e+000 105811 -4.0178e+001 -8.5596e+001  3.5972e+000 29700 105632,105710,105684
 1.7000e+000 105788 -3.3710e+001 -7.0755e+001 -1.2611e+000 29700 105632,105684,105658
 1.7000e+000 106102 -2.1219e+001 -8.0404e+001  5.7358e+000 29124 105978,106030,106004
 1.7000e+000 106079 -3.0604e+001 -8.8903e+001  2.0922e+000 29124 105926,106030,105978
 1.7000e+000 106056 -2.7854e+001 -9.0481e+001  1.3223e+001 29124 105926,105978,105952
 1.7000e+000 106301 -1.2567e+001 -7.5096e+001 -3.1662e-002 28712 106151,106229,106203
 1.7000e+000 106278 -1.7148e+001 -8.6533e+001 -5.9400e+000 28712 106125,106229,106151
 1.7000e+000 106255 -1.2305e+001 -7.1874e+001 -3.3343e+000 28712 106151,106203,106177
 1.7000e+000 106551 -2.6190e+001 -9.8724e+001 -9.4270e-001 28258 106352,106404,106378
 1.7000e+000 106528 -3.4921e+001 -1.0204e+002 -8.5621e-001 28258 106352,106456,106404
 1.7000e+000 106505 -2.7730e+001 -1.0925e+002 -3.5184e+000 28258 106326,106456,106352
 1.7000e+000 106482 -3.5514e+001 -9.7902e+001  2.6560e+000 28258 106404,106456,106430
 1.7000e+000 107012 -3.7075e+001 -9.1226e+001  1.8324e+001 27818 107035,106790,106764
 1.7000e+000 106989 -3.0803e+001 -8.1317e+001  9.4394e+000 27818 107035,106764,106868
 1.7000e+000 106966 -2.6260e+001 -9.4807e+001  8.9390e+000 27818 107107,106842,106816
 1.7000e+000 106943 -4.7849e+001 -7.8540e+001  7.8625e+000 27818 106738,106868,106764
 1.7000e+000 106920 -5.1218e+001 -7.7743e+001  2.2719e+001 27818 106738,106894,106868
 1.7000e+000 107061 -1.9548e+001 -8.4892e+001  1.7778e+001 27818 106816,106790,107035
 1.7000e+000 107084 -2.8559e+001 -9.0927e+001  9.4010e+000 27818 107107,106816,107035
 1.7000e+000 107133 -2.8662e+001 -8.8491e+001  5.7613e+000 27818 106868,106842,107107
 1.7000e+000 107156 -2.8810e+001 -8.1672e+001  7.3351e+000 27818 106868,107107,107035
 1.7000e+000 107613  4.1738e+000 -6.2347e+001  1.4429e+001 27312 107339,107469,107365
 1.7000e+000 107590  8.7553e+000 -6.0925e+001  1.3992e+001 27312 107339,107495,107469
 1.7000e+000 107567  3.7630e+000 -5.8569e+001  9.0827e+000 27312 107391,107469,107443
 1.7000e+000 107544  4.4988e+000 -6.4297e+001  7.9602e+000 27312 107365,107469,107391
 1.7000e+000 107521 -5.7033e+000 -6.5131e+001  1.5390e+001 27312 107391,107443,107417
 1.7000e+000 107991 -3.7660e+001 -1.0453e+002  3.3097e-001 26858 108086,108014,107795
 1.7000e+000 107968 -4.0807e+001 -1.0664e+002 -1.1967e+001 26858 108014,107717,107873
 1.7000e+000 107945 -4.4741e+001 -1.1177e+002  4.8743e+000 26858 108158,108086,107795
 1.7000e+000 107922 -3.5615e+001 -1.1256e+002  4.7561e+000 26858 108158,107795,107769
 1.7000e+000 107899 -2.4352e+001 -1.3346e+002  1.7864e+001 26858 107821,107873,107847
 1.7000e+000 108040 -3.8381e+001 -1.1941e+002  3.6518e+000 26858 107821,107795,108014
 1.7000e+000 108063 -1.7798e+001 -1.1432e+002 -3.8613e+000 26858 107821,108014,107873
 1.7000e+000 108112 -5.4297e+001 -1.1079e+002  3.3135e+000 26858 107717,108014,108086
 1.7000e+000 108135 -4.5006e+001 -1.1486e+002  1.1061e+001 26858 107717,108086,107743
 1.7000e+000 108184 -3.4344e+001 -1.0876e+002  8.2278e+000 26858 107743,108086,108158
 1.7000e+000 108207 -2.9993e+001 -1.1298e+002  8.3597e+000 26858 107743,108158,107769
 1.7000e+000 108634 -4.3146e+001 -9.6396e+001 -5.2293e-001 26404 108657,108415,108363
 1.7000e+000 108611 -4.9638e+001 -1.0516e+002  9.3604e+000 26404 108657,108363,108337
 1.7000e+000 108588 -4.0987e+001 -9.1602e+001  1.3223e+001 26404 108729,108311,108467
 1.7000e+000 108565 -5.6396e+001 -1.0920e+002 -2.5814e+000 26404 108801,108441,108415
 1.7000e+000 108542 -7.6531e+001 -1.0715e+002  1.5307e+001 26404 108311,108493,108467
 1.7000e+000 108519 -3.6136e+001 -1.0010e+002 -2.0506e+000 26404 108363,108415,108389
 1.7000e+000 108683 -6.3597e+001 -1.0230e+002 -1.5514e+000 26404 108801,108415,108657
 1.7000e+000 108706 -6.0266e+001 -9.8052e+001  9.5252e+000 26404 108729,108467,108657
 1.7000e+000 108755 -2.7915e+001 -1.0087e+002  1.3419e+001 26404 108337,108311,108729
 1.7000e+000 108778 -3.7864e+001 -1.0063e+002  9.6799e+000 26404 108337,108729,108657
 1.7000e+000 108827 -6.3858e+001 -1.2210e+002 -6.6070e+000 26404 108467,108441,108801
 1.7000e+000 108850 -6.8188e+001 -1.1073e+002 -5.3388e+000 26404 108467,108801,108657
 1.7000e+000 109228 -2.6204e+001 -9.4302e+001  8.4671e-001 26064 109006,109084,109058
 1.7000e+000 109205 -2.5734e+001 -9.2229e+001  3.5364e+000 26064 108980,109084,109006
 1.7000e+000 109182 -2.3848e+001 -8.3605e+001 -4.2180e+000 26064 108980,109110,109084
 1.7000e+000 109159 -2.3469e+001 -1.0510e+002  9.1038e+000 26064 109006,109058,109032
 1.7000e+000 109136 -4.8462e+000 -6.3604e+001  3.7814e+000 26064 108954,109110,108980
 1.7000e+000 109427 -2.0612e+001 -8.8336e+001 -1.5459e+001 25660 109303,109355,109329
 1.7000e+000 109404 -2.7444e+001 -1.0036e+002 -1.4313e+000 25660 109277,109355,109303
 1.7000e+000 109381 -2.1885e+001 -1.0039e+002 -1.3257e+000 25660 109251,109355,109277
 1.7000e+000 109577  6.0746e+000 -3.5970e+001  2.9778e+001 25306 109476,109528,109502
 1.7000e+000 109554  1.6149e+001 -4.8477e+001  5.8247e+000 25306 109450,109528,109476
 1.7000e+000 109778 -1.1548e+001 -8.4176e+001  1.8986e+000 24944 109628,109706,109654
 1.7000e+000 109755 -1.3692e+001 -8.6919e+001  8.6087e-001 24944 109602,109706,109628
 1.7000e+000 109732 -1.7302e+000 -7.5165e+001 -1.0492e+001 24944 109654,109706,109680
 1.7000e+000 110126 -3.1585e+001 -1.2375e+002  7.6513e+000 24440 110149,109907,109855
 1.7000e+000 110103 -3.5264e+001 -1.2798e+002  9.6950e+000 24440 110149,109855,109985
 1.7000e+000 110080 -2.1802e+001 -1.1130e+002  2.5156e+000 24440 109855,109907,109881
 1.7000e+000 110057 -2.2435e+001 -1.0222e+002  3.0679e+001 24440 109829,109985,109855
 1.7000e+000 110034 -3.2704e+001 -1.2698e+002 -2.1344e-001 24440 109907,109959,109933
 1.7000e+000 110011 -4.6191e+001 -1.1717e+002  9.7134e+000 24440 109803,109985,109829
 1.7000e+000 110175 -3.2787e+001 -1.1806e+002  3.3189e+000 24440 109959,109907,110149
 1.7000e+000 110198 -3.8903e+001 -1.2324e+002  5.9681e+000 24440 109959,110149,109985
 1.7000e+000 110301  2.5987e+000 -1.2742e+002 -1.6987e+001 24028 110223,110275,110249
 1.7000e+000 110573  1.7047e+000 -7.5850e+001  2.0218e+001 23467 110400,110452,110426
 1.7000e+000 110550 -2.1722e+001 -9.2096e+001  4.5168e+000 23467 110374,110452,110400
 1.7000e+000 110527 -2.7808e+001 -9.4664e+001  6.3737e+000 23467 110348,110452,110374
 1.7000e+000 110504 -1.3828e+001 -8.5814e+001  1.8657e+000 23467 110348,110478,110452
 1.7000e+000 111004 -5.1668e+001 -1.1623e+002 -5.3202e+000 22963 111027,110733,110707
 1.7000e+000 110981 -4.6994e+001 -1.0906e+002  1.1010e+001 22963 111027,110707,110681
 1.7000e+000 110958 -1.0947e+001 -9.2417e+001  2.6413e+000 22963 111099,110759,110733
 1.7000e+000 110935 -3.1093e+001 -1.0021e+002 -5.8091e+000 22963 111171,110863,110811
 1.7000e+000 110912  5.4024e+000 -8.0475e+001 -3.2080e+000 22963 110759,110811,110785
 1.7000e+000 110889 -3.8228e+001 -1.1767e+002 -4.8761e+000 22963 110811,110863,110837
 1.7000e+000 111053 -3.0426e+001 -9.9807e+001  3.3281e+000 22963 111099,110733,111027
 1.7000e+000 111076 -2.8768e+001 -1.0666e+002 -4.7686e+000 22963 111171,110811,111027
 1.7000e+000 111125 -1.2339e+001 -9.4677e+001 -1.0106e+001 22963 110811,110759,111099
 1.7000e+000 111148 -1.8012e+001 -9.7616e+001 -1.1242e+001 22963 110811,111099,111027
 1.7000e+000 111197 -3.0138e+001 -9.1765e+001 -6.3490e+000 22963 110681,110863,111171
 1.7000e+000 111220 -2.8285e+001 -9.8014e+001 -2.8958e+000 22963 110681,111171,111027
 1.7000e+000 111726 -4.3777e+001 -1.0440e+002  1.9891e+000 22459 111749,111507,111429
 1.7000e+000 111703 -3.4281e+001 -1.0081e+002 -2.2879e+000 22459 111749,111429,111585
 1.7000e+000 111680 -9.9969e+000 -1.1172e+002  3.7265e+000 22459 111403,111585,111429
 1.7000e+000 111657 -4.0428e+001 -1.2589e+002  2.8202e+000 22459 111507,111559,111533
 1.7000e+000 111634 -7.8417e+001 -1.1649e+002  2.7767e+000 22459 111455,111507,111481
 1.7000e+000 111611 -6.0986e+001 -1.0678e+002  8.1773e+000 22459 111429,111507,111455
 1.7000e+000 111775 -4.1669e+001 -1.1147e+002  9.6981e+000 22459 111559,111507,111749
 1.7000e+000 111798 -3.3477e+001 -1.0516e+002  5.2438e+000 22459 111559,111749,111585
 1.7000e+000 112046 -8.0006e+000 -8.8426e+001 -1.4634e+000 21898 112069,111925,111873
 1.7000e+000 112023 -6.1501e+000 -8.6093e+001  4.5633e+000 21898 112069,111873,111847
 1.7000e+000 112000 -7.8055e+000 -9.5885e+001 -2.6180e+000 21898 111821,111951,111847
 1.7000e+000 111977 -2.0832e+001 -6.8502e+001  1.5081e+000 21898 111873,111925,111899
 1.7000e+000 112095 -1.6792e+001 -9.0768e+001 -5.2080e+000 21898 111951,111925,112069
 1.7000e+000 112118 -1.1608e+001 -8.7494e+001  6.8241e-001 21898 111951,112069,111847
 1.7000e+000 112498 -4.2426e+001 -9.7227e+001 -9.2575e+000 21608 112521,112276,112224
 1.7000e+000 112475 -3.1408e+001 -1.0051e+002 -1.4211e-001 21608 112521,112224,112380
 1.7000e+000 112452 -3.5211e+001 -1.0794e+002  4.9794e+000 21608 112302,112380,112354
 1.7000e+000 112429 -4.4838e+001 -1.1008e+002 -8.4213e+000 21608 112224,112276,112250
 1.7000e+000 112406  1.4143e+000 -1.1317e+002 -3.6569e+000 21608 112302,112354,112328
 1.7000e+000 112547 -3.3076e+001 -8.0456e+001 -5.5744e+000 21608 112302,112276,112521
 1.7000e+000 112570 -2.7555e+001 -9.3970e+001  1.4446e+000 21608 112302,112521,112380
 1.7000e+000 112948 -4.4119e+001 -1.0516e+002 -3.5194e+000 20882 112971,112752,112700
 1.7000e+000 112925 -3.0927e+001 -1.0116e+002 -7.3735e+000 20882 112971,112700,112830
 1.7000e+000 112902 -5.9199e+001 -1.1386e+002  4.3059e+000 20882 112778,112830,112804
 1.7000e+000 112879 -2.8258e+001 -7.7214e+001 -1.0029e+001 20882 112674,112830,112700
 1.7000e+000 112856 -5.3615e+001 -1.0860e+002 -2.4821e-001 20882 112700,112752,112726
 1.7000e+000 112997 -4.4913e+001 -1.0609e+002  3.7028e+000 20882 112778,112752,112971
 1.7000e+000 113020 -3.7285e+001 -1.0427e+002 -3.7335e-001 20882 112778,112971,112830
 1.7000e+000 113526 -3.6071e+001 -1.0730e+002 -4.4136e-001 20428 113255,113385,113333
 1.7000e+000 113503 -3.8215e+001 -1.1371e+002 -5.0821e-001 20428 113229,113385,113255
 1.7000e+000 113480 -3.4709e+000 -1.0358e+002  6.2562e-001 20428 113255,113333,113281
 1.7000e+000 113457 -3.3546e+001 -1.1180e+002  2.2149e-001 20428 113203,113385,113229
 1.7000e+000 113434 -1.9960e+001 -1.0954e+002 -4.8102e+000 20428 113281,113333,113307
 1.7000e+000 113411 -4.2791e+001 -1.0283e+002  8.0096e-001 20428 113333,113385,113359
 1.7000e+000 113774 -1.7981e+001 -9.6673e+001  4.3928e+000 19917 113797,113601,113549
 1.7000e+000 113751 -2.4086e+001 -9.7494e+001  5.0228e+000 19917 113869,113797,113549
 1.7000e+000 113728 -2.3594e+001 -9.7897e+001  6.8900e+000 19917 113869,113549,113679
 1.7000e+000 113705 -1.5612e+001 -9.6579e+001  1.5309e+000 19917 113549,113601,113575
 1.7000e+000 113823 -2.3967e+001 -9.7444e+001  1.3047e+000 19917 113627,113601,113797
 1.7000e+000 113846 -2.6387e+001 -9.4380e+001  4.2756e+000 19917 113627,113797,113653
 1.7000e+000 113895 -2.2874e+001 -9.3488e+001  4.3771e+000 19917 113653,113797,113869
 1.7000e+000 113918 -2.3298e+001 -9.4219e+001  6.6791e+000 19917 113653,113869,113679
 1.7000e+000 114166 -4.7141e+001 -1.0684e+002 -3.2952e+000 19413 113993,114045,114019
 1.7000e+000 114143 -3.8441e+001 -9.7801e+001  3.5605e-001 19413 113967,114045,113993
 1.7000e+000 114120 -3.5597e+001 -9.6651e+001  8.8253e-001 19413 113967,114071,114045
 1.7000e+000 114097 -2.0711e+001 -1.0373e+002 -3.9427e+000 19413 113941,114071,113967
 1.7000e+000 114438 -1.7540e+001 -9.3284e+001 -2.0251e+000 19001 114213,114265,114239
 1.7000e+000 114415 -1.3545e+001 -7.9265e+001 -1.5161e+000 19001 114213,114343,114265
 1.7000e+000 114392 -2.3642e+001 -1.0054e+002 -5.2886e+000 19001 114265,114343,114317
 1.7000e+000 114369 -2.7639e+000 -8.8991e+001  4.1111e-001 19001 114265,114317,114291
 1.7000e+000 114639 -3.7575e+001 -9.8871e+001 -5.0975e+000 18554 114489,114541,114515
 1.7000e+000 114616 -2.8827e+000 -9.6732e+001 -1.0291e+001 18554 114489,114567,114541
 1.7000e+000 114593 -3.9740e+001 -9.8142e+001 -1.8117e+001 18554 114463,114567,114489
 1.7000e+000 115043 -3.0434e+001 -1.0433e+002  2.6953e+000 18164 114795,114925,114821
 1.7000e+000 115020 -2.4516e+001 -1.1173e+002  7.1591e+000 18164 114769,114925,114795
 1.7000e+000 114997 -2.6727e+001 -1.0969e+002 -4.1978e-001 18164 115066,114873,114821
 1.7000e+000 114974 -2.4081e+001 -9.7082e+001 -1.1074e+000 18164 115066,114821,114925
 1.7000e+000 114951 -1.4952e+001 -1.0519e+002 -2.4235e-001 18164 114821,114873,114847
 1.7000e+000 115092 -3.3001e+001 -1.0044e+002 -7.4071e+000 18164 114899,114873,115066
 1.7000e+000 115115 -2.6046e+001 -8.1293e+001 -8.3673e+000 18164 114899,115066,114925
 1.7000e+000 115265 -3.0458e+001 -1.1927e+002  1.0806e+000 17852 115164,115216,115190
 1.7000e+000 115242 -2.9972e+001 -1.2331e+002  1.0915e+000 17852 115138,115216,115164
 1.7000e+000 115464 -2.3971e+001 -1.1679e+002  1.1370e+001 17346 115288,115366,115340
 1.7000e+000 115441 -9.1749e+001 -9.6922e+001  1.2004e+001 17346 115288,115392,115366
 1.7000e+000 115418 -3.1394e+001 -1.6078e+002 -6.5206e+000 17346 115288,115340,115314
 1.7000e+000 115736 -2.9057e+001 -1.0540e+002  3.4275e+000 16942 115563,115641,115615
 1.7000e+000 115713 -3.0109e+001 -1.0185e+002  1.6623e+000 16942 115511,115641,115563
 1.7000e+000 115690 -7.5394e+001 -1.2249e+002  7.5592e+000 16942 115563,115615,115589
 1.7000e+000 115667 -3.5779e+001 -1.1459e+002  3.6780e+000 16942 115511,115563,115537
 1.7000e+000 116091 -3.7844e+001 -1.0007e+002 -4.3439e+000 16388 115918,115970,115944
 1.7000e+000 116068 -3.2358e+001 -8.2527e+001 -3.1535e+000 16388 115918,115996,115970
 1.7000e+000 116045 -4.2353e+001 -9.8620e+001  1.3959e+000 16388 115892,115996,115918
 1.7000e+000 116022 -4.3789e+001 -1.0902e+002  1.0641e+000 16388 115866,115996,115892
 1.7000e+000 116192 -1.3188e+001 -1.3307e+002 -2.0330e+001 15810 116114,116166,116140
 1.7000e+000 116342 -1.8013e+001 -1.0364e+002  7.8834e+000 15419 116241,116293,116267
 1.7000e+000 116319 -2.0329e+001 -1.2706e+002 -7.9774e-001 15419 116215,116293,116241
 1.7000e+000 116445 -4.7557e+001 -1.0541e+002 -1.3341e+000 421 116367,116419,116393
 1.8000e+000 68477 -7.3127e+001 -1.0941e+002  3.1633e+000 68018 68327,68379,68353
 1.8000e+000 68454 -7.7715e+001 -1.4402e+002  1.3127e+001 68018 68301,68379,68327
 1.8000e+000 68431 -3.6200e+001 -1.6649e+002  2.8908e+001 68018 68301,68405,68379
 1.8000e+000 68578 -4.1878e+001 -1.1026e+002  1.2214e+000 67820 68500,68552,68526
 1.8000e+000 68728 -4.9663e+001 -1.0629e+002 -1.6226e+000 67508 68601,68653,68627
 1.8000e+000 68705 -8.2480e+001 -7.6242e+001 -1.5900e+001 67508 68601,68679,68653
 1.8000e+000 68927 -3.7406e+000 -8.4087e+001 -4.1936e+000 67310 68777,68829,68803
 1.8000e+000 68904 -2.0669e+001 -9.8216e+001  2.6429e+000 67310 68751,68829,68777
 1.8000e+000 68881 -2.6030e+001 -1.1143e+002  1.2492e+000 67310 68751,68855,68829
 1.8000e+000 69386 -4.2190e+001 -1.1924e+002 -6.9945e+000 67020 69216,69268,69242
 1.8000e+000 69363 -3.5563e+001 -8.7612e+001 -1.1783e+001 67020 69138,69268,69216
 1.8000e+000 69340 -2.7723e+001 -7.6687e+001 -4.8158e+000 67020 69112,69268,69138
 1.8000e+000 69317 -5.1363e+001 -1.0207e+002  8.1870e+000 67020 69138,69190,69164
 1.8000e+000 69294 -5.2926e+001 -9.1473e+001 -4.6030e+000 67020 69138,69216,69190
 1.8000e+000 69536 -7.7073e+001 -2.0762e+002 -1.3486e+001 66708 69435,69487,69461
 1.8000e+000 69513 -6.0568e+001 -2.3051e+002 -1.2133e+000 66708 69409,69487,69435
 1.8000e+000 69735 -4.7262e+001 -1.1960e+002  2.7682e+000 66346 69585,69637,69611
 1.8000e+000 69712 -3.8032e+001 -1.1568e+002  1.3696e-002 66346 69559,69637,69585
 1.8000e+000 69689 -3.2456e+001 -1.1349e+002 -1.2084e+001 66346 69559,69663,69637
 1.8000e+000 69985 -5.9383e+001 -1.2001e+002  3.1771e+000 66148 69786,69890,69864
 1.8000e+000 69962 -6.3113e+001 -1.2221e+002  4.2858e+000 66148 69760,69890,69786
 1.8000e+000 69939 -3.6169e+001 -1.1273e+002 -2.0040e+001 66148 69786,69864,69838
 1.8000e+000 69916 -4.9675e+001 -1.2707e+002 -5.5773e+000 66148 69786,69838,69812
 1.8000e+000 70137  7.7416e+000 -1.0298e+002 -6.9059e+000 65950 70036,70088,70062
 1.8000e+000 70114  2.4807e+001 -1.1834e+002  1.1766e+001 65950 70010,70088,70036
 1.8000e+000 70470  4.3023e+000 -7.9155e+001  1.9220e+000 65546 70245,70323,70271
 1.8000e+000 70447  1.2174e+000 -8.7115e+001  2.0541e+000 65546 70245,70375,70323
 1.8000e+000 70424  3.6996e+000 -1.0182e+002  6.3076e+000 65546 70323,70375,70349
 1.8000e+000 70401 -3.1482e+000 -8.2610e+001  3.1064e+000 65546 70271,70323,70297
 1.8000e+000 70620 -2.1493e+001 -1.1394e+002  6.4737e+000 65348 70493,70545,70519
 1.8000e+000 70597 -2.1221e+001 -1.2556e+002  3.9013e+000 65348 70493,70571,70545
 1.8000e+000 70721 -7.0389e+001 -1.2261e+002  1.8231e-001 65150 70643,70695,70669
 1.8000e+000 71020 -3.6652e+001 -7.8291e+001  3.7046e+000 64952 71043,70850,70824
 1.8000e+000 70997 -2.7606e+001 -6.5199e+001 -3.8033e+000 64952 71043,70824,70772
 1.8000e+000 70974 -2.4723e+001 -1.0540e+002  3.6869e+000 64952 71115,70746,70876
 1.8000e+000 70951 -3.3039e+001 -1.0447e+002  7.2950e+000 64952 70746,70902,70876
 1.8000e+000 70928 -3.2777e+001 -6.2913e+001 -5.8507e+000 64952 70772,70824,70798
 1.8000e+000 71069 -1.8791e+001 -6.8574e+001  9.4204e+000 64952 70876,70850,71043
 1.8000e+000 71092 -2.8984e+001 -9.3489e+001  1.9455e+000 64952 71115,70876,71043
 1.8000e+000 71141 -2.8111e+001 -9.2519e+001 -5.3972e+000 64952 70772,70746,71115
 1.8000e+000 71164 -2.6236e+001 -7.4102e+001 -8.2641e+000 64952 70772,71115,71043
 1.8000e+000 71365  1.9636e+001 -9.9614e+001 -5.0951e+000 64662 71215,71293,71267
 1.8000e+000 71342  4.6175e+001 -6.0993e+001 -1.9430e+001 64662 71189,71293,71215
 1.8000e+000 71319  3.9585e+001 -3.9081e+001 -7.5259e+000 64662 71215,71267,71241
 1.8000e+000 71615 -2.0657e+001 -1.0708e+002  7.6745e-001 64350 71710,71638,71468
 1.8000e+000 71592 -7.6792e+000 -9.9807e+001 -4.6401e+000 64350 71638,71416,71390
 1.8000e+000 71569 -2.6433e+001 -9.6319e+001  1.0360e+001 64350 71710,71468,71442
 1.8000e+000 71546  4.2383e+001 -9.6549e+001 -2.0346e+001 64350 71390,71520,71494
 1.8000e+000 71664 -1.3440e+001 -1.0299e+002 -2.8033e+000 64350 71494,71468,71638
 1.8000e+000 71687 -1.1820e+001 -1.0527e+002 -1.6282e+000 64350 71494,71638,71390
 1.8000e+000 71736 -9.2954e+000 -8.5051e+001 -3.2497e+000 64350 71416,71638,71710
 1.8000e+000 71759 -1.8068e+001 -7.7640e+001  8.1930e+000 64350 71416,71710,71442
 1.8000e+000 72318 -1.8131e+001 -1.6293e+002 -9.7925e+000 63837 71972,72024,71998
 1.8000e+000 72295 -2.5653e+001 -1.0271e+002 -3.3637e-001 63837 72341,71972,71946
 1.8000e+000 72272 -2.2724e+001 -8.0119e+001  6.8339e+000 63837 72413,72341,71946
 1.8000e+000 72249 -2.2829e+001 -7.1527e+001  4.4273e+000 63837 72413,71946,72128
 1.8000e+000 72226 -4.2683e+001 -8.3629e+001  2.9404e+000 63837 72024,72076,72050
 1.8000e+000 72203 -3.5161e+001 -7.4805e+001 -1.7305e+000 63837 72024,72102,72076
 1.8000e+000 72180 -1.9481e+001 -7.0765e+001  7.4787e+000 63837 71946,72154,72128
 1.8000e+000 72367 -4.0575e+001 -1.1327e+002 -2.2684e+001 63837 72024,71972,72341
 1.8000e+000 72390 -2.4979e+001 -8.5002e+001 -8.2896e+000 63837 72024,72341,72102
 1.8000e+000 72439 -1.8041e+001 -9.3799e+001  3.6737e+000 63837 72102,72341,72413
 1.8000e+000 72462 -1.7632e+001 -8.4373e+001  2.3716e+000 63837 72102,72413,72128
 1.8000e+000 72791 -3.9661e+001 -8.7007e+001 -8.8853e+000 63383 72592,72696,72670
 1.8000e+000 72768 -4.3237e+001 -8.4182e+001 -1.8815e+001 63383 72566,72696,72592
 1.8000e+000 72745 -4.3953e+001 -7.7717e+001 -3.6009e-001 63383 72592,72670,72618
 1.8000e+000 72722 -4.4314e+001 -7.3388e+001 -4.2353e+000 63383 72618,72670,72644
 1.8000e+000 73297 -5.4265e+001 -8.0072e+001 -1.0313e+000 63185 73000,73156,73130
 1.8000e+000 73274 -5.4688e+001 -8.3810e+001  1.0790e+001 63185 72974,73156,73000
 1.8000e+000 73251 -3.9854e+001 -9.2339e+001  1.4971e-001 63185 73000,73052,73026
 1.8000e+000 73228 -4.0247e+001 -8.0167e+001 -3.5946e+000 63185 73000,73130,73052
 1.8000e+000 73205 -4.2421e+001 -9.7840e+001 -1.4294e+001 63185 73052,73130,73104
 1.8000e+000 73182 -3.7196e+001 -1.0383e+002 -1.3915e+001 63185 73052,73104,73078
 1.8000e+000 73545 -1.0002e+001 -8.8086e+001  5.4044e-001 62781 73568,73398,73372
 1.8000e+000 73522  1.0956e+000 -7.7310e+001  7.2309e+000 62781 73568,73372,73346
 1.8000e+000 73499 -1.9660e+001 -9.2274e+001 -1.0932e+001 62781 73640,73320,73424
 1.8000e+000 73476  2.7790e+000 -8.4453e+001 -1.6445e+001 62781 73320,73450,73424
 1.8000e+000 73594 -9.2269e+000 -7.9778e+001 -1.1905e+000 62781 73424,73398,73568
 1.8000e+000 73617 -1.4002e+001 -8.7639e+001 -3.7240e+000 62781 73640,73424,73568
 1.8000e+000 73666 -1.5288e+001 -8.3349e+001 -3.6810e+000 62781 73346,73320,73640
 1.8000e+000 73689 -1.1849e+001 -7.6480e+001  2.9037e+000 62781 73346,73640,73568
 1.8000e+000 74035 -4.9580e+001 -1.1415e+002 -4.8948e+000 62363 74058,73868,73842
 1.8000e+000 74012 -3.7007e+001 -1.0335e+002 -1.0846e+001 62363 74130,74058,73842
 1.8000e+000 73989 -3.3918e+001 -1.0166e+002 -1.0064e+001 62363 74130,73842,73816
 1.8000e+000 73966 -5.3542e+001 -1.2013e+002  1.5760e+000 62363 74202,73764,73894
 1.8000e+000 73943 -6.7221e+001 -1.0676e+002  2.9838e+000 62363 73712,73894,73764
 1.8000e+000 73920 -7.4381e+001 -1.1254e+002 -1.0788e+000 62363 73712,73764,73738
 1.8000e+000 74084 -3.9955e+001 -1.0807e+002 -1.1897e+000 62363 73894,73868,74058
 1.8000e+000 74107 -4.9467e+001 -1.1461e+002  4.3005e+000 62363 74202,73894,74058
 1.8000e+000 74156 -4.0497e+001 -1.0298e+002  1.7604e+000 62363 73790,74058,74130
 1.8000e+000 74179 -2.3648e+001 -9.5063e+001  3.9880e+000 62363 73790,74130,73816
 1.8000e+000 74228 -5.7569e+001 -1.2194e+002 -6.2837e+000 62363 73790,73764,74202
 1.8000e+000 74251 -5.4175e+001 -1.1584e+002 -3.6523e+000 62363 73790,74202,74058
 1.8000e+000 74403  2.4755e+001 -1.1388e+002  9.4481e+000 62115 74426,74302,74276
 1.8000e+000 74380  2.9542e+001 -1.0903e+002  1.1499e+001 62115 74426,74276,74354
 1.8000e+000 74452  1.9413e+001 -1.0831e+002  8.6999e+000 62115 74328,74302,74426
 1.8000e+000 74475  2.4062e+001 -1.0337e+002  1.0779e+001 62115 74328,74426,74354
 1.8000e+000 74578  2.5108e+000 -1.1544e+002 -5.1754e+000 61825 74500,74552,74526
 1.8000e+000 74982 -5.1909e+001 -1.0150e+002  1.8617e-001 61513 75005,74734,74708
 1.8000e+000 74959 -5.1506e+001 -1.0111e+002  2.4018e-002 61513 75005,74708,74864
 1.8000e+000 74936 -6.7180e+001 -1.0651e+002  4.7771e+000 61513 75077,74812,74734
 1.8000e+000 74913 -5.3049e+001 -9.7808e+001 -7.3734e+000 61513 74734,74786,74760
 1.8000e+000 74890 -5.4884e+001 -9.6209e+001 -1.3210e+000 61513 74734,74812,74786
 1.8000e+000 75031 -4.9540e+001 -1.0510e+002  2.7631e-001 61513 75077,74734,75005
 1.8000e+000 75054 -3.5836e+001 -9.9022e+001  1.6509e+001 61513 74838,75005,74864
 1.8000e+000 75103 -7.6353e+001 -1.0832e+002  2.1373e+001 61513 74838,74812,75077
 1.8000e+000 75126 -6.5093e+001 -1.1119e+002  1.6793e+001 61513 74838,75077,75005
 1.8000e+000 75553 -2.0364e+001 -8.8348e+001 -1.9532e+000 61060 75576,75360,75308
 1.8000e+000 75530 -1.5782e+001 -9.7690e+001 -2.5887e-001 61060 75576,75308,75230
 1.8000e+000 75507 -1.9645e+001 -8.4074e+001  2.8043e+000 61060 75308,75360,75334
 1.8000e+000 75484 -2.0504e+001 -1.0817e+002  9.4737e-001 61060 75230,75308,75256
 1.8000e+000 75461 -2.3998e+001 -1.0646e+002 -3.8780e-001 61060 75256,75308,75282
 1.8000e+000 75438 -2.9677e+001 -8.6267e+001  1.2628e+001 61060 75360,75412,75386
 1.8000e+000 75602 -2.0280e+001 -9.5028e+001  2.0911e+000 61060 75412,75360,75576
 1.8000e+000 75625 -1.8350e+001 -1.0879e+002  3.0640e+000 61060 75412,75576,75230
 1.8000e+000 76052 -3.2951e+001 -9.0939e+001 -4.5289e-001 60442 75755,75859,75833
 1.8000e+000 76029 -3.2200e+001 -7.9066e+001 -1.3216e+001 60442 75729,75859,75755
 1.8000e+000 76006 -3.3728e+001 -8.1156e+001  4.0535e+000 60442 75755,75833,75807
 1.8000e+000 75983 -3.6533e+001 -9.6796e+001  4.9057e-001 60442 75755,75807,75781
 1.8000e+000 75960  3.0294e+000 -1.7216e+002  4.9474e+000 60442 75729,75911,75859
 1.8000e+000 75937 -8.0041e+001 -4.1620e+002  2.5725e+001 60442 75859,75911,75885
 1.8000e+000 76430 -3.3319e+001 -1.0144e+002 -8.1083e-001 59788 76453,76286,76234
 1.8000e+000 76407 -3.6490e+001 -1.1489e+002  4.3517e+000 59788 76453,76234,76182
 1.8000e+000 76384 -3.6733e+001 -6.7313e+001  1.6468e+001 59788 76525,76156,76312
 1.8000e+000 76361 -1.9915e+001 -1.3557e+002  2.0127e+000 59788 76182,76234,76208
 1.8000e+000 76338 -1.7014e+001 -9.2829e+001  2.6161e+000 59788 76234,76286,76260
 1.8000e+000 76479 -4.0593e+001 -1.0809e+002  2.8517e+000 59788 76312,76286,76453
 1.8000e+000 76502 -3.2846e+001 -9.9579e+001  7.1328e+000 59788 76525,76312,76453
 1.8000e+000 76551 -4.9729e+001 -1.0798e+002  1.7035e+001 59788 76182,76156,76525
 1.8000e+000 76574 -4.2326e+001 -1.1778e+002  1.0543e+001 59788 76182,76525,76453
 1.8000e+000 77031 -3.0331e+000 -5.3560e+001 -1.2667e+001 59448 76835,76887,76861
 1.8000e+000 77008  1.5854e+001 -3.8022e+001  1.3617e-001 59448 76835,76913,76887
 1.8000e+000 76985  3.5643e+000 -3.9438e+001  1.1422e+001 59448 76809,76913,76835
 1.8000e+000 76962 -1.9665e+001 -4.7298e+001 -5.4619e+000 59448 76757,76913,76809
 1.8000e+000 76939 -1.2328e+001 -4.4527e+001 -8.3601e+000 59448 76757,76809,76783
 1.8000e+000 77537 -4.3681e+001 -9.8321e+001  3.4819e+000 58994 77560,77344,77292
 1.8000e+000 77514 -5.9363e+001 -9.6964e+001  5.6709e-001 58994 77560,77292,77240
 1.8000e+000 77491 -3.4657e+001 -9.1284e+001 -4.4295e+000 58994 77632,77214,77370
 1.8000e+000 77468 -7.1573e+001 -1.1160e+002  1.8505e+001 58994 77292,77344,77318
 1.8000e+000 77445 -3.6239e+001 -1.1123e+002  7.8859e-001 58994 77214,77396,77370
 1.8000e+000 77422 -6.0735e+001 -1.0396e+002 -3.8373e+000 58994 77240,77292,77266
 1.8000e+000 77586 -4.8738e+001 -9.9600e+001  4.6221e+000 58994 77370,77344,77560
 1.8000e+000 77609 -4.5645e+001 -9.7962e+001  5.3281e+000 58994 77632,77370,77560
 1.8000e+000 77658 -2.8440e+001 -8.3774e+001 -1.4495e+001 58994 77240,77214,77632
 1.8000e+000 77681 -3.6434e+001 -8.2454e+001 -5.6396e+000 58994 77240,77632,77560
 1.8000e+000 78138 -2.0794e+001 -5.7198e+001  1.0118e+001 58440 77864,77994,77890
 1.8000e+000 78115 -1.2000e+001 -2.7044e+001 -7.8630e+000 58440 77864,78020,77994
 1.8000e+000 78092 -2.6463e+001 -6.8997e+001 -1.2901e+001 58440 77942,77994,77968
 1.8000e+000 78069 -1.5156e+001 -6.7227e+001 -3.2676e-001 58440 77890,77994,77942
 1.8000e+000 78046 -3.3228e+000 -7.2673e+001 -9.5347e+000 58440 77890,77942,77916
 1.8000e+000 78467 -7.5362e+000 -9.4696e+001  3.9727e+000 57928 78562,78490,78346
 1.8000e+000 78444 -1.9323e+001 -8.6484e+001  6.5568e+000 57928 78490,78294,78268
 1.8000e+000 78421 -4.4131e+000 -9.7377e+001  6.5689e+000 57928 78562,78346,78320
 1.8000e+000 78398 -1.0295e+001 -8.9407e+001  9.4338e-001 57928 78242,78372,78268
 1.8000e+000 78516 -2.1152e+001 -1.1844e+002 -5.4906e+000 57928 78372,78346,78490
 1.8000e+000 78539 -1.3856e+001 -8.8404e+001  3.1139e-001 57928 78372,78490,78268
 1.8000e+000 78588 -2.1602e+001 -9.4806e+001  2.7814e+000 57928 78294,78490,78562
 1.8000e+000 78611 -1.2668e+001 -9.0929e+001  7.6330e+000 57928 78294,78562,78320
 1.8000e+000 79068 -5.0693e+001 -1.3047e+002 -3.4155e+001 57467 78794,78924,78820
 1.8000e+000 79045 -3.5149e+001 -1.2427e+002 -3.5273e+001 57467 78794,78950,78924
 1.8000e+000 79022  5.1155e+000 -1.0410e+002  6.8100e+000 57467 78820,78898,78872
 1.8000e+000 78999 -3.8007e+001 -1.5469e+002 -2.1783e+001 57467 78820,78924,78898
 1.8000e+000 78976 -3.0687e+000 -1.0952e+002  1.0194e+001 57467 78820,78872,78846
 1.8000e+000 79446 -4.8705e+001 -1.0726e+002  3.3267e+000 57120 79172,79302,79250
 1.8000e+000 79423 -4.3728e+001 -1.0473e+002 -5.2671e+000 57120 79172,79328,79302
 1.8000e+000 79400 -4.5873e+001 -9.3231e+001  7.2423e-002 57120 79172,79250,79198
 1.8000e+000 79377 -2.9004e+001 -1.4615e+002  8.9383e+000 57120 79250,79302,79276
 1.8000e+000 79354 -6.0956e+001 -1.0471e+002 -5.7317e+000 57120 79198,79250,79224
 1.8000e+000 79952 -5.3400e+001 -9.9523e+001  3.7783e+000 56773 79629,79785,79655
 1.8000e+000 79929 -6.3126e+000 -8.4935e+001  8.0099e+000 56773 79629,79811,79785
 1.8000e+000 79906 -3.4952e+001 -1.1908e+002  1.1803e+001 56773 79655,79733,79681
 1.8000e+000 79883 -3.5315e+001 -1.0005e+002  3.2051e+000 56773 79655,79785,79733
 1.8000e+000 79860 -2.7445e+001 -1.3557e+002 -2.1938e+001 56773 79733,79785,79759
 1.8000e+000 79837  2.5266e+000 -1.0135e+002  3.5128e+001 56773 79681,79733,79707
 1.8000e+000 80281 -3.2126e+001 -9.0384e+001 -1.4280e+001 56319 80108,80160,80134
 1.8000e+000 80258 -2.3676e+001 -9.2486e+001 -1.2375e+001 56319 80056,80160,80108
 1.8000e+000 80235 -1.2591e+001 -8.3213e+001  3.7735e+000 56319 80056,80186,80160
 1.8000e+000 80212 -2.6761e+001 -1.3019e+002 -1.4991e+001 56319 80056,80108,80082
 1.8000e+000 80738 -1.1785e+001 -9.4955e+001  8.0270e+000 55957 80516,80620,80594
 1.8000e+000 80715 -2.9433e+001 -8.2935e+001  8.1242e+000 55957 80464,80620,80516
 1.8000e+000 80692 -2.5470e+001 -1.0085e+002  5.4940e+000 55957 80761,80568,80542
 1.8000e+000 80669 -1.8623e+001 -1.0069e+002  6.1518e+000 55957 80761,80542,80516
 1.8000e+000 80646 -2.9558e+001 -8.2922e+001  1.6265e+001 55957 80464,80516,80490
 1.8000e+000 80787 -3.1076e+001 -1.0121e+002  4.6106e+000 55957 80594,80568,80761
 1.8000e+000 80810 -2.4759e+001 -1.0135e+002  5.4068e+000 55957 80594,80761,80516
 1.8000e+000 81210 -1.0781e+001 -9.5428e+001 -8.2701e+000 55317 80936,80988,80962
 1.8000e+000 81187 -9.2805e+000 -1.0201e+002 -3.2370e+000 55317 80936,81066,80988
 1.8000e+000 81164 -1.0238e+001 -1.1149e+002  9.3069e-002 55317 80936,81092,81066
 1.8000e+000 81141 -3.4107e+001 -1.1491e+002 -1.1617e+001 55317 80988,81066,81014
 1.8000e+000 81118  4.4925e+000 -6.8294e+001  6.0151e+000 55317 81014,81066,81040
 1.8000e+000 81539 -3.5433e+001 -9.8621e+001  1.4827e+000 54913 81340,81418,81392
 1.8000e+000 81516 -2.3849e+000 -7.8190e+001 -8.4847e+000 54913 81340,81444,81418
 1.8000e+000 81493 -8.0864e+000 -8.3859e+001 -1.8693e+001 54913 81314,81444,81340
 1.8000e+000 81470 -4.2194e+001 -1.1861e+002 -2.6655e+000 54913 81340,81392,81366
 1.8000e+000 81787 -1.5656e+001 -1.0779e+002 -3.2745e+000 54601 81588,81692,81640
 1.8000e+000 81764 -3.8507e+001 -1.0552e+002 -7.2605e+000 54601 81562,81692,81588
 1.8000e+000 81741 -1.2805e+001 -1.1130e+002  1.4375e+001 54601 81588,81640,81614
 1.8000e+000 81718 -1.4185e+001 -1.3812e+002 -2.2733e+001 54601 81640,81692,81666
 1.8000e+000 82344 -3.5438e+001 -1.2290e+002 -1.4065e+001 54090 81998,82102,82076
 1.8000e+000 82321 -5.4455e+001 -1.3136e+002 -8.3938e+000 54090 81998,82154,82102
 1.8000e+000 82298 -4.5839e+001 -1.2818e+002 -6.4577e+000 54090 81972,82154,81998
 1.8000e+000 82275 -4.4497e+001 -1.1517e+002 -1.5780e+001 54090 81998,82076,82024
 1.8000e+000 82252 -5.9732e+001 -1.3806e+002  4.3086e+000 54090 81972,82180,82154
 1.8000e+000 82229 -7.6752e+001 -1.5244e+002  4.8829e+000 54090 82102,82154,82128
 1.8000e+000 82206  3.2398e+001 -8.2520e+001 -2.1536e+001 54090 82024,82076,82050
 1.8000e+000 82722 -6.7936e+001 -1.2751e+002 -5.9031e+000 53579 82500,82578,82552
 1.8000e+000 82699 -5.0903e+001 -1.1834e+002  9.1577e-001 53579 82448,82578,82500
 1.8000e+000 82676 -5.7691e+001 -1.3051e+002  3.5854e+000 53579 82448,82500,82474
 1.8000e+000 82653 -6.5075e+001 -1.2692e+002  1.1459e+001 53579 82448,82604,82578
 1.8000e+000 82630 -3.2850e+001 -1.1928e+002 -7.4121e+000 53579 82500,82552,82526
 1.8000e+000 83356 -2.6648e+001 -9.0145e+001 -7.7691e+000 53189 83379,83088,83036
 1.8000e+000 83333 -2.5537e+001 -1.0216e+002 -6.8718e+000 53189 83379,83036,82984
 1.8000e+000 83310 -4.7816e+000 -9.2274e+001  2.2804e+001 53189 82984,83192,83166
 1.8000e+000 83287  9.4093e+000 -7.5674e+001 -7.3026e+000 53189 83036,83088,83062
 1.8000e+000 83264 -2.2386e+001 -1.3025e+002 -1.4621e+001 53189 82984,83036,83010
 1.8000e+000 83241 -8.2294e+000 -1.1066e+002  5.2164e+000 53189 83114,83166,83140
 1.8000e+000 83218 -4.2126e+001 -1.2049e+002  5.2787e+000 53189 83088,83166,83114
 1.8000e+000 83405 -2.6711e+001 -9.8188e+001 -2.8245e+000 53189 83166,83088,83379
 1.8000e+000 83428 -2.3812e+001 -1.0879e+002 -2.6855e+000 53189 83166,83379,82984
 1.8000e+000 83725 -3.8086e+001 -1.3426e+002 -9.9091e+000 52585 83748,83529,83503
 1.8000e+000 83702 -1.7802e+001 -1.2654e+002 -6.8678e+000 52585 83820,83748,83503
 1.8000e+000 83679  4.9031e+000 -1.2251e+002 -5.1350e+000 52585 83820,83503,83477
 1.8000e+000 83656 -2.1890e+001 -1.1764e+002  1.8342e+001 52585 83477,83607,83581
 1.8000e+000 83633  5.6367e+000 -1.0693e+002  1.6213e+001 52585 83451,83607,83477
 1.8000e+000 83774 -3.1394e+001 -1.1680e+002 -6.7879e+000 52585 83555,83529,83748
 1.8000e+000 83797 -5.3219e+001 -1.2486e+002 -3.3867e+000 52585 83555,83748,83581
 1.8000e+000 83846 -3.9176e+001 -1.1540e+002  4.7087e+000 52585 83581,83748,83820
 1.8000e+000 83869 -2.2362e+001 -1.1485e+002  4.1043e+000 52585 83581,83820,83477
 1.8000e+000 84200 -4.0637e+001 -1.2799e+002 -2.3538e+000 52024 84001,84105,84079
 1.8000e+000 84177 -2.0887e+001 -1.2512e+002 -8.4049e+000 52024 83975,84105,84001
 1.8000e+000 84154 -3.6056e+001 -1.2696e+002 -2.3241e+000 52024 84001,84079,84053
 1.8000e+000 84131 -2.1539e+001 -8.8865e+001  1.6046e+001 52024 84001,84053,84027
 1.8000e+000 84399 -2.2051e+001 -1.1179e+002 -7.9041e-001 51470 84422,84275,84249
 1.8000e+000 84376 -2.2372e+001 -1.1173e+002 -8.6617e-001 51470 84422,84249,84223
 1.8000e+000 84353 -2.4422e+001 -1.2467e+002 -1.7282e+001 51470 84275,84327,84301
 1.8000e+000 84448 -2.1736e+001 -1.1180e+002 -8.5871e-001 51470 84327,84275,84422
 1.8000e+000 84471 -2.2087e+001 -1.1176e+002 -9.0635e-001 51470 84327,84422,84223
 1.8000e+000 84753 -3.9336e+001 -1.1487e+002 -9.3786e-001 51073 84603,84655,84629
 1.8000e+000 84730 -8.1977e+001 -1.3015e+002 -1.9629e+000 51073 84776,84655,84603
 1.8000e+000 84707 -2.1057e+001 -1.0417e+002 -2.6650e+001 51073 84577,84681,84655
 1.8000e+000 84802 -4.7921e+001 -1.1057e+002 -1.3324e+001 51073 84577,84655,84776
 1.8000e+000 85178 -6.3537e+001 -1.4078e+002  1.4235e+001 50519 85201,85008,84982
 1.8000e+000 85155 -5.9654e+001 -1.2986e+002  1.1208e+001 50519 85273,85201,84982
 1.8000e+000 85132 -5.5493e+001 -1.2967e+002  8.5814e+000 50519 85273,84982,84930
 1.8000e+000 85109 -5.4011e+001 -1.2531e+002  7.4614e+000 50519 84930,84982,84956
 1.8000e+000 85086 -5.4460e+001 -1.3676e+002  8.3854e+000 50519 85008,85060,85034
 1.8000e+000 85227 -5.2094e+001 -1.3366e+002  7.1088e+000 50519 85060,85008,85201
 1.8000e+000 85250 -5.8894e+001 -1.3604e+002  5.0012e+000 50519 85060,85201,84904
 1.8000e+000 85299 -5.5432e+001 -1.3216e+002  3.2115e+000 50519 84904,85201,85273
 1.8000e+000 85322 -4.0259e+001 -1.1247e+002 -3.5527e+000 50519 84904,85273,84930
 1.8000e+000 85958 -2.5890e+001 -1.0812e+002 -2.6691e+000 50093 85981,85768,85716
 1.8000e+000 85935 -2.2045e+001 -9.8489e+001 -2.9739e+000 50093 85981,85716,85612
 1.8000e+000 85912 -3.0518e+001 -9.4749e+001  8.8329e-001 50093 85612,85716,85664
 1.8000e+000 85889 -1.6210e+001 -1.0549e+002  3.2735e-002 50093 85716,85768,85742
 1.8000e+000 85866 -3.3172e+001 -8.1724e+001 -1.5381e+001 50093 85664,85716,85690
 1.8000e+000 85843  2.1496e+001 -6.8533e+001 -8.1664e+000 50093 85586,85794,85612
 1.8000e+000 85820 -2.0422e+001 -1.3743e+002  9.0721e+000 50093 85612,85664,85638
 1.8000e+000 86007 -3.3439e+001 -1.1617e+002 -1.6228e+001 50093 85794,85768,85981
 1.8000e+000 86030 -2.1653e+001 -8.8488e+001 -1.3142e+001 50093 85794,85981,85612
 1.8000e+000 86131 -2.6887e+001 -1.2750e+002  1.7490e+001 49895 86053,86105,86079
 1.8000e+000 86639 -1.3546e+001 -7.4628e+001 -1.1508e+001 49391 86662,86394,86368
 1.8000e+000 86616 -1.6961e+001 -9.0637e+001 -8.3583e+000 49391 86662,86368,86342
 1.8000e+000 86593  1.1449e+000 -8.3951e+001  5.6372e+000 49391 86342,86498,86472
 1.8000e+000 86570  2.1595e+001 -9.7046e+001  6.5558e+000 49391 86316,86498,86342
 1.8000e+000 86547 -4.0250e+001 -1.3601e+002 -1.0712e+000 49391 86394,86472,86446
 1.8000e+000 86524  9.8877e+000 -1.3312e+002  5.1557e+000 49391 86394,86446,86420
 1.8000e+000 86688 -2.0477e+001 -8.9383e+001 -4.7549e+000 49391 86472,86394,86662
 1.8000e+000 86711 -1.4627e+001 -9.5922e+001 -3.5992e+000 49391 86472,86662,86342
 1.8000e+000 87089 -3.5942e+001 -1.1432e+002  4.2479e+000 48987 86815,86919,86867
 1.8000e+000 87066 -3.7085e+001 -1.1864e+002  6.3544e+000 48987 86815,86971,86919
 1.8000e+000 87043 -1.1909e+001 -1.2551e+002 -9.1311e+000 48987 86867,86919,86893
 1.8000e+000 87020 -4.0430e+001 -1.2790e+002  1.4484e+001 48987 86815,86867,86841
 1.8000e+000 86997 -4.2773e+001 -1.0044e+002  1.9203e+001 48987 86919,86971,86945
 1.8000e+000 87467 -7.7083e+001 -1.1199e+002  7.6915e+000 48540 87490,87245,87219
 1.8000e+000 87444 -5.5036e+001 -1.0415e+002  2.3802e+000 48540 87562,87490,87219
 1.8000e+000 87421 -3.9346e+001 -9.7713e+001  5.8826e+000 48540 87562,87219,87349
 1.8000e+000 87398 -5.9681e+001 -8.8214e+001 -6.7821e-001 48540 87245,87297,87271
 1.8000e+000 87375 -3.2760e+001 -1.0481e+002  3.9137e+000 48540 87193,87349,87219
 1.8000e+000 87516 -5.2530e+001 -1.0468e+002  5.5261e+000 48540 87297,87245,87490
 1.8000e+000 87539 -5.5830e+001 -1.0887e+002  7.9532e+000 48540 87297,87490,87323
 1.8000e+000 87588 -4.0148e+001 -9.9782e+001  1.3028e+001 48540 87323,87490,87562
 1.8000e+000 87611 -3.2231e+001 -1.0029e+002  1.5209e+001 48540 87323,87562,87349
 1.8000e+000 87810 -3.3006e+001 -1.9996e+002 -2.4236e+001 48136 87660,87712,87686
 1.8000e+000 87787 -1.4243e+001 -1.1896e+002 -1.0328e+001 48136 87660,87738,87712
 1.8000e+000 87764 -7.1931e+001 -1.2725e+002 -2.5436e+001 48136 87634,87738,87660
 1.8000e+000 88205 -4.4682e+001 -1.2280e+002 -9.9291e+000 47210 88300,88228,87937
 1.8000e+000 88182 -3.8881e+001 -1.2325e+002 -2.0101e+000 47210 88228,87833,88041
 1.8000e+000 88159 -4.5203e+001 -1.3122e+002 -1.6495e+001 47210 88300,87937,87911
 1.8000e+000 88136 -4.2980e+001 -1.2383e+002 -1.3335e+001 47210 87833,87911,87859
 1.8000e+000 88113 -7.5197e+001 -1.0104e+002 -9.4844e+000 47210 87937,87989,87963
 1.8000e+000 88090 -4.3480e+001 -1.0399e+002  2.7149e+001 47210 87989,88041,88015
 1.8000e+000 88067 -4.8453e+001 -1.3735e+002 -1.5799e+001 47210 87859,87911,87885
 1.8000e+000 88254 -3.9746e+001 -9.5622e+001 -1.1961e+001 47210 87989,87937,88228
 1.8000e+000 88277 -5.1998e+001 -1.1685e+002 -2.6780e+000 47210 87989,88228,88041
 1.8000e+000 88326 -3.5611e+001 -1.1446e+002 -3.3810e+000 47210 87833,88228,88300
 1.8000e+000 88349 -3.7729e+001 -1.2027e+002 -1.0383e+001 47210 87833,88300,87911
 1.8000e+000 88780 -8.1894e+001 -1.4487e+002 -2.4378e+001 46642 88803,88509,88483
 1.8000e+000 88757 -6.1776e+001 -1.3102e+002 -9.9570e+000 46642 88803,88483,88639
 1.8000e+000 88734 -6.6919e+001 -1.0601e+002 -1.4882e+001 46642 88875,88561,88509
 1.8000e+000 88711 -6.5374e+001 -9.8058e+001 -2.5214e+000 46642 88509,88561,88535
 1.8000e+000 88688 -2.7898e+001 -1.4525e+002  1.2950e+001 46642 88457,88639,88483
 1.8000e+000 88665 -7.6885e+001 -1.6840e+002 -5.6503e+000 46642 88561,88613,88587
 1.8000e+000 88829 -6.5828e+001 -1.1610e+002 -1.6796e+001 46642 88875,88509,88803
 1.8000e+000 88852 -6.5658e+001 -1.3691e+002 -8.0588e+000 46642 88613,88803,88639
 1.8000e+000 88901 -5.7043e+001 -1.1954e+002 -6.8125e+000 46642 88613,88561,88875
 1.8000e+000 88924 -6.0877e+001 -1.3596e+002 -8.1354e+000 46642 88613,88875,88803
 1.8000e+000 89253 -2.5108e+001 -1.2461e+002  2.6911e-001 46444 89080,89158,89132
 1.8000e+000 89230 -2.5888e+001 -1.2561e+002 -1.6160e+000 46444 89028,89158,89080
 1.8000e+000 89207 -1.3597e+001 -1.1733e+002 -5.3982e+000 46444 89028,89080,89054
 1.8000e+000 89184 -1.1261e+001 -1.3143e+002 -9.8472e+000 46444 89080,89132,89106
 1.8000e+000 89631 -1.8199e+001 -7.2583e+001  1.5765e+000 46040 89383,89461,89435
 1.8000e+000 89608 -2.0423e+001 -8.0573e+001 -3.4099e+000 46040 89383,89487,89461
 1.8000e+000 89585 -2.0371e+001 -9.3576e+001 -2.6413e+000 46040 89383,89435,89409
 1.8000e+000 89562 -1.9043e+001 -7.3301e+001 -6.4584e+000 46040 89383,89513,89487
 1.8000e+000 89539  1.0987e+001 -5.4865e+001 -2.3448e+001 46040 89357,89513,89383
 1.8000e+000 90009 -2.2504e+001 -1.0094e+002  2.2339e+000 45636 89813,89891,89839
 1.8000e+000 89986 -2.1477e+001 -8.6022e+001  1.0012e+001 45636 89787,89891,89813
 1.8000e+000 89963 -1.8976e+001 -9.0549e+001 -1.1290e+000 45636 89839,89891,89865
 1.8000e+000 89940 -3.3422e+001 -1.0064e+002  4.6548e+000 45636 89735,89891,89787
 1.8000e+000 89917 -2.7490e+001 -9.9332e+001 -5.1430e-002 45636 89735,89787,89761
 1.8000e+000 90208 -1.8036e+001 -7.7014e+001 -1.9935e+001 45175 90231,90058,90032
 1.8000e+000 90185 -5.5886e+000 -6.8358e+001 -2.9207e+001 45175 90231,90032,90136
 1.8000e+000 90162 -2.4836e+001 -5.9328e+001 -1.3309e+000 45175 90058,90110,90084
 1.8000e+000 90257 -3.1256e+001 -8.8783e+001 -4.4872e+000 45175 90110,90058,90231
 1.8000e+000 90280 -7.7409e+000 -7.3702e+001 -1.4900e+001 45175 90110,90231,90136
 1.8000e+000 90528 -1.8172e+001 -7.4564e+001 -1.0276e+001 44513 90695,90551,90407
 1.8000e+000 90505 -2.2205e+001 -7.1521e+001 -5.2919e+000 44513 90551,90355,90329
 1.8000e+000 90482 -2.5799e+001 -6.3298e+001 -7.2878e+000 44513 90623,90303,90433
 1.8000e+000 90459 -1.1232e+001 -7.0005e+001 -8.2499e+000 44513 90695,90407,90381
 1.8000e+000 90577 -3.0228e+001 -7.8729e+001 -1.6255e+001 44513 90433,90407,90551
 1.8000e+000 90600 -2.4598e+001 -7.0428e+001 -7.7030e+000 44513 90623,90433,90551
 1.8000e+000 90649 -2.9468e+001 -7.1273e+001 -6.1122e+000 44513 90329,90303,90623
 1.8000e+000 90672 -2.6729e+001 -7.3961e+001 -6.6965e+000 44513 90329,90623,90551
 1.8000e+000 90721 -2.5651e+001 -6.9027e+001 -1.1083e+001 44513 90355,90551,90695
 1.8000e+000 90744 -2.3136e+001 -6.7542e+001 -1.0426e+001 44513 90355,90695,90381
 1.8000e+000 91077  1.2263e+001 -6.6498e+001  1.6561e+001 44059 91100,90930,90904
 1.8000e+000 91054 -3.2495e+001 -8.9944e+001  7.1549e+000 44059 91100,90904,90982
 1.8000e+000 91031 -4.4197e+001 -9.0422e+001  1.4669e+000 44059 90878,90982,90904
 1.8000e+000 91008 -1.1823e+001 -7.5814e+001  5.5777e+000 44059 90852,90982,90878
 1.8000e+000 91126 -6.2170e+001 -8.9998e+001  6.2301e+000 44059 91172,91100,90956
 1.8000e+000 91149 -3.0086e+001 -8.5266e+001  3.2151e+000 44059 90956,91100,90982
 1.8000e+000 91198 -6.5514e+000 -6.6162e+001 -1.0838e+001 44059 90930,91100,91172
 1.8000e+000 91677 -4.4798e+001 -7.5634e+001  7.9933e+000 43549 91455,91533,91481
 1.8000e+000 91654 -1.4002e+001 -7.3036e+001  1.2031e+001 43549 91429,91533,91455
 1.8000e+000 91631 -4.2742e+001 -7.3121e+001  5.6367e+000 43549 91481,91533,91507
 1.8000e+000 91608 -5.1659e+000 -6.9394e+001  7.6973e+000 43549 91429,91559,91533
 1.8000e+000 91585  1.6762e+001 -2.4379e+001  1.4703e+001 43549 91403,91559,91429
 1.8000e+000 92006 -3.7271e+001 -1.0544e+002  3.2811e+000 43059 91781,91885,91807
 1.8000e+000 91983 -3.5354e+001 -9.1300e+001  1.8370e+001 43059 91781,91911,91885
 1.8000e+000 91960 -3.2717e+001 -1.0386e+002  2.7909e+000 43059 91807,91885,91833
 1.8000e+000 91937 -1.4277e+001 -9.6671e+001  6.5416e-001 43059 91833,91885,91859
 1.8000e+000 92561 -3.7753e+001 -7.8040e+001 -7.6864e+000 42598 92584,92215,92189
 1.8000e+000 92538 -3.9709e+001 -8.7989e+001 -7.9471e+000 42598 92656,92584,92189
 1.8000e+000 92515 -3.4069e+001 -9.9719e+001 -1.9756e+000 42598 92656,92189,92397
 1.8000e+000 92492 -4.3892e+001 -6.7778e+001 -9.3768e+000 42598 92241,92319,92293
 1.8000e+000 92469 -3.9974e+001 -8.4757e+001  5.7045e+000 42598 92319,92397,92371
 1.8000e+000 92446 -1.7018e+001 -1.0468e+002  4.0120e+001 42598 92319,92371,92345
 1.8000e+000 92423 -4.5315e+001 -7.2337e+001 -1.6661e+001 42598 92241,92293,92267
 1.8000e+000 92610 -3.8282e+001 -7.8211e+001 -7.6292e+000 42598 92241,92215,92584
 1.8000e+000 92633 -3.5186e+001 -7.1286e+001 -9.9807e+000 42598 92241,92584,92319
 1.8000e+000 92682 -3.4210e+001 -7.1866e+001 -4.8534e+000 42598 92319,92584,92656
 1.8000e+000 92705 -2.6649e+001 -8.0352e+001 -2.3988e-001 42598 92319,92656,92397
 1.8000e+000 92953 -3.4955e+001 -1.1440e+002  9.0507e+000 42094 92976,92806,92780
 1.8000e+000 92930 -4.0883e+001 -1.0478e+002  1.1214e+000 42094 92976,92780,92754
 1.8000e+000 92907  5.6703e+000 -1.0960e+002 -2.8959e-001 42094 93048,92832,92806
 1.8000e+000 92884 -5.5695e+001 -1.0041e+002 -9.1408e+000 42094 92728,92858,92754
 1.8000e+000 93002 -1.6083e+001 -1.0294e+002  4.1139e+000 42094 93048,92806,92976
 1.8000e+000 93025 -3.5134e+001 -1.0124e+002 -3.1013e+000 42094 92858,92976,92754
 1.8000e+000 93074 -2.4285e+001 -1.2111e+002 -1.4698e+000 42094 92858,92832,93048
 1.8000e+000 93097 -4.2250e+001 -1.1237e+002  1.1672e+000 42094 92858,93048,92976
 1.8000e+000 93605 -3.8288e+001 -1.2643e+002 -1.6111e+000 41846 93628,93412,93386
 1.8000e+000 93582 -3.2231e+001 -9.7658e+001  2.8804e-001 41846 93628,93386,93308
 1.8000e+000 93559 -4.4422e+001 -1.0020e+002 -1.3746e+001 41846 93700,93464,93438
 1.8000e+000 93536 -5.0019e+001 -1.2431e+002  8.9640e+000 41846 93308,93386,93334
 1.8000e+000 93513 -5.0724e+001 -1.2085e+002  7.3432e+000 41846 93334,93386,93360
 1.8000e+000 93490 -4.3531e+001 -7.9422e+001 -9.4186e+000 41846 93282,93464,93308
 1.8000e+000 93654 -2.8110e+001 -1.0291e+002 -7.4180e+000 41846 93438,93412,93628
 1.8000e+000 93677 -4.4058e+001 -1.0136e+002 -6.5448e+000 41846 93700,93438,93628
 1.8000e+000 93726 -4.1495e+001 -9.1187e+001 -1.1864e+001 41846 93308,93464,93700
 1.8000e+000 93749 -3.9881e+001 -8.9502e+001 -4.7236e+000 41846 93308,93700,93628
 1.8000e+000 94255 -3.1620e+001 -1.0757e+002  8.4962e+000 41385 93958,94114,94088
 1.8000e+000 94232 -2.5325e+001 -1.1225e+002  6.0985e+000 41385 93932,94114,93958
 1.8000e+000 94209 -6.0621e+001 -1.2719e+002  2.4264e+001 41385 93958,94088,94062
 1.8000e+000 94186 -6.3906e+001 -9.3262e+001  1.9283e+001 41385 93958,94062,93984
 1.8000e+000 94163 -5.0083e+001 -8.8588e+001  1.9107e+001 41385 93984,94062,94036
 1.8000e+000 94140 -3.3691e+001 -1.1637e+002  2.4192e+001 41385 93984,94036,94010
 1.8000e+000 94476 -1.6203e+001 -1.4486e+002 -1.0419e+001 40881 94326,94378,94352
 1.8000e+000 94453  1.9928e+001 -9.9301e+001  5.5751e+000 40881 94300,94378,94326
 1.8000e+000 94430 -1.3192e+001 -1.0217e+002  4.9046e-001 40881 94300,94404,94378
 1.8000e+000 94626 -3.1039e+001 -7.8802e+001  3.9104e+000 40591 94649,94551,94525
 1.8000e+000 94603 -4.3835e+000 -5.9702e+001  1.7825e+000 40591 94781,94577,94551
 1.8000e+000 94675  2.3326e-002 -6.3175e+001 -4.5405e+000 40591 94781,94551,94649
 1.8000e+000 94807  5.9799e+000 -5.4067e+001  3.9449e+000 40591 94499,94577,94781
 1.8000e+000 94830  9.3856e+000 -5.8848e+001 -3.2006e+000 40591 94499,94781,94649
 1.8000e+000 95336 -6.7643e+001 -9.7305e+001 -1.4302e+001 40187 95013,95169,95039
 1.8000e+000 95313 -3.5816e+001 -8.9792e+001 -7.4031e+000 40187 95013,95195,95169
 1.8000e+000 95290 -2.5795e+001 -9.8616e+001  3.7775e+000 40187 95039,95143,95065
 1.8000e+000 95267 -7.2749e+001 -1.1463e+002 -1.9382e+001 40187 95039,95169,95143
 1.8000e+000 95244 -4.9738e+001 -1.3076e+002 -8.0384e+000 40187 95091,95143,95117
 1.8000e+000 95221 -2.2266e+001 -9.1430e+001  5.7070e+000 40187 95065,95143,95091
 1.8000e+000 95665 -3.6876e+001 -8.6759e+001  1.6113e+001 39626 95466,95570,95544
 1.8000e+000 95642 -4.5914e+001 -7.5200e+001  1.1421e+001 39626 95440,95570,95466
 1.8000e+000 95619 -3.2915e+001 -8.7406e+001  6.6397e+000 39626 95466,95544,95492
 1.8000e+000 95596 -5.8919e+001 -8.3541e+001  6.5095e+000 39626 95492,95544,95518
 1.8000e+000 95913 -3.4453e+001 -8.8723e+001 -1.3843e+001 39136 96080,95936,95766
 1.8000e+000 95890 -2.5143e+001 -9.7558e+001 -6.4071e+000 39136 95936,95714,95688
 1.8000e+000 95867 -6.8112e+001 -9.6439e+001  4.9747e+000 39136 96008,95792,95766
 1.8000e+000 95844 -2.6019e+001 -8.5546e+001 -1.1216e+001 39136 96080,95766,95740
 1.8000e+000 95962 -5.2248e+001 -1.0063e+002 -8.3708e+000 39136 96008,95766,95936
 1.8000e+000 95985 -3.0617e+001 -1.1822e+002 -1.0529e+000 39136 95818,95936,95688
 1.8000e+000 96034 -2.9647e+001 -7.9639e+001  7.9950e+000 39136 95818,95792,96008
 1.8000e+000 96057 -2.5482e+001 -8.8221e+001 -5.2304e+000 39136 95818,96008,95936
 1.8000e+000 96106 -3.0835e+001 -8.9685e+001 -1.8576e+000 39136 95714,95936,96080
 1.8000e+000 96129 -1.6978e+001 -8.5155e+001 -1.3922e-001 39136 95714,96080,95740
 1.8000e+000 96350 -2.5816e+001 -8.1676e+001 -1.8763e+000 38824 96200,96278,96252
 1.8000e+000 96327 -2.8002e+001 -8.2059e+001 -1.5116e+000 38824 96174,96278,96200
 1.8000e+000 96304 -2.4285e+001 -8.3220e+001 -2.2716e+000 38824 96200,96252,96226
 1.8000e+000 96830 -5.1828e+001 -9.0743e+001 -8.0039e+000 38320 97069,96536,96484
 1.8000e+000 96807 -5.0734e+001 -9.2176e+001 -7.9445e+000 38320 97069,96484,96853
 1.8000e+000 96784 -5.5324e+001 -9.9651e+001  2.2344e+000 38320 96853,96484,96458
 1.8000e+000 96761 -3.0859e+001 -7.5993e+001 -8.4267e+000 38320 96925,96640,96614
 1.8000e+000 96738 -4.7267e+001 -7.8336e+001 -1.9166e+000 38320 96997,96666,96640
 1.8000e+000 96715 -4.1400e+001 -1.0697e+002 -2.8780e+000 38320 97141,96588,96562
 1.8000e+000 96692 -6.5757e+001 -1.0577e+002 -1.8262e+000 38320 96484,96536,96510
 1.8000e+000 96879 -4.9845e+001 -9.7118e+001 -4.0092e+000 38320 97141,96562,96853
 1.8000e+000 96902 -4.5347e+001 -9.3619e+001 -1.9822e+000 38320 96925,96614,96853
 1.8000e+000 96951 -4.6611e+001 -7.7537e+001 -2.6170e+000 38320 96997,96640,96925
 1.8000e+000 96974 -4.4234e+001 -7.7527e+001 -1.5141e+000 38320 96458,96925,96853
 1.8000e+000 97023 -5.0500e+001 -7.9740e+001 -2.5738e-001 38320 96458,96666,96997
 1.8000e+000 97046 -4.8175e+001 -7.8291e+001 -1.0649e+000 38320 96458,96997,96925
 1.8000e+000 97095 -5.4647e+001 -8.8424e+001 -8.9248e-001 38320 96562,96536,97069
 1.8000e+000 97118 -4.7990e+001 -9.1269e+001 -6.7977e+000 38320 96562,97069,96853
 1.8000e+000 97167 -2.6740e+001 -9.7719e+001 -7.0718e+000 38320 96614,96588,97141
 1.8000e+000 97190 -4.0634e+001 -9.1770e+001 -6.9839e+000 38320 96614,97141,96853
 1.8000e+000 97519 -3.6575e+001 -9.6566e+001  2.3203e+001 37766 97542,97398,97372
 1.8000e+000 97496 -4.9648e+001 -8.5719e+001  1.2405e+001 37766 97542,97372,97346
 1.8000e+000 97473 -4.4358e+001 -9.3363e+001  2.0130e+000 37766 97294,97424,97346
 1.8000e+000 97450 -5.0026e+001 -1.1073e+002 -3.1300e-001 37766 97294,97346,97320
 1.8000e+000 97568 -1.5306e+001 -9.1712e+001  1.7681e+001 37766 97424,97398,97542
 1.8000e+000 97591 -3.4391e+001 -8.1514e+001  7.1700e+000 37766 97424,97542,97346
 1.8000e+000 98048 -4.2528e+001 -6.9912e+001 -2.2261e+001 37262 98071,97878,97852
 1.8000e+000 98025 -3.4812e+001 -8.2519e+001 -8.7418e+000 37262 98071,97852,97800
 1.8000e+000 98002 -4.3586e+001 -1.0174e+002 -6.2593e+000 37262 97800,97852,97826
 1.8000e+000 97979 -4.4021e+001 -8.7278e+001  2.9197e+000 37262 97800,97930,97904
 1.8000e+000 97956 -3.0561e+001 -1.0169e+002  7.0826e+000 37262 97774,97930,97800
 1.8000e+000 98097 -6.4319e+001 -8.0072e+001 -1.7654e+001 37262 97904,97878,98071
 1.8000e+000 98120 -4.6126e+001 -9.1347e+001 -4.7460e+000 37262 97904,98071,97800
 1.8000e+000 98449 -7.5047e+000 -5.9599e+001 -6.0470e+000 36950 98472,98302,98250
 1.8000e+000 98426 -7.5339e-001 -6.0938e+001 -6.1741e+000 36950 98472,98250,98354
 1.8000e+000 98403 -1.5491e+001 -5.9915e+001  6.3260e+000 36950 98250,98302,98276
 1.8000e+000 98380  4.2823e+001 -4.4461e+001 -6.0119e+000 36950 98224,98354,98250
 1.8000e+000 98498 -2.5828e+000 -5.9919e+001 -2.8338e+000 36950 98328,98302,98472
 1.8000e+000 98521  3.9565e+000 -6.2037e+001 -4.0274e+000 36950 98328,98472,98354
 1.8000e+000 99125 -6.1258e+001 -6.2287e+001  9.2268e+000 36296 98704,98756,98730
 1.8000e+000 99102 -4.2093e+001 -6.8166e+001  2.2453e+000 36296 98704,98938,98756
 1.8000e+000 99079 -2.6684e+001 -7.7212e+001  5.0834e-001 36296 99148,98938,98912
 1.8000e+000 99056 -3.2378e+001 -7.1920e+001  1.7025e+001 36296 99292,99220,98782
 1.8000e+000 99033 -2.1510e+001 -7.8182e+001  3.5133e+000 36296 99148,98912,98834
 1.8000e+000 99010 -2.8076e+001 -6.0505e+001  1.6594e+001 36296 99292,98782,98756
 1.8000e+000 98987 -1.9078e+001 -1.4476e+002 -2.8672e+001 36296 98834,98912,98886
 1.8000e+000 98964 -4.9844e+001 -2.1840e+002 -4.0495e+001 36296 98834,98886,98860
 1.8000e+000 99174 -3.3747e+001 -8.4570e+001  3.4211e+000 36296 99220,98938,99148
 1.8000e+000 99197 -2.1464e+001 -9.0862e+001  9.6554e+000 36296 98808,99148,98834
 1.8000e+000 99246 -2.6739e+001 -5.8660e+001  4.2398e+001 36296 98808,98782,99220
 1.8000e+000 99269 -7.0187e+000 -6.0909e+001  1.4074e+001 36296 98808,99220,99148
 1.8000e+000 99318 -2.8867e+001 -5.8562e+001  8.7398e+000 36296 98938,99220,99292
 1.8000e+000 99341 -2.9856e+001 -6.0794e+001  9.0521e+000 36296 98938,99292,98756
 1.8000e+000 99719 -3.7504e+001 -1.0118e+002  1.8212e-001 35742 99742,99471,99601
 1.8000e+000 99696 -4.2426e+001 -7.2657e+001  1.3034e+001 35742 99445,99601,99471
 1.8000e+000 99673 -3.5840e+001 -9.7405e+001 -4.6759e+000 35742 99742,99601,99575
 1.8000e+000 99650 -2.8730e+001 -1.2582e+002 -2.6518e+000 35742 99814,99549,99523
 1.8000e+000 99627 -2.5596e+001 -9.4720e+001  4.4671e+000 35742 99471,99523,99497
 1.8000e+000 99768 -2.5165e+001 -9.9662e+001  4.5287e+000 35742 99523,99471,99742
 1.8000e+000 99791 -3.4514e+001 -1.1461e+002 -1.8756e+000 35742 99814,99523,99742
 1.8000e+000 99840 -2.9377e+001 -1.1143e+002 -6.8977e+000 35742 99575,99549,99814
 1.8000e+000 99863 -3.2473e+001 -9.6556e+001 -5.6117e+000 35742 99575,99814,99742
 1.8000e+000 100111 -3.1384e+001 -8.3968e+001  1.1271e+001 35302 100134,99990,99938
 1.8000e+000 100088 -2.2702e+001 -7.2902e+001  6.0362e+000 35302 100134,99938,99912
 1.8000e+000 100065 -2.3778e+001 -7.2942e+001 -3.6112e-002 35302 100206,99886,100016
 1.8000e+000 100042 -4.0092e+001 -7.8836e+001  9.6435e+000 35302 99938,99990,99964
 1.8000e+000 100160 -1.9575e+001 -7.9457e+001  4.8922e+000 35302 100016,99990,100134
 1.8000e+000 100183 -2.0394e+001 -7.5071e+001  1.9370e-001 35302 100206,100016,100134
 1.8000e+000 100232 -2.7807e+001 -7.5432e+001  1.0513e+000 35302 99912,99886,100206
 1.8000e+000 100255 -2.4240e+001 -7.7724e+001  1.3523e+000 35302 99912,100206,100134
 1.8000e+000 100586 -2.5936e+001 -5.6041e+001  1.0784e+000 35012 100609,100387,100361
 1.8000e+000 100563 -2.6017e+001 -6.0003e+001  3.2835e+000 35012 100609,100361,100465
 1.8000e+000 100540 -4.0322e+001 -7.4212e+001  9.6682e+000 35012 100361,100491,100465
 1.8000e+000 100517 -2.2370e+001 -5.9216e+001  8.8960e+000 35012 100413,100465,100439
 1.8000e+000 100635 -2.7126e+001 -5.6751e+001  5.2235e+000 35012 100413,100387,100609
 1.8000e+000 100658 -2.8078e+001 -6.2810e+001  7.3395e+000 35012 100413,100609,100465
 1.8000e+000 100987 -3.6018e+001 -7.4824e+001  6.4175e+000 34700 100788,100866,100814
 1.8000e+000 100964 -3.1391e+001 -7.1268e+001  8.0276e+000 34700 101010,100866,100788
 1.8000e+000 100941 -3.1978e+001 -7.4812e+001  1.5233e+001 34700 100762,100892,100866
 1.8000e+000 100918 -4.0943e+001 -8.3677e+001 -1.5887e+000 34700 100814,100866,100840
 1.8000e+000 101036 -2.6137e+001 -6.7583e+001  1.1109e+001 34700 100762,100866,101010
 1.8000e+000 101493 -4.7743e+001 -9.4899e+001 -6.9106e+000 34132 101516,101349,101297
 1.8000e+000 101470 -6.1529e+001 -1.1915e+002 -1.3746e+001 34132 101588,101516,101297
 1.8000e+000 101447 -6.1807e+001 -1.2725e+002 -2.2449e+001 34132 101588,101297,101245
 1.8000e+000 101424 -3.4119e+001 -1.5403e+002 -2.0380e+001 34132 101245,101297,101271
 1.8000e+000 101401 -5.5264e+001 -9.4731e+001 -1.0607e+001 34132 101297,101349,101323
 1.8000e+000 101542 -4.9350e+001 -1.1384e+002 -4.9863e+000 34132 101375,101349,101516
 1.8000e+000 101565 -4.3369e+001 -1.1300e+002 -5.1361e+000 34132 101375,101516,101219
 1.8000e+000 101614 -4.4955e+001 -1.1974e+002 -5.1842e+000 34132 101219,101516,101588
 1.8000e+000 101637 -5.3401e+001 -1.2780e+002 -1.3465e+001 34132 101219,101588,101245
 1.8000e+000 101858 -8.6631e+000 -9.1333e+001  6.2756e+000 33720 101708,101786,101760
 1.8000e+000 101835 -2.1670e+001 -1.0630e+002  2.3370e-001 33720 101682,101786,101708
 1.8000e+000 101812 -2.8554e+001 -1.0064e+002  3.6455e+000 33720 101708,101760,101734
 1.8000e+000 102128  5.4527e+000 -9.8073e+001 -2.9976e+000 33130 101903,102007,101929
 1.8000e+000 102105 -9.4172e-001 -1.2011e+002  6.1892e+000 33130 101903,102033,102007
 1.8000e+000 102082  1.3003e+001 -1.2373e+002 -2.9909e+001 33130 101929,102007,101955
 1.8000e+000 102059 -5.1981e+000 -7.8672e+001  2.9340e+000 33130 101955,102007,101981
 1.8000e+000 102461 -3.8971e+001 -1.0066e+002 -8.2559e+000 32840 102236,102340,102262
 1.8000e+000 102438 -3.2411e+001 -7.1161e+001  2.1686e+000 32840 102236,102366,102340
 1.8000e+000 102415 -2.0807e+001 -9.4969e+001 -7.7580e+000 32840 102262,102340,102288
 1.8000e+000 102392 -5.2695e+001 -1.0319e+002 -2.1849e+001 32840 102288,102340,102314
 1.8000e+000 102997 -2.8218e+001 -5.3106e+001  1.7614e+001 32493 102749,102879,102853
 1.8000e+000 102974 -2.1264e+001 -3.6645e+001  1.7639e+001 32493 102723,102879,102749
 1.8000e+000 102951 -4.0649e+001 -7.0756e+001  1.0618e+001 32493 102749,102801,102775
 1.8000e+000 102928 -4.1777e+001 -6.9493e+001  9.8727e+000 32493 102749,102853,102801
 1.8000e+000 102905 -4.0436e+001 -6.5495e+001  1.0524e+001 32493 102801,102853,102827
 1.8000e+000 103454 -4.4938e+001 -8.4865e+001 -4.3507e+000 32089 103206,103336,103310
 1.8000e+000 103431 -3.8143e+001 -8.2334e+001 -4.5255e-003 32089 103180,103336,103206
 1.8000e+000 103408 -4.7862e+001 -9.6617e+001 -1.3843e+001 32089 103206,103284,103258
 1.8000e+000 103385 -6.5806e+001 -1.0031e+002 -1.5511e+001 32089 103206,103310,103284
 1.8000e+000 103362 -4.2026e+001 -7.6245e+001  3.6301e+000 32089 103206,103258,103232
 1.8000e+000 103783 -6.7506e+001 -1.0122e+002 -9.1197e+000 31742 103558,103662,103584
 1.8000e+000 103760 -6.0733e+001 -9.2176e+001 -1.8270e+001 31742 103558,103688,103662
 1.8000e+000 103737 -4.7710e+001 -8.5321e+001 -1.6992e+001 31742 103584,103662,103636
 1.8000e+000 103714 -2.8691e+001 -9.7200e+001 -2.7788e+001 31742 103584,103636,103610
 1.8000e+000 104112 -6.1770e+000 -8.5454e+001  1.9245e+001 31402 103939,103991,103965
 1.8000e+000 104089 -2.4427e+001 -7.4965e+001  8.8105e+000 31402 103913,103991,103939
 1.8000e+000 104066 -3.4858e+001 -8.5028e+001  3.4140e+000 31402 103913,104017,103991
 1.8000e+000 104043 -4.0722e+001 -7.3595e+001 -1.4168e+000 31402 103887,104017,103913
 1.8000e+000 104569 -6.4231e+001 -1.2042e+002 -2.0778e-001 30998 104321,104425,104373
 1.8000e+000 104546 -7.0523e+001 -1.2205e+002 -1.5654e+000 30998 104321,104451,104425
 1.8000e+000 104523 -5.8693e+001 -1.0686e+002  7.7971e+000 30998 104373,104425,104399
 1.8000e+000 104500 -6.3717e+001 -1.2762e+002 -4.3444e+000 30998 104295,104451,104321
 1.8000e+000 104477 -9.0151e+001 -1.5095e+002  2.1577e+001 30998 104321,104373,104347
 1.8000e+000 104947 -6.2195e+001 -9.4268e+001 -1.3588e+001 30608 104751,104803,104777
 1.8000e+000 104924 -3.6166e+001 -9.5235e+001 -3.8311e+000 30608 104725,104803,104751
 1.8000e+000 104901 -5.5297e+001 -9.3518e+001  4.5667e+000 30608 104699,104803,104725
 1.8000e+000 104878 -5.6827e+001 -9.5239e+001  6.1874e+000 30608 104673,104803,104699
 1.8000e+000 104855 -4.5671e+001 -9.6564e+001 -4.4425e+000 30608 104673,104829,104803
 1.8000e+000 105276 -3.3771e+001 -8.3741e+001  8.1177e+000 30204 105427,105129,105077
 1.8000e+000 105253 -1.7311e+001 -8.6716e+001  2.6058e+001 30204 105427,105077,105051
 1.8000e+000 105230 -2.7758e+001 -8.8800e+001  4.6818e+000 30204 105077,105129,105103
 1.8000e+000 105207 -6.2077e+001 -7.7507e+001  9.8367e+000 30204 105299,105181,105155
 1.8000e+000 105325 -4.8719e+001 -7.1155e+001  7.3344e+000 30204 105129,105181,105299
 1.8000e+000 105453 -4.3472e+001 -8.8658e+001  1.1001e+001 30204 105181,105129,105427
 1.8000e+000 105476 -4.8962e+001 -1.0142e+002  3.0766e+001 30204 105181,105427,105051
 1.8000e+000 105903 -9.3732e+000 -6.7540e+001 -7.6645e+000 29700 105606,105762,105736
 1.8000e+000 105880 -2.7059e+001 -7.2076e+001  1.7520e+000 29700 105580,105762,105606
 1.8000e+000 105857 -2.9853e+001 -9.1425e+001 -4.3960e+000 29700 105606,105710,105632
 1.8000e+000 105834 -2.2455e+001 -7.0971e+001 -3.0892e+000 29700 105606,105736,105710
 1.8000e+000 105811 -4.6257e+001 -9.8039e+001  4.2674e+000 29700 105632,105710,105684
 1.8000e+000 105788 -3.8901e+001 -8.1189e+001 -1.9527e+000 29700 105632,105684,105658
 1.8000e+000 106102 -2.5090e+001 -9.5701e+001  3.4261e+000 29124 105978,106030,106004
 1.8000e+000 106079 -3.6134e+001 -1.0327e+002  9.3456e-002 29124 105926,106030,105978
 1.8000e+000 106056 -3.3000e+001 -1.0464e+002  1.2194e+001 29124 105926,105978,105952
 1.8000e+000 106301 -1.4251e+001 -8.6300e+001 -6.3138e-002 28712 106151,106229,106203
 1.8000e+000 106278 -1.9521e+001 -9.9511e+001 -6.8912e+000 28712 106125,106229,106151
 1.8000e+000 106255 -1.3981e+001 -8.2638e+001 -3.8256e+000 28712 106151,106203,106177
 1.8000e+000 106551 -3.1369e+001 -1.1472e+002 -1.1100e+000 28258 106352,106404,106378
 1.8000e+000 106528 -4.0788e+001 -1.1785e+002 -1.6041e+000 28258 106352,106456,106404
 1.8000e+000 106505 -3.3490e+001 -1.2493e+002 -4.2140e+000 28258 106326,106456,106352
 1.8000e+000 106482 -4.0789e+001 -1.1232e+002  1.8292e+000 28258 106404,106456,106430
 1.8000e+000 107012 -4.2514e+001 -1.0270e+002  2.0836e+001 27818 107035,106790,106764
 1.8000e+000 106989 -3.5808e+001 -9.2657e+001  1.0321e+001 27818 107035,106764,106868
 1.8000e+000 106966 -3.0229e+001 -1.0708e+002  1.0311e+001 27818 107107,106842,106816
 1.8000e+000 106943 -5.4752e+001 -8.9190e+001  8.3965e+000 27818 106738,106868,106764
 1.8000e+000 106920 -5.8282e+001 -8.7840e+001  2.4894e+001 27818 106738,106894,106868
 1.8000e+000 107061 -2.2326e+001 -9.5856e+001  2.0645e+001 27818 106816,106790,107035
 1.8000e+000 107084 -3.2824e+001 -1.0275e+002  1.0823e+001 27818 107107,106816,107035
 1.8000e+000 107133 -3.2792e+001 -1.0009e+002  6.7984e+000 27818 106868,106842,107107
 1.8000e+000 107156 -3.3036e+001 -9.2529e+001  8.5317e+000 27818 106868,107107,107035
 1.8000e+000 107613 -3.9572e+000 -7.1568e+001  1.7727e+001 27312 107339,107469,107365
 1.8000e+000 107590  6.9026e+000 -7.1149e+001  1.8292e+001 27312 107339,107495,107469
 1.8000e+000 107567  4.4485e+000 -6.1629e+001  1.4714e+001 27312 107391,107469,107443
 1.8000e+000 107544 -8.6130e+000 -7.6274e+001  9.1385e+000 27312 107365,107469,107391
 1.8000e+000 107521 -5.3743e+001 -8.3383e+001  9.7108e+000 27312 107391,107443,107417
 1.8000e+000 107991 -4.3465e+001 -1.1824e+002  5.1218e-001 26858 108086,108014,107795
 1.8000e+000 107968 -4.6595e+001 -1.2046e+002 -1.3019e+001 26858 108014,107717,107873
 1.8000e+000 107945 -5.0989e+001 -1.2558e+002  5.4509e+000 26858 108158,108086,107795
 1.8000e+000 107922 -4.0911e+001 -1.2575e+002  5.0568e+000 26858 108158,107795,107769
 1.8000e+000 107899 -2.8564e+001 -1.5094e+002  2.0397e+001 26858 107821,107873,107847
 1.8000e+000 108040 -4.4041e+001 -1.3478e+002  4.3995e+000 26858 107821,107795,108014
 1.8000e+000 108063 -2.1026e+001 -1.2902e+002 -4.0037e+000 26858 107821,108014,107873
 1.8000e+000 108112 -6.1455e+001 -1.2498e+002  3.8209e+000 26858 107717,108014,108086
 1.8000e+000 108135 -5.1255e+001 -1.3012e+002  1.2461e+001 26858 107717,108086,107743
 1.8000e+000 108184 -3.9411e+001 -1.2318e+002  9.0748e+000 26858 107743,108086,108158
 1.8000e+000 108207 -3.4775e+001 -1.2727e+002  9.1259e+000 26858 107743,108158,107769
 1.8000e+000 108634 -5.0368e+001 -1.1177e+002  1.8837e-001 26404 108657,108415,108363
 1.8000e+000 108611 -5.7196e+001 -1.2078e+002  1.0879e+001 26404 108657,108363,108337
 1.8000e+000 108588 -4.7344e+001 -1.0429e+002  1.5167e+001 26404 108729,108311,108467
 1.8000e+000 108565 -6.4486e+001 -1.2554e+002 -2.9495e+000 26404 108801,108441,108415
 1.8000e+000 108542 -8.7916e+001 -1.2237e+002  1.8601e+001 26404 108311,108493,108467
 1.8000e+000 108519 -4.1079e+001 -1.1448e+002 -8.9815e-001 26404 108363,108415,108389
 1.8000e+000 108683 -7.2938e+001 -1.1752e+002 -1.7294e+000 26404 108801,108415,108657
 1.8000e+000 108706 -6.9612e+001 -1.1215e+002  1.0763e+001 26404 108729,108467,108657
 1.8000e+000 108755 -3.2071e+001 -1.1547e+002  1.5475e+001 26404 108337,108311,108729
 1.8000e+000 108778 -4.3587e+001 -1.1565e+002  1.1130e+001 26404 108337,108729,108657
 1.8000e+000 108827 -7.3535e+001 -1.4010e+002 -7.6239e+000 26404 108467,108441,108801
 1.8000e+000 108850 -7.8847e+001 -1.2711e+002 -6.0323e+000 26404 108467,108801,108657
 1.8000e+000 109228 -2.9792e+001 -1.0773e+002  1.2223e+000 26064 109006,109084,109058
 1.8000e+000 109205 -2.9681e+001 -1.0565e+002  4.1272e+000 26064 108980,109084,109006
 1.8000e+000 109182 -2.7444e+001 -9.5479e+001 -5.0065e+000 26064 108980,109110,109084
 1.8000e+000 109159 -2.6599e+001 -1.2064e+002  1.1077e+001 26064 109006,109058,109032
 1.8000e+000 109136 -6.0722e+000 -7.3872e+001  3.7351e+000 26064 108954,109110,108980
 1.8000e+000 109427 -2.4091e+001 -1.0075e+002 -2.0319e+001 25660 109303,109355,109329
 1.8000e+000 109404 -3.3284e+001 -1.1788e+002 -4.7828e+000 25660 109277,109355,109303
 1.8000e+000 109381 -2.6124e+001 -1.1354e+002 -2.8592e+000 25660 109251,109355,109277
 1.8000e+000 109577  4.9523e+000 -4.0976e+001  3.2731e+001 25306 109476,109528,109502
 1.8000e+000 109554  1.5472e+001 -5.5082e+001  6.2036e+000 25306 109450,109528,109476
 1.8000e+000 109778 -1.3019e+001 -9.6717e+001  2.1919e+000 24944 109628,109706,109654
 1.8000e+000 109755 -1.5698e+001 -1.0005e+002  8.7915e-001 24944 109602,109706,109628
 1.8000e+000 109732 -1.6690e+000 -8.6342e+001 -1.2168e+001 24944 109654,109706,109680
 1.8000e+000 110126 -3.6516e+001 -1.3945e+002  8.4678e+000 24440 110149,109907,109855
 1.8000e+000 110103 -4.0548e+001 -1.4390e+002  1.0607e+001 24440 110149,109855,109985
 1.8000e+000 110080 -2.5524e+001 -1.2490e+002  2.8365e+000 24440 109855,109907,109881
 1.8000e+000 110057 -2.6772e+001 -1.1572e+002  3.3633e+001 24440 109829,109985,109855
 1.8000e+000 110034 -3.7818e+001 -1.4192e+002  4.2864e-001 24440 109907,109959,109933
 1.8000e+000 110011 -5.4134e+001 -1.3280e+002  1.0120e+001 24440 109803,109985,109829
 1.8000e+000 110175 -3.7858e+001 -1.3343e+002  3.7933e+000 24440 109959,109907,110149
 1.8000e+000 110198 -4.4530e+001 -1.3893e+002  6.5728e+000 24440 109959,110149,109985
 1.8000e+000 110301  1.3340e+000 -1.4239e+002 -1.9057e+001 24028 110223,110275,110249
 1.8000e+000 110573  2.3511e+000 -8.7269e+001  2.3440e+001 23467 110400,110452,110426
 1.8000e+000 110550 -2.4835e+001 -1.0605e+002  5.2117e+000 23467 110374,110452,110400
 1.8000e+000 110527 -3.1857e+001 -1.0901e+002  7.3601e+000 23467 110348,110452,110374
 1.8000e+000 110504 -1.5667e+001 -9.8754e+001  2.1370e+000 23467 110348,110478,110452
 1.8000e+000 111004 -5.9902e+001 -1.3143e+002 -1.2900e+001 22963 111027,110733,110707
 1.8000e+000 110981 -6.3988e+001 -1.2666e+002  7.3900e+000 22963 111027,110707,110681
 1.8000e+000 110958 -3.4398e+001 -1.1064e+002 -6.1985e+000 22963 111099,110759,110733
 1.8000e+000 110935 -3.9728e+001 -1.1485e+002 -5.4010e+000 22963 111171,110863,110811
 1.8000e+000 110912 -2.7924e+001 -8.4131e+001 -9.2571e+000 22963 110759,110811,110785
 1.8000e+000 110889 -5.3709e+001 -1.4355e+002 -1.0830e+000 22963 110811,110863,110837
 1.8000e+000 111053 -4.7036e+001 -1.1715e+002 -3.8971e+000 22963 111099,110733,111027
 1.8000e+000 111076 -3.9819e+001 -1.1864e+002 -4.5343e+000 22963 111171,110811,111027
 1.8000e+000 111125 -3.4593e+001 -1.1046e+002 -1.3946e+001 22963 110811,110759,111099
 1.8000e+000 111148 -3.7450e+001 -1.1102e+002 -1.3114e+001 22963 110811,111099,111027
 1.8000e+000 111197 -4.1612e+001 -1.0597e+002 -7.8300e+000 22963 110681,110863,111171
 1.8000e+000 111220 -4.6449e+001 -1.1265e+002 -4.5899e+000 22963 110681,111171,111027
 1.8000e+000 111726 -5.1247e+001 -1.1833e+002 -3.7383e+000 22459 111749,111507,111429
 1.8000e+000 111703 -3.4281e+001 -1.1137e+002 -6.3746e+000 22459 111749,111429,111585
 1.8000e+000 111680 -4.6782e+001 -1.3291e+002 -1.2442e+001 22459 111403,111585,111429
 1.8000e+000 111657 -4.6316e+001 -1.3496e+002  3.6526e+000 22459 111507,111559,111533
 1.8000e+000 111634 -7.9615e+001 -1.1173e+002  3.2423e+000 22459 111455,111507,111481
 1.8000e+000 111611 -7.4385e+001 -1.0930e+002  3.7810e+000 22459 111429,111507,111455
 1.8000e+000 111775 -4.5380e+001 -1.2376e+002  8.9382e+000 22459 111559,111507,111749
 1.8000e+000 111798 -3.2227e+001 -1.1638e+002  5.5978e+000 22459 111559,111749,111585
 1.8000e+000 112046 -8.7151e+000 -1.0171e+002 -1.5688e+000 21898 112069,111925,111873
 1.8000e+000 112023 -6.5182e+000 -9.8902e+001  5.4850e+000 21898 112069,111873,111847
 1.8000e+000 112000 -8.9145e+000 -1.1030e+002 -2.9797e+000 21898 111821,111951,111847
 1.8000e+000 111977 -2.3692e+001 -7.8963e+001  1.7642e+000 21898 111873,111925,111899
 1.8000e+000 112095 -1.9025e+001 -1.0443e+002 -6.0243e+000 21898 111951,111925,112069
 1.8000e+000 112118 -1.2928e+001 -1.0053e+002  8.7347e-001 21898 111951,112069,111847
 1.8000e+000 112498 -4.7433e+001 -1.1003e+002 -9.1135e+000 21608 112521,112276,112224
 1.8000e+000 112475 -3.5080e+001 -1.1260e+002 -2.6928e-001 21608 112521,112224,112380
 1.8000e+000 112452 -3.8815e+001 -1.2436e+002  5.7222e+000 21608 112302,112380,112354
 1.8000e+000 112429 -5.0099e+001 -1.2261e+002 -8.1505e+000 21608 112224,112276,112250
 1.8000e+000 112406  4.5230e+000 -1.3405e+002 -6.8137e+000 21608 112302,112354,112328
 1.8000e+000 112547 -3.7122e+001 -9.4690e+001 -4.2672e+000 21608 112302,112276,112521
 1.8000e+000 112570 -2.9979e+001 -1.0718e+002  2.3093e+000 21608 112302,112521,112380
 1.8000e+000 112948 -5.0123e+001 -1.1904e+002 -3.7143e+000 20882 112971,112752,112700
 1.8000e+000 112925 -3.5028e+001 -1.1451e+002 -8.2691e+000 20882 112971,112700,112830
 1.8000e+000 112902 -6.8397e+001 -1.3016e+002  5.5082e+000 20882 112778,112830,112804
 1.8000e+000 112879 -3.1982e+001 -8.8505e+001 -1.1047e+001 20882 112674,112830,112700
 1.8000e+000 112856 -6.1283e+001 -1.2214e+002  3.4602e-002 20882 112700,112752,112726
 1.8000e+000 112997 -5.1106e+001 -1.2027e+002  4.5504e+000 20882 112778,112752,112971
 1.8000e+000 113020 -4.2368e+001 -1.1823e+002 -2.4939e-001 20882 112778,112971,112830
 1.8000e+000 113526 -4.2089e+001 -1.2078e+002 -3.3267e-001 20428 113255,113385,113333
 1.8000e+000 113503 -4.4848e+001 -1.2894e+002 -4.4553e-001 20428 113229,113385,113255
 1.8000e+000 113480 -5.7425e+000 -1.1727e+002  5.5782e-001 20428 113255,113333,113281
 1.8000e+000 113457 -3.9090e+001 -1.2604e+002  7.4024e-001 20428 113203,113385,113229
 1.8000e+000 113434 -2.3125e+001 -1.2276e+002 -5.0769e+000 20428 113281,113333,113307
 1.8000e+000 113411 -5.0092e+001 -1.1639e+002  1.2679e+000 20428 113333,113385,113359
 1.8000e+000 113774 -1.9483e+001 -1.1098e+002  6.3319e+000 19917 113797,113601,113549
 1.8000e+000 113751 -2.7297e+001 -1.1137e+002  6.8981e+000 19917 113869,113797,113549
 1.8000e+000 113728 -2.7030e+001 -1.1177e+002  8.4613e+000 19917 113869,113549,113679
 1.8000e+000 113705 -1.8067e+001 -1.1007e+002  5.0016e+000 19917 113549,113601,113575
 1.8000e+000 113823 -2.7520e+001 -1.1413e+002  2.3126e+000 19917 113627,113601,113797
 1.8000e+000 113846 -2.9469e+001 -1.0833e+002  5.6098e+000 19917 113627,113797,113653
 1.8000e+000 113895 -2.6475e+001 -1.0756e+002  5.7070e+000 19917 113653,113797,113869
 1.8000e+000 113918 -2.7730e+001 -1.0857e+002  7.7099e+000 19917 113653,113869,113679
 1.8000e+000 114166 -5.3695e+001 -1.2004e+002 -3.4387e+000 19413 113993,114045,114019
 1.8000e+000 114143 -4.3006e+001 -1.0880e+002  1.0858e+000 19413 113967,114045,113993
 1.8000e+000 114120 -3.9685e+001 -1.0760e+002  2.8347e+000 19413 113967,114071,114045
 1.8000e+000 114097 -2.4070e+001 -1.1756e+002 -3.5927e+000 19413 113941,114071,113967
 1.8000e+000 114438 -1.9757e+001 -1.0807e+002 -1.9331e+000 19001 114213,114265,114239
 1.8000e+000 114415 -1.4827e+001 -9.1023e+001 -1.3818e+000 19001 114213,114343,114265
 1.8000e+000 114392 -2.6698e+001 -1.1603e+002 -5.8156e+000 19001 114265,114343,114317
 1.8000e+000 114369 -2.4789e+000 -1.0282e+002  4.8311e-001 19001 114265,114317,114291
 1.8000e+000 114639 -4.3010e+001 -1.1410e+002 -5.8860e+000 18554 114489,114541,114515
 1.8000e+000 114616 -2.7995e+000 -1.1157e+002 -1.1917e+001 18554 114489,114567,114541
 1.8000e+000 114593 -4.5600e+001 -1.1294e+002 -2.0969e+001 18554 114463,114567,114489
 1.8000e+000 115043 -3.2113e+001 -1.1396e+002  3.3244e+000 18164 114795,114925,114821
 1.8000e+000 115020 -2.6050e+001 -1.2302e+002  8.0690e+000 18164 114769,114925,114795
 1.8000e+000 114997 -2.6958e+001 -1.1886e+002 -4.6712e-001 18164 115066,114873,114821
 1.8000e+000 114974 -2.4237e+001 -1.0496e+002 -1.3821e+000 18164 115066,114821,114925
 1.8000e+000 114951 -1.3545e+001 -1.1961e+002 -7.8582e+000 18164 114821,114873,114847
 1.8000e+000 115092 -3.3660e+001 -1.0868e+002 -8.1261e+000 18164 114899,114873,115066
 1.8000e+000 115115 -2.6102e+001 -8.7559e+001 -9.3793e+000 18164 114899,115066,114925
 1.8000e+000 115265 -3.5128e+001 -1.3368e+002  1.3824e+000 17852 115164,115216,115190
 1.8000e+000 115242 -3.5158e+001 -1.3914e+002  1.1380e+000 17852 115138,115216,115164
 1.8000e+000 115464 -6.4749e+001 -1.4974e+002  5.0141e+000 17346 115288,115366,115340
 1.8000e+000 115441 -1.1103e+002 -1.2511e+002  2.0285e+000 17346 115288,115392,115366
 1.8000e+000 115418 -6.4230e+001 -1.7537e+002 -5.2948e+000 17346 115288,115340,115314
 1.8000e+000 115736 -3.3780e+001 -1.1809e+002  3.9628e+000 16942 115563,115641,115615
 1.8000e+000 115713 -3.5407e+001 -1.1501e+002  1.8306e+000 16942 115511,115641,115563
 1.8000e+000 115690 -8.5050e+001 -1.3711e+002  8.2470e+000 16942 115563,115615,115589
 1.8000e+000 115667 -4.2060e+001 -1.2966e+002  4.2276e+000 16942 115511,115563,115537
 1.8000e+000 116091 -4.5948e+001 -1.1986e+002 -3.6905e+000 16388 115918,115970,115944
 1.8000e+000 116068 -3.9869e+001 -9.9033e+001 -2.5532e+000 16388 115918,115996,115970
 1.8000e+000 116045 -5.4132e+001 -1.2219e+002  3.9517e+000 16388 115892,115996,115918
 1.8000e+000 116022 -4.7596e+001 -1.2148e+002  7.1078e+000 16388 115866,115996,115892
 1.8000e+000 116192 -1.7270e+001 -1.4971e+002 -2.2571e+001 15810 116114,116166,116140
 1.8000e+000 116342 -2.0329e+001 -1.1964e+002  9.1708e+000 15419 116241,116293,116267
 1.8000e+000 116319 -2.2828e+001 -1.4656e+002 -7.9874e-001 15419 116215,116293,116241
 1.8000e+000 116445 -5.3543e+001 -1.1896e+002 -7.5917e-001 421 116367,116419,116393
 1.9000e+000 68477 -8.2078e+001 -1.2313e+002  3.9035e+000 68018 68327,68379,68353
 1.9000e+000 68454 -8.7550e+001 -1.6133e+002  1.4958e+001 68018 68301,68379,68327
 1.9000e+000 68431 -4.0597e+001 -1.8780e+002  3.2767e+001 68018 68301,68405,68379
 1.9000e+000 68578 -4.7963e+001 -1.2431e+002  1.0138e+000 67820 68500,68552,68526
 1.9000e+000 68728 -5.5415e+001 -1.1903e+002 -2.5183e+000 67508 68601,68653,68627
 1.9000e+000 68705 -9.3541e+001 -8.3129e+001 -1.9131e+001 67508 68601,68679,68653
 1.9000e+000 68927 -8.7572e+000 -9.7085e+001 -4.1962e+000 67310 68777,68829,68803
 1.9000e+000 68904 -2.6520e+001 -1.1346e+002  3.0831e+000 67310 68751,68829,68777
 1.9000e+000 68881 -3.2243e+001 -1.2764e+002  1.6095e+000 67310 68751,68855,68829
 1.9000e+000 69386 -4.7778e+001 -1.3503e+002 -7.4198e+000 67020 69216,69268,69242
 1.9000e+000 69363 -4.0041e+001 -9.8698e+001 -1.2787e+001 67020 69138,69268,69216
 1.9000e+000 69340 -3.1794e+001 -8.7195e+001 -5.4532e+000 67020 69112,69268,69138
 1.9000e+000 69317 -5.8233e+001 -1.1504e+002  8.9241e+000 67020 69138,69190,69164
 1.9000e+000 69294 -5.9687e+001 -1.0327e+002 -4.6625e+000 67020 69138,69216,69190
 1.9000e+000 69536 -8.8035e+001 -2.3458e+002 -1.5555e+001 66708 69435,69487,69461
 1.9000e+000 69513 -6.8358e+001 -2.6020e+002 -1.7589e+000 66708 69409,69487,69435
 1.9000e+000 69735 -5.4595e+001 -1.3555e+002  3.2038e+000 66346 69585,69637,69611
 1.9000e+000 69712 -4.3221e+001 -1.2941e+002 -4.2445e-001 66346 69559,69637,69585
 1.9000e+000 69689 -3.7790e+001 -1.2813e+002 -1.3123e+001 66346 69559,69663,69637
 1.9000e+000 69985 -7.0735e+001 -1.3645e+002  3.3537e+000 66148 69786,69890,69864
 1.9000e+000 69962 -7.4602e+001 -1.3883e+002  4.6394e+000 66148 69760,69890,69786
 1.9000e+000 69939 -4.7768e+001 -1.2663e+002 -1.8592e+001 66148 69786,69864,69838
 1.9000e+000 69916 -6.0414e+001 -1.4036e+002 -5.2554e+000 66148 69786,69838,69812
 1.9000e+000 70137  6.3481e+000 -1.1775e+002 -8.0495e+000 65950 70036,70088,70062
 1.9000e+000 70114  2.2876e+001 -1.3647e+002  1.3504e+001 65950 70010,70088,70036
 1.9000e+000 70470  1.9702e+000 -9.1850e+001  2.0720e+000 65546 70245,70323,70271
 1.9000e+000 70447 -1.7984e+000 -1.0114e+002  2.4508e+000 65546 70245,70375,70323
 1.9000e+000 70424  4.1942e-001 -1.1724e+002  6.7550e+000 65546 70323,70375,70349
 1.9000e+000 70401 -5.8038e+000 -9.5292e+001  3.1998e+000 65546 70271,70323,70297
 1.9000e+000 70620 -3.0916e+001 -1.2911e+002  6.4966e+000 65348 70493,70545,70519
 1.9000e+000 70597 -2.7333e+001 -1.4142e+002  4.3455e+000 65348 70493,70571,70545
 1.9000e+000 70721 -7.7253e+001 -1.3775e+002  6.4889e-001 65150 70643,70695,70669
 1.9000e+000 71020 -4.3250e+001 -9.1454e+001  4.1141e+000 64952 71043,70850,70824
 1.9000e+000 70997 -3.3247e+001 -7.6421e+001 -3.7361e+000 64952 71043,70824,70772
 1.9000e+000 70974 -3.0366e+001 -1.2004e+002  3.7234e+000 64952 71115,70746,70876
 1.9000e+000 70951 -3.8846e+001 -1.1844e+002  8.0421e+000 64952 70746,70902,70876
 1.9000e+000 70928 -3.9947e+001 -7.3710e+001 -6.2317e+000 64952 70772,70824,70798
 1.9000e+000 71069 -2.4034e+001 -8.1218e+001  9.7343e+000 64952 70876,70850,71043
 1.9000e+000 71092 -3.4747e+001 -1.0740e+002  1.9356e+000 64952 71115,70876,71043
 1.9000e+000 71141 -3.4167e+001 -1.0634e+002 -5.9641e+000 64952 70772,70746,71115
 1.9000e+000 71164 -3.2083e+001 -8.6809e+001 -8.9240e+000 64952 70772,71115,71043
 1.9000e+000 71365  1.8028e+001 -1.1409e+002 -5.3962e+000 64662 71215,71293,71267
 1.9000e+000 71342  4.5909e+001 -7.4767e+001 -2.0932e+001 64662 71189,71293,71215
 1.9000e+000 71319  3.9213e+001 -4.9964e+001 -7.9093e+000 64662 71215,71267,71241
 1.9000e+000 71615 -2.4030e+001 -1.2015e+002 -9.8117e-002 64350 71710,71638,71468
 1.9000e+000 71592 -1.0127e+001 -1.1340e+002 -5.1289e+000 64350 71638,71416,71390
 1.9000e+000 71569 -2.9794e+001 -1.0911e+002  9.6964e+000 64350 71710,71468,71442
 1.9000e+000 71546  4.4556e+001 -1.0987e+002 -2.1981e+001 64350 71390,71520,71494
 1.9000e+000 71664 -1.7720e+001 -1.1647e+002 -3.5750e+000 64350 71494,71468,71638
 1.9000e+000 71687 -1.5064e+001 -1.1967e+002 -1.7002e+000 64350 71494,71638,71390
 1.9000e+000 71736 -1.2716e+001 -9.7540e+001 -3.8746e+000 64350 71416,71638,71710
 1.9000e+000 71759 -2.1208e+001 -8.9762e+001  7.8547e+000 64350 71416,71710,71442
 1.9000e+000 72318 -2.4656e+001 -1.8653e+002 -1.1012e+001 63837 71972,72024,71998
 1.9000e+000 72295 -3.3758e+001 -1.1727e+002 -1.3652e+000 63837 72341,71972,71946
 1.9000e+000 72272 -3.2054e+001 -9.2500e+001  8.4603e+000 63837 72413,72341,71946
 1.9000e+000 72249 -3.2502e+001 -8.2523e+001  5.7062e+000 63837 72413,71946,72128
 1.9000e+000 72226 -5.4985e+001 -9.9366e+001  5.5046e+000 63837 72024,72076,72050
 1.9000e+000 72203 -4.4380e+001 -8.8100e+001 -3.1897e-001 63837 72024,72102,72076
 1.9000e+000 72180 -2.7475e+001 -8.1192e+001  9.4262e+000 63837 71946,72154,72128
 1.9000e+000 72367 -5.2853e+001 -1.2996e+002 -2.5480e+001 63837 72024,71972,72341
 1.9000e+000 72390 -3.5553e+001 -9.9763e+001 -7.5886e+000 63837 72024,72341,72102
 1.9000e+000 72439 -2.7222e+001 -1.0840e+002  4.7088e+000 63837 72102,72341,72413
 1.9000e+000 72462 -2.6966e+001 -9.7368e+001  3.2483e+000 63837 72102,72413,72128
 1.9000e+000 72791 -4.7923e+001 -1.0064e+002 -9.7160e+000 63383 72592,72696,72670
 1.9000e+000 72768 -5.1586e+001 -9.7047e+001 -2.0477e+001 63383 72566,72696,72592
 1.9000e+000 72745 -5.2155e+001 -9.0179e+001 -2.5027e-001 63383 72592,72670,72618
 1.9000e+000 72722 -5.2894e+001 -8.5975e+001 -4.7327e+000 63383 72618,72670,72644
 1.9000e+000 73297 -6.3749e+001 -9.2962e+001 -1.1478e+000 63185 73000,73156,73130
 1.9000e+000 73274 -6.4187e+001 -9.7112e+001  1.2228e+001 63185 72974,73156,73000
 1.9000e+000 73251 -4.7497e+001 -1.0752e+002  7.2795e-001 63185 73000,73052,73026
 1.9000e+000 73228 -4.7744e+001 -9.2739e+001 -3.8401e+000 63185 73000,73130,73052
 1.9000e+000 73205 -5.0406e+001 -1.1308e+002 -1.5823e+001 63185 73052,73130,73104
 1.9000e+000 73182 -4.4860e+001 -1.2081e+002 -1.5631e+001 63185 73052,73104,73078
 1.9000e+000 73545 -1.4016e+001 -1.0076e+002  4.8317e-001 62781 73568,73398,73372
 1.9000e+000 73522 -2.4230e+000 -8.9203e+001  7.3974e+000 62781 73568,73372,73346
 1.9000e+000 73499 -2.3779e+001 -1.0456e+002 -1.1492e+001 62781 73640,73320,73424
 1.9000e+000 73476 -2.6235e-001 -9.5256e+001 -1.7534e+001 62781 73320,73450,73424
 1.9000e+000 73594 -1.3398e+001 -9.1772e+001 -1.3430e+000 62781 73424,73398,73568
 1.9000e+000 73617 -1.8200e+001 -9.9845e+001 -3.9244e+000 62781 73640,73424,73568
 1.9000e+000 73666 -1.9244e+001 -9.5263e+001 -4.1924e+000 62781 73346,73320,73640
 1.9000e+000 73689 -1.5818e+001 -8.8120e+001  2.7190e+000 62781 73346,73640,73568
 1.9000e+000 74035 -5.5974e+001 -1.2855e+002 -5.2917e+000 62363 74058,73868,73842
 1.9000e+000 74012 -4.1955e+001 -1.1600e+002 -1.2360e+001 62363 74130,74058,73842
 1.9000e+000 73989 -3.8175e+001 -1.1438e+002 -1.2120e+001 62363 74130,73842,73816
 1.9000e+000 73966 -6.0632e+001 -1.3474e+002  1.4274e+000 62363 74202,73764,73894
 1.9000e+000 73943 -7.5935e+001 -1.2017e+002  2.9035e+000 62363 73712,73894,73764
 1.9000e+000 73920 -8.4186e+001 -1.2751e+002 -1.6608e+000 62363 73712,73764,73738
 1.9000e+000 74084 -4.5636e+001 -1.2323e+002 -1.4047e+000 62363 73894,73868,74058
 1.9000e+000 74107 -5.5947e+001 -1.2884e+002  4.7896e+000 62363 74202,73894,74058
 1.9000e+000 74156 -4.6464e+001 -1.1668e+002  2.2566e+000 62363 73790,74058,74130
 1.9000e+000 74179 -2.6892e+001 -1.0818e+002  4.0679e+000 62363 73790,74130,73816
 1.9000e+000 74228 -6.5553e+001 -1.3694e+002 -7.0155e+000 62363 73790,73764,74202
 1.9000e+000 74251 -6.1814e+001 -1.3051e+002 -3.7361e+000 62363 73790,74202,74058
 1.9000e+000 74403  2.7778e+001 -1.2786e+002  1.0967e+001 62115 74426,74302,74276
 1.9000e+000 74380  3.2979e+001 -1.2205e+002  1.3207e+001 62115 74426,74276,74354
 1.9000e+000 74452  2.1816e+001 -1.2133e+002  1.0047e+001 62115 74328,74302,74426
 1.9000e+000 74475  2.6901e+001 -1.1539e+002  1.2305e+001 62115 74328,74426,74354
 1.9000e+000 74578 -1.4314e+000 -1.3045e+002 -5.4834e+000 61825 74500,74552,74526
 1.9000e+000 74982 -5.8327e+001 -1.1472e+002  2.3423e-002 61513 75005,74734,74708
 1.9000e+000 74959 -5.9256e+001 -1.1499e+002  2.1332e-001 61513 75005,74708,74864
 1.9000e+000 74936 -7.7328e+001 -1.1887e+002  5.8511e+000 61513 75077,74812,74734
 1.9000e+000 74913 -6.0648e+001 -1.1007e+002 -9.1414e+000 61513 74734,74786,74760
 1.9000e+000 74890 -6.1197e+001 -1.0487e+002 -2.6235e+000 61513 74734,74812,74786
 1.9000e+000 75031 -5.6595e+001 -1.1775e+002  3.1532e-002 61513 75077,74734,75005
 1.9000e+000 75054 -4.1745e+001 -1.1213e+002  1.8425e+001 61513 74838,75005,74864
 1.9000e+000 75103 -8.8477e+001 -1.2227e+002  2.5057e+001 61513 74838,74812,75077
 1.9000e+000 75126 -7.5160e+001 -1.2622e+002  1.9207e+001 61513 74838,75077,75005
 1.9000e+000 75553 -2.3146e+001 -9.6974e+001 -2.4873e+000 61060 75576,75360,75308
 1.9000e+000 75530 -1.7789e+001 -1.0795e+002 -5.0823e-001 61060 75576,75308,75230
 1.9000e+000 75507 -2.2346e+001 -9.2562e+001  2.3992e+000 61060 75308,75360,75334
 1.9000e+000 75484 -2.2831e+001 -1.1932e+002  4.5997e-001 61060 75230,75308,75256
 1.9000e+000 75461 -2.6817e+001 -1.1631e+002 -1.6708e+000 61060 75256,75308,75282
 1.9000e+000 75438 -3.5497e+001 -9.9633e+001  1.4818e+001 61060 75360,75412,75386
 1.9000e+000 75602 -2.2870e+001 -1.0497e+002  2.3762e+000 61060 75412,75360,75576
 1.9000e+000 75625 -2.0729e+001 -1.2129e+002  3.4650e+000 61060 75412,75576,75230
 1.9000e+000 76052 -3.7734e+001 -1.0297e+002  1.1326e+000 60442 75755,75859,75833
 1.9000e+000 76029 -3.4310e+001 -8.7822e+001 -1.4216e+001 60442 75729,75859,75755
 1.9000e+000 76006 -3.7140e+001 -8.8814e+001  5.7911e+000 60442 75755,75833,75807
 1.9000e+000 75983 -4.1849e+001 -1.0735e+002  1.2805e+000 60442 75755,75807,75781
 1.9000e+000 75960  2.7654e+000 -1.9538e+002  7.3859e+000 60442 75729,75911,75859
 1.9000e+000 75937 -8.9298e+001 -4.6278e+002  2.8665e+001 60442 75859,75911,75885
 1.9000e+000 76430 -3.9795e+001 -1.1545e+002 -1.2861e+000 59788 76453,76286,76234
 1.9000e+000 76407 -4.3227e+001 -1.3034e+002  4.6109e+000 59788 76453,76234,76182
 1.9000e+000 76384 -4.3709e+001 -7.8872e+001  1.7810e+001 59788 76525,76156,76312
 1.9000e+000 76361 -2.4831e+001 -1.5274e+002  1.9499e+000 59788 76182,76234,76208
 1.9000e+000 76338 -2.2420e+001 -1.0601e+002  2.5128e+000 59788 76234,76286,76260
 1.9000e+000 76479 -4.8115e+001 -1.2295e+002  2.8200e+000 59788 76312,76286,76453
 1.9000e+000 76502 -3.9456e+001 -1.1384e+002  7.6991e+000 59788 76525,76312,76453
 1.9000e+000 76551 -5.7774e+001 -1.2292e+002  1.8440e+001 59788 76182,76156,76525
 1.9000e+000 76574 -4.9732e+001 -1.3356e+002  1.1398e+001 59788 76182,76525,76453
 1.9000e+000 77031 -6.3119e+000 -6.3488e+001 -1.4142e+001 59448 76835,76887,76861
 1.9000e+000 77008  1.4380e+001 -4.5671e+001 -3.4432e-001 59448 76835,76913,76887
 1.9000e+000 76985  4.7844e-001 -4.7846e+001  1.2248e+001 59448 76809,76913,76835
 1.9000e+000 76962 -2.5055e+001 -5.6577e+001 -6.2865e+000 59448 76757,76913,76809
 1.9000e+000 76939 -1.6205e+001 -5.2595e+001 -9.8097e+000 59448 76757,76809,76783
 1.9000e+000 77537 -4.9887e+001 -1.1062e+002  3.7684e+000 58994 77560,77344,77292
 1.9000e+000 77514 -6.7996e+001 -1.0967e+002  2.8165e-001 58994 77560,77292,77240
 1.9000e+000 77491 -3.9587e+001 -1.0371e+002 -5.7573e+000 58994 77632,77214,77370
 1.9000e+000 77468 -8.0698e+001 -1.2528e+002  2.0292e+001 58994 77292,77344,77318
 1.9000e+000 77445 -4.1236e+001 -1.2425e+002 -3.8471e-001 58994 77214,77396,77370
 1.9000e+000 77422 -6.9265e+001 -1.1601e+002 -3.6462e+000 58994 77240,77292,77266
 1.9000e+000 77586 -5.5098e+001 -1.1259e+002  5.0960e+000 58994 77370,77344,77560
 1.9000e+000 77609 -5.2056e+001 -1.1136e+002  5.6197e+000 58994 77632,77370,77560
 1.9000e+000 77658 -3.2481e+001 -9.4938e+001 -1.7019e+001 58994 77240,77214,77632
 1.9000e+000 77681 -4.1419e+001 -9.3233e+001 -6.6690e+000 58994 77240,77632,77560
 1.9000e+000 78138 -3.4288e+001 -6.8630e+001  9.0146e+000 58440 77864,77994,77890
 1.9000e+000 78115 -1.8387e+001 -3.6638e+001 -9.2097e+000 58440 77864,78020,77994
 1.9000e+000 78092 -4.0089e+001 -8.4442e+001 -8.0548e+000 58440 77942,77994,77968
 1.9000e+000 78069 -2.8203e+001 -7.4800e+001  1.8773e+000 58440 77890,77994,77942
 1.9000e+000 78046 -2.6184e+001 -7.2815e+001  7.9635e-001 58440 77890,77942,77916
 1.9000e+000 78467 -8.5142e+000 -1.0521e+002  3.7135e+000 57928 78562,78490,78346
 1.9000e+000 78444 -2.2043e+001 -9.7014e+001  6.5469e+000 57928 78490,78294,78268
 1.9000e+000 78421 -4.6778e+000 -1.0903e+002  6.9895e+000 57928 78562,78346,78320
 1.9000e+000 78398 -1.1476e+001 -9.8677e+001  1.4018e+000 57928 78242,78372,78268
 1.9000e+000 78516 -2.3663e+001 -1.2965e+002 -6.0836e+000 57928 78372,78346,78490
 1.9000e+000 78539 -1.6473e+001 -9.8945e+001  2.2329e-001 57928 78372,78490,78268
 1.9000e+000 78588 -2.4771e+001 -1.0631e+002  2.8937e+000 57928 78294,78490,78562
 1.9000e+000 78611 -1.4572e+001 -1.0332e+002  8.5759e+000 57928 78294,78562,78320
 1.9000e+000 79068 -5.9318e+001 -1.4845e+002 -3.8716e+001 57467 78794,78924,78820
 1.9000e+000 79045 -4.1206e+001 -1.4116e+002 -3.9791e+001 57467 78794,78950,78924
 1.9000e+000 79022  2.5768e+000 -1.1827e+002  7.0240e+000 57467 78820,78898,78872
 1.9000e+000 78999 -4.4785e+001 -1.7444e+002 -2.4823e+001 57467 78820,78924,78898
 1.9000e+000 78976 -6.6738e+000 -1.2450e+002  1.0988e+001 57467 78820,78872,78846
 1.9000e+000 79446 -5.5626e+001 -1.1926e+002  2.8412e+000 57120 79172,79302,79250
 1.9000e+000 79423 -5.0776e+001 -1.1678e+002 -5.7650e+000 57120 79172,79328,79302
 1.9000e+000 79400 -5.2811e+001 -1.0426e+002 -5.9409e-001 57120 79172,79250,79198
 1.9000e+000 79377 -3.8460e+001 -1.6382e+002  7.2431e+000 57120 79250,79302,79276
 1.9000e+000 79354 -6.8802e+001 -1.1643e+002 -6.7525e+000 57120 79198,79250,79224
 1.9000e+000 79952 -6.2679e+001 -1.1336e+002  3.1936e+000 56773 79629,79785,79655
 1.9000e+000 79929 -8.9144e+000 -9.6812e+001  8.1628e+000 56773 79629,79811,79785
 1.9000e+000 79906 -4.2600e+001 -1.3435e+002  1.3436e+001 56773 79655,79733,79681
 1.9000e+000 79883 -4.1543e+001 -1.1208e+002  3.3963e+000 56773 79655,79785,79733
 1.9000e+000 79860 -3.3318e+001 -1.5278e+002 -2.4457e+001 56773 79733,79785,79759
 1.9000e+000 79837  7.3814e-001 -1.1393e+002  3.9236e+001 56773 79681,79733,79707
 1.9000e+000 80281 -2.2244e+001 -8.1609e+001 -1.0071e+001 56319 80108,80160,80134
 1.9000e+000 80258 -2.2316e+001 -9.9962e+001 -1.2695e+001 56319 80056,80160,80108
 1.9000e+000 80235 -3.9842e+000 -8.7066e+001  5.4843e+000 56319 80056,80186,80160
 1.9000e+000 80212 -2.4480e+001 -1.3681e+002 -1.5782e+001 56319 80056,80108,80082
 1.9000e+000 80738 -1.4380e+001 -1.0635e+002  8.2646e+000 55957 80516,80620,80594
 1.9000e+000 80715 -3.4426e+001 -9.3876e+001  8.0935e+000 55957 80464,80620,80516
 1.9000e+000 80692 -3.0262e+001 -1.1161e+002  5.9083e+000 55957 80761,80568,80542
 1.9000e+000 80669 -2.2493e+001 -1.1206e+002  6.4464e+000 55957 80761,80542,80516
 1.9000e+000 80646 -3.5525e+001 -9.6069e+001  1.8417e+001 55957 80464,80516,80490
 1.9000e+000 80787 -3.6317e+001 -1.1250e+002  5.3402e+000 55957 80594,80568,80761
 1.9000e+000 80810 -2.9182e+001 -1.1334e+002  6.0542e+000 55957 80594,80761,80516
 1.9000e+000 81210 -1.5302e+001 -1.0957e+002 -9.1792e+000 55317 80936,80988,80962
 1.9000e+000 81187 -1.3563e+001 -1.1612e+002 -3.8524e+000 55317 80936,81066,80988
 1.9000e+000 81164 -1.5344e+001 -1.2673e+002 -7.8928e-002 55317 80936,81092,81066
 1.9000e+000 81141 -4.1417e+001 -1.3057e+002 -1.3158e+001 55317 80988,81066,81014
 1.9000e+000 81118  1.0539e+000 -7.9274e+001  6.2441e+000 55317 81014,81066,81040
 1.9000e+000 81539 -4.0612e+001 -1.1224e+002  2.0297e+000 54913 81340,81418,81392
 1.9000e+000 81516  2.6964e+000 -8.7063e+001 -1.0607e+001 54913 81340,81444,81418
 1.9000e+000 81493 -1.4464e+001 -9.8441e+001 -2.3669e+001 54913 81314,81444,81340
 1.9000e+000 81470 -4.9547e+001 -1.3399e+002 -2.9628e+000 54913 81340,81392,81366
 1.9000e+000 81787 -2.9855e+001 -1.2919e+002 -7.0843e-001 54601 81588,81692,81640
 1.9000e+000 81764 -5.2430e+001 -1.3450e+002 -6.1934e+000 54601 81562,81692,81588
 1.9000e+000 81741 -2.2035e+001 -1.3039e+002  1.6165e+001 54601 81588,81640,81614
 1.9000e+000 81718 -3.1452e+001 -1.5572e+002 -1.3474e+001 54601 81640,81692,81666
 1.9000e+000 82344 -4.0171e+001 -1.3839e+002 -1.6312e+001 54090 81998,82102,82076
 1.9000e+000 82321 -6.2338e+001 -1.4826e+002 -9.2811e+000 54090 81998,82154,82102
 1.9000e+000 82298 -5.1981e+001 -1.4538e+002 -7.2237e+000 54090 81972,82154,81998
 1.9000e+000 82275 -5.1357e+001 -1.3135e+002 -1.7615e+001 54090 81998,82076,82024
 1.9000e+000 82252 -6.9080e+001 -1.5718e+002  5.0695e+000 54090 81972,82180,82154
 1.9000e+000 82229 -8.7371e+001 -1.7328e+002  5.2979e+000 54090 82102,82154,82128
 1.9000e+000 82206  3.7027e+001 -9.1951e+001 -2.6515e+001 54090 82024,82076,82050
 1.9000e+000 82722 -7.6375e+001 -1.4244e+002 -6.2543e+000 53579 82500,82578,82552
 1.9000e+000 82699 -5.3487e+001 -1.2805e+002  2.9998e+000 53579 82448,82578,82500
 1.9000e+000 82676 -5.7485e+001 -1.4633e+002  2.2213e+000 53579 82448,82500,82474
 1.9000e+000 82653 -7.4114e+001 -1.3927e+002  1.3166e+001 53579 82448,82604,82578
 1.9000e+000 82630 -3.7078e+001 -1.3291e+002 -7.6892e+000 53579 82500,82552,82526
 1.9000e+000 83356 -3.2225e+001 -1.0326e+002 -8.6366e+000 53189 83379,83088,83036
 1.9000e+000 83333 -3.0901e+001 -1.1632e+002 -7.6069e+000 53189 83379,83036,82984
 1.9000e+000 83310 -7.8183e+000 -1.0516e+002  2.5011e+001 53189 82984,83192,83166
 1.9000e+000 83287  9.5207e+000 -8.6505e+001 -8.0878e+000 53189 83036,83088,83062
 1.9000e+000 83264 -2.7833e+001 -1.4680e+002 -1.5759e+001 53189 82984,83036,83010
 1.9000e+000 83241 -1.2272e+001 -1.2562e+002  5.2601e+000 53189 83114,83166,83140
 1.9000e+000 83218 -4.8813e+001 -1.3606e+002  5.2025e+000 53189 83088,83166,83114
 1.9000e+000 83405 -3.2439e+001 -1.1201e+002 -3.2767e+000 53189 83166,83088,83379
 1.9000e+000 83428 -2.9145e+001 -1.2351e+002 -3.0759e+000 53189 83166,83379,82984
 1.9000e+000 83725 -4.3186e+001 -1.5127e+002 -1.1660e+001 52585 83748,83529,83503
 1.9000e+000 83702 -2.0263e+001 -1.4250e+002 -8.3566e+000 52585 83820,83748,83503
 1.9000e+000 83679  5.6521e+000 -1.3766e+002 -6.2748e+000 52585 83820,83503,83477
 1.9000e+000 83656 -2.5295e+001 -1.3206e+002  2.0565e+001 52585 83477,83607,83581
 1.9000e+000 83633  5.3407e+000 -1.1995e+002  1.8723e+001 52585 83451,83607,83477
 1.9000e+000 83774 -3.5599e+001 -1.3157e+002 -8.3038e+000 52585 83555,83529,83748
 1.9000e+000 83797 -6.1009e+001 -1.4054e+002 -4.5323e+000 52585 83555,83748,83581
 1.9000e+000 83846 -4.4678e+001 -1.2954e+002  4.8813e+000 52585 83581,83748,83820
 1.9000e+000 83869 -2.5523e+001 -1.2873e+002  4.2845e+000 52585 83581,83820,83477
 1.9000e+000 84200 -4.6016e+001 -1.4478e+002 -3.4049e+000 52024 84001,84105,84079
 1.9000e+000 84177 -2.4162e+001 -1.4067e+002 -8.8508e+000 52024 83975,84105,84001
 1.9000e+000 84154 -4.0079e+001 -1.4291e+002 -3.7356e+000 52024 84001,84079,84053
 1.9000e+000 84131 -2.3439e+001 -9.9483e+001  1.6213e+001 52024 84001,84053,84027
 1.9000e+000 84399 -2.7002e+001 -1.2817e+002 -6.0268e-001 51470 84422,84275,84249
 1.9000e+000 84376 -2.5628e+001 -1.2947e+002 -4.3105e-001 51470 84422,84249,84223
 1.9000e+000 84353 -2.9281e+001 -1.3819e+002 -1.6745e+001 51470 84275,84327,84301
 1.9000e+000 84448 -2.8087e+001 -1.2878e+002 -2.4821e-001 51470 84327,84275,84422
 1.9000e+000 84471 -2.6446e+001 -1.2980e+002 -2.1773e-001 51470 84327,84422,84223
 1.9000e+000 84753 -4.5188e+001 -1.3056e+002 -2.3450e+000 51073 84603,84655,84629
 1.9000e+000 84730 -9.2992e+001 -1.4721e+002 -3.0127e+000 51073 84776,84655,84603
 1.9000e+000 84707 -2.4327e+001 -1.1749e+002 -2.9745e+001 51073 84577,84681,84655
 1.9000e+000 84802 -5.5493e+001 -1.2626e+002 -1.4367e+001 51073 84577,84655,84776
 1.9000e+000 85178 -7.1042e+001 -1.5638e+002  1.5377e+001 50519 85201,85008,84982
 1.9000e+000 85155 -6.7003e+001 -1.4527e+002  1.2658e+001 50519 85273,85201,84982
 1.9000e+000 85132 -6.2777e+001 -1.4494e+002  1.0007e+001 50519 85273,84982,84930
 1.9000e+000 85109 -6.0837e+001 -1.4095e+002  8.8527e+000 50519 84930,84982,84956
 1.9000e+000 85086 -6.3265e+001 -1.5264e+002  1.0641e+001 50519 85008,85060,85034
 1.9000e+000 85227 -5.9670e+001 -1.4930e+002  8.2957e+000 50519 85060,85008,85201
 1.9000e+000 85250 -6.6289e+001 -1.5267e+002  6.0936e+000 50519 85060,85201,84904
 1.9000e+000 85299 -6.2816e+001 -1.4797e+002  3.8863e+000 50519 84904,85201,85273
 1.9000e+000 85322 -4.6787e+001 -1.2640e+002 -3.2123e+000 50519 84904,85273,84930
 1.9000e+000 85958 -3.2184e+001 -1.2292e+002 -3.3241e+000 50093 85981,85768,85716
 1.9000e+000 85935 -2.8087e+001 -1.1239e+002 -3.9166e+000 50093 85981,85716,85612
 1.9000e+000 85912 -3.6832e+001 -1.0864e+002  6.1647e-002 50093 85612,85716,85664
 1.9000e+000 85889 -2.2435e+001 -1.2039e+002 -6.2273e-001 50093 85716,85768,85742
 1.9000e+000 85866 -3.8525e+001 -9.2709e+001 -1.9177e+001 50093 85664,85716,85690
 1.9000e+000 85843  2.0826e+001 -7.9242e+001 -9.5208e+000 50093 85586,85794,85612
 1.9000e+000 85820 -2.3904e+001 -1.5712e+002  1.0128e+001 50093 85612,85664,85638
 1.9000e+000 86007 -3.9926e+001 -1.3145e+002 -1.7998e+001 50093 85794,85768,85981
 1.9000e+000 86030 -2.7515e+001 -1.0150e+002 -1.4938e+001 50093 85794,85981,85612
 1.9000e+000 86131 -2.9450e+001 -1.4191e+002  1.9208e+001 49895 86053,86105,86079
 1.9000e+000 86639 -1.6638e+001 -8.7903e+001 -1.0173e+001 49391 86662,86394,86368
 1.9000e+000 86616 -1.9571e+001 -1.0273e+002 -6.9615e+000 49391 86662,86368,86342
 1.9000e+000 86593 -8.6380e-001 -9.4922e+001  6.8767e+000 49391 86342,86498,86472
 1.9000e+000 86570  2.1106e+001 -1.0914e+002  7.8292e+000 49391 86316,86498,86342
 1.9000e+000 86547 -4.6494e+001 -1.5511e+002 -8.5410e-001 49391 86394,86472,86446
 1.9000e+000 86524  1.1080e+001 -1.5277e+002  5.9977e+000 49391 86394,86446,86420
 1.9000e+000 86688 -2.3722e+001 -1.0156e+002 -3.9373e+000 49391 86472,86394,86662
 1.9000e+000 86711 -1.7778e+001 -1.0755e+002 -2.6980e+000 49391 86472,86662,86342
 1.9000e+000 87089 -4.2906e+001 -1.2815e+002  3.8949e+000 48987 86815,86919,86867
 1.9000e+000 87066 -4.4357e+001 -1.3077e+002  5.1406e+000 48987 86815,86971,86919
 1.9000e+000 87043 -1.8794e+001 -1.4084e+002 -1.0636e+001 48987 86867,86919,86893
 1.9000e+000 87020 -4.8059e+001 -1.4362e+002  1.5310e+001 48987 86815,86867,86841
 1.9000e+000 86997 -5.2529e+001 -1.1671e+002  1.9119e+001 48987 86919,86971,86945
 1.9000e+000 87467 -8.4267e+001 -1.2530e+002  7.1658e+000 48540 87490,87245,87219
 1.9000e+000 87444 -6.2688e+001 -1.1795e+002  2.0470e+000 48540 87562,87490,87219
 1.9000e+000 87421 -4.5404e+001 -1.1088e+002  6.2338e+000 48540 87562,87219,87349
 1.9000e+000 87398 -6.7944e+001 -1.0049e+002 -1.2834e+000 48540 87245,87297,87271
 1.9000e+000 87375 -3.5565e+001 -1.2037e+002  3.6748e+000 48540 87193,87349,87219
 1.9000e+000 87516 -6.0001e+001 -1.1789e+002  5.2610e+000 48540 87297,87245,87490
 1.9000e+000 87539 -6.4075e+001 -1.2242e+002  8.6080e+000 48540 87297,87490,87323
 1.9000e+000 87588 -4.6216e+001 -1.1246e+002  1.3687e+001 48540 87323,87490,87562
 1.9000e+000 87611 -3.7579e+001 -1.1337e+002  1.6350e+001 48540 87323,87562,87349
 1.9000e+000 87810 -3.8098e+001 -2.3022e+002 -2.7728e+001 48136 87660,87712,87686
 1.9000e+000 87787 -1.5311e+001 -1.3517e+002 -1.2398e+001 48136 87660,87738,87712
 1.9000e+000 87764 -8.0419e+001 -1.4345e+002 -3.0713e+001 48136 87634,87738,87660
 1.9000e+000 88205 -5.0412e+001 -1.3835e+002 -1.1769e+001 47210 88300,88228,87937
 1.9000e+000 88182 -4.4565e+001 -1.3885e+002 -3.1520e+000 47210 88228,87833,88041
 1.9000e+000 88159 -5.0811e+001 -1.4711e+002 -1.8922e+001 47210 88300,87937,87911
 1.9000e+000 88136 -4.8567e+001 -1.3923e+002 -1.5954e+001 47210 87833,87911,87859
 1.9000e+000 88113 -8.4017e+001 -1.1350e+002 -1.1089e+001 47210 87937,87989,87963
 1.9000e+000 88090 -5.0767e+001 -1.1672e+002  2.7152e+001 47210 87989,88041,88015
 1.9000e+000 88067 -5.4362e+001 -1.5413e+002 -2.0506e+001 47210 87859,87911,87885
 1.9000e+000 88254 -4.5408e+001 -1.0840e+002 -1.4347e+001 47210 87989,87937,88228
 1.9000e+000 88277 -6.0379e+001 -1.3181e+002 -4.1141e+000 47210 87989,88228,88041
 1.9000e+000 88326 -4.0356e+001 -1.2943e+002 -4.9414e+000 47210 87833,88228,88300
 1.9000e+000 88349 -4.2582e+001 -1.3557e+002 -1.2532e+001 47210 87833,88300,87911
 1.9000e+000 88780 -9.2367e+001 -1.6411e+002 -2.8443e+001 46642 88803,88509,88483
 1.9000e+000 88757 -6.9430e+001 -1.4841e+002 -1.2213e+001 46642 88803,88483,88639
 1.9000e+000 88734 -7.5620e+001 -1.2016e+002 -1.7690e+001 46642 88875,88561,88509
 1.9000e+000 88711 -7.4003e+001 -1.1075e+002 -2.9396e+000 46642 88509,88561,88535
 1.9000e+000 88688 -3.0911e+001 -1.6266e+002  1.3582e+001 46642 88457,88639,88483
 1.9000e+000 88665 -8.7651e+001 -1.9096e+002 -6.6728e+000 46642 88561,88613,88587
 1.9000e+000 88829 -7.4163e+001 -1.3158e+002 -1.9817e+001 46642 88875,88509,88803
 1.9000e+000 88852 -7.3993e+001 -1.5507e+002 -9.8992e+000 46642 88613,88803,88639
 1.9000e+000 88901 -6.4757e+001 -1.3547e+002 -8.5796e+000 46642 88613,88561,88875
 1.9000e+000 88924 -6.8941e+001 -1.5410e+002 -9.9998e+000 46642 88613,88875,88803
 1.9000e+000 89253 -2.8243e+001 -1.4047e+002 -1.0179e+000 46444 89080,89158,89132
 1.9000e+000 89230 -2.8901e+001 -1.4122e+002 -2.8403e+000 46444 89028,89158,89080
 1.9000e+000 89207 -1.2941e+001 -1.3208e+002 -7.2484e+000 46444 89028,89080,89054
 1.9000e+000 89184 -1.4381e+001 -1.4842e+002 -1.2157e+001 46444 89080,89132,89106
 1.9000e+000 89631 -1.9221e+001 -8.2444e+001  3.6381e+000 46040 89383,89461,89435
 1.9000e+000 89608 -2.2768e+001 -9.4369e+001 -2.8040e+000 46040 89383,89487,89461
 1.9000e+000 89585 -2.3394e+001 -1.0690e+002 -1.6399e+000 46040 89383,89435,89409
 1.9000e+000 89562 -2.0221e+001 -8.2947e+001 -7.6007e+000 46040 89383,89513,89487
 1.9000e+000 89539  1.2690e+001 -6.2679e+001 -2.6402e+001 46040 89357,89513,89383
 1.9000e+000 90009 -2.9057e+001 -1.1076e+002  4.5949e-001 45636 89813,89891,89839
 1.9000e+000 89986 -3.0461e+001 -1.0363e+002  7.2422e+000 45636 89787,89891,89813
 1.9000e+000 89963 -2.6415e+001 -1.0312e+002 -2.0204e+000 45636 89839,89891,89865
 1.9000e+000 89940 -3.8295e+001 -1.1557e+002  3.8608e+000 45636 89735,89891,89787
 1.9000e+000 89917 -3.0589e+001 -1.1628e+002 -2.8582e+000 45636 89735,89787,89761
 1.9000e+000 90208 -2.2626e+001 -8.8423e+001 -1.9668e+001 45175 90231,90058,90032
 1.9000e+000 90185 -9.9904e+000 -7.9373e+001 -2.9785e+001 45175 90231,90032,90136
 1.9000e+000 90162 -2.9710e+001 -6.8553e+001 -5.4247e-001 45175 90058,90110,90084
 1.9000e+000 90257 -3.6415e+001 -1.0111e+002 -3.8638e+000 45175 90110,90058,90231
 1.9000e+000 90280 -1.2410e+001 -8.5341e+001 -1.5180e+001 45175 90110,90231,90136
 1.9000e+000 90528 -2.2833e+001 -8.4622e+001 -9.4353e+000 44513 90695,90551,90407
 1.9000e+000 90505 -2.8850e+001 -8.2074e+001 -4.3781e+000 44513 90551,90355,90329
 1.9000e+000 90482 -3.2370e+001 -7.4343e+001 -6.4839e+000 44513 90623,90303,90433
 1.9000e+000 90459 -1.3971e+001 -7.9580e+001 -7.4136e+000 44513 90695,90407,90381
 1.9000e+000 90577 -3.6261e+001 -8.9360e+001 -1.5494e+001 44513 90433,90407,90551
 1.9000e+000 90600 -3.0493e+001 -8.0908e+001 -6.6352e+000 44513 90623,90433,90551
 1.9000e+000 90649 -3.5837e+001 -8.1581e+001 -4.8875e+000 44513 90329,90303,90623
 1.9000e+000 90672 -3.3135e+001 -8.4292e+001 -5.4825e+000 44513 90329,90623,90551
 1.9000e+000 90721 -3.1980e+001 -7.8767e+001 -1.0152e+001 44513 90355,90551,90695
 1.9000e+000 90744 -2.8569e+001 -7.7506e+001 -9.5703e+000 44513 90355,90695,90381
 1.9000e+000 91077  9.0289e+000 -7.7721e+001  1.6063e+001 44059 91100,90930,90904
 1.9000e+000 91054 -4.0012e+001 -1.0318e+002  6.1143e+000 44059 91100,90904,90982
 1.9000e+000 91031 -5.3314e+001 -1.0363e+002 -3.5558e-001 44059 90878,90982,90904
 1.9000e+000 91008 -1.5790e+001 -8.7138e+001  4.0199e+000 44059 90852,90982,90878
 1.9000e+000 91126 -7.2325e+001 -1.0332e+002  4.9096e+000 44059 91172,91100,90956
 1.9000e+000 91149 -3.7345e+001 -9.7998e+001  1.7497e+000 44059 90956,91100,90982
 1.9000e+000 91198 -1.1285e+001 -7.6722e+001 -1.3887e+001 44059 90930,91100,91172
 1.9000e+000 91677 -5.0747e+001 -8.5093e+001  9.4114e+000 43549 91455,91533,91481
 1.9000e+000 91654 -1.5207e+001 -8.2696e+001  1.3888e+001 43549 91429,91533,91455
 1.9000e+000 91631 -4.7421e+001 -8.0716e+001  5.8933e+000 43549 91481,91533,91507
 1.9000e+000 91608 -5.5458e+000 -7.8714e+001  9.0315e+000 43549 91429,91559,91533
 1.9000e+000 91585  1.8201e+001 -2.8649e+001  1.6218e+001 43549 91403,91559,91429
 1.9000e+000 92006 -3.9491e+001 -1.1743e+002  5.6115e+000 43059 91781,91885,91807
 1.9000e+000 91983 -4.0231e+001 -1.0748e+002  2.3974e+001 43059 91781,91911,91885
 1.9000e+000 91960 -3.4512e+001 -1.1395e+002  4.0783e+000 43059 91807,91885,91833
 1.9000e+000 91937 -1.4396e+001 -1.0628e+002  1.1574e+000 43059 91833,91885,91859
 1.9000e+000 92561 -4.2467e+001 -8.9074e+001 -9.4813e+000 42598 92584,92215,92189
 1.9000e+000 92538 -4.4620e+001 -1.0050e+002 -9.8433e+000 42598 92656,92584,92189
 1.9000e+000 92515 -3.8449e+001 -1.1379e+002 -3.0790e+000 42598 92656,92189,92397
 1.9000e+000 92492 -4.9614e+001 -7.7247e+001 -1.1193e+001 42598 92241,92319,92293
 1.9000e+000 92469 -4.5572e+001 -9.6273e+001  5.6085e+000 42598 92319,92397,92371
 1.9000e+000 92446 -2.0389e+001 -1.1963e+002  4.3977e+001 42598 92319,92371,92345
 1.9000e+000 92423 -5.1337e+001 -8.2008e+001 -1.8612e+001 42598 92241,92293,92267
 1.9000e+000 92610 -4.2932e+001 -8.9050e+001 -9.1559e+000 42598 92241,92215,92584
 1.9000e+000 92633 -3.9619e+001 -8.1690e+001 -1.2025e+001 42598 92241,92584,92319
 1.9000e+000 92682 -3.8672e+001 -8.2365e+001 -6.4457e+000 42598 92319,92584,92656
 1.9000e+000 92705 -3.0228e+001 -9.1937e+001 -1.2372e+000 42598 92319,92656,92397
 1.9000e+000 92953 -3.9901e+001 -1.2701e+002  1.0995e+001 42094 92976,92806,92780
 1.9000e+000 92930 -4.5784e+001 -1.1774e+002  3.2036e+000 42094 92976,92780,92754
 1.9000e+000 92907  4.1947e+000 -1.2397e+002  1.7235e+000 42094 93048,92832,92806
 1.9000e+000 92884 -6.3889e+001 -1.1216e+002 -8.0376e+000 42094 92728,92858,92754
 1.9000e+000 93002 -1.9552e+001 -1.1544e+002  6.3331e+000 42094 93048,92806,92976
 1.9000e+000 93025 -4.0819e+001 -1.1443e+002 -1.4061e+000 42094 92858,92976,92754
 1.9000e+000 93074 -2.8188e+001 -1.3732e+002 -5.5250e-001 42094 92858,92832,93048
 1.9000e+000 93097 -4.8178e+001 -1.2715e+002  2.3027e+000 42094 92858,93048,92976
 1.9000e+000 93605 -4.7620e+001 -1.4420e+002 -3.0239e+000 41846 93628,93412,93386
 1.9000e+000 93582 -4.0408e+001 -1.1245e+002 -6.7277e-001 41846 93628,93386,93308
 1.9000e+000 93559 -5.3220e+001 -1.1302e+002 -1.4127e+001 41846 93700,93464,93438
 1.9000e+000 93536 -5.9314e+001 -1.4092e+002  8.5036e+000 41846 93308,93386,93334
 1.9000e+000 93513 -5.8813e+001 -1.3831e+002  7.2990e+000 41846 93334,93386,93360
 1.9000e+000 93490 -5.1510e+001 -9.1974e+001 -1.0521e+001 41846 93282,93464,93308
 1.9000e+000 93654 -3.8914e+001 -1.1759e+002 -8.8132e+000 41846 93438,93412,93628
 1.9000e+000 93677 -5.3525e+001 -1.1442e+002 -7.2185e+000 41846 93700,93438,93628
 1.9000e+000 93726 -5.0066e+001 -1.0446e+002 -1.3234e+001 41846 93308,93464,93700
 1.9000e+000 93749 -4.9184e+001 -1.0313e+002 -6.4047e+000 41846 93308,93700,93628
 1.9000e+000 94255 -2.9606e+001 -1.1747e+002  1.0211e+001 41385 93958,94114,94088
 1.9000e+000 94232 -2.3369e+001 -1.2695e+002  5.5475e+000 41385 93932,94114,93958
 1.9000e+000 94209 -6.0556e+001 -1.3851e+002  2.7342e+001 41385 93958,94088,94062
 1.9000e+000 94186 -6.8280e+001 -9.4227e+001  2.1599e+001 41385 93958,94062,93984
 1.9000e+000 94163 -5.2988e+001 -9.2539e+001  1.7564e+001 41385 93984,94062,94036
 1.9000e+000 94140 -3.6954e+001 -1.2458e+002  2.3823e+001 41385 93984,94036,94010
 1.9000e+000 94476  5.6392e+000 -1.6898e+002  1.5450e+001 40881 94326,94378,94352
 1.9000e+000 94453 -1.9835e+001 -1.3612e+002  1.4542e+001 40881 94300,94378,94326
 1.9000e+000 94430 -2.4382e+001 -1.2157e+002  2.0280e+000 40881 94300,94404,94378
 1.9000e+000 94626 -3.5989e+001 -8.9585e+001  3.9916e+000 40591 94649,94551,94525
 1.9000e+000 94603 -6.8828e+000 -6.9643e+001  1.9368e+000 40591 94781,94577,94551
 1.9000e+000 94675 -1.7577e+000 -7.3017e+001 -5.1460e+000 40591 94781,94551,94649
 1.9000e+000 94807  5.0265e+000 -6.4629e+001  3.1845e+000 40591 94499,94577,94781
 1.9000e+000 94830  9.6407e+000 -6.8185e+001 -4.9833e+000 40591 94499,94781,94649
 1.9000e+000 95336 -7.5729e+001 -1.0842e+002 -1.6251e+001 40187 95013,95169,95039
 1.9000e+000 95313 -3.9647e+001 -9.9499e+001 -9.0103e+000 40187 95013,95195,95169
 1.9000e+000 95290 -2.9445e+001 -1.1118e+002  4.1254e+000 40187 95039,95143,95065
 1.9000e+000 95267 -8.0954e+001 -1.2861e+002 -2.2062e+001 40187 95039,95169,95143
 1.9000e+000 95244 -5.8794e+001 -1.5159e+002 -1.0115e+001 40187 95091,95143,95117
 1.9000e+000 95221 -2.6143e+001 -1.0395e+002  5.9994e+000 40187 95065,95143,95091
 1.9000e+000 95665 -4.1395e+001 -9.8177e+001  1.7106e+001 39626 95466,95570,95544
 1.9000e+000 95642 -5.1050e+001 -8.3541e+001  1.2017e+001 39626 95440,95570,95466
 1.9000e+000 95619 -3.6767e+001 -9.8714e+001  6.9380e+000 39626 95466,95544,95492
 1.9000e+000 95596 -6.6340e+001 -9.5852e+001  6.2370e+000 39626 95492,95544,95518
 1.9000e+000 95913 -4.1608e+001 -9.8820e+001 -1.3802e+001 39136 96080,95936,95766
 1.9000e+000 95890 -2.9486e+001 -1.0861e+002 -6.9182e+000 39136 95936,95714,95688
 1.9000e+000 95867 -7.7119e+001 -1.0734e+002  6.7200e+000 39136 96008,95792,95766
 1.9000e+000 95844 -3.3690e+001 -9.5735e+001 -1.1986e+001 39136 96080,95766,95740
 1.9000e+000 95962 -5.9797e+001 -1.1204e+002 -7.8899e+000 39136 96008,95766,95936
 1.9000e+000 95985 -3.7247e+001 -1.3330e+002 -2.8996e-001 39136 95818,95936,95688
 1.9000e+000 96034 -3.4944e+001 -8.8905e+001  1.0128e+001 39136 95818,95792,96008
 1.9000e+000 96057 -3.0419e+001 -9.8373e+001 -4.3544e+000 39136 95818,96008,95936
 1.9000e+000 96106 -3.8561e+001 -1.0085e+002 -2.2047e+000 39136 95714,95936,96080
 1.9000e+000 96129 -2.5204e+001 -9.6072e+001 -1.2790e+000 39136 95714,96080,95740
 1.9000e+000 96350 -2.8119e+001 -9.1170e+001 -1.9333e+000 38824 96200,96278,96252
 1.9000e+000 96327 -2.9825e+001 -9.1815e+001 -2.0039e+000 38824 96174,96278,96200
 1.9000e+000 96304 -2.6225e+001 -9.0705e+001 -2.6061e+000 38824 96200,96252,96226
 1.9000e+000 96830 -5.7971e+001 -1.0190e+002 -8.9442e+000 38320 97069,96536,96484
 1.9000e+000 96807 -5.6843e+001 -1.0341e+002 -8.8752e+000 38320 97069,96484,96853
 1.9000e+000 96784 -6.2216e+001 -1.1209e+002  2.9146e+000 38320 96853,96484,96458
 1.9000e+000 96761 -3.4087e+001 -8.6305e+001 -8.8140e+000 38320 96925,96640,96614
 1.9000e+000 96738 -5.2970e+001 -8.9196e+001 -2.7016e+000 38320 96997,96666,96640
 1.9000e+000 96715 -4.6149e+001 -1.2033e+002 -3.2342e+000 38320 97141,96588,96562
 1.9000e+000 96692 -7.3704e+001 -1.1834e+002 -1.9535e+000 38320 96484,96536,96510
 1.9000e+000 96879 -5.6099e+001 -1.0870e+002 -4.5606e+000 38320 97141,96562,96853
 1.9000e+000 96902 -5.0688e+001 -1.0457e+002 -1.8290e+000 38320 96925,96614,96853
 1.9000e+000 96951 -5.2132e+001 -8.8674e+001 -2.9696e+000 38320 96997,96640,96925
 1.9000e+000 96974 -4.9730e+001 -8.7615e+001 -1.4320e+000 38320 96458,96925,96853
 1.9000e+000 97023 -5.6723e+001 -8.9728e+001 -6.9393e-001 38320 96458,96666,96997
 1.9000e+000 97046 -5.3657e+001 -8.8347e+001 -9.9635e-001 38320 96458,96997,96925
 1.9000e+000 97095 -6.0273e+001 -9.8561e+001 -2.0382e+000 38320 96562,96536,97069
 1.9000e+000 97118 -5.4147e+001 -1.0241e+002 -7.7465e+000 38320 96562,97069,96853
 1.9000e+000 97167 -2.8932e+001 -1.0950e+002 -8.1507e+000 38320 96614,96588,97141
 1.9000e+000 97190 -4.5300e+001 -1.0247e+002 -8.0406e+000 38320 96614,97141,96853
 1.9000e+000 97519 -4.1787e+001 -1.0896e+002  2.5583e+001 37766 97542,97398,97372
 1.9000e+000 97496 -5.5721e+001 -9.6824e+001  1.3970e+001 37766 97542,97372,97346
 1.9000e+000 97473 -5.1041e+001 -1.0580e+002  2.0768e+000 37766 97294,97424,97346
 1.9000e+000 97450 -5.8156e+001 -1.2704e+002 -4.2665e-001 37766 97294,97346,97320
 1.9000e+000 97568 -1.8964e+001 -1.0408e+002  1.9123e+001 37766 97424,97398,97542
 1.9000e+000 97591 -3.9331e+001 -9.2507e+001  7.8615e+000 37766 97424,97542,97346
 1.9000e+000 98048 -4.7635e+001 -7.8594e+001 -2.5630e+001 37262 98071,97878,97852
 1.9000e+000 98025 -3.9053e+001 -9.3399e+001 -1.0287e+001 37262 98071,97852,97800
 1.9000e+000 98002 -4.9643e+001 -1.1460e+002 -6.7223e+000 37262 97800,97852,97826
 1.9000e+000 97979 -4.9953e+001 -9.9693e+001  3.9385e+000 37262 97800,97930,97904
 1.9000e+000 97956 -3.5141e+001 -1.1567e+002  8.5140e+000 37262 97774,97930,97800
 1.9000e+000 98097 -7.1697e+001 -8.9982e+001 -1.9664e+001 37262 97904,97878,98071
 1.9000e+000 98120 -5.1747e+001 -1.0427e+002 -5.2569e+000 37262 97904,98071,97800
 1.9000e+000 98449 -1.1451e+001 -6.0066e+001 -1.0464e+001 36950 98472,98302,98250
 1.9000e+000 98426  8.5066e-001 -5.6289e+001 -1.2725e+001 36950 98472,98250,98354
 1.9000e+000 98403 -3.0732e+001 -7.1792e+001  1.2622e+001 36950 98250,98302,98276
 1.9000e+000 98380 -1.2413e+000 -3.9057e+001  1.1318e+001 36950 98224,98354,98250
 1.9000e+000 98498 -2.3240e+000 -6.9998e+001 -3.2064e+000 36950 98328,98302,98472
 1.9000e+000 98521  1.2059e+001 -6.4324e+001 -7.5331e+000 36950 98328,98472,98354
 1.9000e+000 99125 -6.9724e+001 -6.9247e+001  8.5240e+000 36296 98704,98756,98730
 1.9000e+000 99102 -4.9049e+001 -7.4863e+001  9.6278e-001 36296 98704,98938,98756
 1.9000e+000 99079 -3.5344e+001 -8.0768e+001 -2.3417e+000 36296 99148,98938,98912
 1.9000e+000 99056 -3.9801e+001 -8.0409e+001  1.4828e+001 36296 99292,99220,98782
 1.9000e+000 99033 -3.1231e+001 -8.6855e+001  5.0720e-001 36296 99148,98912,98834
 1.9000e+000 99010 -3.5783e+001 -6.8686e+001  1.4801e+001 36296 99292,98782,98756
 1.9000e+000 98987 -3.0266e+001 -1.5249e+002 -2.9553e+001 36296 98834,98912,98886
 1.9000e+000 98964 -5.3910e+001 -2.1969e+002 -3.8085e+001 36296 98834,98886,98860
 1.9000e+000 99174 -4.2077e+001 -9.3126e+001  9.8246e-001 36296 99220,98938,99148
 1.9000e+000 99197 -3.0404e+001 -1.0291e+002  8.3097e+000 36296 98808,99148,98834
 1.9000e+000 99246 -3.5442e+001 -7.0094e+001  3.9147e+001 36296 98808,98782,99220
 1.9000e+000 99269 -1.5194e+001 -6.9359e+001  1.1680e+001 36296 98808,99220,99148
 1.9000e+000 99318 -3.7335e+001 -6.7143e+001  6.4475e+000 36296 98938,99220,99292
 1.9000e+000 99341 -3.8322e+001 -6.9290e+001  7.0483e+000 36296 98938,99292,98756
 1.9000e+000 99719 -4.6162e+001 -1.1536e+002  4.4548e+000 35742 99742,99471,99601
 1.9000e+000 99696 -4.8228e+001 -8.6729e+001  1.7330e+001 35742 99445,99601,99471
 1.9000e+000 99673 -4.2698e+001 -1.0748e+002 -4.2094e+000 35742 99742,99601,99575
 1.9000e+000 99650 -3.2098e+001 -1.3782e+002 -2.8026e+000 35742 99814,99549,99523
 1.9000e+000 99627 -3.0061e+001 -1.0575e+002  5.9998e+000 35742 99471,99523,99497
 1.9000e+000 99768 -3.0356e+001 -1.1075e+002  6.3359e+000 35742 99523,99471,99742
 1.9000e+000 99791 -4.0604e+001 -1.2500e+002 -2.3261e+000 35742 99814,99523,99742
 1.9000e+000 99840 -2.9299e+001 -1.2245e+002 -7.7135e+000 35742 99575,99549,99814
 1.9000e+000 99863 -3.5272e+001 -1.0598e+002 -6.9582e+000 35742 99575,99814,99742
 1.9000e+000 100111 -3.2198e+001 -8.9853e+001  1.0973e+001 35302 100134,99990,99938
 1.9000e+000 100088 -2.4132e+001 -7.8621e+001  6.4633e+000 35302 100134,99938,99912
 1.9000e+000 100065 -2.5724e+001 -7.9114e+001  3.0519e-001 35302 100206,99886,100016
 1.9000e+000 100042 -4.2551e+001 -8.5045e+001  8.8616e+000 35302 99938,99990,99964
 1.9000e+000 100160 -2.0955e+001 -8.5554e+001  4.9371e+000 35302 100016,99990,100134
 1.9000e+000 100183 -2.1627e+001 -8.1362e+001  6.5001e-001 35302 100206,100016,100134
 1.9000e+000 100232 -3.1263e+001 -8.1747e+001  1.1420e+000 35302 99912,99886,100206
 1.9000e+000 100255 -2.6737e+001 -8.3916e+001  1.6650e+000 35302 99912,100206,100134
 1.9000e+000 100586 -2.9093e+001 -6.3571e+001  1.4964e-001 35012 100609,100387,100361
 1.9000e+000 100563 -2.9432e+001 -6.8281e+001  2.4039e+000 35012 100609,100361,100465
 1.9000e+000 100540 -4.6058e+001 -8.4644e+001  9.8262e+000 35012 100361,100491,100465
 1.9000e+000 100517 -2.4912e+001 -6.6976e+001  9.2738e+000 35012 100413,100465,100439
 1.9000e+000 100635 -3.0083e+001 -6.4234e+001  5.1750e+000 35012 100413,100387,100609
 1.9000e+000 100658 -3.1494e+001 -7.1494e+001  7.3030e+000 35012 100413,100609,100465
 1.9000e+000 100987 -4.0579e+001 -8.4548e+001  5.8759e+000 34700 100788,100866,100814
 1.9000e+000 100964 -3.2973e+001 -7.8799e+001  8.5011e+000 34700 101010,100866,100788
 1.9000e+000 100941 -3.4399e+001 -8.4017e+001  1.7043e+001 34700 100762,100892,100866
 1.9000e+000 100918 -4.4854e+001 -9.1904e+001 -2.1030e+000 34700 100814,100866,100840
 1.9000e+000 101036 -2.7254e+001 -7.4838e+001  1.1752e+001 34700 100762,100866,101010
 1.9000e+000 101493 -5.2941e+001 -1.0456e+002 -6.3371e+000 34132 101516,101349,101297
 1.9000e+000 101470 -6.7367e+001 -1.3037e+002 -1.3544e+001 34132 101588,101516,101297
 1.9000e+000 101447 -6.7074e+001 -1.3724e+002 -2.2433e+001 34132 101588,101297,101245
 1.9000e+000 101424 -4.0965e+001 -1.6065e+002 -2.0945e+001 34132 101245,101297,101271
 1.9000e+000 101401 -6.0123e+001 -1.0436e+002 -9.9091e+000 34132 101297,101349,101323
 1.9000e+000 101542 -5.2476e+001 -1.2510e+002 -5.0066e+000 34132 101375,101349,101516
 1.9000e+000 101565 -4.8802e+001 -1.2729e+002 -6.7218e+000 34132 101375,101516,101219
 1.9000e+000 101614 -5.0637e+001 -1.3018e+002 -5.9270e+000 34132 101219,101516,101588
 1.9000e+000 101637 -5.8866e+001 -1.3750e+002 -1.4300e+001 34132 101219,101588,101245
 1.9000e+000 101858 -8.5092e+000 -1.0023e+002  7.1974e+000 33720 101708,101786,101760
 1.9000e+000 101835 -2.3420e+001 -1.1792e+002  3.1813e-001 33720 101682,101786,101708
 1.9000e+000 101812 -3.0364e+001 -1.1053e+002  4.1249e+000 33720 101708,101760,101734
 1.9000e+000 102128  1.4404e+000 -1.1171e+002 -4.2343e+000 33130 101903,102007,101929
 1.9000e+000 102105 -8.2887e-001 -1.3318e+002  4.6460e+000 33130 101903,102033,102007
 1.9000e+000 102082  9.5115e+000 -1.3674e+002 -3.0699e+001 33130 101929,102007,101955
 1.9000e+000 102059 -7.0652e+000 -9.0701e+001  2.5447e+000 33130 101955,102007,101981
 1.9000e+000 102461 -4.3206e+001 -1.1197e+002 -9.6638e+000 32840 102236,102340,102262
 1.9000e+000 102438 -3.5382e+001 -7.7940e+001  1.8609e+000 32840 102236,102366,102340
 1.9000e+000 102415 -2.3081e+001 -1.0591e+002 -8.8507e+000 32840 102262,102340,102288
 1.9000e+000 102392 -5.7461e+001 -1.1463e+002 -2.4457e+001 32840 102288,102340,102314
 1.9000e+000 102997 -3.7780e+001 -6.4079e+001  1.7029e+001 32493 102749,102879,102853
 1.9000e+000 102974 -3.0657e+001 -5.0205e+001  1.1752e+001 32493 102723,102879,102749
 1.9000e+000 102951 -4.4941e+001 -8.0123e+001  1.2341e+001 32493 102749,102801,102775
 1.9000e+000 102928 -4.7083e+001 -7.7281e+001  1.0692e+001 32493 102749,102853,102801
 1.9000e+000 102905 -4.6044e+001 -7.5318e+001  1.0164e+001 32493 102801,102853,102827
 1.9000e+000 103454 -5.0472e+001 -9.5001e+001 -5.0936e+000 32089 103206,103336,103310
 1.9000e+000 103431 -4.2167e+001 -9.3066e+001  4.1264e-001 32089 103180,103336,103206
 1.9000e+000 103408 -5.4211e+001 -1.0868e+002 -1.4824e+001 32089 103206,103284,103258
 1.9000e+000 103385 -7.3834e+001 -1.1205e+002 -1.7235e+001 32089 103206,103310,103284
 1.9000e+000 103362 -4.6776e+001 -8.3769e+001  4.7625e+000 32089 103206,103258,103232
 1.9000e+000 103783 -7.5506e+001 -1.1345e+002 -1.0602e+001 31742 103558,103662,103584
 1.9000e+000 103760 -6.7606e+001 -1.0343e+002 -2.1941e+001 31742 103558,103688,103662
 1.9000e+000 103737 -5.2612e+001 -9.5026e+001 -1.9728e+001 31742 103584,103662,103636
 1.9000e+000 103714 -2.9838e+001 -1.0780e+002 -3.2552e+001 31742 103584,103636,103610
 1.9000e+000 104112 -7.0733e+000 -9.6001e+001  2.1588e+001 31402 103939,103991,103965
 1.9000e+000 104089 -2.7785e+001 -8.4808e+001  9.8067e+000 31402 103913,103991,103939
 1.9000e+000 104066 -3.9498e+001 -9.6248e+001  3.6429e+000 31402 103913,104017,103991
 1.9000e+000 104043 -4.6005e+001 -8.3779e+001 -1.6885e+000 31402 103887,104017,103913
 1.9000e+000 104569 -7.1980e+001 -1.3544e+002  2.9975e-001 30998 104321,104425,104373
 1.9000e+000 104546 -7.9991e+001 -1.3801e+002 -6.1958e-001 30998 104321,104451,104425
 1.9000e+000 104523 -6.5676e+001 -1.1807e+002  1.0657e+001 30998 104373,104425,104399
 1.9000e+000 104500 -7.2008e+001 -1.4596e+002 -4.5429e+000 30998 104295,104451,104321
 1.9000e+000 104477 -1.0189e+002 -1.7006e+002  2.5798e+001 30998 104321,104373,104347
 1.9000e+000 104947 -6.6411e+001 -1.0809e+002 -1.4470e+001 30608 104751,104803,104777
 1.9000e+000 104924 -4.3037e+001 -1.1076e+002 -5.7888e+000 30608 104725,104803,104751
 1.9000e+000 104901 -6.1985e+001 -1.0682e+002  4.8080e+000 30608 104699,104803,104725
 1.9000e+000 104878 -6.2342e+001 -1.0755e+002  5.6527e+000 30608 104673,104803,104699
 1.9000e+000 104855 -4.9560e+001 -1.0519e+002 -5.3912e+000 30608 104673,104829,104803
 1.9000e+000 105276 -3.8057e+001 -9.5722e+001  9.0096e+000 30204 105427,105129,105077
 1.9000e+000 105253 -1.8546e+001 -9.8359e+001  3.0001e+001 30204 105427,105077,105051
 1.9000e+000 105230 -3.0493e+001 -1.0137e+002  5.1071e+000 30204 105077,105129,105103
 1.9000e+000 105207 -6.9941e+001 -8.6795e+001  9.6894e+000 30204 105299,105181,105155
 1.9000e+000 105325 -5.5461e+001 -7.9943e+001  7.0858e+000 30204 105129,105181,105299
 1.9000e+000 105453 -4.9557e+001 -1.0132e+002  1.1651e+001 30204 105181,105129,105427
 1.9000e+000 105476 -5.5610e+001 -1.1533e+002  3.4693e+001 30204 105181,105427,105051
 1.9000e+000 105903 -1.2988e+001 -7.6536e+001 -7.1296e+000 29700 105606,105762,105736
 1.9000e+000 105880 -2.8811e+001 -8.0188e+001  2.6260e+000 29700 105580,105762,105606
 1.9000e+000 105857 -3.3658e+001 -1.0003e+002 -3.6071e+000 29700 105606,105710,105632
 1.9000e+000 105834 -2.6346e+001 -7.8655e+001 -2.5726e+000 29700 105606,105736,105710
 1.9000e+000 105811 -5.2057e+001 -1.0936e+002  5.9501e+000 29700 105632,105710,105684
 1.9000e+000 105788 -4.3759e+001 -9.0284e+001  8.5568e-002 29700 105632,105684,105658
 1.9000e+000 106102 -2.3897e+001 -1.1031e+002  1.6344e+000 29124 105978,106030,106004
 1.9000e+000 106079 -3.7928e+001 -1.1651e+002 -1.2576e+000 29124 105926,106030,105978
 1.9000e+000 106056 -3.4435e+001 -1.1763e+002  1.1736e+001 29124 105926,105978,105952
 1.9000e+000 106301 -1.6057e+001 -9.4318e+001  1.5930e-001 28712 106151,106229,106203
 1.9000e+000 106278 -2.0761e+001 -1.0756e+002 -6.7302e+000 28712 106125,106229,106151
 1.9000e+000 106255 -1.4553e+001 -9.0172e+001 -3.6684e+000 28712 106151,106203,106177
 1.9000e+000 106551 -3.2824e+001 -1.2947e+002  2.7786e-001 28258 106352,106404,106378
 1.9000e+000 106528 -4.3200e+001 -1.3169e+002 -1.9035e+000 28258 106352,106456,106404
 1.9000e+000 106505 -3.6222e+001 -1.3953e+002 -4.8190e+000 28258 106326,106456,106352
 1.9000e+000 106482 -4.3219e+001 -1.2585e+002  1.7391e+000 28258 106404,106456,106430
 1.9000e+000 107012 -4.7449e+001 -1.1317e+002  2.3395e+001 27818 107035,106790,106764
 1.9000e+000 106989 -4.0547e+001 -1.0354e+002  1.1282e+001 27818 107035,106764,106868
 1.9000e+000 106966 -3.4296e+001 -1.1804e+002  1.1828e+001 27818 107107,106842,106816
 1.9000e+000 106943 -6.2767e+001 -1.0089e+002  9.6794e+000 27818 106738,106868,106764
 1.9000e+000 106920 -6.6696e+001 -9.9366e+001  2.8128e+001 27818 106738,106894,106868
 1.9000e+000 107061 -2.4145e+001 -1.0606e+002  2.3945e+001 27818 106816,106790,107035
 1.9000e+000 107084 -3.6355e+001 -1.1382e+002  1.2408e+001 27818 107107,106816,107035
 1.9000e+000 107133 -3.8451e+001 -1.1090e+002  8.1795e+000 27818 106868,106842,107107
 1.9000e+000 107156 -3.7656e+001 -1.0299e+002  1.0164e+001 27818 106868,107107,107035
 1.9000e+000 107613 -1.1757e+001 -8.4061e+001  1.5868e+001 27312 107339,107469,107365
 1.9000e+000 107590 -7.7938e-001 -7.8795e+001  1.3811e+001 27312 107339,107495,107469
 1.9000e+000 107567 -1.4421e+001 -8.0558e+001  7.0584e+000 27312 107391,107469,107443
 1.9000e+000 107544 -1.1241e+001 -8.6946e+001  6.2305e+000 27312 107365,107469,107391
 1.9000e+000 107521 -3.9583e+001 -8.9112e+001  2.8607e+000 27312 107391,107443,107417
 1.9000e+000 107991 -4.8060e+001 -1.3042e+002  1.1059e+000 26858 108086,108014,107795
 1.9000e+000 107968 -5.1703e+001 -1.3331e+002 -1.4069e+001 26858 108014,107717,107873
 1.9000e+000 107945 -5.6462e+001 -1.3842e+002  6.6832e+000 26858 108158,108086,107795
 1.9000e+000 107922 -4.5728e+001 -1.3847e+002  6.2173e+000 26858 108158,107795,107769
 1.9000e+000 107899 -3.1763e+001 -1.6706e+002  2.2462e+001 26858 107821,107873,107847
 1.9000e+000 108040 -4.8755e+001 -1.4852e+002  5.3073e+000 26858 107821,107795,108014
 1.9000e+000 108063 -2.3219e+001 -1.4244e+002 -3.9931e+000 26858 107821,108014,107873
 1.9000e+000 108112 -6.8205e+001 -1.3798e+002  4.7730e+000 26858 107717,108014,108086
 1.9000e+000 108135 -5.6904e+001 -1.4356e+002  1.4328e+001 26858 107717,108086,107743
 1.9000e+000 108184 -4.4072e+001 -1.3596e+002  1.0548e+001 26858 107743,108086,108158
 1.9000e+000 108207 -3.9167e+001 -1.4020e+002  1.0584e+001 26858 107743,108158,107769
 1.9000e+000 108634 -5.7358e+001 -1.2265e+002  1.4246e+000 26404 108657,108415,108363
 1.9000e+000 108611 -6.5257e+001 -1.3300e+002  1.3881e+001 26404 108657,108363,108337
 1.9000e+000 108588 -5.3326e+001 -1.1629e+002  1.8309e+001 26404 108729,108311,108467
 1.9000e+000 108565 -7.1726e+001 -1.4019e+002 -1.8729e+000 26404 108801,108441,108415
 1.9000e+000 108542 -1.0041e+002 -1.3698e+002  2.1360e+001 26404 108311,108493,108467
 1.9000e+000 108519 -4.5267e+001 -1.2433e+002  8.0079e-001 26404 108363,108415,108389
 1.9000e+000 108683 -8.2858e+001 -1.2961e+002 -2.7791e-001 26404 108801,108415,108657
 1.9000e+000 108706 -7.9327e+001 -1.2458e+002  1.3469e+001 26404 108729,108467,108657
 1.9000e+000 108755 -3.5935e+001 -1.2834e+002  1.8486e+001 26404 108337,108311,108729
 1.9000e+000 108778 -4.9313e+001 -1.2756e+002  1.3483e+001 26404 108337,108729,108657
 1.9000e+000 108827 -8.3391e+001 -1.5970e+002 -8.0360e+000 26404 108467,108441,108801
 1.9000e+000 108850 -9.0234e+001 -1.4238e+002 -6.0137e+000 26404 108467,108801,108657
 1.9000e+000 109228 -3.3706e+001 -1.2108e+002  2.3255e+000 26064 109006,109084,109058
 1.9000e+000 109205 -3.4581e+001 -1.1903e+002  5.7110e+000 26064 108980,109084,109006
 1.9000e+000 109182 -3.1867e+001 -1.0683e+002 -5.2366e+000 26064 108980,109110,109084
 1.9000e+000 109159 -2.9842e+001 -1.3690e+002  1.4401e+001 26064 109006,109058,109032
 1.9000e+000 109136 -7.2347e+000 -8.2141e+001  4.7769e+000 26064 108954,109110,108980
 1.9000e+000 109427 -2.1813e+001 -1.1058e+002 -2.3227e+001 25660 109303,109355,109329
 1.9000e+000 109404 -3.3885e+001 -1.3431e+002 -7.2530e+000 25660 109277,109355,109303
 1.9000e+000 109381 -2.5433e+001 -1.2597e+002 -3.6717e+000 25660 109251,109355,109277
 1.9000e+000 109577  4.3725e+000 -4.6037e+001  3.6710e+001 25306 109476,109528,109502
 1.9000e+000 109554  1.6979e+001 -6.1411e+001  7.1706e+000 25306 109450,109528,109476
 1.9000e+000 109778 -1.5861e+001 -1.0842e+002  2.8611e+000 24944 109628,109706,109654
 1.9000e+000 109755 -1.7722e+001 -1.1064e+002  1.9320e+000 24944 109602,109706,109628
 1.9000e+000 109732 -2.6859e+000 -9.6960e+001 -1.4279e+001 24944 109654,109706,109680
 1.9000e+000 110126 -4.1466e+001 -1.5345e+002  9.6743e+000 24440 110149,109907,109855
 1.9000e+000 110103 -4.5898e+001 -1.5893e+002  1.2350e+001 24440 110149,109855,109985
 1.9000e+000 110080 -2.8908e+001 -1.3723e+002  3.1353e+000 24440 109855,109907,109881
 1.9000e+000 110057 -2.9918e+001 -1.2811e+002  3.7233e+001 24440 109829,109985,109855
 1.9000e+000 110034 -4.2848e+001 -1.5512e+002  8.9151e-001 24440 109907,109959,109933
 1.9000e+000 110011 -5.9820e+001 -1.4655e+002  1.2528e+001 24440 109803,109985,109829
 1.9000e+000 110175 -4.2883e+001 -1.4634e+002  4.3741e+000 24440 109959,109907,110149
 1.9000e+000 110198 -5.0264e+001 -1.5291e+002  7.8124e+000 24440 109959,110149,109985
 1.9000e+000 110301  9.1485e-001 -1.5679e+002 -2.0692e+001 24028 110223,110275,110249
 1.9000e+000 110573  2.9697e+000 -9.8728e+001  2.6925e+001 23467 110400,110452,110426
 1.9000e+000 110550 -2.7855e+001 -1.1928e+002  6.0843e+000 23467 110374,110452,110400
 1.9000e+000 110527 -3.5558e+001 -1.2253e+002  8.4358e+000 23467 110348,110452,110374
 1.9000e+000 110504 -1.7744e+001 -1.1110e+002  2.6568e+000 23467 110348,110478,110452
 1.9000e+000 111004 -6.8839e+001 -1.4873e+002 -1.8498e+001 22963 111027,110733,110707
 1.9000e+000 110981 -6.9056e+001 -1.4104e+002  5.8725e+000 22963 111027,110707,110681
 1.9000e+000 110958 -3.5841e+001 -1.2396e+002 -1.2098e+001 22963 111099,110759,110733
 1.9000e+000 110935 -4.3443e+001 -1.2425e+002 -1.0076e+001 22963 111171,110863,110811
 1.9000e+000 110912 -2.6228e+001 -9.4079e+001 -1.4215e+001 22963 110759,110811,110785
 1.9000e+000 110889 -4.7345e+001 -1.3643e+002 -1.0761e+001 22963 110811,110863,110837
 1.9000e+000 111053 -4.9488e+001 -1.3171e+002 -8.8294e+000 22963 111099,110733,111027
 1.9000e+000 111076 -4.1843e+001 -1.3241e+002 -8.5268e+000 22963 111171,110811,111027
 1.9000e+000 111125 -3.5849e+001 -1.2331e+002 -2.0110e+001 22963 110811,110759,111099
 1.9000e+000 111148 -3.8705e+001 -1.2338e+002 -1.8541e+001 22963 110811,111099,111027
 1.9000e+000 111197 -4.4645e+001 -1.0942e+002 -1.2876e+001 22963 110681,110863,111171
 1.9000e+000 111220 -4.8133e+001 -1.2037e+002 -7.2699e+000 22963 110681,111171,111027
 1.9000e+000 111726 -6.5944e+001 -1.3348e+002  1.8905e+000 22459 111749,111507,111429
 1.9000e+000 111703 -6.1128e+001 -1.3197e+002 -3.1926e+000 22459 111749,111429,111585
 1.9000e+000 111680 -5.3345e+001 -1.3986e+002 -1.7451e+000 22459 111403,111585,111429
 1.9000e+000 111657 -6.4027e+001 -1.4537e+002  4.4291e+000 22459 111507,111559,111533
 1.9000e+000 111634 -8.6593e+001 -1.2602e+002  6.0673e+000 22459 111455,111507,111481
 1.9000e+000 111611 -8.5219e+001 -1.2444e+002  8.0832e+000 22459 111429,111507,111455
 1.9000e+000 111775 -6.6105e+001 -1.4126e+002  6.4312e+000 22459 111559,111507,111749
 1.9000e+000 111798 -6.1089e+001 -1.3579e+002  1.4825e+000 22459 111559,111749,111585
 1.9000e+000 112046 -9.3961e+000 -1.1515e+002 -1.5870e+000 21898 112069,111925,111873
 1.9000e+000 112023 -6.8688e+000 -1.1205e+002  6.9077e+000 21898 112069,111873,111847
 1.9000e+000 112000 -1.0213e+001 -1.2425e+002 -2.4328e+000 21898 111821,111951,111847
 1.9000e+000 111977 -2.6630e+001 -8.9794e+001  2.0359e+000 21898 111873,111925,111899
 1.9000e+000 112095 -2.1794e+001 -1.1851e+002 -6.7055e+000 21898 111951,111925,112069
 1.9000e+000 112118 -1.4546e+001 -1.1405e+002  1.5916e+000 21898 111951,112069,111847
 1.9000e+000 112498 -5.0098e+001 -1.2106e+002 -1.0381e+001 21608 112521,112276,112224
 1.9000e+000 112475 -3.4462e+001 -1.2326e+002 -4.7362e-001 21608 112521,112224,112380
 1.9000e+000 112452 -3.8114e+001 -1.3962e+002  7.5898e+000 21608 112302,112380,112354
 1.9000e+000 112429 -5.6857e+001 -1.3609e+002 -7.5553e+000 21608 112224,112276,112250
 1.9000e+000 112406  1.4124e+001 -1.5385e+002 -9.1875e+000 21608 112302,112354,112328
 1.9000e+000 112547 -3.7177e+001 -1.0490e+002 -3.5420e+000 21608 112302,112276,112521
 1.9000e+000 112570 -2.7235e+001 -1.1818e+002  3.5708e+000 21608 112302,112521,112380
 1.9000e+000 112948 -5.8034e+001 -1.2936e+002 -3.5609e+000 20882 112971,112752,112700
 1.9000e+000 112925 -4.1028e+001 -1.2377e+002 -7.4211e+000 20882 112971,112700,112830
 1.9000e+000 112902 -7.6543e+001 -1.3949e+002  7.7045e+000 20882 112778,112830,112804
 1.9000e+000 112879 -3.7545e+001 -9.5458e+001 -1.0326e+001 20882 112674,112830,112700
 1.9000e+000 112856 -7.0136e+001 -1.3468e+002  7.0143e-001 20882 112700,112752,112726
 1.9000e+000 112997 -5.8674e+001 -1.2964e+002  5.8618e+000 20882 112778,112752,112971
 1.9000e+000 113020 -4.8966e+001 -1.2699e+002  1.6559e+000 20882 112778,112971,112830
 1.9000e+000 113526 -4.6791e+001 -1.3138e+002 -1.3070e-001 20428 113255,113385,113333
 1.9000e+000 113503 -5.0062e+001 -1.4130e+002 -1.9217e-001 20428 113229,113385,113255
 1.9000e+000 113480 -8.1968e+000 -1.2703e+002  1.1101e+000 20428 113255,113333,113281
 1.9000e+000 113457 -4.3938e+001 -1.3824e+002  1.0548e+000 20428 113203,113385,113229
 1.9000e+000 113434 -2.6463e+001 -1.3330e+002 -4.8713e+000 20428 113281,113333,113307
 1.9000e+000 113411 -5.5578e+001 -1.2778e+002  1.7869e+000 20428 113333,113385,113359
 1.9000e+000 113774 -2.4144e+001 -1.2850e+002  7.5771e+000 19917 113797,113601,113549
 1.9000e+000 113751 -3.3208e+001 -1.2952e+002  8.4421e+000 19917 113869,113797,113549
 1.9000e+000 113728 -3.2690e+001 -1.3010e+002  1.0867e+001 19917 113869,113549,113679
 1.9000e+000 113705 -2.1453e+001 -1.2015e+002  8.0031e+000 19917 113549,113601,113575
 1.9000e+000 113823 -3.3242e+001 -1.3183e+002  3.0123e+000 19917 113627,113601,113797
 1.9000e+000 113846 -3.5322e+001 -1.2519e+002  6.6528e+000 19917 113627,113797,113653
 1.9000e+000 113895 -3.1795e+001 -1.2388e+002  7.0206e+000 19917 113653,113797,113869
 1.9000e+000 113918 -3.3145e+001 -1.2518e+002  1.0080e+001 19917 113653,113869,113679
 1.9000e+000 114166 -5.8344e+001 -1.2917e+002 -3.4501e+000 19413 113993,114045,114019
 1.9000e+000 114143 -4.9099e+001 -1.1885e+002  6.4695e-001 19413 113967,114045,113993
 1.9000e+000 114120 -4.4874e+001 -1.1742e+002  3.7374e+000 19413 113967,114071,114045
 1.9000e+000 114097 -2.9484e+001 -1.2975e+002 -3.9381e+000 19413 113941,114071,113967
 1.9000e+000 114438 -2.2410e+001 -1.2397e+002 -2.0218e+000 19001 114213,114265,114239
 1.9000e+000 114415 -1.6874e+001 -1.0445e+002 -1.2870e+000 19001 114213,114343,114265
 1.9000e+000 114392 -3.0263e+001 -1.3252e+002 -6.4678e+000 19001 114265,114343,114317
 1.9000e+000 114369 -2.3646e+000 -1.1743e+002  5.5299e-001 19001 114265,114317,114291
 1.9000e+000 114639 -4.8479e+001 -1.2978e+002 -6.7048e+000 18554 114489,114541,114515
 1.9000e+000 114616 -2.5965e+000 -1.2687e+002 -1.3591e+001 18554 114489,114567,114541
 1.9000e+000 114593 -5.1490e+001 -1.2787e+002 -2.3836e+001 18554 114463,114567,114489
 1.9000e+000 115043 -2.9438e+001 -1.2449e+002  3.7067e+000 18164 114795,114925,114821
 1.9000e+000 115020 -2.3114e+001 -1.3097e+002  8.3152e+000 18164 114769,114925,114795
 1.9000e+000 114997 -2.0462e+001 -1.3078e+002 -1.2638e+000 18164 115066,114873,114821
 1.9000e+000 114974 -1.8087e+001 -1.1257e+002 -3.3993e+000 18164 115066,114821,114925
 1.9000e+000 114951 -2.7211e+000 -1.3060e+002 -9.5475e+000 18164 114821,114873,114847
 1.9000e+000 115092 -2.8228e+001 -1.1757e+002 -1.1058e+001 18164 114899,114873,115066
 1.9000e+000 115115 -1.8977e+001 -8.9800e+001 -1.3845e+001 18164 114899,115066,114925
 1.9000e+000 115265 -4.1709e+001 -1.5022e+002  7.4490e-001 17852 115164,115216,115190
 1.9000e+000 115242 -3.9477e+001 -1.5216e+002  1.5066e+000 17852 115138,115216,115164
 1.9000e+000 115464 -7.6672e+001 -1.8315e+002  2.7521e+000 17346 115288,115366,115340
 1.9000e+000 115441 -1.2769e+002 -1.4534e+002 -3.7560e+000 17346 115288,115392,115366
 1.9000e+000 115418 -7.3057e+001 -2.0570e+002 -6.2454e+000 17346 115288,115340,115314
 1.9000e+000 115736 -3.9082e+001 -1.3038e+002  4.2944e+000 16942 115563,115641,115615
 1.9000e+000 115713 -4.0301e+001 -1.2639e+002  2.2790e+000 16942 115511,115641,115563
 1.9000e+000 115690 -9.3422e+001 -1.5051e+002  8.8981e+000 16942 115563,115615,115589
 1.9000e+000 115667 -4.6568e+001 -1.4069e+002  4.4830e+000 16942 115511,115563,115537
 1.9000e+000 116091 -6.3445e+001 -1.4246e+002 -5.1024e+000 16388 115918,115970,115944
 1.9000e+000 116068 -5.4846e+001 -1.1637e+002 -3.0533e+000 16388 115918,115996,115970
 1.9000e+000 116045 -7.0978e+001 -1.4481e+002  4.4473e+000 16388 115892,115996,115918
 1.9000e+000 116022 -4.9954e+001 -1.3701e+002  1.4397e+001 16388 115866,115996,115892
 1.9000e+000 116192 -2.1170e+001 -1.6151e+002 -2.3003e+001 15810 116114,116166,116140
 1.9000e+000 116342 -2.2590e+001 -1.3624e+002  1.0553e+001 15419 116241,116293,116267
 1.9000e+000 116319 -2.5078e+001 -1.6701e+002 -8.2525e-001 15419 116215,116293,116241
 1.9000e+000 116445 -6.1895e+001 -1.2869e+002 -1.2508e+000 421 116367,116419,116393
 2.0000e+000 68477 -9.0258e+001 -1.3689e+002  3.6247e+000 68018 68327,68379,68353
 2.0000e+000 68454 -9.6394e+001 -1.7941e+002  1.5937e+001 68018 68301,68379,68327
 2.0000e+000 68431 -4.3976e+001 -2.0562e+002  3.5912e+001 68018 68301,68405,68379
 2.0000e+000 68578 -5.5449e+001 -1.3981e+002  4.0901e-001 67820 68500,68552,68526
 2.0000e+000 68728 -6.2563e+001 -1.3230e+002 -2.6646e+000 67508 68601,68653,68627
 2.0000e+000 68705 -1.0665e+002 -9.8601e+001 -2.1889e+001 67508 68601,68679,68653
 2.0000e+000 68927 -9.9624e+000 -1.0877e+002 -4.8322e+000 67310 68777,68829,68803
 2.0000e+000 68904 -3.0250e+001 -1.2660e+002  3.4218e+000 67310 68751,68829,68777
 2.0000e+000 68881 -3.6763e+001 -1.4288e+002  1.7717e+000 67310 68751,68855,68829
 2.0000e+000 69386 -5.2988e+001 -1.4978e+002 -7.9823e+000 67020 69216,69268,69242
 2.0000e+000 69363 -4.4418e+001 -1.0922e+002 -1.4055e+001 67020 69138,69268,69216
 2.0000e+000 69340 -3.4651e+001 -9.6918e+001 -6.4319e+000 67020 69112,69268,69138
 2.0000e+000 69317 -6.4876e+001 -1.2682e+002  9.9009e+000 67020 69138,69190,69164
 2.0000e+000 69294 -6.6686e+001 -1.1462e+002 -4.8430e+000 67020 69138,69216,69190
 2.0000e+000 69536 -9.7717e+001 -2.5991e+002 -1.6584e+001 66708 69435,69487,69461
 2.0000e+000 69513 -7.7381e+001 -2.8801e+002 -1.5178e+000 66708 69409,69487,69435
 2.0000e+000 69735 -6.0094e+001 -1.4915e+002  3.4281e+000 66346 69585,69637,69611
 2.0000e+000 69712 -4.7983e+001 -1.4271e+002 -4.1732e-001 66346 69559,69637,69585
 2.0000e+000 69689 -4.1934e+001 -1.4139e+002 -1.4666e+001 66346 69559,69663,69637
 2.0000e+000 69985 -8.0903e+001 -1.5285e+002  4.0323e+000 66148 69786,69890,69864
 2.0000e+000 69962 -8.3692e+001 -1.5490e+002  5.4308e+000 66148 69760,69890,69786
 2.0000e+000 69939 -5.4556e+001 -1.4187e+002 -2.1231e+001 66148 69786,69864,69838
 2.0000e+000 69916 -6.9103e+001 -1.5739e+002 -5.7175e+000 66148 69786,69838,69812
 2.0000e+000 70137  5.4304e+000 -1.3177e+002 -9.0956e+000 65950 70036,70088,70062
 2.0000e+000 70114  2.5460e+001 -1.5193e+002  1.4755e+001 65950 70010,70088,70036
 2.0000e+000 70470  1.5821e+000 -1.0347e+002  2.2310e+000 65546 70245,70323,70271
 2.0000e+000 70447 -1.7543e+000 -1.1242e+002  2.1977e+000 65546 70245,70375,70323
 2.0000e+000 70424  7.2695e-001 -1.3154e+002  7.2020e+000 65546 70323,70375,70349
 2.0000e+000 70401 -6.4009e+000 -1.0685e+002  3.2867e+000 65546 70271,70323,70297
 2.0000e+000 70620 -3.4787e+001 -1.4289e+002  7.4516e+000 65348 70493,70545,70519
 2.0000e+000 70597 -3.1271e+001 -1.5651e+002  4.9933e+000 65348 70493,70571,70545
 2.0000e+000 70721 -7.4555e+001 -1.5350e+002  3.4243e+000 65150 70643,70695,70669
 2.0000e+000 71020 -4.9547e+001 -1.0380e+002  5.7179e+000 64952 71043,70850,70824
 2.0000e+000 70997 -3.7561e+001 -8.6226e+001 -4.0499e+000 64952 71043,70824,70772
 2.0000e+000 70974 -3.3887e+001 -1.3396e+002  3.3062e+000 64952 71115,70746,70876
 2.0000e+000 70951 -4.4371e+001 -1.3168e+002  8.9387e+000 64952 70746,70902,70876
 2.0000e+000 70928 -4.4909e+001 -8.3422e+001 -6.6817e+000 64952 70772,70824,70798
 2.0000e+000 71069 -2.6697e+001 -9.2116e+001  1.1234e+001 64952 70876,70850,71043
 2.0000e+000 71092 -3.8208e+001 -1.2043e+002  1.5515e+000 64952 71115,70876,71043
 2.0000e+000 71141 -3.8374e+001 -1.1923e+002 -7.1669e+000 64952 70772,70746,71115
 2.0000e+000 71164 -3.5901e+001 -9.8358e+001 -1.0123e+001 64952 70772,71115,71043
 2.0000e+000 71365 -5.1819e-001 -1.2877e+002 -3.3334e+000 64662 71215,71293,71267
 2.0000e+000 71342  3.7756e+001 -9.3311e+001 -3.1659e+001 64662 71189,71293,71215
 2.0000e+000 71319  2.1269e+001 -8.5397e+001  4.0009e+000 64662 71215,71267,71241
 2.0000e+000 71615 -2.7458e+001 -1.3355e+002  6.8301e-002 64350 71710,71638,71468
 2.0000e+000 71592 -1.1952e+001 -1.2602e+002 -5.7072e+000 64350 71638,71416,71390
 2.0000e+000 71569 -3.4014e+001 -1.2084e+002  1.1318e+001 64350 71710,71468,71442
 2.0000e+000 71546  4.9425e+001 -1.2257e+002 -2.4585e+001 64350 71390,71520,71494
 2.0000e+000 71664 -2.0064e+001 -1.2933e+002 -3.6990e+000 64350 71494,71468,71638
 2.0000e+000 71687 -1.7213e+001 -1.3334e+002 -1.6277e+000 64350 71494,71638,71390
 2.0000e+000 71736 -1.4585e+001 -1.0757e+002 -4.1447e+000 64350 71416,71638,71710
 2.0000e+000 71759 -2.4152e+001 -9.8548e+001  9.3392e+000 64350 71416,71710,71442
 2.0000e+000 72318 -2.7449e+001 -2.0692e+002 -1.2101e+001 63837 71972,72024,71998
 2.0000e+000 72295 -3.8039e+001 -1.3072e+002 -7.3785e-001 63837 72341,71972,71946
 2.0000e+000 72272 -3.5294e+001 -1.0208e+002  9.5946e+000 63837 72413,72341,71946
 2.0000e+000 72249 -3.6014e+001 -9.0523e+001  6.4275e+000 63837 72413,71946,72128
 2.0000e+000 72226 -6.1531e+001 -1.1128e+002  5.5351e+000 63837 72024,72076,72050
 2.0000e+000 72203 -5.0115e+001 -9.8772e+001 -9.7984e-001 63837 72024,72102,72076
 2.0000e+000 72180 -2.9736e+001 -8.8720e+001  1.0425e+001 63837 71946,72154,72128
 2.0000e+000 72367 -5.8339e+001 -1.4455e+002 -2.8095e+001 63837 72024,71972,72341
 2.0000e+000 72390 -3.9134e+001 -1.1080e+002 -8.6363e+000 63837 72024,72341,72102
 2.0000e+000 72439 -2.9954e+001 -1.2058e+002  5.1951e+000 63837 72102,72341,72413
 2.0000e+000 72462 -2.9799e+001 -1.0776e+002  3.5376e+000 63837 72102,72413,72128
 2.0000e+000 72791 -5.3523e+001 -1.1210e+002 -1.1143e+001 63383 72592,72696,72670
 2.0000e+000 72768 -5.7661e+001 -1.0908e+002 -2.2401e+001 63383 72566,72696,72592
 2.0000e+000 72745 -5.7943e+001 -1.0044e+002 -6.6017e-001 63383 72592,72670,72618
 2.0000e+000 72722 -5.9383e+001 -9.8227e+001 -4.9675e+000 63383 72618,72670,72644
 2.0000e+000 73297 -7.0925e+001 -1.0486e+002 -9.9637e-001 63185 73000,73156,73130
 2.0000e+000 73274 -7.0782e+001 -1.0787e+002  1.3260e+001 63185 72974,73156,73000
 2.0000e+000 73251 -5.3022e+001 -1.2088e+002  5.9080e-001 63185 73000,73052,73026
 2.0000e+000 73228 -5.4122e+001 -1.0514e+002 -4.1900e+000 63185 73000,73130,73052
 2.0000e+000 73205 -5.6243e+001 -1.2638e+002 -1.8113e+001 63185 73052,73130,73104
 2.0000e+000 73182 -4.9849e+001 -1.3539e+002 -1.7907e+001 63185 73052,73104,73078
 2.0000e+000 73545 -1.6224e+001 -1.1158e+002  1.0206e+000 62781 73568,73398,73372
 2.0000e+000 73522 -3.3875e+000 -1.0095e+002  9.2254e+000 62781 73568,73372,73346
 2.0000e+000 73499 -2.3547e+001 -1.1602e+002 -1.0378e+001 62781 73640,73320,73424
 2.0000e+000 73476 -4.5104e+001 -9.2476e+001 -1.2391e+001 62781 73320,73450,73424
 2.0000e+000 73594 -2.0983e+001 -1.0300e+002  4.0804e-001 62781 73424,73398,73568
 2.0000e+000 73617 -2.0925e+001 -1.1212e+002 -1.4270e+000 62781 73640,73424,73568
 2.0000e+000 73666 -1.8779e+001 -1.0583e+002 -5.1317e+000 62781 73346,73320,73640
 2.0000e+000 73689 -1.6784e+001 -9.8149e+001  3.0198e+000 62781 73346,73640,73568
 2.0000e+000 74035 -6.1533e+001 -1.4318e+002 -5.8224e+000 62363 74058,73868,73842
 2.0000e+000 74012 -4.6709e+001 -1.2964e+002 -1.3520e+001 62363 74130,74058,73842
 2.0000e+000 73989 -4.2730e+001 -1.2753e+002 -1.2620e+001 62363 74130,73842,73816
 2.0000e+000 73966 -6.7391e+001 -1.5024e+002  1.6514e+000 62363 74202,73764,73894
 2.0000e+000 73943 -8.3990e+001 -1.3403e+002  3.3556e+000 62363 73712,73894,73764
 2.0000e+000 73920 -9.3269e+001 -1.4360e+002 -1.5418e+000 62363 73712,73764,73738
 2.0000e+000 74084 -5.0453e+001 -1.3691e+002 -1.6133e+000 62363 73894,73868,74058
 2.0000e+000 74107 -6.2123e+001 -1.4348e+002  5.3623e+000 62363 74202,73894,74058
 2.0000e+000 74156 -5.1220e+001 -1.2941e+002  2.4459e+000 62363 73790,74058,74130
 2.0000e+000 74179 -2.9844e+001 -1.1948e+002  5.1502e+000 62363 73790,74130,73816
 2.0000e+000 74228 -7.2820e+001 -1.5267e+002 -7.9677e+000 62363 73790,73764,74202
 2.0000e+000 74251 -6.8568e+001 -1.4527e+002 -4.3565e+000 62363 73790,74202,74058
 2.0000e+000 74403  3.0960e+001 -1.4067e+002  1.1467e+001 62115 74426,74302,74276
 2.0000e+000 74380  3.6547e+001 -1.3497e+002  1.3862e+001 62115 74426,74276,74354
 2.0000e+000 74452  2.4625e+001 -1.3415e+002  1.0601e+001 62115 74328,74302,74426
 2.0000e+000 74475  3.0054e+001 -1.2834e+002  1.3027e+001 62115 74328,74426,74354
 2.0000e+000 74578  4.8770e+001 -1.0268e+002  6.5032e+000 61825 74500,74552,74526
 2.0000e+000 74982 -6.5184e+001 -1.2763e+002 -1.7352e-002 61513 75005,74734,74708
 2.0000e+000 74959 -6.5581e+001 -1.2695e+002 -1.6126e-001 61513 75005,74708,74864
 2.0000e+000 74936 -8.5775e+001 -1.3212e+002  6.7352e+000 61513 75077,74812,74734
 2.0000e+000 74913 -6.7519e+001 -1.2093e+002 -9.7266e+000 61513 74734,74786,74760
 2.0000e+000 74890 -6.8844e+001 -1.1699e+002 -2.5887e+000 61513 74734,74812,74786
 2.0000e+000 75031 -6.2767e+001 -1.3104e+002  1.1175e-001 61513 75077,74734,75005
 2.0000e+000 75054 -4.6548e+001 -1.2506e+002  2.0089e+001 61513 74838,75005,74864
 2.0000e+000 75103 -9.8206e+001 -1.3617e+002  2.7945e+001 61513 74838,74812,75077
 2.0000e+000 75126 -8.3394e+001 -1.4074e+002  2.1303e+001 61513 74838,75077,75005
 2.0000e+000 75553 -2.6146e+001 -1.0760e+002 -2.8050e+000 61060 75576,75360,75308
 2.0000e+000 75530 -1.9972e+001 -1.1990e+002 -5.1743e-001 61060 75576,75308,75230
 2.0000e+000 75507 -2.5533e+001 -1.0302e+002  2.3576e+000 61060 75308,75360,75334
 2.0000e+000 75484 -2.5287e+001 -1.3186e+002  5.5203e-001 61060 75230,75308,75256
 2.0000e+000 75461 -2.9621e+001 -1.2935e+002 -1.3262e+000 61060 75256,75308,75282
 2.0000e+000 75438 -3.9836e+001 -1.0912e+002  1.6684e+001 61060 75360,75412,75386
 2.0000e+000 75602 -2.5971e+001 -1.1653e+002  2.6114e+000 61060 75412,75360,75576
 2.0000e+000 75625 -2.3366e+001 -1.3477e+002  3.9255e+000 61060 75412,75576,75230
 2.0000e+000 76052 -4.2150e+001 -1.1356e+002  1.3437e+000 60442 75755,75859,75833
 2.0000e+000 76029 -3.9129e+001 -9.7438e+001 -1.5237e+001 60442 75729,75859,75755
 2.0000e+000 76006 -4.1832e+001 -9.8639e+001  6.5795e+000 60442 75755,75833,75807
 2.0000e+000 75983 -4.6318e+001 -1.1897e+002  1.7765e+000 60442 75755,75807,75781
 2.0000e+000 75960  4.4108e+000 -2.1406e+002  7.7710e+000 60442 75729,75911,75859
 2.0000e+000 75937 -9.9032e+001 -5.1322e+002  3.1010e+001 60442 75859,75911,75885
 2.0000e+000 76430 -4.4685e+001 -1.2917e+002 -1.3206e+000 59788 76453,76286,76234
 2.0000e+000 76407 -4.8449e+001 -1.4553e+002  5.1707e+000 59788 76453,76234,76182
 2.0000e+000 76384 -4.9263e+001 -8.8388e+001  1.9666e+001 59788 76525,76156,76312
 2.0000e+000 76361 -2.8408e+001 -1.7098e+002  2.3915e+000 59788 76182,76234,76208
 2.0000e+000 76338 -2.5598e+001 -1.1842e+002  3.0719e+000 59788 76234,76286,76260
 2.0000e+000 76479 -5.3681e+001 -1.3737e+002  3.1911e+000 59788 76312,76286,76453
 2.0000e+000 76502 -4.4200e+001 -1.2719e+002  8.4848e+000 59788 76525,76312,76453
 2.0000e+000 76551 -6.4683e+001 -1.3727e+002  2.0558e+001 59788 76182,76156,76525
 2.0000e+000 76574 -5.5739e+001 -1.4915e+002  1.2697e+001 59788 76182,76525,76453
 2.0000e+000 77031 -7.3897e+000 -7.1706e+001 -1.5451e+001 59448 76835,76887,76861
 2.0000e+000 77008  1.5555e+001 -5.1057e+001 -4.1021e-001 59448 76835,76913,76887
 2.0000e+000 76985 -2.4482e-002 -5.4163e+001  1.3500e+001 59448 76809,76913,76835
 2.0000e+000 76962 -2.8277e+001 -6.3929e+001 -6.9780e+000 59448 76757,76913,76809
 2.0000e+000 76939 -1.8372e+001 -5.9415e+001 -1.0923e+001 59448 76757,76809,76783
 2.0000e+000 77537 -5.5131e+001 -1.2237e+002  4.2998e+000 58994 77560,77344,77292
 2.0000e+000 77514 -7.5642e+001 -1.2101e+002  4.0619e-001 58994 77560,77292,77240
 2.0000e+000 77491 -4.3656e+001 -1.1408e+002 -6.1760e+000 58994 77632,77214,77370
 2.0000e+000 77468 -8.9668e+001 -1.3883e+002  2.3203e+001 58994 77292,77344,77318
 2.0000e+000 77445 -4.6366e+001 -1.3787e+002  1.6672e-001 58994 77214,77396,77370
 2.0000e+000 77422 -7.7137e+001 -1.2794e+002 -3.5673e+000 58994 77240,77292,77266
 2.0000e+000 77586 -6.0823e+001 -1.2434e+002  5.7095e+000 58994 77370,77344,77560
 2.0000e+000 77609 -5.7621e+001 -1.2262e+002  6.4522e+000 58994 77632,77370,77560
 2.0000e+000 77658 -3.5795e+001 -1.0449e+002 -1.8818e+001 58994 77240,77214,77632
 2.0000e+000 77681 -4.5843e+001 -1.0266e+002 -7.3419e+000 58994 77240,77632,77560
 2.0000e+000 78138 -3.8522e+001 -7.6817e+001  9.4505e+000 58440 77864,77994,77890
 2.0000e+000 78115 -2.1829e+001 -4.1465e+001 -1.0790e+001 58440 77864,78020,77994
 2.0000e+000 78092 -4.4927e+001 -9.3759e+001 -9.4048e+000 58440 77942,77994,77968
 2.0000e+000 78069 -3.1569e+001 -8.3210e+001  1.8735e+000 58440 77890,77994,77942
 2.0000e+000 78046 -2.9223e+001 -8.0956e+001  6.0898e-001 58440 77890,77942,77916
 2.0000e+000 78467 -9.5950e+000 -1.1683e+002  3.7364e+000 57928 78562,78490,78346
 2.0000e+000 78444 -2.3998e+001 -1.0728e+002  7.3826e+000 57928 78490,78294,78268
 2.0000e+000 78421 -5.5423e+000 -1.2057e+002  7.1509e+000 57928 78562,78346,78320
 2.0000e+000 78398 -1.2596e+001 -1.0867e+002  1.5045e+000 57928 78242,78372,78268
 2.0000e+000 78516 -2.6116e+001 -1.4437e+002 -7.2733e+000 57928 78372,78346,78490
 2.0000e+000 78539 -1.8165e+001 -1.0976e+002  5.4545e-002 57928 78372,78490,78268
 2.0000e+000 78588 -2.6884e+001 -1.1774e+002  2.7089e+000 57928 78294,78490,78562
 2.0000e+000 78611 -1.5970e+001 -1.1402e+002  8.7396e+000 57928 78294,78562,78320
 2.0000e+000 79068 -6.6577e+001 -1.6588e+002 -4.3148e+001 57467 78794,78924,78820
 2.0000e+000 79045 -4.4937e+001 -1.5724e+002 -4.4694e+001 57467 78794,78950,78924
 2.0000e+000 79022  2.1214e+000 -1.3214e+002  7.6632e+000 57467 78820,78898,78872
 2.0000e+000 78999 -4.9970e+001 -1.9411e+002 -2.7508e+001 57467 78820,78924,78898
 2.0000e+000 78976 -8.7140e+000 -1.3918e+002  1.1923e+001 57467 78820,78872,78846
 2.0000e+000 79446 -6.1779e+001 -1.3251e+002  2.9804e+000 57120 79172,79302,79250
 2.0000e+000 79423 -5.6090e+001 -1.2962e+002 -6.8773e+000 57120 79172,79328,79302
 2.0000e+000 79400 -5.8862e+001 -1.1636e+002 -6.9648e-001 57120 79172,79250,79198
 2.0000e+000 79377 -4.1747e+001 -1.8183e+002  8.2427e+000 57120 79250,79302,79276
 2.0000e+000 79354 -7.6689e+001 -1.2924e+002 -6.9985e+000 57120 79198,79250,79224
 2.0000e+000 79952 -7.0540e+001 -1.2665e+002  3.4632e+000 56773 79629,79785,79655
 2.0000e+000 79929 -9.5690e+000 -1.0755e+002  8.6471e+000 56773 79629,79811,79785
 2.0000e+000 79906 -4.8323e+001 -1.4938e+002  1.4410e+001 56773 79655,79733,79681
 2.0000e+000 79883 -4.6731e+001 -1.2537e+002  3.6040e+000 56773 79655,79785,79733
 2.0000e+000 79860 -3.7608e+001 -1.7004e+002 -2.7091e+001 56773 79733,79785,79759
 2.0000e+000 79837 -1.3124e+000 -1.2713e+002  4.3771e+001 56773 79681,79733,79707
 2.0000e+000 80281 -2.5625e+001 -9.0539e+001 -1.1974e+001 56319 80108,80160,80134
 2.0000e+000 80258 -2.4505e+001 -1.1081e+002 -1.4561e+001 56319 80056,80160,80108
 2.0000e+000 80235 -3.2339e+000 -9.6125e+001  5.5786e+000 56319 80056,80186,80160
 2.0000e+000 80212 -2.8499e+001 -1.5690e+002 -1.7628e+001 56319 80056,80108,80082
 2.0000e+000 80738 -1.6035e+001 -1.1787e+002  9.2804e+000 55957 80516,80620,80594
 2.0000e+000 80715 -3.8454e+001 -1.0504e+002  8.8207e+000 55957 80464,80620,80516
 2.0000e+000 80692 -3.3776e+001 -1.2517e+002  6.8098e+000 55957 80761,80568,80542
 2.0000e+000 80669 -2.5840e+001 -1.2503e+002  7.5562e+000 55957 80761,80542,80516
 2.0000e+000 80646 -3.9666e+001 -1.0747e+002  1.9778e+001 55957 80464,80516,80490
 2.0000e+000 80787 -4.0307e+001 -1.2566e+002  5.8393e+000 55957 80594,80568,80761
 2.0000e+000 80810 -3.2987e+001 -1.2588e+002  6.7474e+000 55957 80594,80761,80516
 2.0000e+000 81210 -1.7755e+001 -1.2254e+002 -9.6016e+000 55317 80936,80988,80962
 2.0000e+000 81187 -1.6079e+001 -1.2938e+002 -4.2211e+000 55317 80936,81066,80988
 2.0000e+000 81164 -1.8643e+001 -1.4127e+002  4.9812e-002 55317 80936,81092,81066
 2.0000e+000 81141 -4.7082e+001 -1.4544e+002 -1.4528e+001 55317 80988,81066,81014
 2.0000e+000 81118 -4.5388e-001 -8.8948e+001  6.8203e+000 55317 81014,81066,81040
 2.0000e+000 81539 -4.4657e+001 -1.2423e+002  1.7093e+000 54913 81340,81418,81392
 2.0000e+000 81516  2.7883e+000 -9.6817e+001 -1.2088e+001 54913 81340,81444,81418
 2.0000e+000 81493 -1.5410e+001 -1.0957e+002 -2.8069e+001 54913 81314,81444,81340
 2.0000e+000 81470 -5.4294e+001 -1.4825e+002 -3.7349e+000 54913 81340,81392,81366
 2.0000e+000 81787 -3.3018e+001 -1.4317e+002 -4.2742e-001 54601 81588,81692,81640
 2.0000e+000 81764 -5.8674e+001 -1.5072e+002 -6.9731e+000 54601 81562,81692,81588
 2.0000e+000 81741 -2.3969e+001 -1.4418e+002  1.7730e+001 54601 81588,81640,81614
 2.0000e+000 81718 -3.5581e+001 -1.7454e+002 -1.4513e+001 54601 81640,81692,81666
 2.0000e+000 82344 -4.3701e+001 -1.5372e+002 -1.8097e+001 54090 81998,82102,82076
 2.0000e+000 82321 -6.9165e+001 -1.6502e+002 -1.0590e+001 54090 81998,82154,82102
 2.0000e+000 82298 -5.7313e+001 -1.6125e+002 -8.0976e+000 54090 81972,82154,81998
 2.0000e+000 82275 -5.5753e+001 -1.4595e+002 -1.9560e+001 54090 81998,82076,82024
 2.0000e+000 82252 -7.5117e+001 -1.7378e+002  5.3622e+000 54090 81972,82180,82154
 2.0000e+000 82229 -9.6706e+001 -1.9245e+002  5.4727e+000 54090 82102,82154,82128
 2.0000e+000 82206  4.2289e+001 -1.0209e+002 -2.9628e+001 54090 82024,82076,82050
 2.0000e+000 82722 -8.4275e+001 -1.5742e+002 -6.4276e+000 53579 82500,82578,82552
 2.0000e+000 82699 -5.9696e+001 -1.4159e+002  3.5270e+000 53579 82448,82578,82500
 2.0000e+000 82676 -6.4811e+001 -1.6382e+002  2.7783e+000 53579 82448,82500,82474
 2.0000e+000 82653 -8.2644e+001 -1.5386e+002  1.3954e+001 53579 82448,82604,82578
 2.0000e+000 82630 -4.1201e+001 -1.4664e+002 -7.7386e+000 53579 82500,82552,82526
 2.0000e+000 83356 -3.6965e+001 -1.1605e+002 -9.1512e+000 53189 83379,83088,83036
 2.0000e+000 83333 -3.5508e+001 -1.3039e+002 -8.0214e+000 53189 83379,83036,82984
 2.0000e+000 83310 -9.4457e+000 -1.1776e+002  2.8082e+001 53189 82984,83192,83166
 2.0000e+000 83287  1.0059e+001 -9.7219e+001 -8.6132e+000 53189 83036,83088,83062
 2.0000e+000 83264 -3.1745e+001 -1.6334e+002 -1.7170e+001 53189 82984,83036,83010
 2.0000e+000 83241 -1.5022e+001 -1.4083e+002  6.0853e+000 53189 83114,83166,83140
 2.0000e+000 83218 -5.5152e+001 -1.5225e+002  5.9835e+000 53189 83088,83166,83114
 2.0000e+000 83405 -3.7190e+001 -1.2568e+002 -3.2527e+000 53189 83166,83088,83379
 2.0000e+000 83428 -3.3571e+001 -1.3831e+002 -3.0331e+000 53189 83166,83379,82984
 2.0000e+000 83725 -4.7796e+001 -1.6742e+002 -1.2286e+001 52585 83748,83529,83503
 2.0000e+000 83702 -2.3010e+001 -1.5778e+002 -9.2709e+000 52585 83820,83748,83503
 2.0000e+000 83679  5.3790e+000 -1.5324e+002 -7.3184e+000 52585 83820,83503,83477
 2.0000e+000 83656 -2.8474e+001 -1.4804e+002  2.2174e+001 52585 83477,83607,83581
 2.0000e+000 83633  6.3087e+000 -1.3462e+002  1.9158e+001 52585 83451,83607,83477
 2.0000e+000 83774 -4.0071e+001 -1.4717e+002 -8.5383e+000 52585 83555,83529,83748
 2.0000e+000 83797 -6.7042e+001 -1.5598e+002 -4.8586e+000 52585 83555,83748,83581
 2.0000e+000 83846 -4.9750e+001 -1.4466e+002  5.1613e+000 52585 83581,83748,83820
 2.0000e+000 83869 -2.8553e+001 -1.4430e+002  4.2217e+000 52585 83581,83820,83477
 2.0000e+000 84200 -5.1015e+001 -1.5956e+002 -4.0152e+000 52024 84001,84105,84079
 2.0000e+000 84177 -2.6123e+001 -1.5536e+002 -1.0847e+001 52024 83975,84105,84001
 2.0000e+000 84154 -4.3723e+001 -1.5902e+002 -3.2267e+000 52024 84001,84079,84053
 2.0000e+000 84131 -2.5749e+001 -1.1180e+002  1.9493e+001 52024 84001,84053,84027
 2.0000e+000 84399 -2.9410e+001 -1.4230e+002 -5.7223e-001 51470 84422,84275,84249
 2.0000e+000 84376 -2.8173e+001 -1.4333e+002 -3.9725e-001 51470 84422,84249,84223
 2.0000e+000 84353 -3.1387e+001 -1.5206e+002 -1.7809e+001 51470 84275,84327,84301
 2.0000e+000 84448 -3.0408e+001 -1.4273e+002 -2.7074e-001 51470 84327,84275,84422
 2.0000e+000 84471 -2.8954e+001 -1.4353e+002 -2.2075e-001 51470 84327,84422,84223
 2.0000e+000 84753 -5.0084e+001 -1.4456e+002 -1.3581e+000 51073 84603,84655,84629
 2.0000e+000 84730 -1.0249e+002 -1.6444e+002 -3.7315e+000 51073 84776,84655,84603
 2.0000e+000 84707 -2.7040e+001 -1.3064e+002 -3.3396e+001 51073 84577,84681,84655
 2.0000e+000 84802 -6.0868e+001 -1.4097e+002 -1.6752e+001 51073 84577,84655,84776
 2.0000e+000 85178 -7.9980e+001 -1.7368e+002  1.7336e+001 50519 85201,85008,84982
 2.0000e+000 85155 -7.5620e+001 -1.6156e+002  1.4166e+001 50519 85273,85201,84982
 2.0000e+000 85132 -7.0756e+001 -1.6134e+002  1.1094e+001 50519 85273,84982,84930
 2.0000e+000 85109 -6.8130e+001 -1.5753e+002  9.8243e+000 50519 84930,84982,84956
 2.0000e+000 85086 -7.0456e+001 -1.6916e+002  1.1811e+001 50519 85008,85060,85034
 2.0000e+000 85227 -6.7079e+001 -1.6578e+002  9.6783e+000 50519 85060,85008,85201
 2.0000e+000 85250 -7.4671e+001 -1.6951e+002  7.1719e+000 50519 85060,85201,84904
 2.0000e+000 85299 -7.0682e+001 -1.6429e+002  4.7277e+000 50519 84904,85201,85273
 2.0000e+000 85322 -5.2859e+001 -1.4108e+002 -3.2146e+000 50519 84904,85273,84930
 2.0000e+000 85958 -3.6699e+001 -1.3724e+002 -3.8811e+000 50093 85981,85768,85716
 2.0000e+000 85935 -3.2133e+001 -1.2564e+002 -4.4078e+000 50093 85981,85716,85612
 2.0000e+000 85912 -4.2084e+001 -1.2163e+002  1.1588e-001 50093 85612,85716,85664
 2.0000e+000 85889 -2.5892e+001 -1.3450e+002 -8.9632e-001 50093 85716,85768,85742
 2.0000e+000 85866 -4.3575e+001 -1.0379e+002 -2.1251e+001 50093 85664,85716,85690
 2.0000e+000 85843  2.1542e+001 -8.9125e+001 -1.0640e+001 50093 85586,85794,85612
 2.0000e+000 85820 -2.7177e+001 -1.7567e+002  1.1582e+001 50093 85612,85664,85638
 2.0000e+000 86007 -4.5518e+001 -1.4681e+002 -2.0157e+001 50093 85794,85768,85981
 2.0000e+000 86030 -3.1587e+001 -1.1361e+002 -1.6622e+001 50093 85794,85981,85612
 2.0000e+000 86131 -3.2512e+001 -1.5725e+002  2.1713e+001 49895 86053,86105,86079
 2.0000e+000 86639 -1.8620e+001 -9.8463e+001 -1.1508e+001 49391 86662,86394,86368
 2.0000e+000 86616 -2.1832e+001 -1.1511e+002 -7.8035e+000 49391 86662,86368,86342
 2.0000e+000 86593 -2.2645e+000 -1.0665e+002  7.9708e+000 49391 86342,86498,86472
 2.0000e+000 86570  2.2246e+001 -1.2188e+002  9.1690e+000 49391 86316,86498,86342
 2.0000e+000 86547 -5.2238e+001 -1.7366e+002 -1.0483e+000 49391 86394,86472,86446
 2.0000e+000 86524  1.1400e+001 -1.7053e+002  6.6733e+000 49391 86394,86446,86420
 2.0000e+000 86688 -2.6781e+001 -1.1379e+002 -4.5136e+000 49391 86472,86394,86662
 2.0000e+000 86711 -1.9924e+001 -1.2049e+002 -3.0641e+000 49391 86472,86662,86342
 2.0000e+000 87089 -4.7818e+001 -1.4161e+002  4.3714e+000 48987 86815,86919,86867
 2.0000e+000 87066 -4.9161e+001 -1.4440e+002  5.7032e+000 48987 86815,86971,86919
 2.0000e+000 87043 -1.9960e+001 -1.5625e+002 -1.2398e+001 48987 86867,86919,86893
 2.0000e+000 87020 -5.3812e+001 -1.5939e+002  1.6940e+001 48987 86815,86867,86841
 2.0000e+000 86997 -5.8480e+001 -1.2937e+002  2.1263e+001 48987 86919,86971,86945
 2.0000e+000 87467 -9.2999e+001 -1.3873e+002  7.4950e+000 48540 87490,87245,87219
 2.0000e+000 87444 -6.9776e+001 -1.3153e+002  2.1638e+000 48540 87562,87490,87219
 2.0000e+000 87421 -5.0446e+001 -1.2365e+002  7.2568e+000 48540 87562,87219,87349
 2.0000e+000 87398 -7.5463e+001 -1.1109e+002 -1.3860e+000 48540 87245,87297,87271
 2.0000e+000 87375 -3.9668e+001 -1.3437e+002  4.3447e+000 48540 87193,87349,87219
 2.0000e+000 87516 -6.6723e+001 -1.3036e+002  5.8586e+000 48540 87297,87245,87490
 2.0000e+000 87539 -7.1386e+001 -1.3565e+002  9.6279e+000 48540 87297,87490,87323
 2.0000e+000 87588 -5.1268e+001 -1.2460e+002  1.5078e+001 48540 87323,87490,87562
 2.0000e+000 87611 -4.1725e+001 -1.2606e+002  1.8385e+001 48540 87323,87562,87349
 2.0000e+000 87810 -4.0997e+001 -2.5321e+002 -3.0658e+001 48136 87660,87712,87686
 2.0000e+000 87787 -1.7216e+001 -1.5099e+002 -1.3276e+001 48136 87660,87738,87712
 2.0000e+000 87764 -9.0676e+001 -1.6035e+002 -3.3887e+001 48136 87634,87738,87660
 2.0000e+000 88205 -5.5918e+001 -1.5372e+002 -1.2690e+001 47210 88300,88228,87937
 2.0000e+000 88182 -4.9335e+001 -1.5332e+002 -2.9749e+000 47210 88228,87833,88041
 2.0000e+000 88159 -5.6367e+001 -1.6358e+002 -2.0734e+001 47210 88300,87937,87911
 2.0000e+000 88136 -5.3390e+001 -1.5364e+002 -1.7296e+001 47210 87833,87911,87859
 2.0000e+000 88113 -9.3538e+001 -1.2680e+002 -1.1763e+001 47210 87937,87989,87963
 2.0000e+000 88090 -5.6127e+001 -1.2928e+002  3.0429e+001 47210 87989,88041,88015
 2.0000e+000 88067 -6.1827e+001 -1.7476e+002 -2.1885e+001 47210 87859,87911,87885
 2.0000e+000 88254 -5.0235e+001 -1.2099e+002 -1.5345e+001 47210 87989,87937,88228
 2.0000e+000 88277 -6.6933e+001 -1.4636e+002 -4.2539e+000 47210 87989,88228,88041
 2.0000e+000 88326 -4.4555e+001 -1.4368e+002 -5.0215e+000 47210 87833,88228,88300
 2.0000e+000 88349 -4.7061e+001 -1.5060e+002 -1.3553e+001 47210 87833,88300,87911
 2.0000e+000 88780 -1.0248e+002 -1.8205e+002 -3.1793e+001 46642 88803,88509,88483
 2.0000e+000 88757 -7.7402e+001 -1.6462e+002 -1.3363e+001 46642 88803,88483,88639
 2.0000e+000 88734 -8.3731e+001 -1.3301e+002 -1.9862e+001 46642 88875,88561,88509
 2.0000e+000 88711 -8.1572e+001 -1.2243e+002 -3.5122e+000 46642 88509,88561,88535
 2.0000e+000 88688 -3.4425e+001 -1.8196e+002  1.5587e+001 46642 88457,88639,88483
 2.0000e+000 88665 -9.6159e+001 -2.1024e+002 -7.9898e+000 46642 88561,88613,88587
 2.0000e+000 88829 -8.2183e+001 -1.4568e+002 -2.2238e+001 46642 88875,88509,88803
 2.0000e+000 88852 -8.2106e+001 -1.7146e+002 -1.0971e+001 46642 88613,88803,88639
 2.0000e+000 88901 -7.1516e+001 -1.5000e+002 -9.7289e+000 46642 88613,88561,88875
 2.0000e+000 88924 -7.6222e+001 -1.7070e+002 -1.1333e+001 46642 88613,88875,88803
 2.0000e+000 89253 -3.1060e+001 -1.5616e+002 -4.7849e-001 46444 89080,89158,89132
 2.0000e+000 89230 -3.2240e+001 -1.5802e+002 -2.5643e+000 46444 89028,89158,89080
 2.0000e+000 89207 -1.4973e+001 -1.4539e+002 -8.1858e+000 46444 89028,89080,89054
 2.0000e+000 89184 -1.4604e+001 -1.6436e+002 -1.2568e+001 46444 89080,89132,89106
 2.0000e+000 89631 -2.2564e+001 -9.2382e+001  4.2448e+000 46040 89383,89461,89435
 2.0000e+000 89608 -2.6643e+001 -1.0590e+002 -2.7914e+000 46040 89383,89487,89461
 2.0000e+000 89585 -2.6982e+001 -1.1975e+002 -1.6052e+000 46040 89383,89435,89409
 2.0000e+000 89562 -2.3227e+001 -9.2871e+001 -8.2710e+000 46040 89383,89513,89487
 2.0000e+000 89539  1.2817e+001 -7.0518e+001 -2.9306e+001 46040 89357,89513,89383
 2.0000e+000 90009 -3.2485e+001 -1.2383e+002  4.0680e-001 45636 89813,89891,89839
 2.0000e+000 89986 -3.4321e+001 -1.1603e+002  8.3057e+000 45636 89787,89891,89813
 2.0000e+000 89963 -2.9336e+001 -1.1530e+002 -2.3844e+000 45636 89839,89891,89865
 2.0000e+000 89940 -4.3378e+001 -1.2887e+002  4.3421e+000 45636 89735,89891,89787
 2.0000e+000 89917 -3.4943e+001 -1.2994e+002 -3.0850e+000 45636 89735,89787,89761
 2.0000e+000 90208 -2.5812e+001 -9.9222e+001 -2.1635e+001 45175 90231,90058,90032
 2.0000e+000 90185 -1.1761e+001 -8.8967e+001 -3.3397e+001 45175 90231,90032,90136
 2.0000e+000 90162 -3.3606e+001 -7.7368e+001 -1.4008e-001 45175 90058,90110,90084
 2.0000e+000 90257 -4.1397e+001 -1.1384e+002 -3.9760e+000 45175 90110,90058,90231
 2.0000e+000 90280 -1.4599e+001 -9.5962e+001 -1.7102e+001 45175 90110,90231,90136
 2.0000e+000 90528 -2.5793e+001 -9.4904e+001 -1.0055e+001 44513 90695,90551,90407
 2.0000e+000 90505 -3.2378e+001 -9.1803e+001 -4.6418e+000 44513 90551,90355,90329
 2.0000e+000 90482 -3.5741e+001 -8.3197e+001 -6.7578e+000 44513 90623,90303,90433
 2.0000e+000 90459 -1.6287e+001 -8.9143e+001 -7.6295e+000 44513 90695,90407,90381
 2.0000e+000 90577 -4.0880e+001 -1.0019e+002 -1.7119e+001 44513 90433,90407,90551
 2.0000e+000 90600 -3.4293e+001 -9.0473e+001 -7.1150e+000 44513 90623,90433,90551
 2.0000e+000 90649 -3.9525e+001 -9.1334e+001 -5.4031e+000 44513 90329,90303,90623
 2.0000e+000 90672 -3.6683e+001 -9.4140e+001 -6.0145e+000 44513 90329,90623,90551
 2.0000e+000 90721 -3.5764e+001 -8.8040e+001 -1.0981e+001 44513 90355,90551,90695
 2.0000e+000 90744 -3.2194e+001 -8.6402e+001 -1.0242e+001 44513 90355,90695,90381
 2.0000e+000 91077  1.0246e+001 -8.6173e+001  1.7756e+001 44059 91100,90930,90904
 2.0000e+000 91054 -4.4328e+001 -1.1422e+002  7.1094e+000 44059 91100,90904,90982
 2.0000e+000 91031 -5.9665e+001 -1.1569e+002 -3.1505e-001 44059 90878,90982,90904
 2.0000e+000 91008 -1.7137e+001 -9.6771e+001  4.8423e+000 44059 90852,90982,90878
 2.0000e+000 91126 -7.9906e+001 -1.1438e+002  5.4088e+000 44059 91172,91100,90956
 2.0000e+000 91149 -4.1215e+001 -1.0814e+002  2.1870e+000 44059 90956,91100,90982
 2.0000e+000 91198 -1.2142e+001 -8.4691e+001 -1.5478e+001 44059 90930,91100,91172
 2.0000e+000 91677 -5.5594e+001 -9.3215e+001  1.0439e+001 43549 91455,91533,91481
 2.0000e+000 91654 -1.6755e+001 -9.0954e+001  1.5221e+001 43549 91429,91533,91455
 2.0000e+000 91631 -5.2064e+001 -8.8783e+001  6.5094e+000 43549 91481,91533,91507
 2.0000e+000 91608 -5.3652e+000 -8.6246e+001  9.8426e+000 43549 91429,91559,91533
 2.0000e+000 91585  2.1743e+001 -3.0459e+001  1.8464e+001 43549 91403,91559,91429
 2.0000e+000 92006 -4.5155e+001 -1.3182e+002  6.4790e+000 43059 91781,91885,91807
 2.0000e+000 91983 -4.5630e+001 -1.2020e+002  2.6478e+001 43059 91781,91911,91885
 2.0000e+000 91960 -3.8876e+001 -1.2778e+002  4.7435e+000 43059 91807,91885,91833
 2.0000e+000 91937 -1.6230e+001 -1.1917e+002  1.3570e+000 43059 91833,91885,91859
 2.0000e+000 92561 -4.7052e+001 -9.8780e+001 -1.0412e+001 42598 92584,92215,92189
 2.0000e+000 92538 -4.9223e+001 -1.1144e+002 -1.0959e+001 42598 92656,92584,92189
 2.0000e+000 92515 -4.2716e+001 -1.2620e+002 -3.4535e+000 42598 92656,92189,92397
 2.0000e+000 92492 -5.4354e+001 -8.5168e+001 -1.2575e+001 42598 92241,92319,92293
 2.0000e+000 92469 -5.0675e+001 -1.0682e+002  5.8960e+000 42598 92319,92397,92371
 2.0000e+000 92446 -2.2072e+001 -1.3103e+002  4.8532e+001 42598 92319,92371,92345
 2.0000e+000 92423 -5.6504e+001 -9.0473e+001 -2.0668e+001 42598 92241,92293,92267
 2.0000e+000 92610 -4.7376e+001 -9.8693e+001 -1.0073e+001 42598 92241,92215,92584
 2.0000e+000 92633 -4.3625e+001 -9.0402e+001 -1.3624e+001 42598 92241,92584,92319
 2.0000e+000 92682 -4.3058e+001 -9.1371e+001 -7.3419e+000 42598 92319,92584,92656
 2.0000e+000 92705 -3.3841e+001 -1.0190e+002 -1.6073e+000 42598 92319,92656,92397
 2.0000e+000 92953 -4.4792e+001 -1.4166e+002  1.2291e+001 42094 92976,92806,92780
 2.0000e+000 92930 -5.1279e+001 -1.3152e+002  3.7192e+000 42094 92976,92780,92754
 2.0000e+000 92907  4.5670e+000 -1.3821e+002  2.0551e+000 42094 93048,92832,92806
 2.0000e+000 92884 -7.1547e+001 -1.2482e+002 -8.2082e+000 42094 92728,92858,92754
 2.0000e+000 93002 -2.1983e+001 -1.2890e+002  7.2384e+000 42094 93048,92806,92976
 2.0000e+000 93025 -4.6213e+001 -1.2814e+002 -1.0087e+000 42094 92858,92976,92754
 2.0000e+000 93074 -3.1748e+001 -1.5302e+002 -3.1535e-001 42094 92858,92832,93048
 2.0000e+000 93097 -5.4031e+001 -1.4175e+002  2.8735e+000 42094 92858,93048,92976
 2.0000e+000 93605 -5.2856e+001 -1.6089e+002 -3.4729e+000 41846 93628,93412,93386
 2.0000e+000 93582 -4.4844e+001 -1.2522e+002 -8.7842e-001 41846 93628,93386,93308
 2.0000e+000 93559 -5.8986e+001 -1.2555e+002 -1.5648e+001 41846 93700,93464,93438
 2.0000e+000 93536 -6.5764e+001 -1.5636e+002  9.3847e+000 41846 93308,93386,93334
 2.0000e+000 93513 -6.5721e+001 -1.5435e+002  8.4505e+000 41846 93334,93386,93360
 2.0000e+000 93490 -5.7302e+001 -1.0248e+002 -1.1903e+001 41846 93282,93464,93308
 2.0000e+000 93654 -4.3306e+001 -1.3095e+002 -9.9179e+000 41846 93438,93412,93628
 2.0000e+000 93677 -5.9443e+001 -1.2714e+002 -8.0206e+000 41846 93700,93438,93628
 2.0000e+000 93726 -5.5467e+001 -1.1618e+002 -1.4839e+001 41846 93308,93464,93700
 2.0000e+000 93749 -5.4617e+001 -1.1477e+002 -7.3030e+000 41846 93308,93700,93628
 2.0000e+000 94255 -3.3327e+001 -1.3142e+002  1.1550e+001 41385 93958,94114,94088
 2.0000e+000 94232 -2.6104e+001 -1.4208e+002  6.3026e+000 41385 93932,94114,93958
 2.0000e+000 94209 -6.7610e+001 -1.5471e+002  3.0510e+001 41385 93958,94088,94062
 2.0000e+000 94186 -7.6790e+001 -1.0590e+002  2.4325e+001 41385 93958,94062,93984
 2.0000e+000 94163 -5.9306e+001 -1.0361e+002  2.0106e+001 41385 93984,94062,94036
 2.0000e+000 94140 -4.1595e+001 -1.4025e+002  2.7358e+001 41385 93984,94036,94010
 2.0000e+000 94476  5.8693e+000 -1.8856e+002  1.7030e+001 40881 94326,94378,94352
 2.0000e+000 94453 -2.2228e+001 -1.5174e+002  1.6118e+001 40881 94300,94378,94326
 2.0000e+000 94430 -2.7025e+001 -1.3540e+002  2.1268e+000 40881 94300,94404,94378
 2.0000e+000 94626 -3.9644e+001 -1.0010e+002  4.0808e+000 40591 94649,94551,94525
 2.0000e+000 94603 -7.3864e+000 -7.6635e+001  1.4648e+000 40591 94781,94577,94551
 2.0000e+000 94675 -1.8835e+000 -8.0669e+001 -6.3029e+000 40591 94781,94551,94649
 2.0000e+000 94807  5.4845e+000 -7.0273e+001  3.6104e+000 40591 94499,94577,94781
 2.0000e+000 94830  1.0022e+001 -7.5355e+001 -5.2386e+000 40591 94499,94781,94649
 2.0000e+000 95336 -8.3740e+001 -1.2072e+002 -1.8151e+001 40187 95013,95169,95039
 2.0000e+000 95313 -4.3255e+001 -1.1109e+002 -9.4710e+000 40187 95013,95195,95169
 2.0000e+000 95290 -3.2317e+001 -1.2382e+002  4.4716e+000 40187 95039,95143,95065
 2.0000e+000 95267 -9.0025e+001 -1.4337e+002 -2.4736e+001 40187 95039,95169,95143
 2.0000e+000 95244 -6.4473e+001 -1.6720e+002 -1.1295e+001 40187 95091,95143,95117
 2.0000e+000 95221 -2.8402e+001 -1.1512e+002  6.7101e+000 40187 95065,95143,95091
 2.0000e+000 95665 -4.6014e+001 -1.0890e+002  1.8544e+001 39626 95466,95570,95544
 2.0000e+000 95642 -5.6481e+001 -9.5393e+001  1.3106e+001 39626 95440,95570,95466
 2.0000e+000 95619 -4.0605e+001 -1.0930e+002  7.5303e+000 39626 95466,95544,95492
 2.0000e+000 95596 -7.3838e+001 -1.0654e+002  6.5882e+000 39626 95492,95544,95518
 2.0000e+000 95913 -4.6622e+001 -1.1008e+002 -1.5353e+001 39136 96080,95936,95766
 2.0000e+000 95890 -3.2343e+001 -1.2098e+002 -7.9347e+000 39136 95936,95714,95688
 2.0000e+000 95867 -8.6382e+001 -1.1988e+002  7.5476e+000 39136 96008,95792,95766
 2.0000e+000 95844 -3.7764e+001 -1.0665e+002 -1.3142e+001 39136 96080,95766,95740
 2.0000e+000 95962 -6.6980e+001 -1.2485e+002 -8.7453e+000 39136 96008,95766,95936
 2.0000e+000 95985 -4.1605e+001 -1.4882e+002 -3.6386e-001 39136 95818,95936,95688
 2.0000e+000 96034 -3.9217e+001 -9.9307e+001  1.1036e+001 39136 95818,95792,96008
 2.0000e+000 96057 -3.4132e+001 -1.0973e+002 -5.0775e+000 39136 95818,96008,95936
 2.0000e+000 96106 -4.3146e+001 -1.1208e+002 -2.4996e+000 39136 95714,95936,96080
 2.0000e+000 96129 -2.8312e+001 -1.0688e+002 -1.2742e+000 39136 95714,96080,95740
 2.0000e+000 96350 -3.0500e+001 -1.0085e+002 -2.6680e+000 38824 96200,96278,96252
 2.0000e+000 96327 -3.3246e+001 -1.0139e+002 -2.2663e+000 38824 96174,96278,96200
 2.0000e+000 96304 -2.9492e+001 -1.0297e+002 -2.8435e+000 38824 96200,96252,96226
 2.0000e+000 96830 -6.3765e+001 -1.1251e+002 -9.8497e+000 38320 97069,96536,96484
 2.0000e+000 96807 -6.2618e+001 -1.1415e+002 -9.7607e+000 38320 97069,96484,96853
 2.0000e+000 96784 -6.8276e+001 -1.2343e+002  2.9096e+000 38320 96853,96484,96458
 2.0000e+000 96761 -3.6776e+001 -9.5088e+001 -1.0742e+001 38320 96925,96640,96614
 2.0000e+000 96738 -5.8245e+001 -9.8374e+001 -3.2629e+000 38320 96997,96666,96640
 2.0000e+000 96715 -5.0575e+001 -1.3094e+002 -3.5018e+000 38320 97141,96588,96562
 2.0000e+000 96692 -8.1124e+001 -1.3169e+002 -2.1594e+000 38320 96484,96536,96510
 2.0000e+000 96879 -6.1087e+001 -1.1937e+002 -4.9886e+000 38320 97141,96562,96853
 2.0000e+000 96902 -5.5674e+001 -1.1659e+002 -2.6443e+000 38320 96925,96614,96853
 2.0000e+000 96951 -5.7255e+001 -9.7564e+001 -3.8226e+000 38320 96997,96640,96925
 2.0000e+000 96974 -5.4376e+001 -9.6772e+001 -2.1017e+000 38320 96458,96925,96853
 2.0000e+000 97023 -6.2654e+001 -9.9434e+001 -9.3694e-001 38320 96458,96666,96997
 2.0000e+000 97046 -5.9164e+001 -9.7659e+001 -1.5722e+000 38320 96458,96997,96925
 2.0000e+000 97095 -6.7890e+001 -1.1121e+002 -1.0226e+000 38320 96562,96536,97069
 2.0000e+000 97118 -5.9212e+001 -1.1318e+002 -8.3400e+000 38320 96562,97069,96853
 2.0000e+000 97167 -3.1745e+001 -1.2054e+002 -8.3708e+000 38320 96614,96588,97141
 2.0000e+000 97190 -4.9225e+001 -1.1403e+002 -8.5366e+000 38320 96614,97141,96853
 2.0000e+000 97519 -4.6021e+001 -1.2090e+002  2.7785e+001 37766 97542,97398,97372
 2.0000e+000 97496 -6.1489e+001 -1.0768e+002  1.4936e+001 37766 97542,97372,97346
 2.0000e+000 97473 -5.6216e+001 -1.1641e+002  2.4856e+000 37766 97294,97424,97346
 2.0000e+000 97450 -6.3362e+001 -1.3868e+002 -7.0981e-001 37766 97294,97346,97320
 2.0000e+000 97568 -2.0762e+001 -1.1535e+002  2.0878e+001 37766 97424,97398,97542
 2.0000e+000 97591 -4.3364e+001 -1.0282e+002  8.4042e+000 37766 97424,97542,97346
 2.0000e+000 98048 -5.2313e+001 -8.7244e+001 -2.7546e+001 37262 98071,97878,97852
 2.0000e+000 98025 -4.2822e+001 -1.0256e+002 -1.0990e+001 37262 98071,97852,97800
 2.0000e+000 98002 -5.4709e+001 -1.2640e+002 -7.0004e+000 37262 97800,97852,97826
 2.0000e+000 97979 -5.5692e+001 -1.0832e+002  3.7240e+000 37262 97800,97930,97904
 2.0000e+000 97956 -3.8415e+001 -1.2919e+002  8.9321e+000 37262 97774,97930,97800
 2.0000e+000 98097 -7.9329e+001 -9.9754e+001 -2.2260e+001 37262 97904,97878,98071
 2.0000e+000 98120 -5.6744e+001 -1.1296e+002 -6.3367e+000 37262 97904,98071,97800
 2.0000e+000 98449 -1.3083e+001 -6.7492e+001 -1.1656e+001 36950 98472,98302,98250
 2.0000e+000 98426  5.8764e-001 -6.3444e+001 -1.4118e+001 36950 98472,98250,98354
 2.0000e+000 98403 -3.4415e+001 -8.0271e+001  1.4002e+001 36950 98250,98302,98276
 2.0000e+000 98380 -1.8142e+000 -4.4350e+001  1.2520e+001 36950 98224,98354,98250
 2.0000e+000 98498 -2.9476e+000 -7.8301e+001 -3.6242e+000 36950 98328,98302,98472
 2.0000e+000 98521  1.2972e+001 -7.2226e+001 -8.3785e+000 36950 98328,98472,98354
 2.0000e+000 99125 -7.6937e+001 -7.6466e+001  9.7306e+000 36296 98704,98756,98730
 2.0000e+000 99102 -5.4084e+001 -8.3148e+001  1.3912e+000 36296 98704,98938,98756
 2.0000e+000 99079 -3.9382e+001 -8.9710e+001 -2.3514e+000 36296 99148,98938,98912
 2.0000e+000 99056 -4.4164e+001 -8.9566e+001  1.6980e+001 36296 99292,99220,98782
 2.0000e+000 99033 -3.4927e+001 -9.6568e+001  7.5895e-001 36296 99148,98912,98834
 2.0000e+000 99010 -3.9515e+001 -7.6133e+001  1.6900e+001 36296 99292,98782,98756
 2.0000e+000 98987 -3.3354e+001 -1.6948e+002 -3.3185e+001 36296 98834,98912,98886
 2.0000e+000 98964 -6.0067e+001 -2.4578e+002 -4.2787e+001 36296 98834,98886,98860
 2.0000e+000 99174 -4.6674e+001 -1.0372e+002  1.3132e+000 36296 99220,98938,99148
 2.0000e+000 99197 -3.3956e+001 -1.1492e+002  9.6802e+000 36296 98808,99148,98834
 2.0000e+000 99246 -3.9228e+001 -7.7885e+001  4.3772e+001 36296 98808,98782,99220
 2.0000e+000 99269 -1.6770e+001 -7.6884e+001  1.3410e+001 36296 98808,99220,99148
 2.0000e+000 99318 -4.1204e+001 -7.4325e+001  7.3669e+000 36296 98938,99220,99292
 2.0000e+000 99341 -4.2333e+001 -7.6788e+001  8.0250e+000 36296 98938,99292,98756
 2.0000e+000 99719 -5.1665e+001 -1.2925e+002  5.1552e+000 35742 99742,99471,99601
 2.0000e+000 99696 -5.4028e+001 -9.7132e+001  1.9600e+001 35742 99445,99601,99471
 2.0000e+000 99673 -4.7810e+001 -1.2049e+002 -4.6650e+000 35742 99742,99601,99575
 2.0000e+000 99650 -3.5919e+001 -1.5389e+002 -3.0948e+000 35742 99814,99549,99523
 2.0000e+000 99627 -3.3573e+001 -1.1833e+002  6.8138e+000 35742 99471,99523,99497
 2.0000e+000 99768 -3.3918e+001 -1.2403e+002  7.2005e+000 35742 99523,99471,99742
 2.0000e+000 99791 -4.5330e+001 -1.3974e+002 -2.5736e+000 35742 99814,99523,99742
 2.0000e+000 99840 -3.2810e+001 -1.3692e+002 -8.5144e+000 35742 99575,99549,99814
 2.0000e+000 99863 -3.9431e+001 -1.1875e+002 -7.6874e+000 35742 99575,99814,99742
 2.0000e+000 100111 -3.6382e+001 -1.0075e+002  1.2699e+001 35302 100134,99990,99938
 2.0000e+000 100088 -2.7082e+001 -8.7903e+001  7.4621e+000 35302 100134,99938,99912
 2.0000e+000 100065 -2.8808e+001 -8.8316e+001  3.2684e-001 35302 100206,99886,100016
 2.0000e+000 100042 -4.7619e+001 -9.5132e+001  1.0461e+001 35302 99938,99990,99964
 2.0000e+000 100160 -2.3671e+001 -9.5918e+001  5.5553e+000 35302 100016,99990,100134
 2.0000e+000 100183 -2.4289e+001 -9.0814e+001  7.0357e-001 35302 100206,100016,100134
 2.0000e+000 100232 -3.4660e+001 -9.1351e+001  1.4221e+000 35302 99912,99886,100206
 2.0000e+000 100255 -2.9744e+001 -9.3861e+001  1.9608e+000 35302 99912,100206,100134
 2.0000e+000 100586 -3.1472e+001 -6.8895e+001 -2.0083e-001 35012 100609,100387,100361
 2.0000e+000 100563 -3.1816e+001 -7.4508e+001  2.5780e+000 35012 100609,100361,100465
 2.0000e+000 100540 -5.0500e+001 -9.3196e+001  1.0912e+001 35012 100361,100491,100465
 2.0000e+000 100517 -2.7434e+001 -7.3888e+001  1.0377e+001 35012 100413,100465,100439
 2.0000e+000 100635 -3.2746e+001 -6.9724e+001  5.7946e+000 35012 100413,100387,100609
 2.0000e+000 100658 -3.4367e+001 -7.8380e+001  8.4273e+000 35012 100413,100609,100465
 2.0000e+000 100987 -4.5328e+001 -9.4124e+001  6.7420e+000 34700 100788,100866,100814
 2.0000e+000 100964 -3.6569e+001 -8.7652e+001  9.7316e+000 34700 101010,100866,100788
 2.0000e+000 100941 -3.8170e+001 -9.2258e+001  1.8471e+001 34700 100762,100892,100866
 2.0000e+000 100918 -5.0097e+001 -1.0238e+002 -2.0368e+000 34700 100814,100866,100840
 2.0000e+000 101036 -2.9863e+001 -8.3083e+001  1.3392e+001 34700 100762,100866,101010
 2.0000e+000 101493 -5.9437e+001 -1.1725e+002 -6.9725e+000 34132 101516,101349,101297
 2.0000e+000 101470 -7.5676e+001 -1.4573e+002 -1.5018e+001 34132 101588,101516,101297
 2.0000e+000 101447 -7.5371e+001 -1.5345e+002 -2.4947e+001 34132 101588,101297,101245
 2.0000e+000 101424 -4.6389e+001 -1.7973e+002 -2.3214e+001 34132 101245,101297,101271
 2.0000e+000 101401 -6.7959e+001 -1.1724e+002 -1.0930e+001 34132 101297,101349,101323
 2.0000e+000 101542 -5.8756e+001 -1.3994e+002 -5.5592e+000 34132 101375,101349,101516
 2.0000e+000 101565 -5.4902e+001 -1.4220e+002 -7.3333e+000 34132 101375,101516,101219
 2.0000e+000 101614 -5.6958e+001 -1.4554e+002 -6.4609e+000 34132 101219,101516,101588
 2.0000e+000 101637 -6.6158e+001 -1.5374e+002 -1.5815e+001 34132 101219,101588,101245
 2.0000e+000 101858 -9.8731e+000 -1.1294e+002  8.1800e+000 33720 101708,101786,101760
 2.0000e+000 101835 -2.6828e+001 -1.3429e+002  4.6604e-001 33720 101682,101786,101708
 2.0000e+000 101812 -3.3870e+001 -1.2439e+002  4.4930e+000 33720 101708,101760,101734
 2.0000e+000 102128  1.5573e+000 -1.2486e+002 -4.6737e+000 33130 101903,102007,101929
 2.0000e+000 102105 -1.2879e+000 -1.4871e+002  5.1932e+000 33130 101903,102033,102007
 2.0000e+000 102082  1.0514e+001 -1.5291e+002 -3.4350e+001 33130 101929,102007,101955
 2.0000e+000 102059 -8.0869e+000 -1.0161e+002  2.7517e+000 33130 101955,102007,101981
 2.0000e+000 102461 -4.7510e+001 -1.2415e+002 -1.0195e+001 32840 102236,102340,102262
 2.0000e+000 102438 -3.9642e+001 -8.8407e+001  2.5921e+000 32840 102236,102366,102340
 2.0000e+000 102415 -2.5693e+001 -1.1714e+002 -9.7716e+000 32840 102262,102340,102288
 2.0000e+000 102392 -6.3234e+001 -1.2664e+002 -2.6848e+001 32840 102288,102340,102314
 2.0000e+000 102997 -4.2161e+001 -7.1363e+001  1.9569e+001 32493 102749,102879,102853
 2.0000e+000 102974 -3.3930e+001 -5.5188e+001  1.3729e+001 32493 102723,102879,102749
 2.0000e+000 102951 -5.0112e+001 -8.9445e+001  1.3591e+001 32493 102749,102801,102775
 2.0000e+000 102928 -5.2574e+001 -8.6898e+001  1.2080e+001 32493 102749,102853,102801
 2.0000e+000 102905 -5.0796e+001 -8.3331e+001  1.1366e+001 32493 102801,102853,102827
 2.0000e+000 103454 -5.5213e+001 -1.0449e+002 -5.3450e+000 32089 103206,103336,103310
 2.0000e+000 103431 -4.7254e+001 -1.0111e+002 -3.2674e-001 32089 103180,103336,103206
 2.0000e+000 103408 -5.9879e+001 -1.1910e+002 -1.6603e+001 32089 103206,103284,103258
 2.0000e+000 103385 -8.1076e+001 -1.2331e+002 -1.8706e+001 32089 103206,103310,103284
 2.0000e+000 103362 -5.2579e+001 -9.3532e+001  5.6334e+000 32089 103206,103258,103232
 2.0000e+000 103783 -8.3596e+001 -1.2550e+002 -1.1461e+001 31742 103558,103662,103584
 2.0000e+000 103760 -7.4304e+001 -1.1288e+002 -2.3714e+001 31742 103558,103688,103662
 2.0000e+000 103737 -5.8249e+001 -1.0519e+002 -2.1503e+001 31742 103584,103662,103636
 2.0000e+000 103714 -3.2656e+001 -1.1955e+002 -3.5903e+001 31742 103584,103636,103610
 2.0000e+000 104112 -6.7596e+000 -1.0321e+002  2.4166e+001 31402 103939,103991,103965
 2.0000e+000 104089 -3.0397e+001 -9.2435e+001  1.0863e+001 31402 103913,103991,103939
 2.0000e+000 104066 -4.3476e+001 -1.0513e+002  4.0391e+000 31402 103913,104017,103991
 2.0000e+000 104043 -4.9775e+001 -9.0549e+001 -1.4012e+000 31402 103887,104017,103913
 2.0000e+000 104569 -8.0114e+001 -1.5107e+002  6.6720e-001 30998 104321,104425,104373
 2.0000e+000 104546 -8.8923e+001 -1.5349e+002 -1.0191e+000 30998 104321,104451,104425
 2.0000e+000 104523 -7.3155e+001 -1.3109e+002  1.2615e+001 30998 104373,104425,104399
 2.0000e+000 104500 -7.9662e+001 -1.6151e+002 -5.0082e+000 30998 104295,104451,104321
 2.0000e+000 104477 -1.1288e+002 -1.8903e+002  2.8581e+001 30998 104321,104373,104347
 2.0000e+000 104947 -7.3814e+001 -1.1989e+002 -1.6439e+001 30608 104751,104803,104777
 2.0000e+000 104924 -4.7643e+001 -1.2288e+002 -6.7158e+000 30608 104725,104803,104751
 2.0000e+000 104901 -6.9123e+001 -1.1864e+002  5.0702e+000 30608 104699,104803,104725
 2.0000e+000 104878 -6.9302e+001 -1.1974e+002  6.5386e+000 30608 104673,104803,104699
 2.0000e+000 104855 -5.4524e+001 -1.1627e+002 -6.0020e+000 30608 104673,104829,104803
 2.0000e+000 105276 -4.2012e+001 -1.0576e+002  9.8449e+000 30204 105427,105129,105077
 2.0000e+000 105253 -2.0456e+001 -1.0915e+002  3.3206e+001 30204 105427,105077,105051
 2.0000e+000 105230 -3.3908e+001 -1.1177e+002  5.6891e+000 30204 105077,105129,105103
 2.0000e+000 105207 -7.8574e+001 -9.6847e+001  1.1128e+001 30204 105299,105181,105155
 2.0000e+000 105325 -6.1486e+001 -8.8815e+001  8.2359e+000 30204 105129,105181,105299
 2.0000e+000 105453 -5.4756e+001 -1.1208e+002  1.3164e+001 30204 105181,105129,105427
 2.0000e+000 105476 -6.1716e+001 -1.2817e+002  3.8857e+001 30204 105181,105427,105051
 2.0000e+000 105903 -1.4534e+001 -8.5611e+001 -7.9464e+000 29700 105606,105762,105736
 2.0000e+000 105880 -3.2133e+001 -8.9677e+001  2.8839e+000 29700 105580,105762,105606
 2.0000e+000 105857 -3.7604e+001 -1.1175e+002 -3.9117e+000 29700 105606,105710,105632
 2.0000e+000 105834 -2.9541e+001 -8.7868e+001 -2.8367e+000 29700 105606,105736,105710
 2.0000e+000 105811 -5.8348e+001 -1.2247e+002  6.8511e+000 29700 105632,105710,105684
 2.0000e+000 105788 -4.8836e+001 -1.0059e+002  2.3312e-001 29700 105632,105684,105658
 2.0000e+000 106102 -2.6247e+001 -1.2271e+002  1.4542e+000 29124 105978,106030,106004
 2.0000e+000 106079 -4.2164e+001 -1.2909e+002 -1.5712e+000 29124 105926,106030,105978
 2.0000e+000 106056 -3.8032e+001 -1.2986e+002  1.3044e+001 29124 105926,105978,105952
 2.0000e+000 106301 -1.7919e+001 -1.0537e+002  1.6210e-001 28712 106151,106229,106203
 2.0000e+000 106278 -2.3295e+001 -1.2016e+002 -7.5221e+000 28712 106125,106229,106151
 2.0000e+000 106255 -1.6261e+001 -1.0070e+002 -4.1609e+000 28712 106151,106203,106177
 2.0000e+000 106551 -3.6386e+001 -1.4485e+002  8.7676e-001 28258 106352,106404,106378
 2.0000e+000 106528 -4.8333e+001 -1.4713e+002 -2.0098e+000 28258 106352,106456,106404
 2.0000e+000 106505 -3.9381e+001 -1.5431e+002 -4.6045e+000 28258 106326,106456,106352
 2.0000e+000 106482 -4.8311e+001 -1.4021e+002  2.2350e+000 28258 106404,106456,106430
 2.0000e+000 107012 -5.2902e+001 -1.2612e+002  2.6047e+001 27818 107035,106790,106764
 2.0000e+000 106989 -4.5347e+001 -1.1572e+002  1.2511e+001 27818 107035,106764,106868
 2.0000e+000 106966 -3.8344e+001 -1.3177e+002  1.3238e+001 27818 107107,106842,106816
 2.0000e+000 106943 -7.0331e+001 -1.1306e+002  1.0860e+001 27818 106738,106868,106764
 2.0000e+000 106920 -7.4178e+001 -1.1030e+002  3.1155e+001 27818 106738,106894,106868
 2.0000e+000 107061 -2.6733e+001 -1.1834e+002  2.6865e+001 27818 106816,106790,107035
 2.0000e+000 107084 -4.0488e+001 -1.2714e+002  1.3894e+001 27818 107107,106816,107035
 2.0000e+000 107133 -4.3316e+001 -1.2385e+002  9.1788e+000 27818 106868,106842,107107
 2.0000e+000 107156 -4.2189e+001 -1.1505e+002  1.1430e+001 27818 106868,107107,107035
 2.0000e+000 107613 -1.3219e+001 -9.2801e+001  1.7772e+001 27312 107339,107469,107365
 2.0000e+000 107590 -5.3005e-001 -8.7026e+001  1.5566e+001 27312 107339,107495,107469
 2.0000e+000 107567 -1.5693e+001 -8.9412e+001  7.5638e+000 27312 107391,107469,107443
 2.0000e+000 107544 -1.2868e+001 -9.6261e+001  6.5706e+000 27312 107365,107469,107391
 2.0000e+000 107521 -4.3936e+001 -9.9185e+001  3.2564e+000 27312 107391,107443,107417
 2.0000e+000 107991 -5.2680e+001 -1.4374e+002  1.4678e+000 26858 108086,108014,107795
 2.0000e+000 107968 -5.7202e+001 -1.4714e+002 -1.5765e+001 26858 108014,107717,107873
 2.0000e+000 107945 -6.2119e+001 -1.5253e+002  7.7938e+000 26858 108158,108086,107795
 2.0000e+000 107922 -5.0324e+001 -1.5248e+002  7.2432e+000 26858 108158,107795,107769
 2.0000e+000 107899 -3.4700e+001 -1.8455e+002  2.4756e+001 26858 107821,107873,107847
 2.0000e+000 108040 -5.3938e+001 -1.6509e+002  6.0429e+000 26858 107821,107795,108014
 2.0000e+000 108063 -2.5271e+001 -1.5737e+002 -4.4552e+000 26858 107821,108014,107873
 2.0000e+000 108112 -7.5661e+001 -1.5247e+002  5.2342e+000 26858 107717,108014,108086
 2.0000e+000 108135 -6.2772e+001 -1.5830e+002  1.6029e+001 26858 107717,108086,107743
 2.0000e+000 108184 -4.8501e+001 -1.4998e+002  1.2024e+001 26858 107743,108086,108158
 2.0000e+000 108207 -4.3138e+001 -1.5456e+002  1.2052e+001 26858 107743,108158,107769
 2.0000e+000 108634 -6.3115e+001 -1.3458e+002  1.7006e+000 26404 108657,108415,108363
 2.0000e+000 108611 -7.1844e+001 -1.4592e+002  1.5603e+001 26404 108657,108363,108337
 2.0000e+000 108588 -5.8516e+001 -1.2818e+002  2.0275e+001 26404 108729,108311,108467
 2.0000e+000 108565 -7.9143e+001 -1.5426e+002 -1.7968e+000 26404 108801,108441,108415
 2.0000e+000 108542 -1.1071e+002 -1.5119e+002  2.3908e+001 26404 108311,108493,108467
 2.0000e+000 108519 -4.9560e+001 -1.3754e+002  5.4242e-001 26404 108363,108415,108389
 2.0000e+000 108683 -9.1447e+001 -1.4245e+002 -5.2493e-002 26404 108801,108415,108657
 2.0000e+000 108706 -8.7212e+001 -1.3708e+002  1.5021e+001 26404 108729,108467,108657
 2.0000e+000 108755 -3.9437e+001 -1.4123e+002  2.0419e+001 26404 108337,108311,108729
 2.0000e+000 108778 -5.4171e+001 -1.4008e+002  1.4925e+001 26404 108337,108729,108657
 2.0000e+000 108827 -9.1893e+001 -1.7628e+002 -8.6647e+000 26404 108467,108441,108801
 2.0000e+000 108850 -9.9293e+001 -1.5680e+002 -6.5063e+000 26404 108467,108801,108657
 2.0000e+000 109228 -3.7616e+001 -1.3533e+002  2.5523e+000 26064 109006,109084,109058
 2.0000e+000 109205 -3.8667e+001 -1.3307e+002  6.3426e+000 26064 108980,109084,109006
 2.0000e+000 109182 -3.5615e+001 -1.1935e+002 -5.9565e+000 26064 108980,109110,109084
 2.0000e+000 109159 -3.3261e+001 -1.5308e+002  1.6098e+001 26064 109006,109058,109032
 2.0000e+000 109136 -7.9146e+000 -9.1845e+001  5.2306e+000 26064 108954,109110,108980
 2.0000e+000 109427 -2.4038e+001 -1.2315e+002 -2.6073e+001 25660 109303,109355,109329
 2.0000e+000 109404 -3.7600e+001 -1.4983e+002 -8.2830e+000 25660 109277,109355,109303
 2.0000e+000 109381 -2.7816e+001 -1.3944e+002 -3.8349e+000 25660 109251,109355,109277
 2.0000e+000 109577  5.6723e+000 -4.9903e+001  4.0604e+001 25306 109476,109528,109502
 2.0000e+000 109554  1.9181e+001 -6.7006e+001  8.0443e+000 25306 109450,109528,109476
 2.0000e+000 109778 -1.7686e+001 -1.2111e+002  3.1666e+000 24944 109628,109706,109654
 2.0000e+000 109755 -1.9724e+001 -1.2373e+002  2.1824e+000 24944 109602,109706,109628
 2.0000e+000 109732 -2.9601e+000 -1.0833e+002 -1.6026e+001 24944 109654,109706,109680
 2.0000e+000 110126 -4.5592e+001 -1.6838e+002  1.0830e+001 24440 110149,109907,109855
 2.0000e+000 110103 -5.0457e+001 -1.7476e+002  1.3970e+001 24440 110149,109855,109985
 2.0000e+000 110080 -3.1347e+001 -1.4904e+002  3.6505e+000 24440 109855,109907,109881
 2.0000e+000 110057 -3.2180e+001 -1.4093e+002  4.1049e+001 24440 109829,109985,109855
 2.0000e+000 110034 -4.6363e+001 -1.6916e+002  1.3926e+000 24440 109907,109959,109933
 2.0000e+000 110011 -6.6564e+001 -1.6200e+002  1.3178e+001 24440 109803,109985,109829
 2.0000e+000 110175 -4.7148e+001 -1.6030e+002  4.8825e+000 24440 109959,109907,110149
 2.0000e+000 110198 -5.5290e+001 -1.6786e+002  8.8963e+000 24440 109959,110149,109985
 2.0000e+000 110301  2.1309e+000 -1.7221e+002 -2.2708e+001 24028 110223,110275,110249
 2.0000e+000 110573  3.5057e+000 -1.1011e+002  3.0061e+001 23467 110400,110452,110426
 2.0000e+000 110550 -3.0983e+001 -1.3322e+002  6.7865e+000 23467 110374,110452,110400
 2.0000e+000 110527 -3.9560e+001 -1.3684e+002  9.3941e+000 23467 110348,110452,110374
 2.0000e+000 110504 -1.9751e+001 -1.2421e+002  2.9861e+000 23467 110348,110478,110452
 2.0000e+000 111004 -7.6606e+001 -1.6586e+002 -2.1009e+001 22963 111027,110733,110707
 2.0000e+000 110981 -7.6923e+001 -1.5727e+002  6.3278e+000 22963 111027,110707,110681
 2.0000e+000 110958 -4.0006e+001 -1.3833e+002 -1.3813e+001 22963 111099,110759,110733
 2.0000e+000 110935 -4.8087e+001 -1.3840e+002 -1.1409e+001 22963 111171,110863,110811
 2.0000e+000 110912 -2.8735e+001 -1.0503e+002 -1.5851e+001 22963 110759,110811,110785
 2.0000e+000 110889 -5.2248e+001 -1.5141e+002 -1.2148e+001 22963 110811,110863,110837
 2.0000e+000 111053 -5.4973e+001 -1.4686e+002 -1.0207e+001 22963 111099,110733,111027
 2.0000e+000 111076 -4.6305e+001 -1.4758e+002 -9.6622e+000 22963 111171,110811,111027
 2.0000e+000 111125 -3.9983e+001 -1.3754e+002 -2.2578e+001 22963 110811,110759,111099
 2.0000e+000 111148 -4.3122e+001 -1.3761e+002 -2.0846e+001 22963 110811,111099,111027
 2.0000e+000 111197 -4.9515e+001 -1.2163e+002 -1.4620e+001 22963 110681,110863,111171
 2.0000e+000 111220 -5.3567e+001 -1.3402e+002 -8.2842e+000 22963 110681,111171,111027
 2.0000e+000 111726 -7.3313e+001 -1.4842e+002  2.0635e+000 22459 111749,111507,111429
 2.0000e+000 111703 -6.8067e+001 -1.4679e+002 -3.6156e+000 22459 111749,111429,111585
 2.0000e+000 111680 -5.9418e+001 -1.5590e+002 -2.0457e+000 22459 111403,111585,111429
 2.0000e+000 111657 -7.1459e+001 -1.6132e+002  4.9768e+000 22459 111507,111559,111533
 2.0000e+000 111634 -9.6351e+001 -1.4023e+002  6.3242e+000 22459 111455,111507,111481
 2.0000e+000 111611 -9.4546e+001 -1.3823e+002  8.8691e+000 22459 111429,111507,111455
 2.0000e+000 111775 -7.3549e+001 -1.5709e+002  7.0364e+000 22459 111559,111507,111749
 2.0000e+000 111798 -6.8040e+001 -1.5102e+002  1.5135e+000 22459 111559,111749,111585
 2.0000e+000 112046 -1.0409e+001 -1.2858e+002 -1.8084e+000 21898 112069,111925,111873
 2.0000e+000 112023 -7.5841e+000 -1.2510e+002  7.6697e+000 21898 112069,111873,111847
 2.0000e+000 112000 -1.1301e+001 -1.3887e+002 -2.8351e+000 21898 111821,111951,111847
 2.0000e+000 111977 -2.9642e+001 -1.0030e+002  2.2192e+000 21898 111873,111925,111899
 2.0000e+000 112095 -2.4261e+001 -1.3233e+002 -7.5406e+000 21898 111951,111925,112069
 2.0000e+000 112118 -1.6166e+001 -1.2734e+002  1.7182e+000 21898 111951,112069,111847
 2.0000e+000 112498 -5.6143e+001 -1.3583e+002 -1.1863e+001 21608 112521,112276,112224
 2.0000e+000 112475 -3.8184e+001 -1.3833e+002 -5.0246e-001 21608 112521,112224,112380
 2.0000e+000 112452 -4.2017e+001 -1.5604e+002  8.7688e+000 21608 112302,112380,112354
 2.0000e+000 112429 -6.2800e+001 -1.5138e+002 -9.0967e+000 21608 112224,112276,112250
 2.0000e+000 112406  1.6316e+001 -1.7276e+002 -1.0516e+001 21608 112302,112354,112328
 2.0000e+000 112547 -4.1301e+001 -1.1717e+002 -4.0301e+000 21608 112302,112276,112521
 2.0000e+000 112570 -2.9887e+001 -1.3240e+002  4.1271e+000 21608 112302,112521,112380
 2.0000e+000 112948 -6.3927e+001 -1.4286e+002 -3.4605e+000 20882 112971,112752,112700
 2.0000e+000 112925 -4.5380e+001 -1.3683e+002 -7.8122e+000 20882 112971,112700,112830
 2.0000e+000 112902 -8.3947e+001 -1.5341e+002  8.4706e+000 20882 112778,112830,112804
 2.0000e+000 112879 -4.1959e+001 -1.0694e+002 -1.1073e+001 20882 112674,112830,112700
 2.0000e+000 112856 -7.7524e+001 -1.4775e+002  1.2176e+000 20882 112700,112752,112726
 2.0000e+000 112997 -6.4621e+001 -1.4315e+002  6.8027e+000 20882 112778,112752,112971
 2.0000e+000 113020 -5.4016e+001 -1.4031e+002  2.0715e+000 20882 112778,112971,112830
 2.0000e+000 113526 -5.1099e+001 -1.4399e+002  6.2703e-004 20428 113255,113385,113333
 2.0000e+000 113503 -5.5086e+001 -1.5618e+002 -4.5065e-002 20428 113229,113385,113255
 2.0000e+000 113480 -9.4782e+000 -1.3974e+002  1.1364e+000 20428 113255,113333,113281
 2.0000e+000 113457 -4.7936e+001 -1.5318e+002  1.1048e+000 20428 113203,113385,113229
 2.0000e+000 113434 -2.8398e+001 -1.4656e+002 -5.0976e+000 20428 113281,113333,113307
 2.0000e+000 113411 -6.0931e+001 -1.4055e+002  2.2222e+000 20428 113333,113385,113359
 2.0000e+000 113774 -2.6911e+001 -1.4367e+002  8.4340e+000 19917 113797,113601,113549
 2.0000e+000 113751 -3.7082e+001 -1.4480e+002  9.3976e+000 19917 113869,113797,113549
 2.0000e+000 113728 -3.6528e+001 -1.4545e+002  1.2099e+001 19917 113869,113549,113679
 2.0000e+000 113705 -2.3952e+001 -1.3420e+002  9.0329e+000 19917 113549,113601,113575
 2.0000e+000 113823 -3.7120e+001 -1.4736e+002  3.3093e+000 19917 113627,113601,113797
 2.0000e+000 113846 -3.9477e+001 -1.3997e+002  7.3988e+000 19917 113627,113797,113653
 2.0000e+000 113895 -3.5543e+001 -1.3855e+002  7.7818e+000 19917 113653,113797,113869
 2.0000e+000 113918 -3.7103e+001 -1.4003e+002  1.1188e+001 19917 113653,113869,113679
 2.0000e+000 114166 -6.4248e+001 -1.4404e+002 -3.7921e+000 19413 113993,114045,114019
 2.0000e+000 114143 -5.4339e+001 -1.3191e+002  9.2537e-001 19413 113967,114045,113993
 2.0000e+000 114120 -4.9308e+001 -1.3014e+002  4.0734e+000 19413 113967,114071,114045
 2.0000e+000 114097 -3.3194e+001 -1.4356e+002 -4.2414e+000 19413 113941,114071,113967
 2.0000e+000 114438 -2.4997e+001 -1.3844e+002 -2.2921e+000 19001 114213,114265,114239
 2.0000e+000 114415 -1.8893e+001 -1.1676e+002 -1.4294e+000 19001 114213,114343,114265
 2.0000e+000 114392 -3.3856e+001 -1.4810e+002 -7.2490e+000 19001 114265,114343,114317
 2.0000e+000 114369 -2.6787e+000 -1.3124e+002  5.9877e-001 19001 114265,114317,114291
 2.0000e+000 114639 -5.3965e+001 -1.4485e+002 -7.4693e+000 18554 114489,114541,114515
 2.0000e+000 114616 -2.7233e+000 -1.4156e+002 -1.5169e+001 18554 114489,114567,114541
 2.0000e+000 114593 -5.7480e+001 -1.4290e+002 -2.6704e+001 18554 114463,114567,114489
 2.0000e+000 115043 -3.2654e+001 -1.3907e+002  4.1363e+000 18164 114795,114925,114821
 2.0000e+000 115020 -2.5994e+001 -1.4661e+002  9.0723e+000 18164 114769,114925,114795
 2.0000e+000 114997 -2.2235e+001 -1.4580e+002 -1.4623e+000 18164 115066,114873,114821
 2.0000e+000 114974 -1.9717e+001 -1.2547e+002 -3.9547e+000 18164 115066,114821,114925
 2.0000e+000 114951 -2.3220e+000 -1.4579e+002 -1.1007e+001 18164 114821,114873,114847
 2.0000e+000 115092 -3.0795e+001 -1.3106e+002 -1.2379e+001 18164 114899,114873,115066
 2.0000e+000 115115 -2.0541e+001 -1.0004e+002 -1.5621e+001 18164 114899,115066,114925
 2.0000e+000 115265 -4.6020e+001 -1.6494e+002  4.8454e-001 17852 115164,115216,115190
 2.0000e+000 115242 -4.2567e+001 -1.6531e+002  1.7756e+000 17852 115138,115216,115164
 2.0000e+000 115464 -8.5706e+001 -2.0439e+002  3.1712e+000 17346 115288,115366,115340
 2.0000e+000 115441 -1.4266e+002 -1.6238e+002 -4.0035e+000 17346 115288,115392,115366
 2.0000e+000 115418 -8.1934e+001 -2.3034e+002 -7.1959e+000 17346 115288,115340,115314
 2.0000e+000 115736 -4.2552e+001 -1.4169e+002  4.4284e+000 16942 115563,115641,115615
 2.0000e+000 115713 -4.4712e+001 -1.3932e+002  2.0263e+000 16942 115511,115641,115563
 2.0000e+000 115690 -1.0144e+002 -1.6407e+002  8.1611e+000 16942 115563,115615,115589
 2.0000e+000 115667 -5.1679e+001 -1.5518e+002  4.4805e+000 16942 115511,115563,115537
 2.0000e+000 116091 -7.0730e+001 -1.5880e+002 -5.8895e+000 16388 115918,115970,115944
 2.0000e+000 116068 -6.0982e+001 -1.2955e+002 -3.5225e+000 16388 115918,115996,115970
 2.0000e+000 116045 -7.8920e+001 -1.6147e+002  4.8375e+000 16388 115892,115996,115918
 2.0000e+000 116022 -5.4934e+001 -1.5174e+002  1.6159e+001 16388 115866,115996,115892
 2.0000e+000 116192 -2.4650e+001 -1.7541e+002 -2.5659e+001 15810 116114,116166,116140
 2.0000e+000 116342 -2.5079e+001 -1.5203e+002  1.1777e+001 15419 116241,116293,116267
 2.0000e+000 116319 -2.7858e+001 -1.8642e+002 -9.3422e-001 15419 116215,116293,116241
 2.0000e+000 116445 -6.8374e+001 -1.4353e+002 -8.4881e-001 421 116367,116419,116393
 2.1000e+000 68477 -1.0009e+002 -1.4984e+002  4.4240e+000 68018 68327,68379,68353
 2.1000e+000 68454 -1.0659e+002 -1.9640e+002  1.7880e+001 68018 68301,68379,68327
 2.1000e+000 68431 -4.9320e+001 -2.2672e+002  3.9647e+001 68018 68301,68405,68379
 2.1000e+000 68578 -6.0413e+001 -1.5229e+002  6.6709e-001 67820 68500,68552,68526
 2.1000e+000 68728 -6.8593e+001 -1.4506e+002 -2.7822e+000 67508 68601,68653,68627
 2.1000e+000 68705 -1.1639e+002 -1.0828e+002 -2.3646e+001 67508 68601,68679,68653
 2.1000e+000 68927 -1.2596e+001 -1.2105e+002 -5.1481e+000 67310 68777,68829,68803
 2.1000e+000 68904 -3.3854e+001 -1.4035e+002  3.5420e+000 67310 68751,68829,68777
 2.1000e+000 68881 -4.1215e+001 -1.5794e+002  1.5181e+000 67310 68751,68855,68829
 2.1000e+000 69386 -5.8191e+001 -1.6458e+002 -8.8131e+000 67020 69216,69268,69242
 2.1000e+000 69363 -4.8925e+001 -1.2027e+002 -1.5553e+001 67020 69138,69268,69216
 2.1000e+000 69340 -3.8261e+001 -1.0649e+002 -6.9510e+000 67020 69112,69268,69138
 2.1000e+000 69317 -6.9874e+001 -1.3770e+002  1.1408e+001 67020 69138,69190,69164
 2.1000e+000 69294 -7.3075e+001 -1.2639e+002 -5.5601e+000 67020 69138,69216,69190
 2.1000e+000 69536 -1.0681e+002 -2.8454e+002 -1.8553e+001 66708 69435,69487,69461
 2.1000e+000 69513 -8.2635e+001 -3.1597e+002 -1.6262e+000 66708 69409,69487,69435
 2.1000e+000 69735 -6.6785e+001 -1.6358e+002  3.8541e+000 66346 69585,69637,69611
 2.1000e+000 69712 -5.3002e+001 -1.5595e+002 -5.7550e-001 66346 69559,69637,69585
 2.1000e+000 69689 -4.6373e+001 -1.5419e+002 -1.5848e+001 66346 69559,69663,69637
 2.1000e+000 69985 -8.8641e+001 -1.6846e+002  4.5008e+000 66148 69786,69890,69864
 2.1000e+000 69962 -9.2079e+001 -1.7058e+002  5.6589e+000 66148 69760,69890,69786
 2.1000e+000 69939 -6.0287e+001 -1.5729e+002 -2.2921e+001 66148 69786,69864,69838
 2.1000e+000 69916 -7.6083e+001 -1.7431e+002 -6.2263e+000 66148 69786,69838,69812
 2.1000e+000 70137  4.6913e+000 -1.4613e+002 -1.0304e+001 65950 70036,70088,70062
 2.1000e+000 70114  2.6669e+001 -1.6860e+002  1.6181e+001 65950 70010,70088,70036
 2.1000e+000 70470  6.6496e-001 -1.1432e+002  2.4648e+000 65546 70245,70323,70271
 2.1000e+000 70447 -3.5649e+000 -1.2528e+002  2.6247e+000 65546 70245,70375,70323
 2.1000e+000 70424 -4.6142e-001 -1.4623e+002  8.3771e+000 65546 70323,70375,70349
 2.1000e+000 70401 -9.1411e+000 -1.1889e+002  4.0392e+000 65546 70271,70323,70297
 2.1000e+000 70620 -3.8410e+001 -1.5840e+002  8.1439e+000 65348 70493,70545,70519
 2.1000e+000 70597 -3.5492e+001 -1.7282e+002  5.4024e+000 65348 70493,70571,70545
 2.1000e+000 70721 -7.8353e+001 -1.6694e+002  4.7175e+000 65150 70643,70695,70669
 2.1000e+000 71020 -5.5271e+001 -1.1698e+002  6.3051e+000 64952 71043,70850,70824
 2.1000e+000 70997 -4.1966e+001 -9.6170e+001 -3.4822e+000 64952 71043,70824,70772
 2.1000e+000 70974 -3.8538e+001 -1.4834e+002  3.2698e+000 64952 71115,70746,70876
 2.1000e+000 70951 -4.9951e+001 -1.4562e+002  9.6289e+000 64952 70746,70902,70876
 2.1000e+000 70928 -5.0172e+001 -9.2194e+001 -6.9444e+000 64952 70772,70824,70798
 2.1000e+000 71069 -3.1196e+001 -1.0513e+002  1.1007e+001 64952 70876,70850,71043
 2.1000e+000 71092 -4.2981e+001 -1.3406e+002  1.4685e+000 64952 71115,70876,71043
 2.1000e+000 71141 -4.3358e+001 -1.3285e+002 -7.7517e+000 64952 70772,70746,71115
 2.1000e+000 71164 -4.0686e+001 -1.1086e+002 -1.0808e+001 64952 70772,71115,71043
 2.1000e+000 71365 -1.7204e+000 -1.4305e+002 -3.3275e+000 64662 71215,71293,71267
 2.1000e+000 71342  3.7307e+001 -1.0996e+002 -3.3366e+001 64662 71189,71293,71215
 2.1000e+000 71319  2.0374e+001 -9.9605e+001  4.3462e+000 64662 71215,71267,71241
 2.1000e+000 71615 -3.0455e+001 -1.4760e+002 -3.9532e-002 64350 71710,71638,71468
 2.1000e+000 71592 -1.3396e+001 -1.3939e+002 -6.2654e+000 64350 71638,71416,71390
 2.1000e+000 71569 -3.7636e+001 -1.3388e+002  1.2117e+001 64350 71710,71468,71442
 2.1000e+000 71546  5.2329e+001 -1.3603e+002 -2.7235e+001 64350 71390,71520,71494
 2.1000e+000 71664 -2.2577e+001 -1.4304e+002 -4.2553e+000 64350 71494,71468,71638
 2.1000e+000 71687 -1.9335e+001 -1.4723e+002 -1.9369e+000 64350 71494,71638,71390
 2.1000e+000 71736 -1.6479e+001 -1.1952e+002 -4.6545e+000 64350 71416,71638,71710
 2.1000e+000 71759 -2.6974e+001 -1.0981e+002  9.9108e+000 64350 71416,71710,71442
 2.1000e+000 72318 -3.1821e+001 -2.2695e+002 -1.3594e+001 63837 71972,72024,71998
 2.1000e+000 72295 -4.2549e+001 -1.4442e+002 -1.0440e+000 63837 72341,71972,71946
 2.1000e+000 72272 -3.9728e+001 -1.1360e+002  1.0233e+001 63837 72413,72341,71946
 2.1000e+000 72249 -4.0425e+001 -1.0132e+002  6.8563e+000 63837 72413,71946,72128
 2.1000e+000 72226 -6.8355e+001 -1.2188e+002  5.8155e+000 63837 72024,72076,72050
 2.1000e+000 72203 -5.5214e+001 -1.0850e+002 -1.0220e+000 63837 72024,72102,72076
 2.1000e+000 72180 -3.2292e+001 -9.8810e+001  1.1242e+001 63837 71946,72154,72128
 2.1000e+000 72367 -6.4889e+001 -1.5961e+002 -3.0916e+001 63837 72024,71972,72341
 2.1000e+000 72390 -4.3765e+001 -1.2235e+002 -9.7411e+000 63837 72024,72341,72102
 2.1000e+000 72439 -3.3847e+001 -1.3328e+002  5.5822e+000 63837 72102,72341,72413
 2.1000e+000 72462 -3.3639e+001 -1.1967e+002  3.8101e+000 63837 72102,72413,72128
 2.1000e+000 72791 -5.9910e+001 -1.2499e+002 -1.1942e+001 63383 72592,72696,72670
 2.1000e+000 72768 -6.4377e+001 -1.2092e+002 -2.4778e+001 63383 72566,72696,72592
 2.1000e+000 72745 -6.5586e+001 -1.1225e+002 -2.8591e-001 63383 72592,72670,72618
 2.1000e+000 72722 -6.6636e+001 -1.0783e+002 -5.5015e+000 63383 72618,72670,72644
 2.1000e+000 73297 -7.8770e+001 -1.1547e+002 -7.6262e-001 63185 73000,73156,73130
 2.1000e+000 73274 -7.8865e+001 -1.1947e+002  1.5253e+001 63185 72974,73156,73000
 2.1000e+000 73251 -5.9193e+001 -1.3348e+002  9.7016e-001 63185 73000,73052,73026
 2.1000e+000 73228 -6.0311e+001 -1.1592e+002 -4.3739e+000 63185 73000,73130,73052
 2.1000e+000 73205 -6.2792e+001 -1.3942e+002 -1.9489e+001 63185 73052,73130,73104
 2.1000e+000 73182 -5.5492e+001 -1.5023e+002 -1.9337e+001 63185 73052,73104,73078
 2.1000e+000 73545 -1.7704e+001 -1.2397e+002  1.3832e+000 62781 73568,73398,73372
 2.1000e+000 73522 -4.3217e+000 -1.1209e+002  9.7370e+000 62781 73568,73372,73346
 2.1000e+000 73499 -2.4923e+001 -1.2656e+002 -9.9162e+000 62781 73640,73320,73424
 2.1000e+000 73476 -4.8235e+001 -9.9833e+001 -1.2386e+001 62781 73320,73450,73424
 2.1000e+000 73594 -2.2615e+001 -1.1411e+002  5.6087e-001 62781 73424,73398,73568
 2.1000e+000 73617 -2.2406e+001 -1.2276e+002 -1.1502e+000 62781 73640,73424,73568
 2.1000e+000 73666 -2.0267e+001 -1.1661e+002 -4.8018e+000 62781 73346,73320,73640
 2.1000e+000 73689 -1.8349e+001 -1.0910e+002  3.1806e+000 62781 73346,73640,73568
 2.1000e+000 74035 -6.7565e+001 -1.5721e+002 -6.3550e+000 62363 74058,73868,73842
 2.1000e+000 74012 -5.1259e+001 -1.4232e+002 -1.4825e+001 62363 74130,74058,73842
 2.1000e+000 73989 -4.6723e+001 -1.4017e+002 -1.4215e+001 62363 74130,73842,73816
 2.1000e+000 73966 -7.4207e+001 -1.6445e+002  1.6817e+000 62363 74202,73764,73894
 2.1000e+000 73943 -9.2545e+001 -1.4671e+002  3.5183e+000 62363 73712,73894,73764
 2.1000e+000 73920 -1.0372e+002 -1.5921e+002 -2.2133e+000 62363 73712,73764,73738
 2.1000e+000 74084 -5.5675e+001 -1.5061e+002 -1.8483e+000 62363 73894,73868,74058
 2.1000e+000 74107 -6.8456e+001 -1.5734e+002  5.8703e+000 62363 74202,73894,74058
 2.1000e+000 74156 -5.6521e+001 -1.4265e+002  2.9541e+000 62363 73790,74058,74130
 2.1000e+000 74179 -3.2703e+001 -1.3199e+002  5.5156e+000 62363 73790,74130,73816
 2.1000e+000 74228 -8.0247e+001 -1.6715e+002 -8.5537e+000 62363 73790,73764,74202
 2.1000e+000 74251 -7.5696e+001 -1.5941e+002 -4.4597e+000 62363 73790,74202,74058
 2.1000e+000 74403  3.3046e+001 -1.5611e+002  1.2823e+001 62115 74426,74302,74276
 2.1000e+000 74380  3.8796e+001 -1.4900e+002  1.5317e+001 62115 74426,74276,74354
 2.1000e+000 74452  2.6290e+001 -1.4827e+002  1.1662e+001 62115 74328,74302,74426
 2.1000e+000 74475  3.1956e+001 -1.4096e+002  1.4157e+001 62115 74328,74426,74354
 2.1000e+000 74578  4.9140e+001 -1.1212e+002  6.7111e+000 61825 74500,74552,74526
 2.1000e+000 74982 -7.1210e+001 -1.3907e+002  1.8881e-001 61513 75005,74734,74708
 2.1000e+000 74959 -7.1759e+001 -1.3883e+002  1.8427e-001 61513 75005,74708,74864
 2.1000e+000 74936 -9.3842e+001 -1.4360e+002  7.7504e+000 61513 75077,74812,74734
 2.1000e+000 74913 -7.4797e+001 -1.3368e+002 -1.0332e+001 61513 74734,74786,74760
 2.1000e+000 74890 -7.4955e+001 -1.2654e+002 -2.8290e+000 61513 74734,74812,74786
 2.1000e+000 75031 -6.8605e+001 -1.4254e+002  3.5845e-001 61513 75077,74734,75005
 2.1000e+000 75054 -5.0839e+001 -1.3636e+002  2.2283e+001 61513 74838,75005,74864
 2.1000e+000 75103 -1.0757e+002 -1.4839e+002  3.0917e+001 61513 74838,74812,75077
 2.1000e+000 75126 -9.1280e+001 -1.5352e+002  2.3520e+001 61513 74838,75077,75005
 2.1000e+000 75553 -2.9159e+001 -1.1862e+002 -3.1230e+000 61060 75576,75360,75308
 2.1000e+000 75530 -2.2857e+001 -1.3221e+002 -8.0943e-001 61060 75576,75308,75230
 2.1000e+000 75507 -2.8943e+001 -1.1342e+002  2.9338e+000 61060 75308,75360,75334
 2.1000e+000 75484 -2.8882e+001 -1.4566e+002  5.7054e-001 61060 75230,75308,75256
 2.1000e+000 75461 -3.3143e+001 -1.4262e+002 -1.6081e+000 61060 75256,75308,75282
 2.1000e+000 75438 -4.3842e+001 -1.2086e+002  1.8548e+001 61060 75360,75412,75386
 2.1000e+000 75602 -2.8286e+001 -1.2849e+002  2.9422e+000 61060 75412,75360,75576
 2.1000e+000 75625 -2.6099e+001 -1.4885e+002  4.0873e+000 61060 75412,75576,75230
 2.1000e+000 76052 -4.6185e+001 -1.2565e+002  1.3319e+000 60442 75755,75859,75833
 2.1000e+000 76029 -4.3106e+001 -1.0757e+002 -1.7392e+001 60442 75729,75859,75755
 2.1000e+000 76006 -4.6024e+001 -1.0949e+002  7.1949e+000 60442 75755,75833,75807
 2.1000e+000 75983 -5.1899e+001 -1.3128e+002  1.8247e+000 60442 75755,75807,75781
 2.1000e+000 75960  4.3672e+000 -2.3543e+002  7.9365e+000 60442 75729,75911,75859
 2.1000e+000 75937 -1.0810e+002 -5.6151e+002  3.3899e+001 60442 75859,75911,75885
 2.1000e+000 76430 -5.0508e+001 -1.4320e+002 -1.2315e+000 59788 76453,76286,76234
 2.1000e+000 76407 -5.4597e+001 -1.6102e+002  5.8499e+000 59788 76453,76234,76182
 2.1000e+000 76384 -5.5481e+001 -9.8516e+001  2.1669e+001 59788 76525,76156,76312
 2.1000e+000 76361 -3.2259e+001 -1.8847e+002  2.6452e+000 59788 76182,76234,76208
 2.1000e+000 76338 -2.8930e+001 -1.3112e+002  3.6959e+000 59788 76234,76286,76260
 2.1000e+000 76479 -6.0347e+001 -1.5212e+002  3.6616e+000 59788 76312,76286,76453
 2.1000e+000 76502 -4.9991e+001 -1.4097e+002  9.4355e+000 59788 76525,76312,76453
 2.1000e+000 76551 -7.2361e+001 -1.5199e+002  2.2638e+001 59788 76182,76156,76525
 2.1000e+000 76574 -6.2610e+001 -1.6499e+002  1.4040e+001 59788 76182,76525,76453
 2.1000e+000 77031 -9.4226e+000 -8.0303e+001 -1.6825e+001 59448 76835,76887,76861
 2.1000e+000 77008  1.5844e+001 -5.7838e+001 -1.8256e-001 59448 76835,76913,76887
 2.1000e+000 76985 -6.7960e-001 -6.0632e+001  1.4733e+001 59448 76809,76913,76835
 2.1000e+000 76962 -3.1717e+001 -7.1773e+001 -7.6625e+000 59448 76757,76913,76809
 2.1000e+000 76939 -2.1174e+001 -6.7150e+001 -1.1853e+001 59448 76757,76809,76783
 2.1000e+000 77537 -6.0869e+001 -1.3443e+002  4.5194e+000 58994 77560,77344,77292
 2.1000e+000 77514 -8.3070e+001 -1.3326e+002  2.4760e-001 58994 77560,77292,77240
 2.1000e+000 77491 -4.8256e+001 -1.2583e+002 -6.9489e+000 58994 77632,77214,77370
 2.1000e+000 77468 -9.8269e+001 -1.5231e+002  2.5556e+001 58994 77292,77344,77318
 2.1000e+000 77445 -5.0897e+001 -1.5204e+002 -1.7074e-002 58994 77214,77396,77370
 2.1000e+000 77422 -8.4203e+001 -1.3951e+002 -3.9468e+000 58994 77240,77292,77266
 2.1000e+000 77586 -6.7146e+001 -1.3678e+002  6.1164e+000 58994 77370,77344,77560
 2.1000e+000 77609 -6.3492e+001 -1.3516e+002  6.8114e+000 58994 77632,77370,77560
 2.1000e+000 77658 -3.9677e+001 -1.1529e+002 -2.0677e+001 58994 77240,77214,77632
 2.1000e+000 77681 -5.0634e+001 -1.1330e+002 -8.1732e+000 58994 77240,77632,77560
 2.1000e+000 78138 -4.2748e+001 -8.5008e+001  1.1177e+001 58440 77864,77994,77890
 2.1000e+000 78115 -2.3352e+001 -4.4614e+001 -1.1902e+001 58440 77864,78020,77994
 2.1000e+000 78092 -4.9779e+001 -1.0288e+002 -1.0169e+001 58440 77942,77994,77968
 2.1000e+000 78069 -3.5710e+001 -9.2947e+001  2.2032e+000 58440 77890,77994,77942
 2.1000e+000 78046 -3.1642e+001 -8.7989e+001  1.9193e-001 58440 77890,77942,77916
 2.1000e+000 78467 -1.0357e+001 -1.2803e+002  4.3729e+000 57928 78562,78490,78346
 2.1000e+000 78444 -2.6715e+001 -1.1767e+002  8.2152e+000 57928 78490,78294,78268
 2.1000e+000 78421 -5.7343e+000 -1.3256e+002  8.3114e+000 57928 78562,78346,78320
 2.1000e+000 78398 -1.4546e+001 -1.2007e+002  1.5914e+000 57928 78242,78372,78268
 2.1000e+000 78516 -2.8917e+001 -1.5832e+002 -7.7504e+000 57928 78372,78346,78490
 2.1000e+000 78539 -2.0160e+001 -1.2026e+002  2.8838e-001 57928 78372,78490,78268
 2.1000e+000 78588 -2.9991e+001 -1.2924e+002  3.3049e+000 57928 78294,78490,78562
 2.1000e+000 78611 -1.7629e+001 -1.2543e+002  1.0175e+001 57928 78294,78562,78320
 2.1000e+000 79068 -7.3568e+001 -1.8336e+002 -4.7371e+001 57467 78794,78924,78820
 2.1000e+000 79045 -5.1379e+001 -1.7437e+002 -4.8520e+001 57467 78794,78950,78924
 2.1000e+000 79022  1.2179e+000 -1.4550e+002  8.4504e+000 57467 78820,78898,78872
 2.1000e+000 78999 -5.5923e+001 -2.1417e+002 -3.0638e+001 57467 78820,78924,78898
 2.1000e+000 78976 -1.0449e+001 -1.5333e+002  1.3419e+001 57467 78820,78872,78846
 2.1000e+000 79446 -6.8863e+001 -1.4687e+002  3.9177e+000 57120 79172,79302,79250
 2.1000e+000 79423 -6.2390e+001 -1.4360e+002 -7.0273e+000 57120 79172,79328,79302
 2.1000e+000 79400 -6.4661e+001 -1.2820e+002 -5.0944e-001 57120 79172,79250,79198
 2.1000e+000 79377 -4.7795e+001 -2.0129e+002  9.3395e+000 57120 79250,79302,79276
 2.1000e+000 79354 -8.5462e+001 -1.4312e+002 -7.7657e+000 57120 79198,79250,79224
 2.1000e+000 79952 -7.7825e+001 -1.4069e+002  3.9413e+000 56773 79629,79785,79655
 2.1000e+000 79929 -1.1462e+001 -1.2034e+002  1.0166e+001 56773 79629,79811,79785
 2.1000e+000 79906 -5.3494e+001 -1.6483e+002  1.6315e+001 56773 79655,79733,79681
 2.1000e+000 79883 -5.2978e+001 -1.3853e+002  4.4683e+000 56773 79655,79785,79733
 2.1000e+000 79860 -4.2212e+001 -1.8698e+002 -2.9895e+001 56773 79733,79785,79759
 2.1000e+000 79837 -1.5513e+000 -1.4026e+002  4.8435e+001 56773 79681,79733,79707
 2.1000e+000 80281 -2.7519e+001 -9.9989e+001 -1.3077e+001 56319 80108,80160,80134
 2.1000e+000 80258 -2.6362e+001 -1.2094e+002 -1.5751e+001 56319 80056,80160,80108
 2.1000e+000 80235 -4.1741e+000 -1.0525e+002  6.5549e+000 56319 80056,80186,80160
 2.1000e+000 80212 -3.1813e+001 -1.7093e+002 -1.8387e+001 56319 80056,80108,80082
 2.1000e+000 80738 -1.7795e+001 -1.3023e+002  9.6213e+000 55957 80516,80620,80594
 2.1000e+000 80715 -4.2530e+001 -1.1586e+002  9.1684e+000 55957 80464,80620,80516
 2.1000e+000 80692 -3.7468e+001 -1.3756e+002  7.7303e+000 55957 80761,80568,80542
 2.1000e+000 80669 -2.8384e+001 -1.3762e+002  8.5105e+000 55957 80761,80542,80516
 2.1000e+000 80646 -4.3646e+001 -1.1804e+002  2.1172e+001 55957 80464,80516,80490
 2.1000e+000 80787 -4.4839e+001 -1.3822e+002  6.7211e+000 55957 80594,80568,80761
 2.1000e+000 80810 -3.6470e+001 -1.3871e+002  7.6933e+000 55957 80594,80761,80516
 2.1000e+000 81210 -2.0064e+001 -1.3495e+002 -1.0997e+001 55317 80936,80988,80962
 2.1000e+000 81187 -1.8147e+001 -1.4372e+002 -4.3968e+000 55317 80936,81066,80988
 2.1000e+000 81164 -2.0634e+001 -1.5649e+002  1.7020e-001 55317 80936,81092,81066
 2.1000e+000 81141 -5.2073e+001 -1.6138e+002 -1.5986e+001 55317 80988,81066,81014
 2.1000e+000 81118 -2.2253e-001 -9.8549e+001  7.7583e+000 55317 81014,81066,81040
 2.1000e+000 81539 -4.9456e+001 -1.3745e+002  2.0156e+000 54913 81340,81418,81392
 2.1000e+000 81516  2.6212e+000 -1.0742e+002 -1.3115e+001 54913 81340,81444,81418
 2.1000e+000 81493 -1.7856e+001 -1.2133e+002 -2.9735e+001 54913 81314,81444,81340
 2.1000e+000 81470 -6.0711e+001 -1.6433e+002 -4.2201e+000 54913 81340,81392,81366
 2.1000e+000 81787 -3.6627e+001 -1.5756e+002 -9.7797e-001 54601 81588,81692,81640
 2.1000e+000 81764 -6.4659e+001 -1.6417e+002 -7.7911e+000 54601 81562,81692,81588
 2.1000e+000 81741 -2.7691e+001 -1.5958e+002  2.0773e+001 54601 81588,81640,81614
 2.1000e+000 81718 -3.8523e+001 -1.8936e+002 -1.6302e+001 54601 81640,81692,81666
 2.1000e+000 82344 -4.8361e+001 -1.6757e+002 -1.9504e+001 54090 81998,82102,82076
 2.1000e+000 82321 -7.5566e+001 -1.7966e+002 -1.1339e+001 54090 81998,82154,82102
 2.1000e+000 82298 -6.2103e+001 -1.7551e+002 -8.5437e+000 54090 81972,82154,81998
 2.1000e+000 82275 -6.1033e+001 -1.5778e+002 -2.1571e+001 54090 81998,82076,82024
 2.1000e+000 82252 -8.2034e+001 -1.8914e+002  5.5194e+000 54090 81972,82180,82154
 2.1000e+000 82229 -1.0571e+002 -2.1006e+002  6.1497e+000 54090 82102,82154,82128
 2.1000e+000 82206  4.5810e+001 -1.1014e+002 -3.2333e+001 54090 82024,82076,82050
 2.1000e+000 82722 -9.3638e+001 -1.7341e+002 -7.1909e+000 53579 82500,82578,82552
 2.1000e+000 82699 -6.6310e+001 -1.5778e+002  3.7858e+000 53579 82448,82578,82500
 2.1000e+000 82676 -7.0070e+001 -1.7852e+002  2.3006e+000 53579 82448,82500,82474
 2.1000e+000 82653 -9.0985e+001 -1.7104e+002  1.5264e+001 53579 82448,82604,82578
 2.1000e+000 82630 -4.5106e+001 -1.6175e+002 -9.0705e+000 53579 82500,82552,82526
 2.1000e+000 83356 -4.0759e+001 -1.2813e+002 -1.0211e+001 53189 83379,83088,83036
 2.1000e+000 83333 -3.9244e+001 -1.4393e+002 -9.0106e+000 53189 83379,83036,82984
 2.1000e+000 83310 -1.1437e+001 -1.3053e+002  3.0568e+001 53189 82984,83192,83166
 2.1000e+000 83287  1.1519e+001 -1.0710e+002 -9.4712e+000 53189 83036,83088,83062
 2.1000e+000 83264 -3.5317e+001 -1.8044e+002 -1.8969e+001 53189 82984,83036,83010
 2.1000e+000 83241 -1.5356e+001 -1.5620e+002  7.1980e+000 53189 83114,83166,83140
 2.1000e+000 83218 -6.1108e+001 -1.6871e+002  6.6670e+000 53189 83088,83166,83114
 2.1000e+000 83405 -4.0903e+001 -1.3874e+002 -3.6958e+000 53189 83166,83088,83379
 2.1000e+000 83428 -3.7029e+001 -1.5269e+002 -3.4945e+000 53189 83166,83379,82984
 2.1000e+000 83725 -5.2528e+001 -1.8448e+002 -1.3775e+001 52585 83748,83529,83503
 2.1000e+000 83702 -2.5012e+001 -1.7386e+002 -1.0138e+001 52585 83820,83748,83503
 2.1000e+000 83679  6.3469e+000 -1.6840e+002 -7.7819e+000 52585 83820,83503,83477
 2.1000e+000 83656 -3.1498e+001 -1.6220e+002  2.4097e+001 52585 83477,83607,83581
 2.1000e+000 83633  6.4431e+000 -1.4751e+002  2.0929e+001 52585 83451,83607,83477
 2.1000e+000 83774 -4.3794e+001 -1.6161e+002 -9.5828e+000 52585 83555,83529,83748
 2.1000e+000 83797 -7.3874e+001 -1.7173e+002 -5.3477e+000 52585 83555,83748,83581
 2.1000e+000 83846 -5.4519e+001 -1.5877e+002  5.8191e+000 52585 83581,83748,83820
 2.1000e+000 83869 -3.1186e+001 -1.5803e+002  4.9577e+000 52585 83581,83820,83477
 2.1000e+000 84200 -5.6473e+001 -1.7681e+002 -4.3478e+000 52024 84001,84105,84079
 2.1000e+000 84177 -2.8903e+001 -1.7131e+002 -1.0776e+001 52024 83975,84105,84001
 2.1000e+000 84154 -4.8188e+001 -1.7487e+002 -4.3505e+000 52024 84001,84079,84053
 2.1000e+000 84131 -2.6244e+001 -1.1786e+002  2.0658e+001 52024 84001,84053,84027
 2.1000e+000 84399 -3.2699e+001 -1.5518e+002 -7.6356e-001 51470 84422,84275,84249
 2.1000e+000 84376 -3.0214e+001 -1.5748e+002 -4.4362e-001 51470 84422,84249,84223
 2.1000e+000 84353 -3.6026e+001 -1.6727e+002 -1.9373e+001 51470 84275,84327,84301
 2.1000e+000 84448 -3.4679e+001 -1.5636e+002 -1.0895e-001 51470 84327,84275,84422
 2.1000e+000 84471 -3.1708e+001 -1.5815e+002 -4.0288e-002 51470 84327,84422,84223
 2.1000e+000 84753 -5.4824e+001 -1.5788e+002 -2.4751e+000 51073 84603,84655,84629
 2.1000e+000 84730 -1.1229e+002 -1.7843e+002 -3.8262e+000 51073 84776,84655,84603
 2.1000e+000 84707 -3.0297e+001 -1.4449e+002 -3.5874e+001 51073 84577,84681,84655
 2.1000e+000 84802 -6.6991e+001 -1.5304e+002 -1.7705e+001 51073 84577,84655,84776
 2.1000e+000 85178 -8.8504e+001 -1.9162e+002  1.9154e+001 50519 85201,85008,84982
 2.1000e+000 85155 -8.3568e+001 -1.7797e+002  1.5700e+001 50519 85273,85201,84982
 2.1000e+000 85132 -7.8043e+001 -1.7776e+002  1.2207e+001 50519 85273,84982,84930
 2.1000e+000 85109 -7.5292e+001 -1.7404e+002  1.0927e+001 50519 84930,84982,84956
 2.1000e+000 85086 -7.7772e+001 -1.8565e+002  1.3023e+001 50519 85008,85060,85034
 2.1000e+000 85227 -7.4146e+001 -1.8278e+002  1.0509e+001 50519 85060,85008,85201
 2.1000e+000 85250 -8.2470e+001 -1.8712e+002  7.7264e+000 50519 85060,85201,84904
 2.1000e+000 85299 -7.7937e+001 -1.8109e+002  4.9049e+000 50519 84904,85201,85273
 2.1000e+000 85322 -5.7609e+001 -1.5460e+002 -4.1525e+000 50519 84904,85273,84930
 2.1000e+000 85958 -4.0359e+001 -1.5185e+002 -4.0410e+000 50093 85981,85768,85716
 2.1000e+000 85935 -3.5314e+001 -1.3906e+002 -4.5883e+000 50093 85981,85716,85612
 2.1000e+000 85912 -4.6135e+001 -1.3469e+002  3.3088e-001 50093 85612,85716,85664
 2.1000e+000 85889 -2.8600e+001 -1.4882e+002 -7.8507e-001 50093 85716,85768,85742
 2.1000e+000 85866 -4.7976e+001 -1.1512e+002 -2.3181e+001 50093 85664,85716,85690
 2.1000e+000 85843  2.4323e+001 -9.8470e+001 -1.1287e+001 50093 85586,85794,85612
 2.1000e+000 85820 -3.0132e+001 -1.9455e+002  1.2740e+001 50093 85612,85664,85638
 2.1000e+000 86007 -5.0179e+001 -1.6245e+002 -2.2029e+001 50093 85794,85768,85981
 2.1000e+000 86030 -3.4744e+001 -1.2578e+002 -1.8082e+001 50093 85794,85981,85612
 2.1000e+000 86131 -3.5790e+001 -1.7218e+002  2.3829e+001 49895 86053,86105,86079
 2.1000e+000 86639 -2.0561e+001 -1.0834e+002 -1.2804e+001 49391 86662,86394,86368
 2.1000e+000 86616 -2.4075e+001 -1.2688e+002 -8.6008e+000 49391 86662,86368,86342
 2.1000e+000 86593 -2.6914e+000 -1.1781e+002  8.4438e+000 49391 86342,86498,86472
 2.1000e+000 86570  2.4705e+001 -1.3468e+002  9.8114e+000 49391 86316,86498,86342
 2.1000e+000 86547 -5.8527e+001 -1.9270e+002 -1.0368e+000 49391 86394,86472,86446
 2.1000e+000 86524  1.3244e+001 -1.8890e+002  7.7385e+000 49391 86394,86446,86420
 2.1000e+000 86688 -2.9908e+001 -1.2538e+002 -5.0328e+000 49391 86472,86394,86662
 2.1000e+000 86711 -2.2156e+001 -1.3285e+002 -3.3841e+000 49391 86472,86662,86342
 2.1000e+000 87089 -5.2628e+001 -1.5650e+002  4.9121e+000 48987 86815,86919,86867
 2.1000e+000 87066 -5.4859e+001 -1.5997e+002  6.5472e+000 48987 86815,86971,86919
 2.1000e+000 87043 -2.3125e+001 -1.7307e+002 -1.3655e+001 48987 86867,86919,86893
 2.1000e+000 87020 -5.8931e+001 -1.7529e+002  1.8456e+001 48987 86815,86867,86841
 2.1000e+000 86997 -6.5259e+001 -1.4341e+002  2.3831e+001 48987 86919,86971,86945
 2.1000e+000 87467 -1.0252e+002 -1.5300e+002  8.1781e+000 48540 87490,87245,87219
 2.1000e+000 87444 -7.7360e+001 -1.4509e+002  2.3738e+000 48540 87562,87490,87219
 2.1000e+000 87421 -5.5990e+001 -1.3639e+002  8.1180e+000 48540 87562,87219,87349
 2.1000e+000 87398 -8.2826e+001 -1.2319e+002 -1.8619e+000 48540 87245,87297,87271
 2.1000e+000 87375 -4.4058e+001 -1.4827e+002  4.8902e+000 48540 87193,87349,87219
 2.1000e+000 87516 -7.3987e+001 -1.4420e+002  6.0531e+000 48540 87297,87245,87490
 2.1000e+000 87539 -7.8957e+001 -1.4948e+002  1.0268e+001 48540 87297,87490,87323
 2.1000e+000 87588 -5.6928e+001 -1.3718e+002  1.6574e+001 48540 87323,87490,87562
 2.1000e+000 87611 -4.6390e+001 -1.3891e+002  2.0316e+001 48540 87323,87562,87349
 2.1000e+000 87810 -4.5619e+001 -2.7990e+002 -3.3874e+001 48136 87660,87712,87686
 2.1000e+000 87787 -1.7833e+001 -1.6338e+002 -1.4939e+001 48136 87660,87738,87712
 2.1000e+000 87764 -9.8971e+001 -1.7441e+002 -3.6837e+001 48136 87634,87738,87660
 2.1000e+000 88205 -6.1228e+001 -1.6755e+002 -1.4215e+001 47210 88300,88228,87937
 2.1000e+000 88182 -5.4143e+001 -1.6740e+002 -3.8814e+000 47210 88228,87833,88041
 2.1000e+000 88159 -6.1760e+001 -1.7816e+002 -2.2772e+001 47210 88300,87937,87911
 2.1000e+000 88136 -5.9493e+001 -1.6897e+002 -1.9461e+001 47210 87833,87911,87859
 2.1000e+000 88113 -1.0189e+002 -1.3812e+002 -1.2640e+001 47210 87937,87989,87963
 2.1000e+000 88090 -6.0201e+001 -1.3965e+002  3.2854e+001 47210 87989,88041,88015
 2.1000e+000 88067 -6.5862e+001 -1.8548e+002 -2.4835e+001 47210 87859,87911,87885
 2.1000e+000 88254 -5.5143e+001 -1.3260e+002 -1.7035e+001 47210 87989,87937,88228
 2.1000e+000 88277 -7.2649e+001 -1.5976e+002 -5.1559e+000 47210 87989,88228,88041
 2.1000e+000 88326 -4.9153e+001 -1.5683e+002 -6.0115e+000 47210 87833,88228,88300
 2.1000e+000 88349 -5.1860e+001 -1.6430e+002 -1.5095e+001 47210 87833,88300,87911
 2.1000e+000 88780 -1.1203e+002 -1.9903e+002 -3.4853e+001 46642 88803,88509,88483
 2.1000e+000 88757 -8.4126e+001 -1.7984e+002 -1.4882e+001 46642 88803,88483,88639
 2.1000e+000 88734 -9.1257e+001 -1.4543e+002 -2.1683e+001 46642 88875,88561,88509
 2.1000e+000 88711 -8.9104e+001 -1.3411e+002 -4.0709e+000 46642 88509,88561,88535
 2.1000e+000 88688 -3.7718e+001 -2.0002e+002  1.6538e+001 46642 88457,88639,88483
 2.1000e+000 88665 -1.0412e+002 -2.2970e+002 -9.2521e+000 46642 88561,88613,88587
 2.1000e+000 88829 -8.9793e+001 -1.5927e+002 -2.4323e+001 46642 88875,88509,88803
 2.1000e+000 88852 -8.9538e+001 -1.8795e+002 -1.2207e+001 46642 88613,88803,88639
 2.1000e+000 88901 -7.7683e+001 -1.6413e+002 -1.0525e+001 46642 88613,88561,88875
 2.1000e+000 88924 -8.2994e+001 -1.8673e+002 -1.2359e+001 46642 88613,88875,88803
 2.1000e+000 89253 -3.4268e+001 -1.7162e+002 -1.0281e+000 46444 89080,89158,89132
 2.1000e+000 89230 -3.5209e+001 -1.7276e+002 -3.5068e+000 46444 89028,89158,89080
 2.1000e+000 89207 -1.6412e+001 -1.6037e+002 -9.2015e+000 46444 89028,89080,89054
 2.1000e+000 89184 -1.7022e+001 -1.8144e+002 -1.4809e+001 46444 89080,89132,89106
 2.1000e+000 89631 -2.3753e+001 -1.0205e+002  4.4824e+000 46040 89383,89461,89435
 2.1000e+000 89608 -2.8030e+001 -1.1654e+002 -3.4459e+000 46040 89383,89487,89461
 2.1000e+000 89585 -2.9191e+001 -1.3266e+002 -2.1700e+000 46040 89383,89435,89409
 2.1000e+000 89562 -2.5823e+001 -1.0326e+002 -9.0143e+000 46040 89383,89513,89487
 2.1000e+000 89539  1.3998e+001 -7.8620e+001 -3.2083e+001 46040 89357,89513,89383
 2.1000e+000 90009 -3.6179e+001 -1.3690e+002  5.4322e-001 45636 89813,89891,89839
 2.1000e+000 89986 -3.8205e+001 -1.2849e+002  9.1378e+000 45636 89787,89891,89813
 2.1000e+000 89963 -3.2829e+001 -1.2776e+002 -2.4461e+000 45636 89839,89891,89865
 2.1000e+000 89940 -4.8026e+001 -1.4285e+002  4.8646e+000 45636 89735,89891,89787
 2.1000e+000 89917 -3.8856e+001 -1.4423e+002 -3.2658e+000 45636 89735,89787,89761
 2.1000e+000 90208 -2.8340e+001 -1.0939e+002 -2.3912e+001 45175 90231,90058,90032
 2.1000e+000 90185 -1.3042e+001 -9.8277e+001 -3.6580e+001 45175 90231,90032,90136
 2.1000e+000 90162 -3.7241e+001 -8.5169e+001 -7.3984e-001 45175 90058,90110,90084
 2.1000e+000 90257 -4.5245e+001 -1.2519e+002 -4.7211e+000 45175 90110,90058,90231
 2.1000e+000 90280 -1.6093e+001 -1.0581e+002 -1.8869e+001 45175 90110,90231,90136
 2.1000e+000 90528 -2.8678e+001 -1.0477e+002 -1.1290e+001 44513 90695,90551,90407
 2.1000e+000 90505 -3.5606e+001 -1.0110e+002 -5.0753e+000 44513 90551,90355,90329
 2.1000e+000 90482 -3.9512e+001 -9.2039e+001 -7.6120e+000 44513 90623,90303,90433
 2.1000e+000 90459 -1.7994e+001 -9.8651e+001 -8.8209e+000 44513 90695,90407,90381
 2.1000e+000 90577 -4.5294e+001 -1.1059e+002 -1.9120e+001 44513 90433,90407,90551
 2.1000e+000 90600 -3.8030e+001 -9.9910e+001 -8.0240e+000 44513 90623,90433,90551
 2.1000e+000 90649 -4.3600e+001 -1.0087e+002 -6.2089e+000 44513 90329,90303,90623
 2.1000e+000 90672 -4.0533e+001 -1.0387e+002 -6.8604e+000 44513 90329,90623,90551
 2.1000e+000 90721 -3.9680e+001 -9.7616e+001 -1.2190e+001 44513 90355,90551,90695
 2.1000e+000 90744 -3.5568e+001 -9.6058e+001 -1.1473e+001 44513 90355,90695,90381
 2.1000e+000 91077  1.1614e+001 -9.3849e+001  1.9719e+001 44059 91100,90930,90904
 2.1000e+000 91054 -4.8718e+001 -1.2546e+002  7.0205e+000 44059 91100,90904,90982
 2.1000e+000 91031 -6.4896e+001 -1.2657e+002 -8.2402e-001 44059 90878,90982,90904
 2.1000e+000 91008 -1.8480e+001 -1.0596e+002  4.7672e+000 44059 90852,90982,90878
 2.1000e+000 91126 -8.8117e+001 -1.2520e+002  5.6914e+000 44059 91172,91100,90956
 2.1000e+000 91149 -4.5273e+001 -1.1866e+002  1.8357e+000 44059 90956,91100,90982
 2.1000e+000 91198 -1.3804e+001 -9.4133e+001 -1.6956e+001 44059 90930,91100,91172
 2.1000e+000 91677 -6.0056e+001 -1.0192e+002  1.1284e+001 43549 91455,91533,91481
 2.1000e+000 91654 -1.6842e+001 -9.8906e+001  1.6752e+001 43549 91429,91533,91455
 2.1000e+000 91631 -5.6697e+001 -9.8093e+001  7.1788e+000 43549 91481,91533,91507
 2.1000e+000 91608 -5.0109e+000 -9.4018e+001  1.0992e+001 43549 91429,91559,91533
 2.1000e+000 91585  2.4096e+001 -3.4268e+001  2.0297e+001 43549 91403,91559,91429
 2.1000e+000 92006 -4.8947e+001 -1.4476e+002  6.7925e+000 43059 91781,91885,91807
 2.1000e+000 91983 -4.9852e+001 -1.3242e+002  2.9510e+001 43059 91781,91911,91885
 2.1000e+000 91960 -4.2550e+001 -1.4055e+002  4.9717e+000 43059 91807,91885,91833
 2.1000e+000 91937 -1.7887e+001 -1.3115e+002  1.3860e+000 43059 91833,91885,91859
 2.1000e+000 92561 -5.1088e+001 -1.0767e+002 -1.1817e+001 42598 92584,92215,92189
 2.1000e+000 92538 -5.3969e+001 -1.2291e+002 -1.2292e+001 42598 92656,92584,92189
 2.1000e+000 92515 -4.6624e+001 -1.3990e+002 -3.6508e+000 42598 92656,92189,92397
 2.1000e+000 92492 -5.9537e+001 -9.3019e+001 -1.3418e+001 42598 92241,92319,92293
 2.1000e+000 92469 -5.5698e+001 -1.1711e+002  6.9643e+000 42598 92319,92397,92371
 2.1000e+000 92446 -2.5193e+001 -1.4425e+002  5.2979e+001 42598 92319,92371,92345
 2.1000e+000 92423 -6.2603e+001 -9.9197e+001 -2.2425e+001 42598 92241,92293,92267
 2.1000e+000 92610 -5.1616e+001 -1.0708e+002 -1.0558e+001 42598 92241,92215,92584
 2.1000e+000 92633 -4.7876e+001 -9.8885e+001 -1.4614e+001 42598 92241,92584,92319
 2.1000e+000 92682 -4.7023e+001 -9.9758e+001 -8.1773e+000 42598 92319,92584,92656
 2.1000e+000 92705 -3.6473e+001 -1.1182e+002 -1.6003e+000 42598 92319,92656,92397
 2.1000e+000 92953 -4.9224e+001 -1.5660e+002  1.3558e+001 42094 92976,92806,92780
 2.1000e+000 92930 -5.6318e+001 -1.4539e+002  4.1521e+000 42094 92976,92780,92754
 2.1000e+000 92907  5.2086e+000 -1.5314e+002  2.2809e+000 42094 93048,92832,92806
 2.1000e+000 92884 -7.8719e+001 -1.3788e+002 -9.4664e+000 42094 92728,92858,92754
 2.1000e+000 93002 -2.4102e+001 -1.4248e+002  7.9415e+000 42094 93048,92806,92976
 2.1000e+000 93025 -5.0601e+001 -1.4150e+002 -1.4657e+000 42094 92858,92976,92754
 2.1000e+000 93074 -3.4748e+001 -1.6974e+002 -6.7395e-001 42094 92858,92832,93048
 2.1000e+000 93097 -5.9488e+001 -1.5714e+002  2.8472e+000 42094 92858,93048,92976
 2.1000e+000 93605 -5.8182e+001 -1.7845e+002 -3.8850e+000 41846 93628,93412,93386
 2.1000e+000 93582 -4.8943e+001 -1.3826e+002 -8.6230e-001 41846 93628,93386,93308
 2.1000e+000 93559 -6.5110e+001 -1.3864e+002 -1.7547e+001 41846 93700,93464,93438
 2.1000e+000 93536 -7.2526e+001 -1.7352e+002  1.0657e+001 41846 93308,93386,93334
 2.1000e+000 93513 -7.2136e+001 -1.7024e+002  9.1386e+000 41846 93334,93386,93360
 2.1000e+000 93490 -6.3418e+001 -1.1291e+002 -1.3324e+001 41846 93282,93464,93308
 2.1000e+000 93654 -4.7562e+001 -1.4469e+002 -1.1111e+001 41846 93438,93412,93628
 2.1000e+000 93677 -6.5594e+001 -1.4041e+002 -8.9794e+000 41846 93700,93438,93628
 2.1000e+000 93726 -6.1203e+001 -1.2815e+002 -1.6560e+001 41846 93308,93464,93700
 2.1000e+000 93749 -6.0217e+001 -1.2655e+002 -8.0950e+000 41846 93308,93700,93628
 2.1000e+000 94255 -3.6746e+001 -1.4513e+002  1.2665e+001 41385 93958,94114,94088
 2.1000e+000 94232 -2.8765e+001 -1.5688e+002  6.8907e+000 41385 93932,94114,93958
 2.1000e+000 94209 -7.4598e+001 -1.7085e+002  3.3617e+001 41385 93958,94088,94062
 2.1000e+000 94186 -8.4649e+001 -1.1721e+002  2.6800e+001 41385 93958,94062,93984
 2.1000e+000 94163 -6.5737e+001 -1.1480e+002  2.2162e+001 41385 93984,94062,94036
 2.1000e+000 94140 -4.5433e+001 -1.5571e+002  3.0194e+001 41385 93984,94036,94010
 2.1000e+000 94476  6.3999e+000 -2.0778e+002  1.8822e+001 40881 94326,94378,94352
 2.1000e+000 94453 -2.4385e+001 -1.6740e+002  1.7832e+001 40881 94300,94378,94326
 2.1000e+000 94430 -3.0259e+001 -1.4976e+002  2.5683e+000 40881 94300,94404,94378
 2.1000e+000 94626 -4.4321e+001 -1.1015e+002  5.0225e+000 40591 94649,94551,94525
 2.1000e+000 94603 -8.8472e+000 -8.4921e+001  2.0817e+000 40591 94781,94577,94551
 2.1000e+000 94675 -2.8792e+000 -8.9160e+001 -6.2843e+000 40591 94781,94551,94649
 2.1000e+000 94807  5.1016e+000 -7.8368e+001  4.1174e+000 40591 94499,94577,94781
 2.1000e+000 94830  1.0173e+001 -8.3435e+001 -5.4528e+000 40591 94499,94781,94649
 2.1000e+000 95336 -9.1207e+001 -1.3292e+002 -1.9168e+001 40187 95013,95169,95039
 2.1000e+000 95313 -4.6702e+001 -1.2163e+002 -1.0668e+001 40187 95013,95195,95169
 2.1000e+000 95290 -3.5558e+001 -1.3626e+002  4.6593e+000 40187 95039,95143,95065
 2.1000e+000 95267 -9.8922e+001 -1.5788e+002 -2.6547e+001 40187 95039,95169,95143
 2.1000e+000 95244 -7.1115e+001 -1.8588e+002 -1.2772e+001 40187 95091,95143,95117
 2.1000e+000 95221 -3.0978e+001 -1.2731e+002  7.1081e+000 40187 95065,95143,95091
 2.1000e+000 95665 -5.1592e+001 -1.2147e+002  2.0744e+001 39626 95466,95570,95544
 2.1000e+000 95642 -6.2500e+001 -1.0615e+002  1.5041e+001 39626 95440,95570,95466
 2.1000e+000 95619 -4.5038e+001 -1.2197e+002  7.3187e+000 39626 95466,95544,95492
 2.1000e+000 95596 -8.0640e+001 -1.1693e+002  7.0667e+000 39626 95492,95544,95518
 2.1000e+000 95913 -5.1126e+001 -1.2137e+002 -1.6821e+001 39136 96080,95936,95766
 2.1000e+000 95890 -3.5626e+001 -1.3348e+002 -8.7478e+000 39136 95936,95714,95688
 2.1000e+000 95867 -9.4876e+001 -1.3236e+002  8.4804e+000 39136 96008,95792,95766
 2.1000e+000 95844 -4.1379e+001 -1.1760e+002 -1.4393e+001 39136 96080,95766,95740
 2.1000e+000 95962 -7.3456e+001 -1.3782e+002 -9.4976e+000 39136 96008,95766,95936
 2.1000e+000 95985 -4.5530e+001 -1.6415e+002 -4.6767e-001 39136 95818,95936,95688
 2.1000e+000 96034 -4.2806e+001 -1.0966e+002  1.2222e+001 39136 95818,95792,96008
 2.1000e+000 96057 -3.7209e+001 -1.2119e+002 -5.5474e+000 39136 95818,96008,95936
 2.1000e+000 96106 -4.7300e+001 -1.2354e+002 -2.7026e+000 39136 95714,95936,96080
 2.1000e+000 96129 -3.0994e+001 -1.1783e+002 -1.3581e+000 39136 95714,96080,95740
 2.1000e+000 96350 -3.2852e+001 -1.1042e+002 -2.6464e+000 38824 96200,96278,96252
 2.1000e+000 96327 -3.5873e+001 -1.1134e+002 -2.5409e+000 38824 96174,96278,96200
 2.1000e+000 96304 -3.1288e+001 -1.1125e+002 -3.1084e+000 38824 96200,96252,96226
 2.1000e+000 96830 -6.9439e+001 -1.2256e+002 -1.0793e+001 38320 97069,96536,96484
 2.1000e+000 96807 -6.7969e+001 -1.2455e+002 -1.0701e+001 38320 97069,96484,96853
 2.1000e+000 96784 -7.4568e+001 -1.3506e+002  3.5049e+000 38320 96853,96484,96458
 2.1000e+000 96761 -4.0389e+001 -1.0346e+002 -1.1445e+001 38320 96925,96640,96614
 2.1000e+000 96738 -6.3518e+001 -1.0710e+002 -3.1122e+000 38320 96997,96666,96640
 2.1000e+000 96715 -5.4759e+001 -1.4403e+002 -3.9430e+000 38320 97141,96588,96562
 2.1000e+000 96692 -8.7856e+001 -1.4199e+002 -2.6123e+000 38320 96484,96536,96510
 2.1000e+000 96879 -6.6674e+001 -1.3061e+002 -5.5840e+000 38320 97141,96562,96853
 2.1000e+000 96902 -6.0730e+001 -1.2682e+002 -2.6831e+000 38320 96925,96614,96853
 2.1000e+000 96951 -6.2423e+001 -1.0606e+002 -3.9179e+000 38320 96997,96640,96925
 2.1000e+000 96974 -5.9146e+001 -1.0535e+002 -2.0183e+000 38320 96458,96925,96853
 2.1000e+000 97023 -6.8649e+001 -1.0865e+002 -4.3032e-001 38320 96458,96666,96997
 2.1000e+000 97046 -6.4728e+001 -1.0651e+002 -1.3500e+000 38320 96458,96997,96925
 2.1000e+000 97095 -7.2802e+001 -1.1881e+002 -1.5383e+000 38320 96562,96536,97069
 2.1000e+000 97118 -6.4400e+001 -1.2332e+002 -9.2088e+000 38320 96562,97069,96853
 2.1000e+000 97167 -3.3780e+001 -1.3175e+002 -9.6129e+000 38320 96614,96588,97141
 2.1000e+000 97190 -5.3481e+001 -1.2395e+002 -9.6614e+000 38320 96614,97141,96853
 2.1000e+000 97519 -5.0994e+001 -1.3341e+002  3.1150e+001 37766 97542,97398,97372
 2.1000e+000 97496 -6.8331e+001 -1.1794e+002  1.6642e+001 37766 97542,97372,97346
 2.1000e+000 97473 -6.1680e+001 -1.2794e+002  2.1091e+000 37766 97294,97424,97346
 2.1000e+000 97450 -6.9982e+001 -1.5342e+002 -1.3216e+000 37766 97294,97346,97320
 2.1000e+000 97568 -2.2449e+001 -1.2747e+002  2.2806e+001 37766 97424,97398,97542
 2.1000e+000 97591 -4.7818e+001 -1.1263e+002  8.7713e+000 37766 97424,97542,97346
 2.1000e+000 98048 -5.7541e+001 -9.5145e+001 -3.1030e+001 37262 98071,97878,97852
 2.1000e+000 98025 -4.6730e+001 -1.1267e+002 -1.2147e+001 37262 98071,97852,97800
 2.1000e+000 98002 -5.8877e+001 -1.3704e+002 -8.0741e+000 37262 97800,97852,97826
 2.1000e+000 97979 -5.9707e+001 -1.1904e+002  4.1121e+000 37262 97800,97930,97904
 2.1000e+000 97956 -4.1636e+001 -1.3959e+002  9.6204e+000 37262 97774,97930,97800
 2.1000e+000 98097 -8.8225e+001 -1.0939e+002 -2.4830e+001 37262 97904,97878,98071
 2.1000e+000 98120 -6.2601e+001 -1.2475e+002 -6.7164e+000 37262 97904,98071,97800
 2.1000e+000 98449 -1.4299e+001 -7.4559e+001 -1.2765e+001 36950 98472,98302,98250
 2.1000e+000 98426  8.6618e-001 -7.0158e+001 -1.5465e+001 36950 98472,98250,98354
 2.1000e+000 98403 -3.7632e+001 -8.8420e+001  1.5366e+001 36950 98250,98302,98276
 2.1000e+000 98380 -1.7978e+000 -4.9146e+001  1.3812e+001 36950 98224,98354,98250
 2.1000e+000 98498 -3.0566e+000 -8.6392e+001 -3.8739e+000 36950 98328,98302,98472
 2.1000e+000 98521  1.4563e+001 -7.9796e+001 -9.1141e+000 36950 98328,98472,98354
 2.1000e+000 99125 -8.4621e+001 -8.3892e+001  1.0494e+001 36296 98704,98756,98730
 2.1000e+000 99102 -5.9409e+001 -9.1267e+001  1.2895e+000 36296 98704,98938,98756
 2.1000e+000 99079 -4.3132e+001 -9.8992e+001 -2.9026e+000 36296 99148,98938,98912
 2.1000e+000 99056 -4.8580e+001 -9.8441e+001  1.8471e+001 36296 99292,99220,98782
 2.1000e+000 99033 -3.8037e+001 -1.0624e+002  6.0278e-001 36296 99148,98912,98834
 2.1000e+000 99010 -4.3423e+001 -8.3650e+001  1.8343e+001 36296 99292,98782,98756
 2.1000e+000 98987 -3.6616e+001 -1.8700e+002 -3.6553e+001 36296 98834,98912,98886
 2.1000e+000 98964 -6.6445e+001 -2.7135e+002 -4.7304e+001 36296 98834,98886,98860
 2.1000e+000 99174 -5.1306e+001 -1.1415e+002  1.1493e+000 36296 99220,98938,99148
 2.1000e+000 99197 -3.7103e+001 -1.2634e+002  1.0373e+001 36296 98808,99148,98834
 2.1000e+000 99246 -4.2834e+001 -8.4875e+001  4.8317e+001 36296 98808,98782,99220
 2.1000e+000 99269 -1.8112e+001 -8.4404e+001  1.4554e+001 36296 98808,99220,99148
 2.1000e+000 99318 -4.5286e+001 -8.1639e+001  7.8795e+000 36296 98938,99220,99292
 2.1000e+000 99341 -4.6535e+001 -8.4374e+001  8.5668e+000 36296 98938,99292,98756
 2.1000e+000 99719 -5.6815e+001 -1.4240e+002  5.5508e+000 35742 99742,99471,99601
 2.1000e+000 99696 -5.9327e+001 -1.0705e+002  2.1444e+001 35742 99445,99601,99471
 2.1000e+000 99673 -5.2612e+001 -1.3284e+002 -5.1467e+000 35742 99742,99601,99575
 2.1000e+000 99650 -3.9568e+001 -1.6991e+002 -3.3736e+000 35742 99814,99549,99523
 2.1000e+000 99627 -3.6990e+001 -1.3044e+002  7.5455e+000 35742 99471,99523,99497
 2.1000e+000 99768 -3.7288e+001 -1.3676e+002  7.9417e+000 35742 99523,99471,99742
 2.1000e+000 99791 -4.9911e+001 -1.5425e+002 -2.7806e+000 35742 99814,99523,99742
 2.1000e+000 99840 -3.6270e+001 -1.5108e+002 -9.3713e+000 35742 99575,99549,99814
 2.1000e+000 99863 -4.3505e+001 -1.3095e+002 -8.4269e+000 35742 99575,99814,99742
 2.1000e+000 100111 -3.9584e+001 -1.1077e+002  1.3526e+001 35302 100134,99990,99938
 2.1000e+000 100088 -2.9813e+001 -9.7192e+001  8.0530e+000 35302 100134,99938,99912
 2.1000e+000 100065 -3.1747e+001 -9.7645e+001  5.5004e-001 35302 100206,99886,100016
 2.1000e+000 100042 -5.2287e+001 -1.0409e+002  1.1039e+001 35302 99938,99990,99964
 2.1000e+000 100160 -2.6184e+001 -1.0567e+002  6.0651e+000 35302 100016,99990,100134
 2.1000e+000 100183 -2.6859e+001 -1.0035e+002  9.5609e-001 35302 100206,100016,100134
 2.1000e+000 100232 -3.8094e+001 -1.0084e+002  1.6559e+000 35302 99912,99886,100206
 2.1000e+000 100255 -3.2755e+001 -1.0353e+002  2.2486e+000 35302 99912,100206,100134
 2.1000e+000 100586 -3.4346e+001 -7.5180e+001 -2.4300e-001 35012 100609,100387,100361
 2.1000e+000 100563 -3.4644e+001 -8.1056e+001  2.7609e+000 35012 100609,100361,100465
 2.1000e+000 100540 -5.5059e+001 -1.0145e+002  1.1868e+001 35012 100361,100491,100465
 2.1000e+000 100517 -2.9945e+001 -8.0512e+001  1.0836e+001 35012 100413,100465,100439
 2.1000e+000 100635 -3.5800e+001 -7.6096e+001  5.9825e+000 35012 100413,100387,100609
 2.1000e+000 100658 -3.7420e+001 -8.5130e+001  8.8403e+000 35012 100413,100609,100465
 2.1000e+000 100987 -4.9223e+001 -1.0282e+002  7.2171e+000 34700 100788,100866,100814
 2.1000e+000 100964 -3.9842e+001 -9.6471e+001  1.0286e+001 34700 101010,100866,100788
 2.1000e+000 100941 -4.1749e+001 -1.0202e+002  2.0160e+001 34700 100762,100892,100866
 2.1000e+000 100918 -5.4813e+001 -1.1270e+002 -2.4777e+000 34700 100814,100866,100840
 2.1000e+000 101036 -3.3104e+001 -9.1700e+001  1.4315e+001 34700 100762,100866,101010
 2.1000e+000 101493 -6.5408e+001 -1.2866e+002 -7.6144e+000 34132 101516,101349,101297
 2.1000e+000 101470 -8.3213e+001 -1.6049e+002 -1.6508e+001 34132 101588,101516,101297
 2.1000e+000 101447 -8.2777e+001 -1.6883e+002 -2.7530e+001 34132 101588,101297,101245
 2.1000e+000 101424 -4.9891e+001 -1.9721e+002 -2.5902e+001 34132 101245,101297,101271
 2.1000e+000 101401 -7.4406e+001 -1.2836e+002 -1.2153e+001 34132 101297,101349,101323
 2.1000e+000 101542 -6.4815e+001 -1.5397e+002 -5.9808e+000 34132 101375,101349,101516
 2.1000e+000 101565 -6.0314e+001 -1.5677e+002 -8.1494e+000 34132 101375,101516,101219
 2.1000e+000 101614 -6.2496e+001 -1.6016e+002 -7.1970e+000 34132 101219,101516,101588
 2.1000e+000 101637 -7.2634e+001 -1.6911e+002 -1.7565e+001 34132 101219,101588,101245
 2.1000e+000 101858 -1.0194e+001 -1.2290e+002  8.9144e+000 33720 101708,101786,101760
 2.1000e+000 101835 -2.8595e+001 -1.4591e+002  5.2804e-001 33720 101682,101786,101708
 2.1000e+000 101812 -3.7242e+001 -1.3574e+002  4.9000e+000 33720 101708,101760,101734
 2.1000e+000 102128  1.7874e+000 -1.3768e+002 -5.1125e+000 33130 101903,102007,101929
 2.1000e+000 102105 -1.7002e+000 -1.6418e+002  5.8529e+000 33130 101903,102033,102007
 2.1000e+000 102082  1.1582e+001 -1.6863e+002 -3.7886e+001 33130 101929,102007,101955
 2.1000e+000 102059 -8.9242e+000 -1.1204e+002  3.0890e+000 33130 101955,102007,101981
 2.1000e+000 102461 -5.1941e+001 -1.3508e+002 -1.1100e+001 32840 102236,102340,102262
 2.1000e+000 102438 -4.3105e+001 -9.5079e+001  3.1529e+000 32840 102236,102366,102340
 2.1000e+000 102415 -2.7432e+001 -1.2707e+002 -1.0762e+001 32840 102262,102340,102288
 2.1000e+000 102392 -6.8974e+001 -1.3773e+002 -2.9250e+001 32840 102288,102340,102314
 2.1000e+000 102997 -4.6194e+001 -7.8183e+001  2.1760e+001 32493 102749,102879,102853
 2.1000e+000 102974 -3.7259e+001 -6.1201e+001  1.4401e+001 32493 102723,102879,102749
 2.1000e+000 102951 -5.5240e+001 -9.8320e+001  1.5006e+001 32493 102749,102801,102775
 2.1000e+000 102928 -5.7897e+001 -9.5575e+001  1.3377e+001 32493 102749,102853,102801
 2.1000e+000 102905 -5.5798e+001 -9.1483e+001  1.2424e+001 32493 102801,102853,102827
 2.1000e+000 103454 -6.0807e+001 -1.1410e+002 -5.7956e+000 32089 103206,103336,103310
 2.1000e+000 103431 -5.1258e+001 -1.1183e+002  5.2570e-001 32089 103180,103336,103206
 2.1000e+000 103408 -6.5275e+001 -1.3100e+002 -1.8137e+001 32089 103206,103284,103258
 2.1000e+000 103385 -8.9254e+001 -1.3516e+002 -2.1046e+001 32089 103206,103310,103284
 2.1000e+000 103362 -5.6852e+001 -1.0207e+002  6.1013e+000 32089 103206,103258,103232
 2.1000e+000 103783 -9.1857e+001 -1.3855e+002 -1.3070e+001 31742 103558,103662,103584
 2.1000e+000 103760 -8.1344e+001 -1.2386e+002 -2.6400e+001 31742 103558,103688,103662
 2.1000e+000 103737 -6.3807e+001 -1.1580e+002 -2.4380e+001 31742 103584,103662,103636
 2.1000e+000 103714 -3.5577e+001 -1.3220e+002 -4.0293e+001 31742 103584,103636,103610
 2.1000e+000 104112 -7.3627e+000 -1.1414e+002  2.5992e+001 31402 103939,103991,103965
 2.1000e+000 104089 -3.2897e+001 -1.0172e+002  1.1588e+001 31402 103913,103991,103939
 2.1000e+000 104066 -4.6876e+001 -1.1482e+002  4.6294e+000 31402 103913,104017,103991
 2.1000e+000 104043 -5.4013e+001 -9.8982e+001 -1.4536e+000 31402 103887,104017,103913
 2.1000e+000 104569 -8.7615e+001 -1.6526e+002  6.4596e-001 30998 104321,104425,104373
 2.1000e+000 104546 -9.7780e+001 -1.6827e+002 -9.3293e-001 30998 104321,104451,104425
 2.1000e+000 104523 -7.9799e+001 -1.4433e+002  1.3088e+001 30998 104373,104425,104399
 2.1000e+000 104500 -8.7881e+001 -1.7781e+002 -5.6504e+000 30998 104295,104451,104321
 2.1000e+000 104477 -1.2382e+002 -2.0738e+002  3.1395e+001 30998 104321,104373,104347
 2.1000e+000 104947 -8.1420e+001 -1.3222e+002 -1.8174e+001 30608 104751,104803,104777
 2.1000e+000 104924 -5.2662e+001 -1.3573e+002 -7.4964e+000 30608 104725,104803,104751
 2.1000e+000 104901 -7.6040e+001 -1.3070e+002  5.7509e+000 30608 104699,104803,104725
 2.1000e+000 104878 -7.6271e+001 -1.3180e+002  7.1926e+000 30608 104673,104803,104699
 2.1000e+000 104855 -5.9659e+001 -1.2710e+002 -6.6560e+000 30608 104673,104829,104803
 2.1000e+000 105276 -4.5945e+001 -1.1657e+002  1.1129e+001 30204 105427,105129,105077
 2.1000e+000 105253 -2.1833e+001 -1.1942e+002  3.6940e+001 30204 105427,105077,105051
 2.1000e+000 105230 -3.6357e+001 -1.2275e+002  6.7460e+000 30204 105077,105129,105103
 2.1000e+000 105207 -8.5836e+001 -1.0635e+002  1.1865e+001 30204 105299,105181,105155
 2.1000e+000 105325 -6.7614e+001 -9.7731e+001  8.6111e+000 30204 105129,105181,105299
 2.1000e+000 105453 -6.0179e+001 -1.2340e+002  1.4049e+001 30204 105181,105129,105427
 2.1000e+000 105476 -6.7451e+001 -1.4020e+002  4.2350e+001 30204 105181,105427,105051
 2.1000e+000 105903 -1.5987e+001 -9.4343e+001 -8.7398e+000 29700 105606,105762,105736
 2.1000e+000 105880 -3.5673e+001 -9.8917e+001  3.2774e+000 29700 105580,105762,105606
 2.1000e+000 105857 -4.1198e+001 -1.2350e+002 -4.3207e+000 29700 105606,105710,105632
 2.1000e+000 105834 -3.2254e+001 -9.6620e+001 -3.2146e+000 29700 105606,105736,105710
 2.1000e+000 105811 -6.3972e+001 -1.3456e+002  7.5632e+000 29700 105632,105710,105684
 2.1000e+000 105788 -5.3437e+001 -1.1032e+002  1.6982e-001 29700 105632,105684,105658
 2.1000e+000 106102 -2.8530e+001 -1.3512e+002  1.6755e+000 29124 105978,106030,106004
 2.1000e+000 106079 -4.5777e+001 -1.4193e+002 -1.5684e+000 29124 105926,106030,105978
 2.1000e+000 106056 -4.1764e+001 -1.4410e+002  1.4596e+001 29124 105926,105978,105952
 2.1000e+000 106301 -1.9739e+001 -1.1633e+002  1.8687e-001 28712 106151,106229,106203
 2.1000e+000 106278 -2.5517e+001 -1.3249e+002 -8.2200e+000 28712 106125,106229,106151
 2.1000e+000 106255 -1.7982e+001 -1.1121e+002 -4.5694e+000 28712 106151,106203,106177
 2.1000e+000 106551 -3.8910e+001 -1.5772e+002  7.4495e-002 28258 106352,106404,106378
 2.1000e+000 106528 -5.2080e+001 -1.6072e+002 -2.4457e+000 28258 106352,106456,106404
 2.1000e+000 106505 -4.2785e+001 -1.6959e+002 -5.6978e+000 28258 106326,106456,106352
 2.1000e+000 106482 -5.1978e+001 -1.5332e+002  1.9728e+000 28258 106404,106456,106430
 2.1000e+000 107012 -5.7923e+001 -1.3837e+002  2.8564e+001 27818 107035,106790,106764
 2.1000e+000 106989 -4.9662e+001 -1.2708e+002  1.3591e+001 27818 107035,106764,106868
 2.1000e+000 106966 -4.1839e+001 -1.4491e+002  1.4503e+001 27818 107107,106842,106816
 2.1000e+000 106943 -7.7181e+001 -1.2437e+002  1.1877e+001 27818 106738,106868,106764
 2.1000e+000 106920 -8.1455e+001 -1.2155e+002  3.4080e+001 27818 106738,106894,106868
 2.1000e+000 107061 -2.8940e+001 -1.2990e+002  2.9607e+001 27818 106816,106790,107035
 2.1000e+000 107084 -4.4221e+001 -1.3976e+002  1.5234e+001 27818 107107,106816,107035
 2.1000e+000 107133 -4.7404e+001 -1.3608e+002  9.9791e+000 27818 106868,106842,107107
 2.1000e+000 107156 -4.6135e+001 -1.2627e+002  1.2491e+001 27818 106868,107107,107035
 2.1000e+000 107613 -1.4063e+001 -1.0176e+002  1.9515e+001 27312 107339,107469,107365
 2.1000e+000 107590 -4.3191e-001 -9.5624e+001  1.7180e+001 27312 107339,107495,107469
 2.1000e+000 107567 -1.6796e+001 -9.8243e+001  8.2765e+000 27312 107391,107469,107443
 2.1000e+000 107544 -1.3856e+001 -1.0565e+002  7.1816e+000 27312 107365,107469,107391
 2.1000e+000 107521 -4.7943e+001 -1.0899e+002  3.4531e+000 27312 107391,107443,107417
 2.1000e+000 107991 -5.8417e+001 -1.5868e+002  1.4715e+000 26858 108086,108014,107795
 2.1000e+000 107968 -6.2935e+001 -1.6316e+002 -1.7455e+001 26858 108014,107717,107873
 2.1000e+000 107945 -6.8307e+001 -1.6758e+002  8.1937e+000 26858 108158,108086,107795
 2.1000e+000 107922 -5.5293e+001 -1.6678e+002  7.3042e+000 26858 108158,107795,107769
 2.1000e+000 107899 -3.7978e+001 -2.0357e+002  2.7433e+001 26858 107821,107873,107847
 2.1000e+000 108040 -5.9342e+001 -1.8141e+002  6.7067e+000 26858 107821,107795,108014
 2.1000e+000 108063 -2.7581e+001 -1.7359e+002 -4.8746e+000 26858 107821,108014,107873
 2.1000e+000 108112 -8.2835e+001 -1.6791e+002  5.6325e+000 26858 107717,108014,108086
 2.1000e+000 108135 -6.8902e+001 -1.7500e+002  1.7460e+001 26858 107717,108086,107743
 2.1000e+000 108184 -5.3135e+001 -1.6565e+002  1.2800e+001 26858 107743,108086,108158
 2.1000e+000 108207 -4.7388e+001 -1.7007e+002  1.2722e+001 26858 107743,108158,107769
 2.1000e+000 108634 -6.9298e+001 -1.4976e+002  1.9348e+000 26404 108657,108415,108363
 2.1000e+000 108611 -7.8603e+001 -1.6179e+002  1.6847e+001 26404 108657,108363,108337
 2.1000e+000 108588 -6.4036e+001 -1.4067e+002  2.2141e+001 26404 108729,108311,108467
 2.1000e+000 108565 -8.6835e+001 -1.7051e+002 -2.5089e+000 26404 108801,108441,108415
 2.1000e+000 108542 -1.2253e+002 -1.6661e+002  2.6659e+001 26404 108311,108493,108467
 2.1000e+000 108519 -5.4728e+001 -1.5120e+002  1.4337e+000 26404 108363,108415,108389
 2.1000e+000 108683 -1.0027e+002 -1.5778e+002 -5.7854e-001 26404 108801,108415,108657
 2.1000e+000 108706 -9.5779e+001 -1.5111e+002  1.6138e+001 26404 108729,108467,108657
 2.1000e+000 108755 -4.2686e+001 -1.5578e+002  2.2412e+001 26404 108337,108311,108729
 2.1000e+000 108778 -5.9024e+001 -1.5516e+002  1.6293e+001 26404 108337,108729,108657
 2.1000e+000 108827 -1.0093e+002 -1.9396e+002 -9.9304e+000 26404 108467,108441,108801
 2.1000e+000 108850 -1.0921e+002 -1.7313e+002 -7.4740e+000 26404 108467,108801,108657
 2.1000e+000 109228 -4.1194e+001 -1.4856e+002  2.8651e+000 26064 109006,109084,109058
 2.1000e+000 109205 -4.2451e+001 -1.4630e+002  6.7575e+000 26064 108980,109084,109006
 2.1000e+000 109182 -3.9346e+001 -1.3152e+002 -6.5497e+000 26064 108980,109110,109084
 2.1000e+000 109159 -3.6397e+001 -1.6811e+002  1.7790e+001 26064 109006,109058,109032
 2.1000e+000 109136 -8.6547e+000 -1.0154e+002  5.7001e+000 26064 108954,109110,108980
 2.1000e+000 109427 -2.5778e+001 -1.3461e+002 -2.8885e+001 25660 109303,109355,109329
 2.1000e+000 109404 -4.1042e+001 -1.6479e+002 -9.4386e+000 25660 109277,109355,109303
 2.1000e+000 109381 -3.0352e+001 -1.5372e+002 -4.6958e+000 25660 109251,109355,109277
 2.1000e+000 109577  7.3531e+000 -5.2730e+001  4.3896e+001 25306 109476,109528,109502
 2.1000e+000 109554  2.2331e+001 -7.1201e+001  8.5362e+000 25306 109450,109528,109476
 2.1000e+000 109778 -1.9162e+001 -1.3319e+002  3.4614e+000 24944 109628,109706,109654
 2.1000e+000 109755 -2.1622e+001 -1.3621e+002  2.2498e+000 24944 109602,109706,109628
 2.1000e+000 109732 -3.0623e+000 -1.1932e+002 -1.7609e+001 24944 109654,109706,109680
 2.1000e+000 110126 -4.9369e+001 -1.8524e+002  1.1655e+001 24440 110149,109907,109855
 2.1000e+000 110103 -5.4881e+001 -1.9159e+002  1.4726e+001 24440 110149,109855,109985
 2.1000e+000 110080 -3.3899e+001 -1.6493e+002  3.6856e+000 24440 109855,109907,109881
 2.1000e+000 110057 -3.5048e+001 -1.5423e+002  4.4738e+001 24440 109829,109985,109855
 2.1000e+000 110034 -5.0551e+001 -1.8774e+002  8.8014e-001 24440 109907,109959,109933
 2.1000e+000 110011 -7.2605e+001 -1.7722e+002  1.4457e+001 24440 109803,109985,109829
 2.1000e+000 110175 -5.1218e+001 -1.7686e+002  5.1758e+000 24440 109959,109907,110149
 2.1000e+000 110198 -6.0363e+001 -1.8462e+002  9.1462e+000 24440 109959,110149,109985
 2.1000e+000 110301  2.6512e+000 -1.8764e+002 -2.5113e+001 24028 110223,110275,110249
 2.1000e+000 110573  3.8986e+000 -1.2134e+002  3.3088e+001 23467 110400,110452,110426
 2.1000e+000 110550 -3.4096e+001 -1.4677e+002  7.4547e+000 23467 110374,110452,110400
 2.1000e+000 110527 -4.3483e+001 -1.5073e+002  1.0342e+001 23467 110348,110452,110374
 2.1000e+000 110504 -2.1684e+001 -1.3678e+002  3.2792e+000 23467 110348,110478,110452
 2.1000e+000 111004 -8.4243e+001 -1.8217e+002 -2.3208e+001 22963 111027,110733,110707
 2.1000e+000 110981 -8.4552e+001 -1.7278e+002  6.6534e+000 22963 111027,110707,110681
 2.1000e+000 110958 -4.3883e+001 -1.5204e+002 -1.5215e+001 22963 111099,110759,110733
 2.1000e+000 110935 -5.2673e+001 -1.5220e+002 -1.2804e+001 22963 111171,110863,110811
 2.1000e+000 110912 -3.1655e+001 -1.1549e+002 -1.7456e+001 22963 110759,110811,110785
 2.1000e+000 110889 -5.7185e+001 -1.6607e+002 -1.3496e+001 22963 110811,110863,110837
 2.1000e+000 111053 -6.0245e+001 -1.6127e+002 -1.1376e+001 22963 111099,110733,111027
 2.1000e+000 111076 -5.0747e+001 -1.6226e+002 -1.0885e+001 22963 111171,110811,111027
 2.1000e+000 111125 -4.3932e+001 -1.5134e+002 -2.4834e+001 22963 110811,110759,111099
 2.1000e+000 111148 -4.7401e+001 -1.5149e+002 -2.3021e+001 22963 110811,111099,111027
 2.1000e+000 111197 -5.4324e+001 -1.3373e+002 -1.6393e+001 22963 110681,110863,111171
 2.1000e+000 111220 -5.8919e+001 -1.4738e+002 -9.4153e+000 22963 110681,111171,111027
 2.1000e+000 111726 -8.0513e+001 -1.6306e+002  2.4848e+000 22459 111749,111507,111429
 2.1000e+000 111703 -7.5018e+001 -1.6142e+002 -4.1130e+000 22459 111749,111429,111585
 2.1000e+000 111680 -6.5175e+001 -1.7189e+002 -2.3369e+000 22459 111403,111585,111429
 2.1000e+000 111657 -7.8564e+001 -1.7764e+002  5.5936e+000 22459 111507,111559,111533
 2.1000e+000 111634 -1.0566e+002 -1.5391e+002  6.8457e+000 22459 111455,111507,111481
 2.1000e+000 111611 -1.0371e+002 -1.5160e+002  9.8963e+000 22459 111429,111507,111455
 2.1000e+000 111775 -8.1027e+001 -1.7304e+002  7.8364e+000 22459 111559,111507,111749
 2.1000e+000 111798 -7.5061e+001 -1.6618e+002  1.4501e+000 22459 111559,111749,111585
 2.1000e+000 112046 -1.1414e+001 -1.4155e+002 -1.9355e+000 21898 112069,111925,111873
 2.1000e+000 112023 -8.2923e+000 -1.3768e+002  8.4697e+000 21898 112069,111873,111847
 2.1000e+000 112000 -1.2411e+001 -1.5274e+002 -3.0967e+000 21898 111821,111951,111847
 2.1000e+000 111977 -3.2721e+001 -1.1058e+002  2.4257e+000 21898 111873,111925,111899
 2.1000e+000 112095 -2.6646e+001 -1.4566e+002 -8.2821e+000 21898 111951,111925,112069
 2.1000e+000 112118 -1.7739e+001 -1.4013e+002  1.8849e+000 21898 111951,112069,111847
 2.1000e+000 112498 -6.0703e+001 -1.4769e+002 -1.2766e+001 21608 112521,112276,112224
 2.1000e+000 112475 -4.1473e+001 -1.5009e+002 -9.3485e-001 21608 112521,112224,112380
 2.1000e+000 112452 -4.5924e+001 -1.7107e+002  9.1212e+000 21608 112302,112380,112354
 2.1000e+000 112429 -6.8027e+001 -1.6632e+002 -9.7547e+000 21608 112224,112276,112250
 2.1000e+000 112406  1.8154e+001 -1.8890e+002 -1.1733e+001 21608 112302,112354,112328
 2.1000e+000 112547 -4.4848e+001 -1.2858e+002 -4.1912e+000 21608 112302,112276,112521
 2.1000e+000 112570 -3.2394e+001 -1.4423e+002  4.2276e+000 21608 112302,112521,112380
 2.1000e+000 112948 -6.9544e+001 -1.5649e+002 -4.1644e+000 20882 112971,112752,112700
 2.1000e+000 112925 -4.9094e+001 -1.4998e+002 -9.3249e+000 20882 112971,112700,112830
 2.1000e+000 112902 -9.1994e+001 -1.7037e+002  9.2660e+000 20882 112778,112830,112804
 2.1000e+000 112879 -4.5118e+001 -1.1724e+002 -1.2727e+001 20882 112674,112830,112700
 2.1000e+000 112856 -8.4455e+001 -1.6159e+002  9.3891e-001 20882 112700,112752,112726
 2.1000e+000 112997 -7.0480e+001 -1.5723e+002  7.1114e+000 20882 112778,112752,112971
 2.1000e+000 113020 -5.8734e+001 -1.5418e+002  1.5574e+000 20882 112778,112971,112830
 2.1000e+000 113526 -5.6547e+001 -1.5969e+002 -2.9609e-001 20428 113255,113385,113333
 2.1000e+000 113503 -6.0767e+001 -1.7251e+002 -3.7040e-001 20428 113229,113385,113255
 2.1000e+000 113480 -9.5838e+000 -1.5483e+002  1.0101e+000 20428 113255,113333,113281
 2.1000e+000 113457 -5.3164e+001 -1.6936e+002  8.3132e-001 20428 113203,113385,113229
 2.1000e+000 113434 -3.1476e+001 -1.6287e+002 -6.2178e+000 20428 113281,113333,113307
 2.1000e+000 113411 -6.6896e+001 -1.5476e+002  1.8709e+000 20428 113333,113385,113359
 2.1000e+000 113774 -2.9374e+001 -1.5793e+002  9.3978e+000 19917 113797,113601,113549
 2.1000e+000 113751 -4.0578e+001 -1.5930e+002  1.0507e+001 19917 113869,113797,113549
 2.1000e+000 113728 -3.9988e+001 -1.6002e+002  1.3464e+001 19917 113869,113549,113679
 2.1000e+000 113705 -2.6034e+001 -1.4773e+002  9.8585e+000 19917 113549,113601,113575
 2.1000e+000 113823 -4.0588e+001 -1.6167e+002  3.7495e+000 19917 113627,113601,113797
 2.1000e+000 113846 -4.3240e+001 -1.5384e+002  8.2199e+000 19917 113627,113797,113653
 2.1000e+000 113895 -3.8909e+001 -1.5232e+002  8.6137e+000 19917 113653,113797,113869
 2.1000e+000 113918 -4.0781e+001 -1.5401e+002  1.2362e+001 19917 113653,113869,113679
 2.1000e+000 114166 -6.9882e+001 -1.5749e+002 -4.2266e+000 19413 113993,114045,114019
 2.1000e+000 114143 -5.9562e+001 -1.4415e+002  9.0061e-001 19413 113967,114045,113993
 2.1000e+000 114120 -5.3641e+001 -1.4206e+002  4.4930e+000 19413 113967,114071,114045
 2.1000e+000 114097 -3.6342e+001 -1.5647e+002 -4.4321e+000 19413 113941,114071,113967
 2.1000e+000 114438 -2.7367e+001 -1.5232e+002 -2.3888e+000 19001 114213,114265,114239
 2.1000e+000 114415 -2.0493e+001 -1.2813e+002 -1.4884e+000 19001 114213,114343,114265
 2.1000e+000 114392 -3.7127e+001 -1.6303e+002 -7.8895e+000 19001 114265,114343,114317
 2.1000e+000 114369 -2.8257e+000 -1.4453e+002  6.6382e-001 19001 114265,114317,114291
 2.1000e+000 114639 -5.9453e+001 -1.5958e+002 -8.2119e+000 18554 114489,114541,114515
 2.1000e+000 114616 -3.0523e+000 -1.5594e+002 -1.6689e+001 18554 114489,114567,114541
 2.1000e+000 114593 -6.3250e+001 -1.5742e+002 -2.9390e+001 18554 114463,114567,114489
 2.1000e+000 115043 -3.5232e+001 -1.5190e+002  4.4598e+000 18164 114795,114925,114821
 2.1000e+000 115020 -2.7972e+001 -1.6024e+002  9.8543e+000 18164 114769,114925,114795
 2.1000e+000 114997 -2.3952e+001 -1.5967e+002 -1.6063e+000 18164 115066,114873,114821
 2.1000e+000 114974 -2.1221e+001 -1.3738e+002 -4.3644e+000 18164 115066,114821,114925
 2.1000e+000 114951 -2.5629e+000 -1.5977e+002 -1.2002e+001 18164 114821,114873,114847
 2.1000e+000 115092 -3.3320e+001 -1.4351e+002 -1.3568e+001 18164 114899,114873,115066
 2.1000e+000 115115 -2.2098e+001 -1.0950e+002 -1.7152e+001 18164 114899,115066,114925
 2.1000e+000 115265 -4.8316e+001 -1.7789e+002  1.4615e+000 17852 115164,115216,115190
 2.1000e+000 115242 -4.6916e+001 -1.8304e+002  1.7741e+000 17852 115138,115216,115164
 2.1000e+000 115464 -9.4342e+001 -2.2457e+002  3.2951e+000 17346 115288,115366,115340
 2.1000e+000 115441 -1.5683e+002 -1.7792e+002 -4.7146e+000 17346 115288,115392,115366
 2.1000e+000 115418 -8.9687e+001 -2.5224e+002 -7.7510e+000 17346 115288,115340,115314
 2.1000e+000 115736 -4.6683e+001 -1.5759e+002  5.0224e+000 16942 115563,115641,115615
 2.1000e+000 115713 -4.8883e+001 -1.5446e+002  2.3968e+000 16942 115511,115641,115563
 2.1000e+000 115690 -1.1261e+002 -1.8233e+002  9.8669e+000 16942 115563,115615,115589
 2.1000e+000 115667 -5.6623e+001 -1.7214e+002  5.1177e+000 16942 115511,115563,115537
 2.1000e+000 116091 -7.8028e+001 -1.7514e+002 -6.4109e+000 16388 115918,115970,115944
 2.1000e+000 116068 -6.7297e+001 -1.4301e+002 -3.7962e+000 16388 115918,115996,115970
 2.1000e+000 116045 -8.6924e+001 -1.7798e+002  5.3539e+000 16388 115892,115996,115918
 2.1000e+000 116022 -6.0211e+001 -1.6680e+002  1.7950e+001 16388 115866,115996,115892
 2.1000e+000 116192 -2.5997e+001 -1.9587e+002 -2.8547e+001 15810 116114,116166,116140
 2.1000e+000 116342 -2.7641e+001 -1.6747e+002  1.2977e+001 15419 116241,116293,116267
 2.1000e+000 116319 -3.0556e+001 -2.0525e+002 -9.8070e-001 15419 116215,116293,116241
 2.1000e+000 116445 -7.4558e+001 -1.5667e+002 -8.4335e-001 421 116367,116419,116393
 2.2000e+000 68477 -1.1021e+002 -1.6383e+002  5.3126e+000 68018 68327,68379,68353
 2.2000e+000 68454 -1.1695e+002 -2.1330e+002  1.9593e+001 68018 68301,68379,68327
 2.2000e+000 68431 -5.4706e+001 -2.4769e+002  4.3198e+001 68018 68301,68405,68379
 2.2000e+000 68578 -6.9023e+001 -1.6644e+002  1.9825e+000 67820 68500,68552,68526
 2.2000e+000 68728 -7.7375e+001 -1.5991e+002 -2.3076e+000 67508 68601,68653,68627
 2.2000e+000 68705 -1.2721e+002 -1.1706e+002 -2.4095e+001 67508 68601,68679,68653
 2.2000e+000 68927 -1.4819e+001 -1.3329e+002 -5.9325e+000 67310 68777,68829,68803
 2.2000e+000 68904 -3.8508e+001 -1.5441e+002  3.7246e+000 67310 68751,68829,68777
 2.2000e+000 68881 -4.6597e+001 -1.7390e+002  1.5312e+000 67310 68751,68855,68829
 2.2000e+000 69386 -6.4278e+001 -1.8033e+002 -9.9431e+000 67020 69216,69268,69242
 2.2000e+000 69363 -5.3994e+001 -1.3216e+002 -1.7040e+001 67020 69138,69268,69216
 2.2000e+000 69340 -4.2084e+001 -1.1740e+002 -7.9417e+000 67020 69112,69268,69138
 2.2000e+000 69317 -7.7445e+001 -1.5274e+002  1.2165e+001 67020 69138,69190,69164
 2.2000e+000 69294 -8.0336e+001 -1.3915e+002 -6.1356e+000 67020 69138,69216,69190
 2.2000e+000 69536 -1.1694e+002 -3.1062e+002 -2.0119e+001 66708 69435,69487,69461
 2.2000e+000 69513 -9.0963e+001 -3.4424e+002 -2.0102e+000 66708 69409,69487,69435
 2.2000e+000 69735 -7.5673e+001 -1.7809e+002  4.2905e+000 66346 69585,69637,69611
 2.2000e+000 69712 -6.0603e+001 -1.7023e+002 -4.6688e-001 66346 69559,69637,69585
 2.2000e+000 69689 -5.3375e+001 -1.6790e+002 -1.6676e+001 66346 69559,69663,69637
 2.2000e+000 69985 -9.7753e+001 -1.8515e+002  4.6789e+000 66148 69786,69890,69864
 2.2000e+000 69962 -1.0131e+002 -1.8745e+002  6.0305e+000 66148 69760,69890,69786
 2.2000e+000 69939 -6.6260e+001 -1.7297e+002 -2.5847e+001 66148 69786,69864,69838
 2.2000e+000 69916 -8.3623e+001 -1.9122e+002 -7.1799e+000 66148 69786,69838,69812
 2.2000e+000 70137  3.6870e+000 -1.6056e+002 -1.1345e+001 65950 70036,70088,70062
 2.2000e+000 70114  2.8409e+001 -1.8466e+002  1.7394e+001 65950 70010,70088,70036
 2.2000e+000 70470 -1.6305e+000 -1.2649e+002  2.6581e+000 65546 70245,70323,70271
 2.2000e+000 70447 -5.9367e+000 -1.3773e+002  2.7780e+000 65546 70245,70375,70323
 2.2000e+000 70424 -2.3666e+000 -1.6044e+002  9.1567e+000 65546 70323,70375,70349
 2.2000e+000 70401 -1.1614e+001 -1.3108e+002  4.2216e+000 65546 70271,70323,70297
 2.2000e+000 70620 -4.2588e+001 -1.7414e+002  8.6471e+000 65348 70493,70545,70519
 2.2000e+000 70597 -3.9245e+001 -1.8991e+002  5.6742e+000 65348 70493,70571,70545
 2.2000e+000 70721 -8.3478e+001 -1.8056e+002  6.0605e+000 65150 70643,70695,70669
 2.2000e+000 71020 -6.1415e+001 -1.3013e+002  6.5712e+000 64952 71043,70850,70824
 2.2000e+000 70997 -4.6917e+001 -1.0628e+002 -3.1355e+000 64952 71043,70824,70772
 2.2000e+000 70974 -4.3719e+001 -1.6293e+002  3.2388e+000 64952 71115,70746,70876
 2.2000e+000 70951 -5.6009e+001 -1.5947e+002  1.0616e+001 64952 70746,70902,70876
 2.2000e+000 70928 -5.5679e+001 -1.0140e+002 -7.2244e+000 64952 70772,70824,70798
 2.2000e+000 71069 -3.6341e+001 -1.1815e+002  1.0581e+001 64952 70876,70850,71043
 2.2000e+000 71092 -4.8495e+001 -1.4791e+002  1.3001e+000 64952 71115,70876,71043
 2.2000e+000 71141 -4.8781e+001 -1.4658e+002 -8.3933e+000 64952 70772,70746,71115
 2.2000e+000 71164 -4.6028e+001 -1.2342e+002 -1.1659e+001 64952 70772,71115,71043
 2.2000e+000 71365 -3.5723e+000 -1.5808e+002 -3.3808e+000 64662 71215,71293,71267
 2.2000e+000 71342  3.6592e+001 -1.2678e+002 -3.5329e+001 64662 71189,71293,71215
 2.2000e+000 71319  1.8737e+001 -1.1400e+002  4.2739e+000 64662 71215,71267,71241
 2.2000e+000 71615 -3.3647e+001 -1.6167e+002 -5.1088e-001 64350 71710,71638,71468
 2.2000e+000 71592 -1.5315e+001 -1.5302e+002 -7.0914e+000 64350 71638,71416,71390
 2.2000e+000 71569 -4.1252e+001 -1.4704e+002  1.2438e+001 64350 71710,71468,71442
 2.2000e+000 71546  5.5900e+001 -1.4894e+002 -2.9247e+001 64350 71390,71520,71494
 2.2000e+000 71664 -2.5228e+001 -1.5683e+002 -4.9281e+000 64350 71494,71468,71638
 2.2000e+000 71687 -2.1764e+001 -1.6148e+002 -2.4324e+000 64350 71494,71638,71390
 2.2000e+000 71736 -1.8797e+001 -1.3191e+002 -5.4387e+000 64350 71416,71638,71710
 2.2000e+000 71759 -2.9959e+001 -1.2157e+002  1.0059e+001 64350 71416,71710,71442
 2.2000e+000 72318 -3.4897e+001 -2.4766e+002 -1.4843e+001 63837 71972,72024,71998
 2.2000e+000 72295 -4.6486e+001 -1.5777e+002 -1.6339e+000 63837 72341,71972,71946
 2.2000e+000 72272 -4.3513e+001 -1.2460e+002  1.0569e+001 63837 72413,72341,71946
 2.2000e+000 72249 -4.4344e+001 -1.1136e+002  6.9364e+000 63837 72413,71946,72128
 2.2000e+000 72226 -7.4935e+001 -1.3389e+002  6.1507e+000 63837 72024,72076,72050
 2.2000e+000 72203 -6.1526e+001 -1.1921e+002 -1.4978e+000 63837 72024,72102,72076
 2.2000e+000 72180 -3.6575e+001 -1.0920e+002  1.2228e+001 63837 71946,72154,72128
 2.2000e+000 72367 -7.0630e+001 -1.7418e+002 -3.3813e+001 63837 72024,71972,72341
 2.2000e+000 72390 -4.7863e+001 -1.3405e+002 -1.0963e+001 63837 72024,72341,72102
 2.2000e+000 72439 -3.7248e+001 -1.4585e+002  5.5394e+000 63837 72102,72341,72413
 2.2000e+000 72462 -3.7080e+001 -1.3115e+002  3.6420e+000 63837 72102,72413,72128
 2.2000e+000 72791 -6.6325e+001 -1.3744e+002 -1.3211e+001 63383 72592,72696,72670
 2.2000e+000 72768 -7.1125e+001 -1.3306e+002 -2.7008e+001 63383 72566,72696,72592
 2.2000e+000 72745 -7.2450e+001 -1.2349e+002 -4.6476e-001 63383 72592,72670,72618
 2.2000e+000 72722 -7.3907e+001 -1.1945e+002 -6.1600e+000 63383 72618,72670,72644
 2.2000e+000 73297 -8.6451e+001 -1.2690e+002 -1.2794e+000 63185 73000,73156,73130
 2.2000e+000 73274 -8.7812e+001 -1.3429e+002  1.6525e+001 63185 72974,73156,73000
 2.2000e+000 73251 -6.5332e+001 -1.4634e+002  8.9520e-001 63185 73000,73052,73026
 2.2000e+000 73228 -6.6359e+001 -1.2707e+002 -4.9873e+000 63185 73000,73130,73052
 2.2000e+000 73205 -6.9178e+001 -1.5302e+002 -2.1510e+001 63185 73052,73130,73104
 2.2000e+000 73182 -6.1414e+001 -1.6500e+002 -2.1423e+001 63185 73052,73104,73078
 2.2000e+000 73545 -2.0117e+001 -1.3577e+002  1.1781e+000 62781 73568,73398,73372
 2.2000e+000 73522 -6.1772e+000 -1.2341e+002  9.8849e+000 62781 73568,73372,73346
 2.2000e+000 73499 -2.7620e+001 -1.3729e+002 -9.5286e+000 62781 73640,73320,73424
 2.2000e+000 73476 -5.1766e+001 -1.0745e+002 -1.2594e+001 62781 73320,73450,73424
 2.2000e+000 73594 -2.5500e+001 -1.2526e+002  3.3362e-001 62781 73424,73398,73568
 2.2000e+000 73617 -2.4835e+001 -1.3352e+002 -1.2077e+000 62781 73640,73424,73568
 2.2000e+000 73666 -2.3147e+001 -1.2778e+002 -4.3711e+000 62781 73346,73320,73640
 2.2000e+000 73689 -2.1103e+001 -1.2056e+002  3.2103e+000 62781 73346,73640,73568
 2.2000e+000 74035 -7.3369e+001 -1.7078e+002 -6.6976e+000 62363 74058,73868,73842
 2.2000e+000 74012 -5.5809e+001 -1.5469e+002 -1.5868e+001 62363 74130,74058,73842
 2.2000e+000 73989 -5.0977e+001 -1.5222e+002 -1.4945e+001 62363 74130,73842,73816
 2.2000e+000 73966 -8.0750e+001 -1.7879e+002  2.4414e+000 62363 74202,73764,73894
 2.2000e+000 73943 -1.0216e+002 -1.6122e+002  3.7842e+000 62363 73712,73894,73764
 2.2000e+000 73920 -1.1480e+002 -1.7401e+002 -2.9478e+000 62363 73712,73764,73738
 2.2000e+000 74084 -6.0575e+001 -1.6360e+002 -1.8417e+000 62363 73894,73868,74058
 2.2000e+000 74107 -7.4671e+001 -1.7092e+002  6.6872e+000 62363 74202,73894,74058
 2.2000e+000 74156 -6.1309e+001 -1.5456e+002  3.4254e+000 62363 73790,74058,74130
 2.2000e+000 74179 -3.5488e+001 -1.4272e+002  6.5078e+000 62363 73790,74130,73816
 2.2000e+000 74228 -8.6941e+001 -1.8156e+002 -8.7415e+000 62363 73790,73764,74202
 2.2000e+000 74251 -8.2004e+001 -1.7293e+002 -4.6137e+000 62363 73790,74202,74058
 2.2000e+000 74403  3.5150e+001 -1.7104e+002  1.4381e+001 62115 74426,74302,74276
 2.2000e+000 74380  4.1611e+001 -1.6250e+002  1.7195e+001 62115 74426,74276,74354
 2.2000e+000 74452  2.7393e+001 -1.6186e+002  1.2998e+001 62115 74328,74302,74426
 2.2000e+000 74475  3.3794e+001 -1.5306e+002  1.5799e+001 62115 74328,74426,74354
 2.2000e+000 74578  4.7262e+001 -1.2204e+002  6.4438e+000 61825 74500,74552,74526
 2.2000e+000 74982 -8.1646e+001 -1.5330e+002  6.1580e-001 61513 75005,74734,74708
 2.2000e+000 74959 -8.1294e+001 -1.5236e+002  3.0671e-001 61513 75005,74708,74864
 2.2000e+000 74936 -1.0539e+002 -1.5821e+002  9.1851e+000 61513 75077,74812,74734
 2.2000e+000 74913 -8.7293e+001 -1.5204e+002 -1.2029e+001 61513 74734,74786,74760
 2.2000e+000 74890 -8.6398e+001 -1.4015e+002 -2.3396e+000 61513 74734,74812,74786
 2.2000e+000 75031 -7.7977e+001 -1.5722e+002  9.9317e-001 61513 75077,74734,75005
 2.2000e+000 75054 -5.8513e+001 -1.5060e+002  2.4711e+001 61513 74838,75005,74864
 2.2000e+000 75103 -1.2036e+002 -1.6361e+002  3.4321e+001 61513 74838,74812,75077
 2.2000e+000 75126 -1.0265e+002 -1.6937e+002  2.6133e+001 61513 74838,75077,75005
 2.2000e+000 75553 -3.1974e+001 -1.3162e+002 -3.7372e+000 61060 75576,75360,75308
 2.2000e+000 75530 -2.4678e+001 -1.4582e+002 -1.0292e+000 61060 75576,75308,75230
 2.2000e+000 75507 -3.1756e+001 -1.2589e+002  2.9534e+000 61060 75308,75360,75334
 2.2000e+000 75484 -3.1980e+001 -1.6157e+002  1.6053e+000 61060 75230,75308,75256
 2.2000e+000 75461 -3.5634e+001 -1.5962e+002  1.1845e-001 61060 75256,75308,75282
 2.2000e+000 75438 -4.9285e+001 -1.3331e+002  1.9653e+001 61060 75360,75412,75386
 2.2000e+000 75602 -3.2180e+001 -1.4187e+002  2.4390e+000 61060 75412,75360,75576
 2.2000e+000 75625 -2.8884e+001 -1.6278e+002  4.0839e+000 61060 75412,75576,75230
 2.2000e+000 76052 -5.1319e+001 -1.3882e+002  1.8024e+000 60442 75755,75859,75833
 2.2000e+000 76029 -4.7108e+001 -1.1820e+002 -1.9281e+001 60442 75729,75859,75755
 2.2000e+000 76006 -5.0263e+001 -1.1977e+002  7.7701e+000 60442 75755,75833,75807
 2.2000e+000 75983 -5.5630e+001 -1.4544e+002  1.7706e+000 60442 75755,75807,75781
 2.2000e+000 75960  2.6909e+000 -2.5808e+002  8.8205e+000 60442 75729,75911,75859
 2.2000e+000 75937 -1.1831e+002 -6.0853e+002  3.6676e+001 60442 75859,75911,75885
 2.2000e+000 76430 -5.5812e+001 -1.5662e+002 -1.6624e+000 59788 76453,76286,76234
 2.2000e+000 76407 -6.0276e+001 -1.7625e+002  6.2238e+000 59788 76453,76234,76182
 2.2000e+000 76384 -6.1465e+001 -1.0898e+002  2.3348e+001 59788 76525,76156,76312
 2.2000e+000 76361 -3.6035e+001 -2.0612e+002  2.7536e+000 59788 76182,76234,76208
 2.2000e+000 76338 -3.2681e+001 -1.4392e+002  3.4738e+000 59788 76234,76286,76260
 2.2000e+000 76479 -6.6709e+001 -1.6655e+002  3.8005e+000 59788 76312,76286,76453
 2.2000e+000 76502 -5.5364e+001 -1.5467e+002  1.0203e+001 59788 76525,76312,76453
 2.2000e+000 76551 -7.9561e+001 -1.6658e+002  2.4481e+001 59788 76182,76156,76525
 2.2000e+000 76574 -6.9020e+001 -1.8059e+002  1.5211e+001 59788 76182,76525,76453
 2.2000e+000 77031 -1.1510e+001 -8.8525e+001 -1.7950e+001 59448 76835,76887,76861
 2.2000e+000 77008  1.5662e+001 -6.4953e+001  1.1812e-001 59448 76835,76913,76887
 2.2000e+000 76985 -2.5158e+000 -6.7686e+001  1.6641e+001 59448 76809,76913,76835
 2.2000e+000 76962 -3.7137e+001 -7.9778e+001 -8.4103e+000 59448 76757,76913,76809
 2.2000e+000 76939 -2.4513e+001 -7.4176e+001 -1.3431e+001 59448 76757,76809,76783
 2.2000e+000 77537 -6.7541e+001 -1.4889e+002  7.1578e+000 58994 77560,77344,77292
 2.2000e+000 77514 -9.4514e+001 -1.4734e+002  2.0122e+000 58994 77560,77292,77240
 2.2000e+000 77491 -5.3964e+001 -1.3903e+002 -5.3836e+000 58994 77632,77214,77370
 2.2000e+000 77468 -1.1434e+002 -1.7091e+002  2.9103e+001 58994 77292,77344,77318
 2.2000e+000 77445 -5.4844e+001 -1.6992e+002  2.4329e+000 58994 77214,77396,77370
 2.2000e+000 77422 -9.7771e+001 -1.5909e+002 -2.6908e+000 58994 77240,77292,77266
 2.2000e+000 77586 -7.1586e+001 -1.5143e+002  8.4266e+000 58994 77370,77344,77560
 2.2000e+000 77609 -7.0420e+001 -1.4913e+002  9.4588e+000 58994 77632,77370,77560
 2.2000e+000 77658 -4.4805e+001 -1.2787e+002 -2.0219e+001 58994 77240,77214,77632
 2.2000e+000 77681 -5.6641e+001 -1.2575e+002 -6.7340e+000 58994 77240,77632,77560
 2.2000e+000 78138 -4.7115e+001 -9.3579e+001  1.1537e+001 58440 77864,77994,77890
 2.2000e+000 78115 -2.5896e+001 -5.0440e+001 -1.3036e+001 58440 77864,78020,77994
 2.2000e+000 78092 -5.5182e+001 -1.1275e+002 -1.1112e+001 58440 77942,77994,77968
 2.2000e+000 78069 -3.9528e+001 -1.0139e+002  2.5241e+000 58440 77890,77994,77942
 2.2000e+000 78046 -3.6422e+001 -9.9305e+001  6.9705e-001 58440 77890,77942,77916
 2.2000e+000 78467 -1.1725e+001 -1.4048e+002  4.1887e+000 57928 78562,78490,78346
 2.2000e+000 78444 -2.9376e+001 -1.2957e+002  7.9154e+000 57928 78490,78294,78268
 2.2000e+000 78421 -6.9524e+000 -1.4476e+002  8.1916e+000 57928 78562,78346,78320
 2.2000e+000 78398 -1.3628e+001 -1.3307e+002  1.3494e+000 57928 78242,78372,78268
 2.2000e+000 78516 -3.1575e+001 -1.7315e+002 -8.8768e+000 57928 78372,78346,78490
 2.2000e+000 78539 -2.2005e+001 -1.3207e+002 -3.6945e-001 57928 78372,78490,78268
 2.2000e+000 78588 -3.2572e+001 -1.4117e+002  2.7150e+000 57928 78294,78490,78562
 2.2000e+000 78611 -1.9369e+001 -1.3613e+002  9.9551e+000 57928 78294,78562,78320
 2.2000e+000 79068 -8.1521e+001 -1.9980e+002 -5.1838e+001 57467 78794,78924,78820
 2.2000e+000 79045 -5.6322e+001 -1.8959e+002 -5.3130e+001 57467 78794,78950,78924
 2.2000e+000 79022 -2.4649e-001 -1.5990e+002  9.2815e+000 57467 78820,78898,78872
 2.2000e+000 78999 -6.1515e+001 -2.3400e+002 -3.2987e+001 57467 78820,78924,78898
 2.2000e+000 78976 -1.2043e+001 -1.6798e+002  1.4558e+001 57467 78820,78872,78846
 2.2000e+000 79446 -7.5889e+001 -1.6125e+002  4.0154e+000 57120 79172,79302,79250
 2.2000e+000 79423 -6.7510e+001 -1.5714e+002 -7.6242e+000 57120 79172,79328,79302
 2.2000e+000 79400 -7.0788e+001 -1.3988e+002 -1.1182e+000 57120 79172,79250,79198
 2.2000e+000 79377 -5.1304e+001 -2.2073e+002  1.0528e+001 57120 79250,79302,79276
 2.2000e+000 79354 -9.3000e+001 -1.5506e+002 -8.2519e+000 57120 79198,79250,79224
 2.2000e+000 79952 -8.5806e+001 -1.5310e+002  3.8059e+000 56773 79629,79785,79655
 2.2000e+000 79929 -1.3255e+001 -1.3077e+002  1.0498e+001 56773 79629,79811,79785
 2.2000e+000 79906 -5.8222e+001 -1.8012e+002  1.7137e+001 56773 79655,79733,79681
 2.2000e+000 79883 -5.7773e+001 -1.5123e+002  4.1321e+000 56773 79655,79785,79733
 2.2000e+000 79860 -4.6883e+001 -2.0467e+002 -3.2595e+001 56773 79733,79785,79759
 2.2000e+000 79837 -1.9700e+000 -1.5353e+002  5.1555e+001 56773 79681,79733,79707
 2.2000e+000 80281 -3.1481e+001 -1.1027e+002 -1.3800e+001 56319 80108,80160,80134
 2.2000e+000 80258 -3.0457e+001 -1.3503e+002 -1.7050e+001 56319 80056,80160,80108
 2.2000e+000 80235 -5.3714e+000 -1.1764e+002  6.9189e+000 56319 80056,80186,80160
 2.2000e+000 80212 -3.4454e+001 -1.8790e+002 -2.0925e+001 56319 80056,80108,80082
 2.2000e+000 80738 -2.0221e+001 -1.4230e+002  1.0642e+001 55957 80516,80620,80594
 2.2000e+000 80715 -4.7215e+001 -1.2716e+002  1.0015e+001 55957 80464,80620,80516
 2.2000e+000 80692 -4.1936e+001 -1.5074e+002  8.0936e+000 55957 80761,80568,80542
 2.2000e+000 80669 -3.2245e+001 -1.5077e+002  8.9391e+000 55957 80761,80542,80516
 2.2000e+000 80646 -4.8349e+001 -1.2937e+002  2.2275e+001 55957 80464,80516,80490
 2.2000e+000 80787 -4.9843e+001 -1.5141e+002  6.9735e+000 55957 80594,80568,80761
 2.2000e+000 80810 -4.0912e+001 -1.5188e+002  8.0225e+000 55957 80594,80761,80516
 2.2000e+000 81210 -2.3076e+001 -1.4721e+002 -1.2670e+001 55317 80936,80988,80962
 2.2000e+000 81187 -2.0862e+001 -1.5726e+002 -5.0834e+000 55317 80936,81066,80988
 2.2000e+000 81164 -2.3134e+001 -1.7157e+002 -3.1422e-003 55317 80936,81092,81066
 2.2000e+000 81141 -5.8080e+001 -1.7651e+002 -1.7385e+001 55317 80988,81066,81014
 2.2000e+000 81118 -1.5512e+000 -1.0822e+002  8.4485e+000 55317 81014,81066,81040
 2.2000e+000 81539 -5.3697e+001 -1.4925e+002  1.2516e+000 54913 81340,81418,81392
 2.2000e+000 81516  2.7153e+000 -1.1670e+002 -1.5141e+001 54913 81340,81444,81418
 2.2000e+000 81493 -1.8922e+001 -1.3170e+002 -3.3640e+001 54913 81314,81444,81340
 2.2000e+000 81470 -6.6429e+001 -1.7781e+002 -5.6070e+000 54913 81340,81392,81366
 2.2000e+000 81787 -4.0518e+001 -1.7188e+002 -1.3681e+000 54601 81588,81692,81640
 2.2000e+000 81764 -7.0747e+001 -1.8031e+002 -8.9836e+000 54601 81562,81692,81588
 2.2000e+000 81741 -3.0562e+001 -1.7374e+002  2.1421e+001 54601 81588,81640,81614
 2.2000e+000 81718 -4.3089e+001 -2.0801e+002 -1.8151e+001 54601 81640,81692,81666
 2.2000e+000 82344 -6.5079e+001 -1.8361e+002 -1.2010e+001 54090 81998,82102,82076
 2.2000e+000 82321 -9.0506e+001 -1.9476e+002 -7.2072e+000 54090 81998,82154,82102
 2.2000e+000 82298 -8.1976e+001 -1.9079e+002 -5.0548e+000 54090 81972,82154,81998
 2.2000e+000 82275 -9.2058e+001 -1.6671e+002 -1.5085e+001 54090 81998,82076,82024
 2.2000e+000 82252 -9.9128e+001 -2.0351e+002  9.5931e+000 54090 81972,82180,82154
 2.2000e+000 82229 -1.2344e+002 -2.3340e+002  1.0626e+001 54090 82102,82154,82128
 2.2000e+000 82206 -1.4850e+001 -1.2627e+002 -3.0188e+001 54090 82024,82076,82050
 2.2000e+000 82722 -1.0271e+002 -1.8993e+002 -8.0852e+000 53579 82500,82578,82552
 2.2000e+000 82699 -7.3020e+001 -1.7201e+002  3.8841e+000 53579 82448,82578,82500
 2.2000e+000 82676 -7.6825e+001 -1.9446e+002  2.0723e+000 53579 82448,82500,82474
 2.2000e+000 82653 -1.0001e+002 -1.8649e+002  1.6354e+001 53579 82448,82604,82578
 2.2000e+000 82630 -4.9979e+001 -1.7603e+002 -9.1208e+000 53579 82500,82552,82526
 2.2000e+000 83356 -4.5703e+001 -1.4050e+002 -1.1486e+001 53189 83379,83088,83036
 2.2000e+000 83333 -4.3849e+001 -1.5791e+002 -1.0077e+001 53189 83379,83036,82984
 2.2000e+000 83310 -1.3670e+001 -1.4344e+002  3.2899e+001 53189 82984,83192,83166
 2.2000e+000 83287  1.0693e+001 -1.1778e+002 -1.0626e+001 53189 83036,83088,83062
 2.2000e+000 83264 -3.9146e+001 -1.9718e+002 -2.1146e+001 53189 82984,83036,83010
 2.2000e+000 83241 -1.8932e+001 -1.7106e+002  7.6465e+000 53189 83114,83166,83140
 2.2000e+000 83218 -6.7796e+001 -1.8422e+002  6.9119e+000 53189 83088,83166,83114
 2.2000e+000 83405 -4.6030e+001 -1.5218e+002 -4.3381e+000 53189 83166,83088,83379
 2.2000e+000 83428 -4.1533e+001 -1.6752e+002 -4.0391e+000 53189 83166,83379,82984
 2.2000e+000 83725 -5.6480e+001 -1.9876e+002 -1.4208e+001 52585 83748,83529,83503
 2.2000e+000 83702 -2.8095e+001 -1.8767e+002 -1.0927e+001 52585 83820,83748,83503
 2.2000e+000 83679  4.8149e+000 -1.8192e+002 -8.4426e+000 52585 83820,83503,83477
 2.2000e+000 83656 -3.4778e+001 -1.7527e+002  2.5014e+001 52585 83477,83607,83581
 2.2000e+000 83633  6.1343e+000 -1.5926e+002  2.2082e+001 52585 83451,83607,83477
 2.2000e+000 83774 -4.7649e+001 -1.7571e+002 -1.0120e+001 52585 83555,83529,83748
 2.2000e+000 83797 -7.9719e+001 -1.8546e+002 -6.0738e+000 52585 83555,83748,83581
 2.2000e+000 83846 -5.9101e+001 -1.7175e+002  5.8385e+000 52585 83581,83748,83820
 2.2000e+000 83869 -3.4625e+001 -1.7097e+002  4.9388e+000 52585 83581,83820,83477
 2.2000e+000 84200 -5.8485e+001 -1.8861e+002 -5.0320e+000 52024 84001,84105,84079
 2.2000e+000 84177 -2.8440e+001 -1.8296e+002 -1.2494e+001 52024 83975,84105,84001
 2.2000e+000 84154 -4.9697e+001 -1.8756e+002 -4.3468e+000 52024 84001,84079,84053
 2.2000e+000 84131 -2.6899e+001 -1.2834e+002  2.1377e+001 52024 84001,84053,84027
 2.2000e+000 84399 -3.5894e+001 -1.6966e+002 -1.1087e+000 51470 84422,84275,84249
 2.2000e+000 84376 -3.3595e+001 -1.7129e+002 -7.4135e-001 51470 84422,84249,84223
 2.2000e+000 84353 -3.9629e+001 -1.8319e+002 -2.1351e+001 51470 84275,84327,84301
 2.2000e+000 84448 -3.7716e+001 -1.7032e+002 -5.8017e-001 51470 84327,84275,84422
 2.2000e+000 84471 -3.5044e+001 -1.7157e+002 -4.3460e-001 51470 84327,84422,84223
 2.2000e+000 84753 -5.7950e+001 -1.6132e+002 -2.2162e+000 51073 84603,84655,84629
 2.2000e+000 84730 -1.1556e+002 -1.8674e+002 -8.4106e+000 51073 84776,84655,84603
 2.2000e+000 84707 -2.7497e+001 -1.5722e+002 -4.3746e+001 51073 84577,84681,84655
 2.2000e+000 84802 -7.1321e+001 -1.6203e+002 -2.1798e+001 51073 84577,84655,84776
 2.2000e+000 85178 -9.6626e+001 -2.0970e+002  2.0681e+001 50519 85201,85008,84982
 2.2000e+000 85155 -9.1313e+001 -1.9489e+002  1.6750e+001 50519 85273,85201,84982
 2.2000e+000 85132 -8.5375e+001 -1.9470e+002  1.2991e+001 50519 85273,84982,84930
 2.2000e+000 85109 -8.1158e+001 -1.8971e+002  1.1161e+001 50519 84930,84982,84956
 2.2000e+000 85086 -8.4471e+001 -2.0309e+002  1.3259e+001 50519 85008,85060,85034
 2.2000e+000 85227 -8.1151e+001 -2.0008e+002  1.1069e+001 50519 85060,85008,85201
 2.2000e+000 85250 -9.0205e+001 -2.0404e+002  8.1518e+000 50519 85060,85201,84904
 2.2000e+000 85299 -8.5257e+001 -1.9812e+002  5.4034e+000 50519 84904,85201,85273
 2.2000e+000 85322 -6.3676e+001 -1.7026e+002 -4.2295e+000 50519 84904,85273,84930
 2.2000e+000 85958 -4.5660e+001 -1.6637e+002 -4.4994e+000 50093 85981,85768,85716
 2.2000e+000 85935 -4.0218e+001 -1.5242e+002 -5.2511e+000 50093 85981,85716,85612
 2.2000e+000 85912 -5.1658e+001 -1.4736e+002 -4.6928e-002 50093 85612,85716,85664
 2.2000e+000 85889 -3.2766e+001 -1.6273e+002 -8.7700e-001 50093 85716,85768,85742
 2.2000e+000 85866 -5.3779e+001 -1.2621e+002 -2.5502e+001 50093 85664,85716,85690
 2.2000e+000 85843  2.4693e+001 -1.0836e+002 -1.2744e+001 50093 85586,85794,85612
 2.2000e+000 85820 -3.4346e+001 -2.1183e+002  1.3342e+001 50093 85612,85664,85638
 2.2000e+000 86007 -5.6085e+001 -1.7778e+002 -2.4063e+001 50093 85794,85768,85981
 2.2000e+000 86030 -3.9508e+001 -1.3793e+002 -1.9936e+001 50093 85794,85981,85612
 2.2000e+000 86131 -5.8975e+001 -1.9558e+002  2.5777e+001 49895 86053,86105,86079
 2.2000e+000 86639 -2.3486e+001 -1.1852e+002 -1.4657e+001 49391 86662,86394,86368
 2.2000e+000 86616 -2.7423e+001 -1.3918e+002 -1.0001e+001 49391 86662,86368,86342
 2.2000e+000 86593 -3.4370e+000 -1.2931e+002  8.5803e+000 49391 86342,86498,86472
 2.2000e+000 86570  2.5936e+001 -1.4797e+002  9.9198e+000 49391 86316,86498,86342
 2.2000e+000 86547 -6.4461e+001 -2.0961e+002 -1.2618e+000 49391 86394,86472,86446
 2.2000e+000 86524  1.2663e+001 -2.0577e+002  8.0890e+000 49391 86394,86446,86420
 2.2000e+000 86688 -3.3828e+001 -1.3751e+002 -5.9985e+000 49391 86472,86394,86662
 2.2000e+000 86711 -2.5237e+001 -1.4585e+002 -4.1764e+000 49391 86472,86662,86342
 2.2000e+000 87089 -5.7984e+001 -1.7077e+002  5.1143e+000 48987 86815,86919,86867
 2.2000e+000 87066 -5.9577e+001 -1.7345e+002  6.3859e+000 48987 86815,86971,86919
 2.2000e+000 87043 -2.5537e+001 -1.8885e+002 -1.5207e+001 48987 86867,86919,86893
 2.2000e+000 87020 -6.4426e+001 -1.9018e+002  1.9724e+001 48987 86815,86867,86841
 2.2000e+000 86997 -7.0124e+001 -1.5475e+002  2.4615e+001 48987 86919,86971,86945
 2.2000e+000 87467 -1.1177e+002 -1.6689e+002  8.5373e+000 48540 87490,87245,87219
 2.2000e+000 87444 -8.4517e+001 -1.5830e+002  2.2448e+000 48540 87562,87490,87219
 2.2000e+000 87421 -6.1197e+001 -1.4879e+002  8.3133e+000 48540 87562,87219,87349
 2.2000e+000 87398 -9.0832e+001 -1.3470e+002 -1.8107e+000 48540 87245,87297,87271
 2.2000e+000 87375 -4.8801e+001 -1.6219e+002  4.5974e+000 48540 87193,87349,87219
 2.2000e+000 87516 -8.0934e+001 -1.5708e+002  6.6004e+000 48540 87297,87245,87490
 2.2000e+000 87539 -8.6686e+001 -1.6333e+002  1.1407e+001 48540 87297,87490,87323
 2.2000e+000 87588 -6.2239e+001 -1.5002e+002  1.7802e+001 48540 87323,87490,87562
 2.2000e+000 87611 -5.0694e+001 -1.5170e+002  2.1724e+001 48540 87323,87562,87349
 2.2000e+000 87810 -8.3959e+001 -3.0157e+002 -2.2266e+001 48136 87660,87712,87686
 2.2000e+000 87787 -4.9051e+001 -1.8439e+002 -1.1894e+001 48136 87660,87738,87712
 2.2000e+000 87764 -1.1592e+002 -1.8958e+002 -3.4581e+001 48136 87634,87738,87660
 2.2000e+000 88205 -6.6678e+001 -1.8288e+002 -1.4763e+001 47210 88300,88228,87937
 2.2000e+000 88182 -5.9004e+001 -1.8225e+002 -3.4791e+000 47210 88228,87833,88041
 2.2000e+000 88159 -6.7162e+001 -1.9430e+002 -2.4150e+001 47210 88300,87937,87911
 2.2000e+000 88136 -6.3087e+001 -1.8128e+002 -2.0044e+001 47210 87833,87911,87859
 2.2000e+000 88113 -1.1144e+002 -1.5083e+002 -1.2697e+001 47210 87937,87989,87963
 2.2000e+000 88090 -6.6147e+001 -1.5333e+002  3.7167e+001 47210 87989,88041,88015
 2.2000e+000 88067 -7.3307e+001 -2.0685e+002 -2.5499e+001 47210 87859,87911,87885
 2.2000e+000 88254 -6.0069e+001 -1.4515e+002 -1.7782e+001 47210 87989,87937,88228
 2.2000e+000 88277 -7.9402e+001 -1.7435e+002 -5.0092e+000 47210 87989,88228,88041
 2.2000e+000 88326 -5.3386e+001 -1.7121e+002 -5.8885e+000 47210 87833,88228,88300
 2.2000e+000 88349 -5.6287e+001 -1.7924e+002 -1.5837e+001 47210 87833,88300,87911
 2.2000e+000 88780 -1.2328e+002 -2.1371e+002 -3.9263e+001 46642 88803,88509,88483
 2.2000e+000 88757 -9.1245e+001 -1.9311e+002 -2.0132e+001 46642 88803,88483,88639
 2.2000e+000 88734 -9.9762e+001 -1.5885e+002 -2.4636e+001 46642 88875,88561,88509
 2.2000e+000 88711 -9.8569e+001 -1.4695e+002 -5.4668e+000 46642 88509,88561,88535
 2.2000e+000 88688 -6.0494e+001 -2.1426e+002  1.7344e+000 46642 88457,88639,88483
 2.2000e+000 88665 -1.1446e+002 -2.5151e+002 -9.7032e+000 46642 88561,88613,88587
 2.2000e+000 88829 -1.0000e+002 -1.7305e+002 -2.7671e+001 46642 88875,88509,88803
 2.2000e+000 88852 -9.8566e+001 -2.0537e+002 -1.6924e+001 46642 88613,88803,88639
 2.2000e+000 88901 -8.3839e+001 -1.7827e+002 -1.2894e+001 46642 88613,88561,88875
 2.2000e+000 88924 -9.0522e+001 -2.0123e+002 -1.5370e+001 46642 88613,88875,88803
 2.2000e+000 89253 -3.6303e+001 -1.8549e+002 -4.0780e-001 46444 89080,89158,89132
 2.2000e+000 89230 -3.7705e+001 -1.8777e+002 -2.7504e+000 46444 89028,89158,89080
 2.2000e+000 89207 -1.4720e+001 -1.7300e+002 -9.5949e+000 46444 89028,89080,89054
 2.2000e+000 89184 -1.8243e+001 -1.9501e+002 -1.4133e+001 46444 89080,89132,89106
 2.2000e+000 89631 -2.7675e+001 -1.1221e+002  4.2990e+000 46040 89383,89461,89435
 2.2000e+000 89608 -3.2472e+001 -1.2806e+002 -3.8683e+000 46040 89383,89487,89461
 2.2000e+000 89585 -3.2381e+001 -1.4510e+002 -2.5943e+000 46040 89383,89435,89409
 2.2000e+000 89562 -2.9825e+001 -1.1303e+002 -1.0179e+001 46040 89383,89513,89487
 2.2000e+000 89539  1.3797e+001 -8.6154e+001 -3.5112e+001 46040 89357,89513,89383
 2.2000e+000 90009 -4.0932e+001 -1.4985e+002  6.1724e-001 45636 89813,89891,89839
 2.2000e+000 89986 -4.2859e+001 -1.4045e+002  9.6728e+000 45636 89787,89891,89813
 2.2000e+000 89963 -3.7163e+001 -1.3983e+002 -2.6705e+000 45636 89839,89891,89865
 2.2000e+000 89940 -5.3709e+001 -1.5648e+002  4.9612e+000 45636 89735,89891,89787
 2.2000e+000 89917 -4.2724e+001 -1.5659e+002 -4.3846e+000 45636 89735,89787,89761
 2.2000e+000 90208 -3.1342e+001 -1.1960e+002 -2.6377e+001 45175 90231,90058,90032
 2.2000e+000 90185 -1.4649e+001 -1.0739e+002 -4.0435e+001 45175 90231,90032,90136
 2.2000e+000 90162 -4.1073e+001 -9.4309e+001 -1.0871e+000 45175 90058,90110,90084
 2.2000e+000 90257 -4.9877e+001 -1.3705e+002 -5.4426e+000 45175 90110,90058,90231
 2.2000e+000 90280 -1.8041e+001 -1.1576e+002 -2.1129e+001 45175 90110,90231,90136
 2.2000e+000 90528 -3.1475e+001 -1.1502e+002 -1.2751e+001 44513 90695,90551,90407
 2.2000e+000 90505 -3.8711e+001 -1.1051e+002 -5.5953e+000 44513 90551,90355,90329
 2.2000e+000 90482 -4.3473e+001 -1.0116e+002 -8.7549e+000 44513 90623,90303,90433
 2.2000e+000 90459 -1.9672e+001 -1.0831e+002 -1.0064e+001 44513 90695,90407,90381
 2.2000e+000 90577 -4.9852e+001 -1.2143e+002 -2.1573e+001 44513 90433,90407,90551
 2.2000e+000 90600 -4.1771e+001 -1.0959e+002 -9.1611e+000 44513 90623,90433,90551
 2.2000e+000 90649 -4.7875e+001 -1.1061e+002 -7.1493e+000 44513 90329,90303,90623
 2.2000e+000 90672 -4.4602e+001 -1.1387e+002 -7.8631e+000 44513 90329,90623,90551
 2.2000e+000 90721 -4.3618e+001 -1.0721e+002 -1.3721e+001 44513 90355,90551,90695
 2.2000e+000 90744 -3.9063e+001 -1.0554e+002 -1.2948e+001 44513 90355,90695,90381
 2.2000e+000 91077  1.2983e+001 -1.0341e+002  2.1485e+001 44059 91100,90930,90904
 2.2000e+000 91054 -5.3438e+001 -1.3772e+002  8.2709e+000 44059 91100,90904,90982
 2.2000e+000 91031 -7.1299e+001 -1.3838e+002 -4.0974e-001 44059 90878,90982,90904
 2.2000e+000 91008 -2.0159e+001 -1.1571e+002  5.7221e+000 44059 90852,90982,90878
 2.2000e+000 91126 -9.5949e+001 -1.3752e+002  6.1132e+000 44059 91172,91100,90956
 2.2000e+000 91149 -4.9568e+001 -1.3013e+002  2.1743e+000 44059 90956,91100,90982
 2.2000e+000 91198 -1.4534e+001 -1.0266e+002 -1.8824e+001 44059 90930,91100,91172
 2.2000e+000 91677 -7.1540e+001 -1.1193e+002  9.7595e+000 43549 91455,91533,91481
 2.2000e+000 91654 -3.2096e+001 -1.0979e+002  1.4572e+001 43549 91429,91533,91455
 2.2000e+000 91631 -6.7197e+001 -1.0729e+002  4.1669e+000 43549 91481,91533,91507
 2.2000e+000 91608 -1.7929e+001 -1.0395e+002  7.3239e+000 43549 91429,91559,91533
 2.2000e+000 91585 -3.0147e+000 -3.8026e+001  1.3039e+000 43549 91403,91559,91429
 2.2000e+000 92006 -5.4829e+001 -1.5831e+002  6.8323e+000 43059 91781,91885,91807
 2.2000e+000 91983 -5.5708e+001 -1.4487e+002  3.1141e+001 43059 91781,91911,91885
 2.2000e+000 91960 -4.7772e+001 -1.5387e+002  4.9415e+000 43059 91807,91885,91833
 2.2000e+000 91937 -2.2063e+001 -1.4409e+002  1.1082e+000 43059 91833,91885,91859
 2.2000e+000 92561 -5.4538e+001 -1.1769e+002 -1.3088e+001 42598 92584,92215,92189
 2.2000e+000 92538 -5.8031e+001 -1.3351e+002 -1.3232e+001 42598 92656,92584,92189
 2.2000e+000 92515 -4.9978e+001 -1.5154e+002 -4.0428e+000 42598 92656,92189,92397
 2.2000e+000 92492 -6.4205e+001 -1.0213e+002 -1.4877e+001 42598 92241,92319,92293
 2.2000e+000 92469 -6.0035e+001 -1.2780e+002  7.6027e+000 42598 92319,92397,92371
 2.2000e+000 92446 -2.6380e+001 -1.5566e+002  5.7529e+001 42598 92319,92371,92345
 2.2000e+000 92423 -6.8008e+001 -1.0907e+002 -2.4731e+001 42598 92241,92293,92267
 2.2000e+000 92610 -5.5875e+001 -1.1772e+002 -1.2308e+001 42598 92241,92215,92584
 2.2000e+000 92633 -5.1504e+001 -1.0801e+002 -1.6003e+001 42598 92241,92584,92319
 2.2000e+000 92682 -5.0368e+001 -1.0891e+002 -8.7697e+000 42598 92319,92584,92656
 2.2000e+000 92705 -3.9040e+001 -1.2178e+002 -1.7407e+000 42598 92319,92656,92397
 2.2000e+000 92953 -5.4093e+001 -1.7107e+002  1.3886e+001 42094 92976,92806,92780
 2.2000e+000 92930 -6.1766e+001 -1.5898e+002  3.7106e+000 42094 92976,92780,92754
 2.2000e+000 92907  3.8735e+000 -1.6703e+002  1.7747e+000 42094 93048,92832,92806
 2.2000e+000 92884 -8.5789e+001 -1.5179e+002 -1.0923e+001 42094 92728,92858,92754
 2.2000e+000 93002 -2.7305e+001 -1.5593e+002  7.8253e+000 42094 93048,92806,92976
 2.2000e+000 93025 -5.5435e+001 -1.5476e+002 -2.1746e+000 42094 92858,92976,92754
 2.2000e+000 93074 -3.8686e+001 -1.8452e+002 -1.1612e+000 42094 92858,92832,93048
 2.2000e+000 93097 -6.4931e+001 -1.7123e+002  2.5779e+000 42094 92858,93048,92976
 2.2000e+000 93605 -6.3485e+001 -1.9488e+002 -4.3563e+000 41846 93628,93412,93386
 2.2000e+000 93582 -5.3465e+001 -1.5154e+002 -1.0756e+000 41846 93628,93386,93308
 2.2000e+000 93559 -7.1043e+001 -1.5215e+002 -1.9340e+001 41846 93700,93464,93438
 2.2000e+000 93536 -7.9226e+001 -1.8949e+002  1.1673e+001 41846 93308,93386,93334
 2.2000e+000 93513 -7.8711e+001 -1.8573e+002  9.9348e+000 41846 93334,93386,93360
 2.2000e+000 93490 -6.9091e+001 -1.2306e+002 -1.4432e+001 41846 93282,93464,93308
 2.2000e+000 93654 -5.1928e+001 -1.5849e+002 -1.2178e+001 41846 93438,93412,93628
 2.2000e+000 93677 -7.1512e+001 -1.5406e+002 -9.9643e+000 41846 93700,93438,93628
 2.2000e+000 93726 -6.6767e+001 -1.4060e+002 -1.8190e+001 41846 93308,93464,93700
 2.2000e+000 93749 -6.5628e+001 -1.3882e+002 -8.9265e+000 41846 93308,93700,93628
 2.2000e+000 94255 -4.1853e+001 -1.5886e+002  1.3337e+001 41385 93958,94114,94088
 2.2000e+000 94232 -3.3314e+001 -1.7140e+002  7.1717e+000 41385 93932,94114,93958
 2.2000e+000 94209 -8.2909e+001 -1.8663e+002  3.5852e+001 41385 93958,94088,94062
 2.2000e+000 94186 -9.2784e+001 -1.2897e+002  2.8300e+001 41385 93958,94062,93984
 2.2000e+000 94163 -7.3627e+001 -1.2634e+002  2.3821e+001 41385 93984,94062,94036
 2.2000e+000 94140 -5.0851e+001 -1.7154e+002  3.2667e+001 41385 93984,94036,94010
 2.2000e+000 94476  3.7944e+000 -2.2611e+002  1.9653e+001 40881 94326,94378,94352
 2.2000e+000 94453 -2.7897e+001 -1.8240e+002  1.8973e+001 40881 94300,94378,94326
 2.2000e+000 94430 -3.4680e+001 -1.6377e+002  2.7139e+000 40881 94300,94404,94378
 2.2000e+000 94626 -4.8150e+001 -1.2110e+002  5.2315e+000 40591 94649,94551,94525
 2.2000e+000 94603 -8.7614e+000 -9.2337e+001  1.5082e+000 40591 94781,94577,94551
 2.2000e+000 94675 -2.4796e+000 -9.7164e+001 -7.4404e+000 40591 94781,94551,94649
 2.2000e+000 94807  6.1188e+000 -8.4592e+001  4.3173e+000 40591 94499,94577,94781
 2.2000e+000 94830  1.1127e+001 -9.0976e+001 -5.8421e+000 40591 94499,94781,94649
 2.2000e+000 95336 -9.8975e+001 -1.4423e+002 -2.1562e+001 40187 95013,95169,95039
 2.2000e+000 95313 -5.0538e+001 -1.3276e+002 -1.1089e+001 40187 95013,95195,95169
 2.2000e+000 95290 -3.8634e+001 -1.4895e+002  5.0318e+000 40187 95039,95143,95065
 2.2000e+000 95267 -1.0752e+002 -1.7230e+002 -2.9842e+001 40187 95039,95169,95143
 2.2000e+000 95244 -7.8481e+001 -2.0492e+002 -1.4389e+001 40187 95091,95143,95117
 2.2000e+000 95221 -3.4198e+001 -1.3990e+002  7.4553e+000 40187 95065,95143,95091
 2.2000e+000 95665 -5.5752e+001 -1.3234e+002  2.1853e+001 39626 95466,95570,95544
 2.2000e+000 95642 -6.7523e+001 -1.1614e+002  1.5711e+001 39626 95440,95570,95466
 2.2000e+000 95619 -4.9050e+001 -1.3276e+002  8.4725e+000 39626 95466,95544,95492
 2.2000e+000 95596 -8.7913e+001 -1.2875e+002  7.6662e+000 39626 95492,95544,95518
 2.2000e+000 95913 -5.5921e+001 -1.3421e+002 -1.8873e+001 39136 96080,95936,95766
 2.2000e+000 95890 -3.9209e+001 -1.4657e+002 -9.7521e+000 39136 95936,95714,95688
 2.2000e+000 95867 -1.0343e+002 -1.4508e+002  8.3539e+000 39136 96008,95792,95766
 2.2000e+000 95844 -4.5011e+001 -1.3005e+002 -1.5729e+001 39136 96080,95766,95740
 2.2000e+000 95962 -8.0288e+001 -1.5133e+002 -1.1135e+001 39136 96008,95766,95936
 2.2000e+000 95985 -4.9945e+001 -1.7958e+002 -8.2110e-001 39136 95818,95936,95688
 2.2000e+000 96034 -4.7090e+001 -1.2046e+002  1.2878e+001 39136 95818,95792,96008
 2.2000e+000 96057 -4.1034e+001 -1.3307e+002 -6.4221e+000 39136 95818,96008,95936
 2.2000e+000 96106 -5.1387e+001 -1.3585e+002 -3.2672e+000 39136 95714,95936,96080
 2.2000e+000 96129 -3.3354e+001 -1.2979e+002 -1.3116e+000 39136 95714,96080,95740
 2.2000e+000 96350 -4.1018e+001 -1.2088e+002 -4.3976e+000 38824 96200,96278,96252
 2.2000e+000 96327 -4.6962e+001 -1.2248e+002 -3.9872e+000 38824 96174,96278,96200
 2.2000e+000 96304 -4.0943e+001 -1.2458e+002 -4.1367e+000 38824 96200,96252,96226
 2.2000e+000 96830 -7.6875e+001 -1.3365e+002 -1.2086e+001 38320 97069,96536,96484
 2.2000e+000 96807 -7.5601e+001 -1.3563e+002 -1.1957e+001 38320 97069,96484,96853
 2.2000e+000 96784 -8.3764e+001 -1.4711e+002  2.8777e+000 38320 96853,96484,96458
 2.2000e+000 96761 -4.4012e+001 -1.1335e+002 -1.4067e+001 38320 96925,96640,96614
 2.2000e+000 96738 -7.0580e+001 -1.1747e+002 -4.9250e+000 38320 96997,96666,96640
 2.2000e+000 96715 -6.1379e+001 -1.5720e+002 -4.6341e+000 38320 97141,96588,96562
 2.2000e+000 96692 -9.6837e+001 -1.5494e+002 -3.2240e+000 38320 96484,96536,96510
 2.2000e+000 96879 -7.4368e+001 -1.4293e+002 -6.4645e+000 38320 97141,96562,96853
 2.2000e+000 96902 -6.7516e+001 -1.3929e+002 -4.1627e+000 38320 96925,96614,96853
 2.2000e+000 96951 -6.9496e+001 -1.1654e+002 -5.6017e+000 38320 96997,96640,96925
 2.2000e+000 96974 -6.6496e+001 -1.1535e+002 -3.7479e+000 38320 96458,96925,96853
 2.2000e+000 97023 -7.5577e+001 -1.1866e+002 -2.2889e+000 38320 96458,96666,96997
 2.2000e+000 97046 -7.1660e+001 -1.1664e+002 -3.0501e+000 38320 96458,96997,96925
 2.2000e+000 97095 -8.1666e+001 -1.3223e+002 -1.8871e+000 38320 96562,96536,97069
 2.2000e+000 97118 -7.1686e+001 -1.3456e+002 -1.0326e+001 38320 96562,97069,96853
 2.2000e+000 97167 -3.8315e+001 -1.4429e+002 -1.0658e+001 38320 96614,96588,97141
 2.2000e+000 97190 -5.9846e+001 -1.3622e+002 -1.0840e+001 38320 96614,97141,96853
 2.2000e+000 97519 -5.5546e+001 -1.4511e+002  3.4117e+001 37766 97542,97398,97372
 2.2000e+000 97496 -7.4755e+001 -1.2873e+002  1.8162e+001 37766 97542,97372,97346
 2.2000e+000 97473 -6.6656e+001 -1.3971e+002  2.6286e+000 37766 97294,97424,97346
 2.2000e+000 97450 -7.5980e+001 -1.6789e+002 -9.0112e-001 37766 97294,97346,97320
 2.2000e+000 97568 -2.4103e+001 -1.3819e+002  2.5521e+001 37766 97424,97398,97542
 2.2000e+000 97591 -5.2174e+001 -1.2268e+002  1.0041e+001 37766 97424,97542,97346
 2.2000e+000 98048 -6.2854e+001 -1.0264e+002 -3.3928e+001 37262 98071,97878,97852
 2.2000e+000 98025 -5.1080e+001 -1.2200e+002 -1.3264e+001 37262 98071,97852,97800
 2.2000e+000 98002 -6.4609e+001 -1.4929e+002 -8.7690e+000 37262 97800,97852,97826
 2.2000e+000 97979 -6.6356e+001 -1.2992e+002  4.1401e+000 37262 97800,97930,97904
 2.2000e+000 97956 -4.5522e+001 -1.5518e+002  1.0390e+001 37262 97774,97930,97800
 2.2000e+000 98097 -9.6241e+001 -1.1819e+002 -2.6921e+001 37262 97904,97878,98071
 2.2000e+000 98120 -6.8409e+001 -1.3547e+002 -7.1700e+000 37262 97904,98071,97800
 2.2000e+000 98449 -1.7879e+001 -8.3615e+001 -1.3641e+001 36950 98472,98302,98250
 2.2000e+000 98426 -1.9340e+000 -7.8385e+001 -1.6677e+001 36950 98472,98250,98354
 2.2000e+000 98403 -4.2577e+001 -9.7837e+001  1.6395e+001 36950 98250,98302,98276
 2.2000e+000 98380 -3.4234e+000 -5.5695e+001  1.4210e+001 36950 98224,98354,98250
 2.2000e+000 98498 -6.0595e+000 -9.6947e+001 -4.1649e+000 36950 98328,98302,98472
 2.2000e+000 98521  1.2700e+001 -8.9091e+001 -9.8811e+000 36950 98328,98472,98354
 2.2000e+000 99125 -9.1498e+001 -9.1132e+001  1.1519e+001 36296 98704,98756,98730
 2.2000e+000 99102 -6.4600e+001 -9.9547e+001  1.7238e+000 36296 98704,98938,98756
 2.2000e+000 99079 -4.6894e+001 -1.0838e+002 -3.1275e+000 36296 99148,98938,98912
 2.2000e+000 99056 -5.2573e+001 -1.0764e+002  2.0588e+001 36296 99292,99220,98782
 2.2000e+000 99033 -4.1015e+001 -1.1617e+002  8.7009e-001 36296 99148,98912,98834
 2.2000e+000 99010 -4.6915e+001 -9.1080e+001  2.0564e+001 36296 99292,98782,98756
 2.2000e+000 98987 -3.9183e+001 -2.0493e+002 -4.0202e+001 36296 98834,98912,98886
 2.2000e+000 98964 -7.1512e+001 -2.9664e+002 -5.1812e+001 36296 98834,98886,98860
 2.2000e+000 99174 -5.5869e+001 -1.2494e+002  1.3150e+000 36296 99220,98938,99148
 2.2000e+000 99197 -4.0431e+001 -1.3861e+002  1.1765e+001 36296 98808,99148,98834
 2.2000e+000 99246 -4.6395e+001 -9.3036e+001  5.2645e+001 36296 98808,98782,99220
 2.2000e+000 99269 -1.9478e+001 -9.2015e+001  1.6169e+001 36296 98808,99220,99148
 2.2000e+000 99318 -4.9227e+001 -8.8979e+001  8.7738e+000 36296 98938,99220,99292
 2.2000e+000 99341 -5.0610e+001 -9.1984e+001  9.6237e+000 36296 98938,99292,98756
 2.2000e+000 99719 -6.4223e+001 -1.5571e+002  4.4870e+000 35742 99742,99471,99601
 2.2000e+000 99696 -6.6737e+001 -1.1773e+002  2.1550e+001 35742 99445,99601,99471
 2.2000e+000 99673 -6.0118e+001 -1.4637e+002 -5.3158e+000 35742 99742,99601,99575
 2.2000e+000 99650 -4.6638e+001 -1.8696e+002 -3.0546e+000 35742 99814,99549,99523
 2.2000e+000 99627 -3.9379e+001 -1.4363e+002  4.5795e+000 35742 99471,99523,99497
 2.2000e+000 99768 -4.5726e+001 -1.5075e+002  7.2885e+000 35742 99523,99471,99742
 2.2000e+000 99791 -5.8452e+001 -1.6973e+002 -2.4968e+000 35742 99814,99523,99742
 2.2000e+000 99840 -4.2191e+001 -1.6648e+002 -9.6670e+000 35742 99575,99549,99814
 2.2000e+000 99863 -5.0714e+001 -1.4446e+002 -8.7923e+000 35742 99575,99814,99742
 2.2000e+000 100111 -4.4451e+001 -1.2217e+002  1.3929e+001 35302 100134,99990,99938
 2.2000e+000 100088 -3.3435e+001 -1.0730e+002  7.5989e+000 35302 100134,99938,99912
 2.2000e+000 100065 -3.4841e+001 -1.0846e+002 -4.0123e-001 35302 100206,99886,100016
 2.2000e+000 100042 -5.9409e+001 -1.1487e+002  1.0917e+001 35302 99938,99990,99964
 2.2000e+000 100160 -2.9662e+001 -1.1655e+002  5.5876e+000 35302 100016,99990,100134
 2.2000e+000 100183 -3.0518e+001 -1.1095e+002 -6.0829e-002 35302 100206,100016,100134
 2.2000e+000 100232 -4.0342e+001 -1.1140e+002  7.0270e-001 35302 99912,99886,100206
 2.2000e+000 100255 -3.5667e+001 -1.1394e+002  1.1868e+000 35302 99912,100206,100134
 2.2000e+000 100586 -3.7205e+001 -8.2025e+001 -4.6709e-001 35012 100609,100387,100361
 2.2000e+000 100563 -3.7395e+001 -8.8552e+001  3.0846e+000 35012 100609,100361,100465
 2.2000e+000 100540 -5.8872e+001 -1.0981e+002  1.2671e+001 35012 100361,100491,100465
 2.2000e+000 100517 -3.1908e+001 -8.8153e+001  1.1888e+001 35012 100413,100465,100439
 2.2000e+000 100635 -3.9083e+001 -8.3149e+001  6.3522e+000 35012 100413,100387,100609
 2.2000e+000 100658 -4.0714e+001 -9.3134e+001  9.7564e+000 35012 100413,100609,100465
 2.2000e+000 100987 -5.3996e+001 -1.1262e+002  8.1200e+000 34700 100788,100866,100814
 2.2000e+000 100964 -4.3658e+001 -1.0472e+002  1.1708e+001 34700 101010,100866,100788
 2.2000e+000 100941 -4.5668e+001 -1.1071e+002  2.1797e+001 34700 100762,100892,100866
 2.2000e+000 100918 -5.9482e+001 -1.2207e+002 -2.2002e+000 34700 100814,100866,100840
 2.2000e+000 101036 -3.5736e+001 -9.9553e+001  1.5584e+001 34700 100762,100866,101010
 2.2000e+000 101493 -7.1291e+001 -1.4170e+002 -8.7158e+000 34132 101516,101349,101297
 2.2000e+000 101470 -9.0380e+001 -1.7613e+002 -1.8285e+001 34132 101588,101516,101297
 2.2000e+000 101447 -9.0188e+001 -1.8548e+002 -2.9798e+001 34132 101588,101297,101245
 2.2000e+000 101424 -5.4591e+001 -2.1599e+002 -2.8065e+001 34132 101245,101297,101271
 2.2000e+000 101401 -7.7275e+001 -1.4148e+002 -1.1762e+001 34132 101297,101349,101323
 2.2000e+000 101542 -7.0507e+001 -1.6924e+002 -6.9774e+000 34132 101375,101349,101516
 2.2000e+000 101565 -6.5868e+001 -1.7231e+002 -9.3177e+000 34132 101375,101516,101219
 2.2000e+000 101614 -6.8620e+001 -1.7614e+002 -8.0386e+000 34132 101219,101516,101588
 2.2000e+000 101637 -7.9386e+001 -1.8590e+002 -1.8906e+001 34132 101219,101588,101245
 2.2000e+000 101858 -1.4081e+001 -1.3421e+002  9.0704e+000 33720 101708,101786,101760
 2.2000e+000 101835 -3.4207e+001 -1.5754e+002 -2.6383e-001 33720 101682,101786,101708
 2.2000e+000 101812 -4.2057e+001 -1.4742e+002  5.0940e+000 33720 101708,101760,101734
 2.2000e+000 102128  7.6148e-001 -1.5037e+002 -5.9705e+000 33130 101903,102007,101929
 2.2000e+000 102105 -4.0559e+000 -1.7896e+002  5.8746e+000 33130 101903,102033,102007
 2.2000e+000 102082  1.2544e+001 -1.8450e+002 -4.2451e+001 33130 101929,102007,101955
 2.2000e+000 102059 -1.3451e+001 -1.2371e+002  2.1982e+000 33130 101955,102007,101981
 2.2000e+000 102461 -5.7114e+001 -1.4633e+002 -1.2048e+001 32840 102236,102340,102262
 2.2000e+000 102438 -4.7829e+001 -1.0436e+002  2.8760e+000 32840 102236,102366,102340
 2.2000e+000 102415 -3.1406e+001 -1.3805e+002 -1.1563e+001 32840 102262,102340,102288
 2.2000e+000 102392 -7.5410e+001 -1.4898e+002 -3.2155e+001 32840 102288,102340,102314
 2.2000e+000 102997 -5.0290e+001 -8.4876e+001  2.3666e+001 32493 102749,102879,102853
 2.2000e+000 102974 -4.0765e+001 -6.6631e+001  1.6074e+001 32493 102723,102879,102749
 2.2000e+000 102951 -6.0451e+001 -1.0510e+002  1.5878e+001 32493 102749,102801,102775
 2.2000e+000 102928 -6.4020e+001 -1.0346e+002  1.4780e+001 32493 102749,102853,102801
 2.2000e+000 102905 -6.0968e+001 -9.6325e+001  1.4482e+001 32493 102801,102853,102827
 2.2000e+000 103454 -6.6373e+001 -1.2455e+002 -6.3336e+000 32089 103206,103336,103310
 2.2000e+000 103431 -5.6492e+001 -1.2372e+002  4.6634e-001 32089 103180,103336,103206
 2.2000e+000 103408 -7.0663e+001 -1.4090e+002 -2.0267e+001 32089 103206,103284,103258
 2.2000e+000 103385 -9.6731e+001 -1.4677e+002 -2.2222e+001 32089 103206,103310,103284
 2.2000e+000 103362 -6.1710e+001 -1.0988e+002  6.3274e+000 32089 103206,103258,103232
 2.2000e+000 103783 -9.9583e+001 -1.4965e+002 -1.4323e+001 31742 103558,103662,103584
 2.2000e+000 103760 -8.8277e+001 -1.3415e+002 -2.9032e+001 31742 103558,103688,103662
 2.2000e+000 103737 -6.9708e+001 -1.2610e+002 -2.5875e+001 31742 103584,103662,103636
 2.2000e+000 103714 -3.8290e+001 -1.4354e+002 -4.3523e+001 31742 103584,103636,103610
 2.2000e+000 104112 -8.0225e+000 -1.2303e+002  2.8773e+001 31402 103939,103991,103965
 2.2000e+000 104089 -3.6255e+001 -1.1036e+002  1.2930e+001 31402 103913,103991,103939
 2.2000e+000 104066 -5.1832e+001 -1.2547e+002  4.7990e+000 31402 103913,104017,103991
 2.2000e+000 104043 -5.9091e+001 -1.0764e+002 -1.5750e+000 31402 103887,104017,103913
 2.2000e+000 104569 -9.5664e+001 -1.8028e+002  8.1953e-001 30998 104321,104425,104373
 2.2000e+000 104546 -1.0716e+002 -1.8370e+002 -9.4802e-001 30998 104321,104451,104425
 2.2000e+000 104523 -8.7875e+001 -1.5814e+002  1.4043e+001 30998 104373,104425,104399
 2.2000e+000 104500 -9.6176e+001 -1.9460e+002 -6.3344e+000 30998 104295,104451,104321
 2.2000e+000 104477 -1.3552e+002 -2.2717e+002  3.4385e+001 30998 104321,104373,104347
 2.2000e+000 104947 -8.8359e+001 -1.4268e+002 -1.9863e+001 30608 104751,104803,104777
 2.2000e+000 104924 -5.7013e+001 -1.4687e+002 -8.2336e+000 30608 104725,104803,104751
 2.2000e+000 104901 -8.2707e+001 -1.4151e+002  6.1368e+000 30608 104699,104803,104725
 2.2000e+000 104878 -8.2789e+001 -1.4260e+002  7.6523e+000 30608 104673,104803,104699
 2.2000e+000 104855 -6.5649e+001 -1.3869e+002 -6.8927e+000 30608 104673,104829,104803
 2.2000e+000 105276 -4.9749e+001 -1.2633e+002  1.2463e+001 30204 105427,105129,105077
 2.2000e+000 105253 -2.3464e+001 -1.2985e+002  4.0750e+001 30204 105427,105077,105051
 2.2000e+000 105230 -3.9558e+001 -1.3391e+002  7.2332e+000 30204 105077,105129,105103
 2.2000e+000 105207 -9.3210e+001 -1.1564e+002  1.3070e+001 30204 105299,105181,105155
 2.2000e+000 105325 -7.3145e+001 -1.0634e+002  1.0130e+001 30204 105129,105181,105299
 2.2000e+000 105453 -6.5300e+001 -1.3389e+002  1.5994e+001 30204 105181,105129,105427
 2.2000e+000 105476 -7.3469e+001 -1.5274e+002  4.7054e+001 30204 105181,105427,105051
 2.2000e+000 105903 -1.9596e+001 -1.0499e+002 -9.2349e+000 29700 105606,105762,105736
 2.2000e+000 105880 -4.1188e+001 -1.1021e+002  3.3171e+000 29700 105580,105762,105606
 2.2000e+000 105857 -5.3975e+001 -1.3447e+002 -5.2354e+000 29700 105606,105710,105632
 2.2000e+000 105834 -4.3638e+001 -1.2121e+002  7.5204e-003 29700 105606,105736,105710
 2.2000e+000 105811 -5.8757e+001 -1.3439e+002 -2.5441e+000 29700 105632,105710,105684
 2.2000e+000 105788 -5.3550e+001 -1.2168e+002  7.9314e+000 29700 105632,105684,105658
 2.2000e+000 106102 -3.1497e+001 -1.4681e+002  1.8629e+000 29124 105978,106030,106004
 2.2000e+000 106079 -5.0057e+001 -1.5413e+002 -1.6205e+000 29124 105926,106030,105978
 2.2000e+000 106056 -4.5842e+001 -1.5699e+002  1.6189e+001 29124 105926,105978,105952
 2.2000e+000 106301 -2.7710e+001 -1.2861e+002 -3.0595e+000 28712 106151,106229,106203
 2.2000e+000 106278 -2.6560e+001 -1.4405e+002 -1.1592e+001 28712 106125,106229,106151
 2.2000e+000 106255 -3.0116e+001 -1.1805e+002 -1.5055e+001 28712 106151,106203,106177
 2.2000e+000 106551 -4.2230e+001 -1.7247e+002  5.4161e-001 28258 106352,106404,106378
 2.2000e+000 106528 -5.7359e+001 -1.7554e+002 -2.8633e+000 28258 106352,106456,106404
 2.2000e+000 106505 -4.6378e+001 -1.8536e+002 -6.4430e+000 28258 106326,106456,106352
 2.2000e+000 106482 -5.7261e+001 -1.6728e+002  2.0889e+000 28258 106404,106456,106430
 2.2000e+000 107012 -6.2085e+001 -1.5094e+002  3.1073e+001 27818 107035,106790,106764
 2.2000e+000 106989 -5.3953e+001 -1.4111e+002  1.3972e+001 27818 107035,106764,106868
 2.2000e+000 106966 -4.4226e+001 -1.5862e+002  1.6217e+001 27818 107107,106842,106816
 2.2000e+000 106943 -8.3141e+001 -1.3271e+002  9.6163e+000 27818 106738,106868,106764
 2.2000e+000 106920 -8.1757e+001 -1.1607e+002  3.2705e+001 27818 106738,106894,106868
 2.2000e+000 107061 -3.1144e+001 -1.4236e+002  3.2644e+001 27818 106816,106790,107035
 2.2000e+000 107084 -4.7721e+001 -1.5274e+002  1.6913e+001 27818 107107,106816,107035
 2.2000e+000 107133 -4.7786e+001 -1.4913e+002  1.1443e+001 27818 106868,106842,107107
 2.2000e+000 107156 -4.8069e+001 -1.3885e+002  1.3805e+001 27818 106868,107107,107035
 2.2000e+000 107613 -1.4587e+001 -1.1037e+002  2.1258e+001 27312 107339,107469,107365
 2.2000e+000 107590  3.0671e-001 -1.0416e+002  1.8981e+001 27312 107339,107495,107469
 2.2000e+000 107567 -1.8010e+001 -1.0635e+002  9.0879e+000 27312 107391,107469,107443
 2.2000e+000 107544 -1.4314e+001 -1.1455e+002  7.9572e+000 27312 107365,107469,107391
 2.2000e+000 107521 -5.1165e+001 -1.1779e+002  3.9504e+000 27312 107391,107443,107417
 2.2000e+000 107991 -6.3046e+001 -1.7141e+002  1.7421e+000 26858 108086,108014,107795
 2.2000e+000 107968 -6.8480e+001 -1.7684e+002 -1.9219e+001 26858 108014,107717,107873
 2.2000e+000 107945 -7.3876e+001 -1.8111e+002  9.1192e+000 26858 108158,108086,107795
 2.2000e+000 107922 -5.9502e+001 -1.8019e+002  8.1239e+000 26858 108158,107795,107769
 2.2000e+000 107899 -4.1133e+001 -2.2048e+002  2.9873e+001 26858 107821,107873,107847
 2.2000e+000 108040 -6.4520e+001 -1.9691e+002  7.2338e+000 26858 107821,107795,108014
 2.2000e+000 108063 -2.9849e+001 -1.8788e+002 -5.4397e+000 26858 107821,108014,107873
 2.2000e+000 108112 -9.0111e+001 -1.8174e+002  5.9746e+000 26858 107717,108014,108086
 2.2000e+000 108135 -7.4560e+001 -1.8916e+002  1.9079e+001 26858 107717,108086,107743
 2.2000e+000 108184 -5.7108e+001 -1.7902e+002  1.4205e+001 26858 107743,108086,108158
 2.2000e+000 108207 -5.0772e+001 -1.8387e+002  1.4114e+001 26858 107743,108158,107769
 2.2000e+000 108634 -7.5443e+001 -1.6249e+002  2.0912e+000 26404 108657,108415,108363
 2.2000e+000 108611 -8.5737e+001 -1.7584e+002  1.8531e+001 26404 108657,108363,108337
 2.2000e+000 108588 -6.9521e+001 -1.5366e+002  2.4190e+001 26404 108729,108311,108467
 2.2000e+000 108565 -9.5052e+001 -1.8549e+002 -2.4391e+000 26404 108801,108441,108415
 2.2000e+000 108542 -1.3340e+002 -1.8173e+002  2.8361e+001 26404 108311,108493,108467
 2.2000e+000 108519 -5.8874e+001 -1.6415e+002  1.5155e+000 26404 108363,108415,108389
 2.2000e+000 108683 -1.0954e+002 -1.7162e+002 -3.8059e-001 26404 108801,108415,108657
 2.2000e+000 108706 -1.0424e+002 -1.6472e+002  1.7749e+001 26404 108729,108467,108657
 2.2000e+000 108755 -4.6377e+001 -1.6976e+002  2.4405e+001 26404 108337,108311,108729
 2.2000e+000 108778 -6.4220e+001 -1.6870e+002  1.7743e+001 26404 108337,108729,108657
 2.2000e+000 108827 -1.1009e+002 -2.1145e+002 -1.0536e+001 26404 108467,108441,108801
 2.2000e+000 108850 -1.1881e+002 -1.8854e+002 -7.9895e+000 26404 108467,108801,108657
 2.2000e+000 109228 -5.2137e+001 -1.6491e+002  4.3966e+000 26064 109006,109084,109058
 2.2000e+000 109205 -5.1772e+001 -1.6193e+002  8.4336e+000 26064 108980,109084,109006
 2.2000e+000 109182 -6.2257e+001 -1.5020e+002 -6.2074e+000 26064 108980,109110,109084
 2.2000e+000 109159 -4.4025e+001 -1.8349e+002  1.9237e+001 26064 109006,109058,109032
 2.2000e+000 109136  7.8778e+000 -1.1373e+002  1.2483e+001 26064 108954,109110,108980
 2.2000e+000 109427 -2.7142e+001 -1.4462e+002 -3.1965e+001 25660 109303,109355,109329
 2.2000e+000 109404 -4.4330e+001 -1.7868e+002 -1.0406e+001 25660 109277,109355,109303
 2.2000e+000 109381 -3.2738e+001 -1.6650e+002 -5.1914e+000 25660 109251,109355,109277
 2.2000e+000 109577  7.1890e+000 -5.8247e+001  4.8231e+001 25306 109476,109528,109502
 2.2000e+000 109554  2.2924e+001 -7.8870e+001  9.3284e+000 25306 109450,109528,109476
 2.2000e+000 109778 -1.4727e+001 -1.4344e+002  3.9704e+000 24944 109628,109706,109654
 2.2000e+000 109755 -1.2582e+001 -1.3256e+002  3.6109e+000 24944 109602,109706,109628
 2.2000e+000 109732  7.6977e+000 -1.2137e+002 -2.3133e+001 24944 109654,109706,109680
 2.2000e+000 110126 -5.3555e+001 -2.0068e+002  1.2618e+001 24440 110149,109907,109855
 2.2000e+000 110103 -5.9486e+001 -2.0786e+002  1.6117e+001 24440 110149,109855,109985
 2.2000e+000 110080 -3.7223e+001 -1.7928e+002  4.1904e+000 24440 109855,109907,109881
 2.2000e+000 110057 -3.8263e+001 -1.6748e+002  4.8613e+001 24440 109829,109985,109855
 2.2000e+000 110034 -5.4722e+001 -2.0171e+002  1.4658e+000 24440 109907,109959,109933
 2.2000e+000 110011 -7.8387e+001 -1.9220e+002  1.5592e+001 24440 109803,109985,109829
 2.2000e+000 110175 -5.5499e+001 -1.9134e+002  5.5557e+000 24440 109959,109907,110149
 2.2000e+000 110198 -6.5364e+001 -2.0000e+002  1.0057e+001 24440 109959,110149,109985
 2.2000e+000 110301  2.6495e+000 -2.0420e+002 -2.7228e+001 24028 110223,110275,110249
 2.2000e+000 110573 -2.8187e+001 -1.2715e+002  1.0798e+001 23467 110400,110452,110426
 2.2000e+000 110550 -4.9834e+001 -1.6324e+002  1.5753e+000 23467 110374,110452,110400
 2.2000e+000 110527 -6.1662e+001 -1.6815e+002  9.1687e+000 23467 110348,110452,110374
 2.2000e+000 110504 -4.0709e+001 -1.4803e+002  9.6367e-001 23467 110348,110478,110452
 2.2000e+000 111004 -9.1302e+001 -1.9742e+002 -2.4233e+001 22963 111027,110733,110707
 2.2000e+000 110981 -9.1980e+001 -1.8780e+002  6.8227e+000 22963 111027,110707,110681
 2.2000e+000 110958 -4.7790e+001 -1.6595e+002 -1.6969e+001 22963 111099,110759,110733
 2.2000e+000 110935 -5.7407e+001 -1.6582e+002 -1.4277e+001 22963 111171,110863,110811
 2.2000e+000 110912 -3.4142e+001 -1.2567e+002 -1.9303e+001 22963 110759,110811,110785
 2.2000e+000 110889 -6.1774e+001 -1.8032e+002 -1.5432e+001 22963 110811,110863,110837
 2.2000e+000 111053 -6.5729e+001 -1.7623e+002 -1.2571e+001 22963 111099,110733,111027
 2.2000e+000 111076 -5.5360e+001 -1.7675e+002 -1.2184e+001 22963 111171,110811,111027
 2.2000e+000 111125 -4.7761e+001 -1.6498e+002 -2.7441e+001 22963 110811,110759,111099
 2.2000e+000 111148 -5.1497e+001 -1.6501e+002 -2.5299e+001 22963 110811,111099,111027
 2.2000e+000 111197 -5.9211e+001 -1.4573e+002 -1.8188e+001 22963 110681,110863,111171
 2.2000e+000 111220 -6.4280e+001 -1.6058e+002 -1.0600e+001 22963 110681,111171,111027
 2.2000e+000 111726 -8.7784e+001 -1.7776e+002  2.7527e+000 22459 111749,111507,111429
 2.2000e+000 111703 -8.1863e+001 -1.7601e+002 -4.4492e+000 22459 111749,111429,111585
 2.2000e+000 111680 -7.0878e+001 -1.8738e+002 -2.4328e+000 22459 111403,111585,111429
 2.2000e+000 111657 -8.5740e+001 -1.9350e+002  6.1518e+000 22459 111507,111559,111533
 2.2000e+000 111634 -1.1510e+002 -1.6745e+002  8.0747e+000 22459 111455,111507,111481
 2.2000e+000 111611 -1.1300e+002 -1.6524e+002  1.0804e+001 22459 111429,111507,111455
 2.2000e+000 111775 -8.8373e+001 -1.8862e+002  8.5321e+000 22459 111559,111507,111749
 2.2000e+000 111798 -8.1911e+001 -1.8115e+002  1.5635e+000 22459 111559,111749,111585
 2.2000e+000 112046 -1.9496e+000 -1.4289e+002 -6.7381e+000 21898 112069,111925,111873
 2.2000e+000 112023 -7.9392e-001 -1.4410e+002  5.0095e+000 21898 112069,111873,111847
 2.2000e+000 112000 -9.3819e-001 -1.6860e+002 -5.7540e+000 21898 111821,111951,111847
 2.2000e+000 111977 -3.0731e+001 -1.2694e+002 -7.2272e+000 21898 111873,111925,111899
 2.2000e+000 112095 -1.8466e+001 -1.4907e+002 -8.7194e+000 21898 111951,111925,112069
 2.2000e+000 112118 -1.0389e+001 -1.4758e+002  2.5455e+000 21898 111951,112069,111847
 2.2000e+000 112498 -6.6234e+001 -1.6117e+002 -1.4144e+001 21608 112521,112276,112224
 2.2000e+000 112475 -4.4746e+001 -1.6402e+002 -7.1307e-001 21608 112521,112224,112380
 2.2000e+000 112452 -4.9602e+001 -1.8636e+002  1.0514e+001 21608 112302,112380,112354
 2.2000e+000 112429 -7.4170e+001 -1.8177e+002 -1.0890e+001 21608 112224,112276,112250
 2.2000e+000 112406  2.1442e+001 -2.0447e+002 -1.1519e+001 21608 112302,112354,112328
 2.2000e+000 112547 -4.8530e+001 -1.3940e+002 -4.6784e+000 21608 112302,112276,112521
 2.2000e+000 112570 -3.4760e+001 -1.5728e+002  4.9249e+000 21608 112302,112521,112380
 2.2000e+000 112948 -7.5949e+001 -1.7143e+002 -4.5151e+000 20882 112971,112752,112700
 2.2000e+000 112925 -5.4042e+001 -1.6420e+002 -9.3819e+000 20882 112971,112700,112830
 2.2000e+000 112902 -1.0038e+002 -1.8440e+002  1.0198e+001 20882 112778,112830,112804
 2.2000e+000 112879 -5.0480e+001 -1.2888e+002 -1.3600e+001 20882 112674,112830,112700
 2.2000e+000 112856 -9.2358e+001 -1.7711e+002  1.1071e+000 20882 112700,112752,112726
 2.2000e+000 112997 -7.6678e+001 -1.7156e+002  7.6289e+000 20882 112778,112752,112971
 2.2000e+000 113020 -6.4171e+001 -1.6812e+002  2.2984e+000 20882 112778,112971,112830
 2.2000e+000 113526 -6.0547e+001 -1.7196e+002  8.0932e-002 20428 113255,113385,113333
 2.2000e+000 113503 -6.5041e+001 -1.8603e+002  1.3095e-001 20428 113229,113385,113255
 2.2000e+000 113480 -1.0587e+001 -1.6761e+002  1.0845e+000 20428 113255,113333,113281
 2.2000e+000 113457 -5.7714e+001 -1.8294e+002  1.3197e+000 20428 113203,113385,113229
 2.2000e+000 113434 -3.3555e+001 -1.7564e+002 -6.4484e+000 20428 113281,113333,113307
 2.2000e+000 113411 -7.2239e+001 -1.6801e+002  2.7406e+000 20428 113333,113385,113359
 2.2000e+000 113774 -3.2136e+001 -1.7181e+002  1.0324e+001 19917 113797,113601,113549
 2.2000e+000 113751 -4.5584e+001 -1.7441e+002  1.2002e+001 19917 113869,113797,113549
 2.2000e+000 113728 -4.4162e+001 -1.7556e+002  1.7364e+001 19917 113869,113549,113679
 2.2000e+000 113705 -2.8739e+001 -1.6147e+002  1.0776e+001 19917 113549,113601,113575
 2.2000e+000 113823 -4.5128e+001 -1.7713e+002  3.8406e+000 19917 113627,113601,113797
 2.2000e+000 113846 -4.7483e+001 -1.6629e+002  8.8676e+000 19917 113627,113797,113653
 2.2000e+000 113895 -4.2114e+001 -1.6304e+002  1.0226e+001 19917 113653,113797,113869
 2.2000e+000 113918 -4.3224e+001 -1.6509e+002  1.6818e+001 19917 113653,113869,113679
 2.2000e+000 114166 -7.5892e+001 -1.7095e+002 -4.5177e+000 19413 113993,114045,114019
 2.2000e+000 114143 -6.5179e+001 -1.5684e+002  8.8365e-001 19413 113967,114045,113993
 2.2000e+000 114120 -5.7459e+001 -1.5406e+002  5.0974e+000 19413 113967,114071,114045
 2.2000e+000 114097 -3.9808e+001 -1.7101e+002 -5.2203e+000 19413 113941,114071,113967
 2.2000e+000 114438 -2.9359e+001 -1.6627e+002 -3.8416e+000 19001 114213,114265,114239
 2.2000e+000 114415 -1.8833e+001 -1.3430e+002 -4.0141e+000 19001 114213,114343,114265
 2.2000e+000 114392 -4.1559e+001 -1.8288e+002 -1.1561e+001 19001 114265,114343,114317
 2.2000e+000 114369  1.1361e+001 -1.5545e+002 -3.0872e-001 19001 114265,114317,114291
 2.2000e+000 114639 -8.2123e+001 -1.7166e+002 -1.1311e+001 18554 114489,114541,114515
 2.2000e+000 114616 -4.8854e+001 -1.8566e+002 -1.1957e+001 18554 114489,114567,114541
 2.2000e+000 114593 -7.5424e+001 -1.6742e+002 -1.3863e+001 18554 114463,114567,114489
 2.2000e+000 115043 -3.8005e+001 -1.6510e+002  5.0533e+000 18164 114795,114925,114821
 2.2000e+000 115020 -3.0646e+001 -1.7478e+002  1.0664e+001 18164 114769,114925,114795
 2.2000e+000 114997 -2.5441e+001 -1.7388e+002 -1.6450e+000 18164 115066,114873,114821
 2.2000e+000 114974 -2.2499e+001 -1.4920e+002 -4.7638e+000 18164 115066,114821,114925
 2.2000e+000 114951 -1.7929e+000 -1.7409e+002 -1.3278e+001 18164 114821,114873,114847
 2.2000e+000 115092 -3.5731e+001 -1.5597e+002 -1.4883e+001 18164 114899,114873,115066
 2.2000e+000 115115 -2.3360e+001 -1.1833e+002 -1.8927e+001 18164 114899,115066,114925
 2.2000e+000 115265 -5.2671e+001 -1.9328e+002  1.5118e+000 17852 115164,115216,115190
 2.2000e+000 115242 -5.0633e+001 -1.9836e+002  2.0702e+000 17852 115138,115216,115164
 2.2000e+000 115464 -1.0306e+002 -2.4536e+002  3.5967e+000 17346 115288,115366,115340
 2.2000e+000 115441 -1.7109e+002 -1.9432e+002 -5.1673e+000 17346 115288,115392,115366
 2.2000e+000 115418 -9.7982e+001 -2.7568e+002 -8.5061e+000 17346 115288,115340,115314
 2.2000e+000 115736 -4.9816e+001 -1.6939e+002  5.6497e+000 16942 115563,115641,115615
 2.2000e+000 115713 -5.2171e+001 -1.6591e+002  2.8053e+000 16942 115511,115641,115563
 2.2000e+000 115690 -1.2078e+002 -1.9647e+002  9.8751e+000 16942 115563,115615,115589
 2.2000e+000 115667 -6.0509e+001 -1.8480e+002  5.7535e+000 16942 115511,115563,115537
 2.2000e+000 116091 -8.5239e+001 -1.9125e+002 -6.9755e+000 16388 115918,115970,115944
 2.2000e+000 116068 -7.3466e+001 -1.5623e+002 -4.0754e+000 16388 115918,115996,115970
 2.2000e+000 116045 -9.4792e+001 -1.9447e+002  5.8828e+000 16388 115892,115996,115918
 2.2000e+000 116022 -6.5322e+001 -1.8186e+002  1.9769e+001 16388 115866,115996,115892
 2.2000e+000 116192 -2.8415e+001 -2.1080e+002 -3.1115e+001 15810 116114,116166,116140
 2.2000e+000 116342 -3.6383e+001 -1.8706e+002  2.1245e+001 15419 116241,116293,116267
 2.2000e+000 116319 -3.0297e+001 -2.4457e+002  5.6386e-001 15419 116215,116293,116241
 2.2000e+000 116445 -8.1447e+001 -1.7137e+002 -7.6422e-001 421 116367,116419,116393
 2.3000e+000 68477 -1.2135e+002 -1.8004e+002  5.3779e+000 68018 68327,68379,68353
 2.3000e+000 68454 -1.2841e+002 -2.3470e+002  2.1106e+001 68018 68301,68379,68327
 2.3000e+000 68431 -6.0706e+001 -2.7059e+002  4.6820e+001 68018 68301,68405,68379
 2.3000e+000 68578 -7.4549e+001 -1.8086e+002  1.1776e+000 67820 68500,68552,68526
 2.3000e+000 68728 -8.4996e+001 -1.7225e+002 -2.9027e+000 67508 68601,68653,68627
 2.3000e+000 68705 -1.4126e+002 -1.2750e+002 -2.7525e+001 67508 68601,68679,68653
 2.3000e+000 68927 -2.1172e+001 -1.4666e+002 -6.0630e+000 67310 68777,68829,68803
 2.3000e+000 68904 -4.5269e+001 -1.6885e+002  3.8092e+000 67310 68751,68829,68777
 2.3000e+000 68881 -5.3724e+001 -1.8829e+002  1.3303e+000 67310 68751,68855,68829
 2.3000e+000 69386 -7.0980e+001 -1.9799e+002 -1.0460e+001 67020 69216,69268,69242
 2.3000e+000 69363 -5.9787e+001 -1.4523e+002 -1.8325e+001 67020 69138,69268,69216
 2.3000e+000 69340 -4.7081e+001 -1.2949e+002 -8.6290e+000 67020 69112,69268,69138
 2.3000e+000 69317 -8.5717e+001 -1.6717e+002  1.3833e+001 67020 69138,69190,69164
 2.3000e+000 69294 -8.8825e+001 -1.5200e+002 -6.3272e+000 67020 69138,69216,69190
 2.3000e+000 69536 -1.2781e+002 -3.3856e+002 -2.2224e+001 66708 69435,69487,69461
 2.3000e+000 69513 -9.8992e+001 -3.7653e+002 -1.7915e+000 66708 69409,69487,69435
 2.3000e+000 69735 -8.4208e+001 -1.9361e+002  4.6905e+000 66346 69585,69637,69611
 2.3000e+000 69712 -6.7946e+001 -1.8551e+002 -3.7573e-001 66346 69559,69637,69585
 2.3000e+000 69689 -6.0766e+001 -1.8494e+002 -1.8324e+001 66346 69559,69663,69637
 2.3000e+000 69985 -1.0829e+002 -2.0040e+002  5.3828e+000 66148 69786,69890,69864
 2.3000e+000 69962 -1.1246e+002 -2.0264e+002  6.2988e+000 66148 69760,69890,69786
 2.3000e+000 69939 -7.3807e+001 -1.8845e+002 -2.8546e+001 66148 69786,69864,69838
 2.3000e+000 69916 -9.3008e+001 -2.0742e+002 -7.0471e+000 66148 69786,69838,69812
 2.3000e+000 70137 -1.1543e+000 -1.7512e+002 -1.2036e+001 65950 70036,70088,70062
 2.3000e+000 70114  2.4460e+001 -2.0110e+002  1.8653e+001 65950 70010,70088,70036
 2.3000e+000 70470 -6.1738e+000 -1.3919e+002  2.3899e+000 65546 70245,70323,70271
 2.3000e+000 70447 -1.0931e+001 -1.5127e+002  2.6912e+000 65546 70245,70375,70323
 2.3000e+000 70424 -7.5658e+000 -1.7556e+002  9.1946e+000 65546 70323,70375,70349
 2.3000e+000 70401 -1.5623e+001 -1.4343e+002  3.7987e+000 65546 70271,70323,70297
 2.3000e+000 70620 -4.9298e+001 -1.9043e+002  9.5740e+000 65348 70493,70545,70519
 2.3000e+000 70597 -4.5060e+001 -2.0682e+002  6.6207e+000 65348 70493,70571,70545
 2.3000e+000 70721 -9.1501e+001 -1.9413e+002  6.8052e+000 65150 70643,70695,70669
 2.3000e+000 71020 -6.9174e+001 -1.4312e+002  6.3262e+000 64952 71043,70850,70824
 2.3000e+000 70997 -5.3831e+001 -1.1737e+002 -3.5333e+000 64952 71043,70824,70772
 2.3000e+000 70974 -5.0527e+001 -1.7741e+002  3.0335e+000 64952 71115,70746,70876
 2.3000e+000 70951 -6.3426e+001 -1.7349e+002  1.1049e+001 64952 70746,70902,70876
 2.3000e+000 70928 -6.2565e+001 -1.1263e+002 -7.5356e+000 64952 70772,70824,70798
 2.3000e+000 71069 -4.3353e+001 -1.3097e+002  1.0009e+001 64952 70876,70850,71043
 2.3000e+000 71092 -5.5895e+001 -1.6162e+002  8.4716e-001 64952 71115,70876,71043
 2.3000e+000 71141 -5.5372e+001 -1.6024e+002 -9.1055e+000 64952 70772,70746,71115
 2.3000e+000 71164 -5.2715e+001 -1.3587e+002 -1.2737e+001 64952 70772,71115,71043
 2.3000e+000 71365 -8.2141e+000 -1.7153e+002 -3.4938e+000 64662 71215,71293,71267
 2.3000e+000 71342  3.2406e+001 -1.4137e+002 -3.6366e+001 64662 71189,71293,71215
 2.3000e+000 71319  1.4135e+001 -1.2628e+002  3.6974e+000 64662 71215,71267,71241
 2.3000e+000 71615 -3.8530e+001 -1.7653e+002 -5.3943e-001 64350 71710,71638,71468
 2.3000e+000 71592 -1.8128e+001 -1.6741e+002 -7.6800e+000 64350 71638,71416,71390
 2.3000e+000 71569 -4.6929e+001 -1.6070e+002  1.3495e+001 64350 71710,71468,71442
 2.3000e+000 71546  5.8494e+001 -1.6359e+002 -3.1488e+001 64350 71390,71520,71494
 2.3000e+000 71664 -2.9229e+001 -1.7129e+002 -5.0901e+000 64350 71494,71468,71638
 2.3000e+000 71687 -2.5549e+001 -1.7708e+002 -2.3499e+000 64350 71494,71638,71390
 2.3000e+000 71736 -2.2329e+001 -1.4425e+002 -5.9769e+000 64350 71416,71638,71710
 2.3000e+000 71759 -3.4673e+001 -1.3311e+002  1.0815e+001 64350 71416,71710,71442
 2.3000e+000 72318 -3.9507e+001 -2.7055e+002 -1.6666e+001 63837 71972,72024,71998
 2.3000e+000 72295 -5.2995e+001 -1.7307e+002 -1.9373e+000 63837 72341,71972,71946
 2.3000e+000 72272 -4.9954e+001 -1.3697e+002  1.1579e+001 63837 72413,72341,71946
 2.3000e+000 72249 -5.0791e+001 -1.2250e+002  7.6007e+000 63837 72413,71946,72128
 2.3000e+000 72226 -8.3660e+001 -1.4753e+002  5.5433e+000 63837 72024,72076,72050
 2.3000e+000 72203 -7.0233e+001 -1.3258e+002 -2.2762e+000 63837 72024,72102,72076
 2.3000e+000 72180 -4.3352e+001 -1.2070e+002  1.3930e+001 63837 71946,72154,72128
 2.3000e+000 72367 -7.9655e+001 -1.9113e+002 -3.7056e+001 63837 72024,71972,72341
 2.3000e+000 72390 -5.4733e+001 -1.4733e+002 -1.1850e+001 63837 72024,72341,72102
 2.3000e+000 72439 -4.2963e+001 -1.6011e+002  6.1227e+000 63837 72102,72341,72413
 2.3000e+000 72462 -4.2725e+001 -1.4406e+002  4.0366e+000 63837 72102,72413,72128
 2.3000e+000 72791 -7.4696e+001 -1.5060e+002 -1.4052e+001 63383 72592,72696,72670
 2.3000e+000 72768 -8.0061e+001 -1.4653e+002 -2.8757e+001 63383 72566,72696,72592
 2.3000e+000 72745 -8.1170e+001 -1.3597e+002 -6.7225e-001 63383 72592,72670,72618
 2.3000e+000 72722 -8.3333e+001 -1.3223e+002 -7.4544e+000 63383 72618,72670,72644
 2.3000e+000 73297 -9.5527e+001 -1.3965e+002 -1.5062e+000 63185 73000,73156,73130
 2.3000e+000 73274 -9.6397e+001 -1.4625e+002  1.7727e+001 63185 72974,73156,73000
 2.3000e+000 73251 -7.1892e+001 -1.5974e+002 -7.6292e-002 63185 73000,73052,73026
 2.3000e+000 73228 -7.4232e+001 -1.4040e+002 -5.8472e+000 63185 73000,73130,73052
 2.3000e+000 73205 -7.6782e+001 -1.6716e+002 -2.3658e+001 63185 73052,73130,73104
 2.3000e+000 73182 -6.8940e+001 -1.8046e+002 -2.3754e+001 63185 73052,73104,73078
 2.3000e+000 73545 -2.6656e+001 -1.4803e+002  8.3446e-001 62781 73568,73398,73372
 2.3000e+000 73522 -1.2481e+001 -1.3542e+002  9.6782e+000 62781 73568,73372,73346
 2.3000e+000 73499 -3.4401e+001 -1.4883e+002 -9.4268e+000 62781 73640,73320,73424
 2.3000e+000 73476 -5.6745e+001 -1.1746e+002 -1.3157e+001 62781 73320,73450,73424
 2.3000e+000 73594 -3.2033e+001 -1.3716e+002 -8.0698e-002 62781 73424,73398,73568
 2.3000e+000 73617 -3.1300e+001 -1.4506e+002 -1.5344e+000 62781 73640,73424,73568
 2.3000e+000 73666 -3.0094e+001 -1.3972e+002 -4.1392e+000 62781 73346,73320,73640
 2.3000e+000 73689 -2.7919e+001 -1.3279e+002  3.0550e+000 62781 73346,73640,73568
 2.3000e+000 74035 -8.0023e+001 -1.8614e+002 -7.2067e+000 62363 74058,73868,73842
 2.3000e+000 74012 -6.0925e+001 -1.6869e+002 -1.7135e+001 62363 74130,74058,73842
 2.3000e+000 73989 -5.5405e+001 -1.6618e+002 -1.6558e+001 62363 74130,73842,73816
 2.3000e+000 73966 -8.8515e+001 -1.9431e+002  2.6650e+000 62363 74202,73764,73894
 2.3000e+000 73943 -1.1275e+002 -1.7419e+002  4.2416e+000 62363 73712,73894,73764
 2.3000e+000 73920 -1.2558e+002 -1.8636e+002 -2.7487e+000 62363 73712,73764,73738
 2.3000e+000 74084 -6.6536e+001 -1.7847e+002 -2.0802e+000 62363 73894,73868,74058
 2.3000e+000 74107 -8.1995e+001 -1.8611e+002  7.3396e+000 62363 74202,73894,74058
 2.3000e+000 74156 -6.7348e+001 -1.6942e+002  4.1597e+000 62363 73790,74058,74130
 2.3000e+000 74179 -3.8774e+001 -1.5679e+002  7.0398e+000 62363 73790,74130,73816
 2.3000e+000 74228 -9.5245e+001 -1.9731e+002 -9.0516e+000 62363 73790,73764,74202
 2.3000e+000 74251 -9.0034e+001 -1.8836e+002 -4.4910e+000 62363 73790,74202,74058
 2.3000e+000 74403  3.6433e+001 -1.8671e+002  1.5287e+001 62115 74426,74302,74276
 2.3000e+000 74380  4.4067e+001 -1.7818e+002  1.8577e+001 62115 74426,74276,74354
 2.3000e+000 74452  2.7649e+001 -1.7717e+002  1.3947e+001 62115 74328,74302,74426
 2.3000e+000 74475  3.5116e+001 -1.6843e+002  1.7262e+001 62115 74328,74426,74354
 2.3000e+000 74578  3.8745e+001 -1.3436e+002  5.7084e+000 61825 74500,74552,74526
 2.3000e+000 74982 -9.1846e+001 -1.6734e+002  1.0296e+000 61513 75005,74734,74708
 2.3000e+000 74959 -9.0528e+001 -1.6629e+002  5.7005e-001 61513 75005,74708,74864
 2.3000e+000 74936 -1.1645e+002 -1.7354e+002  9.8975e+000 61513 75077,74812,74734
 2.3000e+000 74913 -9.8939e+001 -1.6843e+002 -1.3831e+001 61513 74734,74786,74760
 2.3000e+000 74890 -9.8958e+001 -1.5609e+002 -1.4968e+000 61513 74734,74812,74786
 2.3000e+000 75031 -8.7254e+001 -1.7213e+002  1.5185e+000 61513 75077,74734,75005
 2.3000e+000 75054 -6.5469e+001 -1.6414e+002  2.7319e+001 61513 74838,75005,74864
 2.3000e+000 75103 -1.3215e+002 -1.7856e+002  3.6806e+001 61513 74838,74812,75077
 2.3000e+000 75126 -1.1330e+002 -1.8428e+002  2.8391e+001 61513 74838,75077,75005
 2.3000e+000 75553 -3.5641e+001 -1.4475e+002 -4.1600e+000 61060 75576,75360,75308
 2.3000e+000 75530 -2.7131e+001 -1.6071e+002 -9.9238e-001 61060 75576,75308,75230
 2.3000e+000 75507 -3.5208e+001 -1.3981e+002  1.5035e+000 61060 75308,75360,75334
 2.3000e+000 75484 -3.5846e+001 -1.7939e+002  2.3641e+000 61060 75230,75308,75256
 2.3000e+000 75461 -3.7935e+001 -1.7685e+002  6.8548e-001 61060 75256,75308,75282
 2.3000e+000 75438 -5.3613e+001 -1.4582e+002  2.0692e+001 61060 75360,75412,75386
 2.3000e+000 75602 -3.6288e+001 -1.5632e+002  2.7654e+000 61060 75412,75360,75576
 2.3000e+000 75625 -3.2191e+001 -1.7974e+002  4.7880e+000 61060 75412,75576,75230
 2.3000e+000 76052 -5.7306e+001 -1.5209e+002  1.5827e+000 60442 75755,75859,75833
 2.3000e+000 76029 -5.4020e+001 -1.3064e+002 -2.0779e+001 60442 75729,75859,75755
 2.3000e+000 76006 -5.6711e+001 -1.3201e+002  8.4268e+000 60442 75755,75833,75807
 2.3000e+000 75983 -6.1690e+001 -1.5950e+002  2.1629e+000 60442 75755,75807,75781
 2.3000e+000 75960  1.6599e+000 -2.8104e+002  9.2280e+000 60442 75729,75911,75859
 2.3000e+000 75937 -1.3047e+002 -6.6369e+002  3.9858e+001 60442 75859,75911,75885
 2.3000e+000 76430 -6.3531e+001 -1.6968e+002 -2.3134e+000 59788 76453,76286,76234
 2.3000e+000 76407 -6.8319e+001 -1.9011e+002  5.5859e+000 59788 76453,76234,76182
 2.3000e+000 76384 -6.9424e+001 -1.2053e+002  2.3381e+001 59788 76525,76156,76312
 2.3000e+000 76361 -4.1946e+001 -2.2063e+002  1.5834e+000 59788 76182,76234,76208
 2.3000e+000 76338 -3.9831e+001 -1.5667e+002  2.9484e+000 59788 76234,76286,76260
 2.3000e+000 76479 -7.4430e+001 -1.7997e+002  3.4332e+000 59788 76312,76286,76453
 2.3000e+000 76502 -6.2980e+001 -1.6770e+002  9.8330e+000 59788 76525,76312,76453
 2.3000e+000 76551 -8.8059e+001 -1.8004e+002  2.4622e+001 59788 76182,76156,76525
 2.3000e+000 76574 -7.7143e+001 -1.9452e+002  1.5046e+001 59788 76182,76525,76453
 2.3000e+000 77031 -1.8123e+001 -1.0026e+002 -1.9549e+001 59448 76835,76887,76861
 2.3000e+000 77008  1.1416e+001 -7.3871e+001 -1.2558e-001 59448 76835,76913,76887
 2.3000e+000 76985 -7.4773e+000 -7.7068e+001  1.6939e+001 59448 76809,76913,76835
 2.3000e+000 76962 -4.3826e+001 -9.0510e+001 -9.1913e+000 59448 76757,76913,76809
 2.3000e+000 76939 -2.9321e+001 -8.2682e+001 -1.5019e+001 59448 76757,76809,76783
 2.3000e+000 77537 -7.3907e+001 -1.6398e+002  9.2282e+000 58994 77560,77344,77292
 2.3000e+000 77514 -1.0574e+002 -1.6206e+002  3.1880e+000 58994 77560,77292,77240
 2.3000e+000 77491 -5.9187e+001 -1.5291e+002 -5.0343e+000 58994 77632,77214,77370
 2.3000e+000 77468 -1.2596e+002 -1.8843e+002  3.2748e+001 58994 77292,77344,77318
 2.3000e+000 77445 -6.0760e+001 -1.8863e+002  4.0731e+000 58994 77214,77396,77370
 2.3000e+000 77422 -1.0963e+002 -1.7644e+002 -2.8562e+000 58994 77240,77292,77266
 2.3000e+000 77586 -7.6861e+001 -1.6678e+002  1.0376e+001 58994 77370,77344,77560
 2.3000e+000 77609 -7.7475e+001 -1.6417e+002  1.1569e+001 58994 77632,77370,77560
 2.3000e+000 77658 -4.8949e+001 -1.4031e+002 -2.1533e+001 58994 77240,77214,77632
 2.3000e+000 77681 -6.2051e+001 -1.3790e+002 -6.4379e+000 58994 77240,77632,77560
 2.3000e+000 78138 -5.3972e+001 -1.0365e+002  1.1974e+001 58440 77864,77994,77890
 2.3000e+000 78115 -3.0334e+001 -5.7314e+001 -1.4301e+001 58440 77864,78020,77994
 2.3000e+000 78092 -6.1223e+001 -1.2391e+002 -1.2711e+001 58440 77942,77994,77968
 2.3000e+000 78069 -4.4851e+001 -1.1240e+002  1.6996e+000 58440 77890,77994,77942
 2.3000e+000 78046 -4.1566e+001 -1.0926e+002 -7.3730e-002 58440 77890,77942,77916
 2.3000e+000 78467 -1.3367e+001 -1.5448e+002  4.0070e+000 57928 78562,78490,78346
 2.3000e+000 78444 -3.1993e+001 -1.4282e+002  7.3734e+000 57928 78490,78294,78268
 2.3000e+000 78421 -8.8549e+000 -1.5809e+002  7.7228e+000 57928 78562,78346,78320
 2.3000e+000 78398 -1.2345e+001 -1.4594e+002  1.1495e+000 57928 78242,78372,78268
 2.3000e+000 78516 -3.4431e+001 -1.8996e+002 -1.0160e+001 57928 78372,78346,78490
 2.3000e+000 78539 -2.3716e+001 -1.4520e+002 -1.2892e+000 57928 78372,78490,78268
 2.3000e+000 78588 -3.4918e+001 -1.5403e+002  1.8242e+000 57928 78294,78490,78562
 2.3000e+000 78611 -2.1282e+001 -1.4712e+002  9.1283e+000 57928 78294,78562,78320
 2.3000e+000 79068 -9.0946e+001 -2.1706e+002 -5.5880e+001 57467 78794,78924,78820
 2.3000e+000 79045 -6.3953e+001 -2.0618e+002 -5.7449e+001 57467 78794,78950,78924
 2.3000e+000 79022 -5.9489e+000 -1.7399e+002  8.7425e+000 57467 78820,78898,78872
 2.3000e+000 78999 -6.9460e+001 -2.5198e+002 -3.5922e+001 57467 78820,78924,78898
 2.3000e+000 78976 -1.6990e+001 -1.8173e+002  1.3941e+001 57467 78820,78872,78846
 2.3000e+000 79446 -8.3548e+001 -1.7653e+002  3.6069e+000 57120 79172,79302,79250
 2.3000e+000 79423 -7.4908e+001 -1.7223e+002 -9.7684e+000 57120 79172,79328,79302
 2.3000e+000 79400 -7.8036e+001 -1.5354e+002 -1.9224e+000 57120 79172,79250,79198
 2.3000e+000 79377 -5.7250e+001 -2.4372e+002  1.0405e+001 57120 79250,79302,79276
 2.3000e+000 79354 -1.0144e+002 -1.6910e+002 -9.0828e+000 57120 79198,79250,79224
 2.3000e+000 79952 -9.5181e+001 -1.6731e+002  2.9711e+000 56773 79629,79785,79655
 2.3000e+000 79929 -1.8698e+001 -1.4395e+002  1.0265e+001 56773 79629,79811,79785
 2.3000e+000 79906 -6.5523e+001 -1.9546e+002  1.7023e+001 56773 79655,79733,79681
 2.3000e+000 79883 -6.6554e+001 -1.6520e+002  3.3903e+000 56773 79655,79785,79733
 2.3000e+000 79860 -5.4879e+001 -2.2130e+002 -3.5458e+001 56773 79733,79785,79759
 2.3000e+000 79837 -5.4079e+000 -1.6708e+002  5.3362e+001 56773 79681,79733,79707
 2.3000e+000 80281 -3.5297e+001 -1.1952e+002 -1.6943e+001 56319 80108,80160,80134
 2.3000e+000 80258 -3.2633e+001 -1.4628e+002 -2.0052e+001 56319 80056,80160,80108
 2.3000e+000 80235 -5.5974e+000 -1.2718e+002  7.0637e+000 56319 80056,80186,80160
 2.3000e+000 80212 -3.6508e+001 -2.0365e+002 -2.4548e+001 56319 80056,80108,80082
 2.3000e+000 80738 -2.4656e+001 -1.5593e+002  1.0715e+001 55957 80516,80620,80594
 2.3000e+000 80715 -5.3467e+001 -1.3977e+002  1.0051e+001 55957 80464,80620,80516
 2.3000e+000 80692 -4.7908e+001 -1.6401e+002  7.4591e+000 55957 80761,80568,80542
 2.3000e+000 80669 -3.5084e+001 -1.6438e+002  8.4680e+000 55957 80761,80542,80516
 2.3000e+000 80646 -5.3945e+001 -1.4040e+002  2.3445e+001 55957 80464,80516,80490
 2.3000e+000 80787 -5.8128e+001 -1.6516e+002  6.2351e+000 55957 80594,80568,80761
 2.3000e+000 80810 -4.6324e+001 -1.6615e+002  7.5235e+000 55957 80594,80761,80516
 2.3000e+000 81210 -3.0343e+001 -1.6088e+002 -1.3803e+001 55317 80936,80988,80962
 2.3000e+000 81187 -2.7424e+001 -1.7010e+002 -5.6996e+000 55317 80936,81066,80988
 2.3000e+000 81164 -2.9917e+001 -1.8509e+002 -3.6952e-001 55317 80936,81092,81066
 2.3000e+000 81141 -6.7034e+001 -1.9052e+002 -1.8522e+001 55317 80988,81066,81014
 2.3000e+000 81118 -8.3207e+000 -1.1947e+002  8.3418e+000 55317 81014,81066,81040
 2.3000e+000 81539 -5.9435e+001 -1.6208e+002  6.2038e-002 54913 81340,81418,81392
 2.3000e+000 81516  1.1630e+000 -1.2768e+002 -1.7393e+001 54913 81340,81444,81418
 2.3000e+000 81493 -2.1407e+001 -1.4409e+002 -3.9069e+001 54913 81314,81444,81340
 2.3000e+000 81470 -7.2593e+001 -1.9135e+002 -6.9995e+000 54913 81340,81392,81366
 2.3000e+000 81787 -4.6085e+001 -1.8843e+002 -2.6347e+000 54601 81588,81692,81640
 2.3000e+000 81764 -7.8586e+001 -1.9656e+002 -1.0631e+001 54601 81562,81692,81588
 2.3000e+000 81741 -3.4904e+001 -1.9024e+002  2.1914e+001 54601 81588,81640,81614
 2.3000e+000 81718 -4.8435e+001 -2.2472e+002 -1.9838e+001 54601 81640,81692,81666
 2.3000e+000 82344 -7.0753e+001 -1.9990e+002 -1.1639e+001 54090 81998,82102,82076
 2.3000e+000 82321 -9.7323e+001 -2.1153e+002 -7.0894e+000 54090 81998,82154,82102
 2.3000e+000 82298 -8.8615e+001 -2.0600e+002 -4.4696e+000 54090 81972,82154,81998
 2.3000e+000 82275 -1.0105e+002 -1.8462e+002 -1.3893e+001 54090 81998,82076,82024
 2.3000e+000 82252 -1.0893e+002 -2.2016e+002  1.0514e+001 54090 81972,82180,82154
 2.3000e+000 82229 -1.3567e+002 -2.5546e+002  1.3936e+001 54090 82102,82154,82128
 2.3000e+000 82206 -1.6849e+001 -1.3820e+002 -3.3140e+001 54090 82024,82076,82050
 2.3000e+000 82722 -1.1437e+002 -2.0670e+002 -1.0441e+001 53579 82500,82578,82552
 2.3000e+000 82699 -8.0718e+001 -1.8642e+002  3.1213e+000 53579 82448,82578,82500
 2.3000e+000 82676 -8.4353e+001 -2.1167e+002  5.8656e-001 53579 82448,82500,82474
 2.3000e+000 82653 -1.0991e+002 -2.0215e+002  1.6846e+001 53579 82448,82604,82578
 2.3000e+000 82630 -5.8030e+001 -1.9196e+002 -1.1647e+001 53579 82500,82552,82526
 2.3000e+000 83356 -5.3274e+001 -1.5246e+002 -1.3439e+001 53189 83379,83088,83036
 2.3000e+000 83333 -5.1520e+001 -1.7109e+002 -1.2042e+001 53189 83379,83036,82984
 2.3000e+000 83310 -1.9872e+001 -1.5633e+002  3.3003e+001 53189 82984,83192,83166
 2.3000e+000 83287  3.6273e+000 -1.2965e+002 -1.2752e+001 53189 83036,83088,83062
 2.3000e+000 83264 -4.5987e+001 -2.1183e+002 -2.4004e+001 53189 82984,83036,83010
 2.3000e+000 83241 -2.6365e+001 -1.8411e+002  7.2865e+000 53189 83114,83166,83140
 2.3000e+000 83218 -7.6446e+001 -1.9769e+002  6.6112e+000 53189 83088,83166,83114
 2.3000e+000 83405 -5.3383e+001 -1.6499e+002 -5.7429e+000 53189 83166,83088,83379
 2.3000e+000 83428 -4.8863e+001 -1.8144e+002 -5.5207e+000 53189 83166,83379,82984
 2.3000e+000 83725 -6.0988e+001 -2.1524e+002 -1.5698e+001 52585 83748,83529,83503
 2.3000e+000 83702 -3.1368e+001 -2.0369e+002 -1.2196e+001 52585 83820,83748,83503
 2.3000e+000 83679  3.4307e+000 -1.9702e+002 -9.3084e+000 52585 83820,83503,83477
 2.3000e+000 83656 -3.9256e+001 -1.8967e+002  2.6142e+001 52585 83477,83607,83581
 2.3000e+000 83633  3.0551e+000 -1.7316e+002  2.2973e+001 52585 83451,83607,83477
 2.3000e+000 83774 -5.1102e+001 -1.9005e+002 -1.2285e+001 52585 83555,83529,83748
 2.3000e+000 83797 -8.7123e+001 -2.0105e+002 -7.7256e+000 52585 83555,83748,83581
 2.3000e+000 83846 -6.4183e+001 -1.8609e+002  5.5784e+000 52585 83581,83748,83820
 2.3000e+000 83869 -3.8434e+001 -1.8483e+002  4.8546e+000 52585 83581,83820,83477
 2.3000e+000 84200 -6.1773e+001 -2.0263e+002 -5.4752e+000 52024 84001,84105,84079
 2.3000e+000 84177 -2.6981e+001 -1.9664e+002 -1.4843e+001 52024 83975,84105,84001
 2.3000e+000 84154 -5.0642e+001 -2.0163e+002 -4.3808e+000 52024 84001,84079,84053
 2.3000e+000 84131 -2.4921e+001 -1.3488e+002  2.4178e+001 52024 84001,84053,84027
 2.3000e+000 84399 -3.9117e+001 -1.8499e+002 -1.9125e+000 51470 84422,84275,84249
 2.3000e+000 84376 -3.6911e+001 -1.8649e+002 -1.5512e+000 51470 84422,84249,84223
 2.3000e+000 84353 -4.3127e+001 -1.9967e+002 -2.3306e+001 51470 84275,84327,84301
 2.3000e+000 84448 -4.0907e+001 -1.8559e+002 -1.4006e+000 51470 84327,84275,84422
 2.3000e+000 84471 -3.8356e+001 -1.8675e+002 -1.2513e+000 51470 84327,84422,84223
 2.3000e+000 84753 -6.0589e+001 -1.7249e+002 -1.0981e+000 51073 84603,84655,84629
 2.3000e+000 84730 -1.2199e+002 -2.0131e+002 -9.4357e+000 51073 84776,84655,84603
 2.3000e+000 84707 -2.5758e+001 -1.7043e+002 -4.9801e+001 51073 84577,84681,84655
 2.3000e+000 84802 -7.5850e+001 -1.7488e+002 -2.4673e+001 51073 84577,84655,84776
 2.3000e+000 85178 -1.0548e+002 -2.2755e+002  2.0809e+001 50519 85201,85008,84982
 2.3000e+000 85155 -9.9541e+001 -2.1111e+002  1.6618e+001 50519 85273,85201,84982
 2.3000e+000 85132 -9.3673e+001 -2.1070e+002  1.2934e+001 50519 85273,84982,84930
 2.3000e+000 85109 -8.9705e+001 -2.0520e+002  1.1064e+001 50519 84930,84982,84956
 2.3000e+000 85086 -9.1106e+001 -2.1943e+002  1.1773e+001 50519 85008,85060,85034
 2.3000e+000 85227 -8.8693e+001 -2.1706e+002  1.0237e+001 50519 85060,85008,85201
 2.3000e+000 85250 -9.8681e+001 -2.2135e+002  7.0301e+000 50519 85060,85201,84904
 2.3000e+000 85299 -9.3820e+001 -2.1506e+002  4.0927e+000 50519 84904,85201,85273
 2.3000e+000 85322 -7.1256e+001 -1.8443e+002 -5.8825e+000 50519 84904,85273,84930
 2.3000e+000 85958 -5.4296e+001 -1.7964e+002 -5.0828e+000 50093 85981,85768,85716
 2.3000e+000 85935 -4.8744e+001 -1.6516e+002 -6.1052e+000 50093 85981,85716,85612
 2.3000e+000 85912 -6.0275e+001 -1.5934e+002 -8.5380e-001 50093 85612,85716,85664
 2.3000e+000 85889 -4.1187e+001 -1.7584e+002 -1.3823e+000 50093 85716,85768,85742
 2.3000e+000 85866 -6.3261e+001 -1.3736e+002 -2.7620e+001 50093 85664,85716,85690
 2.3000e+000 85843  1.9397e+001 -1.1942e+002 -1.4112e+001 50093 85586,85794,85612
 2.3000e+000 85820 -4.3209e+001 -2.2653e+002  1.2581e+001 50093 85612,85664,85638
 2.3000e+000 86007 -6.4627e+001 -1.9124e+002 -2.5254e+001 50093 85794,85768,85981
 2.3000e+000 86030 -4.7860e+001 -1.5016e+002 -2.1262e+001 50093 85794,85981,85612
 2.3000e+000 86131 -6.4385e+001 -2.0990e+002  2.8570e+001 49895 86053,86105,86079
 2.3000e+000 86639 -2.9502e+001 -1.2762e+002 -1.8715e+001 49391 86662,86394,86368
 2.3000e+000 86616 -3.3830e+001 -1.5139e+002 -1.3104e+001 49391 86662,86368,86342
 2.3000e+000 86593 -9.2043e+000 -1.4164e+002  7.1763e+000 49391 86342,86498,86472
 2.3000e+000 86570  2.2956e+001 -1.6099e+002  8.8803e+000 49391 86316,86498,86342
 2.3000e+000 86547 -7.3470e+001 -2.2381e+002 -2.6109e+000 49391 86394,86472,86446
 2.3000e+000 86524  5.6472e+000 -2.1986e+002  6.9824e+000 49391 86394,86446,86420
 2.3000e+000 86688 -4.1959e+001 -1.4948e+002 -8.7549e+000 49391 86472,86394,86662
 2.3000e+000 86711 -3.1617e+001 -1.5901e+002 -6.5071e+000 49391 86472,86662,86342
 2.3000e+000 87089 -6.4561e+001 -1.8694e+002  4.5824e+000 48987 86815,86919,86867
 2.3000e+000 87066 -6.6417e+001 -1.8896e+002  5.5134e+000 48987 86815,86971,86919
 2.3000e+000 87043 -2.9696e+001 -2.0603e+002 -1.6979e+001 48987 86867,86919,86893
 2.3000e+000 87020 -7.1639e+001 -2.0813e+002  2.0226e+001 48987 86815,86867,86841
 2.3000e+000 86997 -7.8744e+001 -1.7086e+002  2.5418e+001 48987 86919,86971,86945
 2.3000e+000 87467 -1.2224e+002 -1.8365e+002  8.2047e+000 48540 87490,87245,87219
 2.3000e+000 87444 -9.3830e+001 -1.7402e+002  1.4804e+000 48540 87562,87490,87219
 2.3000e+000 87421 -6.9937e+001 -1.6425e+002  7.4709e+000 48540 87562,87219,87349
 2.3000e+000 87398 -1.0047e+002 -1.5006e+002 -3.4347e+000 48540 87245,87297,87271
 2.3000e+000 87375 -5.5612e+001 -1.7646e+002  4.3058e+000 48540 87193,87349,87219
 2.3000e+000 87516 -9.0137e+001 -1.7395e+002  5.5505e+000 48540 87297,87245,87490
 2.3000e+000 87539 -9.5793e+001 -1.7974e+002  1.0465e+001 48540 87297,87490,87323
 2.3000e+000 87588 -7.1070e+001 -1.6598e+002  1.7469e+001 48540 87323,87490,87562
 2.3000e+000 87611 -5.9175e+001 -1.6745e+002  2.1305e+001 48540 87323,87562,87349
 2.3000e+000 87810 -9.1035e+001 -3.3219e+002 -2.3479e+001 48136 87660,87712,87686
 2.3000e+000 87787 -5.2054e+001 -2.0071e+002 -1.1597e+001 48136 87660,87738,87712
 2.3000e+000 87764 -1.2395e+002 -2.0592e+002 -3.6371e+001 48136 87634,87738,87660
 2.3000e+000 88205 -7.1912e+001 -1.9869e+002 -1.6530e+001 47210 88300,88228,87937
 2.3000e+000 88182 -6.3926e+001 -1.9745e+002 -4.1616e+000 47210 88228,87833,88041
 2.3000e+000 88159 -7.2558e+001 -2.1127e+002 -2.6606e+001 47210 88300,87937,87911
 2.3000e+000 88136 -6.8336e+001 -1.9656e+002 -2.2244e+001 47210 87833,87911,87859
 2.3000e+000 88113 -1.2216e+002 -1.6353e+002 -1.3983e+001 47210 87937,87989,87963
 2.3000e+000 88090 -7.3258e+001 -1.6854e+002  3.9439e+001 47210 87989,88041,88015
 2.3000e+000 88067 -7.8480e+001 -2.2218e+002 -2.8416e+001 47210 87859,87911,87885
 2.3000e+000 88254 -6.4879e+001 -1.5764e+002 -1.9945e+001 47210 87989,87937,88228
 2.3000e+000 88277 -8.6759e+001 -1.8937e+002 -6.0599e+000 47210 87989,88228,88041
 2.3000e+000 88326 -5.7688e+001 -1.8605e+002 -6.8487e+000 47210 87833,88228,88300
 2.3000e+000 88349 -6.0886e+001 -1.9489e+002 -1.7548e+001 47210 87833,88300,87911
 2.3000e+000 88780 -1.3157e+002 -2.3215e+002 -4.3150e+001 46642 88803,88509,88483
 2.3000e+000 88757 -9.6530e+001 -2.0975e+002 -2.2570e+001 46642 88803,88483,88639
 2.3000e+000 88734 -1.0670e+002 -1.7182e+002 -2.7430e+001 46642 88875,88561,88509
 2.3000e+000 88711 -1.0463e+002 -1.5829e+002 -6.1211e+000 46642 88509,88561,88535
 2.3000e+000 88688 -6.3498e+001 -2.3508e+002  1.2384e+000 46642 88457,88639,88483
 2.3000e+000 88665 -1.2269e+002 -2.7282e+002 -1.1681e+001 46642 88561,88613,88587
 2.3000e+000 88829 -1.0619e+002 -1.8759e+002 -3.0650e+001 46642 88875,88509,88803
 2.3000e+000 88852 -1.0484e+002 -2.2363e+002 -1.8921e+001 46642 88613,88803,88639
 2.3000e+000 88901 -8.9853e+001 -1.9329e+002 -1.4501e+001 46642 88613,88561,88875
 2.3000e+000 88924 -9.6733e+001 -2.1889e+002 -1.6983e+001 46642 88613,88875,88803
 2.3000e+000 89253 -3.7491e+001 -2.0069e+002 -8.6004e-001 46444 89080,89158,89132
 2.3000e+000 89230 -3.9833e+001 -2.0532e+002 -2.9008e+000 46444 89028,89158,89080
 2.3000e+000 89207 -1.2218e+001 -1.8824e+002 -1.0916e+001 46444 89028,89080,89054
 2.3000e+000 89184 -1.9995e+001 -2.1204e+002 -1.6061e+001 46444 89080,89132,89106
 2.3000e+000 89631 -3.7050e+001 -1.2543e+002  2.2045e+000 46040 89383,89461,89435
 2.3000e+000 89608 -4.1583e+001 -1.4035e+002 -5.3749e+000 46040 89383,89487,89461
 2.3000e+000 89585 -4.0098e+001 -1.5890e+002 -4.4176e+000 46040 89383,89435,89409
 2.3000e+000 89562 -3.8782e+001 -1.2458e+002 -1.1994e+001 46040 89383,89513,89487
 2.3000e+000 89539  7.1012e+000 -9.6299e+001 -3.8287e+001 46040 89357,89513,89383
 2.3000e+000 90009 -5.1030e+001 -1.6225e+002  3.0209e-001 45636 89813,89891,89839
 2.3000e+000 89986 -5.2565e+001 -1.5201e+002  9.2543e+000 45636 89787,89891,89813
 2.3000e+000 89963 -4.6444e+001 -1.5134e+002 -3.3390e+000 45636 89839,89891,89865
 2.3000e+000 89940 -6.3807e+001 -1.6977e+002  4.4372e+000 45636 89735,89891,89787
 2.3000e+000 89917 -5.1659e+001 -1.6937e+002 -5.7629e+000 45636 89735,89787,89761
 2.3000e+000 90208 -3.5541e+001 -1.3041e+002 -2.9251e+001 45175 90231,90058,90032
 2.3000e+000 90185 -1.7738e+001 -1.1747e+002 -4.4037e+001 45175 90231,90032,90136
 2.3000e+000 90162 -4.5389e+001 -1.0519e+002 -2.1764e+000 45175 90058,90110,90084
 2.3000e+000 90257 -5.5231e+001 -1.4887e+002 -6.9748e+000 45175 90110,90058,90231
 2.3000e+000 90280 -2.1318e+001 -1.2630e+002 -2.3491e+001 45175 90110,90231,90136
 2.3000e+000 90528 -3.7120e+001 -1.2890e+002 -1.5881e+001 44513 90695,90551,90407
 2.3000e+000 90505 -4.3461e+001 -1.2230e+002 -8.1656e+000 44513 90551,90355,90329
 2.3000e+000 90482 -4.9205e+001 -1.1367e+002 -1.2399e+001 44513 90623,90303,90433
 2.3000e+000 90459 -2.5656e+001 -1.2149e+002 -1.2627e+001 44513 90695,90407,90381
 2.3000e+000 90577 -5.6263e+001 -1.3541e+002 -2.6181e+001 44513 90433,90407,90551
 2.3000e+000 90600 -4.7351e+001 -1.2216e+002 -1.2765e+001 44513 90623,90433,90551
 2.3000e+000 90649 -5.3630e+001 -1.2311e+002 -1.0700e+001 44513 90329,90303,90623
 2.3000e+000 90672 -5.0291e+001 -1.2646e+002 -1.1432e+001 44513 90329,90623,90551
 2.3000e+000 90721 -4.9374e+001 -1.1987e+002 -1.7210e+001 44513 90355,90551,90695
 2.3000e+000 90744 -4.5189e+001 -1.1754e+002 -1.6174e+001 44513 90355,90695,90381
 2.3000e+000 91077  1.4640e+001 -1.1337e+002  2.3655e+001 44059 91100,90930,90904
 2.3000e+000 91054 -5.8814e+001 -1.5161e+002  8.5703e+000 44059 91100,90904,90982
 2.3000e+000 91031 -7.8461e+001 -1.5127e+002 -1.0194e+000 44059 90878,90982,90904
 2.3000e+000 91008 -2.3355e+001 -1.2706e+002  5.4046e+000 44059 90852,90982,90878
 2.3000e+000 91126 -1.0574e+002 -1.5137e+002  6.4488e+000 44059 91172,91100,90956
 2.3000e+000 91149 -5.4789e+001 -1.4386e+002  1.6682e+000 44059 90956,91100,90982
 2.3000e+000 91198 -1.5978e+001 -1.1301e+002 -2.1007e+001 44059 90930,91100,91172
 2.3000e+000 91677 -7.5968e+001 -1.1992e+002  1.0669e+001 43549 91455,91533,91481
 2.3000e+000 91654 -3.2487e+001 -1.1850e+002  1.5689e+001 43549 91429,91533,91455
 2.3000e+000 91631 -7.1132e+001 -1.1555e+002  3.7003e+000 43549 91481,91533,91507
 2.3000e+000 91608 -1.8207e+001 -1.1264e+002  7.5196e+000 43549 91429,91559,91533
 2.3000e+000 91585 -1.9817e+000 -3.8657e+001  2.8193e-001 43549 91403,91559,91429
 2.3000e+000 92006 -6.4361e+001 -1.7077e+002  4.2657e+000 43059 91781,91885,91807
 2.3000e+000 91983 -6.5289e+001 -1.5667e+002  2.9772e+001 43059 91781,91911,91885
 2.3000e+000 91960 -5.8167e+001 -1.6704e+002  2.7045e+000 43059 91807,91885,91833
 2.3000e+000 91937 -3.4659e+001 -1.5813e+002 -8.7647e-001 43059 91833,91885,91859
 2.3000e+000 92561 -5.6564e+001 -1.2683e+002 -1.5058e+001 42598 92584,92215,92189
 2.3000e+000 92538 -6.1376e+001 -1.4554e+002 -1.4760e+001 42598 92656,92584,92189
 2.3000e+000 92515 -5.2819e+001 -1.6606e+002 -4.3059e+000 42598 92656,92189,92397
 2.3000e+000 92492 -6.7889e+001 -1.0938e+002 -1.5747e+001 42598 92241,92319,92293
 2.3000e+000 92469 -6.4174e+001 -1.3835e+002  8.3345e+000 42598 92319,92397,92371
 2.3000e+000 92446 -2.7502e+001 -1.6858e+002  6.2731e+001 42598 92319,92371,92345
 2.3000e+000 92423 -7.3927e+001 -1.1739e+002 -2.5907e+001 42598 92241,92293,92267
 2.3000e+000 92610 -5.8922e+001 -1.2662e+002 -1.3266e+001 42598 92241,92215,92584
 2.3000e+000 92633 -5.4457e+001 -1.1675e+002 -1.7322e+001 42598 92241,92584,92319
 2.3000e+000 92682 -5.3441e+001 -1.1772e+002 -9.9658e+000 42598 92319,92584,92656
 2.3000e+000 92705 -4.0833e+001 -1.3219e+002 -2.0421e+000 42598 92319,92656,92397
 2.3000e+000 92953 -6.1435e+001 -1.8505e+002  1.1471e+001 42094 92976,92806,92780
 2.3000e+000 92930 -7.0483e+001 -1.7344e+002  1.8567e-001 42094 92976,92780,92754
 2.3000e+000 92907 -4.0606e+000 -1.7968e+002 -6.2388e-001 42094 93048,92832,92806
 2.3000e+000 92884 -9.4431e+001 -1.6843e+002 -1.4441e+001 42094 92728,92858,92754
 2.3000e+000 93002 -3.4649e+001 -1.7000e+002  5.4863e+000 42094 93048,92806,92976
 2.3000e+000 93025 -6.1906e+001 -1.6853e+002 -4.7137e+000 42094 92858,92976,92754
 2.3000e+000 93074 -4.6231e+001 -1.9612e+002 -2.5666e+000 42094 92858,92832,93048
 2.3000e+000 93097 -7.1600e+001 -1.8368e+002  1.1034e+000 42094 92858,93048,92976
 2.3000e+000 93605 -6.9019e+001 -2.1432e+002 -5.7660e+000 41846 93628,93412,93386
 2.3000e+000 93582 -5.7920e+001 -1.6613e+002 -2.1528e+000 41846 93628,93386,93308
 2.3000e+000 93559 -7.7714e+001 -1.6718e+002 -2.2631e+001 41846 93700,93464,93438
 2.3000e+000 93536 -8.6199e+001 -2.0733e+002  1.1972e+001 41846 93308,93386,93334
 2.3000e+000 93513 -8.4524e+001 -2.0207e+002  9.5567e+000 41846 93334,93386,93360
 2.3000e+000 93490 -7.6374e+001 -1.3624e+002 -1.7314e+001 41846 93282,93464,93308
 2.3000e+000 93654 -5.5638e+001 -1.7393e+002 -1.4610e+001 41846 93438,93412,93628
 2.3000e+000 93677 -7.7991e+001 -1.6918e+002 -1.2236e+001 41846 93700,93438,93628
 2.3000e+000 93726 -7.3093e+001 -1.5434e+002 -2.1043e+001 41846 93308,93464,93700
 2.3000e+000 93749 -7.1585e+001 -1.5226e+002 -1.0766e+001 41846 93308,93700,93628
 2.3000e+000 94255 -5.3736e+001 -1.7191e+002  1.2389e+001 41385 93958,94114,94088
 2.3000e+000 94232 -4.5246e+001 -1.8448e+002  6.2129e+000 41385 93932,94114,93958
 2.3000e+000 94209 -9.6001e+001 -2.0017e+002  3.4902e+001 41385 93958,94088,94062
 2.3000e+000 94186 -1.0279e+002 -1.4222e+002  2.6583e+001 41385 93958,94062,93984
 2.3000e+000 94163 -8.4324e+001 -1.3922e+002  2.2767e+001 41385 93984,94062,94036
 2.3000e+000 94140 -5.8262e+001 -1.8808e+002  3.2165e+001 41385 93984,94036,94010
 2.3000e+000 94476 -1.0063e+001 -2.3872e+002  1.6661e+001 40881 94326,94378,94352
 2.3000e+000 94453 -3.5366e+001 -1.9310e+002  1.7816e+001 40881 94300,94378,94326
 2.3000e+000 94430 -4.4333e+001 -1.7571e+002  2.0533e+000 40881 94300,94404,94378
 2.3000e+000 94626 -5.1585e+001 -1.3243e+002  6.8116e+000 40591 94649,94551,94525
 2.3000e+000 94603 -7.0217e+000 -9.9923e+001  1.8568e+000 40591 94781,94577,94551
 2.3000e+000 94675 -3.1065e-001 -1.0484e+002 -7.5980e+000 40591 94781,94551,94649
 2.3000e+000 94807  8.6904e+000 -9.2161e+001  4.4712e+000 40591 94499,94577,94781
 2.3000e+000 94830  1.4228e+001 -9.8354e+001 -6.3023e+000 40591 94499,94781,94649
 2.3000e+000 95336 -1.0842e+002 -1.5778e+002 -2.2998e+001 40187 95013,95169,95039
 2.3000e+000 95313 -5.5188e+001 -1.4468e+002 -1.2214e+001 40187 95013,95195,95169
 2.3000e+000 95290 -4.2202e+001 -1.6360e+002  5.1961e+000 40187 95039,95143,95065
 2.3000e+000 95267 -1.1740e+002 -1.8923e+002 -3.2180e+001 40187 95039,95169,95143
 2.3000e+000 95244 -8.5503e+001 -2.2419e+002 -1.5881e+001 40187 95091,95143,95117
 2.3000e+000 95221 -3.7137e+001 -1.5309e+002  7.9872e+000 40187 95065,95143,95091
 2.3000e+000 95665 -6.0226e+001 -1.4419e+002  2.4328e+001 39626 95466,95570,95544
 2.3000e+000 95642 -7.3420e+001 -1.2630e+002  1.7445e+001 39626 95440,95570,95466
 2.3000e+000 95619 -5.2113e+001 -1.4459e+002  8.5857e+000 39626 95466,95544,95492
 2.3000e+000 95596 -9.4790e+001 -1.4048e+002  7.5959e+000 39626 95492,95544,95518
 2.3000e+000 95913 -6.2265e+001 -1.4927e+002 -2.3482e+001 39136 96080,95936,95766
 2.3000e+000 95890 -4.3982e+001 -1.6212e+002 -1.2826e+001 39136 95936,95714,95688
 2.3000e+000 95867 -1.1548e+002 -1.6071e+002  6.0642e+000 39136 96008,95792,95766
 2.3000e+000 95844 -4.9153e+001 -1.4441e+002 -1.8728e+001 39136 96080,95766,95740
 2.3000e+000 95962 -9.0199e+001 -1.6722e+002 -1.5123e+001 39136 96008,95766,95936
 2.3000e+000 95985 -5.5874e+001 -1.9688e+002 -3.3011e+000 39136 95818,95936,95688
 2.3000e+000 96034 -5.4163e+001 -1.3395e+002  1.0654e+001 39136 95818,95792,96008
 2.3000e+000 96057 -4.7511e+001 -1.4753e+002 -1.0295e+001 39136 95818,96008,95936
 2.3000e+000 96106 -5.6288e+001 -1.4943e+002 -5.3001e+000 39136 95714,95936,96080
 2.3000e+000 96129 -3.5179e+001 -1.4295e+002 -1.9107e+000 39136 95714,96080,95740
 2.3000e+000 96350 -4.2665e+001 -1.2839e+002 -4.7507e+000 38824 96200,96278,96252
 2.3000e+000 96327 -4.9769e+001 -1.3064e+002 -4.5985e+000 38824 96174,96278,96200
 2.3000e+000 96304 -4.3371e+001 -1.3185e+002 -4.2470e+000 38824 96200,96252,96226
 2.3000e+000 96830 -8.2804e+001 -1.4296e+002 -1.3285e+001 38320 97069,96536,96484
 2.3000e+000 96807 -8.1211e+001 -1.4516e+002 -1.3177e+001 38320 97069,96484,96853
 2.3000e+000 96784 -8.9989e+001 -1.5739e+002  2.5816e+000 38320 96853,96484,96458
 2.3000e+000 96761 -4.5590e+001 -1.2235e+002 -1.5662e+001 38320 96925,96640,96614
 2.3000e+000 96738 -7.5428e+001 -1.2772e+002 -6.1801e+000 38320 96997,96666,96640
 2.3000e+000 96715 -6.5771e+001 -1.6750e+002 -5.2913e+000 38320 97141,96588,96562
 2.3000e+000 96692 -1.0423e+002 -1.6451e+002 -3.7439e+000 38320 96484,96536,96510
 2.3000e+000 96879 -7.9918e+001 -1.5234e+002 -7.3315e+000 38320 97141,96562,96853
 2.3000e+000 96902 -7.2122e+001 -1.4898e+002 -5.0291e+000 38320 96925,96614,96853
 2.3000e+000 96951 -7.4026e+001 -1.2652e+002 -7.0505e+000 38320 96997,96640,96925
 2.3000e+000 96974 -7.1543e+001 -1.2455e+002 -4.8128e+000 38320 96458,96925,96853
 2.3000e+000 97023 -8.1912e+001 -1.2937e+002 -2.7706e+000 38320 96458,96666,96997
 2.3000e+000 97046 -7.6859e+001 -1.2675e+002 -3.7588e+000 38320 96458,96997,96925
 2.3000e+000 97095 -8.6363e+001 -1.3839e+002 -3.0288e+000 38320 96562,96536,97069
 2.3000e+000 97118 -7.7185e+001 -1.4369e+002 -1.1493e+001 38320 96562,97069,96853
 2.3000e+000 97167 -4.0186e+001 -1.5394e+002 -1.1708e+001 38320 96614,96588,97141
 2.3000e+000 97190 -6.3752e+001 -1.4563e+002 -1.2061e+001 38320 96614,97141,96853
 2.3000e+000 97519 -5.8538e+001 -1.5740e+002  3.8619e+001 37766 97542,97398,97372
 2.3000e+000 97496 -7.9566e+001 -1.3895e+002  2.1055e+001 37766 97542,97372,97346
 2.3000e+000 97473 -7.0782e+001 -1.4979e+002  4.1787e+000 37766 97294,97424,97346
 2.3000e+000 97450 -8.1062e+001 -1.8148e+002 -1.5997e-001 37766 97294,97346,97320
 2.3000e+000 97568 -2.3897e+001 -1.5003e+002  2.8737e+001 37766 97424,97398,97542
 2.3000e+000 97591 -5.4663e+001 -1.3243e+002  1.1735e+001 37766 97424,97542,97346
 2.3000e+000 98048 -6.8208e+001 -1.1113e+002 -3.6685e+001 37262 98071,97878,97852
 2.3000e+000 98025 -5.5738e+001 -1.3211e+002 -1.4603e+001 37262 98071,97852,97800
 2.3000e+000 98002 -7.0896e+001 -1.6218e+002 -9.4203e+000 37262 97800,97852,97826
 2.3000e+000 97979 -7.2158e+001 -1.4096e+002  4.7521e+000 37262 97800,97930,97904
 2.3000e+000 97956 -4.9868e+001 -1.6852e+002  1.1416e+001 37262 97774,97930,97800
 2.3000e+000 98097 -1.0352e+002 -1.2767e+002 -2.8764e+001 37262 97904,97878,98071
 2.3000e+000 98120 -7.4195e+001 -1.4703e+002 -7.7947e+000 37262 97904,98071,97800
 2.3000e+000 98449 -3.1313e+001 -9.7771e+001 -1.3220e+001 36950 98472,98302,98250
 2.3000e+000 98426 -1.4901e+001 -9.1700e+001 -1.6571e+001 36950 98472,98250,98354
 2.3000e+000 98403 -5.4091e+001 -1.1052e+002  1.4681e+001 36950 98250,98302,98276
 2.3000e+000 98380 -9.9479e+000 -6.8524e+001  1.1782e+001 36950 98224,98354,98250
 2.3000e+000 98498 -1.9116e+001 -1.1254e+002 -3.2996e+000 36950 98328,98302,98472
 2.3000e+000 98521  4.7289e-001 -1.0340e+002 -9.4256e+000 36950 98328,98472,98354
 2.3000e+000 99125 -9.8620e+001 -9.9111e+001  1.2859e+001 36296 98704,98756,98730
 2.3000e+000 99102 -6.9886e+001 -1.0842e+002  2.4265e+000 36296 98704,98938,98756
 2.3000e+000 99079 -5.0417e+001 -1.1921e+002 -3.1323e+000 36296 99148,98938,98912
 2.3000e+000 99056 -5.6499e+001 -1.1849e+002  2.3513e+001 36296 99292,99220,98782
 2.3000e+000 99033 -4.4736e+001 -1.2803e+002  8.5299e-001 36296 99148,98912,98834
 2.3000e+000 99010 -5.0230e+001 -9.9978e+001  2.3538e+001 36296 99292,98782,98756
 2.3000e+000 98987 -4.1849e+001 -2.2729e+002 -4.5860e+001 36296 98834,98912,98886
 2.3000e+000 98964 -7.7015e+001 -3.2937e+002 -5.8301e+001 36296 98834,98886,98860
 2.3000e+000 99174 -6.0215e+001 -1.3813e+002  1.8071e+000 36296 99220,98938,99148
 2.3000e+000 99197 -4.2709e+001 -1.5281e+002  1.2951e+001 36296 98808,99148,98834
 2.3000e+000 99246 -4.9370e+001 -1.0157e+002  5.9964e+001 36296 98808,98782,99220
 2.3000e+000 99269 -1.8976e+001 -1.0098e+002  1.8547e+001 36296 98808,99220,99148
 2.3000e+000 99318 -5.2863e+001 -9.7683e+001  1.0308e+001 36296 98938,99220,99292
 2.3000e+000 99341 -5.4407e+001 -1.0102e+002  1.1304e+001 36296 98938,99292,98756
 2.3000e+000 99719 -7.7822e+001 -1.7010e+002  5.7558e-001 35742 99742,99471,99601
 2.3000e+000 99696 -8.0540e+001 -1.3130e+002  1.7973e+001 35742 99445,99601,99471
 2.3000e+000 99673 -7.3609e+001 -1.6047e+002 -6.6616e+000 35742 99742,99601,99575
 2.3000e+000 99650 -6.3188e+001 -2.0121e+002 -5.5233e+000 35742 99814,99549,99523
 2.3000e+000 99627 -4.7569e+001 -1.5488e+002 -1.9994e+000 35742 99471,99523,99497
 2.3000e+000 99768 -6.1124e+001 -1.6597e+002  3.5945e+000 35742 99523,99471,99742
 2.3000e+000 99791 -7.3104e+001 -1.8499e+002 -4.7471e+000 35742 99814,99523,99742
 2.3000e+000 99840 -6.1259e+001 -1.8123e+002 -1.1726e+001 35742 99575,99549,99814
 2.3000e+000 99863 -6.7731e+001 -1.6015e+002 -1.0457e+001 35742 99575,99814,99742
 2.3000e+000 100111 -5.4693e+001 -1.3671e+002  1.1314e+001 35302 100134,99990,99938
 2.3000e+000 100088 -4.3237e+001 -1.2347e+002  3.9053e+000 35302 100134,99938,99912
 2.3000e+000 100065 -4.3082e+001 -1.2423e+002 -2.9778e+000 35302 100206,99886,100016
 2.3000e+000 100042 -7.3443e+001 -1.3024e+002  7.1624e+000 35302 99938,99990,99964
 2.3000e+000 100160 -3.9683e+001 -1.3098e+002  3.2172e+000 35302 100016,99990,100134
 2.3000e+000 100183 -4.1034e+001 -1.2596e+002 -2.9286e+000 35302 100206,100016,100134
 2.3000e+000 100232 -4.4797e+001 -1.2630e+002 -1.6706e+000 35302 99912,99886,100206
 2.3000e+000 100255 -4.2897e+001 -1.2849e+002 -1.6950e+000 35302 99912,100206,100134
 2.3000e+000 100586 -3.8345e+001 -8.6807e+001  2.4889e-001 35012 100609,100387,100361
 2.3000e+000 100563 -3.8443e+001 -9.3721e+001  4.1734e+000 35012 100609,100361,100465
 2.3000e+000 100540 -6.2258e+001 -1.1848e+002  1.4773e+001 35012 100361,100491,100465
 2.3000e+000 100517 -3.2779e+001 -9.2733e+001  1.3812e+001 35012 100413,100465,100439
 2.3000e+000 100635 -4.0530e+001 -8.8076e+001  7.4732e+000 35012 100413,100387,100609
 2.3000e+000 100658 -4.2150e+001 -9.8651e+001  1.1250e+001 35012 100413,100609,100465
 2.3000e+000 100987 -5.8382e+001 -1.2285e+002  9.5918e+000 34700 100788,100866,100814
 2.3000e+000 100964 -4.8088e+001 -1.1455e+002  1.3264e+001 34700 101010,100866,100788
 2.3000e+000 100941 -4.9586e+001 -1.2068e+002  2.4535e+001 34700 100762,100892,100866
 2.3000e+000 100918 -6.4628e+001 -1.3376e+002 -1.8248e+000 34700 100814,100866,100840
 2.3000e+000 101036 -3.9160e+001 -1.0864e+002  1.7773e+001 34700 100762,100866,101010
 2.3000e+000 101493 -7.9458e+001 -1.5911e+002 -1.3786e+001 34132 101516,101349,101297
 2.3000e+000 101470 -9.8347e+001 -1.9397e+002 -2.3340e+001 34132 101588,101516,101297
 2.3000e+000 101447 -9.8898e+001 -2.0521e+002 -3.4903e+001 34132 101588,101297,101245
 2.3000e+000 101424 -5.7717e+001 -2.3881e+002 -3.3241e+001 34132 101245,101297,101271
 2.3000e+000 101401 -8.4835e+001 -1.5916e+002 -1.6219e+001 34132 101297,101349,101323
 2.3000e+000 101542 -8.1168e+001 -1.8668e+002 -1.1179e+001 34132 101375,101349,101516
 2.3000e+000 101565 -7.3439e+001 -1.8684e+002 -1.2107e+001 34132 101375,101516,101219
 2.3000e+000 101614 -7.6291e+001 -1.9507e+002 -1.1516e+001 34132 101219,101516,101588
 2.3000e+000 101637 -8.7606e+001 -2.0604e+002 -2.2543e+001 34132 101219,101588,101245
 2.3000e+000 101858 -1.6993e+001 -1.4293e+002  9.5841e+000 33720 101708,101786,101760
 2.3000e+000 101835 -3.8217e+001 -1.6746e+002 -2.6609e-001 33720 101682,101786,101708
 2.3000e+000 101812 -4.7034e+001 -1.5708e+002  5.3821e+000 33720 101708,101760,101734
 2.3000e+000 102128 -1.1785e+001 -1.6593e+002 -4.5198e+000 33130 101903,102007,101929
 2.3000e+000 102105 -1.5207e+001 -1.9224e+002  6.3643e+000 33130 101903,102033,102007
 2.3000e+000 102082 -2.3681e+000 -1.9987e+002 -4.0062e+001 33130 101929,102007,101955
 2.3000e+000 102059 -2.1835e+001 -1.3910e+002  3.5822e+000 33130 101955,102007,101981
 2.3000e+000 102461 -6.2628e+001 -1.5601e+002 -1.2708e+001 32840 102236,102340,102262
 2.3000e+000 102438 -5.2424e+001 -1.1137e+002  2.5250e+000 32840 102236,102366,102340
 2.3000e+000 102415 -3.4941e+001 -1.4712e+002 -1.2158e+001 32840 102262,102340,102288
 2.3000e+000 102392 -8.2318e+001 -1.5920e+002 -3.3469e+001 32840 102288,102340,102314
 2.3000e+000 102997 -5.3223e+001 -9.2188e+001  2.5681e+001 32493 102749,102879,102853
 2.3000e+000 102974 -4.2370e+001 -7.1066e+001  1.7679e+001 32493 102723,102879,102749
 2.3000e+000 102951 -6.2490e+001 -1.1244e+002  1.6964e+001 32493 102749,102801,102775
 2.3000e+000 102928 -6.7358e+001 -1.1179e+002  1.6299e+001 32493 102749,102853,102801
 2.3000e+000 102905 -6.3907e+001 -1.0497e+002  1.4820e+001 32493 102801,102853,102827
 2.3000e+000 103454 -7.2484e+001 -1.3349e+002 -6.9100e+000 32089 103206,103336,103310
 2.3000e+000 103431 -6.1237e+001 -1.3179e+002  6.9670e-001 32089 103180,103336,103206
 2.3000e+000 103408 -7.6918e+001 -1.5159e+002 -2.1400e+001 32089 103206,103284,103258
 2.3000e+000 103385 -1.0565e+002 -1.5758e+002 -2.3983e+001 32089 103206,103310,103284
 2.3000e+000 103362 -6.6987e+001 -1.1776e+002  6.5980e+000 32089 103206,103258,103232
 2.3000e+000 103783 -1.0774e+002 -1.6151e+002 -1.5613e+001 31742 103558,103662,103584
 2.3000e+000 103760 -9.5345e+001 -1.4461e+002 -3.1827e+001 31742 103558,103688,103662
 2.3000e+000 103737 -7.5059e+001 -1.3581e+002 -2.8211e+001 31742 103584,103662,103636
 2.3000e+000 103714 -4.1578e+001 -1.5444e+002 -4.7002e+001 31742 103584,103636,103610
 2.3000e+000 104112 -1.0056e+001 -1.3136e+002  2.9682e+001 31402 103939,103991,103965
 2.3000e+000 104089 -3.8892e+001 -1.1844e+002  1.3507e+001 31402 103913,103991,103939
 2.3000e+000 104066 -5.6682e+001 -1.3519e+002  4.5968e+000 31402 103913,104017,103991
 2.3000e+000 104043 -6.4638e+001 -1.1675e+002 -2.2649e+000 31402 103887,104017,103913
 2.3000e+000 104569 -1.0373e+002 -1.9424e+002  1.7055e+000 30998 104321,104425,104373
 2.3000e+000 104546 -1.1585e+002 -1.9796e+002  9.4805e-003 30998 104321,104451,104425
 2.3000e+000 104523 -9.4805e+001 -1.6905e+002  1.6728e+001 30998 104373,104425,104399
 2.3000e+000 104500 -1.0451e+002 -2.1055e+002 -6.1773e+000 30998 104295,104451,104321
 2.3000e+000 104477 -1.4637e+002 -2.4419e+002  3.7727e+001 30998 104321,104373,104347
 2.3000e+000 104947 -9.3420e+001 -1.5381e+002 -2.0146e+001 30608 104751,104803,104777
 2.3000e+000 104924 -6.0491e+001 -1.5796e+002 -7.8954e+000 30608 104725,104803,104751
 2.3000e+000 104901 -8.8980e+001 -1.5251e+002  7.4969e+000 30608 104699,104803,104725
 2.3000e+000 104878 -8.9397e+001 -1.5423e+002  9.7341e+000 30608 104673,104803,104699
 2.3000e+000 104855 -6.9983e+001 -1.5205e+002 -7.3373e+000 30608 104673,104829,104803
 2.3000e+000 105276 -5.2361e+001 -1.3519e+002  1.4757e+001 30204 105427,105129,105077
 2.3000e+000 105253 -2.3516e+001 -1.3885e+002  4.5771e+001 30204 105427,105077,105051
 2.3000e+000 105230 -4.0524e+001 -1.4352e+002  8.9613e+000 30204 105077,105129,105103
 2.3000e+000 105207 -1.0134e+002 -1.2540e+002  1.5607e+001 30204 105299,105181,105155
 2.3000e+000 105325 -7.7590e+001 -1.1442e+002  1.2172e+001 30204 105129,105181,105299
 2.3000e+000 105453 -6.9462e+001 -1.4341e+002  1.8383e+001 30204 105181,105129,105427
 2.3000e+000 105476 -7.8361e+001 -1.6387e+002  5.2418e+001 30204 105181,105427,105051
 2.3000e+000 105903 -4.6623e+001 -1.1920e+002 -9.0572e+000 29700 105606,105762,105736
 2.3000e+000 105880 -6.0963e+001 -1.2207e+002  1.1215e+000 29700 105580,105762,105606
 2.3000e+000 105857 -7.7123e+001 -1.5210e+002 -1.0388e+001 29700 105606,105710,105632
 2.3000e+000 105834 -6.1636e+001 -1.2845e+002 -3.3691e+000 29700 105606,105736,105710
 2.3000e+000 105811 -6.1376e+001 -1.4132e+002 -1.8285e+001 29700 105632,105710,105684
 2.3000e+000 105788 -5.7521e+001 -1.3094e+002  3.4900e+000 29700 105632,105684,105658
 2.3000e+000 106102 -3.2876e+001 -1.5734e+002  3.8390e+000 29124 105978,106030,106004
 2.3000e+000 106079 -5.3900e+001 -1.6568e+002 -1.3489e-001 29124 105926,106030,105978
 2.3000e+000 106056 -4.9109e+001 -1.6841e+002  1.9460e+001 29124 105926,105978,105952
 2.3000e+000 106301 -3.1955e+001 -1.4888e+002  1.1137e+000 28712 106151,106229,106203
 2.3000e+000 106278 -4.1422e+001 -1.6486e+002 -6.9155e+000 28712 106125,106229,106151
 2.3000e+000 106255 -3.3632e+001 -1.5838e+002  1.0542e+001 28712 106151,106203,106177
 2.3000e+000 106551 -4.6162e+001 -1.8409e+002  1.5683e+000 28258 106352,106404,106378
 2.3000e+000 106528 -6.0603e+001 -1.8725e+002 -1.3874e+000 28258 106352,106456,106404
 2.3000e+000 106505 -4.9127e+001 -1.9887e+002 -5.6616e+000 28258 106326,106456,106352
 2.3000e+000 106482 -6.0454e+001 -1.7853e+002  3.7570e+000 28258 106404,106456,106430
 2.3000e+000 107012 -6.3952e+001 -1.6131e+002  3.2317e+001 27818 107035,106790,106764
 2.3000e+000 106989 -5.4067e+001 -1.4876e+002  1.2777e+001 27818 107035,106764,106868
 2.3000e+000 106966 -4.1392e+001 -1.7716e+002  1.5717e+001 27818 107107,106842,106816
 2.3000e+000 106943 -8.4398e+001 -1.3986e+002  8.1465e+000 27818 106738,106868,106764
 2.3000e+000 106920 -8.0690e+001 -1.1977e+002  2.7495e+001 27818 106738,106894,106868
 2.3000e+000 107061 -2.6507e+001 -1.5196e+002  3.5245e+001 27818 106816,106790,107035
 2.3000e+000 107084 -4.7295e+001 -1.6784e+002  1.6745e+001 27818 107107,106816,107035
 2.3000e+000 107133 -4.5776e+001 -1.6235e+002  8.2992e+000 27818 106868,106842,107107
 2.3000e+000 107156 -4.7021e+001 -1.4648e+002  1.1807e+001 27818 106868,107107,107035
 2.3000e+000 107613 -1.3044e+001 -1.1929e+002  2.3915e+001 27312 107339,107469,107365
 2.3000e+000 107590  3.5576e+000 -1.1253e+002  2.1472e+001 27312 107339,107495,107469
 2.3000e+000 107567 -1.6463e+001 -1.1373e+002  1.0218e+001 27312 107391,107469,107443
 2.3000e+000 107544 -1.2850e+001 -1.2418e+002  8.5858e+000 27312 107365,107469,107391
 2.3000e+000 107521 -5.1621e+001 -1.2521e+002  3.2029e+000 27312 107391,107443,107417
 2.3000e+000 107991 -6.8787e+001 -1.8316e+002  2.2135e+000 26858 108086,108014,107795
 2.3000e+000 107968 -7.4686e+001 -1.8998e+002 -2.0023e+001 26858 108014,107717,107873
 2.3000e+000 107945 -8.0085e+001 -1.9325e+002  9.9138e+000 26858 108158,108086,107795
 2.3000e+000 107922 -6.5521e+001 -1.9254e+002  8.9891e+000 26858 108158,107795,107769
 2.3000e+000 107899 -4.5964e+001 -2.3517e+002  3.1762e+001 26858 107821,107873,107847
 2.3000e+000 108040 -7.0351e+001 -2.0953e+002  7.8628e+000 26858 107821,107795,108014
 2.3000e+000 108063 -3.3928e+001 -2.0050e+002 -5.4161e+000 26858 107821,108014,107873
 2.3000e+000 108112 -9.7043e+001 -1.9398e+002  6.4939e+000 26858 107717,108014,108086
 2.3000e+000 108135 -8.0930e+001 -2.0117e+002  1.9980e+001 26858 107717,108086,107743
 2.3000e+000 108184 -6.3133e+001 -1.9088e+002  1.5086e+001 26858 107743,108086,108158
 2.3000e+000 108207 -5.6670e+001 -1.9599e+002  1.5029e+001 26858 107743,108158,107769
 2.3000e+000 108634 -8.2511e+001 -1.7296e+002  2.8997e+000 26404 108657,108415,108363
 2.3000e+000 108611 -9.3620e+001 -1.8769e+002  2.0143e+001 26404 108657,108363,108337
 2.3000e+000 108588 -7.5909e+001 -1.6493e+002  2.6368e+001 26404 108729,108311,108467
 2.3000e+000 108565 -1.0175e+002 -1.9831e+002 -1.6419e+000 26404 108801,108441,108415
 2.3000e+000 108542 -1.4421e+002 -1.9517e+002  3.1508e+001 26404 108311,108493,108467
 2.3000e+000 108519 -6.4297e+001 -1.7496e+002  2.1899e+000 26404 108363,108415,108389
 2.3000e+000 108683 -1.1806e+002 -1.8283e+002  6.8558e-001 26404 108801,108415,108657
 2.3000e+000 108706 -1.1329e+002 -1.7631e+002  1.9616e+001 26404 108729,108467,108657
 2.3000e+000 108755 -5.1249e+001 -1.8167e+002  2.6491e+001 26404 108337,108311,108729
 2.3000e+000 108778 -7.0412e+001 -1.7994e+002  1.9365e+001 26404 108337,108729,108657
 2.3000e+000 108827 -1.1880e+002 -2.2704e+002 -1.0684e+001 26404 108467,108441,108801
 2.3000e+000 108850 -1.2878e+002 -2.0160e+002 -7.7482e+000 26404 108467,108801,108657
 2.3000e+000 109228 -7.4664e+001 -1.6673e+002 -2.9056e+000 26064 109006,109084,109058
 2.3000e+000 109205 -5.9950e+001 -1.5446e+002  6.5655e+000 26064 108980,109084,109006
 2.3000e+000 109182 -6.8725e+001 -1.5171e+002  1.1013e+000 26064 108980,109110,109084
 2.3000e+000 109159 -7.3267e+001 -1.6964e+002 -5.6956e-001 26064 109006,109058,109032
 2.3000e+000 109136  1.5544e+001 -1.3616e+002  1.5384e+001 26064 108954,109110,108980
 2.3000e+000 109427 -2.8814e+001 -1.5437e+002 -3.2388e+001 25660 109303,109355,109329
 2.3000e+000 109404 -4.7312e+001 -1.9104e+002 -9.4638e+000 25660 109277,109355,109303
 2.3000e+000 109381 -3.5417e+001 -1.7809e+002 -3.9292e+000 25660 109251,109355,109277
 2.3000e+000 109577  5.5095e+000 -6.2861e+001  5.0139e+001 25306 109476,109528,109502
 2.3000e+000 109554  2.1665e+001 -8.4432e+001  9.6292e+000 25306 109450,109528,109476
 2.3000e+000 109778 -5.5389e+001 -1.6054e+002  4.0802e+000 24944 109628,109706,109654
 2.3000e+000 109755 -6.1985e+001 -1.6019e+002 -6.3825e-001 24944 109602,109706,109628
 2.3000e+000 109732 -4.9764e+001 -1.5136e+002  2.2801e-001 24944 109654,109706,109680
 2.3000e+000 110126 -5.9302e+001 -2.1241e+002  1.3226e+001 24440 110149,109907,109855
 2.3000e+000 110103 -6.5376e+001 -2.2041e+002  1.7165e+001 24440 110149,109855,109985
 2.3000e+000 110080 -4.1929e+001 -1.8890e+002  4.4488e+000 24440 109855,109907,109881
 2.3000e+000 110057 -4.2881e+001 -1.7808e+002  5.1138e+001 24440 109829,109985,109855
 2.3000e+000 110034 -6.0244e+001 -2.1317e+002  1.4547e+000 24440 109907,109959,109933
 2.3000e+000 110011 -8.5503e+001 -2.0442e+002  1.5762e+001 24440 109803,109985,109829
 2.3000e+000 110175 -6.1208e+001 -2.0218e+002  5.7821e+000 24440 109959,109907,110149
 2.3000e+000 110198 -7.1387e+001 -2.1166e+002  1.0821e+001 24440 109959,110149,109985
 2.3000e+000 110301  9.2697e-002 -2.1761e+002 -2.8812e+001 24028 110223,110275,110249
 2.3000e+000 110573 -1.6422e+001 -1.0390e+002  6.3032e+000 23467 110400,110452,110426
 2.3000e+000 110550 -3.5201e+001 -1.3712e+002 -1.2192e+000 23467 110374,110452,110400
 2.3000e+000 110527 -3.3719e+001 -1.3643e+002  1.1274e+000 23467 110348,110452,110374
 2.3000e+000 110504 -2.2257e+001 -1.3448e+002 -1.4443e+000 23467 110348,110478,110452
 2.3000e+000 111004 -9.8804e+001 -2.1062e+002 -2.5750e+001 22963 111027,110733,110707
 2.3000e+000 110981 -9.7649e+001 -1.9932e+002  8.0747e+000 22963 111027,110707,110681
 2.3000e+000 110958 -4.9318e+001 -1.7583e+002 -1.8710e+001 22963 111099,110759,110733
 2.3000e+000 110935 -5.8797e+001 -1.7493e+002 -1.4844e+001 22963 111171,110863,110811
 2.3000e+000 110912 -3.4913e+001 -1.3190e+002 -2.1208e+001 22963 110759,110811,110785
 2.3000e+000 110889 -6.2538e+001 -1.8988e+002 -1.6971e+001 22963 110811,110863,110837
 2.3000e+000 111053 -6.8695e+001 -1.8737e+002 -1.3500e+001 22963 111099,110733,111027
 2.3000e+000 111076 -5.6665e+001 -1.8705e+002 -1.2492e+001 22963 111171,110811,111027
 2.3000e+000 111125 -4.9149e+001 -1.7449e+002 -2.9859e+001 22963 110811,110759,111099
 2.3000e+000 111148 -5.3005e+001 -1.7420e+002 -2.7150e+001 22963 110811,111099,111027
 2.3000e+000 111197 -6.1068e+001 -1.5230e+002 -1.9418e+001 22963 110681,110863,111171
 2.3000e+000 111220 -6.7285e+001 -1.6905e+002 -1.0877e+001 22963 110681,111171,111027
 2.3000e+000 111726 -9.2367e+001 -1.8811e+002  3.6696e+000 22459 111749,111507,111429
 2.3000e+000 111703 -8.6380e+001 -1.8627e+002 -2.8567e+000 22459 111749,111429,111585
 2.3000e+000 111680 -7.6096e+001 -2.0087e+002 -1.3961e+000 22459 111403,111585,111429
 2.3000e+000 111657 -8.8970e+001 -2.0537e+002  5.7834e+000 22459 111507,111559,111533
 2.3000e+000 111634 -1.2064e+002 -1.7677e+002  9.5210e+000 22459 111455,111507,111481
 2.3000e+000 111611 -1.2077e+002 -1.7519e+002  1.2806e+001 22459 111429,111507,111455
 2.3000e+000 111775 -9.2663e+001 -1.9804e+002  9.3513e+000 22459 111559,111507,111749
 2.3000e+000 111798 -8.6355e+001 -1.9109e+002  3.0033e+000 22459 111559,111749,111585
 2.3000e+000 112046 -2.1904e+001 -1.5317e+002 -1.6827e+001 21898 112069,111925,111873
 2.3000e+000 112023 -1.5148e+001 -1.4623e+002  1.0520e+001 21898 112069,111873,111847
 2.3000e+000 112000 -5.0488e+001 -1.4891e+002 -2.5588e+000 21898 111821,111951,111847
 2.3000e+000 111977 -2.6632e+001 -1.4251e+002 -1.4937e+001 21898 111873,111925,111899
 2.3000e+000 112095 -6.1648e+001 -1.6495e+002 -3.0606e+001 21898 111951,111925,112069
 2.3000e+000 112118 -3.9299e+001 -1.5303e+002 -3.9663e+000 21898 111951,112069,111847
 2.3000e+000 112498 -7.1387e+001 -1.7119e+002 -1.4247e+001 21608 112521,112276,112224
 2.3000e+000 112475 -4.8151e+001 -1.7405e+002  1.4627e-002 21608 112521,112224,112380
 2.3000e+000 112452 -5.2352e+001 -1.9684e+002  1.1918e+001 21608 112302,112380,112354
 2.3000e+000 112429 -8.0756e+001 -1.9136e+002 -1.0313e+001 21608 112224,112276,112250
 2.3000e+000 112406  2.2912e+001 -2.1596e+002 -1.1365e+001 21608 112302,112354,112328
 2.3000e+000 112547 -5.2271e+001 -1.4827e+002 -3.8778e+000 21608 112302,112276,112521
 2.3000e+000 112570 -3.7203e+001 -1.6708e+002  6.2628e+000 21608 112302,112521,112380
 2.3000e+000 112948 -8.2669e+001 -1.8114e+002 -4.0922e+000 20882 112971,112752,112700
 2.3000e+000 112925 -5.9560e+001 -1.7351e+002 -9.1939e+000 20882 112971,112700,112830
 2.3000e+000 112902 -1.0840e+002 -1.9621e+002  1.1934e+001 20882 112778,112830,112804
 2.3000e+000 112879 -5.5658e+001 -1.3832e+002 -1.3134e+001 20882 112674,112830,112700
 2.3000e+000 112856 -1.0016e+002 -1.8751e+002  1.9322e+000 20882 112700,112752,112726
 2.3000e+000 112997 -8.3483e+001 -1.8138e+002  8.7173e+000 20882 112778,112752,112971
 2.3000e+000 113020 -7.0286e+001 -1.7774e+002  3.1320e+000 20882 112778,112971,112830
 2.3000e+000 113526 -6.7067e+001 -1.8353e+002  1.3816e-002 20428 113255,113385,113333
 2.3000e+000 113503 -7.1973e+001 -1.9857e+002 -2.6815e-002 20428 113229,113385,113255
 2.3000e+000 113480 -1.4652e+001 -1.7823e+002  1.4089e+000 20428 113255,113333,113281
 2.3000e+000 113457 -6.3734e+001 -1.9555e+002  1.0698e+000 20428 113203,113385,113229
 2.3000e+000 113434 -3.7637e+001 -1.8519e+002 -6.0013e+000 20428 113281,113333,113307
 2.3000e+000 113411 -7.9295e+001 -1.8020e+002  2.9011e+000 20428 113333,113385,113359
 2.3000e+000 113774 -1.0746e+001 -1.7155e+002  3.9564e+000 19917 113797,113601,113549
 2.3000e+000 113751 -2.7638e+001 -1.7416e+002  5.8198e+000 19917 113869,113797,113549
 2.3000e+000 113728 -2.7452e+001 -1.7594e+002  1.1540e+001 19917 113869,113549,113679
 2.3000e+000 113705 -1.5175e+001 -1.6698e+002  1.1425e+001 19917 113549,113601,113575
 2.3000e+000 113823 -2.8717e+001 -2.0860e+002 -3.2145e+000 19917 113627,113601,113797
 2.3000e+000 113846 -9.4954e+000 -1.6424e+002 -8.1143e+000 19917 113627,113797,113653
 2.3000e+000 113895 -2.5656e+001 -1.5789e+002 -1.9152e+000 19917 113653,113797,113869
 2.3000e+000 113918 -3.4932e+001 -1.6363e+002  5.7876e+000 19917 113653,113869,113679
 2.3000e+000 114166 -8.1552e+001 -1.8077e+002 -3.9721e+000 19413 113993,114045,114019
 2.3000e+000 114143 -7.1036e+001 -1.6627e+002  1.5265e+000 19413 113967,114045,113993
 2.3000e+000 114120 -6.3612e+001 -1.6369e+002  6.3695e+000 19413 113967,114071,114045
 2.3000e+000 114097 -4.4870e+001 -1.8068e+002 -4.0414e+000 19413 113941,114071,113967
 2.3000e+000 114438 -7.6583e+001 -1.9930e+002  7.3431e-002 19001 114213,114265,114239
 2.3000e+000 114415 -5.7653e+001 -1.5824e+002 -5.2930e+000 19001 114213,114343,114265
 2.3000e+000 114392 -8.3920e+001 -2.1683e+002 -1.0803e+001 19001 114265,114343,114317
 2.3000e+000 114369  6.9656e+000 -1.7313e+002  2.5783e+000 19001 114265,114317,114291
 2.3000e+000 114639 -1.0797e+002 -2.0693e+002 -1.5787e+001 18554 114489,114541,114515
 2.3000e+000 114616 -6.7317e+001 -2.2898e+002 -1.5244e+001 18554 114489,114567,114541
 2.3000e+000 114593 -1.0106e+002 -2.2807e+002 -2.1998e+001 18554 114463,114567,114489
 2.3000e+000 115043 -4.0426e+001 -1.7474e+002  5.7700e+000 18164 114795,114925,114821
 2.3000e+000 115020 -3.3003e+001 -1.8363e+002  1.1330e+001 18164 114769,114925,114795
 2.3000e+000 114997 -2.6280e+001 -1.8359e+002 -1.5573e+000 18164 115066,114873,114821
 2.3000e+000 114974 -2.3471e+001 -1.5768e+002 -5.0592e+000 18164 115066,114821,114925
 2.3000e+000 114951  1.4748e+000 -1.8370e+002 -1.5023e+001 18164 114821,114873,114847
 2.3000e+000 115092 -3.6825e+001 -1.6483e+002 -1.5400e+001 18164 114899,114873,115066
 2.3000e+000 115115 -2.3989e+001 -1.2527e+002 -1.9924e+001 18164 114899,115066,114925
 2.3000e+000 115265 -5.7108e+001 -2.0112e+002  2.1221e+000 17852 115164,115216,115190
 2.3000e+000 115242 -5.6034e+001 -2.0905e+002  2.1966e+000 17852 115138,115216,115164
 2.3000e+000 115464 -1.1118e+002 -2.6240e+002  3.4373e+000 17346 115288,115366,115340
 2.3000e+000 115441 -1.8053e+002 -2.0628e+002 -6.7245e+000 17346 115288,115392,115366
 2.3000e+000 115418 -1.0468e+002 -2.9444e+002 -9.3289e+000 17346 115288,115340,115314
 2.3000e+000 115736 -5.5726e+001 -1.8036e+002  5.8671e+000 16942 115563,115641,115615
 2.3000e+000 115713 -5.8301e+001 -1.7666e+002  2.7839e+000 16942 115511,115641,115563
 2.3000e+000 115690 -1.2977e+002 -2.0839e+002  1.0759e+001 16942 115563,115615,115589
 2.3000e+000 115667 -6.7198e+001 -1.9639e+002  5.9751e+000 16942 115511,115563,115537
 2.3000e+000 116091 -8.7157e+001 -2.0625e+002 -9.9871e+000 16388 115918,115970,115944
 2.3000e+000 116068 -7.2639e+001 -1.6126e+002 -6.6418e+000 16388 115918,115996,115970
 2.3000e+000 116045 -9.9375e+001 -2.0667e+002  5.6803e+000 16388 115892,115996,115918
 2.3000e+000 116022 -6.6833e+001 -1.9098e+002  2.0950e+001 16388 115866,115996,115892
 2.3000e+000 116192 -3.4040e+001 -2.2341e+002 -3.1816e+001 15810 116114,116166,116140
 2.3000e+000 116342 -4.5688e+001 -2.2394e+002  2.6424e+001 15419 116241,116293,116267
 2.3000e+000 116319 -6.4843e+001 -3.0410e+002 -3.8442e+000 15419 116215,116293,116241
 2.3000e+000 116445 -8.8103e+001 -1.8079e+002 -1.2828e-001 421 116367,116419,116393
 2.4000e+000 68477 -1.3138e+002 -1.9462e+002  5.7560e+000 68018 68327,68379,68353
 2.4000e+000 68454 -1.3966e+002 -2.5496e+002  2.3189e+001 68018 68301,68379,68327
 2.4000e+000 68431 -6.6690e+001 -2.9505e+002  5.0854e+001 68018 68301,68405,68379
 2.4000e+000 68578 -8.0820e+001 -1.9282e+002  2.3081e+000 67820 68500,68552,68526
 2.4000e+000 68728 -9.3465e+001 -1.8663e+002 -2.5827e+000 67508 68601,68653,68627
 2.4000e+000 68705 -1.4735e+002 -1.3583e+002 -2.6184e+001 67508 68601,68679,68653
 2.4000e+000 68927 -2.2213e+001 -1.5939e+002 -6.9251e+000 67310 68777,68829,68803
 2.4000e+000 68904 -4.9219e+001 -1.8233e+002  4.0046e+000 67310 68751,68829,68777
 2.4000e+000 68881 -5.8671e+001 -2.0377e+002  1.1779e+000 67310 68751,68855,68829
 2.4000e+000 69386 -7.7679e+001 -2.1415e+002 -1.1259e+001 67020 69216,69268,69242
 2.4000e+000 69363 -6.6154e+001 -1.5864e+002 -1.9816e+001 67020 69138,69268,69216
 2.4000e+000 69340 -5.1831e+001 -1.4159e+002 -9.4486e+000 67020 69112,69268,69138
 2.4000e+000 69317 -9.3773e+001 -1.8221e+002  1.4938e+001 67020 69138,69190,69164
 2.4000e+000 69294 -9.6515e+001 -1.6376e+002 -7.3170e+000 67020 69138,69216,69190
 2.4000e+000 69536 -1.3834e+002 -3.6646e+002 -2.4621e+001 66708 69435,69487,69461
 2.4000e+000 69513 -1.0742e+002 -4.0860e+002 -2.0033e+000 66708 69409,69487,69435
 2.4000e+000 69735 -9.0919e+001 -2.0627e+002  4.9911e+000 66346 69585,69637,69611
 2.4000e+000 69712 -7.3338e+001 -1.9701e+002 -5.7578e-001 66346 69559,69637,69585
 2.4000e+000 69689 -6.5667e+001 -1.9625e+002 -1.9582e+001 66346 69559,69663,69637
 2.4000e+000 69985 -1.1664e+002 -2.1694e+002  5.6210e+000 66148 69786,69890,69864
 2.4000e+000 69962 -1.2080e+002 -2.1962e+002  7.1683e+000 66148 69760,69890,69786
 2.4000e+000 69939 -7.9265e+001 -2.0334e+002 -3.0880e+001 66148 69786,69864,69838
 2.4000e+000 69916 -1.0006e+002 -2.2446e+002 -8.0473e+000 66148 69786,69838,69812
 2.4000e+000 70137 -2.1361e+000 -1.8894e+002 -1.3136e+001 65950 70036,70088,70062
 2.4000e+000 70114  2.5478e+001 -2.1671e+002  1.9745e+001 65950 70010,70088,70036
 2.4000e+000 70470 -7.3260e+000 -1.5020e+002  2.7008e+000 65546 70245,70323,70271
 2.4000e+000 70447 -1.2444e+001 -1.6323e+002  3.0103e+000 65546 70245,70375,70323
 2.4000e+000 70424 -9.0295e+000 -1.8855e+002  9.7245e+000 65546 70323,70375,70349
 2.4000e+000 70401 -1.6767e+001 -1.5457e+002  4.2009e+000 65546 70271,70323,70297
 2.4000e+000 70620 -5.2586e+001 -2.0450e+002  1.0201e+001 65348 70493,70545,70519
 2.4000e+000 70597 -4.8654e+001 -2.2235e+002  6.8676e+000 65348 70493,70571,70545
 2.4000e+000 70721 -9.7602e+001 -2.0766e+002  8.6787e+000 65150 70643,70695,70669
 2.4000e+000 71020 -7.4777e+001 -1.5561e+002  6.4742e+000 64952 71043,70850,70824
 2.4000e+000 70997 -5.8559e+001 -1.2740e+002 -3.1520e+000 64952 71043,70824,70772
 2.4000e+000 70974 -5.5421e+001 -1.9120e+002  3.2523e+000 64952 71115,70746,70876
 2.4000e+000 70951 -6.9053e+001 -1.8706e+002  1.1726e+001 64952 70746,70902,70876
 2.4000e+000 70928 -6.8893e+001 -1.2235e+002 -7.5483e+000 64952 70772,70824,70798
 2.4000e+000 71069 -4.8463e+001 -1.4351e+002  9.5446e+000 64952 70876,70850,71043
 2.4000e+000 71092 -6.1278e+001 -1.7473e+002  8.6087e-001 64952 71115,70876,71043
 2.4000e+000 71141 -6.0213e+001 -1.7329e+002 -9.3689e+000 64952 70772,70746,71115
 2.4000e+000 71164 -5.7609e+001 -1.4784e+002 -1.3302e+001 64952 70772,71115,71043
 2.4000e+000 71365 -8.9339e+000 -1.8628e+002 -3.5214e+000 64662 71215,71293,71267
 2.4000e+000 71342  3.3771e+001 -1.5795e+002 -3.9342e+001 64662 71189,71293,71215
 2.4000e+000 71319  1.3396e+001 -1.4075e+002  3.5259e+000 64662 71215,71267,71241
 2.4000e+000 71615 -4.1684e+001 -1.9092e+002 -3.4967e-001 64350 71710,71638,71468
 2.4000e+000 71592 -1.9832e+001 -1.8096e+002 -7.8224e+000 64350 71638,71416,71390
 2.4000e+000 71569 -5.0568e+001 -1.7431e+002  1.4370e+001 64350 71710,71468,71442
 2.4000e+000 71546  6.3415e+001 -1.7588e+002 -3.3739e+001 64350 71390,71520,71494
 2.4000e+000 71664 -3.2194e+001 -1.8541e+002 -5.5035e+000 64350 71494,71468,71638
 2.4000e+000 71687 -2.7947e+001 -1.9083e+002 -2.4687e+000 64350 71494,71638,71390
 2.4000e+000 71736 -2.4537e+001 -1.5688e+002 -6.1507e+000 64350 71416,71638,71710
 2.4000e+000 71759 -3.7631e+001 -1.4523e+002  1.1465e+001 64350 71416,71710,71442
 2.4000e+000 72318 -4.2564e+001 -2.9048e+002 -1.8508e+001 63837 71972,72024,71998
 2.4000e+000 72295 -5.7688e+001 -1.8714e+002 -1.9878e+000 63837 72341,71972,71946
 2.4000e+000 72272 -5.4331e+001 -1.4808e+002  1.2532e+001 63837 72413,72341,71946
 2.4000e+000 72249 -5.5126e+001 -1.3241e+002  8.2081e+000 63837 72413,71946,72128
 2.4000e+000 72226 -9.1698e+001 -1.5999e+002  6.3296e+000 63837 72024,72076,72050
 2.4000e+000 72203 -7.6555e+001 -1.4354e+002 -2.2189e+000 63837 72024,72102,72076
 2.4000e+000 72180 -4.6303e+001 -1.2994e+002  1.4181e+001 63837 71946,72154,72128
 2.4000e+000 72367 -8.6360e+001 -2.0662e+002 -3.9931e+001 63837 72024,71972,72341
 2.4000e+000 72390 -5.9581e+001 -1.5966e+002 -1.2689e+001 63837 72024,72341,72102
 2.4000e+000 72439 -4.6617e+001 -1.7328e+002  6.6070e+000 63837 72102,72341,72413
 2.4000e+000 72462 -4.6283e+001 -1.5593e+002  4.3299e+000 63837 72102,72413,72128
 2.4000e+000 72791 -7.9503e+001 -1.6206e+002 -1.5647e+001 63383 72592,72696,72670
 2.4000e+000 72768 -8.5198e+001 -1.5806e+002 -3.0972e+001 63383 72566,72696,72592
 2.4000e+000 72745 -8.7121e+001 -1.4618e+002 -9.8307e-001 63383 72592,72670,72618
 2.4000e+000 72722 -8.9083e+001 -1.4253e+002 -7.3210e+000 63383 72618,72670,72644
 2.4000e+000 73297 -1.0321e+002 -1.5164e+002 -1.3314e+000 63185 73000,73156,73130
 2.4000e+000 73274 -1.0371e+002 -1.5766e+002  1.9105e+001 63185 72974,73156,73000
 2.4000e+000 73251 -7.9191e+001 -1.7384e+002  2.5913e-001 63185 73000,73052,73026
 2.4000e+000 73228 -8.1769e+001 -1.5282e+002 -6.0096e+000 63185 73000,73130,73052
 2.4000e+000 73205 -8.3865e+001 -1.8059e+002 -2.5665e+001 63185 73052,73130,73104
 2.4000e+000 73182 -7.5366e+001 -1.9474e+002 -2.5728e+001 63185 73052,73104,73078
 2.4000e+000 73545 -2.9031e+001 -1.6007e+002  8.7253e-001 62781 73568,73398,73372
 2.4000e+000 73522 -1.4388e+001 -1.4629e+002  9.8196e+000 62781 73568,73372,73346
 2.4000e+000 73499 -3.7238e+001 -1.5887e+002 -8.9060e+000 62781 73640,73320,73424
 2.4000e+000 73476 -5.9592e+001 -1.2352e+002 -1.3580e+001 62781 73320,73450,73424
 2.4000e+000 73594 -3.3970e+001 -1.4797e+002 -3.6771e-001 62781 73424,73398,73568
 2.4000e+000 73617 -3.3561e+001 -1.5508e+002 -1.7257e+000 62781 73640,73424,73568
 2.4000e+000 73666 -3.3194e+001 -1.5042e+002 -3.3669e+000 62781 73346,73320,73640
 2.4000e+000 73689 -3.0771e+001 -1.4395e+002  3.1838e+000 62781 73346,73640,73568
 2.4000e+000 74035 -8.6594e+001 -2.0024e+002 -8.0229e+000 62363 74058,73868,73842
 2.4000e+000 74012 -6.5957e+001 -1.8165e+002 -1.8521e+001 62363 74130,74058,73842
 2.4000e+000 73989 -5.9968e+001 -1.7904e+002 -1.8072e+001 62363 74130,73842,73816
 2.4000e+000 73966 -9.6137e+001 -2.0863e+002  2.6347e+000 62363 74202,73764,73894
 2.4000e+000 73943 -1.2184e+002 -1.8776e+002  4.1892e+000 62363 73712,73894,73764
 2.4000e+000 73920 -1.3449e+002 -2.0111e+002 -2.4423e+000 62363 73712,73764,73738
 2.4000e+000 74084 -7.2223e+001 -1.9137e+002 -2.5070e+000 62363 73894,73868,74058
 2.4000e+000 74107 -8.9144e+001 -2.0005e+002  7.7539e+000 62363 74202,73894,74058
 2.4000e+000 74156 -7.3014e+001 -1.8267e+002  4.6013e+000 62363 73790,74058,74130
 2.4000e+000 74179 -4.2031e+001 -1.6915e+002  7.5241e+000 62363 73790,74130,73816
 2.4000e+000 74228 -1.0346e+002 -2.1189e+002 -9.7837e+000 62363 73790,73764,74202
 2.4000e+000 74251 -9.7939e+001 -2.0255e+002 -4.7750e+000 62363 73790,74202,74058
 2.4000e+000 74403  3.9178e+001 -2.0189e+002  1.6388e+001 62115 74426,74302,74276
 2.4000e+000 74380  4.7780e+001 -1.9206e+002  2.0100e+001 62115 74426,74276,74354
 2.4000e+000 74452  2.9245e+001 -1.9097e+002  1.4836e+001 62115 74328,74302,74426
 2.4000e+000 74475  3.7674e+001 -1.8090e+002  1.8571e+001 62115 74328,74426,74354
 2.4000e+000 74578  3.7016e+001 -1.4161e+002  5.1730e+000 61825 74500,74552,74526
 2.4000e+000 74982 -9.8745e+001 -1.7864e+002  9.7911e-001 61513 75005,74734,74708
 2.4000e+000 74959 -9.7649e+001 -1.7730e+002  4.6670e-001 61513 75005,74708,74864
 2.4000e+000 74936 -1.2560e+002 -1.8495e+002  1.0723e+001 61513 75077,74812,74734
 2.4000e+000 74913 -1.0758e+002 -1.8178e+002 -1.5352e+001 61513 74734,74786,74760
 2.4000e+000 74890 -1.0644e+002 -1.6559e+002 -2.0046e+000 61513 74734,74812,74786
 2.4000e+000 75031 -9.3989e+001 -1.8360e+002  1.4852e+000 61513 75077,74734,75005
 2.4000e+000 75054 -7.0939e+001 -1.7542e+002  2.9119e+001 61513 74838,75005,74864
 2.4000e+000 75103 -1.4275e+002 -1.9079e+002  3.9828e+001 61513 74838,74812,75077
 2.4000e+000 75126 -1.2232e+002 -1.9717e+002  3.0565e+001 61513 74838,75077,75005
 2.4000e+000 75553 -3.8546e+001 -1.5659e+002 -4.6019e+000 61060 75576,75360,75308
 2.4000e+000 75530 -2.9169e+001 -1.7372e+002 -1.1051e+000 61060 75576,75308,75230
 2.4000e+000 75507 -3.7254e+001 -1.5052e+002  2.0280e+000 61060 75308,75360,75334
 2.4000e+000 75484 -3.8196e+001 -1.9290e+002  2.6896e+000 61060 75230,75308,75256
 2.4000e+000 75461 -4.0757e+001 -1.8993e+002  7.1991e-001 61060 75256,75308,75282
 2.4000e+000 75438 -5.8775e+001 -1.5929e+002  2.1926e+001 61060 75360,75412,75386
 2.4000e+000 75602 -3.9675e+001 -1.6887e+002  2.6943e+000 61060 75412,75360,75576
 2.4000e+000 75625 -3.4879e+001 -1.9380e+002  5.0398e+000 61060 75412,75576,75230
 2.4000e+000 76052 -6.1785e+001 -1.6466e+002  1.4429e+000 60442 75755,75859,75833
 2.4000e+000 76029 -5.6421e+001 -1.4126e+002 -2.2285e+001 60442 75729,75859,75755
 2.4000e+000 76006 -6.0986e+001 -1.4301e+002  8.6475e+000 60442 75755,75833,75807
 2.4000e+000 75983 -6.6634e+001 -1.7257e+002  1.8522e+000 60442 75755,75807,75781
 2.4000e+000 75960  2.9712e+000 -3.0132e+002  9.7304e+000 60442 75729,75911,75859
 2.4000e+000 75937 -1.3839e+002 -7.1294e+002  4.4113e+001 60442 75859,75911,75885
 2.4000e+000 76430 -6.9021e+001 -1.8320e+002 -2.5410e+000 59788 76453,76286,76234
 2.4000e+000 76407 -7.4223e+001 -2.0544e+002  6.0738e+000 59788 76453,76234,76182
 2.4000e+000 76384 -7.5737e+001 -1.3078e+002  2.5190e+001 59788 76525,76156,76312
 2.4000e+000 76361 -4.6379e+001 -2.3816e+002  1.9062e+000 59788 76182,76234,76208
 2.4000e+000 76338 -4.3794e+001 -1.6937e+002  3.0428e+000 59788 76234,76286,76260
 2.4000e+000 76479 -8.0761e+001 -1.9447e+002  3.8020e+000 59788 76312,76286,76453
 2.4000e+000 76502 -6.8471e+001 -1.8141e+002  1.0695e+001 59788 76525,76312,76453
 2.4000e+000 76551 -9.5498e+001 -1.9458e+002  2.6748e+001 59788 76182,76156,76525
 2.4000e+000 76574 -8.3813e+001 -2.1023e+002  1.6412e+001 59788 76182,76525,76453
 2.4000e+000 77031 -1.9975e+001 -1.0827e+002 -2.0789e+001 59448 76835,76887,76861
 2.4000e+000 77008  1.1277e+001 -8.0601e+001 -1.6242e-001 59448 76835,76913,76887
 2.4000e+000 76985 -8.7189e+000 -8.3547e+001  1.8036e+001 59448 76809,76913,76835
 2.4000e+000 76962 -4.7435e+001 -9.7981e+001 -9.7677e+000 59448 76757,76913,76809
 2.4000e+000 76939 -3.2406e+001 -9.0029e+001 -1.5799e+001 59448 76757,76809,76783
 2.4000e+000 77537 -7.9583e+001 -1.7634e+002  9.7737e+000 58994 77560,77344,77292
 2.4000e+000 77514 -1.1404e+002 -1.7495e+002  3.1130e+000 58994 77560,77292,77240
 2.4000e+000 77491 -6.3608e+001 -1.6506e+002 -4.9391e+000 58994 77632,77214,77370
 2.4000e+000 77468 -1.3482e+002 -2.0222e+002  3.3752e+001 58994 77292,77344,77318
 2.4000e+000 77445 -6.5766e+001 -2.0314e+002  4.8282e+000 58994 77214,77396,77370
 2.4000e+000 77422 -1.1706e+002 -1.8882e+002 -4.8183e+000 58994 77240,77292,77266
 2.4000e+000 77586 -8.2639e+001 -1.7994e+002  1.1123e+001 58994 77370,77344,77560
 2.4000e+000 77609 -8.3103e+001 -1.7702e+002  1.2455e+001 58994 77632,77370,77560
 2.4000e+000 77658 -5.2791e+001 -1.5190e+002 -2.2637e+001 58994 77240,77214,77632
 2.4000e+000 77681 -6.6872e+001 -1.4954e+002 -6.8496e+000 58994 77240,77632,77560
 2.4000e+000 78138 -5.8382e+001 -1.1178e+002  1.2428e+001 58440 77864,77994,77890
 2.4000e+000 78115 -3.3606e+001 -6.2256e+001 -1.5711e+001 58440 77864,78020,77994
 2.4000e+000 78092 -6.6146e+001 -1.3366e+002 -1.3663e+001 58440 77942,77994,77968
 2.4000e+000 78069 -4.8109e+001 -1.2039e+002  1.9616e+000 58440 77890,77994,77942
 2.4000e+000 78046 -4.3690e+001 -1.1563e+002 -3.3140e-001 58440 77890,77942,77916
 2.4000e+000 78467 -1.3857e+001 -1.6545e+002  4.1123e+000 57928 78562,78490,78346
 2.4000e+000 78444 -3.4002e+001 -1.5293e+002  7.8469e+000 57928 78490,78294,78268
 2.4000e+000 78421 -8.9865e+000 -1.6920e+002  8.0982e+000 57928 78562,78346,78320
 2.4000e+000 78398 -1.2967e+001 -1.5695e+002  9.6634e-001 57928 78242,78372,78268
 2.4000e+000 78516 -3.6607e+001 -2.0389e+002 -1.1232e+001 57928 78372,78346,78490
 2.4000e+000 78539 -2.5110e+001 -1.5553e+002 -1.5239e+000 57928 78372,78490,78268
 2.4000e+000 78588 -3.7032e+001 -1.6485e+002  1.6938e+000 57928 78294,78490,78562
 2.4000e+000 78611 -2.2300e+001 -1.5718e+002  9.5637e+000 57928 78294,78562,78320
 2.4000e+000 79068 -9.8201e+001 -2.3400e+002 -6.0054e+001 57467 78794,78924,78820
 2.4000e+000 79045 -6.9305e+001 -2.2228e+002 -6.1481e+001 57467 78794,78950,78924
 2.4000e+000 79022 -6.7312e+000 -1.8707e+002  9.1464e+000 57467 78820,78898,78872
 2.4000e+000 78999 -7.5616e+001 -2.7124e+002 -3.9000e+001 57467 78820,78924,78898
 2.4000e+000 78976 -1.8998e+001 -1.9544e+002  1.4584e+001 57467 78820,78872,78846
 2.4000e+000 79446 -9.0372e+001 -1.9149e+002  3.7949e+000 57120 79172,79302,79250
 2.4000e+000 79423 -8.0716e+001 -1.8672e+002 -1.0628e+001 57120 79172,79328,79302
 2.4000e+000 79400 -8.4075e+001 -1.6553e+002 -2.4678e+000 57120 79172,79250,79198
 2.4000e+000 79377 -6.2654e+001 -2.6341e+002  1.0918e+001 57120 79250,79302,79276
 2.4000e+000 79354 -1.0725e+002 -1.8196e+002 -1.0394e+001 57120 79198,79250,79224
 2.4000e+000 79952 -1.0280e+002 -1.8066e+002  2.8755e+000 56773 79629,79785,79655
 2.4000e+000 79929 -2.0198e+001 -1.5551e+002  1.0837e+001 56773 79629,79811,79785
 2.4000e+000 79906 -7.0294e+001 -2.1046e+002  1.8179e+001 56773 79655,79733,79681
 2.4000e+000 79883 -7.2087e+001 -1.7794e+002  3.5314e+000 56773 79655,79785,79733
 2.4000e+000 79860 -5.9337e+001 -2.3847e+002 -3.8579e+001 56773 79733,79785,79759
 2.4000e+000 79837 -6.4509e+000 -1.8030e+002  5.6914e+001 56773 79681,79733,79707
 2.4000e+000 80281 -3.8639e+001 -1.2975e+002 -1.8191e+001 56319 80108,80160,80134
 2.4000e+000 80258 -3.5486e+001 -1.5824e+002 -2.1419e+001 56319 80056,80160,80108
 2.4000e+000 80235 -6.9309e+000 -1.3808e+002  7.1713e+000 56319 80056,80186,80160
 2.4000e+000 80212 -3.8782e+001 -2.1898e+002 -2.6670e+001 56319 80056,80108,80082
 2.4000e+000 80738 -2.7499e+001 -1.6925e+002  1.1436e+001 55957 80516,80620,80594
 2.4000e+000 80715 -5.8213e+001 -1.5040e+002  1.1120e+001 55957 80464,80620,80516
 2.4000e+000 80692 -5.2066e+001 -1.7798e+002  8.6549e+000 55957 80761,80568,80542
 2.4000e+000 80669 -3.8706e+001 -1.7813e+002  9.7803e+000 55957 80761,80542,80516
 2.4000e+000 80646 -5.9279e+001 -1.5236e+002  2.5745e+001 55957 80464,80516,80490
 2.4000e+000 80787 -6.2821e+001 -1.7906e+002  7.2664e+000 55957 80594,80568,80761
 2.4000e+000 80810 -5.0510e+001 -1.7984e+002  8.6762e+000 55957 80594,80761,80516
 2.4000e+000 81210 -3.2784e+001 -1.7324e+002 -1.4379e+001 55317 80936,80988,80962
 2.4000e+000 81187 -3.0196e+001 -1.8377e+002 -6.0867e+000 55317 80936,81066,80988
 2.4000e+000 81164 -3.2593e+001 -1.9959e+002 -4.7893e-001 55317 80936,81092,81066
 2.4000e+000 81141 -7.2669e+001 -2.0569e+002 -1.9958e+001 55317 80988,81066,81014
 2.4000e+000 81118 -9.3957e+000 -1.2923e+002  8.9663e+000 55317 81014,81066,81040
 2.4000e+000 81539 -6.4429e+001 -1.7499e+002 -1.0979e-001 54913 81340,81418,81392
 2.4000e+000 81516  1.7510e+000 -1.3697e+002 -1.9293e+001 54913 81340,81444,81418
 2.4000e+000 81493 -2.1953e+001 -1.5423e+002 -4.2144e+001 54913 81314,81444,81340
 2.4000e+000 81470 -7.7398e+001 -2.0431e+002 -7.1198e+000 54913 81340,81392,81366
 2.4000e+000 81787 -4.9845e+001 -2.0191e+002 -3.0684e+000 54601 81588,81692,81640
 2.4000e+000 81764 -8.4805e+001 -2.1159e+002 -1.1864e+001 54601 81562,81692,81588
 2.4000e+000 81741 -3.6959e+001 -2.0355e+002  2.3584e+001 54601 81588,81640,81614
 2.4000e+000 81718 -5.2902e+001 -2.4272e+002 -2.1787e+001 54601 81640,81692,81666
 2.4000e+000 82344 -7.5870e+001 -2.1480e+002 -1.2203e+001 54090 81998,82102,82076
 2.4000e+000 82321 -1.0341e+002 -2.2684e+002 -7.6198e+000 54090 81998,82154,82102
 2.4000e+000 82298 -9.5783e+001 -2.2102e+002 -5.0450e+000 54090 81972,82154,81998
 2.4000e+000 82275 -1.0829e+002 -1.9831e+002 -1.4654e+001 54090 81998,82076,82024
 2.4000e+000 82252 -1.1687e+002 -2.3619e+002  1.1747e+001 54090 81972,82180,82154
 2.4000e+000 82229 -1.4572e+002 -2.7537e+002  1.5575e+001 54090 82102,82154,82128
 2.4000e+000 82206 -1.7119e+001 -1.4782e+002 -3.5777e+001 54090 82024,82076,82050
 2.4000e+000 82722 -1.2336e+002 -2.2195e+002 -1.1080e+001 53579 82500,82578,82552
 2.4000e+000 82699 -8.7238e+001 -2.0118e+002  3.4329e+000 53579 82448,82578,82500
 2.4000e+000 82676 -9.1202e+001 -2.2906e+002  5.9233e-001 53579 82448,82500,82474
 2.4000e+000 82653 -1.1842e+002 -2.1804e+002  1.8358e+001 53579 82448,82604,82578
 2.4000e+000 82630 -6.2658e+001 -2.0690e+002 -1.3048e+001 53579 82500,82552,82526
 2.4000e+000 83356 -5.7725e+001 -1.6464e+002 -1.4438e+001 53189 83379,83088,83036
 2.4000e+000 83333 -5.5710e+001 -1.8458e+002 -1.2879e+001 53189 83379,83036,82984
 2.4000e+000 83310 -2.1557e+001 -1.6864e+002  3.5164e+001 53189 82984,83192,83166
 2.4000e+000 83287  3.5386e+000 -1.4009e+002 -1.3716e+001 53189 83036,83088,83062
 2.4000e+000 83264 -4.9567e+001 -2.2824e+002 -2.5860e+001 53189 82984,83036,83010
 2.4000e+000 83241 -2.7393e+001 -1.9853e+002  7.8229e+000 53189 83114,83166,83140
 2.4000e+000 83218 -8.2563e+001 -2.1322e+002  6.8483e+000 53189 83088,83166,83114
 2.4000e+000 83405 -5.7965e+001 -1.7804e+002 -6.2224e+000 53189 83166,83088,83379
 2.4000e+000 83428 -5.2958e+001 -1.9563e+002 -5.9274e+000 53189 83166,83379,82984
 2.4000e+000 83725 -6.5469e+001 -2.3070e+002 -1.6669e+001 52585 83748,83529,83503
 2.4000e+000 83702 -3.3355e+001 -2.1806e+002 -1.3313e+001 52585 83820,83748,83503
 2.4000e+000 83679  4.6919e+000 -2.1105e+002 -1.0276e+001 52585 83820,83503,83477
 2.4000e+000 83656 -4.1748e+001 -2.0342e+002  2.9648e+001 52585 83477,83607,83581
 2.4000e+000 83633  4.8103e+000 -1.8544e+002  2.5664e+001 52585 83451,83607,83477
 2.4000e+000 83774 -5.5138e+001 -2.0426e+002 -1.2888e+001 52585 83555,83529,83748
 2.4000e+000 83797 -9.4200e+001 -2.1536e+002 -8.3174e+000 52585 83555,83748,83581
 2.4000e+000 83846 -6.9296e+001 -1.9916e+002  6.1309e+000 52585 83581,83748,83820
 2.4000e+000 83869 -4.1069e+001 -1.9799e+002  5.2273e+000 52585 83581,83820,83477
 2.4000e+000 84200 -6.6542e+001 -2.1863e+002 -6.1583e+000 52024 84001,84105,84079
 2.4000e+000 84177 -2.8078e+001 -2.1150e+002 -1.5828e+001 52024 83975,84105,84001
 2.4000e+000 84154 -5.4097e+001 -2.1790e+002 -4.6595e+000 52024 84001,84079,84053
 2.4000e+000 84131 -2.5984e+001 -1.4512e+002  2.5679e+001 52024 84001,84053,84027
 2.4000e+000 84399 -4.2373e+001 -1.9975e+002 -2.5487e+000 51470 84422,84275,84249
 2.4000e+000 84376 -3.9506e+001 -2.0112e+002 -1.9952e+000 51470 84422,84249,84223
 2.4000e+000 84353 -4.6605e+001 -2.1430e+002 -2.6245e+001 51470 84275,84327,84301
 2.4000e+000 84448 -4.4771e+001 -2.0012e+002 -1.9425e+000 51470 84327,84275,84422
 2.4000e+000 84471 -4.1544e+001 -2.0115e+002 -1.6520e+000 51470 84327,84422,84223
 2.4000e+000 84753 -6.4505e+001 -1.8505e+002 -9.7940e-001 51073 84603,84655,84629
 2.4000e+000 84730 -1.3133e+002 -2.1652e+002 -1.0162e+001 51073 84776,84655,84603
 2.4000e+000 84707 -2.7328e+001 -1.8331e+002 -5.4096e+001 51073 84577,84681,84655
 2.4000e+000 84802 -8.2380e+001 -1.8839e+002 -2.6510e+001 51073 84577,84655,84776
 2.4000e+000 85178 -1.1420e+002 -2.4553e+002  2.2275e+001 50519 85201,85008,84982
 2.4000e+000 85155 -1.0774e+002 -2.2775e+002  1.7907e+001 50519 85273,85201,84982
 2.4000e+000 85132 -1.0102e+002 -2.2743e+002  1.3666e+001 50519 85273,84982,84930
 2.4000e+000 85109 -9.7326e+001 -2.2220e+002  1.1903e+001 50519 84930,84982,84956
 2.4000e+000 85086 -9.8694e+001 -2.3717e+002  1.1862e+001 50519 85008,85060,85034
 2.4000e+000 85227 -9.6525e+001 -2.3433e+002  1.0691e+001 50519 85060,85008,85201
 2.4000e+000 85250 -1.0676e+002 -2.3900e+002  7.3672e+000 50519 85060,85201,84904
 2.4000e+000 85299 -1.0113e+002 -2.3199e+002  4.1017e+000 50519 84904,85201,85273
 2.4000e+000 85322 -7.5818e+001 -1.9825e+002 -7.1304e+000 50519 84904,85273,84930
 2.4000e+000 85958 -5.8747e+001 -1.9379e+002 -5.4147e+000 50093 85981,85768,85716
 2.4000e+000 85935 -5.2772e+001 -1.7819e+002 -6.5344e+000 50093 85981,85716,85612
 2.4000e+000 85912 -6.5332e+001 -1.7212e+002 -8.1794e-001 50093 85612,85716,85664
 2.4000e+000 85889 -4.4463e+001 -1.8977e+002 -1.4014e+000 50093 85716,85768,85742
 2.4000e+000 85866 -6.8361e+001 -1.4825e+002 -2.9784e+001 50093 85664,85716,85690
 2.4000e+000 85843  2.0793e+001 -1.2876e+002 -1.5057e+001 50093 85586,85794,85612
 2.4000e+000 85820 -4.6826e+001 -2.4503e+002  1.3730e+001 50093 85612,85664,85638
 2.4000e+000 86007 -6.9907e+001 -2.0631e+002 -2.7174e+001 50093 85794,85768,85981
 2.4000e+000 86030 -5.1845e+001 -1.6202e+002 -2.2881e+001 50093 85794,85981,85612
 2.4000e+000 86131 -6.8538e+001 -2.2467e+002  3.1305e+001 49895 86053,86105,86079
 2.4000e+000 86639 -3.2052e+001 -1.3789e+002 -2.0234e+001 49391 86662,86394,86368
 2.4000e+000 86616 -3.6708e+001 -1.6339e+002 -1.4232e+001 49391 86662,86368,86342
 2.4000e+000 86593 -1.0207e+001 -1.5290e+002  7.4954e+000 49391 86342,86498,86472
 2.4000e+000 86570  2.3812e+001 -1.7453e+002  9.0443e+000 49391 86316,86498,86342
 2.4000e+000 86547 -7.9424e+001 -2.4155e+002 -2.9524e+000 49391 86394,86472,86446
 2.4000e+000 86524  6.0772e+000 -2.3726e+002  7.4118e+000 49391 86394,86446,86420
 2.4000e+000 86688 -4.5408e+001 -1.6132e+002 -9.5593e+000 49391 86472,86394,86662
 2.4000e+000 86711 -3.4353e+001 -1.7156e+002 -7.1625e+000 49391 86472,86662,86342
 2.4000e+000 87089 -6.9544e+001 -2.0135e+002  4.5177e+000 48987 86815,86919,86867
 2.4000e+000 87066 -7.1071e+001 -2.0348e+002  5.5165e+000 48987 86815,86971,86919
 2.4000e+000 87043 -3.2080e+001 -2.2215e+002 -1.8870e+001 48987 86867,86919,86893
 2.4000e+000 87020 -7.7146e+001 -2.2391e+002  2.0675e+001 48987 86815,86867,86841
 2.4000e+000 86997 -8.4203e+001 -1.8380e+002  2.6863e+001 48987 86919,86971,86945
 2.4000e+000 87467 -1.3088e+002 -1.9722e+002  8.0949e+000 48540 87490,87245,87219
 2.4000e+000 87444 -1.0112e+002 -1.8735e+002  1.1054e+000 48540 87562,87490,87219
 2.4000e+000 87421 -7.5121e+001 -1.7674e+002  7.8394e+000 48540 87562,87219,87349
 2.4000e+000 87398 -1.0915e+002 -1.6151e+002 -4.0175e+000 48540 87245,87297,87271
 2.4000e+000 87375 -5.9984e+001 -1.8993e+002  4.3987e+000 48540 87193,87349,87219
 2.4000e+000 87516 -9.7110e+001 -1.8688e+002  5.4799e+000 48540 87297,87245,87490
 2.4000e+000 87539 -1.0342e+002 -1.9313e+002  1.1082e+001 48540 87297,87490,87323
 2.4000e+000 87588 -7.6307e+001 -1.7822e+002  1.8452e+001 48540 87323,87490,87562
 2.4000e+000 87611 -6.3435e+001 -1.8005e+002  2.2799e+001 48540 87323,87562,87349
 2.4000e+000 87810 -9.7475e+001 -3.5721e+002 -2.5852e+001 48136 87660,87712,87686
 2.4000e+000 87787 -5.6434e+001 -2.1614e+002 -1.2125e+001 48136 87660,87738,87712
 2.4000e+000 87764 -1.3402e+002 -2.2132e+002 -3.9342e+001 48136 87634,87738,87660
 2.4000e+000 88205 -7.7773e+001 -2.1420e+002 -1.8196e+001 47210 88300,88228,87937
 2.4000e+000 88182 -6.9218e+001 -2.1280e+002 -4.9959e+000 47210 88228,87833,88041
 2.4000e+000 88159 -7.8556e+001 -2.2779e+002 -2.8891e+001 47210 88300,87937,87911
 2.4000e+000 88136 -7.4237e+001 -2.1220e+002 -2.4131e+001 47210 87833,87911,87859
 2.4000e+000 88113 -1.3049e+002 -1.7585e+002 -1.4871e+001 47210 87937,87989,87963
 2.4000e+000 88090 -7.8269e+001 -1.8094e+002  4.1362e+001 47210 87989,88041,88015
 2.4000e+000 88067 -8.5213e+001 -2.4024e+002 -3.1772e+001 47210 87859,87911,87885
 2.4000e+000 88254 -7.0202e+001 -1.7053e+002 -2.1761e+001 47210 87989,87937,88228
 2.4000e+000 88277 -9.3136e+001 -2.0430e+002 -6.9805e+000 47210 87989,88228,88041
 2.4000e+000 88326 -6.2817e+001 -2.0071e+002 -7.7484e+000 47210 87833,88228,88300
 2.4000e+000 88349 -6.6254e+001 -2.1020e+002 -1.9128e+001 47210 87833,88300,87911
 2.4000e+000 88780 -1.4169e+002 -2.5036e+002 -4.6689e+001 46642 88803,88509,88483
 2.4000e+000 88757 -1.0351e+002 -2.2601e+002 -2.4442e+001 46642 88803,88483,88639
 2.4000e+000 88734 -1.1480e+002 -1.8457e+002 -2.9702e+001 46642 88875,88561,88509
 2.4000e+000 88711 -1.1213e+002 -1.6993e+002 -6.9333e+000 46642 88509,88561,88535
 2.4000e+000 88688 -6.7516e+001 -2.5273e+002  1.3854e+000 46642 88457,88639,88483
 2.4000e+000 88665 -1.3256e+002 -2.9498e+002 -1.2067e+001 46642 88561,88613,88587
 2.4000e+000 88829 -1.1414e+002 -2.0182e+002 -3.3210e+001 46642 88875,88509,88803
 2.4000e+000 88852 -1.1265e+002 -2.4158e+002 -2.0530e+001 46642 88613,88803,88639
 2.4000e+000 88901 -9.6440e+001 -2.0809e+002 -1.5540e+001 46642 88613,88561,88875
 2.4000e+000 88924 -1.0391e+002 -2.3615e+002 -1.8224e+001 46642 88613,88875,88803
 2.4000e+000 89253 -4.0344e+001 -2.1622e+002 -7.5056e-001 46444 89080,89158,89132
 2.4000e+000 89230 -4.2508e+001 -2.2043e+002 -2.7950e+000 46444 89028,89158,89080
 2.4000e+000 89207 -1.2545e+001 -2.0141e+002 -1.1643e+001 46444 89028,89080,89054
 2.4000e+000 89184 -2.0928e+001 -2.2886e+002 -1.7657e+001 46444 89080,89132,89106
 2.4000e+000 89631 -4.0243e+001 -1.3565e+002  2.2492e+000 46040 89383,89461,89435
 2.4000e+000 89608 -4.5146e+001 -1.5173e+002 -5.8359e+000 46040 89383,89487,89461
 2.4000e+000 89585 -4.3006e+001 -1.7218e+002 -4.8539e+000 46040 89383,89435,89409
 2.4000e+000 89562 -4.1933e+001 -1.3461e+002 -1.3026e+001 46040 89383,89513,89487
 2.4000e+000 89539  7.3549e+000 -1.0419e+002 -4.1397e+001 46040 89357,89513,89383
 2.4000e+000 90009 -5.5205e+001 -1.7514e+002  3.9463e-001 45636 89813,89891,89839
 2.4000e+000 89986 -5.6872e+001 -1.6413e+002  1.0048e+001 45636 89787,89891,89813
 2.4000e+000 89963 -5.0176e+001 -1.6352e+002 -3.5030e+000 45636 89839,89891,89865
 2.4000e+000 89940 -6.9191e+001 -1.8317e+002  4.7458e+000 45636 89735,89891,89787
 2.4000e+000 89917 -5.6083e+001 -1.8277e+002 -6.2706e+000 45636 89735,89787,89761
 2.4000e+000 90208 -3.8397e+001 -1.4036e+002 -3.1538e+001 45175 90231,90058,90032
 2.4000e+000 90185 -1.9387e+001 -1.2644e+002 -4.7633e+001 45175 90231,90032,90136
 2.4000e+000 90162 -4.8997e+001 -1.1434e+002 -2.5569e+000 45175 90058,90110,90084
 2.4000e+000 90257 -5.9571e+001 -1.6036e+002 -7.6952e+000 45175 90110,90058,90231
 2.4000e+000 90280 -2.3284e+001 -1.3604e+002 -2.5655e+001 45175 90110,90231,90136
 2.4000e+000 90528 -4.0339e+001 -1.3903e+002 -1.7010e+001 44513 90695,90551,90407
 2.4000e+000 90505 -4.6739e+001 -1.3147e+002 -8.4581e+000 44513 90551,90355,90329
 2.4000e+000 90482 -5.3184e+001 -1.2458e+002 -1.3109e+001 44513 90623,90303,90433
 2.4000e+000 90459 -2.8156e+001 -1.3100e+002 -1.3441e+001 44513 90695,90407,90381
 2.4000e+000 90577 -6.1076e+001 -1.4607e+002 -2.8240e+001 44513 90433,90407,90551
 2.4000e+000 90600 -5.1579e+001 -1.3224e+002 -1.3460e+001 44513 90623,90433,90551
 2.4000e+000 90649 -5.7168e+001 -1.3311e+002 -1.1629e+001 44513 90329,90303,90623
 2.4000e+000 90672 -5.4160e+001 -1.3610e+002 -1.2281e+001 44513 90329,90623,90551
 2.4000e+000 90721 -5.3458e+001 -1.2925e+002 -1.8470e+001 44513 90355,90551,90695
 2.4000e+000 90744 -4.9042e+001 -1.2664e+002 -1.7313e+001 44513 90355,90695,90381
 2.4000e+000 91077  1.5124e+001 -1.2156e+002  2.5574e+001 44059 91100,90930,90904
 2.4000e+000 91054 -6.3404e+001 -1.6291e+002  8.7308e+000 44059 91100,90904,90982
 2.4000e+000 91031 -8.4027e+001 -1.6277e+002 -1.3274e+000 44059 90878,90982,90904
 2.4000e+000 91008 -2.3997e+001 -1.3683e+002  5.2865e+000 44059 90852,90982,90878
 2.4000e+000 91126 -1.1464e+002 -1.6254e+002  7.1428e+000 44059 91172,91100,90956
 2.4000e+000 91149 -5.9087e+001 -1.5447e+002  1.8518e+000 44059 90956,91100,90982
 2.4000e+000 91198 -1.8015e+001 -1.2224e+002 -2.2231e+001 44059 90930,91100,91172
 2.4000e+000 91677 -8.1728e+001 -1.2940e+002  1.1466e+001 43549 91455,91533,91481
 2.4000e+000 91654 -3.5102e+001 -1.2780e+002  1.6871e+001 43549 91429,91533,91455
 2.4000e+000 91631 -7.6166e+001 -1.2394e+002  3.8551e+000 43549 91481,91533,91507
 2.4000e+000 91608 -1.9147e+001 -1.2124e+002  7.9236e+000 43549 91429,91559,91533
 2.4000e+000 91585 -9.3047e-001 -4.0041e+001  3.7599e-001 43549 91403,91559,91429
 2.4000e+000 92006 -6.9610e+001 -1.8424e+002  4.5197e+000 43059 91781,91885,91807
 2.4000e+000 91983 -7.0741e+001 -1.6934e+002  3.2021e+001 43059 91781,91911,91885
 2.4000e+000 91960 -6.2903e+001 -1.8042e+002  2.9521e+000 43059 91807,91885,91833
 2.4000e+000 91937 -3.7474e+001 -1.7087e+002 -1.2084e+000 43059 91833,91885,91859
 2.4000e+000 92561 -6.0651e+001 -1.3595e+002 -1.6453e+001 42598 92584,92215,92189
 2.4000e+000 92538 -6.5792e+001 -1.5648e+002 -1.6218e+001 42598 92656,92584,92189
 2.4000e+000 92515 -5.6814e+001 -1.7857e+002 -4.9604e+000 42598 92656,92189,92397
 2.4000e+000 92492 -7.1930e+001 -1.1789e+002 -1.6960e+001 42598 92241,92319,92293
 2.4000e+000 92469 -6.9435e+001 -1.4908e+002  8.6205e+000 42598 92319,92397,92371
 2.4000e+000 92446 -3.0543e+001 -1.8220e+002  6.6755e+001 42598 92319,92371,92345
 2.4000e+000 92423 -7.7782e+001 -1.2623e+002 -2.7844e+001 42598 92241,92293,92267
 2.4000e+000 92610 -6.2976e+001 -1.3531e+002 -1.4000e+001 42598 92241,92215,92584
 2.4000e+000 92633 -5.8529e+001 -1.2557e+002 -1.8637e+001 42598 92241,92584,92319
 2.4000e+000 92682 -5.7519e+001 -1.2655e+002 -1.1153e+001 42598 92319,92584,92656
 2.4000e+000 92705 -4.4059e+001 -1.4207e+002 -2.6489e+000 42598 92319,92656,92397
 2.4000e+000 92953 -6.6311e+001 -1.9921e+002  1.2129e+001 42094 92976,92806,92780
 2.4000e+000 92930 -7.5936e+001 -1.8708e+002  1.8015e-001 42094 92976,92780,92754
 2.4000e+000 92907 -4.9617e+000 -1.9376e+002 -6.1299e-001 42094 93048,92832,92806
 2.4000e+000 92884 -1.0143e+002 -1.8128e+002 -1.5184e+001 42094 92728,92858,92754
 2.4000e+000 93002 -3.7681e+001 -1.8332e+002  5.9028e+000 42094 93048,92806,92976
 2.4000e+000 93025 -6.6933e+001 -1.8195e+002 -4.9172e+000 42094 92858,92976,92754
 2.4000e+000 93074 -4.9980e+001 -2.1139e+002 -2.7844e+000 42094 92858,92832,93048
 2.4000e+000 93097 -7.7168e+001 -1.9807e+002  1.1419e+000 42094 92858,93048,92976
 2.4000e+000 93605 -7.4526e+001 -2.3200e+002 -6.0448e+000 41846 93628,93412,93386
 2.4000e+000 93582 -6.2275e+001 -1.7953e+002 -2.0382e+000 41846 93628,93386,93308
 2.4000e+000 93559 -8.3937e+001 -1.8055e+002 -2.4365e+001 41846 93700,93464,93438
 2.4000e+000 93536 -9.2890e+001 -2.2411e+002  1.3253e+001 41846 93308,93386,93334
 2.4000e+000 93513 -9.1798e+001 -2.1841e+002  1.0617e+001 41846 93334,93386,93360
 2.4000e+000 93490 -8.2491e+001 -1.4634e+002 -1.8558e+001 41846 93282,93464,93308
 2.4000e+000 93654 -6.0270e+001 -1.8793e+002 -1.5601e+001 41846 93438,93412,93628
 2.4000e+000 93677 -8.4290e+001 -1.8275e+002 -1.3016e+001 41846 93700,93438,93628
 2.4000e+000 93726 -7.8861e+001 -1.6655e+002 -2.2722e+001 41846 93308,93464,93700
 2.4000e+000 93749 -7.7267e+001 -1.6429e+002 -1.1504e+001 41846 93308,93700,93628
 2.4000e+000 94255 -5.7755e+001 -1.8557e+002  1.3409e+001 41385 93958,94114,94088
 2.4000e+000 94232 -4.8532e+001 -1.9894e+002  6.8368e+000 41385 93932,94114,93958
 2.4000e+000 94209 -1.0348e+002 -2.1606e+002  3.7609e+001 41385 93958,94088,94062
 2.4000e+000 94186 -1.1102e+002 -1.5375e+002  2.8711e+001 41385 93958,94062,93984
 2.4000e+000 94163 -9.1226e+001 -1.5021e+002  2.4997e+001 41385 93984,94062,94036
 2.4000e+000 94140 -6.2891e+001 -2.0417e+002  3.5457e+001 41385 93984,94036,94010
 2.4000e+000 94476 -1.0843e+001 -2.5730e+002  1.7970e+001 40881 94326,94378,94352
 2.4000e+000 94453 -3.8033e+001 -2.0828e+002  1.9209e+001 40881 94300,94378,94326
 2.4000e+000 94430 -4.8316e+001 -1.8989e+002  2.3552e+000 40881 94300,94404,94378
 2.4000e+000 94626 -5.5161e+001 -1.4234e+002  7.1532e+000 40591 94649,94551,94525
 2.4000e+000 94603 -8.2517e+000 -1.0893e+002  2.0222e+000 40591 94781,94577,94551
 2.4000e+000 94675 -1.2034e+000 -1.1394e+002 -7.8393e+000 40591 94781,94551,94649
 2.4000e+000 94807  8.3224e+000 -1.0141e+002  4.2128e+000 40591 94499,94577,94781
 2.4000e+000 94830  1.4428e+001 -1.0716e+002 -7.1051e+000 40591 94499,94781,94649
 2.4000e+000 95336 -1.1580e+002 -1.6995e+002 -2.4262e+001 40187 95013,95169,95039
 2.4000e+000 95313 -5.9011e+001 -1.5540e+002 -1.3592e+001 40187 95013,95195,95169
 2.4000e+000 95290 -4.5226e+001 -1.7575e+002  5.4206e+000 40187 95039,95143,95065
 2.4000e+000 95267 -1.2635e+002 -2.0353e+002 -3.4215e+001 40187 95039,95169,95143
 2.4000e+000 95244 -9.1813e+001 -2.4346e+002 -1.7247e+001 40187 95091,95143,95117
 2.4000e+000 95221 -3.9732e+001 -1.6603e+002  8.2162e+000 40187 95065,95143,95091
 2.4000e+000 95665 -6.5287e+001 -1.5585e+002  2.6304e+001 39626 95466,95570,95544
 2.4000e+000 95642 -7.9429e+001 -1.3655e+002  1.8921e+001 39626 95440,95570,95466
 2.4000e+000 95619 -5.5659e+001 -1.5584e+002  9.5843e+000 39626 95466,95544,95492
 2.4000e+000 95596 -1.0126e+002 -1.5120e+002  8.6169e+000 39626 95492,95544,95518
 2.4000e+000 95913 -6.6892e+001 -1.6105e+002 -2.5228e+001 39136 96080,95936,95766
 2.4000e+000 95890 -4.7505e+001 -1.7460e+002 -1.3754e+001 39136 95936,95714,95688
 2.4000e+000 95867 -1.2417e+002 -1.7305e+002  6.4718e+000 39136 96008,95792,95766
 2.4000e+000 95844 -5.2879e+001 -1.5586e+002 -2.0145e+001 39136 96080,95766,95740
 2.4000e+000 95962 -9.6988e+001 -1.8012e+002 -1.6307e+001 39136 96008,95766,95936
 2.4000e+000 95985 -6.0006e+001 -2.1130e+002 -3.7082e+000 39136 95818,95936,95688
 2.4000e+000 96034 -5.8181e+001 -1.4426e+002  1.1460e+001 39136 95818,95792,96008
 2.4000e+000 96057 -5.1039e+001 -1.5890e+002 -1.1062e+001 39136 95818,96008,95936
 2.4000e+000 96106 -6.0517e+001 -1.6122e+002 -5.8163e+000 39136 95714,95936,96080
 2.4000e+000 96129 -3.7973e+001 -1.5430e+002 -2.1910e+000 39136 95714,96080,95740
 2.4000e+000 96350 -4.6250e+001 -1.3867e+002 -4.9608e+000 38824 96200,96278,96252
 2.4000e+000 96327 -5.2875e+001 -1.4097e+002 -5.0199e+000 38824 96174,96278,96200
 2.4000e+000 96304 -4.6915e+001 -1.4112e+002 -4.5492e+000 38824 96200,96252,96226
 2.4000e+000 96830 -8.8941e+001 -1.5366e+002 -1.4279e+001 38320 97069,96536,96484
 2.4000e+000 96807 -8.7291e+001 -1.5596e+002 -1.4164e+001 38320 97069,96484,96853
 2.4000e+000 96784 -9.6806e+001 -1.6930e+002  3.0655e+000 38320 96853,96484,96458
 2.4000e+000 96761 -4.8929e+001 -1.3135e+002 -1.6522e+001 38320 96925,96640,96614
 2.4000e+000 96738 -8.1227e+001 -1.3738e+002 -6.4165e+000 38320 96997,96666,96640
 2.4000e+000 96715 -7.0687e+001 -1.8024e+002 -5.9398e+000 38320 97141,96588,96562
 2.4000e+000 96692 -1.1348e+002 -1.7863e+002 -3.3561e+000 38320 96484,96536,96510
 2.4000e+000 96879 -8.5802e+001 -1.6371e+002 -8.0738e+000 38320 97141,96562,96853
 2.4000e+000 96902 -7.7714e+001 -1.5972e+002 -5.0934e+000 38320 96925,96614,96853
 2.4000e+000 96951 -7.9619e+001 -1.3599e+002 -7.4211e+000 38320 96997,96640,96925
 2.4000e+000 96974 -7.6964e+001 -1.3369e+002 -4.8065e+000 38320 96458,96925,96853
 2.4000e+000 97023 -8.8735e+001 -1.3924e+002 -2.4670e+000 38320 96458,96666,96997
 2.4000e+000 97046 -8.2889e+001 -1.3622e+002 -3.6042e+000 38320 96458,96997,96925
 2.4000e+000 97095 -9.3633e+001 -1.5039e+002 -2.8511e+000 38320 96562,96536,97069
 2.4000e+000 97118 -8.2875e+001 -1.5455e+002 -1.2320e+001 38320 96562,97069,96853
 2.4000e+000 97167 -4.3521e+001 -1.6536e+002 -1.2922e+001 38320 96614,96588,97141
 2.4000e+000 97190 -6.8650e+001 -1.5611e+002 -1.3181e+001 38320 96614,97141,96853
 2.4000e+000 97519 -6.2902e+001 -1.6919e+002  4.1751e+001 37766 97542,97398,97372
 2.4000e+000 97496 -8.5918e+001 -1.4966e+002  2.2629e+001 37766 97542,97372,97346
 2.4000e+000 97473 -7.6777e+001 -1.6150e+002  4.6701e+000 37766 97294,97424,97346
 2.4000e+000 97450 -8.7797e+001 -1.9553e+002 -5.2340e-003 37766 97294,97346,97320
 2.4000e+000 97568 -2.5271e+001 -1.6086e+002  3.1526e+001 37766 97424,97398,97542
 2.4000e+000 97591 -5.8911e+001 -1.4241e+002  1.2982e+001 37766 97424,97542,97346
 2.4000e+000 98048 -7.3548e+001 -1.1928e+002 -3.9957e+001 37262 98071,97878,97852
 2.4000e+000 98025 -6.0178e+001 -1.4220e+002 -1.6122e+001 37262 98071,97852,97800
 2.4000e+000 98002 -7.6473e+001 -1.7412e+002 -1.0438e+001 37262 97800,97852,97826
 2.4000e+000 97979 -7.8386e+001 -1.5230e+002  5.5210e+000 37262 97800,97930,97904
 2.4000e+000 97956 -5.4032e+001 -1.8309e+002  1.2758e+001 37262 97774,97930,97800
 2.4000e+000 98097 -1.1126e+002 -1.3704e+002 -3.0977e+001 37262 97904,97878,98071
 2.4000e+000 98120 -8.0011e+001 -1.5880e+002 -8.4830e+000 37262 97904,98071,97800
 2.4000e+000 98449 -3.3751e+001 -1.0555e+002 -1.4264e+001 36950 98472,98302,98250
 2.4000e+000 98426 -1.5920e+001 -9.9150e+001 -1.7837e+001 36950 98472,98250,98354
 2.4000e+000 98403 -5.8338e+001 -1.1934e+002  1.5826e+001 36950 98250,98302,98276
 2.4000e+000 98380 -1.0915e+001 -7.4508e+001  1.2399e+001 36950 98224,98354,98250
 2.4000e+000 98498 -2.0539e+001 -1.2125e+002 -3.5554e+000 36950 98328,98302,98472
 2.4000e+000 98521  6.4520e-001 -1.1163e+002 -1.0134e+001 36950 98328,98472,98354
 2.4000e+000 99125 -1.0552e+002 -1.0663e+002  1.3503e+001 36296 98704,98756,98730
 2.4000e+000 99102 -7.5024e+001 -1.1680e+002  2.4416e+000 36296 98704,98938,98756
 2.4000e+000 99079 -5.3979e+001 -1.2804e+002 -3.5720e+000 36296 99148,98938,98912
 2.4000e+000 99056 -6.0522e+001 -1.2696e+002  2.5009e+001 36296 99292,99220,98782
 2.4000e+000 99033 -4.7432e+001 -1.3729e+002  9.4343e-001 36296 99148,98912,98834
 2.4000e+000 99010 -5.3809e+001 -1.0706e+002  2.5058e+001 36296 99292,98782,98756
 2.4000e+000 98987 -4.4754e+001 -2.4477e+002 -4.9013e+001 36296 98834,98912,98886
 2.4000e+000 98964 -8.3437e+001 -3.5515e+002 -6.2779e+001 36296 98834,98886,98860
 2.4000e+000 99174 -6.4657e+001 -1.4802e+002  1.7470e+000 36296 99220,98938,99148
 2.4000e+000 99197 -4.5884e+001 -1.6396e+002  1.3948e+001 36296 98808,99148,98834
 2.4000e+000 99246 -5.2957e+001 -1.0899e+002  6.3844e+001 36296 98808,98782,99220
 2.4000e+000 99269 -2.0485e+001 -1.0815e+002  1.9715e+001 36296 98808,99220,99148
 2.4000e+000 99318 -5.6730e+001 -1.0462e+002  1.0817e+001 36296 98938,99220,99292
 2.4000e+000 99341 -5.8398e+001 -1.0823e+002  1.1895e+001 36296 98938,99292,98756
 2.4000e+000 99719 -8.3853e+001 -1.8379e+002  7.3799e-001 35742 99742,99471,99601
 2.4000e+000 99696 -8.6103e+001 -1.4222e+002  1.9369e+001 35742 99445,99601,99471
 2.4000e+000 99673 -7.9261e+001 -1.7329e+002 -7.1382e+000 35742 99742,99601,99575
 2.4000e+000 99650 -6.8186e+001 -2.1663e+002 -6.0614e+000 35742 99814,99549,99523
 2.4000e+000 99627 -5.1167e+001 -1.6714e+002 -2.2064e+000 35742 99471,99523,99497
 2.4000e+000 99768 -6.5812e+001 -1.7921e+002  3.8419e+000 35742 99523,99471,99742
 2.4000e+000 99791 -7.8638e+001 -1.9940e+002 -5.2209e+000 35742 99814,99523,99742
 2.4000e+000 99840 -6.6248e+001 -1.9540e+002 -1.2638e+001 35742 99575,99549,99814
 2.4000e+000 99863 -7.3032e+001 -1.7301e+002 -1.1265e+001 35742 99575,99814,99742
 2.4000e+000 100111 -5.8790e+001 -1.4733e+002  1.2083e+001 35302 100134,99990,99938
 2.4000e+000 100088 -4.6379e+001 -1.3297e+002  4.0686e+000 35302 100134,99938,99912
 2.4000e+000 100065 -4.6270e+001 -1.3394e+002 -3.3865e+000 35302 100206,99886,100016
 2.4000e+000 100042 -7.9239e+001 -1.3941e+002  7.6679e+000 35302 99938,99990,99964
 2.4000e+000 100160 -4.2411e+001 -1.4107e+002  3.4003e+000 35302 100016,99990,100134
 2.4000e+000 100183 -4.3959e+001 -1.3578e+002 -3.3062e+000 35302 100206,100016,100134
 2.4000e+000 100232 -4.8364e+001 -1.3619e+002 -2.0302e+000 35302 99912,99886,100206
 2.4000e+000 100255 -4.6169e+001 -1.3847e+002 -2.0106e+000 35302 99912,100206,100134
 2.4000e+000 100586 -4.1553e+001 -9.3634e+001  9.3286e-002 35012 100609,100387,100361
 2.4000e+000 100563 -4.1574e+001 -1.0100e+002  4.4028e+000 35012 100609,100361,100465
 2.4000e+000 100540 -6.6521e+001 -1.2672e+002  1.5510e+001 35012 100361,100491,100465
 2.4000e+000 100517 -3.4900e+001 -1.0074e+002  1.4212e+001 35012 100413,100465,100439
 2.4000e+000 100635 -4.4051e+001 -9.5052e+001  7.7055e+000 35012 100413,100387,100609
 2.4000e+000 100658 -4.5671e+001 -1.0627e+002  1.1869e+001 35012 100413,100609,100465
 2.4000e+000 100987 -6.2614e+001 -1.3206e+002  1.0267e+001 34700 100788,100866,100814
 2.4000e+000 100964 -5.1516e+001 -1.2279e+002  1.4299e+001 34700 101010,100866,100788
 2.4000e+000 100941 -5.3016e+001 -1.2969e+002  2.5924e+001 34700 100762,100892,100866
 2.4000e+000 100918 -6.9003e+001 -1.4307e+002 -1.8794e+000 34700 100814,100866,100840
 2.4000e+000 101036 -4.1789e+001 -1.1667e+002  1.8596e+001 34700 100762,100866,101010
 2.4000e+000 101493 -8.5385e+001 -1.7134e+002 -1.5197e+001 34132 101516,101349,101297
 2.4000e+000 101470 -1.0548e+002 -2.0887e+002 -2.5414e+001 34132 101588,101516,101297
 2.4000e+000 101447 -1.0620e+002 -2.2114e+002 -3.7705e+001 34132 101588,101297,101245
 2.4000e+000 101424 -6.2870e+001 -2.5828e+002 -3.5504e+001 34132 101245,101297,101271
 2.4000e+000 101401 -9.1681e+001 -1.7171e+002 -1.7660e+001 34132 101297,101349,101323
 2.4000e+000 101542 -8.7474e+001 -2.0104e+002 -1.2303e+001 34132 101375,101349,101516
 2.4000e+000 101565 -7.8832e+001 -2.0100e+002 -1.3214e+001 34132 101375,101516,101219
 2.4000e+000 101614 -8.2017e+001 -2.1024e+002 -1.2562e+001 34132 101219,101516,101588
 2.4000e+000 101637 -9.4127e+001 -2.2211e+002 -2.4302e+001 34132 101219,101588,101245
 2.4000e+000 101858 -1.8539e+001 -1.5308e+002  1.0370e+001 33720 101708,101786,101760
 2.4000e+000 101835 -4.1439e+001 -1.8031e+002 -1.8988e-001 33720 101682,101786,101708
 2.4000e+000 101812 -5.0045e+001 -1.6802e+002  5.7334e+000 33720 101708,101760,101734
 2.4000e+000 102128 -1.2390e+001 -1.7895e+002 -4.8175e+000 33130 101903,102007,101929
 2.4000e+000 102105 -1.6503e+001 -2.0742e+002  6.9619e+000 33130 101903,102033,102007
 2.4000e+000 102082 -2.3687e+000 -2.1563e+002 -4.3235e+001 33130 101929,102007,101955
 2.4000e+000 102059 -2.3675e+001 -1.5026e+002  3.8187e+000 33130 101955,102007,101981
 2.4000e+000 102461 -6.7952e+001 -1.6860e+002 -1.4067e+001 32840 102236,102340,102262
 2.4000e+000 102438 -5.6342e+001 -1.1867e+002  2.5969e+000 32840 102236,102366,102340
 2.4000e+000 102415 -3.7336e+001 -1.5894e+002 -1.3276e+001 32840 102262,102340,102288
 2.4000e+000 102392 -8.8484e+001 -1.7215e+002 -3.5813e+001 32840 102288,102340,102314
 2.4000e+000 102997 -5.7018e+001 -9.9263e+001  2.7371e+001 32493 102749,102879,102853
 2.4000e+000 102974 -4.6065e+001 -7.7994e+001  1.9213e+001 32493 102723,102879,102749
 2.4000e+000 102951 -6.7752e+001 -1.2124e+002  1.8547e+001 32493 102749,102801,102775
 2.4000e+000 102928 -7.2372e+001 -1.1989e+002  1.7527e+001 32493 102749,102853,102801
 2.4000e+000 102905 -6.8526e+001 -1.1231e+002  1.5863e+001 32493 102801,102853,102827
 2.4000e+000 103454 -7.8499e+001 -1.4354e+002 -7.9111e+000 32089 103206,103336,103310
 2.4000e+000 103431 -6.6305e+001 -1.4280e+002  5.2189e-001 32089 103180,103336,103206
 2.4000e+000 103408 -8.2516e+001 -1.6210e+002 -2.2677e+001 32089 103206,103284,103258
 2.4000e+000 103385 -1.1419e+002 -1.6886e+002 -2.5387e+001 32089 103206,103310,103284
 2.4000e+000 103362 -7.2394e+001 -1.2708e+002  7.3825e+000 32089 103206,103258,103232
 2.4000e+000 103783 -1.1609e+002 -1.7349e+002 -1.7196e+001 31742 103558,103662,103584
 2.4000e+000 103760 -1.0290e+002 -1.5561e+002 -3.4556e+001 31742 103558,103688,103662
 2.4000e+000 103737 -8.0658e+001 -1.4578e+002 -3.0744e+001 31742 103584,103662,103636
 2.4000e+000 103714 -4.5235e+001 -1.6618e+002 -5.0656e+001 31742 103584,103636,103610
 2.4000e+000 104112 -1.1692e+001 -1.4344e+002  3.1916e+001 31402 103939,103991,103965
 2.4000e+000 104089 -4.2104e+001 -1.2705e+002  1.4692e+001 31402 103913,103991,103939
 2.4000e+000 104066 -6.0678e+001 -1.4536e+002  4.7793e+000 31402 103913,104017,103991
 2.4000e+000 104043 -6.9436e+001 -1.2627e+002 -2.6327e+000 31402 103887,104017,103913
 2.4000e+000 104569 -1.1202e+002 -2.0964e+002  2.0742e+000 30998 104321,104425,104373
 2.4000e+000 104546 -1.2554e+002 -2.1373e+002  8.9986e-002 30998 104321,104451,104425
 2.4000e+000 104523 -1.0204e+002 -1.8251e+002  1.8199e+001 30998 104373,104425,104399
 2.4000e+000 104500 -1.1270e+002 -2.2850e+002 -7.1587e+000 30998 104295,104451,104321
 2.4000e+000 104477 -1.5757e+002 -2.6246e+002  4.0874e+001 30998 104321,104373,104347
 2.4000e+000 104947 -1.0005e+002 -1.6471e+002 -2.1868e+001 30608 104751,104803,104777
 2.4000e+000 104924 -6.5135e+001 -1.6998e+002 -8.9109e+000 30608 104725,104803,104751
 2.4000e+000 104901 -9.5625e+001 -1.6367e+002  8.0376e+000 30608 104699,104803,104725
 2.4000e+000 104878 -9.5569e+001 -1.6503e+002  1.0025e+001 30608 104673,104803,104699
 2.4000e+000 104855 -7.4693e+001 -1.6168e+002 -8.0256e+000 30608 104673,104829,104803
 2.4000e+000 105276 -5.6435e+001 -1.4591e+002  1.6081e+001 30204 105427,105129,105077
 2.4000e+000 105253 -2.5192e+001 -1.4947e+002  4.9544e+001 30204 105427,105077,105051
 2.4000e+000 105230 -4.3812e+001 -1.5559e+002  9.4513e+000 30204 105077,105129,105103
 2.4000e+000 105207 -1.0873e+002 -1.3548e+002  1.6253e+001 30204 105299,105181,105155
 2.4000e+000 105325 -8.3588e+001 -1.2401e+002  1.3157e+001 30204 105129,105181,105299
 2.4000e+000 105453 -7.4956e+001 -1.5475e+002  1.9745e+001 30204 105181,105129,105427
 2.4000e+000 105476 -8.4385e+001 -1.7639e+002  5.6434e+001 30204 105181,105427,105051
 2.4000e+000 105903 -5.0174e+001 -1.2856e+002 -9.7833e+000 29700 105606,105762,105736
 2.4000e+000 105880 -6.5792e+001 -1.3166e+002  1.3783e+000 29700 105580,105762,105606
 2.4000e+000 105857 -8.3003e+001 -1.6401e+002 -1.1126e+001 29700 105606,105710,105632
 2.4000e+000 105834 -6.6388e+001 -1.3836e+002 -3.6569e+000 29700 105606,105736,105710
 2.4000e+000 105811 -6.5768e+001 -1.5222e+002 -1.9770e+001 29700 105632,105710,105684
 2.4000e+000 105788 -6.1586e+001 -1.4097e+002  3.6012e+000 29700 105632,105684,105658
 2.4000e+000 106102 -3.5211e+001 -1.6914e+002  3.9216e+000 29124 105978,106030,106004
 2.4000e+000 106079 -5.7524e+001 -1.7824e+002 -3.9322e-001 29124 105926,106030,105978
 2.4000e+000 106056 -5.2382e+001 -1.8109e+002  2.0556e+001 29124 105926,105978,105952
 2.4000e+000 106301 -3.4425e+001 -1.6052e+002  1.2059e+000 28712 106151,106229,106203
 2.4000e+000 106278 -4.4679e+001 -1.7776e+002 -7.4480e+000 28712 106125,106229,106151
 2.4000e+000 106255 -3.6046e+001 -1.7084e+002  1.1521e+001 28712 106151,106203,106177
 2.4000e+000 106551 -5.0075e+001 -1.9911e+002  1.3250e+000 28258 106352,106404,106378
 2.4000e+000 106528 -6.5347e+001 -2.0280e+002 -1.3472e+000 28258 106352,106456,106404
 2.4000e+000 106505 -5.2971e+001 -2.1580e+002 -6.1398e+000 28258 106326,106456,106352
 2.4000e+000 106482 -6.5001e+001 -1.9326e+002  3.9809e+000 28258 106404,106456,106430
 2.4000e+000 107012 -6.8490e+001 -1.7350e+002  3.4781e+001 27818 107035,106790,106764
 2.4000e+000 106989 -5.7927e+001 -1.6021e+002  1.3660e+001 27818 107035,106764,106868
 2.4000e+000 106966 -4.4290e+001 -1.9040e+002  1.6894e+001 27818 107107,106842,106816
 2.4000e+000 106943 -9.0713e+001 -1.5054e+002  8.6341e+000 27818 106738,106868,106764
 2.4000e+000 106920 -8.6526e+001 -1.2855e+002  2.9363e+001 27818 106738,106894,106868
 2.4000e+000 107061 -2.8018e+001 -1.6348e+002  3.8020e+001 27818 106816,106790,107035
 2.4000e+000 107084 -5.0462e+001 -1.8052e+002  1.7995e+001 27818 107107,106816,107035
 2.4000e+000 107133 -4.9253e+001 -1.7462e+002  8.9823e+000 27818 106868,106842,107107
 2.4000e+000 107156 -5.0380e+001 -1.5770e+002  1.2756e+001 27818 106868,107107,107035
 2.4000e+000 107613 -1.3406e+001 -1.2871e+002  2.5779e+001 27312 107339,107469,107365
 2.4000e+000 107590  4.4183e+000 -1.2115e+002  2.2989e+001 27312 107339,107495,107469
 2.4000e+000 107567 -1.8061e+001 -1.2253e+002  1.1107e+001 27312 107391,107469,107443
 2.4000e+000 107544 -1.3329e+001 -1.3398e+002  9.4630e+000 27312 107365,107469,107391
 2.4000e+000 107521 -5.5460e+001 -1.3446e+002  2.9655e+000 27312 107391,107443,107417
 2.4000e+000 107991 -7.4704e+001 -1.9721e+002  2.4551e+000 26858 108086,108014,107795
 2.4000e+000 107968 -8.0439e+001 -2.0485e+002 -2.1170e+001 26858 108014,107717,107873
 2.4000e+000 107945 -8.6396e+001 -2.0741e+002  1.0499e+001 26858 108158,108086,107795
 2.4000e+000 107922 -7.0805e+001 -2.0603e+002  9.2762e+000 26858 108158,107795,107769
 2.4000e+000 107899 -4.9441e+001 -2.5232e+002  3.4120e+001 26858 107821,107873,107847
 2.4000e+000 108040 -7.5836e+001 -2.2456e+002  8.7432e+000 26858 107821,107795,108014
 2.4000e+000 108063 -3.6723e+001 -2.1563e+002 -5.4624e+000 26858 107821,108014,107873
 2.4000e+000 108112 -1.0410e+002 -2.0839e+002  7.1826e+000 26858 107717,108014,108086
 2.4000e+000 108135 -8.7192e+001 -2.1687e+002  2.1518e+001 26858 107717,108086,107743
 2.4000e+000 108184 -6.8162e+001 -2.0564e+002  1.5972e+001 26858 107743,108086,108158
 2.4000e+000 108207 -6.1380e+001 -2.1059e+002  1.5821e+001 26858 107743,108158,107769
 2.4000e+000 108634 -8.8838e+001 -1.8664e+002  2.8178e+000 26404 108657,108415,108363
 2.4000e+000 108611 -1.0105e+002 -2.0309e+002  2.1382e+001 26404 108657,108363,108337
 2.4000e+000 108588 -8.2070e+001 -1.7695e+002  2.8415e+001 26404 108729,108311,108467
 2.4000e+000 108565 -1.0998e+002 -2.1397e+002 -2.0819e+000 26404 108801,108441,108415
 2.4000e+000 108542 -1.5569e+002 -2.0934e+002  3.3309e+001 26404 108311,108493,108467
 2.4000e+000 108519 -6.9421e+001 -1.8840e+002  2.2195e+000 26404 108363,108415,108389
 2.4000e+000 108683 -1.2749e+002 -1.9737e+002  4.1893e-001 26404 108801,108415,108657
 2.4000e+000 108706 -1.2223e+002 -1.8977e+002  2.0969e+001 26404 108729,108467,108657
 2.4000e+000 108755 -5.5324e+001 -1.9556e+002  2.8645e+001 26404 108337,108311,108729
 2.4000e+000 108778 -7.5953e+001 -1.9436e+002  2.0947e+001 26404 108337,108729,108657
 2.4000e+000 108827 -1.2833e+002 -2.4462e+002 -1.1762e+001 26404 108467,108441,108801
 2.4000e+000 108850 -1.3911e+002 -2.1741e+002 -8.5821e+000 26404 108467,108801,108657
 2.4000e+000 109228 -8.0387e+001 -1.7953e+002 -3.1949e+000 26064 109006,109084,109058
 2.4000e+000 109205 -6.4201e+001 -1.6614e+002  7.0693e+000 26064 108980,109084,109006
 2.4000e+000 109182 -7.3932e+001 -1.6324e+002  1.1620e+000 26064 108980,109110,109084
 2.4000e+000 109159 -7.8663e+001 -1.8267e+002 -6.2982e-001 26064 109006,109058,109032
 2.4000e+000 109136  1.7754e+001 -1.4695e+002  1.6506e+001 26064 108954,109110,108980
 2.4000e+000 109427 -3.1081e+001 -1.6703e+002 -3.5134e+001 25660 109303,109355,109329
 2.4000e+000 109404 -5.0804e+001 -2.0605e+002 -1.0483e+001 25660 109277,109355,109303
 2.4000e+000 109381 -3.7754e+001 -1.9109e+002 -4.1069e+000 25660 109251,109355,109277
 2.4000e+000 109577  4.6575e+000 -6.9030e+001  5.3107e+001 25306 109476,109528,109502
 2.4000e+000 109554  2.2015e+001 -9.1599e+001  1.0477e+001 25306 109450,109528,109476
 2.4000e+000 109778 -5.9753e+001 -1.7308e+002  4.5019e+000 24944 109628,109706,109654
 2.4000e+000 109755 -6.6845e+001 -1.7258e+002 -5.9326e-001 24944 109602,109706,109628
 2.4000e+000 109732 -5.3683e+001 -1.6327e+002  2.6972e-001 24944 109654,109706,109680
 2.4000e+000 110126 -6.3970e+001 -2.2890e+002  1.4314e+001 24440 110149,109907,109855
 2.4000e+000 110103 -7.0739e+001 -2.3696e+002  1.8229e+001 24440 110149,109855,109985
 2.4000e+000 110080 -4.4976e+001 -2.0298e+002  4.7750e+000 24440 109855,109907,109881
 2.4000e+000 110057 -4.6741e+001 -1.9129e+002  5.4966e+001 24440 109829,109985,109855
 2.4000e+000 110034 -6.5287e+001 -2.3059e+002  1.5132e+000 24440 109907,109959,109933
 2.4000e+000 110011 -9.3083e+001 -2.1975e+002  1.7316e+001 24440 109803,109985,109829
 2.4000e+000 110175 -6.6179e+001 -2.1838e+002  6.3291e+000 24440 109959,109907,110149
 2.4000e+000 110198 -7.7407e+001 -2.2812e+002  1.1371e+001 24440 109959,110149,109985
 2.4000e+000 110301 -1.5665e+000 -2.3505e+002 -3.0506e+001 24028 110223,110275,110249
 2.4000e+000 110573 -1.7439e+001 -1.1176e+002  6.7054e+000 23467 110400,110452,110426
 2.4000e+000 110550 -3.7751e+001 -1.4760e+002 -1.4508e+000 23467 110374,110452,110400
 2.4000e+000 110527 -3.5941e+001 -1.4677e+002  1.0957e+000 23467 110348,110452,110374
 2.4000e+000 110504 -2.3771e+001 -1.4471e+002 -1.6333e+000 23467 110348,110478,110452
 2.4000e+000 111004 -1.0561e+002 -2.2666e+002 -2.8296e+001 22963 111027,110733,110707
 2.4000e+000 110981 -1.0470e+002 -2.1452e+002  8.4637e+000 22963 111027,110707,110681
 2.4000e+000 110958 -5.2969e+001 -1.8935e+002 -2.0527e+001 22963 111099,110759,110733
 2.4000e+000 110935 -6.3044e+001 -1.8796e+002 -1.6268e+001 22963 111171,110863,110811
 2.4000e+000 110912 -3.6795e+001 -1.4167e+002 -2.2775e+001 22963 110759,110811,110785
 2.4000e+000 110889 -6.6841e+001 -2.0361e+002 -1.8636e+001 22963 110811,110863,110837
 2.4000e+000 111053 -7.3499e+001 -2.0159e+002 -1.4990e+001 22963 111099,110733,111027
 2.4000e+000 111076 -6.0626e+001 -2.0132e+002 -1.3688e+001 22963 111171,110811,111027
 2.4000e+000 111125 -5.2772e+001 -1.8788e+002 -3.2325e+001 22963 110811,110759,111099
 2.4000e+000 111148 -5.6859e+001 -1.8756e+002 -2.9445e+001 22963 110811,111099,111027
 2.4000e+000 111197 -6.5399e+001 -1.6316e+002 -2.1197e+001 22963 110681,110863,111171
 2.4000e+000 111220 -7.1962e+001 -1.8148e+002 -1.1841e+001 22963 110681,111171,111027
 2.4000e+000 111726 -9.9009e+001 -2.0186e+002  3.9655e+000 22459 111749,111507,111429
 2.4000e+000 111703 -9.2824e+001 -2.0000e+002 -3.2205e+000 22459 111749,111429,111585
 2.4000e+000 111680 -8.1746e+001 -2.1587e+002 -1.6616e+000 22459 111403,111585,111429
 2.4000e+000 111657 -9.5456e+001 -2.1998e+002  6.3955e+000 22459 111507,111559,111533
 2.4000e+000 111634 -1.2911e+002 -1.8982e+002  1.0556e+001 22459 111455,111507,111481
 2.4000e+000 111611 -1.2975e+002 -1.8843e+002  1.3885e+001 22459 111429,111507,111455
 2.4000e+000 111775 -9.9509e+001 -2.1275e+002  9.9235e+000 22459 111559,111507,111749
 2.4000e+000 111798 -9.2856e+001 -2.0522e+002  2.9544e+000 22459 111559,111749,111585
 2.4000e+000 112046 -2.3286e+001 -1.6491e+002 -1.8257e+001 21898 112069,111925,111873
 2.4000e+000 112023 -1.6018e+001 -1.5747e+002  1.1329e+001 21898 112069,111873,111847
 2.4000e+000 112000 -5.4341e+001 -1.6038e+002 -2.7700e+000 21898 111821,111951,111847
 2.4000e+000 111977 -2.8409e+001 -1.5385e+002 -1.6335e+001 21898 111873,111925,111899
 2.4000e+000 112095 -6.6325e+001 -1.7769e+002 -3.3120e+001 21898 111951,111925,112069
 2.4000e+000 112118 -4.2159e+001 -1.6484e+002 -4.2972e+000 21898 111951,112069,111847
 2.4000e+000 112498 -7.7096e+001 -1.8454e+002 -1.5537e+001 21608 112521,112276,112224
 2.4000e+000 112475 -5.1963e+001 -1.8753e+002 -2.1567e-001 21608 112521,112224,112380
 2.4000e+000 112452 -5.6517e+001 -2.1252e+002  1.2568e+001 21608 112302,112380,112354
 2.4000e+000 112429 -8.6535e+001 -2.0580e+002 -1.1593e+001 21608 112224,112276,112250
 2.4000e+000 112406  2.5186e+001 -2.3320e+002 -1.2669e+001 21608 112302,112354,112328
 2.4000e+000 112547 -5.6454e+001 -1.5992e+002 -4.3049e+000 21608 112302,112276,112521
 2.4000e+000 112570 -4.0102e+001 -1.8008e+002  6.5693e+000 21608 112302,112521,112380
 2.4000e+000 112948 -8.9284e+001 -1.9576e+002 -4.5735e+000 20882 112971,112752,112700
 2.4000e+000 112925 -6.4668e+001 -1.8765e+002 -1.0059e+001 20882 112971,112700,112830
 2.4000e+000 112902 -1.1692e+002 -2.1202e+002  1.2497e+001 20882 112778,112830,112804
 2.4000e+000 112879 -5.9624e+001 -1.4786e+002 -1.4049e+001 20882 112674,112830,112700
 2.4000e+000 112856 -1.0750e+002 -2.0204e+002  1.6650e+000 20882 112700,112752,112726
 2.4000e+000 112997 -9.0175e+001 -1.9608e+002  9.0532e+000 20882 112778,112752,112971
 2.4000e+000 113020 -7.6097e+001 -1.9220e+002  3.0560e+000 20882 112778,112971,112830
 2.4000e+000 113526 -7.2453e+001 -1.9711e+002  2.8286e-001 20428 113255,113385,113333
 2.4000e+000 113503 -7.7990e+001 -2.1397e+002  2.0316e-001 20428 113229,113385,113255
 2.4000e+000 113480 -1.6248e+001 -1.9280e+002  1.1409e+000 20428 113255,113333,113281
 2.4000e+000 113457 -6.8071e+001 -2.1109e+002  1.1287e+000 20428 113203,113385,113229
 2.4000e+000 113434 -4.1094e+001 -2.0062e+002 -6.9032e+000 20428 113281,113333,113307
 2.4000e+000 113411 -8.5738e+001 -1.9258e+002  3.2987e+000 20428 113333,113385,113359
 2.4000e+000 113774 -1.0981e+001 -1.8455e+002  4.3126e+000 19917 113797,113601,113549
 2.4000e+000 113751 -2.9262e+001 -1.8734e+002  6.3175e+000 19917 113869,113797,113549
 2.4000e+000 113728 -2.9096e+001 -1.8927e+002  1.2468e+001 19917 113869,113549,113679
 2.4000e+000 113705 -1.5825e+001 -1.7953e+002  1.2490e+001 19917 113549,113601,113575
 2.4000e+000 113823 -3.0456e+001 -2.2496e+002 -3.4417e+000 19917 113627,113601,113797
 2.4000e+000 113846 -9.4587e+000 -1.7666e+002 -8.8384e+000 19917 113627,113797,113653
 2.4000e+000 113895 -2.7169e+001 -1.6979e+002 -2.0997e+000 19917 113653,113797,113869
 2.4000e+000 113918 -3.7290e+001 -1.7603e+002  6.1916e+000 19917 113653,113869,113679
 2.4000e+000 114166 -8.7642e+001 -1.9435e+002 -4.4764e+000 19413 113993,114045,114019
 2.4000e+000 114143 -7.6875e+001 -1.7873e+002  1.3873e+000 19413 113967,114045,113993
 2.4000e+000 114120 -6.8388e+001 -1.7574e+002  6.6549e+000 19413 113967,114071,114045
 2.4000e+000 114097 -4.8806e+001 -1.9454e+002 -4.7804e+000 19413 113941,114071,113967
 2.4000e+000 114438 -8.2466e+001 -2.1495e+002  1.2540e-001 19001 114213,114265,114239
 2.4000e+000 114415 -6.1989e+001 -1.7056e+002 -5.6860e+000 19001 114213,114343,114265
 2.4000e+000 114392 -9.0361e+001 -2.3383e+002 -1.1646e+001 19001 114265,114343,114317
 2.4000e+000 114369  8.1085e+000 -1.8651e+002  2.8163e+000 19001 114265,114317,114291
 2.4000e+000 114639 -1.1664e+002 -2.2336e+002 -1.7076e+001 18554 114489,114541,114515
 2.4000e+000 114616 -7.2860e+001 -2.4730e+002 -1.6437e+001 18554 114489,114567,114541
 2.4000e+000 114593 -1.0930e+002 -2.4666e+002 -2.3801e+001 18554 114463,114567,114489
 2.4000e+000 115043 -4.3318e+001 -1.8771e+002  6.1584e+000 18164 114795,114925,114821
 2.4000e+000 115020 -3.5858e+001 -1.9818e+002  1.1924e+001 18164 114769,114925,114795
 2.4000e+000 114997 -2.7932e+001 -1.9753e+002 -1.6490e+000 18164 115066,114873,114821
 2.4000e+000 114974 -2.5117e+001 -1.6972e+002 -5.5647e+000 18164 115066,114821,114925
 2.4000e+000 114951  1.5074e+000 -1.9777e+002 -1.6101e+001 18164 114821,114873,114847
 2.4000e+000 115092 -3.9071e+001 -1.7740e+002 -1.6465e+001 18164 114899,114873,115066
 2.4000e+000 115115 -2.5414e+001 -1.3496e+002 -2.1511e+001 18164 114899,115066,114925
 2.4000e+000 115265 -6.3621e+001 -2.2175e+002  1.2412e+000 17852 115164,115216,115190
 2.4000e+000 115242 -6.0530e+001 -2.2528e+002  2.2632e+000 17852 115138,115216,115164
 2.4000e+000 115464 -1.1975e+002 -2.8232e+002  3.7612e+000 17346 115288,115366,115340
 2.4000e+000 115441 -1.9453e+002 -2.2169e+002 -7.1951e+000 17346 115288,115392,115366
 2.4000e+000 115418 -1.1281e+002 -3.1661e+002 -9.9072e+000 17346 115288,115340,115314
 2.4000e+000 115736 -6.0310e+001 -1.9412e+002  6.6083e+000 16942 115563,115641,115615
 2.4000e+000 115713 -6.3317e+001 -1.9077e+002  3.2493e+000 16942 115511,115641,115563
 2.4000e+000 115690 -1.3980e+002 -2.2431e+002  1.1640e+001 16942 115563,115615,115589
 2.4000e+000 115667 -7.2147e+001 -2.1034e+002  6.4184e+000 16942 115511,115563,115537
 2.4000e+000 116091 -9.3722e+001 -2.2211e+002 -1.0705e+001 16388 115918,115970,115944
 2.4000e+000 116068 -7.7983e+001 -1.7351e+002 -7.0540e+000 16388 115918,115996,115970
 2.4000e+000 116045 -1.0679e+002 -2.2260e+002  6.2346e+000 16388 115892,115996,115918
 2.4000e+000 116022 -7.1200e+001 -2.0479e+002  2.2913e+001 16388 115866,115996,115892
 2.4000e+000 116192 -3.7414e+001 -2.4175e+002 -3.4415e+001 15810 116114,116166,116140
 2.4000e+000 116342 -4.9184e+001 -2.4175e+002  2.8631e+001 15419 116241,116293,116267
 2.4000e+000 116319 -6.9876e+001 -3.2852e+002 -4.1217e+000 15419 116215,116293,116241
 2.4000e+000 116445 -9.5209e+001 -1.9477e+002 -1.5441e-001 421 116367,116419,116393
 2.5000e+000 68477 -1.3683e+002 -2.1139e+002 -1.3288e+000 68018 68327,68379,68353
 2.5000e+000 68454 -1.4803e+002 -2.8438e+002  1.9871e+001 68018 68301,68379,68327
 2.5000e+000 68431 -6.7310e+001 -3.1482e+002  5.0842e+001 68018 68301,68405,68379
 2.5000e+000 68578 -8.5890e+001 -2.0023e+002  1.9694e+000 67820 68500,68552,68526
 2.5000e+000 68728 -9.8046e+001 -1.9054e+002 -2.4124e+000 67508 68601,68653,68627
 2.5000e+000 68705 -1.5665e+002 -1.4132e+002 -2.8093e+001 67508 68601,68679,68653
 2.5000e+000 68927 -1.8931e+001 -1.6303e+002 -5.2325e+000 67310 68777,68829,68803
 2.5000e+000 68904 -4.1092e+001 -1.9065e+002  4.3438e+000 67310 68751,68829,68777
 2.5000e+000 68881 -4.3639e+001 -2.0778e+002  5.8379e+000 67310 68751,68855,68829
 2.5000e+000 69386 -8.4048e+001 -2.2686e+002 -1.3732e+001 67020 69216,69268,69242
 2.5000e+000 69363 -7.3161e+001 -1.6719e+002 -2.4597e+001 67020 69138,69268,69216
 2.5000e+000 69340 -5.5071e+001 -1.4748e+002 -1.2968e+001 67020 69112,69268,69138
 2.5000e+000 69317 -9.8233e+001 -1.7881e+002  1.3785e+001 67020 69138,69190,69164
 2.5000e+000 69294 -1.0667e+002 -1.7168e+002 -1.0839e+001 67020 69138,69216,69190
 2.5000e+000 69536 -1.5224e+002 -3.9782e+002 -2.8534e+001 66708 69435,69487,69461
 2.5000e+000 69513 -1.1649e+002 -4.4247e+002 -4.4467e+000 66708 69409,69487,69435
 2.5000e+000 69735 -9.7307e+001 -2.1183e+002  5.4655e+000 66346 69585,69637,69611
 2.5000e+000 69712 -7.7997e+001 -2.0155e+002 -6.6866e-001 66346 69559,69637,69585
 2.5000e+000 69689 -6.9868e+001 -2.0041e+002 -2.0448e+001 66346 69559,69663,69637
 2.5000e+000 69985 -1.2885e+002 -2.3279e+002  5.5647e+000 66148 69786,69890,69864
 2.5000e+000 69962 -1.3503e+002 -2.3559e+002  6.1956e+000 66148 69760,69890,69786
 2.5000e+000 69939 -9.2642e+001 -2.1893e+002 -2.9531e+001 66148 69786,69864,69838
 2.5000e+000 69916 -1.1282e+002 -2.3968e+002 -7.5496e+000 66148 69786,69838,69812
 2.5000e+000 70137 -8.3800e+000 -2.1843e+002 -1.6409e+001 65950 70036,70088,70062
 2.5000e+000 70114 -5.4560e+001 -2.7060e+002  1.7544e+001 65950 70010,70088,70036
 2.5000e+000 70470 -4.7238e+001 -1.7721e+002  1.4389e+001 65546 70245,70323,70271
 2.5000e+000 70447 -2.4471e+001 -1.6579e+002 -1.0323e+001 65546 70245,70375,70323
 2.5000e+000 70424 -5.3542e+000 -2.1185e+002  1.1167e+001 65546 70323,70375,70349
 2.5000e+000 70401 -3.4484e+001 -1.6038e+002  5.0825e+000 65546 70271,70323,70297
 2.5000e+000 70620 -6.3927e+001 -2.1919e+002  1.0381e+001 65348 70493,70545,70519
 2.5000e+000 70597 -5.6093e+001 -2.3689e+002  7.7605e+000 65348 70493,70571,70545
 2.5000e+000 70721 -1.0690e+002 -2.2170e+002  1.1868e+001 65150 70643,70695,70669
 2.5000e+000 71020 -8.0815e+001 -1.6913e+002  7.0038e+000 64952 71043,70850,70824
 2.5000e+000 70997 -6.4340e+001 -1.4183e+002 -3.8376e+000 64952 71043,70824,70772
 2.5000e+000 70974 -5.9665e+001 -2.0419e+002  3.2605e+000 64952 71115,70746,70876
 2.5000e+000 70951 -5.6307e+001 -1.9799e+002  8.2600e+000 64952 70746,70902,70876
 2.5000e+000 70928 -7.4000e+001 -1.3359e+002 -1.0138e+001 64952 70772,70824,70798
 2.5000e+000 71069 -5.3868e+001 -1.5690e+002  9.7453e+000 64952 70876,70850,71043
 2.5000e+000 71092 -6.6509e+001 -1.8784e+002  4.3500e-001 64952 71115,70876,71043
 2.5000e+000 71141 -6.3188e+001 -1.8655e+002 -9.0126e+000 64952 70772,70746,71115
 2.5000e+000 71164 -6.1282e+001 -1.6118e+002 -1.3518e+001 64952 70772,71115,71043
 2.5000e+000 71365 -7.4776e+000 -2.0217e+002 -3.4945e+000 64662 71215,71293,71267
 2.5000e+000 71342  3.8542e+001 -1.7624e+002 -4.3799e+001 64662 71189,71293,71215
 2.5000e+000 71319  1.4477e+001 -1.5708e+002  3.2905e+000 64662 71215,71267,71241
 2.5000e+000 71615 -4.9667e+001 -2.0356e+002 -7.9874e-001 64350 71710,71638,71468
 2.5000e+000 71592 -2.3453e+001 -1.9261e+002 -9.4381e+000 64350 71638,71416,71390
 2.5000e+000 71569 -5.9601e+001 -1.8518e+002  1.5493e+001 64350 71710,71468,71442
 2.5000e+000 71546  7.0188e+001 -1.8636e+002 -3.7508e+001 64350 71390,71520,71494
 2.5000e+000 71664 -3.7828e+001 -1.9697e+002 -6.3219e+000 64350 71494,71468,71638
 2.5000e+000 71687 -3.3821e+001 -2.0426e+002 -3.2360e+000 64350 71494,71638,71390
 2.5000e+000 71736 -2.9994e+001 -1.6612e+002 -7.9890e+000 64350 71416,71638,71710
 2.5000e+000 71759 -4.5352e+001 -1.5360e+002  1.1394e+001 64350 71416,71710,71442
 2.5000e+000 72318 -5.1013e+001 -3.1619e+002 -1.7434e+001 63837 71972,72024,71998
 2.5000e+000 72295 -6.7941e+001 -2.0341e+002 -7.0658e-001 63837 72341,71972,71946
 2.5000e+000 72272 -6.3786e+001 -1.6070e+002  1.4517e+001 63837 72413,72341,71946
 2.5000e+000 72249 -6.5036e+001 -1.4318e+002  9.7242e+000 63837 72413,71946,72128
 2.5000e+000 72226 -1.0142e+002 -1.7554e+002  6.6322e+000 63837 72024,72076,72050
 2.5000e+000 72203 -8.5389e+001 -1.5875e+002 -2.0063e+000 63837 72024,72102,72076
 2.5000e+000 72180 -5.5142e+001 -1.4036e+002  1.6184e+001 63837 71946,72154,72128
 2.5000e+000 72367 -9.7632e+001 -2.2382e+002 -4.1235e+001 63837 72024,71972,72341
 2.5000e+000 72390 -6.9486e+001 -1.7468e+002 -1.2290e+001 63837 72024,72341,72102
 2.5000e+000 72439 -5.5641e+001 -1.8880e+002  7.8516e+000 63837 72102,72341,72413
 2.5000e+000 72462 -5.5510e+001 -1.6929e+002  5.3629e+000 63837 72102,72413,72128
 2.5000e+000 72791 -9.0842e+001 -1.8432e+002 -1.8674e+001 63383 72592,72696,72670
 2.5000e+000 72768 -9.3002e+001 -1.7117e+002 -3.4349e+001 63383 72566,72696,72592
 2.5000e+000 72745 -9.3211e+001 -1.5991e+002  1.6948e+000 63383 72592,72670,72618
 2.5000e+000 72722 -9.1123e+001 -1.4853e+002 -2.8739e+000 63383 72618,72670,72644
 2.5000e+000 73297 -1.1207e+002 -1.6527e+002 -1.1918e+000 63185 73000,73156,73130
 2.5000e+000 73274 -1.1217e+002 -1.7095e+002  2.1509e+001 63185 72974,73156,73000
 2.5000e+000 73251 -8.4255e+001 -1.8762e+002 -5.5949e-001 63185 73000,73052,73026
 2.5000e+000 73228 -8.9008e+001 -1.6693e+002 -6.5049e+000 63185 73000,73130,73052
 2.5000e+000 73205 -9.0440e+001 -1.9576e+002 -2.8523e+001 63185 73052,73130,73104
 2.5000e+000 73182 -8.2061e+001 -2.0974e+002 -2.8587e+001 63185 73052,73104,73078
 2.5000e+000 73545 -3.1435e+001 -1.7460e+002  7.8319e-001 62781 73568,73398,73372
 2.5000e+000 73522 -1.6642e+001 -1.5905e+002  9.4105e+000 62781 73568,73372,73346
 2.5000e+000 73499 -3.9788e+001 -1.6937e+002 -7.7694e+000 62781 73640,73320,73424
 2.5000e+000 73476 -6.1418e+001 -1.2747e+002 -1.4123e+001 62781 73320,73450,73424
 2.5000e+000 73594 -3.5464e+001 -1.6054e+002 -1.0214e+000 62781 73424,73398,73568
 2.5000e+000 73617 -3.5563e+001 -1.6583e+002 -2.1099e+000 62781 73640,73424,73568
 2.5000e+000 73666 -3.6407e+001 -1.6245e+002 -2.2811e+000 62781 73346,73320,73640
 2.5000e+000 73689 -3.3804e+001 -1.5709e+002  2.8909e+000 62781 73346,73640,73568
 2.5000e+000 74035 -6.3385e+001 -2.0603e+002 -1.1963e+000 62363 74058,73868,73842
 2.5000e+000 74012 -6.1457e+001 -1.9095e+002 -1.3375e+001 62363 74130,74058,73842
 2.5000e+000 73989 -5.5946e+001 -1.8828e+002 -1.2537e+001 62363 74130,73842,73816
 2.5000e+000 73966 -9.5371e+001 -2.1330e+002  3.3865e+000 62363 74202,73764,73894
 2.5000e+000 73943 -1.2611e+002 -1.9387e+002  3.8372e+000 62363 73712,73894,73764
 2.5000e+000 73920 -1.3884e+002 -2.0763e+002 -2.7755e+000 62363 73712,73764,73738
 2.5000e+000 74084 -6.6261e+001 -2.0153e+002 -1.8134e+000 62363 73894,73868,74058
 2.5000e+000 74107 -8.5844e+001 -2.0361e+002  1.1378e+001 62363 74202,73894,74058
 2.5000e+000 74156 -6.7601e+001 -1.9120e+002  7.9828e+000 62363 73790,74058,74130
 2.5000e+000 74179 -3.8903e+001 -1.7825e+002  1.1159e+001 62363 73790,74130,73816
 2.5000e+000 74228 -1.0634e+002 -2.1813e+002 -1.0788e+001 62363 73790,73764,74202
 2.5000e+000 74251 -9.9534e+001 -2.0801e+002 -2.8428e+000 62363 73790,74202,74058
 2.5000e+000 74403 -2.8310e+000 -2.2170e+002  1.5113e+001 62115 74426,74302,74276
 2.5000e+000 74380  4.6771e+001 -2.1483e+002  3.5306e+001 62115 74426,74276,74354
 2.5000e+000 74452 -4.8343e+001 -1.9962e+002  1.5544e+001 62115 74328,74302,74426
 2.5000e+000 74475 -2.3810e+000 -1.9471e+002  3.7164e+001 62115 74328,74426,74354
 2.5000e+000 74578  3.5327e+001 -1.4620e+002  4.2694e+000 61825 74500,74552,74526
 2.5000e+000 74982 -1.0411e+002 -1.8889e+002  1.3078e+000 61513 75005,74734,74708
 2.5000e+000 74959 -1.0302e+002 -1.8449e+002 -7.1418e-002 61513 75005,74708,74864
 2.5000e+000 74936 -1.3245e+002 -1.9495e+002  1.1984e+001 61513 75077,74812,74734
 2.5000e+000 74913 -1.1413e+002 -1.9233e+002 -1.6476e+001 61513 74734,74786,74760
 2.5000e+000 74890 -1.1272e+002 -1.7422e+002 -1.8933e+000 61513 74734,74812,74786
 2.5000e+000 75031 -9.9199e+001 -1.9395e+002  1.8406e+000 61513 75077,74734,75005
 2.5000e+000 75054 -7.7299e+001 -1.8658e+002  2.8990e+001 61513 74838,75005,74864
 2.5000e+000 75103 -1.5070e+002 -2.0205e+002  4.2242e+001 61513 74838,74812,75077
 2.5000e+000 75126 -1.2911e+002 -2.0920e+002  3.2126e+001 61513 74838,75077,75005
 2.5000e+000 75553 -4.4980e+001 -1.6641e+002 -6.5226e+000 61060 75576,75360,75308
 2.5000e+000 75530 -4.5788e+001 -1.7856e+002 -7.0801e+000 61060 75576,75308,75230
 2.5000e+000 75507 -4.2579e+001 -1.6186e+002 -2.1592e+000 61060 75308,75360,75334
 2.5000e+000 75484 -6.6245e+001 -2.1404e+002  1.5181e+001 61060 75230,75308,75256
 2.5000e+000 75461 -4.0904e+001 -1.9783e+002  8.2273e+000 61060 75256,75308,75282
 2.5000e+000 75438 -5.7465e+001 -1.6268e+002  2.5603e+001 61060 75360,75412,75386
 2.5000e+000 75602 -3.3586e+001 -1.7681e+002  1.0757e+000 61060 75412,75360,75576
 2.5000e+000 75625 -4.1252e+001 -1.9909e+002 -2.1536e+000 61060 75412,75576,75230
 2.5000e+000 76052 -7.0027e+001 -1.7430e+002  2.1572e+000 60442 75755,75859,75833
 2.5000e+000 76029 -6.5019e+001 -1.4936e+002 -2.3453e+001 60442 75729,75859,75755
 2.5000e+000 76006 -6.9244e+001 -1.5285e+002  9.2785e+000 60442 75755,75833,75807
 2.5000e+000 75983 -7.1696e+001 -1.7750e+002  4.1017e+000 60442 75755,75807,75781
 2.5000e+000 75960 -2.2548e+000 -3.2033e+002  1.1033e+001 60442 75729,75911,75859
 2.5000e+000 75937 -1.5400e+002 -7.6209e+002  4.8272e+001 60442 75859,75911,75885
 2.5000e+000 76430 -7.5479e+001 -1.9904e+002 -3.3656e+000 59788 76453,76286,76234
 2.5000e+000 76407 -8.1697e+001 -2.2357e+002  5.0757e+000 59788 76453,76234,76182
 2.5000e+000 76384 -8.0862e+001 -1.4067e+002  2.7131e+001 59788 76525,76156,76312
 2.5000e+000 76361 -5.3929e+001 -2.5737e+002  1.0650e+000 59788 76182,76234,76208
 2.5000e+000 76338 -4.8237e+001 -1.8515e+002  2.0686e+000 59788 76234,76286,76260
 2.5000e+000 76479 -8.7849e+001 -2.1130e+002  3.6282e+000 59788 76312,76286,76453
 2.5000e+000 76502 -7.4715e+001 -1.9682e+002  1.0874e+001 59788 76525,76312,76453
 2.5000e+000 76551 -1.0381e+002 -2.1128e+002  2.7788e+001 59788 76182,76156,76525
 2.5000e+000 76574 -9.0876e+001 -2.2825e+002  1.6563e+001 59788 76182,76525,76453
 2.5000e+000 77031 -2.0884e+001 -1.1650e+002 -2.3694e+001 59448 76835,76887,76861
 2.5000e+000 77008  8.3354e+000 -8.6526e+001 -5.5724e+000 59448 76835,76913,76887
 2.5000e+000 76985 -1.8937e+001 -9.1518e+001  1.8911e+001 59448 76809,76913,76835
 2.5000e+000 76962 -5.6475e+001 -1.0107e+002 -9.0735e+000 59448 76757,76913,76809
 2.5000e+000 76939 -4.3474e+001 -1.0034e+002 -1.4018e+001 59448 76757,76809,76783
 2.5000e+000 77537 -8.7202e+001 -1.8488e+002  1.2267e+001 58994 77560,77344,77292
 2.5000e+000 77514 -1.2281e+002 -1.8546e+002  4.9852e+000 58994 77560,77292,77240
 2.5000e+000 77491 -7.0334e+001 -1.7621e+002 -2.9571e+000 58994 77632,77214,77370
 2.5000e+000 77468 -1.4366e+002 -2.1130e+002  3.6435e+001 58994 77292,77344,77318
 2.5000e+000 77445 -7.2342e+001 -2.2993e+002  1.0689e+001 58994 77214,77396,77370
 2.5000e+000 77422 -1.2633e+002 -2.0059e+002 -3.0525e+000 58994 77240,77292,77266
 2.5000e+000 77586 -9.0164e+001 -1.9044e+002  1.4058e+001 58994 77370,77344,77560
 2.5000e+000 77609 -9.0237e+001 -1.8845e+002  1.4963e+001 58994 77632,77370,77560
 2.5000e+000 77658 -5.9223e+001 -1.6257e+002 -2.0981e+001 58994 77240,77214,77632
 2.5000e+000 77681 -7.3532e+001 -1.6005e+002 -4.7028e+000 58994 77240,77632,77560
 2.5000e+000 78138 -6.4906e+001 -1.2196e+002  1.8044e+001 58440 77864,77994,77890
 2.5000e+000 78115 -3.8657e+001 -6.7683e+001 -1.2910e+001 58440 77864,78020,77994
 2.5000e+000 78092 -7.4547e+001 -1.4768e+002 -1.2620e+001 58440 77942,77994,77968
 2.5000e+000 78069 -5.7077e+001 -1.3633e+002  3.1275e+000 58440 77890,77994,77942
 2.5000e+000 78046 -5.3100e+001 -1.3972e+002 -2.4987e-001 58440 77890,77942,77916
 2.5000e+000 78467 -1.4961e+001 -1.7077e+002  2.2955e+000 57928 78562,78490,78346
 2.5000e+000 78444 -3.9939e+001 -1.5794e+002  9.2389e+000 57928 78490,78294,78268
 2.5000e+000 78421 -8.8384e+000 -1.7622e+002  7.4332e+000 57928 78562,78346,78320
 2.5000e+000 78398 -1.4859e+001 -1.5990e+002  5.8669e+000 57928 78242,78372,78268
 2.5000e+000 78516 -4.3164e+001 -2.0951e+002 -1.3424e+001 57928 78372,78346,78490
 2.5000e+000 78539 -3.5142e+001 -1.6138e+002  1.0328e+000 57928 78372,78490,78268
 2.5000e+000 78588 -4.2619e+001 -1.7131e+002  1.0925e-001 57928 78294,78490,78562
 2.5000e+000 78611 -2.5164e+001 -1.6408e+002  9.6248e+000 57928 78294,78562,78320
 2.5000e+000 79068 -1.0986e+002 -2.5349e+002 -6.3726e+001 57467 78794,78924,78820
 2.5000e+000 79045 -8.2105e+001 -2.4253e+002 -6.6085e+001 57467 78794,78950,78924
 2.5000e+000 79022 -1.0035e+001 -2.0259e+002  8.1764e+000 57467 78820,78898,78872
 2.5000e+000 78999 -8.6214e+001 -2.9124e+002 -4.1855e+001 57467 78820,78924,78898
 2.5000e+000 78976 -2.4484e+001 -2.1182e+002  1.3650e+001 57467 78820,78872,78846
 2.5000e+000 79446 -9.9160e+001 -1.9757e+002  1.8346e+000 57120 79172,79302,79250
 2.5000e+000 79423 -8.6031e+001 -1.9151e+002 -8.4364e+000 57120 79172,79328,79302
 2.5000e+000 79400 -9.2325e+001 -1.7366e+002 -4.1556e+000 57120 79172,79250,79198
 2.5000e+000 79377 -6.5008e+001 -2.5117e+002  1.2251e+001 57120 79250,79302,79276
 2.5000e+000 79354 -1.1616e+002 -1.9282e+002 -1.4156e+001 57120 79198,79250,79224
 2.5000e+000 79952 -1.1374e+002 -1.9433e+002  2.3693e+000 56773 79629,79785,79655
 2.5000e+000 79929 -2.6231e+001 -1.6919e+002  1.2851e+001 56773 79629,79811,79785
 2.5000e+000 79906 -7.8995e+001 -2.2557e+002  1.9273e+001 56773 79655,79733,79681
 2.5000e+000 79883 -7.9388e+001 -1.9046e+002  3.4814e+000 56773 79655,79785,79733
 2.5000e+000 79860 -6.5662e+001 -2.5443e+002 -4.1349e+001 56773 79733,79785,79759
 2.5000e+000 79837 -9.0306e+000 -1.9255e+002  6.1349e+001 56773 79681,79733,79707
 2.5000e+000 80281 -4.2560e+001 -1.6019e+002 -1.2029e+001 56319 80108,80160,80134
 2.5000e+000 80258 -4.2763e+001 -1.7382e+002 -1.4017e+001 56319 80056,80160,80108
 2.5000e+000 80235 -1.6669e+001 -1.5548e+002  1.1694e+001 56319 80056,80186,80160
 2.5000e+000 80212 -6.3450e+001 -2.2686e+002 -7.6394e+000 56319 80056,80108,80082
 2.5000e+000 80738 -2.9038e+001 -1.7829e+002  1.1761e+001 55957 80516,80620,80594
 2.5000e+000 80715 -6.2507e+001 -1.6234e+002  1.0312e+001 55957 80464,80620,80516
 2.5000e+000 80692 -5.5951e+001 -1.8886e+002  9.4777e+000 55957 80761,80568,80542
 2.5000e+000 80669 -4.2644e+001 -1.8853e+002  1.0754e+001 55957 80761,80542,80516
 2.5000e+000 80646 -6.3586e+001 -1.6429e+002  2.7003e+001 55957 80464,80516,80490
 2.5000e+000 80787 -6.6928e+001 -1.8957e+002  7.7605e+000 55957 80594,80568,80761
 2.5000e+000 80810 -5.4640e+001 -1.8983e+002  9.3062e+000 55957 80594,80761,80516
 2.5000e+000 81210 -3.6475e+001 -1.8915e+002 -1.6842e+001 55317 80936,80988,80962
 2.5000e+000 81187 -3.2601e+001 -1.9915e+002 -7.1479e+000 55317 80936,81066,80988
 2.5000e+000 81164 -3.5393e+001 -2.1676e+002 -8.9754e-001 55317 80936,81092,81066
 2.5000e+000 81141 -7.9136e+001 -2.2306e+002 -2.2009e+001 55317 80988,81066,81014
 2.5000e+000 81118 -1.1103e+001 -1.4048e+002  9.1893e+000 55317 81014,81066,81040
 2.5000e+000 81539 -8.5193e+001 -2.0106e+002  5.4963e+000 54913 81340,81418,81392
 2.5000e+000 81516 -3.1391e+001 -1.6201e+002 -1.2266e+001 54913 81340,81444,81418
 2.5000e+000 81493 -5.0651e+001 -1.7295e+002 -2.1178e+001 54913 81314,81444,81340
 2.5000e+000 81470 -8.9403e+001 -2.3303e+002  8.5479e-001 54913 81340,81392,81366
 2.5000e+000 81787 -4.7333e+001 -2.0762e+002 -2.5505e+000 54601 81588,81692,81640
 2.5000e+000 81764 -6.5215e+001 -2.1022e+002 -6.5677e+000 54601 81562,81692,81588
 2.5000e+000 81741 -3.0696e+001 -2.0875e+002  2.8317e+001 54601 81588,81640,81614
 2.5000e+000 81718 -4.9829e+001 -2.4518e+002 -2.0235e+001 54601 81640,81692,81666
 2.5000e+000 82344 -8.2239e+001 -2.2924e+002 -1.2267e+001 54090 81998,82102,82076
 2.5000e+000 82321 -1.1170e+002 -2.4212e+002 -7.6090e+000 54090 81998,82154,82102
 2.5000e+000 82298 -1.0205e+002 -2.3521e+002 -4.4823e+000 54090 81972,82154,81998
 2.5000e+000 82275 -1.1626e+002 -2.1190e+002 -1.4848e+001 54090 81998,82076,82024
 2.5000e+000 82252 -1.2423e+002 -2.5057e+002  1.1636e+001 54090 81972,82180,82154
 2.5000e+000 82229 -1.5544e+002 -2.9313e+002  1.6172e+001 54090 82102,82154,82128
 2.5000e+000 82206 -1.9807e+001 -1.5977e+002 -3.5630e+001 54090 82024,82076,82050
 2.5000e+000 82722 -1.3414e+002 -2.3713e+002 -1.1252e+001 53579 82500,82578,82552
 2.5000e+000 82699 -9.5117e+001 -2.1203e+002  4.5494e+000 53579 82448,82578,82500
 2.5000e+000 82676 -1.0391e+002 -2.4325e+002  4.7339e+000 53579 82448,82500,82474
 2.5000e+000 82653 -1.2922e+002 -2.2949e+002  1.6853e+001 53579 82448,82604,82578
 2.5000e+000 82630 -6.8654e+001 -2.2047e+002 -1.3030e+001 53579 82500,82552,82526
 2.5000e+000 83356 -6.4145e+001 -1.7844e+002 -1.6053e+001 53189 83379,83088,83036
 2.5000e+000 83333 -6.2429e+001 -1.9944e+002 -1.4607e+001 53189 83379,83036,82984
 2.5000e+000 83310 -2.6737e+001 -1.8271e+002  3.7040e+001 53189 82984,83192,83166
 2.5000e+000 83287  1.7288e+000 -1.5187e+002 -1.4990e+001 53189 83036,83088,83062
 2.5000e+000 83264 -5.7129e+001 -2.4594e+002 -2.7517e+001 53189 82984,83036,83010
 2.5000e+000 83241 -3.0908e+001 -2.1374e+002  7.5302e+000 53189 83114,83166,83140
 2.5000e+000 83218 -8.9766e+001 -2.2939e+002  6.4786e+000 53189 83088,83166,83114
 2.5000e+000 83405 -6.3937e+001 -1.9262e+002 -7.3039e+000 53189 83166,83088,83379
 2.5000e+000 83428 -5.9177e+001 -2.1120e+002 -7.1699e+000 53189 83166,83379,82984
 2.5000e+000 83725 -7.7534e+001 -2.5155e+002 -1.6504e+001 52585 83748,83529,83503
 2.5000e+000 83702 -4.2007e+001 -2.3771e+002 -1.2219e+001 52585 83820,83748,83503
 2.5000e+000 83679  8.2609e-002 -2.3231e+002 -9.8836e+000 52585 83820,83503,83477
 2.5000e+000 83656 -4.6832e+001 -2.2483e+002  3.3136e+001 52585 83477,83607,83581
 2.5000e+000 83633  5.5440e+000 -2.0500e+002  2.7464e+001 52585 83451,83607,83477
 2.5000e+000 83774 -6.4978e+001 -2.2019e+002 -1.3356e+001 52585 83555,83529,83748
 2.5000e+000 83797 -1.0860e+002 -2.3571e+002 -6.8451e+000 52585 83555,83748,83581
 2.5000e+000 83846 -8.1738e+001 -2.2027e+002  9.0774e+000 52585 83581,83748,83820
 2.5000e+000 83869 -4.9836e+001 -2.2062e+002  7.1936e+000 52585 83581,83820,83477
 2.5000e+000 84200 -7.0951e+001 -2.3462e+002 -6.9200e+000 52024 84001,84105,84079
 2.5000e+000 84177 -3.4721e+001 -2.2810e+002 -1.6281e+001 52024 83975,84105,84001
 2.5000e+000 84154 -5.9708e+001 -2.3404e+002 -5.5095e+000 52024 84001,84079,84053
 2.5000e+000 84131 -2.9308e+001 -1.5489e+002  2.9338e+001 52024 84001,84053,84027
 2.5000e+000 84399 -5.1541e+001 -2.1775e+002 -2.4773e+000 51470 84422,84275,84249
 2.5000e+000 84376 -4.5926e+001 -2.1517e+002 -6.4641e-001 51470 84422,84249,84223
 2.5000e+000 84353 -6.1085e+001 -2.3787e+002 -3.4476e+001 51470 84275,84327,84301
 2.5000e+000 84448 -5.6646e+001 -2.1414e+002 -1.9575e+000 51470 84327,84275,84422
 2.5000e+000 84471 -5.1157e+001 -2.1196e+002 -5.3812e-001 51470 84327,84422,84223
 2.5000e+000 84753 -6.8166e+001 -1.9670e+002 -1.1977e+000 51073 84603,84655,84629
 2.5000e+000 84730 -1.4045e+002 -2.2978e+002 -1.0169e+001 51073 84776,84655,84603
 2.5000e+000 84707 -2.9721e+001 -1.9701e+002 -5.6547e+001 51073 84577,84681,84655
 2.5000e+000 84802 -8.7914e+001 -1.9982e+002 -2.7291e+001 51073 84577,84655,84776
 2.5000e+000 85178 -1.2272e+002 -2.6209e+002  2.4286e+001 50519 85201,85008,84982
 2.5000e+000 85155 -1.1590e+002 -2.4349e+002  1.9945e+001 50519 85273,85201,84982
 2.5000e+000 85132 -1.0852e+002 -2.4308e+002  1.5300e+001 50519 85273,84982,84930
 2.5000e+000 85109 -1.0347e+002 -2.3787e+002  1.3246e+001 50519 84930,84982,84956
 2.5000e+000 85086 -1.0629e+002 -2.5147e+002  1.3885e+001 50519 85008,85060,85034
 2.5000e+000 85227 -1.0426e+002 -2.5044e+002  1.2305e+001 50519 85060,85008,85201
 2.5000e+000 85250 -1.1472e+002 -2.5615e+002  8.7702e+000 50519 85060,85201,84904
 2.5000e+000 85299 -1.0862e+002 -2.4804e+002  4.9735e+000 50519 84904,85201,85273
 2.5000e+000 85322 -8.1023e+001 -2.1136e+002 -7.2758e+000 50519 84904,85273,84930
 2.5000e+000 85958 -6.4491e+001 -2.0920e+002 -5.9813e+000 50093 85981,85768,85716
 2.5000e+000 85935 -5.8080e+001 -1.9238e+002 -7.2667e+000 50093 85981,85716,85612
 2.5000e+000 85912 -7.1480e+001 -1.8563e+002 -1.1667e+000 50093 85612,85716,85664
 2.5000e+000 85889 -4.9041e+001 -2.0485e+002 -1.6394e+000 50093 85716,85768,85742
 2.5000e+000 85866 -7.4727e+001 -1.5998e+002 -3.2269e+001 50093 85664,85716,85690
 2.5000e+000 85843  2.1310e+001 -1.3937e+002 -1.6942e+001 50093 85586,85794,85612
 2.5000e+000 85820 -5.1841e+001 -2.6279e+002  1.4243e+001 50093 85612,85664,85638
 2.5000e+000 86007 -7.6365e+001 -2.2262e+002 -2.9419e+001 50093 85794,85768,85981
 2.5000e+000 86030 -5.7023e+001 -1.7494e+002 -2.4880e+001 50093 85794,85981,85612
 2.5000e+000 86131 -7.4905e+001 -2.3982e+002  3.2849e+001 49895 86053,86105,86079
 2.5000e+000 86639 -3.5917e+001 -1.4848e+002 -2.1537e+001 49391 86662,86394,86368
 2.5000e+000 86616 -4.0887e+001 -1.7600e+002 -1.4990e+001 49391 86662,86368,86342
 2.5000e+000 86593 -1.3435e+001 -1.6507e+002  8.4527e+000 49391 86342,86498,86472
 2.5000e+000 86570  2.4117e+001 -1.8690e+002  1.0602e+001 49391 86316,86498,86342
 2.5000e+000 86547 -8.6833e+001 -2.5948e+002 -3.1765e+000 49391 86394,86472,86446
 2.5000e+000 86524  4.3589e+000 -2.5466e+002  7.9360e+000 49391 86394,86446,86420
 2.5000e+000 86688 -5.0479e+001 -1.7376e+002 -1.0022e+001 49391 86472,86394,86662
 2.5000e+000 86711 -3.8420e+001 -1.8481e+002 -7.3954e+000 49391 86472,86662,86342
 2.5000e+000 87089 -7.2082e+001 -2.1638e+002  3.7776e+000 48987 86815,86919,86867
 2.5000e+000 87066 -7.6676e+001 -2.2395e+002  7.3636e+000 48987 86815,86971,86919
 2.5000e+000 87043 -3.3816e+001 -2.3810e+002 -2.0466e+001 48987 86867,86919,86893
 2.5000e+000 87020 -7.9440e+001 -2.3791e+002  1.8443e+001 48987 86815,86867,86841
 2.5000e+000 86997 -8.7279e+001 -1.9403e+002  2.9771e+001 48987 86919,86971,86945
 2.5000e+000 87467 -1.4061e+002 -2.1164e+002  9.1518e+000 48540 87490,87245,87219
 2.5000e+000 87444 -1.0870e+002 -2.0093e+002  1.6270e+000 48540 87562,87490,87219
 2.5000e+000 87421 -8.0676e+001 -1.8949e+002  8.9653e+000 48540 87562,87219,87349
 2.5000e+000 87398 -1.1700e+002 -1.7408e+002 -3.9815e+000 48540 87245,87297,87271
 2.5000e+000 87375 -6.3200e+001 -2.0287e+002  5.6298e+000 48540 87193,87349,87219
 2.5000e+000 87516 -1.0437e+002 -2.0080e+002  6.0210e+000 48540 87297,87245,87490
 2.5000e+000 87539 -1.1101e+002 -2.0712e+002  1.2054e+001 48540 87297,87490,87323
 2.5000e+000 87588 -8.1990e+001 -1.9097e+002  2.0280e+001 48540 87323,87490,87562
 2.5000e+000 87611 -6.8129e+001 -1.9303e+002  2.5028e+001 48540 87323,87562,87349
 2.5000e+000 87810 -1.0611e+002 -3.8415e+002 -2.7436e+001 48136 87660,87712,87686
 2.5000e+000 87787 -6.0332e+001 -2.2866e+002 -1.2996e+001 48136 87660,87738,87712
 2.5000e+000 87764 -1.4232e+002 -2.3550e+002 -4.0096e+001 48136 87634,87738,87660
 2.5000e+000 88205 -8.4716e+001 -2.2813e+002 -1.9583e+001 47210 88300,88228,87937
 2.5000e+000 88182 -7.6709e+001 -2.2454e+002 -5.8344e+000 47210 88228,87833,88041
 2.5000e+000 88159 -8.5847e+001 -2.4231e+002 -3.0037e+001 47210 88300,87937,87911
 2.5000e+000 88136 -8.1787e+001 -2.2462e+002 -2.4905e+001 47210 87833,87911,87859
 2.5000e+000 88113 -1.4117e+002 -1.8959e+002 -1.5948e+001 47210 87937,87989,87963
 2.5000e+000 88090 -8.7472e+001 -1.9632e+002  4.2438e+001 47210 87989,88041,88015
 2.5000e+000 88067 -9.5229e+001 -2.5832e+002 -3.2122e+001 47210 87859,87911,87885
 2.5000e+000 88254 -7.7157e+001 -1.8398e+002 -2.3269e+001 47210 87989,87937,88228
 2.5000e+000 88277 -1.0182e+002 -2.1784e+002 -8.4438e+000 47210 87989,88228,88041
 2.5000e+000 88326 -7.0435e+001 -2.1444e+002 -8.5549e+000 47210 87833,88228,88300
 2.5000e+000 88349 -7.3911e+001 -2.2402e+002 -1.9762e+001 47210 87833,88300,87911
 2.5000e+000 88780 -1.5241e+002 -2.6852e+002 -4.9745e+001 46642 88803,88509,88483
 2.5000e+000 88757 -1.1040e+002 -2.4222e+002 -2.6524e+001 46642 88803,88483,88639
 2.5000e+000 88734 -1.2289e+002 -1.9814e+002 -3.1222e+001 46642 88875,88561,88509
 2.5000e+000 88711 -1.2066e+002 -1.8243e+002 -6.3648e+000 46642 88509,88561,88535
 2.5000e+000 88688 -7.1526e+001 -2.7056e+002  1.2856e+000 46642 88457,88639,88483
 2.5000e+000 88665 -1.4285e+002 -3.2020e+002 -1.1897e+001 46642 88561,88613,88587
 2.5000e+000 88829 -1.2281e+002 -2.1665e+002 -3.5105e+001 46642 88875,88509,88803
 2.5000e+000 88852 -1.2083e+002 -2.6048e+002 -2.2212e+001 46642 88613,88803,88639
 2.5000e+000 88901 -1.0253e+002 -2.2345e+002 -1.5936e+001 46642 88613,88561,88875
 2.5000e+000 88924 -1.1099e+002 -2.5347e+002 -1.9029e+001 46642 88613,88875,88803
 2.5000e+000 89253 -4.4572e+001 -2.3035e+002  1.2041e+000 46444 89080,89158,89132
 2.5000e+000 89230 -4.8587e+001 -2.3882e+002 -1.0622e+000 46444 89028,89158,89080
 2.5000e+000 89207 -1.6321e+001 -2.1679e+002 -1.1069e+001 46444 89028,89080,89054
 2.5000e+000 89184 -2.7695e+001 -2.4522e+002 -1.6983e+001 46444 89080,89132,89106
 2.5000e+000 89631 -4.3993e+001 -1.4611e+002  2.6898e+000 46040 89383,89461,89435
 2.5000e+000 89608 -4.9121e+001 -1.6320e+002 -6.2349e+000 46040 89383,89487,89461
 2.5000e+000 89585 -4.7073e+001 -1.8456e+002 -4.8234e+000 46040 89383,89435,89409
 2.5000e+000 89562 -4.6125e+001 -1.4527e+002 -1.3764e+001 46040 89383,89513,89487
 2.5000e+000 89539  6.3904e+000 -1.1282e+002 -4.4084e+001 46040 89357,89513,89383
 2.5000e+000 90009 -5.9988e+001 -1.8861e+002  2.8127e-001 45636 89813,89891,89839
 2.5000e+000 89986 -6.1735e+001 -1.7662e+002  1.0676e+001 45636 89787,89891,89813
 2.5000e+000 89963 -5.4689e+001 -1.7607e+002 -3.9048e+000 45636 89839,89891,89865
 2.5000e+000 89940 -7.5191e+001 -1.9721e+002  4.8725e+000 45636 89735,89891,89787
 2.5000e+000 89917 -6.1686e+001 -1.9667e+002 -6.4433e+000 45636 89735,89787,89761
 2.5000e+000 90208 -4.1765e+001 -1.5099e+002 -3.3415e+001 45175 90231,90058,90032
 2.5000e+000 90185 -2.1374e+001 -1.3608e+002 -5.0615e+001 45175 90231,90032,90136
 2.5000e+000 90162 -5.3430e+001 -1.2383e+002 -2.5288e+000 45175 90058,90110,90084
 2.5000e+000 90257 -6.4443e+001 -1.7241e+002 -7.8902e+000 45175 90110,90058,90231
 2.5000e+000 90280 -2.5546e+001 -1.4637e+002 -2.7092e+001 45175 90110,90231,90136
 2.5000e+000 90528 -4.3580e+001 -1.4936e+002 -1.8052e+001 44513 90695,90551,90407
 2.5000e+000 90505 -5.0493e+001 -1.4139e+002 -8.9886e+000 44513 90551,90355,90329
 2.5000e+000 90482 -5.7233e+001 -1.3272e+002 -1.3952e+001 44513 90623,90303,90433
 2.5000e+000 90459 -3.0537e+001 -1.4081e+002 -1.4261e+001 44513 90695,90407,90381
 2.5000e+000 90577 -6.5695e+001 -1.5687e+002 -3.0089e+001 44513 90433,90407,90551
 2.5000e+000 90600 -5.5435e+001 -1.4177e+002 -1.4396e+001 44513 90623,90433,90551
 2.5000e+000 90649 -6.1927e+001 -1.4281e+002 -1.2271e+001 44513 90329,90303,90623
 2.5000e+000 90672 -5.8394e+001 -1.4631e+002 -1.3033e+001 44513 90329,90623,90551
 2.5000e+000 90721 -5.7589e+001 -1.3897e+002 -1.9598e+001 44513 90355,90551,90695
 2.5000e+000 90744 -5.2843e+001 -1.3621e+002 -1.8370e+001 44513 90355,90695,90381
 2.5000e+000 91077  1.7244e+001 -1.3098e+002  2.6836e+001 44059 91100,90930,90904
 2.5000e+000 91054 -6.8122e+001 -1.7560e+002  9.0306e+000 44059 91100,90904,90982
 2.5000e+000 91031 -9.1079e+001 -1.7507e+002 -2.1795e+000 44059 90878,90982,90904
 2.5000e+000 91008 -2.6530e+001 -1.4844e+002  3.8198e+000 44059 90852,90982,90878
 2.5000e+000 91126 -1.2250e+002 -1.7491e+002  6.6241e+000 44059 91172,91100,90956
 2.5000e+000 91149 -6.3118e+001 -1.6574e+002  1.3855e+000 44059 90956,91100,90982
 2.5000e+000 91198 -1.8701e+001 -1.3210e+002 -2.4836e+001 44059 90930,91100,91172
 2.5000e+000 91677 -8.7199e+001 -1.3758e+002  1.2622e+001 43549 91455,91533,91481
 2.5000e+000 91654 -3.7202e+001 -1.3659e+002  1.8197e+001 43549 91429,91533,91455
 2.5000e+000 91631 -8.1685e+001 -1.3250e+002  4.7755e+000 43549 91481,91533,91507
 2.5000e+000 91608 -2.0230e+001 -1.2961e+002  8.7264e+000 43549 91429,91559,91533
 2.5000e+000 91585 -1.5185e+000 -4.3929e+001  2.8787e-001 43549 91403,91559,91429
 2.5000e+000 92006 -7.5478e+001 -1.9832e+002  4.9763e+000 43059 91781,91885,91807
 2.5000e+000 91983 -7.6492e+001 -1.8210e+002  3.4094e+001 43059 91781,91911,91885
 2.5000e+000 91960 -6.7828e+001 -1.9409e+002  3.2566e+000 43059 91807,91885,91833
 2.5000e+000 91937 -4.0920e+001 -1.8393e+002 -9.9270e-001 43059 91833,91885,91859
 2.5000e+000 92561 -6.6374e+001 -1.4617e+002 -1.6282e+001 42598 92584,92215,92189
 2.5000e+000 92538 -7.1616e+001 -1.6682e+002 -1.5997e+001 42598 92656,92584,92189
 2.5000e+000 92515 -6.2473e+001 -1.8962e+002 -4.3797e+000 42598 92656,92189,92397
 2.5000e+000 92492 -7.9522e+001 -1.2677e+002 -1.7635e+001 42598 92241,92319,92293
 2.5000e+000 92469 -7.6054e+001 -1.6004e+002  9.7303e+000 42598 92319,92397,92371
 2.5000e+000 92446 -3.5420e+001 -1.9350e+002  7.0015e+001 42598 92319,92371,92345
 2.5000e+000 92423 -8.3871e+001 -1.3514e+002 -2.9638e+001 42598 92241,92293,92267
 2.5000e+000 92610 -6.9016e+001 -1.4605e+002 -1.4471e+001 42598 92241,92215,92584
 2.5000e+000 92633 -6.3861e+001 -1.3467e+002 -1.9223e+001 42598 92241,92584,92319
 2.5000e+000 92682 -6.3273e+001 -1.3601e+002 -1.0845e+001 42598 92319,92584,92656
 2.5000e+000 92705 -4.9431e+001 -1.5198e+002 -2.0825e+000 42598 92319,92656,92397
 2.5000e+000 92953 -7.1558e+001 -2.1472e+002  1.3426e+001 42094 92976,92806,92780
 2.5000e+000 92930 -8.1565e+001 -2.0141e+002  8.0656e-001 42094 92976,92780,92754
 2.5000e+000 92907 -5.3358e+000 -2.0874e+002 -3.9907e-001 42094 93048,92832,92806
 2.5000e+000 92884 -1.0963e+002 -1.9519e+002 -1.5703e+001 42094 92728,92858,92754
 2.5000e+000 93002 -4.0683e+001 -1.9751e+002  6.6423e+000 42094 93048,92806,92976
 2.5000e+000 93025 -7.2605e+001 -1.9619e+002 -4.7096e+000 42094 92858,92976,92754
 2.5000e+000 93074 -5.4013e+001 -2.2777e+002 -2.7119e+000 42094 92858,92832,93048
 2.5000e+000 93097 -8.3377e+001 -2.1340e+002  1.5252e+000 42094 92858,93048,92976
 2.5000e+000 93605 -8.0761e+001 -2.5032e+002 -6.7608e+000 41846 93628,93412,93386
 2.5000e+000 93582 -6.7588e+001 -1.9387e+002 -2.4609e+000 41846 93628,93386,93308
 2.5000e+000 93559 -9.0932e+001 -1.9511e+002 -2.6592e+001 41846 93700,93464,93438
 2.5000e+000 93536 -1.0100e+002 -2.4264e+002  1.4188e+001 41846 93308,93386,93334
 2.5000e+000 93513 -9.9474e+001 -2.3561e+002  1.0941e+001 41846 93334,93386,93360
 2.5000e+000 93490 -8.8966e+001 -1.5856e+002 -2.0307e+001 41846 93282,93464,93308
 2.5000e+000 93654 -6.5324e+001 -2.0297e+002 -1.7064e+001 41846 93438,93412,93628
 2.5000e+000 93677 -9.1280e+001 -1.9747e+002 -1.4319e+001 41846 93700,93438,93628
 2.5000e+000 93726 -8.5459e+001 -1.7996e+002 -2.4770e+001 41846 93308,93464,93700
 2.5000e+000 93749 -8.3701e+001 -1.7750e+002 -1.2638e+001 41846 93308,93700,93628
 2.5000e+000 94255 -6.2721e+001 -1.9951e+002  1.4260e+001 41385 93958,94114,94088
 2.5000e+000 94232 -5.3189e+001 -2.1377e+002  7.2552e+000 41385 93932,94114,93958
 2.5000e+000 94209 -1.1193e+002 -2.3234e+002  4.0369e+001 41385 93958,94088,94062
 2.5000e+000 94186 -1.1986e+002 -1.6590e+002  3.0844e+001 41385 93958,94062,93984
 2.5000e+000 94163 -9.9501e+001 -1.6225e+002  2.7029e+001 41385 93984,94062,94036
 2.5000e+000 94140 -6.8355e+001 -2.1993e+002  3.8109e+001 41385 93984,94036,94010
 2.5000e+000 94476 -1.2813e+001 -2.7596e+002  1.8893e+001 40881 94326,94378,94352
 2.5000e+000 94453 -4.1515e+001 -2.2369e+002  2.0283e+001 40881 94300,94378,94326
 2.5000e+000 94430 -5.2202e+001 -2.0402e+002  2.3209e+000 40881 94300,94404,94378
 2.5000e+000 94626 -6.1702e+001 -1.5268e+002  7.8141e+000 40591 94649,94551,94525
 2.5000e+000 94603 -1.2266e+001 -1.1752e+002  2.3642e+000 40591 94781,94577,94551
 2.5000e+000 94675 -4.9416e+000 -1.2287e+002 -7.9384e+000 40591 94781,94551,94649
 2.5000e+000 94807  4.8949e+000 -1.0918e+002  5.1073e+000 40591 94499,94577,94781
 2.5000e+000 94830  1.0995e+001 -1.1580e+002 -6.6480e+000 40591 94499,94781,94649
 2.5000e+000 95336 -1.2500e+002 -1.8167e+002 -2.6999e+001 40187 95013,95169,95039
 2.5000e+000 95313 -6.3264e+001 -1.6596e+002 -1.5229e+001 40187 95013,95195,95169
 2.5000e+000 95290 -4.8780e+001 -1.8945e+002  5.0395e+000 40187 95039,95143,95065
 2.5000e+000 95267 -1.3613e+002 -2.1928e+002 -3.8045e+001 40187 95039,95169,95143
 2.5000e+000 95244 -9.9658e+001 -2.6368e+002 -1.9498e+001 40187 95091,95143,95117
 2.5000e+000 95221 -4.2956e+001 -1.7874e+002  8.0578e+000 40187 95065,95143,95091
 2.5000e+000 95665 -7.0134e+001 -1.6644e+002  2.7667e+001 39626 95466,95570,95544
 2.5000e+000 95642 -8.4656e+001 -1.4631e+002  2.0080e+001 39626 95440,95570,95466
 2.5000e+000 95619 -6.0307e+001 -1.6671e+002  9.3987e+000 39626 95466,95544,95492
 2.5000e+000 95596 -1.0961e+002 -1.6264e+002  8.0276e+000 39626 95492,95544,95518
 2.5000e+000 95913 -7.1880e+001 -1.7322e+002 -2.7000e+001 39136 96080,95936,95766
 2.5000e+000 95890 -5.0408e+001 -1.8830e+002 -1.4746e+001 39136 95936,95714,95688
 2.5000e+000 95867 -1.3433e+002 -1.8689e+002  7.4722e+000 39136 96008,95792,95766
 2.5000e+000 95844 -5.6903e+001 -1.6762e+002 -2.1826e+001 39136 96080,95766,95740
 2.5000e+000 95962 -1.0478e+002 -1.9421e+002 -1.7203e+001 39136 96008,95766,95936
 2.5000e+000 95985 -6.4387e+001 -2.2791e+002 -3.8082e+000 39136 95818,95936,95688
 2.5000e+000 96034 -6.2660e+001 -1.5567e+002  1.2434e+001 39136 95818,95792,96008
 2.5000e+000 96057 -5.4893e+001 -1.7141e+002 -1.1912e+001 39136 95818,96008,95936
 2.5000e+000 96106 -6.5224e+001 -1.7384e+002 -6.1251e+000 39136 95714,95936,96080
 2.5000e+000 96129 -4.0999e+001 -1.6624e+002 -2.5231e+000 39136 95714,96080,95740
 2.5000e+000 96350 -4.8561e+001 -1.4763e+002 -5.3090e+000 38824 96200,96278,96252
 2.5000e+000 96327 -5.6665e+001 -1.5047e+002 -5.4171e+000 38824 96174,96278,96200
 2.5000e+000 96304 -4.9426e+001 -1.5051e+002 -4.7968e+000 38824 96200,96252,96226
 2.5000e+000 96830 -9.5711e+001 -1.6538e+002 -1.4918e+001 38320 97069,96536,96484
 2.5000e+000 96807 -9.3900e+001 -1.6788e+002 -1.4795e+001 38320 97069,96484,96853
 2.5000e+000 96784 -1.0414e+002 -1.8201e+002  3.3278e+000 38320 96853,96484,96458
 2.5000e+000 96761 -5.4118e+001 -1.4171e+002 -1.7639e+001 38320 96925,96640,96614
 2.5000e+000 96738 -8.7828e+001 -1.4765e+002 -6.7612e+000 38320 96997,96666,96640
 2.5000e+000 96715 -7.6549e+001 -1.9333e+002 -5.8998e+000 38320 97141,96588,96562
 2.5000e+000 96692 -1.2019e+002 -1.8977e+002 -4.0073e+000 38320 96484,96536,96510
 2.5000e+000 96879 -9.2585e+001 -1.7611e+002 -8.1987e+000 38320 97141,96562,96853
 2.5000e+000 96902 -8.4011e+001 -1.7245e+002 -5.5076e+000 38320 96925,96614,96853
 2.5000e+000 96951 -8.6216e+001 -1.4628e+002 -7.7419e+000 38320 96997,96640,96925
 2.5000e+000 96974 -8.2990e+001 -1.4419e+002 -5.1055e+000 38320 96458,96925,96853
 2.5000e+000 97023 -9.5243e+001 -1.4948e+002 -2.8598e+000 38320 96458,96666,96997
 2.5000e+000 97046 -8.9441e+001 -1.4649e+002 -3.9702e+000 38320 96458,96997,96925
 2.5000e+000 97095 -9.9437e+001 -1.5985e+002 -3.6014e+000 38320 96562,96536,97069
 2.5000e+000 97118 -8.9470e+001 -1.6624e+002 -1.2941e+001 38320 96562,97069,96853
 2.5000e+000 97167 -4.7554e+001 -1.7798e+002 -1.3167e+001 38320 96614,96588,97141
 2.5000e+000 97190 -7.4267e+001 -1.6855e+002 -1.3552e+001 38320 96614,97141,96853
 2.5000e+000 97519 -6.8309e+001 -1.8084e+002  4.3763e+001 37766 97542,97398,97372
 2.5000e+000 97496 -9.1941e+001 -1.5972e+002  2.3958e+001 37766 97542,97372,97346
 2.5000e+000 97473 -8.2649e+001 -1.7153e+002  4.8598e+000 37766 97294,97424,97346
 2.5000e+000 97450 -9.4353e+001 -2.0762e+002 -7.7883e-002 37766 97294,97346,97320
 2.5000e+000 97568 -2.9297e+001 -1.7275e+002  3.2271e+001 37766 97424,97398,97542
 2.5000e+000 97591 -6.3893e+001 -1.5251e+002  1.3140e+001 37766 97424,97542,97346
 2.5000e+000 98048 -7.8880e+001 -1.2868e+002 -4.1728e+001 37262 98071,97878,97852
 2.5000e+000 98025 -6.4602e+001 -1.5224e+002 -1.6629e+001 37262 98071,97852,97800
 2.5000e+000 98002 -8.1314e+001 -1.8483e+002 -1.0755e+001 37262 97800,97852,97826
 2.5000e+000 97979 -8.3875e+001 -1.6201e+002  5.4450e+000 37262 97800,97930,97904
 2.5000e+000 97956 -5.7252e+001 -1.9581e+002  1.3335e+001 37262 97774,97930,97800
 2.5000e+000 98097 -1.1938e+002 -1.4756e+002 -3.3073e+001 37262 97904,97878,98071
 2.5000e+000 98120 -8.5692e+001 -1.6883e+002 -9.1103e+000 37262 97904,98071,97800
 2.5000e+000 98449 -3.6591e+001 -1.1432e+002 -1.5236e+001 36950 98472,98302,98250
 2.5000e+000 98426 -1.7756e+001 -1.0757e+002 -1.9006e+001 36950 98472,98250,98354
 2.5000e+000 98403 -6.2759e+001 -1.2875e+002  1.6937e+001 36950 98250,98302,98276
 2.5000e+000 98380 -1.1962e+001 -8.1317e+001  1.2934e+001 36950 98224,98354,98250
 2.5000e+000 98498 -2.2621e+001 -1.3090e+002 -3.9109e+000 36950 98328,98302,98472
 2.5000e+000 98521 -2.4346e-001 -1.2075e+002 -1.0859e+001 36950 98328,98472,98354
 2.5000e+000 99125 -1.1414e+002 -1.1475e+002  1.4416e+001 36296 98704,98756,98730
 2.5000e+000 99102 -8.0994e+001 -1.2620e+002  2.4090e+000 36296 98704,98938,98756
 2.5000e+000 99079 -5.8364e+001 -1.3720e+002 -4.1234e+000 36296 99148,98938,98912
 2.5000e+000 99056 -6.5362e+001 -1.3647e+002  2.6870e+001 36296 99292,99220,98782
 2.5000e+000 99033 -5.1225e+001 -1.4761e+002  8.3007e-001 36296 99148,98912,98834
 2.5000e+000 99010 -5.8012e+001 -1.1476e+002  2.6897e+001 36296 99292,98782,98756
 2.5000e+000 98987 -4.8528e+001 -2.6388e+002 -5.2874e+001 36296 98834,98912,98886
 2.5000e+000 98964 -8.9870e+001 -3.8261e+002 -6.7512e+001 36296 98834,98886,98860
 2.5000e+000 99174 -6.9881e+001 -1.5918e+002  1.6585e+000 36296 99220,98938,99148
 2.5000e+000 99197 -4.9766e+001 -1.7689e+002  1.5106e+001 36296 98808,99148,98834
 2.5000e+000 99246 -5.7701e+001 -1.1825e+002  6.8612e+001 36296 98808,98782,99220
 2.5000e+000 99269 -2.2241e+001 -1.1603e+002  2.1109e+001 36296 98808,99220,99148
 2.5000e+000 99318 -6.1169e+001 -1.1207e+002  1.1369e+001 36296 98938,99220,99292
 2.5000e+000 99341 -6.2994e+001 -1.1602e+002  1.2526e+001 36296 98938,99292,98756
 2.5000e+000 99719 -9.0319e+001 -1.9761e+002  5.0876e-001 35742 99742,99471,99601
 2.5000e+000 99696 -9.3236e+001 -1.5297e+002  2.0512e+001 35742 99445,99601,99471
 2.5000e+000 99673 -8.5459e+001 -1.8650e+002 -7.8211e+000 35742 99742,99601,99575
 2.5000e+000 99650 -7.3602e+001 -2.3294e+002 -6.5951e+000 35742 99814,99549,99523
 2.5000e+000 99627 -5.5093e+001 -1.7936e+002 -2.6947e+000 35742 99471,99523,99497
 2.5000e+000 99768 -7.1091e+001 -1.9281e+002  3.9243e+000 35742 99523,99471,99742
 2.5000e+000 99791 -8.4808e+001 -2.1449e+002 -5.6992e+000 35742 99814,99523,99742
 2.5000e+000 99840 -7.1543e+001 -2.1015e+002 -1.3650e+001 35742 99575,99549,99814
 2.5000e+000 99863 -7.8817e+001 -1.8617e+002 -1.2180e+001 35742 99575,99814,99742
 2.5000e+000 100111 -6.3164e+001 -1.5863e+002  1.2772e+001 35302 100134,99990,99938
 2.5000e+000 100088 -5.0537e+001 -1.4423e+002  4.5413e+000 35302 100134,99938,99912
 2.5000e+000 100065 -5.0553e+001 -1.4465e+002 -3.0679e+000 35302 100206,99886,100016
 2.5000e+000 100042 -8.5825e+001 -1.4914e+002  7.9720e+000 35302 99938,99990,99964
 2.5000e+000 100160 -4.6374e+001 -1.5221e+002  3.9581e+000 35302 100016,99990,100134
 2.5000e+000 100183 -4.7972e+001 -1.4672e+002 -2.9827e+000 35302 100206,100016,100134
 2.5000e+000 100232 -5.2846e+001 -1.4716e+002 -1.5358e+000 35302 99912,99886,100206
 2.5000e+000 100255 -5.0406e+001 -1.4974e+002 -1.5225e+000 35302 99912,100206,100134
 2.5000e+000 100586 -4.5140e+001 -9.9704e+001 -3.9529e-001 35012 100609,100387,100361
 2.5000e+000 100563 -4.5326e+001 -1.0804e+002  4.2340e+000 35012 100609,100361,100465
 2.5000e+000 100540 -7.2079e+001 -1.3595e+002  1.6138e+001 35012 100361,100491,100465
 2.5000e+000 100517 -3.8923e+001 -1.0858e+002  1.5039e+001 35012 100413,100465,100439
 2.5000e+000 100635 -4.7645e+001 -1.0117e+002  8.3307e+000 35012 100413,100387,100609
 2.5000e+000 100658 -4.9678e+001 -1.1394e+002  1.2778e+001 35012 100413,100609,100465
 2.5000e+000 100987 -6.7698e+001 -1.4186e+002  1.1064e+001 34700 100788,100866,100814
 2.5000e+000 100964 -5.5291e+001 -1.3240e+002  1.5367e+001 34700 101010,100866,100788
 2.5000e+000 100941 -5.7388e+001 -1.3945e+002  2.7746e+001 34700 100762,100892,100866
 2.5000e+000 100918 -7.4449e+001 -1.5342e+002 -2.0466e+000 34700 100814,100866,100840
 2.5000e+000 101036 -4.4900e+001 -1.2575e+002  2.0159e+001 34700 100762,100866,101010
 2.5000e+000 101493 -9.1981e+001 -1.8425e+002 -1.6388e+001 34132 101516,101349,101297
 2.5000e+000 101470 -1.1361e+002 -2.2497e+002 -2.7425e+001 34132 101588,101516,101297
 2.5000e+000 101447 -1.1428e+002 -2.3813e+002 -4.0887e+001 34132 101588,101297,101245
 2.5000e+000 101424 -6.7546e+001 -2.7843e+002 -3.8433e+001 34132 101245,101297,101271
 2.5000e+000 101401 -9.9278e+001 -1.8503e+002 -1.8797e+001 34132 101297,101349,101323
 2.5000e+000 101542 -9.4711e+001 -2.1638e+002 -1.3097e+001 34132 101375,101349,101516
 2.5000e+000 101565 -8.4758e+001 -2.1621e+002 -1.4067e+001 34132 101375,101516,101219
 2.5000e+000 101614 -8.7893e+001 -2.2629e+002 -1.3593e+001 34132 101219,101516,101588
 2.5000e+000 101637 -1.0107e+002 -2.3909e+002 -2.6431e+001 34132 101219,101588,101245
 2.5000e+000 101858 -1.9807e+001 -1.6429e+002  1.1061e+001 33720 101708,101786,101760
 2.5000e+000 101835 -4.4036e+001 -1.9348e+002 -7.9068e-002 33720 101682,101786,101708
 2.5000e+000 101812 -5.4593e+001 -1.8076e+002  6.0221e+000 33720 101708,101760,101734
 2.5000e+000 102128 -1.3691e+001 -1.9253e+002 -5.3283e+000 33130 101903,102007,101929
 2.5000e+000 102105 -1.7963e+001 -2.2335e+002  7.4164e+000 33130 101903,102033,102007
 2.5000e+000 102082 -2.9242e+000 -2.3166e+002 -4.6388e+001 33130 101929,102007,101955
 2.5000e+000 102059 -2.5850e+001 -1.6161e+002  4.0922e+000 33130 101955,102007,101981
 2.5000e+000 102461 -7.2897e+001 -1.7996e+002 -1.4595e+001 32840 102236,102340,102262
 2.5000e+000 102438 -6.1140e+001 -1.2841e+002  3.0550e+000 32840 102236,102366,102340
 2.5000e+000 102415 -4.1214e+001 -1.6975e+002 -1.4001e+001 32840 102262,102340,102288
 2.5000e+000 102392 -9.5538e+001 -1.8369e+002 -3.8196e+001 32840 102288,102340,102314
 2.5000e+000 102997 -6.1362e+001 -1.0731e+002  2.9792e+001 32493 102749,102879,102853
 2.5000e+000 102974 -4.9234e+001 -8.3725e+001  2.0818e+001 32493 102723,102879,102749
 2.5000e+000 102951 -7.2530e+001 -1.3047e+002  1.9800e+001 32493 102749,102801,102775
 2.5000e+000 102928 -7.8039e+001 -1.2977e+002  1.9067e+001 32493 102749,102853,102801
 2.5000e+000 102905 -7.3529e+001 -1.2084e+002  1.7151e+001 32493 102801,102853,102827
 2.5000e+000 103454 -8.3634e+001 -1.5321e+002 -8.1888e+000 32089 103206,103336,103310
 2.5000e+000 103431 -7.1144e+001 -1.5286e+002  5.1680e-001 32089 103180,103336,103206
 2.5000e+000 103408 -8.8711e+001 -1.7334e+002 -2.4615e+001 32089 103206,103284,103258
 2.5000e+000 103385 -1.2199e+002 -1.8063e+002 -2.7289e+001 32089 103206,103310,103284
 2.5000e+000 103362 -7.7668e+001 -1.3535e+002  7.7354e+000 32089 103206,103258,103232
 2.5000e+000 103783 -1.2437e+002 -1.8552e+002 -1.7943e+001 31742 103558,103662,103584
 2.5000e+000 103760 -1.1002e+002 -1.6543e+002 -3.5976e+001 31742 103558,103688,103662
 2.5000e+000 103737 -8.6274e+001 -1.5508e+002 -3.2986e+001 31742 103584,103662,103636
 2.5000e+000 103714 -4.7756e+001 -1.7706e+002 -5.4611e+001 31742 103584,103636,103610
 2.5000e+000 104112 -1.2324e+001 -1.5141e+002  3.3839e+001 31402 103939,103991,103965
 2.5000e+000 104089 -4.4983e+001 -1.3535e+002  1.5460e+001 31402 103913,103991,103939
 2.5000e+000 104066 -6.5250e+001 -1.5434e+002  5.3720e+000 31402 103913,104017,103991
 2.5000e+000 104043 -7.4573e+001 -1.3469e+002 -2.4398e+000 31402 103887,104017,103913
 2.5000e+000 104569 -1.1982e+002 -2.2417e+002  1.8067e+000 30998 104321,104425,104373
 2.5000e+000 104546 -1.3493e+002 -2.2902e+002  4.2729e-002 30998 104321,104451,104425
 2.5000e+000 104523 -1.0975e+002 -1.9510e+002  1.9165e+001 30998 104373,104425,104399
 2.5000e+000 104500 -1.2071e+002 -2.4519e+002 -7.9004e+000 30998 104295,104451,104321
 2.5000e+000 104477 -1.6875e+002 -2.8120e+002  4.3341e+001 30998 104321,104373,104347
 2.5000e+000 104947 -1.0792e+002 -1.7781e+002 -2.3209e+001 30608 104751,104803,104777
 2.5000e+000 104924 -7.0301e+001 -1.8298e+002 -9.2170e+000 30608 104725,104803,104751
 2.5000e+000 104901 -1.0285e+002 -1.7678e+002  8.3113e+000 30608 104699,104803,104725
 2.5000e+000 104878 -1.0310e+002 -1.7846e+002  1.0580e+001 30608 104673,104803,104699
 2.5000e+000 104855 -8.1210e+001 -1.7596e+002 -8.6222e+000 30608 104673,104829,104803
 2.5000e+000 105276 -6.0908e+001 -1.5667e+002  1.7131e+001 30204 105427,105129,105077
 2.5000e+000 105253 -2.7390e+001 -1.6029e+002  5.2975e+001 30204 105427,105077,105051
 2.5000e+000 105230 -4.7489e+001 -1.6657e+002  1.0319e+001 30204 105077,105129,105103
 2.5000e+000 105207 -1.1699e+002 -1.4509e+002  1.7380e+001 30204 105299,105181,105155
 2.5000e+000 105325 -9.0362e+001 -1.3288e+002  1.3863e+001 30204 105129,105181,105299
 2.5000e+000 105453 -8.0787e+001 -1.6612e+002  2.0962e+001 30204 105181,105129,105427
 2.5000e+000 105476 -9.0811e+001 -1.8910e+002  6.0245e+001 30204 105181,105427,105051
 2.5000e+000 105903 -5.4331e+001 -1.3828e+002 -1.0372e+001 29700 105606,105762,105736
 2.5000e+000 105880 -7.1117e+001 -1.4166e+002  1.4515e+000 29700 105580,105762,105606
 2.5000e+000 105857 -8.9123e+001 -1.7612e+002 -1.1917e+001 29700 105606,105710,105632
 2.5000e+000 105834 -7.1337e+001 -1.4854e+002 -3.9476e+000 29700 105606,105736,105710
 2.5000e+000 105811 -7.1023e+001 -1.6371e+002 -2.0991e+001 29700 105632,105710,105684
 2.5000e+000 105788 -6.5951e+001 -1.5028e+002  3.9511e+000 29700 105632,105684,105658
 2.5000e+000 106102 -3.7931e+001 -1.8214e+002  3.9085e+000 29124 105978,106030,106004
 2.5000e+000 106079 -6.2093e+001 -1.9121e+002 -4.6335e-001 29124 105926,106030,105978
 2.5000e+000 106056 -5.7040e+001 -1.9524e+002  2.1863e+001 29124 105926,105978,105952
 2.5000e+000 106301 -3.7141e+001 -1.7266e+002  1.3129e+000 28712 106151,106229,106203
 2.5000e+000 106278 -4.8352e+001 -1.9118e+002 -7.9707e+000 28712 106125,106229,106151
 2.5000e+000 106255 -3.8995e+001 -1.8396e+002  1.2586e+001 28712 106151,106203,106177
 2.5000e+000 106551 -5.4256e+001 -2.1391e+002  1.9049e+000 28258 106352,106404,106378
 2.5000e+000 106528 -7.0328e+001 -2.1702e+002 -1.9297e+000 28258 106352,106456,106404
 2.5000e+000 106505 -5.6940e+001 -2.3015e+002 -6.7416e+000 28258 106326,106456,106352
 2.5000e+000 106482 -6.9758e+001 -2.0645e+002  3.6780e+000 28258 106404,106456,106430
 2.5000e+000 107012 -7.3513e+001 -1.8619e+002  3.7392e+001 27818 107035,106790,106764
 2.5000e+000 106989 -6.2273e+001 -1.7217e+002  1.4682e+001 27818 107035,106764,106868
 2.5000e+000 106966 -4.7557e+001 -2.0452e+002  1.8258e+001 27818 107107,106842,106816
 2.5000e+000 106943 -9.8027e+001 -1.6236e+002  9.5390e+000 27818 106738,106868,106764
 2.5000e+000 106920 -9.3026e+001 -1.3774e+002  3.1502e+001 27818 106738,106894,106868
 2.5000e+000 107061 -2.9978e+001 -1.7553e+002  4.0998e+001 27818 106816,106790,107035
 2.5000e+000 107084 -5.4148e+001 -1.9392e+002  1.9444e+001 27818 107107,106816,107035
 2.5000e+000 107133 -5.2994e+001 -1.8759e+002  9.7594e+000 27818 106868,106842,107107
 2.5000e+000 107156 -5.4140e+001 -1.6940e+002  1.3825e+001 27818 106868,107107,107035
 2.5000e+000 107613 -1.4910e+001 -1.3781e+002  2.7354e+001 27312 107339,107469,107365
 2.5000e+000 107590  4.3319e+000 -1.3032e+002  2.4706e+001 27312 107339,107495,107469
 2.5000e+000 107567 -1.9751e+001 -1.3223e+002  1.1790e+001 27312 107391,107469,107443
 2.5000e+000 107544 -1.4714e+001 -1.4328e+002  1.0288e+001 27312 107365,107469,107391
 2.5000e+000 107521 -5.9953e+001 -1.4507e+002  3.0677e+000 27312 107391,107443,107417
 2.5000e+000 107991 -7.9937e+001 -2.1080e+002  2.6987e+000 26858 108086,108014,107795
 2.5000e+000 107968 -8.6394e+001 -2.1897e+002 -2.2847e+001 26858 108014,107717,107873
 2.5000e+000 107945 -9.2400e+001 -2.2133e+002  1.1379e+001 26858 108158,108086,107795
 2.5000e+000 107922 -7.5738e+001 -2.1940e+002  9.9049e+000 26858 108158,107795,107769
 2.5000e+000 107899 -5.3493e+001 -2.7101e+002  3.6382e+001 26858 107821,107873,107847
 2.5000e+000 108040 -8.1541e+001 -2.4117e+002  9.3820e+000 26858 107821,107795,108014
 2.5000e+000 108063 -3.9438e+001 -2.3070e+002 -5.9648e+000 26858 107821,108014,107873
 2.5000e+000 108112 -1.1183e+002 -2.2301e+002  7.4963e+000 26858 107717,108014,108086
 2.5000e+000 108135 -9.3391e+001 -2.3204e+002  2.3096e+001 26858 107717,108086,107743
 2.5000e+000 108184 -7.2813e+001 -2.1996e+002  1.7195e+001 26858 107743,108086,108158
 2.5000e+000 108207 -6.5676e+001 -2.2488e+002  1.6972e+001 26858 107743,108158,107769
 2.5000e+000 108634 -9.5135e+001 -1.9869e+002  3.0633e+000 26404 108657,108415,108363
 2.5000e+000 108611 -1.0820e+002 -2.1614e+002  2.3141e+001 26404 108657,108363,108337
 2.5000e+000 108588 -8.7819e+001 -1.8937e+002  3.0486e+001 26404 108729,108311,108467
 2.5000e+000 108565 -1.1754e+002 -2.2832e+002 -2.0904e+000 26404 108801,108441,108415
 2.5000e+000 108542 -1.6669e+002 -2.2405e+002  3.5693e+001 26404 108311,108493,108467
 2.5000e+000 108519 -7.3681e+001 -2.0189e+002  1.8671e+000 26404 108363,108415,108389
 2.5000e+000 108683 -1.3654e+002 -2.1032e+002  6.1768e-001 26404 108801,108415,108657
 2.5000e+000 108706 -1.3100e+002 -2.0266e+002  2.2651e+001 26404 108729,108467,108657
 2.5000e+000 108755 -5.9270e+001 -2.0889e+002  3.0636e+001 26404 108337,108311,108729
 2.5000e+000 108778 -8.1395e+001 -2.0704e+002  2.2410e+001 26404 108337,108729,108657
 2.5000e+000 108827 -1.3738e+002 -2.6161e+002 -1.2583e+001 26404 108467,108441,108801
 2.5000e+000 108850 -1.4903e+002 -2.3206e+002 -9.1515e+000 26404 108467,108801,108657
 2.5000e+000 109228 -8.6597e+001 -1.9308e+002 -3.3939e+000 26064 109006,109084,109058
 2.5000e+000 109205 -6.9141e+001 -1.7873e+002  7.5516e+000 26064 108980,109084,109006
 2.5000e+000 109182 -7.9679e+001 -1.7576e+002  1.3211e+000 26064 108980,109110,109084
 2.5000e+000 109159 -8.4769e+001 -1.9658e+002 -5.5226e-001 26064 109006,109058,109032
 2.5000e+000 109136  1.9042e+001 -1.5849e+002  1.7749e+001 26064 108954,109110,108980
 2.5000e+000 109427 -3.2755e+001 -1.7765e+002 -3.7598e+001 25660 109303,109355,109329
 2.5000e+000 109404 -5.4408e+001 -2.2065e+002 -1.1198e+001 25660 109277,109355,109303
 2.5000e+000 109381 -4.1080e+001 -2.0576e+002 -4.8485e+000 25660 109251,109355,109277
 2.5000e+000 109577  5.4004e+000 -7.2495e+001  5.7477e+001 25306 109476,109528,109502
 2.5000e+000 109554  2.3651e+001 -9.7416e+001  1.0956e+001 25306 109450,109528,109476
 2.5000e+000 109778 -6.4391e+001 -1.8628e+002  4.9557e+000 24944 109628,109706,109654
 2.5000e+000 109755 -7.2013e+001 -1.8550e+002 -5.6133e-001 24944 109602,109706,109628
 2.5000e+000 109732 -5.7754e+001 -1.7545e+002  4.0532e-001 24944 109654,109706,109680
 2.5000e+000 110126 -6.8732e+001 -2.4445e+002  1.5088e+001 24440 110149,109907,109855
 2.5000e+000 110103 -7.5794e+001 -2.5307e+002  1.9291e+001 24440 110149,109855,109985
 2.5000e+000 110080 -4.8741e+001 -2.1730e+002  5.0136e+000 24440 109855,109907,109881
 2.5000e+000 110057 -5.0076e+001 -2.0459e+002  5.8203e+001 24440 109829,109985,109855
 2.5000e+000 110034 -6.9933e+001 -2.4561e+002  1.7568e+000 24440 109907,109959,109933
 2.5000e+000 110011 -9.8948e+001 -2.3458e+002  1.8609e+001 24440 109803,109985,109829
 2.5000e+000 110175 -7.0995e+001 -2.3316e+002  6.6625e+000 24440 109959,109907,110149
 2.5000e+000 110198 -8.2751e+001 -2.4354e+002  1.2072e+001 24440 109959,110149,109985
 2.5000e+000 110301 -8.4430e-001 -2.4909e+002 -3.2870e+001 24028 110223,110275,110249
 2.5000e+000 110573 -1.8939e+001 -1.2061e+002  7.2592e+000 23467 110400,110452,110426
 2.5000e+000 110550 -4.0753e+001 -1.5883e+002 -1.5708e+000 23467 110374,110452,110400
 2.5000e+000 110527 -3.8670e+001 -1.5788e+002  1.1645e+000 23467 110348,110452,110374
 2.5000e+000 110504 -2.5667e+001 -1.5558e+002 -1.7699e+000 23467 110348,110478,110452
 2.5000e+000 111004 -1.1312e+002 -2.4208e+002 -2.8819e+001 22963 111027,110733,110707
 2.5000e+000 110981 -1.1218e+002 -2.2967e+002  8.7191e+000 22963 111027,110707,110681
 2.5000e+000 110958 -5.6874e+001 -2.0356e+002 -2.1954e+001 22963 111099,110759,110733
 2.5000e+000 110935 -6.7899e+001 -2.0193e+002 -1.7573e+001 22963 111171,110863,110811
 2.5000e+000 110912 -3.9830e+001 -1.5220e+002 -2.4458e+001 22963 110759,110811,110785
 2.5000e+000 110889 -7.2535e+001 -2.1922e+002 -1.9650e+001 22963 110811,110863,110837
 2.5000e+000 111053 -7.8955e+001 -2.1682e+002 -1.5895e+001 22963 111099,110733,111027
 2.5000e+000 111076 -6.5340e+001 -2.1614e+002 -1.4824e+001 22963 111171,110811,111027
 2.5000e+000 111125 -5.6641e+001 -2.0193e+002 -3.4616e+001 22963 110811,110759,111099
 2.5000e+000 111148 -6.0986e+001 -2.0151e+002 -3.1428e+001 22963 110811,111099,111027
 2.5000e+000 111197 -7.0456e+001 -1.7553e+002 -2.2857e+001 22963 110681,110863,111171
 2.5000e+000 111220 -7.7507e+001 -1.9504e+002 -1.2887e+001 22963 110681,111171,111027
 2.5000e+000 111726 -1.0675e+002 -2.1718e+002  4.4481e+000 22459 111749,111507,111429
 2.5000e+000 111703 -1.0025e+002 -2.1527e+002 -3.3984e+000 22459 111749,111429,111585
 2.5000e+000 111680 -8.8273e+001 -2.3302e+002 -1.7783e+000 22459 111403,111585,111429
 2.5000e+000 111657 -1.0280e+002 -2.3690e+002  6.9195e+000 22459 111507,111559,111533
 2.5000e+000 111634 -1.3936e+002 -2.0478e+002  1.0844e+001 22459 111455,111507,111481
 2.5000e+000 111611 -1.3950e+002 -2.0279e+002  1.5010e+001 22459 111429,111507,111455
 2.5000e+000 111775 -1.0738e+002 -2.2901e+002  1.0776e+001 22459 111559,111507,111749
 2.5000e+000 111798 -1.0030e+002 -2.2086e+002  3.1772e+000 22459 111559,111749,111585
 2.5000e+000 112046 -2.5048e+001 -1.7741e+002 -1.9677e+001 21898 112069,111925,111873
 2.5000e+000 112023 -1.7326e+001 -1.6960e+002  1.2087e+001 21898 112069,111873,111847
 2.5000e+000 112000 -5.8541e+001 -1.7273e+002 -2.9050e+000 21898 111821,111951,111847
 2.5000e+000 111977 -3.0686e+001 -1.6566e+002 -1.7669e+001 21898 111873,111925,111899
 2.5000e+000 112095 -7.1285e+001 -1.9120e+002 -3.5493e+001 21898 111951,111925,112069
 2.5000e+000 112118 -4.5387e+001 -1.7753e+002 -4.5491e+000 21898 111951,112069,111847
 2.5000e+000 112498 -8.3171e+001 -1.9848e+002 -1.7167e+001 21608 112521,112276,112224
 2.5000e+000 112475 -5.5832e+001 -2.0194e+002 -2.2958e-001 21608 112521,112224,112380
 2.5000e+000 112452 -6.0432e+001 -2.2753e+002  1.3594e+001 21608 112302,112380,112354
 2.5000e+000 112429 -9.3315e+001 -2.2146e+002 -1.2932e+001 21608 112224,112276,112250
 2.5000e+000 112406  2.7076e+001 -2.4767e+002 -1.2113e+001 21608 112302,112354,112328
 2.5000e+000 112547 -6.0710e+001 -1.7124e+002 -5.0587e+000 21608 112302,112276,112521
 2.5000e+000 112570 -4.3097e+001 -1.9366e+002  7.0172e+000 21608 112302,112521,112380
 2.5000e+000 112948 -9.5724e+001 -2.0945e+002 -4.8244e+000 20882 112971,112752,112700
 2.5000e+000 112925 -6.9564e+001 -2.0074e+002 -1.0408e+001 20882 112971,112700,112830
 2.5000e+000 112902 -1.2479e+002 -2.2586e+002  1.3352e+001 20882 112778,112830,112804
 2.5000e+000 112879 -6.4454e+001 -1.5854e+002 -1.4826e+001 20882 112674,112830,112700
 2.5000e+000 112856 -1.1584e+002 -2.1670e+002  2.0921e+000 20882 112700,112752,112726
 2.5000e+000 112997 -9.6570e+001 -2.0955e+002  9.6784e+000 20882 112778,112752,112971
 2.5000e+000 113020 -8.1633e+001 -2.0536e+002  3.5336e+000 20882 112778,112971,112830
 2.5000e+000 113526 -7.7755e+001 -2.1031e+002  3.5154e-001 20428 113255,113385,113333
 2.5000e+000 113503 -8.3421e+001 -2.2786e+002  3.6360e-001 20428 113229,113385,113255
 2.5000e+000 113480 -1.6862e+001 -2.0491e+002  1.6184e+000 20428 113255,113333,113281
 2.5000e+000 113457 -7.2936e+001 -2.2494e+002  1.2757e+000 20428 113203,113385,113229
 2.5000e+000 113434 -4.3485e+001 -2.1372e+002 -7.0515e+000 20428 113281,113333,113307
 2.5000e+000 113411 -9.2100e+001 -2.0635e+002  3.7299e+000 20428 113333,113385,113359
 2.5000e+000 113774 -1.1754e+001 -1.9836e+002  4.6437e+000 19917 113797,113601,113549
 2.5000e+000 113751 -3.1591e+001 -2.0141e+002  6.8266e+000 19917 113869,113797,113549
 2.5000e+000 113728 -3.1362e+001 -2.0352e+002  1.3615e+001 19917 113869,113549,113679
 2.5000e+000 113705 -1.6902e+001 -1.9296e+002  1.3368e+001 19917 113549,113601,113575
 2.5000e+000 113823 -3.2858e+001 -2.4237e+002 -3.7469e+000 19917 113627,113601,113797
 2.5000e+000 113846 -1.0015e+001 -1.8979e+002 -9.6078e+000 19917 113627,113797,113653
 2.5000e+000 113895 -2.9227e+001 -1.8224e+002 -2.2375e+000 19917 113653,113797,113869
 2.5000e+000 113918 -4.0083e+001 -1.8898e+002  6.8834e+000 19917 113653,113869,113679
 2.5000e+000 114166 -9.3931e+001 -2.0791e+002 -4.5129e+000 19413 113993,114045,114019
 2.5000e+000 114143 -8.2757e+001 -1.9202e+002  1.4789e+000 19413 113967,114045,113993
 2.5000e+000 114120 -7.2917e+001 -1.8848e+002  6.9773e+000 19413 113967,114071,114045
 2.5000e+000 114097 -5.2825e+001 -2.0840e+002 -5.0987e+000 19413 113941,114071,113967
 2.5000e+000 114438 -8.8826e+001 -2.3117e+002  4.7412e-002 19001 114213,114265,114239
 2.5000e+000 114415 -6.6819e+001 -1.8341e+002 -6.1858e+000 19001 114213,114343,114265
 2.5000e+000 114392 -9.7452e+001 -2.5172e+002 -1.2626e+001 19001 114265,114343,114317
 2.5000e+000 114369  8.4865e+000 -2.0079e+002  2.9717e+000 19001 114265,114317,114291
 2.5000e+000 114639 -1.2525e+002 -2.4010e+002 -1.8329e+001 18554 114489,114541,114515
 2.5000e+000 114616 -7.8307e+001 -2.6583e+002 -1.7629e+001 18554 114489,114567,114541
 2.5000e+000 114593 -1.1748e+002 -2.6539e+002 -2.5603e+001 18554 114463,114567,114489
 2.5000e+000 115043 -4.6406e+001 -2.0100e+002  6.8037e+000 18164 114795,114925,114821
 2.5000e+000 115020 -3.8375e+001 -2.1185e+002  1.2964e+001 18164 114769,114925,114795
 2.5000e+000 114997 -2.9656e+001 -2.1137e+002 -1.6555e+000 18164 115066,114873,114821
 2.5000e+000 114974 -2.6623e+001 -1.8132e+002 -5.8975e+000 18164 115066,114821,114925
 2.5000e+000 114951  2.1004e+000 -2.1173e+002 -1.7386e+001 18164 114821,114873,114847
 2.5000e+000 115092 -4.1708e+001 -1.8958e+002 -1.7693e+001 18164 114899,114873,115066
 2.5000e+000 115115 -2.6957e+001 -1.4371e+002 -2.3152e+001 18164 114899,115066,114925
 2.5000e+000 115265 -6.7148e+001 -2.3285e+002  2.1900e+000 17852 115164,115216,115190
 2.5000e+000 115242 -6.5478e+001 -2.4078e+002  2.4902e+000 17852 115138,115216,115164
 2.5000e+000 115464 -1.2886e+002 -3.0276e+002  4.0633e+000 17346 115288,115366,115340
 2.5000e+000 115441 -2.0903e+002 -2.3775e+002 -7.6472e+000 17346 115288,115392,115366
 2.5000e+000 115418 -1.2105e+002 -3.3948e+002 -1.0570e+001 17346 115288,115340,115314
 2.5000e+000 115736 -6.4568e+001 -2.0644e+002  7.2416e+000 16942 115563,115641,115615
 2.5000e+000 115713 -6.8206e+001 -2.0385e+002  3.5396e+000 16942 115511,115641,115563
 2.5000e+000 115690 -1.4883e+002 -2.3820e+002  1.3083e+001 16942 115563,115615,115589
 2.5000e+000 115667 -7.7799e+001 -2.2502e+002  6.9922e+000 16942 115511,115563,115537
 2.5000e+000 116091 -1.0086e+002 -2.3911e+002 -1.1373e+001 16388 115918,115970,115944
 2.5000e+000 116068 -8.4021e+001 -1.8716e+002 -7.4588e+000 16388 115918,115996,115970
 2.5000e+000 116045 -1.1490e+002 -2.3990e+002  6.7930e+000 16388 115892,115996,115918
 2.5000e+000 116022 -7.6621e+001 -2.2009e+002  2.4709e+001 16388 115866,115996,115892
 2.5000e+000 116192 -3.9884e+001 -2.5742e+002 -3.6163e+001 15810 116114,116166,116140
 2.5000e+000 116342 -5.2801e+001 -2.5986e+002  3.0776e+001 15419 116241,116293,116267
 2.5000e+000 116319 -7.5111e+001 -3.5334e+002 -4.5076e+000 15419 116215,116293,116241
 2.5000e+000 116445 -1.0212e+002 -2.0920e+002 -1.2974e-001 421 116367,116419,116393
 2.6000e+000 68477 -1.4597e+002 -2.2624e+002 -1.3125e+000 68018 68327,68379,68353
 2.6000e+000 68454 -1.5839e+002 -3.0438e+002  2.1446e+001 68018 68301,68379,68327
 2.6000e+000 68431 -7.1564e+001 -3.3692e+002  5.4755e+001 68018 68301,68405,68379
 2.6000e+000 68578 -9.2680e+001 -2.1346e+002  7.2622e-001 67820 68500,68552,68526
 2.6000e+000 68728 -1.0321e+002 -2.0099e+002 -2.9252e+000 67508 68601,68653,68627
 2.6000e+000 68705 -1.6858e+002 -1.5673e+002 -3.1568e+001 67508 68601,68679,68653
 2.6000e+000 68927 -1.8243e+001 -1.7302e+002 -5.2531e+000 67310 68777,68829,68803
 2.6000e+000 68904 -4.1821e+001 -2.0259e+002  4.9483e+000 67310 68751,68829,68777
 2.6000e+000 68881 -4.5521e+001 -2.2193e+002  6.0177e+000 67310 68751,68855,68829
 2.6000e+000 69386 -8.9297e+001 -2.4125e+002 -1.5475e+001 67020 69216,69268,69242
 2.6000e+000 69363 -7.7524e+001 -1.7804e+002 -2.6738e+001 67020 69138,69268,69216
 2.6000e+000 69340 -5.8803e+001 -1.5739e+002 -1.4511e+001 67020 69112,69268,69138
 2.6000e+000 69317 -1.0320e+002 -1.8947e+002  1.3918e+001 67020 69138,69190,69164
 2.6000e+000 69294 -1.1216e+002 -1.8152e+002 -1.2551e+001 67020 69138,69216,69190
 2.6000e+000 69536 -1.6387e+002 -4.2667e+002 -3.0430e+001 66708 69435,69487,69461
 2.6000e+000 69513 -1.2644e+002 -4.7454e+002 -4.6506e+000 66708 69409,69487,69435
 2.6000e+000 69735 -1.0310e+002 -2.2557e+002  5.7739e+000 66346 69585,69637,69611
 2.6000e+000 69712 -8.3260e+001 -2.1601e+002 -3.5198e-001 66346 69559,69637,69585
 2.6000e+000 69689 -7.4270e+001 -2.1385e+002 -2.1251e+001 66346 69559,69663,69637
 2.6000e+000 69985 -1.3691e+002 -2.4743e+002  6.0944e+000 66148 69786,69890,69864
 2.6000e+000 69962 -1.4339e+002 -2.5056e+002  7.0388e+000 66148 69760,69890,69786
 2.6000e+000 69939 -9.7696e+001 -2.3318e+002 -3.2189e+001 66148 69786,69864,69838
 2.6000e+000 69916 -1.1947e+002 -2.5498e+002 -8.0784e+000 66148 69786,69838,69812
 2.6000e+000 70137 -8.2640e+000 -2.3316e+002 -1.7506e+001 65950 70036,70088,70062
 2.6000e+000 70114 -5.8103e+001 -2.8925e+002  1.8942e+001 65950 70010,70088,70036
 2.6000e+000 70470 -4.9621e+001 -1.8849e+002  1.5580e+001 65546 70245,70323,70271
 2.6000e+000 70447 -2.5156e+001 -1.7637e+002 -1.1015e+001 65546 70245,70375,70323
 2.6000e+000 70424 -5.1439e+000 -2.2550e+002  1.1671e+001 65546 70323,70375,70349
 2.6000e+000 70401 -3.6003e+001 -1.7024e+002  5.4528e+000 65546 70271,70323,70297
 2.6000e+000 70620 -6.6777e+001 -2.3282e+002  1.1129e+001 65348 70493,70545,70519
 2.6000e+000 70597 -6.0172e+001 -2.5172e+002  8.0251e+000 65348 70493,70571,70545
 2.6000e+000 70721 -1.1591e+002 -2.3536e+002  1.4617e+001 65150 70643,70695,70669
 2.6000e+000 71020 -8.5306e+001 -1.7979e+002  6.6746e+000 64952 71043,70850,70824
 2.6000e+000 70997 -6.8260e+001 -1.5100e+002 -4.0920e+000 64952 71043,70824,70772
 2.6000e+000 70974 -6.3388e+001 -2.1730e+002  3.8397e+000 64952 71115,70746,70876
 2.6000e+000 70951 -5.8081e+001 -2.1073e+002  8.5663e+000 64952 70746,70902,70876
 2.6000e+000 70928 -7.8107e+001 -1.4147e+002 -1.1221e+001 64952 70772,70824,70798
 2.6000e+000 71069 -5.8002e+001 -1.6740e+002  9.4563e+000 64952 70876,70850,71043
 2.6000e+000 71092 -7.1301e+001 -1.9983e+002  5.5937e-001 64952 71115,70876,71043
 2.6000e+000 71141 -6.6468e+001 -1.9853e+002 -9.1223e+000 64952 70772,70746,71115
 2.6000e+000 71164 -6.4832e+001 -1.7137e+002 -1.4282e+001 64952 70772,71115,71043
 2.6000e+000 71365 -5.5328e+000 -2.1651e+002 -3.5509e+000 64662 71215,71293,71267
 2.6000e+000 71342  4.4867e+001 -1.9117e+002 -4.8801e+001 64662 71189,71293,71215
 2.6000e+000 71319  1.6571e+001 -1.7078e+002  3.1343e+000 64662 71215,71267,71241
 2.6000e+000 71615 -5.2611e+001 -2.1660e+002 -6.3196e-001 64350 71710,71638,71468
 2.6000e+000 71592 -2.3461e+001 -2.0466e+002 -1.0098e+001 64350 71638,71416,71390
 2.6000e+000 71569 -6.3354e+001 -1.9720e+002  1.6605e+001 64350 71710,71468,71442
 2.6000e+000 71546  7.8450e+001 -1.9747e+002 -4.1206e+001 64350 71390,71520,71494
 2.6000e+000 71664 -3.9210e+001 -2.0919e+002 -6.7129e+000 64350 71494,71468,71638
 2.6000e+000 71687 -3.5329e+001 -2.1702e+002 -3.6444e+000 64350 71494,71638,71390
 2.6000e+000 71736 -3.1198e+001 -1.7703e+002 -8.8497e+000 64350 71416,71638,71710
 2.6000e+000 71759 -4.8270e+001 -1.6411e+002  1.1584e+001 64350 71416,71710,71442
 2.6000e+000 72318 -5.4882e+001 -3.3852e+002 -1.7860e+001 63837 71972,72024,71998
 2.6000e+000 72295 -7.2383e+001 -2.1645e+002 -6.3870e-001 63837 72341,71972,71946
 2.6000e+000 72272 -6.7947e+001 -1.7128e+002  1.5386e+001 63837 72413,72341,71946
 2.6000e+000 72249 -6.8910e+001 -1.5299e+002  1.0340e+001 63837 72413,71946,72128
 2.6000e+000 72226 -1.0776e+002 -1.8632e+002  6.6261e+000 63837 72024,72076,72050
 2.6000e+000 72203 -9.1495e+001 -1.6886e+002 -2.4183e+000 63837 72024,72102,72076
 2.6000e+000 72180 -5.7584e+001 -1.4963e+002  1.7123e+001 63837 71946,72154,72128
 2.6000e+000 72367 -1.0400e+002 -2.3823e+002 -4.3904e+001 63837 72024,71972,72341
 2.6000e+000 72390 -7.3872e+001 -1.8545e+002 -1.3224e+001 63837 72024,72341,72102
 2.6000e+000 72439 -5.8971e+001 -2.0067e+002  8.4780e+000 63837 72102,72341,72413
 2.6000e+000 72462 -5.8595e+001 -1.8039e+002  5.8229e+000 63837 72102,72413,72128
 2.6000e+000 72791 -9.6186e+001 -1.9615e+002 -1.9827e+001 63383 72592,72696,72670
 2.6000e+000 72768 -9.8072e+001 -1.8088e+002 -3.6715e+001 63383 72566,72696,72592
 2.6000e+000 72745 -9.8521e+001 -1.6968e+002  2.2125e+000 63383 72592,72670,72618
 2.6000e+000 72722 -9.5819e+001 -1.5564e+002 -3.1995e+000 63383 72618,72670,72644
 2.6000e+000 73297 -1.1910e+002 -1.7591e+002 -8.6332e-001 63185 73000,73156,73130
 2.6000e+000 73274 -1.1868e+002 -1.8051e+002  2.2432e+001 63185 72974,73156,73000
 2.6000e+000 73251 -8.9773e+001 -2.0005e+002 -2.9990e-001 63185 73000,73052,73026
 2.6000e+000 73228 -9.4057e+001 -1.7787e+002 -6.7496e+000 63185 73000,73130,73052
 2.6000e+000 73205 -9.5393e+001 -2.0823e+002 -3.0304e+001 63185 73052,73130,73104
 2.6000e+000 73182 -8.6761e+001 -2.2429e+002 -3.0626e+001 63185 73052,73104,73078
 2.6000e+000 73545 -3.3503e+001 -1.8621e+002  7.6012e-001 62781 73568,73398,73372
 2.6000e+000 73522 -1.8146e+001 -1.6901e+002  9.4466e+000 62781 73568,73372,73346
 2.6000e+000 73499 -4.2668e+001 -1.7818e+002 -7.1493e+000 62781 73640,73320,73424
 2.6000e+000 73476 -6.3290e+001 -1.3067e+002 -1.5005e+001 62781 73320,73450,73424
 2.6000e+000 73594 -3.6546e+001 -1.7043e+002 -1.5806e+000 62781 73424,73398,73568
 2.6000e+000 73617 -3.7424e+001 -1.7455e+002 -2.5866e+000 62781 73640,73424,73568
 2.6000e+000 73666 -3.9673e+001 -1.7223e+002 -1.1620e+000 62781 73346,73320,73640
 2.6000e+000 73689 -3.6620e+001 -1.6755e+002  3.0193e+000 62781 73346,73640,73568
 2.6000e+000 74035 -6.6208e+001 -2.1916e+002 -1.1801e+000 62363 74058,73868,73842
 2.6000e+000 74012 -6.4020e+001 -2.0261e+002 -1.4519e+001 62363 74130,74058,73842
 2.6000e+000 73989 -5.8032e+001 -1.9965e+002 -1.3514e+001 62363 74130,73842,73816
 2.6000e+000 73966 -1.0071e+002 -2.2684e+002  3.7731e+000 62363 74202,73764,73894
 2.6000e+000 73943 -1.3292e+002 -2.0488e+002  4.6512e+000 62363 73712,73894,73764
 2.6000e+000 73920 -1.4679e+002 -2.1806e+002 -2.8970e+000 62363 73712,73764,73738
 2.6000e+000 74084 -6.9237e+001 -2.1489e+002 -1.8669e+000 62363 73894,73868,74058
 2.6000e+000 74107 -9.0393e+001 -2.1650e+002  1.2495e+001 62363 74202,73894,74058
 2.6000e+000 74156 -7.0718e+001 -2.0283e+002  8.9007e+000 62363 73790,74058,74130
 2.6000e+000 74179 -3.9291e+001 -1.8857e+002  1.2469e+001 62363 73790,74130,73816
 2.6000e+000 74228 -1.1264e+002 -2.3208e+002 -1.1536e+001 62363 73790,73764,74202
 2.6000e+000 74251 -1.0531e+002 -2.2130e+002 -2.8540e+000 62363 73790,74202,74058
 2.6000e+000 74403 -1.8650e+000 -2.3616e+002  1.6465e+001 62115 74426,74302,74276
 2.6000e+000 74380  5.1662e+001 -2.2878e+002  3.8257e+001 62115 74426,74276,74354
 2.6000e+000 74452 -5.1047e+001 -2.1237e+002  1.6952e+001 62115 74328,74302,74426
 2.6000e+000 74475 -1.3999e+000 -2.0708e+002  4.0288e+001 62115 74328,74426,74354
 2.6000e+000 74578  3.4942e+001 -1.4922e+002  3.5094e+000 61825 74500,74552,74526
 2.6000e+000 74982 -1.1035e+002 -2.0120e+002  1.3748e+000 61513 75005,74734,74708
 2.6000e+000 74959 -1.0886e+002 -1.9608e+002 -2.5649e-001 61513 75005,74708,74864
 2.6000e+000 74936 -1.4009e+002 -2.0779e+002  1.2756e+001 61513 75077,74812,74734
 2.6000e+000 74913 -1.2163e+002 -2.0561e+002 -1.7383e+001 61513 74734,74786,74760
 2.6000e+000 74890 -1.2015e+002 -1.8631e+002 -1.7836e+000 61513 74734,74812,74786
 2.6000e+000 75031 -1.0483e+002 -2.0674e+002  1.9941e+000 61513 75077,74734,75005
 2.6000e+000 75054 -8.1606e+001 -1.9890e+002  3.0751e+001 61513 74838,75005,74864
 2.6000e+000 75103 -1.5950e+002 -2.1537e+002  4.4923e+001 61513 74838,74812,75077
 2.6000e+000 75126 -1.3661e+002 -2.2296e+002  3.4184e+001 61513 74838,75077,75005
 2.6000e+000 75553 -4.6270e+001 -1.7652e+002 -7.4746e+000 61060 75576,75360,75308
 2.6000e+000 75530 -4.8177e+001 -1.8886e+002 -8.4857e+000 61060 75576,75308,75230
 2.6000e+000 75507 -4.3365e+001 -1.7124e+002 -2.4752e+000 61060 75308,75360,75334
 2.6000e+000 75484 -7.0397e+001 -2.2716e+002  1.6092e+001 61060 75230,75308,75256
 2.6000e+000 75461 -4.0702e+001 -2.0961e+002  8.7863e+000 61060 75256,75308,75282
 2.6000e+000 75438 -5.8479e+001 -1.7213e+002  2.6829e+001 61060 75360,75412,75386
 2.6000e+000 75602 -3.2916e+001 -1.8728e+002  5.7603e-001 61060 75412,75360,75576
 2.6000e+000 75625 -4.2300e+001 -2.1056e+002 -3.4137e+000 61060 75412,75576,75230
 2.6000e+000 76052 -7.2957e+001 -1.8376e+002  1.7078e+000 60442 75755,75859,75833
 2.6000e+000 76029 -6.7056e+001 -1.5704e+002 -2.5544e+001 60442 75729,75859,75755
 2.6000e+000 76006 -7.2258e+001 -1.6132e+002  9.2711e+000 60442 75755,75833,75807
 2.6000e+000 75983 -7.4578e+001 -1.8774e+002  3.7931e+000 60442 75755,75807,75781
 2.6000e+000 75960 -3.1527e+000 -3.4053e+002  1.2117e+001 60442 75729,75911,75859
 2.6000e+000 75937 -1.6327e+002 -8.0684e+002  5.1860e+001 60442 75859,75911,75885
 2.6000e+000 76430 -7.9962e+001 -2.1134e+002 -3.6918e+000 59788 76453,76286,76234
 2.6000e+000 76407 -8.6860e+001 -2.3792e+002  5.0997e+000 59788 76453,76234,76182
 2.6000e+000 76384 -8.4971e+001 -1.4922e+002  2.9200e+001 59788 76525,76156,76312
 2.6000e+000 76361 -5.6977e+001 -2.7334e+002  6.7730e-001 59788 76182,76234,76208
 2.6000e+000 76338 -5.0994e+001 -1.9683e+002  1.9383e+000 59788 76234,76286,76260
 2.6000e+000 76479 -9.3240e+001 -2.2467e+002  3.9520e+000 59788 76312,76286,76453
 2.6000e+000 76502 -7.9199e+001 -2.0930e+002  1.1728e+001 59788 76525,76312,76453
 2.6000e+000 76551 -1.0995e+002 -2.2467e+002  2.9462e+001 59788 76182,76156,76525
 2.6000e+000 76574 -9.6124e+001 -2.4270e+002  1.7540e+001 59788 76182,76525,76453
 2.6000e+000 77031 -2.1038e+001 -1.2295e+002 -2.6058e+001 59448 76835,76887,76861
 2.6000e+000 77008  9.9357e+000 -9.1291e+001 -6.8076e+000 59448 76835,76913,76887
 2.6000e+000 76985 -1.9618e+001 -9.7136e+001  1.9586e+001 59448 76809,76913,76835
 2.6000e+000 76962 -5.9249e+001 -1.0739e+002 -9.9212e+000 59448 76757,76913,76809
 2.6000e+000 76939 -4.5191e+001 -1.0604e+002 -1.5290e+001 59448 76757,76809,76783
 2.6000e+000 77537 -9.2604e+001 -1.9604e+002  1.3493e+001 58994 77560,77344,77292
 2.6000e+000 77514 -1.3058e+002 -1.9686e+002  5.6910e+000 58994 77560,77292,77240
 2.6000e+000 77491 -7.4565e+001 -1.8722e+002 -2.9320e+000 58994 77632,77214,77370
 2.6000e+000 77468 -1.5386e+002 -2.2472e+002  3.9872e+001 58994 77292,77344,77318
 2.6000e+000 77445 -7.6460e+001 -2.4606e+002  1.1959e+001 58994 77214,77396,77370
 2.6000e+000 77422 -1.3424e+002 -2.1273e+002 -2.8268e+000 58994 77240,77292,77266
 2.6000e+000 77586 -9.5695e+001 -2.0227e+002  1.5463e+001 58994 77370,77344,77560
 2.6000e+000 77609 -9.5797e+001 -2.0033e+002  1.6348e+001 58994 77632,77370,77560
 2.6000e+000 77658 -6.2737e+001 -1.7265e+002 -2.2094e+001 58994 77240,77214,77632
 2.6000e+000 77681 -7.7924e+001 -1.6986e+002 -4.5683e+000 58994 77240,77632,77560
 2.6000e+000 78138 -6.8722e+001 -1.2960e+002  1.8721e+001 58440 77864,77994,77890
 2.6000e+000 78115 -4.1468e+001 -7.2745e+001 -1.3725e+001 58440 77864,78020,77994
 2.6000e+000 78092 -7.9258e+001 -1.5640e+002 -1.3467e+001 58440 77942,77994,77968
 2.6000e+000 78069 -6.0824e+001 -1.4460e+002  3.2220e+000 58440 77890,77994,77942
 2.6000e+000 78046 -5.5602e+001 -1.4620e+002 -7.2554e-001 58440 77890,77942,77916
 2.6000e+000 78467 -1.4786e+001 -1.8166e+002  2.3086e+000 57928 78562,78490,78346
 2.6000e+000 78444 -4.1296e+001 -1.6853e+002  9.4045e+000 57928 78490,78294,78268
 2.6000e+000 78421 -8.4647e+000 -1.8709e+002  7.5849e+000 57928 78562,78346,78320
 2.6000e+000 78398 -1.5567e+001 -1.7121e+002  6.0258e+000 57928 78242,78372,78268
 2.6000e+000 78516 -4.4585e+001 -2.2209e+002 -1.4109e+001 57928 78372,78346,78490
 2.6000e+000 78539 -3.6409e+001 -1.7194e+002  1.1968e+000 57928 78372,78490,78268
 2.6000e+000 78588 -4.3772e+001 -1.8180e+002 -2.2967e-001 57928 78294,78490,78562
 2.6000e+000 78611 -2.5414e+001 -1.7360e+002  9.7205e+000 57928 78294,78562,78320
 2.6000e+000 79068 -1.1595e+002 -2.7023e+002 -6.8555e+001 57467 78794,78924,78820
 2.6000e+000 79045 -8.6938e+001 -2.5876e+002 -7.0984e+001 57467 78794,78950,78924
 2.6000e+000 79022 -9.2375e+000 -2.1478e+002  8.1197e+000 57467 78820,78898,78872
 2.6000e+000 78999 -9.1018e+001 -3.0987e+002 -4.5526e+001 57467 78820,78924,78898
 2.6000e+000 78976 -2.5702e+001 -2.2517e+002  1.4152e+001 57467 78820,78872,78846
 2.6000e+000 79446 -1.0483e+002 -2.0960e+002  1.5112e+000 57120 79172,79302,79250
 2.6000e+000 79423 -9.1115e+001 -2.0328e+002 -9.0396e+000 57120 79172,79328,79302
 2.6000e+000 79400 -9.6713e+001 -1.8419e+002 -5.0396e+000 57120 79172,79250,79198
 2.6000e+000 79377 -6.9551e+001 -2.6662e+002  1.2218e+001 57120 79250,79302,79276
 2.6000e+000 79354 -1.2092e+002 -2.0341e+002 -1.4992e+001 57120 79198,79250,79224
 2.6000e+000 79952 -1.2142e+002 -2.0792e+002  2.7128e+000 56773 79629,79785,79655
 2.6000e+000 79929 -2.7151e+001 -1.8058e+002  1.3637e+001 56773 79629,79811,79785
 2.6000e+000 79906 -8.4733e+001 -2.4052e+002  2.0706e+001 56773 79655,79733,79681
 2.6000e+000 79883 -8.5383e+001 -2.0348e+002  4.0526e+000 56773 79655,79785,79733
 2.6000e+000 79860 -7.0385e+001 -2.7106e+002 -4.3912e+001 56773 79733,79785,79759
 2.6000e+000 79837 -9.4411e+000 -2.0507e+002  6.4798e+001 56773 79681,79733,79707
 2.6000e+000 80281 -4.4004e+001 -1.7060e+002 -1.3086e+001 56319 80108,80160,80134
 2.6000e+000 80258 -4.4434e+001 -1.8413e+002 -1.5118e+001 56319 80056,80160,80108
 2.6000e+000 80235 -1.5633e+001 -1.6436e+002  1.1554e+001 56319 80056,80186,80160
 2.6000e+000 80212 -6.8196e+001 -2.4083e+002 -7.2826e+000 56319 80056,80108,80082
 2.6000e+000 80738 -3.0801e+001 -1.9020e+002  1.2773e+001 55957 80516,80620,80594
 2.6000e+000 80715 -6.6124e+001 -1.7319e+002  1.1291e+001 55957 80464,80620,80516
 2.6000e+000 80692 -5.9278e+001 -2.0069e+002  1.0424e+001 55957 80761,80568,80542
 2.6000e+000 80669 -4.5194e+001 -2.0065e+002  1.1674e+001 55957 80761,80542,80516
 2.6000e+000 80646 -6.6348e+001 -1.7313e+002  2.8333e+001 55957 80464,80516,80490
 2.6000e+000 80787 -7.0673e+001 -2.0166e+002  8.8175e+000 55957 80594,80568,80761
 2.6000e+000 80810 -5.7682e+001 -2.0226e+002  1.0362e+001 55957 80594,80761,80516
 2.6000e+000 81210 -3.8490e+001 -2.0055e+002 -1.8195e+001 55317 80936,80988,80962
 2.6000e+000 81187 -3.4568e+001 -2.1224e+002 -7.6391e+000 55317 80936,81066,80988
 2.6000e+000 81164 -3.7210e+001 -2.3066e+002 -1.1215e+000 55317 80936,81092,81066
 2.6000e+000 81141 -8.4053e+001 -2.3769e+002 -2.3494e+001 55317 80988,81066,81014
 2.6000e+000 81118 -1.1179e+001 -1.4972e+002  9.7987e+000 55317 81014,81066,81040
 2.6000e+000 81539 -9.0408e+001 -2.1447e+002  5.7068e+000 54913 81340,81418,81392
 2.6000e+000 81516 -3.4290e+001 -1.7255e+002 -1.3137e+001 54913 81340,81444,81418
 2.6000e+000 81493 -5.3536e+001 -1.8377e+002 -2.2926e+001 54913 81314,81444,81340
 2.6000e+000 81470 -9.2485e+001 -2.4818e+002  1.5328e+000 54913 81340,81392,81366
 2.6000e+000 81787 -4.9846e+001 -2.2076e+002 -2.9966e+000 54601 81588,81692,81640
 2.6000e+000 81764 -6.7782e+001 -2.2196e+002 -6.7368e+000 54601 81562,81692,81588
 2.6000e+000 81741 -3.1653e+001 -2.2173e+002  2.9816e+001 54601 81588,81640,81614
 2.6000e+000 81718 -5.1644e+001 -2.5859e+002 -2.1852e+001 54601 81640,81692,81666
 2.6000e+000 82344 -8.6959e+001 -2.4549e+002 -1.3644e+001 54090 81998,82102,82076
 2.6000e+000 82321 -1.1931e+002 -2.5963e+002 -8.4514e+000 54090 81998,82154,82102
 2.6000e+000 82298 -1.0864e+002 -2.5197e+002 -4.9884e+000 54090 81972,82154,81998
 2.6000e+000 82275 -1.2376e+002 -2.2757e+002 -1.6158e+001 54090 81998,82076,82024
 2.6000e+000 82252 -1.3240e+002 -2.6851e+002  1.2515e+001 54090 81972,82180,82154
 2.6000e+000 82229 -1.6556e+002 -3.1354e+002  1.6690e+001 54090 82102,82154,82128
 2.6000e+000 82206 -2.0557e+001 -1.7119e+002 -3.9125e+001 54090 82024,82076,82050
 2.6000e+000 82722 -1.4163e+002 -2.5128e+002 -1.2021e+001 53579 82500,82578,82552
 2.6000e+000 82699 -1.0041e+002 -2.2428e+002  4.6873e+000 53579 82448,82578,82500
 2.6000e+000 82676 -1.0942e+002 -2.5821e+002  4.4648e+000 53579 82448,82500,82474
 2.6000e+000 82653 -1.3683e+002 -2.4290e+002  1.7745e+001 53579 82448,82604,82578
 2.6000e+000 82630 -7.3251e+001 -2.3316e+002 -1.3292e+001 53579 82500,82552,82526
 2.6000e+000 83356 -6.8308e+001 -1.8955e+002 -1.7163e+001 53189 83379,83088,83036
 2.6000e+000 83333 -6.6493e+001 -2.1212e+002 -1.5623e+001 53189 83379,83036,82984
 2.6000e+000 83310 -2.8819e+001 -1.9451e+002  3.9634e+001 53189 82984,83192,83166
 2.6000e+000 83287  1.6444e+000 -1.6169e+002 -1.6629e+001 53189 83036,83088,83062
 2.6000e+000 83264 -6.1127e+001 -2.6175e+002 -2.9183e+001 53189 82984,83036,83010
 2.6000e+000 83241 -3.2706e+001 -2.2682e+002  8.1867e+000 53189 83114,83166,83140
 2.6000e+000 83218 -9.5832e+001 -2.4384e+002  7.2464e+000 53189 83088,83166,83114
 2.6000e+000 83405 -6.8051e+001 -2.0479e+002 -7.7522e+000 53189 83166,83088,83379
 2.6000e+000 83428 -6.2976e+001 -2.2477e+002 -7.6202e+000 53189 83166,83379,82984
 2.6000e+000 83725 -8.3003e+001 -2.6928e+002 -1.7164e+001 52585 83748,83529,83503
 2.6000e+000 83702 -4.4811e+001 -2.5450e+002 -1.2179e+001 52585 83820,83748,83503
 2.6000e+000 83679  3.0420e-001 -2.4918e+002 -9.8683e+000 52585 83820,83503,83477
 2.6000e+000 83656 -5.0135e+001 -2.4158e+002  3.5192e+001 52585 83477,83607,83581
 2.6000e+000 83633  6.0629e+000 -2.2015e+002  2.9558e+001 52585 83451,83607,83477
 2.6000e+000 83774 -6.9035e+001 -2.3460e+002 -1.4069e+001 52585 83555,83529,83748
 2.6000e+000 83797 -1.1611e+002 -2.5250e+002 -6.5282e+000 52585 83555,83748,83581
 2.6000e+000 83846 -8.7382e+001 -2.3646e+002  1.0580e+001 52585 83581,83748,83820
 2.6000e+000 83869 -5.3027e+001 -2.3715e+002  8.3924e+000 52585 83581,83820,83477
 2.6000e+000 84200 -7.4987e+001 -2.5134e+002 -7.1842e+000 52024 84001,84105,84079
 2.6000e+000 84177 -3.6449e+001 -2.4511e+002 -1.8061e+001 52024 83975,84105,84001
 2.6000e+000 84154 -6.4233e+001 -2.5029e+002 -6.1672e+000 52024 84001,84079,84053
 2.6000e+000 84131 -3.2244e+001 -1.6688e+002  3.0783e+001 52024 84001,84053,84027
 2.6000e+000 84399 -5.4804e+001 -2.3396e+002 -2.5678e+000 51470 84422,84275,84249
 2.6000e+000 84376 -4.9143e+001 -2.2969e+002 -4.8441e-001 51470 84422,84249,84223
 2.6000e+000 84353 -6.4871e+001 -2.5443e+002 -3.6704e+001 51470 84275,84327,84301
 2.6000e+000 84448 -6.0038e+001 -2.2892e+002 -2.2726e+000 51470 84327,84275,84422
 2.6000e+000 84471 -5.4770e+001 -2.2539e+002 -5.7024e-001 51470 84327,84422,84223
 2.6000e+000 84753 -7.3505e+001 -2.1095e+002 -1.1002e+000 51073 84603,84655,84629
 2.6000e+000 84730 -1.5042e+002 -2.4653e+002 -1.1031e+001 51073 84776,84655,84603
 2.6000e+000 84707 -3.0717e+001 -2.1166e+002 -6.1149e+001 51073 84577,84681,84655
 2.6000e+000 84802 -9.4038e+001 -2.1442e+002 -2.9332e+001 51073 84577,84655,84776
 2.6000e+000 85178 -1.3074e+002 -2.7959e+002  2.6336e+001 50519 85201,85008,84982
 2.6000e+000 85155 -1.2344e+002 -2.5961e+002  2.1591e+001 50519 85273,85201,84982
 2.6000e+000 85132 -1.1581e+002 -2.5914e+002  1.6798e+001 50519 85273,84982,84930
 2.6000e+000 85109 -1.1090e+002 -2.5444e+002  1.4868e+001 50519 84930,84982,84956
 2.6000e+000 85086 -1.1288e+002 -2.6755e+002  1.4616e+001 50519 85008,85060,85034
 2.6000e+000 85227 -1.1129e+002 -2.6716e+002  1.3255e+001 50519 85060,85008,85201
 2.6000e+000 85250 -1.2238e+002 -2.7245e+002  9.6181e+000 50519 85060,85201,84904
 2.6000e+000 85299 -1.1596e+002 -2.6444e+002  5.8879e+000 50519 84904,85201,85273
 2.6000e+000 85322 -8.7229e+001 -2.2599e+002 -6.8478e+000 50519 84904,85273,84930
 2.6000e+000 85958 -6.8791e+001 -2.2330e+002 -6.3119e+000 50093 85981,85768,85716
 2.6000e+000 85935 -6.1989e+001 -2.0538e+002 -7.7424e+000 50093 85981,85716,85612
 2.6000e+000 85912 -7.5975e+001 -1.9782e+002 -1.3713e+000 50093 85612,85716,85664
 2.6000e+000 85889 -5.2152e+001 -2.1850e+002 -1.6184e+000 50093 85716,85768,85742
 2.6000e+000 85866 -7.9829e+001 -1.7084e+002 -3.4256e+001 50093 85664,85716,85690
 2.6000e+000 85843  2.2789e+001 -1.4862e+002 -1.7724e+001 50093 85586,85794,85612
 2.6000e+000 85820 -5.5762e+001 -2.7931e+002  1.4605e+001 50093 85612,85664,85638
 2.6000e+000 86007 -8.1321e+001 -2.3755e+002 -3.1286e+001 50093 85794,85768,85981
 2.6000e+000 86030 -6.0806e+001 -1.8677e+002 -2.6516e+001 50093 85794,85981,85612
 2.6000e+000 86131 -7.9253e+001 -2.5748e+002  3.4884e+001 49895 86053,86105,86079
 2.6000e+000 86639 -3.8667e+001 -1.5813e+002 -2.2880e+001 49391 86662,86394,86368
 2.6000e+000 86616 -4.3864e+001 -1.8705e+002 -1.5972e+001 49391 86662,86368,86342
 2.6000e+000 86593 -1.4820e+001 -1.7548e+002  8.7187e+000 49391 86342,86498,86472
 2.6000e+000 86570  2.5622e+001 -1.9927e+002  1.0968e+001 49391 86316,86498,86342
 2.6000e+000 86547 -9.2633e+001 -2.7576e+002 -3.4700e+000 49391 86394,86472,86446
 2.6000e+000 86524  4.2959e+000 -2.7072e+002  8.3061e+000 49391 86394,86446,86420
 2.6000e+000 86688 -5.4037e+001 -1.8475e+002 -1.0754e+001 49391 86472,86394,86662
 2.6000e+000 86711 -4.1304e+001 -1.9633e+002 -7.9716e+000 49391 86472,86662,86342
 2.6000e+000 87089 -7.6625e+001 -2.3021e+002  4.1756e+000 48987 86815,86919,86867
 2.6000e+000 87066 -8.0891e+001 -2.3732e+002  7.5459e+000 48987 86815,86971,86919
 2.6000e+000 87043 -3.4830e+001 -2.5362e+002 -2.2048e+001 48987 86867,86919,86893
 2.6000e+000 87020 -8.4005e+001 -2.5189e+002  1.9279e+001 48987 86815,86867,86841
 2.6000e+000 86997 -9.2856e+001 -2.0592e+002  3.1936e+001 48987 86919,86971,86945
 2.6000e+000 87467 -1.4932e+002 -2.2556e+002  9.6516e+000 48540 87490,87245,87219
 2.6000e+000 87444 -1.1594e+002 -2.1412e+002  1.7256e+000 48540 87562,87490,87219
 2.6000e+000 87421 -8.5784e+001 -2.0180e+002  9.4599e+000 48540 87562,87219,87349
 2.6000e+000 87398 -1.2454e+002 -1.8529e+002 -4.4172e+000 48540 87245,87297,87271
 2.6000e+000 87375 -6.6246e+001 -2.1546e+002  6.1801e+000 48540 87193,87349,87219
 2.6000e+000 87516 -1.1138e+002 -2.1418e+002  6.4137e+000 48540 87297,87245,87490
 2.6000e+000 87539 -1.1882e+002 -2.2099e+002  1.3327e+001 48540 87297,87490,87323
 2.6000e+000 87588 -8.7213e+001 -2.0365e+002  2.1842e+001 48540 87323,87490,87562
 2.6000e+000 87611 -7.2255e+001 -2.0568e+002  2.6817e+001 48540 87323,87562,87349
 2.6000e+000 87810 -1.1110e+002 -4.0818e+002 -2.9349e+001 48136 87660,87712,87686
 2.6000e+000 87787 -6.4234e+001 -2.4821e+002 -1.4222e+001 48136 87660,87738,87712
 2.6000e+000 87764 -1.5427e+002 -2.5516e+002 -4.4607e+001 48136 87634,87738,87660
 2.6000e+000 88205 -9.0573e+001 -2.4343e+002 -2.0826e+001 47210 88300,88228,87937
 2.6000e+000 88182 -8.1737e+001 -2.4018e+002 -6.1881e+000 47210 88228,87833,88041
 2.6000e+000 88159 -9.1732e+001 -2.5860e+002 -3.2105e+001 47210 88300,87937,87911
 2.6000e+000 88136 -8.7972e+001 -2.4219e+002 -2.6716e+001 47210 87833,87911,87859
 2.6000e+000 88113 -1.5126e+002 -2.0238e+002 -1.7072e+001 47210 87937,87989,87963
 2.6000e+000 88090 -9.1748e+001 -2.0690e+002  4.5427e+001 47210 87989,88041,88015
 2.6000e+000 88067 -1.0005e+002 -2.7266e+002 -3.3782e+001 47210 87859,87911,87885
 2.6000e+000 88254 -8.2377e+001 -1.9606e+002 -2.4722e+001 47210 87989,87937,88228
 2.6000e+000 88277 -1.0813e+002 -2.3246e+002 -8.7806e+000 47210 87989,88228,88041
 2.6000e+000 88326 -7.5129e+001 -2.2873e+002 -9.0436e+000 47210 87833,88228,88300
 2.6000e+000 88349 -7.8849e+001 -2.3901e+002 -2.1124e+001 47210 87833,88300,87911
 2.6000e+000 88780 -1.6374e+002 -2.8828e+002 -5.2896e+001 46642 88803,88509,88483
 2.6000e+000 88757 -1.1907e+002 -2.6015e+002 -2.7801e+001 46642 88803,88483,88639
 2.6000e+000 88734 -1.3229e+002 -2.1343e+002 -3.3050e+001 46642 88875,88561,88509
 2.6000e+000 88711 -1.2978e+002 -1.9668e+002 -6.6384e+000 46642 88509,88561,88535
 2.6000e+000 88688 -7.8255e+001 -2.9118e+002  1.5600e+000 46642 88457,88639,88483
 2.6000e+000 88665 -1.5281e+002 -3.4150e+002 -1.3179e+001 46642 88561,88613,88587
 2.6000e+000 88829 -1.3207e+002 -2.3297e+002 -3.7123e+001 46642 88875,88509,88803
 2.6000e+000 88852 -1.2999e+002 -2.7859e+002 -2.3067e+001 46642 88613,88803,88639
 2.6000e+000 88901 -1.1089e+002 -2.4015e+002 -1.6915e+001 46642 88613,88561,88875
 2.6000e+000 88924 -1.1973e+002 -2.7187e+002 -2.0137e+001 46642 88613,88875,88803
 2.6000e+000 89253 -4.7706e+001 -2.4549e+002  1.4682e+000 46444 89080,89158,89132
 2.6000e+000 89230 -5.2590e+001 -2.5594e+002 -9.5151e-001 46444 89028,89158,89080
 2.6000e+000 89207 -1.7298e+001 -2.3079e+002 -1.2225e+001 46444 89028,89080,89054
 2.6000e+000 89184 -2.9086e+001 -2.6194e+002 -1.8625e+001 46444 89080,89132,89106
 2.6000e+000 89631 -4.7141e+001 -1.5590e+002  2.9310e+000 46040 89383,89461,89435
 2.6000e+000 89608 -5.2611e+001 -1.7411e+002 -6.5533e+000 46040 89383,89487,89461
 2.6000e+000 89585 -5.0645e+001 -1.9639e+002 -5.0382e+000 46040 89383,89435,89409
 2.6000e+000 89562 -4.9520e+001 -1.5495e+002 -1.4604e+001 46040 89383,89513,89487
 2.6000e+000 89539  6.8085e+000 -1.2018e+002 -4.6996e+001 46040 89357,89513,89383
 2.6000e+000 90009 -6.4235e+001 -2.0152e+002  5.3406e-001 45636 89813,89891,89839
 2.6000e+000 89986 -6.6072e+001 -1.8885e+002  1.1509e+001 45636 89787,89891,89813
 2.6000e+000 89963 -5.8152e+001 -1.8803e+002 -4.0170e+000 45636 89839,89891,89865
 2.6000e+000 89940 -8.0573e+001 -2.1038e+002  5.2182e+000 45636 89735,89891,89787
 2.6000e+000 89917 -6.6165e+001 -2.1045e+002 -7.0174e+000 45636 89735,89787,89761
 2.6000e+000 90208 -4.4875e+001 -1.6057e+002 -3.5138e+001 45175 90231,90058,90032
 2.6000e+000 90185 -2.3240e+001 -1.4474e+002 -5.3454e+001 45175 90231,90032,90136
 2.6000e+000 90162 -5.7274e+001 -1.3218e+002 -2.3829e+000 45175 90058,90110,90084
 2.6000e+000 90257 -6.8956e+001 -1.8333e+002 -8.0603e+000 45175 90110,90058,90231
 2.6000e+000 90280 -2.7669e+001 -1.5566e+002 -2.8504e+001 45175 90110,90231,90136
 2.6000e+000 90528 -4.6507e+001 -1.5922e+002 -1.8983e+001 44513 90695,90551,90407
 2.6000e+000 90505 -5.3594e+001 -1.5088e+002 -9.0798e+000 44513 90551,90355,90329
 2.6000e+000 90482 -6.1052e+001 -1.4201e+002 -1.4201e+001 44513 90623,90303,90433
 2.6000e+000 90459 -3.2814e+001 -1.5016e+002 -1.4945e+001 44513 90695,90407,90381
 2.6000e+000 90577 -7.0177e+001 -1.6729e+002 -3.1675e+001 44513 90433,90407,90551
 2.6000e+000 90600 -5.9304e+001 -1.5147e+002 -1.4704e+001 44513 90623,90433,90551
 2.6000e+000 90649 -6.5951e+001 -1.5258e+002 -1.2511e+001 44513 90329,90303,90623
 2.6000e+000 90672 -6.2317e+001 -1.5621e+002 -1.3306e+001 44513 90329,90623,90551
 2.6000e+000 90721 -6.1297e+001 -1.4818e+002 -2.0642e+001 44513 90355,90551,90695
 2.6000e+000 90744 -5.6347e+001 -1.4522e+002 -1.9332e+001 44513 90355,90695,90381
 2.6000e+000 91077  1.8520e+001 -1.3927e+002  2.8123e+001 44059 91100,90930,90904
 2.6000e+000 91054 -7.2108e+001 -1.8651e+002  9.4167e+000 44059 91100,90904,90982
 2.6000e+000 91031 -9.6804e+001 -1.8704e+002 -2.6051e+000 44059 90878,90982,90904
 2.6000e+000 91008 -2.7141e+001 -1.5778e+002  4.3304e+000 44059 90852,90982,90878
 2.6000e+000 91126 -1.3058e+002 -1.8608e+002  6.9763e+000 44059 91172,91100,90956
 2.6000e+000 91149 -6.6836e+001 -1.7610e+002  1.4659e+000 44059 90956,91100,90982
 2.6000e+000 91198 -1.9334e+001 -1.3963e+002 -2.6812e+001 44059 90930,91100,91172
 2.6000e+000 91677 -9.4372e+001 -1.4763e+002  1.3245e+001 43549 91455,91533,91481
 2.6000e+000 91654 -4.1165e+001 -1.4641e+002  1.9226e+001 43549 91429,91533,91455
 2.6000e+000 91631 -8.8516e+001 -1.4239e+002  4.7726e+000 43549 91481,91533,91507
 2.6000e+000 91608 -2.2711e+001 -1.3880e+002  9.2634e+000 43549 91429,91559,91533
 2.6000e+000 91585 -2.1839e+000 -4.8319e+001  1.0880e+000 43549 91403,91559,91429
 2.6000e+000 92006 -8.0726e+001 -2.1168e+002  5.3758e+000 43059 91781,91885,91807
 2.6000e+000 91983 -8.1699e+001 -1.9411e+002  3.6431e+001 43059 91781,91911,91885
 2.6000e+000 91960 -7.3127e+001 -2.0753e+002  3.7034e+000 43059 91807,91885,91833
 2.6000e+000 91937 -4.3737e+001 -1.9657e+002 -1.3977e+000 43059 91833,91885,91859
 2.6000e+000 92561 -7.2307e+001 -1.5705e+002 -1.6854e+001 42598 92584,92215,92189
 2.6000e+000 92538 -7.7223e+001 -1.7850e+002 -1.6914e+001 42598 92656,92584,92189
 2.6000e+000 92515 -6.7388e+001 -2.0243e+002 -4.6940e+000 42598 92656,92189,92397
 2.6000e+000 92492 -8.5075e+001 -1.3617e+002 -1.8656e+001 42598 92241,92319,92293
 2.6000e+000 92469 -8.2177e+001 -1.7242e+002  1.0553e+001 42598 92319,92397,92371
 2.6000e+000 92446 -3.9228e+001 -2.0838e+002  7.4539e+001 42598 92319,92371,92345
 2.6000e+000 92423 -9.0829e+001 -1.4562e+002 -3.1591e+001 42598 92241,92293,92267
 2.6000e+000 92610 -7.4360e+001 -1.5679e+002 -1.5178e+001 42598 92241,92215,92584
 2.6000e+000 92633 -6.8895e+001 -1.4477e+002 -2.0437e+001 42598 92241,92584,92319
 2.6000e+000 92682 -6.8143e+001 -1.4615e+002 -1.1402e+001 42598 92319,92584,92656
 2.6000e+000 92705 -5.3522e+001 -1.6300e+002 -2.1444e+000 42598 92319,92656,92397
 2.6000e+000 92953 -7.6664e+001 -2.2898e+002  1.4513e+001 42094 92976,92806,92780
 2.6000e+000 92930 -8.7317e+001 -2.1486e+002  1.0860e+000 42094 92976,92780,92754
 2.6000e+000 92907 -6.0346e+000 -2.2251e+002 -1.7137e-001 42094 93048,92832,92806
 2.6000e+000 92884 -1.1690e+002 -2.0739e+002 -1.6049e+001 42094 92728,92858,92754
 2.6000e+000 93002 -4.3693e+001 -2.1069e+002  7.3464e+000 42094 93048,92806,92976
 2.6000e+000 93025 -7.7879e+001 -2.0941e+002 -4.5542e+000 42094 92858,92976,92754
 2.6000e+000 93074 -5.7937e+001 -2.4266e+002 -2.4979e+000 42094 92858,92832,93048
 2.6000e+000 93097 -8.9179e+001 -2.2742e+002  2.0086e+000 42094 92858,93048,92976
 2.6000e+000 93605 -8.6126e+001 -2.6739e+002 -7.0729e+000 41846 93628,93412,93386
 2.6000e+000 93582 -7.2080e+001 -2.0739e+002 -2.4901e+000 41846 93628,93386,93308
 2.6000e+000 93559 -9.6765e+001 -2.0847e+002 -2.7997e+001 41846 93700,93464,93438
 2.6000e+000 93536 -1.0757e+002 -2.5887e+002  1.5278e+001 41846 93308,93386,93334
 2.6000e+000 93513 -1.0587e+002 -2.5109e+002  1.1685e+001 41846 93334,93386,93360
 2.6000e+000 93490 -9.4885e+001 -1.6887e+002 -2.1348e+001 41846 93282,93464,93308
 2.6000e+000 93654 -7.0029e+001 -2.1697e+002 -1.7953e+001 41846 93438,93412,93628
 2.6000e+000 93677 -9.7290e+001 -2.1103e+002 -1.5002e+001 41846 93700,93438,93628
 2.6000e+000 93726 -9.0891e+001 -1.9240e+002 -2.6228e+001 41846 93308,93464,93700
 2.6000e+000 93749 -8.9190e+001 -1.8986e+002 -1.3389e+001 41846 93308,93700,93628
 2.6000e+000 94255 -6.7073e+001 -2.1353e+002  1.5318e+001 41385 93958,94114,94088
 2.6000e+000 94232 -5.6943e+001 -2.2845e+002  7.9904e+000 41385 93932,94114,93958
 2.6000e+000 94209 -1.1986e+002 -2.4853e+002  4.2918e+001 41385 93958,94088,94062
 2.6000e+000 94186 -1.2817e+002 -1.7760e+002  3.2705e+001 41385 93958,94062,93984
 2.6000e+000 94163 -1.0605e+002 -1.7317e+002  2.9065e+001 41385 93984,94062,94036
 2.6000e+000 94140 -7.2995e+001 -2.3643e+002  4.1386e+001 41385 93984,94036,94010
 2.6000e+000 94476 -1.3999e+001 -2.9438e+002  2.0166e+001 40881 94326,94378,94352
 2.6000e+000 94453 -4.4230e+001 -2.3876e+002  2.1722e+001 40881 94300,94378,94326
 2.6000e+000 94430 -5.6180e+001 -2.1813e+002  2.7215e+000 40881 94300,94404,94378
 2.6000e+000 94626 -6.7812e+001 -1.6484e+002  8.5192e+000 40591 94649,94551,94525
 2.6000e+000 94603 -1.3902e+001 -1.2704e+002  2.1677e+000 40591 94781,94577,94551
 2.6000e+000 94675 -6.3459e+000 -1.3269e+002 -8.5015e+000 40591 94781,94551,94649
 2.6000e+000 94807  3.8919e+000 -1.1825e+002  5.1299e+000 40591 94499,94577,94781
 2.6000e+000 94830  1.0123e+001 -1.2534e+002 -7.0323e+000 40591 94499,94781,94649
 2.6000e+000 95336 -1.3383e+002 -1.9452e+002 -2.8929e+001 40187 95013,95169,95039
 2.6000e+000 95313 -6.7357e+001 -1.7719e+002 -1.6850e+001 40187 95013,95195,95169
 2.6000e+000 95290 -5.2350e+001 -2.0226e+002  5.2677e+000 40187 95039,95143,95065
 2.6000e+000 95267 -1.4469e+002 -2.3381e+002 -4.0347e+001 40187 95039,95169,95143
 2.6000e+000 95244 -1.0635e+002 -2.8297e+002 -2.1060e+001 40187 95091,95143,95117
 2.6000e+000 95221 -4.5602e+001 -1.9192e+002  8.4808e+000 40187 95065,95143,95091
 2.6000e+000 95665 -7.4869e+001 -1.7804e+002  2.9319e+001 39626 95466,95570,95544
 2.6000e+000 95642 -9.0851e+001 -1.5608e+002  2.0970e+001 39626 95440,95570,95466
 2.6000e+000 95619 -6.4446e+001 -1.7835e+002  9.8676e+000 39626 95466,95544,95492
 2.6000e+000 95596 -1.1622e+002 -1.7373e+002  8.5542e+000 39626 95492,95544,95518
 2.6000e+000 95913 -7.6753e+001 -1.8540e+002 -2.8778e+001 39136 96080,95936,95766
 2.6000e+000 95890 -5.4235e+001 -2.0123e+002 -1.5558e+001 39136 95936,95714,95688
 2.6000e+000 95867 -1.4330e+002 -1.9952e+002  7.8880e+000 39136 96008,95792,95766
 2.6000e+000 95844 -6.0762e+001 -1.7942e+002 -2.3258e+001 39136 96080,95766,95740
 2.6000e+000 95962 -1.1183e+002 -2.0751e+002 -1.8416e+001 39136 96008,95766,95936
 2.6000e+000 95985 -6.8883e+001 -2.4308e+002 -4.0223e+000 39136 95818,95936,95688
 2.6000e+000 96034 -6.6977e+001 -1.6624e+002  1.3429e+001 39136 95818,95792,96008
 2.6000e+000 96057 -5.8698e+001 -1.8309e+002 -1.2542e+001 39136 95818,96008,95936
 2.6000e+000 96106 -6.9682e+001 -1.8608e+002 -6.5325e+000 39136 95714,95936,96080
 2.6000e+000 96129 -4.3843e+001 -1.7797e+002 -2.6906e+000 39136 95714,96080,95740
 2.6000e+000 96350 -5.3567e+001 -1.5853e+002 -5.8431e+000 38824 96200,96278,96252
 2.6000e+000 96327 -6.2510e+001 -1.6148e+002 -5.7775e+000 38824 96174,96278,96200
 2.6000e+000 96304 -5.4649e+001 -1.6248e+002 -5.1753e+000 38824 96200,96252,96226
 2.6000e+000 96830 -1.0359e+002 -1.7703e+002 -1.6057e+001 38320 97069,96536,96484
 2.6000e+000 96807 -1.0157e+002 -1.7963e+002 -1.5960e+001 38320 97069,96484,96853
 2.6000e+000 96784 -1.1241e+002 -1.9465e+002  3.3479e+000 38320 96853,96484,96458
 2.6000e+000 96761 -5.9110e+001 -1.5178e+002 -1.8758e+001 38320 96925,96640,96614
 2.6000e+000 96738 -9.4966e+001 -1.5843e+002 -7.0022e+000 38320 96997,96666,96640
 2.6000e+000 96715 -8.3290e+001 -2.0627e+002 -6.6163e+000 38320 97141,96588,96562
 2.6000e+000 96692 -1.3031e+002 -2.0443e+002 -4.1629e+000 38320 96484,96536,96510
 2.6000e+000 96879 -1.0016e+002 -1.8810e+002 -9.0213e+000 38320 97141,96562,96853
 2.6000e+000 96902 -9.1031e+001 -1.8404e+002 -5.9192e+000 38320 96925,96614,96853
 2.6000e+000 96951 -9.3166e+001 -1.5670e+002 -8.3527e+000 38320 96997,96640,96925
 2.6000e+000 96974 -9.0054e+001 -1.5459e+002 -5.5391e+000 38320 96458,96925,96853
 2.6000e+000 97023 -1.0334e+002 -1.6097e+002 -2.6317e+000 38320 96458,96666,96997
 2.6000e+000 97046 -9.6937e+001 -1.5746e+002 -4.1674e+000 38320 96458,96997,96925
 2.6000e+000 97095 -1.0716e+002 -1.7046e+002 -4.2230e+000 38320 96562,96536,97069
 2.6000e+000 97118 -9.6902e+001 -1.7777e+002 -1.4006e+001 38320 96562,97069,96853
 2.6000e+000 97167 -5.2865e+001 -1.9002e+002 -1.4296e+001 38320 96614,96588,97141
 2.6000e+000 97190 -8.0934e+001 -1.8001e+002 -1.4669e+001 38320 96614,97141,96853
 2.6000e+000 97519 -7.3714e+001 -1.9363e+002  4.6526e+001 37766 97542,97398,97372
 2.6000e+000 97496 -9.9182e+001 -1.7162e+002  2.5301e+001 37766 97542,97372,97346
 2.6000e+000 97473 -8.9658e+001 -1.8442e+002  5.2210e+000 37766 97294,97424,97346
 2.6000e+000 97450 -1.0227e+002 -2.2311e+002  6.3113e-002 37766 97294,97346,97320
 2.6000e+000 97568 -3.1907e+001 -1.8459e+002  3.4791e+001 37766 97424,97398,97542
 2.6000e+000 97591 -6.9153e+001 -1.6369e+002  1.4246e+001 37766 97424,97542,97346
 2.6000e+000 98048 -8.5082e+001 -1.3737e+002 -4.4936e+001 37262 98071,97878,97852
 2.6000e+000 98025 -6.9937e+001 -1.6281e+002 -1.8152e+001 37262 98071,97852,97800
 2.6000e+000 98002 -8.8332e+001 -1.9883e+002 -1.1729e+001 37262 97800,97852,97826
 2.6000e+000 97979 -9.0818e+001 -1.7366e+002  6.1138e+000 37262 97800,97930,97904
 2.6000e+000 97956 -6.1970e+001 -2.1108e+002  1.4607e+001 37262 97774,97930,97800
 2.6000e+000 98097 -1.2795e+002 -1.5745e+002 -3.5322e+001 37262 97904,97878,98071
 2.6000e+000 98120 -9.2359e+001 -1.8095e+002 -9.8763e+000 37262 97904,98071,97800
 2.6000e+000 98449 -3.9293e+001 -1.2230e+002 -1.6119e+001 36950 98472,98302,98250
 2.6000e+000 98426 -1.9277e+001 -1.1515e+002 -2.0115e+001 36950 98472,98250,98354
 2.6000e+000 98403 -6.6960e+001 -1.3724e+002  1.8084e+001 36950 98250,98302,98276
 2.6000e+000 98380 -1.2764e+001 -8.7333e+001  1.3511e+001 36950 98224,98354,98250
 2.6000e+000 98498 -2.4467e+001 -1.3986e+002 -4.1017e+000 36950 98328,98302,98472
 2.6000e+000 98521 -7.0727e-001 -1.2912e+002 -1.1471e+001 36950 98328,98472,98354
 2.6000e+000 99125 -1.2136e+002 -1.2224e+002  1.5569e+001 36296 98704,98756,98730
 2.6000e+000 99102 -8.6438e+001 -1.3425e+002  2.9176e+000 36296 98704,98938,98756
 2.6000e+000 99079 -6.2281e+001 -1.4636e+002 -4.4535e+000 36296 99148,98938,98912
 2.6000e+000 99056 -6.9823e+001 -1.4587e+002  2.8514e+001 36296 99292,99220,98782
 2.6000e+000 99033 -5.4614e+001 -1.5792e+002  9.0263e-001 36296 99148,98912,98834
 2.6000e+000 99010 -6.2247e+001 -1.2311e+002  2.8674e+001 36296 99292,98782,98756
 2.6000e+000 98987 -5.1738e+001 -2.8222e+002 -5.6388e+001 36296 98834,98912,98886
 2.6000e+000 98964 -9.6336e+001 -4.0910e+002 -7.2213e+001 36296 98834,98886,98860
 2.6000e+000 99174 -7.4751e+001 -1.7015e+002  1.8072e+000 36296 99220,98938,99148
 2.6000e+000 99197 -5.3070e+001 -1.8914e+002  1.6130e+001 36296 98808,99148,98834
 2.6000e+000 99246 -6.1513e+001 -1.2611e+002  7.3187e+001 36296 98808,98782,99220
 2.6000e+000 99269 -2.3850e+001 -1.2439e+002  2.2412e+001 36296 98808,99220,99148
 2.6000e+000 99318 -6.5748e+001 -1.2040e+002  1.2283e+001 36296 98938,99220,99292
 2.6000e+000 99341 -6.7662e+001 -1.2453e+002  1.3592e+001 36296 98938,99292,98756
 2.6000e+000 99719 -9.6728e+001 -2.1138e+002  5.8788e-001 35742 99742,99471,99601
 2.6000e+000 99696 -9.9875e+001 -1.6358e+002  2.1996e+001 35742 99445,99601,99471
 2.6000e+000 99673 -9.1658e+001 -1.9979e+002 -8.3436e+000 35742 99742,99601,99575
 2.6000e+000 99650 -7.8951e+001 -2.4906e+002 -6.9177e+000 35742 99814,99549,99523
 2.6000e+000 99627 -5.9308e+001 -1.9217e+002 -2.6684e+000 35742 99471,99523,99497
 2.6000e+000 99768 -7.6232e+001 -2.0633e+002  4.3296e+000 35742 99523,99471,99742
 2.6000e+000 99791 -9.0867e+001 -2.2943e+002 -5.9630e+000 35742 99814,99523,99742
 2.6000e+000 99840 -7.6750e+001 -2.2484e+002 -1.4418e+001 35742 99575,99549,99814
 2.6000e+000 99863 -8.4491e+001 -1.9933e+002 -1.2855e+001 35742 99575,99814,99742
 2.6000e+000 100111 -6.7403e+001 -1.6976e+002  1.3769e+001 35302 100134,99990,99938
 2.6000e+000 100088 -5.3833e+001 -1.5429e+002  4.9233e+000 35302 100134,99938,99912
 2.6000e+000 100065 -5.3836e+001 -1.5459e+002 -3.2563e+000 35302 100206,99886,100016
 2.6000e+000 100042 -9.1823e+001 -1.5921e+002  8.6364e+000 35302 99938,99990,99964
 2.6000e+000 100160 -4.9445e+001 -1.6290e+002  4.2446e+000 35302 100016,99990,100134
 2.6000e+000 100183 -5.1099e+001 -1.5689e+002 -3.1853e+000 35302 100206,100016,100134
 2.6000e+000 100232 -5.6203e+001 -1.5732e+002 -1.5654e+000 35302 99912,99886,100206
 2.6000e+000 100255 -5.3641e+001 -1.6019e+002 -1.5818e+000 35302 99912,100206,100134
 2.6000e+000 100586 -4.8854e+001 -1.0685e+002 -4.9981e-001 35012 100609,100387,100361
 2.6000e+000 100563 -4.8819e+001 -1.1524e+002  4.5058e+000 35012 100609,100361,100465
 2.6000e+000 100540 -7.6925e+001 -1.4542e+002  1.6991e+001 35012 100361,100491,100465
 2.6000e+000 100517 -4.1571e+001 -1.1590e+002  1.5273e+001 35012 100413,100465,100439
 2.6000e+000 100635 -5.1828e+001 -1.0851e+002  8.1786e+000 35012 100413,100387,100609
 2.6000e+000 100658 -5.3614e+001 -1.2130e+002  1.3024e+001 35012 100413,100609,100465
 2.6000e+000 100987 -7.2451e+001 -1.5162e+002  1.1607e+001 34700 100788,100866,100814
 2.6000e+000 100964 -5.9370e+001 -1.4204e+002  1.6056e+001 34700 101010,100866,100788
 2.6000e+000 100941 -6.1371e+001 -1.4869e+002  2.9987e+001 34700 100762,100892,100866
 2.6000e+000 100918 -7.9798e+001 -1.6431e+002 -2.3918e+000 34700 100814,100866,100840
 2.6000e+000 101036 -4.8352e+001 -1.3448e+002  2.2129e+001 34700 100762,100866,101010
 2.6000e+000 101493 -9.8657e+001 -1.9715e+002 -1.7351e+001 34132 101516,101349,101297
 2.6000e+000 101470 -1.2173e+002 -2.4090e+002 -2.9160e+001 34132 101588,101516,101297
 2.6000e+000 101447 -1.2239e+002 -2.5492e+002 -4.3666e+001 34132 101588,101297,101245
 2.6000e+000 101424 -7.2801e+001 -2.9835e+002 -4.0874e+001 34132 101245,101297,101271
 2.6000e+000 101401 -1.0704e+002 -1.9808e+002 -2.0069e+001 34132 101297,101349,101323
 2.6000e+000 101542 -1.0185e+002 -2.3162e+002 -1.3727e+001 34132 101375,101349,101516
 2.6000e+000 101565 -9.0816e+001 -2.3136e+002 -1.4761e+001 34132 101375,101516,101219
 2.6000e+000 101614 -9.4060e+001 -2.4225e+002 -1.4350e+001 34132 101219,101516,101588
 2.6000e+000 101637 -1.0819e+002 -2.5593e+002 -2.8171e+001 34132 101219,101588,101245
 2.6000e+000 101858 -2.2695e+001 -1.7641e+002  1.1832e+001 33720 101708,101786,101760
 2.6000e+000 101835 -4.8810e+001 -2.0775e+002 -1.8559e-001 33720 101682,101786,101708
 2.6000e+000 101812 -5.9547e+001 -1.9387e+002  6.4519e+000 33720 101708,101760,101734
 2.6000e+000 102128 -1.4672e+001 -2.0593e+002 -5.5117e+000 33130 101903,102007,101929
 2.6000e+000 102105 -1.9573e+001 -2.3859e+002  7.9984e+000 33130 101903,102033,102007
 2.6000e+000 102082 -3.4055e+000 -2.4780e+002 -4.9421e+001 33130 101929,102007,101955
 2.6000e+000 102059 -2.7714e+001 -1.7321e+002  4.3636e+000 33130 101955,102007,101981
 2.6000e+000 102461 -7.9097e+001 -1.9340e+002 -1.5706e+001 32840 102236,102340,102262
 2.6000e+000 102438 -6.5876e+001 -1.3661e+002  3.2220e+000 32840 102236,102366,102340
 2.6000e+000 102415 -4.5313e+001 -1.8265e+002 -1.4922e+001 32840 102262,102340,102288
 2.6000e+000 102392 -1.0299e+002 -1.9756e+002 -4.0319e+001 32840 102288,102340,102314
 2.6000e+000 102997 -6.5659e+001 -1.1430e+002  3.1554e+001 32493 102749,102879,102853
 2.6000e+000 102974 -5.2744e+001 -8.9184e+001  2.2011e+001 32493 102723,102879,102749
 2.6000e+000 102951 -7.8038e+001 -1.3924e+002  2.1375e+001 32493 102749,102801,102775
 2.6000e+000 102928 -8.3447e+001 -1.3789e+002  2.0307e+001 32493 102749,102853,102801
 2.6000e+000 102905 -7.8881e+001 -1.2887e+002  1.8348e+001 32493 102801,102853,102827
 2.6000e+000 103454 -8.9364e+001 -1.6139e+002 -8.2554e+000 32089 103206,103336,103310
 2.6000e+000 103431 -7.6258e+001 -1.6106e+002  8.8145e-001 32089 103180,103336,103206
 2.6000e+000 103408 -9.5457e+001 -1.8473e+002 -2.5883e+001 32089 103206,103284,103258
 2.6000e+000 103385 -1.3334e+002 -1.9238e+002 -2.9493e+001 32089 103206,103310,103284
 2.6000e+000 103362 -8.4983e+001 -1.4734e+002  8.5299e+000 32089 103206,103258,103232
 2.6000e+000 103783 -1.3375e+002 -1.9817e+002 -1.9361e+001 31742 103558,103662,103584
 2.6000e+000 103760 -1.1862e+002 -1.7716e+002 -3.8603e+001 31742 103558,103688,103662
 2.6000e+000 103737 -9.2324e+001 -1.6562e+002 -3.5318e+001 31742 103584,103662,103636
 2.6000e+000 103714 -5.1696e+001 -1.8926e+002 -5.8146e+001 31742 103584,103636,103610
 2.6000e+000 104112 -1.4692e+001 -1.6231e+002  3.6050e+001 31402 103939,103991,103965
 2.6000e+000 104089 -4.8333e+001 -1.4370e+002  1.7005e+001 31402 103913,103991,103939
 2.6000e+000 104066 -7.1628e+001 -1.6561e+002  5.3447e+000 31402 103913,104017,103991
 2.6000e+000 104043 -8.2395e+001 -1.4424e+002 -3.5198e+000 31402 103887,104017,103913
 2.6000e+000 104569 -1.2881e+002 -2.3934e+002  2.2716e+000 30998 104321,104425,104373
 2.6000e+000 104546 -1.4463e+002 -2.4404e+002 -1.8846e-001 30998 104321,104451,104425
 2.6000e+000 104523 -1.1763e+002 -2.0811e+002  2.0863e+001 30998 104373,104425,104399
 2.6000e+000 104500 -1.2948e+002 -2.6166e+002 -8.8391e+000 30998 104295,104451,104321
 2.6000e+000 104477 -1.8123e+002 -3.0037e+002  4.6809e+001 30998 104321,104373,104347
 2.6000e+000 104947 -1.1562e+002 -1.8940e+002 -2.4931e+001 30608 104751,104803,104777
 2.6000e+000 104924 -7.5629e+001 -1.9550e+002 -1.0072e+001 30608 104725,104803,104751
 2.6000e+000 104901 -1.1042e+002 -1.8867e+002  8.8538e+000 30608 104699,104803,104725
 2.6000e+000 104878 -1.1019e+002 -1.9043e+002  1.1507e+001 30608 104673,104803,104699
 2.6000e+000 104855 -8.5950e+001 -1.8605e+002 -9.2677e+000 30608 104673,104829,104803
 2.6000e+000 105276 -6.6104e+001 -1.6731e+002  1.7793e+001 30204 105427,105129,105077
 2.6000e+000 105253 -3.0473e+001 -1.7101e+002  5.5856e+001 30204 105427,105077,105051
 2.6000e+000 105230 -5.1816e+001 -1.7731e+002  1.0849e+001 30204 105077,105129,105103
 2.6000e+000 105207 -1.2533e+002 -1.5540e+002  1.9018e+001 30204 105299,105181,105155
 2.6000e+000 105325 -9.7148e+001 -1.4216e+002  1.4233e+001 30204 105129,105181,105299
 2.6000e+000 105453 -8.7240e+001 -1.7733e+002  2.1782e+001 30204 105181,105129,105427
 2.6000e+000 105476 -9.7829e+001 -2.0158e+002  6.3489e+001 30204 105181,105427,105051
 2.6000e+000 105903 -5.8357e+001 -1.4833e+002 -1.1063e+001 29700 105606,105762,105736
 2.6000e+000 105880 -7.6378e+001 -1.5198e+002  1.5362e+000 29700 105580,105762,105606
 2.6000e+000 105857 -9.5371e+001 -1.8858e+002 -1.2731e+001 29700 105606,105710,105632
 2.6000e+000 105834 -7.6400e+001 -1.5902e+002 -4.2638e+000 29700 105606,105736,105710
 2.6000e+000 105811 -7.6793e+001 -1.7565e+002 -2.2028e+001 29700 105632,105710,105684
 2.6000e+000 105788 -7.1238e+001 -1.6101e+002  4.3524e+000 29700 105632,105684,105658
 2.6000e+000 106102 -4.1206e+001 -1.9461e+002  4.0544e+000 29124 105978,106030,106004
 2.6000e+000 106079 -6.7016e+001 -2.0465e+002 -7.5291e-001 29124 105926,106030,105978
 2.6000e+000 106056 -6.0759e+001 -2.0683e+002  2.3019e+001 29124 105926,105978,105952
 2.6000e+000 106301 -4.0060e+001 -1.8501e+002  1.4210e+000 28712 106151,106229,106203
 2.6000e+000 106278 -5.1805e+001 -2.0463e+002 -8.4251e+000 28712 106125,106229,106151
 2.6000e+000 106255 -4.2039e+001 -1.9695e+002  1.3315e+001 28712 106151,106203,106177
 2.6000e+000 106551 -5.8080e+001 -2.2770e+002  1.9845e+000 28258 106352,106404,106378
 2.6000e+000 106528 -7.5955e+001 -2.3151e+002 -1.8180e+000 28258 106352,106456,106404
 2.6000e+000 106505 -6.1806e+001 -2.4473e+002 -6.6368e+000 28258 106326,106456,106352
 2.6000e+000 106482 -7.5583e+001 -2.2051e+002  4.3701e+000 28258 106404,106456,106430
 2.6000e+000 107012 -7.8715e+001 -1.9893e+002  3.9734e+001 27818 107035,106790,106764
 2.6000e+000 106989 -6.6781e+001 -1.8408e+002  1.5549e+001 27818 107035,106764,106868
 2.6000e+000 106966 -5.1137e+001 -2.1843e+002  1.9358e+001 27818 107107,106842,106816
 2.6000e+000 106943 -1.0520e+002 -1.7386e+002  1.0174e+001 27818 106738,106868,106764
 2.6000e+000 106920 -9.9574e+001 -1.4700e+002  3.3509e+001 27818 106738,106894,106868
 2.6000e+000 107061 -3.2250e+001 -1.8761e+002  4.3627e+001 27818 106816,106790,107035
 2.6000e+000 107084 -5.8027e+001 -2.0720e+002  2.0629e+001 27818 107107,106816,107035
 2.6000e+000 107133 -5.7166e+001 -2.0047e+002  1.0335e+001 27818 106868,106842,107107
 2.6000e+000 107156 -5.8207e+001 -1.8113e+002  1.4686e+001 27818 106868,107107,107035
 2.6000e+000 107613 -1.6282e+001 -1.4788e+002  2.9355e+001 27312 107339,107469,107365
 2.6000e+000 107590  5.1846e+000 -1.3866e+002  2.5939e+001 27312 107339,107495,107469
 2.6000e+000 107567 -2.0938e+001 -1.4114e+002  1.2812e+001 27312 107391,107469,107443
 2.6000e+000 107544 -1.6159e+001 -1.5383e+002  1.0907e+001 27312 107365,107469,107391
 2.6000e+000 107521 -6.3926e+001 -1.5497e+002  3.7111e+000 27312 107391,107443,107417
 2.6000e+000 107991 -8.6227e+001 -2.2479e+002  2.8621e+000 26858 108086,108014,107795
 2.6000e+000 107968 -9.3391e+001 -2.3421e+002 -2.4620e+001 26858 108014,107717,107873
 2.6000e+000 107945 -9.9621e+001 -2.3643e+002  1.2090e+001 26858 108158,108086,107795
 2.6000e+000 107922 -8.1844e+001 -2.3493e+002  1.0729e+001 26858 108158,107795,107769
 2.6000e+000 107899 -5.7936e+001 -2.8872e+002  3.8717e+001 26858 107821,107873,107847
 2.6000e+000 108040 -8.8119e+001 -2.5739e+002  9.8875e+000 26858 107821,107795,108014
 2.6000e+000 108063 -4.3143e+001 -2.4616e+002 -6.5071e+000 26858 107821,108014,107873
 2.6000e+000 108112 -1.2035e+002 -2.3791e+002  7.7770e+000 26858 107717,108014,108086
 2.6000e+000 108135 -1.0067e+002 -2.4683e+002  2.4284e+001 26858 107717,108086,107743
 2.6000e+000 108184 -7.8831e+001 -2.3425e+002  1.8348e+001 26858 107743,108086,108158
 2.6000e+000 108207 -7.1078e+001 -2.3996e+002  1.8186e+001 26858 107743,108158,107769
 2.6000e+000 108634 -1.0216e+002 -2.1237e+002  3.1030e+000 26404 108657,108415,108363
 2.6000e+000 108611 -1.1621e+002 -2.3123e+002  2.4569e+001 26404 108657,108363,108337
 2.6000e+000 108588 -9.4378e+001 -2.0271e+002  3.2472e+001 26404 108729,108311,108467
 2.6000e+000 108565 -1.2622e+002 -2.4413e+002 -2.2930e+000 26404 108801,108441,108415
 2.6000e+000 108542 -1.7791e+002 -2.3945e+002  3.8015e+001 26404 108311,108493,108467
 2.6000e+000 108519 -7.9006e+001 -2.1475e+002  2.2698e+000 26404 108363,108415,108389
 2.6000e+000 108683 -1.4648e+002 -2.2492e+002  5.9220e-001 26404 108801,108415,108657
 2.6000e+000 108706 -1.4057e+002 -2.1689e+002  2.4116e+001 26404 108729,108467,108657
 2.6000e+000 108755 -6.3895e+001 -2.2350e+002  3.2602e+001 26404 108337,108311,108729
 2.6000e+000 108778 -8.7558e+001 -2.2148e+002  2.3811e+001 26404 108337,108729,108657
 2.6000e+000 108827 -1.4739e+002 -2.7975e+002 -1.3507e+001 26404 108467,108441,108801
 2.6000e+000 108850 -1.5980e+002 -2.4818e+002 -9.8581e+000 26404 108467,108801,108657
 2.6000e+000 109228 -9.2731e+001 -2.0673e+002 -3.8244e+000 26064 109006,109084,109058
 2.6000e+000 109205 -7.4248e+001 -1.9147e+002  7.8646e+000 26064 108980,109084,109006
 2.6000e+000 109182 -8.5830e+001 -1.8858e+002  1.3832e+000 26064 108980,109110,109084
 2.6000e+000 109159 -9.1057e+001 -2.1067e+002 -6.9736e-001 26064 109006,109058,109032
 2.6000e+000 109136  2.0237e+001 -1.7050e+002  1.8875e+001 26064 108954,109110,108980
 2.6000e+000 109427 -3.5959e+001 -1.9032e+002 -4.0372e+001 25660 109303,109355,109329
 2.6000e+000 109404 -5.9152e+001 -2.3640e+002 -1.2292e+001 25660 109277,109355,109303
 2.6000e+000 109381 -4.4444e+001 -2.1941e+002 -5.0527e+000 25660 109251,109355,109277
 2.6000e+000 109577  3.6083e+000 -7.9173e+001  6.0807e+001 25306 109476,109528,109502
 2.6000e+000 109554  2.3026e+001 -1.0535e+002  1.1815e+001 25306 109450,109528,109476
 2.6000e+000 109778 -6.8854e+001 -1.9939e+002  5.4064e+000 24944 109628,109706,109654
 2.6000e+000 109755 -7.7159e+001 -1.9850e+002 -6.1218e-001 24944 109602,109706,109628
 2.6000e+000 109732 -6.1653e+001 -1.8767e+002  4.5285e-001 24944 109654,109706,109680
 2.6000e+000 110126 -7.4761e+001 -2.6060e+002  1.6101e+001 24440 110149,109907,109855
 2.6000e+000 110103 -8.2366e+001 -2.7024e+002  2.0824e+001 24440 110149,109855,109985
 2.6000e+000 110080 -5.3475e+001 -2.3137e+002  5.4531e+000 24440 109855,109907,109881
 2.6000e+000 110057 -5.4633e+001 -2.1921e+002  6.1562e+001 24440 109829,109985,109855
 2.6000e+000 110034 -7.5577e+001 -2.6190e+002  1.5915e+000 24440 109907,109959,109933
 2.6000e+000 110011 -1.0801e+002 -2.5181e+002  1.9013e+001 24440 109803,109985,109829
 2.6000e+000 110175 -7.7227e+001 -2.4831e+002  6.9306e+000 24440 109959,109907,110149
 2.6000e+000 110198 -8.9902e+001 -2.5980e+002  1.2980e+001 24440 109959,110149,109985
 2.6000e+000 110301 -2.4453e+000 -2.6582e+002 -3.4572e+001 24028 110223,110275,110249
 2.6000e+000 110573 -2.0588e+001 -1.2965e+002  7.8707e+000 23467 110400,110452,110426
 2.6000e+000 110550 -4.3860e+001 -1.7005e+002 -1.6423e+000 23467 110374,110452,110400
 2.6000e+000 110527 -4.1484e+001 -1.6897e+002  1.2198e+000 23467 110348,110452,110374
 2.6000e+000 110504 -2.7796e+001 -1.6662e+002 -1.8556e+000 23467 110348,110478,110452
 2.6000e+000 111004 -1.2152e+002 -2.5886e+002 -3.1166e+001 22963 111027,110733,110707
 2.6000e+000 110981 -1.2024e+002 -2.4543e+002  9.1338e+000 22963 111027,110707,110681
 2.6000e+000 110958 -6.1074e+001 -2.1746e+002 -2.3343e+001 22963 111099,110759,110733
 2.6000e+000 110935 -7.2875e+001 -2.1578e+002 -1.8974e+001 22963 111171,110863,110811
 2.6000e+000 110912 -4.3123e+001 -1.6239e+002 -2.6063e+001 22963 110759,110811,110785
 2.6000e+000 110889 -7.7419e+001 -2.3338e+002 -2.1301e+001 22963 110811,110863,110837
 2.6000e+000 111053 -8.4604e+001 -2.3142e+002 -1.7073e+001 22963 111099,110733,111027
 2.6000e+000 111076 -7.0142e+001 -2.3100e+002 -1.6028e+001 22963 111171,110811,111027
 2.6000e+000 111125 -6.0863e+001 -2.1580e+002 -3.6874e+001 22963 110811,110759,111099
 2.6000e+000 111148 -6.5591e+001 -2.1550e+002 -3.3643e+001 22963 110811,111099,111027
 2.6000e+000 111197 -7.5613e+001 -1.8754e+002 -2.4633e+001 22963 110681,110863,111171
 2.6000e+000 111220 -8.3163e+001 -2.0842e+002 -1.3961e+001 22963 110681,111171,111027
 2.6000e+000 111726 -1.1419e+002 -2.3180e+002  4.7585e+000 22459 111749,111507,111429
 2.6000e+000 111703 -1.0741e+002 -2.2986e+002 -3.8578e+000 22459 111749,111429,111585
 2.6000e+000 111680 -9.4515e+001 -2.4931e+002 -2.1478e+000 22459 111403,111585,111429
 2.6000e+000 111657 -1.1012e+002 -2.5316e+002  7.3445e+000 22459 111507,111559,111533
 2.6000e+000 111634 -1.4965e+002 -2.1915e+002  1.1414e+001 22459 111455,111507,111481
 2.6000e+000 111611 -1.4896e+002 -2.1663e+002  1.5970e+001 22459 111429,111507,111455
 2.6000e+000 111775 -1.1505e+002 -2.4477e+002  1.1445e+001 22459 111559,111507,111749
 2.6000e+000 111798 -1.0753e+002 -2.3593e+002  3.1187e+000 22459 111559,111749,111585
 2.6000e+000 112046 -2.7206e+001 -1.8986e+002 -2.0986e+001 21898 112069,111925,111873
 2.6000e+000 112023 -1.9031e+001 -1.8162e+002  1.2811e+001 21898 112069,111873,111847
 2.6000e+000 112000 -6.2889e+001 -1.8555e+002 -3.3280e+000 21898 111821,111951,111847
 2.6000e+000 111977 -3.3334e+001 -1.7748e+002 -1.8905e+001 21898 111873,111925,111899
 2.6000e+000 112095 -7.6454e+001 -2.0457e+002 -3.7773e+001 21898 111951,111925,112069
 2.6000e+000 112118 -4.8913e+001 -1.9008e+002 -4.8465e+000 21898 111951,112069,111847
 2.6000e+000 112498 -8.9612e+001 -2.1205e+002 -1.8484e+001 21608 112521,112276,112224
 2.6000e+000 112475 -6.0403e+001 -2.1566e+002 -4.9282e-001 21608 112521,112224,112380
 2.6000e+000 112452 -6.5485e+001 -2.4368e+002  1.4286e+001 21608 112302,112380,112354
 2.6000e+000 112429 -1.0000e+002 -2.3732e+002 -1.4182e+001 21608 112224,112276,112250
 2.6000e+000 112406  2.7625e+001 -2.6569e+002 -1.3464e+001 21608 112302,112354,112328
 2.6000e+000 112547 -6.5617e+001 -1.8311e+002 -5.5094e+000 21608 112302,112276,112521
 2.6000e+000 112570 -4.6743e+001 -2.0687e+002  7.2970e+000 21608 112302,112521,112380
 2.6000e+000 112948 -1.0241e+002 -2.2411e+002 -5.4067e+000 20882 112971,112752,112700
 2.6000e+000 112925 -7.4747e+001 -2.1491e+002 -1.1347e+001 20882 112971,112700,112830
 2.6000e+000 112902 -1.3318e+002 -2.4088e+002  1.3553e+001 20882 112778,112830,112804
 2.6000e+000 112879 -6.9301e+001 -1.7029e+002 -1.5990e+001 20882 112674,112830,112700
 2.6000e+000 112856 -1.2436e+002 -2.3222e+002  2.1628e+000 20882 112700,112752,112726
 2.6000e+000 112997 -1.0331e+002 -2.2421e+002  9.9153e+000 20882 112778,112752,112971
 2.6000e+000 113020 -8.7496e+001 -2.1979e+002  3.3816e+000 20882 112778,112971,112830
 2.6000e+000 113526 -8.3781e+001 -2.2484e+002  2.6978e-001 20428 113255,113385,113333
 2.6000e+000 113503 -9.0596e+001 -2.4510e+002  2.1081e-002 20428 113229,113385,113255
 2.6000e+000 113480 -2.0521e+001 -2.1874e+002  1.8140e+000 20428 113255,113333,113281
 2.6000e+000 113457 -8.0309e+001 -2.4241e+002  8.2314e-001 20428 113203,113385,113229
 2.6000e+000 113434 -4.8483e+001 -2.2872e+002 -7.3770e+000 20428 113281,113333,113307
 2.6000e+000 113411 -9.8951e+001 -2.2101e+002  3.8888e+000 20428 113333,113385,113359
 2.6000e+000 113774 -1.3091e+001 -2.1221e+002  4.9241e+000 19917 113797,113601,113549
 2.6000e+000 113751 -3.4167e+001 -2.1548e+002  7.2536e+000 19917 113869,113797,113549
 2.6000e+000 113728 -3.3957e+001 -2.1772e+002  1.4429e+001 19917 113869,113549,113679
 2.6000e+000 113705 -1.8547e+001 -2.0657e+002  1.4133e+001 19917 113549,113601,113575
 2.6000e+000 113823 -3.5505e+001 -2.5876e+002 -3.9979e+000 19917 113627,113601,113797
 2.6000e+000 113846 -1.1329e+001 -2.0314e+002 -1.0206e+001 19917 113627,113797,113653
 2.6000e+000 113895 -3.1715e+001 -1.9519e+002 -2.4234e+000 19917 113653,113797,113869
 2.6000e+000 113918 -4.3330e+001 -2.0238e+002  7.2233e+000 19917 113653,113869,113679
 2.6000e+000 114166 -1.0034e+002 -2.2210e+002 -4.9731e+000 19413 113993,114045,114019
 2.6000e+000 114143 -8.9093e+001 -2.0450e+002  1.5458e+000 19413 113967,114045,113993
 2.6000e+000 114120 -7.8065e+001 -2.0044e+002  6.9130e+000 19413 113967,114071,114045
 2.6000e+000 114097 -5.7631e+001 -2.2208e+002 -6.1143e+000 19413 113941,114071,113967
 2.6000e+000 114438 -9.5145e+001 -2.4720e+002  5.8653e-002 19001 114213,114265,114239
 2.6000e+000 114415 -7.1742e+001 -1.9638e+002 -6.5578e+000 19001 114213,114343,114265
 2.6000e+000 114392 -1.0436e+002 -2.6911e+002 -1.3437e+001 19001 114265,114343,114317
 2.6000e+000 114369  8.4316e+000 -2.1491e+002  3.1308e+000 19001 114265,114317,114291
 2.6000e+000 114639 -1.3391e+002 -2.5667e+002 -1.9496e+001 18554 114489,114541,114515
 2.6000e+000 114616 -8.3785e+001 -2.8398e+002 -1.8795e+001 18554 114489,114567,114541
 2.6000e+000 114593 -1.2573e+002 -2.8413e+002 -2.7463e+001 18554 114463,114567,114489
 2.6000e+000 115043 -5.0537e+001 -2.1499e+002  6.9010e+000 18164 114795,114925,114821
 2.6000e+000 115020 -4.2147e+001 -2.2639e+002  1.3341e+001 18164 114769,114925,114795
 2.6000e+000 114997 -3.2618e+001 -2.2589e+002 -2.0664e+000 18164 115066,114873,114821
 2.6000e+000 114974 -2.9549e+001 -1.9429e+002 -6.6245e+000 18164 115066,114821,114925
 2.6000e+000 114951  1.6257e+000 -2.2610e+002 -1.8795e+001 18164 114821,114873,114847
 2.6000e+000 115092 -4.5177e+001 -2.0300e+002 -1.8894e+001 18164 114899,114873,115066
 2.6000e+000 115115 -2.9741e+001 -1.5477e+002 -2.4753e+001 18164 114899,115066,114925
 2.6000e+000 115265 -7.3326e+001 -2.5070e+002  1.7120e+000 17852 115164,115216,115190
 2.6000e+000 115242 -7.0503e+001 -2.5623e+002  2.5499e+000 17852 115138,115216,115164
 2.6000e+000 115464 -1.3748e+002 -3.2266e+002  4.3469e+000 17346 115288,115366,115340
 2.6000e+000 115441 -2.2355e+002 -2.5415e+002 -7.7953e+000 17346 115288,115392,115366
 2.6000e+000 115418 -1.2909e+002 -3.6281e+002 -1.1662e+001 17346 115288,115340,115314
 2.6000e+000 115736 -7.0699e+001 -2.2251e+002  7.3160e+000 16942 115563,115641,115615
 2.6000e+000 115713 -7.3758e+001 -2.1790e+002  3.5967e+000 16942 115511,115641,115563
 2.6000e+000 115690 -1.5989e+002 -2.5612e+002  1.3509e+001 16942 115563,115615,115589
 2.6000e+000 115667 -8.3793e+001 -2.3999e+002  7.2140e+000 16942 115511,115563,115537
 2.6000e+000 116091 -1.0785e+002 -2.5522e+002 -1.2256e+001 16388 115918,115970,115944
 2.6000e+000 116068 -8.9796e+001 -1.9939e+002 -8.0738e+000 16388 115918,115996,115970
 2.6000e+000 116045 -1.2282e+002 -2.5554e+002  7.1502e+000 16388 115892,115996,115918
 2.6000e+000 116022 -8.2623e+001 -2.3523e+002  2.5978e+001 16388 115866,115996,115892
 2.6000e+000 116192 -4.5154e+001 -2.7382e+002 -3.7395e+001 15810 116114,116166,116140
 2.6000e+000 116342 -5.6749e+001 -2.7763e+002  3.2763e+001 15419 116241,116293,116267
 2.6000e+000 116319 -8.0483e+001 -3.7718e+002 -4.8036e+000 15419 116215,116293,116241
 2.6000e+000 116445 -1.0911e+002 -2.2300e+002  2.4658e-001 421 116367,116419,116393
 2.7000e+000 68477 -1.5093e+002 -2.3438e+002  4.8351e-002 68018 68327,68379,68353
 2.7000e+000 68454 -1.6194e+002 -3.2017e+002  2.4690e+001 68018 68301,68379,68327
 2.7000e+000 68431 -5.9519e+001 -3.5292e+002  6.4120e+001 68018 68301,68405,68379
 2.7000e+000 68578 -9.7988e+001 -2.2488e+002  1.3352e+000 67820 68500,68552,68526
 2.7000e+000 68728 -1.1015e+002 -2.1125e+002 -2.8625e+000 67508 68601,68653,68627
 2.7000e+000 68705 -1.7825e+002 -1.6065e+002 -3.2743e+001 67508 68601,68679,68653
 2.7000e+000 68927 -2.0181e+001 -1.8625e+002 -5.5030e+000 67310 68777,68829,68803
 2.7000e+000 68904 -4.4521e+001 -2.1652e+002  5.0102e+000 67310 68751,68829,68777
 2.7000e+000 68881 -4.8251e+001 -2.3623e+002  6.1295e+000 67310 68751,68855,68829
 2.7000e+000 69386 -8.4652e+001 -2.4076e+002 -1.4299e+001 67020 69216,69268,69242
 2.7000e+000 69363 -7.5959e+001 -1.8341e+002 -2.6715e+001 67020 69138,69268,69216
 2.7000e+000 69340 -5.4231e+001 -1.5688e+002 -1.0499e+001 67020 69112,69268,69138
 2.7000e+000 69317 -1.0479e+002 -1.9752e+002  1.5325e+001 67020 69138,69190,69164
 2.7000e+000 69294 -1.1061e+002 -1.8011e+002 -1.2667e+001 67020 69138,69216,69190
 2.7000e+000 69536 -1.9022e+002 -4.6398e+002 -3.9400e+001 66708 69435,69487,69461
 2.7000e+000 69513 -1.3915e+002 -5.2257e+002 -7.6376e+000 66708 69409,69487,69435
 2.7000e+000 69735 -1.1056e+002 -2.3663e+002  6.0573e+000 66346 69585,69637,69611
 2.7000e+000 69712 -9.0255e+001 -2.2779e+002 -4.5613e-002 66346 69559,69637,69585
 2.7000e+000 69689 -8.1169e+001 -2.2616e+002 -2.1749e+001 66346 69559,69663,69637
 2.7000e+000 69985 -1.4492e+002 -2.6405e+002  5.7853e+000 66148 69786,69890,69864
 2.7000e+000 69962 -1.5274e+002 -2.6821e+002  7.4637e+000 66148 69760,69890,69786
 2.7000e+000 69939 -1.0120e+002 -2.4842e+002 -3.6955e+001 66148 69786,69864,69838
 2.7000e+000 69916 -1.2644e+002 -2.7353e+002 -8.9317e+000 66148 69786,69838,69812
 2.7000e+000 70137 -8.3457e+000 -2.4857e+002 -1.8515e+001 65950 70036,70088,70062
 2.7000e+000 70114 -6.2019e+001 -3.0837e+002  2.0189e+001 65950 70010,70088,70036
 2.7000e+000 70470 -5.2909e+001 -2.0090e+002  1.6517e+001 65546 70245,70323,70271
 2.7000e+000 70447 -2.7152e+001 -1.8840e+002 -1.1591e+001 65546 70245,70375,70323
 2.7000e+000 70424 -5.9531e+000 -2.3977e+002  1.2340e+001 65546 70323,70375,70349
 2.7000e+000 70401 -3.7914e+001 -1.8091e+002  5.4334e+000 65546 70271,70323,70297
 2.7000e+000 70620 -7.0183e+001 -2.5244e+002  1.0257e+001 65348 70493,70545,70519
 2.7000e+000 70597 -6.2960e+001 -2.6970e+002  7.6305e+000 65348 70493,70571,70545
 2.7000e+000 70721 -1.2684e+002 -2.5109e+002  1.7326e+001 65150 70643,70695,70669
 2.7000e+000 71020 -9.0038e+001 -1.9086e+002  6.0291e+000 64952 71043,70850,70824
 2.7000e+000 70997 -7.2431e+001 -1.6043e+002 -4.5224e+000 64952 71043,70824,70772
 2.7000e+000 70974 -6.7599e+001 -2.3172e+002  4.4558e+000 64952 71115,70746,70876
 2.7000e+000 70951 -6.1413e+001 -2.2482e+002  9.2257e+000 64952 70746,70902,70876
 2.7000e+000 70928 -8.2043e+001 -1.4959e+002 -1.2439e+001 64952 70772,70824,70798
 2.7000e+000 71069 -6.2275e+001 -1.7813e+002  9.1832e+000 64952 70876,70850,71043
 2.7000e+000 71092 -7.6559e+001 -2.1280e+002  7.3142e-001 64952 71115,70876,71043
 2.7000e+000 71141 -7.0471e+001 -2.1143e+002 -9.4870e+000 64952 70772,70746,71115
 2.7000e+000 71164 -6.8964e+001 -1.8199e+002 -1.5300e+001 64952 70772,71115,71043
 2.7000e+000 71365 -3.3128e+000 -2.3198e+002 -3.6917e+000 64662 71215,71293,71267
 2.7000e+000 71342  5.2349e+001 -2.0598e+002 -5.4364e+001 64662 71189,71293,71215
 2.7000e+000 71319  1.9296e+001 -1.8460e+002  2.8794e+000 64662 71215,71267,71241
 2.7000e+000 71615 -4.9767e+001 -2.3116e+002 -4.6414e+000 64350 71710,71638,71468
 2.7000e+000 71592 -7.3786e+001 -2.2542e+002 -8.6194e+000 64350 71638,71416,71390
 2.7000e+000 71569 -5.3766e+001 -2.1405e+002  9.4787e+000 64350 71710,71468,71442
 2.7000e+000 71546  6.8860e+001 -2.1034e+002 -4.3863e+001 64350 71390,71520,71494
 2.7000e+000 71664 -5.0740e+001 -2.3196e+002 -3.3176e+000 64350 71494,71468,71638
 2.7000e+000 71687 -4.8883e+001 -2.2897e+002 -2.5299e+000 64350 71494,71638,71390
 2.7000e+000 71736 -4.5698e+001 -1.9679e+002  2.8114e+000 64350 71416,71638,71710
 2.7000e+000 71759 -4.0958e+001 -1.7832e+002  2.1282e+001 64350 71416,71710,71442
 2.7000e+000 72318 -5.1895e+001 -3.5855e+002 -1.4506e+001 63837 71972,72024,71998
 2.7000e+000 72295 -7.7486e+001 -2.2347e+002 -3.6830e+000 63837 72341,71972,71946
 2.7000e+000 72272 -7.4615e+001 -1.8266e+002  1.2328e+001 63837 72413,72341,71946
 2.7000e+000 72249 -7.2967e+001 -1.6665e+002  7.6094e+000 63837 72413,71946,72128
 2.7000e+000 72226 -1.1528e+002 -1.9901e+002  9.0069e+000 63837 72024,72076,72050
 2.7000e+000 72203 -9.7740e+001 -1.7774e+002 -2.3313e+000 63837 72024,72102,72076
 2.7000e+000 72180 -6.1137e+001 -1.6368e+002  1.7269e+001 63837 71946,72154,72128
 2.7000e+000 72367 -1.0865e+002 -2.4447e+002 -4.4105e+001 63837 72024,71972,72341
 2.7000e+000 72390 -7.9969e+001 -1.9507e+002 -1.3579e+001 63837 72024,72341,72102
 2.7000e+000 72439 -6.3394e+001 -2.0840e+002  6.6938e+000 63837 72102,72341,72413
 2.7000e+000 72462 -6.1318e+001 -1.9123e+002  3.9590e+000 63837 72102,72413,72128
 2.7000e+000 72791 -1.0153e+002 -2.0894e+002 -2.1482e+001 63383 72592,72696,72670
 2.7000e+000 72768 -1.0403e+002 -1.9390e+002 -3.9443e+001 63383 72566,72696,72592
 2.7000e+000 72745 -1.0436e+002 -1.8085e+002  1.9979e+000 63383 72592,72670,72618
 2.7000e+000 72722 -1.0138e+002 -1.6572e+002 -3.6919e+000 63383 72618,72670,72644
 2.7000e+000 73297 -1.2712e+002 -1.8726e+002 -2.1162e+000 63185 73000,73156,73130
 2.7000e+000 73274 -1.2748e+002 -1.9457e+002  2.4467e+001 63185 72974,73156,73000
 2.7000e+000 73251 -9.4904e+001 -2.1155e+002 -7.5377e-001 63185 73000,73052,73026
 2.7000e+000 73228 -9.9777e+001 -1.8802e+002 -7.5602e+000 63185 73000,73130,73052
 2.7000e+000 73205 -1.0171e+002 -2.2171e+002 -3.2771e+001 63185 73052,73130,73104
 2.7000e+000 73182 -9.1631e+001 -2.3834e+002 -3.2822e+001 63185 73052,73104,73078
 2.7000e+000 73545 -3.6669e+001 -1.9888e+002  8.3698e-001 62781 73568,73398,73372
 2.7000e+000 73522 -2.0656e+001 -1.8022e+002  9.7115e+000 62781 73568,73372,73346
 2.7000e+000 73499 -4.6892e+001 -1.8854e+002 -6.4972e+000 62781 73640,73320,73424
 2.7000e+000 73476 -6.5837e+001 -1.3473e+002 -1.6130e+001 62781 73320,73450,73424
 2.7000e+000 73594 -3.8756e+001 -1.8158e+002 -1.9935e+000 62781 73424,73398,73568
 2.7000e+000 73617 -4.0444e+001 -1.8473e+002 -2.9640e+000 62781 73640,73424,73568
 2.7000e+000 73666 -4.4224e+001 -1.8347e+002  1.6865e-001 62781 73346,73320,73640
 2.7000e+000 73689 -4.0618e+001 -1.7939e+002  3.4217e+000 62781 73346,73640,73568
 2.7000e+000 74035 -7.1512e+001 -2.3095e+002 -2.3165e+000 62363 74058,73868,73842
 2.7000e+000 74012 -6.7825e+001 -2.1333e+002 -1.6179e+001 62363 74130,74058,73842
 2.7000e+000 73989 -6.1527e+001 -2.1023e+002 -1.5149e+001 62363 74130,73842,73816
 2.7000e+000 73966 -1.0710e+002 -2.3992e+002  4.1645e+000 62363 74202,73764,73894
 2.7000e+000 73943 -1.4268e+002 -2.1642e+002  4.9409e+000 62363 73712,73894,73764
 2.7000e+000 73920 -1.5644e+002 -2.2989e+002 -2.4685e+000 62363 73712,73764,73738
 2.7000e+000 74084 -7.3430e+001 -2.2418e+002 -2.4366e+000 62363 73894,73868,74058
 2.7000e+000 74107 -9.6490e+001 -2.2858e+002  1.2784e+001 62363 74202,73894,74058
 2.7000e+000 74156 -7.4885e+001 -2.1361e+002  8.4862e+000 62363 73790,74058,74130
 2.7000e+000 74179 -4.1804e+001 -1.9863e+002  1.2206e+001 62363 73790,74130,73816
 2.7000e+000 74228 -1.1915e+002 -2.4522e+002 -1.2463e+001 62363 73790,73764,74202
 2.7000e+000 74251 -1.1135e+002 -2.3321e+002 -3.9185e+000 62363 73790,74202,74058
 2.7000e+000 74403 -7.6557e-001 -2.4764e+002  1.7160e+001 62115 74426,74302,74276
 2.7000e+000 74380  5.5990e+001 -2.3793e+002  4.0312e+001 62115 74426,74276,74354
 2.7000e+000 74452 -5.3389e+001 -2.2089e+002  1.7344e+001 62115 74328,74302,74426
 2.7000e+000 74475 -5.8110e-001 -2.1324e+002  4.2090e+001 62115 74328,74426,74354
 2.7000e+000 74578  3.5210e+001 -1.5305e+002  2.6849e+000 61825 74500,74552,74526
 2.7000e+000 74982 -1.1804e+002 -2.1342e+002  1.5728e+000 61513 75005,74734,74708
 2.7000e+000 74959 -1.1578e+002 -2.0634e+002 -7.0390e-001 61513 75005,74708,74864
 2.7000e+000 74936 -1.4878e+002 -2.2006e+002  1.4029e+001 61513 75077,74812,74734
 2.7000e+000 74913 -1.2992e+002 -2.1993e+002 -1.9196e+001 61513 74734,74786,74760
 2.7000e+000 74890 -1.2782e+002 -1.9711e+002 -1.6182e+000 61513 74734,74812,74786
 2.7000e+000 75031 -1.1160e+002 -2.1924e+002  2.3866e+000 61513 75077,74734,75005
 2.7000e+000 75054 -8.7909e+001 -2.1155e+002  3.1868e+001 61513 74838,75005,74864
 2.7000e+000 75103 -1.6938e+002 -2.2860e+002  4.7784e+001 61513 74838,74812,75077
 2.7000e+000 75126 -1.4519e+002 -2.3692e+002  3.6195e+001 61513 74838,75077,75005
 2.7000e+000 75553 -4.7635e+001 -1.9020e+002 -8.3297e+000 61060 75576,75360,75308
 2.7000e+000 75530 -5.1141e+001 -2.0195e+002 -9.9872e+000 61060 75576,75308,75230
 2.7000e+000 75507 -4.4742e+001 -1.8278e+002 -8.0965e-001 61060 75308,75360,75334
 2.7000e+000 75484 -7.4210e+001 -2.4071e+002  1.7265e+001 61060 75230,75308,75256
 2.7000e+000 75461 -4.4262e+001 -2.2288e+002  9.8201e+000 61060 75256,75308,75282
 2.7000e+000 75438 -5.7632e+001 -1.8528e+002  2.6217e+001 61060 75360,75412,75386
 2.7000e+000 75602 -3.2123e+001 -2.0085e+002 -9.5963e-002 61060 75412,75360,75576
 2.7000e+000 75625 -4.3577e+001 -2.2409e+002 -5.0176e+000 61060 75412,75576,75230
 2.7000e+000 76052 -8.3011e+001 -1.9348e+002  3.4168e+000 60442 75755,75859,75833
 2.7000e+000 76029 -1.0225e+002 -1.8534e+002 -1.3118e+001 60442 75729,75859,75755
 2.7000e+000 76006 -8.6546e+001 -1.7864e+002  1.2677e+001 60442 75755,75833,75807
 2.7000e+000 75983 -7.9586e+001 -2.1559e+002  7.1781e+000 60442 75755,75807,75781
 2.7000e+000 75960  1.5188e+001 -3.4063e+002  1.0094e+001 60442 75729,75911,75859
 2.7000e+000 75937 -1.6758e+002 -8.6844e+002  5.3658e+001 60442 75859,75911,75885
 2.7000e+000 76430 -8.5516e+001 -2.2497e+002 -4.1078e+000 59788 76453,76286,76234
 2.7000e+000 76407 -9.2999e+001 -2.5371e+002  5.3380e+000 59788 76453,76234,76182
 2.7000e+000 76384 -9.0846e+001 -1.5984e+002  3.1134e+001 59788 76525,76156,76312
 2.7000e+000 76361 -6.2278e+001 -2.9111e+002  9.0636e-001 59788 76182,76234,76208
 2.7000e+000 76338 -5.4843e+001 -2.0962e+002  1.8462e+000 59788 76234,76286,76260
 2.7000e+000 76479 -9.9850e+001 -2.3950e+002  4.2493e+000 59788 76312,76286,76453
 2.7000e+000 76502 -8.4861e+001 -2.2345e+002  1.2633e+001 59788 76525,76312,76453
 2.7000e+000 76551 -1.1733e+002 -2.3967e+002  3.1360e+001 59788 76182,76156,76525
 2.7000e+000 76574 -1.0272e+002 -2.5875e+002  1.8746e+001 59788 76182,76525,76453
 2.7000e+000 77031 -2.2461e+001 -1.3064e+002 -2.8219e+001 59448 76835,76887,76861
 2.7000e+000 77008  1.0577e+001 -9.7644e+001 -7.4546e+000 59448 76835,76913,76887
 2.7000e+000 76985 -2.0862e+001 -1.0359e+002  2.0715e+001 59448 76809,76913,76835
 2.7000e+000 76962 -6.3304e+001 -1.1505e+002 -1.0769e+001 59448 76757,76913,76809
 2.7000e+000 76939 -4.8103e+001 -1.1329e+002 -1.6587e+001 59448 76757,76809,76783
 2.7000e+000 77537 -9.8780e+001 -2.0949e+002  1.3709e+001 58994 77560,77344,77292
 2.7000e+000 77514 -1.3948e+002 -2.1008e+002  5.4169e+000 58994 77560,77292,77240
 2.7000e+000 77491 -7.9801e+001 -1.9930e+002 -3.0001e+000 58994 77632,77214,77370
 2.7000e+000 77468 -1.6464e+002 -2.4040e+002  4.2644e+001 58994 77292,77344,77318
 2.7000e+000 77445 -8.2464e+001 -2.6073e+002  1.2638e+001 58994 77214,77396,77370
 2.7000e+000 77422 -1.4318e+002 -2.2659e+002 -3.7309e+000 58994 77240,77292,77266
 2.7000e+000 77586 -1.0150e+002 -2.1563e+002  1.5593e+001 58994 77370,77344,77560
 2.7000e+000 77609 -1.0211e+002 -2.1299e+002  1.6805e+001 58994 77632,77370,77560
 2.7000e+000 77658 -6.7529e+001 -1.8440e+002 -2.3231e+001 58994 77240,77214,77632
 2.7000e+000 77681 -8.3654e+001 -1.8177e+002 -5.2665e+000 58994 77240,77632,77560
 2.7000e+000 78138 -7.2313e+001 -1.3823e+002  2.0598e+001 58440 77864,77994,77890
 2.7000e+000 78115 -4.2408e+001 -7.6728e+001 -1.4433e+001 58440 77864,78020,77994
 2.7000e+000 78092 -8.3859e+001 -1.6681e+002 -1.4180e+001 58440 77942,77994,77968
 2.7000e+000 78069 -6.4525e+001 -1.5499e+002  3.5545e+000 58440 77890,77994,77942
 2.7000e+000 78046 -5.8779e+001 -1.5578e+002 -6.2504e-001 58440 77890,77942,77916
 2.7000e+000 78467 -1.6207e+001 -1.9422e+002  3.5461e+000 57928 78562,78490,78346
 2.7000e+000 78444 -4.4971e+001 -1.7892e+002  1.1026e+001 57928 78490,78294,78268
 2.7000e+000 78421 -9.2752e+000 -1.9999e+002  9.3093e+000 57928 78562,78346,78320
 2.7000e+000 78398 -1.6225e+001 -1.8312e+002  5.8295e+000 57928 78242,78372,78268
 2.7000e+000 78516 -4.8724e+001 -2.4086e+002 -1.5296e+001 57928 78372,78346,78490
 2.7000e+000 78539 -3.8197e+001 -1.8281e+002  9.3322e-001 57928 78372,78490,78268
 2.7000e+000 78588 -4.8091e+001 -1.9427e+002  6.8727e-001 57928 78294,78490,78562
 2.7000e+000 78611 -2.7882e+001 -1.8498e+002  1.1616e+001 57928 78294,78562,78320
 2.7000e+000 79068 -1.2390e+002 -2.8714e+002 -7.2548e+001 57467 78794,78924,78820
 2.7000e+000 79045 -9.2785e+001 -2.7503e+002 -7.5804e+001 57467 78794,78950,78924
 2.7000e+000 79022 -1.0226e+001 -2.2885e+002  8.7203e+000 57467 78820,78898,78872
 2.7000e+000 78999 -9.7405e+001 -3.2959e+002 -4.8027e+001 57467 78820,78924,78898
 2.7000e+000 78976 -2.7597e+001 -2.3992e+002  1.5252e+001 57467 78820,78872,78846
 2.7000e+000 79446 -1.1361e+002 -2.1965e+002  1.8346e+000 57120 79172,79302,79250
 2.7000e+000 79423 -9.9822e+001 -2.1343e+002 -5.9405e+000 57120 79172,79328,79302
 2.7000e+000 79400 -1.0490e+002 -1.9459e+002 -4.7778e+000 57120 79172,79250,79198
 2.7000e+000 79377 -7.7457e+001 -2.8125e+002  1.2682e+001 57120 79250,79302,79276
 2.7000e+000 79354 -1.3112e+002 -2.1629e+002 -1.6272e+001 57120 79198,79250,79224
 2.7000e+000 79952 -1.2889e+002 -2.2054e+002  2.7492e+000 56773 79629,79785,79655
 2.7000e+000 79929 -3.0536e+001 -1.9251e+002  1.4800e+001 56773 79629,79811,79785
 2.7000e+000 79906 -8.9617e+001 -2.5574e+002  2.2006e+001 56773 79655,79733,79681
 2.7000e+000 79883 -9.0223e+001 -2.1591e+002  4.1148e+000 56773 79655,79785,79733
 2.7000e+000 79860 -7.4044e+001 -2.8740e+002 -4.7034e+001 56773 79733,79785,79759
 2.7000e+000 79837 -8.5472e+000 -2.1759e+002  6.8990e+001 56773 79681,79733,79707
 2.7000e+000 80281 -4.7170e+001 -1.8073e+002 -1.4822e+001 56319 80108,80160,80134
 2.7000e+000 80258 -5.0913e+001 -1.9395e+002 -1.7672e+001 56319 80056,80160,80108
 2.7000e+000 80235 -1.5938e+001 -1.7116e+002  1.0414e+001 56319 80056,80186,80160
 2.7000e+000 80212 -7.5923e+001 -2.5351e+002 -9.4031e+000 56319 80056,80108,80082
 2.7000e+000 80738 -3.2403e+001 -2.0197e+002  1.3586e+001 55957 80516,80620,80594
 2.7000e+000 80715 -6.9291e+001 -1.8315e+002  1.2297e+001 55957 80464,80620,80516
 2.7000e+000 80692 -6.2811e+001 -2.1356e+002  1.1158e+001 55957 80761,80568,80542
 2.7000e+000 80669 -4.7723e+001 -2.1328e+002  1.2569e+001 55957 80761,80542,80516
 2.7000e+000 80646 -7.0597e+001 -1.8558e+002  3.0589e+001 55957 80464,80516,80490
 2.7000e+000 80787 -7.5239e+001 -2.1450e+002  9.3267e+000 55957 80594,80568,80761
 2.7000e+000 80810 -6.1309e+001 -2.1491e+002  1.1046e+001 55957 80594,80761,80516
 2.7000e+000 81210 -4.1852e+001 -2.1344e+002 -1.9505e+001 55317 80936,80988,80962
 2.7000e+000 81187 -3.7660e+001 -2.2620e+002 -8.0966e+000 55317 80936,81066,80988
 2.7000e+000 81164 -4.0523e+001 -2.4561e+002 -1.2205e+000 55317 80936,81092,81066
 2.7000e+000 81141 -8.9828e+001 -2.5308e+002 -2.5039e+001 55317 80988,81066,81014
 2.7000e+000 81118 -1.2810e+001 -1.5973e+002  1.0247e+001 55317 81014,81066,81040
 2.7000e+000 81539 -9.7268e+001 -2.2975e+002  6.1396e+000 54913 81340,81418,81392
 2.7000e+000 81516 -3.7516e+001 -1.8473e+002 -1.4027e+001 54913 81340,81444,81418
 2.7000e+000 81493 -5.8571e+001 -1.9721e+002 -2.5368e+001 54913 81314,81444,81340
 2.7000e+000 81470 -1.0104e+002 -2.6539e+002  1.2495e+000 54913 81340,81392,81366
 2.7000e+000 81787 -5.4097e+001 -2.3572e+002 -3.6653e+000 54601 81588,81692,81640
 2.7000e+000 81764 -7.4472e+001 -2.3834e+002 -8.1727e+000 54601 81562,81692,81588
 2.7000e+000 81741 -3.5710e+001 -2.3729e+002  3.1797e+001 54601 81588,81640,81614
 2.7000e+000 81718 -5.6194e+001 -2.7642e+002 -2.3701e+001 54601 81640,81692,81666
 2.7000e+000 82344 -9.2736e+001 -2.6145e+002 -1.4464e+001 54090 81998,82102,82076
 2.7000e+000 82321 -1.2698e+002 -2.7643e+002 -8.8399e+000 54090 81998,82154,82102
 2.7000e+000 82298 -1.1558e+002 -2.6888e+002 -5.3239e+000 54090 81972,82154,81998
 2.7000e+000 82275 -1.3203e+002 -2.4247e+002 -1.7098e+001 54090 81998,82076,82024
 2.7000e+000 82252 -1.4068e+002 -2.8648e+002  1.3504e+001 54090 81972,82180,82154
 2.7000e+000 82229 -1.7704e+002 -3.3489e+002  1.8350e+001 54090 82102,82154,82128
 2.7000e+000 82206 -2.1842e+001 -1.8218e+002 -4.1714e+001 54090 82024,82076,82050
 2.7000e+000 82722 -1.5093e+002 -2.6772e+002 -1.2895e+001 53579 82500,82578,82552
 2.7000e+000 82699 -1.0693e+002 -2.3931e+002  4.9255e+000 53579 82448,82578,82500
 2.7000e+000 82676 -1.1465e+002 -2.7373e+002  3.6023e+000 53579 82448,82500,82474
 2.7000e+000 82653 -1.4542e+002 -2.5901e+002  1.8806e+001 53579 82448,82604,82578
 2.7000e+000 82630 -7.7446e+001 -2.4807e+002 -1.4126e+001 53579 82500,82552,82526
 2.7000e+000 83356 -7.3090e+001 -2.0139e+002 -1.8344e+001 53189 83379,83088,83036
 2.7000e+000 83333 -7.0829e+001 -2.2571e+002 -1.6542e+001 53189 83379,83036,82984
 2.7000e+000 83310 -3.0869e+001 -2.0703e+002  4.2341e+001 53189 82984,83192,83166
 2.7000e+000 83287  9.5648e-001 -1.7174e+002 -1.7514e+001 53189 83036,83088,83062
 2.7000e+000 83264 -6.5233e+001 -2.7782e+002 -3.0757e+001 53189 82984,83036,83010
 2.7000e+000 83241 -3.5568e+001 -2.4170e+002  8.7203e+000 53189 83114,83166,83140
 2.7000e+000 83218 -1.0265e+002 -2.5958e+002  7.5502e+000 53189 83088,83166,83114
 2.7000e+000 83405 -7.3158e+001 -2.1779e+002 -8.2545e+000 53189 83166,83088,83379
 2.7000e+000 83428 -6.7310e+001 -2.3930e+002 -7.9836e+000 53189 83166,83379,82984
 2.7000e+000 83725 -8.8451e+001 -2.8591e+002 -1.7979e+001 52585 83748,83529,83503
 2.7000e+000 83702 -4.7664e+001 -2.7004e+002 -1.2972e+001 52585 83820,83748,83503
 2.7000e+000 83679  5.3418e-001 -2.6435e+002 -1.0498e+001 52585 83820,83503,83477
 2.7000e+000 83656 -5.3565e+001 -2.5644e+002  3.8216e+001 52585 83477,83607,83581
 2.7000e+000 83633  6.2712e+000 -2.3378e+002  3.1779e+001 52585 83451,83607,83477
 2.7000e+000 83774 -7.4026e+001 -2.4986e+002 -1.4355e+001 52585 83555,83529,83748
 2.7000e+000 83797 -1.2362e+002 -2.6800e+002 -6.7380e+000 52585 83555,83748,83581
 2.7000e+000 83846 -9.3180e+001 -2.5078e+002  1.1352e+001 52585 83581,83748,83820
 2.7000e+000 83869 -5.6449e+001 -2.5150e+002  9.0186e+000 52585 83581,83820,83477
 2.7000e+000 84200 -8.1370e+001 -2.6646e+002 -7.1691e+000 52024 84001,84105,84079
 2.7000e+000 84177 -3.9262e+001 -2.5897e+002 -1.8118e+001 52024 83975,84105,84001
 2.7000e+000 84154 -6.8753e+001 -2.6532e+002 -5.9113e+000 52024 84001,84079,84053
 2.7000e+000 84131 -3.5211e+001 -1.7754e+002  3.4074e+001 52024 84001,84053,84027
 2.7000e+000 84399 -5.9744e+001 -2.4864e+002 -2.4697e+000 51470 84422,84275,84249
 2.7000e+000 84376 -5.3278e+001 -2.4474e+002 -2.2719e-001 51470 84422,84249,84223
 2.7000e+000 84353 -7.0789e+001 -2.7086e+002 -3.8639e+001 51470 84275,84327,84301
 2.7000e+000 84448 -6.5673e+001 -2.4372e+002 -1.9982e+000 51470 84327,84275,84422
 2.7000e+000 84471 -5.9499e+001 -2.4047e+002 -2.0998e-001 51470 84327,84422,84223
 2.7000e+000 84753 -7.8088e+001 -2.2478e+002 -5.2606e-001 51073 84603,84655,84629
 2.7000e+000 84730 -1.6088e+002 -2.6320e+002 -1.1348e+001 51073 84776,84655,84603
 2.7000e+000 84707 -3.2419e+001 -2.2596e+002 -6.5076e+001 51073 84577,84681,84655
 2.7000e+000 84802 -1.0099e+002 -2.2917e+002 -3.0666e+001 51073 84577,84655,84776
 2.7000e+000 85178 -1.3985e+002 -2.9826e+002  2.8476e+001 50519 85201,85008,84982
 2.7000e+000 85155 -1.3203e+002 -2.7671e+002  2.3156e+001 50519 85273,85201,84982
 2.7000e+000 85132 -1.2379e+002 -2.7632e+002  1.7968e+001 50519 85273,84982,84930
 2.7000e+000 85109 -1.1826e+002 -2.7138e+002  1.5863e+001 50519 84930,84982,84956
 2.7000e+000 85086 -1.2026e+002 -2.8554e+002  1.5792e+001 50519 85008,85060,85034
 2.7000e+000 85227 -1.1843e+002 -2.8466e+002  1.4348e+001 50519 85060,85008,85201
 2.7000e+000 85250 -1.3075e+002 -2.9020e+002  1.0358e+001 50519 85060,85201,84904
 2.7000e+000 85299 -1.2384e+002 -2.8177e+002  6.4383e+000 50519 84904,85201,85273
 2.7000e+000 85322 -9.3034e+001 -2.4088e+002 -7.2441e+000 50519 84904,85273,84930
 2.7000e+000 85958 -7.3577e+001 -2.3765e+002 -6.8157e+000 50093 85981,85768,85716
 2.7000e+000 85935 -6.6365e+001 -2.1876e+002 -8.2304e+000 50093 85981,85716,85612
 2.7000e+000 85912 -8.1239e+001 -2.1075e+002 -1.4564e+000 50093 85612,85716,85664
 2.7000e+000 85889 -5.6159e+001 -2.3273e+002 -1.9178e+000 50093 85716,85768,85742
 2.7000e+000 85866 -8.5352e+001 -1.8212e+002 -3.6338e+001 50093 85664,85716,85690
 2.7000e+000 85843  2.3568e+001 -1.5862e+002 -1.8784e+001 50093 85586,85794,85612
 2.7000e+000 85820 -5.9712e+001 -2.9773e+002  1.5546e+001 50093 85612,85664,85638
 2.7000e+000 86007 -8.7008e+001 -2.5280e+002 -3.3242e+001 50093 85794,85768,85981
 2.7000e+000 86030 -6.5177e+001 -1.9910e+002 -2.8088e+001 50093 85794,85981,85612
 2.7000e+000 86131 -8.2954e+001 -2.7126e+002  3.7650e+001 49895 86053,86105,86079
 2.7000e+000 86639 -4.1234e+001 -1.6799e+002 -2.4441e+001 49391 86662,86394,86368
 2.7000e+000 86616 -4.6719e+001 -1.9938e+002 -1.6748e+001 49391 86662,86368,86342
 2.7000e+000 86593 -1.5597e+001 -1.8706e+002  9.5172e+000 49391 86342,86498,86472
 2.7000e+000 86570  2.6682e+001 -2.1266e+002  1.1708e+001 49391 86316,86498,86342
 2.7000e+000 86547 -9.9487e+001 -2.9370e+002 -3.6608e+000 49391 86394,86472,86446
 2.7000e+000 86524  5.1959e+000 -2.8847e+002  8.9813e+000 49391 86394,86446,86420
 2.7000e+000 86688 -5.8399e+001 -1.9684e+002 -1.1309e+001 49391 86472,86394,86662
 2.7000e+000 86711 -4.4249e+001 -2.0939e+002 -8.1843e+000 49391 86472,86662,86342
 2.7000e+000 87089 -8.2686e+001 -2.4492e+002  4.2021e+000 48987 86815,86919,86867
 2.7000e+000 87066 -8.6771e+001 -2.5257e+002  7.8551e+000 48987 86815,86971,86919
 2.7000e+000 87043 -3.8817e+001 -2.6978e+002 -2.3532e+001 48987 86867,86919,86893
 2.7000e+000 87020 -9.1001e+001 -2.6893e+002  1.9854e+001 48987 86815,86867,86841
 2.7000e+000 86997 -9.9536e+001 -2.1973e+002  3.3617e+001 48987 86919,86971,86945
 2.7000e+000 87467 -1.5931e+002 -2.4036e+002  1.0234e+001 48540 87490,87245,87219
 2.7000e+000 87444 -1.2371e+002 -2.2827e+002  1.8082e+000 48540 87562,87490,87219
 2.7000e+000 87421 -9.1474e+001 -2.1511e+002  1.0247e+001 48540 87562,87219,87349
 2.7000e+000 87398 -1.3253e+002 -1.9764e+002 -4.9016e+000 48540 87245,87297,87271
 2.7000e+000 87375 -7.0912e+001 -2.2971e+002  6.7217e+000 48540 87193,87349,87219
 2.7000e+000 87516 -1.1879e+002 -2.2834e+002  6.6050e+000 48540 87297,87245,87490
 2.7000e+000 87539 -1.2657e+002 -2.3532e+002  1.3895e+001 48540 87297,87490,87323
 2.7000e+000 87588 -9.2964e+001 -2.1671e+002  2.3259e+001 48540 87323,87490,87562
 2.7000e+000 87611 -7.7027e+001 -2.1907e+002  2.8712e+001 48540 87323,87562,87349
 2.7000e+000 87810 -1.1976e+002 -4.3598e+002 -3.0802e+001 48136 87660,87712,87686
 2.7000e+000 87787 -6.7875e+001 -2.6068e+002 -1.4896e+001 48136 87660,87738,87712
 2.7000e+000 87764 -1.6165e+002 -2.6730e+002 -4.7213e+001 48136 87634,87738,87660
 2.7000e+000 88205 -9.6926e+001 -2.5816e+002 -2.1800e+001 47210 88300,88228,87937
 2.7000e+000 88182 -8.7540e+001 -2.5397e+002 -6.2039e+000 47210 88228,87833,88041
 2.7000e+000 88159 -9.8113e+001 -2.7425e+002 -3.3841e+001 47210 88300,87937,87911
 2.7000e+000 88136 -9.3494e+001 -2.5550e+002 -2.8004e+001 47210 87833,87911,87859
 2.7000e+000 88113 -1.6066e+002 -2.1581e+002 -1.8499e+001 47210 87937,87989,87963
 2.7000e+000 88090 -9.9136e+001 -2.2086e+002  4.8126e+001 47210 87989,88041,88015
 2.7000e+000 88067 -1.0758e+002 -2.9111e+002 -3.6405e+001 47210 87859,87911,87885
 2.7000e+000 88254 -8.8153e+001 -2.0815e+002 -2.5825e+001 47210 87989,87937,88228
 2.7000e+000 88277 -1.1577e+002 -2.4629e+002 -9.1165e+000 47210 87989,88228,88041
 2.7000e+000 88326 -8.0364e+001 -2.4252e+002 -9.3171e+000 47210 87833,88228,88300
 2.7000e+000 88349 -8.4310e+001 -2.5344e+002 -2.2200e+001 47210 87833,88300,87911
 2.7000e+000 88780 -1.7427e+002 -3.0581e+002 -5.5719e+001 46642 88803,88509,88483
 2.7000e+000 88757 -1.2691e+002 -2.7619e+002 -2.9630e+001 46642 88803,88483,88639
 2.7000e+000 88734 -1.4123e+002 -2.2629e+002 -3.4960e+001 46642 88875,88561,88509
 2.7000e+000 88711 -1.3889e+002 -2.0926e+002 -7.9831e+000 46642 88509,88561,88535
 2.7000e+000 88688 -8.3095e+001 -3.0930e+002  1.8431e+000 46642 88457,88639,88483
 2.7000e+000 88665 -1.6363e+002 -3.6453e+002 -1.3722e+001 46642 88561,88613,88587
 2.7000e+000 88829 -1.4091e+002 -2.4721e+002 -3.9308e+001 46642 88875,88509,88803
 2.7000e+000 88852 -1.3871e+002 -2.9700e+002 -2.4792e+001 46642 88613,88803,88639
 2.7000e+000 88901 -1.1836e+002 -2.5493e+002 -1.7661e+001 46642 88613,88561,88875
 2.7000e+000 88924 -1.2779e+002 -2.8895e+002 -2.1085e+001 46642 88613,88875,88803
 2.7000e+000 89253 -5.2040e+001 -2.6216e+002  1.1643e+000 46444 89080,89158,89132
 2.7000e+000 89230 -5.6193e+001 -2.7097e+002 -1.0823e+000 46444 89028,89158,89080
 2.7000e+000 89207 -1.9489e+001 -2.4531e+002 -1.2651e+001 46444 89028,89080,89054
 2.7000e+000 89184 -3.2652e+001 -2.7893e+002 -1.9417e+001 46444 89080,89132,89106
 2.7000e+000 89631 -5.0178e+001 -1.6587e+002  2.9560e+000 46040 89383,89461,89435
 2.7000e+000 89608 -5.6148e+001 -1.8550e+002 -6.9421e+000 46040 89383,89487,89461
 2.7000e+000 89585 -5.4284e+001 -2.0966e+002 -5.7309e+000 46040 89383,89435,89409
 2.7000e+000 89562 -5.2973e+001 -1.6533e+002 -1.5421e+001 46040 89383,89513,89487
 2.7000e+000 89539  6.7787e+000 -1.2844e+002 -4.9827e+001 46040 89357,89513,89383
 2.7000e+000 90009 -6.8338e+001 -2.1447e+002  2.8779e-001 45636 89813,89891,89839
 2.7000e+000 89986 -7.0574e+001 -2.0127e+002  1.2240e+001 45636 89787,89891,89813
 2.7000e+000 89963 -6.2474e+001 -2.0014e+002 -4.4777e+000 45636 89839,89891,89865
 2.7000e+000 89940 -8.5768e+001 -2.2409e+002  5.6632e+000 45636 89735,89891,89787
 2.7000e+000 89917 -7.0516e+001 -2.2440e+002 -7.3460e+000 45636 89735,89787,89761
 2.7000e+000 90208 -4.7818e+001 -1.7125e+002 -3.7251e+001 45175 90231,90058,90032
 2.7000e+000 90185 -2.5071e+001 -1.5458e+002 -5.6582e+001 45175 90231,90032,90136
 2.7000e+000 90162 -6.0737e+001 -1.4112e+002 -2.7157e+000 45175 90058,90110,90084
 2.7000e+000 90257 -7.3184e+001 -1.9525e+002 -8.7570e+000 45175 90110,90058,90231
 2.7000e+000 90280 -2.9739e+001 -1.6609e+002 -3.0332e+001 45175 90110,90231,90136
 2.7000e+000 90528 -4.9514e+001 -1.7000e+002 -2.0320e+001 44513 90695,90551,90407
 2.7000e+000 90505 -5.7257e+001 -1.6095e+002 -9.7971e+000 44513 90551,90355,90329
 2.7000e+000 90482 -6.5224e+001 -1.5223e+002 -1.5485e+001 44513 90623,90303,90433
 2.7000e+000 90459 -3.4592e+001 -1.6041e+002 -1.6116e+001 44513 90695,90407,90381
 2.7000e+000 90577 -7.4771e+001 -1.7862e+002 -3.3896e+001 44513 90433,90407,90551
 2.7000e+000 90600 -6.3234e+001 -1.6181e+002 -1.5928e+001 44513 90623,90433,90551
 2.7000e+000 90649 -7.0218e+001 -1.6292e+002 -1.3627e+001 44513 90329,90303,90623
 2.7000e+000 90672 -6.6483e+001 -1.6666e+002 -1.4445e+001 44513 90329,90623,90551
 2.7000e+000 90721 -6.5508e+001 -1.5837e+002 -2.2027e+001 44513 90355,90551,90695
 2.7000e+000 90744 -6.0055e+001 -1.5538e+002 -2.0694e+001 44513 90355,90695,90381
 2.7000e+000 91077  1.9522e+001 -1.4889e+002  3.0181e+001 44059 91100,90930,90904
 2.7000e+000 91054 -7.7348e+001 -1.9927e+002  1.0362e+001 44059 91100,90904,90982
 2.7000e+000 91031 -1.0368e+002 -1.9808e+002 -2.5162e+000 44059 90878,90982,90904
 2.7000e+000 91008 -3.1289e+001 -1.6748e+002  4.8585e+000 44059 90852,90982,90878
 2.7000e+000 91126 -1.3888e+002 -1.9856e+002  7.3506e+000 44059 91172,91100,90956
 2.7000e+000 91149 -7.1567e+001 -1.8784e+002  1.6689e+000 44059 90956,91100,90982
 2.7000e+000 91198 -2.0992e+001 -1.4974e+002 -2.8377e+001 44059 90930,91100,91172
 2.7000e+000 91677 -1.0052e+002 -1.5794e+002  1.3694e+001 43549 91455,91533,91481
 2.7000e+000 91654 -4.3338e+001 -1.5563e+002  2.0422e+001 43549 91429,91533,91455
 2.7000e+000 91631 -9.4324e+001 -1.5230e+002  4.8149e+000 43549 91481,91533,91507
 2.7000e+000 91608 -2.4362e+001 -1.4780e+002  9.9598e+000 43549 91429,91559,91533
 2.7000e+000 91585 -3.5398e+000 -5.3129e+001  7.9161e-001 43549 91403,91559,91429
 2.7000e+000 92006 -8.6100e+001 -2.2553e+002  5.7293e+000 43059 91781,91885,91807
 2.7000e+000 91983 -8.7203e+001 -2.0700e+002  3.8740e+001 43059 91781,91911,91885
 2.7000e+000 91960 -7.7247e+001 -2.2075e+002  3.8123e+000 43059 91807,91885,91833
 2.7000e+000 91937 -4.7023e+001 -2.0953e+002 -1.5900e+000 43059 91833,91885,91859
 2.7000e+000 92561 -7.7363e+001 -1.6739e+002 -1.8774e+001 42598 92584,92215,92189
 2.7000e+000 92538 -8.3005e+001 -1.9171e+002 -1.8795e+001 42598 92656,92584,92189
 2.7000e+000 92515 -7.2662e+001 -2.1817e+002 -5.2947e+000 42598 92656,92189,92397
 2.7000e+000 92492 -9.0035e+001 -1.4620e+002 -2.0516e+001 42598 92241,92319,92293
 2.7000e+000 92469 -8.7359e+001 -1.8293e+002  1.0332e+001 42598 92319,92397,92371
 2.7000e+000 92446 -4.2546e+001 -2.1987e+002  7.6893e+001 42598 92319,92371,92345
 2.7000e+000 92423 -9.6506e+001 -1.5579e+002 -3.3162e+001 42598 92241,92293,92267
 2.7000e+000 92610 -7.9702e+001 -1.6660e+002 -1.6086e+001 42598 92241,92215,92584
 2.7000e+000 92633 -7.4155e+001 -1.5451e+002 -2.2218e+001 42598 92241,92584,92319
 2.7000e+000 92682 -7.3668e+001 -1.5605e+002 -1.2950e+001 42598 92319,92584,92656
 2.7000e+000 92705 -5.7728e+001 -1.7451e+002 -2.7951e+000 42598 92319,92656,92397
 2.7000e+000 92953 -8.1488e+001 -2.4360e+002  1.5125e+001 42094 92976,92806,92780
 2.7000e+000 92930 -9.2844e+001 -2.2869e+002  8.4720e-001 42094 92976,92780,92754
 2.7000e+000 92907 -6.0718e+000 -2.3686e+002 -4.4977e-001 42094 93048,92832,92806
 2.7000e+000 92884 -1.2473e+002 -2.2120e+002 -1.7491e+001 42094 92728,92858,92754
 2.7000e+000 93002 -4.6279e+001 -2.2417e+002  7.5567e+000 42094 93048,92806,92976
 2.7000e+000 93025 -8.2916e+001 -2.2295e+002 -5.1188e+000 42094 92858,92976,92754
 2.7000e+000 93074 -6.1517e+001 -2.5846e+002 -3.0112e+000 42094 92858,92832,93048
 2.7000e+000 93097 -9.4905e+001 -2.4215e+002  1.7916e+000 42094 92858,93048,92976
 2.7000e+000 93605 -9.1868e+001 -2.8533e+002 -7.9819e+000 41846 93628,93412,93386
 2.7000e+000 93582 -7.6933e+001 -2.2119e+002 -3.1278e+000 41846 93628,93386,93308
 2.7000e+000 93559 -1.0326e+002 -2.2224e+002 -3.0128e+001 41846 93700,93464,93438
 2.7000e+000 93536 -1.1504e+002 -2.7659e+002  1.5914e+001 41846 93308,93386,93334
 2.7000e+000 93513 -1.1255e+002 -2.6763e+002  1.1785e+001 41846 93334,93386,93360
 2.7000e+000 93490 -1.0148e+002 -1.8041e+002 -2.3054e+001 41846 93282,93464,93308
 2.7000e+000 93654 -7.4528e+001 -2.3140e+002 -1.9653e+001 41846 93438,93412,93628
 2.7000e+000 93677 -1.0374e+002 -2.2492e+002 -1.6435e+001 41846 93700,93438,93628
 2.7000e+000 93726 -9.7112e+001 -2.0536e+002 -2.8204e+001 41846 93308,93464,93700
 2.7000e+000 93749 -9.5255e+001 -2.0266e+002 -1.4675e+001 41846 93308,93700,93628
 2.7000e+000 94255 -7.1270e+001 -2.2720e+002  1.6284e+001 41385 93958,94114,94088
 2.7000e+000 94232 -6.0829e+001 -2.4308e+002  8.4982e+000 41385 93932,94114,93958
 2.7000e+000 94209 -1.2766e+002 -2.6456e+002  4.5721e+001 41385 93958,94088,94062
 2.7000e+000 94186 -1.3655e+002 -1.8914e+002  3.4860e+001 41385 93958,94062,93984
 2.7000e+000 94163 -1.1381e+002 -1.8455e+002  3.1158e+001 41385 93984,94062,94036
 2.7000e+000 94140 -7.8394e+001 -2.5366e+002  4.4742e+001 41385 93984,94036,94010
 2.7000e+000 94476 -1.4493e+001 -3.1323e+002  2.1525e+001 40881 94326,94378,94352
 2.7000e+000 94453 -4.7481e+001 -2.5443e+002  2.2918e+001 40881 94300,94378,94326
 2.7000e+000 94430 -5.9328e+001 -2.3214e+002  2.6163e+000 40881 94300,94404,94378
 2.7000e+000 94626 -7.4499e+001 -1.7694e+002  9.7178e+000 40591 94649,94551,94525
 2.7000e+000 94603 -1.6033e+001 -1.3604e+002  2.2007e+000 40591 94781,94577,94551
 2.7000e+000 94675 -8.3958e+000 -1.4200e+002 -8.6819e+000 40591 94781,94551,94649
 2.7000e+000 94807  1.9897e+000 -1.2657e+002  5.6763e+000 40591 94499,94577,94781
 2.7000e+000 94830  8.0390e+000 -1.3450e+002 -6.6644e+000 40591 94499,94781,94649
 2.7000e+000 95336 -1.4311e+002 -2.0704e+002 -3.0278e+001 40187 95013,95169,95039
 2.7000e+000 95313 -7.3325e+001 -1.8930e+002 -1.6920e+001 40187 95013,95195,95169
 2.7000e+000 95290 -5.6443e+001 -2.1646e+002  5.7822e+000 40187 95039,95143,95065
 2.7000e+000 95267 -1.5457e+002 -2.4998e+002 -4.2700e+001 40187 95039,95169,95143
 2.7000e+000 95244 -1.1429e+002 -3.0523e+002 -2.2561e+001 40187 95091,95143,95117
 2.7000e+000 95221 -4.9078e+001 -2.0705e+002  9.0350e+000 40187 95065,95143,95091
 2.7000e+000 95665 -8.0855e+001 -1.9001e+002  3.1513e+001 39626 95466,95570,95544
 2.7000e+000 95642 -9.8554e+001 -1.6911e+002  2.2376e+001 39626 95440,95570,95466
 2.7000e+000 95619 -7.1679e+001 -1.9128e+002  1.0178e+001 39626 95466,95544,95492
 2.7000e+000 95596 -1.2453e+002 -1.8552e+002  9.2289e+000 39626 95492,95544,95518
 2.7000e+000 95913 -8.1839e+001 -1.9693e+002 -3.0940e+001 39136 96080,95936,95766
 2.7000e+000 95890 -5.7177e+001 -2.1402e+002 -1.7043e+001 39136 95936,95714,95688
 2.7000e+000 95867 -1.5254e+002 -2.1228e+002  8.1233e+000 39136 96008,95792,95766
 2.7000e+000 95844 -6.4906e+001 -1.9058e+002 -2.5179e+001 39136 96080,95766,95740
 2.7000e+000 95962 -1.1905e+002 -2.2072e+002 -1.9850e+001 39136 96008,95766,95936
 2.7000e+000 95985 -7.3463e+001 -2.5953e+002 -4.4311e+000 39136 95818,95936,95688
 2.7000e+000 96034 -7.1291e+001 -1.7686e+002  1.3953e+001 39136 95818,95792,96008
 2.7000e+000 96057 -6.2473e+001 -1.9475e+002 -1.3651e+001 39136 95818,96008,95936
 2.7000e+000 96106 -7.4415e+001 -1.9781e+002 -7.3403e+000 39136 95714,95936,96080
 2.7000e+000 96129 -4.7015e+001 -1.8915e+002 -3.3620e+000 39136 95714,96080,95740
 2.7000e+000 96350 -5.6733e+001 -1.6954e+002 -6.1674e+000 38824 96200,96278,96252
 2.7000e+000 96327 -6.5554e+001 -1.7272e+002 -6.3741e+000 38824 96174,96278,96200
 2.7000e+000 96304 -5.7979e+001 -1.7246e+002 -5.5243e+000 38824 96200,96252,96226
 2.7000e+000 96830 -1.1208e+002 -1.9069e+002 -1.7589e+001 38320 97069,96536,96484
 2.7000e+000 96807 -1.1015e+002 -1.9337e+002 -1.7457e+001 38320 97069,96484,96853
 2.7000e+000 96784 -1.2097e+002 -2.0933e+002  3.5623e+000 38320 96853,96484,96458
 2.7000e+000 96761 -6.4139e+001 -1.6351e+002 -1.9413e+001 38320 96925,96640,96614
 2.7000e+000 96738 -1.0251e+002 -1.7064e+002 -7.5221e+000 38320 96997,96666,96640
 2.7000e+000 96715 -8.9575e+001 -2.2451e+002 -6.9706e+000 38320 97141,96588,96562
 2.7000e+000 96692 -1.4032e+002 -2.1953e+002 -5.0203e+000 38320 96484,96536,96510
 2.7000e+000 96879 -1.0884e+002 -2.0309e+002 -9.6175e+000 38320 97141,96562,96853
 2.7000e+000 96902 -9.8277e+001 -1.9715e+002 -5.8617e+000 38320 96925,96614,96853
 2.7000e+000 96951 -1.0063e+002 -1.6906e+002 -8.6474e+000 38320 96997,96640,96925
 2.7000e+000 96974 -9.7418e+001 -1.6622e+002 -5.5375e+000 38320 96458,96925,96853
 2.7000e+000 97023 -1.1130e+002 -1.7263e+002 -2.8875e+000 38320 96458,96666,96997
 2.7000e+000 97046 -1.0441e+002 -1.6912e+002 -4.1521e+000 38320 96458,96997,96925
 2.7000e+000 97095 -1.1670e+002 -1.8590e+002 -5.1259e+000 38320 96562,96536,97069
 2.7000e+000 97118 -1.0535e+002 -1.9176e+002 -1.5453e+001 38320 96562,97069,96853
 2.7000e+000 97167 -5.5337e+001 -2.0502e+002 -1.6043e+001 38320 96614,96588,97141
 2.7000e+000 97190 -8.7224e+001 -1.9276e+002 -1.6196e+001 38320 96614,97141,96853
 2.7000e+000 97519 -7.9913e+001 -2.0661e+002  4.8900e+001 37766 97542,97398,97372
 2.7000e+000 97496 -1.0720e+002 -1.8425e+002  2.6375e+001 37766 97542,97372,97346
 2.7000e+000 97473 -9.7371e+001 -1.9629e+002  6.4538e+000 37766 97294,97424,97346
 2.7000e+000 97450 -1.1100e+002 -2.3901e+002  2.1126e-001 37766 97294,97346,97320
 2.7000e+000 97568 -3.5464e+001 -1.9639e+002  3.7398e+001 37766 97424,97398,97542
 2.7000e+000 97591 -7.5305e+001 -1.7546e+002  1.5522e+001 37766 97424,97542,97346
 2.7000e+000 98048 -9.4198e+001 -1.4738e+002 -4.8162e+001 37262 98071,97878,97852
 2.7000e+000 98025 -7.9224e+001 -1.7433e+002 -2.1034e+001 37262 98071,97852,97800
 2.7000e+000 98002 -9.7671e+001 -2.1706e+002 -1.6497e+001 37262 97800,97852,97826
 2.7000e+000 97979 -9.8105e+001 -1.8590e+002  7.4473e+000 37262 97800,97930,97904
 2.7000e+000 97956 -6.8678e+001 -2.2611e+002  1.5994e+001 37262 97774,97930,97800
 2.7000e+000 98097 -1.3584e+002 -1.6736e+002 -3.6376e+001 37262 97904,97878,98071
 2.7000e+000 98120 -1.0162e+002 -1.9513e+002 -1.1264e+001 37262 97904,98071,97800
 2.7000e+000 98449 -4.1810e+001 -1.3052e+002 -1.7181e+001 36950 98472,98302,98250
 2.7000e+000 98426 -2.0484e+001 -1.2302e+002 -2.1397e+001 36950 98472,98250,98354
 2.7000e+000 98403 -7.1236e+001 -1.4622e+002  1.9303e+001 36950 98250,98302,98276
 2.7000e+000 98380 -1.3700e+001 -9.3595e+001  1.4178e+001 36950 98224,98354,98250
 2.7000e+000 98498 -2.6042e+001 -1.4901e+002 -4.4196e+000 36950 98328,98302,98472
 2.7000e+000 98521 -7.8986e-001 -1.3776e+002 -1.2224e+001 36950 98328,98472,98354
 2.7000e+000 99125 -1.2861e+002 -1.2919e+002  1.6215e+001 36296 98704,98756,98730
 2.7000e+000 99102 -9.1593e+001 -1.4202e+002  2.8083e+000 36296 98704,98938,98756
 2.7000e+000 99079 -6.6384e+001 -1.5427e+002 -5.0910e+000 36296 99148,98938,98912
 2.7000e+000 99056 -7.4188e+001 -1.5433e+002  2.9779e+001 36296 99292,99220,98782
 2.7000e+000 99033 -5.8399e+001 -1.6706e+002  5.5468e-001 36296 99148,98912,98834
 2.7000e+000 99010 -6.6170e+001 -1.3021e+002  2.9958e+001 36296 99292,98782,98756
 2.7000e+000 98987 -5.5596e+001 -2.9936e+002 -6.0026e+001 36296 98834,98912,98886
 2.7000e+000 98964 -1.0153e+002 -4.3155e+002 -7.6209e+001 36296 98834,98886,98860
 2.7000e+000 99174 -7.9523e+001 -1.8000e+002  1.5764e+000 36296 99220,98938,99148
 2.7000e+000 99197 -5.6713e+001 -2.0052e+002  1.6878e+001 36296 98808,99148,98834
 2.7000e+000 99246 -6.5516e+001 -1.3370e+002  7.6894e+001 36296 98808,98782,99220
 2.7000e+000 99269 -2.5698e+001 -1.3156e+002  2.3391e+001 36296 98808,99220,99148
 2.7000e+000 99318 -6.9917e+001 -1.2734e+002  1.2568e+001 36296 98938,99220,99292
 2.7000e+000 99341 -7.1955e+001 -1.3173e+002  1.3958e+001 36296 98938,99292,98756
 2.7000e+000 99719 -1.0283e+002 -2.2520e+002  5.8460e-001 35742 99742,99471,99601
 2.7000e+000 99696 -1.0587e+002 -1.7448e+002  2.3301e+001 35742 99445,99601,99471
 2.7000e+000 99673 -9.7457e+001 -2.1293e+002 -8.9220e+000 35742 99742,99601,99575
 2.7000e+000 99650 -8.4034e+001 -2.6488e+002 -7.4418e+000 35742 99814,99549,99523
 2.7000e+000 99627 -6.2749e+001 -2.0439e+002 -3.0073e+000 35742 99471,99523,99497
 2.7000e+000 99768 -8.1007e+001 -2.1982e+002  4.5490e+000 35742 99523,99471,99742
 2.7000e+000 99791 -9.6515e+001 -2.4422e+002 -6.4241e+000 35742 99814,99523,99742
 2.7000e+000 99840 -8.1843e+001 -2.3932e+002 -1.5341e+001 35742 99575,99549,99814
 2.7000e+000 99863 -8.9911e+001 -2.1245e+002 -1.3670e+001 35742 99575,99814,99742
 2.7000e+000 100111 -7.2040e+001 -1.8064e+002  1.4504e+001 35302 100134,99990,99938
 2.7000e+000 100088 -5.7483e+001 -1.6412e+002  4.9878e+000 35302 100134,99938,99912
 2.7000e+000 100065 -5.7358e+001 -1.6476e+002 -3.6776e+000 35302 100206,99886,100016
 2.7000e+000 100042 -9.8284e+001 -1.6850e+002  9.0906e+000 35302 99938,99990,99964
 2.7000e+000 100160 -5.2704e+001 -1.7324e+002  4.3990e+000 35302 100016,99990,100134
 2.7000e+000 100183 -5.4598e+001 -1.6706e+002 -3.6003e+000 35302 100206,100016,100134
 2.7000e+000 100232 -5.9761e+001 -1.6753e+002 -1.9608e+000 35302 99912,99886,100206
 2.7000e+000 100255 -5.7178e+001 -1.7041e+002 -1.9727e+000 35302 99912,100206,100134
 2.7000e+000 100586 -5.5357e+001 -1.1751e+002  1.4708e+000 35012 100609,100387,100361
 2.7000e+000 100563 -5.5506e+001 -1.2580e+002  6.1335e+000 35012 100609,100361,100465
 2.7000e+000 100540 -8.3440e+001 -1.5589e+002  1.8542e+001 35012 100361,100491,100465
 2.7000e+000 100517 -4.5398e+001 -1.2732e+002  1.6428e+001 35012 100413,100465,100439
 2.7000e+000 100635 -5.7997e+001 -1.1903e+002  1.0216e+001 35012 100413,100387,100609
 2.7000e+000 100658 -5.9991e+001 -1.3177e+002  1.4701e+001 35012 100413,100609,100465
 2.7000e+000 100987 -7.6430e+001 -1.5888e+002  1.1829e+001 34700 100788,100866,100814
 2.7000e+000 100964 -6.2569e+001 -1.4995e+002  1.6266e+001 34700 101010,100866,100788
 2.7000e+000 100941 -6.4873e+001 -1.5791e+002  3.1664e+001 34700 100762,100892,100866
 2.7000e+000 100918 -8.4556e+001 -1.7320e+002 -2.8392e+000 34700 100814,100866,100840
 2.7000e+000 101036 -5.1287e+001 -1.4208e+002  2.2736e+001 34700 100762,100866,101010
 2.7000e+000 101493 -1.0520e+002 -2.0981e+002 -1.8678e+001 34132 101516,101349,101297
 2.7000e+000 101470 -1.2966e+002 -2.5592e+002 -3.1165e+001 34132 101588,101516,101297
 2.7000e+000 101447 -1.3035e+002 -2.7073e+002 -4.6472e+001 34132 101588,101297,101245
 2.7000e+000 101424 -7.7385e+001 -3.1615e+002 -4.3705e+001 34132 101245,101297,101271
 2.7000e+000 101401 -1.1411e+002 -2.1084e+002 -2.1533e+001 34132 101297,101349,101323
 2.7000e+000 101542 -1.0837e+002 -2.4620e+002 -1.4917e+001 34132 101375,101349,101516
 2.7000e+000 101565 -9.6980e+001 -2.4597e+002 -1.6006e+001 34132 101375,101516,101219
 2.7000e+000 101614 -1.0046e+002 -2.5736e+002 -1.5516e+001 34132 101219,101516,101588
 2.7000e+000 101637 -1.1536e+002 -2.7180e+002 -3.0100e+001 34132 101219,101588,101245
 2.7000e+000 101858 -2.1221e+001 -1.8490e+002  1.3394e+001 33720 101708,101786,101760
 2.7000e+000 101835 -5.0653e+001 -2.1900e+002 -2.5709e-001 33720 101682,101786,101708
 2.7000e+000 101812 -6.2602e+001 -2.0441e+002  7.5701e+000 33720 101708,101760,101734
 2.7000e+000 102128 -1.5798e+001 -2.1926e+002 -5.8330e+000 33130 101903,102007,101929
 2.7000e+000 102105 -2.0901e+001 -2.5388e+002  8.4779e+000 33130 101903,102033,102007
 2.7000e+000 102082 -3.9056e+000 -2.6397e+002 -5.2741e+001 33130 101929,102007,101955
 2.7000e+000 102059 -2.9576e+001 -1.8442e+002  4.6392e+000 33130 101955,102007,101981
 2.7000e+000 102461 -8.3090e+001 -2.0134e+002 -1.6739e+001 32840 102236,102340,102262
 2.7000e+000 102438 -7.0152e+001 -1.4113e+002  5.4630e+000 32840 102236,102366,102340
 2.7000e+000 102415 -4.7363e+001 -1.8976e+002 -1.6127e+001 32840 102262,102340,102288
 2.7000e+000 102392 -1.0788e+002 -2.0519e+002 -4.3361e+001 32840 102288,102340,102314
 2.7000e+000 102997 -6.9742e+001 -1.2116e+002  3.3849e+001 32493 102749,102879,102853
 2.7000e+000 102974 -5.5955e+001 -9.4483e+001  2.3430e+001 32493 102723,102879,102749
 2.7000e+000 102951 -8.3184e+001 -1.4826e+002  2.2672e+001 32493 102749,102801,102775
 2.7000e+000 102928 -8.8745e+001 -1.4687e+002  2.1569e+001 32493 102749,102853,102801
 2.7000e+000 102905 -8.3683e+001 -1.3703e+002  1.9252e+001 32493 102801,102853,102827
 2.7000e+000 103454 -9.3097e+001 -1.6887e+002 -8.7606e+000 32089 103206,103336,103310
 2.7000e+000 103431 -7.9272e+001 -1.6929e+002  1.0042e+000 32089 103180,103336,103206
 2.7000e+000 103408 -1.0084e+002 -1.9706e+002 -2.7725e+001 32089 103206,103284,103258
 2.7000e+000 103385 -1.4093e+002 -2.0339e+002 -3.3108e+001 32089 103206,103310,103284
 2.7000e+000 103362 -8.7976e+001 -1.5342e+002  8.6184e+000 32089 103206,103258,103232
 2.7000e+000 103783 -1.4705e+002 -2.1247e+002 -1.7587e+001 31742 103558,103662,103584
 2.7000e+000 103760 -1.3144e+002 -1.8996e+002 -3.6438e+001 31742 103558,103688,103662
 2.7000e+000 103737 -1.0225e+002 -1.7634e+002 -3.5499e+001 31742 103584,103662,103636
 2.7000e+000 103714 -9.1653e+001 -1.8616e+002 -4.1736e+001 31742 103584,103636,103610
 2.7000e+000 104112 -1.4201e+001 -1.7505e+002  3.7373e+001 31402 103939,103991,103965
 2.7000e+000 104089 -5.2787e+001 -1.4942e+002  1.5340e+001 31402 103913,103991,103939
 2.7000e+000 104066 -7.4966e+001 -1.6908e+002  5.1092e+000 31402 103913,104017,103991
 2.7000e+000 104043 -9.0446e+001 -1.5135e+002 -6.1732e+000 31402 103887,104017,103913
 2.7000e+000 104569 -1.4326e+002 -2.4654e+002  3.5075e+000 30998 104321,104425,104373
 2.7000e+000 104546 -1.5173e+002 -2.4567e+002 -3.3811e+000 30998 104321,104451,104425
 2.7000e+000 104523 -1.2098e+002 -2.0787e+002  2.5351e+001 30998 104373,104425,104399
 2.7000e+000 104500 -1.3284e+002 -2.7069e+002 -1.5619e+001 30998 104295,104451,104321
 2.7000e+000 104477 -1.8466e+002 -2.8502e+002  4.4431e+001 30998 104321,104373,104347
 2.7000e+000 104947 -1.2216e+002 -2.0040e+002 -2.6376e+001 30608 104751,104803,104777
 2.7000e+000 104924 -7.9855e+001 -2.0643e+002 -1.0632e+001 30608 104725,104803,104751
 2.7000e+000 104901 -1.1637e+002 -1.9890e+002  9.5898e+000 30608 104699,104803,104725
 2.7000e+000 104878 -1.1680e+002 -2.0073e+002  1.2000e+001 30608 104673,104803,104699
 2.7000e+000 104855 -9.2055e+001 -1.9782e+002 -9.6217e+000 30608 104673,104829,104803
 2.7000e+000 105276 -7.1969e+001 -1.7608e+002  1.8416e+001 30204 105427,105129,105077
 2.7000e+000 105253 -3.4735e+001 -1.7813e+002  5.7597e+001 30204 105427,105077,105051
 2.7000e+000 105230 -5.7823e+001 -1.8609e+002  1.1492e+001 30204 105077,105129,105103
 2.7000e+000 105207 -1.3378e+002 -1.6393e+002  1.8641e+001 30204 105299,105181,105155
 2.7000e+000 105325 -1.0534e+002 -1.5046e+002  1.3471e+001 30204 105129,105181,105299
 2.7000e+000 105453 -9.4021e+001 -1.8607e+002  2.0930e+001 30204 105181,105129,105427
 2.7000e+000 105476 -1.0409e+002 -2.0907e+002  6.3680e+001 30204 105181,105427,105051
 2.7000e+000 105903 -6.2240e+001 -1.5771e+002 -1.1867e+001 29700 105606,105762,105736
 2.7000e+000 105880 -8.1208e+001 -1.6146e+002  1.6639e+000 29700 105580,105762,105606
 2.7000e+000 105857 -1.0141e+002 -2.0067e+002 -1.3582e+001 29700 105606,105710,105632
 2.7000e+000 105834 -8.1309e+001 -1.6905e+002 -4.6786e+000 29700 105606,105736,105710
 2.7000e+000 105811 -8.1156e+001 -1.8633e+002 -2.3696e+001 29700 105632,105710,105684
 2.7000e+000 105788 -7.4910e+001 -1.6999e+002  3.9578e+000 29700 105632,105684,105658
 2.7000e+000 106102 -4.4792e+001 -2.0539e+002  4.5578e+000 29124 105978,106030,106004
 2.7000e+000 106079 -7.2286e+001 -2.1681e+002 -8.4919e-001 29124 105926,106030,105978
 2.7000e+000 106056 -6.4829e+001 -2.1635e+002  2.3281e+001 29124 105926,105978,105952
 2.7000e+000 106301 -4.2580e+001 -1.9668e+002  1.5474e+000 28712 106151,106229,106203
 2.7000e+000 106278 -5.5153e+001 -2.1763e+002 -8.9653e+000 28712 106125,106229,106151
 2.7000e+000 106255 -4.4733e+001 -2.0955e+002  1.4366e+001 28712 106151,106203,106177
 2.7000e+000 106551 -5.9866e+001 -2.4120e+002  5.3694e+000 28258 106352,106404,106378
 2.7000e+000 106528 -8.1589e+001 -2.4437e+002 -1.2186e+000 28258 106352,106456,106404
 2.7000e+000 106505 -6.7974e+001 -2.5617e+002 -5.4826e+000 28258 106326,106456,106352
 2.7000e+000 106482 -8.0978e+001 -2.3285e+002  4.9005e+000 28258 106404,106456,106430
 2.7000e+000 107012 -8.3653e+001 -2.1123e+002  4.2257e+001 27818 107035,106790,106764
 2.7000e+000 106989 -7.1084e+001 -1.9578e+002  1.6425e+001 27818 107035,106764,106868
 2.7000e+000 106966 -5.4356e+001 -2.3196e+002  2.0619e+001 27818 107107,106842,106816
 2.7000e+000 106943 -1.1188e+002 -1.8512e+002  1.0808e+001 27818 106738,106868,106764
 2.7000e+000 106920 -1.0583e+002 -1.5674e+002  3.5096e+001 27818 106738,106894,106868
 2.7000e+000 107061 -3.4152e+001 -1.9928e+002  4.6508e+001 27818 106816,106790,107035
 2.7000e+000 107084 -6.1619e+001 -2.2009e+002  2.1966e+001 27818 107107,106816,107035
 2.7000e+000 107133 -6.0790e+001 -2.1297e+002  1.1073e+001 27818 106868,106842,107107
 2.7000e+000 107156 -6.1853e+001 -1.9251e+002  1.5683e+001 27818 106868,107107,107035
 2.7000e+000 107613 -1.7819e+001 -1.5655e+002  3.1201e+001 27312 107339,107469,107365
 2.7000e+000 107590  4.4369e+000 -1.4753e+002  2.7950e+001 27312 107339,107495,107469
 2.7000e+000 107567 -2.2663e+001 -1.4978e+002  1.3655e+001 27312 107391,107469,107443
 2.7000e+000 107544 -1.7952e+001 -1.6299e+002  1.1628e+001 27312 107365,107469,107391
 2.7000e+000 107521 -6.8114e+001 -1.6442e+002  4.0853e+000 27312 107391,107443,107417
 2.7000e+000 107991 -9.2816e+001 -2.3881e+002  3.5168e+000 26858 108086,108014,107795
 2.7000e+000 107968 -1.0025e+002 -2.5199e+002 -2.5954e+001 26858 108014,107717,107873
 2.7000e+000 107945 -1.0614e+002 -2.4919e+002  1.3062e+001 26858 108158,108086,107795
 2.7000e+000 107922 -8.7055e+001 -2.4541e+002  1.0783e+001 26858 108158,107795,107769
 2.7000e+000 107899 -6.1072e+001 -3.0389e+002  4.1884e+001 26858 107821,107873,107847
 2.7000e+000 108040 -9.4109e+001 -2.7023e+002  1.0759e+001 26858 107821,107795,108014
 2.7000e+000 108063 -4.6494e+001 -2.6140e+002 -6.3748e+000 26858 107821,108014,107873
 2.7000e+000 108112 -1.2788e+002 -2.5222e+002  8.8503e+000 26858 107717,108014,108086
 2.7000e+000 108135 -1.0705e+002 -2.6379e+002  2.6753e+001 26858 107717,108086,107743
 2.7000e+000 108184 -8.3391e+001 -2.4962e+002  1.9580e+001 26858 107743,108086,108158
 2.7000e+000 108207 -7.5620e+001 -2.5397e+002  1.9118e+001 26858 107743,108158,107769
 2.7000e+000 108634 -1.1680e+002 -2.3236e+002  1.2163e+000 26404 108657,108415,108363
 2.7000e+000 108611 -1.2993e+002 -2.4897e+002  2.2678e+001 26404 108657,108363,108337
 2.7000e+000 108588 -1.1458e+002 -2.2898e+002  2.6814e+001 26404 108729,108311,108467
 2.7000e+000 108565 -1.3485e+002 -2.6537e+002 -1.7171e+000 26404 108801,108441,108415
 2.7000e+000 108542 -1.6953e+002 -2.5451e+002  3.4688e+001 26404 108311,108493,108467
 2.7000e+000 108519 -8.4169e+001 -2.3080e+002  2.1477e+000 26404 108363,108415,108389
 2.7000e+000 108683 -1.5549e+002 -2.4538e+002  1.1263e+000 26404 108801,108415,108657
 2.7000e+000 108706 -1.4967e+002 -2.3987e+002  2.0398e+001 26404 108729,108467,108657
 2.7000e+000 108755 -9.1300e+001 -2.4490e+002  2.6970e+001 26404 108337,108311,108729
 2.7000e+000 108778 -1.0931e+002 -2.4352e+002  2.0258e+001 26404 108337,108729,108657
 2.7000e+000 108827 -1.5583e+002 -3.0368e+002 -1.3387e+001 26404 108467,108441,108801
 2.7000e+000 108850 -1.6777e+002 -2.7017e+002 -1.0024e+001 26404 108467,108801,108657
 2.7000e+000 109228 -9.8567e+001 -2.1951e+002 -4.1342e+000 26064 109006,109084,109058
 2.7000e+000 109205 -7.8794e+001 -2.0315e+002  8.4193e+000 26064 108980,109084,109006
 2.7000e+000 109182 -9.1089e+001 -2.0001e+002  1.4623e+000 26064 108980,109110,109084
 2.7000e+000 109159 -9.6488e+001 -2.2377e+002 -7.0901e-001 26064 109006,109058,109032
 2.7000e+000 109136  2.1763e+001 -1.8063e+002  2.0101e+001 26064 108954,109110,108980
 2.7000e+000 109427 -3.8643e+001 -2.0335e+002 -4.2555e+001 25660 109303,109355,109329
 2.7000e+000 109404 -6.2553e+001 -2.5043e+002 -1.2268e+001 25660 109277,109355,109303
 2.7000e+000 109381 -4.8533e+001 -2.3191e+002 -4.4293e+000 25660 109251,109355,109277
 2.7000e+000 109577  4.3803e+000 -8.2000e+001  6.3303e+001 25306 109476,109528,109502
 2.7000e+000 109554  2.4560e+001 -1.0934e+002  1.2215e+001 25306 109450,109528,109476
 2.7000e+000 109778 -7.3442e+001 -2.1230e+002  5.7911e+000 24944 109628,109706,109654
 2.7000e+000 109755 -8.2135e+001 -2.1098e+002 -5.7562e-001 24944 109602,109706,109628
 2.7000e+000 109732 -6.5896e+001 -1.9988e+002  7.1735e-001 24944 109654,109706,109680
 2.7000e+000 110126 -7.8965e+001 -2.7734e+002  1.7052e+001 24440 110149,109907,109855
 2.7000e+000 110103 -8.7347e+001 -2.8658e+002  2.1489e+001 24440 110149,109855,109985
 2.7000e+000 110080 -5.6621e+001 -2.4685e+002  5.8273e+000 24440 109855,109907,109881
 2.7000e+000 110057 -5.8166e+001 -2.3179e+002  6.5413e+001 24440 109829,109985,109855
 2.7000e+000 110034 -8.0840e+001 -2.7862e+002  2.0641e+000 24440 109907,109959,109933
 2.7000e+000 110011 -1.1346e+002 -2.6579e+002  2.0343e+001 24440 109803,109985,109829
 2.7000e+000 110175 -8.1761e+001 -2.6501e+002  7.4342e+000 24440 109959,109907,110149
 2.7000e+000 110198 -9.5565e+001 -2.7639e+002  1.3182e+001 24440 109959,110149,109985
 2.7000e+000 110301 -3.5484e+000 -2.8179e+002 -3.6814e+001 24028 110223,110275,110249
 2.7000e+000 110573 -2.1812e+001 -1.3810e+002  8.4467e+000 23467 110400,110452,110426
 2.7000e+000 110550 -4.6669e+001 -1.8085e+002 -1.8135e+000 23467 110374,110452,110400
 2.7000e+000 110527 -4.3969e+001 -1.7962e+002  1.2879e+000 23467 110348,110452,110374
 2.7000e+000 110504 -2.9559e+001 -1.7693e+002 -1.9956e+000 23467 110348,110478,110452
 2.7000e+000 111004 -1.3050e+002 -2.7520e+002 -3.0895e+001 22963 111027,110733,110707
 2.7000e+000 110981 -1.2804e+002 -2.6103e+002  1.0104e+001 22963 111027,110707,110681
 2.7000e+000 110958 -6.5275e+001 -2.3242e+002 -2.4827e+001 22963 111099,110759,110733
 2.7000e+000 110935 -7.8363e+001 -2.2958e+002 -1.9878e+001 22963 111171,110863,110811
 2.7000e+000 110912 -4.5320e+001 -1.7329e+002 -2.7468e+001 22963 110759,110811,110785
 2.7000e+000 110889 -8.3362e+001 -2.4792e+002 -2.1975e+001 22963 110811,110863,110837
 2.7000e+000 111053 -9.0529e+001 -2.4781e+002 -1.7654e+001 22963 111099,110733,111027
 2.7000e+000 111076 -7.5212e+001 -2.4631e+002 -1.6663e+001 22963 111171,110811,111027
 2.7000e+000 111125 -6.4897e+001 -2.3029e+002 -3.9204e+001 22963 110811,110759,111099
 2.7000e+000 111148 -6.9789e+001 -2.2965e+002 -3.5360e+001 22963 110811,111099,111027
 2.7000e+000 111197 -8.1109e+001 -1.9899e+002 -2.5872e+001 22963 110681,110863,111171
 2.7000e+000 111220 -8.8766e+001 -2.2160e+002 -1.4274e+001 22963 110681,111171,111027
 2.7000e+000 111726 -1.2149e+002 -2.4608e+002  5.0914e+000 22459 111749,111507,111429
 2.7000e+000 111703 -1.1429e+002 -2.4405e+002 -4.2896e+000 22459 111749,111429,111585
 2.7000e+000 111680 -1.0031e+002 -2.6512e+002 -2.4336e+000 22459 111403,111585,111429
 2.7000e+000 111657 -1.1692e+002 -2.6897e+002  7.9290e+000 22459 111507,111559,111533
 2.7000e+000 111634 -1.5957e+002 -2.3354e+002  1.2536e+001 22459 111455,111507,111481
 2.7000e+000 111611 -1.5933e+002 -2.3106e+002  1.7385e+001 22459 111429,111507,111455
 2.7000e+000 111775 -1.2250e+002 -2.6018e+002  1.2234e+001 22459 111559,111507,111749
 2.7000e+000 111798 -1.1444e+002 -2.5061e+002  3.1765e+000 22459 111559,111749,111585
 2.7000e+000 112046 -2.8847e+001 -2.0181e+002 -2.2232e+001 21898 112069,111925,111873
 2.7000e+000 112023 -2.0166e+001 -1.9304e+002  1.3675e+001 21898 112069,111873,111847
 2.7000e+000 112000 -6.6660e+001 -1.9723e+002 -3.5080e+000 21898 111821,111951,111847
 2.7000e+000 111977 -3.5607e+001 -1.8923e+002 -2.0203e+001 21898 111873,111925,111899
 2.7000e+000 112095 -8.1231e+001 -2.1747e+002 -4.0113e+001 21898 111951,111925,112069
 2.7000e+000 112118 -5.1950e+001 -2.0203e+002 -5.1237e+000 21898 111951,112069,111847
 2.7000e+000 112498 -9.6594e+001 -2.2717e+002 -1.9724e+001 21608 112521,112276,112224
 2.7000e+000 112475 -6.4471e+001 -2.3090e+002 -2.0498e-001 21608 112521,112224,112380
 2.7000e+000 112452 -6.9380e+001 -2.6030e+002  1.6485e+001 21608 112302,112380,112354
 2.7000e+000 112429 -1.0534e+002 -2.5368e+002 -1.6211e+001 21608 112224,112276,112250
 2.7000e+000 112406  2.9619e+001 -2.8225e+002 -1.2046e+001 21608 112302,112354,112328
 2.7000e+000 112547 -7.0260e+001 -1.9610e+002 -5.3079e+000 21608 112302,112276,112521
 2.7000e+000 112570 -4.9317e+001 -2.2167e+002  8.5243e+000 21608 112302,112521,112380
 2.7000e+000 112948 -1.1428e+002 -2.3711e+002 -5.6508e+000 20882 112971,112752,112700
 2.7000e+000 112925 -8.8749e+001 -2.2790e+002 -9.2468e+000 20882 112971,112700,112830
 2.7000e+000 112902 -1.4414e+002 -2.5251e+002  1.4711e+001 20882 112778,112830,112804
 2.7000e+000 112879 -8.2795e+001 -1.8538e+002 -1.3110e+001 20882 112674,112830,112700
 2.7000e+000 112856 -1.3735e+002 -2.4712e+002  2.4558e+000 20882 112700,112752,112726
 2.7000e+000 112997 -1.1437e+002 -2.3546e+002  8.6928e+000 20882 112778,112752,112971
 2.7000e+000 113020 -1.0003e+002 -2.3089e+002  4.4397e+000 20882 112778,112971,112830
 2.7000e+000 113526 -9.0254e+001 -2.3899e+002  6.2305e-001 20428 113255,113385,113333
 2.7000e+000 113503 -9.7335e+001 -2.6066e+002  5.5484e-001 20428 113229,113385,113255
 2.7000e+000 113480 -2.3444e+001 -2.3472e+002  1.2398e+000 20428 113255,113333,113281
 2.7000e+000 113457 -8.5771e+001 -2.5715e+002  1.7065e+000 20428 113203,113385,113229
 2.7000e+000 113434 -5.2840e+001 -2.4449e+002 -8.3332e+000 20428 113281,113333,113307
 2.7000e+000 113411 -1.0606e+002 -2.3649e+002  4.5877e+000 20428 113333,113385,113359
 2.7000e+000 113774 -1.3662e+001 -2.2537e+002  5.3906e+000 19917 113797,113601,113549
 2.7000e+000 113751 -3.6072e+001 -2.2887e+002  7.8780e+000 19917 113869,113797,113549
 2.7000e+000 113728 -3.5852e+001 -2.3127e+002  1.5550e+001 19917 113869,113549,113679
 2.7000e+000 113705 -1.9384e+001 -2.1922e+002  1.5152e+001 19917 113549,113601,113575
 2.7000e+000 113823 -3.7481e+001 -2.7508e+002 -4.0766e+000 19917 113627,113601,113797
 2.7000e+000 113846 -1.1611e+001 -2.1572e+002 -1.0762e+001 19917 113627,113797,113653
 2.7000e+000 113895 -3.3448e+001 -2.0722e+002 -2.4388e+000 19917 113653,113797,113869
 2.7000e+000 113918 -4.5831e+001 -2.1488e+002  7.8691e+000 19917 113653,113869,113679
 2.7000e+000 114166 -1.0660e+002 -2.3529e+002 -5.1794e+000 19413 113993,114045,114019
 2.7000e+000 114143 -1.0029e+002 -2.1936e+002  3.1572e-001 19413 113967,114045,113993
 2.7000e+000 114120 -8.2713e+001 -2.1265e+002  6.9818e+000 19413 113967,114071,114045
 2.7000e+000 114097 -7.4121e+001 -2.3681e+002 -6.5533e+000 19413 113941,114071,113967
 2.7000e+000 114438 -1.0125e+002 -2.6307e+002  2.4038e-001 19001 114213,114265,114239
 2.7000e+000 114415 -7.6218e+001 -2.0869e+002 -6.8335e+000 19001 114213,114343,114265
 2.7000e+000 114392 -1.1098e+002 -2.8620e+002 -1.4158e+001 19001 114265,114343,114317
 2.7000e+000 114369  9.0579e+000 -2.2857e+002  3.3728e+000 19001 114265,114317,114291
 2.7000e+000 114639 -1.4228e+002 -2.7302e+002 -2.0682e+001 18554 114489,114541,114515
 2.7000e+000 114616 -8.9103e+001 -3.0200e+002 -1.9936e+001 18554 114489,114567,114541
 2.7000e+000 114593 -1.3378e+002 -3.0214e+002 -2.9173e+001 18554 114463,114567,114489
 2.7000e+000 115043 -5.3988e+001 -2.2942e+002  7.6516e+000 18164 114795,114925,114821
 2.7000e+000 115020 -4.6435e+001 -2.4266e+002  1.3798e+001 18164 114769,114925,114795
 2.7000e+000 114997 -3.4702e+001 -2.4133e+002 -1.8680e+000 18164 115066,114873,114821
 2.7000e+000 114974 -3.1617e+001 -2.0771e+002 -6.8661e+000 18164 115066,114821,114925
 2.7000e+000 114951  1.8021e+000 -2.4157e+002 -1.9721e+001 18164 114821,114873,114847
 2.7000e+000 115092 -4.7906e+001 -2.1696e+002 -1.9759e+001 18164 114899,114873,115066
 2.7000e+000 115115 -3.1583e+001 -1.6563e+002 -2.6171e+001 18164 114899,115066,114925
 2.7000e+000 115265 -7.6883e+001 -2.6494e+002  2.4632e+000 17852 115164,115216,115190
 2.7000e+000 115242 -7.5290e+001 -2.7399e+002  2.6880e+000 17852 115138,115216,115164
 2.7000e+000 115464 -1.4741e+002 -3.4520e+002  5.0585e+000 17346 115288,115366,115340
 2.7000e+000 115441 -2.3800e+002 -2.7172e+002 -8.1052e+000 17346 115288,115392,115366
 2.7000e+000 115418 -1.3817e+002 -3.8813e+002 -1.2058e+001 17346 115288,115340,115314
 2.7000e+000 115736 -7.4933e+001 -2.3606e+002  8.3400e+000 16942 115563,115641,115615
 2.7000e+000 115713 -7.8689e+001 -2.3234e+002  4.2570e+000 16942 115511,115641,115563
 2.7000e+000 115690 -1.6976e+002 -2.7222e+002  1.3965e+001 16942 115563,115615,115589
 2.7000e+000 115667 -8.9314e+001 -2.5570e+002  8.0914e+000 16942 115511,115563,115537
 2.7000e+000 116091 -1.1451e+002 -2.7130e+002 -1.2747e+001 16388 115918,115970,115944
 2.7000e+000 116068 -9.5564e+001 -2.1240e+002 -8.3982e+000 16388 115918,115996,115970
 2.7000e+000 116045 -1.3084e+002 -2.7228e+002  7.8592e+000 16388 115892,115996,115918
 2.7000e+000 116022 -8.8066e+001 -2.5081e+002  2.7900e+001 16388 115866,115996,115892
 2.7000e+000 116192 -4.9153e+001 -2.9290e+002 -4.0381e+001 15810 116114,116166,116140
 2.7000e+000 116342 -6.0312e+001 -2.9537e+002  3.4885e+001 15419 116241,116293,116267
 2.7000e+000 116319 -8.5385e+001 -4.0128e+002 -5.0661e+000 15419 116215,116293,116241
 2.7000e+000 116445 -1.1900e+002 -2.3494e+002  9.8179e-002 421 116367,116419,116393
 2.8000e+000 68477 -1.6146e+002 -2.4840e+002  1.8299e-001 68018 68327,68379,68353
 2.8000e+000 68454 -1.7197e+002 -3.3847e+002  2.5914e+001 68018 68301,68379,68327
 2.8000e+000 68431 -6.4483e+001 -3.7366e+002  6.7254e+001 68018 68301,68405,68379
 2.8000e+000 68578 -1.0438e+002 -2.3857e+002  1.0512e+000 67820 68500,68552,68526
 2.8000e+000 68728 -1.1687e+002 -2.2545e+002 -3.6343e+000 67508 68601,68653,68627
 2.8000e+000 68705 -1.8711e+002 -1.7163e+002 -3.4469e+001 67508 68601,68679,68653
 2.8000e+000 68927 -2.2671e+001 -1.8992e+002 -5.5031e+000 67310 68777,68829,68803
 2.8000e+000 68904 -4.1681e+001 -2.1975e+002  3.1321e+000 67310 68751,68829,68777
 2.8000e+000 68881 -2.4198e+001 -2.1793e+002  1.5855e+001 67310 68751,68855,68829
 2.8000e+000 69386 -8.9940e+001 -2.5435e+002 -1.4891e+001 67020 69216,69268,69242
 2.8000e+000 69363 -8.1228e+001 -1.9532e+002 -2.7931e+001 67020 69138,69268,69216
 2.8000e+000 69340 -5.8466e+001 -1.6731e+002 -1.0770e+001 67020 69112,69268,69138
 2.8000e+000 69317 -1.1292e+002 -2.1112e+002  1.6303e+001 67020 69138,69190,69164
 2.8000e+000 69294 -1.1814e+002 -1.9071e+002 -1.2989e+001 67020 69138,69216,69190
 2.8000e+000 69536 -2.0076e+002 -4.8947e+002 -4.1717e+001 66708 69435,69487,69461
 2.8000e+000 69513 -1.4628e+002 -5.5129e+002 -8.1836e+000 66708 69409,69487,69435
 2.8000e+000 69735 -1.1647e+002 -2.5274e+002  6.0631e+000 66346 69585,69637,69611
 2.8000e+000 69712 -9.5095e+001 -2.4143e+002 -7.1416e-001 66346 69559,69637,69585
 2.8000e+000 69689 -8.5720e+001 -2.3986e+002 -2.3219e+001 66346 69559,69663,69637
 2.8000e+000 69985 -1.5345e+002 -2.7305e+002  5.1511e+000 66148 69786,69890,69864
 2.8000e+000 69962 -1.6310e+002 -2.7686e+002  5.3474e+000 66148 69760,69890,69786
 2.8000e+000 69939 -1.0566e+002 -2.6081e+002 -4.3414e+001 66148 69786,69864,69838
 2.8000e+000 69916 -1.3409e+002 -2.8696e+002 -1.0350e+001 66148 69786,69838,69812
 2.8000e+000 70137 -7.7638e+001 -3.0230e+002 -1.8415e+001 65950 70036,70088,70062
 2.8000e+000 70114 -6.5442e+001 -3.3365e+002  1.3233e+001 65950 70010,70088,70036
 2.8000e+000 70470 -5.3804e+001 -2.1742e+002  2.0008e+001 65546 70245,70323,70271
 2.8000e+000 70447 -3.4624e+001 -1.8517e+002  1.0457e+001 65546 70245,70375,70323
 2.8000e+000 70424 -4.8777e+001 -2.4155e+002  1.0167e+001 65546 70323,70375,70349
 2.8000e+000 70401 -4.3370e+001 -1.9999e+002  9.9740e+000 65546 70271,70323,70297
 2.8000e+000 70620 -7.5396e+001 -2.6464e+002  1.0490e+001 65348 70493,70545,70519
 2.8000e+000 70597 -6.9826e+001 -2.8321e+002  7.2769e+000 65348 70493,70571,70545
 2.8000e+000 70721 -1.3002e+002 -2.7109e+002  1.9485e+001 65150 70643,70695,70669
 2.8000e+000 71020 -8.2661e+001 -2.0391e+002  2.6055e-001 64952 71043,70850,70824
 2.8000e+000 70997 -7.2394e+001 -1.7794e+002  7.0191e-001 64952 71043,70824,70772
 2.8000e+000 70974 -8.1733e+001 -2.4187e+002  3.7927e+000 64952 71115,70746,70876
 2.8000e+000 70951 -5.8400e+001 -2.4153e+002 -3.4391e+000 64952 70746,70902,70876
 2.8000e+000 70928 -6.7533e+001 -1.4095e+002 -2.1508e+001 64952 70772,70824,70798
 2.8000e+000 71069 -6.4552e+001 -1.9265e+002  9.4211e+000 64952 70876,70850,71043
 2.8000e+000 71092 -7.8578e+001 -2.2605e+002  5.2378e+000 64952 71115,70876,71043
 2.8000e+000 71141 -9.6650e+001 -2.2345e+002 -1.0719e+001 64952 70772,70746,71115
 2.8000e+000 71164 -8.8290e+001 -1.9983e+002 -9.4887e+000 64952 70772,71115,71043
 2.8000e+000 71365  2.6218e+000 -2.5068e+002 -3.8968e+000 64662 71215,71293,71267
 2.8000e+000 71342  6.5909e+001 -2.2259e+002 -6.1981e+001 64662 71189,71293,71215
 2.8000e+000 71319  2.6971e+001 -2.0046e+002  3.5356e+000 64662 71215,71267,71241
 2.8000e+000 71615 -5.2439e+001 -2.4334e+002 -6.2425e+000 64350 71710,71638,71468
 2.8000e+000 71592 -7.9977e+001 -2.3903e+002 -9.1708e+000 64350 71638,71416,71390
 2.8000e+000 71569 -5.5750e+001 -2.2676e+002  7.3168e+000 64350 71710,71468,71442
 2.8000e+000 71546  7.1305e+001 -2.2257e+002 -4.5964e+001 64350 71390,71520,71494
 2.8000e+000 71664 -5.5508e+001 -2.4529e+002 -3.9974e+000 64350 71494,71468,71638
 2.8000e+000 71687 -5.2977e+001 -2.4255e+002 -2.7892e+000 64350 71494,71638,71390
 2.8000e+000 71736 -5.0264e+001 -2.1004e+002  2.7592e+000 64350 71416,71638,71710
 2.8000e+000 71759 -4.3359e+001 -1.9127e+002  2.0728e+001 64350 71416,71710,71442
 2.8000e+000 72318 -5.7347e+001 -3.8197e+002 -1.6638e+001 63837 71972,72024,71998
 2.8000e+000 72295 -8.4320e+001 -2.3782e+002 -5.6207e+000 63837 72341,71972,71946
 2.8000e+000 72272 -8.0836e+001 -1.9398e+002  1.1048e+001 63837 72413,72341,71946
 2.8000e+000 72249 -7.9020e+001 -1.7660e+002  5.9222e+000 63837 72413,71946,72128
 2.8000e+000 72226 -1.2198e+002 -2.1146e+002  5.9416e+000 63837 72024,72076,72050
 2.8000e+000 72203 -1.0828e+002 -1.9164e+002 -4.9847e+000 63837 72024,72102,72076
 2.8000e+000 72180 -6.8567e+001 -1.7471e+002  1.7926e+001 63837 71946,72154,72128
 2.8000e+000 72367 -1.1656e+002 -2.5975e+002 -4.8539e+001 63837 72024,71972,72341
 2.8000e+000 72390 -8.6556e+001 -2.0836e+002 -1.6232e+001 63837 72024,72341,72102
 2.8000e+000 72439 -6.8529e+001 -2.2203e+002  4.9167e+000 63837 72102,72341,72413
 2.8000e+000 72462 -6.6261e+001 -2.0339e+002  1.9481e+000 63837 72102,72413,72128
 2.8000e+000 72791 -1.1004e+002 -2.2168e+002 -2.4768e+001 63383 72592,72696,72670
 2.8000e+000 72768 -1.1245e+002 -2.0588e+002 -4.3140e+001 63383 72566,72696,72592
 2.8000e+000 72745 -1.1076e+002 -1.9295e+002 -1.2287e+000 63383 72592,72670,72618
 2.8000e+000 72722 -1.0669e+002 -1.8375e+002 -4.9295e-001 63383 72618,72670,72644
 2.8000e+000 73297 -1.3524e+002 -1.9774e+002 -3.4820e+000 63185 73000,73156,73130
 2.8000e+000 73274 -1.3600e+002 -2.0639e+002  2.4484e+001 63185 72974,73156,73000
 2.8000e+000 73251 -9.8309e+001 -2.2774e+002 -3.5041e+000 63185 73000,73052,73026
 2.8000e+000 73228 -1.0859e+002 -2.0114e+002 -1.0713e+001 63185 73000,73130,73052
 2.8000e+000 73205 -1.0980e+002 -2.3267e+002 -3.5673e+001 63185 73052,73130,73104
 2.8000e+000 73182 -1.0558e+002 -2.4965e+002 -3.7238e+001 63185 73052,73104,73078
 2.8000e+000 73545 -3.5023e+001 -2.0619e+002  2.1183e-001 62781 73568,73398,73372
 2.8000e+000 73522 -1.6814e+001 -1.8640e+002  1.0672e+001 62781 73568,73372,73346
 2.8000e+000 73499 -4.6574e+001 -1.9649e+002 -7.9815e+000 62781 73640,73320,73424
 2.8000e+000 73476 -6.8443e+001 -1.4009e+002 -1.7725e+001 62781 73320,73450,73424
 2.8000e+000 73594 -3.8493e+001 -1.8783e+002 -2.5292e+000 62781 73424,73398,73568
 2.8000e+000 73617 -3.9459e+001 -1.9213e+002 -3.5890e+000 62781 73640,73424,73568
 2.8000e+000 73666 -4.3387e+001 -1.9036e+002 -4.7091e-001 62781 73346,73320,73640
 2.8000e+000 73689 -3.9370e+001 -1.8546e+002  3.5679e+000 62781 73346,73640,73568
 2.8000e+000 74035 -7.8514e+001 -2.4496e+002 -2.4477e+000 62363 74058,73868,73842
 2.8000e+000 74012 -7.4628e+001 -2.2550e+002 -1.7802e+001 62363 74130,74058,73842
 2.8000e+000 73989 -6.7608e+001 -2.2287e+002 -1.7971e+001 62363 74130,73842,73816
 2.8000e+000 73966 -1.1596e+002 -2.5507e+002  3.4799e+000 62363 74202,73764,73894
 2.8000e+000 73943 -1.5106e+002 -2.3019e+002  4.6786e+000 62363 73712,73894,73764
 2.8000e+000 73920 -1.6564e+002 -2.4595e+002 -2.9060e+000 62363 73712,73764,73738
 2.8000e+000 74084 -8.0660e+001 -2.3932e+002 -2.7302e+000 62363 73894,73868,74058
 2.8000e+000 74107 -1.0436e+002 -2.4299e+002  1.3057e+001 62363 74202,73894,74058
 2.8000e+000 74156 -8.2872e+001 -2.2778e+002  8.1458e+000 62363 73790,74058,74130
 2.8000e+000 74179 -4.7958e+001 -2.1325e+002  1.0621e+001 62363 73790,74130,73816
 2.8000e+000 74228 -1.2924e+002 -2.6090e+002 -1.4270e+001 62363 73790,73764,74202
 2.8000e+000 74251 -1.2082e+002 -2.4818e+002 -4.7578e+000 62363 73790,74202,74058
 2.8000e+000 74403 -1.8301e+000 -2.6051e+002  1.7965e+001 62115 74426,74302,74276
 2.8000e+000 74380  5.6994e+001 -2.5120e+002  4.1943e+001 62115 74426,74276,74354
 2.8000e+000 74452 -5.6228e+001 -2.3338e+002  1.8291e+001 62115 74328,74302,74426
 2.8000e+000 74475 -1.5147e+000 -2.2624e+002  4.3943e+001 62115 74328,74426,74354
 2.8000e+000 74578  4.5584e+001 -1.5764e+002  2.9755e+000 61825 74500,74552,74526
 2.8000e+000 74982 -1.2482e+002 -2.2581e+002  1.4944e+000 61513 75005,74734,74708
 2.8000e+000 74959 -1.2219e+002 -2.1983e+002 -5.1835e-001 61513 75005,74708,74864
 2.8000e+000 74936 -1.5698e+002 -2.3287e+002  1.4573e+001 61513 75077,74812,74734
 2.8000e+000 74913 -1.3915e+002 -2.3499e+002 -2.0595e+001 61513 74734,74786,74760
 2.8000e+000 74890 -1.3646e+002 -2.0943e+002 -1.7040e+000 61513 74734,74812,74786
 2.8000e+000 75031 -1.1784e+002 -2.3193e+002  2.4020e+000 61513 75077,74734,75005
 2.8000e+000 75054 -9.1752e+001 -2.2343e+002  3.4251e+001 61513 74838,75005,74864
 2.8000e+000 75103 -1.7857e+002 -2.4159e+002  5.0150e+001 61513 74838,74812,75077
 2.8000e+000 75126 -1.5310e+002 -2.5024e+002  3.8018e+001 61513 74838,75077,75005
 2.8000e+000 75553 -5.3747e+001 -2.0124e+002 -8.0628e+000 61060 75576,75360,75308
 2.8000e+000 75530 -5.9103e+001 -2.1318e+002 -1.0486e+001 61060 75576,75308,75230
 2.8000e+000 75507 -4.7320e+001 -1.9182e+002  3.2970e-001 61060 75308,75360,75334
 2.8000e+000 75484 -8.1896e+001 -2.5188e+002  1.5782e+001 61060 75230,75308,75256
 2.8000e+000 75461 -5.2954e+001 -2.3069e+002  6.2982e+000 61060 75256,75308,75282
 2.8000e+000 75438 -6.0361e+001 -1.9544e+002  2.7397e+001 61060 75360,75412,75386
 2.8000e+000 75602 -3.5051e+001 -2.1245e+002  8.6063e-001 61060 75412,75360,75576
 2.8000e+000 75625 -4.9334e+001 -2.3714e+002 -5.3214e+000 61060 75412,75576,75230
 2.8000e+000 76052 -8.7369e+001 -2.0574e+002  2.5420e+000 60442 75755,75859,75833
 2.8000e+000 76029 -1.0777e+002 -1.9771e+002 -1.4324e+001 60442 75729,75859,75755
 2.8000e+000 76006 -9.2800e+001 -1.9216e+002  1.3364e+001 60442 75755,75833,75807
 2.8000e+000 75983 -8.6072e+001 -2.2941e+002  7.7553e+000 60442 75755,75807,75781
 2.8000e+000 75960  1.6583e+001 -3.6090e+002  1.0045e+001 60442 75729,75911,75859
 2.8000e+000 75937 -1.7527e+002 -9.1466e+002  5.5868e+001 60442 75859,75911,75885
 2.8000e+000 76430 -9.0020e+001 -2.3803e+002 -8.0661e+000 59788 76453,76286,76234
 2.8000e+000 76407 -9.7964e+001 -2.6927e+002  2.6317e+000 59788 76453,76234,76182
 2.8000e+000 76384 -9.5804e+001 -1.6791e+002  3.0538e+001 59788 76525,76156,76312
 2.8000e+000 76361 -6.1209e+001 -3.1096e+002 -3.0043e+000 59788 76182,76234,76208
 2.8000e+000 76338 -6.2238e+001 -2.2722e+002 -4.4462e+000 59788 76234,76286,76260
 2.8000e+000 76479 -1.0633e+002 -2.5400e+002  1.0013e+000 59788 76312,76286,76453
 2.8000e+000 76502 -8.9591e+001 -2.3673e+002  1.0517e+001 59788 76525,76312,76453
 2.8000e+000 76551 -1.2461e+002 -2.5425e+002  3.0639e+001 59788 76182,76156,76525
 2.8000e+000 76574 -1.0878e+002 -2.7484e+002  1.7032e+001 59788 76182,76525,76453
 2.8000e+000 77031 -5.3649e+001 -1.2623e+002 -3.6998e+001 59448 76835,76887,76861
 2.8000e+000 77008 -7.5697e+000 -1.1944e+002  3.5430e+000 59448 76835,76913,76887
 2.8000e+000 76985 -3.1000e+001 -1.0613e+002  3.0091e+001 59448 76809,76913,76835
 2.8000e+000 76962 -7.8026e+001 -1.2723e+002 -2.8049e+000 59448 76757,76913,76809
 2.8000e+000 76939 -5.7334e+001 -1.1941e+002 -1.0975e+001 59448 76757,76809,76783
 2.8000e+000 77537 -1.0214e+002 -2.2358e+002  1.2450e+001 58994 77560,77344,77292
 2.8000e+000 77514 -1.4583e+002 -2.2194e+002  4.0101e+000 58994 77560,77292,77240
 2.8000e+000 77491 -8.2584e+001 -2.0904e+002 -4.4719e+000 58994 77632,77214,77370
 2.8000e+000 77468 -1.7349e+002 -2.5721e+002  4.5149e+001 58994 77292,77344,77318
 2.8000e+000 77445 -8.4872e+001 -2.7118e+002  1.1264e+001 58994 77214,77396,77370
 2.8000e+000 77422 -1.4973e+002 -2.3884e+002 -5.0658e+000 58994 77240,77292,77266
 2.8000e+000 77586 -1.0455e+002 -2.2789e+002  1.3857e+001 58994 77370,77344,77560
 2.8000e+000 77609 -1.0621e+002 -2.2344e+002  1.5912e+001 58994 77632,77370,77560
 2.8000e+000 77658 -6.9809e+001 -1.9389e+002 -2.6082e+001 58994 77240,77214,77632
 2.8000e+000 77681 -8.7117e+001 -1.9151e+002 -7.6444e+000 58994 77240,77632,77560
 2.8000e+000 78138 -7.7718e+001 -1.4599e+002  2.0866e+001 58440 77864,77994,77890
 2.8000e+000 78115 -4.4942e+001 -8.2418e+001 -1.5087e+001 58440 77864,78020,77994
 2.8000e+000 78092 -8.8876e+001 -1.7460e+002 -1.5357e+001 58440 77942,77994,77968
 2.8000e+000 78069 -6.8814e+001 -1.6298e+002  3.3007e+000 58440 77890,77994,77942
 2.8000e+000 78046 -6.2805e+001 -1.6466e+002 -1.2200e+000 58440 77890,77942,77916
 2.8000e+000 78467 -6.9994e+000 -2.0040e+002  9.1312e+000 57928 78562,78490,78346
 2.8000e+000 78444 -7.4397e+001 -2.0443e+002 -4.7713e+000 57928 78490,78294,78268
 2.8000e+000 78421  6.7937e+000 -2.1117e+002  2.0413e+001 57928 78562,78346,78320
 2.8000e+000 78398 -2.2993e+001 -1.9779e+002  2.2914e+000 57928 78242,78372,78268
 2.8000e+000 78516 -6.2872e+001 -2.5414e+002 -1.3532e+001 57928 78372,78346,78490
 2.8000e+000 78539 -4.7405e+001 -1.9233e+002 -2.2517e+000 57928 78372,78490,78268
 2.8000e+000 78588 -7.3940e+001 -1.9826e+002  2.0168e+000 57928 78294,78490,78562
 2.8000e+000 78611 -3.1243e+001 -1.7566e+002  2.4618e+001 57928 78294,78562,78320
 2.8000e+000 79068 -1.3748e+002 -3.0059e+002 -6.7846e+001 57467 78794,78924,78820
 2.8000e+000 79045 -1.0630e+002 -2.8919e+002 -7.3659e+001 57467 78794,78950,78924
 2.8000e+000 79022 -2.7940e+001 -2.4832e+002  1.4235e+001 57467 78820,78898,78872
 2.8000e+000 78999 -1.1436e+002 -3.5137e+002 -4.4385e+001 57467 78820,78924,78898
 2.8000e+000 78976 -4.0337e+001 -2.6061e+002  2.5426e+001 57467 78820,78872,78846
 2.8000e+000 79446 -1.1841e+002 -2.3204e+002 -1.6155e-001 57120 79172,79302,79250
 2.8000e+000 79423 -1.0568e+002 -2.2631e+002 -6.8822e+000 57120 79172,79328,79302
 2.8000e+000 79400 -1.0674e+002 -2.0316e+002 -8.1163e+000 57120 79172,79250,79198
 2.8000e+000 79377 -8.0953e+001 -2.9162e+002  1.1233e+001 57120 79250,79302,79276
 2.8000e+000 79354 -1.3170e+002 -2.2041e+002 -1.6277e+001 57120 79198,79250,79224
 2.8000e+000 79952 -1.5717e+002 -2.4409e+002 -1.8905e+000 56773 79629,79785,79655
 2.8000e+000 79929 -5.1197e+001 -2.1336e+002  1.0327e+001 56773 79629,79811,79785
 2.8000e+000 79906 -1.1828e+002 -2.6495e+002  1.4734e+001 56773 79655,79733,79681
 2.8000e+000 79883 -1.1906e+002 -2.3527e+002  1.4245e+000 56773 79655,79785,79733
 2.8000e+000 79860 -1.0792e+002 -3.0736e+002 -4.4004e+001 56773 79733,79785,79759
 2.8000e+000 79837 -5.9185e+001 -2.3767e+002  4.3848e+001 56773 79681,79733,79707
 2.8000e+000 80281 -4.9677e+001 -1.8981e+002 -1.5241e+001 56319 80108,80160,80134
 2.8000e+000 80258 -5.6685e+001 -2.0695e+002 -1.9501e+001 56319 80056,80160,80108
 2.8000e+000 80235 -1.7108e+001 -1.8168e+002  1.0491e+001 56319 80056,80186,80160
 2.8000e+000 80212 -8.1252e+001 -2.6373e+002 -1.1177e+001 56319 80056,80108,80082
 2.8000e+000 80738 -3.0034e+001 -2.2047e+002  1.3542e+001 55957 80516,80620,80594
 2.8000e+000 80715 -7.4876e+001 -2.0162e+002  1.1006e+001 55957 80464,80620,80516
 2.8000e+000 80692 -6.4539e+001 -2.4007e+002  1.2449e+001 55957 80761,80568,80542
 2.8000e+000 80669 -5.0330e+001 -2.3649e+002  1.4852e+001 55957 80761,80542,80516
 2.8000e+000 80646 -7.3373e+001 -1.9744e+002  3.1276e+001 55957 80464,80516,80490
 2.8000e+000 80787 -7.7866e+001 -2.3876e+002  8.7134e+000 55957 80594,80568,80761
 2.8000e+000 80810 -6.4574e+001 -2.3562e+002  1.1310e+001 55957 80594,80761,80516
 2.8000e+000 81210 -4.6390e+001 -2.2559e+002 -2.6536e+001 55317 80936,80988,80962
 2.8000e+000 81187 -3.7590e+001 -2.3478e+002 -1.0908e+001 55317 80936,81066,80988
 2.8000e+000 81164 -4.0880e+001 -2.6045e+002 -1.8546e+000 55317 80936,81092,81066
 2.8000e+000 81141 -9.4279e+001 -2.6297e+002 -2.5838e+001 55317 80988,81066,81014
 2.8000e+000 81118 -1.3916e+001 -1.6662e+002  1.0707e+001 55317 81014,81066,81040
 2.8000e+000 81539 -1.0368e+002 -2.4108e+002  7.6630e+000 54913 81340,81418,81392
 2.8000e+000 81516 -4.0089e+001 -1.9409e+002 -1.3553e+001 54913 81340,81444,81418
 2.8000e+000 81493 -6.2729e+001 -2.0806e+002 -2.7466e+001 54913 81314,81444,81340
 2.8000e+000 81470 -1.1754e+002 -2.5445e+002  2.0655e+000 54913 81340,81392,81366
 2.8000e+000 81787 -5.6203e+001 -2.4832e+002 -1.7327e+000 54601 81588,81692,81640
 2.8000e+000 81764 -8.3400e+001 -2.5114e+002 -7.6035e+000 54601 81562,81692,81588
 2.8000e+000 81741 -4.2423e+001 -2.5170e+002  3.3005e+001 54601 81588,81640,81614
 2.8000e+000 81718 -5.8059e+001 -2.9459e+002 -2.5308e+001 54601 81640,81692,81666
 2.8000e+000 82344 -9.7220e+001 -2.7283e+002 -1.4729e+001 54090 81998,82102,82076
 2.8000e+000 82321 -1.3147e+002 -2.8782e+002 -8.7965e+000 54090 81998,82154,82102
 2.8000e+000 82298 -1.2048e+002 -2.8094e+002 -5.5184e+000 54090 81972,82154,81998
 2.8000e+000 82275 -1.3863e+002 -2.5331e+002 -1.7342e+001 54090 81998,82076,82024
 2.8000e+000 82252 -1.4682e+002 -2.9938e+002  1.4163e+001 54090 81972,82180,82154
 2.8000e+000 82229 -1.8476e+002 -3.5060e+002  2.0013e+001 54090 82102,82154,82128
 2.8000e+000 82206 -2.3800e+001 -1.9090e+002 -4.2486e+001 54090 82024,82076,82050
 2.8000e+000 82722 -1.5643e+002 -2.8354e+002 -9.3503e+000 53579 82500,82578,82552
 2.8000e+000 82699 -1.1462e+002 -2.5765e+002  7.5221e+000 53579 82448,82578,82500
 2.8000e+000 82676 -1.2492e+002 -2.9168e+002  8.2624e+000 53579 82448,82500,82474
 2.8000e+000 82653 -1.5256e+002 -2.7709e+002  2.1284e+001 53579 82448,82604,82578
 2.8000e+000 82630 -8.2908e+001 -2.6360e+002 -1.0369e+001 53579 82500,82552,82526
 2.8000e+000 83356 -7.5062e+001 -2.0362e+002 -2.0497e+001 53189 83379,83088,83036
 2.8000e+000 83333 -7.3944e+001 -2.2701e+002 -1.9264e+001 53189 83379,83036,82984
 2.8000e+000 83310 -2.7580e+001 -2.0627e+002  3.7914e+001 53189 82984,83192,83166
 2.8000e+000 83287  6.6831e+000 -1.6919e+002 -1.6740e+001 53189 83036,83088,83062
 2.8000e+000 83264 -5.7967e+001 -2.5551e+002 -3.6596e+001 53189 82984,83036,83010
 2.8000e+000 83241 -4.1292e+001 -2.3886e+002  4.5718e+000 53189 83114,83166,83140
 2.8000e+000 83218 -1.0202e+002 -2.5719e+002  5.2672e+000 53189 83088,83166,83114
 2.8000e+000 83405 -7.3861e+001 -2.1948e+002 -1.0584e+001 53189 83166,83088,83379
 2.8000e+000 83428 -6.9563e+001 -2.4031e+002 -1.0774e+001 53189 83166,83379,82984
 2.8000e+000 83725 -1.0553e+002 -3.0433e+002 -2.7210e+001 52585 83748,83529,83503
 2.8000e+000 83702 -7.8556e+001 -2.9583e+002 -1.6320e+001 52585 83820,83748,83503
 2.8000e+000 83679 -5.4102e+001 -2.8925e+002 -1.3433e+001 52585 83820,83503,83477
 2.8000e+000 83656 -2.8659e+001 -2.6274e+002  3.5389e+001 52585 83477,83607,83581
 2.8000e+000 83633  3.2531e+001 -2.3561e+002  4.0137e+001 52585 83451,83607,83477
 2.8000e+000 83774 -9.1065e+001 -2.6824e+002 -2.3697e+001 52585 83555,83529,83748
 2.8000e+000 83797 -1.1811e+002 -2.9195e+002 -1.3274e+001 52585 83555,83748,83581
 2.8000e+000 83846 -1.0168e+002 -2.8076e+002 -3.7643e+000 52585 83581,83748,83820
 2.8000e+000 83869 -8.4101e+001 -2.7855e+002 -3.5229e+000 52585 83581,83820,83477
 2.8000e+000 84200 -7.3536e+001 -2.7528e+002 -9.7826e+000 52024 84001,84105,84079
 2.8000e+000 84177 -3.6054e+001 -2.6870e+002 -1.9624e+001 52024 83975,84105,84001
 2.8000e+000 84154 -6.5507e+001 -2.7353e+002 -9.6802e+000 52024 84001,84079,84053
 2.8000e+000 84131 -3.0129e+001 -1.8099e+002  3.2232e+001 52024 84001,84053,84027
 2.8000e+000 84399 -6.2771e+001 -2.6890e+002 -6.1120e-001 51470 84422,84275,84249
 2.8000e+000 84376 -5.6495e+001 -2.5829e+002  2.5245e+000 51470 84422,84249,84223
 2.8000e+000 84353 -7.3690e+001 -2.8500e+002 -3.9427e+001 51470 84275,84327,84301
 2.8000e+000 84448 -6.9158e+001 -2.5859e+002 -9.7549e-001 51470 84327,84275,84422
 2.8000e+000 84471 -6.4267e+001 -2.5001e+002  1.8526e+000 51470 84327,84422,84223
 2.8000e+000 84753 -8.0197e+001 -2.3269e+002 -2.5876e+000 51073 84603,84655,84629
 2.8000e+000 84730 -1.6712e+002 -2.7093e+002 -1.1848e+001 51073 84776,84655,84603
 2.8000e+000 84707 -3.1296e+001 -2.3694e+002 -6.8399e+001 51073 84577,84681,84655
 2.8000e+000 84802 -1.0482e+002 -2.3583e+002 -3.1358e+001 51073 84577,84655,84776
 2.8000e+000 85178 -1.3752e+002 -3.0317e+002  2.7042e+001 50519 85201,85008,84982
 2.8000e+000 85155 -1.2996e+002 -2.8142e+002  2.0280e+001 50519 85273,85201,84982
 2.8000e+000 85132 -1.2342e+002 -2.8112e+002  1.6147e+001 50519 85273,84982,84930
 2.8000e+000 85109 -1.1899e+002 -2.7265e+002  1.3634e+001 50519 84930,84982,84956
 2.8000e+000 85086 -1.0983e+002 -2.8236e+002  7.4037e+000 50519 85008,85060,85034
 2.8000e+000 85227 -1.1634e+002 -2.8916e+002  1.1437e+001 50519 85060,85008,85201
 2.8000e+000 85250 -1.2945e+002 -2.8865e+002  8.1180e+000 50519 85060,85201,84904
 2.8000e+000 85299 -1.2348e+002 -2.8552e+002  6.8187e+000 50519 84904,85201,85273
 2.8000e+000 85322 -9.8794e+001 -2.5263e+002 -4.1357e+000 50519 84904,85273,84930
 2.8000e+000 85958 -7.8285e+001 -2.4844e+002 -7.0333e+000 50093 85981,85768,85716
 2.8000e+000 85935 -7.0288e+001 -2.2812e+002 -7.9635e+000 50093 85981,85716,85612
 2.8000e+000 85912 -8.5796e+001 -2.2291e+002 -9.3352e-001 50093 85612,85716,85664
 2.8000e+000 85889 -6.0438e+001 -2.4396e+002 -2.1087e+000 50093 85716,85768,85742
 2.8000e+000 85866 -8.9189e+001 -1.9020e+002 -4.0234e+001 50093 85664,85716,85690
 2.8000e+000 85843  1.7829e+001 -1.6727e+002 -2.0781e+001 50093 85586,85794,85612
 2.8000e+000 85820 -5.9080e+001 -3.1709e+002  1.9243e+001 50093 85612,85664,85638
 2.8000e+000 86007 -9.3923e+001 -2.6536e+002 -3.5850e+001 50093 85794,85768,85981
 2.8000e+000 86030 -6.9331e+001 -2.0683e+002 -2.9577e+001 50093 85794,85981,85612
 2.8000e+000 86131 -8.8317e+001 -2.8384e+002  3.8733e+001 49895 86053,86105,86079
 2.8000e+000 86639 -6.6732e+001 -1.8386e+002 -3.5812e+001 49391 86662,86394,86368
 2.8000e+000 86616 -7.6733e+001 -2.1817e+002 -3.2478e+001 49391 86662,86368,86342
 2.8000e+000 86593 -4.0062e+001 -2.1281e+002 -9.1359e+000 49391 86342,86498,86472
 2.8000e+000 86570 -2.6784e+001 -2.3193e+002 -1.0811e+001 49391 86316,86498,86342
 2.8000e+000 86547 -1.1893e+002 -3.2272e+002 -1.1229e+001 49391 86394,86472,86446
 2.8000e+000 86524  5.6062e-001 -3.0825e+002  5.7818e+000 49391 86394,86446,86420
 2.8000e+000 86688 -7.3631e+001 -2.1580e+002 -2.0990e+001 49391 86472,86394,86662
 2.8000e+000 86711 -6.7130e+001 -2.3050e+002 -2.0428e+001 49391 86472,86662,86342
 2.8000e+000 87089 -9.1817e+001 -2.6220e+002  7.0661e+000 48987 86815,86919,86867
 2.8000e+000 87066 -9.3140e+001 -2.7021e+002  1.1019e+001 48987 86815,86971,86919
 2.8000e+000 87043 -3.5148e+001 -2.8985e+002 -2.5548e+001 48987 86867,86919,86893
 2.8000e+000 87020 -1.0524e+002 -2.9867e+002  2.4140e+001 48987 86815,86867,86841
 2.8000e+000 86997 -1.0407e+002 -2.3165e+002  3.7004e+001 48987 86919,86971,86945
 2.8000e+000 87467 -1.7528e+002 -2.5907e+002  1.3519e+001 48540 87490,87245,87219
 2.8000e+000 87444 -1.2590e+002 -2.4234e+002  1.8086e+000 48540 87562,87490,87219
 2.8000e+000 87421 -9.6188e+001 -2.3034e+002  1.1037e+001 48540 87562,87219,87349
 2.8000e+000 87398 -1.2979e+002 -2.0170e+002 -1.2714e+001 48540 87245,87297,87271
 2.8000e+000 87375 -7.7614e+001 -2.4052e+002  8.8676e+000 48540 87193,87349,87219
 2.8000e+000 87516 -1.1978e+002 -2.4605e+002  4.0729e+000 48540 87297,87245,87490
 2.8000e+000 87539 -1.2038e+002 -2.4739e+002  4.1956e+000 48540 87297,87490,87323
 2.8000e+000 87588 -9.7282e+001 -2.2877e+002  2.1134e+001 48540 87323,87490,87562
 2.8000e+000 87611 -8.2942e+001 -2.3251e+002  2.7313e+001 48540 87323,87562,87349
 2.8000e+000 87810 -1.2414e+002 -4.5150e+002 -3.2491e+001 48136 87660,87712,87686
 2.8000e+000 87787 -7.2330e+001 -2.7354e+002 -1.5274e+001 48136 87660,87738,87712
 2.8000e+000 87764 -1.6996e+002 -2.8054e+002 -4.8771e+001 48136 87634,87738,87660
 2.8000e+000 88205 -1.1335e+002 -2.8233e+002 -2.4633e+001 47210 88300,88228,87937
 2.8000e+000 88182 -9.8744e+001 -2.7450e+002 -7.3674e+000 47210 88228,87833,88041
 2.8000e+000 88159 -1.1509e+002 -3.0204e+002 -3.8840e+001 47210 88300,87937,87911
 2.8000e+000 88136 -1.1189e+002 -2.7523e+002 -3.3445e+001 47210 87833,87911,87859
 2.8000e+000 88113 -1.8796e+002 -2.4726e+002 -1.9766e+001 47210 87937,87989,87963
 2.8000e+000 88090 -9.3899e+001 -2.2344e+002  4.4619e+001 47210 87989,88041,88015
 2.8000e+000 88067 -1.3035e+002 -3.2084e+002 -4.1087e+001 47210 87859,87911,87885
 2.8000e+000 88254 -1.0073e+002 -2.3336e+002 -2.5365e+001 47210 87989,87937,88228
 2.8000e+000 88277 -1.1917e+002 -2.6946e+002 -9.5753e+000 47210 87989,88228,88041
 2.8000e+000 88326 -9.4117e+001 -2.6358e+002 -9.3286e+000 47210 87833,88228,88300
 2.8000e+000 88349 -9.8911e+001 -2.7674e+002 -2.4585e+001 47210 87833,88300,87911
 2.8000e+000 88780 -1.8116e+002 -3.1916e+002 -5.7941e+001 46642 88803,88509,88483
 2.8000e+000 88757 -1.3130e+002 -2.8797e+002 -3.0469e+001 46642 88803,88483,88639
 2.8000e+000 88734 -1.4463e+002 -2.3610e+002 -3.5815e+001 46642 88875,88561,88509
 2.8000e+000 88711 -1.4440e+002 -2.1851e+002 -6.5040e+000 46642 88509,88561,88535
 2.8000e+000 88688 -8.6935e+001 -3.2333e+002  1.6337e+000 46642 88457,88639,88483
 2.8000e+000 88665 -1.6740e+002 -3.8839e+002 -1.5711e+001 46642 88561,88613,88587
 2.8000e+000 88829 -1.4623e+002 -2.5789e+002 -4.0711e+001 46642 88875,88509,88803
 2.8000e+000 88852 -1.4338e+002 -3.1101e+002 -2.6078e+001 46642 88613,88803,88639
 2.8000e+000 88901 -1.1859e+002 -2.6620e+002 -1.7486e+001 46642 88613,88561,88875
 2.8000e+000 88924 -1.2977e+002 -3.0138e+002 -2.1717e+001 46642 88613,88875,88803
 2.8000e+000 89253 -5.3495e+001 -2.7390e+002  7.1972e+000 46444 89080,89158,89132
 2.8000e+000 89230 -6.2651e+001 -2.9417e+002  4.2265e+000 46444 89028,89158,89080
 2.8000e+000 89207 -2.3220e+001 -2.6087e+002 -9.9914e+000 46444 89028,89080,89054
 2.8000e+000 89184 -2.4883e+001 -2.9632e+002 -2.1115e+001 46444 89080,89132,89106
 2.8000e+000 89631 -6.5035e+001 -1.7527e+002 -9.6247e-001 46040 89383,89461,89435
 2.8000e+000 89608 -7.2555e+001 -1.9945e+002 -1.2432e+001 46040 89383,89487,89461
 2.8000e+000 89585 -7.5257e+001 -2.1574e+002 -1.0418e+001 46040 89383,89435,89409
 2.8000e+000 89562 -6.1231e+001 -1.7724e+002 -2.1873e+001 46040 89383,89513,89487
 2.8000e+000 89539  4.9559e+000 -1.3651e+002 -5.9650e+001 46040 89357,89513,89383
 2.8000e+000 90009 -7.3210e+001 -2.2516e+002 -2.6190e-001 45636 89813,89891,89839
 2.8000e+000 89986 -7.5154e+001 -2.1126e+002  1.1662e+001 45636 89787,89891,89813
 2.8000e+000 89963 -6.7762e+001 -2.1177e+002 -4.7100e+000 45636 89839,89891,89865
 2.8000e+000 89940 -9.1772e+001 -2.3875e+002  4.6098e+000 45636 89735,89891,89787
 2.8000e+000 89917 -7.1370e+001 -2.3584e+002 -1.1949e+001 45636 89735,89787,89761
 2.8000e+000 90208 -5.1268e+001 -1.7458e+002 -3.6077e+001 45175 90231,90058,90032
 2.8000e+000 90185 -2.8559e+001 -1.5908e+002 -5.2319e+001 45175 90231,90032,90136
 2.8000e+000 90162 -6.2927e+001 -1.4343e+002 -2.3787e+000 45175 90058,90110,90084
 2.8000e+000 90257 -7.4939e+001 -1.9532e+002 -8.2213e+000 45175 90110,90058,90231
 2.8000e+000 90280 -3.2209e+001 -1.6822e+002 -2.6524e+001 45175 90110,90231,90136
 2.8000e+000 90528 -5.7717e+001 -1.8125e+002 -2.4848e+001 44513 90695,90551,90407
 2.8000e+000 90505 -6.1556e+001 -1.6491e+002 -1.3929e+001 44513 90551,90355,90329
 2.8000e+000 90482 -7.3269e+001 -1.7518e+002 -2.3165e+001 44513 90623,90303,90433
 2.8000e+000 90459 -4.6186e+001 -1.6939e+002 -1.8403e+001 44513 90695,90407,90381
 2.8000e+000 90577 -8.2083e+001 -1.8901e+002 -4.1373e+001 44513 90433,90407,90551
 2.8000e+000 90600 -7.0621e+001 -1.7315e+002 -2.2157e+001 44513 90623,90433,90551
 2.8000e+000 90649 -7.2529e+001 -1.7246e+002 -2.1574e+001 44513 90329,90303,90623
 2.8000e+000 90672 -7.2520e+001 -1.7258e+002 -2.1614e+001 44513 90329,90623,90551
 2.8000e+000 90721 -7.2320e+001 -1.6542e+002 -2.7952e+001 44513 90355,90551,90695
 2.8000e+000 90744 -6.9216e+001 -1.5949e+002 -2.5458e+001 44513 90355,90695,90381
 2.8000e+000 91077  2.2224e+000 -1.9055e+002 -1.2962e+001 44059 91100,90930,90904
 2.8000e+000 91054 -7.4076e+001 -2.0581e+002  1.0030e+001 44059 91100,90904,90982
 2.8000e+000 91031 -1.3289e+002 -2.4086e+002 -1.7194e+001 44059 90878,90982,90904
 2.8000e+000 91008 -4.3158e+001 -1.8239e+002  1.0054e+001 44059 90852,90982,90878
 2.8000e+000 91126 -1.1337e+002 -2.2058e+002 -1.4847e+001 44059 91172,91100,90956
 2.8000e+000 91149 -7.0958e+001 -2.0294e+002 -1.0185e+001 44059 90956,91100,90982
 2.8000e+000 91198  3.1304e-001 -1.0599e+002 -6.0603e+001 44059 90930,91100,91172
 2.8000e+000 91677 -1.0469e+002 -1.6397e+002  1.4844e+001 43549 91455,91533,91481
 2.8000e+000 91654 -4.6592e+001 -1.6349e+002  2.1114e+001 43549 91429,91533,91455
 2.8000e+000 91631 -9.8645e+001 -1.5925e+002  5.4704e+000 43549 91481,91533,91507
 2.8000e+000 91608 -2.6052e+001 -1.5501e+002  9.9871e+000 43549 91429,91559,91533
 2.8000e+000 91585 -3.0437e+000 -5.3975e+001  9.5446e-001 43549 91403,91559,91429
 2.8000e+000 92006 -9.2062e+001 -2.3136e+002  5.0091e-001 43059 91781,91885,91807
 2.8000e+000 91983 -9.6600e+001 -2.2003e+002  3.5031e+001 43059 91781,91911,91885
 2.8000e+000 91960 -8.9175e+001 -2.3101e+002  5.6748e-001 43059 91807,91885,91833
 2.8000e+000 91937 -5.8160e+001 -2.1894e+002 -2.9923e+000 43059 91833,91885,91859
 2.8000e+000 92561 -8.0581e+001 -1.7200e+002 -1.7638e+001 42598 92584,92215,92189
 2.8000e+000 92538 -8.6603e+001 -1.9307e+002 -1.6881e+001 42598 92656,92584,92189
 2.8000e+000 92515 -7.6532e+001 -2.1762e+002 -4.3354e+000 42598 92656,92189,92397
 2.8000e+000 92492 -9.7608e+001 -1.5283e+002 -2.1240e+001 42598 92241,92319,92293
 2.8000e+000 92469 -9.3263e+001 -1.8407e+002  1.1992e+001 42598 92319,92397,92371
 2.8000e+000 92446 -3.5470e+001 -2.1347e+002  9.0071e+001 42598 92319,92371,92345
 2.8000e+000 92423 -9.7929e+001 -1.5954e+002 -3.3118e+001 42598 92241,92293,92267
 2.8000e+000 92610 -8.4631e+001 -1.7335e+002 -1.7289e+001 42598 92241,92215,92584
 2.8000e+000 92633 -7.7818e+001 -1.5805e+002 -2.1605e+001 42598 92241,92584,92319
 2.8000e+000 92682 -7.7324e+001 -1.5979e+002 -1.1236e+001 42598 92319,92584,92656
 2.8000e+000 92705 -6.2302e+001 -1.7705e+002 -1.7446e+000 42598 92319,92656,92397
 2.8000e+000 92953 -9.1350e+001 -2.5133e+002  1.3513e+001 42094 92976,92806,92780
 2.8000e+000 92930 -1.0337e+002 -2.3583e+002 -1.5412e+000 42094 92976,92780,92754
 2.8000e+000 92907 -1.8541e+001 -2.4168e+002 -2.4804e+000 42094 93048,92832,92806
 2.8000e+000 92884 -1.3217e+002 -2.3513e+002 -1.9176e+001 42094 92728,92858,92754
 2.8000e+000 93002 -5.7051e+001 -2.3168e+002  5.5214e+000 42094 93048,92806,92976
 2.8000e+000 93025 -9.1969e+001 -2.2973e+002 -6.5172e+000 42094 92858,92976,92754
 2.8000e+000 93074 -7.2396e+001 -2.6105e+002 -3.2261e+000 42094 92858,92832,93048
 2.8000e+000 93097 -1.0369e+002 -2.4648e+002  1.3931e+000 42094 92858,93048,92976
 2.8000e+000 93605 -1.0184e+002 -2.9358e+002 -1.1865e+001 41846 93628,93412,93386
 2.8000e+000 93582 -7.8487e+001 -2.2022e+002 -3.2731e+000 41846 93628,93386,93308
 2.8000e+000 93559 -1.1638e+002 -2.2807e+002 -4.8267e+001 41846 93700,93464,93438
 2.8000e+000 93536 -1.1289e+002 -3.0538e+002  3.4472e+000 41846 93308,93386,93334
 2.8000e+000 93513 -1.4337e+002 -2.1793e+002 -3.7897e+001 41846 93334,93386,93360
 2.8000e+000 93490 -1.1107e+002 -2.0182e+002 -4.8148e+001 41846 93282,93464,93308
 2.8000e+000 93654 -8.8814e+001 -2.3390e+002 -2.3111e+001 41846 93438,93412,93628
 2.8000e+000 93677 -1.1815e+002 -2.3348e+002 -2.2631e+001 41846 93700,93438,93628
 2.8000e+000 93726 -1.0444e+002 -1.9661e+002 -4.5831e+001 41846 93308,93464,93700
 2.8000e+000 93749 -1.0185e+002 -1.9198e+002 -2.0554e+001 41846 93308,93700,93628
 2.8000e+000 94255 -7.9110e+001 -2.3757e+002  1.5003e+001 41385 93958,94114,94088
 2.8000e+000 94232 -7.0228e+001 -2.5719e+002  5.4816e+000 41385 93932,94114,93958
 2.8000e+000 94209 -1.3699e+002 -2.7599e+002  4.5379e+001 41385 93958,94088,94062
 2.8000e+000 94186 -1.4363e+002 -1.9923e+002  3.3769e+001 41385 93958,94062,93984
 2.8000e+000 94163 -1.2247e+002 -1.9490e+002  3.0400e+001 41385 93984,94062,94036
 2.8000e+000 94140 -8.4047e+001 -2.6584e+002  4.4094e+001 41385 93984,94036,94010
 2.8000e+000 94476 -2.2813e+001 -3.2431e+002  2.0111e+001 40881 94326,94378,94352
 2.8000e+000 94453 -5.2146e+001 -2.6580e+002  2.2339e+001 40881 94300,94378,94326
 2.8000e+000 94430 -6.5655e+001 -2.4491e+002  2.7791e+000 40881 94300,94404,94378
 2.8000e+000 94626 -7.4790e+001 -1.9525e+002 -1.1150e+000 40591 94649,94551,94525
 2.8000e+000 94603 -3.9354e+001 -1.1921e+002  3.4031e+000 40591 94781,94577,94551
 2.8000e+000 94675 -2.3619e+001 -1.4008e+002 -2.2788e+001 40591 94781,94551,94649
 2.8000e+000 94807  9.6778e-001 -8.0084e+001  2.6484e+001 40591 94499,94577,94781
 2.8000e+000 94830  5.4682e+000 -1.2143e+002 -1.1703e+000 40591 94499,94781,94649
 2.8000e+000 95336 -1.7197e+002 -2.2795e+002 -3.5292e+001 40187 95013,95169,95039
 2.8000e+000 95313 -4.0829e+001 -2.0586e+002  5.1618e+000 40187 95013,95195,95169
 2.8000e+000 95290 -2.8150e+001 -2.2147e+002 -2.5291e+001 40187 95039,95143,95065
 2.8000e+000 95267 -1.2693e+002 -2.6100e+002 -3.7199e+001 40187 95039,95169,95143
 2.8000e+000 95244 -4.8356e+001 -1.8298e+002 -1.7195e+001 40187 95091,95143,95117
 2.8000e+000 95221 -1.4394e+001 -1.1464e+002 -6.1614e+000 40187 95065,95143,95091
 2.8000e+000 95665 -6.3464e+001 -1.6936e+002  7.7487e+001 39626 95466,95570,95544
 2.8000e+000 95642 -1.1975e+002 -1.3520e+002  5.0393e+001 39626 95440,95570,95466
 2.8000e+000 95619 -1.8640e+002 -2.2737e+002  4.9860e+001 39626 95466,95544,95492
 2.8000e+000 95596 -3.6405e+001 -1.7416e+002  7.6567e+001 39626 95492,95544,95518
 2.8000e+000 95913 -9.2835e+001 -2.0520e+002 -3.2016e+001 39136 96080,95936,95766
 2.8000e+000 95890 -6.4700e+001 -2.1947e+002 -2.0062e+001 39136 95936,95714,95688
 2.8000e+000 95867 -1.6369e+002 -2.1904e+002  6.6650e+000 39136 96008,95792,95766
 2.8000e+000 95844 -7.5974e+001 -1.9919e+002 -2.4063e+001 39136 96080,95766,95740
 2.8000e+000 95962 -1.2958e+002 -2.2687e+002 -2.1625e+001 39136 96008,95766,95936
 2.8000e+000 95985 -8.3189e+001 -2.6494e+002 -7.0283e+000 39136 95818,95936,95688
 2.8000e+000 96034 -8.1386e+001 -1.8327e+002  1.1680e+001 39136 95818,95792,96008
 2.8000e+000 96057 -7.2370e+001 -2.0106e+002 -1.6158e+001 39136 95818,96008,95936
 2.8000e+000 96106 -8.4182e+001 -2.0210e+002 -9.6219e+000 39136 95714,95936,96080
 2.8000e+000 96129 -5.8054e+001 -1.9523e+002 -3.3116e+000 39136 95714,96080,95740
 2.8000e+000 96350 -5.9981e+001 -1.7635e+002 -5.4444e+000 38824 96200,96278,96252
 2.8000e+000 96327 -6.9250e+001 -1.8076e+002 -6.7634e+000 38824 96174,96278,96200
 2.8000e+000 96304 -6.2164e+001 -1.7553e+002 -4.7792e+000 38824 96200,96252,96226
 2.8000e+000 96830 -1.1660e+002 -1.9833e+002 -1.4050e+001 38320 97069,96536,96484
 2.8000e+000 96807 -1.1361e+002 -2.0247e+002 -1.3847e+001 38320 97069,96484,96853
 2.8000e+000 96784 -1.2571e+002 -2.1785e+002  5.2219e+000 38320 96853,96484,96458
 2.8000e+000 96761 -6.8231e+001 -1.7328e+002 -2.0624e+001 38320 96925,96640,96614
 2.8000e+000 96738 -1.0777e+002 -1.7998e+002 -8.6292e+000 38320 96997,96666,96640
 2.8000e+000 96715 -9.0456e+001 -2.3496e+002 -4.3624e+000 38320 97141,96588,96562
 2.8000e+000 96692 -1.4380e+002 -2.2331e+002 -1.8783e+000 38320 96484,96536,96510
 2.8000e+000 96879 -1.1062e+002 -2.1329e+002 -7.2467e+000 38320 97141,96562,96853
 2.8000e+000 96902 -1.0297e+002 -2.0982e+002 -6.3552e+000 38320 96925,96614,96853
 2.8000e+000 96951 -1.0581e+002 -1.7877e+002 -9.2468e+000 38320 96997,96640,96925
 2.8000e+000 96974 -1.0078e+002 -1.7584e+002 -5.4616e+000 38320 96458,96925,96853
 2.8000e+000 97023 -1.1680e+002 -1.8088e+002 -3.7873e+000 38320 96458,96666,96997
 2.8000e+000 97046 -1.0939e+002 -1.7759e+002 -4.4548e+000 38320 96458,96997,96925
 2.8000e+000 97095 -1.2496e+002 -1.9244e+002  6.4389e+000 38320 96562,96536,97069
 2.8000e+000 97118 -1.0572e+002 -1.9999e+002 -1.0556e+001 38320 96562,97069,96853
 2.8000e+000 97167 -5.4112e+001 -2.1546e+002 -1.3568e+001 38320 96614,96588,97141
 2.8000e+000 97190 -8.7616e+001 -2.0351e+002 -1.4019e+001 38320 96614,97141,96853
 2.8000e+000 97519 -8.0909e+001 -2.4231e+002  6.4800e+001 37766 97542,97398,97372
 2.8000e+000 97496 -9.5317e+001 -1.9189e+002  4.6360e+001 37766 97542,97372,97346
 2.8000e+000 97473 -9.5807e+001 -2.0231e+002  5.0733e+000 37766 97294,97424,97346
 2.8000e+000 97450 -1.1034e+002 -2.4151e+002  3.0563e+000 37766 97294,97346,97320
 2.8000e+000 97568 -4.5131e+001 -2.5437e+002  2.2919e+001 37766 97424,97398,97542
 2.8000e+000 97591 -6.8174e+001 -1.9632e+002  7.7371e+000 37766 97424,97542,97346
 2.8000e+000 98048 -1.0322e+002 -1.5173e+002 -5.2153e+001 37262 98071,97878,97852
 2.8000e+000 98025 -8.6758e+001 -1.8251e+002 -2.1747e+001 37262 98071,97852,97800
 2.8000e+000 98002 -1.0182e+002 -2.2827e+002 -2.1141e+001 37262 97800,97852,97826
 2.8000e+000 97979 -1.0284e+002 -1.9746e+002  3.9309e+000 37262 97800,97930,97904
 2.8000e+000 97956 -6.9786e+001 -2.3682e+002  1.3866e+001 37262 97774,97930,97800
 2.8000e+000 98097 -1.4890e+002 -1.7385e+002 -3.7973e+001 37262 97904,97878,98071
 2.8000e+000 98120 -1.1163e+002 -2.0695e+002 -1.0129e+001 37262 97904,98071,97800
 2.8000e+000 98449 -5.0032e+001 -1.4004e+002 -1.7635e+001 36950 98472,98302,98250
 2.8000e+000 98426 -2.8389e+001 -1.3274e+002 -2.1813e+001 36950 98472,98250,98354
 2.8000e+000 98403 -7.9078e+001 -1.5615e+002  1.8002e+001 36950 98250,98302,98276
 2.8000e+000 98380 -1.8109e+001 -1.0298e+002  1.2484e+001 36950 98224,98354,98250
 2.8000e+000 98498 -3.4013e+001 -1.5837e+002 -4.7351e+000 36950 98328,98302,98472
 2.8000e+000 98521 -8.5020e+000 -1.4742e+002 -1.2551e+001 36950 98328,98472,98354
 2.8000e+000 99125 -1.0866e+002 -1.0768e+002  1.0400e+001 36296 98704,98756,98730
 2.8000e+000 99102 -1.0886e+002 -1.1876e+002  1.1015e+001 36296 98704,98938,98756
 2.8000e+000 99079 -7.7781e+001 -1.4773e+002 -4.3678e+000 36296 99148,98938,98912
 2.8000e+000 99056 -8.3387e+001 -1.5381e+002  3.4682e+001 36296 99292,99220,98782
 2.8000e+000 99033 -6.7559e+001 -1.7303e+002  3.7016e+000 36296 99148,98912,98834
 2.8000e+000 99010 -7.9963e+001 -1.3178e+002  3.8844e+001 36296 99292,98782,98756
 2.8000e+000 98987 -6.4056e+001 -3.0603e+002 -5.7734e+001 36296 98834,98912,98886
 2.8000e+000 98964 -1.1139e+002 -4.4788e+002 -7.4029e+001 36296 98834,98886,98860
 2.8000e+000 99174 -9.7010e+001 -1.8469e+002  5.3420e+000 36296 99220,98938,99148
 2.8000e+000 99197 -6.5977e+001 -2.1129e+002  2.2414e+001 36296 98808,99148,98834
 2.8000e+000 99246 -8.2935e+001 -1.5189e+002  8.6847e+001 36296 98808,98782,99220
 2.8000e+000 99269 -3.2940e+001 -1.3483e+002  2.7396e+001 36296 98808,99220,99148
 2.8000e+000 99318 -9.0861e+001 -1.3309e+002  1.9815e+001 36296 98938,99220,99292
 2.8000e+000 99341 -9.2745e+001 -1.3640e+002  2.3709e+001 36296 98938,99292,98756
 2.8000e+000 99719 -1.1044e+002 -2.3437e+002 -5.0381e-001 35742 99742,99471,99601
 2.8000e+000 99696 -1.1330e+002 -1.8323e+002  2.2386e+001 35742 99445,99601,99471
 2.8000e+000 99673 -1.0505e+002 -2.2204e+002 -9.7258e+000 35742 99742,99601,99575
 2.8000e+000 99650 -9.1741e+001 -2.7652e+002 -8.1805e+000 35742 99814,99549,99523
 2.8000e+000 99627 -6.9074e+001 -2.1383e+002 -3.6810e+000 35742 99471,99523,99497
 2.8000e+000 99768 -8.8021e+001 -2.2924e+002  4.1306e+000 35742 99523,99471,99742
 2.8000e+000 99791 -1.0421e+002 -2.5510e+002 -7.0292e+000 35742 99814,99523,99742
 2.8000e+000 99840 -9.0364e+001 -2.4978e+002 -1.6350e+001 35742 99575,99549,99814
 2.8000e+000 99863 -9.8128e+001 -2.2180e+002 -1.4446e+001 35742 99575,99814,99742
 2.8000e+000 100111 -8.2069e+001 -1.8928e+002  1.4165e+001 35302 100134,99990,99938
 2.8000e+000 100088 -6.7208e+001 -1.7202e+002  4.6008e+000 35302 100134,99938,99912
 2.8000e+000 100065 -6.7054e+001 -1.7254e+002 -4.5436e+000 35302 100206,99886,100016
 2.8000e+000 100042 -1.0749e+002 -1.7871e+002  8.7499e+000 35302 99938,99990,99964
 2.8000e+000 100160 -6.2860e+001 -1.8200e+002  3.3416e+000 35302 100016,99990,100134
 2.8000e+000 100183 -6.4330e+001 -1.7498e+002 -4.5031e+000 35302 100206,100016,100134
 2.8000e+000 100232 -6.9177e+001 -1.7545e+002 -2.6382e+000 35302 99912,99886,100206
 2.8000e+000 100255 -6.6715e+001 -1.7858e+002 -2.7237e+000 35302 99912,100206,100134
 2.8000e+000 100586 -1.1213e+002 -1.2716e+002  3.6388e+001 35012 100609,100387,100361
 2.8000e+000 100563 -1.3590e+002 -9.2171e+001 -2.3810e+001 35012 100609,100361,100465
 2.8000e+000 100540 -6.1149e+001 -6.5633e+001 -5.6960e+001 35012 100361,100491,100465
 2.8000e+000 100517 -2.1083e+001 -7.2347e+001 -5.5525e+001 35012 100413,100465,100439
 2.8000e+000 100635 -5.1324e+001 -1.0042e+002  1.4508e+001 35012 100413,100387,100609
 2.8000e+000 100658 -7.2853e+001 -5.5986e+001 -4.7206e+001 35012 100413,100609,100465
 2.8000e+000 100987 -8.5599e+001 -1.9213e+002  2.0038e+001 34700 100788,100866,100814
 2.8000e+000 100964 -7.6699e+001 -1.5758e+002  2.9295e+001 34700 101010,100866,100788
 2.8000e+000 100941 -4.9083e+001 -1.1126e+002  3.1763e+001 34700 100762,100892,100866
 2.8000e+000 100918 -8.2800e+001 -1.8353e+002  1.3339e+001 34700 100814,100866,100840
 2.8000e+000 101036 -5.0512e+001 -1.3621e+002  4.9756e+001 34700 100762,100866,101010
 2.8000e+000 101493 -1.1529e+002 -2.2188e+002 -1.9631e+001 34132 101516,101349,101297
 2.8000e+000 101470 -1.3904e+002 -2.6613e+002 -3.1686e+001 34132 101588,101516,101297
 2.8000e+000 101447 -1.3933e+002 -2.8022e+002 -4.7215e+001 34132 101588,101297,101245
 2.8000e+000 101424 -8.5191e+001 -3.2887e+002 -4.3774e+001 34132 101245,101297,101271
 2.8000e+000 101401 -1.2630e+002 -2.2287e+002 -2.3509e+001 34132 101297,101349,101323
 2.8000e+000 101542 -1.1928e+002 -2.5636e+002 -1.5721e+001 34132 101375,101349,101516
 2.8000e+000 101565 -1.0699e+002 -2.5517e+002 -1.6326e+001 34132 101375,101516,101219
 2.8000e+000 101614 -1.0953e+002 -2.6700e+002 -1.6572e+001 34132 101219,101516,101588
 2.8000e+000 101637 -1.2437e+002 -2.8106e+002 -3.1319e+001 34132 101219,101588,101245
 2.8000e+000 101858 -2.7541e+001 -1.8899e+002  1.5352e+001 33720 101708,101786,101760
 2.8000e+000 101835 -5.9665e+001 -2.3174e+002  9.3860e-001 33720 101682,101786,101708
 2.8000e+000 101812 -7.4196e+001 -2.1138e+002  7.8976e+000 33720 101708,101760,101734
 2.8000e+000 102128 -2.3923e+001 -2.2871e+002 -6.2243e+000 33130 101903,102007,101929
 2.8000e+000 102105 -2.9399e+001 -2.6387e+002  8.3192e+000 33130 101903,102033,102007
 2.8000e+000 102082 -1.0986e+001 -2.7515e+002 -5.5153e+001 33130 101929,102007,101955
 2.8000e+000 102059 -3.8895e+001 -1.9331e+002  4.1268e+000 33130 101955,102007,101981
 2.8000e+000 102461 -9.3153e+001 -2.0490e+002 -1.3635e+001 32840 102236,102340,102262
 2.8000e+000 102438 -8.2371e+001 -1.4703e+002  1.0968e+001 32840 102236,102366,102340
 2.8000e+000 102415 -6.1579e+001 -1.9365e+002 -1.4160e+001 32840 102262,102340,102288
 2.8000e+000 102392 -1.1184e+002 -2.0544e+002 -3.9634e+001 32840 102288,102340,102314
 2.8000e+000 102997 -7.5852e+001 -1.2946e+002  3.7471e+001 32493 102749,102879,102853
 2.8000e+000 102974 -6.0891e+001 -1.0078e+002  2.5797e+001 32493 102723,102879,102749
 2.8000e+000 102951 -8.9138e+001 -1.5906e+002  2.4857e+001 32493 102749,102801,102775
 2.8000e+000 102928 -9.5201e+001 -1.5787e+002  2.3823e+001 32493 102749,102853,102801
 2.8000e+000 102905 -8.9413e+001 -1.4692e+002  2.0903e+001 32493 102801,102853,102827
 2.8000e+000 103454 -9.0462e+001 -1.6392e+002 -1.5040e+001 32089 103206,103336,103310
 2.8000e+000 103431 -7.3100e+001 -1.6858e+002 -2.0556e+000 32089 103180,103336,103206
 2.8000e+000 103408 -9.6710e+001 -1.9056e+002 -3.4469e+001 32089 103206,103284,103258
 2.8000e+000 103385 -1.4075e+002 -1.9915e+002 -3.8969e+001 32089 103206,103310,103284
 2.8000e+000 103362 -8.3063e+001 -1.4726e+002 -4.6753e+000 32089 103206,103258,103232
 2.8000e+000 103783 -1.5716e+002 -2.0683e+002 -2.5394e+001 31742 103558,103662,103584
 2.8000e+000 103760 -1.2758e+002 -1.6115e+002 -5.6692e+001 31742 103558,103688,103662
 2.8000e+000 103737 -1.0183e+002 -1.6396e+002 -4.6299e+001 31742 103584,103662,103636
 2.8000e+000 103714 -9.7188e+001 -1.7878e+002 -4.9668e+001 31742 103584,103636,103610
 2.8000e+000 104112 -8.5099e+000 -1.6370e+002  3.6781e+001 31402 103939,103991,103965
 2.8000e+000 104089 -4.7245e+001 -1.3978e+002  1.4717e+001 31402 103913,103991,103939
 2.8000e+000 104066 -6.8402e+001 -1.5748e+002  5.7402e+000 31402 103913,104017,103991
 2.8000e+000 104043 -8.3982e+001 -1.4424e+002 -5.1335e+000 31402 103887,104017,103913
 2.8000e+000 104569 -1.4836e+002 -2.5895e+002  6.0371e+000 30998 104321,104425,104373
 2.8000e+000 104546 -1.6455e+002 -2.6260e+002  1.5636e+000 30998 104321,104451,104425
 2.8000e+000 104523 -1.1925e+002 -2.1442e+002  3.0659e+001 30998 104373,104425,104399
 2.8000e+000 104500 -1.3486e+002 -2.9673e+002 -1.5174e+001 30998 104295,104451,104321
 2.8000e+000 104477 -1.9466e+002 -3.0069e+002  5.2420e+001 30998 104321,104373,104347
 2.8000e+000 104947 -1.1920e+002 -2.1170e+002 -2.4008e+001 30608 104751,104803,104777
 2.8000e+000 104924 -8.2554e+001 -2.2237e+002 -1.0546e+001 30608 104725,104803,104751
 2.8000e+000 104901 -1.2467e+002 -2.1370e+002  1.2610e+001 30608 104699,104803,104725
 2.8000e+000 104878 -1.1240e+002 -2.1030e+002  1.4489e+001 30608 104673,104803,104699
 2.8000e+000 104855 -8.5166e+001 -1.9730e+002 -6.4190e+000 30608 104673,104829,104803
 2.8000e+000 105276 -8.6050e+001 -2.0116e+002  9.0274e+000 30204 105427,105129,105077
 2.8000e+000 105253 -5.6417e+001 -2.1995e+002  4.6669e+001 30204 105427,105077,105051
 2.8000e+000 105230 -4.2368e+001 -2.0137e+002  5.1693e+000 30204 105077,105129,105103
 2.8000e+000 105207 -5.3274e+001 -1.8298e+002  2.9595e+001 30204 105299,105181,105155
 2.8000e+000 105325 -5.3937e+001 -1.7809e+002  1.0276e+001 30204 105129,105181,105299
 2.8000e+000 105453 -1.0460e+002 -2.1381e+002  2.6770e+001 30204 105181,105129,105427
 2.8000e+000 105476 -1.2283e+002 -2.5451e+002  6.9494e+001 30204 105181,105427,105051
 2.8000e+000 105903 -6.8287e+001 -1.6494e+002 -1.3473e+001 29700 105606,105762,105736
 2.8000e+000 105880 -8.8608e+001 -1.6909e+002  5.8759e-001 29700 105580,105762,105606
 2.8000e+000 105857 -1.0931e+002 -2.1093e+002 -1.5362e+001 29700 105606,105710,105632
 2.8000e+000 105834 -8.8024e+001 -1.7720e+002 -5.9904e+000 29700 105606,105736,105710
 2.8000e+000 105811 -8.7168e+001 -1.9244e+002 -2.6181e+001 29700 105632,105710,105684
 2.8000e+000 105788 -8.2543e+001 -1.8000e+002 -1.0334e+000 29700 105632,105684,105658
 2.8000e+000 106102 -4.0601e+001 -2.2128e+002  6.5278e+000 29124 105978,106030,106004
 2.8000e+000 106079 -6.9578e+001 -2.2060e+002  5.7331e+000 29124 105926,106030,105978
 2.8000e+000 106056 -7.5064e+001 -2.4876e+002  2.7288e+001 29124 105926,105978,105952
 2.8000e+000 106301 -5.2357e+001 -2.0650e+002  8.7499e-001 28712 106151,106229,106203
 2.8000e+000 106278 -6.4365e+001 -2.2696e+002 -9.4129e+000 28712 106125,106229,106151
 2.8000e+000 106255 -5.4337e+001 -2.1816e+002  1.2484e+001 28712 106151,106203,106177
 2.8000e+000 106551 -7.1168e+001 -2.5539e+002  4.5409e+000 28258 106352,106404,106378
 2.8000e+000 106528 -8.3893e+001 -2.5681e+002  5.8573e-002 28258 106352,106456,106404
 2.8000e+000 106505 -9.8834e+001 -2.7596e+002 -7.9494e+000 28258 106326,106456,106352
 2.8000e+000 106482 -7.9429e+001 -2.3829e+002  4.3367e+000 28258 106404,106456,106430
 2.8000e+000 107012 -8.5783e+001 -2.2183e+002  4.3888e+001 27818 107035,106790,106764
 2.8000e+000 106989 -7.4706e+001 -2.1073e+002  1.6718e+001 27818 107035,106764,106868
 2.8000e+000 106966 -5.1957e+001 -2.5668e+002  2.4883e+001 27818 107107,106842,106816
 2.8000e+000 106943 -1.1403e+002 -1.9471e+002  8.6282e+000 27818 106738,106868,106764
 2.8000e+000 106920 -1.0676e+002 -1.6562e+002  2.9019e+001 27818 106738,106894,106868
 2.8000e+000 107061 -3.6430e+001 -2.1268e+002  5.0867e+001 27818 106816,106790,107035
 2.8000e+000 107084 -6.5920e+001 -2.3909e+002  2.6296e+001 27818 107107,106816,107035
 2.8000e+000 107133 -5.0194e+001 -2.3082e+002  1.2285e+001 27818 106868,106842,107107
 2.8000e+000 107156 -5.8818e+001 -2.0421e+002  1.7064e+001 27818 106868,107107,107035
 2.8000e+000 107613 -2.4844e+001 -1.6703e+002  3.5949e+001 27312 107339,107469,107365
 2.8000e+000 107590  1.5210e-002 -1.5275e+002  3.0026e+001 27312 107339,107495,107469
 2.8000e+000 107567 -2.6074e+001 -1.6149e+002  1.6486e+001 27312 107391,107469,107443
 2.8000e+000 107544 -2.6694e+001 -1.7523e+002  1.3383e+001 27312 107365,107469,107391
 2.8000e+000 107521 -7.4487e+001 -1.7670e+002  5.3326e+000 27312 107391,107443,107417
 2.8000e+000 107991 -9.3059e+001 -2.5180e+002  4.1748e+000 26858 108086,108014,107795
 2.8000e+000 107968 -1.0021e+002 -2.6363e+002 -2.7038e+001 26858 108014,107717,107873
 2.8000e+000 107945 -1.0787e+002 -2.6360e+002  1.4692e+001 26858 108158,108086,107795
 2.8000e+000 107922 -9.0508e+001 -2.6100e+002  1.2944e+001 26858 108158,107795,107769
 2.8000e+000 107899 -5.8603e+001 -3.2251e+002  4.5455e+001 26858 107821,107873,107847
 2.8000e+000 108040 -9.4134e+001 -2.8685e+002  1.2603e+001 26858 107821,107795,108014
 2.8000e+000 108063 -4.2471e+001 -2.7597e+002 -6.0476e+000 26858 107821,108014,107873
 2.8000e+000 108112 -1.3065e+002 -2.6609e+002  1.0143e+001 26858 107717,108014,108086
 2.8000e+000 108135 -1.0973e+002 -2.7660e+002  2.7952e+001 26858 107717,108086,107743
 2.8000e+000 108184 -8.7335e+001 -2.6287e+002  2.0725e+001 26858 107743,108086,108158
 2.8000e+000 108207 -8.0041e+001 -2.6750e+002  2.0419e+001 26858 107743,108158,107769
 2.8000e+000 108634 -1.2272e+002 -2.4173e+002  2.2958e+000 26404 108657,108415,108363
 2.8000e+000 108611 -1.3808e+002 -2.6271e+002  2.5045e+001 26404 108657,108363,108337
 2.8000e+000 108588 -1.2094e+002 -2.4344e+002  2.9933e+001 26404 108729,108311,108467
 2.8000e+000 108565 -1.3671e+002 -2.8142e+002  9.1119e-001 26404 108801,108441,108415
 2.8000e+000 108542 -1.7953e+002 -2.7008e+002  3.6524e+001 26404 108311,108493,108467
 2.8000e+000 108519 -8.7556e+001 -2.4276e+002  2.1527e+000 26404 108363,108415,108389
 2.8000e+000 108683 -1.6208e+002 -2.5711e+002  4.3982e+000 26404 108801,108415,108657
 2.8000e+000 108706 -1.5825e+002 -2.5391e+002  2.3477e+001 26404 108729,108467,108657
 2.8000e+000 108755 -9.6762e+001 -2.5918e+002  2.9907e+001 26404 108337,108311,108729
 2.8000e+000 108778 -1.1582e+002 -2.5647e+002  2.2853e+001 26404 108337,108729,108657
 2.8000e+000 108827 -1.6281e+002 -3.2745e+002 -1.3277e+001 26404 108467,108441,108801
 2.8000e+000 108850 -1.7787e+002 -2.8699e+002 -9.0128e+000 26404 108467,108801,108657
 2.8000e+000 109228 -1.0989e+002 -2.4280e+002 -1.0497e+001 26064 109006,109084,109058
 2.8000e+000 109205 -8.8716e+001 -2.2315e+002  5.9371e+000 26064 108980,109084,109006
 2.8000e+000 109182 -1.0309e+002 -2.1864e+002 -3.0319e+000 26064 108980,109110,109084
 2.8000e+000 109159 -1.0510e+002 -2.5135e+002 -3.4879e+000 26064 109006,109058,109032
 2.8000e+000 109136  9.1270e+000 -1.9539e+002  1.6690e+001 26064 108954,109110,108980
 2.8000e+000 109427 -3.5292e+001 -2.1147e+002 -4.4260e+001 25660 109303,109355,109329
 2.8000e+000 109404 -6.3474e+001 -2.6790e+002 -1.2494e+001 25660 109277,109355,109303
 2.8000e+000 109381 -5.3990e+001 -2.4498e+002 -2.9860e+000 25660 109251,109355,109277
 2.8000e+000 109577 -4.7482e+001 -1.1787e+002  4.0444e+001 25306 109476,109528,109502
 2.8000e+000 109554 -5.1552e-002 -1.1209e+002  2.2088e+001 25306 109450,109528,109476
 2.8000e+000 109778 -7.9700e+001 -2.2468e+002  4.8567e+000 24944 109628,109706,109654
 2.8000e+000 109755 -8.8254e+001 -2.2382e+002 -1.3345e+000 24944 109602,109706,109628
 2.8000e+000 109732 -7.0734e+001 -2.1081e+002 -1.8967e+000 24944 109654,109706,109680
 2.8000e+000 110126 -8.6664e+001 -2.9082e+002  6.5309e+000 24440 110149,109907,109855
 2.8000e+000 110103 -8.1901e+001 -3.0433e+002  1.4423e+001 24440 110149,109855,109985
 2.8000e+000 110080 -7.4143e+001 -2.5385e+002  5.2432e+000 24440 109855,109907,109881
 2.8000e+000 110057 -8.1694e+001 -2.4126e+002  7.4791e+001 24440 109829,109985,109855
 2.8000e+000 110034 -7.7242e+001 -2.9277e+002  3.5342e-001 24440 109907,109959,109933
 2.8000e+000 110011 -7.9539e+001 -2.5533e+002  1.4194e+001 24440 109803,109985,109829
 2.8000e+000 110175 -8.3413e+001 -2.7967e+002  5.3577e+000 24440 109959,109907,110149
 2.8000e+000 110198 -7.7988e+001 -2.9074e+002  1.4605e+001 24440 109959,110149,109985
 2.8000e+000 110301 -1.1462e+001 -1.8765e+002 -6.6365e+000 24028 110223,110275,110249
 2.8000e+000 110573 -3.2391e+001 -1.6492e+002  1.2366e+001 23467 110400,110452,110426
 2.8000e+000 110550 -5.7628e+001 -1.9841e+002 -5.4865e-001 23467 110374,110452,110400
 2.8000e+000 110527 -5.6900e+001 -1.9804e+002  2.2281e+000 23467 110348,110452,110374
 2.8000e+000 110504 -4.1233e+001 -1.9215e+002 -1.9702e+000 23467 110348,110478,110452
 2.8000e+000 111004 -1.3857e+002 -2.9366e+002 -3.3395e+001 22963 111027,110733,110707
 2.8000e+000 110981 -1.3470e+002 -2.7726e+002  1.2461e+001 22963 111027,110707,110681
 2.8000e+000 110958 -6.6580e+001 -2.4442e+002 -2.8645e+001 22963 111099,110759,110733
 2.8000e+000 110935 -8.2799e+001 -2.4199e+002 -2.0016e+001 22963 111171,110863,110811
 2.8000e+000 110912 -4.3578e+001 -1.7981e+002 -3.2008e+001 22963 110759,110811,110785
 2.8000e+000 110889 -8.9665e+001 -2.5680e+002 -1.8219e+001 22963 110811,110863,110837
 2.8000e+000 111053 -9.6052e+001 -2.6383e+002 -1.8712e+001 22963 111099,110733,111027
 2.8000e+000 111076 -7.9197e+001 -2.5952e+002 -1.6677e+001 22963 111171,110811,111027
 2.8000e+000 111125 -6.5599e+001 -2.4077e+002 -4.4876e+001 22963 110811,110759,111099
 2.8000e+000 111148 -7.0687e+001 -2.3889e+002 -3.9062e+001 22963 110811,111099,111027
 2.8000e+000 111197 -8.5127e+001 -2.1086e+002 -2.5857e+001 22963 110681,110863,111171
 2.8000e+000 111220 -9.1859e+001 -2.3385e+002 -1.3960e+001 22963 110681,111171,111027
 2.8000e+000 111726 -1.3029e+002 -2.5657e+002  6.2633e+000 22459 111749,111507,111429
 2.8000e+000 111703 -1.1962e+002 -2.5305e+002 -2.8746e+000 22459 111749,111429,111585
 2.8000e+000 111680 -1.0454e+002 -2.7864e+002 -1.1644e+000 22459 111403,111585,111429
 2.8000e+000 111657 -1.2557e+002 -2.7798e+002  1.2277e+001 22459 111507,111559,111533
 2.8000e+000 111634 -1.6840e+002 -2.4423e+002  1.4843e+001 22459 111455,111507,111481
 2.8000e+000 111611 -1.7737e+002 -2.4442e+002  2.1949e+001 22459 111429,111507,111455
 2.8000e+000 111775 -1.2979e+002 -2.7066e+002  1.5840e+001 22459 111559,111507,111749
 2.8000e+000 111798 -1.1926e+002 -2.6019e+002  6.8175e+000 22459 111559,111749,111585
 2.8000e+000 112046 -5.4394e+001 -2.0903e+002 -2.8173e+001 21898 112069,111925,111873
 2.8000e+000 112023 -5.2219e+001 -2.1102e+002 -6.8074e+000 21898 112069,111873,111847
 2.8000e+000 112000 -7.2153e+001 -2.1486e+002 -1.0537e+001 21898 111821,111951,111847
 2.8000e+000 111977 -6.2153e+001 -1.6046e+002 -1.7404e+001 21898 111873,111925,111899
 2.8000e+000 112095 -8.4538e+001 -2.2025e+002 -3.1994e+001 21898 111951,111925,112069
 2.8000e+000 112118 -6.9750e+001 -2.1733e+002 -1.1485e+001 21898 111951,112069,111847
 2.8000e+000 112498 -1.0480e+002 -2.4043e+002 -2.1902e+001 21608 112521,112276,112224
 2.8000e+000 112475 -6.7833e+001 -2.4460e+002  5.0443e-001 21608 112521,112224,112380
 2.8000e+000 112452 -7.0152e+001 -2.7131e+002  1.8943e+001 21608 112302,112380,112354
 2.8000e+000 112429 -1.1967e+002 -2.6946e+002 -1.5586e+001 21608 112224,112276,112250
 2.8000e+000 112406  3.9018e+001 -2.9497e+002 -1.2081e+001 21608 112302,112354,112328
 2.8000e+000 112547 -7.4507e+001 -2.0481e+002 -5.2717e+000 21608 112302,112276,112521
 2.8000e+000 112570 -5.0370e+001 -2.3405e+002  1.0598e+001 21608 112302,112521,112380
 2.8000e+000 112948 -1.2052e+002 -2.4847e+002 -4.8487e+000 20882 112971,112752,112700
 2.8000e+000 112925 -9.3721e+001 -2.3879e+002 -8.5653e+000 20882 112971,112700,112830
 2.8000e+000 112902 -1.5242e+002 -2.6388e+002  1.6341e+001 20882 112778,112830,112804
 2.8000e+000 112879 -8.6599e+001 -1.9260e+002 -1.2292e+001 20882 112674,112830,112700
 2.8000e+000 112856 -1.4660e+002 -2.5920e+002  4.2495e+000 20882 112700,112752,112726
 2.8000e+000 112997 -1.2063e+002 -2.4672e+002  1.0205e+001 20882 112778,112752,112971
 2.8000e+000 113020 -1.0557e+002 -2.4192e+002  5.7964e+000 20882 112778,112971,112830
 2.8000e+000 113526 -9.0881e+001 -2.5151e+002  4.7860e-001 20428 113255,113385,113333
 2.8000e+000 113503 -9.9643e+001 -2.7612e+002 -2.7879e-001 20428 113229,113385,113255
 2.8000e+000 113480 -1.8272e+001 -2.4602e+002  1.5541e+000 20428 113255,113333,113281
 2.8000e+000 113457 -8.8778e+001 -2.7183e+002  1.3270e+000 20428 113203,113385,113229
 2.8000e+000 113434 -4.8465e+001 -2.5779e+002 -8.4856e+000 20428 113281,113333,113307
 2.8000e+000 113411 -1.0545e+002 -2.4850e+002  4.0349e+000 20428 113333,113385,113359
 2.8000e+000 113774 -7.7306e+000 -2.2921e+002  8.1052e+000 19917 113797,113601,113549
 2.8000e+000 113751 -3.0958e+001 -2.3149e+002  1.0184e+001 19917 113869,113797,113549
 2.8000e+000 113728 -2.9738e+001 -2.3393e+002  1.9287e+001 19917 113869,113549,113679
 2.8000e+000 113705 -1.6543e+001 -2.2747e+002  1.9665e+001 19917 113549,113601,113575
 2.8000e+000 113823 -3.2613e+001 -2.8396e+002 -1.6066e+000 19917 113627,113601,113797
 2.8000e+000 113846 -6.3300e+000 -2.1917e+002 -7.1770e+000 19917 113627,113797,113653
 2.8000e+000 113895 -2.6591e+001 -2.0877e+002  2.1488e+000 19917 113653,113797,113869
 2.8000e+000 113918 -3.5447e+001 -2.1528e+002  1.3894e+001 19917 113653,113869,113679
 2.8000e+000 114166 -1.1230e+002 -2.4702e+002 -4.0454e+000 19413 113993,114045,114019
 2.8000e+000 114143 -1.0820e+002 -2.3137e+002  1.1328e+000 19413 113967,114045,113993
 2.8000e+000 114120 -8.9911e+001 -2.2465e+002  1.0247e+001 19413 113967,114071,114045
 2.8000e+000 114097 -8.0117e+001 -2.5405e+002 -6.1637e+000 19413 113941,114071,113967
 2.8000e+000 114438 -9.8838e+001 -2.6543e+002  2.5411e+000 19001 114213,114265,114239
 2.8000e+000 114415 -6.9737e+001 -2.0570e+002 -6.7504e+000 19001 114213,114343,114265
 2.8000e+000 114392 -1.0518e+002 -2.8548e+002 -1.3232e+001 19001 114265,114343,114317
 2.8000e+000 114369  2.6654e+001 -2.2893e+002 -5.6988e+000 19001 114265,114317,114291
 2.8000e+000 114639 -6.4539e+001 -3.1757e+002  1.9121e+001 18554 114489,114541,114515
 2.8000e+000 114616 -6.1457e+001 -2.6872e+002  5.4675e+000 18554 114489,114567,114541
 2.8000e+000 114593 -1.4140e+002 -3.0804e+002 -1.8514e+001 18554 114463,114567,114489
 2.8000e+000 115043 -5.5354e+001 -2.3942e+002  8.8748e+000 18164 114795,114925,114821
 2.8000e+000 115020 -5.0678e+001 -2.5409e+002  1.3437e+001 18164 114769,114925,114795
 2.8000e+000 114997 -3.2283e+001 -2.5079e+002 -1.4984e+000 18164 115066,114873,114821
 2.8000e+000 114974 -3.0377e+001 -2.1623e+002 -7.6452e+000 18164 115066,114821,114925
 2.8000e+000 114951  1.0504e+001 -2.5159e+002 -2.3113e+001 18164 114821,114873,114847
 2.8000e+000 115092 -4.4701e+001 -2.2591e+002 -1.9621e+001 18164 114899,114873,115066
 2.8000e+000 115115 -2.8616e+001 -1.7304e+002 -2.7453e+001 18164 114899,115066,114925
 2.8000e+000 115265 -7.7043e+001 -2.7528e+002  1.6011e+000 17852 115164,115216,115190
 2.8000e+000 115242 -8.4995e+001 -2.8497e+002 -1.8477e+000 17852 115138,115216,115164
 2.8000e+000 115464 -1.6216e+002 -3.6639e+002  5.5612e+000 17346 115288,115366,115340
 2.8000e+000 115441 -2.5077e+002 -2.8509e+002 -1.0172e+001 17346 115288,115392,115366
 2.8000e+000 115418 -1.4640e+002 -4.1104e+002 -1.2103e+001 17346 115288,115340,115314
 2.8000e+000 115736 -7.3236e+001 -2.4691e+002  9.9139e+000 16942 115563,115641,115615
 2.8000e+000 115713 -8.1320e+001 -2.4508e+002  2.6555e+000 16942 115511,115641,115563
 2.8000e+000 115690 -1.7365e+002 -2.8549e+002  1.5215e+001 16942 115563,115615,115589
 2.8000e+000 115667 -9.5286e+001 -2.6611e+002  8.7238e+000 16942 115511,115563,115537
 2.8000e+000 116091 -1.2159e+002 -2.8177e+002 -1.1516e+001 16388 115918,115970,115944
 2.8000e+000 116068 -1.0404e+002 -2.2462e+002 -7.8310e+000 16388 115918,115996,115970
 2.8000e+000 116045 -1.4061e+002 -2.8520e+002  8.9311e+000 16388 115892,115996,115918
 2.8000e+000 116022 -9.3624e+001 -2.6100e+002  3.0925e+001 16388 115866,115996,115892
 2.8000e+000 116192 -4.8996e+001 -3.0786e+002 -4.1384e+001 15810 116114,116166,116140
 2.8000e+000 116342 -1.1188e+002 -3.6437e+002  1.9085e+001 15419 116241,116293,116267
 2.8000e+000 116319 -1.6073e+002 -4.4538e+002 -1.3098e+001 15419 116215,116293,116241
 2.8000e+000 116445 -1.2686e+002 -2.4897e+002  1.8782e+000 421 116367,116419,116393
 2.9000e+000 68477 -1.6886e+002 -2.6122e+002 -7.8798e-003 68018 68327,68379,68353
 2.9000e+000 68454 -1.7959e+002 -3.5580e+002  2.6969e+001 68018 68301,68379,68327
 2.9000e+000 68431 -6.5333e+001 -3.9120e+002  7.0954e+001 68018 68301,68405,68379
 2.9000e+000 68578 -1.1011e+002 -2.5138e+002  1.5022e+000 67820 68500,68552,68526
 2.9000e+000 68728 -1.2418e+002 -2.4024e+002 -3.7438e+000 67508 68601,68653,68627
 2.9000e+000 68705 -1.9724e+002 -1.8271e+002 -3.5846e+001 67508 68601,68679,68653
 2.9000e+000 68927 -2.4273e+001 -2.0022e+002 -5.6985e+000 67310 68777,68829,68803
 2.9000e+000 68904 -4.4251e+001 -2.3145e+002  3.3686e+000 67310 68751,68829,68777
 2.9000e+000 68881 -2.4859e+001 -2.2904e+002  1.7403e+001 67310 68751,68855,68829
 2.9000e+000 69386 -9.4547e+001 -2.6738e+002 -1.6245e+001 67020 69216,69268,69242
 2.9000e+000 69363 -8.4893e+001 -2.0477e+002 -2.9636e+001 67020 69138,69268,69216
 2.9000e+000 69340 -6.1618e+001 -1.7473e+002 -1.1003e+001 67020 69112,69268,69138
 2.9000e+000 69317 -1.1734e+002 -2.2102e+002  1.7564e+001 67020 69138,69190,69164
 2.9000e+000 69294 -1.2364e+002 -2.0073e+002 -1.3941e+001 67020 69138,69216,69190
 2.9000e+000 69536 -2.1256e+002 -5.1645e+002 -4.4371e+001 66708 69435,69487,69461
 2.9000e+000 69513 -1.5564e+002 -5.8243e+002 -8.6486e+000 66708 69409,69487,69435
 2.9000e+000 69735 -1.2290e+002 -2.6820e+002  6.4637e+000 66346 69585,69637,69611
 2.9000e+000 69712 -1.0016e+002 -2.5626e+002 -7.3148e-001 66346 69559,69637,69585
 2.9000e+000 69689 -9.0179e+001 -2.5465e+002 -2.4744e+001 66346 69559,69663,69637
 2.9000e+000 69985 -1.6131e+002 -2.8651e+002  5.0752e+000 66148 69786,69890,69864
 2.9000e+000 69962 -1.7124e+002 -2.9077e+002  5.7640e+000 66148 69760,69890,69786
 2.9000e+000 69939 -1.1083e+002 -2.7457e+002 -4.6565e+001 66148 69786,69864,69838
 2.9000e+000 69916 -1.4057e+002 -3.0116e+002 -1.1485e+001 66148 69786,69838,69812
 2.9000e+000 70137 -8.2317e+001 -3.2003e+002 -1.9488e+001 65950 70036,70088,70062
 2.9000e+000 70114 -6.9705e+001 -3.5346e+002  1.4161e+001 65950 70010,70088,70036
 2.9000e+000 70470 -5.6947e+001 -2.3085e+002  2.1938e+001 65546 70245,70323,70271
 2.9000e+000 70447 -3.6352e+001 -1.9624e+002  1.1672e+001 65546 70245,70375,70323
 2.9000e+000 70424 -5.0831e+001 -2.5557e+002  1.1650e+001 65546 70323,70375,70349
 2.9000e+000 70401 -4.7078e+001 -2.1252e+002  1.1228e+001 65546 70271,70323,70297
 2.9000e+000 70620 -7.9620e+001 -2.7716e+002  1.0944e+001 65348 70493,70545,70519
 2.9000e+000 70597 -7.6028e+001 -2.9768e+002  6.9477e+000 65348 70493,70571,70545
 2.9000e+000 70721 -1.3560e+002 -2.8743e+002  2.1355e+001 65150 70643,70695,70669
 2.9000e+000 71020 -8.6504e+001 -2.1616e+002  5.1955e-001 64952 71043,70850,70824
 2.9000e+000 70997 -7.5152e+001 -1.8726e+002  1.1605e+000 64952 71043,70824,70772
 2.9000e+000 70974 -8.5263e+001 -2.5625e+002  3.9270e+000 64952 71115,70746,70876
 2.9000e+000 70951 -6.1803e+001 -2.5660e+002 -4.0097e+000 64952 70746,70902,70876
 2.9000e+000 70928 -6.9696e+001 -1.4679e+002 -2.3115e+001 64952 70772,70824,70798
 2.9000e+000 71069 -6.7176e+001 -2.0442e+002  9.6273e+000 64952 70876,70850,71043
 2.9000e+000 71092 -8.1895e+001 -2.3944e+002  5.4689e+000 64952 71115,70876,71043
 2.9000e+000 71141 -1.0111e+002 -2.3667e+002 -1.1497e+001 64952 70772,70746,71115
 2.9000e+000 71164 -9.2216e+001 -2.1157e+002 -1.0182e+001 64952 70772,71115,71043
 2.9000e+000 71365  5.8568e+000 -2.6643e+002 -4.0389e+000 64662 71215,71293,71267
 2.9000e+000 71342  7.3754e+001 -2.3755e+002 -6.6766e+001 64662 71189,71293,71215
 2.9000e+000 71319  3.1527e+001 -2.1420e+002  4.1077e+000 64662 71215,71267,71241
 2.9000e+000 71615 -5.5064e+001 -2.5586e+002 -7.2957e+000 64350 71710,71638,71468
 2.9000e+000 71592 -8.4398e+001 -2.5194e+002 -9.7608e+000 64350 71638,71416,71390
 2.9000e+000 71569 -5.8179e+001 -2.3872e+002  6.6522e+000 64350 71710,71468,71442
 2.9000e+000 71546  7.4220e+001 -2.3471e+002 -4.8507e+001 64350 71390,71520,71494
 2.9000e+000 71664 -5.9681e+001 -2.5850e+002 -4.9141e+000 64350 71494,71468,71638
 2.9000e+000 71687 -5.6084e+001 -2.5559e+002 -3.0984e+000 64350 71494,71638,71390
 2.9000e+000 71736 -5.3496e+001 -2.2142e+002  2.6923e+000 64350 71416,71638,71710
 2.9000e+000 71759 -4.5377e+001 -2.0168e+002  2.1270e+001 64350 71416,71710,71442
 2.9000e+000 72318 -5.8965e+001 -4.0197e+002 -1.8447e+001 63837 71972,72024,71998
 2.9000e+000 72295 -8.9332e+001 -2.5093e+002 -6.5689e+000 63837 72341,71972,71946
 2.9000e+000 72272 -8.5838e+001 -2.0496e+002  1.1099e+001 63837 72413,72341,71946
 2.9000e+000 72249 -8.3510e+001 -1.8673e+002  5.6711e+000 63837 72413,71946,72128
 2.9000e+000 72226 -1.2866e+002 -2.2379e+002  5.9911e+000 63837 72024,72076,72050
 2.9000e+000 72203 -1.1515e+002 -2.0294e+002 -5.6241e+000 63837 72024,72102,72076
 2.9000e+000 72180 -7.3008e+001 -1.8485e+002  1.7824e+001 63837 71946,72154,72128
 2.9000e+000 72367 -1.2342e+002 -2.7408e+002 -5.1648e+001 63837 72024,71972,72341
 2.9000e+000 72390 -9.1889e+001 -2.2029e+002 -1.7360e+001 63837 72024,72341,72102
 2.9000e+000 72439 -7.2419e+001 -2.3437e+002  4.7398e+000 63837 72102,72341,72413
 2.9000e+000 72462 -6.9736e+001 -2.1491e+002  1.5531e+000 63837 72102,72413,72128
 2.9000e+000 72791 -1.1524e+002 -2.3218e+002 -2.5985e+001 63383 72592,72696,72670
 2.9000e+000 72768 -1.1830e+002 -2.1710e+002 -4.5081e+001 63383 72566,72696,72592
 2.9000e+000 72745 -1.1590e+002 -2.0252e+002 -1.6963e+000 63383 72592,72670,72618
 2.9000e+000 72722 -1.1073e+002 -1.9223e+002  2.5960e-001 63383 72618,72670,72644
 2.9000e+000 73297 -1.4220e+002 -2.0804e+002 -3.3457e+000 63185 73000,73156,73130
 2.9000e+000 73274 -1.4249e+002 -2.1608e+002  2.6371e+001 63185 72974,73156,73000
 2.9000e+000 73251 -1.0273e+002 -2.3990e+002 -3.8407e+000 63185 73000,73052,73026
 2.9000e+000 73228 -1.1512e+002 -2.1217e+002 -1.1184e+001 63185 73000,73130,73052
 2.9000e+000 73205 -1.1586e+002 -2.4368e+002 -3.7170e+001 63185 73052,73130,73104
 2.9000e+000 73182 -1.1183e+002 -2.6279e+002 -3.9112e+001 63185 73052,73104,73078
 2.9000e+000 73545 -3.3961e+001 -2.1609e+002 -8.1723e-002 62781 73568,73398,73372
 2.9000e+000 73522 -1.4947e+001 -1.9614e+002  1.1022e+001 62781 73568,73372,73346
 2.9000e+000 73499 -4.6214e+001 -2.0647e+002 -8.0620e+000 62781 73640,73320,73424
 2.9000e+000 73476 -7.0838e+001 -1.4539e+002 -1.8442e+001 62781 73320,73450,73424
 2.9000e+000 73594 -3.7895e+001 -1.9746e+002 -2.7762e+000 62781 73424,73398,73568
 2.9000e+000 73617 -3.8511e+001 -2.0190e+002 -3.7947e+000 62781 73640,73424,73568
 2.9000e+000 73666 -4.3007e+001 -2.0037e+002 -1.0376e-001 62781 73346,73320,73640
 2.9000e+000 73689 -3.8688e+001 -1.9546e+002  3.8258e+000 62781 73346,73640,73568
 2.9000e+000 74035 -8.3318e+001 -2.5924e+002 -2.8806e+000 62363 74058,73868,73842
 2.9000e+000 74012 -7.9140e+001 -2.3928e+002 -1.8572e+001 62363 74130,74058,73842
 2.9000e+000 73989 -7.1922e+001 -2.3627e+002 -1.8253e+001 62363 74130,73842,73816
 2.9000e+000 73966 -1.2252e+002 -2.6988e+002  3.8839e+000 62363 74202,73764,73894
 2.9000e+000 73943 -1.5959e+002 -2.4289e+002  5.3308e+000 62363 73712,73894,73764
 2.9000e+000 73920 -1.7601e+002 -2.6063e+002 -3.2147e+000 62363 73712,73764,73738
 2.9000e+000 74084 -8.5310e+001 -2.5196e+002 -2.9845e+000 62363 73894,73868,74058
 2.9000e+000 74107 -1.1055e+002 -2.5715e+002  1.3622e+001 62363 74202,73894,74058
 2.9000e+000 74156 -8.7374e+001 -2.4088e+002  8.4184e+000 62363 73790,74058,74130
 2.9000e+000 74179 -5.1029e+001 -2.2525e+002  1.1557e+001 62363 73790,74130,73816
 2.9000e+000 74228 -1.3615e+002 -2.7586e+002 -1.4832e+001 62363 73790,73764,74202
 2.9000e+000 74251 -1.2735e+002 -2.6237e+002 -5.1718e+000 62363 73790,74202,74058
 2.9000e+000 74403 -2.2906e+000 -2.7681e+002  1.8791e+001 62115 74426,74302,74276
 2.9000e+000 74380  6.0209e+001 -2.6671e+002  4.4271e+001 62115 74426,74276,74354
 2.9000e+000 74452 -6.0227e+001 -2.4788e+002  1.9137e+001 62115 74328,74302,74426
 2.9000e+000 74475 -2.0276e+000 -2.4006e+002  4.6393e+001 62115 74328,74426,74354
 2.9000e+000 74578  5.2518e+001 -1.6341e+002  3.3187e+000 61825 74500,74552,74526
 2.9000e+000 74982 -1.3232e+002 -2.3859e+002  1.7645e+000 61513 75005,74734,74708
 2.9000e+000 74959 -1.2879e+002 -2.3232e+002 -4.4016e-001 61513 75005,74708,74864
 2.9000e+000 74936 -1.6554e+002 -2.4535e+002  1.6114e+001 61513 75077,74812,74734
 2.9000e+000 74913 -1.4645e+002 -2.4656e+002 -2.0964e+001 61513 74734,74786,74760
 2.9000e+000 74890 -1.4375e+002 -2.2025e+002 -1.3741e+000 61513 74734,74812,74786
 2.9000e+000 75031 -1.2425e+002 -2.4467e+002  2.9603e+000 61513 75077,74734,75005
 2.9000e+000 75054 -9.6577e+001 -2.3637e+002  3.6431e+001 61513 74838,75005,74864
 2.9000e+000 75103 -1.8854e+002 -2.5531e+002  5.3472e+001 61513 74838,74812,75077
 2.9000e+000 75126 -1.6160e+002 -2.6477e+002  4.0395e+001 61513 74838,75077,75005
 2.9000e+000 75553 -5.6951e+001 -2.1343e+002 -7.8858e+000 61060 75576,75360,75308
 2.9000e+000 75530 -6.2449e+001 -2.2601e+002 -1.0379e+001 61060 75576,75308,75230
 2.9000e+000 75507 -5.0519e+001 -2.0253e+002  2.2457e+000 61060 75308,75360,75334
 2.9000e+000 75484 -8.6563e+001 -2.6708e+002  1.7204e+001 61060 75230,75308,75256
 2.9000e+000 75461 -5.6093e+001 -2.4515e+002  7.4418e+000 61060 75256,75308,75282
 2.9000e+000 75438 -6.4150e+001 -2.0824e+002  2.9168e+001 61060 75360,75412,75386
 2.9000e+000 75602 -3.7483e+001 -2.2520e+002  1.4710e+000 61060 75412,75360,75576
 2.9000e+000 75625 -5.2319e+001 -2.5114e+002 -4.9465e+000 61060 75412,75576,75230
 2.9000e+000 76052 -9.1467e+001 -2.1685e+002  2.5650e+000 60442 75755,75859,75833
 2.9000e+000 76029 -1.1399e+002 -2.0839e+002 -1.5623e+001 60442 75729,75859,75755
 2.9000e+000 76006 -9.7600e+001 -2.0310e+002  1.4185e+001 60442 75755,75833,75807
 2.9000e+000 75983 -9.0384e+001 -2.4222e+002  8.3341e+000 60442 75755,75807,75781
 2.9000e+000 75960  1.9266e+001 -3.7887e+002  9.5363e+000 60442 75729,75911,75859
 2.9000e+000 75937 -1.8179e+002 -9.6072e+002  5.8983e+001 60442 75859,75911,75885
 2.9000e+000 76430 -9.4069e+001 -2.5117e+002 -8.8220e+000 59788 76453,76286,76234
 2.9000e+000 76407 -1.0224e+002 -2.8451e+002  3.2707e+000 59788 76453,76234,76182
 2.9000e+000 76384 -1.0104e+002 -1.7801e+002  3.2472e+001 59788 76525,76156,76312
 2.9000e+000 76361 -6.2863e+001 -3.3003e+002 -2.6777e+000 59788 76182,76234,76208
 2.9000e+000 76338 -6.4321e+001 -2.4001e+002 -5.1884e+000 59788 76234,76286,76260
 2.9000e+000 76479 -1.1216e+002 -2.6847e+002  8.9841e-001 59788 76312,76286,76453
 2.9000e+000 76502 -9.3923e+001 -2.5046e+002  1.1447e+001 59788 76525,76312,76453
 2.9000e+000 76551 -1.3106e+002 -2.6891e+002  3.2889e+001 59788 76182,76156,76525
 2.9000e+000 76574 -1.1435e+002 -2.9071e+002  1.8483e+001 59788 76182,76525,76453
 2.9000e+000 77031 -5.5536e+001 -1.3256e+002 -3.9079e+001 59448 76835,76887,76861
 2.9000e+000 77008 -6.8793e+000 -1.2626e+002  3.9752e+000 59448 76835,76913,76887
 2.9000e+000 76985 -3.1587e+001 -1.1101e+002  3.2389e+001 59448 76809,76913,76835
 2.9000e+000 76962 -8.2026e+001 -1.3361e+002 -2.8645e+000 59448 76757,76913,76809
 2.9000e+000 76939 -5.9960e+001 -1.2630e+002 -1.1537e+001 59448 76757,76809,76783
 2.9000e+000 77537 -1.0829e+002 -2.3633e+002  1.3052e+001 58994 77560,77344,77292
 2.9000e+000 77514 -1.5435e+002 -2.3475e+002  4.1345e+000 58994 77560,77292,77240
 2.9000e+000 77491 -8.7455e+001 -2.2095e+002 -4.5382e+000 58994 77632,77214,77370
 2.9000e+000 77468 -1.8487e+002 -2.7243e+002  4.8026e+001 58994 77292,77344,77318
 2.9000e+000 77445 -9.0490e+001 -2.8703e+002  1.2273e+001 58994 77214,77396,77370
 2.9000e+000 77422 -1.5779e+002 -2.5092e+002 -5.3882e+000 58994 77240,77292,77266
 2.9000e+000 77586 -1.1096e+002 -2.4094e+002  1.4570e+001 58994 77370,77344,77560
 2.9000e+000 77609 -1.1240e+002 -2.3613e+002  1.6788e+001 58994 77632,77370,77560
 2.9000e+000 77658 -7.4022e+001 -2.0508e+002 -2.7394e+001 58994 77240,77214,77632
 2.9000e+000 77681 -9.2355e+001 -2.0269e+002 -8.1216e+000 58994 77240,77632,77560
 2.9000e+000 78138 -8.1492e+001 -1.5369e+002  2.2389e+001 58440 77864,77994,77890
 2.9000e+000 78115 -4.5798e+001 -8.5470e+001 -1.6128e+001 58440 77864,78020,77994
 2.9000e+000 78092 -9.3379e+001 -1.8484e+002 -1.6140e+001 58440 77942,77994,77968
 2.9000e+000 78069 -7.1951e+001 -1.7190e+002  3.5659e+000 58440 77890,77994,77942
 2.9000e+000 78046 -6.5160e+001 -1.7176e+002 -1.1936e+000 58440 77890,77942,77916
 2.9000e+000 78467 -8.2638e+000 -2.1277e+002  9.2596e+000 57928 78562,78490,78346
 2.9000e+000 78444 -7.8664e+001 -2.1684e+002 -4.8048e+000 57928 78490,78294,78268
 2.9000e+000 78421  6.3461e+000 -2.2436e+002  2.1239e+001 57928 78562,78346,78320
 2.9000e+000 78398 -2.4534e+001 -2.0963e+002  2.6847e+000 57928 78242,78372,78268
 2.9000e+000 78516 -6.6697e+001 -2.6874e+002 -1.4353e+001 57928 78372,78346,78490
 2.9000e+000 78539 -5.0812e+001 -2.0443e+002 -2.3198e+000 57928 78372,78490,78268
 2.9000e+000 78588 -7.8388e+001 -2.1102e+002  2.0864e+000 57928 78294,78490,78562
 2.9000e+000 78611 -3.3655e+001 -1.8803e+002  2.5824e+001 57928 78294,78562,78320
 2.9000e+000 79068 -1.4400e+002 -3.1470e+002 -7.0229e+001 57467 78794,78924,78820
 2.9000e+000 79045 -1.1185e+002 -3.0306e+002 -7.6669e+001 57467 78794,78950,78924
 2.9000e+000 79022 -2.7242e+001 -2.6129e+002  1.6701e+001 57467 78820,78898,78872
 2.9000e+000 78999 -1.2055e+002 -3.7124e+002 -4.5686e+001 57467 78820,78924,78898
 2.9000e+000 78976 -4.1039e+001 -2.7554e+002  3.0004e+001 57467 78820,78872,78846
 2.9000e+000 79446 -1.2525e+002 -2.4608e+002 -1.2150e-001 57120 79172,79302,79250
 2.9000e+000 79423 -1.1210e+002 -2.4020e+002 -6.0757e+000 57120 79172,79328,79302
 2.9000e+000 79400 -1.1245e+002 -2.1395e+002 -8.9370e+000 57120 79172,79250,79198
 2.9000e+000 79377 -8.5134e+001 -3.0726e+002  1.2212e+001 57120 79250,79302,79276
 2.9000e+000 79354 -1.3828e+002 -2.3130e+002 -1.6973e+001 57120 79198,79250,79224
 2.9000e+000 79952 -1.6733e+002 -2.5806e+002 -1.2441e+000 56773 79629,79785,79655
 2.9000e+000 79929 -5.5082e+001 -2.2465e+002  1.0505e+001 56773 79629,79811,79785
 2.9000e+000 79906 -1.2736e+002 -2.8200e+002  1.7034e+001 56773 79655,79733,79681
 2.9000e+000 79883 -1.2608e+002 -2.4882e+002  2.1866e+000 56773 79655,79785,79733
 2.9000e+000 79860 -1.1529e+002 -3.2541e+002 -4.4871e+001 56773 79733,79785,79759
 2.9000e+000 79837 -6.2718e+001 -2.5237e+002  4.6202e+001 56773 79681,79733,79707
 2.9000e+000 80281 -5.1928e+001 -2.0039e+002 -1.6045e+001 56319 80108,80160,80134
 2.9000e+000 80258 -6.0030e+001 -2.1788e+002 -2.0640e+001 56319 80056,80160,80108
 2.9000e+000 80235 -1.8293e+001 -1.9118e+002  1.1128e+001 56319 80056,80186,80160
 2.9000e+000 80212 -8.4987e+001 -2.7650e+002 -1.2294e+001 56319 80056,80108,80082
 2.9000e+000 80738 -3.2771e+001 -2.3427e+002  1.4536e+001 55957 80516,80620,80594
 2.9000e+000 80715 -7.9342e+001 -2.1352e+002  1.2185e+001 55957 80464,80620,80516
 2.9000e+000 80692 -6.8294e+001 -2.5507e+002  1.4065e+001 55957 80761,80568,80542
 2.9000e+000 80669 -5.4272e+001 -2.5104e+002  1.6597e+001 55957 80761,80542,80516
 2.9000e+000 80646 -7.6909e+001 -2.0714e+002  3.2888e+001 55957 80464,80516,80490
 2.9000e+000 80787 -8.1794e+001 -2.5342e+002  1.0038e+001 55957 80594,80568,80761
 2.9000e+000 80810 -6.8652e+001 -2.4980e+002  1.2746e+001 55957 80594,80761,80516
 2.9000e+000 81210 -4.7490e+001 -2.3609e+002 -2.9125e+001 55317 80936,80988,80962
 2.9000e+000 81187 -3.7934e+001 -2.4637e+002 -1.2020e+001 55317 80936,81066,80988
 2.9000e+000 81164 -4.1003e+001 -2.7507e+002 -1.9445e+000 55317 80936,81092,81066
 2.9000e+000 81141 -9.7996e+001 -2.7599e+002 -2.6995e+001 55317 80988,81066,81014
 2.9000e+000 81118 -1.2749e+001 -1.7408e+002  1.1696e+001 55317 81014,81066,81040
 2.9000e+000 81539 -1.0985e+002 -2.5398e+002  8.7357e+000 54913 81340,81418,81392
 2.9000e+000 81516 -4.1565e+001 -2.0338e+002 -1.4083e+001 54913 81340,81444,81418
 2.9000e+000 81493 -6.6657e+001 -2.1851e+002 -2.8388e+001 54913 81314,81444,81340
 2.9000e+000 81470 -1.2295e+002 -2.6622e+002  3.4897e+000 54913 81340,81392,81366
 2.9000e+000 81787 -5.8922e+001 -2.6237e+002 -1.2416e+000 54601 81588,81692,81640
 2.9000e+000 81764 -8.8438e+001 -2.6652e+002 -7.8389e+000 54601 81562,81692,81588
 2.9000e+000 81741 -4.5276e+001 -2.6619e+002  3.4998e+001 54601 81588,81640,81614
 2.9000e+000 81718 -6.0924e+001 -3.1173e+002 -2.6338e+001 54601 81640,81692,81666
 2.9000e+000 82344 -1.0270e+002 -2.8761e+002 -1.6060e+001 54090 81998,82102,82076
 2.9000e+000 82321 -1.3902e+002 -3.0354e+002 -9.2816e+000 54090 81998,82154,82102
 2.9000e+000 82298 -1.2729e+002 -2.9676e+002 -5.9450e+000 54090 81972,82154,81998
 2.9000e+000 82275 -1.4467e+002 -2.6542e+002 -1.9477e+001 54090 81998,82076,82024
 2.9000e+000 82252 -1.5425e+002 -3.1590e+002  1.4940e+001 54090 81972,82180,82154
 2.9000e+000 82229 -1.9527e+002 -3.6978e+002  2.1136e+001 54090 82102,82154,82128
 2.9000e+000 82206 -2.4308e+001 -2.0034e+002 -4.5426e+001 54090 82024,82076,82050
 2.9000e+000 82722 -1.6467e+002 -2.9882e+002 -9.6066e+000 53579 82500,82578,82552
 2.9000e+000 82699 -1.2040e+002 -2.7240e+002  8.2157e+000 53579 82448,82578,82500
 2.9000e+000 82676 -1.3138e+002 -3.0879e+002  8.9922e+000 53579 82448,82500,82474
 2.9000e+000 82653 -1.6140e+002 -2.9334e+002  2.2781e+001 53579 82448,82604,82578
 2.9000e+000 82630 -8.5461e+001 -2.7799e+002 -1.1231e+001 53579 82500,82552,82526
 2.9000e+000 83356 -7.6985e+001 -2.1354e+002 -2.0891e+001 53189 83379,83088,83036
 2.9000e+000 83333 -7.5431e+001 -2.3806e+002 -1.9422e+001 53189 83379,83036,82984
 2.9000e+000 83310 -2.5907e+001 -2.1515e+002  4.2169e+001 53189 82984,83192,83166
 2.9000e+000 83287  1.1669e+001 -1.7611e+002 -1.6669e+001 53189 83036,83088,83062
 2.9000e+000 83264 -5.8128e+001 -2.6752e+002 -3.7935e+001 53189 82984,83036,83010
 2.9000e+000 83241 -4.1892e+001 -2.5034e+002  5.0844e+000 53189 83114,83166,83140
 2.9000e+000 83218 -1.0534e+002 -2.6947e+002  5.7927e+000 53189 83088,83166,83114
 2.9000e+000 83405 -7.6161e+001 -2.3016e+002 -1.0558e+001 53189 83166,83088,83379
 2.9000e+000 83428 -7.1178e+001 -2.5195e+002 -1.0598e+001 53189 83166,83379,82984
 2.9000e+000 83725 -1.1102e+002 -3.1997e+002 -2.8033e+001 52585 83748,83529,83503
 2.9000e+000 83702 -8.2873e+001 -3.1100e+002 -1.6992e+001 52585 83820,83748,83503
 2.9000e+000 83679 -5.6888e+001 -3.0416e+002 -1.3984e+001 52585 83820,83503,83477
 2.9000e+000 83656 -3.1527e+001 -2.7706e+002  3.8823e+001 52585 83477,83607,83581
 2.9000e+000 83633  3.2539e+001 -2.4892e+002  4.3090e+001 52585 83451,83607,83477
 2.9000e+000 83774 -9.6077e+001 -2.8270e+002 -2.4441e+001 52585 83555,83529,83748
 2.9000e+000 83797 -1.2487e+002 -3.0698e+002 -1.3777e+001 52585 83555,83748,83581
 2.9000e+000 83846 -1.0744e+002 -2.9523e+002 -3.6726e+000 52585 83581,83748,83820
 2.9000e+000 83869 -8.8708e+001 -2.9297e+002 -3.4666e+000 52585 83581,83820,83477
 2.9000e+000 84200 -7.8616e+001 -2.8979e+002 -9.8347e+000 52024 84001,84105,84079
 2.9000e+000 84177 -3.8777e+001 -2.8324e+002 -2.0874e+001 52024 83975,84105,84001
 2.9000e+000 84154 -7.0627e+001 -2.8909e+002 -9.0141e+000 52024 84001,84079,84053
 2.9000e+000 84131 -3.3743e+001 -1.9252e+002  3.4880e+001 52024 84001,84053,84027
 2.9000e+000 84399 -6.6294e+001 -2.8360e+002 -3.6487e-001 51470 84422,84275,84249
 2.9000e+000 84376 -6.0081e+001 -2.7248e+002  2.8256e+000 51470 84422,84249,84223
 2.9000e+000 84353 -7.6773e+001 -2.9918e+002 -4.1196e+001 51470 84275,84327,84301
 2.9000e+000 84448 -7.2643e+001 -2.7287e+002 -8.1187e-001 51470 84327,84275,84422
 2.9000e+000 84471 -6.7899e+001 -2.6389e+002  2.0865e+000 51470 84327,84422,84223
 2.9000e+000 84753 -8.5195e+001 -2.4607e+002 -1.8792e+000 51073 84603,84655,84629
 2.9000e+000 84730 -1.7642e+002 -2.8775e+002 -1.3152e+001 51073 84776,84655,84603
 2.9000e+000 84707 -3.3400e+001 -2.5069e+002 -7.2298e+001 51073 84577,84681,84655
 2.9000e+000 84802 -1.1111e+002 -2.5115e+002 -3.3247e+001 51073 84577,84655,84776
 2.9000e+000 85178 -1.4463e+002 -3.2147e+002  2.9573e+001 50519 85201,85008,84982
 2.9000e+000 85155 -1.3645e+002 -2.9764e+002  2.1775e+001 50519 85273,85201,84982
 2.9000e+000 85132 -1.2893e+002 -2.9743e+002  1.7013e+001 50519 85273,84982,84930
 2.9000e+000 85109 -1.2592e+002 -2.8916e+002  1.4843e+001 50519 84930,84982,84956
 2.9000e+000 85086 -1.1268e+002 -2.9426e+002  8.8804e+000 50519 85008,85060,85034
 2.9000e+000 85227 -1.2034e+002 -3.0570e+002  1.2609e+001 50519 85060,85008,85201
 2.9000e+000 85250 -1.3553e+002 -3.0537e+002  8.7302e+000 50519 85060,85201,84904
 2.9000e+000 85299 -1.2872e+002 -3.0178e+002  7.2407e+000 50519 84904,85201,85273
 2.9000e+000 85322 -1.0122e+002 -2.6616e+002 -5.0282e+000 50519 84904,85273,84930
 2.9000e+000 85958 -8.1243e+001 -2.6128e+002 -7.3497e+000 50093 85981,85768,85716
 2.9000e+000 85935 -7.2671e+001 -2.3969e+002 -8.1558e+000 50093 85981,85716,85612
 2.9000e+000 85912 -8.9189e+001 -2.3477e+002 -6.7440e-001 50093 85612,85716,85664
 2.9000e+000 85889 -6.2485e+001 -2.5632e+002 -2.1316e+000 50093 85716,85768,85742
 2.9000e+000 85866 -9.1522e+001 -1.9902e+002 -4.3027e+001 50093 85664,85716,85690
 2.9000e+000 85843  1.9102e+001 -1.7574e+002 -2.2025e+001 50093 85586,85794,85612
 2.9000e+000 85820 -5.8948e+001 -3.3511e+002  2.1711e+001 50093 85612,85664,85638
 2.9000e+000 86007 -9.8267e+001 -2.7949e+002 -3.8129e+001 50093 85794,85768,85981
 2.9000e+000 86030 -7.1765e+001 -2.1699e+002 -3.1226e+001 50093 85794,85981,85612
 2.9000e+000 86131 -9.1717e+001 -3.0023e+002  4.1343e+001 49895 86053,86105,86079
 2.9000e+000 86639 -7.0687e+001 -1.9569e+002 -3.6393e+001 49391 86662,86394,86368
 2.9000e+000 86616 -8.1373e+001 -2.3035e+002 -3.3769e+001 49391 86662,86368,86342
 2.9000e+000 86593 -4.1514e+001 -2.2464e+002 -1.0045e+001 49391 86342,86498,86472
 2.9000e+000 86570 -2.7953e+001 -2.4405e+002 -1.1737e+001 49391 86316,86498,86342
 2.9000e+000 86547 -1.2477e+002 -3.4329e+002 -1.2013e+001 49391 86394,86472,86446
 2.9000e+000 86524  3.5792e+000 -3.2643e+002  6.6245e+000 49391 86394,86446,86420
 2.9000e+000 86688 -7.5893e+001 -2.2805e+002 -2.1345e+001 49391 86472,86394,86662
 2.9000e+000 86711 -7.0619e+001 -2.4302e+002 -2.1194e+001 49391 86472,86662,86342
 2.9000e+000 87089 -9.6295e+001 -2.7548e+002  7.5847e+000 48987 86815,86919,86867
 2.9000e+000 87066 -9.7503e+001 -2.8406e+002  1.1835e+001 48987 86815,86971,86919
 2.9000e+000 87043 -3.6619e+001 -3.0417e+002 -2.6437e+001 48987 86867,86919,86893
 2.9000e+000 87020 -1.1008e+002 -3.1310e+002  2.5725e+001 48987 86815,86867,86841
 2.9000e+000 86997 -1.0895e+002 -2.4258e+002  3.9441e+001 48987 86919,86971,86945
 2.9000e+000 87467 -1.8450e+002 -2.7262e+002  1.4435e+001 48540 87490,87245,87219
 2.9000e+000 87444 -1.3224e+002 -2.5404e+002  1.8199e+000 48540 87562,87490,87219
 2.9000e+000 87421 -9.9791e+001 -2.4091e+002  1.1652e+001 48540 87562,87219,87349
 2.9000e+000 87398 -1.3671e+002 -2.1311e+002 -1.3861e+001 48540 87245,87297,87271
 2.9000e+000 87375 -8.1243e+001 -2.5226e+002  9.0796e+000 48540 87193,87349,87219
 2.9000e+000 87516 -1.2568e+002 -2.5944e+002  3.6350e+000 48540 87297,87245,87490
 2.9000e+000 87539 -1.2656e+002 -2.6010e+002  4.5347e+000 48540 87297,87490,87323
 2.9000e+000 87588 -1.0097e+002 -2.3963e+002  2.3021e+001 48540 87323,87490,87562
 2.9000e+000 87611 -8.5269e+001 -2.4346e+002  2.9571e+001 48540 87323,87562,87349
 2.9000e+000 87810 -1.3223e+002 -4.7738e+002 -3.4033e+001 48136 87660,87712,87686
 2.9000e+000 87787 -7.6179e+001 -2.8644e+002 -1.6131e+001 48136 87660,87738,87712
 2.9000e+000 87764 -1.7714e+002 -2.9348e+002 -5.0958e+001 48136 87634,87738,87660
 2.9000e+000 88205 -1.1962e+002 -2.9818e+002 -2.5291e+001 47210 88300,88228,87937
 2.9000e+000 88182 -1.0434e+002 -2.9022e+002 -6.8684e+000 47210 88228,87833,88041
 2.9000e+000 88159 -1.2160e+002 -3.1924e+002 -4.0201e+001 47210 88300,87937,87911
 2.9000e+000 88136 -1.1852e+002 -2.9118e+002 -3.4316e+001 47210 87833,87911,87859
 2.9000e+000 88113 -1.9828e+002 -2.6077e+002 -2.1049e+001 47210 87937,87989,87963
 2.9000e+000 88090 -1.0046e+002 -2.3779e+002  4.8939e+001 47210 87989,88041,88015
 2.9000e+000 88067 -1.3815e+002 -3.3949e+002 -4.1820e+001 47210 87859,87911,87885
 2.9000e+000 88254 -1.0632e+002 -2.4528e+002 -2.6342e+001 47210 87989,87937,88228
 2.9000e+000 88277 -1.2643e+002 -2.8448e+002 -9.1908e+000 47210 87989,88228,88041
 2.9000e+000 88326 -9.9573e+001 -2.7829e+002 -8.8805e+000 47210 87833,88228,88300
 2.9000e+000 88349 -1.0465e+002 -2.9222e+002 -2.4925e+001 47210 87833,88300,87911
 2.9000e+000 88780 -1.9153e+002 -3.3568e+002 -6.0820e+001 46642 88803,88509,88483
 2.9000e+000 88757 -1.3869e+002 -3.0284e+002 -3.2276e+001 46642 88803,88483,88639
 2.9000e+000 88734 -1.5293e+002 -2.4862e+002 -3.7444e+001 46642 88875,88561,88509
 2.9000e+000 88711 -1.5285e+002 -2.3044e+002 -7.0477e+000 46642 88509,88561,88535
 2.9000e+000 88688 -9.1908e+001 -3.4098e+002  1.6639e+000 46642 88457,88639,88483
 2.9000e+000 88665 -1.7547e+002 -4.0609e+002 -1.6757e+001 46642 88561,88613,88587
 2.9000e+000 88829 -1.5482e+002 -2.7145e+002 -4.2615e+001 46642 88875,88509,88803
 2.9000e+000 88852 -1.5164e+002 -3.2752e+002 -2.7558e+001 46642 88613,88803,88639
 2.9000e+000 88901 -1.2539e+002 -2.8016e+002 -1.8217e+001 46642 88613,88561,88875
 2.9000e+000 88924 -1.3727e+002 -3.1700e+002 -2.2722e+001 46642 88613,88875,88803
 2.9000e+000 89253 -5.7063e+001 -2.8783e+002  7.8699e+000 46444 89080,89158,89132
 2.9000e+000 89230 -6.7642e+001 -3.1139e+002  4.7843e+000 46444 89028,89158,89080
 2.9000e+000 89207 -2.5308e+001 -2.7555e+002 -1.0507e+001 46444 89028,89080,89054
 2.9000e+000 89184 -2.8204e+001 -3.1096e+002 -2.1141e+001 46444 89080,89132,89106
 2.9000e+000 89631 -6.7655e+001 -1.8305e+002 -2.8330e-001 46040 89383,89461,89435
 2.9000e+000 89608 -7.5893e+001 -2.0989e+002 -1.3492e+001 46040 89383,89487,89461
 2.9000e+000 89585 -7.8890e+001 -2.2606e+002 -1.0419e+001 46040 89383,89435,89409
 2.9000e+000 89562 -6.3547e+001 -1.8669e+002 -2.3363e+001 46040 89383,89513,89487
 2.9000e+000 89539  6.7787e+000 -1.4326e+002 -6.3936e+001 46040 89357,89513,89383
 2.9000e+000 90009 -7.6021e+001 -2.3677e+002 -3.2218e-001 45636 89813,89891,89839
 2.9000e+000 89986 -7.8069e+001 -2.2209e+002  1.2259e+001 45636 89787,89891,89813
 2.9000e+000 89963 -7.0634e+001 -2.2303e+002 -4.8591e+000 45636 89839,89891,89865
 2.9000e+000 89940 -9.5579e+001 -2.5164e+002  4.8618e+000 45636 89735,89891,89787
 2.9000e+000 89917 -7.4007e+001 -2.4863e+002 -1.2662e+001 45636 89735,89787,89761
 2.9000e+000 90208 -5.2949e+001 -1.8381e+002 -3.7563e+001 45175 90231,90058,90032
 2.9000e+000 90185 -2.8165e+001 -1.6750e+002 -5.3643e+001 45175 90231,90032,90136
 2.9000e+000 90162 -6.5916e+001 -1.5022e+002 -1.6078e+000 45175 90058,90110,90084
 2.9000e+000 90257 -7.7895e+001 -2.0469e+002 -7.4877e+000 45175 90110,90058,90231
 2.9000e+000 90280 -3.1590e+001 -1.7620e+002 -2.5726e+001 45175 90110,90231,90136
 2.9000e+000 90528 -5.9806e+001 -1.9100e+002 -2.5519e+001 44513 90695,90551,90407
 2.9000e+000 90505 -6.4011e+001 -1.7382e+002 -1.3619e+001 44513 90551,90355,90329
 2.9000e+000 90482 -7.6713e+001 -1.8424e+002 -2.3472e+001 44513 90623,90303,90433
 2.9000e+000 90459 -4.7130e+001 -1.7850e+002 -1.8813e+001 44513 90695,90407,90381
 2.9000e+000 90577 -8.6030e+001 -1.9940e+002 -4.3036e+001 44513 90433,90407,90551
 2.9000e+000 90600 -7.3763e+001 -1.8249e+002 -2.2403e+001 44513 90623,90433,90551
 2.9000e+000 90649 -7.6124e+001 -1.8174e+002 -2.1664e+001 44513 90329,90303,90623
 2.9000e+000 90672 -7.5960e+001 -1.8207e+002 -2.1752e+001 44513 90329,90623,90551
 2.9000e+000 90721 -7.5620e+001 -1.7438e+002 -2.8726e+001 44513 90355,90551,90695
 2.9000e+000 90744 -7.2092e+001 -1.6830e+002 -2.6164e+001 44513 90355,90695,90381
 2.9000e+000 91077  1.7373e+000 -2.0162e+002 -1.3749e+001 44059 91100,90930,90904
 2.9000e+000 91054 -7.8117e+001 -2.1732e+002  1.0817e+001 44059 91100,90904,90982
 2.9000e+000 91031 -1.3985e+002 -2.5334e+002 -1.7771e+001 44059 90878,90982,90904
 2.9000e+000 91008 -4.5934e+001 -1.9082e+002  1.1921e+001 44059 90852,90982,90878
 2.9000e+000 91126 -1.1837e+002 -2.3236e+002 -1.5798e+001 44059 91172,91100,90956
 2.9000e+000 91149 -7.4241e+001 -2.1278e+002 -1.0001e+001 44059 90956,91100,90982
 2.9000e+000 91198 -4.5117e-001 -1.1431e+002 -6.3133e+001 44059 90930,91100,91172
 2.9000e+000 91677 -1.1092e+002 -1.7334e+002  1.5445e+001 43549 91455,91533,91481
 2.9000e+000 91654 -4.9154e+001 -1.7204e+002  2.2346e+001 43549 91429,91533,91455
 2.9000e+000 91631 -1.0457e+002 -1.6846e+002  5.5013e+000 43549 91481,91533,91507
 2.9000e+000 91608 -2.8211e+001 -1.6339e+002  1.1043e+001 43549 91429,91559,91533
 2.9000e+000 91585 -5.2034e+000 -6.0925e+001  1.5872e+000 43549 91403,91559,91429
 2.9000e+000 92006 -9.6557e+001 -2.4393e+002  4.9082e-001 43059 91781,91885,91807
 2.9000e+000 91983 -1.0160e+002 -2.3254e+002  3.6982e+001 43059 91781,91911,91885
 2.9000e+000 91960 -9.3400e+001 -2.4403e+002  8.4120e-001 43059 91807,91885,91833
 2.9000e+000 91937 -6.0698e+001 -2.3147e+002 -3.5049e+000 43059 91833,91885,91859
 2.9000e+000 92561 -8.5440e+001 -1.8108e+002 -1.8876e+001 42598 92584,92215,92189
 2.9000e+000 92538 -9.1898e+001 -2.0356e+002 -1.8043e+001 42598 92656,92584,92189
 2.9000e+000 92515 -8.1471e+001 -2.2963e+002 -4.7216e+000 42598 92656,92189,92397
 2.9000e+000 92492 -1.0342e+002 -1.6161e+002 -2.2894e+001 42598 92241,92319,92293
 2.9000e+000 92469 -9.9278e+001 -1.9383e+002  1.2399e+001 42598 92319,92397,92371
 2.9000e+000 92446 -3.8856e+001 -2.2486e+002  9.4128e+001 42598 92319,92371,92345
 2.9000e+000 92423 -1.0293e+002 -1.6786e+002 -3.4516e+001 42598 92241,92293,92267
 2.9000e+000 92610 -8.9815e+001 -1.8246e+002 -1.8368e+001 42598 92241,92215,92584
 2.9000e+000 92633 -8.2666e+001 -1.6643e+002 -2.3048e+001 42598 92241,92584,92319
 2.9000e+000 92682 -8.2357e+001 -1.6834e+002 -1.2166e+001 42598 92319,92584,92656
 2.9000e+000 92705 -6.6556e+001 -1.8661e+002 -2.1105e+000 42598 92319,92656,92397
 2.9000e+000 92953 -9.6858e+001 -2.6604e+002  1.4581e+001 42094 92976,92806,92780
 2.9000e+000 92930 -1.0923e+002 -2.5022e+002 -8.7385e-001 42094 92976,92780,92754
 2.9000e+000 92907 -2.0318e+001 -2.5673e+002 -1.9091e+000 42094 93048,92832,92806
 2.9000e+000 92884 -1.4030e+002 -2.4886e+002 -1.9394e+001 42094 92728,92858,92754
 2.9000e+000 93002 -6.0860e+001 -2.4569e+002  6.4344e+000 42094 93048,92806,92976
 2.9000e+000 93025 -9.7869e+001 -2.4406e+002 -6.1261e+000 42094 92858,92976,92754
 2.9000e+000 93074 -7.6866e+001 -2.7743e+002 -3.0855e+000 42094 92858,92832,93048
 2.9000e+000 93097 -1.0997e+002 -2.6184e+002  1.7680e+000 42094 92858,93048,92976
 2.9000e+000 93605 -1.0760e+002 -3.1054e+002 -1.2037e+001 41846 93628,93412,93386
 2.9000e+000 93582 -8.2759e+001 -2.3349e+002 -2.8602e+000 41846 93628,93386,93308
 2.9000e+000 93559 -1.2307e+002 -2.4189e+002 -5.0283e+001 41846 93700,93464,93438
 2.9000e+000 93536 -1.1899e+002 -3.2410e+002  3.9418e+000 41846 93308,93386,93334
 2.9000e+000 93513 -1.5184e+002 -2.3293e+002 -3.9171e+001 41846 93334,93386,93360
 2.9000e+000 93490 -1.1721e+002 -2.1311e+002 -4.9503e+001 41846 93282,93464,93308
 2.9000e+000 93654 -9.3835e+001 -2.4781e+002 -2.3869e+001 41846 93438,93412,93628
 2.9000e+000 93677 -1.2471e+002 -2.4748e+002 -2.3411e+001 41846 93700,93438,93628
 2.9000e+000 93726 -1.1066e+002 -2.0892e+002 -4.7445e+001 41846 93308,93464,93700
 2.9000e+000 93749 -1.0774e+002 -2.0400e+002 -2.0944e+001 41846 93308,93700,93628
 2.9000e+000 94255 -8.2461e+001 -2.5065e+002  1.5696e+001 41385 93958,94114,94088
 2.9000e+000 94232 -7.3578e+001 -2.7190e+002  5.4096e+000 41385 93932,94114,93958
 2.9000e+000 94209 -1.4386e+002 -2.9121e+002  4.7530e+001 41385 93958,94088,94062
 2.9000e+000 94186 -1.5063e+002 -2.0979e+002  3.5142e+001 41385 93958,94062,93984
 2.9000e+000 94163 -1.2890e+002 -2.0507e+002  3.1977e+001 41385 93984,94062,94036
 2.9000e+000 94140 -8.7775e+001 -2.7962e+002  4.6285e+001 41385 93984,94036,94010
 2.9000e+000 94476 -2.2894e+001 -3.4158e+002  2.1534e+001 40881 94326,94378,94352
 2.9000e+000 94453 -5.4440e+001 -2.8051e+002  2.3636e+001 40881 94300,94378,94326
 2.9000e+000 94430 -6.8853e+001 -2.5871e+002  3.1486e+000 40881 94300,94404,94378
 2.9000e+000 94626 -7.8601e+001 -2.0627e+002 -1.8053e+000 40591 94649,94551,94525
 2.9000e+000 94603 -4.2282e+001 -1.2726e+002  3.1390e+000 40591 94781,94577,94551
 2.9000e+000 94675 -2.5919e+001 -1.4915e+002 -2.4201e+001 40591 94781,94551,94649
 2.9000e+000 94807 -1.8095e-001 -8.6151e+001  2.7470e+001 40591 94499,94577,94781
 2.9000e+000 94830  4.3564e+000 -1.2965e+002 -1.3673e+000 40591 94499,94781,94649
 2.9000e+000 95336 -1.8009e+002 -2.3909e+002 -3.7650e+001 40187 95013,95169,95039
 2.9000e+000 95313 -4.3023e+001 -2.1639e+002  5.1175e+000 40187 95013,95195,95169
 2.9000e+000 95290 -3.0016e+001 -2.3404e+002 -2.6807e+001 40187 95039,95143,95065
 2.9000e+000 95267 -1.3383e+002 -2.7538e+002 -4.0251e+001 40187 95039,95169,95143
 2.9000e+000 95244 -5.3271e+001 -1.9900e+002 -1.9455e+001 40187 95091,95143,95117
 2.9000e+000 95221 -1.5945e+001 -1.2440e+002 -7.1511e+000 40187 95065,95143,95091
 2.9000e+000 95665 -6.7462e+001 -1.7951e+002  8.0596e+001 39626 95466,95570,95544
 2.9000e+000 95642 -1.2672e+002 -1.4589e+002  5.2186e+001 39626 95440,95570,95466
 2.9000e+000 95619 -1.9530e+002 -2.3976e+002  5.1958e+001 39626 95466,95544,95492
 2.9000e+000 95596 -3.9482e+001 -1.8474e+002  7.9541e+001 39626 95492,95544,95518
 2.9000e+000 95913 -9.8026e+001 -2.1749e+002 -3.3064e+001 39136 96080,95936,95766
 2.9000e+000 95890 -6.7691e+001 -2.3226e+002 -2.0648e+001 39136 95936,95714,95688
 2.9000e+000 95867 -1.7252e+002 -2.3177e+002  7.7631e+000 39136 96008,95792,95766
 2.9000e+000 95844 -8.0358e+001 -2.1121e+002 -2.4644e+001 39136 96080,95766,95740
 2.9000e+000 95962 -1.3649e+002 -2.4024e+002 -2.2167e+001 39136 96008,95766,95936
 2.9000e+000 95985 -8.7727e+001 -2.8109e+002 -6.6202e+000 39136 95818,95936,95688
 2.9000e+000 96034 -8.5447e+001 -1.9390e+002  1.3295e+001 39136 95818,95792,96008
 2.9000e+000 96057 -7.5938e+001 -2.1281e+002 -1.6169e+001 39136 95818,96008,95936
 2.9000e+000 96106 -8.8915e+001 -2.1408e+002 -9.6646e+000 39136 95714,95936,96080
 2.9000e+000 96129 -6.1600e+001 -2.0697e+002 -2.9606e+000 39136 95714,96080,95740
 2.9000e+000 96350 -6.3577e+001 -1.8600e+002 -5.5856e+000 38824 96200,96278,96252
 2.9000e+000 96327 -7.2869e+001 -1.9062e+002 -7.1088e+000 38824 96174,96278,96200
 2.9000e+000 96304 -6.5809e+001 -1.8443e+002 -4.9632e+000 38824 96200,96252,96226
 2.9000e+000 96830 -1.2282e+002 -2.0865e+002 -1.5304e+001 38320 97069,96536,96484
 2.9000e+000 96807 -1.1976e+002 -2.1307e+002 -1.5060e+001 38320 97069,96484,96853
 2.9000e+000 96784 -1.3243e+002 -2.2952e+002  5.5311e+000 38320 96853,96484,96458
 2.9000e+000 96761 -7.1663e+001 -1.8225e+002 -2.1309e+001 38320 96925,96640,96614
 2.9000e+000 96738 -1.1342e+002 -1.8948e+002 -8.9809e+000 38320 96997,96666,96640
 2.9000e+000 96715 -9.4897e+001 -2.4878e+002 -5.0921e+000 38320 97141,96588,96562
 2.9000e+000 96692 -1.5292e+002 -2.3698e+002 -1.8509e+000 38320 96484,96536,96510
 2.9000e+000 96879 -1.1663e+002 -2.2480e+002 -8.1129e+000 38320 97141,96562,96853
 2.9000e+000 96902 -1.0835e+002 -2.1997e+002 -6.4197e+000 38320 96925,96614,96853
 2.9000e+000 96951 -1.1121e+002 -1.8820e+002 -9.5748e+000 38320 96997,96640,96925
 2.9000e+000 96974 -1.0622e+002 -1.8485e+002 -5.5553e+000 38320 96458,96925,96853
 2.9000e+000 97023 -1.2313e+002 -1.9045e+002 -3.7718e+000 38320 96458,96666,96997
 2.9000e+000 97046 -1.1506e+002 -1.8692e+002 -4.4181e+000 38320 96458,96997,96925
 2.9000e+000 97095 -1.3216e+002 -2.0339e+002  6.5743e+000 38320 96562,96536,97069
 2.9000e+000 97118 -1.1139e+002 -2.1059e+002 -1.1570e+001 38320 96562,97069,96853
 2.9000e+000 97167 -5.6272e+001 -2.2702e+002 -1.5244e+001 38320 96614,96588,97141
 2.9000e+000 97190 -9.2247e+001 -2.1339e+002 -1.5486e+001 38320 96614,97141,96853
 2.9000e+000 97519 -8.6377e+001 -2.5597e+002  6.7704e+001 37766 97542,97398,97372
 2.9000e+000 97496 -1.0202e+002 -2.0328e+002  4.8025e+001 37766 97542,97372,97346
 2.9000e+000 97473 -1.0149e+002 -2.1395e+002  5.0711e+000 37766 97294,97424,97346
 2.9000e+000 97450 -1.1626e+002 -2.5442e+002  2.5749e+000 37766 97294,97346,97320
 2.9000e+000 97568 -4.8158e+001 -2.6807e+002  2.4178e+001 37766 97424,97398,97542
 2.9000e+000 97591 -7.3101e+001 -2.0760e+002  7.8955e+000 37766 97424,97542,97346
 2.9000e+000 98048 -1.0900e+002 -1.5991e+002 -5.5693e+001 37262 98071,97878,97852
 2.9000e+000 98025 -9.1595e+001 -1.9283e+002 -2.3423e+001 37262 98071,97852,97800
 2.9000e+000 98002 -1.0620e+002 -2.3894e+002 -2.3344e+001 37262 97800,97852,97826
 2.9000e+000 97979 -1.0906e+002 -2.0936e+002  4.8482e+000 37262 97800,97930,97904
 2.9000e+000 97956 -7.3588e+001 -2.4958e+002  1.5604e+001 37262 97774,97930,97800
 2.9000e+000 98097 -1.5700e+002 -1.8329e+002 -4.0059e+001 37262 97904,97878,98071
 2.9000e+000 98120 -1.1793e+002 -2.1950e+002 -1.0685e+001 37262 97904,98071,97800
 2.9000e+000 98449 -5.2536e+001 -1.4764e+002 -1.8754e+001 36950 98472,98302,98250
 2.9000e+000 98426 -2.9636e+001 -1.4001e+002 -2.3140e+001 36950 98472,98250,98354
 2.9000e+000 98403 -8.3254e+001 -1.6452e+002  1.9016e+001 36950 98250,98302,98276
 2.9000e+000 98380 -1.9397e+001 -1.0895e+002  1.2857e+001 36950 98224,98354,98250
 2.9000e+000 98498 -3.5604e+001 -1.6686e+002 -5.1334e+000 36950 98328,98302,98472
 2.9000e+000 98521 -8.6588e+000 -1.5543e+002 -1.3365e+001 36950 98328,98472,98354
 2.9000e+000 99125 -1.1577e+002 -1.1394e+002  1.1333e+001 36296 98704,98756,98730
 2.9000e+000 99102 -1.1506e+002 -1.2628e+002  1.1665e+001 36296 98704,98938,98756
 2.9000e+000 99079 -8.2648e+001 -1.5663e+002 -4.2445e+000 36296 99148,98938,98912
 2.9000e+000 99056 -8.8715e+001 -1.6301e+002  3.7063e+001 36296 99292,99220,98782
 2.9000e+000 99033 -7.1898e+001 -1.8299e+002  4.2143e+000 36296 99148,98912,98834
 2.9000e+000 99010 -8.4754e+001 -1.3937e+002  4.1234e+001 36296 99292,98782,98756
 2.9000e+000 98987 -6.8261e+001 -3.2296e+002 -6.0343e+001 36296 98834,98912,98886
 2.9000e+000 98964 -1.1741e+002 -4.7035e+002 -7.7233e+001 36296 98834,98886,98860
 2.9000e+000 99174 -1.0278e+002 -1.9550e+002  5.9374e+000 36296 99220,98938,99148
 2.9000e+000 99197 -7.0213e+001 -2.2354e+002  2.4048e+001 36296 98808,99148,98834
 2.9000e+000 99246 -8.8227e+001 -1.6102e+002  9.2329e+001 36296 98808,98782,99220
 2.9000e+000 99269 -3.5161e+001 -1.4252e+002  2.9391e+001 36296 98808,99220,99148
 2.9000e+000 99318 -9.5926e+001 -1.4048e+002  2.1031e+001 36296 98938,99220,99292
 2.9000e+000 99341 -9.7956e+001 -1.4410e+002  2.5013e+001 36296 98938,99292,98756
 2.9000e+000 99719 -1.1721e+002 -2.4734e+002 -7.7340e-001 35742 99742,99471,99601
 2.9000e+000 99696 -1.2096e+002 -1.9408e+002  2.3070e+001 35742 99445,99601,99471
 2.9000e+000 99673 -1.1181e+002 -2.3500e+002 -1.0778e+001 35742 99742,99601,99575
 2.9000e+000 99650 -9.7285e+001 -2.9200e+002 -8.6876e+000 35742 99814,99549,99523
 2.9000e+000 99627 -7.4212e+001 -2.2596e+002 -3.6407e+000 35742 99471,99523,99497
 2.9000e+000 99768 -9.3558e+001 -2.4209e+002  4.3544e+000 35742 99523,99471,99742
 2.9000e+000 99791 -1.1068e+002 -2.6935e+002 -7.5185e+000 35742 99814,99523,99742
 2.9000e+000 99840 -9.5436e+001 -2.6382e+002 -1.7334e+001 35742 99575,99549,99814
 2.9000e+000 99863 -1.0392e+002 -2.3432e+002 -1.5402e+001 35742 99575,99814,99742
 2.9000e+000 100111 -8.6767e+001 -2.0007e+002  1.4701e+001 35302 100134,99990,99938
 2.9000e+000 100088 -7.1209e+001 -1.8179e+002  4.7661e+000 35302 100134,99938,99912
 2.9000e+000 100065 -7.1158e+001 -1.8215e+002 -5.0323e+000 35302 100206,99886,100016
 2.9000e+000 100042 -1.1448e+002 -1.8829e+002  8.8296e+000 35302 99938,99990,99964
 2.9000e+000 100160 -6.6759e+001 -1.9251e+002  3.1395e+000 35302 100016,99990,100134
 2.9000e+000 100183 -6.8111e+001 -1.8481e+002 -4.9743e+000 35302 100206,100016,100134
 2.9000e+000 100232 -7.3550e+001 -1.8536e+002 -2.9362e+000 35302 99912,99886,100206
 2.9000e+000 100255 -7.0784e+001 -1.8879e+002 -3.0141e+000 35302 99912,100206,100134
 2.9000e+000 100586 -1.1781e+002 -1.3505e+002  3.7309e+001 35012 100609,100387,100361
 2.9000e+000 100563 -1.4256e+002 -9.9022e+001 -2.5215e+001 35012 100609,100361,100465
 2.9000e+000 100540 -6.4712e+001 -7.1292e+001 -5.9693e+001 35012 100361,100491,100465
 2.9000e+000 100517 -2.4009e+001 -7.7797e+001 -5.7344e+001 35012 100413,100465,100439
 2.9000e+000 100635 -5.4564e+001 -1.0726e+002  1.4979e+001 35012 100413,100387,100609
 2.9000e+000 100658 -7.7075e+001 -6.1635e+001 -4.9127e+001 35012 100413,100609,100465
 2.9000e+000 100987 -9.0891e+001 -2.0299e+002  2.1126e+001 34700 100788,100866,100814
 2.9000e+000 100964 -8.0948e+001 -1.6734e+002  3.0811e+001 34700 101010,100866,100788
 2.9000e+000 100941 -5.2308e+001 -1.1953e+002  3.3973e+001 34700 100762,100892,100866
 2.9000e+000 100918 -8.8077e+001 -1.9420e+002  1.3884e+001 34700 100814,100866,100840
 2.9000e+000 101036 -5.3661e+001 -1.4496e+002  5.2338e+001 34700 100762,100866,101010
 2.9000e+000 101493 -1.2280e+002 -2.3439e+002 -2.0268e+001 34132 101516,101349,101297
 2.9000e+000 101470 -1.4755e+002 -2.8117e+002 -3.2911e+001 34132 101588,101516,101297
 2.9000e+000 101447 -1.4784e+002 -2.9587e+002 -4.9152e+001 34132 101588,101297,101245
 2.9000e+000 101424 -9.0191e+001 -3.4606e+002 -4.5873e+001 34132 101245,101297,101271
 2.9000e+000 101401 -1.3454e+002 -2.3535e+002 -2.4527e+001 34132 101297,101349,101323
 2.9000e+000 101542 -1.2712e+002 -2.7083e+002 -1.6099e+001 34132 101375,101349,101516
 2.9000e+000 101565 -1.1398e+002 -2.6981e+002 -1.6903e+001 34132 101375,101516,101219
 2.9000e+000 101614 -1.1664e+002 -2.8205e+002 -1.7129e+001 34132 101219,101516,101588
 2.9000e+000 101637 -1.3214e+002 -2.9672e+002 -3.2545e+001 34132 101219,101588,101245
 2.9000e+000 101858 -2.9097e+001 -1.9901e+002  1.6099e+001 33720 101708,101786,101760
 2.9000e+000 101835 -6.2520e+001 -2.4280e+002  1.0433e+000 33720 101682,101786,101708
 2.9000e+000 101812 -7.7444e+001 -2.2216e+002  8.4814e+000 33720 101708,101760,101734
 2.9000e+000 102128 -2.5377e+001 -2.4142e+002 -6.7323e+000 33130 101903,102007,101929
 2.9000e+000 102105 -3.1135e+001 -2.7877e+002  8.7080e+000 33130 101903,102033,102007
 2.9000e+000 102082 -1.2006e+001 -2.9040e+002 -5.8320e+001 33130 101929,102007,101955
 2.9000e+000 102059 -4.1526e+001 -2.0409e+002  4.2698e+000 33130 101955,102007,101981
 2.9000e+000 102461 -9.8091e+001 -2.1637e+002 -1.4712e+001 32840 102236,102340,102262
 2.9000e+000 102438 -8.6490e+001 -1.5454e+002  1.1432e+001 32840 102236,102366,102340
 2.9000e+000 102415 -6.4657e+001 -2.0472e+002 -1.4995e+001 32840 102262,102340,102288
 2.9000e+000 102392 -1.1784e+002 -2.1703e+002 -4.2387e+001 32840 102288,102340,102314
 2.9000e+000 102997 -8.1382e+001 -1.3770e+002  3.9325e+001 32493 102749,102879,102853
 2.9000e+000 102974 -6.5662e+001 -1.0754e+002  2.7102e+001 32493 102723,102879,102749
 2.9000e+000 102951 -9.5830e+001 -1.6913e+002  2.6055e+001 32493 102749,102801,102775
 2.9000e+000 102928 -1.0218e+002 -1.6775e+002  2.4904e+001 32493 102749,102853,102801
 2.9000e+000 102905 -9.5915e+001 -1.5594e+002  2.1711e+001 32493 102801,102853,102827
 2.9000e+000 103454 -9.4880e+001 -1.7237e+002 -1.6124e+001 32089 103206,103336,103310
 2.9000e+000 103431 -7.6404e+001 -1.7724e+002 -2.3278e+000 32089 103180,103336,103206
 2.9000e+000 103408 -1.0136e+002 -2.0072e+002 -3.6890e+001 32089 103206,103284,103258
 2.9000e+000 103385 -1.4876e+002 -2.1005e+002 -4.1656e+001 32089 103206,103310,103284
 2.9000e+000 103362 -8.6919e+001 -1.5494e+002 -5.3506e+000 32089 103206,103258,103232
 2.9000e+000 103783 -1.6668e+002 -2.1902e+002 -2.7388e+001 31742 103558,103662,103584
 2.9000e+000 103760 -1.3554e+002 -1.7056e+002 -5.9860e+001 31742 103558,103688,103662
 2.9000e+000 103737 -1.0784e+002 -1.7404e+002 -4.9179e+001 31742 103584,103662,103636
 2.9000e+000 103714 -1.0345e+002 -1.8962e+002 -5.2469e+001 31742 103584,103636,103610
 2.9000e+000 104112 -8.5926e+000 -1.7378e+002  3.9134e+001 31402 103939,103991,103965
 2.9000e+000 104089 -5.0070e+001 -1.4762e+002  1.5512e+001 31402 103913,103991,103939
 2.9000e+000 104066 -7.1911e+001 -1.6602e+002  6.1427e+000 31402 103913,104017,103991
 2.9000e+000 104043 -8.8943e+001 -1.5244e+002 -5.6362e+000 31402 103887,104017,103913
 2.9000e+000 104569 -1.5704e+002 -2.7409e+002  6.3728e+000 30998 104321,104425,104373
 2.9000e+000 104546 -1.7456e+002 -2.7757e+002  7.6042e-001 30998 104321,104451,104425
 2.9000e+000 104523 -1.2597e+002 -2.2663e+002  3.2602e+001 30998 104373,104425,104399
 2.9000e+000 104500 -1.4300e+002 -3.1422e+002 -1.7225e+001 30998 104295,104451,104321
 2.9000e+000 104477 -2.0538e+002 -3.1728e+002  5.5044e+001 30998 104321,104373,104347
 2.9000e+000 104947 -1.2727e+002 -2.2562e+002 -2.5337e+001 30608 104751,104803,104777
 2.9000e+000 104924 -8.8108e+001 -2.3548e+002 -1.0884e+001 30608 104725,104803,104751
 2.9000e+000 104901 -1.3229e+002 -2.2625e+002  1.3534e+001 30608 104699,104803,104725
 2.9000e+000 104878 -1.1996e+002 -2.2270e+002  1.5226e+001 30608 104673,104803,104699
 2.9000e+000 104855 -9.1704e+001 -2.0968e+002 -6.5841e+000 30608 104673,104829,104803
 2.9000e+000 105276 -9.0203e+001 -2.1256e+002  9.4053e+000 30204 105427,105129,105077
 2.9000e+000 105253 -5.9021e+001 -2.3218e+002  4.8972e+001 30204 105427,105077,105051
 2.9000e+000 105230 -4.5286e+001 -2.1278e+002  5.4406e+000 30204 105077,105129,105103
 2.9000e+000 105207 -5.5861e+001 -1.9239e+002  3.0900e+001 30204 105299,105181,105155
 2.9000e+000 105325 -5.7166e+001 -1.8751e+002  1.0540e+001 30204 105129,105181,105299
 2.9000e+000 105453 -1.0972e+002 -2.2583e+002  2.7980e+001 30204 105181,105129,105427
 2.9000e+000 105476 -1.2886e+002 -2.6850e+002  7.2884e+001 30204 105181,105427,105051
 2.9000e+000 105903 -7.2753e+001 -1.7449e+002 -1.4266e+001 29700 105606,105762,105736
 2.9000e+000 105880 -9.4502e+001 -1.7902e+002  4.9567e-001 29700 105580,105762,105606
 2.9000e+000 105857 -1.1575e+002 -2.2279e+002 -1.5888e+001 29700 105606,105710,105632
 2.9000e+000 105834 -9.3756e+001 -1.8743e+002 -6.3127e+000 29700 105606,105736,105710
 2.9000e+000 105811 -9.4013e+001 -2.0391e+002 -2.6453e+001 29700 105632,105710,105684
 2.9000e+000 105788 -8.8652e+001 -1.8973e+002 -6.8438e-001 29700 105632,105684,105658
 2.9000e+000 106102 -4.3908e+001 -2.3399e+002  7.0872e+000 29124 105978,106030,106004
 2.9000e+000 106079 -7.3845e+001 -2.3381e+002  6.0614e+000 29124 105926,106030,105978
 2.9000e+000 106056 -7.9396e+001 -2.6284e+002  2.8660e+001 29124 105926,105978,105952
 2.9000e+000 106301 -5.6408e+001 -2.1815e+002  8.1571e-001 28712 106151,106229,106203
 2.9000e+000 106278 -6.9008e+001 -2.3999e+002 -1.0184e+001 28712 106125,106229,106151
 2.9000e+000 106255 -5.8657e+001 -2.3010e+002  1.2637e+001 28712 106151,106203,106177
 2.9000e+000 106551 -7.5177e+001 -2.7117e+002  4.9549e+000 28258 106352,106404,106378
 2.9000e+000 106528 -8.8923e+001 -2.7263e+002  1.2090e-002 28258 106352,106456,106404
 2.9000e+000 106505 -1.0386e+002 -2.9244e+002 -8.2546e+000 28258 106326,106456,106352
 2.9000e+000 106482 -8.4138e+001 -2.5243e+002  4.8101e+000 28258 106404,106456,106430
 2.9000e+000 107012 -9.2509e+001 -2.3443e+002  4.6109e+001 27818 107035,106790,106764
 2.9000e+000 106989 -8.1099e+001 -2.2327e+002  1.7606e+001 27818 107035,106764,106868
 2.9000e+000 106966 -5.7444e+001 -2.7041e+002  2.6232e+001 27818 107107,106842,106816
 2.9000e+000 106943 -1.2272e+002 -2.0670e+002  9.2290e+000 27818 106738,106868,106764
 2.9000e+000 106920 -1.1494e+002 -1.7589e+002  3.0537e+001 27818 106738,106894,106868
 2.9000e+000 107061 -4.0732e+001 -2.2496e+002  5.3550e+001 27818 106816,106790,107035
 2.9000e+000 107084 -7.1623e+001 -2.5239e+002  2.7701e+001 27818 107107,106816,107035
 2.9000e+000 107133 -5.6123e+001 -2.4380e+002  1.3251e+001 27818 106868,106842,107107
 2.9000e+000 107156 -6.4667e+001 -2.1638e+002  1.8233e+001 27818 106868,107107,107035
 2.9000e+000 107613 -2.7608e+001 -1.7768e+002  3.8107e+001 27312 107339,107469,107365
 2.9000e+000 107590 -2.2931e+000 -1.6288e+002  3.1931e+001 27312 107339,107495,107469
 2.9000e+000 107567 -2.9160e+001 -1.7155e+002  1.7596e+001 27312 107391,107469,107443
 2.9000e+000 107544 -2.9946e+001 -1.8653e+002  1.4193e+001 27312 107365,107469,107391
 2.9000e+000 107521 -8.0735e+001 -1.8800e+002  6.2747e+000 27312 107391,107443,107417
 2.9000e+000 107991 -9.8032e+001 -2.6577e+002  4.5182e+000 26858 108086,108014,107795
 2.9000e+000 107968 -1.0550e+002 -2.7876e+002 -2.8706e+001 26858 108014,107717,107873
 2.9000e+000 107945 -1.1362e+002 -2.7811e+002  1.5603e+001 26858 108158,108086,107795
 2.9000e+000 107922 -9.4869e+001 -2.7518e+002  1.3671e+001 26858 108158,107795,107769
 2.9000e+000 107899 -6.1080e+001 -3.4075e+002  4.7899e+001 26858 107821,107873,107847
 2.9000e+000 108040 -9.9012e+001 -3.0276e+002  1.3552e+001 26858 107821,107795,108014
 2.9000e+000 108063 -4.3973e+001 -2.9150e+002 -6.2886e+000 26858 107821,108014,107873
 2.9000e+000 108112 -1.3775e+002 -2.8086e+002  1.0862e+001 26858 107717,108014,108086
 2.9000e+000 108135 -1.1548e+002 -2.9224e+002  2.9867e+001 26858 107717,108086,107743
 2.9000e+000 108184 -9.1435e+001 -2.7749e+002  2.2099e+001 26858 107743,108086,108158
 2.9000e+000 108207 -8.3594e+001 -2.8240e+002  2.1754e+001 26858 107743,108158,107769
 2.9000e+000 108634 -1.2939e+002 -2.5633e+002  2.1202e+000 26404 108657,108415,108363
 2.9000e+000 108611 -1.4604e+002 -2.7965e+002  2.5960e+001 26404 108657,108363,108337
 2.9000e+000 108588 -1.2775e+002 -2.5784e+002  3.1751e+001 26404 108729,108311,108467
 2.9000e+000 108565 -1.4472e+002 -2.9840e+002  9.5287e-001 26404 108801,108441,108415
 2.9000e+000 108542 -1.8932e+002 -2.8595e+002  3.9049e+001 26404 108311,108493,108467
 2.9000e+000 108519 -9.2595e+001 -2.5736e+002  1.9900e+000 26404 108363,108415,108389
 2.9000e+000 108683 -1.7133e+002 -2.7297e+002  4.6155e+000 26404 108801,108415,108657
 2.9000e+000 108706 -1.6721e+002 -2.6927e+002  2.4810e+001 26404 108729,108467,108657
 2.9000e+000 108755 -1.0200e+002 -2.7486e+002  3.1777e+001 26404 108337,108311,108729
 2.9000e+000 108778 -1.2217e+002 -2.7239e+002  2.4296e+001 26404 108337,108729,108657
 2.9000e+000 108827 -1.7206e+002 -3.4648e+002 -1.3881e+001 26404 108467,108441,108801
 2.9000e+000 108850 -1.8790e+002 -3.0417e+002 -9.3875e+000 26404 108467,108801,108657
 2.9000e+000 109228 -1.1677e+002 -2.5644e+002 -1.0704e+001 26064 109006,109084,109058
 2.9000e+000 109205 -9.5317e+001 -2.3617e+002  6.4569e+000 26064 108980,109084,109006
 2.9000e+000 109182 -1.1013e+002 -2.3087e+002 -3.4158e+000 26064 108980,109110,109084
 2.9000e+000 109159 -1.1188e+002 -2.6618e+002 -2.8199e+000 26064 109006,109058,109032
 2.9000e+000 109136  6.3330e+000 -2.0678e+002  1.7030e+001 26064 108954,109110,108980
 2.9000e+000 109427 -3.8402e+001 -2.2458e+002 -4.5964e+001 25660 109303,109355,109329
 2.9000e+000 109404 -6.7722e+001 -2.8325e+002 -1.2880e+001 25660 109277,109355,109303
 2.9000e+000 109381 -5.7246e+001 -2.5952e+002 -3.0231e+000 25660 109251,109355,109277
 2.9000e+000 109577 -5.0817e+001 -1.2585e+002  4.2950e+001 25306 109476,109528,109502
 2.9000e+000 109554 -6.8706e-002 -1.1937e+002  2.3740e+001 25306 109450,109528,109476
 2.9000e+000 109778 -8.4729e+001 -2.3741e+002  5.2651e+000 24944 109628,109706,109654
 2.9000e+000 109755 -9.3571e+001 -2.3616e+002 -1.1971e+000 24944 109602,109706,109628
 2.9000e+000 109732 -7.4951e+001 -2.2265e+002 -2.3880e+000 24944 109654,109706,109680
 2.9000e+000 110126 -9.1372e+001 -3.0903e+002  6.9908e+000 24440 110149,109907,109855
 2.9000e+000 110103 -8.6327e+001 -3.2356e+002  1.5470e+001 24440 110149,109855,109985
 2.9000e+000 110080 -7.7999e+001 -2.6947e+002  5.6364e+000 24440 109855,109907,109881
 2.9000e+000 110057 -8.6643e+001 -2.5621e+002  8.0024e+001 24440 109829,109985,109855
 2.9000e+000 110034 -8.0797e+001 -3.1081e+002  4.7562e-001 24440 109907,109959,109933
 2.9000e+000 110011 -8.3320e+001 -2.7081e+002  1.5552e+001 24440 109803,109985,109829
 2.9000e+000 110175 -8.7932e+001 -2.9712e+002  5.6885e+000 24440 109959,109907,110149
 2.9000e+000 110198 -8.2199e+001 -3.0903e+002  1.5621e+001 24440 109959,110149,109985
 2.9000e+000 110301 -1.3597e+001 -1.9975e+002 -6.5044e+000 24028 110223,110275,110249
 2.9000e+000 110573 -3.5600e+001 -1.7648e+002  1.3609e+001 23467 110400,110452,110426
 2.9000e+000 110550 -6.2225e+001 -2.1076e+002 -2.7852e-001 23467 110374,110452,110400
 2.9000e+000 110527 -6.2092e+001 -2.1064e+002  2.6140e+000 23467 110348,110452,110374
 2.9000e+000 110504 -4.5143e+001 -2.0395e+002 -1.9952e+000 23467 110348,110478,110452
 2.9000e+000 111004 -1.4717e+002 -3.1019e+002 -3.3973e+001 22963 111027,110733,110707
 2.9000e+000 110981 -1.4287e+002 -2.9314e+002  1.3294e+001 22963 111027,110707,110681
 2.9000e+000 110958 -7.1564e+001 -2.5900e+002 -2.9679e+001 22963 111099,110759,110733
 2.9000e+000 110935 -8.9348e+001 -2.5647e+002 -2.0766e+001 22963 111171,110863,110811
 2.9000e+000 110912 -4.7291e+001 -1.9136e+002 -3.3368e+001 22963 110759,110811,110785
 2.9000e+000 110889 -9.7473e+001 -2.7299e+002 -1.8189e+001 22963 110811,110863,110837
 2.9000e+000 111053 -1.0281e+002 -2.7960e+002 -1.9124e+001 22963 111099,110733,111027
 2.9000e+000 111076 -8.5468e+001 -2.7488e+002 -1.7273e+001 22963 111171,110811,111027
 2.9000e+000 111125 -7.0494e+001 -2.5506e+002 -4.6872e+001 22963 110811,110759,111099
 2.9000e+000 111148 -7.5883e+001 -2.5305e+002 -4.0693e+001 22963 110811,111099,111027
 2.9000e+000 111197 -9.1573e+001 -2.2413e+002 -2.6712e+001 22963 110681,110863,111171
 2.9000e+000 111220 -9.8152e+001 -2.4800e+002 -1.4322e+001 22963 110681,111171,111027
 2.9000e+000 111726 -1.3878e+002 -2.7133e+002  6.5519e+000 22459 111749,111507,111429
 2.9000e+000 111703 -1.2729e+002 -2.6753e+002 -3.1792e+000 22459 111749,111429,111585
 2.9000e+000 111680 -1.1119e+002 -2.9532e+002 -1.3994e+000 22459 111403,111585,111429
 2.9000e+000 111657 -1.3382e+002 -2.9422e+002  1.3000e+001 22459 111507,111559,111533
 2.9000e+000 111634 -1.7896e+002 -2.5858e+002  1.5445e+001 22459 111455,111507,111481
 2.9000e+000 111611 -1.8833e+002 -2.5869e+002  2.3062e+001 22459 111429,111507,111455
 2.9000e+000 111775 -1.3822e+002 -2.8636e+002  1.6820e+001 22459 111559,111507,111749
 2.9000e+000 111798 -1.2691e+002 -2.7518e+002  7.2046e+000 22459 111559,111749,111585
 2.9000e+000 112046 -5.8911e+001 -2.2182e+002 -2.8721e+001 21898 112069,111925,111873
 2.9000e+000 112023 -5.6574e+001 -2.2369e+002 -6.5891e+000 21898 112069,111873,111847
 2.9000e+000 112000 -7.6904e+001 -2.2828e+002 -1.0892e+001 21898 111821,111951,111847
 2.9000e+000 111977 -6.6920e+001 -1.7141e+002 -1.7543e+001 21898 111873,111925,111899
 2.9000e+000 112095 -9.0183e+001 -2.3339e+002 -3.2875e+001 21898 111951,111925,112069
 2.9000e+000 112118 -7.4790e+001 -2.3020e+002 -1.1623e+001 21898 111951,112069,111847
 2.9000e+000 112498 -1.1134e+002 -2.5533e+002 -2.3108e+001 21608 112521,112276,112224
 2.9000e+000 112475 -7.2409e+001 -2.5982e+002  6.2865e-001 21608 112521,112224,112380
 2.9000e+000 112452 -7.5038e+001 -2.8766e+002  2.0209e+001 21608 112302,112380,112354
 2.9000e+000 112429 -1.2621e+002 -2.8508e+002 -1.6807e+001 21608 112224,112276,112250
 2.9000e+000 112406  3.9400e+001 -3.1164e+002 -1.1777e+001 21608 112302,112354,112328
 2.9000e+000 112547 -7.9441e+001 -2.1754e+002 -5.6621e+000 21608 112302,112276,112521
 2.9000e+000 112570 -5.4116e+001 -2.4859e+002  1.1180e+001 21608 112302,112521,112380
 2.9000e+000 112948 -1.2736e+002 -2.6385e+002 -5.2173e+000 20882 112971,112752,112700
 2.9000e+000 112925 -9.9033e+001 -2.5380e+002 -9.6122e+000 20882 112971,112700,112830
 2.9000e+000 112902 -1.6109e+002 -2.8110e+002  1.6796e+001 20882 112778,112830,112804
 2.9000e+000 112879 -9.1210e+001 -2.0530e+002 -1.3268e+001 20882 112674,112830,112700
 2.9000e+000 112856 -1.5468e+002 -2.7468e+002  4.2703e+000 20882 112700,112752,112726
 2.9000e+000 112997 -1.2769e+002 -2.6252e+002  1.0630e+001 20882 112778,112752,112971
 2.9000e+000 113020 -1.1170e+002 -2.5755e+002  5.5346e+000 20882 112778,112971,112830
 2.9000e+000 113526 -9.5560e+001 -2.6637e+002  5.3751e-001 20428 113255,113385,113333
 2.9000e+000 113503 -1.0483e+002 -2.9228e+002 -3.0309e-001 20428 113229,113385,113255
 2.9000e+000 113480 -1.8678e+001 -2.6154e+002  1.2145e+000 20428 113255,113333,113281
 2.9000e+000 113457 -9.2877e+001 -2.8737e+002  1.5587e+000 20428 113203,113385,113229
 2.9000e+000 113434 -5.0467e+001 -2.7343e+002 -9.2919e+000 20428 113281,113333,113307
 2.9000e+000 113411 -1.1052e+002 -2.6147e+002  3.9506e+000 20428 113333,113385,113359
 2.9000e+000 113774 -1.1641e+001 -2.4294e+002  8.8161e+000 19917 113797,113601,113549
 2.9000e+000 113751 -3.5970e+001 -2.4528e+002  1.0977e+001 19917 113869,113797,113549
 2.9000e+000 113728 -3.4709e+001 -2.4782e+002  2.0442e+001 19917 113869,113549,113679
 2.9000e+000 113705 -2.0801e+001 -2.4149e+002  2.0672e+001 19917 113549,113601,113575
 2.9000e+000 113823 -3.7700e+001 -2.9961e+002 -1.3952e+000 19917 113627,113601,113797
 2.9000e+000 113846 -1.0692e+001 -2.3250e+002 -6.9738e+000 19917 113627,113797,113653
 2.9000e+000 113895 -3.1454e+001 -2.2175e+002  2.6395e+000 19917 113653,113797,113869
 2.9000e+000 113918 -4.0643e+001 -2.2850e+002  1.4842e+001 19917 113653,113869,113679
 2.9000e+000 114166 -1.1914e+002 -2.6183e+002 -4.4684e+000 19413 113993,114045,114019
 2.9000e+000 114143 -1.1424e+002 -2.4490e+002  1.1816e+000 19413 113967,114045,113993
 2.9000e+000 114120 -9.4678e+001 -2.3768e+002  1.0784e+001 19413 113967,114071,114045
 2.9000e+000 114097 -8.4673e+001 -2.6882e+002 -6.5703e+000 19413 113941,114071,113967
 2.9000e+000 114438 -1.0541e+002 -2.8031e+002  2.5904e+000 19001 114213,114265,114239
 2.9000e+000 114415 -7.5229e+001 -2.1813e+002 -6.9773e+000 19001 114213,114343,114265
 2.9000e+000 114392 -1.1211e+002 -3.0111e+002 -1.3768e+001 19001 114265,114343,114317
 2.9000e+000 114369  2.4016e+001 -2.4257e+002 -5.7254e+000 19001 114265,114317,114291
 2.9000e+000 114639 -7.0762e+001 -3.3264e+002  1.9034e+001 18554 114489,114541,114515
 2.9000e+000 114616 -6.5615e+001 -2.8312e+002  4.9238e+000 18554 114489,114567,114541
 2.9000e+000 114593 -1.4851e+002 -3.2380e+002 -1.9929e+001 18554 114463,114567,114489
 2.9000e+000 115043 -5.9540e+001 -2.5435e+002  9.2784e+000 18164 114795,114925,114821
 2.9000e+000 115020 -5.4519e+001 -2.7009e+002  1.4175e+001 18164 114769,114925,114795
 2.9000e+000 114997 -3.5357e+001 -2.6538e+002 -1.6126e+000 18164 115066,114873,114821
 2.9000e+000 114974 -3.3234e+001 -2.2930e+002 -7.9270e+000 18164 115066,114821,114925
 2.9000e+000 114951  9.0163e+000 -2.6636e+002 -2.4230e+001 18164 114821,114873,114847
 2.9000e+000 115092 -4.8455e+001 -2.3936e+002 -2.0580e+001 18164 114899,114873,115066
 2.9000e+000 115115 -3.1595e+001 -1.8418e+002 -2.8625e+001 18164 114899,115066,114925
 2.9000e+000 115265 -8.1796e+001 -2.9440e+002  1.3148e+000 17852 115164,115216,115190
 2.9000e+000 115242 -8.9533e+001 -3.0284e+002 -2.0023e+000 17852 115138,115216,115164
 2.9000e+000 115464 -1.7197e+002 -3.8635e+002  6.0908e+000 17346 115288,115366,115340
 2.9000e+000 115441 -2.6516e+002 -3.0100e+002 -1.0376e+001 17346 115288,115392,115366
 2.9000e+000 115418 -1.5459e+002 -4.3370e+002 -1.2631e+001 17346 115288,115340,115314
 2.9000e+000 115736 -7.6601e+001 -2.6096e+002  1.0673e+001 16942 115563,115641,115615
 2.9000e+000 115713 -8.5774e+001 -2.6037e+002  2.8078e+000 16942 115511,115641,115563
 2.9000e+000 115690 -1.8391e+002 -3.0260e+002  1.5441e+001 16942 115563,115615,115589
 2.9000e+000 115667 -1.0057e+002 -2.8268e+002  9.2373e+000 16942 115511,115563,115537
 2.9000e+000 116091 -1.2980e+002 -2.9779e+002 -1.1712e+001 16388 115918,115970,115944
 2.9000e+000 116068 -1.1157e+002 -2.3850e+002 -7.8730e+000 16388 115918,115996,115970
 2.9000e+000 116045 -1.4949e+002 -3.0140e+002  9.5127e+000 16388 115892,115996,115918
 2.9000e+000 116022 -1.0051e+002 -2.7625e+002  3.2442e+001 16388 115866,115996,115892
 2.9000e+000 116192 -5.1548e+001 -3.2694e+002 -4.4948e+001 15810 116114,116166,116140
 2.9000e+000 116342 -1.1720e+002 -3.8074e+002  2.0187e+001 15419 116241,116293,116267
 2.9000e+000 116319 -1.6818e+002 -4.6566e+002 -1.3532e+001 15419 116215,116293,116241
 2.9000e+000 116445 -1.3423e+002 -2.6469e+002  1.9869e+000 421 116367,116419,116393
 3.0000e+000 68477 -1.7851e+002 -2.7538e+002 -5.5479e-001 68018 68327,68379,68353
 3.0000e+000 68454 -1.9034e+002 -3.7503e+002  2.7936e+001 68018 68301,68379,68327
 3.0000e+000 68431 -7.0479e+001 -4.1222e+002  7.4050e+001 68018 68301,68405,68379
 3.0000e+000 68578 -1.1724e+002 -2.6398e+002  9.1298e-001 67820 68500,68552,68526
 3.0000e+000 68728 -1.3058e+002 -2.5036e+002 -4.3982e+000 67508 68601,68653,68627
 3.0000e+000 68705 -2.0830e+002 -1.9120e+002 -3.8568e+001 67508 68601,68679,68653
 3.0000e+000 68927 -2.6835e+001 -2.1182e+002 -5.5490e+000 67310 68777,68829,68803
 3.0000e+000 68904 -4.6838e+001 -2.4425e+002  3.6091e+000 67310 68751,68829,68777
 3.0000e+000 68881 -2.6354e+001 -2.4203e+002  1.8496e+001 67310 68751,68855,68829
 3.0000e+000 69386 -1.0041e+002 -2.8196e+002 -1.7093e+001 67020 69216,69268,69242
 3.0000e+000 69363 -9.0148e+001 -2.1592e+002 -3.1137e+001 67020 69138,69268,69216
 3.0000e+000 69340 -6.5025e+001 -1.8515e+002 -1.2343e+001 67020 69112,69268,69138
 3.0000e+000 69317 -1.2390e+002 -2.3282e+002  1.8835e+001 67020 69138,69190,69164
 3.0000e+000 69294 -1.3077e+002 -2.1161e+002 -1.4691e+001 67020 69138,69216,69190
 3.0000e+000 69536 -2.2415e+002 -5.4456e+002 -4.6688e+001 66708 69435,69487,69461
 3.0000e+000 69513 -1.6295e+002 -6.1403e+002 -9.0199e+000 66708 69409,69487,69435
 3.0000e+000 69735 -1.3073e+002 -2.8189e+002  6.8610e+000 66346 69585,69637,69611
 3.0000e+000 69712 -1.0614e+002 -2.6817e+002 -1.0627e+000 66346 69559,69637,69585
 3.0000e+000 69689 -9.5590e+001 -2.6605e+002 -2.6001e+001 66346 69559,69663,69637
 3.0000e+000 69985 -1.7118e+002 -3.0317e+002  5.3931e+000 66148 69786,69890,69864
 3.0000e+000 69962 -1.8104e+002 -3.0736e+002  6.0106e+000 66148 69760,69890,69786
 3.0000e+000 69939 -1.1833e+002 -2.8956e+002 -4.8207e+001 66148 69786,69864,69838
 3.0000e+000 69916 -1.4952e+002 -3.1827e+002 -1.2064e+001 66148 69786,69838,69812
 3.0000e+000 70137 -8.6896e+001 -3.3788e+002 -2.0424e+001 65950 70036,70088,70062
 3.0000e+000 70114 -7.4443e+001 -3.7311e+002  1.4797e+001 65950 70010,70088,70036
 3.0000e+000 70470 -6.0079e+001 -2.4367e+002  2.3443e+001 65546 70245,70323,70271
 3.0000e+000 70447 -3.8248e+001 -2.0707e+002  1.2510e+001 65546 70245,70375,70323
 3.0000e+000 70424 -5.3383e+001 -2.6953e+002  1.2561e+001 65546 70323,70375,70349
 3.0000e+000 70401 -4.9984e+001 -2.2420e+002  1.2015e+001 65546 70271,70323,70297
 3.0000e+000 70620 -8.4033e+001 -2.9216e+002  1.1117e+001 65348 70493,70545,70519
 3.0000e+000 70597 -7.9661e+001 -3.1255e+002  7.2884e+000 65348 70493,70571,70545
 3.0000e+000 70721 -1.4259e+002 -3.0360e+002  2.2963e+001 65150 70643,70695,70669
 3.0000e+000 71020 -9.1619e+001 -2.2917e+002  5.6112e-001 64952 71043,70850,70824
 3.0000e+000 70997 -7.9700e+001 -1.9866e+002  1.3623e+000 64952 71043,70824,70772
 3.0000e+000 70974 -9.0328e+001 -2.7106e+002  4.1304e+000 64952 71115,70746,70876
 3.0000e+000 70951 -6.5520e+001 -2.7125e+002 -4.0991e+000 64952 70746,70902,70876
 3.0000e+000 70928 -7.4190e+001 -1.5551e+002 -2.4555e+001 64952 70772,70824,70798
 3.0000e+000 71069 -7.1489e+001 -2.1700e+002  9.9117e+000 64952 70876,70850,71043
 3.0000e+000 71092 -8.6834e+001 -2.5348e+002  5.7301e+000 64952 71115,70876,71043
 3.0000e+000 71141 -1.0688e+002 -2.5059e+002 -1.1990e+001 64952 70772,70746,71115
 3.0000e+000 71164 -9.7603e+001 -2.2436e+002 -1.0629e+001 64952 70772,71115,71043
 3.0000e+000 71365  6.5503e+000 -2.8224e+002 -4.1892e+000 64662 71215,71293,71267
 3.0000e+000 71342  7.8068e+001 -2.5301e+002 -7.0655e+001 64662 71189,71293,71215
 3.0000e+000 71319  3.3222e+001 -2.2805e+002  4.3078e+000 64662 71215,71267,71241
 3.0000e+000 71615 -5.9032e+001 -2.7038e+002 -7.2904e+000 64350 71710,71638,71468
 3.0000e+000 71592 -8.9230e+001 -2.6570e+002 -1.0389e+001 64350 71638,71416,71390
 3.0000e+000 71569 -6.2596e+001 -2.5209e+002  7.6436e+000 64350 71710,71468,71442
 3.0000e+000 71546  7.8384e+001 -2.4703e+002 -5.0799e+001 64350 71390,71520,71494
 3.0000e+000 71664 -6.2807e+001 -2.7267e+002 -4.9194e+000 64350 71494,71468,71638
 3.0000e+000 71687 -5.9641e+001 -2.6960e+002 -3.3728e+000 64350 71494,71638,71390
 3.0000e+000 71736 -5.6700e+001 -2.3360e+002  2.7183e+000 64350 71416,71638,71710
 3.0000e+000 71759 -4.8921e+001 -2.1285e+002  2.2525e+001 64350 71416,71710,71442
 3.0000e+000 72318 -6.3129e+001 -4.2570e+002 -1.9160e+001 63837 71972,72024,71998
 3.0000e+000 72295 -9.5320e+001 -2.6540e+002 -6.2635e+000 63837 72341,71972,71946
 3.0000e+000 72272 -9.0771e+001 -2.1570e+002  1.1812e+001 63837 72413,72341,71946
 3.0000e+000 72249 -8.8324e+001 -1.9599e+002  5.9504e+000 63837 72413,71946,72128
 3.0000e+000 72226 -1.3759e+002 -2.3798e+002  6.7572e+000 63837 72024,72076,72050
 3.0000e+000 72203 -1.2196e+002 -2.1437e+002 -6.3445e+000 63837 72024,72102,72076
 3.0000e+000 72180 -7.5520e+001 -1.9335e+002  1.9130e+001 63837 71946,72154,72128
 3.0000e+000 72367 -1.3046e+002 -2.8963e+002 -5.4651e+001 63837 72024,71972,72341
 3.0000e+000 72390 -9.7074e+001 -2.3253e+002 -1.8689e+001 63837 72024,72341,72102
 3.0000e+000 72439 -7.6212e+001 -2.4757e+002  4.9222e+000 63837 72102,72341,72413
 3.0000e+000 72462 -7.3367e+001 -2.2652e+002  1.4926e+000 63837 72102,72413,72128
 3.0000e+000 72791 -1.2248e+002 -2.4571e+002 -2.6927e+001 63383 72592,72696,72670
 3.0000e+000 72768 -1.2574e+002 -2.2959e+002 -4.7307e+001 63383 72566,72696,72592
 3.0000e+000 72745 -1.2288e+002 -2.1468e+002 -1.5579e+000 63383 72592,72670,72618
 3.0000e+000 72722 -1.1720e+002 -2.0332e+002  5.6912e-001 63383 72618,72670,72644
 3.0000e+000 73297 -1.4996e+002 -2.1890e+002 -4.1434e+000 63185 73000,73156,73130
 3.0000e+000 73274 -1.5149e+002 -2.3071e+002  2.8824e+001 63185 72974,73156,73000
 3.0000e+000 73251 -1.0879e+002 -2.5269e+002 -4.6525e+000 63185 73000,73052,73026
 3.0000e+000 73228 -1.2096e+002 -2.2329e+002 -1.2527e+001 63185 73000,73130,73052
 3.0000e+000 73205 -1.2207e+002 -2.5684e+002 -3.9519e+001 63185 73052,73130,73104
 3.0000e+000 73182 -1.1825e+002 -2.7763e+002 -4.1777e+001 63185 73052,73104,73078
 3.0000e+000 73545 -3.5398e+001 -2.2812e+002 -1.0642e-001 62781 73568,73398,73372
 3.0000e+000 73522 -1.5488e+001 -2.0720e+002  1.1515e+001 62781 73568,73372,73346
 3.0000e+000 73499 -4.8321e+001 -2.1770e+002 -8.1709e+000 62781 73640,73320,73424
 3.0000e+000 73476 -7.4360e+001 -1.5266e+002 -1.9244e+001 62781 73320,73450,73424
 3.0000e+000 73594 -3.9490e+001 -2.0852e+002 -2.9522e+000 62781 73424,73398,73568
 3.0000e+000 73617 -4.0123e+001 -2.1294e+002 -3.9702e+000 62781 73640,73424,73568
 3.0000e+000 73666 -4.5075e+001 -2.1158e+002  1.8218e-001 62781 73346,73320,73640
 3.0000e+000 73689 -4.0501e+001 -2.0662e+002  4.0544e+000 62781 73346,73640,73568
 3.0000e+000 74035 -8.8080e+001 -2.7188e+002 -3.2611e+000 62363 74058,73868,73842
 3.0000e+000 74012 -8.3763e+001 -2.5116e+002 -1.9548e+001 62363 74130,74058,73842
 3.0000e+000 73989 -7.6128e+001 -2.4828e+002 -1.9701e+001 62363 74130,73842,73816
 3.0000e+000 73966 -1.2911e+002 -2.8244e+002  3.5509e+000 62363 74202,73764,73894
 3.0000e+000 73943 -1.6726e+002 -2.5436e+002  5.1207e+000 62363 73712,73894,73764
 3.0000e+000 73920 -1.8368e+002 -2.7178e+002 -3.4902e+000 62363 73712,73764,73738
 3.0000e+000 74084 -9.0524e+001 -2.6460e+002 -3.5164e+000 62363 73894,73868,74058
 3.0000e+000 74107 -1.1673e+002 -2.6958e+002  1.3793e+001 62363 74202,73894,74058
 3.0000e+000 74156 -9.2715e+001 -2.5366e+002  8.7184e+000 62363 73790,74058,74130
 3.0000e+000 74179 -5.4690e+001 -2.3781e+002  1.1435e+001 62363 73790,74130,73816
 3.0000e+000 74228 -1.4338e+002 -2.8869e+002 -1.5492e+001 62363 73790,73764,74202
 3.0000e+000 74251 -1.3439e+002 -2.7513e+002 -5.3131e+000 62363 73790,74202,74058
 3.0000e+000 74403 -2.9900e+000 -2.9059e+002  1.9357e+001 62115 74426,74302,74276
 3.0000e+000 74380  6.2673e+001 -2.8028e+002  4.6116e+001 62115 74426,74276,74354
 3.0000e+000 74452 -6.3799e+001 -2.6047e+002  1.9789e+001 62115 74328,74302,74426
 3.0000e+000 74475 -2.6224e+000 -2.5254e+002  4.8425e+001 62115 74328,74426,74354
 3.0000e+000 74578  5.5297e+001 -1.7173e+002  3.3419e+000 61825 74500,74552,74526
 3.0000e+000 74982 -1.4039e+002 -2.5133e+002  2.0319e+000 61513 75005,74734,74708
 3.0000e+000 74959 -1.3677e+002 -2.4496e+002 -2.1194e-001 61513 75005,74708,74864
 3.0000e+000 74936 -1.7488e+002 -2.5812e+002  1.6998e+001 61513 75077,74812,74734
 3.0000e+000 74913 -1.5542e+002 -2.6090e+002 -2.2373e+001 61513 74734,74786,74760
 3.0000e+000 74890 -1.5219e+002 -2.3185e+002 -1.3426e+000 61513 74734,74812,74786
 3.0000e+000 75031 -1.3205e+002 -2.5748e+002  3.2860e+000 61513 75077,74734,75005
 3.0000e+000 75054 -1.0338e+002 -2.4901e+002  3.7934e+001 61513 74838,75005,74864
 3.0000e+000 75103 -1.9874e+002 -2.6858e+002  5.5679e+001 61513 74838,74812,75077
 3.0000e+000 75126 -1.7076e+002 -2.7844e+002  4.2052e+001 61513 74838,75077,75005
 3.0000e+000 75553 -6.0654e+001 -2.2452e+002 -8.5584e+000 61060 75576,75360,75308
 3.0000e+000 75530 -6.6501e+001 -2.3766e+002 -1.1206e+001 61060 75576,75308,75230
 3.0000e+000 75507 -5.3087e+001 -2.1234e+002  2.5971e+000 61060 75308,75360,75334
 3.0000e+000 75484 -9.1567e+001 -2.8033e+002  1.7544e+001 61060 75230,75308,75256
 3.0000e+000 75461 -5.9480e+001 -2.5777e+002  7.5696e+000 61060 75256,75308,75282
 3.0000e+000 75438 -6.7550e+001 -2.1791e+002  3.0327e+001 61060 75360,75412,75386
 3.0000e+000 75602 -3.9990e+001 -2.3691e+002  1.3100e+000 61060 75412,75360,75576
 3.0000e+000 75625 -5.5708e+001 -2.6416e+002 -5.4911e+000 61060 75412,75576,75230
 3.0000e+000 76052 -9.6821e+001 -2.2772e+002  2.9178e+000 60442 75755,75859,75833
 3.0000e+000 76029 -1.1952e+002 -2.1867e+002 -1.6018e+001 60442 75729,75859,75755
 3.0000e+000 76006 -1.0271e+002 -2.1251e+002  1.4804e+001 60442 75755,75833,75807
 3.0000e+000 75983 -9.5407e+001 -2.5532e+002  8.2814e+000 60442 75755,75807,75781
 3.0000e+000 75960  1.9762e+001 -3.9762e+002  1.0658e+001 60442 75729,75911,75859
 3.0000e+000 75937 -1.9418e+002 -1.0143e+003  6.2000e+001 60442 75859,75911,75885
 3.0000e+000 76430 -9.8903e+001 -2.6499e+002 -9.5291e+000 59788 76453,76286,76234
 3.0000e+000 76407 -1.0758e+002 -3.0056e+002  3.4389e+000 59788 76453,76234,76182
 3.0000e+000 76384 -1.0617e+002 -1.8823e+002  3.4435e+001 59788 76525,76156,76312
 3.0000e+000 76361 -6.6530e+001 -3.4792e+002 -2.7785e+000 59788 76182,76234,76208
 3.0000e+000 76338 -6.7573e+001 -2.5308e+002 -5.6077e+000 59788 76234,76286,76260
 3.0000e+000 76479 -1.1833e+002 -2.8354e+002  8.9089e-001 59788 76312,76286,76453
 3.0000e+000 76502 -9.8856e+001 -2.6467e+002  1.2237e+001 59788 76525,76312,76453
 3.0000e+000 76551 -1.3792e+002 -2.8412e+002  3.4799e+001 59788 76182,76156,76525
 3.0000e+000 76574 -1.2035e+002 -3.0710e+002  1.9613e+001 59788 76182,76525,76453
 3.0000e+000 77031 -5.8203e+001 -1.3927e+002 -4.1720e+001 59448 76835,76887,76861
 3.0000e+000 77008 -6.6421e+000 -1.3322e+002  4.1036e+000 59448 76835,76913,76887
 3.0000e+000 76985 -3.2699e+001 -1.1704e+002  3.4121e+001 59448 76809,76913,76835
 3.0000e+000 76962 -8.5898e+001 -1.4110e+002 -2.9907e+000 59448 76757,76913,76809
 3.0000e+000 76939 -6.2950e+001 -1.3384e+002 -1.1996e+001 59448 76757,76809,76783
 3.0000e+000 77537 -1.1467e+002 -2.4790e+002  1.3868e+001 58994 77560,77344,77292
 3.0000e+000 77514 -1.6311e+002 -2.4711e+002  4.3196e+000 58994 77560,77292,77240
 3.0000e+000 77491 -9.2581e+001 -2.3325e+002 -5.3321e+000 58994 77632,77214,77370
 3.0000e+000 77468 -1.9362e+002 -2.8520e+002  5.0817e+001 58994 77292,77344,77318
 3.0000e+000 77445 -9.5204e+001 -3.0321e+002  1.2366e+001 58994 77214,77396,77370
 3.0000e+000 77422 -1.6653e+002 -2.6316e+002 -5.1175e+000 58994 77240,77292,77266
 3.0000e+000 77586 -1.1758e+002 -2.5356e+002  1.5668e+001 58994 77370,77344,77560
 3.0000e+000 77609 -1.1895e+002 -2.4938e+002  1.7593e+001 58994 77632,77370,77560
 3.0000e+000 77658 -7.8267e+001 -2.1605e+002 -2.9340e+001 58994 77240,77214,77632
 3.0000e+000 77681 -9.7484e+001 -2.1328e+002 -8.5911e+000 58994 77240,77632,77560
 3.0000e+000 78138 -8.5444e+001 -1.6284e+002  2.2954e+001 58440 77864,77994,77890
 3.0000e+000 78115 -4.9994e+001 -9.1715e+001 -1.7399e+001 58440 77864,78020,77994
 3.0000e+000 78092 -9.8503e+001 -1.9497e+002 -1.6526e+001 58440 77942,77994,77968
 3.0000e+000 78069 -7.6083e+001 -1.8123e+002  4.0021e+000 58440 77890,77994,77942
 3.0000e+000 78046 -6.9482e+001 -1.8303e+002 -9.5727e-001 58440 77890,77942,77916
 3.0000e+000 78467 -9.8786e+000 -2.2389e+002  1.0563e+001 57928 78562,78490,78346
 3.0000e+000 78444 -8.3008e+001 -2.2804e+002 -4.1919e+000 57928 78490,78294,78268
 3.0000e+000 78421  5.0741e+000 -2.3554e+002  2.2793e+001 57928 78562,78346,78320
 3.0000e+000 78398 -2.6727e+001 -2.2012e+002  3.6978e+000 57928 78242,78372,78268
 3.0000e+000 78516 -7.0658e+001 -2.8241e+002 -1.4108e+001 57928 78372,78346,78490
 3.0000e+000 78539 -5.3996e+001 -2.1508e+002 -1.5567e+000 57928 78372,78490,78268
 3.0000e+000 78588 -8.2512e+001 -2.2159e+002  2.8495e+000 57928 78294,78490,78562
 3.0000e+000 78611 -3.6173e+001 -1.9703e+002  2.7364e+001 57928 78294,78562,78320
 3.0000e+000 79068 -1.5143e+002 -3.3232e+002 -7.4197e+001 57467 78794,78924,78820
 3.0000e+000 79045 -1.1829e+002 -3.2042e+002 -8.1165e+001 57467 78794,78950,78924
 3.0000e+000 79022 -2.8375e+001 -2.7547e+002  1.7372e+001 57467 78820,78898,78872
 3.0000e+000 78999 -1.2685e+002 -3.9152e+002 -4.8514e+001 57467 78820,78924,78898
 3.0000e+000 78976 -4.3050e+001 -2.9058e+002  3.1454e+001 57467 78820,78872,78846
 3.0000e+000 79446 -1.3217e+002 -2.5823e+002  2.8318e-001 57120 79172,79302,79250
 3.0000e+000 79423 -1.1839e+002 -2.5205e+002 -6.6171e+000 57120 79172,79328,79302
 3.0000e+000 79400 -1.1847e+002 -2.2492e+002 -8.9511e+000 57120 79172,79250,79198
 3.0000e+000 79377 -9.0068e+001 -3.2442e+002  1.3146e+001 57120 79250,79302,79276
 3.0000e+000 79354 -1.4618e+002 -2.4442e+002 -1.8299e+001 57120 79198,79250,79224
 3.0000e+000 79952 -1.7630e+002 -2.7295e+002 -9.0151e-001 56773 79629,79785,79655
 3.0000e+000 79929 -5.7760e+001 -2.3755e+002  1.1308e+001 56773 79629,79811,79785
 3.0000e+000 79906 -1.3451e+002 -2.9756e+002  1.7951e+001 56773 79655,79733,79681
 3.0000e+000 79883 -1.3341e+002 -2.6335e+002  2.6560e+000 56773 79655,79785,79733
 3.0000e+000 79860 -1.2162e+002 -3.4338e+002 -4.7182e+001 56773 79733,79785,79759
 3.0000e+000 79837 -6.7015e+001 -2.6658e+002  4.9249e+001 56773 79681,79733,79707
 3.0000e+000 80281 -5.5192e+001 -2.1065e+002 -1.6610e+001 56319 80108,80160,80134
 3.0000e+000 80258 -6.2795e+001 -2.2960e+002 -2.1282e+001 56319 80056,80160,80108
 3.0000e+000 80235 -1.8073e+001 -2.0139e+002  1.1407e+001 56319 80056,80186,80160
 3.0000e+000 80212 -8.9511e+001 -2.9288e+002 -1.2411e+001 56319 80056,80108,80082
 3.0000e+000 80738 -3.3641e+001 -2.4670e+002  1.5266e+001 55957 80516,80620,80594
 3.0000e+000 80715 -8.3200e+001 -2.2428e+002  1.2853e+001 55957 80464,80620,80516
 3.0000e+000 80692 -7.1460e+001 -2.6918e+002  1.4769e+001 55957 80761,80568,80542
 3.0000e+000 80669 -5.6848e+001 -2.6474e+002  1.7485e+001 55957 80761,80542,80516
 3.0000e+000 80646 -8.1032e+001 -2.1849e+002  3.4827e+001 55957 80464,80516,80490
 3.0000e+000 80787 -8.5638e+001 -2.6731e+002  1.0444e+001 55957 80594,80568,80761
 3.0000e+000 80810 -7.1929e+001 -2.6328e+002  1.3337e+001 55957 80594,80761,80516
 3.0000e+000 81210 -4.9441e+001 -2.4849e+002 -3.0856e+001 55317 80936,80988,80962
 3.0000e+000 81187 -3.9515e+001 -2.5997e+002 -1.2713e+001 55317 80936,81066,80988
 3.0000e+000 81164 -4.2622e+001 -2.9051e+002 -2.0039e+000 55317 80936,81092,81066
 3.0000e+000 81141 -1.0265e+002 -2.9111e+002 -2.8492e+001 55317 80988,81066,81014
 3.0000e+000 81118 -1.2834e+001 -1.8333e+002  1.2381e+001 55317 81014,81066,81040
 3.0000e+000 81539 -1.1526e+002 -2.6786e+002  9.0190e+000 54913 81340,81418,81392
 3.0000e+000 81516 -4.3620e+001 -2.1444e+002 -1.5012e+001 54913 81340,81444,81418
 3.0000e+000 81493 -6.9847e+001 -2.3028e+002 -3.0067e+001 54913 81314,81444,81340
 3.0000e+000 81470 -1.2935e+002 -2.8011e+002  3.4728e+000 54913 81340,81392,81366
 3.0000e+000 81787 -6.1778e+001 -2.7543e+002 -1.4505e+000 54601 81588,81692,81640
 3.0000e+000 81764 -9.2854e+001 -2.7956e+002 -8.3482e+000 54601 81562,81692,81588
 3.0000e+000 81741 -4.8173e+001 -2.7998e+002  3.7545e+001 54601 81588,81640,81614
 3.0000e+000 81718 -6.4586e+001 -3.2823e+002 -2.7317e+001 54601 81640,81692,81666
 3.0000e+000 82344 -1.0877e+002 -3.0251e+002 -1.6861e+001 54090 81998,82102,82076
 3.0000e+000 82321 -1.4745e+002 -3.1947e+002 -9.7628e+000 54090 81998,82154,82102
 3.0000e+000 82298 -1.3412e+002 -3.1201e+002 -6.0403e+000 54090 81972,82154,81998
 3.0000e+000 82275 -1.5362e+002 -2.8057e+002 -1.9943e+001 54090 81998,82076,82024
 3.0000e+000 82252 -1.6311e+002 -3.3250e+002  1.6173e+001 54090 81972,82180,82154
 3.0000e+000 82229 -2.0580e+002 -3.8826e+002  2.1767e+001 54090 82102,82154,82128
 3.0000e+000 82206 -2.6719e+001 -2.1205e+002 -4.7173e+001 54090 82024,82076,82050
 3.0000e+000 82722 -1.7410e+002 -3.1532e+002 -1.0424e+001 53579 82500,82578,82552
 3.0000e+000 82699 -1.2694e+002 -2.8671e+002  8.5813e+000 53579 82448,82578,82500
 3.0000e+000 82676 -1.3901e+002 -3.2542e+002  9.6978e+000 53579 82448,82500,82474
 3.0000e+000 82653 -1.7018e+002 -3.0882e+002  2.4028e+001 53579 82448,82604,82578
 3.0000e+000 82630 -9.0573e+001 -2.9294e+002 -1.1803e+001 53579 82500,82552,82526
 3.0000e+000 83356 -8.1434e+001 -2.2559e+002 -2.1847e+001 53189 83379,83088,83036
 3.0000e+000 83333 -7.9707e+001 -2.5158e+002 -2.0257e+001 53189 83379,83036,82984
 3.0000e+000 83310 -2.7609e+001 -2.2746e+002  4.4836e+001 53189 82984,83192,83166
 3.0000e+000 83287  1.2043e+001 -1.8595e+002 -1.7096e+001 53189 83036,83088,83062
 3.0000e+000 83264 -6.1891e+001 -2.8277e+002 -3.9495e+001 53189 82984,83036,83010
 3.0000e+000 83241 -4.4342e+001 -2.6441e+002  5.4921e+000 53189 83114,83166,83140
 3.0000e+000 83218 -1.1070e+002 -2.8392e+002  5.8245e+000 53189 83088,83166,83114
 3.0000e+000 83405 -8.0659e+001 -2.4319e+002 -1.0921e+001 53189 83166,83088,83379
 3.0000e+000 83428 -7.5281e+001 -2.6628e+002 -1.0933e+001 53189 83166,83379,82984
 3.0000e+000 83725 -1.1712e+002 -3.3628e+002 -2.9349e+001 52585 83748,83529,83503
 3.0000e+000 83702 -8.7459e+001 -3.2684e+002 -1.7635e+001 52585 83820,83748,83503
 3.0000e+000 83679 -6.0163e+001 -3.2048e+002 -1.4830e+001 52585 83820,83503,83477
 3.0000e+000 83656 -3.3104e+001 -2.9288e+002  4.1621e+001 52585 83477,83607,83581
 3.0000e+000 83633  3.5004e+001 -2.6292e+002  4.6290e+001 52585 83451,83607,83477
 3.0000e+000 83774 -1.0132e+002 -2.9694e+002 -2.5670e+001 52585 83555,83529,83748
 3.0000e+000 83797 -1.3121e+002 -3.2302e+002 -1.4202e+001 52585 83555,83748,83581
 3.0000e+000 83846 -1.1323e+002 -3.1127e+002 -3.7173e+000 52585 83581,83748,83820
 3.0000e+000 83869 -9.3358e+001 -3.0951e+002 -3.8178e+000 52585 83581,83820,83477
 3.0000e+000 84200 -8.3385e+001 -3.0628e+002 -1.0590e+001 52024 84001,84105,84079
 3.0000e+000 84177 -4.2159e+001 -2.9915e+002 -2.1525e+001 52024 83975,84105,84001
 3.0000e+000 84154 -7.5214e+001 -3.0551e+002 -9.7929e+000 52024 84001,84079,84053
 3.0000e+000 84131 -3.4919e+001 -2.0021e+002  3.7299e+001 52024 84001,84053,84027
 3.0000e+000 84399 -7.0049e+001 -2.9881e+002 -2.3147e-001 51470 84422,84275,84249
 3.0000e+000 84376 -6.3257e+001 -2.8669e+002  3.2510e+000 51470 84422,84249,84223
 3.0000e+000 84353 -8.0606e+001 -3.1309e+002 -4.3361e+001 51470 84275,84327,84301
 3.0000e+000 84448 -7.7010e+001 -2.8707e+002 -7.1879e-001 51470 84327,84275,84422
 3.0000e+000 84471 -7.1821e+001 -2.7729e+002  2.4418e+000 51470 84327,84422,84223
 3.0000e+000 84753 -9.0131e+001 -2.5948e+002 -2.3386e+000 51073 84603,84655,84629
 3.0000e+000 84730 -1.8667e+002 -3.0236e+002 -1.3039e+001 51073 84776,84655,84603
 3.0000e+000 84707 -3.6239e+001 -2.6384e+002 -7.4980e+001 51073 84577,84681,84655
 3.0000e+000 84802 -1.1682e+002 -2.6325e+002 -3.4468e+001 51073 84577,84655,84776
 3.0000e+000 85178 -1.5252e+002 -3.3848e+002  3.0936e+001 50519 85201,85008,84982
 3.0000e+000 85155 -1.4408e+002 -3.1376e+002  2.2660e+001 50519 85273,85201,84982
 3.0000e+000 85132 -1.3606e+002 -3.1365e+002  1.7561e+001 50519 85273,84982,84930
 3.0000e+000 85109 -1.3267e+002 -3.0441e+002  1.5131e+001 50519 84930,84982,84956
 3.0000e+000 85086 -1.1885e+002 -3.1017e+002  9.5094e+000 50519 85008,85060,85034
 3.0000e+000 85227 -1.2674e+002 -3.2188e+002  1.3378e+001 50519 85060,85008,85201
 3.0000e+000 85250 -1.4298e+002 -3.2179e+002  9.1958e+000 50519 85060,85201,84904
 3.0000e+000 85299 -1.3583e+002 -3.1794e+002  7.5939e+000 50519 84904,85201,85273
 3.0000e+000 85322 -1.0694e+002 -2.8106e+002 -5.3303e+000 50519 84904,85273,84930
 3.0000e+000 85958 -8.5411e+001 -2.7549e+002 -7.7822e+000 50093 85981,85768,85716
 3.0000e+000 85935 -7.6312e+001 -2.5271e+002 -8.4994e+000 50093 85981,85716,85612
 3.0000e+000 85912 -9.4252e+001 -2.4800e+002 -3.7968e-001 50093 85612,85716,85664
 3.0000e+000 85889 -6.6055e+001 -2.7026e+002 -2.3777e+000 50093 85716,85768,85742
 3.0000e+000 85866 -9.6798e+001 -2.1024e+002 -4.5112e+001 50093 85664,85716,85690
 3.0000e+000 85843  2.0932e+001 -1.8498e+002 -2.3233e+001 50093 85586,85794,85612
 3.0000e+000 85820 -6.2375e+001 -3.5365e+002  2.3171e+001 50093 85612,85664,85638
 3.0000e+000 86007 -1.0361e+002 -2.9485e+002 -4.0394e+001 50093 85794,85768,85981
 3.0000e+000 86030 -7.5377e+001 -2.2867e+002 -3.2939e+001 50093 85794,85981,85612
 3.0000e+000 86131 -9.8096e+001 -3.1529e+002  4.2822e+001 49895 86053,86105,86079
 3.0000e+000 86639 -7.4040e+001 -2.0590e+002 -3.8793e+001 49391 86662,86394,86368
 3.0000e+000 86616 -8.5282e+001 -2.4340e+002 -3.5556e+001 49391 86662,86368,86342
 3.0000e+000 86593 -4.4261e+001 -2.3767e+002 -1.0016e+001 49391 86342,86498,86472
 3.0000e+000 86570 -2.9723e+001 -2.5862e+002 -1.1865e+001 49391 86316,86498,86342
 3.0000e+000 86547 -1.3235e+002 -3.6273e+002 -1.2886e+001 49391 86394,86472,86446
 3.0000e+000 86524  3.1735e+000 -3.4398e+002  7.0593e+000 49391 86394,86446,86420
 3.0000e+000 86688 -8.0662e+001 -2.4089e+002 -2.2548e+001 49391 86472,86394,86662
 3.0000e+000 86711 -7.4259e+001 -2.5703e+002 -2.2165e+001 49391 86472,86662,86342
 3.0000e+000 87089 -1.0090e+002 -2.9034e+002  7.8380e+000 48987 86815,86919,86867
 3.0000e+000 87066 -1.0228e+002 -2.9944e+002  1.2340e+001 48987 86815,86971,86919
 3.0000e+000 87043 -3.8178e+001 -3.2137e+002 -2.8610e+001 48987 86867,86919,86893
 3.0000e+000 87020 -1.1547e+002 -3.2992e+002  2.6354e+001 48987 86815,86867,86841
 3.0000e+000 86997 -1.1386e+002 -2.5518e+002  4.1128e+001 48987 86919,86971,86945
 3.0000e+000 87467 -1.9304e+002 -2.8633e+002  1.4461e+001 48540 87490,87245,87219
 3.0000e+000 87444 -1.3872e+002 -2.6729e+002  1.4152e+000 48540 87562,87490,87219
 3.0000e+000 87421 -1.0415e+002 -2.5332e+002  1.2044e+001 48540 87562,87219,87349
 3.0000e+000 87398 -1.4397e+002 -2.2332e+002 -1.5234e+001 48540 87245,87297,87271
 3.0000e+000 87375 -8.5351e+001 -2.6507e+002  9.3525e+000 48540 87193,87349,87219
 3.0000e+000 87516 -1.3178e+002 -2.7252e+002  3.2997e+000 48540 87297,87245,87490
 3.0000e+000 87539 -1.3299e+002 -2.7337e+002  4.5795e+000 48540 87297,87490,87323
 3.0000e+000 87588 -1.0539e+002 -2.5163e+002  2.3938e+001 48540 87323,87490,87562
 3.0000e+000 87611 -8.8702e+001 -2.5588e+002  3.1035e+001 48540 87323,87562,87349
 3.0000e+000 87810 -1.3857e+002 -4.9901e+002 -3.5553e+001 48136 87660,87712,87686
 3.0000e+000 87787 -8.1196e+001 -3.0316e+002 -1.7069e+001 48136 87660,87738,87712
 3.0000e+000 87764 -1.8918e+002 -3.1080e+002 -5.4146e+001 48136 87634,87738,87660
 3.0000e+000 88205 -1.2552e+002 -3.1331e+002 -2.6814e+001 47210 88300,88228,87937
 3.0000e+000 88182 -1.0943e+002 -3.0422e+002 -7.5515e+000 47210 88228,87833,88041
 3.0000e+000 88159 -1.2769e+002 -3.3556e+002 -4.2393e+001 47210 88300,87937,87911
 3.0000e+000 88136 -1.2395e+002 -3.0483e+002 -3.5949e+001 47210 87833,87911,87859
 3.0000e+000 88113 -2.0714e+002 -2.7436e+002 -2.1464e+001 47210 87937,87989,87963
 3.0000e+000 88090 -1.0313e+002 -2.4701e+002  5.0724e+001 47210 87989,88041,88015
 3.0000e+000 88067 -1.4580e+002 -3.5845e+002 -4.3710e+001 47210 87859,87911,87885
 3.0000e+000 88254 -1.1148e+002 -2.5909e+002 -2.7570e+001 47210 87989,87937,88228
 3.0000e+000 88277 -1.3172e+002 -2.9912e+002 -1.0058e+001 47210 87989,88228,88041
 3.0000e+000 88326 -1.0468e+002 -2.9249e+002 -9.5571e+000 47210 87833,88228,88300
 3.0000e+000 88349 -1.1004e+002 -3.0720e+002 -2.6340e+001 47210 87833,88300,87911
 3.0000e+000 88780 -2.0344e+002 -3.5480e+002 -6.3301e+001 46642 88803,88509,88483
 3.0000e+000 88757 -1.4692e+002 -3.1990e+002 -3.3352e+001 46642 88803,88483,88639
 3.0000e+000 88734 -1.6264e+002 -2.6252e+002 -3.8497e+001 46642 88875,88561,88509
 3.0000e+000 88711 -1.6414e+002 -2.4381e+002 -6.1748e+000 46642 88509,88561,88535
 3.0000e+000 88688 -9.7300e+001 -3.5798e+002  2.3449e+000 46642 88457,88639,88483
 3.0000e+000 88665 -1.8893e+002 -4.3351e+002 -1.5120e+001 46642 88561,88613,88587
 3.0000e+000 88829 -1.6449e+002 -2.8673e+002 -4.3953e+001 46642 88875,88509,88803
 3.0000e+000 88852 -1.6108e+002 -3.4687e+002 -2.8186e+001 46642 88613,88803,88639
 3.0000e+000 88901 -1.3350e+002 -2.9614e+002 -1.8012e+001 46642 88613,88561,88875
 3.0000e+000 88924 -1.4602e+002 -3.3528e+002 -2.2747e+001 46642 88613,88875,88803
 3.0000e+000 89253 -6.0383e+001 -3.0337e+002  8.7255e+000 46444 89080,89158,89132
 3.0000e+000 89230 -7.0888e+001 -3.2678e+002  5.6863e+000 46444 89028,89158,89080
 3.0000e+000 89207 -2.6885e+001 -2.9098e+002 -9.7544e+000 46444 89028,89080,89054
 3.0000e+000 89184 -2.9979e+001 -3.2791e+002 -2.1980e+001 46444 89080,89132,89106
 3.0000e+000 89631 -7.1592e+001 -1.9289e+002 -1.7649e-001 46040 89383,89461,89435
 3.0000e+000 89608 -8.0381e+001 -2.2141e+002 -1.4042e+001 46040 89383,89487,89461
 3.0000e+000 89585 -8.3637e+001 -2.3847e+002 -1.0949e+001 46040 89383,89435,89409
 3.0000e+000 89562 -6.7340e+001 -1.9704e+002 -2.4415e+001 46040 89383,89513,89487
 3.0000e+000 89539  7.0072e+000 -1.5112e+002 -6.7298e+001 46040 89357,89513,89383
 3.0000e+000 90009 -8.0503e+001 -2.4982e+002 -4.2365e-001 45636 89813,89891,89839
 3.0000e+000 89986 -8.2814e+001 -2.3432e+002  1.3106e+001 45636 89787,89891,89813
 3.0000e+000 89963 -7.4566e+001 -2.3536e+002 -5.2351e+000 45636 89839,89891,89865
 3.0000e+000 89940 -1.0113e+002 -2.6546e+002  5.3820e+000 45636 89735,89891,89787
 3.0000e+000 89917 -7.7830e+001 -2.6210e+002 -1.3517e+001 45636 89735,89787,89761
 3.0000e+000 90208 -5.5828e+001 -1.9404e+002 -3.9466e+001 45175 90231,90058,90032
 3.0000e+000 90185 -2.9493e+001 -1.7653e+002 -5.7029e+001 45175 90231,90032,90136
 3.0000e+000 90162 -7.0406e+001 -1.5883e+002 -1.4246e+000 45175 90058,90110,90084
 3.0000e+000 90257 -8.2576e+001 -2.1676e+002 -7.4459e+000 45175 90110,90058,90231
 3.0000e+000 90280 -3.3280e+001 -1.8616e+002 -2.7336e+001 45175 90110,90231,90136
 3.0000e+000 90528 -6.2970e+001 -2.0121e+002 -2.6932e+001 44513 90695,90551,90407
 3.0000e+000 90505 -6.7201e+001 -1.8258e+002 -1.4301e+001 44513 90551,90355,90329
 3.0000e+000 90482 -8.0659e+001 -1.9414e+002 -2.5006e+001 44513 90623,90303,90433
 3.0000e+000 90459 -4.9491e+001 -1.8805e+002 -1.9905e+001 44513 90695,90407,90381
 3.0000e+000 90577 -9.0639e+001 -2.1003e+002 -4.5668e+001 44513 90433,90407,90551
 3.0000e+000 90600 -7.7611e+001 -1.9202e+002 -2.3868e+001 44513 90623,90433,90551
 3.0000e+000 90649 -7.9892e+001 -1.9120e+002 -2.3150e+001 44513 90329,90303,90623
 3.0000e+000 90672 -7.9841e+001 -1.9144e+002 -2.3221e+001 44513 90329,90623,90551
 3.0000e+000 90721 -7.9702e+001 -1.8374e+002 -3.0290e+001 44513 90355,90551,90695
 3.0000e+000 90744 -7.5912e+001 -1.7740e+002 -2.7613e+001 44513 90355,90695,90381
 3.0000e+000 91077  1.8842e+000 -2.1224e+002 -1.4411e+001 44059 91100,90930,90904
 3.0000e+000 91054 -8.2370e+001 -2.2889e+002  1.1486e+001 44059 91100,90904,90982
 3.0000e+000 91031 -1.4809e+002 -2.6654e+002 -1.8948e+001 44059 90878,90982,90904
 3.0000e+000 91008 -4.7291e+001 -2.0052e+002  1.1970e+001 44059 90852,90982,90878
 3.0000e+000 91126 -1.2332e+002 -2.4416e+002 -1.7137e+001 44059 91172,91100,90956
 3.0000e+000 91149 -7.8017e+001 -2.2348e+002 -1.0743e+001 44059 90956,91100,90982
 3.0000e+000 91198 -9.4643e-001 -1.2173e+002 -6.6251e+001 44059 90930,91100,91172
 3.0000e+000 91677 -1.1740e+002 -1.7949e+002  1.7185e+001 43549 91455,91533,91481
 3.0000e+000 91654 -5.2732e+001 -1.8141e+002  2.3422e+001 43549 91429,91533,91455
 3.0000e+000 91631 -1.1292e+002 -1.7784e+002  8.5243e+000 43549 91481,91533,91507
 3.0000e+000 91608 -3.0533e+001 -1.7224e+002  1.1590e+001 43549 91429,91559,91533
 3.0000e+000 91585 -5.8816e+000 -6.4752e+001  2.1697e+000 43549 91403,91559,91429
 3.0000e+000 92006 -1.0206e+002 -2.5739e+002  7.6866e-001 43059 91781,91885,91807
 3.0000e+000 91983 -1.0717e+002 -2.4519e+002  3.8783e+001 43059 91781,91911,91885
 3.0000e+000 91960 -9.8299e+001 -2.5712e+002  9.6211e-001 43059 91807,91885,91833
 3.0000e+000 91937 -6.4238e+001 -2.4404e+002 -3.5357e+000 43059 91833,91885,91859
 3.0000e+000 92561 -9.0091e+001 -1.9164e+002 -1.9698e+001 42598 92584,92215,92189
 3.0000e+000 92538 -9.6207e+001 -2.1424e+002 -1.9116e+001 42598 92656,92584,92189
 3.0000e+000 92515 -8.5550e+001 -2.4097e+002 -5.4509e+000 42598 92656,92189,92397
 3.0000e+000 92492 -1.0900e+002 -1.6992e+002 -2.4449e+001 42598 92241,92319,92293
 3.0000e+000 92469 -1.0463e+002 -2.0462e+002  1.2416e+001 42598 92319,92397,92371
 3.0000e+000 92446 -4.1059e+001 -2.3565e+002  9.7721e+001 42598 92319,92371,92345
 3.0000e+000 92423 -1.0818e+002 -1.7638e+002 -3.6677e+001 42598 92241,92293,92267
 3.0000e+000 92610 -9.4173e+001 -1.9327e+002 -1.9770e+001 42598 92241,92215,92584
 3.0000e+000 92633 -8.6436e+001 -1.7593e+002 -2.4876e+001 42598 92241,92584,92319
 3.0000e+000 92682 -8.6482e+001 -1.7815e+002 -1.3114e+001 42598 92319,92584,92656
 3.0000e+000 92705 -7.0292e+001 -1.9687e+002 -2.8024e+000 42598 92319,92656,92397
 3.0000e+000 92953 -1.0215e+002 -2.8038e+002  1.5329e+001 42094 92976,92806,92780
 3.0000e+000 92930 -1.1502e+002 -2.6349e+002 -8.6928e-001 42094 92976,92780,92754
 3.0000e+000 92907 -2.1255e+001 -2.7058e+002 -2.1199e+000 42094 93048,92832,92806
 3.0000e+000 92884 -1.4771e+002 -2.6221e+002 -2.0452e+001 42094 92728,92858,92754
 3.0000e+000 93002 -6.4106e+001 -2.5884e+002  6.6830e+000 42094 93048,92806,92976
 3.0000e+000 93025 -1.0324e+002 -2.5706e+002 -6.5291e+000 42094 92858,92976,92754
 3.0000e+000 93074 -8.0978e+001 -2.9249e+002 -3.4266e+000 42094 92858,92832,93048
 3.0000e+000 93097 -1.1601e+002 -2.7599e+002  1.7011e+000 42094 92858,93048,92976
 3.0000e+000 93605 -1.1342e+002 -3.2685e+002 -1.2664e+001 41846 93628,93412,93386
 3.0000e+000 93582 -8.6777e+001 -2.4581e+002 -2.7634e+000 41846 93628,93386,93308
 3.0000e+000 93559 -1.3001e+002 -2.5507e+002 -5.3173e+001 41846 93700,93464,93438
 3.0000e+000 93536 -1.2452e+002 -3.4065e+002  4.1985e+000 41846 93308,93386,93334
 3.0000e+000 93513 -1.5978e+002 -2.4481e+002 -4.1145e+001 41846 93334,93386,93360
 3.0000e+000 93490 -1.2397e+002 -2.2517e+002 -5.2132e+001 41846 93282,93464,93308
 3.0000e+000 93654 -9.8933e+001 -2.6086e+002 -2.5117e+001 41846 93438,93412,93628
 3.0000e+000 93677 -1.3147e+002 -2.6086e+002 -2.4791e+001 41846 93700,93438,93628
 3.0000e+000 93726 -1.1701e+002 -2.2015e+002 -4.9806e+001 41846 93308,93464,93700
 3.0000e+000 93749 -1.1365e+002 -2.1484e+002 -2.1812e+001 41846 93308,93700,93628
 3.0000e+000 94255 -8.7138e+001 -2.6420e+002  1.6593e+001 41385 93958,94114,94088
 3.0000e+000 94232 -7.7587e+001 -2.8640e+002  5.8371e+000 41385 93932,94114,93958
 3.0000e+000 94209 -1.5188e+002 -3.0687e+002  5.0006e+001 41385 93958,94088,94062
 3.0000e+000 94186 -1.5909e+002 -2.2147e+002  3.7027e+001 41385 93958,94062,93984
 3.0000e+000 94163 -1.3608e+002 -2.1616e+002  3.4023e+001 41385 93984,94062,94036
 3.0000e+000 94140 -9.3022e+001 -2.9635e+002  4.9601e+001 41385 93984,94036,94010
 3.0000e+000 94476 -2.4373e+001 -3.5936e+002  2.2632e+001 40881 94326,94378,94352
 3.0000e+000 94453 -5.7522e+001 -2.9544e+002  2.4802e+001 40881 94300,94378,94326
 3.0000e+000 94430 -7.2496e+001 -2.7256e+002  3.3326e+000 40881 94300,94404,94378
 3.0000e+000 94626 -8.3025e+001 -2.1762e+002 -1.9287e+000 40591 94649,94551,94525
 3.0000e+000 94603 -4.4169e+001 -1.3371e+002  2.7408e+000 40591 94781,94577,94551
 3.0000e+000 94675 -2.7127e+001 -1.5661e+002 -2.5799e+001 40591 94781,94551,94649
 3.0000e+000 94807 -2.3714e-001 -9.0727e+001  2.8210e+001 40591 94499,94577,94781
 3.0000e+000 94830  4.4379e+000 -1.3624e+002 -1.8785e+000 40591 94499,94781,94649
 3.0000e+000 95336 -1.8913e+002 -2.5156e+002 -3.9429e+001 40187 95013,95169,95039
 3.0000e+000 95313 -4.4729e+001 -2.2791e+002  5.9354e+000 40187 95013,95195,95169
 3.0000e+000 95290 -3.1527e+001 -2.4669e+002 -2.8035e+001 40187 95039,95143,95065
 3.0000e+000 95267 -1.4041e+002 -2.8998e+002 -4.2271e+001 40187 95039,95169,95143
 3.0000e+000 95244 -5.6895e+001 -2.1186e+002 -2.0798e+001 40187 95091,95143,95117
 3.0000e+000 95221 -1.7221e+001 -1.3276e+002 -7.6435e+000 40187 95065,95143,95091
 3.0000e+000 95665 -7.1419e+001 -1.9001e+002  8.3893e+001 39626 95466,95570,95544
 3.0000e+000 95642 -1.3290e+002 -1.5411e+002  5.4468e+001 39626 95440,95570,95466
 3.0000e+000 95619 -2.0578e+002 -2.5325e+002  5.3946e+001 39626 95466,95544,95492
 3.0000e+000 95596 -4.1705e+001 -1.9542e+002  8.2869e+001 39626 95492,95544,95518
 3.0000e+000 95913 -1.0335e+002 -2.2868e+002 -3.4676e+001 39136 96080,95936,95766
 3.0000e+000 95890 -7.1362e+001 -2.4491e+002 -2.1649e+001 39136 95936,95714,95688
 3.0000e+000 95867 -1.8210e+002 -2.4460e+002  8.4436e+000 39136 96008,95792,95766
 3.0000e+000 95844 -8.4845e+001 -2.2205e+002 -2.6150e+001 39136 96080,95766,95740
 3.0000e+000 95962 -1.4413e+002 -2.5318e+002 -2.3011e+001 39136 96008,95766,95936
 3.0000e+000 95985 -9.2595e+001 -2.9626e+002 -6.8669e+000 39136 95818,95936,95688
 3.0000e+000 96034 -9.0428e+001 -2.0479e+002  1.3830e+001 39136 95818,95792,96008
 3.0000e+000 96057 -8.0404e+001 -2.2453e+002 -1.7086e+001 39136 95818,96008,95936
 3.0000e+000 96106 -9.4003e+001 -2.2567e+002 -1.0012e+001 39136 95714,95936,96080
 3.0000e+000 96129 -6.5238e+001 -2.1798e+002 -3.3028e+000 39136 95714,96080,95740
 3.0000e+000 96350 -8.7897e+001 -2.0641e+002 -9.9031e+000 38824 96200,96278,96252
 3.0000e+000 96327 -7.8817e+001 -2.0208e+002 -8.6110e+000 38824 96174,96278,96200
 3.0000e+000 96304 -3.7686e+001 -1.8672e+002 -2.8200e+001 38824 96200,96252,96226
 3.0000e+000 96830 -1.2475e+002 -2.1658e+002 -1.3611e+001 38320 97069,96536,96484
 3.0000e+000 96807 -1.2246e+002 -2.2004e+002 -1.3399e+001 38320 97069,96484,96853
 3.0000e+000 96784 -1.3637e+002 -2.3578e+002  4.9980e+000 38320 96853,96484,96458
 3.0000e+000 96761 -7.4168e+001 -1.9029e+002 -2.2578e+001 38320 96925,96640,96614
 3.0000e+000 96738 -1.1774e+002 -1.9859e+002 -9.8367e+000 38320 96997,96666,96640
 3.0000e+000 96715 -9.8161e+001 -2.6043e+002 -3.6798e+000 38320 97141,96588,96562
 3.0000e+000 96692 -1.5532e+002 -2.5042e+002 -6.9943e-002 38320 96484,96536,96510
 3.0000e+000 96879 -1.2136e+002 -2.3430e+002 -6.8301e+000 38320 97141,96562,96853
 3.0000e+000 96902 -1.1268e+002 -2.2824e+002 -7.2901e+000 38320 96925,96614,96853
 3.0000e+000 96951 -1.1522e+002 -1.9683e+002 -1.0881e+001 38320 96997,96640,96925
 3.0000e+000 96974 -1.1048e+002 -1.9311e+002 -6.3865e+000 38320 96458,96925,96853
 3.0000e+000 97023 -1.2921e+002 -2.0039e+002 -3.7325e+000 38320 96458,96666,96997
 3.0000e+000 97046 -1.1994e+002 -1.9604e+002 -4.8937e+000 38320 96458,96997,96925
 3.0000e+000 97095 -1.3430e+002 -2.1601e+002  5.0452e+000 38320 96562,96536,97069
 3.0000e+000 97118 -1.1545e+002 -2.1842e+002 -1.0486e+001 38320 96562,97069,96853
 3.0000e+000 97167 -5.7470e+001 -2.3645e+002 -1.4749e+001 38320 96614,96588,97141
 3.0000e+000 97190 -9.5705e+001 -2.2122e+002 -1.4785e+001 38320 96614,97141,96853
 3.0000e+000 97519 -9.1290e+001 -2.6867e+002  7.1039e+001 37766 97542,97398,97372
 3.0000e+000 97496 -1.0770e+002 -2.1311e+002  5.0343e+001 37766 97542,97372,97346
 3.0000e+000 97473 -1.0718e+002 -2.2387e+002  5.1354e+000 37766 97294,97424,97346
 3.0000e+000 97450 -1.2323e+002 -2.6820e+002  2.1446e+000 37766 97294,97346,97320
 3.0000e+000 97568 -5.1076e+001 -2.8155e+002  2.4941e+001 37766 97424,97398,97542
 3.0000e+000 97591 -7.7266e+001 -2.1776e+002  7.8556e+000 37766 97424,97542,97346
 3.0000e+000 98048 -1.1358e+002 -1.6678e+002 -5.7642e+001 37262 98071,97878,97852
 3.0000e+000 98025 -9.5337e+001 -2.0123e+002 -2.3855e+001 37262 98071,97852,97800
 3.0000e+000 98002 -1.1255e+002 -2.5107e+002 -2.2478e+001 37262 97800,97852,97826
 3.0000e+000 97979 -1.1406e+002 -2.1861e+002  5.3308e+000 37262 97800,97930,97904
 3.0000e+000 97956 -7.8145e+001 -2.6333e+002  1.5987e+001 37262 97774,97930,97800
 3.0000e+000 98097 -1.6400e+002 -1.9128e+002 -4.1464e+001 37262 97904,97878,98071
 3.0000e+000 98120 -1.2294e+002 -2.2892e+002 -1.0649e+001 37262 97904,98071,97800
 3.0000e+000 98449 -5.5309e+001 -1.5568e+002 -1.9548e+001 36950 98472,98302,98250
 3.0000e+000 98426 -3.1343e+001 -1.4776e+002 -2.4114e+001 36950 98472,98250,98354
 3.0000e+000 98403 -8.7410e+001 -1.7303e+002  2.0100e+001 36950 98250,98302,98276
 3.0000e+000 98380 -2.0100e+001 -1.1524e+002  1.3284e+001 36950 98224,98354,98250
 3.0000e+000 98498 -3.7594e+001 -1.7569e+002 -5.3083e+000 36950 98328,98302,98472
 3.0000e+000 98521 -9.4276e+000 -1.6382e+002 -1.3897e+001 36950 98328,98472,98354
 3.0000e+000 99125 -1.2277e+002 -1.2015e+002  1.1878e+001 36296 98704,98756,98730
 3.0000e+000 99102 -1.2119e+002 -1.3406e+002  1.1958e+001 36296 98704,98938,98756
 3.0000e+000 99079 -8.7259e+001 -1.6517e+002 -4.7162e+000 36296 99148,98938,98912
 3.0000e+000 99056 -9.3738e+001 -1.7157e+002  3.8730e+001 36296 99292,99220,98782
 3.0000e+000 99033 -7.5771e+001 -1.9254e+002  4.2558e+000 36296 99148,98912,98834
 3.0000e+000 99010 -8.9393e+001 -1.4648e+002  4.3008e+001 36296 99292,98782,98756
 3.0000e+000 98987 -7.1913e+001 -3.3942e+002 -6.3439e+001 36296 98834,98912,98886
 3.0000e+000 98964 -1.2381e+002 -4.9518e+002 -8.1235e+001 36296 98834,98886,98860
 3.0000e+000 99174 -1.0839e+002 -2.0571e+002  5.9480e+000 36296 99220,98938,99148
 3.0000e+000 99197 -7.4277e+001 -2.3521e+002  2.5117e+001 36296 98808,99148,98834
 3.0000e+000 99246 -9.3293e+001 -1.6963e+002  9.6796e+001 36296 98808,98782,99220
 3.0000e+000 99269 -3.7421e+001 -1.4990e+002  3.0663e+001 36296 98808,99220,99148
 3.0000e+000 99318 -1.0101e+002 -1.4758e+002  2.1718e+001 36296 98938,99220,99292
 3.0000e+000 99341 -1.0313e+002 -1.5139e+002  2.5847e+001 36296 98938,99292,98756
 3.0000e+000 99719 -1.2372e+002 -2.6108e+002 -5.2945e-001 35742 99742,99471,99601
 3.0000e+000 99696 -1.2774e+002 -2.0477e+002  2.4674e+001 35742 99445,99601,99471
 3.0000e+000 99673 -1.1791e+002 -2.4782e+002 -1.1269e+001 35742 99742,99601,99575
 3.0000e+000 99650 -1.0265e+002 -3.0719e+002 -9.2572e+000 35742 99814,99549,99523
 3.0000e+000 99627 -7.8062e+001 -2.3795e+002 -3.8978e+000 35742 99471,99523,99497
 3.0000e+000 99768 -9.8629e+001 -2.5530e+002  4.6113e+000 35742 99523,99471,99742
 3.0000e+000 99791 -1.1657e+002 -2.8362e+002 -8.0364e+000 35742 99814,99523,99742
 3.0000e+000 99840 -1.0075e+002 -2.7784e+002 -1.8258e+001 35742 99575,99549,99814
 3.0000e+000 99863 -1.0956e+002 -2.4714e+002 -1.6241e+001 35742 99575,99814,99742
 3.0000e+000 100111 -9.1621e+001 -2.1107e+002  1.5818e+001 35302 100134,99990,99938
 3.0000e+000 100088 -7.5286e+001 -1.9183e+002  5.4067e+000 35302 100134,99938,99912
 3.0000e+000 100065 -7.5450e+001 -1.9172e+002 -5.0427e+000 35302 100206,99886,100016
 3.0000e+000 100042 -1.2093e+002 -1.9794e+002  9.6967e+000 35302 99938,99990,99964
 3.0000e+000 100160 -7.0550e+001 -2.0312e+002  3.5842e+000 35302 100016,99990,100134
 3.0000e+000 100183 -7.1889e+001 -1.9479e+002 -4.9667e+000 35302 100206,100016,100134
 3.0000e+000 100232 -7.8357e+001 -1.9537e+002 -2.7073e+000 35302 99912,99886,100206
 3.0000e+000 100255 -7.5081e+001 -1.9927e+002 -2.7702e+000 35302 99912,100206,100134
 3.0000e+000 100586 -1.2314e+002 -1.4168e+002  3.8405e+001 35012 100609,100387,100361
 3.0000e+000 100563 -1.4897e+002 -1.0499e+002 -2.6409e+001 35012 100609,100361,100465
 3.0000e+000 100540 -6.8063e+001 -7.6402e+001 -6.2195e+001 35012 100361,100491,100465
 3.0000e+000 100517 -2.5353e+001 -8.2733e+001 -5.8772e+001 35012 100413,100465,100439
 3.0000e+000 100635 -5.7321e+001 -1.1280e+002  1.5955e+001 35012 100413,100387,100609
 3.0000e+000 100658 -8.0984e+001 -6.6514e+001 -5.0522e+001 35012 100413,100609,100465
 3.0000e+000 100987 -9.6148e+001 -2.1342e+002  2.2236e+001 34700 100788,100866,100814
 3.0000e+000 100964 -8.5159e+001 -1.7547e+002  3.2610e+001 34700 101010,100866,100788
 3.0000e+000 100941 -5.5889e+001 -1.2693e+002  3.5424e+001 34700 100762,100892,100866
 3.0000e+000 100918 -9.3512e+001 -2.0483e+002  1.4238e+001 34700 100814,100866,100840
 3.0000e+000 101036 -5.6282e+001 -1.5248e+002  5.4069e+001 34700 100762,100866,101010
 3.0000e+000 101493 -1.2942e+002 -2.4644e+002 -2.1426e+001 34132 101516,101349,101297
 3.0000e+000 101470 -1.5544e+002 -2.9587e+002 -3.4749e+001 34132 101588,101516,101297
 3.0000e+000 101447 -1.5577e+002 -3.1143e+002 -5.1876e+001 34132 101588,101297,101245
 3.0000e+000 101424 -9.5544e+001 -3.6434e+002 -4.8315e+001 34132 101245,101297,101271
 3.0000e+000 101401 -1.4240e+002 -2.4792e+002 -2.5605e+001 34132 101297,101349,101323
 3.0000e+000 101542 -1.3418e+002 -2.8495e+002 -1.6955e+001 34132 101375,101349,101516
 3.0000e+000 101565 -1.2009e+002 -2.8380e+002 -1.7778e+001 34132 101375,101516,101219
 3.0000e+000 101614 -1.2288e+002 -2.9685e+002 -1.8051e+001 34132 101219,101516,101588
 3.0000e+000 101637 -1.3924e+002 -3.1235e+002 -3.4310e+001 34132 101219,101588,101245
 3.0000e+000 101858 -5.9398e+001 -2.2027e+002  1.9924e+001 33720 101708,101786,101760
 3.0000e+000 101835 -5.0932e+001 -2.4303e+002  2.6645e+001 33720 101682,101786,101708
 3.0000e+000 101812 -8.7897e+001 -2.3465e+002  1.3765e+001 33720 101708,101760,101734
 3.0000e+000 102128 -2.6855e+001 -2.5429e+002 -7.0327e+000 33130 101903,102007,101929
 3.0000e+000 102105 -3.3104e+001 -2.9382e+002  9.3039e+000 33130 101903,102033,102007
 3.0000e+000 102082 -1.2846e+001 -3.0601e+002 -6.1540e+001 33130 101929,102007,101955
 3.0000e+000 102059 -4.3935e+001 -2.1489e+002  4.5892e+000 33130 101955,102007,101981
 3.0000e+000 102461 -1.0482e+002 -2.2434e+002 -1.7611e+001 32840 102236,102340,102262
 3.0000e+000 102438 -9.3333e+001 -1.6438e+002  7.3226e+000 32840 102236,102366,102340
 3.0000e+000 102415 -6.9495e+001 -2.1476e+002 -1.5067e+001 32840 102262,102340,102288
 3.0000e+000 102392 -1.2596e+002 -2.2799e+002 -4.3716e+001 32840 102288,102340,102314
 3.0000e+000 102997 -8.5648e+001 -1.4502e+002  4.1069e+001 32493 102749,102879,102853
 3.0000e+000 102974 -6.9365e+001 -1.1361e+002  2.8688e+001 32493 102723,102879,102749
 3.0000e+000 102951 -1.0135e+002 -1.7827e+002  2.8081e+001 32493 102749,102801,102775
 3.0000e+000 102928 -1.0735e+002 -1.7575e+002  2.6345e+001 32493 102749,102853,102801
 3.0000e+000 102905 -1.0123e+002 -1.6439e+002  2.3067e+001 32493 102801,102853,102827
 3.0000e+000 103454 -1.0270e+002 -1.8355e+002 -1.9206e+001 32089 103206,103336,103310
 3.0000e+000 103431 -8.2356e+001 -1.9210e+002 -3.5005e+000 32089 103180,103336,103206
 3.0000e+000 103408 -1.0795e+002 -2.1290e+002 -3.9433e+001 32089 103206,103284,103258
 3.0000e+000 103385 -1.6011e+002 -2.2276e+002 -4.5025e+001 32089 103206,103310,103284
 3.0000e+000 103362 -9.3165e+001 -1.6562e+002 -5.9738e+000 32089 103206,103258,103232
 3.0000e+000 103783 -1.7471e+002 -2.2987e+002 -2.7863e+001 31742 103558,103662,103584
 3.0000e+000 103760 -1.4193e+002 -1.7852e+002 -6.1612e+001 31742 103558,103688,103662
 3.0000e+000 103737 -1.1282e+002 -1.8285e+002 -5.0568e+001 31742 103584,103662,103636
 3.0000e+000 103714 -1.0732e+002 -1.9985e+002 -5.4527e+001 31742 103584,103636,103610
 3.0000e+000 104112 -7.2320e+000 -1.8187e+002  4.2138e+001 31402 103939,103991,103965
 3.0000e+000 104089 -5.1509e+001 -1.5646e+002  1.7107e+001 31402 103913,103991,103939
 3.0000e+000 104066 -7.5079e+001 -1.7591e+002  7.2959e+000 31402 103913,104017,103991
 3.0000e+000 104043 -9.2625e+001 -1.6404e+002 -4.5940e+000 31402 103887,104017,103913
 3.0000e+000 104569 -1.6414e+002 -2.8709e+002  7.5732e+000 30998 104321,104425,104373
 3.0000e+000 104546 -1.8342e+002 -2.9087e+002  1.3241e+000 30998 104321,104451,104425
 3.0000e+000 104523 -1.3069e+002 -2.3621e+002  3.5658e+001 30998 104373,104425,104399
 3.0000e+000 104500 -1.5011e+002 -3.3002e+002 -1.7885e+001 30998 104295,104451,104321
 3.0000e+000 104477 -2.1469e+002 -3.3209e+002  5.8571e+001 30998 104321,104373,104347
 3.0000e+000 104947 -1.3374e+002 -2.3625e+002 -2.6051e+001 30608 104751,104803,104777
 3.0000e+000 104924 -9.2472e+001 -2.4740e+002 -1.0836e+001 30608 104725,104803,104751
 3.0000e+000 104901 -1.3895e+002 -2.3778e+002  1.4724e+001 30608 104699,104803,104725
 3.0000e+000 104878 -1.2669e+002 -2.3418e+002  1.6297e+001 30608 104673,104803,104699
 3.0000e+000 104855 -9.6724e+001 -2.2157e+002 -7.1474e+000 30608 104673,104829,104803
 3.0000e+000 105276 -9.4187e+001 -2.2361e+002  1.0670e+001 30204 105427,105129,105077
 3.0000e+000 105253 -6.1271e+001 -2.4334e+002  5.2128e+001 30204 105427,105077,105051
 3.0000e+000 105230 -4.7312e+001 -2.2372e+002  6.6151e+000 30204 105077,105129,105103
 3.0000e+000 105207 -5.9504e+001 -2.0311e+002  3.1802e+001 30204 105299,105181,105155
 3.0000e+000 105325 -6.1111e+001 -1.9844e+002  1.1678e+001 30204 105129,105181,105299
 3.0000e+000 105453 -1.1480e+002 -2.3737e+002  2.9433e+001 30204 105181,105129,105427
 3.0000e+000 105476 -1.3450e+002 -2.8119e+002  7.6402e+001 30204 105181,105427,105051
 3.0000e+000 105903 -7.6594e+001 -1.8353e+002 -1.5075e+001 29700 105606,105762,105736
 3.0000e+000 105880 -9.9629e+001 -1.8834e+002  4.9785e-001 29700 105580,105762,105606
 3.0000e+000 105857 -1.2169e+002 -2.3420e+002 -1.6563e+001 29700 105606,105710,105632
 3.0000e+000 105834 -9.8817e+001 -1.9719e+002 -6.6628e+000 29700 105606,105736,105710
 3.0000e+000 105811 -9.9459e+001 -2.1484e+002 -2.7363e+001 29700 105632,105710,105684
 3.0000e+000 105788 -9.3363e+001 -1.9890e+002 -7.0604e-001 29700 105632,105684,105658
 3.0000e+000 106102 -4.6640e+001 -2.4719e+002  8.0068e+000 29124 105978,106030,106004
 3.0000e+000 106079 -7.7772e+001 -2.4663e+002  7.0779e+000 29124 105926,106030,105978
 3.0000e+000 106056 -8.3372e+001 -2.7670e+002  3.1053e+001 29124 105926,105978,105952
 3.0000e+000 106301 -5.9715e+001 -2.2939e+002  8.8369e-001 28712 106151,106229,106203
 3.0000e+000 106278 -7.2748e+001 -2.5250e+002 -1.0778e+001 28712 106125,106229,106151
 3.0000e+000 106255 -6.1813e+001 -2.4185e+002  1.3298e+001 28712 106151,106203,106177
 3.0000e+000 106551 -7.7612e+001 -2.8539e+002  6.1192e+000 28258 106352,106404,106378
 3.0000e+000 106528 -9.3333e+001 -2.8724e+002  7.0525e-001 28258 106352,106456,106404
 3.0000e+000 106505 -1.0775e+002 -3.0721e+002 -7.6026e+000 28258 106326,106456,106352
 3.0000e+000 106482 -8.8631e+001 -2.6672e+002  5.8230e+000 28258 106404,106456,106430
 3.0000e+000 107012 -9.7634e+001 -2.4704e+002  4.8619e+001 27818 107035,106790,106764
 3.0000e+000 106989 -8.5663e+001 -2.3538e+002  1.8642e+001 27818 107035,106764,106868
 3.0000e+000 106966 -6.0889e+001 -2.8459e+002  2.7682e+001 27818 107107,106842,106816
 3.0000e+000 106943 -1.2984e+002 -2.1823e+002  9.9553e+000 27818 106738,106868,106764
 3.0000e+000 106920 -1.2136e+002 -1.8532e+002  3.2079e+001 27818 106738,106894,106868
 3.0000e+000 107061 -4.3089e+001 -2.3708e+002  5.6460e+001 27818 106816,106790,107035
 3.0000e+000 107084 -7.5563e+001 -2.6580e+002  2.9230e+001 27818 107107,106816,107035
 3.0000e+000 107133 -5.9820e+001 -2.5682e+002  1.4120e+001 27818 106868,106842,107107
 3.0000e+000 107156 -6.8528e+001 -2.2814e+002  1.9367e+001 27818 106868,107107,107035
 3.0000e+000 107613 -2.9231e+001 -1.8702e+002  4.0088e+001 27312 107339,107469,107365
 3.0000e+000 107590 -2.5357e+000 -1.7000e+002  3.2801e+001 27312 107339,107495,107469
 3.0000e+000 107567 -3.1182e+001 -1.8107e+002  1.9024e+001 27312 107391,107469,107443
 3.0000e+000 107544 -3.2490e+001 -1.9652e+002  1.5425e+001 27312 107365,107469,107391
 3.0000e+000 107521 -8.5403e+001 -1.9827e+002  6.9138e+000 27312 107391,107443,107417
 3.0000e+000 107991 -1.0342e+002 -2.8009e+002  3.8717e+000 26858 108086,108014,107795
 3.0000e+000 107968 -1.1166e+002 -2.9466e+002 -3.2268e+001 26858 108014,107717,107873
 3.0000e+000 107945 -1.2027e+002 -2.9317e+002  1.5933e+001 26858 108158,108086,107795
 3.0000e+000 107922 -1.0082e+002 -2.8990e+002  1.3843e+001 26858 108158,107795,107769
 3.0000e+000 107899 -6.3108e+001 -3.6040e+002  5.0888e+001 26858 107821,107873,107847
 3.0000e+000 108040 -1.0458e+002 -3.2009e+002  1.3557e+001 26858 107821,107795,108014
 3.0000e+000 108063 -4.4990e+001 -3.0799e+002 -7.9105e+000 26858 107821,108014,107873
 3.0000e+000 108112 -1.4651e+002 -2.9649e+002  1.0618e+001 26858 107717,108014,108086
 3.0000e+000 108135 -1.2263e+002 -3.0846e+002  3.0961e+001 26858 107717,108086,107743
 3.0000e+000 108184 -9.7239e+001 -2.9281e+002  2.2644e+001 26858 107743,108086,108158
 3.0000e+000 108207 -8.9157e+001 -2.9770e+002  2.2253e+001 26858 107743,108158,107769
 3.0000e+000 108634 -1.3560e+002 -2.6963e+002  2.3682e+000 26404 108657,108415,108363
 3.0000e+000 108611 -1.5294e+002 -2.9345e+002  2.7821e+001 26404 108657,108363,108337
 3.0000e+000 108588 -1.3352e+002 -2.7118e+002  3.2948e+001 26404 108729,108311,108467
 3.0000e+000 108565 -1.5195e+002 -3.1475e+002  1.0382e+000 26404 108801,108441,108415
 3.0000e+000 108542 -1.9915e+002 -3.0110e+002  4.0552e+001 26404 108311,108493,108467
 3.0000e+000 108519 -9.4971e+001 -2.7025e+002  2.4466e+000 26404 108363,108415,108389
 3.0000e+000 108683 -1.8036e+002 -2.8724e+002  4.8820e+000 26404 108801,108415,108657
 3.0000e+000 108706 -1.7483e+002 -2.8320e+002  2.5670e+001 26404 108729,108467,108657
 3.0000e+000 108755 -1.0655e+002 -2.8906e+002  3.2977e+001 26404 108337,108311,108729
 3.0000e+000 108778 -1.2767e+002 -2.8653e+002  2.5145e+001 26404 108337,108729,108657
 3.0000e+000 108827 -1.8080e+002 -3.6747e+002 -1.4981e+001 26404 108467,108441,108801
 3.0000e+000 108850 -1.9722e+002 -3.2129e+002 -1.0416e+001 26404 108467,108801,108657
 3.0000e+000 109228 -1.2327e+002 -2.7019e+002 -1.1195e+001 26064 109006,109084,109058
 3.0000e+000 109205 -1.0065e+002 -2.4883e+002  6.8956e+000 26064 108980,109084,109006
 3.0000e+000 109182 -1.1615e+002 -2.4316e+002 -3.5436e+000 26064 108980,109110,109084
 3.0000e+000 109159 -1.1814e+002 -2.8055e+002 -2.8293e+000 26064 109006,109058,109032
 3.0000e+000 109136  6.5665e+000 -2.1798e+002  1.7926e+001 26064 108954,109110,108980
 3.0000e+000 109427 -4.0051e+001 -2.3632e+002 -4.8431e+001 25660 109303,109355,109329
 3.0000e+000 109404 -7.1504e+001 -2.9921e+002 -1.2959e+001 25660 109277,109355,109303
 3.0000e+000 109381 -5.9934e+001 -2.7370e+002 -2.3606e+000 25660 109251,109355,109277
 3.0000e+000 109577 -5.3369e+001 -1.3191e+002  4.5459e+001 25306 109476,109528,109502
 3.0000e+000 109554 -1.2321e+000 -1.2624e+002  2.4281e+001 25306 109450,109528,109476
 3.0000e+000 109778 -8.9481e+001 -2.5006e+002  5.7264e+000 24944 109628,109706,109654
 3.0000e+000 109755 -9.8633e+001 -2.4848e+002 -1.0122e+000 24944 109602,109706,109628
 3.0000e+000 109732 -7.9007e+001 -2.3426e+002 -2.4831e+000 24944 109654,109706,109680
 3.0000e+000 110126 -9.6909e+001 -3.2467e+002  7.2669e+000 24440 110149,109907,109855
 3.0000e+000 110103 -9.1903e+001 -3.3952e+002  1.5927e+001 24440 110149,109855,109985
 3.0000e+000 110080 -8.3304e+001 -2.8440e+002  5.8938e+000 24440 109855,109907,109881
 3.0000e+000 110057 -9.1882e+001 -2.6972e+002  8.2689e+001 24440 109829,109985,109855
 3.0000e+000 110034 -8.6642e+001 -3.2765e+002 -5.7684e-002 24440 109907,109959,109933
 3.0000e+000 110011 -9.0172e+001 -2.8588e+002  1.4762e+001 24440 109803,109985,109829
 3.0000e+000 110175 -9.3455e+001 -3.1237e+002  5.7968e+000 24440 109959,109907,110149
 3.0000e+000 110198 -8.7836e+001 -3.2461e+002  1.5953e+001 24440 109959,110149,109985
 3.0000e+000 110301 -1.4658e+001 -2.1214e+002 -7.9949e+000 24028 110223,110275,110249
 3.0000e+000 110573 -3.7698e+001 -1.8633e+002  1.4490e+001 23467 110400,110452,110426
 3.0000e+000 110550 -6.5719e+001 -2.2190e+002 -2.5185e-001 23467 110374,110452,110400
 3.0000e+000 110527 -6.5612e+001 -2.2178e+002  2.7868e+000 23467 110348,110452,110374
 3.0000e+000 110504 -4.7800e+001 -2.1457e+002 -2.0944e+000 23467 110348,110478,110452
 3.0000e+000 111004 -1.5525e+002 -3.2653e+002 -3.4895e+001 22963 111027,110733,110707
 3.0000e+000 110981 -1.5050e+002 -3.0869e+002  1.4207e+001 22963 111027,110707,110681
 3.0000e+000 110958 -7.5056e+001 -2.7299e+002 -3.1489e+001 22963 111099,110759,110733
 3.0000e+000 110935 -9.4844e+001 -2.6976e+002 -2.2031e+001 22963 111171,110863,110811
 3.0000e+000 110912 -4.9332e+001 -2.0058e+002 -3.5424e+001 22963 110759,110811,110785
 3.0000e+000 110889 -1.0331e+002 -2.8593e+002 -1.8871e+001 22963 110811,110863,110837
 3.0000e+000 111053 -1.0843e+002 -2.9517e+002 -2.0023e+001 22963 111099,110733,111027
 3.0000e+000 111076 -9.0460e+001 -2.8974e+002 -1.8267e+001 22963 111171,110811,111027
 3.0000e+000 111125 -7.3869e+001 -2.6868e+002 -4.9774e+001 22963 110811,110759,111099
 3.0000e+000 111148 -7.9550e+001 -2.6640e+002 -4.3009e+001 22963 110811,111099,111027
 3.0000e+000 111197 -9.6918e+001 -2.3532e+002 -2.8178e+001 22963 110681,110863,111171
 3.0000e+000 111220 -1.0322e+002 -2.6076e+002 -1.4917e+001 22963 110681,111171,111027
 3.0000e+000 111726 -1.4647e+002 -2.8501e+002  6.8704e+000 22459 111749,111507,111429
 3.0000e+000 111703 -1.3434e+002 -2.8106e+002 -3.8896e+000 22459 111749,111429,111585
 3.0000e+000 111680 -1.1696e+002 -3.1207e+002 -2.0786e+000 22459 111403,111585,111429
 3.0000e+000 111657 -1.4135e+002 -3.1013e+002  1.3669e+001 22459 111507,111559,111533
 3.0000e+000 111634 -1.8942e+002 -2.7253e+002  1.6629e+001 22459 111455,111507,111481
 3.0000e+000 111611 -1.9960e+002 -2.7277e+002  2.4648e+001 22459 111429,111507,111455
 3.0000e+000 111775 -1.4609e+002 -3.0157e+002  1.7826e+001 22459 111559,111507,111749
 3.0000e+000 111798 -1.3399e+002 -2.8938e+002  7.2211e+000 22459 111559,111749,111585
 3.0000e+000 112046 -6.2242e+001 -2.3356e+002 -3.0032e+001 21898 112069,111925,111873
 3.0000e+000 112023 -5.9818e+001 -2.3556e+002 -6.8621e+000 21898 112069,111873,111847
 3.0000e+000 112000 -8.1185e+001 -2.4056e+002 -1.1396e+001 21898 111821,111951,111847
 3.0000e+000 111977 -7.0673e+001 -1.8096e+002 -1.8392e+001 21898 111873,111925,111899
 3.0000e+000 112095 -9.5000e+001 -2.4570e+002 -3.4338e+001 21898 111951,111925,112069
 3.0000e+000 112118 -7.8900e+001 -2.4240e+002 -1.2089e+001 21898 111951,112069,111847
 3.0000e+000 112498 -1.1692e+002 -2.6921e+002 -2.4217e+001 21608 112521,112276,112224
 3.0000e+000 112475 -7.5638e+001 -2.7390e+002  8.9325e-001 21608 112521,112224,112380
 3.0000e+000 112452 -7.8530e+001 -3.0366e+002  2.1706e+001 21608 112302,112380,112354
 3.0000e+000 112429 -1.3245e+002 -3.0133e+002 -1.7655e+001 21608 112224,112276,112250
 3.0000e+000 112406  4.1951e+001 -3.2798e+002 -1.1360e+001 21608 112302,112354,112328
 3.0000e+000 112547 -8.3115e+001 -2.2923e+002 -5.7116e+000 21608 112302,112276,112521
 3.0000e+000 112570 -5.6240e+001 -2.6203e+002  1.2094e+001 21608 112302,112521,112380
 3.0000e+000 112948 -1.3367e+002 -2.7888e+002 -6.0632e+000 20882 112971,112752,112700
 3.0000e+000 112925 -1.0378e+002 -2.6787e+002 -9.6307e+000 20882 112971,112700,112830
 3.0000e+000 112902 -1.6853e+002 -2.9482e+002  1.7890e+001 20882 112778,112830,112804
 3.0000e+000 112879 -9.7030e+001 -2.1756e+002 -1.4455e+001 20882 112674,112830,112700
 3.0000e+000 112856 -1.6313e+002 -2.9036e+002  4.1466e+000 20882 112700,112752,112726
 3.0000e+000 112997 -1.3360e+002 -2.7648e+002  1.0756e+001 20882 112778,112752,112971
 3.0000e+000 113020 -1.1684e+002 -2.7095e+002  6.3857e+000 20882 112778,112971,112830
 3.0000e+000 113526 -1.0106e+002 -2.8000e+002  5.4456e-001 20428 113255,113385,113333
 3.0000e+000 113503 -1.1068e+002 -3.0712e+002 -2.5543e-001 20428 113229,113385,113255
 3.0000e+000 113480 -2.0150e+001 -2.7564e+002  9.2088e-001 20428 113255,113333,113281
 3.0000e+000 113457 -9.9135e+001 -3.0367e+002  8.7056e-001 20428 113203,113385,113229
 3.0000e+000 113434 -5.3238e+001 -2.8772e+002 -9.9779e+000 20428 113281,113333,113307
 3.0000e+000 113411 -1.1728e+002 -2.7714e+002  4.5672e+000 20428 113333,113385,113359
 3.0000e+000 113774 -1.2730e+001 -2.5618e+002  9.2464e+000 19917 113797,113601,113549
 3.0000e+000 113751 -3.8392e+001 -2.5882e+002  1.1586e+001 19917 113869,113797,113549
 3.0000e+000 113728 -3.7039e+001 -2.6152e+002  2.1655e+001 19917 113869,113549,113679
 3.0000e+000 113705 -2.2355e+001 -2.5506e+002  2.1525e+001 19917 113549,113601,113575
 3.0000e+000 113823 -4.0144e+001 -3.1559e+002 -1.5088e+000 19917 113627,113601,113797
 3.0000e+000 113846 -1.1755e+001 -2.4513e+002 -7.3965e+000 19917 113627,113797,113653
 3.0000e+000 113895 -3.3579e+001 -2.3380e+002  2.7368e+000 19917 113653,113797,113869
 3.0000e+000 113918 -4.3315e+001 -2.4096e+002  1.5716e+001 19917 113653,113869,113679
 3.0000e+000 114166 -1.2439e+002 -2.7550e+002 -4.9357e+000 19413 113993,114045,114019
 3.0000e+000 114143 -1.2005e+002 -2.5771e+002  9.1756e-001 19413 113967,114045,113993
 3.0000e+000 114120 -9.8446e+001 -2.4969e+002  1.1111e+001 19413 113967,114071,114045
 3.0000e+000 114097 -8.8899e+001 -2.8246e+002 -7.0863e+000 19413 113941,114071,113967
 3.0000e+000 114438 -1.1111e+002 -2.9505e+002  2.7354e+000 19001 114213,114265,114239
 3.0000e+000 114415 -7.9481e+001 -2.2978e+002 -7.2559e+000 19001 114213,114343,114265
 3.0000e+000 114392 -1.1817e+002 -3.1679e+002 -1.4430e+001 19001 114265,114343,114317
 3.0000e+000 114369  2.4617e+001 -2.5536e+002 -5.9548e+000 19001 114265,114317,114291
 3.0000e+000 114639 -7.4815e+001 -3.4980e+002  1.9922e+001 18554 114489,114541,114515
 3.0000e+000 114616 -6.9195e+001 -2.9788e+002  5.0957e+000 18554 114489,114567,114541
 3.0000e+000 114593 -1.5628e+002 -3.4092e+002 -2.1074e+001 18554 114463,114567,114489
 3.0000e+000 115043 -6.2122e+001 -2.6774e+002  9.6176e+000 18164 114795,114925,114821
 3.0000e+000 115020 -5.7041e+001 -2.8486e+002  1.4711e+001 18164 114769,114925,114795
 3.0000e+000 114997 -3.6851e+001 -2.7953e+002 -1.8108e+000 18164 115066,114873,114821
 3.0000e+000 114974 -3.4638e+001 -2.4180e+002 -8.4248e+000 18164 115066,114821,114925
 3.0000e+000 114951  1.0283e+001 -2.8053e+002 -2.5794e+001 18164 114821,114873,114847
 3.0000e+000 115092 -5.0551e+001 -2.5230e+002 -2.1660e+001 18164 114899,114873,115066
 3.0000e+000 115115 -3.2927e+001 -1.9459e+002 -3.0082e+001 18164 114899,115066,114925
 3.0000e+000 115265 -8.6286e+001 -3.0871e+002  1.7626e+000 17852 115164,115216,115190
 3.0000e+000 115242 -9.5373e+001 -3.1953e+002 -2.1667e+000 17852 115138,115216,115164
 3.0000e+000 115464 -1.8193e+002 -4.0777e+002  6.3054e+000 17346 115288,115366,115340
 3.0000e+000 115441 -2.8022e+002 -3.1733e+002 -1.1136e+001 17346 115288,115392,115366
 3.0000e+000 115418 -1.6295e+002 -4.5743e+002 -1.3322e+001 17346 115288,115340,115314
 3.0000e+000 115736 -8.1402e+001 -2.7479e+002  1.1363e+001 16942 115563,115641,115615
 3.0000e+000 115713 -9.0757e+001 -2.7360e+002  3.1925e+000 16942 115511,115641,115563
 3.0000e+000 115690 -1.9292e+002 -3.1824e+002  1.5929e+001 16942 115563,115615,115589
 3.0000e+000 115667 -1.0640e+002 -2.9716e+002  9.9909e+000 16942 115511,115563,115537
 3.0000e+000 116091 -1.3704e+002 -3.1384e+002 -1.2439e+001 16388 115918,115970,115944
 3.0000e+000 116068 -1.1796e+002 -2.5158e+002 -8.4494e+000 16388 115918,115996,115970
 3.0000e+000 116045 -1.5801e+002 -3.1792e+002  9.9078e+000 16388 115892,115996,115918
 3.0000e+000 116022 -1.0648e+002 -2.9159e+002  3.4034e+001 16388 115866,115996,115892
 3.0000e+000 116192 -5.4751e+001 -3.4423e+002 -4.7348e+001 15810 116114,116166,116140
 3.0000e+000 116342 -1.2328e+002 -4.0025e+002  2.1261e+001 15419 116241,116293,116267
 3.0000e+000 116319 -1.7683e+002 -4.8961e+002 -1.4215e+001 15419 116215,116293,116241
 3.0000e+000 116445 -1.4071e+002 -2.7857e+002  2.0767e+000 421 116367,116419,116393
 3.1000e+000 68477 -1.8802e+002 -2.9014e+002 -2.5443e-001 68018 68327,68379,68353
 3.1000e+000 68454 -2.0066e+002 -3.9429e+002  2.9567e+001 68018 68301,68379,68327
 3.1000e+000 68431 -7.4059e+001 -4.3368e+002  7.8251e+001 68018 68301,68405,68379
 3.1000e+000 68578 -1.2393e+002 -2.7735e+002  1.4076e+000 67820 68500,68552,68526
 3.1000e+000 68728 -1.3770e+002 -2.6326e+002 -4.2079e+000 67508 68601,68653,68627
 3.1000e+000 68705 -2.1898e+002 -2.0097e+002 -3.9982e+001 67508 68601,68679,68653
 3.1000e+000 68927 -2.7080e+001 -2.2292e+002 -6.9734e+000 67310 68777,68829,68803
 3.1000e+000 68904 -5.0556e+001 -2.5819e+002  3.5825e+000 67310 68751,68829,68777
 3.1000e+000 68881 -2.9759e+001 -2.5573e+002  1.8656e+001 67310 68751,68855,68829
 3.1000e+000 69386 -1.0586e+002 -2.9709e+002 -1.7449e+001 67020 69216,69268,69242
 3.1000e+000 69363 -9.5260e+001 -2.2770e+002 -3.2422e+001 67020 69138,69268,69216
 3.1000e+000 69340 -6.9010e+001 -1.9632e+002 -1.3400e+001 67020 69112,69268,69138
 3.1000e+000 69317 -1.3099e+002 -2.4633e+002  2.0295e+001 67020 69138,69190,69164
 3.1000e+000 69294 -1.3812e+002 -2.2367e+002 -1.5067e+001 67020 69138,69216,69190
 3.1000e+000 69536 -2.3648e+002 -5.7256e+002 -4.9305e+001 66708 69435,69487,69461
 3.1000e+000 69513 -1.7229e+002 -6.4567e+002 -9.6871e+000 66708 69409,69487,69435
 3.1000e+000 69735 -1.3725e+002 -2.9568e+002  7.1650e+000 66346 69585,69637,69611
 3.1000e+000 69712 -1.1199e+002 -2.8231e+002 -8.4668e-001 66346 69559,69637,69585
 3.1000e+000 69689 -1.0052e+002 -2.7946e+002 -2.7359e+001 66346 69559,69663,69637
 3.1000e+000 69985 -1.7920e+002 -3.1900e+002  5.6838e+000 66148 69786,69890,69864
 3.1000e+000 69962 -1.8965e+002 -3.2333e+002  6.1854e+000 66148 69760,69890,69786
 3.1000e+000 69939 -1.2379e+002 -3.0536e+002 -5.0724e+001 66148 69786,69864,69838
 3.1000e+000 69916 -1.5668e+002 -3.3549e+002 -1.2555e+001 66148 69786,69838,69812
 3.1000e+000 70137 -9.0747e+001 -3.5417e+002 -2.1334e+001 65950 70036,70088,70062
 3.1000e+000 70114 -7.7412e+001 -3.9112e+002  1.5687e+001 65950 70010,70088,70036
 3.1000e+000 70470 -6.3869e+001 -2.5601e+002  2.4143e+001 65546 70245,70323,70271
 3.1000e+000 70447 -4.1505e+001 -2.1889e+002  1.2761e+001 65546 70245,70375,70323
 3.1000e+000 70424 -5.6979e+001 -2.8382e+002  1.3000e+001 65546 70323,70375,70349
 3.1000e+000 70401 -5.3313e+001 -2.3613e+002  1.2510e+001 65546 70271,70323,70297
 3.1000e+000 70620 -8.8573e+001 -3.0772e+002  1.1925e+001 65348 70493,70545,70519
 3.1000e+000 70597 -8.4835e+001 -3.2960e+002  7.6514e+000 65348 70493,70571,70545
 3.1000e+000 70721 -1.5029e+002 -3.1788e+002  2.4158e+001 65150 70643,70695,70669
 3.1000e+000 71020 -9.7771e+001 -2.4141e+002  6.4709e-001 64952 71043,70850,70824
 3.1000e+000 70997 -8.5177e+001 -2.0931e+002  1.3846e+000 64952 71043,70824,70772
 3.1000e+000 70974 -9.5976e+001 -2.8514e+002  4.3907e+000 64952 71115,70746,70876
 3.1000e+000 70951 -7.0146e+001 -2.8495e+002 -3.7861e+000 64952 70746,70902,70876
 3.1000e+000 70928 -8.0114e+001 -1.6547e+002 -2.5012e+001 64952 70772,70824,70798
 3.1000e+000 71069 -7.6729e+001 -2.2879e+002  1.0172e+001 64952 70876,70850,71043
 3.1000e+000 71092 -9.2691e+001 -2.6673e+002  5.9043e+000 64952 71115,70876,71043
 3.1000e+000 71141 -1.1291e+002 -2.6374e+002 -1.2409e+001 64952 70772,70746,71115
 3.1000e+000 71164 -1.0344e+002 -2.3622e+002 -1.1197e+001 64952 70772,71115,71043
 3.1000e+000 71365  5.3826e+000 -2.9647e+002 -4.3476e+000 64662 71215,71293,71267
 3.1000e+000 71342  7.9238e+001 -2.6696e+002 -7.3209e+001 64662 71189,71293,71215
 3.1000e+000 71319  3.2839e+001 -2.4033e+002  4.2435e+000 64662 71215,71267,71241
 3.1000e+000 71615 -6.2143e+001 -2.8437e+002 -7.7363e+000 64350 71710,71638,71468
 3.1000e+000 71592 -9.3913e+001 -2.7962e+002 -1.0754e+001 64350 71638,71416,71390
 3.1000e+000 71569 -6.5726e+001 -2.6525e+002  7.8322e+000 64350 71710,71468,71442
 3.1000e+000 71546  8.1301e+001 -2.6028e+002 -5.3831e+001 64350 71390,71520,71494
 3.1000e+000 71664 -6.6774e+001 -2.8700e+002 -5.4064e+000 64350 71494,71468,71638
 3.1000e+000 71687 -6.3034e+001 -2.8347e+002 -3.5687e+000 64350 71494,71638,71390
 3.1000e+000 71736 -5.9976e+001 -2.4614e+002  2.9180e+000 64350 71416,71638,71710
 3.1000e+000 71759 -5.1542e+001 -2.2439e+002  2.3577e+001 64350 71416,71710,71442
 3.1000e+000 72318 -6.6062e+001 -4.4942e+002 -1.9646e+001 63837 71972,72024,71998
 3.1000e+000 72295 -1.0031e+002 -2.7972e+002 -6.3328e+000 63837 72341,71972,71946
 3.1000e+000 72272 -9.5586e+001 -2.2788e+002  1.2534e+001 63837 72413,72341,71946
 3.1000e+000 72249 -9.2600e+001 -2.0750e+002  6.4160e+000 63837 72413,71946,72128
 3.1000e+000 72226 -1.5297e+002 -2.4597e+002  3.8009e+000 63837 72024,72076,72050
 3.1000e+000 72203 -1.2706e+002 -2.2481e+002 -6.2926e+000 63837 72024,72102,72076
 3.1000e+000 72180 -7.9114e+001 -2.0457e+002  1.9576e+001 63837 71946,72154,72128
 3.1000e+000 72367 -1.3725e+002 -3.0524e+002 -5.7336e+001 63837 72024,71972,72341
 3.1000e+000 72390 -1.0194e+002 -2.4466e+002 -1.9620e+001 63837 72024,72341,72102
 3.1000e+000 72439 -7.9904e+001 -2.6075e+002  5.5175e+000 63837 72102,72341,72413
 3.1000e+000 72462 -7.6635e+001 -2.3907e+002  1.8920e+000 63837 72102,72413,72128
 3.1000e+000 72791 -1.2833e+002 -2.5806e+002 -2.8608e+001 63383 72592,72696,72670
 3.1000e+000 72768 -1.3190e+002 -2.4148e+002 -4.9981e+001 63383 72566,72696,72592
 3.1000e+000 72745 -1.2980e+002 -2.2535e+002 -1.6293e+000 63383 72592,72670,72618
 3.1000e+000 72722 -1.2442e+002 -2.1437e+002  2.1558e-001 63383 72618,72670,72644
 3.1000e+000 73297 -1.5857e+002 -2.3168e+002 -4.0429e+000 63185 73000,73156,73130
 3.1000e+000 73274 -1.5997e+002 -2.4338e+002  2.9655e+001 63185 72974,73156,73000
 3.1000e+000 73251 -1.1504e+002 -2.6563e+002 -5.0021e+000 63185 73000,73052,73026
 3.1000e+000 73228 -1.2865e+002 -2.3625e+002 -1.2724e+001 63185 73000,73130,73052
 3.1000e+000 73205 -1.2899e+002 -2.6981e+002 -4.1403e+001 63185 73052,73130,73104
 3.1000e+000 73182 -1.2480e+002 -2.9240e+002 -4.3846e+001 63185 73052,73104,73078
 3.1000e+000 73545 -3.9537e+001 -2.4137e+002  5.4647e-001 62781 73568,73398,73372
 3.1000e+000 73522 -1.9268e+001 -2.1866e+002  1.2018e+001 62781 73568,73372,73346
 3.1000e+000 73499 -5.2694e+001 -2.2910e+002 -8.1522e+000 62781 73640,73320,73424
 3.1000e+000 73476 -7.8629e+001 -1.6127e+002 -1.9898e+001 62781 73320,73450,73424
 3.1000e+000 73594 -4.2752e+001 -2.2019e+002 -2.7839e+000 62781 73424,73398,73568
 3.1000e+000 73617 -4.4330e+001 -2.2426e+002 -3.9185e+000 62781 73640,73424,73568
 3.1000e+000 73666 -4.9407e+001 -2.2290e+002  3.5253e-001 62781 73346,73320,73640
 3.1000e+000 73689 -4.4744e+001 -2.1789e+002  4.2556e+000 62781 73346,73640,73568
 3.1000e+000 74035 -9.2905e+001 -2.8554e+002 -3.4151e+000 62363 74058,73868,73842
 3.1000e+000 74012 -8.8296e+001 -2.6387e+002 -2.0432e+001 62363 74130,74058,73842
 3.1000e+000 73989 -8.0230e+001 -2.6080e+002 -2.0560e+001 62363 74130,73842,73816
 3.1000e+000 73966 -1.3596e+002 -2.9687e+002  4.0618e+000 62363 74202,73764,73894
 3.1000e+000 73943 -1.7643e+002 -2.6753e+002  5.6097e+000 62363 73712,73894,73764
 3.1000e+000 73920 -1.9417e+002 -2.8374e+002 -4.1741e+000 62363 73712,73764,73738
 3.1000e+000 74084 -9.5323e+001 -2.7729e+002 -3.5850e+000 62363 73894,73868,74058
 3.1000e+000 74107 -1.2304e+002 -2.8322e+002  1.4617e+001 62363 74202,73894,74058
 3.1000e+000 74156 -9.7576e+001 -2.6635e+002  9.0850e+000 62363 73790,74058,74130
 3.1000e+000 74179 -5.7763e+001 -2.4972e+002  1.1962e+001 62363 73790,74130,73816
 3.1000e+000 74228 -1.5069e+002 -3.0332e+002 -1.6085e+001 62363 73790,73764,74202
 3.1000e+000 74251 -1.4122e+002 -2.8887e+002 -5.6069e+000 62363 73790,74202,74058
 3.1000e+000 74403 -2.9605e+000 -3.0551e+002  2.0399e+001 62115 74426,74302,74276
 3.1000e+000 74380  6.5078e+001 -2.9407e+002  4.8148e+001 62115 74426,74276,74354
 3.1000e+000 74452 -6.6202e+001 -2.7372e+002  2.0727e+001 62115 74328,74302,74426
 3.1000e+000 74475 -2.7255e+000 -2.6467e+002  5.0404e+001 62115 74328,74426,74354
 3.1000e+000 74578  5.3069e+001 -1.8185e+002  3.1159e+000 61825 74500,74552,74526
 3.1000e+000 74982 -1.4713e+002 -2.6356e+002  2.0463e+000 61513 75005,74734,74708
 3.1000e+000 74959 -1.4324e+002 -2.5642e+002 -4.4856e-001 61513 75005,74708,74864
 3.1000e+000 74936 -1.8328e+002 -2.7022e+002  1.8082e+001 61513 75077,74812,74734
 3.1000e+000 74913 -1.6382e+002 -2.7365e+002 -2.3200e+001 61513 74734,74786,74760
 3.1000e+000 74890 -1.6004e+002 -2.4255e+002 -1.4486e+000 61513 74734,74812,74786
 3.1000e+000 75031 -1.3824e+002 -2.6978e+002  3.4309e+000 61513 75077,74734,75005
 3.1000e+000 75054 -1.0854e+002 -2.6137e+002  3.9444e+001 61513 74838,75005,74864
 3.1000e+000 75103 -2.0849e+002 -2.8167e+002  5.8622e+001 61513 74838,74812,75077
 3.1000e+000 75126 -1.7901e+002 -2.9229e+002  4.4081e+001 61513 74838,75077,75005
 3.1000e+000 75553 -6.4228e+001 -2.3653e+002 -8.7193e+000 61060 75576,75360,75308
 3.1000e+000 75530 -7.0683e+001 -2.5003e+002 -1.1623e+001 61060 75576,75308,75230
 3.1000e+000 75507 -5.6277e+001 -2.2328e+002  3.5325e+000 61060 75308,75360,75334
 3.1000e+000 75484 -9.6625e+001 -2.9392e+002  1.8585e+001 61060 75230,75308,75256
 3.1000e+000 75461 -6.1611e+001 -2.6892e+002  7.4828e+000 61060 75256,75308,75282
 3.1000e+000 75438 -7.1857e+001 -2.3075e+002  3.2109e+001 61060 75360,75412,75386
 3.1000e+000 75602 -4.2358e+001 -2.4930e+002  1.5273e+000 61060 75412,75360,75576
 3.1000e+000 75625 -5.9127e+001 -2.7752e+002 -5.7367e+000 61060 75412,75576,75230
 3.1000e+000 76052 -1.0177e+002 -2.3964e+002  3.2767e+000 60442 75755,75859,75833
 3.1000e+000 76029 -1.2622e+002 -2.3037e+002 -1.6610e+001 60442 75729,75859,75755
 3.1000e+000 76006 -1.0786e+002 -2.2371e+002  1.5629e+001 60442 75755,75833,75807
 3.1000e+000 75983 -1.0011e+002 -2.6823e+002  8.8854e+000 60442 75755,75807,75781
 3.1000e+000 75960  2.0168e+001 -4.2098e+002  1.2306e+001 60442 75729,75911,75859
 3.1000e+000 75937 -2.0721e+002 -1.0756e+003  6.6881e+001 60442 75859,75911,75885
 3.1000e+000 76430 -1.0536e+002 -2.7904e+002 -9.9246e+000 59788 76453,76286,76234
 3.1000e+000 76407 -1.1437e+002 -3.1599e+002  3.5653e+000 59788 76453,76234,76182
 3.1000e+000 76384 -1.1337e+002 -1.9951e+002  3.5600e+001 59788 76525,76156,76312
 3.1000e+000 76361 -6.9393e+001 -3.6517e+002 -3.5531e+000 59788 76182,76234,76208
 3.1000e+000 76338 -7.2857e+001 -2.6614e+002 -5.5457e+000 59788 76234,76286,76260
 3.1000e+000 76479 -1.2546e+002 -2.9834e+002  9.4218e-001 59788 76312,76286,76453
 3.1000e+000 76502 -1.0532e+002 -2.7875e+002  1.2657e+001 59788 76525,76312,76453
 3.1000e+000 76551 -1.4610e+002 -2.9897e+002  3.6200e+001 59788 76182,76156,76525
 3.1000e+000 76574 -1.2777e+002 -3.2285e+002  2.0425e+001 59788 76182,76525,76453
 3.1000e+000 77031 -6.1767e+001 -1.4811e+002 -4.3003e+001 59448 76835,76887,76861
 3.1000e+000 77008 -8.0662e+000 -1.4078e+002  4.4465e+000 59448 76835,76913,76887
 3.1000e+000 76985 -3.5179e+001 -1.2376e+002  3.5739e+001 59448 76809,76913,76835
 3.1000e+000 76962 -9.0927e+001 -1.4905e+002 -3.1329e+000 59448 76757,76913,76809
 3.1000e+000 76939 -6.6844e+001 -1.4111e+002 -1.2595e+001 59448 76757,76809,76783
 3.1000e+000 77537 -1.2043e+002 -2.5958e+002  1.4341e+001 58994 77560,77344,77292
 3.1000e+000 77514 -1.7088e+002 -2.5957e+002  4.2413e+000 58994 77560,77292,77240
 3.1000e+000 77491 -9.7170e+001 -2.4566e+002 -5.8526e+000 58994 77632,77214,77370
 3.1000e+000 77468 -2.0363e+002 -2.9886e+002  5.2904e+001 58994 77292,77344,77318
 3.1000e+000 77445 -1.0051e+002 -3.1951e+002  1.2901e+001 58994 77214,77396,77370
 3.1000e+000 77422 -1.7406e+002 -2.7530e+002 -5.5502e+000 58994 77240,77292,77266
 3.1000e+000 77586 -1.2347e+002 -2.6642e+002  1.6438e+001 58994 77370,77344,77560
 3.1000e+000 77609 -1.2461e+002 -2.6252e+002  1.8236e+001 58994 77632,77370,77560
 3.1000e+000 77658 -8.2245e+001 -2.2764e+002 -3.0804e+001 58994 77240,77214,77632
 3.1000e+000 77681 -1.0213e+002 -2.2460e+002 -8.9825e+000 58994 77240,77632,77560
 3.1000e+000 78138 -8.9710e+001 -1.7155e+002  2.4800e+001 58440 77864,77994,77890
 3.1000e+000 78115 -5.2912e+001 -9.7249e+001 -1.7374e+001 58440 77864,78020,77994
 3.1000e+000 78092 -1.0407e+002 -2.0599e+002 -1.7379e+001 58440 77942,77994,77968
 3.1000e+000 78069 -8.0134e+001 -1.9134e+002  4.5337e+000 58440 77890,77994,77942
 3.1000e+000 78046 -7.3427e+001 -1.9414e+002 -6.7684e-001 58440 77890,77942,77916
 3.1000e+000 78467 -1.0512e+001 -2.3537e+002  1.1103e+001 57928 78562,78490,78346
 3.1000e+000 78444 -8.7911e+001 -2.4019e+002 -4.6646e+000 57928 78490,78294,78268
 3.1000e+000 78421  5.3385e+000 -2.4781e+002  2.4084e+001 57928 78562,78346,78320
 3.1000e+000 78398 -2.8800e+001 -2.3081e+002  4.0610e+000 57928 78242,78372,78268
 3.1000e+000 78516 -7.4641e+001 -2.9644e+002 -1.4678e+001 57928 78372,78346,78490
 3.1000e+000 78539 -5.7318e+001 -2.2632e+002 -1.5679e+000 57928 78372,78490,78268
 3.1000e+000 78588 -8.7363e+001 -2.3312e+002  3.0533e+000 57928 78294,78490,78562
 3.1000e+000 78611 -3.8345e+001 -2.0739e+002  2.8995e+001 57928 78294,78562,78320
 3.1000e+000 79068 -1.5964e+002 -3.4908e+002 -7.7435e+001 57467 78794,78924,78820
 3.1000e+000 79045 -1.2467e+002 -3.3665e+002 -8.5199e+001 57467 78794,78950,78924
 3.1000e+000 79022 -3.1170e+001 -2.9039e+002  1.8301e+001 57467 78820,78898,78872
 3.1000e+000 78999 -1.3441e+002 -4.1202e+002 -5.0736e+001 57467 78820,78924,78898
 3.1000e+000 78976 -4.4767e+001 -3.0573e+002  3.3347e+001 57467 78820,78872,78846
 3.1000e+000 79446 -1.3883e+002 -2.7157e+002  1.7757e-001 57120 79172,79302,79250
 3.1000e+000 79423 -1.2410e+002 -2.6501e+002 -6.3182e+000 57120 79172,79328,79302
 3.1000e+000 79400 -1.2450e+002 -2.3668e+002 -9.4916e+000 57120 79172,79250,79198
 3.1000e+000 79377 -9.3952e+001 -3.4042e+002  1.3965e+001 57120 79250,79302,79276
 3.1000e+000 79354 -1.5318e+002 -2.5614e+002 -1.8576e+001 57120 79198,79250,79224
 3.1000e+000 79952 -1.8585e+002 -2.8687e+002 -1.0702e+000 56773 79629,79785,79655
 3.1000e+000 79929 -6.2088e+001 -2.4985e+002  1.1612e+001 56773 79629,79811,79785
 3.1000e+000 79906 -1.4205e+002 -3.1338e+002  1.8833e+001 56773 79655,79733,79681
 3.1000e+000 79883 -1.4065e+002 -2.7698e+002  2.5663e+000 56773 79655,79785,79733
 3.1000e+000 79860 -1.2830e+002 -3.6124e+002 -4.9836e+001 56773 79733,79785,79759
 3.1000e+000 79837 -7.1072e+001 -2.8078e+002  5.1930e+001 56773 79681,79733,79707
 3.1000e+000 80281 -5.8423e+001 -2.2226e+002 -1.7446e+001 56319 80108,80160,80134
 3.1000e+000 80258 -6.6377e+001 -2.4198e+002 -2.2320e+001 56319 80056,80160,80108
 3.1000e+000 80235 -1.9909e+001 -2.1250e+002  1.2199e+001 56319 80056,80186,80160
 3.1000e+000 80212 -9.3900e+001 -3.0774e+002 -1.3249e+001 56319 80056,80108,80082
 3.1000e+000 80738 -3.5858e+001 -2.5933e+002  1.6079e+001 55957 80516,80620,80594
 3.1000e+000 80715 -8.6582e+001 -2.3562e+002  1.3793e+001 55957 80464,80620,80516
 3.1000e+000 80692 -7.5462e+001 -2.8280e+002  1.5549e+001 55957 80761,80568,80542
 3.1000e+000 80669 -6.0332e+001 -2.7821e+002  1.8357e+001 55957 80761,80542,80516
 3.1000e+000 80646 -8.8188e+001 -2.3875e+002  3.0470e+001 55957 80464,80516,80490
 3.1000e+000 80787 -9.0188e+001 -2.8087e+002  1.1066e+001 55957 80594,80568,80761
 3.1000e+000 80810 -7.5992e+001 -2.7671e+002  1.4057e+001 55957 80594,80761,80516
 3.1000e+000 81210 -5.4325e+001 -2.6080e+002 -3.1932e+001 55317 80936,80988,80962
 3.1000e+000 81187 -4.4277e+001 -2.7628e+002 -1.1732e+001 55317 80936,81066,80988
 3.1000e+000 81164 -4.5641e+001 -3.0598e+002 -1.4386e+000 55317 80936,81092,81066
 3.1000e+000 81141 -1.0765e+002 -3.0804e+002 -2.9358e+001 55317 80988,81066,81014
 3.1000e+000 81118 -1.1774e+001 -1.9313e+002  1.4246e+001 55317 81014,81066,81040
 3.1000e+000 81539 -1.2118e+002 -2.8173e+002  9.9936e+000 54913 81340,81418,81392
 3.1000e+000 81516 -4.5914e+001 -2.2555e+002 -1.5268e+001 54913 81340,81444,81418
 3.1000e+000 81493 -7.3313e+001 -2.4233e+002 -3.1703e+001 54913 81314,81444,81340
 3.1000e+000 81470 -1.3625e+002 -2.9529e+002  4.0124e+000 54913 81340,81392,81366
 3.1000e+000 81787 -6.5349e+001 -2.9032e+002 -1.0483e+000 54601 81588,81692,81640
 3.1000e+000 81764 -9.8397e+001 -2.9502e+002 -8.4445e+000 54601 81562,81692,81588
 3.1000e+000 81741 -5.0454e+001 -2.9463e+002  3.9080e+001 54601 81588,81640,81614
 3.1000e+000 81718 -6.7829e+001 -3.4618e+002 -2.9117e+001 54601 81640,81692,81666
 3.1000e+000 82344 -1.1363e+002 -3.1629e+002 -1.7488e+001 54090 81998,82102,82076
 3.1000e+000 82321 -1.5462e+002 -3.3425e+002 -1.0039e+001 54090 81998,82154,82102
 3.1000e+000 82298 -1.4046e+002 -3.2654e+002 -6.1471e+000 54090 81972,82154,81998
 3.1000e+000 82275 -1.5997e+002 -2.9409e+002 -2.0518e+001 54090 81998,82076,82024
 3.1000e+000 82252 -1.7022e+002 -3.4754e+002  1.6573e+001 54090 81972,82180,82154
 3.1000e+000 82229 -2.1542e+002 -4.0675e+002  2.2622e+001 54090 82102,82154,82128
 3.1000e+000 82206 -2.8748e+001 -2.2220e+002 -4.9920e+001 54090 82024,82076,82050
 3.1000e+000 82722 -1.8326e+002 -3.3151e+002 -1.0362e+001 53579 82500,82578,82552
 3.1000e+000 82699 -1.3403e+002 -3.0218e+002  9.4512e+000 53579 82448,82578,82500
 3.1000e+000 82676 -1.4611e+002 -3.4225e+002  1.0289e+001 53579 82448,82500,82474
 3.1000e+000 82653 -1.7983e+002 -3.2550e+002  2.5397e+001 53579 82448,82604,82578
 3.1000e+000 82630 -9.5331e+001 -3.0782e+002 -1.1703e+001 53579 82500,82552,82526
 3.1000e+000 83356 -8.6327e+001 -2.3416e+002 -2.4609e+001 53189 83379,83088,83036
 3.1000e+000 83333 -8.3402e+001 -2.6356e+002 -2.2341e+001 53189 83379,83036,82984
 3.1000e+000 83310 -2.8992e+001 -2.3928e+002  4.6033e+001 53189 82984,83192,83166
 3.1000e+000 83287  1.2675e+000 -1.9558e+002 -1.7749e+001 53189 83036,83088,83062
 3.1000e+000 83264 -6.4226e+001 -2.9650e+002 -4.2911e+001 53189 82984,83036,83010
 3.1000e+000 83241 -4.8094e+001 -2.7630e+002  6.8936e+000 53189 83114,83166,83140
 3.1000e+000 83218 -1.2108e+002 -2.9831e+002  7.7118e+000 53189 83088,83166,83114
 3.1000e+000 83405 -8.6534e+001 -2.5400e+002 -1.2410e+001 53189 83166,83088,83379
 3.1000e+000 83428 -7.9240e+001 -2.7999e+002 -1.1999e+001 53189 83166,83379,82984
 3.1000e+000 83725 -1.2312e+002 -3.5334e+002 -3.0662e+001 52585 83748,83529,83503
 3.1000e+000 83702 -9.2221e+001 -3.4353e+002 -1.8358e+001 52585 83820,83748,83503
 3.1000e+000 83679 -6.3597e+001 -3.3692e+002 -1.5441e+001 52585 83820,83503,83477
 3.1000e+000 83656 -3.5402e+001 -3.0819e+002  4.3560e+001 52585 83477,83607,83581
 3.1000e+000 83633  3.6582e+001 -2.7659e+002  4.8300e+001 52585 83451,83607,83477
 3.1000e+000 83774 -1.0628e+002 -3.1166e+002 -2.7195e+001 52585 83555,83529,83748
 3.1000e+000 83797 -1.3832e+002 -3.3950e+002 -1.4950e+001 52585 83555,83748,83581
 3.1000e+000 83846 -1.1927e+002 -3.2742e+002 -3.7734e+000 52585 83581,83748,83820
 3.1000e+000 83869 -9.8388e+001 -3.2560e+002 -3.8926e+000 52585 83581,83820,83477
 3.1000e+000 84200 -8.8293e+001 -3.2101e+002 -1.0850e+001 52024 84001,84105,84079
 3.1000e+000 84177 -4.4813e+001 -3.1368e+002 -2.2620e+001 52024 83975,84105,84001
 3.1000e+000 84154 -7.9833e+001 -3.2075e+002 -9.6512e+000 52024 84001,84079,84053
 3.1000e+000 84131 -3.8309e+001 -2.1216e+002  3.9007e+001 52024 84001,84053,84027
 3.1000e+000 84399 -7.3643e+001 -3.1542e+002  3.4538e-002 51470 84422,84275,84249
 3.1000e+000 84376 -6.6553e+001 -3.0200e+002  3.7772e+000 51470 84422,84249,84223
 3.1000e+000 84353 -8.4825e+001 -3.3036e+002 -4.5383e+001 51470 84275,84327,84301
 3.1000e+000 84448 -8.0895e+001 -3.0263e+002 -5.7178e-001 51470 84327,84275,84422
 3.1000e+000 84471 -7.5590e+001 -2.9180e+002  2.8550e+000 51470 84327,84422,84223
 3.1000e+000 84753 -9.4487e+001 -2.7138e+002 -1.9276e+000 51073 84603,84655,84629
 3.1000e+000 84730 -1.9574e+002 -3.1727e+002 -1.4069e+001 51073 84776,84655,84603
 3.1000e+000 84707 -3.7536e+001 -2.7510e+002 -7.8802e+001 51073 84577,84681,84655
 3.1000e+000 84802 -1.2301e+002 -2.7676e+002 -3.5974e+001 51073 84577,84655,84776
 3.1000e+000 85178 -1.6057e+002 -3.5344e+002  3.1436e+001 50519 85201,85008,84982
 3.1000e+000 85155 -1.5226e+002 -3.2886e+002  2.2863e+001 50519 85273,85201,84982
 3.1000e+000 85132 -1.4377e+002 -3.2897e+002  1.7435e+001 50519 85273,84982,84930
 3.1000e+000 85109 -1.3993e+002 -3.2014e+002  1.4983e+001 50519 84930,84982,84956
 3.1000e+000 85086 -1.2599e+002 -3.2500e+002  1.1152e+001 50519 85008,85060,85034
 3.1000e+000 85227 -1.3319e+002 -3.3638e+002  1.4472e+001 50519 85060,85008,85201
 3.1000e+000 85250 -1.5057e+002 -3.3748e+002  9.8212e+000 50519 85060,85201,84904
 3.1000e+000 85299 -1.4327e+002 -3.3275e+002  7.7835e+000 50519 84904,85201,85273
 3.1000e+000 85322 -1.1347e+002 -2.9581e+002 -5.6216e+000 50519 84904,85273,84930
 3.1000e+000 85958 -8.6943e+001 -2.9094e+002 -9.2432e+000 50093 85981,85768,85716
 3.1000e+000 85935 -7.6784e+001 -2.6813e+002 -7.3776e+000 50093 85981,85716,85612
 3.1000e+000 85912 -1.0287e+002 -2.7451e+002  4.3159e+000 50093 85612,85716,85664
 3.1000e+000 85889 -6.8374e+001 -2.8072e+002 -3.1929e+000 50093 85716,85768,85742
 3.1000e+000 85866 -8.5854e+001 -2.0870e+002 -6.4339e+001 50093 85664,85716,85690
 3.1000e+000 85843  1.7355e+001 -1.9824e+002 -1.9645e+001 50093 85586,85794,85612
 3.1000e+000 85820 -7.6625e+001 -3.6290e+002  2.3817e+001 50093 85612,85664,85638
 3.1000e+000 86007 -1.1036e+002 -3.1305e+002 -4.3574e+001 50093 85794,85768,85981
 3.1000e+000 86030 -7.7241e+001 -2.4342e+002 -3.2943e+001 50093 85794,85981,85612
 3.1000e+000 86131 -1.0144e+002 -3.2769e+002  4.4544e+001 49895 86053,86105,86079
 3.1000e+000 86639 -7.2264e+001 -2.0445e+002 -4.2655e+001 49391 86662,86394,86368
 3.1000e+000 86616 -8.5716e+001 -2.4986e+002 -3.8529e+001 49391 86662,86368,86342
 3.1000e+000 86593 -4.5224e+001 -2.4864e+002 -1.1299e+001 49391 86342,86498,86472
 3.1000e+000 86570 -3.0439e+001 -2.7076e+002 -1.3344e+001 49391 86316,86498,86342
 3.1000e+000 86547 -1.3674e+002 -3.7832e+002 -1.6958e+001 49391 86394,86472,86446
 3.1000e+000 86524 -1.0537e+001 -3.6022e+002  1.9400e+000 49391 86394,86446,86420
 3.1000e+000 86688 -8.0697e+001 -2.4680e+002 -2.2977e+001 49391 86472,86394,86662
 3.1000e+000 86711 -7.2584e+001 -2.6631e+002 -2.2384e+001 49391 86472,86662,86342
 3.1000e+000 87089 -1.0616e+002 -3.0391e+002  8.4269e+000 48987 86815,86919,86867
 3.1000e+000 87066 -1.0815e+002 -3.1445e+002  1.3626e+001 48987 86815,86971,86919
 3.1000e+000 87043 -4.1148e+001 -3.3652e+002 -2.9693e+001 48987 86867,86919,86893
 3.1000e+000 87020 -1.2168e+002 -3.4586e+002  2.7507e+001 48987 86815,86867,86841
 3.1000e+000 86997 -1.2048e+002 -2.6783e+002  4.4073e+001 48987 86919,86971,86945
 3.1000e+000 87467 -2.0355e+002 -3.0161e+002  1.5667e+001 48540 87490,87245,87219
 3.1000e+000 87444 -1.4603e+002 -2.8127e+002  1.8055e+000 48540 87562,87490,87219
 3.1000e+000 87421 -1.0974e+002 -2.6661e+002  1.3026e+001 48540 87562,87219,87349
 3.1000e+000 87398 -1.5183e+002 -2.3542e+002 -1.5932e+001 48540 87245,87297,87271
 3.1000e+000 87375 -9.0496e+001 -2.7834e+002  1.0374e+001 48540 87193,87349,87219
 3.1000e+000 87516 -1.3871e+002 -2.8722e+002  3.5442e+000 48540 87297,87245,87490
 3.1000e+000 87539 -1.3968e+002 -2.8768e+002  4.6893e+000 48540 87297,87490,87323
 3.1000e+000 87588 -1.1106e+002 -2.6479e+002  2.5418e+001 48540 87323,87490,87562
 3.1000e+000 87611 -9.3574e+001 -2.6933e+002  3.2921e+001 48540 87323,87562,87349
 3.1000e+000 87810 -1.4636e+002 -5.2479e+002 -3.7299e+001 48136 87660,87712,87686
 3.1000e+000 87787 -8.5090e+001 -3.1628e+002 -1.7867e+001 48136 87660,87738,87712
 3.1000e+000 87764 -1.9595e+002 -3.2360e+002 -5.6495e+001 48136 87634,87738,87660
 3.1000e+000 88205 -1.3178e+002 -3.2908e+002 -2.7969e+001 47210 88300,88228,87937
 3.1000e+000 88182 -1.1492e+002 -3.1981e+002 -7.6652e+000 47210 88228,87833,88041
 3.1000e+000 88159 -1.3390e+002 -3.5219e+002 -4.4460e+001 47210 88300,87937,87911
 3.1000e+000 88136 -1.3035e+002 -3.2092e+002 -3.8089e+001 47210 87833,87911,87859
 3.1000e+000 88113 -2.1806e+002 -2.8780e+002 -2.2816e+001 47210 87937,87989,87963
 3.1000e+000 88090 -1.0965e+002 -2.6004e+002  5.3099e+001 47210 87989,88041,88015
 3.1000e+000 88067 -1.5221e+002 -3.7499e+002 -4.7172e+001 47210 87859,87911,87885
 3.1000e+000 88254 -1.1711e+002 -2.7134e+002 -2.8991e+001 47210 87989,87937,88228
 3.1000e+000 88277 -1.3930e+002 -3.1396e+002 -1.0343e+001 47210 87989,88228,88041
 3.1000e+000 88326 -1.0951e+002 -3.0715e+002 -9.9612e+000 47210 87833,88228,88300
 3.1000e+000 88349 -1.1508e+002 -3.2246e+002 -2.7686e+001 47210 87833,88300,87911
 3.1000e+000 88780 -2.1245e+002 -3.7045e+002 -6.6429e+001 46642 88803,88509,88483
 3.1000e+000 88757 -1.5399e+002 -3.3432e+002 -3.5379e+001 46642 88803,88483,88639
 3.1000e+000 88734 -1.7012e+002 -2.7495e+002 -4.0766e+001 46642 88875,88561,88509
 3.1000e+000 88711 -1.7224e+002 -2.5576e+002 -7.2527e+000 46642 88509,88561,88535
 3.1000e+000 88688 -1.0095e+002 -3.7337e+002  2.5581e+000 46642 88457,88639,88483
 3.1000e+000 88665 -1.9563e+002 -4.4909e+002 -1.7087e+001 46642 88561,88613,88587
 3.1000e+000 88829 -1.7217e+002 -3.0000e+002 -4.6439e+001 46642 88875,88509,88803
 3.1000e+000 88852 -1.6856e+002 -3.6232e+002 -3.0147e+001 46642 88613,88803,88639
 3.1000e+000 88901 -1.3971e+002 -3.0973e+002 -1.9548e+001 46642 88613,88561,88875
 3.1000e+000 88924 -1.5276e+002 -3.5024e+002 -2.4496e+001 46642 88613,88875,88803
 3.1000e+000 89253 -6.3513e+001 -3.1820e+002  8.4338e+000 46444 89080,89158,89132
 3.1000e+000 89230 -7.4779e+001 -3.4341e+002  5.4000e+000 46444 89028,89158,89080
 3.1000e+000 89207 -2.8941e+001 -3.0545e+002 -1.0892e+001 46444 89028,89080,89054
 3.1000e+000 89184 -3.1672e+001 -3.4358e+002 -2.3422e+001 46444 89080,89132,89106
 3.1000e+000 89631 -8.4388e+001 -2.0734e+002  4.2038e+000 46040 89383,89461,89435
 3.1000e+000 89608 -8.9376e+001 -2.2970e+002 -1.4497e+001 46040 89383,89487,89461
 3.1000e+000 89585 -9.2597e+001 -2.6723e+002 -8.2429e+000 46040 89383,89435,89409
 3.1000e+000 89562 -6.9596e+001 -1.9266e+002 -3.0292e+001 46040 89383,89513,89487
 3.1000e+000 89539 -2.9970e+001 -1.7409e+002 -3.6294e+001 46040 89357,89513,89383
 3.1000e+000 90009 -8.5005e+001 -2.6023e+002 -8.9617e-001 45636 89813,89891,89839
 3.1000e+000 89986 -8.8386e+001 -2.4377e+002  1.4974e+001 45636 89787,89891,89813
 3.1000e+000 89963 -7.7840e+001 -2.4461e+002 -6.1857e+000 45636 89839,89891,89865
 3.1000e+000 89940 -1.0172e+002 -2.7258e+002  9.6870e+000 45636 89735,89891,89787
 3.1000e+000 89917 -7.4054e+001 -2.7669e+002 -1.4806e+001 45636 89735,89787,89761
 3.1000e+000 90208 -5.8031e+001 -2.0402e+002 -4.1188e+001 45175 90231,90058,90032
 3.1000e+000 90185 -3.3510e+001 -1.8635e+002 -6.1207e+001 45175 90231,90032,90136
 3.1000e+000 90162 -6.9850e+001 -1.6595e+002 -3.4021e+000 45175 90058,90110,90084
 3.1000e+000 90257 -8.4895e+001 -2.2904e+002 -1.0677e+001 45175 90110,90058,90231
 3.1000e+000 90280 -3.8245e+001 -1.9813e+002 -3.3073e+001 45175 90110,90231,90136
 3.1000e+000 90528 -6.4626e+001 -2.1058e+002 -2.8359e+001 44513 90695,90551,90407
 3.1000e+000 90505 -7.0041e+001 -1.9106e+002 -1.4349e+001 44513 90551,90355,90329
 3.1000e+000 90482 -8.5215e+001 -2.0452e+002 -2.5942e+001 44513 90623,90303,90433
 3.1000e+000 90459 -4.9026e+001 -1.9624e+002 -2.0867e+001 44513 90695,90407,90381
 3.1000e+000 90577 -9.5160e+001 -2.2046e+002 -4.8247e+001 44513 90433,90407,90551
 3.1000e+000 90600 -8.1241e+001 -2.0152e+002 -2.4431e+001 44513 90623,90433,90551
 3.1000e+000 90649 -8.4092e+001 -2.0041e+002 -2.3541e+001 44513 90329,90303,90623
 3.1000e+000 90672 -8.4099e+001 -2.0064e+002 -2.3614e+001 44513 90329,90623,90551
 3.1000e+000 90721 -8.3543e+001 -1.9177e+002 -3.1886e+001 44513 90355,90551,90695
 3.1000e+000 90744 -7.8926e+001 -1.8515e+002 -2.9080e+001 44513 90355,90695,90381
 3.1000e+000 91077  1.3281e+000 -2.2296e+002 -1.5491e+001 44059 91100,90930,90904
 3.1000e+000 91054 -8.5927e+001 -2.4013e+002  1.1530e+001 44059 91100,90904,90982
 3.1000e+000 91031 -1.5507e+002 -2.7970e+002 -2.0475e+001 44059 90878,90982,90904
 3.1000e+000 91008 -4.9531e+001 -2.0978e+002  1.2607e+001 44059 90852,90982,90878
 3.1000e+000 91126 -1.2846e+002 -2.5589e+002 -1.8083e+001 44059 91172,91100,90956
 3.1000e+000 91149 -8.1257e+001 -2.3404e+002 -1.1187e+001 44059 90956,91100,90982
 3.1000e+000 91198 -1.5543e+000 -1.2928e+002 -6.8962e+001 44059 90930,91100,91172
 3.1000e+000 91677 -1.2245e+002 -1.8789e+002  1.7944e+001 43549 91455,91533,91481
 3.1000e+000 91654 -5.4842e+001 -1.8970e+002  2.4520e+001 43549 91429,91533,91455
 3.1000e+000 91631 -1.1798e+002 -1.8676e+002  8.8157e+000 43549 91481,91533,91507
 3.1000e+000 91608 -3.1660e+001 -1.8011e+002  1.2271e+001 43549 91429,91559,91533
 3.1000e+000 91585 -6.9280e+000 -6.9203e+001  1.8938e+000 43549 91403,91559,91429
 3.1000e+000 92006 -1.0397e+002 -2.7011e+002 -1.4441e+000 43059 91781,91885,91807
 3.1000e+000 91983 -1.1052e+002 -2.5762e+002  4.2254e+001 43059 91781,91911,91885
 3.1000e+000 91960 -1.0543e+002 -2.7169e+002 -6.7502e-001 43059 91807,91885,91833
 3.1000e+000 91937 -6.8114e+001 -2.5734e+002 -5.5137e+000 43059 91833,91885,91859
 3.1000e+000 92561 -9.3871e+001 -2.0030e+002 -2.0884e+001 42598 92584,92215,92189
 3.1000e+000 92538 -1.0063e+002 -2.2489e+002 -2.0181e+001 42598 92656,92584,92189
 3.1000e+000 92515 -8.9664e+001 -2.5348e+002 -5.5752e+000 42598 92656,92189,92397
 3.1000e+000 92492 -1.1484e+002 -1.7877e+002 -2.6064e+001 42598 92241,92319,92293
 3.1000e+000 92469 -1.0955e+002 -2.1416e+002  1.2915e+001 42598 92319,92397,92371
 3.1000e+000 92446 -4.3417e+001 -2.4782e+002  1.0221e+002 42598 92319,92371,92345
 3.1000e+000 92423 -1.1417e+002 -1.8527e+002 -3.8239e+001 42598 92241,92293,92267
 3.1000e+000 92610 -9.8399e+001 -2.0176e+002 -2.0414e+001 42598 92241,92215,92584
 3.1000e+000 92633 -9.0424e+001 -1.8394e+002 -2.6065e+001 42598 92241,92584,92319
 3.1000e+000 92682 -9.0761e+001 -1.8635e+002 -1.3951e+001 42598 92319,92584,92656
 3.1000e+000 92705 -7.3638e+001 -2.0623e+002 -2.9891e+000 42598 92319,92656,92397
 3.1000e+000 92953 -1.1100e+002 -2.9556e+002  1.5619e+001 42094 92976,92806,92780
 3.1000e+000 92930 -1.2315e+002 -2.7750e+002 -2.6967e-001 42094 92976,92780,92754
 3.1000e+000 92907 -2.4753e+001 -2.8393e+002 -2.8875e+000 42094 93048,92832,92806
 3.1000e+000 92884 -1.5946e+002 -2.8014e+002 -1.8555e+001 42094 92728,92858,92754
 3.1000e+000 93002 -7.0496e+001 -2.7300e+002  6.7412e+000 42094 93048,92806,92976
 3.1000e+000 93025 -1.1499e+002 -2.7298e+002 -4.4082e+000 42094 92858,92976,92754
 3.1000e+000 93074 -8.9000e+001 -3.0634e+002 -3.0581e+000 42094 92858,92832,93048
 3.1000e+000 93097 -1.2593e+002 -2.8956e+002  2.4258e+000 42094 92858,93048,92976
 3.1000e+000 93605 -1.1922e+002 -3.4337e+002 -1.3067e+001 41846 93628,93412,93386
 3.1000e+000 93582 -9.0814e+001 -2.5858e+002 -2.4503e+000 41846 93628,93386,93308
 3.1000e+000 93559 -1.3728e+002 -2.6919e+002 -5.6088e+001 41846 93700,93464,93438
 3.1000e+000 93536 -1.3031e+002 -3.5860e+002  4.6126e+000 41846 93308,93386,93334
 3.1000e+000 93513 -1.6821e+002 -2.5886e+002 -4.2606e+001 41846 93334,93386,93360
 3.1000e+000 93490 -1.3124e+002 -2.3812e+002 -5.4320e+001 41846 93282,93464,93308
 3.1000e+000 93654 -1.0339e+002 -2.7441e+002 -2.6272e+001 41846 93438,93412,93628
 3.1000e+000 93677 -1.3821e+002 -2.7502e+002 -2.6204e+001 41846 93700,93438,93628
 3.1000e+000 93726 -1.2389e+002 -2.3235e+002 -5.1755e+001 41846 93308,93464,93700
 3.1000e+000 93749 -1.1975e+002 -2.2651e+002 -2.2263e+001 41846 93308,93700,93628
 3.1000e+000 94255 -9.1074e+001 -2.7853e+002  1.7769e+001 41385 93958,94114,94088
 3.1000e+000 94232 -7.8271e+001 -3.0045e+002  7.0676e+000 41385 93932,94114,93958
 3.1000e+000 94209 -1.5916e+002 -3.2326e+002  5.2668e+001 41385 93958,94088,94062
 3.1000e+000 94186 -1.6552e+002 -2.3274e+002  3.8598e+001 41385 93958,94062,93984
 3.1000e+000 94163 -1.4335e+002 -2.2786e+002  3.5442e+001 41385 93984,94062,94036
 3.1000e+000 94140 -9.8937e+001 -3.1224e+002  5.1988e+001 41385 93984,94036,94010
 3.1000e+000 94476 -2.3581e+001 -3.7809e+002  2.4586e+001 40881 94326,94378,94352
 3.1000e+000 94453 -5.9763e+001 -3.1006e+002  2.6680e+001 40881 94300,94378,94326
 3.1000e+000 94430 -7.6207e+001 -2.8580e+002  3.7854e+000 40881 94300,94404,94378
 3.1000e+000 94626 -8.7282e+001 -2.2851e+002 -2.2124e+000 40591 94649,94551,94525
 3.1000e+000 94603 -4.6766e+001 -1.4128e+002  2.9038e+000 40591 94781,94577,94551
 3.1000e+000 94675 -2.8859e+001 -1.6519e+002 -2.7040e+001 40591 94781,94551,94649
 3.1000e+000 94807 -6.7370e-001 -9.6289e+001  2.9546e+001 40591 94499,94577,94781
 3.1000e+000 94830  4.3128e+000 -1.4382e+002 -2.0258e+000 40591 94499,94781,94649
 3.1000e+000 95336 -1.9716e+002 -2.6361e+002 -4.1349e+001 40187 95013,95169,95039
 3.1000e+000 95313 -4.6060e+001 -2.3878e+002  5.9295e+000 40187 95013,95195,95169
 3.1000e+000 95290 -3.2779e+001 -2.5906e+002 -2.9178e+001 40187 95039,95143,95065
 3.1000e+000 95267 -1.4722e+002 -3.0442e+002 -4.4679e+001 40187 95039,95169,95143
 3.1000e+000 95244 -6.1749e+001 -2.2779e+002 -2.2732e+001 40187 95091,95143,95117
 3.1000e+000 95221 -1.8680e+001 -1.4214e+002 -8.3634e+000 40187 95065,95143,95091
 3.1000e+000 95665 -7.4509e+001 -2.0055e+002  8.7391e+001 39626 95466,95570,95544
 3.1000e+000 95642 -1.3878e+002 -1.6200e+002  5.6667e+001 39626 95440,95570,95466
 3.1000e+000 95619 -2.1400e+002 -2.6628e+002  5.5740e+001 39626 95466,95544,95492
 3.1000e+000 95596 -4.4431e+001 -2.0563e+002  8.5889e+001 39626 95492,95544,95518
 3.1000e+000 95913 -1.0931e+002 -2.4003e+002 -3.6141e+001 39136 96080,95936,95766
 3.1000e+000 95890 -7.5230e+001 -2.5781e+002 -2.2336e+001 39136 95936,95714,95688
 3.1000e+000 95867 -1.9225e+002 -2.5715e+002  9.7675e+000 39136 96008,95792,95766
 3.1000e+000 95844 -8.9821e+001 -2.3298e+002 -2.7547e+001 39136 96080,95766,95740
 3.1000e+000 95962 -1.5197e+002 -2.6660e+002 -2.3655e+001 39136 96008,95766,95936
 3.1000e+000 95985 -9.7952e+001 -3.1403e+002 -6.2489e+000 39136 95818,95936,95688
 3.1000e+000 96034 -9.4905e+001 -2.1482e+002  1.5866e+001 39136 95818,95792,96008
 3.1000e+000 96057 -8.4278e+001 -2.3596e+002 -1.7012e+001 39136 95818,96008,95936
 3.1000e+000 96106 -9.9685e+001 -2.3747e+002 -1.0009e+001 39136 95714,95936,96080
 3.1000e+000 96129 -6.9220e+001 -2.2908e+002 -3.3461e+000 39136 95714,96080,95740
 3.1000e+000 96350 -9.2269e+001 -2.1632e+002 -1.0132e+001 38824 96200,96278,96252
 3.1000e+000 96327 -8.2348e+001 -2.1181e+002 -8.9388e+000 38824 96174,96278,96200
 3.1000e+000 96304 -3.7820e+001 -1.9415e+002 -3.0034e+001 38824 96200,96252,96226
 3.1000e+000 96830 -1.3089e+002 -2.2749e+002 -1.4780e+001 38320 97069,96536,96484
 3.1000e+000 96807 -1.2862e+002 -2.3106e+002 -1.4542e+001 38320 97069,96484,96853
 3.1000e+000 96784 -1.4310e+002 -2.4789e+002  5.4231e+000 38320 96853,96484,96458
 3.1000e+000 96761 -7.7309e+001 -1.9904e+002 -2.4183e+001 38320 96925,96640,96614
 3.1000e+000 96738 -1.2333e+002 -2.0783e+002 -9.8678e+000 38320 96997,96666,96640
 3.1000e+000 96715 -1.0283e+002 -2.7153e+002 -4.1892e+000 38320 97141,96588,96562
 3.1000e+000 96692 -1.6340e+002 -2.6443e+002 -3.9364e-001 38320 96484,96536,96510
 3.1000e+000 96879 -1.2690e+002 -2.4517e+002 -7.5392e+000 38320 97141,96562,96853
 3.1000e+000 96902 -1.1803e+002 -2.4016e+002 -7.8121e+000 38320 96925,96614,96853
 3.1000e+000 96951 -1.2062e+002 -2.0561e+002 -1.1401e+001 38320 96997,96640,96925
 3.1000e+000 96974 -1.1544e+002 -2.0235e+002 -6.7442e+000 38320 96458,96925,96853
 3.1000e+000 97023 -1.3577e+002 -2.1066e+002 -3.3103e+000 38320 96458,96666,96997
 3.1000e+000 97046 -1.2598e+002 -2.0572e+002 -5.0427e+000 38320 96458,96997,96925
 3.1000e+000 97095 -1.4171e+002 -2.2842e+002  5.1917e+000 38320 96562,96536,97069
 3.1000e+000 97118 -1.2112e+002 -2.2947e+002 -1.1428e+001 38320 96562,97069,96853
 3.1000e+000 97167 -6.0071e+001 -2.4756e+002 -1.5391e+001 38320 96614,96588,97141
 3.1000e+000 97190 -9.9868e+001 -2.3264e+002 -1.5692e+001 38320 96614,97141,96853
 3.1000e+000 97519 -9.5428e+001 -2.8247e+002  7.4472e+001 37766 97542,97398,97372
 3.1000e+000 97496 -1.1326e+002 -2.2425e+002  5.2339e+001 37766 97542,97372,97346
 3.1000e+000 97473 -1.1299e+002 -2.3531e+002  5.1389e+000 37766 97294,97424,97346
 3.1000e+000 97450 -1.2915e+002 -2.8079e+002  1.5138e+000 37766 97294,97346,97320
 3.1000e+000 97568 -5.2363e+001 -2.9542e+002  2.6402e+001 37766 97424,97398,97542
 3.1000e+000 97591 -8.0751e+001 -2.2877e+002  8.0495e+000 37766 97424,97542,97346
 3.1000e+000 98048 -1.1907e+002 -1.7484e+002 -5.9871e+001 37262 98071,97878,97852
 3.1000e+000 98025 -9.9877e+001 -2.1029e+002 -2.4641e+001 37262 98071,97852,97800
 3.1000e+000 98002 -1.1816e+002 -2.6314e+002 -2.3148e+001 37262 97800,97852,97826
 3.1000e+000 97979 -1.2018e+002 -2.2796e+002  5.4394e+000 37262 97800,97930,97904
 3.1000e+000 97956 -8.1551e+001 -2.7538e+002  1.6911e+001 37262 97774,97930,97800
 3.1000e+000 98097 -1.7226e+002 -2.0054e+002 -4.3621e+001 37262 97904,97878,98071
 3.1000e+000 98120 -1.2883e+002 -2.3849e+002 -1.1275e+001 37262 97904,98071,97800
 3.1000e+000 98449 -5.7485e+001 -1.6333e+002 -2.0989e+001 36950 98472,98302,98250
 3.1000e+000 98426 -3.1943e+001 -1.5482e+002 -2.5875e+001 36950 98472,98250,98354
 3.1000e+000 98403 -9.1372e+001 -1.8194e+002  2.0654e+001 36950 98250,98302,98276
 3.1000e+000 98380 -2.0930e+001 -1.2065e+002  1.3738e+001 36950 98224,98354,98250
 3.1000e+000 98498 -3.8621e+001 -1.8472e+002 -5.8043e+000 36950 98328,98302,98472
 3.1000e+000 98521 -8.5868e+000 -1.7198e+002 -1.4977e+001 36950 98328,98472,98354
 3.1000e+000 99125 -1.3007e+002 -1.2829e+002  1.2572e+001 36296 98704,98756,98730
 3.1000e+000 99102 -1.2755e+002 -1.4288e+002  1.2336e+001 36296 98704,98938,98756
 3.1000e+000 99079 -9.2084e+001 -1.7471e+002 -4.7798e+000 36296 99148,98938,98912
 3.1000e+000 99056 -9.8966e+001 -1.8092e+002  4.1005e+001 36296 99292,99220,98782
 3.1000e+000 99033 -8.0141e+001 -2.0256e+002  4.4971e+000 36296 99148,98912,98834
 3.1000e+000 99010 -9.4017e+001 -1.5401e+002  4.5292e+001 36296 99292,98782,98756
 3.1000e+000 98987 -7.6002e+001 -3.5641e+002 -6.6409e+001 36296 98834,98912,98886
 3.1000e+000 98964 -1.3040e+002 -5.2023e+002 -8.4994e+001 36296 98834,98886,98860
 3.1000e+000 99174 -1.1404e+002 -2.1671e+002  6.2878e+000 36296 99220,98938,99148
 3.1000e+000 99197 -7.8404e+001 -2.4726e+002  2.6367e+001 36296 98808,99148,98834
 3.1000e+000 99246 -9.8480e+001 -1.7885e+002  1.0214e+002 36296 98808,98782,99220
 3.1000e+000 99269 -3.9454e+001 -1.5755e+002  3.2508e+001 36296 98808,99220,99148
 3.1000e+000 99318 -1.0588e+002 -1.5489e+002  2.2689e+001 36296 98938,99220,99292
 3.1000e+000 99341 -1.0816e+002 -1.5902e+002  2.6927e+001 36296 98938,99292,98756
 3.1000e+000 99719 -1.3037e+002 -2.7450e+002 -1.2695e+000 35742 99742,99471,99601
 3.1000e+000 99696 -1.3492e+002 -2.1575e+002  2.5017e+001 35742 99445,99601,99471
 3.1000e+000 99673 -1.2442e+002 -2.6095e+002 -1.2603e+001 35742 99742,99601,99575
 3.1000e+000 99650 -1.0802e+002 -3.2351e+002 -1.0160e+001 35742 99814,99549,99523
 3.1000e+000 99627 -8.2920e+001 -2.4990e+002 -4.5326e+000 35742 99471,99523,99497
 3.1000e+000 99768 -1.0415e+002 -2.6860e+002  4.2854e+000 35742 99523,99471,99742
 3.1000e+000 99791 -1.2302e+002 -2.9850e+002 -8.9178e+000 35742 99814,99523,99742
 3.1000e+000 99840 -1.0557e+002 -2.9248e+002 -1.9722e+001 35742 99575,99549,99814
 3.1000e+000 99863 -1.1522e+002 -2.5998e+002 -1.7671e+001 35742 99575,99814,99742
 3.1000e+000 100111 -9.6809e+001 -2.2082e+002  1.5189e+001 35302 100134,99990,99938
 3.1000e+000 100088 -8.0507e+001 -2.0152e+002  4.8382e+000 35302 100134,99938,99912
 3.1000e+000 100065 -8.1256e+001 -2.0002e+002 -6.0552e+000 35302 100206,99886,100016
 3.1000e+000 100042 -1.2747e+002 -2.0666e+002  8.8317e+000 35302 99938,99990,99964
 3.1000e+000 100160 -7.5690e+001 -2.1287e+002  2.6846e+000 35302 100016,99990,100134
 3.1000e+000 100183 -7.6753e+001 -2.0377e+002 -5.9302e+000 35302 100206,100016,100134
 3.1000e+000 100232 -8.5145e+001 -2.0446e+002 -3.2993e+000 35302 99912,99886,100206
 3.1000e+000 100255 -8.0925e+001 -2.0916e+002 -3.3146e+000 35302 99912,100206,100134
 3.1000e+000 100586 -1.2844e+002 -1.4909e+002  3.9573e+001 35012 100609,100387,100361
 3.1000e+000 100563 -1.5523e+002 -1.1116e+002 -2.7691e+001 35012 100609,100361,100465
 3.1000e+000 100540 -7.1073e+001 -8.0870e+001 -6.4862e+001 35012 100361,100491,100465
 3.1000e+000 100517 -2.6934e+001 -8.7280e+001 -6.0692e+001 35012 100413,100465,100439
 3.1000e+000 100635 -6.0116e+001 -1.1912e+002  1.6416e+001 35012 100413,100387,100609
 3.1000e+000 100658 -8.4698e+001 -7.1336e+001 -5.2569e+001 35012 100413,100609,100465
 3.1000e+000 100987 -1.0118e+002 -2.2395e+002  2.3435e+001 34700 100788,100866,100814
 3.1000e+000 100964 -8.8956e+001 -1.8477e+002  3.4299e+001 34700 101010,100866,100788
 3.1000e+000 100941 -5.9295e+001 -1.3499e+002  3.7022e+001 34700 100762,100892,100866
 3.1000e+000 100918 -9.8934e+001 -2.1602e+002  1.4549e+001 34700 100814,100866,100840
 3.1000e+000 101036 -5.8941e+001 -1.6107e+002  5.6207e+001 34700 100762,100866,101010
 3.1000e+000 101493 -1.3628e+002 -2.5887e+002 -2.2860e+001 34132 101516,101349,101297
 3.1000e+000 101470 -1.6356e+002 -3.0995e+002 -3.6735e+001 34132 101588,101516,101297
 3.1000e+000 101447 -1.6432e+002 -3.2683e+002 -5.4178e+001 34132 101588,101297,101245
 3.1000e+000 101424 -1.0119e+002 -3.8207e+002 -5.0470e+001 34132 101245,101297,101271
 3.1000e+000 101401 -1.5045e+002 -2.6072e+002 -2.7119e+001 34132 101297,101349,101323
 3.1000e+000 101542 -1.4086e+002 -2.9889e+002 -1.8339e+001 34132 101375,101349,101516
 3.1000e+000 101565 -1.2677e+002 -2.9722e+002 -1.8851e+001 34132 101375,101516,101219
 3.1000e+000 101614 -1.3025e+002 -3.1157e+002 -1.8859e+001 34132 101219,101516,101588
 3.1000e+000 101637 -1.4719e+002 -3.2799e+002 -3.5476e+001 34132 101219,101588,101245
 3.1000e+000 101858 -6.1916e+001 -2.3140e+002  2.0706e+001 33720 101708,101786,101760
 3.1000e+000 101835 -5.1825e+001 -2.5255e+002  2.8197e+001 33720 101682,101786,101708
 3.1000e+000 101812 -9.1998e+001 -2.4638e+002  1.4653e+001 33720 101708,101760,101734
 3.1000e+000 102128 -2.7537e+001 -2.6777e+002 -7.6937e+000 33130 101903,102007,101929
 3.1000e+000 102105 -3.4006e+001 -3.0963e+002  9.5991e+000 33130 101903,102033,102007
 3.1000e+000 102082 -1.2876e+001 -3.2238e+002 -6.5284e+001 33130 101929,102007,101955
 3.1000e+000 102059 -4.5838e+001 -2.2617e+002  4.6255e+000 33130 101955,102007,101981
 3.1000e+000 102461 -1.1009e+002 -2.3652e+002 -1.8886e+001 32840 102236,102340,102262
 3.1000e+000 102438 -9.7949e+001 -1.7319e+002  7.4637e+000 32840 102236,102366,102340
 3.1000e+000 102415 -7.2874e+001 -2.2678e+002 -1.5841e+001 32840 102262,102340,102288
 3.1000e+000 102392 -1.3262e+002 -2.4085e+002 -4.5946e+001 32840 102288,102340,102314
 3.1000e+000 102997 -9.0387e+001 -1.5264e+002  4.3506e+001 32493 102749,102879,102853
 3.1000e+000 102974 -7.3022e+001 -1.1926e+002  3.0129e+001 32493 102723,102879,102749
 3.1000e+000 102951 -1.0643e+002 -1.8692e+002  2.8757e+001 32493 102749,102801,102775
 3.1000e+000 102928 -1.1346e+002 -1.8570e+002  2.7649e+001 32493 102749,102853,102801
 3.1000e+000 102905 -1.0622e+002 -1.7215e+002  2.3862e+001 32493 102801,102853,102827
 3.1000e+000 103454 -1.0716e+002 -1.9145e+002 -2.0139e+001 32089 103206,103336,103310
 3.1000e+000 103431 -8.6153e+001 -2.0118e+002 -3.7733e+000 32089 103180,103336,103206
 3.1000e+000 103408 -1.1249e+002 -2.2262e+002 -4.1014e+001 32089 103206,103284,103258
 3.1000e+000 103385 -1.6725e+002 -2.3254e+002 -4.7256e+001 32089 103206,103310,103284
 3.1000e+000 103362 -9.6762e+001 -1.7261e+002 -6.1112e+000 32089 103206,103258,103232
 3.1000e+000 103783 -1.8406e+002 -2.4292e+002 -2.9316e+001 31742 103558,103662,103584
 3.1000e+000 103760 -1.4945e+002 -1.8833e+002 -6.4458e+001 31742 103558,103688,103662
 3.1000e+000 103737 -1.1864e+002 -1.9331e+002 -5.3251e+001 31742 103584,103662,103636
 3.1000e+000 103714 -1.1248e+002 -2.0976e+002 -5.7525e+001 31742 103584,103636,103610
 3.1000e+000 104112 -6.5929e+000 -1.9135e+002  4.4298e+001 31402 103939,103991,103965
 3.1000e+000 104089 -5.4070e+001 -1.6349e+002  1.7461e+001 31402 103913,103991,103939
 3.1000e+000 104066 -7.8363e+001 -1.8341e+002  7.4378e+000 31402 103913,104017,103991
 3.1000e+000 104043 -9.6503e+001 -1.7086e+002 -4.8757e+000 31402 103887,104017,103913
 3.1000e+000 104569 -1.7311e+002 -3.0180e+002  7.7335e+000 30998 104321,104425,104373
 3.1000e+000 104546 -1.9335e+002 -3.0557e+002  8.4938e-001 30998 104321,104451,104425
 3.1000e+000 104523 -1.3795e+002 -2.4841e+002  3.7185e+001 30998 104373,104425,104399
 3.1000e+000 104500 -1.5933e+002 -3.4753e+002 -1.9710e+001 30998 104295,104451,104321
 3.1000e+000 104477 -2.2575e+002 -3.4836e+002  6.1023e+001 30998 104321,104373,104347
 3.1000e+000 104947 -1.4088e+002 -2.4911e+002 -2.7278e+001 30608 104751,104803,104777
 3.1000e+000 104924 -9.7722e+001 -2.6054e+002 -1.1347e+001 30608 104725,104803,104751
 3.1000e+000 104901 -1.4644e+002 -2.5049e+002  1.5388e+001 30608 104699,104803,104725
 3.1000e+000 104878 -1.3409e+002 -2.4702e+002  1.7215e+001 30608 104673,104803,104699
 3.1000e+000 104855 -1.0226e+002 -2.3411e+002 -7.7848e+000 30608 104673,104829,104803
 3.1000e+000 105276 -9.7794e+001 -2.3398e+002  1.1240e+001 30204 105427,105129,105077
 3.1000e+000 105253 -6.3122e+001 -2.5416e+002  5.4720e+001 30204 105427,105077,105051
 3.1000e+000 105230 -4.9646e+001 -2.3452e+002  6.8473e+000 30204 105077,105129,105103
 3.1000e+000 105207 -6.2895e+001 -2.1275e+002  3.2633e+001 30204 105299,105181,105155
 3.1000e+000 105325 -6.4295e+001 -2.0792e+002  1.2155e+001 30204 105129,105181,105299
 3.1000e+000 105453 -1.1952e+002 -2.4833e+002  3.0510e+001 30204 105181,105129,105427
 3.1000e+000 105476 -1.3997e+002 -2.9374e+002  7.9722e+001 30204 105181,105427,105051
 3.1000e+000 105903 -8.0839e+001 -1.9310e+002 -1.6125e+001 29700 105606,105762,105736
 3.1000e+000 105880 -1.0497e+002 -1.9809e+002  3.3138e-001 29700 105580,105762,105606
 3.1000e+000 105857 -1.2818e+002 -2.4624e+002 -1.7510e+001 29700 105606,105710,105632
 3.1000e+000 105834 -1.0435e+002 -2.0752e+002 -7.2283e+000 29700 105606,105736,105710
 3.1000e+000 105811 -1.0518e+002 -2.2618e+002 -2.8679e+001 29700 105632,105710,105684
 3.1000e+000 105788 -9.8156e+001 -2.0798e+002 -8.7730e-001 29700 105632,105684,105658
 3.1000e+000 106102 -4.9278e+001 -2.5942e+002  8.4302e+000 29124 105978,106030,106004
 3.1000e+000 106079 -8.1353e+001 -2.5916e+002  7.3405e+000 29124 105926,106030,105978
 3.1000e+000 106056 -8.6540e+001 -2.8910e+002  3.2585e+001 29124 105926,105978,105952
 3.1000e+000 106301 -6.2724e+001 -2.4156e+002  7.7651e-001 28712 106151,106229,106203
 3.1000e+000 106278 -7.6568e+001 -2.6598e+002 -1.1541e+001 28712 106125,106229,106151
 3.1000e+000 106255 -6.5363e+001 -2.5485e+002  1.3877e+001 28712 106151,106203,106177
 3.1000e+000 106551 -8.0796e+001 -2.9941e+002  6.9482e+000 28258 106352,106404,106378
 3.1000e+000 106528 -9.7516e+001 -3.0115e+002  8.6526e-001 28258 106352,106456,106404
 3.1000e+000 106505 -1.1267e+002 -3.2353e+002 -8.4120e+000 28258 106326,106456,106352
 3.1000e+000 106482 -9.3303e+001 -2.8091e+002  6.5666e+000 28258 106404,106456,106430
 3.1000e+000 107012 -1.0269e+002 -2.5861e+002  5.0923e+001 27818 107035,106790,106764
 3.1000e+000 106989 -9.0194e+001 -2.4654e+002  1.9407e+001 27818 107035,106764,106868
 3.1000e+000 106966 -6.4097e+001 -2.9821e+002  2.8992e+001 27818 107107,106842,106816
 3.1000e+000 106943 -1.3674e+002 -2.2931e+002  1.0642e+001 27818 106738,106868,106764
 3.1000e+000 106920 -1.2784e+002 -1.9500e+002  3.3529e+001 27818 106738,106894,106868
 3.1000e+000 107061 -4.5305e+001 -2.4822e+002  5.9271e+001 27818 106816,106790,107035
 3.1000e+000 107084 -7.9475e+001 -2.7847e+002  3.0620e+001 27818 107107,106816,107035
 3.1000e+000 107133 -6.3085e+001 -2.6903e+002  1.4737e+001 27818 106868,106842,107107
 3.1000e+000 107156 -7.2167e+001 -2.3888e+002  2.0263e+001 27818 106868,107107,107035
 3.1000e+000 107613 -3.1573e+001 -1.9609e+002  4.2176e+001 27312 107339,107469,107365
 3.1000e+000 107590 -3.7256e+000 -1.7898e+002  3.4928e+001 27312 107339,107495,107469
 3.1000e+000 107567 -3.3260e+001 -1.9085e+002  1.9755e+001 27312 107391,107469,107443
 3.1000e+000 107544 -3.5075e+001 -2.0617e+002  1.6092e+001 27312 107365,107469,107391
 3.1000e+000 107521 -9.0706e+001 -2.0932e+002  7.5011e+000 27312 107391,107443,107417
 3.1000e+000 107991 -1.0848e+002 -2.9410e+002  4.4514e+000 26858 108086,108014,107795
 3.1000e+000 107968 -1.1768e+002 -3.0994e+002 -3.4085e+001 26858 108014,107717,107873
 3.1000e+000 107945 -1.2649e+002 -3.0817e+002  1.7310e+001 26858 108158,108086,107795
 3.1000e+000 107922 -1.0573e+002 -3.0487e+002  1.5156e+001 26858 108158,107795,107769
 3.1000e+000 107899 -6.6093e+001 -3.7866e+002  5.3320e+001 26858 107821,107873,107847
 3.1000e+000 108040 -1.1013e+002 -3.3684e+002  1.4454e+001 26858 107821,107795,108014
 3.1000e+000 108063 -4.7112e+001 -3.2379e+002 -8.2545e+000 26858 107821,108014,107873
 3.1000e+000 108112 -1.5465e+002 -3.1174e+002  1.1398e+001 26858 107717,108014,108086
 3.1000e+000 108135 -1.2905e+002 -3.2400e+002  3.3100e+001 26858 107717,108086,107743
 3.1000e+000 108184 -1.0196e+002 -3.0750e+002  2.4494e+001 26858 107743,108086,108158
 3.1000e+000 108207 -9.3271e+001 -3.1287e+002  2.4098e+001 26858 107743,108158,107769
 3.1000e+000 108634 -1.4261e+002 -2.8364e+002  2.6429e+000 26404 108657,108415,108363
 3.1000e+000 108611 -1.6092e+002 -3.0899e+002  2.9201e+001 26404 108657,108363,108337
 3.1000e+000 108588 -1.4050e+002 -2.8572e+002  3.4670e+001 26404 108729,108311,108467
 3.1000e+000 108565 -1.5939e+002 -3.3121e+002  1.4643e+000 26404 108801,108441,108415
 3.1000e+000 108542 -2.0947e+002 -3.1735e+002  4.3243e+001 26404 108311,108493,108467
 3.1000e+000 108519 -1.0031e+002 -2.8444e+002  2.6654e+000 26404 108363,108415,108389
 3.1000e+000 108683 -1.8934e+002 -3.0227e+002  5.5130e+000 26404 108801,108415,108657
 3.1000e+000 108706 -1.8369e+002 -2.9824e+002  2.7081e+001 26404 108729,108467,108657
 3.1000e+000 108755 -1.1233e+002 -3.0433e+002  3.4678e+001 26404 108337,108311,108729
 3.1000e+000 108778 -1.3440e+002 -3.0164e+002  2.6498e+001 26404 108337,108729,108657
 3.1000e+000 108827 -1.8981e+002 -3.8677e+002 -1.5416e+001 26404 108467,108441,108801
 3.1000e+000 108850 -2.0713e+002 -3.3815e+002 -1.0606e+001 26404 108467,108801,108657
 3.1000e+000 109228 -1.2968e+002 -2.8398e+002 -1.1893e+001 26064 109006,109084,109058
 3.1000e+000 109205 -1.0594e+002 -2.6161e+002  7.0160e+000 26064 108980,109084,109006
 3.1000e+000 109182 -1.2239e+002 -2.5596e+002 -3.7169e+000 26064 108980,109110,109084
 3.1000e+000 109159 -1.2425e+002 -2.9513e+002 -2.9036e+000 26064 109006,109058,109032
 3.1000e+000 109136  6.3225e+000 -2.2913e+002  1.8911e+001 26064 108954,109110,108980
 3.1000e+000 109427 -4.2364e+001 -2.4895e+002 -5.0481e+001 25660 109303,109355,109329
 3.1000e+000 109404 -7.5042e+001 -3.1419e+002 -1.3448e+001 25660 109277,109355,109303
 3.1000e+000 109381 -6.2435e+001 -2.8716e+002 -2.2128e+000 25660 109251,109355,109277
 3.1000e+000 109577 -5.6146e+001 -1.3920e+002  4.7520e+001 25306 109476,109528,109502
 3.1000e+000 109554 -6.5124e-001 -1.3254e+002  2.5872e+001 25306 109450,109528,109476
 3.1000e+000 109778 -9.4200e+001 -2.6317e+002  5.8846e+000 24944 109628,109706,109654
 3.1000e+000 109755 -1.0387e+002 -2.6129e+002 -1.2682e+000 24944 109602,109706,109628
 3.1000e+000 109732 -8.3248e+001 -2.4664e+002 -2.6917e+000 24944 109654,109706,109680
 3.1000e+000 110126 -1.0145e+002 -3.4037e+002  7.7146e+000 24440 110149,109907,109855
 3.1000e+000 110103 -9.6151e+001 -3.5639e+002  1.7047e+001 24440 110149,109855,109985
 3.1000e+000 110080 -8.6686e+001 -2.9687e+002  6.1698e+000 24440 109855,109907,109881
 3.1000e+000 110057 -9.6267e+001 -2.8299e+002  8.7203e+001 24440 109829,109985,109855
 3.1000e+000 110034 -9.0229e+001 -3.4302e+002 -2.9680e-002 24440 109907,109959,109933
 3.1000e+000 110011 -9.3457e+001 -2.9956e+002  1.6065e+001 24440 109803,109985,109829
 3.1000e+000 110175 -9.7773e+001 -3.2708e+002  6.0599e+000 24440 109959,109907,110149
 3.1000e+000 110198 -9.1853e+001 -3.4031e+002  1.7006e+001 24440 109959,110149,109985
 3.1000e+000 110301 -1.5236e+001 -2.2168e+002 -7.6833e+000 24028 110223,110275,110249
 3.1000e+000 110573 -3.9920e+001 -1.9650e+002  1.5224e+001 23467 110400,110452,110426
 3.1000e+000 110550 -6.9413e+001 -2.3366e+002 -3.6165e-001 23467 110374,110452,110400
 3.1000e+000 110527 -6.9104e+001 -2.3345e+002  2.7992e+000 23467 110348,110452,110374
 3.1000e+000 110504 -5.0403e+001 -2.2588e+002 -2.3250e+000 23467 110348,110478,110452
 3.1000e+000 111004 -1.6311e+002 -3.4265e+002 -3.5789e+001 22963 111027,110733,110707
 3.1000e+000 110981 -1.5782e+002 -3.2406e+002  1.4872e+001 22963 111027,110707,110681
 3.1000e+000 110958 -7.8855e+001 -2.8698e+002 -3.3053e+001 22963 111099,110759,110733
 3.1000e+000 110935 -1.0033e+002 -2.8335e+002 -2.3131e+001 22963 111171,110863,110811
 3.1000e+000 110912 -5.1838e+001 -2.1118e+002 -3.7297e+001 22963 110759,110811,110785
 3.1000e+000 110889 -1.1001e+002 -3.0053e+002 -1.8938e+001 22963 110811,110863,110837
 3.1000e+000 111053 -1.1411e+002 -3.1051e+002 -2.0828e+001 22963 111099,110733,111027
 3.1000e+000 111076 -9.5555e+001 -3.0446e+002 -1.9173e+001 22963 111171,110811,111027
 3.1000e+000 111125 -7.7547e+001 -2.8230e+002 -5.2306e+001 22963 110811,110759,111099
 3.1000e+000 111148 -8.3522e+001 -2.7982e+002 -4.5069e+001 22963 110811,111099,111027
 3.1000e+000 111197 -1.0231e+002 -2.4735e+002 -2.9444e+001 22963 110681,110863,111171
 3.1000e+000 111220 -1.0841e+002 -2.7394e+002 -1.5540e+001 22963 110681,111171,111027
 3.1000e+000 111726 -1.5426e+002 -2.9874e+002  7.1350e+000 22459 111749,111507,111429
 3.1000e+000 111703 -1.4143e+002 -2.9459e+002 -4.4355e+000 22459 111749,111429,111585
 3.1000e+000 111680 -1.2281e+002 -3.2822e+002 -2.5343e+000 22459 111403,111585,111429
 3.1000e+000 111657 -1.4839e+002 -3.2544e+002  1.4407e+001 22459 111507,111559,111533
 3.1000e+000 111634 -1.9938e+002 -2.8623e+002  1.7475e+001 22459 111455,111507,111481
 3.1000e+000 111611 -2.1080e+002 -2.8668e+002  2.6104e+001 22459 111429,111507,111455
 3.1000e+000 111775 -1.5395e+002 -3.1652e+002  1.8755e+001 22459 111559,111507,111749
 3.1000e+000 111798 -1.4109e+002 -3.0348e+002  7.3598e+000 22459 111559,111749,111585
 3.1000e+000 112046 -6.5660e+001 -2.4563e+002 -3.1544e+001 21898 112069,111925,111873
 3.1000e+000 112023 -6.3132e+001 -2.4777e+002 -7.2460e+000 21898 112069,111873,111847
 3.1000e+000 112000 -8.5302e+001 -2.5307e+002 -1.1994e+001 21898 111821,111951,111847
 3.1000e+000 111977 -7.4591e+001 -1.9068e+002 -1.9411e+001 21898 111873,111925,111899
 3.1000e+000 112095 -1.0004e+002 -2.5838e+002 -3.6039e+001 21898 111951,111925,112069
 3.1000e+000 112118 -8.3162e+001 -2.5495e+002 -1.2707e+001 21898 111951,112069,111847
 3.1000e+000 112498 -1.2278e+002 -2.8315e+002 -2.5334e+001 21608 112521,112276,112224
 3.1000e+000 112475 -7.9277e+001 -2.8816e+002  1.2358e+000 21608 112521,112224,112380
 3.1000e+000 112452 -8.2250e+001 -3.1906e+002  2.3013e+001 21608 112302,112380,112354
 3.1000e+000 112429 -1.3882e+002 -3.1697e+002 -1.8569e+001 21608 112224,112276,112250
 3.1000e+000 112406  4.4042e+001 -3.4371e+002 -1.1087e+001 21608 112302,112354,112328
 3.1000e+000 112547 -8.7177e+001 -2.4078e+002 -5.9069e+000 21608 112302,112276,112521
 3.1000e+000 112570 -5.8939e+001 -2.7553e+002  1.2959e+001 21608 112302,112521,112380
 3.1000e+000 112948 -1.4011e+002 -2.9259e+002 -6.3180e+000 20882 112971,112752,112700
 3.1000e+000 112925 -1.0915e+002 -2.8121e+002 -1.0076e+001 20882 112971,112700,112830
 3.1000e+000 112902 -1.7731e+002 -3.1052e+002  1.8991e+001 20882 112778,112830,112804
 3.1000e+000 112879 -1.0173e+002 -2.2828e+002 -1.4917e+001 20882 112674,112830,112700
 3.1000e+000 112856 -1.7115e+002 -3.0540e+002  4.5126e+000 20882 112700,112752,112726
 3.1000e+000 112997 -1.4003e+002 -2.9009e+002  1.1092e+001 20882 112778,112752,112971
 3.1000e+000 113020 -1.2266e+002 -2.8438e+002  6.5006e+000 20882 112778,112971,112830
 3.1000e+000 113526 -1.0624e+002 -2.9489e+002  2.1563e-001 20428 113255,113385,113333
 3.1000e+000 113503 -1.1657e+002 -3.2408e+002 -6.2395e-001 20428 113229,113385,113255
 3.1000e+000 113480 -2.1198e+001 -2.8906e+002  1.1887e+000 20428 113255,113333,113281
 3.1000e+000 113457 -1.0411e+002 -3.1983e+002  8.5891e-001 20428 113203,113385,113229
 3.1000e+000 113434 -5.5774e+001 -3.0226e+002 -1.0267e+001 20428 113281,113333,113307
 3.1000e+000 113411 -1.2325e+002 -2.9213e+002  4.4649e+000 20428 113333,113385,113359
 3.1000e+000 113774 -1.3671e+001 -2.6907e+002  9.7966e+000 19917 113797,113601,113549
 3.1000e+000 113751 -4.0688e+001 -2.7171e+002  1.2211e+001 19917 113869,113797,113549
 3.1000e+000 113728 -3.9278e+001 -2.7455e+002  2.2779e+001 19917 113869,113549,113679
 3.1000e+000 113705 -2.3683e+001 -2.6771e+002  2.2654e+001 19917 113549,113601,113575
 3.1000e+000 113823 -4.2589e+001 -3.3206e+002 -1.5277e+000 19917 113627,113601,113797
 3.1000e+000 113846 -1.2572e+001 -2.5750e+002 -7.7340e+000 19917 113627,113797,113653
 3.1000e+000 113895 -3.5643e+001 -2.4553e+002  2.9677e+000 19917 113653,113797,113869
 3.1000e+000 113918 -4.5814e+001 -2.5302e+002  1.6579e+001 19917 113653,113869,113679
 3.1000e+000 114166 -1.3060e+002 -2.8969e+002 -5.0270e+000 19413 113993,114045,114019
 3.1000e+000 114143 -1.2600e+002 -2.7135e+002  1.0173e+000 19413 113967,114045,113993
 3.1000e+000 114120 -1.0326e+002 -2.6295e+002  1.2065e+001 19413 113967,114071,114045
 3.1000e+000 114097 -9.3183e+001 -2.9725e+002 -6.9828e+000 19413 113941,114071,113967
 3.1000e+000 114438 -1.1692e+002 -3.1016e+002  2.8032e+000 19001 114213,114265,114239
 3.1000e+000 114415 -8.3855e+001 -2.4184e+002 -7.6114e+000 19001 114213,114343,114265
 3.1000e+000 114392 -1.2434e+002 -3.3283e+002 -1.5184e+001 19001 114265,114343,114317
 3.1000e+000 114369  2.5440e+001 -2.6837e+002 -6.2504e+000 19001 114265,114317,114291
 3.1000e+000 114639 -7.9250e+001 -3.6739e+002  2.0762e+001 18554 114489,114541,114515
 3.1000e+000 114616 -7.3034e+001 -3.1313e+002  5.2212e+000 18554 114489,114567,114541
 3.1000e+000 114593 -1.6438e+002 -3.5873e+002 -2.2322e+001 18554 114463,114567,114489
 3.1000e+000 115043 -6.5297e+001 -2.8139e+002  1.0291e+001 18164 114795,114925,114821
 3.1000e+000 115020 -5.9998e+001 -2.9960e+002  1.5646e+001 18164 114769,114925,114795
 3.1000e+000 114997 -3.8514e+001 -2.9345e+002 -1.7547e+000 18164 115066,114873,114821
 3.1000e+000 114974 -3.6253e+001 -2.5388e+002 -8.7430e+000 18164 115066,114821,114925
 3.1000e+000 114951  1.1110e+001 -2.9486e+002 -2.7477e+001 18164 114821,114873,114847
 3.1000e+000 115092 -5.2837e+001 -2.6488e+002 -2.2569e+001 18164 114899,114873,115066
 3.1000e+000 115115 -3.4396e+001 -2.0437e+002 -3.1460e+001 18164 114899,115066,114925
 3.1000e+000 115265 -8.9883e+001 -3.2148e+002  2.0463e+000 17852 115164,115216,115190
 3.1000e+000 115242 -9.9618e+001 -3.3370e+002 -2.1876e+000 17852 115138,115216,115164
 3.1000e+000 115464 -1.9158e+002 -4.2769e+002  7.0004e+000 17346 115288,115366,115340
 3.1000e+000 115441 -2.9366e+002 -3.3322e+002 -1.1248e+001 17346 115288,115392,115366
 3.1000e+000 115418 -1.7150e+002 -4.8102e+002 -1.4094e+001 17346 115288,115340,115314
 3.1000e+000 115736 -8.5624e+001 -2.8901e+002  1.1264e+001 16942 115563,115641,115615
 3.1000e+000 115713 -9.5438e+001 -2.8740e+002  2.6046e+000 16942 115511,115641,115563
 3.1000e+000 115690 -2.0272e+002 -3.3474e+002  1.5813e+001 16942 115563,115615,115589
 3.1000e+000 115667 -1.1260e+002 -3.1341e+002  1.0048e+001 16942 115511,115563,115537
 3.1000e+000 116091 -1.4405e+002 -3.2993e+002 -1.2723e+001 16388 115918,115970,115944
 3.1000e+000 116068 -1.2407e+002 -2.6457e+002 -8.5621e+000 16388 115918,115996,115970
 3.1000e+000 116045 -1.6616e+002 -3.3415e+002  1.0723e+001 16388 115892,115996,115918
 3.1000e+000 116022 -1.1196e+002 -3.0576e+002  3.6080e+001 16388 115866,115996,115892
 3.1000e+000 116192 -5.7788e+001 -3.6002e+002 -4.9824e+001 15810 116114,116166,116140
 3.1000e+000 116342 -1.2956e+002 -4.2021e+002  2.2398e+001 15419 116241,116293,116267
 3.1000e+000 116319 -1.8579e+002 -5.1431e+002 -1.4947e+001 15419 116215,116293,116241
 3.1000e+000 116445 -1.4718e+002 -2.9230e+002  2.1070e+000 421 116367,116419,116393
 3.2000e+000 68477 -1.9770e+002 -3.0464e+002  2.3513e-001 68018 68327,68379,68353
 3.2000e+000 68454 -2.1133e+002 -4.1254e+002  3.1211e+001 68018 68301,68379,68327
 3.2000e+000 68431 -7.9229e+001 -4.5397e+002  8.1984e+001 68018 68301,68405,68379
 3.2000e+000 68578 -1.3029e+002 -2.9004e+002  2.1518e+000 67820 68500,68552,68526
 3.2000e+000 68728 -1.4648e+002 -2.7823e+002 -4.1070e+000 67508 68601,68653,68627
 3.2000e+000 68705 -2.2639e+002 -2.1068e+002 -3.9310e+001 67508 68601,68679,68653
 3.2000e+000 68927 -2.9598e+001 -2.3492e+002 -6.8840e+000 67310 68777,68829,68803
 3.2000e+000 68904 -5.3291e+001 -2.7103e+002  3.8049e+000 67310 68751,68829,68777
 3.2000e+000 68881 -3.1456e+001 -2.6857e+002  1.9653e+001 67310 68751,68855,68829
 3.2000e+000 69386 -1.1127e+002 -3.1123e+002 -1.8230e+001 67020 69216,69268,69242
 3.2000e+000 69363 -9.9915e+001 -2.3854e+002 -3.3650e+001 67020 69138,69268,69216
 3.2000e+000 69340 -7.2608e+001 -2.0603e+002 -1.3975e+001 67020 69112,69268,69138
 3.2000e+000 69317 -1.3703e+002 -2.5794e+002  2.0896e+001 67020 69138,69190,69164
 3.2000e+000 69294 -1.4456e+002 -2.3501e+002 -1.5564e+001 67020 69138,69216,69190
 3.2000e+000 69536 -2.4695e+002 -5.9832e+002 -5.1225e+001 66708 69435,69487,69461
 3.2000e+000 69513 -1.8030e+002 -6.7549e+002 -9.4560e+000 66708 69409,69487,69435
 3.2000e+000 69735 -1.4382e+002 -3.0802e+002  7.4029e+000 66346 69585,69637,69611
 3.2000e+000 69712 -1.1742e+002 -2.9352e+002 -1.0649e+000 66346 69559,69637,69585
 3.2000e+000 69689 -1.0613e+002 -2.9164e+002 -2.8146e+001 66346 69559,69663,69637
 3.2000e+000 69985 -1.8866e+002 -3.3450e+002  6.0274e+000 66148 69786,69890,69864
 3.2000e+000 69962 -1.9897e+002 -3.3889e+002  6.6922e+000 66148 69760,69890,69786
 3.2000e+000 69939 -1.3033e+002 -3.2053e+002 -5.3464e+001 66148 69786,69864,69838
 3.2000e+000 69916 -1.6494e+002 -3.5204e+002 -1.3202e+001 66148 69786,69838,69812
 3.2000e+000 70137 -9.6109e+001 -3.7238e+002 -2.2696e+001 65950 70036,70088,70062
 3.2000e+000 70114 -8.1383e+001 -4.1137e+002  1.6555e+001 65950 70010,70088,70036
 3.2000e+000 70470 -6.6876e+001 -2.6891e+002  2.5702e+001 65546 70245,70323,70271
 3.2000e+000 70447 -4.3431e+001 -2.3031e+002  1.3609e+001 65546 70245,70375,70323
 3.2000e+000 70424 -5.9787e+001 -2.9800e+002  1.3699e+001 65546 70323,70375,70349
 3.2000e+000 70401 -5.6755e+001 -2.4813e+002  1.3405e+001 65546 70271,70323,70297
 3.2000e+000 70620 -9.3993e+001 -3.2322e+002  1.2585e+001 65348 70493,70545,70519
 3.2000e+000 70597 -8.8980e+001 -3.4589e+002  8.3562e+000 65348 70493,70571,70545
 3.2000e+000 70721 -1.5788e+002 -3.3369e+002  2.5597e+001 65150 70643,70695,70669
 3.2000e+000 71020 -1.0265e+002 -2.5388e+002  5.3952e-001 64952 71043,70850,70824
 3.2000e+000 70997 -8.9528e+001 -2.2018e+002  1.5135e+000 64952 71043,70824,70772
 3.2000e+000 70974 -1.0090e+002 -2.9924e+002  4.5021e+000 64952 71115,70746,70876
 3.2000e+000 70951 -7.3722e+001 -2.9936e+002 -4.4179e+000 64952 70746,70902,70876
 3.2000e+000 70928 -8.3729e+001 -1.7357e+002 -2.6500e+001 64952 70772,70824,70798
 3.2000e+000 71069 -8.1030e+001 -2.4095e+002  1.0228e+001 64952 70876,70850,71043
 3.2000e+000 71092 -9.7527e+001 -2.8013e+002  6.0557e+000 64952 71115,70876,71043
 3.2000e+000 71141 -1.1840e+002 -2.7701e+002 -1.2938e+001 64952 70772,70746,71115
 3.2000e+000 71164 -1.0860e+002 -2.4845e+002 -1.1702e+001 64952 70772,71115,71043
 3.2000e+000 71365  5.1134e+000 -3.1191e+002 -4.5010e+000 64662 71215,71293,71267
 3.2000e+000 71342  8.2186e+001 -2.8200e+002 -7.6648e+001 64662 71189,71293,71215
 3.2000e+000 71319  3.3533e+001 -2.5379e+002  4.3885e+000 64662 71215,71267,71241
 3.2000e+000 71615 -6.5819e+001 -2.9848e+002 -8.0642e+000 64350 71710,71638,71468
 3.2000e+000 71592 -9.8567e+001 -2.9336e+002 -1.1145e+001 64350 71638,71416,71390
 3.2000e+000 71569 -6.9612e+001 -2.7843e+002  8.2581e+000 64350 71710,71468,71442
 3.2000e+000 71546  8.4055e+001 -2.7322e+002 -5.6092e+001 64350 71390,71520,71494
 3.2000e+000 71664 -7.0786e+001 -3.0125e+002 -5.7645e+000 64350 71494,71468,71638
 3.2000e+000 71687 -6.6515e+001 -2.9742e+002 -3.6452e+000 64350 71494,71638,71390
 3.2000e+000 71736 -6.3461e+001 -2.5829e+002  3.0540e+000 64350 71416,71638,71710
 3.2000e+000 71759 -5.4700e+001 -2.3550e+002  2.4717e+001 64350 71416,71710,71442
 3.2000e+000 72318 -6.7516e+001 -4.6935e+002 -2.1209e+001 63837 71972,72024,71998
 3.2000e+000 72295 -1.0521e+002 -2.9300e+002 -7.2331e+000 63837 72341,71972,71946
 3.2000e+000 72272 -1.0085e+002 -2.3895e+002  1.3144e+001 63837 72413,72341,71946
 3.2000e+000 72249 -9.8023e+001 -2.1731e+002  6.6843e+000 63837 72413,71946,72128
 3.2000e+000 72226 -1.6115e+002 -2.5894e+002  4.4433e+000 63837 72024,72076,72050
 3.2000e+000 72203 -1.3384e+002 -2.3685e+002 -6.0616e+000 63837 72024,72102,72076
 3.2000e+000 72180 -8.4745e+001 -2.1466e+002  2.0800e+001 63837 71946,72154,72128
 3.2000e+000 72367 -1.4451e+002 -3.1991e+002 -6.0061e+001 63837 72024,71972,72341
 3.2000e+000 72390 -1.0789e+002 -2.5765e+002 -2.0001e+001 63837 72024,72341,72102
 3.2000e+000 72439 -8.4707e+001 -2.7383e+002  5.6384e+000 63837 72102,72341,72413
 3.2000e+000 72462 -8.1465e+001 -2.5070e+002  1.8402e+000 63837 72102,72413,72128
 3.2000e+000 72791 -1.3476e+002 -2.7089e+002 -3.0063e+001 63383 72592,72696,72670
 3.2000e+000 72768 -1.3840e+002 -2.5355e+002 -5.2205e+001 63383 72566,72696,72592
 3.2000e+000 72745 -1.3667e+002 -2.3696e+002 -1.9735e+000 63383 72592,72670,72618
 3.2000e+000 72722 -1.3017e+002 -2.2439e+002  7.5370e-001 63383 72618,72670,72644
 3.2000e+000 73297 -1.6634e+002 -2.4300e+002 -4.2426e+000 63185 73000,73156,73130
 3.2000e+000 73274 -1.6776e+002 -2.5505e+002  3.0506e+001 63185 72974,73156,73000
 3.2000e+000 73251 -1.2085e+002 -2.7935e+002 -4.7761e+000 63185 73000,73052,73026
 3.2000e+000 73228 -1.3536e+002 -2.4759e+002 -1.3138e+001 63185 73000,73130,73052
 3.2000e+000 73205 -1.3597e+002 -2.8331e+002 -4.3147e+001 63185 73052,73130,73104
 3.2000e+000 73182 -1.3250e+002 -3.0733e+002 -4.5989e+001 63185 73052,73104,73078
 3.2000e+000 73545 -4.1262e+001 -2.5349e+002  4.8385e-001 62781 73568,73398,73372
 3.2000e+000 73522 -2.0041e+001 -2.2973e+002  1.2500e+001 62781 73568,73372,73346
 3.2000e+000 73499 -5.5083e+001 -2.4024e+002 -8.2285e+000 62781 73640,73320,73424
 3.2000e+000 73476 -8.2071e+001 -1.6874e+002 -2.0660e+001 62781 73320,73450,73424
 3.2000e+000 73594 -4.4657e+001 -2.3125e+002 -3.0114e+000 62781 73424,73398,73568
 3.2000e+000 73617 -4.6196e+001 -2.3522e+002 -4.1190e+000 62781 73640,73424,73568
 3.2000e+000 73666 -5.1783e+001 -2.3408e+002  6.6590e-001 62781 73346,73320,73640
 3.2000e+000 73689 -4.6851e+001 -2.2907e+002  4.4601e+000 62781 73346,73640,73568
 3.2000e+000 74035 -9.6931e+001 -2.9915e+002 -3.3265e+000 62363 74058,73868,73842
 3.2000e+000 74012 -9.2321e+001 -2.7589e+002 -2.1669e+001 62363 74130,74058,73842
 3.2000e+000 73989 -8.3747e+001 -2.7271e+002 -2.1949e+001 62363 74130,73842,73816
 3.2000e+000 73966 -1.4244e+002 -3.1128e+002  4.4689e+000 62363 74202,73764,73894
 3.2000e+000 73943 -1.8598e+002 -2.8138e+002  5.7114e+000 62363 73712,73894,73764
 3.2000e+000 73920 -2.0372e+002 -3.0264e+002 -3.1470e+000 62363 73712,73764,73738
 3.2000e+000 74084 -9.9737e+001 -2.9159e+002 -3.6805e+000 62363 73894,73868,74058
 3.2000e+000 74107 -1.2881e+002 -2.9684e+002  1.5581e+001 62363 74202,73894,74058
 3.2000e+000 74156 -1.0223e+002 -2.7878e+002  9.5638e+000 62363 73790,74058,74130
 3.2000e+000 74179 -6.0092e+001 -2.6132e+002  1.2434e+001 62363 73790,74130,73816
 3.2000e+000 74228 -1.5796e+002 -3.1806e+002 -1.6900e+001 62363 73790,73764,74202
 3.2000e+000 74251 -1.4793e+002 -3.0274e+002 -5.8688e+000 62363 73790,74202,74058
 3.2000e+000 74403 -2.9209e+000 -3.2067e+002  2.1897e+001 62115 74426,74302,74276
 3.2000e+000 74380  6.7961e+001 -3.0790e+002  5.0834e+001 62115 74426,74276,74354
 3.2000e+000 74452 -6.9087e+001 -2.8690e+002  2.2103e+001 62115 74328,74302,74426
 3.2000e+000 74475 -2.8559e+000 -2.7655e+002  5.3031e+001 62115 74328,74426,74354
 3.2000e+000 74578  5.4697e+001 -1.9045e+002  3.1065e+000 61825 74500,74552,74526
 3.2000e+000 74982 -1.5377e+002 -2.7561e+002  2.0412e+000 61513 75005,74734,74708
 3.2000e+000 74959 -1.4948e+002 -2.6708e+002 -8.9649e-001 61513 75005,74708,74864
 3.2000e+000 74936 -1.9164e+002 -2.8286e+002  1.8936e+001 61513 75077,74812,74734
 3.2000e+000 74913 -1.7308e+002 -2.8898e+002 -2.4697e+001 61513 74734,74786,74760
 3.2000e+000 74890 -1.6843e+002 -2.5427e+002 -1.4970e+000 61513 74734,74812,74786
 3.2000e+000 75031 -1.4428e+002 -2.8243e+002  3.4923e+000 61513 75077,74734,75005
 3.2000e+000 75054 -1.1353e+002 -2.7367e+002  4.0971e+001 61513 74838,75005,74864
 3.2000e+000 75103 -2.1818e+002 -2.9496e+002  6.1574e+001 61513 74838,74812,75077
 3.2000e+000 75126 -1.8716e+002 -3.0616e+002  4.6242e+001 61513 74838,75077,75005
 3.2000e+000 75553 -6.7581e+001 -2.4736e+002 -9.1103e+000 61060 75576,75360,75308
 3.2000e+000 75530 -7.4127e+001 -2.6195e+002 -1.2071e+001 61060 75576,75308,75230
 3.2000e+000 75507 -5.9886e+001 -2.3437e+002  2.9464e+000 61060 75308,75360,75334
 3.2000e+000 75484 -1.0104e+002 -3.0735e+002  1.9516e+001 61060 75230,75308,75256
 3.2000e+000 75461 -6.4575e+001 -2.8197e+002  8.3322e+000 61060 75256,75308,75282
 3.2000e+000 75438 -7.5349e+001 -2.4166e+002  3.3809e+001 61060 75360,75412,75386
 3.2000e+000 75602 -4.4573e+001 -2.6115e+002  1.8816e+000 61060 75412,75360,75576
 3.2000e+000 75625 -6.2104e+001 -2.9144e+002 -5.7030e+000 61060 75412,75576,75230
 3.2000e+000 76052 -1.0709e+002 -2.5226e+002  4.1064e+000 60442 75755,75859,75833
 3.2000e+000 76029 -1.3210e+002 -2.4163e+002 -1.7530e+001 60442 75729,75859,75755
 3.2000e+000 76006 -1.1311e+002 -2.3496e+002  1.6869e+001 60442 75755,75833,75807
 3.2000e+000 75983 -1.0508e+002 -2.8193e+002  9.7321e+000 60442 75755,75807,75781
 3.2000e+000 75960  2.1570e+001 -4.4117e+002  1.2878e+001 60442 75729,75911,75859
 3.2000e+000 75937 -2.1564e+002 -1.1223e+003  6.9103e+001 60442 75859,75911,75885
 3.2000e+000 76430 -1.1055e+002 -2.9311e+002 -1.0510e+001 59788 76453,76286,76234
 3.2000e+000 76407 -1.1996e+002 -3.3195e+002  3.7829e+000 59788 76453,76234,76182
 3.2000e+000 76384 -1.1943e+002 -2.0936e+002  3.7315e+001 59788 76525,76156,76312
 3.2000e+000 76361 -7.3565e+001 -3.8358e+002 -3.4541e+000 59788 76182,76234,76208
 3.2000e+000 76338 -7.6499e+001 -2.7957e+002 -5.9071e+000 59788 76234,76286,76260
 3.2000e+000 76479 -1.3164e+002 -3.1340e+002  9.2495e-001 59788 76312,76286,76453
 3.2000e+000 76502 -1.1050e+002 -2.9280e+002  1.3217e+001 59788 76525,76312,76453
 3.2000e+000 76551 -1.5362e+002 -3.1401e+002  3.8216e+001 59788 76182,76156,76525
 3.2000e+000 76574 -1.3430e+002 -3.3927e+002  2.1534e+001 59788 76182,76525,76453
 3.2000e+000 77031 -6.5074e+001 -1.5563e+002 -4.5398e+001 59448 76835,76887,76861
 3.2000e+000 77008 -8.7927e+000 -1.4831e+002  4.4603e+000 59448 76835,76913,76887
 3.2000e+000 76985 -3.7577e+001 -1.3012e+002  3.7736e+001 59448 76809,76913,76835
 3.2000e+000 76962 -9.5996e+001 -1.5671e+002 -2.9572e+000 59448 76757,76913,76809
 3.2000e+000 76939 -7.0430e+001 -1.4803e+002 -1.3015e+001 59448 76757,76809,76783
 3.2000e+000 77537 -1.2625e+002 -2.7210e+002  1.4981e+001 58994 77560,77344,77292
 3.2000e+000 77514 -1.7914e+002 -2.7163e+002  4.4943e+000 58994 77560,77292,77240
 3.2000e+000 77491 -1.0234e+002 -2.5709e+002 -6.0463e+000 58994 77632,77214,77370
 3.2000e+000 77468 -2.1292e+002 -3.1310e+002  5.5767e+001 58994 77292,77344,77318
 3.2000e+000 77445 -1.0594e+002 -3.3381e+002  1.3440e+001 58994 77214,77396,77370
 3.2000e+000 77422 -1.8274e+002 -2.8844e+002 -5.3412e+000 58994 77240,77292,77266
 3.2000e+000 77586 -1.2883e+002 -2.7883e+002  1.6973e+001 58994 77370,77344,77560
 3.2000e+000 77609 -1.3082e+002 -2.7460e+002  1.8937e+001 58994 77632,77370,77560
 3.2000e+000 77658 -8.6867e+001 -2.3835e+002 -3.1903e+001 58994 77240,77214,77632
 3.2000e+000 77681 -1.0750e+002 -2.3522e+002 -9.2730e+000 58994 77240,77632,77560
 3.2000e+000 78138 -9.4459e+001 -1.7881e+002  2.6413e+001 58440 77864,77994,77890
 3.2000e+000 78115 -5.3323e+001 -9.9636e+001 -1.8281e+001 58440 77864,78020,77994
 3.2000e+000 78092 -1.0885e+002 -2.1585e+002 -1.8088e+001 58440 77942,77994,77968
 3.2000e+000 78069 -8.3922e+001 -2.0012e+002  4.5313e+000 58440 77890,77994,77942
 3.2000e+000 78046 -7.7118e+001 -2.0319e+002 -7.9559e-001 58440 77890,77942,77916
 3.2000e+000 78467 -1.0904e+001 -2.4622e+002  1.1436e+001 57928 78562,78490,78346
 3.2000e+000 78444 -9.1734e+001 -2.5061e+002 -4.7242e+000 57928 78490,78294,78268
 3.2000e+000 78421  5.6048e+000 -2.5911e+002  2.4947e+001 57928 78562,78346,78320
 3.2000e+000 78398 -2.9458e+001 -2.4022e+002  4.1672e+000 57928 78242,78372,78268
 3.2000e+000 78516 -7.8183e+001 -3.1120e+002 -1.5948e+001 57928 78372,78346,78490
 3.2000e+000 78539 -5.9699e+001 -2.3640e+002 -1.9610e+000 57928 78372,78490,78268
 3.2000e+000 78588 -9.1235e+001 -2.4371e+002  2.9306e+000 57928 78294,78490,78562
 3.2000e+000 78611 -3.9980e+001 -2.1657e+002  3.0025e+001 57928 78294,78562,78320
 3.2000e+000 79068 -1.6789e+002 -3.6652e+002 -8.0749e+001 57467 78794,78924,78820
 3.2000e+000 79045 -1.3145e+002 -3.5357e+002 -8.8874e+001 57467 78794,78950,78924
 3.2000e+000 79022 -3.3503e+001 -3.0530e+002  1.9420e+001 57467 78820,78898,78872
 3.2000e+000 78999 -1.4172e+002 -4.3274e+002 -5.2933e+001 57467 78820,78924,78898
 3.2000e+000 78976 -4.7380e+001 -3.2128e+002  3.5257e+001 57467 78820,78872,78846
 3.2000e+000 79446 -1.4552e+002 -2.8420e+002  1.8530e-001 57120 79172,79302,79250
 3.2000e+000 79423 -1.2991e+002 -2.7722e+002 -7.4500e+000 57120 79172,79328,79302
 3.2000e+000 79400 -1.3067e+002 -2.4771e+002 -9.9047e+000 57120 79172,79250,79198
 3.2000e+000 79377 -9.8140e+001 -3.5719e+002  1.4734e+001 57120 79250,79302,79276
 3.2000e+000 79354 -1.6151e+002 -2.6867e+002 -1.9696e+001 57120 79198,79250,79224
 3.2000e+000 79952 -1.9457e+002 -3.0067e+002 -1.2326e+000 56773 79629,79785,79655
 3.2000e+000 79929 -6.5107e+001 -2.6227e+002  1.2437e+001 56773 79629,79811,79785
 3.2000e+000 79906 -1.4888e+002 -3.2891e+002  1.9910e+001 56773 79655,79733,79681
 3.2000e+000 79883 -1.4751e+002 -2.9020e+002  2.6248e+000 56773 79655,79785,79733
 3.2000e+000 79860 -1.3460e+002 -3.7844e+002 -5.2264e+001 56773 79733,79785,79759
 3.2000e+000 79837 -7.4230e+001 -2.9465e+002  5.4483e+001 56773 79681,79733,79707
 3.2000e+000 80281 -5.9999e+001 -2.3178e+002 -1.8152e+001 56319 80108,80160,80134
 3.2000e+000 80258 -6.8664e+001 -2.5341e+002 -2.3482e+001 56319 80056,80160,80108
 3.2000e+000 80235 -2.1529e+001 -2.2286e+002  1.3699e+001 56319 80056,80186,80160
 3.2000e+000 80212 -9.7839e+001 -3.2192e+002 -1.3724e+001 56319 80056,80108,80082
 3.2000e+000 80738 -3.7438e+001 -2.7296e+002  1.6818e+001 55957 80516,80620,80594
 3.2000e+000 80715 -9.1181e+001 -2.4696e+002  1.4614e+001 55957 80464,80620,80516
 3.2000e+000 80692 -7.9612e+001 -2.9681e+002  1.6122e+001 55957 80761,80568,80542
 3.2000e+000 80669 -6.3414e+001 -2.9247e+002  1.8942e+001 55957 80761,80542,80516
 3.2000e+000 80646 -9.3431e+001 -2.5158e+002  3.1602e+001 55957 80464,80516,80490
 3.2000e+000 80787 -9.4982e+001 -2.9514e+002  1.1709e+001 55957 80594,80568,80761
 3.2000e+000 80810 -7.9811e+001 -2.9129e+002  1.4742e+001 55957 80594,80761,80516
 3.2000e+000 81210 -5.7091e+001 -2.7341e+002 -3.4199e+001 55317 80936,80988,80962
 3.2000e+000 81187 -4.6290e+001 -2.9026e+002 -1.2385e+001 55317 80936,81066,80988
 3.2000e+000 81164 -4.7546e+001 -3.2149e+002 -1.5746e+000 55317 80936,81092,81066
 3.2000e+000 81141 -1.1299e+002 -3.2366e+002 -3.0844e+001 55317 80988,81066,81014
 3.2000e+000 81118 -1.1791e+001 -2.0278e+002  1.5073e+001 55317 81014,81066,81040
 3.2000e+000 81539 -1.2699e+002 -2.9478e+002  9.9863e+000 54913 81340,81418,81392
 3.2000e+000 81516 -4.8610e+001 -2.3659e+002 -1.6234e+001 54913 81340,81444,81418
 3.2000e+000 81493 -7.7542e+001 -2.5428e+002 -3.3500e+001 54913 81314,81444,81340
 3.2000e+000 81470 -1.4234e+002 -3.0892e+002  3.8587e+000 54913 81340,81392,81366
 3.2000e+000 81787 -6.8770e+001 -3.0393e+002 -1.4137e+000 54601 81588,81692,81640
 3.2000e+000 81764 -1.0341e+002 -3.0810e+002 -9.0115e+000 54601 81562,81692,81588
 3.2000e+000 81741 -5.2238e+001 -3.0831e+002  4.1668e+001 54601 81588,81640,81614
 3.2000e+000 81718 -7.0906e+001 -3.6077e+002 -3.0547e+001 54601 81640,81692,81666
 3.2000e+000 82344 -1.1957e+002 -3.3126e+002 -1.8251e+001 54090 81998,82102,82076
 3.2000e+000 82321 -1.6179e+002 -3.4978e+002 -1.0018e+001 54090 81998,82154,82102
 3.2000e+000 82298 -1.4682e+002 -3.4223e+002 -6.0731e+000 54090 81972,82154,81998
 3.2000e+000 82275 -1.6838e+002 -3.0880e+002 -2.1136e+001 54090 81998,82076,82024
 3.2000e+000 82252 -1.7835e+002 -3.6426e+002  1.7463e+001 54090 81972,82180,82154
 3.2000e+000 82229 -2.2519e+002 -4.2523e+002  2.4082e+001 54090 82102,82154,82128
 3.2000e+000 82206 -3.0148e+001 -2.3286e+002 -5.2347e+001 54090 82024,82076,82050
 3.2000e+000 82722 -1.9201e+002 -3.4782e+002 -1.1432e+001 53579 82500,82578,82552
 3.2000e+000 82699 -1.4031e+002 -3.1637e+002  9.4037e+000 53579 82448,82578,82500
 3.2000e+000 82676 -1.5311e+002 -3.5854e+002  1.0349e+001 53579 82448,82500,82474
 3.2000e+000 82653 -1.8850e+002 -3.4104e+002  2.6757e+001 53579 82448,82604,82578
 3.2000e+000 82630 -9.9465e+001 -3.2327e+002 -1.3167e+001 53579 82500,82552,82526
 3.2000e+000 83356 -9.0695e+001 -2.4575e+002 -2.5874e+001 53189 83379,83088,83036
 3.2000e+000 83333 -8.7519e+001 -2.7675e+002 -2.3443e+001 53189 83379,83036,82984
 3.2000e+000 83310 -3.0247e+001 -2.5129e+002  4.8228e+001 53189 82984,83192,83166
 3.2000e+000 83287  1.4671e+000 -2.0518e+002 -1.8685e+001 53189 83036,83088,83062
 3.2000e+000 83264 -6.7597e+001 -3.1092e+002 -4.4815e+001 53189 82984,83036,83010
 3.2000e+000 83241 -5.0221e+001 -2.9075e+002  7.4551e+000 53189 83114,83166,83140
 3.2000e+000 83218 -1.2718e+002 -3.1342e+002  7.8728e+000 53189 83088,83166,83114
 3.2000e+000 83405 -9.1077e+001 -2.6670e+002 -1.3016e+001 53189 83166,83088,83379
 3.2000e+000 83428 -8.3276e+001 -2.9410e+002 -1.2548e+001 53189 83166,83379,82984
 3.2000e+000 83725 -1.2934e+002 -3.7023e+002 -3.1932e+001 52585 83748,83529,83503
 3.2000e+000 83702 -9.7111e+001 -3.5998e+002 -1.9115e+001 52585 83820,83748,83503
 3.2000e+000 83679 -6.6975e+001 -3.5344e+002 -1.6222e+001 52585 83820,83503,83477
 3.2000e+000 83656 -3.8137e+001 -3.2400e+002  4.5511e+001 52585 83477,83607,83581
 3.2000e+000 83633  3.6922e+001 -2.9122e+002  4.9990e+001 52585 83451,83607,83477
 3.2000e+000 83774 -1.1153e+002 -3.2640e+002 -2.8737e+001 52585 83555,83529,83748
 3.2000e+000 83797 -1.4577e+002 -3.5600e+002 -1.5722e+001 52585 83555,83748,83581
 3.2000e+000 83846 -1.2558e+002 -3.4363e+002 -3.8038e+000 52585 83581,83748,83820
 3.2000e+000 83869 -1.0347e+002 -3.4201e+002 -4.0844e+000 52585 83581,83820,83477
 3.2000e+000 84200 -9.2211e+001 -3.3621e+002 -1.1378e+001 52024 84001,84105,84079
 3.2000e+000 84177 -4.6954e+001 -3.2830e+002 -2.3252e+001 52024 83975,84105,84001
 3.2000e+000 84154 -8.3096e+001 -3.3573e+002 -1.0222e+001 52024 84001,84079,84053
 3.2000e+000 84131 -3.8040e+001 -2.1810e+002  4.1711e+001 52024 84001,84053,84027
 3.2000e+000 84399 -7.7337e+001 -3.2992e+002  2.5026e-001 51470 84422,84275,84249
 3.2000e+000 84376 -7.0187e+001 -3.1605e+002  4.0729e+000 51470 84422,84249,84223
 3.2000e+000 84353 -8.8633e+001 -3.4527e+002 -4.7337e+001 51470 84275,84327,84301
 3.2000e+000 84448 -8.4766e+001 -3.1674e+002 -3.8538e-001 51470 84327,84275,84422
 3.2000e+000 84471 -7.9480e+001 -3.0556e+002  3.1232e+000 51470 84327,84422,84223
 3.2000e+000 84753 -9.8461e+001 -2.8369e+002 -2.3122e+000 51073 84603,84655,84629
 3.2000e+000 84730 -2.0507e+002 -3.3176e+002 -1.4865e+001 51073 84776,84655,84603
 3.2000e+000 84707 -3.9497e+001 -2.8844e+002 -8.2184e+001 51073 84577,84681,84655
 3.2000e+000 84802 -1.2895e+002 -2.8959e+002 -3.7373e+001 51073 84577,84655,84776
 3.2000e+000 85178 -1.6927e+002 -3.7128e+002  3.3304e+001 50519 85201,85008,84982
 3.2000e+000 85155 -1.6032e+002 -3.4477e+002  2.4055e+001 50519 85273,85201,84982
 3.2000e+000 85132 -1.5113e+002 -3.4489e+002  1.8183e+001 50519 85273,84982,84930
 3.2000e+000 85109 -1.4711e+002 -3.3677e+002  1.5822e+001 50519 84930,84982,84956
 3.2000e+000 85086 -1.3163e+002 -3.3956e+002  1.1394e+001 50519 85008,85060,85034
 3.2000e+000 85227 -1.3975e+002 -3.5287e+002  1.4997e+001 50519 85060,85008,85201
 3.2000e+000 85250 -1.5849e+002 -3.5408e+002  9.9819e+000 50519 85060,85201,84904
 3.2000e+000 85299 -1.5055e+002 -3.4894e+002  7.7656e+000 50519 84904,85201,85273
 3.2000e+000 85322 -1.1833e+002 -3.0905e+002 -6.7283e+000 50519 84904,85273,84930
 3.2000e+000 85958 -9.1160e+001 -3.0560e+002 -9.7579e+000 50093 85981,85768,85716
 3.2000e+000 85935 -8.0469e+001 -2.8160e+002 -7.8015e+000 50093 85981,85716,85612
 3.2000e+000 85912 -1.0783e+002 -2.8799e+002  4.4665e+000 50093 85612,85716,85664
 3.2000e+000 85889 -7.1650e+001 -2.9445e+002 -3.3314e+000 50093 85716,85768,85742
 3.2000e+000 85866 -8.9615e+001 -2.1885e+002 -6.7454e+001 50093 85664,85716,85690
 3.2000e+000 85843  1.8402e+001 -2.0796e+002 -2.0559e+001 50093 85586,85794,85612
 3.2000e+000 85820 -7.9696e+001 -3.8026e+002  2.5177e+001 50093 85612,85664,85638
 3.2000e+000 86007 -1.1580e+002 -3.2889e+002 -4.5943e+001 50093 85794,85768,85981
 3.2000e+000 86030 -8.0920e+001 -2.5553e+002 -3.4748e+001 50093 85794,85981,85612
 3.2000e+000 86131 -1.0639e+002 -3.4278e+002  4.6966e+001 49895 86053,86105,86079
 3.2000e+000 86639 -7.5904e+001 -2.1489e+002 -4.4625e+001 49391 86662,86394,86368
 3.2000e+000 86616 -8.9888e+001 -2.6215e+002 -4.0314e+001 49391 86662,86368,86342
 3.2000e+000 86593 -4.7753e+001 -2.6102e+002 -1.2114e+001 49391 86342,86498,86472
 3.2000e+000 86570 -3.1717e+001 -2.8449e+002 -1.4225e+001 49391 86316,86498,86342
 3.2000e+000 86547 -1.4341e+002 -3.9674e+002 -1.8057e+001 49391 86394,86472,86446
 3.2000e+000 86524 -1.0875e+001 -3.7712e+002  1.9537e+000 49391 86394,86446,86420
 3.2000e+000 86688 -8.4711e+001 -2.5901e+002 -2.4128e+001 49391 86472,86394,86662
 3.2000e+000 86711 -7.6222e+001 -2.7931e+002 -2.3496e+001 49391 86472,86662,86342
 3.2000e+000 87089 -1.1134e+002 -3.1850e+002  8.8147e+000 48987 86815,86919,86867
 3.2000e+000 87066 -1.1275e+002 -3.2886e+002  1.3952e+001 48987 86815,86971,86919
 3.2000e+000 87043 -4.2848e+001 -3.5275e+002 -3.1279e+001 48987 86867,86919,86893
 3.2000e+000 87020 -1.2780e+002 -3.6282e+002  2.8534e+001 48987 86815,86867,86841
 3.2000e+000 86997 -1.2653e+002 -2.8140e+002  4.6262e+001 48987 86919,86971,86945
 3.2000e+000 87467 -2.1278e+002 -3.1584e+002  1.6230e+001 48540 87490,87245,87219
 3.2000e+000 87444 -1.5325e+002 -2.9474e+002  1.8709e+000 48540 87562,87490,87219
 3.2000e+000 87421 -1.1487e+002 -2.7925e+002  1.3965e+001 48540 87562,87219,87349
 3.2000e+000 87398 -1.5922e+002 -2.4729e+002 -1.6968e+001 48540 87245,87297,87271
 3.2000e+000 87375 -9.4601e+001 -2.9211e+002  1.1001e+001 48540 87193,87349,87219
 3.2000e+000 87516 -1.4551e+002 -3.0120e+002  3.2744e+000 48540 87297,87245,87490
 3.2000e+000 87539 -1.4650e+002 -3.0110e+002  4.7645e+000 48540 87297,87490,87323
 3.2000e+000 87588 -1.1622e+002 -2.7684e+002  2.6775e+001 48540 87323,87490,87562
 3.2000e+000 87611 -9.7793e+001 -2.8190e+002  3.4889e+001 48540 87323,87562,87349
 3.2000e+000 87810 -1.5320e+002 -5.5047e+002 -3.9352e+001 48136 87660,87712,87686
 3.2000e+000 87787 -8.9014e+001 -3.3079e+002 -1.8419e+001 48136 87660,87738,87712
 3.2000e+000 87764 -2.0474e+002 -3.3813e+002 -5.9032e+001 48136 87634,87738,87660
 3.2000e+000 88205 -1.3792e+002 -3.4414e+002 -2.9194e+001 47210 88300,88228,87937
 3.2000e+000 88182 -1.2007e+002 -3.3457e+002 -8.0187e+000 47210 88228,87833,88041
 3.2000e+000 88159 -1.3991e+002 -3.6805e+002 -4.6705e+001 47210 88300,87937,87911
 3.2000e+000 88136 -1.3558e+002 -3.3397e+002 -4.0319e+001 47210 87833,87911,87859
 3.2000e+000 88113 -2.2775e+002 -3.0186e+002 -2.4037e+001 47210 87937,87989,87963
 3.2000e+000 88090 -1.1428e+002 -2.7138e+002  5.5683e+001 47210 87989,88041,88015
 3.2000e+000 88067 -1.5761e+002 -3.8871e+002 -5.0174e+001 47210 87859,87911,87885
 3.2000e+000 88254 -1.2256e+002 -2.8425e+002 -3.0139e+001 47210 87989,87937,88228
 3.2000e+000 88277 -1.4559e+002 -3.2841e+002 -1.0814e+001 47210 87989,88228,88041
 3.2000e+000 88326 -1.1404e+002 -3.2116e+002 -1.0586e+001 47210 87833,88228,88300
 3.2000e+000 88349 -1.1984e+002 -3.3715e+002 -2.9349e+001 47210 87833,88300,87911
 3.2000e+000 88780 -2.2281e+002 -3.8851e+002 -6.9976e+001 46642 88803,88509,88483
 3.2000e+000 88757 -1.6078e+002 -3.5028e+002 -3.7317e+001 46642 88803,88483,88639
 3.2000e+000 88734 -1.7828e+002 -2.8796e+002 -4.2787e+001 46642 88875,88561,88509
 3.2000e+000 88711 -1.8044e+002 -2.6768e+002 -7.4365e+000 46642 88509,88561,88535
 3.2000e+000 88688 -1.0600e+002 -3.9197e+002  2.0243e+000 46642 88457,88639,88483
 3.2000e+000 88665 -2.0510e+002 -4.6965e+002 -1.7503e+001 46642 88561,88613,88587
 3.2000e+000 88829 -1.8022e+002 -3.1427e+002 -4.8708e+001 46642 88875,88509,88803
 3.2000e+000 88852 -1.7635e+002 -3.7953e+002 -3.1513e+001 46642 88613,88803,88639
 3.2000e+000 88901 -1.4655e+002 -3.2445e+002 -2.0534e+001 46642 88613,88561,88875
 3.2000e+000 88924 -1.6012e+002 -3.6705e+002 -2.5660e+001 46642 88613,88875,88803
 3.2000e+000 89253 -6.6985e+001 -3.3374e+002  8.5730e+000 46444 89080,89158,89132
 3.2000e+000 89230 -7.8323e+001 -3.5918e+002  5.6897e+000 46444 89028,89158,89080
 3.2000e+000 89207 -2.9191e+001 -3.1851e+002 -1.1767e+001 46444 89028,89080,89054
 3.2000e+000 89184 -3.4233e+001 -3.6056e+002 -2.4825e+001 46444 89080,89132,89106
 3.2000e+000 89631 -8.8681e+001 -2.1746e+002  4.5941e+000 46040 89383,89461,89435
 3.2000e+000 89608 -9.3938e+001 -2.4105e+002 -1.5125e+001 46040 89383,89487,89461
 3.2000e+000 89585 -9.7036e+001 -2.8065e+002 -8.4711e+000 46040 89383,89435,89409
 3.2000e+000 89562 -7.3231e+001 -2.0231e+002 -3.1646e+001 46040 89383,89513,89487
 3.2000e+000 89539 -3.1522e+001 -1.8260e+002 -3.8465e+001 46040 89357,89513,89383
 3.2000e+000 90009 -8.9293e+001 -2.7299e+002 -8.9969e-001 45636 89813,89891,89839
 3.2000e+000 89986 -9.2913e+001 -2.5594e+002  1.5729e+001 45636 89787,89891,89813
 3.2000e+000 89963 -8.1498e+001 -2.5669e+002 -6.4573e+000 45636 89839,89891,89865
 3.2000e+000 89940 -1.0683e+002 -2.8586e+002  1.0206e+001 45636 89735,89891,89787
 3.2000e+000 89917 -7.7616e+001 -2.8973e+002 -1.5531e+001 45636 89735,89787,89761
 3.2000e+000 90208 -6.1123e+001 -2.1407e+002 -4.3055e+001 45175 90231,90058,90032
 3.2000e+000 90185 -3.5186e+001 -1.9538e+002 -6.4232e+001 45175 90231,90032,90136
 3.2000e+000 90162 -7.3625e+001 -1.7494e+002 -3.2331e+000 45175 90058,90110,90084
 3.2000e+000 90257 -8.9474e+001 -2.4052e+002 -1.0885e+001 45175 90110,90058,90231
 3.2000e+000 90280 -4.0182e+001 -2.0783e+002 -3.4577e+001 45175 90110,90231,90136
 3.2000e+000 90528 -6.7884e+001 -2.2120e+002 -2.9763e+001 44513 90695,90551,90407
 3.2000e+000 90505 -7.3870e+001 -2.0068e+002 -1.4861e+001 44513 90551,90355,90329
 3.2000e+000 90482 -9.0152e+001 -2.1659e+002 -2.7218e+001 44513 90623,90303,90433
 3.2000e+000 90459 -5.0928e+001 -2.0610e+002 -2.1979e+001 44513 90695,90407,90381
 3.2000e+000 90577 -1.0021e+002 -2.3170e+002 -5.0548e+001 44513 90433,90407,90551
 3.2000e+000 90600 -8.5750e+001 -2.1224e+002 -2.5433e+001 44513 90623,90433,90551
 3.2000e+000 90649 -8.8413e+001 -2.1088e+002 -2.4591e+001 44513 90329,90303,90623
 3.2000e+000 90672 -8.8800e+001 -2.1081e+002 -2.4607e+001 44513 90329,90623,90551
 3.2000e+000 90721 -8.8176e+001 -2.0150e+002 -3.3406e+001 44513 90355,90551,90695
 3.2000e+000 90744 -8.3030e+001 -1.9471e+002 -3.0521e+001 44513 90355,90695,90381
 3.2000e+000 91077  7.5471e-001 -2.3365e+002 -1.6056e+001 44059 91100,90930,90904
 3.2000e+000 91054 -9.0321e+001 -2.5170e+002  1.2022e+001 44059 91100,90904,90982
 3.2000e+000 91031 -1.6269e+002 -2.9277e+002 -2.1469e+001 44059 90878,90982,90904
 3.2000e+000 91008 -5.1876e+001 -2.1937e+002  1.3259e+001 44059 90852,90982,90878
 3.2000e+000 91126 -1.3409e+002 -2.6766e+002 -1.9047e+001 44059 91172,91100,90956
 3.2000e+000 91149 -8.5114e+001 -2.4447e+002 -1.1499e+001 44059 90956,91100,90982
 3.2000e+000 91198 -2.7196e+000 -1.3741e+002 -7.1587e+001 44059 90930,91100,91172
 3.2000e+000 91677 -1.2810e+002 -1.9634e+002  1.8936e+001 43549 91455,91533,91481
 3.2000e+000 91654 -5.6891e+001 -1.9869e+002  2.5728e+001 43549 91429,91533,91455
 3.2000e+000 91631 -1.2356e+002 -1.9528e+002  9.5841e+000 43549 91481,91533,91507
 3.2000e+000 91608 -3.3086e+001 -1.8884e+002  1.2795e+001 43549 91429,91559,91533
 3.2000e+000 91585 -7.0637e+000 -7.1834e+001  1.7929e+000 43549 91403,91559,91429
 3.2000e+000 92006 -1.0960e+002 -2.8364e+002 -1.4385e+000 43059 91781,91885,91807
 3.2000e+000 91983 -1.1631e+002 -2.7023e+002  4.4279e+001 43059 91781,91911,91885
 3.2000e+000 91960 -1.1100e+002 -2.8559e+002 -4.5078e-001 43059 91807,91885,91833
 3.2000e+000 91937 -7.1634e+001 -2.7052e+002 -5.8171e+000 43059 91833,91885,91859
 3.2000e+000 92561 -9.8449e+001 -2.0994e+002 -2.2325e+001 42598 92584,92215,92189
 3.2000e+000 92538 -1.0585e+002 -2.3602e+002 -2.1419e+001 42598 92656,92584,92189
 3.2000e+000 92515 -9.4399e+001 -2.6615e+002 -6.0167e+000 42598 92656,92189,92397
 3.2000e+000 92492 -1.1991e+002 -1.8748e+002 -2.7495e+001 42598 92241,92319,92293
 3.2000e+000 92469 -1.1516e+002 -2.2463e+002  1.3270e+001 42598 92319,92397,92371
 3.2000e+000 92446 -4.5818e+001 -2.5792e+002  1.0610e+002 42598 92319,92371,92345
 3.2000e+000 92423 -1.1931e+002 -1.9424e+002 -4.0080e+001 42598 92241,92293,92267
 3.2000e+000 92610 -1.0353e+002 -2.1151e+002 -2.1695e+001 42598 92241,92215,92584
 3.2000e+000 92633 -9.5179e+001 -1.9286e+002 -2.7539e+001 42598 92241,92584,92319
 3.2000e+000 92682 -9.5585e+001 -1.9538e+002 -1.4903e+001 42598 92319,92584,92656
 3.2000e+000 92705 -7.7573e+001 -2.1629e+002 -3.3608e+000 42598 92319,92656,92397
 3.2000e+000 92953 -1.1683e+002 -3.1006e+002  1.6535e+001 42094 92976,92806,92780
 3.2000e+000 92930 -1.2957e+002 -2.9139e+002 -5.8259e-002 42094 92976,92780,92754
 3.2000e+000 92907 -2.6600e+001 -2.9829e+002 -2.6606e+000 42094 93048,92832,92806
 3.2000e+000 92884 -1.6819e+002 -2.9430e+002 -1.9459e+001 42094 92728,92858,92754
 3.2000e+000 93002 -7.4443e+001 -2.8659e+002  7.3618e+000 42094 93048,92806,92976
 3.2000e+000 93025 -1.2096e+002 -2.8663e+002 -4.4166e+000 42094 92858,92976,92754
 3.2000e+000 93074 -9.3753e+001 -3.2187e+002 -3.0209e+000 42094 92858,92832,93048
 3.2000e+000 93097 -1.3246e+002 -3.0417e+002  2.6977e+000 42094 92858,93048,92976
 3.2000e+000 93605 -1.2520e+002 -3.5996e+002 -1.3394e+001 41846 93628,93412,93386
 3.2000e+000 93582 -9.5187e+001 -2.7125e+002 -2.1490e+000 41846 93628,93386,93308
 3.2000e+000 93559 -1.4434e+002 -2.8273e+002 -5.8810e+001 41846 93700,93464,93438
 3.2000e+000 93536 -1.3640e+002 -3.7602e+002  5.1149e+000 41846 93308,93386,93334
 3.2000e+000 93513 -1.7669e+002 -2.7201e+002 -4.4154e+001 41846 93334,93386,93360
 3.2000e+000 93490 -1.3839e+002 -2.4968e+002 -5.6695e+001 41846 93282,93464,93308
 3.2000e+000 93654 -1.0857e+002 -2.8786e+002 -2.7227e+001 41846 93438,93412,93628
 3.2000e+000 93677 -1.4515e+002 -2.8882e+002 -2.7296e+001 41846 93700,93438,93628
 3.2000e+000 93726 -1.3032e+002 -2.4391e+002 -5.4010e+001 41846 93308,93464,93700
 3.2000e+000 93749 -1.2579e+002 -2.3769e+002 -2.2910e+001 41846 93308,93700,93628
 3.2000e+000 94255 -9.5826e+001 -2.9227e+002  1.8717e+001 41385 93958,94114,94088
 3.2000e+000 94232 -8.2609e+001 -3.1523e+002  7.5173e+000 41385 93932,94114,93958
 3.2000e+000 94209 -1.6740e+002 -3.3920e+002  5.5247e+001 41385 93958,94088,94062
 3.2000e+000 94186 -1.7370e+002 -2.4442e+002  4.0418e+001 41385 93958,94062,93984
 3.2000e+000 94163 -1.5156e+002 -2.3938e+002  3.7453e+001 41385 93984,94062,94036
 3.2000e+000 94140 -1.0334e+002 -3.2809e+002  5.4681e+001 41385 93984,94036,94010
 3.2000e+000 94476 -2.5150e+001 -3.9600e+002  2.5684e+001 40881 94326,94378,94352
 3.2000e+000 94453 -6.2739e+001 -3.2492e+002  2.7924e+001 40881 94300,94378,94326
 3.2000e+000 94430 -8.0189e+001 -2.9974e+002  4.0704e+000 40881 94300,94404,94378
 3.2000e+000 94626 -9.2351e+001 -2.4038e+002 -2.4964e+000 40591 94649,94551,94525
 3.2000e+000 94603 -4.9628e+001 -1.4926e+002  2.4365e+000 40591 94781,94577,94551
 3.2000e+000 94675 -3.1224e+001 -1.7414e+002 -2.8472e+001 40591 94781,94551,94649
 3.2000e+000 94807 -2.1197e+000 -1.0227e+002  3.0425e+001 40591 94499,94577,94781
 3.2000e+000 94830  2.7218e+000 -1.5204e+002 -2.0960e+000 40591 94499,94781,94649
 3.2000e+000 95336 -2.0596e+002 -2.7587e+002 -4.3120e+001 40187 95013,95169,95039
 3.2000e+000 95313 -4.7877e+001 -2.5011e+002  6.5775e+000 40187 95013,95195,95169
 3.2000e+000 95290 -3.4504e+001 -2.7128e+002 -3.0363e+001 40187 95039,95143,95065
 3.2000e+000 95267 -1.5445e+002 -3.1874e+002 -4.6801e+001 40187 95039,95169,95143
 3.2000e+000 95244 -6.6435e+001 -2.4106e+002 -2.4629e+001 40187 95091,95143,95117
 3.2000e+000 95221 -2.0461e+001 -1.5063e+002 -8.9780e+000 40187 95065,95143,95091
 3.2000e+000 95665 -7.8457e+001 -2.1148e+002  9.1103e+001 39626 95466,95570,95544
 3.2000e+000 95642 -1.4601e+002 -1.7101e+002  5.8878e+001 39626 95440,95570,95466
 3.2000e+000 95619 -2.2313e+002 -2.7970e+002  5.7703e+001 39626 95466,95544,95492
 3.2000e+000 95596 -4.7308e+001 -2.1599e+002  8.9205e+001 39626 95492,95544,95518
 3.2000e+000 95913 -1.1445e+002 -2.5201e+002 -3.7926e+001 39136 96080,95936,95766
 3.2000e+000 95890 -7.8924e+001 -2.7070e+002 -2.3116e+001 39136 95936,95714,95688
 3.2000e+000 95867 -2.0160e+002 -2.6985e+002  1.0163e+001 39136 96008,95792,95766
 3.2000e+000 95844 -9.3977e+001 -2.4457e+002 -2.9117e+001 39136 96080,95766,95740
 3.2000e+000 95962 -1.5946e+002 -2.7984e+002 -2.4815e+001 39136 96008,95766,95936
 3.2000e+000 95985 -1.0281e+002 -3.2946e+002 -6.2750e+000 39136 95818,95936,95688
 3.2000e+000 96034 -9.9724e+001 -2.2552e+002  1.6753e+001 39136 95818,95792,96008
 3.2000e+000 96057 -8.8590e+001 -2.4765e+002 -1.7662e+001 39136 95818,96008,95936
 3.2000e+000 96106 -1.0447e+002 -2.4970e+002 -1.0372e+001 39136 95714,95936,96080
 3.2000e+000 96129 -7.2367e+001 -2.4071e+002 -3.6037e+000 39136 95714,96080,95740
 3.2000e+000 96350 -9.5786e+001 -2.2641e+002 -1.1100e+001 38824 96200,96278,96252
 3.2000e+000 96327 -8.5247e+001 -2.2148e+002 -9.6931e+000 38824 96174,96278,96200
 3.2000e+000 96304 -3.8626e+001 -2.0369e+002 -3.1941e+001 38824 96200,96252,96226
 3.2000e+000 96830 -1.3649e+002 -2.3737e+002 -1.5474e+001 38320 97069,96536,96484
 3.2000e+000 96807 -1.3399e+002 -2.4116e+002 -1.5239e+001 38320 97069,96484,96853
 3.2000e+000 96784 -1.4917e+002 -2.5859e+002  5.3046e+000 38320 96853,96484,96458
 3.2000e+000 96761 -8.1883e+001 -2.0856e+002 -2.4843e+001 38320 96925,96640,96614
 3.2000e+000 96738 -1.2924e+002 -2.1794e+002 -1.0657e+001 38320 96997,96666,96640
 3.2000e+000 96715 -1.0762e+002 -2.8467e+002 -4.7634e+000 38320 97141,96588,96562
 3.2000e+000 96692 -1.7000e+002 -2.7451e+002 -6.2438e-001 38320 96484,96536,96510
 3.2000e+000 96879 -1.3289e+002 -2.5622e+002 -8.1841e+000 38320 97141,96562,96853
 3.2000e+000 96902 -1.2374e+002 -2.4979e+002 -8.2314e+000 38320 96925,96614,96853
 3.2000e+000 96951 -1.2628e+002 -2.1563e+002 -1.2195e+001 38320 96997,96640,96925
 3.2000e+000 96974 -1.2089e+002 -2.1174e+002 -7.0517e+000 38320 96458,96925,96853
 3.2000e+000 97023 -1.4275e+002 -2.2065e+002 -3.5102e+000 38320 96458,96666,96997
 3.2000e+000 97046 -1.3200e+002 -2.1535e+002 -5.2338e+000 38320 96458,96997,96925
 3.2000e+000 97095 -1.4561e+002 -2.3467e+002  4.0353e+000 38320 96562,96536,97069
 3.2000e+000 97118 -1.2655e+002 -2.3916e+002 -1.2140e+001 38320 96562,97069,96853
 3.2000e+000 97167 -6.3243e+001 -2.5856e+002 -1.6820e+001 38320 96614,96588,97141
 3.2000e+000 97190 -1.0489e+002 -2.4200e+002 -1.6857e+001 38320 96614,97141,96853
 3.2000e+000 97519 -1.0018e+002 -2.9691e+002  7.8522e+001 37766 97542,97398,97372
 3.2000e+000 97496 -1.1951e+002 -2.3578e+002  5.4858e+001 37766 97542,97372,97346
 3.2000e+000 97473 -1.1914e+002 -2.4663e+002  5.6673e+000 37766 97294,97424,97346
 3.2000e+000 97450 -1.3577e+002 -2.9377e+002  1.6986e+000 37766 97294,97346,97320
 3.2000e+000 97568 -5.4094e+001 -3.1001e+002  2.8216e+001 37766 97424,97398,97542
 3.2000e+000 97591 -8.4790e+001 -2.4023e+002  8.5227e+000 37766 97424,97542,97346
 3.2000e+000 98048 -1.2602e+002 -1.8504e+002 -6.2412e+001 37262 98071,97878,97852
 3.2000e+000 98025 -1.0625e+002 -2.2210e+002 -2.5915e+001 37262 98071,97852,97800
 3.2000e+000 98002 -1.2467e+002 -2.7456e+002 -2.4192e+001 37262 97800,97852,97826
 3.2000e+000 97979 -1.2745e+002 -2.4108e+002  6.1821e+000 37262 97800,97930,97904
 3.2000e+000 97956 -8.6374e+001 -2.9065e+002  1.8425e+001 37262 97774,97930,97800
 3.2000e+000 98097 -1.8055e+002 -2.1153e+002 -4.4940e+001 37262 97904,97878,98071
 3.2000e+000 98120 -1.3614e+002 -2.5207e+002 -1.1630e+001 37262 97904,98071,97800
 3.2000e+000 98449 -6.0432e+001 -1.7149e+002 -2.1809e+001 36950 98472,98302,98250
 3.2000e+000 98426 -3.3758e+001 -1.6259e+002 -2.6913e+001 36950 98472,98250,98354
 3.2000e+000 98403 -9.5704e+001 -1.9056e+002  2.1714e+001 36950 98250,98302,98276
 3.2000e+000 98380 -2.2103e+001 -1.2703e+002  1.4169e+001 36950 98224,98354,98250
 3.2000e+000 98498 -4.0743e+001 -1.9383e+002 -5.9521e+000 36950 98328,98302,98472
 3.2000e+000 98521 -9.3816e+000 -1.8051e+002 -1.5531e+001 36950 98328,98472,98354
 3.2000e+000 99125 -1.3667e+002 -1.3461e+002  1.3429e+001 36296 98704,98756,98730
 3.2000e+000 99102 -1.3316e+002 -1.5012e+002  1.2867e+001 36296 98704,98938,98756
 3.2000e+000 99079 -9.6248e+001 -1.8346e+002 -5.0779e+000 36296 99148,98938,98912
 3.2000e+000 99056 -1.0336e+002 -1.8983e+002  4.2900e+001 36296 99292,99220,98782
 3.2000e+000 99033 -8.3638e+001 -2.1243e+002  4.6813e+000 36296 99148,98912,98834
 3.2000e+000 99010 -9.8115e+001 -1.6155e+002  4.7358e+001 36296 99292,98782,98756
 3.2000e+000 98987 -7.9915e+001 -3.7449e+002 -6.9153e+001 36296 98834,98912,98886
 3.2000e+000 98964 -1.3652e+002 -5.4498e+002 -8.8453e+001 36296 98834,98886,98860
 3.2000e+000 99174 -1.1914e+002 -2.2728e+002  6.4680e+000 36296 99220,98938,99148
 3.2000e+000 99197 -8.2036e+001 -2.5941e+002  2.7666e+001 36296 98808,99148,98834
 3.2000e+000 99246 -1.0249e+002 -1.8684e+002  1.0656e+002 36296 98808,98782,99220
 3.2000e+000 99269 -4.1191e+001 -1.6519e+002  3.4004e+001 36296 98808,99220,99148
 3.2000e+000 99318 -1.1055e+002 -1.6244e+002  2.3632e+001 36296 98938,99220,99292
 3.2000e+000 99341 -1.1296e+002 -1.6681e+002  2.8048e+001 36296 98938,99292,98756
 3.2000e+000 99719 -1.3687e+002 -2.8804e+002 -1.2854e+000 35742 99742,99471,99601
 3.2000e+000 99696 -1.4189e+002 -2.2633e+002  2.6318e+001 35742 99445,99601,99471
 3.2000e+000 99673 -1.3069e+002 -2.7395e+002 -1.3317e+001 35742 99742,99601,99575
 3.2000e+000 99650 -1.1334e+002 -3.3915e+002 -1.0675e+001 35742 99814,99549,99523
 3.2000e+000 99627 -8.6929e+001 -2.6207e+002 -4.7720e+000 35742 99471,99523,99497
 3.2000e+000 99768 -1.0932e+002 -2.8181e+002  4.5311e+000 35742 99523,99471,99742
 3.2000e+000 99791 -1.2909e+002 -3.1302e+002 -9.3931e+000 35742 99814,99523,99742
 3.2000e+000 99840 -1.1070e+002 -3.0676e+002 -2.0665e+001 35742 99575,99549,99814
 3.2000e+000 99863 -1.2087e+002 -2.7283e+002 -1.8546e+001 35742 99575,99814,99742
 3.2000e+000 100111 -1.0145e+002 -2.3183e+002  1.5956e+001 35302 100134,99990,99938
 3.2000e+000 100088 -8.4452e+001 -2.1155e+002  5.2175e+000 35302 100134,99938,99912
 3.2000e+000 100065 -8.5206e+001 -2.1030e+002 -6.1845e+000 35302 100206,99886,100016
 3.2000e+000 100042 -1.3430e+002 -2.1611e+002  9.2128e+000 35302 99938,99990,99964
 3.2000e+000 100160 -7.9379e+001 -2.2352e+002  2.9274e+000 35302 100016,99990,100134
 3.2000e+000 100183 -8.0505e+001 -2.1411e+002 -6.0314e+000 35302 100206,100016,100134
 3.2000e+000 100232 -8.9451e+001 -2.1489e+002 -3.3891e+000 35302 99912,99886,100206
 3.2000e+000 100255 -8.4999e+001 -2.1963e+002 -3.3638e+000 35302 99912,100206,100134
 3.2000e+000 100586 -1.3433e+002 -1.5613e+002  4.1452e+001 35012 100609,100387,100361
 3.2000e+000 100563 -1.6202e+002 -1.1707e+002 -2.8175e+001 35012 100609,100361,100465
 3.2000e+000 100540 -7.4383e+001 -8.4657e+001 -6.6819e+001 35012 100361,100491,100465
 3.2000e+000 100517 -2.8306e+001 -9.3019e+001 -6.2380e+001 35012 100413,100465,100439
 3.2000e+000 100635 -6.3554e+001 -1.2512e+002  1.7664e+001 35012 100413,100387,100609
 3.2000e+000 100658 -8.9018e+001 -7.5961e+001 -5.3741e+001 35012 100413,100609,100465
 3.2000e+000 100987 -1.0594e+002 -2.3425e+002  2.4008e+001 34700 100788,100866,100814
 3.2000e+000 100964 -9.2641e+001 -1.9397e+002  3.5304e+001 34700 101010,100866,100788
 3.2000e+000 100941 -6.2285e+001 -1.4206e+002  3.8874e+001 34700 100762,100892,100866
 3.2000e+000 100918 -1.0367e+002 -2.2606e+002  1.4393e+001 34700 100814,100866,100840
 3.2000e+000 101036 -6.1759e+001 -1.6907e+002  5.8786e+001 34700 100762,100866,101010
 3.2000e+000 101493 -1.4305e+002 -2.7127e+002 -2.4021e+001 34132 101516,101349,101297
 3.2000e+000 101470 -1.7145e+002 -3.2527e+002 -3.8565e+001 34132 101588,101516,101297
 3.2000e+000 101447 -1.7217e+002 -3.4285e+002 -5.6925e+001 34132 101588,101297,101245
 3.2000e+000 101424 -1.0559e+002 -4.0068e+002 -5.3091e+001 34132 101245,101297,101271
 3.2000e+000 101401 -1.5825e+002 -2.7334e+002 -2.8487e+001 34132 101297,101349,101323
 3.2000e+000 101542 -1.4826e+002 -3.1352e+002 -1.9116e+001 34132 101375,101349,101516
 3.2000e+000 101565 -1.3291e+002 -3.1187e+002 -1.9780e+001 34132 101375,101516,101219
 3.2000e+000 101614 -1.3642e+002 -3.2688e+002 -1.9880e+001 34132 101219,101516,101588
 3.2000e+000 101637 -1.5417e+002 -3.4403e+002 -3.7355e+001 34132 101219,101588,101245
 3.2000e+000 101858 -6.4780e+001 -2.4243e+002  2.1450e+001 33720 101708,101786,101760
 3.2000e+000 101835 -5.3602e+001 -2.6630e+002  2.9783e+001 33720 101682,101786,101708
 3.2000e+000 101812 -9.4398e+001 -2.5747e+002  1.4825e+001 33720 101708,101760,101734
 3.2000e+000 102128 -2.8953e+001 -2.8091e+002 -7.9301e+000 33130 101903,102007,101929
 3.2000e+000 102105 -3.5840e+001 -3.2480e+002  1.0197e+001 33130 101903,102033,102007
 3.2000e+000 102082 -1.3083e+001 -3.3820e+002 -6.8587e+001 33130 101929,102007,101955
 3.2000e+000 102059 -4.8170e+001 -2.3724e+002  4.9277e+000 33130 101955,102007,101981
 3.2000e+000 102461 -1.1391e+002 -2.4718e+002 -2.0398e+001 32840 102236,102340,102262
 3.2000e+000 102438 -1.0023e+002 -1.7887e+002  6.8592e+000 32840 102236,102366,102340
 3.2000e+000 102415 -7.3053e+001 -2.3609e+002 -1.7468e+001 32840 102262,102340,102288
 3.2000e+000 102392 -1.3382e+002 -2.5071e+002 -4.7250e+001 32840 102288,102340,102314
 3.2000e+000 102997 -9.4893e+001 -1.5989e+002  4.5120e+001 32493 102749,102879,102853
 3.2000e+000 102974 -7.7040e+001 -1.2563e+002  3.1276e+001 32493 102723,102879,102749
 3.2000e+000 102951 -1.1180e+002 -1.9599e+002  3.0327e+001 32493 102749,102801,102775
 3.2000e+000 102928 -1.1886e+002 -1.9397e+002  2.8789e+001 32493 102749,102853,102801
 3.2000e+000 102905 -1.1137e+002 -1.8026e+002  2.4606e+001 32493 102801,102853,102827
 3.2000e+000 103454 -1.1455e+002 -2.0230e+002 -2.0981e+001 32089 103206,103336,103310
 3.2000e+000 103431 -9.1306e+001 -2.1104e+002 -3.2258e+000 32089 103180,103336,103206
 3.2000e+000 103408 -1.2580e+002 -2.3840e+002 -3.9255e+001 32089 103206,103284,103258
 3.2000e+000 103385 -1.7688e+002 -2.4426e+002 -4.8105e+001 32089 103206,103310,103284
 3.2000e+000 103362 -9.8475e+001 -1.6657e+002 -1.9167e+001 32089 103206,103258,103232
 3.2000e+000 103783 -1.9363e+002 -2.5530e+002 -3.0276e+001 31742 103558,103662,103584
 3.2000e+000 103760 -1.5682e+002 -1.9608e+002 -6.6184e+001 31742 103558,103688,103662
 3.2000e+000 103737 -1.2491e+002 -2.0351e+002 -5.5190e+001 31742 103584,103662,103636
 3.2000e+000 103714 -1.1800e+002 -2.2201e+002 -5.9984e+001 31742 103584,103636,103610
 3.2000e+000 104112 -7.8256e+000 -2.0346e+002  4.7541e+001 31402 103939,103991,103965
 3.2000e+000 104089 -5.8153e+001 -1.7249e+002  1.9019e+001 31402 103913,103991,103939
 3.2000e+000 104066 -8.2751e+001 -1.9368e+002  8.1198e+000 31402 103913,104017,103991
 3.2000e+000 104043 -1.0244e+002 -1.8193e+002 -5.0381e+000 31402 103887,104017,103913
 3.2000e+000 104569 -1.8096e+002 -3.1599e+002  7.7935e+000 30998 104321,104425,104373
 3.2000e+000 104546 -2.0308e+002 -3.2009e+002  2.2491e-001 30998 104321,104451,104425
 3.2000e+000 104523 -1.4413e+002 -2.6123e+002  3.7897e+001 30998 104373,104425,104399
 3.2000e+000 104500 -1.6583e+002 -3.6371e+002 -2.1214e+001 30998 104295,104451,104321
 3.2000e+000 104477 -2.3641e+002 -3.6643e+002  6.3107e+001 30998 104321,104373,104347
 3.2000e+000 104947 -1.4800e+002 -2.6036e+002 -2.8577e+001 30608 104751,104803,104777
 3.2000e+000 104924 -1.0278e+002 -2.7272e+002 -1.1891e+001 30608 104725,104803,104751
 3.2000e+000 104901 -1.5350e+002 -2.6248e+002  1.5694e+001 30608 104699,104803,104725
 3.2000e+000 104878 -1.4036e+002 -2.5861e+002  1.7377e+001 30608 104673,104803,104699
 3.2000e+000 104855 -1.0748e+002 -2.4470e+002 -8.2689e+000 30608 104673,104829,104803
 3.2000e+000 105276 -1.0144e+002 -2.4511e+002  1.1739e+001 30204 105427,105129,105077
 3.2000e+000 105253 -6.5309e+001 -2.6593e+002  5.6999e+001 30204 105427,105077,105051
 3.2000e+000 105230 -5.1137e+001 -2.4565e+002  7.1754e+000 30204 105077,105129,105103
 3.2000e+000 105207 -6.5363e+001 -2.2176e+002  3.4479e+001 30204 105299,105181,105155
 3.2000e+000 105325 -6.7609e+001 -2.1688e+002  1.2373e+001 30204 105129,105181,105299
 3.2000e+000 105453 -1.2410e+002 -2.6001e+002  3.1621e+001 30204 105181,105129,105427
 3.2000e+000 105476 -1.4534e+002 -3.0708e+002  8.2832e+001 30204 105181,105427,105051
 3.2000e+000 105903 -8.4883e+001 -2.0239e+002 -1.6932e+001 29700 105606,105762,105736
 3.2000e+000 105880 -1.1042e+002 -2.0769e+002  3.9293e-001 29700 105580,105762,105606
 3.2000e+000 105857 -1.3421e+002 -2.5819e+002 -1.8317e+001 29700 105606,105710,105632
 3.2000e+000 105834 -1.0934e+002 -2.1744e+002 -7.6725e+000 29700 105606,105736,105710
 3.2000e+000 105811 -1.1018e+002 -2.3676e+002 -2.9946e+001 29700 105632,105710,105684
 3.2000e+000 105788 -1.0240e+002 -2.1675e+002 -1.2387e+000 29700 105632,105684,105658
 3.2000e+000 106102 -5.1474e+001 -2.7202e+002  8.4876e+000 29124 105978,106030,106004
 3.2000e+000 106079 -8.5106e+001 -2.7171e+002  7.3554e+000 29124 105926,106030,105978
 3.2000e+000 106056 -9.0846e+001 -3.0371e+002  3.3687e+001 29124 105926,105978,105952
 3.2000e+000 106301 -6.5866e+001 -2.5319e+002  8.5490e-001 28712 106151,106229,106203
 3.2000e+000 106278 -8.0252e+001 -2.7883e+002 -1.2087e+001 28712 106125,106229,106151
 3.2000e+000 106255 -6.8645e+001 -2.6715e+002  1.4609e+001 28712 106151,106203,106177
 3.2000e+000 106551 -8.4615e+001 -3.1359e+002  6.4694e+000 28258 106352,106404,106378
 3.2000e+000 106528 -1.0173e+002 -3.1555e+002  4.9675e-001 28258 106352,106456,106404
 3.2000e+000 106505 -1.1727e+002 -3.3995e+002 -9.5857e+000 28258 106326,106456,106352
 3.2000e+000 106482 -9.7098e+001 -2.9429e+002  6.1712e+000 28258 106404,106456,106430
 3.2000e+000 107012 -1.0776e+002 -2.7098e+002  5.3395e+001 27818 107035,106790,106764
 3.2000e+000 106989 -9.4657e+001 -2.5836e+002  2.0292e+001 27818 107035,106764,106868
 3.2000e+000 106966 -6.7280e+001 -3.1232e+002  3.0343e+001 27818 107107,106842,106816
 3.2000e+000 106943 -1.4353e+002 -2.4046e+002  1.1175e+001 27818 106738,106868,106764
 3.2000e+000 106920 -1.3412e+002 -2.0461e+002  3.4642e+001 27818 106738,106894,106868
 3.2000e+000 107061 -4.7470e+001 -2.6006e+002  6.2144e+001 27818 106816,106790,107035
 3.2000e+000 107084 -8.3320e+001 -2.9171e+002  3.2041e+001 27818 107107,106816,107035
 3.2000e+000 107133 -6.6361e+001 -2.8183e+002  1.5441e+001 27818 106868,106842,107107
 3.2000e+000 107156 -7.5786e+001 -2.5032e+002  2.1228e+001 27818 106868,107107,107035
 3.2000e+000 107613 -3.2190e+001 -2.0467e+002  4.3608e+001 27312 107339,107469,107365
 3.2000e+000 107590 -3.4060e+000 -1.8739e+002  3.6344e+001 27312 107339,107495,107469
 3.2000e+000 107567 -3.4622e+001 -1.9917e+002  2.0806e+001 27312 107391,107469,107443
 3.2000e+000 107544 -3.5870e+001 -2.1495e+002  1.7149e+001 27312 107365,107469,107391
 3.2000e+000 107521 -9.4262e+001 -2.1839e+002  8.1630e+000 27312 107391,107443,107417
 3.2000e+000 107991 -1.1250e+002 -3.0620e+002  5.3982e+000 26858 108086,108014,107795
 3.2000e+000 107968 -1.2289e+002 -3.2458e+002 -3.5796e+001 26858 108014,107717,107873
 3.2000e+000 107945 -1.3126e+002 -3.2120e+002  1.8678e+001 26858 108158,108086,107795
 3.2000e+000 107922 -1.0848e+002 -3.1809e+002  1.6507e+001 26858 108158,107795,107769
 3.2000e+000 107899 -6.8665e+001 -3.9643e+002  5.5563e+001 26858 107821,107873,107847
 3.2000e+000 108040 -1.1495e+002 -3.5274e+002  1.5723e+001 26858 107821,107795,108014
 3.2000e+000 108063 -4.8250e+001 -3.3783e+002 -8.3797e+000 26858 107821,108014,107873
 3.2000e+000 108112 -1.6114e+002 -3.2500e+002  1.1871e+001 26858 107717,108014,108086
 3.2000e+000 108135 -1.3363e+002 -3.3696e+002  3.4951e+001 26858 107717,108086,107743
 3.2000e+000 108184 -1.0434e+002 -3.1984e+002  2.6635e+001 26858 107743,108086,108158
 3.2000e+000 108207 -9.4730e+001 -3.2617e+002  2.6284e+001 26858 107743,108158,107769
 3.2000e+000 108634 -1.4933e+002 -2.9883e+002  3.2628e+000 26404 108657,108415,108363
 3.2000e+000 108611 -1.6776e+002 -3.2386e+002  3.0724e+001 26404 108657,108363,108337
 3.2000e+000 108588 -1.4697e+002 -2.9777e+002  3.6097e+001 26404 108729,108311,108467
 3.2000e+000 108565 -1.6697e+002 -3.4714e+002  9.9327e-001 26404 108801,108441,108415
 3.2000e+000 108542 -2.1931e+002 -3.3066e+002  4.4224e+001 26404 108311,108493,108467
 3.2000e+000 108519 -1.0554e+002 -2.9878e+002  3.6620e+000 26404 108363,108415,108389
 3.2000e+000 108683 -1.9804e+002 -3.1724e+002  5.2139e+000 26404 108801,108415,108657
 3.2000e+000 108706 -1.9184e+002 -3.1173e+002  2.7901e+001 26404 108729,108467,108657
 3.2000e+000 108755 -1.1728e+002 -3.1815e+002  3.6282e+001 26404 108337,108311,108729
 3.2000e+000 108778 -1.4028e+002 -3.1641e+002  2.7715e+001 26404 108337,108729,108657
 3.2000e+000 108827 -1.9857e+002 -4.0436e+002 -1.6448e+001 26404 108467,108441,108801
 3.2000e+000 108850 -2.1667e+002 -3.5422e+002 -1.1394e+001 26404 108467,108801,108657
 3.2000e+000 109228 -1.3602e+002 -2.9742e+002 -1.2525e+001 26064 109006,109084,109058
 3.2000e+000 109205 -1.1100e+002 -2.7395e+002  7.2511e+000 26064 108980,109084,109006
 3.2000e+000 109182 -1.2838e+002 -2.6828e+002 -3.7993e+000 26064 108980,109110,109084
 3.2000e+000 109159 -1.3025e+002 -3.0923e+002 -2.9975e+000 26064 109006,109058,109032
 3.2000e+000 109136  6.6750e+000 -2.4066e+002  1.9777e+001 26064 108954,109110,108980
 3.2000e+000 109427 -4.4195e+001 -2.5977e+002 -5.2865e+001 25660 109303,109355,109329
 3.2000e+000 109404 -7.8667e+001 -3.2865e+002 -1.4135e+001 25660 109277,109355,109303
 3.2000e+000 109381 -6.5118e+001 -3.0125e+002 -2.7286e+000 25660 109251,109355,109277
 3.2000e+000 109577 -5.9165e+001 -1.4288e+002  4.9368e+001 25306 109476,109528,109502
 3.2000e+000 109554 -5.5115e-001 -1.3500e+002  2.7741e+001 25306 109450,109528,109476
 3.2000e+000 109778 -9.8869e+001 -2.7604e+002  6.3068e+000 24944 109628,109706,109654
 3.2000e+000 109755 -1.0905e+002 -2.7371e+002 -1.2890e+000 24944 109602,109706,109628
 3.2000e+000 109732 -8.7265e+001 -2.5838e+002 -2.6641e+000 24944 109654,109706,109680
 3.2000e+000 110126 -1.0746e+002 -3.6017e+002  1.2151e+001 24440 110149,109907,109855
 3.2000e+000 110103 -1.0662e+002 -3.7835e+002  2.2308e+001 24440 110149,109855,109985
 3.2000e+000 110080 -8.7494e+001 -3.1449e+002  6.7636e+000 24440 109855,109907,109881
 3.2000e+000 110057 -9.3350e+001 -3.0208e+002  9.1245e+001 24440 109829,109985,109855
 3.2000e+000 110034 -9.6648e+001 -3.5992e+002  2.9192e-002 24440 109907,109959,109933
 3.2000e+000 110011 -7.6824e+001 -3.1510e+002  9.5737e+000 24440 109803,109985,109829
 3.2000e+000 110175 -1.0552e+002 -3.4315e+002  6.4121e+000 24440 109959,109907,110149
 3.2000e+000 110198 -1.0652e+002 -3.5980e+002  1.8561e+001 24440 109959,110149,109985
 3.2000e+000 110301 -1.6495e+001 -2.3298e+002 -7.9643e+000 24028 110223,110275,110249
 3.2000e+000 110573 -4.2077e+001 -2.0640e+002  1.5999e+001 23467 110400,110452,110426
 3.2000e+000 110550 -7.2872e+001 -2.4493e+002 -3.3898e-001 23467 110374,110452,110400
 3.2000e+000 110527 -7.2490e+001 -2.4470e+002  2.9369e+000 23467 110348,110452,110374
 3.2000e+000 110504 -5.3018e+001 -2.3679e+002 -2.4044e+000 23467 110348,110478,110452
 3.2000e+000 111004 -1.7058e+002 -3.5782e+002 -3.7254e+001 22963 111027,110733,110707
 3.2000e+000 110981 -1.6479e+002 -3.3844e+002  1.5183e+001 22963 111027,110707,110681
 3.2000e+000 110958 -8.2289e+001 -2.9999e+002 -3.4412e+001 22963 111099,110759,110733
 3.2000e+000 110935 -1.0492e+002 -2.9609e+002 -2.4538e+001 22963 111171,110863,110811
 3.2000e+000 110912 -5.4150e+001 -2.2065e+002 -3.8811e+001 22963 110759,110811,110785
 3.2000e+000 110889 -1.1502e+002 -3.1416e+002 -2.0230e+001 22963 110811,110863,110837
 3.2000e+000 111053 -1.1905e+002 -3.2438e+002 -2.1827e+001 22963 111099,110733,111027
 3.2000e+000 111076 -9.9888e+001 -3.1832e+002 -2.0372e+001 22963 111171,110811,111027
 3.2000e+000 111125 -8.1008e+001 -2.9530e+002 -5.4521e+001 22963 110811,110759,111099
 3.2000e+000 111148 -8.7318e+001 -2.9283e+002 -4.7111e+001 22963 110811,111099,111027
 3.2000e+000 111197 -1.0696e+002 -2.5834e+002 -3.1139e+001 22963 110681,110863,111171
 3.2000e+000 111220 -1.1326e+002 -2.8624e+002 -1.6536e+001 22963 110681,111171,111027
 3.2000e+000 111726 -1.6156e+002 -3.1259e+002  7.7287e+000 22459 111749,111507,111429
 3.2000e+000 111703 -1.4856e+002 -3.0846e+002 -4.6356e+000 22459 111749,111429,111585
 3.2000e+000 111680 -1.2896e+002 -3.4489e+002 -2.7487e+000 22459 111403,111585,111429
 3.2000e+000 111657 -1.5552e+002 -3.4076e+002  1.5135e+001 22459 111507,111559,111533
 3.2000e+000 111634 -2.0954e+002 -3.0014e+002  1.8242e+001 22459 111455,111507,111481
 3.2000e+000 111611 -2.2032e+002 -3.0007e+002  2.7435e+001 22459 111429,111507,111455
 3.2000e+000 111775 -1.6153e+002 -3.3152e+002  1.9639e+001 22459 111559,111507,111749
 3.2000e+000 111798 -1.4830e+002 -3.1781e+002  7.4982e+000 22459 111559,111749,111585
 3.2000e+000 112046 -6.8914e+001 -2.5747e+002 -3.2990e+001 21898 112069,111925,111873
 3.2000e+000 112023 -6.6311e+001 -2.5979e+002 -7.6010e+000 21898 112069,111873,111847
 3.2000e+000 112000 -8.9568e+001 -2.6566e+002 -1.2609e+001 21898 111821,111951,111847
 3.2000e+000 111977 -7.8297e+001 -2.0031e+002 -2.0396e+001 21898 111873,111925,111899
 3.2000e+000 112095 -1.0485e+002 -2.7083e+002 -3.7603e+001 21898 111951,111925,112069
 3.2000e+000 112118 -8.7243e+001 -2.6731e+002 -1.3224e+001 21898 111951,112069,111847
 3.2000e+000 112498 -1.2806e+002 -2.9576e+002 -2.5924e+001 21608 112521,112276,112224
 3.2000e+000 112475 -8.3031e+001 -3.0082e+002  1.4356e+000 21608 112521,112224,112380
 3.2000e+000 112452 -8.6396e+001 -3.3416e+002  2.3915e+001 21608 112302,112380,112354
 3.2000e+000 112429 -1.4460e+002 -3.3223e+002 -1.8977e+001 21608 112224,112276,112250
 3.2000e+000 112406  4.5891e+001 -3.5935e+002 -1.1396e+001 21608 112302,112354,112328
 3.2000e+000 112547 -9.1229e+001 -2.5228e+002 -5.7418e+000 21608 112302,112276,112521
 3.2000e+000 112570 -6.1912e+001 -2.8797e+002  1.3652e+001 21608 112302,112521,112380
 3.2000e+000 112948 -1.4694e+002 -3.0684e+002 -6.4996e+000 20882 112971,112752,112700
 3.2000e+000 112925 -1.1436e+002 -2.9512e+002 -1.1110e+001 20882 112971,112700,112830
 3.2000e+000 112902 -1.8561e+002 -3.2590e+002  1.9169e+001 20882 112778,112830,112804
 3.2000e+000 112879 -1.0496e+002 -2.3830e+002 -1.5238e+001 20882 112674,112830,112700
 3.2000e+000 112856 -1.7808e+002 -3.1693e+002  4.0830e+000 20882 112700,112752,112726
 3.2000e+000 112997 -1.4714e+002 -3.0487e+002  1.1732e+001 20882 112778,112752,112971
 3.2000e+000 113020 -1.2875e+002 -2.9902e+002  6.2851e+000 20882 112778,112971,112830
 3.2000e+000 113526 -1.0973e+002 -3.0903e+002  1.4227e-001 20428 113255,113385,113333
 3.2000e+000 113503 -1.2119e+002 -3.4036e+002 -1.1049e+000 20428 113229,113385,113255
 3.2000e+000 113480 -1.9350e+001 -3.0454e+002  3.7364e-001 20428 113255,113333,113281
 3.2000e+000 113457 -1.0881e+002 -3.3784e+002 -5.2052e-001 20428 113203,113385,113229
 3.2000e+000 113434 -5.7153e+001 -3.1988e+002 -1.2253e+001 20428 113281,113333,113307
 3.2000e+000 113411 -1.2731e+002 -3.0467e+002  4.3326e+000 20428 113333,113385,113359
 3.2000e+000 113774 -1.4555e+001 -2.8183e+002  1.0202e+001 19917 113797,113601,113549
 3.2000e+000 113751 -4.2811e+001 -2.8481e+002  1.2805e+001 19917 113869,113797,113549
 3.2000e+000 113728 -4.1314e+001 -2.8781e+002  2.3988e+001 19917 113869,113549,113679
 3.2000e+000 113705 -2.5098e+001 -2.8095e+002  2.3500e+001 19917 113549,113601,113575
 3.2000e+000 113823 -4.4698e+001 -3.4737e+002 -1.6095e+000 19917 113627,113601,113797
 3.2000e+000 113846 -1.3336e+001 -2.6969e+002 -8.1541e+000 19917 113627,113797,113653
 3.2000e+000 113895 -3.7472e+001 -2.5715e+002  3.0535e+000 19917 113653,113797,113869
 3.2000e+000 113918 -4.8191e+001 -2.6506e+002  1.7449e+001 19917 113653,113869,113679
 3.2000e+000 114166 -1.3666e+002 -3.0390e+002 -5.2611e+000 19413 113993,114045,114019
 3.2000e+000 114143 -1.3155e+002 -2.8400e+002  1.3128e+000 19413 113967,114045,113993
 3.2000e+000 114120 -1.0809e+002 -2.7532e+002  1.2642e+001 19413 113967,114071,114045
 3.2000e+000 114097 -9.6775e+001 -3.1218e+002 -7.8654e+000 19413 113941,114071,113967
 3.2000e+000 114438 -1.2249e+002 -3.2497e+002  2.9394e+000 19001 114213,114265,114239
 3.2000e+000 114415 -8.7899e+001 -2.5326e+002 -7.8910e+000 19001 114213,114343,114265
 3.2000e+000 114392 -1.3047e+002 -3.4890e+002 -1.5932e+001 19001 114265,114343,114317
 3.2000e+000 114369  2.6358e+001 -2.8141e+002 -6.5938e+000 19001 114265,114317,114291
 3.2000e+000 114639 -8.3373e+001 -3.8484e+002  2.1704e+001 18554 114489,114541,114515
 3.2000e+000 114616 -7.6759e+001 -3.2808e+002  5.4294e+000 18554 114489,114567,114541
 3.2000e+000 114593 -1.7244e+002 -3.7621e+002 -2.3493e+001 18554 114463,114567,114489
 3.2000e+000 115043 -6.8140e+001 -2.9478e+002  1.0676e+001 18164 114795,114925,114821
 3.2000e+000 115020 -6.1907e+001 -3.1313e+002  1.6617e+001 18164 114769,114925,114795
 3.2000e+000 114997 -4.0381e+001 -3.0689e+002 -1.9014e+000 18164 115066,114873,114821
 3.2000e+000 114974 -3.7928e+001 -2.6594e+002 -9.0485e+000 18164 115066,114821,114925
 3.2000e+000 114951  1.1897e+001 -3.0819e+002 -2.8756e+001 18164 114821,114873,114847
 3.2000e+000 115092 -5.5319e+001 -2.7728e+002 -2.3487e+001 18164 114899,114873,115066
 3.2000e+000 115115 -3.6175e+001 -2.1467e+002 -3.2579e+001 18164 114899,115066,114925
 3.2000e+000 115265 -9.7279e+001 -3.3642e+002  2.9448e+000 17852 115164,115216,115190
 3.2000e+000 115242 -1.0411e+002 -3.5098e+002 -2.7379e-001 17852 115138,115216,115164
 3.2000e+000 115464 -2.0071e+002 -4.4824e+002  7.1933e+000 17346 115288,115366,115340
 3.2000e+000 115441 -3.0804e+002 -3.4937e+002 -1.1801e+001 17346 115288,115392,115366
 3.2000e+000 115418 -1.7968e+002 -5.0408e+002 -1.4897e+001 17346 115288,115340,115314
 3.2000e+000 115736 -9.1735e+001 -3.0461e+002  1.1293e+001 16942 115563,115641,115615
 3.2000e+000 115713 -1.0096e+002 -3.0101e+002  2.6311e+000 16942 115511,115641,115563
 3.2000e+000 115690 -2.1499e+002 -3.5183e+002  1.8042e+001 16942 115563,115615,115589
 3.2000e+000 115667 -1.1913e+002 -3.2958e+002  1.0400e+001 16942 115511,115563,115537
 3.2000e+000 116091 -1.5079e+002 -3.4492e+002 -1.3525e+001 16388 115918,115970,115944
 3.2000e+000 116068 -1.2999e+002 -2.7668e+002 -9.2220e+000 16388 115918,115996,115970
 3.2000e+000 116045 -1.7413e+002 -3.4953e+002  1.0991e+001 16388 115892,115996,115918
 3.2000e+000 116022 -1.1788e+002 -3.2076e+002  3.7330e+001 16388 115866,115996,115892
 3.2000e+000 116192 -5.9927e+001 -3.8291e+002 -5.3685e+001 15810 116114,116166,116140
 3.2000e+000 116342 -1.3582e+002 -4.4014e+002  2.3533e+001 15419 116241,116293,116267
 3.2000e+000 116319 -1.9474e+002 -5.3901e+002 -1.5694e+001 15419 116215,116293,116241
 3.2000e+000 116445 -1.5410e+002 -3.0639e+002  2.4749e+000 421 116367,116419,116393
 3.3000e+000 68477 -2.0669e+002 -3.1827e+002 -4.2194e-002 68018 68327,68379,68353
 3.3000e+000 68454 -2.2122e+002 -4.3111e+002  3.2388e+001 68018 68301,68379,68327
 3.3000e+000 68431 -8.2240e+001 -4.7404e+002  8.5796e+001 68018 68301,68405,68379
 3.3000e+000 68578 -1.3544e+002 -3.0358e+002  2.0574e+000 67820 68500,68552,68526
 3.3000e+000 68728 -1.5092e+002 -2.8758e+002 -4.2190e+000 67508 68601,68653,68627
 3.3000e+000 68705 -2.3935e+002 -2.1758e+002 -4.3235e+001 67508 68601,68679,68653
 3.3000e+000 68927 -3.2311e+001 -2.4699e+002 -7.0127e+000 67310 68777,68829,68803
 3.3000e+000 68904 -5.6321e+001 -2.8514e+002  3.9253e+000 67310 68751,68829,68777
 3.3000e+000 68881 -3.3231e+001 -2.8261e+002  2.0695e+001 67310 68751,68855,68829
 3.3000e+000 69386 -1.1661e+002 -3.2529e+002 -1.8780e+001 67020 69216,69268,69242
 3.3000e+000 69363 -1.0470e+002 -2.4940e+002 -3.4826e+001 67020 69138,69268,69216
 3.3000e+000 69340 -7.6263e+001 -2.1584e+002 -1.4579e+001 67020 69112,69268,69138
 3.3000e+000 69317 -1.4355e+002 -2.6929e+002  2.1870e+001 67020 69138,69190,69164
 3.3000e+000 69294 -1.5132e+002 -2.4537e+002 -1.5953e+001 67020 69138,69216,69190
 3.3000e+000 69536 -2.5783e+002 -6.2492e+002 -5.3949e+001 66708 69435,69487,69461
 3.3000e+000 69513 -1.8769e+002 -7.0586e+002 -1.0140e+001 66708 69409,69487,69435
 3.3000e+000 69735 -1.4983e+002 -3.2211e+002  7.8134e+000 66346 69585,69637,69611
 3.3000e+000 69712 -1.2281e+002 -3.0876e+002 -5.8998e-001 66346 69559,69637,69585
 3.3000e+000 69689 -1.0968e+002 -3.0407e+002 -2.9376e+001 66346 69559,69663,69637
 3.3000e+000 69985 -1.9923e+002 -3.5030e+002  6.5121e+000 66148 69786,69890,69864
 3.3000e+000 69962 -2.0919e+002 -3.5435e+002  6.8778e+000 66148 69760,69890,69786
 3.3000e+000 69939 -1.3743e+002 -3.3604e+002 -5.6652e+001 66148 69786,69864,69838
 3.3000e+000 69916 -1.7398e+002 -3.6833e+002 -1.3493e+001 66148 69786,69838,69812
 3.3000e+000 70137 -1.0031e+002 -3.9020e+002 -2.3755e+001 65950 70036,70088,70062
 3.3000e+000 70114 -8.5588e+001 -4.3085e+002  1.6982e+001 65950 70010,70088,70036
 3.3000e+000 70470 -7.1031e+001 -2.8249e+002  2.6624e+001 65546 70245,70323,70271
 3.3000e+000 70447 -4.6361e+001 -2.4169e+002  1.3997e+001 65546 70245,70375,70323
 3.3000e+000 70424 -6.3091e+001 -3.1298e+002  1.4440e+001 65546 70323,70375,70349
 3.3000e+000 70401 -5.9298e+001 -2.6005e+002  1.3463e+001 65546 70271,70323,70297
 3.3000e+000 70620 -9.8831e+001 -3.3805e+002  1.2850e+001 65348 70493,70545,70519
 3.3000e+000 70597 -9.2680e+001 -3.6004e+002  8.9747e+000 65348 70493,70571,70545
 3.3000e+000 70721 -1.6490e+002 -3.4935e+002  2.6969e+001 65150 70643,70695,70669
 3.3000e+000 71020 -1.0800e+002 -2.6682e+002  4.9495e-001 64952 71043,70850,70824
 3.3000e+000 70997 -9.4194e+001 -2.3114e+002  1.6846e+000 64952 71043,70824,70772
 3.3000e+000 70974 -1.0618e+002 -3.1422e+002  4.6493e+000 64952 71115,70746,70876
 3.3000e+000 70951 -7.7997e+001 -3.1406e+002 -4.3163e+000 64952 70746,70902,70876
 3.3000e+000 70928 -8.7785e+001 -1.8207e+002 -2.7762e+001 64952 70772,70824,70798
 3.3000e+000 71069 -8.5486e+001 -2.5342e+002  1.0421e+001 64952 70876,70850,71043
 3.3000e+000 71092 -1.0268e+002 -2.9421e+002  6.2629e+000 64952 71115,70876,71043
 3.3000e+000 71141 -1.2450e+002 -2.9097e+002 -1.3593e+001 64952 70772,70746,71115
 3.3000e+000 71164 -1.1426e+002 -2.6107e+002 -1.2314e+001 64952 70772,71115,71043
 3.3000e+000 71365  5.0630e+000 -3.2733e+002 -4.6743e+000 64662 71215,71293,71267
 3.3000e+000 71342  8.5514e+001 -2.9681e+002 -8.0192e+001 64662 71189,71293,71215
 3.3000e+000 71319  3.4433e+001 -2.6704e+002  4.4111e+000 64662 71215,71267,71241
 3.3000e+000 71615 -6.9016e+001 -3.1185e+002 -8.1783e+000 64350 71710,71638,71468
 3.3000e+000 71592 -1.0296e+002 -3.0638e+002 -1.1622e+001 64350 71638,71416,71390
 3.3000e+000 71569 -7.3002e+001 -2.9087e+002  8.8990e+000 64350 71710,71468,71442
 3.3000e+000 71546  8.7267e+001 -2.8534e+002 -5.8502e+001 64350 71390,71520,71494
 3.3000e+000 71664 -7.3726e+001 -3.1452e+002 -5.8011e+000 64350 71494,71468,71638
 3.3000e+000 71687 -6.9695e+001 -3.1059e+002 -3.8332e+000 64350 71494,71638,71390
 3.3000e+000 71736 -6.6329e+001 -2.6998e+002  3.1682e+000 64350 71416,71638,71710
 3.3000e+000 71759 -5.7489e+001 -2.4630e+002  2.5781e+001 64350 71416,71710,71442
 3.3000e+000 72318 -7.1794e+001 -4.9186e+002 -2.1971e+001 63837 71972,72024,71998
 3.3000e+000 72295 -1.1079e+002 -3.0663e+002 -7.5226e+000 63837 72341,71972,71946
 3.3000e+000 72272 -1.0567e+002 -2.4913e+002  1.3511e+001 63837 72413,72341,71946
 3.3000e+000 72249 -1.0301e+002 -2.2593e+002  6.6343e+000 63837 72413,71946,72128
 3.3000e+000 72226 -1.6766e+002 -2.6964e+002  4.0616e+000 63837 72024,72076,72050
 3.3000e+000 72203 -1.4027e+002 -2.4755e+002 -6.4261e+000 63837 72024,72102,72076
 3.3000e+000 72180 -8.7699e+001 -2.2276e+002  2.2387e+001 63837 71946,72154,72128
 3.3000e+000 72367 -1.5126e+002 -3.3457e+002 -6.3075e+001 63837 72024,71972,72341
 3.3000e+000 72390 -1.1313e+002 -2.6984e+002 -2.1313e+001 63837 72024,72341,72102
 3.3000e+000 72439 -8.8913e+001 -2.8665e+002  5.3565e+000 63837 72102,72341,72413
 3.3000e+000 72462 -8.5692e+001 -2.6178e+002  1.3500e+000 63837 72102,72413,72128
 3.3000e+000 72791 -1.4180e+002 -2.8430e+002 -3.1557e+001 63383 72592,72696,72670
 3.3000e+000 72768 -1.4564e+002 -2.6629e+002 -5.4631e+001 63383 72566,72696,72592
 3.3000e+000 72745 -1.4371e+002 -2.4843e+002 -1.8724e+000 63383 72592,72670,72618
 3.3000e+000 72722 -1.3716e+002 -2.3605e+002  1.1042e+000 63383 72618,72670,72644
 3.3000e+000 73297 -1.7452e+002 -2.5516e+002 -5.0854e+000 63185 73000,73156,73130
 3.3000e+000 73274 -1.7618e+002 -2.6853e+002  3.2452e+001 63185 72974,73156,73000
 3.3000e+000 73251 -1.2654e+002 -2.9306e+002 -4.9662e+000 63185 73000,73052,73026
 3.3000e+000 73228 -1.4157e+002 -2.5917e+002 -1.3928e+001 63185 73000,73130,73052
 3.3000e+000 73205 -1.4208e+002 -2.9633e+002 -4.5440e+001 63185 73052,73130,73104
 3.3000e+000 73182 -1.3773e+002 -3.2257e+002 -4.8411e+001 63185 73052,73104,73078
 3.3000e+000 73545 -4.3534e+001 -2.6578e+002  5.3729e-001 62781 73568,73398,73372
 3.3000e+000 73522 -2.1530e+001 -2.4082e+002  1.2914e+001 62781 73568,73372,73346
 3.3000e+000 73499 -5.7895e+001 -2.5143e+002 -8.4016e+000 62781 73640,73320,73424
 3.3000e+000 73476 -8.5797e+001 -1.7640e+002 -2.1507e+001 62781 73320,73450,73424
 3.3000e+000 73594 -4.6842e+001 -2.4239e+002 -3.1958e+000 62781 73424,73398,73568
 3.3000e+000 73617 -4.8604e+001 -2.4625e+002 -4.3254e+000 62781 73640,73424,73568
 3.3000e+000 73666 -5.4556e+001 -2.4524e+002  8.1919e-001 62781 73346,73320,73640
 3.3000e+000 73689 -4.9413e+001 -2.4017e+002  4.5859e+000 62781 73346,73640,73568
 3.3000e+000 74035 -1.0144e+002 -3.1286e+002 -3.4242e+000 62363 74058,73868,73842
 3.3000e+000 74012 -9.6422e+001 -2.8840e+002 -2.2655e+001 62363 74130,74058,73842
 3.3000e+000 73989 -8.7274e+001 -2.8527e+002 -2.3368e+001 62363 74130,73842,73816
 3.3000e+000 73966 -1.4913e+002 -3.2555e+002  4.5148e+000 62363 74202,73764,73894
 3.3000e+000 73943 -1.9356e+002 -2.9301e+002  6.2943e+000 62363 73712,73894,73764
 3.3000e+000 73920 -2.1223e+002 -3.1424e+002 -3.2414e+000 62363 73712,73764,73738
 3.3000e+000 74084 -1.0429e+002 -3.0467e+002 -3.7452e+000 62363 73894,73868,74058
 3.3000e+000 74107 -1.3471e+002 -3.1046e+002  1.6361e+001 62363 74202,73894,74058
 3.3000e+000 74156 -1.0705e+002 -2.9207e+002  1.0094e+001 62363 73790,74058,74130
 3.3000e+000 74179 -6.2806e+001 -2.7416e+002  1.2620e+001 62363 73790,74130,73816
 3.3000e+000 74228 -1.6563e+002 -3.3275e+002 -1.7826e+001 62363 73790,73764,74202
 3.3000e+000 74251 -1.5509e+002 -3.1679e+002 -6.0545e+000 62363 73790,74202,74058
 3.3000e+000 74403 -2.8300e+000 -3.3420e+002  2.2741e+001 62115 74426,74302,74276
 3.3000e+000 74380  7.1241e+001 -3.2122e+002  5.2969e+001 62115 74426,74276,74354
 3.3000e+000 74452 -7.1905e+001 -2.9918e+002  2.3020e+001 62115 74328,74302,74426
 3.3000e+000 74475 -2.6593e+000 -2.8871e+002  5.5342e+001 62115 74328,74426,74354
 3.3000e+000 74578  5.5819e+001 -1.9936e+002  2.9661e+000 61825 74500,74552,74526
 3.3000e+000 74982 -1.6110e+002 -2.8809e+002  2.2216e+000 61513 75005,74734,74708
 3.3000e+000 74959 -1.5660e+002 -2.7962e+002 -7.2071e-001 61513 75005,74708,74864
 3.3000e+000 74936 -2.0066e+002 -2.9532e+002  1.9980e+001 61513 75077,74812,74734
 3.3000e+000 74913 -1.8152e+002 -3.0195e+002 -2.5612e+001 61513 74734,74786,74760
 3.3000e+000 74890 -1.7644e+002 -2.6529e+002 -1.5301e+000 61513 74734,74812,74786
 3.3000e+000 75031 -1.5120e+002 -2.9496e+002  3.7711e+000 61513 75077,74734,75005
 3.3000e+000 75054 -1.1887e+002 -2.8598e+002  4.2978e+001 61513 74838,75005,74864
 3.3000e+000 75103 -2.2844e+002 -3.0819e+002  6.4449e+001 61513 74838,74812,75077
 3.3000e+000 75126 -1.9600e+002 -3.1995e+002  4.8364e+001 61513 74838,75077,75005
 3.3000e+000 75553 -7.0800e+001 -2.5850e+002 -9.4659e+000 61060 75576,75360,75308
 3.3000e+000 75530 -7.7346e+001 -2.7384e+002 -1.2441e+001 61060 75576,75308,75230
 3.3000e+000 75507 -6.2725e+001 -2.4536e+002  2.6033e+000 61060 75308,75360,75334
 3.3000e+000 75484 -1.0549e+002 -3.2142e+002  2.0472e+001 61060 75230,75308,75256
 3.3000e+000 75461 -6.7470e+001 -2.9620e+002  9.5298e+000 61060 75256,75308,75282
 3.3000e+000 75438 -7.8713e+001 -2.5145e+002  3.4978e+001 61060 75360,75412,75386
 3.3000e+000 75602 -4.7244e+001 -2.7286e+002  1.9391e+000 61060 75412,75360,75576
 3.3000e+000 75625 -6.5137e+001 -3.0445e+002 -5.7947e+000 61060 75412,75576,75230
 3.3000e+000 76052 -1.1141e+002 -2.6329e+002  4.0108e+000 60442 75755,75859,75833
 3.3000e+000 76029 -1.3831e+002 -2.5306e+002 -1.7942e+001 60442 75729,75859,75755
 3.3000e+000 76006 -1.1790e+002 -2.4522e+002  1.7553e+001 60442 75755,75833,75807
 3.3000e+000 75983 -1.0975e+002 -2.9364e+002  1.0174e+001 60442 75755,75807,75781
 3.3000e+000 75960  2.3038e+001 -4.6041e+002  1.3625e+001 60442 75729,75911,75859
 3.3000e+000 75937 -2.2517e+002 -1.1730e+003  7.2795e+001 60442 75859,75911,75885
 3.3000e+000 76430 -1.1614e+002 -3.0702e+002 -1.1208e+001 59788 76453,76286,76234
 3.3000e+000 76407 -1.2598e+002 -3.4778e+002  3.8696e+000 59788 76453,76234,76182
 3.3000e+000 76384 -1.2544e+002 -2.2042e+002  3.8856e+001 59788 76525,76156,76312
 3.3000e+000 76361 -7.7022e+001 -4.0065e+002 -3.9561e+000 59788 76182,76234,76208
 3.3000e+000 76338 -8.0124e+001 -2.9266e+002 -6.3220e+000 59788 76234,76286,76260
 3.3000e+000 76479 -1.3841e+002 -3.2844e+002  8.6255e-001 59788 76312,76286,76453
 3.3000e+000 76502 -1.1622e+002 -3.0708e+002  1.3831e+001 59788 76525,76312,76453
 3.3000e+000 76551 -1.6099e+002 -3.2922e+002  3.9793e+001 59788 76182,76156,76525
 3.3000e+000 76574 -1.4097e+002 -3.5544e+002  2.2485e+001 59788 76182,76525,76453
 3.3000e+000 77031 -6.8587e+001 -1.6337e+002 -4.7547e+001 59448 76835,76887,76861
 3.3000e+000 77008 -9.4539e+000 -1.5539e+002  4.7765e+000 59448 76835,76913,76887
 3.3000e+000 76985 -3.8993e+001 -1.3652e+002  3.9002e+001 59448 76809,76913,76835
 3.3000e+000 76962 -1.0008e+002 -1.6443e+002 -3.5160e+000 59448 76757,76913,76809
 3.3000e+000 76939 -7.4224e+001 -1.5530e+002 -1.3702e+001 59448 76757,76809,76783
 3.3000e+000 77537 -1.3216e+002 -2.8473e+002  1.5254e+001 58994 77560,77344,77292
 3.3000e+000 77514 -1.8737e+002 -2.8417e+002  4.3325e+000 58994 77560,77292,77240
 3.3000e+000 77491 -1.0693e+002 -2.6830e+002 -6.0547e+000 58994 77632,77214,77370
 3.3000e+000 77468 -2.2389e+002 -3.2817e+002  5.8794e+001 58994 77292,77344,77318
 3.3000e+000 77445 -1.0922e+002 -3.5043e+002  1.4555e+001 58994 77214,77396,77370
 3.3000e+000 77422 -1.9061e+002 -3.0069e+002 -6.2346e+000 58994 77240,77292,77266
 3.3000e+000 77586 -1.3535e+002 -2.9154e+002  1.7367e+001 58994 77370,77344,77560
 3.3000e+000 77609 -1.3679e+002 -2.8657e+002  1.9663e+001 58994 77632,77370,77560
 3.3000e+000 77658 -9.0901e+001 -2.4916e+002 -3.3286e+001 58994 77240,77214,77632
 3.3000e+000 77681 -1.1271e+002 -2.4619e+002 -1.0034e+001 58994 77240,77632,77560
 3.3000e+000 78138 -9.9614e+001 -1.8835e+002  2.7593e+001 58440 77864,77994,77890
 3.3000e+000 78115 -5.7064e+001 -1.0605e+002 -1.8873e+001 58440 77864,78020,77994
 3.3000e+000 78092 -1.1334e+002 -2.2442e+002 -1.8943e+001 58440 77942,77994,77968
 3.3000e+000 78069 -8.8476e+001 -2.1083e+002  4.4861e+000 58440 77890,77994,77942
 3.3000e+000 78046 -8.0941e+001 -2.1152e+002 -9.4940e-001 58440 77890,77942,77916
 3.3000e+000 78467 -1.1891e+001 -2.5715e+002  1.1717e+001 57928 78562,78490,78346
 3.3000e+000 78444 -9.5905e+001 -2.6205e+002 -5.2456e+000 57928 78490,78294,78268
 3.3000e+000 78421  5.3054e+000 -2.7071e+002  2.5812e+001 57928 78562,78346,78320
 3.3000e+000 78398 -3.0941e+001 -2.5274e+002  3.8430e+000 57928 78242,78372,78268
 3.3000e+000 78516 -8.1637e+001 -3.2420e+002 -1.6554e+001 57928 78372,78346,78490
 3.3000e+000 78539 -6.2519e+001 -2.4718e+002 -2.2758e+000 57928 78372,78490,78268
 3.3000e+000 78588 -9.5462e+001 -2.5482e+002  3.0337e+000 57928 78294,78490,78562
 3.3000e+000 78611 -4.2206e+001 -2.2696e+002  3.1207e+001 57928 78294,78562,78320
 3.3000e+000 79068 -1.7559e+002 -3.8399e+002 -8.4950e+001 57467 78794,78924,78820
 3.3000e+000 79045 -1.3833e+002 -3.7081e+002 -9.3477e+001 57467 78794,78950,78924
 3.3000e+000 79022 -3.4678e+001 -3.1923e+002  1.9626e+001 57467 78820,78898,78872
 3.3000e+000 78999 -1.4864e+002 -4.5291e+002 -5.6209e+001 57467 78820,78924,78898
 3.3000e+000 78976 -4.9713e+001 -3.3635e+002  3.6510e+001 57467 78820,78872,78846
 3.3000e+000 79446 -1.5219e+002 -2.9699e+002  2.0849e-001 57120 79172,79302,79250
 3.3000e+000 79423 -1.3579e+002 -2.8967e+002 -7.4483e+000 57120 79172,79328,79302
 3.3000e+000 79400 -1.3602e+002 -2.5902e+002 -1.0441e+001 57120 79172,79250,79198
 3.3000e+000 79377 -1.0372e+002 -3.7382e+002  1.4992e+001 57120 79250,79302,79276
 3.3000e+000 79354 -1.6812e+002 -2.8064e+002 -2.0471e+001 57120 79198,79250,79224
 3.3000e+000 79952 -2.0430e+002 -3.1560e+002 -1.1049e+000 56773 79629,79785,79655
 3.3000e+000 79929 -6.8184e+001 -2.7502e+002  1.2954e+001 56773 79629,79811,79785
 3.3000e+000 79906 -1.5598e+002 -3.4469e+002  2.1094e+001 56773 79655,79733,79681
 3.3000e+000 79883 -1.5520e+002 -3.0432e+002  3.0788e+000 56773 79655,79785,79733
 3.3000e+000 79860 -1.4148e+002 -3.9653e+002 -5.4598e+001 56773 79733,79785,79759
 3.3000e+000 79837 -7.7335e+001 -3.0863e+002  5.7072e+001 56773 79681,79733,79707
 3.3000e+000 80281 -6.3778e+001 -2.4256e+002 -1.9640e+001 56319 80108,80160,80134
 3.3000e+000 80258 -7.2522e+001 -2.6456e+002 -2.5044e+001 56319 80056,80160,80108
 3.3000e+000 80235 -2.1879e+001 -2.3193e+002  1.4245e+001 56319 80056,80186,80160
 3.3000e+000 80212 -1.0333e+002 -3.3693e+002 -1.4748e+001 56319 80056,80108,80082
 3.3000e+000 80738 -3.9250e+001 -2.8570e+002  1.7425e+001 55957 80516,80620,80594
 3.3000e+000 80715 -9.5475e+001 -2.5904e+002  1.4993e+001 55957 80464,80620,80516
 3.3000e+000 80692 -8.3105e+001 -3.1019e+002  1.6958e+001 55957 80761,80568,80542
 3.3000e+000 80669 -6.6275e+001 -3.0578e+002  1.9853e+001 55957 80761,80542,80516
 3.3000e+000 80646 -9.6947e+001 -2.6185e+002  3.1670e+001 55957 80464,80516,80490
 3.3000e+000 80787 -9.9008e+001 -3.0851e+002  1.2430e+001 55957 80594,80568,80761
 3.3000e+000 80810 -8.3250e+001 -3.0462e+002  1.5550e+001 55957 80594,80761,80516
 3.3000e+000 81210 -6.0053e+001 -2.8683e+002 -3.5779e+001 55317 80936,80988,80962
 3.3000e+000 81187 -4.8564e+001 -3.0386e+002 -1.3002e+001 55317 80936,81066,80988
 3.3000e+000 81164 -5.0001e+001 -3.3667e+002 -1.6371e+000 55317 80936,81092,81066
 3.3000e+000 81141 -1.1903e+002 -3.3906e+002 -3.2246e+001 55317 80988,81066,81014
 3.3000e+000 81118 -1.3072e+001 -2.1271e+002  1.5779e+001 55317 81014,81066,81040
 3.3000e+000 81539 -1.3257e+002 -3.0804e+002  1.0467e+001 54913 81340,81418,81392
 3.3000e+000 81516 -5.1415e+001 -2.4746e+002 -1.6768e+001 54913 81340,81444,81418
 3.3000e+000 81493 -8.1464e+001 -2.6594e+002 -3.5032e+001 54913 81314,81444,81340
 3.3000e+000 81470 -1.4861e+002 -3.2238e+002  4.1094e+000 54913 81340,81392,81366
 3.3000e+000 81787 -7.1891e+001 -3.1813e+002 -1.7318e+000 54601 81588,81692,81640
 3.3000e+000 81764 -1.0706e+002 -3.2228e+002 -9.4255e+000 54601 81562,81692,81588
 3.3000e+000 81741 -5.4116e+001 -3.2253e+002  4.3412e+001 54601 81588,81640,81614
 3.3000e+000 81718 -7.4639e+001 -3.7823e+002 -3.1809e+001 54601 81640,81692,81666
 3.3000e+000 82344 -1.2547e+002 -3.4667e+002 -1.8898e+001 54090 81998,82102,82076
 3.3000e+000 82321 -1.6975e+002 -3.6606e+002 -1.0972e+001 54090 81998,82154,82102
 3.3000e+000 82298 -1.5369e+002 -3.5716e+002 -6.5087e+000 54090 81972,82154,81998
 3.3000e+000 82275 -1.7688e+002 -3.2268e+002 -2.2039e+001 54090 81998,82076,82024
 3.3000e+000 82252 -1.8625e+002 -3.7980e+002  1.7526e+001 54090 81972,82180,82154
 3.3000e+000 82229 -2.3622e+002 -4.4537e+002  2.4728e+001 54090 82102,82154,82128
 3.3000e+000 82206 -3.0809e+001 -2.4357e+002 -5.3663e+001 54090 82024,82076,82050
 3.3000e+000 82722 -2.0157e+002 -3.6402e+002 -1.2114e+001 53579 82500,82578,82552
 3.3000e+000 82699 -1.4659e+002 -3.3094e+002  1.0023e+001 53579 82448,82578,82500
 3.3000e+000 82676 -1.5905e+002 -3.7428e+002  1.0453e+001 53579 82448,82500,82474
 3.3000e+000 82653 -1.9767e+002 -3.5699e+002  2.7976e+001 53579 82448,82604,82578
 3.3000e+000 82630 -1.0478e+002 -3.3714e+002 -1.2948e+001 53579 82500,82552,82526
 3.3000e+000 83356 -9.5505e+001 -2.5762e+002 -2.7159e+001 53189 83379,83088,83036
 3.3000e+000 83333 -9.2110e+001 -2.9013e+002 -2.4581e+001 53189 83379,83036,82984
 3.3000e+000 83310 -3.1873e+001 -2.6332e+002  5.0620e+001 53189 82984,83192,83166
 3.3000e+000 83287  1.1691e+000 -2.1501e+002 -1.9533e+001 53189 83036,83088,83062
 3.3000e+000 83264 -7.1562e+001 -3.2626e+002 -4.6797e+001 53189 82984,83036,83010
 3.3000e+000 83241 -5.4010e+001 -3.0465e+002  7.7677e+000 53189 83114,83166,83140
 3.3000e+000 83218 -1.3371e+002 -3.2820e+002  8.2595e+000 53189 83088,83166,83114
 3.3000e+000 83405 -9.5949e+001 -2.7959e+002 -1.3674e+001 53189 83166,83088,83379
 3.3000e+000 83428 -8.7693e+001 -3.0833e+002 -1.3158e+001 53189 83166,83379,82984
 3.3000e+000 83725 -1.3514e+002 -3.8666e+002 -3.2970e+001 52585 83748,83529,83503
 3.3000e+000 83702 -1.0132e+002 -3.7582e+002 -1.9832e+001 52585 83820,83748,83503
 3.3000e+000 83679 -6.9736e+001 -3.6877e+002 -1.6710e+001 52585 83820,83503,83477
 3.3000e+000 83656 -4.0036e+001 -3.3784e+002  4.7645e+001 52585 83477,83607,83581
 3.3000e+000 83633  3.8948e+001 -3.0342e+002  5.2149e+001 52585 83451,83607,83477
 3.3000e+000 83774 -1.1698e+002 -3.4170e+002 -2.9228e+001 52585 83555,83529,83748
 3.3000e+000 83797 -1.5218e+002 -3.7168e+002 -1.6056e+001 52585 83555,83748,83581
 3.3000e+000 83846 -1.3123e+002 -3.5849e+002 -3.7457e+000 52585 83581,83748,83820
 3.3000e+000 83869 -1.0811e+002 -3.5664e+002 -3.9604e+000 52585 83581,83820,83477
 3.3000e+000 84200 -9.6929e+001 -3.5098e+002 -1.1917e+001 52024 84001,84105,84079
 3.3000e+000 84177 -4.9070e+001 -3.4279e+002 -2.4688e+001 52024 83975,84105,84001
 3.3000e+000 84154 -8.7012e+001 -3.5060e+002 -1.0554e+001 52024 84001,84079,84053
 3.3000e+000 84131 -4.1669e+001 -2.3176e+002  4.3343e+001 52024 84001,84053,84027
 3.3000e+000 84399 -8.0084e+001 -3.4460e+002  8.8739e-002 51470 84422,84275,84249
 3.3000e+000 84376 -7.1946e+001 -3.3019e+002  4.2452e+000 51470 84422,84249,84223
 3.3000e+000 84353 -9.3414e+001 -3.6265e+002 -4.9417e+001 51470 84275,84327,84301
 3.3000e+000 84448 -8.8448e+001 -3.3066e+002 -4.7221e-001 51470 84327,84275,84422
 3.3000e+000 84471 -8.2214e+001 -3.1903e+002  3.2967e+000 51470 84327,84422,84223
 3.3000e+000 84753 -1.0387e+002 -2.9747e+002 -1.9048e+000 51073 84603,84655,84629
 3.3000e+000 84730 -2.1436e+002 -3.4790e+002 -1.5528e+001 51073 84776,84655,84603
 3.3000e+000 84707 -4.1912e+001 -3.0345e+002 -8.6037e+001 51073 84577,84681,84655
 3.3000e+000 84802 -1.3460e+002 -3.0348e+002 -3.9582e+001 51073 84577,84655,84776
 3.3000e+000 85178 -1.7734e+002 -3.8904e+002  3.5042e+001 50519 85201,85008,84982
 3.3000e+000 85155 -1.6789e+002 -3.6103e+002  2.5222e+001 50519 85273,85201,84982
 3.3000e+000 85132 -1.5809e+002 -3.6114e+002  1.8963e+001 50519 85273,84982,84930
 3.3000e+000 85109 -1.5402e+002 -3.5211e+002  1.6422e+001 50519 84930,84982,84956
 3.3000e+000 85086 -1.3808e+002 -3.5563e+002  1.1677e+001 50519 85008,85060,85034
 3.3000e+000 85227 -1.4657e+002 -3.6966e+002  1.5412e+001 50519 85060,85008,85201
 3.3000e+000 85250 -1.6600e+002 -3.7027e+002  1.0308e+001 50519 85060,85201,84904
 3.3000e+000 85299 -1.5740e+002 -3.6528e+002  8.1996e+000 50519 84904,85201,85273
 3.3000e+000 85322 -1.2338e+002 -3.2349e+002 -7.1267e+000 50519 84904,85273,84930
 3.3000e+000 85958 -9.5914e+001 -3.2002e+002 -9.9949e+000 50093 85981,85768,85716
 3.3000e+000 85935 -8.4793e+001 -2.9493e+002 -8.0825e+000 50093 85981,85716,85612
 3.3000e+000 85912 -1.1337e+002 -3.0179e+002  4.7278e+000 50093 85612,85716,85664
 3.3000e+000 85889 -7.5381e+001 -3.0875e+002 -3.3083e+000 50093 85716,85768,85742
 3.3000e+000 85866 -9.4595e+001 -2.2954e+002 -7.0481e+001 50093 85664,85716,85690
 3.3000e+000 85843  1.8439e+001 -2.1812e+002 -2.1590e+001 50093 85586,85794,85612
 3.3000e+000 85820 -8.3985e+001 -3.9804e+002  2.6329e+001 50093 85612,85664,85638
 3.3000e+000 86007 -1.2148e+002 -3.4427e+002 -4.7802e+001 50093 85794,85768,85981
 3.3000e+000 86030 -8.5215e+001 -2.6768e+002 -3.6241e+001 50093 85794,85981,85612
 3.3000e+000 86131 -1.1269e+002 -3.5874e+002  4.9035e+001 49895 86053,86105,86079
 3.3000e+000 86639 -7.9484e+001 -2.2481e+002 -4.6679e+001 49391 86662,86394,86368
 3.3000e+000 86616 -9.3960e+001 -2.7437e+002 -4.1924e+001 49391 86662,86368,86342
 3.3000e+000 86593 -5.0548e+001 -2.7349e+002 -1.2706e+001 49391 86342,86498,86472
 3.3000e+000 86570 -3.3532e+001 -2.9902e+002 -1.5084e+001 49391 86316,86498,86342
 3.3000e+000 86547 -1.5067e+002 -4.1520e+002 -1.8694e+001 49391 86394,86472,86446
 3.3000e+000 86524 -1.1547e+001 -3.9434e+002  2.3850e+000 49391 86394,86446,86420
 3.3000e+000 86688 -8.9257e+001 -2.7109e+002 -2.5190e+001 49391 86472,86394,86662
 3.3000e+000 86711 -7.9937e+001 -2.9233e+002 -2.4391e+001 49391 86472,86662,86342
 3.3000e+000 87089 -1.1677e+002 -3.3418e+002  9.2333e+000 48987 86815,86919,86867
 3.3000e+000 87066 -1.1788e+002 -3.4442e+002  1.4323e+001 48987 86815,86971,86919
 3.3000e+000 87043 -4.5286e+001 -3.6996e+002 -3.2632e+001 48987 86867,86919,86893
 3.3000e+000 87020 -1.3367e+002 -3.7972e+002  2.9617e+001 48987 86815,86867,86841
 3.3000e+000 86997 -1.3184e+002 -2.9380e+002  4.7994e+001 48987 86919,86971,86945
 3.3000e+000 87467 -2.2281e+002 -3.3017e+002  1.6994e+001 48540 87490,87245,87219
 3.3000e+000 87444 -1.6044e+002 -3.0744e+002  1.7957e+000 48540 87562,87490,87219
 3.3000e+000 87421 -1.1991e+002 -2.9106e+002  1.4329e+001 48540 87562,87219,87349
 3.3000e+000 87398 -1.6698e+002 -2.5903e+002 -1.8041e+001 48540 87245,87297,87271
 3.3000e+000 87375 -9.8452e+001 -3.0490e+002  1.1113e+001 48540 87193,87349,87219
 3.3000e+000 87516 -1.5235e+002 -3.1516e+002  2.9976e+000 48540 87297,87245,87490
 3.3000e+000 87539 -1.5349e+002 -3.1466e+002  4.9181e+000 48540 87297,87490,87323
 3.3000e+000 87588 -1.2138e+002 -2.8900e+002  2.8161e+001 48540 87323,87490,87562
 3.3000e+000 87611 -1.0186e+002 -2.9409e+002  3.6537e+001 48540 87323,87562,87349
 3.3000e+000 87810 -1.5933e+002 -5.7441e+002 -4.1354e+001 48136 87660,87712,87686
 3.3000e+000 87787 -9.2277e+001 -3.4419e+002 -1.9165e+001 48136 87660,87738,87712
 3.3000e+000 87764 -2.1417e+002 -3.5284e+002 -6.0800e+001 48136 87634,87738,87660
 3.3000e+000 88205 -1.4382e+002 -3.5922e+002 -3.0444e+001 47210 88300,88228,87937
 3.3000e+000 88182 -1.2547e+002 -3.4910e+002 -8.4416e+000 47210 88228,87833,88041
 3.3000e+000 88159 -1.4609e+002 -3.8427e+002 -4.8368e+001 47210 88300,87937,87911
 3.3000e+000 88136 -1.4246e+002 -3.4982e+002 -4.1781e+001 47210 87833,87911,87859
 3.3000e+000 88113 -2.3867e+002 -3.1450e+002 -2.4295e+001 47210 87937,87989,87963
 3.3000e+000 88090 -1.1906e+002 -2.8347e+002  5.7905e+001 47210 87989,88041,88015
 3.3000e+000 88067 -1.6524e+002 -4.0669e+002 -5.2773e+001 47210 87859,87911,87885
 3.3000e+000 88254 -1.2788e+002 -2.9700e+002 -3.1451e+001 47210 87989,87937,88228
 3.3000e+000 88277 -1.5170e+002 -3.4292e+002 -1.1353e+001 47210 87989,88228,88041
 3.3000e+000 88326 -1.1956e+002 -3.3543e+002 -1.0950e+001 47210 87833,88228,88300
 3.3000e+000 88349 -1.2560e+002 -3.5204e+002 -3.0203e+001 47210 87833,88300,87911
 3.3000e+000 88780 -2.3349e+002 -4.0690e+002 -7.3378e+001 46642 88803,88509,88483
 3.3000e+000 88757 -1.6857e+002 -3.6684e+002 -3.9075e+001 46642 88803,88483,88639
 3.3000e+000 88734 -1.8692e+002 -3.0138e+002 -4.4946e+001 46642 88875,88561,88509
 3.3000e+000 88711 -1.8876e+002 -2.8020e+002 -8.3038e+000 46642 88509,88561,88535
 3.3000e+000 88688 -1.1184e+002 -4.1288e+002  2.0123e+000 46642 88457,88639,88483
 3.3000e+000 88665 -2.1568e+002 -4.9333e+002 -1.8259e+001 46642 88561,88613,88587
 3.3000e+000 88829 -1.8884e+002 -3.2898e+002 -5.1137e+001 46642 88875,88509,88803
 3.3000e+000 88852 -1.8490e+002 -3.9761e+002 -3.3019e+001 46642 88613,88803,88639
 3.3000e+000 88901 -1.5373e+002 -3.3978e+002 -2.1534e+001 46642 88613,88561,88875
 3.3000e+000 88924 -1.6792e+002 -3.8453e+002 -2.6878e+001 46642 88613,88875,88803
 3.3000e+000 89253 -7.0255e+001 -3.4907e+002  9.0422e+000 46444 89080,89158,89132
 3.3000e+000 89230 -8.1708e+001 -3.7464e+002  5.7973e+000 46444 89028,89158,89080
 3.3000e+000 89207 -3.0576e+001 -3.3242e+002 -1.2333e+001 46444 89028,89080,89054
 3.3000e+000 89184 -3.5806e+001 -3.7719e+002 -2.5993e+001 46444 89080,89132,89106
 3.3000e+000 89631 -9.2836e+001 -2.2779e+002  4.6494e+000 46040 89383,89461,89435
 3.3000e+000 89608 -9.8378e+001 -2.5242e+002 -1.5675e+001 46040 89383,89487,89461
 3.3000e+000 89585 -1.0202e+002 -2.9459e+002 -9.2412e+000 46040 89383,89435,89409
 3.3000e+000 89562 -7.6557e+001 -2.1192e+002 -3.2956e+001 46040 89383,89513,89487
 3.3000e+000 89539 -3.3218e+001 -1.9136e+002 -4.0245e+001 46040 89357,89513,89383
 3.3000e+000 90009 -9.3401e+001 -2.8606e+002 -8.2716e-001 45636 89813,89891,89839
 3.3000e+000 89986 -9.7108e+001 -2.6813e+002  1.6500e+001 45636 89787,89891,89813
 3.3000e+000 89963 -8.5421e+001 -2.6922e+002 -6.5626e+000 45636 89839,89891,89865
 3.3000e+000 89940 -1.1198e+002 -2.9940e+002  1.0557e+001 45636 89735,89891,89787
 3.3000e+000 89917 -8.1972e+001 -3.0403e+002 -1.6046e+001 45636 89735,89787,89761
 3.3000e+000 90208 -6.4106e+001 -2.2433e+002 -4.5015e+001 45175 90231,90058,90032
 3.3000e+000 90185 -3.7037e+001 -2.0493e+002 -6.6837e+001 45175 90231,90032,90136
 3.3000e+000 90162 -7.7203e+001 -1.8246e+002 -3.5615e+000 45175 90058,90110,90084
 3.3000e+000 90257 -9.3561e+001 -2.5165e+002 -1.1482e+001 45175 90110,90058,90231
 3.3000e+000 90280 -4.2154e+001 -2.1771e+002 -3.5917e+001 45175 90110,90231,90136
 3.3000e+000 90528 -7.1331e+001 -2.3131e+002 -3.0973e+001 44513 90695,90551,90407
 3.3000e+000 90505 -7.6768e+001 -2.0945e+002 -1.5053e+001 44513 90551,90355,90329
 3.3000e+000 90482 -9.4249e+001 -2.2528e+002 -2.8208e+001 44513 90623,90303,90433
 3.3000e+000 90459 -5.4090e+001 -2.1566e+002 -2.2842e+001 44513 90695,90407,90381
 3.3000e+000 90577 -1.0505e+002 -2.4222e+002 -5.2958e+001 44513 90433,90407,90551
 3.3000e+000 90600 -8.9720e+001 -2.2154e+002 -2.6454e+001 44513 90623,90433,90551
 3.3000e+000 90649 -9.2808e+001 -2.2023e+002 -2.5508e+001 44513 90329,90303,90623
 3.3000e+000 90672 -9.2890e+001 -2.2038e+002 -2.5564e+001 44513 90329,90623,90551
 3.3000e+000 90721 -9.2189e+001 -2.1086e+002 -3.4782e+001 44513 90355,90551,90695
 3.3000e+000 90744 -8.7044e+001 -2.0372e+002 -3.1752e+001 44513 90355,90695,90381
 3.3000e+000 91077 -6.1250e-002 -2.4443e+002 -1.6885e+001 44059 91100,90930,90904
 3.3000e+000 91054 -9.4565e+001 -2.6309e+002  1.2426e+001 44059 91100,90904,90982
 3.3000e+000 91031 -1.7019e+002 -3.0663e+002 -2.2536e+001 44059 90878,90982,90904
 3.3000e+000 91008 -5.4325e+001 -2.2984e+002  1.3823e+001 44059 90852,90982,90878
 3.3000e+000 91126 -1.3995e+002 -2.7962e+002 -1.9872e+001 44059 91172,91100,90956
 3.3000e+000 91149 -8.9051e+001 -2.5527e+002 -1.1834e+001 44059 90956,91100,90982
 3.3000e+000 91198 -3.6642e+000 -1.4465e+002 -7.4355e+001 44059 90930,91100,91172
 3.3000e+000 91677 -1.3365e+002 -2.0519e+002  1.9648e+001 43549 91455,91533,91481
 3.3000e+000 91654 -5.9822e+001 -2.0770e+002  2.6665e+001 43549 91429,91533,91455
 3.3000e+000 91631 -1.2897e+002 -2.0458e+002  9.5789e+000 43549 91481,91533,91507
 3.3000e+000 91608 -3.4247e+001 -1.9711e+002  1.3056e+001 43549 91429,91559,91533
 3.3000e+000 91585 -6.2002e+000 -7.3725e+001  2.0385e+000 43549 91403,91559,91429
 3.3000e+000 92006 -1.1472e+002 -2.9695e+002 -1.5141e+000 43059 91781,91885,91807
 3.3000e+000 91983 -1.2154e+002 -2.8244e+002  4.6329e+001 43059 91781,91911,91885
 3.3000e+000 91960 -1.1610e+002 -2.9893e+002 -5.0825e-001 43059 91807,91885,91833
 3.3000e+000 91937 -7.4770e+001 -2.8310e+002 -6.0787e+000 43059 91833,91885,91859
 3.3000e+000 92561 -1.0285e+002 -2.1934e+002 -2.3425e+001 42598 92584,92215,92189
 3.3000e+000 92538 -1.1036e+002 -2.4720e+002 -2.2720e+001 42598 92656,92584,92189
 3.3000e+000 92515 -9.8626e+001 -2.7898e+002 -6.4732e+000 42598 92656,92189,92397
 3.3000e+000 92492 -1.2618e+002 -1.9572e+002 -2.8741e+001 42598 92241,92319,92293
 3.3000e+000 92469 -1.2094e+002 -2.3441e+002  1.3707e+001 42598 92319,92397,92371
 3.3000e+000 92446 -4.9096e+001 -2.7002e+002  1.1034e+002 42598 92319,92371,92345
 3.3000e+000 92423 -1.2578e+002 -2.0263e+002 -4.1432e+001 42598 92241,92293,92267
 3.3000e+000 92610 -1.0766e+002 -2.2042e+002 -2.2171e+001 42598 92241,92215,92584
 3.3000e+000 92633 -9.9279e+001 -2.0182e+002 -2.8863e+001 42598 92241,92584,92319
 3.3000e+000 92682 -9.9997e+001 -2.0450e+002 -1.6024e+001 42598 92319,92584,92656
 3.3000e+000 92705 -8.1166e+001 -2.2647e+002 -3.8815e+000 42598 92319,92656,92397
 3.3000e+000 92953 -1.2237e+002 -3.2475e+002  1.7371e+001 42094 92976,92806,92780
 3.3000e+000 92930 -1.3565e+002 -3.0478e+002 -7.3690e-002 42094 92976,92780,92754
 3.3000e+000 92907 -2.7122e+001 -3.1219e+002 -3.0133e+000 42094 93048,92832,92806
 3.3000e+000 92884 -1.7576e+002 -3.0811e+002 -2.0463e+001 42094 92728,92858,92754
 3.3000e+000 93002 -7.7636e+001 -2.9983e+002  7.5602e+000 42094 93048,92806,92976
 3.3000e+000 93025 -1.2681e+002 -2.9982e+002 -4.8305e+000 42094 92858,92976,92754
 3.3000e+000 93074 -9.8065e+001 -3.3710e+002 -3.4015e+000 42094 92858,92832,93048
 3.3000e+000 93097 -1.3894e+002 -3.1841e+002  2.6277e+000 42094 92858,93048,92976
 3.3000e+000 93605 -1.3086e+002 -3.7638e+002 -1.3958e+001 41846 93628,93412,93386
 3.3000e+000 93582 -9.9193e+001 -2.8384e+002 -2.0557e+000 41846 93628,93386,93308
 3.3000e+000 93559 -1.5091e+002 -2.9581e+002 -6.1291e+001 41846 93700,93464,93438
 3.3000e+000 93536 -1.4181e+002 -3.9312e+002  5.1929e+000 41846 93308,93386,93334
 3.3000e+000 93513 -1.8441e+002 -2.8481e+002 -4.6147e+001 41846 93334,93386,93360
 3.3000e+000 93490 -1.4514e+002 -2.6098e+002 -5.8908e+001 41846 93282,93464,93308
 3.3000e+000 93654 -1.1371e+002 -3.0104e+002 -2.8352e+001 41846 93438,93412,93628
 3.3000e+000 93677 -1.5164e+002 -3.0211e+002 -2.8457e+001 41846 93700,93438,93628
 3.3000e+000 93726 -1.3636e+002 -2.5537e+002 -5.6149e+001 41846 93308,93464,93700
 3.3000e+000 93749 -1.3153e+002 -2.4885e+002 -2.3745e+001 41846 93308,93700,93628
 3.3000e+000 94255 -1.0015e+002 -3.0603e+002  1.9540e+001 41385 93958,94114,94088
 3.3000e+000 94232 -8.6291e+001 -3.3030e+002  7.7090e+000 41385 93932,94114,93958
 3.3000e+000 94209 -1.7521e+002 -3.5517e+002  5.7715e+001 41385 93958,94088,94062
 3.3000e+000 94186 -1.8180e+002 -2.5607e+002  4.2198e+001 41385 93958,94062,93984
 3.3000e+000 94163 -1.5867e+002 -2.5039e+002  3.9562e+001 41385 93984,94062,94036
 3.3000e+000 94140 -1.0895e+002 -3.4561e+002  5.8368e+001 41385 93984,94036,94010
 3.3000e+000 94476 -2.6731e+001 -4.1461e+002  2.6787e+001 40881 94326,94378,94352
 3.3000e+000 94453 -6.5657e+001 -3.4026e+002  2.9227e+001 40881 94300,94378,94326
 3.3000e+000 94430 -8.4182e+001 -3.1411e+002  4.3625e+000 40881 94300,94404,94378
 3.3000e+000 94626 -9.6446e+001 -2.5381e+002 -2.3190e+000 40591 94649,94551,94525
 3.3000e+000 94603 -5.1134e+001 -1.5622e+002  1.9967e+000 40591 94781,94577,94551
 3.3000e+000 94675 -3.2132e+001 -1.8233e+002 -3.0116e+001 40591 94781,94551,94649
 3.3000e+000 94807 -1.9106e+000 -1.0682e+002  3.1629e+001 40591 94499,94577,94781
 3.3000e+000 94830  2.7413e+000 -1.5935e+002 -2.0773e+000 40591 94499,94781,94649
 3.3000e+000 95336 -2.1427e+002 -2.8823e+002 -4.4978e+001 40187 95013,95169,95039
 3.3000e+000 95313 -4.9505e+001 -2.6123e+002  6.5308e+000 40187 95013,95195,95169
 3.3000e+000 95290 -3.5865e+001 -2.8337e+002 -3.1567e+001 40187 95039,95143,95065
 3.3000e+000 95267 -1.6101e+002 -3.3282e+002 -4.8897e+001 40187 95039,95169,95143
 3.3000e+000 95244 -7.0291e+001 -2.5633e+002 -2.6131e+001 40187 95091,95143,95117
 3.3000e+000 95221 -2.1740e+001 -1.6025e+002 -9.7581e+000 40187 95065,95143,95091
 3.3000e+000 95665 -8.2493e+001 -2.2110e+002  9.4003e+001 39626 95466,95570,95544
 3.3000e+000 95642 -1.5173e+002 -1.7965e+002  6.1052e+001 39626 95440,95570,95466
 3.3000e+000 95619 -2.3253e+002 -2.9163e+002  6.0215e+001 39626 95466,95544,95492
 3.3000e+000 95596 -4.9897e+001 -2.2616e+002  9.2594e+001 39626 95492,95544,95518
 3.3000e+000 95913 -1.1983e+002 -2.6391e+002 -3.9592e+001 39136 96080,95936,95766
 3.3000e+000 95890 -8.2412e+001 -2.8308e+002 -2.4233e+001 39136 95936,95714,95688
 3.3000e+000 95867 -2.1023e+002 -2.8210e+002  1.0313e+001 39136 96008,95792,95766
 3.3000e+000 95844 -9.8425e+001 -2.5616e+002 -3.0193e+001 39136 96080,95766,95740
 3.3000e+000 95962 -1.6647e+002 -2.9266e+002 -2.6036e+001 39136 96008,95766,95936
 3.3000e+000 95985 -1.0770e+002 -3.4491e+002 -6.4852e+000 39136 95818,95936,95688
 3.3000e+000 96034 -1.0427e+002 -2.3597e+002  1.7373e+001 39136 95818,95792,96008
 3.3000e+000 96057 -9.2714e+001 -2.5905e+002 -1.8399e+001 39136 95818,96008,95936
 3.3000e+000 96106 -1.0932e+002 -2.6117e+002 -1.0919e+001 39136 95714,95936,96080
 3.3000e+000 96129 -7.5880e+001 -2.5192e+002 -3.6422e+000 39136 95714,96080,95740
 3.3000e+000 96350 -1.0032e+002 -2.3734e+002 -1.1591e+001 38824 96200,96278,96252
 3.3000e+000 96327 -8.9891e+001 -2.3242e+002 -1.0153e+001 38824 96174,96278,96200
 3.3000e+000 96304 -3.9914e+001 -2.1340e+002 -3.3605e+001 38824 96200,96252,96226
 3.3000e+000 96830 -1.4272e+002 -2.4901e+002 -1.6332e+001 38320 97069,96536,96484
 3.3000e+000 96807 -1.4025e+002 -2.5275e+002 -1.6103e+001 38320 97069,96484,96853
 3.3000e+000 96784 -1.5670e+002 -2.7139e+002  5.7087e+000 38320 96853,96484,96458
 3.3000e+000 96761 -8.4075e+001 -2.1747e+002 -2.7103e+001 38320 96925,96640,96614
 3.3000e+000 96738 -1.3502e+002 -2.2730e+002 -1.0897e+001 38320 96997,96666,96640
 3.3000e+000 96715 -1.1284e+002 -2.9750e+002 -4.7916e+000 38320 97141,96588,96562
 3.3000e+000 96692 -1.7859e+002 -2.9002e+002 -4.6813e-001 38320 96484,96536,96510
 3.3000e+000 96879 -1.3900e+002 -2.6875e+002 -8.4088e+000 38320 97141,96562,96853
 3.3000e+000 96902 -1.2918e+002 -2.6322e+002 -8.9267e+000 38320 96925,96614,96853
 3.3000e+000 96951 -1.3201e+002 -2.2466e+002 -1.2847e+001 38320 96997,96640,96925
 3.3000e+000 96974 -1.2621e+002 -2.2120e+002 -7.7048e+000 38320 96458,96925,96853
 3.3000e+000 97023 -1.4901e+002 -2.3078e+002 -3.5501e+000 38320 96458,96666,96997
 3.3000e+000 97046 -1.3812e+002 -2.2510e+002 -5.7468e+000 38320 96458,96997,96925
 3.3000e+000 97095 -1.5346e+002 -2.4887e+002  4.3015e+000 38320 96562,96536,97069
 3.3000e+000 97118 -1.3247e+002 -2.5096e+002 -1.2872e+001 38320 96562,97069,96853
 3.3000e+000 97167 -6.6365e+001 -2.7142e+002 -1.6981e+001 38320 96614,96588,97141
 3.3000e+000 97190 -1.0962e+002 -2.5512e+002 -1.7273e+001 38320 96614,97141,96853
 3.3000e+000 97519 -1.0536e+002 -3.1043e+002  8.2013e+001 37766 97542,97398,97372
 3.3000e+000 97496 -1.2570e+002 -2.4711e+002  5.7262e+001 37766 97542,97372,97346
 3.3000e+000 97473 -1.2485e+002 -2.5857e+002  6.2909e+000 37766 97294,97424,97346
 3.3000e+000 97450 -1.4143e+002 -3.0708e+002  1.2541e+000 37766 97294,97346,97320
 3.3000e+000 97568 -5.7175e+001 -3.2373e+002  3.0040e+001 37766 97424,97398,97542
 3.3000e+000 97591 -8.9463e+001 -2.5158e+002  9.4069e+000 37766 97424,97542,97346
 3.3000e+000 98048 -1.3109e+002 -1.9200e+002 -6.4765e+001 37262 98071,97878,97852
 3.3000e+000 98025 -1.1037e+002 -2.3021e+002 -2.6765e+001 37262 98071,97852,97800
 3.3000e+000 98002 -1.3039e+002 -2.8674e+002 -2.4763e+001 37262 97800,97852,97826
 3.3000e+000 97979 -1.3284e+002 -2.4930e+002  5.8551e+000 37262 97800,97930,97904
 3.3000e+000 97956 -8.9554e+001 -3.0406e+002  1.8588e+001 37262 97774,97930,97800
 3.3000e+000 98097 -1.8859e+002 -2.1974e+002 -4.7342e+001 37262 97904,97878,98071
 3.3000e+000 98120 -1.4165e+002 -2.6053e+002 -1.2408e+001 37262 97904,98071,97800
 3.3000e+000 98449 -6.3098e+001 -1.7976e+002 -2.2869e+001 36950 98472,98302,98250
 3.3000e+000 98426 -3.5300e+001 -1.7052e+002 -2.8173e+001 36950 98472,98250,98354
 3.3000e+000 98403 -9.9972e+001 -1.9955e+002  2.2710e+001 36950 98250,98302,98276
 3.3000e+000 98380 -2.3259e+001 -1.3355e+002  1.4536e+001 36950 98224,98354,98250
 3.3000e+000 98498 -4.2585e+001 -2.0298e+002 -6.3497e+000 36950 98328,98302,98472
 3.3000e+000 98521 -9.9217e+000 -1.8915e+002 -1.6317e+001 36950 98328,98472,98354
 3.3000e+000 99125 -1.4340e+002 -1.4108e+002  1.4036e+001 36296 98704,98756,98730
 3.3000e+000 99102 -1.3876e+002 -1.5768e+002  1.3102e+001 36296 98704,98938,98756
 3.3000e+000 99079 -1.0084e+002 -1.9233e+002 -5.2949e+000 36296 99148,98938,98912
 3.3000e+000 99056 -1.0830e+002 -1.9886e+002  4.5147e+001 36296 99292,99220,98782
 3.3000e+000 99033 -8.7649e+001 -2.2209e+002  4.8717e+000 36296 99148,98912,98834
 3.3000e+000 99010 -1.0232e+002 -1.6852e+002  4.9556e+001 36296 99292,98782,98756
 3.3000e+000 98987 -8.3657e+001 -3.9184e+002 -7.2429e+001 36296 98834,98912,98886
 3.3000e+000 98964 -1.4312e+002 -5.7152e+002 -9.2617e+001 36296 98834,98886,98860
 3.3000e+000 99174 -1.2442e+002 -2.3794e+002  6.6517e+000 36296 99220,98938,99148
 3.3000e+000 99197 -8.6149e+001 -2.7176e+002  2.9176e+001 36296 98808,99148,98834
 3.3000e+000 99246 -1.0712e+002 -1.9505e+002  1.1148e+002 36296 98808,98782,99220
 3.3000e+000 99269 -4.3082e+001 -1.7232e+002  3.5793e+001 36296 98808,99220,99148
 3.3000e+000 99318 -1.1492e+002 -1.6913e+002  2.4399e+001 36296 98938,99220,99292
 3.3000e+000 99341 -1.1749e+002 -1.7385e+002  2.8905e+001 36296 98938,99292,98756
 3.3000e+000 99719 -1.4347e+002 -3.0195e+002 -1.2557e+000 35742 99742,99471,99601
 3.3000e+000 99696 -1.4855e+002 -2.3742e+002  2.7604e+001 35742 99445,99601,99471
 3.3000e+000 99673 -1.3707e+002 -2.8736e+002 -1.3974e+001 35742 99742,99601,99575
 3.3000e+000 99650 -1.1889e+002 -3.5507e+002 -1.1166e+001 35742 99814,99549,99523
 3.3000e+000 99627 -9.1025e+001 -2.7460e+002 -4.9143e+000 35742 99471,99523,99497
 3.3000e+000 99768 -1.1453e+002 -2.9541e+002  4.8560e+000 35742 99523,99471,99742
 3.3000e+000 99791 -1.3521e+002 -3.2791e+002 -9.8266e+000 35742 99814,99523,99742
 3.3000e+000 99840 -1.1621e+002 -3.2137e+002 -2.1551e+001 35742 99575,99549,99814
 3.3000e+000 99863 -1.2673e+002 -2.8610e+002 -1.9334e+001 35742 99575,99814,99742
 3.3000e+000 100111 -1.0635e+002 -2.4285e+002  1.6869e+001 35302 100134,99990,99938
 3.3000e+000 100088 -8.8361e+001 -2.2136e+002  5.5237e+000 35302 100134,99938,99912
 3.3000e+000 100065 -8.9100e+001 -2.2024e+002 -6.4805e+000 35302 100206,99886,100016
 3.3000e+000 100042 -1.4104e+002 -2.2531e+002  9.8651e+000 35302 99938,99990,99964
 3.3000e+000 100160 -8.3085e+001 -2.3409e+002  3.0827e+000 35302 100016,99990,100134
 3.3000e+000 100183 -8.4276e+001 -2.2422e+002 -6.3370e+000 35302 100206,100016,100134
 3.3000e+000 100232 -9.3367e+001 -2.2495e+002 -3.5961e+000 35302 99912,99886,100206
 3.3000e+000 100255 -8.8816e+001 -2.2990e+002 -3.5894e+000 35302 99912,100206,100134
 3.3000e+000 100586 -1.3904e+002 -1.6299e+002  4.2525e+001 35012 100609,100387,100361
 3.3000e+000 100563 -1.6769e+002 -1.2307e+002 -2.9354e+001 35012 100609,100361,100465
 3.3000e+000 100540 -7.7515e+001 -8.9628e+001 -6.9060e+001 35012 100361,100491,100465
 3.3000e+000 100517 -2.9629e+001 -9.8081e+001 -6.4012e+001 35012 100413,100465,100439
 3.3000e+000 100635 -6.5848e+001 -1.3095e+002  1.8421e+001 35012 100413,100387,100609
 3.3000e+000 100658 -9.2295e+001 -8.0843e+001 -5.5303e+001 35012 100413,100609,100465
 3.3000e+000 100987 -1.1068e+002 -2.4387e+002  2.5431e+001 34700 100788,100866,100814
 3.3000e+000 100964 -9.6875e+001 -2.0200e+002  3.7160e+001 34700 101010,100866,100788
 3.3000e+000 100941 -6.5305e+001 -1.5001e+002  4.0667e+001 34700 100762,100892,100866
 3.3000e+000 100918 -1.0844e+002 -2.3552e+002  1.4945e+001 34700 100814,100866,100840
 3.3000e+000 101036 -6.4684e+001 -1.7670e+002  6.0383e+001 34700 100762,100866,101010
 3.3000e+000 101493 -1.4989e+002 -2.8395e+002 -2.5204e+001 34132 101516,101349,101297
 3.3000e+000 101470 -1.7945e+002 -3.4038e+002 -4.0367e+001 34132 101588,101516,101297
 3.3000e+000 101447 -1.8016e+002 -3.5866e+002 -5.9565e+001 34132 101588,101297,101245
 3.3000e+000 101424 -1.1060e+002 -4.1915e+002 -5.5514e+001 34132 101245,101297,101271
 3.3000e+000 101401 -1.6630e+002 -2.8616e+002 -3.0051e+001 34132 101297,101349,101323
 3.3000e+000 101542 -1.5550e+002 -3.2808e+002 -2.0021e+001 34132 101375,101349,101516
 3.3000e+000 101565 -1.3926e+002 -3.2638e+002 -2.0746e+001 34132 101375,101516,101219
 3.3000e+000 101614 -1.4282e+002 -3.4200e+002 -2.0914e+001 34132 101219,101516,101588
 3.3000e+000 101637 -1.6135e+002 -3.5986e+002 -3.9180e+001 34132 101219,101588,101245
 3.3000e+000 101858 -6.7433e+001 -2.5391e+002  2.2489e+001 33720 101708,101786,101760
 3.3000e+000 101835 -5.5243e+001 -2.7865e+002  3.1459e+001 33720 101682,101786,101708
 3.3000e+000 101812 -9.9243e+001 -2.6999e+002  1.5529e+001 33720 101708,101760,101734
 3.3000e+000 102128 -3.0236e+001 -2.9414e+002 -8.3192e+000 33130 101903,102007,101929
 3.3000e+000 102105 -3.7426e+001 -3.3982e+002  1.0544e+001 33130 101903,102033,102007
 3.3000e+000 102082 -1.3483e+001 -3.5413e+002 -7.1949e+001 33130 101929,102007,101955
 3.3000e+000 102059 -5.0257e+001 -2.4853e+002  5.0224e+000 33130 101955,102007,101981
 3.3000e+000 102461 -1.1954e+002 -2.5990e+002 -2.1524e+001 32840 102236,102340,102262
 3.3000e+000 102438 -1.0536e+002 -1.8897e+002  6.8410e+000 32840 102236,102366,102340
 3.3000e+000 102415 -7.6502e+001 -2.4842e+002 -1.8217e+001 32840 102262,102340,102288
 3.3000e+000 102392 -1.4126e+002 -2.6436e+002 -4.8975e+001 32840 102288,102340,102314
 3.3000e+000 102997 -9.9156e+001 -1.6714e+002  4.7763e+001 32493 102749,102879,102853
 3.3000e+000 102974 -8.0387e+001 -1.3129e+002  3.2920e+001 32493 102723,102879,102749
 3.3000e+000 102951 -1.1708e+002 -2.0489e+002  3.1744e+001 32493 102749,102801,102775
 3.3000e+000 102928 -1.2455e+002 -2.0333e+002  3.0419e+001 32493 102749,102853,102801
 3.3000e+000 102905 -1.1621e+002 -1.8788e+002  2.5925e+001 32493 102801,102853,102827
 3.3000e+000 103454 -1.1948e+002 -2.1096e+002 -2.1678e+001 32089 103206,103336,103310
 3.3000e+000 103431 -9.6436e+001 -2.2302e+002 -3.5061e+000 32089 103180,103336,103206
 3.3000e+000 103408 -1.3113e+002 -2.4858e+002 -4.0287e+001 32089 103206,103284,103258
 3.3000e+000 103385 -1.8413e+002 -2.5440e+002 -4.9691e+001 32089 103206,103310,103284
 3.3000e+000 103362 -1.0223e+002 -1.7277e+002 -1.9436e+001 32089 103206,103258,103232
 3.3000e+000 103783 -2.0195e+002 -2.6642e+002 -3.1711e+001 31742 103558,103662,103584
 3.3000e+000 103760 -1.6370e+002 -2.0456e+002 -6.8605e+001 31742 103558,103688,103662
 3.3000e+000 103737 -1.3005e+002 -2.1234e+002 -5.7688e+001 31742 103584,103662,103636
 3.3000e+000 103714 -1.2333e+002 -2.3083e+002 -6.2374e+001 31742 103584,103636,103610
 3.3000e+000 104112 -7.8749e+000 -2.1316e+002  4.9822e+001 31402 103939,103991,103965
 3.3000e+000 104089 -6.0631e+001 -1.7948e+002  1.9880e+001 31402 103913,103991,103939
 3.3000e+000 104066 -8.6654e+001 -2.0165e+002  8.5270e+000 31402 103913,104017,103991
 3.3000e+000 104043 -1.0660e+002 -1.8938e+002 -4.8401e+000 31402 103887,104017,103913
 3.3000e+000 104569 -1.8913e+002 -3.3007e+002  8.4071e+000 30998 104321,104425,104373
 3.3000e+000 104546 -2.1312e+002 -3.3459e+002  3.1262e-001 30998 104321,104451,104425
 3.3000e+000 104523 -1.5063e+002 -2.7254e+002  4.0046e+001 30998 104373,104425,104399
 3.3000e+000 104500 -1.7461e+002 -3.8149e+002 -2.2712e+001 30998 104295,104451,104321
 3.3000e+000 104477 -2.4693e+002 -3.8252e+002  6.6145e+001 30998 104321,104373,104347
 3.3000e+000 104947 -1.5483e+002 -2.7219e+002 -3.0053e+001 30608 104751,104803,104777
 3.3000e+000 104924 -1.0742e+002 -2.8511e+002 -1.2543e+001 30608 104725,104803,104751
 3.3000e+000 104901 -1.6043e+002 -2.7395e+002  1.6720e+001 30608 104699,104803,104725
 3.3000e+000 104878 -1.4720e+002 -2.7014e+002  1.8544e+001 30608 104673,104803,104699
 3.3000e+000 104855 -1.1272e+002 -2.5585e+002 -8.3921e+000 30608 104673,104829,104803
 3.3000e+000 105276 -1.0511e+002 -2.5570e+002  1.2838e+001 30204 105427,105129,105077
 3.3000e+000 105253 -6.7301e+001 -2.7700e+002  6.0064e+001 30204 105427,105077,105051
 3.3000e+000 105230 -5.3620e+001 -2.5662e+002  7.9808e+000 30204 105077,105129,105103
 3.3000e+000 105207 -6.8625e+001 -2.3172e+002  3.5201e+001 30204 105299,105181,105155
 3.3000e+000 105325 -7.0792e+001 -2.2694e+002  1.3518e+001 30204 105129,105181,105299
 3.3000e+000 105453 -1.2882e+002 -2.7117e+002  3.3266e+001 30204 105181,105129,105427
 3.3000e+000 105476 -1.5083e+002 -3.1984e+002  8.6662e+001 30204 105181,105427,105051
 3.3000e+000 105903 -8.9058e+001 -2.1210e+002 -1.7709e+001 29700 105606,105762,105736
 3.3000e+000 105880 -1.1537e+002 -2.1748e+002  3.6156e-001 29700 105580,105762,105606
 3.3000e+000 105857 -1.4043e+002 -2.7048e+002 -1.9126e+001 29700 105606,105710,105632
 3.3000e+000 105834 -1.1447e+002 -2.2746e+002 -8.1155e+000 29700 105606,105736,105710
 3.3000e+000 105811 -1.1555e+002 -2.4774e+002 -3.1117e+001 29700 105632,105710,105684
 3.3000e+000 105788 -1.0713e+002 -2.2616e+002 -1.4240e+000 29700 105632,105684,105658
 3.3000e+000 106102 -5.3682e+001 -2.8403e+002  9.2611e+000 29124 105978,106030,106004
 3.3000e+000 106079 -8.8614e+001 -2.8364e+002  8.1014e+000 29124 105926,106030,105978
 3.3000e+000 106056 -9.4636e+001 -3.1715e+002  3.5715e+001 29124 105926,105978,105952
 3.3000e+000 106301 -6.9276e+001 -2.6525e+002  8.9673e-001 28712 106151,106229,106203
 3.3000e+000 106278 -8.4232e+001 -2.9191e+002 -1.2561e+001 28712 106125,106229,106151
 3.3000e+000 106255 -7.1994e+001 -2.7996e+002  1.5468e+001 28712 106151,106203,106177
 3.3000e+000 106551 -8.7883e+001 -3.2779e+002  7.0577e+000 28258 106352,106404,106378
 3.3000e+000 106528 -1.0620e+002 -3.2989e+002  6.3621e-001 28258 106352,106456,106404
 3.3000e+000 106505 -1.2156e+002 -3.5471e+002 -9.6038e+000 28258 106326,106456,106352
 3.3000e+000 106482 -1.0120e+002 -3.0708e+002  6.6537e+000 28258 106404,106456,106430
 3.3000e+000 107012 -1.1259e+002 -2.8322e+002  5.5821e+001 27818 107035,106790,106764
 3.3000e+000 106989 -9.9115e+001 -2.7061e+002  2.1087e+001 27818 107035,106764,106868
 3.3000e+000 106966 -7.0372e+001 -3.2656e+002  3.1834e+001 27818 107107,106842,106816
 3.3000e+000 106943 -1.5053e+002 -2.5201e+002  1.1607e+001 27818 106738,106868,106764
 3.3000e+000 106920 -1.4021e+002 -2.1361e+002  3.5830e+001 27818 106738,106894,106868
 3.3000e+000 107061 -4.9389e+001 -2.7200e+002  6.5220e+001 27818 106816,106790,107035
 3.3000e+000 107084 -8.6987e+001 -3.0512e+002  3.3606e+001 27818 107107,106816,107035
 3.3000e+000 107133 -6.9634e+001 -2.9483e+002  1.6317e+001 27818 106868,106842,107107
 3.3000e+000 107156 -7.9308e+001 -2.6201e+002  2.2365e+001 27818 106868,107107,107035
 3.3000e+000 107613 -3.3869e+001 -2.1434e+002  4.5988e+001 27312 107339,107469,107365
 3.3000e+000 107590 -3.8221e+000 -1.9639e+002  3.8454e+001 27312 107339,107495,107469
 3.3000e+000 107567 -3.6254e+001 -2.0860e+002  2.1742e+001 27312 107391,107469,107443
 3.3000e+000 107544 -3.7949e+001 -2.2538e+002  1.7787e+001 27312 107365,107469,107391
 3.3000e+000 107521 -9.8975e+001 -2.2878e+002  8.3832e+000 27312 107391,107443,107417
 3.3000e+000 107991 -1.1706e+002 -3.1940e+002  5.4724e+000 26858 108086,108014,107795
 3.3000e+000 107968 -1.2812e+002 -3.3783e+002 -3.7544e+001 26858 108014,107717,107873
 3.3000e+000 107945 -1.3701e+002 -3.3535e+002  1.9599e+001 26858 108158,108086,107795
 3.3000e+000 107922 -1.1315e+002 -3.3221e+002  1.7373e+001 26858 108158,107795,107769
 3.3000e+000 107899 -7.1762e+001 -4.1384e+002  5.7876e+001 26858 107821,107873,107847
 3.3000e+000 108040 -1.1979e+002 -3.6798e+002  1.6106e+001 26858 107821,107795,108014
 3.3000e+000 108063 -5.0356e+001 -3.5244e+002 -8.9787e+000 26858 107821,108014,107873
 3.3000e+000 108112 -1.6869e+002 -3.3933e+002  1.2452e+001 26858 107717,108014,108086
 3.3000e+000 108135 -1.3968e+002 -3.5185e+002  3.6784e+001 26858 107717,108086,107743
 3.3000e+000 108184 -1.0891e+002 -3.3378e+002  2.7927e+001 26858 107743,108086,108158
 3.3000e+000 108207 -9.8786e+001 -3.4049e+002  2.7569e+001 26858 107743,108158,107769
 3.3000e+000 108634 -1.5607e+002 -3.1238e+002  3.3780e+000 26404 108657,108415,108363
 3.3000e+000 108611 -1.7530e+002 -3.3840e+002  3.2177e+001 26404 108657,108363,108337
 3.3000e+000 108588 -1.5374e+002 -3.1216e+002  3.7691e+001 26404 108729,108311,108467
 3.3000e+000 108565 -1.7449e+002 -3.6279e+002  1.1523e+000 26404 108801,108441,108415
 3.3000e+000 108542 -2.2938e+002 -3.4654e+002  4.6117e+001 26404 108311,108493,108467
 3.3000e+000 108519 -1.0945e+002 -3.1144e+002  4.1813e+000 26404 108363,108415,108389
 3.3000e+000 108683 -2.0682e+002 -3.3168e+002  5.5309e+000 26404 108801,108415,108657
 3.3000e+000 108706 -2.0048e+002 -3.2637e+002  2.9270e+001 26404 108729,108467,108657
 3.3000e+000 108755 -1.2295e+002 -3.3302e+002  3.7810e+001 26404 108337,108311,108729
 3.3000e+000 108778 -1.4689e+002 -3.3083e+002  2.8915e+001 26404 108337,108729,108657
 3.3000e+000 108827 -2.0738e+002 -4.2241e+002 -1.7008e+001 26404 108467,108441,108801
 3.3000e+000 108850 -2.2619e+002 -3.7020e+002 -1.1768e+001 26404 108467,108801,108657
 3.3000e+000 109228 -1.4264e+002 -3.1134e+002 -1.3195e+001 26064 109006,109084,109058
 3.3000e+000 109205 -1.1630e+002 -2.8665e+002  7.6003e+000 26064 108980,109084,109006
 3.3000e+000 109182 -1.3463e+002 -2.8066e+002 -4.0665e+000 26064 108980,109110,109084
 3.3000e+000 109159 -1.3653e+002 -3.2391e+002 -3.0594e+000 26064 109006,109058,109032
 3.3000e+000 109136  7.5194e+000 -2.5229e+002  2.0524e+001 26064 108954,109110,108980
 3.3000e+000 109427 -4.6371e+001 -2.7239e+002 -5.5368e+001 25660 109303,109355,109329
 3.3000e+000 109404 -8.2122e+001 -3.4362e+002 -1.4712e+001 25660 109277,109355,109303
 3.3000e+000 109381 -6.7835e+001 -3.1469e+002 -2.6720e+000 25660 109251,109355,109277
 3.3000e+000 109577 -6.1477e+001 -1.4867e+002  5.1564e+001 25306 109476,109528,109502
 3.3000e+000 109554  3.7458e-001 -1.4004e+002  2.9193e+001 25306 109450,109528,109476
 3.3000e+000 109778 -1.0366e+002 -2.8903e+002  6.6713e+000 24944 109628,109706,109654
 3.3000e+000 109755 -1.1424e+002 -2.8632e+002 -1.2663e+000 24944 109602,109706,109628
 3.3000e+000 109732 -9.1530e+001 -2.7052e+002 -2.6715e+000 24944 109654,109706,109680
 3.3000e+000 110126 -1.1237e+002 -3.7608e+002  1.2408e+001 24440 110149,109907,109855
 3.3000e+000 110103 -1.1128e+002 -3.9513e+002  2.3071e+001 24440 110149,109855,109985
 3.3000e+000 110080 -9.1712e+001 -3.2844e+002  6.9287e+000 24440 109855,109907,109881
 3.3000e+000 110057 -9.7605e+001 -3.1502e+002  9.5485e+001 24440 109829,109985,109855
 3.3000e+000 110034 -1.0134e+002 -3.7629e+002 -3.4189e-001 24440 109907,109959,109933
 3.3000e+000 110011 -7.9684e+001 -3.2843e+002  1.0135e+001 24440 109803,109985,109829
 3.3000e+000 110175 -1.1025e+002 -3.5828e+002  6.5308e+000 24440 109959,109907,110149
 3.3000e+000 110198 -1.1098e+002 -3.7567e+002  1.9277e+001 24440 109959,110149,109985
 3.3000e+000 110301 -1.6119e+001 -2.4112e+002 -7.9433e+000 24028 110223,110275,110249
 3.3000e+000 110573 -4.4058e+001 -2.1640e+002  1.6870e+001 23467 110400,110452,110426
 3.3000e+000 110550 -7.6415e+001 -2.5647e+002 -3.9956e-001 23467 110374,110452,110400
 3.3000e+000 110527 -7.5724e+001 -2.5610e+002  3.0006e+000 23467 110348,110452,110374
 3.3000e+000 110504 -5.5429e+001 -2.4782e+002 -2.5738e+000 23467 110348,110478,110452
 3.3000e+000 111004 -1.7865e+002 -3.7412e+002 -3.7671e+001 22963 111027,110733,110707
 3.3000e+000 110981 -1.7287e+002 -3.5438e+002  1.5850e+001 22963 111027,110707,110681
 3.3000e+000 110958 -8.6315e+001 -3.1474e+002 -3.6173e+001 22963 111099,110759,110733
 3.3000e+000 110935 -1.1082e+002 -3.1024e+002 -2.5900e+001 22963 111171,110863,110811
 3.3000e+000 110912 -5.6803e+001 -2.3121e+002 -4.0898e+001 22963 110759,110811,110785
 3.3000e+000 110889 -1.2152e+002 -3.2858e+002 -2.0981e+001 22963 110811,110863,110837
 3.3000e+000 111053 -1.2515e+002 -3.4065e+002 -2.2731e+001 22963 111099,110733,111027
 3.3000e+000 111076 -1.0537e+002 -3.3381e+002 -2.1497e+001 22963 111171,110811,111027
 3.3000e+000 111125 -8.4901e+001 -3.0964e+002 -5.7364e+001 22963 110811,110759,111099
 3.3000e+000 111148 -9.1510e+001 -3.0693e+002 -4.9416e+001 22963 110811,111099,111027
 3.3000e+000 111197 -1.1278e+002 -2.7057e+002 -3.2724e+001 22963 110681,110863,111171
 3.3000e+000 111220 -1.1897e+002 -2.9988e+002 -1.7341e+001 22963 110681,111171,111027
 3.3000e+000 111726 -1.6928e+002 -3.2654e+002  7.9995e+000 22459 111749,111507,111429
 3.3000e+000 111703 -1.5567e+002 -3.2226e+002 -5.2576e+000 22459 111749,111429,111585
 3.3000e+000 111680 -1.3486e+002 -3.6184e+002 -3.3488e+000 22459 111403,111585,111429
 3.3000e+000 111657 -1.6296e+002 -3.5623e+002  1.5927e+001 22459 111507,111559,111533
 3.3000e+000 111634 -2.1985e+002 -3.1438e+002  1.8928e+001 22459 111455,111507,111481
 3.3000e+000 111611 -2.3147e+002 -3.1427e+002  2.8912e+001 22459 111429,111507,111455
 3.3000e+000 111775 -1.6938e+002 -3.4679e+002  2.0536e+001 22459 111559,111507,111749
 3.3000e+000 111798 -1.5543e+002 -3.3220e+002  7.5329e+000 22459 111559,111749,111585
 3.3000e+000 112046 -7.2186e+001 -2.6944e+002 -3.4432e+001 21898 112069,111925,111873
 3.3000e+000 112023 -6.9491e+001 -2.7189e+002 -7.9637e+000 21898 112069,111873,111847
 3.3000e+000 112000 -9.3843e+001 -2.7817e+002 -1.3210e+001 21898 111821,111951,111847
 3.3000e+000 111977 -8.1934e+001 -2.1007e+002 -2.1361e+001 21898 111873,111925,111899
 3.3000e+000 112095 -1.0968e+002 -2.8339e+002 -3.9212e+001 21898 111951,111925,112069
 3.3000e+000 112118 -9.1336e+001 -2.7975e+002 -1.3797e+001 21898 111951,112069,111847
 3.3000e+000 112498 -1.3360e+002 -3.0917e+002 -2.7263e+001 21608 112521,112276,112224
 3.3000e+000 112475 -8.6340e+001 -3.1441e+002  1.3976e+000 21608 112521,112224,112380
 3.3000e+000 112452 -8.9900e+001 -3.4936e+002  2.5122e+001 21608 112302,112380,112354
 3.3000e+000 112429 -1.5170e+002 -3.4898e+002 -1.9661e+001 21608 112224,112276,112250
 3.3000e+000 112406  4.8208e+001 -3.7401e+002 -1.0654e+001 21608 112302,112354,112328
 3.3000e+000 112547 -9.4970e+001 -2.6366e+002 -6.0639e+000 21608 112302,112276,112521
 3.3000e+000 112570 -6.4172e+001 -3.0099e+002  1.4240e+001 21608 112302,112521,112380
 3.3000e+000 112948 -1.5377e+002 -3.2143e+002 -6.4401e+000 20882 112971,112752,112700
 3.3000e+000 112925 -1.2000e+002 -3.0916e+002 -1.0914e+001 20882 112971,112700,112830
 3.3000e+000 112902 -1.9432e+002 -3.4231e+002  2.1072e+001 20882 112778,112830,112804
 3.3000e+000 112879 -1.1037e+002 -2.4923e+002 -1.5495e+001 20882 112674,112830,112700
 3.3000e+000 112856 -1.8754e+002 -3.3516e+002  5.3130e+000 20882 112700,112752,112726
 3.3000e+000 112997 -1.5384e+002 -3.1906e+002  1.2493e+001 20882 112778,112752,112971
 3.3000e+000 113020 -1.3482e+002 -3.1291e+002  7.1305e+000 20882 112778,112971,112830
 3.3000e+000 113526 -1.1440e+002 -3.2201e+002  4.1944e-001 20428 113255,113385,113333
 3.3000e+000 113503 -1.2522e+002 -3.5249e+002 -4.8353e-001 20428 113229,113385,113255
 3.3000e+000 113480 -1.9632e+001 -3.1576e+002  1.3875e+000 20428 113255,113333,113281
 3.3000e+000 113457 -1.1174e+002 -3.5130e+002 -6.5934e-001 20428 113203,113385,113229
 3.3000e+000 113434 -5.7526e+001 -3.3037e+002 -1.1181e+001 20428 113281,113333,113307
 3.3000e+000 113411 -1.3307e+002 -3.1798e+002  4.9481e+000 20428 113333,113385,113359
 3.3000e+000 113774 -1.5138e+001 -2.9498e+002  1.0788e+001 19917 113797,113601,113549
 3.3000e+000 113751 -4.4774e+001 -2.9820e+002  1.3553e+001 19917 113869,113797,113549
 3.3000e+000 113728 -4.3251e+001 -3.0137e+002  2.5294e+001 19917 113869,113549,113679
 3.3000e+000 113705 -2.5989e+001 -2.9378e+002  2.4603e+001 19917 113549,113601,113575
 3.3000e+000 113823 -4.6728e+001 -3.6368e+002 -1.5887e+000 19917 113627,113601,113797
 3.3000e+000 113846 -1.3717e+001 -2.8224e+002 -8.5637e+000 19917 113627,113797,113653
 3.3000e+000 113895 -3.9222e+001 -2.6912e+002  3.1931e+000 19917 113653,113797,113869
 3.3000e+000 113918 -5.0658e+001 -2.7749e+002  1.8315e+001 19917 113653,113869,113679
 3.3000e+000 114166 -1.4292e+002 -3.1815e+002 -5.2568e+000 19413 113993,114045,114019
 3.3000e+000 114143 -1.3765e+002 -2.9764e+002  1.5193e+000 19413 113967,114045,113993
 3.3000e+000 114120 -1.1268e+002 -2.8840e+002  1.3543e+001 19413 113967,114071,114045
 3.3000e+000 114097 -1.0082e+002 -3.2496e+002 -6.8351e+000 19413 113941,114071,113967
 3.3000e+000 114438 -1.2829e+002 -3.4034e+002  3.2134e+000 19001 114213,114265,114239
 3.3000e+000 114415 -9.2063e+001 -2.6520e+002 -8.1138e+000 19001 114213,114343,114265
 3.3000e+000 114392 -1.3661e+002 -3.6524e+002 -1.6562e+001 19001 114265,114343,114317
 3.3000e+000 114369  2.7719e+001 -2.9459e+002 -6.9014e+000 19001 114265,114317,114291
 3.3000e+000 114639 -8.7451e+001 -4.0300e+002  2.2751e+001 18554 114489,114541,114515
 3.3000e+000 114616 -8.0543e+001 -3.4352e+002  5.6977e+000 18554 114489,114567,114541
 3.3000e+000 114593 -1.8065e+002 -3.9430e+002 -2.4650e+001 18554 114463,114567,114489
 3.3000e+000 115043 -7.0895e+001 -3.0819e+002  1.1365e+001 18164 114795,114925,114821
 3.3000e+000 115020 -6.4409e+001 -3.2729e+002  1.7549e+001 18164 114769,114925,114795
 3.3000e+000 114997 -4.1648e+001 -3.2103e+002 -1.8789e+000 18164 115066,114873,114821
 3.3000e+000 114974 -3.9021e+001 -2.7771e+002 -9.4205e+000 18164 115066,114821,114925
 3.3000e+000 114951  1.2938e+001 -3.2252e+002 -3.0100e+001 18164 114821,114873,114847
 3.3000e+000 115092 -5.7490e+001 -2.8966e+002 -2.4744e+001 18164 114899,114873,115066
 3.3000e+000 115115 -3.7229e+001 -2.2344e+002 -3.4331e+001 18164 114899,115066,114925
 3.3000e+000 115265 -1.0393e+002 -3.5485e+002  2.4127e+000 17852 115164,115216,115190
 3.3000e+000 115242 -1.0970e+002 -3.6683e+002 -2.9584e-001 17852 115138,115216,115164
 3.3000e+000 115464 -2.1102e+002 -4.6984e+002  7.7463e+000 17346 115288,115366,115340
 3.3000e+000 115441 -3.2275e+002 -3.6600e+002 -1.2259e+001 17346 115288,115392,115366
 3.3000e+000 115418 -1.8843e+002 -5.2834e+002 -1.5391e+001 17346 115288,115340,115314
 3.3000e+000 115736 -9.5589e+001 -3.1653e+002  1.2618e+001 16942 115563,115641,115615
 3.3000e+000 115713 -1.0615e+002 -3.1472e+002  3.2756e+000 16942 115511,115641,115563
 3.3000e+000 115690 -2.2247e+002 -3.6590e+002  1.7917e+001 16942 115563,115615,115589
 3.3000e+000 115667 -1.2412e+002 -3.4156e+002  1.1109e+001 16942 115511,115563,115537
 3.3000e+000 116091 -1.5792e+002 -3.6111e+002 -1.4035e+001 16388 115918,115970,115944
 3.3000e+000 116068 -1.3626e+002 -2.8990e+002 -9.5697e+000 16388 115918,115996,115970
 3.3000e+000 116045 -1.8244e+002 -3.6606e+002  1.1576e+001 16388 115892,115996,115918
 3.3000e+000 116022 -1.2335e+002 -3.3543e+002  3.9226e+001 16388 115866,115996,115892
 3.3000e+000 116192 -6.2384e+001 -3.9540e+002 -5.5226e+001 15810 116114,116166,116140
 3.3000e+000 116342 -1.4234e+002 -4.6095e+002  2.4708e+001 15419 116241,116293,116267
 3.3000e+000 116319 -2.0404e+002 -5.6462e+002 -1.6415e+001 15419 116215,116293,116241
 3.3000e+000 116445 -1.6124e+002 -3.2119e+002  2.7314e+000 421 116367,116419,116393
 3.4000e+000 68477 -2.1655e+002 -3.3309e+002  3.9029e-002 68018 68327,68379,68353
 3.4000e+000 68454 -2.3141e+002 -4.5050e+002  3.3750e+001 68018 68301,68379,68327
 3.4000e+000 68431 -8.5922e+001 -4.9416e+002  8.9677e+001 68018 68301,68405,68379
 3.4000e+000 68578 -1.4287e+002 -3.1745e+002  1.4775e+000 67820 68500,68552,68526
 3.4000e+000 68728 -1.5825e+002 -3.0033e+002 -4.7455e+000 67508 68601,68653,68627
 3.4000e+000 68705 -2.5031e+002 -2.3034e+002 -4.5371e+001 67508 68601,68679,68653
 3.4000e+000 68927 -3.3922e+001 -2.5718e+002 -7.2244e+000 67310 68777,68829,68803
 3.4000e+000 68904 -5.9384e+001 -2.9702e+002  4.3335e+000 67310 68751,68829,68777
 3.4000e+000 68881 -3.5780e+001 -2.9489e+002  2.1567e+001 67310 68751,68855,68829
 3.4000e+000 69386 -1.2218e+002 -3.4026e+002 -1.9494e+001 67020 69216,69268,69242
 3.4000e+000 69363 -1.0973e+002 -2.6069e+002 -3.6370e+001 67020 69138,69268,69216
 3.4000e+000 69340 -8.0859e+001 -2.2652e+002 -1.5743e+001 67020 69112,69268,69138
 3.4000e+000 69317 -1.5013e+002 -2.8004e+002  2.2810e+001 67020 69138,69190,69164
 3.4000e+000 69294 -1.5884e+002 -2.5676e+002 -1.6491e+001 67020 69138,69216,69190
 3.4000e+000 69536 -2.6915e+002 -6.5221e+002 -5.6207e+001 66708 69435,69487,69461
 3.4000e+000 69513 -1.9669e+002 -7.3738e+002 -1.0180e+001 66708 69409,69487,69435
 3.4000e+000 69735 -1.5649e+002 -3.3562e+002  7.9696e+000 66346 69585,69637,69611
 3.4000e+000 69712 -1.2809e+002 -3.2003e+002 -1.1384e+000 66346 69559,69637,69585
 3.4000e+000 69689 -1.1534e+002 -3.1737e+002 -3.1100e+001 66346 69559,69663,69637
 3.4000e+000 69985 -2.0813e+002 -3.6650e+002  6.7655e+000 66148 69786,69890,69864
 3.4000e+000 69962 -2.1866e+002 -3.7086e+002  7.2565e+000 66148 69760,69890,69786
 3.4000e+000 69939 -1.4410e+002 -3.5099e+002 -5.8351e+001 66148 69786,69864,69838
 3.4000e+000 69916 -1.8180e+002 -3.8508e+002 -1.4453e+001 66148 69786,69838,69812
 3.4000e+000 70137 -1.0514e+002 -4.0766e+002 -2.4773e+001 65950 70036,70088,70062
 3.4000e+000 70114 -8.9435e+001 -4.5074e+002  1.8437e+001 65950 70010,70088,70036
 3.4000e+000 70470 -7.4178e+001 -2.9543e+002  2.7692e+001 65546 70245,70323,70271
 3.4000e+000 70447 -4.8782e+001 -2.5355e+002  1.4628e+001 65546 70245,70375,70323
 3.4000e+000 70424 -6.6345e+001 -3.2713e+002  1.4877e+001 65546 70323,70375,70349
 3.4000e+000 70401 -6.1301e+001 -2.7146e+002  1.3692e+001 65546 70271,70323,70297
 3.4000e+000 70620 -1.0326e+002 -3.5243e+002  1.3816e+001 65348 70493,70545,70519
 3.4000e+000 70597 -9.7863e+001 -3.7703e+002  9.2232e+000 65348 70493,70571,70545
 3.4000e+000 70721 -1.7195e+002 -3.6502e+002  2.8348e+001 65150 70643,70695,70669
 3.4000e+000 71020 -1.1324e+002 -2.7956e+002  4.8354e-001 64952 71043,70850,70824
 3.4000e+000 70997 -9.8842e+001 -2.4222e+002  1.8278e+000 64952 71043,70824,70772
 3.4000e+000 70974 -1.1129e+002 -3.2863e+002  4.7645e+000 64952 71115,70746,70876
 3.4000e+000 70951 -8.2018e+001 -3.2841e+002 -4.5004e+000 64952 70746,70902,70876
 3.4000e+000 70928 -9.2728e+001 -1.9114e+002 -2.8888e+001 64952 70772,70824,70798
 3.4000e+000 71069 -8.9939e+001 -2.6577e+002  1.0574e+001 64952 70876,70850,71043
 3.4000e+000 71092 -1.0770e+002 -3.0790e+002  6.4193e+000 64952 71115,70876,71043
 3.4000e+000 71141 -1.3026e+002 -3.0453e+002 -1.4139e+001 64952 70772,70746,71115
 3.4000e+000 71164 -1.1968e+002 -2.7355e+002 -1.2834e+001 64952 70772,71115,71043
 3.4000e+000 71365  5.4798e+000 -3.4252e+002 -4.8412e+000 64662 71215,71293,71267
 3.4000e+000 71342  8.9191e+001 -3.1138e+002 -8.3604e+001 64662 71189,71293,71215
 3.4000e+000 71319  3.5896e+001 -2.8008e+002  4.5676e+000 64662 71215,71267,71241
 3.4000e+000 71615 -7.2186e+001 -3.2553e+002 -8.5800e+000 64350 71710,71638,71468
 3.4000e+000 71592 -1.0747e+002 -3.2006e+002 -1.1947e+001 64350 71638,71416,71390
 3.4000e+000 71569 -7.6445e+001 -3.0363e+002  9.2550e+000 64350 71710,71468,71442
 3.4000e+000 71546  8.9724e+001 -2.9879e+002 -6.0688e+001 64350 71390,71520,71494
 3.4000e+000 71664 -7.7481e+001 -3.2851e+002 -6.0021e+000 64350 71494,71468,71638
 3.4000e+000 71687 -7.2851e+001 -3.2470e+002 -3.6690e+000 64350 71494,71638,71390
 3.4000e+000 71736 -6.9545e+001 -2.8177e+002  3.4434e+000 64350 71416,71638,71710
 3.4000e+000 71759 -6.0250e+001 -2.5698e+002  2.7087e+001 64350 71416,71710,71442
 3.4000e+000 72318 -7.4863e+001 -5.1317e+002 -2.3260e+001 63837 71972,72024,71998
 3.4000e+000 72295 -1.1520e+002 -3.1988e+002 -8.2146e+000 63837 72341,71972,71946
 3.4000e+000 72272 -1.1028e+002 -2.6036e+002  1.4025e+001 63837 72413,72341,71946
 3.4000e+000 72249 -1.0757e+002 -2.3639e+002  6.9227e+000 63837 72413,71946,72128
 3.4000e+000 72226 -1.7705e+002 -2.8304e+002  3.8881e+000 63837 72024,72076,72050
 3.4000e+000 72203 -1.4659e+002 -2.5913e+002 -7.3466e+000 63837 72024,72102,72076
 3.4000e+000 72180 -9.2494e+001 -2.3347e+002  2.3413e+001 63837 71946,72154,72128
 3.4000e+000 72367 -1.5814e+002 -3.4935e+002 -6.6111e+001 63837 72024,71972,72341
 3.4000e+000 72390 -1.1811e+002 -2.8138e+002 -2.2332e+001 63837 72024,72341,72102
 3.4000e+000 72439 -9.2929e+001 -2.9907e+002  5.6235e+000 63837 72102,72341,72413
 3.4000e+000 72462 -8.9633e+001 -2.7336e+002  1.4900e+000 63837 72102,72413,72128
 3.4000e+000 72791 -1.4865e+002 -2.9681e+002 -3.2500e+001 63383 72592,72696,72670
 3.4000e+000 72768 -1.5283e+002 -2.7836e+002 -5.6648e+001 63383 72566,72696,72592
 3.4000e+000 72745 -1.4997e+002 -2.6021e+002 -2.3482e+000 63383 72592,72670,72618
 3.4000e+000 72722 -1.4293e+002 -2.4690e+002  8.4366e-001 63383 72618,72670,72644
 3.4000e+000 73297 -1.8218e+002 -2.6571e+002 -5.1630e+000 63185 73000,73156,73130
 3.4000e+000 73274 -1.8380e+002 -2.7957e+002  3.4433e+001 63185 72974,73156,73000
 3.4000e+000 73251 -1.3140e+002 -3.0553e+002 -5.7143e+000 63185 73000,73052,73026
 3.4000e+000 73228 -1.4728e+002 -2.7051e+002 -1.4930e+001 63185 73000,73130,73052
 3.4000e+000 73205 -1.4813e+002 -3.0974e+002 -4.7552e+001 63185 73052,73130,73104
 3.4000e+000 73182 -1.4383e+002 -3.3790e+002 -5.0836e+001 63185 73052,73104,73078
 3.4000e+000 73545 -4.5999e+001 -2.7841e+002  6.6132e-001 62781 73568,73398,73372
 3.4000e+000 73522 -2.3099e+001 -2.5209e+002  1.3460e+001 62781 73568,73372,73346
 3.4000e+000 73499 -6.0790e+001 -2.6262e+002 -8.3980e+000 62781 73640,73320,73424
 3.4000e+000 73476 -8.9633e+001 -1.8420e+002 -2.2138e+001 62781 73320,73450,73424
 3.4000e+000 73594 -4.9421e+001 -2.5367e+002 -3.3038e+000 62781 73424,73398,73568
 3.4000e+000 73617 -5.1200e+001 -2.5734e+002 -4.3974e+000 62781 73640,73424,73568
 3.4000e+000 73666 -5.7445e+001 -2.5645e+002  1.0535e+000 62781 73346,73320,73640
 3.4000e+000 73689 -5.2153e+001 -2.5139e+002  4.7533e+000 62781 73346,73640,73568
 3.4000e+000 74035 -1.0604e+002 -3.2649e+002 -3.8217e+000 62363 74058,73868,73842
 3.4000e+000 74012 -1.0129e+002 -3.0132e+002 -2.3714e+001 62363 74130,74058,73842
 3.4000e+000 73989 -9.1920e+001 -2.9785e+002 -2.4019e+001 62363 74130,73842,73816
 3.4000e+000 73966 -1.5595e+002 -3.3939e+002  4.1498e+000 62363 74202,73764,73894
 3.4000e+000 73943 -2.0116e+002 -3.0597e+002  6.0417e+000 62363 73712,73894,73764
 3.4000e+000 73920 -2.2029e+002 -3.2595e+002 -4.0510e+000 62363 73712,73764,73738
 3.4000e+000 74084 -1.0931e+002 -3.1799e+002 -4.2578e+000 62363 73894,73868,74058
 3.4000e+000 74107 -1.4085e+002 -3.2377e+002  1.6633e+001 62363 74202,73894,74058
 3.4000e+000 74156 -1.1203e+002 -3.0449e+002  1.0259e+001 62363 73790,74058,74130
 3.4000e+000 74179 -6.6153e+001 -2.8549e+002  1.3365e+001 62363 73790,74130,73816
 3.4000e+000 74228 -1.7336e+002 -3.4698e+002 -1.9086e+001 62363 73790,73764,74202
 3.4000e+000 74251 -1.6238e+002 -3.3048e+002 -6.6695e+000 62363 73790,74202,74058
 3.4000e+000 74403 -3.8356e+000 -3.5040e+002  2.3488e+001 62115 74426,74302,74276
 3.4000e+000 74380  7.2721e+001 -3.3636e+002  5.4746e+001 62115 74426,74276,74354
 3.4000e+000 74452 -7.5411e+001 -3.1366e+002  2.3658e+001 62115 74328,74302,74426
 3.4000e+000 74475 -3.7543e+000 -3.0214e+002  5.7069e+001 62115 74328,74426,74354
 3.4000e+000 74578  5.6865e+001 -2.0807e+002  2.9274e+000 61825 74500,74552,74526
 3.4000e+000 74982 -1.6881e+002 -3.0092e+002  2.4628e+000 61513 75005,74734,74708
 3.4000e+000 74959 -1.6341e+002 -2.9209e+002 -6.9568e-001 61513 75005,74708,74864
 3.4000e+000 74936 -2.0900e+002 -3.0820e+002  2.1167e+001 61513 75077,74812,74734
 3.4000e+000 74913 -1.8925e+002 -3.1508e+002 -2.7324e+001 61513 74734,74786,74760
 3.4000e+000 74890 -1.8463e+002 -2.7736e+002 -1.0903e+000 61513 74734,74812,74786
 3.4000e+000 75031 -1.5790e+002 -3.0800e+002  4.2428e+000 61513 75077,74734,75005
 3.4000e+000 75054 -1.2423e+002 -2.9892e+002  4.4755e+001 61513 74838,75005,74864
 3.4000e+000 75103 -2.3775e+002 -3.2176e+002  6.7006e+001 61513 74838,74812,75077
 3.4000e+000 75126 -2.0418e+002 -3.3408e+002  5.0223e+001 61513 74838,75077,75005
 3.4000e+000 75553 -7.4735e+001 -2.6988e+002 -9.9706e+000 61060 75576,75360,75308
 3.4000e+000 75530 -8.1767e+001 -2.8602e+002 -1.3160e+001 61060 75576,75308,75230
 3.4000e+000 75507 -6.6296e+001 -2.5565e+002  3.2127e+000 61060 75308,75360,75334
 3.4000e+000 75484 -1.1085e+002 -3.3478e+002  2.1540e+001 61060 75230,75308,75256
 3.4000e+000 75461 -7.1154e+001 -3.0869e+002  1.0255e+001 61060 75256,75308,75282
 3.4000e+000 75438 -8.2585e+001 -2.6230e+002  3.6798e+001 61060 75360,75412,75386
 3.4000e+000 75602 -4.9627e+001 -2.8506e+002  2.1246e+000 61060 75412,75360,75576
 3.4000e+000 75625 -6.8708e+001 -3.1846e+002 -6.1240e+000 61060 75412,75576,75230
 3.4000e+000 76052 -1.1677e+002 -2.7544e+002  4.2437e+000 60442 75755,75859,75833
 3.4000e+000 76029 -1.4431e+002 -2.6437e+002 -1.8916e+001 60442 75729,75859,75755
 3.4000e+000 76006 -1.2377e+002 -2.5714e+002  1.8396e+001 60442 75755,75833,75807
 3.4000e+000 75983 -1.1454e+002 -3.0606e+002  1.1159e+001 60442 75755,75807,75781
 3.4000e+000 75960  2.3114e+001 -4.8126e+002  1.4509e+001 60442 75729,75911,75859
 3.4000e+000 75937 -2.3527e+002 -1.2233e+003  7.6804e+001 60442 75859,75911,75885
 3.4000e+000 76430 -1.2174e+002 -3.2079e+002 -1.1564e+001 59788 76453,76286,76234
 3.4000e+000 76407 -1.3207e+002 -3.6343e+002  4.1249e+000 59788 76453,76234,76182
 3.4000e+000 76384 -1.3169e+002 -2.3148e+002  4.0565e+001 59788 76525,76156,76312
 3.4000e+000 76361 -8.0392e+001 -4.1840e+002 -4.2332e+000 59788 76182,76234,76208
 3.4000e+000 76338 -8.3924e+001 -3.0557e+002 -6.3503e+000 59788 76234,76286,76260
 3.4000e+000 76479 -1.4494e+002 -3.4329e+002  1.1572e+000 59788 76312,76286,76453
 3.4000e+000 76502 -1.2193e+002 -3.2135e+002  1.4646e+001 59788 76525,76312,76453
 3.4000e+000 76551 -1.6845e+002 -3.4413e+002  4.1596e+001 59788 76182,76156,76525
 3.4000e+000 76574 -1.4755e+002 -3.7136e+002  2.3612e+001 59788 76182,76525,76453
 3.4000e+000 77031 -7.1877e+001 -1.7100e+002 -4.9563e+001 59448 76835,76887,76861
 3.4000e+000 77008 -1.0438e+001 -1.6274e+002  4.8313e+000 59448 76835,76913,76887
 3.4000e+000 76985 -4.1207e+001 -1.4300e+002  4.0520e+001 59448 76809,76913,76835
 3.4000e+000 76962 -1.0475e+002 -1.7224e+002 -3.6492e+000 59448 76757,76913,76809
 3.4000e+000 76939 -7.7130e+001 -1.6167e+002 -1.4566e+001 59448 76757,76809,76783
 3.4000e+000 77537 -1.3810e+002 -2.9623e+002  1.5966e+001 58994 77560,77344,77292
 3.4000e+000 77514 -1.9615e+002 -2.9577e+002  4.4584e+000 58994 77560,77292,77240
 3.4000e+000 77491 -1.1169e+002 -2.7927e+002 -6.6471e+000 58994 77632,77214,77370
 3.4000e+000 77468 -2.3353e+002 -3.4138e+002  6.0697e+001 58994 77292,77344,77318
 3.4000e+000 77445 -1.1503e+002 -3.6582e+002  1.5201e+001 58994 77214,77396,77370
 3.4000e+000 77422 -1.9948e+002 -3.1242e+002 -6.0055e+000 58994 77240,77292,77266
 3.4000e+000 77586 -1.4120e+002 -3.0350e+002  1.8168e+001 58994 77370,77344,77560
 3.4000e+000 77609 -1.4297e+002 -2.9847e+002  2.0495e+001 58994 77632,77370,77560
 3.4000e+000 77658 -9.4920e+001 -2.5921e+002 -3.5127e+001 58994 77240,77214,77632
 3.4000e+000 77681 -1.1768e+002 -2.5597e+002 -1.0572e+001 58994 77240,77632,77560
 3.4000e+000 78138 -1.0405e+002 -1.9633e+002  2.8893e+001 58440 77864,77994,77890
 3.4000e+000 78115 -5.9960e+001 -1.1140e+002 -1.9028e+001 58440 77864,78020,77994
 3.4000e+000 78092 -1.1865e+002 -2.3507e+002 -1.9760e+001 58440 77942,77994,77968
 3.4000e+000 78069 -9.2434e+001 -2.1998e+002  4.6069e+000 58440 77890,77994,77942
 3.4000e+000 78046 -8.5414e+001 -2.2304e+002 -8.7709e-001 58440 77890,77942,77916
 3.4000e+000 78467 -1.2114e+001 -2.6813e+002  1.2277e+001 57928 78562,78490,78346
 3.4000e+000 78444 -1.0037e+002 -2.7346e+002 -5.3426e+000 57928 78490,78294,78268
 3.4000e+000 78421  5.8804e+000 -2.8209e+002  2.6995e+001 57928 78562,78346,78320
 3.4000e+000 78398 -3.3112e+001 -2.6361e+002  4.4625e+000 57928 78242,78372,78268
 3.4000e+000 78516 -8.5447e+001 -3.3803e+002 -1.7228e+001 57928 78372,78346,78490
 3.4000e+000 78539 -6.5884e+001 -2.5785e+002 -1.8871e+000 57928 78372,78490,78268
 3.4000e+000 78588 -9.9637e+001 -2.6545e+002  3.0424e+000 57928 78294,78490,78562
 3.4000e+000 78611 -4.3761e+001 -2.3583e+002  3.2556e+001 57928 78294,78562,78320
 3.4000e+000 79068 -1.8377e+002 -4.0104e+002 -8.8450e+001 57467 78794,78924,78820
 3.4000e+000 79045 -1.4425e+002 -3.8724e+002 -9.8107e+001 57467 78794,78950,78924
 3.4000e+000 79022 -3.6139e+001 -3.3335e+002  2.0510e+001 57467 78820,78898,78872
 3.4000e+000 78999 -1.5547e+002 -4.7263e+002 -5.8405e+001 57467 78820,78924,78898
 3.4000e+000 78976 -5.2206e+001 -3.5131e+002  3.8057e+001 57467 78820,78872,78846
 3.4000e+000 79446 -1.5946e+002 -3.1118e+002  3.2872e-001 57120 79172,79302,79250
 3.4000e+000 79423 -1.4146e+002 -3.0317e+002 -7.6198e+000 57120 79172,79328,79302
 3.4000e+000 79400 -1.4310e+002 -2.7236e+002 -1.0531e+001 57120 79172,79250,79198
 3.4000e+000 79377 -1.0817e+002 -3.9073e+002  1.6060e+001 57120 79250,79302,79276
 3.4000e+000 79354 -1.7606e+002 -2.9573e+002 -2.1788e+001 57120 79198,79250,79224
 3.4000e+000 79952 -2.1296e+002 -3.2878e+002 -1.0977e+000 56773 79629,79785,79655
 3.4000e+000 79929 -7.1455e+001 -2.8652e+002  1.3414e+001 56773 79629,79811,79785
 3.4000e+000 79906 -1.6312e+002 -3.5987e+002  2.1772e+001 56773 79655,79733,79681
 3.4000e+000 79883 -1.6191e+002 -3.1767e+002  2.9544e+000 56773 79655,79785,79733
 3.4000e+000 79860 -1.4760e+002 -4.1323e+002 -5.6960e+001 56773 79733,79785,79759
 3.4000e+000 79837 -8.0614e+001 -3.2207e+002  5.9249e+001 56773 79681,79733,79707
 3.4000e+000 80281 -6.6431e+001 -2.5302e+002 -2.0138e+001 56319 80108,80160,80134
 3.4000e+000 80258 -7.5531e+001 -2.7613e+002 -2.5793e+001 56319 80056,80160,80108
 3.4000e+000 80235 -2.3487e+001 -2.4240e+002  1.5239e+001 56319 80056,80186,80160
 3.4000e+000 80212 -1.0789e+002 -3.5184e+002 -1.4937e+001 56319 80056,80108,80082
 3.4000e+000 80738 -4.0707e+001 -2.9726e+002  1.8182e+001 55957 80516,80620,80594
 3.4000e+000 80715 -9.9141e+001 -2.6974e+002  1.5612e+001 55957 80464,80620,80516
 3.4000e+000 80692 -8.6472e+001 -3.2330e+002  1.7506e+001 55957 80761,80568,80542
 3.4000e+000 80669 -6.9124e+001 -3.1852e+002  2.0566e+001 55957 80761,80542,80516
 3.4000e+000 80646 -1.0147e+002 -2.7448e+002  3.3911e+001 55957 80464,80516,80490
 3.4000e+000 80787 -1.0303e+002 -3.2142e+002  1.2697e+001 55957 80594,80568,80761
 3.4000e+000 80810 -8.6775e+001 -3.1716e+002  1.5982e+001 55957 80594,80761,80516
 3.4000e+000 81210 -6.2748e+001 -2.9915e+002 -3.7224e+001 55317 80936,80988,80962
 3.4000e+000 81187 -5.1192e+001 -3.1805e+002 -1.3477e+001 55317 80936,81066,80988
 3.4000e+000 81164 -5.2377e+001 -3.5208e+002 -1.7115e+000 55317 80936,81092,81066
 3.4000e+000 81141 -1.2424e+002 -3.5463e+002 -3.3754e+001 55317 80988,81066,81014
 3.4000e+000 81118 -1.3268e+001 -2.2219e+002  1.6580e+001 55317 81014,81066,81040
 3.4000e+000 81539 -1.3900e+002 -3.2316e+002  1.1341e+001 54913 81340,81418,81392
 3.4000e+000 81516 -5.3030e+001 -2.5844e+002 -1.7656e+001 54913 81340,81444,81418
 3.4000e+000 81493 -8.4893e+001 -2.7796e+002 -3.6800e+001 54913 81314,81444,81340
 3.4000e+000 81470 -1.5617e+002 -3.3683e+002  4.7101e+000 54913 81340,81392,81366
 3.4000e+000 81787 -7.4394e+001 -3.3214e+002 -1.4112e+000 54601 81588,81692,81640
 3.4000e+000 81764 -1.1190e+002 -3.3751e+002 -9.8088e+000 54601 81562,81692,81588
 3.4000e+000 81741 -5.5826e+001 -3.3682e+002  4.6101e+001 54601 81588,81640,81614
 3.4000e+000 81718 -7.7720e+001 -3.9598e+002 -3.2744e+001 54601 81640,81692,81666
 3.4000e+000 82344 -1.3087e+002 -3.6130e+002 -1.9727e+001 54090 81998,82102,82076
 3.4000e+000 82321 -1.7782e+002 -3.8187e+002 -1.1319e+001 54090 81998,82154,82102
 3.4000e+000 82298 -1.6142e+002 -3.7321e+002 -6.8869e+000 54090 81972,82154,81998
 3.4000e+000 82275 -1.8422e+002 -3.3722e+002 -2.2726e+001 54090 81998,82076,82024
 3.4000e+000 82252 -1.9601e+002 -3.9761e+002  1.9563e+001 54090 81972,82180,82154
 3.4000e+000 82229 -2.4658e+002 -4.6424e+002  2.5524e+001 54090 82102,82154,82128
 3.4000e+000 82206 -3.2634e+001 -2.5372e+002 -5.7212e+001 54090 82024,82076,82050
 3.4000e+000 82722 -2.1063e+002 -3.8045e+002 -1.2638e+001 53579 82500,82578,82552
 3.4000e+000 82699 -1.5320e+002 -3.4576e+002  1.0490e+001 53579 82448,82578,82500
 3.4000e+000 82676 -1.6650e+002 -3.9194e+002  1.0969e+001 53579 82448,82500,82474
 3.4000e+000 82653 -2.0628e+002 -3.7280e+002  2.9023e+001 53579 82448,82604,82578
 3.4000e+000 82630 -1.0898e+002 -3.5277e+002 -1.3968e+001 53579 82500,82552,82526
 3.4000e+000 83356 -9.9390e+001 -2.6894e+002 -2.8370e+001 53189 83379,83088,83036
 3.4000e+000 83333 -9.5927e+001 -3.0283e+002 -2.5723e+001 53189 83379,83036,82984
 3.4000e+000 83310 -3.4304e+001 -2.7535e+002  5.2937e+001 53189 82984,83192,83166
 3.4000e+000 83287  1.3572e+000 -2.2450e+002 -2.0376e+001 53189 83036,83088,83062
 3.4000e+000 83264 -7.4676e+001 -3.4012e+002 -4.8691e+001 53189 82984,83036,83010
 3.4000e+000 83241 -5.5320e+001 -3.1843e+002  8.4895e+000 53189 83114,83166,83140
 3.4000e+000 83218 -1.3908e+002 -3.4262e+002  8.5496e+000 53189 83088,83166,83114
 3.4000e+000 83405 -9.9705e+001 -2.9185e+002 -1.4292e+001 53189 83166,83088,83379
 3.4000e+000 83428 -9.1199e+001 -3.2183e+002 -1.3790e+001 53189 83166,83379,82984
 3.4000e+000 83725 -1.4063e+002 -4.0286e+002 -3.4377e+001 52585 83748,83529,83503
 3.4000e+000 83702 -1.0561e+002 -3.9150e+002 -2.1266e+001 52585 83820,83748,83503
 3.4000e+000 83679 -7.2548e+001 -3.8439e+002 -1.8113e+001 52585 83820,83503,83477
 3.4000e+000 83656 -4.1240e+001 -3.5267e+002  5.1287e+001 52585 83477,83607,83581
 3.4000e+000 83633  4.1790e+001 -3.1663e+002  5.5630e+001 52585 83451,83607,83477
 3.4000e+000 83774 -1.2235e+002 -3.5744e+002 -3.0340e+001 52585 83555,83529,83748
 3.4000e+000 83797 -1.5849e+002 -3.8742e+002 -1.7180e+001 52585 83555,83748,83581
 3.4000e+000 83846 -1.3688e+002 -3.7377e+002 -4.4830e+000 52585 83581,83748,83820
 3.4000e+000 83869 -1.1257e+002 -3.7201e+002 -4.8031e+000 52585 83581,83820,83477
 3.4000e+000 84200 -1.0084e+002 -3.6607e+002 -1.3043e+001 52024 84001,84105,84079
 3.4000e+000 84177 -5.1648e+001 -3.5744e+002 -2.5883e+001 52024 83975,84105,84001
 3.4000e+000 84154 -9.1002e+001 -3.6703e+002 -1.0775e+001 52024 84001,84079,84053
 3.4000e+000 84131 -4.4675e+001 -2.4546e+002  4.4658e+001 52024 84001,84053,84027
 3.4000e+000 84399 -8.3526e+001 -3.6021e+002 -1.3894e-001 51470 84422,84275,84249
 3.4000e+000 84376 -7.4707e+001 -3.4566e+002  4.2167e+000 51470 84422,84249,84223
 3.4000e+000 84353 -9.6916e+001 -3.7758e+002 -5.1539e+001 51470 84275,84327,84301
 3.4000e+000 84448 -9.2471e+001 -3.4594e+002 -6.2821e-001 51470 84327,84275,84422
 3.4000e+000 84471 -8.5543e+001 -3.3418e+002  3.2868e+000 51470 84327,84422,84223
 3.4000e+000 84753 -1.0839e+002 -3.1016e+002 -1.7035e+000 51073 84603,84655,84629
 3.4000e+000 84730 -2.2428e+002 -3.6353e+002 -1.6468e+001 51073 84776,84655,84603
 3.4000e+000 84707 -4.3827e+001 -3.1591e+002 -8.9955e+001 51073 84577,84681,84655
 3.4000e+000 84802 -1.4099e+002 -3.1727e+002 -4.1365e+001 51073 84577,84655,84776
 3.4000e+000 85178 -1.8567e+002 -4.0623e+002  3.6510e+001 50519 85201,85008,84982
 3.4000e+000 85155 -1.7580e+002 -3.7683e+002  2.6024e+001 50519 85273,85201,84982
 3.4000e+000 85132 -1.6546e+002 -3.7702e+002  1.9407e+001 50519 85273,84982,84930
 3.4000e+000 85109 -1.6096e+002 -3.6832e+002  1.6836e+001 50519 84930,84982,84956
 3.4000e+000 85086 -1.4354e+002 -3.6975e+002  1.2057e+001 50519 85008,85060,85034
 3.4000e+000 85227 -1.5286e+002 -3.8569e+002  1.5995e+001 50519 85060,85008,85201
 3.4000e+000 85250 -1.7371e+002 -3.8641e+002  1.0512e+001 50519 85060,85201,84904
 3.4000e+000 85299 -1.6469e+002 -3.8117e+002  8.2958e+000 50519 84904,85201,85273
 3.4000e+000 85322 -1.2901e+002 -3.3768e+002 -7.7975e+000 50519 84904,85273,84930
 3.4000e+000 85958 -9.9864e+001 -3.3425e+002 -1.0435e+001 50093 85981,85768,85716
 3.4000e+000 85935 -8.8253e+001 -3.0808e+002 -8.4023e+000 50093 85981,85716,85612
 3.4000e+000 85912 -1.1809e+002 -3.1519e+002  4.9748e+000 50093 85612,85716,85664
 3.4000e+000 85889 -7.8530e+001 -3.2226e+002 -3.4412e+000 50093 85716,85768,85742
 3.4000e+000 85866 -9.8391e+001 -2.3965e+002 -7.3566e+001 50093 85664,85716,85690
 3.4000e+000 85843  1.9911e+001 -2.2766e+002 -2.2432e+001 50093 85586,85794,85612
 3.4000e+000 85820 -8.7326e+001 -4.1536e+002  2.7519e+001 50093 85612,85664,85638
 3.4000e+000 86007 -1.2667e+002 -3.5962e+002 -4.9948e+001 50093 85794,85768,85981
 3.4000e+000 86030 -8.8736e+001 -2.7962e+002 -3.7823e+001 50093 85794,85981,85612
 3.4000e+000 86131 -1.1826e+002 -3.7340e+002  5.0851e+001 49895 86053,86105,86079
 3.4000e+000 86639 -8.2752e+001 -2.3466e+002 -4.8760e+001 49391 86662,86394,86368
 3.4000e+000 86616 -9.7723e+001 -2.8627e+002 -4.3686e+001 49391 86662,86368,86342
 3.4000e+000 86593 -5.2836e+001 -2.8541e+002 -1.3314e+001 49391 86342,86498,86472
 3.4000e+000 86570 -3.5043e+001 -3.1245e+002 -1.5879e+001 49391 86316,86498,86342
 3.4000e+000 86547 -1.5753e+002 -4.3377e+002 -1.9717e+001 49391 86394,86472,86446
 3.4000e+000 86524 -1.1980e+001 -4.1142e+002  2.4799e+000 49391 86394,86446,86420
 3.4000e+000 86688 -9.3223e+001 -2.8288e+002 -2.6378e+001 49391 86472,86394,86662
 3.4000e+000 86711 -8.3293e+001 -3.0496e+002 -2.5474e+001 49391 86472,86662,86342
 3.4000e+000 87089 -1.2174e+002 -3.4862e+002  9.5130e+000 48987 86815,86919,86867
 3.4000e+000 87066 -1.2312e+002 -3.5945e+002  1.4885e+001 48987 86815,86971,86919
 3.4000e+000 87043 -4.7153e+001 -3.8636e+002 -3.4489e+001 48987 86867,86919,86893
 3.4000e+000 87020 -1.3891e+002 -3.9511e+002  3.0968e+001 48987 86815,86867,86841
 3.4000e+000 86997 -1.3781e+002 -3.0680e+002  5.0076e+001 48987 86919,86971,86945
 3.4000e+000 87467 -2.3248e+002 -3.4465e+002  1.7307e+001 48540 87490,87245,87219
 3.4000e+000 87444 -1.6794e+002 -3.2131e+002  1.6243e+000 48540 87562,87490,87219
 3.4000e+000 87421 -1.2522e+002 -3.0406e+002  1.5045e+001 48540 87562,87219,87349
 3.4000e+000 87398 -1.7435e+002 -2.7050e+002 -1.9225e+001 48540 87245,87297,87271
 3.4000e+000 87375 -1.0295e+002 -3.1902e+002  1.1507e+001 48540 87193,87349,87219
 3.4000e+000 87516 -1.5942e+002 -3.2912e+002  2.7357e+000 48540 87297,87245,87490
 3.4000e+000 87539 -1.6067e+002 -3.2837e+002  4.9637e+000 48540 87297,87490,87323
 3.4000e+000 87588 -1.2675e+002 -3.0139e+002  2.9317e+001 48540 87323,87490,87562
 3.4000e+000 87611 -1.0622e+002 -3.0696e+002  3.8306e+001 48540 87323,87562,87349
 3.4000e+000 87810 -1.6723e+002 -5.9977e+002 -4.3237e+001 48136 87660,87712,87686
 3.4000e+000 87787 -9.8248e+001 -3.6180e+002 -1.9919e+001 48136 87660,87738,87712
 3.4000e+000 87764 -2.2592e+002 -3.7049e+002 -6.3901e+001 48136 87634,87738,87660
 3.4000e+000 88205 -1.5011e+002 -3.7474e+002 -3.1691e+001 47210 88300,88228,87937
 3.4000e+000 88182 -1.3060e+002 -3.6447e+002 -8.7609e+000 47210 88228,87833,88041
 3.4000e+000 88159 -1.5243e+002 -4.0096e+002 -5.0575e+001 47210 88300,87937,87911
 3.4000e+000 88136 -1.4836e+002 -3.6517e+002 -4.3668e+001 47210 87833,87911,87859
 3.4000e+000 88113 -2.4712e+002 -3.2817e+002 -2.5226e+001 47210 87937,87989,87963
 3.4000e+000 88090 -1.2287e+002 -2.9477e+002  6.0469e+001 47210 87989,88041,88015
 3.4000e+000 88067 -1.7178e+002 -4.2382e+002 -5.5400e+001 47210 87859,87911,87885
 3.4000e+000 88254 -1.3332e+002 -3.1016e+002 -3.2537e+001 47210 87989,87937,88228
 3.4000e+000 88277 -1.5736e+002 -3.5785e+002 -1.1662e+001 47210 87989,88228,88041
 3.4000e+000 88326 -1.2445e+002 -3.4981e+002 -1.1369e+001 47210 87833,88228,88300
 3.4000e+000 88349 -1.3079e+002 -3.6728e+002 -3.1631e+001 47210 87833,88300,87911
 3.4000e+000 88780 -2.4381e+002 -4.2422e+002 -7.6986e+001 46642 88803,88509,88483
 3.4000e+000 88757 -1.7588e+002 -3.8227e+002 -4.1030e+001 46642 88803,88483,88639
 3.4000e+000 88734 -1.9485e+002 -3.1433e+002 -4.7166e+001 46642 88875,88561,88509
 3.4000e+000 88711 -1.9738e+002 -2.9233e+002 -8.7103e+000 46642 88509,88561,88535
 3.4000e+000 88688 -1.1460e+002 -4.2662e+002  2.6728e+000 46642 88457,88639,88483
 3.4000e+000 88665 -2.2422e+002 -5.1335e+002 -1.9341e+001 46642 88561,88613,88587
 3.4000e+000 88829 -1.9716e+002 -3.4297e+002 -5.3652e+001 46642 88875,88509,88803
 3.4000e+000 88852 -1.9283e+002 -4.1414e+002 -3.4715e+001 46642 88613,88803,88639
 3.4000e+000 88901 -1.6000e+002 -3.5425e+002 -2.2798e+001 46642 88613,88561,88875
 3.4000e+000 88924 -1.7495e+002 -4.0067e+002 -2.8454e+001 46642 88613,88875,88803
 3.4000e+000 89253 -7.3475e+001 -3.6423e+002  9.2639e+000 46444 89080,89158,89132
 3.4000e+000 89230 -8.6234e+001 -3.9290e+002  6.0968e+000 46444 89028,89158,89080
 3.4000e+000 89207 -3.2705e+001 -3.4774e+002 -1.3186e+001 46444 89028,89080,89054
 3.4000e+000 89184 -3.8003e+001 -3.9365e+002 -2.7214e+001 46444 89080,89132,89106
 3.4000e+000 89631 -9.6459e+001 -2.3760e+002  4.7355e+000 46040 89383,89461,89435
 3.4000e+000 89608 -1.0236e+002 -2.6355e+002 -1.6382e+001 46040 89383,89487,89461
 3.4000e+000 89585 -1.0580e+002 -3.0739e+002 -9.7171e+000 46040 89383,89435,89409
 3.4000e+000 89562 -7.9832e+001 -2.2144e+002 -3.4352e+001 46040 89383,89513,89487
 3.4000e+000 89539 -3.4203e+001 -1.9978e+002 -4.2082e+001 46040 89357,89513,89383
 3.4000e+000 90009 -9.7532e+001 -2.9848e+002 -8.8092e-001 45636 89813,89891,89839
 3.4000e+000 89986 -1.0143e+002 -2.7981e+002  1.7226e+001 45636 89787,89891,89813
 3.4000e+000 89963 -8.9107e+001 -2.8104e+002 -6.8408e+000 45636 89839,89891,89865
 3.4000e+000 89940 -1.1698e+002 -3.1262e+002  1.1017e+001 45636 89735,89891,89787
 3.4000e+000 89917 -8.5141e+001 -3.1670e+002 -1.7003e+001 45636 89735,89787,89761
 3.4000e+000 90208 -6.6707e+001 -2.3419e+002 -4.6868e+001 45175 90231,90058,90032
 3.4000e+000 90185 -3.8690e+001 -2.1402e+002 -6.9683e+001 45175 90231,90032,90136
 3.4000e+000 90162 -8.0965e+001 -1.9093e+002 -4.1683e+000 45175 90058,90110,90084
 3.4000e+000 90257 -9.7312e+001 -2.6271e+002 -1.2127e+001 45175 90110,90058,90231
 3.4000e+000 90280 -4.4051e+001 -2.2742e+002 -3.7663e+001 45175 90110,90231,90136
 3.4000e+000 90528 -7.4045e+001 -2.4173e+002 -3.2549e+001 44513 90695,90551,90407
 3.4000e+000 90505 -8.0046e+001 -2.1897e+002 -1.5750e+001 44513 90551,90355,90329
 3.4000e+000 90482 -9.8706e+001 -2.3642e+002 -2.9692e+001 44513 90623,90303,90433
 3.4000e+000 90459 -5.5665e+001 -2.2526e+002 -2.4037e+001 44513 90695,90407,90381
 3.4000e+000 90577 -1.0951e+002 -2.5324e+002 -5.5458e+001 44513 90433,90407,90551
 3.4000e+000 90600 -9.3564e+001 -2.3187e+002 -2.7665e+001 44513 90623,90433,90551
 3.4000e+000 90649 -9.6959e+001 -2.3044e+002 -2.6629e+001 44513 90329,90303,90623
 3.4000e+000 90672 -9.7164e+001 -2.3047e+002 -2.6660e+001 44513 90329,90623,90551
 3.4000e+000 90721 -9.6217e+001 -2.2030e+002 -3.6511e+001 44513 90355,90551,90695
 3.4000e+000 90744 -9.0683e+001 -2.1286e+002 -3.3352e+001 44513 90355,90695,90381
 3.4000e+000 91077 -5.5780e-001 -2.5512e+002 -1.7224e+001 44059 91100,90930,90904
 3.4000e+000 91054 -9.9032e+001 -2.7483e+002  1.2988e+001 44059 91100,90904,90982
 3.4000e+000 91031 -1.7786e+002 -3.1985e+002 -2.3448e+001 44059 90878,90982,90904
 3.4000e+000 91008 -5.6497e+001 -2.3926e+002  1.4784e+001 44059 90852,90982,90878
 3.4000e+000 91126 -1.4554e+002 -2.9157e+002 -2.0739e+001 44059 91172,91100,90956
 3.4000e+000 91149 -9.3131e+001 -2.6626e+002 -1.2281e+001 44059 90956,91100,90982
 3.4000e+000 91198 -4.8588e+000 -1.5280e+002 -7.6892e+001 44059 90930,91100,91172
 3.4000e+000 91677 -1.3853e+002 -2.1307e+002  2.0620e+001 43549 91455,91533,91481
 3.4000e+000 91654 -6.1866e+001 -2.1588e+002  2.7839e+001 43549 91429,91533,91455
 3.4000e+000 91631 -1.3311e+002 -2.1116e+002  1.0065e+001 43549 91481,91533,91507
 3.4000e+000 91608 -3.5023e+001 -2.0476e+002  1.3582e+001 43549 91429,91559,91533
 3.4000e+000 91585 -5.5089e+000 -7.5489e+001  2.1730e+000 43549 91403,91559,91429
 3.4000e+000 92006 -1.1985e+002 -3.0983e+002 -1.5763e+000 43059 91781,91885,91807
 3.4000e+000 91983 -1.2706e+002 -2.9484e+002  4.8431e+001 43059 91781,91911,91885
 3.4000e+000 91960 -1.2140e+002 -3.1234e+002 -2.8173e-001 43059 91807,91885,91833
 3.4000e+000 91937 -7.8112e+001 -2.9580e+002 -6.2594e+000 43059 91833,91885,91859
 3.4000e+000 92561 -1.0720e+002 -2.2952e+002 -2.4730e+001 42598 92584,92215,92189
 3.4000e+000 92538 -1.1545e+002 -2.5934e+002 -2.3832e+001 42598 92656,92584,92189
 3.4000e+000 92515 -1.0315e+002 -2.9310e+002 -6.5678e+000 42598 92656,92189,92397
 3.4000e+000 92492 -1.3071e+002 -2.0472e+002 -2.9892e+001 42598 92241,92319,92293
 3.4000e+000 92469 -1.2557e+002 -2.4501e+002  1.4155e+001 42598 92319,92397,92371
 3.4000e+000 92446 -5.0929e+001 -2.8204e+002  1.1457e+002 42598 92319,92371,92345
 3.4000e+000 92423 -1.2986e+002 -2.1172e+002 -4.3050e+001 42598 92241,92293,92267
 3.4000e+000 92610 -1.1255e+002 -2.3057e+002 -2.3101e+001 42598 92241,92215,92584
 3.4000e+000 92633 -1.0382e+002 -2.1120e+002 -3.0139e+001 42598 92241,92584,92319
 3.4000e+000 92682 -1.0463e+002 -2.1401e+002 -1.6788e+001 42598 92319,92584,92656
 3.4000e+000 92705 -8.4699e+001 -2.3729e+002 -3.9059e+000 42598 92319,92656,92397
 3.4000e+000 92953 -1.2742e+002 -3.3865e+002  1.8141e+001 42094 92976,92806,92780
 3.4000e+000 92930 -1.4128e+002 -3.1808e+002 -4.2347e-003 42094 92976,92780,92754
 3.4000e+000 92907 -2.8442e+001 -3.2604e+002 -2.9227e+000 42094 93048,92832,92806
 3.4000e+000 92884 -1.8335e+002 -3.2161e+002 -2.1676e+001 42094 92728,92858,92754
 3.4000e+000 93002 -8.0948e+001 -3.1283e+002  7.9998e+000 42094 93048,92806,92976
 3.4000e+000 93025 -1.3182e+002 -3.1275e+002 -5.1960e+000 42094 92858,92976,92754
 3.4000e+000 93074 -1.0205e+002 -3.5217e+002 -3.6386e+000 42094 92858,92832,93048
 3.4000e+000 93097 -1.4467e+002 -3.3258e+002  2.6181e+000 42094 92858,93048,92976
 3.4000e+000 93605 -1.3698e+002 -3.9293e+002 -1.4424e+001 41846 93628,93412,93386
 3.4000e+000 93582 -1.0407e+002 -2.9738e+002 -2.0398e+000 41846 93628,93386,93308
 3.4000e+000 93559 -1.5806e+002 -3.1056e+002 -6.4208e+001 41846 93700,93464,93438
 3.4000e+000 93536 -1.4816e+002 -4.1097e+002  5.3067e+000 41846 93308,93386,93334
 3.4000e+000 93513 -1.9284e+002 -2.9921e+002 -4.7697e+001 41846 93334,93386,93360
 3.4000e+000 93490 -1.5149e+002 -2.7299e+002 -6.1098e+001 41846 93282,93464,93308
 3.4000e+000 93654 -1.1891e+002 -3.1536e+002 -2.9359e+001 41846 93438,93412,93628
 3.4000e+000 93677 -1.5862e+002 -3.1708e+002 -2.9744e+001 41846 93700,93438,93628
 3.4000e+000 93726 -1.4288e+002 -2.6806e+002 -5.8527e+001 41846 93308,93464,93700
 3.4000e+000 93749 -1.3761e+002 -2.6114e+002 -2.4513e+001 41846 93308,93700,93628
 3.4000e+000 94255 -1.0457e+002 -3.1922e+002  2.0501e+001 41385 93958,94114,94088
 3.4000e+000 94232 -9.0203e+001 -3.4448e+002  8.1864e+000 41385 93932,94114,93958
 3.4000e+000 94209 -1.8304e+002 -3.7054e+002  6.0342e+001 41385 93958,94088,94062
 3.4000e+000 94186 -1.8973e+002 -2.6746e+002  4.4149e+001 41385 93958,94062,93984
 3.4000e+000 94163 -1.6640e+002 -2.6162e+002  4.1609e+001 41385 93984,94062,94036
 3.4000e+000 94140 -1.1360e+002 -3.6163e+002  6.1325e+001 41385 93984,94036,94010
 3.4000e+000 94476 -2.7582e+001 -4.3239e+002  2.8119e+001 40881 94326,94378,94352
 3.4000e+000 94453 -6.8601e+001 -3.5503e+002  3.0534e+001 40881 94300,94378,94326
 3.4000e+000 94430 -8.8034e+001 -3.2782e+002  4.6243e+000 40881 94300,94404,94378
 3.4000e+000 94626 -1.0141e+002 -2.6419e+002 -2.0284e+000 40591 94649,94551,94525
 3.4000e+000 94603 -5.3738e+001 -1.6406e+002  2.5181e+000 40591 94781,94577,94551
 3.4000e+000 94675 -3.4036e+001 -1.9098e+002 -3.0712e+001 40591 94781,94551,94649
 3.4000e+000 94807 -2.6206e+000 -1.1337e+002  3.2772e+001 40591 94499,94577,94781
 3.4000e+000 94830  2.4580e+000 -1.6716e+002 -2.1670e+000 40591 94499,94781,94649
 3.4000e+000 95336 -2.2266e+002 -3.0039e+002 -4.6344e+001 40187 95013,95169,95039
 3.4000e+000 95313 -5.1314e+001 -2.7205e+002  6.7958e+000 40187 95013,95195,95169
 3.4000e+000 95290 -3.7567e+001 -2.9631e+002 -3.2612e+001 40187 95039,95143,95065
 3.4000e+000 95267 -1.6833e+002 -3.4791e+002 -5.0915e+001 40187 95039,95169,95143
 3.4000e+000 95244 -7.5526e+001 -2.7112e+002 -2.8372e+001 40187 95091,95143,95117
 3.4000e+000 95221 -2.3615e+001 -1.7009e+002 -1.0352e+001 40187 95065,95143,95091
 3.4000e+000 95665 -8.6077e+001 -2.3275e+002  9.8194e+001 39626 95466,95570,95544
 3.4000e+000 95642 -1.5950e+002 -1.8850e+002  6.3292e+001 39626 95440,95570,95466
 3.4000e+000 95619 -2.4193e+002 -3.0607e+002  6.2573e+001 39626 95466,95544,95492
 3.4000e+000 95596 -5.2182e+001 -2.3736e+002  9.6397e+001 39626 95492,95544,95518
 3.4000e+000 95913 -1.2507e+002 -2.7552e+002 -4.1157e+001 39136 96080,95936,95766
 3.4000e+000 95890 -8.6346e+001 -2.9594e+002 -2.4865e+001 39136 95936,95714,95688
 3.4000e+000 95867 -2.1995e+002 -2.9484e+002  1.1144e+001 39136 96008,95792,95766
 3.4000e+000 95844 -1.0270e+002 -2.6736e+002 -3.1627e+001 39136 96080,95766,95740
 3.4000e+000 95962 -1.7414e+002 -3.0583e+002 -2.6880e+001 39136 96008,95766,95936
 3.4000e+000 95985 -1.1253e+002 -3.6013e+002 -6.4508e+000 39136 95818,95936,95688
 3.4000e+000 96034 -1.0915e+002 -2.4662e+002  1.8432e+001 39136 95818,95792,96008
 3.4000e+000 96057 -9.7044e+001 -2.7075e+002 -1.8974e+001 39136 95818,96008,95936
 3.4000e+000 96106 -1.1429e+002 -2.7320e+002 -1.1047e+001 39136 95714,95936,96080
 3.4000e+000 96129 -7.9189e+001 -2.6330e+002 -3.7537e+000 39136 95714,96080,95740
 3.4000e+000 96350 -1.0420e+002 -2.4638e+002 -1.1787e+001 38824 96200,96278,96252
 3.4000e+000 96327 -9.2461e+001 -2.4117e+002 -1.0510e+001 38824 96174,96278,96200
 3.4000e+000 96304 -4.0898e+001 -2.2011e+002 -3.4945e+001 38824 96200,96252,96226
 3.4000e+000 96830 -1.4863e+002 -2.5890e+002 -1.6841e+001 38320 97069,96536,96484
 3.4000e+000 96807 -1.4611e+002 -2.6274e+002 -1.6601e+001 38320 97069,96484,96853
 3.4000e+000 96784 -1.6284e+002 -2.8211e+002  6.3255e+000 38320 96853,96484,96458
 3.4000e+000 96761 -8.8443e+001 -2.2761e+002 -2.6485e+001 38320 96925,96640,96614
 3.4000e+000 96738 -1.4049e+002 -2.3797e+002 -1.1588e+001 38320 96997,96666,96640
 3.4000e+000 96715 -1.1709e+002 -3.1055e+002 -5.1557e+000 38320 97141,96588,96562
 3.4000e+000 96692 -1.8582e+002 -3.0117e+002 -3.8063e-001 38320 96484,96536,96510
 3.4000e+000 96879 -1.4504e+002 -2.7913e+002 -8.9224e+000 38320 97141,96562,96853
 3.4000e+000 96902 -1.3458e+002 -2.7180e+002 -8.4373e+000 38320 96925,96614,96853
 3.4000e+000 96951 -1.3723e+002 -2.3567e+002 -1.2980e+001 38320 96997,96640,96925
 3.4000e+000 96974 -1.3179e+002 -2.3086e+002 -7.2973e+000 38320 96458,96925,96853
 3.4000e+000 97023 -1.5520e+002 -2.4042e+002 -3.7801e+000 38320 96458,96666,96997
 3.4000e+000 97046 -1.4332e+002 -2.3481e+002 -5.3325e+000 38320 96458,96997,96925
 3.4000e+000 97095 -1.5920e+002 -2.5835e+002  3.8127e+000 38320 96562,96536,97069
 3.4000e+000 97118 -1.3835e+002 -2.6095e+002 -1.3376e+001 38320 96562,97069,96853
 3.4000e+000 97167 -6.8043e+001 -2.8165e+002 -1.8502e+001 38320 96614,96588,97141
 3.4000e+000 97190 -1.1407e+002 -2.6335e+002 -1.8525e+001 38320 96614,97141,96853
 3.4000e+000 97519 -1.0981e+002 -3.2444e+002  8.5815e+001 37766 97542,97398,97372
 3.4000e+000 97496 -1.3126e+002 -2.5863e+002  5.9870e+001 37766 97542,97372,97346
 3.4000e+000 97473 -1.3083e+002 -2.6943e+002  7.3190e+000 37766 97294,97424,97346
 3.4000e+000 97450 -1.4826e+002 -3.2026e+002  2.1362e+000 37766 97294,97346,97320
 3.4000e+000 97568 -5.9287e+001 -3.3807e+002  3.1784e+001 37766 97424,97398,97542
 3.4000e+000 97591 -9.3298e+001 -2.6315e+002  1.0134e+001 37766 97424,97542,97346
 3.4000e+000 98048 -1.3746e+002 -2.0150e+002 -6.8262e+001 37262 98071,97878,97852
 3.4000e+000 98025 -1.1615e+002 -2.4184e+002 -2.8791e+001 37262 98071,97852,97800
 3.4000e+000 98002 -1.3658e+002 -2.9917e+002 -2.6646e+001 37262 97800,97852,97826
 3.4000e+000 97979 -1.3895e+002 -2.6213e+002  7.7047e+000 37262 97800,97930,97904
 3.4000e+000 97956 -9.5227e+001 -3.1823e+002  2.0535e+001 37262 97774,97930,97800
 3.4000e+000 98097 -1.9615e+002 -2.3009e+002 -4.9014e+001 37262 97904,97878,98071
 3.4000e+000 98120 -1.4844e+002 -2.7470e+002 -1.3095e+001 37262 97904,98071,97800
 3.4000e+000 98449 -6.5813e+001 -1.8762e+002 -2.3687e+001 36950 98472,98302,98250
 3.4000e+000 98426 -3.6878e+001 -1.7797e+002 -2.9220e+001 36950 98472,98250,98354
 3.4000e+000 98403 -1.0411e+002 -2.0801e+002  2.3732e+001 36950 98250,98302,98276
 3.4000e+000 98380 -2.4189e+001 -1.3945e+002  1.5153e+001 36950 98224,98354,98250
 3.4000e+000 98498 -4.4474e+001 -2.1182e+002 -6.4915e+000 36950 98328,98302,98472
 3.4000e+000 98521 -1.0470e+001 -1.9738e+002 -1.6876e+001 36950 98328,98472,98354
 3.4000e+000 99125 -1.5020e+002 -1.4872e+002  1.4325e+001 36296 98704,98756,98730
 3.4000e+000 99102 -1.4520e+002 -1.6614e+002  1.3301e+001 36296 98704,98938,98756
 3.4000e+000 99079 -1.0579e+002 -2.0202e+002 -5.4511e+000 36296 99148,98938,98912
 3.4000e+000 99056 -1.1385e+002 -2.0850e+002  4.7430e+001 36296 99292,99220,98782
 3.4000e+000 99033 -9.1873e+001 -2.3256e+002  5.2038e+000 36296 99148,98912,98834
 3.4000e+000 99010 -1.0716e+002 -1.7627e+002  5.1763e+001 36296 99292,98782,98756
 3.4000e+000 98987 -8.7930e+001 -4.1019e+002 -7.5282e+001 36296 98834,98912,98886
 3.4000e+000 98964 -1.4975e+002 -5.9596e+002 -9.6286e+001 36296 98834,98886,98860
 3.4000e+000 99174 -1.3034e+002 -2.4930e+002  6.9645e+000 36296 99220,98938,99148
 3.4000e+000 99197 -9.0494e+001 -2.8464e+002  3.0690e+001 36296 98808,99148,98834
 3.4000e+000 99246 -1.1277e+002 -2.0491e+002  1.1711e+002 36296 98808,98782,99220
 3.4000e+000 99269 -4.5248e+001 -1.8021e+002  3.7665e+001 36296 98808,99220,99148
 3.4000e+000 99318 -1.1992e+002 -1.7655e+002  2.5281e+001 36296 98938,99220,99292
 3.4000e+000 99341 -1.2266e+002 -1.8168e+002  2.9835e+001 36296 98938,99292,98756
 3.4000e+000 99719 -1.4987e+002 -3.1569e+002 -1.0580e+000 35742 99742,99471,99601
 3.4000e+000 99696 -1.5533e+002 -2.4816e+002  2.9137e+001 35742 99445,99601,99471
 3.4000e+000 99673 -1.4306e+002 -3.0019e+002 -1.4655e+001 35742 99742,99601,99575
 3.4000e+000 99650 -1.2398e+002 -3.7057e+002 -1.1852e+001 35742 99814,99549,99523
 3.4000e+000 99627 -9.4388e+001 -2.8673e+002 -5.1553e+000 35742 99471,99523,99497
 3.4000e+000 99768 -1.1923e+002 -3.0860e+002  5.1635e+000 35742 99523,99471,99742
 3.4000e+000 99791 -1.4089e+002 -3.4234e+002 -1.0450e+001 35742 99814,99523,99742
 3.4000e+000 99840 -1.2128e+002 -3.3552e+002 -2.2639e+001 35742 99575,99549,99814
 3.4000e+000 99863 -1.3216e+002 -2.9886e+002 -2.0318e+001 35742 99575,99814,99742
 3.4000e+000 100111 -1.1128e+002 -2.5364e+002  1.7868e+001 35302 100134,99990,99938
 3.4000e+000 100088 -9.2362e+001 -2.3105e+002  5.9302e+000 35302 100134,99938,99912
 3.4000e+000 100065 -9.3185e+001 -2.2981e+002 -6.7006e+000 35302 100206,99886,100016
 3.4000e+000 100042 -1.4767e+002 -2.3481e+002  1.0573e+001 35302 99938,99990,99964
 3.4000e+000 100160 -8.6602e+001 -2.4433e+002  3.4626e+000 35302 100016,99990,100134
 3.4000e+000 100183 -8.7936e+001 -2.3405e+002 -6.5251e+000 35302 100206,100016,100134
 3.4000e+000 100232 -9.8007e+001 -2.3485e+002 -3.6777e+000 35302 99912,99886,100206
 3.4000e+000 100255 -9.3001e+001 -2.4007e+002 -3.6281e+000 35302 99912,100206,100134
 3.4000e+000 100586 -1.4435e+002 -1.6935e+002  4.3830e+001 35012 100609,100387,100361
 3.4000e+000 100563 -1.7398e+002 -1.2860e+002 -3.0359e+001 35012 100609,100361,100465
 3.4000e+000 100540 -8.0843e+001 -9.4439e+001 -7.1305e+001 35012 100361,100491,100465
 3.4000e+000 100517 -3.2126e+001 -1.0283e+002 -6.5533e+001 35012 100413,100465,100439
 3.4000e+000 100635 -6.8671e+001 -1.3625e+002  1.9413e+001 35012 100413,100387,100609
 3.4000e+000 100658 -9.6130e+001 -8.5235e+001 -5.6691e+001 35012 100413,100609,100465
 3.4000e+000 100987 -1.1616e+002 -2.5498e+002  2.6457e+001 34700 100788,100866,100814
 3.4000e+000 100964 -1.0095e+002 -2.1253e+002  3.8560e+001 34700 101010,100866,100788
 3.4000e+000 100941 -6.8980e+001 -1.5801e+002  4.2572e+001 34700 100762,100892,100866
 3.4000e+000 100918 -1.1396e+002 -2.4653e+002  1.5257e+001 34700 100814,100866,100840
 3.4000e+000 101036 -6.7876e+001 -1.8602e+002  6.3362e+001 34700 100762,100866,101010
 3.4000e+000 101493 -1.5655e+002 -2.9641e+002 -2.6360e+001 34132 101516,101349,101297
 3.4000e+000 101470 -1.8733e+002 -3.5525e+002 -4.2157e+001 34132 101588,101516,101297
 3.4000e+000 101447 -1.8819e+002 -3.7450e+002 -6.2058e+001 34132 101588,101297,101245
 3.4000e+000 101424 -1.1527e+002 -4.3771e+002 -5.7825e+001 34132 101245,101297,101271
 3.4000e+000 101401 -1.7417e+002 -2.9886e+002 -3.1485e+001 34132 101297,101349,101323
 3.4000e+000 101542 -1.6245e+002 -3.4241e+002 -2.0939e+001 34132 101375,101349,101516
 3.4000e+000 101565 -1.4544e+002 -3.4047e+002 -2.1600e+001 34132 101375,101516,101219
 3.4000e+000 101614 -1.4930e+002 -3.5710e+002 -2.1729e+001 34132 101219,101516,101588
 3.4000e+000 101637 -1.6858e+002 -3.7579e+002 -4.0679e+001 34132 101219,101588,101245
 3.4000e+000 101858 -6.9537e+001 -2.6273e+002  2.3416e+001 33720 101708,101786,101760
 3.4000e+000 101835 -5.6891e+001 -2.8806e+002  3.2688e+001 33720 101682,101786,101708
 3.4000e+000 101812 -1.0213e+002 -2.7922e+002  1.6279e+001 33720 101708,101760,101734
 3.4000e+000 102128 -3.1272e+001 -3.0688e+002 -8.6602e+000 33130 101903,102007,101929
 3.4000e+000 102105 -3.9206e+001 -3.5478e+002  1.1120e+001 33130 101903,102033,102007
 3.4000e+000 102082 -1.3643e+001 -3.6965e+002 -7.5365e+001 33130 101929,102007,101955
 3.4000e+000 102059 -5.2753e+001 -2.5941e+002  5.1809e+000 33130 101955,102007,101981
 3.4000e+000 102461 -1.2362e+002 -2.6909e+002 -2.2459e+001 32840 102236,102340,102262
 3.4000e+000 102438 -1.0893e+002 -1.9535e+002  7.1589e+000 32840 102236,102366,102340
 3.4000e+000 102415 -7.9213e+001 -2.5737e+002 -1.8909e+001 32840 102262,102340,102288
 3.4000e+000 102392 -1.4666e+002 -2.7384e+002 -5.1303e+001 32840 102288,102340,102314
 3.4000e+000 102997 -1.0355e+002 -1.7443e+002  4.9591e+001 32493 102749,102879,102853
 3.4000e+000 102974 -8.4284e+001 -1.3772e+002  3.4220e+001 32493 102723,102879,102749
 3.4000e+000 102951 -1.2251e+002 -2.1439e+002  3.3485e+001 32493 102749,102801,102775
 3.4000e+000 102928 -1.2998e+002 -2.1187e+002  3.1654e+001 32493 102749,102853,102801
 3.4000e+000 102905 -1.2164e+002 -1.9679e+002  2.6813e+001 32493 102801,102853,102827
 3.4000e+000 103454 -1.2464e+002 -2.2041e+002 -2.2609e+001 32089 103206,103336,103310
 3.4000e+000 103431 -1.0012e+002 -2.3211e+002 -3.4816e+000 32089 103180,103336,103206
 3.4000e+000 103408 -1.3638e+002 -2.5919e+002 -4.2614e+001 32089 103206,103284,103258
 3.4000e+000 103385 -1.9301e+002 -2.6618e+002 -5.1975e+001 32089 103206,103310,103284
 3.4000e+000 103362 -1.0666e+002 -1.8121e+002 -2.1041e+001 32089 103206,103258,103232
 3.4000e+000 103783 -2.1023e+002 -2.7700e+002 -3.2358e+001 31742 103558,103662,103584
 3.4000e+000 103760 -1.7055e+002 -2.1432e+002 -7.2366e+001 31742 103558,103688,103662
 3.4000e+000 103737 -1.3694e+002 -2.2030e+002 -5.9986e+001 31742 103584,103662,103636
 3.4000e+000 103714 -1.2930e+002 -2.4138e+002 -6.5321e+001 31742 103584,103636,103610
 3.4000e+000 104112 -8.7287e+000 -2.2325e+002  5.2117e+001 31402 103939,103991,103965
 3.4000e+000 104089 -6.3901e+001 -1.8806e+002  2.0848e+001 31402 103913,103991,103939
 3.4000e+000 104066 -9.1148e+001 -2.1162e+002  8.7067e+000 31402 103913,104017,103991
 3.4000e+000 104043 -1.1196e+002 -1.9829e+002 -5.2869e+000 31402 103887,104017,103913
 3.4000e+000 104569 -1.9833e+002 -3.4504e+002  7.7560e+000 30998 104321,104425,104373
 3.4000e+000 104546 -2.2167e+002 -3.4945e+002 -1.0811e-001 30998 104321,104451,104425
 3.4000e+000 104523 -1.5733e+002 -2.8398e+002  4.1297e+001 30998 104373,104425,104399
 3.4000e+000 104500 -1.8117e+002 -3.9708e+002 -2.3514e+001 30998 104295,104451,104321
 3.4000e+000 104477 -2.5764e+002 -3.9537e+002  6.9091e+001 30998 104321,104373,104347
 3.4000e+000 104947 -1.6203e+002 -2.8430e+002 -3.1184e+001 30608 104751,104803,104777
 3.4000e+000 104924 -1.1262e+002 -2.9851e+002 -1.2951e+001 30608 104725,104803,104751
 3.4000e+000 104901 -1.6785e+002 -2.8682e+002  1.7579e+001 30608 104699,104803,104725
 3.4000e+000 104878 -1.5411e+002 -2.8270e+002  1.9249e+001 30608 104673,104803,104699
 3.4000e+000 104855 -1.1797e+002 -2.6819e+002 -9.0903e+000 30608 104673,104829,104803
 3.4000e+000 105276 -1.0886e+002 -2.6704e+002  1.3709e+001 30204 105427,105129,105077
 3.4000e+000 105253 -6.9430e+001 -2.8830e+002  6.2677e+001 30204 105427,105077,105051
 3.4000e+000 105230 -5.5686e+001 -2.6844e+002  8.4532e+000 30204 105077,105129,105103
 3.4000e+000 105207 -7.1736e+001 -2.4137e+002  3.6923e+001 30204 105299,105181,105155
 3.4000e+000 105325 -7.4098e+001 -2.3627e+002  1.3614e+001 30204 105129,105181,105299
 3.4000e+000 105453 -1.3361e+002 -2.8294e+002  3.4210e+001 30204 105181,105129,105427
 3.4000e+000 105476 -1.5608e+002 -3.3251e+002  8.9492e+001 30204 105181,105427,105051
 3.4000e+000 105903 -9.2891e+001 -2.2125e+002 -1.8656e+001 29700 105606,105762,105736
 3.4000e+000 105880 -1.2056e+002 -2.2689e+002  3.9818e-001 29700 105580,105762,105606
 3.4000e+000 105857 -1.4655e+002 -2.8233e+002 -1.9979e+001 29700 105606,105710,105632
 3.4000e+000 105834 -1.1955e+002 -2.3728e+002 -8.5998e+000 29700 105606,105736,105710
 3.4000e+000 105811 -1.2071e+002 -2.5847e+002 -3.2411e+001 29700 105632,105710,105684
 3.4000e+000 105788 -1.1135e+002 -2.3465e+002 -1.7121e+000 29700 105632,105684,105658
 3.4000e+000 106102 -5.6295e+001 -2.9736e+002  9.8205e+000 29124 105978,106030,106004
 3.4000e+000 106079 -9.2646e+001 -2.9673e+002  8.6900e+000 29124 105926,106030,105978
 3.4000e+000 106056 -9.8844e+001 -3.3138e+002  3.7421e+001 29124 105926,105978,105952
 3.4000e+000 106301 -7.2152e+001 -2.7657e+002  8.5514e-001 28712 106151,106229,106203
 3.4000e+000 106278 -8.7778e+001 -3.0437e+002 -1.3177e+001 28712 106125,106229,106151
 3.4000e+000 106255 -7.4950e+001 -2.9197e+002  1.6127e+001 28712 106151,106203,106177
 3.4000e+000 106551 -9.1824e+001 -3.4338e+002  8.0372e+000 28258 106352,106404,106378
 3.4000e+000 106528 -1.1114e+002 -3.4499e+002  4.4376e-001 28258 106352,106456,106404
 3.4000e+000 106505 -1.2563e+002 -3.7152e+002 -1.0434e+001 28258 106326,106456,106352
 3.4000e+000 106482 -1.0628e+002 -3.2169e+002  6.9653e+000 28258 106404,106456,106430
 3.4000e+000 107012 -1.1763e+002 -2.9602e+002  5.8445e+001 27818 107035,106790,106764
 3.4000e+000 106989 -1.0357e+002 -2.8292e+002  2.2120e+001 27818 107035,106764,106868
 3.4000e+000 106966 -7.3571e+001 -3.4088e+002  3.3337e+001 27818 107107,106842,106816
 3.4000e+000 106943 -1.5765e+002 -2.6398e+002  1.2432e+001 27818 106738,106868,106764
 3.4000e+000 106920 -1.4699e+002 -2.2443e+002  3.7269e+001 27818 106738,106894,106868
 3.4000e+000 107061 -5.1660e+001 -2.8424e+002  6.8184e+001 27818 106816,106790,107035
 3.4000e+000 107084 -9.0841e+001 -3.1863e+002  3.5169e+001 27818 107107,106816,107035
 3.4000e+000 107133 -7.2753e+001 -3.0795e+002  1.7231e+001 27818 106868,106842,107107
 3.4000e+000 107156 -8.2838e+001 -2.7390e+002  2.3496e+001 27818 106868,107107,107035
 3.4000e+000 107613 -3.5187e+001 -2.2390e+002  4.7884e+001 27312 107339,107469,107365
 3.4000e+000 107590 -4.2173e+000 -2.0498e+002  3.9887e+001 27312 107339,107495,107469
 3.4000e+000 107567 -3.7911e+001 -2.1785e+002  2.3025e+001 27312 107391,107469,107443
 3.4000e+000 107544 -3.9759e+001 -2.3543e+002  1.8871e+001 27312 107365,107469,107391
 3.4000e+000 107521 -1.0327e+002 -2.3871e+002  8.6689e+000 27312 107391,107443,107417
 3.4000e+000 107991 -1.2212e+002 -3.3356e+002  5.7427e+000 26858 108086,108014,107795
 3.4000e+000 107968 -1.3389e+002 -3.5366e+002 -3.9447e+001 26858 108014,107717,107873
 3.4000e+000 107945 -1.4313e+002 -3.5067e+002  2.0507e+001 26858 108158,108086,107795
 3.4000e+000 107922 -1.1803e+002 -3.4786e+002  1.8351e+001 26858 108158,107795,107769
 3.4000e+000 107899 -7.4694e+001 -4.3195e+002  6.0259e+001 26858 107821,107873,107847
 3.4000e+000 108040 -1.2501e+002 -3.8386e+002  1.6699e+001 26858 107821,107795,108014
 3.4000e+000 108063 -5.2467e+001 -3.6815e+002 -9.4654e+000 26858 107821,108014,107873
 3.4000e+000 108112 -1.7621e+002 -3.5444e+002  1.2992e+001 26858 107717,108014,108086
 3.4000e+000 108135 -1.4587e+002 -3.6714e+002  3.8362e+001 26858 107717,108086,107743
 3.4000e+000 108184 -1.1369e+002 -3.4838e+002  2.9306e+001 26858 107743,108086,108158
 3.4000e+000 108207 -1.0291e+002 -3.5584e+002  2.8991e+001 26858 107743,108158,107769
 3.4000e+000 108634 -1.6207e+002 -3.2311e+002  3.2846e+000 26404 108657,108415,108363
 3.4000e+000 108611 -1.8245e+002 -3.5068e+002  3.3760e+001 26404 108657,108363,108337
 3.4000e+000 108588 -1.5942e+002 -3.2416e+002  3.9581e+001 26404 108729,108311,108467
 3.4000e+000 108565 -1.8176e+002 -3.7660e+002  1.3147e+000 26404 108801,108441,108415
 3.4000e+000 108542 -2.3782e+002 -3.5973e+002  4.8085e+001 26404 108311,108493,108467
 3.4000e+000 108519 -1.1321e+002 -3.2377e+002  3.4306e+000 26404 108363,108415,108389
 3.4000e+000 108683 -2.1569e+002 -3.4381e+002  5.8739e+000 26404 108801,108415,108657
 3.4000e+000 108706 -2.0887e+002 -3.3868e+002  3.0851e+001 26404 108729,108467,108657
 3.4000e+000 108755 -1.2714e+002 -3.4562e+002  3.9592e+001 26404 108337,108311,108729
 3.4000e+000 108778 -1.5242e+002 -3.4274e+002  3.0225e+001 26404 108337,108729,108657
 3.4000e+000 108827 -2.1618e+002 -4.3959e+002 -1.7795e+001 26404 108467,108441,108801
 3.4000e+000 108850 -2.3578e+002 -3.8445e+002 -1.2378e+001 26404 108467,108801,108657
 3.4000e+000 109228 -1.4902e+002 -3.2525e+002 -1.3861e+001 26064 109006,109084,109058
 3.4000e+000 109205 -1.2167e+002 -2.9935e+002  8.0954e+000 26064 108980,109084,109006
 3.4000e+000 109182 -1.4053e+002 -2.9306e+002 -4.0305e+000 26064 108980,109110,109084
 3.4000e+000 109159 -1.4296e+002 -3.3856e+002 -3.1995e+000 26064 109006,109058,109032
 3.4000e+000 109136  7.8589e+000 -2.6342e+002  2.1635e+001 26064 108954,109110,108980
 3.4000e+000 109427 -4.8343e+001 -2.8457e+002 -5.7816e+001 25660 109303,109355,109329
 3.4000e+000 109404 -8.6016e+001 -3.5968e+002 -1.5326e+001 25660 109277,109355,109303
 3.4000e+000 109381 -7.0603e+001 -3.2894e+002 -2.5331e+000 25660 109251,109355,109277
 3.4000e+000 109577 -6.3929e+001 -1.5460e+002  5.3653e+001 25306 109476,109528,109502
 3.4000e+000 109554  7.0902e-001 -1.4540e+002  3.0527e+001 25306 109450,109528,109476
 3.4000e+000 109778 -1.0849e+002 -3.0220e+002  7.2356e+000 24944 109628,109706,109654
 3.4000e+000 109755 -1.1953e+002 -2.9874e+002 -1.1614e+000 24944 109602,109706,109628
 3.4000e+000 109732 -9.5564e+001 -2.8239e+002 -2.6474e+000 24944 109654,109706,109680
 3.4000e+000 110126 -1.1721e+002 -3.9257e+002  1.2956e+001 24440 110149,109907,109855
 3.4000e+000 110103 -1.1583e+002 -4.1261e+002  2.4185e+001 24440 110149,109855,109985
 3.4000e+000 110080 -9.5497e+001 -3.4194e+002  7.3414e+000 24440 109855,109907,109881
 3.4000e+000 110057 -1.0159e+002 -3.2899e+002  9.9703e+001 24440 109829,109985,109855
 3.4000e+000 110034 -1.0504e+002 -3.9109e+002  4.9415e-001 24440 109907,109959,109933
 3.4000e+000 110011 -8.3036e+001 -3.4336e+002  9.5884e+000 24440 109803,109985,109829
 3.4000e+000 110175 -1.1489e+002 -3.7402e+002  6.9646e+000 24440 109959,109907,110149
 3.4000e+000 110198 -1.1530e+002 -3.9221e+002  2.0372e+001 24440 109959,110149,109985
 3.4000e+000 110301 -1.8061e+001 -2.5151e+002 -7.9835e+000 24028 110223,110275,110249
 3.4000e+000 110573 -4.6308e+001 -2.2674e+002  1.7598e+001 23467 110400,110452,110426
 3.4000e+000 110550 -8.0044e+001 -2.6796e+002 -5.4487e-001 23467 110374,110452,110400
 3.4000e+000 110527 -7.9189e+001 -2.6752e+002  3.0230e+000 23467 110348,110452,110374
 3.4000e+000 110504 -5.8157e+001 -2.5867e+002 -2.8101e+000 23467 110348,110478,110452
 3.4000e+000 111004 -1.8671e+002 -3.8973e+002 -3.8145e+001 22963 111027,110733,110707
 3.4000e+000 110981 -1.8031e+002 -3.6940e+002  1.6310e+001 22963 111027,110707,110681
 3.4000e+000 110958 -9.0103e+001 -3.2888e+002 -3.7704e+001 22963 111099,110759,110733
 3.4000e+000 110935 -1.1584e+002 -3.2370e+002 -2.7197e+001 22963 111171,110863,110811
 3.4000e+000 110912 -5.9648e+001 -2.4189e+002 -4.2692e+001 22963 110759,110811,110785
 3.4000e+000 110889 -1.2693e+002 -3.4219e+002 -2.1866e+001 22963 110811,110863,110837
 3.4000e+000 111053 -1.3057e+002 -3.5594e+002 -2.3630e+001 22963 111099,110733,111027
 3.4000e+000 111076 -1.1010e+002 -3.4855e+002 -2.2548e+001 22963 111171,110811,111027
 3.4000e+000 111125 -8.8621e+001 -3.2355e+002 -5.9744e+001 22963 110811,110759,111099
 3.4000e+000 111148 -9.5494e+001 -3.2069e+002 -5.1405e+001 22963 110811,111099,111027
 3.4000e+000 111197 -1.1789e+002 -2.8203e+002 -3.4364e+001 22963 110681,110863,111171
 3.4000e+000 111220 -1.2431e+002 -3.1285e+002 -1.8171e+001 22963 110681,111171,111027
 3.4000e+000 111726 -1.7717e+002 -3.4086e+002  8.5804e+000 22459 111749,111507,111429
 3.4000e+000 111703 -1.6321e+002 -3.3655e+002 -5.6319e+000 22459 111749,111429,111585
 3.4000e+000 111680 -1.4128e+002 -3.7899e+002 -3.6985e+000 22459 111403,111585,111429
 3.4000e+000 111657 -1.7039e+002 -3.7256e+002  1.6645e+001 22459 111507,111559,111533
 3.4000e+000 111634 -2.3097e+002 -3.2875e+002  2.0539e+001 22459 111455,111507,111481
 3.4000e+000 111611 -2.4225e+002 -3.2852e+002  3.0484e+001 22459 111429,111507,111455
 3.4000e+000 111775 -1.7754e+002 -3.6249e+002  2.1566e+001 22459 111559,111507,111749
 3.4000e+000 111798 -1.6304e+002 -3.4704e+002  7.6561e+000 22459 111559,111749,111585
 3.4000e+000 112046 -7.5481e+001 -2.8128e+002 -3.5956e+001 21898 112069,111925,111873
 3.4000e+000 112023 -7.2732e+001 -2.8397e+002 -8.3711e+000 21898 112069,111873,111847
 3.4000e+000 112000 -9.7895e+001 -2.9057e+002 -1.3730e+001 21898 111821,111951,111847
 3.4000e+000 111977 -8.5831e+001 -2.1966e+002 -2.2439e+001 21898 111873,111925,111899
 3.4000e+000 112095 -1.1457e+002 -2.9586e+002 -4.0816e+001 21898 111951,111925,112069
 3.4000e+000 112118 -9.5498e+001 -2.9219e+002 -1.4333e+001 21898 111951,112069,111847
 3.4000e+000 112498 -1.4023e+002 -3.2430e+002 -2.8951e+001 21608 112521,112276,112224
 3.4000e+000 112475 -9.0149e+001 -3.2995e+002  1.5650e+000 21608 112521,112224,112380
 3.4000e+000 112452 -9.3901e+001 -3.6627e+002  2.6777e+001 21608 112302,112380,112354
 3.4000e+000 112429 -1.5813e+002 -3.6354e+002 -2.1430e+001 21608 112224,112276,112250
 3.4000e+000 112406  4.9826e+001 -3.9102e+002 -9.8415e+000 21608 112302,112354,112328
 3.4000e+000 112547 -9.9274e+001 -2.7574e+002 -6.5550e+000 21608 112302,112276,112521
 3.4000e+000 112570 -6.6747e+001 -3.1555e+002  1.5096e+001 21608 112302,112521,112380
 3.4000e+000 112948 -1.5973e+002 -3.3373e+002 -6.2960e+000 20882 112971,112752,112700
 3.4000e+000 112925 -1.2483e+002 -3.2121e+002 -1.1330e+001 20882 112971,112700,112830
 3.4000e+000 112902 -2.0169e+002 -3.5491e+002  2.1355e+001 20882 112778,112830,112804
 3.4000e+000 112879 -1.1540e+002 -2.5994e+002 -1.6328e+001 20882 112674,112830,112700
 3.4000e+000 112856 -1.9552e+002 -3.4820e+002  6.1502e+000 20882 112700,112752,112726
 3.4000e+000 112997 -1.5998e+002 -3.3168e+002  1.3211e+001 20882 112778,112752,112971
 3.4000e+000 113020 -1.4026e+002 -3.2544e+002  7.2813e+000 20882 112778,112971,112830
 3.4000e+000 113526 -1.1948e+002 -3.3648e+002  8.3792e-001 20428 113255,113385,113333
 3.4000e+000 113503 -1.3144e+002 -3.6997e+002 -2.1876e-001 20428 113229,113385,113255
 3.4000e+000 113480 -2.0912e+001 -3.2996e+002  1.8599e+000 20428 113255,113333,113281
 3.4000e+000 113457 -1.1719e+002 -3.6819e+002 -1.2992e-001 20428 113203,113385,113229
 3.4000e+000 113434 -6.0434e+001 -3.4550e+002 -1.1283e+001 20428 113281,113333,113307
 3.4000e+000 113411 -1.3844e+002 -3.3118e+002  5.2731e+000 20428 113333,113385,113359
 3.4000e+000 113774 -1.5897e+001 -3.0814e+002  1.1179e+001 19917 113797,113601,113549
 3.4000e+000 113751 -4.6896e+001 -3.1162e+002  1.4111e+001 19917 113869,113797,113549
 3.4000e+000 113728 -4.5227e+001 -3.1497e+002  2.6602e+001 19917 113869,113549,113679
 3.4000e+000 113705 -2.7426e+001 -3.0749e+002  2.5579e+001 19917 113549,113601,113575
 3.4000e+000 113823 -4.8875e+001 -3.7999e+002 -1.7326e+000 19917 113627,113601,113797
 3.4000e+000 113846 -1.4322e+001 -2.9476e+002 -9.0359e+000 19917 113627,113797,113653
 3.4000e+000 113895 -4.0936e+001 -2.8091e+002  3.3335e+000 19917 113653,113797,113869
 3.4000e+000 113918 -5.2764e+001 -2.8966e+002  1.9387e+001 19917 113653,113869,113679
 3.4000e+000 114166 -1.4825e+002 -3.3138e+002 -5.3120e+000 19413 113993,114045,114019
 3.4000e+000 114143 -1.4347e+002 -3.0977e+002  1.7444e+000 19413 113967,114045,113993
 3.4000e+000 114120 -1.1661e+002 -2.9970e+002  1.3619e+001 19413 113967,114071,114045
 3.4000e+000 114097 -1.0550e+002 -3.3822e+002 -7.7579e+000 19413 113941,114071,113967
 3.4000e+000 114438 -1.3419e+002 -3.5538e+002  3.3348e+000 19001 114213,114265,114239
 3.4000e+000 114415 -9.6412e+001 -2.7727e+002 -8.5546e+000 19001 114213,114343,114265
 3.4000e+000 114392 -1.4270e+002 -3.8126e+002 -1.7267e+001 19001 114265,114343,114317
 3.4000e+000 114369  2.8967e+001 -3.0748e+002 -7.2062e+000 19001 114265,114317,114291
 3.4000e+000 114639 -9.1065e+001 -4.2084e+002  2.3871e+001 18554 114489,114541,114515
 3.4000e+000 114616 -8.3961e+001 -3.5850e+002  6.0146e+000 18554 114489,114567,114541
 3.4000e+000 114593 -1.8869e+002 -4.1201e+002 -2.5806e+001 18554 114463,114567,114489
 3.4000e+000 115043 -7.3997e+001 -3.2197e+002  1.1937e+001 18164 114795,114925,114821
 3.4000e+000 115020 -6.7584e+001 -3.4185e+002  1.8170e+001 18164 114769,114925,114795
 3.4000e+000 114997 -4.3489e+001 -3.3538e+002 -1.8560e+000 18164 115066,114873,114821
 3.4000e+000 114974 -4.0885e+001 -2.9061e+002 -9.7444e+000 18164 115066,114821,114925
 3.4000e+000 114951  1.4290e+001 -3.3690e+002 -3.1658e+001 18164 114821,114873,114847
 3.4000e+000 115092 -5.9776e+001 -3.0295e+002 -2.5483e+001 18164 114899,114873,115066
 3.4000e+000 115115 -3.8901e+001 -2.3451e+002 -3.5502e+001 18164 114899,115066,114925
 3.4000e+000 115265 -1.0715e+002 -3.6771e+002  2.8207e+000 17852 115164,115216,115190
 3.4000e+000 115242 -1.1371e+002 -3.8165e+002 -2.6914e-001 17852 115138,115216,115164
 3.4000e+000 115464 -2.2115e+002 -4.9160e+002  8.2019e+000 17346 115288,115366,115340
 3.4000e+000 115441 -3.3814e+002 -3.8334e+002 -1.2550e+001 17346 115288,115392,115366
 3.4000e+000 115418 -1.9740e+002 -5.5317e+002 -1.6159e+001 17346 115288,115340,115314
 3.4000e+000 115736 -9.9385e+001 -3.2998e+002  1.2980e+001 16942 115563,115641,115615
 3.4000e+000 115713 -1.1037e+002 -3.2802e+002  3.2445e+000 16942 115511,115641,115563
 3.4000e+000 115690 -2.3219e+002 -3.8107e+002  1.9760e+001 16942 115563,115615,115589
 3.4000e+000 115667 -1.2930e+002 -3.5656e+002  1.1468e+001 16942 115511,115563,115537
 3.4000e+000 116091 -1.6531e+002 -3.7772e+002 -1.4677e+001 16388 115918,115970,115944
 3.4000e+000 116068 -1.4264e+002 -3.0317e+002 -1.0009e+001 16388 115918,115996,115970
 3.4000e+000 116045 -1.9090e+002 -3.8261e+002  1.2079e+001 16388 115892,115996,115918
 3.4000e+000 116022 -1.2945e+002 -3.5092e+002  4.0840e+001 16388 115866,115996,115892
 3.4000e+000 116192 -6.6054e+001 -4.1344e+002 -5.6784e+001 15810 116114,116166,116140
 3.4000e+000 116342 -1.4865e+002 -4.8142e+002  2.5808e+001 15419 116241,116293,116267
 3.4000e+000 116319 -2.1311e+002 -5.8986e+002 -1.7203e+001 15419 116215,116293,116241
 3.4000e+000 116445 -1.6784e+002 -3.3502e+002  3.4025e+000 421 116367,116419,116393
 3.5000e+000 68477 -2.2605e+002 -3.4723e+002  1.8762e-001 68018 68327,68379,68353
 3.5000e+000 68454 -2.4200e+002 -4.6866e+002  3.5140e+001 68018 68301,68379,68327
 3.5000e+000 68431 -9.0518e+001 -5.1525e+002  9.3304e+001 68018 68301,68405,68379
 3.5000e+000 68578 -1.4935e+002 -3.3105e+002  1.9480e+000 67820 68500,68552,68526
 3.5000e+000 68728 -1.6560e+002 -3.1363e+002 -4.7340e+000 67508 68601,68653,68627
 3.5000e+000 68705 -2.6047e+002 -2.3901e+002 -4.6650e+001 67508 68601,68679,68653
 3.5000e+000 68927 -3.6384e+001 -2.6935e+002 -7.3691e+000 67310 68777,68829,68803
 3.5000e+000 68904 -6.2070e+001 -3.1069e+002  4.3682e+000 67310 68751,68829,68777
 3.5000e+000 68881 -3.7324e+001 -3.0801e+002  2.2345e+001 67310 68751,68855,68829
 3.5000e+000 69386 -1.2784e+002 -3.5408e+002 -2.0198e+001 67020 69216,69268,69242
 3.5000e+000 69363 -1.1510e+002 -2.7217e+002 -3.7670e+001 67020 69138,69268,69216
 3.5000e+000 69340 -8.4430e+001 -2.3751e+002 -1.7066e+001 67020 69112,69268,69138
 3.5000e+000 69317 -1.5628e+002 -2.9342e+002  2.4092e+001 67020 69138,69190,69164
 3.5000e+000 69294 -1.6499e+002 -2.6754e+002 -1.7498e+001 67020 69138,69216,69190
 3.5000e+000 69536 -2.8038e+002 -6.7961e+002 -5.9176e+001 66708 69435,69487,69461
 3.5000e+000 69513 -2.0458e+002 -7.6972e+002 -1.0534e+001 66708 69409,69487,69435
 3.5000e+000 69735 -1.6352e+002 -3.4994e+002  8.4881e+000 66346 69585,69637,69611
 3.5000e+000 69712 -1.3303e+002 -3.3278e+002 -1.3661e+000 66346 69559,69637,69585
 3.5000e+000 69689 -1.1925e+002 -3.2902e+002 -3.2794e+001 66346 69559,69663,69637
 3.5000e+000 69985 -2.1719e+002 -3.8157e+002  7.1062e+000 66148 69786,69890,69864
 3.5000e+000 69962 -2.2813e+002 -3.8601e+002  7.4912e+000 66148 69760,69890,69786
 3.5000e+000 69939 -1.5044e+002 -3.6553e+002 -6.0781e+001 66148 69786,69864,69838
 3.5000e+000 69916 -1.8996e+002 -4.0139e+002 -1.4914e+001 66148 69786,69838,69812
 3.5000e+000 70137 -1.0925e+002 -4.2553e+002 -2.5939e+001 65950 70036,70088,70062
 3.5000e+000 70114 -9.3614e+001 -4.7082e+002  1.9234e+001 65950 70010,70088,70036
 3.5000e+000 70470 -7.7418e+001 -3.0847e+002  2.9100e+001 65546 70245,70323,70271
 3.5000e+000 70447 -5.0806e+001 -2.6491e+002  1.5247e+001 65546 70245,70375,70323
 3.5000e+000 70424 -6.8817e+001 -3.4101e+002  1.5612e+001 65546 70323,70375,70349
 3.5000e+000 70401 -6.5123e+001 -2.8364e+002  1.4445e+001 65546 70271,70323,70297
 3.5000e+000 70620 -1.0733e+002 -3.6779e+002  1.4060e+001 65348 70493,70545,70519
 3.5000e+000 70597 -1.0167e+002 -3.9229e+002  9.5354e+000 65348 70493,70571,70545
 3.5000e+000 70721 -1.7941e+002 -3.8049e+002  2.9825e+001 65150 70643,70695,70669
 3.5000e+000 71020 -1.1820e+002 -2.9216e+002  2.6444e-001 64952 71043,70850,70824
 3.5000e+000 70997 -1.0339e+002 -2.5342e+002  1.9088e+000 64952 71043,70824,70772
 3.5000e+000 70974 -1.1654e+002 -3.4319e+002  4.9854e+000 64952 71115,70746,70876
 3.5000e+000 70951 -8.5321e+001 -3.4274e+002 -4.6703e+000 64952 70746,70902,70876
 3.5000e+000 70928 -9.5973e+001 -1.9894e+002 -3.0729e+001 64952 70772,70824,70798
 3.5000e+000 71069 -9.4339e+001 -2.7794e+002  1.0818e+001 64952 70876,70850,71043
 3.5000e+000 71092 -1.1279e+002 -3.2166e+002  6.7145e+000 64952 71115,70876,71043
 3.5000e+000 71141 -1.3626e+002 -3.1812e+002 -1.4678e+001 64952 70772,70746,71115
 3.5000e+000 71164 -1.2525e+002 -2.8595e+002 -1.3306e+001 64952 70772,71115,71043
 3.5000e+000 71365  5.3578e+000 -3.5769e+002 -4.9771e+000 64662 71215,71293,71267
 3.5000e+000 71342  9.2085e+001 -3.2641e+002 -8.6889e+001 64662 71189,71293,71215
 3.5000e+000 71319  3.6706e+001 -2.9346e+002  4.7752e+000 64662 71215,71267,71241
 3.5000e+000 71615 -7.6130e+001 -3.4000e+002 -8.4053e+000 64350 71710,71638,71468
 3.5000e+000 71592 -1.1291e+002 -3.3407e+002 -1.2332e+001 64350 71638,71416,71390
 3.5000e+000 71569 -8.0502e+001 -3.1741e+002  9.9817e+000 64350 71710,71468,71442
 3.5000e+000 71546  9.3064e+001 -3.1160e+002 -6.3633e+001 64350 71390,71520,71494
 3.5000e+000 71664 -8.0602e+001 -3.4268e+002 -5.6934e+000 64350 71494,71468,71638
 3.5000e+000 71687 -7.6840e+001 -3.3861e+002 -3.8961e+000 64350 71494,71638,71390
 3.5000e+000 71736 -7.3129e+001 -2.9501e+002  3.6713e+000 64350 71416,71638,71710
 3.5000e+000 71759 -6.3855e+001 -2.6961e+002  2.7995e+001 64350 71416,71710,71442
 3.5000e+000 72318 -7.9052e+001 -5.3556e+002 -2.3484e+001 63837 71972,72024,71998
 3.5000e+000 72295 -1.2100e+002 -3.3373e+002 -7.9497e+000 63837 72341,71972,71946
 3.5000e+000 72272 -1.1532e+002 -2.7150e+002  1.4583e+001 63837 72413,72341,71946
 3.5000e+000 72249 -1.1198e+002 -2.4665e+002  7.1517e+000 63837 72413,71946,72128
 3.5000e+000 72226 -1.8247e+002 -2.9382e+002  3.7215e+000 63837 72024,72076,72050
 3.5000e+000 72203 -1.5302e+002 -2.6997e+002 -7.6228e+000 63837 72024,72102,72076
 3.5000e+000 72180 -9.6260e+001 -2.4368e+002  2.4733e+001 63837 71946,72154,72128
 3.5000e+000 72367 -1.6480e+002 -3.6409e+002 -6.8520e+001 63837 72024,71972,72341
 3.5000e+000 72390 -1.2319e+002 -2.9327e+002 -2.3335e+001 63837 72024,72341,72102
 3.5000e+000 72439 -9.6602e+001 -3.1174e+002  5.9381e+000 63837 72102,72341,72413
 3.5000e+000 72462 -9.2812e+001 -2.8520e+002  1.5647e+000 63837 72102,72413,72128
 3.5000e+000 72791 -1.5518e+002 -3.0989e+002 -3.3904e+001 63383 72592,72696,72670
 3.5000e+000 72768 -1.5945e+002 -2.9024e+002 -5.9236e+001 63383 72566,72696,72592
 3.5000e+000 72745 -1.5710e+002 -2.7183e+002 -2.3968e+000 63383 72592,72670,72618
 3.5000e+000 72722 -1.4970e+002 -2.5792e+002  1.0242e+000 63383 72618,72670,72644
 3.5000e+000 73297 -1.9036e+002 -2.7750e+002 -5.3006e+000 63185 73000,73156,73130
 3.5000e+000 73274 -1.9239e+002 -2.9268e+002  3.5547e+001 63185 72974,73156,73000
 3.5000e+000 73251 -1.3725e+002 -3.1900e+002 -6.0557e+000 63185 73000,73052,73026
 3.5000e+000 73228 -1.5400e+002 -2.8265e+002 -1.5590e+001 63185 73000,73130,73052
 3.5000e+000 73205 -1.5461e+002 -3.2284e+002 -4.9595e+001 63185 73052,73130,73104
 3.5000e+000 73182 -1.5046e+002 -3.5382e+002 -5.3354e+001 63185 73052,73104,73078
 3.5000e+000 73545 -4.7839e+001 -2.9017e+002  5.2994e-001 62781 73568,73398,73372
 3.5000e+000 73522 -2.4056e+001 -2.6304e+002  1.3874e+001 62781 73568,73372,73346
 3.5000e+000 73499 -6.3282e+001 -2.7368e+002 -8.4880e+000 62781 73640,73320,73424
 3.5000e+000 73476 -9.3040e+001 -1.9168e+002 -2.2912e+001 62781 73320,73450,73424
 3.5000e+000 73594 -5.1534e+001 -2.6459e+002 -3.5390e+000 62781 73424,73398,73568
 3.5000e+000 73617 -5.3197e+001 -2.6823e+002 -4.6034e+000 62781 73640,73424,73568
 3.5000e+000 73666 -5.9920e+001 -2.6753e+002  1.3364e+000 62781 73346,73320,73640
 3.5000e+000 73689 -5.4375e+001 -2.6247e+002  4.9341e+000 62781 73346,73640,73568
 3.5000e+000 74035 -1.1059e+002 -3.3945e+002 -3.2899e+000 62363 74058,73868,73842
 3.5000e+000 74012 -1.0539e+002 -3.1223e+002 -2.4776e+001 62363 74130,74058,73842
 3.5000e+000 73989 -9.5203e+001 -3.0900e+002 -2.5981e+001 62363 74130,73842,73816
 3.5000e+000 73966 -1.6211e+002 -3.5302e+002  4.5209e+000 62363 74202,73764,73894
 3.5000e+000 73943 -2.0987e+002 -3.1969e+002  6.0155e+000 62363 73712,73894,73764
 3.5000e+000 73920 -2.2970e+002 -3.4155e+002 -4.2432e+000 62363 73712,73764,73738
 3.5000e+000 74084 -1.1410e+002 -3.3321e+002 -3.9817e+000 62363 73894,73868,74058
 3.5000e+000 74107 -1.4629e+002 -3.3689e+002  1.7713e+001 62363 74202,73894,74058
 3.5000e+000 74156 -1.1732e+002 -3.1704e+002  1.1072e+001 62363 73790,74058,74130
 3.5000e+000 74179 -6.8809e+001 -2.9784e+002  1.3326e+001 62363 73790,74130,73816
 3.5000e+000 74228 -1.8045e+002 -3.6100e+002 -1.9476e+001 62363 73790,73764,74202
 3.5000e+000 74251 -1.6901e+002 -3.4401e+002 -6.3407e+000 62363 73790,74202,74058
 3.5000e+000 74403 -3.9788e+000 -3.6243e+002  2.5033e+001 62115 74426,74302,74276
 3.5000e+000 74380  7.5477e+001 -3.4907e+002  5.7451e+001 62115 74426,74276,74354
 3.5000e+000 74452 -7.7972e+001 -3.2548e+002  2.5473e+001 62115 74328,74302,74426
 3.5000e+000 74475 -3.6292e+000 -3.1480e+002  6.0158e+001 62115 74328,74426,74354
 3.5000e+000 74578  5.7927e+001 -2.1713e+002  2.9757e+000 61825 74500,74552,74526
 3.5000e+000 74982 -1.7546e+002 -3.1305e+002  2.6593e+000 61513 75005,74734,74708
 3.5000e+000 74959 -1.7030e+002 -3.0418e+002 -4.7797e-001 61513 75005,74708,74864
 3.5000e+000 74936 -2.1785e+002 -3.2025e+002  2.2210e+001 61513 75077,74812,74734
 3.5000e+000 74913 -1.9891e+002 -3.2990e+002 -2.8709e+001 61513 74734,74786,74760
 3.5000e+000 74890 -1.9307e+002 -2.8801e+002 -1.2872e+000 61513 74734,74812,74786
 3.5000e+000 75031 -1.6446e+002 -3.2011e+002  4.4621e+000 61513 75077,74734,75005
 3.5000e+000 75054 -1.2953e+002 -3.1087e+002  4.6637e+001 61513 74838,75005,74864
 3.5000e+000 75103 -2.4790e+002 -3.3458e+002  6.9992e+001 61513 74838,74812,75077
 3.5000e+000 75126 -2.1276e+002 -3.4750e+002  5.2397e+001 61513 74838,75077,75005
 3.5000e+000 75553 -7.7338e+001 -2.8143e+002 -1.0503e+001 61060 75576,75360,75308
 3.5000e+000 75530 -8.4901e+001 -2.9786e+002 -1.3916e+001 61060 75576,75308,75230
 3.5000e+000 75507 -6.8703e+001 -2.6692e+002  2.9352e+000 61060 75308,75360,75334
 3.5000e+000 75484 -1.1518e+002 -3.4862e+002  2.2250e+001 61060 75230,75308,75256
 3.5000e+000 75461 -7.3904e+001 -3.2090e+002  1.0175e+001 61060 75256,75308,75282
 3.5000e+000 75438 -8.5846e+001 -2.7387e+002  3.8361e+001 61060 75360,75412,75386
 3.5000e+000 75602 -5.1056e+001 -2.9703e+002  1.9834e+000 61060 75412,75360,75576
 3.5000e+000 75625 -7.1113e+001 -3.3134e+002 -6.6956e+000 61060 75412,75576,75230
 3.5000e+000 76052 -1.2276e+002 -2.8753e+002  4.6201e+000 60442 75755,75859,75833
 3.5000e+000 76029 -1.5010e+002 -2.7520e+002 -1.9881e+001 60442 75729,75859,75755
 3.5000e+000 76006 -1.2907e+002 -2.6740e+002  1.8693e+001 60442 75755,75833,75807
 3.5000e+000 75983 -1.2002e+002 -3.1967e+002  1.0798e+001 60442 75755,75807,75781
 3.5000e+000 75960  2.2049e+001 -5.0139e+002  1.5516e+001 60442 75729,75911,75859
 3.5000e+000 75937 -2.4665e+002 -1.2713e+003  7.9566e+001 60442 75859,75911,75885
 3.5000e+000 76430 -1.2715e+002 -3.3489e+002 -1.2155e+001 59788 76453,76286,76234
 3.5000e+000 76407 -1.3781e+002 -3.7916e+002  4.2620e+000 59788 76453,76234,76182
 3.5000e+000 76384 -1.3773e+002 -2.4151e+002  4.2072e+001 59788 76525,76156,76312
 3.5000e+000 76361 -8.4716e+001 -4.3621e+002 -4.2594e+000 59788 76182,76234,76208
 3.5000e+000 76338 -8.7721e+001 -3.1889e+002 -6.6440e+000 59788 76234,76286,76260
 3.5000e+000 76479 -1.5132e+002 -3.5823e+002  1.0174e+000 59788 76312,76286,76453
 3.5000e+000 76502 -1.2732e+002 -3.3526e+002  1.5069e+001 59788 76525,76312,76453
 3.5000e+000 76551 -1.7598e+002 -3.5907e+002  4.3284e+001 59788 76182,76156,76525
 3.5000e+000 76574 -1.5416e+002 -3.8752e+002  2.4500e+001 59788 76182,76525,76453
 3.5000e+000 77031 -7.5033e+001 -1.7825e+002 -5.2096e+001 59448 76835,76887,76861
 3.5000e+000 77008 -1.0989e+001 -1.6989e+002  4.7042e+000 59448 76835,76913,76887
 3.5000e+000 76985 -4.3318e+001 -1.4937e+002  4.2155e+001 59448 76809,76913,76835
 3.5000e+000 76962 -1.0968e+002 -1.8091e+002 -3.7222e+000 59448 76757,76913,76809
 3.5000e+000 76939 -8.0326e+001 -1.6942e+002 -1.5335e+001 59448 76757,76809,76783
 3.5000e+000 77537 -1.4391e+002 -3.0806e+002  1.6541e+001 58994 77560,77344,77292
 3.5000e+000 77514 -2.0411e+002 -3.0841e+002  4.4603e+000 58994 77560,77292,77240
 3.5000e+000 77491 -1.1648e+002 -2.9192e+002 -6.9316e+000 58994 77632,77214,77370
 3.5000e+000 77468 -2.4334e+002 -3.5517e+002  6.3617e+001 58994 77292,77344,77318
 3.5000e+000 77445 -1.2012e+002 -3.8025e+002  1.5375e+001 58994 77214,77396,77370
 3.5000e+000 77422 -2.0699e+002 -3.2467e+002 -6.8306e+000 58994 77240,77292,77266
 3.5000e+000 77586 -1.4667e+002 -3.1636e+002  1.8923e+001 58994 77370,77344,77560
 3.5000e+000 77609 -1.4871e+002 -3.1174e+002  2.1074e+001 58994 77632,77370,77560
 3.5000e+000 77658 -9.9120e+001 -2.7093e+002 -3.6167e+001 58994 77240,77214,77632
 3.5000e+000 77681 -1.2254e+002 -2.6758e+002 -1.0826e+001 58994 77240,77632,77560
 3.5000e+000 78138 -1.0801e+002 -2.0425e+002  3.0010e+001 58440 77864,77994,77890
 3.5000e+000 78115 -6.1942e+001 -1.1469e+002 -2.0547e+001 58440 77864,78020,77994
 3.5000e+000 78092 -1.2380e+002 -2.4462e+002 -2.0788e+001 58440 77942,77994,77968
 3.5000e+000 78069 -9.6307e+001 -2.2890e+002  4.7936e+000 58440 77890,77994,77942
 3.5000e+000 78046 -8.8020e+001 -2.2986e+002 -1.2266e+000 58440 77890,77942,77916
 3.5000e+000 78467 -1.3019e+001 -2.7943e+002  1.3299e+001 57928 78562,78490,78346
 3.5000e+000 78444 -1.0484e+002 -2.8470e+002 -5.5625e+000 57928 78490,78294,78268
 3.5000e+000 78421  5.3787e+000 -2.9339e+002  2.8301e+001 57928 78562,78346,78320
 3.5000e+000 78398 -3.3246e+001 -2.7317e+002  4.7980e+000 57928 78242,78372,78268
 3.5000e+000 78516 -8.9259e+001 -3.5331e+002 -1.7817e+001 57928 78372,78346,78490
 3.5000e+000 78539 -6.8067e+001 -2.6823e+002 -2.1506e+000 57928 78372,78490,78268
 3.5000e+000 78588 -1.0392e+002 -2.7591e+002  3.2901e+000 57928 78294,78490,78562
 3.5000e+000 78611 -4.5905e+001 -2.4404e+002  3.3816e+001 57928 78294,78562,78320
 3.5000e+000 79068 -1.9124e+002 -4.1846e+002 -9.2474e+001 57467 78794,78924,78820
 3.5000e+000 79045 -1.4992e+002 -4.0403e+002 -1.0257e+002 57467 78794,78950,78924
 3.5000e+000 79022 -3.8259e+001 -3.4749e+002  2.1111e+001 57467 78820,78898,78872
 3.5000e+000 78999 -1.6206e+002 -4.9289e+002 -6.1437e+001 57467 78820,78924,78898
 3.5000e+000 78976 -5.4823e+001 -3.6624e+002  3.9553e+001 57467 78820,78872,78846
 3.5000e+000 79446 -1.6561e+002 -3.2302e+002  5.1624e-001 57120 79172,79302,79250
 3.5000e+000 79423 -1.4743e+002 -3.1489e+002 -8.5263e+000 57120 79172,79328,79302
 3.5000e+000 79400 -1.4878e+002 -2.8269e+002 -1.0735e+001 57120 79172,79250,79198
 3.5000e+000 79377 -1.1158e+002 -4.0855e+002  1.7018e+001 57120 79250,79302,79276
 3.5000e+000 79354 -1.8308e+002 -3.0663e+002 -2.2134e+001 57120 79198,79250,79224
 3.5000e+000 79952 -2.2202e+002 -3.4413e+002 -9.7093e-001 56773 79629,79785,79655
 3.5000e+000 79929 -7.5162e+001 -3.0051e+002  1.4369e+001 56773 79629,79811,79785
 3.5000e+000 79906 -1.7098e+002 -3.7629e+002  2.3330e+001 56773 79655,79733,79681
 3.5000e+000 79883 -1.6974e+002 -3.3192e+002  3.5572e+000 56773 79655,79785,79733
 3.5000e+000 79860 -1.5433e+002 -4.3060e+002 -5.9116e+001 56773 79733,79785,79759
 3.5000e+000 79837 -8.3820e+001 -3.3642e+002  6.2242e+001 56773 79681,79733,79707
 3.5000e+000 80281 -6.9844e+001 -2.6551e+002 -2.1225e+001 56319 80108,80160,80134
 3.5000e+000 80258 -7.8741e+001 -2.8911e+002 -2.6898e+001 56319 80056,80160,80108
 3.5000e+000 80235 -2.5274e+001 -2.5432e+002  1.5746e+001 56319 80056,80186,80160
 3.5000e+000 80212 -1.1268e+002 -3.6960e+002 -1.5646e+001 56319 80056,80108,80082
 3.5000e+000 80738 -4.3141e+001 -3.1155e+002  1.8665e+001 55957 80516,80620,80594
 3.5000e+000 80715 -1.0419e+002 -2.8228e+002  1.6114e+001 55957 80464,80620,80516
 3.5000e+000 80692 -9.1234e+001 -3.3790e+002  1.8614e+001 55957 80761,80568,80542
 3.5000e+000 80669 -7.3355e+001 -3.3329e+002  2.1663e+001 55957 80761,80542,80516
 3.5000e+000 80646 -1.0545e+002 -2.8452e+002  3.5546e+001 55957 80464,80516,80490
 3.5000e+000 80787 -1.0813e+002 -3.3615e+002  1.3838e+001 55957 80594,80568,80761
 3.5000e+000 80810 -9.1388e+001 -3.3210e+002  1.7128e+001 55957 80594,80761,80516
 3.5000e+000 81210 -6.5212e+001 -3.1118e+002 -3.8941e+001 55317 80936,80988,80962
 3.5000e+000 81187 -5.3374e+001 -3.3167e+002 -1.4078e+001 55317 80936,81066,80988
 3.5000e+000 81164 -5.4487e+001 -3.6695e+002 -1.8904e+000 55317 80936,81092,81066
 3.5000e+000 81141 -1.2963e+002 -3.6986e+002 -3.5248e+001 55317 80988,81066,81014
 3.5000e+000 81118 -1.4348e+001 -2.3207e+002  1.7093e+001 55317 81014,81066,81040
 3.5000e+000 81539 -1.4485e+002 -3.3695e+002  1.1836e+001 54913 81340,81418,81392
 3.5000e+000 81516 -5.5651e+001 -2.6973e+002 -1.8268e+001 54913 81340,81444,81418
 3.5000e+000 81493 -8.8282e+001 -2.8983e+002 -3.8199e+001 54913 81314,81444,81340
 3.5000e+000 81470 -1.6279e+002 -3.5063e+002  4.9692e+000 54913 81340,81392,81366
 3.5000e+000 81787 -7.8368e+001 -3.4653e+002 -1.5165e+000 54601 81588,81692,81640
 3.5000e+000 81764 -1.1580e+002 -3.5136e+002 -9.7889e+000 54601 81562,81692,81588
 3.5000e+000 81741 -5.8965e+001 -3.5140e+002  4.8121e+001 54601 81588,81640,81614
 3.5000e+000 81718 -8.1354e+001 -4.1276e+002 -3.4688e+001 54601 81640,81692,81666
 3.5000e+000 82344 -1.3648e+002 -3.7630e+002 -2.0438e+001 54090 81998,82102,82076
 3.5000e+000 82321 -1.8495e+002 -3.9753e+002 -1.1738e+001 54090 81998,82154,82102
 3.5000e+000 82298 -1.6745e+002 -3.8835e+002 -7.0257e+000 54090 81972,82154,81998
 3.5000e+000 82275 -1.9224e+002 -3.5033e+002 -2.3819e+001 54090 81998,82076,82024
 3.5000e+000 82252 -2.0272e+002 -4.1351e+002  2.0709e+001 54090 81972,82180,82154
 3.5000e+000 82229 -2.5656e+002 -4.8297e+002  2.6724e+001 54090 82102,82154,82128
 3.5000e+000 82206 -3.4852e+001 -2.6465e+002 -5.8399e+001 54090 82024,82076,82050
 3.5000e+000 82722 -2.2018e+002 -3.9704e+002 -1.3116e+001 53579 82500,82578,82552
 3.5000e+000 82699 -1.5971e+002 -3.6038e+002  1.1240e+001 53579 82448,82578,82500
 3.5000e+000 82676 -1.7378e+002 -4.0935e+002  1.1719e+001 53579 82448,82500,82474
 3.5000e+000 82653 -2.1597e+002 -3.8892e+002  3.0376e+001 53579 82448,82604,82578
 3.5000e+000 82630 -1.1292e+002 -3.6771e+002 -1.4436e+001 53579 82500,82552,82526
 3.5000e+000 83356 -1.0420e+002 -2.8097e+002 -2.9586e+001 53189 83379,83088,83036
 3.5000e+000 83333 -1.0039e+002 -3.1639e+002 -2.6733e+001 53189 83379,83036,82984
 3.5000e+000 83310 -3.5809e+001 -2.8757e+002  5.5111e+001 53189 82984,83192,83166
 3.5000e+000 83287  1.2921e+000 -2.3453e+002 -2.1353e+001 53189 83036,83088,83062
 3.5000e+000 83264 -7.8588e+001 -3.5535e+002 -5.0445e+001 53189 82984,83036,83010
 3.5000e+000 83241 -5.7416e+001 -3.3279e+002  9.1864e+000 53189 83114,83166,83140
 3.5000e+000 83218 -1.4579e+002 -3.5786e+002  8.8779e+000 53189 83088,83166,83114
 3.5000e+000 83405 -1.0476e+002 -3.0491e+002 -1.4907e+001 53189 83166,83088,83379
 3.5000e+000 83428 -9.5639e+001 -3.3621e+002 -1.4303e+001 53189 83166,83379,82984
 3.5000e+000 83725 -1.4673e+002 -4.2004e+002 -3.5892e+001 52585 83748,83529,83503
 3.5000e+000 83702 -1.1027e+002 -4.0826e+002 -2.1993e+001 52585 83820,83748,83503
 3.5000e+000 83679 -7.5965e+001 -4.0035e+002 -1.8482e+001 52585 83820,83503,83477
 3.5000e+000 83656 -4.3402e+001 -3.6669e+002  5.3510e+001 52585 83477,83607,83581
 3.5000e+000 83633  4.3071e+001 -3.2912e+002  5.8122e+001 52585 83451,83607,83477
 3.5000e+000 83774 -1.2745e+002 -3.7221e+002 -3.1775e+001 52585 83555,83529,83748
 3.5000e+000 83797 -1.6559e+002 -4.0377e+002 -1.7922e+001 52585 83555,83748,83581
 3.5000e+000 83846 -1.4275e+002 -3.8911e+002 -4.5360e+000 52585 83581,83748,83820
 3.5000e+000 83869 -1.1766e+002 -3.8690e+002 -4.6628e+000 52585 83581,83820,83477
 3.5000e+000 84200 -1.0512e+002 -3.8120e+002 -1.3131e+001 52024 84001,84105,84079
 3.5000e+000 84177 -5.3595e+001 -3.7216e+002 -2.6563e+001 52024 83975,84105,84001
 3.5000e+000 84154 -9.3958e+001 -3.8062e+002 -1.1701e+001 52024 84001,84079,84053
 3.5000e+000 84131 -4.5158e+001 -2.5248e+002  4.7044e+001 52024 84001,84053,84027
 3.5000e+000 84399 -8.7305e+001 -3.7502e+002 -1.5626e-001 51470 84422,84275,84249
 3.5000e+000 84376 -7.8131e+001 -3.5992e+002  4.3678e+000 51470 84422,84249,84223
 3.5000e+000 84353 -1.0108e+002 -3.9302e+002 -5.3847e+001 51470 84275,84327,84301
 3.5000e+000 84448 -9.6598e+001 -3.6028e+002 -6.5196e-001 51470 84327,84275,84422
 3.5000e+000 84471 -8.9377e+001 -3.4807e+002  3.4150e+000 51470 84327,84422,84223
 3.5000e+000 84753 -1.1279e+002 -3.2265e+002 -2.1870e+000 51073 84603,84655,84629
 3.5000e+000 84730 -2.3263e+002 -3.7705e+002 -1.6671e+001 51073 84776,84655,84603
 3.5000e+000 84707 -4.5525e+001 -3.2917e+002 -9.3006e+001 51073 84577,84681,84655
 3.5000e+000 84802 -1.4590e+002 -3.2879e+002 -4.2770e+001 51073 84577,84655,84776
 3.5000e+000 85178 -1.9449e+002 -4.2486e+002  3.8584e+001 50519 85201,85008,84982
 3.5000e+000 85155 -1.8401e+002 -3.9370e+002  2.7563e+001 50519 85273,85201,84982
 3.5000e+000 85132 -1.7299e+002 -3.9408e+002  2.0494e+001 50519 85273,84982,84930
 3.5000e+000 85109 -1.6796e+002 -3.8456e+002  1.7654e+001 50519 84930,84982,84956
 3.5000e+000 85086 -1.4998e+002 -3.8562e+002  1.2520e+001 50519 85008,85060,85034
 3.5000e+000 85227 -1.6006e+002 -4.0318e+002  1.6680e+001 50519 85060,85008,85201
 3.5000e+000 85250 -1.8175e+002 -4.0376e+002  1.1005e+001 50519 85060,85201,84904
 3.5000e+000 85299 -1.7202e+002 -3.9826e+002  8.6891e+000 50519 84904,85201,85273
 3.5000e+000 85322 -1.3397e+002 -3.5209e+002 -8.4918e+000 50519 84904,85273,84930
 3.5000e+000 85958 -1.0482e+002 -3.4887e+002 -1.0968e+001 50093 85981,85768,85716
 3.5000e+000 85935 -9.2722e+001 -3.2166e+002 -8.7875e+000 50093 85981,85716,85612
 3.5000e+000 85912 -1.2358e+002 -3.2896e+002  5.0444e+000 50093 85612,85716,85664
 3.5000e+000 85889 -8.2452e+001 -3.3632e+002 -3.6392e+000 50093 85716,85768,85742
 3.5000e+000 85866 -1.0342e+002 -2.5048e+002 -7.6609e+001 50093 85664,85716,85690
 3.5000e+000 85843  2.0097e+001 -2.3780e+002 -2.3383e+001 50093 85586,85794,85612
 3.5000e+000 85820 -9.1670e+001 -4.3288e+002  2.8401e+001 50093 85612,85664,85638
 3.5000e+000 86007 -1.3284e+002 -3.7534e+002 -5.2148e+001 50093 85794,85768,85981
 3.5000e+000 86030 -9.3236e+001 -2.9200e+002 -3.9446e+001 50093 85794,85981,85612
 3.5000e+000 86131 -1.2343e+002 -3.8958e+002  5.3316e+001 49895 86053,86105,86079
 3.5000e+000 86639 -8.6888e+001 -2.4565e+002 -5.0552e+001 49391 86662,86394,86368
 3.5000e+000 86616 -1.0232e+002 -2.9913e+002 -4.5196e+001 49391 86662,86368,86342
 3.5000e+000 86593 -5.5827e+001 -2.9830e+002 -1.3948e+001 49391 86342,86498,86472
 3.5000e+000 86570 -3.6837e+001 -3.2690e+002 -1.6635e+001 49391 86316,86498,86342
 3.5000e+000 86547 -1.6493e+002 -4.5278e+002 -2.0480e+001 49391 86394,86472,86446
 3.5000e+000 86524 -1.2966e+001 -4.2893e+002  2.8359e+000 49391 86394,86446,86420
 3.5000e+000 86688 -9.7943e+001 -2.9562e+002 -2.7365e+001 49391 86472,86394,86662
 3.5000e+000 86711 -8.7472e+001 -3.1848e+002 -2.6369e+001 49391 86472,86662,86342
 3.5000e+000 87089 -1.2641e+002 -3.6308e+002  9.8949e+000 48987 86815,86919,86867
 3.5000e+000 87066 -1.2772e+002 -3.7470e+002  1.5676e+001 48987 86815,86971,86919
 3.5000e+000 87043 -4.8659e+001 -4.0304e+002 -3.6474e+001 48987 86867,86919,86893
 3.5000e+000 87020 -1.4449e+002 -4.1177e+002  3.1698e+001 48987 86815,86867,86841
 3.5000e+000 86997 -1.4346e+002 -3.2066e+002  5.2503e+001 48987 86919,86971,86945
 3.5000e+000 87467 -2.4181e+002 -3.5924e+002  1.7620e+001 48540 87490,87245,87219
 3.5000e+000 87444 -1.7510e+002 -3.3569e+002  1.5482e+000 48540 87562,87490,87219
 3.5000e+000 87421 -1.3058e+002 -3.1774e+002  1.5948e+001 48540 87562,87219,87349
 3.5000e+000 87398 -1.8113e+002 -2.8262e+002 -2.0059e+001 48540 87245,87297,87271
 3.5000e+000 87375 -1.0666e+002 -3.3253e+002  1.2587e+001 48540 87193,87349,87219
 3.5000e+000 87516 -1.6613e+002 -3.4309e+002  2.5804e+000 48540 87297,87245,87490
 3.5000e+000 87539 -1.6735e+002 -3.4224e+002  4.8150e+000 48540 87297,87490,87323
 3.5000e+000 87588 -1.3205e+002 -3.1408e+002  3.0319e+001 48540 87323,87490,87562
 3.5000e+000 87611 -1.1079e+002 -3.2035e+002  4.0016e+001 48540 87323,87562,87349
 3.5000e+000 87810 -1.7395e+002 -6.2566e+002 -4.5179e+001 48136 87660,87712,87686
 3.5000e+000 87787 -1.0055e+002 -3.7322e+002 -2.0732e+001 48136 87660,87738,87712
 3.5000e+000 87764 -2.3357e+002 -3.8331e+002 -6.5268e+001 48136 87634,87738,87660
 3.5000e+000 88205 -1.5606e+002 -3.8965e+002 -3.3051e+001 47210 88300,88228,87937
 3.5000e+000 88182 -1.3567e+002 -3.7873e+002 -9.3006e+000 47210 88228,87833,88041
 3.5000e+000 88159 -1.5823e+002 -4.1649e+002 -5.2829e+001 47210 88300,87937,87911
 3.5000e+000 88136 -1.5336e+002 -3.7881e+002 -4.5651e+001 47210 87833,87911,87859
 3.5000e+000 88113 -2.5747e+002 -3.4109e+002 -2.5679e+001 47210 87937,87989,87963
 3.5000e+000 88090 -1.2761e+002 -3.0637e+002  6.2771e+001 47210 87989,88041,88015
 3.5000e+000 88067 -1.7868e+002 -4.4225e+002 -5.8372e+001 47210 87859,87911,87885
 3.5000e+000 88254 -1.3857e+002 -3.2298e+002 -3.3806e+001 47210 87989,87937,88228
 3.5000e+000 88277 -1.6352e+002 -3.7198e+002 -1.2354e+001 47210 87989,88228,88041
 3.5000e+000 88326 -1.2902e+002 -3.6374e+002 -1.2129e+001 47210 87833,88228,88300
 3.5000e+000 88349 -1.3550e+002 -3.8168e+002 -3.3303e+001 47210 87833,88300,87911
 3.5000e+000 88780 -2.5413e+002 -4.4192e+002 -8.0197e+001 46642 88803,88509,88483
 3.5000e+000 88757 -1.8283e+002 -3.9811e+002 -4.3034e+001 46642 88803,88483,88639
 3.5000e+000 88734 -2.0300e+002 -3.2760e+002 -4.8950e+001 46642 88875,88561,88509
 3.5000e+000 88711 -2.0575e+002 -3.0479e+002 -8.9969e+000 46642 88509,88561,88535
 3.5000e+000 88688 -1.2067e+002 -4.4765e+002  1.8464e+000 46642 88457,88639,88483
 3.5000e+000 88665 -2.3418e+002 -5.3579e+002 -1.9670e+001 46642 88561,88613,88587
 3.5000e+000 88829 -2.0546e+002 -3.5741e+002 -5.5715e+001 46642 88875,88509,88803
 3.5000e+000 88852 -2.0086e+002 -4.3172e+002 -3.6227e+001 46642 88613,88803,88639
 3.5000e+000 88901 -1.6671e+002 -3.6910e+002 -2.3608e+001 46642 88613,88561,88875
 3.5000e+000 88924 -1.8231e+002 -4.1742e+002 -2.9512e+001 46642 88613,88875,88803
 3.5000e+000 89253 -7.7036e+001 -3.7979e+002  9.2229e+000 46444 89080,89158,89132
 3.5000e+000 89230 -8.9113e+001 -4.0680e+002  5.9098e+000 46444 89028,89158,89080
 3.5000e+000 89207 -3.3693e+001 -3.6050e+002 -1.3913e+001 46444 89028,89080,89054
 3.5000e+000 89184 -4.0599e+001 -4.0991e+002 -2.8135e+001 46444 89080,89132,89106
 3.5000e+000 89631 -1.0116e+002 -2.4833e+002  5.0596e+000 46040 89383,89461,89435
 3.5000e+000 89608 -1.0742e+002 -2.7564e+002 -1.6930e+001 46040 89383,89487,89461
 3.5000e+000 89585 -1.1084e+002 -3.2196e+002 -1.0152e+001 46040 89383,89435,89409
 3.5000e+000 89562 -8.4023e+001 -2.3178e+002 -3.5651e+001 46040 89383,89513,89487
 3.5000e+000 89539 -3.6753e+001 -2.0919e+002 -4.4110e+001 46040 89357,89513,89383
 3.5000e+000 90009 -1.0226e+002 -3.1167e+002 -9.8045e-001 45636 89813,89891,89839
 3.5000e+000 89986 -1.0637e+002 -2.9220e+002  1.7963e+001 45636 89787,89891,89813
 3.5000e+000 89963 -9.3700e+001 -2.9337e+002 -7.1984e+000 45636 89839,89891,89865
 3.5000e+000 89940 -1.2269e+002 -3.2649e+002  1.1441e+001 45636 89735,89891,89787
 3.5000e+000 89917 -8.9171e+001 -3.3044e+002 -1.7963e+001 45636 89735,89787,89761
 3.5000e+000 90208 -7.0152e+001 -2.4469e+002 -4.8860e+001 45175 90231,90058,90032
 3.5000e+000 90185 -4.0835e+001 -2.2363e+002 -7.2639e+001 45175 90231,90032,90136
 3.5000e+000 90162 -8.4778e+001 -2.0032e+002 -4.1071e+000 45175 90058,90110,90084
 3.5000e+000 90257 -1.0213e+002 -2.7443e+002 -1.2521e+001 45175 90110,90058,90231
 3.5000e+000 90280 -4.6395e+001 -2.3754e+002 -3.9145e+001 45175 90110,90231,90136
 3.5000e+000 90528 -7.8073e+001 -2.5241e+002 -3.3955e+001 44513 90695,90551,90407
 3.5000e+000 90505 -8.3427e+001 -2.2806e+002 -1.6179e+001 44513 90551,90355,90329
 3.5000e+000 90482 -1.0314e+002 -2.4684e+002 -3.0891e+001 44513 90623,90303,90433
 3.5000e+000 90459 -5.9323e+001 -2.3537e+002 -2.5103e+001 44513 90695,90407,90381
 3.5000e+000 90577 -1.1491e+002 -2.6433e+002 -5.8080e+001 44513 90433,90407,90551
 3.5000e+000 90600 -9.8187e+001 -2.4194e+002 -2.8881e+001 44513 90623,90433,90551
 3.5000e+000 90649 -1.0120e+002 -2.4045e+002 -2.7935e+001 44513 90329,90303,90623
 3.5000e+000 90672 -1.0162e+002 -2.4036e+002 -2.7946e+001 44513 90329,90623,90551
 3.5000e+000 90721 -1.0076e+002 -2.3014e+002 -3.8117e+001 44513 90355,90551,90695
 3.5000e+000 90744 -9.5171e+001 -2.2236e+002 -3.4819e+001 44513 90355,90695,90381
 3.5000e+000 91077 -1.5134e+000 -2.6607e+002 -1.8448e+001 44059 91100,90930,90904
 3.5000e+000 91054 -1.0311e+002 -2.8619e+002  1.3177e+001 44059 91100,90904,90982
 3.5000e+000 91031 -1.8521e+002 -3.3351e+002 -2.4738e+001 44059 90878,90982,90904
 3.5000e+000 91008 -5.8346e+001 -2.4918e+002  1.5304e+001 44059 90852,90982,90878
 3.5000e+000 91126 -1.5068e+002 -3.0338e+002 -2.1980e+001 44059 91172,91100,90956
 3.5000e+000 91149 -9.6852e+001 -2.7690e+002 -1.2920e+001 44059 90956,91100,90982
 3.5000e+000 91198 -5.8453e+000 -1.6028e+002 -7.9832e+001 44059 90930,91100,91172
 3.5000e+000 91677 -1.4422e+002 -2.2131e+002  2.1448e+001 43549 91455,91533,91481
 3.5000e+000 91654 -6.4058e+001 -2.2431e+002  2.8977e+001 43549 91429,91533,91455
 3.5000e+000 91631 -1.3911e+002 -2.2031e+002  1.0752e+001 43549 91481,91533,91507
 3.5000e+000 91608 -3.6233e+001 -2.1277e+002  1.4265e+001 43549 91429,91559,91533
 3.5000e+000 91585 -5.8611e+000 -7.9439e+001  2.4455e+000 43549 91403,91559,91429
 3.5000e+000 92006 -1.2563e+002 -3.2384e+002 -1.4312e+000 43059 91781,91885,91807
 3.5000e+000 91983 -1.3283e+002 -3.0769e+002  5.0315e+001 43059 91781,91911,91885
 3.5000e+000 91960 -1.2668e+002 -3.2593e+002 -3.3190e-001 43059 91807,91885,91833
 3.5000e+000 91937 -8.2292e+001 -3.0900e+002 -6.5644e+000 43059 91833,91885,91859
 3.5000e+000 92561 -1.1204e+002 -2.3907e+002 -2.5743e+001 42598 92584,92215,92189
 3.5000e+000 92538 -1.2029e+002 -2.6977e+002 -2.4981e+001 42598 92656,92584,92189
 3.5000e+000 92515 -1.0737e+002 -3.0483e+002 -7.0349e+000 42598 92656,92189,92397
 3.5000e+000 92492 -1.3582e+002 -2.1273e+002 -3.1424e+001 42598 92241,92319,92293
 3.5000e+000 92469 -1.3034e+002 -2.5474e+002  1.4453e+001 42598 92319,92397,92371
 3.5000e+000 92446 -5.3235e+001 -2.9425e+002  1.1870e+002 42598 92319,92371,92345
 3.5000e+000 92423 -1.3504e+002 -2.2034e+002 -4.5621e+001 42598 92241,92293,92267
 3.5000e+000 92610 -1.1728e+002 -2.4024e+002 -2.4378e+001 42598 92241,92215,92584
 3.5000e+000 92633 -1.0804e+002 -2.1975e+002 -3.1784e+001 42598 92241,92584,92319
 3.5000e+000 92682 -1.0887e+002 -2.2271e+002 -1.7611e+001 42598 92319,92584,92656
 3.5000e+000 92705 -8.8114e+001 -2.4693e+002 -4.1939e+000 42598 92319,92656,92397
 3.5000e+000 92953 -1.3351e+002 -3.5398e+002  1.9131e+001 42094 92976,92806,92780
 3.5000e+000 92930 -1.4790e+002 -3.3224e+002  1.7920e-001 42094 92976,92780,92754
 3.5000e+000 92907 -2.9646e+001 -3.4061e+002 -3.0223e+000 42094 93048,92832,92806
 3.5000e+000 92884 -1.9153e+002 -3.3684e+002 -2.2369e+001 42094 92728,92858,92754
 3.5000e+000 93002 -8.4727e+001 -3.2682e+002  8.4403e+000 42094 93048,92806,92976
 3.5000e+000 93025 -1.3827e+002 -3.2678e+002 -5.2331e+000 42094 92858,92976,92754
 3.5000e+000 93074 -1.0693e+002 -3.6796e+002 -3.6947e+000 42094 92858,92832,93048
 3.5000e+000 93097 -1.5162e+002 -3.4743e+002  2.8579e+000 42094 92858,93048,92976
 3.5000e+000 93605 -1.4273e+002 -4.0981e+002 -1.5114e+001 41846 93628,93412,93386
 3.5000e+000 93582 -1.0765e+002 -3.0968e+002 -1.8500e+000 41846 93628,93386,93308
 3.5000e+000 93559 -1.6515e+002 -3.2367e+002 -6.7108e+001 41846 93700,93464,93438
 3.5000e+000 93536 -1.5371e+002 -4.2814e+002  5.8993e+000 41846 93308,93386,93334
 3.5000e+000 93513 -2.0073e+002 -3.1152e+002 -4.9430e+001 41846 93334,93386,93360
 3.5000e+000 93490 -1.5897e+002 -2.8624e+002 -6.3890e+001 41846 93282,93464,93308
 3.5000e+000 93654 -1.2382e+002 -3.2840e+002 -3.0778e+001 41846 93438,93412,93628
 3.5000e+000 93677 -1.6535e+002 -3.3030e+002 -3.1225e+001 41846 93700,93438,93628
 3.5000e+000 93726 -1.4952e+002 -2.7938e+002 -6.0723e+001 41846 93308,93464,93700
 3.5000e+000 93749 -1.4365e+002 -2.7202e+002 -2.5300e+001 41846 93308,93700,93628
 3.5000e+000 94255 -1.0940e+002 -3.3342e+002  2.1327e+001 41385 93958,94114,94088
 3.5000e+000 94232 -9.4668e+001 -3.5950e+002  8.6203e+000 41385 93932,94114,93958
 3.5000e+000 94209 -1.9144e+002 -3.8699e+002  6.2853e+001 41385 93958,94088,94062
 3.5000e+000 94186 -1.9845e+002 -2.7959e+002  4.5976e+001 41385 93958,94062,93984
 3.5000e+000 94163 -1.7411e+002 -2.7313e+002  4.3736e+001 41385 93984,94062,94036
 3.5000e+000 94140 -1.1977e+002 -3.7948e+002  6.4990e+001 41385 93984,94036,94010
 3.5000e+000 94476 -2.9487e+001 -4.5112e+002  2.9169e+001 40881 94326,94378,94352
 3.5000e+000 94453 -7.1913e+001 -3.7054e+002  3.1755e+001 40881 94300,94378,94326
 3.5000e+000 94430 -9.1837e+001 -3.4213e+002  4.7771e+000 40881 94300,94404,94378
 3.5000e+000 94626 -1.0521e+002 -2.7481e+002 -2.6695e+000 40591 94649,94551,94525
 3.5000e+000 94603 -5.5743e+001 -1.7046e+002  2.1069e+000 40591 94781,94577,94551
 3.5000e+000 94675 -3.5269e+001 -1.9857e+002 -3.2507e+001 40591 94781,94551,94649
 3.5000e+000 94807 -2.6994e+000 -1.1711e+002  3.4150e+001 40591 94499,94577,94781
 3.5000e+000 94830  2.2944e+000 -1.7376e+002 -2.1552e+000 40591 94499,94781,94649
 3.5000e+000 95336 -2.3119e+002 -3.1314e+002 -4.8261e+001 40187 95013,95169,95039
 3.5000e+000 95313 -5.2038e+001 -2.8337e+002  6.9999e+000 40187 95013,95195,95169
 3.5000e+000 95290 -3.8962e+001 -3.0873e+002 -3.3762e+001 40187 95039,95143,95065
 3.5000e+000 95267 -1.7477e+002 -3.6223e+002 -5.2996e+001 40187 95039,95169,95143
 3.5000e+000 95244 -7.9681e+001 -2.8525e+002 -2.9871e+001 40187 95091,95143,95117
 3.5000e+000 95221 -2.5715e+001 -1.7983e+002 -1.1237e+001 40187 95065,95143,95091
 3.5000e+000 95665 -8.9739e+001 -2.4349e+002  1.0154e+002 39626 95466,95570,95544
 3.5000e+000 95642 -1.6562e+002 -1.9724e+002  6.5545e+001 39626 95440,95570,95466
 3.5000e+000 95619 -2.5077e+002 -3.1927e+002  6.4228e+001 39626 95466,95544,95492
 3.5000e+000 95596 -5.5050e+001 -2.4757e+002  9.9345e+001 39626 95492,95544,95518
 3.5000e+000 95913 -1.3060e+002 -2.8761e+002 -4.3120e+001 39136 96080,95936,95766
 3.5000e+000 95890 -9.0156e+001 -3.0844e+002 -2.6231e+001 39136 95936,95714,95688
 3.5000e+000 95867 -2.2946e+002 -3.0738e+002  1.1394e+001 39136 96008,95792,95766
 3.5000e+000 95844 -1.0716e+002 -2.7910e+002 -3.2818e+001 39136 96080,95766,95740
 3.5000e+000 95962 -1.8161e+002 -3.1897e+002 -2.8327e+001 39136 96008,95766,95936
 3.5000e+000 95985 -1.1741e+002 -3.7563e+002 -6.9840e+000 39136 95818,95936,95688
 3.5000e+000 96034 -1.1366e+002 -2.5695e+002  1.9180e+001 39136 95818,95792,96008
 3.5000e+000 96057 -1.0101e+002 -2.8220e+002 -1.9897e+001 39136 95818,96008,95936
 3.5000e+000 96106 -1.1913e+002 -2.8458e+002 -1.1764e+001 39136 95714,95936,96080
 3.5000e+000 96129 -8.2551e+001 -2.7447e+002 -3.7842e+000 39136 95714,96080,95740
 3.5000e+000 96350 -1.0796e+002 -2.5664e+002 -1.2858e+001 38824 96200,96278,96252
 3.5000e+000 96327 -9.6565e+001 -2.5107e+002 -1.1096e+001 38824 96174,96278,96200
 3.5000e+000 96304 -4.2960e+001 -2.3165e+002 -3.6472e+001 38824 96200,96252,96226
 3.5000e+000 96830 -1.5467e+002 -2.6983e+002 -1.7314e+001 38320 97069,96536,96484
 3.5000e+000 96807 -1.5193e+002 -2.7390e+002 -1.7075e+001 38320 97069,96484,96853
 3.5000e+000 96784 -1.6951e+002 -2.9380e+002  6.2013e+000 38320 96853,96484,96458
 3.5000e+000 96761 -9.1682e+001 -2.3722e+002 -2.8463e+001 38320 96925,96640,96614
 3.5000e+000 96738 -1.4647e+002 -2.4808e+002 -1.2651e+001 38320 96997,96666,96640
 3.5000e+000 96715 -1.2201e+002 -3.2287e+002 -5.0526e+000 38320 97141,96588,96562
 3.5000e+000 96692 -1.9290e+002 -3.1356e+002 -4.0505e-001 38320 96484,96536,96510
 3.5000e+000 96879 -1.5088e+002 -2.9092e+002 -9.0002e+000 38320 97141,96562,96853
 3.5000e+000 96902 -1.4015e+002 -2.8419e+002 -9.3864e+000 38320 96925,96614,96853
 3.5000e+000 96951 -1.4306e+002 -2.4564e+002 -1.4152e+001 38320 96997,96640,96925
 3.5000e+000 96974 -1.3711e+002 -2.4079e+002 -8.1410e+000 38320 96458,96925,96853
 3.5000e+000 97023 -1.6190e+002 -2.5068e+002 -4.4632e+000 38320 96458,96666,96997
 3.5000e+000 97046 -1.4947e+002 -2.4477e+002 -6.1351e+000 38320 96458,96997,96925
 3.5000e+000 97095 -1.6498e+002 -2.6776e+002  4.0032e+000 38320 96562,96536,97069
 3.5000e+000 97118 -1.4388e+002 -2.7187e+002 -1.3726e+001 38320 96562,97069,96853
 3.5000e+000 97167 -7.1041e+001 -2.9363e+002 -1.8651e+001 38320 96614,96588,97141
 3.5000e+000 97190 -1.1865e+002 -2.7530e+002 -1.8848e+001 38320 96614,97141,96853
 3.5000e+000 97519 -1.1418e+002 -3.3801e+002  8.9913e+001 37766 97542,97398,97372
 3.5000e+000 97496 -1.3700e+002 -2.6866e+002  6.2413e+001 37766 97542,97372,97346
 3.5000e+000 97473 -1.3653e+002 -2.7968e+002  7.2363e+000 37766 97294,97424,97346
 3.5000e+000 97450 -1.5404e+002 -3.3142e+002  1.5573e+000 37766 97294,97346,97320
 3.5000e+000 97568 -6.0594e+001 -3.5214e+002  3.3044e+001 37766 97424,97398,97542
 3.5000e+000 97591 -9.6781e+001 -2.7331e+002  1.0093e+001 37766 97424,97542,97346
 3.5000e+000 98048 -1.4237e+002 -2.0822e+002 -7.0522e+001 37262 98071,97878,97852
 3.5000e+000 98025 -1.2018e+002 -2.4992e+002 -2.9530e+001 37262 98071,97852,97800
 3.5000e+000 98002 -1.4254e+002 -3.1202e+002 -2.7004e+001 37262 97800,97852,97826
 3.5000e+000 97979 -1.4537e+002 -2.7153e+002  7.5790e+000 37262 97800,97930,97904
 3.5000e+000 97956 -9.8918e+001 -3.3173e+002  2.1150e+001 37262 97774,97930,97800
 3.5000e+000 98097 -2.0360e+002 -2.3796e+002 -5.0812e+001 37262 97904,97878,98071
 3.5000e+000 98120 -1.5379e+002 -2.8374e+002 -1.3409e+001 37262 97904,98071,97800
 3.5000e+000 98449 -6.8907e+001 -1.9629e+002 -2.4664e+001 36950 98472,98302,98250
 3.5000e+000 98426 -3.8720e+001 -1.8627e+002 -3.0415e+001 36950 98472,98250,98354
 3.5000e+000 98403 -1.0876e+002 -2.1732e+002  2.4795e+001 36950 98250,98302,98276
 3.5000e+000 98380 -2.5416e+001 -1.4632e+002  1.5487e+001 36950 98224,98354,98250
 3.5000e+000 98498 -4.6666e+001 -2.2143e+002 -6.7464e+000 36950 98328,98302,98472
 3.5000e+000 98521 -1.1226e+001 -2.0645e+002 -1.7555e+001 36950 98328,98472,98354
 3.5000e+000 99125 -1.5615e+002 -1.5541e+002  1.5130e+001 36296 98704,98756,98730
 3.5000e+000 99102 -1.5108e+002 -1.7418e+002  1.4142e+001 36296 98704,98938,98756
 3.5000e+000 99079 -1.1023e+002 -2.1060e+002 -5.6241e+000 36296 99148,98938,98912
 3.5000e+000 99056 -1.1849e+002 -2.1715e+002  4.9563e+001 36296 99292,99220,98782
 3.5000e+000 99033 -9.5707e+001 -2.4211e+002  5.4689e+000 36296 99148,98912,98834
 3.5000e+000 99010 -1.1148e+002 -1.8339e+002  5.4092e+001 36296 99292,98782,98756
 3.5000e+000 98987 -9.1663e+001 -4.2766e+002 -7.8340e+001 36296 98834,98912,98886
 3.5000e+000 98964 -1.5674e+002 -6.2334e+002 -1.0039e+002 36296 98834,98886,98860
 3.5000e+000 99174 -1.3569e+002 -2.5968e+002  7.2620e+000 36296 99220,98938,99148
 3.5000e+000 99197 -9.4335e+001 -2.9644e+002  3.2065e+001 36296 98808,99148,98834
 3.5000e+000 99246 -1.1718e+002 -2.1292e+002  1.2181e+002 36296 98808,98782,99220
 3.5000e+000 99269 -4.7132e+001 -1.8750e+002  3.9341e+001 36296 98808,99220,99148
 3.5000e+000 99318 -1.2481e+002 -1.8371e+002  2.6375e+001 36296 98938,99220,99292
 3.5000e+000 99341 -1.2767e+002 -1.8905e+002  3.1146e+001 36296 98938,99292,98756
 3.5000e+000 99719 -1.5643e+002 -3.2944e+002 -1.1821e+000 35742 99742,99471,99601
 3.5000e+000 99696 -1.6207e+002 -2.5927e+002  3.0185e+001 35742 99445,99601,99471
 3.5000e+000 99673 -1.4944e+002 -3.1352e+002 -1.5284e+001 35742 99742,99601,99575
 3.5000e+000 99650 -1.2947e+002 -3.8677e+002 -1.2222e+001 35742 99814,99549,99523
 3.5000e+000 99627 -9.8677e+001 -2.9935e+002 -5.3972e+000 35742 99471,99523,99497
 3.5000e+000 99768 -1.2466e+002 -3.2217e+002  5.3921e+000 35742 99523,99471,99742
 3.5000e+000 99791 -1.4717e+002 -3.5733e+002 -1.0776e+001 35742 99814,99523,99742
 3.5000e+000 99840 -1.2654e+002 -3.5025e+002 -2.3474e+001 35742 99575,99549,99814
 3.5000e+000 99863 -1.3797e+002 -3.1205e+002 -2.1079e+001 35742 99575,99814,99742
 3.5000e+000 100111 -1.1628e+002 -2.6488e+002  1.8495e+001 35302 100134,99990,99938
 3.5000e+000 100088 -9.6760e+001 -2.4146e+002  6.2262e+000 35302 100134,99938,99912
 3.5000e+000 100065 -9.7513e+001 -2.4069e+002 -6.7683e+000 35302 100206,99886,100016
 3.5000e+000 100042 -1.5455e+002 -2.4395e+002  1.0961e+001 35302 99938,99990,99964
 3.5000e+000 100160 -9.0881e+001 -2.5530e+002  3.6420e+000 35302 100016,99990,100134
 3.5000e+000 100183 -9.2296e+001 -2.4489e+002 -6.5896e+000 35302 100206,100016,100134
 3.5000e+000 100232 -1.0233e+002 -2.4567e+002 -3.7942e+000 35302 99912,99886,100206
 3.5000e+000 100255 -9.7341e+001 -2.5083e+002 -3.7357e+000 35302 99912,100206,100134
 3.5000e+000 100586 -1.5009e+002 -1.7674e+002  4.5029e+001 35012 100609,100387,100361
 3.5000e+000 100563 -1.8069e+002 -1.3521e+002 -3.1412e+001 35012 100609,100361,100465
 3.5000e+000 100540 -8.4428e+001 -9.8790e+001 -7.3672e+001 35012 100361,100491,100465
 3.5000e+000 100517 -3.3693e+001 -1.0882e+002 -6.7115e+001 35012 100413,100465,100439
 3.5000e+000 100635 -7.2003e+001 -1.4263e+002  2.0354e+001 35012 100413,100387,100609
 3.5000e+000 100658 -1.0048e+002 -9.0768e+001 -5.8070e+001 35012 100413,100609,100465
 3.5000e+000 100987 -1.2129e+002 -2.6482e+002  2.7566e+001 34700 100788,100866,100814
 3.5000e+000 100964 -1.0473e+002 -2.2034e+002  4.0355e+001 34700 101010,100866,100788
 3.5000e+000 100941 -7.2302e+001 -1.6513e+002  4.4249e+001 34700 100762,100892,100866
 3.5000e+000 100918 -1.1916e+002 -2.5633e+002  1.5664e+001 34700 100814,100866,100840
 3.5000e+000 101036 -7.0182e+001 -1.9316e+002  6.5268e+001 34700 100762,100866,101010
 3.5000e+000 101493 -1.6360e+002 -3.0930e+002 -2.7556e+001 34132 101516,101349,101297
 3.5000e+000 101470 -1.9569e+002 -3.7110e+002 -4.4082e+001 34132 101588,101516,101297
 3.5000e+000 101447 -1.9662e+002 -3.9132e+002 -6.4924e+001 34132 101588,101297,101245
 3.5000e+000 101424 -1.2047e+002 -4.5755e+002 -6.0414e+001 34132 101245,101297,101271
 3.5000e+000 101401 -1.8249e+002 -3.1199e+002 -3.2957e+001 34132 101297,101349,101323
 3.5000e+000 101542 -1.7009e+002 -3.5760e+002 -2.1756e+001 34132 101375,101349,101516
 3.5000e+000 101565 -1.5187e+002 -3.5548e+002 -2.2438e+001 34132 101375,101516,101219
 3.5000e+000 101614 -1.5585e+002 -3.7307e+002 -2.2642e+001 34132 101219,101516,101588
 3.5000e+000 101637 -1.7605e+002 -3.9267e+002 -4.2489e+001 34132 101219,101588,101245
 3.5000e+000 101858 -7.2826e+001 -2.7494e+002  2.4572e+001 33720 101708,101786,101760
 3.5000e+000 101835 -5.9916e+001 -3.0285e+002  3.4208e+001 33720 101682,101786,101708
 3.5000e+000 101812 -1.0686e+002 -2.9226e+002  1.6872e+001 33720 101708,101760,101734
 3.5000e+000 102128 -3.2508e+001 -3.2048e+002 -8.9609e+000 33130 101903,102007,101929
 3.5000e+000 102105 -4.0861e+001 -3.7045e+002  1.1673e+001 33130 101903,102033,102007
 3.5000e+000 102082 -1.4543e+001 -3.8639e+002 -7.8935e+001 33130 101929,102007,101955
 3.5000e+000 102059 -5.5131e+001 -2.7096e+002  5.4368e+000 33130 101955,102007,101981
 3.5000e+000 102461 -1.2905e+002 -2.8145e+002 -2.3330e+001 32840 102236,102340,102262
 3.5000e+000 102438 -1.1299e+002 -2.0303e+002  7.3269e+000 32840 102236,102366,102340
 3.5000e+000 102415 -8.2994e+001 -2.6928e+002 -1.9681e+001 32840 102262,102340,102288
 3.5000e+000 102392 -1.5247e+002 -2.8619e+002 -5.3211e+001 32840 102288,102340,102314
 3.5000e+000 102997 -1.0834e+002 -1.8247e+002  5.1809e+001 32493 102749,102879,102853
 3.5000e+000 102974 -8.8644e+001 -1.4502e+002  3.5959e+001 32493 102723,102879,102749
 3.5000e+000 102951 -1.2823e+002 -2.2362e+002  3.4845e+001 32493 102749,102801,102775
 3.5000e+000 102928 -1.3579e+002 -2.2139e+002  3.3161e+001 32493 102749,102853,102801
 3.5000e+000 102905 -1.2657e+002 -2.0454e+002  2.7981e+001 32493 102801,102853,102827
 3.5000e+000 103454 -1.2976e+002 -2.2866e+002 -2.3738e+001 32089 103206,103336,103310
 3.5000e+000 103431 -1.0444e+002 -2.4101e+002 -3.9373e+000 32089 103180,103336,103206
 3.5000e+000 103408 -1.4204e+002 -2.6931e+002 -4.4176e+001 32089 103206,103284,103258
 3.5000e+000 103385 -1.9996e+002 -2.7589e+002 -5.4257e+001 32089 103206,103310,103284
 3.5000e+000 103362 -1.1175e+002 -1.8967e+002 -2.1735e+001 32089 103206,103258,103232
 3.5000e+000 103783 -2.1887e+002 -2.8832e+002 -3.3791e+001 31742 103558,103662,103584
 3.5000e+000 103760 -1.7775e+002 -2.2295e+002 -7.4712e+001 31742 103558,103688,103662
 3.5000e+000 103737 -1.4273e+002 -2.2959e+002 -6.2375e+001 31742 103584,103662,103636
 3.5000e+000 103714 -1.3445e+002 -2.5243e+002 -6.8150e+001 31742 103584,103636,103610
 3.5000e+000 104112 -8.3054e+000 -2.3115e+002  5.4410e+001 31402 103939,103991,103965
 3.5000e+000 104089 -6.6598e+001 -1.9594e+002  2.1525e+001 31402 103913,103991,103939
 3.5000e+000 104066 -9.4293e+001 -2.1966e+002  9.3541e+000 31402 103913,104017,103991
 3.5000e+000 104043 -1.1566e+002 -2.0574e+002 -5.0320e+000 31402 103887,104017,103913
 3.5000e+000 104569 -2.0680e+002 -3.5995e+002  8.2108e+000 30998 104321,104425,104373
 3.5000e+000 104546 -2.3174e+002 -3.6451e+002 -4.4867e-001 30998 104321,104451,104425
 3.5000e+000 104523 -1.6392e+002 -2.9648e+002  4.3033e+001 30998 104373,104425,104399
 3.5000e+000 104500 -1.8972e+002 -4.1476e+002 -2.5137e+001 30998 104295,104451,104321
 3.5000e+000 104477 -2.6866e+002 -4.1258e+002  7.2119e+001 30998 104321,104373,104347
 3.5000e+000 104947 -1.6863e+002 -2.9527e+002 -3.2776e+001 30608 104751,104803,104777
 3.5000e+000 104924 -1.1701e+002 -3.0983e+002 -1.3701e+001 30608 104725,104803,104751
 3.5000e+000 104901 -1.7440e+002 -2.9767e+002  1.7999e+001 30608 104699,104803,104725
 3.5000e+000 104878 -1.6035e+002 -2.9354e+002  1.9835e+001 30608 104673,104803,104699
 3.5000e+000 104855 -1.2280e+002 -2.7809e+002 -9.4693e+000 30608 104673,104829,104803
 3.5000e+000 105276 -1.1257e+002 -2.7717e+002  1.4458e+001 30204 105427,105129,105077
 3.5000e+000 105253 -7.1707e+001 -2.9937e+002  6.5295e+001 30204 105427,105077,105051
 3.5000e+000 105230 -5.7628e+001 -2.7901e+002  8.8223e+000 30204 105077,105129,105103
 3.5000e+000 105207 -7.5345e+001 -2.5060e+002  3.8001e+001 30204 105299,105181,105155
 3.5000e+000 105325 -7.7515e+001 -2.4546e+002  1.4754e+001 30204 105129,105181,105299
 3.5000e+000 105453 -1.3826e+002 -2.9371e+002  3.5937e+001 30204 105181,105129,105427
 3.5000e+000 105476 -1.6171e+002 -3.4533e+002  9.3346e+001 30204 105181,105427,105051
 3.5000e+000 105903 -9.6959e+001 -2.3094e+002 -1.9341e+001 29700 105606,105762,105736
 3.5000e+000 105880 -1.2619e+002 -2.3699e+002  4.4215e-001 29700 105580,105762,105606
 3.5000e+000 105857 -1.5288e+002 -2.9486e+002 -2.0820e+001 29700 105606,105710,105632
 3.5000e+000 105834 -1.2461e+002 -2.4775e+002 -8.8937e+000 29700 105606,105736,105710
 3.5000e+000 105811 -1.2590e+002 -2.6946e+002 -3.3762e+001 29700 105632,105710,105684
 3.5000e+000 105788 -1.1567e+002 -2.4353e+002 -1.8921e+000 29700 105632,105684,105658
 3.5000e+000 106102 -5.8847e+001 -3.0880e+002  9.9805e+000 29124 105978,106030,106004
 3.5000e+000 106079 -9.6082e+001 -3.0796e+002  8.8917e+000 29124 105926,106030,105978
 3.5000e+000 106056 -1.0248e+002 -3.4400e+002  3.8992e+001 29124 105926,105978,105952
 3.5000e+000 106301 -7.5348e+001 -2.8863e+002  9.4091e-001 28712 106151,106229,106203
 3.5000e+000 106278 -9.1614e+001 -3.1766e+002 -1.3718e+001 28712 106125,106229,106151
 3.5000e+000 106255 -7.8265e+001 -3.0469e+002  1.6876e+001 28712 106151,106203,106177
 3.5000e+000 106551 -9.5292e+001 -3.5734e+002  7.8572e+000 28258 106352,106404,106378
 3.5000e+000 106528 -1.1559e+002 -3.5964e+002  6.8579e-001 28258 106352,106456,106404
 3.5000e+000 106505 -1.2967e+002 -3.8703e+002 -1.0513e+001 28258 106326,106456,106352
 3.5000e+000 106482 -1.1052e+002 -3.3547e+002  7.4022e+000 28258 106404,106456,106430
 3.5000e+000 107012 -1.2267e+002 -3.0842e+002  6.0863e+001 27818 107035,106790,106764
 3.5000e+000 106989 -1.0796e+002 -2.9469e+002  2.2840e+001 27818 107035,106764,106868
 3.5000e+000 106966 -7.6578e+001 -3.5510e+002  3.4564e+001 27818 107107,106842,106816
 3.5000e+000 106943 -1.6443e+002 -2.7517e+002  1.2852e+001 27818 106738,106868,106764
 3.5000e+000 106920 -1.5266e+002 -2.3259e+002  3.8480e+001 27818 106738,106894,106868
 3.5000e+000 107061 -5.3614e+001 -2.9606e+002  7.1022e+001 27818 106816,106790,107035
 3.5000e+000 107084 -9.4571e+001 -3.3192e+002  3.6467e+001 27818 107107,106816,107035
 3.5000e+000 107133 -7.5817e+001 -3.2074e+002  1.7759e+001 27818 106868,106842,107107
 3.5000e+000 107156 -8.6295e+001 -2.8525e+002  2.4296e+001 27818 106868,107107,107035
 3.5000e+000 107613 -3.6441e+001 -2.3307e+002  4.9792e+001 27312 107339,107469,107365
 3.5000e+000 107590 -3.7893e+000 -2.1352e+002  4.1579e+001 27312 107339,107495,107469
 3.5000e+000 107567 -3.9284e+001 -2.2687e+002  2.3836e+001 27312 107391,107469,107443
 3.5000e+000 107544 -4.1037e+001 -2.4503e+002  1.9577e+001 27312 107365,107469,107391
 3.5000e+000 107521 -1.0689e+002 -2.4854e+002  9.1940e+000 27312 107391,107443,107417
 3.5000e+000 107991 -1.2638e+002 -3.4638e+002  5.7632e+000 26858 108086,108014,107795
 3.5000e+000 107968 -1.3856e+002 -3.6638e+002 -4.1121e+001 26858 108014,107717,107873
 3.5000e+000 107945 -1.4827e+002 -3.6400e+002  2.1215e+001 26858 108158,108086,107795
 3.5000e+000 107922 -1.2218e+002 -3.6082e+002  1.8878e+001 26858 108158,107795,107769
 3.5000e+000 107899 -7.7160e+001 -4.4893e+002  6.2905e+001 26858 107821,107873,107847
 3.5000e+000 108040 -1.2946e+002 -3.9931e+002  1.7270e+001 26858 107821,107795,108014
 3.5000e+000 108063 -5.3985e+001 -3.8236e+002 -9.9859e+000 26858 107821,108014,107873
 3.5000e+000 108112 -1.8294e+002 -3.6821e+002  1.3348e+001 26858 107717,108014,108086
 3.5000e+000 108135 -1.5123e+002 -3.8163e+002  3.9912e+001 26858 107717,108086,107743
 3.5000e+000 108184 -1.1761e+002 -3.6196e+002  3.0342e+001 26858 107743,108086,108158
 3.5000e+000 108207 -1.0647e+002 -3.6951e+002  2.9984e+001 26858 107743,108158,107769
 3.5000e+000 108634 -1.6981e+002 -3.3924e+002  3.9359e+000 26404 108657,108415,108363
 3.5000e+000 108611 -1.9012e+002 -3.6591e+002  3.5478e+001 26404 108657,108363,108337
 3.5000e+000 108588 -1.6647e+002 -3.3865e+002  4.0983e+001 26404 108729,108311,108467
 3.5000e+000 108565 -1.8986e+002 -3.9354e+002  8.7391e-001 26404 108801,108441,108415
 3.5000e+000 108542 -2.4889e+002 -3.7615e+002  5.0269e+001 26404 108311,108493,108467
 3.5000e+000 108519 -1.1856e+002 -3.3884e+002  4.5592e+000 26404 108363,108415,108389
 3.5000e+000 108683 -2.2513e+002 -3.5966e+002  5.6319e+000 26404 108801,108415,108657
 3.5000e+000 108706 -2.1816e+002 -3.5391e+002  3.1837e+001 26404 108729,108467,108657
 3.5000e+000 108755 -1.3270e+002 -3.6115e+002  4.0995e+001 26404 108337,108311,108729
 3.5000e+000 108778 -1.5912e+002 -3.5824e+002  3.1203e+001 26404 108337,108729,108657
 3.5000e+000 108827 -2.2569e+002 -4.5850e+002 -1.8898e+001 26404 108467,108441,108801
 3.5000e+000 108850 -2.4621e+002 -4.0160e+002 -1.3197e+001 26404 108467,108801,108657
 3.5000e+000 109228 -1.5553e+002 -3.3910e+002 -1.4580e+001 26064 109006,109084,109058
 3.5000e+000 109205 -1.2683e+002 -3.1217e+002  8.1112e+000 26064 108980,109084,109006
 3.5000e+000 109182 -1.4688e+002 -3.0596e+002 -4.3165e+000 26064 108980,109110,109084
 3.5000e+000 109159 -1.4901e+002 -3.5312e+002 -3.3354e+000 26064 109006,109058,109032
 3.5000e+000 109136  8.9916e+000 -2.7522e+002  2.2505e+001 26064 108954,109110,108980
 3.5000e+000 109427 -4.9822e+001 -2.9561e+002 -6.0507e+001 25660 109303,109355,109329
 3.5000e+000 109404 -8.9235e+001 -3.7414e+002 -1.6073e+001 25660 109277,109355,109303
 3.5000e+000 109381 -7.2700e+001 -3.4137e+002 -2.4357e+000 25660 109251,109355,109277
 3.5000e+000 109577 -6.7024e+001 -1.6181e+002  5.5778e+001 25306 109476,109528,109502
 3.5000e+000 109554  5.7815e-001 -1.5189e+002  3.2015e+001 25306 109450,109528,109476
 3.5000e+000 109778 -1.1323e+002 -3.1542e+002  7.5149e+000 24944 109628,109706,109654
 3.5000e+000 109755 -1.2460e+002 -3.1178e+002 -1.1470e+000 24944 109602,109706,109628
 3.5000e+000 109732 -9.9796e+001 -2.9472e+002 -2.6722e+000 24944 109654,109706,109680
 3.5000e+000 110126 -1.2202e+002 -4.0884e+002  1.3500e+001 24440 110149,109907,109855
 3.5000e+000 110103 -1.2074e+002 -4.2956e+002  2.5102e+001 24440 110149,109855,109985
 3.5000e+000 110080 -9.9500e+001 -3.5648e+002  7.6420e+000 24440 109855,109907,109881
 3.5000e+000 110057 -1.0611e+002 -3.4225e+002  1.0398e+002 24440 109829,109985,109855
 3.5000e+000 110034 -1.0982e+002 -4.0740e+002  4.0955e-001 24440 109907,109959,109933
 3.5000e+000 110011 -8.6403e+001 -3.5703e+002  1.0410e+001 24440 109803,109985,109829
 3.5000e+000 110175 -1.1967e+002 -3.8955e+002  7.1883e+000 24440 109959,109907,110149
 3.5000e+000 110198 -1.2032e+002 -4.0841e+002  2.1050e+001 24440 109959,110149,109985
 3.5000e+000 110301 -1.9793e+001 -2.6248e+002 -7.9075e+000 24028 110223,110275,110249
 3.5000e+000 110573 -4.8390e+001 -2.3661e+002  1.8357e+001 23467 110400,110452,110426
 3.5000e+000 110550 -8.3492e+001 -2.7934e+002 -5.5915e-001 23467 110374,110452,110400
 3.5000e+000 110527 -8.2466e+001 -2.7882e+002  3.1671e+000 23467 110348,110452,110374
 3.5000e+000 110504 -6.0590e+001 -2.6952e+002 -2.9209e+000 23467 110348,110478,110452
 3.5000e+000 111004 -1.9428e+002 -4.0585e+002 -3.9835e+001 22963 111027,110733,110707
 3.5000e+000 110981 -1.8732e+002 -3.8466e+002  1.6512e+001 22963 111027,110707,110681
 3.5000e+000 110958 -9.3791e+001 -3.4280e+002 -3.9666e+001 22963 111099,110759,110733
 3.5000e+000 110935 -1.2070e+002 -3.3716e+002 -2.8678e+001 22963 111171,110863,110811
 3.5000e+000 110912 -6.1804e+001 -2.5208e+002 -4.4649e+001 22963 110759,110811,110785
 3.5000e+000 110889 -1.3211e+002 -3.5586e+002 -2.3044e+001 22963 110811,110863,110837
 3.5000e+000 111053 -1.3579e+002 -3.7095e+002 -2.4983e+001 22963 111099,110733,111027
 3.5000e+000 111076 -1.1464e+002 -3.6316e+002 -2.3819e+001 22963 111171,110811,111027
 3.5000e+000 111125 -9.2233e+001 -3.3722e+002 -6.2493e+001 22963 110811,110759,111099
 3.5000e+000 111148 -9.9347e+001 -3.3419e+002 -5.3776e+001 22963 110811,111099,111027
 3.5000e+000 111197 -1.2273e+002 -2.9372e+002 -3.6095e+001 22963 110681,110863,111171
 3.5000e+000 111220 -1.2922e+002 -3.2583e+002 -1.9197e+001 22963 110681,111171,111027
 3.5000e+000 111726 -1.8472e+002 -3.5531e+002  8.9136e+000 22459 111749,111507,111429
 3.5000e+000 111703 -1.7051e+002 -3.5099e+002 -6.0696e+000 22459 111749,111429,111585
 3.5000e+000 111680 -1.4773e+002 -3.9634e+002 -4.1995e+000 22459 111403,111585,111429
 3.5000e+000 111657 -1.7762e+002 -3.8767e+002  1.7513e+001 22459 111507,111559,111533
 3.5000e+000 111634 -2.4071e+002 -3.4274e+002  2.1024e+001 22459 111455,111507,111481
 3.5000e+000 111611 -2.5218e+002 -3.4228e+002  3.1597e+001 22459 111429,111507,111455
 3.5000e+000 111775 -1.8531e+002 -3.7804e+002  2.2242e+001 22459 111559,111507,111749
 3.5000e+000 111798 -1.7038e+002 -3.6191e+002  7.6022e+000 22459 111559,111749,111585
 3.5000e+000 112046 -7.8751e+001 -2.9325e+002 -3.7591e+001 21898 112069,111925,111873
 3.5000e+000 112023 -7.5933e+001 -2.9618e+002 -8.8165e+000 21898 112069,111873,111847
 3.5000e+000 112000 -1.0236e+002 -3.0354e+002 -1.4494e+001 21898 111821,111951,111847
 3.5000e+000 111977 -8.9371e+001 -2.2941e+002 -2.3580e+001 21898 111873,111925,111899
 3.5000e+000 112095 -1.1954e+002 -3.0851e+002 -4.2556e+001 21898 111951,111925,112069
 3.5000e+000 112118 -9.9685e+001 -3.0477e+002 -1.4933e+001 21898 111951,112069,111847
 3.5000e+000 112498 -1.4532e+002 -3.3700e+002 -2.9722e+001 21608 112521,112276,112224
 3.5000e+000 112475 -9.3549e+001 -3.4267e+002  1.6411e+000 21608 112521,112224,112380
 3.5000e+000 112452 -9.7640e+001 -3.8133e+002  2.7677e+001 21608 112302,112380,112354
 3.5000e+000 112429 -1.6474e+002 -3.8042e+002 -2.1577e+001 21608 112224,112276,112250
 3.5000e+000 112406  5.2835e+001 -4.0644e+002 -1.0145e+001 21608 112302,112354,112328
 3.5000e+000 112547 -1.0304e+002 -2.8725e+002 -6.5007e+000 21608 112302,112276,112521
 3.5000e+000 112570 -6.9302e+001 -3.2803e+002  1.5711e+001 21608 112302,112521,112380
 3.5000e+000 112948 -1.6595e+002 -3.4708e+002 -6.7858e+000 20882 112971,112752,112700
 3.5000e+000 112925 -1.2942e+002 -3.3383e+002 -1.1668e+001 20882 112971,112700,112830
 3.5000e+000 112902 -2.1026e+002 -3.6965e+002  2.2891e+001 20882 112778,112830,112804
 3.5000e+000 112879 -1.1938e+002 -2.6908e+002 -1.6907e+001 20882 112674,112830,112700
 3.5000e+000 112856 -2.0367e+002 -3.6263e+002  6.3638e+000 20882 112700,112752,112726
 3.5000e+000 112997 -1.6605e+002 -3.4458e+002  1.3657e+001 20882 112778,112752,112971
 3.5000e+000 113020 -1.4545e+002 -3.3793e+002  7.8130e+000 20882 112778,112971,112830
 3.5000e+000 113526 -1.2378e+002 -3.4929e+002  9.2738e-001 20428 113255,113385,113333
 3.5000e+000 113503 -1.3630e+002 -3.8435e+002 -1.7855e-001 20428 113229,113385,113255
 3.5000e+000 113480 -2.1421e+001 -3.4280e+002  1.8541e+000 20428 113255,113333,113281
 3.5000e+000 113457 -1.2170e+002 -3.8265e+002 -1.5738e-001 20428 113203,113385,113229
 3.5000e+000 113434 -6.2341e+001 -3.5886e+002 -1.1748e+001 20428 113281,113333,113307
 3.5000e+000 113411 -1.4370e+002 -3.4440e+002  5.6760e+000 20428 113333,113385,113359
 3.5000e+000 113774 -1.6376e+001 -3.2102e+002  1.1757e+001 19917 113797,113601,113549
 3.5000e+000 113751 -4.8787e+001 -3.2458e+002  1.4793e+001 19917 113869,113797,113549
 3.5000e+000 113728 -4.7112e+001 -3.2807e+002  2.7709e+001 19917 113869,113549,113679
 3.5000e+000 113705 -2.8365e+001 -3.2043e+002  2.6691e+001 19917 113549,113601,113575
 3.5000e+000 113823 -5.0897e+001 -3.9631e+002 -1.7543e+000 19917 113627,113601,113797
 3.5000e+000 113846 -1.4704e+001 -3.0711e+002 -9.4242e+000 19917 113627,113797,113653
 3.5000e+000 113895 -4.2686e+001 -2.9273e+002  3.4701e+000 19917 113653,113797,113869
 3.5000e+000 113918 -5.5168e+001 -3.0188e+002  2.0086e+001 19917 113653,113869,113679
 3.5000e+000 114166 -1.5458e+002 -3.4639e+002 -5.6037e+000 19413 113993,114045,114019
 3.5000e+000 114143 -1.4973e+002 -3.2410e+002  1.6668e+000 19413 113967,114045,113993
 3.5000e+000 114120 -1.2193e+002 -3.1377e+002  1.4793e+001 19413 113967,114071,114045
 3.5000e+000 114097 -1.1033e+002 -3.5443e+002 -7.7534e+000 19413 113941,114071,113967
 3.5000e+000 114438 -1.3992e+002 -3.7071e+002  3.4635e+000 19001 114213,114265,114239
 3.5000e+000 114415 -1.0062e+002 -2.8922e+002 -8.8321e+000 19001 114213,114343,114265
 3.5000e+000 114392 -1.4900e+002 -3.9783e+002 -1.8053e+001 19001 114265,114343,114317
 3.5000e+000 114369  3.0244e+001 -3.2083e+002 -7.6125e+000 19001 114265,114317,114291
 3.5000e+000 114639 -9.5295e+001 -4.3899e+002  2.4897e+001 18554 114489,114541,114515
 3.5000e+000 114616 -8.7910e+001 -3.7400e+002  6.2795e+000 18554 114489,114567,114541
 3.5000e+000 114593 -1.9713e+002 -4.3060e+002 -2.7065e+001 18554 114463,114567,114489
 3.5000e+000 115043 -7.6760e+001 -3.3535e+002  1.2492e+001 18164 114795,114925,114821
 3.5000e+000 115020 -7.0257e+001 -3.5690e+002  1.8973e+001 18164 114769,114925,114795
 3.5000e+000 114997 -4.4905e+001 -3.4948e+002 -1.8831e+000 18164 115066,114873,114821
 3.5000e+000 114974 -4.2183e+001 -3.0262e+002 -1.0148e+001 18164 115066,114821,114925
 3.5000e+000 114951  1.4862e+001 -3.5133e+002 -3.3080e+001 18164 114821,114873,114847
 3.5000e+000 115092 -6.1957e+001 -3.1549e+002 -2.6637e+001 18164 114899,114873,115066
 3.5000e+000 115115 -4.0119e+001 -2.4387e+002 -3.7127e+001 18164 114899,115066,114925
 3.5000e+000 115265 -1.1169e+002 -3.8326e+002  3.0147e+000 17852 115164,115216,115190
 3.5000e+000 115242 -1.1875e+002 -3.9819e+002 -3.0933e-001 17852 115138,115216,115164
 3.5000e+000 115464 -2.3057e+002 -5.1194e+002  8.6134e+000 17346 115288,115366,115340
 3.5000e+000 115441 -3.5206e+002 -3.9920e+002 -1.2983e+001 17346 115288,115392,115366
 3.5000e+000 115418 -2.0566e+002 -5.7597e+002 -1.6721e+001 17346 115288,115340,115314
 3.5000e+000 115736 -1.0312e+002 -3.4295e+002  1.3613e+001 16942 115563,115641,115615
 3.5000e+000 115713 -1.1481e+002 -3.4128e+002  3.3550e+000 16942 115511,115641,115563
 3.5000e+000 115690 -2.4139e+002 -3.9651e+002  1.9881e+001 16942 115563,115615,115589
 3.5000e+000 115667 -1.3490e+002 -3.7156e+002  1.2084e+001 16942 115511,115563,115537
 3.5000e+000 116091 -1.7213e+002 -3.9339e+002 -1.5223e+001 16388 115918,115970,115944
 3.5000e+000 116068 -1.4858e+002 -3.1582e+002 -1.0386e+001 16388 115918,115996,115970
 3.5000e+000 116045 -1.9901e+002 -3.9888e+002  1.2698e+001 16388 115892,115996,115918
 3.5000e+000 116022 -1.3478e+002 -3.6539e+002  4.2749e+001 16388 115866,115996,115892
 3.5000e+000 116192 -6.8554e+001 -4.2919e+002 -5.9410e+001 15810 116114,116166,116140
 3.5000e+000 116342 -1.5522e+002 -5.0219e+002  2.6996e+001 15419 116241,116293,116267
 3.5000e+000 116319 -2.2249e+002 -6.1569e+002 -1.8007e+001 15419 116215,116293,116241
 3.5000e+000 116445 -1.7446e+002 -3.4865e+002  3.2409e+000 421 116367,116419,116393
 3.6000e+000 68477 -2.3527e+002 -3.6180e+002  2.9472e-001 68018 68327,68379,68353
 3.6000e+000 68454 -2.5143e+002 -4.8727e+002  3.6367e+001 68018 68301,68379,68327
 3.6000e+000 68431 -9.3411e+001 -5.3493e+002  9.7044e+001 68018 68301,68405,68379
 3.6000e+000 68578 -1.5496e+002 -3.4377e+002  2.6999e+000 67820 68500,68552,68526
 3.6000e+000 68728 -1.7328e+002 -3.2798e+002 -4.4326e+000 67508 68601,68653,68627
 3.6000e+000 68705 -2.6853e+002 -2.4944e+002 -4.6552e+001 67508 68601,68679,68653
 3.6000e+000 68927 -3.8751e+001 -2.8144e+002 -6.9930e+000 67310 68777,68829,68803
 3.6000e+000 68904 -6.5859e+001 -3.2671e+002  5.5078e+000 67310 68751,68829,68777
 3.6000e+000 68881 -4.7161e+001 -3.2807e+002  1.9776e+001 67310 68751,68855,68829
 3.6000e+000 69386 -1.3281e+002 -3.6774e+002 -2.1283e+001 67020 69216,69268,69242
 3.6000e+000 69363 -1.1933e+002 -2.8290e+002 -3.9080e+001 67020 69138,69268,69216
 3.6000e+000 69340 -8.8089e+001 -2.4685e+002 -1.7512e+001 67020 69112,69268,69138
 3.6000e+000 69317 -1.6221e+002 -3.0514e+002  2.5586e+001 67020 69138,69190,69164
 3.6000e+000 69294 -1.7188e+002 -2.7954e+002 -1.7804e+001 67020 69138,69216,69190
 3.6000e+000 69536 -2.9268e+002 -7.0669e+002 -6.0651e+001 66708 69435,69487,69461
 3.6000e+000 69513 -2.1144e+002 -7.9720e+002 -1.1557e+001 66708 69409,69487,69435
 3.6000e+000 69735 -1.7069e+002 -3.6357e+002  8.7424e+000 66346 69585,69637,69611
 3.6000e+000 69712 -1.3987e+002 -3.4725e+002 -1.0347e+000 66346 69559,69637,69585
 3.6000e+000 69689 -1.2584e+002 -3.4352e+002 -3.3129e+001 66346 69559,69663,69637
 3.6000e+000 69985 -2.2638e+002 -3.9808e+002  7.2989e+000 66148 69786,69890,69864
 3.6000e+000 69962 -2.3737e+002 -4.0279e+002  8.0487e+000 66148 69760,69890,69786
 3.6000e+000 69939 -1.5810e+002 -3.8111e+002 -6.1894e+001 66148 69786,69864,69838
 3.6000e+000 69916 -1.9834e+002 -4.1779e+002 -1.5364e+001 66148 69786,69838,69812
 3.6000e+000 70137 -1.1309e+002 -4.3841e+002 -2.6481e+001 65950 70036,70088,70062
 3.6000e+000 70114 -9.5748e+001 -4.8613e+002  2.1384e+001 65950 70010,70088,70036
 3.6000e+000 70470 -8.4086e+001 -3.2273e+002  2.7999e+001 65546 70245,70323,70271
 3.6000e+000 70447 -5.7030e+001 -2.8029e+002  1.3004e+001 65546 70245,70375,70323
 3.6000e+000 70424 -7.7098e+001 -3.6022e+002  1.2623e+001 65546 70323,70375,70349
 3.6000e+000 70401 -6.0849e+001 -2.9421e+002  1.2501e+001 65546 70271,70323,70297
 3.6000e+000 70620 -1.1309e+002 -3.8330e+002  1.4787e+001 65348 70493,70545,70519
 3.6000e+000 70597 -1.0638e+002 -4.0993e+002  9.9659e+000 65348 70493,70571,70545
 3.6000e+000 70721 -1.9179e+002 -3.9787e+002  3.2267e+001 65150 70643,70695,70669
 3.6000e+000 71020 -1.3119e+002 -3.0648e+002  3.3523e+000 64952 71043,70850,70824
 3.6000e+000 70997 -1.1430e+002 -2.6476e+002  3.2448e+000 64952 71043,70824,70772
 3.6000e+000 70974 -1.2571e+002 -3.5713e+002  5.9087e+000 64952 71115,70746,70876
 3.6000e+000 70951 -9.2857e+001 -3.5664e+002 -4.2377e+000 64952 70746,70902,70876
 3.6000e+000 70928 -1.1220e+002 -2.1883e+002 -2.4830e+001 64952 70772,70824,70798
 3.6000e+000 71069 -1.0487e+002 -2.9201e+002  1.2062e+001 64952 70876,70850,71043
 3.6000e+000 71092 -1.2307e+002 -3.3529e+002  7.1569e+000 64952 71115,70876,71043
 3.6000e+000 71141 -1.4427e+002 -3.3190e+002 -1.3697e+001 64952 70772,70746,71115
 3.6000e+000 71164 -1.3390e+002 -2.9917e+002 -1.2984e+001 64952 70772,71115,71043
 3.6000e+000 71365  4.9450e+000 -3.7572e+002 -5.1168e+000 64662 71215,71293,71267
 3.6000e+000 71342  9.5406e+001 -3.4455e+002 -9.1024e+001 64662 71189,71293,71215
 3.6000e+000 71319  3.6958e+001 -3.0979e+002  4.6908e+000 64662 71215,71267,71241
 3.6000e+000 71615 -7.9562e+001 -3.5359e+002 -8.9370e+000 64350 71710,71638,71468
 3.6000e+000 71592 -1.1698e+002 -3.4744e+002 -1.2857e+001 64350 71638,71416,71390
 3.6000e+000 71569 -8.4191e+001 -3.3012e+002  1.0173e+001 64350 71710,71468,71442
 3.6000e+000 71546  9.6803e+001 -3.2420e+002 -6.6429e+001 64350 71390,71520,71494
 3.6000e+000 71664 -8.4518e+001 -3.5645e+002 -6.2780e+000 64350 71494,71468,71638
 3.6000e+000 71687 -8.0108e+001 -3.5227e+002 -4.1120e+000 64350 71494,71638,71390
 3.6000e+000 71736 -7.6403e+001 -3.0685e+002  3.5600e+000 64350 71416,71638,71710
 3.6000e+000 71759 -6.6915e+001 -2.8050e+002  2.8834e+001 64350 71416,71710,71442
 3.6000e+000 72318 -8.3002e+001 -5.5644e+002 -2.5049e+001 63837 71972,72024,71998
 3.6000e+000 72295 -1.2604e+002 -3.4712e+002 -8.5985e+000 63837 72341,71972,71946
 3.6000e+000 72272 -1.2075e+002 -2.8262e+002  1.5498e+001 63837 72413,72341,71946
 3.6000e+000 72249 -1.1752e+002 -2.5679e+002  7.8017e+000 63837 72413,71946,72128
 3.6000e+000 72226 -1.9391e+002 -3.0952e+002  4.5809e+000 63837 72024,72076,72050
 3.6000e+000 72203 -1.6057e+002 -2.8243e+002 -8.3140e+000 63837 72024,72102,72076
 3.6000e+000 72180 -1.0047e+002 -2.5333e+002  2.5772e+001 63837 71946,72154,72128
 3.6000e+000 72367 -1.7271e+002 -3.7920e+002 -7.1587e+001 63837 72024,71972,72341
 3.6000e+000 72390 -1.2917e+002 -3.0534e+002 -2.3954e+001 63837 72024,72341,72102
 3.6000e+000 72439 -1.0152e+002 -3.2454e+002  6.4580e+000 63837 72102,72341,72413
 3.6000e+000 72462 -9.7758e+001 -2.9689e+002  1.9556e+000 63837 72102,72413,72128
 3.6000e+000 72791 -1.6138e+002 -3.2334e+002 -3.3915e+001 63383 72592,72696,72670
 3.6000e+000 72768 -1.6532e+002 -3.0151e+002 -6.0369e+001 63383 72566,72696,72592
 3.6000e+000 72745 -1.6067e+002 -2.8084e+002  5.8752e-001 63383 72592,72670,72618
 3.6000e+000 72722 -1.5517e+002 -2.6706e+002  5.7465e-001 63383 72618,72670,72644
 3.6000e+000 73297 -1.9875e+002 -2.8739e+002 -5.0643e+000 63185 73000,73156,73130
 3.6000e+000 73274 -2.0091e+002 -3.0312e+002  3.6534e+001 63185 72974,73156,73000
 3.6000e+000 73251 -1.4395e+002 -3.3183e+002 -6.6359e+000 63185 73000,73052,73026
 3.6000e+000 73228 -1.6159e+002 -2.9396e+002 -1.6536e+001 63185 73000,73130,73052
 3.6000e+000 73205 -1.6074e+002 -3.3214e+002 -5.1984e+001 63185 73052,73130,73104
 3.6000e+000 73182 -1.5335e+002 -3.6636e+002 -5.5459e+001 63185 73052,73104,73078
 3.6000e+000 73545 -5.0343e+001 -2.9870e+002 -2.3873e-001 62781 73568,73398,73372
 3.6000e+000 73522 -2.7557e+001 -2.7362e+002  1.2778e+001 62781 73568,73372,73346
 3.6000e+000 73499 -6.5617e+001 -2.8434e+002 -8.7698e+000 62781 73640,73320,73424
 3.6000e+000 73476 -9.6644e+001 -1.9917e+002 -2.3723e+001 62781 73320,73450,73424
 3.6000e+000 73594 -5.3993e+001 -2.7505e+002 -3.9509e+000 62781 73424,73398,73568
 3.6000e+000 73617 -5.5516e+001 -2.7893e+002 -5.0366e+000 62781 73640,73424,73568
 3.6000e+000 73666 -6.2328e+001 -2.7836e+002  1.0036e+000 62781 73346,73320,73640
 3.6000e+000 73689 -5.6777e+001 -2.7340e+002  4.4641e+000 62781 73346,73640,73568
 3.6000e+000 74035 -1.1533e+002 -3.5398e+002 -3.4797e+000 62363 74058,73868,73842
 3.6000e+000 74012 -1.1009e+002 -3.2618e+002 -2.5436e+001 62363 74130,74058,73842
 3.6000e+000 73989 -9.9586e+001 -3.2274e+002 -2.6505e+001 62363 74130,73842,73816
 3.6000e+000 73966 -1.6953e+002 -3.6820e+002  5.1393e+000 62363 74202,73764,73894
 3.6000e+000 73943 -2.1999e+002 -3.3348e+002  6.5902e+000 62363 73712,73894,73764
 3.6000e+000 73920 -2.4069e+002 -3.5697e+002 -3.9955e+000 62363 73712,73764,73738
 3.6000e+000 74084 -1.1907e+002 -3.4576e+002 -4.0961e+000 62363 73894,73868,74058
 3.6000e+000 74107 -1.5321e+002 -3.5133e+002  1.8637e+001 62363 74202,73894,74058
 3.6000e+000 74156 -1.2225e+002 -3.3080e+002  1.1635e+001 62363 73790,74058,74130
 3.6000e+000 74179 -7.2071e+001 -3.1076e+002  1.4170e+001 62363 73790,74130,73816
 3.6000e+000 74228 -1.8840e+002 -3.7641e+002 -1.9987e+001 62363 73790,73764,74202
 3.6000e+000 74251 -1.7650e+002 -3.5857e+002 -6.5572e+000 62363 73790,74202,74058
 3.6000e+000 74403 -4.0725e+000 -3.7840e+002  2.5818e+001 62115 74426,74302,74276
 3.6000e+000 74380  7.8014e+001 -3.6372e+002  5.9332e+001 62115 74426,74276,74354
 3.6000e+000 74452 -8.0811e+001 -3.3945e+002  2.6112e+001 62115 74328,74302,74426
 3.6000e+000 74475 -3.8961e+000 -3.2744e+002  6.1950e+001 62115 74328,74426,74354
 3.6000e+000 74578  5.9504e+001 -2.2577e+002  2.6243e+000 61825 74500,74552,74526
 3.6000e+000 74982 -1.8360e+002 -3.2558e+002  2.8136e+000 61513 75005,74734,74708
 3.6000e+000 74959 -1.7766e+002 -3.1598e+002 -6.2830e-001 61513 75005,74708,74864
 3.6000e+000 74936 -2.2718e+002 -3.3290e+002  2.3447e+001 61513 75077,74812,74734
 3.6000e+000 74913 -2.0821e+002 -3.4354e+002 -2.9439e+001 61513 74734,74786,74760
 3.6000e+000 74890 -2.0185e+002 -2.9943e+002 -1.0750e+000 61513 74734,74812,74786
 3.6000e+000 75031 -1.7167e+002 -3.3294e+002  4.8108e+000 61513 75077,74734,75005
 3.6000e+000 75054 -1.3530e+002 -3.2362e+002  4.8550e+001 61513 74838,75005,74864
 3.6000e+000 75103 -2.5857e+002 -3.4820e+002  7.3113e+001 61513 74838,74812,75077
 3.6000e+000 75126 -2.2201e+002 -3.6183e+002  5.4647e+001 61513 74838,75077,75005
 3.6000e+000 75553 -8.1120e+001 -2.9358e+002 -1.0684e+001 61060 75576,75360,75308
 3.6000e+000 75530 -8.8984e+001 -3.1070e+002 -1.4232e+001 61060 75576,75308,75230
 3.6000e+000 75507 -7.2057e+001 -2.7848e+002  3.2700e+000 61060 75308,75360,75334
 3.6000e+000 75484 -1.2036e+002 -3.6322e+002  2.3410e+001 61060 75230,75308,75256
 3.6000e+000 75461 -7.6582e+001 -3.3480e+002  1.1166e+001 61060 75256,75308,75282
 3.6000e+000 75438 -9.0306e+001 -2.8648e+002  4.0227e+001 61060 75360,75412,75386
 3.6000e+000 75602 -5.3731e+001 -3.0975e+002  2.2765e+000 61060 75412,75360,75576
 3.6000e+000 75625 -7.4586e+001 -3.4544e+002 -6.7466e+000 61060 75412,75576,75230
 3.6000e+000 76052 -1.2746e+002 -2.9908e+002  4.6436e+000 60442 75755,75859,75833
 3.6000e+000 76029 -1.5646e+002 -2.8644e+002 -2.0893e+001 60442 75729,75859,75755
 3.6000e+000 76006 -1.3449e+002 -2.7876e+002  1.9527e+001 60442 75755,75833,75807
 3.6000e+000 75983 -1.2416e+002 -3.3242e+002  1.1649e+001 60442 75755,75807,75781
 3.6000e+000 75960  2.3174e+001 -5.2086e+002  1.5873e+001 60442 75729,75911,75859
 3.6000e+000 75937 -2.5707e+002 -1.3230e+003  8.2637e+001 60442 75859,75911,75885
 3.6000e+000 76430 -1.3045e+002 -3.4412e+002 -1.2712e+001 59788 76453,76286,76234
 3.6000e+000 76407 -1.3972e+002 -3.8774e+002  6.1401e+000 59788 76453,76234,76182
 3.6000e+000 76384 -1.4452e+002 -2.5422e+002  4.1473e+001 59788 76525,76156,76312
 3.6000e+000 76361 -7.9009e+001 -4.4426e+002 -4.6551e+000 59788 76182,76234,76208
 3.6000e+000 76338 -9.0009e+001 -3.2411e+002 -4.9950e+000 59788 76234,76286,76260
 3.6000e+000 76479 -1.5663e+002 -3.6774e+002  2.2049e-001 59788 76312,76286,76453
 3.6000e+000 76502 -1.3140e+002 -3.4557e+002  1.5437e+001 59788 76525,76312,76453
 3.6000e+000 76551 -1.8021e+002 -3.6897e+002  4.4276e+001 59788 76182,76156,76525
 3.6000e+000 76574 -1.5882e+002 -3.9725e+002  2.5596e+001 59788 76182,76525,76453
 3.6000e+000 77031 -9.3672e+001 -2.0120e+002 -3.2559e+001 59448 76835,76887,76861
 3.6000e+000 77008 -4.0017e+001 -1.7080e+002  8.2470e+000 59448 76835,76913,76887
 3.6000e+000 76985 -5.4149e+001 -1.4401e+002  2.9899e+001 59448 76809,76913,76835
 3.6000e+000 76962 -1.0310e+002 -1.8814e+002  5.9548e-001 59448 76757,76913,76809
 3.6000e+000 76939 -8.0410e+001 -1.6530e+002 -8.9785e+000 59448 76757,76809,76783
 3.6000e+000 77537 -1.5034e+002 -3.2019e+002  1.7304e+001 58994 77560,77344,77292
 3.6000e+000 77514 -2.1283e+002 -3.2106e+002  4.6714e+000 58994 77560,77292,77240
 3.6000e+000 77491 -1.2186e+002 -3.0434e+002 -7.3029e+000 58994 77632,77214,77370
 3.6000e+000 77468 -2.5371e+002 -3.6919e+002  6.6258e+001 58994 77292,77344,77318
 3.6000e+000 77445 -1.2655e+002 -3.9861e+002  1.6612e+001 58994 77214,77396,77370
 3.6000e+000 77422 -2.1563e+002 -3.3744e+002 -7.0340e+000 58994 77240,77292,77266
 3.6000e+000 77586 -1.5289e+002 -3.2928e+002  1.9831e+001 58994 77370,77344,77560
 3.6000e+000 77609 -1.5520e+002 -3.2490e+002  2.1874e+001 58994 77632,77370,77560
 3.6000e+000 77658 -1.0392e+002 -2.8252e+002 -3.7449e+001 58994 77240,77214,77632
 3.6000e+000 77681 -1.2804e+002 -2.7892e+002 -1.1030e+001 58994 77240,77632,77560
 3.6000e+000 78138 -1.1273e+002 -2.1236e+002  3.1078e+001 58440 77864,77994,77890
 3.6000e+000 78115 -6.5000e+001 -1.2015e+002 -2.0928e+001 58440 77864,78020,77994
 3.6000e+000 78092 -1.2898e+002 -2.5550e+002 -2.1039e+001 58440 77942,77994,77968
 3.6000e+000 78069 -1.0029e+002 -2.3768e+002  5.0548e+000 58440 77890,77994,77942
 3.6000e+000 78046 -9.2075e+001 -2.4165e+002 -1.4369e+000 58440 77890,77942,77916
 3.6000e+000 78467 -1.4547e+001 -2.9191e+002  1.3560e+001 57928 78562,78490,78346
 3.6000e+000 78444 -1.0894e+002 -2.9715e+002 -5.4194e+000 57928 78490,78294,78268
 3.6000e+000 78421  4.4115e+000 -3.0640e+002  2.9036e+001 57928 78562,78346,78320
 3.6000e+000 78398 -3.6142e+001 -2.8584e+002  5.1688e+000 57928 78242,78372,78268
 3.6000e+000 78516 -9.3095e+001 -3.6756e+002 -1.8324e+001 57928 78372,78346,78490
 3.6000e+000 78539 -7.1685e+001 -2.8040e+002 -1.8483e+000 57928 78372,78490,78268
 3.6000e+000 78588 -1.0805e+002 -2.8848e+002  3.3735e+000 57928 78294,78490,78562
 3.6000e+000 78611 -4.8390e+001 -2.5596e+002  3.4781e+001 57928 78294,78562,78320
 3.6000e+000 79068 -2.0382e+002 -4.2865e+002 -1.0628e+002 57467 78794,78924,78820
 3.6000e+000 79045 -1.5878e+002 -4.0885e+002 -1.0326e+002 57467 78794,78950,78924
 3.6000e+000 79022 -8.7937e+001 -3.8162e+002  3.5641e+001 57467 78820,78898,78872
 3.6000e+000 78999 -1.4973e+002 -5.2293e+002 -5.6149e+001 57467 78820,78924,78898
 3.6000e+000 78976 -6.4120e+001 -3.8561e+002  5.5097e+001 57467 78820,78872,78846
 3.6000e+000 79446 -1.7334e+002 -3.3693e+002  3.7163e-001 57120 79172,79302,79250
 3.6000e+000 79423 -1.5443e+002 -3.2850e+002 -8.4286e+000 57120 79172,79328,79302
 3.6000e+000 79400 -1.5571e+002 -2.9497e+002 -1.1363e+001 57120 79172,79250,79198
 3.6000e+000 79377 -1.1718e+002 -4.2382e+002  1.7626e+001 57120 79250,79302,79276
 3.6000e+000 79354 -1.9129e+002 -3.2015e+002 -2.3471e+001 57120 79198,79250,79224
 3.6000e+000 79952 -2.3019e+002 -3.6021e+002  7.8633e-001 56773 79629,79785,79655
 3.6000e+000 79929 -6.9989e+001 -3.0967e+002  1.3437e+001 56773 79629,79811,79785
 3.6000e+000 79906 -1.8003e+002 -3.9356e+002  2.6865e+001 56773 79655,79733,79681
 3.6000e+000 79883 -1.7666e+002 -3.4652e+002  5.9540e+000 56773 79655,79785,79733
 3.6000e+000 79860 -1.6579e+002 -4.5092e+002 -5.3956e+001 56773 79733,79785,79759
 3.6000e+000 79837 -9.2950e+001 -3.5368e+002  6.7218e+001 56773 79681,79733,79707
 3.6000e+000 80281 -7.2077e+001 -2.7501e+002 -2.1513e+001 56319 80108,80160,80134
 3.6000e+000 80258 -8.2779e+001 -3.0055e+002 -2.7931e+001 56319 80056,80160,80108
 3.6000e+000 80235 -2.6718e+001 -2.6425e+002  1.6120e+001 56319 80056,80186,80160
 3.6000e+000 80212 -1.1719e+002 -3.8178e+002 -1.6473e+001 56319 80056,80108,80082
 3.6000e+000 80738 -4.4024e+001 -3.2448e+002  1.8587e+001 55957 80516,80620,80594
 3.6000e+000 80715 -1.0733e+002 -2.9168e+002  1.6559e+001 55957 80464,80620,80516
 3.6000e+000 80692 -9.4109e+001 -3.5200e+002  1.9559e+001 55957 80761,80568,80542
 3.6000e+000 80669 -7.4549e+001 -3.4688e+002  2.2918e+001 55957 80761,80542,80516
 3.6000e+000 80646 -1.0955e+002 -2.9612e+002  3.6489e+001 55957 80464,80516,80490
 3.6000e+000 80787 -1.1268e+002 -3.5007e+002  1.4310e+001 55957 80594,80568,80761
 3.6000e+000 80810 -9.4358e+001 -3.4555e+002  1.7931e+001 55957 80594,80761,80516
 3.6000e+000 81210 -6.7833e+001 -3.2030e+002 -3.8628e+001 55317 80936,80988,80962
 3.6000e+000 81187 -5.7601e+001 -3.4568e+002 -1.3491e+001 55317 80936,81066,80988
 3.6000e+000 81164 -5.8617e+001 -3.7993e+002 -1.6648e+000 55317 80936,81092,81066
 3.6000e+000 81141 -1.3558e+002 -3.8511e+002 -3.6442e+001 55317 80988,81066,81014
 3.6000e+000 81118 -1.5941e+001 -2.4222e+002  1.7854e+001 55317 81014,81066,81040
 3.6000e+000 81539 -1.5058e+002 -3.4992e+002  1.1820e+001 54913 81340,81418,81392
 3.6000e+000 81516 -5.8158e+001 -2.8041e+002 -1.9333e+001 54913 81340,81444,81418
 3.6000e+000 81493 -9.2099e+001 -3.0138e+002 -4.0254e+001 54913 81314,81444,81340
 3.6000e+000 81470 -1.6924e+002 -3.6512e+002  4.5756e+000 54913 81340,81392,81366
 3.6000e+000 81787 -8.1421e+001 -3.6090e+002 -1.8529e+000 54601 81588,81692,81640
 3.6000e+000 81764 -1.2073e+002 -3.6656e+002 -1.0661e+001 54601 81562,81692,81588
 3.6000e+000 81741 -6.1907e+001 -3.6623e+002  4.9751e+001 54601 81588,81640,81614
 3.6000e+000 81718 -8.4512e+001 -4.2891e+002 -3.5880e+001 54601 81640,81692,81666
 3.6000e+000 82344 -1.4202e+002 -3.9171e+002 -2.1565e+001 54090 81998,82102,82076
 3.6000e+000 82321 -1.9304e+002 -4.1408e+002 -1.2061e+001 54090 81998,82154,82102
 3.6000e+000 82298 -1.7453e+002 -4.0421e+002 -7.0311e+000 54090 81972,82154,81998
 3.6000e+000 82275 -1.9958e+002 -3.6629e+002 -2.4600e+001 54090 81998,82076,82024
 3.6000e+000 82252 -2.1177e+002 -4.3009e+002  2.0441e+001 54090 81972,82180,82154
 3.6000e+000 82229 -2.6704e+002 -5.0237e+002  2.7686e+001 54090 82102,82154,82128
 3.6000e+000 82206 -3.5256e+001 -2.7599e+002 -6.1703e+001 54090 82024,82076,82050
 3.6000e+000 82722 -2.2967e+002 -4.1380e+002 -1.4102e+001 53579 82500,82578,82552
 3.6000e+000 82699 -1.6664e+002 -3.7565e+002  1.1281e+001 53579 82448,82578,82500
 3.6000e+000 82676 -1.8022e+002 -4.2553e+002  1.1185e+001 53579 82448,82500,82474
 3.6000e+000 82653 -2.2521e+002 -4.0528e+002  3.0839e+001 53579 82448,82604,82578
 3.6000e+000 82630 -1.1798e+002 -3.8315e+002 -1.5385e+001 53579 82500,82552,82526
 3.6000e+000 83356 -1.1105e+002 -2.9417e+002 -3.1278e+001 53189 83379,83088,83036
 3.6000e+000 83333 -1.0671e+002 -3.2903e+002 -2.8196e+001 53189 83379,83036,82984
 3.6000e+000 83310 -5.1686e+001 -3.0722e+002  4.2803e+001 53189 82984,83192,83166
 3.6000e+000 83287 -2.5880e+000 -2.4583e+002 -2.1828e+001 53189 83036,83088,83062
 3.6000e+000 83264 -8.4482e+001 -3.6846e+002 -5.2331e+001 53189 82984,83036,83010
 3.6000e+000 83241 -5.8293e+001 -3.5576e+002  1.0264e+001 53189 83114,83166,83140
 3.6000e+000 83218 -1.5585e+002 -3.7918e+002  6.4308e+000 53189 83088,83166,83114
 3.6000e+000 83405 -1.1235e+002 -3.1771e+002 -1.6941e+001 53189 83166,83088,83379
 3.6000e+000 83428 -1.0262e+002 -3.4844e+002 -1.6102e+001 53189 83166,83379,82984
 3.6000e+000 83725 -1.5281e+002 -4.3650e+002 -3.6668e+001 52585 83748,83529,83503
 3.6000e+000 83702 -1.1528e+002 -4.2434e+002 -2.2495e+001 52585 83820,83748,83503
 3.6000e+000 83679 -7.9326e+001 -4.1675e+002 -1.9118e+001 52585 83820,83503,83477
 3.6000e+000 83656 -4.8219e+001 -3.8338e+002  5.4995e+001 52585 83477,83607,83581
 3.6000e+000 83633  4.1978e+001 -3.4442e+002  5.9231e+001 52585 83451,83607,83477
 3.6000e+000 83774 -1.3255e+002 -3.8668e+002 -3.3161e+001 52585 83555,83529,83748
 3.6000e+000 83797 -1.7346e+002 -4.1998e+002 -1.8553e+001 52585 83555,83748,83581
 3.6000e+000 83846 -1.4931e+002 -4.0528e+002 -4.2653e+000 52585 83581,83748,83820
 3.6000e+000 83869 -1.2281e+002 -4.0346e+002 -4.6584e+000 52585 83581,83820,83477
 3.6000e+000 84200 -1.1028e+002 -3.9642e+002 -1.3746e+001 52024 84001,84105,84079
 3.6000e+000 84177 -5.5933e+001 -3.8714e+002 -2.8240e+001 52024 83975,84105,84001
 3.6000e+000 84154 -9.8260e+001 -3.9747e+002 -1.1048e+001 52024 84001,84079,84053
 3.6000e+000 84131 -4.8678e+001 -2.6684e+002  5.0097e+001 52024 84001,84053,84027
 3.6000e+000 84399 -9.1485e+001 -3.9166e+002  8.1609e-002 51470 84422,84275,84249
 3.6000e+000 84376 -8.2334e+001 -3.7508e+002  4.8069e+000 51470 84422,84249,84223
 3.6000e+000 84353 -1.0564e+002 -4.1012e+002 -5.6432e+001 51470 84275,84327,84301
 3.6000e+000 84448 -1.0089e+002 -3.7562e+002 -6.1694e-001 51470 84327,84275,84422
 3.6000e+000 84471 -9.3944e+001 -3.6225e+002  3.6793e+000 51470 84327,84422,84223
 3.6000e+000 84753 -1.1776e+002 -3.3489e+002 -8.9252e-001 51073 84603,84655,84629
 3.6000e+000 84730 -2.4190e+002 -3.9351e+002 -1.8148e+001 51073 84776,84655,84603
 3.6000e+000 84707 -4.6440e+001 -3.4175e+002 -9.7662e+001 51073 84577,84681,84655
 3.6000e+000 84802 -1.5218e+002 -3.4372e+002 -4.4881e+001 51073 84577,84655,84776
 3.6000e+000 85178 -2.0304e+002 -4.4232e+002  4.0100e+001 50519 85201,85008,84982
 3.6000e+000 85155 -1.9238e+002 -4.1043e+002  2.8551e+001 50519 85273,85201,84982
 3.6000e+000 85132 -1.8071e+002 -4.1084e+002  2.1065e+001 50519 85273,84982,84930
 3.6000e+000 85109 -1.7562e+002 -4.0176e+002  1.8292e+001 50519 84930,84982,84956
 3.6000e+000 85086 -1.5891e+002 -4.0126e+002  1.6638e+001 50519 85008,85060,85034
 3.6000e+000 85227 -1.6636e+002 -4.1966e+002  1.8097e+001 50519 85060,85008,85201
 3.6000e+000 85250 -1.8968e+002 -4.2135e+002  1.1846e+001 50519 85060,85201,84904
 3.6000e+000 85299 -1.7968e+002 -4.1498e+002  9.1068e+000 50519 84904,85201,85273
 3.6000e+000 85322 -1.3996e+002 -3.6733e+002 -8.8643e+000 50519 84904,85273,84930
 3.6000e+000 85958 -1.1016e+002 -3.6456e+002 -1.1768e+001 50093 85981,85768,85716
 3.6000e+000 85935 -9.7668e+001 -3.3620e+002 -9.7845e+000 50093 85981,85716,85612
 3.6000e+000 85912 -1.2983e+002 -3.4199e+002  4.6500e+000 50093 85612,85716,85664
 3.6000e+000 85889 -8.6187e+001 -3.5107e+002 -3.9048e+000 50093 85716,85768,85742
 3.6000e+000 85866 -1.0926e+002 -2.6098e+002 -7.9663e+001 50093 85664,85716,85690
 3.6000e+000 85843  2.0573e+001 -2.4874e+002 -2.5181e+001 50093 85586,85794,85612
 3.6000e+000 85820 -9.7118e+001 -4.4926e+002  2.8611e+001 50093 85612,85664,85638
 3.6000e+000 86007 -1.3886e+002 -3.9191e+002 -5.4593e+001 50093 85794,85768,85981
 3.6000e+000 86030 -9.8059e+001 -3.0529e+002 -4.1683e+001 50093 85794,85981,85612
 3.6000e+000 86131 -1.2899e+002 -4.0731e+002  5.4847e+001 49895 86053,86105,86079
 3.6000e+000 86639 -9.0708e+001 -2.5491e+002 -5.2839e+001 49391 86662,86394,86368
 3.6000e+000 86616 -1.0661e+002 -3.1105e+002 -4.6837e+001 49391 86662,86368,86342
 3.6000e+000 86593 -5.9195e+001 -3.1030e+002 -1.3991e+001 49391 86342,86498,86472
 3.6000e+000 86570 -3.8770e+001 -3.4045e+002 -1.6751e+001 49391 86316,86498,86342
 3.6000e+000 86547 -1.7223e+002 -4.6937e+002 -2.1067e+001 49391 86394,86472,86446
 3.6000e+000 86524 -1.5450e+001 -4.4537e+002  2.7899e+000 49391 86394,86446,86420
 3.6000e+000 86688 -1.0319e+002 -3.0735e+002 -2.8523e+001 49391 86472,86394,86662
 3.6000e+000 86711 -9.1518e+001 -3.3128e+002 -2.7262e+001 49391 86472,86662,86342
 3.6000e+000 87089 -1.3157e+002 -3.7762e+002  9.9207e+000 48987 86815,86919,86867
 3.6000e+000 87066 -1.3330e+002 -3.8974e+002  1.5932e+001 48987 86815,86971,86919
 3.6000e+000 87043 -5.0867e+001 -4.1898e+002 -3.8120e+001 48987 86867,86919,86893
 3.6000e+000 87020 -1.5104e+002 -4.2983e+002  3.2579e+001 48987 86815,86867,86841
 3.6000e+000 86997 -1.4929e+002 -3.3330e+002  5.3910e+001 48987 86919,86971,86945
 3.6000e+000 87467 -2.5131e+002 -3.7415e+002  1.7696e+001 48540 87490,87245,87219
 3.6000e+000 87444 -1.8291e+002 -3.4978e+002  1.1609e+000 48540 87562,87490,87219
 3.6000e+000 87421 -1.3620e+002 -3.3095e+002  1.6190e+001 48540 87562,87219,87349
 3.6000e+000 87398 -1.8943e+002 -2.9590e+002 -2.1037e+001 48540 87245,87297,87271
 3.6000e+000 87375 -1.1158e+002 -3.4660e+002  1.2582e+001 48540 87193,87349,87219
 3.6000e+000 87516 -1.7365e+002 -3.5772e+002  2.0745e+000 48540 87297,87245,87490
 3.6000e+000 87539 -1.7529e+002 -3.5677e+002  4.9702e+000 48540 87297,87490,87323
 3.6000e+000 87588 -1.3783e+002 -3.2730e+002  3.1318e+001 48540 87323,87490,87562
 3.6000e+000 87611 -1.1549e+002 -3.3379e+002  4.1426e+001 48540 87323,87562,87349
 3.6000e+000 87810 -1.8357e+002 -6.5584e+002 -4.6542e+001 48136 87660,87712,87686
 3.6000e+000 87787 -1.0700e+002 -3.9446e+002 -2.1971e+001 48136 87660,87738,87712
 3.6000e+000 87764 -2.4601e+002 -4.0451e+002 -6.9038e+001 48136 87634,87738,87660
 3.6000e+000 88205 -1.6250e+002 -4.0612e+002 -3.4134e+001 47210 88300,88228,87937
 3.6000e+000 88182 -1.4134e+002 -3.9498e+002 -9.5047e+000 47210 88228,87833,88041
 3.6000e+000 88159 -1.6471e+002 -4.3392e+002 -5.4729e+001 47210 88300,87937,87911
 3.6000e+000 88136 -1.6020e+002 -3.9461e+002 -4.7890e+001 47210 87833,87911,87859
 3.6000e+000 88113 -2.6812e+002 -3.5527e+002 -2.6065e+001 47210 87937,87989,87963
 3.6000e+000 88090 -1.3363e+002 -3.2086e+002  6.5077e+001 47210 87989,88041,88015
 3.6000e+000 88067 -1.8572e+002 -4.5899e+002 -6.1941e+001 47210 87859,87911,87885
 3.6000e+000 88254 -1.4443e+002 -3.3705e+002 -3.4946e+001 47210 87989,87937,88228
 3.6000e+000 88277 -1.7044e+002 -3.8789e+002 -1.2689e+001 47210 87989,88228,88041
 3.6000e+000 88326 -1.3423e+002 -3.7924e+002 -1.2530e+001 47210 87833,88228,88300
 3.6000e+000 88349 -1.4097e+002 -3.9789e+002 -3.4556e+001 47210 87833,88300,87911
 3.6000e+000 88780 -2.6417e+002 -4.5936e+002 -8.4319e+001 46642 88803,88509,88483
 3.6000e+000 88757 -1.9024e+002 -4.1368e+002 -4.5148e+001 46642 88803,88483,88639
 3.6000e+000 88734 -2.1111e+002 -3.4136e+002 -5.1633e+001 46642 88875,88561,88509
 3.6000e+000 88711 -2.1398e+002 -3.1733e+002 -9.5706e+000 46642 88509,88561,88535
 3.6000e+000 88688 -1.2415e+002 -4.6240e+002  2.0889e+000 46642 88457,88639,88483
 3.6000e+000 88665 -2.4218e+002 -5.5307e+002 -2.2157e+001 46642 88561,88613,88587
 3.6000e+000 88829 -2.1349e+002 -3.7185e+002 -5.8528e+001 46642 88875,88509,88803
 3.6000e+000 88852 -2.0870e+002 -4.4672e+002 -3.7747e+001 46642 88613,88803,88639
 3.6000e+000 88901 -1.7399e+002 -3.8388e+002 -2.5680e+001 46642 88613,88561,88875
 3.6000e+000 88924 -1.8988e+002 -4.3334e+002 -3.1680e+001 46642 88613,88875,88803
 3.6000e+000 89253 -7.9686e+001 -3.9480e+002  9.3711e+000 46444 89080,89158,89132
 3.6000e+000 89230 -9.3476e+001 -4.2586e+002  6.1116e+000 46444 89028,89158,89080
 3.6000e+000 89207 -3.4044e+001 -3.7386e+002 -1.5884e+001 46444 89028,89080,89054
 3.6000e+000 89184 -4.2581e+001 -4.2663e+002 -2.9687e+001 46444 89080,89132,89106
 3.6000e+000 89631 -1.0602e+002 -2.5880e+002  5.0797e+000 46040 89383,89461,89435
 3.6000e+000 89608 -1.1235e+002 -2.8672e+002 -1.7652e+001 46040 89383,89487,89461
 3.6000e+000 89585 -1.1615e+002 -3.3480e+002 -1.0649e+001 46040 89383,89435,89409
 3.6000e+000 89562 -8.8806e+001 -2.4134e+002 -3.7016e+001 46040 89383,89513,89487
 3.6000e+000 89539 -3.9183e+001 -2.1746e+002 -4.6395e+001 46040 89357,89513,89383
 3.6000e+000 90009 -1.0707e+002 -3.2465e+002 -1.1720e+000 45636 89813,89891,89839
 3.6000e+000 89986 -1.1139e+002 -3.0435e+002  1.8626e+001 45636 89787,89891,89813
 3.6000e+000 89963 -9.7957e+001 -3.0563e+002 -7.6618e+000 45636 89839,89891,89865
 3.6000e+000 89940 -1.2863e+002 -3.4036e+002  1.1721e+001 45636 89735,89891,89787
 3.6000e+000 89917 -9.3554e+001 -3.4307e+002 -1.8687e+001 45636 89735,89787,89761
 3.6000e+000 90208 -7.3732e+001 -2.5478e+002 -5.0658e+001 45175 90231,90058,90032
 3.6000e+000 90185 -4.3323e+001 -2.3281e+002 -7.5667e+001 45175 90231,90032,90136
 3.6000e+000 90162 -8.9101e+001 -2.0922e+002 -4.2045e+000 45175 90058,90110,90084
 3.6000e+000 90257 -1.0708e+002 -2.8601e+002 -1.2922e+001 45175 90110,90058,90231
 3.6000e+000 90280 -4.9195e+001 -2.4751e+002 -4.0908e+001 45175 90110,90231,90136
 3.6000e+000 90528 -8.1904e+001 -2.6330e+002 -3.5486e+001 44513 90695,90551,90407
 3.6000e+000 90505 -8.7475e+001 -2.3789e+002 -1.6942e+001 44513 90551,90355,90329
 3.6000e+000 90482 -1.0832e+002 -2.5908e+002 -3.2386e+001 44513 90623,90303,90433
 3.6000e+000 90459 -6.2232e+001 -2.4562e+002 -2.6339e+001 44513 90695,90407,90381
 3.6000e+000 90577 -1.2010e+002 -2.7568e+002 -6.0420e+001 44513 90433,90407,90551
 3.6000e+000 90600 -1.0293e+002 -2.5289e+002 -3.0107e+001 44513 90623,90433,90551
 3.6000e+000 90649 -1.0574e+002 -2.5110e+002 -2.9256e+001 44513 90329,90303,90623
 3.6000e+000 90672 -1.0646e+002 -2.5071e+002 -2.9199e+001 44513 90329,90623,90551
 3.6000e+000 90721 -1.0559e+002 -2.4021e+002 -3.9790e+001 44513 90355,90551,90695
 3.6000e+000 90744 -9.9670e+001 -2.3221e+002 -3.6395e+001 44513 90355,90695,90381
 3.6000e+000 91077 -2.0552e+000 -2.7608e+002 -1.9158e+001 44059 91100,90930,90904
 3.6000e+000 91054 -1.0759e+002 -2.9734e+002  1.3182e+001 44059 91100,90904,90982
 3.6000e+000 91031 -1.9255e+002 -3.4708e+002 -2.6014e+001 44059 90878,90982,90904
 3.6000e+000 91008 -6.1073e+001 -2.5910e+002  1.6009e+001 44059 90852,90982,90878
 3.6000e+000 91126 -1.5681e+002 -3.1468e+002 -2.3132e+001 44059 91172,91100,90956
 3.6000e+000 91149 -1.0075e+002 -2.8675e+002 -1.3428e+001 44059 90956,91100,90982
 3.6000e+000 91198 -7.2767e+000 -1.6853e+002 -8.2610e+001 44059 90930,91100,91172
 3.6000e+000 91677 -1.4948e+002 -2.3021e+002  2.2430e+001 43549 91455,91533,91481
 3.6000e+000 91654 -6.6080e+001 -2.3356e+002  3.0189e+001 43549 91429,91533,91455
 3.6000e+000 91631 -1.4369e+002 -2.2832e+002  1.1024e+001 43549 91481,91533,91507
 3.6000e+000 91608 -3.7773e+001 -2.2182e+002  1.5028e+001 43549 91429,91559,91533
 3.6000e+000 91585 -7.5417e+000 -8.4914e+001  2.0022e+000 43549 91403,91559,91429
 3.6000e+000 92006 -1.3132e+002 -3.3638e+002 -1.5926e+000 43059 91781,91885,91807
 3.6000e+000 91983 -1.3927e+002 -3.2072e+002  5.2144e+001 43059 91781,91911,91885
 3.6000e+000 91960 -1.3278e+002 -3.3885e+002 -3.0920e-001 43059 91807,91885,91833
 3.6000e+000 91937 -8.6645e+001 -3.2129e+002 -6.8844e+000 43059 91833,91885,91859
 3.6000e+000 92561 -1.1581e+002 -2.4882e+002 -2.7553e+001 42598 92584,92215,92189
 3.6000e+000 92538 -1.2519e+002 -2.8176e+002 -2.6377e+001 42598 92656,92584,92189
 3.6000e+000 92515 -1.1241e+002 -3.1857e+002 -7.5492e+000 42598 92656,92189,92397
 3.6000e+000 92492 -1.4267e+002 -2.2268e+002 -3.3028e+001 42598 92241,92319,92293
 3.6000e+000 92469 -1.3640e+002 -2.6407e+002  1.4202e+001 42598 92319,92397,92371
 3.6000e+000 92446 -5.6204e+001 -3.0428e+002  1.2226e+002 42598 92319,92371,92345
 3.6000e+000 92423 -1.4129e+002 -2.3001e+002 -4.7104e+001 42598 92241,92293,92267
 3.6000e+000 92610 -1.2210e+002 -2.4979e+002 -2.5237e+001 42598 92241,92215,92584
 3.6000e+000 92633 -1.1284e+002 -2.2933e+002 -3.3096e+001 42598 92241,92584,92319
 3.6000e+000 92682 -1.1425e+002 -2.3251e+002 -1.9018e+001 42598 92319,92584,92656
 3.6000e+000 92705 -9.2783e+001 -2.5769e+002 -5.0498e+000 42598 92319,92656,92397
 3.6000e+000 92953 -1.3919e+002 -3.6748e+002  1.9304e+001 42094 92976,92806,92780
 3.6000e+000 92930 -1.5431e+002 -3.4573e+002 -3.0061e-001 42094 92976,92780,92754
 3.6000e+000 92907 -3.2255e+001 -3.5424e+002 -3.1671e+000 42094 93048,92832,92806
 3.6000e+000 92884 -1.9925e+002 -3.5053e+002 -2.3448e+001 42094 92728,92858,92754
 3.6000e+000 93002 -8.8959e+001 -3.3985e+002  8.5947e+000 42094 93048,92806,92976
 3.6000e+000 93025 -1.4403e+002 -3.4002e+002 -5.6626e+000 42094 92858,92976,92754
 3.6000e+000 93074 -1.1173e+002 -3.8252e+002 -4.0368e+000 42094 92858,92832,93048
 3.6000e+000 93097 -1.5782e+002 -3.6132e+002  2.7041e+000 42094 92858,93048,92976
 3.6000e+000 93605 -1.4902e+002 -4.2663e+002 -1.5664e+001 41846 93628,93412,93386
 3.6000e+000 93582 -1.1244e+002 -3.2233e+002 -1.8368e+000 41846 93628,93386,93308
 3.6000e+000 93559 -1.7256e+002 -3.3726e+002 -7.0189e+001 41846 93700,93464,93438
 3.6000e+000 93536 -1.5936e+002 -4.4505e+002  5.4769e+000 41846 93308,93386,93334
 3.6000e+000 93513 -2.0842e+002 -3.2428e+002 -5.1866e+001 41846 93334,93386,93360
 3.6000e+000 93490 -1.6609e+002 -2.9852e+002 -6.6809e+001 41846 93282,93464,93308
 3.6000e+000 93654 -1.2915e+002 -3.4194e+002 -3.2019e+001 41846 93438,93412,93628
 3.6000e+000 93677 -1.7267e+002 -3.4416e+002 -3.2593e+001 41846 93700,93438,93628
 3.6000e+000 93726 -1.5622e+002 -2.9086e+002 -6.3386e+001 41846 93308,93464,93700
 3.6000e+000 93749 -1.4999e+002 -2.8312e+002 -2.6276e+001 41846 93308,93700,93628
 3.6000e+000 94255 -1.1454e+002 -3.4696e+002  2.2190e+001 41385 93958,94114,94088
 3.6000e+000 94232 -9.9603e+001 -3.7396e+002  9.0439e+000 41385 93932,94114,93958
 3.6000e+000 94209 -1.9982e+002 -4.0260e+002  6.5301e+001 41385 93958,94088,94062
 3.6000e+000 94186 -2.0723e+002 -2.9122e+002  4.7817e+001 41385 93958,94062,93984
 3.6000e+000 94163 -1.8287e+002 -2.8493e+002  4.5366e+001 41385 93984,94062,94036
 3.6000e+000 94140 -1.2576e+002 -3.9626e+002  6.7613e+001 41385 93984,94036,94010
 3.6000e+000 94476 -3.1496e+001 -4.6856e+002  2.9894e+001 40881 94326,94378,94352
 3.6000e+000 94453 -7.5062e+001 -3.8510e+002  3.2659e+001 40881 94300,94378,94326
 3.6000e+000 94430 -9.5981e+001 -3.5588e+002  4.8074e+000 40881 94300,94404,94378
 3.6000e+000 94626 -1.1015e+002 -2.8730e+002 -3.2128e+000 40591 94649,94551,94525
 3.6000e+000 94603 -5.9854e+001 -1.7854e+002  1.8787e+000 40591 94781,94577,94551
 3.6000e+000 94675 -3.8372e+001 -2.0751e+002 -3.4241e+001 40591 94781,94551,94649
 3.6000e+000 94807 -4.3030e+000 -1.2382e+002  3.4464e+001 40591 94499,94577,94781
 3.6000e+000 94830  1.4682e+000 -1.8164e+002 -3.5319e+000 40591 94499,94781,94649
 3.6000e+000 95336 -2.3924e+002 -3.2561e+002 -5.0207e+001 40187 95013,95169,95039
 3.6000e+000 95313 -5.3982e+001 -2.9515e+002  7.3100e+000 40187 95013,95195,95169
 3.6000e+000 95290 -4.0536e+001 -3.2012e+002 -3.4867e+001 40187 95039,95143,95065
 3.6000e+000 95267 -1.8190e+002 -3.7572e+002 -5.5126e+001 40187 95039,95169,95143
 3.6000e+000 95244 -8.3942e+001 -2.9828e+002 -3.1640e+001 40187 95091,95143,95117
 3.6000e+000 95221 -2.7495e+001 -1.8859e+002 -1.1971e+001 40187 95065,95143,95091
 3.6000e+000 95665 -9.3932e+001 -2.5470e+002  1.0433e+002 39626 95466,95570,95544
 3.6000e+000 95642 -1.7075e+002 -2.0489e+002  6.7915e+001 39626 95440,95570,95466
 3.6000e+000 95619 -2.6064e+002 -3.3304e+002  6.5966e+001 39626 95466,95544,95492
 3.6000e+000 95596 -5.7812e+001 -2.5732e+002  1.0283e+002 39626 95492,95544,95518
 3.6000e+000 95913 -1.3619e+002 -3.0014e+002 -4.5165e+001 39136 96080,95936,95766
 3.6000e+000 95890 -9.4155e+001 -3.2201e+002 -2.7394e+001 39136 95936,95714,95688
 3.6000e+000 95867 -2.3964e+002 -3.2107e+002  1.1598e+001 39136 96008,95792,95766
 3.6000e+000 95844 -1.1158e+002 -2.9119e+002 -3.4392e+001 39136 96080,95766,95740
 3.6000e+000 95962 -1.8982e+002 -3.3288e+002 -2.9686e+001 39136 96008,95766,95936
 3.6000e+000 95985 -1.2254e+002 -3.9134e+002 -7.4843e+000 39136 95818,95936,95688
 3.6000e+000 96034 -1.1917e+002 -2.6865e+002  1.9365e+001 39136 95818,95792,96008
 3.6000e+000 96057 -1.0599e+002 -2.9480e+002 -2.1211e+001 39136 95818,96008,95936
 3.6000e+000 96106 -1.2419e+002 -2.9701e+002 -1.2259e+001 39136 95714,95936,96080
 3.6000e+000 96129 -8.5802e+001 -2.8637e+002 -3.9255e+000 39136 95714,96080,95740
 3.6000e+000 96350 -1.1220e+002 -2.6692e+002 -1.2918e+001 38824 96200,96278,96252
 3.6000e+000 96327 -9.9717e+001 -2.6144e+002 -1.1623e+001 38824 96174,96278,96200
 3.6000e+000 96304 -4.3323e+001 -2.3809e+002 -3.8123e+001 38824 96200,96252,96226
 3.6000e+000 96830 -1.6048e+002 -2.8002e+002 -1.7956e+001 38320 97069,96536,96484
 3.6000e+000 96807 -1.5790e+002 -2.8394e+002 -1.7713e+001 38320 97069,96484,96853
 3.6000e+000 96784 -1.7608e+002 -3.0491e+002  7.0783e+000 38320 96853,96484,96458
 3.6000e+000 96761 -9.4457e+001 -2.4583e+002 -2.9029e+001 38320 96925,96640,96614
 3.6000e+000 96738 -1.5189e+002 -2.5745e+002 -1.2845e+001 38320 96997,96666,96640
 3.6000e+000 96715 -1.2613e+002 -3.3500e+002 -5.0933e+000 38320 97141,96588,96562
 3.6000e+000 96692 -2.0165e+002 -3.2686e+002  2.6220e-001 38320 96484,96536,96510
 3.6000e+000 96879 -1.5669e+002 -3.0131e+002 -9.2783e+000 38320 97141,96562,96853
 3.6000e+000 96902 -1.4529e+002 -2.9421e+002 -9.2079e+000 38320 96925,96614,96853
 3.6000e+000 96951 -1.4830e+002 -2.5491e+002 -1.4390e+001 38320 96997,96640,96925
 3.6000e+000 96974 -1.4217e+002 -2.4945e+002 -7.9371e+000 38320 96458,96925,96853
 3.6000e+000 97023 -1.6843e+002 -2.6005e+002 -4.0629e+000 38320 96458,96666,96997
 3.6000e+000 97046 -1.5512e+002 -2.5378e+002 -5.7741e+000 38320 96458,96997,96925
 3.6000e+000 97095 -1.7205e+002 -2.8047e+002  3.8532e+000 38320 96562,96536,97069
 3.6000e+000 97118 -1.4972e+002 -2.8215e+002 -1.4315e+001 38320 96562,97069,96853
 3.6000e+000 97167 -7.2049e+001 -3.0405e+002 -1.9496e+001 38320 96614,96588,97141
 3.6000e+000 97190 -1.2244e+002 -2.8478e+002 -1.9732e+001 38320 96614,97141,96853
 3.6000e+000 97519 -1.1983e+002 -3.5452e+002  9.3077e+001 37766 97542,97398,97372
 3.6000e+000 97496 -1.4203e+002 -2.8172e+002  6.5388e+001 37766 97542,97372,97346
 3.6000e+000 97473 -1.4330e+002 -2.9300e+002  7.3777e+000 37766 97294,97424,97346
 3.6000e+000 97450 -1.6153e+002 -3.4686e+002  1.4865e+000 37766 97294,97346,97320
 3.6000e+000 97568 -6.5925e+001 -3.7072e+002  3.2667e+001 37766 97424,97398,97542
 3.6000e+000 97591 -1.0143e+002 -2.8756e+002  9.8392e+000 37766 97424,97542,97346
 3.6000e+000 98048 -1.4937e+002 -2.1801e+002 -7.3126e+001 37262 98071,97878,97852
 3.6000e+000 98025 -1.2649e+002 -2.6171e+002 -3.0606e+001 37262 98071,97852,97800
 3.6000e+000 98002 -1.4997e+002 -3.2574e+002 -2.7617e+001 37262 97800,97852,97826
 3.6000e+000 97979 -1.5222e+002 -2.8437e+002  8.9649e+000 37262 97800,97930,97904
 3.6000e+000 97956 -1.0418e+002 -3.4792e+002  2.2923e+001 37262 97774,97930,97800
 3.6000e+000 98097 -2.1238e+002 -2.4875e+002 -5.2131e+001 37262 97904,97878,98071
 3.6000e+000 98120 -1.6126e+002 -2.9745e+002 -1.3511e+001 37262 97904,98071,97800
 3.6000e+000 98449 -7.2115e+001 -2.0558e+002 -2.5231e+001 36950 98472,98302,98250
 3.6000e+000 98426 -4.1052e+001 -1.9540e+002 -3.1106e+001 36950 98472,98250,98354
 3.6000e+000 98403 -1.1378e+002 -2.2739e+002  2.6601e+001 36950 98250,98302,98276
 3.6000e+000 98380 -2.7166e+001 -1.5428e+002  1.5995e+001 36950 98224,98354,98250
 3.6000e+000 98498 -4.9233e+001 -2.3124e+002 -6.8220e+000 36950 98328,98302,98472
 3.6000e+000 98521 -1.2822e+001 -2.1602e+002 -1.7898e+001 36950 98328,98472,98354
 3.6000e+000 99125 -1.6311e+002 -1.6220e+002  1.5476e+001 36296 98704,98756,98730
 3.6000e+000 99102 -1.5789e+002 -1.8128e+002  1.4458e+001 36296 98704,98938,98756
 3.6000e+000 99079 -1.1480e+002 -2.1996e+002 -5.7411e+000 36296 99148,98938,98912
 3.6000e+000 99056 -1.2352e+002 -2.2722e+002  5.1778e+001 36296 99292,99220,98782
 3.6000e+000 99033 -9.9979e+001 -2.5319e+002  5.6839e+000 36296 99148,98912,98834
 3.6000e+000 99010 -1.1625e+002 -1.9218e+002  5.6473e+001 36296 99292,98782,98756
 3.6000e+000 98987 -9.5105e+001 -4.4643e+002 -8.2203e+001 36296 98834,98912,98886
 3.6000e+000 98964 -1.6281e+002 -6.5245e+002 -1.0494e+002 36296 98834,98886,98860
 3.6000e+000 99174 -1.4132e+002 -2.7156e+002  7.7357e+000 36296 99220,98938,99148
 3.6000e+000 99197 -9.8124e+001 -3.0987e+002  3.3463e+001 36296 98808,99148,98834
 3.6000e+000 99246 -1.2193e+002 -2.2227e+002  1.2750e+002 36296 98808,98782,99220
 3.6000e+000 99269 -4.8838e+001 -1.9631e+002  4.1172e+001 36296 98808,99220,99148
 3.6000e+000 99318 -1.3008e+002 -1.9250e+002  2.7697e+001 36296 98938,99220,99292
 3.6000e+000 99341 -1.3306e+002 -1.9806e+002  3.2647e+001 36296 98938,99292,98756
 3.6000e+000 99719 -1.6370e+002 -3.4347e+002 -2.6459e-001 35742 99742,99471,99601
 3.6000e+000 99696 -1.6923e+002 -2.7095e+002  3.2162e+001 35742 99445,99601,99471
 3.6000e+000 99673 -1.5664e+002 -3.2738e+002 -1.5227e+001 35742 99742,99601,99575
 3.6000e+000 99650 -1.3552e+002 -4.0115e+002 -1.1841e+001 35742 99814,99549,99523
 3.6000e+000 99627 -1.0892e+002 -3.1226e+002 -3.3432e+000 35742 99471,99523,99497
 3.6000e+000 99768 -1.3130e+002 -3.3584e+002  6.1336e+000 35742 99523,99471,99742
 3.6000e+000 99791 -1.5411e+002 -3.7114e+002 -1.0476e+001 35742 99814,99523,99742
 3.6000e+000 99840 -1.3151e+002 -3.6421e+002 -2.3328e+001 35742 99575,99549,99814
 3.6000e+000 99863 -1.4386e+002 -3.2541e+002 -2.1081e+001 35742 99575,99814,99742
 3.6000e+000 100111 -1.2287e+002 -2.7551e+002  1.8778e+001 35302 100134,99990,99938
 3.6000e+000 100088 -1.0238e+002 -2.5250e+002  5.3145e+000 35302 100134,99938,99912
 3.6000e+000 100065 -1.0282e+002 -2.5090e+002 -7.4599e+000 35302 100206,99886,100016
 3.6000e+000 100042 -1.6173e+002 -2.5235e+002  1.1382e+001 35302 99938,99990,99964
 3.6000e+000 100160 -9.5660e+001 -2.6515e+002  4.0316e+000 35302 100016,99990,100134
 3.6000e+000 100183 -9.7838e+001 -2.5511e+002 -7.3292e+000 35302 100206,100016,100134
 3.6000e+000 100232 -1.0694e+002 -2.5598e+002 -4.2273e+000 35302 99912,99886,100206
 3.6000e+000 100255 -1.0233e+002 -2.6133e+002 -4.2842e+000 35302 99912,100206,100134
 3.6000e+000 100586 -1.5604e+002 -1.8564e+002  4.6834e+001 35012 100609,100387,100361
 3.6000e+000 100563 -1.8887e+002 -1.4285e+002 -3.4462e+001 35012 100609,100361,100465
 3.6000e+000 100540 -8.9473e+001 -1.0475e+002 -7.7974e+001 35012 100361,100491,100465
 3.6000e+000 100517 -3.4213e+001 -1.1153e+002 -6.8966e+001 35012 100413,100465,100439
 3.6000e+000 100635 -7.2524e+001 -1.4925e+002  2.2184e+001 35012 100413,100387,100609
 3.6000e+000 100658 -1.0342e+002 -9.6263e+001 -6.1271e+001 35012 100413,100609,100465
 3.6000e+000 100987 -1.2939e+002 -2.8532e+002  2.7409e+001 34700 100788,100866,100814
 3.6000e+000 100964 -1.0759e+002 -2.2923e+002  4.3682e+001 34700 101010,100866,100788
 3.6000e+000 100941 -7.5179e+001 -1.7228e+002  4.5817e+001 34700 100762,100892,100866
 3.6000e+000 100918 -1.2280e+002 -2.6667e+002  1.6366e+001 34700 100814,100866,100840
 3.6000e+000 101036 -7.2276e+001 -2.0191e+002  6.8202e+001 34700 100762,100866,101010
 3.6000e+000 101493 -1.7083e+002 -3.2198e+002 -3.0647e+001 34132 101516,101349,101297
 3.6000e+000 101470 -2.0377e+002 -3.8539e+002 -4.7607e+001 34132 101588,101516,101297
 3.6000e+000 101447 -2.0517e+002 -4.0732e+002 -6.9106e+001 34132 101588,101297,101245
 3.6000e+000 101424 -1.2420e+002 -4.7701e+002 -6.4443e+001 34132 101245,101297,101271
 3.6000e+000 101401 -1.9806e+002 -3.2587e+002 -3.8417e+001 34132 101297,101349,101323
 3.6000e+000 101542 -1.7895e+002 -3.7136e+002 -2.4212e+001 34132 101375,101349,101516
 3.6000e+000 101565 -1.5847e+002 -3.6717e+002 -2.3901e+001 34132 101375,101516,101219
 3.6000e+000 101614 -1.6257e+002 -3.8808e+002 -2.4584e+001 34132 101219,101516,101588
 3.6000e+000 101637 -1.8368e+002 -4.0895e+002 -4.5114e+001 34132 101219,101588,101245
 3.6000e+000 101858 -7.5202e+001 -2.8345e+002  2.5650e+001 33720 101708,101786,101760
 3.6000e+000 101835 -6.1660e+001 -3.1327e+002  3.5798e+001 33720 101682,101786,101708
 3.6000e+000 101812 -1.1023e+002 -3.0137e+002  1.7503e+001 33720 101708,101760,101734
 3.6000e+000 102128 -3.3927e+001 -3.3347e+002 -9.2187e+000 33130 101903,102007,101929
 3.6000e+000 102105 -4.2999e+001 -3.8570e+002  1.2345e+001 33130 101903,102033,102007
 3.6000e+000 102082 -1.5861e+001 -4.0094e+002 -8.0820e+001 33130 101929,102007,101955
 3.6000e+000 102059 -5.7129e+001 -2.8226e+002  5.9200e+000 33130 101955,102007,101981
 3.6000e+000 102461 -1.3423e+002 -2.9222e+002 -2.4767e+001 32840 102236,102340,102262
 3.6000e+000 102438 -1.1663e+002 -2.0839e+002  7.1417e+000 32840 102236,102366,102340
 3.6000e+000 102415 -8.5057e+001 -2.7944e+002 -2.0635e+001 32840 102262,102340,102288
 3.6000e+000 102392 -1.5893e+002 -2.9785e+002 -5.5066e+001 32840 102288,102340,102314
 3.6000e+000 102997 -1.1075e+002 -1.8983e+002  5.3839e+001 32493 102749,102879,102853
 3.6000e+000 102974 -8.9478e+001 -1.4898e+002  3.7444e+001 32493 102723,102879,102749
 3.6000e+000 102951 -1.3032e+002 -2.3217e+002  3.6733e+001 32493 102749,102801,102775
 3.6000e+000 102928 -1.3858e+002 -2.2956e+002  3.4799e+001 32493 102749,102853,102801
 3.6000e+000 102905 -1.3030e+002 -2.1617e+002  2.8570e+001 32493 102801,102853,102827
 3.6000e+000 103454 -1.3513e+002 -2.3771e+002 -2.5117e+001 32089 103206,103336,103310
 3.6000e+000 103431 -1.0861e+002 -2.5128e+002 -4.2981e+000 32089 103180,103336,103206
 3.6000e+000 103408 -1.4755e+002 -2.7987e+002 -4.5265e+001 32089 103206,103284,103258
 3.6000e+000 103385 -2.0856e+002 -2.8650e+002 -5.6134e+001 32089 103206,103310,103284
 3.6000e+000 103362 -1.1561e+002 -1.9606e+002 -2.2031e+001 32089 103206,103258,103232
 3.6000e+000 103783 -2.2919e+002 -3.0101e+002 -3.4027e+001 31742 103558,103662,103584
 3.6000e+000 103760 -1.8476e+002 -2.2956e+002 -7.7163e+001 31742 103558,103688,103662
 3.6000e+000 103737 -1.5023e+002 -2.3842e+002 -6.4896e+001 31742 103584,103662,103636
 3.6000e+000 103714 -1.4095e+002 -2.6394e+002 -7.1365e+001 31742 103584,103636,103610
 3.6000e+000 104112 -9.7664e+000 -2.4187e+002  5.6369e+001 31402 103939,103991,103965
 3.6000e+000 104089 -6.9622e+001 -2.0384e+002  2.2522e+001 31402 103913,103991,103939
 3.6000e+000 104066 -9.8203e+001 -2.2879e+002  9.6068e+000 31402 103913,104017,103991
 3.6000e+000 104043 -1.2022e+002 -2.1488e+002 -5.1588e+000 31402 103887,104017,103913
 3.6000e+000 104569 -2.1492e+002 -3.6667e+002  7.1210e+000 30998 104321,104425,104373
 3.6000e+000 104546 -2.3944e+002 -3.7413e+002  3.5440e+000 30998 104321,104451,104425
 3.6000e+000 104523 -1.7254e+002 -3.0897e+002  3.8351e+001 30998 104373,104425,104399
 3.6000e+000 104500 -1.9648e+002 -4.3079e+002 -2.4183e+001 30998 104295,104451,104321
 3.6000e+000 104477 -2.8136e+002 -4.2949e+002  7.2085e+001 30998 104321,104373,104347
 3.6000e+000 104947 -1.7483e+002 -3.0626e+002 -3.3052e+001 30608 104751,104803,104777
 3.6000e+000 104924 -1.2138e+002 -3.2170e+002 -1.3289e+001 30608 104725,104803,104751
 3.6000e+000 104901 -1.8706e+002 -3.1003e+002  2.0644e+001 30608 104699,104803,104725
 3.6000e+000 104878 -1.6648e+002 -3.0183e+002  2.0184e+001 30608 104673,104803,104699
 3.6000e+000 104855 -1.2812e+002 -2.8829e+002 -1.0317e+001 30608 104673,104829,104803
 3.6000e+000 105276 -1.1299e+002 -2.8685e+002  1.0493e+001 30204 105427,105129,105077
 3.6000e+000 105253 -6.5623e+001 -3.0847e+002  6.8253e+001 30204 105427,105077,105051
 3.6000e+000 105230 -1.1462e+002 -2.9117e+002  8.2387e+000 30204 105077,105129,105103
 3.6000e+000 105207 -8.1354e+001 -2.5838e+002  3.4850e+001 30204 105299,105181,105155
 3.6000e+000 105325 -9.1836e+001 -2.5693e+002  1.1977e+001 30204 105129,105181,105299
 3.6000e+000 105453 -1.4278e+002 -3.0497e+002  3.1755e+001 30204 105181,105129,105427
 3.6000e+000 105476 -1.6794e+002 -3.5963e+002  9.6601e+001 30204 105181,105427,105051
 3.6000e+000 105903 -1.0195e+002 -2.4181e+002 -1.9727e+001 29700 105606,105762,105736
 3.6000e+000 105880 -1.3087e+002 -2.4747e+002  9.2151e-001 29700 105580,105762,105606
 3.6000e+000 105857 -1.5565e+002 -3.0698e+002 -1.9268e+001 29700 105606,105710,105632
 3.6000e+000 105834 -1.2931e+002 -2.5713e+002 -9.4988e+000 29700 105606,105736,105710
 3.6000e+000 105811 -1.4674e+002 -2.7779e+002 -2.1795e+001 29700 105632,105710,105684
 3.6000e+000 105788 -1.3780e+002 -2.5649e+002 -1.4592e+001 29700 105632,105684,105658
 3.6000e+000 106102 -5.1025e+001 -3.1157e+002  1.2388e+001 29124 105978,106030,106004
 3.6000e+000 106079 -8.3764e+001 -3.0487e+002  1.3706e+001 29124 105926,106030,105978
 3.6000e+000 106056 -9.8782e+001 -3.5631e+002  3.6685e+001 29124 105926,105978,105952
 3.6000e+000 106301 -7.9016e+001 -2.9685e+002  7.6858e-001 28712 106151,106229,106203
 3.6000e+000 106278 -9.4019e+001 -3.2843e+002 -1.5385e+001 28712 106125,106229,106151
 3.6000e+000 106255 -8.3815e+001 -3.1363e+002  1.6778e+001 28712 106151,106203,106177
 3.6000e+000 106551 -9.7306e+001 -3.6993e+002  1.4072e+001 28258 106352,106404,106378
 3.6000e+000 106528 -1.4286e+002 -3.8009e+002  4.7847e+000 28258 106352,106456,106404
 3.6000e+000 106505 -1.0523e+002 -4.0141e+002 -2.4623e+000 28258 106326,106456,106352
 3.6000e+000 106482 -1.2602e+002 -3.5506e+002 -6.3047e+000 28258 106404,106456,106430
 3.6000e+000 107012 -1.2327e+002 -3.1884e+002  6.4018e+001 27818 107035,106790,106764
 3.6000e+000 106989 -1.0702e+002 -3.0276e+002  2.3819e+001 27818 107035,106764,106868
 3.6000e+000 106966 -7.4866e+001 -3.6141e+002  3.5104e+001 27818 107107,106842,106816
 3.6000e+000 106943 -1.6379e+002 -2.8252e+002  1.3459e+001 27818 106738,106868,106764
 3.6000e+000 106920 -1.5358e+002 -2.4987e+002  2.8012e+001 27818 106738,106894,106868
 3.6000e+000 107061 -5.2893e+001 -3.0409e+002  7.2271e+001 27818 106816,106790,107035
 3.6000e+000 107084 -9.3868e+001 -3.3810e+002  3.6851e+001 27818 107107,106816,107035
 3.6000e+000 107133 -7.0867e+001 -3.2754e+002  1.8656e+001 27818 106868,106842,107107
 3.6000e+000 107156 -8.3402e+001 -2.9290e+002  2.4639e+001 27818 106868,107107,107035
 3.6000e+000 107613 -3.7727e+001 -2.4155e+002  5.2183e+001 27312 107339,107469,107365
 3.6000e+000 107590 -3.4521e+000 -2.2003e+002  4.3018e+001 27312 107339,107495,107469
 3.6000e+000 107567 -4.0543e+001 -2.3534e+002  2.5368e+001 27312 107391,107469,107443
 3.6000e+000 107544 -4.3344e+001 -2.5437e+002  2.0732e+001 27312 107365,107469,107391
 3.6000e+000 107521 -1.1018e+002 -2.5728e+002  9.3492e+000 27312 107391,107443,107417
 3.6000e+000 107991 -1.3210e+002 -3.6008e+002  6.3230e+000 26858 108086,108014,107795
 3.6000e+000 107968 -1.4473e+002 -3.8109e+002 -4.2569e+001 26858 108014,107717,107873
 3.6000e+000 107945 -1.5459e+002 -3.7774e+002  2.2324e+001 26858 108158,108086,107795
 3.6000e+000 107922 -1.2737e+002 -3.7372e+002  1.9627e+001 26858 108158,107795,107769
 3.6000e+000 107899 -8.0884e+001 -4.6716e+002  6.5241e+001 26858 107821,107873,107847
 3.6000e+000 108040 -1.3536e+002 -4.1574e+002  1.8408e+001 26858 107821,107795,108014
 3.6000e+000 108063 -5.6576e+001 -3.9756e+002 -1.0067e+001 26858 107821,108014,107873
 3.6000e+000 108112 -1.9080e+002 -3.8278e+002  1.3995e+001 26858 107717,108014,108086
 3.6000e+000 108135 -1.5767e+002 -3.9704e+002  4.1812e+001 26858 107717,108086,107743
 3.6000e+000 108184 -1.2250e+002 -3.7645e+002  3.1779e+001 26858 107743,108086,108158
 3.6000e+000 108207 -1.1104e+002 -3.8373e+002  3.1306e+001 26858 107743,108158,107769
 3.6000e+000 108634 -1.7553e+002 -3.5173e+002  4.1722e+000 26404 108657,108415,108363
 3.6000e+000 108611 -1.9738e+002 -3.8177e+002  3.6177e+001 26404 108657,108363,108337
 3.6000e+000 108588 -1.7237e+002 -3.5168e+002  4.2211e+001 26404 108729,108311,108467
 3.6000e+000 108565 -1.9757e+002 -4.0889e+002  2.2662e+000 26404 108801,108441,108415
 3.6000e+000 108542 -2.5814e+002 -3.9100e+002  5.2777e+001 26404 108311,108493,108467
 3.6000e+000 108519 -1.2354e+002 -3.5044e+002  5.1789e+000 26404 108363,108415,108389
 3.6000e+000 108683 -2.3329e+002 -3.7409e+002  7.0142e+000 26404 108801,108415,108657
 3.6000e+000 108706 -2.2445e+002 -3.6779e+002  3.2756e+001 26404 108729,108467,108657
 3.6000e+000 108755 -1.3797e+002 -3.7516e+002  4.2351e+001 26404 108337,108311,108729
 3.6000e+000 108778 -1.6464e+002 -3.7302e+002  3.2434e+001 26404 108337,108729,108657
 3.6000e+000 108827 -2.3340e+002 -4.7671e+002 -1.8038e+001 26404 108467,108441,108801
 3.6000e+000 108850 -2.5351e+002 -4.1766e+002 -1.2574e+001 26404 108467,108801,108657
 3.6000e+000 109228 -1.6534e+002 -3.5438e+002 -1.7862e+001 26064 109006,109084,109058
 3.6000e+000 109205 -1.4772e+002 -3.3031e+002  6.6993e+000 26064 108980,109084,109006
 3.6000e+000 109182 -1.6080e+002 -3.1657e+002 -1.0858e+001 26064 108980,109110,109084
 3.6000e+000 109159 -1.5901e+002 -3.7320e+002 -3.1690e+000 26064 109006,109058,109032
 3.6000e+000 109136 -5.4737e+001 -2.8430e+002  1.0811e+001 26064 108954,109110,108980
 3.6000e+000 109427 -5.0099e+001 -3.0734e+002 -6.2166e+001 25660 109303,109355,109329
 3.6000e+000 109404 -9.1705e+001 -3.9042e+002 -1.6295e+001 25660 109277,109355,109303
 3.6000e+000 109381 -7.2818e+001 -3.6730e+002 -6.4984e+000 25660 109251,109355,109277
 3.6000e+000 109577 -6.9156e+001 -1.6666e+002  5.7775e+001 25306 109476,109528,109502
 3.6000e+000 109554  1.1041e+000 -1.5623e+002  3.3244e+001 25306 109450,109528,109476
 3.6000e+000 109778 -1.1632e+002 -3.2182e+002  9.4021e+000 24944 109628,109706,109654
 3.6000e+000 109755 -1.2593e+002 -3.1248e+002  9.9415e-001 24944 109602,109706,109628
 3.6000e+000 109732 -1.0243e+002 -3.0112e+002 -1.6937e+000 24944 109654,109706,109680
 3.6000e+000 110126 -1.2691e+002 -4.2417e+002  1.3846e+001 24440 110149,109907,109855
 3.6000e+000 110103 -1.2543e+002 -4.4565e+002  2.5887e+001 24440 110149,109855,109985
 3.6000e+000 110080 -1.0358e+002 -3.6993e+002  7.7760e+000 24440 109855,109907,109881
 3.6000e+000 110057 -1.0987e+002 -3.5473e+002  1.0785e+002 24440 109829,109985,109855
 3.6000e+000 110034 -1.1384e+002 -4.2308e+002  2.5959e-001 24440 109907,109959,109933
 3.6000e+000 110011 -8.9279e+001 -3.7003e+002  1.0935e+001 24440 109803,109985,109829
 3.6000e+000 110175 -1.2443e+002 -4.0427e+002  7.4002e+000 24440 109959,109907,110149
 3.6000e+000 110198 -1.2488e+002 -4.2377e+002  2.1778e+001 24440 109959,110149,109985
 3.6000e+000 110301 -1.9550e+001 -2.7009e+002 -8.0788e+000 24028 110223,110275,110249
 3.6000e+000 110573 -5.0180e+001 -2.4427e+002  1.9095e+001 23467 110400,110452,110426
 3.6000e+000 110550 -8.5537e+001 -2.8748e+002  8.7715e-002 23467 110374,110452,110400
 3.6000e+000 110527 -8.7276e+001 -2.8814e+002  4.2516e+000 23467 110348,110452,110374
 3.6000e+000 110504 -6.3022e+001 -2.7672e+002 -2.7323e+000 23467 110348,110478,110452
 3.6000e+000 111004 -2.0298e+002 -4.2408e+002 -4.1342e+001 22963 111027,110733,110707
 3.6000e+000 110981 -1.9481e+002 -4.0148e+002  1.7656e+001 22963 111027,110707,110681
 3.6000e+000 110958 -9.7600e+001 -3.5822e+002 -4.2255e+001 22963 111099,110759,110733
 3.6000e+000 110935 -1.2596e+002 -3.5069e+002 -2.9788e+001 22963 111171,110863,110811
 3.6000e+000 110912 -6.3464e+001 -2.6207e+002 -4.6842e+001 22963 110759,110811,110785
 3.6000e+000 110889 -1.3687e+002 -3.6793e+002 -2.4118e+001 22963 110811,110863,110837
 3.6000e+000 111053 -1.4123e+002 -3.8806e+002 -2.6377e+001 22963 111099,110733,111027
 3.6000e+000 111076 -1.1917e+002 -3.7892e+002 -2.4541e+001 22963 111171,110811,111027
 3.6000e+000 111125 -9.5756e+001 -3.5193e+002 -6.5725e+001 22963 110811,110759,111099
 3.6000e+000 111148 -1.0292e+002 -3.4834e+002 -5.6142e+001 22963 110811,111099,111027
 3.6000e+000 111197 -1.2780e+002 -3.0417e+002 -3.7523e+001 22963 110681,110863,111171
 3.6000e+000 111220 -1.3393e+002 -3.3853e+002 -1.9362e+001 22963 110681,111171,111027
 3.6000e+000 111726 -1.9019e+002 -3.6896e+002  8.8126e+000 22459 111749,111507,111429
 3.6000e+000 111703 -1.7659e+002 -3.6507e+002 -7.5821e+000 22459 111749,111429,111585
 3.6000e+000 111680 -1.5200e+002 -4.1027e+002 -5.1502e+000 22459 111403,111585,111429
 3.6000e+000 111657 -1.7981e+002 -4.0463e+002  1.6559e+001 22459 111507,111559,111533
 3.6000e+000 111634 -2.5107e+002 -3.5632e+002  2.2008e+001 22459 111455,111507,111481
 3.6000e+000 111611 -2.6014e+002 -3.5502e+002  3.2284e+001 22459 111429,111507,111455
 3.6000e+000 111775 -1.9166e+002 -3.9367e+002  2.2010e+001 22459 111559,111507,111749
 3.6000e+000 111798 -1.7673e+002 -3.7664e+002  6.0920e+000 22459 111559,111749,111585
 3.6000e+000 112046 -8.3292e+001 -3.0944e+002 -4.2421e+001 21898 112069,111925,111873
 3.6000e+000 112023 -8.0404e+001 -3.1287e+002 -1.1462e+001 21898 112069,111873,111847
 3.6000e+000 112000 -1.0854e+002 -3.2269e+002 -1.8062e+001 21898 111821,111951,111847
 3.6000e+000 111977 -9.3977e+001 -2.4425e+002 -2.8126e+001 21898 111873,111925,111899
 3.6000e+000 112095 -1.2719e+002 -3.2596e+002 -4.7510e+001 21898 111951,111925,112069
 3.6000e+000 112118 -1.0594e+002 -3.2217e+002 -1.7793e+001 21898 111951,112069,111847
 3.6000e+000 112498 -1.5083e+002 -3.4796e+002 -2.8943e+001 21608 112521,112276,112224
 3.6000e+000 112475 -1.0064e+002 -3.5373e+002  1.7624e+000 21608 112521,112224,112380
 3.6000e+000 112452 -1.0727e+002 -4.0036e+002  2.4847e+001 21608 112302,112380,112354
 3.6000e+000 112429 -1.6722e+002 -3.9242e+002 -2.2228e+001 21608 112224,112276,112250
 3.6000e+000 112406  5.3447e+001 -4.2003e+002 -1.0870e+001 21608 112302,112354,112328
 3.6000e+000 112547 -1.0983e+002 -2.9902e+002 -6.6127e+000 21608 112302,112276,112521
 3.6000e+000 112570 -7.7333e+001 -3.3918e+002  1.5200e+001 21608 112302,112521,112380
 3.6000e+000 112948 -1.7220e+002 -3.6117e+002 -6.9653e+000 20882 112971,112752,112700
 3.6000e+000 112925 -1.3398e+002 -3.4745e+002 -1.2418e+001 20882 112971,112700,112830
 3.6000e+000 112902 -2.1834e+002 -3.8524e+002  2.3717e+001 20882 112778,112830,112804
 3.6000e+000 112879 -1.2381e+002 -2.8054e+002 -1.7987e+001 20882 112674,112830,112700
 3.6000e+000 112856 -2.1061e+002 -3.7602e+002  6.3240e+000 20882 112700,112752,112726
 3.6000e+000 112997 -1.7245e+002 -3.5889e+002  1.4382e+001 20882 112778,112752,112971
 3.6000e+000 113020 -1.5084e+002 -3.5202e+002  7.9430e+000 20882 112778,112971,112830
 3.6000e+000 113526 -1.2938e+002 -3.6400e+002  7.9091e-001 20428 113255,113385,113333
 3.6000e+000 113503 -1.4207e+002 -3.9947e+002 -3.5037e-001 20428 113229,113385,113255
 3.6000e+000 113480 -2.2852e+001 -3.5771e+002  1.5364e+000 20428 113255,113333,113281
 3.6000e+000 113457 -1.2689e+002 -3.9783e+002 -3.9266e-001 20428 113203,113385,113229
 3.6000e+000 113434 -6.5334e+001 -3.7349e+002 -1.2474e+001 20428 113281,113333,113307
 3.6000e+000 113411 -1.4980e+002 -3.5854e+002  5.5984e+000 20428 113333,113385,113359
 3.6000e+000 113774 -2.0840e+001 -3.3886e+002  1.2970e+001 19917 113797,113601,113549
 3.6000e+000 113751 -5.6281e+001 -3.4650e+002  1.7666e+001 19917 113869,113797,113549
 3.6000e+000 113728 -5.3490e+001 -3.5092e+002  3.4909e+001 19917 113869,113549,113679
 3.6000e+000 113705 -3.1577e+001 -3.3712e+002  2.6889e+001 19917 113549,113601,113575
 3.6000e+000 113823 -5.6880e+001 -4.1173e+002 -1.4860e+000 19917 113627,113601,113797
 3.6000e+000 113846 -2.0621e+001 -3.2243e+002 -9.1882e+000 19917 113627,113797,113653
 3.6000e+000 113895 -4.7447e+001 -3.0578e+002  4.9887e+000 19917 113653,113797,113869
 3.6000e+000 113918 -6.0701e+001 -3.1646e+002  2.6874e+001 19917 113653,113869,113679
 3.6000e+000 114166 -1.6103e+002 -3.5902e+002 -5.9070e+000 19413 113993,114045,114019
 3.6000e+000 114143 -1.5419e+002 -3.3548e+002  1.9534e+000 19413 113967,114045,113993
 3.6000e+000 114120 -1.2575e+002 -3.2479e+002  1.4249e+001 19413 113967,114071,114045
 3.6000e+000 114097 -1.1358e+002 -3.6393e+002 -7.5376e+000 19413 113941,114071,113967
 3.6000e+000 114438 -1.4584e+002 -3.8581e+002  3.7755e+000 19001 114213,114265,114239
 3.6000e+000 114415 -1.0463e+002 -3.0003e+002 -9.0179e+000 19001 114213,114343,114265
 3.6000e+000 114392 -1.5534e+002 -4.1380e+002 -1.8781e+001 19001 114265,114343,114317
 3.6000e+000 114369  3.1812e+001 -3.3338e+002 -7.8509e+000 19001 114265,114317,114291
 3.6000e+000 114639 -1.1001e+002 -4.6032e+002  2.2895e+001 18554 114489,114541,114515
 3.6000e+000 114616 -9.6989e+001 -3.9786e+002  4.2191e+000 18554 114489,114567,114541
 3.6000e+000 114593 -2.0908e+002 -4.5838e+002 -3.0488e+001 18554 114463,114567,114489
 3.6000e+000 115043 -8.2665e+001 -3.4819e+002  1.2474e+001 18164 114795,114925,114821
 3.6000e+000 115020 -7.3495e+001 -3.6820e+002  2.0403e+001 18164 114769,114925,114795
 3.6000e+000 114997 -4.8337e+001 -3.6428e+002 -2.6063e+000 18164 115066,114873,114821
 3.6000e+000 114974 -4.6105e+001 -3.1484e+002 -1.1838e+001 18164 115066,114821,114925
 3.6000e+000 114951  1.5254e+001 -3.6553e+002 -3.4888e+001 18164 114821,114873,114847
 3.6000e+000 115092 -6.5707e+001 -3.2849e+002 -2.8580e+001 18164 114899,114873,115066
 3.6000e+000 115115 -4.3043e+001 -2.5291e+002 -4.0273e+001 18164 114899,115066,114925
 3.6000e+000 115265 -1.1684e+002 -3.9965e+002  2.6496e+000 17852 115164,115216,115190
 3.6000e+000 115242 -1.2341e+002 -4.1291e+002 -4.2183e-001 17852 115138,115216,115164
 3.6000e+000 115464 -2.3935e+002 -5.3372e+002  8.4455e+000 17346 115288,115366,115340
 3.6000e+000 115441 -3.6853e+002 -4.1739e+002 -1.3356e+001 17346 115288,115392,115366
 3.6000e+000 115418 -2.1454e+002 -6.0190e+002 -1.8591e+001 17346 115288,115340,115314
 3.6000e+000 115736 -1.0770e+002 -3.5727e+002  1.4277e+001 16942 115563,115641,115615
 3.6000e+000 115713 -1.1932e+002 -3.5449e+002  3.7960e+000 16942 115511,115641,115563
 3.6000e+000 115690 -2.5190e+002 -4.1315e+002  2.0739e+001 16942 115563,115615,115589
 3.6000e+000 115667 -1.3928e+002 -3.8411e+002  1.2514e+001 16942 115511,115563,115537
 3.6000e+000 116091 -1.7579e+002 -4.1112e+002 -1.5631e+001 16388 115918,115970,115944
 3.6000e+000 116068 -1.5155e+002 -3.2984e+002 -1.0842e+001 16388 115918,115996,115970
 3.6000e+000 116045 -2.0511e+002 -4.1698e+002  1.3611e+001 16388 115892,115996,115918
 3.6000e+000 116022 -1.3899e+002 -3.8261e+002  4.4555e+001 16388 115866,115996,115892
 3.6000e+000 116192 -7.1838e+001 -4.4824e+002 -6.2334e+001 15810 116114,116166,116140
 3.6000e+000 116342 -1.6283e+002 -5.2331e+002  2.8701e+001 15419 116241,116293,116267
 3.6000e+000 116319 -2.3237e+002 -6.4298e+002 -1.8668e+001 15419 116215,116293,116241
 3.6000e+000 116445 -1.8094e+002 -3.6291e+002  3.2073e+000 421 116367,116419,116393
 3.7000e+000 68477 -2.4601e+002 -3.7617e+002  5.2690e-001 68018 68327,68379,68353
 3.7000e+000 68454 -2.6278e+002 -5.0575e+002  3.7799e+001 68018 68301,68379,68327
 3.7000e+000 68431 -9.7813e+001 -5.5493e+002  1.0113e+002 68018 68301,68405,68379
 3.7000e+000 68578 -1.6168e+002 -3.5669e+002  2.1087e+000 67820 68500,68552,68526
 3.7000e+000 68728 -1.7914e+002 -3.3800e+002 -4.9805e+000 67508 68601,68653,68627
 3.7000e+000 68705 -2.8102e+002 -2.5879e+002 -5.0065e+001 67508 68601,68679,68653
 3.7000e+000 68927 -3.7073e+001 -2.9363e+002 -6.5484e+000 67310 68777,68829,68803
 3.7000e+000 68904 -6.4674e+001 -3.4143e+002  6.2964e+000 67310 68751,68829,68777
 3.7000e+000 68881 -4.5905e+001 -3.4158e+002  2.0383e+001 67310 68751,68855,68829
 3.7000e+000 69386 -1.3871e+002 -3.8214e+002 -2.1543e+001 67020 69216,69268,69242
 3.7000e+000 69363 -1.2487e+002 -2.9397e+002 -4.0225e+001 67020 69138,69268,69216
 3.7000e+000 69340 -9.1483e+001 -2.5737e+002 -1.8700e+001 67020 69112,69268,69138
 3.7000e+000 69317 -1.6988e+002 -3.1728e+002  2.5700e+001 67020 69138,69190,69164
 3.7000e+000 69294 -1.7874e+002 -2.8880e+002 -1.8456e+001 67020 69138,69216,69190
 3.7000e+000 69536 -3.0378e+002 -7.3322e+002 -6.2961e+001 66708 69435,69487,69461
 3.7000e+000 69513 -2.2092e+002 -8.2795e+002 -1.1692e+001 66708 69409,69487,69435
 3.7000e+000 69735 -1.7728e+002 -3.7648e+002  8.9414e+000 66346 69585,69637,69611
 3.7000e+000 69712 -1.4597e+002 -3.6031e+002 -9.1981e-001 66346 69559,69637,69585
 3.7000e+000 69689 -1.3177e+002 -3.5718e+002 -3.4072e+001 66346 69559,69663,69637
 3.7000e+000 69985 -2.3612e+002 -4.1653e+002  8.2817e+000 66148 69786,69890,69864
 3.7000e+000 69962 -2.4504e+002 -4.2030e+002  8.8068e+000 66148 69760,69890,69786
 3.7000e+000 69939 -1.6514e+002 -3.9802e+002 -6.3267e+001 66148 69786,69864,69838
 3.7000e+000 69916 -2.0660e+002 -4.3567e+002 -1.5261e+001 66148 69786,69838,69812
 3.7000e+000 70137 -1.1881e+002 -4.5714e+002 -2.7999e+001 65950 70036,70088,70062
 3.7000e+000 70114 -1.0130e+002 -5.0778e+002  2.2538e+001 65950 70010,70088,70036
 3.7000e+000 70470 -8.6806e+001 -3.3635e+002  2.8857e+001 65546 70245,70323,70271
 3.7000e+000 70447 -5.8908e+001 -2.9244e+002  1.3489e+001 65546 70245,70375,70323
 3.7000e+000 70424 -7.9489e+001 -3.7412e+002  1.3069e+001 65546 70323,70375,70349
 3.7000e+000 70401 -6.1904e+001 -3.0597e+002  1.2359e+001 65546 70271,70323,70297
 3.7000e+000 70620 -1.1742e+002 -3.9785e+002  1.5693e+001 65348 70493,70545,70519
 3.7000e+000 70597 -1.0850e+002 -4.2423e+002  1.1318e+001 65348 70493,70571,70545
 3.7000e+000 70721 -2.0030e+002 -4.1346e+002  3.3508e+001 65150 70643,70695,70669
 3.7000e+000 71020 -1.3966e+002 -3.2106e+002  3.7722e+000 64952 71043,70850,70824
 3.7000e+000 70997 -1.2292e+002 -2.8032e+002  3.1923e+000 64952 71043,70824,70772
 3.7000e+000 70974 -1.3393e+002 -3.7166e+002  6.2251e+000 64952 71115,70746,70876
 3.7000e+000 70951 -9.6975e+001 -3.7047e+002 -4.5635e+000 64952 70746,70902,70876
 3.7000e+000 70928 -1.2359e+002 -2.3401e+002 -2.5452e+001 64952 70772,70824,70798
 3.7000e+000 71069 -1.1301e+002 -3.0629e+002  1.2892e+001 64952 70876,70850,71043
 3.7000e+000 71092 -1.3132e+002 -3.4993e+002  7.4582e+000 64952 71115,70876,71043
 3.7000e+000 71141 -1.5250e+002 -3.4650e+002 -1.3343e+001 64952 70772,70746,71115
 3.7000e+000 71164 -1.4217e+002 -3.1391e+002 -1.2639e+001 64952 70772,71115,71043
 3.7000e+000 71365  3.3390e+000 -3.9184e+002 -5.3174e+000 64662 71215,71293,71267
 3.7000e+000 71342  9.6270e+001 -3.6020e+002 -9.3672e+001 64662 71189,71293,71215
 3.7000e+000 71319  3.6300e+001 -3.2345e+002  4.5629e+000 64662 71215,71267,71241
 3.7000e+000 71615 -8.3161e+001 -3.6658e+002 -8.8023e+000 64350 71710,71638,71468
 3.7000e+000 71592 -1.2167e+002 -3.6034e+002 -1.3298e+001 64350 71638,71416,71390
 3.7000e+000 71569 -8.8039e+001 -3.4222e+002  1.1040e+001 64350 71710,71468,71442
 3.7000e+000 71546  9.8993e+001 -3.3751e+002 -6.8801e+001 64350 71390,71520,71494
 3.7000e+000 71664 -8.6912e+001 -3.6912e+002 -5.5051e+000 64350 71494,71468,71638
 3.7000e+000 71687 -8.3458e+001 -3.6600e+002 -3.7918e+000 64350 71494,71638,71390
 3.7000e+000 71736 -7.9491e+001 -3.1805e+002  3.7793e+000 64350 71416,71638,71710
 3.7000e+000 71759 -7.0101e+001 -2.9089e+002  2.9973e+001 64350 71416,71710,71442
 3.7000e+000 72318 -8.5878e+001 -5.7949e+002 -2.4733e+001 63837 71972,72024,71998
 3.7000e+000 72295 -1.3085e+002 -3.6037e+002 -8.0401e+000 63837 72341,71972,71946
 3.7000e+000 72272 -1.2490e+002 -2.9301e+002  1.6567e+001 63837 72413,72341,71946
 3.7000e+000 72249 -1.2103e+002 -2.6608e+002  8.4814e+000 63837 72413,71946,72128
 3.7000e+000 72226 -2.0019e+002 -3.1883e+002  4.6088e+000 63837 72024,72076,72050
 3.7000e+000 72203 -1.6510e+002 -2.9220e+002 -7.7421e+000 63837 72024,72102,72076
 3.7000e+000 72180 -1.0332e+002 -2.6265e+002  2.7959e+001 63837 71946,72154,72128
 3.7000e+000 72367 -1.7863e+002 -3.9345e+002 -7.3769e+001 63837 72024,71972,72341
 3.7000e+000 72390 -1.3346e+002 -3.1687e+002 -2.4414e+001 63837 72024,72341,72102
 3.7000e+000 72439 -1.0421e+002 -3.3671e+002  7.2235e+000 63837 72102,72341,72413
 3.7000e+000 72462 -9.9920e+001 -3.0799e+002  2.4449e+000 63837 72102,72413,72128
 3.7000e+000 72791 -1.6582e+002 -3.3685e+002 -3.4835e+001 63383 72592,72696,72670
 3.7000e+000 72768 -1.6991e+002 -3.1329e+002 -6.3016e+001 63383 72566,72696,72592
 3.7000e+000 72745 -1.6577e+002 -2.9189e+002  1.8463e+000 63383 72592,72670,72618
 3.7000e+000 72722 -1.5870e+002 -2.7428e+002  1.9207e+000 63383 72618,72670,72644
 3.7000e+000 73297 -2.0672e+002 -2.9834e+002 -4.8977e+000 63185 73000,73156,73130
 3.7000e+000 73274 -2.0913e+002 -3.1527e+002  3.8791e+001 63185 72974,73156,73000
 3.7000e+000 73251 -1.5030e+002 -3.4422e+002 -6.0829e+000 63185 73000,73052,73026
 3.7000e+000 73228 -1.6750e+002 -3.0462e+002 -1.6547e+001 63185 73000,73130,73052
 3.7000e+000 73205 -1.6637e+002 -3.4347e+002 -5.3256e+001 63185 73052,73130,73104
 3.7000e+000 73182 -1.5705e+002 -3.8276e+002 -5.7061e+001 63185 73052,73104,73078
 3.7000e+000 73545 -5.7953e+001 -3.1099e+002  3.7059e+000 62781 73568,73398,73372
 3.7000e+000 73522 -4.0297e+001 -2.8504e+002  1.2124e+001 62781 73568,73372,73346
 3.7000e+000 73499 -7.1482e+001 -2.9674e+002 -8.7711e+000 62781 73640,73320,73424
 3.7000e+000 73476 -1.0141e+002 -2.0927e+002 -2.4443e+001 62781 73320,73450,73424
 3.7000e+000 73594 -5.3985e+001 -2.8792e+002 -1.4907e+000 62781 73424,73398,73568
 3.7000e+000 73617 -6.2451e+001 -2.9141e+002 -3.8725e+000 62781 73640,73424,73568
 3.7000e+000 73666 -6.7793e+001 -2.8973e+002  4.8783e-001 62781 73346,73320,73640
 3.7000e+000 73689 -6.2720e+001 -2.8405e+002  5.0013e+000 62781 73346,73640,73568
 3.7000e+000 74035 -1.2032e+002 -3.6587e+002 -3.8413e+000 62363 74058,73868,73842
 3.7000e+000 74012 -1.1454e+002 -3.3720e+002 -2.6388e+001 62363 74130,74058,73842
 3.7000e+000 73989 -1.0370e+002 -3.3374e+002 -2.7634e+001 62363 74130,73842,73816
 3.7000e+000 73966 -1.7587e+002 -3.8076e+002  5.3060e+000 62363 74202,73764,73894
 3.7000e+000 73943 -2.2747e+002 -3.4436e+002  7.0154e+000 62363 73712,73894,73764
 3.7000e+000 73920 -2.4869e+002 -3.6679e+002 -4.1422e+000 62363 73712,73764,73738
 3.7000e+000 74084 -1.2382e+002 -3.5658e+002 -4.2909e+000 62363 73894,73868,74058
 3.7000e+000 74107 -1.5912e+002 -3.6327e+002  1.9065e+001 62363 74202,73894,74058
 3.7000e+000 74156 -1.2713e+002 -3.4225e+002  1.1660e+001 62363 73790,74058,74130
 3.7000e+000 74179 -7.5611e+001 -3.2184e+002  1.4080e+001 62363 73790,74130,73816
 3.7000e+000 74228 -1.9524e+002 -3.8918e+002 -2.0709e+001 62363 73790,73764,74202
 3.7000e+000 74251 -1.8296e+002 -3.7063e+002 -7.0259e+000 62363 73790,74202,74058
 3.7000e+000 74403 -4.3128e+000 -3.9223e+002  2.6801e+001 62115 74426,74302,74276
 3.7000e+000 74380  8.0036e+001 -3.7647e+002  6.1258e+001 62115 74426,74276,74354
 3.7000e+000 74452 -8.3499e+001 -3.5165e+002  2.7002e+001 62115 74328,74302,74426
 3.7000e+000 74475 -4.3723e+000 -3.3856e+002  6.3836e+001 62115 74328,74426,74354
 3.7000e+000 74578  5.6028e+001 -2.3772e+002  2.3103e+000 61825 74500,74552,74526
 3.7000e+000 74982 -1.9144e+002 -3.3788e+002  2.9703e+000 61513 75005,74734,74708
 3.7000e+000 74959 -1.8486e+002 -3.2791e+002 -6.4940e-001 61513 75005,74708,74864
 3.7000e+000 74936 -2.3577e+002 -3.4510e+002  2.4417e+001 61513 75077,74812,74734
 3.7000e+000 74913 -2.1746e+002 -3.5851e+002 -3.1677e+001 61513 74734,74786,74760
 3.7000e+000 74890 -2.1067e+002 -3.1089e+002 -8.9631e-001 61513 74734,74812,74786
 3.7000e+000 75031 -1.7877e+002 -3.4527e+002  5.1524e+000 61513 75077,74734,75005
 3.7000e+000 75054 -1.4129e+002 -3.3594e+002  4.9979e+001 61513 74838,75005,74864
 3.7000e+000 75103 -2.6808e+002 -3.6114e+002  7.5332e+001 61513 74838,74812,75077
 3.7000e+000 75126 -2.3050e+002 -3.7525e+002  5.6254e+001 61513 74838,75077,75005
 3.7000e+000 75553 -8.4396e+001 -3.0366e+002 -1.1479e+001 61060 75576,75360,75308
 3.7000e+000 75530 -9.2451e+001 -3.2172e+002 -1.5124e+001 61060 75576,75308,75230
 3.7000e+000 75507 -7.4216e+001 -2.8794e+002  2.7250e+000 61060 75308,75360,75334
 3.7000e+000 75484 -1.2470e+002 -3.7567e+002  2.3658e+001 61060 75230,75308,75256
 3.7000e+000 75461 -8.0448e+001 -3.4714e+002  1.1394e+001 61060 75256,75308,75282
 3.7000e+000 75438 -9.3561e+001 -2.9655e+002  4.1212e+001 61060 75360,75412,75386
 3.7000e+000 75602 -5.5945e+001 -3.2069e+002  2.1303e+000 61060 75412,75360,75576
 3.7000e+000 75625 -7.7587e+001 -3.5821e+002 -7.2272e+000 61060 75412,75576,75230
 3.7000e+000 76052 -1.3208e+002 -3.0880e+002  4.6162e+000 60442 75755,75859,75833
 3.7000e+000 76029 -1.6241e+002 -2.9659e+002 -2.0973e+001 60442 75729,75859,75755
 3.7000e+000 76006 -1.3995e+002 -2.8876e+002  2.0283e+001 60442 75755,75833,75807
 3.7000e+000 75983 -1.3006e+002 -3.4359e+002  1.2093e+001 60442 75755,75807,75781
 3.7000e+000 75960  2.3441e+001 -5.3926e+002  1.7319e+001 60442 75729,75911,75859
 3.7000e+000 75937 -2.6694e+002 -1.3688e+003  8.5916e+001 60442 75859,75911,75885
 3.7000e+000 76430 -1.3296e+002 -3.5397e+002 -1.6619e+001 59788 76453,76286,76234
 3.7000e+000 76407 -1.4428e+002 -4.0470e+002  4.1030e+000 59788 76453,76234,76182
 3.7000e+000 76384 -1.4802e+002 -2.6090e+002  4.4238e+001 59788 76525,76156,76312
 3.7000e+000 76361 -8.0498e+001 -4.6331e+002 -7.3391e+000 59788 76182,76234,76208
 3.7000e+000 76338 -1.0587e+002 -3.4179e+002 -1.2149e+001 59788 76234,76286,76260
 3.7000e+000 76479 -1.6239e+002 -3.8198e+002 -9.0256e-001 59788 76312,76286,76453
 3.7000e+000 76502 -1.3470e+002 -3.5924e+002  1.6164e+001 59788 76525,76312,76453
 3.7000e+000 76551 -1.8690e+002 -3.8434e+002  4.6801e+001 59788 76182,76156,76525
 3.7000e+000 76574 -1.6383e+002 -4.1462e+002  2.6803e+001 59788 76182,76525,76453
 3.7000e+000 77031 -9.7782e+001 -2.1062e+002 -3.3341e+001 59448 76835,76887,76861
 3.7000e+000 77008 -4.1627e+001 -1.7648e+002  8.7404e+000 59448 76835,76913,76887
 3.7000e+000 76985 -5.3984e+001 -1.4672e+002  2.9575e+001 59448 76809,76913,76835
 3.7000e+000 76962 -1.0416e+002 -1.9595e+002  4.3244e-001 59448 76757,76913,76809
 3.7000e+000 76939 -8.3852e+001 -1.7161e+002 -8.3091e+000 59448 76757,76809,76783
 3.7000e+000 77537 -1.5601e+002 -3.3192e+002  1.7475e+001 58994 77560,77344,77292
 3.7000e+000 77514 -2.2123e+002 -3.3291e+002  4.2856e+000 58994 77560,77292,77240
 3.7000e+000 77491 -1.2619e+002 -3.1524e+002 -7.8249e+000 58994 77632,77214,77370
 3.7000e+000 77468 -2.6375e+002 -3.8303e+002  6.8876e+001 58994 77292,77344,77318
 3.7000e+000 77445 -1.3010e+002 -4.1307e+002  1.6828e+001 58994 77214,77396,77370
 3.7000e+000 77422 -2.2402e+002 -3.4919e+002 -7.3266e+000 58994 77240,77292,77266
 3.7000e+000 77586 -1.5897e+002 -3.4147e+002  2.0175e+001 58994 77370,77344,77560
 3.7000e+000 77609 -1.6099e+002 -3.3666e+002  2.2409e+001 58994 77632,77370,77560
 3.7000e+000 77658 -1.0751e+002 -2.9261e+002 -3.9412e+001 58994 77240,77214,77632
 3.7000e+000 77681 -1.3275e+002 -2.8900e+002 -1.2058e+001 58994 77240,77632,77560
 3.7000e+000 78138 -1.1756e+002 -2.2090e+002  3.2236e+001 58440 77864,77994,77890
 3.7000e+000 78115 -6.7660e+001 -1.2641e+002 -2.0895e+001 58440 77864,78020,77994
 3.7000e+000 78092 -1.3459e+002 -2.6545e+002 -2.1826e+001 58440 77942,77994,77968
 3.7000e+000 78069 -1.0496e+002 -2.4728e+002  5.1957e+000 58440 77890,77994,77942
 3.7000e+000 78046 -9.5693e+001 -2.5073e+002 -1.9539e+000 58440 77890,77942,77916
 3.7000e+000 78467 -1.5287e+001 -3.0184e+002  1.3575e+001 57928 78562,78490,78346
 3.7000e+000 78444 -1.1311e+002 -3.0757e+002 -5.8862e+000 57928 78490,78294,78268
 3.7000e+000 78421  4.7164e+000 -3.1756e+002  2.9970e+001 57928 78562,78346,78320
 3.7000e+000 78398 -3.7178e+001 -2.9530e+002  5.1721e+000 57928 78242,78372,78268
 3.7000e+000 78516 -9.6508e+001 -3.7966e+002 -1.9246e+001 57928 78372,78346,78490
 3.7000e+000 78539 -7.4576e+001 -2.9033e+002 -2.3399e+000 57928 78372,78490,78268
 3.7000e+000 78588 -1.1252e+002 -2.9918e+002  3.4995e+000 57928 78294,78490,78562
 3.7000e+000 78611 -5.0469e+001 -2.6668e+002  3.6276e+001 57928 78294,78562,78320
 3.7000e+000 79068 -2.1033e+002 -4.4520e+002 -1.1348e+002 57467 78794,78924,78820
 3.7000e+000 79045 -1.6540e+002 -4.2479e+002 -1.0819e+002 57467 78794,78950,78924
 3.7000e+000 79022 -8.9828e+001 -3.9841e+002  3.7675e+001 57467 78820,78898,78872
 3.7000e+000 78999 -1.5251e+002 -5.4751e+002 -5.9853e+001 57467 78820,78924,78898
 3.7000e+000 78976 -6.3091e+001 -4.0268e+002  5.9155e+001 57467 78820,78872,78846
 3.7000e+000 79446 -1.8025e+002 -3.4927e+002  7.0342e-002 57120 79172,79302,79250
 3.7000e+000 79423 -1.5980e+002 -3.4018e+002 -8.8872e+000 57120 79172,79328,79302
 3.7000e+000 79400 -1.6139e+002 -3.0550e+002 -1.2269e+001 57120 79172,79250,79198
 3.7000e+000 79377 -1.2208e+002 -4.3969e+002  1.7904e+001 57120 79250,79302,79276
 3.7000e+000 79354 -1.9722e+002 -3.3038e+002 -2.4066e+001 57120 79198,79250,79224
 3.7000e+000 79952 -2.3688e+002 -3.7346e+002  2.1932e+000 56773 79629,79785,79655
 3.7000e+000 79929 -6.7768e+001 -3.2016e+002  1.5524e+001 56773 79629,79811,79785
 3.7000e+000 79906 -1.8655e+002 -4.0603e+002  2.8382e+001 56773 79655,79733,79681
 3.7000e+000 79883 -1.8100e+002 -3.5912e+002  7.5881e+000 56773 79655,79785,79733
 3.7000e+000 79860 -1.7042e+002 -4.6804e+002 -5.4156e+001 56773 79733,79785,79759
 3.7000e+000 79837 -9.7234e+001 -3.6513e+002  7.1083e+001 56773 79681,79733,79707
 3.7000e+000 80281 -7.5037e+001 -2.8536e+002 -2.3065e+001 56319 80108,80160,80134
 3.7000e+000 80258 -8.5187e+001 -3.1072e+002 -2.9316e+001 56319 80056,80160,80108
 3.7000e+000 80235 -2.6926e+001 -2.7309e+002  1.6197e+001 56319 80056,80186,80160
 3.7000e+000 80212 -1.2181e+002 -3.9618e+002 -1.7008e+001 56319 80056,80108,80082
 3.7000e+000 80738 -4.4437e+001 -3.3532e+002  1.9439e+001 55957 80516,80620,80594
 3.7000e+000 80715 -1.1237e+002 -3.0140e+002  1.6984e+001 55957 80464,80620,80516
 3.7000e+000 80692 -9.7181e+001 -3.6637e+002  2.0464e+001 55957 80761,80568,80542
 3.7000e+000 80669 -7.8131e+001 -3.6010e+002  2.4145e+001 55957 80761,80542,80516
 3.7000e+000 80646 -1.1531e+002 -3.0753e+002  3.8129e+001 55957 80464,80516,80490
 3.7000e+000 80787 -1.1590e+002 -3.6360e+002  1.4566e+001 55957 80594,80568,80761
 3.7000e+000 80810 -9.7990e+001 -3.5785e+002  1.8465e+001 55957 80594,80761,80516
 3.7000e+000 81210 -9.6242e+001 -3.3517e+002 -4.2626e+001 55317 80936,80988,80962
 3.7000e+000 81187 -7.7309e+001 -3.7230e+002 -1.0338e+000 55317 80936,81066,80988
 3.7000e+000 81164 -4.9718e+001 -3.9884e+002  6.0342e+000 55317 80936,81092,81066
 3.7000e+000 81141 -1.1043e+002 -3.9645e+002 -3.7238e+001 55317 80988,81066,81014
 3.7000e+000 81118 -9.7703e+000 -2.1995e+002  2.3394e+001 55317 81014,81066,81040
 3.7000e+000 81539 -1.5669e+002 -3.6307e+002  1.2101e+001 54913 81340,81418,81392
 3.7000e+000 81516 -6.1078e+001 -2.9049e+002 -2.0306e+001 54913 81340,81444,81418
 3.7000e+000 81493 -9.6151e+001 -3.1237e+002 -4.2607e+001 54913 81314,81444,81340
 3.7000e+000 81470 -1.7471e+002 -3.7734e+002  5.1483e+000 54913 81340,81392,81366
 3.7000e+000 81787 -8.4994e+001 -3.7435e+002 -2.4702e+000 54601 81588,81692,81640
 3.7000e+000 81764 -1.2452e+002 -3.7933e+002 -1.1175e+001 54601 81562,81692,81588
 3.7000e+000 81741 -6.4167e+001 -3.7964e+002  5.1063e+001 54601 81588,81640,81614
 3.7000e+000 81718 -8.8079e+001 -4.4384e+002 -3.7362e+001 54601 81640,81692,81666
 3.7000e+000 82344 -1.4804e+002 -4.0575e+002 -2.2116e+001 54090 81998,82102,82076
 3.7000e+000 82321 -2.0058e+002 -4.2879e+002 -1.2134e+001 54090 81998,82154,82102
 3.7000e+000 82298 -1.8176e+002 -4.1932e+002 -7.1796e+000 54090 81972,82154,81998
 3.7000e+000 82275 -2.0731e+002 -3.7905e+002 -2.5404e+001 54090 81998,82076,82024
 3.7000e+000 82252 -2.2001e+002 -4.4633e+002  2.2203e+001 54090 81972,82180,82154
 3.7000e+000 82229 -2.7713e+002 -5.2123e+002  2.8708e+001 54090 82102,82154,82128
 3.7000e+000 82206 -3.6796e+001 -2.8549e+002 -6.3719e+001 54090 82024,82076,82050
 3.7000e+000 82722 -2.3877e+002 -4.3005e+002 -1.4880e+001 53579 82500,82578,82552
 3.7000e+000 82699 -1.7289e+002 -3.8919e+002  1.1686e+001 53579 82448,82578,82500
 3.7000e+000 82676 -1.8729e+002 -4.4212e+002  1.1567e+001 53579 82448,82500,82474
 3.7000e+000 82653 -2.3393e+002 -4.2001e+002  3.1811e+001 53579 82448,82604,82578
 3.7000e+000 82630 -1.2320e+002 -3.9787e+002 -1.5857e+001 53579 82500,82552,82526
 3.7000e+000 83356 -1.1055e+002 -2.9992e+002 -3.2023e+001 53189 83379,83088,83036
 3.7000e+000 83333 -1.0696e+002 -3.3756e+002 -2.9220e+001 53189 83379,83036,82984
 3.7000e+000 83310 -5.2840e+001 -3.1847e+002  4.3204e+001 53189 82984,83192,83166
 3.7000e+000 83287  8.0152e+000 -2.4774e+002 -2.2825e+001 53189 83036,83088,83062
 3.7000e+000 83264 -8.5700e+001 -3.7655e+002 -5.2570e+001 53189 82984,83036,83010
 3.7000e+000 83241 -7.7385e+001 -3.7742e+002  7.2760e+000 53189 83114,83166,83140
 3.7000e+000 83218 -1.5030e+002 -3.9148e+002  1.5551e+000 53189 83088,83166,83114
 3.7000e+000 83405 -1.1059e+002 -3.2544e+002 -1.6308e+001 53189 83166,83088,83379
 3.7000e+000 83428 -1.0148e+002 -3.5880e+002 -1.5874e+001 53189 83166,83379,82984
 3.7000e+000 83725 -1.5908e+002 -4.5407e+002 -3.8203e+001 52585 83748,83529,83503
 3.7000e+000 83702 -1.1996e+002 -4.4132e+002 -2.3682e+001 52585 83820,83748,83503
 3.7000e+000 83679 -8.2573e+001 -4.3358e+002 -2.0235e+001 52585 83820,83503,83477
 3.7000e+000 83656 -4.9163e+001 -3.9872e+002  5.7696e+001 52585 83477,83607,83581
 3.7000e+000 83633  4.5229e+001 -3.5822e+002  6.1377e+001 52585 83451,83607,83477
 3.7000e+000 83774 -1.3843e+002 -4.0303e+002 -3.4166e+001 52585 83555,83529,83748
 3.7000e+000 83797 -1.7997e+002 -4.3683e+002 -1.9334e+001 52585 83555,83748,83581
 3.7000e+000 83846 -1.5530e+002 -4.2164e+002 -4.7637e+000 52585 83581,83748,83820
 3.7000e+000 83869 -1.2770e+002 -4.1986e+002 -5.2319e+000 52585 83581,83820,83477
 3.7000e+000 84200 -1.1437e+002 -4.1290e+002 -1.4673e+001 52024 84001,84105,84079
 3.7000e+000 84177 -5.8663e+001 -4.0237e+002 -2.8166e+001 52024 83975,84105,84001
 3.7000e+000 84154 -1.0215e+002 -4.1369e+002 -1.2120e+001 52024 84001,84079,84053
 3.7000e+000 84131 -5.0380e+001 -2.7747e+002  5.0971e+001 52024 84001,84053,84027
 3.7000e+000 84399 -9.3729e+001 -4.0591e+002 -5.8951e-001 51470 84422,84275,84249
 3.7000e+000 84376 -8.3455e+001 -3.8878e+002  4.5071e+000 51470 84422,84249,84223
 3.7000e+000 84353 -1.0952e+002 -4.2565e+002 -5.8368e+001 51470 84275,84327,84301
 3.7000e+000 84448 -1.0422e+002 -3.8921e+002 -1.1634e+000 51470 84327,84275,84422
 3.7000e+000 84471 -9.6174e+001 -3.7537e+002  3.4236e+000 51470 84327,84422,84223
 3.7000e+000 84753 -1.2161e+002 -3.4646e+002 -1.6527e+000 51073 84603,84655,84629
 3.7000e+000 84730 -2.5137e+002 -4.0689e+002 -1.8860e+001 51073 84776,84655,84603
 3.7000e+000 84707 -4.8245e+001 -3.5438e+002 -1.0061e+002 51073 84577,84681,84655
 3.7000e+000 84802 -1.5824e+002 -3.5567e+002 -4.5740e+001 51073 84577,84655,84776
 3.7000e+000 85178 -2.1189e+002 -4.6049e+002  4.2292e+001 50519 85201,85008,84982
 3.7000e+000 85155 -2.0084e+002 -4.2752e+002  3.0522e+001 50519 85273,85201,84982
 3.7000e+000 85132 -1.8822e+002 -4.2810e+002  2.2399e+001 50519 85273,84982,84930
 3.7000e+000 85109 -1.8341e+002 -4.1876e+002  1.9641e+001 50519 84930,84982,84956
 3.7000e+000 85086 -1.6918e+002 -4.2158e+002  1.8600e+001 50519 85008,85060,85034
 3.7000e+000 85227 -1.7478e+002 -4.3725e+002  1.9146e+001 50519 85060,85008,85201
 3.7000e+000 85250 -1.9796e+002 -4.3874e+002  1.2968e+001 50519 85060,85201,84904
 3.7000e+000 85299 -1.8689e+002 -4.3203e+002  1.0108e+001 50519 84904,85201,85273
 3.7000e+000 85322 -1.4450e+002 -3.8198e+002 -9.1332e+000 50519 84904,85273,84930
 3.7000e+000 85958 -1.1799e+002 -3.7946e+002 -1.3452e+001 50093 85981,85768,85716
 3.7000e+000 85935 -1.0433e+002 -3.4386e+002 -1.6007e+001 50093 85981,85716,85612
 3.7000e+000 85912 -1.5340e+002 -3.5803e+002  5.8897e+000 50093 85612,85716,85664
 3.7000e+000 85889 -8.6083e+001 -3.7471e+002 -5.1720e+000 50093 85716,85768,85742
 3.7000e+000 85866 -1.2482e+002 -2.7263e+002 -8.0450e+001 50093 85664,85716,85690
 3.7000e+000 85843 -4.6435e+001 -2.6054e+002 -1.4722e+001 50093 85586,85794,85612
 3.7000e+000 85820 -1.0370e+002 -4.8324e+002  3.9868e+001 50093 85612,85664,85638
 3.7000e+000 86007 -1.4404e+002 -4.0863e+002 -6.4144e+001 50093 85794,85768,85981
 3.7000e+000 86030 -1.0215e+002 -3.0627e+002 -5.4055e+001 50093 85794,85981,85612
 3.7000e+000 86131 -1.3378e+002 -4.2085e+002  5.7269e+001 49895 86053,86105,86079
 3.7000e+000 86639 -9.3049e+001 -2.6642e+002 -5.4658e+001 49391 86662,86394,86368
 3.7000e+000 86616 -1.0928e+002 -3.2358e+002 -4.8615e+001 49391 86662,86368,86342
 3.7000e+000 86593 -6.1244e+001 -3.2307e+002 -1.5263e+001 49391 86342,86498,86472
 3.7000e+000 86570 -4.0198e+001 -3.5470e+002 -1.8237e+001 49391 86316,86498,86342
 3.7000e+000 86547 -1.7935e+002 -4.9283e+002 -2.2841e+001 49391 86394,86472,86446
 3.7000e+000 86524 -1.1355e+001 -4.6373e+002  3.7174e+000 49391 86394,86446,86420
 3.7000e+000 86688 -1.0559e+002 -3.1984e+002 -2.9890e+001 49391 86472,86394,86662
 3.7000e+000 86711 -9.3819e+001 -3.4422e+002 -2.8643e+001 49391 86472,86662,86342
 3.7000e+000 87089 -1.3682e+002 -3.9333e+002  1.0207e+001 48987 86815,86919,86867
 3.7000e+000 87066 -1.3808e+002 -4.0474e+002  1.5886e+001 48987 86815,86971,86919
 3.7000e+000 87043 -5.2266e+001 -4.3556e+002 -3.9311e+001 48987 86867,86919,86893
 3.7000e+000 87020 -1.5638e+002 -4.4602e+002  3.3782e+001 48987 86815,86867,86841
 3.7000e+000 86997 -1.5529e+002 -3.4671e+002  5.5770e+001 48987 86919,86971,86945
 3.7000e+000 87467 -2.6116e+002 -3.9009e+002  1.8956e+001 48540 87490,87245,87219
 3.7000e+000 87444 -1.9046e+002 -3.6392e+002  1.6178e+000 48540 87562,87490,87219
 3.7000e+000 87421 -1.4164e+002 -3.4420e+002  1.6810e+001 48540 87562,87219,87349
 3.7000e+000 87398 -1.9813e+002 -3.0815e+002 -2.1856e+001 48540 87245,87297,87271
 3.7000e+000 87375 -1.1575e+002 -3.6047e+002  1.3076e+001 48540 87193,87349,87219
 3.7000e+000 87516 -1.8094e+002 -3.7338e+002  2.4632e+000 48540 87297,87245,87490
 3.7000e+000 87539 -1.8305e+002 -3.7225e+002  6.1426e+000 48540 87297,87490,87323
 3.7000e+000 87588 -1.4345e+002 -3.4153e+002  3.3268e+001 48540 87323,87490,87562
 3.7000e+000 87611 -1.1998e+002 -3.4778e+002  4.3419e+001 48540 87323,87562,87349
 3.7000e+000 87810 -1.9120e+002 -6.8144e+002 -4.8611e+001 48136 87660,87712,87686
 3.7000e+000 87787 -1.1041e+002 -4.0517e+002 -2.2456e+001 48136 87660,87738,87712
 3.7000e+000 87764 -2.5285e+002 -4.1564e+002 -7.0402e+001 48136 87634,87738,87660
 3.7000e+000 88205 -1.6878e+002 -4.2138e+002 -3.5810e+001 47210 88300,88228,87937
 3.7000e+000 88182 -1.4671e+002 -4.0897e+002 -1.0094e+001 47210 88228,87833,88041
 3.7000e+000 88159 -1.7133e+002 -4.5070e+002 -5.7022e+001 47210 88300,87937,87911
 3.7000e+000 88136 -1.6653e+002 -4.0980e+002 -4.9266e+001 47210 87833,87911,87859
 3.7000e+000 88113 -2.7884e+002 -3.6870e+002 -2.7114e+001 47210 87937,87989,87963
 3.7000e+000 88090 -1.3831e+002 -3.3348e+002  6.7556e+001 47210 87989,88041,88015
 3.7000e+000 88067 -1.9346e+002 -4.7782e+002 -6.4284e+001 47210 87859,87911,87885
 3.7000e+000 88254 -1.4982e+002 -3.4983e+002 -3.6462e+001 47210 87989,87937,88228
 3.7000e+000 88277 -1.7627e+002 -4.0235e+002 -1.3465e+001 47210 87989,88228,88041
 3.7000e+000 88326 -1.3991e+002 -3.9336e+002 -1.2984e+001 47210 87833,88228,88300
 3.7000e+000 88349 -1.4695e+002 -4.1281e+002 -3.5729e+001 47210 87833,88300,87911
 3.7000e+000 88780 -2.7456e+002 -4.7669e+002 -8.7981e+001 46642 88803,88509,88483
 3.7000e+000 88757 -1.9700e+002 -4.2900e+002 -4.7518e+001 46642 88803,88483,88639
 3.7000e+000 88734 -2.1874e+002 -3.5422e+002 -5.3744e+001 46642 88875,88561,88509
 3.7000e+000 88711 -2.2236e+002 -3.2988e+002 -1.0644e+001 46642 88509,88561,88535
 3.7000e+000 88688 -1.2862e+002 -4.8093e+002  1.5147e+000 46642 88457,88639,88483
 3.7000e+000 88665 -2.5121e+002 -5.7671e+002 -2.3240e+001 46642 88561,88613,88587
 3.7000e+000 88829 -2.2180e+002 -3.8581e+002 -6.1005e+001 46642 88875,88509,88803
 3.7000e+000 88852 -2.1650e+002 -4.6425e+002 -3.9806e+001 46642 88613,88803,88639
 3.7000e+000 88901 -1.7954e+002 -3.9846e+002 -2.6699e+001 46642 88613,88561,88875
 3.7000e+000 88924 -1.9644e+002 -4.4967e+002 -3.3128e+001 46642 88613,88875,88803
 3.7000e+000 89253 -8.3205e+001 -4.1082e+002  9.7403e+000 46444 89080,89158,89132
 3.7000e+000 89230 -9.7115e+001 -4.4217e+002  6.5077e+000 46444 89028,89158,89080
 3.7000e+000 89207 -3.5250e+001 -3.8812e+002 -1.6362e+001 46444 89028,89080,89054
 3.7000e+000 89184 -4.6364e+001 -4.4400e+002 -3.0440e+001 46444 89080,89132,89106
 3.7000e+000 89631 -1.0973e+002 -2.6931e+002  5.8477e+000 46040 89383,89461,89435
 3.7000e+000 89608 -1.1610e+002 -2.9755e+002 -1.7238e+001 46040 89383,89487,89461
 3.7000e+000 89585 -1.2022e+002 -3.4987e+002 -1.0772e+001 46040 89383,89435,89409
 3.7000e+000 89562 -9.2692e+001 -2.5368e+002 -3.5972e+001 46040 89383,89513,89487
 3.7000e+000 89539 -3.7826e+001 -2.2707e+002 -4.6953e+001 46040 89357,89513,89383
 3.7000e+000 90009 -1.1493e+002 -3.4075e+002 -1.7324e+000 45636 89813,89891,89839
 3.7000e+000 89986 -1.1893e+002 -3.1948e+002  1.8161e+001 45636 89787,89891,89813
 3.7000e+000 89963 -1.0120e+002 -3.1771e+002 -9.9258e+000 45636 89839,89891,89865
 3.7000e+000 89940 -1.3950e+002 -3.5471e+002  9.5015e+000 45636 89735,89891,89787
 3.7000e+000 89917 -1.0959e+002 -3.5946e+002 -1.7019e+001 45636 89735,89787,89761
 3.7000e+000 90208 -7.7079e+001 -2.6485e+002 -5.1853e+001 45175 90231,90058,90032
 3.7000e+000 90185 -4.6393e+001 -2.4202e+002 -7.8842e+001 45175 90231,90032,90136
 3.7000e+000 90162 -9.2517e+001 -2.1782e+002 -4.2260e+000 45175 90058,90110,90084
 3.7000e+000 90257 -1.1164e+002 -2.9823e+002 -1.3475e+001 45175 90110,90058,90231
 3.7000e+000 90280 -5.2871e+001 -2.5820e+002 -4.3573e+001 45175 90110,90231,90136
 3.7000e+000 90528 -8.5429e+001 -2.7381e+002 -3.6234e+001 44513 90695,90551,90407
 3.7000e+000 90505 -9.1005e+001 -2.4710e+002 -1.6810e+001 44513 90551,90355,90329
 3.7000e+000 90482 -1.1298e+002 -2.6805e+002 -3.3223e+001 44513 90623,90303,90433
 3.7000e+000 90459 -6.5042e+001 -2.5541e+002 -2.6703e+001 44513 90695,90407,90381
 3.7000e+000 90577 -1.2520e+002 -2.8666e+002 -6.2439e+001 44513 90433,90407,90551
 3.7000e+000 90600 -1.0712e+002 -2.6248e+002 -3.0871e+001 44513 90623,90433,90551
 3.7000e+000 90649 -1.1078e+002 -2.6073e+002 -2.9732e+001 44513 90329,90303,90623
 3.7000e+000 90672 -1.1118e+002 -2.6069e+002 -2.9758e+001 44513 90329,90623,90551
 3.7000e+000 90721 -1.1005e+002 -2.4978e+002 -4.0716e+001 44513 90355,90551,90695
 3.7000e+000 90744 -1.0395e+002 -2.4144e+002 -3.7177e+001 44513 90355,90695,90381
 3.7000e+000 91077 -3.0450e+000 -2.8795e+002 -1.9973e+001 44059 91100,90930,90904
 3.7000e+000 91054 -1.1167e+002 -3.0962e+002  1.3776e+001 44059 91100,90904,90982
 3.7000e+000 91031 -1.9995e+002 -3.6080e+002 -2.6943e+001 44059 90878,90982,90904
 3.7000e+000 91008 -6.2293e+001 -2.6913e+002  1.6671e+001 44059 90852,90982,90878
 3.7000e+000 91126 -1.6304e+002 -3.2764e+002 -2.3566e+001 44059 91172,91100,90956
 3.7000e+000 91149 -1.0444e+002 -2.9814e+002 -1.3184e+001 44059 90956,91100,90982
 3.7000e+000 91198 -8.1718e+000 -1.7659e+002 -8.5123e+001 44059 90930,91100,91172
 3.7000e+000 91677 -1.5428e+002 -2.3876e+002  2.3128e+001 43549 91455,91533,91481
 3.7000e+000 91654 -6.8222e+001 -2.4186e+002  3.1239e+001 43549 91429,91533,91455
 3.7000e+000 91631 -1.4932e+002 -2.3908e+002  1.1555e+001 43549 91481,91533,91507
 3.7000e+000 91608 -3.8168e+001 -2.2938e+002  1.5464e+001 43549 91429,91559,91533
 3.7000e+000 91585 -6.5477e+000 -8.6896e+001  2.0674e+000 43549 91403,91559,91429
 3.7000e+000 92006 -1.4023e+002 -3.5211e+002  9.0056e-001 43059 91781,91885,91807
 3.7000e+000 91983 -1.4557e+002 -3.3053e+002  5.4058e+001 43059 91781,91911,91885
 3.7000e+000 91960 -1.3971e+002 -3.5302e+002  1.4695e+000 43059 91807,91885,91833
 3.7000e+000 91937 -9.0430e+001 -3.3458e+002 -6.6772e+000 43059 91833,91885,91859
 3.7000e+000 92561 -1.1997e+002 -2.5757e+002 -2.9014e+001 42598 92584,92215,92189
 3.7000e+000 92538 -1.2983e+002 -2.9237e+002 -2.7800e+001 42598 92656,92584,92189
 3.7000e+000 92515 -1.1658e+002 -3.3096e+002 -8.0559e+000 42598 92656,92189,92397
 3.7000e+000 92492 -1.4705e+002 -2.3067e+002 -3.4395e+001 42598 92241,92319,92293
 3.7000e+000 92469 -1.4189e+002 -2.7555e+002  1.4685e+001 42598 92319,92397,92371
 3.7000e+000 92446 -5.8455e+001 -3.1644e+002  1.2673e+002 42598 92319,92371,92345
 3.7000e+000 92423 -1.4498e+002 -2.3759e+002 -4.8207e+001 42598 92241,92293,92267
 3.7000e+000 92610 -1.2642e+002 -2.5828e+002 -2.6187e+001 42598 92241,92215,92584
 3.7000e+000 92633 -1.1702e+002 -2.3757e+002 -3.4529e+001 42598 92241,92584,92319
 3.7000e+000 92682 -1.1851e+002 -2.4083e+002 -2.0146e+001 42598 92319,92584,92656
 3.7000e+000 92705 -9.6105e+001 -2.6721e+002 -5.5036e+000 42598 92319,92656,92397
 3.7000e+000 92953 -1.4542e+002 -3.8166e+002  2.0512e+001 42094 92976,92806,92780
 3.7000e+000 92930 -1.6133e+002 -3.6026e+002  2.9411e-001 42094 92976,92780,92754
 3.7000e+000 92907 -3.3542e+001 -3.6962e+002 -2.1295e+000 42094 93048,92832,92806
 3.7000e+000 92884 -2.0828e+002 -3.6509e+002 -2.3689e+001 42094 92728,92858,92754
 3.7000e+000 93002 -9.2902e+001 -3.5361e+002  1.0020e+001 42094 93048,92806,92976
 3.7000e+000 93025 -1.5063e+002 -3.5435e+002 -5.1414e+000 42094 92858,92976,92754
 3.7000e+000 93074 -1.1644e+002 -3.9983e+002 -3.8097e+000 42094 92858,92832,93048
 3.7000e+000 93097 -1.6501e+002 -3.7717e+002  3.2246e+000 42094 92858,93048,92976
 3.7000e+000 93605 -1.5559e+002 -4.4362e+002 -1.5858e+001 41846 93628,93412,93386
 3.7000e+000 93582 -1.1714e+002 -3.3553e+002 -1.2665e+000 41846 93628,93386,93308
 3.7000e+000 93559 -1.8020e+002 -3.5126e+002 -7.2522e+001 41846 93700,93464,93438
 3.7000e+000 93536 -1.6585e+002 -4.6311e+002  6.2818e+000 41846 93308,93386,93334
 3.7000e+000 93513 -2.1737e+002 -3.3824e+002 -5.3025e+001 41846 93334,93386,93360
 3.7000e+000 93490 -1.7277e+002 -3.1122e+002 -6.8616e+001 41846 93282,93464,93308
 3.7000e+000 93654 -1.3510e+002 -3.5581e+002 -3.2784e+001 41846 93438,93412,93628
 3.7000e+000 93677 -1.8009e+002 -3.5834e+002 -3.3482e+001 41846 93700,93438,93628
 3.7000e+000 93726 -1.6336e+002 -3.0307e+002 -6.5147e+001 41846 93308,93464,93700
 3.7000e+000 93749 -1.5666e+002 -2.9495e+002 -2.6609e+001 41846 93308,93700,93628
 3.7000e+000 94255 -1.2072e+002 -3.6062e+002  2.2846e+001 41385 93958,94114,94088
 3.7000e+000 94232 -1.0716e+002 -3.8652e+002  1.0272e+001 41385 93932,94114,93958
 3.7000e+000 94209 -2.0939e+002 -4.1822e+002  6.7185e+001 41385 93958,94088,94062
 3.7000e+000 94186 -2.1793e+002 -3.0382e+002  4.9426e+001 41385 93958,94062,93984
 3.7000e+000 94163 -1.9108e+002 -2.9639e+002  4.7281e+001 41385 93984,94062,94036
 3.7000e+000 94140 -1.3071e+002 -4.1399e+002  7.0825e+001 41385 93984,94036,94010
 3.7000e+000 94476 -3.6016e+001 -4.8668e+002  2.9545e+001 40881 94326,94378,94352
 3.7000e+000 94453 -8.0677e+001 -4.0016e+002  3.2515e+001 40881 94300,94378,94326
 3.7000e+000 94430 -9.9509e+001 -3.6875e+002  3.3699e+000 40881 94300,94404,94378
 3.7000e+000 94626 -1.1459e+002 -2.9858e+002 -3.5553e+000 40591 94649,94551,94525
 3.7000e+000 94603 -6.2075e+001 -1.8627e+002  1.7374e+000 40591 94781,94577,94551
 3.7000e+000 94675 -3.9932e+001 -2.1639e+002 -3.5618e+001 40591 94781,94551,94649
 3.7000e+000 94807 -4.6361e+000 -1.2932e+002  3.5767e+001 40591 94499,94577,94781
 3.7000e+000 94830  1.1213e+000 -1.8958e+002 -3.4837e+000 40591 94499,94781,94649
 3.7000e+000 95336 -2.4767e+002 -3.3796e+002 -5.1720e+001 40187 95013,95169,95039
 3.7000e+000 95313 -5.5093e+001 -3.0588e+002  7.3960e+000 40187 95013,95195,95169
 3.7000e+000 95290 -4.1996e+001 -3.3322e+002 -3.5765e+001 40187 95039,95143,95065
 3.7000e+000 95267 -1.8799e+002 -3.9054e+002 -5.7011e+001 40187 95039,95169,95143
 3.7000e+000 95244 -8.8336e+001 -3.1383e+002 -3.2942e+001 40187 95091,95143,95117
 3.7000e+000 95221 -2.9331e+001 -1.9878e+002 -1.2480e+001 40187 95065,95143,95091
 3.7000e+000 95665 -9.7982e+001 -2.6554e+002  1.0803e+002 39626 95466,95570,95544
 3.7000e+000 95642 -1.7731e+002 -2.1370e+002  7.0511e+001 39626 95440,95570,95466
 3.7000e+000 95619 -2.7058e+002 -3.4653e+002  6.8600e+001 39626 95466,95544,95492
 3.7000e+000 95596 -6.0412e+001 -2.6865e+002  1.0648e+002 39626 95492,95544,95518
 3.7000e+000 95913 -1.4206e+002 -3.1292e+002 -4.6226e+001 39136 96080,95936,95766
 3.7000e+000 95890 -9.8055e+001 -3.3491e+002 -2.8073e+001 39136 95936,95714,95688
 3.7000e+000 95867 -2.4872e+002 -3.3399e+002  1.2207e+001 39136 96008,95792,95766
 3.7000e+000 95844 -1.1656e+002 -3.0369e+002 -3.4696e+001 39136 96080,95766,95740
 3.7000e+000 95962 -1.9730e+002 -3.4624e+002 -3.0412e+001 39136 96008,95766,95936
 3.7000e+000 95985 -1.2787e+002 -4.0679e+002 -7.3592e+000 39136 95818,95936,95688
 3.7000e+000 96034 -1.2434e+002 -2.7987e+002  2.0313e+001 39136 95818,95792,96008
 3.7000e+000 96057 -1.1074e+002 -3.0687e+002 -2.1572e+001 39136 95818,96008,95936
 3.7000e+000 96106 -1.2942e+002 -3.0897e+002 -1.2355e+001 39136 95714,95936,96080
 3.7000e+000 96129 -8.9861e+001 -2.9824e+002 -3.3276e+000 39136 95714,96080,95740
 3.7000e+000 96350 -1.1643e+002 -2.7740e+002 -1.3326e+001 38824 96200,96278,96252
 3.7000e+000 96327 -1.0324e+002 -2.7153e+002 -1.1876e+001 38824 96174,96278,96200
 3.7000e+000 96304 -4.4800e+001 -2.4774e+002 -3.9505e+001 38824 96200,96252,96226
 3.7000e+000 96830 -1.6678e+002 -2.9081e+002 -1.8842e+001 38320 97069,96536,96484
 3.7000e+000 96807 -1.6386e+002 -2.9510e+002 -1.8598e+001 38320 97069,96484,96853
 3.7000e+000 96784 -1.8277e+002 -3.1707e+002  7.4698e+000 38320 96853,96484,96458
 3.7000e+000 96761 -9.7104e+001 -2.5545e+002 -3.0089e+001 38320 96925,96640,96614
 3.7000e+000 96738 -1.5745e+002 -2.6797e+002 -1.2975e+001 38320 96997,96666,96640
 3.7000e+000 96715 -1.3071e+002 -3.4829e+002 -5.5412e+000 38320 97141,96588,96562
 3.7000e+000 96692 -2.0873e+002 -3.3925e+002 -2.9352e-001 38320 96484,96536,96510
 3.7000e+000 96879 -1.6244e+002 -3.1310e+002 -9.8420e+000 38320 97141,96562,96853
 3.7000e+000 96902 -1.5058e+002 -3.0561e+002 -9.3895e+000 38320 96925,96614,96853
 3.7000e+000 96951 -1.5352e+002 -2.6504e+002 -1.4861e+001 38320 96997,96640,96925
 3.7000e+000 96974 -1.4749e+002 -2.5931e+002 -8.1367e+000 38320 96458,96925,96853
 3.7000e+000 97023 -1.7520e+002 -2.7124e+002 -3.5795e+000 38320 96458,96666,96997
 3.7000e+000 97046 -1.6097e+002 -2.6435e+002 -5.6827e+000 38320 96458,96997,96925
 3.7000e+000 97095 -1.7875e+002 -2.9031e+002  4.4776e+000 38320 96562,96536,97069
 3.7000e+000 97118 -1.5514e+002 -2.9311e+002 -1.4974e+001 38320 96562,97069,96853
 3.7000e+000 97167 -7.4687e+001 -3.1609e+002 -2.0513e+001 38320 96614,96588,97141
 3.7000e+000 97190 -1.2699e+002 -2.9589e+002 -2.0684e+001 38320 96614,97141,96853
 3.7000e+000 97519 -1.2424e+002 -3.6779e+002  9.6915e+001 37766 97542,97398,97372
 3.7000e+000 97496 -1.4761e+002 -2.9256e+002  6.7992e+001 37766 97542,97372,97346
 3.7000e+000 97473 -1.4916e+002 -3.0362e+002  8.3367e+000 37766 97294,97424,97346
 3.7000e+000 97450 -1.6707e+002 -3.5771e+002  1.7096e+000 37766 97294,97346,97320
 3.7000e+000 97568 -6.7922e+001 -3.8418e+002  3.4604e+001 37766 97424,97398,97542
 3.7000e+000 97591 -1.0526e+002 -2.9839e+002  1.0714e+001 37766 97424,97542,97346
 3.7000e+000 98048 -1.5422e+002 -2.2458e+002 -7.6005e+001 37262 98071,97878,97852
 3.7000e+000 98025 -1.3067e+002 -2.6969e+002 -3.2205e+001 37262 98071,97852,97800
 3.7000e+000 98002 -1.5547e+002 -3.3668e+002 -2.8866e+001 37262 97800,97852,97826
 3.7000e+000 97979 -1.5806e+002 -2.9352e+002  9.7506e+000 37262 97800,97930,97904
 3.7000e+000 97956 -1.0797e+002 -3.6108e+002  2.4219e+001 37262 97774,97930,97800
 3.7000e+000 98097 -2.1886e+002 -2.5620e+002 -5.3989e+001 37262 97904,97878,98071
 3.7000e+000 98120 -1.6650e+002 -3.0702e+002 -1.4314e+001 37262 97904,98071,97800
 3.7000e+000 98449 -7.6988e+001 -2.1543e+002 -2.5879e+001 36950 98472,98302,98250
 3.7000e+000 98426 -4.4915e+001 -2.0512e+002 -3.1871e+001 36950 98472,98250,98354
 3.7000e+000 98403 -1.1973e+002 -2.3743e+002  2.7509e+001 36950 98250,98302,98276
 3.7000e+000 98380 -2.9406e+001 -1.6266e+002  1.6182e+001 36950 98224,98354,98250
 3.7000e+000 98498 -5.3385e+001 -2.4156e+002 -6.9336e+000 36950 98328,98302,98472
 3.7000e+000 98521 -1.5890e+001 -2.2619e+002 -1.8289e+001 36950 98328,98472,98354
 3.7000e+000 99125 -1.6970e+002 -1.7064e+002  1.6424e+001 36296 98704,98756,98730
 3.7000e+000 99102 -1.6414e+002 -1.8989e+002  1.5284e+001 36296 98704,98938,98756
 3.7000e+000 99079 -1.2002e+002 -2.3064e+002 -5.5050e+000 36296 99148,98938,98912
 3.7000e+000 99056 -1.2887e+002 -2.3714e+002  5.4426e+001 36296 99292,99220,98782
 3.7000e+000 99033 -1.0456e+002 -2.6384e+002  6.2832e+000 36296 99148,98912,98834
 3.7000e+000 99010 -1.2098e+002 -2.0011e+002  5.9171e+001 36296 99292,98782,98756
 3.7000e+000 98987 -9.9465e+001 -4.6394e+002 -8.4631e+001 36296 98834,98912,98886
 3.7000e+000 98964 -1.7117e+002 -6.7931e+002 -1.0883e+002 36296 98834,98886,98860
 3.7000e+000 99174 -1.4728e+002 -2.8323e+002  8.3019e+000 36296 99220,98938,99148
 3.7000e+000 99197 -1.0275e+002 -3.2254e+002  3.5062e+001 36296 98808,99148,98834
 3.7000e+000 99246 -1.2708e+002 -2.3169e+002  1.3260e+002 36296 98808,98782,99220
 3.7000e+000 99269 -5.1347e+001 -2.0447e+002  4.3330e+001 36296 98808,99220,99148
 3.7000e+000 99318 -1.3521e+002 -2.0025e+002  2.8925e+001 36296 98938,99220,99292
 3.7000e+000 99341 -1.3835e+002 -2.0616e+002  3.4016e+001 36296 98938,99292,98756
 3.7000e+000 99719 -1.7103e+002 -3.5719e+002  3.0364e-001 35742 99742,99471,99601
 3.7000e+000 99696 -1.7620e+002 -2.8221e+002  3.3834e+001 35742 99445,99601,99471
 3.7000e+000 99673 -1.6365e+002 -3.4040e+002 -1.5440e+001 35742 99742,99601,99575
 3.7000e+000 99650 -1.4182e+002 -4.1655e+002 -1.2046e+001 35742 99814,99549,99523
 3.7000e+000 99627 -1.1367e+002 -3.2492e+002 -2.8914e+000 35742 99471,99523,99497
 3.7000e+000 99768 -1.3695e+002 -3.4912e+002  6.9531e+000 35742 99523,99471,99742
 3.7000e+000 99791 -1.6074e+002 -3.8566e+002 -1.0596e+001 35742 99814,99523,99742
 3.7000e+000 99840 -1.3812e+002 -3.7837e+002 -2.3867e+001 35742 99575,99549,99814
 3.7000e+000 99863 -1.5056e+002 -3.3839e+002 -2.1472e+001 35742 99575,99814,99742
 3.7000e+000 100111 -1.2899e+002 -2.8785e+002  2.0583e+001 35302 100134,99990,99938
 3.7000e+000 100088 -1.0725e+002 -2.6346e+002  6.2906e+000 35302 100134,99938,99912
 3.7000e+000 100065 -1.0748e+002 -2.6254e+002 -6.9957e+000 35302 100206,99886,100016
 3.7000e+000 100042 -1.6921e+002 -2.6244e+002  1.3118e+001 35302 99938,99990,99964
 3.7000e+000 100160 -1.0004e+002 -2.7680e+002  5.1869e+000 35302 100016,99990,100134
 3.7000e+000 100183 -1.0258e+002 -2.6670e+002 -6.8734e+000 35302 100206,100016,100134
 3.7000e+000 100232 -1.1158e+002 -2.6751e+002 -3.8479e+000 35302 99912,99886,100206
 3.7000e+000 100255 -1.0704e+002 -2.7277e+002 -3.9036e+000 35302 99912,100206,100134
 3.7000e+000 100586 -1.6100e+002 -1.9224e+002  4.7832e+001 35012 100609,100387,100361
 3.7000e+000 100563 -1.9482e+002 -1.4879e+002 -3.5667e+001 35012 100609,100361,100465
 3.7000e+000 100540 -9.2770e+001 -1.0922e+002 -8.0282e+001 35012 100361,100491,100465
 3.7000e+000 100517 -3.5984e+001 -1.1630e+002 -7.0337e+001 35012 100413,100465,100439
 3.7000e+000 100635 -7.5105e+001 -1.5483e+002  2.3002e+001 35012 100413,100387,100609
 3.7000e+000 100658 -1.0703e+002 -1.0117e+002 -6.2724e+001 35012 100413,100609,100465
 3.7000e+000 100987 -1.3509e+002 -2.9631e+002  2.8468e+001 34700 100788,100866,100814
 3.7000e+000 100964 -1.1181e+002 -2.3912e+002  4.5242e+001 34700 101010,100866,100788
 3.7000e+000 100941 -7.8773e+001 -1.8090e+002  4.7738e+001 34700 100762,100892,100866
 3.7000e+000 100918 -1.2846e+002 -2.7741e+002  1.6801e+001 34700 100814,100866,100840
 3.7000e+000 101036 -7.5446e+001 -2.1096e+002  7.0529e+001 34700 100762,100866,101010
 3.7000e+000 101493 -1.7844e+002 -3.3476e+002 -3.1201e+001 34132 101516,101349,101297
 3.7000e+000 101470 -2.1248e+002 -4.0100e+002 -4.8811e+001 34132 101588,101516,101297
 3.7000e+000 101447 -2.1391e+002 -4.2379e+002 -7.1232e+001 34132 101588,101297,101245
 3.7000e+000 101424 -1.2929e+002 -4.9580e+002 -6.6532e+001 34132 101245,101297,101271
 3.7000e+000 101401 -2.0709e+002 -3.3884e+002 -3.9383e+001 34132 101297,101349,101323
 3.7000e+000 101542 -1.8738e+002 -3.8628e+002 -2.4328e+001 34132 101375,101349,101516
 3.7000e+000 101565 -1.6537e+002 -3.8181e+002 -2.4013e+001 34132 101375,101516,101219
 3.7000e+000 101614 -1.6951e+002 -4.0377e+002 -2.4849e+001 34132 101219,101516,101588
 3.7000e+000 101637 -1.9149e+002 -4.2547e+002 -4.6251e+001 34132 101219,101588,101245
 3.7000e+000 101858 -7.8159e+001 -2.9605e+002  2.6417e+001 33720 101708,101786,101760
 3.7000e+000 101835 -6.3634e+001 -3.2516e+002  3.7050e+001 33720 101682,101786,101708
 3.7000e+000 101812 -1.1533e+002 -3.1486e+002  1.8234e+001 33720 101708,101760,101734
 3.7000e+000 102128 -3.7052e+001 -3.4663e+002 -9.3655e+000 33130 101903,102007,101929
 3.7000e+000 102105 -4.6711e+001 -4.0065e+002  1.2935e+001 33130 101903,102033,102007
 3.7000e+000 102082 -1.8506e+001 -4.1629e+002 -8.3331e+001 33130 101929,102007,101955
 3.7000e+000 102059 -6.1014e+001 -2.9381e+002  6.2500e+000 33130 101955,102007,101981
 3.7000e+000 102461 -1.3931e+002 -3.0435e+002 -2.5364e+001 32840 102236,102340,102262
 3.7000e+000 102438 -1.2131e+002 -2.1820e+002  7.6200e+000 32840 102236,102366,102340
 3.7000e+000 102415 -8.8578e+001 -2.9109e+002 -2.1172e+001 32840 102262,102340,102288
 3.7000e+000 102392 -1.6531e+002 -3.1015e+002 -5.7128e+001 32840 102288,102340,102314
 3.7000e+000 102997 -1.1617e+002 -1.9839e+002  5.6093e+001 32493 102749,102879,102853
 3.7000e+000 102974 -9.3689e+001 -1.5495e+002  3.9253e+001 32493 102723,102879,102749
 3.7000e+000 102951 -1.3634e+002 -2.4203e+002  3.8124e+001 32493 102749,102801,102775
 3.7000e+000 102928 -1.4520e+002 -2.3970e+002  3.6300e+001 32493 102749,102853,102801
 3.7000e+000 102905 -1.3626e+002 -2.2516e+002  2.9648e+001 32493 102801,102853,102827
 3.7000e+000 103454 -1.4057e+002 -2.4775e+002 -2.5595e+001 32089 103206,103336,103310
 3.7000e+000 103431 -1.1356e+002 -2.6245e+002 -4.2410e+000 32089 103180,103336,103206
 3.7000e+000 103408 -1.5307e+002 -2.9058e+002 -4.7128e+001 32089 103206,103284,103258
 3.7000e+000 103385 -2.1678e+002 -2.9834e+002 -5.7727e+001 32089 103206,103310,103284
 3.7000e+000 103362 -1.2056e+002 -2.0499e+002 -2.2723e+001 32089 103206,103258,103232
 3.7000e+000 103783 -2.3754e+002 -3.1089e+002 -3.5673e+001 31742 103558,103662,103584
 3.7000e+000 103760 -1.9163e+002 -2.3711e+002 -8.0268e+001 31742 103558,103688,103662
 3.7000e+000 103737 -1.5583e+002 -2.4700e+002 -6.6974e+001 31742 103584,103662,103636
 3.7000e+000 103714 -1.4618e+002 -2.7341e+002 -7.3691e+001 31742 103584,103636,103610
 3.7000e+000 104112 -9.7036e+000 -2.5030e+002  5.8825e+001 31402 103939,103991,103965
 3.7000e+000 104089 -7.1850e+001 -2.1101e+002  2.3734e+001 31402 103913,103991,103939
 3.7000e+000 104066 -1.0155e+002 -2.3689e+002  1.0340e+001 31402 103913,104017,103991
 3.7000e+000 104043 -1.2447e+002 -2.2268e+002 -4.9976e+000 31402 103887,104017,103913
 3.7000e+000 104569 -2.2325e+002 -3.8090e+002  7.4451e+000 30998 104321,104425,104373
 3.7000e+000 104546 -2.4959e+002 -3.8864e+002  3.1396e+000 30998 104321,104451,104425
 3.7000e+000 104523 -1.7904e+002 -3.2148e+002  3.9528e+001 30998 104373,104425,104399
 3.7000e+000 104500 -2.0497e+002 -4.4787e+002 -2.5861e+001 30998 104295,104451,104321
 3.7000e+000 104477 -2.9180e+002 -4.4549e+002  7.4621e+001 30998 104321,104373,104347
 3.7000e+000 104947 -1.8200e+002 -3.1854e+002 -3.4586e+001 30608 104751,104803,104777
 3.7000e+000 104924 -1.2605e+002 -3.3417e+002 -1.3869e+001 30608 104725,104803,104751
 3.7000e+000 104901 -1.9467e+002 -3.2204e+002  2.1489e+001 30608 104699,104803,104725
 3.7000e+000 104878 -1.7363e+002 -3.1358e+002  2.0903e+001 30608 104673,104803,104699
 3.7000e+000 104855 -1.3419e+002 -2.9997e+002 -1.0516e+001 30608 104673,104829,104803
 3.7000e+000 105276 -1.1646e+002 -2.9796e+002  1.1060e+001 30204 105427,105129,105077
 3.7000e+000 105253 -6.7232e+001 -3.1995e+002  7.0972e+001 30204 105427,105077,105051
 3.7000e+000 105230 -1.1910e+002 -3.0268e+002  8.6626e+000 30204 105077,105129,105103
 3.7000e+000 105207 -8.4969e+001 -2.6769e+002  3.5830e+001 30204 105299,105181,105155
 3.7000e+000 105325 -9.5732e+001 -2.6619e+002  1.2236e+001 30204 105129,105181,105299
 3.7000e+000 105453 -1.4746e+002 -3.1668e+002  3.2774e+001 30204 105181,105129,105427
 3.7000e+000 105476 -1.7341e+002 -3.7293e+002  9.9999e+001 30204 105181,105427,105051
 3.7000e+000 105903 -1.0644e+002 -2.5172e+002 -2.0269e+001 29700 105606,105762,105736
 3.7000e+000 105880 -1.3666e+002 -2.5774e+002  9.8939e-001 29700 105580,105762,105606
 3.7000e+000 105857 -1.6199e+002 -3.1901e+002 -1.9659e+001 29700 105606,105710,105632
 3.7000e+000 105834 -1.3484e+002 -2.6718e+002 -9.6853e+000 29700 105606,105736,105710
 3.7000e+000 105811 -1.5356e+002 -2.8937e+002 -2.1887e+001 29700 105632,105710,105684
 3.7000e+000 105788 -1.4376e+002 -2.6609e+002 -1.4693e+001 29700 105632,105684,105658
 3.7000e+000 106102 -5.3140e+001 -3.2368e+002  1.2916e+001 29124 105978,106030,106004
 3.7000e+000 106079 -8.6729e+001 -3.1647e+002  1.4389e+001 29124 105926,106030,105978
 3.7000e+000 106056 -1.0254e+002 -3.7044e+002  3.8366e+001 29124 105926,105978,105952
 3.7000e+000 106301 -8.3205e+001 -3.0860e+002  9.6242e-001 28712 106151,106229,106203
 3.7000e+000 106278 -9.8666e+001 -3.4102e+002 -1.5621e+001 28712 106125,106229,106151
 3.7000e+000 106255 -8.7587e+001 -3.2572e+002  1.7486e+001 28712 106151,106203,106177
 3.7000e+000 106551 -1.0074e+002 -3.8439e+002  1.3775e+001 28258 106352,106404,106378
 3.7000e+000 106528 -1.4856e+002 -3.9558e+002  4.7156e+000 28258 106352,106456,106404
 3.7000e+000 106505 -1.0774e+002 -4.1757e+002 -2.6974e+000 28258 106326,106456,106352
 3.7000e+000 106482 -1.3072e+002 -3.6898e+002 -7.0001e+000 28258 106404,106456,106430
 3.7000e+000 107012 -1.2913e+002 -3.3179e+002  6.6709e+001 27818 107035,106790,106764
 3.7000e+000 106989 -1.1215e+002 -3.1489e+002  2.4870e+001 27818 107035,106764,106868
 3.7000e+000 106966 -7.8838e+001 -3.7563e+002  3.6484e+001 27818 107107,106842,106816
 3.7000e+000 106943 -1.7144e+002 -2.9431e+002  1.4309e+001 27818 106738,106868,106764
 3.7000e+000 106920 -1.6110e+002 -2.6110e+002  2.9314e+001 27818 106738,106894,106868
 3.7000e+000 107061 -5.5736e+001 -3.1631e+002  7.5217e+001 27818 106816,106790,107035
 3.7000e+000 107084 -9.8365e+001 -3.5157e+002  3.8300e+001 27818 107107,106816,107035
 3.7000e+000 107133 -7.5057e+001 -3.4060e+002  1.9459e+001 27818 106868,106842,107107
 3.7000e+000 107156 -8.7797e+001 -3.0473e+002  2.5692e+001 27818 106868,107107,107035
 3.7000e+000 107613 -3.9640e+001 -2.5208e+002  5.4445e+001 27312 107339,107469,107365
 3.7000e+000 107590 -4.2473e+000 -2.3010e+002  4.5110e+001 27312 107339,107495,107469
 3.7000e+000 107567 -4.2428e+001 -2.4531e+002  2.6535e+001 27312 107391,107469,107443
 3.7000e+000 107544 -4.5508e+001 -2.6549e+002  2.1601e+001 27312 107365,107469,107391
 3.7000e+000 107521 -1.1553e+002 -2.6834e+002  9.7039e+000 27312 107391,107443,107417
 3.7000e+000 107991 -1.3714e+002 -3.7435e+002  6.6776e+000 26858 108086,108014,107795
 3.7000e+000 107968 -1.5039e+002 -3.9672e+002 -4.4327e+001 26858 108014,107717,107873
 3.7000e+000 107945 -1.6056e+002 -3.9286e+002  2.3300e+001 26858 108158,108086,107795
 3.7000e+000 107922 -1.3195e+002 -3.8872e+002  2.0498e+001 26858 108158,107795,107769
 3.7000e+000 107899 -8.3706e+001 -4.8525e+002  6.7604e+001 26858 107821,107873,107847
 3.7000e+000 108040 -1.4059e+002 -4.3206e+002  1.9159e+001 26858 107821,107795,108014
 3.7000e+000 108063 -5.8631e+001 -4.1341e+002 -1.0436e+001 26858 107821,108014,107873
 3.7000e+000 108112 -1.9828e+002 -3.9801e+002  1.4605e+001 26858 107717,108014,108086
 3.7000e+000 108135 -1.6369e+002 -4.1283e+002  4.3633e+001 26858 107717,108086,107743
 3.7000e+000 108184 -1.2685e+002 -3.9135e+002  3.3251e+001 26858 107743,108086,108158
 3.7000e+000 108207 -1.1478e+002 -3.9906e+002  3.2760e+001 26858 107743,108158,107769
 3.7000e+000 108634 -1.8269e+002 -3.6766e+002  5.1029e+000 26404 108657,108415,108363
 3.7000e+000 108611 -2.0421e+002 -3.9622e+002  3.8040e+001 26404 108657,108363,108337
 3.7000e+000 108588 -1.7890e+002 -3.6452e+002  4.3608e+001 26404 108729,108311,108467
 3.7000e+000 108565 -2.0554e+002 -4.2500e+002  1.7492e+000 26404 108801,108441,108415
 3.7000e+000 108542 -2.6824e+002 -4.0554e+002  5.4795e+001 26404 108311,108493,108467
 3.7000e+000 108519 -1.2880e+002 -3.6623e+002  6.1913e+000 26404 108363,108415,108389
 3.7000e+000 108683 -2.4225e+002 -3.8937e+002  6.6500e+000 26404 108801,108415,108657
 3.7000e+000 108706 -2.3289e+002 -3.8175e+002  3.3636e+001 26404 108729,108467,108657
 3.7000e+000 108755 -1.4300e+002 -3.8945e+002  4.3847e+001 26404 108337,108311,108729
 3.7000e+000 108778 -1.7068e+002 -3.8783e+002  3.3532e+001 26404 108337,108729,108657
 3.7000e+000 108827 -2.4239e+002 -4.9419e+002 -1.9030e+001 26404 108467,108441,108801
 3.7000e+000 108850 -2.6320e+002 -4.3385e+002 -1.3344e+001 26404 108467,108801,108657
 3.7000e+000 109228 -1.7234e+002 -3.6861e+002 -1.8299e+001 26064 109006,109084,109058
 3.7000e+000 109205 -1.5418e+002 -3.4378e+002  7.0289e+000 26064 108980,109084,109006
 3.7000e+000 109182 -1.6754e+002 -3.2954e+002 -1.1111e+001 26064 108980,109110,109084
 3.7000e+000 109159 -1.6557e+002 -3.8837e+002 -2.8468e+000 26064 109006,109058,109032
 3.7000e+000 109136 -5.7060e+001 -2.9581e+002  1.1487e+001 26064 108954,109110,108980
 3.7000e+000 109427 -5.2137e+001 -3.1929e+002 -6.4749e+001 25660 109303,109355,109329
 3.7000e+000 109404 -9.5406e+001 -4.0569e+002 -1.7166e+001 25660 109277,109355,109303
 3.7000e+000 109381 -7.5346e+001 -3.8153e+002 -6.9238e+000 25660 109251,109355,109277
 3.7000e+000 109577 -7.2007e+001 -1.7380e+002  6.0143e+001 25306 109476,109528,109502
 3.7000e+000 109554  1.8126e+000 -1.6243e+002  3.4966e+001 25306 109450,109528,109476
 3.7000e+000 109778 -1.2151e+002 -3.3501e+002  1.0076e+001 24944 109628,109706,109654
 3.7000e+000 109755 -1.3130e+002 -3.2519e+002  1.4615e+000 24944 109602,109706,109628
 3.7000e+000 109732 -1.0682e+002 -3.1314e+002 -1.6732e+000 24944 109654,109706,109680
 3.7000e+000 110126 -1.3150e+002 -4.4063e+002  1.4311e+001 24440 110149,109907,109855
 3.7000e+000 110103 -1.2989e+002 -4.6289e+002  2.6796e+001 24440 110149,109855,109985
 3.7000e+000 110080 -1.0764e+002 -3.8463e+002  8.2353e+000 24440 109855,109907,109881
 3.7000e+000 110057 -1.1449e+002 -3.6818e+002  1.1234e+002 24440 109829,109985,109855
 3.7000e+000 110034 -1.1807e+002 -4.3866e+002  6.0515e-001 24440 109907,109959,109933
 3.7000e+000 110011 -9.2909e+001 -3.8411e+002  1.1552e+001 24440 109803,109985,109829
 3.7000e+000 110175 -1.2887e+002 -4.1996e+002  7.6903e+000 24440 109959,109907,110149
 3.7000e+000 110198 -1.2922e+002 -4.4015e+002  2.2598e+001 24440 109959,110149,109985
 3.7000e+000 110301 -2.0373e+001 -2.8022e+002 -7.7983e+000 24028 110223,110275,110249
 3.7000e+000 110573 -5.3161e+001 -2.5550e+002  2.0126e+001 23467 110400,110452,110426
 3.7000e+000 110550 -8.9789e+001 -2.9948e+002  2.4001e-001 23467 110374,110452,110400
 3.7000e+000 110527 -9.1702e+001 -3.0020e+002  4.5535e+000 23467 110348,110452,110374
 3.7000e+000 110504 -6.6674e+001 -2.8813e+002 -2.7168e+000 23467 110348,110478,110452
 3.7000e+000 111004 -2.1079e+002 -4.3945e+002 -4.2107e+001 22963 111027,110733,110707
 3.7000e+000 110981 -2.0198e+002 -4.1629e+002  1.7751e+001 22963 111027,110707,110681
 3.7000e+000 110958 -1.0166e+002 -3.7227e+002 -4.3747e+001 22963 111099,110759,110733
 3.7000e+000 110935 -1.3111e+002 -3.6422e+002 -3.1203e+001 22963 111171,110863,110811
 3.7000e+000 110912 -6.6548e+001 -2.7251e+002 -4.8444e+001 22963 110759,110811,110785
 3.7000e+000 110889 -1.4300e+002 -3.8265e+002 -2.4860e+001 22963 110811,110863,110837
 3.7000e+000 111053 -1.4666e+002 -4.0300e+002 -2.7404e+001 22963 111099,110733,111027
 3.7000e+000 111076 -1.2405e+002 -3.9355e+002 -2.5750e+001 22963 111171,110811,111027
 3.7000e+000 111125 -9.9789e+001 -3.6584e+002 -6.7960e+001 22963 110811,110759,111099
 3.7000e+000 111148 -1.0719e+002 -3.6216e+002 -5.8104e+001 22963 110811,111099,111027
 3.7000e+000 111197 -1.3300e+002 -3.1598e+002 -3.9223e+001 22963 110681,110863,111171
 3.7000e+000 111220 -1.3931e+002 -3.5163e+002 -2.0373e+001 22963 110681,111171,111027
 3.7000e+000 111726 -1.9803e+002 -3.8334e+002  9.3803e+000 22459 111749,111507,111429
 3.7000e+000 111703 -1.8422e+002 -3.7948e+002 -7.8820e+000 22459 111749,111429,111585
 3.7000e+000 111680 -1.5848e+002 -4.2795e+002 -5.4652e+000 22459 111403,111585,111429
 3.7000e+000 111657 -1.8752e+002 -4.2083e+002  1.7169e+001 22459 111507,111559,111533
 3.7000e+000 111634 -2.6165e+002 -3.7067e+002  2.3070e+001 22459 111455,111507,111481
 3.7000e+000 111611 -2.7030e+002 -3.6907e+002  3.3631e+001 22459 111429,111507,111455
 3.7000e+000 111775 -1.9978e+002 -4.0929e+002  2.2900e+001 22459 111559,111507,111749
 3.7000e+000 111798 -1.8444e+002 -3.9152e+002  6.1652e+000 22459 111559,111749,111585
 3.7000e+000 112046 -8.7188e+001 -3.2196e+002 -4.3593e+001 21898 112069,111925,111873
 3.7000e+000 112023 -8.4211e+001 -3.2551e+002 -1.1612e+001 21898 112069,111873,111847
 3.7000e+000 112000 -1.1319e+002 -3.3619e+002 -1.8640e+001 21898 111821,111951,111847
 3.7000e+000 111977 -9.8409e+001 -2.5483e+002 -2.8918e+001 21898 111873,111925,111899
 3.7000e+000 112095 -1.3257e+002 -3.3904e+002 -4.8851e+001 21898 111951,111925,112069
 3.7000e+000 112118 -1.1062e+002 -3.3512e+002 -1.8153e+001 21898 111951,112069,111847
 3.7000e+000 112498 -1.5624e+002 -3.6107e+002 -2.9830e+001 21608 112521,112276,112224
 3.7000e+000 112475 -1.0442e+002 -3.6671e+002  1.4820e+000 21608 112521,112224,112380
 3.7000e+000 112452 -1.1131e+002 -4.1624e+002  2.5356e+001 21608 112302,112380,112354
 3.7000e+000 112429 -1.7392e+002 -4.0944e+002 -2.2585e+001 21608 112224,112276,112250
 3.7000e+000 112406  5.4330e+001 -4.3532e+002 -1.0676e+001 21608 112302,112354,112328
 3.7000e+000 112547 -1.1398e+002 -3.1151e+002 -6.5939e+000 21608 112302,112276,112521
 3.7000e+000 112570 -8.0178e+001 -3.5221e+002  1.5561e+001 21608 112302,112521,112380
 3.7000e+000 112948 -1.7877e+002 -3.7543e+002 -7.3944e+000 20882 112971,112752,112700
 3.7000e+000 112925 -1.3924e+002 -3.6113e+002 -1.2781e+001 20882 112971,112700,112830
 3.7000e+000 112902 -2.2688e+002 -4.0017e+002  2.4663e+001 20882 112778,112830,112804
 3.7000e+000 112879 -1.2891e+002 -2.9184e+002 -1.8709e+001 20882 112674,112830,112700
 3.7000e+000 112856 -2.1903e+002 -3.9185e+002  6.6174e+000 20882 112700,112752,112726
 3.7000e+000 112997 -1.7897e+002 -3.7290e+002  1.4707e+001 20882 112778,112752,112971
 3.7000e+000 113020 -1.5663e+002 -3.6572e+002  8.2885e+000 20882 112778,112971,112830
 3.7000e+000 113526 -1.3398e+002 -3.7776e+002  9.9186e-001 20428 113255,113385,113333
 3.7000e+000 113503 -1.4735e+002 -4.1552e+002 -8.6983e-002 20428 113229,113385,113255
 3.7000e+000 113480 -2.3442e+001 -3.7091e+002  1.9153e+000 20428 113255,113333,113281
 3.7000e+000 113457 -1.3185e+002 -4.1389e+002 -1.4944e-001 20428 113203,113385,113229
 3.7000e+000 113434 -6.7843e+001 -3.8894e+002 -1.2911e+001 20428 113281,113333,113307
 3.7000e+000 113411 -1.5539e+002 -3.7175e+002  5.9937e+000 20428 113333,113385,113359
 3.7000e+000 113774 -2.2785e+001 -3.5252e+002  1.3458e+001 19917 113797,113601,113549
 3.7000e+000 113751 -5.9574e+001 -3.6048e+002  1.8338e+001 19917 113869,113797,113549
 3.7000e+000 113728 -5.6695e+001 -3.6506e+002  3.6228e+001 19917 113869,113549,113679
 3.7000e+000 113705 -3.3685e+001 -3.5065e+002  2.7638e+001 19917 113549,113601,113575
 3.7000e+000 113823 -6.0174e+001 -4.2789e+002 -1.5524e+000 19917 113627,113601,113797
 3.7000e+000 113846 -2.2725e+001 -3.3550e+002 -9.4616e+000 19917 113627,113797,113653
 3.7000e+000 113895 -5.0419e+001 -3.1827e+002  5.2005e+000 19917 113653,113797,113869
 3.7000e+000 113918 -6.4162e+001 -3.2934e+002  2.7899e+001 19917 113653,113869,113679
 3.7000e+000 114166 -1.6779e+002 -3.7438e+002 -6.2736e+000 19413 113993,114045,114019
 3.7000e+000 114143 -1.6071e+002 -3.4987e+002  1.9034e+000 19413 113967,114045,113993
 3.7000e+000 114120 -1.3095e+002 -3.3874e+002  1.5219e+001 19413 113967,114071,114045
 3.7000e+000 114097 -1.1728e+002 -3.8028e+002 -7.9561e+000 19413 113941,114071,113967
 3.7000e+000 114438 -1.5202e+002 -4.0106e+002  3.8169e+000 19001 114213,114265,114239
 3.7000e+000 114415 -1.0976e+002 -3.1276e+002 -9.2037e+000 19001 114213,114343,114265
 3.7000e+000 114392 -1.6211e+002 -4.3009e+002 -1.9455e+001 19001 114265,114343,114317
 3.7000e+000 114369  3.1197e+001 -3.4698e+002 -8.0742e+000 19001 114265,114317,114291
 3.7000e+000 114639 -1.1515e+002 -4.7737e+002  2.3437e+001 18554 114489,114541,114515
 3.7000e+000 114616 -1.0096e+002 -4.1307e+002  4.1063e+000 18554 114489,114567,114541
 3.7000e+000 114593 -2.1695e+002 -4.7590e+002 -3.1852e+001 18554 114463,114567,114489
 3.7000e+000 115043 -8.5726e+001 -3.6154e+002  1.2940e+001 18164 114795,114925,114821
 3.7000e+000 115020 -7.6313e+001 -3.8316e+002  2.1204e+001 18164 114769,114925,114795
 3.7000e+000 114997 -5.0132e+001 -3.7805e+002 -2.6849e+000 18164 115066,114873,114821
 3.7000e+000 114974 -4.7858e+001 -3.2701e+002 -1.2243e+001 18164 115066,114821,114925
 3.7000e+000 114951  1.6140e+001 -3.7915e+002 -3.6078e+001 18164 114821,114873,114847
 3.7000e+000 115092 -6.8078e+001 -3.4106e+002 -2.9522e+001 18164 114899,114873,115066
 3.7000e+000 115115 -4.4703e+001 -2.6304e+002 -4.1619e+001 18164 114899,115066,114925
 3.7000e+000 115265 -1.1869e+002 -4.0812e+002  4.1912e+000 17852 115164,115216,115190
 3.7000e+000 115242 -1.2792e+002 -4.2868e+002 -1.8843e-001 17852 115138,115216,115164
 3.7000e+000 115464 -2.4903e+002 -5.5496e+002  8.8126e+000 17346 115288,115366,115340
 3.7000e+000 115441 -3.8344e+002 -4.3405e+002 -1.3771e+001 17346 115288,115392,115366
 3.7000e+000 115418 -2.2310e+002 -6.2569e+002 -1.9235e+001 17346 115288,115340,115314
 3.7000e+000 115736 -1.1178e+002 -3.7117e+002  1.4712e+001 16942 115563,115641,115615
 3.7000e+000 115713 -1.2377e+002 -3.6806e+002  3.8439e+000 16942 115511,115641,115563
 3.7000e+000 115690 -2.6071e+002 -4.2914e+002  2.0824e+001 16942 115563,115615,115589
 3.7000e+000 115667 -1.4513e+002 -4.0011e+002  1.3139e+001 16942 115511,115563,115537
 3.7000e+000 116091 -1.8326e+002 -4.2733e+002 -1.6224e+001 16388 115918,115970,115944
 3.7000e+000 116068 -1.5814e+002 -3.4322e+002 -1.1242e+001 16388 115918,115996,115970
 3.7000e+000 116045 -2.1358e+002 -4.3355e+002  1.4077e+001 16388 115892,115996,115918
 3.7000e+000 116022 -1.4508e+002 -3.9814e+002  4.6138e+001 16388 115866,115996,115892
 3.7000e+000 116192 -7.4363e+001 -4.6367e+002 -6.4501e+001 15810 116114,116166,116140
 3.7000e+000 116342 -1.6890e+002 -5.4234e+002  2.9816e+001 15419 116241,116293,116267
 3.7000e+000 116319 -2.4096e+002 -6.6655e+002 -1.9340e+001 15419 116215,116293,116241
 3.7000e+000 116445 -1.8793e+002 -3.7727e+002  3.1413e+000 421 116367,116419,116393
 3.8000e+000 68477 -2.5498e+002 -3.8968e+002  8.0878e-001 68018 68327,68379,68353
 3.8000e+000 68454 -2.7274e+002 -5.2344e+002  3.9350e+001 68018 68301,68379,68327
 3.8000e+000 68431 -1.0169e+002 -5.7456e+002  1.0499e+002 68018 68301,68405,68379
 3.8000e+000 68578 -1.6763e+002 -3.7049e+002  2.3327e+000 67820 68500,68552,68526
 3.8000e+000 68728 -1.8488e+002 -3.5016e+002 -5.2868e+000 67508 68601,68653,68627
 3.8000e+000 68705 -2.8918e+002 -2.6597e+002 -5.1489e+001 67508 68601,68679,68653
 3.8000e+000 68927 -3.7273e+001 -3.0459e+002 -7.2817e+000 67310 68777,68829,68803
 3.8000e+000 68904 -6.7836e+001 -3.5489e+002  6.7620e+000 67310 68751,68829,68777
 3.8000e+000 68881 -4.8478e+001 -3.5588e+002  2.1454e+001 67310 68751,68855,68829
 3.8000e+000 69386 -1.4383e+002 -3.9579e+002 -2.2631e+001 67020 69216,69268,69242
 3.8000e+000 69363 -1.2948e+002 -3.0498e+002 -4.1778e+001 67020 69138,69268,69216
 3.8000e+000 69340 -9.4869e+001 -2.6713e+002 -1.9550e+001 67020 69112,69268,69138
 3.8000e+000 69317 -1.7529e+002 -3.2811e+002  2.6616e+001 67020 69138,69190,69164
 3.8000e+000 69294 -1.8543e+002 -3.0093e+002 -1.9146e+001 67020 69138,69216,69190
 3.8000e+000 69536 -3.1338e+002 -7.5800e+002 -6.5643e+001 66708 69435,69487,69461
 3.8000e+000 69513 -2.2912e+002 -8.5812e+002 -1.1620e+001 66708 69409,69487,69435
 3.8000e+000 69735 -1.8416e+002 -3.9086e+002  9.4758e+000 66346 69585,69637,69611
 3.8000e+000 69712 -1.5097e+002 -3.7368e+002 -9.8453e-001 66346 69559,69637,69585
 3.8000e+000 69689 -1.3622e+002 -3.7005e+002 -3.4994e+001 66346 69559,69663,69637
 3.8000e+000 69985 -2.4501e+002 -4.3316e+002  8.5809e+000 66148 69786,69890,69864
 3.8000e+000 69962 -2.5365e+002 -4.3701e+002  9.3771e+000 66148 69760,69890,69786
 3.8000e+000 69939 -1.7152e+002 -4.1296e+002 -6.5053e+001 66148 69786,69864,69838
 3.8000e+000 69916 -2.1444e+002 -4.5239e+002 -1.5742e+001 66148 69786,69838,69812
 3.8000e+000 70137 -1.2383e+002 -4.7449e+002 -2.9036e+001 65950 70036,70088,70062
 3.8000e+000 70114 -1.0506e+002 -5.2656e+002  2.3144e+001 65950 70010,70088,70036
 3.8000e+000 70470 -9.0578e+001 -3.4947e+002  3.0281e+001 65546 70245,70323,70271
 3.8000e+000 70447 -6.1348e+001 -3.0380e+002  1.4015e+001 65546 70245,70375,70323
 3.8000e+000 70424 -8.2388e+001 -3.8857e+002  1.3808e+001 65546 70323,70375,70349
 3.8000e+000 70401 -6.5283e+001 -3.1798e+002  1.3101e+001 65546 70271,70323,70297
 3.8000e+000 70620 -1.2304e+002 -4.1370e+002  1.6318e+001 65348 70493,70545,70519
 3.8000e+000 70597 -1.1367e+002 -4.4153e+002  1.1698e+001 65348 70493,70571,70545
 3.8000e+000 70721 -2.0832e+002 -4.2955e+002  3.5049e+001 65150 70643,70695,70669
 3.8000e+000 71020 -1.4551e+002 -3.3395e+002  4.0967e+000 64952 71043,70850,70824
 3.8000e+000 70997 -1.2805e+002 -2.9126e+002  3.6501e+000 64952 71043,70824,70772
 3.8000e+000 70974 -1.3950e+002 -3.8594e+002  6.4887e+000 64952 71115,70746,70876
 3.8000e+000 70951 -1.0145e+002 -3.8480e+002 -4.6989e+000 64952 70746,70902,70876
 3.8000e+000 70928 -1.2780e+002 -2.4289e+002 -2.6151e+001 64952 70772,70824,70798
 3.8000e+000 71069 -1.1808e+002 -3.1890e+002  1.3117e+001 64952 70876,70850,71043
 3.8000e+000 71092 -1.3683e+002 -3.6355e+002  7.7497e+000 64952 71115,70876,71043
 3.8000e+000 71141 -1.5860e+002 -3.6003e+002 -1.3661e+001 64952 70772,70746,71115
 3.8000e+000 71164 -1.4797e+002 -3.2645e+002 -1.2949e+001 64952 70772,71115,71043
 3.8000e+000 71365  3.3946e+000 -4.0775e+002 -5.4793e+000 64662 71215,71293,71267
 3.8000e+000 71342  9.9589e+001 -3.7569e+002 -9.7132e+001 64662 71189,71293,71215
 3.8000e+000 71319  3.7312e+001 -3.3730e+002  4.6544e+000 64662 71215,71267,71241
 3.8000e+000 71615 -8.6826e+001 -3.8022e+002 -9.4342e+000 64350 71710,71638,71468
 3.8000e+000 71592 -1.2627e+002 -3.7367e+002 -1.3867e+001 64350 71638,71416,71390
 3.8000e+000 71569 -9.1931e+001 -3.5485e+002  1.1230e+001 64350 71710,71468,71442
 3.8000e+000 71546  1.0068e+002 -3.4961e+002 -7.0302e+001 64350 71390,71520,71494
 3.8000e+000 71664 -9.1374e+001 -3.8304e+002 -6.3273e+000 64350 71494,71468,71638
 3.8000e+000 71687 -8.7043e+001 -3.7941e+002 -4.1506e+000 64350 71494,71638,71390
 3.8000e+000 71736 -8.3064e+001 -3.2976e+002  3.6985e+000 64350 71416,71638,71710
 3.8000e+000 71759 -7.3305e+001 -3.0148e+002  3.0974e+001 64350 71416,71710,71442
 3.8000e+000 72318 -8.9689e+001 -6.0019e+002 -2.5951e+001 63837 71972,72024,71998
 3.8000e+000 72295 -1.3551e+002 -3.7378e+002 -8.6540e+000 63837 72341,71972,71946
 3.8000e+000 72272 -1.2967e+002 -3.0432e+002  1.7080e+001 63837 72413,72341,71946
 3.8000e+000 72249 -1.2590e+002 -2.7645e+002  8.7403e+000 63837 72413,71946,72128
 3.8000e+000 72226 -2.0761e+002 -3.3247e+002  5.8028e+000 63837 72024,72076,72050
 3.8000e+000 72203 -1.7137e+002 -3.0322e+002 -8.0833e+000 63837 72024,72102,72076
 3.8000e+000 72180 -1.0671e+002 -2.7250e+002  2.8740e+001 63837 71946,72154,72128
 3.8000e+000 72367 -1.8555e+002 -4.0827e+002 -7.6598e+001 63837 72024,71972,72341
 3.8000e+000 72390 -1.3867e+002 -3.2880e+002 -2.5376e+001 63837 72024,72341,72102
 3.8000e+000 72439 -1.0862e+002 -3.4945e+002  7.3900e+000 63837 72102,72341,72413
 3.8000e+000 72462 -1.0433e+002 -3.1966e+002  2.4802e+000 63837 72102,72413,72128
 3.8000e+000 72791 -1.7198e+002 -3.4951e+002 -3.6316e+001 63383 72592,72696,72670
 3.8000e+000 72768 -1.7632e+002 -3.2570e+002 -6.5206e+001 63383 72566,72696,72592
 3.8000e+000 72745 -1.7226e+002 -3.0318e+002  1.5731e+000 63383 72592,72670,72618
 3.8000e+000 72722 -1.6436e+002 -2.8366e+002  1.7789e+000 63383 72618,72670,72644
 3.8000e+000 73297 -2.1543e+002 -3.1019e+002 -4.9163e+000 63185 73000,73156,73130
 3.8000e+000 73274 -2.1755e+002 -3.2684e+002  4.0108e+001 63185 72974,73156,73000
 3.8000e+000 73251 -1.5702e+002 -3.5753e+002 -6.0145e+000 63185 73000,73052,73026
 3.8000e+000 73228 -1.7465e+002 -3.1648e+002 -1.6871e+001 63185 73000,73130,73052
 3.8000e+000 73205 -1.7306e+002 -3.5621e+002 -5.5372e+001 63185 73052,73130,73104
 3.8000e+000 73182 -1.6377e+002 -3.9805e+002 -5.9581e+001 63185 73052,73104,73078
 3.8000e+000 73545 -5.9961e+001 -3.2319e+002  3.8933e+000 62781 73568,73398,73372
 3.8000e+000 73522 -4.1833e+001 -2.9614e+002  1.2433e+001 62781 73568,73372,73346
 3.8000e+000 73499 -7.3762e+001 -3.0780e+002 -8.8290e+000 62781 73640,73320,73424
 3.8000e+000 73476 -1.0504e+002 -2.1683e+002 -2.5091e+001 62781 73320,73450,73424
 3.8000e+000 73594 -5.5789e+001 -2.9910e+002 -1.5402e+000 62781 73424,73398,73568
 3.8000e+000 73617 -6.4554e+001 -3.0240e+002 -3.9443e+000 62781 73640,73424,73568
 3.8000e+000 73666 -7.0058e+001 -3.0078e+002  5.6089e-001 62781 73346,73320,73640
 3.8000e+000 73689 -6.4887e+001 -2.9507e+002  5.0636e+000 62781 73346,73640,73568
 3.8000e+000 74035 -1.2484e+002 -3.8002e+002 -4.1001e+000 62363 74058,73868,73842
 3.8000e+000 74012 -1.1869e+002 -3.5017e+002 -2.7534e+001 62363 74130,74058,73842
 3.8000e+000 73989 -1.0736e+002 -3.4660e+002 -2.8934e+001 62363 74130,73842,73816
 3.8000e+000 73966 -1.8241e+002 -3.9541e+002  5.2532e+000 62363 74202,73764,73894
 3.8000e+000 73943 -2.3547e+002 -3.5801e+002  7.0032e+000 62363 73712,73894,73764
 3.8000e+000 73920 -2.5642e+002 -3.7979e+002 -4.0759e+000 62363 73712,73764,73738
 3.8000e+000 74084 -1.2840e+002 -3.7053e+002 -4.5543e+000 62363 73894,73868,74058
 3.8000e+000 74107 -1.6495e+002 -3.7730e+002  1.9653e+001 62363 74202,73894,74058
 3.8000e+000 74156 -1.3182e+002 -3.5555e+002  1.2037e+001 62363 73790,74058,74130
 3.8000e+000 74179 -7.8189e+001 -3.3440e+002  1.4429e+001 62363 73790,74130,73816
 3.8000e+000 74228 -2.0257e+002 -4.0417e+002 -2.1685e+001 62363 73790,73764,74202
 3.8000e+000 74251 -1.8981e+002 -3.8499e+002 -7.3575e+000 62363 73790,74202,74058
 3.8000e+000 74403 -4.4854e+000 -4.0719e+002  2.7780e+001 62115 74426,74302,74276
 3.8000e+000 74380  8.1895e+001 -3.8994e+002  6.3100e+001 62115 74426,74276,74354
 3.8000e+000 74452 -8.5794e+001 -3.6474e+002  2.7781e+001 62115 74328,74302,74426
 3.8000e+000 74475 -4.6500e+000 -3.5012e+002  6.5509e+001 62115 74328,74426,74354
 3.8000e+000 74578  5.7677e+001 -2.4649e+002  2.2247e+000 61825 74500,74552,74526
 3.8000e+000 74982 -1.9817e+002 -3.5065e+002  3.2897e+000 61513 75005,74734,74708
 3.8000e+000 74959 -1.9160e+002 -3.4050e+002 -3.8274e-001 61513 75005,74708,74864
 3.8000e+000 74936 -2.4450e+002 -3.5755e+002  2.5872e+001 61513 75077,74812,74734
 3.8000e+000 74913 -2.2552e+002 -3.7126e+002 -3.1902e+001 61513 74734,74786,74760
 3.8000e+000 74890 -2.1788e+002 -3.2134e+002 -9.1030e-001 61513 74734,74812,74786
 3.8000e+000 75031 -1.8516e+002 -3.5798e+002  5.5696e+000 61513 75077,74734,75005
 3.8000e+000 75054 -1.4650e+002 -3.4880e+002  5.1988e+001 61513 74838,75005,74864
 3.8000e+000 75103 -2.7824e+002 -3.7470e+002  7.8724e+001 61513 74838,74812,75077
 3.8000e+000 75126 -2.3905e+002 -3.8964e+002  5.8636e+001 61513 74838,75077,75005
 3.8000e+000 75553 -8.7699e+001 -3.1549e+002 -1.1770e+001 61060 75576,75360,75308
 3.8000e+000 75530 -9.6176e+001 -3.3390e+002 -1.5595e+001 61060 75576,75308,75230
 3.8000e+000 75507 -7.8149e+001 -2.9950e+002  3.0147e+000 61060 75308,75360,75334
 3.8000e+000 75484 -1.2987e+002 -3.9025e+002  2.4949e+001 61060 75230,75308,75256
 3.8000e+000 75461 -8.2860e+001 -3.6078e+002  1.2409e+001 61060 75256,75308,75282
 3.8000e+000 75438 -9.6781e+001 -3.0650e+002  4.2780e+001 61060 75360,75412,75386
 3.8000e+000 75602 -5.8184e+001 -3.3296e+002  2.2402e+000 61060 75412,75360,75576
 3.8000e+000 75625 -8.0679e+001 -3.7144e+002 -7.4905e+000 61060 75412,75576,75230
 3.8000e+000 76052 -1.3775e+002 -3.2114e+002  5.3920e+000 60442 75755,75859,75833
 3.8000e+000 76029 -1.6828e+002 -3.0720e+002 -2.2234e+001 60442 75729,75859,75755
 3.8000e+000 76006 -1.4499e+002 -2.9868e+002  2.1252e+001 60442 75755,75833,75807
 3.8000e+000 75983 -1.3501e+002 -3.5705e+002  1.2429e+001 60442 75755,75807,75781
 3.8000e+000 75960  2.3602e+001 -5.5945e+002  1.7991e+001 60442 75729,75911,75859
 3.8000e+000 75937 -2.7803e+002 -1.4216e+003  9.0121e+001 60442 75859,75911,75885
 3.8000e+000 76430 -1.3799e+002 -3.6759e+002 -1.7226e+001 59788 76453,76286,76234
 3.8000e+000 76407 -1.4971e+002 -4.2036e+002  4.4494e+000 59788 76453,76234,76182
 3.8000e+000 76384 -1.5332e+002 -2.7146e+002  4.6237e+001 59788 76525,76156,76312
 3.8000e+000 76361 -8.3871e+001 -4.8108e+002 -7.3385e+000 59788 76182,76234,76208
 3.8000e+000 76338 -1.0989e+002 -3.5496e+002 -1.2594e+001 59788 76234,76286,76260
 3.8000e+000 76479 -1.6900e+002 -3.9684e+002 -8.7751e-001 59788 76312,76286,76453
 3.8000e+000 76502 -1.3999e+002 -3.7340e+002  1.7089e+001 59788 76525,76312,76453
 3.8000e+000 76551 -1.9386e+002 -3.9933e+002  4.8633e+001 59788 76182,76156,76525
 3.8000e+000 76574 -1.6995e+002 -4.3064e+002  2.7947e+001 59788 76182,76525,76453
 3.8000e+000 77031 -1.0146e+002 -2.1845e+002 -3.4385e+001 59448 76835,76887,76861
 3.8000e+000 77008 -4.3433e+001 -1.8326e+002  9.1500e+000 59448 76835,76913,76887
 3.8000e+000 76985 -5.5842e+001 -1.5200e+002  3.0487e+001 59448 76809,76913,76835
 3.8000e+000 76962 -1.0739e+002 -2.0350e+002  7.6361e-001 59448 76757,76913,76809
 3.8000e+000 76939 -8.6372e+001 -1.7805e+002 -8.2931e+000 59448 76757,76809,76783
 3.8000e+000 77537 -1.6226e+002 -3.4367e+002  1.8187e+001 58994 77560,77344,77292
 3.8000e+000 77514 -2.2967e+002 -3.4542e+002  4.4233e+000 58994 77560,77292,77240
 3.8000e+000 77491 -1.3137e+002 -3.2735e+002 -7.7315e+000 58994 77632,77214,77370
 3.8000e+000 77468 -2.7373e+002 -3.9657e+002  7.1202e+001 58994 77292,77344,77318
 3.8000e+000 77445 -1.3500e+002 -4.2895e+002  1.7789e+001 58994 77214,77396,77370
 3.8000e+000 77422 -2.3253e+002 -3.6230e+002 -7.7344e+000 58994 77240,77292,77266
 3.8000e+000 77586 -1.6515e+002 -3.5411e+002  2.1076e+001 58994 77370,77344,77560
 3.8000e+000 77609 -1.6714e+002 -3.4939e+002  2.3273e+001 58994 77632,77370,77560
 3.8000e+000 77658 -1.1219e+002 -3.0414e+002 -4.0222e+001 58994 77240,77214,77632
 3.8000e+000 77681 -1.3817e+002 -3.0049e+002 -1.2178e+001 58994 77240,77632,77560
 3.8000e+000 78138 -1.2243e+002 -2.2935e+002  3.3686e+001 58440 77864,77994,77890
 3.8000e+000 78115 -7.0752e+001 -1.3020e+002 -2.2136e+001 58440 77864,78020,77994
 3.8000e+000 78092 -1.3973e+002 -2.7473e+002 -2.2430e+001 58440 77942,77994,77968
 3.8000e+000 78069 -1.0966e+002 -2.5714e+002  5.3360e+000 58440 77890,77994,77942
 3.8000e+000 78046 -1.0032e+002 -2.6085e+002 -1.9182e+000 58440 77890,77942,77916
 3.8000e+000 78467 -1.5696e+001 -3.1316e+002  1.4609e+001 57928 78562,78490,78346
 3.8000e+000 78444 -1.1670e+002 -3.1869e+002 -5.6601e+000 57928 78490,78294,78268
 3.8000e+000 78421  4.4220e+000 -3.2839e+002  3.1021e+001 57928 78562,78346,78320
 3.8000e+000 78398 -3.8577e+001 -3.0684e+002  5.5511e+000 57928 78242,78372,78268
 3.8000e+000 78516 -9.9811e+001 -3.9463e+002 -1.9700e+001 57928 78372,78346,78490
 3.8000e+000 78539 -7.6780e+001 -3.0081e+002 -1.9512e+000 57928 78372,78490,78268
 3.8000e+000 78588 -1.1558e+002 -3.0918e+002  3.5451e+000 57928 78294,78490,78562
 3.8000e+000 78611 -5.1825e+001 -2.7394e+002  3.7044e+001 57928 78294,78562,78320
 3.8000e+000 79068 -2.1812e+002 -4.6235e+002 -1.1784e+002 57467 78794,78924,78820
 3.8000e+000 79045 -1.7163e+002 -4.4114e+002 -1.1206e+002 57467 78794,78950,78924
 3.8000e+000 79022 -9.3424e+001 -4.1348e+002  3.9362e+001 57467 78820,78898,78872
 3.8000e+000 78999 -1.5812e+002 -5.6858e+002 -6.2273e+001 57467 78820,78924,78898
 3.8000e+000 78976 -6.5157e+001 -4.1760e+002  6.1482e+001 57467 78820,78872,78846
 3.8000e+000 79446 -1.8722e+002 -3.6195e+002  4.9581e-001 57120 79172,79302,79250
 3.8000e+000 79423 -1.6612e+002 -3.5257e+002 -8.9664e+000 57120 79172,79328,79302
 3.8000e+000 79400 -1.6820e+002 -3.1830e+002 -1.1861e+001 57120 79172,79250,79198
 3.8000e+000 79377 -1.2575e+002 -4.5683e+002  1.9389e+001 57120 79250,79302,79276
 3.8000e+000 79354 -2.0729e+002 -3.4581e+002 -2.5024e+001 57120 79198,79250,79224
 3.8000e+000 79952 -2.4596e+002 -3.8788e+002  1.5128e+000 56773 79629,79785,79655
 3.8000e+000 79929 -6.9859e+001 -3.3305e+002  1.6248e+001 56773 79629,79811,79785
 3.8000e+000 79906 -1.9356e+002 -4.2137e+002  2.9821e+001 56773 79655,79733,79681
 3.8000e+000 79883 -1.8787e+002 -3.7157e+002  7.7674e+000 56773 79655,79785,79733
 3.8000e+000 79860 -1.7745e+002 -4.8564e+002 -5.6168e+001 56773 79733,79785,79759
 3.8000e+000 79837 -1.0072e+002 -3.7892e+002  7.3389e+001 56773 79681,79733,79707
 3.8000e+000 80281 -7.8401e+001 -2.9753e+002 -2.3669e+001 56319 80108,80160,80134
 3.8000e+000 80258 -8.8606e+001 -3.2347e+002 -3.0016e+001 56319 80056,80160,80108
 3.8000e+000 80235 -2.8023e+001 -2.8429e+002  1.7435e+001 56319 80056,80186,80160
 3.8000e+000 80212 -1.2569e+002 -4.1232e+002 -1.7833e+001 56319 80056,80108,80082
 3.8000e+000 80738 -4.6166e+001 -3.4879e+002  1.9325e+001 55957 80516,80620,80594
 3.8000e+000 80715 -1.1629e+002 -3.1241e+002  1.7147e+001 55957 80464,80620,80516
 3.8000e+000 80692 -1.0122e+002 -3.8063e+002  2.1639e+001 55957 80761,80568,80542
 3.8000e+000 80669 -8.1158e+001 -3.7410e+002  2.5493e+001 55957 80761,80542,80516
 3.8000e+000 80646 -1.1956e+002 -3.1928e+002  3.9522e+001 55957 80464,80516,80490
 3.8000e+000 80787 -1.2097e+002 -3.7782e+002  1.5499e+001 55957 80594,80568,80761
 3.8000e+000 80810 -1.0210e+002 -3.7183e+002  1.9585e+001 55957 80594,80761,80516
 3.8000e+000 81210 -1.0006e+002 -3.4840e+002 -4.4311e+001 55317 80936,80988,80962
 3.8000e+000 81187 -8.0166e+001 -3.8689e+002 -8.5423e-001 55317 80936,81066,80988
 3.8000e+000 81164 -5.0770e+001 -4.1409e+002  6.3005e+000 55317 80936,81092,81066
 3.8000e+000 81141 -1.1440e+002 -4.1195e+002 -3.8701e+001 55317 80988,81066,81014
 3.8000e+000 81118 -9.7291e+000 -2.2807e+002  2.4459e+001 55317 81014,81066,81040
 3.8000e+000 81539 -1.6239e+002 -3.7779e+002  1.2424e+001 54913 81340,81418,81392
 3.8000e+000 81516 -6.3483e+001 -3.0204e+002 -2.1278e+001 54913 81340,81444,81418
 3.8000e+000 81493 -9.9210e+001 -3.2451e+002 -4.4549e+001 54913 81314,81444,81340
 3.8000e+000 81470 -1.8257e+002 -3.9341e+002  4.6731e+000 54913 81340,81392,81366
 3.8000e+000 81787 -8.8593e+001 -3.8835e+002 -2.6865e+000 54601 81588,81692,81640
 3.8000e+000 81764 -1.2957e+002 -3.9350e+002 -1.1707e+001 54601 81562,81692,81588
 3.8000e+000 81741 -6.7007e+001 -3.9395e+002  5.3257e+001 54601 81588,81640,81614
 3.8000e+000 81718 -9.1934e+001 -4.6085e+002 -3.8900e+001 54601 81640,81692,81666
 3.8000e+000 82344 -1.5429e+002 -4.2175e+002 -2.3350e+001 54090 81998,82102,82076
 3.8000e+000 82321 -2.0883e+002 -4.4566e+002 -1.2989e+001 54090 81998,82154,82102
 3.8000e+000 82298 -1.8808e+002 -4.3487e+002 -7.4260e+000 54090 81972,82154,81998
 3.8000e+000 82275 -2.1598e+002 -3.9311e+002 -2.7034e+001 54090 81998,82076,82024
 3.8000e+000 82252 -2.2739e+002 -4.6262e+002  2.2772e+001 54090 81972,82180,82154
 3.8000e+000 82229 -2.8766e+002 -5.3972e+002  2.9343e+001 54090 82102,82154,82128
 3.8000e+000 82206 -3.8737e+001 -2.9776e+002 -6.4585e+001 54090 82024,82076,82050
 3.8000e+000 82722 -2.4769e+002 -4.4592e+002 -1.5368e+001 53579 82500,82578,82552
 3.8000e+000 82699 -1.7917e+002 -4.0429e+002  1.2215e+001 53579 82448,82578,82500
 3.8000e+000 82676 -1.9390e+002 -4.5865e+002  1.2044e+001 53579 82448,82500,82474
 3.8000e+000 82653 -2.4250e+002 -4.3610e+002  3.2422e+001 53579 82448,82604,82578
 3.8000e+000 82630 -1.2698e+002 -4.1220e+002 -1.6304e+001 53579 82500,82552,82526
 3.8000e+000 83356 -1.1469e+002 -3.1117e+002 -3.3295e+001 53189 83379,83088,83036
 3.8000e+000 83333 -1.1101e+002 -3.5020e+002 -3.0418e+001 53189 83379,83036,82984
 3.8000e+000 83310 -5.4270e+001 -3.3026e+002  4.4550e+001 53189 82984,83192,83166
 3.8000e+000 83287  8.8039e+000 -2.5682e+002 -2.3715e+001 53189 83036,83088,83062
 3.8000e+000 83264 -8.8883e+001 -3.9014e+002 -5.4607e+001 53189 82984,83036,83010
 3.8000e+000 83241 -7.9155e+001 -3.9208e+002  7.6992e+000 53189 83114,83166,83140
 3.8000e+000 83218 -1.5561e+002 -4.0632e+002  1.2816e+000 53189 83088,83166,83114
 3.8000e+000 83405 -1.1461e+002 -3.3764e+002 -1.6986e+001 53189 83166,83088,83379
 3.8000e+000 83428 -1.0523e+002 -3.7225e+002 -1.6562e+001 53189 83166,83379,82984
 3.8000e+000 83725 -1.6465e+002 -4.6969e+002 -3.9263e+001 52585 83748,83529,83503
 3.8000e+000 83702 -1.2420e+002 -4.5644e+002 -2.4489e+001 52585 83820,83748,83503
 3.8000e+000 83679 -8.5265e+001 -4.4886e+002 -2.1100e+001 52585 83820,83503,83477
 3.8000e+000 83656 -5.2096e+001 -4.1389e+002  6.0137e+001 52585 83477,83607,83581
 3.8000e+000 83633  4.5213e+001 -3.7221e+002  6.3768e+001 52585 83451,83607,83477
 3.8000e+000 83774 -1.4348e+002 -4.1738e+002 -3.5146e+001 52585 83555,83529,83748
 3.8000e+000 83797 -1.8647e+002 -4.5213e+002 -1.9901e+001 52585 83555,83748,83581
 3.8000e+000 83846 -1.6102e+002 -4.3671e+002 -4.8269e+000 52585 83581,83748,83820
 3.8000e+000 83869 -1.3213e+002 -4.3518e+002 -5.4848e+000 52585 83581,83820,83477
 3.8000e+000 84200 -1.1867e+002 -4.2770e+002 -1.5731e+001 52024 84001,84105,84079
 3.8000e+000 84177 -6.0810e+001 -4.1678e+002 -2.9759e+001 52024 83975,84105,84001
 3.8000e+000 84154 -1.0532e+002 -4.2801e+002 -1.3317e+001 52024 84001,84079,84053
 3.8000e+000 84131 -5.1193e+001 -2.8571e+002  5.2014e+001 52024 84001,84053,84027
 3.8000e+000 84399 -9.7983e+001 -4.2154e+002 -4.1875e-001 51470 84422,84275,84249
 3.8000e+000 84376 -8.7635e+001 -4.0371e+002  4.7955e+000 51470 84422,84249,84223
 3.8000e+000 84353 -1.1386e+002 -4.4196e+002 -6.0974e+001 51470 84275,84327,84301
 3.8000e+000 84448 -1.0853e+002 -4.0424e+002 -1.0868e+000 51470 84327,84275,84422
 3.8000e+000 84471 -1.0051e+002 -3.8984e+002  3.6274e+000 51470 84327,84422,84223
 3.8000e+000 84753 -1.2651e+002 -3.6059e+002 -1.9782e+000 51073 84603,84655,84629
 3.8000e+000 84730 -2.6060e+002 -4.2221e+002 -1.8947e+001 51073 84776,84655,84603
 3.8000e+000 84707 -5.0147e+001 -3.6842e+002 -1.0405e+002 51073 84577,84681,84655
 3.8000e+000 84802 -1.6294e+002 -3.6820e+002 -4.7739e+001 51073 84577,84655,84776
 3.8000e+000 85178 -2.1991e+002 -4.7846e+002  4.4163e+001 50519 85201,85008,84982
 3.8000e+000 85155 -2.0840e+002 -4.4399e+002  3.1667e+001 50519 85273,85201,84982
 3.8000e+000 85132 -1.9521e+002 -4.4464e+002  2.3166e+001 50519 85273,84982,84930
 3.8000e+000 85109 -1.9054e+002 -4.3580e+002  2.0532e+001 50519 84930,84982,84956
 3.8000e+000 85086 -1.7384e+002 -4.3537e+002  1.9028e+001 50519 85008,85060,85034
 3.8000e+000 85227 -1.8073e+002 -4.5396e+002  1.9893e+001 50519 85060,85008,85201
 3.8000e+000 85250 -2.0528e+002 -4.5529e+002  1.3392e+001 50519 85060,85201,84904
 3.8000e+000 85299 -1.9374e+002 -4.4855e+002  1.0538e+001 50519 84904,85201,85273
 3.8000e+000 85322 -1.4961e+002 -3.9673e+002 -9.5108e+000 50519 84904,85273,84930
 3.8000e+000 85958 -1.2247e+002 -3.9389e+002 -1.3942e+001 50093 85981,85768,85716
 3.8000e+000 85935 -1.0832e+002 -3.5695e+002 -1.6657e+001 50093 85981,85716,85612
 3.8000e+000 85912 -1.5920e+002 -3.7131e+002  6.0518e+000 50093 85612,85716,85664
 3.8000e+000 85889 -8.9325e+001 -3.8862e+002 -5.2828e+000 50093 85716,85768,85742
 3.8000e+000 85866 -1.2918e+002 -2.8266e+002 -8.3375e+001 50093 85664,85716,85690
 3.8000e+000 85843 -4.8057e+001 -2.7034e+002 -1.5277e+001 50093 85586,85794,85612
 3.8000e+000 85820 -1.0751e+002 -5.0059e+002  4.1285e+001 50093 85612,85664,85638
 3.8000e+000 86007 -1.4938e+002 -4.2413e+002 -6.6590e+001 50093 85794,85768,85981
 3.8000e+000 86030 -1.0599e+002 -3.1789e+002 -5.6176e+001 50093 85794,85981,85612
 3.8000e+000 86131 -1.3925e+002 -4.3892e+002  5.9597e+001 49895 86053,86105,86079
 3.8000e+000 86639 -9.6305e+001 -2.7636e+002 -5.6856e+001 49391 86662,86394,86368
 3.8000e+000 86616 -1.1310e+002 -3.3549e+002 -5.0619e+001 49391 86662,86368,86342
 3.8000e+000 86593 -6.3284e+001 -3.3504e+002 -1.6161e+001 49391 86342,86498,86472
 3.8000e+000 86570 -4.1128e+001 -3.6866e+002 -1.9367e+001 49391 86316,86498,86342
 3.8000e+000 86547 -1.8604e+002 -5.1176e+002 -2.3847e+001 49391 86394,86472,86446
 3.8000e+000 86524 -1.1544e+001 -4.8083e+002  3.9348e+000 49391 86394,86446,86420
 3.8000e+000 86688 -1.0927e+002 -3.3170e+002 -3.1200e+001 49391 86472,86394,86662
 3.8000e+000 86711 -9.7101e+001 -3.5691e+002 -2.9912e+001 49391 86472,86662,86342
 3.8000e+000 87089 -1.4145e+002 -4.0846e+002  1.0571e+001 48987 86815,86919,86867
 3.8000e+000 87066 -1.4297e+002 -4.2015e+002  1.6379e+001 48987 86815,86971,86919
 3.8000e+000 87043 -5.3783e+001 -4.5245e+002 -4.0949e+001 48987 86867,86919,86893
 3.8000e+000 87020 -1.6182e+002 -4.6311e+002  3.4419e+001 48987 86815,86867,86841
 3.8000e+000 86997 -1.6078e+002 -3.5993e+002  5.7727e+001 48987 86919,86971,86945
 3.8000e+000 87467 -2.7071e+002 -4.0435e+002  1.9595e+001 48540 87490,87245,87219
 3.8000e+000 87444 -1.9737e+002 -3.7692e+002  1.5370e+000 48540 87562,87490,87219
 3.8000e+000 87421 -1.4632e+002 -3.5629e+002  1.7341e+001 48540 87562,87219,87349
 3.8000e+000 87398 -2.0606e+002 -3.1985e+002 -2.2956e+001 48540 87245,87297,87271
 3.8000e+000 87375 -1.1937e+002 -3.7324e+002  1.3446e+001 48540 87193,87349,87219
 3.8000e+000 87516 -1.8748e+002 -3.8728e+002  2.1173e+000 48540 87297,87245,87490
 3.8000e+000 87539 -1.8970e+002 -3.8574e+002  6.1878e+000 48540 87297,87490,87323
 3.8000e+000 87588 -1.4823e+002 -3.5356e+002  3.4633e+001 48540 87323,87490,87562
 3.8000e+000 87611 -1.2366e+002 -3.6001e+002  4.5175e+001 48540 87323,87562,87349
 3.8000e+000 87810 -1.9910e+002 -7.0648e+002 -5.0415e+001 48136 87660,87712,87686
 3.8000e+000 87787 -1.1470e+002 -4.1829e+002 -2.3304e+001 48136 87660,87738,87712
 3.8000e+000 87764 -2.6085e+002 -4.2933e+002 -7.2090e+001 48136 87634,87738,87660
 3.8000e+000 88205 -1.7498e+002 -4.3713e+002 -3.7018e+001 47210 88300,88228,87937
 3.8000e+000 88182 -1.5210e+002 -4.2407e+002 -1.0463e+001 47210 88228,87833,88041
 3.8000e+000 88159 -1.7756e+002 -4.6730e+002 -5.8973e+001 47210 88300,87937,87911
 3.8000e+000 88136 -1.7269e+002 -4.2493e+002 -5.1103e+001 47210 87833,87911,87859
 3.8000e+000 88113 -2.8821e+002 -3.8325e+002 -2.8307e+001 47210 87937,87989,87963
 3.8000e+000 88090 -1.4293e+002 -3.4528e+002  6.9650e+001 47210 87989,88041,88015
 3.8000e+000 88067 -1.9963e+002 -4.9317e+002 -6.6670e+001 47210 87859,87911,87885
 3.8000e+000 88254 -1.5533e+002 -3.6336e+002 -3.7609e+001 47210 87989,87937,88228
 3.8000e+000 88277 -1.8256e+002 -4.1736e+002 -1.3965e+001 47210 87989,88228,88041
 3.8000e+000 88326 -1.4507e+002 -4.0816e+002 -1.3455e+001 47210 87833,88228,88300
 3.8000e+000 88349 -1.5229e+002 -4.2815e+002 -3.6982e+001 47210 87833,88300,87911
 3.8000e+000 88780 -2.8546e+002 -4.9611e+002 -9.0978e+001 46642 88803,88509,88483
 3.8000e+000 88757 -2.0449e+002 -4.4650e+002 -4.9182e+001 46642 88803,88483,88639
 3.8000e+000 88734 -2.2800e+002 -3.6830e+002 -5.5480e+001 46642 88875,88561,88509
 3.8000e+000 88711 -2.3180e+002 -3.4293e+002 -1.0573e+001 46642 88509,88561,88535
 3.8000e+000 88688 -1.3432e+002 -5.0273e+002  1.4721e+000 46642 88457,88639,88483
 3.8000e+000 88665 -2.6324e+002 -6.0103e+002 -2.2926e+001 46642 88561,88613,88587
 3.8000e+000 88829 -2.3053e+002 -4.0139e+002 -6.2958e+001 46642 88875,88509,88803
 3.8000e+000 88852 -2.2515e+002 -4.8354e+002 -4.0919e+001 46642 88613,88803,88639
 3.8000e+000 88901 -1.8779e+002 -4.1449e+002 -2.7282e+001 46642 88613,88561,88875
 3.8000e+000 88924 -2.0502e+002 -4.6824e+002 -3.3778e+001 46642 88613,88875,88803
 3.8000e+000 89253 -8.5882e+001 -4.2448e+002  1.0083e+001 46444 89080,89158,89132
 3.8000e+000 89230 -1.0047e+002 -4.5730e+002  6.5170e+000 46444 89028,89158,89080
 3.8000e+000 89207 -3.6991e+001 -4.0287e+002 -1.6625e+001 46444 89028,89080,89054
 3.8000e+000 89184 -4.6244e+001 -4.5858e+002 -3.1706e+001 46444 89080,89132,89106
 3.8000e+000 89631 -1.1382e+002 -2.7936e+002  6.2445e+000 46040 89383,89461,89435
 3.8000e+000 89608 -1.2034e+002 -3.0854e+002 -1.7814e+001 46040 89383,89487,89461
 3.8000e+000 89585 -1.2480e+002 -3.6348e+002 -1.1114e+001 46040 89383,89435,89409
 3.8000e+000 89562 -9.6187e+001 -2.6320e+002 -3.7183e+001 46040 89383,89513,89487
 3.8000e+000 89539 -3.9464e+001 -2.3562e+002 -4.8739e+001 46040 89357,89513,89383
 3.8000e+000 90009 -1.1926e+002 -3.5345e+002 -1.7159e+000 45636 89813,89891,89839
 3.8000e+000 89986 -1.2346e+002 -3.3137e+002  1.8991e+001 45636 89787,89891,89813
 3.8000e+000 89963 -1.0503e+002 -3.2956e+002 -1.0210e+001 45636 89839,89891,89865
 3.8000e+000 89940 -1.4495e+002 -3.6787e+002  9.9235e+000 45636 89735,89891,89787
 3.8000e+000 89917 -1.1375e+002 -3.7277e+002 -1.7725e+001 45636 89735,89787,89761
 3.8000e+000 90208 -7.9787e+001 -2.7460e+002 -5.3820e+001 45175 90231,90058,90032
 3.8000e+000 90185 -4.7858e+001 -2.5083e+002 -8.1941e+001 45175 90231,90032,90136
 3.8000e+000 90162 -9.6275e+001 -2.2588e+002 -4.4263e+000 45175 90058,90110,90084
 3.8000e+000 90257 -1.1576e+002 -3.0936e+002 -1.3878e+001 45175 90110,90058,90231
 3.8000e+000 90280 -5.4584e+001 -2.6766e+002 -4.5242e+001 45175 90110,90231,90136
 3.8000e+000 90528 -8.8754e+001 -2.8402e+002 -3.7722e+001 44513 90695,90551,90407
 3.8000e+000 90505 -9.4453e+001 -2.5609e+002 -1.7403e+001 44513 90551,90355,90329
 3.8000e+000 90482 -1.1778e+002 -2.7995e+002 -3.4688e+001 44513 90623,90303,90433
 3.8000e+000 90459 -6.7394e+001 -2.6491e+002 -2.7862e+001 44513 90695,90407,90381
 3.8000e+000 90577 -1.2992e+002 -2.9734e+002 -6.4778e+001 44513 90433,90407,90551
 3.8000e+000 90600 -1.1138e+002 -2.7278e+002 -3.2000e+001 44513 90623,90433,90551
 3.8000e+000 90649 -1.1483e+002 -2.7071e+002 -3.0958e+001 44513 90329,90303,90623
 3.8000e+000 90672 -1.1560e+002 -2.7030e+002 -3.0900e+001 44513 90329,90623,90551
 3.8000e+000 90721 -1.1443e+002 -2.5912e+002 -4.2355e+001 44513 90355,90551,90695
 3.8000e+000 90744 -1.0797e+002 -2.5051e+002 -3.8701e+001 44513 90355,90695,90381
 3.8000e+000 91077 -3.8484e+000 -2.9821e+002 -2.0587e+001 44059 91100,90930,90904
 3.8000e+000 91054 -1.1564e+002 -3.2062e+002  1.4068e+001 44059 91100,90904,90982
 3.8000e+000 91031 -2.0723e+002 -3.7426e+002 -2.8136e+001 44059 90878,90982,90904
 3.8000e+000 91008 -6.4522e+001 -2.7904e+002  1.7253e+001 44059 90852,90982,90878
 3.8000e+000 91126 -1.6822e+002 -3.3895e+002 -2.4412e+001 44059 91172,91100,90956
 3.8000e+000 91149 -1.0810e+002 -3.0848e+002 -1.3609e+001 44059 90956,91100,90982
 3.8000e+000 91198 -9.4147e+000 -1.8439e+002 -8.7484e+001 44059 90930,91100,91172
 3.8000e+000 91677 -1.6038e+002 -2.4740e+002  2.4326e+001 43549 91455,91533,91481
 3.8000e+000 91654 -7.0456e+001 -2.5117e+002  3.2637e+001 43549 91429,91533,91455
 3.8000e+000 91631 -1.5441e+002 -2.4601e+002  1.2057e+001 43549 91481,91533,91507
 3.8000e+000 91608 -3.9547e+001 -2.3833e+002  1.6138e+001 43549 91429,91559,91533
 3.8000e+000 91585 -6.7102e+000 -8.9465e+001  1.9702e+000 43549 91403,91559,91429
 3.8000e+000 92006 -1.4555e+002 -3.6500e+002  1.0354e+000 43059 91781,91885,91807
 3.8000e+000 91983 -1.5117e+002 -3.4284e+002  5.6115e+001 43059 91781,91911,91885
 3.8000e+000 91960 -1.4505e+002 -3.6617e+002  1.7505e+000 43059 91807,91885,91833
 3.8000e+000 91937 -9.4190e+001 -3.4721e+002 -6.9120e+000 43059 91833,91885,91859
 3.8000e+000 92561 -1.2465e+002 -2.6795e+002 -2.9932e+001 42598 92584,92215,92189
 3.8000e+000 92538 -1.3457e+002 -3.0362e+002 -2.8810e+001 42598 92656,92584,92189
 3.8000e+000 92515 -1.2075e+002 -3.4351e+002 -8.3821e+000 42598 92656,92189,92397
 3.8000e+000 92492 -1.5310e+002 -2.4074e+002 -3.6392e+001 42598 92241,92319,92293
 3.8000e+000 92469 -1.4711e+002 -2.8515e+002  1.5264e+001 42598 92319,92397,92371
 3.8000e+000 92446 -6.0669e+001 -3.2720e+002  1.3119e+002 42598 92319,92371,92345
 3.8000e+000 92423 -1.5083e+002 -2.4735e+002 -4.9773e+001 42598 92241,92293,92267
 3.8000e+000 92610 -1.3113e+002 -2.6885e+002 -2.7397e+001 42598 92241,92215,92584
 3.8000e+000 92633 -1.2115e+002 -2.4686e+002 -3.6113e+001 42598 92241,92584,92319
 3.8000e+000 92682 -1.2277e+002 -2.5033e+002 -2.0870e+001 42598 92319,92584,92656
 3.8000e+000 92705 -9.9517e+001 -2.7760e+002 -5.7090e+000 42598 92319,92656,92397
 3.8000e+000 92953 -1.5073e+002 -3.9550e+002  2.1280e+001 42094 92976,92806,92780
 3.8000e+000 92930 -1.6706e+002 -3.7354e+002  5.1589e-001 42094 92976,92780,92754
 3.8000e+000 92907 -3.5133e+001 -3.8362e+002 -1.9786e+000 42094 93048,92832,92806
 3.8000e+000 92884 -2.1581e+002 -3.7865e+002 -2.4673e+001 42094 92728,92858,92754
 3.8000e+000 93002 -9.6492e+001 -3.6659e+002  1.0495e+001 42094 93048,92806,92976
 3.8000e+000 93025 -1.5603e+002 -3.6737e+002 -5.4158e+000 42094 92858,92976,92754
 3.8000e+000 93074 -1.2069e+002 -4.1516e+002 -4.1094e+000 42094 92858,92832,93048
 3.8000e+000 93097 -1.7105e+002 -3.9151e+002  3.1478e+000 42094 92858,93048,92976
 3.8000e+000 93605 -1.6144e+002 -4.5958e+002 -1.6207e+001 41846 93628,93412,93386
 3.8000e+000 93582 -1.2127e+002 -3.4798e+002 -9.1845e-001 41846 93628,93386,93308
 3.8000e+000 93559 -1.8731e+002 -3.6490e+002 -7.5395e+001 41846 93700,93464,93438
 3.8000e+000 93536 -1.7176e+002 -4.8075e+002  6.7685e+000 41846 93308,93386,93334
 3.8000e+000 93513 -2.2641e+002 -3.5173e+002 -5.4550e+001 41846 93334,93386,93360
 3.8000e+000 93490 -1.8014e+002 -3.2322e+002 -7.1059e+001 41846 93282,93464,93308
 3.8000e+000 93654 -1.4016e+002 -3.6901e+002 -3.3707e+001 41846 93438,93412,93628
 3.8000e+000 93677 -1.8690e+002 -3.7216e+002 -3.4670e+001 41846 93700,93438,93628
 3.8000e+000 93726 -1.6988e+002 -3.1464e+002 -6.7350e+001 41846 93308,93464,93700
 3.8000e+000 93749 -1.6261e+002 -3.0606e+002 -2.7146e+001 41846 93308,93700,93628
 3.8000e+000 94255 -1.2537e+002 -3.7434e+002  2.3793e+001 41385 93958,94114,94088
 3.8000e+000 94232 -1.1120e+002 -4.0091e+002  1.0886e+001 41385 93932,94114,93958
 3.8000e+000 94209 -2.1770e+002 -4.3420e+002  6.9762e+001 41385 93958,94088,94062
 3.8000e+000 94186 -2.2638e+002 -3.1568e+002  5.1310e+001 41385 93958,94062,93984
 3.8000e+000 94163 -1.9920e+002 -3.0812e+002  4.9187e+001 41385 93984,94062,94036
 3.8000e+000 94140 -1.3667e+002 -4.3181e+002  7.4128e+001 41385 93984,94036,94010
 3.8000e+000 94476 -3.7774e+001 -5.0455e+002  3.0546e+001 40881 94326,94378,94352
 3.8000e+000 94453 -8.3745e+001 -4.1489e+002  3.3697e+001 40881 94300,94378,94326
 3.8000e+000 94430 -1.0329e+002 -3.8242e+002  3.5476e+000 40881 94300,94404,94378
 3.8000e+000 94626 -1.1858e+002 -3.1104e+002 -4.1911e+000 40591 94649,94551,94525
 3.8000e+000 94603 -6.4063e+001 -1.9366e+002  9.6281e-001 40591 94781,94577,94551
 3.8000e+000 94675 -4.1301e+001 -2.2499e+002 -3.7632e+001 40591 94781,94551,94649
 3.8000e+000 94807 -4.8579e+000 -1.3416e+002  3.6732e+001 40591 94499,94577,94781
 3.8000e+000 94830  6.9584e-001 -1.9726e+002 -3.7304e+000 40591 94499,94781,94649
 3.8000e+000 95336 -2.5555e+002 -3.5045e+002 -5.3358e+001 40187 95013,95169,95039
 3.8000e+000 95313 -5.6442e+001 -3.1745e+002  7.8994e+000 40187 95013,95195,95169
 3.8000e+000 95290 -4.3770e+001 -3.4555e+002 -3.6798e+001 40187 95039,95143,95065
 3.8000e+000 95267 -1.9556e+002 -4.0503e+002 -5.9186e+001 40187 95039,95169,95143
 3.8000e+000 95244 -9.2703e+001 -3.2974e+002 -3.4817e+001 40187 95091,95143,95117
 3.8000e+000 95221 -3.0807e+001 -2.0962e+002 -1.3170e+001 40187 95065,95143,95091
 3.8000e+000 95665 -1.0147e+002 -2.7552e+002  1.1110e+002 39626 95466,95570,95544
 3.8000e+000 95642 -1.8425e+002 -2.2411e+002  7.2094e+001 39626 95440,95570,95466
 3.8000e+000 95619 -2.7906e+002 -3.5866e+002  7.1157e+001 39626 95466,95544,95492
 3.8000e+000 95596 -6.3575e+001 -2.7889e+002  1.0987e+002 39626 95492,95544,95518
 3.8000e+000 95913 -1.4724e+002 -3.2463e+002 -4.7756e+001 39136 96080,95936,95766
 3.8000e+000 95890 -1.0164e+002 -3.4774e+002 -2.8779e+001 39136 95936,95714,95688
 3.8000e+000 95867 -2.5845e+002 -3.4688e+002  1.3028e+001 39136 96008,95792,95766
 3.8000e+000 95844 -1.2085e+002 -3.1502e+002 -3.6136e+001 39136 96080,95766,95740
 3.8000e+000 95962 -2.0498e+002 -3.5945e+002 -3.1229e+001 39136 96008,95766,95936
 3.8000e+000 95985 -1.3261e+002 -4.2188e+002 -7.3699e+000 39136 95818,95936,95688
 3.8000e+000 96034 -1.2919e+002 -2.9065e+002  2.1274e+001 39136 95818,95792,96008
 3.8000e+000 96057 -1.1504e+002 -3.1863e+002 -2.2192e+001 39136 95818,96008,95936
 3.8000e+000 96106 -1.3437e+002 -3.2108e+002 -1.2596e+001 39136 95714,95936,96080
 3.8000e+000 96129 -9.3301e+001 -3.0974e+002 -3.5821e+000 39136 95714,96080,95740
 3.8000e+000 96350 -1.2057e+002 -2.8765e+002 -1.4162e+001 38824 96200,96278,96252
 3.8000e+000 96327 -1.0766e+002 -2.8154e+002 -1.2362e+001 38824 96174,96278,96200
 3.8000e+000 96304 -4.5943e+001 -2.5820e+002 -4.1315e+001 38824 96200,96252,96226
 3.8000e+000 96830 -1.7302e+002 -3.0183e+002 -1.9379e+001 38320 97069,96536,96484
 3.8000e+000 96807 -1.7011e+002 -3.0617e+002 -1.9122e+001 38320 97069,96484,96853
 3.8000e+000 96784 -1.8962e+002 -3.2875e+002  7.5898e+000 38320 96853,96484,96458
 3.8000e+000 96761 -1.0085e+002 -2.6548e+002 -3.1325e+001 38320 96925,96640,96614
 3.8000e+000 96738 -1.6342e+002 -2.7838e+002 -1.3888e+001 38320 96997,96666,96640
 3.8000e+000 96715 -1.3570e+002 -3.6079e+002 -5.4703e+000 38320 97141,96588,96562
 3.8000e+000 96692 -2.1614e+002 -3.5092e+002 -2.9293e-001 38320 96484,96536,96510
 3.8000e+000 96879 -1.6866e+002 -3.2464e+002 -9.9794e+000 38320 97141,96562,96853
 3.8000e+000 96902 -1.5629e+002 -3.1738e+002 -9.8839e+000 38320 96925,96614,96853
 3.8000e+000 96951 -1.5940e+002 -2.7552e+002 -1.5635e+001 38320 96997,96640,96925
 3.8000e+000 96974 -1.5320e+002 -2.6947e+002 -8.6287e+000 38320 96458,96925,96853
 3.8000e+000 97023 -1.8160e+002 -2.8138e+002 -4.2472e+000 38320 96458,96666,96997
 3.8000e+000 97046 -1.6694e+002 -2.7444e+002 -6.1892e+000 38320 96458,96997,96925
 3.8000e+000 97095 -1.8542e+002 -3.0191e+002  4.3391e+000 38320 96562,96536,97069
 3.8000e+000 97118 -1.6126e+002 -3.0424e+002 -1.5450e+001 38320 96562,97069,96853
 3.8000e+000 97167 -7.7347e+001 -3.2778e+002 -2.0884e+001 38320 96614,96588,97141
 3.8000e+000 97190 -1.3171e+002 -3.0723e+002 -2.1184e+001 38320 96614,97141,96853
 3.8000e+000 97519 -1.2902e+002 -3.8181e+002  1.0093e+002 37766 97542,97398,97372
 3.8000e+000 97496 -1.5382e+002 -3.0407e+002  7.0578e+001 37766 97542,97372,97346
 3.8000e+000 97473 -1.5479e+002 -3.1533e+002  9.0355e+000 37766 97294,97424,97346
 3.8000e+000 97450 -1.7292e+002 -3.7094e+002  1.7032e+000 37766 97294,97346,97320
 3.8000e+000 97568 -6.9868e+001 -3.9823e+002  3.6700e+001 37766 97424,97398,97542
 3.8000e+000 97591 -1.0942e+002 -3.0979e+002  1.1551e+001 37766 97424,97542,97346
 3.8000e+000 98048 -1.6034e+002 -2.3304e+002 -7.8546e+001 37262 98071,97878,97852
 3.8000e+000 98025 -1.3601e+002 -2.7977e+002 -3.3254e+001 37262 98071,97852,97800
 3.8000e+000 98002 -1.6269e+002 -3.5146e+002 -2.9554e+001 37262 97800,97852,97826
 3.8000e+000 97979 -1.6516e+002 -3.0506e+002  1.0216e+001 37262 97800,97930,97904
 3.8000e+000 97956 -1.1293e+002 -3.7601e+002  2.5248e+001 37262 97774,97930,97800
 3.8000e+000 98097 -2.2702e+002 -2.6570e+002 -5.5579e+001 37262 97904,97878,98071
 3.8000e+000 98120 -1.7305e+002 -3.1863e+002 -1.4608e+001 37262 97904,98071,97800
 3.8000e+000 98449 -8.0106e+001 -2.2375e+002 -2.6798e+001 36950 98472,98302,98250
 3.8000e+000 98426 -4.6963e+001 -2.1310e+002 -3.2987e+001 36950 98472,98250,98354
 3.8000e+000 98403 -1.2426e+002 -2.4612e+002  2.8574e+001 36950 98250,98302,98276
 3.8000e+000 98380 -3.0465e+001 -1.6916e+002  1.6470e+001 36950 98224,98354,98250
 3.8000e+000 98498 -5.5725e+001 -2.5073e+002 -7.2233e+000 36950 98328,98302,98472
 3.8000e+000 98521 -1.6989e+001 -2.3485e+002 -1.8952e+001 36950 98328,98472,98354
 3.8000e+000 99125 -1.7586e+002 -1.7767e+002  1.7346e+001 36296 98704,98756,98730
 3.8000e+000 99102 -1.6993e+002 -1.9724e+002  1.6082e+001 36296 98704,98938,98756
 3.8000e+000 99079 -1.2450e+002 -2.3912e+002 -5.7508e+000 36296 99148,98938,98912
 3.8000e+000 99056 -1.3381e+002 -2.4608e+002  5.6570e+001 36296 99292,99220,98782
 3.8000e+000 99033 -1.0835e+002 -2.7373e+002  6.5665e+000 36296 99148,98912,98834
 3.8000e+000 99010 -1.2555e+002 -2.0755e+002  6.1450e+001 36296 99292,98782,98756
 3.8000e+000 98987 -1.0291e+002 -4.8152e+002 -8.7868e+001 36296 98834,98912,98886
 3.8000e+000 98964 -1.7628e+002 -7.0409e+002 -1.1244e+002 36296 98834,98886,98860
 3.8000e+000 99174 -1.5283e+002 -2.9394e+002  8.6188e+000 36296 99220,98938,99148
 3.8000e+000 99197 -1.0664e+002 -3.3502e+002  3.6616e+001 36296 98808,99148,98834
 3.8000e+000 99246 -1.3181e+002 -2.4008e+002  1.3785e+002 36296 98808,98782,99220
 3.8000e+000 99269 -5.3163e+001 -2.1198e+002  4.5073e+001 36296 98808,99220,99148
 3.8000e+000 99318 -1.4022e+002 -2.0761e+002  2.9997e+001 36296 98938,99220,99292
 3.8000e+000 99341 -1.4350e+002 -2.1379e+002  3.5263e+001 36296 98938,99292,98756
 3.8000e+000 99719 -1.7761e+002 -3.7077e+002  4.1464e-001 35742 99742,99471,99601
 3.8000e+000 99696 -1.8304e+002 -2.9286e+002  3.5239e+001 35742 99445,99601,99471
 3.8000e+000 99673 -1.6996e+002 -3.5335e+002 -1.5918e+001 35742 99742,99601,99575
 3.8000e+000 99650 -1.4732e+002 -4.3216e+002 -1.2417e+001 35742 99814,99549,99523
 3.8000e+000 99627 -1.1802e+002 -3.3717e+002 -2.9715e+000 35742 99471,99523,99497
 3.8000e+000 99768 -1.4227e+002 -3.6237e+002  7.2796e+000 35742 99523,99471,99742
 3.8000e+000 99791 -1.6691e+002 -4.0019e+002 -1.0919e+001 35742 99814,99523,99742
 3.8000e+000 99840 -1.4350e+002 -3.9265e+002 -2.4647e+001 35742 99575,99549,99814
 3.8000e+000 99863 -1.5639e+002 -3.5127e+002 -2.2171e+001 35742 99575,99814,99742
 3.8000e+000 100111 -1.3361e+002 -2.9851e+002  2.1189e+001 35302 100134,99990,99938
 3.8000e+000 100088 -1.1133e+002 -2.7363e+002  6.5026e+000 35302 100134,99938,99912
 3.8000e+000 100065 -1.1169e+002 -2.7228e+002 -7.1747e+000 35302 100206,99886,100016
 3.8000e+000 100042 -1.7572e+002 -2.7154e+002  1.3412e+001 35302 99938,99990,99964
 3.8000e+000 100160 -1.0385e+002 -2.8715e+002  5.3994e+000 35302 100016,99990,100134
 3.8000e+000 100183 -1.0646e+002 -2.7671e+002 -7.0402e+000 35302 100206,100016,100134
 3.8000e+000 100232 -1.1608e+002 -2.7757e+002 -3.8370e+000 35302 99912,99886,100206
 3.8000e+000 100255 -1.1123e+002 -2.8316e+002 -3.8887e+000 35302 99912,100206,100134
 3.8000e+000 100586 -1.6609e+002 -1.9944e+002  4.9257e+001 35012 100609,100387,100361
 3.8000e+000 100563 -2.0080e+002 -1.5489e+002 -3.6589e+001 35012 100609,100361,100465
 3.8000e+000 100540 -9.5587e+001 -1.1339e+002 -8.2523e+001 35012 100361,100491,100465
 3.8000e+000 100517 -3.6893e+001 -1.2143e+002 -7.2059e+001 35012 100413,100465,100439
 3.8000e+000 100635 -7.7753e+001 -1.6098e+002  2.3802e+001 35012 100413,100387,100609
 3.8000e+000 100658 -1.1054e+002 -1.0600e+002 -6.4323e+001 35012 100413,100609,100465
 3.8000e+000 100987 -1.4009e+002 -3.0658e+002  2.9565e+001 34700 100788,100866,100814
 3.8000e+000 100964 -1.1578e+002 -2.4783e+002  4.6862e+001 34700 101010,100866,100788
 3.8000e+000 100941 -8.1907e+001 -1.8877e+002  4.9819e+001 34700 100762,100892,100866
 3.8000e+000 100918 -1.3352e+002 -2.8760e+002  1.7114e+001 34700 100814,100866,100840
 3.8000e+000 101036 -7.8377e+001 -2.1892e+002  7.2736e+001 34700 100762,100866,101010
 3.8000e+000 101493 -1.8556e+002 -3.4755e+002 -3.2259e+001 34132 101516,101349,101297
 3.8000e+000 101470 -2.2082e+002 -4.1630e+002 -5.0517e+001 34132 101588,101516,101297
 3.8000e+000 101447 -2.2223e+002 -4.3982e+002 -7.3825e+001 34132 101588,101297,101245
 3.8000e+000 101424 -1.3422e+002 -5.1432e+002 -6.8995e+001 34132 101245,101297,101271
 3.8000e+000 101401 -2.1575e+002 -3.5183e+002 -4.0917e+001 34132 101297,101349,101323
 3.8000e+000 101542 -1.9490e+002 -4.0102e+002 -2.5104e+001 34132 101375,101349,101516
 3.8000e+000 101565 -1.7199e+002 -3.9648e+002 -2.4840e+001 34132 101375,101516,101219
 3.8000e+000 101614 -1.7615e+002 -4.1905e+002 -2.5759e+001 34132 101219,101516,101588
 3.8000e+000 101637 -1.9894e+002 -4.4150e+002 -4.7994e+001 34132 101219,101588,101245
 3.8000e+000 101858 -8.1203e+001 -3.0788e+002  2.7595e+001 33720 101708,101786,101760
 3.8000e+000 101835 -6.5528e+001 -3.3838e+002  3.8985e+001 33720 101682,101786,101708
 3.8000e+000 101812 -1.1939e+002 -3.2728e+002  1.9022e+001 33720 101708,101760,101734
 3.8000e+000 102128 -3.8575e+001 -3.5969e+002 -9.6606e+000 33130 101903,102007,101929
 3.8000e+000 102105 -4.8523e+001 -4.1556e+002  1.3394e+001 33130 101903,102033,102007
 3.8000e+000 102082 -1.9198e+001 -4.3185e+002 -8.6433e+001 33130 101929,102007,101955
 3.8000e+000 102059 -6.3615e+001 -3.0507e+002  6.4381e+000 33130 101955,102007,101981
 3.8000e+000 102461 -1.4424e+002 -3.1537e+002 -2.6404e+001 32840 102236,102340,102262
 3.8000e+000 102438 -1.2549e+002 -2.2508e+002  8.4262e+000 32840 102236,102366,102340
 3.8000e+000 102415 -9.2050e+001 -3.0166e+002 -2.2161e+001 32840 102262,102340,102288
 3.8000e+000 102392 -1.7088e+002 -3.2115e+002 -5.9389e+001 32840 102288,102340,102314
 3.8000e+000 102997 -1.2029e+002 -2.0543e+002  5.8369e+001 32493 102749,102879,102853
 3.8000e+000 102974 -9.6870e+001 -1.6035e+002  4.0520e+001 32493 102723,102879,102749
 3.8000e+000 102951 -1.4144e+002 -2.5060e+002  3.9169e+001 32493 102749,102801,102775
 3.8000e+000 102928 -1.5075e+002 -2.4879e+002  3.7593e+001 32493 102749,102853,102801
 3.8000e+000 102905 -1.4123e+002 -2.3316e+002  3.0658e+001 32493 102801,102853,102827
 3.8000e+000 103454 -1.4619e+002 -2.5838e+002 -2.6710e+001 32089 103206,103336,103310
 3.8000e+000 103431 -1.1836e+002 -2.7169e+002 -5.0186e+000 32089 103180,103336,103206
 3.8000e+000 103408 -1.5914e+002 -3.0230e+002 -4.8697e+001 32089 103206,103284,103258
 3.8000e+000 103385 -2.2580e+002 -3.1072e+002 -5.9519e+001 32089 103206,103310,103284
 3.8000e+000 103362 -1.2471e+002 -2.1200e+002 -2.3713e+001 32089 103206,103258,103232
 3.8000e+000 103783 -2.4700e+002 -3.2333e+002 -3.6972e+001 31742 103558,103662,103584
 3.8000e+000 103760 -1.9929e+002 -2.4606e+002 -8.2532e+001 31742 103558,103688,103662
 3.8000e+000 103737 -1.6211e+002 -2.5687e+002 -6.9561e+001 31742 103584,103662,103636
 3.8000e+000 103714 -1.5195e+002 -2.8479e+002 -7.6638e+001 31742 103584,103636,103610
 3.8000e+000 104112 -9.6505e+000 -2.6009e+002  6.1249e+001 31402 103939,103991,103965
 3.8000e+000 104089 -7.4210e+001 -2.1808e+002  2.4770e+001 31402 103913,103991,103939
 3.8000e+000 104066 -1.0551e+002 -2.4563e+002  1.0451e+001 31402 103913,104017,103991
 3.8000e+000 104043 -1.2941e+002 -2.3156e+002 -5.4419e+000 31402 103887,104017,103913
 3.8000e+000 104569 -2.3176e+002 -3.9495e+002  7.7244e+000 30998 104321,104425,104373
 3.8000e+000 104546 -2.5972e+002 -4.0314e+002  3.1069e+000 30998 104321,104451,104425
 3.8000e+000 104523 -1.8534e+002 -3.3365e+002  4.0708e+001 30998 104373,104425,104399
 3.8000e+000 104500 -2.1307e+002 -4.6535e+002 -2.7373e+001 30998 104295,104451,104321
 3.8000e+000 104477 -3.0294e+002 -4.6232e+002  7.7327e+001 30998 104321,104373,104347
 3.8000e+000 104947 -1.8912e+002 -3.3050e+002 -3.6172e+001 30608 104751,104803,104777
 3.8000e+000 104924 -1.3104e+002 -3.4668e+002 -1.4653e+001 30608 104725,104803,104751
 3.8000e+000 104901 -2.0168e+002 -3.3378e+002  2.2133e+001 30608 104699,104803,104725
 3.8000e+000 104878 -1.8019e+002 -3.2515e+002  2.1551e+001 30608 104673,104803,104699
 3.8000e+000 104855 -1.3923e+002 -3.1155e+002 -1.1185e+001 30608 104673,104829,104803
 3.8000e+000 105276 -1.1982e+002 -3.0817e+002  1.1671e+001 30204 105427,105129,105077
 3.8000e+000 105253 -6.8942e+001 -3.3070e+002  7.3555e+001 30204 105427,105077,105051
 3.8000e+000 105230 -1.2330e+002 -3.1305e+002  9.2534e+000 30204 105077,105129,105103
 3.8000e+000 105207 -8.8444e+001 -2.7721e+002  3.7072e+001 30204 105299,105181,105155
 3.8000e+000 105325 -9.9265e+001 -2.7563e+002  1.2956e+001 30204 105129,105181,105299
 3.8000e+000 105453 -1.5189e+002 -3.2748e+002  3.3981e+001 30204 105181,105129,105427
 3.8000e+000 105476 -1.7866e+002 -3.8539e+002  1.0340e+002 30204 105181,105427,105051
 3.8000e+000 105903 -1.1064e+002 -2.6128e+002 -2.1046e+001 29700 105606,105762,105736
 3.8000e+000 105880 -1.4150e+002 -2.6731e+002  1.0116e+000 29700 105580,105762,105606
 3.8000e+000 105857 -1.6814e+002 -3.3099e+002 -2.0465e+001 29700 105606,105710,105632
 3.8000e+000 105834 -1.3997e+002 -2.7719e+002 -1.0126e+001 29700 105606,105736,105710
 3.8000e+000 105811 -1.5974e+002 -3.0016e+002 -2.2571e+001 29700 105632,105710,105684
 3.8000e+000 105788 -1.4930e+002 -2.7538e+002 -1.5219e+001 29700 105632,105684,105658
 3.8000e+000 106102 -5.5355e+001 -3.3520e+002  1.3425e+001 29124 105978,106030,106004
 3.8000e+000 106079 -8.9834e+001 -3.2782e+002  1.4919e+001 29124 105926,106030,105978
 3.8000e+000 106056 -1.0608e+002 -3.8353e+002  3.9955e+001 29124 105926,105978,105952
 3.8000e+000 106301 -8.6530e+001 -3.2010e+002  9.8865e-001 28712 106151,106229,106203
 3.8000e+000 106278 -1.0265e+002 -3.5385e+002 -1.6271e+001 28712 106125,106229,106151
 3.8000e+000 106255 -9.1179e+001 -3.3793e+002  1.8170e+001 28712 106151,106203,106177
 3.8000e+000 106551 -1.0395e+002 -3.9845e+002  1.4447e+001 28258 106352,106404,106378
 3.8000e+000 106528 -1.5398e+002 -4.1002e+002  4.7727e+000 28258 106352,106456,106404
 3.8000e+000 106505 -1.1112e+002 -4.3301e+002 -2.9722e+000 28258 106326,106456,106352
 3.8000e+000 106482 -1.3495e+002 -3.8163e+002 -7.6880e+000 28258 106404,106456,106430
 3.8000e+000 107012 -1.3392e+002 -3.4375e+002  6.9080e+001 27818 107035,106790,106764
 3.8000e+000 106989 -1.1653e+002 -3.2677e+002  2.5631e+001 27818 107035,106764,106868
 3.8000e+000 106966 -8.1964e+001 -3.8906e+002  3.7851e+001 27818 107107,106842,106816
 3.8000e+000 106943 -1.7837e+002 -3.0580e+002  1.4848e+001 27818 106738,106868,106764
 3.8000e+000 106920 -1.6724e+002 -2.7065e+002  3.0020e+001 27818 106738,106894,106868
 3.8000e+000 107061 -5.7803e+001 -3.2787e+002  7.8066e+001 27818 106816,106790,107035
 3.8000e+000 107084 -1.0201e+002 -3.6431e+002  3.9721e+001 27818 107107,106816,107035
 3.8000e+000 107133 -7.8209e+001 -3.5300e+002  2.0316e+001 27818 106868,106842,107107
 3.8000e+000 107156 -9.1231e+001 -3.1607e+002  2.6748e+001 27818 106868,107107,107035
 3.8000e+000 107613 -4.0939e+001 -2.6065e+002  5.6424e+001 27312 107339,107469,107365
 3.8000e+000 107590 -4.5353e+000 -2.3857e+002  4.7116e+001 27312 107339,107495,107469
 3.8000e+000 107567 -4.3883e+001 -2.5400e+002  2.7233e+001 27312 107391,107469,107443
 3.8000e+000 107544 -4.6722e+001 -2.7446e+002  2.2282e+001 27312 107365,107469,107391
 3.8000e+000 107521 -1.1941e+002 -2.7783e+002  9.9479e+000 27312 107391,107443,107417
 3.8000e+000 107991 -1.4216e+002 -3.8841e+002  6.7293e+000 26858 108086,108014,107795
 3.8000e+000 107968 -1.5570e+002 -4.1082e+002 -4.6180e+001 26858 108014,107717,107873
 3.8000e+000 107945 -1.6645e+002 -4.0731e+002  2.4051e+001 26858 108158,108086,107795
 3.8000e+000 107922 -1.3685e+002 -4.0268e+002  2.1022e+001 26858 108158,107795,107769
 3.8000e+000 107899 -8.6537e+001 -5.0418e+002  7.0255e+001 26858 107821,107873,107847
 3.8000e+000 108040 -1.4567e+002 -4.4904e+002  1.9942e+001 26858 107821,107795,108014
 3.8000e+000 108063 -6.0275e+001 -4.2902e+002 -1.0931e+001 26858 107821,108014,107873
 3.8000e+000 108112 -2.0582e+002 -4.1303e+002  1.5018e+001 26858 107717,108014,108086
 3.8000e+000 108135 -1.6982e+002 -4.2868e+002  4.5288e+001 26858 107717,108086,107743
 3.8000e+000 108184 -1.3149e+002 -4.0621e+002  3.4317e+001 26858 107743,108086,108158
 3.8000e+000 108207 -1.1911e+002 -4.1391e+002  3.3767e+001 26858 107743,108158,107769
 3.8000e+000 108634 -1.8933e+002 -3.8193e+002  4.9645e+000 26404 108657,108415,108363
 3.8000e+000 108611 -2.1197e+002 -4.1233e+002  3.9139e+001 26404 108657,108363,108337
 3.8000e+000 108588 -1.8560e+002 -3.7937e+002  4.5080e+001 26404 108729,108311,108467
 3.8000e+000 108565 -2.1342e+002 -4.4180e+002  1.9332e+000 26404 108801,108441,108415
 3.8000e+000 108542 -2.7880e+002 -4.2216e+002  5.6722e+001 26404 108311,108493,108467
 3.8000e+000 108519 -1.3337e+002 -3.8091e+002  5.8946e+000 26404 108363,108415,108389
 3.8000e+000 108683 -2.5131e+002 -4.0491e+002  6.9679e+000 26404 108801,108415,108657
 3.8000e+000 108706 -2.4138e+002 -3.9719e+002  3.4779e+001 26404 108729,108467,108657
 3.8000e+000 108755 -1.4852e+002 -4.0508e+002  4.5303e+001 26404 108337,108311,108729
 3.8000e+000 108778 -1.7712e+002 -4.0344e+002  3.4647e+001 26404 108337,108729,108657
 3.8000e+000 108827 -2.5144e+002 -5.1374e+002 -1.9604e+001 26404 108467,108441,108801
 3.8000e+000 108850 -2.7277e+002 -4.5111e+002 -1.3805e+001 26404 108467,108801,108657
 3.8000e+000 109228 -1.7895e+002 -3.8230e+002 -1.9075e+001 26064 109006,109084,109058
 3.8000e+000 109205 -1.6004e+002 -3.5649e+002  7.2487e+000 26064 108980,109084,109006
 3.8000e+000 109182 -1.7411e+002 -3.4176e+002 -1.1593e+001 26064 108980,109110,109084
 3.8000e+000 109159 -1.7172e+002 -4.0300e+002 -2.8650e+000 26064 109006,109058,109032
 3.8000e+000 109136 -5.9006e+001 -3.0718e+002  1.1780e+001 26064 108954,109110,108980
 3.8000e+000 109427 -5.4277e+001 -3.3124e+002 -6.7196e+001 25660 109303,109355,109329
 3.8000e+000 109404 -9.8820e+001 -4.2004e+002 -1.7949e+001 25660 109277,109355,109303
 3.8000e+000 109381 -7.7782e+001 -3.9544e+002 -7.5045e+000 25660 109251,109355,109277
 3.8000e+000 109577 -7.4443e+001 -1.7974e+002  6.1948e+001 25306 109476,109528,109502
 3.8000e+000 109554  2.0537e+000 -1.6758e+002  3.6387e+001 25306 109450,109528,109476
 3.8000e+000 109778 -1.2630e+002 -3.4766e+002  1.0591e+001 24944 109628,109706,109654
 3.8000e+000 109755 -1.3646e+002 -3.3721e+002  1.6085e+000 24944 109602,109706,109628
 3.8000e+000 109732 -1.1096e+002 -3.2484e+002 -1.7084e+000 24944 109654,109706,109680
 3.8000e+000 110126 -1.3653e+002 -4.5804e+002  1.4808e+001 24440 110149,109907,109855
 3.8000e+000 110103 -1.3501e+002 -4.8085e+002  2.7592e+001 24440 110149,109855,109985
 3.8000e+000 110080 -1.1151e+002 -3.9926e+002  8.4484e+000 24440 109855,109907,109881
 3.8000e+000 110057 -1.1848e+002 -3.8201e+002  1.1665e+002 24440 109829,109985,109855
 3.8000e+000 110034 -1.2262e+002 -4.5676e+002  3.8792e-001 24440 109907,109959,109933
 3.8000e+000 110011 -9.6217e+001 -3.9873e+002  1.1797e+001 24440 109803,109985,109829
 3.8000e+000 110175 -1.3390e+002 -4.3685e+002  7.9396e+000 24440 109959,109907,110149
 3.8000e+000 110198 -1.3444e+002 -4.5757e+002  2.3206e+001 24440 109959,110149,109985
 3.8000e+000 110301 -2.2123e+001 -2.9011e+002 -7.6210e+000 24028 110223,110275,110249
 3.8000e+000 110573 -5.5136e+001 -2.6529e+002  2.0961e+001 23467 110400,110452,110426
 3.8000e+000 110550 -9.3128e+001 -3.1058e+002  2.5616e-001 23467 110374,110452,110400
 3.8000e+000 110527 -9.4956e+001 -3.1127e+002  4.7107e+000 23467 110348,110452,110374
 3.8000e+000 110504 -6.9141e+001 -2.9874e+002 -2.8038e+000 23467 110348,110478,110452
 3.8000e+000 111004 -2.1834e+002 -4.5466e+002 -4.2496e+001 22963 111027,110733,110707
 3.8000e+000 110981 -2.0951e+002 -4.3121e+002  1.8136e+001 22963 111027,110707,110681
 3.8000e+000 110958 -1.0565e+002 -3.8641e+002 -4.5188e+001 22963 111099,110759,110733
 3.8000e+000 110935 -1.3601e+002 -3.7771e+002 -3.2454e+001 22963 111171,110863,110811
 3.8000e+000 110912 -6.9510e+001 -2.8313e+002 -5.0018e+001 22963 110759,110811,110785
 3.8000e+000 110889 -1.4812e+002 -3.9618e+002 -2.5859e+001 22963 110811,110863,110837
 3.8000e+000 111053 -1.5209e+002 -4.1815e+002 -2.8303e+001 22963 111099,110733,111027
 3.8000e+000 111076 -1.2874e+002 -4.0816e+002 -2.6780e+001 22963 111171,110811,111027
 3.8000e+000 111125 -1.0370e+002 -3.7973e+002 -7.0146e+001 22963 110811,110759,111099
 3.8000e+000 111148 -1.1135e+002 -3.7594e+002 -5.9964e+001 22963 110811,111099,111027
 3.8000e+000 111197 -1.3806e+002 -3.2752e+002 -4.0857e+001 22963 110681,110863,111171
 3.8000e+000 111220 -1.4481e+002 -3.6461e+002 -2.1247e+001 22963 110681,111171,111027
 3.8000e+000 111726 -2.0546e+002 -3.9741e+002  9.9129e+000 22459 111749,111507,111429
 3.8000e+000 111703 -1.9147e+002 -3.9356e+002 -8.0679e+000 22459 111749,111429,111585
 3.8000e+000 111680 -1.6497e+002 -4.4465e+002 -5.7100e+000 22459 111403,111585,111429
 3.8000e+000 111657 -1.9437e+002 -4.3606e+002  1.7901e+001 22459 111507,111559,111533
 3.8000e+000 111634 -2.7198e+002 -3.8492e+002  2.4059e+001 22459 111455,111507,111481
 3.8000e+000 111611 -2.7975e+002 -3.8286e+002  3.4842e+001 22459 111429,111507,111455
 3.8000e+000 111775 -2.0745e+002 -4.2439e+002  2.3711e+001 22459 111559,111507,111749
 3.8000e+000 111798 -1.9175e+002 -4.0600e+002  6.2976e+000 22459 111559,111749,111585
 3.8000e+000 112046 -9.0630e+001 -3.3406e+002 -4.5209e+001 21898 112069,111925,111873
 3.8000e+000 112023 -8.7599e+001 -3.3787e+002 -1.2062e+001 21898 112069,111873,111847
 3.8000e+000 112000 -1.1750e+002 -3.4908e+002 -1.9279e+001 21898 111821,111951,111847
 3.8000e+000 111977 -1.0207e+002 -2.6499e+002 -3.0105e+001 21898 111873,111925,111899
 3.8000e+000 112095 -1.3769e+002 -3.5182e+002 -5.0545e+001 21898 111951,111925,112069
 3.8000e+000 112118 -1.1498e+002 -3.4786e+002 -1.8729e+001 21898 111951,112069,111847
 3.8000e+000 112498 -1.6183e+002 -3.7476e+002 -3.0720e+001 21608 112521,112276,112224
 3.8000e+000 112475 -1.0829e+002 -3.8075e+002  1.8604e+000 21608 112521,112224,112380
 3.8000e+000 112452 -1.1571e+002 -4.3191e+002  2.6422e+001 21608 112302,112380,112354
 3.8000e+000 112429 -1.7837e+002 -4.2248e+002 -2.3993e+001 21608 112224,112276,112250
 3.8000e+000 112406  5.6165e+001 -4.5019e+002 -9.9609e+000 21608 112302,112354,112328
 3.8000e+000 112547 -1.1813e+002 -3.2292e+002 -6.8421e+000 21608 112302,112276,112521
 3.8000e+000 112570 -8.3379e+001 -3.6540e+002  1.6265e+001 21608 112302,112521,112380
 3.8000e+000 112948 -1.8586e+002 -3.9098e+002 -8.4236e+000 20882 112971,112752,112700
 3.8000e+000 112925 -1.4481e+002 -3.7593e+002 -1.3487e+001 20882 112971,112700,112830
 3.8000e+000 112902 -2.3531e+002 -4.1577e+002  2.5275e+001 20882 112778,112830,112804
 3.8000e+000 112879 -1.3353e+002 -3.0287e+002 -1.9451e+001 20882 112674,112830,112700
 3.8000e+000 112856 -2.2727e+002 -4.0839e+002  6.0450e+000 20882 112700,112752,112726
 3.8000e+000 112997 -1.8586e+002 -3.8788e+002  1.4557e+001 20882 112778,112752,112971
 3.8000e+000 113020 -1.6271e+002 -3.8028e+002  8.3926e+000 20882 112778,112971,112830
 3.8000e+000 113526 -1.3935e+002 -3.9270e+002  9.9184e-001 20428 113255,113385,113333
 3.8000e+000 113503 -1.5330e+002 -4.3173e+002 -2.4836e-001 20428 113229,113385,113255
 3.8000e+000 113480 -2.3770e+001 -3.8636e+002  1.5681e+000 20428 113255,113333,113281
 3.8000e+000 113457 -1.3627e+002 -4.2958e+002 -1.3663e-001 20428 113203,113385,113229
 3.8000e+000 113434 -7.0955e+001 -4.0588e+002 -1.4224e+001 20428 113281,113333,113307
 3.8000e+000 113411 -1.6133e+002 -3.8576e+002  6.0231e+000 20428 113333,113385,113359
 3.8000e+000 113774 -2.3955e+001 -3.6546e+002  1.3881e+001 19917 113797,113601,113549
 3.8000e+000 113751 -6.2176e+001 -3.7376e+002  1.8966e+001 19917 113869,113797,113549
 3.8000e+000 113728 -5.9193e+001 -3.7854e+002  3.7593e+001 19917 113869,113549,113679
 3.8000e+000 113705 -3.5139e+001 -3.6361e+002  2.8400e+001 19917 113549,113601,113575
 3.8000e+000 113823 -6.2776e+001 -4.4372e+002 -1.7042e+000 19917 113627,113601,113797
 3.8000e+000 113846 -2.3851e+001 -3.4777e+002 -9.9454e+000 19917 113627,113797,113653
 3.8000e+000 113895 -5.2667e+001 -3.2988e+002  5.2865e+000 19917 113653,113797,113869
 3.8000e+000 113918 -6.6982e+001 -3.4140e+002  2.8911e+001 19917 113653,113869,113679
 3.8000e+000 114166 -1.7398e+002 -3.8703e+002 -6.7430e+000 19413 113993,114045,114019
 3.8000e+000 114143 -1.6650e+002 -3.6229e+002  1.5470e+000 19413 113967,114045,113993
 3.8000e+000 114120 -1.3500e+002 -3.5051e+002  1.5766e+001 19413 113967,114071,114045
 3.8000e+000 114097 -1.2189e+002 -3.9456e+002 -8.7148e+000 19413 113941,114071,113967
 3.8000e+000 114438 -1.5781e+002 -4.1592e+002  3.7888e+000 19001 114213,114265,114239
 3.8000e+000 114415 -1.1419e+002 -3.2468e+002 -9.6125e+000 19001 114213,114343,114265
 3.8000e+000 114392 -1.6847e+002 -4.4627e+002 -2.0304e+001 19001 114265,114343,114317
 3.8000e+000 114369  3.1801e+001 -3.6012e+002 -8.4362e+000 19001 114265,114317,114291
 3.8000e+000 114639 -1.2009e+002 -4.9490e+002  2.4154e+001 18554 114489,114541,114515
 3.8000e+000 114616 -1.0515e+002 -4.2850e+002  4.1506e+000 18554 114489,114567,114541
 3.8000e+000 114593 -2.2540e+002 -4.9448e+002 -3.3296e+001 18554 114463,114567,114489
 3.8000e+000 115043 -8.8796e+001 -3.7493e+002  1.3454e+001 18164 114795,114925,114821
 3.8000e+000 115020 -7.8957e+001 -3.9758e+002  2.2099e+001 18164 114769,114925,114795
 3.8000e+000 114997 -5.2109e+001 -3.9206e+002 -2.7075e+000 18164 115066,114873,114821
 3.8000e+000 114974 -4.9679e+001 -3.3924e+002 -1.2546e+001 18164 115066,114821,114925
 3.8000e+000 114951  1.6434e+001 -3.9323e+002 -3.7284e+001 18164 114821,114873,114847
 3.8000e+000 115092 -7.0742e+001 -3.5375e+002 -3.0509e+001 18164 114899,114873,115066
 3.8000e+000 115115 -4.6521e+001 -2.7303e+002 -4.2957e+001 18164 114899,115066,114925
 3.8000e+000 115265 -1.2509e+002 -4.3021e+002  3.0845e+000 17852 115164,115216,115190
 3.8000e+000 115242 -1.3269e+002 -4.4563e+002 -4.6724e-001 17852 115138,115216,115164
 3.8000e+000 115464 -2.5812e+002 -5.7567e+002  9.2581e+000 17346 115288,115366,115340
 3.8000e+000 115441 -3.9764e+002 -4.5042e+002 -1.4046e+001 17346 115288,115392,115366
 3.8000e+000 115418 -2.3143e+002 -6.4948e+002 -2.0032e+001 17346 115288,115340,115314
 3.8000e+000 115736 -1.1542e+002 -3.8540e+002  1.5569e+001 16942 115563,115641,115615
 3.8000e+000 115713 -1.2833e+002 -3.8294e+002  4.0867e+000 16942 115511,115641,115563
 3.8000e+000 115690 -2.7135e+002 -4.4536e+002  2.3532e+001 16942 115563,115615,115589
 3.8000e+000 115667 -1.4993e+002 -4.1471e+002  1.3552e+001 16942 115511,115563,115537
 3.8000e+000 116091 -1.9028e+002 -4.4298e+002 -1.6871e+001 16388 115918,115970,115944
 3.8000e+000 116068 -1.6394e+002 -3.5554e+002 -1.1553e+001 16388 115918,115996,115970
 3.8000e+000 116045 -2.2119e+002 -4.4928e+002  1.4621e+001 16388 115892,115996,115918
 3.8000e+000 116022 -1.5057e+002 -4.1315e+002  4.7688e+001 16388 115866,115996,115892
 3.8000e+000 116192 -7.7224e+001 -4.8538e+002 -6.6913e+001 15810 116114,116166,116140
 3.8000e+000 116342 -1.7528e+002 -5.6213e+002  3.0992e+001 15419 116241,116293,116267
 3.8000e+000 116319 -2.4997e+002 -6.9129e+002 -2.0107e+001 15419 116215,116293,116241
 3.8000e+000 116445 -1.9485e+002 -3.9071e+002  2.6827e+000 421 116367,116419,116393
 3.9000e+000 68477 -2.6515e+002 -4.0472e+002  1.0673e+000 68018 68327,68379,68353
 3.9000e+000 68454 -2.8355e+002 -5.4225e+002  4.0721e+001 68018 68301,68379,68327
 3.9000e+000 68431 -1.0694e+002 -5.9647e+002  1.0842e+002 68018 68301,68405,68379
 3.9000e+000 68578 -1.7446e+002 -3.8338e+002  1.9203e+000 67820 68500,68552,68526
 3.9000e+000 68728 -1.9401e+002 -3.6470e+002 -5.7974e+000 67508 68601,68653,68627
 3.9000e+000 68705 -3.0003e+002 -2.7913e+002 -5.2774e+001 67508 68601,68679,68653
 3.9000e+000 68927 -3.7972e+001 -3.1521e+002 -7.7623e+000 67310 68777,68829,68803
 3.9000e+000 68904 -7.0263e+001 -3.6697e+002  6.9809e+000 67310 68751,68829,68777
 3.9000e+000 68881 -5.0152e+001 -3.6807e+002  2.2259e+001 67310 68751,68855,68829
 3.9000e+000 69386 -1.4964e+002 -4.1099e+002 -2.3007e+001 67020 69216,69268,69242
 3.9000e+000 69363 -1.3443e+002 -3.1593e+002 -4.2869e+001 67020 69138,69268,69216
 3.9000e+000 69340 -9.9064e+001 -2.7791e+002 -2.0679e+001 67020 69112,69268,69138
 3.9000e+000 69317 -1.8266e+002 -3.4132e+002  2.7965e+001 67020 69138,69190,69164
 3.9000e+000 69294 -1.9258e+002 -3.1179e+002 -1.9359e+001 67020 69138,69216,69190
 3.9000e+000 69536 -3.2586e+002 -7.8624e+002 -6.8331e+001 66708 69435,69487,69461
 3.9000e+000 69513 -2.3626e+002 -8.8994e+002 -1.2280e+001 66708 69409,69487,69435
 3.9000e+000 69735 -1.9144e+002 -4.0542e+002  9.6219e+000 66346 69585,69637,69611
 3.9000e+000 69712 -1.5692e+002 -3.8605e+002 -1.5239e+000 66346 69559,69637,69585
 3.9000e+000 69689 -1.4230e+002 -3.8395e+002 -3.6831e+001 66346 69559,69663,69637
 3.9000e+000 69985 -2.5416e+002 -4.4913e+002  9.0130e+000 66148 69786,69890,69864
 3.9000e+000 69962 -2.6253e+002 -4.5293e+002  9.8809e+000 66148 69760,69890,69786
 3.9000e+000 69939 -1.7723e+002 -4.2808e+002 -6.8039e+001 66148 69786,69864,69838
 3.9000e+000 69916 -2.2203e+002 -4.6909e+002 -1.6538e+001 66148 69786,69838,69812
 3.9000e+000 70137 -1.2805e+002 -4.9270e+002 -3.0144e+001 65950 70036,70088,70062
 3.9000e+000 70114 -1.0907e+002 -5.4749e+002  2.4554e+001 65950 70010,70088,70036
 3.9000e+000 70470 -9.3498e+001 -3.6221e+002  3.1156e+001 65546 70245,70323,70271
 3.9000e+000 70447 -6.3672e+001 -3.1560e+002  1.4561e+001 65546 70245,70375,70323
 3.9000e+000 70424 -8.5827e+001 -4.0292e+002  1.4007e+001 65546 70323,70375,70349
 3.9000e+000 70401 -6.7041e+001 -3.2960e+002  1.3403e+001 65546 70271,70323,70297
 3.9000e+000 70620 -1.2686e+002 -4.2823e+002  1.7082e+001 65348 70493,70545,70519
 3.9000e+000 70597 -1.1706e+002 -4.5715e+002  1.2290e+001 65348 70493,70571,70545
 3.9000e+000 70721 -2.1527e+002 -4.4464e+002  3.6461e+001 65150 70643,70695,70669
 3.9000e+000 71020 -1.5057e+002 -3.4659e+002  3.8906e+000 64952 71043,70850,70824
 3.9000e+000 70997 -1.3269e+002 -3.0245e+002  3.7802e+000 64952 71043,70824,70772
 3.9000e+000 70974 -1.4484e+002 -4.0077e+002  6.8159e+000 64952 71115,70746,70876
 3.9000e+000 70951 -1.0601e+002 -3.9937e+002 -4.3608e+000 64952 70746,70902,70876
 3.9000e+000 70928 -1.3258e+002 -2.5181e+002 -2.7425e+001 64952 70772,70824,70798
 3.9000e+000 71069 -1.2251e+002 -3.3106e+002  1.3436e+001 64952 70876,70850,71043
 3.9000e+000 71092 -1.4203e+002 -3.7750e+002  8.1419e+000 64952 71115,70876,71043
 3.9000e+000 71141 -1.6474e+002 -3.7380e+002 -1.4164e+001 64952 70772,70746,71115
 3.9000e+000 71164 -1.5368e+002 -3.3890e+002 -1.3399e+001 64952 70772,71115,71043
 3.9000e+000 71365  3.6876e+000 -4.2238e+002 -5.6121e+000 64662 71215,71293,71267
 3.9000e+000 71342  1.0289e+002 -3.9011e+002 -1.0036e+002 64662 71189,71293,71215
 3.9000e+000 71319  3.8456e+001 -3.5021e+002  4.7974e+000 64662 71215,71267,71241
 3.9000e+000 71615 -8.9053e+001 -3.9275e+002 -9.8194e+000 64350 71710,71638,71468
 3.9000e+000 71592 -1.3075e+002 -3.8618e+002 -1.4330e+001 64350 71638,71416,71390
 3.9000e+000 71569 -9.4176e+001 -3.6675e+002  1.1324e+001 64350 71710,71468,71442
 3.9000e+000 71546  1.0534e+002 -3.6140e+002 -7.3574e+001 64350 71390,71520,71494
 3.9000e+000 71664 -9.3846e+001 -3.9576e+002 -6.3860e+000 64350 71494,71468,71638
 3.9000e+000 71687 -8.9609e+001 -3.9200e+002 -4.2777e+000 64350 71494,71638,71390
 3.9000e+000 71736 -8.5504e+001 -3.4095e+002  3.9727e+000 64350 71416,71638,71710
 3.9000e+000 71759 -7.5064e+001 -3.1181e+002  3.1932e+001 64350 71416,71710,71442
 3.9000e+000 72318 -9.1880e+001 -6.2039e+002 -2.6888e+001 63837 71972,72024,71998
 3.9000e+000 72295 -1.3980e+002 -3.8619e+002 -9.1640e+000 63837 72341,71972,71946
 3.9000e+000 72272 -1.3388e+002 -3.1465e+002  1.7446e+001 63837 72413,72341,71946
 3.9000e+000 72249 -1.3016e+002 -2.8600e+002  8.8891e+000 63837 72413,71946,72128
 3.9000e+000 72226 -2.1426e+002 -3.4343e+002  5.6611e+000 63837 72024,72076,72050
 3.9000e+000 72203 -1.7692e+002 -3.1342e+002 -8.5623e+000 63837 72024,72102,72076
 3.9000e+000 72180 -1.1078e+002 -2.8227e+002  3.0310e+001 63837 71946,72154,72128
 3.9000e+000 72367 -1.9165e+002 -4.2191e+002 -7.9298e+001 63837 72024,71972,72341
 3.9000e+000 72390 -1.4323e+002 -3.3984e+002 -2.6422e+001 63837 72024,72341,72102
 3.9000e+000 72439 -1.1230e+002 -3.6122e+002  7.4299e+000 63837 72102,72341,72413
 3.9000e+000 72462 -1.0801e+002 -3.3057e+002  2.4128e+000 63837 72102,72413,72128
 3.9000e+000 72791 -1.7906e+002 -3.6249e+002 -3.7467e+001 63383 72592,72696,72670
 3.9000e+000 72768 -1.8347e+002 -3.3748e+002 -6.7495e+001 63383 72566,72696,72592
 3.9000e+000 72745 -1.7946e+002 -3.1497e+002  1.4260e+000 63383 72592,72670,72618
 3.9000e+000 72722 -1.7094e+002 -2.9573e+002  2.9765e+000 63383 72618,72670,72644
 3.9000e+000 73297 -2.2320e+002 -3.2096e+002 -5.3824e+000 63185 73000,73156,73130
 3.9000e+000 73274 -2.2660e+002 -3.4107e+002  4.1285e+001 63185 72974,73156,73000
 3.9000e+000 73251 -1.6238e+002 -3.7018e+002 -6.6016e+000 63185 73000,73052,73026
 3.9000e+000 73228 -1.8065e+002 -3.2754e+002 -1.7876e+001 63185 73000,73130,73052
 3.9000e+000 73205 -1.7929e+002 -3.6907e+002 -5.7498e+001 63185 73052,73130,73104
 3.9000e+000 73182 -1.6945e+002 -4.1383e+002 -6.2031e+001 63185 73052,73104,73078
 3.9000e+000 73545 -6.2426e+001 -3.3504e+002  4.0362e+000 62781 73568,73398,73372
 3.9000e+000 73522 -4.3713e+001 -3.0696e+002  1.2811e+001 62781 73568,73372,73346
 3.9000e+000 73499 -7.6503e+001 -3.1856e+002 -8.8367e+000 62781 73640,73320,73424
 3.9000e+000 73476 -1.0858e+002 -2.2417e+002 -2.5759e+001 62781 73320,73450,73424
 3.9000e+000 73594 -5.8234e+001 -3.0994e+002 -1.5918e+000 62781 73424,73398,73568
 3.9000e+000 73617 -6.7107e+001 -3.1309e+002 -3.9850e+000 62781 73640,73424,73568
 3.9000e+000 73666 -7.2790e+001 -3.1154e+002  6.9649e-001 62781 73346,73320,73640
 3.9000e+000 73689 -6.7520e+001 -3.0581e+002  5.1705e+000 62781 73346,73640,73568
 3.9000e+000 74035 -1.2907e+002 -3.9371e+002 -4.0631e+000 62363 74058,73868,73842
 3.9000e+000 74012 -1.2352e+002 -3.6324e+002 -2.8150e+001 62363 74130,74058,73842
 3.9000e+000 73989 -1.1176e+002 -3.5966e+002 -2.9800e+001 62363 74130,73842,73816
 3.9000e+000 73966 -1.8946e+002 -4.0916e+002  5.3476e+000 62363 74202,73764,73894
 3.9000e+000 73943 -2.4469e+002 -3.7074e+002  7.0405e+000 62363 73712,73894,73764
 3.9000e+000 73920 -2.6620e+002 -3.9570e+002 -3.8625e+000 62363 73712,73764,73738
 3.9000e+000 74084 -1.3368e+002 -3.8406e+002 -4.8587e+000 62363 73894,73868,74058
 3.9000e+000 74107 -1.7148e+002 -3.9068e+002  2.0251e+001 62363 74202,73894,74058
 3.9000e+000 74156 -1.3720e+002 -3.6922e+002  1.2645e+001 62363 73790,74058,74130
 3.9000e+000 74179 -8.1886e+001 -3.4762e+002  1.4857e+001 62363 73790,74130,73816
 3.9000e+000 74228 -2.1036e+002 -4.1823e+002 -2.2133e+001 62363 73790,73764,74202
 3.9000e+000 74251 -1.9727e+002 -3.9869e+002 -7.2936e+000 62363 73790,74202,74058
 3.9000e+000 74403 -4.8991e+000 -4.2358e+002  2.8995e+001 62115 74426,74302,74276
 3.9000e+000 74380  8.4754e+001 -4.0470e+002  6.5681e+001 62115 74426,74276,74354
 3.9000e+000 74452 -8.9624e+001 -3.7870e+002  2.8830e+001 62115 74328,74302,74426
 3.9000e+000 74475 -5.2719e+000 -3.6246e+002  6.7997e+001 62115 74328,74426,74354
 3.9000e+000 74578  5.8790e+001 -2.5508e+002  2.1920e+000 61825 74500,74552,74526
 3.9000e+000 74982 -2.0630e+002 -3.6308e+002  3.4152e+000 61513 75005,74734,74708
 3.9000e+000 74959 -1.9902e+002 -3.5302e+002 -3.2079e-001 61513 75005,74708,74864
 3.9000e+000 74936 -2.5371e+002 -3.7002e+002  2.6936e+001 61513 75077,74812,74734
 3.9000e+000 74913 -2.3518e+002 -3.8559e+002 -3.3185e+001 61513 74734,74786,74760
 3.9000e+000 74890 -2.2698e+002 -3.3284e+002 -7.5136e-001 61513 74734,74812,74786
 3.9000e+000 75031 -1.9245e+002 -3.7054e+002  5.8895e+000 61513 75077,74734,75005
 3.9000e+000 75054 -1.5205e+002 -3.6119e+002  5.4022e+001 61513 74838,75005,74864
 3.9000e+000 75103 -2.8861e+002 -3.8796e+002  8.1458e+001 61513 74838,74812,75077
 3.9000e+000 75126 -2.4811e+002 -4.0346e+002  6.0637e+001 61513 74838,75077,75005
 3.9000e+000 75553 -9.1547e+001 -3.2659e+002 -1.2221e+001 61060 75576,75360,75308
 3.9000e+000 75530 -1.0046e+002 -3.4604e+002 -1.6241e+001 61060 75576,75308,75230
 3.9000e+000 75507 -8.1039e+001 -3.1068e+002  2.0688e+000 61060 75308,75360,75334
 3.9000e+000 75484 -1.3517e+002 -4.0394e+002  2.5828e+001 61060 75230,75308,75256
 3.9000e+000 75461 -8.5820e+001 -3.7318e+002  1.2761e+001 61060 75256,75308,75282
 3.9000e+000 75438 -1.0159e+002 -3.1937e+002  4.4971e+001 61060 75360,75412,75386
 3.9000e+000 75602 -6.0490e+001 -3.4494e+002  2.5049e+000 61060 75412,75360,75576
 3.9000e+000 75625 -8.4141e+001 -3.8549e+002 -7.7233e+000 61060 75412,75576,75230
 3.9000e+000 76052 -1.4270e+002 -3.3368e+002  5.5460e+000 60442 75755,75859,75833
 3.9000e+000 76029 -1.7461e+002 -3.1971e+002 -2.2685e+001 60442 75729,75859,75755
 3.9000e+000 76006 -1.5044e+002 -3.1105e+002  2.1985e+001 60442 75755,75833,75807
 3.9000e+000 75983 -1.3913e+002 -3.6919e+002  1.3494e+001 60442 75755,75807,75781
 3.9000e+000 75960  2.5341e+001 -5.7847e+002  1.8388e+001 60442 75729,75911,75859
 3.9000e+000 75937 -2.8560e+002 -1.4665e+003  9.2847e+001 60442 75859,75911,75885
 3.9000e+000 76430 -1.4312e+002 -3.8088e+002 -1.8152e+001 59788 76453,76286,76234
 3.9000e+000 76407 -1.5520e+002 -4.3582e+002  4.6747e+000 59788 76453,76234,76182
 3.9000e+000 76384 -1.5971e+002 -2.8223e+002  4.7736e+001 59788 76525,76156,76312
 3.9000e+000 76361 -8.6439e+001 -4.9828e+002 -7.7513e+000 59788 76182,76234,76208
 3.9000e+000 76338 -1.1374e+002 -3.6771e+002 -1.3327e+001 59788 76234,76286,76260
 3.9000e+000 76479 -1.7554e+002 -4.1147e+002 -1.0462e+000 59788 76312,76286,76453
 3.9000e+000 76502 -1.4536e+002 -3.8742e+002  1.7733e+001 59788 76525,76312,76453
 3.9000e+000 76551 -2.0123e+002 -4.1420e+002  5.0547e+001 59788 76182,76156,76525
 3.9000e+000 76574 -1.7651e+002 -4.4663e+002  2.9127e+001 59788 76182,76525,76453
 3.9000e+000 77031 -1.0527e+002 -2.2653e+002 -3.5772e+001 59448 76835,76887,76861
 3.9000e+000 77008 -4.5137e+001 -1.8983e+002  9.2964e+000 59448 76835,76913,76887
 3.9000e+000 76985 -5.8569e+001 -1.5816e+002  3.1729e+001 59448 76809,76913,76835
 3.9000e+000 76962 -1.1215e+002 -2.1149e+002  7.8656e-001 59448 76757,76913,76809
 3.9000e+000 76939 -9.0384e+001 -1.8473e+002 -8.6113e+000 59448 76757,76809,76783
 3.9000e+000 77537 -1.6843e+002 -3.5588e+002  1.8950e+001 58994 77560,77344,77292
 3.9000e+000 77514 -2.3831e+002 -3.5803e+002  4.6256e+000 58994 77560,77292,77240
 3.9000e+000 77491 -1.3653e+002 -3.3983e+002 -8.4066e+000 58994 77632,77214,77370
 3.9000e+000 77468 -2.8419e+002 -4.1085e+002  7.4194e+001 58994 77292,77344,77318
 3.9000e+000 77445 -1.4146e+002 -4.4616e+002  1.8454e+001 58994 77214,77396,77370
 3.9000e+000 77422 -2.4097e+002 -3.7451e+002 -7.6393e+000 58994 77240,77292,77266
 3.9000e+000 77586 -1.7104e+002 -3.6710e+002  2.1969e+001 58994 77370,77344,77560
 3.9000e+000 77609 -1.7352e+002 -3.6272e+002  2.4019e+001 58994 77632,77370,77560
 3.9000e+000 77658 -1.1669e+002 -3.1562e+002 -4.1844e+001 58994 77240,77214,77632
 3.9000e+000 77681 -1.4337e+002 -3.1161e+002 -1.2484e+001 58994 77240,77632,77560
 3.9000e+000 78138 -1.2701e+002 -2.3709e+002  3.4406e+001 58440 77864,77994,77890
 3.9000e+000 78115 -7.2113e+001 -1.3375e+002 -2.3622e+001 58440 77864,78020,77994
 3.9000e+000 78092 -1.4437e+002 -2.8392e+002 -2.3330e+001 58440 77942,77994,77968
 3.9000e+000 78069 -1.1309e+002 -2.6526e+002  5.3809e+000 58440 77890,77994,77942
 3.9000e+000 78046 -1.0331e+002 -2.6978e+002 -2.3281e+000 58440 77890,77942,77916
 3.9000e+000 78467 -1.6728e+001 -3.2548e+002  1.5107e+001 57928 78562,78490,78346
 3.9000e+000 78444 -1.2196e+002 -3.3170e+002 -6.3177e+000 57928 78490,78294,78268
 3.9000e+000 78421  4.2034e+000 -3.4138e+002  3.2187e+001 57928 78562,78346,78320
 3.9000e+000 78398 -4.0214e+001 -3.1779e+002  6.0601e+000 57928 78242,78372,78268
 3.9000e+000 78516 -1.0418e+002 -4.0954e+002 -2.0326e+001 57928 78372,78346,78490
 3.9000e+000 78539 -8.0414e+001 -3.1285e+002 -2.0781e+000 57928 78372,78490,78268
 3.9000e+000 78588 -1.2071e+002 -3.2136e+002  3.6075e+000 57928 78294,78490,78562
 3.9000e+000 78611 -5.4318e+001 -2.8471e+002  3.8475e+001 57928 78294,78562,78320
 3.9000e+000 79068 -2.2646e+002 -4.7937e+002 -1.2206e+002 57467 78794,78924,78820
 3.9000e+000 79045 -1.7840e+002 -4.5749e+002 -1.1627e+002 57467 78794,78950,78924
 3.9000e+000 79022 -9.7544e+001 -4.2943e+002  4.0773e+001 57467 78820,78898,78872
 3.9000e+000 78999 -1.6438e+002 -5.8998e+002 -6.4543e+001 57467 78820,78924,78898
 3.9000e+000 78976 -6.7337e+001 -4.3329e+002  6.3596e+001 57467 78820,78872,78846
 3.9000e+000 79446 -1.9391e+002 -3.7539e+002  5.5895e-001 57120 79172,79302,79250
 3.9000e+000 79423 -1.7186e+002 -3.6555e+002 -1.0340e+001 57120 79172,79328,79302
 3.9000e+000 79400 -1.7417e+002 -3.2948e+002 -1.2385e+001 57120 79172,79250,79198
 3.9000e+000 79377 -1.3088e+002 -4.7404e+002  1.9871e+001 57120 79250,79302,79276
 3.9000e+000 79354 -2.1435e+002 -3.5840e+002 -2.6439e+001 57120 79198,79250,79224
 3.9000e+000 79952 -2.5499e+002 -4.0233e+002  1.9544e+000 56773 79629,79785,79655
 3.9000e+000 79929 -7.2619e+001 -3.4540e+002  1.6982e+001 56773 79629,79811,79785
 3.9000e+000 79906 -2.0078e+002 -4.3742e+002  3.0832e+001 56773 79655,79733,79681
 3.9000e+000 79883 -1.9492e+002 -3.8609e+002  8.1159e+000 56773 79655,79785,79733
 3.9000e+000 79860 -1.8415e+002 -5.0363e+002 -5.7879e+001 56773 79733,79785,79759
 3.9000e+000 79837 -1.0407e+002 -3.9323e+002  7.6071e+001 56773 79681,79733,79707
 3.9000e+000 80281 -8.1139e+001 -3.0795e+002 -2.4456e+001 56319 80108,80160,80134
 3.9000e+000 80258 -9.2078e+001 -3.3552e+002 -3.1228e+001 56319 80056,80160,80108
 3.9000e+000 80235 -2.9188e+001 -2.9491e+002  1.7835e+001 56319 80056,80186,80160
 3.9000e+000 80212 -1.3088e+002 -4.2749e+002 -1.8359e+001 56319 80056,80108,80082
 3.9000e+000 80738 -4.7364e+001 -3.6060e+002  2.0092e+001 55957 80516,80620,80594
 3.9000e+000 80715 -1.2088e+002 -3.2348e+002  1.7564e+001 55957 80464,80620,80516
 3.9000e+000 80692 -1.0489e+002 -3.9430e+002  2.2299e+001 55957 80761,80568,80542
 3.9000e+000 80669 -8.4856e+001 -3.8742e+002  2.6262e+001 55957 80761,80542,80516
 3.9000e+000 80646 -1.2366e+002 -3.2917e+002  4.0921e+001 55957 80464,80516,80490
 3.9000e+000 80787 -1.2478e+002 -3.9119e+002  1.5910e+001 55957 80594,80568,80761
 3.9000e+000 80810 -1.0593e+002 -3.8483e+002  2.0094e+001 55957 80594,80761,80516
 3.9000e+000 81210 -1.0378e+002 -3.5993e+002 -4.6428e+001 55317 80936,80988,80962
 3.9000e+000 81187 -8.3300e+001 -4.0106e+002 -9.7725e-001 55317 80936,81066,80988
 3.9000e+000 81164 -5.2908e+001 -4.2936e+002  6.4765e+000 55317 80936,81092,81066
 3.9000e+000 81141 -1.1928e+002 -4.2716e+002 -3.9992e+001 55317 80988,81066,81014
 3.9000e+000 81118 -9.5313e+000 -2.3658e+002  2.5661e+001 55317 81014,81066,81040
 3.9000e+000 81539 -1.6885e+002 -3.9206e+002  1.3449e+001 54913 81340,81418,81392
 3.9000e+000 81516 -6.5790e+001 -3.1370e+002 -2.1516e+001 54913 81340,81444,81418
 3.9000e+000 81493 -1.0369e+002 -3.3713e+002 -4.4951e+001 54913 81314,81444,81340
 3.9000e+000 81470 -1.8985e+002 -4.0734e+002  5.4877e+000 54913 81340,81392,81366
 3.9000e+000 81787 -9.2603e+001 -4.0318e+002 -2.7143e+000 54601 81588,81692,81640
 3.9000e+000 81764 -1.3511e+002 -4.0766e+002 -1.1894e+001 54601 81562,81692,81588
 3.9000e+000 81741 -6.9296e+001 -4.0864e+002  5.5489e+001 54601 81588,81640,81614
 3.9000e+000 81718 -9.5680e+001 -4.7761e+002 -4.0403e+001 54601 81640,81692,81666
 3.9000e+000 82344 -1.5917e+002 -4.3638e+002 -2.4098e+001 54090 81998,82102,82076
 3.9000e+000 82321 -2.1703e+002 -4.6175e+002 -1.3242e+001 54090 81998,82154,82102
 3.9000e+000 82298 -1.9488e+002 -4.5023e+002 -7.3057e+000 54090 81972,82154,81998
 3.9000e+000 82275 -2.2369e+002 -4.0881e+002 -2.7181e+001 54090 81998,82076,82024
 3.9000e+000 82252 -2.3519e+002 -4.7857e+002  2.3331e+001 54090 81972,82180,82154
 3.9000e+000 82229 -2.9821e+002 -5.5866e+002  3.0346e+001 54090 82102,82154,82128
 3.9000e+000 82206 -4.0656e+001 -3.0843e+002 -6.8238e+001 54090 82024,82076,82050
 3.9000e+000 82722 -2.5632e+002 -4.6168e+002 -1.5804e+001 53579 82500,82578,82552
 3.9000e+000 82699 -1.8544e+002 -4.1874e+002  1.2722e+001 53579 82448,82578,82500
 3.9000e+000 82676 -1.9990e+002 -4.7435e+002  1.2070e+001 53579 82448,82500,82474
 3.9000e+000 82653 -2.5135e+002 -4.5191e+002  3.3951e+001 53579 82448,82604,82578
 3.9000e+000 82630 -1.3037e+002 -4.2746e+002 -1.7582e+001 53579 82500,82552,82526
 3.9000e+000 83356 -1.1868e+002 -3.2232e+002 -3.4801e+001 53189 83379,83088,83036
 3.9000e+000 83333 -1.1460e+002 -3.6304e+002 -3.1688e+001 53189 83379,83036,82984
 3.9000e+000 83310 -5.6360e+001 -3.4269e+002  4.6042e+001 53189 82984,83192,83166
 3.9000e+000 83287  9.1271e+000 -2.6597e+002 -2.4707e+001 53189 83036,83088,83062
 3.9000e+000 83264 -9.2316e+001 -4.0465e+002 -5.6328e+001 53189 82984,83036,83010
 3.9000e+000 83241 -8.2364e+001 -4.0709e+002  8.3913e+000 53189 83114,83166,83140
 3.9000e+000 83218 -1.6136e+002 -4.2104e+002  1.1392e+000 53189 83088,83166,83114
 3.9000e+000 83405 -1.1889e+002 -3.4996e+002 -1.7804e+001 53189 83166,83088,83379
 3.9000e+000 83428 -1.0880e+002 -3.8605e+002 -1.7261e+001 53189 83166,83379,82984
 3.9000e+000 83725 -1.7031e+002 -4.8582e+002 -4.0497e+001 52585 83748,83529,83503
 3.9000e+000 83702 -1.2847e+002 -4.7204e+002 -2.5485e+001 52585 83820,83748,83503
 3.9000e+000 83679 -8.7969e+001 -4.6432e+002 -2.2030e+001 52585 83820,83503,83477
 3.9000e+000 83656 -5.4132e+001 -4.2850e+002  6.2964e+001 52585 83477,83607,83581
 3.9000e+000 83633  4.7856e+001 -3.8514e+002  6.5879e+001 52585 83451,83607,83477
 3.9000e+000 83774 -1.4861e+002 -4.3220e+002 -3.6284e+001 52585 83555,83529,83748
 3.9000e+000 83797 -1.9323e+002 -4.6771e+002 -2.0718e+001 52585 83555,83748,83581
 3.9000e+000 83846 -1.6679e+002 -4.5175e+002 -5.0460e+000 52585 83581,83748,83820
 3.9000e+000 83869 -1.3668e+002 -4.5028e+002 -5.7932e+000 52585 83581,83820,83477
 3.9000e+000 84200 -1.2363e+002 -4.4284e+002 -1.6238e+001 52024 84001,84105,84079
 3.9000e+000 84177 -6.3798e+001 -4.3182e+002 -3.1084e+001 52024 83975,84105,84001
 3.9000e+000 84154 -1.0992e+002 -4.4380e+002 -1.3312e+001 52024 84001,84079,84053
 3.9000e+000 84131 -5.3179e+001 -2.9482e+002  5.4209e+001 52024 84001,84053,84027
 3.9000e+000 84399 -1.0156e+002 -4.3808e+002 -1.6557e-001 51470 84422,84275,84249
 3.9000e+000 84376 -9.0540e+001 -4.1922e+002  5.3685e+000 51470 84422,84249,84223
 3.9000e+000 84353 -1.1758e+002 -4.5734e+002 -6.3430e+001 51470 84275,84327,84301
 3.9000e+000 84448 -1.1282e+002 -4.1980e+002 -8.4374e-001 51470 84327,84275,84422
 3.9000e+000 84471 -1.0427e+002 -4.0458e+002  4.1552e+000 51470 84327,84422,84223
 3.9000e+000 84753 -1.3164e+002 -3.7362e+002 -2.1440e+000 51073 84603,84655,84629
 3.9000e+000 84730 -2.6969e+002 -4.3763e+002 -2.0179e+001 51073 84776,84655,84603
 3.9000e+000 84707 -5.1758e+001 -3.8117e+002 -1.0844e+002 51073 84577,84681,84655
 3.9000e+000 84802 -1.6909e+002 -3.8194e+002 -4.9953e+001 51073 84577,84655,84776
 3.9000e+000 85178 -2.2844e+002 -4.9631e+002  4.5865e+001 50519 85201,85008,84982
 3.9000e+000 85155 -2.1635e+002 -4.6010e+002  3.2749e+001 50519 85273,85201,84982
 3.9000e+000 85132 -2.0243e+002 -4.6078e+002  2.3782e+001 50519 85273,84982,84930
 3.9000e+000 85109 -1.9743e+002 -4.5105e+002  2.0914e+001 50519 84930,84982,84956
 3.9000e+000 85086 -1.8004e+002 -4.5088e+002  1.9407e+001 50519 85008,85060,85034
 3.9000e+000 85227 -1.8738e+002 -4.7060e+002  2.0346e+001 50519 85060,85008,85201
 3.9000e+000 85250 -2.1310e+002 -4.7201e+002  1.3537e+001 50519 85060,85201,84904
 3.9000e+000 85299 -2.0086e+002 -4.6487e+002  1.0515e+001 50519 84904,85201,85273
 3.9000e+000 85322 -1.5437e+002 -4.1033e+002 -1.0610e+001 50519 84904,85273,84930
 3.9000e+000 85958 -1.2703e+002 -4.0844e+002 -1.4275e+001 50093 85981,85768,85716
 3.9000e+000 85935 -1.1238e+002 -3.6985e+002 -1.7419e+001 50093 85981,85716,85612
 3.9000e+000 85912 -1.6523e+002 -3.8504e+002  6.1638e+000 50093 85612,85716,85664
 3.9000e+000 85889 -9.2420e+001 -4.0300e+002 -5.2421e+000 50093 85716,85768,85742
 3.9000e+000 85866 -1.3368e+002 -2.9277e+002 -8.6734e+001 50093 85664,85716,85690
 3.9000e+000 85843 -5.1172e+001 -2.8000e+002 -1.5691e+001 50093 85586,85794,85612
 3.9000e+000 85820 -1.1124e+002 -5.1915e+002  4.2868e+001 50093 85612,85664,85638
 3.9000e+000 86007 -1.5461e+002 -4.3975e+002 -6.9163e+001 50093 85794,85768,85981
 3.9000e+000 86030 -1.0980e+002 -3.2907e+002 -5.8632e+001 50093 85794,85981,85612
 3.9000e+000 86131 -1.4550e+002 -4.5499e+002  6.1216e+001 49895 86053,86105,86079
 3.9000e+000 86639 -9.9885e+001 -2.8647e+002 -5.8972e+001 49391 86662,86394,86368
 3.9000e+000 86616 -1.1718e+002 -3.4775e+002 -5.2370e+001 49391 86662,86368,86342
 3.9000e+000 86593 -6.5517e+001 -3.4738e+002 -1.7025e+001 49391 86342,86498,86472
 3.9000e+000 86570 -4.2995e+001 -3.8279e+002 -2.0556e+001 49391 86316,86498,86342
 3.9000e+000 86547 -1.9290e+002 -5.2972e+002 -2.5077e+001 49391 86394,86472,86446
 3.9000e+000 86524 -1.1544e+001 -4.9706e+002  3.9353e+000 49391 86394,86446,86420
 3.9000e+000 86688 -1.1363e+002 -3.4384e+002 -3.2386e+001 49391 86472,86394,86662
 3.9000e+000 86711 -1.0076e+002 -3.6993e+002 -3.0969e+001 49391 86472,86662,86342
 3.9000e+000 87089 -1.4674e+002 -4.2286e+002  1.0831e+001 48987 86815,86919,86867
 3.9000e+000 87066 -1.4841e+002 -4.3572e+002  1.7222e+001 48987 86815,86971,86919
 3.9000e+000 87043 -5.5767e+001 -4.6903e+002 -4.3054e+001 48987 86867,86919,86893
 3.9000e+000 87020 -1.6755e+002 -4.7856e+002  3.4783e+001 48987 86815,86867,86841
 3.9000e+000 86997 -1.6669e+002 -3.7333e+002  5.9859e+001 48987 86919,86971,86945
 3.9000e+000 87467 -2.8026e+002 -4.1947e+002  1.9771e+001 48540 87490,87245,87219
 3.9000e+000 87444 -2.0509e+002 -3.9188e+002  1.3863e+000 48540 87562,87490,87219
 3.9000e+000 87421 -1.5171e+002 -3.7035e+002  1.8383e+001 48540 87562,87219,87349
 3.9000e+000 87398 -2.1459e+002 -3.3359e+002 -2.3526e+001 48540 87245,87297,87271
 3.9000e+000 87375 -1.2390e+002 -3.8751e+002  1.4480e+001 48540 87193,87349,87219
 3.9000e+000 87516 -1.9467e+002 -4.0189e+002  1.7932e+000 48540 87297,87245,87490
 3.9000e+000 87539 -1.9699e+002 -4.0006e+002  6.1828e+000 48540 87297,87490,87323
 3.9000e+000 87588 -1.5362e+002 -3.6648e+002  3.5828e+001 48540 87323,87490,87562
 3.9000e+000 87611 -1.2806e+002 -3.7374e+002  4.7222e+001 48540 87323,87562,87349
 3.9000e+000 87810 -2.0655e+002 -7.3393e+002 -5.2161e+001 48136 87660,87712,87686
 3.9000e+000 87787 -1.2027e+002 -4.3871e+002 -2.4196e+001 48136 87660,87738,87712
 3.9000e+000 87764 -2.7416e+002 -4.5027e+002 -7.5572e+001 48136 87634,87738,87660
 3.9000e+000 88205 -1.8106e+002 -4.5244e+002 -3.8203e+001 47210 88300,88228,87937
 3.9000e+000 88182 -1.5731e+002 -4.3977e+002 -1.0778e+001 47210 88228,87833,88041
 3.9000e+000 88159 -1.8348e+002 -4.8334e+002 -6.1184e+001 47210 88300,87937,87911
 3.9000e+000 88136 -1.7822e+002 -4.3892e+002 -5.3689e+001 47210 87833,87911,87859
 3.9000e+000 88113 -2.9811e+002 -3.9632e+002 -2.9103e+001 47210 87937,87989,87963
 3.9000e+000 88090 -1.4833e+002 -3.5724e+002  7.1803e+001 47210 87989,88041,88015
 3.9000e+000 88067 -2.0621e+002 -5.0987e+002 -6.9935e+001 47210 87859,87911,87885
 3.9000e+000 88254 -1.6087e+002 -3.7610e+002 -3.8925e+001 47210 87989,87937,88228
 3.9000e+000 88277 -1.8947e+002 -4.3220e+002 -1.4362e+001 47210 87989,88228,88041
 3.9000e+000 88326 -1.4934e+002 -4.2245e+002 -1.4179e+001 47210 87833,88228,88300
 3.9000e+000 88349 -1.5681e+002 -4.4317e+002 -3.8729e+001 47210 87833,88300,87911
 3.9000e+000 88780 -2.9599e+002 -5.1387e+002 -9.4378e+001 46642 88803,88509,88483
 3.9000e+000 88757 -2.1197e+002 -4.6230e+002 -5.0777e+001 46642 88803,88483,88639
 3.9000e+000 88734 -2.3645e+002 -3.8125e+002 -5.7530e+001 46642 88875,88561,88509
 3.9000e+000 88711 -2.4031e+002 -3.5520e+002 -1.1474e+001 46642 88509,88561,88535
 3.9000e+000 88688 -1.3922e+002 -5.1848e+002  1.4861e+000 46642 88457,88639,88483
 3.9000e+000 88665 -2.7220e+002 -6.1924e+002 -2.3012e+001 46642 88561,88613,88587
 3.9000e+000 88829 -2.3894e+002 -4.1553e+002 -6.5254e+001 46642 88875,88509,88803
 3.9000e+000 88852 -2.3331e+002 -5.0037e+002 -4.2181e+001 46642 88613,88803,88639
 3.9000e+000 88901 -1.9477e+002 -4.2910e+002 -2.8301e+001 46642 88613,88561,88875
 3.9000e+000 88924 -2.1255e+002 -4.8485e+002 -3.4991e+001 46642 88613,88875,88803
 3.9000e+000 89253 -8.9941e+001 -4.4059e+002  1.0323e+001 46444 89080,89158,89132
 3.9000e+000 89230 -1.0452e+002 -4.7348e+002  6.9511e+000 46444 89028,89158,89080
 3.9000e+000 89207 -3.8304e+001 -4.1675e+002 -1.7174e+001 46444 89028,89080,89054
 3.9000e+000 89184 -4.8915e+001 -4.7634e+002 -3.3309e+001 46444 89080,89132,89106
 3.9000e+000 89631 -1.1788e+002 -2.8920e+002  6.4267e+000 46040 89383,89461,89435
 3.9000e+000 89608 -1.2460e+002 -3.1944e+002 -1.8621e+001 46040 89383,89487,89461
 3.9000e+000 89585 -1.2956e+002 -3.7706e+002 -1.1751e+001 46040 89383,89435,89409
 3.9000e+000 89562 -9.9778e+001 -2.7277e+002 -3.8561e+001 46040 89383,89513,89487
 3.9000e+000 89539 -4.1225e+001 -2.4421e+002 -5.0762e+001 46040 89357,89513,89383
 3.9000e+000 90009 -1.2354e+002 -3.6628e+002 -1.6832e+000 45636 89813,89891,89839
 3.9000e+000 89986 -1.2786e+002 -3.4365e+002  1.9558e+001 45636 89787,89891,89813
 3.9000e+000 89963 -1.0921e+002 -3.4170e+002 -1.0388e+001 45636 89839,89891,89865
 3.9000e+000 89940 -1.5028e+002 -3.8144e+002  1.0079e+001 45636 89735,89891,89787
 3.9000e+000 89917 -1.1827e+002 -3.8653e+002 -1.8306e+001 45636 89735,89787,89761
 3.9000e+000 90208 -8.2547e+001 -2.8429e+002 -5.5660e+001 45175 90231,90058,90032
 3.9000e+000 90185 -4.9460e+001 -2.5966e+002 -8.4789e+001 45175 90231,90032,90136
 3.9000e+000 90162 -9.9889e+001 -2.3408e+002 -4.6655e+000 45175 90058,90110,90084
 3.9000e+000 90257 -1.1978e+002 -3.2029e+002 -1.4334e+001 45175 90110,90058,90231
 3.9000e+000 90280 -5.6414e+001 -2.7709e+002 -4.6825e+001 45175 90110,90231,90136
 3.9000e+000 90528 -9.2146e+001 -2.9434e+002 -3.8869e+001 44513 90695,90551,90407
 3.9000e+000 90505 -9.7853e+001 -2.6463e+002 -1.7621e+001 44513 90551,90355,90329
 3.9000e+000 90482 -1.2240e+002 -2.9061e+002 -3.6144e+001 44513 90623,90303,90433
 3.9000e+000 90459 -6.9699e+001 -2.7457e+002 -2.8726e+001 44513 90695,90407,90381
 3.9000e+000 90577 -1.3496e+002 -3.0816e+002 -6.7306e+001 44513 90433,90407,90551
 3.9000e+000 90600 -1.1563e+002 -2.8250e+002 -3.3243e+001 44513 90623,90433,90551
 3.9000e+000 90649 -1.1903e+002 -2.8029e+002 -3.2247e+001 44513 90329,90303,90623
 3.9000e+000 90672 -1.1999e+002 -2.7965e+002 -3.2132e+001 44513 90329,90623,90551
 3.9000e+000 90721 -1.1898e+002 -2.6862e+002 -4.3626e+001 44513 90355,90551,90695
 3.9000e+000 90744 -1.1213e+002 -2.5983e+002 -3.9891e+001 44513 90355,90695,90381
 3.9000e+000 91077 -5.0946e+000 -3.0942e+002 -2.1414e+001 44059 91100,90930,90904
 3.9000e+000 91054 -1.1996e+002 -3.3241e+002  1.4363e+001 44059 91100,90904,90982
 3.9000e+000 91031 -2.1472e+002 -3.8815e+002 -2.9269e+001 44059 90878,90982,90904
 3.9000e+000 91008 -6.6556e+001 -2.8926e+002  1.7900e+001 44059 90852,90982,90878
 3.9000e+000 91126 -1.7453e+002 -3.5129e+002 -2.5060e+001 44059 91172,91100,90956
 3.9000e+000 91149 -1.1206e+002 -3.1948e+002 -1.3716e+001 44059 90956,91100,90982
 3.9000e+000 91198 -1.0797e+001 -1.9239e+002 -9.0021e+001 44059 90930,91100,91172
 3.9000e+000 91677 -1.6611e+002 -2.5627e+002  2.5108e+001 43549 91455,91533,91481
 3.9000e+000 91654 -7.3177e+001 -2.6027e+002  3.3661e+001 43549 91429,91533,91455
 3.9000e+000 91631 -1.6002e+002 -2.5500e+002  1.2479e+001 43549 91481,91533,91507
 3.9000e+000 91608 -4.1149e+001 -2.4696e+002  1.6749e+001 43549 91429,91559,91533
 3.9000e+000 91585 -7.4906e+000 -9.4403e+001  2.2517e+000 43549 91403,91559,91429
 3.9000e+000 92006 -1.5091e+002 -3.7825e+002  9.2609e-001 43059 91781,91885,91807
 3.9000e+000 91983 -1.5670e+002 -3.5528e+002  5.7856e+001 43059 91781,91911,91885
 3.9000e+000 91960 -1.5053e+002 -3.7976e+002  1.8335e+000 43059 91807,91885,91833
 3.9000e+000 91937 -9.7555e+001 -3.6007e+002 -7.3433e+000 43059 91833,91885,91859
 3.9000e+000 92561 -1.2927e+002 -2.7768e+002 -3.1347e+001 42598 92584,92215,92189
 3.9000e+000 92538 -1.3979e+002 -3.1513e+002 -3.0098e+001 42598 92656,92584,92189
 3.9000e+000 92515 -1.2559e+002 -3.5651e+002 -8.8988e+000 42598 92656,92189,92397
 3.9000e+000 92492 -1.5876e+002 -2.4957e+002 -3.7081e+001 42598 92241,92319,92293
 3.9000e+000 92469 -1.5297e+002 -2.9675e+002  1.5556e+001 42598 92319,92397,92371
 3.9000e+000 92446 -6.3650e+001 -3.4001e+002  1.3525e+002 42598 92319,92371,92345
 3.9000e+000 92423 -1.5615e+002 -2.5662e+002 -5.1469e+001 42598 92241,92293,92267
 3.9000e+000 92610 -1.3599e+002 -2.7817e+002 -2.8022e+001 42598 92241,92215,92584
 3.9000e+000 92633 -1.2614e+002 -2.5654e+002 -3.7033e+001 42598 92241,92584,92319
 3.9000e+000 92682 -1.2763e+002 -2.5992e+002 -2.1900e+001 42598 92319,92584,92656
 3.9000e+000 92705 -1.0363e+002 -2.8821e+002 -6.1660e+000 42598 92319,92656,92397
 3.9000e+000 92953 -1.5635e+002 -4.0988e+002  2.2302e+001 42094 92976,92806,92780
 3.9000e+000 92930 -1.7326e+002 -3.8692e+002  7.2616e-001 42094 92976,92780,92754
 3.9000e+000 92907 -3.6441e+001 -3.9747e+002 -1.9091e+000 42094 93048,92832,92806
 3.9000e+000 92884 -2.2373e+002 -3.9282e+002 -2.5606e+001 42094 92728,92858,92754
 3.9000e+000 93002 -1.0010e+002 -3.7978e+002  1.1019e+001 42094 93048,92806,92976
 3.9000e+000 93025 -1.6175e+002 -3.8045e+002 -5.5601e+000 42094 92858,92976,92754
 3.9000e+000 93074 -1.2515e+002 -4.3016e+002 -4.1236e+000 42094 92858,92832,93048
 3.9000e+000 93097 -1.7743e+002 -4.0562e+002  3.3965e+000 42094 92858,93048,92976
 3.9000e+000 93605 -1.6751e+002 -4.7646e+002 -1.6751e+001 41846 93628,93412,93386
 3.9000e+000 93582 -1.2532e+002 -3.6060e+002 -6.4593e-001 41846 93628,93386,93308
 3.9000e+000 93559 -1.9476e+002 -3.7854e+002 -7.8341e+001 41846 93700,93464,93438
 3.9000e+000 93536 -1.7755e+002 -4.9865e+002  7.1051e+000 41846 93308,93386,93334
 3.9000e+000 93513 -2.3483e+002 -3.6510e+002 -5.6406e+001 41846 93334,93386,93360
 3.9000e+000 93490 -1.8717e+002 -3.3633e+002 -7.3498e+001 41846 93282,93464,93308
 3.9000e+000 93654 -1.4517e+002 -3.8237e+002 -3.5002e+001 41846 93438,93412,93628
 3.9000e+000 93677 -1.9393e+002 -3.8590e+002 -3.6119e+001 41846 93700,93438,93628
 3.9000e+000 93726 -1.7690e+002 -3.2642e+002 -6.9468e+001 41846 93308,93464,93700
 3.9000e+000 93749 -1.6897e+002 -3.1737e+002 -2.7779e+001 41846 93308,93700,93628
 3.9000e+000 94255 -1.2964e+002 -3.8772e+002  2.4578e+001 41385 93958,94114,94088
 3.9000e+000 94232 -1.1542e+002 -4.1550e+002  1.1107e+001 41385 93932,94114,93958
 3.9000e+000 94209 -2.2558e+002 -4.4981e+002  7.2167e+001 41385 93958,94088,94062
 3.9000e+000 94186 -2.3434e+002 -3.2695e+002  5.2966e+001 41385 93958,94062,93984
 3.9000e+000 94163 -2.0668e+002 -3.1874e+002  5.1365e+001 41385 93984,94062,94036
 3.9000e+000 94140 -1.4208e+002 -4.4806e+002  7.7604e+001 41385 93984,94036,94010
 3.9000e+000 94476 -3.8902e+001 -5.2259e+002  3.1806e+001 40881 94326,94378,94352
 3.9000e+000 94453 -8.7028e+001 -4.3010e+002  3.4887e+001 40881 94300,94378,94326
 3.9000e+000 94430 -1.0739e+002 -3.9660e+002  3.7296e+000 40881 94300,94404,94378
 3.9000e+000 94626 -1.2353e+002 -3.2306e+002 -3.8776e+000 40591 94649,94551,94525
 3.9000e+000 94603 -6.6455e+001 -2.0099e+002  1.1139e+000 40591 94781,94577,94551
 3.9000e+000 94675 -4.2953e+001 -2.3333e+002 -3.8747e+001 40591 94781,94551,94649
 3.9000e+000 94807 -5.3251e+000 -1.3968e+002  3.7953e+001 40591 94499,94577,94781
 3.9000e+000 94830  4.7117e-001 -2.0470e+002 -3.8402e+000 40591 94499,94781,94649
 3.9000e+000 95336 -2.6415e+002 -3.6281e+002 -5.5098e+001 40187 95013,95169,95039
 3.9000e+000 95313 -5.7248e+001 -3.2795e+002  7.6305e+000 40187 95013,95195,95169
 3.9000e+000 95290 -4.5369e+001 -3.5780e+002 -3.7982e+001 40187 95039,95143,95065
 3.9000e+000 95267 -2.0215e+002 -4.1918e+002 -6.1169e+001 40187 95039,95169,95143
 3.9000e+000 95244 -9.6849e+001 -3.4442e+002 -3.6305e+001 40187 95091,95143,95117
 3.9000e+000 95221 -3.2280e+001 -2.1877e+002 -1.3811e+001 40187 95065,95143,95091
 3.9000e+000 95665 -1.0540e+002 -2.8697e+002  1.1461e+002 39626 95466,95570,95544
 3.9000e+000 95642 -1.9041e+002 -2.3227e+002  7.4598e+001 39626 95440,95570,95466
 3.9000e+000 95619 -2.8869e+002 -3.7276e+002  7.3170e+001 39626 95466,95544,95492
 3.9000e+000 95596 -6.6237e+001 -2.8995e+002  1.1323e+002 39626 95492,95544,95518
 3.9000e+000 95913 -1.5276e+002 -3.3674e+002 -4.9372e+001 39136 96080,95936,95766
 3.9000e+000 95890 -1.0481e+002 -3.6002e+002 -2.9821e+001 39136 95936,95714,95688
 3.9000e+000 95867 -2.6717e+002 -3.5884e+002  1.3089e+001 39136 96008,95792,95766
 3.9000e+000 95844 -1.2542e+002 -3.2681e+002 -3.7038e+001 39136 96080,95766,95740
 3.9000e+000 95962 -2.1216e+002 -3.7212e+002 -3.2511e+001 39136 96008,95766,95936
 3.9000e+000 95985 -1.3773e+002 -4.3749e+002 -7.3435e+000 39136 95818,95936,95688
 3.9000e+000 96034 -1.3396e+002 -3.0084e+002  2.2000e+001 39136 95818,95792,96008
 3.9000e+000 96057 -1.1939e+002 -3.2980e+002 -2.2809e+001 39136 95818,96008,95936
 3.9000e+000 96106 -1.3927e+002 -3.3253e+002 -1.3096e+001 39136 95714,95936,96080
 3.9000e+000 96129 -9.6885e+001 -3.2101e+002 -3.4449e+000 39136 95714,96080,95740
 3.9000e+000 96350 -1.2512e+002 -2.9822e+002 -1.4836e+001 38824 96200,96278,96252
 3.9000e+000 96327 -1.1167e+002 -2.9178e+002 -1.2891e+001 38824 96174,96278,96200
 3.9000e+000 96304 -4.7278e+001 -2.6777e+002 -4.3128e+001 38824 96200,96252,96226
 3.9000e+000 96830 -1.7885e+002 -3.1287e+002 -1.9811e+001 38320 97069,96536,96484
 3.9000e+000 96807 -1.7601e+002 -3.1725e+002 -1.9533e+001 38320 97069,96484,96853
 3.9000e+000 96784 -1.9656e+002 -3.4061e+002  7.8608e+000 38320 96853,96484,96458
 3.9000e+000 96761 -1.0389e+002 -2.7435e+002 -3.3054e+001 38320 96925,96640,96614
 3.9000e+000 96738 -1.6946e+002 -2.8790e+002 -1.4001e+001 38320 96997,96666,96640
 3.9000e+000 96715 -1.4045e+002 -3.7545e+002 -5.3449e+000 38320 97141,96588,96562
 3.9000e+000 96692 -2.2498e+002 -3.6642e+002  5.7733e-001 38320 96484,96536,96510
 3.9000e+000 96879 -1.7485e+002 -3.3743e+002 -1.0002e+001 38320 97141,96562,96853
 3.9000e+000 96902 -1.6205e+002 -3.2953e+002 -1.0409e+001 38320 96925,96614,96853
 3.9000e+000 96951 -1.6519e+002 -2.8456e+002 -1.6240e+001 38320 96997,96640,96925
 3.9000e+000 96974 -1.5860e+002 -2.7874e+002 -9.0055e+000 38320 96458,96925,96853
 3.9000e+000 97023 -1.8879e+002 -2.9188e+002 -3.8035e+000 38320 96458,96666,96997
 3.9000e+000 97046 -1.7341e+002 -2.8427e+002 -6.3139e+000 38320 96458,96997,96925
 3.9000e+000 97095 -1.9237e+002 -3.1449e+002  4.8636e+000 38320 96562,96536,97069
 3.9000e+000 97118 -1.6682e+002 -3.1540e+002 -1.5719e+001 38320 96562,97069,96853
 3.9000e+000 97167 -7.9761e+001 -3.4071e+002 -2.1522e+001 38320 96614,96588,97141
 3.9000e+000 97190 -1.3644e+002 -3.1894e+002 -2.1723e+001 38320 96614,97141,96853
 3.9000e+000 97519 -1.3392e+002 -3.9597e+002  1.0420e+002 37766 97542,97398,97372
 3.9000e+000 97496 -1.5981e+002 -3.1571e+002  7.2664e+001 37766 97542,97372,97346
 3.9000e+000 97473 -1.6081e+002 -3.2647e+002  9.4757e+000 37766 97294,97424,97346
 3.9000e+000 97450 -1.7982e+002 -3.8467e+002  1.8773e+000 37766 97294,97346,97320
 3.9000e+000 97568 -7.2394e+001 -4.1269e+002  3.7907e+001 37766 97424,97398,97542
 3.9000e+000 97591 -1.1366e+002 -3.2148e+002  1.1760e+001 37766 97424,97542,97346
 3.9000e+000 98048 -1.6643e+002 -2.4202e+002 -8.0967e+001 37262 98071,97878,97852
 3.9000e+000 98025 -1.4125e+002 -2.8999e+002 -3.4262e+001 37262 98071,97852,97800
 3.9000e+000 98002 -1.6857e+002 -3.6295e+002 -3.0356e+001 37262 97800,97852,97826
 3.9000e+000 97979 -1.7205e+002 -3.1573e+002  1.0422e+001 37262 97800,97930,97904
 3.9000e+000 97956 -1.1669e+002 -3.9151e+002  2.6291e+001 37262 97774,97930,97800
 3.9000e+000 98097 -2.3566e+002 -2.7581e+002 -5.7748e+001 37262 97904,97878,98071
 3.9000e+000 98120 -1.7957e+002 -3.2953e+002 -1.5343e+001 37262 97904,98071,97800
 3.9000e+000 98449 -8.2829e+001 -2.3168e+002 -2.7736e+001 36950 98472,98302,98250
 3.9000e+000 98426 -4.8331e+001 -2.2071e+002 -3.4137e+001 36950 98472,98250,98354
 3.9000e+000 98403 -1.2855e+002 -2.5490e+002  2.9556e+001 36950 98250,98302,98276
 3.9000e+000 98380 -3.1553e+001 -1.7545e+002  1.6851e+001 36950 98224,98354,98250
 3.9000e+000 98498 -5.7475e+001 -2.5955e+002 -7.4007e+000 36950 98328,98302,98472
 3.9000e+000 98521 -1.7219e+001 -2.4322e+002 -1.9562e+001 36950 98328,98472,98354
 3.9000e+000 99125 -1.8275e+002 -1.8562e+002  1.8117e+001 36296 98704,98756,98730
 3.9000e+000 99102 -1.7611e+002 -2.0537e+002  1.6602e+001 36296 98704,98938,98756
 3.9000e+000 99079 -1.2922e+002 -2.4815e+002 -5.8274e+000 36296 99148,98938,98912
 3.9000e+000 99056 -1.3883e+002 -2.5490e+002  5.8433e+001 36296 99292,99220,98782
 3.9000e+000 99033 -1.1249e+002 -2.8344e+002  6.8920e+000 36296 99148,98912,98834
 3.9000e+000 99010 -1.3024e+002 -2.1508e+002  6.3411e+001 36296 99292,98782,98756
 3.9000e+000 98987 -1.0681e+002 -4.9902e+002 -9.0912e+001 36296 98834,98912,98886
 3.9000e+000 98964 -1.8329e+002 -7.3142e+002 -1.1643e+002 36296 98834,98886,98860
 3.9000e+000 99174 -1.5845e+002 -3.0435e+002  8.9661e+000 36296 99220,98938,99148
 3.9000e+000 99197 -1.1073e+002 -3.4647e+002  3.7804e+001 36296 98808,99148,98834
 3.9000e+000 99246 -1.3685e+002 -2.4887e+002  1.4240e+002 36296 98808,98782,99220
 3.9000e+000 99269 -5.5569e+001 -2.1968e+002  4.6620e+001 36296 98808,99220,99148
 3.9000e+000 99318 -1.4533e+002 -2.1510e+002  3.0950e+001 36296 98938,99220,99292
 3.9000e+000 99341 -1.4873e+002 -2.2152e+002  3.6345e+001 36296 98938,99292,98756
 3.9000e+000 99719 -1.8419e+002 -3.8450e+002  3.8048e-001 35742 99742,99471,99601
 3.9000e+000 99696 -1.9035e+002 -3.0379e+002  3.6454e+001 35742 99445,99601,99471
 3.9000e+000 99673 -1.7634e+002 -3.6663e+002 -1.6734e+001 35742 99742,99601,99575
 3.9000e+000 99650 -1.5268e+002 -4.4759e+002 -1.2984e+001 35742 99814,99549,99523
 3.9000e+000 99627 -1.2239e+002 -3.4947e+002 -3.2362e+000 35742 99471,99523,99497
 3.9000e+000 99768 -1.4760e+002 -3.7576e+002  7.4289e+000 35742 99523,99471,99742
 3.9000e+000 99791 -1.7302e+002 -4.1461e+002 -1.1470e+001 35742 99814,99523,99742
 3.9000e+000 99840 -1.4848e+002 -4.0692e+002 -2.5600e+001 35742 99575,99549,99814
 3.9000e+000 99863 -1.6195e+002 -3.6429e+002 -2.3099e+001 35742 99575,99814,99742
 3.9000e+000 100111 -1.3836e+002 -3.0937e+002  2.1920e+001 35302 100134,99990,99938
 3.9000e+000 100088 -1.1524e+002 -2.8338e+002  6.7458e+000 35302 100134,99938,99912
 3.9000e+000 100065 -1.1559e+002 -2.8239e+002 -7.4390e+000 35302 100206,99886,100016
 3.9000e+000 100042 -1.8271e+002 -2.8019e+002  1.3821e+001 35302 99938,99990,99964
 3.9000e+000 100160 -1.0745e+002 -2.9756e+002  5.5750e+000 35302 100016,99990,100134
 3.9000e+000 100183 -1.1019e+002 -2.8687e+002 -7.2810e+000 35302 100206,100016,100134
 3.9000e+000 100232 -1.2023e+002 -2.8775e+002 -4.1058e+000 35302 99912,99886,100206
 3.9000e+000 100255 -1.1518e+002 -2.9337e+002 -4.1207e+000 35302 99912,100206,100134
 3.9000e+000 100586 -1.7156e+002 -2.0642e+002  5.0309e+001 35012 100609,100387,100361
 3.9000e+000 100563 -2.0723e+002 -1.6135e+002 -3.7654e+001 35012 100609,100361,100465
 3.9000e+000 100540 -9.8891e+001 -1.1813e+002 -8.4892e+001 35012 100361,100491,100465
 3.9000e+000 100517 -3.9244e+001 -1.2674e+002 -7.3051e+001 35012 100413,100465,100439
 3.9000e+000 100635 -8.0909e+001 -1.6699e+002  2.4862e+001 35012 100413,100387,100609
 3.9000e+000 100658 -1.1474e+002 -1.1155e+002 -6.5453e+001 35012 100413,100609,100465
 3.9000e+000 100987 -1.4563e+002 -3.1764e+002  3.0503e+001 34700 100788,100866,100814
 3.9000e+000 100964 -1.1979e+002 -2.5647e+002  4.8600e+001 34700 101010,100866,100788
 3.9000e+000 100941 -8.5507e+001 -1.9677e+002  5.1792e+001 34700 100762,100892,100866
 3.9000e+000 100918 -1.3873e+002 -2.9771e+002  1.7329e+001 34700 100814,100866,100840
 3.9000e+000 101036 -8.1144e+001 -2.2685e+002  7.4837e+001 34700 100762,100866,101010
 3.9000e+000 101493 -1.9233e+002 -3.6009e+002 -3.3648e+001 34132 101516,101349,101297
 3.9000e+000 101470 -2.2878e+002 -4.3152e+002 -5.2564e+001 34132 101588,101516,101297
 3.9000e+000 101447 -2.3034e+002 -4.5610e+002 -7.6664e+001 34132 101588,101297,101245
 3.9000e+000 101424 -1.3897e+002 -5.3372e+002 -7.1542e+001 34132 101245,101297,101271
 3.9000e+000 101401 -2.2440e+002 -3.6492e+002 -4.2475e+001 34132 101297,101349,101323
 3.9000e+000 101542 -2.0231e+002 -4.1566e+002 -2.6115e+001 34132 101375,101349,101516
 3.9000e+000 101565 -1.7815e+002 -4.1070e+002 -2.5731e+001 34132 101375,101516,101219
 3.9000e+000 101614 -1.8256e+002 -4.3455e+002 -2.6701e+001 34132 101219,101516,101588
 3.9000e+000 101637 -2.0616e+002 -4.5789e+002 -4.9703e+001 34132 101219,101588,101245
 3.9000e+000 101858 -8.3212e+001 -3.1683e+002  2.9041e+001 33720 101708,101786,101760
 3.9000e+000 101835 -6.7527e+001 -3.5013e+002  4.0667e+001 33720 101682,101786,101708
 3.9000e+000 101812 -1.2383e+002 -3.3750e+002  1.9843e+001 33720 101708,101760,101734
 3.9000e+000 102128 -3.9801e+001 -3.7257e+002 -9.9613e+000 33130 101903,102007,101929
 3.9000e+000 102105 -5.0545e+001 -4.3058e+002  1.3978e+001 33130 101903,102033,102007
 3.9000e+000 102082 -2.0064e+001 -4.4759e+002 -8.9740e+001 33130 101929,102007,101955
 3.9000e+000 102059 -6.6042e+001 -3.1611e+002  6.6505e+000 33130 101955,102007,101981
 3.9000e+000 102461 -1.4895e+002 -3.2577e+002 -2.7355e+001 32840 102236,102340,102262
 3.9000e+000 102438 -1.2944e+002 -2.3229e+002  8.5384e+000 32840 102236,102366,102340
 3.9000e+000 102415 -9.4858e+001 -3.1190e+002 -2.2613e+001 32840 102262,102340,102288
 3.9000e+000 102392 -1.7740e+002 -3.3219e+002 -6.1868e+001 32840 102288,102340,102314
 3.9000e+000 102997 -1.2491e+002 -2.1316e+002  6.0267e+001 32493 102749,102879,102853
 3.9000e+000 102974 -1.0122e+002 -1.6763e+002  4.2137e+001 32493 102723,102879,102749
 3.9000e+000 102951 -1.4692e+002 -2.6000e+002  4.0807e+001 32493 102749,102801,102775
 3.9000e+000 102928 -1.5633e+002 -2.5767e+002  3.8947e+001 32493 102749,102853,102801
 3.9000e+000 102905 -1.4620e+002 -2.4097e+002  3.1615e+001 32493 102801,102853,102827
 3.9000e+000 103454 -1.5147e+002 -2.6691e+002 -2.7627e+001 32089 103206,103336,103310
 3.9000e+000 103431 -1.2214e+002 -2.8184e+002 -4.6364e+000 32089 103180,103336,103206
 3.9000e+000 103408 -1.6406e+002 -3.1178e+002 -5.1188e+001 32089 103206,103284,103258
 3.9000e+000 103385 -2.3439e+002 -3.2147e+002 -6.1879e+001 32089 103206,103310,103284
 3.9000e+000 103362 -1.2899e+002 -2.1961e+002 -2.5070e+001 32089 103206,103258,103232
 3.9000e+000 103783 -2.5633e+002 -3.3548e+002 -3.7995e+001 31742 103558,103662,103584
 3.9000e+000 103760 -2.0628e+002 -2.5374e+002 -8.4917e+001 31742 103558,103688,103662
 3.9000e+000 103737 -1.6801e+002 -2.6622e+002 -7.1975e+001 31742 103584,103662,103636
 3.9000e+000 103714 -1.5734e+002 -2.9534e+002 -7.9390e+001 31742 103584,103636,103610
 3.9000e+000 104112 -9.9126e+000 -2.7048e+002  6.3415e+001 31402 103939,103991,103965
 3.9000e+000 104089 -7.6869e+001 -2.2701e+002  2.5630e+001 31402 103913,103991,103939
 3.9000e+000 104066 -1.0912e+002 -2.5472e+002  1.1373e+001 31402 103913,104017,103991
 3.9000e+000 104043 -1.3360e+002 -2.4080e+002 -4.8523e+000 31402 103887,104017,103913
 3.9000e+000 104569 -2.4035e+002 -4.0941e+002  8.1904e+000 30998 104321,104425,104373
 3.9000e+000 104546 -2.6994e+002 -4.1780e+002  2.8505e+000 30998 104321,104451,104425
 3.9000e+000 104523 -1.9229e+002 -3.4564e+002  4.2522e+001 30998 104373,104425,104399
 3.9000e+000 104500 -2.2133e+002 -4.8272e+002 -2.8969e+001 30998 104295,104451,104321
 3.9000e+000 104477 -3.1362e+002 -4.7809e+002  8.0238e+001 30998 104321,104373,104347
 3.9000e+000 104947 -1.9568e+002 -3.4154e+002 -3.6871e+001 30608 104751,104803,104777
 3.9000e+000 104924 -1.3590e+002 -3.5948e+002 -1.4754e+001 30608 104725,104803,104751
 3.9000e+000 104901 -2.0924e+002 -3.4643e+002  2.3071e+001 30608 104699,104803,104725
 3.9000e+000 104878 -1.8692e+002 -3.3728e+002  2.2209e+001 30608 104673,104803,104699
 3.9000e+000 104855 -1.4457e+002 -3.2328e+002 -1.1619e+001 30608 104673,104829,104803
 3.9000e+000 105276 -1.2347e+002 -3.1895e+002  1.2405e+001 30204 105427,105129,105077
 3.9000e+000 105253 -7.0761e+001 -3.4206e+002  7.6488e+001 30204 105427,105077,105051
 3.9000e+000 105230 -1.2795e+002 -3.2443e+002  9.7338e+000 30204 105077,105129,105103
 3.9000e+000 105207 -9.1993e+001 -2.8656e+002  3.8115e+001 30204 105299,105181,105155
 3.9000e+000 105325 -1.0338e+002 -2.8517e+002  1.3734e+001 30204 105129,105181,105299
 3.9000e+000 105453 -1.5674e+002 -3.3891e+002  3.5366e+001 30204 105181,105129,105427
 3.9000e+000 105476 -1.8442e+002 -3.9867e+002  1.0724e+002 30204 105181,105427,105051
 3.9000e+000 105903 -1.1491e+002 -2.7061e+002 -2.1775e+001 29700 105606,105762,105736
 3.9000e+000 105880 -1.4712e+002 -2.7699e+002  9.4005e-001 29700 105580,105762,105606
 3.9000e+000 105857 -1.7414e+002 -3.4280e+002 -2.1060e+001 29700 105606,105710,105632
 3.9000e+000 105834 -1.4517e+002 -2.8714e+002 -1.0498e+001 29700 105606,105736,105710
 3.9000e+000 105811 -1.6562e+002 -3.1074e+002 -2.3125e+001 29700 105632,105710,105684
 3.9000e+000 105788 -1.5419e+002 -2.8364e+002 -1.5760e+001 29700 105632,105684,105658
 3.9000e+000 106102 -5.7670e+001 -3.4784e+002  1.4017e+001 29124 105978,106030,106004
 3.9000e+000 106079 -9.3524e+001 -3.4024e+002  1.5529e+001 29124 105926,106030,105978
 3.9000e+000 106056 -1.1013e+002 -3.9742e+002  4.1545e+001 29124 105926,105978,105952
 3.9000e+000 106301 -8.9773e+001 -3.3173e+002  1.0001e+000 28712 106151,106229,106203
 3.9000e+000 106278 -1.0651e+002 -3.6671e+002 -1.6890e+001 28712 106125,106229,106151
 3.9000e+000 106255 -9.4551e+001 -3.5027e+002  1.8878e+001 28712 106151,106203,106177
 3.9000e+000 106551 -1.0736e+002 -4.1367e+002  1.5417e+001 28258 106352,106404,106378
 3.9000e+000 106528 -1.5963e+002 -4.2560e+002  5.0780e+000 28258 106352,106456,106404
 3.9000e+000 106505 -1.1492e+002 -4.4954e+002 -2.9800e+000 28258 106326,106456,106352
 3.9000e+000 106482 -1.4021e+002 -3.9641e+002 -7.5078e+000 28258 106404,106456,106430
 3.9000e+000 107012 -1.3897e+002 -3.5661e+002  7.1810e+001 27818 107035,106790,106764
 3.9000e+000 106989 -1.2078e+002 -3.3867e+002  2.6669e+001 27818 107035,106764,106868
 3.9000e+000 106966 -8.5014e+001 -4.0314e+002  3.9188e+001 27818 107107,106842,106816
 3.9000e+000 106943 -1.8535e+002 -3.1722e+002  1.5618e+001 27818 106738,106868,106764
 3.9000e+000 106920 -1.7336e+002 -2.8020e+002  3.0508e+001 27818 106738,106894,106868
 3.9000e+000 107061 -5.9770e+001 -3.3992e+002  8.0991e+001 27818 106816,106790,107035
 3.9000e+000 107084 -1.0564e+002 -3.7759e+002  4.1126e+001 27818 107107,106816,107035
 3.9000e+000 107133 -8.1397e+001 -3.6588e+002  2.1058e+001 27818 106868,106842,107107
 3.9000e+000 107156 -9.4699e+001 -3.2769e+002  2.7737e+001 27818 106868,107107,107035
 3.9000e+000 107613 -4.2175e+001 -2.6948e+002  5.8092e+001 27312 107339,107469,107365
 3.9000e+000 107590 -4.3566e+000 -2.4647e+002  4.8381e+001 27312 107339,107495,107469
 3.9000e+000 107567 -4.5544e+001 -2.6333e+002  2.8484e+001 27312 107391,107469,107443
 3.9000e+000 107544 -4.8567e+001 -2.8371e+002  2.3521e+001 27312 107365,107469,107391
 3.9000e+000 107521 -1.2303e+002 -2.8774e+002  1.0611e+001 27312 107391,107443,107417
 3.9000e+000 107991 -1.4737e+002 -4.0176e+002  7.0367e+000 26858 108086,108014,107795
 3.9000e+000 107968 -1.6169e+002 -4.2589e+002 -4.8279e+001 26858 108014,107717,107873
 3.9000e+000 107945 -1.7275e+002 -4.2192e+002  2.5003e+001 26858 108158,108086,107795
 3.9000e+000 107922 -1.4159e+002 -4.1763e+002  2.2039e+001 26858 108158,107795,107769
 3.9000e+000 107899 -8.9388e+001 -5.2174e+002  7.2560e+001 26858 107821,107873,107847
 3.9000e+000 108040 -1.5116e+002 -4.6469e+002  2.0637e+001 26858 107821,107795,108014
 3.9000e+000 108063 -6.2264e+001 -4.4409e+002 -1.1474e+001 26858 107821,108014,107873
 3.9000e+000 108112 -2.1372e+002 -4.2746e+002  1.5512e+001 26858 107717,108014,108086
 3.9000e+000 108135 -1.7618e+002 -4.4327e+002  4.6987e+001 26858 107717,108086,107743
 3.9000e+000 108184 -1.3607e+002 -4.2002e+002  3.5861e+001 26858 107743,108086,108158
 3.9000e+000 108207 -1.2289e+002 -4.2861e+002  3.5363e+001 26858 107743,108158,107769
 3.9000e+000 108634 -1.9565e+002 -3.9449e+002  4.5194e+000 26404 108657,108415,108363
 3.9000e+000 108611 -2.1965e+002 -4.2695e+002  4.0396e+001 26404 108657,108363,108337
 3.9000e+000 108588 -1.9224e+002 -3.9253e+002  4.6583e+001 26404 108729,108311,108467
 3.9000e+000 108565 -2.2141e+002 -4.5753e+002  1.8884e+000 26404 108801,108441,108415
 3.9000e+000 108542 -2.8872e+002 -4.3681e+002  5.8577e+001 26404 108311,108493,108467
 3.9000e+000 108519 -1.3721e+002 -3.9357e+002  5.4297e+000 26404 108363,108415,108389
 3.9000e+000 108683 -2.6078e+002 -4.1908e+002  7.0852e+000 26404 108801,108415,108657
 3.9000e+000 108706 -2.4982e+002 -4.1105e+002  3.5916e+001 26404 108729,108467,108657
 3.9000e+000 108755 -1.5392e+002 -4.1920e+002  4.6826e+001 26404 108337,108311,108729
 3.9000e+000 108778 -1.8345e+002 -4.1764e+002  3.5823e+001 26404 108337,108729,108657
 3.9000e+000 108827 -2.6069e+002 -5.3292e+002 -2.0549e+001 26404 108467,108441,108801
 3.9000e+000 108850 -2.8260e+002 -4.6740e+002 -1.4646e+001 26404 108467,108801,108657
 3.9000e+000 109228 -1.8543e+002 -3.9599e+002 -1.9952e+001 26064 109006,109084,109058
 3.9000e+000 109205 -1.6599e+002 -3.6925e+002  7.3861e+000 26064 108980,109084,109006
 3.9000e+000 109182 -1.8059e+002 -3.5422e+002 -1.1925e+001 26064 108980,109110,109084
 3.9000e+000 109159 -1.7815e+002 -4.1773e+002 -2.9776e+000 26064 109006,109058,109032
 3.9000e+000 109136 -6.1326e+001 -3.1894e+002  1.2127e+001 26064 108954,109110,108980
 3.9000e+000 109427 -5.6331e+001 -3.4350e+002 -6.9260e+001 25660 109303,109355,109329
 3.9000e+000 109404 -1.0260e+002 -4.3575e+002 -1.8293e+001 25660 109277,109355,109303
 3.9000e+000 109381 -8.0443e+001 -4.0989e+002 -7.3153e+000 25660 109251,109355,109277
 3.9000e+000 109577 -7.7343e+001 -1.8740e+002  6.4551e+001 25306 109476,109528,109502
 3.9000e+000 109554  2.5083e+000 -1.7477e+002  3.7765e+001 25306 109450,109528,109476
 3.9000e+000 109778 -1.3104e+002 -3.6051e+002  1.1020e+001 24944 109628,109706,109654
 3.9000e+000 109755 -1.4136e+002 -3.4906e+002  1.7462e+000 24944 109602,109706,109628
 3.9000e+000 109732 -1.1506e+002 -3.3662e+002 -1.6890e+000 24944 109654,109706,109680
 3.9000e+000 110126 -1.4173e+002 -4.7502e+002  1.5131e+001 24440 110149,109907,109855
 3.9000e+000 110103 -1.3986e+002 -4.9913e+002  2.8668e+001 24440 110149,109855,109985
 3.9000e+000 110080 -1.1606e+002 -4.1388e+002  8.8203e+000 24440 109855,109907,109881
 3.9000e+000 110057 -1.2347e+002 -3.9651e+002  1.2126e+002 24440 109829,109985,109855
 3.9000e+000 110034 -1.2666e+002 -4.7397e+002  6.4797e-002 24440 109907,109959,109933
 3.9000e+000 110011 -9.9525e+001 -4.1352e+002  1.2849e+001 24440 109803,109985,109829
 3.9000e+000 110175 -1.3886e+002 -4.5284e+002  8.0761e+000 24440 109959,109907,110149
 3.9000e+000 110198 -1.3903e+002 -4.7463e+002  2.4223e+001 24440 109959,110149,109985
 3.9000e+000 110301 -2.3467e+001 -3.0184e+002 -7.8831e+000 24028 110223,110275,110249
 3.9000e+000 110573 -5.7327e+001 -2.7535e+002  2.1715e+001 23467 110400,110452,110426
 3.9000e+000 110550 -9.6651e+001 -3.2183e+002  1.8803e-001 23467 110374,110452,110400
 3.9000e+000 110527 -9.8351e+001 -3.2246e+002  4.7831e+000 23467 110348,110452,110374
 3.9000e+000 110504 -7.1776e+001 -3.0945e+002 -2.9758e+000 23467 110348,110478,110452
 3.9000e+000 111004 -2.2653e+002 -4.7059e+002 -4.3151e+001 22963 111027,110733,110707
 3.9000e+000 110981 -2.1704e+002 -4.4644e+002  1.8720e+001 22963 111027,110707,110681
 3.9000e+000 110958 -1.0967e+002 -4.0087e+002 -4.6786e+001 22963 111099,110759,110733
 3.9000e+000 110935 -1.4092e+002 -3.9096e+002 -3.3671e+001 22963 111171,110863,110811
 3.9000e+000 110912 -7.2458e+001 -2.9380e+002 -5.1583e+001 22963 110759,110811,110785
 3.9000e+000 110889 -1.5334e+002 -4.0989e+002 -2.6906e+001 22963 110811,110863,110837
 3.9000e+000 111053 -1.5738e+002 -4.3360e+002 -2.9304e+001 22963 111099,110733,111027
 3.9000e+000 111076 -1.3326e+002 -4.2300e+002 -2.7698e+001 22963 111171,110811,111027
 3.9000e+000 111125 -1.0763e+002 -3.9393e+002 -7.2361e+001 22963 110811,110759,111099
 3.9000e+000 111148 -1.1545e+002 -3.8993e+002 -6.1786e+001 22963 110811,111099,111027
 3.9000e+000 111197 -1.4308e+002 -3.3823e+002 -4.2510e+001 22963 110681,110863,111171
 3.9000e+000 111220 -1.5013e+002 -3.7720e+002 -2.1887e+001 22963 110681,111171,111027
 3.9000e+000 111726 -2.1279e+002 -4.1164e+002  1.0498e+001 22459 111749,111507,111429
 3.9000e+000 111703 -1.9878e+002 -4.0790e+002 -8.4253e+000 22459 111749,111429,111585
 3.9000e+000 111680 -1.7152e+002 -4.6186e+002 -6.1524e+000 22459 111403,111585,111429
 3.9000e+000 111657 -2.0168e+002 -4.5157e+002  1.8722e+001 22459 111507,111559,111533
 3.9000e+000 111634 -2.8202e+002 -3.9860e+002  2.5791e+001 22459 111455,111507,111481
 3.9000e+000 111611 -2.8924e+002 -3.9652e+002  3.6129e+001 22459 111429,111507,111455
 3.9000e+000 111775 -2.1518e+002 -4.3995e+002  2.4513e+001 22459 111559,111507,111749
 3.9000e+000 111798 -1.9917e+002 -4.2082e+002  6.2219e+000 22459 111559,111749,111585
 3.9000e+000 112046 -9.3976e+001 -3.4593e+002 -4.6782e+001 21898 112069,111925,111873
 3.9000e+000 112023 -9.0867e+001 -3.4992e+002 -1.2510e+001 21898 112069,111873,111847
 3.9000e+000 112000 -1.2179e+002 -3.6195e+002 -2.0102e+001 21898 111821,111951,111847
 3.9000e+000 111977 -1.0592e+002 -2.7496e+002 -3.1305e+001 21898 111873,111925,111899
 3.9000e+000 112095 -1.4266e+002 -3.6432e+002 -5.2259e+001 21898 111951,111925,112069
 3.9000e+000 112118 -1.1920e+002 -3.6027e+002 -1.9364e+001 21898 111951,112069,111847
 3.9000e+000 112498 -1.6820e+002 -3.8907e+002 -3.2486e+001 21608 112521,112276,112224
 3.9000e+000 112475 -1.1206e+002 -3.9549e+002  1.8765e+000 21608 112521,112224,112380
 3.9000e+000 112452 -1.1980e+002 -4.4814e+002  2.7677e+001 21608 112302,112380,112354
 3.9000e+000 112429 -1.8527e+002 -4.3869e+002 -2.5549e+001 21608 112224,112276,112250
 3.9000e+000 112406  5.7508e+001 -4.6628e+002 -9.3747e+000 21608 112302,112354,112328
 3.9000e+000 112547 -1.2238e+002 -3.3428e+002 -7.5614e+000 21608 112302,112276,112521
 3.9000e+000 112570 -8.6091e+001 -3.7919e+002  1.6854e+001 21608 112302,112521,112380
 3.9000e+000 112948 -1.9227e+002 -4.0434e+002 -8.5131e+000 20882 112971,112752,112700
 3.9000e+000 112925 -1.4989e+002 -3.8892e+002 -1.4036e+001 20882 112971,112700,112830
 3.9000e+000 112902 -2.4302e+002 -4.3111e+002  2.6258e+001 20882 112778,112830,112804
 3.9000e+000 112879 -1.3841e+002 -3.1461e+002 -2.0098e+001 20882 112674,112830,112700
 3.9000e+000 112856 -2.3502e+002 -4.2259e+002  6.4484e+000 20882 112700,112752,112726
 3.9000e+000 112997 -1.9238e+002 -4.0140e+002  1.5185e+001 20882 112778,112752,112971
 3.9000e+000 113020 -1.6843e+002 -3.9362e+002  8.5394e+000 20882 112778,112971,112830
 3.9000e+000 113526 -1.4458e+002 -4.0744e+002  1.0191e+000 20428 113255,113385,113333
 3.9000e+000 113503 -1.5898e+002 -4.4749e+002 -3.2989e-001 20428 113229,113385,113255
 3.9000e+000 113480 -2.4094e+001 -4.0093e+002  1.5685e+000 20428 113255,113333,113281
 3.9000e+000 113457 -1.4115e+002 -4.4564e+002 -4.1955e-001 20428 113203,113385,113229
 3.9000e+000 113434 -7.2774e+001 -4.1989e+002 -1.4579e+001 20428 113281,113333,113307
 3.9000e+000 113411 -1.6730e+002 -3.9940e+002  6.1026e+000 20428 113333,113385,113359
 3.9000e+000 113774 -2.4908e+001 -3.7885e+002  1.4517e+001 19917 113797,113601,113549
 3.9000e+000 113751 -6.4509e+001 -3.8752e+002  1.9811e+001 19917 113869,113797,113549
 3.9000e+000 113728 -6.1453e+001 -3.9248e+002  3.9093e+001 19917 113869,113549,113679
 3.9000e+000 113705 -3.6475e+001 -3.7716e+002  2.9432e+001 19917 113549,113601,113575
 3.9000e+000 113823 -6.5101e+001 -4.5988e+002 -1.6177e+000 19917 113627,113601,113797
 3.9000e+000 113846 -2.4718e+001 -3.6054e+002 -1.0226e+001 19917 113627,113797,113653
 3.9000e+000 113895 -5.4708e+001 -3.4206e+002  5.5431e+000 19917 113653,113797,113869
 3.9000e+000 113918 -6.9672e+001 -3.5404e+002  3.0006e+001 19917 113653,113869,113679
 3.9000e+000 114166 -1.8015e+002 -4.0144e+002 -6.7895e+000 19413 113993,114045,114019
 3.9000e+000 114143 -1.7301e+002 -3.7605e+002  1.6606e+000 19413 113967,114045,113993
 3.9000e+000 114120 -1.3961e+002 -3.6347e+002  1.5917e+001 19413 113967,114071,114045
 3.9000e+000 114097 -1.2694e+002 -4.0809e+002 -8.8351e+000 19413 113941,114071,113967
 3.9000e+000 114438 -1.6358e+002 -4.3116e+002  4.1240e+000 19001 114213,114265,114239
 3.9000e+000 114415 -1.1828e+002 -3.3647e+002 -9.8092e+000 19001 114213,114343,114265
 3.9000e+000 114392 -1.7444e+002 -4.6229e+002 -2.0858e+001 19001 114265,114343,114317
 3.9000e+000 114369  3.3108e+001 -3.7311e+002 -8.7435e+000 19001 114265,114317,114291
 3.9000e+000 114639 -1.2451e+002 -5.1277e+002  2.5086e+001 18554 114489,114541,114515
 3.9000e+000 114616 -1.0911e+002 -4.4386e+002  4.3397e+000 18554 114489,114567,114541
 3.9000e+000 114593 -2.3372e+002 -5.1273e+002 -3.4563e+001 18554 114463,114567,114489
 3.9000e+000 115043 -9.2157e+001 -3.8866e+002  1.3953e+001 18164 114795,114925,114821
 3.9000e+000 115020 -8.1889e+001 -4.1173e+002  2.2909e+001 18164 114769,114925,114795
 3.9000e+000 114997 -5.3853e+001 -4.0599e+002 -2.7737e+000 18164 115066,114873,114821
 3.9000e+000 114974 -5.1455e+001 -3.5137e+002 -1.3045e+001 18164 115066,114821,114925
 3.9000e+000 114951  1.6565e+001 -4.0753e+002 -3.8755e+001 18164 114821,114873,114847
 3.9000e+000 115092 -7.3020e+001 -3.6635e+002 -3.1523e+001 18164 114899,114873,115066
 3.9000e+000 115115 -4.8045e+001 -2.8287e+002 -4.4509e+001 18164 114899,115066,114925
 3.9000e+000 115265 -1.2826e+002 -4.4260e+002  3.9356e+000 17852 115164,115216,115190
 3.9000e+000 115242 -1.3792e+002 -4.6232e+002 -5.7762e-001 17852 115138,115216,115164
 3.9000e+000 115464 -2.6770e+002 -5.9596e+002  9.6586e+000 17346 115288,115366,115340
 3.9000e+000 115441 -4.1186e+002 -4.6675e+002 -1.4302e+001 17346 115288,115392,115366
 3.9000e+000 115418 -2.3978e+002 -6.7271e+002 -2.0801e+001 17346 115288,115340,115314
 3.9000e+000 115736 -1.1964e+002 -3.9948e+002  1.6245e+001 16942 115563,115641,115615
 3.9000e+000 115713 -1.3316e+002 -3.9697e+002  4.2277e+000 16942 115511,115641,115563
 3.9000e+000 115690 -2.8080e+002 -4.6176e+002  2.3815e+001 16942 115563,115615,115589
 3.9000e+000 115667 -1.5606e+002 -4.3058e+002  1.4273e+001 16942 115511,115563,115537
 3.9000e+000 116091 -1.9707e+002 -4.5904e+002 -1.7330e+001 16388 115918,115970,115944
 3.9000e+000 116068 -1.6997e+002 -3.6881e+002 -1.1885e+001 16388 115918,115996,115970
 3.9000e+000 116045 -2.2936e+002 -4.6605e+002  1.5270e+001 16388 115892,115996,115918
 3.9000e+000 116022 -1.5601e+002 -4.2786e+002  4.9592e+001 16388 115866,115996,115892
 3.9000e+000 116192 -7.8872e+001 -5.0318e+002 -7.0199e+001 15810 116114,116166,116140
 3.9000e+000 116342 -1.8172e+002 -5.8251e+002  3.2203e+001 15419 116241,116293,116267
 3.9000e+000 116319 -2.5916e+002 -7.1653e+002 -2.0806e+001 15419 116215,116293,116241
 3.9000e+000 116445 -2.0193e+002 -4.0450e+002  2.9136e+000 421 116367,116419,116393
 4.0000e+000 68477 -2.7398e+002 -4.1590e+002  9.8142e-001 68018 68327,68379,68353
 4.0000e+000 68454 -2.9218e+002 -5.5627e+002  4.1372e+001 68018 68301,68379,68327
 4.0000e+000 68431 -1.1067e+002 -6.1236e+002  1.1090e+002 68018 68301,68405,68379
 4.0000e+000 68578 -1.8357e+002 -3.9580e+002  2.2037e+000 67820 68500,68552,68526
 4.0000e+000 68728 -2.0145e+002 -3.7290e+002 -5.4788e+000 67508 68601,68653,68627
 4.0000e+000 68705 -3.1281e+002 -2.8587e+002 -5.4877e+001 67508 68601,68679,68653
 4.0000e+000 68927 -4.1223e+001 -3.2673e+002 -8.1847e+000 67310 68777,68829,68803
 4.0000e+000 68904 -7.4440e+001 -3.8071e+002  7.0312e+000 67310 68751,68829,68777
 4.0000e+000 68881 -5.3965e+001 -3.8178e+002  2.2575e+001 67310 68751,68855,68829
 4.0000e+000 69386 -1.5493e+002 -4.2077e+002 -2.4782e+001 67020 69216,69268,69242
 4.0000e+000 69363 -1.3926e+002 -3.2532e+002 -4.4306e+001 67020 69138,69268,69216
 4.0000e+000 69340 -1.0275e+002 -2.8740e+002 -2.2446e+001 67020 69112,69268,69138
 4.0000e+000 69317 -1.8740e+002 -3.4968e+002  2.7885e+001 67020 69138,69190,69164
 4.0000e+000 69294 -1.9744e+002 -3.1877e+002 -2.0843e+001 67020 69138,69216,69190
 4.0000e+000 69536 -3.3195e+002 -8.1117e+002 -6.7752e+001 66708 69435,69487,69461
 4.0000e+000 69513 -2.4364e+002 -9.1469e+002 -1.1843e+001 66708 69409,69487,69435
 4.0000e+000 69735 -1.9738e+002 -4.1318e+002  9.8094e+000 66346 69585,69637,69611
 4.0000e+000 69712 -1.6212e+002 -3.9326e+002 -1.6012e+000 66346 69559,69637,69585
 4.0000e+000 69689 -1.4669e+002 -3.9066e+002 -3.8410e+001 66346 69559,69663,69637
 4.0000e+000 69985 -2.6483e+002 -4.6642e+002  5.3514e+000 66148 69786,69890,69864
 4.0000e+000 69962 -2.7396e+002 -4.7277e+002  9.4471e+000 66148 69760,69890,69786
 4.0000e+000 69939 -1.8917e+002 -4.3612e+002 -6.6909e+001 66148 69786,69864,69838
 4.0000e+000 69916 -2.1750e+002 -4.6283e+002 -3.4856e+001 66148 69786,69838,69812
 4.0000e+000 70137 -1.3337e+002 -5.0924e+002 -3.1088e+001 65950 70036,70088,70062
 4.0000e+000 70114 -1.1286e+002 -5.6536e+002  2.5235e+001 65950 70010,70088,70036
 4.0000e+000 70470 -9.7294e+001 -3.7512e+002  3.2234e+001 65546 70245,70323,70271
 4.0000e+000 70447 -6.6339e+001 -3.2723e+002  1.4770e+001 65546 70245,70375,70323
 4.0000e+000 70424 -8.8807e+001 -4.1692e+002  1.4407e+001 65546 70323,70375,70349
 4.0000e+000 70401 -6.9801e+001 -3.4115e+002  1.3732e+001 65546 70271,70323,70297
 4.0000e+000 70620 -1.7114e+002 -4.5604e+002  1.3703e+001 65348 70493,70545,70519
 4.0000e+000 70597 -1.0600e+002 -4.7026e+002  2.1802e+001 65348 70493,70571,70545
 4.0000e+000 70721 -2.1942e+002 -4.5785e+002  3.4833e+001 65150 70643,70695,70669
 4.0000e+000 71020 -1.5561e+002 -3.6135e+002  5.6759e+000 64952 71043,70850,70824
 4.0000e+000 70997 -1.3587e+002 -3.1225e+002  5.8396e+000 64952 71043,70824,70772
 4.0000e+000 70974 -1.4879e+002 -4.1423e+002  6.4758e+000 64952 71115,70746,70876
 4.0000e+000 70951 -1.0888e+002 -4.1285e+002 -5.0770e+000 64952 70746,70902,70876
 4.0000e+000 70928 -1.3772e+002 -2.5909e+002 -2.7152e+001 64952 70772,70824,70798
 4.0000e+000 71069 -1.2640e+002 -3.4629e+002  1.2972e+001 64952 70876,70850,71043
 4.0000e+000 71092 -1.4528e+002 -3.9116e+002  8.0999e+000 64952 71115,70876,71043
 4.0000e+000 71141 -1.6939e+002 -3.8738e+002 -1.4524e+001 64952 70772,70746,71115
 4.0000e+000 71164 -1.5794e+002 -3.5285e+002 -1.3350e+001 64952 70772,71115,71043
 4.0000e+000 71365  1.4932e+000 -4.5310e+002 -5.5572e+000 64662 71215,71293,71267
 4.0000e+000 71342  7.0805e+001 -4.3243e+002 -7.2876e+001 64662 71189,71293,71215
 4.0000e+000 71319  3.9343e+001 -3.8018e+002  8.2385e+000 64662 71215,71267,71241
 4.0000e+000 71615 -9.0202e+001 -3.9967e+002 -7.8842e+000 64350 71710,71638,71468
 4.0000e+000 71592 -1.3360e+002 -3.9662e+002 -1.3671e+001 64350 71638,71416,71390
 4.0000e+000 71569 -9.5279e+001 -3.7414e+002  1.2894e+001 64350 71710,71468,71442
 4.0000e+000 71546  1.0866e+002 -3.8066e+002 -7.6108e+001 64350 71390,71520,71494
 4.0000e+000 71664 -8.7872e+001 -4.0133e+002  1.1617e+000 64350 71494,71468,71638
 4.0000e+000 71687 -9.0240e+001 -4.0802e+002  4.5601e-001 64350 71494,71638,71390
 4.0000e+000 71736 -8.6537e+001 -3.4890e+002  5.4494e+000 64350 71416,71638,71710
 4.0000e+000 71759 -7.6543e+001 -3.2039e+002  3.2891e+001 64350 71416,71710,71442
 4.0000e+000 72318 -1.0156e+002 -6.3831e+002 -2.6643e+001 63837 71972,72024,71998
 4.0000e+000 72295 -1.7376e+002 -4.0658e+002 -3.6691e+000 63837 72341,71972,71946
 4.0000e+000 72272 -1.5608e+002 -3.2636e+002  1.1738e+001 63837 72413,72341,71946
 4.0000e+000 72249 -1.3830e+002 -2.9674e+002  1.1504e+000 63837 72413,71946,72128
 4.0000e+000 72226 -2.2596e+002 -3.5929e+002  1.1005e+000 63837 72024,72076,72050
 4.0000e+000 72203 -1.8783e+002 -3.2941e+002 -1.2933e+001 63837 72024,72102,72076
 4.0000e+000 72180 -7.6776e+001 -2.7497e+002  2.2782e+001 63837 71946,72154,72128
 4.0000e+000 72367 -2.0513e+002 -4.3497e+002 -8.0311e+001 63837 72024,71972,72341
 4.0000e+000 72390 -1.5958e+002 -3.5734e+002 -3.1137e+001 63837 72024,72341,72102
 4.0000e+000 72439 -1.1461e+002 -3.7490e+002  3.8825e+000 63837 72102,72341,72413
 4.0000e+000 72462 -1.0047e+002 -3.4642e+002 -3.6400e+000 63837 72102,72413,72128
 4.0000e+000 72791 -1.8670e+002 -3.7465e+002 -3.9076e+001 63383 72592,72696,72670
 4.0000e+000 72768 -1.8960e+002 -3.4458e+002 -7.0186e+001 63383 72566,72696,72592
 4.0000e+000 72745 -1.8616e+002 -3.2475e+002  1.5720e+000 63383 72592,72670,72618
 4.0000e+000 72722 -1.7841e+002 -3.0722e+002  2.9664e+000 63383 72618,72670,72644
 4.0000e+000 73297 -2.2685e+002 -3.2997e+002 -2.0037e+000 63185 73000,73156,73130
 4.0000e+000 73274 -2.2788e+002 -3.4397e+002  4.3064e+001 63185 72974,73156,73000
 4.0000e+000 73251 -1.6595e+002 -3.8362e+002 -7.8720e+000 63185 73000,73052,73026
 4.0000e+000 73228 -1.8707e+002 -3.4262e+002 -1.8355e+001 63185 73000,73130,73052
 4.0000e+000 73205 -1.8395e+002 -3.8129e+002 -5.9238e+001 63185 73052,73130,73104
 4.0000e+000 73182 -1.7528e+002 -4.2966e+002 -6.4620e+001 63185 73052,73104,73078
 4.0000e+000 73545 -7.0644e+001 -3.5132e+002  3.5353e+000 62781 73568,73398,73372
 4.0000e+000 73522 -4.8968e+001 -3.1713e+002  1.3276e+001 62781 73568,73372,73346
 4.0000e+000 73499 -9.6109e+001 -3.2914e+002 -8.4765e+000 62781 73640,73320,73424
 4.0000e+000 73476 -1.0464e+002 -2.0234e+002 -3.7152e+001 62781 73320,73450,73424
 4.0000e+000 73594 -5.5101e+001 -3.2069e+002 -5.5374e+000 62781 73424,73398,73568
 4.0000e+000 73617 -7.4586e+001 -3.2041e+002 -9.3595e+000 62781 73640,73424,73568
 4.0000e+000 73666 -9.3424e+001 -3.2578e+002  9.3763e+000 62781 73346,73320,73640
 4.0000e+000 73689 -8.2197e+001 -3.2236e+002  8.6991e+000 62781 73346,73640,73568
 4.0000e+000 74035 -1.3447e+002 -4.0485e+002 -4.5260e+000 62363 74058,73868,73842
 4.0000e+000 74012 -1.2798e+002 -3.7283e+002 -2.9667e+001 62363 74130,74058,73842
 4.0000e+000 73989 -1.1569e+002 -3.6913e+002 -3.1458e+001 62363 74130,73842,73816
 4.0000e+000 73966 -1.9554e+002 -4.2072e+002  5.3657e+000 62363 74202,73764,73894
 4.0000e+000 73943 -2.5282e+002 -3.8194e+002  6.8560e+000 62363 73712,73894,73764
 4.0000e+000 73920 -2.7456e+002 -4.0616e+002 -4.3411e+000 62363 73712,73764,73738
 4.0000e+000 74084 -1.3859e+002 -3.9625e+002 -5.2360e+000 62363 73894,73868,74058
 4.0000e+000 74107 -1.7718e+002 -4.0187e+002  2.0596e+001 62363 74202,73894,74058
 4.0000e+000 74156 -1.4221e+002 -3.7909e+002  1.2784e+001 62363 73790,74058,74130
 4.0000e+000 74179 -8.4607e+001 -3.5666e+002  1.5003e+001 62363 73790,74130,73816
 4.0000e+000 74228 -2.1692e+002 -4.2997e+002 -2.2853e+001 62363 73790,73764,74202
 4.0000e+000 74251 -2.0354e+002 -4.1003e+002 -7.6834e+000 62363 73790,74202,74058
 4.0000e+000 74403 -5.8331e+000 -4.3372e+002  2.9591e+001 62115 74426,74302,74276
 4.0000e+000 74380  8.5473e+001 -4.1512e+002  6.6937e+001 62115 74426,74276,74354
 4.0000e+000 74452 -9.1972e+001 -3.8856e+002  2.9544e+001 62115 74328,74302,74426
 4.0000e+000 74475 -6.0687e+000 -3.7266e+002  6.9436e+001 62115 74328,74426,74354
 4.0000e+000 74578  7.2551e+001 -2.0964e+002  2.5872e+000 61825 74500,74552,74526
 4.0000e+000 74982 -2.1182e+002 -3.7150e+002  3.5809e+000 61513 75005,74734,74708
 4.0000e+000 74959 -2.0385e+002 -3.5977e+002 -7.1064e-001 61513 75005,74708,74864
 4.0000e+000 74936 -2.6018e+002 -3.7862e+002  2.8028e+001 61513 75077,74812,74734
 4.0000e+000 74913 -2.4207e+002 -3.9559e+002 -3.4048e+001 61513 74734,74786,74760
 4.0000e+000 74890 -2.3343e+002 -3.4060e+002 -4.7631e-001 61513 74734,74812,74786
 4.0000e+000 75031 -1.9716e+002 -3.7932e+002  6.2103e+000 61513 75077,74734,75005
 4.0000e+000 75054 -1.5619e+002 -3.6998e+002  5.5125e+001 61513 74838,75005,74864
 4.0000e+000 75103 -2.9616e+002 -3.9736e+002  8.4052e+001 61513 74838,74812,75077
 4.0000e+000 75126 -2.5445e+002 -4.1347e+002  6.2475e+001 61513 74838,75077,75005
 4.0000e+000 75553 -9.4632e+001 -3.3741e+002 -1.2861e+001 61060 75576,75360,75308
 4.0000e+000 75530 -1.0385e+002 -3.5689e+002 -1.7009e+001 61060 75576,75308,75230
 4.0000e+000 75507 -8.4474e+001 -3.2049e+002  2.7545e+000 61060 75308,75360,75334
 4.0000e+000 75484 -1.3946e+002 -4.1609e+002  2.6521e+001 61060 75230,75308,75256
 4.0000e+000 75461 -8.9002e+001 -3.8540e+002  1.3601e+001 61060 75256,75308,75282
 4.0000e+000 75438 -1.0416e+002 -3.2954e+002  4.4629e+001 61060 75360,75412,75386
 4.0000e+000 75602 -6.3086e+001 -3.5586e+002  1.9861e+000 61060 75412,75360,75576
 4.0000e+000 75625 -8.7199e+001 -3.9666e+002 -8.4483e+000 61060 75412,75576,75230
 4.0000e+000 76052 -1.4639e+002 -3.4559e+002  5.3620e+000 60442 75755,75859,75833
 4.0000e+000 76029 -1.8074e+002 -3.3162e+002 -2.3848e+001 60442 75729,75859,75755
 4.0000e+000 76006 -1.5507e+002 -3.2180e+002  2.3204e+001 60442 75755,75833,75807
 4.0000e+000 75983 -1.4492e+002 -3.8410e+002  1.3690e+001 60442 75755,75807,75781
 4.0000e+000 75960  2.3735e+001 -6.0313e+002  2.0278e+001 60442 75729,75911,75859
 4.0000e+000 75937 -2.9895e+002 -1.5241e+003  9.7804e+001 60442 75859,75911,75885
 4.0000e+000 76430 -1.4996e+002 -3.9491e+002 -1.7996e+001 59788 76453,76286,76234
 4.0000e+000 76407 -1.6303e+002 -4.5358e+002  5.9927e+000 59788 76453,76234,76182
 4.0000e+000 76384 -1.6835e+002 -2.9830e+002  5.0592e+001 59788 76525,76156,76312
 4.0000e+000 76361 -9.1794e+001 -5.1732e+002 -7.0013e+000 59788 76182,76234,76208
 4.0000e+000 76338 -1.1874e+002 -3.8100e+002 -1.2920e+001 59788 76234,76286,76260
 4.0000e+000 76479 -1.8380e+002 -4.2804e+002  8.1298e-001 59788 76312,76286,76453
 4.0000e+000 76502 -1.5282e+002 -4.0463e+002  2.0389e+001 59788 76525,76312,76453
 4.0000e+000 76551 -2.0978e+002 -4.3169e+002  5.3989e+001 59788 76182,76156,76525
 4.0000e+000 76574 -1.8469e+002 -4.6467e+002  3.2216e+001 59788 76182,76525,76453
 4.0000e+000 77031 -1.0894e+002 -2.3541e+002 -3.7136e+001 59448 76835,76887,76861
 4.0000e+000 77008 -4.6573e+001 -1.9768e+002  9.7268e+000 59448 76835,76913,76887
 4.0000e+000 76985 -6.0095e+001 -1.6336e+002  3.3057e+001 59448 76809,76913,76835
 4.0000e+000 76962 -1.1611e+002 -2.1946e+002  7.9540e-001 59448 76757,76913,76809
 4.0000e+000 76939 -9.3246e+001 -1.9108e+002 -9.0871e+000 59448 76757,76809,76783
 4.0000e+000 77537 -1.7258e+002 -3.6469e+002  1.9009e+001 58994 77560,77344,77292
 4.0000e+000 77514 -2.4430e+002 -3.6667e+002  4.3676e+000 58994 77560,77292,77240
 4.0000e+000 77491 -1.3974e+002 -3.4742e+002 -8.3854e+000 58994 77632,77214,77370
 4.0000e+000 77468 -2.9224e+002 -4.2153e+002  7.6095e+001 58994 77292,77344,77318
 4.0000e+000 77445 -1.4453e+002 -4.5624e+002  1.9046e+001 58994 77214,77396,77370
 4.0000e+000 77422 -2.4680e+002 -3.8317e+002 -8.3861e+000 58994 77240,77292,77266
 4.0000e+000 77586 -1.7531e+002 -3.7584e+002  2.2034e+001 58994 77370,77344,77560
 4.0000e+000 77609 -1.7769e+002 -3.7081e+002  2.4386e+001 58994 77632,77370,77560
 4.0000e+000 77658 -1.1957e+002 -3.2300e+002 -4.2732e+001 58994 77240,77214,77632
 4.0000e+000 77681 -1.4713e+002 -3.1922e+002 -1.3102e+001 58994 77240,77632,77560
 4.0000e+000 78138 -1.3450e+002 -2.4588e+002  3.6945e+001 58440 77864,77994,77890
 4.0000e+000 78115 -8.0993e+001 -1.4178e+002 -2.1774e+001 58440 77864,78020,77994
 4.0000e+000 78092 -1.5251e+002 -2.9299e+002 -2.4404e+001 58440 77942,77994,77968
 4.0000e+000 78069 -1.2118e+002 -2.7698e+002  5.4928e+000 58440 77890,77994,77942
 4.0000e+000 78046 -1.0984e+002 -2.8013e+002 -3.0759e+000 58440 77890,77942,77916
 4.0000e+000 78467 -1.6834e+001 -3.3494e+002  1.5049e+001 57928 78562,78490,78346
 4.0000e+000 78444 -1.2546e+002 -3.4107e+002 -6.5970e+000 57928 78490,78294,78268
 4.0000e+000 78421  4.8977e+000 -3.5155e+002  3.2799e+001 57928 78562,78346,78320
 4.0000e+000 78398 -4.2128e+001 -3.2797e+002  5.5692e+000 57928 78242,78372,78268
 4.0000e+000 78516 -1.0726e+002 -4.2186e+002 -2.1586e+001 57928 78372,78346,78490
 4.0000e+000 78539 -8.2850e+001 -3.2188e+002 -2.4752e+000 57928 78372,78490,78268
 4.0000e+000 78588 -1.2440e+002 -3.3112e+002  3.4027e+000 57928 78294,78490,78562
 4.0000e+000 78611 -5.5778e+001 -2.9370e+002  3.9472e+001 57928 78294,78562,78320
 4.0000e+000 79068 -2.3475e+002 -4.9746e+002 -1.2655e+002 57467 78794,78924,78820
 4.0000e+000 79045 -1.8392e+002 -4.7421e+002 -1.2001e+002 57467 78794,78950,78924
 4.0000e+000 79022 -1.0040e+002 -4.4522e+002  4.2940e+001 57467 78820,78898,78872
 4.0000e+000 78999 -1.7007e+002 -6.1234e+002 -6.6764e+001 57467 78820,78924,78898
 4.0000e+000 78976 -7.0359e+001 -4.4978e+002  6.6702e+001 57467 78820,78872,78846
 4.0000e+000 79446 -2.0114e+002 -3.9021e+002  1.0622e+000 57120 79172,79302,79250
 4.0000e+000 79423 -1.7825e+002 -3.8000e+002 -1.0311e+001 57120 79172,79328,79302
 4.0000e+000 79400 -1.8021e+002 -3.4102e+002 -1.2765e+001 57120 79172,79250,79198
 4.0000e+000 79377 -1.3407e+002 -4.9167e+002  2.1764e+001 57120 79250,79302,79276
 4.0000e+000 79354 -2.2232e+002 -3.6952e+002 -2.6025e+001 57120 79198,79250,79224
 4.0000e+000 79952 -2.6504e+002 -4.1832e+002  1.8112e+000 56773 79629,79785,79655
 4.0000e+000 79929 -7.3935e+001 -3.5852e+002  1.7334e+001 56773 79629,79811,79785
 4.0000e+000 79906 -2.0801e+002 -4.5434e+002  3.1684e+001 56773 79655,79733,79681
 4.0000e+000 79883 -2.0242e+002 -4.0134e+002  8.2473e+000 56773 79655,79785,79733
 4.0000e+000 79860 -1.9080e+002 -5.2171e+002 -6.0132e+001 56773 79733,79785,79759
 4.0000e+000 79837 -1.0755e+002 -4.0844e+002  7.8974e+001 56773 79681,79733,79707
 4.0000e+000 80281 -8.5542e+001 -3.1805e+002 -2.4641e+001 56319 80108,80160,80134
 4.0000e+000 80258 -9.7099e+001 -3.4891e+002 -3.2041e+001 56319 80056,80160,80108
 4.0000e+000 80235 -3.3876e+001 -3.0698e+002  2.1008e+001 56319 80056,80186,80160
 4.0000e+000 80212 -1.3609e+002 -4.4224e+002 -1.9217e+001 56319 80056,80108,80082
 4.0000e+000 80738 -4.8463e+001 -3.7404e+002  2.0260e+001 55957 80516,80620,80594
 4.0000e+000 80715 -1.2708e+002 -3.3801e+002  1.6667e+001 55957 80464,80620,80516
 4.0000e+000 80692 -1.0878e+002 -4.0916e+002  2.2443e+001 55957 80761,80568,80542
 4.0000e+000 80669 -8.8363e+001 -4.0213e+002  2.6485e+001 55957 80761,80542,80516
 4.0000e+000 80646 -1.2863e+002 -3.4079e+002  4.1392e+001 55957 80464,80516,80490
 4.0000e+000 80787 -1.2901e+002 -4.0594e+002  1.5912e+001 55957 80594,80568,80761
 4.0000e+000 80810 -1.0979e+002 -3.9945e+002  2.0179e+001 55957 80594,80761,80516
 4.0000e+000 81210 -1.0918e+002 -3.7316e+002 -4.7189e+001 55317 80936,80988,80962
 4.0000e+000 81187 -8.9060e+001 -4.1637e+002 -1.2035e+000 55317 80936,81066,80988
 4.0000e+000 81164 -5.7138e+001 -4.4432e+002  6.0179e+000 55317 80936,81092,81066
 4.0000e+000 81141 -1.2622e+002 -4.4337e+002 -4.1654e+001 55317 80988,81066,81014
 4.0000e+000 81118 -1.2343e+001 -2.4717e+002  2.6067e+001 55317 81014,81066,81040
 4.0000e+000 81539 -1.7402e+002 -4.0403e+002  1.3788e+001 54913 81340,81418,81392
 4.0000e+000 81516 -6.7574e+001 -3.2332e+002 -2.2266e+001 54913 81340,81444,81418
 4.0000e+000 81493 -1.0608e+002 -3.4726e+002 -4.6493e+001 54913 81314,81444,81340
 4.0000e+000 81470 -1.9613e+002 -4.1972e+002  5.4435e+000 54913 81340,81392,81366
 4.0000e+000 81787 -9.6512e+001 -4.1649e+002 -2.9002e+000 54601 81588,81692,81640
 4.0000e+000 81764 -1.4106e+002 -4.2120e+002 -1.2523e+001 54601 81562,81692,81588
 4.0000e+000 81741 -7.2224e+001 -4.2188e+002  5.6629e+001 54601 81588,81640,81614
 4.0000e+000 81718 -9.9643e+001 -4.9307e+002 -4.1736e+001 54601 81640,81692,81666
 4.0000e+000 82344 -1.6405e+002 -4.4713e+002 -2.3885e+001 54090 81998,82102,82076
 4.0000e+000 82321 -2.2238e+002 -4.7269e+002 -1.3226e+001 54090 81998,82154,82102
 4.0000e+000 82298 -2.0033e+002 -4.6143e+002 -7.3746e+000 54090 81972,82154,81998
 4.0000e+000 82275 -2.2943e+002 -4.1897e+002 -2.7081e+001 54090 81998,82076,82024
 4.0000e+000 82252 -2.4175e+002 -4.9027e+002  2.3394e+001 54090 81972,82180,82154
 4.0000e+000 82229 -3.0632e+002 -5.7405e+002  3.1560e+001 54090 82102,82154,82128
 4.0000e+000 82206 -4.3293e+001 -3.1789e+002 -6.7640e+001 54090 82024,82076,82050
 4.0000e+000 82722 -2.6685e+002 -4.7983e+002 -1.7241e+001 53579 82500,82578,82552
 4.0000e+000 82699 -1.9377e+002 -4.3458e+002  1.2213e+001 53579 82448,82578,82500
 4.0000e+000 82676 -2.1013e+002 -4.9242e+002  1.2559e+001 53579 82448,82500,82474
 4.0000e+000 82653 -2.6016e+002 -4.6801e+002  3.3671e+001 53579 82448,82604,82578
 4.0000e+000 82630 -1.3704e+002 -4.4367e+002 -1.8352e+001 53579 82500,82552,82526
 4.0000e+000 83356 -1.2408e+002 -3.3461e+002 -3.5604e+001 53189 83379,83088,83036
 4.0000e+000 83333 -1.1959e+002 -3.7716e+002 -3.2251e+001 53189 83379,83036,82984
 4.0000e+000 83310 -5.9328e+001 -3.5601e+002  4.8965e+001 53189 82984,83192,83166
 4.0000e+000 83287  8.1798e+000 -2.7599e+002 -2.4649e+001 53189 83036,83088,83062
 4.0000e+000 83264 -9.6290e+001 -4.1960e+002 -5.7824e+001 53189 82984,83036,83010
 4.0000e+000 83241 -8.4926e+001 -4.2286e+002  9.6441e+000 53189 83114,83166,83140
 4.0000e+000 83218 -1.6840e+002 -4.3712e+002  1.5790e+000 53189 83088,83166,83114
 4.0000e+000 83405 -1.2456e+002 -3.6349e+002 -1.7881e+001 53189 83166,83088,83379
 4.0000e+000 83428 -1.1375e+002 -4.0118e+002 -1.7223e+001 53189 83166,83379,82984
 4.0000e+000 83725 -1.7554e+002 -5.0163e+002 -4.1789e+001 52585 83748,83529,83503
 4.0000e+000 83702 -1.3283e+002 -4.8757e+002 -2.6353e+001 52585 83820,83748,83503
 4.0000e+000 83679 -9.1490e+001 -4.7931e+002 -2.2653e+001 52585 83820,83503,83477
 4.0000e+000 83656 -5.5580e+001 -4.4176e+002  6.4982e+001 52585 83477,83607,83581
 4.0000e+000 83633  4.9077e+001 -3.9710e+002  6.8454e+001 52585 83451,83607,83477
 4.0000e+000 83774 -1.5330e+002 -4.4666e+002 -3.7493e+001 52585 83555,83529,83748
 4.0000e+000 83797 -1.9912e+002 -4.8292e+002 -2.1600e+001 52585 83555,83748,83581
 4.0000e+000 83846 -1.7188e+002 -4.6624e+002 -5.4964e+000 52585 83581,83748,83820
 4.0000e+000 83869 -1.4124e+002 -4.6445e+002 -6.1097e+000 52585 83581,83820,83477
 4.0000e+000 84200 -1.2707e+002 -4.5624e+002 -1.6658e+001 52024 84001,84105,84079
 4.0000e+000 84177 -6.4968e+001 -4.4438e+002 -3.1498e+001 52024 83975,84105,84001
 4.0000e+000 84154 -1.1205e+002 -4.5712e+002 -1.3570e+001 52024 84001,84079,84053
 4.0000e+000 84131 -5.4051e+001 -3.0448e+002  5.6707e+001 52024 84001,84053,84027
 4.0000e+000 84399 -1.0452e+002 -4.5141e+002 -2.7497e-001 51470 84422,84275,84249
 4.0000e+000 84376 -9.3181e+001 -4.3246e+002  5.3570e+000 51470 84422,84249,84223
 4.0000e+000 84353 -1.2148e+002 -4.7275e+002 -6.5127e+001 51470 84275,84327,84301
 4.0000e+000 84448 -1.1607e+002 -4.3295e+002 -9.2247e-001 51470 84327,84275,84422
 4.0000e+000 84471 -1.0719e+002 -4.1764e+002  4.1492e+000 51470 84327,84422,84223
 4.0000e+000 84753 -1.3415e+002 -3.8266e+002 -1.6636e+000 51073 84603,84655,84629
 4.0000e+000 84730 -2.7685e+002 -4.4936e+002 -2.0841e+001 51073 84776,84655,84603
 4.0000e+000 84707 -5.2855e+001 -3.9190e+002 -1.1121e+002 51073 84577,84681,84655
 4.0000e+000 84802 -1.7411e+002 -3.9272e+002 -5.0818e+001 51073 84577,84655,84776
 4.0000e+000 85178 -2.3748e+002 -5.1461e+002  4.7403e+001 50519 85201,85008,84982
 4.0000e+000 85155 -2.2493e+002 -4.7677e+002  3.3402e+001 50519 85273,85201,84982
 4.0000e+000 85132 -2.1043e+002 -4.7763e+002  2.4045e+001 50519 85273,84982,84930
 4.0000e+000 85109 -2.0583e+002 -4.6904e+002  2.1471e+001 50519 84930,84982,84956
 4.0000e+000 85086 -1.8634e+002 -4.6623e+002  1.9902e+001 50519 85008,85060,85034
 4.0000e+000 85227 -1.9401e+002 -4.8748e+002  2.0694e+001 50519 85060,85008,85201
 4.0000e+000 85250 -2.2139e+002 -4.8850e+002  1.3521e+001 50519 85060,85201,84904
 4.0000e+000 85299 -2.0876e+002 -4.8155e+002  1.0610e+001 50519 84904,85201,85273
 4.0000e+000 85322 -1.6070e+002 -4.2571e+002 -1.1264e+001 50519 84904,85273,84930
 4.0000e+000 85958 -1.3259e+002 -4.2300e+002 -1.4635e+001 50093 85981,85768,85716
 4.0000e+000 85935 -1.1748e+002 -3.8360e+002 -1.7474e+001 50093 85981,85716,85612
 4.0000e+000 85912 -1.7169e+002 -3.9945e+002  6.7111e+000 50093 85612,85716,85664
 4.0000e+000 85889 -9.7404e+001 -4.1768e+002 -5.4877e+000 50093 85716,85768,85742
 4.0000e+000 85866 -1.3956e+002 -3.0452e+002 -8.8934e+001 50093 85664,85716,85690
 4.0000e+000 85843 -5.2618e+001 -2.9062e+002 -1.5755e+001 50093 85586,85794,85612
 4.0000e+000 85820 -1.1560e+002 -5.3781e+002  4.4732e+001 50093 85612,85664,85638
 4.0000e+000 86007 -1.6155e+002 -4.5542e+002 -7.0996e+001 50093 85794,85768,85981
 4.0000e+000 86030 -1.1504e+002 -3.4182e+002 -5.9769e+001 50093 85794,85981,85612
 4.0000e+000 86131 -1.4857e+002 -4.6152e+002  6.3358e+001 49895 86053,86105,86079
 4.0000e+000 86639 -1.0421e+002 -2.9697e+002 -6.0676e+001 49391 86662,86394,86368
 4.0000e+000 86616 -1.2235e+002 -3.6110e+002 -5.3834e+001 49391 86662,86368,86342
 4.0000e+000 86593 -6.9201e+001 -3.6140e+002 -1.7171e+001 49391 86342,86498,86472
 4.0000e+000 86570 -4.4992e+001 -3.9926e+002 -2.0935e+001 49391 86316,86498,86342
 4.0000e+000 86547 -2.0098e+002 -5.5050e+002 -2.6012e+001 49391 86394,86472,86446
 4.0000e+000 86524 -1.3507e+001 -5.1663e+002  4.0060e+000 49391 86394,86446,86420
 4.0000e+000 86688 -1.1844e+002 -3.5704e+002 -3.2836e+001 49391 86472,86394,86662
 4.0000e+000 86711 -1.0508e+002 -3.8436e+002 -3.1389e+001 49391 86472,86662,86342
 4.0000e+000 87089 -1.5238e+002 -4.3718e+002  1.1329e+001 48987 86815,86919,86867
 4.0000e+000 87066 -1.5434e+002 -4.5030e+002  1.7841e+001 48987 86815,86971,86919
 4.0000e+000 87043 -5.8827e+001 -4.8438e+002 -4.3876e+001 48987 86867,86919,86893
 4.0000e+000 87020 -1.7405e+002 -4.9519e+002  3.6361e+001 48987 86815,86867,86841
 4.0000e+000 86997 -1.7346e+002 -3.8677e+002  6.1802e+001 48987 86919,86971,86945
 4.0000e+000 87467 -2.9110e+002 -4.3406e+002  2.0538e+001 48540 87490,87245,87219
 4.0000e+000 87444 -2.1329e+002 -4.0486e+002  1.3482e+000 48540 87562,87490,87219
 4.0000e+000 87421 -1.5796e+002 -3.8251e+002  1.8704e+001 48540 87562,87219,87349
 4.0000e+000 87398 -2.2196e+002 -3.4472e+002 -2.5017e+001 48540 87245,87297,87271
 4.0000e+000 87375 -1.3051e+002 -4.0010e+002  1.4634e+001 48540 87193,87349,87219
 4.0000e+000 87516 -2.0261e+002 -4.1622e+002  1.5207e+000 48540 87297,87245,87490
 4.0000e+000 87539 -2.0504e+002 -4.1397e+002  6.3144e+000 48540 87297,87490,87323
 4.0000e+000 87588 -1.6001e+002 -3.7911e+002  3.7116e+001 48540 87323,87490,87562
 4.0000e+000 87611 -1.3346e+002 -3.8636e+002  4.8717e+001 48540 87323,87562,87349
 4.0000e+000 87810 -2.1224e+002 -7.5175e+002 -5.3920e+001 48136 87660,87712,87686
 4.0000e+000 87787 -1.2204e+002 -4.4172e+002 -2.4036e+001 48136 87660,87738,87712
 4.0000e+000 87764 -2.7713e+002 -4.5401e+002 -7.4982e+001 48136 87634,87738,87660
 4.0000e+000 88205 -1.8683e+002 -4.6737e+002 -3.9155e+001 47210 88300,88228,87937
 4.0000e+000 88182 -1.6252e+002 -4.5367e+002 -1.0821e+001 47210 88228,87833,88041
 4.0000e+000 88159 -1.8947e+002 -4.9941e+002 -6.2694e+001 47210 88300,87937,87911
 4.0000e+000 88136 -1.8440e+002 -4.5318e+002 -5.4909e+001 47210 87833,87911,87859
 4.0000e+000 88113 -3.0812e+002 -4.0919e+002 -2.9316e+001 47210 87937,87989,87963
 4.0000e+000 88090 -1.5304e+002 -3.6899e+002  7.4150e+001 47210 87989,88041,88015
 4.0000e+000 88067 -2.1427e+002 -5.2893e+002 -7.2229e+001 47210 87859,87911,87885
 4.0000e+000 88254 -1.6600e+002 -3.8880e+002 -3.9858e+001 47210 87989,87937,88228
 4.0000e+000 88277 -1.9554e+002 -4.4643e+002 -1.4626e+001 47210 87989,88228,88041
 4.0000e+000 88326 -1.5457e+002 -4.3649e+002 -1.4213e+001 47210 87833,88228,88300
 4.0000e+000 88349 -1.6226e+002 -4.5783e+002 -3.9398e+001 47210 87833,88300,87911
 4.0000e+000 88780 -3.0357e+002 -5.2696e+002 -9.7689e+001 46642 88803,88509,88483
 4.0000e+000 88757 -2.1730e+002 -4.7410e+002 -5.3146e+001 46642 88803,88483,88639
 4.0000e+000 88734 -2.4211e+002 -3.9154e+002 -5.9798e+001 46642 88875,88561,88509
 4.0000e+000 88711 -2.4625e+002 -3.6450e+002 -1.1878e+001 46642 88509,88561,88535
 4.0000e+000 88688 -1.4082e+002 -5.3280e+002  1.7022e+000 46642 88457,88639,88483
 4.0000e+000 88665 -2.7825e+002 -6.3620e+002 -2.5357e+001 46642 88561,88613,88587
 4.0000e+000 88829 -2.4515e+002 -4.2646e+002 -6.7766e+001 46642 88875,88509,88803
 4.0000e+000 88852 -2.3923e+002 -5.1335e+002 -4.4362e+001 46642 88613,88803,88639
 4.0000e+000 88901 -1.9911e+002 -4.4047e+002 -2.9895e+001 46642 88613,88561,88875
 4.0000e+000 88924 -2.1759e+002 -4.9721e+002 -3.6889e+001 46642 88613,88875,88803
 4.0000e+000 89253 -9.1695e+001 -4.5409e+002  1.0269e+001 46444 89080,89158,89132
 4.0000e+000 89230 -1.0708e+002 -4.8882e+002  6.7851e+000 46444 89028,89158,89080
 4.0000e+000 89207 -3.8376e+001 -4.2845e+002 -1.8723e+001 46444 89028,89080,89054
 4.0000e+000 89184 -4.9944e+001 -4.9005e+002 -3.3737e+001 46444 89080,89132,89106
 4.0000e+000 89631 -1.2324e+002 -3.0024e+002  6.9168e+000 46040 89383,89461,89435
 4.0000e+000 89608 -1.3026e+002 -3.3193e+002 -1.9391e+001 46040 89383,89487,89461
 4.0000e+000 89585 -1.3357e+002 -3.9114e+002 -1.1508e+001 46040 89383,89435,89409
 4.0000e+000 89562 -1.0398e+002 -2.8414e+002 -3.9830e+001 46040 89383,89513,89487
 4.0000e+000 89539 -4.2409e+001 -2.5420e+002 -5.2401e+001 46040 89357,89513,89383
 4.0000e+000 90009 -1.2898e+002 -3.7993e+002 -1.7341e+000 45636 89813,89891,89839
 4.0000e+000 89986 -1.3347e+002 -3.5650e+002  2.0299e+001 45636 89787,89891,89813
 4.0000e+000 89963 -1.1408e+002 -3.5450e+002 -1.0751e+001 45636 89839,89891,89865
 4.0000e+000 89940 -1.5629e+002 -3.9537e+002  1.0677e+001 45636 89735,89891,89787
 4.0000e+000 89917 -1.2290e+002 -4.0103e+002 -1.9013e+001 45636 89735,89787,89761
 4.0000e+000 90208 -8.6643e+001 -2.9587e+002 -5.7694e+001 45175 90231,90058,90032
 4.0000e+000 90185 -5.2137e+001 -2.7028e+002 -8.7816e+001 45175 90231,90032,90136
 4.0000e+000 90162 -1.0493e+002 -2.4467e+002 -4.7716e+000 45175 90058,90110,90084
 4.0000e+000 90257 -1.2530e+002 -3.3311e+002 -1.4681e+001 45175 90110,90058,90231
 4.0000e+000 90280 -5.9271e+001 -2.8821e+002 -4.8298e+001 45175 90110,90231,90136
 4.0000e+000 90528 -9.6114e+001 -3.0561e+002 -4.0296e+001 44513 90695,90551,90407
 4.0000e+000 90505 -1.0170e+002 -2.7501e+002 -1.8120e+001 44513 90551,90355,90329
 4.0000e+000 90482 -1.2737e+002 -3.0189e+002 -3.7151e+001 44513 90623,90303,90433
 4.0000e+000 90459 -7.3184e+001 -2.8514e+002 -2.9747e+001 44513 90695,90407,90381
 4.0000e+000 90577 -1.4040e+002 -3.1991e+002 -6.9614e+001 44513 90433,90407,90551
 4.0000e+000 90600 -1.2043e+002 -2.9359e+002 -3.4179e+001 44513 90623,90433,90551
 4.0000e+000 90649 -1.2389e+002 -2.9125e+002 -3.3141e+001 44513 90329,90303,90623
 4.0000e+000 90672 -1.2491e+002 -2.9063e+002 -3.3039e+001 44513 90329,90623,90551
 4.0000e+000 90721 -1.2367e+002 -2.7894e+002 -4.5258e+001 44513 90355,90551,90695
 4.0000e+000 90744 -1.1673e+002 -2.6975e+002 -4.1355e+001 44513 90355,90695,90381
 4.0000e+000 91077 -5.8023e+000 -3.1987e+002 -2.2342e+001 44059 91100,90930,90904
 4.0000e+000 91054 -1.2467e+002 -3.4368e+002  1.4758e+001 44059 91100,90904,90982
 4.0000e+000 91031 -2.2237e+002 -4.0079e+002 -3.0214e+001 44059 90878,90982,90904
 4.0000e+000 91008 -6.9504e+001 -2.9849e+002  1.8697e+001 44059 90852,90982,90878
 4.0000e+000 91126 -1.7961e+002 -3.6252e+002 -2.6556e+001 44059 91172,91100,90956
 4.0000e+000 91149 -1.1608e+002 -3.2925e+002 -1.4307e+001 44059 90956,91100,90982
 4.0000e+000 91198 -1.2179e+001 -2.0057e+002 -9.2904e+001 44059 90930,91100,91172
 4.0000e+000 91677 -1.6880e+002 -2.6171e+002  2.5850e+001 43549 91455,91533,91481
 4.0000e+000 91654 -7.3526e+001 -2.6586e+002  3.4601e+001 43549 91429,91533,91455
 4.0000e+000 91631 -1.6277e+002 -2.6079e+002  1.3036e+001 43549 91481,91533,91507
 4.0000e+000 91608 -4.0462e+001 -2.5211e+002  1.6758e+001 43549 91429,91559,91533
 4.0000e+000 91585 -4.7552e+000 -9.1146e+001  1.6541e+000 43549 91403,91559,91429
 4.0000e+000 92006 -1.5731e+002 -3.9229e+002  1.2248e+000 43059 91781,91885,91807
 4.0000e+000 91983 -1.6338e+002 -3.6870e+002  6.0134e+001 43059 91781,91911,91885
 4.0000e+000 91960 -1.5657e+002 -3.9362e+002  2.0548e+000 43059 91807,91885,91833
 4.0000e+000 91937 -1.0180e+002 -3.7329e+002 -7.5475e+000 43059 91833,91885,91859
 4.0000e+000 92561 -1.3216e+002 -2.8492e+002 -3.2686e+001 42598 92584,92215,92189
 4.0000e+000 92538 -1.4329e+002 -3.2421e+002 -3.1315e+001 42598 92656,92584,92189
 4.0000e+000 92515 -1.2889e+002 -3.6732e+002 -9.2317e+000 42598 92656,92189,92397
 4.0000e+000 92492 -1.6367e+002 -2.5651e+002 -3.8879e+001 42598 92241,92319,92293
 4.0000e+000 92469 -1.5709e+002 -3.0426e+002  1.5694e+001 42598 92319,92397,92371
 4.0000e+000 92446 -6.5054e+001 -3.4902e+002  1.3910e+002 42598 92319,92371,92345
 4.0000e+000 92423 -1.5994e+002 -2.6279e+002 -5.2679e+001 42598 92241,92293,92267
 4.0000e+000 92610 -1.3936e+002 -2.8535e+002 -2.8972e+001 42598 92241,92215,92584
 4.0000e+000 92633 -1.2921e+002 -2.6311e+002 -3.8561e+001 42598 92241,92584,92319
 4.0000e+000 92682 -1.3118e+002 -2.6677e+002 -2.2979e+001 42598 92319,92584,92656
 4.0000e+000 92705 -1.0631e+002 -2.9609e+002 -6.6479e+000 42598 92319,92656,92397
 4.0000e+000 92953 -1.6240e+002 -4.2433e+002  2.2880e+001 42094 92976,92806,92780
 4.0000e+000 92930 -1.8009e+002 -4.0140e+002  6.1561e-001 42094 92976,92780,92754
 4.0000e+000 92907 -3.8846e+001 -4.1231e+002 -1.6581e+000 42094 93048,92832,92806
 4.0000e+000 92884 -2.3219e+002 -4.0776e+002 -2.6594e+001 42094 92728,92858,92754
 4.0000e+000 93002 -1.0439e+002 -3.9370e+002  1.1583e+001 42094 93048,92806,92976
 4.0000e+000 93025 -1.6787e+002 -3.9461e+002 -5.7519e+000 42094 92858,92976,92754
 4.0000e+000 93074 -1.3015e+002 -4.4626e+002 -4.2708e+000 42094 92858,92832,93048
 4.0000e+000 93097 -1.8411e+002 -4.2080e+002  3.4590e+000 42094 92858,93048,92976
 4.0000e+000 93605 -1.7363e+002 -4.9323e+002 -1.7306e+001 41846 93628,93412,93386
 4.0000e+000 93582 -1.3014e+002 -3.7355e+002 -7.1607e-001 41846 93628,93386,93308
 4.0000e+000 93559 -2.0175e+002 -3.9212e+002 -8.1132e+001 41846 93700,93464,93438
 4.0000e+000 93536 -1.8365e+002 -5.1557e+002  7.0709e+000 41846 93308,93386,93334
 4.0000e+000 93513 -2.4235e+002 -3.7727e+002 -5.8686e+001 41846 93334,93386,93360
 4.0000e+000 93490 -1.9380e+002 -3.4774e+002 -7.6115e+001 41846 93282,93464,93308
 4.0000e+000 93654 -1.5066e+002 -3.9609e+002 -3.6123e+001 41846 93438,93412,93628
 4.0000e+000 93677 -2.0100e+002 -3.9981e+002 -3.7310e+001 41846 93700,93438,93628
 4.0000e+000 93726 -1.8315e+002 -3.3806e+002 -7.2082e+001 41846 93308,93464,93700
 4.0000e+000 93749 -1.7504e+002 -3.2874e+002 -2.8821e+001 41846 93308,93700,93628
 4.0000e+000 94255 -1.3520e+002 -4.0216e+002  2.5508e+001 41385 93958,94114,94088
 4.0000e+000 94232 -1.2068e+002 -4.3063e+002  1.1705e+001 41385 93932,94114,93958
 4.0000e+000 94209 -2.3448e+002 -4.6630e+002  7.4554e+001 41385 93958,94088,94062
 4.0000e+000 94186 -2.4337e+002 -3.3952e+002  5.4693e+001 41385 93958,94062,93984
 4.0000e+000 94163 -2.1517e+002 -3.3080e+002  5.3459e+001 41385 93984,94062,94036
 4.0000e+000 94140 -1.4825e+002 -4.6615e+002  8.1069e+001 41385 93984,94036,94010
 4.0000e+000 94476 -4.1544e+001 -5.4114e+002  3.2518e+001 40881 94326,94378,94352
 4.0000e+000 94453 -9.0371e+001 -4.4534e+002  3.5953e+001 40881 94300,94378,94326
 4.0000e+000 94430 -1.1202e+002 -4.1105e+002  3.8820e+000 40881 94300,94404,94378
 4.0000e+000 94626 -1.2657e+002 -3.3246e+002 -4.2346e+000 40591 94649,94551,94525
 4.0000e+000 94603 -6.8088e+001 -2.0702e+002  1.0759e+000 40591 94781,94577,94551
 4.0000e+000 94675 -4.3828e+001 -2.4028e+002 -4.0051e+001 40591 94781,94551,94649
 4.0000e+000 94807 -4.9271e+000 -1.4395e+002  3.8918e+001 40591 94499,94577,94781
 4.0000e+000 94830  1.1736e+000 -2.1072e+002 -4.2229e+000 40591 94499,94781,94649
 4.0000e+000 95336 -2.7261e+002 -3.7493e+002 -5.6983e+001 40187 95013,95169,95039
 4.0000e+000 95313 -6.0053e+001 -3.3983e+002  8.3859e+000 40187 95013,95195,95169
 4.0000e+000 95290 -4.7551e+001 -3.7004e+002 -3.9317e+001 40187 95039,95143,95065
 4.0000e+000 95267 -2.0909e+002 -4.3319e+002 -6.3399e+001 40187 95039,95169,95143
 4.0000e+000 95244 -1.0109e+002 -3.5896e+002 -3.8040e+001 40187 95091,95143,95117
 4.0000e+000 95221 -3.4695e+001 -2.2962e+002 -1.4940e+001 40187 95065,95143,95091
 4.0000e+000 95665 -1.0898e+002 -2.9761e+002  1.1787e+002 39626 95466,95570,95544
 4.0000e+000 95642 -1.9666e+002 -2.4078e+002  7.6694e+001 39626 95440,95570,95466
 4.0000e+000 95619 -2.9703e+002 -3.8564e+002  7.4795e+001 39626 95466,95544,95492
 4.0000e+000 95596 -6.8624e+001 -2.9971e+002  1.1618e+002 39626 95492,95544,95518
 4.0000e+000 95913 -1.5845e+002 -3.4826e+002 -5.1154e+001 39136 96080,95936,95766
 4.0000e+000 95890 -1.0952e+002 -3.7300e+002 -3.0897e+001 39136 95936,95714,95688
 4.0000e+000 95867 -2.7728e+002 -3.7202e+002  1.3845e+001 39136 96008,95792,95766
 4.0000e+000 95844 -1.3015e+002 -3.3794e+002 -3.8664e+001 39136 96080,95766,95740
 4.0000e+000 95962 -2.2010e+002 -3.8555e+002 -3.3482e+001 39136 96008,95766,95936
 4.0000e+000 95985 -1.4281e+002 -4.5278e+002 -7.8681e+000 39136 95818,95936,95688
 4.0000e+000 96034 -1.3899e+002 -3.1186e+002  2.2697e+001 39136 95818,95792,96008
 4.0000e+000 96057 -1.2387e+002 -3.4184e+002 -2.3767e+001 39136 95818,96008,95936
 4.0000e+000 96106 -1.4465e+002 -3.4435e+002 -1.3510e+001 39136 95714,95936,96080
 4.0000e+000 96129 -1.0067e+002 -3.3222e+002 -3.8101e+000 39136 95714,96080,95740
 4.0000e+000 96350 -1.2711e+002 -3.0501e+002 -1.5066e+001 38824 96200,96278,96252
 4.0000e+000 96327 -1.1205e+002 -2.9822e+002 -1.3318e+001 38824 96174,96278,96200
 4.0000e+000 96304 -4.5917e+001 -2.7179e+002 -4.4686e+001 38824 96200,96252,96226
 4.0000e+000 96830 -1.8289e+002 -3.2065e+002 -2.0525e+001 38320 97069,96536,96484
 4.0000e+000 96807 -1.7987e+002 -3.2516e+002 -2.0257e+001 38320 97069,96484,96853
 4.0000e+000 96784 -2.0070e+002 -3.4923e+002  8.2140e+000 38320 96853,96484,96458
 4.0000e+000 96761 -1.0573e+002 -2.8120e+002 -3.3692e+001 38320 96925,96640,96614
 4.0000e+000 96738 -1.7308e+002 -2.9516e+002 -1.4485e+001 38320 96997,96666,96640
 4.0000e+000 96715 -1.4308e+002 -3.8477e+002 -5.4926e+000 38320 97141,96588,96562
 4.0000e+000 96692 -2.2972e+002 -3.7491e+002  1.8133e-001 38320 96484,96536,96510
 4.0000e+000 96879 -1.7872e+002 -3.4549e+002 -1.0320e+001 38320 97141,96562,96853
 4.0000e+000 96902 -1.6542e+002 -3.3746e+002 -1.0531e+001 38320 96925,96614,96853
 4.0000e+000 96951 -1.6866e+002 -2.9184e+002 -1.6640e+001 38320 96997,96640,96925
 4.0000e+000 96974 -1.6175e+002 -2.8552e+002 -9.0365e+000 38320 96458,96925,96853
 4.0000e+000 97023 -1.9313e+002 -2.9892e+002 -3.8857e+000 38320 96458,96666,96997
 4.0000e+000 97046 -1.7709e+002 -2.9113e+002 -6.2922e+000 38320 96458,96997,96925
 4.0000e+000 97095 -1.9585e+002 -3.2084e+002  4.2013e+000 38320 96562,96536,97069
 4.0000e+000 97118 -1.7064e+002 -3.2315e+002 -1.6426e+001 38320 96562,97069,96853
 4.0000e+000 97167 -8.0176e+001 -3.4894e+002 -2.2202e+001 38320 96614,96588,97141
 4.0000e+000 97190 -1.3890e+002 -3.2650e+002 -2.2438e+001 38320 96614,97141,96853
 4.0000e+000 97519 -1.3773e+002 -4.0888e+002  1.0822e+002 37766 97542,97398,97372
 4.0000e+000 97496 -1.6470e+002 -3.2530e+002  7.5359e+001 37766 97542,97372,97346
 4.0000e+000 97473 -1.6540e+002 -3.3590e+002  9.7750e+000 37766 97294,97424,97346
 4.0000e+000 97450 -1.8382e+002 -3.9421e+002  1.0274e+000 37766 97294,97346,97320
 4.0000e+000 97568 -7.3590e+001 -4.2625e+002  3.9089e+001 37766 97424,97398,97542
 4.0000e+000 97591 -1.1661e+002 -3.3133e+002  1.1881e+001 37766 97424,97542,97346
 4.0000e+000 98048 -1.7107e+002 -2.4877e+002 -8.3502e+001 37262 98071,97878,97852
 4.0000e+000 98025 -1.4511e+002 -2.9818e+002 -3.5372e+001 37262 98071,97852,97800
 4.0000e+000 98002 -1.7360e+002 -3.7359e+002 -3.1113e+001 37262 97800,97852,97826
 4.0000e+000 97979 -1.7713e+002 -3.2501e+002  1.1025e+001 37262 97800,97930,97904
 4.0000e+000 97956 -1.2062e+002 -4.0282e+002  2.7187e+001 37262 97774,97930,97800
 4.0000e+000 98097 -2.4222e+002 -2.8354e+002 -5.9376e+001 37262 97904,97878,98071
 4.0000e+000 98120 -1.8458e+002 -3.3919e+002 -1.5728e+001 37262 97904,98071,97800
 4.0000e+000 98449 -8.6577e+001 -2.4080e+002 -2.8579e+001 36950 98472,98302,98250
 4.0000e+000 98426 -5.1218e+001 -2.2953e+002 -3.5147e+001 36950 98472,98250,98354
 4.0000e+000 98403 -1.3362e+002 -2.6434e+002  3.0566e+001 36950 98250,98302,98276
 4.0000e+000 98380 -3.3154e+001 -1.8282e+002  1.7052e+001 36950 98224,98354,98250
 4.0000e+000 98498 -6.0589e+001 -2.6940e+002 -7.7220e+000 36950 98328,98302,98472
 4.0000e+000 98521 -1.9320e+001 -2.5261e+002 -2.0196e+001 36950 98328,98472,98354
 4.0000e+000 99125 -1.8883e+002 -1.9216e+002  1.8256e+001 36296 98704,98756,98730
 4.0000e+000 99102 -1.8199e+002 -2.1290e+002  1.6714e+001 36296 98704,98938,98756
 4.0000e+000 99079 -1.3432e+002 -2.5742e+002 -6.0074e+000 36296 99148,98938,98912
 4.0000e+000 99056 -1.4465e+002 -2.6452e+002  6.0418e+001 36296 99292,99220,98782
 4.0000e+000 99033 -1.1676e+002 -2.9361e+002  7.2598e+000 36296 99148,98912,98834
 4.0000e+000 99010 -1.3528e+002 -2.2285e+002  6.5228e+001 36296 99292,98782,98756
 4.0000e+000 98987 -1.1136e+002 -5.1638e+002 -9.3172e+001 36296 98834,98912,98886
 4.0000e+000 98964 -1.9027e+002 -7.5498e+002 -1.1954e+002 36296 98834,98886,98860
 4.0000e+000 99174 -1.6436e+002 -3.1530e+002  9.2099e+000 36296 99220,98938,99148
 4.0000e+000 99197 -1.1549e+002 -3.5917e+002  3.9400e+001 36296 98808,99148,98834
 4.0000e+000 99246 -1.4276e+002 -2.5868e+002  1.4724e+002 36296 98808,98782,99220
 4.0000e+000 99269 -5.8407e+001 -2.2756e+002  4.8250e+001 36296 98808,99220,99148
 4.0000e+000 99318 -1.5031e+002 -2.2251e+002  3.1584e+001 36296 98938,99220,99292
 4.0000e+000 99341 -1.5385e+002 -2.2926e+002  3.6975e+001 36296 98938,99292,98756
 4.0000e+000 99719 -1.9143e+002 -3.9849e+002  5.8508e-001 35742 99742,99471,99601
 4.0000e+000 99696 -1.9745e+002 -3.1532e+002  3.7757e+001 35742 99445,99601,99471
 4.0000e+000 99673 -1.8335e+002 -3.8011e+002 -1.7294e+001 35742 99742,99601,99575
 4.0000e+000 99650 -1.5881e+002 -4.6329e+002 -1.3387e+001 35742 99814,99549,99523
 4.0000e+000 99627 -1.2728e+002 -3.6208e+002 -3.2531e+000 35742 99471,99523,99497
 4.0000e+000 99768 -1.5349e+002 -3.8938e+002  7.8297e+000 35742 99523,99471,99742
 4.0000e+000 99791 -1.7974e+002 -4.2935e+002 -1.1830e+001 35742 99814,99523,99742
 4.0000e+000 99840 -1.5444e+002 -4.2143e+002 -2.6372e+001 35742 99575,99549,99814
 4.0000e+000 99863 -1.6832e+002 -3.7759e+002 -2.3803e+001 35742 99575,99814,99742
 4.0000e+000 100111 -1.4384e+002 -3.2059e+002  2.2741e+001 35302 100134,99990,99938
 4.0000e+000 100088 -1.2007e+002 -2.9361e+002  7.2413e+000 35302 100134,99938,99912
 4.0000e+000 100065 -1.2061e+002 -2.9257e+002 -7.5393e+000 35302 100206,99886,100016
 4.0000e+000 100042 -1.9015e+002 -2.8944e+002  1.4364e+001 35302 99938,99990,99964
 4.0000e+000 100160 -1.1207e+002 -3.0847e+002  5.8153e+000 35302 100016,99990,100134
 4.0000e+000 100183 -1.1479e+002 -2.9730e+002 -7.3504e+000 35302 100206,100016,100134
 4.0000e+000 100232 -1.2582e+002 -2.9823e+002 -4.0939e+000 35302 99912,99886,100206
 4.0000e+000 100255 -1.2031e+002 -3.0410e+002 -4.0628e+000 35302 99912,100206,100134
 4.0000e+000 100586 -1.7634e+002 -2.1268e+002  5.1649e+001 35012 100609,100387,100361
 4.0000e+000 100563 -2.1312e+002 -1.6687e+002 -3.8862e+001 35012 100609,100361,100465
 4.0000e+000 100540 -1.0207e+002 -1.2194e+002 -8.7216e+001 35012 100361,100491,100465
 4.0000e+000 100517 -4.0160e+001 -1.3132e+002 -7.4531e+001 35012 100413,100465,100439
 4.0000e+000 100635 -8.2877e+001 -1.7207e+002  2.6091e+001 35012 100413,100387,100609
 4.0000e+000 100658 -1.1791e+002 -1.1589e+002 -6.6853e+001 35012 100413,100609,100465
 4.0000e+000 100987 -1.5081e+002 -3.2778e+002  3.1820e+001 34700 100788,100866,100814
 4.0000e+000 100964 -1.2397e+002 -2.6502e+002  5.0440e+001 34700 101010,100866,100788
 4.0000e+000 100941 -8.8708e+001 -2.0379e+002  5.3479e+001 34700 100762,100892,100866
 4.0000e+000 100918 -1.4381e+002 -3.0751e+002  1.8304e+001 34700 100814,100866,100840
 4.0000e+000 101036 -8.3922e+001 -2.3457e+002  7.7141e+001 34700 100762,100866,101010
 4.0000e+000 101493 -1.9971e+002 -3.7269e+002 -3.4575e+001 34132 101516,101349,101297
 4.0000e+000 101470 -2.3714e+002 -4.4649e+002 -5.4053e+001 34132 101588,101516,101297
 4.0000e+000 101447 -2.3860e+002 -4.7153e+002 -7.8978e+001 34132 101588,101297,101245
 4.0000e+000 101424 -1.4482e+002 -5.5163e+002 -7.3583e+001 34132 101245,101297,101271
 4.0000e+000 101401 -2.3305e+002 -3.7777e+002 -4.3684e+001 34132 101297,101349,101323
 4.0000e+000 101542 -2.1011e+002 -4.3007e+002 -2.6761e+001 34132 101375,101349,101516
 4.0000e+000 101565 -1.8502e+002 -4.2523e+002 -2.6553e+001 34132 101375,101516,101219
 4.0000e+000 101614 -1.8936e+002 -4.4940e+002 -2.7616e+001 34132 101219,101516,101588
 4.0000e+000 101637 -2.1365e+002 -4.7328e+002 -5.1378e+001 34132 101219,101588,101245
 4.0000e+000 101858 -8.4769e+001 -3.2436e+002  2.9814e+001 33720 101708,101786,101760
 4.0000e+000 101835 -6.7591e+001 -3.5703e+002  4.2214e+001 33720 101682,101786,101708
 4.0000e+000 101812 -1.2585e+002 -3.4523e+002  2.0601e+001 33720 101708,101760,101734
 4.0000e+000 102128 -4.2053e+001 -3.8612e+002 -1.0301e+001 33130 101903,102007,101929
 4.0000e+000 102105 -5.2995e+001 -4.4595e+002  1.4379e+001 33130 101903,102033,102007
 4.0000e+000 102082 -2.1606e+001 -4.6368e+002 -9.2900e+001 33130 101929,102007,101955
 4.0000e+000 102059 -6.8938e+001 -3.2768e+002  6.8629e+000 33130 101955,102007,101981
 4.0000e+000 102461 -1.5219e+002 -3.3373e+002 -2.8265e+001 32840 102236,102340,102262
 4.0000e+000 102438 -1.3180e+002 -2.3690e+002  8.5676e+000 32840 102236,102366,102340
 4.0000e+000 102415 -9.5722e+001 -3.1924e+002 -2.3321e+001 32840 102262,102340,102288
 4.0000e+000 102392 -1.8125e+002 -3.4059e+002 -6.3101e+001 32840 102288,102340,102314
 4.0000e+000 102997 -1.2979e+002 -2.2078e+002  6.2423e+001 32493 102749,102879,102853
 4.0000e+000 102974 -1.0579e+002 -1.7478e+002  4.3829e+001 32493 102723,102879,102749
 4.0000e+000 102951 -1.5219e+002 -2.6880e+002  4.1969e+001 32493 102749,102801,102775
 4.0000e+000 102928 -1.6235e+002 -2.6694e+002  4.0313e+001 32493 102749,102853,102801
 4.0000e+000 102905 -1.5167e+002 -2.4937e+002  3.2534e+001 32493 102801,102853,102827
 4.0000e+000 103454 -1.5537e+002 -2.7399e+002 -2.8670e+001 32089 103206,103336,103310
 4.0000e+000 103431 -1.2491e+002 -2.8962e+002 -4.7808e+000 32089 103180,103336,103206
 4.0000e+000 103408 -1.6785e+002 -3.2001e+002 -5.2059e+001 32089 103206,103284,103258
 4.0000e+000 103385 -2.4037e+002 -3.2966e+002 -6.3388e+001 32089 103206,103310,103284
 4.0000e+000 103362 -1.3114e+002 -2.2395e+002 -2.5870e+001 32089 103206,103258,103232
 4.0000e+000 103783 -2.6446e+002 -3.4579e+002 -3.9345e+001 31742 103558,103662,103584
 4.0000e+000 103760 -2.1291e+002 -2.6138e+002 -8.7356e+001 31742 103558,103688,103662
 4.0000e+000 103737 -1.7289e+002 -2.7455e+002 -7.4173e+001 31742 103584,103662,103636
 4.0000e+000 103714 -1.6194e+002 -3.0341e+002 -8.1715e+001 31742 103584,103636,103610
 4.0000e+000 104112 -9.0733e+000 -2.7732e+002  6.5583e+001 31402 103939,103991,103965
 4.0000e+000 104089 -7.8651e+001 -2.3242e+002  2.6375e+001 31402 103913,103991,103939
 4.0000e+000 104066 -1.1148e+002 -2.6123e+002  1.1417e+001 31402 103913,104017,103991
 4.0000e+000 104043 -1.3638e+002 -2.4648e+002 -5.1374e+000 31402 103887,104017,103913
 4.0000e+000 104569 -2.4816e+002 -4.2249e+002  8.7408e+000 30998 104321,104425,104373
 4.0000e+000 104546 -2.7962e+002 -4.3126e+002  2.7909e+000 30998 104321,104451,104425
 4.0000e+000 104523 -1.9855e+002 -3.5613e+002  4.4508e+001 30998 104373,104425,104399
 4.0000e+000 104500 -2.2918e+002 -4.9979e+002 -3.0798e+001 30998 104295,104451,104321
 4.0000e+000 104477 -3.2344e+002 -4.9276e+002  8.2926e+001 30998 104321,104373,104347
 4.0000e+000 104947 -2.0576e+002 -3.5546e+002 -3.8144e+001 30608 104751,104803,104777
 4.0000e+000 104924 -1.4234e+002 -3.7235e+002 -1.4586e+001 30608 104725,104803,104751
 4.0000e+000 104901 -2.1662e+002 -3.5807e+002  2.4773e+001 30608 104699,104803,104725
 4.0000e+000 104878 -1.9272e+002 -3.4830e+002  2.3887e+001 30608 104673,104803,104699
 4.0000e+000 104855 -1.4817e+002 -3.3379e+002 -1.1723e+001 30608 104673,104829,104803
 4.0000e+000 105276 -1.2652e+002 -3.2907e+002  1.3307e+001 30204 105427,105129,105077
 4.0000e+000 105253 -7.2196e+001 -3.5242e+002  7.9256e+001 30204 105427,105077,105051
 4.0000e+000 105230 -1.3150e+002 -3.3500e+002  1.0438e+001 30204 105077,105129,105103
 4.0000e+000 105207 -9.5783e+001 -2.9566e+002  3.9215e+001 30204 105299,105181,105155
 4.0000e+000 105325 -1.0721e+002 -2.9423e+002  1.4492e+001 30204 105129,105181,105299
 4.0000e+000 105453 -1.6085e+002 -3.4954e+002  3.6586e+001 30204 105181,105129,105427
 4.0000e+000 105476 -1.8921e+002 -4.1057e+002  1.1051e+002 30204 105181,105427,105051
 4.0000e+000 105903 -1.1930e+002 -2.8036e+002 -2.2463e+001 29700 105606,105762,105736
 4.0000e+000 105880 -1.5289e+002 -2.8710e+002  9.1577e-001 29700 105580,105762,105606
 4.0000e+000 105857 -1.8038e+002 -3.5483e+002 -2.1648e+001 29700 105606,105710,105632
 4.0000e+000 105834 -1.5056e+002 -2.9729e+002 -1.0828e+001 29700 105606,105736,105710
 4.0000e+000 105811 -1.7215e+002 -3.2227e+002 -2.3513e+001 29700 105632,105710,105684
 4.0000e+000 105788 -1.5963e+002 -2.9264e+002 -1.6195e+001 29700 105632,105684,105658
 4.0000e+000 106102 -6.0154e+001 -3.6034e+002  1.4676e+001 29124 105978,106030,106004
 4.0000e+000 106079 -9.6355e+001 -3.5120e+002  1.6757e+001 29124 105926,106030,105978
 4.0000e+000 106056 -1.1357e+002 -4.1007e+002  4.3220e+001 29124 105926,105978,105952
 4.0000e+000 106301 -9.3557e+001 -3.4356e+002  1.0785e+000 28712 106151,106229,106203
 4.0000e+000 106278 -1.1089e+002 -3.7980e+002 -1.7460e+001 28712 106125,106229,106151
 4.0000e+000 106255 -9.8313e+001 -3.6275e+002  1.9671e+001 28712 106151,106203,106177
 4.0000e+000 106551 -1.1067e+002 -4.2739e+002  1.6390e+001 28258 106352,106404,106378
 4.0000e+000 106528 -1.6460e+002 -4.3969e+002  5.6916e+000 28258 106352,106456,106404
 4.0000e+000 106505 -1.1734e+002 -4.6475e+002 -2.7137e+000 28258 106326,106456,106352
 4.0000e+000 106482 -1.4491e+002 -4.0999e+002 -7.0001e+000 28258 106404,106456,106430
 4.0000e+000 107012 -1.4419e+002 -3.6934e+002  7.4683e+001 27818 107035,106790,106764
 4.0000e+000 106989 -1.2531e+002 -3.5077e+002  2.7690e+001 27818 107035,106764,106868
 4.0000e+000 106966 -8.8239e+001 -4.1702e+002  4.0665e+001 27818 107107,106842,106816
 4.0000e+000 106943 -1.9289e+002 -3.2920e+002  1.6529e+001 27818 106738,106868,106764
 4.0000e+000 106920 -1.8036e+002 -2.9096e+002  3.1361e+001 27818 106738,106894,106868
 4.0000e+000 107061 -6.1783e+001 -3.5192e+002  8.4166e+001 27818 106816,106790,107035
 4.0000e+000 107084 -1.0940e+002 -3.9075e+002  4.2661e+001 27818 107107,106816,107035
 4.0000e+000 107133 -8.4750e+001 -3.7867e+002  2.1998e+001 27818 106868,106842,107107
 4.0000e+000 107156 -9.8305e+001 -3.3935e+002  2.8896e+001 27818 106868,107107,107035
 4.0000e+000 107613 -4.6141e+001 -2.7988e+002  6.0744e+001 27312 107339,107469,107365
 4.0000e+000 107590 -5.6124e+000 -2.5512e+002  5.0285e+001 27312 107339,107495,107469
 4.0000e+000 107567 -4.7057e+001 -2.7296e+002  2.9572e+001 27312 107391,107469,107443
 4.0000e+000 107544 -4.8399e+001 -2.9276e+002  2.5041e+001 27312 107365,107469,107391
 4.0000e+000 107521 -1.2750e+002 -2.9835e+002  1.1161e+001 27312 107391,107443,107417
 4.0000e+000 107991 -1.5061e+002 -4.1256e+002  7.6335e+000 26858 108086,108014,107795
 4.0000e+000 107968 -1.6585e+002 -4.3826e+002 -4.9765e+001 26858 108014,107717,107873
 4.0000e+000 107945 -1.7685e+002 -4.3333e+002  2.6233e+001 26858 108158,108086,107795
 4.0000e+000 107922 -1.4491e+002 -4.2898e+002  2.3217e+001 26858 108158,107795,107769
 4.0000e+000 107899 -9.1449e+001 -5.3697e+002  7.4873e+001 26858 107821,107873,107847
 4.0000e+000 108040 -1.5493e+002 -4.7788e+002  2.1416e+001 26858 107821,107795,108014
 4.0000e+000 108063 -6.3243e+001 -4.5642e+002 -1.1702e+001 26858 107821,108014,107873
 4.0000e+000 108112 -2.1944e+002 -4.3930e+002  1.6086e+001 26858 107717,108014,108086
 4.0000e+000 108135 -1.8052e+002 -4.5507e+002  4.8607e+001 26858 107717,108086,107743
 4.0000e+000 108184 -1.3925e+002 -4.3131e+002  3.7378e+001 26858 107743,108086,108158
 4.0000e+000 108207 -1.2573e+002 -4.4015e+002  3.6878e+001 26858 107743,108158,107769
 4.0000e+000 108634 -2.0272e+002 -4.0777e+002  5.4514e+000 26404 108657,108415,108363
 4.0000e+000 108611 -2.2690e+002 -4.3999e+002  4.2212e+001 26404 108657,108363,108337
 4.0000e+000 108588 -1.9859e+002 -4.0513e+002  4.8175e+001 26404 108729,108311,108467
 4.0000e+000 108565 -2.2866e+002 -4.7224e+002  2.2081e+000 26404 108801,108441,108415
 4.0000e+000 108542 -2.9845e+002 -4.5083e+002  6.0198e+001 26404 108311,108493,108467
 4.0000e+000 108519 -1.4219e+002 -4.0677e+002  6.4284e+000 26404 108363,108415,108389
 4.0000e+000 108683 -2.6942e+002 -4.3248e+002  7.5755e+000 26404 108801,108415,108657
 4.0000e+000 108706 -2.5823e+002 -4.2417e+002  3.7178e+001 26404 108729,108467,108657
 4.0000e+000 108755 -1.5899e+002 -4.3256e+002  4.8389e+001 26404 108337,108311,108729
 4.0000e+000 108778 -1.8956e+002 -4.3079e+002  3.7006e+001 26404 108337,108729,108657
 4.0000e+000 108827 -2.6933e+002 -5.5013e+002 -2.0985e+001 26404 108467,108441,108801
 4.0000e+000 108850 -2.9206e+002 -4.8240e+002 -1.4870e+001 26404 108467,108801,108657
 4.0000e+000 109228 -1.9243e+002 -4.1043e+002 -2.0655e+001 26064 109006,109084,109058
 4.0000e+000 109205 -1.7236e+002 -3.8274e+002  7.6834e+000 26064 108980,109084,109006
 4.0000e+000 109182 -1.8751e+002 -3.6728e+002 -1.2219e+001 26064 108980,109110,109084
 4.0000e+000 109159 -1.8473e+002 -4.3311e+002 -2.9290e+000 26064 109006,109058,109032
 4.0000e+000 109136 -6.3751e+001 -3.3093e+002  1.2659e+001 26064 108954,109110,108980
 4.0000e+000 109427 -5.8759e+001 -3.5589e+002 -7.0548e+001 25660 109303,109355,109329
 4.0000e+000 109404 -1.0658e+002 -4.5134e+002 -1.8453e+001 25660 109277,109355,109303
 4.0000e+000 109381 -8.2711e+001 -4.2327e+002 -6.5457e+000 25660 109251,109355,109277
 4.0000e+000 109577 -7.9137e+001 -1.9062e+002  6.5902e+001 25306 109476,109528,109502
 4.0000e+000 109554  3.4587e+000 -1.7683e+002  3.9241e+001 25306 109450,109528,109476
 4.0000e+000 109778 -1.3625e+002 -3.7371e+002  1.1727e+001 24944 109628,109706,109654
 4.0000e+000 109755 -1.4688e+002 -3.6159e+002  2.1197e+000 24944 109602,109706,109628
 4.0000e+000 109732 -1.1949e+002 -3.4872e+002 -1.6532e+000 24944 109654,109706,109680
 4.0000e+000 110126 -1.4448e+002 -4.8626e+002  1.5544e+001 24440 110149,109907,109855
 4.0000e+000 110103 -1.4212e+002 -5.1169e+002  2.9855e+001 24440 110149,109855,109985
 4.0000e+000 110080 -1.1784e+002 -4.2266e+002  9.0322e+000 24440 109855,109907,109881
 4.0000e+000 110057 -1.2530e+002 -4.0612e+002  1.2502e+002 24440 109829,109985,109855
 4.0000e+000 110034 -1.2905e+002 -4.8390e+002  5.2390e-001 24440 109907,109959,109933
 4.0000e+000 110011 -9.9360e+001 -4.2331e+002  1.2792e+001 24440 109803,109985,109829
 4.0000e+000 110175 -1.4131e+002 -4.6308e+002  8.4065e+000 24440 109959,109907,110149
 4.0000e+000 110198 -1.4089e+002 -4.8592e+002  2.5452e+001 24440 109959,110149,109985
 4.0000e+000 110301 -2.3963e+001 -3.0504e+002 -6.8947e+000 24028 110223,110275,110249
 4.0000e+000 110573 -5.9726e+001 -2.8612e+002  2.2604e+001 23467 110400,110452,110426
 4.0000e+000 110550 -1.0035e+002 -3.3353e+002  2.1526e-001 23467 110374,110452,110400
 4.0000e+000 110527 -1.0223e+002 -3.3424e+002  4.9607e+000 23467 110348,110452,110374
 4.0000e+000 110504 -7.4887e+001 -3.2061e+002 -3.0724e+000 23467 110348,110478,110452
 4.0000e+000 111004 -2.3497e+002 -4.8699e+002 -4.3739e+001 22963 111027,110733,110707
 4.0000e+000 110981 -2.2426e+002 -4.6198e+002  1.9103e+001 22963 111027,110707,110681
 4.0000e+000 110958 -1.1391e+002 -4.1607e+002 -4.8778e+001 22963 111099,110759,110733
 4.0000e+000 110935 -1.4592e+002 -4.0440e+002 -3.4999e+001 22963 111171,110863,110811
 4.0000e+000 110912 -7.5113e+001 -3.0459e+002 -5.3131e+001 22963 110759,110811,110785
 4.0000e+000 110889 -1.5887e+002 -4.2480e+002 -2.8241e+001 22963 110811,110863,110837
 4.0000e+000 111053 -1.6263e+002 -4.4982e+002 -3.0585e+001 22963 111099,110733,111027
 4.0000e+000 111076 -1.3778e+002 -4.3833e+002 -2.8681e+001 22963 111171,110811,111027
 4.0000e+000 111125 -1.1173e+002 -4.0874e+002 -7.4755e+001 22963 110811,110759,111099
 4.0000e+000 111148 -1.1959e+002 -4.0442e+002 -6.3667e+001 22963 110811,111099,111027
 4.0000e+000 111197 -1.4813e+002 -3.4884e+002 -4.4269e+001 22963 110681,110863,111171
 4.0000e+000 111220 -1.5534e+002 -3.8993e+002 -2.2497e+001 22963 110681,111171,111027
 4.0000e+000 111726 -2.2069e+002 -4.2637e+002  1.0985e+001 22459 111749,111507,111429
 4.0000e+000 111703 -2.0678e+002 -4.2277e+002 -8.7046e+000 22459 111749,111429,111585
 4.0000e+000 111680 -1.7842e+002 -4.8046e+002 -6.5179e+000 22459 111403,111585,111429
 4.0000e+000 111657 -2.0914e+002 -4.6727e+002  1.9328e+001 22459 111507,111559,111533
 4.0000e+000 111634 -2.9234e+002 -4.1272e+002  2.6820e+001 22459 111455,111507,111481
 4.0000e+000 111611 -2.9907e+002 -4.1040e+002  3.7227e+001 22459 111429,111507,111455
 4.0000e+000 111775 -2.2346e+002 -4.5576e+002  2.5085e+001 22459 111559,111507,111749
 4.0000e+000 111798 -2.0728e+002 -4.3607e+002  6.0872e+000 22459 111559,111749,111585
 4.0000e+000 112046 -9.7682e+001 -3.5842e+002 -4.8371e+001 21898 112069,111925,111873
 4.0000e+000 112023 -9.4546e+001 -3.6271e+002 -1.2984e+001 21898 112069,111873,111847
 4.0000e+000 112000 -1.2631e+002 -3.7539e+002 -2.0762e+001 21898 111821,111951,111847
 4.0000e+000 111977 -1.0998e+002 -2.8536e+002 -3.2453e+001 21898 111873,111925,111899
 4.0000e+000 112095 -1.4797e+002 -3.7747e+002 -5.3877e+001 21898 111951,111925,112069
 4.0000e+000 112118 -1.2380e+002 -3.7344e+002 -1.9914e+001 21898 111951,112069,111847
 4.0000e+000 112498 -1.7340e+002 -4.0203e+002 -3.3336e+001 21608 112521,112276,112224
 4.0000e+000 112475 -1.1535e+002 -4.0842e+002  1.9195e+000 21608 112521,112224,112380
 4.0000e+000 112452 -1.2341e+002 -4.6335e+002  2.8953e+001 21608 112302,112380,112354
 4.0000e+000 112429 -1.9166e+002 -4.5463e+002 -2.5902e+001 21608 112224,112276,112250
 4.0000e+000 112406  5.9933e+001 -4.8094e+002 -8.5857e+000 21608 112302,112354,112328
 4.0000e+000 112547 -1.2613e+002 -3.4616e+002 -7.4406e+000 21608 112302,112276,112521
 4.0000e+000 112570 -8.8414e+001 -3.9204e+002  1.7545e+001 21608 112302,112521,112380
 4.0000e+000 112948 -1.9815e+002 -4.1632e+002 -8.1987e+000 20882 112971,112752,112700
 4.0000e+000 112925 -1.5506e+002 -4.0074e+002 -1.4055e+001 20882 112971,112700,112830
 4.0000e+000 112902 -2.5113e+002 -4.4430e+002  2.7139e+001 20882 112778,112830,112804
 4.0000e+000 112879 -1.4285e+002 -3.2388e+002 -2.0085e+001 20882 112674,112830,112700
 4.0000e+000 112856 -2.4270e+002 -4.3467e+002  7.3180e+000 20882 112700,112752,112726
 4.0000e+000 112997 -1.9835e+002 -4.1352e+002  1.5855e+001 20882 112778,112752,112971
 4.0000e+000 113020 -1.7397e+002 -4.0567e+002  8.8671e+000 20882 112778,112971,112830
 4.0000e+000 113526 -1.4753e+002 -4.1767e+002  9.9893e-001 20428 113255,113385,113333
 4.0000e+000 113503 -1.6205e+002 -4.5860e+002 -1.8802e-001 20428 113229,113385,113255
 4.0000e+000 113480 -2.4484e+001 -4.1015e+002  1.9721e+000 20428 113255,113333,113281
 4.0000e+000 113457 -1.4437e+002 -4.5678e+002 -2.8347e-001 20428 113203,113385,113229
 4.0000e+000 113434 -7.3444e+001 -4.2989e+002 -1.4348e+001 20428 113281,113333,113307
 4.0000e+000 113411 -1.7120e+002 -4.1088e+002  6.5035e+000 20428 113333,113385,113359
 4.0000e+000 113774 -2.6123e+001 -3.9247e+002  1.4957e+001 19917 113797,113601,113549
 4.0000e+000 113751 -6.7275e+001 -4.0152e+002  2.0472e+001 19917 113869,113797,113549
 4.0000e+000 113728 -6.4101e+001 -4.0669e+002  4.0559e+001 19917 113869,113549,113679
 4.0000e+000 113705 -3.8017e+001 -3.9062e+002  3.0343e+001 19917 113549,113601,113575
 4.0000e+000 113823 -6.7874e+001 -4.7654e+002 -1.8089e+000 19917 113627,113601,113797
 4.0000e+000 113846 -2.5995e+001 -3.7347e+002 -1.0721e+001 19917 113627,113797,113653
 4.0000e+000 113895 -5.7093e+001 -3.5428e+002  5.6468e+000 19917 113653,113797,113869
 4.0000e+000 113918 -7.2634e+001 -3.6673e+002  3.1113e+001 19917 113653,113869,113679
 4.0000e+000 114166 -1.8553e+002 -4.1529e+002 -6.7861e+000 19413 113993,114045,114019
 4.0000e+000 114143 -1.7864e+002 -3.8878e+002  1.9784e+000 19413 113967,114045,113993
 4.0000e+000 114120 -1.4409e+002 -3.7578e+002  1.6918e+001 19413 113967,114071,114045
 4.0000e+000 114097 -1.3127e+002 -4.2229e+002 -8.8455e+000 19413 113941,114071,113967
 4.0000e+000 114438 -1.6985e+002 -4.4674e+002  4.0947e+000 19001 114213,114265,114239
 4.0000e+000 114415 -1.2317e+002 -3.4909e+002 -1.0244e+001 19001 114213,114343,114265
 4.0000e+000 114392 -1.8114e+002 -4.7892e+002 -2.1704e+001 19001 114265,114343,114317
 4.0000e+000 114369  3.3424e+001 -3.8667e+002 -9.0846e+000 19001 114265,114317,114291
 4.0000e+000 114639 -1.2929e+002 -5.3062e+002  2.5880e+001 18554 114489,114541,114515
 4.0000e+000 114616 -1.1320e+002 -4.5945e+002  4.4274e+000 18554 114489,114567,114541
 4.0000e+000 114593 -2.4218e+002 -5.3151e+002 -3.5991e+001 18554 114463,114567,114489
 4.0000e+000 115043 -9.5355e+001 -4.0278e+002  1.4459e+001 18164 114795,114925,114821
 4.0000e+000 115020 -8.4935e+001 -4.2622e+002  2.3552e+001 18164 114769,114925,114795
 4.0000e+000 114997 -5.5507e+001 -4.2089e+002 -2.9302e+000 18164 115066,114873,114821
 4.0000e+000 114974 -5.2932e+001 -3.6376e+002 -1.3626e+001 18164 115066,114821,114925
 4.0000e+000 114951  1.6728e+001 -4.2295e+002 -4.0474e+001 18164 114821,114873,114847
 4.0000e+000 115092 -7.5626e+001 -3.7937e+002 -3.3034e+001 18164 114899,114873,115066
 4.0000e+000 115115 -4.9487e+001 -2.9210e+002 -4.6548e+001 18164 114899,115066,114925
 4.0000e+000 115265 -1.3053e+002 -4.5116e+002  4.2255e+000 17852 115164,115216,115190
 4.0000e+000 115242 -1.4052e+002 -4.7217e+002 -4.6541e-001 17852 115138,115216,115164
 4.0000e+000 115464 -2.7713e+002 -6.1669e+002  9.9649e+000 17346 115288,115366,115340
 4.0000e+000 115441 -4.2628e+002 -4.8288e+002 -1.4797e+001 17346 115288,115392,115366
 4.0000e+000 115418 -2.4868e+002 -6.9641e+002 -2.1697e+001 17346 115288,115340,115314
 4.0000e+000 115736 -1.2205e+002 -4.0872e+002  1.6540e+001 16942 115563,115641,115615
 4.0000e+000 115713 -1.3599e+002 -4.0618e+002  4.1667e+000 16942 115511,115641,115563
 4.0000e+000 115690 -2.8675e+002 -4.7259e+002  2.3774e+001 16942 115563,115615,115589
 4.0000e+000 115667 -1.5954e+002 -4.4052e+002  1.4520e+001 16942 115511,115563,115537
 4.0000e+000 116091 -2.0455e+002 -4.7578e+002 -1.8021e+001 16388 115918,115970,115944
 4.0000e+000 116068 -1.7620e+002 -3.8184e+002 -1.2266e+001 16388 115918,115996,115970
 4.0000e+000 116045 -2.3774e+002 -4.8287e+002  1.5893e+001 16388 115892,115996,115918
 4.0000e+000 116022 -1.6146e+002 -4.4285e+002  5.1578e+001 16388 115866,115996,115892
 4.0000e+000 116192 -8.1857e+001 -5.1361e+002 -7.1290e+001 15810 116114,116166,116140
 4.0000e+000 116342 -1.8813e+002 -6.0266e+002  3.3369e+001 15419 116241,116293,116267
 4.0000e+000 116319 -2.6827e+002 -7.4169e+002 -2.1611e+001 15419 116215,116293,116241
 4.0000e+000 116445 -2.0804e+002 -4.1838e+002  3.5670e+000 421 116367,116419,116393
 4.1000e+000 68477 -2.6862e+002 -4.0079e+002  2.1656e+000 68018 68327,68379,68353
 4.1000e+000 68454 -2.8641e+002 -5.3100e+002  3.9770e+001 68018 68301,68379,68327
 4.1000e+000 68431 -1.2123e+002 -5.8825e+002  1.0293e+002 68018 68301,68405,68379
 4.1000e+000 68578 -1.7775e+002 -3.7767e+002  1.9271e+000 67820 68500,68552,68526
 4.1000e+000 68728 -1.9465e+002 -3.5395e+002 -4.9736e+000 67508 68601,68653,68627
 4.1000e+000 68705 -3.0117e+002 -2.7247e+002 -5.2150e+001 67508 68601,68679,68653
 4.1000e+000 68927 -5.5631e+001 -3.3115e+002 -7.0865e+000 67310 68777,68829,68803
 4.1000e+000 68904 -8.6075e+001 -3.8292e+002  7.0163e+000 67310 68751,68829,68777
 4.1000e+000 68881 -6.9018e+001 -3.8741e+002  2.0683e+001 67310 68751,68855,68829
 4.1000e+000 69386 -1.5528e+002 -4.1022e+002 -2.1397e+001 67020 69216,69268,69242
 4.1000e+000 69363 -1.4049e+002 -3.1719e+002 -4.0913e+001 67020 69138,69268,69216
 4.1000e+000 69340 -1.0463e+002 -2.8443e+002 -2.2960e+001 67020 69112,69268,69138
 4.1000e+000 69317 -1.8721e+002 -3.4055e+002  2.6087e+001 67020 69138,69190,69164
 4.1000e+000 69294 -1.9655e+002 -3.1304e+002 -1.8239e+001 67020 69138,69216,69190
 4.1000e+000 69536 -3.1114e+002 -7.6081e+002 -6.2468e+001 66708 69435,69487,69461
 4.1000e+000 69513 -2.2899e+002 -8.5844e+002 -9.7450e+000 66708 69409,69487,69435
 4.1000e+000 69735 -1.9063e+002 -3.9224e+002  9.2197e+000 66346 69585,69637,69611
 4.1000e+000 69712 -1.5731e+002 -3.7312e+002 -1.6141e+000 66346 69559,69637,69585
 4.1000e+000 69689 -1.4232e+002 -3.7007e+002 -3.6850e+001 66346 69559,69663,69637
 4.1000e+000 69985 -2.6972e+002 -4.6087e+002  6.4792e+000 66148 69786,69890,69864
 4.1000e+000 69962 -2.7694e+002 -4.6583e+002  9.6205e+000 66148 69760,69890,69786
 4.1000e+000 69939 -1.9640e+002 -4.3183e+002 -6.3681e+001 66148 69786,69864,69838
 4.1000e+000 69916 -2.2717e+002 -4.5946e+002 -2.7809e+001 66148 69786,69838,69812
 4.1000e+000 70137 -1.3182e+002 -5.0239e+002 -2.9565e+001 65950 70036,70088,70062
 4.1000e+000 70114 -1.1190e+002 -5.5818e+002  2.6330e+001 65950 70010,70088,70036
 4.1000e+000 70470 -1.0063e+002 -3.7460e+002  3.0265e+001 65546 70245,70323,70271
 4.1000e+000 70447 -7.2687e+001 -3.3323e+002  1.3552e+001 65546 70245,70375,70323
 4.1000e+000 70424 -9.1853e+001 -4.1868e+002  1.4769e+001 65546 70323,70375,70349
 4.1000e+000 70401 -7.7469e+001 -3.4380e+002  1.3235e+001 65546 70271,70323,70297
 4.1000e+000 70620 -1.7017e+002 -4.4343e+002  1.4209e+001 65348 70493,70545,70519
 4.1000e+000 70597 -1.1620e+002 -4.5988e+002  1.9884e+001 65348 70493,70571,70545
 4.1000e+000 70721 -2.2499e+002 -4.6010e+002  3.4433e+001 65150 70643,70695,70669
 4.1000e+000 71020 -1.6145e+002 -3.6384e+002  5.5349e+000 64952 71043,70850,70824
 4.1000e+000 70997 -1.4131e+002 -3.1441e+002  5.1571e+000 64952 71043,70824,70772
 4.1000e+000 70974 -1.5318e+002 -4.1777e+002  6.6853e+000 64952 71115,70746,70876
 4.1000e+000 70951 -1.2022e+002 -4.1645e+002 -2.6701e+000 64952 70746,70902,70876
 4.1000e+000 70928 -1.4437e+002 -2.6639e+002 -2.4839e+001 64952 70772,70824,70798
 4.1000e+000 71069 -1.3191e+002 -3.4876e+002  1.2545e+001 64952 70876,70850,71043
 4.1000e+000 71092 -1.5102e+002 -3.9414e+002  7.7378e+000 64952 71115,70876,71043
 4.1000e+000 71141 -1.7260e+002 -3.9044e+002 -1.4446e+001 64952 70772,70746,71115
 4.1000e+000 71164 -1.6182e+002 -3.5495e+002 -1.4060e+001 64952 70772,71115,71043
 4.1000e+000 71365 -4.9373e+000 -4.5383e+002 -5.6935e+000 64662 71215,71293,71267
 4.1000e+000 71342  6.5964e+001 -4.3182e+002 -7.4220e+001 64662 71189,71293,71215
 4.1000e+000 71319  3.2433e+001 -3.7972e+002  7.0064e+000 64662 71215,71267,71241
 4.1000e+000 71615 -1.0127e+002 -3.9215e+002 -5.8948e+000 64350 71710,71638,71468
 4.1000e+000 71592 -1.3080e+002 -3.8663e+002 -1.2956e+001 64350 71638,71416,71390
 4.1000e+000 71569 -1.0801e+002 -3.6620e+002  1.5549e+001 64350 71710,71468,71442
 4.1000e+000 71546  8.2543e+001 -3.7331e+002 -6.7472e+001 64350 71390,71520,71494
 4.1000e+000 71664 -9.6391e+001 -3.9185e+002  1.0835e-001 64350 71494,71468,71638
 4.1000e+000 71687 -9.7329e+001 -3.9894e+002  2.8419e-001 64350 71494,71638,71390
 4.1000e+000 71736 -9.3195e+001 -3.4029e+002  3.3553e+000 64350 71416,71638,71710
 4.1000e+000 71759 -8.8788e+001 -3.1336e+002  3.1139e+001 64350 71416,71710,71442
 4.1000e+000 72318 -1.0804e+002 -6.2226e+002 -2.5173e+001 63837 71972,72024,71998
 4.1000e+000 72295 -1.7269e+002 -3.9959e+002 -2.0279e+000 63837 72341,71972,71946
 4.1000e+000 72272 -1.5625e+002 -3.2146e+002  1.4032e+001 63837 72413,72341,71946
 4.1000e+000 72249 -1.4289e+002 -2.9204e+002  4.0482e+000 63837 72413,71946,72128
 4.1000e+000 72226 -2.2400e+002 -3.5384e+002  2.6897e+000 63837 72024,72076,72050
 4.1000e+000 72203 -1.8869e+002 -3.2404e+002 -1.1675e+001 63837 72024,72102,72076
 4.1000e+000 72180 -9.1747e+001 -2.7431e+002  2.3516e+001 63837 71946,72154,72128
 4.1000e+000 72367 -2.0550e+002 -4.2805e+002 -7.6351e+001 63837 72024,71972,72341
 4.1000e+000 72390 -1.6051e+002 -3.5060e+002 -2.9110e+001 63837 72024,72341,72102
 4.1000e+000 72439 -1.2096e+002 -3.6961e+002  5.4420e+000 63837 72102,72341,72413
 4.1000e+000 72462 -1.0991e+002 -3.4034e+002 -1.3135e+000 63837 72102,72413,72128
 4.1000e+000 72791 -1.9217e+002 -3.7357e+002 -3.7398e+001 63383 72592,72696,72670
 4.1000e+000 72768 -1.9585e+002 -3.4724e+002 -6.6987e+001 63383 72566,72696,72592
 4.1000e+000 72745 -1.9141e+002 -3.2617e+002  1.1537e+000 63383 72592,72670,72618
 4.1000e+000 72722 -1.8319e+002 -3.0609e+002  1.5313e+000 63383 72618,72670,72644
 4.1000e+000 73297 -2.2858e+002 -3.2879e+002 -1.5418e+000 63185 73000,73156,73130
 4.1000e+000 73274 -2.2951e+002 -3.4225e+002  4.2243e+001 63185 72974,73156,73000
 4.1000e+000 73251 -1.7037e+002 -3.8077e+002 -6.7429e+000 63185 73000,73052,73026
 4.1000e+000 73228 -1.8979e+002 -3.4062e+002 -1.7130e+001 63185 73000,73130,73052
 4.1000e+000 73205 -1.8698e+002 -3.7927e+002 -5.7357e+001 63185 73052,73130,73104
 4.1000e+000 73182 -1.7817e+002 -4.2569e+002 -6.2405e+001 63185 73052,73104,73078
 4.1000e+000 73545 -7.6534e+001 -3.5411e+002  3.2728e+000 62781 73568,73398,73372
 4.1000e+000 73522 -5.5159e+001 -3.2169e+002  1.3208e+001 62781 73568,73372,73346
 4.1000e+000 73499 -1.0144e+002 -3.3402e+002 -8.4087e+000 62781 73640,73320,73424
 4.1000e+000 73476 -1.0888e+002 -2.1230e+002 -3.6058e+001 62781 73320,73450,73424
 4.1000e+000 73594 -6.2313e+001 -3.2508e+002 -5.2184e+000 62781 73424,73398,73568
 4.1000e+000 73617 -8.0543e+001 -3.2544e+002 -8.9171e+000 62781 73640,73424,73568
 4.1000e+000 73666 -9.8654e+001 -3.3039e+002  9.0374e+000 62781 73346,73320,73640
 4.1000e+000 73689 -8.7732e+001 -3.2678e+002  8.6981e+000 62781 73346,73640,73568
 4.1000e+000 74035 -1.3330e+002 -3.8647e+002 -4.9047e+000 62363 74058,73868,73842
 4.1000e+000 74012 -1.2539e+002 -3.5568e+002 -2.8704e+001 62363 74130,74058,73842
 4.1000e+000 73989 -1.1361e+002 -3.5231e+002 -3.0707e+001 62363 74130,73842,73816
 4.1000e+000 73966 -1.8831e+002 -4.0094e+002  4.6291e+000 62363 74202,73764,73894
 4.1000e+000 73943 -2.4251e+002 -3.6417e+002  6.0662e+000 62363 73712,73894,73764
 4.1000e+000 73920 -2.6230e+002 -3.8678e+002 -4.0086e+000 62363 73712,73764,73738
 4.1000e+000 74084 -1.3589e+002 -3.8005e+002 -5.2745e+000 62363 73894,73868,74058
 4.1000e+000 74107 -1.7138e+002 -3.8369e+002  1.8730e+001 62363 74202,73894,74058
 4.1000e+000 74156 -1.3921e+002 -3.6208e+002  1.1759e+001 62363 73790,74058,74130
 4.1000e+000 74179 -8.4292e+001 -3.4099e+002  1.3551e+001 62363 73790,74130,73816
 4.1000e+000 74228 -2.0791e+002 -4.0945e+002 -2.1229e+001 62363 73790,73764,74202
 4.1000e+000 74251 -1.9564e+002 -3.9123e+002 -7.1848e+000 62363 73790,74202,74058
 4.1000e+000 74403 -1.0765e+001 -4.1648e+002  2.8404e+001 62115 74426,74302,74276
 4.1000e+000 74380  7.0415e+001 -3.9719e+002  6.1697e+001 62115 74426,74276,74354
 4.1000e+000 74452 -8.7832e+001 -3.7401e+002  2.7794e+001 62115 74328,74302,74426
 4.1000e+000 74475 -1.1483e+001 -3.5705e+002  6.3267e+001 62115 74328,74426,74354
 4.1000e+000 74578  5.8894e+001 -2.2441e+002  1.7587e+000 61825 74500,74552,74526
 4.1000e+000 74982 -2.0224e+002 -3.5335e+002  3.2136e+000 61513 75005,74734,74708
 4.1000e+000 74959 -1.9587e+002 -3.4256e+002 -6.1706e-001 61513 75005,74708,74864
 4.1000e+000 74936 -2.4946e+002 -3.6056e+002  2.5955e+001 61513 75077,74812,74734
 4.1000e+000 74913 -2.2898e+002 -3.7267e+002 -3.2182e+001 61513 74734,74786,74760
 4.1000e+000 74890 -2.2174e+002 -3.2368e+002 -1.1281e+000 61513 74734,74812,74786
 4.1000e+000 75031 -1.8932e+002 -3.6093e+002  5.4331e+000 61513 75077,74734,75005
 4.1000e+000 75054 -1.5054e+002 -3.5157e+002  5.2254e+001 61513 74838,75005,74864
 4.1000e+000 75103 -2.8364e+002 -3.7782e+002  7.9571e+001 61513 74838,74812,75077
 4.1000e+000 75126 -2.4392e+002 -3.9290e+002  5.9255e+001 61513 74838,75077,75005
 4.1000e+000 75553 -9.6275e+001 -3.2345e+002 -1.2420e+001 61060 75576,75360,75308
 4.1000e+000 75530 -1.0180e+002 -3.4322e+002 -1.5057e+001 61060 75576,75308,75230
 4.1000e+000 75507 -8.6143e+001 -3.0944e+002 -2.0102e-001 61060 75308,75360,75334
 4.1000e+000 75484 -1.3496e+002 -3.9907e+002  2.4249e+001 61060 75230,75308,75256
 4.1000e+000 75461 -9.0255e+001 -3.7013e+002  1.1793e+001 61060 75256,75308,75282
 4.1000e+000 75438 -1.0787e+002 -3.1540e+002  4.0987e+001 61060 75360,75412,75386
 4.1000e+000 75602 -7.0432e+001 -3.4153e+002  1.5339e+000 61060 75412,75360,75576
 4.1000e+000 75625 -8.9350e+001 -3.8072e+002 -6.5738e+000 61060 75412,75576,75230
 4.1000e+000 76052 -1.4670e+002 -3.3464e+002  5.7972e+000 60442 75755,75859,75833
 4.1000e+000 76029 -1.7475e+002 -3.1921e+002 -2.2493e+001 60442 75729,75859,75755
 4.1000e+000 76006 -1.5299e+002 -3.1031e+002  2.1361e+001 60442 75755,75833,75807
 4.1000e+000 75983 -1.4509e+002 -3.6803e+002  1.2204e+001 60442 75755,75807,75781
 4.1000e+000 75960  1.0437e+001 -5.8233e+002  2.1447e+001 60442 75729,75911,75859
 4.1000e+000 75937 -2.9511e+002 -1.4555e+003  9.4273e+001 60442 75859,75911,75885
 4.1000e+000 76430 -1.5426e+002 -3.9601e+002 -1.7059e+001 59788 76453,76286,76234
 4.1000e+000 76407 -1.6692e+002 -4.5305e+002  6.3435e+000 59788 76453,76234,76182
 4.1000e+000 76384 -1.7264e+002 -3.0439e+002  4.9227e+001 59788 76525,76156,76312
 4.1000e+000 76361 -9.7296e+001 -5.1519e+002 -6.4021e+000 59788 76182,76234,76208
 4.1000e+000 76338 -1.2195e+002 -3.8028e+002 -1.1043e+001 59788 76234,76286,76260
 4.1000e+000 76479 -1.8709e+002 -4.2835e+002  1.3463e+000 59788 76312,76286,76453
 4.1000e+000 76502 -1.5718e+002 -4.0620e+002  2.0332e+001 59788 76525,76312,76453
 4.1000e+000 76551 -2.1203e+002 -4.3215e+002  5.2747e+001 59788 76182,76156,76525
 4.1000e+000 76574 -1.8792e+002 -4.6382e+002  3.1823e+001 59788 76182,76525,76453
 4.1000e+000 77031 -1.1121e+002 -2.4177e+002 -3.6296e+001 59448 76835,76887,76861
 4.1000e+000 77008 -5.0111e+001 -2.0204e+002  8.7248e+000 59448 76835,76913,76887
 4.1000e+000 76985 -6.4609e+001 -1.6991e+002  3.2346e+001 59448 76809,76913,76835
 4.1000e+000 76962 -1.2089e+002 -2.2481e+002 -3.9285e-001 59448 76757,76913,76809
 4.1000e+000 76939 -9.8374e+001 -1.9648e+002 -1.0145e+001 59448 76757,76809,76783
 4.1000e+000 77537 -1.6428e+002 -3.4827e+002  1.7465e+001 58994 77560,77344,77292
 4.1000e+000 77514 -2.3178e+002 -3.4898e+002  3.8952e+000 58994 77560,77292,77240
 4.1000e+000 77491 -1.3301e+002 -3.3001e+002 -8.4560e+000 58994 77632,77214,77370
 4.1000e+000 77468 -2.7587e+002 -4.0132e+002  7.1468e+001 58994 77292,77344,77318
 4.1000e+000 77445 -1.3680e+002 -4.3194e+002  1.7145e+001 58994 77214,77396,77370
 4.1000e+000 77422 -2.3442e+002 -3.6507e+002 -7.9389e+000 58994 77240,77292,77266
 4.1000e+000 77586 -1.6822e+002 -3.5785e+002  2.0336e+001 58994 77370,77344,77560
 4.1000e+000 77609 -1.6944e+002 -3.5241e+002  2.2855e+001 58994 77632,77370,77560
 4.1000e+000 77658 -1.1358e+002 -3.0660e+002 -4.1614e+001 58994 77240,77214,77632
 4.1000e+000 77681 -1.4012e+002 -3.0306e+002 -1.3315e+001 58994 77240,77632,77560
 4.1000e+000 78138 -1.3477e+002 -2.4267e+002  3.5495e+001 58440 77864,77994,77890
 4.1000e+000 78115 -8.5524e+001 -1.4455e+002 -1.9970e+001 58440 77864,78020,77994
 4.1000e+000 78092 -1.5301e+002 -2.8706e+002 -2.4133e+001 58440 77942,77994,77968
 4.1000e+000 78069 -1.2280e+002 -2.7286e+002  5.1954e+000 58440 77890,77994,77942
 4.1000e+000 78046 -1.1108e+002 -2.7659e+002 -3.7473e+000 58440 77890,77942,77916
 4.1000e+000 78467 -2.1087e+001 -3.1991e+002  1.2762e+001 57928 78562,78490,78346
 4.1000e+000 78444 -1.1996e+002 -3.2435e+002 -6.1701e+000 57928 78490,78294,78268
 4.1000e+000 78421 -1.3870e+000 -3.3486e+002  2.8830e+001 57928 78562,78346,78320
 4.1000e+000 78398 -4.2856e+001 -3.1340e+002  4.7515e+000 57928 78242,78372,78268
 4.1000e+000 78516 -1.0407e+002 -4.0054e+002 -2.1180e+001 57928 78372,78346,78490
 4.1000e+000 78539 -8.1667e+001 -3.0737e+002 -2.8795e+000 57928 78372,78490,78268
 4.1000e+000 78588 -1.1893e+002 -3.1593e+002  1.8769e+000 57928 78294,78490,78562
 4.1000e+000 78611 -5.6457e+001 -2.8135e+002  3.4699e+001 57928 78294,78562,78320
 4.1000e+000 79068 -2.3535e+002 -4.9463e+002 -1.2370e+002 57467 78794,78924,78820
 4.1000e+000 79045 -1.8603e+002 -4.7213e+002 -1.1755e+002 57467 78794,78950,78924
 4.1000e+000 79022 -1.0131e+002 -4.4244e+002  4.1560e+001 57467 78820,78898,78872
 4.1000e+000 78999 -1.7367e+002 -6.0760e+002 -6.6162e+001 57467 78820,78924,78898
 4.1000e+000 78976 -7.2473e+001 -4.4680e+002  6.4337e+001 57467 78820,78872,78846
 4.1000e+000 79446 -1.9706e+002 -3.7582e+002  2.0560e-001 57120 79172,79302,79250
 4.1000e+000 79423 -1.7487e+002 -3.6586e+002 -1.1890e+001 57120 79172,79328,79302
 4.1000e+000 79400 -1.7716e+002 -3.3027e+002 -1.2697e+001 57120 79172,79250,79198
 4.1000e+000 79377 -1.3394e+002 -4.7493e+002  1.9476e+001 57120 79250,79302,79276
 4.1000e+000 79354 -2.1731e+002 -3.5901e+002 -2.6621e+001 57120 79198,79250,79224
 4.1000e+000 79952 -2.6280e+002 -4.1424e+002  1.4128e+000 56773 79629,79785,79655
 4.1000e+000 79929 -7.7449e+001 -3.5707e+002  1.7553e+001 56773 79629,79811,79785
 4.1000e+000 79906 -2.0530e+002 -4.4995e+002  3.0735e+001 56773 79655,79733,79681
 4.1000e+000 79883 -2.0131e+002 -3.9774e+002  7.6449e+000 56773 79655,79785,79733
 4.1000e+000 79860 -1.8910e+002 -5.1738e+002 -6.1159e+001 56773 79733,79785,79759
 4.1000e+000 79837 -1.0726e+002 -4.0512e+002  7.7661e+001 56773 79681,79733,79707
 4.1000e+000 80281 -8.9173e+001 -3.0886e+002 -2.4575e+001 56319 80108,80160,80134
 4.1000e+000 80258 -9.7378e+001 -3.3713e+002 -3.0741e+001 56319 80056,80160,80108
 4.1000e+000 80235 -3.9461e+001 -2.9818e+002  1.9963e+001 56319 80056,80186,80160
 4.1000e+000 80212 -1.3353e+002 -4.2872e+002 -1.9477e+001 56319 80056,80108,80082
 4.1000e+000 80738 -5.3460e+001 -3.6984e+002  1.9132e+001 55957 80516,80620,80594
 4.1000e+000 80715 -1.3023e+002 -3.3468e+002  1.5655e+001 55957 80464,80620,80516
 4.1000e+000 80692 -1.1182e+002 -4.0340e+002  2.0992e+001 55957 80761,80568,80542
 4.1000e+000 80669 -9.0909e+001 -3.9671e+002  2.4964e+001 55957 80761,80542,80516
 4.1000e+000 80646 -1.3089e+002 -3.3543e+002  4.1873e+001 55957 80464,80516,80490
 4.1000e+000 80787 -1.3243e+002 -4.0058e+002  1.4697e+001 55957 80594,80568,80761
 4.1000e+000 80810 -1.1277e+002 -3.9447e+002  1.8914e+001 55957 80594,80761,80516
 4.1000e+000 81210 -1.1183e+002 -3.7453e+002 -4.4687e+001 55317 80936,80988,80962
 4.1000e+000 81187 -9.3226e+001 -4.1567e+002 -1.6308e+000 55317 80936,81066,80988
 4.1000e+000 81164 -6.3295e+001 -4.4359e+002  5.7318e+000 55317 80936,81092,81066
 4.1000e+000 81141 -1.3168e+002 -4.4296e+002 -4.1097e+001 55317 80988,81066,81014
 4.1000e+000 81118 -1.8694e+001 -2.5068e+002  2.5448e+001 55317 81014,81066,81040
 4.1000e+000 81539 -1.6967e+002 -3.8861e+002  1.0899e+001 54913 81340,81418,81392
 4.1000e+000 81516 -6.9057e+001 -3.1237e+002 -2.3172e+001 54913 81340,81444,81418
 4.1000e+000 81493 -1.0466e+002 -3.3503e+002 -4.7249e+001 54913 81314,81444,81340
 4.1000e+000 81470 -1.9138e+002 -4.0499e+002  2.6095e+000 54913 81340,81392,81366
 4.1000e+000 81787 -9.6666e+001 -4.0452e+002 -3.9333e+000 54601 81588,81692,81640
 4.1000e+000 81764 -1.3865e+002 -4.0826e+002 -1.2845e+001 54601 81562,81692,81588
 4.1000e+000 81741 -7.4289e+001 -4.1029e+002  5.3706e+001 54601 81588,81640,81614
 4.1000e+000 81718 -9.9337e+001 -4.7755e+002 -4.1531e+001 54601 81640,81692,81666
 4.1000e+000 82344 -1.5553e+002 -4.2083e+002 -2.1083e+001 54090 81998,82102,82076
 4.1000e+000 82321 -2.0996e+002 -4.4462e+002 -1.2202e+001 54090 81998,82154,82102
 4.1000e+000 82298 -1.8938e+002 -4.3404e+002 -6.7197e+000 54090 81972,82154,81998
 4.1000e+000 82275 -2.1624e+002 -3.9414e+002 -2.4245e+001 54090 81998,82076,82024
 4.1000e+000 82252 -2.2956e+002 -4.6153e+002  2.1795e+001 54090 81972,82180,82154
 4.1000e+000 82229 -2.8973e+002 -5.4123e+002  3.0299e+001 54090 82102,82154,82128
 4.1000e+000 82206 -4.0081e+001 -2.9846e+002 -6.2672e+001 54090 82024,82076,82050
 4.1000e+000 82722 -2.6267e+002 -4.6825e+002 -1.7710e+001 53579 82500,82578,82552
 4.1000e+000 82699 -1.9206e+002 -4.2385e+002  1.0765e+001 53579 82448,82578,82500
 4.1000e+000 82676 -2.0761e+002 -4.7852e+002  1.1138e+001 53579 82448,82500,82474
 4.1000e+000 82653 -2.5570e+002 -4.5602e+002  3.1760e+001 53579 82448,82604,82578
 4.1000e+000 82630 -1.3580e+002 -4.3341e+002 -1.9232e+001 53579 82500,82552,82526
 4.1000e+000 83356 -1.2703e+002 -3.3472e+002 -3.5250e+001 53189 83379,83088,83036
 4.1000e+000 83333 -1.2242e+002 -3.7720e+002 -3.1848e+001 53189 83379,83036,82984
 4.1000e+000 83310 -6.3060e+001 -3.5648e+002  4.8913e+001 53189 82984,83192,83166
 4.1000e+000 83287  2.7023e+000 -2.7716e+002 -2.4404e+001 53189 83036,83088,83062
 4.1000e+000 83264 -9.9480e+001 -4.1955e+002 -5.7154e+001 53189 82984,83036,83010
 4.1000e+000 83241 -8.7862e+001 -4.2272e+002  1.0011e+001 53189 83114,83166,83140
 4.1000e+000 83218 -1.7175e+002 -4.3727e+002  2.0964e+000 53189 83088,83166,83114
 4.1000e+000 83405 -1.2767e+002 -3.6355e+002 -1.7586e+001 53189 83166,83088,83379
 4.1000e+000 83428 -1.1671e+002 -4.0116e+002 -1.6882e+001 53189 83166,83379,82984
 4.1000e+000 83725 -1.6814e+002 -4.7898e+002 -4.1445e+001 52585 83748,83529,83503
 4.1000e+000 83702 -1.2656e+002 -4.6515e+002 -2.7083e+001 52585 83820,83748,83503
 4.1000e+000 83679 -8.5771e+001 -4.5583e+002 -2.2940e+001 52585 83820,83503,83477
 4.1000e+000 83656 -5.6887e+001 -4.1946e+002  5.9060e+001 52585 83477,83607,83581
 4.1000e+000 83633  4.0908e+001 -3.7776e+002  6.2180e+001 52585 83451,83607,83477
 4.1000e+000 83774 -1.4708e+002 -4.2678e+002 -3.7067e+001 52585 83555,83529,83748
 4.1000e+000 83797 -1.9271e+002 -4.6023e+002 -2.2455e+001 52585 83555,83748,83581
 4.1000e+000 83846 -1.6519e+002 -4.4258e+002 -6.3368e+000 52585 83581,83748,83820
 4.1000e+000 83869 -1.3528e+002 -4.3997e+002 -6.5144e+000 52585 83581,83820,83477
 4.1000e+000 84200 -1.2144e+002 -4.3337e+002 -1.6709e+001 52024 84001,84105,84079
 4.1000e+000 84177 -6.2633e+001 -4.2209e+002 -3.0738e+001 52024 83975,84105,84001
 4.1000e+000 84154 -1.0542e+002 -4.3452e+002 -1.3274e+001 52024 84001,84079,84053
 4.1000e+000 84131 -5.1489e+001 -2.9251e+002  5.2611e+001 52024 84001,84053,84027
 4.1000e+000 84399 -1.0255e+002 -4.3319e+002 -1.9392e+000 51470 84422,84275,84249
 4.1000e+000 84376 -9.2967e+001 -4.1567e+002  3.0338e+000 51470 84422,84249,84223
 4.1000e+000 84353 -1.1844e+002 -4.5591e+002 -6.3553e+001 51470 84275,84327,84301
 4.1000e+000 84448 -1.1246e+002 -4.1637e+002 -2.6568e+000 51470 84327,84275,84422
 4.1000e+000 84471 -1.0520e+002 -4.0223e+002  1.8722e+000 51470 84327,84422,84223
 4.1000e+000 84753 -1.2687e+002 -3.6107e+002 -1.3573e+000 51073 84603,84655,84629
 4.1000e+000 84730 -2.6018e+002 -4.2377e+002 -1.9651e+001 51073 84776,84655,84603
 4.1000e+000 84707 -5.2477e+001 -3.7004e+002 -1.0429e+002 51073 84577,84681,84655
 4.1000e+000 84802 -1.6449e+002 -3.7058e+002 -4.8388e+001 51073 84577,84655,84776
 4.1000e+000 85178 -2.3422e+002 -5.0587e+002  4.5513e+001 50519 85201,85008,84982
 4.1000e+000 85155 -2.2167e+002 -4.6839e+002  3.2160e+001 50519 85273,85201,84982
 4.1000e+000 85132 -2.0774e+002 -4.6891e+002  2.3196e+001 50519 85273,84982,84930
 4.1000e+000 85109 -2.0220e+002 -4.5939e+002  2.0251e+001 50519 84930,84982,84956
 4.1000e+000 85086 -1.8564e+002 -4.6215e+002  1.8687e+001 50519 85008,85060,85034
 4.1000e+000 85227 -1.9191e+002 -4.7940e+002  1.9371e+001 50519 85060,85008,85201
 4.1000e+000 85250 -2.1860e+002 -4.8124e+002  1.2261e+001 50519 85060,85201,84904
 4.1000e+000 85299 -2.0651e+002 -4.7371e+002  9.0364e+000 50519 84904,85201,85273
 4.1000e+000 85322 -1.5923e+002 -4.1709e+002 -1.2376e+001 50519 84904,85273,84930
 4.1000e+000 85958 -1.3557e+002 -4.2082e+002 -1.4239e+001 50093 85981,85768,85716
 4.1000e+000 85935 -1.2074e+002 -3.8255e+002 -1.6623e+001 50093 85981,85716,85612
 4.1000e+000 85912 -1.7259e+002 -3.9612e+002  6.5318e+000 50093 85612,85716,85664
 4.1000e+000 85889 -1.0124e+002 -4.1454e+002 -5.1369e+000 50093 85716,85768,85742
 4.1000e+000 85866 -1.4250e+002 -3.0474e+002 -8.5890e+001 50093 85664,85716,85690
 4.1000e+000 85843 -5.2463e+001 -2.9056e+002 -1.5908e+001 50093 85586,85794,85612
 4.1000e+000 85820 -1.1812e+002 -5.3347e+002  4.3624e+001 50093 85612,85664,85638
 4.1000e+000 86007 -1.6445e+002 -4.5267e+002 -6.9165e+001 50093 85794,85768,85981
 4.1000e+000 86030 -1.1861e+002 -3.4191e+002 -5.7813e+001 50093 85794,85981,85612
 4.1000e+000 86131 -1.4409e+002 -4.3321e+002  5.8644e+001 49895 86053,86105,86079
 4.1000e+000 86639 -1.0440e+002 -2.9378e+002 -5.9411e+001 49391 86662,86394,86368
 4.1000e+000 86616 -1.2189e+002 -3.5680e+002 -5.2268e+001 49391 86662,86368,86342
 4.1000e+000 86593 -6.9850e+001 -3.5677e+002 -1.6374e+001 49391 86342,86498,86472
 4.1000e+000 86570 -4.5528e+001 -3.9434e+002 -2.0073e+001 49391 86316,86498,86342
 4.1000e+000 86547 -2.0020e+002 -5.4220e+002 -2.5361e+001 49391 86394,86472,86446
 4.1000e+000 86524 -1.6994e+001 -5.0919e+002  3.9185e+000 49391 86394,86446,86420
 4.1000e+000 86688 -1.1940e+002 -3.5278e+002 -3.2106e+001 49391 86472,86394,86662
 4.1000e+000 86711 -1.0552e+002 -3.7955e+002 -3.0454e+001 49391 86472,86662,86342
 4.1000e+000 87089 -1.4936e+002 -4.2396e+002  1.0283e+001 48987 86815,86919,86867
 4.1000e+000 87066 -1.5126e+002 -4.3666e+002  1.6576e+001 48987 86815,86971,86919
 4.1000e+000 87043 -5.8281e+001 -4.6971e+002 -4.3396e+001 48987 86867,86919,86893
 4.1000e+000 87020 -1.7013e+002 -4.7973e+002  3.4581e+001 48987 86815,86867,86841
 4.1000e+000 86997 -1.6924e+002 -3.7564e+002  5.8460e+001 48987 86919,86971,86945
 4.1000e+000 87467 -2.8305e+002 -4.2258e+002  1.8983e+001 48540 87490,87245,87219
 4.1000e+000 87444 -2.0808e+002 -3.9519e+002  6.5820e-001 48540 87562,87490,87219
 4.1000e+000 87421 -1.5471e+002 -3.7368e+002  1.7673e+001 48540 87562,87219,87349
 4.1000e+000 87398 -2.1620e+002 -3.3610e+002 -2.4367e+001 48540 87245,87297,87271
 4.1000e+000 87375 -1.2931e+002 -3.9118e+002  1.3464e+001 48540 87193,87349,87219
 4.1000e+000 87516 -1.9767e+002 -4.0492e+002  1.1650e+000 48540 87297,87245,87490
 4.1000e+000 87539 -2.0009e+002 -4.0333e+002  5.5878e+000 48540 87297,87490,87323
 4.1000e+000 87588 -1.5662e+002 -3.6984e+002  3.5062e+001 48540 87323,87490,87562
 4.1000e+000 87611 -1.3108e+002 -3.7714e+002  4.6470e+001 48540 87323,87562,87349
 4.1000e+000 87810 -2.0337e+002 -7.1527e+002 -5.1269e+001 48136 87660,87712,87686
 4.1000e+000 87787 -1.1586e+002 -4.1585e+002 -2.2862e+001 48136 87660,87738,87712
 4.1000e+000 87764 -2.6332e+002 -4.2987e+002 -6.8671e+001 48136 87634,87738,87660
 4.1000e+000 88205 -1.7968e+002 -4.4840e+002 -3.9001e+001 47210 88300,88228,87937
 4.1000e+000 88182 -1.5616e+002 -4.3526e+002 -1.1842e+001 47210 88228,87833,88041
 4.1000e+000 88159 -1.8201e+002 -4.7882e+002 -6.1785e+001 47210 88300,87937,87911
 4.1000e+000 88136 -1.7642e+002 -4.3453e+002 -5.4047e+001 47210 87833,87911,87859
 4.1000e+000 88113 -2.9803e+002 -3.9353e+002 -2.9533e+001 47210 87937,87989,87963
 4.1000e+000 88090 -1.4728e+002 -3.5513e+002  7.1007e+001 47210 87989,88041,88015
 4.1000e+000 88067 -2.0537e+002 -5.0855e+002 -7.2786e+001 47210 87859,87911,87885
 4.1000e+000 88254 -1.5961e+002 -3.7323e+002 -3.9548e+001 47210 87989,87937,88228
 4.1000e+000 88277 -1.8778e+002 -4.2828e+002 -1.5461e+001 47210 87989,88228,88041
 4.1000e+000 88326 -1.4835e+002 -4.1872e+002 -1.5178e+001 47210 87833,88228,88300
 4.1000e+000 88349 -1.5567e+002 -4.3902e+002 -3.9514e+001 47210 87833,88300,87911
 4.1000e+000 88780 -2.8464e+002 -4.9837e+002 -9.5710e+001 46642 88803,88509,88483
 4.1000e+000 88757 -2.0266e+002 -4.4784e+002 -5.2569e+001 46642 88803,88483,88639
 4.1000e+000 88734 -2.2655e+002 -3.6916e+002 -5.9495e+001 46642 88875,88561,88509
 4.1000e+000 88711 -2.3006e+002 -3.4255e+002 -1.2692e+001 46642 88509,88561,88535
 4.1000e+000 88688 -1.2833e+002 -5.0209e+002  4.1103e-001 46642 88457,88639,88483
 4.1000e+000 88665 -2.6041e+002 -5.9781e+002 -2.6798e+001 46642 88561,88613,88587
 4.1000e+000 88829 -2.2869e+002 -4.0234e+002 -6.6924e+001 46642 88875,88509,88803
 4.1000e+000 88852 -2.2334e+002 -4.8334e+002 -4.3809e+001 46642 88613,88803,88639
 4.1000e+000 88901 -1.8659e+002 -4.1558e+002 -3.1209e+001 46642 88613,88561,88875
 4.1000e+000 88924 -2.0361e+002 -4.6955e+002 -3.7602e+001 46642 88613,88875,88803
 4.1000e+000 89253 -8.6896e+001 -4.3352e+002  7.6867e+000 46444 89080,89158,89132
 4.1000e+000 89230 -1.0058e+002 -4.6434e+002  4.3891e+000 46444 89028,89158,89080
 4.1000e+000 89207 -3.4362e+001 -4.0488e+002 -2.0595e+001 46444 89028,89080,89054
 4.1000e+000 89184 -4.8239e+001 -4.6840e+002 -3.4517e+001 46444 89080,89132,89106
 4.1000e+000 89631 -1.2328e+002 -2.9689e+002  6.6357e+000 46040 89383,89461,89435
 4.1000e+000 89608 -1.3040e+002 -3.2824e+002 -1.8783e+001 46040 89383,89487,89461
 4.1000e+000 89585 -1.3304e+002 -3.8669e+002 -1.1484e+001 46040 89383,89435,89409
 4.1000e+000 89562 -1.0559e+002 -2.8249e+002 -3.8332e+001 46040 89383,89513,89487
 4.1000e+000 89539 -4.3414e+001 -2.5171e+002 -5.2618e+001 46040 89357,89513,89383
 4.1000e+000 90009 -1.2970e+002 -3.7649e+002 -1.6453e+000 45636 89813,89891,89839
 4.1000e+000 89986 -1.3426e+002 -3.5326e+002  2.0383e+001 45636 89787,89891,89813
 4.1000e+000 89963 -1.1546e+002 -3.5255e+002 -1.0155e+001 45636 89839,89891,89865
 4.1000e+000 89940 -1.5718e+002 -3.9212e+002  1.0706e+001 45636 89735,89891,89787
 4.1000e+000 89917 -1.2454e+002 -3.9675e+002 -1.8107e+001 45636 89735,89787,89761
 4.1000e+000 90208 -8.6294e+001 -2.9167e+002 -5.6469e+001 45175 90231,90058,90032
 4.1000e+000 90185 -5.2935e+001 -2.6671e+002 -8.6127e+001 45175 90231,90032,90136
 4.1000e+000 90162 -1.0378e+002 -2.4073e+002 -4.8726e+000 45175 90058,90110,90084
 4.1000e+000 90257 -1.2400e+002 -3.2836e+002 -1.4718e+001 45175 90110,90058,90231
 4.1000e+000 90280 -6.0025e+001 -2.8456e+002 -4.7792e+001 45175 90110,90231,90136
 4.1000e+000 90528 -9.4962e+001 -2.9954e+002 -3.9263e+001 44513 90695,90551,90407
 4.1000e+000 90505 -9.9747e+001 -2.6866e+002 -1.7737e+001 44513 90551,90355,90329
 4.1000e+000 90482 -1.2454e+002 -2.9720e+002 -3.6251e+001 44513 90623,90303,90433
 4.1000e+000 90459 -7.3299e+001 -2.7921e+002 -2.8578e+001 44513 90695,90407,90381
 4.1000e+000 90577 -1.3840e+002 -3.1346e+002 -6.8510e+001 44513 90433,90407,90551
 4.1000e+000 90600 -1.1872e+002 -2.8766e+002 -3.3474e+001 44513 90623,90433,90551
 4.1000e+000 90649 -1.2031e+002 -2.8530e+002 -3.3057e+001 44513 90329,90303,90623
 4.1000e+000 90672 -1.2201e+002 -2.8393e+002 -3.2779e+001 44513 90329,90623,90551
 4.1000e+000 90721 -1.2140e+002 -2.7270e+002 -4.4377e+001 44513 90355,90551,90695
 4.1000e+000 90744 -1.1510e+002 -2.6321e+002 -4.0364e+001 44513 90355,90695,90381
 4.1000e+000 91077 -5.4696e+000 -3.0840e+002 -2.1292e+001 44059 91100,90930,90904
 4.1000e+000 91054 -1.1990e+002 -3.3168e+002  1.3819e+001 44059 91100,90904,90982
 4.1000e+000 91031 -2.1435e+002 -3.8729e+002 -2.9636e+001 44059 90878,90982,90904
 4.1000e+000 91008 -6.7497e+001 -2.8920e+002  1.7206e+001 44059 90852,90982,90878
 4.1000e+000 91126 -1.7498e+002 -3.5066e+002 -2.4872e+001 44059 91172,91100,90956
 4.1000e+000 91149 -1.1241e+002 -3.1960e+002 -1.4142e+001 44059 90956,91100,90982
 4.1000e+000 91198 -1.1362e+001 -1.9182e+002 -8.9799e+001 44059 90930,91100,91172
 4.1000e+000 91677 -1.5418e+002 -2.4282e+002  2.4852e+001 43549 91455,91533,91481
 4.1000e+000 91654 -6.2433e+001 -2.4699e+002  3.3232e+001 43549 91429,91533,91455
 4.1000e+000 91631 -1.4891e+002 -2.4347e+002  1.2283e+001 43549 91481,91533,91507
 4.1000e+000 91608 -3.2152e+001 -2.3445e+002  1.5223e+001 43549 91429,91559,91533
 4.1000e+000 91585  2.3911e+000 -7.2654e+001 -1.2652e+000 43549 91403,91559,91429
 4.1000e+000 92006 -1.5637e+002 -3.8619e+002  1.2296e+000 43059 91781,91885,91807
 4.1000e+000 91983 -1.6238e+002 -3.6342e+002  5.8785e+001 43059 91781,91911,91885
 4.1000e+000 91960 -1.5533e+002 -3.8716e+002  1.8835e+000 43059 91807,91885,91833
 4.1000e+000 91937 -1.0158e+002 -3.6701e+002 -6.8844e+000 43059 91833,91885,91859
 4.1000e+000 92561 -1.2154e+002 -2.6919e+002 -3.3559e+001 42598 92584,92215,92189
 4.1000e+000 92538 -1.3309e+002 -3.0730e+002 -3.1715e+001 42598 92656,92584,92189
 4.1000e+000 92515 -1.2063e+002 -3.4878e+002 -1.0552e+001 42598 92656,92189,92397
 4.1000e+000 92492 -1.5829e+002 -2.4274e+002 -3.9931e+001 42598 92241,92319,92293
 4.1000e+000 92469 -1.4836e+002 -2.8575e+002  1.2568e+001 42598 92319,92397,92371
 4.1000e+000 92446 -6.0120e+001 -3.3197e+002  1.3213e+002 42598 92319,92371,92345
 4.1000e+000 92423 -1.5415e+002 -2.4783e+002 -5.1885e+001 42598 92241,92293,92267
 4.1000e+000 92610 -1.2980e+002 -2.6991e+002 -2.9657e+001 42598 92241,92215,92584
 4.1000e+000 92633 -1.1994e+002 -2.4830e+002 -3.8976e+001 42598 92241,92584,92319
 4.1000e+000 92682 -1.2311e+002 -2.5233e+002 -2.4272e+001 42598 92319,92584,92656
 4.1000e+000 92705 -9.9879e+001 -2.8019e+002 -8.7963e+000 42598 92319,92656,92397
 4.1000e+000 92953 -1.5996e+002 -4.1582e+002  2.2603e+001 42094 92976,92806,92780
 4.1000e+000 92930 -1.7719e+002 -3.9299e+002  8.0089e-001 42094 92976,92780,92754
 4.1000e+000 92907 -3.9471e+001 -4.0375e+002 -1.6141e+000 42094 93048,92832,92806
 4.1000e+000 92884 -2.2768e+002 -4.0005e+002 -2.6055e+001 42094 92728,92858,92754
 4.1000e+000 93002 -1.0342e+002 -3.8566e+002  1.1341e+001 42094 93048,92806,92976
 4.1000e+000 93025 -1.6514e+002 -3.8623e+002 -5.7032e+000 42094 92858,92976,92754
 4.1000e+000 93074 -1.2859e+002 -4.3685e+002 -4.1085e+000 42094 92858,92832,93048
 4.1000e+000 93097 -1.8120e+002 -4.1204e+002  3.4587e+000 42094 92858,93048,92976
 4.1000e+000 93605 -1.6776e+002 -4.7750e+002 -1.6636e+001 41846 93628,93412,93386
 4.1000e+000 93582 -1.2522e+002 -3.6215e+002 -3.1397e-001 41846 93628,93386,93308
 4.1000e+000 93559 -1.9514e+002 -3.8040e+002 -7.8492e+001 41846 93700,93464,93438
 4.1000e+000 93536 -1.7740e+002 -4.9901e+002  7.7124e+000 41846 93308,93386,93334
 4.1000e+000 93513 -2.3516e+002 -3.6693e+002 -5.5013e+001 41846 93334,93386,93360
 4.1000e+000 93490 -1.8708e+002 -3.3683e+002 -7.3310e+001 41846 93282,93464,93308
 4.1000e+000 93654 -1.4600e+002 -3.8390e+002 -3.4638e+001 41846 93438,93412,93628
 4.1000e+000 93677 -1.9427e+002 -3.8785e+002 -3.5927e+001 41846 93700,93438,93628
 4.1000e+000 93726 -1.7711e+002 -3.2782e+002 -6.9545e+001 41846 93308,93464,93700
 4.1000e+000 93749 -1.6907e+002 -3.1873e+002 -2.7514e+001 41846 93308,93700,93628
 4.1000e+000 94255 -1.3527e+002 -3.9619e+002  2.5059e+001 41385 93958,94114,94088
 4.1000e+000 94232 -1.2025e+002 -4.2453e+002  1.1293e+001 41385 93932,94114,93958
 4.1000e+000 94209 -2.3179e+002 -4.5882e+002  7.3246e+001 41385 93958,94088,94062
 4.1000e+000 94186 -2.4047e+002 -3.3438e+002  5.3764e+001 41385 93958,94062,93984
 4.1000e+000 94163 -2.1246e+002 -3.2569e+002  5.2563e+001 41385 93984,94062,94036
 4.1000e+000 94140 -1.4512e+002 -4.5702e+002  7.8986e+001 41385 93984,94036,94010
 4.1000e+000 94476 -4.4296e+001 -5.3196e+002  3.1364e+001 40881 94326,94378,94352
 4.1000e+000 94453 -9.0366e+001 -4.3869e+002  3.5064e+001 40881 94300,94378,94326
 4.1000e+000 94430 -1.1276e+002 -4.0610e+002  4.1752e+000 40881 94300,94404,94378
 4.1000e+000 94626 -1.1730e+002 -3.1560e+002 -6.4096e+000 40591 94649,94551,94525
 4.1000e+000 94603 -6.5857e+001 -1.9555e+002  1.7838e-001 40591 94781,94577,94551
 4.1000e+000 94675 -4.1921e+001 -2.2760e+002 -4.0096e+001 40591 94781,94551,94649
 4.1000e+000 94807 -3.8826e+000 -1.3494e+002  3.6220e+001 40591 94499,94577,94781
 4.1000e+000 94830  2.7400e+000 -1.9876e+002 -6.1646e+000 40591 94499,94781,94649
 4.1000e+000 95336 -2.6313e+002 -3.6169e+002 -5.5681e+001 40187 95013,95169,95039
 4.1000e+000 95313 -5.6490e+001 -3.2664e+002  6.4791e+000 40187 95013,95195,95169
 4.1000e+000 95290 -4.4964e+001 -3.5618e+002 -3.7442e+001 40187 95039,95143,95065
 4.1000e+000 95267 -2.0113e+002 -4.1708e+002 -6.1532e+001 40187 95039,95169,95143
 4.1000e+000 95244 -1.0027e+002 -3.4892e+002 -3.8073e+001 40187 95091,95143,95117
 4.1000e+000 95221 -3.1077e+001 -2.1733e+002 -1.3069e+001 40187 95065,95143,95091
 4.1000e+000 95665 -1.0336e+002 -2.8405e+002  1.1295e+002 39626 95466,95570,95544
 4.1000e+000 95642 -1.8693e+002 -2.2906e+002  7.3660e+001 39626 95440,95570,95466
 4.1000e+000 95619 -2.8641e+002 -3.6951e+002  7.2583e+001 39626 95466,95544,95492
 4.1000e+000 95596 -6.4771e+001 -2.8667e+002  1.1261e+002 39626 95492,95544,95518
 4.1000e+000 95913 -1.5445e+002 -3.3884e+002 -5.0030e+001 39136 96080,95936,95766
 4.1000e+000 95890 -1.0662e+002 -3.6290e+002 -3.0122e+001 39136 95936,95714,95688
 4.1000e+000 95867 -2.7010e+002 -3.6204e+002  1.3057e+001 39136 96008,95792,95766
 4.1000e+000 95844 -1.2663e+002 -3.2873e+002 -3.7649e+001 39136 96080,95766,95740
 4.1000e+000 95962 -2.1466e+002 -3.7501e+002 -3.2844e+001 39136 96008,95766,95936
 4.1000e+000 95985 -1.3937e+002 -4.4055e+002 -7.6555e+000 39136 95818,95936,95688
 4.1000e+000 96034 -1.3607e+002 -3.0374e+002  2.1573e+001 39136 95818,95792,96008
 4.1000e+000 96057 -1.2139e+002 -3.3268e+002 -2.3487e+001 39136 95818,96008,95936
 4.1000e+000 96106 -1.4080e+002 -3.3482e+002 -1.3078e+001 39136 95714,95936,96080
 4.1000e+000 96129 -9.7610e+001 -3.2299e+002 -3.4367e+000 39136 95714,96080,95740
 4.1000e+000 96350 -1.1489e+002 -2.8408e+002 -1.4409e+001 38824 96200,96278,96252
 4.1000e+000 96327 -9.9308e+001 -2.7732e+002 -1.2873e+001 38824 96174,96278,96200
 4.1000e+000 96304 -3.1968e+001 -2.4911e+002 -4.4743e+001 38824 96200,96252,96226
 4.1000e+000 96830 -1.6691e+002 -2.9829e+002 -1.9517e+001 38320 97069,96536,96484
 4.1000e+000 96807 -1.6407e+002 -3.0259e+002 -1.9253e+001 38320 97069,96484,96853
 4.1000e+000 96784 -1.8388e+002 -3.2546e+002  7.8092e+000 38320 96853,96484,96458
 4.1000e+000 96761 -9.1800e+001 -2.6143e+002 -3.2407e+001 38320 96925,96640,96614
 4.1000e+000 96738 -1.5731e+002 -2.7537e+002 -1.4371e+001 38320 96997,96666,96640
 4.1000e+000 96715 -1.2836e+002 -3.5996e+002 -4.6748e+000 38320 97141,96588,96562
 4.1000e+000 96692 -2.1075e+002 -3.4833e+002 -1.1687e-001 38320 96484,96536,96510
 4.1000e+000 96879 -1.6331e+002 -3.2181e+002 -9.4699e+000 38320 97141,96562,96853
 4.1000e+000 96902 -1.4994e+002 -3.1461e+002 -1.0180e+001 38320 96925,96614,96853
 4.1000e+000 96951 -1.5294e+002 -2.7217e+002 -1.6391e+001 38320 96997,96640,96925
 4.1000e+000 96974 -1.4671e+002 -2.6547e+002 -8.8750e+000 38320 96458,96925,96853
 4.1000e+000 97023 -1.7710e+002 -2.7879e+002 -3.8896e+000 38320 96458,96666,96997
 4.1000e+000 97046 -1.6119e+002 -2.7115e+002 -6.1330e+000 38320 96458,96997,96925
 4.1000e+000 97095 -1.7765e+002 -2.9619e+002  2.6689e+000 38320 96562,96536,97069
 4.1000e+000 97118 -1.5571e+002 -3.0052e+002 -1.5780e+001 38320 96562,97069,96853
 4.1000e+000 97167 -6.6346e+001 -3.2542e+002 -2.0872e+001 38320 96614,96588,97141
 4.1000e+000 97190 -1.2403e+002 -3.0389e+002 -2.1273e+001 38320 96614,97141,96853
 4.1000e+000 97519 -1.3128e+002 -3.9138e+002  1.0210e+002 37766 97542,97398,97372
 4.1000e+000 97496 -1.5848e+002 -3.1113e+002  6.9670e+001 37766 97542,97372,97346
 4.1000e+000 97473 -1.5798e+002 -3.2069e+002  7.1559e+000 37766 97294,97424,97346
 4.1000e+000 97450 -1.7451e+002 -3.7532e+002 -2.3521e+000 37766 97294,97346,97320
 4.1000e+000 97568 -6.7993e+001 -4.0707e+002  3.6291e+001 37766 97424,97398,97542
 4.1000e+000 97591 -1.1114e+002 -3.1622e+002  9.2135e+000 37766 97424,97542,97346
 4.1000e+000 98048 -1.5840e+002 -2.3489e+002 -7.9387e+001 37262 98071,97878,97852
 4.1000e+000 98025 -1.3332e+002 -2.8187e+002 -3.3144e+001 37262 98071,97852,97800
 4.1000e+000 98002 -1.6097e+002 -3.5167e+002 -2.8026e+001 37262 97800,97852,97826
 4.1000e+000 97979 -1.6503e+002 -3.0710e+002  1.1023e+001 37262 97800,97930,97904
 4.1000e+000 97956 -1.1265e+002 -3.8059e+002  2.5976e+001 37262 97774,97930,97800
 4.1000e+000 98097 -2.2742e+002 -2.6845e+002 -5.6908e+001 37262 97904,97878,98071
 4.1000e+000 98120 -1.7138e+002 -3.2044e+002 -1.4741e+001 37262 97904,98071,97800
 4.1000e+000 98449 -8.6352e+001 -2.3748e+002 -2.7757e+001 36950 98472,98302,98250
 4.1000e+000 98426 -5.1925e+001 -2.2693e+002 -3.4014e+001 36950 98472,98250,98354
 4.1000e+000 98403 -1.3236e+002 -2.6045e+002  3.0162e+001 36950 98250,98302,98276
 4.1000e+000 98380 -3.4058e+001 -1.8173e+002  1.6385e+001 36950 98224,98354,98250
 4.1000e+000 98498 -6.1040e+001 -2.6472e+002 -7.5400e+000 36950 98328,98302,98472
 4.1000e+000 98521 -2.1018e+001 -2.4902e+002 -1.9542e+001 36950 98328,98472,98354
 4.1000e+000 99125 -1.8468e+002 -1.8292e+002  1.9833e+001 36296 98704,98756,98730
 4.1000e+000 99102 -1.7426e+002 -2.0504e+002  1.7000e+001 36296 98704,98938,98756
 4.1000e+000 99079 -1.2856e+002 -2.4978e+002 -5.7640e+000 36296 99148,98938,98912
 4.1000e+000 99056 -1.3724e+002 -2.5518e+002  5.8972e+001 36296 99292,99220,98782
 4.1000e+000 99033 -1.1185e+002 -2.8332e+002  6.7611e+000 36296 99148,98912,98834
 4.1000e+000 99010 -1.2842e+002 -2.1444e+002  6.4048e+001 36296 99292,98782,98756
 4.1000e+000 98987 -1.0640e+002 -5.0040e+002 -9.1550e+001 36296 98834,98912,98886
 4.1000e+000 98964 -1.8289e+002 -7.3113e+002 -1.1720e+002 36296 98834,98886,98860
 4.1000e+000 99174 -1.5725e+002 -3.0472e+002  8.7208e+000 36296 99220,98938,99148
 4.1000e+000 99197 -1.1015e+002 -3.4637e+002  3.7656e+001 36296 98808,99148,98834
 4.1000e+000 99246 -1.3425e+002 -2.4699e+002  1.4130e+002 36296 98808,98782,99220
 4.1000e+000 99269 -5.4526e+001 -2.1904e+002  4.6889e+001 36296 98808,99220,99148
 4.1000e+000 99318 -1.4388e+002 -2.1447e+002  3.0900e+001 36296 98938,99220,99292
 4.1000e+000 99341 -1.4733e+002 -2.2099e+002  3.6396e+001 36296 98938,99292,98756
 4.1000e+000 99719 -1.8740e+002 -3.8978e+002  7.6378e-001 35742 99742,99471,99601
 4.1000e+000 99696 -1.9289e+002 -3.0881e+002  3.6969e+001 35742 99445,99601,99471
 4.1000e+000 99673 -1.7963e+002 -3.7209e+002 -1.6603e+001 35742 99742,99601,99575
 4.1000e+000 99650 -1.5594e+002 -4.5275e+002 -1.2836e+001 35742 99814,99549,99523
 4.1000e+000 99627 -1.2462e+002 -3.5423e+002 -2.8128e+000 35742 99471,99523,99497
 4.1000e+000 99768 -1.5023e+002 -3.8098e+002  8.0228e+000 35742 99523,99471,99742
 4.1000e+000 99791 -1.7590e+002 -4.1996e+002 -1.1270e+001 35742 99814,99523,99742
 4.1000e+000 99840 -1.5230e+002 -4.1215e+002 -2.5368e+001 35742 99575,99549,99814
 4.1000e+000 99863 -1.6535e+002 -3.6969e+002 -2.2775e+001 35742 99575,99814,99742
 4.1000e+000 100111 -1.4118e+002 -3.1413e+002  2.2440e+001 35302 100134,99990,99938
 4.1000e+000 100088 -1.1788e+002 -2.8740e+002  7.3414e+000 35302 100134,99938,99912
 4.1000e+000 100065 -1.1803e+002 -2.8732e+002 -7.0561e+000 35302 100206,99886,100016
 4.1000e+000 100042 -1.8662e+002 -2.8396e+002  1.4183e+001 35302 99938,99990,99964
 4.1000e+000 100160 -1.1048e+002 -3.0244e+002  5.6793e+000 35302 100016,99990,100134
 4.1000e+000 100183 -1.1302e+002 -2.9157e+002 -6.9330e+000 35302 100206,100016,100134
 4.1000e+000 100232 -1.2226e+002 -2.9234e+002 -3.8996e+000 35302 99912,99886,100206
 4.1000e+000 100255 -1.1760e+002 -2.9770e+002 -3.9483e+000 35302 99912,100206,100134
 4.1000e+000 100586 -1.7002e+002 -2.0199e+002  4.6258e+001 35012 100609,100387,100361
 4.1000e+000 100563 -2.0374e+002 -1.5736e+002 -3.8040e+001 35012 100609,100361,100465
 4.1000e+000 100540 -9.8603e+001 -1.1290e+002 -8.3956e+001 35012 100361,100491,100465
 4.1000e+000 100517 -4.4597e+001 -1.3108e+002 -7.7100e+001 35012 100413,100465,100439
 4.1000e+000 100635 -8.3565e+001 -1.6434e+002  2.0162e+001 35012 100413,100387,100609
 4.1000e+000 100658 -1.1520e+002 -1.0893e+002 -6.6333e+001 35012 100413,100609,100465
 4.1000e+000 100987 -1.4640e+002 -3.1991e+002  2.7843e+001 34700 100788,100866,100814
 4.1000e+000 100964 -1.1525e+002 -2.5688e+002  4.7326e+001 34700 101010,100866,100788
 4.1000e+000 100941 -8.5512e+001 -1.9881e+002  5.1877e+001 34700 100762,100892,100866
 4.1000e+000 100918 -1.3736e+002 -2.9499e+002  1.4912e+001 34700 100814,100866,100840
 4.1000e+000 101036 -8.0143e+001 -2.2818e+002  7.4556e+001 34700 100762,100866,101010
 4.1000e+000 101493 -1.9388e+002 -3.6293e+002 -3.3501e+001 34132 101516,101349,101297
 4.1000e+000 101470 -2.2984e+002 -4.3501e+002 -5.2358e+001 34132 101588,101516,101297
 4.1000e+000 101447 -2.3123e+002 -4.5909e+002 -7.6379e+001 34132 101588,101297,101245
 4.1000e+000 101424 -1.3997e+002 -5.3600e+002 -7.1449e+001 34132 101245,101297,101271
 4.1000e+000 101401 -2.2500e+002 -3.6712e+002 -4.2696e+001 34132 101297,101349,101323
 4.1000e+000 101542 -2.0412e+002 -4.1904e+002 -2.5844e+001 34132 101375,101349,101516
 4.1000e+000 101565 -1.7959e+002 -4.1493e+002 -2.6011e+001 34132 101375,101516,101219
 4.1000e+000 101614 -1.8383e+002 -4.3781e+002 -2.6930e+001 34132 101219,101516,101588
 4.1000e+000 101637 -2.0725e+002 -4.6080e+002 -4.9830e+001 34132 101219,101588,101245
 4.1000e+000 101858 -7.4899e+001 -3.0074e+002  2.8652e+001 33720 101708,101786,101760
 4.1000e+000 101835 -5.4246e+001 -3.2877e+002  4.2606e+001 33720 101682,101786,101708
 4.1000e+000 101812 -1.1249e+002 -3.1985e+002  2.0178e+001 33720 101708,101760,101734
 4.1000e+000 102128 -4.2437e+001 -3.7832e+002 -9.8608e+000 33130 101903,102007,101929
 4.1000e+000 102105 -5.3208e+001 -4.3673e+002  1.4242e+001 33130 101903,102033,102007
 4.1000e+000 102082 -2.2360e+001 -4.5360e+002 -9.0035e+001 33130 101929,102007,101955
 4.1000e+000 102059 -6.8086e+001 -3.2117e+002  6.9822e+000 33130 101955,102007,101981
 4.1000e+000 102461 -1.3645e+002 -3.0819e+002 -2.7264e+001 32840 102236,102340,102262
 4.1000e+000 102438 -1.1690e+002 -2.1661e+002  7.0452e+000 32840 102236,102366,102340
 4.1000e+000 102415 -8.3194e+001 -2.9505e+002 -2.2060e+001 32840 102262,102340,102288
 4.1000e+000 102392 -1.6243e+002 -3.1450e+002 -5.9831e+001 32840 102288,102340,102314
 4.1000e+000 102997 -1.2500e+002 -2.1407e+002  6.0216e+001 32493 102749,102879,102853
 4.1000e+000 102974 -1.0178e+002 -1.6914e+002  4.2894e+001 32493 102723,102879,102749
 4.1000e+000 102951 -1.4576e+002 -2.6005e+002  4.1051e+001 32493 102749,102801,102775
 4.1000e+000 102928 -1.5628e+002 -2.5792e+002  3.9226e+001 32493 102749,102853,102801
 4.1000e+000 102905 -1.4619e+002 -2.4176e+002  3.1481e+001 32493 102801,102853,102827
 4.1000e+000 103454 -1.4060e+002 -2.5316e+002 -2.8013e+001 32089 103206,103336,103310
 4.1000e+000 103431 -1.1149e+002 -2.6698e+002 -5.3636e+000 32089 103180,103336,103206
 4.1000e+000 103408 -1.5291e+002 -2.9898e+002 -4.9958e+001 32089 103206,103284,103258
 4.1000e+000 103385 -2.2297e+002 -3.0723e+002 -6.1851e+001 32089 103206,103310,103284
 4.1000e+000 103362 -1.1589e+002 -2.0356e+002 -2.7564e+001 32089 103206,103258,103232
 4.1000e+000 103783 -2.4587e+002 -3.2664e+002 -3.5872e+001 31742 103558,103662,103584
 4.1000e+000 103760 -1.9733e+002 -2.4903e+002 -8.3363e+001 31742 103558,103688,103662
 4.1000e+000 103737 -1.5993e+002 -2.5682e+002 -7.0702e+001 31742 103584,103662,103636
 4.1000e+000 103714 -1.5068e+002 -2.8142e+002 -7.7099e+001 31742 103584,103636,103610
 4.1000e+000 104112 -2.7793e-001 -2.5914e+002  6.4616e+001 31402 103939,103991,103965
 4.1000e+000 104089 -7.0499e+001 -2.1630e+002  2.5179e+001 31402 103913,103991,103939
 4.1000e+000 104066 -9.8628e+001 -2.4136e+002  1.2085e+001 31402 103913,104017,103991
 4.1000e+000 104043 -1.2393e+002 -2.2891e+002 -4.4670e+000 31402 103887,104017,103913
 4.1000e+000 104569 -2.2829e+002 -3.9538e+002  6.1967e+000 30998 104321,104425,104373
 4.1000e+000 104546 -2.5978e+002 -4.0527e+002  2.0748e+000 30998 104321,104451,104425
 4.1000e+000 104523 -1.7129e+002 -3.3111e+002  3.9642e+001 30998 104373,104425,104399
 4.1000e+000 104500 -2.1406e+002 -4.7002e+002 -2.9501e+001 30998 104295,104451,104321
 4.1000e+000 104477 -3.0162e+002 -4.6003e+002  8.0645e+001 30998 104321,104373,104347
 4.1000e+000 104947 -1.9976e+002 -3.4221e+002 -3.7564e+001 30608 104751,104803,104777
 4.1000e+000 104924 -1.3478e+002 -3.5398e+002 -1.3227e+001 30608 104725,104803,104751
 4.1000e+000 104901 -2.1341e+002 -3.4392e+002  2.3405e+001 30608 104699,104803,104725
 4.1000e+000 104878 -1.8579e+002 -3.3197e+002  2.1407e+001 30608 104673,104803,104699
 4.1000e+000 104855 -1.4406e+002 -3.2041e+002 -1.2563e+001 30608 104673,104829,104803
 4.1000e+000 105276 -1.3656e+002 -3.1876e+002  1.9165e+001 30204 105427,105129,105077
 4.1000e+000 105253 -9.6675e+001 -3.4170e+002  6.9434e+001 30204 105427,105077,105051
 4.1000e+000 105230 -1.1931e+002 -3.0737e+002  2.4090e+001 30204 105077,105129,105103
 4.1000e+000 105207 -9.0353e+001 -2.8535e+002  4.3585e+001 30204 105299,105181,105155
 4.1000e+000 105325 -9.5678e+001 -2.8099e+002  1.7901e+001 30204 105129,105181,105299
 4.1000e+000 105453 -1.6187e+002 -3.3529e+002  4.1434e+001 30204 105181,105129,105427
 4.1000e+000 105476 -1.8567e+002 -3.8740e+002  9.8277e+001 30204 105181,105427,105051
 4.1000e+000 105903 -1.1645e+002 -2.7448e+002 -2.1718e+001 29700 105606,105762,105736
 4.1000e+000 105880 -1.4891e+002 -2.8099e+002  9.4873e-001 29700 105580,105762,105606
 4.1000e+000 105857 -1.7575e+002 -3.4656e+002 -2.0972e+001 29700 105606,105710,105632
 4.1000e+000 105834 -1.4669e+002 -2.9011e+002 -1.0521e+001 29700 105606,105736,105710
 4.1000e+000 105811 -1.6712e+002 -3.1411e+002 -2.3067e+001 29700 105632,105710,105684
 4.1000e+000 105788 -1.5542e+002 -2.8641e+002 -1.5900e+001 29700 105632,105684,105658
 4.1000e+000 106102 -4.8598e+001 -3.2841e+002  1.5944e+001 29124 105978,106030,106004
 4.1000e+000 106079 -8.3188e+001 -3.2249e+002  1.6878e+001 29124 105926,106030,105978
 4.1000e+000 106056 -9.0362e+001 -3.6040e+002  4.7297e+001 29124 105926,105978,105952
 4.1000e+000 106301 -9.1139e+001 -3.3574e+002  1.2823e+000 28712 106151,106229,106203
 4.1000e+000 106278 -1.0818e+002 -3.7135e+002 -1.6930e+001 28712 106125,106229,106151
 4.1000e+000 106255 -9.5166e+001 -3.5418e+002  1.9339e+001 28712 106151,106203,106177
 4.1000e+000 106551 -1.2469e+002 -4.2291e+002  1.6778e+001 28258 106352,106404,106378
 4.1000e+000 106528 -1.6724e+002 -4.2700e+002  7.4706e-001 28258 106352,106456,106404
 4.1000e+000 106505 -1.6536e+002 -4.4574e+002 -6.5425e+000 28258 106326,106456,106352
 4.1000e+000 106482 -1.5216e+002 -4.0466e+002 -9.2241e+000 28258 106404,106456,106430
 4.1000e+000 107012 -1.3812e+002 -3.5815e+002  7.2696e+001 27818 107035,106790,106764
 4.1000e+000 106989 -1.1996e+002 -3.4068e+002  2.6778e+001 27818 107035,106764,106868
 4.1000e+000 106966 -8.3502e+001 -4.0591e+002  3.9777e+001 27818 107107,106842,106816
 4.1000e+000 106943 -1.8588e+002 -3.1903e+002  1.5624e+001 27818 106738,106868,106764
 4.1000e+000 106920 -1.7338e+002 -2.8087e+002  3.0460e+001 27818 106738,106894,106868
 4.1000e+000 107061 -5.7457e+001 -3.4154e+002  8.2415e+001 27818 106816,106790,107035
 4.1000e+000 107084 -1.0427e+002 -3.8003e+002  4.1764e+001 27818 107107,106816,107035
 4.1000e+000 107133 -8.0245e+001 -3.6812e+002  2.1376e+001 27818 106868,106842,107107
 4.1000e+000 107156 -9.3463e+001 -3.2932e+002  2.8213e+001 27818 106868,107107,107035
 4.1000e+000 107613 -4.1799e+001 -2.6919e+002  5.8353e+001 27312 107339,107469,107365
 4.1000e+000 107590 -2.7997e+000 -2.4569e+002  4.8463e+001 27312 107339,107495,107469
 4.1000e+000 107567 -4.4277e+001 -2.6252e+002  2.8512e+001 27312 107391,107469,107443
 4.1000e+000 107544 -4.4155e+001 -2.8149e+002  2.4427e+001 27312 107365,107469,107391
 4.1000e+000 107521 -1.2205e+002 -2.8709e+002  1.0787e+001 27312 107391,107443,107417
 4.1000e+000 107991 -1.3657e+002 -3.9014e+002  7.2747e+000 26858 108086,108014,107795
 4.1000e+000 107968 -1.5289e+002 -4.1495e+002 -4.9665e+001 26858 108014,107717,107873
 4.1000e+000 107945 -1.6306e+002 -4.1099e+002  2.6085e+001 26858 108158,108086,107795
 4.1000e+000 107922 -1.3174e+002 -4.0688e+002  2.3186e+001 26858 108158,107795,107769
 4.1000e+000 107899 -8.0047e+001 -5.1307e+002  7.1806e+001 26858 107821,107873,107847
 4.1000e+000 108040 -1.4205e+002 -4.5614e+002  2.0236e+001 26858 107821,107795,108014
 4.1000e+000 108063 -5.2129e+001 -4.3369e+002 -1.2333e+001 26858 107821,108014,107873
 4.1000e+000 108112 -2.0624e+002 -4.1735e+002  1.5291e+001 26858 107717,108014,108086
 4.1000e+000 108135 -1.6704e+002 -4.3206e+002  4.7817e+001 26858 107717,108086,107743
 4.1000e+000 108184 -1.2623e+002 -4.0880e+002  3.7029e+001 26858 107743,108086,108158
 4.1000e+000 108207 -1.1293e+002 -4.1759e+002  3.6558e+001 26858 107743,108158,107769
 4.1000e+000 108634 -1.8893e+002 -3.8601e+002  7.9255e+000 26404 108657,108415,108363
 4.1000e+000 108611 -2.1237e+002 -4.1825e+002  4.2079e+001 26404 108657,108363,108337
 4.1000e+000 108588 -1.8464e+002 -3.8752e+002  4.6059e+001 26404 108729,108311,108467
 4.1000e+000 108565 -2.0438e+002 -4.5380e+002  6.1245e+000 26404 108801,108441,108415
 4.1000e+000 108542 -2.7938e+002 -4.3021e+002  5.5426e+001 26404 108311,108493,108467
 4.1000e+000 108519 -1.3431e+002 -3.8856e+002  7.3387e+000 26404 108363,108415,108389
 4.1000e+000 108683 -2.4899e+002 -4.1030e+002  1.1959e+001 26404 108801,108415,108657
 4.1000e+000 108706 -2.3964e+002 -4.0476e+002  3.6010e+001 26404 108729,108467,108657
 4.1000e+000 108755 -1.4824e+002 -4.1250e+002  4.6222e+001 26404 108337,108311,108729
 4.1000e+000 108778 -1.7642e+002 -4.1051e+002  3.5737e+001 26404 108337,108729,108657
 4.1000e+000 108827 -2.4890e+002 -5.3926e+002 -1.9276e+001 26404 108467,108441,108801
 4.1000e+000 108850 -2.7371e+002 -4.6502e+002 -1.2636e+001 26404 108467,108801,108657
 4.1000e+000 109228 -1.8725e+002 -4.0012e+002 -2.0215e+001 26064 109006,109084,109058
 4.1000e+000 109205 -1.6730e+002 -3.7305e+002  7.3265e+000 26064 108980,109084,109006
 4.1000e+000 109182 -1.8273e+002 -3.5793e+002 -1.2330e+001 26064 108980,109110,109084
 4.1000e+000 109159 -1.7958e+002 -4.2195e+002 -3.1082e+000 26064 109006,109058,109032
 4.1000e+000 109136 -6.1390e+001 -3.2282e+002  1.1902e+001 26064 108954,109110,108980
 4.1000e+000 109427 -4.9542e+001 -3.4093e+002 -6.8282e+001 25660 109303,109355,109329
 4.1000e+000 109404 -9.7704e+001 -4.3734e+002 -1.6702e+001 25660 109277,109355,109303
 4.1000e+000 109381 -5.8708e+001 -4.1353e+002 -6.1503e+000 25660 109251,109355,109277
 4.1000e+000 109577 -7.1401e+001 -1.7500e+002  6.0241e+001 25306 109476,109528,109502
 4.1000e+000 109554  1.1357e+001 -1.5720e+002  3.9390e+001 25306 109450,109528,109476
 4.1000e+000 109778 -1.3234e+002 -3.6428e+002  1.1468e+001 24944 109628,109706,109654
 4.1000e+000 109755 -1.4270e+002 -3.5303e+002  2.2043e+000 24944 109602,109706,109628
 4.1000e+000 109732 -1.1620e+002 -3.4034e+002 -1.5284e+000 24944 109654,109706,109680
 4.1000e+000 110126 -1.3037e+002 -4.5889e+002  1.4137e+001 24440 110149,109907,109855
 4.1000e+000 110103 -1.2627e+002 -4.8433e+002  2.8608e+001 24440 110149,109855,109985
 4.1000e+000 110080 -1.0524e+002 -3.9648e+002  8.6032e+000 24440 109855,109907,109881
 4.1000e+000 110057 -1.1083e+002 -3.8105e+002  1.2198e+002 24440 109829,109985,109855
 4.1000e+000 110034 -1.1474e+002 -4.5419e+002  1.5975e+000 24440 109907,109959,109933
 4.1000e+000 110011 -7.6864e+001 -3.9473e+002  1.0327e+001 24440 109803,109985,109829
 4.1000e+000 110175 -1.2646e+002 -4.3639e+002  8.2968e+000 24440 109959,109907,110149
 4.1000e+000 110198 -1.2345e+002 -4.5870e+002  2.5447e+001 24440 109959,110149,109985
 4.1000e+000 110301 -1.8540e+001 -2.6945e+002 -1.2855e+000 24028 110223,110275,110249
 4.1000e+000 110573 -5.7711e+001 -2.7765e+002  2.1730e+001 23467 110400,110452,110426
 4.1000e+000 110550 -9.7306e+001 -3.2472e+002  1.2162e-001 23467 110374,110452,110400
 4.1000e+000 110527 -9.8883e+001 -3.2530e+002  4.7255e+000 23467 110348,110452,110374
 4.1000e+000 110504 -7.2592e+001 -3.1256e+002 -2.9214e+000 23467 110348,110478,110452
 4.1000e+000 111004 -2.2282e+002 -4.7278e+002 -4.3994e+001 22963 111027,110733,110707
 4.1000e+000 110981 -2.1339e+002 -4.4822e+002  1.9117e+001 22963 111027,110707,110681
 4.1000e+000 110958 -1.0784e+002 -4.0333e+002 -4.8892e+001 22963 111099,110759,110733
 4.1000e+000 110935 -1.3945e+002 -3.8993e+002 -3.3735e+001 22963 111171,110863,110811
 4.1000e+000 110912 -7.0232e+001 -2.9196e+002 -5.2275e+001 22963 110759,110811,110785
 4.1000e+000 110889 -1.5192e+002 -4.1039e+002 -2.7593e+001 22963 110811,110863,110837
 4.1000e+000 111053 -1.5440e+002 -4.3647e+002 -3.0545e+001 22963 111099,110733,111027
 4.1000e+000 111076 -1.3071e+002 -4.2434e+002 -2.7416e+001 22963 111171,110811,111027
 4.1000e+000 111125 -1.0542e+002 -3.9557e+002 -7.3409e+001 22963 110811,110759,111099
 4.1000e+000 111148 -1.1255e+002 -3.9076e+002 -6.1995e+001 22963 110811,111099,111027
 4.1000e+000 111197 -1.4087e+002 -3.3478e+002 -4.2419e+001 22963 110681,110863,111171
 4.1000e+000 111220 -1.4624e+002 -3.7550e+002 -2.0727e+001 22963 110681,111171,111027
 4.1000e+000 111726 -2.1231e+002 -4.1292e+002  1.1250e+001 22459 111749,111507,111429
 4.1000e+000 111703 -1.9942e+002 -4.0973e+002 -8.3388e+000 22459 111749,111429,111585
 4.1000e+000 111680 -1.7158e+002 -4.6496e+002 -6.0512e+000 22459 111403,111585,111429
 4.1000e+000 111657 -2.0222e+002 -4.5269e+002  1.9311e+001 22459 111507,111559,111533
 4.1000e+000 111634 -2.8098e+002 -3.9834e+002  2.7384e+001 22459 111455,111507,111481
 4.1000e+000 111611 -2.8895e+002 -3.9696e+002  3.6904e+001 22459 111429,111507,111455
 4.1000e+000 111775 -2.1543e+002 -4.4209e+002  2.4616e+001 22459 111559,111507,111749
 4.1000e+000 111798 -2.0005e+002 -4.2280e+002  5.7700e+000 22459 111559,111749,111585
 4.1000e+000 112046 -9.4469e+001 -3.4909e+002 -4.7830e+001 21898 112069,111925,111873
 4.1000e+000 112023 -9.1367e+001 -3.5330e+002 -1.2912e+001 21898 112069,111873,111847
 4.1000e+000 112000 -1.2276e+002 -3.6586e+002 -2.0606e+001 21898 111821,111951,111847
 4.1000e+000 111977 -1.0653e+002 -2.7721e+002 -3.2155e+001 21898 111873,111925,111899
 4.1000e+000 112095 -1.4407e+002 -3.6788e+002 -5.3258e+001 21898 111951,111925,112069
 4.1000e+000 112118 -1.2022e+002 -3.6388e+002 -1.9747e+001 21898 111951,112069,111847
 4.1000e+000 112498 -1.6591e+002 -3.8222e+002 -3.4144e+001 21608 112521,112276,112224
 4.1000e+000 112475 -1.0929e+002 -3.8558e+002 -3.3401e+000 21608 112521,112224,112380
 4.1000e+000 112452 -1.1803e+002 -4.5126e+002  2.5245e+001 21608 112302,112380,112354
 4.1000e+000 112429 -1.9549e+002 -4.3804e+002 -2.1521e+001 21608 112224,112276,112250
 4.1000e+000 112406  6.3181e+001 -4.6598e+002 -1.0134e+001 21608 112302,112354,112328
 4.1000e+000 112547 -1.2015e+002 -3.3631e+002 -6.9966e+000 21608 112302,112276,112521
 4.1000e+000 112570 -8.0919e+001 -3.7421e+002  1.4022e+001 21608 112302,112521,112380
 4.1000e+000 112948 -1.8677e+002 -3.9746e+002 -6.3661e+000 20882 112971,112752,112700
 4.1000e+000 112925 -1.4495e+002 -3.8268e+002 -1.2925e+001 20882 112971,112700,112830
 4.1000e+000 112902 -2.3979e+002 -4.2552e+002  2.7053e+001 20882 112778,112830,112804
 4.1000e+000 112879 -1.3346e+002 -3.0644e+002 -1.9379e+001 20882 112674,112830,112700
 4.1000e+000 112856 -2.2937e+002 -4.1151e+002  8.1121e+000 20882 112700,112752,112726
 4.1000e+000 112997 -1.8729e+002 -3.9549e+002  1.6894e+001 20882 112778,112752,112971
 4.1000e+000 113020 -1.6353e+002 -3.8812e+002  9.2836e+000 20882 112778,112971,112830
 4.1000e+000 113526 -1.3328e+002 -3.9309e+002  9.1270e-001 20428 113255,113385,113333
 4.1000e+000 113503 -1.4671e+002 -4.3225e+002  2.1498e-001 20428 113229,113385,113255
 4.1000e+000 113480 -1.3881e+001 -3.8538e+002  2.0703e+000 20428 113255,113333,113281
 4.1000e+000 113457 -1.3125e+002 -4.3044e+002  2.4998e-001 20428 113203,113385,113229
 4.1000e+000 113434 -5.9721e+001 -4.0462e+002 -1.3309e+001 20428 113281,113333,113307
 4.1000e+000 113411 -1.5550e+002 -3.8776e+002  6.2169e+000 20428 113333,113385,113359
 4.1000e+000 113774 -2.2106e+001 -3.8168e+002  1.4903e+001 19917 113797,113601,113549
 4.1000e+000 113751 -6.2805e+001 -3.9036e+002  2.0256e+001 19917 113869,113797,113549
 4.1000e+000 113728 -5.9784e+001 -3.9542e+002  3.9782e+001 19917 113869,113549,113679
 4.1000e+000 113705 -3.3893e+001 -3.7923e+002  3.0430e+001 19917 113549,113601,113575
 4.1000e+000 113823 -6.3520e+001 -4.6489e+002 -1.7395e+000 19917 113627,113601,113797
 4.1000e+000 113846 -2.2223e+001 -3.6301e+002 -1.0460e+001 19917 113627,113797,113653
 4.1000e+000 113895 -5.2990e+001 -3.4426e+002  5.5802e+000 19917 113653,113797,113869
 4.1000e+000 113918 -6.8472e+001 -3.5653e+002  3.0367e+001 19917 113653,113869,113679
 4.1000e+000 114166 -1.7644e+002 -3.9807e+002 -5.9880e+000 19413 113993,114045,114019
 4.1000e+000 114143 -1.6892e+002 -3.7054e+002  3.1486e+000 19413 113967,114045,113993
 4.1000e+000 114120 -1.4159e+002 -3.6089e+002  2.0455e+001 19413 113967,114071,114045
 4.1000e+000 114097 -1.1660e+002 -4.0738e+002 -6.1245e+000 19413 113941,114071,113967
 4.1000e+000 114438 -1.6483e+002 -4.3564e+002  4.1148e+000 19001 114213,114265,114239
 4.1000e+000 114415 -1.1900e+002 -3.3982e+002 -9.9881e+000 19001 114213,114343,114265
 4.1000e+000 114392 -1.7597e+002 -4.6742e+002 -2.1240e+001 19001 114265,114343,114317
 4.1000e+000 114369  3.5197e+001 -3.7671e+002 -8.9442e+000 19001 114265,114317,114291
 4.1000e+000 114639 -1.2450e+002 -5.1959e+002  2.5989e+001 18554 114489,114541,114515
 4.1000e+000 114616 -1.0989e+002 -4.4879e+002  4.8332e+000 18554 114489,114567,114541
 4.1000e+000 114593 -2.3672e+002 -5.1952e+002 -3.4883e+001 18554 114463,114567,114489
 4.1000e+000 115043 -8.9189e+001 -3.8666e+002  1.4042e+001 18164 114795,114925,114821
 4.1000e+000 115020 -8.1187e+001 -4.0910e+002  2.1546e+001 18164 114769,114925,114795
 4.1000e+000 114997 -4.9058e+001 -4.0630e+002 -3.1405e+000 18164 115066,114873,114821
 4.1000e+000 114974 -4.7059e+001 -3.4929e+002 -1.4266e+001 18164 115066,114821,114925
 4.1000e+000 114951  2.3057e+001 -4.0771e+002 -3.9778e+001 18164 114821,114873,114847
 4.1000e+000 115092 -6.8576e+001 -3.6497e+002 -3.3035e+001 18164 114899,114873,115066
 4.1000e+000 115115 -4.2812e+001 -2.7784e+002 -4.7082e+001 18164 114899,115066,114925
 4.1000e+000 115265 -1.1733e+002 -4.2394e+002  3.9630e+000 17852 115164,115216,115190
 4.1000e+000 115242 -1.2679e+002 -4.4367e+002 -4.7478e-001 17852 115138,115216,115164
 4.1000e+000 115464 -2.6986e+002 -6.0353e+002  8.6819e+000 17346 115288,115366,115340
 4.1000e+000 115441 -4.1503e+002 -4.7025e+002 -1.6334e+001 17346 115288,115392,115366
 4.1000e+000 115418 -2.4176e+002 -6.7907e+002 -2.1295e+001 17346 115288,115340,115314
 4.1000e+000 115736 -1.0853e+002 -3.8311e+002  1.6244e+001 16942 115563,115641,115615
 4.1000e+000 115713 -1.2245e+002 -3.8153e+002  4.1185e+000 16942 115511,115641,115563
 4.1000e+000 115690 -2.6654e+002 -4.4450e+002  2.2946e+001 16942 115563,115615,115589
 4.1000e+000 115667 -1.4456e+002 -4.1273e+002  1.3943e+001 16942 115511,115563,115537
 4.1000e+000 116091 -1.9804e+002 -4.6382e+002 -1.7711e+001 16388 115918,115970,115944
 4.1000e+000 116068 -1.6980e+002 -3.7172e+002 -1.1793e+001 16388 115918,115996,115970
 4.1000e+000 116045 -2.2959e+002 -4.7104e+002  1.5636e+001 16388 115892,115996,115918
 4.1000e+000 116022 -1.5216e+002 -4.2947e+002  5.1824e+001 16388 115866,115996,115892
 4.1000e+000 116192 -7.2036e+001 -4.8488e+002 -6.7815e+001 15810 116114,116166,116140
 4.1000e+000 116342 -1.8414e+002 -5.9071e+002  3.2542e+001 15419 116241,116293,116267
 4.1000e+000 116319 -2.6265e+002 -7.2660e+002 -2.1207e+001 15419 116215,116293,116241
 4.1000e+000 116445 -1.9780e+002 -4.0292e+002  5.1587e+000 421 116367,116419,116393
 4.2000e+000 68477 -2.6000e+002 -3.8611e+002  1.7079e+000 68018 68327,68379,68353
 4.2000e+000 68454 -2.7686e+002 -5.1135e+002  3.7833e+001 68018 68301,68379,68327
 4.2000e+000 68431 -1.2018e+002 -5.6684e+002  9.7740e+001 68018 68301,68405,68379
 4.2000e+000 68578 -1.7510e+002 -3.6429e+002  2.0166e+000 67820 68500,68552,68526
 4.2000e+000 68728 -1.9050e+002 -3.4076e+002 -4.7174e+000 67508 68601,68653,68627
 4.2000e+000 68705 -2.9185e+002 -2.6149e+002 -4.9557e+001 67508 68601,68679,68653
 4.2000e+000 68927 -5.4758e+001 -3.2156e+002 -6.7073e+000 67310 68777,68829,68803
 4.2000e+000 68904 -8.3666e+001 -3.7193e+002  6.7676e+000 67310 68751,68829,68777
 4.2000e+000 68881 -6.7207e+001 -3.7668e+002  2.0038e+001 67310 68751,68855,68829
 4.2000e+000 69386 -1.5107e+002 -3.9659e+002 -2.0112e+001 67020 69216,69268,69242
 4.2000e+000 69363 -1.3726e+002 -3.0754e+002 -3.9149e+001 67020 69138,69268,69216
 4.2000e+000 69340 -1.0233e+002 -2.7708e+002 -2.2800e+001 67020 69112,69268,69138
 4.2000e+000 69317 -1.8280e+002 -3.3056e+002  2.5474e+001 67020 69138,69190,69164
 4.2000e+000 69294 -1.9142e+002 -3.0313e+002 -1.7239e+001 67020 69138,69216,69190
 4.2000e+000 69536 -2.9722e+002 -7.2735e+002 -5.9496e+001 66708 69435,69487,69461
 4.2000e+000 69513 -2.1882e+002 -8.1957e+002 -9.6505e+000 66708 69409,69487,69435
 4.2000e+000 69735 -1.8473e+002 -3.7662e+002  8.5421e+000 66346 69585,69637,69611
 4.2000e+000 69712 -1.5377e+002 -3.5870e+002 -1.5498e+000 66346 69559,69637,69585
 4.2000e+000 69689 -1.3879e+002 -3.5428e+002 -3.5350e+001 66346 69559,69663,69637
 4.2000e+000 69985 -2.6218e+002 -4.4720e+002  6.0918e+000 66148 69786,69890,69864
 4.2000e+000 69962 -2.6918e+002 -4.5200e+002  9.1372e+000 66148 69760,69890,69786
 4.2000e+000 69939 -1.9194e+002 -4.2028e+002 -6.1519e+001 66148 69786,69864,69838
 4.2000e+000 69916 -2.2215e+002 -4.4736e+002 -2.6215e+001 66148 69786,69838,69812
 4.2000e+000 70137 -1.2799e+002 -4.8807e+002 -2.8675e+001 65950 70036,70088,70062
 4.2000e+000 70114 -1.0825e+002 -5.4190e+002  2.5394e+001 65950 70010,70088,70036
 4.2000e+000 70470 -9.7665e+001 -3.6366e+002  2.9139e+001 65546 70245,70323,70271
 4.2000e+000 70447 -7.1104e+001 -3.2412e+002  1.3362e+001 65546 70245,70375,70323
 4.2000e+000 70424 -8.9322e+001 -4.0701e+002  1.4802e+001 65546 70323,70375,70349
 4.2000e+000 70401 -7.6214e+001 -3.3435e+002  1.2844e+001 65546 70271,70323,70297
 4.2000e+000 70620 -1.6561e+002 -4.2849e+002  1.4077e+001 65348 70493,70545,70519
 4.2000e+000 70597 -1.1525e+002 -4.4580e+002  1.8933e+001 65348 70493,70571,70545
 4.2000e+000 70721 -2.1887e+002 -4.4750e+002  3.3279e+001 65150 70643,70695,70669
 4.2000e+000 71020 -1.5636e+002 -3.5344e+002  5.3955e+000 64952 71043,70850,70824
 4.2000e+000 70997 -1.3674e+002 -3.0518e+002  5.1083e+000 64952 71043,70824,70772
 4.2000e+000 70974 -1.4846e+002 -4.0616e+002  6.5684e+000 64952 71115,70746,70876
 4.2000e+000 70951 -1.1665e+002 -4.0524e+002 -2.8164e+000 64952 70746,70902,70876
 4.2000e+000 70928 -1.3934e+002 -2.5789e+002 -2.4384e+001 64952 70772,70824,70798
 4.2000e+000 71069 -1.2757e+002 -3.3870e+002  1.2318e+001 64952 70876,70850,71043
 4.2000e+000 71092 -1.4624e+002 -3.8306e+002  7.6420e+000 64952 71115,70876,71043
 4.2000e+000 71141 -1.6754e+002 -3.7947e+002 -1.4090e+001 64952 70772,70746,71115
 4.2000e+000 71164 -1.5694e+002 -3.4477e+002 -1.3657e+001 64952 70772,71115,71043
 4.2000e+000 71365 -4.6847e+000 -4.4088e+002 -5.5732e+000 64662 71215,71293,71267
 4.2000e+000 71342  6.4246e+001 -4.1893e+002 -7.2015e+001 64662 71189,71293,71215
 4.2000e+000 71319  3.1851e+001 -3.6836e+002  6.8118e+000 64662 71215,71267,71241
 4.2000e+000 71615 -1.0093e+002 -3.7942e+002 -5.7167e+000 64350 71710,71638,71468
 4.2000e+000 71592 -1.2744e+002 -3.7407e+002 -1.2446e+001 64350 71638,71416,71390
 4.2000e+000 71569 -1.0758e+002 -3.5452e+002  1.4902e+001 64350 71710,71468,71442
 4.2000e+000 71546  7.3021e+001 -3.6177e+002 -6.3204e+001 64350 71390,71520,71494
 4.2000e+000 71664 -9.6312e+001 -3.7908e+002 -2.3037e-001 64350 71494,71468,71638
 4.2000e+000 71687 -9.6705e+001 -3.8622e+002  2.7088e-001 64350 71494,71638,71390
 4.2000e+000 71736 -9.2799e+001 -3.2956e+002  2.8069e+000 64350 71416,71638,71710
 4.2000e+000 71759 -8.9078e+001 -3.0388e+002  2.9483e+001 64350 71416,71710,71442
 4.2000e+000 72318 -1.0728e+002 -6.0133e+002 -2.4359e+001 63837 71972,72024,71998
 4.2000e+000 72295 -1.6815e+002 -3.8763e+002 -2.0531e+000 63837 72341,71972,71946
 4.2000e+000 72272 -1.5261e+002 -3.1258e+002  1.3740e+001 63837 72413,72341,71946
 4.2000e+000 72249 -1.4006e+002 -2.8423e+002  4.1615e+000 63837 72413,71946,72128
 4.2000e+000 72226 -2.1540e+002 -3.4103e+002  2.1395e+000 63837 72024,72076,72050
 4.2000e+000 72203 -1.8404e+002 -3.1466e+002 -1.0554e+001 63837 72024,72102,72076
 4.2000e+000 72180 -9.2240e+001 -2.6775e+002  2.2745e+001 63837 71946,72154,72128
 4.2000e+000 72367 -2.0015e+002 -4.1511e+002 -7.3365e+001 63837 72024,71972,72341
 4.2000e+000 72390 -1.5692e+002 -3.4086e+002 -2.7685e+001 63837 72024,72341,72102
 4.2000e+000 72439 -1.1897e+002 -3.5902e+002  5.3875e+000 63837 72102,72341,72413
 4.2000e+000 72462 -1.0855e+002 -3.3075e+002 -1.0630e+000 63837 72102,72413,72128
 4.2000e+000 72791 -1.8700e+002 -3.6295e+002 -3.6308e+001 63383 72592,72696,72670
 4.2000e+000 72768 -1.9056e+002 -3.3734e+002 -6.5046e+001 63383 72566,72696,72592
 4.2000e+000 72745 -1.8632e+002 -3.1673e+002  1.2797e+000 63383 72592,72670,72618
 4.2000e+000 72722 -1.7884e+002 -2.9767e+002  1.0472e+000 63383 72618,72670,72644
 4.2000e+000 73297 -2.2229e+002 -3.1906e+002 -1.9581e+000 63185 73000,73156,73130
 4.2000e+000 73274 -2.2295e+002 -3.3165e+002  4.0967e+001 63185 72974,73156,73000
 4.2000e+000 73251 -1.6560e+002 -3.6894e+002 -6.2315e+000 63185 73000,73052,73026
 4.2000e+000 73228 -1.8408e+002 -3.2956e+002 -1.6482e+001 63185 73000,73130,73052
 4.2000e+000 73205 -1.8169e+002 -3.6779e+002 -5.5390e+001 63185 73052,73130,73104
 4.2000e+000 73182 -1.7312e+002 -4.1176e+002 -6.0109e+001 63185 73052,73104,73078
 4.2000e+000 73545 -7.4015e+001 -3.4356e+002  3.0652e+000 62781 73568,73398,73372
 4.2000e+000 73522 -5.3496e+001 -3.1234e+002  1.2576e+001 62781 73568,73372,73346
 4.2000e+000 73499 -9.8238e+001 -3.2453e+002 -8.4285e+000 62781 73640,73320,73424
 4.2000e+000 73476 -1.0563e+002 -2.0586e+002 -3.5369e+001 62781 73320,73450,73424
 4.2000e+000 73594 -5.9900e+001 -3.1569e+002 -5.1836e+000 62781 73424,73398,73568
 4.2000e+000 73617 -7.7880e+001 -3.1615e+002 -8.8521e+000 62781 73640,73424,73568
 4.2000e+000 73666 -9.5492e+001 -3.2092e+002  8.5958e+000 62781 73346,73320,73640
 4.2000e+000 73689 -8.4847e+001 -3.1734e+002  8.3310e+000 62781 73346,73640,73568
 4.2000e+000 74035 -1.3149e+002 -3.7214e+002 -5.5390e+000 62363 74058,73868,73842
 4.2000e+000 74012 -1.2273e+002 -3.4237e+002 -2.8282e+001 62363 74130,74058,73842
 4.2000e+000 73989 -1.1148e+002 -3.3919e+002 -3.0258e+001 62363 74130,73842,73816
 4.2000e+000 73966 -1.8270e+002 -3.8657e+002  4.5811e+000 62363 74202,73764,73894
 4.2000e+000 73943 -2.3613e+002 -3.5143e+002  5.7214e+000 62363 73712,73894,73764
 4.2000e+000 73920 -2.5418e+002 -3.7378e+002 -3.1417e+000 62363 73712,73764,73738
 4.2000e+000 74084 -1.3294e+002 -3.6590e+002 -5.5418e+000 62363 73894,73868,74058
 4.2000e+000 74107 -1.6697e+002 -3.6993e+002  1.7381e+001 62363 74202,73894,74058
 4.2000e+000 74156 -1.3602e+002 -3.4856e+002  1.0482e+001 62363 73790,74058,74130
 4.2000e+000 74179 -8.3462e+001 -3.2843e+002  1.2146e+001 62363 73790,74130,73816
 4.2000e+000 74228 -2.0068e+002 -3.9437e+002 -2.0153e+001 62363 73790,73764,74202
 4.2000e+000 74251 -1.8908e+002 -3.7668e+002 -7.4386e+000 62363 73790,74202,74058
 4.2000e+000 74403 -1.2806e+001 -4.0048e+002  2.6536e+001 62115 74426,74302,74276
 4.2000e+000 74380  6.3301e+001 -3.8271e+002  5.7738e+001 62115 74426,74276,74354
 4.2000e+000 74452 -8.4922e+001 -3.6082e+002  2.5983e+001 62115 74328,74302,74426
 4.2000e+000 74475 -1.3455e+001 -3.4529e+002  5.9230e+001 62115 74328,74426,74354
 4.2000e+000 74578  5.8757e+001 -2.1711e+002  1.7506e+000 61825 74500,74552,74526
 4.2000e+000 74982 -1.9585e+002 -3.4039e+002  2.7072e+000 61513 75005,74734,74708
 4.2000e+000 74959 -1.8935e+002 -3.2868e+002 -1.3955e+000 61513 75005,74708,74864
 4.2000e+000 74936 -2.4109e+002 -3.4792e+002  2.4507e+001 61513 75077,74812,74734
 4.2000e+000 74913 -2.1977e+002 -3.5704e+002 -3.1067e+001 61513 74734,74786,74760
 4.2000e+000 74890 -2.1389e+002 -3.1258e+002 -1.2388e+000 61513 74734,74812,74786
 4.2000e+000 75031 -1.8310e+002 -3.4814e+002  4.8579e+000 61513 75077,74734,75005
 4.2000e+000 75054 -1.4601e+002 -3.3885e+002  4.9761e+001 61513 74838,75005,74864
 4.2000e+000 75103 -2.7403e+002 -3.6435e+002  7.6360e+001 61513 74838,74812,75077
 4.2000e+000 75126 -2.3580e+002 -3.7876e+002  5.6899e+001 61513 74838,75077,75005
 4.2000e+000 75553 -9.5580e+001 -3.1309e+002 -1.1501e+001 61060 75576,75360,75308
 4.2000e+000 75530 -9.9987e+001 -3.3239e+002 -1.3673e+001 61060 75576,75308,75230
 4.2000e+000 75507 -8.5818e+001 -2.9988e+002 -5.6263e-002 61060 75308,75360,75334
 4.2000e+000 75484 -1.3171e+002 -3.8653e+002  2.2731e+001 61060 75230,75308,75256
 4.2000e+000 75461 -9.1154e+001 -3.5886e+002  1.0618e+001 61060 75256,75308,75282
 4.2000e+000 75438 -1.0763e+002 -3.0649e+002  3.8935e+001 61060 75360,75412,75386
 4.2000e+000 75602 -7.2082e+001 -3.3038e+002  1.6875e+000 61060 75412,75360,75576
 4.2000e+000 75625 -8.9014e+001 -3.6790e+002 -5.5475e+000 61060 75412,75576,75230
 4.2000e+000 76052 -1.4286e+002 -3.2345e+002  5.4605e+000 60442 75755,75859,75833
 4.2000e+000 76029 -1.6839e+002 -3.0810e+002 -2.1702e+001 60442 75729,75859,75755
 4.2000e+000 76006 -1.4892e+002 -3.0008e+002  2.0454e+001 60442 75755,75833,75807
 4.2000e+000 75983 -1.4226e+002 -3.5608e+002  1.1341e+001 60442 75755,75807,75781
 4.2000e+000 75960  5.6827e+000 -5.6269e+002  2.1173e+001 60442 75729,75911,75859
 4.2000e+000 75937 -2.8776e+002 -1.4036e+003  9.1850e+001 60442 75859,75911,75885
 4.2000e+000 76430 -1.4955e+002 -3.8426e+002 -1.6692e+001 59788 76453,76286,76234
 4.2000e+000 76407 -1.6177e+002 -4.3979e+002  6.3112e+000 59788 76453,76234,76182
 4.2000e+000 76384 -1.6783e+002 -2.9545e+002  4.7789e+001 59788 76525,76156,76312
 4.2000e+000 76361 -9.5072e+001 -5.0072e+002 -5.7407e+000 59788 76182,76234,76208
 4.2000e+000 76338 -1.1864e+002 -3.6934e+002 -1.1005e+001 59788 76234,76286,76260
 4.2000e+000 76479 -1.8158e+002 -4.1578e+002  1.2268e+000 59788 76312,76286,76453
 4.2000e+000 76502 -1.5242e+002 -3.9429e+002  1.9769e+001 59788 76525,76312,76453
 4.2000e+000 76551 -2.0584e+002 -4.1956e+002  5.1449e+001 59788 76182,76156,76525
 4.2000e+000 76574 -1.8248e+002 -4.5038e+002  3.1086e+001 59788 76182,76525,76453
 4.2000e+000 77031 -1.0798e+002 -2.3478e+002 -3.5348e+001 59448 76835,76887,76861
 4.2000e+000 77008 -4.8301e+001 -1.9616e+002  8.6526e+000 59448 76835,76913,76887
 4.2000e+000 76985 -6.2298e+001 -1.6534e+002  3.1409e+001 59448 76809,76913,76835
 4.2000e+000 76962 -1.1711e+002 -2.1825e+002 -5.9421e-001 59448 76757,76913,76809
 4.2000e+000 76939 -9.5936e+001 -1.9171e+002 -9.7577e+000 59448 76757,76809,76783
 4.2000e+000 77537 -1.5890e+002 -3.3694e+002  1.6430e+001 58994 77560,77344,77292
 4.2000e+000 77514 -2.2373e+002 -3.3696e+002  3.5188e+000 58994 77560,77292,77240
 4.2000e+000 77491 -1.2869e+002 -3.1814e+002 -8.5027e+000 58994 77632,77214,77370
 4.2000e+000 77468 -2.6458e+002 -3.8730e+002  6.8995e+001 58994 77292,77344,77318
 4.2000e+000 77445 -1.3239e+002 -4.1412e+002  1.5636e+001 58994 77214,77396,77370
 4.2000e+000 77422 -2.2630e+002 -3.5262e+002 -7.9895e+000 58994 77240,77292,77266
 4.2000e+000 77586 -1.6337e+002 -3.4552e+002  1.9164e+001 58994 77370,77344,77560
 4.2000e+000 77609 -1.6403e+002 -3.3983e+002  2.1783e+001 58994 77632,77370,77560
 4.2000e+000 77658 -1.0985e+002 -2.9558e+002 -4.0772e+001 58994 77240,77214,77632
 4.2000e+000 77681 -1.3566e+002 -2.9221e+002 -1.3409e+001 58994 77240,77632,77560
 4.2000e+000 78138 -1.3148e+002 -2.3539e+002  3.4215e+001 58440 77864,77994,77890
 4.2000e+000 78115 -8.4629e+001 -1.4232e+002 -1.8387e+001 58440 77864,78020,77994
 4.2000e+000 78092 -1.4847e+002 -2.7796e+002 -2.3813e+001 58440 77942,77994,77968
 4.2000e+000 78069 -1.1905e+002 -2.6439e+002  4.8472e+000 58440 77890,77994,77942
 4.2000e+000 78046 -1.0811e+002 -2.6783e+002 -3.5019e+000 58440 77890,77942,77916
 4.2000e+000 78467 -2.3924e+001 -3.1034e+002  1.1785e+001 57928 78562,78490,78346
 4.2000e+000 78444 -1.1704e+002 -3.1374e+002 -5.3154e+000 57928 78490,78294,78268
 4.2000e+000 78421 -5.1212e+000 -3.2482e+002  2.7142e+001 57928 78562,78346,78320
 4.2000e+000 78398 -4.4264e+001 -3.0262e+002  4.6013e+000 57928 78242,78372,78268
 4.2000e+000 78516 -1.0242e+002 -3.8723e+002 -2.0555e+001 57928 78372,78346,78490
 4.2000e+000 78539 -8.1129e+001 -2.9823e+002 -2.8812e+000 57928 78372,78490,78268
 4.2000e+000 78588 -1.1646e+002 -3.0708e+002  1.7893e+000 57928 78294,78490,78562
 4.2000e+000 78611 -5.7426e+001 -2.7513e+002  3.2885e+001 57928 78294,78562,78320
 4.2000e+000 79068 -2.2819e+002 -4.7994e+002 -1.2001e+002 57467 78794,78924,78820
 4.2000e+000 79045 -1.8092e+002 -4.5821e+002 -1.1354e+002 57467 78794,78950,78924
 4.2000e+000 79022 -9.8017e+001 -4.2879e+002  4.0445e+001 57467 78820,78898,78872
 4.2000e+000 78999 -1.6832e+002 -5.8926e+002 -6.4173e+001 57467 78820,78924,78898
 4.2000e+000 78976 -7.0854e+001 -4.3331e+002  6.2510e+001 57467 78820,78872,78846
 4.2000e+000 79446 -1.9130e+002 -3.6323e+002 -2.5689e-001 57120 79172,79302,79250
 4.2000e+000 79423 -1.7043e+002 -3.5384e+002 -1.2003e+001 57120 79172,79328,79302
 4.2000e+000 79400 -1.7247e+002 -3.1924e+002 -1.2627e+001 57120 79172,79250,79198
 4.2000e+000 79377 -1.3074e+002 -4.5874e+002  1.8176e+001 57120 79250,79302,79276
 4.2000e+000 79354 -2.1076e+002 -3.4655e+002 -2.5829e+001 57120 79198,79250,79224
 4.2000e+000 79952 -2.5470e+002 -4.0173e+002  1.2736e+000 56773 79629,79785,79655
 4.2000e+000 79929 -7.4584e+001 -3.4616e+002  1.6942e+001 56773 79629,79811,79785
 4.2000e+000 79906 -1.9895e+002 -4.3602e+002  2.9826e+001 56773 79655,79733,79681
 4.2000e+000 79883 -1.9510e+002 -3.8546e+002  7.4552e+000 56773 79655,79785,79733
 4.2000e+000 79860 -1.8306e+002 -5.0162e+002 -5.9541e+001 56773 79733,79785,79759
 4.2000e+000 79837 -1.0302e+002 -3.9216e+002  7.5459e+001 56773 79681,79733,79707
 4.2000e+000 80281 -8.7068e+001 -2.9818e+002 -2.3987e+001 56319 80108,80160,80134
 4.2000e+000 80258 -9.5656e+001 -3.2579e+002 -3.0161e+001 56319 80056,80160,80108
 4.2000e+000 80235 -3.9912e+001 -2.8822e+002  1.9006e+001 56319 80056,80186,80160
 4.2000e+000 80212 -1.2978e+002 -4.1379e+002 -1.9721e+001 56319 80056,80108,80082
 4.2000e+000 80738 -5.2050e+001 -3.5853e+002  1.8492e+001 55957 80516,80620,80594
 4.2000e+000 80715 -1.2742e+002 -3.2502e+002  1.4833e+001 55957 80464,80620,80516
 4.2000e+000 80692 -1.0916e+002 -3.9078e+002  2.0397e+001 55957 80761,80568,80542
 4.2000e+000 80669 -8.9602e+001 -3.8459e+002  2.4091e+001 55957 80761,80542,80516
 4.2000e+000 80646 -1.2747e+002 -3.2436e+002  4.0250e+001 55957 80464,80516,80490
 4.2000e+000 80787 -1.2838e+002 -3.8818e+002  1.4542e+001 55957 80594,80568,80761
 4.2000e+000 80810 -1.1001e+002 -3.8253e+002  1.8468e+001 55957 80594,80761,80516
 4.2000e+000 81210 -1.0838e+002 -3.6355e+002 -4.3367e+001 55317 80936,80988,80962
 4.2000e+000 81187 -9.0351e+001 -4.0318e+002 -1.7664e+000 55317 80936,81066,80988
 4.2000e+000 81164 -6.1512e+001 -4.3095e+002  5.6294e+000 55317 80936,81092,81066
 4.2000e+000 81141 -1.2743e+002 -4.2948e+002 -3.9751e+001 55317 80988,81066,81014
 4.2000e+000 81118 -1.8121e+001 -2.4309e+002  2.4713e+001 55317 81014,81066,81040
 4.2000e+000 81539 -1.6499e+002 -3.7605e+002  1.0379e+001 54913 81340,81418,81392
 4.2000e+000 81516 -6.7169e+001 -3.0229e+002 -2.2653e+001 54913 81340,81444,81418
 4.2000e+000 81493 -1.0186e+002 -3.2429e+002 -4.5927e+001 54913 81314,81444,81340
 4.2000e+000 81470 -1.8626e+002 -3.9224e+002  2.2451e+000 54913 81340,81392,81366
 4.2000e+000 81787 -9.4016e+001 -3.9080e+002 -3.6330e+000 54601 81588,81692,81640
 4.2000e+000 81764 -1.3570e+002 -3.9558e+002 -1.2694e+001 54601 81562,81692,81588
 4.2000e+000 81741 -7.3595e+001 -3.9698e+002  5.2275e+001 54601 81588,81640,81614
 4.2000e+000 81718 -9.6732e+001 -4.6282e+002 -4.0625e+001 54601 81640,81692,81666
 4.2000e+000 82344 -1.4983e+002 -4.0336e+002 -2.0566e+001 54090 81998,82102,82076
 4.2000e+000 82321 -2.0193e+002 -4.2615e+002 -1.1693e+001 54090 81998,82154,82102
 4.2000e+000 82298 -1.8278e+002 -4.1631e+002 -6.5951e+000 54090 81972,82154,81998
 4.2000e+000 82275 -2.0794e+002 -3.7866e+002 -2.3328e+001 54090 81998,82076,82024
 4.2000e+000 82252 -2.2123e+002 -4.4289e+002  2.1396e+001 54090 81972,82180,82154
 4.2000e+000 82229 -2.7896e+002 -5.1905e+002  2.9440e+001 54090 82102,82154,82128
 4.2000e+000 82206 -3.8384e+001 -2.8647e+002 -6.0445e+001 54090 82024,82076,82050
 4.2000e+000 82722 -2.5421e+002 -4.5332e+002 -1.6536e+001 53579 82500,82578,82552
 4.2000e+000 82699 -1.8687e+002 -4.1142e+002  1.0599e+001 53579 82448,82578,82500
 4.2000e+000 82676 -2.0218e+002 -4.6398e+002  1.1244e+001 53579 82448,82500,82474
 4.2000e+000 82653 -2.4761e+002 -4.4228e+002  3.1256e+001 53579 82448,82604,82578
 4.2000e+000 82630 -1.3185e+002 -4.1950e+002 -1.7839e+001 53579 82500,82552,82526
 4.2000e+000 83356 -1.2346e+002 -3.2460e+002 -3.3897e+001 53189 83379,83088,83036
 4.2000e+000 83333 -1.1887e+002 -3.6591e+002 -3.0540e+001 53189 83379,83036,82984
 4.2000e+000 83310 -6.0984e+001 -3.4559e+002  4.8104e+001 53189 82984,83192,83166
 4.2000e+000 83287  2.3948e+000 -2.6879e+002 -2.3413e+001 53189 83036,83088,83062
 4.2000e+000 83264 -9.6165e+001 -4.0729e+002 -5.5488e+001 53189 82984,83036,83010
 4.2000e+000 83241 -8.4591e+001 -4.0939e+002  9.1824e+000 53189 83114,83166,83140
 4.2000e+000 83218 -1.6642e+002 -4.2400e+002  1.8117e+000 53189 83088,83166,83114
 4.2000e+000 83405 -1.2422e+002 -3.5262e+002 -1.6752e+001 53189 83166,83088,83379
 4.2000e+000 83428 -1.1343e+002 -3.8917e+002 -1.6024e+001 53189 83166,83379,82984
 4.2000e+000 83725 -1.6288e+002 -4.6150e+002 -3.9734e+001 52585 83748,83529,83503
 4.2000e+000 83702 -1.2275e+002 -4.4813e+002 -2.6007e+001 52585 83820,83748,83503
 4.2000e+000 83679 -8.3266e+001 -4.3892e+002 -2.1928e+001 52585 83820,83503,83477
 4.2000e+000 83656 -5.7595e+001 -4.0435e+002  5.6203e+001 52585 83477,83607,83581
 4.2000e+000 83633  3.5746e+001 -3.6474e+002  5.8641e+001 52585 83451,83607,83477
 4.2000e+000 83774 -1.4267e+002 -4.1138e+002 -3.5457e+001 52585 83555,83529,83748
 4.2000e+000 83797 -1.8682e+002 -4.4331e+002 -2.1516e+001 52585 83555,83748,83581
 4.2000e+000 83846 -1.6010e+002 -4.2604e+002 -5.8985e+000 52585 83581,83748,83820
 4.2000e+000 83869 -1.3120e+002 -4.2339e+002 -6.0075e+000 52585 83581,83820,83477
 4.2000e+000 84200 -1.2004e+002 -4.1790e+002 -1.5631e+001 52024 84001,84105,84079
 4.2000e+000 84177 -6.3160e+001 -4.0714e+002 -2.9438e+001 52024 83975,84105,84001
 4.2000e+000 84154 -1.0417e+002 -4.1911e+002 -1.2194e+001 52024 84001,84079,84053
 4.2000e+000 84131 -5.2879e+001 -2.8414e+002  5.0607e+001 52024 84001,84053,84027
 4.2000e+000 84399 -1.0080e+002 -4.1751e+002 -1.5962e+000 51470 84422,84275,84249
 4.2000e+000 84376 -9.1882e+001 -4.0172e+002  2.9609e+000 51470 84422,84249,84223
 4.2000e+000 84353 -1.1565e+002 -4.3998e+002 -6.0712e+001 51470 84275,84327,84301
 4.2000e+000 84448 -1.0997e+002 -4.0228e+002 -2.1948e+000 51470 84327,84275,84422
 4.2000e+000 84471 -1.0314e+002 -3.8953e+002  1.9386e+000 51470 84327,84422,84223
 4.2000e+000 84753 -1.2298e+002 -3.4785e+002 -1.3441e+000 51073 84603,84655,84629
 4.2000e+000 84730 -2.5052e+002 -4.0790e+002 -1.8902e+001 51073 84776,84655,84603
 4.2000e+000 84707 -5.4302e+001 -3.5549e+002 -9.8640e+001 51073 84577,84681,84655
 4.2000e+000 84802 -1.5898e+002 -3.5702e+002 -4.6359e+001 51073 84577,84655,84776
 4.2000e+000 85178 -2.2564e+002 -4.8900e+002  4.3694e+001 50519 85201,85008,84982
 4.2000e+000 85155 -2.1372e+002 -4.5346e+002  3.1158e+001 50519 85273,85201,84982
 4.2000e+000 85132 -2.0068e+002 -4.5378e+002  2.2785e+001 50519 85273,84982,84930
 4.2000e+000 85109 -1.9481e+002 -4.4319e+002  1.9573e+001 50519 84930,84982,84956
 4.2000e+000 85086 -1.7993e+002 -4.4770e+002  1.8368e+001 50519 85008,85060,85034
 4.2000e+000 85227 -1.8581e+002 -4.6404e+002  1.8966e+001 50519 85060,85008,85201
 4.2000e+000 85250 -2.1093e+002 -4.6577e+002  1.2274e+001 50519 85060,85201,84904
 4.2000e+000 85299 -1.9961e+002 -4.5862e+002  9.2048e+000 50519 84904,85201,85273
 4.2000e+000 85322 -1.5507e+002 -4.0477e+002 -1.0934e+001 50519 84904,85273,84930
 4.2000e+000 85958 -1.3153e+002 -4.0808e+002 -1.3922e+001 50093 85981,85768,85716
 4.2000e+000 85935 -1.1714e+002 -3.7088e+002 -1.6269e+001 50093 85981,85716,85612
 4.2000e+000 85912 -1.6759e+002 -3.8348e+002  6.2738e+000 50093 85612,85716,85664
 4.2000e+000 85889 -9.7822e+001 -4.0150e+002 -4.9155e+000 50093 85716,85768,85742
 4.2000e+000 85866 -1.3850e+002 -2.9526e+002 -8.2974e+001 50093 85664,85716,85690
 4.2000e+000 85843 -5.1259e+001 -2.8182e+002 -1.5666e+001 50093 85586,85794,85612
 4.2000e+000 85820 -1.1422e+002 -5.1678e+002  4.2567e+001 50093 85612,85664,85638
 4.2000e+000 86007 -1.5947e+002 -4.3895e+002 -6.7213e+001 50093 85794,85768,85981
 4.2000e+000 86030 -1.1503e+002 -3.3144e+002 -5.6240e+001 50093 85794,85981,85612
 4.2000e+000 86131 -1.3834e+002 -4.1470e+002  5.6794e+001 49895 86053,86105,86079
 4.2000e+000 86639 -1.0133e+002 -2.8474e+002 -5.7195e+001 49391 86662,86394,86368
 4.2000e+000 86616 -1.1831e+002 -3.4553e+002 -5.0443e+001 49391 86662,86368,86342
 4.2000e+000 86593 -6.7413e+001 -3.4535e+002 -1.5814e+001 49391 86342,86498,86472
 4.2000e+000 86570 -4.3429e+001 -3.8103e+002 -1.9168e+001 49391 86316,86498,86342
 4.2000e+000 86547 -1.9384e+002 -5.2538e+002 -2.4375e+001 49391 86394,86472,86446
 4.2000e+000 86524 -1.6090e+001 -4.9336e+002  4.0300e+000 49391 86394,86446,86420
 4.2000e+000 86688 -1.1546e+002 -3.4165e+002 -3.0861e+001 49391 86472,86394,86662
 4.2000e+000 86711 -1.0231e+002 -3.6749e+002 -2.9348e+001 49391 86472,86662,86342
 4.2000e+000 87089 -1.4559e+002 -4.1017e+002  1.0469e+001 48987 86815,86919,86867
 4.2000e+000 87066 -1.4666e+002 -4.2192e+002  1.6318e+001 48987 86815,86971,86919
 4.2000e+000 87043 -5.5758e+001 -4.5373e+002 -4.1327e+001 48987 86867,86919,86893
 4.2000e+000 87020 -1.6575e+002 -4.6446e+002  3.4378e+001 48987 86815,86867,86841
 4.2000e+000 86997 -1.6421e+002 -3.6320e+002  5.6944e+001 48987 86919,86971,86945
 4.2000e+000 87467 -2.7485e+002 -4.0945e+002  1.8903e+001 48540 87490,87245,87219
 4.2000e+000 87444 -2.0133e+002 -3.8292e+002  1.0061e+000 48540 87562,87490,87219
 4.2000e+000 87421 -1.4993e+002 -3.6219e+002  1.7108e+001 48540 87562,87219,87349
 4.2000e+000 87398 -2.0922e+002 -3.2396e+002 -2.2764e+001 48540 87245,87297,87271
 4.2000e+000 87375 -1.2544e+002 -3.7943e+002  1.2914e+001 48540 87193,87349,87219
 4.2000e+000 87516 -1.9134e+002 -3.9151e+002  2.3184e+000 48540 87297,87245,87490
 4.2000e+000 87539 -1.9399e+002 -3.9124e+002  6.3397e+000 48540 87297,87490,87323
 4.2000e+000 87588 -1.5182e+002 -3.5914e+002  3.4228e+001 48540 87323,87490,87562
 4.2000e+000 87611 -1.2715e+002 -3.6588e+002  4.4993e+001 48540 87323,87562,87349
 4.2000e+000 87810 -1.9581e+002 -6.8735e+002 -4.9502e+001 48136 87660,87712,87686
 4.2000e+000 87787 -1.1163e+002 -3.9891e+002 -2.1962e+001 48136 87660,87738,87712
 4.2000e+000 87764 -2.5444e+002 -4.1248e+002 -6.6390e+001 48136 87634,87738,87660
 4.2000e+000 88205 -1.7462e+002 -4.3237e+002 -3.6776e+001 47210 88300,88228,87937
 4.2000e+000 88182 -1.5181e+002 -4.2013e+002 -1.0847e+001 47210 88228,87833,88041
 4.2000e+000 88159 -1.7686e+002 -4.6156e+002 -5.8672e+001 47210 88300,87937,87911
 4.2000e+000 88136 -1.7128e+002 -4.1866e+002 -5.1253e+001 47210 87833,87911,87859
 4.2000e+000 88113 -2.8715e+002 -3.7992e+002 -2.7580e+001 47210 87937,87989,87963
 4.2000e+000 88090 -1.4221e+002 -3.4241e+002  7.0171e+001 47210 87989,88041,88015
 4.2000e+000 88067 -1.9828e+002 -4.8753e+002 -6.8496e+001 47210 87859,87911,87885
 4.2000e+000 88254 -1.5528e+002 -3.6057e+002 -3.7158e+001 47210 87989,87937,88228
 4.2000e+000 88277 -1.8150e+002 -4.1319e+002 -1.4145e+001 47210 87989,88228,88041
 4.2000e+000 88326 -1.4446e+002 -4.0392e+002 -1.3975e+001 47210 87833,88228,88300
 4.2000e+000 88349 -1.5154e+002 -4.2347e+002 -3.7356e+001 47210 87833,88300,87911
 4.2000e+000 88780 -2.7390e+002 -4.7885e+002 -9.1159e+001 46642 88803,88509,88483
 4.2000e+000 88757 -1.9531e+002 -4.3049e+002 -5.0022e+001 46642 88803,88483,88639
 4.2000e+000 88734 -2.1819e+002 -3.5514e+002 -5.6456e+001 46642 88875,88561,88509
 4.2000e+000 88711 -2.2241e+002 -3.2989e+002 -1.1442e+001 46642 88509,88561,88535
 4.2000e+000 88688 -1.2410e+002 -4.8242e+002  7.2782e-001 46642 88457,88639,88483
 4.2000e+000 88665 -2.5158e+002 -5.7518e+002 -2.4148e+001 46642 88561,88613,88587
 4.2000e+000 88829 -2.2036e+002 -3.8695e+002 -6.3598e+001 46642 88875,88509,88803
 4.2000e+000 88852 -2.1522e+002 -4.6481e+002 -4.1626e+001 46642 88613,88803,88639
 4.2000e+000 88901 -1.7985e+002 -3.9964e+002 -2.9353e+001 46642 88613,88561,88875
 4.2000e+000 88924 -1.9623e+002 -4.5134e+002 -3.5517e+001 46642 88613,88875,88803
 4.2000e+000 89253 -8.5443e+001 -4.1818e+002  7.4703e+000 46444 89080,89158,89132
 4.2000e+000 89230 -9.8095e+001 -4.4647e+002  3.9908e+000 46444 89028,89158,89080
 4.2000e+000 89207 -3.6278e+001 -3.9279e+002 -1.8758e+001 46444 89028,89080,89054
 4.2000e+000 89184 -4.8045e+001 -4.5144e+002 -3.2989e+001 46444 89080,89132,89106
 4.2000e+000 89631 -1.1904e+002 -2.8706e+002  6.5926e+000 46040 89383,89461,89435
 4.2000e+000 89608 -1.2594e+002 -3.1746e+002 -1.8146e+001 46040 89383,89487,89461
 4.2000e+000 89585 -1.2811e+002 -3.7332e+002 -1.0751e+001 46040 89383,89435,89409
 4.2000e+000 89562 -1.0201e+002 -2.7312e+002 -3.7082e+001 46040 89383,89513,89487
 4.2000e+000 89539 -4.1960e+001 -2.4339e+002 -5.0872e+001 46040 89357,89513,89383
 4.2000e+000 90009 -1.2529e+002 -3.6436e+002 -1.7431e+000 45636 89813,89891,89839
 4.2000e+000 89986 -1.2956e+002 -3.4136e+002  1.9669e+001 45636 89787,89891,89813
 4.2000e+000 89963 -1.1216e+002 -3.4152e+002 -9.8078e+000 45636 89839,89891,89865
 4.2000e+000 89940 -1.5171e+002 -3.7988e+002  1.0371e+001 45636 89735,89891,89787
 4.2000e+000 89917 -1.2006e+002 -3.8369e+002 -1.7408e+001 45636 89735,89787,89761
 4.2000e+000 90208 -8.3290e+001 -2.8178e+002 -5.4391e+001 45175 90231,90058,90032
 4.2000e+000 90185 -5.1092e+001 -2.5761e+002 -8.3204e+001 45175 90231,90032,90136
 4.2000e+000 90162 -1.0069e+002 -2.3198e+002 -4.6726e+000 45175 90058,90110,90084
 4.2000e+000 90257 -1.1978e+002 -3.1735e+002 -1.4016e+001 45175 90110,90058,90231
 4.2000e+000 90280 -5.7983e+001 -2.7496e+002 -4.6133e+001 45175 90110,90231,90136
 4.2000e+000 90528 -9.1662e+001 -2.8932e+002 -3.7936e+001 44513 90695,90551,90407
 4.2000e+000 90505 -9.6772e+001 -2.6028e+002 -1.7160e+001 44513 90551,90355,90329
 4.2000e+000 90482 -1.2055e+002 -2.8693e+002 -3.4615e+001 44513 90623,90303,90433
 4.2000e+000 90459 -7.0590e+001 -2.6962e+002 -2.7590e+001 44513 90695,90407,90381
 4.2000e+000 90577 -1.3378e+002 -3.0287e+002 -6.5824e+001 44513 90433,90407,90551
 4.2000e+000 90600 -1.1484e+002 -2.7817e+002 -3.1957e+001 44513 90623,90433,90551
 4.2000e+000 90649 -1.1671e+002 -2.7594e+002 -3.1439e+001 44513 90329,90303,90623
 4.2000e+000 90672 -1.1818e+002 -2.7479e+002 -3.1213e+001 44513 90329,90623,90551
 4.2000e+000 90721 -1.1738e+002 -2.6340e+002 -4.2843e+001 44513 90355,90551,90695
 4.2000e+000 90744 -1.1122e+002 -2.5421e+002 -3.8952e+001 44513 90355,90695,90381
 4.2000e+000 91077 -4.6703e+000 -2.9811e+002 -1.9656e+001 44059 91100,90930,90904
 4.2000e+000 91054 -1.1639e+002 -3.2103e+002  1.4274e+001 44059 91100,90904,90982
 4.2000e+000 91031 -2.0693e+002 -3.7354e+002 -2.7407e+001 44059 90878,90982,90904
 4.2000e+000 91008 -6.5828e+001 -2.7950e+002  1.7419e+001 44059 90852,90982,90878
 4.2000e+000 91126 -1.6970e+002 -3.3942e+002 -2.3471e+001 44059 91172,91100,90956
 4.2000e+000 91149 -1.0924e+002 -3.0967e+002 -1.3312e+001 44059 90956,91100,90982
 4.2000e+000 91198 -1.0623e+001 -1.8474e+002 -8.6637e+001 44059 90930,91100,91172
 4.2000e+000 91677 -1.4991e+002 -2.3616e+002  2.3119e+001 43549 91455,91533,91481
 4.2000e+000 91654 -6.0633e+001 -2.3912e+002  3.1612e+001 43549 91429,91533,91455
 4.2000e+000 91631 -1.4436e+002 -2.3577e+002  1.0871e+001 43549 91481,91533,91507
 4.2000e+000 91608 -3.1820e+001 -2.2720e+002  1.4509e+001 43549 91429,91559,91533
 4.2000e+000 91585  1.5826e+000 -7.3226e+001 -6.9896e-001 43549 91403,91559,91429
 4.2000e+000 92006 -1.5072e+002 -3.7293e+002  1.0862e+000 43059 91781,91885,91807
 4.2000e+000 91983 -1.5696e+002 -3.5177e+002  5.7064e+001 43059 91781,91911,91885
 4.2000e+000 91960 -1.4981e+002 -3.7362e+002  1.5657e+000 43059 91807,91885,91833
 4.2000e+000 91937 -9.8172e+001 -3.5415e+002 -6.4429e+000 43059 91833,91885,91859
 4.2000e+000 92561 -1.1848e+002 -2.5982e+002 -3.1808e+001 42598 92584,92215,92189
 4.2000e+000 92538 -1.3035e+002 -2.9605e+002 -2.9457e+001 42598 92656,92584,92189
 4.2000e+000 92515 -1.1789e+002 -3.3558e+002 -9.2922e+000 42598 92656,92189,92397
 4.2000e+000 92492 -1.5412e+002 -2.3511e+002 -3.7095e+001 42598 92241,92319,92293
 4.2000e+000 92469 -1.4471e+002 -2.7697e+002  1.3430e+001 42598 92319,92397,92371
 4.2000e+000 92446 -5.9730e+001 -3.2199e+002  1.2873e+002 42598 92319,92371,92345
 4.2000e+000 92423 -1.4666e+002 -2.3882e+002 -4.9005e+001 42598 92241,92293,92267
 4.2000e+000 92610 -1.2742e+002 -2.6106e+002 -2.8296e+001 42598 92241,92215,92584
 4.2000e+000 92633 -1.1794e+002 -2.4009e+002 -3.6122e+001 42598 92241,92584,92319
 4.2000e+000 92682 -1.2015e+002 -2.4359e+002 -2.2111e+001 42598 92319,92584,92656
 4.2000e+000 92705 -9.7743e+001 -2.7032e+002 -7.2913e+000 42598 92319,92656,92397
 4.2000e+000 92953 -1.5446e+002 -4.0152e+002  2.1666e+001 42094 92976,92806,92780
 4.2000e+000 92930 -1.7095e+002 -3.7958e+002  7.9528e-001 42094 92976,92780,92754
 4.2000e+000 92907 -3.8442e+001 -3.9004e+002 -1.6161e+000 42094 93048,92832,92806
 4.2000e+000 92884 -2.1995e+002 -3.8623e+002 -2.5009e+001 42094 92728,92858,92754
 4.2000e+000 93002 -1.0006e+002 -3.7257e+002  1.0879e+001 42094 93048,92806,92976
 4.2000e+000 93025 -1.5960e+002 -3.7320e+002 -5.4162e+000 42094 92858,92976,92754
 4.2000e+000 93074 -1.2426e+002 -4.2194e+002 -4.0317e+000 42094 92858,92832,93048
 4.2000e+000 93097 -1.7495e+002 -3.9800e+002  3.2760e+000 42094 92858,93048,92976
 4.2000e+000 93605 -1.6208e+002 -4.6116e+002 -1.6355e+001 41846 93628,93412,93386
 4.2000e+000 93582 -1.2090e+002 -3.4984e+002 -5.2800e-001 41846 93628,93386,93308
 4.2000e+000 93559 -1.8839e+002 -3.6730e+002 -7.5949e+001 41846 93700,93464,93438
 4.2000e+000 93536 -1.7146e+002 -4.8193e+002  7.3830e+000 41846 93308,93386,93334
 4.2000e+000 93513 -2.2633e+002 -3.5341e+002 -5.3570e+001 41846 93334,93386,93360
 4.2000e+000 93490 -1.8053e+002 -3.2534e+002 -7.1254e+001 41846 93282,93464,93308
 4.2000e+000 93654 -1.4161e+002 -3.7083e+002 -3.3574e+001 41846 93438,93412,93628
 4.2000e+000 93677 -1.8770e+002 -3.7459e+002 -3.4793e+001 41846 93700,93438,93628
 4.2000e+000 93726 -1.7082e+002 -3.1638e+002 -6.7544e+001 41846 93308,93464,93700
 4.2000e+000 93749 -1.6320e+002 -3.0767e+002 -2.6903e+001 41846 93308,93700,93628
 4.2000e+000 94255 -1.3055e+002 -3.8270e+002  2.4160e+001 41385 93958,94114,94088
 4.2000e+000 94232 -1.1628e+002 -4.1056e+002  1.0634e+001 41385 93932,94114,93958
 4.2000e+000 94209 -2.2350e+002 -4.4309e+002  7.0673e+001 41385 93958,94088,94062
 4.2000e+000 94186 -2.3217e+002 -3.2300e+002  5.1957e+001 41385 93958,94062,93984
 4.2000e+000 94163 -2.0379e+002 -3.1477e+002  5.0094e+001 41385 93984,94062,94036
 4.2000e+000 94140 -1.4003e+002 -4.3931e+002  7.5083e+001 41385 93984,94036,94010
 4.2000e+000 94476 -4.2647e+001 -5.1425e+002  3.0181e+001 40881 94326,94378,94352
 4.2000e+000 94453 -8.7017e+001 -4.2415e+002  3.3787e+001 40881 94300,94378,94326
 4.2000e+000 94430 -1.0844e+002 -3.9257e+002  3.9309e+000 40881 94300,94404,94378
 4.2000e+000 94626 -1.1463e+002 -3.0452e+002 -5.3876e+000 40591 94649,94551,94525
 4.2000e+000 94603 -6.5277e+001 -1.8893e+002  1.4788e+000 40591 94781,94577,94551
 4.2000e+000 94675 -4.1960e+001 -2.2011e+002 -3.7745e+001 40591 94781,94551,94649
 4.2000e+000 94807 -4.9533e+000 -1.3004e+002  3.6468e+001 40591 94499,94577,94781
 4.2000e+000 94830  1.5327e+000 -1.9208e+002 -4.8271e+000 40591 94499,94781,94649
 4.2000e+000 95336 -2.5458e+002 -3.4966e+002 -5.2909e+001 40187 95013,95169,95039
 4.2000e+000 95313 -5.6317e+001 -3.1653e+002  7.4457e+000 40187 95013,95195,95169
 4.2000e+000 95290 -4.3613e+001 -3.4485e+002 -3.6000e+001 40187 95039,95143,95065
 4.2000e+000 95267 -1.9521e+002 -4.0411e+002 -5.8852e+001 40187 95039,95169,95143
 4.2000e+000 95244 -9.6662e+001 -3.3426e+002 -3.6317e+001 40187 95091,95143,95117
 4.2000e+000 95221 -3.0080e+001 -2.0829e+002 -1.2076e+001 40187 95065,95143,95091
 4.2000e+000 95665 -9.9657e+001 -2.7417e+002  1.1074e+002 39626 95466,95570,95544
 4.2000e+000 95642 -1.8143e+002 -2.2044e+002  7.2237e+001 39626 95440,95570,95466
 4.2000e+000 95619 -2.7682e+002 -3.5701e+002  7.1165e+001 39626 95466,95544,95492
 4.2000e+000 95596 -6.2313e+001 -2.7722e+002  1.0981e+002 39626 95492,95544,95518
 4.2000e+000 95913 -1.4906e+002 -3.2683e+002 -4.8139e+001 39136 96080,95936,95766
 4.2000e+000 95890 -1.0293e+002 -3.5039e+002 -2.9074e+001 39136 95936,95714,95688
 4.2000e+000 95867 -2.6046e+002 -3.4960e+002  1.2857e+001 39136 96008,95792,95766
 4.2000e+000 95844 -1.2239e+002 -3.1712e+002 -3.6479e+001 39136 96080,95766,95740
 4.2000e+000 95962 -2.0694e+002 -3.6204e+002 -3.1474e+001 39136 96008,95766,95936
 4.2000e+000 95985 -1.3448e+002 -4.2567e+002 -7.3360e+000 39136 95818,95936,95688
 4.2000e+000 96034 -1.3113e+002 -2.9336e+002  2.0997e+001 39136 95818,95792,96008
 4.2000e+000 96057 -1.1697e+002 -3.2126e+002 -2.2526e+001 39136 95818,96008,95936
 4.2000e+000 96106 -1.3603e+002 -3.2328e+002 -1.2596e+001 39136 95714,95936,96080
 4.2000e+000 96129 -9.4501e+001 -3.1177e+002 -3.5725e+000 39136 95714,96080,95740
 4.2000e+000 96350 -1.1005e+002 -2.7697e+002 -1.5552e+001 38824 96200,96278,96252
 4.2000e+000 96327 -9.4242e+001 -2.6960e+002 -1.3463e+001 38824 96174,96278,96200
 4.2000e+000 96304 -2.4150e+001 -2.4282e+002 -4.6799e+001 38824 96200,96252,96226
 4.2000e+000 96830 -1.6066e+002 -2.9054e+002 -2.0700e+001 38320 97069,96536,96484
 4.2000e+000 96807 -1.5796e+002 -2.9432e+002 -2.0507e+001 38320 97069,96484,96853
 4.2000e+000 96784 -1.7846e+002 -3.1643e+002  4.7276e+000 38320 96853,96484,96458
 4.2000e+000 96761 -9.8065e+001 -2.5543e+002 -3.1715e+001 38320 96925,96640,96614
 4.2000e+000 96738 -1.5485e+002 -2.6671e+002 -1.4979e+001 38320 96997,96666,96640
 4.2000e+000 96715 -1.3131e+002 -3.4291e+002 -8.6730e+000 38320 97141,96588,96562
 4.2000e+000 96692 -2.0116e+002 -3.3633e+002 -2.7751e+000 38320 96484,96536,96510
 4.2000e+000 96879 -1.5912e+002 -3.1181e+002 -1.2459e+001 38320 97141,96562,96853
 4.2000e+000 96902 -1.4817e+002 -3.0484e+002 -1.1817e+001 38320 96925,96614,96853
 4.2000e+000 96951 -1.5110e+002 -2.6394e+002 -1.6741e+001 38320 96997,96640,96925
 4.2000e+000 96974 -1.4409e+002 -2.5900e+002 -1.0133e+001 38320 96458,96925,96853
 4.2000e+000 97023 -1.7175e+002 -2.6971e+002 -6.0289e+000 38320 96458,96666,96997
 4.2000e+000 97046 -1.5817e+002 -2.6317e+002 -7.9887e+000 38320 96458,96997,96925
 4.2000e+000 97095 -1.6464e+002 -2.8026e+002 -5.2445e+000 38320 96562,96536,97069
 4.2000e+000 97118 -1.5189e+002 -2.9182e+002 -1.7960e+001 38320 96562,97069,96853
 4.2000e+000 97167 -8.2255e+001 -3.1457e+002 -2.1823e+001 38320 96614,96588,97141
 4.2000e+000 97190 -1.2815e+002 -2.9662e+002 -2.1952e+001 38320 96614,97141,96853
 4.2000e+000 97519 -1.2758e+002 -3.7946e+002  1.0106e+002 37766 97542,97398,97372
 4.2000e+000 97496 -1.5380e+002 -3.0048e+002  6.9548e+001 37766 97542,97372,97346
 4.2000e+000 97473 -1.5325e+002 -3.0995e+002  7.9892e+000 37766 97294,97424,97346
 4.2000e+000 97450 -1.6765e+002 -3.5917e+002 -1.4839e+000 37766 97294,97346,97320
 4.2000e+000 97568 -6.6171e+001 -3.9533e+002  3.6153e+001 37766 97424,97398,97542
 4.2000e+000 97591 -1.0782e+002 -3.0576e+002  9.9170e+000 37766 97424,97542,97346
 4.2000e+000 98048 -1.5843e+002 -2.2951e+002 -7.0824e+001 37262 98071,97878,97852
 4.2000e+000 98025 -1.3624e+002 -2.7216e+002 -2.9436e+001 37262 98071,97852,97800
 4.2000e+000 98002 -1.5383e+002 -3.3079e+002 -3.0244e+001 37262 97800,97852,97826
 4.2000e+000 97979 -1.5752e+002 -2.9379e+002  8.9146e+000 37262 97800,97930,97904
 4.2000e+000 97956 -1.0636e+002 -3.6312e+002  2.3675e+001 37262 97774,97930,97800
 4.2000e+000 98097 -2.1915e+002 -2.5929e+002 -4.9698e+001 37262 97904,97878,98071
 4.2000e+000 98120 -1.7001e+002 -3.0778e+002 -1.2311e+001 37262 97904,98071,97800
 4.2000e+000 98449 -8.3786e+001 -2.2933e+002 -2.6911e+001 36950 98472,98302,98250
 4.2000e+000 98426 -5.0501e+001 -2.1923e+002 -3.2931e+001 36950 98472,98250,98354
 4.2000e+000 98403 -1.2830e+002 -2.5181e+002  2.8978e+001 36950 98250,98302,98276
 4.2000e+000 98380 -3.2757e+001 -1.7530e+002  1.5926e+001 36950 98224,98354,98250
 4.2000e+000 98498 -5.9306e+001 -2.5554e+002 -7.3848e+000 36950 98328,98302,98472
 4.2000e+000 98521 -2.0643e+001 -2.4051e+002 -1.8958e+001 36950 98328,98472,98354
 4.2000e+000 99125 -1.7679e+002 -1.7465e+002  1.8796e+001 36296 98704,98756,98730
 4.2000e+000 99102 -1.6787e+002 -1.9614e+002  1.6487e+001 36296 98704,98938,98756
 4.2000e+000 99079 -1.2391e+002 -2.3915e+002 -6.0444e+000 36296 99148,98938,98912
 4.2000e+000 99056 -1.3198e+002 -2.4505e+002  5.6392e+001 36296 99292,99220,98782
 4.2000e+000 99033 -1.0779e+002 -2.7248e+002  6.1101e+000 36296 99148,98912,98834
 4.2000e+000 99010 -1.2376e+002 -2.0605e+002  6.1501e+001 36296 99292,98782,98756
 4.2000e+000 98987 -1.0321e+002 -4.8167e+002 -8.8101e+001 36296 98834,98912,98886
 4.2000e+000 98964 -1.7668e+002 -7.0095e+002 -1.1297e+002 36296 98834,98886,98860
 4.2000e+000 99174 -1.5168e+002 -2.9292e+002  8.0375e+000 36296 99220,98938,99148
 4.2000e+000 99197 -1.0616e+002 -3.3365e+002  3.6054e+001 36296 98808,99148,98834
 4.2000e+000 99246 -1.2928e+002 -2.3763e+002  1.3547e+002 36296 98808,98782,99220
 4.2000e+000 99269 -5.2600e+001 -2.1063e+002  4.4688e+001 36296 98808,99220,99148
 4.2000e+000 99318 -1.3907e+002 -2.0633e+002  2.9599e+001 36296 98938,99220,99292
 4.2000e+000 99341 -1.4236e+002 -2.1252e+002  3.5011e+001 36296 98938,99292,98756
 4.2000e+000 99719 -1.8088e+002 -3.7560e+002  7.9834e-001 35742 99742,99471,99601
 4.2000e+000 99696 -1.8602e+002 -2.9797e+002  3.5520e+001 35742 99445,99601,99471
 4.2000e+000 99673 -1.7335e+002 -3.5847e+002 -1.6017e+001 35742 99742,99601,99575
 4.2000e+000 99650 -1.5051e+002 -4.3619e+002 -1.2426e+001 35742 99814,99549,99523
 4.2000e+000 99627 -1.2029e+002 -3.4118e+002 -2.6935e+000 35742 99471,99523,99497
 4.2000e+000 99768 -1.4497e+002 -3.6706e+002  7.7532e+000 35742 99523,99471,99742
 4.2000e+000 99791 -1.6974e+002 -4.0458e+002 -1.0909e+001 35742 99814,99523,99742
 4.2000e+000 99840 -1.4701e+002 -3.9709e+002 -2.4495e+001 35742 99575,99549,99814
 4.2000e+000 99863 -1.5957e+002 -3.5615e+002 -2.1991e+001 35742 99575,99814,99742
 4.2000e+000 100111 -1.3628e+002 -3.0283e+002  2.1451e+001 35302 100134,99990,99938
 4.2000e+000 100088 -1.1398e+002 -2.7701e+002  7.0810e+000 35302 100134,99938,99912
 4.2000e+000 100065 -1.1410e+002 -2.7718e+002 -6.8085e+000 35302 100206,99886,100016
 4.2000e+000 100042 -1.7915e+002 -2.7539e+002  1.3541e+001 35302 99938,99990,99964
 4.2000e+000 100160 -1.0697e+002 -2.9168e+002  5.2927e+000 35302 100016,99990,100134
 4.2000e+000 100183 -1.0931e+002 -2.8118e+002 -6.6761e+000 35302 100206,100016,100134
 4.2000e+000 100232 -1.1820e+002 -2.8196e+002 -3.8290e+000 35302 99912,99886,100206
 4.2000e+000 100255 -1.1373e+002 -2.8698e+002 -3.8537e+000 35302 99912,100206,100134
 4.2000e+000 100586 -1.6369e+002 -1.9282e+002  4.4355e+001 35012 100609,100387,100361
 4.2000e+000 100563 -1.9619e+002 -1.5032e+002 -3.6288e+001 35012 100609,100361,100465
 4.2000e+000 100540 -9.4903e+001 -1.0879e+002 -8.0608e+001 35012 100361,100491,100465
 4.2000e+000 100517 -4.2568e+001 -1.2613e+002 -7.3810e+001 35012 100413,100465,100439
 4.2000e+000 100635 -8.0885e+001 -1.5674e+002  1.9753e+001 35012 100413,100387,100609
 4.2000e+000 100658 -1.1142e+002 -1.0405e+002 -6.3031e+001 35012 100413,100609,100465
 4.2000e+000 100987 -1.4038e+002 -3.0790e+002  2.6767e+001 34700 100788,100866,100814
 4.2000e+000 100964 -1.1040e+002 -2.4630e+002  4.5736e+001 34700 101010,100866,100788
 4.2000e+000 100941 -8.1617e+001 -1.8967e+002  4.9614e+001 34700 100762,100892,100866
 4.2000e+000 100918 -1.3150e+002 -2.8352e+002  1.4627e+001 34700 100814,100866,100840
 4.2000e+000 101036 -7.6378e+001 -2.1861e+002  7.1919e+001 34700 100762,100866,101010
 4.2000e+000 101493 -1.8688e+002 -3.4954e+002 -3.1922e+001 34132 101516,101349,101297
 4.2000e+000 101470 -2.2167e+002 -4.1884e+002 -5.0117e+001 34132 101588,101516,101297
 4.2000e+000 101447 -2.2289e+002 -4.4170e+002 -7.3246e+001 34132 101588,101297,101245
 4.2000e+000 101424 -1.3551e+002 -5.1486e+002 -6.8704e+001 34132 101245,101297,101271
 4.2000e+000 101401 -2.1615e+002 -3.5361e+002 -4.0393e+001 34132 101297,101349,101323
 4.2000e+000 101542 -1.9610e+002 -4.0353e+002 -2.4775e+001 34132 101375,101349,101516
 4.2000e+000 101565 -1.7327e+002 -4.0012e+002 -2.5180e+001 34132 101375,101516,101219
 4.2000e+000 101614 -1.7742e+002 -4.2136e+002 -2.5892e+001 34132 101219,101516,101588
 4.2000e+000 101637 -1.9990e+002 -4.4331e+002 -4.7924e+001 34132 101219,101588,101245
 4.2000e+000 101858 -6.8954e+001 -2.8771e+002  2.8950e+001 33720 101708,101786,101760
 4.2000e+000 101835 -4.6090e+001 -3.1664e+002  4.4215e+001 33720 101682,101786,101708
 4.2000e+000 101812 -1.0520e+002 -3.0640e+002  2.0191e+001 33720 101708,101760,101734
 4.2000e+000 102128 -4.1435e+001 -3.6460e+002 -9.6291e+000 33130 101903,102007,101929
 4.2000e+000 102105 -5.1580e+001 -4.2100e+002  1.3645e+001 33130 101903,102033,102007
 4.2000e+000 102082 -2.1958e+001 -4.3687e+002 -8.6554e+001 33130 101929,102007,101955
 4.2000e+000 102059 -6.6122e+001 -3.0947e+002  6.7143e+000 33130 101955,102007,101981
 4.2000e+000 102461 -1.2309e+002 -2.8578e+002 -2.6260e+001 32840 102236,102340,102262
 4.2000e+000 102438 -1.0622e+002 -2.0342e+002  5.9071e+000 32840 102236,102366,102340
 4.2000e+000 102415 -7.5413e+001 -2.7400e+002 -2.1615e+001 32840 102262,102340,102288
 4.2000e+000 102392 -1.4770e+002 -2.9095e+002 -5.8293e+001 32840 102288,102340,102314
 4.2000e+000 102997 -1.2021e+002 -2.0626e+002  5.8340e+001 32493 102749,102879,102853
 4.2000e+000 102974 -9.7720e+001 -1.6278e+002  4.1481e+001 32493 102723,102879,102749
 4.2000e+000 102951 -1.4037e+002 -2.5105e+002  3.9784e+001 32493 102749,102801,102775
 4.2000e+000 102928 -1.5052e+002 -2.4885e+002  3.7946e+001 32493 102749,102853,102801
 4.2000e+000 102905 -1.4097e+002 -2.3365e+002  3.0519e+001 32493 102801,102853,102827
 4.2000e+000 103454 -1.3363e+002 -2.3550e+002 -2.4711e+001 32089 103206,103336,103310
 4.2000e+000 103431 -1.0704e+002 -2.5693e+002 -2.5073e+000 32089 103180,103336,103206
 4.2000e+000 103408 -1.4650e+002 -2.6799e+002 -4.5862e+001 32089 103206,103284,103258
 4.2000e+000 103385 -2.0412e+002 -2.8006e+002 -5.0992e+001 32089 103206,103310,103284
 4.2000e+000 103362 -1.1587e+002 -1.8890e+002 -2.6953e+001 32089 103206,103258,103232
 4.2000e+000 103783 -2.3252e+002 -3.0192e+002 -3.3262e+001 31742 103558,103662,103584
 4.2000e+000 103760 -1.9160e+002 -2.3884e+002 -7.6195e+001 31742 103558,103688,103662
 4.2000e+000 103737 -1.5699e+002 -2.4613e+002 -5.9838e+001 31742 103584,103662,103636
 4.2000e+000 103714 -1.4623e+002 -2.7948e+002 -6.7512e+001 31742 103584,103636,103610
 4.2000e+000 104112 -4.3825e+001 -2.4202e+002  3.8321e+001 31402 103939,103991,103965
 4.2000e+000 104089 -7.6292e+001 -2.0875e+002  1.8979e+001 31402 103913,103991,103939
 4.2000e+000 104066 -1.0473e+002 -2.3806e+002  2.8568e+000 31402 103913,104017,103991
 4.2000e+000 104043 -1.2399e+002 -2.2115e+002 -1.0612e+001 31402 103887,104017,103913
 4.2000e+000 104569 -2.1350e+002 -3.7597e+002  9.2241e+000 30998 104321,104425,104373
 4.2000e+000 104546 -2.4544e+002 -3.8504e+002  3.4471e+000 30998 104321,104451,104425
 4.2000e+000 104523 -1.5957e+002 -3.1432e+002  4.1412e+001 30998 104373,104425,104399
 4.2000e+000 104500 -2.0053e+002 -4.4628e+002 -2.6466e+001 30998 104295,104451,104321
 4.2000e+000 104477 -2.8508e+002 -4.4404e+002  7.8850e+001 30998 104321,104373,104347
 4.2000e+000 104947 -1.9111e+002 -3.2816e+002 -3.5668e+001 30608 104751,104803,104777
 4.2000e+000 104924 -1.2894e+002 -3.4062e+002 -1.2455e+001 30608 104725,104803,104751
 4.2000e+000 104901 -2.0521e+002 -3.3101e+002  2.2975e+001 30608 104699,104803,104725
 4.2000e+000 104878 -1.7836e+002 -3.1905e+002  2.0513e+001 30608 104673,104803,104699
 4.2000e+000 104855 -1.3813e+002 -3.0746e+002 -1.2175e+001 30608 104673,104829,104803
 4.2000e+000 105276 -1.3090e+002 -3.0563e+002  1.8376e+001 30204 105427,105129,105077
 4.2000e+000 105253 -9.2495e+001 -3.2784e+002  6.6767e+001 30204 105427,105077,105051
 4.2000e+000 105230 -1.1388e+002 -2.9397e+002  2.3477e+001 30204 105077,105129,105103
 4.2000e+000 105207 -8.5877e+001 -2.7406e+002  4.1971e+001 30204 105299,105181,105155
 4.2000e+000 105325 -9.1106e+001 -2.6988e+002  1.7302e+001 30204 105129,105181,105299
 4.2000e+000 105453 -1.5522e+002 -3.2157e+002  3.9857e+001 30204 105181,105129,105427
 4.2000e+000 105476 -1.7813e+002 -3.7185e+002  9.4586e+001 30204 105181,105427,105051
 4.2000e+000 105903 -1.1217e+002 -2.6438e+002 -2.0831e+001 29700 105606,105762,105736
 4.2000e+000 105880 -1.4419e+002 -2.7100e+002  9.1195e-001 29700 105580,105762,105606
 4.2000e+000 105857 -1.6938e+002 -3.3344e+002 -2.0017e+001 29700 105606,105710,105632
 4.2000e+000 105834 -1.4153e+002 -2.7945e+002 -9.9702e+000 29700 105606,105736,105710
 4.2000e+000 105811 -1.6129e+002 -3.0312e+002 -2.1995e+001 29700 105632,105710,105684
 4.2000e+000 105788 -1.5032e+002 -2.7712e+002 -1.4646e+001 29700 105632,105684,105658
 4.2000e+000 106102 -4.5949e+001 -3.1514e+002  1.5821e+001 29124 105978,106030,106004
 4.2000e+000 106079 -7.9401e+001 -3.0980e+002  1.6587e+001 29124 105926,106030,105978
 4.2000e+000 106056 -8.6120e+001 -3.4600e+002  4.6008e+001 29124 105926,105978,105952
 4.2000e+000 106301 -8.8073e+001 -3.2360e+002  1.2762e+000 28712 106151,106229,106203
 4.2000e+000 106278 -1.0482e+002 -3.5797e+002 -1.6276e+001 28712 106125,106229,106151
 4.2000e+000 106255 -9.2120e+001 -3.4130e+002  1.8535e+001 28712 106151,106203,106177
 4.2000e+000 106551 -1.1750e+002 -4.0764e+002  1.8193e+001 28258 106352,106404,106378
 4.2000e+000 106528 -1.5957e+002 -4.1144e+002  2.0050e+000 28258 106352,106456,106404
 4.2000e+000 106505 -1.5826e+002 -4.2527e+002 -3.3805e+000 28258 106326,106456,106352
 4.2000e+000 106482 -1.4494e+002 -3.8867e+002 -7.0078e+000 28258 106404,106456,106430
 4.2000e+000 107012 -1.3337e+002 -3.4504e+002  7.0005e+001 27818 107035,106790,106764
 4.2000e+000 106989 -1.1567e+002 -3.2763e+002  2.5916e+001 27818 107035,106764,106868
 4.2000e+000 106966 -8.0759e+001 -3.9092e+002  3.8184e+001 27818 107107,106842,106816
 4.2000e+000 106943 -1.7912e+002 -3.0717e+002  1.5356e+001 27818 106738,106868,106764
 4.2000e+000 106920 -1.6765e+002 -2.7147e+002  3.0110e+001 27818 106738,106894,106868
 4.2000e+000 107061 -5.5716e+001 -3.2887e+002  7.9191e+001 27818 106816,106790,107035
 4.2000e+000 107084 -1.0076e+002 -3.6596e+002  4.0113e+001 27818 107107,106816,107035
 4.2000e+000 107133 -7.7731e+001 -3.5442e+002  2.0410e+001 27818 106868,106842,107107
 4.2000e+000 107156 -9.0404e+001 -3.1694e+002  2.7036e+001 27818 106868,107107,107035
 4.2000e+000 107613 -4.0749e+001 -2.5881e+002  5.6094e+001 27312 107339,107469,107365
 4.2000e+000 107590 -3.9288e+000 -2.3713e+002  4.7038e+001 27312 107339,107495,107469
 4.2000e+000 107567 -4.3652e+001 -2.5318e+002  2.7672e+001 27312 107391,107469,107443
 4.2000e+000 107544 -4.3214e+001 -2.7052e+002  2.3996e+001 27312 107365,107469,107391
 4.2000e+000 107521 -1.1864e+002 -2.7694e+002  1.0781e+001 27312 107391,107443,107417
 4.2000e+000 107991 -1.4063e+002 -3.8802e+002  1.5950e+001 26858 108086,108014,107795
 4.2000e+000 107968 -1.5463e+002 -4.0217e+002 -2.0528e+001 26858 108014,107717,107873
 4.2000e+000 107945 -1.5747e+002 -4.0502e+002  2.6796e+001 26858 108158,108086,107795
 4.2000e+000 107922 -1.2731e+002 -4.0534e+002  2.5595e+001 26858 108158,107795,107769
 4.2000e+000 107899 -1.1743e+002 -4.8627e+002  6.6923e+001 26858 107821,107873,107847
 4.2000e+000 108040 -1.4846e+002 -4.4021e+002  2.3041e+001 26858 107821,107795,108014
 4.2000e+000 108063 -9.2498e+001 -4.1619e+002  1.9741e+000 26858 107821,108014,107873
 4.2000e+000 108112 -1.8690e+002 -4.0702e+002  1.7923e+001 26858 107717,108014,108086
 4.2000e+000 108135 -1.5712e+002 -4.1334e+002  4.1486e+001 26858 107717,108086,107743
 4.2000e+000 108184 -1.2275e+002 -3.9764e+002  3.7698e+001 26858 107743,108086,108158
 4.2000e+000 108207 -1.0892e+002 -4.0964e+002  3.7822e+001 26858 107743,108158,107769
 4.2000e+000 108634 -1.8082e+002 -3.7066e+002  7.1655e+000 26404 108657,108415,108363
 4.2000e+000 108611 -2.0221e+002 -3.9820e+002  4.1104e+001 26404 108657,108363,108337
 4.2000e+000 108588 -1.7689e+002 -3.7726e+002  4.1320e+001 26404 108729,108311,108467
 4.2000e+000 108565 -1.9349e+002 -4.3804e+002  6.1424e+000 26404 108801,108441,108415
 4.2000e+000 108542 -2.6789e+002 -4.1908e+002  5.2826e+001 26404 108311,108493,108467
 4.2000e+000 108519 -1.2527e+002 -3.7223e+002  7.0032e+000 26404 108363,108415,108389
 4.2000e+000 108683 -2.3740e+002 -3.9431e+002  1.1751e+001 26404 108801,108415,108657
 4.2000e+000 108706 -2.2668e+002 -3.9111e+002  3.2805e+001 26404 108729,108467,108657
 4.2000e+000 108755 -1.4474e+002 -3.9805e+002  4.1162e+001 26404 108337,108311,108729
 4.2000e+000 108778 -1.7014e+002 -3.9430e+002  3.1811e+001 26404 108337,108729,108657
 4.2000e+000 108827 -2.3645e+002 -5.2550e+002 -1.9296e+001 26404 108467,108441,108801
 4.2000e+000 108850 -2.5970e+002 -4.4996e+002 -1.3299e+001 26404 108467,108801,108657
 4.2000e+000 109228 -1.8027e+002 -3.8526e+002 -1.9146e+001 26064 109006,109084,109058
 4.2000e+000 109205 -1.6105e+002 -3.5945e+002  7.0142e+000 26064 108980,109084,109006
 4.2000e+000 109182 -1.7567e+002 -3.4497e+002 -1.1752e+001 26064 108980,109110,109084
 4.2000e+000 109159 -1.7302e+002 -4.0612e+002 -2.8184e+000 26064 109006,109058,109032
 4.2000e+000 109136 -5.9364e+001 -3.1025e+002  1.1791e+001 26064 108954,109110,108980
 4.2000e+000 109427 -4.5820e+001 -3.2743e+002 -6.5762e+001 25660 109303,109355,109329
 4.2000e+000 109404 -9.2833e+001 -4.2169e+002 -1.5589e+001 25660 109277,109355,109303
 4.2000e+000 109381 -5.5453e+001 -3.9735e+002 -4.8663e+000 25660 109251,109355,109277
 4.2000e+000 109577 -6.6577e+001 -1.6253e+002  5.6164e+001 25306 109476,109528,109502
 4.2000e+000 109554  1.4333e+001 -1.4306e+002  3.8826e+001 25306 109450,109528,109476
 4.2000e+000 109778 -1.2751e+002 -3.5074e+002  1.0838e+001 24944 109628,109706,109654
 4.2000e+000 109755 -1.3746e+002 -3.4059e+002  2.0579e+000 24944 109602,109706,109628
 4.2000e+000 109732 -1.1203e+002 -3.2803e+002 -1.8369e+000 24944 109654,109706,109680
 4.2000e+000 110126 -1.2244e+002 -4.4501e+002  1.3808e+001 24440 110149,109907,109855
 4.2000e+000 110103 -1.1655e+002 -4.6857e+002  2.7376e+001 24440 110149,109855,109985
 4.2000e+000 110080 -9.8509e+001 -3.8655e+002  8.2886e+000 24440 109855,109907,109881
 4.2000e+000 110057 -1.0296e+002 -3.6619e+002  1.2050e+002 24440 109829,109985,109855
 4.2000e+000 110034 -1.1131e+002 -4.4463e+002  2.3380e+000 24440 109907,109959,109933
 4.2000e+000 110011 -6.3306e+001 -3.7688e+002  1.1208e+001 24440 109803,109985,109829
 4.2000e+000 110175 -1.1792e+002 -4.2492e+002  9.9527e+000 24440 109959,109907,110149
 4.2000e+000 110198 -1.1201e+002 -4.4494e+002  2.5942e+001 24440 109959,110149,109985
 4.2000e+000 110301 -1.6725e+001 -2.4905e+002  1.1366e+000 24028 110223,110275,110249
 4.2000e+000 110573 -5.5758e+001 -2.6725e+002  2.1009e+001 23467 110400,110452,110426
 4.2000e+000 110550 -9.4010e+001 -3.1321e+002  2.5318e-001 23467 110374,110452,110400
 4.2000e+000 110527 -9.5776e+001 -3.1387e+002  4.6974e+000 23467 110348,110452,110374
 4.2000e+000 110504 -7.0320e+001 -3.0173e+002 -2.6662e+000 23467 110348,110478,110452
 4.2000e+000 111004 -2.1301e+002 -4.5510e+002 -4.2133e+001 22963 111027,110733,110707
 4.2000e+000 110981 -2.0552e+002 -4.3192e+002  1.9334e+001 22963 111027,110707,110681
 4.2000e+000 110958 -1.0287e+002 -3.8773e+002 -4.7106e+001 22963 111099,110759,110733
 4.2000e+000 110935 -1.3445e+002 -3.7507e+002 -3.2172e+001 22963 111171,110863,110811
 4.2000e+000 110912 -6.6263e+001 -2.7965e+002 -5.0671e+001 22963 110759,110811,110785
 4.2000e+000 110889 -1.4712e+002 -3.9561e+002 -2.5817e+001 22963 110811,110863,110837
 4.2000e+000 111053 -1.4864e+002 -4.2038e+002 -2.8991e+001 22963 111099,110733,111027
 4.2000e+000 111076 -1.2586e+002 -4.0835e+002 -2.6090e+001 22963 111171,110811,111027
 4.2000e+000 111125 -1.0047e+002 -3.8004e+002 -7.1187e+001 22963 110811,110759,111099
 4.2000e+000 111148 -1.0744e+002 -3.7525e+002 -5.9897e+001 22963 110811,111099,111027
 4.2000e+000 111197 -1.3557e+002 -3.2213e+002 -4.0336e+001 22963 110681,110863,111171
 4.2000e+000 111220 -1.4016e+002 -3.6123e+002 -1.9488e+001 22963 110681,111171,111027
 4.2000e+000 111726 -2.0434e+002 -3.9750e+002  1.0518e+001 22459 111749,111507,111429
 4.2000e+000 111703 -1.9143e+002 -3.9420e+002 -8.3380e+000 22459 111749,111429,111585
 4.2000e+000 111680 -1.6430e+002 -4.4648e+002 -5.9368e+000 22459 111403,111585,111429
 4.2000e+000 111657 -1.9486e+002 -4.3581e+002  1.8670e+001 22459 111507,111559,111533
 4.2000e+000 111634 -2.6989e+002 -3.8357e+002  2.5597e+001 22459 111455,111507,111481
 4.2000e+000 111611 -2.7950e+002 -3.8256e+002  3.5736e+001 22459 111429,111507,111455
 4.2000e+000 111775 -2.0715e+002 -4.2567e+002  2.3740e+001 22459 111559,111507,111749
 4.2000e+000 111798 -1.9199e+002 -4.0694e+002  5.5764e+000 22459 111559,111749,111585
 4.2000e+000 112046 -9.1206e+001 -3.3652e+002 -4.5860e+001 21898 112069,111925,111873
 4.2000e+000 112023 -8.8119e+001 -3.4035e+002 -1.2241e+001 21898 112069,111873,111847
 4.2000e+000 112000 -1.1836e+002 -3.5241e+002 -1.9861e+001 21898 111821,111951,111847
 4.2000e+000 111977 -1.0273e+002 -2.6676e+002 -3.0604e+001 21898 111873,111925,111899
 4.2000e+000 112095 -1.3895e+002 -3.5453e+002 -5.1302e+001 21898 111951,111925,112069
 4.2000e+000 112118 -1.1590e+002 -3.5049e+002 -1.9031e+001 21898 111951,112069,111847
 4.2000e+000 112498 -1.5856e+002 -3.6948e+002 -3.2615e+001 21608 112521,112276,112224
 4.2000e+000 112475 -1.0356e+002 -3.7294e+002 -2.4708e+000 21608 112521,112224,112380
 4.2000e+000 112452 -1.1187e+002 -4.3546e+002  2.5392e+001 21608 112302,112380,112354
 4.2000e+000 112429 -1.8772e+002 -4.2346e+002 -2.0153e+001 21608 112224,112276,112250
 4.2000e+000 112406  6.2671e+001 -4.5118e+002 -9.7039e+000 21608 112302,112354,112328
 4.2000e+000 112547 -1.1410e+002 -3.2449e+002 -6.3406e+000 21608 112302,112276,112521
 4.2000e+000 112570 -7.6126e+001 -3.6173e+002  1.4279e+001 21608 112302,112521,112380
 4.2000e+000 112948 -1.8168e+002 -3.8184e+002 -6.7290e+000 20882 112971,112752,112700
 4.2000e+000 112925 -1.4255e+002 -3.6843e+002 -1.3964e+001 20882 112971,112700,112830
 4.2000e+000 112902 -2.2978e+002 -4.1214e+002  2.4285e+001 20882 112778,112830,112804
 4.2000e+000 112879 -1.3270e+002 -3.0146e+002 -1.9782e+001 20882 112674,112830,112700
 4.2000e+000 112856 -2.2299e+002 -3.9978e+002  7.7535e+000 20882 112700,112752,112726
 4.2000e+000 112997 -1.8263e+002 -3.8110e+002  1.4936e+001 20882 112778,112752,112971
 4.2000e+000 113020 -1.6026e+002 -3.7449e+002  6.7906e+000 20882 112778,112971,112830
 4.2000e+000 113526 -1.3415e+002 -3.8144e+002  3.0385e+000 20428 113255,113385,113333
 4.2000e+000 113503 -1.4638e+002 -4.1882e+002  2.9292e+000 20428 113229,113385,113255
 4.2000e+000 113480 -2.3754e+001 -3.7343e+002  4.4966e+000 20428 113255,113333,113281
 4.2000e+000 113457 -1.2586e+002 -4.1133e+002  5.6277e+000 20428 113203,113385,113229
 4.2000e+000 113434 -7.0971e+001 -3.8953e+002 -1.0902e+001 20428 113281,113333,113307
 4.2000e+000 113411 -1.6454e+002 -3.7826e+002  1.0858e+001 20428 113333,113385,113359
 4.2000e+000 113774 -2.1429e+001 -3.6772e+002  1.4623e+001 19917 113797,113601,113549
 4.2000e+000 113751 -6.0716e+001 -3.7580e+002  1.9687e+001 19917 113869,113797,113549
 4.2000e+000 113728 -5.7896e+001 -3.8060e+002  3.8155e+001 19917 113869,113549,113679
 4.2000e+000 113705 -3.2691e+001 -3.6481e+002  2.9707e+001 19917 113549,113601,113575
 4.2000e+000 113823 -6.1533e+001 -4.4792e+002 -1.5155e+000 19917 113627,113601,113797
 4.2000e+000 113846 -2.1945e+001 -3.4981e+002 -9.7541e+000 19917 113627,113797,113653
 4.2000e+000 113895 -5.1471e+001 -3.3194e+002  5.5629e+000 19917 113653,113797,113869
 4.2000e+000 113918 -6.6447e+001 -3.4371e+002  2.9047e+001 19917 113653,113869,113679
 4.2000e+000 114166 -1.6909e+002 -3.8330e+002 -6.0755e+000 19413 113993,114045,114019
 4.2000e+000 114143 -1.6143e+002 -3.5818e+002  2.3480e+000 19413 113967,114045,113993
 4.2000e+000 114120 -1.3413e+002 -3.4862e+002  2.0314e+001 19413 113967,114071,114045
 4.2000e+000 114097 -1.1050e+002 -3.9501e+002 -6.1220e+000 19413 113941,114071,113967
 4.2000e+000 114438 -1.5888e+002 -4.1962e+002  3.9981e+000 19001 114213,114265,114239
 4.2000e+000 114415 -1.1460e+002 -3.2708e+002 -9.6336e+000 19001 114213,114343,114265
 4.2000e+000 114392 -1.6955e+002 -4.5022e+002 -2.0420e+001 19001 114265,114343,114317
 4.2000e+000 114369  3.3290e+001 -3.6309e+002 -8.6228e+000 19001 114265,114317,114291
 4.2000e+000 114639 -1.2015e+002 -4.9981e+002  2.4775e+001 18554 114489,114541,114515
 4.2000e+000 114616 -1.0571e+002 -4.3209e+002  4.4798e+000 18554 114489,114567,114541
 4.2000e+000 114593 -2.2744e+002 -4.9935e+002 -3.3517e+001 18554 114463,114567,114489
 4.2000e+000 115043 -8.3809e+001 -3.7285e+002  1.3656e+001 18164 114795,114925,114821
 4.2000e+000 115020 -7.5621e+001 -3.9467e+002  2.1201e+001 18164 114769,114925,114795
 4.2000e+000 114997 -4.5607e+001 -3.9189e+002 -2.9680e+000 18164 115066,114873,114821
 4.2000e+000 114974 -4.3362e+001 -3.3678e+002 -1.3470e+001 18164 115066,114821,114925
 4.2000e+000 114951  2.4288e+001 -3.9344e+002 -3.8702e+001 18164 114821,114873,114847
 4.2000e+000 115092 -6.4787e+001 -3.5194e+002 -3.1918e+001 18164 114899,114873,115066
 4.2000e+000 115115 -3.9691e+001 -2.6771e+002 -4.5192e+001 18164 114899,115066,114925
 4.2000e+000 115265 -1.1001e+002 -4.1298e+002  3.8845e+000 17852 115164,115216,115190
 4.2000e+000 115242 -1.1945e+002 -4.3238e+002 -5.2982e-001 17852 115138,115216,115164
 4.2000e+000 115464 -2.6046e+002 -5.8327e+002  8.2880e+000 17346 115288,115366,115340
 4.2000e+000 115441 -4.0028e+002 -4.5387e+002 -1.6176e+001 17346 115288,115392,115366
 4.2000e+000 115418 -2.3365e+002 -6.5587e+002 -2.0515e+001 17346 115288,115340,115314
 4.2000e+000 115736 -1.0455e+002 -3.7256e+002  1.5938e+001 16942 115563,115641,115615
 4.2000e+000 115713 -1.1693e+002 -3.7151e+002  5.2475e+000 16942 115511,115641,115563
 4.2000e+000 115690 -2.6127e+002 -4.3287e+002  2.3854e+001 16942 115563,115615,115589
 4.2000e+000 115667 -1.3642e+002 -4.0199e+002  1.3594e+001 16942 115511,115563,115537
 4.2000e+000 116091 -1.9098e+002 -4.4704e+002 -1.6889e+001 16388 115918,115970,115944
 4.2000e+000 116068 -1.6369e+002 -3.5827e+002 -1.1138e+001 16388 115918,115996,115970
 4.2000e+000 116045 -2.2143e+002 -4.5454e+002  1.5374e+001 16388 115892,115996,115918
 4.2000e+000 116022 -1.4577e+002 -4.1400e+002  5.0736e+001 16388 115866,115996,115892
 4.2000e+000 116192 -6.7817e+001 -4.6712e+002 -6.4073e+001 15810 116114,116166,116140
 4.2000e+000 116342 -1.7697e+002 -5.6800e+002  3.1256e+001 15419 116241,116293,116267
 4.2000e+000 116319 -2.5253e+002 -6.9842e+002 -2.0349e+001 15419 116215,116293,116241
 4.2000e+000 116445 -1.8959e+002 -3.8590e+002  3.4016e+000 421 116367,116419,116393
 4.3000e+000 68477 -2.5103e+002 -3.7226e+002  1.5679e+000 68018 68327,68379,68353
 4.3000e+000 68454 -2.6725e+002 -4.9231e+002  3.6197e+001 68018 68301,68379,68327
 4.3000e+000 68431 -1.1882e+002 -5.4624e+002  9.2940e+001 68018 68301,68405,68379
 4.3000e+000 68578 -1.7053e+002 -3.5331e+002  2.2188e+000 67820 68500,68552,68526
 4.3000e+000 68728 -1.8373e+002 -3.2930e+002 -4.3626e+000 67508 68601,68653,68627
 4.3000e+000 68705 -2.8261e+002 -2.5275e+002 -4.8077e+001 67508 68601,68679,68653
 4.3000e+000 68927 -5.3518e+001 -3.1038e+002 -6.4449e+000 67310 68777,68829,68803
 4.3000e+000 68904 -8.1477e+001 -3.5898e+002  6.5799e+000 67310 68751,68829,68777
 4.3000e+000 68881 -6.5024e+001 -3.6386e+002  1.9872e+001 67310 68751,68855,68829
 4.3000e+000 69386 -1.4623e+002 -3.8268e+002 -1.8692e+001 67020 69216,69268,69242
 4.3000e+000 69363 -1.3360e+002 -2.9750e+002 -3.7524e+001 67020 69138,69268,69216
 4.3000e+000 69340 -9.9746e+001 -2.6854e+002 -2.2114e+001 67020 69112,69268,69138
 4.3000e+000 69317 -1.7738e+002 -3.1978e+002  2.4445e+001 67020 69138,69190,69164
 4.3000e+000 69294 -1.8558e+002 -2.9334e+002 -1.6486e+001 67020 69138,69216,69190
 4.3000e+000 69536 -2.8474e+002 -6.9736e+002 -5.6782e+001 66708 69435,69487,69461
 4.3000e+000 69513 -2.0969e+002 -7.8574e+002 -9.0038e+000 66708 69409,69487,69435
 4.3000e+000 69735 -1.7869e+002 -3.6266e+002  8.2280e+000 66346 69585,69637,69611
 4.3000e+000 69712 -1.4882e+002 -3.4530e+002 -1.5214e+000 66346 69559,69637,69585
 4.3000e+000 69689 -1.3528e+002 -3.4282e+002 -3.3704e+001 66346 69559,69663,69637
 4.3000e+000 69985 -2.5251e+002 -4.3035e+002  6.0822e+000 66148 69786,69890,69864
 4.3000e+000 69962 -2.6008e+002 -4.3525e+002  8.9419e+000 66148 69760,69890,69786
 4.3000e+000 69939 -1.8562e+002 -4.0506e+002 -5.8473e+001 66148 69786,69864,69838
 4.3000e+000 69916 -2.1504e+002 -4.3189e+002 -2.4371e+001 66148 69786,69838,69812
 4.3000e+000 70137 -1.2334e+002 -4.7190e+002 -2.7637e+001 65950 70036,70088,70062
 4.3000e+000 70114 -1.0475e+002 -5.2396e+002  2.4512e+001 65950 70010,70088,70036
 4.3000e+000 70470 -9.4331e+001 -3.5145e+002  2.8550e+001 65546 70245,70323,70271
 4.3000e+000 70447 -6.8300e+001 -3.1316e+002  1.2855e+001 65546 70245,70375,70323
 4.3000e+000 70424 -8.6004e+001 -3.9347e+002  1.4210e+001 65546 70323,70375,70349
 4.3000e+000 70401 -7.3378e+001 -3.2334e+002  1.2981e+001 65546 70271,70323,70297
 4.3000e+000 70620 -1.5941e+002 -4.1288e+002  1.3720e+001 65348 70493,70545,70519
 4.3000e+000 70597 -1.1146e+002 -4.2918e+002  1.8387e+001 65348 70493,70571,70545
 4.3000e+000 70721 -2.1229e+002 -4.3366e+002  3.2109e+001 65150 70643,70695,70669
 4.3000e+000 71020 -1.5121e+002 -3.4171e+002  5.3592e+000 64952 71043,70850,70824
 4.3000e+000 70997 -1.3202e+002 -2.9471e+002  4.9266e+000 64952 71043,70824,70772
 4.3000e+000 70974 -1.4330e+002 -3.9306e+002  6.3902e+000 64952 71115,70746,70876
 4.3000e+000 70951 -1.1303e+002 -3.9218e+002 -2.5323e+000 64952 70746,70902,70876
 4.3000e+000 70928 -1.3508e+002 -2.4934e+002 -2.3441e+001 64952 70772,70824,70798
 4.3000e+000 71069 -1.2304e+002 -3.2733e+002  1.2044e+001 64952 70876,70850,71043
 4.3000e+000 71092 -1.4123e+002 -3.7055e+002  7.3970e+000 64952 71115,70876,71043
 4.3000e+000 71141 -1.6176e+002 -3.6705e+002 -1.3711e+001 64952 70772,70746,71115
 4.3000e+000 71164 -1.5149e+002 -3.3324e+002 -1.3343e+001 64952 70772,71115,71043
 4.3000e+000 71365 -4.2456e+000 -4.2718e+002 -5.4388e+000 64662 71215,71293,71267
 4.3000e+000 71342  6.2446e+001 -4.0531e+002 -6.9524e+001 64662 71189,71293,71215
 4.3000e+000 71319  3.1482e+001 -3.5637e+002  6.7210e+000 64662 71215,71267,71241
 4.3000e+000 71615 -9.8554e+001 -3.6592e+002 -4.8123e+000 64350 71710,71638,71468
 4.3000e+000 71592 -1.2211e+002 -3.5999e+002 -1.1934e+001 64350 71638,71416,71390
 4.3000e+000 71569 -1.0552e+002 -3.4119e+002  1.5746e+001 64350 71710,71468,71442
 4.3000e+000 71546  6.7958e+001 -3.4916e+002 -6.0342e+001 64350 71390,71520,71494
 4.3000e+000 71664 -9.2890e+001 -3.6496e+002  4.7217e-002 64350 71494,71468,71638
 4.3000e+000 71687 -9.3459e+001 -3.7211e+002  4.4476e-001 64350 71494,71638,71390
 4.3000e+000 71736 -8.9465e+001 -3.1638e+002  2.6497e+000 64350 71416,71638,71710
 4.3000e+000 71759 -8.7111e+001 -2.9136e+002  2.9119e+001 64350 71416,71710,71442
 4.3000e+000 72318 -1.0594e+002 -5.8106e+002 -2.3235e+001 63837 71972,72024,71998
 4.3000e+000 72295 -1.6183e+002 -3.7401e+002 -1.6018e+000 63837 72341,71972,71946
 4.3000e+000 72272 -1.4668e+002 -3.0129e+002  1.3608e+001 63837 72413,72341,71946
 4.3000e+000 72249 -1.3474e+002 -2.7397e+002  4.3997e+000 63837 72413,71946,72128
 4.3000e+000 72226 -2.0857e+002 -3.2893e+002  2.2461e+000 63837 72024,72076,72050
 4.3000e+000 72203 -1.7741e+002 -3.0270e+002 -1.0386e+001 63837 72024,72102,72076
 4.3000e+000 72180 -8.8602e+001 -2.5804e+002  2.2157e+001 63837 71946,72154,72128
 4.3000e+000 72367 -1.9298e+002 -4.0070e+002 -7.0871e+001 63837 72024,71972,72341
 4.3000e+000 72390 -1.5079e+002 -3.2786e+002 -2.6889e+001 63837 72024,72341,72102
 4.3000e+000 72439 -1.1451e+002 -3.4598e+002  5.5381e+000 63837 72102,72341,72413
 4.3000e+000 72462 -1.0458e+002 -3.1870e+002 -6.5134e-001 63837 72102,72413,72128
 4.3000e+000 72791 -1.8084e+002 -3.5046e+002 -3.5142e+001 63383 72592,72696,72670
 4.3000e+000 72768 -1.8401e+002 -3.2539e+002 -6.2671e+001 63383 72566,72696,72592
 4.3000e+000 72745 -1.7965e+002 -3.0568e+002  1.1390e+000 63383 72592,72670,72618
 4.3000e+000 72722 -1.7220e+002 -2.8688e+002  1.0377e+000 63383 72618,72670,72644
 4.3000e+000 73297 -2.1496e+002 -3.0799e+002 -1.7167e+000 63185 73000,73156,73130
 4.3000e+000 73274 -2.1547e+002 -3.2001e+002  4.0467e+001 63185 72974,73156,73000
 4.3000e+000 73251 -1.6026e+002 -3.5570e+002 -6.0903e+000 63185 73000,73052,73026
 4.3000e+000 73228 -1.7784e+002 -3.1824e+002 -1.5847e+001 63185 73000,73130,73052
 4.3000e+000 73205 -1.7538e+002 -3.5500e+002 -5.3578e+001 63185 73052,73130,73104
 4.3000e+000 73182 -1.6592e+002 -3.9696e+002 -5.7762e+001 63185 73052,73104,73078
 4.3000e+000 73545 -7.1253e+001 -3.3253e+002  3.0495e+000 62781 73568,73398,73372
 4.3000e+000 73522 -5.1279e+001 -3.0222e+002  1.2331e+001 62781 73568,73372,73346
 4.3000e+000 73499 -9.4896e+001 -3.1434e+002 -8.2951e+000 62781 73640,73320,73424
 4.3000e+000 73476 -1.0216e+002 -1.9896e+002 -3.4477e+001 62781 73320,73450,73424
 4.3000e+000 73594 -5.7478e+001 -3.0552e+002 -4.9627e+000 62781 73424,73398,73568
 4.3000e+000 73617 -7.5053e+001 -3.0612e+002 -8.5790e+000 62781 73640,73424,73568
 4.3000e+000 73666 -9.2154e+001 -3.1068e+002  8.3433e+000 62781 73346,73320,73640
 4.3000e+000 73689 -8.1770e+001 -3.0709e+002  8.2027e+000 62781 73346,73640,73568
 4.3000e+000 74035 -1.2810e+002 -3.5900e+002 -5.1995e+000 62363 74058,73868,73842
 4.3000e+000 74012 -1.1911e+002 -3.2992e+002 -2.7321e+001 62363 74130,74058,73842
 4.3000e+000 73989 -1.0823e+002 -3.2689e+002 -2.9301e+001 62363 74130,73842,73816
 4.3000e+000 73966 -1.7687e+002 -3.7313e+002  4.5949e+000 62363 74202,73764,73894
 4.3000e+000 73943 -2.2813e+002 -3.4076e+002  5.3484e+000 62363 73712,73894,73764
 4.3000e+000 73920 -2.4630e+002 -3.6033e+002 -4.1062e+000 62363 73712,73764,73738
 4.3000e+000 74084 -1.2893e+002 -3.5303e+002 -5.0127e+000 62363 73894,73868,74058
 4.3000e+000 74107 -1.6164e+002 -3.5701e+002  1.6999e+001 62363 74202,73894,74058
 4.3000e+000 74156 -1.3200e+002 -3.3595e+002  1.0136e+001 62363 73790,74058,74130
 4.3000e+000 74179 -8.1221e+001 -3.1657e+002  1.1675e+001 62363 73790,74130,73816
 4.3000e+000 74228 -1.9425e+002 -3.8068e+002 -1.9497e+001 62363 73790,73764,74202
 4.3000e+000 74251 -1.8301e+002 -3.6354e+002 -7.1768e+000 62363 73790,74202,74058
 4.3000e+000 74403 -1.3522e+001 -3.8437e+002  2.5403e+001 62115 74426,74302,74276
 4.3000e+000 74380  5.8861e+001 -3.6807e+002  5.5062e+001 62115 74426,74276,74354
 4.3000e+000 74452 -8.1890e+001 -3.4721e+002  2.4992e+001 62115 74328,74302,74426
 4.3000e+000 74475 -1.4026e+001 -3.3312e+002  5.6606e+001 62115 74328,74426,74354
 4.3000e+000 74578  5.8742e+001 -2.0948e+002  1.8576e+000 61825 74500,74552,74526
 4.3000e+000 74982 -1.8925e+002 -3.2880e+002  2.4713e+000 61513 75005,74734,74708
 4.3000e+000 74959 -1.8358e+002 -3.1744e+002 -1.4327e+000 61513 75005,74708,74864
 4.3000e+000 74936 -2.3335e+002 -3.3584e+002  2.3478e+001 61513 75077,74812,74734
 4.3000e+000 74913 -2.1130e+002 -3.4271e+002 -2.9375e+001 61513 74734,74786,74760
 4.3000e+000 74890 -2.0568e+002 -3.0102e+002 -1.6200e+000 61513 74734,74812,74786
 4.3000e+000 75031 -1.7740e+002 -3.3612e+002  4.4555e+000 61513 75077,74734,75005
 4.3000e+000 75054 -1.4224e+002 -3.2742e+002  4.7507e+001 61513 74838,75005,74864
 4.3000e+000 75103 -2.6515e+002 -3.5177e+002  7.3433e+001 61513 74838,74812,75077
 4.3000e+000 75126 -2.2827e+002 -3.6577e+002  5.4606e+001 61513 74838,75077,75005
 4.3000e+000 75553 -9.3015e+001 -3.0145e+002 -1.0955e+001 61060 75576,75360,75308
 4.3000e+000 75530 -9.6726e+001 -3.2003e+002 -1.2827e+001 61060 75576,75308,75230
 4.3000e+000 75507 -8.4850e+001 -2.8898e+002  2.9249e-001 61060 75308,75360,75334
 4.3000e+000 75484 -1.2732e+002 -3.7253e+002  2.1788e+001 61060 75230,75308,75256
 4.3000e+000 75461 -8.8680e+001 -3.4637e+002  1.0366e+001 61060 75256,75308,75282
 4.3000e+000 75438 -1.0711e+002 -2.9743e+002  3.8351e+001 61060 75360,75412,75386
 4.3000e+000 75602 -7.1216e+001 -3.1809e+002  1.6423e+000 61060 75412,75360,75576
 4.3000e+000 75625 -8.6779e+001 -3.5397e+002 -4.9948e+000 61060 75412,75576,75230
 4.3000e+000 76052 -1.3792e+002 -3.1134e+002  5.3542e+000 60442 75755,75859,75833
 4.3000e+000 76029 -1.6202e+002 -2.9608e+002 -2.1102e+001 60442 75729,75859,75755
 4.3000e+000 76006 -1.4368e+002 -2.8943e+002  1.9518e+001 60442 75755,75833,75807
 4.3000e+000 75983 -1.3778e+002 -3.4213e+002  1.0858e+001 60442 75755,75807,75781
 4.3000e+000 75960  3.6627e+000 -5.4300e+002  2.0624e+001 60442 75729,75911,75859
 4.3000e+000 75937 -2.7799e+002 -1.3504e+003  8.8025e+001 60442 75859,75911,75885
 4.3000e+000 76430 -1.4432e+002 -3.7156e+002 -1.6122e+001 59788 76453,76286,76234
 4.3000e+000 76407 -1.5621e+002 -4.2546e+002  6.1483e+000 59788 76453,76234,76182
 4.3000e+000 76384 -1.6186e+002 -2.8563e+002  4.6443e+001 59788 76525,76156,76312
 4.3000e+000 76361 -9.1449e+001 -4.8435e+002 -5.5901e+000 59788 76182,76234,76208
 4.3000e+000 76338 -1.1525e+002 -3.5714e+002 -1.0554e+001 59788 76234,76286,76260
 4.3000e+000 76479 -1.7539e+002 -4.0215e+002  1.2761e+000 59788 76312,76286,76453
 4.3000e+000 76502 -1.4711e+002 -3.8137e+002  1.9269e+001 59788 76525,76312,76453
 4.3000e+000 76551 -1.9877e+002 -4.0586e+002  4.9885e+001 59788 76182,76156,76525
 4.3000e+000 76574 -1.7617e+002 -4.3567e+002  3.0182e+001 59788 76182,76525,76453
 4.3000e+000 77031 -1.0446e+002 -2.2725e+002 -3.4137e+001 59448 76835,76887,76861
 4.3000e+000 77008 -4.6708e+001 -1.8977e+002  8.3905e+000 59448 76835,76913,76887
 4.3000e+000 76985 -6.0485e+001 -1.5968e+002  3.0718e+001 59448 76809,76913,76835
 4.3000e+000 76962 -1.1340e+002 -2.1056e+002 -2.2543e-001 59448 76757,76913,76809
 4.3000e+000 76939 -9.3072e+001 -1.8559e+002 -9.0025e+000 59448 76757,76809,76783
 4.3000e+000 77537 -1.5299e+002 -3.2424e+002  1.5823e+001 58994 77560,77344,77292
 4.3000e+000 77514 -2.1526e+002 -3.2424e+002  3.4100e+000 58994 77560,77292,77240
 4.3000e+000 77491 -1.2368e+002 -3.0598e+002 -8.0996e+000 58994 77632,77214,77370
 4.3000e+000 77468 -2.5366e+002 -3.7218e+002  6.5850e+001 58994 77292,77344,77318
 4.3000e+000 77445 -1.2639e+002 -3.9886e+002  1.5152e+001 58994 77214,77396,77370
 4.3000e+000 77422 -2.1803e+002 -3.3974e+002 -7.3075e+000 58994 77240,77292,77266
 4.3000e+000 77586 -1.5798e+002 -3.3255e+002  1.8586e+001 58994 77370,77344,77560
 4.3000e+000 77609 -1.5793e+002 -3.2695e+002  2.1154e+001 58994 77632,77370,77560
 4.3000e+000 77658 -1.0538e+002 -2.8413e+002 -3.9459e+001 58994 77240,77214,77632
 4.3000e+000 77681 -1.3044e+002 -2.8091e+002 -1.3036e+001 58994 77240,77632,77560
 4.3000e+000 78138 -1.2643e+002 -2.2717e+002  3.2541e+001 58440 77864,77994,77890
 4.3000e+000 78115 -8.2928e+001 -1.3877e+002 -1.7561e+001 58440 77864,78020,77994
 4.3000e+000 78092 -1.4398e+002 -2.6856e+002 -2.2499e+001 58440 77942,77994,77968
 4.3000e+000 78069 -1.1506e+002 -2.5418e+002  5.2560e+000 58440 77890,77994,77942
 4.3000e+000 78046 -1.0416e+002 -2.5865e+002 -3.2309e+000 58440 77890,77942,77916
 4.3000e+000 78467 -2.3783e+001 -2.9878e+002  1.1481e+001 57928 78562,78490,78346
 4.3000e+000 78444 -1.1310e+002 -3.0198e+002 -4.8115e+000 57928 78490,78294,78268
 4.3000e+000 78421 -5.8711e+000 -3.1228e+002  2.6067e+001 57928 78562,78346,78320
 4.3000e+000 78398 -4.4095e+001 -2.9192e+002  4.7103e+000 57928 78242,78372,78268
 4.3000e+000 78516 -9.9217e+001 -3.7254e+002 -1.9550e+001 57928 78372,78346,78490
 4.3000e+000 78539 -7.9012e+001 -2.8711e+002 -2.2678e+000 57928 78372,78490,78268
 4.3000e+000 78588 -1.1225e+002 -2.9516e+002  1.6322e+000 57928 78294,78490,78562
 4.3000e+000 78611 -5.5714e+001 -2.6389e+002  3.1362e+001 57928 78294,78562,78320
 4.3000e+000 79068 -2.2021e+002 -4.6328e+002 -1.1533e+002 57467 78794,78924,78820
 4.3000e+000 79045 -1.7493e+002 -4.4244e+002 -1.0908e+002 57467 78794,78950,78924
 4.3000e+000 79022 -9.3879e+001 -4.1471e+002  3.9469e+001 57467 78820,78898,78872
 4.3000e+000 78999 -1.6286e+002 -5.6996e+002 -6.1503e+001 57467 78820,78924,78898
 4.3000e+000 78976 -6.7683e+001 -4.1912e+002  6.0803e+001 57467 78820,78872,78846
 4.3000e+000 79446 -1.8471e+002 -3.5071e+002  4.0428e-001 57120 79172,79302,79250
 4.3000e+000 79423 -1.6436e+002 -3.4152e+002 -1.1650e+001 57120 79172,79328,79302
 4.3000e+000 79400 -1.6668e+002 -3.0821e+002 -1.1508e+001 57120 79172,79250,79198
 4.3000e+000 79377 -1.2658e+002 -4.4363e+002  1.8040e+001 57120 79250,79302,79276
 4.3000e+000 79354 -2.0409e+002 -3.3559e+002 -2.4973e+001 57120 79198,79250,79224
 4.3000e+000 79952 -2.4575e+002 -3.8786e+002  1.1709e+000 56773 79629,79785,79655
 4.3000e+000 79929 -7.2524e+001 -3.3493e+002  1.6972e+001 56773 79629,79811,79785
 4.3000e+000 79906 -1.9125e+002 -4.2039e+002  2.8362e+001 56773 79655,79733,79681
 4.3000e+000 79883 -1.8799e+002 -3.7229e+002  7.0693e+000 56773 79655,79785,79733
 4.3000e+000 79860 -1.7676e+002 -4.8557e+002 -5.7606e+001 56773 79733,79785,79759
 4.3000e+000 79837 -9.9756e+001 -3.7849e+002  7.2944e+001 56773 79681,79733,79707
 4.3000e+000 80281 -8.5462e+001 -2.8730e+002 -2.2530e+001 56319 80108,80160,80134
 4.3000e+000 80258 -9.2844e+001 -3.1475e+002 -2.8367e+001 56319 80056,80160,80108
 4.3000e+000 80235 -3.9713e+001 -2.7906e+002  1.8145e+001 56319 80056,80186,80160
 4.3000e+000 80212 -1.2580e+002 -4.0108e+002 -1.8445e+001 56319 80056,80108,80082
 4.3000e+000 80738 -5.0002e+001 -3.4641e+002  1.7975e+001 55957 80516,80620,80594
 4.3000e+000 80715 -1.2313e+002 -3.1394e+002  1.4411e+001 55957 80464,80620,80516
 4.3000e+000 80692 -1.0508e+002 -3.7823e+002  1.9800e+001 55957 80761,80568,80542
 4.3000e+000 80669 -8.6730e+001 -3.7193e+002  2.3427e+001 55957 80761,80542,80516
 4.3000e+000 80646 -1.2346e+002 -3.1397e+002  3.9347e+001 55957 80464,80516,80490
 4.3000e+000 80787 -1.2331e+002 -3.7547e+002  1.4022e+001 55957 80594,80568,80761
 4.3000e+000 80810 -1.0605e+002 -3.6965e+002  1.7852e+001 55957 80594,80761,80516
 4.3000e+000 81210 -1.0476e+002 -3.5213e+002 -4.1984e+001 55317 80936,80988,80962
 4.3000e+000 81187 -8.7000e+001 -3.9003e+002 -1.5378e+000 55317 80936,81066,80988
 4.3000e+000 81164 -5.8640e+001 -4.1684e+002  5.5637e+000 55317 80936,81092,81066
 4.3000e+000 81141 -1.2263e+002 -4.1544e+002 -3.8441e+001 55317 80988,81066,81014
 4.3000e+000 81118 -1.6756e+001 -2.3446e+002  2.4104e+001 55317 81014,81066,81040
 4.3000e+000 81539 -1.5852e+002 -3.6120e+002  9.8404e+000 54913 81340,81418,81392
 4.3000e+000 81516 -6.4189e+001 -2.9051e+002 -2.1897e+001 54913 81340,81444,81418
 4.3000e+000 81493 -9.7513e+001 -3.1141e+002 -4.3498e+001 54913 81314,81444,81340
 4.3000e+000 81470 -1.8026e+002 -3.7910e+002  1.3852e+000 54913 81340,81392,81366
 4.3000e+000 81787 -9.1111e+001 -3.7820e+002 -3.4532e+000 54601 81588,81692,81640
 4.3000e+000 81764 -1.3196e+002 -3.8162e+002 -1.2069e+001 54601 81562,81692,81588
 4.3000e+000 81741 -7.1548e+001 -3.8400e+002  4.9516e+001 54601 81588,81640,81614
 4.3000e+000 81718 -9.3474e+001 -4.4705e+002 -3.9195e+001 54601 81640,81692,81666
 4.3000e+000 82344 -1.4449e+002 -3.8740e+002 -1.9693e+001 54090 81998,82102,82076
 4.3000e+000 82321 -1.9464e+002 -4.0933e+002 -1.1263e+001 54090 81998,82154,82102
 4.3000e+000 82298 -1.7605e+002 -3.9983e+002 -6.3293e+000 54090 81972,82154,81998
 4.3000e+000 82275 -2.0076e+002 -3.6444e+002 -2.2068e+001 54090 81998,82076,82024
 4.3000e+000 82252 -2.1331e+002 -4.2538e+002  2.0217e+001 54090 81972,82180,82154
 4.3000e+000 82229 -2.6834e+002 -4.9807e+002  2.8124e+001 54090 82102,82154,82128
 4.3000e+000 82206 -3.8437e+001 -2.7575e+002 -5.8139e+001 54090 82024,82076,82050
 4.3000e+000 82722 -2.4507e+002 -4.3744e+002 -1.5791e+001 53579 82500,82578,82552
 4.3000e+000 82699 -1.8049e+002 -3.9814e+002  1.0188e+001 53579 82448,82578,82500
 4.3000e+000 82676 -1.9530e+002 -4.4847e+002  1.0921e+001 53579 82448,82500,82474
 4.3000e+000 82653 -2.3883e+002 -4.2791e+002  3.0533e+001 53579 82448,82604,82578
 4.3000e+000 82630 -1.2742e+002 -4.0534e+002 -1.7381e+001 53579 82500,82552,82526
 4.3000e+000 83356 -1.1879e+002 -3.1306e+002 -3.2712e+001 53189 83379,83088,83036
 4.3000e+000 83333 -1.1432e+002 -3.5317e+002 -2.9444e+001 53189 83379,83036,82984
 4.3000e+000 83310 -5.8265e+001 -3.3353e+002  4.6642e+001 53189 82984,83192,83166
 4.3000e+000 83287  3.3547e+000 -2.5892e+002 -2.2578e+001 53189 83036,83088,83062
 4.3000e+000 83264 -9.2313e+001 -3.9275e+002 -5.3522e+001 53189 82984,83036,83010
 4.3000e+000 83241 -8.1123e+001 -3.9505e+002  8.3894e+000 53189 83114,83166,83140
 4.3000e+000 83218 -1.6033e+002 -4.0970e+002  1.6736e+000 53189 83088,83166,83114
 4.3000e+000 83405 -1.1955e+002 -3.4023e+002 -1.6092e+001 53189 83166,83088,83379
 4.3000e+000 83428 -1.0905e+002 -3.7570e+002 -1.5378e+001 53189 83166,83379,82984
 4.3000e+000 83725 -1.5665e+002 -4.4404e+002 -3.8402e+001 52585 83748,83529,83503
 4.3000e+000 83702 -1.1793e+002 -4.3108e+002 -2.5482e+001 52585 83820,83748,83503
 4.3000e+000 83679 -7.9735e+001 -4.2178e+002 -2.1372e+001 52585 83820,83503,83477
 4.3000e+000 83656 -5.5752e+001 -3.8811e+002  5.3281e+001 52585 83477,83607,83581
 4.3000e+000 83633  3.3840e+001 -3.5013e+002  5.5520e+001 52585 83451,83607,83477
 4.3000e+000 83774 -1.3764e+002 -3.9667e+002 -3.3955e+001 52585 83555,83529,83748
 4.3000e+000 83797 -1.7998e+002 -4.2640e+002 -2.0995e+001 52585 83555,83748,83581
 4.3000e+000 83846 -1.5412e+002 -4.0922e+002 -5.9598e+000 52585 83581,83748,83820
 4.3000e+000 83869 -1.2627e+002 -4.0638e+002 -5.9225e+000 52585 83581,83820,83477
 4.3000e+000 84200 -1.1672e+002 -4.0224e+002 -1.5122e+001 52024 84001,84105,84079
 4.3000e+000 84177 -6.2782e+001 -3.9225e+002 -2.8513e+001 52024 83975,84105,84001
 4.3000e+000 84154 -1.0154e+002 -4.0387e+002 -1.1516e+001 52024 84001,84079,84053
 4.3000e+000 84131 -5.1091e+001 -2.7151e+002  4.8813e+001 52024 84001,84053,84027
 4.3000e+000 84399 -9.6774e+001 -4.0158e+002 -1.9573e+000 51470 84422,84275,84249
 4.3000e+000 84376 -8.9390e+001 -3.8596e+002  2.1749e+000 51470 84422,84249,84223
 4.3000e+000 84353 -1.1036e+002 -4.2370e+002 -5.8766e+001 51470 84275,84327,84301
 4.3000e+000 84448 -1.0457e+002 -3.8691e+002 -2.7613e+000 51470 84327,84275,84422
 4.3000e+000 84471 -9.9323e+001 -3.7433e+002  1.0713e+000 51470 84327,84422,84223
 4.3000e+000 84753 -1.1858e+002 -3.3467e+002 -1.3196e+000 51073 84603,84655,84629
 4.3000e+000 84730 -2.4086e+002 -3.9212e+002 -1.8022e+001 51073 84776,84655,84603
 4.3000e+000 84707 -5.3140e+001 -3.4126e+002 -9.4409e+001 51073 84577,84681,84655
 4.3000e+000 84802 -1.5275e+002 -3.4305e+002 -4.4616e+001 51073 84577,84655,84776
 4.3000e+000 85178 -2.1799e+002 -4.7245e+002  4.2470e+001 50519 85201,85008,84982
 4.3000e+000 85155 -2.0635e+002 -4.3783e+002  3.0374e+001 50519 85273,85201,84982
 4.3000e+000 85132 -1.9365e+002 -4.3815e+002  2.2216e+001 50519 85273,84982,84930
 4.3000e+000 85109 -1.8840e+002 -4.2833e+002  1.9277e+001 50519 84930,84982,84956
 4.3000e+000 85086 -1.7364e+002 -4.3403e+002  1.6916e+001 50519 85008,85060,85034
 4.3000e+000 85227 -1.7967e+002 -4.4830e+002  1.8282e+001 50519 85060,85008,85201
 4.3000e+000 85250 -2.0377e+002 -4.4977e+002  1.1890e+001 50519 85060,85201,84904
 4.3000e+000 85299 -1.9268e+002 -4.4290e+002  8.9490e+000 50519 84904,85201,85273
 4.3000e+000 85322 -1.4929e+002 -3.9040e+002 -1.0671e+001 50519 84904,85273,84930
 4.3000e+000 85958 -1.2619e+002 -3.9403e+002 -1.3397e+001 50093 85981,85768,85716
 4.3000e+000 85935 -1.1223e+002 -3.5802e+002 -1.5632e+001 50093 85981,85716,85612
 4.3000e+000 85912 -1.6133e+002 -3.7023e+002  6.3087e+000 50093 85612,85716,85664
 4.3000e+000 85889 -9.3940e+001 -3.8768e+002 -4.7727e+000 50093 85716,85768,85742
 4.3000e+000 85866 -1.3356e+002 -2.8507e+002 -8.0003e+001 50093 85664,85716,85690
 4.3000e+000 85843 -4.8982e+001 -2.7188e+002 -1.4739e+001 50093 85586,85794,85612
 4.3000e+000 85820 -1.1014e+002 -4.9953e+002  4.1242e+001 50093 85612,85664,85638
 4.3000e+000 86007 -1.5326e+002 -4.2391e+002 -6.4930e+001 50093 85794,85768,85981
 4.3000e+000 86030 -1.1022e+002 -3.1988e+002 -5.4283e+001 50093 85794,85981,85612
 4.3000e+000 86131 -1.3417e+002 -3.9788e+002  5.4107e+001 49895 86053,86105,86079
 4.3000e+000 86639 -9.7875e+001 -2.7479e+002 -5.5322e+001 49391 86662,86394,86368
 4.3000e+000 86616 -1.1452e+002 -3.3385e+002 -4.8951e+001 49391 86662,86368,86342
 4.3000e+000 86593 -6.5246e+001 -3.3395e+002 -1.5389e+001 49391 86342,86498,86472
 4.3000e+000 86570 -4.2319e+001 -3.6818e+002 -1.8619e+001 49391 86316,86498,86342
 4.3000e+000 86547 -1.8693e+002 -5.0762e+002 -2.3620e+001 49391 86394,86472,86446
 4.3000e+000 86524 -1.5224e+001 -4.7667e+002  3.8357e+000 49391 86394,86446,86420
 4.3000e+000 86688 -1.1117e+002 -3.3005e+002 -2.9743e+001 49391 86472,86394,86662
 4.3000e+000 86711 -9.8735e+001 -3.5520e+002 -2.8385e+001 49391 86472,86662,86342
 4.3000e+000 87089 -1.4042e+002 -3.9529e+002  9.9502e+000 48987 86815,86919,86867
 4.3000e+000 87066 -1.4141e+002 -4.0714e+002  1.5845e+001 48987 86815,86971,86919
 4.3000e+000 87043 -5.4448e+001 -4.3787e+002 -4.0326e+001 48987 86867,86919,86893
 4.3000e+000 87020 -1.5929e+002 -4.4644e+002  3.3371e+001 48987 86815,86867,86841
 4.3000e+000 86997 -1.5863e+002 -3.5127e+002  5.5081e+001 48987 86919,86971,86945
 4.3000e+000 87467 -2.6513e+002 -3.9425e+002  1.7977e+001 48540 87490,87245,87219
 4.3000e+000 87444 -1.9384e+002 -3.6947e+002  8.5678e-001 48540 87562,87490,87219
 4.3000e+000 87421 -1.4472e+002 -3.4970e+002  1.6641e+001 48540 87562,87219,87349
 4.3000e+000 87398 -2.0101e+002 -3.1141e+002 -2.1675e+001 48540 87245,87297,87271
 4.3000e+000 87375 -1.2184e+002 -3.6643e+002  1.2504e+001 48540 87193,87349,87219
 4.3000e+000 87516 -1.8415e+002 -3.7639e+002  2.4848e+000 48540 87297,87245,87490
 4.3000e+000 87539 -1.8643e+002 -3.7658e+002  5.6985e+000 48540 87297,87490,87323
 4.3000e+000 87588 -1.4642e+002 -3.4592e+002  3.2513e+001 48540 87323,87490,87562
 4.3000e+000 87611 -1.2293e+002 -3.5279e+002  4.3117e+001 48540 87323,87562,87349
 4.3000e+000 87810 -1.8655e+002 -6.5689e+002 -4.7586e+001 48136 87660,87712,87686
 4.3000e+000 87787 -1.0691e+002 -3.8251e+002 -2.0814e+001 48136 87660,87738,87712
 4.3000e+000 87764 -2.4354e+002 -3.9566e+002 -6.3195e+001 48136 87634,87738,87660
 4.3000e+000 88205 -1.6860e+002 -4.1759e+002 -3.5404e+001 47210 88300,88228,87937
 4.3000e+000 88182 -1.4667e+002 -4.0473e+002 -1.0127e+001 47210 88228,87833,88041
 4.3000e+000 88159 -1.7087e+002 -4.4606e+002 -5.6586e+001 47210 88300,87937,87911
 4.3000e+000 88136 -1.6522e+002 -4.0371e+002 -4.9091e+001 47210 87833,87911,87859
 4.3000e+000 88113 -2.7740e+002 -3.6677e+002 -2.6269e+001 47210 87937,87989,87963
 4.3000e+000 88090 -1.3791e+002 -3.3085e+002  6.7137e+001 47210 87989,88041,88015
 4.3000e+000 88067 -1.9234e+002 -4.7267e+002 -6.5850e+001 47210 87859,87911,87885
 4.3000e+000 88254 -1.4982e+002 -3.4822e+002 -3.5691e+001 47210 87989,87937,88228
 4.3000e+000 88277 -1.7565e+002 -3.9887e+002 -1.3553e+001 47210 87989,88228,88041
 4.3000e+000 88326 -1.3958e+002 -3.8999e+002 -1.3156e+001 47210 87833,88228,88300
 4.3000e+000 88349 -1.4647e+002 -4.0899e+002 -3.5800e+001 47210 87833,88300,87911
 4.3000e+000 88780 -2.6306e+002 -4.6045e+002 -8.7703e+001 46642 88803,88509,88483
 4.3000e+000 88757 -1.8778e+002 -4.1394e+002 -4.7763e+001 46642 88803,88483,88639
 4.3000e+000 88734 -2.0983e+002 -3.4103e+002 -5.4392e+001 46642 88875,88561,88509
 4.3000e+000 88711 -2.1353e+002 -3.1664e+002 -1.1148e+001 46642 88509,88561,88535
 4.3000e+000 88688 -1.1970e+002 -4.6410e+002  8.3795e-001 46642 88457,88639,88483
 4.3000e+000 88665 -2.4137e+002 -5.5156e+002 -2.4239e+001 46642 88561,88613,88587
 4.3000e+000 88829 -2.1144e+002 -3.7176e+002 -6.1200e+001 46642 88875,88509,88803
 4.3000e+000 88852 -2.0671e+002 -4.4613e+002 -3.9635e+001 46642 88613,88803,88639
 4.3000e+000 88901 -1.7338e+002 -3.8385e+002 -2.8347e+001 46642 88613,88561,88875
 4.3000e+000 88924 -1.8884e+002 -4.3382e+002 -3.4133e+001 46642 88613,88875,88803
 4.3000e+000 89253 -8.2572e+001 -4.0309e+002  7.3575e+000 46444 89080,89158,89132
 4.3000e+000 89230 -9.4284e+001 -4.2922e+002  4.0081e+000 46444 89028,89158,89080
 4.3000e+000 89207 -3.5166e+001 -3.7758e+002 -1.7844e+001 46444 89028,89080,89054
 4.3000e+000 89184 -4.5421e+001 -4.3451e+002 -3.1400e+001 46444 89080,89132,89106
 4.3000e+000 89631 -1.1509e+002 -2.7693e+002  6.4328e+000 46040 89383,89461,89435
 4.3000e+000 89608 -1.2183e+002 -3.0646e+002 -1.7507e+001 46040 89383,89487,89461
 4.3000e+000 89585 -1.2427e+002 -3.6024e+002 -1.0416e+001 46040 89383,89435,89409
 4.3000e+000 89562 -9.8113e+001 -2.6376e+002 -3.5745e+001 46040 89383,89513,89487
 4.3000e+000 89539 -4.0051e+001 -2.3506e+002 -4.8924e+001 46040 89357,89513,89383
 4.3000e+000 90009 -1.2074e+002 -3.5153e+002 -1.7229e+000 45636 89813,89891,89839
 4.3000e+000 89986 -1.2509e+002 -3.2957e+002  1.9180e+001 45636 89787,89891,89813
 4.3000e+000 89963 -1.0766e+002 -3.2972e+002 -9.4906e+000 45636 89839,89891,89865
 4.3000e+000 89940 -1.4642e+002 -3.6658e+002  1.0226e+001 45636 89735,89891,89787
 4.3000e+000 89917 -1.1592e+002 -3.7036e+002 -1.6566e+001 45636 89735,89787,89761
 4.3000e+000 90208 -8.0498e+001 -2.7248e+002 -5.2512e+001 45175 90231,90058,90032
 4.3000e+000 90185 -4.9611e+001 -2.4929e+002 -8.0121e+001 45175 90231,90032,90136
 4.3000e+000 90162 -9.7031e+001 -2.2308e+002 -4.6525e+000 45175 90058,90110,90084
 4.3000e+000 90257 -1.1552e+002 -3.0659e+002 -1.3719e+001 45175 90110,90058,90231
 4.3000e+000 90280 -5.6220e+001 -2.6593e+002 -4.4495e+001 45175 90110,90231,90136
 4.3000e+000 90528 -8.8092e+001 -2.7911e+002 -3.6610e+001 44513 90695,90551,90407
 4.3000e+000 90505 -9.3484e+001 -2.5124e+002 -1.6842e+001 44513 90551,90355,90329
 4.3000e+000 90482 -1.1583e+002 -2.7657e+002 -3.3415e+001 44513 90623,90303,90433
 4.3000e+000 90459 -6.7468e+001 -2.6005e+002 -2.6636e+001 44513 90695,90407,90381
 4.3000e+000 90577 -1.2897e+002 -2.9227e+002 -6.3576e+001 44513 90433,90407,90551
 4.3000e+000 90600 -1.1064e+002 -2.6827e+002 -3.0962e+001 44513 90623,90433,90551
 4.3000e+000 90649 -1.1213e+002 -2.6611e+002 -3.0556e+001 44513 90329,90303,90623
 4.3000e+000 90672 -1.1359e+002 -2.6499e+002 -3.0335e+001 44513 90329,90623,90551
 4.3000e+000 90721 -1.1307e+002 -2.5400e+002 -4.1347e+001 44513 90355,90551,90695
 4.3000e+000 90744 -1.0698e+002 -2.4518e+002 -3.7608e+001 44513 90355,90695,90381
 4.3000e+000 91077 -3.6178e+000 -2.8740e+002 -1.8975e+001 44059 91100,90930,90904
 4.3000e+000 91054 -1.1223e+002 -3.0957e+002  1.4142e+001 44059 91100,90904,90982
 4.3000e+000 91031 -1.9989e+002 -3.6033e+002 -2.6225e+001 44059 90878,90982,90904
 4.3000e+000 91008 -6.4246e+001 -2.7015e+002  1.6670e+001 44059 90852,90982,90878
 4.3000e+000 91126 -1.6412e+002 -3.2759e+002 -2.2661e+001 44059 91172,91100,90956
 4.3000e+000 91149 -1.0534e+002 -2.9873e+002 -1.2823e+001 44059 90956,91100,90982
 4.3000e+000 91198 -9.2302e+000 -1.7662e+002 -8.4217e+001 44059 90930,91100,91172
 4.3000e+000 91677 -1.4373e+002 -2.2641e+002  2.2209e+001 43549 91455,91533,91481
 4.3000e+000 91654 -5.7378e+001 -2.2903e+002  3.0501e+001 43549 91429,91533,91455
 4.3000e+000 91631 -1.3910e+002 -2.2746e+002  1.0709e+001 43549 91481,91533,91507
 4.3000e+000 91608 -2.9749e+001 -2.1762e+002  1.3680e+001 43549 91429,91559,91533
 4.3000e+000 91585  3.4982e+000 -6.5998e+001 -9.7543e-001 43549 91403,91559,91429
 4.3000e+000 92006 -1.4557e+002 -3.6012e+002  1.2034e+000 43059 91781,91885,91807
 4.3000e+000 91983 -1.5129e+002 -3.3907e+002  5.5134e+001 43059 91781,91911,91885
 4.3000e+000 91960 -1.4437e+002 -3.6030e+002  1.4147e+000 43059 91807,91885,91833
 4.3000e+000 91937 -9.4263e+001 -3.4128e+002 -5.9710e+000 43059 91833,91885,91859
 4.3000e+000 92561 -1.1335e+002 -2.4936e+002 -3.0508e+001 42598 92584,92215,92189
 4.3000e+000 92538 -1.2483e+002 -2.8392e+002 -2.8168e+001 42598 92656,92584,92189
 4.3000e+000 92515 -1.1308e+002 -3.2172e+002 -8.9095e+000 42598 92656,92189,92397
 4.3000e+000 92492 -1.4830e+002 -2.2530e+002 -3.5702e+001 42598 92241,92319,92293
 4.3000e+000 92469 -1.3954e+002 -2.6640e+002  1.3069e+001 42598 92319,92397,92371
 4.3000e+000 92446 -5.6762e+001 -3.0978e+002  1.2513e+002 42598 92319,92371,92345
 4.3000e+000 92423 -1.4166e+002 -2.2924e+002 -4.7428e+001 42598 92241,92293,92267
 4.3000e+000 92610 -1.2218e+002 -2.5077e+002 -2.7329e+001 42598 92241,92215,92584
 4.3000e+000 92633 -1.1292e+002 -2.3024e+002 -3.4781e+001 42598 92241,92584,92319
 4.3000e+000 92682 -1.1526e+002 -2.3373e+002 -2.1198e+001 42598 92319,92584,92656
 4.3000e+000 92705 -9.3913e+001 -2.5925e+002 -7.0749e+000 42598 92319,92656,92397
 4.3000e+000 92953 -1.4878e+002 -3.8693e+002  2.0700e+001 42094 92976,92806,92780
 4.3000e+000 92930 -1.6461e+002 -3.6576e+002  6.4039e-001 42094 92976,92780,92754
 4.3000e+000 92907 -3.7007e+001 -3.7589e+002 -1.7604e+000 42094 93048,92832,92806
 4.3000e+000 92884 -2.1137e+002 -3.7206e+002 -2.4012e+001 42094 92728,92858,92754
 4.3000e+000 93002 -9.6400e+001 -3.5902e+002  1.0293e+001 42094 93048,92806,92976
 4.3000e+000 93025 -1.5382e+002 -3.5966e+002 -5.3455e+000 42094 92858,92976,92754
 4.3000e+000 93074 -1.1972e+002 -4.0663e+002 -4.0651e+000 42094 92858,92832,93048
 4.3000e+000 93097 -1.6856e+002 -3.8352e+002  2.9834e+000 42094 92858,93048,92976
 4.3000e+000 93605 -1.5580e+002 -4.4415e+002 -1.5880e+001 41846 93628,93412,93386
 4.3000e+000 93582 -1.1610e+002 -3.3676e+002 -6.1024e-001 41846 93628,93386,93308
 4.3000e+000 93559 -1.8114e+002 -3.5351e+002 -7.3295e+001 41846 93700,93464,93438
 4.3000e+000 93536 -1.6510e+002 -4.6487e+002  7.0125e+000 41846 93308,93386,93334
 4.3000e+000 93513 -2.1809e+002 -3.4045e+002 -5.1946e+001 41846 93334,93386,93360
 4.3000e+000 93490 -1.7312e+002 -3.1314e+002 -6.8659e+001 41846 93282,93464,93308
 4.3000e+000 93654 -1.3597e+002 -3.5701e+002 -3.2502e+001 41846 93438,93412,93628
 4.3000e+000 93677 -1.8047e+002 -3.6055e+002 -3.3637e+001 41846 93700,93438,93628
 4.3000e+000 93726 -1.6424e+002 -3.0452e+002 -6.5166e+001 41846 93308,93464,93700
 4.3000e+000 93749 -1.5689e+002 -2.9613e+002 -2.5998e+001 41846 93308,93700,93628
 4.3000e+000 94255 -1.2647e+002 -3.6910e+002  2.3387e+001 41385 93958,94114,94088
 4.3000e+000 94232 -1.1186e+002 -3.9605e+002  1.0273e+001 41385 93932,94114,93958
 4.3000e+000 94209 -2.1542e+002 -4.2705e+002  6.8194e+001 41385 93958,94088,94062
 4.3000e+000 94186 -2.2381e+002 -3.1112e+002  5.0152e+001 41385 93958,94062,93984
 4.3000e+000 94163 -1.9635e+002 -3.0342e+002  4.8065e+001 41385 93984,94062,94036
 4.3000e+000 94140 -1.3402e+002 -4.2238e+002  7.1698e+001 41385 93984,94036,94010
 4.3000e+000 94476 -4.1439e+001 -4.9562e+002  2.9005e+001 40881 94326,94378,94352
 4.3000e+000 94453 -8.4151e+001 -4.0887e+002  3.2480e+001 40881 94300,94378,94326
 4.3000e+000 94430 -1.0493e+002 -3.7851e+002  3.7416e+000 40881 94300,94404,94378
 4.3000e+000 94626 -1.0929e+002 -2.9314e+002 -4.9997e+000 40591 94649,94551,94525
 4.3000e+000 94603 -6.2137e+001 -1.8147e+002  1.6604e+000 40591 94781,94577,94551
 4.3000e+000 94675 -3.9650e+001 -2.1157e+002 -3.6184e+001 40591 94781,94551,94649
 4.3000e+000 94807 -3.9404e+000 -1.2459e+002  3.5481e+001 40591 94499,94577,94781
 4.3000e+000 94830  2.2577e+000 -1.8455e+002 -4.3615e+000 40591 94499,94781,94649
 4.3000e+000 95336 -2.4604e+002 -3.3708e+002 -5.1159e+001 40187 95013,95169,95039
 4.3000e+000 95313 -5.4544e+001 -3.0537e+002  7.5834e+000 40187 95013,95195,95169
 4.3000e+000 95290 -4.1443e+001 -3.3246e+002 -3.5056e+001 40187 95039,95143,95065
 4.3000e+000 95267 -1.8822e+002 -3.8994e+002 -5.6866e+001 40187 95039,95169,95143
 4.3000e+000 95244 -9.1419e+001 -3.1867e+002 -3.4426e+001 40187 95091,95143,95117
 4.3000e+000 95221 -2.7790e+001 -1.9781e+002 -1.1413e+001 40187 95065,95143,95091
 4.3000e+000 95665 -9.5576e+001 -2.6356e+002  1.0747e+002 39626 95466,95570,95544
 4.3000e+000 95642 -1.7461e+002 -2.1221e+002  7.0214e+001 39626 95440,95570,95466
 4.3000e+000 95619 -2.6720e+002 -3.4389e+002  6.9015e+001 39626 95466,95544,95492
 4.3000e+000 95596 -6.0310e+001 -2.6783e+002  1.0600e+002 39626 95492,95544,95518
 4.3000e+000 95913 -1.4403e+002 -3.1480e+002 -4.6183e+001 39136 96080,95936,95766
 4.3000e+000 95890 -9.8988e+001 -3.3745e+002 -2.8136e+001 39136 95936,95714,95688
 4.3000e+000 95867 -2.5114e+002 -3.3683e+002  1.2572e+001 39136 96008,95792,95766
 4.3000e+000 95844 -1.1835e+002 -3.0550e+002 -3.4719e+001 39136 96080,95766,95740
 4.3000e+000 95962 -1.9958e+002 -3.4873e+002 -3.0142e+001 39136 96008,95766,95936
 4.3000e+000 95985 -1.2978e+002 -4.1046e+002 -7.0234e+000 39136 95818,95936,95688
 4.3000e+000 96034 -1.2648e+002 -2.8265e+002  2.0246e+001 39136 95818,95792,96008
 4.3000e+000 96057 -1.1286e+002 -3.0952e+002 -2.1685e+001 39136 95818,96008,95936
 4.3000e+000 96106 -1.3137e+002 -3.1108e+002 -1.2088e+001 39136 95714,95936,96080
 4.3000e+000 96129 -9.1502e+001 -3.0020e+002 -3.1536e+000 39136 95714,96080,95740
 4.3000e+000 96350 -1.0563e+002 -2.6621e+002 -1.5369e+001 38824 96200,96278,96252
 4.3000e+000 96327 -9.0099e+001 -2.5866e+002 -1.3003e+001 38824 96174,96278,96200
 4.3000e+000 96304 -2.1665e+001 -2.3404e+002 -4.5823e+001 38824 96200,96252,96226
 4.3000e+000 96830 -1.5391e+002 -2.7936e+002 -2.0373e+001 38320 97069,96536,96484
 4.3000e+000 96807 -1.5146e+002 -2.8290e+002 -2.0174e+001 38320 97069,96484,96853
 4.3000e+000 96784 -1.7086e+002 -3.0410e+002  4.1778e+000 38320 96853,96484,96458
 4.3000e+000 96761 -9.3797e+001 -2.4501e+002 -3.0891e+001 38320 96925,96640,96614
 4.3000e+000 96738 -1.4815e+002 -2.5579e+002 -1.4391e+001 38320 96997,96666,96640
 4.3000e+000 96715 -1.2547e+002 -3.2904e+002 -8.9232e+000 38320 97141,96588,96562
 4.3000e+000 96692 -1.9348e+002 -3.2533e+002 -2.8890e+000 38320 96484,96536,96510
 4.3000e+000 96879 -1.5196e+002 -2.9952e+002 -1.2546e+001 38320 97141,96562,96853
 4.3000e+000 96902 -1.4177e+002 -2.9294e+002 -1.1711e+001 38320 96925,96614,96853
 4.3000e+000 96951 -1.4457e+002 -2.5297e+002 -1.6296e+001 38320 96997,96640,96925
 4.3000e+000 96974 -1.3781e+002 -2.4869e+002 -1.0071e+001 38320 96458,96925,96853
 4.3000e+000 97023 -1.6440e+002 -2.5922e+002 -5.8231e+000 38320 96458,96666,96997
 4.3000e+000 97046 -1.5150e+002 -2.5281e+002 -7.9635e+000 38320 96458,96997,96925
 4.3000e+000 97095 -1.5999e+002 -2.7315e+002 -4.0279e+000 38320 96562,96536,97069
 4.3000e+000 97118 -1.4514e+002 -2.8078e+002 -1.7532e+001 38320 96562,97069,96853
 4.3000e+000 97167 -7.8669e+001 -3.0200e+002 -2.1468e+001 38320 96614,96588,97141
 4.3000e+000 97190 -1.2238e+002 -2.8498e+002 -2.1616e+001 38320 96614,97141,96853
 4.3000e+000 97519 -1.2237e+002 -3.6526e+002  9.7600e+001 37766 97542,97398,97372
 4.3000e+000 97496 -1.4766e+002 -2.8882e+002  6.7205e+001 37766 97542,97372,97346
 4.3000e+000 97473 -1.4700e+002 -2.9876e+002  7.3060e+000 37766 97294,97424,97346
 4.3000e+000 97450 -1.6048e+002 -3.4562e+002 -2.1601e+000 37766 97294,97346,97320
 4.3000e+000 97568 -6.3106e+001 -3.8066e+002  3.4814e+001 37766 97424,97398,97542
 4.3000e+000 97591 -1.0325e+002 -2.9392e+002  9.5026e+000 37766 97424,97542,97346
 4.3000e+000 98048 -1.5212e+002 -2.2106e+002 -6.8136e+001 37262 98071,97878,97852
 4.3000e+000 98025 -1.3076e+002 -2.6217e+002 -2.8273e+001 37262 98071,97852,97800
 4.3000e+000 98002 -1.4659e+002 -3.1714e+002 -2.9635e+001 37262 97800,97852,97826
 4.3000e+000 97979 -1.5065e+002 -2.8290e+002  7.9942e+000 37262 97800,97930,97904
 4.3000e+000 97956 -1.0129e+002 -3.4792e+002  2.2345e+001 37262 97774,97930,97800
 4.3000e+000 98097 -2.1068e+002 -2.4977e+002 -4.7870e+001 37262 97904,97878,98071
 4.3000e+000 98120 -1.6327e+002 -2.9636e+002 -1.1847e+001 37262 97904,98071,97800
 4.3000e+000 98449 -8.0856e+001 -2.2091e+002 -2.5914e+001 36950 98472,98302,98250
 4.3000e+000 98426 -4.8782e+001 -2.1134e+002 -3.1665e+001 36950 98472,98250,98354
 4.3000e+000 98403 -1.2397e+002 -2.4304e+002  2.8014e+001 36950 98250,98302,98276
 4.3000e+000 98380 -3.1817e+001 -1.6903e+002  1.5505e+001 36950 98224,98354,98250
 4.3000e+000 98498 -5.7253e+001 -2.4595e+002 -7.1268e+000 36950 98328,98302,98472
 4.3000e+000 98521 -2.0049e+001 -2.3171e+002 -1.8228e+001 36950 98328,98472,98354
 4.3000e+000 99125 -1.6950e+002 -1.6683e+002  1.8218e+001 36296 98704,98756,98730
 4.3000e+000 99102 -1.6154e+002 -1.8799e+002  1.6246e+001 36296 98704,98938,98756
 4.3000e+000 99079 -1.1900e+002 -2.2955e+002 -5.5610e+000 36296 99148,98938,98912
 4.3000e+000 99056 -1.2646e+002 -2.3515e+002  5.4302e+001 36296 99292,99220,98782
 4.3000e+000 99033 -1.0377e+002 -2.6158e+002  5.9633e+000 36296 99148,98912,98834
 4.3000e+000 99010 -1.1886e+002 -1.9802e+002  5.9400e+001 36296 99292,98782,98756
 4.3000e+000 98987 -9.9410e+001 -4.6296e+002 -8.4869e+001 36296 98834,98912,98886
 4.3000e+000 98964 -1.7009e+002 -6.7400e+002 -1.0884e+002 36296 98834,98886,98860
 4.3000e+000 99174 -1.4568e+002 -2.8115e+002  7.9529e+000 36296 99220,98938,99148
 4.3000e+000 99197 -1.0182e+002 -3.1993e+002  3.4526e+001 36296 98808,99148,98834
 4.3000e+000 99246 -1.2372e+002 -2.2775e+002  1.3003e+002 36296 98808,98782,99220
 4.3000e+000 99269 -5.0473e+001 -2.0235e+002  4.3039e+001 36296 98808,99220,99148
 4.3000e+000 99318 -1.3386e+002 -1.9847e+002  2.8833e+001 36296 98938,99220,99292
 4.3000e+000 99341 -1.3701e+002 -2.0435e+002  3.4133e+001 36296 98938,99292,98756
 4.3000e+000 99719 -1.7417e+002 -3.6159e+002  9.0548e-001 35742 99742,99471,99601
 4.3000e+000 99696 -1.7886e+002 -2.8701e+002  3.4279e+001 35742 99445,99601,99471
 4.3000e+000 99673 -1.6688e+002 -3.4499e+002 -1.5292e+001 35742 99742,99601,99575
 4.3000e+000 99650 -1.4494e+002 -4.2002e+002 -1.1895e+001 35742 99814,99549,99523
 4.3000e+000 99627 -1.1631e+002 -3.2904e+002 -2.2195e+000 35742 99471,99523,99497
 4.3000e+000 99768 -1.3951e+002 -3.5333e+002  7.5990e+000 35742 99523,99471,99742
 4.3000e+000 99791 -1.6343e+002 -3.8956e+002 -1.0423e+001 35742 99814,99523,99742
 4.3000e+000 99840 -1.4166e+002 -3.8230e+002 -2.3527e+001 35742 99575,99549,99814
 4.3000e+000 99863 -1.5371e+002 -3.4283e+002 -2.1095e+001 35742 99575,99814,99742
 4.3000e+000 100111 -1.3166e+002 -2.9198e+002  2.0913e+001 35302 100134,99990,99938
 4.3000e+000 100088 -1.0997e+002 -2.6659e+002  7.0429e+000 35302 100134,99938,99912
 4.3000e+000 100065 -1.1023e+002 -2.6683e+002 -6.6477e+000 35302 100206,99886,100016
 4.3000e+000 100042 -1.7270e+002 -2.6615e+002  1.3297e+001 35302 99938,99990,99964
 4.3000e+000 100160 -1.0322e+002 -2.8118e+002  5.0491e+000 35302 100016,99990,100134
 4.3000e+000 100183 -1.0538e+002 -2.7080e+002 -6.4987e+000 35302 100206,100016,100134
 4.3000e+000 100232 -1.1448e+002 -2.7155e+002 -3.7564e+000 35302 99912,99886,100206
 4.3000e+000 100255 -1.0991e+002 -2.7649e+002 -3.7459e+000 35302 99912,100206,100134
 4.3000e+000 100586 -1.5805e+002 -1.8550e+002  4.3049e+001 35012 100609,100387,100361
 4.3000e+000 100563 -1.8958e+002 -1.4429e+002 -3.4918e+001 35012 100609,100361,100465
 4.3000e+000 100540 -9.1411e+001 -1.0499e+002 -7.7955e+001 35012 100361,100491,100465
 4.3000e+000 100517 -3.9641e+001 -1.2123e+002 -7.1546e+001 35012 100413,100465,100439
 4.3000e+000 100635 -7.7988e+001 -1.5059e+002  1.9196e+001 35012 100413,100387,100609
 4.3000e+000 100658 -1.0759e+002 -9.9467e+001 -6.0852e+001 35012 100413,100609,100465
 4.3000e+000 100987 -1.3477e+002 -2.9629e+002  2.5691e+001 34700 100788,100866,100814
 4.3000e+000 100964 -1.0632e+002 -2.3693e+002  4.3903e+001 34700 101010,100866,100788
 4.3000e+000 100941 -7.7889e+001 -1.8160e+002  4.7476e+001 34700 100762,100892,100866
 4.3000e+000 100918 -1.2626e+002 -2.7301e+002  1.4374e+001 34700 100814,100866,100840
 4.3000e+000 101036 -7.3487e+001 -2.1016e+002  6.9316e+001 34700 100762,100866,101010
 4.3000e+000 101493 -1.7995e+002 -3.3620e+002 -3.0526e+001 34132 101516,101349,101297
 4.3000e+000 101470 -2.1341e+002 -4.0317e+002 -4.8066e+001 34132 101588,101516,101297
 4.3000e+000 101447 -2.1476e+002 -4.2541e+002 -7.0140e+001 34132 101588,101297,101245
 4.3000e+000 101424 -1.3076e+002 -4.9566e+002 -6.5845e+001 34132 101245,101297,101271
 4.3000e+000 101401 -2.0722e+002 -3.3965e+002 -3.8849e+001 34132 101297,101349,101323
 4.3000e+000 101542 -1.8880e+002 -3.8852e+002 -2.3635e+001 34132 101375,101349,101516
 4.3000e+000 101565 -1.6693e+002 -3.8539e+002 -2.4109e+001 34132 101375,101516,101219
 4.3000e+000 101614 -1.7112e+002 -4.0580e+002 -2.4650e+001 34132 101219,101516,101588
 4.3000e+000 101637 -1.9272e+002 -4.2704e+002 -4.5705e+001 34132 101219,101588,101245
 4.3000e+000 101858 -6.5780e+001 -2.7796e+002  2.7988e+001 33720 101708,101786,101760
 4.3000e+000 101835 -4.3248e+001 -3.0509e+002  4.2920e+001 33720 101682,101786,101708
 4.3000e+000 101812 -1.0031e+002 -2.9576e+002  1.9664e+001 33720 101708,101760,101734
 4.3000e+000 102128 -4.0310e+001 -3.5102e+002 -9.3020e+000 33130 101903,102007,101929
 4.3000e+000 102105 -4.9947e+001 -4.0560e+002  1.3222e+001 33130 101903,102033,102007
 4.3000e+000 102082 -2.1839e+001 -4.2028e+002 -8.2872e+001 33130 101929,102007,101955
 4.3000e+000 102059 -6.3784e+001 -2.9775e+002  6.6629e+000 33130 101955,102007,101981
 4.3000e+000 102461 -1.1713e+002 -2.7499e+002 -2.5291e+001 32840 102236,102340,102262
 4.3000e+000 102438 -1.0164e+002 -1.9774e+002  5.5313e+000 32840 102236,102366,102340
 4.3000e+000 102415 -7.2390e+001 -2.6412e+002 -2.0744e+001 32840 102262,102340,102288
 4.3000e+000 102392 -1.4139e+002 -2.7996e+002 -5.6708e+001 32840 102288,102340,102314
 4.3000e+000 102997 -1.1645e+002 -1.9962e+002  5.5762e+001 32493 102749,102879,102853
 4.3000e+000 102974 -9.5481e+001 -1.5882e+002  4.0473e+001 32493 102723,102879,102749
 4.3000e+000 102951 -1.3570e+002 -2.4223e+002  3.8601e+001 32493 102749,102801,102775
 4.3000e+000 102928 -1.4543e+002 -2.3968e+002  3.6606e+001 32493 102749,102853,102801
 4.3000e+000 102905 -1.3671e+002 -2.2607e+002  2.9591e+001 32493 102801,102853,102827
 4.3000e+000 103454 -1.2740e+002 -2.2558e+002 -2.3289e+001 32089 103206,103336,103310
 4.3000e+000 103431 -1.0286e+002 -2.4643e+002 -2.6014e+000 32089 103180,103336,103206
 4.3000e+000 103408 -1.3939e+002 -2.5692e+002 -4.4973e+001 32089 103206,103284,103258
 4.3000e+000 103385 -1.9524e+002 -2.6909e+002 -4.9525e+001 32089 103206,103310,103284
 4.3000e+000 103362 -1.1048e+002 -1.8222e+002 -2.7055e+001 32089 103206,103258,103232
 4.3000e+000 103783 -2.2295e+002 -2.8999e+002 -3.1850e+001 31742 103558,103662,103584
 4.3000e+000 103760 -1.8394e+002 -2.3035e+002 -7.3451e+001 31742 103558,103688,103662
 4.3000e+000 103737 -1.5044e+002 -2.3619e+002 -5.7533e+001 31742 103584,103662,103636
 4.3000e+000 103714 -1.4044e+002 -2.6766e+002 -6.4706e+001 31742 103584,103636,103610
 4.3000e+000 104112 -4.1794e+001 -2.3246e+002  3.6511e+001 31402 103939,103991,103965
 4.3000e+000 104089 -7.2815e+001 -2.0054e+002  1.8012e+001 31402 103913,103991,103939
 4.3000e+000 104066 -1.0003e+002 -2.2832e+002  2.7784e+000 31402 103913,104017,103991
 4.3000e+000 104043 -1.1894e+002 -2.1124e+002 -1.0505e+001 31402 103887,104017,103913
 4.3000e+000 104569 -2.0496e+002 -3.6197e+002  9.0531e+000 30998 104321,104425,104373
 4.3000e+000 104546 -2.3498e+002 -3.7041e+002  3.4945e+000 30998 104321,104451,104425
 4.3000e+000 104523 -1.5238e+002 -3.0255e+002  4.0007e+001 30998 104373,104425,104399
 4.3000e+000 104500 -1.9203e+002 -4.2841e+002 -2.4839e+001 30998 104295,104451,104321
 4.3000e+000 104477 -2.7369e+002 -4.2676e+002  7.6264e+001 30998 104321,104373,104347
 4.3000e+000 104947 -1.8454e+002 -3.1567e+002 -3.4911e+001 30608 104751,104803,104777
 4.3000e+000 104924 -1.2383e+002 -3.2720e+002 -1.2235e+001 30608 104725,104803,104751
 4.3000e+000 104901 -1.9705e+002 -3.1776e+002  2.2043e+001 30608 104699,104803,104725
 4.3000e+000 104878 -1.7139e+002 -3.0635e+002  1.9735e+001 30608 104673,104803,104699
 4.3000e+000 104855 -1.3271e+002 -2.9535e+002 -1.1767e+001 30608 104673,104829,104803
 4.3000e+000 105276 -1.2644e+002 -2.9428e+002  1.7552e+001 30204 105427,105129,105077
 4.3000e+000 105253 -8.9199e+001 -3.1585e+002  6.4425e+001 30204 105427,105077,105051
 4.3000e+000 105230 -1.0969e+002 -2.8328e+002  2.2304e+001 30204 105077,105129,105103
 4.3000e+000 105207 -8.1802e+001 -2.6367e+002  4.0297e+001 30204 105299,105181,105155
 4.3000e+000 105325 -8.6812e+001 -2.5955e+002  1.6329e+001 30204 105129,105181,105299
 4.3000e+000 105453 -1.4997e+002 -3.0974e+002  3.8356e+001 30204 105181,105129,105427
 4.3000e+000 105476 -1.7212e+002 -3.5848e+002  9.1374e+001 30204 105181,105427,105051
 4.3000e+000 105903 -1.0790e+002 -2.5458e+002 -1.9991e+001 29700 105606,105762,105736
 4.3000e+000 105880 -1.3841e+002 -2.6095e+002  5.7980e-001 29700 105580,105762,105606
 4.3000e+000 105857 -1.6323e+002 -3.2120e+002 -1.9215e+001 29700 105606,105710,105632
 4.3000e+000 105834 -1.3627e+002 -2.6873e+002 -9.5320e+000 29700 105606,105736,105710
 4.3000e+000 105811 -1.5490e+002 -2.9161e+002 -2.1385e+001 29700 105632,105710,105684
 4.3000e+000 105788 -1.4467e+002 -2.6735e+002 -1.4242e+001 29700 105632,105684,105658
 4.3000e+000 106102 -4.3909e+001 -3.0302e+002  1.5127e+001 29124 105978,106030,106004
 4.3000e+000 106079 -7.5914e+001 -2.9750e+002  1.6033e+001 29124 105926,106030,105978
 4.3000e+000 106056 -8.2020e+001 -3.3163e+002  4.4478e+001 29124 105926,105978,105952
 4.3000e+000 106301 -8.5167e+001 -3.1156e+002  1.2437e+000 28712 106151,106229,106203
 4.3000e+000 106278 -1.0101e+002 -3.4478e+002 -1.5749e+001 28712 106125,106229,106151
 4.3000e+000 106255 -8.8750e+001 -3.2829e+002  1.7644e+001 28712 106151,106203,106177
 4.3000e+000 106551 -1.1228e+002 -3.9210e+002  1.7945e+001 28258 106352,106404,106378
 4.3000e+000 106528 -1.5328e+002 -3.9588e+002  2.3061e+000 28258 106352,106456,106404
 4.3000e+000 106505 -1.5229e+002 -4.0962e+002 -3.0557e+000 28258 106326,106456,106352
 4.3000e+000 106482 -1.3916e+002 -3.7397e+002 -6.4365e+000 28258 106404,106456,106430
 4.3000e+000 107012 -1.2882e+002 -3.3236e+002  6.7131e+001 27818 107035,106790,106764
 4.3000e+000 106989 -1.1185e+002 -3.1565e+002  2.4875e+001 27818 107035,106764,106868
 4.3000e+000 106966 -7.8378e+001 -3.7657e+002  3.6626e+001 27818 107107,106842,106816
 4.3000e+000 106943 -1.7253e+002 -2.9565e+002  1.4580e+001 27818 106738,106868,106764
 4.3000e+000 106920 -1.6188e+002 -2.6193e+002  2.9285e+001 27818 106738,106894,106868
 4.3000e+000 107061 -5.4281e+001 -3.1689e+002  7.5999e+001 27818 106816,106790,107035
 4.3000e+000 107084 -9.7567e+001 -3.5259e+002  3.8491e+001 27818 107107,106816,107035
 4.3000e+000 107133 -7.5613e+001 -3.4150e+002  1.9544e+001 27818 106868,106842,107107
 4.3000e+000 107156 -8.7712e+001 -3.0544e+002  2.5937e+001 27818 106868,107107,107035
 4.3000e+000 107613 -3.9575e+001 -2.4979e+002  5.4098e+001 27312 107339,107469,107365
 4.3000e+000 107590 -3.4138e+000 -2.2763e+002  4.4721e+001 27312 107339,107495,107469
 4.3000e+000 107567 -4.1932e+001 -2.4303e+002  2.6912e+001 27312 107391,107469,107443
 4.3000e+000 107544 -4.1838e+001 -2.6106e+002  2.3018e+001 27312 107365,107469,107391
 4.3000e+000 107521 -1.1414e+002 -2.6580e+002  1.0403e+001 27312 107391,107443,107417
 4.3000e+000 107991 -1.3436e+002 -3.7375e+002  1.5568e+001 26858 108086,108014,107795
 4.3000e+000 107968 -1.4754e+002 -3.8590e+002 -1.9074e+001 26858 108014,107717,107873
 4.3000e+000 107945 -1.5086e+002 -3.9092e+002  2.6029e+001 26858 108158,108086,107795
 4.3000e+000 107922 -1.2130e+002 -3.9191e+002  2.5106e+001 26858 108158,107795,107769
 4.3000e+000 107899 -1.1202e+002 -4.6747e+002  6.4645e+001 26858 107821,107873,107847
 4.3000e+000 108040 -1.4176e+002 -4.2385e+002  2.2474e+001 26858 107821,107795,108014
 4.3000e+000 108063 -8.8264e+001 -4.0060e+002  2.3079e+000 26858 107821,108014,107873
 4.3000e+000 108112 -1.7896e+002 -3.9199e+002  1.7762e+001 26858 107717,108014,108086
 4.3000e+000 108135 -1.5032e+002 -3.9808e+002  4.0419e+001 26858 107717,108086,107743
 4.3000e+000 108184 -1.1699e+002 -3.8286e+002  3.6764e+001 26858 107743,108086,108158
 4.3000e+000 108207 -1.0326e+002 -3.9519e+002  3.6976e+001 26858 107743,108158,107769
 4.3000e+000 108634 -1.7321e+002 -3.5655e+002  6.5550e+000 26404 108657,108415,108363
 4.3000e+000 108611 -1.9455e+002 -3.8469e+002  3.9491e+001 26404 108657,108363,108337
 4.3000e+000 108588 -1.6982e+002 -3.6335e+002  3.9914e+001 26404 108729,108311,108467
 4.3000e+000 108565 -1.8604e+002 -4.2288e+002  6.1807e+000 26404 108801,108441,108415
 4.3000e+000 108542 -2.5708e+002 -4.0333e+002  5.0564e+001 26404 108311,108493,108467
 4.3000e+000 108519 -1.2061e+002 -3.5840e+002  6.2417e+000 26404 108363,108415,108389
 4.3000e+000 108683 -2.2865e+002 -3.8027e+002  1.1616e+001 26404 108801,108415,108657
 4.3000e+000 108706 -2.1759e+002 -3.7705e+002  3.1602e+001 26404 108729,108467,108657
 4.3000e+000 108755 -1.3874e+002 -3.8366e+002  3.9815e+001 26404 108337,108311,108729
 4.3000e+000 108778 -1.6316e+002 -3.8053e+002  3.0803e+001 26404 108337,108729,108657
 4.3000e+000 108827 -2.2750e+002 -5.0846e+002 -1.8597e+001 26404 108467,108441,108801
 4.3000e+000 108850 -2.4981e+002 -4.3465e+002 -1.2879e+001 26404 108467,108801,108657
 4.3000e+000 109228 -1.7336e+002 -3.7043e+002 -1.8158e+001 26064 109006,109084,109058
 4.3000e+000 109205 -1.5483e+002 -3.4577e+002  6.7540e+000 26064 108980,109084,109006
 4.3000e+000 109182 -1.6875e+002 -3.3167e+002 -1.1418e+001 26064 108980,109110,109084
 4.3000e+000 109159 -1.6652e+002 -3.9027e+002 -2.6452e+000 26064 109006,109058,109032
 4.3000e+000 109136 -5.7312e+001 -2.9824e+002  1.1189e+001 26064 108954,109110,108980
 4.3000e+000 109427 -4.4006e+001 -3.1581e+002 -6.3558e+001 25660 109303,109355,109329
 4.3000e+000 109404 -8.9059e+001 -4.0607e+002 -1.4998e+001 25660 109277,109355,109303
 4.3000e+000 109381 -5.2464e+001 -3.8197e+002 -4.3902e+000 25660 109251,109355,109277
 4.3000e+000 109577 -6.4366e+001 -1.5774e+002  5.4457e+001 25306 109476,109528,109502
 4.3000e+000 109554  1.4630e+001 -1.3849e+002  3.7905e+001 25306 109450,109528,109476
 4.3000e+000 109778 -1.2281e+002 -3.3724e+002  1.0406e+001 24944 109628,109706,109654
 4.3000e+000 109755 -1.3236e+002 -3.2812e+002  2.0848e+000 24944 109602,109706,109628
 4.3000e+000 109732 -1.0798e+002 -3.1584e+002 -2.0148e+000 24944 109654,109706,109680
 4.3000e+000 110126 -1.1699e+002 -4.3058e+002  1.3278e+001 24440 110149,109907,109855
 4.3000e+000 110103 -1.1096e+002 -4.5388e+002  2.6715e+001 24440 110149,109855,109985
 4.3000e+000 110080 -9.4190e+001 -3.7358e+002  8.3464e+000 24440 109855,109907,109881
 4.3000e+000 110057 -9.8092e+001 -3.5422e+002  1.1751e+002 24440 109829,109985,109855
 4.3000e+000 110034 -1.0643e+002 -4.3095e+002  1.8390e+000 24440 109907,109959,109933
 4.3000e+000 110011 -5.8113e+001 -3.6404e+002  1.1056e+001 24440 109803,109985,109829
 4.3000e+000 110175 -1.1244e+002 -4.1085e+002  9.6253e+000 24440 109959,109907,110149
 4.3000e+000 110198 -1.0629e+002 -4.3057e+002  2.5448e+001 24440 109959,110149,109985
 4.3000e+000 110301 -1.5020e+001 -2.3919e+002  1.6449e+000 24028 110223,110275,110249
 4.3000e+000 110573 -5.3816e+001 -2.5722e+002  2.0253e+001 23467 110400,110452,110426
 4.3000e+000 110550 -9.0534e+001 -3.0161e+002  3.9802e-001 23467 110374,110452,110400
 4.3000e+000 110527 -9.2725e+001 -3.0246e+002  4.6450e+000 23467 110348,110452,110374
 4.3000e+000 110504 -6.7903e+001 -2.9080e+002 -2.4987e+000 23467 110348,110478,110452
 4.3000e+000 111004 -2.0453e+002 -4.3894e+002 -4.1352e+001 22963 111027,110733,110707
 4.3000e+000 110981 -1.9808e+002 -4.1663e+002  1.8850e+001 22963 111027,110707,110681
 4.3000e+000 110958 -9.9068e+001 -3.7336e+002 -4.5534e+001 22963 111099,110759,110733
 4.3000e+000 110935 -1.2952e+002 -3.6147e+002 -3.0878e+001 22963 111171,110863,110811
 4.3000e+000 110912 -6.3832e+001 -2.6935e+002 -4.9078e+001 22963 110759,110811,110785
 4.3000e+000 110889 -1.4176e+002 -3.8146e+002 -2.4798e+001 22963 110811,110863,110837
 4.3000e+000 111053 -1.4329e+002 -4.0493e+002 -2.8007e+001 22963 111099,110733,111027
 4.3000e+000 111076 -1.2125e+002 -3.9340e+002 -2.5055e+001 22963 111171,110811,111027
 4.3000e+000 111125 -9.6746e+001 -3.6593e+002 -6.8823e+001 22963 110811,110759,111099
 4.3000e+000 111148 -1.0344e+002 -3.6127e+002 -5.7890e+001 22963 110811,111099,111027
 4.3000e+000 111197 -1.3056e+002 -3.1072e+002 -3.8673e+001 22963 110681,110863,111171
 4.3000e+000 111220 -1.3488e+002 -3.4821e+002 -1.8693e+001 22963 110681,111171,111027
 4.3000e+000 111726 -1.9668e+002 -3.8252e+002  9.9215e+000 22459 111749,111507,111429
 4.3000e+000 111703 -1.8382e+002 -3.7916e+002 -8.2771e+000 22459 111749,111429,111585
 4.3000e+000 111680 -1.5726e+002 -4.2827e+002 -5.7053e+000 22459 111403,111585,111429
 4.3000e+000 111657 -1.8795e+002 -4.1999e+002  1.7876e+001 22459 111507,111559,111533
 4.3000e+000 111634 -2.5938e+002 -3.6823e+002  2.4994e+001 22459 111455,111507,111481
 4.3000e+000 111611 -2.6961e+002 -3.6782e+002  3.4391e+001 22459 111429,111507,111455
 4.3000e+000 111775 -1.9922e+002 -4.0975e+002  2.2972e+001 22459 111559,111507,111749
 4.3000e+000 111798 -1.8430e+002 -3.9155e+002  5.4226e+000 22459 111559,111749,111585
 4.3000e+000 112046 -8.7861e+001 -3.2395e+002 -4.3737e+001 21898 112069,111925,111873
 4.3000e+000 112023 -8.4790e+001 -3.2739e+002 -1.1430e+001 21898 112069,111873,111847
 4.3000e+000 112000 -1.1388e+002 -3.3903e+002 -1.9011e+001 21898 111821,111951,111847
 4.3000e+000 111977 -9.9025e+001 -2.5647e+002 -2.8969e+001 21898 111873,111925,111899
 4.3000e+000 112095 -1.3374e+002 -3.4117e+002 -4.9191e+001 21898 111951,111925,112069
 4.3000e+000 112118 -1.1151e+002 -3.3709e+002 -1.8173e+001 21898 111951,112069,111847
 4.3000e+000 112498 -1.5203e+002 -3.5576e+002 -3.1687e+001 21608 112521,112276,112224
 4.3000e+000 112475 -9.8943e+001 -3.5939e+002 -2.2708e+000 21608 112521,112224,112380
 4.3000e+000 112452 -1.0713e+002 -4.1907e+002  2.4515e+001 21608 112302,112380,112354
 4.3000e+000 112429 -1.7904e+002 -4.0708e+002 -2.0170e+001 21608 112224,112276,112250
 4.3000e+000 112406  6.0621e+001 -4.3558e+002 -1.0147e+001 21608 112302,112354,112328
 4.3000e+000 112547 -1.0905e+002 -3.1145e+002 -6.5068e+000 21608 112302,112276,112521
 4.3000e+000 112570 -7.2621e+001 -3.4805e+002  1.3698e+001 21608 112302,112521,112380
 4.3000e+000 112948 -1.7461e+002 -3.6805e+002 -6.6587e+000 20882 112971,112752,112700
 4.3000e+000 112925 -1.3649e+002 -3.5515e+002 -1.4163e+001 20882 112971,112700,112830
 4.3000e+000 112902 -2.2034e+002 -3.9881e+002  2.3297e+001 20882 112778,112830,112804
 4.3000e+000 112879 -1.2665e+002 -2.9017e+002 -1.9580e+001 20882 112674,112830,112700
 4.3000e+000 112856 -2.1372e+002 -3.8463e+002  7.0166e+000 20882 112700,112752,112726
 4.3000e+000 112997 -1.7569e+002 -3.6770e+002  1.4416e+001 20882 112778,112752,112971
 4.3000e+000 113020 -1.5385e+002 -3.6139e+002  6.0504e+000 20882 112778,112971,112830
 4.3000e+000 113526 -1.2811e+002 -3.6866e+002  2.7206e+000 20428 113255,113385,113333
 4.3000e+000 113503 -1.3969e+002 -4.0427e+002  2.6695e+000 20428 113229,113385,113255
 4.3000e+000 113480 -2.0732e+001 -3.6127e+002  3.9405e+000 20428 113255,113333,113281
 4.3000e+000 113457 -1.2071e+002 -3.9671e+002  5.4935e+000 20428 113203,113385,113229
 4.3000e+000 113434 -6.7392e+001 -3.7738e+002 -1.1298e+001 20428 113281,113333,113307
 4.3000e+000 113411 -1.5738e+002 -3.6402e+002  1.0051e+001 20428 113333,113385,113359
 4.3000e+000 113774 -2.1086e+001 -3.5384e+002  1.4041e+001 19917 113797,113601,113549
 4.3000e+000 113751 -5.8842e+001 -3.6157e+002  1.8892e+001 19917 113869,113797,113549
 4.3000e+000 113728 -5.6158e+001 -3.6615e+002  3.6500e+001 19917 113869,113549,113679
 4.3000e+000 113705 -3.2033e+001 -3.5134e+002  2.8565e+001 19917 113549,113601,113575
 4.3000e+000 113823 -5.9658e+001 -4.3052e+002 -1.5097e+000 19917 113627,113601,113797
 4.3000e+000 113846 -2.1905e+001 -3.3668e+002 -9.2936e+000 19917 113627,113797,113653
 4.3000e+000 113895 -5.0041e+001 -3.1962e+002  5.3207e+000 19917 113653,113797,113869
 4.3000e+000 113918 -6.4457e+001 -3.3092e+002  2.7731e+001 19917 113653,113869,113679
 4.3000e+000 114166 -1.6303e+002 -3.6959e+002 -6.0342e+000 19413 113993,114045,114019
 4.3000e+000 114143 -1.5471e+002 -3.4500e+002  2.2996e+000 19413 113967,114045,113993
 4.3000e+000 114120 -1.2843e+002 -3.3577e+002  1.9187e+001 19413 113967,114071,114045
 4.3000e+000 114097 -1.0663e+002 -3.7932e+002 -5.6134e+000 19413 113941,114071,113967
 4.3000e+000 114438 -1.5267e+002 -4.0328e+002  3.7236e+000 19001 114213,114265,114239
 4.3000e+000 114415 -1.1031e+002 -3.1452e+002 -9.2460e+000 19001 114213,114343,114265
 4.3000e+000 114392 -1.6309e+002 -4.3272e+002 -1.9666e+001 19001 114265,114343,114317
 4.3000e+000 114369  3.0984e+001 -3.4917e+002 -8.0439e+000 19001 114265,114317,114291
 4.3000e+000 114639 -1.1585e+002 -4.8027e+002  2.3596e+001 18554 114489,114541,114515
 4.3000e+000 114616 -1.0159e+002 -4.1554e+002  4.1382e+000 18554 114489,114567,114541
 4.3000e+000 114593 -2.1841e+002 -4.7914e+002 -3.2141e+001 18554 114463,114567,114489
 4.3000e+000 115043 -8.0207e+001 -3.5884e+002  1.2942e+001 18164 114795,114925,114821
 4.3000e+000 115020 -7.1624e+001 -3.7923e+002  2.0560e+001 18164 114769,114925,114795
 4.3000e+000 114997 -4.3482e+001 -3.7720e+002 -3.1224e+000 18164 115066,114873,114821
 4.3000e+000 114974 -4.1175e+001 -3.2381e+002 -1.3180e+001 18164 115066,114821,114925
 4.3000e+000 114951  2.3855e+001 -3.7836e+002 -3.7122e+001 18164 114821,114873,114847
 4.3000e+000 115092 -6.2177e+001 -3.3851e+002 -3.1170e+001 18164 114899,114873,115066
 4.3000e+000 115115 -3.7789e+001 -2.5693e+002 -4.3892e+001 18164 114899,115066,114925
 4.3000e+000 115265 -1.0293e+002 -3.9557e+002  4.4561e+000 17852 115164,115216,115190
 4.3000e+000 115242 -1.1340e+002 -4.1770e+002 -4.6476e-001 17852 115138,115216,115164
 4.3000e+000 115464 -2.5076e+002 -5.6256e+002  7.7734e+000 17346 115288,115366,115340
 4.3000e+000 115441 -3.8551e+002 -4.3739e+002 -1.6000e+001 17346 115288,115392,115366
 4.3000e+000 115418 -2.2495e+002 -6.3217e+002 -1.9832e+001 17346 115288,115340,115314
 4.3000e+000 115736 -9.9239e+001 -3.6067e+002  1.5461e+001 16942 115563,115641,115615
 4.3000e+000 115713 -1.1109e+002 -3.5889e+002  5.0362e+000 16942 115511,115641,115563
 4.3000e+000 115690 -2.5193e+002 -4.1966e+002  2.2688e+001 16942 115563,115615,115589
 4.3000e+000 115667 -1.3037e+002 -3.8891e+002  1.3309e+001 16942 115511,115563,115537
 4.3000e+000 116091 -1.8437e+002 -4.3056e+002 -1.6394e+001 16388 115918,115970,115944
 4.3000e+000 116068 -1.5807e+002 -3.4523e+002 -1.0818e+001 16388 115918,115996,115970
 4.3000e+000 116045 -2.1332e+002 -4.3748e+002  1.4558e+001 16388 115892,115996,115918
 4.3000e+000 116022 -1.4000e+002 -3.9849e+002  4.8832e+001 16388 115866,115996,115892
 4.3000e+000 116192 -6.2563e+001 -4.5252e+002 -6.3133e+001 15810 116114,116166,116140
 4.3000e+000 116342 -1.6996e+002 -5.4563e+002  2.9994e+001 15419 116241,116293,116267
 4.3000e+000 116319 -2.4237e+002 -6.7053e+002 -1.9431e+001 15419 116215,116293,116241
 4.3000e+000 116445 -1.8222e+002 -3.7146e+002  2.9754e+000 421 116367,116419,116393
 4.4000e+000 68477 -2.4167e+002 -3.5790e+002  2.1574e+000 68018 68327,68379,68353
 4.4000e+000 68454 -2.5687e+002 -4.7256e+002  3.5198e+001 68018 68301,68379,68327
 4.4000e+000 68431 -1.1573e+002 -5.2680e+002  8.9093e+001 68018 68301,68405,68379
 4.4000e+000 68578 -1.6330e+002 -3.3707e+002  1.2142e+000 67820 68500,68552,68526
 4.4000e+000 68728 -1.7674e+002 -3.1491e+002 -4.7176e+000 67508 68601,68653,68627
 4.4000e+000 68705 -2.7140e+002 -2.4453e+002 -4.6479e+001 67508 68601,68679,68653
 4.4000e+000 68927 -5.2205e+001 -2.9860e+002 -5.8658e+000 67310 68777,68829,68803
 4.4000e+000 68904 -7.8398e+001 -3.4533e+002  6.4187e+000 67310 68751,68829,68777
 4.4000e+000 68881 -6.2930e+001 -3.5061e+002  1.9051e+001 67310 68751,68855,68829
 4.4000e+000 69386 -1.4087e+002 -3.6950e+002 -1.8108e+001 67020 69216,69268,69242
 4.4000e+000 69363 -1.2844e+002 -2.8681e+002 -3.6195e+001 67020 69138,69268,69216
 4.4000e+000 69340 -9.5948e+001 -2.5905e+002 -2.1423e+001 67020 69112,69268,69138
 4.4000e+000 69317 -1.7100e+002 -3.0800e+002  2.2710e+001 67020 69138,69190,69164
 4.4000e+000 69294 -1.7862e+002 -2.8281e+002 -1.5880e+001 67020 69138,69216,69190
 4.4000e+000 69536 -2.7415e+002 -6.7158e+002 -5.4413e+001 66708 69435,69487,69461
 4.4000e+000 69513 -2.0101e+002 -7.5600e+002 -8.7002e+000 66708 69409,69487,69435
 4.4000e+000 69735 -1.7250e+002 -3.4837e+002  7.8510e+000 66346 69585,69637,69611
 4.4000e+000 69712 -1.4375e+002 -3.3122e+002 -1.6094e+000 66346 69559,69637,69585
 4.4000e+000 69689 -1.3098e+002 -3.2911e+002 -3.2221e+001 66346 69559,69663,69637
 4.4000e+000 69985 -2.4296e+002 -4.1324e+002  5.6306e+000 66148 69786,69890,69864
 4.4000e+000 69962 -2.5079e+002 -4.1833e+002  8.6321e+000 66148 69760,69890,69786
 4.4000e+000 69939 -1.7936e+002 -3.8933e+002 -5.5862e+001 66148 69786,69864,69838
 4.4000e+000 69916 -2.0734e+002 -4.1497e+002 -2.3469e+001 66148 69786,69838,69812
 4.4000e+000 70137 -1.1892e+002 -4.5480e+002 -2.6612e+001 65950 70036,70088,70062
 4.4000e+000 70114 -1.0131e+002 -5.0518e+002  2.3745e+001 65950 70010,70088,70036
 4.4000e+000 70470 -9.0722e+001 -3.3877e+002  2.7619e+001 65546 70245,70323,70271
 4.4000e+000 70447 -6.5575e+001 -3.0177e+002  1.2458e+001 65546 70245,70375,70323
 4.4000e+000 70424 -8.2982e+001 -3.7919e+002  1.3524e+001 65546 70323,70375,70349
 4.4000e+000 70401 -7.0842e+001 -3.1180e+002  1.2650e+001 65546 70271,70323,70297
 4.4000e+000 70620 -1.5389e+002 -3.9825e+002  1.2915e+001 65348 70493,70545,70519
 4.4000e+000 70597 -1.0602e+002 -4.1359e+002  1.7782e+001 65348 70493,70571,70545
 4.4000e+000 70721 -2.0482e+002 -4.1827e+002  3.0768e+001 65150 70643,70695,70669
 4.4000e+000 71020 -1.4577e+002 -3.2919e+002  5.3510e+000 64952 71043,70850,70824
 4.4000e+000 70997 -1.2722e+002 -2.8382e+002  4.8710e+000 64952 71043,70824,70772
 4.4000e+000 70974 -1.3818e+002 -3.7890e+002  6.2663e+000 64952 71115,70746,70876
 4.4000e+000 70951 -1.0923e+002 -3.7822e+002 -2.4255e+000 64952 70746,70902,70876
 4.4000e+000 70928 -1.3040e+002 -2.4056e+002 -2.2206e+001 64952 70772,70824,70798
 4.4000e+000 71069 -1.1842e+002 -3.1520e+002  1.1909e+001 64952 70876,70850,71043
 4.4000e+000 71092 -1.3605e+002 -3.5712e+002  7.2948e+000 64952 71115,70876,71043
 4.4000e+000 71141 -1.5614e+002 -3.5374e+002 -1.3198e+001 64952 70772,70746,71115
 4.4000e+000 71164 -1.4612e+002 -3.2104e+002 -1.2773e+001 64952 70772,71115,71043
 4.4000e+000 71365 -3.9901e+000 -4.1152e+002 -5.2874e+000 64662 71215,71293,71267
 4.4000e+000 71342  6.0451e+001 -3.8978e+002 -6.7008e+001 64662 71189,71293,71215
 4.4000e+000 71319  3.0805e+001 -3.4266e+002  6.5968e+000 64662 71215,71267,71241
 4.4000e+000 71615 -9.5177e+001 -3.5303e+002 -4.6240e+000 64350 71710,71638,71468
 4.4000e+000 71592 -1.1809e+002 -3.4746e+002 -1.1643e+001 64350 71638,71416,71390
 4.4000e+000 71569 -1.0189e+002 -3.2935e+002  1.5083e+001 64350 71710,71468,71442
 4.4000e+000 71546  6.4589e+001 -3.3759e+002 -5.8194e+001 64350 71390,71520,71494
 4.4000e+000 71664 -8.9076e+001 -3.5194e+002  4.0908e-001 64350 71494,71468,71638
 4.4000e+000 71687 -9.0274e+001 -3.5937e+002  4.6504e-001 64350 71494,71638,71390
 4.4000e+000 71736 -8.6394e+001 -3.0554e+002  2.4656e+000 64350 71416,71638,71710
 4.4000e+000 71759 -8.4220e+001 -2.8159e+002  2.7833e+001 64350 71416,71710,71442
 4.4000e+000 72318 -9.9678e+001 -5.5794e+002 -2.2470e+001 63837 71972,72024,71998
 4.4000e+000 72295 -1.5577e+002 -3.5912e+002 -1.4537e+000 63837 72341,71972,71946
 4.4000e+000 72272 -1.4118e+002 -2.8911e+002  1.3206e+001 63837 72413,72341,71946
 4.4000e+000 72249 -1.2982e+002 -2.6279e+002  4.3524e+000 63837 72413,71946,72128
 4.4000e+000 72226 -1.9985e+002 -3.1554e+002  1.8244e+000 63837 72024,72076,72050
 4.4000e+000 72203 -1.7064e+002 -2.9103e+002 -9.9596e+000 63837 72024,72102,72076
 4.4000e+000 72180 -8.4128e+001 -2.4698e+002  2.1727e+001 63837 71946,72154,72128
 4.4000e+000 72367 -1.8565e+002 -3.8470e+002 -6.7936e+001 63837 72024,71972,72341
 4.4000e+000 72390 -1.4521e+002 -3.1495e+002 -2.5647e+001 63837 72024,72341,72102
 4.4000e+000 72439 -1.1035e+002 -3.3223e+002  5.3875e+000 63837 72102,72341,72413
 4.4000e+000 72462 -1.0090e+002 -3.0593e+002 -5.4952e-001 63837 72102,72413,72128
 4.4000e+000 72791 -1.7450e+002 -3.3738e+002 -3.3443e+001 63383 72592,72696,72670
 4.4000e+000 72768 -1.7750e+002 -3.1309e+002 -5.9996e+001 63383 72566,72696,72592
 4.4000e+000 72745 -1.7308e+002 -2.9440e+002  1.3039e+000 63383 72592,72670,72618
 4.4000e+000 72722 -1.6582e+002 -2.7610e+002  1.2319e+000 63383 72618,72670,72644
 4.4000e+000 73297 -2.0701e+002 -2.9631e+002 -1.6178e+000 63185 73000,73156,73130
 4.4000e+000 73274 -2.0768e+002 -3.0813e+002  3.8596e+001 63185 72974,73156,73000
 4.4000e+000 73251 -1.5462e+002 -3.4230e+002 -5.6530e+000 63185 73000,73052,73026
 4.4000e+000 73228 -1.7081e+002 -3.0603e+002 -1.5188e+001 63185 73000,73130,73052
 4.4000e+000 73205 -1.6870e+002 -3.4190e+002 -5.1363e+001 63185 73052,73130,73104
 4.4000e+000 73182 -1.6013e+002 -3.8132e+002 -5.5368e+001 63185 73052,73104,73078
 4.4000e+000 73545 -6.8877e+001 -3.2063e+002  2.9202e+000 62781 73568,73398,73372
 4.4000e+000 73522 -4.9555e+001 -2.9146e+002  1.1935e+001 62781 73568,73372,73346
 4.4000e+000 73499 -9.1755e+001 -3.0342e+002 -8.1914e+000 62781 73640,73320,73424
 4.4000e+000 73476 -9.8798e+001 -1.9197e+002 -3.3484e+001 62781 73320,73450,73424
 4.4000e+000 73594 -5.5609e+001 -2.9468e+002 -4.7851e+000 62781 73424,73398,73568
 4.4000e+000 73617 -7.2596e+001 -2.9544e+002 -8.3154e+000 62781 73640,73424,73568
 4.4000e+000 73666 -8.9032e+001 -2.9973e+002  7.9334e+000 62781 73346,73320,73640
 4.4000e+000 73689 -7.9001e+001 -2.9614e+002  7.9343e+000 62781 73346,73640,73568
 4.4000e+000 74035 -1.2350e+002 -3.4430e+002 -5.5538e+000 62363 74058,73868,73842
 4.4000e+000 74012 -1.1445e+002 -3.1643e+002 -2.6648e+001 62363 74130,74058,73842
 4.4000e+000 73989 -1.0390e+002 -3.1360e+002 -2.8731e+001 62363 74130,73842,73816
 4.4000e+000 73966 -1.6963e+002 -3.5755e+002  3.9967e+000 62363 74202,73764,73894
 4.4000e+000 73943 -2.1878e+002 -3.2475e+002  5.1719e+000 62363 73712,73894,73764
 4.4000e+000 73920 -2.3586e+002 -3.4485e+002 -3.3897e+000 62363 73712,73764,73738
 4.4000e+000 74084 -1.2410e+002 -3.3917e+002 -5.3572e+000 62363 73894,73868,74058
 4.4000e+000 74107 -1.5525e+002 -3.4231e+002  1.5706e+001 62363 74202,73894,74058
 4.4000e+000 74156 -1.2702e+002 -3.2251e+002  9.4771e+000 62363 73790,74058,74130
 4.4000e+000 74179 -7.8021e+001 -3.0399e+002  1.0771e+001 62363 73790,74130,73816
 4.4000e+000 74228 -1.8604e+002 -3.6468e+002 -1.8569e+001 62363 73790,73764,74202
 4.4000e+000 74251 -1.7545e+002 -3.4851e+002 -6.9420e+000 62363 73790,74202,74058
 4.4000e+000 74403 -1.3436e+001 -3.7220e+002  2.4821e+001 62115 74426,74302,74276
 4.4000e+000 74380  5.5901e+001 -3.5523e+002  5.3269e+001 62115 74426,74276,74354
 4.4000e+000 74452 -7.9270e+001 -3.3537e+002  2.4147e+001 62115 74328,74302,74426
 4.4000e+000 74475 -1.4225e+001 -3.2046e+002  5.4430e+001 62115 74328,74426,74354
 4.4000e+000 74578  5.7443e+001 -2.0205e+002  1.9738e+000 61825 74500,74552,74526
 4.4000e+000 74982 -1.8244e+002 -3.1614e+002  2.3803e+000 61513 75005,74734,74708
 4.4000e+000 74959 -1.7687e+002 -3.0503e+002 -1.4431e+000 61513 75005,74708,74864
 4.4000e+000 74936 -2.2445e+002 -3.2304e+002  2.2472e+001 61513 75077,74812,74734
 4.4000e+000 74913 -2.0205e+002 -3.2765e+002 -2.7966e+001 61513 74734,74786,74760
 4.4000e+000 74890 -1.9745e+002 -2.8967e+002 -1.4210e+000 61513 74734,74812,74786
 4.4000e+000 75031 -1.7091e+002 -3.2327e+002  4.3106e+000 61513 75077,74734,75005
 4.4000e+000 75054 -1.3730e+002 -3.1489e+002  4.5542e+001 61513 74838,75005,74864
 4.4000e+000 75103 -2.5489e+002 -3.3824e+002  7.0345e+001 61513 74838,74812,75077
 4.4000e+000 75126 -2.1967e+002 -3.5163e+002  5.2372e+001 61513 74838,75077,75005
 4.4000e+000 75553 -9.0247e+001 -2.9068e+002 -1.0708e+001 61060 75576,75360,75308
 4.4000e+000 75530 -9.3505e+001 -3.0910e+002 -1.2392e+001 61060 75576,75308,75230
 4.4000e+000 75507 -8.2627e+001 -2.7924e+002 -4.3020e-001 61060 75308,75360,75334
 4.4000e+000 75484 -1.2229e+002 -3.5826e+002  2.0570e+001 61060 75230,75308,75256
 4.4000e+000 75461 -8.7264e+001 -3.3412e+002  9.9624e+000 61060 75256,75308,75282
 4.4000e+000 75438 -1.0238e+002 -2.8511e+002  3.6004e+001 61060 75360,75412,75386
 4.4000e+000 75602 -6.9440e+001 -3.0697e+002  1.5505e+000 61060 75412,75360,75576
 4.4000e+000 75625 -8.4173e+001 -3.4216e+002 -4.7217e+000 61060 75412,75576,75230
 4.4000e+000 76052 -1.3338e+002 -3.0028e+002  4.9453e+000 60442 75755,75859,75833
 4.4000e+000 76029 -1.5632e+002 -2.8575e+002 -2.0233e+001 60442 75729,75859,75755
 4.4000e+000 76006 -1.3910e+002 -2.7951e+002  1.8662e+001 60442 75755,75833,75807
 4.4000e+000 75983 -1.3348e+002 -3.3030e+002  1.0291e+001 60442 75755,75807,75781
 4.4000e+000 75960  1.0051e+000 -5.2436e+002  2.0253e+001 60442 75729,75911,75859
 4.4000e+000 75937 -2.6928e+002 -1.2973e+003  8.3228e+001 60442 75859,75911,75885
 4.4000e+000 76430 -1.3902e+002 -3.5811e+002 -1.5412e+001 59788 76453,76286,76234
 4.4000e+000 76407 -1.5047e+002 -4.0996e+002  5.9925e+000 59788 76453,76234,76182
 4.4000e+000 76384 -1.5566e+002 -2.7510e+002  4.4875e+001 59788 76525,76156,76312
 4.4000e+000 76361 -8.8093e+001 -4.6704e+002 -5.2701e+000 59788 76182,76234,76208
 4.4000e+000 76338 -1.1101e+002 -3.4419e+002 -1.0030e+001 59788 76234,76286,76260
 4.4000e+000 76479 -1.6898e+002 -3.8750e+002  1.2750e+000 59788 76312,76286,76453
 4.4000e+000 76502 -1.4171e+002 -3.6745e+002  1.8622e+001 59788 76525,76312,76453
 4.4000e+000 76551 -1.9139e+002 -3.9105e+002  4.8033e+001 59788 76182,76156,76525
 4.4000e+000 76574 -1.6962e+002 -4.1975e+002  2.9059e+001 59788 76182,76525,76453
 4.4000e+000 77031 -1.0031e+002 -2.1910e+002 -3.2851e+001 59448 76835,76887,76861
 4.4000e+000 77008 -4.4726e+001 -1.8247e+002  7.8951e+000 59448 76835,76913,76887
 4.4000e+000 76985 -5.8148e+001 -1.5355e+002  2.9528e+001 59448 76809,76913,76835
 4.4000e+000 76962 -1.0911e+002 -2.0319e+002 -1.2138e-001 59448 76757,76913,76809
 4.4000e+000 76939 -9.0235e+001 -1.7953e+002 -8.2902e+000 59448 76757,76809,76783
 4.4000e+000 77537 -1.4702e+002 -3.1267e+002  1.4884e+001 58994 77560,77344,77292
 4.4000e+000 77514 -2.0700e+002 -3.1203e+002  3.0485e+000 58994 77560,77292,77240
 4.4000e+000 77491 -1.1886e+002 -2.9374e+002 -7.5901e+000 58994 77632,77214,77370
 4.4000e+000 77468 -2.4449e+002 -3.5902e+002  6.2666e+001 58994 77292,77344,77318
 4.4000e+000 77445 -1.2167e+002 -3.8216e+002  1.4594e+001 58994 77214,77396,77370
 4.4000e+000 77422 -2.1001e+002 -3.2794e+002 -7.4770e+000 58994 77240,77292,77266
 4.4000e+000 77586 -1.5187e+002 -3.1990e+002  1.7374e+001 58994 77370,77344,77560
 4.4000e+000 77609 -1.5183e+002 -3.1382e+002  2.0159e+001 58994 77632,77370,77560
 4.4000e+000 77658 -1.0136e+002 -2.7310e+002 -3.7880e+001 58994 77240,77214,77632
 4.4000e+000 77681 -1.2567e+002 -2.7027e+002 -1.2851e+001 58994 77240,77632,77560
 4.4000e+000 78138 -1.2207e+002 -2.1821e+002  3.1753e+001 58440 77864,77994,77890
 4.4000e+000 78115 -8.0106e+001 -1.3428e+002 -1.5753e+001 58440 77864,78020,77994
 4.4000e+000 78092 -1.3866e+002 -2.5818e+002 -2.2173e+001 58440 77942,77994,77968
 4.4000e+000 78069 -1.1105e+002 -2.4516e+002  4.6190e+000 58440 77890,77994,77942
 4.4000e+000 78046 -1.0012e+002 -2.4748e+002 -3.5149e+000 58440 77890,77942,77916
 4.4000e+000 78467 -2.4129e+001 -2.8778e+002  1.0678e+001 57928 78562,78490,78346
 4.4000e+000 78444 -1.0939e+002 -2.8994e+002 -4.3697e+000 57928 78490,78294,78268
 4.4000e+000 78421 -6.8205e+000 -3.0111e+002  2.4816e+001 57928 78562,78346,78320
 4.4000e+000 78398 -4.2888e+001 -2.8083e+002  3.9670e+000 57928 78242,78372,78268
 4.4000e+000 78516 -9.6446e+001 -3.5960e+002 -1.9481e+001 57928 78372,78346,78490
 4.4000e+000 78539 -7.6595e+001 -2.7618e+002 -2.7703e+000 57928 78372,78490,78268
 4.4000e+000 78588 -1.0904e+002 -2.8476e+002  1.4822e+000 57928 78294,78490,78562
 4.4000e+000 78611 -5.4849e+001 -2.5548e+002  3.0059e+001 57928 78294,78562,78320
 4.4000e+000 79068 -2.1218e+002 -4.4710e+002 -1.1095e+002 57467 78794,78924,78820
 4.4000e+000 79045 -1.6780e+002 -4.2672e+002 -1.0496e+002 57467 78794,78950,78924
 4.4000e+000 79022 -9.0792e+001 -3.9977e+002  3.8225e+001 57467 78820,78898,78872
 4.4000e+000 78999 -1.5690e+002 -5.4939e+002 -5.9083e+001 57467 78820,78924,78898
 4.4000e+000 78976 -6.5113e+001 -4.0391e+002  5.8874e+001 57467 78820,78872,78846
 4.4000e+000 79446 -1.7839e+002 -3.3769e+002  5.4744e-001 57120 79172,79302,79250
 4.4000e+000 79423 -1.5939e+002 -3.2909e+002 -1.1259e+001 57120 79172,79328,79302
 4.4000e+000 79400 -1.6097e+002 -2.9624e+002 -1.1034e+001 57120 79172,79250,79198
 4.4000e+000 79377 -1.2254e+002 -4.2764e+002  1.7448e+001 57120 79250,79302,79276
 4.4000e+000 79354 -1.9722e+002 -3.2173e+002 -2.3231e+001 57120 79198,79250,79224
 4.4000e+000 79952 -2.3617e+002 -3.7405e+002  1.4427e+000 56773 79629,79785,79655
 4.4000e+000 79929 -6.9751e+001 -3.2309e+002  1.6500e+001 56773 79629,79811,79785
 4.4000e+000 79906 -1.8442e+002 -4.0567e+002  2.7628e+001 56773 79655,79733,79681
 4.4000e+000 79883 -1.8129e+002 -3.5925e+002  7.0599e+000 56773 79655,79785,79733
 4.4000e+000 79860 -1.7002e+002 -4.6797e+002 -5.5557e+001 56773 79733,79785,79759
 4.4000e+000 79837 -9.6080e+001 -3.6525e+002  6.9874e+001 56773 79681,79733,79707
 4.4000e+000 80281 -8.2994e+001 -2.7758e+002 -2.2307e+001 56319 80108,80160,80134
 4.4000e+000 80258 -9.0371e+001 -3.0280e+002 -2.7826e+001 56319 80056,80160,80108
 4.4000e+000 80235 -3.9143e+001 -2.6824e+002  1.7560e+001 56319 80056,80186,80160
 4.4000e+000 80212 -1.2207e+002 -3.8621e+002 -1.8328e+001 56319 80056,80108,80082
 4.4000e+000 80738 -4.8614e+001 -3.3462e+002  1.7614e+001 55957 80516,80620,80594
 4.4000e+000 80715 -1.1869e+002 -3.0297e+002  1.4322e+001 55957 80464,80620,80516
 4.4000e+000 80692 -1.0178e+002 -3.6413e+002  1.8822e+001 55957 80761,80568,80542
 4.4000e+000 80669 -8.3349e+001 -3.5867e+002  2.2183e+001 55957 80761,80542,80516
 4.4000e+000 80646 -1.1905e+002 -3.0311e+002  3.7693e+001 55957 80464,80516,80490
 4.4000e+000 80787 -1.1963e+002 -3.6195e+002  1.3562e+001 55957 80594,80568,80761
 4.4000e+000 80810 -1.0233e+002 -3.5702e+002  1.7151e+001 55957 80594,80761,80516
 4.4000e+000 81210 -1.0083e+002 -3.4047e+002 -4.0121e+001 55317 80936,80988,80962
 4.4000e+000 81187 -8.3609e+001 -3.7600e+002 -1.4797e+000 55317 80936,81066,80988
 4.4000e+000 81164 -5.6434e+001 -4.0190e+002  5.4020e+000 55317 80936,81092,81066
 4.4000e+000 81141 -1.1821e+002 -4.0063e+002 -3.7088e+001 55317 80988,81066,81014
 4.4000e+000 81118 -1.5964e+001 -2.2598e+002  2.3263e+001 55317 81014,81066,81040
 4.4000e+000 81539 -1.5303e+002 -3.4765e+002  9.2648e+000 54913 81340,81418,81392
 4.4000e+000 81516 -6.2399e+001 -2.8029e+002 -2.1082e+001 54913 81340,81444,81418
 4.4000e+000 81493 -9.5088e+001 -3.0079e+002 -4.2299e+001 54913 81314,81444,81340
 4.4000e+000 81470 -1.7305e+002 -3.6449e+002  1.4431e+000 54913 81340,81392,81366
 4.4000e+000 81787 -8.8327e+001 -3.6347e+002 -3.3019e+000 54601 81588,81692,81640
 4.4000e+000 81764 -1.2793e+002 -3.6665e+002 -1.1629e+001 54601 81562,81692,81588
 4.4000e+000 81741 -6.9349e+001 -3.6897e+002  4.7579e+001 54601 81588,81640,81614
 4.4000e+000 81718 -9.0552e+001 -4.2943e+002 -3.7619e+001 54601 81640,81692,81666
 4.4000e+000 82344 -1.3851e+002 -3.7231e+002 -1.8700e+001 54090 81998,82102,82076
 4.4000e+000 82321 -1.8696e+002 -3.9350e+002 -1.0782e+001 54090 81998,82154,82102
 4.4000e+000 82298 -1.6979e+002 -3.8448e+002 -6.1565e+000 54090 81972,82154,81998
 4.4000e+000 82275 -1.9281e+002 -3.4942e+002 -2.1231e+001 54090 81998,82076,82024
 4.4000e+000 82252 -2.0503e+002 -4.0896e+002  1.9755e+001 54090 81972,82180,82154
 4.4000e+000 82229 -2.5856e+002 -4.8034e+002  2.7337e+001 54090 82102,82154,82128
 4.4000e+000 82206 -3.5449e+001 -2.6399e+002 -5.5559e+001 54090 82024,82076,82050
 4.4000e+000 82722 -2.3599e+002 -4.2167e+002 -1.5556e+001 53579 82500,82578,82552
 4.4000e+000 82699 -1.7335e+002 -3.8272e+002  9.6828e+000 53579 82448,82578,82500
 4.4000e+000 82676 -1.8855e+002 -4.3295e+002  1.0739e+001 53579 82448,82500,82474
 4.4000e+000 82653 -2.2957e+002 -4.1153e+002  2.9771e+001 53579 82448,82604,82578
 4.4000e+000 82630 -1.2369e+002 -3.9014e+002 -1.6341e+001 53579 82500,82552,82526
 4.4000e+000 83356 -1.1439e+002 -3.0183e+002 -3.1402e+001 53189 83379,83088,83036
 4.4000e+000 83333 -1.1011e+002 -3.4059e+002 -2.8259e+001 53189 83379,83036,82984
 4.4000e+000 83310 -5.6476e+001 -3.2184e+002  4.5272e+001 53189 82984,83192,83166
 4.4000e+000 83287  2.9993e+000 -2.4986e+002 -2.1771e+001 53189 83036,83088,83062
 4.4000e+000 83264 -8.8636e+001 -3.7888e+002 -5.1678e+001 53189 82984,83036,83010
 4.4000e+000 83241 -7.8066e+001 -3.7988e+002  7.6388e+000 53189 83114,83166,83140
 4.4000e+000 83218 -1.5439e+002 -3.9479e+002  1.8252e+000 53189 83088,83166,83114
 4.4000e+000 83405 -1.1515e+002 -3.2810e+002 -1.5331e+001 53189 83166,83088,83379
 4.4000e+000 83428 -1.0505e+002 -3.6237e+002 -1.4654e+001 53189 83166,83379,82984
 4.4000e+000 83725 -1.5093e+002 -4.2776e+002 -3.7183e+001 52585 83748,83529,83503
 4.4000e+000 83702 -1.1350e+002 -4.1538e+002 -2.4129e+001 52585 83820,83748,83503
 4.4000e+000 83679 -7.7119e+001 -4.0599e+002 -1.9991e+001 52585 83820,83503,83477
 4.4000e+000 83656 -5.3628e+001 -3.7276e+002  5.0327e+001 52585 83477,83607,83581
 4.4000e+000 83633  3.1425e+001 -3.3654e+002  5.2895e+001 52585 83451,83607,83477
 4.4000e+000 83774 -1.3213e+002 -3.8092e+002 -3.2793e+001 52585 83555,83529,83748
 4.4000e+000 83797 -1.7281e+002 -4.1044e+002 -1.9903e+001 52585 83555,83748,83581
 4.4000e+000 83846 -1.4794e+002 -3.9369e+002 -5.4921e+000 52585 83581,83748,83820
 4.4000e+000 83869 -1.2158e+002 -3.9062e+002 -5.2672e+000 52585 83581,83820,83477
 4.4000e+000 84200 -1.1178e+002 -3.8564e+002 -1.4030e+001 52024 84001,84105,84079
 4.4000e+000 84177 -5.9842e+001 -3.7636e+002 -2.7386e+001 52024 83975,84105,84001
 4.4000e+000 84154 -9.8289e+001 -3.8729e+002 -1.0689e+001 52024 84001,84079,84053
 4.4000e+000 84131 -5.1091e+001 -2.6309e+002  4.7420e+001 52024 84001,84053,84027
 4.4000e+000 84399 -9.3624e+001 -3.8669e+002 -1.6823e+000 51470 84422,84275,84249
 4.4000e+000 84376 -8.6916e+001 -3.7134e+002  2.2356e+000 51470 84422,84249,84223
 4.4000e+000 84353 -1.0567e+002 -4.0639e+002 -5.7050e+001 51470 84275,84327,84301
 4.4000e+000 84448 -1.0078e+002 -3.7240e+002 -2.5615e+000 51470 84327,84275,84422
 4.4000e+000 84471 -9.6199e+001 -3.6006e+002  1.1072e+000 51470 84327,84422,84223
 4.4000e+000 84753 -1.1426e+002 -3.2202e+002 -1.0278e+000 51073 84603,84655,84629
 4.4000e+000 84730 -2.3149e+002 -3.7746e+002 -1.7395e+001 51073 84776,84655,84603
 4.4000e+000 84707 -5.1567e+001 -3.2833e+002 -9.0567e+001 51073 84577,84681,84655
 4.4000e+000 84802 -1.4727e+002 -3.3060e+002 -4.2713e+001 51073 84577,84655,84776
 4.4000e+000 85178 -2.0904e+002 -4.5430e+002  4.0613e+001 50519 85201,85008,84982
 4.4000e+000 85155 -1.9799e+002 -4.2150e+002  2.9206e+001 50519 85273,85201,84982
 4.4000e+000 85132 -1.8615e+002 -4.2165e+002  2.1618e+001 50519 85273,84982,84930
 4.4000e+000 85109 -1.8091e+002 -4.1163e+002  1.8647e+001 50519 84930,84982,84956
 4.4000e+000 85086 -1.6824e+002 -4.1936e+002  1.7279e+001 50519 85008,85060,85034
 4.4000e+000 85227 -1.7267e+002 -4.3145e+002  1.7798e+001 50519 85060,85008,85201
 4.4000e+000 85250 -1.9562e+002 -4.3303e+002  1.1678e+001 50519 85060,85201,84904
 4.4000e+000 85299 -1.8538e+002 -4.2647e+002  8.8537e+000 50519 84904,85201,85273
 4.4000e+000 85322 -1.4458e+002 -3.7654e+002 -9.5555e+000 50519 84904,85273,84930
 4.4000e+000 85958 -1.2142e+002 -3.7991e+002 -1.2940e+001 50093 85981,85768,85716
 4.4000e+000 85935 -1.0794e+002 -3.4518e+002 -1.5029e+001 50093 85981,85716,85612
 4.4000e+000 85912 -1.5548e+002 -3.5707e+002  6.2202e+000 50093 85612,85716,85664
 4.4000e+000 85889 -9.0323e+001 -3.7368e+002 -4.6059e+000 50093 85716,85768,85742
 4.4000e+000 85866 -1.2839e+002 -2.7460e+002 -7.7342e+001 50093 85664,85716,85690
 4.4000e+000 85843 -4.7071e+001 -2.6215e+002 -1.4092e+001 50093 85586,85794,85612
 4.4000e+000 85820 -1.0596e+002 -4.8265e+002  4.0075e+001 50093 85612,85664,85638
 4.4000e+000 86007 -1.4765e+002 -4.0877e+002 -6.2611e+001 50093 85794,85768,85981
 4.4000e+000 86030 -1.0605e+002 -3.0844e+002 -5.2279e+001 50093 85794,85981,85612
 4.4000e+000 86131 -1.2969e+002 -3.8449e+002  5.1507e+001 49895 86053,86105,86079
 4.4000e+000 86639 -9.4017e+001 -2.6449e+002 -5.3166e+001 49391 86662,86394,86368
 4.4000e+000 86616 -1.1007e+002 -3.2145e+002 -4.7019e+001 49391 86662,86368,86342
 4.4000e+000 86593 -6.2821e+001 -3.2149e+002 -1.4430e+001 49391 86342,86498,86472
 4.4000e+000 86570 -4.1113e+001 -3.5380e+002 -1.7463e+001 49391 86316,86498,86342
 4.4000e+000 86547 -1.8010e+002 -4.8938e+002 -2.2770e+001 49391 86394,86472,86446
 4.4000e+000 86524 -1.4364e+001 -4.6006e+002  3.5735e+000 49391 86394,86446,86420
 4.4000e+000 86688 -1.0689e+002 -3.1779e+002 -2.8498e+001 49391 86472,86394,86662
 4.4000e+000 86711 -9.4896e+001 -3.4204e+002 -2.7190e+001 49391 86472,86662,86342
 4.4000e+000 87089 -1.3576e+002 -3.8133e+002  9.7134e+000 48987 86815,86919,86867
 4.4000e+000 87066 -1.3584e+002 -3.9211e+002  1.5113e+001 48987 86815,86971,86919
 4.4000e+000 87043 -5.2481e+001 -4.2098e+002 -3.7767e+001 48987 86867,86919,86893
 4.4000e+000 87020 -1.5379e+002 -4.3020e+002  3.1978e+001 48987 86815,86867,86841
 4.4000e+000 86997 -1.5231e+002 -3.3827e+002  5.2805e+001 48987 86919,86971,86945
 4.4000e+000 87467 -2.5615e+002 -3.7990e+002  1.8002e+001 48540 87490,87245,87219
 4.4000e+000 87444 -1.8641e+002 -3.5496e+002  1.0829e+000 48540 87562,87490,87219
 4.4000e+000 87421 -1.3909e+002 -3.3588e+002  1.5772e+001 48540 87562,87219,87349
 4.4000e+000 87398 -1.9306e+002 -2.9932e+002 -2.0785e+001 48540 87245,87297,87271
 4.4000e+000 87375 -1.1693e+002 -3.5234e+002  1.1678e+001 48540 87193,87349,87219
 4.4000e+000 87516 -1.7710e+002 -3.6256e+002  2.7721e+000 48540 87297,87245,87490
 4.4000e+000 87539 -1.7934e+002 -3.6284e+002  5.8854e+000 48540 87297,87490,87323
 4.4000e+000 87588 -1.4080e+002 -3.3328e+002  3.1739e+001 48540 87323,87490,87562
 4.4000e+000 87611 -1.1804e+002 -3.3934e+002  4.1547e+001 48540 87323,87562,87349
 4.4000e+000 87810 -1.7824e+002 -6.3004e+002 -4.5838e+001 48136 87660,87712,87686
 4.4000e+000 87787 -1.0299e+002 -3.6997e+002 -2.0169e+001 48136 87660,87738,87712
 4.4000e+000 87764 -2.3475e+002 -3.8281e+002 -6.0949e+001 48136 87634,87738,87660
 4.4000e+000 88205 -1.6210e+002 -4.0130e+002 -3.3966e+001 47210 88300,88228,87937
 4.4000e+000 88182 -1.4116e+002 -3.9001e+002 -9.8811e+000 47210 88228,87833,88041
 4.4000e+000 88159 -1.6406e+002 -4.2820e+002 -5.4386e+001 47210 88300,87937,87911
 4.4000e+000 88136 -1.5879e+002 -3.8866e+002 -4.7568e+001 47210 87833,87911,87859
 4.4000e+000 88113 -2.6743e+002 -3.5263e+002 -2.5584e+001 47210 87937,87989,87963
 4.4000e+000 88090 -1.3379e+002 -3.1963e+002  6.5264e+001 47210 87989,88041,88015
 4.4000e+000 88067 -1.8393e+002 -4.5245e+002 -6.2899e+001 47210 87859,87911,87885
 4.4000e+000 88254 -1.4431e+002 -3.3444e+002 -3.4486e+001 47210 87989,87937,88228
 4.4000e+000 88277 -1.6949e+002 -3.8350e+002 -1.3043e+001 47210 87989,88228,88041
 4.4000e+000 88326 -1.3396e+002 -3.7496e+002 -1.2956e+001 47210 87833,88228,88300
 4.4000e+000 88349 -1.4053e+002 -3.9307e+002 -3.4741e+001 47210 87833,88300,87911
 4.4000e+000 88780 -2.5295e+002 -4.4276e+002 -8.4527e+001 46642 88803,88509,88483
 4.4000e+000 88757 -1.8075e+002 -3.9790e+002 -4.5576e+001 46642 88803,88483,88639
 4.4000e+000 88734 -2.0162e+002 -3.2775e+002 -5.2318e+001 46642 88875,88561,88509
 4.4000e+000 88711 -2.0466e+002 -3.0413e+002 -1.0777e+001 46642 88509,88561,88535
 4.4000e+000 88688 -1.1582e+002 -4.4564e+002  7.9725e-001 46642 88457,88639,88483
 4.4000e+000 88665 -2.3094e+002 -5.2682e+002 -2.3374e+001 46642 88561,88613,88587
 4.4000e+000 88829 -2.0310e+002 -3.5724e+002 -5.8838e+001 46642 88875,88509,88803
 4.4000e+000 88852 -1.9867e+002 -4.2768e+002 -3.7670e+001 46642 88613,88803,88639
 4.4000e+000 88901 -1.6675e+002 -3.6876e+002 -2.7392e+001 46642 88613,88561,88875
 4.4000e+000 88924 -1.8153e+002 -4.1668e+002 -3.2919e+001 46642 88613,88875,88803
 4.4000e+000 89253 -8.0045e+001 -3.8780e+002  6.9113e+000 46444 89080,89158,89132
 4.4000e+000 89230 -9.1514e+001 -4.1327e+002  3.3472e+000 46444 89028,89158,89080
 4.4000e+000 89207 -3.3764e+001 -3.6366e+002 -1.7736e+001 46444 89028,89080,89054
 4.4000e+000 89184 -4.3494e+001 -4.1816e+002 -3.0764e+001 46444 89080,89132,89106
 4.4000e+000 89631 -1.1047e+002 -2.6697e+002  6.3180e+000 46040 89383,89461,89435
 4.4000e+000 89608 -1.1674e+002 -2.9505e+002 -1.7044e+001 46040 89383,89487,89461
 4.4000e+000 89585 -1.1981e+002 -3.4704e+002 -9.9961e+000 46040 89383,89435,89409
 4.4000e+000 89562 -9.4065e+001 -2.5388e+002 -3.4619e+001 46040 89383,89513,89487
 4.4000e+000 89539 -3.8077e+001 -2.2632e+002 -4.6976e+001 46040 89357,89513,89383
 4.4000e+000 90009 -1.1624e+002 -3.3867e+002 -1.6249e+000 45636 89813,89891,89839
 4.4000e+000 89986 -1.2022e+002 -3.1718e+002  1.8369e+001 45636 89787,89891,89813
 4.4000e+000 89963 -1.0330e+002 -3.1766e+002 -9.1464e+000 45636 89839,89891,89865
 4.4000e+000 89940 -1.4060e+002 -3.5329e+002  9.8517e+000 45636 89735,89891,89787
 4.4000e+000 89917 -1.1064e+002 -3.5640e+002 -1.6326e+001 45636 89735,89787,89761
 4.4000e+000 90208 -7.7279e+001 -2.6229e+002 -5.0712e+001 45175 90231,90058,90032
 4.4000e+000 90185 -4.7431e+001 -2.3991e+002 -7.7285e+001 45175 90231,90032,90136
 4.4000e+000 90162 -9.2744e+001 -2.1444e+002 -4.3053e+000 45175 90058,90110,90084
 4.4000e+000 90257 -1.1105e+002 -2.9512e+002 -1.3251e+001 45175 90110,90058,90231
 4.4000e+000 90280 -5.3793e+001 -2.5592e+002 -4.2873e+001 45175 90110,90231,90136
 4.4000e+000 90528 -8.4557e+001 -2.6838e+002 -3.5228e+001 44513 90695,90551,90407
 4.4000e+000 90505 -8.9992e+001 -2.4174e+002 -1.6317e+001 44513 90551,90355,90329
 4.4000e+000 90482 -1.1110e+002 -2.6523e+002 -3.2091e+001 44513 90623,90303,90433
 4.4000e+000 90459 -6.4686e+001 -2.5004e+002 -2.5642e+001 44513 90695,90407,90381
 4.4000e+000 90577 -1.2400e+002 -2.8107e+002 -6.1172e+001 44513 90433,90407,90551
 4.4000e+000 90600 -1.0626e+002 -2.5772e+002 -2.9829e+001 44513 90623,90433,90551
 4.4000e+000 90649 -1.0780e+002 -2.5583e+002 -2.9412e+001 44513 90329,90303,90623
 4.4000e+000 90672 -1.0907e+002 -2.5482e+002 -2.9211e+001 44513 90329,90623,90551
 4.4000e+000 90721 -1.0868e+002 -2.4426e+002 -3.9754e+001 44513 90355,90551,90695
 4.4000e+000 90744 -1.0283e+002 -2.3580e+002 -3.6165e+001 44513 90355,90695,90381
 4.4000e+000 91077 -3.1369e+000 -2.7685e+002 -1.7856e+001 44059 91100,90930,90904
 4.4000e+000 91054 -1.0810e+002 -2.9847e+002  1.3726e+001 44059 91100,90904,90982
 4.4000e+000 91031 -1.9209e+002 -3.4667e+002 -2.4981e+001 44059 90878,90982,90904
 4.4000e+000 91008 -6.0970e+001 -2.6002e+002  1.6017e+001 44059 90852,90982,90878
 4.4000e+000 91126 -1.5879e+002 -3.1606e+002 -2.1435e+001 44059 91172,91100,90956
 4.4000e+000 91149 -1.0172e+002 -2.8869e+002 -1.2396e+001 44059 90956,91100,90982
 4.4000e+000 91198 -8.5459e+000 -1.6953e+002 -8.1157e+001 44059 90930,91100,91172
 4.4000e+000 91677 -1.3879e+002 -2.1929e+002  2.0969e+001 43549 91455,91533,91481
 4.4000e+000 91654 -5.5436e+001 -2.2069e+002  2.9319e+001 43549 91429,91533,91455
 4.4000e+000 91631 -1.3406e+002 -2.1985e+002  9.6996e+000 43549 91481,91533,91507
 4.4000e+000 91608 -2.9005e+001 -2.0978e+002  1.3057e+001 43549 91429,91559,91533
 4.4000e+000 91585  3.4555e+000 -6.3039e+001 -8.7325e-001 43549 91403,91559,91429
 4.4000e+000 92006 -1.3984e+002 -3.4645e+002  8.8800e-001 43059 91781,91885,91807
 4.4000e+000 91983 -1.4579e+002 -3.2700e+002  5.3199e+001 43059 91781,91911,91885
 4.4000e+000 91960 -1.3887e+002 -3.4669e+002  1.1155e+000 43059 91807,91885,91833
 4.4000e+000 91937 -9.1090e+001 -3.2851e+002 -5.7606e+000 43059 91833,91885,91859
 4.4000e+000 92561 -1.0845e+002 -2.3931e+002 -2.9656e+001 42598 92584,92215,92189
 4.4000e+000 92538 -1.1972e+002 -2.7277e+002 -2.7283e+001 42598 92656,92584,92189
 4.4000e+000 92515 -1.0789e+002 -3.0921e+002 -8.7147e+000 42598 92656,92189,92397
 4.4000e+000 92492 -1.4255e+002 -2.1659e+002 -3.4055e+001 42598 92241,92319,92293
 4.4000e+000 92469 -1.3347e+002 -2.5550e+002  1.2987e+001 42598 92319,92397,92371
 4.4000e+000 92446 -5.4766e+001 -2.9956e+002  1.2065e+002 42598 92319,92371,92345
 4.4000e+000 92423 -1.3649e+002 -2.2029e+002 -4.4973e+001 42598 92241,92293,92267
 4.4000e+000 92610 -1.1699e+002 -2.4053e+002 -2.6354e+001 42598 92241,92215,92584
 4.4000e+000 92633 -1.0831e+002 -2.2125e+002 -3.3131e+001 42598 92241,92584,92319
 4.4000e+000 92682 -1.0985e+002 -2.2426e+002 -2.0326e+001 42598 92319,92584,92656
 4.4000e+000 92705 -8.9045e+001 -2.4900e+002 -6.6468e+000 42598 92319,92656,92397
 4.4000e+000 92953 -1.4325e+002 -3.7268e+002  1.9911e+001 42094 92976,92806,92780
 4.4000e+000 92930 -1.5858e+002 -3.5256e+002  6.0703e-001 42094 92976,92780,92754
 4.4000e+000 92907 -3.6114e+001 -3.6232e+002 -1.5224e+000 42094 93048,92832,92806
 4.4000e+000 92884 -2.0350e+002 -3.5810e+002 -2.3158e+001 42094 92728,92858,92754
 4.4000e+000 93002 -9.3014e+001 -3.4601e+002  1.0013e+001 42094 93048,92806,92976
 4.4000e+000 93025 -1.4789e+002 -3.4655e+002 -5.1779e+000 42094 92858,92976,92754
 4.4000e+000 93074 -1.1536e+002 -3.9190e+002 -3.8573e+000 42094 92858,92832,93048
 4.4000e+000 93097 -1.6218e+002 -3.6968e+002  2.9026e+000 42094 92858,93048,92976
 4.4000e+000 93605 -1.4977e+002 -4.2815e+002 -1.5382e+001 41846 93628,93412,93386
 4.4000e+000 93582 -1.1193e+002 -3.2409e+002 -8.8782e-001 41846 93628,93386,93308
 4.4000e+000 93559 -1.7392e+002 -3.3963e+002 -7.0219e+001 41846 93700,93464,93438
 4.4000e+000 93536 -1.5964e+002 -4.4791e+002  6.7858e+000 41846 93308,93386,93334
 4.4000e+000 93513 -2.0968e+002 -3.2748e+002 -5.0236e+001 41846 93334,93386,93360
 4.4000e+000 93490 -1.6635e+002 -3.0090e+002 -6.6105e+001 41846 93282,93464,93308
 4.4000e+000 93654 -1.3048e+002 -3.4361e+002 -3.1513e+001 41846 93438,93412,93628
 4.4000e+000 93677 -1.7352e+002 -3.4645e+002 -3.2340e+001 41846 93700,93438,93628
 4.4000e+000 93726 -1.5765e+002 -2.9279e+002 -6.2761e+001 41846 93308,93464,93700
 4.4000e+000 93749 -1.5085e+002 -2.8487e+002 -2.5351e+001 41846 93308,93700,93628
 4.4000e+000 94255 -1.2166e+002 -3.5531e+002  2.2491e+001 41385 93958,94114,94088
 4.4000e+000 94232 -1.0760e+002 -3.8148e+002  9.7576e+000 41385 93932,94114,93958
 4.4000e+000 94209 -2.0731e+002 -4.1120e+002  6.5784e+001 41385 93958,94088,94062
 4.4000e+000 94186 -2.1569e+002 -2.9949e+002  4.8481e+001 41385 93958,94062,93984
 4.4000e+000 94163 -1.8844e+002 -2.9222e+002  4.5998e+001 41385 93984,94062,94036
 4.4000e+000 94140 -1.2920e+002 -4.0484e+002  6.8279e+001 41385 93984,94036,94010
 4.4000e+000 94476 -3.9810e+001 -4.7758e+002  2.7955e+001 40881 94326,94378,94352
 4.4000e+000 94453 -8.0736e+001 -3.9380e+002  3.1391e+001 40881 94300,94378,94326
 4.4000e+000 94430 -1.0109e+002 -3.6463e+002  3.7034e+000 40881 94300,94404,94378
 4.4000e+000 94626 -1.0437e+002 -2.8075e+002 -4.6008e+000 40591 94649,94551,94525
 4.4000e+000 94603 -5.9385e+001 -1.7355e+002  2.0320e+000 40591 94781,94577,94551
 4.4000e+000 94675 -3.7587e+001 -2.0247e+002 -3.4523e+001 40591 94781,94551,94649
 4.4000e+000 94807 -3.1412e+000 -1.1893e+002  3.4405e+001 40591 94499,94577,94781
 4.4000e+000 94830  3.0453e+000 -1.7640e+002 -4.1230e+000 40591 94499,94781,94649
 4.4000e+000 95336 -2.3777e+002 -3.2470e+002 -4.9326e+001 40187 95013,95169,95039
 4.4000e+000 95313 -5.3210e+001 -2.9387e+002  6.9713e+000 40187 95013,95195,95169
 4.4000e+000 95290 -3.9998e+001 -3.2006e+002 -3.3941e+001 40187 95039,95143,95065
 4.4000e+000 95267 -1.8171e+002 -3.7565e+002 -5.4727e+001 40187 95039,95169,95143
 4.4000e+000 95244 -8.6835e+001 -3.0453e+002 -3.2614e+001 40187 95091,95143,95117
 4.4000e+000 95221 -2.6280e+001 -1.8902e+002 -1.0867e+001 40187 95065,95143,95091
 4.4000e+000 95665 -9.1698e+001 -2.5248e+002  1.0393e+002 39626 95466,95570,95544
 4.4000e+000 95642 -1.6846e+002 -2.0195e+002  6.7643e+001 39626 95440,95570,95466
 4.4000e+000 95619 -2.5775e+002 -3.3019e+002  6.7069e+001 39626 95466,95544,95492
 4.4000e+000 95596 -5.7134e+001 -2.5715e+002  1.0275e+002 39626 95492,95544,95518
 4.4000e+000 95913 -1.3827e+002 -3.0238e+002 -4.4570e+001 39136 96080,95936,95766
 4.4000e+000 95890 -9.4754e+001 -3.2454e+002 -2.7301e+001 39136 95936,95714,95688
 4.4000e+000 95867 -2.4156e+002 -3.2409e+002  1.2259e+001 39136 96008,95792,95766
 4.4000e+000 95844 -1.1354e+002 -2.9343e+002 -3.3575e+001 39136 96080,95766,95740
 4.4000e+000 95962 -1.9174e+002 -3.3545e+002 -2.9002e+001 39136 96008,95766,95936
 4.4000e+000 95985 -1.2440e+002 -3.9536e+002 -6.8672e+000 39136 95818,95936,95688
 4.4000e+000 96034 -1.2114e+002 -2.7176e+002  1.9496e+001 39136 95818,95792,96008
 4.4000e+000 96057 -1.0799e+002 -2.9767e+002 -2.1000e+001 39136 95818,96008,95936
 4.4000e+000 96106 -1.2606e+002 -2.9884e+002 -1.1670e+001 39136 95714,95936,96080
 4.4000e+000 96129 -8.7603e+001 -2.8832e+002 -3.1152e+000 39136 95714,96080,95740
 4.4000e+000 96350 -1.0233e+002 -2.5754e+002 -1.4663e+001 38824 96200,96278,96252
 4.4000e+000 96327 -8.6554e+001 -2.5010e+002 -1.2507e+001 38824 96174,96278,96200
 4.4000e+000 96304 -2.1161e+001 -2.2564e+002 -4.4175e+001 38824 96200,96252,96226
 4.4000e+000 96830 -1.4763e+002 -2.6819e+002 -1.9723e+001 38320 97069,96536,96484
 4.4000e+000 96807 -1.4521e+002 -2.7168e+002 -1.9529e+001 38320 97069,96484,96853
 4.4000e+000 96784 -1.6377e+002 -2.9219e+002  4.1952e+000 38320 96853,96484,96458
 4.4000e+000 96761 -8.9839e+001 -2.3480e+002 -2.9480e+001 38320 96925,96640,96614
 4.4000e+000 96738 -1.4177e+002 -2.4500e+002 -1.3457e+001 38320 96997,96666,96640
 4.4000e+000 96715 -1.2012e+002 -3.1576e+002 -8.6310e+000 38320 97141,96588,96562
 4.4000e+000 96692 -1.8688e+002 -3.1377e+002 -2.3813e+000 38320 96484,96536,96510
 4.4000e+000 96879 -1.4550e+002 -2.8746e+002 -1.2107e+001 38320 97141,96562,96853
 4.4000e+000 96902 -1.3570e+002 -2.8110e+002 -1.1046e+001 38320 96925,96614,96853
 4.4000e+000 96951 -1.3841e+002 -2.4227e+002 -1.5333e+001 38320 96997,96640,96925
 4.4000e+000 96974 -1.3186e+002 -2.3839e+002 -9.4589e+000 38320 96458,96925,96853
 4.4000e+000 97023 -1.5714e+002 -2.4835e+002 -5.3632e+000 38320 96458,96666,96997
 4.4000e+000 97046 -1.4499e+002 -2.4225e+002 -7.4705e+000 38320 96458,96997,96925
 4.4000e+000 97095 -1.5340e+002 -2.6160e+002 -3.6928e+000 38320 96562,96536,97069
 4.4000e+000 97118 -1.3897e+002 -2.6951e+002 -1.6920e+001 38320 96562,97069,96853
 4.4000e+000 97167 -7.5329e+001 -2.8984e+002 -2.0649e+001 38320 96614,96588,97141
 4.4000e+000 97190 -1.1721e+002 -2.7351e+002 -2.0790e+001 38320 96614,97141,96853
 4.4000e+000 97519 -1.1763e+002 -3.5070e+002  9.3991e+001 37766 97542,97398,97372
 4.4000e+000 97496 -1.4194e+002 -2.7710e+002  6.4757e+001 37766 97542,97372,97346
 4.4000e+000 97473 -1.4034e+002 -2.8696e+002  6.9946e+000 37766 97294,97424,97346
 4.4000e+000 97450 -1.5416e+002 -3.3345e+002 -1.6025e+000 37766 97294,97346,97320
 4.4000e+000 97568 -6.0651e+001 -3.6557e+002  3.3602e+001 37766 97424,97398,97542
 4.4000e+000 97591 -9.9225e+001 -2.8200e+002  9.2360e+000 37766 97424,97542,97346
 4.4000e+000 98048 -1.4624e+002 -2.1250e+002 -6.5776e+001 37262 98071,97878,97852
 4.4000e+000 98025 -1.2554e+002 -2.5253e+002 -2.7072e+001 37262 98071,97852,97800
 4.4000e+000 98002 -1.4059e+002 -3.0552e+002 -2.8575e+001 37262 97800,97852,97826
 4.4000e+000 97979 -1.4435e+002 -2.7284e+002  7.6186e+000 37262 97800,97930,97904
 4.4000e+000 97956 -9.7146e+001 -3.3391e+002  2.1420e+001 37262 97774,97930,97800
 4.4000e+000 98097 -2.0294e+002 -2.4034e+002 -4.5970e+001 37262 97904,97878,98071
 4.4000e+000 98120 -1.5705e+002 -2.8585e+002 -1.1046e+001 37262 97904,98071,97800
 4.4000e+000 98449 -7.8039e+001 -2.1269e+002 -2.4995e+001 36950 98472,98302,98250
 4.4000e+000 98426 -4.7084e+001 -2.0341e+002 -3.0562e+001 36950 98472,98250,98354
 4.4000e+000 98403 -1.1958e+002 -2.3401e+002  2.6977e+001 36950 98250,98302,98276
 4.4000e+000 98380 -3.0469e+001 -1.6237e+002  1.5162e+001 36950 98224,98354,98250
 4.4000e+000 98498 -5.5252e+001 -2.3694e+002 -6.8526e+000 36950 98328,98302,98472
 4.4000e+000 98521 -1.9320e+001 -2.2312e+002 -1.7585e+001 36950 98328,98472,98354
 4.4000e+000 99125 -1.6237e+002 -1.5977e+002  1.7255e+001 36296 98704,98756,98730
 4.4000e+000 99102 -1.5536e+002 -1.7962e+002  1.5577e+001 36296 98704,98938,98756
 4.4000e+000 99079 -1.1459e+002 -2.2094e+002 -5.4531e+000 36296 99148,98938,98912
 4.4000e+000 99056 -1.2163e+002 -2.2640e+002  5.2289e+001 36296 99292,99220,98782
 4.4000e+000 99033 -1.0016e+002 -2.5187e+002  5.5085e+000 36296 99148,98912,98834
 4.4000e+000 99010 -1.1433e+002 -1.9058e+002  5.7259e+001 36296 99292,98782,98756
 4.4000e+000 98987 -9.5974e+001 -4.4519e+002 -8.1872e+001 36296 98834,98912,98886
 4.4000e+000 98964 -1.6195e+002 -6.4449e+002 -1.0416e+002 36296 98834,98886,98860
 4.4000e+000 99174 -1.4020e+002 -2.7078e+002  7.5487e+000 36296 99220,98938,99148
 4.4000e+000 99197 -9.7954e+001 -3.0806e+002  3.3012e+001 36296 98808,99148,98834
 4.4000e+000 99246 -1.1896e+002 -2.1922e+002  1.2521e+002 36296 98808,98782,99220
 4.4000e+000 99269 -4.8416e+001 -1.9483e+002  4.1372e+001 36296 98808,99220,99148
 4.4000e+000 99318 -1.2883e+002 -1.9104e+002  2.7741e+001 36296 98938,99220,99292
 4.4000e+000 99341 -1.3185e+002 -1.9668e+002  3.2896e+001 36296 98938,99292,98756
 4.4000e+000 99719 -1.6755e+002 -3.4773e+002  8.4399e-001 35742 99742,99471,99601
 4.4000e+000 99696 -1.7181e+002 -2.7583e+002  3.3021e+001 35742 99445,99601,99471
 4.4000e+000 99673 -1.6048e+002 -3.3163e+002 -1.4598e+001 35742 99742,99601,99575
 4.4000e+000 99650 -1.3949e+002 -4.0404e+002 -1.1409e+001 35742 99814,99549,99523
 4.4000e+000 99627 -1.1182e+002 -3.1611e+002 -2.3267e+000 35742 99471,99523,99497
 4.4000e+000 99768 -1.3437e+002 -3.3980e+002  7.2194e+000 35742 99523,99471,99742
 4.4000e+000 99791 -1.5732e+002 -3.7468e+002 -9.9883e+000 35742 99814,99523,99742
 4.4000e+000 99840 -1.3628e+002 -3.6771e+002 -2.2623e+001 35742 99575,99549,99814
 4.4000e+000 99863 -1.4790e+002 -3.2964e+002 -2.0281e+001 35742 99575,99814,99742
 4.4000e+000 100111 -1.2638e+002 -2.8066e+002  1.9748e+001 35302 100134,99990,99938
 4.4000e+000 100088 -1.0588e+002 -2.5657e+002  6.6621e+000 35302 100134,99938,99912
 4.4000e+000 100065 -1.0604e+002 -2.5691e+002 -6.2684e+000 35302 100206,99886,100016
 4.4000e+000 100042 -1.6547e+002 -2.5679e+002  1.2405e+001 35302 99938,99990,99964
 4.4000e+000 100160 -9.9696e+001 -2.7054e+002  4.6582e+000 35302 100016,99990,100134
 4.4000e+000 100183 -1.0164e+002 -2.6062e+002 -6.1570e+000 35302 100206,100016,100134
 4.4000e+000 100232 -1.0976e+002 -2.6126e+002 -3.5490e+000 35302 99912,99886,100206
 4.4000e+000 100255 -1.0566e+002 -2.6591e+002 -3.5815e+000 35302 99912,100206,100134
 4.4000e+000 100586 -1.5252e+002 -1.7837e+002  4.2103e+001 35012 100609,100387,100361
 4.4000e+000 100563 -1.8312e+002 -1.3809e+002 -3.3555e+001 35012 100609,100361,100465
 4.4000e+000 100540 -8.7608e+001 -1.0013e+002 -7.5486e+001 35012 100361,100491,100465
 4.4000e+000 100517 -3.7748e+001 -1.1592e+002 -6.9580e+001 35012 100413,100465,100439
 4.4000e+000 100635 -7.4929e+001 -1.4451e+002  1.8673e+001 35012 100413,100387,100609
 4.4000e+000 100658 -1.0359e+002 -9.4457e+001 -5.9002e+001 35012 100413,100609,100465
 4.4000e+000 100987 -1.2940e+002 -2.8552e+002  2.4724e+001 34700 100788,100866,100814
 4.4000e+000 100964 -1.0239e+002 -2.2880e+002  4.2101e+001 34700 101010,100866,100788
 4.4000e+000 100941 -7.4587e+001 -1.7355e+002  4.5559e+001 34700 100762,100892,100866
 4.4000e+000 100918 -1.2129e+002 -2.6338e+002  1.4166e+001 34700 100814,100866,100840
 4.4000e+000 101036 -7.0737e+001 -2.0250e+002  6.7560e+001 34700 100762,100866,101010
 4.4000e+000 101493 -1.7315e+002 -3.2358e+002 -2.9173e+001 34132 101516,101349,101297
 4.4000e+000 101470 -2.0542e+002 -3.8765e+002 -4.6028e+001 34132 101588,101516,101297
 4.4000e+000 101447 -2.0651e+002 -4.0864e+002 -6.7397e+001 34132 101588,101297,101245
 4.4000e+000 101424 -1.2568e+002 -4.7594e+002 -6.3374e+001 34132 101245,101297,101271
 4.4000e+000 101401 -1.9892e+002 -3.2695e+002 -3.6904e+001 34132 101297,101349,101323
 4.4000e+000 101542 -1.8128e+002 -3.7356e+002 -2.2703e+001 34132 101375,101349,101516
 4.4000e+000 101565 -1.6069e+002 -3.7081e+002 -2.3270e+001 34132 101375,101516,101219
 4.4000e+000 101614 -1.6456e+002 -3.8988e+002 -2.3805e+001 34132 101219,101516,101588
 4.4000e+000 101637 -1.8534e+002 -4.1011e+002 -4.4159e+001 34132 101219,101588,101245
 4.4000e+000 101858 -6.2285e+001 -2.6622e+002  2.7333e+001 33720 101708,101786,101760
 4.4000e+000 101835 -4.1134e+001 -2.9321e+002  4.1486e+001 33720 101682,101786,101708
 4.4000e+000 101812 -9.5531e+001 -2.8340e+002  1.9196e+001 33720 101708,101760,101734
 4.4000e+000 102128 -3.8876e+001 -3.3782e+002 -8.9516e+000 33130 101903,102007,101929
 4.4000e+000 102105 -4.7946e+001 -3.9031e+002  1.2716e+001 33130 101903,102033,102007
 4.4000e+000 102082 -2.1111e+001 -4.0445e+002 -7.9630e+001 33130 101929,102007,101955
 4.4000e+000 102059 -6.1327e+001 -2.8647e+002  6.4680e+000 33130 101955,102007,101981
 4.4000e+000 102461 -1.1150e+002 -2.6334e+002 -2.4342e+001 32840 102236,102340,102262
 4.4000e+000 102438 -9.6269e+001 -1.8811e+002  5.3842e+000 32840 102236,102366,102340
 4.4000e+000 102415 -6.8462e+001 -2.5302e+002 -1.9828e+001 32840 102262,102340,102288
 4.4000e+000 102392 -1.3553e+002 -2.6857e+002 -5.4355e+001 32840 102288,102340,102314
 4.4000e+000 102997 -1.1183e+002 -1.9168e+002  5.4357e+001 32493 102749,102879,102853
 4.4000e+000 102974 -9.0960e+001 -1.5138e+002  3.8619e+001 32493 102723,102879,102749
 4.4000e+000 102951 -1.2999e+002 -2.3301e+002  3.6823e+001 32493 102749,102801,102775
 4.4000e+000 102928 -1.4006e+002 -2.3143e+002  3.5320e+001 32493 102749,102853,102801
 4.4000e+000 102905 -1.3140e+002 -2.1778e+002  2.8470e+001 32493 102801,102853,102827
 4.4000e+000 103454 -1.2186e+002 -2.1631e+002 -2.2867e+001 32089 103206,103336,103310
 4.4000e+000 103431 -9.7776e+001 -2.3581e+002 -2.7200e+000 32089 103180,103336,103206
 4.4000e+000 103408 -1.3324e+002 -2.4566e+002 -4.3282e+001 32089 103206,103284,103258
 4.4000e+000 103385 -1.8678e+002 -2.5759e+002 -4.7424e+001 32089 103206,103310,103284
 4.4000e+000 103362 -1.0500e+002 -1.7308e+002 -2.6778e+001 32089 103206,103258,103232
 4.4000e+000 103783 -2.1379e+002 -2.7812e+002 -3.0556e+001 31742 103558,103662,103584
 4.4000e+000 103760 -1.7678e+002 -2.2191e+002 -7.0545e+001 31742 103558,103688,103662
 4.4000e+000 103737 -1.4474e+002 -2.2702e+002 -5.4915e+001 31742 103584,103662,103636
 4.4000e+000 103714 -1.3472e+002 -2.5806e+002 -6.2076e+001 31742 103584,103636,103610
 4.4000e+000 104112 -4.0275e+001 -2.2288e+002  3.5083e+001 31402 103939,103991,103965
 4.4000e+000 104089 -6.9236e+001 -1.9233e+002  1.7742e+001 31402 103913,103991,103939
 4.4000e+000 104066 -9.5914e+001 -2.2012e+002  2.4033e+000 31402 103913,104017,103991
 4.4000e+000 104043 -1.1373e+002 -2.0314e+002 -1.0222e+001 31402 103887,104017,103913
 4.4000e+000 104569 -1.9633e+002 -3.4785e+002  8.7655e+000 30998 104321,104425,104373
 4.4000e+000 104546 -2.2495e+002 -3.5603e+002  3.6878e+000 30998 104321,104451,104425
 4.4000e+000 104523 -1.4623e+002 -2.9030e+002  3.8859e+001 30998 104373,104425,104399
 4.4000e+000 104500 -1.8337e+002 -4.1126e+002 -2.3305e+001 30998 104295,104451,104321
 4.4000e+000 104477 -2.6271e+002 -4.1100e+002  7.3335e+001 30998 104321,104373,104347
 4.4000e+000 104947 -1.7749e+002 -3.0499e+002 -3.3936e+001 30608 104751,104803,104777
 4.4000e+000 104924 -1.1860e+002 -3.1440e+002 -1.1889e+001 30608 104725,104803,104751
 4.4000e+000 104901 -1.8938e+002 -3.0523e+002  2.1320e+001 30608 104699,104803,104725
 4.4000e+000 104878 -1.6470e+002 -2.9440e+002  1.9301e+001 30608 104673,104803,104699
 4.4000e+000 104855 -1.2771e+002 -2.8462e+002 -1.1074e+001 30608 104673,104829,104803
 4.4000e+000 105276 -1.2172e+002 -2.8355e+002  1.6660e+001 30204 105427,105129,105077
 4.4000e+000 105253 -8.5548e+001 -3.0420e+002  6.2052e+001 30204 105427,105077,105051
 4.4000e+000 105230 -1.0546e+002 -2.7295e+002  2.1229e+001 30204 105077,105129,105103
 4.4000e+000 105207 -7.8254e+001 -2.5378e+002  3.9410e+001 30204 105299,105181,105155
 4.4000e+000 105325 -8.3439e+001 -2.4965e+002  1.5255e+001 30204 105129,105181,105299
 4.4000e+000 105453 -1.4452e+002 -2.9849e+002  3.6640e+001 30204 105181,105129,105427
 4.4000e+000 105476 -1.6581e+002 -3.4542e+002  8.7957e+001 30204 105181,105427,105051
 4.4000e+000 105903 -1.0375e+002 -2.4486e+002 -1.9211e+001 29700 105606,105762,105736
 4.4000e+000 105880 -1.3326e+002 -2.5100e+002  7.4245e-001 29700 105580,105762,105606
 4.4000e+000 105857 -1.5710e+002 -3.0868e+002 -1.8512e+001 29700 105606,105710,105632
 4.4000e+000 105834 -1.3118e+002 -2.5881e+002 -9.0727e+000 29700 105606,105736,105710
 4.4000e+000 105811 -1.4921e+002 -2.8101e+002 -2.0597e+001 29700 105632,105710,105684
 4.4000e+000 105788 -1.3993e+002 -2.5893e+002 -1.3085e+001 29700 105632,105684,105658
 4.4000e+000 106102 -4.2319e+001 -2.9188e+002  1.4586e+001 29124 105978,106030,106004
 4.4000e+000 106079 -7.2980e+001 -2.8639e+002  1.5541e+001 29124 105926,106030,105978
 4.4000e+000 106056 -7.9359e+001 -3.2032e+002  4.2696e+001 29124 105926,105978,105952
 4.4000e+000 106301 -8.1938e+001 -2.9963e+002  1.2949e+000 28712 106151,106229,106203
 4.4000e+000 106278 -9.7273e+001 -3.3169e+002 -1.5100e+001 28712 106125,106229,106151
 4.4000e+000 106255 -8.5447e+001 -3.1566e+002  1.6975e+001 28712 106151,106203,106177
 4.4000e+000 106551 -1.0789e+002 -3.7750e+002  1.7185e+001 28258 106352,106404,106378
 4.4000e+000 106528 -1.4736e+002 -3.8115e+002  2.1648e+000 28258 106352,106456,106404
 4.4000e+000 106505 -1.4642e+002 -3.9373e+002 -2.7454e+000 28258 106326,106456,106352
 4.4000e+000 106482 -1.3373e+002 -3.5990e+002 -6.2179e+000 28258 106404,106456,106430
 4.4000e+000 107012 -1.2402e+002 -3.1957e+002  6.4560e+001 27818 107035,106790,106764
 4.4000e+000 106989 -1.0778e+002 -3.0369e+002  2.3925e+001 27818 107035,106764,106868
 4.4000e+000 106966 -7.5506e+001 -3.6268e+002  3.5349e+001 27818 107107,106842,106816
 4.4000e+000 106943 -1.6593e+002 -2.8433e+002  1.3967e+001 27818 106738,106868,106764
 4.4000e+000 106920 -1.5589e+002 -2.5199e+002  2.8744e+001 27818 106738,106894,106868
 4.4000e+000 107061 -5.2335e+001 -3.0486e+002  7.3250e+001 27818 106816,106790,107035
 4.4000e+000 107084 -9.4084e+001 -3.3946e+002  3.7159e+001 27818 107107,106816,107035
 4.4000e+000 107133 -7.2751e+001 -3.2871e+002  1.8810e+001 27818 106868,106842,107107
 4.4000e+000 107156 -8.4480e+001 -2.9381e+002  2.4997e+001 27818 106868,107107,107035
 4.4000e+000 107613 -3.8408e+001 -2.4087e+002  5.2539e+001 27312 107339,107469,107365
 4.4000e+000 107590 -4.5990e+000 -2.2048e+002  4.3959e+001 27312 107339,107495,107469
 4.4000e+000 107567 -4.0467e+001 -2.3418e+002  2.5417e+001 27312 107391,107469,107443
 4.4000e+000 107544 -4.0003e+001 -2.5176e+002  2.1685e+001 27312 107365,107469,107391
 4.4000e+000 107521 -1.1048e+002 -2.5649e+002  9.9870e+000 27312 107391,107443,107417
 4.4000e+000 107991 -1.2862e+002 -3.5964e+002  1.5388e+001 26858 108086,108014,107795
 4.4000e+000 107968 -1.4178e+002 -3.7226e+002 -1.8176e+001 26858 108014,107717,107873
 4.4000e+000 107945 -1.4429e+002 -3.7582e+002  2.5361e+001 26858 108158,108086,107795
 4.4000e+000 107922 -1.1594e+002 -3.7661e+002  2.4416e+001 26858 108158,107795,107769
 4.4000e+000 107899 -1.0804e+002 -4.5068e+002  6.2282e+001 26858 107821,107873,107847
 4.4000e+000 108040 -1.3618e+002 -4.0836e+002  2.1787e+001 26858 107821,107795,108014
 4.4000e+000 108063 -8.4826e+001 -3.8553e+002  2.3930e+000 26858 107821,108014,107873
 4.4000e+000 108112 -1.7150e+002 -3.7730e+002  1.7037e+001 26858 107717,108014,108086
 4.4000e+000 108135 -1.4380e+002 -3.8271e+002  3.8853e+001 26858 107717,108086,107743
 4.4000e+000 108184 -1.1176e+002 -3.6831e+002  3.5643e+001 26858 107743,108086,108158
 4.4000e+000 108207 -9.8642e+001 -3.8001e+002  3.5830e+001 26858 107743,108158,107769
 4.4000e+000 108634 -1.6638e+002 -3.4308e+002  6.4363e+000 26404 108657,108415,108363
 4.4000e+000 108611 -1.8686e+002 -3.7005e+002  3.8065e+001 26404 108657,108363,108337
 4.4000e+000 108588 -1.6308e+002 -3.4954e+002  3.8500e+001 26404 108729,108311,108467
 4.4000e+000 108565 -1.7829e+002 -4.0671e+002  5.9369e+000 26404 108801,108441,108415
 4.4000e+000 108542 -2.4675e+002 -3.8782e+002  4.8566e+001 26404 108311,108493,108467
 4.4000e+000 108519 -1.1624e+002 -3.4504e+002  6.0520e+000 26404 108363,108415,108389
 4.4000e+000 108683 -2.1941e+002 -3.6570e+002  1.1212e+001 26404 108801,108415,108657
 4.4000e+000 108706 -2.0915e+002 -3.6269e+002  3.0499e+001 26404 108729,108467,108657
 4.4000e+000 108755 -1.3317e+002 -3.6913e+002  3.8426e+001 26404 108337,108311,108729
 4.4000e+000 108778 -1.5671e+002 -3.6605e+002  2.9737e+001 26404 108337,108729,108657
 4.4000e+000 108827 -2.1841e+002 -4.8891e+002 -1.7936e+001 26404 108467,108441,108801
 4.4000e+000 108850 -2.4009e+002 -4.1800e+002 -1.2343e+001 26404 108467,108801,108657
 4.4000e+000 109228 -1.6676e+002 -3.5640e+002 -1.7211e+001 26064 109006,109084,109058
 4.4000e+000 109205 -1.4887e+002 -3.3276e+002  6.6093e+000 26064 108980,109084,109006
 4.4000e+000 109182 -1.6224e+002 -3.1906e+002 -1.0985e+001 26064 108980,109110,109084
 4.4000e+000 109159 -1.5999e+002 -3.7526e+002 -2.4160e+000 26064 109006,109058,109032
 4.4000e+000 109136 -5.5015e+001 -2.8651e+002  1.0886e+001 26064 108954,109110,108980
 4.4000e+000 109427 -4.2271e+001 -3.0420e+002 -6.1098e+001 25660 109303,109355,109329
 4.4000e+000 109404 -8.5594e+001 -3.9106e+002 -1.4379e+001 25660 109277,109355,109303
 4.4000e+000 109381 -5.0812e+001 -3.6809e+002 -4.2677e+000 25660 109251,109355,109277
 4.4000e+000 109577 -6.1539e+001 -1.5111e+002  5.2265e+001 25306 109476,109528,109502
 4.4000e+000 109554  1.4563e+001 -1.3241e+002  3.6559e+001 25306 109450,109528,109476
 4.4000e+000 109778 -1.1793e+002 -3.2413e+002  9.9152e+000 24944 109628,109706,109654
 4.4000e+000 109755 -1.2719e+002 -3.1586e+002  1.9498e+000 24944 109602,109706,109628
 4.4000e+000 109732 -1.0379e+002 -3.0374e+002 -1.9394e+000 24944 109654,109706,109680
 4.4000e+000 110126 -1.1173e+002 -4.1456e+002  1.2974e+001 24440 110149,109907,109855
 4.4000e+000 110103 -1.0583e+002 -4.3710e+002  2.5974e+001 24440 110149,109855,109985
 4.4000e+000 110080 -8.9261e+001 -3.5913e+002  7.9269e+000 24440 109855,109907,109881
 4.4000e+000 110057 -9.3031e+001 -3.4127e+002  1.1324e+002 24440 109829,109985,109855
 4.4000e+000 110034 -1.0108e+002 -4.1522e+002  1.8025e+000 24440 109907,109959,109933
 4.4000e+000 110011 -5.3613e+001 -3.5042e+002  9.9872e+000 24440 109803,109985,109829
 4.4000e+000 110175 -1.0729e+002 -3.9541e+002  9.4707e+000 24440 109959,109907,110149
 4.4000e+000 110198 -1.0126e+002 -4.1448e+002  2.4782e+001 24440 109959,110149,109985
 4.4000e+000 110301 -1.4767e+001 -2.2876e+002  1.9849e+000 24028 110223,110275,110249
 4.4000e+000 110573 -5.1657e+001 -2.4715e+002  1.9549e+001 23467 110400,110452,110426
 4.4000e+000 110550 -8.7013e+001 -2.9016e+002  4.9394e-001 23467 110374,110452,110400
 4.4000e+000 110527 -8.9426e+001 -2.9111e+002  4.6034e+000 23467 110348,110452,110374
 4.4000e+000 110504 -6.5537e+001 -2.7992e+002 -2.2637e+000 23467 110348,110478,110452
 4.4000e+000 111004 -1.9630e+002 -4.2264e+002 -4.0384e+001 22963 111027,110733,110707
 4.4000e+000 110981 -1.9064e+002 -4.0107e+002  1.8635e+001 22963 111027,110707,110681
 4.4000e+000 110958 -9.4988e+001 -3.5862e+002 -4.3570e+001 22963 111099,110759,110733
 4.4000e+000 110935 -1.2448e+002 -3.4780e+002 -2.9384e+001 22963 111171,110863,110811
 4.4000e+000 110912 -6.1575e+001 -2.5905e+002 -4.7383e+001 22963 110759,110811,110785
 4.4000e+000 110889 -1.3657e+002 -3.6788e+002 -2.3523e+001 22963 110811,110863,110837
 4.4000e+000 111053 -1.3784e+002 -3.8910e+002 -2.6707e+001 22963 111099,110733,111027
 4.4000e+000 111076 -1.1655e+002 -3.7829e+002 -2.3833e+001 22963 111171,110811,111027
 4.4000e+000 111125 -9.2793e+001 -3.5154e+002 -6.6203e+001 22963 110811,110759,111099
 4.4000e+000 111148 -9.9311e+001 -3.4711e+002 -5.5706e+001 22963 110811,111099,111027
 4.4000e+000 111197 -1.2545e+002 -2.9929e+002 -3.6811e+001 22963 110681,110863,111171
 4.4000e+000 111220 -1.2955e+002 -3.3511e+002 -1.7733e+001 22963 110681,111171,111027
 4.4000e+000 111726 -1.8925e+002 -3.6841e+002  9.4583e+000 22459 111749,111507,111429
 4.4000e+000 111703 -1.7654e+002 -3.6499e+002 -7.7301e+000 22459 111749,111429,111585
 4.4000e+000 111680 -1.5116e+002 -4.1142e+002 -5.2186e+000 22459 111403,111585,111429
 4.4000e+000 111657 -1.8076e+002 -4.0391e+002  1.7346e+001 22459 111507,111559,111533
 4.4000e+000 111634 -2.4862e+002 -3.5380e+002  2.4019e+001 22459 111455,111507,111481
 4.4000e+000 111611 -2.5949e+002 -3.5385e+002  3.3009e+001 22459 111429,111507,111455
 4.4000e+000 111775 -1.9140e+002 -3.9417e+002  2.2194e+001 22459 111559,111507,111749
 4.4000e+000 111798 -1.7689e+002 -3.7679e+002  5.5911e+000 22459 111559,111749,111585
 4.4000e+000 112046 -8.4643e+001 -3.1184e+002 -4.1879e+001 21898 112069,111925,111873
 4.4000e+000 112023 -8.1630e+001 -3.1500e+002 -1.0848e+001 21898 112069,111873,111847
 4.4000e+000 112000 -1.0942e+002 -3.2572e+002 -1.8074e+001 21898 111821,111951,111847
 4.4000e+000 111977 -9.5378e+001 -2.4645e+002 -2.7542e+001 21898 111873,111925,111899
 4.4000e+000 112095 -1.2869e+002 -3.2833e+002 -4.7243e+001 21898 111951,111925,112069
 4.4000e+000 112118 -1.0729e+002 -3.2429e+002 -1.7446e+001 21898 111951,112069,111847
 4.4000e+000 112498 -1.4612e+002 -3.4237e+002 -3.0554e+001 21608 112521,112276,112224
 4.4000e+000 112475 -9.5033e+001 -3.4575e+002 -2.4106e+000 21608 112521,112224,112380
 4.4000e+000 112452 -1.0270e+002 -4.0321e+002  2.3478e+001 21608 112302,112380,112354
 4.4000e+000 112429 -1.7259e+002 -3.9210e+002 -1.9260e+001 21608 112224,112276,112250
 4.4000e+000 112406  5.8708e+001 -4.2017e+002 -1.0591e+001 21608 112302,112354,112328
 4.4000e+000 112547 -1.0473e+002 -3.0008e+002 -6.2153e+000 21608 112302,112276,112521
 4.4000e+000 112570 -6.9552e+001 -3.3499e+002  1.3074e+001 21608 112302,112521,112380
 4.4000e+000 112948 -1.6777e+002 -3.5442e+002 -6.7661e+000 20882 112971,112752,112700
 4.4000e+000 112925 -1.3107e+002 -3.4186e+002 -1.3638e+001 20882 112971,112700,112830
 4.4000e+000 112902 -2.1159e+002 -3.8381e+002  2.2498e+001 20882 112778,112830,112804
 4.4000e+000 112879 -1.2187e+002 -2.7922e+002 -1.9075e+001 20882 112674,112830,112700
 4.4000e+000 112856 -2.0528e+002 -3.7003e+002  6.3262e+000 20882 112700,112752,112726
 4.4000e+000 112997 -1.6868e+002 -3.5382e+002  1.3574e+001 20882 112778,112752,112971
 4.4000e+000 113020 -1.4773e+002 -3.4765e+002  5.8575e+000 20882 112778,112971,112830
 4.4000e+000 113526 -1.2263e+002 -3.5435e+002  2.3489e+000 20428 113255,113385,113333
 4.4000e+000 113503 -1.3402e+002 -3.8914e+002  2.2335e+000 20428 113229,113385,113255
 4.4000e+000 113480 -1.8590e+001 -3.4713e+002  3.5602e+000 20428 113255,113333,113281
 4.4000e+000 113457 -1.1425e+002 -3.8092e+002  5.3584e+000 20428 113203,113385,113229
 4.4000e+000 113434 -6.4153e+001 -3.6336e+002 -1.1382e+001 20428 113281,113333,113307
 4.4000e+000 113411 -1.5110e+002 -3.5074e+002  9.5974e+000 20428 113333,113385,113359
 4.4000e+000 113774 -2.0458e+001 -3.4081e+002  1.3671e+001 19917 113797,113601,113549
 4.4000e+000 113751 -5.6796e+001 -3.4816e+002  1.8309e+001 19917 113869,113797,113549
 4.4000e+000 113728 -5.4211e+001 -3.5255e+002  3.5203e+001 19917 113869,113549,113679
 4.4000e+000 113705 -3.1236e+001 -3.3853e+002  2.7887e+001 19917 113549,113601,113575
 4.4000e+000 113823 -5.7603e+001 -4.1450e+002 -1.3142e+000 19917 113627,113601,113797
 4.4000e+000 113846 -2.1387e+001 -3.2426e+002 -8.7218e+000 19917 113627,113797,113653
 4.4000e+000 113895 -4.8327e+001 -3.0788e+002  5.3052e+000 19917 113653,113797,113869
 4.4000e+000 113918 -6.2138e+001 -3.1871e+002  2.6812e+001 19917 113653,113869,113679
 4.4000e+000 114166 -1.5632e+002 -3.5495e+002 -5.8379e+000 19413 113993,114045,114019
 4.4000e+000 114143 -1.4850e+002 -3.3192e+002  1.9700e+000 19413 113967,114045,113993
 4.4000e+000 114120 -1.2359e+002 -3.2323e+002  1.8480e+001 19413 113967,114071,114045
 4.4000e+000 114097 -1.0254e+002 -3.6482e+002 -5.2124e+000 19413 113941,114071,113967
 4.4000e+000 114438 -1.4698e+002 -3.8818e+002  3.6808e+000 19001 114213,114265,114239
 4.4000e+000 114415 -1.0603e+002 -3.0246e+002 -8.8858e+000 19001 114213,114343,114265
 4.4000e+000 114392 -1.5682e+002 -4.1628e+002 -1.8832e+001 19001 114265,114343,114317
 4.4000e+000 114369  2.9548e+001 -3.3603e+002 -7.6627e+000 19001 114265,114317,114291
 4.4000e+000 114639 -1.1141e+002 -4.6177e+002  2.2612e+001 18554 114489,114541,114515
 4.4000e+000 114616 -9.7616e+001 -3.9968e+002  3.9340e+000 18554 114489,114567,114541
 4.4000e+000 114593 -2.0982e+002 -4.5996e+002 -3.0751e+001 18554 114463,114567,114489
 4.4000e+000 115043 -7.6826e+001 -3.4506e+002  1.2535e+001 18164 114795,114925,114821
 4.4000e+000 115020 -6.8636e+001 -3.6497e+002  1.9857e+001 18164 114769,114925,114795
 4.4000e+000 114997 -4.1705e+001 -3.6311e+002 -2.8756e+000 18164 115066,114873,114821
 4.4000e+000 114974 -3.9437e+001 -3.1164e+002 -1.2533e+001 18164 115066,114821,114925
 4.4000e+000 114951  2.2559e+001 -3.6466e+002 -3.5895e+001 18164 114821,114873,114847
 4.4000e+000 115092 -5.9726e+001 -3.2584e+002 -2.9900e+001 18164 114899,114873,115066
 4.4000e+000 115115 -3.6182e+001 -2.4718e+002 -4.2127e+001 18164 114899,115066,114925
 4.4000e+000 115265 -9.8829e+001 -3.8314e+002  3.8289e+000 17852 115164,115216,115190
 4.4000e+000 115242 -1.0834e+002 -4.0234e+002 -6.0808e-001 17852 115138,115216,115164
 4.4000e+000 115464 -2.4110e+002 -5.4058e+002  7.1665e+000 17346 115288,115366,115340
 4.4000e+000 115441 -3.7045e+002 -4.1947e+002 -1.5997e+001 17346 115288,115392,115366
 4.4000e+000 115418 -2.1597e+002 -6.0637e+002 -1.8900e+001 17346 115288,115340,115314
 4.4000e+000 115736 -9.4893e+001 -3.4703e+002  1.4666e+001 16942 115563,115641,115615
 4.4000e+000 115713 -1.0624e+002 -3.4540e+002  4.7045e+000 16942 115511,115641,115563
 4.4000e+000 115690 -2.4298e+002 -4.0398e+002  2.2265e+001 16942 115563,115615,115589
 4.4000e+000 115667 -1.2498e+002 -3.7521e+002  1.2674e+001 16942 115511,115563,115537
 4.4000e+000 116091 -1.7744e+002 -4.1448e+002 -1.5712e+001 16388 115918,115970,115944
 4.4000e+000 116068 -1.5201e+002 -3.3225e+002 -1.0295e+001 16388 115918,115996,115970
 4.4000e+000 116045 -2.0519e+002 -4.2123e+002  1.4139e+001 16388 115892,115996,115918
 4.4000e+000 116022 -1.3431e+002 -3.8328e+002  4.7265e+001 16388 115866,115996,115892
 4.4000e+000 116192 -5.9242e+001 -4.3617e+002 -6.1108e+001 15810 116114,116166,116140
 4.4000e+000 116342 -1.6330e+002 -5.2459e+002  2.8819e+001 15419 116241,116293,116267
 4.4000e+000 116319 -2.3292e+002 -6.4437e+002 -1.8593e+001 15419 116215,116293,116241
 4.4000e+000 116445 -1.7491e+002 -3.5717e+002  2.5720e+000 421 116367,116419,116393
 4.5000e+000 68477 -2.3194e+002 -3.4320e+002  1.8613e+000 68018 68327,68379,68353
 4.5000e+000 68454 -2.4670e+002 -4.5377e+002  3.3732e+001 68018 68301,68379,68327
 4.5000e+000 68431 -1.1251e+002 -5.0502e+002  8.5018e+001 68018 68301,68405,68379
 4.5000e+000 68578 -1.5817e+002 -3.2682e+002  1.5607e+000 67820 68500,68552,68526
 4.5000e+000 68728 -1.6889e+002 -3.0343e+002 -4.7444e+000 67508 68601,68653,68627
 4.5000e+000 68705 -2.6004e+002 -2.3124e+002 -4.4947e+001 67508 68601,68679,68653
 4.5000e+000 68927 -5.0161e+001 -2.8755e+002 -5.7013e+000 67310 68777,68829,68803
 4.5000e+000 68904 -7.5506e+001 -3.3229e+002  6.1532e+000 67310 68751,68829,68777
 4.5000e+000 68881 -6.0609e+001 -3.3724e+002  1.8294e+001 67310 68751,68855,68829
 4.5000e+000 69386 -1.3495e+002 -3.5424e+002 -1.6727e+001 67020 69216,69268,69242
 4.5000e+000 69363 -1.2352e+002 -2.7543e+002 -3.4408e+001 67020 69138,69268,69216
 4.5000e+000 69340 -9.1342e+001 -2.4843e+002 -2.0163e+001 67020 69112,69268,69138
 4.5000e+000 69317 -1.6405e+002 -2.9606e+002  2.2940e+001 67020 69138,69190,69164
 4.5000e+000 69294 -1.7192e+002 -2.7251e+002 -1.4783e+001 67020 69138,69216,69190
 4.5000e+000 69536 -2.6218e+002 -6.4234e+002 -5.1704e+001 66708 69435,69487,69461
 4.5000e+000 69513 -1.9366e+002 -7.2374e+002 -7.7037e+000 66708 69409,69487,69435
 4.5000e+000 69735 -1.6493e+002 -3.3605e+002  7.7004e+000 66346 69585,69637,69611
 4.5000e+000 69712 -1.3608e+002 -3.1770e+002 -1.9969e+000 66346 69559,69637,69585
 4.5000e+000 69689 -1.2358e+002 -3.1510e+002 -3.1415e+001 66346 69559,69663,69637
 4.5000e+000 69985 -2.3468e+002 -3.9854e+002  5.8181e+000 66148 69786,69890,69864
 4.5000e+000 69962 -2.4161e+002 -4.0298e+002  8.3865e+000 66148 69760,69890,69786
 4.5000e+000 69939 -1.7369e+002 -3.7522e+002 -5.3037e+001 66148 69786,69864,69838
 4.5000e+000 69916 -2.0043e+002 -3.9938e+002 -2.1776e+001 66148 69786,69838,69812
 4.5000e+000 70137 -1.1407e+002 -4.3743e+002 -2.5469e+001 65950 70036,70088,70062
 4.5000e+000 70114 -9.7307e+001 -4.8588e+002  2.2915e+001 65950 70010,70088,70036
 4.5000e+000 70470 -8.7245e+001 -3.2589e+002  2.6324e+001 65546 70245,70323,70271
 4.5000e+000 70447 -6.3108e+001 -2.9001e+002  1.1953e+001 65546 70245,70375,70323
 4.5000e+000 70424 -7.9770e+001 -3.6466e+002  1.3063e+001 65546 70323,70375,70349
 4.5000e+000 70401 -6.8157e+001 -3.0009e+002  1.2010e+001 65546 70271,70323,70297
 4.5000e+000 70620 -1.4750e+002 -3.8214e+002  1.2914e+001 65348 70493,70545,70519
 4.5000e+000 70597 -1.0317e+002 -3.9822e+002  1.7000e+001 65348 70493,70571,70545
 4.5000e+000 70721 -1.9786e+002 -4.0303e+002  2.9496e+001 65150 70643,70695,70669
 4.5000e+000 71020 -1.4034e+002 -3.1643e+002  5.1475e+000 64952 71043,70850,70824
 4.5000e+000 70997 -1.2237e+002 -2.7285e+002  4.4035e+000 64952 71043,70824,70772
 4.5000e+000 70974 -1.3267e+002 -3.6475e+002  6.0587e+000 64952 71115,70746,70876
 4.5000e+000 70951 -1.0501e+002 -3.6408e+002 -2.2258e+000 64952 70746,70902,70876
 4.5000e+000 70928 -1.2490e+002 -2.3104e+002 -2.1709e+001 64952 70772,70824,70798
 4.5000e+000 71069 -1.1367e+002 -3.0275e+002  1.1643e+001 64952 70876,70850,71043
 4.5000e+000 71092 -1.3084e+002 -3.4357e+002  6.9588e+000 64952 71115,70876,71043
 4.5000e+000 71141 -1.4989e+002 -3.4034e+002 -1.2792e+001 64952 70772,70746,71115
 4.5000e+000 71164 -1.4030e+002 -3.0852e+002 -1.2513e+001 64952 70772,71115,71043
 4.5000e+000 71365 -3.9200e+000 -3.9640e+002 -5.1465e+000 64662 71215,71293,71267
 4.5000e+000 71342  5.8394e+001 -3.7462e+002 -6.4579e+001 64662 71189,71293,71215
 4.5000e+000 71319  2.9940e+001 -3.2937e+002  6.4128e+000 64662 71215,71267,71241
 4.5000e+000 71615 -9.2288e+001 -3.3856e+002 -4.3456e+000 64350 71710,71638,71468
 4.5000e+000 71592 -1.1366e+002 -3.3318e+002 -1.1131e+001 64350 71638,71416,71390
 4.5000e+000 71569 -9.8702e+001 -3.1584e+002  1.4569e+001 64350 71710,71468,71442
 4.5000e+000 71546  6.0571e+001 -3.2357e+002 -5.4849e+001 64350 71390,71520,71494
 4.5000e+000 71664 -8.6351e+001 -3.3747e+002  4.3886e-001 64350 71494,71468,71638
 4.5000e+000 71687 -8.7448e+001 -3.4480e+002  5.4328e-001 64350 71494,71638,71390
 4.5000e+000 71736 -8.3664e+001 -2.9289e+002  2.2965e+000 64350 71416,71638,71710
 4.5000e+000 71759 -8.1687e+001 -2.6996e+002  2.6633e+001 64350 71416,71710,71442
 4.5000e+000 72318 -9.7110e+001 -5.3764e+002 -2.0995e+001 63837 71972,72024,71998
 4.5000e+000 72295 -1.5014e+002 -3.4602e+002 -9.3632e-001 63837 72341,71972,71946
 4.5000e+000 72272 -1.3564e+002 -2.7819e+002  1.2816e+001 63837 72413,72341,71946
 4.5000e+000 72249 -1.2501e+002 -2.5260e+002  4.2628e+000 63837 72413,71946,72128
 4.5000e+000 72226 -1.9274e+002 -3.0422e+002  2.3646e+000 63837 72024,72076,72050
 4.5000e+000 72203 -1.6404e+002 -2.7977e+002 -9.4584e+000 63837 72024,72102,72076
 4.5000e+000 72180 -8.3445e+001 -2.3844e+002  2.1073e+001 63837 71946,72154,72128
 4.5000e+000 72367 -1.7817e+002 -3.7030e+002 -6.4998e+001 63837 72024,71972,72341
 4.5000e+000 72390 -1.3937e+002 -3.0314e+002 -2.4770e+001 63837 72024,72341,72102
 4.5000e+000 72439 -1.0632e+002 -3.1999e+002  5.1513e+000 63837 72102,72341,72413
 4.5000e+000 72462 -9.7411e+001 -2.9432e+002 -5.5323e-001 63837 72102,72413,72128
 4.5000e+000 72791 -1.6739e+002 -3.2447e+002 -3.2555e+001 63383 72592,72696,72670
 4.5000e+000 72768 -1.7053e+002 -3.0220e+002 -5.7718e+001 63383 72566,72696,72592
 4.5000e+000 72745 -1.6559e+002 -2.8275e+002  1.0667e+000 63383 72592,72670,72618
 4.5000e+000 72722 -1.5915e+002 -2.6585e+002  5.0312e-001 63383 72618,72670,72644
 4.5000e+000 73297 -1.9896e+002 -2.8569e+002 -1.7755e+000 63185 73000,73156,73130
 4.5000e+000 73274 -2.0018e+002 -2.9825e+002  3.6456e+001 63185 72974,73156,73000
 4.5000e+000 73251 -1.4868e+002 -3.2973e+002 -5.5867e+000 63185 73000,73052,73026
 4.5000e+000 73228 -1.6490e+002 -2.9499e+002 -1.4654e+001 63185 73000,73130,73052
 4.5000e+000 73205 -1.6283e+002 -3.2979e+002 -4.9784e+001 63185 73052,73130,73104
 4.5000e+000 73182 -1.5483e+002 -3.6565e+002 -5.3370e+001 63185 73052,73104,73078
 4.5000e+000 73545 -6.6285e+001 -3.0821e+002  2.7211e+000 62781 73568,73398,73372
 4.5000e+000 73522 -4.7642e+001 -2.8053e+002  1.1538e+001 62781 73568,73372,73346
 4.5000e+000 73499 -8.8517e+001 -2.9249e+002 -8.1052e+000 62781 73640,73320,73424
 4.5000e+000 73476 -9.5227e+001 -1.8507e+002 -3.2499e+001 62781 73320,73450,73424
 4.5000e+000 73594 -5.3531e+001 -2.8364e+002 -4.6134e+000 62781 73424,73398,73568
 4.5000e+000 73617 -6.9900e+001 -2.8469e+002 -8.0786e+000 62781 73640,73424,73568
 4.5000e+000 73666 -8.5793e+001 -2.8874e+002  7.6322e+000 62781 73346,73320,73640
 4.5000e+000 73689 -7.6048e+001 -2.8514e+002  7.7663e+000 62781 73346,73640,73568
 4.5000e+000 74035 -1.1843e+002 -3.3117e+002 -4.9807e+000 62363 74058,73868,73842
 4.5000e+000 74012 -1.1005e+002 -3.0447e+002 -2.5272e+001 62363 74130,74058,73842
 4.5000e+000 73989 -1.0008e+002 -3.0174e+002 -2.7145e+001 62363 74130,73842,73816
 4.5000e+000 73966 -1.6269e+002 -3.4395e+002  3.9469e+000 62363 74202,73764,73894
 4.5000e+000 73943 -2.1034e+002 -3.1524e+002  4.3003e+000 62363 73712,73894,73764
 4.5000e+000 73920 -2.2643e+002 -3.3335e+002 -3.9017e+000 62363 73712,73764,73738
 4.5000e+000 74084 -1.1916e+002 -3.2659e+002 -4.8702e+000 62363 73894,73868,74058
 4.5000e+000 74107 -1.4883e+002 -3.2929e+002  1.5242e+001 62363 74202,73894,74058
 4.5000e+000 74156 -1.2196e+002 -3.1003e+002  9.1865e+000 62363 73790,74058,74130
 4.5000e+000 74179 -7.5300e+001 -2.9228e+002  1.0560e+001 62363 73790,74130,73816
 4.5000e+000 74228 -1.7850e+002 -3.5084e+002 -1.7797e+001 62363 73790,73764,74202
 4.5000e+000 74251 -1.6830e+002 -3.3528e+002 -6.5824e+000 62363 73790,74202,74058
 4.5000e+000 74403 -1.3483e+001 -3.5611e+002  2.3622e+001 62115 74426,74302,74276
 4.5000e+000 74380  5.2806e+001 -3.4049e+002  5.0802e+001 62115 74426,74276,74354
 4.5000e+000 74452 -7.6140e+001 -3.2147e+002  2.3086e+001 62115 74328,74302,74426
 4.5000e+000 74475 -1.4043e+001 -3.0788e+002  5.2032e+001 62115 74328,74426,74354
 4.5000e+000 74578  5.6302e+001 -1.9470e+002  2.0298e+000 61825 74500,74552,74526
 4.5000e+000 74982 -1.7444e+002 -3.0354e+002  2.2767e+000 61513 75005,74734,74708
 4.5000e+000 74959 -1.6951e+002 -2.9358e+002 -1.1401e+000 61513 75005,74708,74864
 4.5000e+000 74936 -2.1547e+002 -3.1057e+002  2.1288e+001 61513 75077,74812,74734
 4.5000e+000 74913 -1.9382e+002 -3.1516e+002 -2.6869e+001 61513 74734,74786,74760
 4.5000e+000 74890 -1.8925e+002 -2.7851e+002 -1.5715e+000 61513 74734,74812,74786
 4.5000e+000 75031 -1.6378e+002 -3.1054e+002  4.0002e+000 61513 75077,74734,75005
 4.5000e+000 75054 -1.3087e+002 -3.0194e+002  4.4287e+001 61513 74838,75005,74864
 4.5000e+000 75103 -2.4474e+002 -3.2475e+002  6.7659e+001 61513 74838,74812,75077
 4.5000e+000 75126 -2.1079e+002 -3.3742e+002  5.0530e+001 61513 74838,75077,75005
 4.5000e+000 75553 -8.6521e+001 -2.7910e+002 -9.9657e+000 61060 75576,75360,75308
 4.5000e+000 75530 -8.9631e+001 -2.9664e+002 -1.1574e+001 61060 75576,75308,75230
 4.5000e+000 75507 -7.7675e+001 -2.6787e+002 -4.6564e-001 61060 75308,75360,75334
 4.5000e+000 75484 -1.1788e+002 -3.4540e+002  1.9850e+001 61060 75230,75308,75256
 4.5000e+000 75461 -8.3515e+001 -3.2192e+002  9.5669e+000 61060 75256,75308,75282
 4.5000e+000 75438 -9.8043e+001 -2.7320e+002  3.4727e+001 61060 75360,75412,75386
 4.5000e+000 75602 -6.6634e+001 -2.9461e+002  1.7141e+000 61060 75412,75360,75576
 4.5000e+000 75625 -8.0692e+001 -3.2815e+002 -4.2734e+000 61060 75412,75576,75230
 4.5000e+000 76052 -1.2854e+002 -2.8820e+002  5.1642e+000 60442 75755,75859,75833
 4.5000e+000 76029 -1.4977e+002 -2.7367e+002 -1.9312e+001 60442 75729,75859,75755
 4.5000e+000 76006 -1.3331e+002 -2.6771e+002  1.7784e+001 60442 75755,75833,75807
 4.5000e+000 75983 -1.2792e+002 -3.1672e+002  9.6956e+000 60442 75755,75807,75781
 4.5000e+000 75960  2.3949e+000 -5.0343e+002  1.9350e+001 60442 75729,75911,75859
 4.5000e+000 75937 -2.5722e+002 -1.2490e+003  8.1408e+001 60442 75859,75911,75885
 4.5000e+000 76430 -1.3364e+002 -3.4461e+002 -1.4711e+001 59788 76453,76286,76234
 4.5000e+000 76407 -1.4466e+002 -3.9415e+002  5.5801e+000 59788 76453,76234,76182
 4.5000e+000 76384 -1.4942e+002 -2.6462e+002  4.2876e+001 59788 76525,76156,76312
 4.5000e+000 76361 -8.5018e+001 -4.4985e+002 -5.0537e+000 59788 76182,76234,76208
 4.5000e+000 76338 -1.0678e+002 -3.3127e+002 -9.5556e+000 59788 76234,76286,76260
 4.5000e+000 76479 -1.6204e+002 -3.7260e+002  1.2132e+000 59788 76312,76286,76453
 4.5000e+000 76502 -1.3607e+002 -3.5325e+002  1.7669e+001 59788 76525,76312,76453
 4.5000e+000 76551 -1.8375e+002 -3.7595e+002  4.5872e+001 59788 76182,76156,76525
 4.5000e+000 76574 -1.6286e+002 -4.0347e+002  2.7679e+001 59788 76182,76525,76453
 4.5000e+000 77031 -9.6714e+001 -2.1059e+002 -3.1882e+001 59448 76835,76887,76861
 4.5000e+000 77008 -4.2919e+001 -1.7576e+002  7.7185e+000 59448 76835,76913,76887
 4.5000e+000 76985 -5.5484e+001 -1.4773e+002  2.8268e+001 59448 76809,76913,76835
 4.5000e+000 76962 -1.0460e+002 -1.9528e+002 -3.7363e-001 59448 76757,76913,76809
 4.5000e+000 76939 -8.6124e+001 -1.7290e+002 -8.3357e+000 59448 76757,76809,76783
 4.5000e+000 77537 -1.4103e+002 -3.0067e+002  1.4258e+001 58994 77560,77344,77292
 4.5000e+000 77514 -1.9852e+002 -2.9945e+002  3.0239e+000 58994 77560,77292,77240
 4.5000e+000 77491 -1.1402e+002 -2.8146e+002 -7.1105e+000 58994 77632,77214,77370
 4.5000e+000 77468 -2.3302e+002 -3.4452e+002  6.0697e+001 58994 77292,77344,77318
 4.5000e+000 77445 -1.1590e+002 -3.6537e+002  1.3834e+001 58994 77214,77396,77370
 4.5000e+000 77422 -2.0192e+002 -3.1588e+002 -6.9789e+000 58994 77240,77292,77266
 4.5000e+000 77586 -1.4609e+002 -3.0701e+002  1.6580e+001 58994 77370,77344,77560
 4.5000e+000 77609 -1.4580e+002 -3.0076e+002  1.9440e+001 58994 77632,77370,77560
 4.5000e+000 77658 -9.7118e+001 -2.6160e+002 -3.6419e+001 58994 77240,77214,77632
 4.5000e+000 77681 -1.2065e+002 -2.5901e+002 -1.2487e+001 58994 77240,77632,77560
 4.5000e+000 78138 -1.1692e+002 -2.1056e+002  3.0735e+001 58440 77864,77994,77890
 4.5000e+000 78115 -7.7442e+001 -1.2844e+002 -1.5941e+001 58440 77864,78020,77994
 4.5000e+000 78092 -1.3367e+002 -2.4893e+002 -2.1292e+001 58440 77942,77994,77968
 4.5000e+000 78069 -1.0667e+002 -2.3625e+002  4.9495e+000 58440 77890,77994,77942
 4.5000e+000 78046 -9.5850e+001 -2.3919e+002 -3.2083e+000 58440 77890,77942,77916
 4.5000e+000 78467 -2.3213e+001 -2.7691e+002  1.0436e+001 57928 78562,78490,78346
 4.5000e+000 78444 -1.0507e+002 -2.7936e+002 -4.4305e+000 57928 78490,78294,78268
 4.5000e+000 78421 -6.6116e+000 -2.8954e+002  2.3964e+001 57928 78562,78346,78320
 4.5000e+000 78398 -4.1738e+001 -2.7096e+002  3.4545e+000 57928 78242,78372,78268
 4.5000e+000 78516 -9.2468e+001 -3.4563e+002 -1.8431e+001 57928 78372,78346,78490
 4.5000e+000 78539 -7.3303e+001 -2.6594e+002 -2.7400e+000 57928 78372,78490,78268
 4.5000e+000 78588 -1.0463e+002 -2.7387e+002  1.5450e+000 57928 78294,78490,78562
 4.5000e+000 78611 -5.2632e+001 -2.4555e+002  2.8946e+001 57928 78294,78562,78320
 4.5000e+000 79068 -2.0369e+002 -4.3015e+002 -1.0716e+002 57467 78794,78924,78820
 4.5000e+000 79045 -1.6099e+002 -4.1048e+002 -1.0118e+002 57467 78794,78950,78924
 4.5000e+000 79022 -8.7042e+001 -3.8422e+002  3.6645e+001 57467 78820,78898,78872
 4.5000e+000 78999 -1.5027e+002 -5.2830e+002 -5.7073e+001 57467 78820,78924,78898
 4.5000e+000 78976 -6.2370e+001 -3.8805e+002  5.6265e+001 57467 78820,78872,78846
 4.5000e+000 79446 -1.7098e+002 -3.2346e+002 -7.8865e-002 57120 79172,79302,79250
 4.5000e+000 79423 -1.5219e+002 -3.1497e+002 -1.1270e+001 57120 79172,79328,79302
 4.5000e+000 79400 -1.5427e+002 -2.8396e+002 -1.1132e+001 57120 79172,79250,79198
 4.5000e+000 79377 -1.1729e+002 -4.0920e+002  1.6195e+001 57120 79250,79302,79276
 4.5000e+000 79354 -1.8899e+002 -3.0807e+002 -2.2560e+001 57120 79198,79250,79224
 4.5000e+000 79952 -2.2758e+002 -3.5985e+002  1.0663e+000 56773 79629,79785,79655
 4.5000e+000 79929 -6.6268e+001 -3.1016e+002  1.5295e+001 56773 79629,79811,79785
 4.5000e+000 79906 -1.7770e+002 -3.8999e+002  2.6425e+001 56773 79655,79733,79681
 4.5000e+000 79883 -1.7425e+002 -3.4531e+002  6.6134e+000 56773 79655,79785,79733
 4.5000e+000 79860 -1.6348e+002 -4.5035e+002 -5.3678e+001 56773 79733,79785,79759
 4.5000e+000 79837 -9.2458e+001 -3.5092e+002  6.7878e+001 56773 79681,79733,79707
 4.5000e+000 80281 -7.9874e+001 -2.6662e+002 -2.1107e+001 56319 80108,80160,80134
 4.5000e+000 80258 -8.6431e+001 -2.9069e+002 -2.6249e+001 56319 80056,80160,80108
 4.5000e+000 80235 -3.7504e+001 -2.5774e+002  1.6938e+001 56319 80056,80186,80160
 4.5000e+000 80212 -1.1644e+002 -3.6974e+002 -1.7270e+001 56319 80056,80108,80082
 4.5000e+000 80738 -4.6555e+001 -3.2148e+002  1.6930e+001 55957 80516,80620,80594
 4.5000e+000 80715 -1.1436e+002 -2.9144e+002  1.3596e+001 55957 80464,80620,80516
 4.5000e+000 80692 -9.7698e+001 -3.5040e+002  1.8248e+001 55957 80761,80568,80542
 4.5000e+000 80669 -7.9686e+001 -3.4491e+002  2.1586e+001 55957 80761,80542,80516
 4.5000e+000 80646 -1.1505e+002 -2.9233e+002  3.6728e+001 55957 80464,80516,80490
 4.5000e+000 80787 -1.1525e+002 -3.4807e+002  1.2925e+001 55957 80594,80568,80761
 4.5000e+000 80810 -9.8339e+001 -3.4308e+002  1.6481e+001 55957 80594,80761,80516
 4.5000e+000 81210 -9.7128e+001 -3.2754e+002 -3.8332e+001 55317 80936,80988,80962
 4.5000e+000 81187 -8.0661e+001 -3.6155e+002 -1.3796e+000 55317 80936,81066,80988
 4.5000e+000 81164 -5.4467e+001 -3.8647e+002  5.2428e+000 55317 80936,81092,81066
 4.5000e+000 81141 -1.1378e+002 -3.8515e+002 -3.5485e+001 55317 80988,81066,81014
 4.5000e+000 81118 -1.5693e+001 -2.1753e+002  2.2416e+001 55317 81014,81066,81040
 4.5000e+000 81539 -1.4671e+002 -3.3329e+002  8.3946e+000 54913 81340,81418,81392
 4.5000e+000 81516 -6.0315e+001 -2.6866e+002 -2.0645e+001 54913 81340,81444,81418
 4.5000e+000 81493 -9.0604e+001 -2.8781e+002 -4.0771e+001 54913 81314,81444,81340
 4.5000e+000 81470 -1.6623e+002 -3.5103e+002  6.3214e-001 54913 81340,81392,81366
 4.5000e+000 81787 -8.4847e+001 -3.4945e+002 -3.0403e+000 54601 81588,81692,81640
 4.5000e+000 81764 -1.2281e+002 -3.5353e+002 -1.1235e+001 54601 81562,81692,81588
 4.5000e+000 81741 -6.7038e+001 -3.5499e+002  4.6126e+001 54601 81588,81640,81614
 4.5000e+000 81718 -8.7610e+001 -4.1432e+002 -3.5952e+001 54601 81640,81692,81666
 4.5000e+000 82344 -1.3277e+002 -3.5710e+002 -1.8075e+001 54090 81998,82102,82076
 4.5000e+000 82321 -1.7865e+002 -3.7716e+002 -1.0460e+001 54090 81998,82154,82102
 4.5000e+000 82298 -1.6196e+002 -3.6784e+002 -5.8049e+000 54090 81972,82154,81998
 4.5000e+000 82275 -1.8408e+002 -3.3486e+002 -2.0665e+001 54090 81998,82076,82024
 4.5000e+000 82252 -1.9593e+002 -3.9122e+002  1.8572e+001 54090 81972,82180,82154
 4.5000e+000 82229 -2.4725e+002 -4.5999e+002  2.6156e+001 54090 82102,82154,82128
 4.5000e+000 82206 -3.4574e+001 -2.5378e+002 -5.3189e+001 54090 82024,82076,82050
 4.5000e+000 82722 -2.2679e+002 -4.0507e+002 -1.4514e+001 53579 82500,82578,82552
 4.5000e+000 82699 -1.6715e+002 -3.6858e+002  9.4890e+000 53579 82448,82578,82500
 4.5000e+000 82676 -1.8190e+002 -4.1617e+002  1.0766e+001 53579 82448,82500,82474
 4.5000e+000 82653 -2.2066e+002 -3.9599e+002  2.8601e+001 53579 82448,82604,82578
 4.5000e+000 82630 -1.1854e+002 -3.7495e+002 -1.5479e+001 53579 82500,82552,82526
 4.5000e+000 83356 -1.1005e+002 -2.9026e+002 -3.0251e+001 53189 83379,83088,83036
 4.5000e+000 83333 -1.0610e+002 -3.2744e+002 -2.7304e+001 53189 83379,83036,82984
 4.5000e+000 83310 -5.3686e+001 -3.0909e+002  4.3351e+001 53189 82984,83192,83166
 4.5000e+000 83287  3.1297e+000 -2.4024e+002 -2.1106e+001 53189 83036,83088,83062
 4.5000e+000 83264 -8.5368e+001 -3.6475e+002 -4.9969e+001 53189 82984,83036,83010
 4.5000e+000 83241 -7.6117e+001 -3.6538e+002  7.2463e+000 53189 83114,83166,83140
 4.5000e+000 83218 -1.4861e+002 -3.7975e+002  1.8982e+000 53189 83088,83166,83114
 4.5000e+000 83405 -1.1060e+002 -3.1545e+002 -1.4821e+001 53189 83166,83088,83379
 4.5000e+000 83428 -1.0110e+002 -3.4834e+002 -1.4233e+001 53189 83166,83379,82984
 4.5000e+000 83725 -1.4519e+002 -4.1064e+002 -3.5841e+001 52585 83748,83529,83503
 4.5000e+000 83702 -1.0904e+002 -3.9868e+002 -2.3270e+001 52585 83820,83748,83503
 4.5000e+000 83679 -7.3733e+001 -3.8995e+002 -1.9422e+001 52585 83820,83503,83477
 4.5000e+000 83656 -5.1994e+001 -3.5833e+002  4.7280e+001 52585 83477,83607,83581
 4.5000e+000 83633  2.9526e+001 -3.2352e+002  4.9992e+001 52585 83451,83607,83477
 4.5000e+000 83774 -1.2683e+002 -3.6510e+002 -3.1902e+001 52585 83555,83529,83748
 4.5000e+000 83797 -1.6662e+002 -3.9402e+002 -1.9275e+001 52585 83555,83748,83581
 4.5000e+000 83846 -1.4245e+002 -3.7814e+002 -5.2043e+000 52585 83581,83748,83820
 4.5000e+000 83869 -1.1679e+002 -3.7544e+002 -5.1331e+000 52585 83581,83820,83477
 4.5000e+000 84200 -1.0723e+002 -3.7230e+002 -1.3606e+001 52024 84001,84105,84079
 4.5000e+000 84177 -5.7558e+001 -3.6291e+002 -2.5715e+001 52024 83975,84105,84001
 4.5000e+000 84154 -9.3498e+001 -3.7219e+002 -1.1443e+001 52024 84001,84079,84053
 4.5000e+000 84131 -4.6956e+001 -2.5012e+002  4.4627e+001 52024 84001,84053,84027
 4.5000e+000 84399 -9.0359e+001 -3.7158e+002 -1.5452e+000 51470 84422,84275,84249
 4.5000e+000 84376 -8.4018e+001 -3.5697e+002  2.1722e+000 51470 84422,84249,84223
 4.5000e+000 84353 -1.0228e+002 -3.9139e+002 -5.4159e+001 51470 84275,84327,84301
 4.5000e+000 84448 -9.7143e+001 -3.5799e+002 -2.3882e+000 51470 84327,84275,84422
 4.5000e+000 84471 -9.2833e+001 -3.4624e+002  1.0951e+000 51470 84327,84422,84223
 4.5000e+000 84753 -1.0847e+002 -3.0812e+002 -2.2460e+000 51073 84603,84655,84629
 4.5000e+000 84730 -2.2161e+002 -3.5974e+002 -1.6168e+001 51073 84776,84655,84603
 4.5000e+000 84707 -4.9328e+001 -3.1375e+002 -8.6398e+001 51073 84577,84681,84655
 4.5000e+000 84802 -1.4084e+002 -3.1473e+002 -4.0559e+001 51073 84577,84655,84776
 4.5000e+000 85178 -2.0104e+002 -4.3683e+002  3.8976e+001 50519 85201,85008,84982
 4.5000e+000 85155 -1.9042e+002 -4.0536e+002  2.8082e+001 50519 85273,85201,84982
 4.5000e+000 85132 -1.7932e+002 -4.0547e+002  2.0971e+001 50519 85273,84982,84930
 4.5000e+000 85109 -1.7399e+002 -3.9554e+002  1.7998e+001 50519 84930,84982,84956
 4.5000e+000 85086 -1.6205e+002 -4.0418e+002  1.6348e+001 50519 85008,85060,85034
 4.5000e+000 85227 -1.6632e+002 -4.1499e+002  1.7106e+001 50519 85060,85008,85201
 4.5000e+000 85250 -1.8827e+002 -4.1641e+002  1.1264e+001 50519 85060,85201,84904
 4.5000e+000 85299 -1.7859e+002 -4.1022e+002  8.6009e+000 50519 84904,85201,85273
 4.5000e+000 85322 -1.3991e+002 -3.6246e+002 -8.8241e+000 50519 84904,85273,84930
 4.5000e+000 85958 -1.1698e+002 -3.6539e+002 -1.2410e+001 50093 85981,85768,85716
 4.5000e+000 85935 -1.0399e+002 -3.3191e+002 -1.4432e+001 50093 85981,85716,85612
 4.5000e+000 85912 -1.4952e+002 -3.4307e+002  5.9196e+000 50093 85612,85716,85664
 4.5000e+000 85889 -8.7601e+001 -3.5961e+002 -4.5546e+000 50093 85716,85768,85742
 4.5000e+000 85866 -1.2381e+002 -2.6437e+002 -7.3939e+001 50093 85664,85716,85690
 4.5000e+000 85843 -4.5376e+001 -2.5206e+002 -1.3650e+001 50093 85586,85794,85612
 4.5000e+000 85820 -1.0224e+002 -4.6323e+002  3.8303e+001 50093 85612,85664,85638
 4.5000e+000 86007 -1.4219e+002 -3.9315e+002 -6.0215e+001 50093 85794,85768,85981
 4.5000e+000 86030 -1.0216e+002 -2.9654e+002 -5.0287e+001 50093 85794,85981,85612
 4.5000e+000 86131 -1.2216e+002 -3.6756e+002  5.0148e+001 49895 86053,86105,86079
 4.5000e+000 86639 -9.0875e+001 -2.5465e+002 -5.1235e+001 49391 86662,86394,86368
 4.5000e+000 86616 -1.0652e+002 -3.0944e+002 -4.5567e+001 49391 86662,86368,86342
 4.5000e+000 86593 -5.9982e+001 -3.0913e+002 -1.3915e+001 49391 86342,86498,86472
 4.5000e+000 86570 -3.8911e+001 -3.3984e+002 -1.6714e+001 49391 86316,86498,86342
 4.5000e+000 86547 -1.7285e+002 -4.7044e+002 -2.1666e+001 49391 86394,86472,86446
 4.5000e+000 86524 -1.4346e+001 -4.4242e+002  3.5379e+000 49391 86394,86446,86420
 4.5000e+000 86688 -1.0267e+002 -3.0592e+002 -2.7488e+001 49391 86472,86394,86662
 4.5000e+000 86711 -9.1573e+001 -3.2929e+002 -2.6369e+001 49391 86472,86662,86342
 4.5000e+000 87089 -1.3019e+002 -3.6664e+002  9.6023e+000 48987 86815,86919,86867
 4.5000e+000 87066 -1.3137e+002 -3.7740e+002  1.4942e+001 48987 86815,86971,86919
 4.5000e+000 87043 -5.0607e+001 -4.0527e+002 -3.6317e+001 48987 86867,86919,86893
 4.5000e+000 87020 -1.4766e+002 -4.1417e+002  3.1786e+001 48987 86815,86867,86841
 4.5000e+000 86997 -1.4719e+002 -3.2489e+002  5.1447e+001 48987 86919,86971,86945
 4.5000e+000 87467 -2.4592e+002 -3.6502e+002  1.7546e+001 48540 87490,87245,87219
 4.5000e+000 87444 -1.7911e+002 -3.4128e+002  1.3759e+000 48540 87562,87490,87219
 4.5000e+000 87421 -1.3437e+002 -3.2324e+002  1.5324e+001 48540 87562,87219,87349
 4.5000e+000 87398 -1.8516e+002 -2.8718e+002 -1.9865e+001 48540 87245,87297,87271
 4.5000e+000 87375 -1.1338e+002 -3.3905e+002  1.1368e+001 48540 87193,87349,87219
 4.5000e+000 87516 -1.7025e+002 -3.4841e+002  2.9962e+000 48540 87297,87245,87490
 4.5000e+000 87539 -1.7220e+002 -3.4876e+002  5.6361e+000 48540 87297,87490,87323
 4.5000e+000 87588 -1.3596e+002 -3.2071e+002  3.0375e+001 48540 87323,87490,87562
 4.5000e+000 87611 -1.1446e+002 -3.2651e+002  3.9702e+001 48540 87323,87562,87349
 4.5000e+000 87810 -1.7253e+002 -6.0692e+002 -4.3715e+001 48136 87660,87712,87686
 4.5000e+000 87787 -9.8271e+001 -3.5266e+002 -1.9460e+001 48136 87660,87738,87712
 4.5000e+000 87764 -2.2372e+002 -3.6461e+002 -5.8650e+001 48136 87634,87738,87660
 4.5000e+000 88205 -1.5588e+002 -3.8646e+002 -3.3371e+001 47210 88300,88228,87937
 4.5000e+000 88182 -1.3559e+002 -3.7530e+002 -9.9102e+000 47210 88228,87833,88041
 4.5000e+000 88159 -1.5806e+002 -4.1295e+002 -5.2937e+001 47210 88300,87937,87911
 4.5000e+000 88136 -1.5352e+002 -3.7504e+002 -4.6041e+001 47210 87833,87911,87859
 4.5000e+000 88113 -2.5705e+002 -3.3894e+002 -2.5413e+001 47210 87937,87989,87963
 4.5000e+000 88090 -1.2734e+002 -3.0566e+002  6.2808e+001 47210 87989,88041,88015
 4.5000e+000 88067 -1.7674e+002 -4.3426e+002 -6.1160e+001 47210 87859,87911,87885
 4.5000e+000 88254 -1.3851e+002 -3.2122e+002 -3.3861e+001 47210 87989,87937,88228
 4.5000e+000 88277 -1.6259e+002 -3.6912e+002 -1.2928e+001 47210 87989,88228,88041
 4.5000e+000 88326 -1.2916e+002 -3.6087e+002 -1.2641e+001 47210 87833,88228,88300
 4.5000e+000 88349 -1.3557e+002 -3.7850e+002 -3.3579e+001 47210 87833,88300,87911
 4.5000e+000 88780 -2.4200e+002 -4.2439e+002 -8.0670e+001 46642 88803,88509,88483
 4.5000e+000 88757 -1.7264e+002 -3.8168e+002 -4.4231e+001 46642 88803,88483,88639
 4.5000e+000 88734 -1.9323e+002 -3.1485e+002 -5.0034e+001 46642 88875,88561,88509
 4.5000e+000 88711 -1.9643e+002 -2.9204e+002 -9.7397e+000 46642 88509,88561,88535
 4.5000e+000 88688 -1.0896e+002 -4.2574e+002  8.9980e-001 46642 88457,88639,88483
 4.5000e+000 88665 -2.2521e+002 -5.1373e+002 -2.1388e+001 46642 88561,88613,88587
 4.5000e+000 88829 -1.9461e+002 -3.4306e+002 -5.6262e+001 46642 88875,88509,88803
 4.5000e+000 88852 -1.9026e+002 -4.1140e+002 -3.6592e+001 46642 88613,88803,88639
 4.5000e+000 88901 -1.5995e+002 -3.5414e+002 -2.6163e+001 46642 88613,88561,88875
 4.5000e+000 88924 -1.7405e+002 -3.9999e+002 -3.1438e+001 46642 88613,88875,88803
 4.5000e+000 89253 -7.5915e+001 -3.7123e+002  6.3965e+000 46444 89080,89158,89132
 4.5000e+000 89230 -8.6646e+001 -3.9525e+002  3.5286e+000 46444 89028,89158,89080
 4.5000e+000 89207 -3.1380e+001 -3.4881e+002 -1.6325e+001 46444 89028,89080,89054
 4.5000e+000 89184 -4.0797e+001 -4.0083e+002 -3.0199e+001 46444 89080,89132,89106
 4.5000e+000 89631 -1.0650e+002 -2.5692e+002  6.0969e+000 46040 89383,89461,89435
 4.5000e+000 89608 -1.1250e+002 -2.8379e+002 -1.6326e+001 46040 89383,89487,89461
 4.5000e+000 89585 -1.1525e+002 -3.3298e+002 -9.3697e+000 46040 89383,89435,89409
 4.5000e+000 89562 -9.0482e+001 -2.4417e+002 -3.3240e+001 46040 89383,89513,89487
 4.5000e+000 89539 -3.6726e+001 -2.1765e+002 -4.5293e+001 46040 89357,89513,89383
 4.5000e+000 90009 -1.1187e+002 -3.2593e+002 -1.5492e+000 45636 89813,89891,89839
 4.5000e+000 89986 -1.1562e+002 -3.0513e+002  1.7653e+001 45636 89787,89891,89813
 4.5000e+000 89963 -9.9131e+001 -3.0554e+002 -8.8701e+000 45636 89839,89891,89865
 4.5000e+000 89940 -1.3514e+002 -3.3979e+002  9.4990e+000 45636 89735,89891,89787
 4.5000e+000 89917 -1.0682e+002 -3.4360e+002 -1.5470e+001 45636 89735,89787,89761
 4.5000e+000 90208 -7.4361e+001 -2.5249e+002 -4.8668e+001 45175 90231,90058,90032
 4.5000e+000 90185 -4.5703e+001 -2.3099e+002 -7.4210e+001 45175 90231,90032,90136
 4.5000e+000 90162 -8.9323e+001 -2.0656e+002 -4.1223e+000 45175 90058,90110,90084
 4.5000e+000 90257 -1.0682e+002 -2.8406e+002 -1.2677e+001 45175 90110,90058,90231
 4.5000e+000 90280 -5.1842e+001 -2.4642e+002 -4.1144e+001 45175 90110,90231,90136
 4.5000e+000 90528 -8.1503e+001 -2.5829e+002 -3.3980e+001 44513 90695,90551,90407
 4.5000e+000 90505 -8.6801e+001 -2.3291e+002 -1.5857e+001 44513 90551,90355,90329
 4.5000e+000 90482 -1.0691e+002 -2.5526e+002 -3.0847e+001 44513 90623,90303,90433
 4.5000e+000 90459 -6.2389e+001 -2.4073e+002 -2.4810e+001 44513 90695,90407,90381
 4.5000e+000 90577 -1.1933e+002 -2.7047e+002 -5.8768e+001 44513 90433,90407,90551
 4.5000e+000 90600 -1.0235e+002 -2.4815e+002 -2.8713e+001 44513 90623,90433,90551
 4.5000e+000 90649 -1.0377e+002 -2.4633e+002 -2.8323e+001 44513 90329,90303,90623
 4.5000e+000 90672 -1.0499e+002 -2.4538e+002 -2.8137e+001 44513 90329,90623,90551
 4.5000e+000 90721 -1.0466e+002 -2.3522e+002 -3.8297e+001 44513 90355,90551,90695
 4.5000e+000 90744 -9.8996e+001 -2.2713e+002 -3.4864e+001 44513 90355,90695,90381
 4.5000e+000 91077 -2.4375e+000 -2.6585e+002 -1.7277e+001 44059 91100,90930,90904
 4.5000e+000 91054 -1.0348e+002 -2.8635e+002  1.3542e+001 44059 91100,90904,90982
 4.5000e+000 91031 -1.8477e+002 -3.3301e+002 -2.3940e+001 44059 90878,90982,90904
 4.5000e+000 91008 -5.9117e+001 -2.5022e+002  1.5115e+001 44059 90852,90982,90878
 4.5000e+000 91126 -1.5264e+002 -3.0377e+002 -2.0419e+001 44059 91172,91100,90956
 4.5000e+000 91149 -9.7603e+001 -2.7768e+002 -1.1935e+001 44059 90956,91100,90982
 4.5000e+000 91198 -7.0184e+000 -1.6056e+002 -7.8490e+001 44059 90930,91100,91172
 4.5000e+000 91677 -1.3295e+002 -2.0944e+002  2.0230e+001 43549 91455,91533,91481
 4.5000e+000 91654 -5.2135e+001 -2.1085e+002  2.8312e+001 43549 91429,91533,91455
 4.5000e+000 91631 -1.2844e+002 -2.0976e+002  9.6821e+000 43549 91481,91533,91507
 4.5000e+000 91608 -2.7073e+001 -2.0052e+002  1.2831e+001 43549 91429,91559,91533
 4.5000e+000 91585  2.9029e+000 -6.1169e+001 -1.2122e+000 43549 91403,91559,91429
 4.5000e+000 92006 -1.3441e+002 -3.3321e+002  8.9253e-001 43059 91781,91885,91807
 4.5000e+000 91983 -1.4010e+002 -3.1435e+002  5.1329e+001 43059 91781,91911,91885
 4.5000e+000 91960 -1.3384e+002 -3.3318e+002  9.2716e-001 43059 91807,91885,91833
 4.5000e+000 91937 -8.7070e+001 -3.1528e+002 -5.4567e+000 43059 91833,91885,91859
 4.5000e+000 92561 -1.0417e+002 -2.3057e+002 -2.8093e+001 42598 92584,92215,92189
 4.5000e+000 92538 -1.1475e+002 -2.6179e+002 -2.5839e+001 42598 92656,92584,92189
 4.5000e+000 92515 -1.0373e+002 -2.9620e+002 -8.3261e+000 42598 92656,92189,92397
 4.5000e+000 92492 -1.3598e+002 -2.0860e+002 -3.2810e+001 42598 92241,92319,92293
 4.5000e+000 92469 -1.2784e+002 -2.4529e+002  1.2033e+001 42598 92319,92397,92371
 4.5000e+000 92446 -5.0888e+001 -2.8574e+002  1.1625e+002 42598 92319,92371,92345
 4.5000e+000 92423 -1.3128e+002 -2.1280e+002 -4.3649e+001 42598 92241,92293,92267
 4.5000e+000 92610 -1.1246e+002 -2.3215e+002 -2.5510e+001 42598 92241,92215,92584
 4.5000e+000 92633 -1.0382e+002 -2.1292e+002 -3.1932e+001 42598 92241,92584,92319
 4.5000e+000 92682 -1.0563e+002 -2.1601e+002 -1.9334e+001 42598 92319,92584,92656
 4.5000e+000 92705 -8.6052e+001 -2.3934e+002 -6.4553e+000 42598 92319,92656,92397
 4.5000e+000 92953 -1.3782e+002 -3.5824e+002  1.9236e+001 42094 92976,92806,92780
 4.5000e+000 92930 -1.5283e+002 -3.3858e+002  3.5200e-001 42094 92976,92780,92754
 4.5000e+000 92907 -3.4727e+001 -3.4773e+002 -1.6340e+000 42094 93048,92832,92806
 4.5000e+000 92884 -1.9583e+002 -3.4418e+002 -2.2665e+001 42094 92728,92858,92754
 4.5000e+000 93002 -8.9468e+001 -3.3236e+002  9.5244e+000 42094 93048,92806,92976
 4.5000e+000 93025 -1.4200e+002 -3.3257e+002 -5.2199e+000 42094 92858,92976,92754
 4.5000e+000 93074 -1.1102e+002 -3.7596e+002 -3.6056e+000 42094 92858,92832,93048
 4.5000e+000 93097 -1.5595e+002 -3.5472e+002  2.9109e+000 42094 92858,93048,92976
 4.5000e+000 93605 -1.4383e+002 -4.1087e+002 -1.4963e+001 41846 93628,93412,93386
 4.5000e+000 93582 -1.0768e+002 -3.1116e+002 -1.1203e+000 41846 93628,93386,93308
 4.5000e+000 93559 -1.6673e+002 -3.2578e+002 -6.7388e+001 41846 93700,93464,93438
 4.5000e+000 93536 -1.5350e+002 -4.2965e+002  6.3550e+000 41846 93308,93386,93334
 4.5000e+000 93513 -2.0134e+002 -3.1382e+002 -4.8464e+001 41846 93334,93386,93360
 4.5000e+000 93490 -1.5861e+002 -2.8827e+002 -6.3601e+001 41846 93282,93464,93308
 4.5000e+000 93654 -1.2577e+002 -3.2988e+002 -3.0301e+001 41846 93438,93412,93628
 4.5000e+000 93677 -1.6659e+002 -3.3244e+002 -3.1024e+001 41846 93700,93438,93628
 4.5000e+000 93726 -1.5096e+002 -2.8082e+002 -6.0589e+001 41846 93308,93464,93700
 4.5000e+000 93749 -1.4468e+002 -2.7330e+002 -2.4679e+001 41846 93308,93700,93628
 4.5000e+000 94255 -1.1706e+002 -3.4183e+002  2.1558e+001 41385 93958,94114,94088
 4.5000e+000 94232 -1.0351e+002 -3.6711e+002  9.2548e+000 41385 93932,94114,93958
 4.5000e+000 94209 -1.9932e+002 -3.9555e+002  6.3184e+001 41385 93958,94088,94062
 4.5000e+000 94186 -2.0724e+002 -2.8771e+002  4.6457e+001 41385 93958,94062,93984
 4.5000e+000 94163 -1.8063e+002 -2.8075e+002  4.3870e+001 41385 93984,94062,94036
 4.5000e+000 94140 -1.2431e+002 -3.8835e+002  6.5154e+001 41385 93984,94036,94010
 4.5000e+000 94476 -3.8355e+001 -4.5947e+002  2.6947e+001 40881 94326,94378,94352
 4.5000e+000 94453 -7.7718e+001 -3.7892e+002  3.0248e+001 40881 94300,94378,94326
 4.5000e+000 94430 -9.7011e+001 -3.5075e+002  3.5867e+000 40881 94300,94404,94378
 4.5000e+000 94626 -1.0020e+002 -2.6894e+002 -4.4090e+000 40591 94649,94551,94525
 4.5000e+000 94603 -5.7372e+001 -1.6670e+002  2.4170e+000 40591 94781,94577,94551
 4.5000e+000 94675 -3.6079e+001 -1.9431e+002 -3.3004e+001 40591 94781,94551,94649
 4.5000e+000 94807 -2.7038e+000 -1.1490e+002  3.2756e+001 40591 94499,94577,94781
 4.5000e+000 94830  3.9462e+000 -1.6912e+002 -4.7185e+000 40591 94499,94781,94649
 4.5000e+000 95336 -2.2956e+002 -3.1256e+002 -4.7218e+001 40187 95013,95169,95039
 4.5000e+000 95313 -5.2079e+001 -2.8292e+002  7.0262e+000 40187 95013,95195,95169
 4.5000e+000 95290 -3.8211e+001 -3.0796e+002 -3.2799e+001 40187 95039,95143,95065
 4.5000e+000 95267 -1.7443e+002 -3.6156e+002 -5.2191e+001 40187 95039,95169,95143
 4.5000e+000 95244 -8.1520e+001 -2.8787e+002 -3.0572e+001 40187 95091,95143,95117
 4.5000e+000 95221 -2.4021e+001 -1.7843e+002 -9.8680e+000 40187 95065,95143,95091
 4.5000e+000 95665 -8.8231e+001 -2.4247e+002  1.0100e+002 39626 95466,95570,95544
 4.5000e+000 95642 -1.6244e+002 -1.9396e+002  6.5849e+001 39626 95440,95570,95466
 4.5000e+000 95619 -2.4919e+002 -3.1799e+002  6.4585e+001 39626 95466,95544,95492
 4.5000e+000 95596 -5.4524e+001 -2.4714e+002  9.9275e+001 39626 95492,95544,95518
 4.5000e+000 95913 -1.3321e+002 -2.9059e+002 -4.2908e+001 39136 96080,95936,95766
 4.5000e+000 95890 -9.1284e+001 -3.1179e+002 -2.6383e+001 39136 95936,95714,95688
 4.5000e+000 95867 -2.3197e+002 -3.1123e+002  1.1484e+001 39136 96008,95792,95766
 4.5000e+000 95844 -1.0944e+002 -2.8200e+002 -3.2271e+001 39136 96080,95766,95740
 4.5000e+000 95962 -1.8431e+002 -3.2219e+002 -2.8026e+001 39136 96008,95766,95936
 4.5000e+000 95985 -1.1995e+002 -3.8007e+002 -6.6647e+000 39136 95818,95936,95688
 4.5000e+000 96034 -1.1674e+002 -2.6115e+002  1.8523e+001 39136 95818,95792,96008
 4.5000e+000 96057 -1.0416e+002 -2.8599e+002 -2.0278e+001 39136 95818,96008,95936
 4.5000e+000 96106 -1.2143e+002 -2.8709e+002 -1.1353e+001 39136 95714,95936,96080
 4.5000e+000 96129 -8.4528e+001 -2.7704e+002 -3.0555e+000 39136 95714,96080,95740
 4.5000e+000 96350 -9.7446e+001 -2.4580e+002 -1.4237e+001 38824 96200,96278,96252
 4.5000e+000 96327 -8.2531e+001 -2.3867e+002 -1.2095e+001 38824 96174,96278,96200
 4.5000e+000 96304 -2.0092e+001 -2.1578e+002 -4.2339e+001 38824 96200,96252,96226
 4.5000e+000 96830 -1.4148e+002 -2.5718e+002 -1.8945e+001 38320 97069,96536,96484
 4.5000e+000 96807 -1.3910e+002 -2.6050e+002 -1.8777e+001 38320 97069,96484,96853
 4.5000e+000 96784 -1.5698e+002 -2.8015e+002  3.8541e+000 38320 96853,96484,96458
 4.5000e+000 96761 -8.6857e+001 -2.2607e+002 -2.7775e+001 38320 96925,96640,96614
 4.5000e+000 96738 -1.3612e+002 -2.3580e+002 -1.3444e+001 38320 96997,96666,96640
 4.5000e+000 96715 -1.1530e+002 -3.0385e+002 -8.3859e+000 38320 97141,96588,96562
 4.5000e+000 96692 -1.7741e+002 -2.9763e+002 -3.0428e+000 38320 96484,96536,96510
 4.5000e+000 96879 -1.4002e+002 -2.7595e+002 -1.1735e+001 38320 97141,96562,96853
 4.5000e+000 96902 -1.3029e+002 -2.6896e+002 -1.0516e+001 38320 96925,96614,96853
 4.5000e+000 96951 -1.3294e+002 -2.3353e+002 -1.4831e+001 38320 96997,96640,96925
 4.5000e+000 96974 -1.2678e+002 -2.2916e+002 -9.0616e+000 38320 96458,96925,96853
 4.5000e+000 97023 -1.5058e+002 -2.3807e+002 -5.7605e+000 38320 96458,96666,96997
 4.5000e+000 97046 -1.3890e+002 -2.3255e+002 -7.2936e+000 38320 96458,96997,96925
 4.5000e+000 97095 -1.4550e+002 -2.4887e+002 -4.9496e+000 38320 96562,96536,97069
 4.5000e+000 97118 -1.3363e+002 -2.5837e+002 -1.6489e+001 38320 96562,97069,96853
 4.5000e+000 97167 -7.2084e+001 -2.7812e+002 -2.0230e+001 38320 96614,96588,97141
 4.5000e+000 97190 -1.1277e+002 -2.6179e+002 -2.0231e+001 38320 96614,97141,96853
 4.5000e+000 97519 -1.1244e+002 -3.3700e+002  9.0403e+001 37766 97542,97398,97372
 4.5000e+000 97496 -1.3518e+002 -2.6563e+002  6.2642e+001 37766 97542,97372,97346
 4.5000e+000 97473 -1.3468e+002 -2.7520e+002  6.5702e+000 37766 97294,97424,97346
 4.5000e+000 97450 -1.4853e+002 -3.2084e+002 -1.3404e+000 37766 97294,97346,97320
 4.5000e+000 97568 -5.8370e+001 -3.5206e+002  3.1604e+001 37766 97424,97398,97542
 4.5000e+000 97591 -9.4559e+001 -2.7080e+002  8.5691e+000 37766 97424,97542,97346
 4.5000e+000 98048 -1.4054e+002 -2.0421e+002 -6.3660e+001 37262 98071,97878,97852
 4.5000e+000 98025 -1.2062e+002 -2.4292e+002 -2.6346e+001 37262 98071,97852,97800
 4.5000e+000 98002 -1.3470e+002 -2.9308e+002 -2.7918e+001 37262 97800,97852,97826
 4.5000e+000 97979 -1.3851e+002 -2.6284e+002  7.7162e+000 37262 97800,97930,97904
 4.5000e+000 97956 -9.3687e+001 -3.2018e+002  2.0882e+001 37262 97774,97930,97800
 4.5000e+000 98097 -1.9478e+002 -2.3096e+002 -4.4113e+001 37262 97904,97878,98071
 4.5000e+000 98120 -1.5091e+002 -2.7557e+002 -1.0587e+001 37262 97904,98071,97800
 4.5000e+000 98449 -7.4861e+001 -2.0441e+002 -2.4081e+001 36950 98472,98302,98250
 4.5000e+000 98426 -4.5172e+001 -1.9555e+002 -2.9410e+001 36950 98472,98250,98354
 4.5000e+000 98403 -1.1498e+002 -2.2527e+002  2.5950e+001 36950 98250,98302,98276
 4.5000e+000 98380 -2.9190e+001 -1.5593e+002  1.4809e+001 36950 98224,98354,98250
 4.5000e+000 98498 -5.2999e+001 -2.2763e+002 -6.6871e+000 36950 98328,98302,98472
 4.5000e+000 98521 -1.8542e+001 -2.1444e+002 -1.6971e+001 36950 98328,98472,98354
 4.5000e+000 99125 -1.5584e+002 -1.5223e+002  1.6718e+001 36296 98704,98756,98730
 4.5000e+000 99102 -1.4951e+002 -1.7194e+002  1.5284e+001 36296 98704,98938,98756
 4.5000e+000 99079 -1.0994e+002 -2.1108e+002 -5.1929e+000 36296 99148,98938,98912
 4.5000e+000 99056 -1.1671e+002 -2.1668e+002  5.0022e+001 36296 99292,99220,98782
 4.5000e+000 99033 -9.6045e+001 -2.4142e+002  5.4057e+000 36296 99148,98912,98834
 4.5000e+000 99010 -1.1003e+002 -1.8281e+002  5.4946e+001 36296 99292,98782,98756
 4.5000e+000 98987 -9.1880e+001 -4.2669e+002 -7.8663e+001 36296 98834,98912,98886
 4.5000e+000 98964 -1.5670e+002 -6.2020e+002 -1.0076e+002 36296 98834,98886,98860
 4.5000e+000 99174 -1.3476e+002 -2.5927e+002  7.3943e+000 36296 99220,98938,99148
 4.5000e+000 99197 -9.3920e+001 -2.9516e+002  3.1705e+001 36296 98808,99148,98834
 4.5000e+000 99246 -1.1439e+002 -2.1036e+002  1.2012e+002 36296 98808,98782,99220
 4.5000e+000 99269 -4.6633e+001 -1.8692e+002  3.9589e+001 36296 98808,99220,99148
 4.5000e+000 99318 -1.2421e+002 -1.8350e+002  2.6882e+001 36296 98938,99220,99292
 4.5000e+000 99341 -1.2706e+002 -1.8878e+002  3.1894e+001 36296 98938,99292,98756
 4.5000e+000 99719 -1.6097e+002 -3.3401e+002  7.6581e-001 35742 99742,99471,99601
 4.5000e+000 99696 -1.6487e+002 -2.6527e+002  3.1537e+001 35742 99445,99601,99471
 4.5000e+000 99673 -1.5421e+002 -3.1861e+002 -1.4003e+001 35742 99742,99601,99575
 4.5000e+000 99650 -1.3414e+002 -3.8840e+002 -1.0939e+001 35742 99814,99549,99523
 4.5000e+000 99627 -1.0748e+002 -3.0382e+002 -2.1451e+000 35742 99471,99523,99497
 4.5000e+000 99768 -1.2908e+002 -3.2646e+002  6.9980e+000 35742 99523,99471,99742
 4.5000e+000 99791 -1.5121e+002 -3.6015e+002 -9.5516e+000 35742 99814,99523,99742
 4.5000e+000 99840 -1.3123e+002 -3.5340e+002 -2.1723e+001 35742 99575,99549,99814
 4.5000e+000 99863 -1.4229e+002 -3.1674e+002 -1.9435e+001 35742 99575,99814,99742
 4.5000e+000 100111 -1.2164e+002 -2.6983e+002  1.9175e+001 35302 100134,99990,99938
 4.5000e+000 100088 -1.0178e+002 -2.4673e+002  6.4035e+000 35302 100134,99938,99912
 4.5000e+000 100065 -1.0177e+002 -2.4686e+002 -6.0079e+000 35302 100206,99886,100016
 4.5000e+000 100042 -1.5914e+002 -2.4759e+002  1.2054e+001 35302 99938,99990,99964
 4.5000e+000 100160 -9.5843e+001 -2.6005e+002  4.5725e+000 35302 100016,99990,100134
 4.5000e+000 100183 -9.7731e+001 -2.5041e+002 -5.9325e+000 35302 100206,100016,100134
 4.5000e+000 100232 -1.0497e+002 -2.5105e+002 -3.3030e+000 35302 99912,99886,100206
 4.5000e+000 100255 -1.0128e+002 -2.5556e+002 -3.3967e+000 35302 99912,100206,100134
 4.5000e+000 100586 -1.4670e+002 -1.7142e+002  4.0747e+001 35012 100609,100387,100361
 4.5000e+000 100563 -1.7643e+002 -1.3221e+002 -3.2657e+001 35012 100609,100361,100465
 4.5000e+000 100540 -8.4333e+001 -9.5754e+001 -7.3148e+001 35012 100361,100491,100465
 4.5000e+000 100517 -3.6270e+001 -1.1033e+002 -6.7639e+001 35012 100413,100465,100439
 4.5000e+000 100635 -7.1401e+001 -1.3854e+002  1.7897e+001 35012 100413,100387,100609
 4.5000e+000 100658 -9.9225e+001 -8.9775e+001 -5.7473e+001 35012 100413,100609,100465
 4.5000e+000 100987 -1.2430e+002 -2.7529e+002  2.4031e+001 34700 100788,100866,100814
 4.5000e+000 100964 -9.8468e+001 -2.1859e+002  4.1198e+001 34700 101010,100866,100788
 4.5000e+000 100941 -7.1004e+001 -1.6560e+002  4.3681e+001 34700 100762,100892,100866
 4.5000e+000 100918 -1.1598e+002 -2.5280e+002  1.3982e+001 34700 100814,100866,100840
 4.5000e+000 101036 -6.7436e+001 -1.9352e+002  6.4852e+001 34700 100762,100866,101010
 4.5000e+000 101493 -1.6597e+002 -3.1066e+002 -2.8081e+001 34132 101516,101349,101297
 4.5000e+000 101470 -1.9709e+002 -3.7242e+002 -4.4331e+001 34132 101588,101516,101297
 4.5000e+000 101447 -1.9816e+002 -3.9266e+002 -6.4871e+001 34132 101588,101297,101245
 4.5000e+000 101424 -1.2098e+002 -4.5733e+002 -6.0968e+001 34132 101245,101297,101271
 4.5000e+000 101401 -1.9012e+002 -3.1367e+002 -3.5512e+001 34132 101297,101349,101323
 4.5000e+000 101542 -1.7370e+002 -3.5886e+002 -2.1883e+001 34132 101375,101349,101516
 4.5000e+000 101565 -1.5403e+002 -3.5632e+002 -2.2475e+001 34132 101375,101516,101219
 4.5000e+000 101614 -1.5784e+002 -3.7461e+002 -2.2926e+001 34132 101219,101516,101588
 4.5000e+000 101637 -1.7784e+002 -3.9412e+002 -4.2500e+001 34132 101219,101588,101245
 4.5000e+000 101858 -6.0260e+001 -2.5617e+002  2.5902e+001 33720 101708,101786,101760
 4.5000e+000 101835 -3.9213e+001 -2.8015e+002  3.9748e+001 33720 101682,101786,101708
 4.5000e+000 101812 -9.1611e+001 -2.7230e+002  1.8414e+001 33720 101708,101760,101734
 4.5000e+000 102128 -3.7634e+001 -3.2457e+002 -8.7069e+000 33130 101903,102007,101929
 4.5000e+000 102105 -4.6105e+001 -3.7505e+002  1.2128e+001 33130 101903,102033,102007
 4.5000e+000 102082 -2.0566e+001 -3.8834e+002 -7.6281e+001 33130 101929,102007,101955
 4.5000e+000 102059 -5.8748e+001 -2.7505e+002  6.2512e+000 33130 101955,102007,101981
 4.5000e+000 102461 -1.0698e+002 -2.5254e+002 -2.3244e+001 32840 102236,102340,102262
 4.5000e+000 102438 -9.2591e+001 -1.8125e+002  4.9979e+000 32840 102236,102366,102340
 4.5000e+000 102415 -6.4912e+001 -2.4214e+002 -1.9162e+001 32840 102262,102340,102288
 4.5000e+000 102392 -1.2907e+002 -2.5700e+002 -5.2222e+001 32840 102288,102340,102314
 4.5000e+000 102997 -1.0760e+002 -1.8451e+002  5.1799e+001 32493 102749,102879,102853
 4.5000e+000 102974 -8.7395e+001 -1.4506e+002  3.7269e+001 32493 102723,102879,102749
 4.5000e+000 102951 -1.2452e+002 -2.2366e+002  3.5502e+001 32493 102749,102801,102775
 4.5000e+000 102928 -1.3413e+002 -2.2186e+002  3.3911e+001 32493 102749,102853,102801
 4.5000e+000 102905 -1.2605e+002 -2.0917e+002  2.7482e+001 32493 102801,102853,102827
 4.5000e+000 103454 -1.1682e+002 -2.0822e+002 -2.1560e+001 32089 103206,103336,103310
 4.5000e+000 103431 -9.3759e+001 -2.2626e+002 -2.3677e+000 32089 103180,103336,103206
 4.5000e+000 103408 -1.2839e+002 -2.3764e+002 -4.1196e+001 32089 103206,103284,103258
 4.5000e+000 103385 -1.7895e+002 -2.4818e+002 -4.5748e+001 32089 103206,103310,103284
 4.5000e+000 103362 -1.0041e+002 -1.6608e+002 -2.5830e+001 32089 103206,103258,103232
 4.5000e+000 103783 -2.0494e+002 -2.6664e+002 -2.9324e+001 31742 103558,103662,103584
 4.5000e+000 103760 -1.6890e+002 -2.1207e+002 -6.8511e+001 31742 103558,103688,103662
 4.5000e+000 103737 -1.3798e+002 -2.1647e+002 -5.3391e+001 31742 103584,103662,103636
 4.5000e+000 103714 -1.2945e+002 -2.4590e+002 -5.9681e+001 31742 103584,103636,103610
 4.5000e+000 104112 -3.8112e+001 -2.1342e+002  3.3487e+001 31402 103939,103991,103965
 4.5000e+000 104089 -6.6900e+001 -1.8466e+002  1.6351e+001 31402 103913,103991,103939
 4.5000e+000 104066 -9.1662e+001 -2.1051e+002  2.0712e+000 31402 103913,104017,103991
 4.5000e+000 104043 -1.0950e+002 -1.9424e+002 -1.0488e+001 31402 103887,104017,103913
 4.5000e+000 104569 -1.8881e+002 -3.3504e+002  8.3446e+000 30998 104321,104425,104373
 4.5000e+000 104546 -2.1587e+002 -3.4281e+002  3.6130e+000 30998 104321,104451,104425
 4.5000e+000 104523 -1.4089e+002 -2.7935e+002  3.7556e+001 30998 104373,104425,104399
 4.5000e+000 104500 -1.7578e+002 -3.9509e+002 -2.1949e+001 30998 104295,104451,104321
 4.5000e+000 104477 -2.5232e+002 -3.9447e+002  7.0737e+001 30998 104321,104373,104347
 4.5000e+000 104947 -1.7053e+002 -2.9323e+002 -3.2424e+001 30608 104751,104803,104777
 4.5000e+000 104924 -1.1435e+002 -3.0253e+002 -1.1418e+001 30608 104725,104803,104751
 4.5000e+000 104901 -1.8234e+002 -2.9397e+002  2.0273e+001 30608 104699,104803,104725
 4.5000e+000 104878 -1.5787e+002 -2.8336e+002  1.8473e+001 30608 104673,104803,104699
 4.5000e+000 104855 -1.2224e+002 -2.7289e+002 -1.0529e+001 30608 104673,104829,104803
 4.5000e+000 105276 -1.1720e+002 -2.7227e+002  1.5491e+001 30204 105427,105129,105077
 4.5000e+000 105253 -8.2571e+001 -2.9348e+002  5.9413e+001 30204 105427,105077,105051
 4.5000e+000 105230 -1.0125e+002 -2.6193e+002  1.9946e+001 30204 105077,105129,105103
 4.5000e+000 105207 -7.5207e+001 -2.4493e+002  3.7733e+001 30204 105299,105181,105155
 4.5000e+000 105325 -7.9887e+001 -2.4107e+002  1.5476e+001 30204 105129,105181,105299
 4.5000e+000 105453 -1.3908e+002 -2.8694e+002  3.5816e+001 30204 105181,105129,105427
 4.5000e+000 105476 -1.6024e+002 -3.3371e+002  8.5597e+001 30204 105181,105427,105051
 4.5000e+000 105903 -9.9533e+001 -2.3531e+002 -1.8417e+001 29700 105606,105762,105736
 4.5000e+000 105880 -1.2768e+002 -2.4114e+002  7.1287e-001 29700 105580,105762,105606
 4.5000e+000 105857 -1.5091e+002 -2.9674e+002 -1.7766e+001 29700 105606,105710,105632
 4.5000e+000 105834 -1.2592e+002 -2.4863e+002 -8.6721e+000 29700 105606,105736,105710
 4.5000e+000 105811 -1.4314e+002 -2.7017e+002 -1.9878e+001 29700 105632,105710,105684
 4.5000e+000 105788 -1.3449e+002 -2.4957e+002 -1.2574e+001 29700 105632,105684,105658
 4.5000e+000 106102 -3.9996e+001 -2.8078e+002  1.3713e+001 29124 105978,106030,106004
 4.5000e+000 106079 -7.0152e+001 -2.7574e+002  1.4524e+001 29124 105926,106030,105978
 4.5000e+000 106056 -7.6061e+001 -3.0792e+002  4.0696e+001 29124 105926,105978,105952
 4.5000e+000 106301 -7.8721e+001 -2.8788e+002  1.2466e+000 28712 106151,106229,106203
 4.5000e+000 106278 -9.3344e+001 -3.1863e+002 -1.4486e+001 28712 106125,106229,106151
 4.5000e+000 106255 -8.2087e+001 -3.0321e+002  1.6233e+001 28712 106151,106203,106177
 4.5000e+000 106551 -1.0338e+002 -3.6286e+002  1.6831e+001 28258 106352,106404,106378
 4.5000e+000 106528 -1.4138e+002 -3.6619e+002  2.1436e+000 28258 106352,106456,106404
 4.5000e+000 106505 -1.4081e+002 -3.7830e+002 -2.5947e+000 28258 106326,106456,106352
 4.5000e+000 106482 -1.2848e+002 -3.4608e+002 -5.7975e+000 28258 106404,106456,106430
 4.5000e+000 107012 -1.1910e+002 -3.0717e+002  6.1922e+001 27818 107035,106790,106764
 4.5000e+000 106989 -1.0342e+002 -2.9167e+002  2.2990e+001 27818 107035,106764,106868
 4.5000e+000 106966 -7.2530e+001 -3.4851e+002  3.3847e+001 27818 107107,106842,106816
 4.5000e+000 106943 -1.5907e+002 -2.7281e+002  1.3310e+001 27818 106738,106868,106764
 4.5000e+000 106920 -1.4955e+002 -2.4175e+002  2.7971e+001 27818 106738,106894,106868
 4.5000e+000 107061 -5.0342e+001 -2.9298e+002  7.0183e+001 27818 106816,106790,107035
 4.5000e+000 107084 -9.0384e+001 -3.2619e+002  3.5591e+001 27818 107107,106816,107035
 4.5000e+000 107133 -6.9886e+001 -3.1585e+002  1.7947e+001 27818 106868,106842,107107
 4.5000e+000 107156 -8.1147e+001 -2.8229e+002  2.3900e+001 27818 106868,107107,107035
 4.5000e+000 107613 -3.7153e+001 -2.3157e+002  5.0410e+001 27312 107339,107469,107365
 4.5000e+000 107590 -4.0242e+000 -2.1132e+002  4.1855e+001 27312 107339,107495,107469
 4.5000e+000 107567 -3.9150e+001 -2.2495e+002  2.4482e+001 27312 107391,107469,107443
 4.5000e+000 107544 -3.8287e+001 -2.4178e+002  2.0985e+001 27312 107365,107469,107391
 4.5000e+000 107521 -1.0653e+002 -2.4648e+002  9.7690e+000 27312 107391,107443,107417
 4.5000e+000 107991 -1.2329e+002 -3.4587e+002  1.4371e+001 26858 108086,108014,107795
 4.5000e+000 107968 -1.3544e+002 -3.5608e+002 -1.7144e+001 26858 108014,107717,107873
 4.5000e+000 107945 -1.3830e+002 -3.6135e+002  2.3930e+001 26858 108158,108086,107795
 4.5000e+000 107922 -1.1107e+002 -3.6199e+002  2.2974e+001 26858 108158,107795,107769
 4.5000e+000 107899 -1.0400e+002 -4.3333e+002  5.9825e+001 26858 107821,107873,107847
 4.5000e+000 108040 -1.3038e+002 -3.9284e+002  2.0709e+001 26858 107821,107795,108014
 4.5000e+000 108063 -8.1551e+001 -3.7037e+002  2.2112e+000 26858 107821,108014,107873
 4.5000e+000 108112 -1.6421e+002 -3.6265e+002  1.6189e+001 26858 107717,108014,108086
 4.5000e+000 108135 -1.3778e+002 -3.6825e+002  3.7087e+001 26858 107717,108086,107743
 4.5000e+000 108184 -1.0704e+002 -3.5427e+002  3.3791e+001 26858 107743,108086,108158
 4.5000e+000 108207 -9.4459e+001 -3.6540e+002  3.3947e+001 26858 107743,108158,107769
 4.5000e+000 108634 -1.5961e+002 -3.2890e+002  5.8262e+000 26404 108657,108415,108363
 4.5000e+000 108611 -1.7953e+002 -3.5513e+002  3.6665e+001 26404 108657,108363,108337
 4.5000e+000 108588 -1.5637e+002 -3.3618e+002  3.6864e+001 26404 108729,108311,108467
 4.5000e+000 108565 -1.7155e+002 -3.9102e+002  5.6765e+000 26404 108801,108441,108415
 4.5000e+000 108542 -2.3636e+002 -3.7263e+002  4.6033e+001 26404 108311,108493,108467
 4.5000e+000 108519 -1.1148e+002 -3.3075e+002  5.4670e+000 26404 108363,108415,108389
 4.5000e+000 108683 -2.1126e+002 -3.5120e+002  1.0756e+001 26404 108801,108415,108657
 4.5000e+000 108706 -2.0082e+002 -3.4857e+002  2.9238e+001 26404 108729,108467,108657
 4.5000e+000 108755 -1.2761e+002 -3.5473e+002  3.6729e+001 26404 108337,108311,108729
 4.5000e+000 108778 -1.5031e+002 -3.5143e+002  2.8364e+001 26404 108337,108729,108657
 4.5000e+000 108827 -2.1010e+002 -4.7118e+002 -1.7491e+001 26404 108467,108441,108801
 4.5000e+000 108850 -2.3077e+002 -4.0214e+002 -1.2199e+001 26404 108467,108801,108657
 4.5000e+000 109228 -1.6013e+002 -3.4242e+002 -1.6418e+001 26064 109006,109084,109058
 4.5000e+000 109205 -1.4295e+002 -3.1981e+002  6.3300e+000 26064 108980,109084,109006
 4.5000e+000 109182 -1.5572e+002 -3.0659e+002 -1.0614e+001 26064 108980,109110,109084
 4.5000e+000 109159 -1.5361e+002 -3.6026e+002 -2.4036e+000 26064 109006,109058,109032
 4.5000e+000 109136 -5.2707e+001 -2.7518e+002  1.0440e+001 26064 108954,109110,108980
 4.5000e+000 109427 -4.0631e+001 -2.9258e+002 -5.8606e+001 25660 109303,109355,109329
 4.5000e+000 109404 -8.2072e+001 -3.7567e+002 -1.3760e+001 25660 109277,109355,109303
 4.5000e+000 109381 -4.8713e+001 -3.5407e+002 -4.2383e+000 25660 109251,109355,109277
 4.5000e+000 109577 -5.8488e+001 -1.4421e+002  4.9813e+001 25306 109476,109528,109502
 4.5000e+000 109554  1.4831e+001 -1.2586e+002  3.5188e+001 25306 109450,109528,109476
 4.5000e+000 109778 -1.1315e+002 -3.1107e+002  9.3969e+000 24944 109628,109706,109654
 4.5000e+000 109755 -1.2217e+002 -3.0372e+002  1.7592e+000 24944 109602,109706,109628
 4.5000e+000 109732 -9.9616e+001 -2.9162e+002 -2.0024e+000 24944 109654,109706,109680
 4.5000e+000 110126 -1.0684e+002 -3.9831e+002  1.2196e+001 24440 110149,109907,109855
 4.5000e+000 110103 -1.0117e+002 -4.1926e+002  2.4294e+001 24440 110149,109855,109985
 4.5000e+000 110080 -8.5512e+001 -3.4567e+002  7.4161e+000 24440 109855,109907,109881
 4.5000e+000 110057 -8.9142e+001 -3.2667e+002  1.0879e+002 24440 109829,109985,109855
 4.5000e+000 110034 -9.7007e+001 -3.9925e+002  1.8121e+000 24440 109907,109959,109933
 4.5000e+000 110011 -5.0418e+001 -3.3508e+002  9.4428e+000 24440 109803,109985,109829
 4.5000e+000 110175 -1.0260e+002 -3.8050e+002  9.0777e+000 24440 109959,109907,110149
 4.5000e+000 110198 -9.6730e+001 -3.9818e+002  2.3323e+001 24440 109959,110149,109985
 4.5000e+000 110301 -1.3101e+001 -2.1752e+002  2.2093e+000 24028 110223,110275,110249
 4.5000e+000 110573 -4.9449e+001 -2.3672e+002  1.8739e+001 23467 110400,110452,110426
 4.5000e+000 110550 -8.3443e+001 -2.7865e+002  5.5989e-001 23467 110374,110452,110400
 4.5000e+000 110527 -8.6037e+001 -2.7968e+002  4.5156e+000 23467 110348,110452,110374
 4.5000e+000 110504 -6.2784e+001 -2.6900e+002 -2.1240e+000 23467 110348,110478,110452
 4.5000e+000 111004 -1.8856e+002 -4.0762e+002 -4.0481e+001 22963 111027,110733,110707
 4.5000e+000 110981 -1.8346e+002 -3.8638e+002  1.8365e+001 22963 111027,110707,110681
 4.5000e+000 110958 -9.1077e+001 -3.4428e+002 -4.1850e+001 22963 111099,110759,110733
 4.5000e+000 110935 -1.1985e+002 -3.3443e+002 -2.8150e+001 22963 111171,110863,110811
 4.5000e+000 110912 -5.8903e+001 -2.4882e+002 -4.5771e+001 22963 110759,110811,110785
 4.5000e+000 110889 -1.3153e+002 -3.5409e+002 -2.2611e+001 22963 110811,110863,110837
 4.5000e+000 111053 -1.3258e+002 -3.7360e+002 -2.5729e+001 22963 111099,110733,111027
 4.5000e+000 111076 -1.1215e+002 -3.6372e+002 -2.2833e+001 22963 111171,110811,111027
 4.5000e+000 111125 -8.8980e+001 -3.3749e+002 -6.3862e+001 22963 110811,110759,111099
 4.5000e+000 111148 -9.5369e+001 -3.3335e+002 -5.3882e+001 22963 110811,111099,111027
 4.5000e+000 111197 -1.2062e+002 -2.8803e+002 -3.5149e+001 22963 110681,110863,111171
 4.5000e+000 111220 -1.2422e+002 -3.2229e+002 -1.6888e+001 22963 110681,111171,111027
 4.5000e+000 111726 -1.8186e+002 -3.5413e+002  8.7879e+000 22459 111749,111507,111429
 4.5000e+000 111703 -1.6927e+002 -3.5067e+002 -7.6648e+000 22459 111749,111429,111585
 4.5000e+000 111680 -1.4452e+002 -3.9398e+002 -5.0004e+000 22459 111403,111585,111429
 4.5000e+000 111657 -1.7384e+002 -3.8866e+002  1.6428e+001 22459 111507,111559,111533
 4.5000e+000 111634 -2.3871e+002 -3.4015e+002  2.2443e+001 22459 111455,111507,111481
 4.5000e+000 111611 -2.5008e+002 -3.4028e+002  3.1690e+001 22459 111429,111507,111455
 4.5000e+000 111775 -1.8376e+002 -3.7888e+002  2.1280e+001 22459 111559,111507,111749
 4.5000e+000 111798 -1.6957e+002 -3.6212e+002  5.3685e+000 22459 111559,111749,111585
 4.5000e+000 112046 -8.1167e+001 -2.9959e+002 -4.0281e+001 21898 112069,111925,111873
 4.5000e+000 112023 -7.8233e+001 -3.0255e+002 -1.0432e+001 21898 112069,111873,111847
 4.5000e+000 112000 -1.0512e+002 -3.1270e+002 -1.7390e+001 21898 111821,111951,111847
 4.5000e+000 111977 -9.1345e+001 -2.3630e+002 -2.6358e+001 21898 111873,111925,111899
 4.5000e+000 112095 -1.2351e+002 -3.1541e+002 -4.5504e+001 21898 111951,111925,112069
 4.5000e+000 112118 -1.0290e+002 -3.1147e+002 -1.6841e+001 21898 111951,112069,111847
 4.5000e+000 112498 -1.4075e+002 -3.2942e+002 -2.9517e+001 21608 112521,112276,112224
 4.5000e+000 112475 -9.1566e+001 -3.3287e+002 -2.1986e+000 21608 112521,112224,112380
 4.5000e+000 112452 -9.8622e+001 -3.8674e+002  2.2679e+001 21608 112302,112380,112354
 4.5000e+000 112429 -1.6580e+002 -3.7664e+002 -1.8836e+001 21608 112224,112276,112250
 4.5000e+000 112406  5.6675e+001 -4.0561e+002 -1.1790e+001 21608 112302,112354,112328
 4.5000e+000 112547 -1.0088e+002 -2.8823e+002 -6.1839e+000 21608 112302,112276,112521
 4.5000e+000 112570 -6.7141e+001 -3.2229e+002  1.2593e+001 21608 112302,112521,112380
 4.5000e+000 112948 -1.6118e+002 -3.4036e+002 -6.1818e+000 20882 112971,112752,112700
 4.5000e+000 112925 -1.2561e+002 -3.2840e+002 -1.3392e+001 20882 112971,112700,112830
 4.5000e+000 112902 -2.0379e+002 -3.6885e+002  2.1413e+001 20882 112778,112830,112804
 4.5000e+000 112879 -1.1676e+002 -2.6813e+002 -1.8613e+001 20882 112674,112830,112700
 4.5000e+000 112856 -1.9731e+002 -3.5561e+002  6.4489e+000 20882 112700,112752,112726
 4.5000e+000 112997 -1.6223e+002 -3.4018e+002  1.3485e+001 20882 112778,112752,112971
 4.5000e+000 113020 -1.4186e+002 -3.3435e+002  5.4817e+000 20882 112778,112971,112830
 4.5000e+000 113526 -1.1755e+002 -3.4087e+002  2.3993e+000 20428 113255,113385,113333
 4.5000e+000 113503 -1.2813e+002 -3.7313e+002  2.2684e+000 20428 113229,113385,113255
 4.5000e+000 113480 -1.7006e+001 -3.3307e+002  3.9582e+000 20428 113255,113333,113281
 4.5000e+000 113457 -1.0911e+002 -3.6487e+002  5.4591e+000 20428 113203,113385,113229
 4.5000e+000 113434 -6.1299e+001 -3.4848e+002 -1.0527e+001 20428 113281,113333,113307
 4.5000e+000 113411 -1.4469e+002 -3.3662e+002  9.2062e+000 20428 113333,113385,113359
 4.5000e+000 113774 -1.9544e+001 -3.2735e+002  1.3058e+001 19917 113797,113601,113549
 4.5000e+000 113751 -5.4485e+001 -3.3431e+002  1.7476e+001 19917 113869,113797,113549
 4.5000e+000 113728 -5.1979e+001 -3.3851e+002  3.3661e+001 19917 113869,113549,113679
 4.5000e+000 113705 -2.9691e+001 -3.2455e+002  2.6736e+001 19917 113549,113601,113575
 4.5000e+000 113823 -5.5299e+001 -3.9829e+002 -1.3675e+000 19917 113627,113601,113797
 4.5000e+000 113846 -2.0555e+001 -3.1145e+002 -8.4007e+000 19917 113627,113797,113653
 4.5000e+000 113895 -4.6326e+001 -2.9568e+002  5.0776e+000 19917 113653,113797,113869
 4.5000e+000 113918 -5.9469e+001 -3.0603e+002  2.5684e+001 19917 113653,113869,113679
 4.5000e+000 114166 -1.5008e+002 -3.4107e+002 -5.3384e+000 19413 113993,114045,114019
 4.5000e+000 114143 -1.4260e+002 -3.1879e+002  2.2045e+000 19413 113967,114045,113993
 4.5000e+000 114120 -1.1853e+002 -3.1029e+002  1.7297e+001 19413 113967,114071,114045
 4.5000e+000 114097 -9.7626e+001 -3.5036e+002 -5.5765e+000 19413 113941,114071,113967
 4.5000e+000 114438 -1.4111e+002 -3.7268e+002  3.3967e+000 19001 114213,114265,114239
 4.5000e+000 114415 -1.0177e+002 -2.9034e+002 -8.6695e+000 19001 114213,114343,114265
 4.5000e+000 114392 -1.5063e+002 -3.9984e+002 -1.8227e+001 19001 114265,114343,114317
 4.5000e+000 114369  2.8328e+001 -3.2275e+002 -7.4314e+000 19001 114265,114317,114291
 4.5000e+000 114639 -1.0664e+002 -4.4336e+002  2.1713e+001 18554 114489,114541,114515
 4.5000e+000 114616 -9.3383e+001 -3.8372e+002  3.7746e+000 18554 114489,114567,114541
 4.5000e+000 114593 -2.0118e+002 -4.4131e+002 -2.9483e+001 18554 114463,114567,114489
 4.5000e+000 115043 -7.3567e+001 -3.3148e+002  1.2247e+001 18164 114795,114925,114821
 4.5000e+000 115020 -6.5382e+001 -3.5013e+002  1.9419e+001 18164 114769,114925,114795
 4.5000e+000 114997 -4.0005e+001 -3.4937e+002 -2.6656e+000 18164 115066,114873,114821
 4.5000e+000 114974 -3.7599e+001 -2.9936e+002 -1.1884e+001 18164 115066,114821,114925
 4.5000e+000 114951  2.2341e+001 -3.5055e+002 -3.4255e+001 18164 114821,114873,114847
 4.5000e+000 115092 -5.7709e+001 -3.1318e+002 -2.8945e+001 18164 114899,114873,115066
 4.5000e+000 115115 -3.4714e+001 -2.3676e+002 -4.0626e+001 18164 114899,115066,114925
 4.5000e+000 115265 -9.4328e+001 -3.6825e+002  3.7941e+000 17852 115164,115216,115190
 4.5000e+000 115242 -1.0415e+002 -3.8744e+002 -7.6425e-001 17852 115138,115216,115164
 4.5000e+000 115464 -2.3163e+002 -5.2041e+002  7.1855e+000 17346 115288,115366,115340
 4.5000e+000 115441 -3.5605e+002 -4.0419e+002 -1.5080e+001 17346 115288,115392,115366
 4.5000e+000 115418 -2.0793e+002 -5.8412e+002 -1.8060e+001 17346 115288,115340,115314
 4.5000e+000 115736 -9.0438e+001 -3.3323e+002  1.4369e+001 16942 115563,115641,115615
 4.5000e+000 115713 -1.0128e+002 -3.3142e+002  4.7872e+000 16942 115511,115641,115563
 4.5000e+000 115690 -2.3318e+002 -3.8820e+002  2.1552e+001 16942 115563,115615,115589
 4.5000e+000 115667 -1.1922e+002 -3.5987e+002  1.2430e+001 16942 115511,115563,115537
 4.5000e+000 116091 -1.7062e+002 -3.9840e+002 -1.5137e+001 16388 115918,115970,115944
 4.5000e+000 116068 -1.4617e+002 -3.1919e+002 -9.9471e+000 16388 115918,115996,115970
 4.5000e+000 116045 -1.9738e+002 -4.0474e+002  1.3576e+001 16388 115892,115996,115918
 4.5000e+000 116022 -1.2908e+002 -3.6836e+002  4.5504e+001 16388 115866,115996,115892
 4.5000e+000 116192 -5.4883e+001 -4.1844e+002 -5.8929e+001 15810 116114,116166,116140
 4.5000e+000 116342 -1.5663e+002 -5.0362e+002  2.7558e+001 15419 116241,116293,116267
 4.5000e+000 116319 -2.2359e+002 -6.1854e+002 -1.7942e+001 15419 116215,116293,116241
 4.5000e+000 116445 -1.6825e+002 -3.4319e+002  2.7955e+000 421 116367,116419,116393
 4.6000e+000 68477 -2.2317e+002 -3.2933e+002  1.6123e+000 68018 68327,68379,68353
 4.6000e+000 68454 -2.3721e+002 -4.3632e+002  3.2410e+001 68018 68301,68379,68327
 4.6000e+000 68431 -1.0739e+002 -4.8513e+002  8.2063e+001 68018 68301,68405,68379
 4.6000e+000 68578 -1.5125e+002 -3.1280e+002  1.7537e+000 67820 68500,68552,68526
 4.6000e+000 68728 -1.6343e+002 -2.9158e+002 -4.0572e+000 67508 68601,68653,68627
 4.6000e+000 68705 -2.4940e+002 -2.2360e+002 -4.1923e+001 67508 68601,68679,68653
 4.6000e+000 68927 -4.7727e+001 -2.7588e+002 -5.8233e+000 67310 68777,68829,68803
 4.6000e+000 68904 -7.2236e+001 -3.1983e+002  5.6869e+000 67310 68751,68829,68777
 4.6000e+000 68881 -5.7869e+001 -3.2356e+002  1.7190e+001 67310 68751,68855,68829
 4.6000e+000 69386 -1.2986e+002 -3.4076e+002 -1.6669e+001 67020 69216,69268,69242
 4.6000e+000 69363 -1.1839e+002 -2.6445e+002 -3.3329e+001 67020 69138,69268,69216
 4.6000e+000 69340 -8.8241e+001 -2.3803e+002 -1.9090e+001 67020 69112,69268,69138
 4.6000e+000 69317 -1.5820e+002 -2.8464e+002  2.1331e+001 67020 69138,69190,69164
 4.6000e+000 69294 -1.6499e+002 -2.6063e+002 -1.4448e+001 67020 69138,69216,69190
 4.6000e+000 69536 -2.5095e+002 -6.1615e+002 -4.9591e+001 66708 69435,69487,69461
 4.6000e+000 69513 -1.8573e+002 -6.9377e+002 -7.6404e+000 66708 69409,69487,69435
 4.6000e+000 69735 -1.5800e+002 -3.2005e+002  7.3436e+000 66346 69585,69637,69611
 4.6000e+000 69712 -1.3102e+002 -3.0380e+002 -1.5644e+000 66346 69559,69637,69585
 4.6000e+000 69689 -1.1938e+002 -3.0250e+002 -3.0132e+001 66346 69559,69663,69637
 4.6000e+000 69985 -2.2405e+002 -3.8195e+002  5.1290e+000 66148 69786,69890,69864
 4.6000e+000 69962 -2.3231e+002 -3.8687e+002  7.6564e+000 66148 69760,69890,69786
 4.6000e+000 69939 -1.6514e+002 -3.5962e+002 -5.1830e+001 66148 69786,69864,69838
 4.6000e+000 69916 -1.9149e+002 -3.8371e+002 -2.1185e+001 66148 69786,69838,69812
 4.6000e+000 70137 -1.1003e+002 -4.2054e+002 -2.4557e+001 65950 70036,70088,70062
 4.6000e+000 70114 -9.3379e+001 -4.6705e+002  2.2042e+001 65950 70010,70088,70036
 4.6000e+000 70470 -8.3651e+001 -3.1267e+002  2.5311e+001 65546 70245,70323,70271
 4.6000e+000 70447 -6.0699e+001 -2.7877e+002  1.1530e+001 65546 70245,70375,70323
 4.6000e+000 70424 -7.6702e+001 -3.5063e+002  1.2623e+001 65546 70323,70375,70349
 4.6000e+000 70401 -6.5714e+001 -2.8777e+002  1.1426e+001 65546 70271,70323,70297
 4.6000e+000 70620 -1.4196e+002 -3.6708e+002  1.2292e+001 65348 70493,70545,70519
 4.6000e+000 70597 -9.9878e+001 -3.8284e+002  1.6060e+001 65348 70493,70571,70545
 4.6000e+000 70721 -1.9040e+002 -3.8743e+002  2.8110e+001 65150 70643,70695,70669
 4.6000e+000 71020 -1.3480e+002 -3.0358e+002  5.0903e+000 64952 71043,70850,70824
 4.6000e+000 70997 -1.1752e+002 -2.6181e+002  4.2538e+000 64952 71043,70824,70772
 4.6000e+000 70974 -1.2742e+002 -3.4998e+002  5.8146e+000 64952 71115,70746,70876
 4.6000e+000 70951 -1.0046e+002 -3.4935e+002 -2.2894e+000 64952 70746,70902,70876
 4.6000e+000 70928 -1.2041e+002 -2.2231e+002 -2.0478e+001 64952 70772,70824,70798
 4.6000e+000 71069 -1.0900e+002 -2.9032e+002  1.1424e+001 64952 70876,70850,71043
 4.6000e+000 71092 -1.2552e+002 -3.2965e+002  6.7408e+000 64952 71115,70876,71043
 4.6000e+000 71141 -1.4408e+002 -3.2654e+002 -1.2307e+001 64952 70772,70746,71115
 4.6000e+000 71164 -1.3479e+002 -2.9601e+002 -1.1960e+001 64952 70772,71115,71043
 4.6000e+000 71365 -3.8298e+000 -3.8032e+002 -4.9756e+000 64662 71215,71293,71267
 4.6000e+000 71342  5.5942e+001 -3.5889e+002 -6.1813e+001 64662 71189,71293,71215
 4.6000e+000 71319  2.8940e+001 -3.1550e+002  6.2336e+000 64662 71215,71267,71241
 4.6000e+000 71615 -8.8679e+001 -3.2544e+002 -4.5721e+000 64350 71710,71638,71468
 4.6000e+000 71592 -1.0922e+002 -3.2034e+002 -1.0886e+001 64350 71638,71416,71390
 4.6000e+000 71569 -9.4872e+001 -3.0346e+002  1.3729e+001 64350 71710,71468,71442
 4.6000e+000 71546  5.7232e+001 -3.1096e+002 -5.1903e+001 64350 71390,71520,71494
 4.6000e+000 71664 -8.3548e+001 -3.2461e+002 -4.9484e-002 64350 71494,71468,71638
 4.6000e+000 71687 -8.4035e+001 -3.3158e+002  3.7627e-001 64350 71494,71638,71390
 4.6000e+000 71736 -8.0508e+001 -2.8123e+002  2.0363e+000 64350 71416,71638,71710
 4.6000e+000 71759 -7.8400e+001 -2.5896e+002  2.5608e+001 64350 71416,71710,71442
 4.6000e+000 72318 -9.3624e+001 -5.1555e+002 -2.0714e+001 63837 71972,72024,71998
 4.6000e+000 72295 -1.4408e+002 -3.3250e+002 -1.4810e+000 63837 72341,71972,71946
 4.6000e+000 72272 -1.3065e+002 -2.6828e+002  1.1951e+001 63837 72413,72341,71946
 4.6000e+000 72249 -1.2025e+002 -2.4423e+002  3.8659e+000 63837 72413,71946,72128
 4.6000e+000 72226 -1.8349e+002 -2.9153e+002  2.0190e+000 63837 72024,72076,72050
 4.6000e+000 72203 -1.5766e+002 -2.6889e+002 -9.0289e+000 63837 72024,72102,72076
 4.6000e+000 72180 -7.9914e+001 -2.3010e+002  1.8275e+001 63837 71946,72154,72128
 4.6000e+000 72367 -1.7148e+002 -3.5594e+002 -6.2578e+001 63837 72024,71972,72341
 4.6000e+000 72390 -1.3428e+002 -2.9162e+002 -2.3849e+001 63837 72024,72341,72102
 4.6000e+000 72439 -1.0239e+002 -3.0766e+002  4.8121e+000 63837 72102,72341,72413
 4.6000e+000 72462 -9.3756e+001 -2.8365e+002 -6.0880e-001 63837 72102,72413,72128
 4.6000e+000 72791 -1.6080e+002 -3.1178e+002 -3.1259e+001 63383 72592,72696,72670
 4.6000e+000 72768 -1.6393e+002 -2.9001e+002 -5.6004e+001 63383 72566,72696,72592
 4.6000e+000 72745 -1.5944e+002 -2.7174e+002  1.0866e+000 63383 72592,72670,72618
 4.6000e+000 72722 -1.5278e+002 -2.5429e+002  5.3294e-001 63383 72618,72670,72644
 4.6000e+000 73297 -1.9101e+002 -2.7382e+002 -1.3616e+000 63185 73000,73156,73130
 4.6000e+000 73274 -1.9191e+002 -2.8535e+002  3.5906e+001 63185 72974,73156,73000
 4.6000e+000 73251 -1.4312e+002 -3.1684e+002 -4.8106e+000 63185 73000,73052,73026
 4.6000e+000 73228 -1.5788e+002 -2.8279e+002 -1.3819e+001 63185 73000,73130,73052
 4.6000e+000 73205 -1.5619e+002 -3.1668e+002 -4.7306e+001 63185 73052,73130,73104
 4.6000e+000 73182 -1.4825e+002 -3.5118e+002 -5.0690e+001 63185 73052,73104,73078
 4.6000e+000 73545 -6.4123e+001 -2.9643e+002  2.7313e+000 62781 73568,73398,73372
 4.6000e+000 73522 -4.6156e+001 -2.6955e+002  1.1176e+001 62781 73568,73372,73346
 4.6000e+000 73499 -8.5475e+001 -2.8134e+002 -8.0536e+000 62781 73640,73320,73424
 4.6000e+000 73476 -9.1897e+001 -1.7830e+002 -3.1459e+001 62781 73320,73450,73424
 4.6000e+000 73594 -5.1713e+001 -2.7264e+002 -4.3819e+000 62781 73424,73398,73568
 4.6000e+000 73617 -6.7662e+001 -2.7380e+002 -7.7837e+000 62781 73640,73424,73568
 4.6000e+000 73666 -8.2750e+001 -2.7749e+002  7.0986e+000 62781 73346,73320,73640
 4.6000e+000 73689 -7.3416e+001 -2.7386e+002  7.4495e+000 62781 73346,73640,73568
 4.6000e+000 74035 -1.1449e+002 -3.1736e+002 -5.1147e+000 62363 74058,73868,73842
 4.6000e+000 74012 -1.0551e+002 -2.9120e+002 -2.4810e+001 62363 74130,74058,73842
 4.6000e+000 73989 -9.5927e+001 -2.8841e+002 -2.6345e+001 62363 74130,73842,73816
 4.6000e+000 73966 -1.5632e+002 -3.3030e+002  3.8997e+000 62363 74202,73764,73894
 4.6000e+000 73943 -2.0180e+002 -3.0166e+002  4.5527e+000 62363 73712,73894,73764
 4.6000e+000 73920 -2.1648e+002 -3.1960e+002 -2.6662e+000 62363 73712,73764,73738
 4.6000e+000 74084 -1.1424e+002 -3.1254e+002 -4.6575e+000 62363 73894,73868,74058
 4.6000e+000 74107 -1.4293e+002 -3.1584e+002  1.4666e+001 62363 74202,73894,74058
 4.6000e+000 74156 -1.1689e+002 -2.9621e+002  8.4737e+000 62363 73790,74058,74130
 4.6000e+000 74179 -7.1807e+001 -2.7879e+002  1.0116e+001 62363 73790,74130,73816
 4.6000e+000 74228 -1.7140e+002 -3.3688e+002 -1.7500e+001 62363 73790,73764,74202
 4.6000e+000 74251 -1.6144e+002 -3.2146e+002 -6.8279e+000 62363 73790,74202,74058
 4.6000e+000 74403 -1.2852e+001 -3.3985e+002  2.2472e+001 62115 74426,74302,74276
 4.6000e+000 74380  5.0793e+001 -3.2561e+002  4.8546e+001 62115 74426,74276,74354
 4.6000e+000 74452 -7.2839e+001 -3.0713e+002  2.2078e+001 62115 74328,74302,74426
 4.6000e+000 74475 -1.3306e+001 -2.9491e+002  4.9863e+001 62115 74328,74426,74354
 4.6000e+000 74578  5.4637e+001 -1.8722e+002  2.0909e+000 61825 74500,74552,74526
 4.6000e+000 74982 -1.6695e+002 -2.9114e+002  1.9791e+000 61513 75005,74734,74708
 4.6000e+000 74959 -1.6250e+002 -2.8037e+002 -1.6073e+000 61513 75005,74708,74864
 4.6000e+000 74936 -2.0668e+002 -2.9838e+002  2.0023e+001 61513 75077,74812,74734
 4.6000e+000 74913 -1.8482e+002 -3.0093e+002 -2.5798e+001 61513 74734,74786,74760
 4.6000e+000 74890 -1.8113e+002 -2.6768e+002 -1.7282e+000 61513 74734,74812,74786
 4.6000e+000 75031 -1.5698e+002 -2.9824e+002  3.5124e+000 61513 75077,74734,75005
 4.6000e+000 75054 -1.2610e+002 -2.8982e+002  4.1805e+001 61513 74838,75005,74864
 4.6000e+000 75103 -2.3476e+002 -3.1175e+002  6.4689e+001 61513 74838,74812,75077
 4.6000e+000 75126 -2.0217e+002 -3.2383e+002  4.8323e+001 61513 74838,75077,75005
 4.6000e+000 75553 -8.2737e+001 -2.6781e+002 -9.6006e+000 61060 75576,75360,75308
 4.6000e+000 75530 -8.5557e+001 -2.8410e+002 -1.1066e+001 61060 75576,75308,75230
 4.6000e+000 75507 -7.4431e+001 -2.5715e+002 -5.4053e-001 61060 75308,75360,75334
 4.6000e+000 75484 -1.1247e+002 -3.3053e+002  1.8903e+001 61060 75230,75308,75256
 4.6000e+000 75461 -8.0987e+001 -3.0834e+002  9.0882e+000 61060 75256,75308,75282
 4.6000e+000 75438 -9.5119e+001 -2.6355e+002  3.3058e+001 61060 75360,75412,75386
 4.6000e+000 75602 -6.4364e+001 -2.8233e+002  1.3032e+000 61060 75412,75360,75576
 4.6000e+000 75625 -7.7362e+001 -3.1351e+002 -4.2337e+000 61060 75412,75576,75230
 4.6000e+000 76052 -1.2355e+002 -2.7712e+002  4.6644e+000 60442 75755,75859,75833
 4.6000e+000 76029 -1.4383e+002 -2.6306e+002 -1.8908e+001 60442 75729,75859,75755
 4.6000e+000 76006 -1.2852e+002 -2.5718e+002  1.7307e+001 60442 75755,75833,75807
 4.6000e+000 75983 -1.2321e+002 -3.0484e+002  9.4465e+000 60442 75755,75807,75781
 4.6000e+000 75960  2.1653e+000 -4.8364e+002  1.8030e+001 60442 75729,75911,75859
 4.6000e+000 75937 -2.4702e+002 -1.1992e+003  7.7175e+001 60442 75859,75911,75885
 4.6000e+000 76430 -1.2877e+002 -3.3124e+002 -1.4052e+001 59788 76453,76286,76234
 4.6000e+000 76407 -1.3943e+002 -3.7893e+002  5.4028e+000 59788 76453,76234,76182
 4.6000e+000 76384 -1.4371e+002 -2.5353e+002  4.1479e+001 59788 76525,76156,76312
 4.6000e+000 76361 -8.2138e+001 -4.3255e+002 -4.7938e+000 59788 76182,76234,76208
 4.6000e+000 76338 -1.0287e+002 -3.1862e+002 -9.2204e+000 59788 76234,76286,76260
 4.6000e+000 76479 -1.5609e+002 -3.5811e+002  1.2186e+000 59788 76312,76286,76453
 4.6000e+000 76502 -1.3107e+002 -3.3932e+002  1.7042e+001 59788 76525,76312,76453
 4.6000e+000 76551 -1.7708e+002 -3.6128e+002  4.4236e+001 59788 76182,76156,76525
 4.6000e+000 76574 -1.5690e+002 -3.8787e+002  2.6656e+001 59788 76182,76525,76453
 4.6000e+000 77031 -9.3237e+001 -2.0252e+002 -3.0691e+001 59448 76835,76887,76861
 4.6000e+000 77008 -4.1490e+001 -1.6900e+002  7.3814e+000 59448 76835,76913,76887
 4.6000e+000 76985 -5.3794e+001 -1.4211e+002  2.7329e+001 59448 76809,76913,76835
 4.6000e+000 76962 -1.0114e+002 -1.8796e+002 -2.8133e-001 59448 76757,76913,76809
 4.6000e+000 76939 -8.3418e+001 -1.6583e+002 -7.9488e+000 59448 76757,76809,76783
 4.6000e+000 77537 -1.3474e+002 -2.8858e+002  1.3808e+001 58994 77560,77344,77292
 4.6000e+000 77514 -1.8981e+002 -2.8696e+002  3.1285e+000 58994 77560,77292,77240
 4.6000e+000 77491 -1.0895e+002 -2.6957e+002 -6.6741e+000 58994 77632,77214,77370
 4.6000e+000 77468 -2.2338e+002 -3.3068e+002  5.6980e+001 58994 77292,77344,77318
 4.6000e+000 77445 -1.1149e+002 -3.5071e+002  1.3709e+001 58994 77214,77396,77370
 4.6000e+000 77422 -1.9320e+002 -3.0328e+002 -6.7805e+000 58994 77240,77292,77266
 4.6000e+000 77586 -1.3959e+002 -2.9434e+002  1.5959e+001 58994 77370,77344,77560
 4.6000e+000 77609 -1.3942e+002 -2.8807e+002  1.8827e+001 58994 77632,77370,77560
 4.6000e+000 77658 -9.2770e+001 -2.5065e+002 -3.4788e+001 58994 77240,77214,77632
 4.6000e+000 77681 -1.1533e+002 -2.4813e+002 -1.1798e+001 58994 77240,77632,77560
 4.6000e+000 78138 -1.1318e+002 -2.0263e+002  2.9366e+001 58440 77864,77994,77890
 4.6000e+000 78115 -7.4025e+001 -1.2399e+002 -1.5187e+001 58440 77864,78020,77994
 4.6000e+000 78092 -1.2807e+002 -2.3872e+002 -2.0501e+001 58440 77942,77994,77968
 4.6000e+000 78069 -1.0237e+002 -2.2699e+002  4.6240e+000 58440 77890,77994,77942
 4.6000e+000 78046 -9.2356e+001 -2.2830e+002 -2.6839e+000 58440 77890,77942,77916
 4.6000e+000 78467 -2.2085e+001 -2.6538e+002  9.5902e+000 57928 78562,78490,78346
 4.6000e+000 78444 -1.0047e+002 -2.6764e+002 -4.4133e+000 57928 78490,78294,78268
 4.6000e+000 78421 -5.9489e+000 -2.7793e+002  2.2780e+001 57928 78562,78346,78320
 4.6000e+000 78398 -3.9686e+001 -2.5908e+002  3.1742e+000 57928 78242,78372,78268
 4.6000e+000 78516 -8.8392e+001 -3.3099e+002 -1.7981e+001 57928 78372,78346,78490
 4.6000e+000 78539 -7.0148e+001 -2.5492e+002 -2.9281e+000 57928 78372,78490,78268
 4.6000e+000 78588 -1.0030e+002 -2.6296e+002  1.3350e+000 57928 78294,78490,78562
 4.6000e+000 78611 -5.0348e+001 -2.3656e+002  2.7743e+001 57928 78294,78562,78320
 4.6000e+000 79068 -1.9566e+002 -4.1288e+002 -1.0240e+002 57467 78794,78924,78820
 4.6000e+000 79045 -1.5456e+002 -3.9401e+002 -9.6866e+001 57467 78794,78950,78924
 4.6000e+000 79022 -8.3096e+001 -3.6862e+002  3.5166e+001 57467 78820,78898,78872
 4.6000e+000 78999 -1.4486e+002 -5.0700e+002 -5.4572e+001 57467 78820,78924,78898
 4.6000e+000 78976 -6.0096e+001 -3.7267e+002  5.4184e+001 57467 78820,78872,78846
 4.6000e+000 79446 -1.6403e+002 -3.1088e+002 -2.3302e-001 57120 79172,79302,79250
 4.6000e+000 79423 -1.4641e+002 -3.0291e+002 -1.0703e+001 57120 79172,79328,79302
 4.6000e+000 79400 -1.4850e+002 -2.7251e+002 -1.0819e+001 57120 79172,79250,79198
 4.6000e+000 79377 -1.1252e+002 -3.9217e+002  1.5414e+001 57120 79250,79302,79276
 4.6000e+000 79354 -1.8135e+002 -2.9659e+002 -2.2669e+001 57120 79198,79250,79224
 4.6000e+000 79952 -2.1876e+002 -3.4599e+002  1.5572e+000 56773 79629,79785,79655
 4.6000e+000 79929 -6.5170e+001 -2.9884e+002  1.5357e+001 56773 79629,79811,79785
 4.6000e+000 79906 -1.7053e+002 -3.7502e+002  2.5564e+001 56773 79655,79733,79681
 4.6000e+000 79883 -1.6805e+002 -3.3250e+002  6.6856e+000 56773 79655,79785,79733
 4.6000e+000 79860 -1.5722e+002 -4.3297e+002 -5.1568e+001 56773 79733,79785,79759
 4.6000e+000 79837 -8.9529e+001 -3.3788e+002  6.4843e+001 56773 79681,79733,79707
 4.6000e+000 80281 -7.7338e+001 -2.5624e+002 -2.0619e+001 56319 80108,80160,80134
 4.6000e+000 80258 -8.3405e+001 -2.7961e+002 -2.5532e+001 56319 80056,80160,80108
 4.6000e+000 80235 -3.6475e+001 -2.4788e+002  1.6347e+001 56319 80056,80186,80160
 4.6000e+000 80212 -1.1291e+002 -3.5650e+002 -1.6606e+001 56319 80056,80108,80082
 4.6000e+000 80738 -4.5439e+001 -3.0884e+002  1.6522e+001 55957 80516,80620,80594
 4.6000e+000 80715 -1.0961e+002 -2.8020e+002  1.3406e+001 55957 80464,80620,80516
 4.6000e+000 80692 -9.4468e+001 -3.3641e+002  1.7578e+001 55957 80761,80568,80542
 4.6000e+000 80669 -7.7548e+001 -3.3127e+002  2.0708e+001 55957 80761,80542,80516
 4.6000e+000 80646 -1.0963e+002 -2.7957e+002  3.4957e+001 55957 80464,80516,80490
 4.6000e+000 80787 -1.1104e+002 -3.3429e+002  1.2607e+001 55957 80594,80568,80761
 4.6000e+000 80810 -9.5162e+001 -3.2963e+002  1.5944e+001 55957 80594,80761,80516
 4.6000e+000 81210 -9.3730e+001 -3.1593e+002 -3.6717e+001 55317 80936,80988,80962
 4.6000e+000 81187 -7.7576e+001 -3.4730e+002 -1.4107e+000 55317 80936,81066,80988
 4.6000e+000 81164 -5.2923e+001 -3.7150e+002  5.0856e+000 55317 80936,81092,81066
 4.6000e+000 81141 -1.0948e+002 -3.6998e+002 -3.4050e+001 55317 80988,81066,81014
 4.6000e+000 81118 -1.5198e+001 -2.0915e+002  2.1516e+001 55317 81014,81066,81040
 4.6000e+000 81539 -1.4074e+002 -3.1861e+002  8.3519e+000 54913 81340,81418,81392
 4.6000e+000 81516 -5.7304e+001 -2.5772e+002 -1.9287e+001 54913 81340,81444,81418
 4.6000e+000 81493 -8.7076e+001 -2.7646e+002 -3.8817e+001 54913 81314,81444,81340
 4.6000e+000 81470 -1.6047e+002 -3.3646e+002  5.1294e-001 54913 81340,81392,81366
 4.6000e+000 81787 -8.1602e+001 -3.3581e+002 -2.8193e+000 54601 81588,81692,81640
 4.6000e+000 81764 -1.1875e+002 -3.3941e+002 -1.0759e+001 54601 81562,81692,81588
 4.6000e+000 81741 -6.5018e+001 -3.4120e+002  4.3764e+001 54601 81588,81640,81614
 4.6000e+000 81718 -8.4021e+001 -3.9792e+002 -3.4660e+001 54601 81640,81692,81666
 4.6000e+000 82344 -1.2724e+002 -3.4249e+002 -1.7047e+001 54090 81998,82102,82076
 4.6000e+000 82321 -1.7096e+002 -3.6160e+002 -1.0021e+001 54090 81998,82154,82102
 4.6000e+000 82298 -1.5567e+002 -3.5292e+002 -5.7154e+000 54090 81972,82154,81998
 4.6000e+000 82275 -1.7717e+002 -3.2141e+002 -1.9395e+001 54090 81998,82076,82024
 4.6000e+000 82252 -1.8829e+002 -3.7555e+002  1.8186e+001 54090 81972,82180,82154
 4.6000e+000 82229 -2.3714e+002 -4.4133e+002  2.5342e+001 54090 82102,82154,82128
 4.6000e+000 82206 -3.3478e+001 -2.4338e+002 -5.0780e+001 54090 82024,82076,82050
 4.6000e+000 82722 -2.1752e+002 -3.8858e+002 -1.3719e+001 53579 82500,82578,82552
 4.6000e+000 82699 -1.6115e+002 -3.5367e+002  8.9931e+000 53579 82448,82578,82500
 4.6000e+000 82676 -1.7616e+002 -3.9975e+002  1.0793e+001 53579 82448,82500,82474
 4.6000e+000 82653 -2.1156e+002 -3.7956e+002  2.7281e+001 53579 82448,82604,82578
 4.6000e+000 82630 -1.1412e+002 -3.6024e+002 -1.4993e+001 53579 82500,82552,82526
 4.6000e+000 83356 -1.0551e+002 -2.7893e+002 -2.8935e+001 53189 83379,83088,83036
 4.6000e+000 83333 -1.0176e+002 -3.1452e+002 -2.6125e+001 53189 83379,83036,82984
 4.6000e+000 83310 -5.1457e+001 -2.9682e+002  4.1742e+001 53189 82984,83192,83166
 4.6000e+000 83287  2.8813e+000 -2.3115e+002 -2.0380e+001 53189 83036,83088,83062
 4.6000e+000 83264 -8.1836e+001 -3.5079e+002 -4.7980e+001 53189 82984,83036,83010
 4.6000e+000 83241 -7.3043e+001 -3.5065e+002  6.5869e+000 53189 83114,83166,83140
 4.6000e+000 83218 -1.4262e+002 -3.6502e+002  1.9337e+000 53189 83088,83166,83114
 4.6000e+000 83405 -1.0601e+002 -3.0304e+002 -1.4163e+001 53189 83166,83088,83379
 4.6000e+000 83428 -9.6944e+001 -3.3451e+002 -1.3609e+001 53189 83166,83379,82984
 4.6000e+000 83725 -1.3861e+002 -3.9277e+002 -3.4605e+001 52585 83748,83529,83503
 4.6000e+000 83702 -1.0393e+002 -3.8127e+002 -2.2685e+001 52585 83820,83748,83503
 4.6000e+000 83679 -7.0044e+001 -3.7291e+002 -1.9005e+001 52585 83820,83503,83477
 4.6000e+000 83656 -5.0440e+001 -3.4310e+002  4.5182e+001 52585 83477,83607,83581
 4.6000e+000 83633  2.8116e+001 -3.0981e+002  4.7110e+001 52585 83451,83607,83477
 4.6000e+000 83774 -1.2110e+002 -3.4933e+002 -3.0783e+001 52585 83555,83529,83748
 4.6000e+000 83797 -1.5927e+002 -3.7679e+002 -1.8799e+001 52585 83555,83748,83581
 4.6000e+000 83846 -1.3606e+002 -3.6153e+002 -5.2953e+000 52585 83581,83748,83820
 4.6000e+000 83869 -1.1147e+002 -3.5898e+002 -5.2458e+000 52585 83581,83820,83477
 4.6000e+000 84200 -1.0287e+002 -3.5543e+002 -1.3252e+001 52024 84001,84105,84079
 4.6000e+000 84177 -5.4829e+001 -3.4657e+002 -2.5272e+001 52024 83975,84105,84001
 4.6000e+000 84154 -8.9731e+001 -3.5662e+002 -1.0297e+001 52024 84001,84079,84053
 4.6000e+000 84131 -4.4519e+001 -2.3829e+002  4.3101e+001 52024 84001,84053,84027
 4.6000e+000 84399 -8.6583e+001 -3.5622e+002 -1.5919e+000 51470 84422,84275,84249
 4.6000e+000 84376 -8.0290e+001 -3.4206e+002  2.0499e+000 51470 84422,84249,84223
 4.6000e+000 84353 -9.8285e+001 -3.7529e+002 -5.2494e+001 51470 84275,84327,84301
 4.6000e+000 84448 -9.3300e+001 -3.4300e+002 -2.3819e+000 51470 84327,84275,84422
 4.6000e+000 84471 -8.8968e+001 -3.3161e+002  1.0200e+000 51470 84327,84422,84223
 4.6000e+000 84753 -1.0471e+002 -2.9668e+002 -1.5942e+000 51073 84603,84655,84629
 4.6000e+000 84730 -2.1290e+002 -3.4668e+002 -1.5532e+001 51073 84776,84655,84603
 4.6000e+000 84707 -4.7163e+001 -3.0063e+002 -8.3324e+001 51073 84577,84681,84655
 4.6000e+000 84802 -1.3502e+002 -3.0312e+002 -3.9338e+001 51073 84577,84655,84776
 4.6000e+000 85178 -1.9210e+002 -4.1878e+002  3.6982e+001 50519 85201,85008,84982
 4.6000e+000 85155 -1.8205e+002 -3.8906e+002  2.6788e+001 50519 85273,85201,84982
 4.6000e+000 85132 -1.7157e+002 -3.8902e+002  2.0096e+001 50519 85273,84982,84930
 4.6000e+000 85109 -1.6624e+002 -3.7902e+002  1.7108e+001 50519 84930,84982,84956
 4.6000e+000 85086 -1.5557e+002 -3.8897e+002  1.5749e+001 50519 85008,85060,85034
 4.6000e+000 85227 -1.5930e+002 -3.9820e+002  1.6469e+001 50519 85060,85008,85201
 4.6000e+000 85250 -1.8003e+002 -3.9982e+002  1.0907e+001 50519 85060,85201,84904
 4.6000e+000 85299 -1.7102e+002 -3.9377e+002  8.2833e+000 50519 84904,85201,85273
 4.6000e+000 85322 -1.3445e+002 -3.4831e+002 -8.1701e+000 50519 84904,85273,84930
 4.6000e+000 85958 -1.1209e+002 -3.5091e+002 -1.1973e+001 50093 85981,85768,85716
 4.6000e+000 85935 -9.9652e+001 -3.1876e+002 -1.3988e+001 50093 85981,85716,85612
 4.6000e+000 85912 -1.4372e+002 -3.2978e+002  5.7112e+000 50093 85612,85716,85664
 4.6000e+000 85889 -8.4071e+001 -3.4535e+002 -4.4752e+000 50093 85716,85768,85742
 4.6000e+000 85866 -1.1879e+002 -2.5370e+002 -7.1501e+001 50093 85664,85716,85690
 4.6000e+000 85843 -4.3228e+001 -2.4210e+002 -1.3119e+001 50093 85586,85794,85612
 4.6000e+000 85820 -9.8287e+001 -4.4581e+002  3.6905e+001 50093 85612,85664,85638
 4.6000e+000 86007 -1.3610e+002 -3.7743e+002 -5.7745e+001 50093 85794,85768,85981
 4.6000e+000 86030 -9.7852e+001 -2.8487e+002 -4.8326e+001 50093 85794,85981,85612
 4.6000e+000 86131 -1.1753e+002 -3.5180e+002  4.7778e+001 49895 86053,86105,86079
 4.6000e+000 86639 -8.6854e+001 -2.4428e+002 -4.9356e+001 49391 86662,86394,86368
 4.6000e+000 86616 -1.0193e+002 -2.9709e+002 -4.3887e+001 49391 86662,86368,86342
 4.6000e+000 86593 -5.7596e+001 -2.9694e+002 -1.3272e+001 49391 86342,86498,86472
 4.6000e+000 86570 -3.7666e+001 -3.2610e+002 -1.5937e+001 49391 86316,86498,86342
 4.6000e+000 86547 -1.6577e+002 -4.5208e+002 -2.0829e+001 49391 86394,86472,86446
 4.6000e+000 86524 -1.3740e+001 -4.2565e+002  3.2244e+000 49391 86394,86446,86420
 4.6000e+000 86688 -9.8223e+001 -2.9372e+002 -2.6457e+001 49391 86472,86394,86662
 4.6000e+000 86711 -8.7506e+001 -3.1623e+002 -2.5371e+001 49391 86472,86662,86342
 4.6000e+000 87089 -1.2544e+002 -3.5154e+002  8.9140e+000 48987 86815,86919,86867
 4.6000e+000 87066 -1.2571e+002 -3.6175e+002  1.4014e+001 48987 86815,86971,86919
 4.6000e+000 87043 -4.9092e+001 -3.8838e+002 -3.4962e+001 48987 86867,86919,86893
 4.6000e+000 87020 -1.4248e+002 -3.9779e+002  3.0103e+001 48987 86815,86867,86841
 4.6000e+000 86997 -1.4039e+002 -3.1099e+002  4.8655e+001 48987 86919,86971,86945
 4.6000e+000 87467 -2.3617e+002 -3.5052e+002  1.6646e+001 48540 87490,87245,87219
 4.6000e+000 87444 -1.7153e+002 -3.2780e+002  1.0633e+000 48540 87562,87490,87219
 4.6000e+000 87421 -1.2863e+002 -3.1050e+002  1.4376e+001 48540 87562,87219,87349
 4.6000e+000 87398 -1.7809e+002 -2.7501e+002 -1.8946e+001 48540 87245,87297,87271
 4.6000e+000 87375 -1.0856e+002 -3.2550e+002  1.0632e+001 48540 87193,87349,87219
 4.6000e+000 87516 -1.6300e+002 -3.3406e+002  3.0962e+000 48540 87297,87245,87490
 4.6000e+000 87539 -1.6501e+002 -3.3498e+002  5.4976e+000 48540 87297,87490,87323
 4.6000e+000 87588 -1.3012e+002 -3.0819e+002  2.8918e+001 48540 87323,87490,87562
 4.6000e+000 87611 -1.0949e+002 -3.1368e+002  3.7815e+001 48540 87323,87562,87349
 4.6000e+000 87810 -1.6468e+002 -5.8141e+002 -4.1876e+001 48136 87660,87712,87686
 4.6000e+000 87787 -9.3492e+001 -3.3796e+002 -1.8756e+001 48136 87660,87738,87712
 4.6000e+000 87764 -2.1427e+002 -3.4962e+002 -5.6368e+001 48136 87634,87738,87660
 4.6000e+000 88205 -1.4948e+002 -3.7081e+002 -3.1942e+001 47210 88300,88228,87937
 4.6000e+000 88182 -1.3031e+002 -3.6043e+002 -9.5259e+000 47210 88228,87833,88041
 4.6000e+000 88159 -1.5153e+002 -3.9602e+002 -5.0630e+001 47210 88300,87937,87911
 4.6000e+000 88136 -1.4723e+002 -3.5961e+002 -4.4180e+001 47210 87833,87911,87859
 4.6000e+000 88113 -2.4787e+002 -3.2556e+002 -2.4649e+001 47210 87937,87989,87963
 4.6000e+000 88090 -1.2382e+002 -2.9542e+002  6.0293e+001 47210 87989,88041,88015
 4.6000e+000 88067 -1.7024e+002 -4.1798e+002 -5.8259e+001 47210 87859,87911,87885
 4.6000e+000 88254 -1.3307e+002 -3.0813e+002 -3.2640e+001 47210 87989,87937,88228
 4.6000e+000 88277 -1.5677e+002 -3.5430e+002 -1.2464e+001 47210 87989,88228,88041
 4.6000e+000 88326 -1.2395e+002 -3.4642e+002 -1.2231e+001 47210 87833,88228,88300
 4.6000e+000 88349 -1.3008e+002 -3.6326e+002 -3.2224e+001 47210 87833,88300,87911
 4.6000e+000 88780 -2.3168e+002 -4.0682e+002 -7.7022e+001 46642 88803,88509,88483
 4.6000e+000 88757 -1.6539e+002 -3.6593e+002 -4.2010e+001 46642 88803,88483,88639
 4.6000e+000 88734 -1.8505e+002 -3.0098e+002 -4.7818e+001 46642 88875,88561,88509
 4.6000e+000 88711 -1.8777e+002 -2.7910e+002 -9.3953e+000 46642 88509,88561,88535
 4.6000e+000 88688 -1.0547e+002 -4.0917e+002  6.8647e-001 46642 88457,88639,88483
 4.6000e+000 88665 -2.1388e+002 -4.8779e+002 -2.0163e+001 46642 88561,88613,88587
 4.6000e+000 88829 -1.8620e+002 -3.2837e+002 -5.3825e+001 46642 88875,88509,88803
 4.6000e+000 88852 -1.8219e+002 -3.9483e+002 -3.4905e+001 46642 88613,88803,88639
 4.6000e+000 88901 -1.5298e+002 -3.3904e+002 -2.4706e+001 46642 88613,88561,88875
 4.6000e+000 88924 -1.6652e+002 -3.8355e+002 -2.9757e+001 46642 88613,88875,88803
 4.6000e+000 89253 -7.2257e+001 -3.5595e+002  6.4083e+000 46444 89080,89158,89132
 4.6000e+000 89230 -8.2489e+001 -3.7878e+002  3.4935e+000 46444 89028,89158,89080
 4.6000e+000 89207 -3.0626e+001 -3.3526e+002 -1.5117e+001 46444 89028,89080,89054
 4.6000e+000 89184 -3.8054e+001 -3.8464e+002 -2.9125e+001 46444 89080,89132,89106
 4.6000e+000 89631 -1.0214e+002 -2.4628e+002  5.5562e+000 46040 89383,89461,89435
 4.6000e+000 89608 -1.0815e+002 -2.7257e+002 -1.5813e+001 46040 89383,89487,89461
 4.6000e+000 89585 -1.1034e+002 -3.1944e+002 -9.2719e+000 46040 89383,89435,89409
 4.6000e+000 89562 -8.6433e+001 -2.3396e+002 -3.2293e+001 46040 89383,89513,89487
 4.6000e+000 89539 -3.5204e+001 -2.0884e+002 -4.3309e+001 46040 89357,89513,89383
 4.6000e+000 90009 -1.0709e+002 -3.1257e+002 -1.5770e+000 45636 89813,89891,89839
 4.6000e+000 89986 -1.1072e+002 -2.9263e+002  1.6889e+001 45636 89787,89891,89813
 4.6000e+000 89963 -9.4728e+001 -2.9299e+002 -8.6257e+000 45636 89839,89891,89865
 4.6000e+000 89940 -1.2947e+002 -3.2632e+002  9.0804e+000 45636 89735,89891,89787
 4.6000e+000 89917 -1.0163e+002 -3.2901e+002 -1.5193e+001 45636 89735,89787,89761
 4.6000e+000 90208 -7.1115e+001 -2.4208e+002 -4.7033e+001 45175 90231,90058,90032
 4.6000e+000 90185 -4.3626e+001 -2.2143e+002 -7.1622e+001 45175 90231,90032,90136
 4.6000e+000 90162 -8.4718e+001 -1.9748e+002 -3.8936e+000 45175 90058,90110,90084
 4.6000e+000 90257 -1.0232e+002 -2.7248e+002 -1.2452e+001 45175 90110,90058,90231
 4.6000e+000 90280 -4.9560e+001 -2.3632e+002 -3.9851e+001 45175 90110,90231,90136
 4.6000e+000 90528 -7.7901e+001 -2.4753e+002 -3.2820e+001 44513 90695,90551,90407
 4.6000e+000 90505 -8.3033e+001 -2.2332e+002 -1.5605e+001 44513 90551,90355,90329
 4.6000e+000 90482 -1.0221e+002 -2.4487e+002 -2.9805e+001 44513 90623,90303,90433
 4.6000e+000 90459 -5.9857e+001 -2.3059e+002 -2.3902e+001 44513 90695,90407,90381
 4.6000e+000 90577 -1.1401e+002 -2.5916e+002 -5.6450e+001 44513 90433,90407,90551
 4.6000e+000 90600 -9.7825e+001 -2.3790e+002 -2.7736e+001 44513 90623,90433,90551
 4.6000e+000 90649 -9.9120e+001 -2.3609e+002 -2.7368e+001 44513 90329,90303,90623
 4.6000e+000 90672 -1.0036e+002 -2.3516e+002 -2.7191e+001 44513 90329,90623,90551
 4.6000e+000 90721 -9.9963e+001 -2.2522e+002 -3.7027e+001 44513 90355,90551,90695
 4.6000e+000 90744 -9.4712e+001 -2.1728e+002 -3.3665e+001 44513 90355,90695,90381
 4.6000e+000 91077 -1.3906e+000 -2.5505e+002 -1.6376e+001 44059 91100,90930,90904
 4.6000e+000 91054 -9.9288e+001 -2.7515e+002  1.3014e+001 44059 91100,90904,90982
 4.6000e+000 91031 -1.7758e+002 -3.1996e+002 -2.3107e+001 44059 90878,90982,90904
 4.6000e+000 91008 -5.7292e+001 -2.4037e+002  1.4574e+001 44059 90852,90982,90878
 4.6000e+000 91126 -1.4695e+002 -2.9205e+002 -1.9652e+001 44059 91172,91100,90956
 4.6000e+000 91149 -9.3844e+001 -2.6743e+002 -1.1890e+001 44059 90956,91100,90982
 4.6000e+000 91198 -5.9680e+000 -1.5322e+002 -7.5899e+001 44059 90930,91100,91172
 4.6000e+000 91677 -1.2752e+002 -2.0099e+002  1.9464e+001 43549 91455,91533,91481
 4.6000e+000 91654 -4.9973e+001 -2.0237e+002  2.7213e+001 43549 91429,91533,91455
 4.6000e+000 91631 -1.2308e+002 -2.0105e+002  9.2933e+000 43549 91481,91533,91507
 4.6000e+000 91608 -2.5855e+001 -1.9244e+002  1.2351e+001 43549 91429,91559,91533
 4.6000e+000 91585  2.8253e+000 -5.8669e+001 -1.2329e+000 43549 91403,91559,91429
 4.6000e+000 92006 -1.2857e+002 -3.1979e+002  8.1784e-001 43059 91781,91885,91807
 4.6000e+000 91983 -1.3391e+002 -3.0151e+002  4.9090e+001 43059 91781,91911,91885
 4.6000e+000 91960 -1.2767e+002 -3.1943e+002  6.9572e-001 43059 91807,91885,91833
 4.6000e+000 91937 -8.3664e+001 -3.0260e+002 -5.3626e+000 43059 91833,91885,91859
 4.6000e+000 92561 -9.9594e+001 -2.2047e+002 -2.6654e+001 42598 92584,92215,92189
 4.6000e+000 92538 -1.0971e+002 -2.5034e+002 -2.4497e+001 42598 92656,92584,92189
 4.6000e+000 92515 -9.9191e+001 -2.8330e+002 -7.7343e+000 42598 92656,92189,92397
 4.6000e+000 92492 -1.3088e+002 -1.9900e+002 -3.1176e+001 42598 92241,92319,92293
 4.6000e+000 92469 -1.2237e+002 -2.3444e+002  1.1788e+001 42598 92319,92397,92371
 4.6000e+000 92446 -4.8618e+001 -2.7491e+002  1.1235e+002 42598 92319,92371,92345
 4.6000e+000 92423 -1.2597e+002 -2.0293e+002 -4.1704e+001 42598 92241,92293,92267
 4.6000e+000 92610 -1.0756e+002 -2.2204e+002 -2.4237e+001 42598 92241,92215,92584
 4.6000e+000 92633 -9.9232e+001 -2.0349e+002 -3.0402e+001 42598 92241,92584,92319
 4.6000e+000 92682 -1.0103e+002 -2.0650e+002 -1.8277e+001 42598 92319,92584,92656
 4.6000e+000 92705 -8.2293e+001 -2.2885e+002 -5.9553e+000 42598 92319,92656,92397
 4.6000e+000 92953 -1.3196e+002 -3.4347e+002  1.7966e+001 42094 92976,92806,92780
 4.6000e+000 92930 -1.4605e+002 -3.2457e+002  1.1717e-001 42094 92976,92780,92754
 4.6000e+000 92907 -3.2958e+001 -3.3337e+002 -2.0480e+000 42094 93048,92832,92806
 4.6000e+000 92884 -1.8733e+002 -3.2989e+002 -2.1563e+001 42094 92728,92858,92754
 4.6000e+000 93002 -8.5548e+001 -3.1868e+002  8.6892e+000 42094 93048,92806,92976
 4.6000e+000 93025 -1.3636e+002 -3.1913e+002 -5.0815e+000 42094 92858,92976,92754
 4.6000e+000 93074 -1.0628e+002 -3.6045e+002 -3.8790e+000 42094 92858,92832,93048
 4.6000e+000 93097 -1.4940e+002 -3.4007e+002  2.3863e+000 42094 92858,93048,92976
 4.6000e+000 93605 -1.3804e+002 -3.9440e+002 -1.4207e+001 41846 93628,93412,93386
 4.6000e+000 93582 -1.0393e+002 -2.9867e+002 -1.2011e+000 41846 93628,93386,93308
 4.6000e+000 93559 -1.5976e+002 -3.1257e+002 -6.4650e+001 41846 93700,93464,93438
 4.6000e+000 93536 -1.4806e+002 -4.1257e+002  6.0604e+000 41846 93308,93386,93334
 4.6000e+000 93513 -1.9324e+002 -3.0089e+002 -4.6768e+001 41846 93334,93386,93360
 4.6000e+000 93490 -1.5255e+002 -2.7603e+002 -6.1314e+001 41846 93282,93464,93308
 4.6000e+000 93654 -1.2045e+002 -3.1675e+002 -2.8985e+001 41846 93438,93412,93628
 4.6000e+000 93677 -1.5991e+002 -3.1910e+002 -2.9630e+001 41846 93700,93438,93628
 4.6000e+000 93726 -1.4448e+002 -2.6932e+002 -5.8408e+001 41846 93308,93464,93700
 4.6000e+000 93749 -1.3871e+002 -2.6219e+002 -2.3830e+001 41846 93308,93700,93628
 4.6000e+000 94255 -1.1216e+002 -3.2785e+002  2.0638e+001 41385 93958,94114,94088
 4.6000e+000 94232 -9.9004e+001 -3.5220e+002  8.7810e+000 41385 93932,94114,93958
 4.6000e+000 94209 -1.9066e+002 -3.7922e+002  6.0535e+001 41385 93958,94088,94062
 4.6000e+000 94186 -1.9861e+002 -2.7562e+002  4.4558e+001 41385 93958,94062,93984
 4.6000e+000 94163 -1.7254e+002 -2.6904e+002  4.1761e+001 41385 93984,94062,94036
 4.6000e+000 94140 -1.1815e+002 -3.7076e+002  6.1686e+001 41385 93984,94036,94010
 4.6000e+000 94476 -3.6523e+001 -4.4098e+002  2.5764e+001 40881 94326,94378,94352
 4.6000e+000 94453 -7.4157e+001 -3.6344e+002  2.9004e+001 40881 94300,94378,94326
 4.6000e+000 94430 -9.2823e+001 -3.3638e+002  3.3735e+000 40881 94300,94404,94378
 4.6000e+000 94626 -9.5600e+001 -2.5822e+002 -4.3311e+000 40591 94649,94551,94525
 4.6000e+000 94603 -5.4532e+001 -1.5891e+002  2.2650e+000 40591 94781,94577,94551
 4.6000e+000 94675 -3.3976e+001 -1.8576e+002 -3.2003e+001 40591 94781,94551,94649
 4.6000e+000 94807 -1.6420e+000 -1.0855e+002  3.1818e+001 40591 94499,94577,94781
 4.6000e+000 94830  4.6372e+000 -1.6138e+002 -4.4199e+000 40591 94499,94781,94649
 4.6000e+000 95336 -2.2137e+002 -3.0012e+002 -4.5959e+001 40187 95013,95169,95039
 4.6000e+000 95313 -5.0012e+001 -2.7139e+002  6.3164e+000 40187 95013,95195,95169
 4.6000e+000 95290 -3.6707e+001 -2.9540e+002 -3.1599e+001 40187 95039,95143,95065
 4.6000e+000 95267 -1.6767e+002 -3.4691e+002 -5.0510e+001 40187 95039,95169,95143
 4.6000e+000 95244 -7.8455e+001 -2.7471e+002 -2.9224e+001 40187 95091,95143,95117
 4.6000e+000 95221 -2.2743e+001 -1.6864e+002 -9.1829e+000 40187 95065,95143,95091
 4.6000e+000 95665 -8.4526e+001 -2.3141e+002  9.6963e+001 39626 95466,95570,95544
 4.6000e+000 95642 -1.5567e+002 -1.8585e+002  6.3216e+001 39626 95440,95570,95466
 4.6000e+000 95619 -2.3954e+002 -3.0400e+002  6.2954e+001 39626 95466,95544,95492
 4.6000e+000 95596 -5.1996e+001 -2.3703e+002  9.5963e+001 39626 95492,95544,95518
 4.6000e+000 95913 -1.2749e+002 -2.7870e+002 -4.1131e+001 39136 96080,95936,95766
 4.6000e+000 95890 -8.8023e+001 -2.9940e+002 -2.5122e+001 39136 95936,95714,95688
 4.6000e+000 95867 -2.2264e+002 -2.9888e+002  1.1336e+001 39136 96008,95792,95766
 4.6000e+000 95844 -1.0473e+002 -2.7046e+002 -3.1119e+001 39136 96080,95766,95740
 4.6000e+000 95962 -1.7671e+002 -3.0935e+002 -2.6728e+001 39136 96008,95766,95936
 4.6000e+000 95985 -1.1471e+002 -3.6438e+002 -6.4697e+000 39136 95818,95936,95688
 4.6000e+000 96034 -1.1165e+002 -2.5066e+002  1.8024e+001 39136 95818,95792,96008
 4.6000e+000 96057 -9.9523e+001 -2.7454e+002 -1.9355e+001 39136 95818,96008,95936
 4.6000e+000 96106 -1.1626e+002 -2.7565e+002 -1.0717e+001 39136 95714,95936,96080
 4.6000e+000 96129 -8.0756e+001 -2.6587e+002 -2.9588e+000 39136 95714,96080,95740
 4.6000e+000 96350 -9.3422e+001 -2.3594e+002 -1.3602e+001 38824 96200,96278,96252
 4.6000e+000 96327 -7.9811e+001 -2.2929e+002 -1.1498e+001 38824 96174,96278,96200
 4.6000e+000 96304 -1.8204e+001 -2.0715e+002 -4.0904e+001 38824 96200,96252,96226
 4.6000e+000 96830 -1.3533e+002 -2.4648e+002 -1.8394e+001 38320 97069,96536,96484
 4.6000e+000 96807 -1.3296e+002 -2.4967e+002 -1.8248e+001 38320 97069,96484,96853
 4.6000e+000 96784 -1.5036e+002 -2.6869e+002  3.5986e+000 38320 96853,96484,96458
 4.6000e+000 96761 -8.2906e+001 -2.1620e+002 -2.7180e+001 38320 96925,96640,96614
 4.6000e+000 96738 -1.3019e+002 -2.2533e+002 -1.2966e+001 38320 96997,96666,96640
 4.6000e+000 96715 -1.1038e+002 -2.9018e+002 -8.3081e+000 38320 97141,96588,96562
 4.6000e+000 96692 -1.7022e+002 -2.8703e+002 -2.9828e+000 38320 96484,96536,96510
 4.6000e+000 96879 -1.3361e+002 -2.6417e+002 -1.1490e+001 38320 97141,96562,96853
 4.6000e+000 96902 -1.2448e+002 -2.5824e+002 -1.0455e+001 38320 96925,96614,96853
 4.6000e+000 96951 -1.2713e+002 -2.2308e+002 -1.4381e+001 38320 96997,96640,96925
 4.6000e+000 96974 -1.2098e+002 -2.1924e+002 -9.0064e+000 38320 96458,96925,96853
 4.6000e+000 97023 -1.4371e+002 -2.2763e+002 -5.7882e+000 38320 96458,96666,96997
 4.6000e+000 97046 -1.3276e+002 -2.2236e+002 -7.3527e+000 38320 96458,96997,96925
 4.6000e+000 97095 -1.3932e+002 -2.3839e+002 -4.6240e+000 38320 96562,96536,97069
 4.6000e+000 97118 -1.2758e+002 -2.4755e+002 -1.5990e+001 38320 96562,97069,96853
 4.6000e+000 97167 -6.9374e+001 -2.6641e+002 -1.9320e+001 38320 96614,96588,97141
 4.6000e+000 97190 -1.0774e+002 -2.5138e+002 -1.9438e+001 38320 96614,97141,96853
 4.6000e+000 97519 -1.0747e+002 -3.2257e+002  8.6476e+001 37766 97542,97398,97372
 4.6000e+000 97496 -1.2935e+002 -2.5462e+002  5.9898e+001 37766 97542,97372,97346
 4.6000e+000 97473 -1.2862e+002 -2.6480e+002  6.1163e+000 37766 97294,97424,97346
 4.6000e+000 97450 -1.4204e+002 -3.0847e+002 -1.1689e+000 37766 97294,97346,97320
 4.6000e+000 97568 -5.5730e+001 -3.3676e+002  3.0658e+001 37766 97424,97398,97542
 4.6000e+000 97591 -9.0481e+001 -2.5940e+002  8.5418e+000 37766 97424,97542,97346
 4.6000e+000 98048 -1.3460e+002 -1.9620e+002 -6.0623e+001 37262 98071,97878,97852
 4.6000e+000 98025 -1.1544e+002 -2.3306e+002 -2.4868e+001 37262 98071,97852,97800
 4.6000e+000 98002 -1.2840e+002 -2.8001e+002 -2.6537e+001 37262 97800,97852,97826
 4.6000e+000 97979 -1.3169e+002 -2.5141e+002  6.5872e+000 37262 97800,97930,97904
 4.6000e+000 97956 -8.8526e+001 -3.0571e+002  1.9322e+001 37262 97774,97930,97800
 4.6000e+000 98097 -1.8704e+002 -2.2193e+002 -4.2443e+001 37262 97904,97878,98071
 4.6000e+000 98120 -1.4453e+002 -2.6367e+002 -1.0154e+001 37262 97904,98071,97800
 4.6000e+000 98449 -7.1978e+001 -1.9583e+002 -2.3193e+001 36950 98472,98302,98250
 4.6000e+000 98426 -4.3246e+001 -1.8726e+002 -2.8351e+001 36950 98472,98250,98354
 4.6000e+000 98403 -1.1052e+002 -2.1594e+002  2.4851e+001 36950 98250,98302,98276
 4.6000e+000 98380 -2.7787e+001 -1.4905e+002  1.4312e+001 36950 98224,98354,98250
 4.6000e+000 98498 -5.0807e+001 -2.1832e+002 -6.3548e+000 36950 98328,98302,98472
 4.6000e+000 98521 -1.7453e+001 -2.0555e+002 -1.6310e+001 36950 98328,98472,98354
 4.6000e+000 99125 -1.4970e+002 -1.4507e+002  1.6329e+001 36296 98704,98756,98730
 4.6000e+000 99102 -1.4329e+002 -1.6327e+002  1.4799e+001 36296 98704,98938,98756
 4.6000e+000 99079 -1.0547e+002 -2.0256e+002 -4.9632e+000 36296 99148,98938,98912
 4.6000e+000 99056 -1.1194e+002 -2.0832e+002  4.8200e+001 36296 99292,99220,98782
 4.6000e+000 99033 -9.2243e+001 -2.3219e+002  5.1874e+000 36296 99148,98912,98834
 4.6000e+000 99010 -1.0558e+002 -1.7582e+002  5.2989e+001 36296 99292,98782,98756
 4.6000e+000 98987 -8.8372e+001 -4.0960e+002 -7.5344e+001 36296 98834,98912,98886
 4.6000e+000 98964 -1.4946e+002 -5.9405e+002 -9.6090e+001 36296 98834,98886,98860
 4.6000e+000 99174 -1.2936e+002 -2.4935e+002  7.1923e+000 36296 99220,98938,99148
 4.6000e+000 99197 -8.9992e+001 -2.8406e+002  3.0560e+001 36296 98808,99148,98834
 4.6000e+000 99246 -1.0972e+002 -2.0229e+002  1.1580e+002 36296 98808,98782,99220
 4.6000e+000 99269 -4.4444e+001 -1.7978e+002  3.8147e+001 36296 98808,99220,99148
 4.6000e+000 99318 -1.1927e+002 -1.7651e+002  2.6002e+001 36296 98938,99220,99292
 4.6000e+000 99341 -1.2201e+002 -1.8158e+002  3.0854e+001 36296 98938,99292,98756
 4.6000e+000 99719 -1.5435e+002 -3.2018e+002  7.1204e-001 35742 99742,99471,99601
 4.6000e+000 99696 -1.5836e+002 -2.5409e+002  3.0301e+001 35742 99445,99601,99471
 4.6000e+000 99673 -1.4781e+002 -3.0527e+002 -1.3470e+001 35742 99742,99601,99575
 4.6000e+000 99650 -1.2848e+002 -3.7283e+002 -1.0527e+001 35742 99814,99549,99523
 4.6000e+000 99627 -1.0312e+002 -2.9137e+002 -1.9560e+000 35742 99471,99523,99497
 4.6000e+000 99768 -1.2364e+002 -3.1292e+002  6.7308e+000 35742 99523,99471,99742
 4.6000e+000 99791 -1.4499e+002 -3.4549e+002 -9.1828e+000 35742 99814,99523,99742
 4.6000e+000 99840 -1.2565e+002 -3.3898e+002 -2.0961e+001 35742 99575,99549,99814
 4.6000e+000 99863 -1.3634e+002 -3.0351e+002 -1.8747e+001 35742 99575,99814,99742
 4.6000e+000 100111 -1.1682e+002 -2.5874e+002  1.8487e+001 35302 100134,99990,99938
 4.6000e+000 100088 -9.7484e+001 -2.3609e+002  6.1180e+000 35302 100134,99938,99912
 4.6000e+000 100065 -9.7643e+001 -2.3615e+002 -6.1148e+000 35302 100206,99886,100016
 4.6000e+000 100042 -1.5210e+002 -2.3862e+002  1.1686e+001 35302 99938,99990,99964
 4.6000e+000 100160 -9.1662e+001 -2.4920e+002  4.2085e+000 35302 100016,99990,100134
 4.6000e+000 100183 -9.3455e+001 -2.3971e+002 -6.0134e+000 35302 100206,100016,100134
 4.6000e+000 100232 -1.0116e+002 -2.4037e+002 -3.4582e+000 35302 99912,99886,100206
 4.6000e+000 100255 -9.7269e+001 -2.4485e+002 -3.5041e+000 35302 99912,100206,100134
 4.6000e+000 100586 -1.4106e+002 -1.6427e+002  3.9705e+001 35012 100609,100387,100361
 4.6000e+000 100563 -1.6976e+002 -1.2585e+002 -3.1327e+001 35012 100609,100361,100465
 4.6000e+000 100540 -8.0227e+001 -9.0634e+001 -7.0749e+001 35012 100361,100491,100465
 4.6000e+000 100517 -3.3398e+001 -1.0476e+002 -6.5833e+001 35012 100413,100465,100439
 4.6000e+000 100635 -6.8329e+001 -1.3248e+002  1.7121e+001 35012 100413,100387,100609
 4.6000e+000 100658 -9.5074e+001 -8.4567e+001 -5.5803e+001 35012 100413,100609,100465
 4.6000e+000 100987 -1.1899e+002 -2.6443e+002  2.2880e+001 34700 100788,100866,100814
 4.6000e+000 100964 -9.4466e+001 -2.0990e+002  3.9337e+001 34700 101010,100866,100788
 4.6000e+000 100941 -6.7908e+001 -1.5862e+002  4.2333e+001 34700 100762,100892,100866
 4.6000e+000 100918 -1.1093e+002 -2.4279e+002  1.3627e+001 34700 100814,100866,100840
 4.6000e+000 101036 -6.4964e+001 -1.8562e+002  6.2697e+001 34700 100762,100866,101010
 4.6000e+000 101493 -1.5917e+002 -2.9807e+002 -2.6740e+001 34132 101516,101349,101297
 4.6000e+000 101470 -1.8900e+002 -3.5682e+002 -4.2266e+001 34132 101588,101516,101297
 4.6000e+000 101447 -1.9006e+002 -3.7620e+002 -6.1827e+001 34132 101588,101297,101245
 4.6000e+000 101424 -1.1640e+002 -4.3755e+002 -5.8223e+001 34132 101245,101297,101271
 4.6000e+000 101401 -1.8169e+002 -3.0066e+002 -3.3931e+001 34132 101297,101349,101323
 4.6000e+000 101542 -1.6628e+002 -3.4397e+002 -2.0923e+001 34132 101375,101349,101516
 4.6000e+000 101565 -1.4788e+002 -3.4155e+002 -2.1454e+001 34132 101375,101516,101219
 4.6000e+000 101614 -1.5160e+002 -3.5896e+002 -2.1817e+001 34132 101219,101516,101588
 4.6000e+000 101637 -1.7070e+002 -3.7761e+002 -4.0466e+001 34132 101219,101588,101245
 4.6000e+000 101858 -5.7550e+001 -2.4649e+002  2.4721e+001 33720 101708,101786,101760
 4.6000e+000 101835 -3.6736e+001 -2.6909e+002  3.8326e+001 33720 101682,101786,101708
 4.6000e+000 101812 -8.7921e+001 -2.6208e+002  1.7549e+001 33720 101708,101760,101734
 4.6000e+000 102128 -3.6066e+001 -3.1143e+002 -8.3525e+000 33130 101903,102007,101929
 4.6000e+000 102105 -4.4324e+001 -3.6004e+002  1.1725e+001 33130 101903,102033,102007
 4.6000e+000 102082 -1.9720e+001 -3.7274e+002 -7.3234e+001 33130 101929,102007,101955
 4.6000e+000 102059 -5.6543e+001 -2.6386e+002  6.0336e+000 33130 101955,102007,101981
 4.6000e+000 102461 -1.0194e+002 -2.4213e+002 -2.2191e+001 32840 102236,102340,102262
 4.6000e+000 102438 -8.8638e+001 -1.7451e+002  5.2632e+000 32840 102236,102366,102340
 4.6000e+000 102415 -6.2633e+001 -2.3245e+002 -1.8335e+001 32840 102262,102340,102288
 4.6000e+000 102392 -1.2317e+002 -2.4627e+002 -5.0107e+001 32840 102288,102340,102314
 4.6000e+000 102997 -1.0298e+002 -1.7668e+002  4.9878e+001 32493 102749,102879,102853
 4.6000e+000 102974 -8.3688e+001 -1.3930e+002  3.5495e+001 32493 102723,102879,102749
 4.6000e+000 102951 -1.1935e+002 -2.1452e+002  3.3768e+001 32493 102749,102801,102775
 4.6000e+000 102928 -1.2880e+002 -2.1314e+002  3.2410e+001 32493 102749,102853,102801
 4.6000e+000 102905 -1.2115e+002 -2.0119e+002  2.6269e+001 32493 102801,102853,102827
 4.6000e+000 103454 -1.1098e+002 -1.9789e+002 -2.0365e+001 32089 103206,103336,103310
 4.6000e+000 103431 -8.8990e+001 -2.1538e+002 -2.0006e+000 32089 103180,103336,103206
 4.6000e+000 103408 -1.2222e+002 -2.2632e+002 -3.9623e+001 32089 103206,103284,103258
 4.6000e+000 103385 -1.7060e+002 -2.3647e+002 -4.3926e+001 32089 103206,103310,103284
 4.6000e+000 103362 -9.5929e+001 -1.5905e+002 -2.5144e+001 32089 103206,103258,103232
 4.6000e+000 103783 -1.9621e+002 -2.5617e+002 -2.7931e+001 31742 103558,103662,103584
 4.6000e+000 103760 -1.6200e+002 -2.0489e+002 -6.5797e+001 31742 103558,103688,103662
 4.6000e+000 103737 -1.3260e+002 -2.0789e+002 -5.1244e+001 31742 103584,103662,103636
 4.6000e+000 103714 -1.2439e+002 -2.3650e+002 -5.7319e+001 31742 103584,103636,103610
 4.6000e+000 104112 -3.6916e+001 -2.0577e+002  3.2082e+001 31402 103939,103991,103965
 4.6000e+000 104089 -6.4296e+001 -1.7718e+002  1.5689e+001 31402 103913,103991,103939
 4.6000e+000 104066 -8.7559e+001 -2.0143e+002  2.3041e+000 31402 103913,104017,103991
 4.6000e+000 104043 -1.0453e+002 -1.8542e+002 -9.7094e+000 31402 103887,104017,103913
 4.6000e+000 104569 -1.8095e+002 -3.2142e+002  8.0321e+000 30998 104321,104425,104373
 4.6000e+000 104546 -2.0595e+002 -3.2881e+002  4.0079e+000 30998 104321,104451,104425
 4.6000e+000 104523 -1.3470e+002 -2.6748e+002  3.6353e+001 30998 104373,104425,104399
 4.6000e+000 104500 -1.6777e+002 -3.7784e+002 -1.9964e+001 30998 104295,104451,104321
 4.6000e+000 104477 -2.4200e+002 -3.7844e+002  6.8074e+001 30998 104321,104373,104347
 4.6000e+000 104947 -1.6402e+002 -2.8231e+002 -3.1287e+001 30608 104751,104803,104777
 4.6000e+000 104924 -1.0953e+002 -2.9096e+002 -1.0910e+001 30608 104725,104803,104751
 4.6000e+000 104901 -1.7479e+002 -2.8268e+002  1.9598e+001 30608 104699,104803,104725
 4.6000e+000 104878 -1.5149e+002 -2.7251e+002  1.7760e+001 30608 104673,104803,104699
 4.6000e+000 104855 -1.1660e+002 -2.6161e+002 -1.0499e+001 30608 104673,104829,104803
 4.6000e+000 105276 -1.1275e+002 -2.6135e+002  1.4706e+001 30204 105427,105129,105077
 4.6000e+000 105253 -7.9163e+001 -2.8156e+002  5.7151e+001 30204 105427,105077,105051
 4.6000e+000 105230 -9.7583e+001 -2.5132e+002  1.9049e+001 30204 105077,105129,105103
 4.6000e+000 105207 -7.1874e+001 -2.3516e+002  3.6526e+001 30204 105299,105181,105155
 4.6000e+000 105325 -7.6641e+001 -2.3135e+002  1.4419e+001 30204 105129,105181,105299
 4.6000e+000 105453 -1.3391e+002 -2.7546e+002  3.4031e+001 30204 105181,105129,105427
 4.6000e+000 105476 -1.5418e+002 -3.2032e+002  8.2107e+001 30204 105181,105427,105051
 4.6000e+000 105903 -9.5561e+001 -2.2586e+002 -1.7748e+001 29700 105606,105762,105736
 4.6000e+000 105880 -1.2283e+002 -2.3158e+002  5.9903e-001 29700 105580,105762,105606
 4.6000e+000 105857 -1.4499e+002 -2.8479e+002 -1.7079e+001 29700 105606,105710,105632
 4.6000e+000 105834 -1.2102e+002 -2.3869e+002 -8.3462e+000 29700 105606,105736,105710
 4.6000e+000 105811 -1.3714e+002 -2.5925e+002 -1.9324e+001 29700 105632,105710,105684
 4.6000e+000 105788 -1.2938e+002 -2.4073e+002 -1.2119e+001 29700 105632,105684,105658
 4.6000e+000 106102 -3.8172e+001 -2.6975e+002  1.3124e+001 29124 105978,106030,106004
 4.6000e+000 106079 -6.7246e+001 -2.6473e+002  1.3975e+001 29124 105926,106030,105978
 4.6000e+000 106056 -7.3161e+001 -2.9622e+002  3.9084e+001 29124 105926,105978,105952
 4.6000e+000 106301 -7.5491e+001 -2.7641e+002  1.1505e+000 28712 106151,106229,106203
 4.6000e+000 106278 -8.9578e+001 -3.0593e+002 -1.3949e+001 28712 106125,106229,106151
 4.6000e+000 106255 -7.8738e+001 -2.9106e+002  1.5468e+001 28712 106151,106203,106177
 4.6000e+000 106551 -9.8970e+001 -3.4805e+002  1.5975e+001 28258 106352,106404,106378
 4.6000e+000 106528 -1.3559e+002 -3.5152e+002  2.1987e+000 28258 106352,106456,106404
 4.6000e+000 106505 -1.3498e+002 -3.6245e+002 -2.0797e+000 28258 106326,106456,106352
 4.6000e+000 106482 -1.2284e+002 -3.3121e+002 -5.3934e+000 28258 106404,106456,106430
 4.6000e+000 107012 -1.1422e+002 -2.9462e+002  5.9462e+001 27818 107035,106790,106764
 4.6000e+000 106989 -9.9226e+001 -2.7987e+002  2.2096e+001 27818 107035,106764,106868
 4.6000e+000 106966 -6.9535e+001 -3.3442e+002  3.2581e+001 27818 107107,106842,106816
 4.6000e+000 106943 -1.5238e+002 -2.6161e+002  1.2732e+001 27818 106738,106868,106764
 4.6000e+000 106920 -1.4375e+002 -2.3272e+002  2.7258e+001 27818 106738,106894,106868
 4.6000e+000 107061 -4.8358e+001 -2.8107e+002  6.7420e+001 27818 106816,106790,107035
 4.6000e+000 107084 -8.6766e+001 -3.1294e+002  3.4255e+001 27818 107107,106816,107035
 4.6000e+000 107133 -6.6790e+001 -3.0304e+002  1.7312e+001 27818 106868,106842,107107
 4.6000e+000 107156 -7.7741e+001 -2.7081e+002  2.3009e+001 27818 106868,107107,107035
 4.6000e+000 107613 -3.5396e+001 -2.2191e+002  4.8226e+001 27312 107339,107469,107365
 4.6000e+000 107590 -4.3299e+000 -2.0368e+002  4.0615e+001 27312 107339,107495,107469
 4.6000e+000 107567 -3.7611e+001 -2.1577e+002  2.3290e+001 27312 107391,107469,107443
 4.6000e+000 107544 -3.6339e+001 -2.3160e+002  2.0082e+001 27312 107365,107469,107391
 4.6000e+000 107521 -1.0224e+002 -2.3649e+002  9.3376e+000 27312 107391,107443,107417
 4.6000e+000 107991 -1.1789e+002 -3.3145e+002  1.3956e+001 26858 108086,108014,107795
 4.6000e+000 107968 -1.2987e+002 -3.4224e+002 -1.6524e+001 26858 108014,107717,107873
 4.6000e+000 107945 -1.3225e+002 -3.4651e+002  2.3032e+001 26858 108158,108086,107795
 4.6000e+000 107922 -1.0613e+002 -3.4759e+002  2.2286e+001 26858 108158,107795,107769
 4.6000e+000 107899 -9.9515e+001 -4.1537e+002  5.7476e+001 26858 107821,107873,107847
 4.6000e+000 108040 -1.2491e+002 -3.7672e+002  1.9890e+001 26858 107821,107795,108014
 4.6000e+000 108063 -7.8033e+001 -3.5509e+002  2.1245e+000 26858 107821,108014,107873
 4.6000e+000 108112 -1.5706e+002 -3.4760e+002  1.5396e+001 26858 107717,108014,108086
 4.6000e+000 108135 -1.3170e+002 -3.5221e+002  3.5288e+001 26858 107717,108086,107743
 4.6000e+000 108184 -1.0237e+002 -3.3915e+002  3.2528e+001 26858 107743,108086,108158
 4.6000e+000 108207 -9.0177e+001 -3.5020e+002  3.2738e+001 26858 107743,108158,107769
 4.6000e+000 108634 -1.5325e+002 -3.1634e+002  5.7330e+000 26404 108657,108415,108363
 4.6000e+000 108611 -1.7217e+002 -3.4108e+002  3.5280e+001 26404 108657,108363,108337
 4.6000e+000 108588 -1.5002e+002 -3.2286e+002  3.5474e+001 26404 108729,108311,108467
 4.6000e+000 108565 -1.6456e+002 -3.7551e+002  5.3179e+000 26404 108801,108441,108415
 4.6000e+000 108542 -2.2661e+002 -3.5766e+002  4.3947e+001 26404 108311,108493,108467
 4.6000e+000 108519 -1.0669e+002 -3.1796e+002  5.4566e+000 26404 108363,108415,108389
 4.6000e+000 108683 -2.0260e+002 -3.3742e+002  1.0206e+001 26404 108801,108415,108657
 4.6000e+000 108706 -1.9282e+002 -3.3477e+002  2.8133e+001 26404 108729,108467,108657
 4.6000e+000 108755 -1.2233e+002 -3.4077e+002  3.5364e+001 26404 108337,108311,108729
 4.6000e+000 108778 -1.4418e+002 -3.3756e+002  2.7310e+001 26404 108337,108729,108657
 4.6000e+000 108827 -2.0159e+002 -4.5195e+002 -1.6838e+001 26404 108467,108441,108801
 4.6000e+000 108850 -2.2151e+002 -3.8604e+002 -1.1704e+001 26404 108467,108801,108657
 4.6000e+000 109228 -1.5354e+002 -3.2864e+002 -1.5643e+001 26064 109006,109084,109058
 4.6000e+000 109205 -1.3711e+002 -3.0689e+002  6.2953e+000 26064 108980,109084,109006
 4.6000e+000 109182 -1.4918e+002 -2.9393e+002 -1.0156e+001 26064 108980,109110,109084
 4.6000e+000 109159 -1.4749e+002 -3.4575e+002 -2.2380e+000 26064 109006,109058,109032
 4.6000e+000 109136 -5.0658e+001 -2.6333e+002  1.0151e+001 26064 108954,109110,108980
 4.6000e+000 109427 -3.8980e+001 -2.8078e+002 -5.6313e+001 25660 109303,109355,109329
 4.6000e+000 109404 -7.8834e+001 -3.6083e+002 -1.3407e+001 25660 109277,109355,109303
 4.6000e+000 109381 -4.7594e+001 -3.4001e+002 -4.2501e+000 25660 109251,109355,109277
 4.6000e+000 109577 -5.6285e+001 -1.3863e+002  4.8034e+001 25306 109476,109528,109502
 4.6000e+000 109554  1.4092e+001 -1.2109e+002  3.3892e+001 25306 109450,109528,109476
 4.6000e+000 109778 -1.0851e+002 -2.9851e+002  8.9098e+000 24944 109628,109706,109654
 4.6000e+000 109755 -1.1716e+002 -2.9147e+002  1.5818e+000 24944 109602,109706,109628
 4.6000e+000 109732 -9.5605e+001 -2.8012e+002 -2.0905e+000 24944 109654,109706,109680
 4.6000e+000 110126 -1.0188e+002 -3.8154e+002  1.1807e+001 24440 110149,109907,109855
 4.6000e+000 110103 -9.6454e+001 -4.0209e+002  2.3659e+001 24440 110149,109855,109985
 4.6000e+000 110080 -8.1293e+001 -3.3105e+002  7.1115e+000 24440 109855,109907,109881
 4.6000e+000 110057 -8.4695e+001 -3.1375e+002  1.0427e+002 24440 109829,109985,109855
 4.6000e+000 110034 -9.2080e+001 -3.8167e+002  1.8788e+000 24440 109907,109959,109933
 4.6000e+000 110011 -4.7592e+001 -3.2179e+002  8.8085e+000 24440 109803,109985,109829
 4.6000e+000 110175 -9.7783e+001 -3.6410e+002  8.6733e+000 24440 109959,109907,110149
 4.6000e+000 110198 -9.2217e+001 -3.8147e+002  2.2630e+001 24440 109959,110149,109985
 4.6000e+000 110301 -1.2299e+001 -2.0743e+002  2.4436e+000 24028 110223,110275,110249
 4.6000e+000 110573 -4.7477e+001 -2.2723e+002  1.7915e+001 23467 110400,110452,110426
 4.6000e+000 110550 -8.0114e+001 -2.6762e+002  4.9393e-001 23467 110374,110452,110400
 4.6000e+000 110527 -8.2711e+001 -2.6865e+002  4.3048e+000 23467 110348,110452,110374
 4.6000e+000 110504 -6.0368e+001 -2.5841e+002 -2.0721e+000 23467 110348,110478,110452
 4.6000e+000 111004 -1.8044e+002 -3.9070e+002 -3.9247e+001 22963 111027,110733,110707
 4.6000e+000 110981 -1.7598e+002 -3.7039e+002  1.7606e+001 22963 111027,110707,110681
 4.6000e+000 110958 -8.7265e+001 -3.2968e+002 -3.9921e+001 22963 111099,110759,110733
 4.6000e+000 110935 -1.1430e+002 -3.2079e+002 -2.6875e+001 22963 111171,110863,110811
 4.6000e+000 110912 -5.6211e+001 -2.3807e+002 -4.3571e+001 22963 110759,110811,110785
 4.6000e+000 110889 -1.2559e+002 -3.4020e+002 -2.1705e+001 22963 110811,110863,110837
 4.6000e+000 111053 -1.2696e+002 -3.5760e+002 -2.4635e+001 22963 111099,110733,111027
 4.6000e+000 111076 -1.0714e+002 -3.4843e+002 -2.1846e+001 22963 111171,110811,111027
 4.6000e+000 111125 -8.5326e+001 -3.2334e+002 -6.1032e+001 22963 110811,110759,111099
 4.6000e+000 111148 -9.1485e+001 -3.1948e+002 -5.1593e+001 22963 110811,111099,111027
 4.6000e+000 111197 -1.1522e+002 -2.7651e+002 -3.3661e+001 22963 110681,110863,111171
 4.6000e+000 111220 -1.1914e+002 -3.0916e+002 -1.6309e+001 22963 110681,111171,111027
 4.6000e+000 111726 -1.7408e+002 -3.3978e+002  8.5727e+000 22459 111749,111507,111429
 4.6000e+000 111703 -1.6187e+002 -3.3637e+002 -6.9776e+000 22459 111749,111429,111585
 4.6000e+000 111680 -1.3857e+002 -3.7727e+002 -4.4816e+000 22459 111403,111585,111429
 4.6000e+000 111657 -1.6655e+002 -3.7290e+002  1.5786e+001 22459 111507,111559,111533
 4.6000e+000 111634 -2.2796e+002 -3.2552e+002  2.2010e+001 22459 111455,111507,111481
 4.6000e+000 111611 -2.3923e+002 -3.2600e+002  3.0417e+001 22459 111429,111507,111455
 4.6000e+000 111775 -1.7573e+002 -3.6317e+002  2.0599e+001 22459 111559,111507,111749
 4.6000e+000 111798 -1.6211e+002 -3.4723e+002  5.5459e+000 22459 111559,111749,111585
 4.6000e+000 112046 -7.7894e+001 -2.8763e+002 -3.8535e+001 21898 112069,111925,111873
 4.6000e+000 112023 -7.5021e+001 -2.9035e+002 -9.8689e+000 21898 112069,111873,111847
 4.6000e+000 112000 -1.0088e+002 -2.9991e+002 -1.6595e+001 21898 111821,111951,111847
 4.6000e+000 111977 -8.7802e+001 -2.2656e+002 -2.5100e+001 21898 111873,111925,111899
 4.6000e+000 112095 -1.1854e+002 -3.0278e+002 -4.3662e+001 21898 111951,111925,112069
 4.6000e+000 112118 -9.8707e+001 -2.9889e+002 -1.6133e+001 21898 111951,112069,111847
 4.6000e+000 112498 -1.3470e+002 -3.1600e+002 -2.7870e+001 21608 112521,112276,112224
 4.6000e+000 112475 -8.7828e+001 -3.1918e+002 -2.0048e+000 21608 112521,112224,112380
 4.6000e+000 112452 -9.4881e+001 -3.7191e+002  2.1814e+001 21608 112302,112380,112354
 4.6000e+000 112429 -1.5905e+002 -3.6097e+002 -1.7466e+001 21608 112224,112276,112250
 4.6000e+000 112406  5.3999e+001 -3.9080e+002 -1.1759e+001 21608 112302,112354,112328
 4.6000e+000 112547 -9.6712e+001 -2.7720e+002 -5.5338e+000 21608 112302,112276,112521
 4.6000e+000 112570 -6.4433e+001 -3.0934e+002  1.2201e+001 21608 112302,112521,112380
 4.6000e+000 112948 -1.5479e+002 -3.2725e+002 -6.0239e+000 20882 112971,112752,112700
 4.6000e+000 112925 -1.2049e+002 -3.1562e+002 -1.2725e+001 20882 112971,112700,112830
 4.6000e+000 112902 -1.9599e+002 -3.5365e+002  2.0571e+001 20882 112778,112830,112804
 4.6000e+000 112879 -1.1187e+002 -2.5705e+002 -1.7776e+001 20882 112674,112830,112700
 4.6000e+000 112856 -1.8924e+002 -3.4144e+002  5.9850e+000 20882 112700,112752,112726
 4.6000e+000 112997 -1.5570e+002 -3.2685e+002  1.2966e+001 20882 112778,112752,112971
 4.6000e+000 113020 -1.3611e+002 -3.2117e+002  5.4873e+000 20882 112778,112971,112830
 4.6000e+000 113526 -1.1205e+002 -3.2631e+002  2.4418e+000 20428 113255,113385,113333
 4.6000e+000 113503 -1.2218e+002 -3.5747e+002  2.4090e+000 20428 113229,113385,113255
 4.6000e+000 113480 -1.6200e+001 -3.2022e+002  3.2993e+000 20428 113255,113333,113281
 4.6000e+000 113457 -1.0440e+002 -3.5001e+002  5.2585e+000 20428 113203,113385,113229
 4.6000e+000 113434 -5.8096e+001 -3.3410e+002 -1.0321e+001 20428 113281,113333,113307
 4.6000e+000 113411 -1.3856e+002 -3.2250e+002  9.1359e+000 20428 113333,113385,113359
 4.6000e+000 113774 -1.8703e+001 -3.1402e+002  1.2614e+001 19917 113797,113601,113549
 4.6000e+000 113751 -5.2102e+001 -3.2065e+002  1.6828e+001 19917 113869,113797,113549
 4.6000e+000 113728 -4.9727e+001 -3.2465e+002  3.2236e+001 19917 113869,113549,113679
 4.6000e+000 113705 -2.8396e+001 -3.1104e+002  2.5816e+001 19917 113549,113601,113575
 4.6000e+000 113823 -5.2908e+001 -3.8173e+002 -1.1952e+000 19917 113627,113601,113797
 4.6000e+000 113846 -1.9749e+001 -2.9883e+002 -7.9034e+000 19917 113627,113797,113653
 4.6000e+000 113895 -4.4357e+001 -2.8381e+002  4.9437e+000 19917 113653,113797,113869
 4.6000e+000 113918 -5.6980e+001 -2.9372e+002  2.4573e+001 19917 113653,113869,113679
 4.6000e+000 114166 -1.4442e+002 -3.2793e+002 -5.5019e+000 19413 113993,114045,114019
 4.6000e+000 114143 -1.3647e+002 -3.0587e+002  2.0244e+000 19413 113967,114045,113993
 4.6000e+000 114120 -1.1350e+002 -2.9784e+002  1.7058e+001 19413 113967,114071,114045
 4.6000e+000 114097 -9.2983e+001 -3.3772e+002 -5.6923e+000 19413 113941,114071,113967
 4.6000e+000 114438 -1.3527e+002 -3.5759e+002  3.3800e+000 19001 114213,114265,114239
 4.6000e+000 114415 -9.7471e+001 -2.7851e+002 -8.2310e+000 19001 114213,114343,114265
 4.6000e+000 114392 -1.4440e+002 -3.8373e+002 -1.7369e+001 19001 114265,114343,114317
 4.6000e+000 114369  2.7215e+001 -3.0979e+002 -7.0064e+000 19001 114265,114317,114291
 4.6000e+000 114639 -1.0246e+002 -4.2564e+002  2.0793e+001 18554 114489,114541,114515
 4.6000e+000 114616 -8.9640e+001 -3.6847e+002  3.5841e+000 18554 114489,114567,114541
 4.6000e+000 114593 -1.9305e+002 -4.2287e+002 -2.8156e+001 18554 114463,114567,114489
 4.6000e+000 115043 -7.0740e+001 -3.1860e+002  1.1527e+001 18164 114795,114925,114821
 4.6000e+000 115020 -6.2906e+001 -3.3693e+002  1.8445e+001 18164 114769,114925,114795
 4.6000e+000 114997 -3.8761e+001 -3.3515e+002 -2.6904e+000 18164 115066,114873,114821
 4.6000e+000 114974 -3.6477e+001 -2.8780e+002 -1.1406e+001 18164 115066,114821,114925
 4.6000e+000 114951  2.1002e+001 -3.3611e+002 -3.2745e+001 18164 114821,114873,114847
 4.6000e+000 115092 -5.5513e+001 -3.0090e+002 -2.7560e+001 18164 114899,114873,115066
 4.6000e+000 115115 -3.3723e+001 -2.2853e+002 -3.8613e+001 18164 114899,115066,114925
 4.6000e+000 115265 -8.9683e+001 -3.5042e+002  4.0237e+000 17852 115164,115216,115190
 4.6000e+000 115242 -9.9258e+001 -3.7042e+002 -4.7179e-001 17852 115138,115216,115164
 4.6000e+000 115464 -2.2155e+002 -4.9871e+002  6.7498e+000 17346 115288,115366,115340
 4.6000e+000 115441 -3.4092e+002 -3.8726e+002 -1.4653e+001 17346 115288,115392,115366
 4.6000e+000 115418 -1.9910e+002 -5.5966e+002 -1.7397e+001 17346 115288,115340,115314
 4.6000e+000 115736 -8.6069e+001 -3.1848e+002  1.3734e+001 16942 115563,115641,115615
 4.6000e+000 115713 -9.6799e+001 -3.1749e+002  4.4548e+000 16942 115511,115641,115563
 4.6000e+000 115690 -2.2309e+002 -3.7129e+002  2.0548e+001 16942 115563,115615,115589
 4.6000e+000 115667 -1.1403e+002 -3.4483e+002  1.1797e+001 16942 115511,115563,115537
 4.6000e+000 116091 -1.6349e+002 -3.8191e+002 -1.4502e+001 16388 115918,115970,115944
 4.6000e+000 116068 -1.4008e+002 -3.0615e+002 -9.5182e+000 16388 115918,115996,115970
 4.6000e+000 116045 -1.8894e+002 -3.8782e+002  1.2926e+001 16388 115892,115996,115918
 4.6000e+000 116022 -1.2342e+002 -3.5305e+002  4.3557e+001 16388 115866,115996,115892
 4.6000e+000 116192 -5.3056e+001 -4.0223e+002 -5.7023e+001 15810 116114,116166,116140
 4.6000e+000 116342 -1.5036e+002 -4.8353e+002  2.6470e+001 15419 116241,116293,116267
 4.6000e+000 116319 -2.1447e+002 -5.9351e+002 -1.7079e+001 15419 116215,116293,116241
 4.6000e+000 116445 -1.6151e+002 -3.2984e+002  2.4608e+000 421 116367,116419,116393
 4.7000e+000 68477 -2.1387e+002 -3.1510e+002  1.9305e+000 68018 68327,68379,68353
 4.7000e+000 68454 -2.2707e+002 -4.1666e+002  3.1152e+001 68018 68301,68379,68327
 4.7000e+000 68431 -1.0356e+002 -4.6386e+002  7.8394e+001 68018 68301,68405,68379
 4.7000e+000 68578 -1.4546e+002 -2.9912e+002  1.2906e+000 67820 68500,68552,68526
 4.7000e+000 68728 -1.5657e+002 -2.7872e+002 -3.7693e+000 67508 68601,68653,68627
 4.7000e+000 68705 -2.3947e+002 -2.1766e+002 -4.0216e+001 67508 68601,68679,68653
 4.7000e+000 68927 -4.6577e+001 -2.6431e+002 -5.5014e+000 67310 68777,68829,68803
 4.7000e+000 68904 -6.9999e+001 -3.0630e+002  5.4970e+000 67310 68751,68829,68777
 4.7000e+000 68881 -5.6282e+001 -3.1068e+002  1.6641e+001 67310 68751,68855,68829
 4.7000e+000 69386 -1.2464e+002 -3.2669e+002 -1.5864e+001 67020 69216,69268,69242
 4.7000e+000 69363 -1.1377e+002 -2.5367e+002 -3.1906e+001 67020 69138,69268,69216
 4.7000e+000 69340 -8.4206e+001 -2.2847e+002 -1.8495e+001 67020 69112,69268,69138
 4.7000e+000 69317 -1.5193e+002 -2.7356e+002  2.0030e+001 67020 69138,69190,69164
 4.7000e+000 69294 -1.5813e+002 -2.5022e+002 -1.3918e+001 67020 69138,69216,69190
 4.7000e+000 69536 -2.4084e+002 -5.8965e+002 -4.7560e+001 66708 69435,69487,69461
 4.7000e+000 69513 -1.7657e+002 -6.6431e+002 -7.1199e+000 66708 69409,69487,69435
 4.7000e+000 69735 -1.5137e+002 -3.0598e+002  6.9555e+000 66346 69585,69637,69611
 4.7000e+000 69712 -1.2591e+002 -2.9082e+002 -1.4183e+000 66346 69559,69637,69585
 4.7000e+000 69689 -1.1476e+002 -2.8963e+002 -2.8868e+001 66346 69559,69663,69637
 4.7000e+000 69985 -2.1536e+002 -3.6603e+002  5.1194e+000 66148 69786,69890,69864
 4.7000e+000 69962 -2.2260e+002 -3.7036e+002  7.3485e+000 66148 69760,69890,69786
 4.7000e+000 69939 -1.5813e+002 -3.4271e+002 -4.9614e+001 66148 69786,69864,69838
 4.7000e+000 69916 -1.8338e+002 -3.6576e+002 -2.0191e+001 66148 69786,69838,69812
 4.7000e+000 70137 -1.0510e+002 -4.0301e+002 -2.3457e+001 65950 70036,70088,70062
 4.7000e+000 70114 -8.9724e+001 -4.4764e+002  2.1083e+001 65950 70010,70088,70036
 4.7000e+000 70470 -8.0230e+001 -3.0002e+002  2.3961e+001 65546 70245,70323,70271
 4.7000e+000 70447 -5.8320e+001 -2.6761e+002  1.0832e+001 65546 70245,70375,70323
 4.7000e+000 70424 -7.3636e+001 -3.3651e+002  1.1896e+001 65546 70323,70375,70349
 4.7000e+000 70401 -6.2625e+001 -2.7652e+002  1.0955e+001 65546 70271,70323,70297
 4.7000e+000 70620 -1.3675e+002 -3.5166e+002  1.1532e+001 65348 70493,70545,70519
 4.7000e+000 70597 -9.6114e+001 -3.6615e+002  1.5336e+001 65348 70493,70571,70545
 4.7000e+000 70721 -1.8333e+002 -3.7222e+002  2.6739e+001 65150 70643,70695,70669
 4.7000e+000 71020 -1.2935e+002 -2.9104e+002  4.7912e+000 64952 71043,70850,70824
 4.7000e+000 70997 -1.1262e+002 -2.5071e+002  3.8873e+000 64952 71043,70824,70772
 4.7000e+000 70974 -1.2214e+002 -3.3635e+002  5.5958e+000 64952 71115,70746,70876
 4.7000e+000 70951 -9.6926e+001 -3.3597e+002 -2.1863e+000 64952 70746,70902,70876
 4.7000e+000 70928 -1.1474e+002 -2.1264e+002 -1.9873e+001 64952 70772,70824,70798
 4.7000e+000 71069 -1.0422e+002 -2.7806e+002  1.1114e+001 64952 70876,70850,71043
 4.7000e+000 71092 -1.2038e+002 -3.1653e+002  6.4623e+000 64952 71115,70876,71043
 4.7000e+000 71141 -1.3831e+002 -3.1351e+002 -1.2053e+001 64952 70772,70746,71115
 4.7000e+000 71164 -1.2930e+002 -2.8372e+002 -1.1764e+001 64952 70772,71115,71043
 4.7000e+000 71365 -3.7182e+000 -3.6503e+002 -4.8453e+000 64662 71215,71293,71267
 4.7000e+000 71342  5.3829e+001 -3.4348e+002 -5.9250e+001 64662 71189,71293,71215
 4.7000e+000 71319  2.8188e+001 -3.0191e+002  6.0642e+000 64662 71215,71267,71241
 4.7000e+000 71615 -8.5552e+001 -3.1179e+002 -4.5438e+000 64350 71710,71638,71468
 4.7000e+000 71592 -1.0443e+002 -3.0679e+002 -1.0694e+001 64350 71638,71416,71390
 4.7000e+000 71569 -9.1685e+001 -2.9060e+002  1.3141e+001 64350 71710,71468,71442
 4.7000e+000 71546  5.4497e+001 -2.9847e+002 -5.0852e+001 64350 71390,71520,71494
 4.7000e+000 71664 -8.0474e+001 -3.1087e+002 -4.1392e-001 64350 71494,71468,71638
 4.7000e+000 71687 -8.0810e+001 -3.1766e+002  8.1133e-002 64350 71494,71638,71390
 4.7000e+000 71736 -7.7410e+001 -2.6913e+002  1.5754e+000 64350 71416,71638,71710
 4.7000e+000 71759 -7.5782e+001 -2.4779e+002  2.4322e+001 64350 71416,71710,71442
 4.7000e+000 72318 -9.1445e+001 -4.9563e+002 -1.9179e+001 63837 71972,72024,71998
 4.7000e+000 72295 -1.3854e+002 -3.1910e+002 -6.6671e-001 63837 72341,71972,71946
 4.7000e+000 72272 -1.2497e+002 -2.5658e+002  1.1778e+001 63837 72413,72341,71946
 4.7000e+000 72249 -1.1523e+002 -2.3315e+002  3.9509e+000 63837 72413,71946,72128
 4.7000e+000 72226 -1.7648e+002 -2.8080e+002  2.8623e+000 63837 72024,72076,72050
 4.7000e+000 72203 -1.5093e+002 -2.5719e+002 -8.8528e+000 63837 72024,72102,72076
 4.7000e+000 72180 -7.7535e+001 -2.2027e+002  1.8942e+001 63837 71946,72154,72128
 4.7000e+000 72367 -1.6416e+002 -3.4137e+002 -5.9800e+001 63837 72024,71972,72341
 4.7000e+000 72390 -1.2830e+002 -2.7897e+002 -2.3076e+001 63837 72024,72341,72102
 4.7000e+000 72439 -9.8121e+001 -2.9482e+002  4.7631e+000 63837 72102,72341,72413
 4.7000e+000 72462 -8.9970e+001 -2.7134e+002 -4.5655e-001 63837 72102,72413,72128
 4.7000e+000 72791 -1.5434e+002 -2.9886e+002 -3.0173e+001 63383 72592,72696,72670
 4.7000e+000 72768 -1.5708e+002 -2.7796e+002 -5.3393e+001 63383 72566,72696,72592
 4.7000e+000 72745 -1.5242e+002 -2.6029e+002  8.2246e-001 63383 72592,72670,72618
 4.7000e+000 72722 -1.4650e+002 -2.4393e+002 -2.9526e-001 63383 72618,72670,72644
 4.7000e+000 73297 -1.8255e+002 -2.6224e+002 -1.4931e+000 63185 73000,73156,73130
 4.7000e+000 73274 -1.8296e+002 -2.7193e+002  3.3249e+001 63185 72974,73156,73000
 4.7000e+000 73251 -1.3738e+002 -3.0250e+002 -4.9097e+000 63185 73000,73052,73026
 4.7000e+000 73228 -1.5146e+002 -2.7079e+002 -1.3273e+001 63185 73000,73130,73052
 4.7000e+000 73205 -1.5015e+002 -3.0400e+002 -4.5322e+001 63185 73052,73130,73104
 4.7000e+000 73182 -1.4141e+002 -3.3591e+002 -4.8106e+001 63185 73052,73104,73078
 4.7000e+000 73545 -6.1660e+001 -2.8409e+002  2.4392e+000 62781 73568,73398,73372
 4.7000e+000 73522 -4.4297e+001 -2.5877e+002  1.0765e+001 62781 73568,73372,73346
 4.7000e+000 73499 -8.2312e+001 -2.7046e+002 -7.9158e+000 62781 73640,73320,73424
 4.7000e+000 73476 -8.8556e+001 -1.7166e+002 -3.0348e+001 62781 73320,73450,73424
 4.7000e+000 73594 -5.0066e+001 -2.6171e+002 -4.2370e+000 62781 73424,73398,73568
 4.7000e+000 73617 -6.5121e+001 -2.6314e+002 -7.5149e+000 62781 73640,73424,73568
 4.7000e+000 73666 -7.9612e+001 -2.6660e+002  6.7514e+000 62781 73346,73320,73640
 4.7000e+000 73689 -7.0593e+001 -2.6298e+002  7.2185e+000 62781 73346,73640,73568
 4.7000e+000 74035 -1.0992e+002 -3.0387e+002 -4.9657e+000 62363 74058,73868,73842
 4.7000e+000 74012 -1.0178e+002 -2.7930e+002 -2.3534e+001 62363 74130,74058,73842
 4.7000e+000 73989 -9.2863e+001 -2.7651e+002 -2.4645e+001 62363 74130,73842,73816
 4.7000e+000 73966 -1.4951e+002 -3.1617e+002  3.8497e+000 62363 74202,73764,73894
 4.7000e+000 73943 -1.9351e+002 -2.8848e+002  4.4776e+000 62363 73712,73894,73764
 4.7000e+000 73920 -2.0856e+002 -3.0413e+002 -3.4216e+000 62363 73712,73764,73738
 4.7000e+000 74084 -1.0981e+002 -2.9938e+002 -4.5792e+000 62363 73894,73868,74058
 4.7000e+000 74107 -1.3701e+002 -3.0239e+002  1.3758e+001 62363 74202,73894,74058
 4.7000e+000 74156 -1.1223e+002 -2.8338e+002  7.7877e+000 62363 73790,74058,74130
 4.7000e+000 74179 -6.9839e+001 -2.6665e+002  9.7322e+000 62363 73790,74130,73816
 4.7000e+000 74228 -1.6350e+002 -3.2228e+002 -1.6465e+001 62363 73790,73764,74202
 4.7000e+000 74251 -1.5412e+002 -3.0753e+002 -6.6602e+000 62363 73790,74202,74058
 4.7000e+000 74403 -1.2542e+001 -3.2695e+002  2.1780e+001 62115 74426,74302,74276
 4.7000e+000 74380  4.8155e+001 -3.1244e+002  4.6670e+001 62115 74426,74276,74354
 4.7000e+000 74452 -6.9840e+001 -2.9500e+002  2.1216e+001 62115 74328,74302,74426
 4.7000e+000 74475 -1.3051e+001 -2.8237e+002  4.7711e+001 62115 74328,74426,74354
 4.7000e+000 74578  5.2999e+001 -1.8033e+002  2.1692e+000 61825 74500,74552,74526
 4.7000e+000 74982 -1.6019e+002 -2.7839e+002  1.8572e+000 61513 75005,74734,74708
 4.7000e+000 74959 -1.5564e+002 -2.6783e+002 -1.6852e+000 61513 75005,74708,74864
 4.7000e+000 74936 -1.9826e+002 -2.8555e+002  1.9213e+001 61513 75077,74812,74734
 4.7000e+000 74913 -1.7590e+002 -2.8644e+002 -2.4543e+001 61513 74734,74786,74760
 4.7000e+000 74890 -1.7279e+002 -2.5579e+002 -1.6399e+000 61513 74734,74812,74786
 4.7000e+000 75031 -1.5035e+002 -2.8532e+002  3.3835e+000 61513 75077,74734,75005
 4.7000e+000 75054 -1.2049e+002 -2.7706e+002  4.0289e+001 61513 74838,75005,74864
 4.7000e+000 75103 -2.2525e+002 -2.9830e+002  6.2235e+001 61513 74838,74812,75077
 4.7000e+000 75126 -1.9384e+002 -3.0984e+002  4.6544e+001 61513 74838,75077,75005
 4.7000e+000 75553 -7.9414e+001 -2.5685e+002 -9.3973e+000 61060 75576,75360,75308
 4.7000e+000 75530 -8.1917e+001 -2.7258e+002 -1.0723e+001 61060 75576,75308,75230
 4.7000e+000 75507 -7.2145e+001 -2.4647e+002 -2.1780e-001 61060 75308,75360,75334
 4.7000e+000 75484 -1.0778e+002 -3.1720e+002  1.8044e+001 61060 75230,75308,75256
 4.7000e+000 75461 -7.7391e+001 -2.9461e+002  7.8947e+000 61060 75256,75308,75282
 4.7000e+000 75438 -9.1312e+001 -2.5212e+002  3.1455e+001 61060 75360,75412,75386
 4.7000e+000 75602 -6.2043e+001 -2.7077e+002  1.0217e+000 61060 75412,75360,75576
 4.7000e+000 75625 -7.4247e+001 -3.0070e+002 -4.1714e+000 61060 75412,75576,75230
 4.7000e+000 76052 -1.1818e+002 -2.6445e+002  4.0463e+000 60442 75755,75859,75833
 4.7000e+000 76029 -1.3830e+002 -2.5139e+002 -1.8318e+001 60442 75729,75859,75755
 4.7000e+000 76006 -1.2322e+002 -2.4603e+002  1.6215e+001 60442 75755,75833,75807
 4.7000e+000 75983 -1.1885e+002 -2.9160e+002  8.5410e+000 60442 75755,75807,75781
 4.7000e+000 75960  4.9305e-001 -4.6386e+002  1.7313e+001 60442 75729,75911,75859
 4.7000e+000 75937 -2.3742e+002 -1.1495e+003  7.4964e+001 60442 75859,75911,75885
 4.7000e+000 76430 -1.2347e+002 -3.1753e+002 -1.3356e+001 59788 76453,76286,76234
 4.7000e+000 76407 -1.3362e+002 -3.6283e+002  5.0674e+000 59788 76453,76234,76182
 4.7000e+000 76384 -1.3749e+002 -2.4310e+002  3.9483e+001 59788 76525,76156,76312
 4.7000e+000 76361 -7.8623e+001 -4.1440e+002 -4.7101e+000 59788 76182,76234,76208
 4.7000e+000 76338 -9.8250e+001 -3.0514e+002 -8.5948e+000 59788 76234,76286,76260
 4.7000e+000 76479 -1.4938e+002 -3.4300e+002  1.1203e+000 59788 76312,76286,76453
 4.7000e+000 76502 -1.2559e+002 -3.2497e+002  1.6135e+001 59788 76525,76312,76453
 4.7000e+000 76551 -1.6943e+002 -3.4598e+002  4.2022e+001 59788 76182,76156,76525
 4.7000e+000 76574 -1.5020e+002 -3.7131e+002  2.5272e+001 59788 76182,76525,76453
 4.7000e+000 77031 -8.9456e+001 -1.9452e+002 -2.9185e+001 59448 76835,76887,76861
 4.7000e+000 77008 -3.9893e+001 -1.6193e+002  7.1208e+000 59448 76835,76913,76887
 4.7000e+000 76985 -5.1700e+001 -1.3687e+002  2.6040e+001 59448 76809,76913,76835
 4.7000e+000 76962 -9.6766e+001 -1.8021e+002 -3.1082e-001 59448 76757,76913,76809
 4.7000e+000 76939 -8.0030e+001 -1.5939e+002 -7.5479e+000 59448 76757,76809,76783
 4.7000e+000 77537 -1.2923e+002 -2.7697e+002  1.3252e+001 58994 77560,77344,77292
 4.7000e+000 77514 -1.8184e+002 -2.7526e+002  3.0741e+000 58994 77560,77292,77240
 4.7000e+000 77491 -1.0453e+002 -2.5856e+002 -6.5426e+000 58994 77632,77214,77370
 4.7000e+000 77468 -2.1411e+002 -3.1729e+002  5.4838e+001 58994 77292,77344,77318
 4.7000e+000 77445 -1.0686e+002 -3.3407e+002  1.2429e+001 58994 77214,77396,77370
 4.7000e+000 77422 -1.8488e+002 -2.9069e+002 -6.7376e+000 58994 77240,77292,77266
 4.7000e+000 77586 -1.3400e+002 -2.8226e+002  1.5284e+001 58994 77370,77344,77560
 4.7000e+000 77609 -1.3379e+002 -2.7631e+002  1.8003e+001 58994 77632,77370,77560
 4.7000e+000 77658 -8.8956e+001 -2.4032e+002 -3.3507e+001 58994 77240,77214,77632
 4.7000e+000 77681 -1.1060e+002 -2.3785e+002 -1.1372e+001 58994 77240,77632,77560
 4.7000e+000 78138 -1.0828e+002 -1.9454e+002  2.7604e+001 58440 77864,77994,77890
 4.7000e+000 78115 -7.1779e+001 -1.2041e+002 -1.4455e+001 58440 77864,78020,77994
 4.7000e+000 78092 -1.2301e+002 -2.2833e+002 -1.9969e+001 58440 77942,77994,77968
 4.7000e+000 78069 -9.8249e+001 -2.1741e+002  4.4085e+000 58440 77890,77994,77942
 4.7000e+000 78046 -8.7809e+001 -2.1809e+002 -3.0859e+000 58440 77890,77942,77916
 4.7000e+000 78467 -2.0430e+001 -2.5411e+002  8.4321e+000 57928 78562,78490,78346
 4.7000e+000 78444 -9.6286e+001 -2.5691e+002 -5.0033e+000 57928 78490,78294,78268
 4.7000e+000 78421 -4.7433e+000 -2.6664e+002  2.1299e+001 57928 78562,78346,78320
 4.7000e+000 78398 -3.7899e+001 -2.4839e+002  2.9417e+000 57928 78242,78372,78268
 4.7000e+000 78516 -8.4437e+001 -3.1601e+002 -1.7655e+001 57928 78372,78346,78490
 4.7000e+000 78539 -6.7619e+001 -2.4452e+002 -3.0493e+000 57928 78372,78490,78268
 4.7000e+000 78588 -9.6093e+001 -2.5220e+002  6.9980e-001 57928 78294,78490,78562
 4.7000e+000 78611 -4.7865e+001 -2.2739e+002  2.6263e+001 57928 78294,78562,78320
 4.7000e+000 79068 -1.8713e+002 -3.9574e+002 -9.8463e+001 57467 78794,78924,78820
 4.7000e+000 79045 -1.4778e+002 -3.7753e+002 -9.2656e+001 57467 78794,78950,78924
 4.7000e+000 79022 -7.9860e+001 -3.5360e+002  3.3815e+001 57467 78820,78898,78872
 4.7000e+000 78999 -1.3813e+002 -4.8625e+002 -5.2326e+001 57467 78820,78924,78898
 4.7000e+000 78976 -5.7185e+001 -3.5705e+002  5.1758e+001 57467 78820,78872,78846
 4.7000e+000 79446 -1.5654e+002 -2.9777e+002 -9.8361e-001 57120 79172,79302,79250
 4.7000e+000 79423 -1.4032e+002 -2.9046e+002 -1.0034e+001 57120 79172,79328,79302
 4.7000e+000 79400 -1.4190e+002 -2.6073e+002 -1.1123e+001 57120 79172,79250,79198
 4.7000e+000 79377 -1.0687e+002 -3.7405e+002  1.4191e+001 57120 79250,79302,79276
 4.7000e+000 79354 -1.7239e+002 -2.8305e+002 -2.2096e+001 57120 79198,79250,79224
 4.7000e+000 79952 -2.0957e+002 -3.3154e+002  1.3725e+000 56773 79629,79785,79655
 4.7000e+000 79929 -6.1704e+001 -2.8618e+002  1.4728e+001 56773 79629,79811,79785
 4.7000e+000 79906 -1.6333e+002 -3.5881e+002  2.4419e+001 56773 79655,79733,79681
 4.7000e+000 79883 -1.6057e+002 -3.1831e+002  6.4281e+000 56773 79655,79785,79733
 4.7000e+000 79860 -1.5042e+002 -4.1536e+002 -4.9423e+001 56773 79733,79785,79759
 4.7000e+000 79837 -8.5632e+001 -3.2316e+002  6.2420e+001 56773 79681,79733,79707
 4.7000e+000 80281 -7.4180e+001 -2.4565e+002 -1.9899e+001 56319 80108,80160,80134
 4.7000e+000 80258 -7.9989e+001 -2.6766e+002 -2.4552e+001 56319 80056,80160,80108
 4.7000e+000 80235 -3.4119e+001 -2.3708e+002  1.4884e+001 56319 80056,80186,80160
 4.7000e+000 80212 -1.0711e+002 -3.4014e+002 -1.6564e+001 56319 80056,80108,80082
 4.7000e+000 80738 -4.3307e+001 -2.9640e+002  1.5903e+001 55957 80516,80620,80594
 4.7000e+000 80715 -1.0521e+002 -2.6888e+002  1.2866e+001 55957 80464,80620,80516
 4.7000e+000 80692 -9.0505e+001 -3.2247e+002  1.6535e+001 55957 80761,80568,80542
 4.7000e+000 80669 -7.4035e+001 -3.1781e+002  1.9471e+001 55957 80761,80542,80516
 4.7000e+000 80646 -1.0547e+002 -2.6885e+002  3.3421e+001 55957 80464,80516,80490
 4.7000e+000 80787 -1.0635e+002 -3.2060e+002  1.1899e+001 55957 80594,80568,80761
 4.7000e+000 80810 -9.0909e+001 -3.1642e+002  1.5046e+001 55957 80594,80761,80516
 4.7000e+000 81210 -8.9888e+001 -3.0347e+002 -3.5130e+001 55317 80936,80988,80962
 4.7000e+000 81187 -7.4266e+001 -3.3274e+002 -1.4897e+000 55317 80936,81066,80988
 4.7000e+000 81164 -5.0816e+001 -3.5613e+002  4.8175e+000 55317 80936,81092,81066
 4.7000e+000 81141 -1.0509e+002 -3.5456e+002 -3.2605e+001 55317 80988,81066,81014
 4.7000e+000 81118 -1.4566e+001 -2.0061e+002  2.0607e+001 55317 81014,81066,81040
 4.7000e+000 81539 -1.3535e+002 -3.0550e+002  7.9061e+000 54913 81340,81418,81392
 4.7000e+000 81516 -5.4982e+001 -2.4652e+002 -1.8806e+001 54913 81340,81444,81418
 4.7000e+000 81493 -8.2613e+001 -2.6400e+002 -3.7210e+001 54913 81314,81444,81340
 4.7000e+000 81470 -1.5417e+002 -3.2185e+002  4.9992e-001 54913 81340,81392,81366
 4.7000e+000 81787 -7.8152e+001 -3.2095e+002 -3.1009e+000 54601 81588,81692,81640
 4.7000e+000 81764 -1.1295e+002 -3.2443e+002 -1.0561e+001 54601 81562,81692,81588
 4.7000e+000 81741 -6.2495e+001 -3.2621e+002  4.1507e+001 54601 81588,81640,81614
 4.7000e+000 81718 -8.0261e+001 -3.7992e+002 -3.3624e+001 54601 81640,81692,81666
 4.7000e+000 82344 -1.2165e+002 -3.2777e+002 -1.5995e+001 54090 81998,82102,82076
 4.7000e+000 82321 -1.6348e+002 -3.4601e+002 -1.0041e+001 54090 81998,82154,82102
 4.7000e+000 82298 -1.4805e+002 -3.3684e+002 -5.5766e+000 54090 81972,82154,81998
 4.7000e+000 82275 -1.6907e+002 -3.0697e+002 -1.8486e+001 54090 81998,82076,82024
 4.7000e+000 82252 -1.7940e+002 -3.5838e+002  1.6795e+001 54090 81972,82180,82154
 4.7000e+000 82229 -2.2748e+002 -4.2247e+002  2.4309e+001 54090 82102,82154,82128
 4.7000e+000 82206 -3.2794e+001 -2.3287e+002 -4.8391e+001 54090 82024,82076,82050
 4.7000e+000 82722 -2.0757e+002 -3.7204e+002 -1.3234e+001 53579 82500,82578,82552
 4.7000e+000 82699 -1.5401e+002 -3.3800e+002  8.3849e+000 53579 82448,82578,82500
 4.7000e+000 82676 -1.6793e+002 -3.8184e+002  9.8200e+000 53579 82448,82500,82474
 4.7000e+000 82653 -2.0222e+002 -3.6283e+002  2.6182e+001 53579 82448,82604,82578
 4.7000e+000 82630 -1.0905e+002 -3.4456e+002 -1.4057e+001 53579 82500,82552,82526
 4.7000e+000 83356 -1.0136e+002 -2.6741e+002 -2.7712e+001 53189 83379,83088,83036
 4.7000e+000 83333 -9.7840e+001 -3.0150e+002 -2.5049e+001 53189 83379,83036,82984
 4.7000e+000 83310 -5.0102e+001 -2.8468e+002  4.0177e+001 53189 82984,83192,83166
 4.7000e+000 83287  2.3298e+000 -2.2161e+002 -1.9365e+001 53189 83036,83088,83062
 4.7000e+000 83264 -7.8753e+001 -3.3650e+002 -4.6028e+001 53189 82984,83036,83010
 4.7000e+000 83241 -7.0872e+001 -3.3590e+002  6.1306e+000 53189 83114,83166,83140
 4.7000e+000 83218 -1.3717e+002 -3.5010e+002  2.1185e+000 53189 83088,83166,83114
 4.7000e+000 83405 -1.0175e+002 -2.9048e+002 -1.3568e+001 53189 83166,83088,83379
 4.7000e+000 83428 -9.3155e+001 -3.2063e+002 -1.3064e+001 53189 83166,83379,82984
 4.7000e+000 83725 -1.3240e+002 -3.7685e+002 -3.3473e+001 52585 83748,83529,83503
 4.7000e+000 83702 -9.9453e+001 -3.6598e+002 -2.1991e+001 52585 83820,83748,83503
 4.7000e+000 83679 -6.7299e+001 -3.5712e+002 -1.8100e+001 52585 83820,83503,83477
 4.7000e+000 83656 -4.6732e+001 -3.2699e+002  4.3451e+001 52585 83477,83607,83581
 4.7000e+000 83633  2.7568e+001 -2.9524e+002  4.5966e+001 52585 83451,83607,83477
 4.7000e+000 83774 -1.1571e+002 -3.3536e+002 -2.9680e+001 52585 83555,83529,83748
 4.7000e+000 83797 -1.5239e+002 -3.6126e+002 -1.8382e+001 52585 83555,83748,83581
 4.7000e+000 83846 -1.2994e+002 -3.4593e+002 -5.4148e+000 52585 83581,83748,83820
 4.7000e+000 83869 -1.0686e+002 -3.4285e+002 -5.0195e+000 52585 83581,83820,83477
 4.7000e+000 84200 -9.7851e+001 -3.4051e+002 -1.2570e+001 52024 84001,84105,84079
 4.7000e+000 84177 -5.2045e+001 -3.3234e+002 -2.4404e+001 52024 83975,84105,84001
 4.7000e+000 84154 -8.6223e+001 -3.4243e+002 -9.3605e+000 52024 84001,84079,84053
 4.7000e+000 84131 -4.4074e+001 -2.3189e+002  4.1468e+001 52024 84001,84053,84027
 4.7000e+000 84399 -8.2698e+001 -3.3936e+002 -1.7983e+000 51470 84422,84275,84249
 4.7000e+000 84376 -7.6446e+001 -3.2712e+002  1.5625e+000 51470 84422,84249,84223
 4.7000e+000 84353 -9.4546e+001 -3.5966e+002 -4.9865e+001 51470 84275,84327,84301
 4.7000e+000 84448 -8.9230e+001 -3.2770e+002 -2.3573e+000 51470 84327,84275,84422
 4.7000e+000 84471 -8.4633e+001 -3.1784e+002  7.2842e-001 51470 84327,84422,84223
 4.7000e+000 84753 -1.0005e+002 -2.8394e+002 -1.0038e+000 51073 84603,84655,84629
 4.7000e+000 84730 -2.0302e+002 -3.3164e+002 -1.4382e+001 51073 84776,84655,84603
 4.7000e+000 84707 -4.5334e+001 -2.8881e+002 -8.0051e+001 51073 84577,84681,84655
 4.7000e+000 84802 -1.2882e+002 -2.8959e+002 -3.8144e+001 51073 84577,84655,84776
 4.7000e+000 85178 -1.8383e+002 -4.0111e+002  3.5609e+001 50519 85201,85008,84982
 4.7000e+000 85155 -1.7413e+002 -3.7259e+002  2.6039e+001 50519 85273,85201,84982
 4.7000e+000 85132 -1.6427e+002 -3.7252e+002  1.9743e+001 50519 85273,84982,84930
 4.7000e+000 85109 -1.5916e+002 -3.6291e+002  1.6876e+001 50519 84930,84982,84956
 4.7000e+000 85086 -1.4987e+002 -3.7359e+002  1.5597e+001 50519 85008,85060,85034
 4.7000e+000 85227 -1.5282e+002 -3.8158e+002  1.5961e+001 50519 85060,85008,85201
 4.7000e+000 85250 -1.7235e+002 -3.8321e+002  1.0702e+001 50519 85060,85201,84904
 4.7000e+000 85299 -1.6382e+002 -3.7730e+002  8.1260e+000 50519 84904,85201,85273
 4.7000e+000 85322 -1.2890e+002 -3.3337e+002 -7.5497e+000 50519 84904,85273,84930
 4.7000e+000 85958 -1.0774e+002 -3.3642e+002 -1.1386e+001 50093 85981,85768,85716
 4.7000e+000 85935 -9.5782e+001 -3.0552e+002 -1.3319e+001 50093 85981,85716,85612
 4.7000e+000 85912 -1.3781e+002 -3.1595e+002  5.4738e+000 50093 85612,85716,85664
 4.7000e+000 85889 -8.0393e+001 -3.3088e+002 -4.0504e+000 50093 85716,85768,85742
 4.7000e+000 85866 -1.1404e+002 -2.4329e+002 -6.8343e+001 50093 85664,85716,85690
 4.7000e+000 85843 -4.1952e+001 -2.3216e+002 -1.2617e+001 50093 85586,85794,85612
 4.7000e+000 85820 -9.4265e+001 -4.2761e+002  3.5439e+001 50093 85612,85664,85638
 4.7000e+000 86007 -1.3078e+002 -3.6188e+002 -5.5310e+001 50093 85794,85768,85981
 4.7000e+000 86030 -9.4063e+001 -2.7300e+002 -4.6271e+001 50093 85794,85981,85612
 4.7000e+000 86131 -1.1149e+002 -3.3354e+002  4.5834e+001 49895 86053,86105,86079
 4.7000e+000 86639 -8.3433e+001 -2.3409e+002 -4.7073e+001 49391 86662,86394,86368
 4.7000e+000 86616 -9.7892e+001 -2.8464e+002 -4.1872e+001 49391 86662,86368,86342
 4.7000e+000 86593 -5.4851e+001 -2.8421e+002 -1.2527e+001 49391 86342,86498,86472
 4.7000e+000 86570 -3.6021e+001 -3.1191e+002 -1.5073e+001 49391 86316,86498,86342
 4.7000e+000 86547 -1.5895e+002 -4.3303e+002 -1.9754e+001 49391 86394,86472,86446
 4.7000e+000 86524 -1.3359e+001 -4.0835e+002  3.1055e+000 49391 86394,86446,86420
 4.7000e+000 86688 -9.4257e+001 -2.8138e+002 -2.5170e+001 49391 86472,86394,86662
 4.7000e+000 86711 -8.4076e+001 -3.0294e+002 -2.4156e+001 49391 86472,86662,86342
 4.7000e+000 87089 -1.1998e+002 -3.3629e+002  8.6842e+000 48987 86815,86919,86867
 4.7000e+000 87066 -1.2081e+002 -3.4625e+002  1.3631e+001 48987 86815,86971,86919
 4.7000e+000 87043 -4.6187e+001 -3.7145e+002 -3.3363e+001 48987 86867,86919,86893
 4.7000e+000 87020 -1.3580e+002 -3.7937e+002  2.8854e+001 48987 86815,86867,86841
 4.7000e+000 86997 -1.3516e+002 -2.9796e+002  4.6991e+001 48987 86919,86971,86945
 4.7000e+000 87467 -2.2617e+002 -3.3584e+002  1.6233e+001 48540 87490,87245,87219
 4.7000e+000 87444 -1.6442e+002 -3.1431e+002  1.3961e+000 48540 87562,87490,87219
 4.7000e+000 87421 -1.2380e+002 -2.9794e+002  1.4026e+001 48540 87562,87219,87349
 4.7000e+000 87398 -1.6997e+002 -2.6332e+002 -1.7634e+001 48540 87245,87297,87271
 4.7000e+000 87375 -1.0374e+002 -3.1199e+002  1.0604e+001 48540 87193,87349,87219
 4.7000e+000 87516 -1.5634e+002 -3.1994e+002  3.5643e+000 48540 87297,87245,87490
 4.7000e+000 87539 -1.5820e+002 -3.2107e+002  5.6462e+000 48540 87297,87490,87323
 4.7000e+000 87588 -1.2524e+002 -2.9575e+002  2.7765e+001 48540 87323,87490,87562
 4.7000e+000 87611 -1.0569e+002 -3.0096e+002  3.6212e+001 48540 87323,87562,87349
 4.7000e+000 87810 -1.5627e+002 -5.5355e+002 -4.0326e+001 48136 87660,87712,87686
 4.7000e+000 87787 -8.8253e+001 -3.2032e+002 -1.7935e+001 48136 87660,87738,87712
 4.7000e+000 87764 -2.0427e+002 -3.3171e+002 -5.3879e+001 48136 87634,87738,87660
 4.7000e+000 88205 -1.4358e+002 -3.5452e+002 -3.0473e+001 47210 88300,88228,87937
 4.7000e+000 88182 -1.2506e+002 -3.4450e+002 -8.9290e+000 47210 88228,87833,88041
 4.7000e+000 88159 -1.4554e+002 -3.7882e+002 -4.8497e+001 47210 88300,87937,87911
 4.7000e+000 88136 -1.4110e+002 -3.4351e+002 -4.2226e+001 47210 87833,87911,87859
 4.7000e+000 88113 -2.3734e+002 -3.1176e+002 -2.3900e+001 47210 87937,87989,87963
 4.7000e+000 88090 -1.1835e+002 -2.8133e+002  5.8461e+001 47210 87989,88041,88015
 4.7000e+000 88067 -1.6324e+002 -3.9944e+002 -5.5138e+001 47210 87859,87911,87885
 4.7000e+000 88254 -1.2773e+002 -2.9443e+002 -3.1055e+001 47210 87989,87937,88228
 4.7000e+000 88277 -1.5034e+002 -3.3864e+002 -1.1736e+001 47210 87989,88228,88041
 4.7000e+000 88326 -1.1890e+002 -3.3104e+002 -1.1554e+001 47210 87833,88228,88300
 4.7000e+000 88349 -1.2484e+002 -3.4735e+002 -3.0833e+001 47210 87833,88300,87911
 4.7000e+000 88780 -2.2136e+002 -3.8942e+002 -7.3782e+001 46642 88803,88509,88483
 4.7000e+000 88757 -1.5844e+002 -3.5050e+002 -4.0247e+001 46642 88803,88483,88639
 4.7000e+000 88734 -1.7677e+002 -2.8848e+002 -4.5958e+001 46642 88875,88561,88509
 4.7000e+000 88711 -1.7968e+002 -2.6728e+002 -8.5583e+000 46642 88509,88561,88535
 4.7000e+000 88688 -1.0115e+002 -3.9354e+002  7.9725e-001 46642 88457,88639,88483
 4.7000e+000 88665 -2.0474e+002 -4.6921e+002 -2.0167e+001 46642 88561,88613,88587
 4.7000e+000 88829 -1.7803e+002 -3.1460e+002 -5.1716e+001 46642 88875,88509,88803
 4.7000e+000 88852 -1.7427e+002 -3.7792e+002 -3.3612e+001 46642 88613,88803,88639
 4.7000e+000 88901 -1.4604e+002 -3.2479e+002 -2.3899e+001 46642 88613,88561,88875
 4.7000e+000 88924 -1.5906e+002 -3.6720e+002 -2.8771e+001 46642 88613,88875,88803
 4.7000e+000 89253 -6.9497e+001 -3.4188e+002  6.2678e+000 46444 89080,89158,89132
 4.7000e+000 89230 -7.9440e+001 -3.6388e+002  2.9932e+000 46444 89028,89158,89080
 4.7000e+000 89207 -3.0270e+001 -3.2277e+002 -1.4605e+001 46444 89028,89080,89054
 4.7000e+000 89184 -3.6815e+001 -3.6902e+002 -2.7449e+001 46444 89080,89132,89106
 4.7000e+000 89631 -9.7954e+001 -2.3617e+002  5.4149e+000 46040 89383,89461,89435
 4.7000e+000 89608 -1.0362e+002 -2.6111e+002 -1.5040e+001 46040 89383,89487,89461
 4.7000e+000 89585 -1.0572e+002 -3.0643e+002 -8.8013e+000 46040 89383,89435,89409
 4.7000e+000 89562 -8.2762e+001 -2.2420e+002 -3.0792e+001 46040 89383,89513,89487
 4.7000e+000 89539 -3.3666e+001 -2.0007e+002 -4.1494e+001 46040 89357,89513,89383
 4.7000e+000 90009 -1.0295e+002 -2.9990e+002 -1.3726e+000 45636 89813,89891,89839
 4.7000e+000 89986 -1.0641e+002 -2.8064e+002  1.6378e+001 45636 89787,89891,89813
 4.7000e+000 89963 -9.1471e+001 -2.8128e+002 -8.0421e+000 45636 89839,89891,89865
 4.7000e+000 89940 -1.2466e+002 -3.1275e+002  8.7372e+000 45636 89735,89891,89787
 4.7000e+000 89917 -9.8121e+001 -3.1538e+002 -1.4425e+001 45636 89735,89787,89761
 4.7000e+000 90208 -6.8057e+001 -2.3193e+002 -4.5064e+001 45175 90231,90058,90032
 4.7000e+000 90185 -4.1856e+001 -2.1226e+002 -6.8440e+001 45175 90231,90032,90136
 4.7000e+000 90162 -8.0892e+001 -1.8900e+002 -3.8455e+000 45175 90058,90110,90084
 4.7000e+000 90257 -9.7796e+001 -2.6082e+002 -1.2059e+001 45175 90110,90058,90231
 4.7000e+000 90280 -4.7497e+001 -2.2639e+002 -3.8107e+001 45175 90110,90231,90136
 4.7000e+000 90528 -7.4718e+001 -2.3718e+002 -3.1259e+001 44513 90695,90551,90407
 4.7000e+000 90505 -7.9854e+001 -2.1440e+002 -1.5173e+001 44513 90551,90355,90329
 4.7000e+000 90482 -9.7459e+001 -2.3318e+002 -2.8315e+001 44513 90623,90303,90433
 4.7000e+000 90459 -5.7845e+001 -2.2086e+002 -2.2573e+001 44513 90695,90407,90381
 4.7000e+000 90577 -1.0923e+002 -2.4827e+002 -5.3934e+001 44513 90433,90407,90551
 4.7000e+000 90600 -9.3616e+001 -2.2755e+002 -2.6556e+001 44513 90623,90433,90551
 4.7000e+000 90649 -9.5020e+001 -2.2611e+002 -2.6157e+001 44513 90329,90303,90623
 4.7000e+000 90672 -9.5924e+001 -2.2543e+002 -2.6025e+001 44513 90329,90623,90551
 4.7000e+000 90721 -9.5590e+001 -2.1554e+002 -3.5392e+001 44513 90355,90551,90695
 4.7000e+000 90744 -9.0808e+001 -2.0773e+002 -3.2093e+001 44513 90355,90695,90381
 4.7000e+000 91077 -1.2227e+000 -2.4445e+002 -1.5897e+001 44059 91100,90930,90904
 4.7000e+000 91054 -9.5322e+001 -2.6362e+002  1.2515e+001 44059 91100,90904,90982
 4.7000e+000 91031 -1.7019e+002 -3.0643e+002 -2.2046e+001 44059 90878,90982,90904
 4.7000e+000 91008 -5.5038e+001 -2.3031e+002  1.3959e+001 44059 90852,90982,90878
 4.7000e+000 91126 -1.4096e+002 -2.8002e+002 -1.9004e+001 44059 91172,91100,90956
 4.7000e+000 91149 -9.0229e+001 -2.5662e+002 -1.1680e+001 44059 90956,91100,90982
 4.7000e+000 91198 -5.3164e+000 -1.4575e+002 -7.3228e+001 44059 90930,91100,91172
 4.7000e+000 91677 -1.2210e+002 -1.9207e+002  1.8767e+001 43549 91455,91533,91481
 4.7000e+000 91654 -4.8297e+001 -1.9395e+002  2.5973e+001 43549 91429,91533,91455
 4.7000e+000 91631 -1.1769e+002 -1.9187e+002  8.9300e+000 43549 91481,91533,91507
 4.7000e+000 91608 -2.4839e+001 -1.8429e+002  1.1529e+001 43549 91429,91559,91533
 4.7000e+000 91585  3.9787e+000 -5.3848e+001 -9.2414e-001 43549 91403,91559,91429
 4.7000e+000 92006 -1.2346e+002 -3.0648e+002  7.8772e-001 43059 91781,91885,91807
 4.7000e+000 91983 -1.2849e+002 -2.8895e+002  4.6782e+001 43059 91781,91911,91885
 4.7000e+000 91960 -1.2296e+002 -3.0647e+002  8.2489e-001 43059 91807,91885,91833
 4.7000e+000 91937 -7.9942e+001 -2.8996e+002 -4.8891e+000 43059 91833,91885,91859
 4.7000e+000 92561 -9.5970e+001 -2.1173e+002 -2.5077e+001 42598 92584,92215,92189
 4.7000e+000 92538 -1.0549e+002 -2.3965e+002 -2.3020e+001 42598 92656,92584,92189
 4.7000e+000 92515 -9.5117e+001 -2.7088e+002 -7.1269e+000 42598 92656,92189,92397
 4.7000e+000 92492 -1.2482e+002 -1.9019e+002 -2.9337e+001 42598 92241,92319,92293
 4.7000e+000 92469 -1.1759e+002 -2.2518e+002  1.1987e+001 42598 92319,92397,92371
 4.7000e+000 92446 -4.6802e+001 -2.6312e+002  1.0817e+002 42598 92319,92371,92345
 4.7000e+000 92423 -1.2053e+002 -1.9457e+002 -4.0238e+001 42598 92241,92293,92267
 4.7000e+000 92610 -1.0357e+002 -2.1358e+002 -2.3336e+001 42598 92241,92215,92584
 4.7000e+000 92633 -9.5343e+001 -1.9516e+002 -2.8892e+001 42598 92241,92584,92319
 4.7000e+000 92682 -9.6729e+001 -1.9798e+002 -1.6931e+001 42598 92319,92584,92656
 4.7000e+000 92705 -7.8792e+001 -2.1927e+002 -5.1996e+000 42598 92319,92656,92397
 4.7000e+000 92953 -1.2644e+002 -3.2915e+002  1.7444e+001 42094 92976,92806,92780
 4.7000e+000 92930 -1.3991e+002 -3.1097e+002  3.6299e-001 42094 92976,92780,92754
 4.7000e+000 92907 -3.1892e+001 -3.1944e+002 -1.7630e+000 42094 93048,92832,92806
 4.7000e+000 92884 -1.7916e+002 -3.1585e+002 -2.0379e+001 42094 92728,92858,92754
 4.7000e+000 93002 -8.2138e+001 -3.0538e+002  8.5000e+000 42094 93048,92806,92976
 4.7000e+000 93025 -1.3057e+002 -3.0572e+002 -4.6864e+000 42094 92858,92976,92754
 4.7000e+000 93074 -1.0190e+002 -3.4527e+002 -3.4731e+000 42094 92858,92832,93048
 4.7000e+000 93097 -1.4308e+002 -3.2576e+002  2.5122e+000 42094 92858,93048,92976
 4.7000e+000 93605 -1.3210e+002 -3.7745e+002 -1.3764e+001 41846 93628,93412,93386
 4.7000e+000 93582 -9.9615e+001 -2.8584e+002 -1.3911e+000 41846 93628,93386,93308
 4.7000e+000 93559 -1.5267e+002 -2.9896e+002 -6.1952e+001 41846 93700,93464,93438
 4.7000e+000 93536 -1.4210e+002 -3.9531e+002  5.6465e+000 41846 93308,93386,93334
 4.7000e+000 93513 -1.8501e+002 -2.8832e+002 -4.4949e+001 41846 93334,93386,93360
 4.7000e+000 93490 -1.4509e+002 -2.6414e+002 -5.8977e+001 41846 93282,93464,93308
 4.7000e+000 93654 -1.1549e+002 -3.0318e+002 -2.7838e+001 41846 93438,93412,93628
 4.7000e+000 93677 -1.5302e+002 -3.0529e+002 -2.8395e+001 41846 93700,93438,93628
 4.7000e+000 93726 -1.3793e+002 -2.5752e+002 -5.6240e+001 41846 93308,93464,93700
 4.7000e+000 93749 -1.3259e+002 -2.5076e+002 -2.3108e+001 41846 93308,93700,93628
 4.7000e+000 94255 -1.0767e+002 -3.1433e+002  1.9910e+001 41385 93958,94114,94088
 4.7000e+000 94232 -9.4748e+001 -3.3775e+002  8.4959e+000 41385 93932,94114,93958
 4.7000e+000 94209 -1.8281e+002 -3.6359e+002  5.8255e+001 41385 93958,94088,94062
 4.7000e+000 94186 -1.9030e+002 -2.6418e+002  4.2905e+001 41385 93958,94062,93984
 4.7000e+000 94163 -1.6493e+002 -2.5817e+002  3.9754e+001 41385 93984,94062,94036
 4.7000e+000 94140 -1.1262e+002 -3.5346e+002  5.8193e+001 41385 93984,94036,94010
 4.7000e+000 94476 -3.5145e+001 -4.2308e+002  2.4764e+001 40881 94326,94378,94352
 4.7000e+000 94453 -7.1144e+001 -3.4849e+002  2.7931e+001 40881 94300,94378,94326
 4.7000e+000 94430 -8.9253e+001 -3.2255e+002  3.3121e+000 40881 94300,94404,94378
 4.7000e+000 94626 -9.1892e+001 -2.4683e+002 -4.0585e+000 40591 94649,94551,94525
 4.7000e+000 94603 -5.2395e+001 -1.5111e+002  2.2894e+000 40591 94781,94577,94551
 4.7000e+000 94675 -3.2624e+001 -1.7706e+002 -3.0695e+001 40591 94781,94551,94649
 4.7000e+000 94807 -1.5209e+000 -1.0236e+002  3.0973e+001 40591 94499,94577,94781
 4.7000e+000 94830  4.3788e+000 -1.5358e+002 -3.8817e+000 40591 94499,94781,94649
 4.7000e+000 95336 -2.1219e+002 -2.8733e+002 -4.4217e+001 40187 95013,95169,95039
 4.7000e+000 95313 -4.8422e+001 -2.6012e+002  6.1760e+000 40187 95013,95195,95169
 4.7000e+000 95290 -3.5249e+001 -2.8318e+002 -3.0252e+001 40187 95039,95143,95065
 4.7000e+000 95267 -1.6082e+002 -3.3255e+002 -4.8640e+001 40187 95039,95169,95143
 4.7000e+000 95244 -7.3807e+001 -2.6050e+002 -2.7243e+001 40187 95091,95143,95117
 4.7000e+000 95221 -2.0876e+001 -1.5960e+002 -8.2524e+000 40187 95065,95143,95091
 4.7000e+000 95665 -8.0541e+001 -2.2065e+002  9.3712e+001 39626 95466,95570,95544
 4.7000e+000 95642 -1.4878e+002 -1.7707e+002  6.1280e+001 39626 95440,95570,95466
 4.7000e+000 95619 -2.2956e+002 -2.9056e+002  6.0609e+001 39626 95466,95544,95492
 4.7000e+000 95596 -4.9345e+001 -2.2558e+002  9.2648e+001 39626 95492,95544,95518
 4.7000e+000 95913 -1.2204e+002 -2.6628e+002 -3.9391e+001 39136 96080,95936,95766
 4.7000e+000 95890 -8.4030e+001 -2.8625e+002 -2.4114e+001 39136 95936,95714,95688
 4.7000e+000 95867 -2.1346e+002 -2.8581e+002  1.1014e+001 39136 96008,95792,95766
 4.7000e+000 95844 -1.0028e+002 -2.5841e+002 -2.9859e+001 39136 96080,95766,95740
 4.7000e+000 95962 -1.6934e+002 -2.9576e+002 -2.5541e+001 39136 96008,95766,95936
 4.7000e+000 95985 -1.0973e+002 -3.4844e+002 -6.2325e+000 39136 95818,95936,95688
 4.7000e+000 96034 -1.0690e+002 -2.3953e+002  1.7269e+001 39136 95818,95792,96008
 4.7000e+000 96057 -9.5263e+001 -2.6244e+002 -1.8625e+001 39136 95818,96008,95936
 4.7000e+000 96106 -1.1131e+002 -2.6345e+002 -1.0274e+001 39136 95714,95936,96080
 4.7000e+000 96129 -7.7329e+001 -2.5406e+002 -2.9002e+000 39136 95714,96080,95740
 4.7000e+000 96350 -8.9219e+001 -2.2510e+002 -1.3120e+001 38824 96200,96278,96252
 4.7000e+000 96327 -7.5339e+001 -2.1847e+002 -1.1128e+001 38824 96174,96278,96200
 4.7000e+000 96304 -1.7159e+001 -1.9711e+002 -3.9313e+001 38824 96200,96252,96226
 4.7000e+000 96830 -1.2973e+002 -2.3620e+002 -1.7540e+001 38320 97069,96536,96484
 4.7000e+000 96807 -1.2757e+002 -2.3930e+002 -1.7369e+001 38320 97069,96484,96853
 4.7000e+000 96784 -1.4406e+002 -2.5732e+002  3.3444e+000 38320 96853,96484,96458
 4.7000e+000 96761 -7.9610e+001 -2.0695e+002 -2.6088e+001 38320 96925,96640,96614
 4.7000e+000 96738 -1.2479e+002 -2.1556e+002 -1.2236e+001 38320 96997,96666,96640
 4.7000e+000 96715 -1.0603e+002 -2.7834e+002 -7.7778e+000 38320 97141,96588,96562
 4.7000e+000 96692 -1.6331e+002 -2.7506e+002 -2.7003e+000 38320 96484,96536,96510
 4.7000e+000 96879 -1.2816e+002 -2.5343e+002 -1.0800e+001 38320 97141,96562,96853
 4.7000e+000 96902 -1.1941e+002 -2.4763e+002 -9.9873e+000 38320 96925,96614,96853
 4.7000e+000 96951 -1.2197e+002 -2.1341e+002 -1.3641e+001 38320 96997,96640,96925
 4.7000e+000 96974 -1.1606e+002 -2.0998e+002 -8.6003e+000 38320 96458,96925,96853
 4.7000e+000 97023 -1.3761e+002 -2.1798e+002 -5.4460e+000 38320 96458,96666,96997
 4.7000e+000 97046 -1.2736e+002 -2.1297e+002 -7.0136e+000 38320 96458,96997,96925
 4.7000e+000 97095 -1.3400e+002 -2.2923e+002 -4.1006e+000 38320 96562,96536,97069
 4.7000e+000 97118 -1.2232e+002 -2.3734e+002 -1.5172e+001 38320 96562,97069,96853
 4.7000e+000 97167 -6.6990e+001 -2.5558e+002 -1.8304e+001 38320 96614,96588,97141
 4.7000e+000 97190 -1.0354e+002 -2.4113e+002 -1.8384e+001 38320 96614,97141,96853
 4.7000e+000 97519 -1.0246e+002 -3.0940e+002  8.2657e+001 37766 97542,97398,97372
 4.7000e+000 97496 -1.2345e+002 -2.4422e+002  5.7171e+001 37766 97542,97372,97346
 4.7000e+000 97473 -1.2292e+002 -2.5371e+002  5.7037e+000 37766 97294,97424,97346
 4.7000e+000 97450 -1.3611e+002 -2.9550e+002 -6.4571e-001 37766 97294,97346,97320
 4.7000e+000 97568 -5.2918e+001 -3.2306e+002  2.9135e+001 37766 97424,97398,97542
 4.7000e+000 97591 -8.6231e+001 -2.4882e+002  7.9086e+000 37766 97424,97542,97346
 4.7000e+000 98048 -1.2854e+002 -1.8801e+002 -5.8296e+001 37262 98071,97878,97852
 4.7000e+000 98025 -1.0989e+002 -2.2307e+002 -2.3799e+001 37262 98071,97852,97800
 4.7000e+000 98002 -1.2242e+002 -2.6912e+002 -2.5594e+001 37262 97800,97852,97826
 4.7000e+000 97979 -1.2608e+002 -2.4031e+002  6.1758e+000 37262 97800,97930,97904
 4.7000e+000 97956 -8.4294e+001 -2.9133e+002  1.8598e+001 37262 97774,97930,97800
 4.7000e+000 98097 -1.7964e+002 -2.1295e+002 -4.1305e+001 37262 97904,97878,98071
 4.7000e+000 98120 -1.3806e+002 -2.5197e+002 -9.9674e+000 37262 97904,98071,97800
 4.7000e+000 98449 -6.8835e+001 -1.8750e+002 -2.2269e+001 36950 98472,98302,98250
 4.7000e+000 98426 -4.1416e+001 -1.7928e+002 -2.7208e+001 36950 98472,98250,98354
 4.7000e+000 98403 -1.0587e+002 -2.0701e+002  2.3778e+001 36950 98250,98302,98276
 4.7000e+000 98380 -2.6581e+001 -1.4247e+002  1.3976e+001 36950 98224,98354,98250
 4.7000e+000 98498 -4.8595e+001 -2.0907e+002 -6.1665e+000 36950 98328,98302,98472
 4.7000e+000 98521 -1.6730e+001 -1.9681e+002 -1.5689e+001 36950 98328,98472,98354
 4.7000e+000 99125 -1.4281e+002 -1.3828e+002  1.5422e+001 36296 98704,98756,98730
 4.7000e+000 99102 -1.3737e+002 -1.5570e+002  1.4216e+001 36296 98704,98938,98756
 4.7000e+000 99079 -1.0072e+002 -1.9350e+002 -4.7004e+000 36296 99148,98938,98912
 4.7000e+000 99056 -1.0689e+002 -1.9893e+002  4.5921e+001 36296 99292,99220,98782
 4.7000e+000 99033 -8.7945e+001 -2.2193e+002  5.0784e+000 36296 99148,98912,98834
 4.7000e+000 99010 -1.0106e+002 -1.6825e+002  5.0620e+001 36296 99292,98782,98756
 4.7000e+000 98987 -8.4179e+001 -3.9200e+002 -7.2300e+001 36296 98834,98912,98886
 4.7000e+000 98964 -1.4276e+002 -5.6840e+002 -9.2261e+001 36296 98834,98886,98860
 4.7000e+000 99174 -1.2374e+002 -2.3812e+002  6.9624e+000 36296 99220,98938,99148
 4.7000e+000 99197 -8.5915e+001 -2.7117e+002  2.9154e+001 36296 98808,99148,98834
 4.7000e+000 99246 -1.0492e+002 -1.9352e+002  1.1043e+002 36296 98808,98782,99220
 4.7000e+000 99269 -4.2647e+001 -1.7207e+002  3.6338e+001 36296 98808,99220,99148
 4.7000e+000 99318 -1.1436e+002 -1.6908e+002  2.5015e+001 36296 98938,99220,99292
 4.7000e+000 99341 -1.1695e+002 -1.7384e+002  2.9702e+001 36296 98938,99292,98756
 4.7000e+000 99719 -1.4763e+002 -3.0634e+002  5.0857e-001 35742 99742,99471,99601
 4.7000e+000 99696 -1.5154e+002 -2.4308e+002  2.8837e+001 35742 99445,99601,99471
 4.7000e+000 99673 -1.4138e+002 -2.9211e+002 -1.2809e+001 35742 99742,99601,99575
 4.7000e+000 99650 -1.2304e+002 -3.5715e+002 -9.9913e+000 35742 99814,99549,99523
 4.7000e+000 99627 -9.9332e+001 -2.7915e+002 -1.8105e+000 35742 99471,99523,99497
 4.7000e+000 99768 -1.1852e+002 -2.9954e+002  6.3227e+000 35742 99523,99471,99742
 4.7000e+000 99791 -1.3891e+002 -3.3087e+002 -8.6979e+000 35742 99814,99523,99742
 4.7000e+000 99840 -1.2029e+002 -3.2462e+002 -2.0026e+001 35742 99575,99549,99814
 4.7000e+000 99863 -1.3057e+002 -2.9050e+002 -1.7898e+001 35742 99575,99814,99742
 4.7000e+000 100111 -1.1120e+002 -2.4776e+002  1.7351e+001 35302 100134,99990,99938
 4.7000e+000 100088 -9.3131e+001 -2.2657e+002  5.7924e+000 35302 100134,99938,99912
 4.7000e+000 100065 -9.3536e+001 -2.2609e+002 -5.7719e+000 35302 100206,99886,100016
 4.7000e+000 100042 -1.4508e+002 -2.2933e+002  1.0708e+001 35302 99938,99990,99964
 4.7000e+000 100160 -8.7631e+001 -2.3882e+002  3.9543e+000 35302 100016,99990,100134
 4.7000e+000 100183 -8.9237e+001 -2.2969e+002 -5.6580e+000 35302 100206,100016,100134
 4.7000e+000 100232 -9.7222e+001 -2.3032e+002 -3.1460e+000 35302 99912,99886,100206
 4.7000e+000 100255 -9.3195e+001 -2.3482e+002 -3.1667e+000 35302 99912,100206,100134
 4.7000e+000 100586 -1.3558e+002 -1.5702e+002  3.8814e+001 35012 100609,100387,100361
 4.7000e+000 100563 -1.6326e+002 -1.1939e+002 -2.9920e+001 35012 100609,100361,100465
 4.7000e+000 100540 -7.7025e+001 -8.6125e+001 -6.7943e+001 35012 100361,100491,100465
 4.7000e+000 100517 -3.1102e+001 -9.9218e+001 -6.4067e+001 35012 100413,100465,100439
 4.7000e+000 100635 -6.5363e+001 -1.2630e+002  1.6446e+001 35012 100413,100387,100609
 4.7000e+000 100658 -9.1045e+001 -7.9212e+001 -5.4104e+001 35012 100413,100609,100465
 4.7000e+000 100987 -1.1350e+002 -2.5340e+002  2.1931e+001 34700 100788,100866,100814
 4.7000e+000 100964 -9.0979e+001 -2.0158e+002  3.7439e+001 34700 101010,100866,100788
 4.7000e+000 100941 -6.4475e+001 -1.5068e+002  4.0318e+001 34700 100762,100892,100866
 4.7000e+000 100918 -1.0559e+002 -2.3226e+002  1.3238e+001 34700 100814,100866,100840
 4.7000e+000 101036 -6.2457e+001 -1.7781e+002  6.0591e+001 34700 100762,100866,101010
 4.7000e+000 101493 -1.5234e+002 -2.8564e+002 -2.5522e+001 34132 101516,101349,101297
 4.7000e+000 101470 -1.8082e+002 -3.4216e+002 -4.0396e+001 34132 101588,101516,101297
 4.7000e+000 101447 -1.8164e+002 -3.6037e+002 -5.9281e+001 34132 101588,101297,101245
 4.7000e+000 101424 -1.1148e+002 -4.1996e+002 -5.5597e+001 34132 101245,101297,101271
 4.7000e+000 101401 -1.7368e+002 -2.8807e+002 -3.2377e+001 34132 101297,101349,101323
 4.7000e+000 101542 -1.5924e+002 -3.2974e+002 -1.9913e+001 34132 101375,101349,101516
 4.7000e+000 101565 -1.4143e+002 -3.2776e+002 -2.0644e+001 34132 101375,101516,101219
 4.7000e+000 101614 -1.4478e+002 -3.4393e+002 -2.1061e+001 34132 101219,101516,101588
 4.7000e+000 101637 -1.6308e+002 -3.6164e+002 -3.9038e+001 34132 101219,101588,101245
 4.7000e+000 101858 -5.4360e+001 -2.3409e+002  2.3850e+001 33720 101708,101786,101760
 4.7000e+000 101835 -3.5160e+001 -2.5609e+002  3.6506e+001 33720 101682,101786,101708
 4.7000e+000 101812 -8.3325e+001 -2.4897e+002  1.6974e+001 33720 101708,101760,101734
 4.7000e+000 102128 -3.4630e+001 -2.9825e+002 -8.0684e+000 33130 101903,102007,101929
 4.7000e+000 102105 -4.2287e+001 -3.4475e+002  1.1135e+001 33130 101903,102033,102007
 4.7000e+000 102082 -1.8809e+001 -3.5667e+002 -6.9878e+001 33130 101929,102007,101955
 4.7000e+000 102059 -5.4029e+001 -2.5267e+002  5.7685e+000 33130 101955,102007,101981
 4.7000e+000 102461 -9.7171e+001 -2.3074e+002 -2.1440e+001 32840 102236,102340,102262
 4.7000e+000 102438 -8.4560e+001 -1.6681e+002  4.4420e+000 32840 102236,102366,102340
 4.7000e+000 102415 -5.9875e+001 -2.2186e+002 -1.7470e+001 32840 102262,102340,102288
 4.7000e+000 102392 -1.1794e+002 -2.3501e+002 -4.8240e+001 32840 102288,102340,102314
 4.7000e+000 102997 -9.8771e+001 -1.6940e+002  4.7461e+001 32493 102749,102879,102853
 4.7000e+000 102974 -8.0454e+001 -1.3375e+002  3.4079e+001 32493 102723,102879,102749
 4.7000e+000 102951 -1.1407e+002 -2.0567e+002  3.2650e+001 32493 102749,102801,102775
 4.7000e+000 102928 -1.2324e+002 -2.0374e+002  3.1019e+001 32493 102749,102853,102801
 4.7000e+000 102905 -1.1630e+002 -1.9316e+002  2.5183e+001 32493 102801,102853,102827
 4.7000e+000 103454 -1.0633e+002 -1.9022e+002 -1.9921e+001 32089 103206,103336,103310
 4.7000e+000 103431 -8.5106e+001 -2.0644e+002 -2.3030e+000 32089 103180,103336,103206
 4.7000e+000 103408 -1.1691e+002 -2.1695e+002 -3.8534e+001 32089 103206,103284,103258
 4.7000e+000 103385 -1.6309e+002 -2.2696e+002 -4.2360e+001 32089 103206,103310,103284
 4.7000e+000 103362 -9.1804e+001 -1.5263e+002 -2.4509e+001 32089 103206,103258,103232
 4.7000e+000 103783 -1.8755e+002 -2.4490e+002 -2.6887e+001 31742 103558,103662,103584
 4.7000e+000 103760 -1.5472e+002 -1.9579e+002 -6.3405e+001 31742 103558,103688,103662
 4.7000e+000 103737 -1.2657e+002 -1.9866e+002 -4.9197e+001 31742 103584,103662,103636
 4.7000e+000 103714 -1.1903e+002 -2.2584e+002 -5.4839e+001 31742 103584,103636,103610
 4.7000e+000 104112 -3.4699e+001 -1.9516e+002  3.0562e+001 31402 103939,103991,103965
 4.7000e+000 104089 -6.0747e+001 -1.6892e+002  1.5017e+001 31402 103913,103991,103939
 4.7000e+000 104066 -8.3664e+001 -1.9263e+002  1.9658e+000 31402 103913,104017,103991
 4.7000e+000 104043 -1.0071e+002 -1.7816e+002 -9.9255e+000 31402 103887,104017,103913
 4.7000e+000 104569 -1.7264e+002 -3.0703e+002  7.5669e+000 30998 104321,104425,104373
 4.7000e+000 104546 -1.9628e+002 -3.1424e+002  4.1438e+000 30998 104321,104451,104425
 4.7000e+000 104523 -1.2873e+002 -2.5576e+002  3.4498e+001 30998 104373,104425,104399
 4.7000e+000 104500 -1.5988e+002 -3.6073e+002 -1.8582e+001 30998 104295,104451,104321
 4.7000e+000 104477 -2.3179e+002 -3.6329e+002  6.5119e+001 30998 104321,104373,104347
 4.7000e+000 104947 -1.5703e+002 -2.6960e+002 -3.0077e+001 30608 104751,104803,104777
 4.7000e+000 104924 -1.0468e+002 -2.7862e+002 -1.0546e+001 30608 104725,104803,104751
 4.7000e+000 104901 -1.6733e+002 -2.7078e+002  1.8661e+001 30608 104699,104803,104725
 4.7000e+000 104878 -1.4442e+002 -2.6083e+002  1.6937e+001 30608 104673,104803,104699
 4.7000e+000 104855 -1.1163e+002 -2.5098e+002 -9.7627e+000 30608 104673,104829,104803
 4.7000e+000 105276 -1.0841e+002 -2.5025e+002  1.3821e+001 30204 105427,105129,105077
 4.7000e+000 105253 -7.6022e+001 -2.6985e+002  5.4762e+001 30204 105427,105077,105051
 4.7000e+000 105230 -9.3560e+001 -2.4120e+002  1.7644e+001 30204 105077,105129,105103
 4.7000e+000 105207 -6.8031e+001 -2.2472e+002  3.5285e+001 30204 105299,105181,105155
 4.7000e+000 105325 -7.2484e+001 -2.2079e+002  1.3299e+001 30204 105129,105181,105299
 4.7000e+000 105453 -1.2878e+002 -2.6387e+002  3.2508e+001 30204 105181,105129,105427
 4.7000e+000 105476 -1.4834e+002 -3.0724e+002  7.8889e+001 30204 105181,105427,105051
 4.7000e+000 105903 -9.1312e+001 -2.1633e+002 -1.6954e+001 29700 105606,105762,105736
 4.7000e+000 105880 -1.1795e+002 -2.2204e+002  5.9292e-001 29700 105580,105762,105606
 4.7000e+000 105857 -1.3914e+002 -2.7274e+002 -1.6339e+001 29700 105606,105710,105632
 4.7000e+000 105834 -1.1604e+002 -2.2881e+002 -7.8190e+000 29700 105606,105736,105710
 4.7000e+000 105811 -1.3164e+002 -2.4881e+002 -1.8520e+001 29700 105632,105710,105684
 4.7000e+000 105788 -1.2439e+002 -2.3146e+002 -1.1256e+001 29700 105632,105684,105658
 4.7000e+000 106102 -3.6357e+001 -2.5761e+002  1.2414e+001 29124 105978,106030,106004
 4.7000e+000 106079 -6.4290e+001 -2.5327e+002  1.3054e+001 29124 105926,106030,105978
 4.7000e+000 106056 -7.0248e+001 -2.8404e+002  3.6902e+001 29124 105926,105978,105952
 4.7000e+000 106301 -7.2238e+001 -2.6476e+002  1.1351e+000 28712 106151,106229,106203
 4.7000e+000 106278 -8.5906e+001 -2.9313e+002 -1.3361e+001 28712 106125,106229,106151
 4.7000e+000 106255 -7.5362e+001 -2.7873e+002  1.4770e+001 28712 106151,106203,106177
 4.7000e+000 106551 -9.4797e+001 -3.3315e+002  1.5437e+001 28258 106352,106404,106378
 4.7000e+000 106528 -1.2976e+002 -3.3616e+002  1.8823e+000 28258 106352,106456,106404
 4.7000e+000 106505 -1.2907e+002 -3.4663e+002 -2.2143e+000 28258 106326,106456,106352
 4.7000e+000 106482 -1.1735e+002 -3.1656e+002 -5.6214e+000 28258 106404,106456,106430
 4.7000e+000 107012 -1.0946e+002 -2.8232e+002  5.6902e+001 27818 107035,106790,106764
 4.7000e+000 106989 -9.4942e+001 -2.6776e+002  2.1281e+001 27818 107035,106764,106868
 4.7000e+000 106966 -6.6589e+001 -3.2065e+002  3.1145e+001 27818 107107,106842,106816
 4.7000e+000 106943 -1.4566e+002 -2.5011e+002  1.2240e+001 27818 106738,106868,106764
 4.7000e+000 106920 -1.3770e+002 -2.2289e+002  2.6610e+001 27818 106738,106894,106868
 4.7000e+000 107061 -4.6456e+001 -2.6925e+002  6.4416e+001 27818 106816,106790,107035
 4.7000e+000 107084 -8.3212e+001 -2.9993e+002  3.2764e+001 27818 107107,106816,107035
 4.7000e+000 107133 -6.3949e+001 -2.9037e+002  1.6414e+001 27818 106868,106842,107107
 4.7000e+000 107156 -7.4506e+001 -2.5926e+002  2.1916e+001 27818 106868,107107,107035
 4.7000e+000 107613 -3.3965e+001 -2.1309e+002  4.6200e+001 27312 107339,107469,107365
 4.7000e+000 107590 -3.8550e+000 -1.9470e+002  3.8429e+001 27312 107339,107495,107469
 4.7000e+000 107567 -3.6219e+001 -2.0714e+002  2.2388e+001 27312 107391,107469,107443
 4.7000e+000 107544 -3.4373e+001 -2.2208e+002  1.9477e+001 27312 107365,107469,107391
 4.7000e+000 107521 -9.8339e+001 -2.2715e+002  9.2101e+000 27312 107391,107443,107417
 4.7000e+000 107991 -1.1235e+002 -3.1718e+002  1.3214e+001 26858 108086,108014,107795
 4.7000e+000 107968 -1.2387e+002 -3.2655e+002 -1.5957e+001 26858 108014,107717,107873
 4.7000e+000 107945 -1.2640e+002 -3.3189e+002  2.2102e+001 26858 108158,108086,107795
 4.7000e+000 107922 -1.0148e+002 -3.3307e+002  2.1445e+001 26858 108158,107795,107769
 4.7000e+000 107899 -9.4779e+001 -3.9761e+002  5.4987e+001 26858 107821,107873,107847
 4.7000e+000 108040 -1.1924e+002 -3.6122e+002  1.8938e+001 26858 107821,107795,108014
 4.7000e+000 108063 -7.4224e+001 -3.3991e+002  1.8389e+000 26858 107821,108014,107873
 4.7000e+000 108112 -1.5039e+002 -3.3284e+002  1.4710e+001 26858 107717,108014,108086
 4.7000e+000 108135 -1.2596e+002 -3.3726e+002  3.3872e+001 26858 107717,108086,107743
 4.7000e+000 108184 -9.7890e+001 -3.2472e+002  3.1181e+001 26858 107743,108086,108158
 4.7000e+000 108207 -8.6232e+001 -3.3541e+002  3.1408e+001 26858 107743,108158,107769
 4.7000e+000 108634 -1.4645e+002 -3.0224e+002  5.4614e+000 26404 108657,108415,108363
 4.7000e+000 108611 -1.6464e+002 -3.2601e+002  3.3894e+001 26404 108657,108363,108337
 4.7000e+000 108588 -1.4346e+002 -3.0934e+002  3.3993e+001 26404 108729,108311,108467
 4.7000e+000 108565 -1.5711e+002 -3.5918e+002  5.2332e+000 26404 108801,108441,108415
 4.7000e+000 108542 -2.1703e+002 -3.4305e+002  4.3007e+001 26404 108311,108493,108467
 4.7000e+000 108519 -1.0220e+002 -3.0441e+002  4.9254e+000 26404 108363,108415,108389
 4.7000e+000 108683 -1.9364e+002 -3.2258e+002  9.9357e+000 26404 108801,108415,108657
 4.7000e+000 108706 -1.8439e+002 -3.2045e+002  2.7062e+001 26404 108729,108467,108657
 4.7000e+000 108755 -1.1711e+002 -3.2617e+002  3.3844e+001 26404 108337,108311,108729
 4.7000e+000 108778 -1.3799e+002 -3.2279e+002  2.6160e+001 26404 108337,108729,108657
 4.7000e+000 108827 -1.9264e+002 -4.3263e+002 -1.6054e+001 26404 108467,108441,108801
 4.7000e+000 108850 -2.1176e+002 -3.6931e+002 -1.1124e+001 26404 108467,108801,108657
 4.7000e+000 109228 -1.4699e+002 -3.1498e+002 -1.4881e+001 26064 109006,109084,109058
 4.7000e+000 109205 -1.3106e+002 -2.9418e+002  5.9864e+000 26064 108980,109084,109006
 4.7000e+000 109182 -1.4256e+002 -2.8173e+002 -9.7876e+000 26064 108980,109110,109084
 4.7000e+000 109159 -1.4110e+002 -3.3115e+002 -2.1800e+000 26064 109006,109058,109032
 4.7000e+000 109136 -4.8544e+001 -2.5167e+002  9.8440e+000 26064 108954,109110,108980
 4.7000e+000 109427 -3.6854e+001 -2.6846e+002 -5.4064e+001 25660 109303,109355,109329
 4.7000e+000 109404 -7.4658e+001 -3.4431e+002 -1.2919e+001 25660 109277,109355,109303
 4.7000e+000 109381 -4.5828e+001 -3.2524e+002 -4.5267e+000 25660 109251,109355,109277
 4.7000e+000 109577 -5.3874e+001 -1.3311e+002  4.5979e+001 25306 109476,109528,109502
 4.7000e+000 109554  1.3417e+001 -1.1640e+002  3.2364e+001 25306 109450,109528,109476
 4.7000e+000 109778 -1.0382e+002 -2.8579e+002  8.4637e+000 24944 109628,109706,109654
 4.7000e+000 109755 -1.1215e+002 -2.7974e+002  1.5339e+000 24944 109602,109706,109628
 4.7000e+000 109732 -9.1478e+001 -2.6837e+002 -2.1818e+000 24944 109654,109706,109680
 4.7000e+000 110126 -9.7742e+001 -3.6638e+002  1.1301e+001 24440 110149,109907,109855
 4.7000e+000 110103 -9.2337e+001 -3.8621e+002  2.2754e+001 24440 110149,109855,109985
 4.7000e+000 110080 -7.8322e+001 -3.1782e+002  7.1009e+000 24440 109855,109907,109881
 4.7000e+000 110057 -8.1389e+001 -3.0126e+002  1.0044e+002 24440 109829,109985,109855
 4.7000e+000 110034 -8.8483e+001 -3.6599e+002  2.0827e+000 24440 109907,109959,109933
 4.7000e+000 110011 -4.4551e+001 -3.0853e+002  8.3231e+000 24440 109803,109985,109829
 4.7000e+000 110175 -9.3732e+001 -3.4965e+002  8.4037e+000 24440 109959,109907,110149
 4.7000e+000 110198 -8.8105e+001 -3.6636e+002  2.1881e+001 24440 109959,110149,109985
 4.7000e+000 110301 -1.1535e+001 -1.9998e+002  2.0077e+000 24028 110223,110275,110249
 4.7000e+000 110573 -4.5297e+001 -2.1732e+002  1.7188e+001 23467 110400,110452,110426
 4.7000e+000 110550 -7.6592e+001 -2.5639e+002  5.6608e-001 23467 110374,110452,110400
 4.7000e+000 110527 -7.9251e+001 -2.5745e+002  4.2203e+000 23467 110348,110452,110374
 4.7000e+000 110504 -5.7707e+001 -2.4770e+002 -1.9011e+000 23467 110348,110478,110452
 4.7000e+000 111004 -1.7193e+002 -3.7373e+002 -3.7806e+001 22963 111027,110733,110707
 4.7000e+000 110981 -1.6846e+002 -3.5453e+002  1.6959e+001 22963 111027,110707,110681
 4.7000e+000 110958 -8.3250e+001 -3.1511e+002 -3.8503e+001 22963 111099,110759,110733
 4.7000e+000 110935 -1.0920e+002 -3.0689e+002 -2.5701e+001 22963 111171,110863,110811
 4.7000e+000 110912 -5.3410e+001 -2.2756e+002 -4.2168e+001 22963 110759,110811,110785
 4.7000e+000 110889 -1.2030e+002 -3.2621e+002 -2.0717e+001 22963 110811,110863,110837
 4.7000e+000 111053 -1.2156e+002 -3.4213e+002 -2.3668e+001 22963 111099,110733,111027
 4.7000e+000 111076 -1.0242e+002 -3.3313e+002 -2.0928e+001 22963 111171,110811,111027
 4.7000e+000 111125 -8.1336e+001 -3.0889e+002 -5.8875e+001 22963 110811,110759,111099
 4.7000e+000 111148 -8.7231e+001 -3.0510e+002 -4.9695e+001 22963 110811,111099,111027
 4.7000e+000 111197 -1.1009e+002 -2.6487e+002 -3.2150e+001 22963 110681,110863,111171
 4.7000e+000 111220 -1.1386e+002 -2.9588e+002 -1.5681e+001 22963 110681,111171,111027
 4.7000e+000 111726 -1.6679e+002 -3.2584e+002  7.8212e+000 22459 111749,111507,111429
 4.7000e+000 111703 -1.5469e+002 -3.2235e+002 -6.7207e+000 22459 111749,111429,111585
 4.7000e+000 111680 -1.3267e+002 -3.6059e+002 -4.3177e+000 22459 111403,111585,111429
 4.7000e+000 111657 -1.5951e+002 -3.5722e+002  1.4908e+001 22459 111507,111559,111533
 4.7000e+000 111634 -2.1785e+002 -3.1172e+002  2.0572e+001 22459 111455,111507,111481
 4.7000e+000 111611 -2.2970e+002 -3.1246e+002  2.8919e+001 22459 111429,111507,111455
 4.7000e+000 111775 -1.6806e+002 -3.4781e+002  1.9557e+001 22459 111559,111507,111749
 4.7000e+000 111798 -1.5483e+002 -3.3269e+002  5.4466e+000 22459 111559,111749,111585
 4.7000e+000 112046 -7.4589e+001 -2.7567e+002 -3.6960e+001 21898 112069,111925,111873
 4.7000e+000 112023 -7.1775e+001 -2.7816e+002 -9.4189e+000 21898 112069,111873,111847
 4.7000e+000 112000 -9.6604e+001 -2.8711e+002 -1.5902e+001 21898 111821,111951,111847
 4.7000e+000 111977 -8.4020e+001 -2.1663e+002 -2.3941e+001 21898 111873,111925,111899
 4.7000e+000 112095 -1.1362e+002 -2.9018e+002 -4.1993e+001 21898 111951,111925,112069
 4.7000e+000 112118 -9.4527e+001 -2.8633e+002 -1.5542e+001 21898 111951,112069,111847
 4.7000e+000 112498 -1.2878e+002 -3.0245e+002 -2.6839e+001 21608 112521,112276,112224
 4.7000e+000 112475 -8.3838e+001 -3.0563e+002 -1.9001e+000 21608 112521,112224,112380
 4.7000e+000 112452 -9.0256e+001 -3.5493e+002  2.0845e+001 21608 112302,112380,112354
 4.7000e+000 112429 -1.5202e+002 -3.4523e+002 -1.6909e+001 21608 112224,112276,112250
 4.7000e+000 112406  5.2395e+001 -3.7325e+002 -1.1471e+001 21608 112302,112354,112328
 4.7000e+000 112547 -9.2280e+001 -2.6472e+002 -5.4929e+000 21608 112302,112276,112521
 4.7000e+000 112570 -6.1424e+001 -2.9583e+002  1.1646e+001 21608 112302,112521,112380
 4.7000e+000 112948 -1.4828e+002 -3.1301e+002 -5.7385e+000 20882 112971,112752,112700
 4.7000e+000 112925 -1.1524e+002 -3.0180e+002 -1.2180e+001 20882 112971,112700,112830
 4.7000e+000 112902 -1.8760e+002 -3.3856e+002  1.9942e+001 20882 112778,112830,112804
 4.7000e+000 112879 -1.0688e+002 -2.4601e+002 -1.6883e+001 20882 112674,112830,112700
 4.7000e+000 112856 -1.8135e+002 -3.2749e+002  5.8814e+000 20882 112700,112752,112726
 4.7000e+000 112997 -1.4916e+002 -3.1263e+002  1.2581e+001 20882 112778,112752,112971
 4.7000e+000 113020 -1.3030e+002 -3.0716e+002  5.3917e+000 20882 112778,112971,112830
 4.7000e+000 113526 -1.0756e+002 -3.1329e+002  2.4345e+000 20428 113255,113385,113333
 4.7000e+000 113503 -1.1675e+002 -3.4184e+002  2.4916e+000 20428 113229,113385,113255
 4.7000e+000 113480 -1.5280e+001 -3.0695e+002  3.4886e+000 20428 113255,113333,113281
 4.7000e+000 113457 -9.9617e+001 -3.3402e+002  5.5705e+000 20428 113203,113385,113229
 4.7000e+000 113434 -5.5866e+001 -3.2050e+002 -9.7204e+000 20428 113281,113333,113307
 4.7000e+000 113411 -1.3224e+002 -3.0860e+002  8.5156e+000 20428 113333,113385,113359
 4.7000e+000 113774 -1.7828e+001 -3.0100e+002  1.2010e+001 19917 113797,113601,113549
 4.7000e+000 113751 -4.9852e+001 -3.0720e+002  1.5997e+001 19917 113869,113797,113549
 4.7000e+000 113728 -4.7562e+001 -3.1101e+002  3.0688e+001 19917 113869,113549,113679
 4.7000e+000 113705 -2.7060e+001 -2.9767e+002  2.4803e+001 19917 113549,113601,113575
 4.7000e+000 113823 -5.0681e+001 -3.6609e+002 -1.2505e+000 19917 113627,113601,113797
 4.7000e+000 113846 -1.8947e+001 -2.8645e+002 -7.5893e+000 19917 113627,113797,113653
 4.7000e+000 113895 -4.2417e+001 -2.7203e+002  4.7230e+000 19917 113653,113797,113869
 4.7000e+000 113918 -5.4373e+001 -2.8145e+002  2.3444e+001 19917 113653,113869,113679
 4.7000e+000 114166 -1.3848e+002 -3.1357e+002 -5.2550e+000 19413 113993,114045,114019
 4.7000e+000 114143 -1.3051e+002 -2.9310e+002  1.7908e+000 19413 113967,114045,113993
 4.7000e+000 114120 -1.0886e+002 -2.8558e+002  1.6355e+001 19413 113967,114071,114045
 4.7000e+000 114097 -8.9097e+001 -3.2334e+002 -5.2113e+000 19413 113941,114071,113967
 4.7000e+000 114438 -1.2951e+002 -3.4239e+002  3.1321e+000 19001 114213,114265,114239
 4.7000e+000 114415 -9.3299e+001 -2.6669e+002 -8.0060e+000 19001 114213,114343,114265
 4.7000e+000 114392 -1.3826e+002 -3.6751e+002 -1.6725e+001 19001 114265,114343,114317
 4.7000e+000 114369  2.6006e+001 -2.9665e+002 -6.6329e+000 19001 114265,114317,114291
 4.7000e+000 114639 -9.8033e+001 -4.0779e+002  1.9887e+001 18554 114489,114541,114515
 4.7000e+000 114616 -8.5692e+001 -3.5307e+002  3.4080e+000 18554 114489,114567,114541
 4.7000e+000 114593 -1.8473e+002 -4.0482e+002 -2.6919e+001 18554 114463,114567,114489
 4.7000e+000 115043 -6.7361e+001 -3.0460e+002  1.1103e+001 18164 114795,114925,114821
 4.7000e+000 115020 -5.9580e+001 -3.2187e+002  1.7865e+001 18164 114769,114925,114795
 4.7000e+000 114997 -3.6613e+001 -3.2040e+002 -2.6308e+000 18164 115066,114873,114821
 4.7000e+000 114974 -3.4298e+001 -2.7464e+002 -1.0962e+001 18164 115066,114821,114925
 4.7000e+000 114951  2.0930e+001 -3.2122e+002 -3.1422e+001 18164 114821,114873,114847
 4.7000e+000 115092 -5.2904e+001 -2.8732e+002 -2.6672e+001 18164 114899,114873,115066
 4.7000e+000 115115 -3.1780e+001 -2.1738e+002 -3.7245e+001 18164 114899,115066,114925
 4.7000e+000 115265 -8.4382e+001 -3.3287e+002  4.5084e+000 17852 115164,115216,115190
 4.7000e+000 115242 -9.4602e+001 -3.5509e+002 -3.2310e-001 17852 115138,115216,115164
 4.7000e+000 115464 -2.1214e+002 -4.7763e+002  6.3838e+000 17346 115288,115366,115340
 4.7000e+000 115441 -3.2658e+002 -3.7048e+002 -1.4277e+001 17346 115288,115392,115366
 4.7000e+000 115418 -1.9068e+002 -5.3587e+002 -1.6684e+001 17346 115288,115340,115314
 4.7000e+000 115736 -8.1822e+001 -3.0451e+002  1.3414e+001 16942 115563,115641,115615
 4.7000e+000 115713 -9.2568e+001 -3.0460e+002  4.3917e+000 16942 115511,115641,115563
 4.7000e+000 115690 -2.1356e+002 -3.5530e+002  1.9938e+001 16942 115563,115615,115589
 4.7000e+000 115667 -1.0913e+002 -3.3092e+002  1.1440e+001 16942 115511,115563,115537
 4.7000e+000 116091 -1.5651e+002 -3.6604e+002 -1.3938e+001 16388 115918,115970,115944
 4.7000e+000 116068 -1.3408e+002 -2.9327e+002 -9.1866e+000 16388 115918,115996,115970
 4.7000e+000 116045 -1.8114e+002 -3.7185e+002  1.2428e+001 16388 115892,115996,115918
 4.7000e+000 116022 -1.1797e+002 -3.3804e+002  4.1953e+001 16388 115866,115996,115892
 4.7000e+000 116192 -4.9927e+001 -3.8539e+002 -5.4803e+001 15810 116114,116166,116140
 4.7000e+000 116342 -1.4391e+002 -4.6319e+002  2.5296e+001 15419 116241,116293,116267
 4.7000e+000 116319 -2.0532e+002 -5.6830e+002 -1.6337e+001 15419 116215,116293,116241
 4.7000e+000 116445 -1.5495e+002 -3.1606e+002  1.9406e+000 421 116367,116419,116393
 4.8000e+000 68477 -2.0320e+002 -3.0084e+002  8.9773e-001 68018 68327,68379,68353
 4.8000e+000 68454 -2.1595e+002 -3.9868e+002  2.9041e+001 68018 68301,68379,68327
 4.8000e+000 68431 -9.9326e+001 -4.4263e+002  7.3684e+001 68018 68301,68405,68379
 4.8000e+000 68578 -1.3873e+002 -2.8649e+002  1.3311e+000 67820 68500,68552,68526
 4.8000e+000 68728 -1.4888e+002 -2.6513e+002 -3.9070e+000 67508 68601,68653,68627
 4.8000e+000 68705 -2.2959e+002 -2.0266e+002 -3.9383e+001 67508 68601,68679,68653
 4.8000e+000 68927 -4.5017e+001 -2.5367e+002 -4.9724e+000 67310 68777,68829,68803
 4.8000e+000 68904 -6.6589e+001 -2.9337e+002  5.2282e+000 67310 68751,68829,68777
 4.8000e+000 68881 -5.3169e+001 -2.9681e+002  1.5965e+001 67310 68751,68855,68829
 4.8000e+000 69386 -1.1880e+002 -3.1151e+002 -1.5139e+001 67020 69216,69268,69242
 4.8000e+000 69363 -1.0852e+002 -2.4145e+002 -3.0686e+001 67020 69138,69268,69216
 4.8000e+000 69340 -8.0012e+001 -2.1701e+002 -1.7643e+001 67020 69112,69268,69138
 4.8000e+000 69317 -1.4532e+002 -2.6018e+002  1.9043e+001 67020 69138,69190,69164
 4.8000e+000 69294 -1.5132e+002 -2.3816e+002 -1.3326e+001 67020 69138,69216,69190
 4.8000e+000 69536 -2.2832e+002 -5.6135e+002 -4.4852e+001 66708 69435,69487,69461
 4.8000e+000 69513 -1.6907e+002 -6.3151e+002 -6.9070e+000 66708 69409,69487,69435
 4.8000e+000 69735 -1.4484e+002 -2.9346e+002  6.6751e+000 66346 69585,69637,69611
 4.8000e+000 69712 -1.2022e+002 -2.7849e+002 -1.4752e+000 66346 69559,69637,69585
 4.8000e+000 69689 -1.0917e+002 -2.7659e+002 -2.7940e+001 66346 69559,69663,69637
 4.8000e+000 69985 -2.0651e+002 -3.5098e+002  4.7027e+000 66148 69786,69890,69864
 4.8000e+000 69962 -2.1429e+002 -3.5560e+002  7.0612e+000 66148 69760,69890,69786
 4.8000e+000 69939 -1.5275e+002 -3.3039e+002 -4.7262e+001 66148 69786,69864,69838
 4.8000e+000 69916 -1.7692e+002 -3.5231e+002 -1.8956e+001 66148 69786,69838,69812
 4.8000e+000 70137 -1.0081e+002 -3.8558e+002 -2.2432e+001 65950 70036,70088,70062
 4.8000e+000 70114 -8.6229e+001 -4.2820e+002  2.0074e+001 65950 70010,70088,70036
 4.8000e+000 70470 -7.7084e+001 -2.8700e+002  2.2953e+001 65546 70245,70323,70271
 4.8000e+000 70447 -5.5937e+001 -2.5538e+002  1.0449e+001 65546 70245,70375,70323
 4.8000e+000 70424 -7.0798e+001 -3.2218e+002  1.1471e+001 65546 70323,70375,70349
 4.8000e+000 70401 -6.0405e+001 -2.6496e+002  1.0783e+001 65546 70271,70323,70297
 4.8000e+000 70620 -1.3027e+002 -3.3544e+002  1.1084e+001 65348 70493,70545,70519
 4.8000e+000 70597 -9.1270e+001 -3.4911e+002  1.4790e+001 65348 70493,70571,70545
 4.8000e+000 70721 -1.7590e+002 -3.5670e+002  2.5364e+001 65150 70643,70695,70669
 4.8000e+000 71020 -1.2329e+002 -2.7809e+002  4.5732e+000 64952 71043,70850,70824
 4.8000e+000 70997 -1.0739e+002 -2.3971e+002  3.7777e+000 64952 71043,70824,70772
 4.8000e+000 70974 -1.1670e+002 -3.2153e+002  5.4202e+000 64952 71115,70746,70876
 4.8000e+000 70951 -9.2534e+001 -3.2135e+002 -2.2230e+000 64952 70746,70902,70876
 4.8000e+000 70928 -1.1004e+002 -2.0325e+002 -1.9049e+001 64952 70772,70824,70798
 4.8000e+000 71069 -9.9272e+001 -2.6559e+002  1.0857e+001 64952 70876,70850,71043
 4.8000e+000 71092 -1.1481e+002 -3.0258e+002  6.3391e+000 64952 71115,70876,71043
 4.8000e+000 71141 -1.3239e+002 -2.9964e+002 -1.1525e+001 64952 70772,70746,71115
 4.8000e+000 71164 -1.2364e+002 -2.7117e+002 -1.1128e+001 64952 70772,71115,71043
 4.8000e+000 71365 -3.9751e+000 -3.4935e+002 -4.6855e+000 64662 71215,71293,71267
 4.8000e+000 71342  5.1298e+001 -3.2800e+002 -5.6723e+001 64662 71189,71293,71215
 4.8000e+000 71319  2.6744e+001 -2.8836e+002  5.7263e+000 64662 71215,71267,71241
 4.8000e+000 71615 -8.2535e+001 -2.9836e+002 -3.9660e+000 64350 71710,71638,71468
 4.8000e+000 71592 -1.0005e+002 -2.9328e+002 -1.0122e+001 64350 71638,71416,71390
 4.8000e+000 71569 -8.8480e+001 -2.7785e+002  1.3162e+001 64350 71710,71468,71442
 4.8000e+000 71546  5.1556e+001 -2.8505e+002 -4.7658e+001 64350 71390,71520,71494
 4.8000e+000 71664 -7.7163e+001 -2.9723e+002 -1.1925e-001 64350 71494,71468,71638
 4.8000e+000 71687 -7.7673e+001 -3.0383e+002  2.5317e-001 64350 71494,71638,71390
 4.8000e+000 71736 -7.4291e+001 -2.5698e+002  1.6232e+000 64350 71416,71638,71710
 4.8000e+000 71759 -7.3029e+001 -2.3645e+002  2.3619e+001 64350 71416,71710,71442
 4.8000e+000 72318 -8.7416e+001 -4.7282e+002 -1.8928e+001 63837 71972,72024,71998
 4.8000e+000 72295 -1.3168e+002 -3.0446e+002 -1.1024e+000 63837 72341,71972,71946
 4.8000e+000 72272 -1.1914e+002 -2.4472e+002  1.1362e+001 63837 72413,72341,71946
 4.8000e+000 72249 -1.1034e+002 -2.2214e+002  3.8914e+000 63837 72413,71946,72128
 4.8000e+000 72226 -1.6779e+002 -2.6674e+002  2.1012e+000 63837 72024,72076,72050
 4.8000e+000 72203 -1.4488e+002 -2.4570e+002 -8.3150e+000 63837 72024,72102,72076
 4.8000e+000 72180 -7.2758e+001 -2.0908e+002  1.7717e+001 63837 71946,72154,72128
 4.8000e+000 72367 -1.5699e+002 -3.2605e+002 -5.7477e+001 63837 72024,71972,72341
 4.8000e+000 72390 -1.2265e+002 -2.6652e+002 -2.1949e+001 63837 72024,72341,72102
 4.8000e+000 72439 -9.4037e+001 -2.8158e+002  4.4945e+000 63837 72102,72341,72413
 4.8000e+000 72462 -8.6591e+001 -2.5882e+002 -4.3744e-001 63837 72102,72413,72128
 4.8000e+000 72791 -1.4792e+002 -2.8666e+002 -2.8765e+001 63383 72592,72696,72670
 4.8000e+000 72768 -1.5058e+002 -2.6653e+002 -5.1201e+001 63383 72566,72696,72592
 4.8000e+000 72745 -1.4605e+002 -2.4917e+002  1.3561e+000 63383 72592,72670,72618
 4.8000e+000 72722 -1.4048e+002 -2.3286e+002 -3.7765e-001 63383 72618,72670,72644
 4.8000e+000 73297 -1.7539e+002 -2.5148e+002 -1.7122e+000 63185 73000,73156,73130
 4.8000e+000 73274 -1.7623e+002 -2.6200e+002  3.2326e+001 63185 72974,73156,73000
 4.8000e+000 73251 -1.3186e+002 -2.9025e+002 -4.5586e+000 63185 73000,73052,73026
 4.8000e+000 73228 -1.4529e+002 -2.5927e+002 -1.2763e+001 63185 73000,73130,73052
 4.8000e+000 73205 -1.4405e+002 -2.9126e+002 -4.3557e+001 63185 73052,73130,73104
 4.8000e+000 73182 -1.3583e+002 -3.2176e+002 -4.6248e+001 63185 73052,73104,73078
 4.8000e+000 73545 -5.8650e+001 -2.7191e+002  2.3729e+000 62781 73568,73398,73372
 4.8000e+000 73522 -4.1832e+001 -2.4740e+002  1.0444e+001 62781 73568,73372,73346
 4.8000e+000 73499 -7.8872e+001 -2.5922e+002 -8.0122e+000 62781 73640,73320,73424
 4.8000e+000 73476 -8.4572e+001 -1.6439e+002 -2.9597e+001 62781 73320,73450,73424
 4.8000e+000 73594 -4.7165e+001 -2.5035e+002 -4.1228e+000 62781 73424,73398,73568
 4.8000e+000 73617 -6.2069e+001 -2.5200e+002 -7.4138e+000 62781 73640,73424,73568
 4.8000e+000 73666 -7.6129e+001 -2.5522e+002  6.3903e+000 62781 73346,73320,73640
 4.8000e+000 73689 -6.7298e+001 -2.5151e+002  7.0348e+000 62781 73346,73640,73568
 4.8000e+000 74035 -1.0528e+002 -2.9063e+002 -5.0959e+000 62363 74058,73868,73842
 4.8000e+000 74012 -9.7002e+001 -2.6745e+002 -2.2481e+001 62363 74130,74058,73842
 4.8000e+000 73989 -8.8535e+001 -2.6475e+002 -2.3458e+001 62363 74130,73842,73816
 4.8000e+000 73966 -1.4289e+002 -3.0193e+002  3.3751e+000 62363 74202,73764,73894
 4.8000e+000 73943 -1.8458e+002 -2.7581e+002  3.9423e+000 62363 73712,73894,73764
 4.8000e+000 73920 -1.9777e+002 -2.8910e+002 -3.0453e+000 62363 73712,73764,73738
 4.8000e+000 74084 -1.0484e+002 -2.8548e+002 -4.5492e+000 62363 73894,73868,74058
 4.8000e+000 74107 -1.3095e+002 -2.8896e+002  1.2951e+001 62363 74202,73894,74058
 4.8000e+000 74156 -1.0705e+002 -2.7133e+002  7.6046e+000 62363 73790,74058,74130
 4.8000e+000 74179 -6.6412e+001 -2.5521e+002  9.5703e+000 62363 73790,74130,73816
 4.8000e+000 74228 -1.5626e+002 -3.0777e+002 -1.5712e+001 62363 73790,73764,74202
 4.8000e+000 74251 -1.4738e+002 -2.9397e+002 -6.2272e+000 62363 73790,74202,74058
 4.8000e+000 74403 -1.2409e+001 -3.1157e+002  1.9965e+001 62115 74426,74302,74276
 4.8000e+000 74380  4.5543e+001 -2.9891e+002  4.3693e+001 62115 74426,74276,74354
 4.8000e+000 74452 -6.6835e+001 -2.8204e+002  1.9651e+001 62115 74328,74302,74426
 4.8000e+000 74475 -1.2727e+001 -2.7129e+002  4.4939e+001 62115 74328,74426,74354
 4.8000e+000 74578  5.2300e+001 -1.7215e+002  2.0953e+000 61825 74500,74552,74526
 4.8000e+000 74982 -1.5203e+002 -2.6591e+002  1.8089e+000 61513 75005,74734,74708
 4.8000e+000 74959 -1.4830e+002 -2.5680e+002 -1.2206e+000 61513 75005,74708,74864
 4.8000e+000 74936 -1.8879e+002 -2.7263e+002  1.8128e+001 61513 75077,74812,74734
 4.8000e+000 74913 -1.6700e+002 -2.7223e+002 -2.3409e+001 61513 74734,74786,74760
 4.8000e+000 74890 -1.6452e+002 -2.4432e+002 -1.7036e+000 61513 74734,74812,74786
 4.8000e+000 75031 -1.4319e+002 -2.7233e+002  3.1509e+000 61513 75077,74734,75005
 4.8000e+000 75054 -1.1451e+002 -2.6433e+002  3.8650e+001 61513 74838,75005,74864
 4.8000e+000 75103 -2.1447e+002 -2.8462e+002  5.9170e+001 61513 74838,74812,75077
 4.8000e+000 75126 -1.8463e+002 -2.9554e+002  4.4318e+001 61513 74838,75077,75005
 4.8000e+000 75553 -7.6050e+001 -2.4465e+002 -8.6565e+000 61060 75576,75360,75308
 4.8000e+000 75530 -7.8249e+001 -2.5995e+002 -9.8486e+000 61060 75576,75308,75230
 4.8000e+000 75507 -6.9219e+001 -2.3513e+002 -3.1511e-001 61060 75308,75360,75334
 4.8000e+000 75484 -1.0353e+002 -3.0410e+002  1.7352e+001 61060 75230,75308,75256
 4.8000e+000 75461 -7.4472e+001 -2.8253e+002  7.6614e+000 61060 75256,75308,75282
 4.8000e+000 75438 -8.7522e+001 -2.4068e+002  3.0206e+001 61060 75360,75412,75386
 4.8000e+000 75602 -5.9672e+001 -2.5807e+002  1.3445e+000 61060 75412,75360,75576
 4.8000e+000 75625 -7.1132e+001 -2.8695e+002 -3.5260e+000 61060 75412,75576,75230
 4.8000e+000 76052 -1.1321e+002 -2.5316e+002  4.0145e+000 60442 75755,75859,75833
 4.8000e+000 76029 -1.3253e+002 -2.4074e+002 -1.7310e+001 60442 75729,75859,75755
 4.8000e+000 76006 -1.1780e+002 -2.3491e+002  1.5646e+001 60442 75755,75833,75807
 4.8000e+000 75983 -1.1366e+002 -2.7759e+002  8.4656e+000 60442 75755,75807,75781
 4.8000e+000 75960  9.6742e-001 -4.4157e+002  1.5851e+001 60442 75729,75911,75859
 4.8000e+000 75937 -2.2489e+002 -1.0923e+003  7.0092e+001 60442 75859,75911,75885
 4.8000e+000 76430 -1.1785e+002 -3.0383e+002 -1.2686e+001 59788 76453,76286,76234
 4.8000e+000 76407 -1.2768e+002 -3.4742e+002  4.9097e+000 59788 76453,76234,76182
 4.8000e+000 76384 -1.3113e+002 -2.3241e+002  3.8074e+001 59788 76525,76156,76312
 4.8000e+000 76361 -7.5106e+001 -3.9708e+002 -4.3936e+000 59788 76182,76234,76208
 4.8000e+000 76338 -9.3884e+001 -2.9210e+002 -8.1828e+000 59788 76234,76286,76260
 4.8000e+000 76479 -1.4265e+002 -3.2831e+002  1.2489e+000 59788 76312,76286,76453
 4.8000e+000 76502 -1.1986e+002 -3.1104e+002  1.5626e+001 59788 76525,76312,76453
 4.8000e+000 76551 -1.6186e+002 -3.3118e+002  4.0427e+001 59788 76182,76156,76525
 4.8000e+000 76574 -1.4343e+002 -3.5549e+002  2.4353e+001 59788 76182,76525,76453
 4.8000e+000 77031 -8.5655e+001 -1.8639e+002 -2.7816e+001 59448 76835,76887,76861
 4.8000e+000 77008 -3.8045e+001 -1.5494e+002  7.0004e+000 59448 76835,76913,76887
 4.8000e+000 76985 -4.8939e+001 -1.3079e+002  2.4771e+001 59448 76809,76913,76835
 4.8000e+000 76962 -9.1976e+001 -1.7236e+002 -3.5293e-001 59448 76757,76913,76809
 4.8000e+000 76939 -7.6444e+001 -1.5306e+002 -7.0685e+000 59448 76757,76809,76783
 4.8000e+000 77537 -1.2319e+002 -2.6414e+002  1.2768e+001 58994 77560,77344,77292
 4.8000e+000 77514 -1.7323e+002 -2.6266e+002  3.0492e+000 58994 77560,77292,77240
 4.8000e+000 77491 -9.9522e+001 -2.4666e+002 -5.8360e+000 58994 77632,77214,77370
 4.8000e+000 77468 -2.0370e+002 -3.0239e+002  5.2321e+001 58994 77292,77344,77318
 4.8000e+000 77445 -1.0197e+002 -3.1829e+002  1.2211e+001 58994 77214,77396,77370
 4.8000e+000 77422 -1.7629e+002 -2.7784e+002 -6.4027e+000 58994 77240,77292,77266
 4.8000e+000 77586 -1.2819e+002 -2.6935e+002  1.4821e+001 58994 77370,77344,77560
 4.8000e+000 77609 -1.2748e+002 -2.6357e+002  1.7451e+001 58994 77632,77370,77560
 4.8000e+000 77658 -8.4599e+001 -2.2926e+002 -3.1705e+001 58994 77240,77214,77632
 4.8000e+000 77681 -1.0537e+002 -2.2701e+002 -1.0719e+001 58994 77240,77632,77560
 4.8000e+000 78138 -1.0347e+002 -1.8575e+002  2.6261e+001 58440 77864,77994,77890
 4.8000e+000 78115 -6.8138e+001 -1.1412e+002 -1.4385e+001 58440 77864,78020,77994
 4.8000e+000 78092 -1.1784e+002 -2.1873e+002 -1.8874e+001 58440 77942,77994,77968
 4.8000e+000 78069 -9.4092e+001 -2.0755e+002  4.2197e+000 58440 77890,77994,77942
 4.8000e+000 78046 -8.4346e+001 -2.0917e+002 -2.9433e+000 58440 77890,77942,77916
 4.8000e+000 78467 -2.0083e+001 -2.4286e+002  8.5229e+000 57928 78562,78490,78346
 4.8000e+000 78444 -9.1870e+001 -2.4495e+002 -3.9887e+000 57928 78490,78294,78268
 4.8000e+000 78421 -5.2811e+000 -2.5451e+002  2.0642e+001 57928 78562,78346,78320
 4.8000e+000 78398 -3.7179e+001 -2.3775e+002  2.9644e+000 57928 78242,78372,78268
 4.8000e+000 78516 -8.0917e+001 -3.0242e+002 -1.6540e+001 57928 78372,78346,78490
 4.8000e+000 78539 -6.4680e+001 -2.3341e+002 -2.4488e+000 57928 78372,78490,78268
 4.8000e+000 78588 -9.1680e+001 -2.4076e+002  1.0318e+000 57928 78294,78490,78562
 4.8000e+000 78611 -4.6002e+001 -2.1687e+002  2.5221e+001 57928 78294,78562,78320
 4.8000e+000 79068 -1.7949e+002 -3.7940e+002 -9.4539e+001 57467 78794,78924,78820
 4.8000e+000 79045 -1.4115e+002 -3.6170e+002 -8.9064e+001 57467 78794,78950,78924
 4.8000e+000 79022 -7.6221e+001 -3.3796e+002  3.2223e+001 57467 78820,78898,78872
 4.8000e+000 78999 -1.3230e+002 -4.6513e+002 -5.0261e+001 57467 78820,78924,78898
 4.8000e+000 78976 -5.5131e+001 -3.4164e+002  4.9622e+001 57467 78820,78872,78846
 4.8000e+000 79446 -1.5031e+002 -2.8481e+002 -3.4538e-001 57120 79172,79302,79250
 4.8000e+000 79423 -1.3450e+002 -2.7765e+002 -9.8387e+000 57120 79172,79328,79302
 4.8000e+000 79400 -1.3599e+002 -2.4954e+002 -1.0079e+001 57120 79172,79250,79198
 4.8000e+000 79377 -1.0318e+002 -3.5901e+002  1.3973e+001 57120 79250,79302,79276
 4.8000e+000 79354 -1.6602e+002 -2.7171e+002 -2.1032e+001 57120 79198,79250,79224
 4.8000e+000 79952 -2.0012e+002 -3.1717e+002  1.0365e+000 56773 79629,79785,79655
 4.8000e+000 79929 -5.8954e+001 -2.7392e+002  1.3889e+001 56773 79629,79811,79785
 4.8000e+000 79906 -1.5590e+002 -3.4305e+002  2.3203e+001 56773 79655,79733,79681
 4.8000e+000 79883 -1.5365e+002 -3.0432e+002  5.9806e+000 56773 79655,79785,79733
 4.8000e+000 79860 -1.4357e+002 -3.9699e+002 -4.7761e+001 56773 79733,79785,79759
 4.8000e+000 79837 -8.2097e+001 -3.0917e+002  5.9327e+001 56773 79681,79733,79707
 4.8000e+000 80281 -7.1066e+001 -2.3441e+002 -1.8606e+001 56319 80108,80160,80134
 4.8000e+000 80258 -7.6829e+001 -2.5642e+002 -2.3245e+001 56319 80056,80160,80108
 4.8000e+000 80235 -3.3378e+001 -2.2735e+002  1.4488e+001 56319 80056,80186,80160
 4.8000e+000 80212 -1.0335e+002 -3.2662e+002 -1.5349e+001 56319 80056,80108,80082
 4.8000e+000 80738 -4.1835e+001 -2.8435e+002  1.5054e+001 55957 80516,80620,80594
 4.8000e+000 80715 -1.0089e+002 -2.5740e+002  1.2319e+001 55957 80464,80620,80516
 4.8000e+000 80692 -8.6540e+001 -3.0843e+002  1.5759e+001 55957 80761,80568,80542
 4.8000e+000 80669 -7.0834e+001 -3.0426e+002  1.8469e+001 55957 80761,80542,80516
 4.8000e+000 80646 -1.0090e+002 -2.5679e+002  3.2144e+001 55957 80464,80516,80490
 4.8000e+000 80787 -1.0155e+002 -3.0688e+002  1.1539e+001 55957 80594,80568,80761
 4.8000e+000 80810 -8.6843e+001 -3.0320e+002  1.4457e+001 55957 80594,80761,80516
 4.8000e+000 81210 -8.5731e+001 -2.9049e+002 -3.3380e+001 55317 80936,80988,80962
 4.8000e+000 81187 -7.0894e+001 -3.1834e+002 -1.4121e+000 55317 80936,81066,80988
 4.8000e+000 81164 -4.8336e+001 -3.4083e+002  4.6536e+000 55317 80936,81092,81066
 4.8000e+000 81141 -1.0051e+002 -3.3925e+002 -3.1034e+001 55317 80988,81066,81014
 4.8000e+000 81118 -1.3862e+001 -1.9209e+002  1.9833e+001 55317 81014,81066,81040
 4.8000e+000 81539 -1.2907e+002 -2.9261e+002  7.2599e+000 54913 81340,81418,81392
 4.8000e+000 81516 -5.2302e+001 -2.3592e+002 -1.8352e+001 54913 81340,81444,81418
 4.8000e+000 81493 -7.9156e+001 -2.5261e+002 -3.5342e+001 54913 81314,81444,81340
 4.8000e+000 81470 -1.4718e+002 -3.0849e+002  1.1765e-001 54913 81340,81392,81366
 4.8000e+000 81787 -7.4275e+001 -3.0672e+002 -3.0635e+000 54601 81588,81692,81640
 4.8000e+000 81764 -1.0838e+002 -3.1046e+002 -1.0442e+001 54601 81562,81692,81588
 4.8000e+000 81741 -5.8979e+001 -3.1172e+002  3.9936e+001 54601 81588,81640,81614
 4.8000e+000 81718 -7.6522e+001 -3.6359e+002 -3.2193e+001 54601 81640,81692,81666
 4.8000e+000 82344 -1.1620e+002 -3.1235e+002 -1.5423e+001 54090 81998,82102,82076
 4.8000e+000 82321 -1.5579e+002 -3.2964e+002 -9.3191e+000 54090 81998,82154,82102
 4.8000e+000 82298 -1.4182e+002 -3.2155e+002 -5.3388e+000 54090 81972,82154,81998
 4.8000e+000 82275 -1.6183e+002 -2.9245e+002 -1.7787e+001 54090 81998,82076,82024
 4.8000e+000 82252 -1.7209e+002 -3.4196e+002  1.5216e+001 54090 81972,82180,82154
 4.8000e+000 82229 -2.1676e+002 -4.0269e+002  2.3355e+001 54090 82102,82154,82128
 4.8000e+000 82206 -3.0672e+001 -2.2142e+002 -4.6233e+001 54090 82024,82076,82050
 4.8000e+000 82722 -1.9814e+002 -3.5568e+002 -1.2766e+001 53579 82500,82578,82552
 4.8000e+000 82699 -1.4716e+002 -3.2332e+002  7.8132e+000 53579 82448,82578,82500
 4.8000e+000 82676 -1.6055e+002 -3.6497e+002  9.3021e+000 53579 82448,82500,82474
 4.8000e+000 82653 -1.9277e+002 -3.4695e+002  2.5200e+001 53579 82448,82604,82578
 4.8000e+000 82630 -1.0392e+002 -3.2984e+002 -1.3903e+001 53579 82500,82552,82526
 4.8000e+000 83356 -9.6706e+001 -2.5579e+002 -2.6592e+001 53189 83379,83088,83036
 4.8000e+000 83333 -9.3272e+001 -2.8856e+002 -2.4005e+001 53189 83379,83036,82984
 4.8000e+000 83310 -4.7216e+001 -2.7242e+002  3.8299e+001 53189 82984,83192,83166
 4.8000e+000 83287  2.0288e+000 -2.1220e+002 -1.8698e+001 53189 83036,83088,83062
 4.8000e+000 83264 -7.4554e+001 -3.2197e+002 -4.4396e+001 53189 82984,83036,83010
 4.8000e+000 83241 -6.7530e+001 -3.2109e+002  5.6814e+000 53189 83114,83166,83140
 4.8000e+000 83218 -1.3129e+002 -3.3520e+002  2.1899e+000 53189 83088,83166,83114
 4.8000e+000 83405 -9.7154e+001 -2.7796e+002 -1.3005e+001 53189 83166,83088,83379
 4.8000e+000 83428 -8.8821e+001 -3.0692e+002 -1.2497e+001 53189 83166,83379,82984
 4.8000e+000 83725 -1.2709e+002 -3.6049e+002 -3.1983e+001 52585 83748,83529,83503
 4.8000e+000 83702 -9.5111e+001 -3.4984e+002 -2.1226e+001 52585 83820,83748,83503
 4.8000e+000 83679 -6.3767e+001 -3.4182e+002 -1.7706e+001 52585 83820,83503,83477
 4.8000e+000 83656 -4.4868e+001 -3.1366e+002  4.1813e+001 52585 83477,83607,83581
 4.8000e+000 83633  2.6308e+001 -2.8313e+002  4.4566e+001 52585 83451,83607,83477
 4.8000e+000 83774 -1.1132e+002 -3.2115e+002 -2.8132e+001 52585 83555,83529,83748
 4.8000e+000 83797 -1.4613e+002 -3.4558e+002 -1.7478e+001 52585 83555,83748,83581
 4.8000e+000 83846 -1.2478e+002 -3.3117e+002 -5.1248e+000 52585 83581,83748,83820
 4.8000e+000 83869 -1.0212e+002 -3.2860e+002 -4.9746e+000 52585 83581,83820,83477
 4.8000e+000 84200 -9.3097e+001 -3.2498e+002 -1.2295e+001 52024 84001,84105,84079
 4.8000e+000 84177 -4.9940e+001 -3.1711e+002 -2.3236e+001 52024 83975,84105,84001
 4.8000e+000 84154 -8.2125e+001 -3.2681e+002 -9.2583e+000 52024 84001,84079,84053
 4.8000e+000 84131 -4.1058e+001 -2.1954e+002  3.8582e+001 52024 84001,84053,84027
 4.8000e+000 84399 -7.9967e+001 -3.2507e+002 -1.7536e+000 51470 84422,84275,84249
 4.8000e+000 84376 -7.4172e+001 -3.1340e+002  1.4078e+000 51470 84422,84249,84223
 4.8000e+000 84353 -9.1525e+001 -3.4558e+002 -4.7784e+001 51470 84275,84327,84301
 4.8000e+000 84448 -8.6026e+001 -3.1406e+002 -2.3042e+000 51470 84327,84275,84422
 4.8000e+000 84471 -8.1812e+001 -3.0466e+002  6.1129e-001 51470 84327,84422,84223
 4.8000e+000 84753 -9.5253e+001 -2.7040e+002 -1.5137e+000 51073 84603,84655,84629
 4.8000e+000 84730 -1.9387e+002 -3.1591e+002 -1.4156e+001 51073 84776,84655,84603
 4.8000e+000 84707 -4.3641e+001 -2.7470e+002 -7.6156e+001 51073 84577,84681,84655
 4.8000e+000 84802 -1.2304e+002 -2.7604e+002 -3.6294e+001 51073 84577,84655,84776
 4.8000e+000 85178 -1.7576e+002 -3.8348e+002  3.3883e+001 50519 85201,85008,84982
 4.8000e+000 85155 -1.6647e+002 -3.5624e+002  2.4862e+001 50519 85273,85201,84982
 4.8000e+000 85132 -1.5722e+002 -3.5616e+002  1.8961e+001 50519 85273,84982,84930
 4.8000e+000 85109 -1.5231e+002 -3.4657e+002  1.6141e+001 50519 84930,84982,84956
 4.8000e+000 85086 -1.4358e+002 -3.5824e+002  1.4511e+001 50519 85008,85060,85034
 4.8000e+000 85227 -1.4642e+002 -3.6496e+002  1.5156e+001 50519 85060,85008,85201
 4.8000e+000 85250 -1.6490e+002 -3.6648e+002  1.0180e+001 50519 85060,85201,84904
 4.8000e+000 85299 -1.5692e+002 -3.6088e+002  7.7322e+000 50519 84904,85201,85273
 4.8000e+000 85322 -1.2388e+002 -3.1895e+002 -7.0775e+000 50519 84904,85273,84930
 4.8000e+000 85958 -1.0315e+002 -3.2195e+002 -1.0810e+001 50093 85981,85768,85716
 4.8000e+000 85935 -9.1711e+001 -2.9234e+002 -1.2727e+001 50093 85981,85716,85612
 4.8000e+000 85912 -1.3182e+002 -3.0218e+002  5.2117e+000 50093 85612,85716,85664
 4.8000e+000 85889 -7.6922e+001 -3.1642e+002 -3.7391e+000 50093 85716,85768,85742
 4.8000e+000 85866 -1.0904e+002 -2.3298e+002 -6.5080e+001 50093 85664,85716,85690
 4.8000e+000 85843 -3.9776e+001 -2.2193e+002 -1.1998e+001 50093 85586,85794,85612
 4.8000e+000 85820 -9.0606e+001 -4.0907e+002  3.3686e+001 50093 85612,85664,85638
 4.8000e+000 86007 -1.2513e+002 -3.4629e+002 -5.2830e+001 50093 85794,85768,85981
 4.8000e+000 86030 -9.0074e+001 -2.6122e+002 -4.4252e+001 50093 85794,85981,85612
 4.8000e+000 86131 -1.0797e+002 -3.2108e+002  4.3521e+001 49895 86053,86105,86079
 4.8000e+000 86639 -7.9908e+001 -2.2408e+002 -4.5161e+001 49391 86662,86394,86368
 4.8000e+000 86616 -9.3777e+001 -2.7241e+002 -4.0240e+001 49391 86662,86368,86342
 4.8000e+000 86593 -5.2296e+001 -2.7180e+002 -1.2154e+001 49391 86342,86498,86472
 4.8000e+000 86570 -3.4350e+001 -2.9744e+002 -1.4414e+001 49391 86316,86498,86342
 4.8000e+000 86547 -1.5173e+002 -4.1357e+002 -1.8979e+001 49391 86394,86472,86446
 4.8000e+000 86524 -1.2798e+001 -3.8989e+002  2.8831e+000 49391 86394,86446,86420
 4.8000e+000 86688 -9.0162e+001 -2.6921e+002 -2.4257e+001 49391 86472,86394,86662
 4.8000e+000 86711 -8.0544e+001 -2.8986e+002 -2.3328e+001 49391 86472,86662,86342
 4.8000e+000 87089 -1.1546e+002 -3.2218e+002  8.5078e+000 48987 86815,86919,86867
 4.8000e+000 87066 -1.1547e+002 -3.3108e+002  1.2961e+001 48987 86815,86971,86919
 4.8000e+000 87043 -4.4273e+001 -3.5543e+002 -3.1537e+001 48987 86867,86919,86893
 4.8000e+000 87020 -1.3098e+002 -3.6435e+002  2.8012e+001 48987 86815,86867,86841
 4.8000e+000 86997 -1.2941e+002 -2.8530e+002  4.4952e+001 48987 86919,86971,86945
 4.8000e+000 87467 -2.1695e+002 -3.2170e+002  1.5884e+001 48540 87490,87245,87219
 4.8000e+000 87444 -1.5731e+002 -3.0103e+002  1.5824e+000 48540 87562,87490,87219
 4.8000e+000 87421 -1.1854e+002 -2.8538e+002  1.3458e+001 48540 87562,87219,87349
 4.8000e+000 87398 -1.6247e+002 -2.5231e+002 -1.6180e+001 48540 87245,87297,87271
 4.8000e+000 87375 -9.9348e+001 -2.9924e+002  1.0042e+001 48540 87193,87349,87219
 4.8000e+000 87516 -1.4963e+002 -3.0613e+002  4.0019e+000 48540 87297,87245,87490
 4.8000e+000 87539 -1.5154e+002 -3.0778e+002  5.8557e+000 48540 87297,87490,87323
 4.8000e+000 87588 -1.1995e+002 -2.8364e+002  2.6796e+001 48540 87323,87490,87562
 4.8000e+000 87611 -1.0124e+002 -2.8842e+002  3.4715e+001 48540 87323,87562,87349
 4.8000e+000 87810 -1.4912e+002 -5.2844e+002 -3.8233e+001 48136 87660,87712,87686
 4.8000e+000 87787 -8.4787e+001 -3.0830e+002 -1.7253e+001 48136 87660,87738,87712
 4.8000e+000 87764 -1.9675e+002 -3.1963e+002 -5.1616e+001 48136 87634,87738,87660
 4.8000e+000 88205 -1.3770e+002 -3.3999e+002 -2.9350e+001 47210 88300,88228,87937
 4.8000e+000 88182 -1.1995e+002 -3.3050e+002 -8.5728e+000 47210 88228,87833,88041
 4.8000e+000 88159 -1.3975e+002 -3.6359e+002 -4.6528e+001 47210 88300,87937,87911
 4.8000e+000 88136 -1.3571e+002 -3.3069e+002 -4.0087e+001 47210 87833,87911,87859
 4.8000e+000 88113 -2.2641e+002 -2.9847e+002 -2.3687e+001 47210 87937,87989,87963
 4.8000e+000 88090 -1.1402e+002 -2.7058e+002  5.6111e+001 47210 87989,88041,88015
 4.8000e+000 88067 -1.5692e+002 -3.8421e+002 -5.2317e+001 47210 87859,87911,87885
 4.8000e+000 88254 -1.2245e+002 -2.8144e+002 -3.0066e+001 47210 87989,87937,88228
 4.8000e+000 88277 -1.4427e+002 -3.2460e+002 -1.1210e+001 47210 87989,88228,88041
 4.8000e+000 88326 -1.1437e+002 -3.1740e+002 -1.0935e+001 47210 87833,88228,88300
 4.8000e+000 88349 -1.2010e+002 -3.3310e+002 -2.9353e+001 47210 87833,88300,87911
 4.8000e+000 88780 -2.1098e+002 -3.7140e+002 -7.0552e+001 46642 88803,88509,88483
 4.8000e+000 88757 -1.5094e+002 -3.3411e+002 -3.8176e+001 46642 88803,88483,88639
 4.8000e+000 88734 -1.6823e+002 -2.7457e+002 -4.3856e+001 46642 88875,88561,88509
 4.8000e+000 88711 -1.7041e+002 -2.5414e+002 -8.2136e+000 46642 88509,88561,88535
 4.8000e+000 88688 -9.6208e+001 -3.7393e+002  8.8739e-001 46642 88457,88639,88483
 4.8000e+000 88665 -1.9436e+002 -4.4547e+002 -1.9112e+001 46642 88561,88613,88587
 4.8000e+000 88829 -1.6940e+002 -2.9962e+002 -4.9369e+001 46642 88875,88509,88803
 4.8000e+000 88852 -1.6590e+002 -3.5979e+002 -3.1826e+001 46642 88613,88803,88639
 4.8000e+000 88901 -1.3888e+002 -3.0927e+002 -2.2786e+001 46642 88613,88561,88875
 4.8000e+000 88924 -1.5132e+002 -3.4990e+002 -2.7438e+001 46642 88613,88875,88803
 4.8000e+000 89253 -6.6252e+001 -3.2639e+002  5.9899e+000 46444 89080,89158,89132
 4.8000e+000 89230 -7.5597e+001 -3.4718e+002  3.1878e+000 46444 89028,89158,89080
 4.8000e+000 89207 -2.7997e+001 -3.0729e+002 -1.3877e+001 46444 89028,89080,89054
 4.8000e+000 89184 -3.4690e+001 -3.5244e+002 -2.6440e+001 46444 89080,89132,89106
 4.8000e+000 89631 -9.3888e+001 -2.2576e+002  5.2052e+000 46040 89383,89461,89435
 4.8000e+000 89608 -9.9265e+001 -2.4948e+002 -1.4327e+001 46040 89383,89487,89461
 4.8000e+000 89585 -1.0142e+002 -2.9218e+002 -8.2771e+000 46040 89383,89435,89409
 4.8000e+000 89562 -7.9549e+001 -2.1412e+002 -2.9407e+001 46040 89383,89513,89487
 4.8000e+000 89539 -3.2496e+001 -1.9100e+002 -3.9647e+001 46040 89357,89513,89383
 4.8000e+000 90009 -9.8578e+001 -2.8698e+002 -1.1973e+000 45636 89813,89891,89839
 4.8000e+000 89986 -1.0179e+002 -2.6856e+002  1.5631e+001 45636 89787,89891,89813
 4.8000e+000 89963 -8.7731e+001 -2.6916e+002 -7.5584e+000 45636 89839,89891,89865
 4.8000e+000 89940 -1.1902e+002 -2.9910e+002  8.4338e+000 45636 89735,89891,89787
 4.8000e+000 89917 -9.4355e+001 -3.0216e+002 -1.3246e+001 45636 89735,89787,89761
 4.8000e+000 90208 -6.5286e+001 -2.2192e+002 -4.2998e+001 45175 90231,90058,90032
 4.8000e+000 90185 -4.0124e+001 -2.0299e+002 -6.5561e+001 45175 90231,90032,90136
 4.8000e+000 90162 -7.8128e+001 -1.8023e+002 -3.6323e+000 45175 90058,90110,90084
 4.8000e+000 90257 -9.3873e+001 -2.4978e+002 -1.1327e+001 45175 90110,90058,90231
 4.8000e+000 90280 -4.5593e+001 -2.1667e+002 -3.6457e+001 45175 90110,90231,90136
 4.8000e+000 90528 -7.1186e+001 -2.2686e+002 -3.0027e+001 44513 90695,90551,90407
 4.8000e+000 90505 -7.6351e+001 -2.0549e+002 -1.4566e+001 44513 90551,90355,90329
 4.8000e+000 90482 -9.3567e+001 -2.2246e+002 -2.7205e+001 44513 90623,90303,90433
 4.8000e+000 90459 -5.4757e+001 -2.1134e+002 -2.1834e+001 44513 90695,90407,90381
 4.8000e+000 90577 -1.0405e+002 -2.3745e+002 -5.1394e+001 44513 90433,90407,90551
 4.8000e+000 90600 -8.9209e+001 -2.1774e+002 -2.5394e+001 44513 90623,90433,90551
 4.8000e+000 90649 -9.1599e+001 -2.1627e+002 -2.4667e+001 44513 90329,90303,90623
 4.8000e+000 90672 -9.2073e+001 -2.1607e+002 -2.4646e+001 44513 90329,90623,90551
 4.8000e+000 90721 -9.1310e+001 -2.0633e+002 -3.3909e+001 44513 90355,90551,90695
 4.8000e+000 90744 -8.6564e+001 -1.9903e+002 -3.0820e+001 44513 90355,90695,90381
 4.8000e+000 91077 -3.6830e-001 -2.3380e+002 -1.4651e+001 44059 91100,90930,90904
 4.8000e+000 91054 -9.1332e+001 -2.5246e+002  1.2520e+001 44059 91100,90904,90982
 4.8000e+000 91031 -1.6259e+002 -2.9300e+002 -2.0399e+001 44059 90878,90982,90904
 4.8000e+000 91008 -5.3034e+001 -2.2062e+002  1.3807e+001 44059 90852,90982,90878
 4.8000e+000 91126 -1.3625e+002 -2.6855e+002 -1.7596e+001 44059 91172,91100,90956
 4.8000e+000 91149 -8.6527e+001 -2.4599e+002 -1.0705e+001 44059 90956,91100,90982
 4.8000e+000 91198 -4.3575e+000 -1.3837e+002 -7.0258e+001 44059 90930,91100,91172
 4.8000e+000 91677 -1.1639e+002 -1.8389e+002  1.7719e+001 43549 91455,91533,91481
 4.8000e+000 91654 -4.5433e+001 -1.8484e+002  2.4908e+001 43549 91429,91533,91455
 4.8000e+000 91631 -1.1207e+002 -1.8371e+002  8.0394e+000 43549 91481,91533,91507
 4.8000e+000 91608 -2.3630e+001 -1.7588e+002  1.1045e+001 43549 91429,91559,91533
 4.8000e+000 91585  3.5645e+000 -5.0867e+001 -1.3039e+000 43549 91403,91559,91429
 4.8000e+000 92006 -1.1817e+002 -2.9330e+002  8.6085e-001 43059 91781,91885,91807
 4.8000e+000 91983 -1.2312e+002 -2.7666e+002  4.5190e+001 43059 91781,91911,91885
 4.8000e+000 91960 -1.1703e+002 -2.9265e+002  5.9467e-001 43059 91807,91885,91833
 4.8000e+000 91937 -7.6316e+001 -2.7692e+002 -4.4386e+000 43059 91833,91885,91859
 4.8000e+000 92561 -9.0257e+001 -2.0118e+002 -2.4293e+001 42598 92584,92215,92189
 4.8000e+000 92538 -9.9782e+001 -2.2821e+002 -2.2094e+001 42598 92656,92584,92189
 4.8000e+000 92515 -9.0162e+001 -2.5826e+002 -6.8286e+000 42598 92656,92189,92397
 4.8000e+000 92492 -1.1950e+002 -1.8145e+002 -2.8593e+001 42598 92241,92319,92293
 4.8000e+000 92469 -1.1202e+002 -2.1456e+002  1.1365e+001 42598 92319,92397,92371
 4.8000e+000 92446 -4.4614e+001 -2.5295e+002  1.0387e+002 42598 92319,92371,92345
 4.8000e+000 92423 -1.1496e+002 -1.8536e+002 -3.8858e+001 42598 92241,92293,92267
 4.8000e+000 92610 -9.8089e+001 -2.0309e+002 -2.2499e+001 42598 92241,92215,92584
 4.8000e+000 92633 -9.0157e+001 -1.8533e+002 -2.7794e+001 42598 92241,92584,92319
 4.8000e+000 92682 -9.1810e+001 -1.8816e+002 -1.6389e+001 42598 92319,92584,92656
 4.8000e+000 92705 -7.4718e+001 -2.0855e+002 -5.1734e+000 42598 92319,92656,92397
 4.8000e+000 92953 -1.2091e+002 -3.1482e+002  1.6740e+001 42094 92976,92806,92780
 4.8000e+000 92930 -1.3384e+002 -2.9704e+002  2.4922e-001 42094 92976,92780,92754
 4.8000e+000 92907 -3.0179e+001 -3.0497e+002 -1.9231e+000 42094 93048,92832,92806
 4.8000e+000 92884 -1.7152e+002 -3.0180e+002 -1.9688e+001 42094 92728,92858,92754
 4.8000e+000 93002 -7.8387e+001 -2.9180e+002  7.9808e+000 42094 93048,92806,92976
 4.8000e+000 93025 -1.2484e+002 -2.9198e+002 -4.6096e+000 42094 92858,92976,92754
 4.8000e+000 93074 -9.7448e+001 -3.2958e+002 -3.3389e+000 42094 92858,92832,93048
 4.8000e+000 93097 -1.3686e+002 -3.1104e+002  2.4190e+000 42094 92858,93048,92976
 4.8000e+000 93605 -1.2634e+002 -3.6146e+002 -1.3240e+001 41846 93628,93412,93386
 4.8000e+000 93582 -9.5416e+001 -2.7367e+002 -1.4753e+000 41846 93628,93386,93308
 4.8000e+000 93559 -1.4583e+002 -2.8594e+002 -5.9178e+001 41846 93700,93464,93438
 4.8000e+000 93536 -1.3642e+002 -3.7851e+002  5.5442e+000 41846 93308,93386,93334
 4.8000e+000 93513 -1.7663e+002 -2.7503e+002 -4.3346e+001 41846 93334,93386,93360
 4.8000e+000 93490 -1.3817e+002 -2.5224e+002 -5.6486e+001 41846 93282,93464,93308
 4.8000e+000 93654 -1.1069e+002 -2.9030e+002 -2.6649e+001 41846 93438,93412,93628
 4.8000e+000 93677 -1.4638e+002 -2.9210e+002 -2.7082e+001 41846 93700,93438,93628
 4.8000e+000 93726 -1.3160e+002 -2.4631e+002 -5.4011e+001 41846 93308,93464,93700
 4.8000e+000 93749 -1.2672e+002 -2.3993e+002 -2.2324e+001 41846 93308,93700,93628
 4.8000e+000 94255 -1.0316e+002 -3.0055e+002  1.9064e+001 41385 93958,94114,94088
 4.8000e+000 94232 -9.0707e+001 -3.2293e+002  8.1509e+000 41385 93932,94114,93958
 4.8000e+000 94209 -1.7487e+002 -3.4769e+002  5.5872e+001 41385 93958,94088,94062
 4.8000e+000 94186 -1.8240e+002 -2.5287e+002  4.1333e+001 41385 93958,94062,93984
 4.8000e+000 94163 -1.5765e+002 -2.4739e+002  3.7834e+001 41385 93984,94062,94036
 4.8000e+000 94140 -1.0732e+002 -3.3719e+002  5.5035e+001 41385 93984,94036,94010
 4.8000e+000 94476 -3.4074e+001 -4.0504e+002  2.3566e+001 40881 94326,94378,94352
 4.8000e+000 94453 -6.8052e+001 -3.3333e+002  2.6763e+001 40881 94300,94378,94326
 4.8000e+000 94430 -8.5538e+001 -3.0851e+002  3.1778e+000 40881 94300,94404,94378
 4.8000e+000 94626 -8.6722e+001 -2.3494e+002 -4.0831e+000 40591 94649,94551,94525
 4.8000e+000 94603 -5.0223e+001 -1.4499e+002  2.6610e+000 40591 94781,94577,94551
 4.8000e+000 94675 -3.1181e+001 -1.6975e+002 -2.8995e+001 40591 94781,94551,94649
 4.8000e+000 94807 -1.4017e+000 -9.8607e+001  2.9838e+001 40591 94499,94577,94781
 4.8000e+000 94830  4.4758e+000 -1.4727e+002 -3.6587e+000 40591 94499,94781,94649
 4.8000e+000 95336 -2.0404e+002 -2.7469e+002 -4.2263e+001 40187 95013,95169,95039
 4.8000e+000 95313 -4.6655e+001 -2.4821e+002  5.7751e+000 40187 95013,95195,95169
 4.8000e+000 95290 -3.3550e+001 -2.7038e+002 -2.9275e+001 40187 95039,95143,95065
 4.8000e+000 95267 -1.5377e+002 -3.1781e+002 -4.6249e+001 40187 95039,95169,95143
 4.8000e+000 95244 -6.8463e+001 -2.4446e+002 -2.5662e+001 40187 95091,95143,95117
 4.8000e+000 95221 -1.8664e+001 -1.5005e+002 -7.6616e+000 40187 95065,95143,95091
 4.8000e+000 95665 -7.6551e+001 -2.0945e+002  9.0517e+001 39626 95466,95570,95544
 4.8000e+000 95642 -1.4335e+002 -1.6873e+002  5.8727e+001 39626 95440,95570,95466
 4.8000e+000 95619 -2.2074e+002 -2.7712e+002  5.8648e+001 39626 95466,95544,95492
 4.8000e+000 95596 -4.6255e+001 -2.1509e+002  8.9406e+001 39626 95492,95544,95518
 4.8000e+000 95913 -1.1729e+002 -2.5489e+002 -3.7583e+001 39136 96080,95936,95766
 4.8000e+000 95890 -8.0329e+001 -2.7354e+002 -2.3270e+001 39136 95936,95714,95688
 4.8000e+000 95867 -2.0411e+002 -2.7318e+002  1.0390e+001 39136 96008,95792,95766
 4.8000e+000 95844 -9.6534e+001 -2.4743e+002 -2.8194e+001 39136 96080,95766,95740
 4.8000e+000 95962 -1.6203e+002 -2.8272e+002 -2.4496e+001 39136 96008,95766,95936
 4.8000e+000 95985 -1.0536e+002 -3.3358e+002 -5.9643e+000 39136 95818,95936,95688
 4.8000e+000 96034 -1.0246e+002 -2.2901e+002  1.6495e+001 39136 95818,95792,96008
 4.8000e+000 96057 -9.1343e+001 -2.5085e+002 -1.7777e+001 39136 95818,96008,95936
 4.8000e+000 96106 -1.0690e+002 -2.5171e+002 -9.9853e+000 39136 95714,95936,96080
 4.8000e+000 96129 -7.4649e+001 -2.4299e+002 -2.6376e+000 39136 95714,96080,95740
 4.8000e+000 96350 -8.4950e+001 -2.1562e+002 -1.2530e+001 38824 96200,96278,96252
 4.8000e+000 96327 -7.2391e+001 -2.0934e+002 -1.0453e+001 38824 96174,96278,96200
 4.8000e+000 96304 -1.7111e+001 -1.9023e+002 -3.7123e+001 38824 96200,96252,96226
 4.8000e+000 96830 -1.2301e+002 -2.2437e+002 -1.6698e+001 38320 97069,96536,96484
 4.8000e+000 96807 -1.2089e+002 -2.2729e+002 -1.6554e+001 38320 97069,96484,96853
 4.8000e+000 96784 -1.3700e+002 -2.4462e+002  3.1606e+000 38320 96853,96484,96458
 4.8000e+000 96761 -7.6105e+001 -1.9709e+002 -2.4103e+001 38320 96925,96640,96614
 4.8000e+000 96738 -1.1829e+002 -2.0522e+002 -1.1665e+001 38320 96997,96666,96640
 4.8000e+000 96715 -1.0040e+002 -2.6607e+002 -7.6813e+000 38320 97141,96588,96562
 4.8000e+000 96692 -1.5518e+002 -2.6075e+002 -2.4656e+000 38320 96484,96536,96510
 4.8000e+000 96879 -1.2190e+002 -2.4122e+002 -1.0544e+001 38320 97141,96562,96853
 4.8000e+000 96902 -1.1321e+002 -2.3410e+002 -9.2823e+000 38320 96925,96614,96853
 4.8000e+000 96951 -1.1563e+002 -2.0334e+002 -1.2801e+001 38320 96997,96640,96925
 4.8000e+000 96974 -1.1049e+002 -1.9978e+002 -8.1605e+000 38320 96458,96925,96853
 4.8000e+000 97023 -1.3002e+002 -2.0712e+002 -5.4319e+000 38320 96458,96666,96997
 4.8000e+000 97046 -1.2048e+002 -2.0260e+002 -6.6900e+000 38320 96458,96997,96925
 4.8000e+000 97095 -1.2635e+002 -2.1660e+002 -4.4175e+000 38320 96562,96536,97069
 4.8000e+000 97118 -1.1605e+002 -2.2531e+002 -1.4524e+001 38320 96562,97069,96853
 4.8000e+000 97167 -6.3117e+001 -2.4295e+002 -1.8218e+001 38320 96614,96588,97141
 4.8000e+000 97190 -9.8446e+001 -2.2808e+002 -1.8033e+001 38320 96614,97141,96853
 4.8000e+000 97519 -9.7149e+001 -2.9458e+002  7.9260e+001 37766 97542,97398,97372
 4.8000e+000 97496 -1.1669e+002 -2.3206e+002  5.5234e+001 37766 97542,97372,97346
 4.8000e+000 97473 -1.1621e+002 -2.4211e+002  5.4126e+000 37766 97294,97424,97346
 4.8000e+000 97450 -1.2892e+002 -2.8230e+002 -6.3172e-001 37766 97294,97346,97320
 4.8000e+000 97568 -5.0380e+001 -3.0811e+002  2.7779e+001 37766 97424,97398,97542
 4.8000e+000 97591 -8.1454e+001 -2.3671e+002  7.8330e+000 37766 97424,97542,97346
 4.8000e+000 98048 -1.2297e+002 -1.7967e+002 -5.6209e+001 37262 98071,97878,97852
 4.8000e+000 98025 -1.0517e+002 -2.1393e+002 -2.2979e+001 37262 98071,97852,97800
 4.8000e+000 98002 -1.1565e+002 -2.5471e+002 -2.5125e+001 37262 97800,97852,97826
 4.8000e+000 97979 -1.1935e+002 -2.3078e+002  6.3343e+000 37262 97800,97930,97904
 4.8000e+000 97956 -8.1106e+001 -2.7739e+002  1.7732e+001 37262 97774,97930,97800
 4.8000e+000 98097 -1.7155e+002 -2.0355e+002 -3.9161e+001 37262 97904,97878,98071
 4.8000e+000 98120 -1.3215e+002 -2.4254e+002 -9.2064e+000 37262 97904,98071,97800
 4.8000e+000 98449 -6.6136e+001 -1.7951e+002 -2.1315e+001 36950 98472,98302,98250
 4.8000e+000 98426 -3.9876e+001 -1.7167e+002 -2.6039e+001 36950 98472,98250,98354
 4.8000e+000 98403 -1.0164e+002 -1.9841e+002  2.2724e+001 36950 98250,98302,98276
 4.8000e+000 98380 -2.5486e+001 -1.3626e+002  1.3551e+001 36950 98224,98354,98250
 4.8000e+000 98498 -4.6760e+001 -2.0013e+002 -5.9100e+000 36950 98328,98302,98472
 4.8000e+000 98521 -1.6250e+001 -1.8843e+002 -1.5023e+001 36950 98328,98472,98354
 4.8000e+000 99125 -1.3574e+002 -1.3037e+002  1.4881e+001 36296 98704,98756,98730
 4.8000e+000 99102 -1.3107e+002 -1.4752e+002  1.3947e+001 36296 98704,98938,98756
 4.8000e+000 99079 -9.6506e+001 -1.8467e+002 -4.4162e+000 36296 99148,98938,98912
 4.8000e+000 99056 -1.0220e+002 -1.8981e+002  4.3785e+001 36296 99292,99220,98782
 4.8000e+000 99033 -8.4483e+001 -2.1175e+002  4.8158e+000 36296 99148,98912,98834
 4.8000e+000 99010 -9.6805e+001 -1.6068e+002  4.8405e+001 36296 99292,98782,98756
 4.8000e+000 98987 -8.0310e+001 -3.7305e+002 -6.9391e+001 36296 98834,98912,98886
 4.8000e+000 98964 -1.3622e+002 -5.4275e+002 -8.8404e+001 36296 98834,98886,98860
 4.8000e+000 99174 -1.1842e+002 -2.2716e+002  6.6837e+000 36296 99220,98938,99148
 4.8000e+000 99197 -8.2324e+001 -2.5846e+002  2.7655e+001 36296 98808,99148,98834
 4.8000e+000 99246 -1.0027e+002 -1.8454e+002  1.0505e+002 36296 98808,98782,99220
 4.8000e+000 99269 -4.1147e+001 -1.6434e+002  3.4617e+001 36296 98808,99220,99148
 4.8000e+000 99318 -1.0965e+002 -1.6163e+002  2.3994e+001 36296 98938,99220,99292
 4.8000e+000 99341 -1.1209e+002 -1.6607e+002  2.8557e+001 36296 98938,99292,98756
 4.8000e+000 99719 -1.4126e+002 -2.9308e+002  6.9487e-001 35742 99742,99471,99601
 4.8000e+000 99696 -1.4484e+002 -2.3237e+002  2.7886e+001 35742 99445,99601,99471
 4.8000e+000 99673 -1.3516e+002 -2.7917e+002 -1.2111e+001 35742 99742,99601,99575
 4.8000e+000 99650 -1.1771e+002 -3.4155e+002 -9.5790e+000 35742 99814,99549,99523
 4.8000e+000 99627 -9.4785e+001 -2.6714e+002 -1.6053e+000 35742 99471,99523,99497
 4.8000e+000 99768 -1.1318e+002 -2.8643e+002  6.1833e+000 35742 99523,99471,99742
 4.8000e+000 99791 -1.3277e+002 -3.1643e+002 -8.3193e+000 35742 99814,99523,99742
 4.8000e+000 99840 -1.1529e+002 -3.1040e+002 -1.9164e+001 35742 99575,99549,99814
 4.8000e+000 99863 -1.2498e+002 -2.7776e+002 -1.7090e+001 35742 99575,99814,99742
 4.8000e+000 100111 -1.0679e+002 -2.3688e+002  1.6790e+001 35302 100134,99990,99938
 4.8000e+000 100088 -8.9364e+001 -2.1645e+002  5.6477e+000 35302 100134,99938,99912
 4.8000e+000 100065 -8.9643e+001 -2.1632e+002 -5.4276e+000 35302 100206,99886,100016
 4.8000e+000 100042 -1.3828e+002 -2.2029e+002  1.0549e+001 35302 99938,99990,99964
 4.8000e+000 100160 -8.4050e+001 -2.2826e+002  3.9463e+000 35302 100016,99990,100134
 4.8000e+000 100183 -8.5663e+001 -2.1963e+002 -5.3174e+000 35302 100206,100016,100134
 4.8000e+000 100232 -9.3106e+001 -2.2026e+002 -2.9923e+000 35302 99912,99886,100206
 4.8000e+000 100255 -8.9372e+001 -2.2440e+002 -3.0051e+000 35302 99912,100206,100134
 4.8000e+000 100586 -1.2988e+002 -1.4993e+002  3.7510e+001 35012 100609,100387,100361
 4.8000e+000 100563 -1.5670e+002 -1.1343e+002 -2.8944e+001 35012 100609,100361,100465
 4.8000e+000 100540 -7.3700e+001 -8.1632e+001 -6.5593e+001 35012 100361,100491,100465
 4.8000e+000 100517 -2.9891e+001 -9.3753e+001 -6.1999e+001 35012 100413,100465,100439
 4.8000e+000 100635 -6.2019e+001 -1.2022e+002  1.5816e+001 35012 100413,100387,100609
 4.8000e+000 100658 -8.6868e+001 -7.4528e+001 -5.2402e+001 35012 100413,100609,100465
 4.8000e+000 100987 -1.0817e+002 -2.4212e+002  2.1049e+001 34700 100788,100866,100814
 4.8000e+000 100964 -8.6917e+001 -1.9205e+002  3.5947e+001 34700 101010,100866,100788
 4.8000e+000 100941 -6.1013e+001 -1.4231e+002  3.8168e+001 34700 100762,100892,100866
 4.8000e+000 100918 -1.0052e+002 -2.2178e+002  1.3104e+001 34700 100814,100866,100840
 4.8000e+000 101036 -5.9243e+001 -1.6914e+002  5.8159e+001 34700 100762,100866,101010
 4.8000e+000 101493 -1.4573e+002 -2.7345e+002 -2.4246e+001 34132 101516,101349,101297
 4.8000e+000 101470 -1.7324e+002 -3.2719e+002 -3.8509e+001 34132 101588,101516,101297
 4.8000e+000 101447 -1.7407e+002 -3.4469e+002 -5.6545e+001 34132 101588,101297,101245
 4.8000e+000 101424 -1.0668e+002 -4.0081e+002 -5.3306e+001 34132 101245,101297,101271
 4.8000e+000 101401 -1.6536e+002 -2.7532e+002 -3.0998e+001 34132 101297,101349,101323
 4.8000e+000 101542 -1.5195e+002 -3.1542e+002 -1.9031e+001 34132 101375,101349,101516
 4.8000e+000 101565 -1.3548e+002 -3.1346e+002 -1.9626e+001 34132 101375,101516,101219
 4.8000e+000 101614 -1.3880e+002 -3.2895e+002 -1.9945e+001 34132 101219,101516,101588
 4.8000e+000 101637 -1.5632e+002 -3.4593e+002 -3.7122e+001 34132 101219,101588,101245
 4.8000e+000 101858 -5.1967e+001 -2.2374e+002  2.2857e+001 33720 101708,101786,101760
 4.8000e+000 101835 -3.3676e+001 -2.4569e+002  3.5006e+001 33720 101682,101786,101708
 4.8000e+000 101812 -7.9663e+001 -2.3804e+002  1.6114e+001 33720 101708,101760,101734
 4.8000e+000 102128 -3.3470e+001 -2.8541e+002 -7.7567e+000 33130 101903,102007,101929
 4.8000e+000 102105 -4.0828e+001 -3.2995e+002  1.0648e+001 33130 101903,102033,102007
 4.8000e+000 102082 -1.8657e+001 -3.4131e+002 -6.6723e+001 33130 101929,102007,101955
 4.8000e+000 102059 -5.2044e+001 -2.4182e+002  5.5247e+000 33130 101955,102007,101981
 4.8000e+000 102461 -9.2514e+001 -2.1991e+002 -2.0364e+001 32840 102236,102340,102262
 4.8000e+000 102438 -8.0166e+001 -1.5797e+002  4.4457e+000 32840 102236,102366,102340
 4.8000e+000 102415 -5.6336e+001 -2.1103e+002 -1.6791e+001 32840 102262,102340,102288
 4.8000e+000 102392 -1.1154e+002 -2.2361e+002 -4.5829e+001 32840 102288,102340,102314
 4.8000e+000 102997 -9.4370e+001 -1.6160e+002  4.5780e+001 32493 102749,102879,102853
 4.8000e+000 102974 -7.6737e+001 -1.2736e+002  3.2755e+001 32493 102723,102879,102749
 4.8000e+000 102951 -1.0919e+002 -1.9699e+002  3.1107e+001 32493 102749,102801,102775
 4.8000e+000 102928 -1.1794e+002 -1.9528e+002  2.9625e+001 32493 102749,102853,102801
 4.8000e+000 102905 -1.1139e+002 -1.8535e+002  2.4088e+001 32493 102801,102853,102827
 4.8000e+000 103454 -1.0034e+002 -1.7989e+002 -1.8965e+001 32089 103206,103336,103310
 4.8000e+000 103431 -7.9855e+001 -1.9486e+002 -2.0727e+000 32089 103180,103336,103206
 4.8000e+000 103408 -1.1180e+002 -2.0719e+002 -3.6575e+001 32089 103206,103284,103258
 4.8000e+000 103385 -1.5594e+002 -2.1590e+002 -4.0990e+001 32089 103206,103310,103284
 4.8000e+000 103362 -8.7554e+001 -1.4541e+002 -2.3964e+001 32089 103206,103258,103232
 4.8000e+000 103783 -1.7955e+002 -2.3352e+002 -2.5779e+001 31742 103558,103662,103584
 4.8000e+000 103760 -1.4840e+002 -1.8728e+002 -6.0913e+001 31742 103558,103688,103662
 4.8000e+000 103737 -1.2113e+002 -1.8955e+002 -4.6917e+001 31742 103584,103662,103636
 4.8000e+000 103714 -1.1348e+002 -2.1642e+002 -5.2597e+001 31742 103584,103636,103610
 4.8000e+000 104112 -3.3598e+001 -1.8564e+002  2.8801e+001 31402 103939,103991,103965
 4.8000e+000 104089 -5.7374e+001 -1.6130e+002  1.4568e+001 31402 103913,103991,103939
 4.8000e+000 104066 -7.8941e+001 -1.8370e+002  2.2274e+000 31402 103913,104017,103991
 4.8000e+000 104043 -9.5484e+001 -1.6976e+002 -9.3084e+000 31402 103887,104017,103913
 4.8000e+000 104569 -1.6466e+002 -2.9343e+002  7.2865e+000 30998 104321,104425,104373
 4.8000e+000 104546 -1.8704e+002 -3.0040e+002  4.2918e+000 30998 104321,104451,104425
 4.8000e+000 104523 -1.2317e+002 -2.4469e+002  3.2937e+001 30998 104373,104425,104399
 4.8000e+000 104500 -1.5143e+002 -3.4460e+002 -1.7337e+001 30998 104295,104451,104321
 4.8000e+000 104477 -2.2116e+002 -3.4760e+002  6.2005e+001 30998 104321,104373,104347
 4.8000e+000 104947 -1.4994e+002 -2.5740e+002 -2.9228e+001 30608 104751,104803,104777
 4.8000e+000 104924 -1.0012e+002 -2.6581e+002 -1.0645e+001 30608 104725,104803,104751
 4.8000e+000 104901 -1.5947e+002 -2.5770e+002  1.7752e+001 30608 104699,104803,104725
 4.8000e+000 104878 -1.3740e+002 -2.4827e+002  1.6321e+001 30608 104673,104803,104699
 4.8000e+000 104855 -1.0544e+002 -2.3785e+002 -9.4983e+000 30608 104673,104829,104803
 4.8000e+000 105276 -1.0421e+002 -2.4018e+002  1.3069e+001 30204 105427,105129,105077
 4.8000e+000 105253 -7.3092e+001 -2.5948e+002  5.2545e+001 30204 105427,105077,105051
 4.8000e+000 105230 -8.9857e+001 -2.3113e+002  1.6927e+001 30204 105077,105129,105103
 4.8000e+000 105207 -6.4786e+001 -2.1550e+002  3.3869e+001 30204 105299,105181,105155
 4.8000e+000 105325 -6.8997e+001 -2.1168e+002  1.2806e+001 30204 105129,105181,105299
 4.8000e+000 105453 -1.2379e+002 -2.5339e+002  3.1445e+001 30204 105181,105129,105427
 4.8000e+000 105476 -1.4281e+002 -2.9565e+002  7.6207e+001 30204 105181,105427,105051
 4.8000e+000 105903 -8.7289e+001 -2.0679e+002 -1.6200e+001 29700 105606,105762,105736
 4.8000e+000 105880 -1.1273e+002 -2.1229e+002  4.2204e-001 29700 105580,105762,105606
 4.8000e+000 105857 -1.3310e+002 -2.6101e+002 -1.5568e+001 29700 105606,105710,105632
 4.8000e+000 105834 -1.1098e+002 -2.1872e+002 -7.4517e+000 29700 105606,105736,105710
 4.8000e+000 105811 -1.2548e+002 -2.3761e+002 -1.7863e+001 29700 105632,105710,105684
 4.8000e+000 105788 -1.1902e+002 -2.2211e+002 -1.0526e+001 29700 105632,105684,105658
 4.8000e+000 106102 -3.4702e+001 -2.4690e+002  1.1708e+001 29124 105978,106030,106004
 4.8000e+000 106079 -6.1646e+001 -2.4204e+002  1.2590e+001 29124 105926,106030,105978
 4.8000e+000 106056 -6.8327e+001 -2.7384e+002  3.5403e+001 29124 105926,105978,105952
 4.8000e+000 106301 -6.8956e+001 -2.5333e+002  1.0758e+000 28712 106151,106229,106203
 4.8000e+000 106278 -8.2248e+001 -2.8051e+002 -1.2797e+001 28712 106125,106229,106151
 4.8000e+000 106255 -7.1935e+001 -2.6654e+002  1.3961e+001 28712 106151,106203,106177
 4.8000e+000 106551 -9.0447e+001 -3.1765e+002  1.4254e+001 28258 106352,106404,106378
 4.8000e+000 106528 -1.2375e+002 -3.2081e+002  1.7650e+000 28258 106352,106456,106404
 4.8000e+000 106505 -1.2290e+002 -3.3067e+002 -2.0855e+000 28258 106326,106456,106352
 4.8000e+000 106482 -1.1183e+002 -3.0241e+002 -5.7046e+000 28258 106404,106456,106430
 4.8000e+000 107012 -1.0493e+002 -2.7009e+002  5.4314e+001 27818 107035,106790,106764
 4.8000e+000 106989 -9.1030e+001 -2.5611e+002  2.0273e+001 27818 107035,106764,106868
 4.8000e+000 106966 -6.3905e+001 -3.0699e+002  2.9707e+001 27818 107107,106842,106816
 4.8000e+000 106943 -1.3913e+002 -2.3904e+002  1.1547e+001 27818 106738,106868,106764
 4.8000e+000 106920 -1.3197e+002 -2.1384e+002  2.5685e+001 27818 106738,106894,106868
 4.8000e+000 107061 -4.4711e+001 -2.5762e+002  6.1518e+001 27818 106816,106790,107035
 4.8000e+000 107084 -7.9891e+001 -2.8707e+002  3.1268e+001 27818 107107,106816,107035
 4.8000e+000 107133 -6.1291e+001 -2.7789e+002  1.5558e+001 27818 106868,106842,107107
 4.8000e+000 107156 -7.1468e+001 -2.4800e+002  2.0841e+001 27818 106868,107107,107035
 4.8000e+000 107613 -3.3082e+001 -2.0357e+002  4.4363e+001 27312 107339,107469,107365
 4.8000e+000 107590 -4.0736e+000 -1.8614e+002  3.7034e+001 27312 107339,107495,107469
 4.8000e+000 107567 -3.4369e+001 -1.9721e+002  2.1195e+001 27312 107391,107469,107443
 4.8000e+000 107544 -3.3170e+001 -2.1224e+002  1.8144e+001 27312 107365,107469,107391
 4.8000e+000 107521 -9.3750e+001 -2.1653e+002  9.0664e+000 27312 107391,107443,107417
 4.8000e+000 107991 -1.0765e+002 -3.0425e+002  1.2549e+001 26858 108086,108014,107795
 4.8000e+000 107968 -1.1810e+002 -3.1241e+002 -1.4795e+001 26858 108014,107717,107873
 4.8000e+000 107945 -1.2115e+002 -3.1873e+002  2.0988e+001 26858 108158,108086,107795
 4.8000e+000 107922 -9.7249e+001 -3.2024e+002  2.0498e+001 26858 108158,107795,107769
 4.8000e+000 107899 -9.0474e+001 -3.8001e+002  5.2551e+001 26858 107821,107873,107847
 4.8000e+000 108040 -1.1368e+002 -3.4493e+002  1.8129e+001 26858 107821,107795,108014
 4.8000e+000 108063 -7.1107e+001 -3.2557e+002  2.0113e+000 26858 107821,108014,107873
 4.8000e+000 108112 -1.4355e+002 -3.1890e+002  1.4447e+001 26858 107717,108014,108086
 4.8000e+000 108135 -1.2061e+002 -3.2349e+002  3.2521e+001 26858 107717,108086,107743
 4.8000e+000 108184 -9.3893e+001 -3.1139e+002  2.9726e+001 26858 107743,108086,108158
 4.8000e+000 108207 -8.2612e+001 -3.2194e+002  2.9992e+001 26858 107743,108158,107769
 4.8000e+000 108634 -1.4016e+002 -2.8985e+002  5.8713e+000 26404 108657,108415,108363
 4.8000e+000 108611 -1.5684e+002 -3.1114e+002  3.2723e+001 26404 108657,108363,108337
 4.8000e+000 108588 -1.3691e+002 -2.9466e+002  3.2460e+001 26404 108729,108311,108467
 4.8000e+000 108565 -1.4973e+002 -3.4328e+002  4.8048e+000 26404 108801,108441,108415
 4.8000e+000 108542 -2.0711e+002 -3.2667e+002  4.0612e+001 26404 108311,108493,108467
 4.8000e+000 108519 -9.7995e+001 -2.8995e+002  6.1997e+000 26404 108363,108415,108389
 4.8000e+000 108683 -1.8470e+002 -3.0832e+002  9.3367e+000 26404 108801,108415,108657
 4.8000e+000 108706 -1.7602e+002 -3.0567e+002  2.5699e+001 26404 108729,108467,108657
 4.8000e+000 108755 -1.1152e+002 -3.1115e+002  3.2391e+001 26404 108337,108311,108729
 4.8000e+000 108778 -1.3151e+002 -3.0836e+002  2.5012e+001 26404 108337,108729,108657
 4.8000e+000 108827 -1.8389e+002 -4.1313e+002 -1.5530e+001 26404 108467,108441,108801
 4.8000e+000 108850 -2.0236e+002 -3.5282e+002 -1.0721e+001 26404 108467,108801,108657
 4.8000e+000 109228 -1.4053e+002 -3.0108e+002 -1.4144e+001 26064 109006,109084,109058
 4.8000e+000 109205 -1.2535e+002 -2.8133e+002  5.6323e+000 26064 108980,109084,109006
 4.8000e+000 109182 -1.3629e+002 -2.6952e+002 -9.3433e+000 26064 108980,109110,109084
 4.8000e+000 109159 -1.3494e+002 -3.1634e+002 -2.1523e+000 26064 109006,109058,109032
 4.8000e+000 109136 -4.6372e+001 -2.4074e+002  9.4472e+000 26064 108954,109110,108980
 4.8000e+000 109427 -3.5539e+001 -2.5714e+002 -5.2076e+001 25660 109303,109355,109329
 4.8000e+000 109404 -7.1577e+001 -3.2942e+002 -1.2580e+001 25660 109277,109355,109303
 4.8000e+000 109381 -4.4119e+001 -3.1125e+002 -4.5848e+000 25660 109251,109355,109277
 4.8000e+000 109577 -5.0729e+001 -1.2506e+002  4.4209e+001 25306 109476,109528,109502
 4.8000e+000 109554  1.3868e+001 -1.0917e+002  3.0940e+001 25306 109450,109528,109476
 4.8000e+000 109778 -9.9014e+001 -2.7296e+002  7.8814e+000 24944 109628,109706,109654
 4.8000e+000 109755 -1.0699e+002 -2.6737e+002  1.2798e+000 24944 109602,109706,109628
 4.8000e+000 109732 -8.7410e+001 -2.5662e+002 -2.1667e+000 24944 109654,109706,109680
 4.8000e+000 110126 -9.2713e+001 -3.5006e+002  1.0972e+001 24440 110149,109907,109855
 4.8000e+000 110103 -8.7616e+001 -3.6885e+002  2.1822e+001 24440 110149,109855,109985
 4.8000e+000 110080 -7.3803e+001 -3.0349e+002  6.7027e+000 24440 109855,109907,109881
 4.8000e+000 110057 -7.6425e+001 -2.8776e+002  9.5833e+001 24440 109829,109985,109855
 4.8000e+000 110034 -8.4379e+001 -3.5019e+002  1.9494e+000 24440 109907,109959,109933
 4.8000e+000 110011 -4.1720e+001 -2.9501e+002  7.0723e+000 24440 109803,109985,109829
 4.8000e+000 110175 -8.8896e+001 -3.3409e+002  8.1947e+000 24440 109959,109907,110149
 4.8000e+000 110198 -8.3615e+001 -3.4995e+002  2.0971e+001 24440 109959,110149,109985
 4.8000e+000 110301 -1.0013e+001 -1.8880e+002  1.8526e+000 24028 110223,110275,110249
 4.8000e+000 110573 -4.3241e+001 -2.0752e+002  1.6439e+001 23467 110400,110452,110426
 4.8000e+000 110550 -7.3111e+001 -2.4517e+002  6.6405e-001 23467 110374,110452,110400
 4.8000e+000 110527 -7.6055e+001 -2.4636e+002  4.1237e+000 23467 110348,110452,110374
 4.8000e+000 110504 -5.5086e+001 -2.3709e+002 -1.7877e+000 23467 110348,110478,110452
 4.8000e+000 111004 -1.6440e+002 -3.5800e+002 -3.7209e+001 22963 111027,110733,110707
 4.8000e+000 110981 -1.6130e+002 -3.3927e+002  1.6652e+001 22963 111027,110707,110681
 4.8000e+000 110958 -7.9065e+001 -3.0056e+002 -3.6558e+001 22963 111099,110759,110733
 4.8000e+000 110935 -1.0422e+002 -2.9327e+002 -2.4500e+001 22963 111171,110863,110811
 4.8000e+000 110912 -5.0797e+001 -2.1734e+002 -4.0429e+001 22963 110759,110811,110785
 4.8000e+000 110889 -1.1490e+002 -3.1215e+002 -1.9832e+001 22963 110811,110863,110837
 4.8000e+000 111053 -1.1605e+002 -3.2638e+002 -2.2517e+001 22963 111099,110733,111027
 4.8000e+000 111076 -9.7700e+001 -3.1833e+002 -1.9950e+001 22963 111171,110811,111027
 4.8000e+000 111125 -7.7316e+001 -2.9478e+002 -5.6316e+001 22963 110811,110759,111099
 4.8000e+000 111148 -8.3120e+001 -2.9132e+002 -4.7690e+001 22963 110811,111099,111027
 4.8000e+000 111197 -1.0505e+002 -2.5315e+002 -3.0640e+001 22963 110681,110863,111171
 4.8000e+000 111220 -1.0858e+002 -2.8276e+002 -1.4917e+001 22963 110681,111171,111027
 4.8000e+000 111726 -1.5937e+002 -3.1142e+002  7.3070e+000 22459 111749,111507,111429
 4.8000e+000 111703 -1.4750e+002 -3.0795e+002 -6.5551e+000 22459 111749,111429,111585
 4.8000e+000 111680 -1.2584e+002 -3.4350e+002 -3.9681e+000 22459 111403,111585,111429
 4.8000e+000 111657 -1.5240e+002 -3.4128e+002  1.4348e+001 22459 111507,111559,111533
 4.8000e+000 111634 -2.0781e+002 -2.9787e+002  1.9562e+001 22459 111455,111507,111481
 4.8000e+000 111611 -2.2010e+002 -2.9889e+002  2.7710e+001 22459 111429,111507,111455
 4.8000e+000 111775 -1.6043e+002 -3.3239e+002  1.8739e+001 22459 111559,111507,111749
 4.8000e+000 111798 -1.4758e+002 -3.1788e+002  5.2724e+000 22459 111559,111749,111585
 4.8000e+000 112046 -7.1262e+001 -2.6366e+002 -3.5176e+001 21898 112069,111925,111873
 4.8000e+000 112023 -6.8482e+001 -2.6584e+002 -8.8310e+000 21898 112069,111873,111847
 4.8000e+000 112000 -9.2302e+001 -2.7436e+002 -1.5211e+001 21898 111821,111951,111847
 4.8000e+000 111977 -8.0385e+001 -2.0696e+002 -2.2670e+001 21898 111873,111925,111899
 4.8000e+000 112095 -1.0860e+002 -2.7748e+002 -4.0177e+001 21898 111951,111925,112069
 4.8000e+000 112118 -9.0265e+001 -2.7363e+002 -1.4870e+001 21898 111951,112069,111847
 4.8000e+000 112498 -1.2247e+002 -2.8835e+002 -2.4625e+001 21608 112521,112276,112224
 4.8000e+000 112475 -8.0233e+001 -2.9102e+002 -1.5961e+000 21608 112521,112224,112380
 4.8000e+000 112452 -8.6412e+001 -3.3921e+002  1.9879e+001 21608 112302,112380,112354
 4.8000e+000 112429 -1.4568e+002 -3.3052e+002 -1.4700e+001 21608 112224,112276,112250
 4.8000e+000 112406  4.9930e+001 -3.5856e+002 -1.2220e+001 21608 112302,112354,112328
 4.8000e+000 112547 -8.8224e+001 -2.5395e+002 -4.3392e+000 21608 112302,112276,112521
 4.8000e+000 112570 -5.8922e+001 -2.8241e+002  1.1383e+001 21608 112302,112521,112380
 4.8000e+000 112948 -1.4169e+002 -2.9837e+002 -5.0864e+000 20882 112971,112752,112700
 4.8000e+000 112925 -1.0979e+002 -2.8758e+002 -1.1391e+001 20882 112971,112700,112830
 4.8000e+000 112902 -1.7915e+002 -3.2292e+002  1.9480e+001 20882 112778,112830,112804
 4.8000e+000 112879 -1.0196e+002 -2.3382e+002 -1.6081e+001 20882 112674,112830,112700
 4.8000e+000 112856 -1.7259e+002 -3.1105e+002  5.6848e+000 20882 112700,112752,112726
 4.8000e+000 112997 -1.4260e+002 -2.9814e+002  1.2581e+001 20882 112778,112752,112971
 4.8000e+000 113020 -1.2438e+002 -2.9288e+002  5.5650e+000 20882 112778,112971,112830
 4.8000e+000 113526 -1.0201e+002 -2.9855e+002  2.4028e+000 20428 113255,113385,113333
 4.8000e+000 113503 -1.1139e+002 -3.2733e+002  2.3436e+000 20428 113229,113385,113255
 4.8000e+000 113480 -1.3995e+001 -2.9302e+002  3.1680e+000 20428 113255,113333,113281
 4.8000e+000 113457 -9.5086e+001 -3.2010e+002  5.1590e+000 20428 113203,113385,113229
 4.8000e+000 113434 -5.2687e+001 -3.0565e+002 -9.3926e+000 20428 113281,113333,113307
 4.8000e+000 113411 -1.2636e+002 -2.9464e+002  8.4993e+000 20428 113333,113385,113359
 4.8000e+000 113774 -1.7289e+001 -2.8793e+002  1.1543e+001 19917 113797,113601,113549
 4.8000e+000 113751 -4.7859e+001 -2.9380e+002  1.5330e+001 19917 113869,113797,113549
 4.8000e+000 113728 -4.5716e+001 -2.9741e+002  2.9233e+001 19917 113869,113549,113679
 4.8000e+000 113705 -2.6259e+001 -2.8506e+002  2.3811e+001 19917 113549,113601,113575
 4.8000e+000 113823 -4.8682e+001 -3.4986e+002 -1.1457e+000 19917 113627,113601,113797
 4.8000e+000 113846 -1.8523e+001 -2.7408e+002 -7.1491e+000 19917 113627,113797,113653
 4.8000e+000 113895 -4.0879e+001 -2.6045e+002  4.5187e+000 19917 113653,113797,113869
 4.8000e+000 113918 -5.2383e+001 -2.6945e+002  2.2250e+001 19917 113653,113869,113679
 4.8000e+000 114166 -1.3270e+002 -3.0089e+002 -5.0750e+000 19413 113993,114045,114019
 4.8000e+000 114143 -1.2421e+002 -2.7964e+002  2.2592e+000 19413 113967,114045,113993
 4.8000e+000 114120 -1.0457e+002 -2.7286e+002  1.5856e+001 19413 113967,114071,114045
 4.8000e+000 114097 -8.4256e+001 -3.0847e+002 -4.5925e+000 19413 113941,114071,113967
 4.8000e+000 114438 -1.2366e+002 -3.2722e+002  3.0203e+000 19001 114213,114265,114239
 4.8000e+000 114415 -8.9030e+001 -2.5471e+002 -7.5961e+000 19001 114213,114343,114265
 4.8000e+000 114392 -1.3207e+002 -3.5122e+002 -1.5963e+001 19001 114265,114343,114317
 4.8000e+000 114369  2.4702e+001 -2.8352e+002 -6.2193e+000 19001 114265,114317,114291
 4.8000e+000 114639 -9.3921e+001 -3.8988e+002  1.8907e+001 18554 114489,114541,114515
 4.8000e+000 114616 -8.1974e+001 -3.3776e+002  3.1868e+000 18554 114489,114567,114541
 4.8000e+000 114593 -1.7641e+002 -3.8648e+002 -2.5608e+001 18554 114463,114567,114489
 4.8000e+000 115043 -6.4140e+001 -2.9151e+002  1.0531e+001 18164 114795,114925,114821
 4.8000e+000 115020 -5.6437e+001 -3.0782e+002  1.7132e+001 18164 114769,114925,114795
 4.8000e+000 114997 -3.5086e+001 -3.0678e+002 -2.5754e+000 18164 115066,114873,114821
 4.8000e+000 114974 -3.2761e+001 -2.6312e+002 -1.0427e+001 18164 115066,114821,114925
 4.8000e+000 114951  2.0166e+001 -3.0739e+002 -2.9978e+001 18164 114821,114873,114847
 4.8000e+000 115092 -5.0747e+001 -2.7523e+002 -2.5525e+001 18164 114899,114873,115066
 4.8000e+000 115115 -3.0517e+001 -2.0849e+002 -3.5497e+001 18164 114899,115066,114925
 4.8000e+000 115265 -8.2656e+001 -3.2481e+002  3.0395e+000 17852 115164,115216,115190
 4.8000e+000 115242 -9.0074e+001 -3.3994e+002 -4.3628e-001 17852 115138,115216,115164
 4.8000e+000 115464 -2.0268e+002 -4.5717e+002  6.0558e+000 17346 115288,115366,115340
 4.8000e+000 115441 -3.1175e+002 -3.5449e+002 -1.3857e+001 17346 115288,115392,115366
 4.8000e+000 115418 -1.8256e+002 -5.1272e+002 -1.5947e+001 17346 115288,115340,115314
 4.8000e+000 115736 -7.8022e+001 -2.9151e+002  1.2682e+001 16942 115563,115641,115615
 4.8000e+000 115713 -8.7761e+001 -2.9039e+002  4.2053e+000 16942 115511,115641,115563
 4.8000e+000 115690 -2.0409e+002 -3.4031e+002  1.8522e+001 16942 115563,115615,115589
 4.8000e+000 115667 -1.0347e+002 -3.1534e+002  1.0895e+001 16942 115511,115563,115537
 4.8000e+000 116091 -1.4987e+002 -3.5009e+002 -1.3389e+001 16388 115918,115970,115944
 4.8000e+000 116068 -1.2823e+002 -2.8021e+002 -8.7701e+000 16388 115918,115996,115970
 4.8000e+000 116045 -1.7322e+002 -3.5550e+002  1.1901e+001 16388 115892,115996,115918
 4.8000e+000 116022 -1.1260e+002 -3.2334e+002  4.0245e+001 16388 115866,115996,115892
 4.8000e+000 116192 -4.6968e+001 -3.6789e+002 -5.2738e+001 15810 116114,116166,116140
 4.8000e+000 116342 -1.3754e+002 -4.4275e+002  2.4154e+001 15419 116241,116293,116267
 4.8000e+000 116319 -1.9612e+002 -5.4288e+002 -1.5512e+001 15419 116215,116293,116241
 4.8000e+000 116445 -1.4769e+002 -3.0053e+002  2.1796e+000 421 116367,116419,116393
 4.9000e+000 68477 -1.9392e+002 -2.8675e+002  9.6441e-001 68018 68327,68379,68353
 4.9000e+000 68454 -2.0639e+002 -3.8008e+002  2.7850e+001 68018 68301,68379,68327
 4.9000e+000 68431 -9.7157e+001 -4.2364e+002  6.9616e+001 68018 68301,68405,68379
 4.9000e+000 68578 -1.3258e+002 -2.7324e+002  8.5591e-001 67820 68500,68552,68526
 4.9000e+000 68728 -1.4197e+002 -2.5340e+002 -4.1139e+000 67508 68601,68653,68627
 4.9000e+000 68705 -2.2002e+002 -1.9504e+002 -3.8372e+001 67508 68601,68679,68653
 4.9000e+000 68927 -4.3047e+001 -2.4195e+002 -4.6564e+000 67310 68777,68829,68803
 4.9000e+000 68904 -6.4327e+001 -2.7965e+002  5.3062e+000 67310 68751,68829,68777
 4.9000e+000 68881 -5.1808e+001 -2.8446e+002  1.5641e+001 67310 68751,68855,68829
 4.9000e+000 69386 -1.1377e+002 -2.9771e+002 -1.4148e+001 67020 69216,69268,69242
 4.9000e+000 69363 -1.0437e+002 -2.3169e+002 -2.9118e+001 67020 69138,69268,69216
 4.9000e+000 69340 -7.6380e+001 -2.0914e+002 -1.7452e+001 67020 69112,69268,69138
 4.9000e+000 69317 -1.3901e+002 -2.4912e+002  1.8386e+001 67020 69138,69190,69164
 4.9000e+000 69294 -1.4488e+002 -2.2827e+002 -1.2689e+001 67020 69138,69216,69190
 4.9000e+000 69536 -2.1847e+002 -5.3698e+002 -4.2777e+001 66708 69435,69487,69461
 4.9000e+000 69513 -1.6051e+002 -6.0455e+002 -6.1725e+000 66708 69409,69487,69435
 4.9000e+000 69735 -1.3879e+002 -2.8079e+002  6.4806e+000 66346 69585,69637,69611
 4.9000e+000 69712 -1.1442e+002 -2.6516e+002 -1.7316e+000 66346 69559,69637,69585
 4.9000e+000 69689 -1.0451e+002 -2.6464e+002 -2.6750e+001 66346 69559,69663,69637
 4.9000e+000 69985 -1.9734e+002 -3.3432e+002  4.8406e+000 66148 69786,69890,69864
 4.9000e+000 69962 -2.0426e+002 -3.3864e+002  7.2310e+000 66148 69760,69890,69786
 4.9000e+000 69939 -1.4618e+002 -3.1443e+002 -4.4526e+001 66148 69786,69864,69838
 4.9000e+000 69916 -1.6917e+002 -3.3515e+002 -1.7472e+001 66148 69786,69838,69812
 4.9000e+000 70137 -9.5920e+001 -3.6772e+002 -2.1267e+001 65950 70036,70088,70062
 4.9000e+000 70114 -8.1738e+001 -4.0810e+002  1.9112e+001 65950 70010,70088,70036
 4.9000e+000 70470 -7.3909e+001 -2.7398e+002  2.2070e+001 65546 70245,70323,70271
 4.9000e+000 70447 -5.3633e+001 -2.4402e+002  9.8994e+000 65546 70245,70375,70323
 4.9000e+000 70424 -6.7515e+001 -3.0757e+002  1.1053e+001 65546 70323,70375,70349
 4.9000e+000 70401 -5.7449e+001 -2.5272e+002  1.0383e+001 65546 70271,70323,70297
 4.9000e+000 70620 -1.2471e+002 -3.2035e+002  1.0922e+001 65348 70493,70545,70519
 4.9000e+000 70597 -8.8305e+001 -3.3431e+002  1.4109e+001 65348 70493,70571,70545
 4.9000e+000 70721 -1.6929e+002 -3.4106e+002  2.4014e+001 65150 70643,70695,70669
 4.9000e+000 71020 -1.1818e+002 -2.6539e+002  4.4958e+000 64952 71043,70850,70824
 4.9000e+000 70997 -1.0305e+002 -2.2909e+002  3.5414e+000 64952 71043,70824,70772
 4.9000e+000 70974 -1.1176e+002 -3.0724e+002  5.4106e+000 64952 71115,70746,70876
 4.9000e+000 70951 -8.9116e+001 -3.0718e+002 -1.8596e+000 64952 70746,70902,70876
 4.9000e+000 70928 -1.0569e+002 -1.9533e+002 -1.7630e+001 64952 70772,70824,70798
 4.9000e+000 71069 -9.5092e+001 -2.5330e+002  1.0722e+001 64952 70876,70850,71043
 4.9000e+000 71092 -1.1008e+002 -2.8901e+002  6.2345e+000 64952 71115,70876,71043
 4.9000e+000 71141 -1.2664e+002 -2.8621e+002 -1.0839e+001 64952 70772,70746,71115
 4.9000e+000 71164 -1.1831e+002 -2.5881e+002 -1.0541e+001 64952 70772,71115,71043
 4.9000e+000 71365 -3.8038e+000 -3.3331e+002 -4.5444e+000 64662 71215,71293,71267
 4.9000e+000 71342  4.9085e+001 -3.1194e+002 -5.4012e+001 64662 71189,71293,71215
 4.9000e+000 71319  2.6001e+001 -2.7415e+002  5.5640e+000 64662 71215,71267,71241
 4.9000e+000 71615 -7.8963e+001 -2.8483e+002 -3.7803e+000 64350 71710,71638,71468
 4.9000e+000 71592 -9.5544e+001 -2.8032e+002 -9.4491e+000 64350 71638,71416,71390
 4.9000e+000 71569 -8.4435e+001 -2.6556e+002  1.2294e+001 64350 71710,71468,71442
 4.9000e+000 71546  4.9313e+001 -2.7236e+002 -4.5249e+001 64350 71390,71520,71494
 4.9000e+000 71664 -7.3998e+001 -2.8387e+002  5.7562e-002 64350 71494,71468,71638
 4.9000e+000 71687 -7.4462e+001 -2.9045e+002  4.5449e-001 64350 71494,71638,71390
 4.9000e+000 71736 -7.1381e+001 -2.4610e+002  1.5890e+000 64350 71416,71638,71710
 4.9000e+000 71759 -6.9972e+001 -2.2675e+002  2.2237e+001 64350 71416,71710,71442
 4.9000e+000 72318 -8.3523e+001 -4.4970e+002 -1.7967e+001 63837 71972,72024,71998
 4.9000e+000 72295 -1.2613e+002 -2.9082e+002 -1.2890e+000 63837 72341,71972,71946
 4.9000e+000 72272 -1.1471e+002 -2.3467e+002  1.0926e+001 63837 72413,72341,71946
 4.9000e+000 72249 -1.0663e+002 -2.1333e+002  3.9004e+000 63837 72413,71946,72128
 4.9000e+000 72226 -1.6014e+002 -2.5471e+002  2.6887e+000 63837 72024,72076,72050
 4.9000e+000 72203 -1.3859e+002 -2.3504e+002 -7.0335e+000 63837 72024,72102,72076
 4.9000e+000 72180 -7.2585e+001 -2.0163e+002  1.6967e+001 63837 71946,72154,72128
 4.9000e+000 72367 -1.5057e+002 -3.1135e+002 -5.4125e+001 63837 72024,71972,72341
 4.9000e+000 72390 -1.1825e+002 -2.5551e+002 -2.0296e+001 63837 72024,72341,72102
 4.9000e+000 72439 -9.1404e+001 -2.6949e+002  4.3808e+000 63837 72102,72341,72413
 4.9000e+000 72462 -8.4534e+001 -2.4795e+002 -2.3845e-001 63837 72102,72413,72128
 4.9000e+000 72791 -1.4147e+002 -2.7318e+002 -2.7501e+001 63383 72592,72696,72670
 4.9000e+000 72768 -1.4383e+002 -2.5404e+002 -4.8505e+001 63383 72566,72696,72592
 4.9000e+000 72745 -1.3973e+002 -2.3750e+002  1.1499e+000 63383 72592,72670,72618
 4.9000e+000 72722 -1.3421e+002 -2.2230e+002  1.3091e-001 63383 72618,72670,72644
 4.9000e+000 73297 -1.6739e+002 -2.3993e+002 -1.3050e+000 63185 73000,73156,73130
 4.9000e+000 73274 -1.6797e+002 -2.4922e+002  3.0438e+001 63185 72974,73156,73000
 4.9000e+000 73251 -1.2606e+002 -2.7752e+002 -3.4560e+000 63185 73000,73052,73026
 4.9000e+000 73228 -1.3893e+002 -2.4706e+002 -1.1569e+001 63185 73000,73130,73052
 4.9000e+000 73205 -1.3804e+002 -2.7852e+002 -4.1128e+001 63185 73052,73130,73104
 4.9000e+000 73182 -1.3025e+002 -3.0648e+002 -4.3525e+001 63185 73052,73104,73078
 4.9000e+000 73545 -5.6661e+001 -2.5991e+002  2.3421e+000 62781 73568,73398,73372
 4.9000e+000 73522 -4.0689e+001 -2.3668e+002  1.0019e+001 62781 73568,73372,73346
 4.9000e+000 73499 -7.5724e+001 -2.4808e+002 -7.7000e+000 62781 73640,73320,73424
 4.9000e+000 73476 -8.1190e+001 -1.5791e+002 -2.8220e+001 62781 73320,73450,73424
 4.9000e+000 73594 -4.5892e+001 -2.3952e+002 -3.7836e+000 62781 73424,73398,73568
 4.9000e+000 73617 -5.9958e+001 -2.4124e+002 -6.9238e+000 62781 73640,73424,73568
 4.9000e+000 73666 -7.3044e+001 -2.4410e+002  5.9009e+000 62781 73346,73320,73640
 4.9000e+000 73689 -6.4753e+001 -2.4045e+002  6.7010e+000 62781 73346,73640,73568
 4.9000e+000 74035 -1.0033e+002 -2.7682e+002 -4.5900e+000 62363 74058,73868,73842
 4.9000e+000 74012 -9.2196e+001 -2.5409e+002 -2.1634e+001 62363 74130,74058,73842
 4.9000e+000 73989 -8.3850e+001 -2.5166e+002 -2.2969e+001 62363 74130,73842,73816
 4.9000e+000 73966 -1.3600e+002 -2.8743e+002  3.2429e+000 62363 74202,73764,73894
 4.9000e+000 73943 -1.7606e+002 -2.6271e+002  3.6896e+000 62363 73712,73894,73764
 4.9000e+000 73920 -1.8973e+002 -2.7693e+002 -3.4641e+000 62363 73712,73764,73738
 4.9000e+000 74084 -9.9926e+001 -2.7340e+002 -4.1889e+000 62363 73894,73868,74058
 4.9000e+000 74107 -1.2453e+002 -2.7520e+002  1.2547e+001 62363 74202,73894,74058
 4.9000e+000 74156 -1.0218e+002 -2.5836e+002  7.5586e+000 62363 73790,74058,74130
 4.9000e+000 74179 -6.2693e+001 -2.4309e+002  9.0374e+000 62363 73790,74130,73816
 4.9000e+000 74228 -1.4898e+002 -2.9311e+002 -1.4862e+001 62363 73790,73764,74202
 4.9000e+000 74251 -1.4053e+002 -2.8013e+002 -5.6342e+000 62363 73790,74202,74058
 4.9000e+000 74403 -1.1697e+001 -2.9630e+002  1.9390e+001 62115 74426,74302,74276
 4.9000e+000 74380  4.3373e+001 -2.8487e+002  4.1924e+001 62115 74426,74276,74354
 4.9000e+000 74452 -6.3295e+001 -2.6868e+002  1.9186e+001 62115 74328,74302,74426
 4.9000e+000 74475 -1.1954e+001 -2.5913e+002  4.3215e+001 62115 74328,74426,74354
 4.9000e+000 74578  5.0054e+001 -1.6541e+002  2.1820e+000 61825 74500,74552,74526
 4.9000e+000 74982 -1.4547e+002 -2.5410e+002  1.6977e+000 61513 75005,74734,74708
 4.9000e+000 74959 -1.4235e+002 -2.4567e+002 -1.0654e+000 61513 75005,74708,74864
 4.9000e+000 74936 -1.8103e+002 -2.6100e+002  1.6926e+001 61513 75077,74812,74734
 4.9000e+000 74913 -1.5890e+002 -2.5989e+002 -2.2634e+001 61513 74734,74786,74760
 4.9000e+000 74890 -1.5673e+002 -2.3373e+002 -1.8746e+000 61513 74734,74812,74786
 4.9000e+000 75031 -1.3745e+002 -2.6049e+002  2.8363e+000 61513 75077,74734,75005
 4.9000e+000 75054 -1.0985e+002 -2.5232e+002  3.7077e+001 61513 74838,75005,74864
 4.9000e+000 75103 -2.0546e+002 -2.7193e+002  5.6336e+001 61513 74838,74812,75077
 4.9000e+000 75126 -1.7701e+002 -2.8214e+002  4.2341e+001 61513 74838,75077,75005
 4.9000e+000 75553 -7.2388e+001 -2.3338e+002 -8.6619e+000 61060 75576,75360,75308
 4.9000e+000 75530 -7.4270e+001 -2.4762e+002 -9.7039e+000 61060 75576,75308,75230
 4.9000e+000 75507 -6.5627e+001 -2.2374e+002 -1.3977e-001 61060 75308,75360,75334
 4.9000e+000 75484 -9.8167e+001 -2.8913e+002  1.6341e+001 61060 75230,75308,75256
 4.9000e+000 75461 -7.0618e+001 -2.6816e+002  6.8545e+000 61060 75256,75308,75282
 4.9000e+000 75438 -8.3997e+001 -2.2858e+002  2.8491e+001 61060 75360,75412,75386
 4.9000e+000 75602 -5.7325e+001 -2.4593e+002  6.5916e-001 61060 75412,75360,75576
 4.9000e+000 75625 -6.7802e+001 -2.7278e+002 -3.7902e+000 61060 75412,75576,75230
 4.9000e+000 76052 -1.0826e+002 -2.4182e+002  4.2196e+000 60442 75755,75859,75833
 4.9000e+000 76029 -1.2531e+002 -2.2910e+002 -1.6539e+001 60442 75729,75859,75755
 4.9000e+000 76006 -1.1180e+002 -2.2346e+002  1.4791e+001 60442 75755,75833,75807
 4.9000e+000 75983 -1.0798e+002 -2.6605e+002  7.5579e+000 60442 75755,75807,75781
 4.9000e+000 75960 -6.6373e-001 -4.2323e+002  1.5961e+001 60442 75729,75911,75859
 4.9000e+000 75937 -2.1661e+002 -1.0445e+003  6.6836e+001 60442 75859,75911,75885
 4.9000e+000 76430 -1.1242e+002 -2.9013e+002 -1.2213e+001 59788 76453,76286,76234
 4.9000e+000 76407 -1.2185e+002 -3.3188e+002  4.6254e+000 59788 76453,76234,76182
 4.9000e+000 76384 -1.2494e+002 -2.2148e+002  3.6476e+001 59788 76525,76156,76312
 4.9000e+000 76361 -7.1701e+001 -3.7971e+002 -4.1916e+000 59788 76182,76234,76208
 4.9000e+000 76338 -9.0324e+001 -2.7931e+002 -8.0596e+000 59788 76234,76286,76260
 4.9000e+000 76479 -1.3620e+002 -3.1355e+002  1.1063e+000 59788 76312,76286,76453
 4.9000e+000 76502 -1.1433e+002 -2.9695e+002  1.4901e+001 59788 76525,76312,76453
 4.9000e+000 76551 -1.5454e+002 -3.1629e+002  3.8629e+001 59788 76182,76156,76525
 4.9000e+000 76574 -1.3689e+002 -3.3959e+002  2.3226e+001 59788 76182,76525,76453
 4.9000e+000 77031 -8.1678e+001 -1.7846e+002 -2.6580e+001 59448 76835,76887,76861
 4.9000e+000 77008 -3.6103e+001 -1.4803e+002  6.6360e+000 59448 76835,76913,76887
 4.9000e+000 76985 -4.6951e+001 -1.2479e+002  2.4087e+001 59448 76809,76913,76835
 4.9000e+000 76962 -8.8685e+001 -1.6425e+002 -4.7192e-001 59448 76757,76913,76809
 4.9000e+000 76939 -7.3827e+001 -1.4624e+002 -6.8765e+000 59448 76757,76809,76783
 4.9000e+000 77537 -1.1753e+002 -2.5261e+002  1.2199e+001 58994 77560,77344,77292
 4.9000e+000 77514 -1.6513e+002 -2.5052e+002  3.0792e+000 58994 77560,77292,77240
 4.9000e+000 77491 -9.5382e+001 -2.3554e+002 -6.2113e+000 58994 77632,77214,77370
 4.9000e+000 77468 -1.9424e+002 -2.8904e+002  5.0025e+001 58994 77292,77344,77318
 4.9000e+000 77445 -9.7467e+001 -3.0420e+002  1.1063e+001 58994 77214,77396,77370
 4.9000e+000 77422 -1.6863e+002 -2.6616e+002 -5.6681e+000 58994 77240,77292,77266
 4.9000e+000 77586 -1.2187e+002 -2.5702e+002  1.3955e+001 58994 77370,77344,77560
 4.9000e+000 77609 -1.2199e+002 -2.5171e+002  1.6379e+001 58994 77632,77370,77560
 4.9000e+000 77658 -8.1068e+001 -2.1865e+002 -3.0676e+001 58994 77240,77214,77632
 4.9000e+000 77681 -1.0067e+002 -2.1621e+002 -1.0277e+001 58994 77240,77632,77560
 4.9000e+000 78138 -9.9430e+001 -1.7732e+002  2.6141e+001 58440 77864,77994,77890
 4.9000e+000 78115 -6.6249e+001 -1.0864e+002 -1.2953e+001 58440 77864,78020,77994
 4.9000e+000 78092 -1.1307e+002 -2.0898e+002 -1.8132e+001 58440 77942,77994,77968
 4.9000e+000 78069 -9.0737e+001 -1.9944e+002  4.0139e+000 58440 77890,77994,77942
 4.9000e+000 78046 -8.1057e+001 -1.9987e+002 -2.8913e+000 58440 77890,77942,77916
 4.9000e+000 78467 -1.9085e+001 -2.3069e+002  7.8058e+000 57928 78562,78490,78346
 4.9000e+000 78444 -8.7784e+001 -2.3283e+002 -4.1185e+000 57928 78490,78294,78268
 4.9000e+000 78421 -4.7685e+000 -2.4211e+002  1.9549e+001 57928 78562,78346,78320
 4.9000e+000 78398 -3.5037e+001 -2.2577e+002  2.6791e+000 57928 78242,78372,78268
 4.9000e+000 78516 -7.7210e+001 -2.8733e+002 -1.6041e+001 57928 78372,78346,78490
 4.9000e+000 78539 -6.1811e+001 -2.2180e+002 -2.6414e+000 57928 78372,78490,78268
 4.9000e+000 78588 -8.7735e+001 -2.2903e+002  8.2277e-001 57928 78294,78490,78562
 4.9000e+000 78611 -4.3956e+001 -2.0664e+002  2.4065e+001 57928 78294,78562,78320
 4.9000e+000 79068 -1.7152e+002 -3.6220e+002 -8.9935e+001 57467 78794,78924,78820
 4.9000e+000 79045 -1.3467e+002 -3.4512e+002 -8.4430e+001 57467 78794,78950,78924
 4.9000e+000 79022 -7.2464e+001 -3.2339e+002  3.0916e+001 57467 78820,78898,78872
 4.9000e+000 78999 -1.2636e+002 -4.4447e+002 -4.7465e+001 57467 78820,78924,78898
 4.9000e+000 78976 -5.2250e+001 -3.2673e+002  4.7313e+001 57467 78820,78872,78846
 4.9000e+000 79446 -1.4352e+002 -2.7160e+002 -5.7961e-001 57120 79172,79302,79250
 4.9000e+000 79423 -1.2866e+002 -2.6489e+002 -8.8840e+000 57120 79172,79328,79302
 4.9000e+000 79400 -1.2956e+002 -2.3768e+002 -9.9777e+000 57120 79172,79250,79198
 4.9000e+000 79377 -9.9493e+001 -3.4157e+002  1.2768e+001 57120 79250,79302,79276
 4.9000e+000 79354 -1.5793e+002 -2.5753e+002 -1.9429e+001 57120 79198,79250,79224
 4.9000e+000 79952 -1.9182e+002 -3.0305e+002  8.7246e-001 56773 79629,79785,79655
 4.9000e+000 79929 -5.6879e+001 -2.6192e+002  1.3479e+001 56773 79629,79811,79785
 4.9000e+000 79906 -1.4928e+002 -3.2835e+002  2.2396e+001 56773 79655,79733,79681
 4.9000e+000 79883 -1.4628e+002 -2.9067e+002  5.6300e+000 56773 79655,79785,79733
 4.9000e+000 79860 -1.3750e+002 -3.8070e+002 -4.5297e+001 56773 79733,79785,79759
 4.9000e+000 79837 -7.8539e+001 -2.9584e+002  5.7226e+001 56773 79681,79733,79707
 4.9000e+000 80281 -6.7685e+001 -2.2241e+002 -1.7951e+001 56319 80108,80160,80134
 4.9000e+000 80258 -7.3884e+001 -2.4281e+002 -2.2473e+001 56319 80056,80160,80108
 4.9000e+000 80235 -3.2696e+001 -2.1493e+002  1.4396e+001 56319 80056,80186,80160
 4.9000e+000 80212 -9.8626e+001 -3.0948e+002 -1.5249e+001 56319 80056,80108,80082
 4.9000e+000 80738 -4.0119e+001 -2.7092e+002  1.4488e+001 55957 80516,80620,80594
 4.9000e+000 80715 -9.7108e+001 -2.4597e+002  1.1585e+001 55957 80464,80620,80516
 4.9000e+000 80692 -8.3259e+001 -2.9482e+002  1.5300e+001 55957 80761,80568,80542
 4.9000e+000 80669 -6.8501e+001 -2.9044e+002  1.7997e+001 55957 80761,80542,80516
 4.9000e+000 80646 -9.7769e+001 -2.4689e+002  3.0827e+001 55957 80464,80516,80490
 4.9000e+000 80787 -9.7496e+001 -2.9308e+002  1.1085e+001 55957 80594,80568,80761
 4.9000e+000 80810 -8.3655e+001 -2.8913e+002  1.3964e+001 55957 80594,80761,80516
 4.9000e+000 81210 -8.2024e+001 -2.7809e+002 -3.1426e+001 55317 80936,80988,80962
 4.9000e+000 81187 -6.7917e+001 -3.0408e+002 -1.2715e+000 55317 80936,81066,80988
 4.9000e+000 81164 -4.6534e+001 -3.2568e+002  4.5808e+000 55317 80936,81092,81066
 4.9000e+000 81141 -9.6113e+001 -3.2403e+002 -2.9581e+001 55317 80988,81066,81014
 4.9000e+000 81118 -1.3785e+001 -1.8350e+002  1.8925e+001 55317 81014,81066,81040
 4.9000e+000 81539 -1.2360e+002 -2.7891e+002  6.9899e+000 54913 81340,81418,81392
 4.9000e+000 81516 -5.0497e+001 -2.2483e+002 -1.7421e+001 54913 81340,81444,81418
 4.9000e+000 81493 -7.6277e+001 -2.4086e+002 -3.3705e+001 54913 81314,81444,81340
 4.9000e+000 81470 -1.4019e+002 -2.9411e+002  3.8280e-001 54913 81340,81392,81366
 4.9000e+000 81787 -7.0947e+001 -2.9260e+002 -2.5812e+000 54601 81588,81692,81640
 4.9000e+000 81764 -1.0368e+002 -2.9591e+002 -9.6064e+000 54601 81562,81692,81588
 4.9000e+000 81741 -5.7332e+001 -2.9786e+002  3.8745e+001 54601 81588,81640,81614
 4.9000e+000 81718 -7.3003e+001 -3.4688e+002 -3.0514e+001 54601 81640,81692,81666
 4.9000e+000 82344 -1.0883e+002 -2.9691e+002 -1.4368e+001 54090 81998,82102,82076
 4.9000e+000 82321 -1.4816e+002 -3.1406e+002 -8.7961e+000 54090 81998,82154,82102
 4.9000e+000 82298 -1.3445e+002 -3.0664e+002 -5.0424e+000 54090 81972,82154,81998
 4.9000e+000 82275 -1.5357e+002 -2.7713e+002 -1.6774e+001 54090 81998,82076,82024
 4.9000e+000 82252 -1.6396e+002 -3.2644e+002  1.4730e+001 54090 81972,82180,82154
 4.9000e+000 82229 -2.0651e+002 -3.8382e+002  2.2507e+001 54090 82102,82154,82128
 4.9000e+000 82206 -2.8744e+001 -2.0816e+002 -4.5505e+001 54090 82024,82076,82050
 4.9000e+000 82722 -1.8911e+002 -3.3928e+002 -1.1549e+001 53579 82500,82578,82552
 4.9000e+000 82699 -1.4134e+002 -3.0952e+002  7.7115e+000 53579 82448,82578,82500
 4.9000e+000 82676 -1.5430e+002 -3.4861e+002  9.4218e+000 53579 82448,82500,82474
 4.9000e+000 82653 -1.8421e+002 -3.3170e+002  2.3954e+001 53579 82448,82604,82578
 4.9000e+000 82630 -1.0019e+002 -3.1510e+002 -1.2789e+001 53579 82500,82552,82526
 4.9000e+000 83356 -9.2613e+001 -2.4444e+002 -2.5251e+001 53189 83379,83088,83036
 4.9000e+000 83333 -8.9279e+001 -2.7570e+002 -2.2750e+001 53189 83379,83036,82984
 4.9000e+000 83310 -4.4820e+001 -2.5998e+002  3.6877e+001 53189 82984,83192,83166
 4.9000e+000 83287  2.3680e+000 -2.0271e+002 -1.7987e+001 53189 83036,83088,83062
 4.9000e+000 83264 -7.1210e+001 -3.0771e+002 -4.2377e+001 53189 82984,83036,83010
 4.9000e+000 83241 -6.4492e+001 -3.0599e+002  4.9063e+000 53189 83114,83166,83140
 4.9000e+000 83218 -1.2549e+002 -3.2007e+002  2.0509e+000 53189 83088,83166,83114
 4.9000e+000 83405 -9.3107e+001 -2.6558e+002 -1.2299e+001 53189 83166,83088,83379
 4.9000e+000 83428 -8.5078e+001 -2.9320e+002 -1.1785e+001 53189 83166,83379,82984
 4.9000e+000 83725 -1.2139e+002 -3.4399e+002 -3.1027e+001 52585 83748,83529,83503
 4.9000e+000 83702 -9.0705e+001 -3.3401e+002 -1.9805e+001 52585 83820,83748,83503
 4.9000e+000 83679 -6.1350e+001 -3.2541e+002 -1.6035e+001 52585 83820,83503,83477
 4.9000e+000 83656 -4.2564e+001 -2.9699e+002  3.8545e+001 52585 83477,83607,83581
 4.9000e+000 83633  2.4241e+001 -2.6811e+002  4.1747e+001 52585 83451,83607,83477
 4.9000e+000 83774 -1.0554e+002 -3.0457e+002 -2.7375e+001 52585 83555,83529,83748
 4.9000e+000 83797 -1.3918e+002 -3.2938e+002 -1.6535e+001 52585 83555,83748,83581
 4.9000e+000 83846 -1.1850e+002 -3.1498e+002 -4.6409e+000 52585 83581,83748,83820
 4.9000e+000 83869 -9.7571e+001 -3.1181e+002 -4.0886e+000 52585 83581,83820,83477
 4.9000e+000 84200 -8.9783e+001 -3.0970e+002 -1.0946e+001 52024 84001,84105,84079
 4.9000e+000 84177 -4.7420e+001 -3.0240e+002 -2.2255e+001 52024 83975,84105,84001
 4.9000e+000 84154 -7.8712e+001 -3.1065e+002 -8.4960e+000 52024 84001,84079,84053
 4.9000e+000 84131 -3.9462e+001 -2.0800e+002  3.7691e+001 52024 84001,84053,84027
 4.9000e+000 84399 -7.6305e+001 -3.0951e+002 -1.5906e+000 51470 84422,84275,84249
 4.9000e+000 84376 -7.0897e+001 -2.9838e+002  1.3930e+000 51470 84422,84249,84223
 4.9000e+000 84353 -8.6898e+001 -3.2804e+002 -4.5053e+001 51470 84275,84327,84301
 4.9000e+000 84448 -8.2003e+001 -2.9902e+002 -2.1336e+000 51470 84327,84275,84422
 4.9000e+000 84471 -7.8112e+001 -2.9005e+002  6.2355e-001 51470 84327,84422,84223
 4.9000e+000 84753 -9.0922e+001 -2.5800e+002 -9.2628e-001 51073 84603,84655,84629
 4.9000e+000 84730 -1.8386e+002 -3.0126e+002 -1.3195e+001 51073 84776,84655,84603
 4.9000e+000 84707 -4.2274e+001 -2.6352e+002 -7.2457e+001 51073 84577,84681,84655
 4.9000e+000 84802 -1.1747e+002 -2.6353e+002 -3.4622e+001 51073 84577,84655,84776
 4.9000e+000 85178 -1.6727e+002 -3.6605e+002  3.2214e+001 50519 85201,85008,84982
 4.9000e+000 85155 -1.5858e+002 -3.4059e+002  2.3804e+001 50519 85273,85201,84982
 4.9000e+000 85132 -1.4991e+002 -3.4038e+002  1.8288e+001 50519 85273,84982,84930
 4.9000e+000 85109 -1.4527e+002 -3.3118e+002  1.5598e+001 50519 84930,84982,84956
 4.9000e+000 85086 -1.3734e+002 -3.4291e+002  1.4279e+001 50519 85008,85060,85034
 4.9000e+000 85227 -1.3969e+002 -3.4869e+002  1.4742e+001 50519 85060,85008,85201
 4.9000e+000 85250 -1.5706e+002 -3.5040e+002  1.0021e+001 50519 85060,85201,84904
 4.9000e+000 85299 -1.4963e+002 -3.4498e+002  7.6415e+000 50519 84904,85201,85273
 4.9000e+000 85322 -1.1854e+002 -3.0530e+002 -6.2759e+000 50519 84904,85273,84930
 4.9000e+000 85958 -9.8292e+001 -3.0749e+002 -1.0545e+001 50093 85981,85768,85716
 4.9000e+000 85935 -8.7325e+001 -2.7929e+002 -1.2179e+001 50093 85981,85716,85612
 4.9000e+000 85912 -1.2557e+002 -2.8863e+002  4.9268e+000 50093 85612,85716,85664
 4.9000e+000 85889 -7.3649e+001 -3.0226e+002 -3.8967e+000 50093 85716,85768,85742
 4.9000e+000 85866 -1.0399e+002 -2.2242e+002 -6.2452e+001 50093 85664,85716,85690
 4.9000e+000 85843 -3.7962e+001 -2.1212e+002 -1.1289e+001 50093 85586,85794,85612
 4.9000e+000 85820 -8.6190e+001 -3.9096e+002  3.2178e+001 50093 85612,85664,85638
 4.9000e+000 86007 -1.1949e+002 -3.3079e+002 -5.0598e+001 50093 85794,85768,85981
 4.9000e+000 86030 -8.5812e+001 -2.4965e+002 -4.2226e+001 50093 85794,85981,85612
 4.9000e+000 86131 -1.0227e+002 -3.0522e+002  4.1692e+001 49895 86053,86105,86079
 4.9000e+000 86639 -7.6596e+001 -2.1427e+002 -4.2940e+001 49391 86662,86394,86368
 4.9000e+000 86616 -8.9986e+001 -2.6041e+002 -3.8427e+001 49391 86662,86368,86342
 4.9000e+000 86593 -4.9930e+001 -2.5967e+002 -1.1290e+001 49391 86342,86498,86472
 4.9000e+000 86570 -3.2706e+001 -2.8396e+002 -1.3386e+001 49391 86316,86498,86342
 4.9000e+000 86547 -1.4472e+002 -3.9526e+002 -1.7830e+001 49391 86394,86472,86446
 4.9000e+000 86524 -1.1903e+001 -3.7324e+002  2.8931e+000 49391 86394,86446,86420
 4.9000e+000 86688 -8.5916e+001 -2.5738e+002 -2.2961e+001 49391 86472,86394,86662
 4.9000e+000 86711 -7.7051e+001 -2.7711e+002 -2.2173e+001 49391 86472,86662,86342
 4.9000e+000 87089 -1.1043e+002 -3.0744e+002  8.3448e+000 48987 86815,86919,86867
 4.9000e+000 87066 -1.1106e+002 -3.1677e+002  1.2982e+001 48987 86815,86971,86919
 4.9000e+000 87043 -4.2715e+001 -3.3978e+002 -3.0277e+001 48987 86867,86919,86893
 4.9000e+000 87020 -1.2575e+002 -3.4896e+002  2.7194e+001 48987 86815,86867,86841
 4.9000e+000 86997 -1.2398e+002 -2.7217e+002  4.3426e+001 48987 86919,86971,86945
 4.9000e+000 87467 -2.0734e+002 -3.0749e+002  1.5249e+001 48540 87490,87245,87219
 4.9000e+000 87444 -1.4967e+002 -2.8780e+002  1.4941e+000 48540 87562,87490,87219
 4.9000e+000 87421 -1.1295e+002 -2.7300e+002  1.2902e+001 48540 87562,87219,87349
 4.9000e+000 87398 -1.5477e+002 -2.4000e+002 -1.5761e+001 48540 87245,87297,87271
 4.9000e+000 87375 -9.5288e+001 -2.8566e+002  9.7909e+000 48540 87193,87349,87219
 4.9000e+000 87516 -1.4227e+002 -2.9235e+002  3.8812e+000 48540 87297,87245,87490
 4.9000e+000 87539 -1.4378e+002 -2.9398e+002  5.1620e+000 48540 87297,87490,87323
 4.9000e+000 87588 -1.1422e+002 -2.7105e+002  2.5367e+001 48540 87323,87490,87562
 4.9000e+000 87611 -9.6551e+001 -2.7575e+002  3.3002e+001 48540 87323,87562,87349
 4.9000e+000 87810 -1.4030e+002 -5.0148e+002 -3.6402e+001 48136 87660,87712,87686
 4.9000e+000 87787 -8.0295e+001 -2.9494e+002 -1.6259e+001 48136 87660,87738,87712
 4.9000e+000 87764 -1.8810e+002 -3.0535e+002 -4.9979e+001 48136 87634,87738,87660
 4.9000e+000 88205 -1.3132e+002 -3.2411e+002 -2.8392e+001 47210 88300,88228,87937
 4.9000e+000 88182 -1.1468e+002 -3.1444e+002 -8.6678e+000 47210 88228,87833,88041
 4.9000e+000 88159 -1.3341e+002 -3.4663e+002 -4.4469e+001 47210 88300,87937,87911
 4.9000e+000 88136 -1.2942e+002 -3.1462e+002 -3.8079e+001 47210 87833,87911,87859
 4.9000e+000 88113 -2.1744e+002 -2.8569e+002 -2.2819e+001 47210 87937,87989,87963
 4.9000e+000 88090 -1.0737e+002 -2.5523e+002  5.3156e+001 47210 87989,88041,88015
 4.9000e+000 88067 -1.4975e+002 -3.6598e+002 -5.0062e+001 47210 87859,87911,87885
 4.9000e+000 88254 -1.1688e+002 -2.6918e+002 -2.8967e+001 47210 87989,87937,88228
 4.9000e+000 88277 -1.3747e+002 -3.0961e+002 -1.1301e+001 47210 87989,88228,88041
 4.9000e+000 88326 -1.0962e+002 -3.0275e+002 -1.0816e+001 47210 87833,88228,88300
 4.9000e+000 88349 -1.1507e+002 -3.1765e+002 -2.8091e+001 47210 87833,88300,87911
 4.9000e+000 88780 -2.0024e+002 -3.5292e+002 -6.6906e+001 46642 88803,88509,88483
 4.9000e+000 88757 -1.4384e+002 -3.1769e+002 -3.5964e+001 46642 88803,88483,88639
 4.9000e+000 88734 -1.5996e+002 -2.6076e+002 -4.1802e+001 46642 88875,88561,88509
 4.9000e+000 88711 -1.6214e+002 -2.4157e+002 -8.2421e+000 46642 88509,88561,88535
 4.9000e+000 88688 -9.2534e+001 -3.5569e+002  7.5802e-001 46642 88457,88639,88483
 4.9000e+000 88665 -1.8329e+002 -4.2036e+002 -1.9260e+001 46642 88561,88613,88587
 4.9000e+000 88829 -1.6087e+002 -2.8467e+002 -4.7023e+001 46642 88875,88509,88803
 4.9000e+000 88852 -1.5773e+002 -3.4169e+002 -3.0116e+001 46642 88613,88803,88639
 4.9000e+000 88901 -1.3231e+002 -2.9381e+002 -2.1754e+001 46642 88613,88561,88875
 4.9000e+000 88924 -1.4402e+002 -3.3259e+002 -2.6118e+001 46642 88613,88875,88803
 4.9000e+000 89253 -6.2997e+001 -3.1174e+002  5.8548e+000 46444 89080,89158,89132
 4.9000e+000 89230 -7.1870e+001 -3.3135e+002  2.9053e+000 46444 89028,89158,89080
 4.9000e+000 89207 -2.7415e+001 -2.9345e+002 -1.3232e+001 46444 89028,89080,89054
 4.9000e+000 89184 -3.1424e+001 -3.3657e+002 -2.5492e+001 46444 89080,89132,89106
 4.9000e+000 89631 -8.9558e+001 -2.1605e+002  5.0033e+000 46040 89383,89461,89435
 4.9000e+000 89608 -9.4519e+001 -2.3838e+002 -1.3855e+001 46040 89383,89487,89461
 4.9000e+000 89585 -9.6844e+001 -2.7903e+002 -7.8144e+000 46040 89383,89435,89409
 4.9000e+000 89562 -7.5864e+001 -2.0467e+002 -2.8226e+001 46040 89383,89513,89487
 4.9000e+000 89539 -3.0726e+001 -1.8255e+002 -3.7897e+001 46040 89357,89513,89383
 4.9000e+000 90009 -9.4464e+001 -2.7415e+002 -1.2822e+000 45636 89813,89891,89839
 4.9000e+000 89986 -9.7426e+001 -2.5626e+002  1.4814e+001 45636 89787,89891,89813
 4.9000e+000 89963 -8.3414e+001 -2.5683e+002 -7.5287e+000 45636 89839,89891,89865
 4.9000e+000 89940 -1.1389e+002 -2.8600e+002  7.9648e+000 45636 89735,89891,89787
 4.9000e+000 89917 -8.9756e+001 -2.8818e+002 -1.3053e+001 45636 89735,89787,89761
 4.9000e+000 90208 -6.2324e+001 -2.1206e+002 -4.1130e+001 45175 90231,90058,90032
 4.9000e+000 90185 -3.8323e+001 -1.9406e+002 -6.2518e+001 45175 90231,90032,90136
 4.9000e+000 90162 -7.4087e+001 -1.7248e+002 -3.3899e+000 45175 90058,90110,90084
 4.9000e+000 90257 -8.9541e+001 -2.3849e+002 -1.0905e+001 45175 90110,90058,90231
 4.9000e+000 90280 -4.3504e+001 -2.0700e+002 -3.4731e+001 45175 90110,90231,90136
 4.9000e+000 90528 -6.8283e+001 -2.1653e+002 -2.8570e+001 44513 90695,90551,90407
 4.9000e+000 90505 -7.3623e+001 -1.9607e+002 -1.4381e+001 44513 90551,90355,90329
 4.9000e+000 90482 -8.8928e+001 -2.1285e+002 -2.6110e+001 44513 90623,90303,90433
 4.9000e+000 90459 -5.2690e+001 -2.0163e+002 -2.0667e+001 44513 90695,90407,90381
 4.9000e+000 90577 -9.9661e+001 -2.2662e+002 -4.9117e+001 44513 90433,90407,90551
 4.9000e+000 90600 -8.5526e+001 -2.0773e+002 -2.4538e+001 44513 90623,90433,90551
 4.9000e+000 90649 -8.6674e+001 -2.0637e+002 -2.4212e+001 44513 90329,90303,90623
 4.9000e+000 90672 -8.7526e+001 -2.0574e+002 -2.4094e+001 44513 90329,90623,90551
 4.9000e+000 90721 -8.7476e+001 -1.9681e+002 -3.2311e+001 44513 90355,90551,90695
 4.9000e+000 90744 -8.3010e+001 -1.8973e+002 -2.9317e+001 44513 90355,90695,90381
 4.9000e+000 91077  4.3667e-001 -2.2324e+002 -1.4415e+001 44059 91100,90930,90904
 4.9000e+000 91054 -8.6507e+001 -2.4098e+002  1.1656e+001 44059 91100,90904,90982
 4.9000e+000 91031 -1.5527e+002 -2.7982e+002 -2.0134e+001 44059 90878,90982,90904
 4.9000e+000 91008 -5.0170e+001 -2.1103e+002  1.2104e+001 44059 90852,90982,90878
 4.9000e+000 91126 -1.3019e+002 -2.5688e+002 -1.6939e+001 44059 91172,91100,90956
 4.9000e+000 91149 -8.2319e+001 -2.3582e+002 -1.0813e+001 44059 90956,91100,90982
 4.9000e+000 91198 -2.9011e+000 -1.3025e+002 -6.7920e+001 44059 90930,91100,91172
 4.9000e+000 91677 -1.1071e+002 -1.7451e+002  1.6710e+001 43549 91455,91533,91481
 4.9000e+000 91654 -4.3342e+001 -1.7558e+002  2.3488e+001 43549 91429,91533,91455
 4.9000e+000 91631 -1.0707e+002 -1.7509e+002  7.8605e+000 43549 91481,91533,91507
 4.9000e+000 91608 -2.2172e+001 -1.6688e+002  1.0343e+001 43549 91429,91559,91533
 4.9000e+000 91585  4.3029e+000 -4.8001e+001 -8.2866e-001 43549 91403,91559,91429
 4.9000e+000 92006 -1.1266e+002 -2.7982e+002  5.5650e-001 43059 91781,91885,91807
 4.9000e+000 91983 -1.1749e+002 -2.6419e+002  4.2895e+001 43059 91781,91911,91885
 4.9000e+000 91960 -1.1186e+002 -2.7915e+002  2.4301e-001 43059 91807,91885,91833
 4.9000e+000 91937 -7.3193e+001 -2.6419e+002 -4.4877e+000 43059 91833,91885,91859
 4.9000e+000 92561 -8.6280e+001 -1.9134e+002 -2.3054e+001 42598 92584,92215,92189
 4.9000e+000 92538 -9.5292e+001 -2.1701e+002 -2.0990e+001 42598 92656,92584,92189
 4.9000e+000 92515 -8.5859e+001 -2.4549e+002 -6.5192e+000 42598 92656,92189,92397
 4.9000e+000 92492 -1.1379e+002 -1.7211e+002 -2.6621e+001 42598 92241,92319,92293
 4.9000e+000 92469 -1.0650e+002 -2.0429e+002  1.0971e+001 42598 92319,92397,92371
 4.9000e+000 92446 -4.1729e+001 -2.4003e+002  9.9416e+001 42598 92319,92371,92345
 4.9000e+000 92423 -1.1057e+002 -1.7666e+002 -3.7082e+001 42598 92241,92293,92267
 4.9000e+000 92610 -9.3536e+001 -1.9303e+002 -2.1270e+001 42598 92241,92215,92584
 4.9000e+000 92633 -8.6179e+001 -1.7655e+002 -2.6142e+001 42598 92241,92584,92319
 4.9000e+000 92682 -8.7352e+001 -1.7905e+002 -1.5449e+001 42598 92319,92584,92656
 4.9000e+000 92705 -7.1020e+001 -1.9848e+002 -4.7700e+000 42598 92319,92656,92397
 4.9000e+000 92953 -1.1570e+002 -3.0104e+002  1.5798e+001 42094 92976,92806,92780
 4.9000e+000 92930 -1.2812e+002 -2.8437e+002  8.2742e-002 42094 92976,92780,92754
 4.9000e+000 92907 -2.9570e+001 -2.9179e+002 -1.8103e+000 42094 93048,92832,92806
 4.9000e+000 92884 -1.6402e+002 -2.8904e+002 -1.8750e+001 42094 92728,92858,92754
 4.9000e+000 93002 -7.5325e+001 -2.7932e+002  7.6026e+000 42094 93048,92806,92976
 4.9000e+000 93025 -1.1942e+002 -2.7955e+002 -4.3400e+000 42094 92858,92976,92754
 4.9000e+000 93074 -9.3415e+001 -3.1512e+002 -3.1065e+000 42094 92858,92832,93048
 4.9000e+000 93097 -1.3080e+002 -2.9751e+002  2.3629e+000 42094 92858,93048,92976
 4.9000e+000 93605 -1.2034e+002 -3.4457e+002 -1.3013e+001 41846 93628,93412,93386
 4.9000e+000 93582 -9.0960e+001 -2.6009e+002 -1.8743e+000 41846 93628,93386,93308
 4.9000e+000 93559 -1.3877e+002 -2.7126e+002 -5.6531e+001 41846 93700,93464,93438
 4.9000e+000 93536 -1.3029e+002 -3.6049e+002  4.8917e+000 41846 93308,93386,93334
 4.9000e+000 93513 -1.6837e+002 -2.6129e+002 -4.1962e+001 41846 93334,93386,93360
 4.9000e+000 93490 -1.3192e+002 -2.3984e+002 -5.4407e+001 41846 93282,93464,93308
 4.9000e+000 93654 -1.0529e+002 -2.7591e+002 -2.5933e+001 41846 93438,93412,93628
 4.9000e+000 93677 -1.3947e+002 -2.7716e+002 -2.6133e+001 41846 93700,93438,93628
 4.9000e+000 93726 -1.2521e+002 -2.3370e+002 -5.1858e+001 41846 93308,93464,93700
 4.9000e+000 93749 -1.2075e+002 -2.2772e+002 -2.1848e+001 41846 93308,93700,93628
 4.9000e+000 94255 -9.8513e+001 -2.8690e+002  1.8067e+001 41385 93958,94114,94088
 4.9000e+000 94232 -8.6833e+001 -3.0849e+002  7.5487e+000 41385 93932,94114,93958
 4.9000e+000 94209 -1.6669e+002 -3.3177e+002  5.3150e+001 41385 93958,94088,94062
 4.9000e+000 94186 -1.7376e+002 -2.4083e+002  3.9186e+001 41385 93958,94062,93984
 4.9000e+000 94163 -1.5031e+002 -2.3573e+002  3.5770e+001 41385 93984,94062,94036
 4.9000e+000 94140 -1.0141e+002 -3.2009e+002  5.1685e+001 41385 93984,94036,94010
 4.9000e+000 94476 -3.2457e+001 -3.8690e+002  2.2607e+001 40881 94326,94378,94352
 4.9000e+000 94453 -6.5057e+001 -3.1851e+002  2.5612e+001 40881 94300,94378,94326
 4.9000e+000 94430 -8.1518e+001 -2.9469e+002  3.0590e+000 40881 94300,94404,94378
 4.9000e+000 94626 -8.1717e+001 -2.2349e+002 -3.6326e+000 40591 94649,94551,94525
 4.9000e+000 94603 -4.6012e+001 -1.3600e+002  2.4124e+000 40591 94781,94577,94551
 4.9000e+000 94675 -2.7806e+001 -1.5984e+002 -2.7909e+001 40591 94781,94551,94649
 4.9000e+000 94807  7.2349e-001 -9.1365e+001  2.8620e+001 40591 94499,94577,94781
 4.9000e+000 94830  6.2184e+000 -1.3832e+002 -3.4468e+000 40591 94499,94781,94649
 4.9000e+000 95336 -1.9623e+002 -2.6338e+002 -4.0756e+001 40187 95013,95169,95039
 4.9000e+000 95313 -4.4588e+001 -2.3769e+002  5.3406e+000 40187 95013,95195,95169
 4.9000e+000 95290 -3.2284e+001 -2.5904e+002 -2.8232e+001 40187 95039,95143,95065
 4.9000e+000 95267 -1.4683e+002 -3.0430e+002 -4.4256e+001 40187 95039,95169,95143
 4.9000e+000 95244 -6.4764e+001 -2.3017e+002 -2.3908e+001 40187 95091,95143,95117
 4.9000e+000 95221 -1.7701e+001 -1.4061e+002 -7.0106e+000 40187 95065,95143,95091
 4.9000e+000 95665 -7.2736e+001 -1.9909e+002  8.6807e+001 39626 95466,95570,95544
 4.9000e+000 95642 -1.3617e+002 -1.5921e+002  5.6538e+001 39626 95440,95570,95466
 4.9000e+000 95619 -2.1146e+002 -2.6415e+002  5.6571e+001 39626 95466,95544,95492
 4.9000e+000 95596 -4.3963e+001 -2.0579e+002  8.5715e+001 39626 95492,95544,95518
 4.9000e+000 95913 -1.1161e+002 -2.4289e+002 -3.5960e+001 39136 96080,95936,95766
 4.9000e+000 95890 -7.6867e+001 -2.6118e+002 -2.2285e+001 39136 95936,95714,95688
 4.9000e+000 95867 -1.9434e+002 -2.6089e+002  9.9344e+000 39136 96008,95792,95766
 4.9000e+000 95844 -9.1846e+001 -2.3577e+002 -2.7181e+001 39136 96080,95766,95740
 4.9000e+000 95962 -1.5421e+002 -2.6991e+002 -2.3338e+001 39136 96008,95766,95936
 4.9000e+000 95985 -1.0025e+002 -3.1855e+002 -5.8541e+000 39136 95818,95936,95688
 4.9000e+000 96034 -9.7408e+001 -2.1879e+002  1.5634e+001 39136 95818,95792,96008
 4.9000e+000 96057 -8.6817e+001 -2.3960e+002 -1.7053e+001 39136 95818,96008,95936
 4.9000e+000 96106 -1.0179e+002 -2.4018e+002 -9.5397e+000 39136 95714,95936,96080
 4.9000e+000 96129 -7.0951e+001 -2.3174e+002 -2.7179e+000 39136 95714,96080,95740
 4.9000e+000 96350 -8.1089e+001 -2.0454e+002 -1.2070e+001 38824 96200,96278,96252
 4.9000e+000 96327 -6.8246e+001 -1.9837e+002 -1.0195e+001 38824 96174,96278,96200
 4.9000e+000 96304 -1.5289e+001 -1.7913e+002 -3.5989e+001 38824 96200,96252,96226
 4.9000e+000 96830 -1.1697e+002 -2.1391e+002 -1.6272e+001 38320 97069,96536,96484
 4.9000e+000 96807 -1.1512e+002 -2.1681e+002 -1.6077e+001 38320 97069,96484,96853
 4.9000e+000 96784 -1.3029e+002 -2.3322e+002  2.6667e+000 38320 96853,96484,96458
 4.9000e+000 96761 -7.1673e+001 -1.8674e+002 -2.4108e+001 38320 96925,96640,96614
 4.9000e+000 96738 -1.1272e+002 -1.9458e+002 -1.0887e+001 38320 96997,96666,96640
 4.9000e+000 96715 -9.5740e+001 -2.5390e+002 -7.2213e+000 38320 97141,96588,96562
 4.9000e+000 96692 -1.4728e+002 -2.4830e+002 -2.8640e+000 38320 96484,96536,96510
 4.9000e+000 96879 -1.1613e+002 -2.3048e+002 -9.9555e+000 38320 97141,96562,96853
 4.9000e+000 96902 -1.0786e+002 -2.2429e+002 -9.3523e+000 38320 96925,96614,96853
 4.9000e+000 96951 -1.1018e+002 -1.9239e+002 -1.2483e+001 38320 96997,96640,96925
 4.9000e+000 96974 -1.0479e+002 -1.8963e+002 -8.0751e+000 38320 96458,96925,96853
 4.9000e+000 97023 -1.2435e+002 -1.9729e+002 -4.7624e+000 38320 96458,96666,96997
 4.9000e+000 97046 -1.1521e+002 -1.9256e+002 -6.5474e+000 38320 96458,96997,96925
 4.9000e+000 97095 -1.2039e+002 -2.0708e+002 -4.5688e+000 38320 96562,96536,97069
 4.9000e+000 97118 -1.1053e+002 -2.1506e+002 -1.4156e+001 38320 96562,97069,96853
 4.9000e+000 97167 -6.0132e+001 -2.3237e+002 -1.7091e+001 38320 96614,96588,97141
 4.9000e+000 97190 -9.3724e+001 -2.1850e+002 -1.7001e+001 38320 96614,97141,96853
 4.9000e+000 97519 -9.2354e+001 -2.8062e+002  7.4996e+001 37766 97542,97398,97372
 4.9000e+000 97496 -1.1044e+002 -2.2086e+002  5.2450e+001 37766 97542,97372,97346
 4.9000e+000 97473 -1.1022e+002 -2.3085e+002  4.6836e+000 37766 97294,97424,97346
 4.9000e+000 97450 -1.2258e+002 -2.6936e+002 -8.0487e-001 37766 97294,97346,97320
 4.9000e+000 97568 -4.8611e+001 -2.9402e+002  2.5671e+001 37766 97424,97398,97542
 4.9000e+000 97591 -7.7450e+001 -2.2562e+002  7.0251e+000 37766 97424,97542,97346
 4.9000e+000 98048 -1.1638e+002 -1.7046e+002 -5.3423e+001 37262 98071,97878,97852
 4.9000e+000 98025 -9.9219e+001 -2.0284e+002 -2.1631e+001 37262 98071,97852,97800
 4.9000e+000 98002 -1.0964e+002 -2.4306e+002 -2.3666e+001 37262 97800,97852,97826
 4.9000e+000 97979 -1.1337e+002 -2.1859e+002  5.0496e+000 37262 97800,97930,97904
 4.9000e+000 97956 -7.5467e+001 -2.6237e+002  1.6473e+001 37262 97774,97930,97800
 4.9000e+000 98097 -1.6351e+002 -1.9345e+002 -3.7875e+001 37262 97904,97878,98071
 4.9000e+000 98120 -1.2513e+002 -2.2928e+002 -8.9809e+000 37262 97904,98071,97800
 4.9000e+000 98449 -6.3042e+001 -1.7118e+002 -2.0405e+001 36950 98472,98302,98250
 4.9000e+000 98426 -3.7945e+001 -1.6371e+002 -2.4915e+001 36950 98472,98250,98354
 4.9000e+000 98403 -9.7166e+001 -1.8963e+002  2.1761e+001 36950 98250,98302,98276
 4.9000e+000 98380 -2.4381e+001 -1.2983e+002  1.3109e+001 36950 98224,98354,98250
 4.9000e+000 98498 -4.4513e+001 -1.9088e+002 -5.6812e+000 36950 98328,98302,98472
 4.9000e+000 98521 -1.5354e+001 -1.7972e+002 -1.4387e+001 36950 98328,98472,98354
 4.9000e+000 99125 -1.2890e+002 -1.2299e+002  1.3895e+001 36296 98704,98756,98730
 4.9000e+000 99102 -1.2535e+002 -1.3946e+002  1.3348e+001 36296 98704,98938,98756
 4.9000e+000 99079 -9.1762e+001 -1.7473e+002 -4.4392e+000 36296 99148,98938,98912
 4.9000e+000 99056 -9.7172e+001 -1.8052e+002  4.1487e+001 36296 99292,99220,98782
 4.9000e+000 99033 -8.0109e+001 -2.0195e+002  4.5888e+000 36296 99148,98912,98834
 4.9000e+000 99010 -9.2357e+001 -1.5316e+002  4.6089e+001 36296 99292,98782,98756
 4.9000e+000 98987 -7.7283e+001 -3.5732e+002 -6.5625e+001 36296 98834,98912,98886
 4.9000e+000 98964 -1.3068e+002 -5.1504e+002 -8.4082e+001 36296 98834,98886,98860
 4.9000e+000 99174 -1.1306e+002 -2.1627e+002  6.3722e+000 36296 99220,98938,99148
 4.9000e+000 99197 -7.8279e+001 -2.4688e+002  2.6535e+001 36296 98808,99148,98834
 4.9000e+000 99246 -9.6051e+001 -1.7717e+002  1.0009e+002 36296 98808,98782,99220
 4.9000e+000 99269 -3.9162e+001 -1.5685e+002  3.2759e+001 36296 98808,99220,99148
 4.9000e+000 99318 -1.0500e+002 -1.5437e+002  2.2989e+001 36296 98938,99220,99292
 4.9000e+000 99341 -1.0728e+002 -1.5847e+002  2.7436e+001 36296 98938,99292,98756
 4.9000e+000 99719 -1.3462e+002 -2.7932e+002  5.0081e-001 35742 99742,99471,99601
 4.9000e+000 99696 -1.3819e+002 -2.2153e+002  2.6391e+001 35742 99445,99601,99471
 4.9000e+000 99673 -1.2888e+002 -2.6623e+002 -1.1473e+001 35742 99742,99601,99575
 4.9000e+000 99650 -1.1229e+002 -3.2621e+002 -8.9687e+000 35742 99814,99549,99523
 4.9000e+000 99627 -9.0426e+001 -2.5486e+002 -1.5288e+000 35742 99471,99523,99497
 4.9000e+000 99768 -1.0803e+002 -2.7318e+002  5.9172e+000 35742 99523,99471,99742
 4.9000e+000 99791 -1.2675e+002 -3.0207e+002 -7.7511e+000 35742 99814,99523,99742
 4.9000e+000 99840 -1.1003e+002 -2.9629e+002 -1.8173e+001 35742 99575,99549,99814
 4.9000e+000 99863 -1.1930e+002 -2.6491e+002 -1.6170e+001 35742 99575,99814,99742
 4.9000e+000 100111 -1.0252e+002 -2.2629e+002  1.6064e+001 35302 100134,99990,99938
 4.9000e+000 100088 -8.5688e+001 -2.0655e+002  5.3003e+000 35302 100134,99938,99912
 4.9000e+000 100065 -8.5658e+001 -2.0677e+002 -5.2818e+000 35302 100206,99886,100016
 4.9000e+000 100042 -1.3222e+002 -2.1112e+002  1.0119e+001 35302 99938,99990,99964
 4.9000e+000 100160 -8.0853e+001 -2.1809e+002  3.5694e+000 35302 100016,99990,100134
 4.9000e+000 100183 -8.2321e+001 -2.0974e+002 -5.2280e+000 35302 100206,100016,100134
 4.9000e+000 100232 -8.8268e+001 -2.1029e+002 -2.9865e+000 35302 99912,99886,100206
 4.9000e+000 100255 -8.5240e+001 -2.1409e+002 -3.0818e+000 35302 99912,100206,100134
 4.9000e+000 100586 -1.2430e+002 -1.4319e+002  3.5981e+001 35012 100609,100387,100361
 4.9000e+000 100563 -1.5027e+002 -1.0764e+002 -2.8351e+001 35012 100609,100361,100465
 4.9000e+000 100540 -7.0326e+001 -7.8078e+001 -6.3709e+001 35012 100361,100491,100465
 4.9000e+000 100517 -2.7645e+001 -8.7886e+001 -6.0341e+001 35012 100413,100465,100439
 4.9000e+000 100635 -5.8652e+001 -1.1443e+002  1.4761e+001 35012 100413,100387,100609
 4.9000e+000 100658 -8.2668e+001 -6.9849e+001 -5.1278e+001 35012 100413,100609,100465
 4.9000e+000 100987 -1.0310e+002 -2.3127e+002  2.0047e+001 34700 100788,100866,100814
 4.9000e+000 100964 -8.2944e+001 -1.8224e+002  3.4524e+001 34700 101010,100866,100788
 4.9000e+000 100941 -5.6896e+001 -1.3345e+002  3.6464e+001 34700 100762,100892,100866
 4.9000e+000 100918 -9.5506e+001 -2.1131e+002  1.2940e+001 34700 100814,100866,100840
 4.9000e+000 101036 -5.6160e+001 -1.6005e+002  5.6077e+001 34700 100762,100866,101010
 4.9000e+000 101493 -1.3895e+002 -2.6057e+002 -2.3039e+001 34132 101516,101349,101297
 4.9000e+000 101470 -1.6498e+002 -3.1160e+002 -3.6559e+001 34132 101588,101516,101297
 4.9000e+000 101447 -1.6591e+002 -3.2832e+002 -5.3408e+001 34132 101588,101297,101245
 4.9000e+000 101424 -1.0253e+002 -3.8255e+002 -5.0040e+001 34132 101245,101297,101271
 4.9000e+000 101401 -1.5713e+002 -2.6222e+002 -2.9403e+001 34132 101297,101349,101323
 4.9000e+000 101542 -1.4453e+002 -3.0057e+002 -1.8186e+001 34132 101375,101349,101516
 4.9000e+000 101565 -1.2934e+002 -2.9899e+002 -1.8874e+001 34132 101375,101516,101219
 4.9000e+000 101614 -1.3279e+002 -3.1347e+002 -1.8930e+001 34132 101219,101516,101588
 4.9000e+000 101637 -1.4928e+002 -3.2959e+002 -3.5004e+001 34132 101219,101588,101245
 4.9000e+000 101858 -4.8952e+001 -2.1232e+002  2.1742e+001 33720 101708,101786,101760
 4.9000e+000 101835 -3.0762e+001 -2.3163e+002  3.3613e+001 33720 101682,101786,101708
 4.9000e+000 101812 -7.4690e+001 -2.2556e+002  1.5582e+001 33720 101708,101760,101734
 4.9000e+000 102128 -3.1929e+001 -2.7229e+002 -7.4476e+000 33130 101903,102007,101929
 4.9000e+000 102105 -3.8913e+001 -3.1483e+002  1.0133e+001 33130 101903,102033,102007
 4.9000e+000 102082 -1.7821e+001 -3.2554e+002 -6.3543e+001 33130 101929,102007,101955
 4.9000e+000 102059 -4.9528e+001 -2.3066e+002  5.2761e+000 33130 101955,102007,101981
 4.9000e+000 102461 -8.7448e+001 -2.0829e+002 -1.9639e+001 32840 102236,102340,102262
 4.9000e+000 102438 -7.6078e+001 -1.4987e+002  4.2905e+000 32840 102236,102366,102340
 4.9000e+000 102415 -5.2476e+001 -1.9967e+002 -1.6224e+001 32840 102262,102340,102288
 4.9000e+000 102392 -1.0499e+002 -2.1157e+002 -4.4018e+001 32840 102288,102340,102314
 4.9000e+000 102997 -9.0243e+001 -1.5482e+002  4.3173e+001 32493 102749,102879,102853
 4.9000e+000 102974 -7.3960e+001 -1.2307e+002  3.1361e+001 32493 102723,102879,102749
 4.9000e+000 102951 -1.0405e+002 -1.8772e+002  2.9664e+001 32493 102749,102801,102775
 4.9000e+000 102928 -1.1242e+002 -1.8604e+002  2.8220e+001 32493 102749,102853,102801
 4.9000e+000 102905 -1.0625e+002 -1.7668e+002  2.3006e+001 32493 102801,102853,102827
 4.9000e+000 103454 -9.5774e+001 -1.7225e+002 -1.8294e+001 32089 103206,103336,103310
 4.9000e+000 103431 -7.4571e+001 -1.8566e+002 -1.1608e+000 32089 103180,103336,103206
 4.9000e+000 103408 -1.0665e+002 -1.9880e+002 -3.4663e+001 32089 103206,103284,103258
 4.9000e+000 103385 -1.4802e+002 -2.0634e+002 -3.9365e+001 32089 103206,103310,103284
 4.9000e+000 103362 -8.2039e+001 -1.3628e+002 -2.2350e+001 32089 103206,103258,103232
 4.9000e+000 103783 -1.7056e+002 -2.2272e+002 -2.4825e+001 31742 103558,103662,103584
 4.9000e+000 103760 -1.4076e+002 -1.7903e+002 -5.9135e+001 31742 103558,103688,103662
 4.9000e+000 103737 -1.1444e+002 -1.8006e+002 -4.5432e+001 31742 103584,103662,103636
 4.9000e+000 103714 -1.0803e+002 -2.0414e+002 -5.0297e+001 31742 103584,103636,103610
 4.9000e+000 104112 -3.1726e+001 -1.7824e+002  2.7348e+001 31402 103939,103991,103965
 4.9000e+000 104089 -5.5381e+001 -1.5414e+002  1.3195e+001 31402 103913,103991,103939
 4.9000e+000 104066 -7.5191e+001 -1.7468e+002  1.8839e+000 31402 103913,104017,103991
 4.9000e+000 104043 -9.1429e+001 -1.6201e+002 -9.3280e+000 31402 103887,104017,103913
 4.9000e+000 104569 -1.5750e+002 -2.8038e+002  7.0762e+000 30998 104321,104425,104373
 4.9000e+000 104546 -1.7802e+002 -2.8685e+002  4.4618e+000 30998 104321,104451,104425
 4.9000e+000 104523 -1.1788e+002 -2.3298e+002  3.2119e+001 30998 104373,104425,104399
 4.9000e+000 104500 -1.4486e+002 -3.2881e+002 -1.6044e+001 30998 104295,104451,104321
 4.9000e+000 104477 -2.1104e+002 -3.3067e+002  5.9545e+001 30998 104321,104373,104347
 4.9000e+000 104947 -1.4294e+002 -2.4595e+002 -2.7960e+001 30608 104751,104803,104777
 4.9000e+000 104924 -9.5090e+001 -2.5350e+002 -1.0101e+001 30608 104725,104803,104751
 4.9000e+000 104901 -1.5166e+002 -2.4587e+002  1.6893e+001 30608 104699,104803,104725
 4.9000e+000 104878 -1.3019e+002 -2.3649e+002  1.5200e+001 30608 104673,104803,104699
 4.9000e+000 104855 -1.0060e+002 -2.2699e+002 -8.7769e+000 30608 104673,104829,104803
 4.9000e+000 105276 -9.9589e+001 -2.2865e+002  1.2046e+001 30204 105427,105129,105077
 4.9000e+000 105253 -6.9648e+001 -2.4745e+002  5.0077e+001 30204 105427,105077,105051
 4.9000e+000 105230 -8.5591e+001 -2.2029e+002  1.5552e+001 30204 105077,105129,105103
 4.9000e+000 105207 -6.1838e+001 -2.0618e+002  3.2717e+001 30204 105299,105181,105155
 4.9000e+000 105325 -6.5664e+001 -2.0235e+002  1.2268e+001 30204 105129,105181,105299
 4.9000e+000 105453 -1.1839e+002 -2.4142e+002  2.9929e+001 30204 105181,105129,105427
 4.9000e+000 105476 -1.3677e+002 -2.8234e+002  7.3070e+001 30204 105181,105427,105051
 4.9000e+000 105903 -8.3292e+001 -1.9759e+002 -1.5402e+001 29700 105606,105762,105736
 4.9000e+000 105880 -1.0743e+002 -2.0274e+002  6.0181e-001 29700 105580,105762,105606
 4.9000e+000 105857 -1.2716e+002 -2.4921e+002 -1.5038e+001 29700 105606,105710,105632
 4.9000e+000 105834 -1.0581e+002 -2.0899e+002 -7.0801e+000 29700 105606,105736,105710
 4.9000e+000 105811 -1.1980e+002 -2.2725e+002 -1.7308e+001 29700 105632,105710,105684
 4.9000e+000 105788 -1.1392e+002 -2.1312e+002 -1.0133e+001 29700 105632,105684,105658
 4.9000e+000 106102 -3.2653e+001 -2.3571e+002  1.0985e+001 29124 105978,106030,106004
 4.9000e+000 106079 -5.8832e+001 -2.3088e+002  1.1892e+001 29124 105926,106030,105978
 4.9000e+000 106056 -6.5026e+001 -2.6087e+002  3.3725e+001 29124 105926,105978,105952
 4.9000e+000 106301 -6.5778e+001 -2.4173e+002  1.0312e+000 28712 106151,106229,106203
 4.9000e+000 106278 -7.8510e+001 -2.6773e+002 -1.2238e+001 28712 106125,106229,106151
 4.9000e+000 106255 -6.8748e+001 -2.5439e+002  1.3337e+001 28712 106151,106203,106177
 4.9000e+000 106551 -8.5812e+001 -3.0265e+002  1.4122e+001 28258 106352,106404,106378
 4.9000e+000 106528 -1.1769e+002 -3.0551e+002  1.9669e+000 28258 106352,106456,106404
 4.9000e+000 106505 -1.1704e+002 -3.1395e+002 -1.3314e+000 28258 106326,106456,106352
 4.9000e+000 106482 -1.0626e+002 -2.8752e+002 -4.9973e+000 28258 106404,106456,106430
 4.9000e+000 107012 -1.0000e+002 -2.5742e+002  5.1626e+001 27818 107035,106790,106764
 4.9000e+000 106989 -8.6853e+001 -2.4426e+002  1.9289e+001 27818 107035,106764,106868
 4.9000e+000 106966 -6.0923e+001 -2.9330e+002  2.8384e+001 27818 107107,106842,106816
 4.9000e+000 106943 -1.3250e+002 -2.2776e+002  1.0873e+001 27818 106738,106868,106764
 4.9000e+000 106920 -1.2574e+002 -2.0362e+002  2.4828e+001 27818 106738,106894,106868
 4.9000e+000 107061 -4.2709e+001 -2.4574e+002  5.8667e+001 27818 106816,106790,107035
 4.9000e+000 107084 -7.6319e+001 -2.7412e+002  2.9889e+001 27818 107107,106816,107035
 4.9000e+000 107133 -5.8371e+001 -2.6529e+002  1.4760e+001 27818 106868,106842,107107
 4.9000e+000 107156 -6.8178e+001 -2.3651e+002  1.9846e+001 27818 106868,107107,107035
 4.9000e+000 107613 -3.1608e+001 -1.9480e+002  4.2242e+001 27312 107339,107469,107365
 4.9000e+000 107590 -3.7261e+000 -1.7789e+002  3.5108e+001 27312 107339,107495,107469
 4.9000e+000 107567 -3.3308e+001 -1.8847e+002  2.0381e+001 27312 107391,107469,107443
 4.9000e+000 107544 -3.1618e+001 -2.0293e+002  1.7541e+001 27312 107365,107469,107391
 4.9000e+000 107521 -9.0067e+001 -2.0683e+002  8.5703e+000 27312 107391,107443,107417
 4.9000e+000 107991 -1.0211e+002 -2.9008e+002  1.1896e+001 26858 108086,108014,107795
 4.9000e+000 107968 -1.1256e+002 -2.9771e+002 -1.4364e+001 26858 108014,107717,107873
 4.9000e+000 107945 -1.1512e+002 -3.0372e+002  2.0127e+001 26858 108158,108086,107795
 4.9000e+000 107922 -9.2644e+001 -3.0494e+002  1.9591e+001 26858 108158,107795,107769
 4.9000e+000 107899 -8.6529e+001 -3.6317e+002  5.0419e+001 26858 107821,107873,107847
 4.9000e+000 108040 -1.0837e+002 -3.2986e+002  1.7029e+001 26858 107821,107795,108014
 4.9000e+000 108063 -6.7810e+001 -3.1058e+002  1.6151e+000 26858 107821,108014,107873
 4.9000e+000 108112 -1.3697e+002 -3.0438e+002  1.3488e+001 26858 107717,108014,108086
 4.9000e+000 108135 -1.1477e+002 -3.0846e+002  3.0913e+001 26858 107717,108086,107743
 4.9000e+000 108184 -8.9388e+001 -2.9703e+002  2.8347e+001 26858 107743,108086,108158
 4.9000e+000 108207 -7.8842e+001 -3.0680e+002  2.8574e+001 26858 107743,108158,107769
 4.9000e+000 108634 -1.3364e+002 -2.7565e+002  5.3091e+000 26404 108657,108415,108363
 4.9000e+000 108611 -1.4996e+002 -2.9684e+002  3.1034e+001 26404 108657,108363,108337
 4.9000e+000 108588 -1.3054e+002 -2.8161e+002  3.0976e+001 26404 108729,108311,108467
 4.9000e+000 108565 -1.4274e+002 -3.2759e+002  4.8005e+000 26404 108801,108441,108415
 4.9000e+000 108542 -1.9680e+002 -3.1159e+002  3.7941e+001 26404 108311,108493,108467
 4.9000e+000 108519 -9.2702e+001 -2.7642e+002  5.3362e+000 26404 108363,108415,108389
 4.9000e+000 108683 -1.7631e+002 -2.9382e+002  9.1320e+000 26404 108801,108415,108657
 4.9000e+000 108706 -1.6810e+002 -2.9182e+002  2.4599e+001 26404 108729,108467,108657
 4.9000e+000 108755 -1.0631e+002 -2.9708e+002  3.0852e+001 26404 108337,108311,108729
 4.9000e+000 108778 -1.2548e+002 -2.9399e+002  2.3790e+001 26404 108337,108729,108657
 4.9000e+000 108827 -1.7555e+002 -3.9495e+002 -1.4786e+001 26404 108467,108441,108801
 4.9000e+000 108850 -1.9320e+002 -3.3674e+002 -1.0210e+001 26404 108467,108801,108657
 4.9000e+000 109228 -1.3398e+002 -2.8732e+002 -1.3449e+001 26064 109006,109084,109058
 4.9000e+000 109205 -1.1944e+002 -2.6850e+002  5.3714e+000 26064 108980,109084,109006
 4.9000e+000 109182 -1.2996e+002 -2.5720e+002 -8.9653e+000 26064 108980,109110,109084
 4.9000e+000 109159 -1.2866e+002 -3.0193e+002 -1.9783e+000 26064 109006,109058,109032
 4.9000e+000 109136 -4.4239e+001 -2.2956e+002  9.0097e+000 26064 108954,109110,108980
 4.9000e+000 109427 -3.3511e+001 -2.4494e+002 -4.9773e+001 25660 109303,109355,109329
 4.9000e+000 109404 -6.8042e+001 -3.1431e+002 -1.2137e+001 25660 109277,109355,109303
 4.9000e+000 109381 -4.1840e+001 -2.9656e+002 -4.3386e+000 25660 109251,109355,109277
 4.9000e+000 109577 -4.8111e+001 -1.1893e+002  4.1464e+001 25306 109476,109528,109502
 4.9000e+000 109554  1.3644e+001 -1.0321e+002  2.9572e+001 25306 109450,109528,109476
 4.9000e+000 109778 -9.4533e+001 -2.6049e+002  7.4592e+000 24944 109628,109706,109654
 4.9000e+000 109755 -1.0220e+002 -2.5556e+002  1.1928e+000 24944 109602,109706,109628
 4.9000e+000 109732 -8.3481e+001 -2.4500e+002 -2.1689e+000 24944 109654,109706,109680
 4.9000e+000 110126 -8.7881e+001 -3.3294e+002  1.0429e+001 24440 110149,109907,109855
 4.9000e+000 110103 -8.2763e+001 -3.5079e+002  2.0752e+001 24440 110149,109855,109985
 4.9000e+000 110080 -6.9564e+001 -2.8801e+002  6.2496e+000 24440 109855,109907,109881
 4.9000e+000 110057 -7.2354e+001 -2.7325e+002  9.1659e+001 24440 109829,109985,109855
 4.9000e+000 110034 -8.0605e+001 -3.3287e+002  2.1425e+000 24440 109907,109959,109933
 4.9000e+000 110011 -3.8516e+001 -2.7961e+002  7.8914e+000 24440 109803,109985,109829
 4.9000e+000 110175 -8.4117e+001 -3.1783e+002  7.9969e+000 24440 109959,109907,110149
 4.9000e+000 110198 -7.8697e+001 -3.3281e+002  2.0142e+001 24440 109959,110149,109985
 4.9000e+000 110301 -8.7847e+000 -1.7806e+002  2.1846e+000 24028 110223,110275,110249
 4.9000e+000 110573 -4.1186e+001 -1.9762e+002  1.5578e+001 23467 110400,110452,110426
 4.9000e+000 110550 -6.9725e+001 -2.3395e+002  5.9267e-001 23467 110374,110452,110400
 4.9000e+000 110527 -7.2534e+001 -2.3508e+002  3.9396e+000 23467 110348,110452,110374
 4.9000e+000 110504 -5.2590e+001 -2.2628e+002 -1.6795e+000 23467 110348,110478,110452
 4.9000e+000 111004 -1.5605e+002 -3.4136e+002 -3.6036e+001 22963 111027,110733,110707
 4.9000e+000 110981 -1.5350e+002 -3.2352e+002  1.5830e+001 22963 111027,110707,110681
 4.9000e+000 110958 -7.5105e+001 -2.8620e+002 -3.4854e+001 22963 111099,110759,110733
 4.9000e+000 110935 -9.9284e+001 -2.7970e+002 -2.3409e+001 22963 111171,110863,110811
 4.9000e+000 110912 -4.8137e+001 -2.0706e+002 -3.8668e+001 22963 110759,110811,110785
 4.9000e+000 110889 -1.1004e+002 -2.9868e+002 -1.8704e+001 22963 110811,110863,110837
 4.9000e+000 111053 -1.1049e+002 -3.1080e+002 -2.1532e+001 22963 111099,110733,111027
 4.9000e+000 111076 -9.3068e+001 -3.0335e+002 -1.9130e+001 22963 111171,110811,111027
 4.9000e+000 111125 -7.3448e+001 -2.8072e+002 -5.3807e+001 22963 110811,110759,111099
 4.9000e+000 111148 -7.9044e+001 -2.7748e+002 -4.5650e+001 22963 110811,111099,111027
 4.9000e+000 111197 -1.0000e+002 -2.4178e+002 -2.9161e+001 22963 110681,110863,111171
 4.9000e+000 111220 -1.0321e+002 -2.6971e+002 -1.4331e+001 22963 110681,111171,111027
 4.9000e+000 111726 -1.5197e+002 -2.9687e+002  7.0043e+000 22459 111749,111507,111429
 4.9000e+000 111703 -1.4025e+002 -2.9339e+002 -6.2877e+000 22459 111749,111429,111585
 4.9000e+000 111680 -1.1967e+002 -3.2702e+002 -3.8129e+000 22459 111403,111585,111429
 4.9000e+000 111657 -1.4546e+002 -3.2621e+002  1.3677e+001 22459 111507,111559,111533
 4.9000e+000 111634 -1.9799e+002 -2.8365e+002  1.8892e+001 22459 111455,111507,111481
 4.9000e+000 111611 -2.1073e+002 -2.8498e+002  2.6765e+001 22459 111429,111507,111455
 4.9000e+000 111775 -1.5284e+002 -3.1700e+002  1.8206e+001 22459 111559,111507,111749
 4.9000e+000 111798 -1.4027e+002 -3.0297e+002  5.2769e+000 22459 111559,111749,111585
 4.9000e+000 112046 -6.7916e+001 -2.5163e+002 -3.3702e+001 21898 112069,111925,111873
 4.9000e+000 112023 -6.5248e+001 -2.5372e+002 -8.4683e+000 21898 112069,111873,111847
 4.9000e+000 112000 -8.8018e+001 -2.6175e+002 -1.4526e+001 21898 111821,111951,111847
 4.9000e+000 111977 -7.6553e+001 -1.9703e+002 -2.1625e+001 21898 111873,111925,111899
 4.9000e+000 112095 -1.0365e+002 -2.6485e+002 -3.8487e+001 21898 111951,111925,112069
 4.9000e+000 112118 -8.6087e+001 -2.6116e+002 -1.4248e+001 21898 111951,112069,111847
 4.9000e+000 112498 -1.1684e+002 -2.7520e+002 -2.3786e+001 21608 112521,112276,112224
 4.9000e+000 112475 -7.6310e+001 -2.7800e+002 -1.4031e+000 21608 112521,112224,112380
 4.9000e+000 112452 -8.2383e+001 -3.2370e+002  1.9183e+001 21608 112302,112380,112354
 4.9000e+000 112429 -1.3853e+002 -3.1451e+002 -1.4505e+001 21608 112224,112276,112250
 4.9000e+000 112406  4.8122e+001 -3.4291e+002 -1.1986e+001 21608 112302,112354,112328
 4.9000e+000 112547 -8.3909e+001 -2.4148e+002 -4.4493e+000 21608 112302,112276,112521
 4.9000e+000 112570 -5.5981e+001 -2.6934e+002  1.0904e+001 21608 112302,112521,112380
 4.9000e+000 112948 -1.3547e+002 -2.8486e+002 -4.1275e+000 20882 112971,112752,112700
 4.9000e+000 112925 -1.0463e+002 -2.7465e+002 -1.0830e+001 20882 112971,112700,112830
 4.9000e+000 112902 -1.7203e+002 -3.0866e+002  1.8733e+001 20882 112778,112830,112804
 4.9000e+000 112879 -9.7096e+001 -2.2251e+002 -1.5422e+001 20882 112674,112830,112700
 4.9000e+000 112856 -1.6536e+002 -2.9573e+002  6.1457e+000 20882 112700,112752,112726
 4.9000e+000 112997 -1.3664e+002 -2.8530e+002  1.2900e+001 20882 112778,112752,112971
 4.9000e+000 113020 -1.1895e+002 -2.8038e+002  5.5516e+000 20882 112778,112971,112830
 4.9000e+000 113526 -9.7154e+001 -2.8431e+002  2.1508e+000 20428 113255,113385,113333
 4.9000e+000 113503 -1.0579e+002 -3.1141e+002  2.2781e+000 20428 113229,113385,113255
 4.9000e+000 113480 -1.3460e+001 -2.7755e+002  3.5830e+000 20428 113255,113333,113281
 4.9000e+000 113457 -9.0870e+001 -3.0395e+002  5.2970e+000 20428 113203,113385,113229
 4.9000e+000 113434 -4.9825e+001 -2.8963e+002 -8.2527e+000 20428 113281,113333,113307
 4.9000e+000 113411 -1.2021e+002 -2.8199e+002  8.1073e+000 20428 113333,113385,113359
 4.9000e+000 113774 -1.6336e+001 -2.7487e+002  1.1007e+001 19917 113797,113601,113549
 4.9000e+000 113751 -4.5526e+001 -2.8041e+002  1.4600e+001 19917 113869,113797,113549
 4.9000e+000 113728 -4.3426e+001 -2.8385e+002  2.7909e+001 19917 113869,113549,113679
 4.9000e+000 113705 -2.5109e+001 -2.7233e+002  2.2886e+001 19917 113549,113601,113575
 4.9000e+000 113823 -4.6325e+001 -3.3415e+002 -1.1070e+000 19917 113627,113601,113797
 4.9000e+000 113846 -1.7515e+001 -2.6159e+002 -6.7935e+000 19917 113627,113797,113653
 4.9000e+000 113895 -3.8762e+001 -2.4848e+002  4.3913e+000 19917 113653,113797,113869
 4.9000e+000 113918 -4.9575e+001 -2.5702e+002  2.1361e+001 19917 113653,113869,113679
 4.9000e+000 114166 -1.2644e+002 -2.8683e+002 -4.4638e+000 19413 113993,114045,114019
 4.9000e+000 114143 -1.1823e+002 -2.6649e+002  2.5665e+000 19413 113967,114045,113993
 4.9000e+000 114120 -9.9211e+001 -2.5984e+002  1.4921e+001 19413 113967,114071,114045
 4.9000e+000 114097 -7.9843e+001 -2.9332e+002 -4.3247e+000 19413 113941,114071,113967
 4.9000e+000 114438 -1.1796e+002 -3.1239e+002  2.8214e+000 19001 114213,114265,114239
 4.9000e+000 114415 -8.4982e+001 -2.4345e+002 -7.3199e+000 19001 114213,114343,114265
 4.9000e+000 114392 -1.2595e+002 -3.3531e+002 -1.5267e+001 19001 114265,114343,114317
 4.9000e+000 114369  2.3832e+001 -2.7065e+002 -5.9872e+000 19001 114265,114317,114291
 4.9000e+000 114639 -8.9278e+001 -3.7206e+002  1.8094e+001 18554 114489,114541,114515
 4.9000e+000 114616 -7.7957e+001 -3.2223e+002  3.0773e+000 18554 114489,114567,114541
 4.9000e+000 114593 -1.6821e+002 -3.6837e+002 -2.4357e+001 18554 114463,114567,114489
 4.9000e+000 115043 -6.0602e+001 -2.7744e+002  1.0414e+001 18164 114795,114925,114821
 4.9000e+000 115020 -5.3178e+001 -2.9289e+002  1.6747e+001 18164 114769,114925,114795
 4.9000e+000 114997 -3.2839e+001 -2.9211e+002 -2.1797e+000 18164 115066,114873,114821
 4.9000e+000 114974 -3.0550e+001 -2.5025e+002 -9.6609e+000 18164 115066,114821,114925
 4.9000e+000 114951  2.0546e+001 -2.9256e+002 -2.8459e+001 18164 114821,114873,114847
 4.9000e+000 115092 -4.7892e+001 -2.6188e+002 -2.4186e+001 18164 114899,114873,115066
 4.9000e+000 115115 -2.8451e+001 -1.9787e+002 -3.3696e+001 18164 114899,115066,114925
 4.9000e+000 115265 -7.6608e+001 -3.0378e+002  3.8326e+000 17852 115164,115216,115190
 4.9000e+000 115242 -8.5558e+001 -3.2273e+002 -3.8345e-001 17852 115138,115216,115164
 4.9000e+000 115464 -1.9385e+002 -4.3746e+002  5.7480e+000 17346 115288,115366,115340
 4.9000e+000 115441 -2.9812e+002 -3.3895e+002 -1.3442e+001 17346 115288,115392,115366
 4.9000e+000 115418 -1.7425e+002 -4.9004e+002 -1.5061e+001 17346 115288,115340,115314
 4.9000e+000 115736 -7.4281e+001 -2.7739e+002  1.1879e+001 16942 115563,115641,115615
 4.9000e+000 115713 -8.3629e+001 -2.7648e+002  3.7845e+000 16942 115511,115641,115563
 4.9000e+000 115690 -1.9402e+002 -3.2370e+002  1.7546e+001 16942 115563,115615,115589
 4.9000e+000 115667 -9.9031e+001 -3.0120e+002  1.0315e+001 16942 115511,115563,115537
 4.9000e+000 116091 -1.4298e+002 -3.3422e+002 -1.2807e+001 16388 115918,115970,115944
 4.9000e+000 116068 -1.2249e+002 -2.6779e+002 -8.4707e+000 16388 115918,115996,115970
 4.9000e+000 116045 -1.6541e+002 -3.3941e+002  1.1235e+001 16388 115892,115996,115918
 4.9000e+000 116022 -1.0730e+002 -3.0867e+002  3.8406e+001 16388 115866,115996,115892
 4.9000e+000 116192 -4.5017e+001 -3.4804e+002 -4.9304e+001 15810 116114,116166,116140
 4.9000e+000 116342 -1.3115e+002 -4.2259e+002  2.3007e+001 15419 116241,116293,116267
 4.9000e+000 116319 -1.8716e+002 -5.1802e+002 -1.4812e+001 15419 116215,116293,116241
 4.9000e+000 116445 -1.4182e+002 -2.8943e+002  2.7351e+000 421 116367,116419,116393
 5.0000e+000 68477 -1.8558e+002 -2.7310e+002  1.5884e+000 68018 68327,68379,68353
 5.0000e+000 68454 -1.9667e+002 -3.6106e+002  2.6840e+001 68018 68301,68379,68327
 5.0000e+000 68431 -9.2972e+001 -4.0380e+002  6.6461e+001 68018 68301,68405,68379
 5.0000e+000 68578 -1.2565e+002 -2.5897e+002  1.8972e+000 67820 68500,68552,68526
 5.0000e+000 68728 -1.3639e+002 -2.4272e+002 -3.0863e+000 67508 68601,68653,68627
 5.0000e+000 68705 -2.0643e+002 -1.8517e+002 -3.3796e+001 67508 68601,68679,68653
 5.0000e+000 68927 -4.0631e+001 -2.2896e+002 -4.9930e+000 67310 68777,68829,68803
 5.0000e+000 68904 -6.2004e+001 -2.6650e+002  4.9912e+000 67310 68751,68829,68777
 5.0000e+000 68881 -4.9891e+001 -2.7054e+002  1.4870e+001 67310 68751,68855,68829
 5.0000e+000 69386 -1.0813e+002 -2.8331e+002 -1.3388e+001 67020 69216,69268,69242
 5.0000e+000 69363 -9.9004e+001 -2.1977e+002 -2.7689e+001 67020 69138,69268,69216
 5.0000e+000 69340 -7.3376e+001 -1.9793e+002 -1.6054e+001 67020 69112,69268,69138
 5.0000e+000 69317 -1.3283e+002 -2.3753e+002  1.7395e+001 67020 69138,69190,69164
 5.0000e+000 69294 -1.3800e+002 -2.1705e+002 -1.1855e+001 67020 69138,69216,69190
 5.0000e+000 69536 -2.0687e+002 -5.0818e+002 -4.0711e+001 66708 69435,69487,69461
 5.0000e+000 69513 -1.5197e+002 -5.7158e+002 -6.3505e+000 66708 69409,69487,69435
 5.0000e+000 69735 -1.3216e+002 -2.6723e+002  6.1881e+000 66346 69585,69637,69611
 5.0000e+000 69712 -1.0921e+002 -2.5306e+002 -1.4488e+000 66346 69559,69637,69585
 5.0000e+000 69689 -9.8605e+001 -2.5010e+002 -2.5667e+001 66346 69559,69663,69637
 5.0000e+000 69985 -1.8764e+002 -3.1822e+002  4.5675e+000 66148 69786,69890,69864
 5.0000e+000 69962 -1.9405e+002 -3.2193e+002  6.3816e+000 66148 69760,69890,69786
 5.0000e+000 69939 -1.3868e+002 -2.9829e+002 -4.2361e+001 66148 69786,69864,69838
 5.0000e+000 69916 -1.6068e+002 -3.1816e+002 -1.6465e+001 66148 69786,69838,69812
 5.0000e+000 70137 -9.1359e+001 -3.5035e+002 -2.0135e+001 65950 70036,70088,70062
 5.0000e+000 70114 -7.8066e+001 -3.8909e+002  1.8519e+001 65950 70010,70088,70036
 5.0000e+000 70470 -7.0220e+001 -2.6066e+002  2.0868e+001 65546 70245,70323,70271
 5.0000e+000 70447 -5.1196e+001 -2.3266e+002  9.3910e+000 65546 70245,70375,70323
 5.0000e+000 70424 -6.4642e+001 -2.9365e+002  1.0409e+001 65546 70323,70375,70349
 5.0000e+000 70401 -5.5343e+001 -2.4088e+002  9.9282e+000 65546 70271,70323,70297
 5.0000e+000 70620 -1.1848e+002 -3.0528e+002  1.0149e+001 65348 70493,70545,70519
 5.0000e+000 70597 -8.4533e+001 -3.1874e+002  1.3024e+001 65348 70493,70571,70545
 5.0000e+000 70721 -1.6158e+002 -3.2596e+002  2.2645e+001 65150 70643,70695,70669
 5.0000e+000 71020 -1.1304e+002 -2.5301e+002  4.4528e+000 64952 71043,70850,70824
 5.0000e+000 70997 -9.8366e+001 -2.1824e+002  3.1918e+000 64952 71043,70824,70772
 5.0000e+000 70974 -1.0647e+002 -2.9324e+002  5.0831e+000 64952 71115,70746,70876
 5.0000e+000 70951 -8.5271e+001 -2.9314e+002 -1.6762e+000 64952 70746,70902,70876
 5.0000e+000 70928 -1.0119e+002 -1.8637e+002 -1.6834e+001 64952 70772,70824,70798
 5.0000e+000 71069 -9.0457e+001 -2.4121e+002  1.0479e+001 64952 70876,70850,71043
 5.0000e+000 71092 -1.0491e+002 -2.7568e+002  5.8551e+000 64952 71115,70876,71043
 5.0000e+000 71141 -1.2072e+002 -2.7303e+002 -1.0528e+001 64952 70772,70746,71115
 5.0000e+000 71164 -1.1274e+002 -2.4663e+002 -1.0273e+001 64952 70772,71115,71043
 5.0000e+000 71365 -3.7438e+000 -3.1808e+002 -4.3825e+000 64662 71215,71293,71267
 5.0000e+000 71342  4.6766e+001 -2.9702e+002 -5.1401e+001 64662 71189,71293,71215
 5.0000e+000 71319  2.4995e+001 -2.6103e+002  5.3615e+000 64662 71215,71267,71241
 5.0000e+000 71615 -7.5798e+001 -2.7148e+002 -3.4268e+000 64350 71710,71638,71468
 5.0000e+000 71592 -9.0721e+001 -2.6666e+002 -9.0363e+000 64350 71638,71416,71390
 5.0000e+000 71569 -8.1334e+001 -2.5290e+002  1.2138e+001 64350 71710,71468,71442
 5.0000e+000 71546  4.4647e+001 -2.5905e+002 -4.2531e+001 64350 71390,71520,71494
 5.0000e+000 71664 -7.1079e+001 -2.7040e+002 -3.5140e-001 64350 71494,71468,71638
 5.0000e+000 71687 -7.1228e+001 -2.7606e+002  1.3563e-001 64350 71494,71638,71390
 5.0000e+000 71736 -6.8071e+001 -2.3398e+002  1.3866e+000 64350 71416,71638,71710
 5.0000e+000 71759 -6.7316e+001 -2.1550e+002  2.1341e+001 64350 71416,71710,71442
 5.0000e+000 72318 -7.9836e+001 -4.2953e+002 -1.6881e+001 63837 71972,72024,71998
 5.0000e+000 72295 -1.2041e+002 -2.7706e+002 -6.6756e-001 63837 72341,71972,71946
 5.0000e+000 72272 -1.0911e+002 -2.2322e+002  1.0606e+001 63837 72413,72341,71946
 5.0000e+000 72249 -1.0141e+002 -2.0301e+002  3.9458e+000 63837 72413,71946,72128
 5.0000e+000 72226 -1.5215e+002 -2.4166e+002  2.2783e+000 63837 72024,72076,72050
 5.0000e+000 72203 -1.3151e+002 -2.2269e+002 -7.1191e+000 63837 72024,72102,72076
 5.0000e+000 72180 -6.8771e+001 -1.9153e+002  1.5215e+001 63837 71946,72154,72128
 5.0000e+000 72367 -1.4343e+002 -2.9661e+002 -5.1633e+001 63837 72024,71972,72341
 5.0000e+000 72390 -1.1222e+002 -2.4219e+002 -1.9744e+001 63837 72024,72341,72102
 5.0000e+000 72439 -8.6887e+001 -2.5621e+002  4.4228e+000 63837 72102,72341,72413
 5.0000e+000 72462 -8.0354e+001 -2.3582e+002  4.1556e-002 63837 72102,72413,72128
 5.0000e+000 72791 -1.3517e+002 -2.6037e+002 -2.6356e+001 63383 72592,72696,72670
 5.0000e+000 72768 -1.3735e+002 -2.4224e+002 -4.6148e+001 63383 72566,72696,72592
 5.0000e+000 72745 -1.3258e+002 -2.2633e+002  7.5089e-001 63383 72592,72670,72618
 5.0000e+000 72722 -1.2708e+002 -2.1043e+002 -8.1981e-001 63383 72618,72670,72644
 5.0000e+000 73297 -1.5931e+002 -2.2884e+002 -1.1100e+000 63185 73000,73156,73130
 5.0000e+000 73274 -1.5880e+002 -2.3508e+002  2.8890e+001 63185 72974,73156,73000
 5.0000e+000 73251 -1.2050e+002 -2.6420e+002 -3.5792e+000 63185 73000,73052,73026
 5.0000e+000 73228 -1.3231e+002 -2.3598e+002 -1.1112e+001 63185 73000,73130,73052
 5.0000e+000 73205 -1.3133e+002 -2.6544e+002 -3.9088e+001 63185 73052,73130,73104
 5.0000e+000 73182 -1.2384e+002 -2.9200e+002 -4.1340e+001 63185 73052,73104,73078
 5.0000e+000 73545 -5.4458e+001 -2.4803e+002  2.1209e+000 62781 73568,73398,73372
 5.0000e+000 73522 -3.8950e+001 -2.2586e+002  9.6693e+000 62781 73568,73372,73346
 5.0000e+000 73499 -7.2943e+001 -2.3733e+002 -7.7917e+000 62781 73640,73320,73424
 5.0000e+000 73476 -7.8105e+001 -1.5128e+002 -2.7386e+001 62781 73320,73450,73424
 5.0000e+000 73594 -4.4197e+001 -2.2864e+002 -3.7085e+000 62781 73424,73398,73568
 5.0000e+000 73617 -5.7711e+001 -2.3064e+002 -6.7948e+000 62781 73640,73424,73568
 5.0000e+000 73666 -7.0223e+001 -2.3320e+002  5.4483e+000 62781 73346,73320,73640
 5.0000e+000 73689 -6.2205e+001 -2.2948e+002  6.4448e+000 62781 73346,73640,73568
 5.0000e+000 74035 -9.5943e+001 -2.6342e+002 -4.2333e+000 62363 74058,73868,73842
 5.0000e+000 74012 -8.8213e+001 -2.4168e+002 -2.0555e+001 62363 74130,74058,73842
 5.0000e+000 73989 -8.0367e+001 -2.3933e+002 -2.1696e+001 62363 74130,73842,73816
 5.0000e+000 73966 -1.2941e+002 -2.7377e+002  3.1927e+000 62363 74202,73764,73894
 5.0000e+000 73943 -1.6761e+002 -2.5066e+002  3.5076e+000 62363 73712,73894,73764
 5.0000e+000 73920 -1.8021e+002 -2.6413e+002 -3.0132e+000 62363 73712,73764,73738
 5.0000e+000 74084 -9.5424e+001 -2.6078e+002 -3.8533e+000 62363 73894,73868,74058
 5.0000e+000 74107 -1.1855e+002 -2.6205e+002  1.1941e+001 62363 74202,73894,74058
 5.0000e+000 74156 -9.7609e+001 -2.4558e+002  7.0414e+000 62363 73790,74058,74130
 5.0000e+000 74179 -6.0307e+001 -2.3103e+002  8.5781e+000 62363 73790,74130,73816
 5.0000e+000 74228 -1.4162e+002 -2.7912e+002 -1.4095e+001 62363 73790,73764,74202
 5.0000e+000 74251 -1.3358e+002 -2.6666e+002 -5.4275e+000 62363 73790,74202,74058
 5.0000e+000 74403 -1.1872e+001 -2.8292e+002  1.8924e+001 62115 74426,74302,74276
 5.0000e+000 74380  4.0397e+001 -2.7160e+002  4.0326e+001 62115 74426,74276,74354
 5.0000e+000 74452 -6.0865e+001 -2.5638e+002  1.8645e+001 62115 74328,74302,74426
 5.0000e+000 74475 -1.2142e+001 -2.4683e+002  4.1452e+001 62115 74328,74426,74354
 5.0000e+000 74578  4.8533e+001 -1.5824e+002  2.2091e+000 61825 74500,74552,74526
 5.0000e+000 74982 -1.3781e+002 -2.4155e+002  1.5552e+000 61513 75005,74734,74708
 5.0000e+000 74959 -1.3525e+002 -2.3370e+002 -9.7564e-001 61513 75005,74708,74864
 5.0000e+000 74936 -1.7235e+002 -2.4817e+002  1.6024e+001 61513 75077,74812,74734
 5.0000e+000 74913 -1.5001e+002 -2.4523e+002 -2.0822e+001 61513 74734,74786,74760
 5.0000e+000 74890 -1.4808e+002 -2.2165e+002 -2.0537e+000 61513 74734,74812,74786
 5.0000e+000 75031 -1.3047e+002 -2.4760e+002  2.5678e+000 61513 75077,74734,75005
 5.0000e+000 75054 -1.0413e+002 -2.3980e+002  3.5461e+001 61513 74838,75005,74864
 5.0000e+000 75103 -1.9582e+002 -2.5866e+002  5.3885e+001 61513 74838,74812,75077
 5.0000e+000 75126 -1.6848e+002 -2.6838e+002  4.0520e+001 61513 74838,75077,75005
 5.0000e+000 75553 -6.9446e+001 -2.2235e+002 -8.0528e+000 61060 75576,75360,75308
 5.0000e+000 75530 -7.0924e+001 -2.3649e+002 -8.9275e+000 61060 75576,75308,75230
 5.0000e+000 75507 -6.3362e+001 -2.1383e+002 -5.6340e-001 61060 75308,75360,75334
 5.0000e+000 75484 -9.3004e+001 -2.7481e+002  1.5197e+001 61060 75230,75308,75256
 5.0000e+000 75461 -6.8816e+001 -2.5553e+002  6.3636e+000 61060 75256,75308,75282
 5.0000e+000 75438 -8.0281e+001 -2.1865e+002  2.7033e+001 61060 75360,75412,75386
 5.0000e+000 75602 -5.5228e+001 -2.3460e+002  9.8608e-001 61060 75412,75360,75576
 5.0000e+000 75625 -6.4983e+001 -2.6092e+002 -3.1456e+000 61060 75412,75576,75230
 5.0000e+000 76052 -1.0372e+002 -2.3046e+002  3.9449e+000 60442 75755,75859,75833
 5.0000e+000 76029 -1.1959e+002 -2.1834e+002 -1.5663e+001 60442 75729,75859,75755
 5.0000e+000 76006 -1.0703e+002 -2.1301e+002  1.3934e+001 60442 75755,75833,75807
 5.0000e+000 75983 -1.0288e+002 -2.5199e+002  7.4446e+000 60442 75755,75807,75781
 5.0000e+000 75960 -7.4147e-001 -4.0330e+002  1.5118e+001 60442 75729,75911,75859
 5.0000e+000 75937 -2.0581e+002 -9.9390e+002  6.3533e+001 60442 75859,75911,75885
 5.0000e+000 76430 -1.0751e+002 -2.7683e+002 -1.1277e+001 59788 76453,76286,76234
 5.0000e+000 76407 -1.1660e+002 -3.1639e+002  4.3414e+000 59788 76453,76234,76182
 5.0000e+000 76384 -1.1851e+002 -2.1139e+002  3.4897e+001 59788 76525,76156,76312
 5.0000e+000 76361 -6.8646e+001 -3.6228e+002 -4.0675e+000 59788 76182,76234,76208
 5.0000e+000 76338 -8.6558e+001 -2.6664e+002 -7.3784e+000 59788 76234,76286,76260
 5.0000e+000 76479 -1.2990e+002 -2.9892e+002  1.2922e+000 59788 76312,76286,76453
 5.0000e+000 76502 -1.0924e+002 -2.8311e+002  1.4292e+001 59788 76525,76312,76453
 5.0000e+000 76551 -1.4709e+002 -3.0150e+002  3.6475e+001 59788 76182,76156,76525
 5.0000e+000 76574 -1.3035e+002 -3.2347e+002  2.1941e+001 59788 76182,76525,76453
 5.0000e+000 77031 -7.8174e+001 -1.7032e+002 -2.5582e+001 59448 76835,76887,76861
 5.0000e+000 77008 -3.4413e+001 -1.4133e+002  6.3663e+000 59448 76835,76913,76887
 5.0000e+000 76985 -4.4815e+001 -1.1928e+002  2.3029e+001 59448 76809,76913,76835
 5.0000e+000 76962 -8.4471e+001 -1.5693e+002 -2.6993e-001 59448 76757,76913,76809
 5.0000e+000 76939 -6.9738e+001 -1.3922e+002 -6.6144e+000 59448 76757,76809,76783
 5.0000e+000 77537 -1.1106e+002 -2.3966e+002  1.1582e+001 58994 77560,77344,77292
 5.0000e+000 77514 -1.5580e+002 -2.3784e+002  2.9736e+000 58994 77560,77292,77240
 5.0000e+000 77491 -8.9841e+001 -2.2351e+002 -5.5476e+000 58994 77632,77214,77370
 5.0000e+000 77468 -1.8391e+002 -2.7426e+002  4.7620e+001 58994 77292,77344,77318
 5.0000e+000 77445 -9.2760e+001 -2.8911e+002  1.1111e+001 58994 77214,77396,77370
 5.0000e+000 77422 -1.5906e+002 -2.5296e+002 -5.8001e+000 58994 77240,77292,77266
 5.0000e+000 77586 -1.1583e+002 -2.4392e+002  1.3376e+001 58994 77370,77344,77560
 5.0000e+000 77609 -1.1515e+002 -2.3882e+002  1.5694e+001 58994 77632,77370,77560
 5.0000e+000 77658 -7.6195e+001 -2.0745e+002 -2.8899e+001 58994 77240,77214,77632
 5.0000e+000 77681 -9.4957e+001 -2.0530e+002 -9.7371e+000 58994 77240,77632,77560
 5.0000e+000 78138 -9.5091e+001 -1.6926e+002  2.4638e+001 58440 77864,77994,77890
 5.0000e+000 78115 -6.2657e+001 -1.0456e+002 -1.2049e+001 58440 77864,78020,77994
 5.0000e+000 78092 -1.0748e+002 -1.9834e+002 -1.7671e+001 58440 77942,77994,77968
 5.0000e+000 78069 -8.6050e+001 -1.8979e+002  3.8351e+000 58440 77890,77994,77942
 5.0000e+000 78046 -7.6778e+001 -1.8881e+002 -2.5384e+000 58440 77890,77942,77916
 5.0000e+000 78467 -1.8650e+001 -2.2008e+002  7.5266e+000 57928 78562,78490,78346
 5.0000e+000 78444 -8.3688e+001 -2.2180e+002 -3.9526e+000 57928 78490,78294,78268
 5.0000e+000 78421 -5.1313e+000 -2.3068e+002  1.8586e+001 57928 78562,78346,78320
 5.0000e+000 78398 -3.2893e+001 -2.1456e+002  2.4823e+000 57928 78242,78372,78268
 5.0000e+000 78516 -7.3735e+001 -2.7444e+002 -1.5328e+001 57928 78372,78346,78490
 5.0000e+000 78539 -5.8669e+001 -2.1131e+002 -2.7434e+000 57928 78372,78490,78268
 5.0000e+000 78588 -8.3648e+001 -2.1820e+002  7.4023e-001 57928 78294,78490,78562
 5.0000e+000 78611 -4.2139e+001 -1.9657e+002  2.2746e+001 57928 78294,78562,78320
 5.0000e+000 79068 -1.6342e+002 -3.4521e+002 -8.5360e+001 57467 78794,78924,78820
 5.0000e+000 79045 -1.2820e+002 -3.2893e+002 -8.0237e+001 57467 78794,78950,78924
 5.0000e+000 79022 -6.9021e+001 -3.0824e+002  2.9704e+001 57467 78820,78898,78872
 5.0000e+000 78999 -1.2071e+002 -4.2383e+002 -4.5022e+001 57467 78820,78924,78898
 5.0000e+000 78976 -5.0061e+001 -3.1160e+002  4.5421e+001 57467 78820,78872,78846
 5.0000e+000 79446 -1.3682e+002 -2.5846e+002 -3.3604e-001 57120 79172,79302,79250
 5.0000e+000 79423 -1.2288e+002 -2.5213e+002 -8.9646e+000 57120 79172,79328,79302
 5.0000e+000 79400 -1.2372e+002 -2.2608e+002 -9.2545e+000 57120 79172,79250,79198
 5.0000e+000 79377 -9.4275e+001 -3.2623e+002  1.2546e+001 57120 79250,79302,79276
 5.0000e+000 79354 -1.5124e+002 -2.4552e+002 -1.8572e+001 57120 79198,79250,79224
 5.0000e+000 79952 -1.8264e+002 -2.8888e+002  1.0757e+000 56773 79629,79785,79655
 5.0000e+000 79929 -5.4340e+001 -2.4973e+002  1.3025e+001 56773 79629,79811,79785
 5.0000e+000 79906 -1.4199e+002 -3.1251e+002  2.1074e+001 56773 79655,79733,79681
 5.0000e+000 79883 -1.3958e+002 -2.7745e+002  5.4549e+000 56773 79655,79785,79733
 5.0000e+000 79860 -1.3067e+002 -3.6283e+002 -4.3526e+001 56773 79733,79785,79759
 5.0000e+000 79837 -7.4558e+001 -2.8152e+002  5.4257e+001 56773 79681,79733,79707
 5.0000e+000 80281 -6.5329e+001 -2.1351e+002 -1.7255e+001 56319 80108,80160,80134
 5.0000e+000 80258 -7.0379e+001 -2.3224e+002 -2.1241e+001 56319 80056,80160,80108
 5.0000e+000 80235 -3.1669e+001 -2.0598e+002  1.3659e+001 56319 80056,80186,80160
 5.0000e+000 80212 -9.4187e+001 -2.9687e+002 -1.4349e+001 56319 80056,80108,80082
 5.0000e+000 80738 -3.8485e+001 -2.5775e+002  1.3972e+001 55957 80516,80620,80594
 5.0000e+000 80715 -9.2703e+001 -2.3433e+002  1.1126e+001 55957 80464,80620,80516
 5.0000e+000 80692 -7.9308e+001 -2.8078e+002  1.4391e+001 55957 80761,80568,80542
 5.0000e+000 80669 -6.4910e+001 -2.7647e+002  1.7036e+001 55957 80761,80542,80516
 5.0000e+000 80646 -9.3136e+001 -2.3475e+002  2.9186e+001 55957 80464,80516,80490
 5.0000e+000 80787 -9.3253e+001 -2.7906e+002  1.0245e+001 55957 80594,80568,80761
 5.0000e+000 80810 -7.9748e+001 -2.7517e+002  1.3066e+001 55957 80594,80761,80516
 5.0000e+000 81210 -7.8640e+001 -2.6558e+002 -2.9788e+001 55317 80936,80988,80962
 5.0000e+000 81187 -6.5194e+001 -2.8998e+002 -1.2298e+000 55317 80936,81066,80988
 5.0000e+000 81164 -4.4525e+001 -3.1037e+002  4.2632e+000 55317 80936,81092,81066
 5.0000e+000 81141 -9.2083e+001 -3.0901e+002 -2.8229e+001 55317 80988,81066,81014
 5.0000e+000 81118 -1.2858e+001 -1.7475e+002  1.8181e+001 55317 81014,81066,81040
 5.0000e+000 81539 -1.1716e+002 -2.6527e+002  6.2008e+000 54913 81340,81418,81392
 5.0000e+000 81516 -4.7800e+001 -2.1469e+002 -1.6768e+001 54913 81340,81444,81418
 5.0000e+000 81493 -7.2311e+001 -2.2992e+002 -3.2239e+001 54913 81314,81444,81340
 5.0000e+000 81470 -1.3453e+002 -2.8061e+002 -6.5789e-001 54913 81340,81392,81366
 5.0000e+000 81787 -6.7946e+001 -2.7840e+002 -2.6147e+000 54601 81588,81692,81640
 5.0000e+000 81764 -9.8700e+001 -2.8204e+002 -9.3253e+000 54601 81562,81692,81588
 5.0000e+000 81741 -5.4791e+001 -2.8309e+002  3.5814e+001 54601 81588,81640,81614
 5.0000e+000 81718 -6.9933e+001 -3.3026e+002 -2.9278e+001 54601 81640,81692,81666
 5.0000e+000 82344 -1.0387e+002 -2.8252e+002 -1.3828e+001 54090 81998,82102,82076
 5.0000e+000 82321 -1.4029e+002 -2.9841e+002 -8.3990e+000 54090 81998,82154,82102
 5.0000e+000 82298 -1.2770e+002 -2.9136e+002 -4.8811e+000 54090 81972,82154,81998
 5.0000e+000 82275 -1.4591e+002 -2.6397e+002 -1.6083e+001 54090 81998,82076,82024
 5.0000e+000 82252 -1.5537e+002 -3.1020e+002  1.4366e+001 54090 81972,82180,82154
 5.0000e+000 82229 -1.9582e+002 -3.6501e+002  2.1340e+001 54090 82102,82154,82128
 5.0000e+000 82206 -2.6381e+001 -1.9973e+002 -4.1439e+001 54090 82024,82076,82050
 5.0000e+000 82722 -1.8008e+002 -3.2255e+002 -1.1410e+001 53579 82500,82578,82552
 5.0000e+000 82699 -1.3399e+002 -2.9433e+002  7.1532e+000 53579 82448,82578,82500
 5.0000e+000 82676 -1.4718e+002 -3.3252e+002  9.2322e+000 53579 82448,82500,82474
 5.0000e+000 82653 -1.7551e+002 -3.1581e+002  2.2908e+001 53579 82448,82604,82578
 5.0000e+000 82630 -9.4991e+001 -2.9970e+002 -1.2817e+001 53579 82500,82552,82526
 5.0000e+000 83356 -8.7962e+001 -2.3284e+002 -2.4109e+001 53189 83379,83088,83036
 5.0000e+000 83333 -8.5086e+001 -2.6259e+002 -2.1867e+001 53189 83379,83036,82984
 5.0000e+000 83310 -4.3399e+001 -2.4792e+002  3.5169e+001 53189 82984,83192,83166
 5.0000e+000 83287  2.3838e+000 -1.9316e+002 -1.7224e+001 53189 83036,83088,83062
 5.0000e+000 83264 -6.8008e+001 -2.9401e+002 -4.0639e+001 53189 82984,83036,83010
 5.0000e+000 83241 -6.2043e+001 -2.9201e+002  4.7397e+000 53189 83114,83166,83140
 5.0000e+000 83218 -1.1928e+002 -3.0525e+002  2.0870e+000 53189 83088,83166,83114
 5.0000e+000 83405 -8.8122e+001 -2.5294e+002 -1.1756e+001 53189 83166,83088,83379
 5.0000e+000 83428 -8.0849e+001 -2.7926e+002 -1.1391e+001 53189 83166,83379,82984
 5.0000e+000 83725 -1.1520e+002 -3.2699e+002 -2.9895e+001 52585 83748,83529,83503
 5.0000e+000 83702 -8.5655e+001 -3.1731e+002 -1.9385e+001 52585 83820,83748,83503
 5.0000e+000 83679 -5.7311e+001 -3.0906e+002 -1.5773e+001 52585 83820,83503,83477
 5.0000e+000 83656 -4.0416e+001 -2.8223e+002  3.6502e+001 52585 83477,83607,83581
 5.0000e+000 83633  2.3053e+001 -2.5498e+002  3.9022e+001 52585 83451,83607,83477
 5.0000e+000 83774 -1.0045e+002 -2.9004e+002 -2.5997e+001 52585 83555,83529,83748
 5.0000e+000 83797 -1.3207e+002 -3.1300e+002 -1.5973e+001 52585 83555,83748,83581
 5.0000e+000 83846 -1.1247e+002 -2.9907e+002 -4.7502e+000 52585 83581,83748,83820
 5.0000e+000 83869 -9.2238e+001 -2.9604e+002 -4.2376e+000 52585 83581,83820,83477
 5.0000e+000 84200 -8.4728e+001 -2.9403e+002 -1.0853e+001 52024 84001,84105,84079
 5.0000e+000 84177 -4.5050e+001 -2.8720e+002 -2.1459e+001 52024 83975,84105,84001
 5.0000e+000 84154 -7.3763e+001 -2.9528e+002 -8.2236e+000 52024 84001,84079,84053
 5.0000e+000 84131 -3.6363e+001 -1.9745e+002  3.6008e+001 52024 84001,84053,84027
 5.0000e+000 84399 -7.3206e+001 -2.9514e+002 -1.6114e+000 51470 84422,84275,84249
 5.0000e+000 84376 -6.8440e+001 -2.8463e+002  1.1178e+000 51470 84422,84249,84223
 5.0000e+000 84353 -8.2689e+001 -3.1238e+002 -4.3258e+001 51470 84275,84327,84301
 5.0000e+000 84448 -7.8271e+001 -2.8529e+002 -2.1831e+000 51470 84327,84275,84422
 5.0000e+000 84471 -7.4956e+001 -2.7683e+002  3.5967e-001 51470 84327,84422,84223
 5.0000e+000 84753 -8.6938e+001 -2.4548e+002 -9.9033e-001 51073 84603,84655,84629
 5.0000e+000 84730 -1.7600e+002 -2.8701e+002 -1.2826e+001 51073 84776,84655,84603
 5.0000e+000 84707 -4.0101e+001 -2.4881e+002 -6.9207e+001 51073 84577,84681,84655
 5.0000e+000 84802 -1.1240e+002 -2.5109e+002 -3.2909e+001 51073 84577,84655,84776
 5.0000e+000 85178 -1.5894e+002 -3.4827e+002  3.0495e+001 50519 85201,85008,84982
 5.0000e+000 85155 -1.5058e+002 -3.2392e+002  2.2605e+001 50519 85273,85201,84982
 5.0000e+000 85132 -1.4231e+002 -3.2374e+002  1.7341e+001 50519 85273,84982,84930
 5.0000e+000 85109 -1.3766e+002 -3.1461e+002  1.4661e+001 50519 84930,84982,84956
 5.0000e+000 85086 -1.3121e+002 -3.2745e+002  1.3633e+001 50519 85008,85060,85034
 5.0000e+000 85227 -1.3283e+002 -3.3181e+002  1.3846e+001 50519 85060,85008,85201
 5.0000e+000 85250 -1.4921e+002 -3.3364e+002  9.3610e+000 50519 85060,85201,84904
 5.0000e+000 85299 -1.4211e+002 -3.2825e+002  6.9829e+000 50519 84904,85201,85273
 5.0000e+000 85322 -1.1227e+002 -2.8996e+002 -6.3650e+000 50519 84904,85273,84930
 5.0000e+000 85958 -9.3664e+001 -2.9294e+002 -9.9024e+000 50093 85981,85768,85716
 5.0000e+000 85935 -8.3242e+001 -2.6593e+002 -1.1673e+001 50093 85981,85716,85612
 5.0000e+000 85912 -1.1978e+002 -2.7478e+002  4.6724e+000 50093 85612,85716,85664
 5.0000e+000 85889 -7.0124e+001 -2.8792e+002 -3.5488e+000 50093 85716,85768,85742
 5.0000e+000 85866 -9.9057e+001 -2.1157e+002 -5.9647e+001 50093 85664,85716,85690
 5.0000e+000 85843 -3.6329e+001 -2.0186e+002 -1.0656e+001 50093 85586,85794,85612
 5.0000e+000 85820 -8.2254e+001 -3.7272e+002  3.0701e+001 50093 85612,85664,85638
 5.0000e+000 86007 -1.1355e+002 -3.1501e+002 -4.8070e+001 50093 85794,85768,85981
 5.0000e+000 86030 -8.1713e+001 -2.3764e+002 -4.0315e+001 50093 85794,85981,85612
 5.0000e+000 86131 -9.8652e+001 -2.9246e+002  3.9192e+001 49895 86053,86105,86079
 5.0000e+000 86639 -7.2778e+001 -2.0373e+002 -4.0974e+001 49391 86662,86394,86368
 5.0000e+000 86616 -8.5617e+001 -2.4775e+002 -3.6742e+001 49391 86662,86368,86342
 5.0000e+000 86593 -4.7442e+001 -2.4713e+002 -1.0814e+001 49391 86342,86498,86472
 5.0000e+000 86570 -3.1434e+001 -2.7003e+002 -1.2831e+001 49391 86316,86498,86342
 5.0000e+000 86547 -1.3780e+002 -3.7689e+002 -1.6952e+001 49391 86394,86472,86446
 5.0000e+000 86524 -1.1324e+001 -3.5610e+002  2.7414e+000 49391 86394,86446,86420
 5.0000e+000 86688 -8.1499e+001 -2.4487e+002 -2.1904e+001 49391 86472,86394,86662
 5.0000e+000 86711 -7.3175e+001 -2.6370e+002 -2.1195e+001 49391 86472,86662,86342
 5.0000e+000 87089 -1.0563e+002 -2.9315e+002  7.9403e+000 48987 86815,86919,86867
 5.0000e+000 87066 -1.0532e+002 -3.0124e+002  1.2001e+001 48987 86815,86971,86919
 5.0000e+000 87043 -4.0476e+001 -3.2342e+002 -2.8573e+001 48987 86867,86919,86893
 5.0000e+000 87020 -1.1947e+002 -3.3100e+002  2.6042e+001 48987 86815,86867,86841
 5.0000e+000 86997 -1.1800e+002 -2.5984e+002  4.1015e+001 48987 86919,86971,86945
 5.0000e+000 87467 -1.9815e+002 -2.9224e+002  1.4508e+001 48540 87490,87245,87219
 5.0000e+000 87444 -1.4265e+002 -2.7350e+002  1.3253e+000 48540 87562,87490,87219
 5.0000e+000 87421 -1.0785e+002 -2.5945e+002  1.1870e+001 48540 87562,87219,87349
 5.0000e+000 87398 -1.4706e+002 -2.2834e+002 -1.4167e+001 48540 87245,87297,87271
 5.0000e+000 87375 -9.1103e+001 -2.7168e+002  8.8427e+000 48540 87193,87349,87219
 5.0000e+000 87516 -1.3566e+002 -2.7723e+002  4.2227e+000 48540 87297,87245,87490
 5.0000e+000 87539 -1.3737e+002 -2.7971e+002  5.3236e+000 48540 87297,87490,87323
 5.0000e+000 87588 -1.0909e+002 -2.5810e+002  2.4031e+001 48540 87323,87490,87562
 5.0000e+000 87611 -9.2264e+001 -2.6226e+002  3.1052e+001 48540 87323,87562,87349
 5.0000e+000 87810 -1.3396e+002 -4.7616e+002 -3.4631e+001 48136 87660,87712,87686
 5.0000e+000 87787 -7.7512e+001 -2.8139e+002 -1.5458e+001 48136 87660,87738,87712
 5.0000e+000 87764 -1.7939e+002 -2.9197e+002 -4.6522e+001 48136 87634,87738,87660
 5.0000e+000 88205 -1.2593e+002 -3.0974e+002 -2.6853e+001 47210 88300,88228,87937
 5.0000e+000 88182 -1.1007e+002 -3.0093e+002 -7.9855e+000 47210 88228,87833,88041
 5.0000e+000 88159 -1.2776e+002 -3.3094e+002 -4.2305e+001 47210 88300,87937,87911
 5.0000e+000 88136 -1.2358e+002 -2.9935e+002 -3.6200e+001 47210 87833,87911,87859
 5.0000e+000 88113 -2.0892e+002 -2.7287e+002 -2.2023e+001 47210 87937,87989,87963
 5.0000e+000 88090 -1.0445e+002 -2.4571e+002  5.0999e+001 47210 87989,88041,88015
 5.0000e+000 88067 -1.4343e+002 -3.4948e+002 -4.7934e+001 47210 87859,87911,87885
 5.0000e+000 88254 -1.1216e+002 -2.5647e+002 -2.7591e+001 47210 87989,87937,88228
 5.0000e+000 88277 -1.3235e+002 -2.9572e+002 -1.0444e+001 47210 87989,88228,88041
 5.0000e+000 88326 -1.0505e+002 -2.8932e+002 -1.0110e+001 47210 87833,88228,88300
 5.0000e+000 88349 -1.1015e+002 -3.0329e+002 -2.6692e+001 47210 87833,88300,87911
 5.0000e+000 88780 -1.9054e+002 -3.3588e+002 -6.3584e+001 46642 88803,88509,88483
 5.0000e+000 88757 -1.3707e+002 -3.0236e+002 -3.3933e+001 46642 88803,88483,88639
 5.0000e+000 88734 -1.5188e+002 -2.4826e+002 -3.9654e+001 46642 88875,88561,88509
 5.0000e+000 88711 -1.5363e+002 -2.2976e+002 -7.5071e+000 46642 88509,88561,88535
 5.0000e+000 88688 -8.8808e+001 -3.3960e+002  8.0820e-001 46642 88457,88639,88483
 5.0000e+000 88665 -1.7432e+002 -4.0106e+002 -1.8051e+001 46642 88561,88613,88587
 5.0000e+000 88829 -1.5307e+002 -2.7091e+002 -4.4661e+001 46642 88875,88509,88803
 5.0000e+000 88852 -1.5003e+002 -3.2488e+002 -2.8522e+001 46642 88613,88803,88639
 5.0000e+000 88901 -1.2531e+002 -2.7965e+002 -2.0597e+001 46642 88613,88561,88875
 5.0000e+000 88924 -1.3663e+002 -3.1634e+002 -2.4845e+001 46642 88613,88875,88803
 5.0000e+000 89253 -5.9298e+001 -2.9634e+002  5.5332e+000 46444 89080,89158,89132
 5.0000e+000 89230 -6.7684e+001 -3.1472e+002  2.4006e+000 46444 89028,89158,89080
 5.0000e+000 89207 -2.5522e+001 -2.7903e+002 -1.2827e+001 46444 89028,89080,89054
 5.0000e+000 89184 -3.1032e+001 -3.2056e+002 -2.4339e+001 46444 89080,89132,89106
 5.0000e+000 89631 -8.5268e+001 -2.0555e+002  4.7759e+000 46040 89383,89461,89435
 5.0000e+000 89608 -9.0031e+001 -2.2689e+002 -1.3192e+001 46040 89383,89487,89461
 5.0000e+000 89585 -9.2316e+001 -2.6585e+002 -7.5140e+000 46040 89383,89435,89409
 5.0000e+000 89562 -7.1803e+001 -1.9467e+002 -2.6930e+001 46040 89383,89513,89487
 5.0000e+000 89539 -2.8965e+001 -1.7365e+002 -3.6182e+001 46040 89357,89513,89383
 5.0000e+000 90009 -8.9665e+001 -2.6076e+002 -1.1576e+000 45636 89813,89891,89839
 5.0000e+000 89986 -9.2446e+001 -2.4374e+002  1.4095e+001 45636 89787,89891,89813
 5.0000e+000 89963 -7.9484e+001 -2.4440e+002 -7.0274e+000 45636 89839,89891,89865
 5.0000e+000 89940 -1.0808e+002 -2.7209e+002  7.6010e+000 45636 89735,89891,89787
 5.0000e+000 89917 -8.5221e+001 -2.7434e+002 -1.2347e+001 45636 89735,89787,89761
 5.0000e+000 90208 -5.8869e+001 -2.0129e+002 -3.9553e+001 45175 90231,90058,90032
 5.0000e+000 90185 -3.5894e+001 -1.8409e+002 -5.9930e+001 45175 90231,90032,90136
 5.0000e+000 90162 -7.0448e+001 -1.6330e+002 -3.5259e+000 45175 90058,90110,90084
 5.0000e+000 90257 -8.4902e+001 -2.2648e+002 -1.0579e+001 45175 90110,90058,90231
 5.0000e+000 90280 -4.0823e+001 -1.9640e+002 -3.3282e+001 45175 90110,90231,90136
 5.0000e+000 90528 -6.4382e+001 -2.0569e+002 -2.7479e+001 44513 90695,90551,90407
 5.0000e+000 90505 -6.9271e+001 -1.8643e+002 -1.3913e+001 44513 90551,90355,90329
 5.0000e+000 90482 -8.3893e+001 -2.0181e+002 -2.4852e+001 44513 90623,90303,90433
 5.0000e+000 90459 -4.9781e+001 -1.9152e+002 -1.9917e+001 44513 90695,90407,90381
 5.0000e+000 90577 -9.4185e+001 -2.1529e+002 -4.6901e+001 44513 90433,90407,90551
 5.0000e+000 90600 -8.0720e+001 -1.9733e+002 -2.3418e+001 44513 90623,90433,90551
 5.0000e+000 90649 -8.1949e+001 -1.9613e+002 -2.3067e+001 44513 90329,90303,90623
 5.0000e+000 90672 -8.2637e+001 -1.9563e+002 -2.2972e+001 44513 90329,90623,90551
 5.0000e+000 90721 -8.2428e+001 -1.8687e+002 -3.1078e+001 44513 90355,90551,90695
 5.0000e+000 90744 -7.8295e+001 -1.8005e+002 -2.8197e+001 44513 90355,90695,90381
 5.0000e+000 91077  1.5447e-001 -2.1262e+002 -1.2948e+001 44059 91100,90930,90904
 5.0000e+000 91054 -8.3529e+001 -2.2986e+002  1.1780e+001 44059 91100,90904,90982
 5.0000e+000 91031 -1.4811e+002 -2.6645e+002 -1.8092e+001 44059 90878,90982,90904
 5.0000e+000 91008 -4.8549e+001 -2.0159e+002  1.2167e+001 44059 90852,90982,90878
 5.0000e+000 91126 -1.2542e+002 -2.4507e+002 -1.5614e+001 44059 91172,91100,90956
 5.0000e+000 91149 -7.9603e+001 -2.2523e+002 -9.9873e+000 44059 90956,91100,90982
 5.0000e+000 91198 -3.1844e+000 -1.2348e+002 -6.4566e+001 44059 90930,91100,91172
 5.0000e+000 91677 -1.0538e+002 -1.6632e+002  1.5815e+001 43549 91455,91533,91481
 5.0000e+000 91654 -4.1197e+001 -1.6692e+002  2.2404e+001 43549 91429,91533,91455
 5.0000e+000 91631 -1.0203e+002 -1.6719e+002  7.3698e+000 43549 91481,91533,91507
 5.0000e+000 91608 -2.1454e+001 -1.5882e+002  9.7580e+000 43549 91429,91559,91533
 5.0000e+000 91585  4.0321e+000 -4.4429e+001 -9.9201e-001 43549 91403,91559,91429
 5.0000e+000 92006 -1.0704e+002 -2.6611e+002  6.2737e-001 43059 91781,91885,91807
 5.0000e+000 91983 -1.1168e+002 -2.5118e+002  4.1168e+001 43059 91781,91911,91885
 5.0000e+000 91960 -1.0646e+002 -2.6535e+002  2.4281e-001 43059 91807,91885,91833
 5.0000e+000 91937 -6.9412e+001 -2.5098e+002 -4.1852e+000 43059 91833,91885,91859
 5.0000e+000 92561 -8.2169e+001 -1.8141e+002 -2.1465e+001 42598 92584,92215,92189
 5.0000e+000 92538 -9.0322e+001 -2.0559e+002 -1.9752e+001 42598 92656,92584,92189
 5.0000e+000 92515 -8.1353e+001 -2.3286e+002 -5.9079e+000 42598 92656,92189,92397
 5.0000e+000 92492 -1.0833e+002 -1.6278e+002 -2.5847e+001 42598 92241,92319,92293
 5.0000e+000 92469 -1.0104e+002 -1.9275e+002  1.0806e+001 42598 92319,92397,92371
 5.0000e+000 92446 -3.8817e+001 -2.2839e+002  9.6315e+001 42598 92319,92371,92345
 5.0000e+000 92423 -1.0446e+002 -1.6646e+002 -3.5205e+001 42598 92241,92293,92267
 5.0000e+000 92610 -8.8706e+001 -1.8315e+002 -2.0200e+001 42598 92241,92215,92584
 5.0000e+000 92633 -8.1279e+001 -1.6651e+002 -2.5173e+001 42598 92241,92584,92319
 5.0000e+000 92682 -8.2746e+001 -1.6915e+002 -1.4446e+001 42598 92319,92584,92656
 5.0000e+000 92705 -6.7137e+001 -1.8772e+002 -4.2469e+000 42598 92319,92656,92397
 5.0000e+000 92953 -1.1004e+002 -2.8653e+002  1.5326e+001 42094 92976,92806,92780
 5.0000e+000 92930 -1.2213e+002 -2.7032e+002  4.1147e-002 42094 92976,92780,92754
 5.0000e+000 92907 -2.7916e+001 -2.7728e+002 -1.7074e+000 42094 93048,92832,92806
 5.0000e+000 92884 -1.5551e+002 -2.7372e+002 -1.7992e+001 42094 92728,92858,92754
 5.0000e+000 93002 -7.1511e+001 -2.6556e+002  7.2942e+000 42094 93048,92806,92976
 5.0000e+000 93025 -1.1320e+002 -2.6540e+002 -4.3967e+000 42094 92858,92976,92754
 5.0000e+000 93074 -8.8832e+001 -2.9945e+002 -2.8471e+000 42094 92858,92832,93048
 5.0000e+000 93097 -1.2439e+002 -2.8277e+002  2.3771e+000 42094 92858,93048,92976
 5.0000e+000 93605 -1.1405e+002 -3.2736e+002 -1.2321e+001 41846 93628,93412,93386
 5.0000e+000 93582 -8.6863e+001 -2.4733e+002 -2.0846e+000 41846 93628,93386,93308
 5.0000e+000 93559 -1.3122e+002 -2.5794e+002 -5.4006e+001 41846 93700,93464,93438
 5.0000e+000 93536 -1.2389e+002 -3.4250e+002  4.0850e+000 41846 93308,93386,93334
 5.0000e+000 93513 -1.5911e+002 -2.4616e+002 -4.1380e+001 41846 93334,93386,93360
 5.0000e+000 93490 -1.2440e+002 -2.2689e+002 -5.2304e+001 41846 93282,93464,93308
 5.0000e+000 93654 -9.9779e+001 -2.6256e+002 -2.4533e+001 41846 93438,93412,93628
 5.0000e+000 93677 -1.3231e+002 -2.6379e+002 -2.4742e+001 41846 93700,93438,93628
 5.0000e+000 93726 -1.1795e+002 -2.2181e+002 -5.0053e+001 41846 93308,93464,93700
 5.0000e+000 93749 -1.1407e+002 -2.1622e+002 -2.1174e+001 41846 93308,93700,93628
 5.0000e+000 94255 -9.3890e+001 -2.7315e+002  1.7167e+001 41385 93958,94114,94088
 5.0000e+000 94232 -8.2581e+001 -2.9362e+002  7.1829e+000 41385 93932,94114,93958
 5.0000e+000 94209 -1.5870e+002 -3.1588e+002  5.0632e+001 41385 93958,94088,94062
 5.0000e+000 94186 -1.6548e+002 -2.2899e+002  3.7309e+001 41385 93958,94062,93984
 5.0000e+000 94163 -1.4224e+002 -2.2403e+002  3.3825e+001 41385 93984,94062,94036
 5.0000e+000 94140 -9.7467e+001 -3.0371e+002  4.9010e+001 41385 93984,94036,94010
 5.0000e+000 94476 -3.0912e+001 -3.6841e+002  2.1457e+001 40881 94326,94378,94352
 5.0000e+000 94453 -6.1728e+001 -3.0315e+002  2.4394e+001 40881 94300,94378,94326
 5.0000e+000 94430 -7.7665e+001 -2.8056e+002  2.9346e+000 40881 94300,94404,94378
 5.0000e+000 94626 -7.6524e+001 -2.1082e+002 -3.6163e+000 40591 94649,94551,94525
 5.0000e+000 94603 -4.4329e+001 -1.2955e+002  3.1438e+000 40591 94781,94577,94551
 5.0000e+000 94675 -2.6743e+001 -1.5224e+002 -2.5985e+001 40591 94781,94551,94649
 5.0000e+000 94807  7.3369e-001 -8.7286e+001  2.7739e+001 40591 94499,94577,94781
 5.0000e+000 94830  6.3892e+000 -1.3156e+002 -3.1549e+000 40591 94499,94781,94649
 5.0000e+000 95336 -1.8917e+002 -2.5179e+002 -3.9226e+001 40187 95013,95169,95039
 5.0000e+000 95313 -4.5610e+001 -2.2782e+002  4.9702e+000 40187 95013,95195,95169
 5.0000e+000 95290 -3.1919e+001 -2.4615e+002 -2.7655e+001 40187 95039,95143,95065
 5.0000e+000 95267 -1.4133e+002 -2.8959e+002 -4.2094e+001 40187 95039,95169,95143
 5.0000e+000 95244 -5.8722e+001 -2.1196e+002 -2.1030e+001 40187 95091,95143,95117
 5.0000e+000 95221 -1.8713e+001 -1.3285e+002 -7.5783e+000 40187 95065,95143,95091
 5.0000e+000 95665 -6.9201e+001 -1.8953e+002  8.3728e+001 39626 95466,95570,95544
 5.0000e+000 95642 -1.3041e+002 -1.5129e+002  5.4456e+001 39626 95440,95570,95466
 5.0000e+000 95619 -2.0304e+002 -2.5243e+002  5.4148e+001 39626 95466,95544,95492
 5.0000e+000 95596 -4.1333e+001 -1.9531e+002  8.2651e+001 39626 95492,95544,95518
 5.0000e+000 95913 -1.0619e+002 -2.3126e+002 -3.4363e+001 39136 96080,95936,95766
 5.0000e+000 95890 -7.3570e+001 -2.4822e+002 -2.1132e+001 39136 95936,95714,95688
 5.0000e+000 95867 -1.8490e+002 -2.4770e+002  9.2868e+000 39136 96008,95792,95766
 5.0000e+000 95844 -8.7245e+001 -2.2447e+002 -2.5762e+001 39136 96080,95766,95740
 5.0000e+000 95962 -1.4671e+002 -2.5661e+002 -2.2461e+001 39136 96008,95766,95936
 5.0000e+000 95985 -9.5378e+001 -3.0256e+002 -5.6335e+000 39136 95818,95936,95688
 5.0000e+000 96034 -9.2520e+001 -2.0753e+002  1.5107e+001 39136 95818,95792,96008
 5.0000e+000 96057 -8.2446e+001 -2.2751e+002 -1.6124e+001 39136 95818,96008,95936
 5.0000e+000 96106 -9.6638e+001 -2.2833e+002 -9.0961e+000 39136 95714,95936,96080
 5.0000e+000 96129 -6.7160e+001 -2.2039e+002 -2.3615e+000 39136 95714,96080,95740
 5.0000e+000 96350 -7.6765e+001 -1.9450e+002 -1.1242e+001 38824 96200,96278,96252
 5.0000e+000 96327 -6.4460e+001 -1.8879e+002 -9.6527e+000 38824 96174,96278,96200
 5.0000e+000 96304 -1.3566e+001 -1.6928e+002 -3.4287e+001 38824 96200,96252,96226
 5.0000e+000 96830 -1.1135e+002 -2.0302e+002 -1.5344e+001 38320 97069,96536,96484
 5.0000e+000 96807 -1.0917e+002 -2.0597e+002 -1.5206e+001 38320 97069,96484,96853
 5.0000e+000 96784 -1.2361e+002 -2.2166e+002  2.7551e+000 38320 96853,96484,96458
 5.0000e+000 96761 -6.8154e+001 -1.7779e+002 -2.2497e+001 38320 96925,96640,96614
 5.0000e+000 96738 -1.0686e+002 -1.8515e+002 -1.0526e+001 38320 96997,96666,96640
 5.0000e+000 96715 -9.0794e+001 -2.4077e+002 -6.8006e+000 38320 97141,96588,96562
 5.0000e+000 96692 -1.3964e+002 -2.3434e+002 -2.8109e+000 38320 96484,96536,96510
 5.0000e+000 96879 -1.1016e+002 -2.1867e+002 -9.4246e+000 38320 97141,96562,96853
 5.0000e+000 96902 -1.0228e+002 -2.1277e+002 -8.6689e+000 38320 96925,96614,96853
 5.0000e+000 96951 -1.0447e+002 -1.8329e+002 -1.1770e+001 38320 96997,96640,96925
 5.0000e+000 96974 -9.9414e+001 -1.8040e+002 -7.4757e+000 38320 96458,96925,96853
 5.0000e+000 97023 -1.1780e+002 -1.8725e+002 -4.7351e+000 38320 96458,96666,96997
 5.0000e+000 97046 -1.0908e+002 -1.8296e+002 -6.1206e+000 38320 96458,96997,96925
 5.0000e+000 97095 -1.1279e+002 -1.9216e+002 -4.3299e+000 38320 96562,96536,97069
 5.0000e+000 97118 -1.0469e+002 -2.0370e+002 -1.3317e+001 38320 96562,97069,96853
 5.0000e+000 97167 -5.7025e+001 -2.2037e+002 -1.6154e+001 38320 96614,96588,97141
 5.0000e+000 97190 -8.8917e+001 -2.0731e+002 -1.6105e+001 38320 96614,97141,96853
 5.0000e+000 97519 -8.7253e+001 -2.6655e+002  7.1825e+001 37766 97542,97398,97372
 5.0000e+000 97496 -1.0451e+002 -2.0904e+002  5.0237e+001 37766 97542,97372,97346
 5.0000e+000 97473 -1.0387e+002 -2.1867e+002  4.2855e+000 37766 97294,97424,97346
 5.0000e+000 97450 -1.1570e+002 -2.5570e+002 -1.0866e+000 37766 97294,97346,97320
 5.0000e+000 97568 -4.5315e+001 -2.7953e+002  2.4383e+001 37766 97424,97398,97542
 5.0000e+000 97591 -7.2844e+001 -2.1365e+002  6.5320e+000 37766 97424,97542,97346
 5.0000e+000 98048 -1.1048e+002 -1.6182e+002 -5.0931e+001 37262 98071,97878,97852
 5.0000e+000 98025 -9.4196e+001 -1.9285e+002 -2.0637e+001 37262 98071,97852,97800
 5.0000e+000 98002 -1.0431e+002 -2.3166e+002 -2.2538e+001 37262 97800,97852,97826
 5.0000e+000 97979 -1.0648e+002 -2.0778e+002  4.8530e+000 37262 97800,97930,97904
 5.0000e+000 97956 -7.1928e+001 -2.4824e+002  1.5259e+001 37262 97774,97930,97800
 5.0000e+000 98097 -1.5510e+002 -1.8366e+002 -3.5818e+001 37262 97904,97878,98071
 5.0000e+000 98120 -1.1881e+002 -2.1839e+002 -8.3871e+000 37262 97904,98071,97800
 5.0000e+000 98449 -6.0253e+001 -1.6285e+002 -1.9486e+001 36950 98472,98302,98250
 5.0000e+000 98426 -3.6302e+001 -1.5571e+002 -2.3795e+001 36950 98472,98250,98354
 5.0000e+000 98403 -9.2791e+001 -1.8054e+002  2.0664e+001 36950 98250,98302,98276
 5.0000e+000 98380 -2.3281e+001 -1.2328e+002  1.2627e+001 36950 98224,98354,98250
 5.0000e+000 98498 -4.2565e+001 -1.8167e+002 -5.4329e+000 36950 98328,98302,98472
 5.0000e+000 98521 -1.4728e+001 -1.7101e+002 -1.3746e+001 36950 98328,98472,98354
 5.0000e+000 99125 -1.2076e+002 -1.2010e+002  1.1346e+001 36296 98704,98756,98730
 5.0000e+000 99102 -1.2059e+002 -1.3529e+002  1.2005e+001 36296 98704,98938,98756
 5.0000e+000 99079 -8.7667e+001 -1.6777e+002 -4.1129e+000 36296 99148,98938,98912
 5.0000e+000 99056 -9.2981e+001 -1.7303e+002  3.9145e+001 36296 99292,99220,98782
 5.0000e+000 99033 -7.6720e+001 -1.9323e+002  4.3549e+000 36296 99148,98912,98834
 5.0000e+000 99010 -8.8448e+001 -1.4748e+002  4.3410e+001 36296 99292,98782,98756
 5.0000e+000 98987 -7.3525e+001 -3.4020e+002 -6.2776e+001 36296 98834,98912,98886
 5.0000e+000 98964 -1.2465e+002 -4.9200e+002 -8.0433e+001 36296 98834,98886,98860
 5.0000e+000 99174 -1.0770e+002 -2.0680e+002  6.0493e+000 36296 99220,98938,99148
 5.0000e+000 99197 -7.4872e+001 -2.3545e+002  2.4981e+001 36296 98808,99148,98834
 5.0000e+000 99246 -9.0928e+001 -1.6755e+002  9.4685e+001 36296 98808,98782,99220
 5.0000e+000 99269 -3.7995e+001 -1.5073e+002  3.0952e+001 36296 98808,99220,99148
 5.0000e+000 99318 -1.0020e+002 -1.4850e+002  2.1818e+001 36296 98938,99220,99292
 5.0000e+000 99341 -1.0237e+002 -1.5242e+002  2.5941e+001 36296 98938,99292,98756
 5.0000e+000 99719 -1.2809e+002 -2.6568e+002  5.6667e-001 35742 99742,99471,99601
 5.0000e+000 99696 -1.3123e+002 -2.1042e+002  2.5328e+001 35742 99445,99601,99471
 5.0000e+000 99673 -1.2251e+002 -2.5294e+002 -1.0831e+001 35742 99742,99601,99575
 5.0000e+000 99650 -1.0674e+002 -3.1053e+002 -8.5438e+000 35742 99814,99549,99523
 5.0000e+000 99627 -8.6328e+001 -2.4258e+002 -1.3179e+000 35742 99471,99523,99497
 5.0000e+000 99768 -1.0275e+002 -2.5976e+002  5.6309e+000 35742 99523,99471,99742
 5.0000e+000 99791 -1.2061e+002 -2.8738e+002 -7.3797e+000 35742 99814,99523,99742
 5.0000e+000 99840 -1.0449e+002 -2.8186e+002 -1.7371e+001 35742 99575,99549,99814
 5.0000e+000 99863 -1.1341e+002 -2.5177e+002 -1.5459e+001 35742 99575,99814,99742
 5.0000e+000 100111 -9.7399e+001 -2.1530e+002  1.5334e+001 35302 100134,99990,99938
 5.0000e+000 100088 -8.1432e+001 -1.9640e+002  5.1844e+000 35302 100134,99938,99912
 5.0000e+000 100065 -8.1444e+001 -1.9687e+002 -4.9214e+000 35302 100206,99886,100016
 5.0000e+000 100042 -1.2533e+002 -2.0148e+002  9.6883e+000 35302 99938,99990,99964
 5.0000e+000 100160 -7.6859e+001 -2.0753e+002  3.4426e+000 35302 100016,99990,100134
 5.0000e+000 100183 -7.8244e+001 -1.9965e+002 -4.8579e+000 35302 100206,100016,100134
 5.0000e+000 100232 -8.4053e+001 -2.0016e+002 -2.8133e+000 35302 99912,99886,100206
 5.0000e+000 100255 -8.1112e+001 -2.0369e+002 -2.8760e+000 35302 99912,100206,100134
 5.0000e+000 100586 -1.1867e+002 -1.3576e+002  3.5189e+001 35012 100609,100387,100361
 5.0000e+000 100563 -1.4364e+002 -1.0113e+002 -2.6793e+001 35012 100609,100361,100465
 5.0000e+000 100540 -6.6555e+001 -7.2308e+001 -6.0934e+001 35012 100361,100491,100465
 5.0000e+000 100517 -2.4891e+001 -8.3231e+001 -5.8656e+001 35012 100413,100465,100439
 5.0000e+000 100635 -5.5567e+001 -1.0808e+002  1.4342e+001 35012 100413,100387,100609
 5.0000e+000 100658 -7.8557e+001 -6.4546e+001 -4.9274e+001 35012 100413,100609,100465
 5.0000e+000 100987 -9.8122e+001 -2.2066e+002  1.9163e+001 34700 100788,100866,100814
 5.0000e+000 100964 -7.9368e+001 -1.7415e+002  3.2840e+001 34700 101010,100866,100788
 5.0000e+000 100941 -5.4233e+001 -1.2649e+002  3.4473e+001 34700 100762,100892,100866
 5.0000e+000 100918 -9.0968e+001 -2.0192e+002  1.2663e+001 34700 100814,100866,100840
 5.0000e+000 101036 -5.3659e+001 -1.5273e+002  5.3771e+001 34700 100762,100866,101010
 5.0000e+000 101493 -1.3231e+002 -2.4838e+002 -2.1781e+001 34132 101516,101349,101297
 5.0000e+000 101470 -1.5738e+002 -2.9695e+002 -3.4735e+001 34132 101588,101516,101297
 5.0000e+000 101447 -1.5815e+002 -3.1283e+002 -5.1073e+001 34132 101588,101297,101245
 5.0000e+000 101424 -9.7300e+001 -3.6420e+002 -4.8028e+001 34132 101245,101297,101271
 5.0000e+000 101401 -1.4965e+002 -2.5009e+002 -2.7679e+001 34132 101297,101349,101323
 5.0000e+000 101542 -1.3766e+002 -2.8632e+002 -1.7162e+001 34132 101375,101349,101516
 5.0000e+000 101565 -1.2312e+002 -2.8460e+002 -1.7698e+001 34132 101375,101516,101219
 5.0000e+000 101614 -1.2621e+002 -2.9856e+002 -1.7918e+001 34132 101219,101516,101588
 5.0000e+000 101637 -1.4211e+002 -3.1398e+002 -3.3486e+001 34132 101219,101588,101245
 5.0000e+000 101858 -4.6413e+001 -2.0133e+002  2.0498e+001 33720 101708,101786,101760
 5.0000e+000 101835 -2.8903e+001 -2.1888e+002  3.1842e+001 33720 101682,101786,101708
 5.0000e+000 101812 -7.1196e+001 -2.1400e+002  1.4762e+001 33720 101708,101760,101734
 5.0000e+000 102128 -3.0352e+001 -2.5914e+002 -7.0899e+000 33130 101903,102007,101929
 5.0000e+000 102105 -3.6700e+001 -2.9976e+002  9.6968e+000 33130 101903,102033,102007
 5.0000e+000 102082 -1.6792e+001 -3.0968e+002 -6.0319e+001 33130 101929,102007,101955
 5.0000e+000 102059 -4.6972e+001 -2.1931e+002  5.1636e+000 33130 101955,102007,101981
 5.0000e+000 102461 -8.2856e+001 -1.9724e+002 -1.8649e+001 32840 102236,102340,102262
 5.0000e+000 102438 -7.2016e+001 -1.4156e+002  4.1421e+000 32840 102236,102366,102340
 5.0000e+000 102415 -5.0339e+001 -1.8936e+002 -1.5336e+001 32840 102262,102340,102288
 5.0000e+000 102392 -9.8956e+001 -2.0013e+002 -4.1766e+001 32840 102288,102340,102314
 5.0000e+000 102997 -8.5994e+001 -1.4735e+002  4.1420e+001 32493 102749,102879,102853
 5.0000e+000 102974 -6.9973e+001 -1.1609e+002  2.9825e+001 32493 102723,102879,102749
 5.0000e+000 102951 -9.9400e+001 -1.7924e+002  2.8355e+001 32493 102749,102801,102775
 5.0000e+000 102928 -1.0726e+002 -1.7756e+002  2.6940e+001 32493 102749,102853,102801
 5.0000e+000 102905 -1.0171e+002 -1.6919e+002  2.2198e+001 32493 102801,102853,102827
 5.0000e+000 103454 -8.9770e+001 -1.6128e+002 -1.7521e+001 32089 103206,103336,103310
 5.0000e+000 103431 -6.9208e+001 -1.7210e+002 -1.2703e+000 32089 103180,103336,103206
 5.0000e+000 103408 -1.0043e+002 -1.8671e+002 -3.3204e+001 32089 103206,103284,103258
 5.0000e+000 103385 -1.4006e+002 -1.9400e+002 -3.7646e+001 32089 103206,103310,103284
 5.0000e+000 103362 -7.8307e+001 -1.3019e+002 -2.1351e+001 32089 103206,103258,103232
 5.0000e+000 103783 -1.6152e+002 -2.1103e+002 -2.3462e+001 31742 103558,103662,103584
 5.0000e+000 103760 -1.3347e+002 -1.7025e+002 -5.6227e+001 31742 103558,103688,103662
 5.0000e+000 103737 -1.0895e+002 -1.7109e+002 -4.2750e+001 31742 103584,103662,103636
 5.0000e+000 103714 -1.0263e+002 -1.9428e+002 -4.7510e+001 31742 103584,103636,103610
 5.0000e+000 104112 -2.9412e+001 -1.6809e+002  2.6330e+001 31402 103939,103991,103965
 5.0000e+000 104089 -5.1945e+001 -1.4593e+002  1.2883e+001 31402 103913,103991,103939
 5.0000e+000 104066 -7.1417e+001 -1.6617e+002  1.7327e+000 31402 103913,104017,103991
 5.0000e+000 104043 -8.6607e+001 -1.5345e+002 -8.8593e+000 31402 103887,104017,103913
 5.0000e+000 104569 -1.4941e+002 -2.6700e+002  6.9685e+000 30998 104321,104425,104373
 5.0000e+000 104546 -1.6861e+002 -2.7305e+002  4.5008e+000 30998 104321,104451,104425
 5.0000e+000 104523 -1.1230e+002 -2.2214e+002  3.0733e+001 30998 104373,104425,104399
 5.0000e+000 104500 -1.3719e+002 -3.1196e+002 -1.4526e+001 30998 104295,104451,104321
 5.0000e+000 104477 -2.0033e+002 -3.1484e+002  5.6851e+001 30998 104321,104373,104347
 5.0000e+000 104947 -1.3650e+002 -2.3430e+002 -2.6696e+001 30608 104751,104803,104777
 5.0000e+000 104924 -9.0531e+001 -2.4134e+002 -9.5399e+000 30608 104725,104803,104751
 5.0000e+000 104901 -1.4446e+002 -2.3416e+002  1.6120e+001 30608 104699,104803,104725
 5.0000e+000 104878 -1.2437e+002 -2.2551e+002  1.4725e+001 30608 104673,104803,104699
 5.0000e+000 104855 -9.5556e+001 -2.1539e+002 -8.4021e+000 30608 104673,104829,104803
 5.0000e+000 105276 -9.5276e+001 -2.1789e+002  1.1257e+001 30204 105427,105129,105077
 5.0000e+000 105253 -6.6571e+001 -2.3605e+002  4.7738e+001 30204 105427,105077,105051
 5.0000e+000 105230 -8.1778e+001 -2.0959e+002  1.4775e+001 30204 105077,105129,105103
 5.0000e+000 105207 -5.8031e+001 -1.9579e+002  3.1119e+001 30204 105299,105181,105155
 5.0000e+000 105325 -6.1936e+001 -1.9212e+002  1.1227e+001 30204 105129,105181,105299
 5.0000e+000 105453 -1.1329e+002 -2.3015e+002  2.8424e+001 30204 105181,105129,105427
 5.0000e+000 105476 -1.3094e+002 -2.6953e+002  6.9818e+001 30204 105181,105427,105051
 5.0000e+000 105903 -7.9144e+001 -1.8791e+002 -1.4623e+001 29700 105606,105762,105736
 5.0000e+000 105880 -1.0174e+002 -1.9270e+002  5.0316e-001 29700 105580,105762,105606
 5.0000e+000 105857 -1.2081e+002 -2.3705e+002 -1.4162e+001 29700 105606,105710,105632
 5.0000e+000 105834 -1.0064e+002 -1.9890e+002 -6.6704e+000 29700 105606,105736,105710
 5.0000e+000 105811 -1.1344e+002 -2.1617e+002 -1.6531e+001 29700 105632,105710,105684
 5.0000e+000 105788 -1.0823e+002 -2.0362e+002 -9.5926e+000 29700 105632,105684,105658
 5.0000e+000 106102 -3.1639e+001 -2.2503e+002  1.0369e+001 29124 105978,106030,106004
 5.0000e+000 106079 -5.6156e+001 -2.2025e+002  1.1323e+001 29124 105926,106030,105978
 5.0000e+000 106056 -6.2129e+001 -2.4878e+002  3.1779e+001 29124 105926,105978,105952
 5.0000e+000 106301 -6.2755e+001 -2.3021e+002  9.9994e-001 28712 106151,106229,106203
 5.0000e+000 106278 -7.4635e+001 -2.5496e+002 -1.1646e+001 28712 106125,106229,106151
 5.0000e+000 106255 -6.5469e+001 -2.4211e+002  1.2595e+001 28712 106151,106203,106177
 5.0000e+000 106551 -8.1587e+001 -2.8838e+002  1.3778e+001 28258 106352,106404,106378
 5.0000e+000 106528 -1.1191e+002 -2.9094e+002  2.0052e+000 28258 106352,106456,106404
 5.0000e+000 106505 -1.1145e+002 -2.9913e+002 -1.2064e+000 28258 106326,106456,106352
 5.0000e+000 106482 -1.0118e+002 -2.7381e+002 -4.3982e+000 28258 106404,106456,106430
 5.0000e+000 107012 -9.5263e+001 -2.4509e+002  4.8998e+001 27818 107035,106790,106764
 5.0000e+000 106989 -8.2754e+001 -2.3252e+002  1.8346e+001 27818 107035,106764,106868
 5.0000e+000 106966 -5.8116e+001 -2.7932e+002  2.6964e+001 27818 107107,106842,106816
 5.0000e+000 106943 -1.2574e+002 -2.1640e+002  1.0148e+001 27818 106738,106868,106764
 5.0000e+000 106920 -1.1971e+002 -1.9412e+002  2.3851e+001 27818 106738,106894,106868
 5.0000e+000 107061 -4.0951e+001 -2.3401e+002  5.5666e+001 27818 106816,106790,107035
 5.0000e+000 107084 -7.2841e+001 -2.6102e+002  2.8398e+001 27818 107107,106816,107035
 5.0000e+000 107133 -5.5562e+001 -2.5262e+002  1.3983e+001 27818 106868,106842,107107
 5.0000e+000 107156 -6.4992e+001 -2.2518e+002  1.8818e+001 27818 106868,107107,107035
 5.0000e+000 107613 -3.0152e+001 -1.8505e+002  4.0133e+001 27312 107339,107469,107365
 5.0000e+000 107590 -3.8516e+000 -1.6966e+002  3.3708e+001 27312 107339,107495,107469
 5.0000e+000 107567 -3.1648e+001 -1.7886e+002  1.9300e+001 27312 107391,107469,107443
 5.0000e+000 107544 -3.0033e+001 -1.9275e+002  1.6570e+001 27312 107365,107469,107391
 5.0000e+000 107521 -8.5977e+001 -1.9654e+002  8.2295e+000 27312 107391,107443,107417
 5.0000e+000 107991 -9.6874e+001 -2.7566e+002  1.1560e+001 26858 108086,108014,107795
 5.0000e+000 107968 -1.0658e+002 -2.8389e+002 -1.3239e+001 26858 108014,107717,107873
 5.0000e+000 107945 -1.0899e+002 -2.8858e+002  1.9153e+001 26858 108158,108086,107795
 5.0000e+000 107922 -8.7380e+001 -2.8982e+002  1.8661e+001 26858 108158,107795,107769
 5.0000e+000 107899 -8.1923e+001 -3.4455e+002  4.7949e+001 26858 107821,107873,107847
 5.0000e+000 108040 -1.0242e+002 -3.1183e+002  1.6353e+001 26858 107821,107795,108014
 5.0000e+000 108063 -6.4239e+001 -2.9493e+002  1.9256e+000 26858 107821,108014,107873
 5.0000e+000 108112 -1.2923e+002 -2.8889e+002  1.3186e+001 26858 107717,108014,108086
 5.0000e+000 108135 -1.0847e+002 -2.9307e+002  2.9546e+001 26858 107717,108086,107743
 5.0000e+000 108184 -8.4299e+001 -2.8214e+002  2.7041e+001 26858 107743,108086,108158
 5.0000e+000 108207 -7.4146e+001 -2.9159e+002  2.7271e+001 26858 107743,108158,107769
 5.0000e+000 108634 -1.2685e+002 -2.6161e+002  5.0687e+000 26404 108657,108415,108363
 5.0000e+000 108611 -1.4285e+002 -2.8275e+002  2.9770e+001 26404 108657,108363,108337
 5.0000e+000 108588 -1.2417e+002 -2.6746e+002  2.9953e+001 26404 108729,108311,108467
 5.0000e+000 108565 -1.3589e+002 -3.1167e+002  4.8901e+000 26404 108801,108441,108415
 5.0000e+000 108542 -1.8691e+002 -2.9594e+002  3.6850e+001 26404 108311,108493,108467
 5.0000e+000 108519 -8.8210e+001 -2.6242e+002  5.0580e+000 26404 108363,108415,108389
 5.0000e+000 108683 -1.6801e+002 -2.7942e+002  9.0493e+000 26404 108801,108415,108657
 5.0000e+000 108706 -1.5991e+002 -2.7740e+002  2.3806e+001 26404 108729,108467,108657
 5.0000e+000 108755 -1.0103e+002 -2.8241e+002  2.9886e+001 26404 108337,108311,108729
 5.0000e+000 108778 -1.1929e+002 -2.7973e+002  2.3143e+001 26404 108337,108729,108657
 5.0000e+000 108827 -1.6713e+002 -3.7622e+002 -1.3841e+001 26404 108467,108441,108801
 5.0000e+000 108850 -1.8397e+002 -3.2053e+002 -9.4800e+000 26404 108467,108801,108657
 5.0000e+000 109228 -1.2747e+002 -2.7355e+002 -1.2683e+001 26064 109006,109084,109058
 5.0000e+000 109205 -1.1360e+002 -2.5560e+002  5.2657e+000 26064 108980,109084,109006
 5.0000e+000 109182 -1.2343e+002 -2.4466e+002 -8.5030e+000 26064 108980,109110,109084
 5.0000e+000 109159 -1.2226e+002 -2.8712e+002 -1.9845e+000 26064 109006,109058,109032
 5.0000e+000 109136 -4.2277e+001 -2.1820e+002  8.6036e+000 26064 108954,109110,108980
 5.0000e+000 109427 -3.2031e+001 -2.3376e+002 -4.7343e+001 25660 109303,109355,109329
 5.0000e+000 109404 -6.4822e+001 -2.9960e+002 -1.1326e+001 25660 109277,109355,109303
 5.0000e+000 109381 -4.0663e+001 -2.8286e+002 -3.9885e+000 25660 109251,109355,109277
 5.0000e+000 109577 -4.5545e+001 -1.1282e+002  3.9140e+001 25306 109476,109528,109502
 5.0000e+000 109554  1.3088e+001 -9.7657e+001  2.8202e+001 25306 109450,109528,109476
 5.0000e+000 109778 -8.9732e+001 -2.4766e+002  7.0007e+000 24944 109628,109706,109654
 5.0000e+000 109755 -9.7093e+001 -2.4329e+002  1.0464e+000 24944 109602,109706,109628
 5.0000e+000 109732 -7.9254e+001 -2.3315e+002 -2.2667e+000 24944 109654,109706,109680
 5.0000e+000 110126 -8.2435e+001 -3.1617e+002  9.9312e+000 24440 110149,109907,109855
 5.0000e+000 110103 -7.7662e+001 -3.3317e+002  1.9758e+001 24440 110149,109855,109985
 5.0000e+000 110080 -6.5360e+001 -2.7452e+002  5.9745e+000 24440 109855,109907,109881
 5.0000e+000 110057 -6.7917e+001 -2.5960e+002  8.7161e+001 24440 109829,109985,109855
 5.0000e+000 110034 -7.5223e+001 -3.1670e+002  1.7330e+000 24440 109907,109959,109933
 5.0000e+000 110011 -3.5349e+001 -2.6554e+002  6.9323e+000 24440 109803,109985,109829
 5.0000e+000 110175 -7.8899e+001 -3.0176e+002  7.5438e+000 24440 109959,109907,110149
 5.0000e+000 110198 -7.3884e+001 -3.1607e+002  1.9110e+001 24440 109959,110149,109985
 5.0000e+000 110301 -8.3895e+000 -1.6841e+002  2.4078e+000 24028 110223,110275,110249
 5.0000e+000 110573 -3.9101e+001 -1.8773e+002  1.4741e+001 23467 110400,110452,110426
 5.0000e+000 110550 -6.6260e+001 -2.2273e+002  5.8754e-001 23467 110374,110452,110400
 5.0000e+000 110527 -6.9103e+001 -2.2388e+002  3.7874e+000 23467 110348,110452,110374
 5.0000e+000 110504 -5.0087e+001 -2.1561e+002 -1.5449e+000 23467 110348,110478,110452
 5.0000e+000 111004 -1.4862e+002 -3.2614e+002 -3.4831e+001 22963 111027,110733,110707
 5.0000e+000 110981 -1.4697e+002 -3.0914e+002  1.5622e+001 22963 111027,110707,110681
 5.0000e+000 110958 -7.1732e+001 -2.7265e+002 -3.3358e+001 22963 111099,110759,110733
 5.0000e+000 110935 -9.5140e+001 -2.6685e+002 -2.2046e+001 22963 111171,110863,110811
 5.0000e+000 110912 -4.5456e+001 -1.9663e+002 -3.7066e+001 22963 110759,110811,110785
 5.0000e+000 110889 -1.0533e+002 -2.8501e+002 -1.7669e+001 22963 110811,110863,110837
 5.0000e+000 111053 -1.0598e+002 -2.9653e+002 -2.0385e+001 22963 111099,110733,111027
 5.0000e+000 111076 -8.9230e+001 -2.8927e+002 -1.7996e+001 22963 111171,110811,111027
 5.0000e+000 111125 -7.0104e+001 -2.6729e+002 -5.1705e+001 22963 110811,110759,111099
 5.0000e+000 111148 -7.5464e+001 -2.6409e+002 -4.3740e+001 22963 110811,111099,111027
 5.0000e+000 111197 -9.5747e+001 -2.3110e+002 -2.7418e+001 22963 110681,110863,111171
 5.0000e+000 111220 -9.8609e+001 -2.5748e+002 -1.3414e+001 22963 110681,111171,111027
 5.0000e+000 111726 -1.4493e+002 -2.8312e+002  6.3657e+000 22459 111749,111507,111429
 5.0000e+000 111703 -1.3329e+002 -2.7958e+002 -6.0906e+000 22459 111749,111429,111585
 5.0000e+000 111680 -1.1359e+002 -3.1043e+002 -3.5740e+000 22459 111403,111585,111429
 5.0000e+000 111657 -1.3857e+002 -3.1098e+002  1.2962e+001 22459 111507,111559,111533
 5.0000e+000 111634 -1.8802e+002 -2.6985e+002  1.7841e+001 22459 111455,111507,111481
 5.0000e+000 111611 -2.0159e+002 -2.7166e+002  2.5429e+001 22459 111429,111507,111455
 5.0000e+000 111775 -1.4548e+002 -3.0208e+002  1.7333e+001 22459 111559,111507,111749
 5.0000e+000 111798 -1.3323e+002 -2.8873e+002  5.1836e+000 22459 111559,111749,111585
 5.0000e+000 112046 -6.4583e+001 -2.3951e+002 -3.2070e+001 21898 112069,111925,111873
 5.0000e+000 112023 -6.1998e+001 -2.4140e+002 -8.0147e+000 21898 112069,111873,111847
 5.0000e+000 112000 -8.3773e+001 -2.4887e+002 -1.3812e+001 21898 111821,111951,111847
 5.0000e+000 111977 -7.2719e+001 -1.8721e+002 -2.0470e+001 21898 111873,111925,111899
 5.0000e+000 112095 -9.8631e+001 -2.5207e+002 -3.6719e+001 21898 111951,111925,112069
 5.0000e+000 112118 -8.1855e+001 -2.4848e+002 -1.3610e+001 21898 111951,112069,111847
 5.0000e+000 112498 -1.1123e+002 -2.6243e+002 -2.2930e+001 21608 112521,112276,112224
 5.0000e+000 112475 -7.2438e+001 -2.6522e+002 -1.3918e+000 21608 112521,112224,112380
 5.0000e+000 112452 -7.7972e+001 -3.0782e+002  1.8334e+001 21608 112302,112380,112354
 5.0000e+000 112429 -1.3231e+002 -3.0041e+002 -1.3911e+001 21608 112224,112276,112250
 5.0000e+000 112406  4.6421e+001 -3.2710e+002 -1.2016e+001 21608 112302,112354,112328
 5.0000e+000 112547 -7.9729e+001 -2.2996e+002 -4.4831e+000 21608 112302,112276,112521
 5.0000e+000 112570 -5.3060e+001 -2.5686e+002  1.0317e+001 21608 112302,112521,112380
 5.0000e+000 112948 -1.2818e+002 -2.7052e+002 -4.8429e+000 20882 112971,112752,112700
 5.0000e+000 112925 -9.9387e+001 -2.6079e+002 -1.0576e+001 20882 112971,112700,112830
 5.0000e+000 112902 -1.6288e+002 -2.9258e+002  1.7284e+001 20882 112778,112830,112804
 5.0000e+000 112879 -9.2502e+001 -2.1246e+002 -1.4896e+001 20882 112674,112830,112700
 5.0000e+000 112856 -1.5646e+002 -2.8264e+002  5.0685e+000 20882 112700,112752,112726
 5.0000e+000 112997 -1.2903e+002 -2.7038e+002  1.1120e+001 20882 112778,112752,112971
 5.0000e+000 113020 -1.1260e+002 -2.6566e+002  4.7517e+000 20882 112778,112971,112830
 5.0000e+000 113526 -9.2152e+001 -2.7037e+002  1.8467e+000 20428 113255,113385,113333
 5.0000e+000 113503 -1.0036e+002 -2.9617e+002  1.9809e+000 20428 113229,113385,113255
 5.0000e+000 113480 -1.1411e+001 -2.6383e+002  3.2384e+000 20428 113255,113333,113281
 5.0000e+000 113457 -8.5471e+001 -2.8922e+002  4.7369e+000 20428 113203,113385,113229
 5.0000e+000 113434 -4.7235e+001 -2.7703e+002 -8.5772e+000 20428 113281,113333,113307
 5.0000e+000 113411 -1.1383e+002 -2.6662e+002  7.2378e+000 20428 113333,113385,113359
 5.0000e+000 113774 -1.5575e+001 -2.6170e+002  1.0548e+001 19917 113797,113601,113549
 5.0000e+000 113751 -4.3265e+001 -2.6677e+002  1.3886e+001 19917 113869,113797,113549
 5.0000e+000 113728 -4.1302e+001 -2.6999e+002  2.6358e+001 19917 113869,113549,113679
 5.0000e+000 113705 -2.4002e+001 -2.5914e+002  2.2012e+001 19917 113549,113601,113575
 5.0000e+000 113823 -4.4105e+001 -3.1821e+002 -9.6945e-001 19917 113627,113601,113797
 5.0000e+000 113846 -1.6780e+001 -2.4918e+002 -6.3063e+000 19917 113627,113797,113653
 5.0000e+000 113895 -3.6930e+001 -2.3679e+002  4.2748e+000 19917 113653,113797,113869
 5.0000e+000 113918 -4.7127e+001 -2.4482e+002  2.0185e+001 19917 113653,113869,113679
 5.0000e+000 114166 -1.2023e+002 -2.7191e+002 -4.3889e+000 19413 113993,114045,114019
 5.0000e+000 114143 -1.1252e+002 -2.5363e+002  1.9657e+000 19413 113967,114045,113993
 5.0000e+000 114120 -9.4020e+001 -2.4717e+002  1.4078e+001 19413 113967,114071,114045
 5.0000e+000 114097 -7.6568e+001 -2.8030e+002 -4.8496e+000 19413 113941,114071,113967
 5.0000e+000 114438 -1.1236e+002 -2.9748e+002  2.7554e+000 19001 114213,114265,114239
 5.0000e+000 114415 -8.0644e+001 -2.3131e+002 -7.0443e+000 19001 114213,114343,114265
 5.0000e+000 114392 -1.1983e+002 -3.1927e+002 -1.4516e+001 19001 114265,114343,114317
 5.0000e+000 114369  2.2551e+001 -2.5784e+002 -5.7497e+000 19001 114265,114317,114291
 5.0000e+000 114639 -8.4923e+001 -3.5394e+002  1.7168e+001 18554 114489,114541,114515
 5.0000e+000 114616 -7.4111e+001 -3.0662e+002  2.9025e+000 18554 114489,114567,114541
 5.0000e+000 114593 -1.5989e+002 -3.5029e+002 -2.3135e+001 18554 114463,114567,114489
 5.0000e+000 115043 -5.8072e+001 -2.6460e+002  9.8518e+000 18164 114795,114925,114821
 5.0000e+000 115020 -5.1141e+001 -2.7920e+002  1.5783e+001 18164 114769,114925,114795
 5.0000e+000 114997 -3.1574e+001 -2.7872e+002 -2.1642e+000 18164 115066,114873,114821
 5.0000e+000 114974 -2.9364e+001 -2.3859e+002 -9.3171e+000 18164 115066,114821,114925
 5.0000e+000 114951  1.8868e+001 -2.7950e+002 -2.7460e+001 18164 114821,114873,114847
 5.0000e+000 115092 -4.6005e+001 -2.4977e+002 -2.3234e+001 18164 114899,114873,115066
 5.0000e+000 115115 -2.7358e+001 -1.8842e+002 -3.2333e+001 18164 114899,115066,114925
 5.0000e+000 115265 -7.2588e+001 -2.9115e+002  3.3798e+000 17852 115164,115216,115190
 5.0000e+000 115242 -8.0684e+001 -3.0792e+002 -4.2304e-001 17852 115138,115216,115164
 5.0000e+000 115464 -1.8454e+002 -4.1602e+002  5.1858e+000 17346 115288,115366,115340
 5.0000e+000 115441 -2.8346e+002 -3.2162e+002 -1.3351e+001 17346 115288,115392,115366
 5.0000e+000 115418 -1.6555e+002 -4.6568e+002 -1.4450e+001 17346 115288,115340,115314
 5.0000e+000 115736 -7.0131e+001 -2.6426e+002  1.1403e+001 16942 115563,115641,115615
 5.0000e+000 115713 -7.8508e+001 -2.6240e+002  3.8905e+000 16942 115511,115641,115563
 5.0000e+000 115690 -1.8458e+002 -3.0833e+002  1.7264e+001 16942 115563,115615,115589
 5.0000e+000 115667 -9.3023e+001 -2.8600e+002  1.0013e+001 16942 115511,115563,115537
 5.0000e+000 116091 -1.3623e+002 -3.1844e+002 -1.2053e+001 16388 115918,115970,115944
 5.0000e+000 116068 -1.1691e+002 -2.5537e+002 -8.0183e+000 16388 115918,115996,115970
 5.0000e+000 116045 -1.5786e+002 -3.2341e+002  1.0765e+001 16388 115892,115996,115918
 5.0000e+000 116022 -1.0237e+002 -2.9412e+002  3.6713e+001 16388 115866,115996,115892
 5.0000e+000 116192 -4.1342e+001 -3.3204e+002 -4.7085e+001 15810 116114,116166,116140
 5.0000e+000 116342 -1.2472e+002 -4.0198e+002  2.1847e+001 15419 116241,116293,116267
 5.0000e+000 116319 -1.7798e+002 -4.9262e+002 -1.4077e+001 15419 116215,116293,116241
 5.0000e+000 116445 -1.3359e+002 -2.7251e+002  1.7814e+000 421 116367,116419,116393
 5.1000e+000 68477 -1.7636e+002 -2.5939e+002  9.6845e-001 68018 68327,68379,68353
 5.1000e+000 68454 -1.8723e+002 -3.4409e+002  2.5306e+001 68018 68301,68379,68327
 5.1000e+000 68431 -8.9491e+001 -3.8402e+002  6.2682e+001 68018 68301,68405,68379
 5.1000e+000 68578 -1.1973e+002 -2.4602e+002  9.2027e-001 67820 68500,68552,68526
 5.1000e+000 68728 -1.2809e+002 -2.2806e+002 -3.5528e+000 67508 68601,68653,68627
 5.1000e+000 68705 -1.9775e+002 -1.7551e+002 -3.4051e+001 67508 68601,68679,68653
 5.1000e+000 68927 -4.0296e+001 -2.2031e+002 -4.1337e+000 67310 68777,68829,68803
 5.1000e+000 68904 -5.8569e+001 -2.5374e+002  4.4937e+000 67310 68751,68829,68777
 5.1000e+000 68881 -4.7017e+001 -2.5762e+002  1.3918e+001 67310 68751,68855,68829
 5.1000e+000 69386 -1.0329e+002 -2.6990e+002 -1.2822e+001 67020 69216,69268,69242
 5.1000e+000 69363 -9.4890e+001 -2.0951e+002 -2.6700e+001 67020 69138,69268,69216
 5.1000e+000 69340 -7.0241e+001 -1.8816e+002 -1.5232e+001 67020 69112,69268,69138
 5.1000e+000 69317 -1.2714e+002 -2.2600e+002  1.6156e+001 67020 69138,69190,69164
 5.1000e+000 69294 -1.3203e+002 -2.0649e+002 -1.1625e+001 67020 69138,69216,69190
 5.1000e+000 69536 -1.9593e+002 -4.8165e+002 -3.8597e+001 66708 69435,69487,69461
 5.1000e+000 69513 -1.4357e+002 -5.4212e+002 -5.8157e+000 66708 69409,69487,69435
 5.1000e+000 69735 -1.2466e+002 -2.5234e+002  5.8688e+000 66346 69585,69637,69611
 5.1000e+000 69712 -1.0316e+002 -2.3951e+002 -1.2055e+000 66346 69559,69637,69585
 5.1000e+000 69689 -9.3773e+001 -2.3790e+002 -2.3722e+001 66346 69559,69663,69637
 5.1000e+000 69985 -1.7891e+002 -3.0253e+002  4.0261e+000 66148 69786,69890,69864
 5.1000e+000 69962 -1.8555e+002 -3.0670e+002  6.3535e+000 66148 69760,69890,69786
 5.1000e+000 69939 -1.3137e+002 -2.8386e+002 -4.1828e+001 66148 69786,69864,69838
 5.1000e+000 69916 -1.5295e+002 -3.0291e+002 -1.6075e+001 66148 69786,69838,69812
 5.1000e+000 70137 -8.6796e+001 -3.3403e+002 -1.9239e+001 65950 70036,70088,70062
 5.1000e+000 70114 -7.3632e+001 -3.7055e+002  1.7371e+001 65950 70010,70088,70036
 5.1000e+000 70470 -6.6417e+001 -2.4830e+002  1.9819e+001 65546 70245,70323,70271
 5.1000e+000 70447 -4.8279e+001 -2.2149e+002  8.9311e+000 65546 70245,70375,70323
 5.1000e+000 70424 -6.1186e+001 -2.7925e+002  9.7707e+000 65546 70323,70375,70349
 5.1000e+000 70401 -5.2611e+001 -2.2971e+002  9.5142e+000 65546 70271,70323,70297
 5.1000e+000 70620 -1.1237e+002 -2.8910e+002  9.5063e+000 65348 70493,70545,70519
 5.1000e+000 70597 -8.0429e+001 -3.0189e+002  1.2179e+001 65348 70493,70571,70545
 5.1000e+000 70721 -1.5400e+002 -3.1081e+002  2.1238e+001 65150 70643,70695,70669
 5.1000e+000 71020 -1.0697e+002 -2.4049e+002  4.2020e+000 64952 71043,70850,70824
 5.1000e+000 70997 -9.3048e+001 -2.0735e+002  3.1242e+000 64952 71043,70824,70772
 5.1000e+000 70974 -1.0108e+002 -2.7914e+002  4.8854e+000 64952 71115,70746,70876
 5.1000e+000 70951 -8.1104e+001 -2.7898e+002 -1.4188e+000 64952 70746,70902,70876
 5.1000e+000 70928 -9.5487e+001 -1.7657e+002 -1.6175e+001 64952 70772,70824,70798
 5.1000e+000 71069 -8.5405e+001 -2.2912e+002  1.0205e+001 64952 70876,70850,71043
 5.1000e+000 71092 -9.9323e+001 -2.6232e+002  5.7358e+000 64952 71115,70876,71043
 5.1000e+000 71141 -1.1504e+002 -2.5977e+002 -1.0125e+001 64952 70772,70746,71115
 5.1000e+000 71164 -1.0722e+002 -2.3450e+002 -9.7340e+000 64952 70772,71115,71043
 5.1000e+000 71365 -3.4682e+000 -3.0250e+002 -4.2291e+000 64662 71215,71293,71267
 5.1000e+000 71342  4.4768e+001 -2.8152e+002 -4.8829e+001 64662 71189,71293,71215
 5.1000e+000 71319  2.4356e+001 -2.4740e+002  5.2656e+000 64662 71215,71267,71241
 5.1000e+000 71615 -7.2209e+001 -2.5754e+002 -3.5305e+000 64350 71710,71638,71468
 5.1000e+000 71592 -8.6260e+001 -2.5303e+002 -8.8618e+000 64350 71638,71416,71390
 5.1000e+000 71569 -7.7503e+001 -2.3983e+002  1.1320e+001 64350 71710,71468,71442
 5.1000e+000 71546  4.1849e+001 -2.4608e+002 -4.0284e+001 64350 71390,71520,71494
 5.1000e+000 71664 -6.7710e+001 -2.5655e+002 -4.9879e-001 64350 71494,71468,71638
 5.1000e+000 71687 -6.7825e+001 -2.6222e+002  1.0077e-002 64350 71494,71638,71390
 5.1000e+000 71736 -6.4811e+001 -2.2171e+002  1.0559e+000 64350 71416,71638,71710
 5.1000e+000 71759 -6.4098e+001 -2.0409e+002  2.0099e+001 64350 71416,71710,71442
 5.1000e+000 72318 -7.5265e+001 -4.0724e+002 -1.6585e+001 63837 71972,72024,71998
 5.1000e+000 72295 -1.1402e+002 -2.6308e+002 -8.3087e-001 63837 72341,71972,71946
 5.1000e+000 72272 -1.0300e+002 -2.1149e+002  9.7296e+000 63837 72413,72341,71946
 5.1000e+000 72249 -9.5608e+001 -1.9205e+002  3.3278e+000 63837 72413,71946,72128
 5.1000e+000 72226 -1.4396e+002 -2.2928e+002  1.4891e+000 63837 72024,72076,72050
 5.1000e+000 72203 -1.2529e+002 -2.1169e+002 -7.2900e+000 63837 72024,72102,72076
 5.1000e+000 72180 -6.4849e+001 -1.8139e+002  1.4654e+001 63837 71946,72154,72128
 5.1000e+000 72367 -1.3557e+002 -2.8151e+002 -4.9373e+001 63837 72024,71972,72341
 5.1000e+000 72390 -1.0594e+002 -2.2982e+002 -1.9147e+001 63837 72024,72341,72102
 5.1000e+000 72439 -8.1792e+001 -2.4309e+002  3.7920e+000 63837 72102,72341,72413
 5.1000e+000 72462 -7.5507e+001 -2.2346e+002 -4.2381e-001 63837 72102,72413,72128
 5.1000e+000 72791 -1.2890e+002 -2.4841e+002 -2.4948e+001 63383 72592,72696,72670
 5.1000e+000 72768 -1.3106e+002 -2.3118e+002 -4.3963e+001 63383 72566,72696,72592
 5.1000e+000 72745 -1.2669e+002 -2.1607e+002  8.7043e-001 63383 72592,72670,72618
 5.1000e+000 72722 -1.2157e+002 -2.0034e+002 -1.2643e+000 63383 72618,72670,72644
 5.1000e+000 73297 -1.5083e+002 -2.1681e+002 -1.3201e+000 63185 73000,73156,73130
 5.1000e+000 73274 -1.5058e+002 -2.2325e+002  2.7079e+001 63185 72974,73156,73000
 5.1000e+000 73251 -1.1368e+002 -2.5029e+002 -3.5810e+000 63185 73000,73052,73026
 5.1000e+000 73228 -1.2503e+002 -2.2344e+002 -1.0737e+001 63185 73000,73130,73052
 5.1000e+000 73205 -1.2440e+002 -2.5222e+002 -3.7342e+001 63185 73052,73130,73104
 5.1000e+000 73182 -1.1757e+002 -2.7663e+002 -3.9419e+001 63185 73052,73104,73078
 5.1000e+000 73545 -5.1723e+001 -2.3584e+002  1.9702e+000 62781 73568,73398,73372
 5.1000e+000 73522 -3.6932e+001 -2.1490e+002  9.2223e+000 62781 73568,73372,73346
 5.1000e+000 73499 -6.9491e+001 -2.2625e+002 -7.7179e+000 62781 73640,73320,73424
 5.1000e+000 73476 -7.4495e+001 -1.4398e+002 -2.6444e+001 62781 73320,73450,73424
 5.1000e+000 73594 -4.1863e+001 -2.1760e+002 -3.5549e+000 62781 73424,73398,73568
 5.1000e+000 73617 -5.4871e+001 -2.1977e+002 -6.5742e+000 62781 73640,73424,73568
 5.1000e+000 73666 -6.6796e+001 -2.2211e+002  5.0582e+000 62781 73346,73320,73640
 5.1000e+000 73689 -5.9090e+001 -2.1839e+002  6.1854e+000 62781 73346,73640,73568
 5.1000e+000 74035 -9.1929e+001 -2.4961e+002 -4.8187e+000 62363 74058,73868,73842
 5.1000e+000 74012 -8.3705e+001 -2.2954e+002 -1.9616e+001 62363 74130,74058,73842
 5.1000e+000 73989 -7.6382e+001 -2.2731e+002 -2.0615e+001 62363 74130,73842,73816
 5.1000e+000 73966 -1.2323e+002 -2.5954e+002  3.0872e+000 62363 74202,73764,73894
 5.1000e+000 73943 -1.5905e+002 -2.3667e+002  3.6857e+000 62363 73712,73894,73764
 5.1000e+000 73920 -1.7068e+002 -2.4970e+002 -2.2079e+000 62363 73712,73764,73738
 5.1000e+000 74084 -9.0592e+001 -2.4434e+002 -3.9605e+000 62363 73894,73868,74058
 5.1000e+000 74107 -1.1320e+002 -2.4840e+002  1.1008e+001 62363 74202,73894,74058
 5.1000e+000 74156 -9.2490e+001 -2.3308e+002  6.2983e+000 62363 73790,74058,74130
 5.1000e+000 74179 -5.7491e+001 -2.1935e+002  7.8299e+000 62363 73790,74130,73816
 5.1000e+000 74228 -1.3432e+002 -2.6442e+002 -1.3332e+001 62363 73790,73764,74202
 5.1000e+000 74251 -1.2679e+002 -2.5250e+002 -5.5029e+000 62363 73790,74202,74058
 5.1000e+000 74403 -1.1218e+001 -2.6840e+002  1.7187e+001 62115 74426,74302,74276
 5.1000e+000 74380  3.8150e+001 -2.5734e+002  3.7406e+001 62115 74426,74276,74354
 5.1000e+000 74452 -5.7508e+001 -2.4297e+002  1.6833e+001 62115 74328,74302,74426
 5.1000e+000 74475 -1.1500e+001 -2.3357e+002  3.8366e+001 62115 74328,74426,74354
 5.1000e+000 74578  4.7849e+001 -1.5027e+002  2.3512e+000 61825 74500,74552,74526
 5.1000e+000 74982 -1.3064e+002 -2.2833e+002  1.3311e+000 61513 75005,74734,74708
 5.1000e+000 74959 -1.2813e+002 -2.2032e+002 -1.2406e+000 61513 75005,74708,74864
 5.1000e+000 74936 -1.6312e+002 -2.3526e+002  1.4668e+001 61513 75077,74812,74734
 5.1000e+000 74913 -1.4173e+002 -2.3259e+002 -2.0028e+001 61513 74734,74786,74760
 5.1000e+000 74890 -1.4016e+002 -2.1063e+002 -1.9923e+000 61513 74734,74812,74786
 5.1000e+000 75031 -1.2373e+002 -2.3451e+002  2.2158e+000 61513 75077,74734,75005
 5.1000e+000 75054 -9.8936e+001 -2.2664e+002  3.3182e+001 61513 74838,75005,74864
 5.1000e+000 75103 -1.8505e+002 -2.4459e+002  5.0410e+001 61513 74838,74812,75077
 5.1000e+000 75126 -1.5939e+002 -2.5353e+002  3.8023e+001 61513 74838,75077,75005
 5.1000e+000 75553 -6.5697e+001 -2.1047e+002 -7.7175e+000 61060 75576,75360,75308
 5.1000e+000 75530 -6.6819e+001 -2.2366e+002 -8.4285e+000 61060 75576,75308,75230
 5.1000e+000 75507 -5.9946e+001 -2.0239e+002 -6.0493e-001 61060 75308,75360,75334
 5.1000e+000 75484 -8.8411e+001 -2.6148e+002  1.4531e+001 61060 75230,75308,75256
 5.1000e+000 75461 -6.4659e+001 -2.4216e+002  5.6334e+000 61060 75256,75308,75282
 5.1000e+000 75438 -7.6790e+001 -2.0698e+002  2.5398e+001 61060 75360,75412,75386
 5.1000e+000 75602 -5.2892e+001 -2.2185e+002  6.3324e-001 61060 75412,75360,75576
 5.1000e+000 75625 -6.1604e+001 -2.4623e+002 -3.0499e+000 61060 75412,75576,75230
 5.1000e+000 76052 -9.8221e+001 -2.1878e+002  3.2584e+000 60442 75755,75859,75833
 5.1000e+000 76029 -1.1378e+002 -2.0741e+002 -1.5391e+001 60442 75729,75859,75755
 5.1000e+000 76006 -1.0193e+002 -2.0288e+002  1.3120e+001 60442 75755,75833,75807
 5.1000e+000 75983 -9.9234e+001 -2.4037e+002  6.5999e+000 60442 75755,75807,75781
 5.1000e+000 75960 -2.4064e+000 -3.8303e+002  1.3865e+001 60442 75729,75911,75859
 5.1000e+000 75937 -1.9644e+002 -9.4247e+002  5.9690e+001 60442 75859,75911,75885
 5.1000e+000 76430 -1.0232e+002 -2.6342e+002 -1.0871e+001 59788 76453,76286,76234
 5.1000e+000 76407 -1.1091e+002 -3.0117e+002  4.2171e+000 59788 76453,76234,76182
 5.1000e+000 76384 -1.1333e+002 -2.0073e+002  3.3178e+001 59788 76525,76156,76312
 5.1000e+000 76361 -6.5580e+001 -3.4494e+002 -3.6906e+000 59788 76182,76234,76208
 5.1000e+000 76338 -8.2545e+001 -2.5361e+002 -7.0808e+000 59788 76234,76286,76260
 5.1000e+000 76479 -1.2369e+002 -2.8448e+002  1.1062e+000 59788 76312,76286,76453
 5.1000e+000 76502 -1.0394e+002 -2.6932e+002  1.3523e+001 59788 76525,76312,76453
 5.1000e+000 76551 -1.4039e+002 -2.8696e+002  3.4976e+001 59788 76182,76156,76525
 5.1000e+000 76574 -1.2436e+002 -3.0806e+002  2.1016e+001 59788 76182,76525,76453
 5.1000e+000 77031 -7.4444e+001 -1.6232e+002 -2.4169e+001 59448 76835,76887,76861
 5.1000e+000 77008 -3.3020e+001 -1.3443e+002  5.9248e+000 59448 76835,76913,76887
 5.1000e+000 76985 -4.2969e+001 -1.1342e+002  2.1840e+001 59448 76809,76913,76835
 5.1000e+000 76962 -8.0794e+001 -1.4969e+002 -2.9752e-001 59448 76757,76913,76809
 5.1000e+000 76939 -6.7201e+001 -1.3321e+002 -6.1577e+000 59448 76757,76809,76783
 5.1000e+000 77537 -1.0558e+002 -2.2820e+002  1.0990e+001 58994 77560,77344,77292
 5.1000e+000 77514 -1.4811e+002 -2.2580e+002  2.9315e+000 58994 77560,77292,77240
 5.1000e+000 77491 -8.5554e+001 -2.1186e+002 -5.3359e+000 58994 77632,77214,77370
 5.1000e+000 77468 -1.7395e+002 -2.6067e+002  4.4868e+001 58994 77292,77344,77318
 5.1000e+000 77445 -8.7437e+001 -2.7196e+002  9.8105e+000 58994 77214,77396,77370
 5.1000e+000 77422 -1.5133e+002 -2.4059e+002 -5.5728e+000 58994 77240,77292,77266
 5.1000e+000 77586 -1.1010e+002 -2.3163e+002  1.2549e+001 58994 77370,77344,77560
 5.1000e+000 77609 -1.0965e+002 -2.2643e+002  1.4912e+001 58994 77632,77370,77560
 5.1000e+000 77658 -7.2575e+001 -1.9667e+002 -2.7604e+001 58994 77240,77214,77632
 5.1000e+000 77681 -9.0438e+001 -1.9460e+002 -9.3368e+000 58994 77240,77632,77560
 5.1000e+000 78138 -9.0263e+001 -1.6085e+002  2.2647e+001 58440 77864,77994,77890
 5.1000e+000 78115 -5.9903e+001 -9.9161e+001 -1.2407e+001 58440 77864,78020,77994
 5.1000e+000 78092 -1.0268e+002 -1.8911e+002 -1.6730e+001 58440 77942,77994,77968
 5.1000e+000 78069 -8.1641e+001 -1.7932e+002  3.8009e+000 58440 77890,77994,77942
 5.1000e+000 78046 -7.3367e+001 -1.8090e+002 -2.3079e+000 58440 77890,77942,77916
 5.1000e+000 78467 -1.7865e+001 -2.0879e+002  6.5085e+000 57928 78562,78490,78346
 5.1000e+000 78444 -7.8986e+001 -2.1004e+002 -3.8634e+000 57928 78490,78294,78268
 5.1000e+000 78421 -5.0699e+000 -2.1897e+002  1.6996e+001 57928 78562,78346,78320
 5.1000e+000 78398 -3.1192e+001 -2.0301e+002  2.1572e+000 57928 78242,78372,78268
 5.1000e+000 78516 -6.9871e+001 -2.6011e+002 -1.5069e+001 57928 78372,78346,78490
 5.1000e+000 78539 -5.5800e+001 -2.0044e+002 -2.9253e+000 57928 78372,78490,78268
 5.1000e+000 78588 -7.9103e+001 -2.0725e+002  2.4455e-001 57928 78294,78490,78562
 5.1000e+000 78611 -4.0037e+001 -1.8724e+002  2.0997e+001 57928 78294,78562,78320
 5.1000e+000 79068 -1.5535e+002 -3.2831e+002 -8.1007e+001 57467 78794,78924,78820
 5.1000e+000 79045 -1.2231e+002 -3.1306e+002 -7.6300e+001 57467 78794,78950,78924
 5.1000e+000 79022 -6.5402e+001 -2.9286e+002  2.8138e+001 57467 78820,78898,78872
 5.1000e+000 78999 -1.1491e+002 -4.0273e+002 -4.2771e+001 57467 78820,78924,78898
 5.1000e+000 78976 -4.7526e+001 -2.9608e+002  4.3028e+001 57467 78820,78872,78846
 5.1000e+000 79446 -1.2991e+002 -2.4644e+002 -5.3844e-001 57120 79172,79302,79250
 5.1000e+000 79423 -1.1685e+002 -2.4050e+002 -8.8569e+000 57120 79172,79328,79302
 5.1000e+000 79400 -1.1774e+002 -2.1510e+002 -9.0585e+000 57120 79172,79250,79198
 5.1000e+000 79377 -9.0492e+001 -3.1026e+002  1.1345e+001 57120 79250,79302,79276
 5.1000e+000 79354 -1.4332e+002 -2.3400e+002 -1.8395e+001 57120 79198,79250,79224
 5.1000e+000 79952 -1.7318e+002 -2.7460e+002  1.1643e+000 56773 79629,79785,79655
 5.1000e+000 79929 -5.1956e+001 -2.3762e+002  1.2486e+001 56773 79629,79811,79785
 5.1000e+000 79906 -1.3461e+002 -2.9659e+002  1.9753e+001 56773 79655,79733,79681
 5.1000e+000 79883 -1.3275e+002 -2.6400e+002  5.2222e+000 56773 79655,79785,79733
 5.1000e+000 79860 -1.2436e+002 -3.4549e+002 -4.1340e+001 56773 79733,79785,79759
 5.1000e+000 79837 -7.1446e+001 -2.6746e+002  5.2118e+001 56773 79681,79733,79707
 5.1000e+000 80281 -6.2277e+001 -2.0246e+002 -1.6163e+001 56319 80108,80160,80134
 5.1000e+000 80258 -6.6827e+001 -2.2108e+002 -2.0001e+001 56319 80056,80160,80108
 5.1000e+000 80235 -2.9689e+001 -1.9622e+002  1.2337e+001 56319 80056,80186,80160
 5.1000e+000 80212 -8.9655e+001 -2.8155e+002 -1.3213e+001 56319 80056,80108,80082
 5.1000e+000 80738 -3.6326e+001 -2.4480e+002  1.3448e+001 55957 80516,80620,80594
 5.1000e+000 80715 -8.7899e+001 -2.2281e+002  1.0666e+001 55957 80464,80620,80516
 5.1000e+000 80692 -7.5208e+001 -2.6686e+002  1.3699e+001 55957 80761,80568,80542
 5.1000e+000 80669 -6.1796e+001 -2.6276e+002  1.6191e+001 55957 80761,80542,80516
 5.1000e+000 80646 -8.7369e+001 -2.2101e+002  2.7780e+001 55957 80464,80516,80490
 5.1000e+000 80787 -8.8195e+001 -2.6516e+002  9.7631e+000 55957 80594,80568,80761
 5.1000e+000 80810 -7.5613e+001 -2.6145e+002  1.2417e+001 55957 80594,80761,80516
 5.1000e+000 81210 -7.4957e+001 -2.5331e+002 -2.8211e+001 55317 80936,80988,80962
 5.1000e+000 81187 -6.2116e+001 -2.7584e+002 -1.3054e+000 55317 80936,81066,80988
 5.1000e+000 81164 -4.2897e+001 -2.9562e+002  4.0858e+000 55317 80936,81092,81066
 5.1000e+000 81141 -8.7572e+001 -2.9387e+002 -2.6821e+001 55317 80988,81066,81014
 5.1000e+000 81118 -1.2221e+001 -1.6631e+002  1.7272e+001 55317 81014,81066,81040
 5.1000e+000 81539 -1.1157e+002 -2.5079e+002  5.5745e+000 54913 81340,81418,81392
 5.1000e+000 81516 -4.5499e+001 -2.0327e+002 -1.6129e+001 54913 81340,81444,81418
 5.1000e+000 81493 -6.8703e+001 -2.1769e+002 -3.0776e+001 54913 81314,81444,81340
 5.1000e+000 81470 -1.2587e+002 -2.6646e+002 -3.8963e-001 54913 81340,81392,81366
 5.1000e+000 81787 -6.4995e+001 -2.6477e+002 -2.2809e+000 54601 81588,81692,81640
 5.1000e+000 81764 -9.5459e+001 -2.6785e+002 -8.8209e+000 54601 81562,81692,81588
 5.1000e+000 81741 -5.3110e+001 -2.6941e+002  3.3927e+001 54601 81588,81640,81614
 5.1000e+000 81718 -6.6951e+001 -3.1475e+002 -2.7922e+001 54601 81640,81692,81666
 5.1000e+000 82344 -9.9010e+001 -2.6853e+002 -1.2970e+001 54090 81998,82102,82076
 5.1000e+000 82321 -1.3299e+002 -2.8334e+002 -8.1841e+000 54090 81998,82154,82102
 5.1000e+000 82298 -1.2131e+002 -2.7645e+002 -4.8181e+000 54090 81972,82154,81998
 5.1000e+000 82275 -1.3848e+002 -2.5099e+002 -1.5136e+001 54090 81998,82076,82024
 5.1000e+000 82252 -1.4757e+002 -2.9435e+002  1.3492e+001 54090 81972,82180,82154
 5.1000e+000 82229 -1.8607e+002 -3.4640e+002  2.0388e+001 54090 82102,82154,82128
 5.1000e+000 82206 -2.4945e+001 -1.8996e+002 -3.9246e+001 54090 82024,82076,82050
 5.1000e+000 82722 -1.7074e+002 -3.0732e+002 -1.0485e+001 53579 82500,82578,82552
 5.1000e+000 82699 -1.2752e+002 -2.7964e+002  6.9798e+000 53579 82448,82578,82500
 5.1000e+000 82676 -1.3916e+002 -3.1466e+002  8.5342e+000 53579 82448,82500,82474
 5.1000e+000 82653 -1.6630e+002 -2.9972e+002  2.1725e+001 53579 82448,82604,82578
 5.1000e+000 82630 -9.1129e+001 -2.8557e+002 -1.1493e+001 53579 82500,82552,82526
 5.1000e+000 83356 -8.4240e+001 -2.2166e+002 -2.2676e+001 53189 83379,83088,83036
 5.1000e+000 83333 -8.1282e+001 -2.5002e+002 -2.0433e+001 53189 83379,83036,82984
 5.1000e+000 83310 -4.0876e+001 -2.3566e+002  3.3710e+001 53189 82984,83192,83166
 5.1000e+000 83287  1.4641e+000 -1.8399e+002 -1.6095e+001 53189 83036,83088,83062
 5.1000e+000 83264 -6.4382e+001 -2.7923e+002 -3.8638e+001 53189 82984,83036,83010
 5.1000e+000 83241 -5.9760e+001 -2.7722e+002  4.0865e+000 53189 83114,83166,83140
 5.1000e+000 83218 -1.1417e+002 -2.9046e+002  2.0948e+000 53189 83088,83166,83114
 5.1000e+000 83405 -8.4680e+001 -2.4079e+002 -1.0954e+001 53189 83166,83088,83379
 5.1000e+000 83428 -7.7469e+001 -2.6584e+002 -1.0511e+001 53189 83166,83379,82984
 5.1000e+000 83725 -1.0931e+002 -3.1075e+002 -2.8754e+001 52585 83748,83529,83503
 5.1000e+000 83702 -8.1215e+001 -3.0163e+002 -1.8441e+001 52585 83820,83748,83503
 5.1000e+000 83679 -5.4286e+001 -2.9376e+002 -1.4996e+001 52585 83820,83503,83477
 5.1000e+000 83656 -3.8099e+001 -2.6775e+002  3.2456e+001 52585 83477,83607,83581
 5.1000e+000 83633  2.2273e+001 -2.4175e+002  3.5077e+001 52585 83451,83607,83477
 5.1000e+000 83774 -9.4686e+001 -2.7444e+002 -2.5495e+001 52585 83555,83529,83748
 5.1000e+000 83797 -1.2570e+002 -2.9739e+002 -1.5468e+001 52585 83555,83748,83581
 5.1000e+000 83846 -1.0670e+002 -2.8426e+002 -4.5241e+000 52585 83581,83748,83820
 5.1000e+000 83869 -8.7499e+001 -2.8136e+002 -4.0243e+000 52585 83581,83820,83477
 5.1000e+000 84200 -8.0872e+001 -2.7972e+002 -1.0059e+001 52024 84001,84105,84079
 5.1000e+000 84177 -4.2733e+001 -2.7308e+002 -2.0173e+001 52024 83975,84105,84001
 5.1000e+000 84154 -6.9900e+001 -2.7985e+002 -8.1925e+000 52024 84001,84079,84053
 5.1000e+000 84131 -3.5086e+001 -1.8880e+002  3.3084e+001 52024 84001,84053,84027
 5.1000e+000 84399 -6.9694e+001 -2.7922e+002 -1.6394e+000 51470 84422,84275,84249
 5.1000e+000 84376 -6.5555e+001 -2.6924e+002  8.5254e-001 51470 84422,84249,84223
 5.1000e+000 84353 -7.8999e+001 -2.9697e+002 -4.0436e+001 51470 84275,84327,84301
 5.1000e+000 84448 -7.4157e+001 -2.7008e+002 -2.2233e+000 51470 84327,84275,84422
 5.1000e+000 84471 -7.1410e+001 -2.6205e+002  1.2755e-001 51470 84327,84422,84223
 5.1000e+000 84753 -8.1761e+001 -2.3229e+002 -1.2327e+000 51073 84603,84655,84629
 5.1000e+000 84730 -1.6571e+002 -2.7060e+002 -1.1553e+001 51073 84776,84655,84603
 5.1000e+000 84707 -3.8242e+001 -2.3577e+002 -6.4963e+001 51073 84577,84681,84655
 5.1000e+000 84802 -1.0524e+002 -2.3615e+002 -3.1217e+001 51073 84577,84655,84776
 5.1000e+000 85178 -1.5077e+002 -3.3078e+002  2.8782e+001 50519 85201,85008,84982
 5.1000e+000 85155 -1.4298e+002 -3.0819e+002  2.1588e+001 50519 85273,85201,84982
 5.1000e+000 85132 -1.3529e+002 -3.0801e+002  1.6694e+001 50519 85273,84982,84930
 5.1000e+000 85109 -1.3073e+002 -2.9824e+002  1.3920e+001 50519 84930,84982,84956
 5.1000e+000 85086 -1.2559e+002 -3.1248e+002  1.2558e+001 50519 85008,85060,85034
 5.1000e+000 85227 -1.2722e+002 -3.1572e+002  1.3113e+001 50519 85060,85008,85201
 5.1000e+000 85250 -1.4184e+002 -3.1701e+002  9.1586e+000 50519 85060,85201,84904
 5.1000e+000 85299 -1.3508e+002 -3.1221e+002  7.0565e+000 50519 84904,85201,85273
 5.1000e+000 85322 -1.0731e+002 -2.7657e+002 -5.3641e+000 50519 84904,85273,84930
 5.1000e+000 85958 -8.9348e+001 -2.7877e+002 -9.3852e+000 50093 85981,85768,85716
 5.1000e+000 85935 -7.9375e+001 -2.5298e+002 -1.1015e+001 50093 85981,85716,85612
 5.1000e+000 85912 -1.1405e+002 -2.6131e+002  4.5004e+000 50093 85612,85716,85664
 5.1000e+000 85889 -6.6771e+001 -2.7395e+002 -3.2913e+000 50093 85716,85768,85742
 5.1000e+000 85866 -9.4369e+001 -2.0160e+002 -5.6267e+001 50093 85664,85716,85690
 5.1000e+000 85843 -3.4505e+001 -1.9188e+002 -1.0183e+001 50093 85586,85794,85612
 5.1000e+000 85820 -7.8084e+001 -3.5458e+002  2.9440e+001 50093 85612,85664,85638
 5.1000e+000 86007 -1.0841e+002 -2.9987e+002 -4.5808e+001 50093 85794,85768,85981
 5.1000e+000 86030 -7.7943e+001 -2.2599e+002 -3.8347e+001 50093 85794,85981,85612
 5.1000e+000 86131 -9.1810e+001 -2.7444e+002  3.7137e+001 49895 86053,86105,86079
 5.1000e+000 86639 -6.9224e+001 -1.9297e+002 -3.9521e+001 49391 86662,86394,86368
 5.1000e+000 86616 -8.1603e+001 -2.3567e+002 -3.5315e+001 49391 86662,86368,86342
 5.1000e+000 86593 -4.5248e+001 -2.3528e+002 -1.0310e+001 49391 86342,86498,86472
 5.1000e+000 86570 -2.9213e+001 -2.5683e+002 -1.2028e+001 49391 86316,86498,86342
 5.1000e+000 86547 -1.3131e+002 -3.5802e+002 -1.5927e+001 49391 86394,86472,86446
 5.1000e+000 86524 -1.1233e+001 -3.3870e+002  2.6537e+000 49391 86394,86446,86420
 5.1000e+000 86688 -7.7949e+001 -2.3285e+002 -2.1037e+001 49391 86472,86394,86662
 5.1000e+000 86711 -6.9709e+001 -2.5111e+002 -2.0298e+001 49391 86472,86662,86342
 5.1000e+000 87089 -9.9725e+001 -2.7713e+002  7.6106e+000 48987 86815,86919,86867
 5.1000e+000 87066 -1.0045e+002 -2.8542e+002  1.1720e+001 48987 86815,86971,86919
 5.1000e+000 87043 -3.8628e+001 -3.0691e+002 -2.7681e+001 48987 86867,86919,86893
 5.1000e+000 87020 -1.1338e+002 -3.1443e+002  2.5270e+001 48987 86815,86867,86841
 5.1000e+000 86997 -1.1212e+002 -2.4602e+002  3.8905e+001 48987 86919,86971,86945
 5.1000e+000 87467 -1.8708e+002 -2.7755e+002  1.3337e+001 48540 87490,87245,87219
 5.1000e+000 87444 -1.3498e+002 -2.6044e+002  1.0804e+000 48540 87562,87490,87219
 5.1000e+000 87421 -1.0232e+002 -2.4729e+002  1.1319e+001 48540 87562,87219,87349
 5.1000e+000 87398 -1.4000e+002 -2.1663e+002 -1.3694e+001 48540 87245,87297,87271
 5.1000e+000 87375 -8.6650e+001 -2.5797e+002  8.7474e+000 48540 87193,87349,87219
 5.1000e+000 87516 -1.2835e+002 -2.6330e+002  3.8449e+000 48540 87297,87245,87490
 5.1000e+000 87539 -1.2981e+002 -2.6564e+002  4.6692e+000 48540 87297,87490,87323
 5.1000e+000 87588 -1.0339e+002 -2.4535e+002  2.2331e+001 48540 87323,87490,87562
 5.1000e+000 87611 -8.7691e+001 -2.4963e+002  2.9198e+001 48540 87323,87562,87349
 5.1000e+000 87810 -1.2818e+002 -4.5423e+002 -3.2687e+001 48136 87660,87712,87686
 5.1000e+000 87787 -7.2223e+001 -2.6428e+002 -1.5118e+001 48136 87660,87738,87712
 5.1000e+000 87764 -1.6823e+002 -2.7398e+002 -4.4748e+001 48136 87634,87738,87660
 5.1000e+000 88205 -1.1913e+002 -2.9298e+002 -2.5966e+001 47210 88300,88228,87937
 5.1000e+000 88182 -1.0377e+002 -2.8528e+002 -8.1843e+000 47210 88228,87833,88041
 5.1000e+000 88159 -1.2063e+002 -3.1295e+002 -4.1012e+001 47210 88300,87937,87911
 5.1000e+000 88136 -1.1600e+002 -2.8476e+002 -3.5223e+001 47210 87833,87911,87859
 5.1000e+000 88113 -1.9817e+002 -2.5824e+002 -2.1128e+001 47210 87937,87989,87963
 5.1000e+000 88090 -9.8292e+001 -2.3196e+002  4.8343e+001 47210 87989,88041,88015
 5.1000e+000 88067 -1.3413e+002 -3.3070e+002 -4.6512e+001 47210 87859,87911,87885
 5.1000e+000 88254 -1.0605e+002 -2.4282e+002 -2.6575e+001 47210 87989,87937,88228
 5.1000e+000 88277 -1.2497e+002 -2.7983e+002 -1.0408e+001 47210 87989,88228,88041
 5.1000e+000 88326 -9.8466e+001 -2.7356e+002 -1.0439e+001 47210 87833,88228,88300
 5.1000e+000 88349 -1.0340e+002 -2.8708e+002 -2.6515e+001 47210 87833,88300,87911
 5.1000e+000 88780 -1.8013e+002 -3.1789e+002 -5.9870e+001 46642 88803,88509,88483
 5.1000e+000 88757 -1.2958e+002 -2.8650e+002 -3.2601e+001 46642 88803,88483,88639
 5.1000e+000 88734 -1.4384e+002 -2.3540e+002 -3.7487e+001 46642 88875,88561,88509
 5.1000e+000 88711 -1.4594e+002 -2.1805e+002 -7.0320e+000 46642 88509,88561,88535
 5.1000e+000 88688 -8.2504e+001 -3.2078e+002  1.0266e+000 46642 88457,88639,88483
 5.1000e+000 88665 -1.6644e+002 -3.8293e+002 -1.6257e+001 46642 88561,88613,88587
 5.1000e+000 88829 -1.4507e+002 -2.5693e+002 -4.2262e+001 46642 88875,88509,88803
 5.1000e+000 88852 -1.4213e+002 -3.0914e+002 -2.7619e+001 46642 88613,88803,88639
 5.1000e+000 88901 -1.1847e+002 -2.6516e+002 -1.9403e+001 46642 88613,88561,88875
 5.1000e+000 88924 -1.2929e+002 -3.0000e+002 -2.3469e+001 46642 88613,88875,88803
 5.1000e+000 89253 -5.6488e+001 -2.8209e+002  5.2257e+000 46444 89080,89158,89132
 5.1000e+000 89230 -6.3512e+001 -2.9739e+002  2.3783e+000 46444 89028,89158,89080
 5.1000e+000 89207 -2.4581e+001 -2.6503e+002 -1.1497e+001 46444 89028,89080,89054
 5.1000e+000 89184 -2.7692e+001 -3.0534e+002 -2.3938e+001 46444 89080,89132,89106
 5.1000e+000 89631 -8.1231e+001 -1.9508e+002  4.3308e+000 46040 89383,89461,89435
 5.1000e+000 89608 -8.6008e+001 -2.1579e+002 -1.2470e+001 46040 89383,89487,89461
 5.1000e+000 89585 -8.8137e+001 -2.5168e+002 -7.2669e+000 46040 89383,89435,89409
 5.1000e+000 89562 -6.8714e+001 -1.8513e+002 -2.5538e+001 46040 89383,89513,89487
 5.1000e+000 89539 -2.7926e+001 -1.6511e+002 -3.4343e+001 46040 89357,89513,89383
 5.1000e+000 90009 -8.5341e+001 -2.4802e+002 -1.1411e+000 45636 89813,89891,89839
 5.1000e+000 89986 -8.8028e+001 -2.3182e+002  1.3438e+001 45636 89787,89891,89813
 5.1000e+000 89963 -7.6054e+001 -2.3265e+002 -6.6189e+000 45636 89839,89891,89865
 5.1000e+000 89940 -1.0300e+002 -2.5894e+002  7.2176e+000 45636 89735,89891,89787
 5.1000e+000 89917 -8.1499e+001 -2.6110e+002 -1.1558e+001 45636 89735,89787,89761
 5.1000e+000 90208 -5.5951e+001 -1.9143e+002 -3.7663e+001 45175 90231,90058,90032
 5.1000e+000 90185 -3.4038e+001 -1.7498e+002 -5.7186e+001 45175 90231,90032,90136
 5.1000e+000 90162 -6.6627e+001 -1.5475e+002 -3.1578e+000 45175 90058,90110,90084
 5.1000e+000 90257 -8.0803e+001 -2.1555e+002 -1.0056e+001 45175 90110,90058,90231
 5.1000e+000 90280 -3.8787e+001 -1.8683e+002 -3.1799e+001 45175 90110,90231,90136
 5.1000e+000 90528 -6.1301e+001 -1.9545e+002 -2.6281e+001 44513 90695,90551,90407
 5.1000e+000 90505 -6.6017e+001 -1.7670e+002 -1.3683e+001 44513 90551,90355,90329
 5.1000e+000 90482 -7.9585e+001 -1.9215e+002 -2.4254e+001 44513 90623,90303,90433
 5.1000e+000 90459 -4.7547e+001 -1.8186e+002 -1.8991e+001 44513 90695,90407,90381
 5.1000e+000 90577 -8.9493e+001 -2.0446e+002 -4.4988e+001 44513 90433,90407,90551
 5.1000e+000 90600 -7.6694e+001 -1.8727e+002 -2.2861e+001 44513 90623,90433,90551
 5.1000e+000 90649 -7.7428e+001 -1.8610e+002 -2.2679e+001 44513 90329,90303,90623
 5.1000e+000 90672 -7.8310e+001 -1.8536e+002 -2.2531e+001 44513 90329,90623,90551
 5.1000e+000 90721 -7.8433e+001 -1.7737e+002 -2.9755e+001 44513 90355,90551,90695
 5.1000e+000 90744 -7.4601e+001 -1.7076e+002 -2.6965e+001 44513 90355,90695,90381
 5.1000e+000 91077  1.2835e+000 -2.0159e+002 -1.2265e+001 44059 91100,90930,90904
 5.1000e+000 91054 -7.8710e+001 -2.1805e+002  1.1343e+001 44059 91100,90904,90982
 5.1000e+000 91031 -1.4071e+002 -2.5259e+002 -1.7365e+001 44059 90878,90982,90904
 5.1000e+000 91008 -4.6014e+001 -1.9121e+002  1.1135e+001 44059 90852,90982,90878
 5.1000e+000 91126 -1.2031e+002 -2.3334e+002 -1.4309e+001 44059 91172,91100,90956
 5.1000e+000 91149 -7.5419e+001 -2.1473e+002 -9.4419e+000 44059 90956,91100,90982
 5.1000e+000 91198 -1.4245e+000 -1.1452e+002 -6.2008e+001 44059 90930,91100,91172
 5.1000e+000 91677 -9.9902e+001 -1.5732e+002  1.5089e+001 43549 91455,91533,91481
 5.1000e+000 91654 -3.8751e+001 -1.5810e+002  2.1306e+001 43549 91429,91533,91455
 5.1000e+000 91631 -9.7025e+001 -1.5888e+002  7.0676e+000 43549 91481,91533,91507
 5.1000e+000 91608 -2.0131e+001 -1.5046e+002  9.5783e+000 43549 91429,91559,91533
 5.1000e+000 91585  2.8439e+000 -4.4618e+001 -9.5137e-001 43549 91403,91559,91429
 5.1000e+000 92006 -1.0205e+002 -2.5321e+002  6.8906e-001 43059 91781,91885,91807
 5.1000e+000 91983 -1.0638e+002 -2.3886e+002  3.9206e+001 43059 91781,91911,91885
 5.1000e+000 91960 -1.0115e+002 -2.5226e+002  2.3283e-001 43059 91807,91885,91833
 5.1000e+000 91937 -6.6090e+001 -2.3861e+002 -3.7430e+000 43059 91833,91885,91859
 5.1000e+000 92561 -7.7481e+001 -1.7263e+002 -2.0426e+001 42598 92584,92215,92189
 5.1000e+000 92538 -8.5315e+001 -1.9495e+002 -1.8636e+001 42598 92656,92584,92189
 5.1000e+000 92515 -7.6662e+001 -2.2037e+002 -5.7318e+000 42598 92656,92189,92397
 5.1000e+000 92492 -1.0282e+002 -1.5462e+002 -2.4285e+001 42598 92241,92319,92293
 5.1000e+000 92469 -9.5658e+001 -1.8476e+002  1.0390e+001 42598 92319,92397,92371
 5.1000e+000 92446 -3.6461e+001 -2.1923e+002  9.1953e+001 42598 92319,92371,92345
 5.1000e+000 92423 -9.9699e+001 -1.5879e+002 -3.4014e+001 42598 92241,92293,92267
 5.1000e+000 92610 -8.3965e+001 -1.7462e+002 -1.9575e+001 42598 92241,92215,92584
 5.1000e+000 92633 -7.6851e+001 -1.5860e+002 -2.3781e+001 42598 92241,92584,92319
 5.1000e+000 92682 -7.7897e+001 -1.6096e+002 -1.3562e+001 42598 92319,92584,92656
 5.1000e+000 92705 -6.3221e+001 -1.7837e+002 -4.0147e+000 42598 92319,92656,92397
 5.1000e+000 92953 -1.0446e+002 -2.7192e+002  1.4581e+001 42094 92976,92806,92780
 5.1000e+000 92930 -1.1598e+002 -2.5623e+002 -5.3622e-002 42094 92976,92780,92754
 5.1000e+000 92907 -2.6292e+001 -2.6272e+002 -1.8095e+000 42094 93048,92832,92806
 5.1000e+000 92884 -1.4742e+002 -2.5992e+002 -1.7166e+001 42094 92728,92858,92754
 5.1000e+000 93002 -6.7777e+001 -2.5180e+002  6.7966e+000 42094 93048,92806,92976
 5.1000e+000 93025 -1.0743e+002 -2.5152e+002 -4.2679e+000 42094 92858,92976,92754
 5.1000e+000 93074 -8.4335e+001 -2.8367e+002 -2.6949e+000 42094 92858,92832,93048
 5.1000e+000 93097 -1.1809e+002 -2.6789e+002  2.2799e+000 42094 92858,93048,92976
 5.1000e+000 93605 -1.0800e+002 -3.0969e+002 -1.1968e+001 41846 93628,93412,93386
 5.1000e+000 93582 -8.2373e+001 -2.3399e+002 -2.3210e+000 41846 93628,93386,93308
 5.1000e+000 93559 -1.2414e+002 -2.4405e+002 -5.1593e+001 41846 93700,93464,93438
 5.1000e+000 93536 -1.1751e+002 -3.2395e+002  3.6284e+000 41846 93308,93386,93334
 5.1000e+000 93513 -1.5082e+002 -2.3173e+002 -3.9871e+001 41846 93334,93386,93360
 5.1000e+000 93490 -1.1758e+002 -2.1521e+002 -5.0371e+001 41846 93282,93464,93308
 5.1000e+000 93654 -9.4678e+001 -2.4847e+002 -2.3462e+001 41846 93438,93412,93628
 5.1000e+000 93677 -1.2533e+002 -2.4969e+002 -2.3689e+001 41846 93700,93438,93628
 5.1000e+000 93726 -1.1140e+002 -2.0958e+002 -4.8029e+001 41846 93308,93464,93700
 5.1000e+000 93749 -1.0784e+002 -2.0430e+002 -2.0493e+001 41846 93308,93700,93628
 5.1000e+000 94255 -8.9610e+001 -2.5931e+002  1.6391e+001 41385 93958,94114,94088
 5.1000e+000 94232 -7.8560e+001 -2.7885e+002  6.8500e+000 41385 93932,94114,93958
 5.1000e+000 94209 -1.5070e+002 -2.9972e+002  4.8177e+001 41385 93958,94088,94062
 5.1000e+000 94186 -1.5747e+002 -2.1750e+002  3.5661e+001 41385 93958,94062,93984
 5.1000e+000 94163 -1.3494e+002 -2.1309e+002  3.1842e+001 41385 93984,94062,94036
 5.1000e+000 94140 -9.1600e+001 -2.8811e+002  4.5953e+001 41385 93984,94036,94010
 5.1000e+000 94476 -2.9740e+001 -3.5026e+002  2.0188e+001 40881 94326,94378,94352
 5.1000e+000 94453 -5.8861e+001 -2.8797e+002  2.3060e+001 40881 94300,94378,94326
 5.1000e+000 94430 -7.3954e+001 -2.6639e+002  2.5927e+000 40881 94300,94404,94378
 5.1000e+000 94626 -7.2420e+001 -1.9960e+002 -3.4773e+000 40591 94649,94551,94525
 5.1000e+000 94603 -4.0987e+001 -1.2142e+002  2.6210e+000 40591 94781,94577,94551
 5.1000e+000 94675 -2.4356e+001 -1.4319e+002 -2.5036e+001 40591 94781,94551,94649
 5.1000e+000 94807  1.5870e+000 -8.0541e+001  2.6661e+001 40591 94499,94577,94781
 5.1000e+000 94830  6.5276e+000 -1.2357e+002 -2.5756e+000 40591 94499,94781,94649
 5.1000e+000 95336 -1.8046e+002 -2.3878e+002 -3.7629e+001 40187 95013,95169,95039
 5.1000e+000 95313 -4.2906e+001 -2.1575e+002  4.7098e+000 40187 95013,95195,95169
 5.1000e+000 95290 -3.1176e+001 -2.3417e+002 -2.6620e+001 40187 95039,95143,95065
 5.1000e+000 95267 -1.3409e+002 -2.7504e+002 -4.0275e+001 40187 95039,95169,95143
 5.1000e+000 95244 -5.4648e+001 -1.9781e+002 -1.9532e+001 40187 95091,95143,95117
 5.1000e+000 95221 -1.7293e+001 -1.2426e+002 -6.9014e+000 40187 95065,95143,95091
 5.1000e+000 95665 -6.5136e+001 -1.7819e+002  8.0031e+001 39626 95466,95570,95544
 5.1000e+000 95642 -1.2304e+002 -1.4201e+002  5.2283e+001 39626 95440,95570,95466
 5.1000e+000 95619 -1.9296e+002 -2.3826e+002  5.2039e+001 39626 95466,95544,95492
 5.1000e+000 95596 -3.8108e+001 -1.8439e+002  7.9089e+001 39626 95492,95544,95518
 5.1000e+000 95913 -1.0108e+002 -2.1915e+002 -3.2609e+001 39136 96080,95936,95766
 5.1000e+000 95890 -7.0248e+001 -2.3538e+002 -2.0031e+001 39136 95936,95714,95688
 5.1000e+000 95867 -1.7588e+002 -2.3498e+002  8.8136e+000 39136 96008,95792,95766
 5.1000e+000 95844 -8.3064e+001 -2.1269e+002 -2.4460e+001 39136 96080,95766,95740
 5.1000e+000 95962 -1.3964e+002 -2.4329e+002 -2.1274e+001 39136 96008,95766,95936
 5.1000e+000 95985 -9.0807e+001 -2.8660e+002 -5.4202e+000 39136 95818,95936,95688
 5.1000e+000 96034 -8.8329e+001 -1.9694e+002  1.4135e+001 39136 95818,95792,96008
 5.1000e+000 96057 -7.8775e+001 -2.1583e+002 -1.5457e+001 39136 95818,96008,95936
 5.1000e+000 96106 -9.1999e+001 -2.1639e+002 -8.5588e+000 39136 95714,95936,96080
 5.1000e+000 96129 -6.3936e+001 -2.0881e+002 -2.1853e+000 39136 95714,96080,95740
 5.1000e+000 96350 -7.2524e+001 -1.8465e+002 -1.1348e+001 38824 96200,96278,96252
 5.1000e+000 96327 -6.1557e+001 -1.7883e+002 -9.1809e+000 38824 96174,96278,96200
 5.1000e+000 96304 -1.3002e+001 -1.6372e+002 -3.2835e+001 38824 96200,96252,96226
 5.1000e+000 96830 -1.0551e+002 -1.9316e+002 -1.4512e+001 38320 97069,96536,96484
 5.1000e+000 96807 -1.0362e+002 -1.9577e+002 -1.4379e+001 38320 97069,96484,96853
 5.1000e+000 96784 -1.1693e+002 -2.1010e+002  1.9112e+000 38320 96853,96484,96458
 5.1000e+000 96761 -6.5043e+001 -1.6924e+002 -2.1886e+001 38320 96925,96640,96614
 5.1000e+000 96738 -1.0138e+002 -1.7609e+002 -1.0183e+001 38320 96997,96666,96640
 5.1000e+000 96715 -8.6379e+001 -2.2829e+002 -6.3799e+000 38320 97141,96588,96562
 5.1000e+000 96692 -1.3232e+002 -2.2271e+002 -2.6339e+000 38320 96484,96536,96510
 5.1000e+000 96879 -1.0445e+002 -2.0773e+002 -8.8429e+000 38320 97141,96562,96853
 5.1000e+000 96902 -9.7123e+001 -2.0268e+002 -8.7729e+000 38320 96925,96614,96853
 5.1000e+000 96951 -9.9180e+001 -1.7421e+002 -1.1532e+001 38320 96997,96640,96925
 5.1000e+000 96974 -9.4434e+001 -1.7190e+002 -7.6522e+000 38320 96458,96925,96853
 5.1000e+000 97023 -1.1162e+002 -1.7855e+002 -4.7960e+000 38320 96458,96666,96997
 5.1000e+000 97046 -1.0362e+002 -1.7444e+002 -6.3196e+000 38320 96458,96997,96925
 5.1000e+000 97095 -1.0771e+002 -1.8490e+002 -4.0554e+000 38320 96562,96536,97069
 5.1000e+000 97118 -9.9416e+001 -1.9386e+002 -1.2613e+001 38320 96562,97069,96853
 5.1000e+000 97167 -5.4579e+001 -2.0949e+002 -1.5039e+001 38320 96614,96588,97141
 5.1000e+000 97190 -8.4436e+001 -1.9746e+002 -1.5057e+001 38320 96614,97141,96853
 5.1000e+000 97519 -8.2501e+001 -2.5277e+002  6.8330e+001 37766 97542,97398,97372
 5.1000e+000 97496 -9.9016e+001 -1.9830e+002  4.7775e+001 37766 97542,97372,97346
 5.1000e+000 97473 -9.8244e+001 -2.0792e+002  4.0330e+000 37766 97294,97424,97346
 5.1000e+000 97450 -1.0965e+002 -2.4276e+002 -5.2146e-001 37766 97294,97346,97320
 5.1000e+000 97568 -4.2593e+001 -2.6498e+002  2.3453e+001 37766 97424,97398,97542
 5.1000e+000 97591 -6.8879e+001 -2.0258e+002  6.4147e+000 37766 97424,97542,97346
 5.1000e+000 98048 -1.0438e+002 -1.5322e+002 -4.8235e+001 37262 98071,97878,97852
 5.1000e+000 98025 -8.8769e+001 -1.8271e+002 -1.9286e+001 37262 98071,97852,97800
 5.1000e+000 98002 -9.8515e+001 -2.2035e+002 -2.1189e+001 37262 97800,97852,97826
 5.1000e+000 97979 -1.0072e+002 -1.9663e+002  4.1547e+000 37262 97800,97930,97904
 5.1000e+000 97956 -6.7681e+001 -2.3533e+002  1.4108e+001 37262 97774,97930,97800
 5.1000e+000 98097 -1.4747e+002 -1.7419e+002 -3.4312e+001 37262 97904,97878,98071
 5.1000e+000 98120 -1.1236e+002 -2.0647e+002 -7.9426e+000 37262 97904,98071,97800
 5.1000e+000 98449 -5.7539e+001 -1.5471e+002 -1.8478e+001 36950 98472,98302,98250
 5.1000e+000 98426 -3.4806e+001 -1.4792e+002 -2.2575e+001 36950 98472,98250,98354
 5.1000e+000 98403 -8.8571e+001 -1.7176e+002  1.9712e+001 36950 98250,98302,98276
 5.1000e+000 98380 -2.2343e+001 -1.1702e+002  1.2140e+001 36950 98224,98354,98250
 5.1000e+000 98498 -4.0729e+001 -1.7264e+002 -5.1222e+000 36950 98328,98302,98472
 5.1000e+000 98521 -1.4288e+001 -1.6248e+002 -1.3024e+001 36950 98328,98472,98354
 5.1000e+000 99125 -1.1383e+002 -1.1404e+002  1.0257e+001 36296 98704,98756,98730
 5.1000e+000 99102 -1.1501e+002 -1.2815e+002  1.1376e+001 36296 98704,98938,98756
 5.1000e+000 99079 -8.3054e+001 -1.5882e+002 -4.0064e+000 36296 99148,98938,98912
 5.1000e+000 99056 -8.8154e+001 -1.6350e+002  3.6870e+001 36296 99292,99220,98782
 5.1000e+000 99033 -7.2389e+001 -1.8287e+002  4.1755e+000 36296 99148,98912,98834
 5.1000e+000 99010 -8.4140e+001 -1.3962e+002  4.1091e+001 36296 99292,98782,98756
 5.1000e+000 98987 -6.9358e+001 -3.2259e+002 -5.9719e+001 36296 98834,98912,98886
 5.1000e+000 98964 -1.1768e+002 -4.6618e+002 -7.6431e+001 36296 98834,98886,98860
 5.1000e+000 99174 -1.0233e+002 -1.9551e+002  5.6810e+000 36296 99220,98938,99148
 5.1000e+000 99197 -7.0940e+001 -2.2250e+002  2.3519e+001 36296 98808,99148,98834
 5.1000e+000 99246 -8.6512e+001 -1.5901e+002  8.9468e+001 36296 98808,98782,99220
 5.1000e+000 99269 -3.6251e+001 -1.4275e+002  2.9100e+001 36296 98808,99220,99148
 5.1000e+000 99318 -9.5478e+001 -1.4076e+002  2.0718e+001 36296 98938,99220,99292
 5.1000e+000 99341 -9.7502e+001 -1.4438e+002  2.4735e+001 36296 98938,99292,98756
 5.1000e+000 99719 -1.2166e+002 -2.5208e+002  5.1106e-001 35742 99742,99471,99601
 5.1000e+000 99696 -1.2441e+002 -2.0008e+002  2.3817e+001 35742 99445,99601,99471
 5.1000e+000 99673 -1.1641e+002 -2.4009e+002 -1.0096e+001 35742 99742,99601,99575
 5.1000e+000 99650 -1.0157e+002 -2.9504e+002 -7.9030e+000 35742 99814,99549,99523
 5.1000e+000 99627 -8.2038e+001 -2.3056e+002 -1.1913e+000 35742 99471,99523,99497
 5.1000e+000 99768 -9.7753e+001 -2.4661e+002  5.4415e+000 35742 99523,99471,99742
 5.1000e+000 99791 -1.1472e+002 -2.7301e+002 -6.7823e+000 35742 99814,99523,99742
 5.1000e+000 99840 -9.9550e+001 -2.6772e+002 -1.6306e+001 35742 99575,99549,99814
 5.1000e+000 99863 -1.0796e+002 -2.3905e+002 -1.4463e+001 35742 99575,99814,99742
 5.1000e+000 100111 -9.2363e+001 -2.0460e+002  1.4523e+001 35302 100134,99990,99938
 5.1000e+000 100088 -7.7435e+001 -1.8687e+002  5.0545e+000 35302 100134,99938,99912
 5.1000e+000 100065 -7.7799e+001 -1.8677e+002 -4.5575e+000 35302 100206,99886,100016
 5.1000e+000 100042 -1.1879e+002 -1.9227e+002  9.0864e+000 35302 99938,99990,99964
 5.1000e+000 100160 -7.3060e+001 -1.9729e+002  3.3713e+000 35302 100016,99990,100134
 5.1000e+000 100183 -7.4299e+001 -1.8968e+002 -4.4618e+000 35302 100206,100016,100134
 5.1000e+000 100232 -8.0805e+001 -1.9017e+002 -2.4577e+000 35302 99912,99886,100206
 5.1000e+000 100255 -7.7516e+001 -1.9380e+002 -2.4665e+000 35302 99912,100206,100134
 5.1000e+000 100586 -1.1321e+002 -1.2884e+002  3.4089e+001 35012 100609,100387,100361
 5.1000e+000 100563 -1.3719e+002 -9.5244e+001 -2.5511e+001 35012 100609,100361,100465
 5.1000e+000 100540 -6.3890e+001 -6.8512e+001 -5.8034e+001 35012 100361,100491,100465
 5.1000e+000 100517 -2.3715e+001 -7.7067e+001 -5.6110e+001 35012 100413,100465,100439
 5.1000e+000 100635 -5.2570e+001 -1.0221e+002  1.3741e+001 35012 100413,100387,100609
 5.1000e+000 100658 -7.4583e+001 -5.9889e+001 -4.7429e+001 35012 100413,100609,100465
 5.1000e+000 100987 -9.3265e+001 -2.0952e+002  1.8248e+001 34700 100788,100866,100814
 5.1000e+000 100964 -7.5497e+001 -1.6527e+002  3.1252e+001 34700 101010,100866,100788
 5.1000e+000 100941 -5.1175e+001 -1.1807e+002  3.2381e+001 34700 100762,100892,100866
 5.1000e+000 100918 -8.6273e+001 -1.9138e+002  1.2523e+001 34700 100814,100866,100840
 5.1000e+000 101036 -5.0729e+001 -1.4447e+002  5.1753e+001 34700 100762,100866,101010
 5.1000e+000 101493 -1.2545e+002 -2.3577e+002 -2.0435e+001 34132 101516,101349,101297
 5.1000e+000 101470 -1.4911e+002 -2.8214e+002 -3.2722e+001 34132 101588,101516,101297
 5.1000e+000 101447 -1.4969e+002 -2.9695e+002 -4.8344e+001 34132 101588,101297,101245
 5.1000e+000 101424 -9.2286e+001 -3.4626e+002 -4.5285e+001 34132 101245,101297,101271
 5.1000e+000 101401 -1.4130e+002 -2.3702e+002 -2.6228e+001 34132 101297,101349,101323
 5.1000e+000 101542 -1.3072e+002 -2.7194e+002 -1.5976e+001 34132 101375,101349,101516
 5.1000e+000 101565 -1.1661e+002 -2.7058e+002 -1.6681e+001 34132 101375,101516,101219
 5.1000e+000 101614 -1.1933e+002 -2.8344e+002 -1.6971e+001 34132 101219,101516,101588
 5.1000e+000 101637 -1.3445e+002 -2.9796e+002 -3.1836e+001 34132 101219,101588,101245
 5.1000e+000 101858 -4.4106e+001 -1.9239e+002  1.9976e+001 33720 101708,101786,101760
 5.1000e+000 101835 -2.7619e+001 -2.1053e+002  3.0800e+001 33720 101682,101786,101708
 5.1000e+000 101812 -6.8203e+001 -2.0478e+002  1.4238e+001 33720 101708,101760,101734
 5.1000e+000 102128 -2.9375e+001 -2.4607e+002 -6.6883e+000 33130 101903,102007,101929
 5.1000e+000 102105 -3.5404e+001 -2.8443e+002  9.1688e+000 33130 101903,102033,102007
 5.1000e+000 102082 -1.6738e+001 -2.9386e+002 -5.6899e+001 33130 101929,102007,101955
 5.1000e+000 102059 -4.4908e+001 -2.0841e+002  4.9074e+000 33130 101955,102007,101981
 5.1000e+000 102461 -7.8915e+001 -1.8788e+002 -1.7654e+001 32840 102236,102340,102262
 5.1000e+000 102438 -6.8641e+001 -1.3508e+002  3.9613e+000 32840 102236,102366,102340
 5.1000e+000 102415 -4.7867e+001 -1.8025e+002 -1.4606e+001 32840 102262,102340,102288
 5.1000e+000 102392 -9.4392e+001 -1.9055e+002 -3.9925e+001 32840 102288,102340,102314
 5.1000e+000 102997 -8.1487e+001 -1.3994e+002  3.9072e+001 32493 102749,102879,102853
 5.1000e+000 102974 -6.6533e+001 -1.1071e+002  2.8328e+001 32493 102723,102879,102749
 5.1000e+000 102951 -9.3997e+001 -1.6988e+002  2.6723e+001 32493 102749,102801,102775
 5.1000e+000 102928 -1.0165e+002 -1.6840e+002  2.5433e+001 32493 102749,102853,102801
 5.1000e+000 102905 -9.6428e+001 -1.6052e+002  2.0979e+001 32493 102801,102853,102827
 5.1000e+000 103454 -8.4250e+001 -1.5219e+002 -1.6412e+001 32089 103206,103336,103310
 5.1000e+000 103431 -6.6597e+001 -1.6406e+002 -2.0083e+000 32089 103180,103336,103206
 5.1000e+000 103408 -9.5672e+001 -1.7764e+002 -3.1739e+001 32089 103206,103284,103258
 5.1000e+000 103385 -1.3297e+002 -1.8412e+002 -3.6265e+001 32089 103206,103310,103284
 5.1000e+000 103362 -7.4367e+001 -1.2326e+002 -2.0451e+001 32089 103206,103258,103232
 5.1000e+000 103783 -1.5254e+002 -2.0000e+002 -2.2188e+001 31742 103558,103662,103584
 5.1000e+000 103760 -1.2592e+002 -1.6143e+002 -5.3497e+001 31742 103558,103688,103662
 5.1000e+000 103737 -1.0299e+002 -1.6175e+002 -4.0810e+001 31742 103584,103662,103636
 5.1000e+000 103714 -9.7232e+001 -1.8322e+002 -4.5174e+001 31742 103584,103636,103610
 5.1000e+000 104112 -2.7956e+001 -1.5929e+002  2.4639e+001 31402 103939,103991,103965
 5.1000e+000 104089 -4.9267e+001 -1.3834e+002  1.1914e+001 31402 103913,103991,103939
 5.1000e+000 104066 -6.7617e+001 -1.5725e+002  1.5317e+000 31402 103913,104017,103991
 5.1000e+000 104043 -8.2378e+001 -1.4496e+002 -8.7556e+000 31402 103887,104017,103913
 5.1000e+000 104569 -1.4143e+002 -2.5282e+002  6.6471e+000 30998 104321,104425,104373
 5.1000e+000 104546 -1.5896e+002 -2.5853e+002  4.7081e+000 30998 104321,104451,104425
 5.1000e+000 104523 -1.0593e+002 -2.0982e+002  2.9442e+001 30998 104373,104425,104399
 5.1000e+000 104500 -1.2908e+002 -2.9499e+002 -1.3125e+001 30998 104295,104451,104321
 5.1000e+000 104477 -1.8998e+002 -2.9848e+002  5.4197e+001 30998 104321,104373,104347
 5.1000e+000 104947 -1.2950e+002 -2.2231e+002 -2.5553e+001 30608 104751,104803,104777
 5.1000e+000 104924 -8.5769e+001 -2.2899e+002 -9.2444e+000 30608 104725,104803,104751
 5.1000e+000 104901 -1.3696e+002 -2.2213e+002  1.5188e+001 30608 104699,104803,104725
 5.1000e+000 104878 -1.1742e+002 -2.1354e+002  1.3575e+001 30608 104673,104803,104699
 5.1000e+000 104855 -9.0459e+001 -2.0381e+002 -8.0211e+000 30608 104673,104829,104803
 5.1000e+000 105276 -9.0676e+001 -2.0681e+002  1.0586e+001 30204 105427,105129,105077
 5.1000e+000 105253 -6.3175e+001 -2.2423e+002  4.5518e+001 30204 105427,105077,105051
 5.1000e+000 105230 -7.7666e+001 -1.9932e+002  1.3688e+001 30204 105077,105129,105103
 5.1000e+000 105207 -5.5433e+001 -1.8605e+002  3.0166e+001 30204 105299,105181,105155
 5.1000e+000 105325 -5.8863e+001 -1.8225e+002  1.0637e+001 30204 105129,105181,105299
 5.1000e+000 105453 -1.0789e+002 -2.1856e+002  2.7060e+001 30204 105181,105129,105427
 5.1000e+000 105476 -1.2478e+002 -2.5629e+002  6.6697e+001 30204 105181,105427,105051
 5.1000e+000 105903 -7.4977e+001 -1.7848e+002 -1.3806e+001 29700 105606,105762,105736
 5.1000e+000 105880 -9.6453e+001 -1.8307e+002  4.4288e-001 29700 105580,105762,105606
 5.1000e+000 105857 -1.1501e+002 -2.2531e+002 -1.3622e+001 29700 105606,105710,105632
 5.1000e+000 105834 -9.5479e+001 -1.8907e+002 -6.2110e+000 29700 105606,105736,105710
 5.1000e+000 105811 -1.0787e+002 -2.0561e+002 -1.5962e+001 29700 105632,105710,105684
 5.1000e+000 105788 -1.0307e+002 -1.9401e+002 -9.0108e+000 29700 105632,105684,105658
 5.1000e+000 106102 -2.9816e+001 -2.1330e+002  9.7181e+000 29124 105978,106030,106004
 5.1000e+000 106079 -5.3200e+001 -2.0817e+002  1.0857e+001 29124 105926,106030,105978
 5.1000e+000 106056 -5.9343e+001 -2.3652e+002  3.0434e+001 29124 105926,105978,105952
 5.1000e+000 106301 -5.9412e+001 -2.1858e+002  9.5203e-001 28712 106151,106229,106203
 5.1000e+000 106278 -7.0831e+001 -2.4207e+002 -1.1046e+001 28712 106125,106229,106151
 5.1000e+000 106255 -6.2114e+001 -2.2988e+002  1.1920e+001 28712 106151,106203,106177
 5.1000e+000 106551 -7.7002e+001 -2.7287e+002  1.3089e+001 28258 106352,106404,106378
 5.1000e+000 106528 -1.0590e+002 -2.7553e+002  2.1797e+000 28258 106352,106456,106404
 5.1000e+000 106505 -1.0529e+002 -2.8301e+002 -7.4658e-001 28258 106326,106456,106352
 5.1000e+000 106482 -9.5191e+001 -2.5845e+002 -4.2170e+000 28258 106404,106456,106430
 5.1000e+000 107012 -9.0396e+001 -2.3250e+002  4.6305e+001 27818 107035,106790,106764
 5.1000e+000 106989 -7.8478e+001 -2.2040e+002  1.7326e+001 27818 107035,106764,106868
 5.1000e+000 106966 -5.5115e+001 -2.6518e+002  2.5441e+001 27818 107107,106842,106816
 5.1000e+000 106943 -1.1908e+002 -2.0503e+002  9.5167e+000 27818 106738,106868,106764
 5.1000e+000 106920 -1.1313e+002 -1.8309e+002  2.2948e+001 27818 106738,106894,106868
 5.1000e+000 107061 -3.9015e+001 -2.2198e+002  5.2581e+001 27818 106816,106790,107035
 5.1000e+000 107084 -6.9225e+001 -2.4768e+002  2.6811e+001 27818 107107,106816,107035
 5.1000e+000 107133 -5.2534e+001 -2.3969e+002  1.3056e+001 27818 106868,106842,107107
 5.1000e+000 107156 -6.1626e+001 -2.1350e+002  1.7657e+001 27818 106868,107107,107035
 5.1000e+000 107613 -2.9275e+001 -1.7589e+002  3.7849e+001 27312 107339,107469,107365
 5.1000e+000 107590 -3.7260e+000 -1.6118e+002  3.1739e+001 27312 107339,107495,107469
 5.1000e+000 107567 -3.0289e+001 -1.6983e+002  1.8238e+001 27312 107391,107469,107443
 5.1000e+000 107544 -2.8428e+001 -1.8279e+002  1.5755e+001 27312 107365,107469,107391
 5.1000e+000 107521 -8.2228e+001 -1.8667e+002  7.5071e+000 27312 107391,107443,107417
 5.1000e+000 107991 -9.1980e+001 -2.6171e+002  1.0978e+001 26858 108086,108014,107795
 5.1000e+000 107968 -1.0132e+002 -2.6927e+002 -1.2711e+001 26858 108014,107717,107873
 5.1000e+000 107945 -1.0374e+002 -2.7453e+002  1.8266e+001 26858 108158,108086,107795
 5.1000e+000 107922 -8.3296e+001 -2.7631e+002  1.8026e+001 26858 108158,107795,107769
 5.1000e+000 107899 -7.7771e+001 -3.2773e+002  4.5596e+001 26858 107821,107873,107847
 5.1000e+000 108040 -9.7396e+001 -2.9688e+002  1.5618e+001 26858 107821,107795,108014
 5.1000e+000 108063 -6.0820e+001 -2.8022e+002  1.7652e+000 26858 107821,108014,107873
 5.1000e+000 108112 -1.2303e+002 -2.7443e+002  1.2471e+001 26858 107717,108014,108086
 5.1000e+000 108135 -1.0328e+002 -2.7777e+002  2.7914e+001 26858 107717,108086,107743
 5.1000e+000 108184 -8.0479e+001 -2.6764e+002  2.5795e+001 26858 107743,108086,108158
 5.1000e+000 108207 -7.0716e+001 -2.7707e+002  2.6090e+001 26858 107743,108158,107769
 5.1000e+000 108634 -1.2013e+002 -2.4824e+002  4.8824e+000 26404 108657,108415,108363
 5.1000e+000 108611 -1.3517e+002 -2.6793e+002  2.8385e+001 26404 108657,108363,108337
 5.1000e+000 108588 -1.1762e+002 -2.5404e+002  2.8443e+001 26404 108729,108311,108467
 5.1000e+000 108565 -1.2845e+002 -2.9564e+002  4.6230e+000 26404 108801,108441,108415
 5.1000e+000 108542 -1.7695e+002 -2.8092e+002  3.4789e+001 26404 108311,108493,108467
 5.1000e+000 108519 -8.3740e+001 -2.4941e+002  4.7001e+000 26404 108363,108415,108389
 5.1000e+000 108683 -1.5898e+002 -2.6500e+002  8.5885e+000 26404 108801,108415,108657
 5.1000e+000 108706 -1.5152e+002 -2.6325e+002  2.2678e+001 26404 108729,108467,108657
 5.1000e+000 108755 -9.5741e+001 -2.6804e+002  2.8353e+001 26404 108337,108311,108729
 5.1000e+000 108778 -1.1305e+002 -2.6525e+002  2.1973e+001 26404 108337,108729,108657
 5.1000e+000 108827 -1.5820e+002 -3.5677e+002 -1.3157e+001 26404 108467,108441,108801
 5.1000e+000 108850 -1.7427e+002 -3.0397e+002 -8.9745e+000 26404 108467,108801,108657
 5.1000e+000 109228 -1.2078e+002 -2.5955e+002 -1.1985e+001 26064 109006,109084,109058
 5.1000e+000 109205 -1.0751e+002 -2.4264e+002  4.8105e+000 26064 108980,109084,109006
 5.1000e+000 109182 -1.1703e+002 -2.3238e+002 -8.1968e+000 26064 108980,109110,109084
 5.1000e+000 109159 -1.1616e+002 -2.7226e+002 -2.0104e+000 26064 109006,109058,109032
 5.1000e+000 109136 -3.9797e+001 -2.0695e+002  8.1593e+000 26064 108954,109110,108980
 5.1000e+000 109427 -2.9920e+001 -2.2119e+002 -4.5406e+001 25660 109303,109355,109329
 5.1000e+000 109404 -6.1269e+001 -2.8419e+002 -1.1013e+001 25660 109277,109355,109303
 5.1000e+000 109381 -3.8569e+001 -2.6800e+002 -3.9273e+000 25660 109251,109355,109277
 5.1000e+000 109577 -4.2914e+001 -1.0698e+002  3.7479e+001 25306 109476,109528,109502
 5.1000e+000 109554  1.3126e+001 -9.2651e+001  2.6791e+001 25306 109450,109528,109476
 5.1000e+000 109778 -8.5180e+001 -2.3503e+002  6.4811e+000 24944 109628,109706,109654
 5.1000e+000 109755 -9.2218e+001 -2.3148e+002  8.9667e-001 24944 109602,109706,109628
 5.1000e+000 109732 -7.5361e+001 -2.2140e+002 -2.1824e+000 24944 109654,109706,109680
 5.1000e+000 110126 -7.8998e+001 -3.0084e+002  9.3395e+000 24440 110149,109907,109855
 5.1000e+000 110103 -7.4018e+001 -3.1752e+002  1.9009e+001 24440 110149,109855,109985
 5.1000e+000 110080 -6.2452e+001 -2.6031e+002  5.5456e+000 24440 109855,109907,109881
 5.1000e+000 110057 -6.4684e+001 -2.4763e+002  8.3054e+001 24440 109829,109985,109855
 5.1000e+000 110034 -7.1895e+001 -3.0043e+002  1.9273e+000 24440 109907,109959,109933
 5.1000e+000 110011 -3.3557e+001 -2.5323e+002  6.5549e+000 24440 109803,109985,109829
 5.1000e+000 110175 -7.5408e+001 -2.8682e+002  7.2156e+000 24440 109959,109907,110149
 5.1000e+000 110198 -7.0045e+001 -3.0077e+002  1.8582e+001 24440 109959,110149,109985
 5.1000e+000 110301 -6.9880e+000 -1.5934e+002  2.1681e+000 24028 110223,110275,110249
 5.1000e+000 110573 -3.7055e+001 -1.7787e+002  1.4020e+001 23467 110400,110452,110426
 5.1000e+000 110550 -6.2850e+001 -2.1137e+002  6.3854e-001 23467 110374,110452,110400
 5.1000e+000 110527 -6.5726e+001 -2.1254e+002  3.6598e+000 23467 110348,110452,110374
 5.1000e+000 110504 -4.7443e+001 -2.0473e+002 -1.4369e+000 23467 110348,110478,110452
 5.1000e+000 111004 -1.4043e+002 -3.0964e+002 -3.3988e+001 22963 111027,110733,110707
 5.1000e+000 110981 -1.3925e+002 -2.9338e+002  1.4850e+001 22963 111027,110707,110681
 5.1000e+000 110958 -6.7557e+001 -2.5789e+002 -3.1783e+001 22963 111099,110759,110733
 5.1000e+000 110935 -9.0168e+001 -2.5319e+002 -2.0986e+001 22963 111171,110863,110811
 5.1000e+000 110912 -4.2514e+001 -1.8607e+002 -3.5574e+001 22963 110759,110811,110785
 5.1000e+000 110889 -1.0027e+002 -2.7089e+002 -1.6500e+001 22963 110811,110863,110837
 5.1000e+000 111053 -1.0050e+002 -2.8074e+002 -1.9436e+001 22963 111099,110733,111027
 5.1000e+000 111076 -8.4603e+001 -2.7409e+002 -1.7220e+001 22963 111171,110811,111027
 5.1000e+000 111125 -6.6045e+001 -2.5286e+002 -4.9485e+001 22963 110811,110759,111099
 5.1000e+000 111148 -7.1241e+001 -2.4987e+002 -4.1931e+001 22963 110811,111099,111027
 5.1000e+000 111197 -9.0670e+001 -2.1991e+002 -2.5941e+001 22963 110681,110863,111171
 5.1000e+000 111220 -9.3187e+001 -2.4446e+002 -1.2907e+001 22963 110681,111171,111027
 5.1000e+000 111726 -1.3759e+002 -2.6882e+002  5.7329e+000 22459 111749,111507,111429
 5.1000e+000 111703 -1.2617e+002 -2.6528e+002 -5.9412e+000 22459 111749,111429,111585
 5.1000e+000 111680 -1.0752e+002 -2.9380e+002 -3.4856e+000 22459 111403,111585,111429
 5.1000e+000 111657 -1.3164e+002 -2.9540e+002  1.2086e+001 22459 111507,111559,111533
 5.1000e+000 111634 -1.7800e+002 -2.5604e+002  1.6399e+001 22459 111455,111507,111481
 5.1000e+000 111611 -1.9208e+002 -2.5800e+002  2.4088e+001 22459 111429,111507,111455
 5.1000e+000 111775 -1.3789e+002 -2.8664e+002  1.6380e+001 22459 111559,111507,111749
 5.1000e+000 111798 -1.2604e+002 -2.7397e+002  4.9680e+000 22459 111559,111749,111585
 5.1000e+000 112046 -6.1256e+001 -2.2744e+002 -3.0562e+001 21898 112069,111925,111873
 5.1000e+000 112023 -5.8773e+001 -2.2920e+002 -7.6419e+000 21898 112069,111873,111847
 5.1000e+000 112000 -7.9458e+001 -2.3617e+002 -1.3145e+001 21898 111821,111951,111847
 5.1000e+000 111977 -6.9150e+001 -1.7737e+002 -1.9463e+001 21898 111873,111925,111899
 5.1000e+000 112095 -9.3676e+001 -2.3939e+002 -3.5027e+001 21898 111951,111925,112069
 5.1000e+000 112118 -7.7680e+001 -2.3593e+002 -1.3009e+001 21898 111951,112069,111847
 5.1000e+000 112498 -1.0519e+002 -2.4862e+002 -2.1579e+001 21608 112521,112276,112224
 5.1000e+000 112475 -6.8668e+001 -2.5124e+002 -1.3438e+000 21608 112521,112224,112380
 5.1000e+000 112452 -7.4035e+001 -2.9194e+002  1.7253e+001 21608 112302,112380,112354
 5.1000e+000 112429 -1.2537e+002 -2.8451e+002 -1.2935e+001 21608 112224,112276,112250
 5.1000e+000 112406  4.4059e+001 -3.1149e+002 -1.2383e+001 21608 112302,112354,112328
 5.1000e+000 112547 -7.5489e+001 -2.1808e+002 -4.1765e+000 21608 112302,112276,112521
 5.1000e+000 112570 -5.0350e+001 -2.4334e+002  9.7192e+000 21608 112302,112521,112380
 5.1000e+000 112948 -1.2220e+002 -2.5726e+002 -4.2956e+000 20882 112971,112752,112700
 5.1000e+000 112925 -9.4045e+001 -2.4778e+002 -1.0007e+001 20882 112971,112700,112830
 5.1000e+000 112902 -1.5492e+002 -2.7749e+002  1.6681e+001 20882 112778,112830,112804
 5.1000e+000 112879 -8.7593e+001 -2.0042e+002 -1.4460e+001 20882 112674,112830,112700
 5.1000e+000 112856 -1.4923e+002 -2.6790e+002  5.0820e+000 20882 112700,112752,112726
 5.1000e+000 112997 -1.2301e+002 -2.5707e+002  1.1311e+001 20882 112778,112752,112971
 5.1000e+000 113020 -1.0694e+002 -2.5249e+002  4.9751e+000 20882 112778,112971,112830
 5.1000e+000 113526 -8.7219e+001 -2.5680e+002  1.9612e+000 20428 113255,113385,113333
 5.1000e+000 113503 -9.4881e+001 -2.8072e+002  2.0357e+000 20428 113229,113385,113255
 5.1000e+000 113480 -1.0730e+001 -2.5099e+002  3.1017e+000 20428 113255,113333,113281
 5.1000e+000 113457 -8.1582e+001 -2.7393e+002  4.8032e+000 20428 113203,113385,113229
 5.1000e+000 113434 -4.4664e+001 -2.6263e+002 -7.9893e+000 20428 113281,113333,113307
 5.1000e+000 113411 -1.0839e+002 -2.5420e+002  7.3698e+000 20428 113333,113385,113359
 5.1000e+000 113774 -1.4673e+001 -2.4816e+002  9.9314e+000 19917 113797,113601,113549
 5.1000e+000 113751 -4.0976e+001 -2.5287e+002  1.3067e+001 19917 113869,113797,113549
 5.1000e+000 113728 -3.9115e+001 -2.5591e+002  2.4833e+001 19917 113869,113549,113679
 5.1000e+000 113705 -2.2584e+001 -2.4534e+002  2.0874e+001 19917 113549,113601,113575
 5.1000e+000 113823 -4.1819e+001 -3.0191e+002 -1.0279e+000 19917 113627,113601,113797
 5.1000e+000 113846 -1.5906e+001 -2.3629e+002 -6.0443e+000 19917 113627,113797,113653
 5.1000e+000 113895 -3.4984e+001 -2.2453e+002  3.9899e+000 19917 113653,113797,113869
 5.1000e+000 113918 -4.4614e+001 -2.3212e+002  1.9007e+001 19917 113653,113869,113679
 5.1000e+000 114166 -1.1441e+002 -2.5915e+002 -4.0873e+000 19413 113993,114045,114019
 5.1000e+000 114143 -1.0650e+002 -2.4103e+002  2.2375e+000 19413 113967,114045,113993
 5.1000e+000 114120 -8.9430e+001 -2.3508e+002  1.3457e+001 19413 113967,114071,114045
 5.1000e+000 114097 -7.1517e+001 -2.6655e+002 -4.6129e+000 19413 113941,114071,113967
 5.1000e+000 114438 -1.0650e+002 -2.8204e+002  2.4674e+000 19001 114213,114265,114239
 5.1000e+000 114415 -7.6546e+001 -2.1942e+002 -6.7495e+000 19001 114213,114343,114265
 5.1000e+000 114392 -1.1380e+002 -3.0300e+002 -1.3910e+001 19001 114265,114343,114317
 5.1000e+000 114369  2.1386e+001 -2.4459e+002 -5.4392e+000 19001 114265,114317,114291
 5.1000e+000 114639 -8.0153e+001 -3.3605e+002  1.6354e+001 18554 114489,114541,114515
 5.1000e+000 114616 -7.0000e+001 -2.9103e+002  2.8009e+000 18554 114489,114567,114541
 5.1000e+000 114593 -1.5157e+002 -3.3221e+002 -2.1889e+001 18554 114463,114567,114489
 5.1000e+000 115043 -5.4462e+001 -2.5080e+002  9.3891e+000 18164 114795,114925,114821
 5.1000e+000 115020 -4.7519e+001 -2.6444e+002  1.5215e+001 18164 114769,114925,114795
 5.1000e+000 114997 -2.9514e+001 -2.6438e+002 -2.0813e+000 18164 115066,114873,114821
 5.1000e+000 114974 -2.7252e+001 -2.2611e+002 -8.7754e+000 18164 115066,114821,114925
 5.1000e+000 114951  1.9123e+001 -2.6459e+002 -2.5761e+001 18164 114821,114873,114847
 5.1000e+000 115092 -4.3417e+001 -2.3677e+002 -2.2203e+001 18164 114899,114873,115066
 5.1000e+000 115115 -2.5541e+001 -1.7826e+002 -3.0727e+001 18164 114899,115066,114925
 5.1000e+000 115265 -6.7447e+001 -2.7185e+002  3.9627e+000 17852 115164,115216,115190
 5.1000e+000 115242 -7.6767e+001 -2.9148e+002 -4.2315e-001 17852 115138,115216,115164
 5.1000e+000 115464 -1.7530e+002 -3.9584e+002  5.0562e+000 17346 115288,115366,115340
 5.1000e+000 115441 -2.6926e+002 -3.0600e+002 -1.2652e+001 17346 115288,115392,115366
 5.1000e+000 115418 -1.5744e+002 -4.4269e+002 -1.3462e+001 17346 115288,115340,115314
 5.1000e+000 115736 -6.6254e+001 -2.5036e+002  1.0960e+001 16942 115563,115641,115615
 5.1000e+000 115713 -7.4486e+001 -2.4896e+002  3.6853e+000 16942 115511,115641,115563
 5.1000e+000 115690 -1.7553e+002 -2.9244e+002  1.6562e+001 16942 115563,115615,115589
 5.1000e+000 115667 -8.8312e+001 -2.7120e+002  9.5423e+000 16942 115511,115563,115537
 5.1000e+000 116091 -1.2945e+002 -3.0240e+002 -1.1474e+001 16388 115918,115970,115944
 5.1000e+000 116068 -1.1109e+002 -2.4236e+002 -7.6575e+000 16388 115918,115996,115970
 5.1000e+000 116045 -1.5004e+002 -3.0692e+002  1.0196e+001 16388 115892,115996,115918
 5.1000e+000 116022 -9.7117e+001 -2.7921e+002  3.4953e+001 16388 115866,115996,115892
 5.1000e+000 116192 -3.8912e+001 -3.1603e+002 -4.5176e+001 15810 116114,116166,116140
 5.1000e+000 116342 -1.1825e+002 -3.8163e+002  2.0611e+001 15419 116241,116293,116267
 5.1000e+000 116319 -1.6878e+002 -4.6746e+002 -1.3417e+001 15419 116215,116293,116241
 5.1000e+000 116445 -1.2730e+002 -2.5943e+002  1.9275e+000 421 116367,116419,116393
 5.2000e+000 68477 -1.6624e+002 -2.4447e+002  5.6412e-001 68018 68327,68379,68353
 5.2000e+000 68454 -1.7627e+002 -3.2533e+002  2.3744e+001 68018 68301,68379,68327
 5.2000e+000 68431 -8.3461e+001 -3.6208e+002  5.9280e+001 68018 68301,68405,68379
 5.2000e+000 68578 -1.1572e+002 -2.3372e+002  5.7553e-001 67820 68500,68552,68526
 5.2000e+000 68728 -1.2269e+002 -2.1547e+002 -3.1850e+000 67508 68601,68653,68627
 5.2000e+000 68705 -1.8946e+002 -1.6880e+002 -3.2372e+001 67508 68601,68679,68653
 5.2000e+000 68927 -3.7048e+001 -2.0811e+002 -4.2115e+000 67310 68777,68829,68803
 5.2000e+000 68904 -5.5422e+001 -2.4015e+002  4.3565e+000 67310 68751,68829,68777
 5.2000e+000 68881 -4.4496e+001 -2.4370e+002  1.3248e+001 67310 68751,68855,68829
 5.2000e+000 69386 -9.7391e+001 -2.5451e+002 -1.2222e+001 67020 69216,69268,69242
 5.2000e+000 69363 -8.9699e+001 -1.9795e+002 -2.5409e+001 67020 69138,69268,69216
 5.2000e+000 69340 -6.6121e+001 -1.7753e+002 -1.4442e+001 67020 69112,69268,69138
 5.2000e+000 69317 -1.1987e+002 -2.1291e+002  1.5159e+001 67020 69138,69190,69164
 5.2000e+000 69294 -1.2437e+002 -1.9389e+002 -1.1355e+001 67020 69138,69216,69190
 5.2000e+000 69536 -1.8463e+002 -4.5398e+002 -3.5988e+001 66708 69435,69487,69461
 5.2000e+000 69513 -1.3561e+002 -5.0949e+002 -5.8519e+000 66708 69409,69487,69435
 5.2000e+000 69735 -1.1837e+002 -2.3760e+002  5.5235e+000 66346 69585,69637,69611
 5.2000e+000 69712 -9.7932e+001 -2.2506e+002 -1.2638e+000 66346 69559,69637,69585
 5.2000e+000 69689 -8.8641e+001 -2.2276e+002 -2.2816e+001 66346 69559,69663,69637
 5.2000e+000 69985 -1.6985e+002 -2.8739e+002  3.6036e+000 66148 69786,69890,69864
 5.2000e+000 69962 -1.7575e+002 -2.9141e+002  6.1163e+000 66148 69760,69890,69786
 5.2000e+000 69939 -1.2523e+002 -2.6940e+002 -3.9290e+001 66148 69786,69864,69838
 5.2000e+000 69916 -1.4564e+002 -2.8773e+002 -1.5129e+001 66148 69786,69838,69812
 5.2000e+000 70137 -8.2679e+001 -3.1672e+002 -1.8079e+001 65950 70036,70088,70062
 5.2000e+000 70114 -7.0360e+001 -3.5137e+002  1.6606e+001 65950 70010,70088,70036
 5.2000e+000 70470 -6.2687e+001 -2.3521e+002  1.8635e+001 65546 70245,70323,70271
 5.2000e+000 70447 -4.5515e+001 -2.0971e+002  8.3873e+000 65546 70245,70375,70323
 5.2000e+000 70424 -5.7770e+001 -2.6469e+002  9.2071e+000 65546 70323,70375,70349
 5.2000e+000 70401 -5.0335e+001 -2.1790e+002  8.9632e+000 65546 70271,70323,70297
 5.2000e+000 70620 -1.0685e+002 -2.7348e+002  9.0568e+000 65348 70493,70545,70519
 5.2000e+000 70597 -7.6542e+001 -2.8652e+002  1.1389e+001 65348 70493,70571,70545
 5.2000e+000 70721 -1.4742e+002 -2.9572e+002  1.9909e+001 65150 70643,70695,70669
 5.2000e+000 71020 -1.0167e+002 -2.2788e+002  3.9236e+000 64952 71043,70850,70824
 5.2000e+000 70997 -8.8457e+001 -1.9670e+002  2.6745e+000 64952 71043,70824,70772
 5.2000e+000 70974 -9.5863e+001 -2.6506e+002  4.7136e+000 64952 71115,70746,70876
 5.2000e+000 70951 -7.7573e+001 -2.6517e+002 -1.3156e+000 64952 70746,70902,70876
 5.2000e+000 70928 -8.9956e+001 -1.6749e+002 -1.5546e+001 64952 70772,70824,70798
 5.2000e+000 71069 -8.0950e+001 -2.1686e+002  9.8954e+000 64952 70876,70850,71043
 5.2000e+000 71092 -9.4378e+001 -2.4891e+002  5.4452e+000 64952 71115,70876,71043
 5.2000e+000 71141 -1.0904e+002 -2.4646e+002 -9.6597e+000 64952 70772,70746,71115
 5.2000e+000 71164 -1.0166e+002 -2.2218e+002 -9.3974e+000 64952 70772,71115,71043
 5.2000e+000 71365 -3.6440e+000 -2.8758e+002 -4.1000e+000 64662 71215,71293,71267
 5.2000e+000 71342  4.2304e+001 -2.6651e+002 -4.6200e+001 64662 71189,71293,71215
 5.2000e+000 71319  2.3221e+001 -2.3421e+002  4.9925e+000 64662 71215,71267,71241
 5.2000e+000 71615 -6.9157e+001 -2.4405e+002 -3.2480e+000 64350 71710,71638,71468
 5.2000e+000 71592 -8.1781e+001 -2.3984e+002 -8.2660e+000 64350 71638,71416,71390
 5.2000e+000 71569 -7.4226e+001 -2.2740e+002  1.0737e+001 64350 71710,71468,71442
 5.2000e+000 71546  3.8173e+001 -2.3354e+002 -3.7804e+001 64350 71390,71520,71494
 5.2000e+000 71664 -6.4814e+001 -2.4306e+002 -4.1690e-001 64350 71494,71468,71638
 5.2000e+000 71687 -6.4864e+001 -2.4865e+002  1.2018e-001 64350 71494,71638,71390
 5.2000e+000 71736 -6.2075e+001 -2.1038e+002  9.3168e-001 64350 71416,71638,71710
 5.2000e+000 71759 -6.1625e+001 -1.9388e+002  1.8847e+001 64350 71416,71710,71442
 5.2000e+000 72318 -7.2625e+001 -3.8580e+002 -1.5877e+001 63837 71972,72024,71998
 5.2000e+000 72295 -1.0820e+002 -2.4958e+002 -1.0148e+000 63837 72341,71972,71946
 5.2000e+000 72272 -9.7955e+001 -2.0087e+002  9.1905e+000 63837 72413,72341,71946
 5.2000e+000 72249 -9.1238e+001 -1.8244e+002  3.1585e+000 63837 72413,71946,72128
 5.2000e+000 72226 -1.3847e+002 -2.1818e+002  2.0167e+000 63837 72024,72076,72050
 5.2000e+000 72203 -1.1853e+002 -2.0053e+002 -6.6235e+000 63837 72024,72102,72076
 5.2000e+000 72180 -6.2141e+001 -1.7224e+002  1.3279e+001 63837 71946,72154,72128
 5.2000e+000 72367 -1.2893e+002 -2.6713e+002 -4.6830e+001 63837 72024,71972,72341
 5.2000e+000 72390 -1.0091e+002 -2.1831e+002 -1.8126e+001 63837 72024,72341,72102
 5.2000e+000 72439 -7.8203e+001 -2.3083e+002  3.5083e+000 63837 72102,72341,72413
 5.2000e+000 72462 -7.2452e+001 -2.1217e+002 -4.3756e-001 63837 72102,72413,72128
 5.2000e+000 72791 -1.2200e+002 -2.3503e+002 -2.3810e+001 63383 72592,72696,72670
 5.2000e+000 72768 -1.2418e+002 -2.1930e+002 -4.1606e+001 63383 72566,72696,72592
 5.2000e+000 72745 -1.1992e+002 -2.0440e+002  6.3230e-001 63383 72592,72670,72618
 5.2000e+000 72722 -1.1543e+002 -1.9054e+002 -1.2957e+000 63383 72618,72670,72644
 5.2000e+000 73297 -1.4359e+002 -2.0563e+002 -1.2477e+000 63185 73000,73156,73130
 5.2000e+000 73274 -1.4380e+002 -2.1285e+002  2.6087e+001 63185 72974,73156,73000
 5.2000e+000 73251 -1.0760e+002 -2.3721e+002 -3.3672e+000 63185 73000,73052,73026
 5.2000e+000 73228 -1.1927e+002 -2.1178e+002 -1.0056e+001 63185 73000,73130,73052
 5.2000e+000 73205 -1.1849e+002 -2.3890e+002 -3.5516e+001 63185 73052,73130,73104
 5.2000e+000 73182 -1.1133e+002 -2.6037e+002 -3.7055e+001 63185 73052,73104,73078
 5.2000e+000 73545 -4.9242e+001 -2.2378e+002  1.8885e+000 62781 73568,73398,73372
 5.2000e+000 73522 -3.5081e+001 -2.0405e+002  8.9115e+000 62781 73568,73372,73346
 5.2000e+000 73499 -6.6378e+001 -2.1542e+002 -7.6377e+000 62781 73640,73320,73424
 5.2000e+000 73476 -7.1150e+001 -1.3761e+002 -2.5345e+001 62781 73320,73450,73424
 5.2000e+000 73594 -3.9829e+001 -2.0668e+002 -3.3277e+000 62781 73424,73398,73568
 5.2000e+000 73617 -5.2329e+001 -2.0911e+002 -6.2980e+000 62781 73640,73424,73568
 5.2000e+000 73666 -6.3666e+001 -2.1117e+002  4.7249e+000 62781 73346,73320,73640
 5.2000e+000 73689 -5.6248e+001 -2.0740e+002  6.0269e+000 62781 73346,73640,73568
 5.2000e+000 74035 -8.6761e+001 -2.3708e+002 -4.4957e+000 62363 74058,73868,73842
 5.2000e+000 74012 -7.9876e+001 -2.1796e+002 -1.8828e+001 62363 74130,74058,73842
 5.2000e+000 73989 -7.3027e+001 -2.1567e+002 -1.9438e+001 62363 74130,73842,73816
 5.2000e+000 73966 -1.1679e+002 -2.4650e+002  2.7219e+000 62363 74202,73764,73894
 5.2000e+000 73943 -1.5124e+002 -2.2436e+002  3.3402e+000 62363 73712,73894,73764
 5.2000e+000 73920 -1.6266e+002 -2.3836e+002 -2.2166e+000 62363 73712,73764,73738
 5.2000e+000 74084 -8.6216e+001 -2.3383e+002 -4.0605e+000 62363 73894,73868,74058
 5.2000e+000 74107 -1.0729e+002 -2.3585e+002  1.0184e+001 62363 74202,73894,74058
 5.2000e+000 74156 -8.7951e+001 -2.2072e+002  5.6918e+000 62363 73790,74058,74130
 5.2000e+000 74179 -5.4837e+001 -2.0739e+002  7.5333e+000 62363 73790,74130,73816
 5.2000e+000 74228 -1.2728e+002 -2.5111e+002 -1.2851e+001 62363 73790,73764,74202
 5.2000e+000 74251 -1.2011e+002 -2.3971e+002 -5.4829e+000 62363 73790,74202,74058
 5.2000e+000 74403 -1.1160e+001 -2.5283e+002  1.5840e+001 62115 74426,74302,74276
 5.2000e+000 74380  3.5598e+001 -2.4308e+002  3.4968e+001 62115 74426,74276,74354
 5.2000e+000 74452 -5.4877e+001 -2.2930e+002  1.5637e+001 62115 74328,74302,74426
 5.2000e+000 74475 -1.1377e+001 -2.2119e+002  3.6026e+001 62115 74328,74426,74354
 5.2000e+000 74578  4.6052e+001 -1.4344e+002  2.3195e+000 61825 74500,74552,74526
 5.2000e+000 74982 -1.2324e+002 -2.1612e+002  1.1168e+000 61513 75005,74734,74708
 5.2000e+000 74959 -1.2088e+002 -2.0727e+002 -1.6718e+000 61513 75005,74708,74864
 5.2000e+000 74936 -1.5449e+002 -2.2263e+002  1.4095e+001 61513 75077,74812,74734
 5.2000e+000 74913 -1.3277e+002 -2.1799e+002 -1.8943e+001 61513 74734,74786,74760
 5.2000e+000 74890 -1.3176e+002 -1.9858e+002 -2.0691e+000 61513 74734,74812,74786
 5.2000e+000 75031 -1.1656e+002 -2.2204e+002  1.9788e+000 61513 75077,74734,75005
 5.2000e+000 75054 -9.3601e+001 -2.1492e+002  3.1167e+001 61513 74838,75005,74864
 5.2000e+000 75103 -1.7573e+002 -2.3198e+002  4.8468e+001 61513 74838,74812,75077
 5.2000e+000 75126 -1.5104e+002 -2.4074e+002  3.6432e+001 61513 74838,75077,75005
 5.2000e+000 75553 -6.2895e+001 -2.0005e+002 -7.3563e+000 61060 75576,75360,75308
 5.2000e+000 75530 -6.4100e+001 -2.1230e+002 -8.0838e+000 61060 75576,75308,75230
 5.2000e+000 75507 -5.7389e+001 -1.9148e+002  4.4051e-001 61060 75308,75360,75334
 5.2000e+000 75484 -8.4431e+001 -2.4785e+002  1.3644e+001 61060 75230,75308,75256
 5.2000e+000 75461 -6.1709e+001 -2.2995e+002  5.4649e+000 61060 75256,75308,75282
 5.2000e+000 75438 -7.2946e+001 -1.9605e+002  2.3762e+001 61060 75360,75412,75386
 5.2000e+000 75602 -5.0740e+001 -2.1076e+002  5.0927e-001 61060 75412,75360,75576
 5.2000e+000 75625 -5.9101e+001 -2.3356e+002 -3.0325e+000 61060 75412,75576,75230
 5.2000e+000 76052 -9.3097e+001 -2.0658e+002  3.1124e+000 60442 75755,75859,75833
 5.2000e+000 76029 -1.0693e+002 -1.9543e+002 -1.4610e+001 60442 75729,75859,75755
 5.2000e+000 76006 -9.6268e+001 -1.9089e+002  1.2332e+001 60442 75755,75833,75807
 5.2000e+000 75983 -9.4030e+001 -2.2711e+002  5.9517e+000 60442 75755,75807,75781
 5.2000e+000 75960 -7.0371e-001 -3.6064e+002  1.2554e+001 60442 75729,75911,75859
 5.2000e+000 75937 -1.8383e+002 -8.8955e+002  5.6102e+001 60442 75859,75911,75885
 5.2000e+000 76430 -9.7134e+001 -2.4985e+002 -1.0135e+001 59788 76453,76286,76234
 5.2000e+000 76407 -1.0543e+002 -2.8548e+002  3.7210e+000 59788 76453,76234,76182
 5.2000e+000 76384 -1.0690e+002 -1.9011e+002  3.1418e+001 59788 76525,76156,76312
 5.2000e+000 76361 -6.1905e+001 -3.2674e+002 -3.9590e+000 59788 76182,76234,76208
 5.2000e+000 76338 -7.8010e+001 -2.4047e+002 -6.5312e+000 59788 76234,76286,76260
 5.2000e+000 76479 -1.1704e+002 -2.6963e+002  1.1539e+000 59788 76312,76286,76453
 5.2000e+000 76502 -9.8583e+001 -2.5520e+002  1.2696e+001 59788 76525,76312,76453
 5.2000e+000 76551 -1.3288e+002 -2.7190e+002  3.2806e+001 59788 76182,76156,76525
 5.2000e+000 76574 -1.1773e+002 -2.9182e+002  1.9627e+001 59788 76182,76525,76453
 5.2000e+000 77031 -7.0598e+001 -1.5363e+002 -2.3262e+001 59448 76835,76887,76861
 5.2000e+000 77008 -3.1180e+001 -1.2773e+002  5.5485e+000 59448 76835,76913,76887
 5.2000e+000 76985 -4.0768e+001 -1.0791e+002  2.0755e+001 59448 76809,76913,76835
 5.2000e+000 76962 -7.6690e+001 -1.4208e+002 -3.3291e-001 59448 76757,76913,76809
 5.2000e+000 76939 -6.3688e+001 -1.2669e+002 -5.9220e+000 59448 76757,76809,76783
 5.2000e+000 77537 -9.9482e+001 -2.1556e+002  1.0332e+001 58994 77560,77344,77292
 5.2000e+000 77514 -1.3924e+002 -2.1329e+002  2.8005e+000 58994 77560,77292,77240
 5.2000e+000 77491 -8.0712e+001 -2.0034e+002 -5.0059e+000 58994 77632,77214,77370
 5.2000e+000 77468 -1.6349e+002 -2.4600e+002  4.2604e+001 58994 77292,77344,77318
 5.2000e+000 77445 -8.2034e+001 -2.5735e+002  9.3053e+000 58994 77214,77396,77370
 5.2000e+000 77422 -1.4248e+002 -2.2769e+002 -5.1427e+000 58994 77240,77292,77266
 5.2000e+000 77586 -1.0389e+002 -2.1891e+002  1.1852e+001 58994 77370,77344,77560
 5.2000e+000 77609 -1.0331e+002 -2.1402e+002  1.4074e+001 58994 77632,77370,77560
 5.2000e+000 77658 -6.8515e+001 -1.8609e+002 -2.5905e+001 58994 77240,77214,77632
 5.2000e+000 77681 -8.5251e+001 -1.8409e+002 -8.6815e+000 58994 77240,77632,77560
 5.2000e+000 78138 -8.6000e+001 -1.5287e+002  2.1743e+001 58440 77864,77994,77890
 5.2000e+000 78115 -5.7156e+001 -9.4690e+001 -1.1305e+001 58440 77864,78020,77994
 5.2000e+000 78092 -9.7224e+001 -1.7880e+002 -1.6060e+001 58440 77942,77994,77968
 5.2000e+000 78069 -7.7793e+001 -1.7091e+002  3.3996e+000 58440 77890,77994,77942
 5.2000e+000 78046 -6.9516e+001 -1.7055e+002 -2.3741e+000 58440 77890,77942,77916
 5.2000e+000 78467 -1.6791e+001 -1.9760e+002  6.1700e+000 57928 78562,78490,78346
 5.2000e+000 78444 -7.5092e+001 -1.9922e+002 -3.8139e+000 57928 78490,78294,78268
 5.2000e+000 78421 -4.5569e+000 -2.0743e+002  1.6211e+001 57928 78562,78346,78320
 5.2000e+000 78398 -3.0176e+001 -1.9269e+002  2.1022e+000 57928 78242,78372,78268
 5.2000e+000 78516 -6.6238e+001 -2.4566e+002 -1.4074e+001 57928 78372,78346,78490
 5.2000e+000 78539 -5.3199e+001 -1.8994e+002 -2.5971e+000 57928 78372,78490,78268
 5.2000e+000 78588 -7.5160e+001 -1.9631e+002  2.9998e-001 57928 78294,78490,78562
 5.2000e+000 78611 -3.7964e+001 -1.7751e+002  2.0088e+001 57928 78294,78562,78320
 5.2000e+000 79068 -1.4722e+002 -3.1133e+002 -7.7158e+001 57467 78794,78924,78820
 5.2000e+000 79045 -1.1561e+002 -2.9669e+002 -7.2464e+001 57467 78794,78950,78924
 5.2000e+000 79022 -6.2103e+001 -2.7788e+002  2.6700e+001 57467 78820,78898,78872
 5.2000e+000 78999 -1.0884e+002 -3.8239e+002 -4.0772e+001 57467 78820,78924,78898
 5.2000e+000 78976 -4.5108e+001 -2.8110e+002  4.1094e+001 57467 78820,78872,78846
 5.2000e+000 79446 -1.2292e+002 -2.3321e+002 -7.9464e-001 57120 79172,79302,79250
 5.2000e+000 79423 -1.1102e+002 -2.2783e+002 -7.6501e+000 57120 79172,79328,79302
 5.2000e+000 79400 -1.1130e+002 -2.0377e+002 -8.8355e+000 57120 79172,79250,79198
 5.2000e+000 79377 -8.5815e+001 -2.9281e+002  1.0412e+001 57120 79250,79302,79276
 5.2000e+000 79354 -1.3519e+002 -2.2065e+002 -1.6921e+001 57120 79198,79250,79224
 5.2000e+000 79952 -1.6444e+002 -2.6022e+002  1.0402e+000 56773 79629,79785,79655
 5.2000e+000 79929 -4.8853e+001 -2.2461e+002  1.1384e+001 56773 79629,79811,79785
 5.2000e+000 79906 -1.2771e+002 -2.8153e+002  1.9085e+001 56773 79655,79733,79681
 5.2000e+000 79883 -1.2586e+002 -2.4995e+002  4.9916e+000 56773 79655,79785,79733
 5.2000e+000 79860 -1.1809e+002 -3.2752e+002 -3.9039e+001 56773 79733,79785,79759
 5.2000e+000 79837 -6.7550e+001 -2.5383e+002  4.9150e+001 56773 79681,79733,79707
 5.2000e+000 80281 -5.9516e+001 -1.9253e+002 -1.5980e+001 56319 80108,80160,80134
 5.2000e+000 80258 -6.3028e+001 -2.0855e+002 -1.9177e+001 56319 80056,80160,80108
 5.2000e+000 80235 -2.8750e+001 -1.8533e+002  1.1622e+001 56319 80056,80186,80160
 5.2000e+000 80212 -8.4551e+001 -2.6679e+002 -1.2925e+001 56319 80056,80108,80082
 5.2000e+000 80738 -3.4994e+001 -2.3254e+002  1.2569e+001 55957 80516,80620,80594
 5.2000e+000 80715 -8.3769e+001 -2.1172e+002  9.9379e+000 55957 80464,80620,80516
 5.2000e+000 80692 -7.1742e+001 -2.5299e+002  1.2921e+001 55957 80761,80568,80542
 5.2000e+000 80669 -5.8701e+001 -2.4925e+002  1.5265e+001 55957 80761,80542,80516
 5.2000e+000 80646 -8.4818e+001 -2.1362e+002  2.6525e+001 55957 80464,80516,80490
 5.2000e+000 80787 -8.4244e+001 -2.5151e+002  9.2532e+000 55957 80594,80568,80761
 5.2000e+000 80810 -7.2025e+001 -2.4817e+002  1.1761e+001 55957 80594,80761,80516
 5.2000e+000 81210 -7.1081e+001 -2.4069e+002 -2.6515e+001 55317 80936,80988,80962
 5.2000e+000 81187 -5.8825e+001 -2.6145e+002 -1.1960e+000 55317 80936,81066,80988
 5.2000e+000 81164 -4.0556e+001 -2.8047e+002  4.0058e+000 55317 80936,81092,81066
 5.2000e+000 81141 -8.3063e+001 -2.7858e+002 -2.5310e+001 55317 80988,81066,81014
 5.2000e+000 81118 -1.1454e+001 -1.5740e+002  1.6571e+001 55317 81014,81066,81040
 5.2000e+000 81539 -1.0617e+002 -2.3759e+002  5.5919e+000 54913 81340,81418,81392
 5.2000e+000 81516 -4.3712e+001 -1.9243e+002 -1.4988e+001 54913 81340,81444,81418
 5.2000e+000 81493 -6.5544e+001 -2.0608e+002 -2.8997e+001 54913 81314,81444,81340
 5.2000e+000 81470 -1.2044e+002 -2.5195e+002 -2.2541e-001 54913 81340,81392,81366
 5.2000e+000 81787 -6.1708e+001 -2.5139e+002 -2.1441e+000 54601 81588,81692,81640
 5.2000e+000 81764 -9.0572e+001 -2.5370e+002 -8.2165e+000 54601 81562,81692,81588
 5.2000e+000 81741 -5.1278e+001 -2.5605e+002  3.1808e+001 54601 81588,81640,81614
 5.2000e+000 81718 -6.2851e+001 -2.9741e+002 -2.6731e+001 54601 81640,81692,81666
 5.2000e+000 82344 -9.3472e+001 -2.5258e+002 -1.2052e+001 54090 81998,82102,82076
 5.2000e+000 82321 -1.2527e+002 -2.6645e+002 -7.5610e+000 54090 81998,82154,82102
 5.2000e+000 82298 -1.1392e+002 -2.5974e+002 -4.2898e+000 54090 81972,82154,81998
 5.2000e+000 82275 -1.2940e+002 -2.3624e+002 -1.4152e+001 54090 81998,82076,82024
 5.2000e+000 82252 -1.3866e+002 -2.7647e+002  1.2597e+001 54090 81972,82180,82154
 5.2000e+000 82229 -1.7520e+002 -3.2599e+002  1.9270e+001 54090 82102,82154,82128
 5.2000e+000 82206 -2.4964e+001 -1.7879e+002 -3.7916e+001 54090 82024,82076,82050
 5.2000e+000 82722 -1.6150e+002 -2.9061e+002 -9.7921e+000 53579 82500,82578,82552
 5.2000e+000 82699 -1.2104e+002 -2.6496e+002  6.5501e+000 53579 82448,82578,82500
 5.2000e+000 82676 -1.3219e+002 -2.9839e+002  8.0680e+000 53579 82448,82500,82474
 5.2000e+000 82653 -1.5800e+002 -2.8402e+002  2.0299e+001 53579 82448,82604,82578
 5.2000e+000 82630 -8.6221e+001 -2.7035e+002 -1.0998e+001 53579 82500,82552,82526
 5.2000e+000 83356 -7.9582e+001 -2.1012e+002 -2.1614e+001 53189 83379,83088,83036
 5.2000e+000 83333 -7.7120e+001 -2.3687e+002 -1.9652e+001 53189 83379,83036,82984
 5.2000e+000 83310 -3.9460e+001 -2.2360e+002  3.1823e+001 53189 82984,83192,83166
 5.2000e+000 83287  6.8451e-001 -1.7481e+002 -1.5395e+001 53189 83036,83088,83062
 5.2000e+000 83264 -6.1238e+001 -2.6483e+002 -3.6854e+001 53189 82984,83036,83010
 5.2000e+000 83241 -5.6542e+001 -2.6264e+002  3.8071e+000 53189 83114,83166,83140
 5.2000e+000 83218 -1.0804e+002 -2.7556e+002  2.2480e+000 53189 83088,83166,83114
 5.2000e+000 83405 -7.9641e+001 -2.2821e+002 -1.0488e+001 53189 83166,83088,83379
 5.2000e+000 83428 -7.3249e+001 -2.5187e+002 -1.0208e+001 53189 83166,83379,82984
 5.2000e+000 83725 -1.0348e+002 -2.9404e+002 -2.7577e+001 52585 83748,83529,83503
 5.2000e+000 83702 -7.6941e+001 -2.8539e+002 -1.8019e+001 52585 83820,83748,83503
 5.2000e+000 83679 -5.1691e+001 -2.7787e+002 -1.4732e+001 52585 83820,83503,83477
 5.2000e+000 83656 -3.5521e+001 -2.5330e+002  3.1832e+001 52585 83477,83607,83581
 5.2000e+000 83633  2.1420e+001 -2.2839e+002  3.5409e+001 52585 83451,83607,83477
 5.2000e+000 83774 -9.0084e+001 -2.6052e+002 -2.4097e+001 52585 83555,83529,83748
 5.2000e+000 83797 -1.1838e+002 -2.8135e+002 -1.4999e+001 52585 83555,83748,83581
 5.2000e+000 83846 -1.0084e+002 -2.6891e+002 -4.9512e+000 52585 83581,83748,83820
 5.2000e+000 83869 -8.2882e+001 -2.6609e+002 -4.4327e+000 52585 83581,83820,83477
 5.2000e+000 84200 -7.5887e+001 -2.6609e+002 -9.9553e+000 52024 84001,84105,84079
 5.2000e+000 84177 -4.1485e+001 -2.5999e+002 -1.8943e+001 52024 83975,84105,84001
 5.2000e+000 84154 -6.6820e+001 -2.6662e+002 -8.1341e+000 52024 84001,84079,84053
 5.2000e+000 84131 -3.3206e+001 -1.7891e+002  3.1038e+001 52024 84001,84053,84027
 5.2000e+000 84399 -6.5986e+001 -2.6445e+002 -2.0952e+000 51470 84422,84275,84249
 5.2000e+000 84376 -6.2071e+001 -2.5488e+002  2.8053e-001 51470 84422,84249,84223
 5.2000e+000 84353 -7.4654e+001 -2.8085e+002 -3.9001e+001 51470 84275,84327,84301
 5.2000e+000 84448 -7.0192e+001 -2.5566e+002 -2.6746e+000 51470 84327,84275,84422
 5.2000e+000 84471 -6.7614e+001 -2.4796e+002 -4.3011e-001 51470 84327,84422,84223
 5.2000e+000 84753 -7.6388e+001 -2.1848e+002 -1.7471e+000 51073 84603,84655,84629
 5.2000e+000 84730 -1.5619e+002 -2.5445e+002 -1.1095e+001 51073 84776,84655,84603
 5.2000e+000 84707 -3.5971e+001 -2.2254e+002 -6.1450e+001 51073 84577,84681,84655
 5.2000e+000 84802 -9.9452e+001 -2.2218e+002 -2.9418e+001 51073 84577,84655,84776
 5.2000e+000 85178 -1.4242e+002 -3.1326e+002  2.7379e+001 50519 85201,85008,84982
 5.2000e+000 85155 -1.3493e+002 -2.9155e+002  2.0499e+001 50519 85273,85201,84982
 5.2000e+000 85132 -1.2772e+002 -2.9129e+002  1.5929e+001 50519 85273,84982,84930
 5.2000e+000 85109 -1.2426e+002 -2.8274e+002  1.3613e+001 50519 84930,84982,84956
 5.2000e+000 85086 -1.1862e+002 -2.9642e+002  1.2347e+001 50519 85008,85060,85034
 5.2000e+000 85227 -1.1958e+002 -2.9878e+002  1.2543e+001 50519 85060,85008,85201
 5.2000e+000 85250 -1.3389e+002 -3.0040e+002  8.6197e+000 50519 85060,85201,84904
 5.2000e+000 85299 -1.2764e+002 -2.9557e+002  6.4835e+000 50519 84904,85201,85273
 5.2000e+000 85322 -1.0125e+002 -2.6121e+002 -5.2836e+000 50519 84904,85273,84930
 5.2000e+000 85958 -8.4705e+001 -2.6422e+002 -8.9219e+000 50093 85981,85768,85716
 5.2000e+000 85935 -7.5216e+001 -2.3967e+002 -1.0486e+001 50093 85981,85716,85612
 5.2000e+000 85912 -1.0805e+002 -2.4742e+002  4.2098e+000 50093 85612,85716,85664
 5.2000e+000 85889 -6.3334e+001 -2.5934e+002 -3.1023e+000 50093 85716,85768,85742
 5.2000e+000 85866 -8.9346e+001 -1.9073e+002 -5.3517e+001 50093 85664,85716,85690
 5.2000e+000 85843 -3.2310e+001 -1.8147e+002 -9.6264e+000 50093 85586,85794,85612
 5.2000e+000 85820 -7.4195e+001 -3.3666e+002  2.7804e+001 50093 85612,85664,85638
 5.2000e+000 86007 -1.0279e+002 -2.8426e+002 -4.3522e+001 50093 85794,85768,85981
 5.2000e+000 86030 -7.3851e+001 -2.1403e+002 -3.6450e+001 50093 85794,85981,85612
 5.2000e+000 86131 -8.7232e+001 -2.5883e+002  3.4596e+001 49895 86053,86105,86079
 5.2000e+000 86639 -6.5512e+001 -1.8290e+002 -3.7259e+001 49391 86662,86394,86368
 5.2000e+000 86616 -7.7362e+001 -2.2314e+002 -3.3523e+001 49391 86662,86368,86342
 5.2000e+000 86593 -4.2381e+001 -2.2260e+002 -9.8308e+000 49391 86342,86498,86472
 5.2000e+000 86570 -2.7667e+001 -2.4246e+002 -1.1424e+001 49391 86316,86498,86342
 5.2000e+000 86547 -1.2383e+002 -3.3910e+002 -1.5175e+001 49391 86394,86472,86446
 5.2000e+000 86524 -9.6294e+000 -3.2131e+002  2.3281e+000 49391 86394,86446,86420
 5.2000e+000 86688 -7.3250e+001 -2.2045e+002 -1.9841e+001 49391 86472,86394,86662
 5.2000e+000 86711 -6.5907e+001 -2.3773e+002 -1.9282e+001 49391 86472,86662,86342
 5.2000e+000 87089 -9.5302e+001 -2.6345e+002  6.9722e+000 48987 86815,86919,86867
 5.2000e+000 87066 -9.5815e+001 -2.7147e+002  1.0959e+001 48987 86815,86971,86919
 5.2000e+000 87043 -3.7034e+001 -2.9009e+002 -2.5333e+001 48987 86867,86919,86893
 5.2000e+000 87020 -1.0784e+002 -2.9790e+002  2.3850e+001 48987 86815,86867,86841
 5.2000e+000 86997 -1.0604e+002 -2.3253e+002  3.6422e+001 48987 86919,86971,86945
 5.2000e+000 87467 -1.7847e+002 -2.6313e+002  1.3560e+001 48540 87490,87245,87219
 5.2000e+000 87444 -1.2807e+002 -2.4615e+002  1.6009e+000 48540 87562,87490,87219
 5.2000e+000 87421 -9.7254e+001 -2.3371e+002  1.0893e+001 48540 87562,87219,87349
 5.2000e+000 87398 -1.3232e+002 -2.0453e+002 -1.2580e+001 48540 87245,87297,87271
 5.2000e+000 87375 -8.2555e+001 -2.4555e+002  7.8529e+000 48540 87193,87349,87219
 5.2000e+000 87516 -1.2184e+002 -2.4945e+002  4.3514e+000 48540 87297,87245,87490
 5.2000e+000 87539 -1.2315e+002 -2.5179e+002  4.9481e+000 48540 87297,87490,87323
 5.2000e+000 87588 -9.8346e+001 -2.3261e+002  2.1737e+001 48540 87323,87490,87562
 5.2000e+000 87611 -8.3432e+001 -2.3624e+002  2.7923e+001 48540 87323,87562,87349
 5.2000e+000 87810 -1.2119e+002 -4.2894e+002 -3.0657e+001 48136 87660,87712,87686
 5.2000e+000 87787 -6.8638e+001 -2.5105e+002 -1.4384e+001 48136 87660,87738,87712
 5.2000e+000 87764 -1.6039e+002 -2.6080e+002 -4.2176e+001 48136 87634,87738,87660
 5.2000e+000 88205 -1.1344e+002 -2.7860e+002 -2.5095e+001 47210 88300,88228,87937
 5.2000e+000 88182 -9.8877e+001 -2.7097e+002 -7.8658e+000 47210 88228,87833,88041
 5.2000e+000 88159 -1.1521e+002 -2.9825e+002 -3.9255e+001 47210 88300,87937,87911
 5.2000e+000 88136 -1.1133e+002 -2.7149e+002 -3.3311e+001 47210 87833,87911,87859
 5.2000e+000 88113 -1.8862e+002 -2.4539e+002 -2.1084e+001 47210 87937,87989,87963
 5.2000e+000 88090 -9.3833e+001 -2.2108e+002  4.6076e+001 47210 87989,88041,88015
 5.2000e+000 88067 -1.2834e+002 -3.1440e+002 -4.3311e+001 47210 87859,87911,87885
 5.2000e+000 88254 -1.0084e+002 -2.2994e+002 -2.5745e+001 47210 87989,87937,88228
 5.2000e+000 88277 -1.1895e+002 -2.6597e+002 -1.0007e+001 47210 87989,88228,88041
 5.2000e+000 88326 -9.4334e+001 -2.5992e+002 -9.7835e+000 47210 87833,88228,88300
 5.2000e+000 88349 -9.9123e+001 -2.7299e+002 -2.4991e+001 47210 87833,88300,87911
 5.2000e+000 88780 -1.6955e+002 -3.0022e+002 -5.6993e+001 46642 88803,88509,88483
 5.2000e+000 88757 -1.2169e+002 -2.7032e+002 -3.0700e+001 46642 88803,88483,88639
 5.2000e+000 88734 -1.3507e+002 -2.2231e+002 -3.5562e+001 46642 88875,88561,88509
 5.2000e+000 88711 -1.3741e+002 -2.0575e+002 -6.2695e+000 46642 88509,88561,88535
 5.2000e+000 88688 -7.7957e+001 -3.0309e+002  6.7462e-001 46642 88457,88639,88483
 5.2000e+000 88665 -1.5729e+002 -3.6252e+002 -1.5536e+001 46642 88561,88613,88587
 5.2000e+000 88829 -1.3615e+002 -2.4248e+002 -4.0020e+001 46642 88875,88509,88803
 5.2000e+000 88852 -1.3339e+002 -2.9040e+002 -2.5737e+001 46642 88613,88803,88639
 5.2000e+000 88901 -1.1143e+002 -2.5015e+002 -1.8659e+001 46642 88613,88561,88875
 5.2000e+000 88924 -1.2150e+002 -2.8277e+002 -2.2442e+001 46642 88613,88875,88803
 5.2000e+000 89253 -5.3130e+001 -2.6618e+002  4.9700e+000 46444 89080,89158,89132
 5.2000e+000 89230 -6.0477e+001 -2.8241e+002  2.5350e+000 46444 89028,89158,89080
 5.2000e+000 89207 -2.2185e+001 -2.4997e+002 -1.1304e+001 46444 89028,89080,89054
 5.2000e+000 89184 -2.6202e+001 -2.8840e+002 -2.2745e+001 46444 89080,89132,89106
 5.2000e+000 89631 -7.7287e+001 -1.8518e+002  4.2522e+000 46040 89383,89461,89435
 5.2000e+000 89608 -8.1502e+001 -2.0418e+002 -1.1891e+001 46040 89383,89487,89461
 5.2000e+000 89585 -8.3921e+001 -2.3852e+002 -6.7044e+000 46040 89383,89435,89409
 5.2000e+000 89562 -6.4925e+001 -1.7497e+002 -2.4338e+001 46040 89383,89513,89487
 5.2000e+000 89539 -2.5985e+001 -1.5600e+002 -3.2334e+001 46040 89357,89513,89383
 5.2000e+000 90009 -8.1138e+001 -2.3491e+002 -9.8612e-001 45636 89813,89891,89839
 5.2000e+000 89986 -8.3577e+001 -2.1940e+002  1.2756e+001 45636 89787,89891,89813
 5.2000e+000 89963 -7.2060e+001 -2.2020e+002 -6.2508e+000 45636 89839,89891,89865
 5.2000e+000 89940 -9.7657e+001 -2.4505e+002  6.9127e+000 45636 89735,89891,89787
 5.2000e+000 89917 -7.7086e+001 -2.4718e+002 -1.1071e+001 45636 89735,89787,89761
 5.2000e+000 90208 -5.2929e+001 -1.8143e+002 -3.5821e+001 45175 90231,90058,90032
 5.2000e+000 90185 -3.2287e+001 -1.6594e+002 -5.4202e+001 45175 90231,90032,90136
 5.2000e+000 90162 -6.2804e+001 -1.4637e+002 -3.2064e+000 45175 90058,90110,90084
 5.2000e+000 90257 -7.6365e+001 -2.0419e+002 -9.7987e+000 45175 90110,90058,90231
 5.2000e+000 90280 -3.6790e+001 -1.7714e+002 -3.0270e+001 45175 90110,90231,90136
 5.2000e+000 90528 -5.8121e+001 -1.8498e+002 -2.4866e+001 44513 90695,90551,90407
 5.2000e+000 90505 -6.2677e+001 -1.6763e+002 -1.3174e+001 44513 90551,90355,90329
 5.2000e+000 90482 -7.5033e+001 -1.8148e+002 -2.2762e+001 44513 90623,90303,90433
 5.2000e+000 90459 -4.5333e+001 -1.7220e+002 -1.7978e+001 44513 90695,90407,90381
 5.2000e+000 90577 -8.4675e+001 -1.9348e+002 -4.2394e+001 44513 90433,90407,90551
 5.2000e+000 90600 -7.2626e+001 -1.7728e+002 -2.1587e+001 44513 90623,90433,90551
 5.2000e+000 90649 -7.3149e+001 -1.7625e+002 -2.1474e+001 44513 90329,90303,90623
 5.2000e+000 90672 -7.3913e+001 -1.7559e+002 -2.1339e+001 44513 90329,90623,90551
 5.2000e+000 90721 -7.4127e+001 -1.6793e+002 -2.8156e+001 44513 90355,90551,90695
 5.2000e+000 90744 -7.0605e+001 -1.6166e+002 -2.5513e+001 44513 90355,90695,90381
 5.2000e+000 91077  1.3598e+000 -1.9088e+002 -1.1632e+001 44059 91100,90930,90904
 5.2000e+000 91054 -7.4680e+001 -2.0646e+002  1.0853e+001 44059 91100,90904,90982
 5.2000e+000 91031 -1.3329e+002 -2.3911e+002 -1.6299e+001 44059 90878,90982,90904
 5.2000e+000 91008 -4.4281e+001 -1.8107e+002  1.0795e+001 44059 90852,90982,90878
 5.2000e+000 91126 -1.1415e+002 -2.2107e+002 -1.3572e+001 44059 91172,91100,90956
 5.2000e+000 91149 -7.1632e+001 -2.0356e+002 -9.0482e+000 44059 90956,91100,90982
 5.2000e+000 91198 -1.0413e+000 -1.0767e+002 -5.9008e+001 44059 90930,91100,91172
 5.2000e+000 91677 -9.4584e+001 -1.4911e+002  1.4173e+001 43549 91455,91533,91481
 5.2000e+000 91654 -3.6129e+001 -1.4919e+002  2.0316e+001 43549 91429,91533,91455
 5.2000e+000 91631 -9.1310e+001 -1.4905e+002  6.7530e+000 43549 91481,91533,91507
 5.2000e+000 91608 -1.8338e+001 -1.4190e+002  9.0300e+000 43549 91429,91559,91533
 5.2000e+000 91585  3.4601e+000 -4.0152e+001 -1.3747e+000 43549 91403,91559,91429
 5.2000e+000 92006 -9.6484e+001 -2.3967e+002  5.5361e-001 43059 91781,91885,91807
 5.2000e+000 91983 -1.0039e+002 -2.2562e+002  3.7021e+001 43059 91781,91911,91885
 5.2000e+000 91960 -9.5994e+001 -2.3870e+002  4.5155e-002 43059 91807,91885,91833
 5.2000e+000 91937 -6.2722e+001 -2.2564e+002 -3.3533e+000 43059 91833,91885,91859
 5.2000e+000 92561 -7.3149e+001 -1.6287e+002 -1.8935e+001 42598 92584,92215,92189
 5.2000e+000 92538 -8.0340e+001 -1.8354e+002 -1.7323e+001 42598 92656,92584,92189
 5.2000e+000 92515 -7.2314e+001 -2.0737e+002 -5.2390e+000 42598 92656,92189,92397
 5.2000e+000 92492 -9.6752e+001 -1.4536e+002 -2.2958e+001 42598 92241,92319,92293
 5.2000e+000 92469 -8.9757e+001 -1.7275e+002  9.6449e+000 42598 92319,92397,92371
 5.2000e+000 92446 -3.3864e+001 -2.0642e+002  8.7117e+001 42598 92319,92371,92345
 5.2000e+000 92423 -9.4030e+001 -1.4958e+002 -3.2504e+001 42598 92241,92293,92267
 5.2000e+000 92610 -7.9222e+001 -1.6495e+002 -1.8487e+001 42598 92241,92215,92584
 5.2000e+000 92633 -7.2264e+001 -1.4926e+002 -2.2539e+001 42598 92241,92584,92319
 5.2000e+000 92682 -7.3514e+001 -1.5167e+002 -1.2605e+001 42598 92319,92584,92656
 5.2000e+000 92705 -5.9783e+001 -1.6796e+002 -3.6827e+000 42598 92319,92656,92397
 5.2000e+000 92953 -9.9074e+001 -2.5758e+002  1.3605e+001 42094 92976,92806,92780
 5.2000e+000 92930 -1.1006e+002 -2.4290e+002 -2.6399e-001 42094 92976,92780,92754
 5.2000e+000 92907 -2.5253e+001 -2.4893e+002 -1.8329e+000 42094 93048,92832,92806
 5.2000e+000 92884 -1.4023e+002 -2.4659e+002 -1.6540e+001 42094 92728,92858,92754
 5.2000e+000 93002 -6.4456e+001 -2.3865e+002  6.3140e+000 42094 93048,92806,92976
 5.2000e+000 93025 -1.0186e+002 -2.3842e+002 -4.1577e+000 42094 92858,92976,92754
 5.2000e+000 93074 -8.0035e+001 -2.6868e+002 -2.6481e+000 42094 92858,92832,93048
 5.2000e+000 93097 -1.1193e+002 -2.5382e+002  2.0676e+000 42094 92858,93048,92976
 5.2000e+000 93605 -1.0220e+002 -2.9348e+002 -1.1415e+001 41846 93628,93412,93386
 5.2000e+000 93582 -7.8192e+001 -2.2120e+002 -2.4280e+000 41846 93628,93386,93308
 5.2000e+000 93559 -1.1725e+002 -2.3030e+002 -4.8897e+001 41846 93700,93464,93438
 5.2000e+000 93536 -1.1183e+002 -3.0726e+002  3.2784e+000 41846 93308,93386,93334
 5.2000e+000 93513 -1.4253e+002 -2.1876e+002 -3.8436e+001 41846 93334,93386,93360
 5.2000e+000 93490 -1.1057e+002 -2.0269e+002 -4.7987e+001 41846 93282,93464,93308
 5.2000e+000 93654 -8.9568e+001 -2.3498e+002 -2.2369e+001 41846 93438,93412,93628
 5.2000e+000 93677 -1.1868e+002 -2.3578e+002 -2.2423e+001 41846 93700,93438,93628
 5.2000e+000 93726 -1.0503e+002 -1.9766e+002 -4.5894e+001 41846 93308,93464,93700
 5.2000e+000 93749 -1.0196e+002 -1.9277e+002 -1.9776e+001 41846 93308,93700,93628
 5.2000e+000 94255 -8.5019e+001 -2.4543e+002  1.5520e+001 41385 93958,94114,94088
 5.2000e+000 94232 -7.4423e+001 -2.6409e+002  6.4043e+000 41385 93932,94114,93958
 5.2000e+000 94209 -1.4278e+002 -2.8373e+002  4.5734e+001 41385 93958,94088,94062
 5.2000e+000 94186 -1.4907e+002 -2.0574e+002  3.3841e+001 41385 93958,94062,93984
 5.2000e+000 94163 -1.2705e+002 -2.0165e+002  2.9872e+001 41385 93984,94062,94036
 5.2000e+000 94140 -8.7172e+001 -2.7137e+002  4.3016e+001 41385 93984,94036,94010
 5.2000e+000 94476 -2.8207e+001 -3.3187e+002  1.9117e+001 40881 94326,94378,94352
 5.2000e+000 94453 -5.5668e+001 -2.7259e+002  2.1914e+001 40881 94300,94378,94326
 5.2000e+000 94430 -7.0351e+001 -2.5221e+002  2.4967e+000 40881 94300,94404,94378
 5.2000e+000 94626 -6.8570e+001 -1.8803e+002 -3.3548e+000 40591 94649,94551,94525
 5.2000e+000 94603 -3.9254e+001 -1.1458e+002  2.9022e+000 40591 94781,94577,94551
 5.2000e+000 94675 -2.3145e+001 -1.3508e+002 -2.3633e+001 40591 94781,94551,94649
 5.2000e+000 94807  1.8529e+000 -7.6481e+001  2.4929e+001 40591 94499,94577,94781
 5.2000e+000 94830  7.2558e+000 -1.1629e+002 -3.2719e+000 40591 94499,94781,94649
 5.2000e+000 95336 -1.7226e+002 -2.2650e+002 -3.6065e+001 40187 95013,95169,95039
 5.2000e+000 95313 -4.1843e+001 -2.0458e+002  4.0034e+000 40187 95013,95195,95169
 5.2000e+000 95290 -2.9280e+001 -2.2132e+002 -2.5520e+001 40187 95039,95143,95065
 5.2000e+000 95267 -1.2713e+002 -2.6026e+002 -3.8205e+001 40187 95039,95169,95143
 5.2000e+000 95244 -5.0260e+001 -1.8402e+002 -1.7955e+001 40187 95091,95143,95117
 5.2000e+000 95221 -1.5704e+001 -1.1532e+002 -6.4893e+000 40187 95065,95143,95091
 5.2000e+000 95665 -6.1172e+001 -1.6786e+002  7.6702e+001 39626 95466,95570,95544
 5.2000e+000 95642 -1.1730e+002 -1.3364e+002  4.9758e+001 39626 95440,95570,95466
 5.2000e+000 95619 -1.8401e+002 -2.2564e+002  4.9740e+001 39626 95466,95544,95492
 5.2000e+000 95596 -3.5697e+001 -1.7403e+002  7.5718e+001 39626 95492,95544,95518
 5.2000e+000 95913 -9.6091e+001 -2.0769e+002 -3.0812e+001 39136 96080,95936,95766
 5.2000e+000 95890 -6.6581e+001 -2.2297e+002 -1.9219e+001 39136 95936,95714,95688
 5.2000e+000 95867 -1.6683e+002 -2.2277e+002  8.4785e+000 39136 96008,95792,95766
 5.2000e+000 95844 -7.9143e+001 -2.0164e+002 -2.2975e+001 39136 96080,95766,95740
 5.2000e+000 95962 -1.3239e+002 -2.3054e+002 -2.0102e+001 39136 96008,95766,95936
 5.2000e+000 95985 -8.6167e+001 -2.7171e+002 -5.3112e+000 39136 95818,95936,95688
 5.2000e+000 96034 -8.3690e+001 -1.8665e+002  1.3410e+001 39136 95818,95792,96008
 5.2000e+000 96057 -7.4605e+001 -2.0453e+002 -1.4693e+001 39136 95818,96008,95936
 5.2000e+000 96106 -8.7449e+001 -2.0483e+002 -8.2567e+000 39136 95714,95936,96080
 5.2000e+000 96129 -6.1124e+001 -1.9784e+002 -2.0818e+000 39136 95714,96080,95740
 5.2000e+000 96350 -6.8842e+001 -1.7485e+002 -1.0358e+001 38824 96200,96278,96252
 5.2000e+000 96327 -5.8261e+001 -1.6959e+002 -8.6341e+000 38824 96174,96278,96200
 5.2000e+000 96304 -1.2019e+001 -1.5348e+002 -3.0986e+001 38824 96200,96252,96226
 5.2000e+000 96830 -9.9750e+001 -1.8231e+002 -1.4030e+001 38320 97069,96536,96484
 5.2000e+000 96807 -9.7969e+001 -1.8483e+002 -1.3896e+001 38320 97069,96484,96853
 5.2000e+000 96784 -1.1062e+002 -1.9878e+002  2.2080e+000 38320 96853,96484,96458
 5.2000e+000 96761 -6.1544e+001 -1.5995e+002 -2.0025e+001 38320 96925,96640,96614
 5.2000e+000 96738 -9.5746e+001 -1.6625e+002 -9.9317e+000 38320 96997,96666,96640
 5.2000e+000 96715 -8.1362e+001 -2.1547e+002 -6.5484e+000 38320 97141,96588,96562
 5.2000e+000 96692 -1.2533e+002 -2.1186e+002 -2.7285e+000 38320 96484,96536,96510
 5.2000e+000 96879 -9.8383e+001 -1.9598e+002 -8.8544e+000 38320 97141,96562,96853
 5.2000e+000 96902 -9.1532e+001 -1.9073e+002 -7.8677e+000 38320 96925,96614,96853
 5.2000e+000 96951 -9.3766e+001 -1.6495e+002 -1.0653e+001 38320 96997,96640,96925
 5.2000e+000 96974 -8.9115e+001 -1.6204e+002 -6.8623e+000 38320 96458,96925,96853
 5.2000e+000 97023 -1.0477e+002 -1.6718e+002 -5.0880e+000 38320 96458,96666,96997
 5.2000e+000 97046 -9.7360e+001 -1.6381e+002 -5.8615e+000 38320 96458,96997,96925
 5.2000e+000 97095 -1.0312e+002 -1.7637e+002 -3.1171e+000 38320 96562,96536,97069
 5.2000e+000 97118 -9.3684e+001 -1.8318e+002 -1.2101e+001 38320 96562,97069,96853
 5.2000e+000 97167 -5.1620e+001 -1.9743e+002 -1.4808e+001 38320 96614,96588,97141
 5.2000e+000 97190 -7.9668e+001 -1.8589e+002 -1.4754e+001 38320 96614,97141,96853
 5.2000e+000 97519 -7.7195e+001 -2.3879e+002  6.4542e+001 37766 97542,97398,97372
 5.2000e+000 97496 -9.2173e+001 -1.8681e+002  4.5478e+001 37766 97542,97372,97346
 5.2000e+000 97473 -9.2423e+001 -1.9605e+002  3.7519e+000 37766 97294,97424,97346
 5.2000e+000 97450 -1.0372e+002 -2.2967e+002 -1.1639e-001 37766 97294,97346,97320
 5.2000e+000 97568 -4.0237e+001 -2.5098e+002  2.1602e+001 37766 97424,97398,97542
 5.2000e+000 97591 -6.4193e+001 -1.9125e+002  5.8972e+000 37766 97424,97542,97346
 5.2000e+000 98048 -9.9114e+001 -1.4580e+002 -4.5934e+001 37262 98071,97878,97852
 5.2000e+000 98025 -8.4295e+001 -1.7377e+002 -1.8459e+001 37262 98071,97852,97800
 5.2000e+000 98002 -9.1715e+001 -2.0591e+002 -2.0900e+001 37262 97800,97852,97826
 5.2000e+000 97979 -9.4956e+001 -1.8679e+002  4.2697e+000 37262 97800,97930,97904
 5.2000e+000 97956 -6.3973e+001 -2.2228e+002  1.3663e+001 37262 97774,97930,97800
 5.2000e+000 98097 -1.3984e+002 -1.6567e+002 -3.2535e+001 37262 97904,97878,98071
 5.2000e+000 98120 -1.0666e+002 -1.9655e+002 -7.5645e+000 37262 97904,98071,97800
 5.2000e+000 98449 -5.4297e+001 -1.4623e+002 -1.7511e+001 36950 98472,98302,98250
 5.2000e+000 98426 -3.2793e+001 -1.3975e+002 -2.1406e+001 36950 98472,98250,98354
 5.2000e+000 98403 -8.3813e+001 -1.6276e+002  1.8624e+001 36950 98250,98302,98276
 5.2000e+000 98380 -2.0870e+001 -1.1024e+002  1.1770e+001 36950 98224,98354,98250
 5.2000e+000 98498 -3.8395e+001 -1.6326e+002 -4.8705e+000 36950 98328,98302,98472
 5.2000e+000 98521 -1.3360e+001 -1.5357e+002 -1.2365e+001 36950 98328,98472,98354
 5.2000e+000 99125 -1.0707e+002 -1.0689e+002  9.2905e+000 36296 98704,98756,98730
 5.2000e+000 99102 -1.0910e+002 -1.2050e+002  1.0699e+001 36296 98704,98938,98756
 5.2000e+000 99079 -7.8599e+001 -1.4980e+002 -3.7293e+000 36296 99148,98938,98912
 5.2000e+000 99056 -8.3346e+001 -1.5457e+002  3.4938e+001 36296 99292,99220,98782
 5.2000e+000 99033 -6.8753e+001 -1.7290e+002  3.8992e+000 36296 99148,98912,98834
 5.2000e+000 99010 -7.9625e+001 -1.3206e+002  3.8982e+001 36296 99292,98782,98756
 5.2000e+000 98987 -6.5817e+001 -3.0469e+002 -5.6567e+001 36296 98834,98912,98886
 5.2000e+000 98964 -1.1114e+002 -4.4096e+002 -7.2181e+001 36296 98834,98886,98860
 5.2000e+000 99174 -9.6773e+001 -1.8486e+002  5.4505e+000 36296 99220,98938,99148
 5.2000e+000 99197 -6.7111e+001 -2.1047e+002  2.2242e+001 36296 98808,99148,98834
 5.2000e+000 99246 -8.1585e+001 -1.4983e+002  8.4669e+001 36296 98808,98782,99220
 5.2000e+000 99269 -3.4263e+001 -1.3501e+002  2.7573e+001 36296 98808,99220,99148
 5.2000e+000 99318 -9.0401e+001 -1.3322e+002  1.9751e+001 36296 98938,99220,99292
 5.2000e+000 99341 -9.2296e+001 -1.3659e+002  2.3584e+001 36296 98938,99292,98756
 5.2000e+000 99719 -1.1495e+002 -2.3816e+002  3.8577e-001 35742 99742,99471,99601
 5.2000e+000 99696 -1.1764e+002 -1.8869e+002  2.2561e+001 35742 99445,99601,99471
 5.2000e+000 99673 -1.1000e+002 -2.2685e+002 -9.5558e+000 35742 99742,99601,99575
 5.2000e+000 99650 -9.6077e+001 -2.7920e+002 -7.4914e+000 35742 99814,99549,99523
 5.2000e+000 99627 -7.7716e+001 -2.1820e+002 -9.3809e-001 35742 99471,99523,99497
 5.2000e+000 99768 -9.2250e+001 -2.3306e+002  5.1974e+000 35742 99523,99471,99742
 5.2000e+000 99791 -1.0842e+002 -2.5829e+002 -6.3944e+000 35742 99814,99523,99742
 5.2000e+000 99840 -9.4422e+001 -2.5320e+002 -1.5463e+001 35742 99575,99549,99814
 5.2000e+000 99863 -1.0222e+002 -2.2593e+002 -1.3659e+001 35742 99575,99814,99742
 5.2000e+000 100111 -8.7645e+001 -1.9334e+002  1.3827e+001 35302 100134,99990,99938
 5.2000e+000 100088 -7.3419e+001 -1.7631e+002  4.8540e+000 35302 100134,99938,99912
 5.2000e+000 100065 -7.3694e+001 -1.7647e+002 -4.3231e+000 35302 100206,99886,100016
 5.2000e+000 100042 -1.1202e+002 -1.8275e+002  8.7131e+000 35302 99938,99990,99964
 5.2000e+000 100160 -6.9320e+001 -1.8642e+002  3.1605e+000 35302 100016,99990,100134
 5.2000e+000 100183 -7.0450e+001 -1.7914e+002 -4.2286e+000 35302 100206,100016,100134
 5.2000e+000 100232 -7.6503e+001 -1.7963e+002 -2.3780e+000 35302 99912,99886,100206
 5.2000e+000 100255 -7.3451e+001 -1.8296e+002 -2.3794e+000 35302 99912,100206,100134
 5.2000e+000 100586 -1.0744e+002 -1.2146e+002  3.2945e+001 35012 100609,100387,100361
 5.2000e+000 100563 -1.3046e+002 -8.8875e+001 -2.4356e+001 35012 100609,100361,100465
 5.2000e+000 100540 -6.0123e+001 -6.3202e+001 -5.5607e+001 35012 100361,100491,100465
 5.2000e+000 100517 -2.1445e+001 -7.1685e+001 -5.4292e+001 35012 100413,100465,100439
 5.2000e+000 100635 -4.9275e+001 -9.5896e+001  1.3080e+001 35012 100413,100387,100609
 5.2000e+000 100658 -7.0326e+001 -5.4752e+001 -4.5724e+001 35012 100413,100609,100465
 5.2000e+000 100987 -8.8031e+001 -1.9861e+002  1.7361e+001 34700 100788,100866,100814
 5.2000e+000 100964 -7.1866e+001 -1.5635e+002  2.9641e+001 34700 101010,100866,100788
 5.2000e+000 100941 -4.7772e+001 -1.1070e+002  3.0564e+001 34700 100762,100892,100866
 5.2000e+000 100918 -8.0975e+001 -1.8055e+002  1.2438e+001 34700 100814,100866,100840
 5.2000e+000 101036 -4.8052e+001 -1.3640e+002  4.9282e+001 34700 100762,100866,101010
 5.2000e+000 101493 -1.1920e+002 -2.2366e+002 -1.9006e+001 34132 101516,101349,101297
 5.2000e+000 101470 -1.4176e+002 -2.6712e+002 -3.0633e+001 34132 101588,101516,101297
 5.2000e+000 101447 -1.4230e+002 -2.8109e+002 -4.5377e+001 34132 101588,101297,101245
 5.2000e+000 101424 -8.8157e+001 -3.2717e+002 -4.2625e+001 34132 101245,101297,101271
 5.2000e+000 101401 -1.3301e+002 -2.2428e+002 -2.4644e+001 34132 101297,101349,101323
 5.2000e+000 101542 -1.2371e+002 -2.5760e+002 -1.4969e+001 34132 101375,101349,101516
 5.2000e+000 101565 -1.1101e+002 -2.5637e+002 -1.5602e+001 34132 101375,101516,101219
 5.2000e+000 101614 -1.1366e+002 -2.6833e+002 -1.5787e+001 34132 101219,101516,101588
 5.2000e+000 101637 -1.2794e+002 -2.8205e+002 -2.9820e+001 34132 101219,101588,101245
 5.2000e+000 101858 -4.1231e+001 -1.8179e+002  1.8659e+001 33720 101708,101786,101760
 5.2000e+000 101835 -2.5525e+001 -1.9807e+002  2.8891e+001 33720 101682,101786,101708
 5.2000e+000 101812 -6.3651e+001 -1.9328e+002  1.3400e+001 33720 101708,101760,101734
 5.2000e+000 102128 -2.7901e+001 -2.3299e+002 -6.3354e+000 33130 101903,102007,101929
 5.2000e+000 102105 -3.3428e+001 -2.6922e+002  8.6429e+000 33130 101903,102033,102007
 5.2000e+000 102082 -1.5566e+001 -2.7831e+002 -5.4000e+001 33130 101929,102007,101955
 5.2000e+000 102059 -4.2665e+001 -1.9729e+002  4.6107e+000 33130 101955,102007,101981
 5.2000e+000 102461 -7.3739e+001 -1.7658e+002 -1.6547e+001 32840 102236,102340,102262
 5.2000e+000 102438 -6.5212e+001 -1.2922e+002  4.1830e+000 32840 102236,102366,102340
 5.2000e+000 102415 -4.4953e+001 -1.6938e+002 -1.3857e+001 32840 102262,102340,102288
 5.2000e+000 102392 -8.8087e+001 -1.7880e+002 -3.7692e+001 32840 102288,102340,102314
 5.2000e+000 102997 -7.7531e+001 -1.3270e+002  3.7230e+001 32493 102749,102879,102853
 5.2000e+000 102974 -6.3540e+001 -1.0545e+002  2.7007e+001 32493 102723,102879,102749
 5.2000e+000 102951 -8.8818e+001 -1.6085e+002  2.5005e+001 32493 102749,102801,102775
 5.2000e+000 102928 -9.6302e+001 -1.6006e+002  2.4089e+001 32493 102749,102853,102801
 5.2000e+000 102905 -9.1362e+001 -1.5252e+002  1.9952e+001 32493 102801,102853,102827
 5.2000e+000 103454 -7.9262e+001 -1.4380e+002 -1.5300e+001 32089 103206,103336,103310
 5.2000e+000 103431 -6.2775e+001 -1.5592e+002 -1.6637e+000 32089 103180,103336,103206
 5.2000e+000 103408 -9.0804e+001 -1.6850e+002 -3.0127e+001 32089 103206,103284,103258
 5.2000e+000 103385 -1.2559e+002 -1.7438e+002 -3.4494e+001 32089 103206,103310,103284
 5.2000e+000 103362 -7.0213e+001 -1.1608e+002 -1.9608e+001 32089 103206,103258,103232
 5.2000e+000 103783 -1.4413e+002 -1.8828e+002 -2.1114e+001 31742 103558,103662,103584
 5.2000e+000 103760 -1.1905e+002 -1.5214e+002 -5.0882e+001 31742 103558,103688,103662
 5.2000e+000 103737 -9.7212e+001 -1.5184e+002 -3.8900e+001 31742 103584,103662,103636
 5.2000e+000 103714 -9.1823e+001 -1.7246e+002 -4.3018e+001 31742 103584,103636,103610
 5.2000e+000 104112 -2.6809e+001 -1.5024e+002  2.3079e+001 31402 103939,103991,103965
 5.2000e+000 104089 -4.6605e+001 -1.3053e+002  1.1231e+001 31402 103913,103991,103939
 5.2000e+000 104066 -6.4111e+001 -1.4838e+002  1.4589e+000 31402 103913,104017,103991
 5.2000e+000 104043 -7.8009e+001 -1.3624e+002 -8.2976e+000 31402 103887,104017,103913
 5.2000e+000 104569 -1.3365e+002 -2.3942e+002  6.2231e+000 30998 104321,104425,104373
 5.2000e+000 104546 -1.5012e+002 -2.4502e+002  4.7998e+000 30998 104321,104451,104425
 5.2000e+000 104523 -1.0037e+002 -1.9859e+002  2.7932e+001 30998 104373,104425,104399
 5.2000e+000 104500 -1.2119e+002 -2.7916e+002 -1.1919e+001 30998 104295,104451,104321
 5.2000e+000 104477 -1.7955e+002 -2.8269e+002  5.1122e+001 30998 104321,104373,104347
 5.2000e+000 104947 -1.2254e+002 -2.1051e+002 -2.4386e+001 30608 104751,104803,104777
 5.2000e+000 104924 -8.1147e+001 -2.1683e+002 -8.9556e+000 30608 104725,104803,104751
 5.2000e+000 104901 -1.2950e+002 -2.1012e+002  1.4362e+001 30608 104699,104803,104725
 5.2000e+000 104878 -1.1061e+002 -2.0155e+002  1.2400e+001 30608 104673,104803,104699
 5.2000e+000 104855 -8.5175e+001 -1.9112e+002 -7.6497e+000 30608 104673,104829,104803
 5.2000e+000 105276 -8.6551e+001 -1.9659e+002  9.7631e+000 30204 105427,105129,105077
 5.2000e+000 105253 -6.0265e+001 -2.1365e+002  4.3271e+001 30204 105427,105077,105051
 5.2000e+000 105230 -7.4069e+001 -1.8963e+002  1.2613e+001 30204 105077,105129,105103
 5.2000e+000 105207 -5.2111e+001 -1.7668e+002  2.8744e+001 30204 105299,105181,105155
 5.2000e+000 105325 -5.5498e+001 -1.7306e+002  1.0044e+001 30204 105129,105181,105299
 5.2000e+000 105453 -1.0300e+002 -2.0794e+002  2.5877e+001 30204 105181,105129,105427
 5.2000e+000 105476 -1.1933e+002 -2.4450e+002  6.3933e+001 30204 105181,105427,105051
 5.2000e+000 105903 -7.0801e+001 -1.6887e+002 -1.3143e+001 29700 105606,105762,105736
 5.2000e+000 105880 -9.0813e+001 -1.7306e+002  4.4424e-001 29700 105580,105762,105606
 5.2000e+000 105857 -1.0898e+002 -2.1310e+002 -1.2863e+001 29700 105606,105710,105632
 5.2000e+000 105834 -9.0530e+001 -1.7898e+002 -5.8397e+000 29700 105606,105736,105710
 5.2000e+000 105811 -1.0187e+002 -1.9465e+002 -1.5287e+001 29700 105632,105710,105684
 5.2000e+000 105788 -9.7491e+001 -1.8403e+002 -8.6416e+000 29700 105632,105684,105658
 5.2000e+000 106102 -2.8154e+001 -2.0183e+002  9.1792e+000 29124 105978,106030,106004
 5.2000e+000 106079 -5.0502e+001 -1.9712e+002  1.0197e+001 29124 105926,106030,105978
 5.2000e+000 106056 -5.6757e+001 -2.2490e+002  2.8539e+001 29124 105926,105978,105952
 5.2000e+000 106301 -5.6274e+001 -2.0699e+002  8.8032e-001 28712 106151,106229,106203
 5.2000e+000 106278 -6.7139e+001 -2.2916e+002 -1.0432e+001 28712 106125,106229,106151
 5.2000e+000 106255 -5.8869e+001 -2.1762e+002  1.1172e+001 28712 106151,106203,106177
 5.2000e+000 106551 -7.3023e+001 -2.5808e+002  1.2347e+001 28258 106352,106404,106378
 5.2000e+000 106528 -1.0039e+002 -2.6067e+002  2.1336e+000 28258 106352,106456,106404
 5.2000e+000 106505 -9.9569e+001 -2.6797e+002 -7.1983e-001 28258 106326,106456,106352
 5.2000e+000 106482 -8.9964e+001 -2.4435e+002 -4.2760e+000 28258 106404,106456,106430
 5.2000e+000 107012 -8.5875e+001 -2.1988e+002  4.3888e+001 27818 107035,106790,106764
 5.2000e+000 106989 -7.4694e+001 -2.0867e+002  1.6465e+001 27818 107035,106764,106868
 5.2000e+000 106966 -5.2432e+001 -2.5148e+002  2.4312e+001 27818 107107,106842,106816
 5.2000e+000 106943 -1.1291e+002 -1.9400e+002  9.0177e+000 27818 106738,106868,106764
 5.2000e+000 106920 -1.0768e+002 -1.7408e+002  2.1872e+001 27818 106738,106894,106868
 5.2000e+000 107061 -3.7201e+001 -2.1013e+002  5.0042e+001 27818 106816,106790,107035
 5.2000e+000 107084 -6.5936e+001 -2.3476e+002  2.5619e+001 27818 107107,106816,107035
 5.2000e+000 107133 -4.9956e+001 -2.2709e+002  1.2463e+001 27818 106868,106842,107107
 5.2000e+000 107156 -5.8658e+001 -2.0206e+002  1.6861e+001 27818 106868,107107,107035
 5.2000e+000 107613 -2.7891e+001 -1.6579e+002  3.5518e+001 27312 107339,107469,107365
 5.2000e+000 107590 -3.7043e+000 -1.5309e+002  3.0405e+001 27312 107339,107495,107469
 5.2000e+000 107567 -2.8995e+001 -1.6075e+002  1.6974e+001 27312 107391,107469,107443
 5.2000e+000 107544 -2.6784e+001 -1.7208e+002  1.4906e+001 27312 107365,107469,107391
 5.2000e+000 107521 -7.8654e+001 -1.7718e+002  7.5174e+000 27312 107391,107443,107417
 5.2000e+000 107991 -8.6422e+001 -2.4834e+002  1.0555e+001 26858 108086,108014,107795
 5.2000e+000 107968 -9.5404e+001 -2.5497e+002 -1.1653e+001 26858 108014,107717,107873
 5.2000e+000 107945 -9.7711e+001 -2.6073e+002  1.7524e+001 26858 108158,108086,107795
 5.2000e+000 107922 -7.8574e+001 -2.6277e+002  1.7439e+001 26858 108158,107795,107769
 5.2000e+000 107899 -7.3431e+001 -3.1005e+002  4.3340e+001 26858 107821,107873,107847
 5.2000e+000 108040 -9.1753e+001 -2.8158e+002  1.4757e+001 26858 107821,107795,108014
 5.2000e+000 108063 -5.7638e+001 -2.6568e+002  1.8111e+000 26858 107821,108014,107873
 5.2000e+000 108112 -1.1600e+002 -2.6045e+002  1.1971e+001 26858 107717,108014,108086
 5.2000e+000 108135 -9.7371e+001 -2.6327e+002  2.6468e+001 26858 107717,108086,107743
 5.2000e+000 108184 -7.6054e+001 -2.5387e+002  2.4585e+001 26858 107743,108086,108158
 5.2000e+000 108207 -6.6817e+001 -2.6301e+002  2.4912e+001 26858 107743,108158,107769
 5.2000e+000 108634 -1.1388e+002 -2.3537e+002  5.0249e+000 26404 108657,108415,108363
 5.2000e+000 108611 -1.2785e+002 -2.5336e+002  2.7288e+001 26404 108657,108363,108337
 5.2000e+000 108588 -1.1140e+002 -2.4053e+002  2.7171e+001 26404 108729,108311,108467
 5.2000e+000 108565 -1.2171e+002 -2.7978e+002  4.5317e+000 26404 108801,108441,108415
 5.2000e+000 108542 -1.6732e+002 -2.6587e+002  3.3167e+001 26404 108311,108493,108467
 5.2000e+000 108519 -7.8890e+001 -2.3596e+002  5.0762e+000 26404 108363,108415,108389
 5.2000e+000 108683 -1.5047e+002 -2.5093e+002  8.2828e+000 26404 108801,108415,108657
 5.2000e+000 108706 -1.4348e+002 -2.4920e+002  2.1729e+001 26404 108729,108467,108657
 5.2000e+000 108755 -9.0727e+001 -2.5373e+002  2.7084e+001 26404 108337,108311,108729
 5.2000e+000 108778 -1.0710e+002 -2.5104e+002  2.1047e+001 26404 108337,108729,108657
 5.2000e+000 108827 -1.4978e+002 -3.3731e+002 -1.2227e+001 26404 108467,108441,108801
 5.2000e+000 108850 -1.6496e+002 -2.8763e+002 -8.2611e+000 26404 108467,108801,108657
 5.2000e+000 109228 -1.1447e+002 -2.4593e+002 -1.1156e+001 26064 109006,109084,109058
 5.2000e+000 109205 -1.0191e+002 -2.2991e+002  4.7555e+000 26064 108980,109084,109006
 5.2000e+000 109182 -1.1071e+002 -2.1995e+002 -7.7350e+000 26064 108980,109110,109084
 5.2000e+000 109159 -1.0985e+002 -2.5799e+002 -1.6497e+000 26064 109006,109058,109032
 5.2000e+000 109136 -3.7976e+001 -1.9536e+002  7.8596e+000 26064 108954,109110,108980
 5.2000e+000 109427 -2.8343e+001 -2.0955e+002 -4.3111e+001 25660 109303,109355,109329
 5.2000e+000 109404 -5.7645e+001 -2.6833e+002 -1.0457e+001 25660 109277,109355,109303
 5.2000e+000 109381 -3.7055e+001 -2.5335e+002 -3.9107e+000 25660 109251,109355,109277
 5.2000e+000 109577 -4.0162e+001 -1.0026e+002  3.4956e+001 25306 109476,109528,109502
 5.2000e+000 109554  1.2924e+001 -8.6317e+001  2.5378e+001 25306 109450,109528,109476
 5.2000e+000 109778 -8.0701e+001 -2.2267e+002  6.0883e+000 24944 109628,109706,109654
 5.2000e+000 109755 -8.7310e+001 -2.1931e+002  8.3992e-001 24944 109602,109706,109628
 5.2000e+000 109732 -7.1353e+001 -2.0977e+002 -2.2122e+000 24944 109654,109706,109680
 5.2000e+000 110126 -7.4141e+001 -2.8411e+002  8.9479e+000 24440 110149,109907,109855
 5.2000e+000 110103 -6.9251e+001 -3.0009e+002  1.8217e+001 24440 110149,109855,109985
 5.2000e+000 110080 -5.8250e+001 -2.4498e+002  5.3585e+000 24440 109855,109907,109881
 5.2000e+000 110057 -6.0036e+001 -2.3389e+002  7.8810e+001 24440 109829,109985,109855
 5.2000e+000 110034 -6.7430e+001 -2.8322e+002  2.2087e+000 24440 109907,109959,109933
 5.2000e+000 110011 -2.9321e+001 -2.3882e+002  5.5379e+000 24440 109803,109985,109829
 5.2000e+000 110175 -7.0664e+001 -2.7082e+002  7.0257e+000 24440 109959,109907,110149
 5.2000e+000 110198 -6.5334e+001 -2.8413e+002  1.7910e+001 24440 109959,110149,109985
 5.2000e+000 110301 -5.9632e+000 -1.4893e+002  2.3101e+000 24028 110223,110275,110249
 5.2000e+000 110573 -3.5171e+001 -1.6857e+002  1.3287e+001 23467 110400,110452,110426
 5.2000e+000 110550 -5.9600e+001 -2.0044e+002  6.5124e-001 23467 110374,110452,110400
 5.2000e+000 110527 -6.2594e+001 -2.0166e+002  3.5276e+000 23467 110348,110452,110374
 5.2000e+000 110504 -4.5144e+001 -1.9423e+002 -1.3340e+000 23467 110348,110478,110452
 5.2000e+000 111004 -1.3292e+002 -2.9314e+002 -3.2126e+001 22963 111027,110733,110707
 5.2000e+000 110981 -1.3213e+002 -2.7781e+002  1.4351e+001 22963 111027,110707,110681
 5.2000e+000 110958 -6.3738e+001 -2.4378e+002 -3.0181e+001 22963 111099,110759,110733
 5.2000e+000 110935 -8.5384e+001 -2.3961e+002 -1.9744e+001 22963 111171,110863,110811
 5.2000e+000 110912 -4.0022e+001 -1.7644e+002 -3.4104e+001 22963 110759,110811,110785
 5.2000e+000 110889 -9.5606e+001 -2.5762e+002 -1.5253e+001 22963 110811,110863,110837
 5.2000e+000 111053 -9.5370e+001 -2.6577e+002 -1.8275e+001 22963 111099,110733,111027
 5.2000e+000 111076 -8.0180e+001 -2.5924e+002 -1.6208e+001 22963 111171,110811,111027
 5.2000e+000 111125 -6.2247e+001 -2.3887e+002 -4.7181e+001 22963 110811,110759,111099
 5.2000e+000 111148 -6.7207e+001 -2.3596e+002 -3.9887e+001 22963 110811,111099,111027
 5.2000e+000 111197 -8.5849e+001 -2.0834e+002 -2.4393e+001 22963 110681,110863,111171
 5.2000e+000 111220 -8.8255e+001 -2.3141e+002 -1.2153e+001 22963 110681,111171,111027
 5.2000e+000 111726 -1.3053e+002 -2.5472e+002  5.2142e+000 22459 111749,111507,111429
 5.2000e+000 111703 -1.1917e+002 -2.5108e+002 -5.4678e+000 22459 111749,111429,111585
 5.2000e+000 111680 -1.0176e+002 -2.7835e+002 -3.2439e+000 22459 111403,111585,111429
 5.2000e+000 111657 -1.2471e+002 -2.7913e+002  1.1703e+001 22459 111507,111559,111533
 5.2000e+000 111634 -1.6839e+002 -2.4196e+002  1.5455e+001 22459 111455,111507,111481
 5.2000e+000 111611 -1.8292e+002 -2.4424e+002  2.2859e+001 22459 111429,111507,111455
 5.2000e+000 111775 -1.3044e+002 -2.7114e+002  1.5619e+001 22459 111559,111507,111749
 5.2000e+000 111798 -1.1893e+002 -2.5926e+002  5.1306e+000 22459 111559,111749,111585
 5.2000e+000 112046 -5.8123e+001 -2.1571e+002 -2.8836e+001 21898 112069,111925,111873
 5.2000e+000 112023 -5.5721e+001 -2.1726e+002 -7.1145e+000 21898 112069,111873,111847
 5.2000e+000 112000 -7.5236e+001 -2.2360e+002 -1.2320e+001 21898 111821,111951,111847
 5.2000e+000 111977 -6.5473e+001 -1.6800e+002 -1.8224e+001 21898 111873,111925,111899
 5.2000e+000 112095 -8.8837e+001 -2.2699e+002 -3.3163e+001 21898 111951,111925,112069
 5.2000e+000 112118 -7.3640e+001 -2.2362e+002 -1.2294e+001 21898 111951,112069,111847
 5.2000e+000 112498 -9.9207e+001 -2.3488e+002 -1.9500e+001 21608 112521,112276,112224
 5.2000e+000 112475 -6.4998e+001 -2.3711e+002 -8.2389e-001 21608 112521,112224,112380
 5.2000e+000 112452 -6.9738e+001 -2.7564e+002  1.6590e+001 21608 112302,112380,112354
 5.2000e+000 112429 -1.1838e+002 -2.6778e+002 -1.1262e+001 21608 112224,112276,112250
 5.2000e+000 112406  4.2036e+001 -2.9452e+002 -1.1694e+001 21608 112302,112354,112328
 5.2000e+000 112547 -7.1408e+001 -2.0696e+002 -3.0402e+000 21608 112302,112276,112521
 5.2000e+000 112570 -4.7653e+001 -2.3009e+002  9.7145e+000 21608 112302,112521,112380
 5.2000e+000 112948 -1.1655e+002 -2.4481e+002 -3.9181e+000 20882 112971,112752,112700
 5.2000e+000 112925 -9.0032e+001 -2.3575e+002 -8.9501e+000 20882 112971,112700,112830
 5.2000e+000 112902 -1.4780e+002 -2.6433e+002  1.6519e+001 20882 112778,112830,112804
 5.2000e+000 112879 -8.3788e+001 -1.9083e+002 -1.3076e+001 20882 112674,112830,112700
 5.2000e+000 112856 -1.4124e+002 -2.5398e+002  4.5954e+000 20882 112700,112752,112726
 5.2000e+000 112997 -1.1723e+002 -2.4445e+002  1.0829e+001 20882 112778,112752,112971
 5.2000e+000 113020 -1.0215e+002 -2.4004e+002  5.1984e+000 20882 112778,112971,112830
 5.2000e+000 113526 -8.1896e+001 -2.4196e+002  1.8023e+000 20428 113255,113385,113333
 5.2000e+000 113503 -8.9052e+001 -2.6458e+002  1.9559e+000 20428 113229,113385,113255
 5.2000e+000 113480 -1.0332e+001 -2.3744e+002  2.4432e+000 20428 113255,113333,113281
 5.2000e+000 113457 -7.6247e+001 -2.5747e+002  4.9178e+000 20428 113203,113385,113229
 5.2000e+000 113434 -4.1515e+001 -2.4735e+002 -7.6561e+000 20428 113281,113333,113307
 5.2000e+000 113411 -1.0212e+002 -2.4037e+002  7.0878e+000 20428 113333,113385,113359
 5.2000e+000 113774 -1.4074e+001 -2.3521e+002  9.6652e+000 19917 113797,113601,113549
 5.2000e+000 113751 -3.8907e+001 -2.3953e+002  1.2578e+001 19917 113869,113797,113549
 5.2000e+000 113728 -3.7147e+001 -2.4238e+002  2.3626e+001 19917 113869,113549,113679
 5.2000e+000 113705 -2.1841e+001 -2.3274e+002  2.0277e+001 19917 113549,113601,113575
 5.2000e+000 113823 -3.9751e+001 -2.8617e+002 -6.9439e-001 19917 113627,113601,113797
 5.2000e+000 113846 -1.5276e+001 -2.2402e+002 -5.3887e+000 19917 113627,113797,113653
 5.2000e+000 113895 -3.3264e+001 -2.1292e+002  4.0814e+000 19917 113653,113797,113869
 5.2000e+000 113918 -4.2267e+001 -2.2003e+002  1.8183e+001 19917 113653,113869,113679
 5.2000e+000 114166 -1.0821e+002 -2.4528e+002 -3.8346e+000 19413 113993,114045,114019
 5.2000e+000 114143 -1.0031e+002 -2.2761e+002  2.3536e+000 19413 113967,114045,113993
 5.2000e+000 114120 -8.5032e+001 -2.2240e+002  1.3364e+001 19413 113967,114071,114045
 5.2000e+000 114097 -6.6015e+001 -2.5135e+002 -3.4293e+000 19413 113941,114071,113967
 5.2000e+000 114438 -1.0104e+002 -2.6763e+002  2.5138e+000 19001 114213,114265,114239
 5.2000e+000 114415 -7.2435e+001 -2.0789e+002 -6.3066e+000 19001 114213,114343,114265
 5.2000e+000 114392 -1.0787e+002 -2.8743e+002 -1.3061e+001 19001 114265,114343,114317
 5.2000e+000 114369  2.0347e+001 -2.3210e+002 -5.1413e+000 19001 114265,114317,114291
 5.2000e+000 114639 -7.5897e+001 -3.1851e+002  1.5488e+001 18554 114489,114541,114515
 5.2000e+000 114616 -6.6223e+001 -2.7584e+002  2.6377e+000 18554 114489,114567,114541
 5.2000e+000 114593 -1.4344e+002 -3.1423e+002 -2.0618e+001 18554 114463,114567,114489
 5.2000e+000 115043 -5.1386e+001 -2.3779e+002  8.8901e+000 18164 114795,114925,114821
 5.2000e+000 115020 -4.4358e+001 -2.5005e+002  1.4608e+001 18164 114769,114925,114795
 5.2000e+000 114997 -2.7785e+001 -2.5031e+002 -2.0137e+000 18164 115066,114873,114821
 5.2000e+000 114974 -2.5542e+001 -2.1404e+002 -8.2764e+000 18164 115066,114821,114925
 5.2000e+000 114951  1.8106e+001 -2.5095e+002 -2.4919e+001 18164 114821,114873,114847
 5.2000e+000 115092 -4.1018e+001 -2.2416e+002 -2.1082e+001 18164 114899,114873,115066
 5.2000e+000 115115 -2.4017e+001 -1.6871e+002 -2.9068e+001 18164 114899,115066,114925
 5.2000e+000 115265 -6.3471e+001 -2.5707e+002  3.5341e+000 17852 115164,115216,115190
 5.2000e+000 115242 -7.1676e+001 -2.7450e+002 -3.3776e-001 17852 115138,115216,115164
 5.2000e+000 115464 -1.6643e+002 -3.7452e+002  4.5310e+000 17346 115288,115366,115340
 5.2000e+000 115441 -2.5505e+002 -2.8940e+002 -1.2331e+001 17346 115288,115392,115366
 5.2000e+000 115418 -1.4889e+002 -4.1875e+002 -1.2929e+001 17346 115288,115340,115314
 5.2000e+000 115736 -6.2222e+001 -2.3595e+002  1.0327e+001 16942 115563,115641,115615
 5.2000e+000 115713 -7.0109e+001 -2.3505e+002  3.4688e+000 16942 115511,115641,115563
 5.2000e+000 115690 -1.6505e+002 -2.7590e+002  1.4868e+001 16942 115563,115615,115589
 5.2000e+000 115667 -8.2995e+001 -2.5579e+002  8.9261e+000 16942 115511,115563,115537
 5.2000e+000 116091 -1.2260e+002 -2.8641e+002 -1.0616e+001 16388 115918,115970,115944
 5.2000e+000 116068 -1.0544e+002 -2.3003e+002 -7.0830e+000 16388 115918,115996,115970
 5.2000e+000 116045 -1.4235e+002 -2.9115e+002  9.8310e+000 16388 115892,115996,115918
 5.2000e+000 116022 -9.1423e+001 -2.6379e+002  3.3629e+001 16388 115866,115996,115892
 5.2000e+000 116192 -3.7162e+001 -2.9823e+002 -4.3013e+001 15810 116114,116166,116140
 5.2000e+000 116342 -1.1201e+002 -3.6174e+002  1.9535e+001 15419 116241,116293,116267
 5.2000e+000 116319 -1.5994e+002 -4.4281e+002 -1.2618e+001 15419 116215,116293,116241
 5.2000e+000 116445 -1.2057e+002 -2.4518e+002  1.9404e+000 421 116367,116419,116393
 5.3000e+000 68477 -1.5719e+002 -2.2996e+002  1.0133e+000 68018 68327,68379,68353
 5.3000e+000 68454 -1.6652e+002 -3.0512e+002  2.2562e+001 68018 68301,68379,68327
 5.3000e+000 68431 -8.1291e+001 -3.4096e+002  5.5155e+001 68018 68301,68405,68379
 5.3000e+000 68578 -1.0814e+002 -2.2022e+002  6.3881e-001 67820 68500,68552,68526
 5.3000e+000 68728 -1.1509e+002 -2.0382e+002 -2.8386e+000 67508 68601,68653,68627
 5.3000e+000 68705 -1.7803e+002 -1.6083e+002 -3.0313e+001 67508 68601,68679,68653
 5.3000e+000 68927 -3.5808e+001 -1.9173e+002 -3.7299e+000 67310 68777,68829,68803
 5.3000e+000 68904 -5.0260e+001 -2.2055e+002  3.2571e+000 67310 68751,68829,68777
 5.3000e+000 68881 -3.6456e+001 -2.2149e+002  1.3781e+001 67310 68751,68855,68829
 5.3000e+000 69386 -9.1678e+001 -2.3830e+002 -1.1333e+001 67020 69216,69268,69242
 5.3000e+000 69363 -8.4825e+001 -1.8618e+002 -2.3732e+001 67020 69138,69268,69216
 5.3000e+000 69340 -6.2305e+001 -1.6710e+002 -1.3586e+001 67020 69112,69268,69138
 5.3000e+000 69317 -1.1301e+002 -2.0046e+002  1.4060e+001 67020 69138,69190,69164
 5.3000e+000 69294 -1.1710e+002 -1.8250e+002 -1.0645e+001 67020 69138,69216,69190
 5.3000e+000 69536 -1.7341e+002 -4.2435e+002 -3.3791e+001 66708 69435,69487,69461
 5.3000e+000 69513 -1.2715e+002 -4.7697e+002 -5.2299e+000 66708 69409,69487,69435
 5.3000e+000 69735 -1.1032e+002 -2.2351e+002  5.0055e+000 66346 69585,69637,69611
 5.3000e+000 69712 -9.2147e+001 -2.1296e+002 -9.2308e-001 66346 69559,69637,69585
 5.3000e+000 69689 -8.3782e+001 -2.1163e+002 -2.1125e+001 66346 69559,69663,69637
 5.3000e+000 69985 -1.5886e+002 -2.6517e+002  2.9574e+000 66148 69786,69890,69864
 5.3000e+000 69962 -1.6525e+002 -2.6895e+002  4.8674e+000 66148 69760,69890,69786
 5.3000e+000 69939 -1.1747e+002 -2.5077e+002 -3.7758e+001 66148 69786,69864,69838
 5.3000e+000 69916 -1.3712e+002 -2.6748e+002 -1.3766e+001 66148 69786,69838,69812
 5.3000e+000 70137 -7.6104e+001 -2.9480e+002 -1.6929e+001 65950 70036,70088,70062
 5.3000e+000 70114 -6.5455e+001 -3.2613e+002  1.4283e+001 65950 70010,70088,70036
 5.3000e+000 70470 -5.6349e+001 -2.1847e+002  1.6508e+001 65546 70245,70323,70271
 5.3000e+000 70447 -3.8738e+001 -1.8884e+002  7.7436e+000 65546 70245,70375,70323
 5.3000e+000 70424 -5.1873e+001 -2.4636e+002  8.3512e+000 65546 70323,70375,70349
 5.3000e+000 70401 -4.4431e+001 -2.0120e+002  6.8054e+000 65546 70271,70323,70297
 5.3000e+000 70620 -1.0062e+002 -2.5471e+002  8.2258e+000 65348 70493,70545,70519
 5.3000e+000 70597 -7.4170e+001 -2.6740e+002  9.9664e+000 65348 70493,70571,70545
 5.3000e+000 70721 -1.4679e+002 -3.1810e+002 -1.9823e+001 65150 70643,70695,70669
 5.3000e+000 71020 -9.2717e+001 -1.9805e+002  1.7232e+001 64952 71043,70850,70824
 5.3000e+000 70997 -7.9828e+001 -1.9013e+002 -2.5850e+000 64952 71043,70824,70772
 5.3000e+000 70974 -8.2429e+001 -2.4222e+002  5.9411e+000 64952 71115,70746,70876
 5.3000e+000 70951 -6.9350e+001 -2.4560e+002 -1.6099e+000 64952 70746,70902,70876
 5.3000e+000 70928 -9.0388e+001 -1.6858e+002 -1.7001e+001 64952 70772,70824,70798
 5.3000e+000 71069 -4.6098e+001 -1.6843e+002  4.3042e+001 64952 70876,70850,71043
 5.3000e+000 71092 -6.8571e+001 -2.2522e+002  1.1975e+001 64952 71115,70876,71043
 5.3000e+000 71141 -1.1076e+002 -2.2095e+002 -1.2448e+001 64952 70772,70746,71115
 5.3000e+000 71164 -9.4737e+001 -1.9653e+002 -5.1240e+000 64952 70772,71115,71043
 5.3000e+000 71365 -5.0132e+001 -2.7719e+002 -8.7009e+000 64662 71215,71293,71267
 5.3000e+000 71342 -4.0185e+001 -2.0095e+002  9.8108e+000 64662 71189,71293,71215
 5.3000e+000 71319 -3.2342e+000 -1.6841e+002  3.3338e-001 64662 71215,71267,71241
 5.3000e+000 71615 -6.5993e+001 -2.2871e+002 -3.4742e+000 64350 71710,71638,71468
 5.3000e+000 71592 -7.7573e+001 -2.2512e+002 -7.6705e+000 64350 71638,71416,71390
 5.3000e+000 71569 -7.0385e+001 -2.1374e+002  9.0685e+000 64350 71710,71468,71442
 5.3000e+000 71546  3.3850e+001 -2.1842e+002 -3.4753e+001 64350 71390,71520,71494
 5.3000e+000 71664 -6.2951e+001 -2.2816e+002 -1.0040e+000 64350 71494,71468,71638
 5.3000e+000 71687 -6.2317e+001 -2.3301e+002 -1.4102e-001 64350 71494,71638,71390
 5.3000e+000 71736 -5.9924e+001 -1.9834e+002  6.1585e-001 64350 71416,71638,71710
 5.3000e+000 71759 -5.9004e+001 -1.8332e+002  1.6736e+001 64350 71416,71710,71442
 5.3000e+000 72318 -6.9650e+001 -3.6235e+002 -1.5816e+001 63837 71972,72024,71998
 5.3000e+000 72295 -1.0220e+002 -2.3398e+002 -1.7767e+000 63837 72341,71972,71946
 5.3000e+000 72272 -9.2953e+001 -1.8825e+002  8.3083e+000 63837 72413,72341,71946
 5.3000e+000 72249 -8.7211e+001 -1.7093e+002  2.7117e+000 63837 72413,71946,72128
 5.3000e+000 72226 -1.3021e+002 -2.0694e+002  1.1113e+000 63837 72024,72076,72050
 5.3000e+000 72203 -1.1435e+002 -1.8974e+002 -7.7934e+000 63837 72024,72102,72076
 5.3000e+000 72180 -6.1983e+001 -1.6229e+002  1.2389e+001 63837 71946,72154,72128
 5.3000e+000 72367 -1.2257e+002 -2.5084e+002 -4.4843e+001 63837 72024,71972,72341
 5.3000e+000 72390 -9.5953e+001 -2.0441e+002 -1.7612e+001 63837 72024,72341,72102
 5.3000e+000 72439 -7.5163e+001 -2.1648e+002  2.8422e+000 63837 72102,72341,72413
 5.3000e+000 72462 -7.0164e+001 -1.9883e+002 -7.6733e-001 63837 72102,72413,72128
 5.3000e+000 72791 -1.1517e+002 -2.1898e+002 -2.3263e+001 63383 72592,72696,72670
 5.3000e+000 72768 -1.1734e+002 -2.0492e+002 -3.9634e+001 63383 72566,72696,72592
 5.3000e+000 72745 -1.1113e+002 -1.9131e+002 -1.6797e+000 63383 72592,72670,72618
 5.3000e+000 72722 -1.0687e+002 -1.7823e+002 -3.4455e+000 63383 72618,72670,72644
 5.3000e+000 73297 -1.3457e+002 -1.9197e+002 -1.4860e+000 63185 73000,73156,73130
 5.3000e+000 73274 -1.3440e+002 -1.9790e+002  2.4346e+001 63185 72974,73156,73000
 5.3000e+000 73251 -9.9995e+001 -2.2389e+002 -3.9406e+000 63185 73000,73052,73026
 5.3000e+000 73228 -1.1047e+002 -1.9870e+002 -1.0673e+001 63185 73000,73130,73052
 5.3000e+000 73205 -1.0983e+002 -2.2429e+002 -3.4526e+001 63185 73052,73130,73104
 5.3000e+000 73182 -1.0314e+002 -2.4717e+002 -3.6408e+001 63185 73052,73104,73078
 5.3000e+000 73545 -6.1796e+001 -2.1085e+002  5.5764e+000 62781 73568,73398,73372
 5.3000e+000 73522 -3.2734e+001 -1.9335e+002  2.5772e+001 62781 73568,73372,73346
 5.3000e+000 73499 -8.4297e+001 -2.4077e+002 -2.7664e+001 62781 73640,73320,73424
 5.3000e+000 73476 -8.3613e+001 -1.5302e+002 -4.8120e+001 62781 73320,73450,73424
 5.3000e+000 73594 -7.0104e+001 -1.9955e+002  5.2084e+000 62781 73424,73398,73568
 5.3000e+000 73617 -7.4449e+001 -2.2865e+002 -1.5646e+000 62781 73640,73424,73568
 5.3000e+000 73666 -7.0029e+001 -2.1093e+002 -1.0727e+001 62781 73346,73320,73640
 5.3000e+000 73689 -6.3082e+001 -1.8838e+002  1.3071e+001 62781 73346,73640,73568
 5.3000e+000 74035 -8.2305e+001 -2.2236e+002 -3.8618e+000 62363 74058,73868,73842
 5.3000e+000 74012 -7.4913e+001 -2.0394e+002 -1.7491e+001 62363 74130,74058,73842
 5.3000e+000 73989 -6.8290e+001 -2.0207e+002 -1.8641e+001 62363 74130,73842,73816
 5.3000e+000 73966 -1.1003e+002 -2.3161e+002  3.0349e+000 62363 74202,73764,73894
 5.3000e+000 73943 -1.4191e+002 -2.1143e+002  3.5264e+000 62363 73712,73894,73764
 5.3000e+000 73920 -1.5303e+002 -2.2409e+002 -2.0593e+000 62363 73712,73764,73738
 5.3000e+000 74084 -8.1079e+001 -2.1883e+002 -3.1763e+000 62363 73894,73868,74058
 5.3000e+000 74107 -1.0098e+002 -2.2148e+002  1.0149e+001 62363 74202,73894,74058
 5.3000e+000 74156 -8.2974e+001 -2.0746e+002  5.7682e+000 62363 73790,74058,74130
 5.3000e+000 74179 -5.1565e+001 -1.9540e+002  6.8654e+000 62363 73790,74130,73816
 5.3000e+000 74228 -1.2004e+002 -2.3602e+002 -1.1755e+001 62363 73790,73764,74202
 5.3000e+000 74251 -1.1322e+002 -2.2519e+002 -4.7300e+000 62363 73790,74202,74058
 5.3000e+000 74403 -1.0912e+001 -2.3780e+002  1.5447e+001 62115 74426,74302,74276
 5.3000e+000 74380  3.2265e+001 -2.2891e+002  3.3110e+001 62115 74426,74276,74354
 5.3000e+000 74452 -5.1187e+001 -2.1610e+002  1.5246e+001 62115 74328,74302,74426
 5.3000e+000 74475 -1.1062e+001 -2.0875e+002  3.4074e+001 62115 74328,74426,74354
 5.3000e+000 74578 -4.4240e+000 -1.3039e+002 -1.2038e+000 61825 74500,74552,74526
 5.3000e+000 74982 -1.1608e+002 -2.0279e+002  8.0579e-001 61513 75005,74734,74708
 5.3000e+000 74959 -1.1412e+002 -1.9544e+002 -1.5106e+000 61513 75005,74708,74864
 5.3000e+000 74936 -1.4559e+002 -2.0982e+002  1.2309e+001 61513 75077,74812,74734
 5.3000e+000 74913 -1.2446e+002 -2.0376e+002 -1.7504e+001 61513 74734,74786,74760
 5.3000e+000 74890 -1.2434e+002 -1.8801e+002 -2.1340e+000 61513 74734,74812,74786
 5.3000e+000 75031 -1.1017e+002 -2.0880e+002  1.4561e+000 61513 75077,74734,75005
 5.3000e+000 75054 -8.7793e+001 -2.0104e+002  2.9534e+001 61513 74838,75005,74864
 5.3000e+000 75103 -1.6513e+002 -2.1751e+002  4.4652e+001 61513 74838,74812,75077
 5.3000e+000 75126 -1.4215e+002 -2.2518e+002  3.3824e+001 61513 74838,75077,75005
 5.3000e+000 75553 -5.8760e+001 -1.8668e+002 -7.1997e+000 61060 75576,75360,75308
 5.3000e+000 75530 -5.9515e+001 -1.9866e+002 -7.7381e+000 61060 75576,75308,75230
 5.3000e+000 75507 -5.3830e+001 -1.8007e+002 -1.4694e+000 61060 75308,75360,75334
 5.3000e+000 75484 -7.8838e+001 -2.3278e+002  1.2324e+001 61060 75230,75308,75256
 5.3000e+000 75461 -5.8590e+001 -2.1506e+002  4.0133e+000 61060 75256,75308,75282
 5.3000e+000 75438 -6.8683e+001 -1.8424e+002  2.2199e+001 61060 75360,75412,75386
 5.3000e+000 75602 -4.7532e+001 -1.9708e+002  3.6691e-001 61060 75412,75360,75576
 5.3000e+000 75625 -5.5095e+001 -2.1913e+002 -2.8248e+000 61060 75412,75576,75230
 5.3000e+000 76052 -8.8285e+001 -1.9497e+002  2.9514e+000 60442 75755,75859,75833
 5.3000e+000 76029 -1.0111e+002 -1.8438e+002 -1.3737e+001 60442 75729,75859,75755
 5.3000e+000 76006 -9.1166e+001 -1.8013e+002  1.1553e+001 60442 75755,75833,75807
 5.3000e+000 75983 -8.9761e+001 -2.1387e+002  5.4634e+000 60442 75755,75807,75781
 5.3000e+000 75960 -2.4076e+000 -3.3855e+002  1.1507e+001 60442 75729,75911,75859
 5.3000e+000 75937 -1.7320e+002 -8.3326e+002  5.2710e+001 60442 75859,75911,75885
 5.3000e+000 76430 -9.3057e+001 -2.4065e+002 -5.7984e+000 59788 76453,76286,76234
 5.3000e+000 76407 -1.0128e+002 -2.7392e+002  5.9954e+000 59788 76453,76234,76182
 5.3000e+000 76384 -1.0221e+002 -1.8456e+002  3.2075e+001 59788 76525,76156,76312
 5.3000e+000 76361 -5.9472e+001 -3.1358e+002 -1.4376e+000 59788 76182,76234,76208
 5.3000e+000 76338 -7.8780e+001 -2.2742e+002  4.6809e-001 59788 76234,76286,76260
 5.3000e+000 76479 -1.0978e+002 -2.5881e+002  4.9003e+000 59788 76312,76286,76453
 5.3000e+000 76502 -9.3762e+001 -2.4521e+002  1.4650e+001 59788 76525,76312,76453
 5.3000e+000 76551 -1.2605e+002 -2.6085e+002  3.3716e+001 59788 76182,76156,76525
 5.3000e+000 76574 -1.1190e+002 -2.7952e+002  2.1329e+001 59788 76182,76525,76453
 5.3000e+000 77031 -6.4537e+001 -1.4782e+002 -2.0135e+001 59448 76835,76887,76861
 5.3000e+000 77008 -2.7492e+001 -1.2105e+002  6.1646e+000 59448 76835,76913,76887
 5.3000e+000 76985 -3.5240e+001 -1.0226e+002  1.9342e+001 59448 76809,76913,76835
 5.3000e+000 76962 -7.0380e+001 -1.3573e+002 -1.2581e+000 59448 76757,76913,76809
 5.3000e+000 76939 -5.8184e+001 -1.2015e+002 -6.5506e+000 59448 76757,76809,76783
 5.3000e+000 77537 -9.3737e+001 -2.0375e+002  9.8640e+000 58994 77560,77344,77292
 5.3000e+000 77514 -1.3155e+002 -2.0105e+002  2.7995e+000 58994 77560,77292,77240
 5.3000e+000 77491 -7.5914e+001 -1.8873e+002 -5.2733e+000 58994 77632,77214,77370
 5.3000e+000 77468 -1.5447e+002 -2.3255e+002  3.9712e+001 58994 77292,77344,77318
 5.3000e+000 77445 -7.7225e+001 -2.4282e+002  8.3206e+000 58994 77214,77396,77370
 5.3000e+000 77422 -1.3503e+002 -2.1577e+002 -4.8368e+000 58994 77240,77292,77266
 5.3000e+000 77586 -9.8109e+001 -2.0651e+002  1.1241e+001 58994 77370,77344,77560
 5.3000e+000 77609 -9.7680e+001 -2.0193e+002  1.3322e+001 58994 77632,77370,77560
 5.3000e+000 77658 -6.4087e+001 -1.7475e+002 -2.5297e+001 58994 77240,77214,77632
 5.3000e+000 77681 -8.0121e+001 -1.7268e+002 -8.4908e+000 58994 77240,77632,77560
 5.3000e+000 78138 -8.1278e+001 -1.4309e+002  2.0527e+001 58440 77864,77994,77890
 5.3000e+000 78115 -5.2569e+001 -8.8585e+001 -1.0238e+001 58440 77864,78020,77994
 5.3000e+000 78092 -9.1833e+001 -1.6786e+002 -1.5366e+001 58440 77942,77994,77968
 5.3000e+000 78069 -7.3763e+001 -1.6067e+002  2.7959e+000 58440 77890,77994,77942
 5.3000e+000 78046 -6.5693e+001 -1.6076e+002 -2.9079e+000 58440 77890,77942,77916
 5.3000e+000 78467 -1.5779e+001 -1.8505e+002  5.4663e+000 57928 78562,78490,78346
 5.3000e+000 78444 -6.9916e+001 -1.8657e+002 -3.6478e+000 57928 78490,78294,78268
 5.3000e+000 78421 -4.3849e+000 -1.9414e+002  1.4804e+001 57928 78562,78346,78320
 5.3000e+000 78398 -2.8629e+001 -1.8124e+002  1.7109e+000 57928 78242,78372,78268
 5.3000e+000 78516 -6.1755e+001 -2.2966e+002 -1.3326e+001 57928 78372,78346,78490
 5.3000e+000 78539 -4.9812e+001 -1.7803e+002 -2.4966e+000 57928 78372,78490,78268
 5.3000e+000 78588 -6.9894e+001 -1.8380e+002 -9.7259e-003 57928 78294,78490,78562
 5.3000e+000 78611 -3.5347e+001 -1.6629e+002  1.8373e+001 57928 78294,78562,78320
 5.3000e+000 79068 -1.3858e+002 -2.9463e+002 -7.3930e+001 57467 78794,78924,78820
 5.3000e+000 79045 -1.0766e+002 -2.7997e+002 -6.8147e+001 57467 78794,78950,78924
 5.3000e+000 79022 -5.6374e+001 -2.6354e+002  2.7618e+001 57467 78820,78898,78872
 5.3000e+000 78999 -1.0021e+002 -3.6438e+002 -3.7818e+001 57467 78820,78924,78898
 5.3000e+000 78976 -4.3330e+001 -2.6828e+002  4.1980e+001 57467 78820,78872,78846
 5.3000e+000 79446 -1.1621e+002 -2.1844e+002 -1.0898e+000 57120 79172,79302,79250
 5.3000e+000 79423 -1.0506e+002 -2.1335e+002 -8.1625e+000 57120 79172,79328,79302
 5.3000e+000 79400 -1.0564e+002 -1.9159e+002 -8.4149e+000 57120 79172,79250,79198
 5.3000e+000 79377 -8.1442e+001 -2.7482e+002  9.3775e+000 57120 79250,79302,79276
 5.3000e+000 79354 -1.2801e+002 -2.0833e+002 -1.6748e+001 57120 79198,79250,79224
 5.3000e+000 79952 -1.5657e+002 -2.4853e+002  8.8829e-001 56773 79629,79785,79655
 5.3000e+000 79929 -4.3212e+001 -2.1359e+002  1.0991e+001 56773 79629,79811,79785
 5.3000e+000 79906 -1.2238e+002 -2.6827e+002  1.9059e+001 56773 79655,79733,79681
 5.3000e+000 79883 -1.1857e+002 -2.3733e+002  5.2784e+000 56773 79655,79785,79733
 5.3000e+000 79860 -1.1328e+002 -3.1425e+002 -3.5504e+001 56773 79733,79785,79759
 5.3000e+000 79837 -6.5515e+001 -2.4209e+002  4.7745e+001 56773 79681,79733,79707
 5.3000e+000 80281 -5.5599e+001 -1.8003e+002 -1.4884e+001 56319 80108,80160,80134
 5.3000e+000 80258 -5.9906e+001 -1.9611e+002 -1.8297e+001 56319 80056,80160,80108
 5.3000e+000 80235 -2.7089e+001 -1.7384e+002  1.1364e+001 56319 80056,80186,80160
 5.3000e+000 80212 -8.0046e+001 -2.4984e+002 -1.2357e+001 56319 80056,80108,80082
 5.3000e+000 80738 -2.9808e+001 -2.2056e+002  1.1193e+001 55957 80516,80620,80594
 5.3000e+000 80715 -7.8661e+001 -2.0015e+002  8.4634e+000 55957 80464,80620,80516
 5.3000e+000 80692 -6.6176e+001 -2.4137e+002  1.2529e+001 55957 80761,80568,80542
 5.3000e+000 80669 -5.4252e+001 -2.3731e+002  1.4881e+001 55957 80761,80542,80516
 5.3000e+000 80646 -7.7807e+001 -1.9764e+002  2.4681e+001 55957 80464,80516,80490
 5.3000e+000 80787 -7.7939e+001 -2.3956e+002  8.7584e+000 55957 80594,80568,80761
 5.3000e+000 80810 -6.6734e+001 -2.3581e+002  1.1242e+001 55957 80594,80761,80516
 5.3000e+000 81210 -7.2301e+001 -2.2833e+002 -1.9621e+001 55317 80936,80988,80962
 5.3000e+000 81187 -6.1959e+001 -2.4403e+002  8.6250e-001 55317 80936,81066,80988
 5.3000e+000 81164 -5.4079e+001 -2.6156e+002  6.3026e+000 55317 80936,81092,81066
 5.3000e+000 81141 -8.8431e+001 -2.6172e+002 -2.1877e+001 55317 80988,81066,81014
 5.3000e+000 81118 -2.3064e+001 -1.5368e+002  1.5661e+001 55317 81014,81066,81040
 5.3000e+000 81539 -1.0073e+002 -2.2481e+002  4.8288e+000 54913 81340,81418,81392
 5.3000e+000 81516 -4.2005e+001 -1.8249e+002 -1.4487e+001 54913 81340,81444,81418
 5.3000e+000 81493 -6.2751e+001 -1.9549e+002 -2.7927e+001 54913 81314,81444,81340
 5.3000e+000 81470 -1.1489e+002 -2.3835e+002 -8.6965e-001 54913 81340,81392,81366
 5.3000e+000 81787 -5.7251e+001 -2.3633e+002 -2.4267e+000 54601 81588,81692,81640
 5.3000e+000 81764 -8.4361e+001 -2.3881e+002 -8.1937e+000 54601 81562,81692,81588
 5.3000e+000 81741 -4.7206e+001 -2.4094e+002  3.0734e+001 54601 81588,81640,81614
 5.3000e+000 81718 -5.9104e+001 -2.8036e+002 -2.4854e+001 54601 81640,81692,81666
 5.3000e+000 82344 -8.7956e+001 -2.3868e+002 -1.1236e+001 54090 81998,82102,82076
 5.3000e+000 82321 -1.1806e+002 -2.5180e+002 -7.2401e+000 54090 81998,82154,82102
 5.3000e+000 82298 -1.0796e+002 -2.4571e+002 -4.2955e+000 54090 81972,82154,81998
 5.3000e+000 82275 -1.2248e+002 -2.2219e+002 -1.3510e+001 54090 81998,82076,82024
 5.3000e+000 82252 -1.3123e+002 -2.6175e+002  1.2345e+001 54090 81972,82180,82154
 5.3000e+000 82229 -1.6557e+002 -3.0819e+002  1.8345e+001 54090 82102,82154,82128
 5.3000e+000 82206 -2.2573e+001 -1.6896e+002 -3.4182e+001 54090 82024,82076,82050
 5.3000e+000 82722 -1.5247e+002 -2.7530e+002 -9.8536e+000 53579 82500,82578,82552
 5.3000e+000 82699 -1.1403e+002 -2.5053e+002  5.6859e+000 53579 82448,82578,82500
 5.3000e+000 82676 -1.2536e+002 -2.8345e+002  7.4453e+000 53579 82448,82500,82474
 5.3000e+000 82653 -1.4751e+002 -2.6787e+002  1.8478e+001 53579 82448,82604,82578
 5.3000e+000 82630 -8.1738e+001 -2.5597e+002 -1.0744e+001 53579 82500,82552,82526
 5.3000e+000 83356 -7.7495e+001 -1.9987e+002 -1.7797e+001 53189 83379,83088,83036
 5.3000e+000 83333 -7.4529e+001 -2.2528e+002 -1.5647e+001 53189 83379,83036,82984
 5.3000e+000 83310 -3.4097e+001 -2.1042e+002  3.3057e+001 53189 82984,83192,83166
 5.3000e+000 83287 -1.5641e+000 -1.6537e+002 -1.0073e+001 53189 83036,83088,83062
 5.3000e+000 83264 -5.6527e+001 -2.4956e+002 -3.3739e+001 53189 82984,83036,83010
 5.3000e+000 83241 -5.6990e+001 -2.5339e+002  8.2113e+000 53189 83114,83166,83140
 5.3000e+000 83218 -1.0587e+002 -2.6333e+002  4.8669e+000 53189 83088,83166,83114
 5.3000e+000 83405 -7.8310e+001 -2.1700e+002 -7.3695e+000 53189 83166,83088,83379
 5.3000e+000 83428 -7.1446e+001 -2.3939e+002 -6.8486e+000 53189 83166,83379,82984
 5.3000e+000 83725 -9.7343e+001 -2.7744e+002 -2.6121e+001 52585 83748,83529,83503
 5.3000e+000 83702 -7.2370e+001 -2.6930e+002 -1.7127e+001 52585 83820,83748,83503
 5.3000e+000 83679 -4.8514e+001 -2.6136e+002 -1.3657e+001 52585 83820,83503,83477
 5.3000e+000 83656 -3.3593e+001 -2.3704e+002  2.9063e+001 52585 83477,83607,83581
 5.3000e+000 83633  1.9031e+001 -2.1398e+002  3.2468e+001 52585 83451,83607,83477
 5.3000e+000 83774 -8.4758e+001 -2.4593e+002 -2.2804e+001 52585 83555,83529,83748
 5.3000e+000 83797 -1.1203e+002 -2.6515e+002 -1.4420e+001 52585 83555,83748,83581
 5.3000e+000 83846 -9.4941e+001 -2.5256e+002 -4.7119e+000 52585 83581,83748,83820
 5.3000e+000 83869 -7.8196e+001 -2.4929e+002 -3.9041e+000 52585 83581,83820,83477
 5.3000e+000 84200 -7.1042e+001 -2.4861e+002 -9.1868e+000 52024 84001,84105,84079
 5.3000e+000 84177 -3.7433e+001 -2.4297e+002 -1.8399e+001 52024 83975,84105,84001
 5.3000e+000 84154 -6.2205e+001 -2.4985e+002 -6.9172e+000 52024 84001,84079,84053
 5.3000e+000 84131 -3.2327e+001 -1.7141e+002  2.9923e+001 52024 84001,84053,84027
 5.3000e+000 84399 -6.2860e+001 -2.4967e+002 -1.9449e+000 51470 84422,84275,84249
 5.3000e+000 84376 -5.9223e+001 -2.4086e+002  2.5085e-001 51470 84422,84249,84223
 5.3000e+000 84353 -7.0456e+001 -2.6417e+002 -3.7392e+001 51470 84275,84327,84301
 5.3000e+000 84448 -6.6813e+001 -2.4152e+002 -2.4690e+000 51470 84327,84275,84422
 5.3000e+000 84471 -6.4413e+001 -2.3444e+002 -4.0002e-001 51470 84327,84422,84223
 5.3000e+000 84753 -7.2775e+001 -2.0643e+002 -4.6441e-001 51073 84603,84655,84629
 5.3000e+000 84730 -1.4708e+002 -2.4090e+002 -1.0149e+001 51073 84776,84655,84603
 5.3000e+000 84707 -3.4470e+001 -2.0945e+002 -5.7671e+001 51073 84577,84681,84655
 5.3000e+000 84802 -9.3777e+001 -2.1037e+002 -2.7774e+001 51073 84577,84655,84776
 5.3000e+000 85178 -1.3433e+002 -2.9769e+002  2.7208e+001 50519 85201,85008,84982
 5.3000e+000 85155 -1.2700e+002 -2.7642e+002  2.0467e+001 50519 85273,85201,84982
 5.3000e+000 85132 -1.2001e+002 -2.7616e+002  1.6033e+001 50519 85273,84982,84930
 5.3000e+000 85109 -1.1638e+002 -2.6712e+002  1.3594e+001 50519 84930,84982,84956
 5.3000e+000 85086 -1.1252e+002 -2.8024e+002  1.3946e+001 50519 85008,85060,85034
 5.3000e+000 85227 -1.1215e+002 -2.8356e+002  1.2608e+001 50519 85060,85008,85201
 5.3000e+000 85250 -1.2607e+002 -2.8490e+002  8.8244e+000 50519 85060,85201,84904
 5.3000e+000 85299 -1.1995e+002 -2.8035e+002  6.8190e+000 50519 84904,85201,85273
 5.3000e+000 85322 -9.4314e+001 -2.4690e+002 -4.6110e+000 50519 84904,85273,84930
 5.3000e+000 85958 -8.4690e+001 -2.4733e+002 -7.5567e+000 50093 85981,85768,85716
 5.3000e+000 85935 -7.5894e+001 -2.2609e+002 -7.4572e+000 50093 85981,85716,85612
 5.3000e+000 85912 -1.0416e+002 -2.3340e+002  5.1968e+000 50093 85612,85716,85664
 5.3000e+000 85889 -6.6326e+001 -2.4247e+002 -2.4459e+000 50093 85716,85768,85742
 5.3000e+000 85866 -8.6420e+001 -1.8225e+002 -4.6559e+001 50093 85664,85716,85690
 5.3000e+000 85843 -3.0870e+001 -1.7257e+002 -7.9998e+000 50093 85586,85794,85612
 5.3000e+000 85820 -6.9390e+001 -3.1615e+002  2.8855e+001 50093 85612,85664,85638
 5.3000e+000 86007 -1.0311e+002 -2.6611e+002 -3.8284e+001 50093 85794,85768,85981
 5.3000e+000 86030 -7.5454e+001 -2.0364e+002 -3.0434e+001 50093 85794,85981,85612
 5.3000e+000 86131 -8.1272e+001 -2.4329e+002  3.3392e+001 49895 86053,86105,86079
 5.3000e+000 86639 -6.5182e+001 -1.7590e+002 -3.3111e+001 49391 86662,86394,86368
 5.3000e+000 86616 -7.6271e+001 -2.1311e+002 -2.9834e+001 49391 86662,86368,86342
 5.3000e+000 86593 -4.0405e+001 -2.1179e+002 -8.5974e+000 49391 86342,86498,86472
 5.3000e+000 86570 -2.7135e+001 -2.2951e+002 -1.0001e+001 49391 86316,86498,86342
 5.3000e+000 86547 -1.1977e+002 -3.2293e+002 -1.2324e+001 49391 86394,86472,86446
 5.3000e+000 86524 -1.3655e+001 -3.0590e+002  4.0740e+000 49391 86394,86446,86420
 5.3000e+000 86688 -7.1897e+001 -2.1058e+002 -1.7030e+001 49391 86472,86394,86662
 5.3000e+000 86711 -6.5411e+001 -2.2659e+002 -1.6617e+001 49391 86472,86662,86342
 5.3000e+000 87089 -9.0052e+001 -2.4871e+002  6.5780e+000 48987 86815,86919,86867
 5.3000e+000 87066 -8.9467e+001 -2.5625e+002  1.0374e+001 48987 86815,86971,86919
 5.3000e+000 87043 -3.4866e+001 -2.7419e+002 -2.4217e+001 48987 86867,86919,86893
 5.3000e+000 87020 -1.0207e+002 -2.8164e+002  2.2403e+001 48987 86815,86867,86841
 5.3000e+000 86997 -9.9894e+001 -2.2016e+002  3.5010e+001 48987 86919,86971,86945
 5.3000e+000 87467 -1.6830e+002 -2.4856e+002  1.2309e+001 48540 87490,87245,87219
 5.3000e+000 87444 -1.2081e+002 -2.3304e+002  1.1554e+000 48540 87562,87490,87219
 5.3000e+000 87421 -9.1279e+001 -2.2112e+002  1.0132e+001 48540 87562,87219,87349
 5.3000e+000 87398 -1.2497e+002 -1.9386e+002 -1.1277e+001 48540 87245,87297,87271
 5.3000e+000 87375 -7.7238e+001 -2.3172e+002  7.4718e+000 48540 87193,87349,87219
 5.3000e+000 87516 -1.1489e+002 -2.3514e+002  4.2839e+000 48540 87297,87245,87490
 5.3000e+000 87539 -1.1659e+002 -2.3815e+002  5.0825e+000 48540 87297,87490,87323
 5.3000e+000 87588 -9.2315e+001 -2.1997e+002  2.0439e+001 48540 87323,87490,87562
 5.3000e+000 87611 -7.8046e+001 -2.2354e+002  2.6428e+001 48540 87323,87562,87349
 5.3000e+000 87810 -1.1382e+002 -4.0383e+002 -2.9339e+001 48136 87660,87712,87686
 5.3000e+000 87787 -6.3595e+001 -2.3305e+002 -1.3409e+001 48136 87660,87738,87712
 5.3000e+000 87764 -1.4945e+002 -2.4233e+002 -3.9265e+001 48136 87634,87738,87660
 5.3000e+000 88205 -1.0715e+002 -2.6357e+002 -2.3912e+001 47210 88300,88228,87937
 5.3000e+000 88182 -9.3292e+001 -2.5585e+002 -7.5318e+000 47210 88228,87833,88041
 5.3000e+000 88159 -1.0866e+002 -2.8196e+002 -3.7485e+001 47210 88300,87937,87911
 5.3000e+000 88136 -1.0447e+002 -2.5560e+002 -3.1854e+001 47210 87833,87911,87859
 5.3000e+000 88113 -1.7852e+002 -2.3218e+002 -2.0134e+001 47210 87937,87989,87963
 5.3000e+000 88090 -8.8846e+001 -2.0857e+002  4.3911e+001 47210 87989,88041,88015
 5.3000e+000 88067 -1.2192e+002 -2.9929e+002 -4.1163e+001 47210 87859,87911,87885
 5.3000e+000 88254 -9.5164e+001 -2.1742e+002 -2.4508e+001 47210 87989,87937,88228
 5.3000e+000 88277 -1.1279e+002 -2.5135e+002 -9.6922e+000 47210 87989,88228,88041
 5.3000e+000 88326 -8.8729e+001 -2.4581e+002 -9.4723e+000 47210 87833,88228,88300
 5.3000e+000 88349 -9.3209e+001 -2.5807e+002 -2.4019e+001 47210 87833,88300,87911
 5.3000e+000 88780 -1.5963e+002 -2.8226e+002 -5.3539e+001 46642 88803,88509,88483
 5.3000e+000 88757 -1.1522e+002 -2.5454e+002 -2.9176e+001 46642 88803,88483,88639
 5.3000e+000 88734 -1.2731e+002 -2.0898e+002 -3.3752e+001 46642 88875,88561,88509
 5.3000e+000 88711 -1.2883e+002 -1.9318e+002 -6.2490e+000 46642 88509,88561,88535
 5.3000e+000 88688 -7.2631e+001 -2.8485e+002  1.1720e+000 46642 88457,88639,88483
 5.3000e+000 88665 -1.4785e+002 -3.4250e+002 -1.5465e+001 46642 88561,88613,88587
 5.3000e+000 88829 -1.2858e+002 -2.2812e+002 -3.8026e+001 46642 88875,88509,88803
 5.3000e+000 88852 -1.2608e+002 -2.7443e+002 -2.4966e+001 46642 88613,88803,88639
 5.3000e+000 88901 -1.0464e+002 -2.3545e+002 -1.7675e+001 46642 88613,88561,88875
 5.3000e+000 88924 -1.1435e+002 -2.6634e+002 -2.1346e+001 46642 88613,88875,88803
 5.3000e+000 89253 -4.9825e+001 -2.5170e+002  4.6640e+000 46444 89080,89158,89132
 5.3000e+000 89230 -5.6254e+001 -2.6565e+002  1.9466e+000 46444 89028,89158,89080
 5.3000e+000 89207 -2.2105e+001 -2.3665e+002 -1.0415e+001 46444 89028,89080,89054
 5.3000e+000 89184 -2.3900e+001 -2.7256e+002 -2.1543e+001 46444 89080,89132,89106
 5.3000e+000 89631 -7.4346e+001 -1.7391e+002  5.3311e+000 46040 89383,89461,89435
 5.3000e+000 89608 -7.8617e+001 -1.9266e+002 -1.0208e+001 46040 89383,89487,89461
 5.3000e+000 89585 -8.1102e+001 -2.2337e+002 -4.9733e+000 46040 89383,89435,89409
 5.3000e+000 89562 -6.4755e+001 -1.6703e+002 -2.1119e+001 46040 89383,89513,89487
 5.3000e+000 89539 -2.6568e+001 -1.4769e+002 -3.1048e+001 46040 89357,89513,89383
 5.3000e+000 90009 -7.9398e+001 -2.2170e+002 -4.7445e-001 45636 89813,89891,89839
 5.3000e+000 89986 -8.1800e+001 -2.0701e+002  1.2698e+001 45636 89787,89891,89813
 5.3000e+000 89963 -7.2214e+001 -2.0858e+002 -5.0593e+000 45636 89839,89891,89865
 5.3000e+000 89940 -9.4094e+001 -2.3006e+002  7.6313e+000 45636 89735,89891,89787
 5.3000e+000 89917 -7.5477e+001 -2.3250e+002 -8.7839e+000 45636 89735,89787,89761
 5.3000e+000 90208 -5.0632e+001 -1.7170e+002 -3.2810e+001 45175 90231,90058,90032
 5.3000e+000 90185 -3.0185e+001 -1.5690e+002 -4.9553e+001 45175 90231,90032,90136
 5.3000e+000 90162 -6.1210e+001 -1.3767e+002 -1.3781e+000 45175 90058,90110,90084
 5.3000e+000 90257 -7.3094e+001 -1.9270e+002 -7.2413e+000 45175 90110,90058,90231
 5.3000e+000 90280 -3.4151e+001 -1.6686e+002 -2.5971e+001 45175 90110,90231,90136
 5.3000e+000 90528 -5.5748e+001 -1.7525e+002 -2.2508e+001 44513 90695,90551,90407
 5.3000e+000 90505 -5.9407e+001 -1.5870e+002 -1.1892e+001 44513 90551,90355,90329
 5.3000e+000 90482 -7.0311e+001 -1.7060e+002 -2.0581e+001 44513 90623,90303,90433
 5.3000e+000 90459 -4.4845e+001 -1.6319e+002 -1.5785e+001 44513 90695,90407,90381
 5.3000e+000 90577 -8.0279e+001 -1.8300e+002 -3.9245e+001 44513 90433,90407,90551
 5.3000e+000 90600 -6.8812e+001 -1.6740e+002 -1.9785e+001 44513 90623,90433,90551
 5.3000e+000 90649 -6.8827e+001 -1.6662e+002 -1.9795e+001 44513 90329,90303,90623
 5.3000e+000 90672 -6.9537e+001 -1.6605e+002 -1.9683e+001 44513 90329,90623,90551
 5.3000e+000 90721 -6.9996e+001 -1.5890e+002 -2.5776e+001 44513 90355,90551,90695
 5.3000e+000 90744 -6.7289e+001 -1.5260e+002 -2.3131e+001 44513 90355,90695,90381
 5.3000e+000 91077  2.1637e+000 -1.8002e+002 -1.0682e+001 44059 91100,90930,90904
 5.3000e+000 91054 -7.0612e+001 -1.9498e+002  1.0700e+001 44059 91100,90904,90982
 5.3000e+000 91031 -1.2585e+002 -2.2530e+002 -1.4919e+001 44059 90878,90982,90904
 5.3000e+000 91008 -4.1064e+001 -1.7127e+002  9.7755e+000 44059 90852,90982,90878
 5.3000e+000 91126 -1.0914e+002 -2.0925e+002 -1.2371e+001 44059 91172,91100,90956
 5.3000e+000 91149 -6.7893e+001 -1.9269e+002 -8.3031e+000 44059 90956,91100,90982
 5.3000e+000 91198  1.9766e-002 -9.9739e+001 -5.6231e+001 44059 90930,91100,91172
 5.3000e+000 91677 -8.9064e+001 -1.4066e+002  1.3294e+001 43549 91455,91533,91481
 5.3000e+000 91654 -3.4219e+001 -1.4075e+002  1.9057e+001 43549 91429,91533,91455
 5.3000e+000 91631 -8.6332e+001 -1.4158e+002  6.1949e+000 43549 91481,91533,91507
 5.3000e+000 91608 -1.7365e+001 -1.3384e+002  8.4150e+000 43549 91429,91559,91533
 5.3000e+000 91585  3.3454e+000 -3.7807e+001 -1.2861e+000 43549 91403,91559,91429
 5.3000e+000 92006 -9.3996e+001 -2.2642e+002  1.8954e+000 43059 91781,91885,91807
 5.3000e+000 91983 -9.7756e+001 -2.1361e+002  3.5940e+001 43059 91781,91911,91885
 5.3000e+000 91960 -9.1698e+001 -2.2481e+002  1.1803e+000 43059 91807,91885,91833
 5.3000e+000 91937 -6.0638e+001 -2.1258e+002 -1.8928e+000 43059 91833,91885,91859
 5.3000e+000 92561 -6.8553e+001 -1.5319e+002 -1.8051e+001 42598 92584,92215,92189
 5.3000e+000 92538 -7.5628e+001 -1.7317e+002 -1.6410e+001 42598 92656,92584,92189
 5.3000e+000 92515 -6.7976e+001 -1.9576e+002 -4.9598e+000 42598 92656,92189,92397
 5.3000e+000 92492 -9.0899e+001 -1.3703e+002 -2.1225e+001 42598 92241,92319,92293
 5.3000e+000 92469 -8.4481e+001 -1.6303e+002  9.2141e+000 42598 92319,92397,92371
 5.3000e+000 92446 -3.1416e+001 -1.9596e+002  8.3157e+001 42598 92319,92371,92345
 5.3000e+000 92423 -8.8590e+001 -1.4107e+002 -3.0156e+001 42598 92241,92293,92267
 5.3000e+000 92610 -7.4406e+001 -1.5492e+002 -1.7186e+001 42598 92241,92215,92584
 5.3000e+000 92633 -6.8149e+001 -1.4083e+002 -2.0900e+001 42598 92241,92584,92319
 5.3000e+000 92682 -6.9066e+001 -1.4292e+002 -1.1900e+001 42598 92319,92584,92656
 5.3000e+000 92705 -5.6041e+001 -1.5838e+002 -3.4404e+000 42598 92319,92656,92397
 5.3000e+000 92953 -9.4943e+001 -2.4343e+002  1.3865e+001 42094 92976,92806,92780
 5.3000e+000 92930 -1.0488e+002 -2.2990e+002  1.2552e+000 42094 92976,92780,92754
 5.3000e+000 92907 -2.7786e+001 -2.3581e+002 -2.3858e-001 42094 93048,92832,92806
 5.3000e+000 92884 -1.3316e+002 -2.3222e+002 -1.4131e+001 42094 92728,92858,92754
 5.3000e+000 93002 -6.3494e+001 -2.2612e+002  7.1397e+000 42094 93048,92806,92976
 5.3000e+000 93025 -9.7256e+001 -2.2565e+002 -2.6735e+000 42094 92858,92976,92754
 5.3000e+000 93074 -7.7576e+001 -2.5400e+002 -1.2142e+000 42094 92858,92832,93048
 5.3000e+000 93097 -1.0670e+002 -2.4026e+002  3.0807e+000 42094 92858,93048,92976
 5.3000e+000 93605 -9.6859e+001 -2.7651e+002 -1.0389e+001 41846 93628,93412,93386
 5.3000e+000 93582 -7.4571e+001 -2.0919e+002 -2.0451e+000 41846 93628,93386,93308
 5.3000e+000 93559 -1.1053e+002 -2.1746e+002 -4.5567e+001 41846 93700,93464,93438
 5.3000e+000 93536 -1.0616e+002 -2.9065e+002  3.1192e+000 41846 93308,93386,93334
 5.3000e+000 93513 -1.3464e+002 -2.0567e+002 -3.6897e+001 41846 93334,93386,93360
 5.3000e+000 93490 -1.0389e+002 -1.9149e+002 -4.5347e+001 41846 93282,93464,93308
 5.3000e+000 93654 -8.5912e+001 -2.2212e+002 -2.0347e+001 41846 93438,93412,93628
 5.3000e+000 93677 -1.1234e+002 -2.2287e+002 -2.0402e+001 41846 93700,93438,93628
 5.3000e+000 93726 -9.8700e+001 -1.8652e+002 -4.3324e+001 41846 93308,93464,93700
 5.3000e+000 93749 -9.6233e+001 -1.8207e+002 -1.8509e+001 41846 93308,93700,93628
 5.3000e+000 94255 -8.3391e+001 -2.3198e+002  1.4981e+001 41385 93958,94114,94088
 5.3000e+000 94232 -7.2147e+001 -2.4869e+002  6.7694e+000 41385 93932,94114,93958
 5.3000e+000 94209 -1.3634e+002 -2.6741e+002  4.3297e+001 41385 93958,94088,94062
 5.3000e+000 94186 -1.4267e+002 -1.9519e+002  3.2414e+001 41385 93958,94062,93984
 5.3000e+000 94163 -1.2130e+002 -1.9156e+002  2.8176e+001 41385 93984,94062,94036
 5.3000e+000 94140 -8.2211e+001 -2.5720e+002  4.0316e+001 41385 93984,94036,94010
 5.3000e+000 94476 -3.1094e+001 -3.1260e+002  1.6992e+001 40881 94326,94378,94352
 5.3000e+000 94453 -5.3671e+001 -2.5572e+002  2.0584e+001 40881 94300,94378,94326
 5.3000e+000 94430 -6.9446e+001 -2.3748e+002  2.6272e+000 40881 94300,94404,94378
 5.3000e+000 94626 -6.3918e+001 -1.7760e+002 -2.7905e+000 40591 94649,94551,94525
 5.3000e+000 94603 -3.6340e+001 -1.0728e+002  3.0956e+000 40591 94781,94577,94551
 5.3000e+000 94675 -2.1005e+001 -1.2680e+002 -2.2153e+001 40591 94781,94551,94649
 5.3000e+000 94807  2.6553e+000 -7.0921e+001  2.4176e+001 40591 94499,94577,94781
 5.3000e+000 94830  7.7216e+000 -1.0896e+002 -2.6357e+000 40591 94499,94781,94649
 5.3000e+000 95336 -1.6443e+002 -2.1455e+002 -3.4258e+001 40187 95013,95169,95039
 5.3000e+000 95313 -4.0492e+001 -1.9360e+002  3.7114e+000 40187 95013,95195,95169
 5.3000e+000 95290 -2.8571e+001 -2.0971e+002 -2.4583e+001 40187 95039,95143,95065
 5.3000e+000 95267 -1.2057e+002 -2.4644e+002 -3.6063e+001 40187 95039,95169,95143
 5.3000e+000 95244 -4.7074e+001 -1.7181e+002 -1.6692e+001 40187 95091,95143,95117
 5.3000e+000 95221 -1.5080e+001 -1.0784e+002 -6.2062e+000 40187 95065,95143,95091
 5.3000e+000 95665 -5.7761e+001 -1.5748e+002  7.3285e+001 39626 95466,95570,95544
 5.3000e+000 95642 -1.1131e+002 -1.2606e+002  4.7554e+001 39626 95440,95570,95466
 5.3000e+000 95619 -1.7483e+002 -2.1259e+002  4.7599e+001 39626 95466,95544,95492
 5.3000e+000 95596 -3.2573e+001 -1.6373e+002  7.2336e+001 39626 95492,95544,95518
 5.3000e+000 95913 -9.1220e+001 -1.9611e+002 -2.7796e+001 39136 96080,95936,95766
 5.3000e+000 95890 -6.3063e+001 -2.1075e+002 -1.7277e+001 39136 95936,95714,95688
 5.3000e+000 95867 -1.5742e+002 -2.1075e+002  9.0185e+000 39136 96008,95792,95766
 5.3000e+000 95844 -7.5585e+001 -1.9053e+002 -2.0681e+001 39136 96080,95766,95740
 5.3000e+000 95962 -1.2517e+002 -2.1774e+002 -1.7699e+001 39136 96008,95766,95936
 5.3000e+000 95985 -8.1872e+001 -2.5651e+002 -4.1420e+000 39136 95818,95936,95688
 5.3000e+000 96034 -7.9666e+001 -1.7702e+002  1.3231e+001 39136 95818,95792,96008
 5.3000e+000 96057 -7.1169e+001 -1.9365e+002 -1.3015e+001 39136 95818,96008,95936
 5.3000e+000 96106 -8.3296e+001 -1.9369e+002 -6.9167e+000 39136 95714,95936,96080
 5.3000e+000 96129 -5.8936e+001 -1.8714e+002 -1.3413e+000 39136 95714,96080,95740
 5.3000e+000 96350 -6.4833e+001 -1.6458e+002 -9.6526e+000 38824 96200,96278,96252
 5.3000e+000 96327 -5.4125e+001 -1.5956e+002 -8.2160e+000 38824 96174,96278,96200
 5.3000e+000 96304 -1.0192e+001 -1.4298e+002 -2.9576e+001 38824 96200,96252,96226
 5.3000e+000 96830 -9.3912e+001 -1.7213e+002 -1.3469e+001 38320 97069,96536,96484
 5.3000e+000 96807 -9.2085e+001 -1.7454e+002 -1.3365e+001 38320 97069,96484,96853
 5.3000e+000 96784 -1.0413e+002 -1.8783e+002  1.9706e+000 38320 96853,96484,96458
 5.3000e+000 96761 -5.7782e+001 -1.5001e+002 -1.9567e+001 38320 96925,96640,96614
 5.3000e+000 96738 -9.0037e+001 -1.5577e+002 -8.8405e+000 38320 96997,96666,96640
 5.3000e+000 96715 -7.6851e+001 -2.0267e+002 -6.0996e+000 38320 97141,96588,96562
 5.3000e+000 96692 -1.1757e+002 -1.9821e+002 -2.9922e+000 38320 96484,96536,96510
 5.3000e+000 96879 -9.2673e+001 -1.8492e+002 -8.2942e+000 38320 97141,96562,96853
 5.3000e+000 96902 -8.6134e+001 -1.8070e+002 -7.7407e+000 38320 96925,96614,96853
 5.3000e+000 96951 -8.8134e+001 -1.5415e+002 -9.9924e+000 38320 96997,96640,96925
 5.3000e+000 96974 -8.3526e+001 -1.5237e+002 -6.6494e+000 38320 96458,96925,96853
 5.3000e+000 97023 -9.8720e+001 -1.5785e+002 -4.2686e+000 38320 96458,96666,96997
 5.3000e+000 97046 -9.1898e+001 -1.5434e+002 -5.5675e+000 38320 96458,96997,96925
 5.3000e+000 97095 -9.5662e+001 -1.6405e+002 -4.0045e+000 38320 96562,96536,97069
 5.3000e+000 97118 -8.8295e+001 -1.7276e+002 -1.1770e+001 38320 96562,97069,96853
 5.3000e+000 97167 -4.8896e+001 -1.8644e+002 -1.3607e+001 38320 96614,96588,97141
 5.3000e+000 97190 -7.5067e+001 -1.7617e+002 -1.3707e+001 38320 96614,97141,96853
 5.3000e+000 97519 -7.3412e+001 -2.2599e+002  6.1148e+001 37766 97542,97398,97372
 5.3000e+000 97496 -8.7678e+001 -1.7694e+002  4.3076e+001 37766 97542,97372,97346
 5.3000e+000 97473 -8.6990e+001 -1.8588e+002  3.5453e+000 37766 97294,97424,97346
 5.3000e+000 97450 -9.7778e+001 -2.1788e+002 -7.6137e-002 37766 97294,97346,97320
 5.3000e+000 97568 -3.8345e+001 -2.3745e+002  2.0607e+001 37766 97424,97398,97542
 5.3000e+000 97591 -6.1110e+001 -1.8107e+002  5.6877e+000 37766 97424,97542,97346
 5.3000e+000 98048 -9.3192e+001 -1.3667e+002 -4.3505e+001 37262 98071,97878,97852
 5.3000e+000 98025 -7.9029e+001 -1.6319e+002 -1.7330e+001 37262 98071,97852,97800
 5.3000e+000 98002 -8.7652e+001 -1.9791e+002 -1.9412e+001 37262 97800,97852,97826
 5.3000e+000 97979 -8.9281e+001 -1.7540e+002  3.3572e+000 37262 97800,97930,97904
 5.3000e+000 97956 -5.9864e+001 -2.0824e+002  1.2324e+001 37262 97774,97930,97800
 5.3000e+000 98097 -1.3232e+002 -1.5567e+002 -3.1140e+001 37262 97904,97878,98071
 5.3000e+000 98120 -1.0037e+002 -1.8438e+002 -7.2336e+000 37262 97904,98071,97800
 5.3000e+000 98449 -5.3600e+001 -1.3945e+002 -1.6040e+001 36950 98472,98302,98250
 5.3000e+000 98426 -3.3641e+001 -1.3368e+002 -1.9578e+001 36950 98472,98250,98354
 5.3000e+000 98403 -8.1171e+001 -1.5514e+002  1.7588e+001 36950 98250,98302,98276
 5.3000e+000 98380 -2.1296e+001 -1.0609e+002  1.0905e+001 36950 98224,98354,98250
 5.3000e+000 98498 -3.8831e+001 -1.5492e+002 -4.3556e+000 36950 98328,98302,98472
 5.3000e+000 98521 -1.5681e+001 -1.4630e+002 -1.1232e+001 36950 98328,98472,98354
 5.3000e+000 99125 -1.0034e+002 -1.0010e+002  8.7039e+000 36296 98704,98756,98730
 5.3000e+000 99102 -1.0349e+002 -1.1310e+002  1.0506e+001 36296 98704,98938,98756
 5.3000e+000 99079 -7.4793e+001 -1.4142e+002 -3.1181e+000 36296 99148,98938,98912
 5.3000e+000 99056 -7.9300e+001 -1.4598e+002  3.2854e+001 36296 99292,99220,98782
 5.3000e+000 99033 -6.5489e+001 -1.6338e+002  4.0975e+000 36296 99148,98912,98834
 5.3000e+000 99010 -7.6035e+001 -1.2529e+002  3.6740e+001 36296 99292,98782,98756
 5.3000e+000 98987 -6.2931e+001 -2.8678e+002 -5.2409e+001 36296 98834,98912,98886
 5.3000e+000 98964 -1.0584e+002 -4.1339e+002 -6.7362e+001 36296 98834,98886,98860
 5.3000e+000 99174 -9.2070e+001 -1.7434e+002  5.5624e+000 36296 99220,98938,99148
 5.3000e+000 99197 -6.3901e+001 -1.9816e+002  2.1069e+001 36296 98808,99148,98834
 5.3000e+000 99246 -7.8309e+001 -1.4310e+002  7.9738e+001 36296 98808,98782,99220
 5.3000e+000 99269 -3.3437e+001 -1.2818e+002  2.6018e+001 36296 98808,99220,99148
 5.3000e+000 99318 -8.6304e+001 -1.2656e+002  1.8959e+001 36296 98938,99220,99292
 5.3000e+000 99341 -8.8030e+001 -1.2959e+002  2.2585e+001 36296 98938,99292,98756
 5.3000e+000 99719 -1.0912e+002 -2.2466e+002  9.2056e-001 35742 99742,99471,99601
 5.3000e+000 99696 -1.1116e+002 -1.7881e+002  2.1480e+001 35742 99445,99601,99471
 5.3000e+000 99673 -1.0431e+002 -2.1366e+002 -8.2908e+000 35742 99742,99601,99575
 5.3000e+000 99650 -9.1559e+001 -2.6303e+002 -6.6369e+000 35742 99814,99549,99523
 5.3000e+000 99627 -7.4440e+001 -2.0615e+002 -2.4028e-001 35742 99471,99523,99497
 5.3000e+000 99768 -8.7680e+001 -2.1976e+002  5.3525e+000 35742 99523,99471,99742
 5.3000e+000 99791 -1.0290e+002 -2.4350e+002 -5.5704e+000 35742 99814,99523,99742
 5.3000e+000 99840 -9.0429e+001 -2.3861e+002 -1.4077e+001 35742 99575,99549,99814
 5.3000e+000 99863 -9.7454e+001 -2.1307e+002 -1.2316e+001 35742 99575,99814,99742
 5.3000e+000 100111 -8.3997e+001 -1.8321e+002  1.3676e+001 35302 100134,99990,99938
 5.3000e+000 100088 -7.1022e+001 -1.6773e+002  5.4700e+000 35302 100134,99938,99912
 5.3000e+000 100065 -7.1342e+001 -1.6714e+002 -3.1048e+000 35302 100206,99886,100016
 5.3000e+000 100042 -1.0635e+002 -1.7367e+002  8.9702e+000 35302 99938,99990,99964
 5.3000e+000 100160 -6.7536e+001 -1.7703e+002  3.6133e+000 35302 100016,99990,100134
 5.3000e+000 100183 -6.8297e+001 -1.6982e+002 -3.0522e+000 35302 100206,100016,100134
 5.3000e+000 100232 -7.3690e+001 -1.7031e+002 -1.0370e+000 35302 99912,99886,100206
 5.3000e+000 100255 -7.0924e+001 -1.7374e+002 -1.1188e+000 35302 99912,100206,100134
 5.3000e+000 100586 -1.0225e+002 -1.1519e+002  3.1633e+001 35012 100609,100387,100361
 5.3000e+000 100563 -1.2435e+002 -8.3665e+001 -2.3381e+001 35012 100609,100361,100465
 5.3000e+000 100540 -5.6449e+001 -5.9229e+001 -5.3600e+001 35012 100361,100491,100465
 5.3000e+000 100517 -1.9682e+001 -6.7046e+001 -5.2398e+001 35012 100413,100465,100439
 5.3000e+000 100635 -4.6455e+001 -9.0641e+001  1.2327e+001 35012 100413,100387,100609
 5.3000e+000 100658 -6.6609e+001 -5.0769e+001 -4.4128e+001 35012 100413,100609,100465
 5.3000e+000 100987 -8.3128e+001 -1.8851e+002  1.6734e+001 34700 100788,100866,100814
 5.3000e+000 100964 -6.8384e+001 -1.4782e+002  2.8418e+001 34700 101010,100866,100788
 5.3000e+000 100941 -4.4758e+001 -1.0292e+002  2.8703e+001 34700 100762,100892,100866
 5.3000e+000 100918 -7.6404e+001 -1.7140e+002  1.2359e+001 34700 100814,100866,100840
 5.3000e+000 101036 -4.5309e+001 -1.2858e+002  4.7319e+001 34700 100762,100866,101010
 5.3000e+000 101493 -1.1293e+002 -2.1044e+002 -1.7283e+001 34132 101516,101349,101297
 5.3000e+000 101470 -1.3384e+002 -2.5156e+002 -2.8161e+001 34132 101588,101516,101297
 5.3000e+000 101447 -1.3440e+002 -2.6471e+002 -4.1912e+001 34132 101588,101297,101245
 5.3000e+000 101424 -8.3743e+001 -3.0836e+002 -3.9238e+001 34132 101245,101297,101271
 5.3000e+000 101401 -1.2584e+002 -2.1105e+002 -2.2512e+001 34132 101297,101349,101323
 5.3000e+000 101542 -1.1757e+002 -2.4254e+002 -1.3342e+001 34132 101375,101349,101516
 5.3000e+000 101565 -1.0515e+002 -2.4142e+002 -1.4016e+001 34132 101375,101516,101219
 5.3000e+000 101614 -1.0764e+002 -2.5278e+002 -1.4218e+001 34132 101219,101516,101588
 5.3000e+000 101637 -1.2100e+002 -2.6566e+002 -2.7314e+001 34132 101219,101588,101245
 5.3000e+000 101858 -3.8727e+001 -1.7131e+002  1.7412e+001 33720 101708,101786,101760
 5.3000e+000 101835 -2.2992e+001 -1.8470e+002  2.7415e+001 33720 101682,101786,101708
 5.3000e+000 101812 -5.9683e+001 -1.8194e+002  1.2752e+001 33720 101708,101760,101734
 5.3000e+000 102128 -2.8181e+001 -2.1953e+002 -5.7863e+000 33130 101903,102007,101929
 5.3000e+000 102105 -3.3965e+001 -2.5378e+002  8.3893e+000 33130 101903,102033,102007
 5.3000e+000 102082 -1.7195e+001 -2.6167e+002 -4.9892e+001 33130 101929,102007,101955
 5.3000e+000 102059 -4.2150e+001 -1.8631e+002  4.5246e+000 33130 101955,102007,101981
 5.3000e+000 102461 -6.9328e+001 -1.6638e+002 -1.5798e+001 32840 102236,102340,102262
 5.3000e+000 102438 -6.1090e+001 -1.2120e+002  3.7635e+000 32840 102236,102366,102340
 5.3000e+000 102415 -4.1902e+001 -1.5959e+002 -1.3156e+001 32840 102262,102340,102288
 5.3000e+000 102392 -8.2525e+001 -1.6841e+002 -3.5745e+001 32840 102288,102340,102314
 5.3000e+000 102997 -7.4048e+001 -1.2619e+002  3.4743e+001 32493 102749,102879,102853
 5.3000e+000 102974 -6.1376e+001 -1.0127e+002  2.5878e+001 32493 102723,102879,102749
 5.3000e+000 102951 -8.4922e+001 -1.5269e+002  2.4131e+001 32493 102749,102801,102775
 5.3000e+000 102928 -9.1983e+001 -1.5110e+002  2.2822e+001 32493 102749,102853,102801
 5.3000e+000 102905 -8.7688e+001 -1.4476e+002  1.9041e+001 32493 102801,102853,102827
 5.3000e+000 103454 -7.3978e+001 -1.3425e+002 -1.4370e+001 32089 103206,103336,103310
 5.3000e+000 103431 -5.8652e+001 -1.4529e+002 -1.7262e+000 32089 103180,103336,103206
 5.3000e+000 103408 -8.5375e+001 -1.5858e+002 -2.8541e+001 32089 103206,103284,103258
 5.3000e+000 103385 -1.1821e+002 -1.6369e+002 -3.3063e+001 32089 103206,103310,103284
 5.3000e+000 103362 -6.6744e+001 -1.1107e+002 -1.8815e+001 32089 103206,103258,103232
 5.3000e+000 103783 -1.3611e+002 -1.7829e+002 -2.0141e+001 31742 103558,103662,103584
 5.3000e+000 103760 -1.1233e+002 -1.4440e+002 -4.8873e+001 31742 103558,103688,103662
 5.3000e+000 103737 -9.1529e+001 -1.4368e+002 -3.7036e+001 31742 103584,103662,103636
 5.3000e+000 103714 -8.7026e+001 -1.6320e+002 -4.0626e+001 31742 103584,103636,103610
 5.3000e+000 104112 -2.4968e+001 -1.4181e+002  2.1607e+001 31402 103939,103991,103965
 5.3000e+000 104089 -4.3657e+001 -1.2282e+002  1.0391e+001 31402 103913,103991,103939
 5.3000e+000 104066 -6.0222e+001 -1.3996e+002  9.6775e-001 31402 103913,104017,103991
 5.3000e+000 104043 -7.3667e+001 -1.2753e+002 -8.5492e+000 31402 103887,104017,103913
 5.3000e+000 104569 -1.2622e+002 -2.2624e+002  6.3554e+000 30998 104321,104425,104373
 5.3000e+000 104546 -1.4159e+002 -2.3158e+002  5.2216e+000 30998 104321,104451,104425
 5.3000e+000 104523 -9.4761e+001 -1.8719e+002  2.7173e+001 30998 104373,104425,104399
 5.3000e+000 104500 -1.1451e+002 -2.6381e+002 -1.0549e+001 30998 104295,104451,104321
 5.3000e+000 104477 -1.6995e+002 -2.6740e+002  4.9159e+001 30998 104321,104373,104347
 5.3000e+000 104947 -1.1635e+002 -2.0011e+002 -2.2675e+001 30608 104751,104803,104777
 5.3000e+000 104924 -7.6708e+001 -2.0548e+002 -7.8793e+000 30608 104725,104803,104751
 5.3000e+000 104901 -1.2247e+002 -1.9947e+002  1.3875e+001 30608 104699,104803,104725
 5.3000e+000 104878 -1.0455e+002 -1.9152e+002  1.2283e+001 30608 104673,104803,104699
 5.3000e+000 104855 -8.0359e+001 -1.8154e+002 -6.7875e+000 30608 104673,104829,104803
 5.3000e+000 105276 -8.2478e+001 -1.8567e+002  9.1876e+000 30204 105427,105129,105077
 5.3000e+000 105253 -5.7314e+001 -2.0218e+002  4.1306e+001 30204 105427,105077,105051
 5.3000e+000 105230 -6.9921e+001 -1.7928e+002  1.1714e+001 30204 105077,105129,105103
 5.3000e+000 105207 -4.9085e+001 -1.6706e+002  2.7410e+001 30204 105299,105181,105155
 5.3000e+000 105325 -5.1755e+001 -1.6333e+002  9.4441e+000 30204 105129,105181,105299
 5.3000e+000 105453 -9.8220e+001 -1.9657e+002  2.4708e+001 30204 105181,105129,105427
 5.3000e+000 105476 -1.1392e+002 -2.3178e+002  6.1202e+001 30204 105181,105427,105051
 5.3000e+000 105903 -6.7730e+001 -1.5994e+002 -1.2021e+001 29700 105606,105762,105736
 5.3000e+000 105880 -8.6681e+001 -1.6405e+002  3.9693e-001 29700 105580,105762,105606
 5.3000e+000 105857 -1.0345e+002 -2.0106e+002 -1.1687e+001 29700 105606,105710,105632
 5.3000e+000 105834 -8.6255e+001 -1.6898e+002 -5.2013e+000 29700 105606,105736,105710
 5.3000e+000 105811 -9.7512e+001 -1.8501e+002 -1.3661e+001 29700 105632,105710,105684
 5.3000e+000 105788 -9.3625e+001 -1.7555e+002 -7.0089e+000 29700 105632,105684,105658
 5.3000e+000 106102 -2.6969e+001 -1.9140e+002  8.7775e+000 29124 105978,106030,106004
 5.3000e+000 106079 -4.8218e+001 -1.8707e+002  9.6986e+000 29124 105926,106030,105978
 5.3000e+000 106056 -5.4213e+001 -2.1350e+002  2.6962e+001 29124 105926,105978,105952
 5.3000e+000 106301 -5.4768e+001 -1.9551e+002  1.0291e+000 28712 106151,106229,106203
 5.3000e+000 106278 -6.4974e+001 -2.1619e+002 -9.5175e+000 28712 106125,106229,106151
 5.3000e+000 106255 -5.6442e+001 -2.0491e+002  1.0357e+001 28712 106151,106203,106177
 5.3000e+000 106551 -6.8986e+001 -2.4355e+002  1.1386e+001 28258 106352,106404,106378
 5.3000e+000 106528 -9.4403e+001 -2.4626e+002  2.3165e+000 28258 106352,106456,106404
 5.3000e+000 106505 -9.4488e+001 -2.5291e+002 -3.0764e-001 28258 106326,106456,106352
 5.3000e+000 106482 -8.4775e+001 -2.3094e+002 -3.4534e+000 28258 106404,106456,106430
 5.3000e+000 107012 -8.2185e+001 -2.0803e+002  4.1206e+001 27818 107035,106790,106764
 5.3000e+000 106989 -7.1700e+001 -1.9742e+002  1.5651e+001 27818 107035,106764,106868
 5.3000e+000 106966 -5.0958e+001 -2.3786e+002  2.2930e+001 27818 107107,106842,106816
 5.3000e+000 106943 -1.0752e+002 -1.8321e+002  8.4619e+000 27818 106738,106868,106764
 5.3000e+000 106920 -1.0298e+002 -1.6464e+002  2.1790e+001 27818 106738,106894,106868
 5.3000e+000 107061 -3.6670e+001 -1.9894e+002  4.6989e+001 27818 106816,106790,107035
 5.3000e+000 107084 -6.3591e+001 -2.2214e+002  2.4174e+001 27818 107107,106816,107035
 5.3000e+000 107133 -4.8747e+001 -2.1491e+002  1.1777e+001 27818 106868,106842,107107
 5.3000e+000 107156 -5.6823e+001 -1.9133e+002  1.5942e+001 27818 106868,107107,107035
 5.3000e+000 107613 -2.7527e+001 -1.5832e+002  3.3898e+001 27312 107339,107469,107365
 5.3000e+000 107590 -4.4078e+000 -1.4430e+002  2.7982e+001 27312 107339,107495,107469
 5.3000e+000 107567 -2.8595e+001 -1.5294e+002  1.6557e+001 27312 107391,107469,107443
 5.3000e+000 107544 -2.6866e+001 -1.6443e+002  1.4365e+001 27312 107365,107469,107391
 5.3000e+000 107521 -7.5607e+001 -1.6846e+002  7.5127e+000 27312 107391,107443,107417
 5.3000e+000 107991 -8.1842e+001 -2.3460e+002  9.8848e+000 26858 108086,108014,107795
 5.3000e+000 107968 -8.9937e+001 -2.4046e+002 -1.0905e+001 26858 108014,107717,107873
 5.3000e+000 107945 -9.2316e+001 -2.4610e+002  1.6352e+001 26858 108158,108086,107795
 5.3000e+000 107922 -7.4076e+001 -2.4782e+002  1.6185e+001 26858 108158,107795,107769
 5.3000e+000 107899 -6.9027e+001 -2.9245e+002  4.0823e+001 26858 107821,107873,107847
 5.3000e+000 108040 -8.6635e+001 -2.6609e+002  1.4086e+001 26858 107821,107795,108014
 5.3000e+000 108063 -5.4254e+001 -2.5091e+002  1.7884e+000 26858 107821,108014,107873
 5.3000e+000 108112 -1.0935e+002 -2.4585e+002  1.1287e+001 26858 107717,108014,108086
 5.3000e+000 108135 -9.1862e+001 -2.4886e+002  2.4970e+001 26858 107717,108086,107743
 5.3000e+000 108184 -7.1613e+001 -2.3985e+002  2.3065e+001 26858 107743,108086,108158
 5.3000e+000 108207 -6.2870e+001 -2.4838e+002  2.3349e+001 26858 107743,108158,107769
 5.3000e+000 108634 -1.0797e+002 -2.2338e+002  4.7591e+000 26404 108657,108415,108363
 5.3000e+000 108611 -1.2112e+002 -2.4021e+002  2.5928e+001 26404 108657,108363,108337
 5.3000e+000 108588 -1.0548e+002 -2.2739e+002  2.5740e+001 26404 108729,108311,108467
 5.3000e+000 108565 -1.1530e+002 -2.6552e+002  3.9565e+000 26404 108801,108441,108415
 5.3000e+000 108542 -1.5826e+002 -2.5108e+002  3.0683e+001 26404 108311,108493,108467
 5.3000e+000 108519 -7.5166e+001 -2.2367e+002  4.9158e+000 26404 108363,108415,108389
 5.3000e+000 108683 -1.4287e+002 -2.3794e+002  7.5735e+000 26404 108801,108415,108657
 5.3000e+000 108706 -1.3617e+002 -2.3594e+002  2.0443e+001 26404 108729,108467,108657
 5.3000e+000 108755 -8.5559e+001 -2.4030e+002  2.5707e+001 26404 108337,108311,108729
 5.3000e+000 108778 -1.0125e+002 -2.3802e+002  1.9909e+001 26404 108337,108729,108657
 5.3000e+000 108827 -1.4221e+002 -3.2041e+002 -1.2066e+001 26404 108467,108441,108801
 5.3000e+000 108850 -1.5682e+002 -2.7297e+002 -8.2229e+000 26404 108467,108801,108657
 5.3000e+000 109228 -1.0847e+002 -2.3221e+002 -1.0020e+001 26064 109006,109084,109058
 5.3000e+000 109205 -9.6515e+001 -2.1726e+002  4.7278e+000 26064 108980,109084,109006
 5.3000e+000 109182 -1.0458e+002 -2.0758e+002 -7.2400e+000 26064 108980,109110,109084
 5.3000e+000 109159 -1.0435e+002 -2.4349e+002 -1.1719e+000 26064 109006,109058,109032
 5.3000e+000 109136 -3.5695e+001 -1.8421e+002  7.5559e+000 26064 108954,109110,108980
 5.3000e+000 109427 -2.6737e+001 -1.9759e+002 -4.0505e+001 25660 109303,109355,109329
 5.3000e+000 109404 -5.4974e+001 -2.5449e+002 -9.7528e+000 25660 109277,109355,109303
 5.3000e+000 109381 -3.5630e+001 -2.4002e+002 -3.4386e+000 25660 109251,109355,109277
 5.3000e+000 109577 -3.7817e+001 -9.4639e+001  3.2857e+001 25306 109476,109528,109502
 5.3000e+000 109554  1.2607e+001 -8.1141e+001  2.4141e+001 25306 109450,109528,109476
 5.3000e+000 109778 -7.6439e+001 -2.0990e+002  5.9096e+000 24944 109628,109706,109654
 5.3000e+000 109755 -8.2533e+001 -2.0737e+002  1.1704e+000 24944 109602,109706,109628
 5.3000e+000 109732 -6.7495e+001 -1.9791e+002 -2.3262e+000 24944 109654,109706,109680
 5.3000e+000 110126 -6.9814e+001 -2.6969e+002  8.4198e+000 24440 110149,109907,109855
 5.3000e+000 110103 -6.5276e+001 -2.8456e+002  1.7040e+001 24440 110149,109855,109985
 5.3000e+000 110080 -5.5143e+001 -2.3358e+002  5.1035e+000 24440 109855,109907,109881
 5.3000e+000 110057 -5.6653e+001 -2.2153e+002  7.4840e+001 24440 109829,109985,109855
 5.3000e+000 110034 -6.3202e+001 -2.6966e+002  1.7517e+000 24440 109907,109959,109933
 5.3000e+000 110011 -2.7766e+001 -2.2636e+002  4.9038e+000 24440 109803,109985,109829
 5.3000e+000 110175 -6.6547e+001 -2.5717e+002  6.5990e+000 24440 109959,109907,110149
 5.3000e+000 110198 -6.1628e+001 -2.6958e+002  1.6733e+001 24440 109959,110149,109985
 5.3000e+000 110301 -5.3932e+000 -1.4089e+002  2.3046e+000 24028 110223,110275,110249
 5.3000e+000 110573 -3.4002e+001 -1.6025e+002  1.2975e+001 23467 110400,110452,110426
 5.3000e+000 110550 -5.7093e+001 -1.9001e+002  9.3641e-001 23467 110374,110452,110400
 5.3000e+000 110527 -6.0328e+001 -1.9134e+002  3.6419e+000 23467 110348,110452,110374
 5.3000e+000 110504 -4.3863e+001 -1.8421e+002 -9.6797e-001 23467 110348,110478,110452
 5.3000e+000 111004 -1.2587e+002 -2.7748e+002 -3.0952e+001 22963 111027,110733,110707
 5.3000e+000 110981 -1.2516e+002 -2.6273e+002  1.3884e+001 22963 111027,110707,110681
 5.3000e+000 110958 -6.0259e+001 -2.2962e+002 -2.8339e+001 22963 111099,110759,110733
 5.3000e+000 110935 -8.1312e+001 -2.2662e+002 -1.8382e+001 22963 111171,110863,110811
 5.3000e+000 110912 -3.7541e+001 -1.6654e+002 -3.2339e+001 22963 110759,110811,110785
 5.3000e+000 110889 -9.1477e+001 -2.4399e+002 -1.3679e+001 22963 110811,110863,110837
 5.3000e+000 111053 -9.0731e+001 -2.5070e+002 -1.6974e+001 22963 111099,110733,111027
 5.3000e+000 111076 -7.6443e+001 -2.4473e+002 -1.5132e+001 22963 111171,110811,111027
 5.3000e+000 111125 -5.8890e+001 -2.2504e+002 -4.4758e+001 22963 110811,110759,111099
 5.3000e+000 111148 -6.3703e+001 -2.2231e+002 -3.7813e+001 22963 110811,111099,111027
 5.3000e+000 111197 -8.1631e+001 -1.9792e+002 -2.2574e+001 22963 110681,110863,111171
 5.3000e+000 111220 -8.3591e+001 -2.1909e+002 -1.1332e+001 22963 110681,111171,111027
 5.3000e+000 111726 -1.2385e+002 -2.4079e+002  4.5506e+000 22459 111749,111507,111429
 5.3000e+000 111703 -1.1244e+002 -2.3703e+002 -5.3237e+000 22459 111749,111429,111585
 5.3000e+000 111680 -9.5467e+001 -2.6170e+002 -2.9475e+000 22459 111403,111585,111429
 5.3000e+000 111657 -1.1838e+002 -2.6411e+002  1.0883e+001 22459 111507,111559,111533
 5.3000e+000 111634 -1.5920e+002 -2.2862e+002  1.4397e+001 22459 111455,111507,111481
 5.3000e+000 111611 -1.7410e+002 -2.3119e+002  2.1512e+001 22459 111429,111507,111455
 5.3000e+000 111775 -1.2339e+002 -2.5606e+002  1.4813e+001 22459 111559,111507,111749
 5.3000e+000 111798 -1.1210e+002 -2.4479e+002  5.0704e+000 22459 111559,111749,111585
 5.3000e+000 112046 -5.5562e+001 -2.0397e+002 -2.6205e+001 21898 112069,111925,111873
 5.3000e+000 112023 -5.3153e+001 -2.0501e+002 -5.9951e+000 21898 112069,111873,111847
 5.3000e+000 112000 -7.1201e+001 -2.1098e+002 -1.1249e+001 21898 111821,111951,111847
 5.3000e+000 111977 -6.2467e+001 -1.5904e+002 -1.6196e+001 21898 111873,111925,111899
 5.3000e+000 112095 -8.4165e+001 -2.1435e+002 -3.0605e+001 21898 111951,111925,112069
 5.3000e+000 112118 -6.9882e+001 -2.1087e+002 -1.1174e+001 21898 111951,112069,111847
 5.3000e+000 112498 -9.3578e+001 -2.2187e+002 -1.8381e+001 21608 112521,112276,112224
 5.3000e+000 112475 -6.1566e+001 -2.2390e+002 -1.0059e+000 21608 112521,112224,112380
 5.3000e+000 112452 -6.6231e+001 -2.6075e+002  1.5384e+001 21608 112302,112380,112354
 5.3000e+000 112429 -1.1204e+002 -2.5360e+002 -1.0451e+001 21608 112224,112276,112250
 5.3000e+000 112406  3.9063e+001 -2.7946e+002 -1.1872e+001 21608 112302,112354,112328
 5.3000e+000 112547 -6.7553e+001 -1.9591e+002 -2.9292e+000 21608 112302,112276,112521
 5.3000e+000 112570 -4.5252e+001 -2.1738e+002  8.9126e+000 21608 112302,112521,112380
 5.3000e+000 112948 -1.0941e+002 -2.3034e+002 -3.9302e+000 20882 112971,112752,112700
 5.3000e+000 112925 -8.4365e+001 -2.2190e+002 -8.9880e+000 20882 112971,112700,112830
 5.3000e+000 112902 -1.3924e+002 -2.4876e+002  1.4952e+001 20882 112778,112830,112804
 5.3000e+000 112879 -7.7637e+001 -1.7832e+002 -1.2483e+001 20882 112674,112830,112700
 5.3000e+000 112856 -1.3322e+002 -2.4161e+002  4.5233e+000 20882 112700,112752,112726
 5.3000e+000 112997 -1.1015e+002 -2.3022e+002  9.9710e+000 20882 112778,112752,112971
 5.3000e+000 113020 -9.5870e+001 -2.2614e+002  4.3629e+000 20882 112778,112971,112830
 5.3000e+000 113526 -7.7165e+001 -2.2977e+002  1.7627e+000 20428 113255,113385,113333
 5.3000e+000 113503 -8.3970e+001 -2.5097e+002  1.8145e+000 20428 113229,113385,113255
 5.3000e+000 113480 -9.3293e+000 -2.2414e+002  2.9975e+000 20428 113255,113333,113281
 5.3000e+000 113457 -7.1737e+001 -2.4444e+002  4.5103e+000 20428 113203,113385,113229
 5.3000e+000 113434 -3.9510e+001 -2.3410e+002 -6.8242e+000 20428 113281,113333,113307
 5.3000e+000 113411 -9.5810e+001 -2.2632e+002  6.3757e+000 20428 113333,113385,113359
 5.3000e+000 113774 -1.5015e+001 -2.2248e+002  9.1258e+000 19917 113797,113601,113549
 5.3000e+000 113751 -3.8229e+001 -2.2648e+002  1.1834e+001 19917 113869,113797,113549
 5.3000e+000 113728 -3.6606e+001 -2.2911e+002  2.2038e+001 19917 113869,113549,113679
 5.3000e+000 113705 -2.2148e+001 -2.2025e+002  1.8856e+001 19917 113549,113601,113575
 5.3000e+000 113823 -3.9032e+001 -2.6952e+002 -6.0253e-001 19917 113627,113601,113797
 5.3000e+000 113846 -1.6567e+001 -2.1205e+002 -4.7972e+000 19917 113627,113797,113653
 5.3000e+000 113895 -3.3025e+001 -2.0182e+002  3.9180e+000 19917 113653,113797,113869
 5.3000e+000 113918 -4.1429e+001 -2.0843e+002  1.6956e+001 19917 113653,113869,113679
 5.3000e+000 114166 -1.0250e+002 -2.3125e+002 -4.2679e+000 19413 113993,114045,114019
 5.3000e+000 114143 -9.4861e+001 -2.1510e+002  1.4291e+000 19413 113967,114045,113993
 5.3000e+000 114120 -8.0365e+001 -2.1023e+002  1.2456e+001 19413 113967,114071,114045
 5.3000e+000 114097 -6.3780e+001 -2.3957e+002 -4.3852e+000 19413 113941,114071,113967
 5.3000e+000 114438 -9.5511e+001 -2.5206e+002  2.3029e+000 19001 114213,114265,114239
 5.3000e+000 114415 -6.9038e+001 -1.9653e+002 -5.7835e+000 19001 114213,114343,114265
 5.3000e+000 114392 -1.0194e+002 -2.7034e+002 -1.2137e+001 19001 114265,114343,114317
 5.3000e+000 114369  1.6740e+001 -2.1887e+002 -4.3682e+000 19001 114265,114317,114291
 5.3000e+000 114639 -7.2694e+001 -2.9904e+002  1.4039e+001 18554 114489,114541,114515
 5.3000e+000 114616 -6.2597e+001 -2.5979e+002  2.0598e+000 18554 114489,114567,114541
 5.3000e+000 114593 -1.3454e+002 -2.9449e+002 -1.9398e+001 18554 114463,114567,114489
 5.3000e+000 115043 -4.8909e+001 -2.2454e+002  8.1167e+000 18164 114795,114925,114821
 5.3000e+000 115020 -4.2728e+001 -2.3746e+002  1.3391e+001 18164 114769,114925,114795
 5.3000e+000 114997 -2.6883e+001 -2.3640e+002 -2.1271e+000 18164 115066,114873,114821
 5.3000e+000 114974 -2.4742e+001 -2.0240e+002 -7.9622e+000 18164 115066,114821,114925
 5.3000e+000 114951  1.6767e+001 -2.3647e+002 -2.3210e+001 18164 114821,114873,114847
 5.3000e+000 115092 -3.9317e+001 -2.1192e+002 -1.9989e+001 18164 114899,114873,115066
 5.3000e+000 115115 -2.3353e+001 -1.5994e+002 -2.7437e+001 18164 114899,115066,114925
 5.3000e+000 115265 -5.9574e+001 -2.4454e+002  3.4261e+000 17852 115164,115216,115190
 5.3000e+000 115242 -6.7595e+001 -2.6145e+002 -3.5501e-001 17852 115138,115216,115164
 5.3000e+000 115464 -1.5718e+002 -3.5387e+002  4.5178e+000 17346 115288,115366,115340
 5.3000e+000 115441 -2.4061e+002 -2.7380e+002 -1.1387e+001 17346 115288,115392,115366
 5.3000e+000 115418 -1.4084e+002 -3.9635e+002 -1.2260e+001 17346 115288,115340,115314
 5.3000e+000 115736 -5.8575e+001 -2.2430e+002  9.7230e+000 16942 115563,115641,115615
 5.3000e+000 115713 -6.5937e+001 -2.2337e+002  3.2997e+000 16942 115511,115641,115563
 5.3000e+000 115690 -1.5684e+002 -2.6215e+002  1.4778e+001 16942 115563,115615,115589
 5.3000e+000 115667 -7.8284e+001 -2.4375e+002  8.4746e+000 16942 115511,115563,115537
 5.3000e+000 116091 -1.1664e+002 -2.7051e+002 -1.0035e+001 16388 115918,115970,115944
 5.3000e+000 116068 -1.0045e+002 -2.1726e+002 -6.7045e+000 16388 115918,115996,115970
 5.3000e+000 116045 -1.3528e+002 -2.7491e+002  9.2559e+000 16388 115892,115996,115918
 5.3000e+000 116022 -8.7480e+001 -2.4973e+002  3.1611e+001 16388 115866,115996,115892
 5.3000e+000 116192 -3.4160e+001 -2.8213e+002 -4.0154e+001 15810 116114,116166,116140
 5.3000e+000 116342 -1.0509e+002 -3.3919e+002  1.8402e+001 15419 116241,116293,116267
 5.3000e+000 116319 -1.4980e+002 -4.1481e+002 -1.1593e+001 15419 116215,116293,116241
 5.3000e+000 116445 -1.1437e+002 -2.3246e+002  9.6922e-001 421 116367,116419,116393
 5.4000e+000 68477 -1.4725e+002 -2.1480e+002  8.1166e-001 68018 68327,68379,68353
 5.4000e+000 68454 -1.5652e+002 -2.8528e+002  2.1084e+001 68018 68301,68379,68327
 5.4000e+000 68431 -7.7400e+001 -3.1959e+002  5.1323e+001 68018 68301,68405,68379
 5.4000e+000 68578 -1.0209e+002 -2.0577e+002  1.1277e+000 67820 68500,68552,68526
 5.4000e+000 68728 -1.0932e+002 -1.9255e+002 -2.6162e+000 67508 68601,68653,68627
 5.4000e+000 68705 -1.6737e+002 -1.4933e+002 -2.7931e+001 67508 68601,68679,68653
 5.4000e+000 68927 -3.4161e+001 -1.8098e+002 -3.5765e+000 67310 68777,68829,68803
 5.4000e+000 68904 -4.7405e+001 -2.0796e+002  2.8653e+000 67310 68751,68829,68777
 5.4000e+000 68881 -3.4552e+001 -2.0897e+002  1.2691e+001 67310 68751,68855,68829
 5.4000e+000 69386 -8.6853e+001 -2.2495e+002 -1.0479e+001 67020 69216,69268,69242
 5.4000e+000 69363 -8.0302e+001 -1.7502e+002 -2.2364e+001 67020 69138,69268,69216
 5.4000e+000 69340 -5.9031e+001 -1.5757e+002 -1.3236e+001 67020 69112,69268,69138
 5.4000e+000 69317 -1.0678e+002 -1.8842e+002  1.2956e+001 67020 69138,69190,69164
 5.4000e+000 69294 -1.1072e+002 -1.7208e+002 -1.0013e+001 67020 69138,69216,69190
 5.4000e+000 69536 -1.6247e+002 -3.9772e+002 -3.1395e+001 66708 69435,69487,69461
 5.4000e+000 69513 -1.1910e+002 -4.4671e+002 -4.7829e+000 66708 69409,69487,69435
 5.4000e+000 69735 -1.0498e+002 -2.1048e+002  4.8823e+000 66346 69585,69637,69611
 5.4000e+000 69712 -8.7015e+001 -1.9963e+002 -1.0518e+000 66346 69559,69637,69585
 5.4000e+000 69689 -7.9396e+001 -1.9900e+002 -2.0086e+001 66346 69559,69663,69637
 5.4000e+000 69985 -1.5041e+002 -2.4959e+002  2.9478e+000 66148 69786,69890,69864
 5.4000e+000 69962 -1.5609e+002 -2.5285e+002  4.4985e+000 66148 69760,69890,69786
 5.4000e+000 69939 -1.1088e+002 -2.3616e+002 -3.6090e+001 66148 69786,69864,69838
 5.4000e+000 69916 -1.3068e+002 -2.5336e+002 -1.2143e+001 66148 69786,69838,69812
 5.4000e+000 70137 -7.1846e+001 -2.7866e+002 -1.5813e+001 65950 70036,70088,70062
 5.4000e+000 70114 -6.1568e+001 -3.0790e+002  1.3414e+001 65950 70010,70088,70036
 5.4000e+000 70470 -5.3247e+001 -2.0633e+002  1.5694e+001 65546 70245,70323,70271
 5.4000e+000 70447 -3.6666e+001 -1.7854e+002  7.3888e+000 65546 70245,70375,70323
 5.4000e+000 70424 -4.8985e+001 -2.3281e+002  8.0138e+000 65546 70323,70375,70349
 5.4000e+000 70401 -4.2140e+001 -1.8988e+002  6.4161e+000 65546 70271,70323,70297
 5.4000e+000 70620 -9.5193e+001 -2.4046e+002  8.0175e+000 65348 70493,70545,70519
 5.4000e+000 70597 -7.0178e+001 -2.5261e+002  9.6309e+000 65348 70493,70571,70545
 5.4000e+000 70721 -1.3929e+002 -3.0123e+002 -1.8647e+001 65150 70643,70695,70669
 5.4000e+000 71020 -8.7313e+001 -1.8701e+002  1.6296e+001 64952 71043,70850,70824
 5.4000e+000 70997 -7.5023e+001 -1.7915e+002 -2.3212e+000 64952 71043,70824,70772
 5.4000e+000 70974 -7.7730e+001 -2.2929e+002  5.7413e+000 64952 71115,70746,70876
 5.4000e+000 70951 -6.5475e+001 -2.3264e+002 -1.5108e+000 64952 70746,70902,70876
 5.4000e+000 70928 -8.4842e+001 -1.5884e+002 -1.5897e+001 64952 70772,70824,70798
 5.4000e+000 71069 -4.3125e+001 -1.5889e+002  4.0826e+001 64952 70876,70850,71043
 5.4000e+000 71092 -6.4545e+001 -2.1300e+002  1.1483e+001 64952 71115,70876,71043
 5.4000e+000 71141 -1.0475e+002 -2.0895e+002 -1.1836e+001 64952 70772,70746,71115
 5.4000e+000 71164 -8.9462e+001 -1.8554e+002 -4.8761e+000 64952 70772,71115,71043
 5.4000e+000 71365 -4.6716e+001 -2.6233e+002 -8.2562e+000 64662 71215,71293,71267
 5.4000e+000 71342 -3.6711e+001 -1.8964e+002  8.7962e+000 64662 71189,71293,71215
 5.4000e+000 71319 -2.2198e+000 -1.5910e+002  3.0546e-001 64662 71215,71267,71241
 5.4000e+000 71615 -6.2912e+001 -2.1503e+002 -3.3207e+000 64350 71710,71638,71468
 5.4000e+000 71592 -7.3233e+001 -2.1153e+002 -7.5261e+000 64350 71638,71416,71390
 5.4000e+000 71569 -6.7283e+001 -2.0064e+002  8.7770e+000 64350 71710,71468,71442
 5.4000e+000 71546  3.0404e+001 -2.0592e+002 -3.2144e+001 64350 71390,71520,71494
 5.4000e+000 71664 -5.9244e+001 -2.1425e+002 -7.3542e-001 64350 71494,71468,71638
 5.4000e+000 71687 -5.9020e+001 -2.1955e+002 -6.7965e-002 64350 71494,71638,71390
 5.4000e+000 71736 -5.6762e+001 -1.8585e+002  2.9436e-001 64350 71416,71638,71710
 5.4000e+000 71759 -5.6342e+001 -1.7156e+002  1.5799e+001 64350 71416,71710,71442
 5.4000e+000 72318 -6.5770e+001 -3.4134e+002 -1.4505e+001 63837 71972,72024,71998
 5.4000e+000 72295 -9.5847e+001 -2.2020e+002 -1.6904e+000 63837 72341,71972,71946
 5.4000e+000 72272 -8.7239e+001 -1.7741e+002  7.8210e+000 63837 72413,72341,71946
 5.4000e+000 72249 -8.2022e+001 -1.6126e+002  2.6221e+000 63837 72413,71946,72128
 5.4000e+000 72226 -1.2227e+002 -1.9456e+002  9.8391e-001 63837 72024,72076,72050
 5.4000e+000 72203 -1.0790e+002 -1.7876e+002 -7.2268e+000 63837 72024,72102,72076
 5.4000e+000 72180 -5.9325e+001 -1.5359e+002  1.1804e+001 63837 71946,72154,72128
 5.4000e+000 72367 -1.1499e+002 -2.3597e+002 -4.1959e+001 63837 72024,71972,72341
 5.4000e+000 72390 -9.0040e+001 -1.9245e+002 -1.6449e+001 63837 72024,72341,72102
 5.4000e+000 72439 -7.0685e+001 -2.0379e+002  2.6986e+000 63837 72102,72341,72413
 5.4000e+000 72462 -6.6135e+001 -1.8731e+002 -6.3718e-001 63837 72102,72413,72128
 5.4000e+000 72791 -1.0874e+002 -2.0642e+002 -2.1671e+001 63383 72592,72696,72670
 5.4000e+000 72768 -1.1100e+002 -1.9370e+002 -3.7128e+001 63383 72566,72696,72592
 5.4000e+000 72745 -1.0475e+002 -1.8058e+002 -1.5687e+000 63383 72592,72670,72618
 5.4000e+000 72722 -1.0068e+002 -1.6794e+002 -3.3623e+000 63383 72618,72670,72644
 5.4000e+000 73297 -1.2667e+002 -1.8087e+002 -1.4617e+000 63185 73000,73156,73130
 5.4000e+000 73274 -1.2668e+002 -1.8678e+002  2.2719e+001 63185 72974,73156,73000
 5.4000e+000 73251 -9.4052e+001 -2.1158e+002 -3.6859e+000 63185 73000,73052,73026
 5.4000e+000 73228 -1.0408e+002 -1.8733e+002 -1.0177e+001 63185 73000,73130,73052
 5.4000e+000 73205 -1.0364e+002 -2.1166e+002 -3.2484e+001 63185 73052,73130,73104
 5.4000e+000 73182 -9.6734e+001 -2.3188e+002 -3.3900e+001 63185 73052,73104,73078
 5.4000e+000 73545 -5.7870e+001 -1.9919e+002  5.2774e+000 62781 73568,73398,73372
 5.4000e+000 73522 -3.0316e+001 -1.8270e+002  2.4452e+001 62781 73568,73372,73346
 5.4000e+000 73499 -7.9185e+001 -2.2755e+002 -2.6066e+001 62781 73640,73320,73424
 5.4000e+000 73476 -7.8554e+001 -1.4386e+002 -4.5601e+001 62781 73320,73450,73424
 5.4000e+000 73594 -6.5813e+001 -1.8854e+002  4.9547e+000 62781 73424,73398,73568
 5.4000e+000 73617 -6.9831e+001 -2.1608e+002 -1.4338e+000 62781 73640,73424,73568
 5.4000e+000 73666 -6.5714e+001 -1.9936e+002 -1.0015e+001 62781 73346,73320,73640
 5.4000e+000 73689 -5.9125e+001 -1.7804e+002  1.2444e+001 62781 73346,73640,73568
 5.4000e+000 74035 -7.7992e+001 -2.0858e+002 -3.7952e+000 62363 74058,73868,73842
 5.4000e+000 74012 -7.0801e+001 -1.9126e+002 -1.6557e+001 62363 74130,74058,73842
 5.4000e+000 73989 -6.4625e+001 -1.8944e+002 -1.7507e+001 62363 74130,73842,73816
 5.4000e+000 73966 -1.0328e+002 -2.1707e+002  2.7684e+000 62363 74202,73764,73894
 5.4000e+000 73943 -1.3323e+002 -1.9795e+002  3.2732e+000 62363 73712,73894,73764
 5.4000e+000 73920 -1.4393e+002 -2.1008e+002 -2.1054e+000 62363 73712,73764,73738
 5.4000e+000 74084 -7.6602e+001 -2.0577e+002 -3.1101e+000 62363 73894,73868,74058
 5.4000e+000 74107 -9.4965e+001 -2.0769e+002  9.2694e+000 62363 74202,73894,74058
 5.4000e+000 74156 -7.8245e+001 -1.9429e+002  5.1961e+000 62363 73790,74058,74130
 5.4000e+000 74179 -4.8857e+001 -1.8287e+002  6.3770e+000 62363 73790,74130,73816
 5.4000e+000 74228 -1.1233e+002 -2.2106e+002 -1.0933e+001 62363 73790,73764,74202
 5.4000e+000 74251 -1.0606e+002 -2.1102e+002 -4.5193e+000 62363 73790,74202,74058
 5.4000e+000 74403 -1.0775e+001 -2.2261e+002  1.4414e+001 62115 74426,74302,74276
 5.4000e+000 74380  2.9270e+001 -2.1434e+002  3.0796e+001 62115 74426,74276,74354
 5.4000e+000 74452 -4.8114e+001 -2.0249e+002  1.4225e+001 62115 74328,74302,74426
 5.4000e+000 74475 -1.0929e+001 -1.9565e+002  3.1684e+001 62115 74328,74426,74354
 5.4000e+000 74578 -4.1211e+000 -1.2223e+002 -1.2323e+000 61825 74500,74552,74526
 5.4000e+000 74982 -1.0917e+002 -1.9078e+002  8.8957e-001 61513 75005,74734,74708
 5.4000e+000 74959 -1.0777e+002 -1.8394e+002 -1.2141e+000 61513 75005,74708,74864
 5.4000e+000 74936 -1.3733e+002 -1.9706e+002  1.1811e+001 61513 75077,74812,74734
 5.4000e+000 74913 -1.1668e+002 -1.9045e+002 -1.6120e+001 61513 74734,74786,74760
 5.4000e+000 74890 -1.1650e+002 -1.7594e+002 -2.0972e+000 61513 74734,74812,74786
 5.4000e+000 75031 -1.0390e+002 -1.9621e+002  1.4607e+000 61513 75077,74734,75005
 5.4000e+000 75054 -8.3133e+001 -1.8914e+002  2.7828e+001 61513 74838,75005,74864
 5.4000e+000 75103 -1.5584e+002 -2.0449e+002  4.2323e+001 61513 74838,74812,75077
 5.4000e+000 75126 -1.3418e+002 -2.1188e+002  3.2010e+001 61513 74838,75077,75005
 5.4000e+000 75553 -5.5953e+001 -1.7620e+002 -6.4020e+000 61060 75576,75360,75308
 5.4000e+000 75530 -5.6399e+001 -1.8744e+002 -6.7989e+000 61060 75576,75308,75230
 5.4000e+000 75507 -5.1433e+001 -1.7066e+002 -1.7674e+000 61060 75308,75360,75334
 5.4000e+000 75484 -7.4357e+001 -2.1917e+002  1.1794e+001 61060 75230,75308,75256
 5.4000e+000 75461 -5.7089e+001 -2.0433e+002  4.8633e+000 61060 75256,75308,75282
 5.4000e+000 75438 -6.4373e+001 -1.7090e+002  2.0601e+001 61060 75360,75412,75386
 5.4000e+000 75602 -4.5896e+001 -1.8580e+002  5.4649e-001 61060 75412,75360,75576
 5.4000e+000 75625 -5.2556e+001 -2.0624e+002 -2.2559e+000 61060 75412,75576,75230
 5.4000e+000 76052 -8.3210e+001 -1.8289e+002  2.6337e+000 60442 75755,75859,75833
 5.4000e+000 76029 -9.5250e+001 -1.7304e+002 -1.2923e+001 60442 75729,75859,75755
 5.4000e+000 76006 -8.5750e+001 -1.6874e+002  1.0624e+001 60442 75755,75833,75807
 5.4000e+000 75983 -8.5723e+001 -2.0068e+002  4.5807e+000 60442 75755,75807,75781
 5.4000e+000 75960 -3.7945e+000 -3.1965e+002  1.1291e+001 60442 75729,75911,75859
 5.4000e+000 75937 -1.6438e+002 -7.8595e+002  5.0514e+001 60442 75859,75911,75885
 5.4000e+000 76430 -8.7854e+001 -2.2746e+002 -5.2977e+000 59788 76453,76286,76234
 5.4000e+000 76407 -9.5653e+001 -2.5901e+002  5.8969e+000 59788 76453,76234,76182
 5.4000e+000 76384 -9.6736e+001 -1.7454e+002  3.0483e+001 59788 76525,76156,76312
 5.4000e+000 76361 -5.6013e+001 -2.9717e+002 -1.0838e+000 59788 76182,76234,76208
 5.4000e+000 76338 -7.4218e+001 -2.1469e+002  7.6434e-001 59788 76234,76286,76260
 5.4000e+000 76479 -1.0361e+002 -2.4467e+002  4.8578e+000 59788 76312,76286,76453
 5.4000e+000 76502 -8.8517e+001 -2.3182e+002  1.4044e+001 59788 76525,76312,76453
 5.4000e+000 76551 -1.1913e+002 -2.4668e+002  3.2173e+001 59788 76182,76156,76525
 5.4000e+000 76574 -1.0579e+002 -2.6435e+002  2.0452e+001 59788 76182,76525,76453
 5.4000e+000 77031 -6.0620e+001 -1.3988e+002 -1.8741e+001 59448 76835,76887,76861
 5.4000e+000 77008 -2.5633e+001 -1.1419e+002  5.9660e+000 59448 76835,76913,76887
 5.4000e+000 76985 -3.2946e+001 -9.5983e+001  1.8549e+001 59448 76809,76913,76835
 5.4000e+000 76962 -6.6434e+001 -1.2784e+002 -1.0897e+000 59448 76757,76913,76809
 5.4000e+000 76939 -5.5110e+001 -1.1327e+002 -6.0083e+000 59448 76757,76809,76783
 5.4000e+000 77537 -8.7669e+001 -1.9151e+002  8.9588e+000 58994 77560,77344,77292
 5.4000e+000 77514 -1.2312e+002 -1.8805e+002  2.5153e+000 58994 77560,77292,77240
 5.4000e+000 77491 -7.1050e+001 -1.7538e+002 -4.1316e+000 58994 77632,77214,77370
 5.4000e+000 77468 -1.4375e+002 -2.1814e+002  3.6996e+001 58994 77292,77344,77318
 5.4000e+000 77445 -7.2572e+001 -2.2586e+002  8.6126e+000 58994 77214,77396,77370
 5.4000e+000 77422 -1.2659e+002 -2.0234e+002 -4.6316e+000 58994 77240,77292,77266
 5.4000e+000 77586 -9.2110e+001 -1.9303e+002  1.0060e+001 58994 77370,77344,77560
 5.4000e+000 77609 -9.1410e+001 -1.8757e+002  1.2539e+001 58994 77632,77370,77560
 5.4000e+000 77658 -6.0133e+001 -1.6290e+002 -2.3149e+001 58994 77240,77214,77632
 5.4000e+000 77681 -7.5435e+001 -1.6143e+002 -8.1457e+000 58994 77240,77632,77560
 5.4000e+000 78138 -7.6972e+001 -1.3507e+002  1.8576e+001 58440 77864,77994,77890
 5.4000e+000 78115 -5.1252e+001 -8.5231e+001 -9.6264e+000 58440 77864,78020,77994
 5.4000e+000 78092 -8.6726e+001 -1.5778e+002 -1.4339e+001 58440 77942,77994,77968
 5.4000e+000 78069 -6.9571e+001 -1.5056e+002  2.7393e+000 58440 77890,77994,77942
 5.4000e+000 78046 -6.2427e+001 -1.5154e+002 -2.4652e+000 58440 77890,77942,77916
 5.4000e+000 78467 -1.5594e+001 -1.7459e+002  4.7027e+000 57928 78562,78490,78346
 5.4000e+000 78444 -6.6251e+001 -1.7559e+002 -3.6383e+000 57928 78490,78294,78268
 5.4000e+000 78421 -4.7821e+000 -1.8352e+002  1.3610e+001 57928 78562,78346,78320
 5.4000e+000 78398 -2.7041e+001 -1.7052e+002  1.0061e+000 57928 78242,78372,78268
 5.4000e+000 78516 -5.8693e+001 -2.1704e+002 -1.3150e+001 57928 78372,78346,78490
 5.4000e+000 78539 -4.7141e+001 -1.6779e+002 -3.0429e+000 57928 78372,78490,78268
 5.4000e+000 78588 -6.6550e+001 -1.7377e+002 -2.4529e-001 57928 78294,78490,78562
 5.4000e+000 78611 -3.4076e+001 -1.5794e+002  1.7100e+001 57928 78294,78562,78320
 5.4000e+000 79068 -1.3068e+002 -2.7796e+002 -6.9556e+001 57467 78794,78924,78820
 5.4000e+000 79045 -1.0091e+002 -2.6396e+002 -6.4392e+001 57467 78794,78950,78924
 5.4000e+000 79022 -5.2953e+001 -2.4934e+002  2.6707e+001 57467 78820,78898,78872
 5.4000e+000 78999 -9.4411e+001 -3.4485e+002 -3.5242e+001 57467 78820,78924,78898
 5.4000e+000 78976 -4.0591e+001 -2.5383e+002  4.0314e+001 57467 78820,78872,78846
 5.4000e+000 79446 -1.0948e+002 -2.0544e+002 -1.3230e+000 57120 79172,79302,79250
 5.4000e+000 79423 -9.9148e+001 -2.0073e+002 -7.8457e+000 57120 79172,79328,79302
 5.4000e+000 79400 -9.9876e+001 -1.7993e+002 -8.1886e+000 57120 79172,79250,79198
 5.4000e+000 79377 -7.6598e+001 -2.5783e+002  8.6108e+000 57120 79250,79302,79276
 5.4000e+000 79354 -1.2074e+002 -1.9462e+002 -1.5202e+001 57120 79198,79250,79224
 5.4000e+000 79952 -1.4682e+002 -2.3369e+002  7.2434e-001 56773 79629,79785,79655
 5.4000e+000 79929 -4.1038e+001 -2.0101e+002  1.0065e+001 56773 79629,79811,79785
 5.4000e+000 79906 -1.1395e+002 -2.5232e+002  1.7268e+001 56773 79655,79733,79681
 5.4000e+000 79883 -1.1132e+002 -2.2382e+002  4.5554e+000 56773 79655,79785,79733
 5.4000e+000 79860 -1.0661e+002 -2.9678e+002 -3.3721e+001 56773 79733,79785,79759
 5.4000e+000 79837 -6.2255e+001 -2.2841e+002  4.4994e+001 56773 79681,79733,79707
 5.4000e+000 80281 -5.2519e+001 -1.6914e+002 -1.3646e+001 56319 80108,80160,80134
 5.4000e+000 80258 -5.7072e+001 -1.8500e+002 -1.7092e+001 56319 80056,80160,80108
 5.4000e+000 80235 -2.5876e+001 -1.6414e+002  1.0032e+001 56319 80056,80186,80160
 5.4000e+000 80212 -7.4934e+001 -2.3459e+002 -1.2059e+001 56319 80056,80108,80082
 5.4000e+000 80738 -2.8269e+001 -2.0781e+002  1.0477e+001 55957 80516,80620,80594
 5.4000e+000 80715 -7.4600e+001 -1.8913e+002  7.7203e+000 55957 80464,80620,80516
 5.4000e+000 80692 -6.2137e+001 -2.2758e+002  1.1501e+001 55957 80761,80568,80542
 5.4000e+000 80669 -5.1489e+001 -2.2364e+002  1.3701e+001 55957 80761,80542,80516
 5.4000e+000 80646 -7.3590e+001 -1.8627e+002  2.3076e+001 55957 80464,80516,80490
 5.4000e+000 80787 -7.2808e+001 -2.2582e+002  7.9879e+000 55957 80594,80568,80761
 5.4000e+000 80810 -6.2788e+001 -2.2215e+002  1.0297e+001 55957 80594,80761,80516
 5.4000e+000 81210 -6.8010e+001 -2.1594e+002 -1.8539e+001 55317 80936,80988,80962
 5.4000e+000 81187 -5.8115e+001 -2.3061e+002  8.8124e-001 55317 80936,81066,80988
 5.4000e+000 81164 -5.0313e+001 -2.4716e+002  5.9941e+000 55317 80936,81092,81066
 5.4000e+000 81141 -8.3324e+001 -2.4743e+002 -2.0648e+001 55317 80988,81066,81014
 5.4000e+000 81118 -2.0815e+001 -1.4474e+002  1.5077e+001 55317 81014,81066,81040
 5.4000e+000 81539 -9.5115e+001 -2.1118e+002  4.4699e+000 54913 81340,81418,81392
 5.4000e+000 81516 -3.9415e+001 -1.7096e+002 -1.3872e+001 54913 81340,81444,81418
 5.4000e+000 81493 -5.8346e+001 -1.8293e+002 -2.6479e+001 54913 81314,81444,81340
 5.4000e+000 81470 -1.0796e+002 -2.2323e+002 -6.7548e-001 54913 81340,81392,81366
 5.4000e+000 81787 -5.4434e+001 -2.2279e+002 -2.2691e+000 54601 81588,81692,81640
 5.4000e+000 81764 -8.0194e+001 -2.2525e+002 -7.7684e+000 54601 81562,81692,81588
 5.4000e+000 81741 -4.5400e+001 -2.2716e+002  2.8303e+001 54601 81588,81640,81614
 5.4000e+000 81718 -5.5873e+001 -2.6457e+002 -2.4032e+001 54601 81640,81692,81666
 5.4000e+000 82344 -8.2597e+001 -2.2365e+002 -1.0429e+001 54090 81998,82102,82076
 5.4000e+000 82321 -1.1034e+002 -2.3572e+002 -6.9833e+000 54090 81998,82154,82102
 5.4000e+000 82298 -1.0057e+002 -2.2951e+002 -4.0424e+000 54090 81972,82154,81998
 5.4000e+000 82275 -1.1553e+002 -2.0893e+002 -1.2278e+001 54090 81998,82076,82024
 5.4000e+000 82252 -1.2283e+002 -2.4449e+002  1.0915e+001 54090 81972,82180,82154
 5.4000e+000 82229 -1.5553e+002 -2.8924e+002  1.7382e+001 54090 82102,82154,82128
 5.4000e+000 82206 -2.2427e+001 -1.5917e+002 -3.1735e+001 54090 82024,82076,82050
 5.4000e+000 82722 -1.4337e+002 -2.5912e+002 -9.1754e+000 53579 82500,82578,82552
 5.4000e+000 82699 -1.0754e+002 -2.3532e+002  5.3451e+000 53579 82448,82578,82500
 5.4000e+000 82676 -1.1800e+002 -2.6545e+002  7.0329e+000 53579 82448,82500,82474
 5.4000e+000 82653 -1.3890e+002 -2.5157e+002  1.7326e+001 53579 82448,82604,82578
 5.4000e+000 82630 -7.5436e+001 -2.4093e+002 -1.0337e+001 53579 82500,82552,82526
 5.4000e+000 83356 -7.2837e+001 -1.8825e+002 -1.6842e+001 53189 83379,83088,83036
 5.4000e+000 83333 -7.0022e+001 -2.1255e+002 -1.4795e+001 53189 83379,83036,82984
 5.4000e+000 83310 -3.1743e+001 -1.9854e+002  3.1655e+001 53189 82984,83192,83166
 5.4000e+000 83287 -1.3937e+000 -1.5585e+002 -9.6768e+000 53189 83036,83088,83062
 5.4000e+000 83264 -5.2746e+001 -2.3544e+002 -3.2078e+001 53189 82984,83036,83010
 5.4000e+000 83241 -5.2705e+001 -2.3873e+002  7.8074e+000 53189 83114,83166,83140
 5.4000e+000 83218 -9.9774e+001 -2.4855e+002  4.7859e+000 53189 83088,83166,83114
 5.4000e+000 83405 -7.3587e+001 -2.0462e+002 -6.8729e+000 53189 83166,83088,83379
 5.4000e+000 83428 -6.7048e+001 -2.2602e+002 -6.3825e+000 53189 83166,83379,82984
 5.4000e+000 83725 -9.1512e+001 -2.6024e+002 -2.4734e+001 52585 83748,83529,83503
 5.4000e+000 83702 -6.7859e+001 -2.5250e+002 -1.6337e+001 52585 83820,83748,83503
 5.4000e+000 83679 -4.5276e+001 -2.4470e+002 -1.2932e+001 52585 83820,83503,83477
 5.4000e+000 83656 -3.2805e+001 -2.2186e+002  2.6822e+001 52585 83477,83607,83581
 5.4000e+000 83633  1.5427e+001 -2.0058e+002  3.0376e+001 52585 83451,83607,83477
 5.4000e+000 83774 -7.9824e+001 -2.3081e+002 -2.1348e+001 52585 83555,83529,83748
 5.4000e+000 83797 -1.0537e+002 -2.4841e+002 -1.3679e+001 52585 83555,83748,83581
 5.4000e+000 83846 -8.9216e+001 -2.3619e+002 -4.5558e+000 52585 83581,83748,83820
 5.4000e+000 83869 -7.3452e+001 -2.3291e+002 -3.6893e+000 52585 83581,83820,83477
 5.4000e+000 84200 -6.7290e+001 -2.3369e+002 -8.6216e+000 52024 84001,84105,84079
 5.4000e+000 84177 -3.5506e+001 -2.2822e+002 -1.7157e+001 52024 83975,84105,84001
 5.4000e+000 84154 -5.8193e+001 -2.3462e+002 -6.5232e+000 52024 84001,84079,84053
 5.4000e+000 84131 -2.9162e+001 -1.5877e+002  2.7819e+001 52024 84001,84053,84027
 5.4000e+000 84399 -5.9493e+001 -2.3427e+002 -1.7480e+000 51470 84422,84275,84249
 5.4000e+000 84376 -5.6584e+001 -2.2624e+002  1.4898e-001 51470 84422,84249,84223
 5.4000e+000 84353 -6.6988e+001 -2.5008e+002 -3.4749e+001 51470 84275,84327,84301
 5.4000e+000 84448 -6.2718e+001 -2.2700e+002 -2.2833e+000 51470 84327,84275,84422
 5.4000e+000 84471 -6.0954e+001 -2.2054e+002 -4.6613e-001 51470 84327,84422,84223
 5.4000e+000 84753 -6.7781e+001 -1.9366e+002 -5.7137e-001 51073 84603,84655,84629
 5.4000e+000 84730 -1.3802e+002 -2.2582e+002 -9.2896e+000 51073 84776,84655,84603
 5.4000e+000 84707 -3.3013e+001 -1.9659e+002 -5.3838e+001 51073 84577,84681,84655
 5.4000e+000 84802 -8.7904e+001 -1.9697e+002 -2.6121e+001 51073 84577,84655,84776
 5.4000e+000 85178 -1.2653e+002 -2.8049e+002  2.5237e+001 50519 85201,85008,84982
 5.4000e+000 85155 -1.1962e+002 -2.6063e+002  1.9170e+001 50519 85273,85201,84982
 5.4000e+000 85132 -1.1319e+002 -2.6031e+002  1.5101e+001 50519 85273,84982,84930
 5.4000e+000 85109 -1.0954e+002 -2.5099e+002  1.2606e+001 50519 84930,84982,84956
 5.4000e+000 85086 -1.0645e+002 -2.6503e+002  1.2170e+001 50519 85008,85060,85034
 5.4000e+000 85227 -1.0654e+002 -2.6757e+002  1.1496e+001 50519 85060,85008,85201
 5.4000e+000 85250 -1.1895e+002 -2.6865e+002  8.1392e+000 50519 85060,85201,84904
 5.4000e+000 85299 -1.1322e+002 -2.6444e+002  6.2859e+000 50519 84904,85201,85273
 5.4000e+000 85322 -8.9319e+001 -2.3286e+002 -4.3413e+000 50519 84904,85273,84930
 5.4000e+000 85958 -7.9712e+001 -2.3348e+002 -7.0720e+000 50093 85981,85768,85716
 5.4000e+000 85935 -7.1355e+001 -2.1336e+002 -6.9120e+000 50093 85981,85716,85612
 5.4000e+000 85912 -9.8295e+001 -2.2018e+002  5.1523e+000 50093 85612,85716,85664
 5.4000e+000 85889 -6.2276e+001 -2.2814e+002 -2.1006e+000 50093 85716,85768,85742
 5.4000e+000 85866 -8.1573e+001 -1.7182e+002 -4.3820e+001 50093 85664,85716,85690
 5.4000e+000 85843 -2.9119e+001 -1.6263e+002 -7.1871e+000 50093 85586,85794,85612
 5.4000e+000 85820 -6.5618e+001 -2.9783e+002  2.7398e+001 50093 85612,85664,85638
 5.4000e+000 86007 -9.7314e+001 -2.5133e+002 -3.6214e+001 50093 85794,85768,85981
 5.4000e+000 86030 -7.0999e+001 -1.9208e+002 -2.8698e+001 50093 85794,85981,85612
 5.4000e+000 86131 -7.5209e+001 -2.2538e+002  3.1233e+001 49895 86053,86105,86079
 5.4000e+000 86639 -6.1360e+001 -1.6550e+002 -3.1373e+001 49391 86662,86394,86368
 5.4000e+000 86616 -7.1960e+001 -2.0075e+002 -2.8385e+001 49391 86662,86368,86342
 5.4000e+000 86593 -3.7483e+001 -1.9941e+002 -8.1679e+000 49391 86342,86498,86472
 5.4000e+000 86570 -2.4835e+001 -2.1608e+002 -9.4586e+000 49391 86316,86498,86342
 5.4000e+000 86547 -1.1248e+002 -3.0407e+002 -1.1681e+001 49391 86394,86472,86446
 5.4000e+000 86524 -1.3163e+001 -2.8802e+002  3.7090e+000 49391 86394,86446,86420
 5.4000e+000 86688 -6.7448e+001 -1.9840e+002 -1.6116e+001 49391 86472,86394,86662
 5.4000e+000 86711 -6.1502e+001 -2.1357e+002 -1.5788e+001 49391 86472,86662,86342
 5.4000e+000 87089 -8.5360e+001 -2.3453e+002  6.2885e+000 48987 86815,86919,86867
 5.4000e+000 87066 -8.5070e+001 -2.4100e+002  9.5306e+000 48987 86815,86971,86919
 5.4000e+000 87043 -3.3003e+001 -2.5827e+002 -2.2589e+001 48987 86867,86919,86893
 5.4000e+000 87020 -9.6932e+001 -2.6617e+002  2.1292e+001 48987 86815,86867,86841
 5.4000e+000 86997 -9.4431e+001 -2.0667e+002  3.2373e+001 48987 86919,86971,86945
 5.4000e+000 87467 -1.5917e+002 -2.3441e+002  1.2238e+001 48540 87490,87245,87219
 5.4000e+000 87444 -1.1357e+002 -2.1918e+002  1.4480e+000 48540 87562,87490,87219
 5.4000e+000 87421 -8.6292e+001 -2.0815e+002  9.4684e+000 48540 87562,87219,87349
 5.4000e+000 87398 -1.1706e+002 -1.8219e+002 -1.0391e+001 48540 87245,87297,87271
 5.4000e+000 87375 -7.2762e+001 -2.1852e+002  6.8456e+000 48540 87193,87349,87219
 5.4000e+000 87516 -1.0808e+002 -2.2162e+002  4.5070e+000 48540 87297,87245,87490
 5.4000e+000 87539 -1.0945e+002 -2.2454e+002  4.8734e+000 48540 87297,87490,87323
 5.4000e+000 87588 -8.7300e+001 -2.0769e+002  1.9348e+001 48540 87323,87490,87562
 5.4000e+000 87611 -7.4048e+001 -2.1069e+002  2.4666e+001 48540 87323,87562,87349
 5.4000e+000 87810 -1.0709e+002 -3.7799e+002 -2.7352e+001 48136 87660,87712,87686
 5.4000e+000 87787 -5.9083e+001 -2.1559e+002 -1.2502e+001 48136 87660,87738,87712
 5.4000e+000 87764 -1.3751e+002 -2.2359e+002 -3.6721e+001 48136 87634,87738,87660
 5.4000e+000 88205 -1.0104e+002 -2.4840e+002 -2.2702e+001 47210 88300,88228,87937
 5.4000e+000 88182 -8.7983e+001 -2.4056e+002 -6.8445e+000 47210 88228,87833,88041
 5.4000e+000 88159 -1.0277e+002 -2.6650e+002 -3.5520e+001 47210 88300,87937,87911
 5.4000e+000 88136 -9.8566e+001 -2.4168e+002 -2.9422e+001 47210 87833,87911,87859
 5.4000e+000 88113 -1.6836e+002 -2.1841e+002 -1.9730e+001 47210 87937,87989,87963
 5.4000e+000 88090 -8.4564e+001 -1.9692e+002  4.1368e+001 47210 87989,88041,88015
 5.4000e+000 88067 -1.1410e+002 -2.8106e+002 -3.9299e+001 47210 87859,87911,87885
 5.4000e+000 88254 -8.9582e+001 -2.0376e+002 -2.3379e+001 47210 87989,87937,88228
 5.4000e+000 88277 -1.0686e+002 -2.3662e+002 -9.0314e+000 47210 87989,88228,88041
 5.4000e+000 88326 -8.3901e+001 -2.3136e+002 -8.5772e+000 47210 87833,88228,88300
 5.4000e+000 88349 -8.8297e+001 -2.4331e+002 -2.2375e+001 47210 87833,88300,87911
 5.4000e+000 88780 -1.4930e+002 -2.6478e+002 -5.0192e+001 46642 88803,88509,88483
 5.4000e+000 88757 -1.0783e+002 -2.3887e+002 -2.7369e+001 46642 88803,88483,88639
 5.4000e+000 88734 -1.1924e+002 -1.9615e+002 -3.1750e+001 46642 88875,88561,88509
 5.4000e+000 88711 -1.2066e+002 -1.8109e+002 -5.5734e+000 46642 88509,88561,88535
 5.4000e+000 88688 -6.8098e+001 -2.6900e+002  1.1756e+000 46642 88457,88639,88483
 5.4000e+000 88665 -1.3726e+002 -3.1838e+002 -1.4955e+001 46642 88561,88613,88587
 5.4000e+000 88829 -1.2027e+002 -2.1410e+002 -3.5728e+001 46642 88875,88509,88803
 5.4000e+000 88852 -1.1800e+002 -2.5751e+002 -2.3435e+001 46642 88613,88803,88639
 5.4000e+000 88901 -9.8124e+001 -2.2099e+002 -1.6675e+001 46642 88613,88561,88875
 5.4000e+000 88924 -1.0713e+002 -2.4999e+002 -2.0067e+001 46642 88613,88875,88803
 5.4000e+000 89253 -4.6242e+001 -2.3548e+002  4.6189e+000 46444 89080,89158,89132
 5.4000e+000 89230 -5.2874e+001 -2.4988e+002  1.8512e+000 46444 89028,89158,89080
 5.4000e+000 89207 -2.0240e+001 -2.2196e+002 -1.0031e+001 46444 89028,89080,89054
 5.4000e+000 89184 -2.1986e+001 -2.5536e+002 -2.0239e+001 46444 89080,89132,89106
 5.4000e+000 89631 -7.0420e+001 -1.6351e+002  4.9545e+000 46040 89383,89461,89435
 5.4000e+000 89608 -7.4572e+001 -1.8138e+002 -9.5450e+000 46040 89383,89487,89461
 5.4000e+000 89585 -7.6154e+001 -2.0956e+002 -4.5175e+000 46040 89383,89435,89409
 5.4000e+000 89562 -6.0418e+001 -1.5670e+002 -2.0059e+001 46040 89383,89513,89487
 5.4000e+000 89539 -2.4744e+001 -1.3860e+002 -2.9416e+001 46040 89357,89513,89383
 5.4000e+000 90009 -7.5423e+001 -2.0890e+002 -3.1534e-001 45636 89813,89891,89839
 5.4000e+000 89986 -7.7528e+001 -1.9467e+002  1.2091e+001 45636 89787,89891,89813
 5.4000e+000 89963 -6.8655e+001 -1.9672e+002 -4.5814e+000 45636 89839,89891,89865
 5.4000e+000 89940 -8.8786e+001 -2.1680e+002  7.5082e+000 45636 89735,89891,89787
 5.4000e+000 89917 -7.0710e+001 -2.1847e+002 -8.2582e+000 45636 89735,89787,89761
 5.4000e+000 90208 -4.7203e+001 -1.6143e+002 -3.1068e+001 45175 90231,90058,90032
 5.4000e+000 90185 -2.7807e+001 -1.4738e+002 -4.6947e+001 45175 90231,90032,90136
 5.4000e+000 90162 -5.7597e+001 -1.2943e+002 -1.4046e+000 45175 90058,90110,90084
 5.4000e+000 90257 -6.8507e+001 -1.8135e+002 -6.8135e+000 45175 90110,90058,90231
 5.4000e+000 90280 -3.1576e+001 -1.5684e+002 -2.4575e+001 45175 90110,90231,90136
 5.4000e+000 90528 -5.2256e+001 -1.6465e+002 -2.1318e+001 44513 90695,90551,90407
 5.4000e+000 90505 -5.5989e+001 -1.4919e+002 -1.1597e+001 44513 90551,90355,90329
 5.4000e+000 90482 -6.5855e+001 -1.5995e+002 -1.9680e+001 44513 90623,90303,90433
 5.4000e+000 90459 -4.1887e+001 -1.5331e+002 -1.5020e+001 44513 90695,90407,90381
 5.4000e+000 90577 -7.5275e+001 -1.7191e+002 -3.7047e+001 44513 90433,90407,90551
 5.4000e+000 90600 -6.4475e+001 -1.5708e+002 -1.8956e+001 44513 90623,90433,90551
 5.4000e+000 90649 -6.4564e+001 -1.5646e+002 -1.8955e+001 44513 90329,90303,90623
 5.4000e+000 90672 -6.5171e+001 -1.5593e+002 -1.8845e+001 44513 90329,90623,90551
 5.4000e+000 90721 -6.5699e+001 -1.4925e+002 -2.4390e+001 44513 90355,90551,90695
 5.4000e+000 90744 -6.3092e+001 -1.4337e+002 -2.1922e+001 44513 90355,90695,90381
 5.4000e+000 91077  2.3751e+000 -1.6958e+002 -1.0564e+001 44059 91100,90930,90904
 5.4000e+000 91054 -6.5901e+001 -1.8325e+002  1.0014e+001 44059 91100,90904,90982
 5.4000e+000 91031 -1.1829e+002 -2.1244e+002 -1.4276e+001 44059 90878,90982,90904
 5.4000e+000 91008 -3.9357e+001 -1.6158e+002  9.2063e+000 44059 90852,90982,90878
 5.4000e+000 91126 -1.0270e+002 -1.9725e+002 -1.1686e+001 44059 91172,91100,90956
 5.4000e+000 91149 -6.3601e+001 -1.8175e+002 -7.9868e+000 44059 90956,91100,90982
 5.4000e+000 91198  1.0308e+000 -9.2152e+001 -5.3530e+001 44059 90930,91100,91172
 5.4000e+000 91677 -8.3660e+001 -1.3218e+002  1.2655e+001 43549 91455,91533,91481
 5.4000e+000 91654 -3.1760e+001 -1.3238e+002  1.8076e+001 43549 91429,91533,91455
 5.4000e+000 91631 -8.1042e+001 -1.3291e+002  5.9999e+000 43549 91481,91533,91507
 5.4000e+000 91608 -1.6375e+001 -1.2610e+002  7.9288e+000 43549 91429,91559,91533
 5.4000e+000 91585  3.1906e+000 -3.4605e+001 -1.4771e+000 43549 91403,91559,91429
 5.4000e+000 92006 -8.8887e+001 -2.1327e+002  1.9672e+000 43059 91781,91885,91807
 5.4000e+000 91983 -9.2574e+001 -2.0160e+002  3.3986e+001 43059 91781,91911,91885
 5.4000e+000 91960 -8.6462e+001 -2.1192e+002  1.4145e+000 43059 91807,91885,91833
 5.4000e+000 91937 -5.6912e+001 -2.0030e+002 -1.5695e+000 43059 91833,91885,91859
 5.4000e+000 92561 -6.4247e+001 -1.4361e+002 -1.6744e+001 42598 92584,92215,92189
 5.4000e+000 92538 -7.0664e+001 -1.6156e+002 -1.5228e+001 42598 92656,92584,92189
 5.4000e+000 92515 -6.3334e+001 -1.8242e+002 -4.6531e+000 42598 92656,92189,92397
 5.4000e+000 92492 -8.5620e+001 -1.2772e+002 -2.0042e+001 42598 92241,92319,92293
 5.4000e+000 92469 -7.8817e+001 -1.5191e+002  8.7623e+000 42598 92319,92397,92371
 5.4000e+000 92446 -2.8484e+001 -1.8311e+002  7.8879e+001 42598 92319,92371,92345
 5.4000e+000 92423 -8.3508e+001 -1.3154e+002 -2.8446e+001 42598 92241,92293,92267
 5.4000e+000 92610 -6.9755e+001 -1.4565e+002 -1.6567e+001 42598 92241,92215,92584
 5.4000e+000 92633 -6.3551e+001 -1.3161e+002 -1.9803e+001 42598 92241,92584,92319
 5.4000e+000 92682 -6.4313e+001 -1.3361e+002 -1.0961e+001 42598 92319,92584,92656
 5.4000e+000 92705 -5.2155e+001 -1.4797e+002 -3.1141e+000 42598 92319,92656,92397
 5.4000e+000 92953 -8.9603e+001 -2.2849e+002  1.3148e+001 42094 92976,92806,92780
 5.4000e+000 92930 -9.9079e+001 -2.1577e+002  1.1809e+000 42094 92976,92780,92754
 5.4000e+000 92907 -2.6748e+001 -2.2143e+002 -1.0816e-001 42094 93048,92832,92806
 5.4000e+000 92884 -1.2486e+002 -2.1862e+002 -1.3507e+001 42094 92728,92858,92754
 5.4000e+000 93002 -6.0170e+001 -2.1219e+002  6.7786e+000 42094 93048,92806,92976
 5.4000e+000 93025 -9.1443e+001 -2.1152e+002 -2.7426e+000 42094 92858,92976,92754
 5.4000e+000 93074 -7.3299e+001 -2.3855e+002 -1.1409e+000 42094 92858,92832,93048
 5.4000e+000 93097 -1.0060e+002 -2.2560e+002  2.8811e+000 42094 92858,93048,92976
 5.4000e+000 93605 -9.1106e+001 -2.5955e+002 -9.8439e+000 41846 93628,93412,93386
 5.4000e+000 93582 -7.0238e+001 -1.9618e+002 -2.0396e+000 41846 93628,93386,93308
 5.4000e+000 93559 -1.0390e+002 -2.0406e+002 -4.3292e+001 41846 93700,93464,93438
 5.4000e+000 93536 -9.9888e+001 -2.7268e+002  2.7859e+000 41846 93308,93386,93334
 5.4000e+000 93513 -1.2691e+002 -1.9166e+002 -3.5342e+001 41846 93334,93386,93360
 5.4000e+000 93490 -9.6696e+001 -1.7979e+002 -4.3225e+001 41846 93282,93464,93308
 5.4000e+000 93654 -8.0863e+001 -2.0843e+002 -1.9189e+001 41846 93438,93412,93628
 5.4000e+000 93677 -1.0575e+002 -2.0927e+002 -1.9300e+001 41846 93700,93438,93628
 5.4000e+000 93726 -9.2565e+001 -1.7457e+002 -4.1315e+001 41846 93308,93464,93700
 5.4000e+000 93749 -9.0336e+001 -1.7038e+002 -1.7658e+001 41846 93308,93700,93628
 5.4000e+000 94255 -7.8716e+001 -2.1805e+002  1.4039e+001 41385 93958,94114,94088
 5.4000e+000 94232 -6.7662e+001 -2.3377e+002  6.2930e+000 41385 93932,94114,93958
 5.4000e+000 94209 -1.2827e+002 -2.5131e+002  4.0726e+001 41385 93958,94088,94062
 5.4000e+000 94186 -1.3430e+002 -1.8329e+002  3.0504e+001 41385 93958,94062,93984
 5.4000e+000 94163 -1.1341e+002 -1.7982e+002  2.6287e+001 41385 93984,94062,94036
 5.4000e+000 94140 -7.7808e+001 -2.4137e+002  3.7789e+001 41385 93984,94036,94010
 5.4000e+000 94476 -2.9708e+001 -2.9385e+002  1.5887e+001 40881 94326,94378,94352
 5.4000e+000 94453 -5.0423e+001 -2.4032e+002  1.9399e+001 40881 94300,94378,94326
 5.4000e+000 94430 -6.6042e+001 -2.2357e+002  2.6517e+000 40881 94300,94404,94378
 5.4000e+000 94626 -5.9070e+001 -1.6693e+002 -2.9398e+000 40591 94649,94551,94525
 5.4000e+000 94603 -3.3470e+001 -1.0014e+002  2.8455e+000 40591 94781,94577,94551
 5.4000e+000 94675 -1.8809e+001 -1.1870e+002 -2.1254e+001 40591 94781,94551,94649
 5.4000e+000 94807  3.7822e+000 -6.5510e+001  2.2890e+001 40591 94499,94577,94781
 5.4000e+000 94830  8.6729e+000 -1.0168e+002 -2.7179e+000 40591 94499,94781,94649
 5.4000e+000 95336 -1.5595e+002 -2.0215e+002 -3.2846e+001 40187 95013,95169,95039
 5.4000e+000 95313 -3.8318e+001 -1.8213e+002  3.0239e+000 40187 95013,95195,95169
 5.4000e+000 95290 -2.6959e+001 -1.9713e+002 -2.3494e+001 40187 95039,95143,95065
 5.4000e+000 95267 -1.1352e+002 -2.3172e+002 -3.4238e+001 40187 95039,95169,95143
 5.4000e+000 95244 -4.1869e+001 -1.5791e+002 -1.4626e+001 40187 95091,95143,95117
 5.4000e+000 95221 -1.2889e+001 -9.8781e+001 -5.5039e+000 40187 95065,95143,95091
 5.4000e+000 95665 -5.3402e+001 -1.4675e+002  6.9659e+001 39626 95466,95570,95544
 5.4000e+000 95642 -1.0456e+002 -1.1762e+002  4.5062e+001 39626 95440,95570,95466
 5.4000e+000 95619 -1.6596e+002 -1.9965e+002  4.5514e+001 39626 95466,95544,95492
 5.4000e+000 95596 -2.9948e+001 -1.5332e+002  6.9073e+001 39626 95492,95544,95518
 5.4000e+000 95913 -8.6041e+001 -1.8448e+002 -2.6090e+001 39136 96080,95936,95766
 5.4000e+000 95890 -5.9295e+001 -1.9777e+002 -1.6130e+001 39136 95936,95714,95688
 5.4000e+000 95867 -1.4773e+002 -1.9745e+002  8.2710e+000 39136 96008,95792,95766
 5.4000e+000 95844 -7.1310e+001 -1.7925e+002 -1.9201e+001 39136 96080,95766,95740
 5.4000e+000 95962 -1.1762e+002 -2.0435e+002 -1.6772e+001 39136 96008,95766,95936
 5.4000e+000 95985 -7.7323e+001 -2.4129e+002 -3.6111e+000 39136 95818,95936,95688
 5.4000e+000 96034 -7.5027e+001 -1.6586e+002  1.2675e+001 39136 95818,95792,96008
 5.4000e+000 96057 -6.7095e+001 -1.8157e+002 -1.1975e+001 39136 95818,96008,95936
 5.4000e+000 96106 -7.8467e+001 -1.8192e+002 -6.4762e+000 39136 95714,95936,96080
 5.4000e+000 96129 -5.5587e+001 -1.7589e+002 -1.0310e+000 39136 95714,96080,95740
 5.4000e+000 96350 -6.0311e+001 -1.5452e+002 -9.2435e+000 38824 96200,96278,96252
 5.4000e+000 96327 -5.0772e+001 -1.4975e+002 -7.6668e+000 38824 96174,96278,96200
 5.4000e+000 96304 -8.7560e+000 -1.3519e+002 -2.7964e+001 38824 96200,96252,96226
 5.4000e+000 96830 -8.7727e+001 -1.6180e+002 -1.2478e+001 38320 97069,96536,96484
 5.4000e+000 96807 -8.6127e+001 -1.6400e+002 -1.2370e+001 38320 97069,96484,96853
 5.4000e+000 96784 -9.7499e+001 -1.7624e+002  1.5534e+000 38320 96853,96484,96458
 5.4000e+000 96761 -5.3728e+001 -1.4089e+002 -1.8744e+001 38320 96925,96640,96614
 5.4000e+000 96738 -8.4242e+001 -1.4614e+002 -8.7104e+000 38320 96997,96666,96640
 5.4000e+000 96715 -7.1866e+001 -1.9116e+002 -5.5637e+000 38320 97141,96588,96562
 5.4000e+000 96692 -1.1032e+002 -1.8749e+002 -2.4895e+000 38320 96484,96536,96510
 5.4000e+000 96879 -8.6699e+001 -1.7433e+002 -7.6025e+000 38320 97141,96562,96853
 5.4000e+000 96902 -8.0508e+001 -1.7011e+002 -7.5280e+000 38320 96925,96614,96853
 5.4000e+000 96951 -8.2542e+001 -1.4480e+002 -9.6084e+000 38320 96997,96640,96925
 5.4000e+000 96974 -7.8180e+001 -1.4309e+002 -6.5559e+000 38320 96458,96925,96853
 5.4000e+000 97023 -9.1972e+001 -1.4777e+002 -4.6225e+000 38320 96458,96666,96997
 5.4000e+000 97046 -8.5832e+001 -1.4472e+002 -5.6332e+000 38320 96458,96997,96925
 5.4000e+000 97095 -9.0443e+001 -1.5614e+002 -3.0307e+000 38320 96562,96536,97069
 5.4000e+000 97118 -8.2396e+001 -1.6249e+002 -1.0805e+001 38320 96562,97069,96853
 5.4000e+000 97167 -4.5728e+001 -1.7573e+002 -1.2671e+001 38320 96614,96588,97141
 5.4000e+000 97190 -7.0249e+001 -1.6589e+002 -1.2708e+001 38320 96614,97141,96853
 5.4000e+000 97519 -6.7811e+001 -2.1190e+002  5.7882e+001 37766 97542,97398,97372
 5.4000e+000 97496 -8.0900e+001 -1.6526e+002  4.1037e+001 37766 97542,97372,97346
 5.4000e+000 97473 -8.0389e+001 -1.7441e+002  3.1549e+000 37766 97294,97424,97346
 5.4000e+000 97450 -9.0004e+001 -2.0329e+002 -3.3731e-001 37766 97294,97346,97320
 5.4000e+000 97568 -3.5196e+001 -2.2317e+002  1.9216e+001 37766 97424,97398,97542
 5.4000e+000 97591 -5.6146e+001 -1.6943e+002  5.3710e+000 37766 97424,97542,97346
 5.4000e+000 98048 -8.7333e+001 -1.2867e+002 -4.0345e+001 37262 98071,97878,97852
 5.4000e+000 98025 -7.4007e+001 -1.5353e+002 -1.5746e+001 37262 98071,97852,97800
 5.4000e+000 98002 -8.0982e+001 -1.8437e+002 -1.8213e+001 37262 97800,97852,97826
 5.4000e+000 97979 -8.3544e+001 -1.6503e+002  2.8012e+000 37262 97800,97930,97904
 5.4000e+000 97956 -5.5523e+001 -1.9462e+002  1.1440e+001 37262 97774,97930,97800
 5.4000e+000 98097 -1.2426e+002 -1.4655e+002 -2.8918e+001 37262 97904,97878,98071
 5.4000e+000 98120 -9.4074e+001 -1.7320e+002 -6.3957e+000 37262 97904,98071,97800
 5.4000e+000 98449 -5.0456e+001 -1.3098e+002 -1.5080e+001 36950 98472,98302,98250
 5.4000e+000 98426 -3.1845e+001 -1.2559e+002 -1.8384e+001 36950 98472,98250,98354
 5.4000e+000 98403 -7.6459e+001 -1.4586e+002  1.6591e+001 36950 98250,98302,98276
 5.4000e+000 98380 -1.9968e+001 -9.9462e+001  1.0433e+001 36950 98224,98354,98250
 5.4000e+000 98498 -3.6683e+001 -1.4543e+002 -4.1847e+000 36950 98328,98302,98472
 5.4000e+000 98521 -1.5088e+001 -1.3737e+002 -1.0602e+001 36950 98328,98472,98354
 5.4000e+000 99125 -9.3378e+001 -9.2824e+001  8.1449e+000 36296 98704,98756,98730
 5.4000e+000 99102 -9.7851e+001 -1.0517e+002  1.0410e+001 36296 98704,98938,98756
 5.4000e+000 99079 -7.0712e+001 -1.3277e+002 -2.8471e+000 36296 99148,98938,98912
 5.4000e+000 99056 -7.4567e+001 -1.3722e+002  3.1056e+001 36296 99292,99220,98782
 5.4000e+000 99033 -6.2107e+001 -1.5390e+002  3.8944e+000 36296 99148,98912,98834
 5.4000e+000 99010 -7.1852e+001 -1.1803e+002  3.4988e+001 36296 99292,98782,98756
 5.4000e+000 98987 -5.9752e+001 -2.6915e+002 -4.8944e+001 36296 98834,98912,98886
 5.4000e+000 98964 -1.0002e+002 -3.8825e+002 -6.2994e+001 36296 98834,98886,98860
 5.4000e+000 99174 -8.7079e+001 -1.6415e+002  5.3947e+000 36296 99220,98938,99148
 5.4000e+000 99197 -6.0372e+001 -1.8664e+002  1.9873e+001 36296 98808,99148,98834
 5.4000e+000 99246 -7.3550e+001 -1.3432e+002  7.4922e+001 36296 98808,98782,99220
 5.4000e+000 99269 -3.1686e+001 -1.2082e+002  2.4583e+001 36296 98808,99220,99148
 5.4000e+000 99318 -8.1959e+001 -1.1950e+002  1.8236e+001 36296 98938,99220,99292
 5.4000e+000 99341 -8.3567e+001 -1.2227e+002  2.1814e+001 36296 98938,99292,98756
 5.4000e+000 99719 -1.0281e+002 -2.1112e+002  1.1352e+000 35742 99742,99471,99601
 5.4000e+000 99696 -1.0455e+002 -1.6797e+002  2.0488e+001 35742 99445,99601,99471
 5.4000e+000 99673 -9.8237e+001 -2.0067e+002 -7.5700e+000 35742 99742,99601,99575
 5.4000e+000 99650 -8.6188e+001 -2.4736e+002 -6.0256e+000 35742 99814,99549,99523
 5.4000e+000 99627 -7.0004e+001 -1.9414e+002 -3.4983e-002 35742 99471,99523,99497
 5.4000e+000 99768 -8.2613e+001 -2.0647e+002  5.2625e+000 35742 99523,99471,99742
 5.4000e+000 99791 -9.6966e+001 -2.2887e+002 -5.0230e+000 35742 99814,99523,99742
 5.4000e+000 99840 -8.5000e+001 -2.2428e+002 -1.3071e+001 35742 99575,99549,99814
 5.4000e+000 99863 -9.1708e+001 -2.0012e+002 -1.1420e+001 35742 99575,99814,99742
 5.4000e+000 100111 -7.9853e+001 -1.7267e+002  1.3544e+001 35302 100134,99990,99938
 5.4000e+000 100088 -6.6944e+001 -1.5701e+002  5.4714e+000 35302 100134,99938,99912
 5.4000e+000 100065 -6.7190e+001 -1.5696e+002 -3.1124e+000 35302 100206,99886,100016
 5.4000e+000 100042 -1.0040e+002 -1.6469e+002  9.1144e+000 35302 99938,99990,99964
 5.4000e+000 100160 -6.3642e+001 -1.6660e+002  3.4262e+000 35302 100016,99990,100134
 5.4000e+000 100183 -6.4336e+001 -1.5946e+002 -3.0606e+000 35302 100206,100016,100134
 5.4000e+000 100232 -6.9362e+001 -1.5992e+002 -1.1789e+000 35302 99912,99886,100206
 5.4000e+000 100255 -6.6773e+001 -1.6312e+002 -1.2539e+000 35302 99912,100206,100134
 5.4000e+000 100586 -9.6677e+001 -1.0783e+002  3.0764e+001 35012 100609,100387,100361
 5.4000e+000 100563 -1.1782e+002 -7.7339e+001 -2.1951e+001 35012 100609,100361,100465
 5.4000e+000 100540 -5.2999e+001 -5.3826e+001 -5.0843e+001 35012 100361,100491,100465
 5.4000e+000 100517 -1.7289e+001 -6.1709e+001 -5.0320e+001 35012 100413,100465,100439
 5.4000e+000 100635 -4.3298e+001 -8.4316e+001  1.1941e+001 35012 100413,100387,100609
 5.4000e+000 100658 -6.2499e+001 -4.5652e+001 -4.2148e+001 35012 100413,100609,100465
 5.4000e+000 100987 -7.8230e+001 -1.7763e+002  1.5832e+001 34700 100788,100866,100814
 5.4000e+000 100964 -6.4785e+001 -1.3899e+002  2.6836e+001 34700 101010,100866,100788
 5.4000e+000 100941 -4.1306e+001 -9.5345e+001  2.7208e+001 34700 100762,100892,100866
 5.4000e+000 100918 -7.1973e+001 -1.6181e+002  1.2085e+001 34700 100814,100866,100840
 5.4000e+000 101036 -4.2694e+001 -1.2042e+002  4.5229e+001 34700 100762,100866,101010
 5.4000e+000 101493 -1.0646e+002 -1.9795e+002 -1.5902e+001 34132 101516,101349,101297
 5.4000e+000 101470 -1.2622e+002 -2.3626e+002 -2.6117e+001 34132 101588,101516,101297
 5.4000e+000 101447 -1.2667e+002 -2.4847e+002 -3.9083e+001 34132 101588,101297,101245
 5.4000e+000 101424 -7.9430e+001 -2.8891e+002 -3.6674e+001 34132 101245,101297,101271
 5.4000e+000 101401 -1.1796e+002 -1.9828e+002 -2.0831e+001 34132 101297,101349,101323
 5.4000e+000 101542 -1.1050e+002 -2.2784e+002 -1.2328e+001 34132 101375,101349,101516
 5.4000e+000 101565 -9.9256e+001 -2.2690e+002 -1.2977e+001 34132 101375,101516,101219
 5.4000e+000 101614 -1.0154e+002 -2.3728e+002 -1.3153e+001 34132 101219,101516,101588
 5.4000e+000 101637 -1.1410e+002 -2.4932e+002 -2.5492e+001 34132 101219,101588,101245
 5.4000e+000 101858 -3.5601e+001 -1.5982e+002  1.6533e+001 33720 101708,101786,101760
 5.4000e+000 101835 -2.0605e+001 -1.7356e+002  2.6155e+001 33720 101682,101786,101708
 5.4000e+000 101812 -5.5199e+001 -1.6987e+002  1.1925e+001 33720 101708,101760,101734
 5.4000e+000 102128 -2.6760e+001 -2.0622e+002 -5.5470e+000 33130 101903,102007,101929
 5.4000e+000 102105 -3.2012e+001 -2.3852e+002  7.8219e+000 33130 101903,102033,102007
 5.4000e+000 102082 -1.6439e+001 -2.4561e+002 -4.6734e+001 33130 101929,102007,101955
 5.4000e+000 102059 -3.9593e+001 -1.7482e+002  4.2848e+000 33130 101955,102007,101981
 5.4000e+000 102461 -6.3867e+001 -1.5486e+002 -1.4955e+001 32840 102236,102340,102262
 5.4000e+000 102438 -5.6231e+001 -1.1241e+002  3.6281e+000 32840 102236,102366,102340
 5.4000e+000 102415 -3.8377e+001 -1.4862e+002 -1.2427e+001 32840 102262,102340,102288
 5.4000e+000 102392 -7.5932e+001 -1.5661e+002 -3.3791e+001 32840 102288,102340,102314
 5.4000e+000 102997 -6.9963e+001 -1.1881e+002  3.3389e+001 32493 102749,102879,102853
 5.4000e+000 102974 -5.8025e+001 -9.5739e+001  2.4336e+001 32493 102723,102879,102749
 5.4000e+000 102951 -8.0190e+001 -1.4395e+002  2.2601e+001 32493 102749,102801,102775
 5.4000e+000 102928 -8.7128e+001 -1.4316e+002  2.1719e+001 32493 102749,102853,102801
 5.4000e+000 102905 -8.2943e+001 -1.3679e+002  1.8206e+001 32493 102801,102853,102827
 5.4000e+000 103454 -6.8871e+001 -1.2543e+002 -1.3676e+001 32089 103206,103336,103310
 5.4000e+000 103431 -5.4165e+001 -1.3765e+002 -1.2648e+000 32089 103180,103336,103206
 5.4000e+000 103408 -7.9663e+001 -1.4817e+002 -2.6963e+001 32089 103206,103284,103258
 5.4000e+000 103385 -1.1034e+002 -1.5300e+002 -3.1143e+001 32089 103206,103310,103284
 5.4000e+000 103362 -6.1748e+001 -1.0256e+002 -1.7792e+001 32089 103206,103258,103232
 5.4000e+000 103783 -1.2742e+002 -1.6675e+002 -1.8822e+001 31742 103558,103662,103584
 5.4000e+000 103760 -1.0513e+002 -1.3500e+002 -4.5819e+001 31742 103558,103688,103662
 5.4000e+000 103737 -8.6189e+001 -1.3481e+002 -3.4394e+001 31742 103584,103662,103636
 5.4000e+000 103714 -8.1617e+001 -1.5350e+002 -3.7968e+001 31742 103584,103636,103610
 5.4000e+000 104112 -2.3114e+001 -1.3103e+002  2.0160e+001 31402 103939,103991,103965
 5.4000e+000 104089 -3.9945e+001 -1.1424e+002  1.0068e+001 31402 103913,103991,103939
 5.4000e+000 104066 -5.5594e+001 -1.3022e+002  1.3251e+000 31402 103913,104017,103991
 5.4000e+000 104043 -6.9130e+001 -1.2003e+002 -8.0004e+000 31402 103887,104017,103913
 5.4000e+000 104569 -1.1858e+002 -2.1310e+002  6.5272e+000 30998 104321,104425,104373
 5.4000e+000 104546 -1.3296e+002 -2.1799e+002  5.2779e+000 30998 104321,104451,104425
 5.4000e+000 104523 -8.9089e+001 -1.7614e+002  2.6275e+001 30998 104373,104425,104399
 5.4000e+000 104500 -1.0702e+002 -2.4798e+002 -9.4141e+000 30998 104295,104451,104321
 5.4000e+000 104477 -1.5966e+002 -2.5179e+002  4.6737e+001 30998 104321,104373,104347
 5.4000e+000 104947 -1.0939e+002 -1.8749e+002 -2.1558e+001 30608 104751,104803,104777
 5.4000e+000 104924 -7.2191e+001 -1.9301e+002 -7.7049e+000 30608 104725,104803,104751
 5.4000e+000 104901 -1.1470e+002 -1.8716e+002  1.2801e+001 30608 104699,104803,104725
 5.4000e+000 104878 -9.8092e+001 -1.7998e+002  1.1599e+001 30608 104673,104803,104699
 5.4000e+000 104855 -7.4950e+001 -1.7039e+002 -6.6539e+000 30608 104673,104829,104803
 5.4000e+000 105276 -7.7673e+001 -1.7446e+002  8.4200e+000 30204 105427,105129,105077
 5.4000e+000 105253 -5.3725e+001 -1.9043e+002  3.9050e+001 30204 105427,105077,105051
 5.4000e+000 105230 -6.5660e+001 -1.6825e+002  1.0887e+001 30204 105077,105129,105103
 5.4000e+000 105207 -4.6267e+001 -1.5710e+002  2.6363e+001 30204 105299,105181,105155
 5.4000e+000 105325 -4.8354e+001 -1.5322e+002  8.8461e+000 30204 105129,105181,105299
 5.4000e+000 105453 -9.2627e+001 -1.8489e+002  2.3392e+001 30204 105181,105129,105427
 5.4000e+000 105476 -1.0768e+002 -2.1871e+002  5.8217e+001 30204 105181,105427,105051
 5.4000e+000 105903 -6.3572e+001 -1.5026e+002 -1.1106e+001 29700 105606,105762,105736
 5.4000e+000 105880 -8.1742e+001 -1.5434e+002  3.4561e-001 29700 105580,105762,105606
 5.4000e+000 105857 -9.7101e+001 -1.8864e+002 -1.0977e+001 29700 105606,105710,105632
 5.4000e+000 105834 -8.0848e+001 -1.5882e+002 -4.7339e+000 29700 105606,105736,105710
 5.4000e+000 105811 -9.1640e+001 -1.7427e+002 -1.2825e+001 29700 105632,105710,105684
 5.4000e+000 105788 -8.8037e+001 -1.6548e+002 -6.4278e+000 29700 105632,105684,105658
 5.4000e+000 106102 -2.5304e+001 -1.8048e+002  7.9906e+000 29124 105978,106030,106004
 5.4000e+000 106079 -4.5191e+001 -1.7548e+002  9.2252e+000 29124 105926,106030,105978
 5.4000e+000 106056 -5.1450e+001 -2.0181e+002  2.5409e+001 29124 105926,105978,105952
 5.4000e+000 106301 -5.1489e+001 -1.8367e+002  1.0259e+000 28712 106151,106229,106203
 5.4000e+000 106278 -6.1495e+001 -2.0342e+002 -9.0212e+000 28712 106125,106229,106151
 5.4000e+000 106255 -5.3257e+001 -1.9249e+002  9.7037e+000 28712 106151,106203,106177
 5.4000e+000 106551 -6.4888e+001 -2.2983e+002  1.1326e+001 28258 106352,106404,106378
 5.4000e+000 106528 -8.8872e+001 -2.3209e+002  2.3757e+000 28258 106352,106456,106404
 5.4000e+000 106505 -8.8631e+001 -2.3720e+002  3.7014e-001 28258 106326,106456,106352
 5.4000e+000 106482 -7.9709e+001 -2.1722e+002 -2.9480e+000 28258 106404,106456,106430
 5.4000e+000 107012 -7.7917e+001 -1.9586e+002  3.8651e+001 27818 107035,106790,106764
 5.4000e+000 106989 -6.8002e+001 -1.8571e+002  1.4698e+001 27818 107035,106764,106868
 5.4000e+000 106966 -4.8565e+001 -2.2377e+002  2.1472e+001 27818 107107,106842,106816
 5.4000e+000 106943 -1.0145e+002 -1.7247e+002  7.9962e+000 27818 106738,106868,106764
 5.4000e+000 106920 -9.7278e+001 -1.5503e+002  2.0864e+001 27818 106738,106894,106868
 5.4000e+000 107061 -3.5286e+001 -1.8726e+002  4.3992e+001 27818 106816,106790,107035
 5.4000e+000 107084 -6.0496e+001 -2.0899e+002  2.2635e+001 27818 107107,106816,107035
 5.4000e+000 107133 -4.6345e+001 -2.0218e+002  1.0986e+001 27818 106868,106842,107107
 5.4000e+000 107156 -5.4025e+001 -1.8003e+002  1.4883e+001 27818 106868,107107,107035
 5.4000e+000 107613 -2.6627e+001 -1.4818e+002  3.1886e+001 27312 107339,107469,107365
 5.4000e+000 107590 -5.0185e+000 -1.3621e+002  2.6975e+001 27312 107339,107495,107469
 5.4000e+000 107567 -2.6719e+001 -1.4302e+002  1.5511e+001 27312 107391,107469,107443
 5.4000e+000 107544 -2.5141e+001 -1.5356e+002  1.3498e+001 27312 107365,107469,107391
 5.4000e+000 107521 -7.0941e+001 -1.5792e+002  7.7203e+000 27312 107391,107443,107417
 5.4000e+000 107991 -7.6199e+001 -2.2075e+002  9.0952e+000 26858 108086,108014,107795
 5.4000e+000 107968 -8.3721e+001 -2.2487e+002 -9.9849e+000 26858 108014,107717,107873
 5.4000e+000 107945 -8.6275e+001 -2.3202e+002  1.5253e+001 26858 108158,108086,107795
 5.4000e+000 107922 -6.9123e+001 -2.3402e+002  1.5242e+001 26858 108158,107795,107769
 5.4000e+000 107899 -6.5115e+001 -2.7573e+002  3.8437e+001 26858 107821,107873,107847
 5.4000e+000 108040 -8.0762e+001 -2.5042e+002  1.3012e+001 26858 107821,107795,108014
 5.4000e+000 108063 -5.0876e+001 -2.3583e+002  1.6203e+000 26858 107821,108014,107873
 5.4000e+000 108112 -1.0226e+002 -2.3136e+002  1.0592e+001 26858 107717,108014,108086
 5.4000e+000 108135 -8.5855e+001 -2.3407e+002  2.3400e+001 26858 107717,108086,107743
 5.4000e+000 108184 -6.6854e+001 -2.2561e+002  2.1613e+001 26858 107743,108086,108158
 5.4000e+000 108207 -5.8535e+001 -2.3394e+002  2.1930e+001 26858 107743,108158,107769
 5.4000e+000 108634 -1.0120e+002 -2.0879e+002  4.0348e+000 26404 108657,108415,108363
 5.4000e+000 108611 -1.1407e+002 -2.2570e+002  2.4072e+001 26404 108657,108363,108337
 5.4000e+000 108588 -9.8878e+001 -2.1433e+002  2.3957e+001 26404 108729,108311,108467
 5.4000e+000 108565 -1.0809e+002 -2.4974e+002  4.0187e+000 26404 108801,108441,108415
 5.4000e+000 108542 -1.4859e+002 -2.3664e+002  2.8627e+001 26404 108311,108493,108467
 5.4000e+000 108519 -7.0669e+001 -2.1010e+002  3.7391e+000 26404 108363,108415,108389
 5.4000e+000 108683 -1.3428e+002 -2.2328e+002  7.4267e+000 26404 108801,108415,108657
 5.4000e+000 108706 -1.2772e+002 -2.2201e+002  1.9097e+001 26404 108729,108467,108657
 5.4000e+000 108755 -8.0346e+001 -2.2605e+002  2.3862e+001 26404 108337,108311,108729
 5.4000e+000 108778 -9.5073e+001 -2.2351e+002  1.8435e+001 26404 108337,108729,108657
 5.4000e+000 108827 -1.3355e+002 -3.0263e+002 -1.1324e+001 26404 108467,108441,108801
 5.4000e+000 108850 -1.4720e+002 -2.5700e+002 -7.7800e+000 26404 108467,108801,108657
 5.4000e+000 109228 -1.0194e+002 -2.1822e+002 -9.0960e+000 26064 109006,109084,109058
 5.4000e+000 109205 -9.0913e+001 -2.0440e+002  4.5437e+000 26064 108980,109084,109006
 5.4000e+000 109182 -9.8156e+001 -1.9525e+002 -6.6579e+000 26064 108980,109110,109084
 5.4000e+000 109159 -9.7890e+001 -2.2864e+002 -8.7883e-001 26064 109006,109058,109032
 5.4000e+000 109136 -3.3761e+001 -1.7304e+002  7.2784e+000 26064 108954,109110,108980
 5.4000e+000 109427 -2.6060e+001 -1.8780e+002 -3.8150e+001 25660 109303,109355,109329
 5.4000e+000 109404 -5.1752e+001 -2.3927e+002 -9.0325e+000 25660 109277,109355,109303
 5.4000e+000 109381 -3.3672e+001 -2.2580e+002 -3.1592e+000 25660 109251,109355,109277
 5.4000e+000 109577 -3.5137e+001 -8.8026e+001  3.0979e+001 25306 109476,109528,109502
 5.4000e+000 109554  1.2738e+001 -7.5024e+001  2.2981e+001 25306 109450,109528,109476
 5.4000e+000 109778 -7.2049e+001 -1.9746e+002  5.5335e+000 24944 109628,109706,109654
 5.4000e+000 109755 -7.7716e+001 -1.9526e+002  1.1531e+000 24944 109602,109706,109628
 5.4000e+000 109732 -6.3528e+001 -1.8618e+002 -2.4271e+000 24944 109654,109706,109680
 5.4000e+000 110126 -6.4383e+001 -2.5286e+002  7.7389e+000 24440 110149,109907,109855
 5.4000e+000 110103 -5.9829e+001 -2.6683e+002  1.5862e+001 24440 110149,109855,109985
 5.4000e+000 110080 -5.0729e+001 -2.1895e+002  4.7255e+000 24440 109855,109907,109881
 5.4000e+000 110057 -5.2030e+001 -2.0723e+002  7.0663e+001 24440 109829,109985,109855
 5.4000e+000 110034 -5.8708e+001 -2.5301e+002  1.6960e+000 24440 109907,109959,109933
 5.4000e+000 110011 -2.3605e+001 -2.1106e+002  5.5516e+000 24440 109803,109985,109829
 5.4000e+000 110175 -6.1217e+001 -2.4131e+002  6.2591e+000 24440 109959,109907,110149
 5.4000e+000 110198 -5.6149e+001 -2.5286e+002  1.5790e+001 24440 109959,110149,109985
 5.4000e+000 110301 -4.2487e+000 -1.2819e+002  3.0279e+000 24028 110223,110275,110249
 5.4000e+000 110573 -3.2112e+001 -1.5068e+002  1.2279e+001 23467 110400,110452,110426
 5.4000e+000 110550 -5.3816e+001 -1.7884e+002  1.0090e+000 23467 110374,110452,110400
 5.4000e+000 110527 -5.7108e+001 -1.8019e+002  3.5552e+000 23467 110348,110452,110374
 5.4000e+000 110504 -4.1592e+001 -1.7354e+002 -7.7634e-001 23467 110348,110478,110452
 5.4000e+000 111004 -1.1819e+002 -2.6225e+002 -3.0112e+001 22963 111027,110733,110707
 5.4000e+000 110981 -1.1832e+002 -2.4821e+002  1.3640e+001 22963 111027,110707,110681
 5.4000e+000 110958 -5.6715e+001 -2.1614e+002 -2.6719e+001 22963 111099,110759,110733
 5.4000e+000 110935 -7.6726e+001 -2.1345e+002 -1.7119e+001 22963 111171,110863,110811
 5.4000e+000 110912 -3.4947e+001 -1.5652e+002 -3.0468e+001 22963 110759,110811,110785
 5.4000e+000 110889 -8.6222e+001 -2.2957e+002 -1.2671e+001 22963 110811,110863,110837
 5.4000e+000 111053 -8.5581e+001 -2.3607e+002 -1.5995e+001 22963 111099,110733,111027
 5.4000e+000 111076 -7.2042e+001 -2.3067e+002 -1.4041e+001 22963 111171,110811,111027
 5.4000e+000 111125 -5.5419e+001 -2.1182e+002 -4.2298e+001 22963 110811,110759,111099
 5.4000e+000 111148 -5.9989e+001 -2.0926e+002 -3.5756e+001 22963 110811,111099,111027
 5.4000e+000 111197 -7.6951e+001 -1.8625e+002 -2.1037e+001 22963 110681,110863,111171
 5.4000e+000 111220 -7.8631e+001 -2.0631e+002 -1.0383e+001 22963 110681,111171,111027
 5.4000e+000 111726 -1.1671e+002 -2.2640e+002  4.1888e+000 22459 111749,111507,111429
 5.4000e+000 111703 -1.0561e+002 -2.2273e+002 -5.2608e+000 22459 111749,111429,111585
 5.4000e+000 111680 -8.9314e+001 -2.4541e+002 -2.8735e+000 22459 111403,111585,111429
 5.4000e+000 111657 -1.1186e+002 -2.4880e+002  1.0365e+001 22459 111507,111559,111533
 5.4000e+000 111634 -1.4941e+002 -2.1462e+002  1.3492e+001 22459 111455,111507,111481
 5.4000e+000 111611 -1.6475e+002 -2.1744e+002  2.0425e+001 22459 111429,111507,111455
 5.4000e+000 111775 -1.1619e+002 -2.4104e+002  1.4138e+001 22459 111559,111507,111749
 5.4000e+000 111798 -1.0525e+002 -2.3020e+002  4.8073e+000 22459 111559,111749,111585
 5.4000e+000 112046 -5.2504e+001 -1.9209e+002 -2.4352e+001 21898 112069,111925,111873
 5.4000e+000 112023 -5.0194e+001 -1.9296e+002 -5.3749e+000 21898 112069,111873,111847
 5.4000e+000 112000 -6.7096e+001 -1.9859e+002 -1.0417e+001 21898 111821,111951,111847
 5.4000e+000 111977 -5.8989e+001 -1.4975e+002 -1.4909e+001 21898 111873,111925,111899
 5.4000e+000 112095 -7.9351e+001 -2.0179e+002 -2.8579e+001 21898 111951,111925,112069
 5.4000e+000 112118 -6.5905e+001 -1.9844e+002 -1.0330e+001 21898 111951,112069,111847
 5.4000e+000 112498 -8.8528e+001 -2.0978e+002 -1.7757e+001 21608 112521,112276,112224
 5.4000e+000 112475 -5.8020e+001 -2.1216e+002 -6.5262e-001 21608 112521,112224,112380
 5.4000e+000 112452 -6.2089e+001 -2.4477e+002  1.4743e+001 21608 112302,112380,112354
 5.4000e+000 112429 -1.0523e+002 -2.3824e+002 -1.0582e+001 21608 112224,112276,112250
 5.4000e+000 112406  3.7105e+001 -2.6417e+002 -1.2095e+001 21608 112302,112354,112328
 5.4000e+000 112547 -6.3648e+001 -1.8375e+002 -3.2950e+000 21608 112302,112276,112521
 5.4000e+000 112570 -4.2758e+001 -2.0526e+002  8.5001e+000 21608 112302,112521,112380
 5.4000e+000 112948 -1.0338e+002 -2.1673e+002 -3.3140e+000 20882 112971,112752,112700
 5.4000e+000 112925 -7.9411e+001 -2.0886e+002 -8.7147e+000 20882 112971,112700,112830
 5.4000e+000 112902 -1.3159e+002 -2.3544e+002  1.4272e+001 20882 112778,112830,112804
 5.4000e+000 112879 -7.3324e+001 -1.6846e+002 -1.2063e+001 20882 112674,112830,112700
 5.4000e+000 112856 -1.2528e+002 -2.2521e+002  4.2737e+000 20882 112700,112752,112726
 5.4000e+000 112997 -1.0432e+002 -2.1719e+002  9.9285e+000 20882 112778,112752,112971
 5.4000e+000 113020 -9.0597e+001 -2.1343e+002  4.0385e+000 20882 112778,112971,112830
 5.4000e+000 113526 -7.2121e+001 -2.1610e+002  1.5587e+000 20428 113255,113385,113333
 5.4000e+000 113503 -7.8102e+001 -2.3510e+002  1.7165e+000 20428 113229,113385,113255
 5.4000e+000 113480 -6.9852e+000 -2.1060e+002  2.7860e+000 20428 113255,113333,113281
 5.4000e+000 113457 -6.6448e+001 -2.2858e+002  4.4433e+000 20428 113203,113385,113229
 5.4000e+000 113434 -3.6408e+001 -2.2103e+002 -6.8751e+000 20428 113281,113333,113307
 5.4000e+000 113411 -8.9805e+001 -2.1274e+002  5.9219e+000 20428 113333,113385,113359
 5.4000e+000 113774 -1.4547e+001 -2.0924e+002  8.8609e+000 19917 113797,113601,113549
 5.4000e+000 113751 -3.6371e+001 -2.1265e+002  1.1279e+001 19917 113869,113797,113549
 5.4000e+000 113728 -3.4955e+001 -2.1505e+002  2.0505e+001 19917 113869,113549,113679
 5.4000e+000 113705 -2.1315e+001 -2.0696e+002  1.8167e+001 19917 113549,113601,113575
 5.4000e+000 113823 -3.7274e+001 -2.5378e+002 -3.4346e-001 19917 113627,113601,113797
 5.4000e+000 113846 -1.6221e+001 -1.9958e+002 -4.1839e+000 19917 113627,113797,113653
 5.4000e+000 113895 -3.1720e+001 -1.9015e+002  3.8904e+000 19917 113653,113797,113869
 5.4000e+000 113918 -3.9644e+001 -1.9629e+002  1.5710e+001 19917 113653,113869,113679
 5.4000e+000 114166 -9.6859e+001 -2.1851e+002 -3.5114e+000 19413 113993,114045,114019
 5.4000e+000 114143 -8.9085e+001 -2.0298e+002  2.0122e+000 19413 113967,114045,113993
 5.4000e+000 114120 -7.5758e+001 -1.9840e+002  1.1251e+001 19413 113967,114071,114045
 5.4000e+000 114097 -5.9046e+001 -2.2382e+002 -3.4992e+000 19413 113941,114071,113967
 5.4000e+000 114438 -9.0021e+001 -2.3727e+002  2.2059e+000 19001 114213,114265,114239
 5.4000e+000 114415 -6.4998e+001 -1.8472e+002 -5.4201e+000 19001 114213,114343,114265
 5.4000e+000 114392 -9.6056e+001 -2.5443e+002 -1.1365e+001 19001 114265,114343,114317
 5.4000e+000 114369  1.4696e+001 -2.0638e+002 -4.0940e+000 19001 114265,114317,114291
 5.4000e+000 114639 -6.8856e+001 -2.8054e+002  1.2936e+001 18554 114489,114541,114515
 5.4000e+000 114616 -5.8995e+001 -2.4413e+002  1.7588e+000 18554 114489,114567,114541
 5.4000e+000 114593 -1.2633e+002 -2.7614e+002 -1.8233e+001 18554 114463,114567,114489
 5.4000e+000 115043 -4.5661e+001 -2.1117e+002  7.8994e+000 18164 114795,114925,114821
 5.4000e+000 115020 -3.9292e+001 -2.2227e+002  1.3077e+001 18164 114769,114925,114795
 5.4000e+000 114997 -2.5009e+001 -2.2283e+002 -1.8015e+000 18164 115066,114873,114821
 5.4000e+000 114974 -2.2854e+001 -1.9033e+002 -7.2910e+000 18164 115066,114821,114925
 5.4000e+000 114951  1.5963e+001 -2.2313e+002 -2.1891e+001 18164 114821,114873,114847
 5.4000e+000 115092 -3.6996e+001 -1.9944e+002 -1.8888e+001 18164 114899,114873,115066
 5.4000e+000 115115 -2.1672e+001 -1.4975e+002 -2.5901e+001 18164 114899,115066,114925
 5.4000e+000 115265 -5.4189e+001 -2.2636e+002  3.8115e+000 17852 115164,115216,115190
 5.4000e+000 115242 -6.2772e+001 -2.4505e+002 -2.5696e-001 17852 115138,115216,115164
 5.4000e+000 115464 -1.4838e+002 -3.3363e+002  4.2866e+000 17346 115288,115366,115340
 5.4000e+000 115441 -2.2667e+002 -2.5756e+002 -1.0963e+001 17346 115288,115392,115366
 5.4000e+000 115418 -1.3284e+002 -3.7332e+002 -1.1377e+001 17346 115288,115340,115314
 5.4000e+000 115736 -5.3892e+001 -2.0984e+002  9.2730e+000 16942 115563,115641,115615
 5.4000e+000 115713 -6.1144e+001 -2.0944e+002  3.0752e+000 16942 115511,115641,115563
 5.4000e+000 115690 -1.4699e+002 -2.4560e+002  1.4294e+001 16942 115563,115615,115589
 5.4000e+000 115667 -7.2945e+001 -2.2879e+002  8.0350e+000 16942 115511,115563,115537
 5.4000e+000 116091 -1.0994e+002 -2.5437e+002 -9.1409e+000 16388 115918,115970,115944
 5.4000e+000 116068 -9.5006e+001 -2.0493e+002 -6.1152e+000 16388 115918,115996,115970
 5.4000e+000 116045 -1.2752e+002 -2.5850e+002  8.7675e+000 16388 115892,115996,115918
 5.4000e+000 116022 -8.2345e+001 -2.3490e+002  2.9902e+001 16388 115866,115996,115892
 5.4000e+000 116192 -3.0100e+001 -2.6587e+002 -3.8504e+001 15810 116114,116166,116140
 5.4000e+000 116342 -9.8597e+001 -3.1806e+002  1.7301e+001 15419 116241,116293,116267
 5.4000e+000 116319 -1.4049e+002 -3.8897e+002 -1.0824e+001 15419 116215,116293,116241
 5.4000e+000 116445 -1.0764e+002 -2.1896e+002  1.3598e+000 421 116367,116419,116393
 5.5000e+000 68477 -1.3915e+002 -2.0191e+002  1.0311e+000 68018 68327,68379,68353
 5.5000e+000 68454 -1.4713e+002 -2.6788e+002  1.9913e+001 68018 68301,68379,68327
 5.5000e+000 68431 -7.3569e+001 -2.9970e+002  4.8044e+001 68018 68301,68405,68379
 5.5000e+000 68578 -9.5540e+001 -1.9197e+002  1.3450e+000 67820 68500,68552,68526
 5.5000e+000 68728 -1.0250e+002 -1.8028e+002 -2.5102e+000 67508 68601,68653,68627
 5.5000e+000 68705 -1.5285e+002 -1.3750e+002 -2.4418e+001 67508 68601,68679,68653
 5.5000e+000 68927 -3.2155e+001 -1.6945e+002 -3.2102e+000 67310 68777,68829,68803
 5.5000e+000 68904 -4.4890e+001 -1.9507e+002  2.9624e+000 67310 68751,68829,68777
 5.5000e+000 68881 -3.2390e+001 -1.9630e+002  1.2569e+001 67310 68751,68855,68829
 5.5000e+000 69386 -8.1348e+001 -2.1073e+002 -9.7368e+000 67020 69216,69268,69242
 5.5000e+000 69363 -7.5405e+001 -1.6463e+002 -2.0816e+001 67020 69138,69268,69216
 5.5000e+000 69340 -5.5938e+001 -1.4782e+002 -1.1783e+001 67020 69112,69268,69138
 5.5000e+000 69317 -1.0126e+002 -1.7806e+002  1.2131e+001 67020 69138,69190,69164
 5.5000e+000 69294 -1.0428e+002 -1.6143e+002 -9.0938e+000 67020 69138,69216,69190
 5.5000e+000 69536 -1.5119e+002 -3.6996e+002 -2.9115e+001 66708 69435,69487,69461
 5.5000e+000 69513 -1.1037e+002 -4.1547e+002 -4.3635e+000 66708 69409,69487,69435
 5.5000e+000 69735 -9.7437e+001 -1.9639e+002  4.4396e+000 66346 69585,69637,69611
 5.5000e+000 69712 -8.0797e+001 -1.8582e+002 -1.1498e+000 66346 69559,69637,69585
 5.5000e+000 69689 -7.3514e+001 -1.8470e+002 -1.8808e+001 66346 69559,69663,69637
 5.5000e+000 69985 -1.4112e+002 -2.3415e+002  2.2390e+000 66148 69786,69890,69864
 5.5000e+000 69962 -1.4613e+002 -2.3751e+002  4.3059e+000 66148 69760,69890,69786
 5.5000e+000 69939 -1.0516e+002 -2.2199e+002 -3.3336e+001 66148 69786,69864,69838
 5.5000e+000 69916 -1.2284e+002 -2.3716e+002 -1.1758e+001 66148 69786,69838,69812
 5.5000e+000 70137 -6.7418e+001 -2.6242e+002 -1.4968e+001 65950 70036,70088,70062
 5.5000e+000 70114 -5.8245e+001 -2.9052e+002  1.2917e+001 65950 70010,70088,70036
 5.5000e+000 70470 -4.9844e+001 -1.9407e+002  1.4878e+001 65546 70245,70323,70271
 5.5000e+000 70447 -3.4194e+001 -1.6804e+002  6.9333e+000 65546 70245,70375,70323
 5.5000e+000 70424 -4.6048e+001 -2.1927e+002  7.3658e+000 65546 70323,70375,70349
 5.5000e+000 70401 -3.9655e+001 -1.7880e+002  6.2492e+000 65546 70271,70323,70297
 5.5000e+000 70620 -8.9121e+001 -2.2463e+002  6.9959e+000 65348 70493,70545,70519
 5.5000e+000 70597 -6.5735e+001 -2.3639e+002  8.4135e+000 65348 70493,70571,70545
 5.5000e+000 70721 -1.3144e+002 -2.8362e+002 -1.7324e+001 65150 70643,70695,70669
 5.5000e+000 71020 -8.2140e+001 -1.7585e+002  1.5163e+001 64952 71043,70850,70824
 5.5000e+000 70997 -7.0566e+001 -1.6850e+002 -2.3857e+000 64952 71043,70824,70772
 5.5000e+000 70974 -7.3042e+001 -2.1591e+002  5.3780e+000 64952 71115,70746,70876
 5.5000e+000 70951 -6.1577e+001 -2.1907e+002 -1.4376e+000 64952 70746,70902,70876
 5.5000e+000 70928 -7.9592e+001 -1.4920e+002 -1.5265e+001 64952 70772,70824,70798
 5.5000e+000 71069 -4.0584e+001 -1.4938e+002  3.8280e+001 64952 70876,70850,71043
 5.5000e+000 71092 -6.0816e+001 -2.0048e+002  1.0704e+001 64952 71115,70876,71043
 5.5000e+000 71141 -9.8279e+001 -1.9666e+002 -1.1210e+001 64952 70772,70746,71115
 5.5000e+000 71164 -8.3984e+001 -1.7446e+002 -4.7712e+000 64952 70772,71115,71043
 5.5000e+000 71365 -4.3679e+001 -2.4669e+002 -7.7619e+000 64662 71215,71293,71267
 5.5000e+000 71342 -3.3479e+001 -1.7814e+002  7.4451e+000 64662 71189,71293,71215
 5.5000e+000 71319 -1.9543e+000 -1.4968e+002  1.6913e-001 64662 71215,71267,71241
 5.5000e+000 71615 -5.9855e+001 -2.0191e+002 -2.7907e+000 64350 71710,71638,71468
 5.5000e+000 71592 -6.8407e+001 -1.9822e+002 -7.0070e+000 64350 71638,71416,71390
 5.5000e+000 71569 -6.4116e+001 -1.8837e+002  8.6289e+000 64350 71710,71468,71442
 5.5000e+000 71546  2.6620e+001 -1.9293e+002 -2.9637e+001 64350 71390,71520,71494
 5.5000e+000 71664 -5.5955e+001 -2.0086e+002 -7.8666e-001 64350 71494,71468,71638
 5.5000e+000 71687 -5.5821e+001 -2.0559e+002 -2.3032e-001 64350 71494,71638,71390
 5.5000e+000 71736 -5.3560e+001 -1.7436e+002  1.3295e-001 64350 71416,71638,71710
 5.5000e+000 71759 -5.3766e+001 -1.6113e+002  1.4715e+001 64350 71416,71710,71442
 5.5000e+000 72318 -6.2315e+001 -3.1922e+002 -1.3921e+001 63837 71972,72024,71998
 5.5000e+000 72295 -9.0134e+001 -2.0639e+002 -1.1924e+000 63837 72341,71972,71946
 5.5000e+000 72272 -8.1872e+001 -1.6606e+002  7.5921e+000 63837 72413,72341,71946
 5.5000e+000 72249 -7.7033e+001 -1.5087e+002  2.7107e+000 63837 72413,71946,72128
 5.5000e+000 72226 -1.1452e+002 -1.8173e+002  2.4889e-001 63837 72024,72076,72050
 5.5000e+000 72203 -1.0196e+002 -1.6739e+002 -7.2658e+000 63837 72024,72102,72076
 5.5000e+000 72180 -5.5243e+001 -1.4343e+002  1.1129e+001 63837 71946,72154,72128
 5.5000e+000 72367 -1.0807e+002 -2.2125e+002 -3.9393e+001 63837 72024,71972,72341
 5.5000e+000 72390 -8.4387e+001 -1.7963e+002 -1.5642e+001 63837 72024,72341,72102
 5.5000e+000 72439 -6.6523e+001 -1.9078e+002  2.7686e+000 63837 72102,72341,72413
 5.5000e+000 72462 -6.2281e+001 -1.7526e+002 -3.6218e-001 63837 72102,72413,72128
 5.5000e+000 72791 -1.0303e+002 -1.9427e+002 -2.0615e+001 63383 72592,72696,72670
 5.5000e+000 72768 -1.0472e+002 -1.8167e+002 -3.4790e+001 63383 72566,72696,72592
 5.5000e+000 72745 -9.8244e+001 -1.6963e+002 -1.6912e+000 63383 72592,72670,72618
 5.5000e+000 72722 -9.4039e+001 -1.5702e+002 -3.2102e+000 63383 72618,72670,72644
 5.5000e+000 73297 -1.1907e+002 -1.6997e+002 -1.3835e+000 63185 73000,73156,73130
 5.5000e+000 73274 -1.1958e+002 -1.7674e+002  2.1675e+001 63185 72974,73156,73000
 5.5000e+000 73251 -8.8911e+001 -1.9774e+002 -3.6698e+000 63185 73000,73052,73026
 5.5000e+000 73228 -9.7365e+001 -1.7593e+002 -9.5669e+000 63185 73000,73130,73052
 5.5000e+000 73205 -9.6842e+001 -1.9860e+002 -3.0571e+001 63185 73052,73130,73104
 5.5000e+000 73182 -9.0384e+001 -2.1770e+002 -3.1920e+001 63185 73052,73104,73078
 5.5000e+000 73545 -5.4357e+001 -1.8716e+002  4.8801e+000 62781 73568,73398,73372
 5.5000e+000 73522 -2.8501e+001 -1.7186e+002  2.2917e+001 62781 73568,73372,73346
 5.5000e+000 73499 -7.4496e+001 -2.1417e+002 -2.4566e+001 62781 73640,73320,73424
 5.5000e+000 73476 -7.3825e+001 -1.3570e+002 -4.2932e+001 62781 73320,73450,73424
 5.5000e+000 73594 -6.1734e+001 -1.7736e+002  4.5979e+000 62781 73424,73398,73568
 5.5000e+000 73617 -6.5587e+001 -2.0333e+002 -1.4375e+000 62781 73640,73424,73568
 5.5000e+000 73666 -6.1825e+001 -1.8764e+002 -9.3751e+000 62781 73346,73320,73640
 5.5000e+000 73689 -5.5569e+001 -1.6758e+002  1.1712e+001 62781 73346,73640,73568
 5.5000e+000 74035 -7.3412e+001 -1.9458e+002 -3.9190e+000 62363 74058,73868,73842
 5.5000e+000 74012 -6.6354e+001 -1.7852e+002 -1.5653e+001 62363 74130,74058,73842
 5.5000e+000 73989 -6.0667e+001 -1.7694e+002 -1.6656e+001 62363 74130,73842,73816
 5.5000e+000 73966 -9.6692e+001 -2.0270e+002  2.4261e+000 62363 74202,73764,73894
 5.5000e+000 73943 -1.2452e+002 -1.8564e+002  2.7168e+000 62363 73712,73894,73764
 5.5000e+000 73920 -1.3283e+002 -1.9556e+002 -1.3398e+000 62363 73712,73764,73738
 5.5000e+000 74084 -7.1805e+001 -1.9134e+002 -3.1274e+000 62363 73894,73868,74058
 5.5000e+000 74107 -8.9030e+001 -1.9393e+002  8.3532e+000 62363 74202,73894,74058
 5.5000e+000 74156 -7.3351e+001 -1.8153e+002  4.5258e+000 62363 73790,74058,74130
 5.5000e+000 74179 -4.6163e+001 -1.7109e+002  5.4832e+000 62363 73790,74130,73816
 5.5000e+000 74228 -1.0504e+002 -2.0639e+002 -1.0335e+001 62363 73790,73764,74202
 5.5000e+000 74251 -9.9213e+001 -1.9698e+002 -4.4960e+000 62363 73790,74202,74058
 5.5000e+000 74403 -1.0840e+001 -2.0984e+002  1.3412e+001 62115 74426,74302,74276
 5.5000e+000 74380  2.6277e+001 -2.0161e+002  2.8609e+001 62115 74426,74276,74354
 5.5000e+000 74452 -4.5528e+001 -1.9074e+002  1.3132e+001 62115 74328,74302,74426
 5.5000e+000 74475 -1.1054e+001 -1.8383e+002  2.9311e+001 62115 74328,74426,74354
 5.5000e+000 74578 -3.8920e+000 -1.1554e+002 -1.2565e+000 61825 74500,74552,74526
 5.5000e+000 74982 -1.0243e+002 -1.7824e+002  7.0422e-001 61513 75005,74734,74708
 5.5000e+000 74959 -1.0079e+002 -1.7168e+002 -1.3511e+000 61513 75005,74708,74864
 5.5000e+000 74936 -1.2831e+002 -1.8440e+002  1.0766e+001 61513 75077,74812,74734
 5.5000e+000 74913 -1.0856e+002 -1.7901e+002 -1.5386e+001 61513 74734,74786,74760
 5.5000e+000 74890 -1.0814e+002 -1.6461e+002 -2.0542e+000 61513 74734,74812,74786
 5.5000e+000 75031 -9.7260e+001 -1.8348e+002  1.2766e+000 61513 75077,74734,75005
 5.5000e+000 75054 -7.7771e+001 -1.7669e+002  2.5864e+001 61513 74838,75005,74864
 5.5000e+000 75103 -1.4546e+002 -1.9114e+002  3.9155e+001 61513 74838,74812,75077
 5.5000e+000 75126 -1.2536e+002 -1.9787e+002  2.9692e+001 61513 74838,75077,75005
 5.5000e+000 75553 -5.2990e+001 -1.6525e+002 -6.5208e+000 61060 75576,75360,75308
 5.5000e+000 75530 -5.3240e+001 -1.7545e+002 -6.8183e+000 61060 75576,75308,75230
 5.5000e+000 75507 -4.7254e+001 -1.5877e+002 -1.2868e+000 61060 75308,75360,75334
 5.5000e+000 75484 -6.9993e+001 -2.0511e+002  1.0415e+001 61060 75230,75308,75256
 5.5000e+000 75461 -5.3732e+001 -1.9098e+002  3.7942e+000 61060 75256,75308,75282
 5.5000e+000 75438 -6.1349e+001 -1.6171e+002  1.7872e+001 61060 75360,75412,75386
 5.5000e+000 75602 -4.4216e+001 -1.7390e+002 -2.9685e-001 61060 75412,75360,75576
 5.5000e+000 75625 -4.9992e+001 -1.9231e+002 -2.7228e+000 61060 75412,75576,75230
 5.5000e+000 76052 -7.8328e+001 -1.7116e+002  2.1703e+000 60442 75755,75859,75833
 5.5000e+000 76029 -8.8711e+001 -1.6156e+002 -1.2447e+001 60442 75729,75859,75755
 5.5000e+000 76006 -8.0894e+001 -1.5819e+002  9.7582e+000 60442 75755,75833,75807
 5.5000e+000 75983 -7.9956e+001 -1.8862e+002  4.1852e+000 60442 75755,75807,75781
 5.5000e+000 75960 -3.9626e+000 -2.9797e+002  9.9949e+000 60442 75729,75911,75859
 5.5000e+000 75937 -1.5295e+002 -7.3203e+002  4.7056e+001 60442 75859,75911,75885
 5.5000e+000 76430 -8.2540e+001 -2.1375e+002 -5.0962e+000 59788 76453,76286,76234
 5.5000e+000 76407 -8.9951e+001 -2.4342e+002  5.2765e+000 59788 76453,76234,76182
 5.5000e+000 76384 -9.0669e+001 -1.6366e+002  2.8542e+001 59788 76525,76156,76312
 5.5000e+000 76361 -5.2912e+001 -2.7933e+002 -1.2128e+000 59788 76182,76234,76208
 5.5000e+000 76338 -6.9896e+001 -2.0193e+002  5.0914e-001 59788 76234,76286,76260
 5.5000e+000 76479 -9.7213e+001 -2.2988e+002  4.4446e+000 59788 76312,76286,76453
 5.5000e+000 76502 -8.3097e+001 -2.1773e+002  1.3004e+001 59788 76525,76312,76453
 5.5000e+000 76551 -1.1189e+002 -2.3172e+002  3.0031e+001 59788 76182,76156,76525
 5.5000e+000 76574 -9.9311e+001 -2.4837e+002  1.8989e+001 59788 76182,76525,76453
 5.5000e+000 77031 -5.7222e+001 -1.3122e+002 -1.7934e+001 59448 76835,76887,76861
 5.5000e+000 77008 -2.4331e+001 -1.0743e+002  5.3956e+000 59448 76835,76913,76887
 5.5000e+000 76985 -3.1583e+001 -9.0545e+001  1.7512e+001 59448 76809,76913,76835
 5.5000e+000 76962 -6.2987e+001 -1.2043e+002 -9.0348e-001 59448 76757,76913,76809
 5.5000e+000 76939 -5.1999e+001 -1.0658e+002 -5.6637e+000 59448 76757,76809,76783
 5.5000e+000 77537 -8.1962e+001 -1.7915e+002  8.2422e+000 58994 77560,77344,77292
 5.5000e+000 77514 -1.1462e+002 -1.7590e+002  2.3105e+000 58994 77560,77292,77240
 5.5000e+000 77491 -6.6433e+001 -1.6419e+002 -4.1540e+000 58994 77632,77214,77370
 5.5000e+000 77468 -1.3458e+002 -2.0413e+002  3.4591e+001 58994 77292,77344,77318
 5.5000e+000 77445 -6.7821e+001 -2.1029e+002  7.4899e+000 58994 77214,77396,77370
 5.5000e+000 77422 -1.1785e+002 -1.8923e+002 -4.3952e+000 58994 77240,77292,77266
 5.5000e+000 77586 -8.6446e+001 -1.8056e+002  9.3244e+000 58994 77370,77344,77560
 5.5000e+000 77609 -8.5477e+001 -1.7561e+002  1.1567e+001 58994 77632,77370,77560
 5.5000e+000 77658 -5.6189e+001 -1.5244e+002 -2.1894e+001 58994 77240,77214,77632
 5.5000e+000 77681 -7.0459e+001 -1.5098e+002 -7.7335e+000 58994 77240,77632,77560
 5.5000e+000 78138 -7.2319e+001 -1.2642e+002  1.6926e+001 58440 77864,77994,77890
 5.5000e+000 78115 -4.8299e+001 -7.8597e+001 -1.0228e+001 58440 77864,78020,77994
 5.5000e+000 78092 -8.1923e+001 -1.4812e+002 -1.3629e+001 58440 77942,77994,77968
 5.5000e+000 78069 -6.5366e+001 -1.4041e+002  2.5541e+000 58440 77890,77994,77942
 5.5000e+000 78046 -5.8300e+001 -1.4089e+002 -2.5064e+000 58440 77890,77942,77916
 5.5000e+000 78467 -1.4807e+001 -1.6326e+002  4.3508e+000 57928 78562,78490,78346
 5.5000e+000 78444 -6.1893e+001 -1.6421e+002 -3.1664e+000 57928 78490,78294,78268
 5.5000e+000 78421 -4.5851e+000 -1.7179e+002  1.2783e+001 57928 78562,78346,78320
 5.5000e+000 78398 -2.6485e+001 -1.6011e+002  8.8763e-001 57928 78242,78372,78268
 5.5000e+000 78516 -5.4889e+001 -2.0236e+002 -1.2111e+001 57928 78372,78346,78490
 5.5000e+000 78539 -4.4406e+001 -1.5707e+002 -2.6204e+000 57928 78372,78490,78268
 5.5000e+000 78588 -6.2316e+001 -1.6288e+002 -4.4436e-002 57928 78294,78490,78562
 5.5000e+000 78611 -3.2052e+001 -1.4863e+002  1.6176e+001 57928 78294,78562,78320
 5.5000e+000 79068 -1.2286e+002 -2.6108e+002 -6.5226e+001 57467 78794,78924,78820
 5.5000e+000 79045 -9.4812e+001 -2.4784e+002 -6.0199e+001 57467 78794,78950,78924
 5.5000e+000 79022 -4.9731e+001 -2.3436e+002  2.4942e+001 57467 78820,78898,78872
 5.5000e+000 78999 -8.9010e+001 -3.2400e+002 -3.3080e+001 57467 78820,78924,78898
 5.5000e+000 78976 -3.8021e+001 -2.3847e+002  3.7608e+001 57467 78820,78872,78846
 5.5000e+000 79446 -1.0283e+002 -1.9314e+002 -1.3032e+000 57120 79172,79302,79250
 5.5000e+000 79423 -9.3233e+001 -1.8877e+002 -7.1538e+000 57120 79172,79328,79302
 5.5000e+000 79400 -9.3847e+001 -1.6901e+002 -7.7706e+000 57120 79172,79250,79198
 5.5000e+000 79377 -7.1890e+001 -2.4215e+002  8.0517e+000 57120 79250,79302,79276
 5.5000e+000 79354 -1.1294e+002 -1.8201e+002 -1.3813e+001 57120 79198,79250,79224
 5.5000e+000 79952 -1.3857e+002 -2.1990e+002  6.1621e-001 56773 79629,79785,79655
 5.5000e+000 79929 -3.8565e+001 -1.8921e+002  9.7399e+000 56773 79629,79811,79785
 5.5000e+000 79906 -1.0743e+002 -2.3758e+002  1.6458e+001 56773 79655,79733,79681
 5.5000e+000 79883 -1.0454e+002 -2.1039e+002  4.3211e+000 56773 79655,79785,79733
 5.5000e+000 79860 -9.9951e+001 -2.7879e+002 -3.1746e+001 56773 79733,79785,79759
 5.5000e+000 79837 -5.8075e+001 -2.1480e+002  4.2072e+001 56773 79681,79733,79707
 5.5000e+000 80281 -5.0180e+001 -1.5879e+002 -1.3084e+001 56319 80108,80160,80134
 5.5000e+000 80258 -5.3255e+001 -1.7318e+002 -1.5937e+001 56319 80056,80160,80108
 5.5000e+000 80235 -2.4064e+001 -1.5378e+002  9.0611e+000 56319 80056,80186,80160
 5.5000e+000 80212 -7.0770e+001 -2.1992e+002 -1.0775e+001 56319 80056,80108,80082
 5.5000e+000 80738 -2.6397e+001 -1.9503e+002  1.0162e+001 55957 80516,80620,80594
 5.5000e+000 80715 -7.0113e+001 -1.7789e+002  7.4383e+000 55957 80464,80620,80516
 5.5000e+000 80692 -5.8601e+001 -2.1342e+002  1.1013e+001 55957 80761,80568,80542
 5.5000e+000 80669 -4.8832e+001 -2.0994e+002  1.2988e+001 55957 80761,80542,80516
 5.5000e+000 80646 -6.8805e+001 -1.7438e+002  2.1409e+001 55957 80464,80516,80490
 5.5000e+000 80787 -6.8370e+001 -2.1189e+002  7.8626e+000 55957 80594,80568,80761
 5.5000e+000 80810 -5.9186e+001 -2.0867e+002  9.9407e+000 55957 80594,80761,80516
 5.5000e+000 81210 -6.4308e+001 -2.0331e+002 -1.7507e+001 55317 80936,80988,80962
 5.5000e+000 81187 -5.4787e+001 -2.1659e+002  7.8263e-001 55317 80936,81066,80988
 5.5000e+000 81164 -4.7233e+001 -2.3242e+002  5.6638e+000 55317 80936,81092,81066
 5.5000e+000 81141 -7.8324e+001 -2.3233e+002 -1.9375e+001 55317 80988,81066,81014
 5.5000e+000 81118 -1.9210e+001 -1.3540e+002  1.4354e+001 55317 81014,81066,81040
 5.5000e+000 81539 -8.7899e+001 -1.9703e+002  3.4476e+000 54913 81340,81418,81392
 5.5000e+000 81516 -3.6711e+001 -1.6065e+002 -1.3255e+001 54913 81340,81444,81418
 5.5000e+000 81493 -5.4196e+001 -1.7185e+002 -2.5346e+001 54913 81314,81444,81340
 5.5000e+000 81470 -9.9922e+001 -2.0988e+002 -1.5319e+000 54913 81340,81392,81366
 5.5000e+000 81787 -5.1698e+001 -2.0765e+002 -2.4257e+000 54601 81588,81692,81640
 5.5000e+000 81764 -7.5867e+001 -2.1030e+002 -7.6561e+000 54601 81562,81692,81588
 5.5000e+000 81741 -4.2785e+001 -2.1172e+002  2.6832e+001 54601 81588,81640,81614
 5.5000e+000 81718 -5.3296e+001 -2.4699e+002 -2.2556e+001 54601 81640,81692,81666
 5.5000e+000 82344 -7.6568e+001 -2.0754e+002 -9.7332e+000 54090 81998,82102,82076
 5.5000e+000 82321 -1.0263e+002 -2.1889e+002 -6.2993e+000 54090 81998,82154,82102
 5.5000e+000 82298 -9.3988e+001 -2.1361e+002 -3.7579e+000 54090 81972,82154,81998
 5.5000e+000 82275 -1.0688e+002 -1.9338e+002 -1.1634e+001 54090 81998,82076,82024
 5.5000e+000 82252 -1.1406e+002 -2.2737e+002  1.0363e+001 54090 81972,82180,82154
 5.5000e+000 82229 -1.4468e+002 -2.6920e+002  1.6244e+001 54090 82102,82154,82128
 5.5000e+000 82206 -1.8628e+001 -1.4480e+002 -3.1802e+001 54090 82024,82076,82050
 5.5000e+000 82722 -1.3435e+002 -2.4331e+002 -8.2643e+000 53579 82500,82578,82552
 5.5000e+000 82699 -1.0142e+002 -2.2107e+002  5.0970e+000 53579 82448,82578,82500
 5.5000e+000 82676 -1.1138e+002 -2.4978e+002  6.7025e+000 53579 82448,82500,82474
 5.5000e+000 82653 -1.2998e+002 -2.3595e+002  1.6350e+001 53579 82448,82604,82578
 5.5000e+000 82630 -7.1807e+001 -2.2638e+002 -9.1786e+000 53579 82500,82552,82526
 5.5000e+000 83356 -6.8368e+001 -1.7662e+002 -1.5902e+001 53189 83379,83088,83036
 5.5000e+000 83333 -6.5724e+001 -1.9952e+002 -1.3974e+001 53189 83379,83036,82984
 5.5000e+000 83310 -2.9973e+001 -1.8652e+002  2.9569e+001 53189 82984,83192,83166
 5.5000e+000 83287 -1.3382e+000 -1.4606e+002 -8.9091e+000 53189 83036,83088,83062
 5.5000e+000 83264 -4.9581e+001 -2.2086e+002 -3.0109e+001 53189 82984,83036,83010
 5.5000e+000 83241 -5.0450e+001 -2.2393e+002  6.9912e+000 53189 83114,83166,83140
 5.5000e+000 83218 -9.3769e+001 -2.3336e+002  4.5317e+000 53189 83088,83166,83114
 5.5000e+000 83405 -6.9059e+001 -1.9203e+002 -6.5116e+000 53189 83166,83088,83379
 5.5000e+000 83428 -6.2905e+001 -2.1220e+002 -6.0500e+000 53189 83166,83379,82984
 5.5000e+000 83725 -8.5939e+001 -2.4501e+002 -2.3421e+001 52585 83748,83529,83503
 5.5000e+000 83702 -6.3353e+001 -2.3762e+002 -1.5414e+001 52585 83820,83748,83503
 5.5000e+000 83679 -4.1878e+001 -2.3087e+002 -1.2468e+001 52585 83820,83503,83477
 5.5000e+000 83656 -2.9905e+001 -2.0975e+002  2.4622e+001 52585 83477,83607,83581
 5.5000e+000 83633  1.6076e+001 -1.8964e+002  2.7527e+001 52585 83451,83607,83477
 5.5000e+000 83774 -7.4800e+001 -2.1695e+002 -2.0173e+001 52585 83555,83529,83748
 5.5000e+000 83797 -9.8640e+001 -2.3401e+002 -1.2730e+001 52585 83555,83748,83581
 5.5000e+000 83846 -8.3686e+001 -2.2301e+002 -4.2381e+000 52585 83581,83748,83820
 5.5000e+000 83869 -6.8544e+001 -2.2037e+002 -3.6723e+000 52585 83581,83820,83477
 5.5000e+000 84200 -6.3186e+001 -2.1980e+002 -8.3522e+000 52024 84001,84105,84079
 5.5000e+000 84177 -3.3886e+001 -2.1441e+002 -1.5769e+001 52024 83975,84105,84001
 5.5000e+000 84154 -5.4374e+001 -2.2001e+002 -6.7995e+000 52024 84001,84079,84053
 5.5000e+000 84131 -2.6703e+001 -1.4795e+002  2.5068e+001 52024 84001,84053,84027
 5.5000e+000 84399 -5.5895e+001 -2.1806e+002 -1.9366e+000 51470 84422,84275,84249
 5.5000e+000 84376 -5.2938e+001 -2.1117e+002 -1.8977e-001 51470 84422,84249,84223
 5.5000e+000 84353 -6.2236e+001 -2.3144e+002 -3.3030e+001 51470 84275,84327,84301
 5.5000e+000 84448 -5.9094e+001 -2.1172e+002 -2.3144e+000 51470 84327,84275,84422
 5.5000e+000 84471 -5.7096e+001 -2.0618e+002 -6.7426e-001 51470 84327,84422,84223
 5.5000e+000 84753 -6.3406e+001 -1.8082e+002 -1.4493e+000 51073 84603,84655,84629
 5.5000e+000 84730 -1.2863e+002 -2.1024e+002 -9.1087e+000 51073 84776,84655,84603
 5.5000e+000 84707 -3.0795e+001 -1.8351e+002 -5.0192e+001 51073 84577,84681,84655
 5.5000e+000 84802 -8.1946e+001 -1.8360e+002 -2.4333e+001 51073 84577,84655,84776
 5.5000e+000 85178 -1.1820e+002 -2.6287e+002  2.3933e+001 50519 85201,85008,84982
 5.5000e+000 85155 -1.1167e+002 -2.4417e+002  1.8329e+001 50519 85273,85201,84982
 5.5000e+000 85132 -1.0558e+002 -2.4387e+002  1.4474e+001 50519 85273,84982,84930
 5.5000e+000 85109 -1.0249e+002 -2.3534e+002  1.2247e+001 50519 84930,84982,84956
 5.5000e+000 85086 -1.0045e+002 -2.5038e+002  1.1615e+001 50519 85008,85060,85034
 5.5000e+000 85227 -9.9790e+001 -2.5084e+002  1.0870e+001 50519 85060,85008,85201
 5.5000e+000 85250 -1.1108e+002 -2.5162e+002  7.8427e+000 50519 85060,85201,84904
 5.5000e+000 85299 -1.0564e+002 -2.4777e+002  6.1594e+000 50519 84904,85201,85273
 5.5000e+000 85322 -8.3050e+001 -2.1795e+002 -3.8870e+000 50519 84904,85273,84930
 5.5000e+000 85958 -7.4573e+001 -2.1904e+002 -6.6230e+000 50093 85981,85768,85716
 5.5000e+000 85935 -6.6724e+001 -2.0004e+002 -6.5747e+000 50093 85981,85716,85612
 5.5000e+000 85912 -9.1997e+001 -2.0652e+002  4.7422e+000 50093 85612,85716,85664
 5.5000e+000 85889 -5.8907e+001 -2.1426e+002 -2.1598e+000 50093 85716,85768,85742
 5.5000e+000 85866 -7.6762e+001 -1.6114e+002 -4.1431e+001 50093 85664,85716,85690
 5.5000e+000 85843 -2.7132e+001 -1.5243e+002 -6.9149e+000 50093 85586,85794,85612
 5.5000e+000 85820 -6.2057e+001 -2.7952e+002  2.5278e+001 50093 85612,85664,85638
 5.5000e+000 86007 -9.0963e+001 -2.3576e+002 -3.4026e+001 50093 85794,85768,85981
 5.5000e+000 86030 -6.6339e+001 -1.8002e+002 -2.7067e+001 50093 85794,85981,85612
 5.5000e+000 86131 -7.1692e+001 -2.1232e+002  2.8872e+001 49895 86053,86105,86079
 5.5000e+000 86639 -5.7501e+001 -1.5474e+002 -2.9634e+001 49391 86662,86394,86368
 5.5000e+000 86616 -6.7673e+001 -1.8842e+002 -2.6832e+001 49391 86662,86368,86342
 5.5000e+000 86593 -3.5195e+001 -1.8756e+002 -7.8633e+000 49391 86342,86498,86472
 5.5000e+000 86570 -2.3563e+001 -2.0313e+002 -9.1004e+000 49391 86316,86498,86342
 5.5000e+000 86547 -1.0560e+002 -2.8564e+002 -1.0964e+001 49391 86394,86472,86446
 5.5000e+000 86524 -1.2386e+001 -2.7083e+002  3.4163e+000 49391 86394,86446,86420
 5.5000e+000 86688 -6.3200e+001 -1.8614e+002 -1.5066e+001 49391 86472,86394,86662
 5.5000e+000 86711 -5.7625e+001 -2.0066e+002 -1.4787e+001 49391 86472,86662,86342
 5.5000e+000 87089 -7.9525e+001 -2.1864e+002  5.7547e+000 48987 86815,86919,86867
 5.5000e+000 87066 -7.9375e+001 -2.2560e+002  9.2341e+000 48987 86815,86971,86919
 5.5000e+000 87043 -3.0837e+001 -2.4130e+002 -2.1535e+001 48987 86867,86919,86893
 5.5000e+000 87020 -9.0368e+001 -2.4835e+002  2.0009e+001 48987 86815,86867,86841
 5.5000e+000 86997 -8.8934e+001 -1.9453e+002  3.1075e+001 48987 86919,86971,86945
 5.5000e+000 87467 -1.4853e+002 -2.2009e+002  1.1265e+001 48540 87490,87245,87219
 5.5000e+000 87444 -1.0664e+002 -2.0692e+002  1.5566e+000 48540 87562,87490,87219
 5.5000e+000 87421 -8.1204e+001 -1.9667e+002  9.3996e+000 48540 87562,87219,87349
 5.5000e+000 87398 -1.1086e+002 -1.7054e+002 -9.6710e+000 48540 87245,87297,87271
 5.5000e+000 87375 -6.8640e+001 -2.0540e+002  7.2749e+000 48540 87193,87349,87219
 5.5000e+000 87516 -1.0150e+002 -2.0806e+002  4.4895e+000 48540 87297,87245,87490
 5.5000e+000 87539 -1.0291e+002 -2.1120e+002  4.8031e+000 48540 87297,87490,87323
 5.5000e+000 87588 -8.2016e+001 -1.9545e+002  1.8188e+001 48540 87323,87490,87562
 5.5000e+000 87611 -6.9758e+001 -1.9864e+002  2.3439e+001 48540 87323,87562,87349
 5.5000e+000 87810 -9.7959e+001 -3.4988e+002 -2.5620e+001 48136 87660,87712,87686
 5.5000e+000 87787 -5.6465e+001 -2.0675e+002 -1.1507e+001 48136 87660,87738,87712
 5.5000e+000 87764 -1.3218e+002 -2.1417e+002 -3.5295e+001 48136 87634,87738,87660
 5.5000e+000 88205 -9.5028e+001 -2.3296e+002 -2.1675e+001 47210 88300,88228,87937
 5.5000e+000 88182 -8.3038e+001 -2.2521e+002 -6.8060e+000 47210 88228,87833,88041
 5.5000e+000 88159 -9.6797e+001 -2.5003e+002 -3.3461e+001 47210 88300,87937,87911
 5.5000e+000 88136 -9.2979e+001 -2.2601e+002 -2.7640e+001 47210 87833,87911,87859
 5.5000e+000 88113 -1.5879e+002 -2.0540e+002 -1.9049e+001 47210 87937,87989,87963
 5.5000e+000 88090 -7.9494e+001 -1.8419e+002  3.8366e+001 47210 87989,88041,88015
 5.5000e+000 88067 -1.0815e+002 -2.6408e+002 -3.6049e+001 47210 87859,87911,87885
 5.5000e+000 88254 -8.4342e+001 -1.9129e+002 -2.2315e+001 47210 87989,87937,88228
 5.5000e+000 88277 -1.0061e+002 -2.2194e+002 -8.9353e+000 47210 87989,88228,88041
 5.5000e+000 88326 -7.9435e+001 -2.1708e+002 -8.3354e+000 47210 87833,88228,88300
 5.5000e+000 88349 -8.3551e+001 -2.2825e+002 -2.1063e+001 47210 87833,88300,87911
 5.5000e+000 88780 -1.3938e+002 -2.4817e+002 -4.7273e+001 46642 88803,88509,88483
 5.5000e+000 88757 -1.0040e+002 -2.2356e+002 -2.5196e+001 46642 88803,88483,88639
 5.5000e+000 88734 -1.1088e+002 -1.8328e+002 -2.9689e+001 46642 88875,88561,88509
 5.5000e+000 88711 -1.1174e+002 -1.6874e+002 -4.7279e+000 46642 88509,88561,88535
 5.5000e+000 88688 -6.3590e+001 -2.4878e+002  9.3689e-001 46642 88457,88639,88483
 5.5000e+000 88665 -1.2881e+002 -2.9919e+002 -1.3443e+001 46642 88561,88613,88587
 5.5000e+000 88829 -1.1177e+002 -2.0013e+002 -3.3408e+001 46642 88875,88509,88803
 5.5000e+000 88852 -1.0970e+002 -2.3987e+002 -2.1357e+001 46642 88613,88803,88639
 5.5000e+000 88901 -9.1227e+001 -2.0650e+002 -1.5609e+001 46642 88613,88561,88875
 5.5000e+000 88924 -9.9606e+001 -2.3370e+002 -1.8762e+001 46642 88613,88875,88803
 5.5000e+000 89253 -4.3375e+001 -2.2162e+002  4.5176e+000 46444 89080,89158,89132
 5.5000e+000 89230 -4.8702e+001 -2.3294e+002  1.7243e+000 46444 89028,89158,89080
 5.5000e+000 89207 -1.8817e+001 -2.0741e+002 -9.1419e+000 46444 89028,89080,89054
 5.5000e+000 89184 -1.9545e+001 -2.3981e+002 -1.8708e+001 46444 89080,89132,89106
 5.5000e+000 89631 -6.6392e+001 -1.5340e+002  4.6153e+000 46040 89383,89461,89435
 5.5000e+000 89608 -7.0157e+001 -1.6992e+002 -9.1124e+000 46040 89383,89487,89461
 5.5000e+000 89585 -7.1783e+001 -1.9681e+002 -4.3094e+000 46040 89383,89435,89409
 5.5000e+000 89562 -5.6667e+001 -1.4676e+002 -1.8978e+001 46040 89383,89513,89487
 5.5000e+000 89539 -2.3004e+001 -1.2985e+002 -2.7328e+001 46040 89357,89513,89383
 5.5000e+000 90009 -7.0606e+001 -1.9582e+002 -3.8698e-001 45636 89813,89891,89839
 5.5000e+000 89986 -7.2666e+001 -1.8246e+002  1.1395e+001 45636 89787,89891,89813
 5.5000e+000 89963 -6.3899e+001 -1.8433e+002 -4.4526e+000 45636 89839,89891,89865
 5.5000e+000 89940 -8.3394e+001 -2.0309e+002  7.0034e+000 45636 89735,89891,89787
 5.5000e+000 89917 -6.6406e+001 -2.0490e+002 -7.8741e+000 45636 89735,89787,89761
 5.5000e+000 90208 -4.4266e+001 -1.5124e+002 -2.9221e+001 45175 90231,90058,90032
 5.5000e+000 90185 -2.6225e+001 -1.3811e+002 -4.4185e+001 45175 90231,90032,90136
 5.5000e+000 90162 -5.3307e+001 -1.2072e+002 -1.2634e+000 45175 90058,90110,90084
 5.5000e+000 90257 -6.4182e+001 -1.6996e+002 -6.6114e+000 45175 90110,90058,90231
 5.5000e+000 90280 -2.9794e+001 -1.4704e+002 -2.3335e+001 45175 90110,90231,90136
 5.5000e+000 90528 -4.9216e+001 -1.5435e+002 -1.9836e+001 44513 90695,90551,90407
 5.5000e+000 90505 -5.2442e+001 -1.3938e+002 -1.0930e+001 44513 90551,90355,90329
 5.5000e+000 90482 -6.1353e+001 -1.4934e+002 -1.8652e+001 44513 90623,90303,90433
 5.5000e+000 90459 -3.9783e+001 -1.4375e+002 -1.3900e+001 44513 90695,90407,90381
 5.5000e+000 90577 -7.0547e+001 -1.6100e+002 -3.4850e+001 44513 90433,90407,90551
 5.5000e+000 90600 -6.0338e+001 -1.4679e+002 -1.8072e+001 44513 90623,90433,90551
 5.5000e+000 90649 -6.0169e+001 -1.4623e+002 -1.8145e+001 44513 90329,90303,90623
 5.5000e+000 90672 -6.0771e+001 -1.4571e+002 -1.8037e+001 44513 90329,90623,90551
 5.5000e+000 90721 -6.1586e+001 -1.3993e+002 -2.2733e+001 44513 90355,90551,90695
 5.5000e+000 90744 -5.9277e+001 -1.3434e+002 -2.0388e+001 44513 90355,90695,90381
 5.5000e+000 91077  2.7834e+000 -1.5904e+002 -9.3577e+000 44059 91100,90930,90904
 5.5000e+000 91054 -6.2073e+001 -1.7235e+002  9.6224e+000 44059 91100,90904,90982
 5.5000e+000 91031 -1.1109e+002 -1.9853e+002 -1.3151e+001 44059 90878,90982,90904
 5.5000e+000 91008 -3.7632e+001 -1.5155e+002  8.3871e+000 44059 90852,90982,90878
 5.5000e+000 91126 -9.8069e+001 -1.8592e+002 -1.0332e+001 44059 91172,91100,90956
 5.5000e+000 91149 -6.0260e+001 -1.7181e+002 -7.4267e+000 44059 90956,91100,90982
 5.5000e+000 91198  1.4919e+000 -8.5142e+001 -5.0477e+001 44059 90930,91100,91172
 5.5000e+000 91677 -7.7982e+001 -1.2322e+002  1.1885e+001 43549 91455,91533,91481
 5.5000e+000 91654 -2.9526e+001 -1.2337e+002  1.6960e+001 43549 91429,91533,91455
 5.5000e+000 91631 -7.5199e+001 -1.2290e+002  5.8243e+000 43549 91481,91533,91507
 5.5000e+000 91608 -1.4848e+001 -1.1738e+002  7.1451e+000 43549 91429,91559,91533
 5.5000e+000 91585  4.7960e+000 -2.8567e+001 -1.3749e+000 43549 91403,91559,91429
 5.5000e+000 92006 -8.3269e+001 -1.9974e+002  1.6754e+000 43059 91781,91885,91807
 5.5000e+000 91983 -8.6525e+001 -1.8834e+002  3.1676e+001 43059 91781,91911,91885
 5.5000e+000 91960 -8.1152e+001 -1.9835e+002  1.0752e+000 43059 91807,91885,91833
 5.5000e+000 91937 -5.3321e+001 -1.8736e+002 -1.5420e+000 43059 91833,91885,91859
 5.5000e+000 92561 -5.9880e+001 -1.3420e+002 -1.5226e+001 42598 92584,92215,92189
 5.5000e+000 92538 -6.5967e+001 -1.5040e+002 -1.3658e+001 42598 92656,92584,92189
 5.5000e+000 92515 -5.9161e+001 -1.6946e+002 -4.0020e+000 42598 92656,92189,92397
 5.5000e+000 92492 -8.1023e+001 -1.1999e+002 -1.8540e+001 42598 92241,92319,92293
 5.5000e+000 92469 -7.4271e+001 -1.4241e+002  8.8097e+000 42598 92319,92397,92371
 5.5000e+000 92446 -2.6866e+001 -1.7142e+002  7.4704e+001 42598 92319,92371,92345
 5.5000e+000 92423 -7.7821e+001 -1.2326e+002 -2.6737e+001 42598 92241,92293,92267
 5.5000e+000 92610 -6.5327e+001 -1.3641e+002 -1.5377e+001 42598 92241,92215,92584
 5.5000e+000 92633 -5.9409e+001 -1.2296e+002 -1.8021e+001 42598 92241,92584,92319
 5.5000e+000 92682 -6.0000e+001 -1.2479e+002 -9.6952e+000 42598 92319,92584,92656
 5.5000e+000 92705 -4.8844e+001 -1.3793e+002 -2.5205e+000 42598 92319,92656,92397
 5.5000e+000 92953 -8.4072e+001 -2.1440e+002  1.2312e+001 42094 92976,92806,92780
 5.5000e+000 92930 -9.2895e+001 -2.0223e+002  1.0850e+000 42094 92976,92780,92754
 5.5000e+000 92907 -2.4899e+001 -2.0747e+002 -2.8216e-001 42094 93048,92832,92806
 5.5000e+000 92884 -1.1706e+002 -2.0450e+002 -1.2484e+001 42094 92728,92858,92754
 5.5000e+000 93002 -5.6380e+001 -1.9897e+002  6.2401e+000 42094 93048,92806,92976
 5.5000e+000 93025 -8.5973e+001 -1.9837e+002 -2.5264e+000 42094 92858,92976,92754
 5.5000e+000 93074 -6.8811e+001 -2.2346e+002 -1.0801e+000 42094 92858,92832,93048
 5.5000e+000 93097 -9.4454e+001 -2.1136e+002  2.7119e+000 42094 92858,93048,92976
 5.5000e+000 93605 -8.5237e+001 -2.4305e+002 -9.1861e+000 41846 93628,93412,93386
 5.5000e+000 93582 -6.6008e+001 -1.8329e+002 -2.0437e+000 41846 93628,93386,93308
 5.5000e+000 93559 -9.6960e+001 -1.9023e+002 -4.0371e+001 41846 93700,93464,93438
 5.5000e+000 93536 -9.4435e+001 -2.5650e+002  2.6150e+000 41846 93308,93386,93334
 5.5000e+000 93513 -1.1868e+002 -1.7869e+002 -3.3968e+001 41846 93334,93386,93360
 5.5000e+000 93490 -9.0267e+001 -1.6797e+002 -4.0765e+001 41846 93282,93464,93308
 5.5000e+000 93654 -7.5635e+001 -1.9481e+002 -1.7986e+001 41846 93438,93412,93628
 5.5000e+000 93677 -9.8961e+001 -1.9522e+002 -1.7920e+001 41846 93700,93438,93628
 5.5000e+000 93726 -8.6251e+001 -1.6274e+002 -3.8874e+001 41846 93308,93464,93700
 5.5000e+000 93749 -8.4436e+001 -1.5893e+002 -1.6742e+001 41846 93308,93700,93628
 5.5000e+000 94255 -7.3881e+001 -2.0422e+002  1.3284e+001 41385 93958,94114,94088
 5.5000e+000 94232 -6.3539e+001 -2.1927e+002  5.8759e+000 41385 93932,94114,93958
 5.5000e+000 94209 -1.2015e+002 -2.3528e+002  3.8167e+001 41385 93958,94088,94062
 5.5000e+000 94186 -1.2572e+002 -1.7156e+002  2.8585e+001 41385 93958,94062,93984
 5.5000e+000 94163 -1.0583e+002 -1.6854e+002  2.4245e+001 41385 93984,94062,94036
 5.5000e+000 94140 -7.2676e+001 -2.2544e+002  3.4823e+001 41385 93984,94036,94010
 5.5000e+000 94476 -2.7750e+001 -2.7538e+002  1.4783e+001 40881 94326,94378,94352
 5.5000e+000 94453 -4.7174e+001 -2.2504e+002  1.8100e+001 40881 94300,94378,94326
 5.5000e+000 94430 -6.1760e+001 -2.0923e+002  2.3393e+000 40881 94300,94404,94378
 5.5000e+000 94626 -5.4944e+001 -1.5518e+002 -2.5349e+000 40591 94649,94551,94525
 5.5000e+000 94603 -3.1890e+001 -9.3244e+001  3.2569e+000 40591 94781,94577,94551
 5.5000e+000 94675 -1.8084e+001 -1.1066e+002 -1.9397e+001 40591 94781,94551,94649
 5.5000e+000 94807  3.1849e+000 -6.0820e+001  2.1970e+001 40591 94499,94577,94781
 5.5000e+000 94830  7.8633e+000 -9.4664e+001 -2.1263e+000 40591 94499,94781,94649
 5.5000e+000 95336 -1.4807e+002 -1.8999e+002 -3.1202e+001 40187 95013,95169,95039
 5.5000e+000 95313 -3.6956e+001 -1.7119e+002  2.9002e+000 40187 95013,95195,95169
 5.5000e+000 95290 -2.6429e+001 -1.8507e+002 -2.2556e+001 40187 95039,95143,95065
 5.5000e+000 95267 -1.0730e+002 -2.1747e+002 -3.2264e+001 40187 95039,95169,95143
 5.5000e+000 95244 -3.7918e+001 -1.4393e+002 -1.2921e+001 40187 95091,95143,95117
 5.5000e+000 95221 -1.1918e+001 -9.0147e+001 -4.9846e+000 40187 95065,95143,95091
 5.5000e+000 95665 -4.9935e+001 -1.3646e+002  6.6206e+001 39626 95466,95570,95544
 5.5000e+000 95642 -9.7954e+001 -1.0814e+002  4.3044e+001 39626 95440,95570,95466
 5.5000e+000 95619 -1.5595e+002 -1.8634e+002  4.3393e+001 39626 95466,95544,95492
 5.5000e+000 95596 -2.7713e+001 -1.4322e+002  6.5456e+001 39626 95492,95544,95518
 5.5000e+000 95913 -8.0842e+001 -1.7277e+002 -2.4336e+001 39136 96080,95936,95766
 5.5000e+000 95890 -5.5715e+001 -1.8541e+002 -1.5139e+001 39136 95936,95714,95688
 5.5000e+000 95867 -1.3877e+002 -1.8529e+002  7.9596e+000 39136 96008,95792,95766
 5.5000e+000 95844 -6.7147e+001 -1.6790e+002 -1.8029e+001 39136 96080,95766,95740
 5.5000e+000 95962 -1.1047e+002 -1.9159e+002 -1.5538e+001 39136 96008,95766,95936
 5.5000e+000 95985 -7.2583e+001 -2.2609e+002 -3.4341e+000 39136 95818,95936,95688
 5.5000e+000 96034 -7.0469e+001 -1.5564e+002  1.1888e+001 39136 95818,95792,96008
 5.5000e+000 96057 -6.3015e+001 -1.7030e+002 -1.1226e+001 39136 95818,96008,95936
 5.5000e+000 96106 -7.3838e+001 -1.7053e+002 -6.0678e+000 39136 95714,95936,96080
 5.5000e+000 96129 -5.2520e+001 -1.6485e+002 -1.1061e+000 39136 95714,96080,95740
 5.5000e+000 96350 -5.6506e+001 -1.4378e+002 -8.4747e+000 38824 96200,96278,96252
 5.5000e+000 96327 -4.6701e+001 -1.3911e+002 -7.0842e+000 38824 96174,96278,96200
 5.5000e+000 96304 -7.5666e+000 -1.2475e+002 -2.6305e+001 38824 96200,96252,96226
 5.5000e+000 96830 -8.1565e+001 -1.5039e+002 -1.2051e+001 38320 97069,96536,96484
 5.5000e+000 96807 -8.0222e+001 -1.5240e+002 -1.1927e+001 38320 97069,96484,96853
 5.5000e+000 96784 -9.0766e+001 -1.6399e+002  1.4262e+000 38320 96853,96484,96458
 5.5000e+000 96761 -5.0922e+001 -1.3108e+002 -1.6702e+001 38320 96925,96640,96614
 5.5000e+000 96738 -7.8619e+001 -1.3609e+002 -8.0188e+000 38320 96997,96666,96640
 5.5000e+000 96715 -6.6863e+001 -1.7911e+002 -5.8000e+000 38320 97141,96588,96562
 5.5000e+000 96692 -1.0280e+002 -1.7452e+002 -2.6614e+000 38320 96484,96536,96510
 5.5000e+000 96879 -8.1108e+001 -1.6227e+002 -7.6762e+000 38320 97141,96562,96853
 5.5000e+000 96902 -7.5236e+001 -1.5671e+002 -6.7049e+000 38320 96925,96614,96853
 5.5000e+000 96951 -7.6928e+001 -1.3485e+002 -8.7873e+000 38320 96997,96640,96925
 5.5000e+000 96974 -7.3064e+001 -1.3290e+002 -5.7950e+000 38320 96458,96925,96853
 5.5000e+000 97023 -8.6077e+001 -1.3740e+002 -4.0546e+000 38320 96458,96666,96997
 5.5000e+000 97046 -8.0036e+001 -1.3450e+002 -4.9108e+000 38320 96458,96997,96925
 5.5000e+000 97095 -8.3499e+001 -1.4457e+002 -3.9738e+000 38320 96562,96536,97069
 5.5000e+000 97118 -7.6964e+001 -1.5097e+002 -1.0558e+001 38320 96562,97069,96853
 5.5000e+000 97167 -4.2533e+001 -1.6324e+002 -1.2945e+001 38320 96614,96588,97141
 5.5000e+000 97190 -6.5861e+001 -1.5290e+002 -1.2694e+001 38320 96614,97141,96853
 5.5000e+000 97519 -6.3387e+001 -1.9859e+002  5.4414e+001 37766 97542,97398,97372
 5.5000e+000 97496 -7.5444e+001 -1.5482e+002  3.8769e+001 37766 97542,97372,97346
 5.5000e+000 97473 -7.5486e+001 -1.6398e+002  2.9385e+000 37766 97294,97424,97346
 5.5000e+000 97450 -8.4834e+001 -1.9148e+002 -4.5108e-002 37766 97294,97346,97320
 5.5000e+000 97568 -3.3101e+001 -2.0936e+002  1.8054e+001 37766 97424,97398,97542
 5.5000e+000 97591 -5.2417e+001 -1.5883e+002  5.2189e+000 37766 97424,97542,97346
 5.5000e+000 98048 -8.1962e+001 -1.2047e+002 -3.9030e+001 37262 98071,97878,97852
 5.5000e+000 98025 -6.9398e+001 -1.4446e+002 -1.5629e+001 37262 98071,97852,97800
 5.5000e+000 98002 -7.5140e+001 -1.7139e+002 -1.8102e+001 37262 97800,97852,97826
 5.5000e+000 97979 -7.7689e+001 -1.5566e+002  3.1066e+000 37262 97800,97930,97904
 5.5000e+000 97956 -5.2379e+001 -1.8164e+002  1.0963e+001 37262 97774,97930,97800
 5.5000e+000 98097 -1.1649e+002 -1.3736e+002 -2.7478e+001 37262 97904,97878,98071
 5.5000e+000 98120 -8.8367e+001 -1.6397e+002 -6.2738e+000 37262 97904,98071,97800
 5.5000e+000 98449 -4.7705e+001 -1.2256e+002 -1.4144e+001 36950 98472,98302,98250
 5.5000e+000 98426 -3.0244e+001 -1.1756e+002 -1.7227e+001 36950 98472,98250,98354
 5.5000e+000 98403 -7.2090e+001 -1.3672e+002  1.5435e+001 36950 98250,98302,98276
 5.5000e+000 98380 -1.9159e+001 -9.3026e+001  9.8939e+000 36950 98224,98354,98250
 5.5000e+000 98498 -3.4781e+001 -1.3604e+002 -3.9343e+000 36950 98328,98302,98472
 5.5000e+000 98521 -1.4537e+001 -1.2857e+002 -9.9380e+000 36950 98328,98472,98354
 5.5000e+000 99125 -8.7005e+001 -8.6825e+001  7.1029e+000 36296 98704,98756,98730
 5.5000e+000 99102 -9.2035e+001 -9.7676e+001  9.5070e+000 36296 98704,98938,98756
 5.5000e+000 99079 -6.6182e+001 -1.2341e+002 -2.7755e+000 36296 99148,98938,98912
 5.5000e+000 99056 -6.9740e+001 -1.2796e+002  2.8724e+001 36296 99292,99220,98782
 5.5000e+000 99033 -5.8127e+001 -1.4365e+002  3.5725e+000 36296 99148,98912,98834
 5.5000e+000 99010 -6.7407e+001 -1.1032e+002  3.2511e+001 36296 99292,98782,98756
 5.5000e+000 98987 -5.5766e+001 -2.5111e+002 -4.5976e+001 36296 98834,98912,98886
 5.5000e+000 98964 -9.2948e+001 -3.6089e+002 -5.8982e+001 36296 98834,98886,98860
 5.5000e+000 99174 -8.1645e+001 -1.5301e+002  5.0039e+000 36296 99220,98938,99148
 5.5000e+000 99197 -5.6497e+001 -1.7410e+002  1.8425e+001 36296 98808,99148,98834
 5.5000e+000 99246 -6.9558e+001 -1.2704e+002  6.9726e+001 36296 98808,98782,99220
 5.5000e+000 99269 -2.9918e+001 -1.1298e+002  2.2707e+001 36296 98808,99220,99148
 5.5000e+000 99318 -7.7017e+001 -1.1182e+002  1.6973e+001 36296 98938,99220,99292
 5.5000e+000 99341 -7.8500e+001 -1.1434e+002  2.0372e+001 36296 98938,99292,98756
 5.5000e+000 99719 -9.6270e+001 -1.9709e+002  7.7840e-001 35742 99742,99471,99601
 5.5000e+000 99696 -9.7804e+001 -1.5704e+002  1.8747e+001 35742 99445,99601,99471
 5.5000e+000 99673 -9.2074e+001 -1.8750e+002 -7.1047e+000 35742 99742,99601,99575
 5.5000e+000 99650 -8.0898e+001 -2.3174e+002 -5.5771e+000 35742 99814,99549,99523
 5.5000e+000 99627 -6.5950e+001 -1.8152e+002 -3.9938e-002 35742 99471,99523,99497
 5.5000e+000 99768 -7.7561e+001 -1.9296e+002  4.8423e+000 35742 99523,99471,99742
 5.5000e+000 99791 -9.1037e+001 -2.1424e+002 -4.6155e+000 35742 99814,99523,99742
 5.5000e+000 99840 -7.9863e+001 -2.0990e+002 -1.2236e+001 35742 99575,99549,99814
 5.5000e+000 99863 -8.6137e+001 -1.8702e+002 -1.0655e+001 35742 99575,99814,99742
 5.5000e+000 100111 -7.4659e+001 -1.6170e+002  1.2315e+001 35302 100134,99990,99938
 5.5000e+000 100088 -6.2965e+001 -1.4755e+002  4.9898e+000 35302 100134,99938,99912
 5.5000e+000 100065 -6.3307e+001 -1.4681e+002 -2.8838e+000 35302 100206,99886,100016
 5.5000e+000 100042 -9.3975e+001 -1.5505e+002  8.0394e+000 35302 99938,99990,99964
 5.5000e+000 100160 -5.9911e+001 -1.5618e+002  3.0942e+000 35302 100016,99990,100134
 5.5000e+000 100183 -6.0436e+001 -1.4937e+002 -2.8411e+000 35302 100206,100016,100134
 5.5000e+000 100232 -6.5635e+001 -1.4982e+002 -9.4415e-001 35302 99912,99886,100206
 5.5000e+000 100255 -6.3010e+001 -1.5307e+002 -1.0214e+000 35302 99912,100206,100134
 5.5000e+000 100586 -9.1091e+001 -1.0092e+002  2.9425e+001 35012 100609,100387,100361
 5.5000e+000 100563 -1.1130e+002 -7.1692e+001 -2.0882e+001 35012 100609,100361,100465
 5.5000e+000 100540 -4.9601e+001 -4.9545e+001 -4.8425e+001 35012 100361,100491,100465
 5.5000e+000 100517 -1.5483e+001 -5.6358e+001 -4.7950e+001 35012 100413,100465,100439
 5.5000e+000 100635 -4.0163e+001 -7.8476e+001  1.1346e+001 35012 100413,100387,100609
 5.5000e+000 100658 -5.8476e+001 -4.1363e+001 -4.0277e+001 35012 100413,100609,100465
 5.5000e+000 100987 -7.3154e+001 -1.6681e+002  1.4794e+001 34700 100788,100866,100814
 5.5000e+000 100964 -6.0796e+001 -1.2974e+002  2.5259e+001 34700 101010,100866,100788
 5.5000e+000 100941 -3.8051e+001 -8.7597e+001  2.5237e+001 34700 100762,100892,100866
 5.5000e+000 100918 -6.6983e+001 -1.5136e+002  1.1642e+001 34700 100814,100866,100840
 5.5000e+000 101036 -3.9703e+001 -1.1206e+002  4.2749e+001 34700 100762,100866,101010
 5.5000e+000 101493 -9.9863e+001 -1.8546e+002 -1.4667e+001 34132 101516,101349,101297
 5.5000e+000 101470 -1.1835e+002 -2.2153e+002 -2.4249e+001 34132 101588,101516,101297
 5.5000e+000 101447 -1.1865e+002 -2.3274e+002 -3.6482e+001 34132 101588,101297,101245
 5.5000e+000 101424 -7.4553e+001 -2.7044e+002 -3.4264e+001 34132 101245,101297,101271
 5.5000e+000 101401 -1.1042e+002 -1.8583e+002 -1.9114e+001 34132 101297,101349,101323
 5.5000e+000 101542 -1.0362e+002 -2.1361e+002 -1.1321e+001 34132 101375,101349,101516
 5.5000e+000 101565 -9.3072e+001 -2.1300e+002 -1.2097e+001 34132 101375,101516,101219
 5.5000e+000 101614 -9.5112e+001 -2.2232e+002 -1.2265e+001 34132 101219,101516,101588
 5.5000e+000 101637 -1.0688e+002 -2.3348e+002 -2.3890e+001 34132 101219,101588,101245
 5.5000e+000 101858 -3.2534e+001 -1.4840e+002  1.5415e+001 33720 101708,101786,101760
 5.5000e+000 101835 -1.8252e+001 -1.6009e+002  2.4464e+001 33720 101682,101786,101708
 5.5000e+000 101812 -5.0603e+001 -1.5761e+002  1.1311e+001 33720 101708,101760,101734
 5.5000e+000 102128 -2.5310e+001 -1.9298e+002 -5.2109e+000 33130 101903,102007,101929
 5.5000e+000 102105 -3.0397e+001 -2.2331e+002  7.3500e+000 33130 101903,102033,102007
 5.5000e+000 102082 -1.5710e+001 -2.2974e+002 -4.3588e+001 33130 101929,102007,101955
 5.5000e+000 102059 -3.7295e+001 -1.6362e+002  4.0188e+000 33130 101955,102007,101981
 5.5000e+000 102461 -5.9173e+001 -1.4404e+002 -1.4242e+001 32840 102236,102340,102262
 5.5000e+000 102438 -5.2041e+001 -1.0442e+002  3.0857e+000 32840 102236,102366,102340
 5.5000e+000 102415 -3.4557e+001 -1.3803e+002 -1.1787e+001 32840 102262,102340,102288
 5.5000e+000 102392 -6.9693e+001 -1.4556e+002 -3.1614e+001 32840 102288,102340,102314
 5.5000e+000 102997 -6.5518e+001 -1.1133e+002  3.0765e+001 32493 102749,102879,102853
 5.5000e+000 102974 -5.3543e+001 -8.7640e+001  2.2627e+001 32493 102723,102879,102749
 5.5000e+000 102951 -7.4880e+001 -1.3460e+002  2.1431e+001 32493 102749,102801,102775
 5.5000e+000 102928 -8.1284e+001 -1.3324e+002  2.0282e+001 32493 102749,102853,102801
 5.5000e+000 102905 -7.8033e+001 -1.2867e+002  1.7207e+001 32493 102801,102853,102827
 5.5000e+000 103454 -6.3052e+001 -1.1560e+002 -1.2858e+001 32089 103206,103336,103310
 5.5000e+000 103431 -4.9159e+001 -1.2603e+002 -1.3175e+000 32089 103180,103336,103206
 5.5000e+000 103408 -7.4078e+001 -1.3777e+002 -2.5094e+001 32089 103206,103284,103258
 5.5000e+000 103385 -1.0313e+002 -1.4200e+002 -2.9361e+001 32089 103206,103310,103284
 5.5000e+000 103362 -5.7458e+001 -9.5630e+001 -1.7082e+001 32089 103206,103258,103232
 5.5000e+000 103783 -1.1880e+002 -1.5486e+002 -1.7647e+001 31742 103558,103662,103584
 5.5000e+000 103760 -9.8101e+001 -1.2609e+002 -4.3661e+001 31742 103558,103688,103662
 5.5000e+000 103737 -7.9991e+001 -1.2500e+002 -3.2150e+001 31742 103584,103662,103636
 5.5000e+000 103714 -7.5748e+001 -1.4255e+002 -3.5483e+001 31742 103584,103636,103610
 5.5000e+000 104112 -2.1657e+001 -1.2246e+002  1.9342e+001 31402 103939,103991,103965
 5.5000e+000 104089 -3.8005e+001 -1.0679e+002  9.5755e+000 31402 103913,103991,103939
 5.5000e+000 104066 -5.1770e+001 -1.2215e+002  9.3663e-001 31402 103913,104017,103991
 5.5000e+000 104043 -6.4730e+001 -1.1151e+002 -8.0924e+000 31402 103887,104017,103913
 5.5000e+000 104569 -1.1106e+002 -1.9984e+002  6.3240e+000 30998 104321,104425,104373
 5.5000e+000 104546 -1.2421e+002 -2.0436e+002  5.2662e+000 30998 104321,104451,104425
 5.5000e+000 104523 -8.4213e+001 -1.6482e+002  2.5190e+001 30998 104373,104425,104399
 5.5000e+000 104500 -9.9920e+001 -2.3207e+002 -8.3111e+000 30998 104295,104451,104321
 5.5000e+000 104477 -1.4925e+002 -2.3519e+002  4.4060e+001 30998 104321,104373,104347
 5.5000e+000 104947 -1.0235e+002 -1.7627e+002 -1.9773e+001 30608 104751,104803,104777
 5.5000e+000 104924 -6.7637e+001 -1.8127e+002 -6.8436e+000 30608 104725,104803,104751
 5.5000e+000 104901 -1.0766e+002 -1.7588e+002  1.2344e+001 30608 104699,104803,104725
 5.5000e+000 104878 -9.1560e+001 -1.6861e+002  1.0719e+001 30608 104673,104803,104699
 5.5000e+000 104855 -7.0592e+001 -1.6027e+002 -5.9392e+000 30608 104673,104829,104803
 5.5000e+000 105276 -7.3457e+001 -1.6410e+002  7.6380e+000 30204 105427,105129,105077
 5.5000e+000 105253 -5.0676e+001 -1.7959e+002  3.6861e+001 30204 105427,105077,105051
 5.5000e+000 105230 -6.2023e+001 -1.5824e+002  9.9547e+000 30204 105077,105129,105103
 5.5000e+000 105207 -4.3459e+001 -1.4781e+002  2.4973e+001 30204 105299,105181,105155
 5.5000e+000 105325 -4.5615e+001 -1.4417e+002  8.3233e+000 30204 105129,105181,105299
 5.5000e+000 105453 -8.7692e+001 -1.7410e+002  2.2104e+001 30204 105181,105129,105427
 5.5000e+000 105476 -1.0215e+002 -2.0663e+002  5.5354e+001 30204 105181,105427,105051
 5.5000e+000 105903 -5.9739e+001 -1.4077e+002 -1.0389e+001 29700 105606,105762,105736
 5.5000e+000 105880 -7.6474e+001 -1.4445e+002  4.4358e-001 29700 105580,105762,105606
 5.5000e+000 105857 -9.1370e+001 -1.7646e+002 -1.0317e+001 29700 105606,105710,105632
 5.5000e+000 105834 -7.6118e+001 -1.4903e+002 -4.3356e+000 29700 105606,105736,105710
 5.5000e+000 105811 -8.6293e+001 -1.6379e+002 -1.2094e+001 29700 105632,105710,105684
 5.5000e+000 105788 -8.2929e+001 -1.5556e+002 -5.7401e+000 29700 105632,105684,105658
 5.5000e+000 106102 -2.3676e+001 -1.6949e+002  7.7666e+000 29124 105978,106030,106004
 5.5000e+000 106079 -4.3036e+001 -1.6532e+002  8.7011e+000 29124 105926,106030,105978
 5.5000e+000 106056 -4.8949e+001 -1.9014e+002  2.3892e+001 29124 105926,105978,105952
 5.5000e+000 106301 -4.8415e+001 -1.7218e+002  9.7891e-001 28712 106151,106229,106203
 5.5000e+000 106278 -5.7927e+001 -1.9064e+002 -8.4053e+000 28712 106125,106229,106151
 5.5000e+000 106255 -5.0277e+001 -1.8054e+002  9.1368e+000 28712 106151,106203,106177
 5.5000e+000 106551 -6.0852e+001 -2.1513e+002  1.0783e+001 28258 106352,106404,106378
 5.5000e+000 106528 -8.3437e+001 -2.1745e+002  2.6139e+000 28258 106352,106456,106404
 5.5000e+000 106505 -8.3177e+001 -2.2182e+002  8.9630e-001 28258 106326,106456,106352
 5.5000e+000 106482 -7.4609e+001 -2.0305e+002 -2.4737e+000 28258 106404,106456,106430
 5.5000e+000 107012 -7.3139e+001 -1.8357e+002  3.6254e+001 27818 107035,106790,106764
 5.5000e+000 106989 -6.3689e+001 -1.7358e+002  1.4019e+001 27818 107035,106764,106868
 5.5000e+000 106966 -4.5452e+001 -2.1039e+002  2.0228e+001 27818 107107,106842,106816
 5.5000e+000 106943 -9.5063e+001 -1.6141e+002  7.8475e+000 27818 106738,106868,106764
 5.5000e+000 106920 -9.1536e+001 -1.4588e+002  2.0034e+001 27818 106738,106894,106868
 5.5000e+000 107061 -3.3311e+001 -1.7549e+002  4.1197e+001 27818 106816,106790,107035
 5.5000e+000 107084 -5.6936e+001 -1.9620e+002  2.1342e+001 27818 107107,106816,107035
 5.5000e+000 107133 -4.3208e+001 -1.8968e+002  1.0173e+001 27818 106868,106842,107107
 5.5000e+000 107156 -5.0645e+001 -1.6844e+002  1.3898e+001 27818 106868,107107,107035
 5.5000e+000 107613 -2.5382e+001 -1.3961e+002  2.9871e+001 27312 107339,107469,107365
 5.5000e+000 107590 -5.3918e+000 -1.2795e+002  2.5009e+001 27312 107339,107495,107469
 5.5000e+000 107567 -2.5971e+001 -1.3468e+002  1.4806e+001 27312 107391,107469,107443
 5.5000e+000 107544 -2.4135e+001 -1.4460e+002  1.2974e+001 27312 107365,107469,107391
 5.5000e+000 107521 -6.7139e+001 -1.4848e+002  7.3895e+000 27312 107391,107443,107417
 5.5000e+000 107991 -7.0560e+001 -2.0655e+002  8.8705e+000 26858 108086,108014,107795
 5.5000e+000 107968 -7.8117e+001 -2.1108e+002 -9.2485e+000 26858 108014,107717,107873
 5.5000e+000 107945 -8.0265e+001 -2.1779e+002  1.4679e+001 26858 108158,108086,107795
 5.5000e+000 107922 -6.4242e+001 -2.2054e+002  1.4996e+001 26858 108158,107795,107769
 5.5000e+000 107899 -6.1015e+001 -2.5879e+002  3.6051e+001 26858 107821,107873,107847
 5.5000e+000 108040 -7.5222e+001 -2.3450e+002  1.2243e+001 26858 107821,107795,108014
 5.5000e+000 108063 -4.7394e+001 -2.2078e+002  1.6272e+000 26858 107821,108014,107873
 5.5000e+000 108112 -9.5318e+001 -2.1669e+002  1.0047e+001 26858 107717,108014,108086
 5.5000e+000 108135 -7.9915e+001 -2.1827e+002  2.1880e+001 26858 107717,108086,107743
 5.5000e+000 108184 -6.2318e+001 -2.1078e+002  2.0685e+001 26858 107743,108086,108158
 5.5000e+000 108207 -5.4333e+001 -2.1929e+002  2.1102e+001 26858 107743,108158,107769
 5.5000e+000 108634 -9.5266e+001 -1.9628e+002  4.5047e+000 26404 108657,108415,108363
 5.5000e+000 108611 -1.0669e+002 -2.1072e+002  2.3154e+001 26404 108657,108363,108337
 5.5000e+000 108588 -9.2426e+001 -2.0110e+002  2.2775e+001 26404 108729,108311,108467
 5.5000e+000 108565 -1.0137e+002 -2.3371e+002  3.8982e+000 26404 108801,108441,108415
 5.5000e+000 108542 -1.3874e+002 -2.2209e+002  2.7736e+001 26404 108311,108493,108467
 5.5000e+000 108519 -6.5703e+001 -1.9701e+002  4.4480e+000 26404 108363,108415,108389
 5.5000e+000 108683 -1.2576e+002 -2.0912e+002  7.0867e+000 26404 108801,108415,108657
 5.5000e+000 108706 -1.1999e+002 -2.0804e+002  1.8259e+001 26404 108729,108467,108657
 5.5000e+000 108755 -7.4888e+001 -2.1190e+002  2.2618e+001 26404 108337,108311,108729
 5.5000e+000 108778 -8.8926e+001 -2.0902e+002  1.7463e+001 26404 108337,108729,108657
 5.5000e+000 108827 -1.2520e+002 -2.8264e+002 -1.0361e+001 26404 108467,108441,108801
 5.5000e+000 108850 -1.3804e+002 -2.4036e+002 -7.0013e+000 26404 108467,108801,108657
 5.5000e+000 109228 -9.5452e+001 -2.0460e+002 -8.5303e+000 26064 109006,109084,109058
 5.5000e+000 109205 -8.5180e+001 -1.9175e+002  4.1552e+000 26064 108980,109084,109006
 5.5000e+000 109182 -9.1782e+001 -1.8338e+002 -6.0779e+000 26064 108980,109110,109084
 5.5000e+000 109159 -9.1721e+001 -2.1428e+002 -8.9923e-001 26064 109006,109058,109032
 5.5000e+000 109136 -3.1950e+001 -1.6180e+002  7.1509e+000 26064 108954,109110,108980
 5.5000e+000 109427 -2.4078e+001 -1.7517e+002 -3.5573e+001 25660 109303,109355,109329
 5.5000e+000 109404 -4.8473e+001 -2.2419e+002 -8.3074e+000 25660 109277,109355,109303
 5.5000e+000 109381 -3.2168e+001 -2.1189e+002 -2.9447e+000 25660 109251,109355,109277
 5.5000e+000 109577 -3.2576e+001 -8.2020e+001  2.8446e+001 25306 109476,109528,109502
 5.5000e+000 109554  1.2200e+001 -6.9420e+001  2.1619e+001 25306 109450,109528,109476
 5.5000e+000 109778 -6.7717e+001 -1.8511e+002  5.0992e+000 24944 109628,109706,109654
 5.5000e+000 109755 -7.3041e+001 -1.8343e+002  1.0487e+000 24944 109602,109706,109628
 5.5000e+000 109732 -5.9793e+001 -1.7471e+002 -2.3756e+000 24944 109654,109706,109680
 5.5000e+000 110126 -5.9766e+001 -2.3638e+002  7.4192e+000 24440 110149,109907,109855
 5.5000e+000 110103 -5.5025e+001 -2.5019e+002  1.5469e+001 24440 110149,109855,109985
 5.5000e+000 110080 -4.6517e+001 -2.0316e+002  4.5727e+000 24440 109855,109907,109881
 5.5000e+000 110057 -4.7671e+001 -1.9435e+002  6.6827e+001 24440 109829,109985,109855
 5.5000e+000 110034 -5.4109e+001 -2.3511e+002  2.1997e+000 24440 109907,109959,109933
 5.5000e+000 110011 -2.0055e+001 -1.9773e+002  4.8133e+000 24440 109803,109985,109829
 5.5000e+000 110175 -5.6498e+001 -2.2497e+002  6.1430e+000 24440 109959,109907,110149
 5.5000e+000 110198 -5.1132e+001 -2.3632e+002  1.5579e+001 24440 109959,110149,109985
 5.5000e+000 110301 -4.5242e+000 -1.1943e+002  3.2760e+000 24028 110223,110275,110249
 5.5000e+000 110573 -2.9962e+001 -1.4109e+002  1.1477e+001 23467 110400,110452,110426
 5.5000e+000 110550 -5.0252e+001 -1.6767e+002  1.0072e+000 23467 110374,110452,110400
 5.5000e+000 110527 -5.3569e+001 -1.6904e+002  3.4173e+000 23467 110348,110452,110374
 5.5000e+000 110504 -3.9008e+001 -1.6281e+002 -6.4485e-001 23467 110348,110478,110452
 5.5000e+000 111004 -1.1063e+002 -2.4588e+002 -2.8456e+001 22963 111027,110733,110707
 5.5000e+000 110981 -1.1095e+002 -2.3267e+002  1.2989e+001 22963 111027,110707,110681
 5.5000e+000 110958 -5.2942e+001 -2.0202e+002 -2.4877e+001 22963 111099,110759,110733
 5.5000e+000 110935 -7.2425e+001 -2.0005e+002 -1.5978e+001 22963 111171,110863,110811
 5.5000e+000 110912 -3.2640e+001 -1.4615e+002 -2.8744e+001 22963 110759,110811,110785
 5.5000e+000 110889 -8.1789e+001 -2.1572e+002 -1.1493e+001 22963 110811,110863,110837
 5.5000e+000 111053 -8.0511e+001 -2.2094e+002 -1.4755e+001 22963 111099,110733,111027
 5.5000e+000 111076 -6.7994e+001 -2.1602e+002 -1.3142e+001 22963 111171,110811,111027
 5.5000e+000 111125 -5.1741e+001 -1.9798e+002 -3.9804e+001 22963 110811,110759,111099
 5.5000e+000 111148 -5.6148e+001 -1.9561e+002 -3.3656e+001 22963 110811,111099,111027
 5.5000e+000 111197 -7.2478e+001 -1.7514e+002 -1.9465e+001 22963 110681,110863,111171
 5.5000e+000 111220 -7.3641e+001 -1.9353e+002 -9.6763e+000 22963 110681,111171,111027
 5.5000e+000 111726 -1.0942e+002 -2.1177e+002  3.8209e+000 22459 111749,111507,111429
 5.5000e+000 111703 -9.8525e+001 -2.0812e+002 -5.0460e+000 22459 111749,111429,111585
 5.5000e+000 111680 -8.3078e+001 -2.2898e+002 -2.7123e+000 22459 111403,111585,111429
 5.5000e+000 111657 -1.0482e+002 -2.3352e+002  9.6408e+000 22459 111507,111559,111533
 5.5000e+000 111634 -1.3980e+002 -2.0083e+002  1.3054e+001 22459 111455,111507,111481
 5.5000e+000 111611 -1.5564e+002 -2.0409e+002  1.9505e+001 22459 111429,111507,111455
 5.5000e+000 111775 -1.0873e+002 -2.2555e+002  1.3507e+001 22459 111559,111507,111749
 5.5000e+000 111798 -9.8118e+001 -2.1523e+002  4.7269e+000 22459 111559,111749,111585
 5.5000e+000 112046 -4.9194e+001 -1.8006e+002 -2.2812e+001 21898 112069,111925,111873
 5.5000e+000 112023 -4.6988e+001 -1.8079e+002 -4.9962e+000 21898 112069,111873,111847
 5.5000e+000 112000 -6.2842e+001 -1.8598e+002 -9.7699e+000 21898 111821,111951,111847
 5.5000e+000 111977 -5.5201e+001 -1.4002e+002 -1.3855e+001 21898 111873,111925,111899
 5.5000e+000 112095 -7.4388e+001 -1.8914e+002 -2.6854e+001 21898 111951,111925,112069
 5.5000e+000 112118 -6.1735e+001 -1.8592e+002 -9.7202e+000 21898 111951,112069,111847
 5.5000e+000 112498 -8.2706e+001 -1.9642e+002 -1.5602e+001 21608 112521,112276,112224
 5.5000e+000 112475 -5.4565e+001 -1.9843e+002 -6.4366e-002 21608 112521,112224,112380
 5.5000e+000 112452 -5.8264e+001 -2.2933e+002  1.4155e+001 21608 112302,112380,112354
 5.5000e+000 112429 -9.9087e+001 -2.2339e+002 -8.5438e+000 21608 112224,112276,112250
 5.5000e+000 112406  3.4913e+001 -2.4825e+002 -1.1505e+001 21608 112302,112354,112328
 5.5000e+000 112547 -5.9779e+001 -1.7302e+002 -2.1248e+000 21608 112302,112276,112521
 5.5000e+000 112570 -4.0332e+001 -1.9241e+002  8.5295e+000 21608 112302,112521,112380
 5.5000e+000 112948 -9.7122e+001 -2.0206e+002 -2.0919e+000 20882 112971,112752,112700
 5.5000e+000 112925 -7.3969e+001 -1.9470e+002 -7.9434e+000 20882 112971,112700,112830
 5.5000e+000 112902 -1.2427e+002 -2.1975e+002  1.3852e+001 20882 112778,112830,112804
 5.5000e+000 112879 -6.8770e+001 -1.5814e+002 -1.1204e+001 20882 112674,112830,112700
 5.5000e+000 112856 -1.1780e+002 -2.0792e+002  4.8530e+000 20882 112700,112752,112726
 5.5000e+000 112997 -9.8232e+001 -2.0295e+002  1.0645e+001 20882 112778,112752,112971
 5.5000e+000 113020 -8.4902e+001 -1.9950e+002  4.3482e+000 20882 112778,112971,112830
 5.5000e+000 113526 -6.6588e+001 -2.0118e+002  1.6436e+000 20428 113255,113385,113333
 5.5000e+000 113503 -7.2475e+001 -2.1951e+002  1.6824e+000 20428 113229,113385,113255
 5.5000e+000 113480 -6.9179e+000 -1.9612e+002  2.7840e+000 20428 113255,113333,113281
 5.5000e+000 113457 -6.1922e+001 -2.1256e+002  4.7004e+000 20428 113203,113385,113229
 5.5000e+000 113434 -3.3416e+001 -2.0449e+002 -5.7970e+000 20428 113281,113333,113307
 5.5000e+000 113411 -8.3405e+001 -1.9929e+002  5.9644e+000 20428 113333,113385,113359
 5.5000e+000 113774 -1.3669e+001 -1.9643e+002  8.2346e+000 19917 113797,113601,113549
 5.5000e+000 113751 -3.4124e+001 -1.9959e+002  1.0486e+001 19917 113869,113797,113549
 5.5000e+000 113728 -3.2780e+001 -2.0183e+002  1.9127e+001 19917 113869,113549,113679
 5.5000e+000 113705 -2.0170e+001 -1.9467e+002  1.6982e+001 19917 113549,113601,113575
 5.5000e+000 113823 -3.4982e+001 -2.3808e+002 -4.0417e-001 19917 113627,113601,113797
 5.5000e+000 113846 -1.5341e+001 -1.8735e+002 -3.9412e+000 19917 113627,113797,113653
 5.5000e+000 113895 -2.9750e+001 -1.7852e+002  3.6064e+000 19917 113653,113797,113869
 5.5000e+000 113918 -3.7111e+001 -1.8425e+002  1.4674e+001 19917 113653,113869,113679
 5.5000e+000 114166 -9.1064e+001 -2.0586e+002 -3.1036e+000 19413 113993,114045,114019
 5.5000e+000 114143 -8.3135e+001 -1.9028e+002  2.4539e+000 19413 113967,114045,113993
 5.5000e+000 114120 -7.1159e+001 -1.8622e+002  1.1304e+001 19413 113967,114071,114045
 5.5000e+000 114097 -5.4328e+001 -2.1098e+002 -3.0953e+000 19413 113941,114071,113967
 5.5000e+000 114438 -8.4267e+001 -2.2234e+002  1.9966e+000 19001 114213,114265,114239
 5.5000e+000 114415 -6.0872e+001 -1.7327e+002 -5.1501e+000 19001 114213,114343,114265
 5.5000e+000 114392 -8.9902e+001 -2.3843e+002 -1.0691e+001 19001 114265,114343,114317
 5.5000e+000 114369  1.3811e+001 -1.9341e+002 -3.8289e+000 19001 114265,114317,114291
 5.5000e+000 114639 -6.4142e+001 -2.6290e+002  1.2187e+001 18554 114489,114541,114515
 5.5000e+000 114616 -5.5028e+001 -2.2866e+002  1.7007e+000 18554 114489,114567,114541
 5.5000e+000 114593 -1.1822e+002 -2.5858e+002 -1.7035e+001 18554 114463,114567,114489
 5.5000e+000 115043 -4.2622e+001 -1.9846e+002  7.5813e+000 18164 114795,114925,114821
 5.5000e+000 115020 -3.6424e+001 -2.0867e+002  1.2553e+001 18164 114769,114925,114795
 5.5000e+000 114997 -2.3406e+001 -2.0877e+002 -1.5691e+000 18164 115066,114873,114821
 5.5000e+000 114974 -2.1274e+001 -1.7864e+002 -6.5482e+000 18164 115066,114821,114925
 5.5000e+000 114951  1.5993e+001 -2.0871e+002 -2.0435e+001 18164 114821,114873,114847
 5.5000e+000 115092 -3.4631e+001 -1.8710e+002 -1.7418e+001 18164 114899,114873,115066
 5.5000e+000 115115 -2.0347e+001 -1.4105e+002 -2.3790e+001 18164 114899,115066,114925
 5.5000e+000 115265 -5.2603e+001 -2.1753e+002  2.0536e+000 17852 115164,115216,115190
 5.5000e+000 115242 -5.7389e+001 -2.2756e+002 -2.1478e-001 17852 115138,115216,115164
 5.5000e+000 115464 -1.3957e+002 -3.1369e+002  3.9289e+000 17346 115288,115366,115340
 5.5000e+000 115441 -2.1252e+002 -2.4156e+002 -1.0698e+001 17346 115288,115392,115366
 5.5000e+000 115418 -1.2409e+002 -3.5011e+002 -1.0409e+001 17346 115288,115340,115314
 5.5000e+000 115736 -4.9774e+001 -1.9559e+002  8.6205e+000 16942 115563,115641,115615
 5.5000e+000 115713 -5.6461e+001 -1.9511e+002  2.8760e+000 16942 115511,115641,115563
 5.5000e+000 115690 -1.3677e+002 -2.2907e+002  1.3224e+001 16942 115563,115615,115589
 5.5000e+000 115667 -6.6761e+001 -2.1162e+002  7.2451e+000 16942 115511,115563,115537
 5.5000e+000 116091 -1.0318e+002 -2.3898e+002 -8.6651e+000 16388 115918,115970,115944
 5.5000e+000 116068 -8.9227e+001 -1.9267e+002 -5.8547e+000 16388 115918,115996,115970
 5.5000e+000 116045 -1.1969e+002 -2.4275e+002  8.0839e+000 16388 115892,115996,115918
 5.5000e+000 116022 -7.7155e+001 -2.2047e+002  2.7984e+001 16388 115866,115996,115892
 5.5000e+000 116192 -2.8568e+001 -2.4718e+002 -3.5375e+001 15810 116114,116166,116140
 5.5000e+000 116342 -9.2284e+001 -2.9807e+002  1.6143e+001 15419 116241,116293,116267
 5.5000e+000 116319 -1.3158e+002 -3.6432e+002 -1.0142e+001 15419 116215,116293,116241
 5.5000e+000 116445 -1.0172e+002 -2.0725e+002  1.8987e+000 421 116367,116419,116393
 5.6000e+000 68477 -1.2890e+002 -1.8820e+002  5.4704e-001 68018 68327,68379,68353
 5.6000e+000 68454 -1.3676e+002 -2.4972e+002  1.8209e+001 68018 68301,68379,68327
 5.6000e+000 68431 -7.0761e+001 -2.7944e+002  4.3431e+001 68018 68301,68405,68379
 5.6000e+000 68578 -8.8999e+001 -1.8013e+002  1.4296e+000 67820 68500,68552,68526
 5.6000e+000 68728 -9.4554e+001 -1.6686e+002 -2.2633e+000 67508 68601,68653,68627
 5.6000e+000 68705 -1.4373e+002 -1.2512e+002 -2.3648e+001 67508 68601,68679,68653
 5.6000e+000 68927 -3.1738e+001 -1.5857e+002 -2.8086e+000 67310 68777,68829,68803
 5.6000e+000 68904 -4.2567e+001 -1.8331e+002  2.6415e+000 67310 68751,68829,68777
 5.6000e+000 68881 -3.1247e+001 -1.8429e+002  1.1316e+001 67310 68751,68855,68829
 5.6000e+000 69386 -7.6187e+001 -1.9678e+002 -8.5386e+000 67020 69216,69268,69242
 5.6000e+000 69363 -7.1034e+001 -1.5391e+002 -1.9247e+001 67020 69138,69268,69216
 5.6000e+000 69340 -5.1568e+001 -1.3899e+002 -1.1716e+001 67020 69112,69268,69138
 5.6000e+000 69317 -9.4593e+001 -1.6480e+002  1.1547e+001 67020 69138,69190,69164
 5.6000e+000 69294 -9.8365e+001 -1.5179e+002 -8.1316e+000 67020 69138,69216,69190
 5.6000e+000 69536 -1.3953e+002 -3.4301e+002 -2.7281e+001 66708 69435,69487,69461
 5.6000e+000 69513 -1.0266e+002 -3.8711e+002 -3.4223e+000 66708 69409,69487,69435
 5.6000e+000 69735 -9.1210e+001 -1.8299e+002  4.2220e+000 66346 69585,69637,69611
 5.6000e+000 69712 -7.6196e+001 -1.7483e+002 -5.7695e-001 66346 69559,69637,69585
 5.6000e+000 69689 -6.9362e+001 -1.7351e+002 -1.6865e+001 66346 69559,69663,69637
 5.6000e+000 69985 -1.3225e+002 -2.1767e+002  2.7739e+000 66148 69786,69890,69864
 5.6000e+000 69962 -1.3754e+002 -2.2033e+002  3.6876e+000 66148 69760,69890,69786
 5.6000e+000 69939 -9.8750e+001 -2.0587e+002 -3.0198e+001 66148 69786,69864,69838
 5.6000e+000 69916 -1.1549e+002 -2.1984e+002 -9.4651e+000 66148 69786,69838,69812
 5.6000e+000 70137 -6.3114e+001 -2.4469e+002 -1.3855e+001 65950 70036,70088,70062
 5.6000e+000 70114 -5.4568e+001 -2.7058e+002  1.1867e+001 65950 70010,70088,70036
 5.6000e+000 70470 -4.7157e+001 -1.8120e+002  1.3777e+001 65546 70245,70323,70271
 5.6000e+000 70447 -3.2510e+001 -1.5688e+002  6.3277e+000 65546 70245,70375,70323
 5.6000e+000 70424 -4.3185e+001 -2.0492e+002  7.0445e+000 65546 70323,70375,70349
 5.6000e+000 70401 -3.7532e+001 -1.6727e+002  5.9474e+000 65546 70271,70323,70297
 5.6000e+000 70620 -8.2695e+001 -2.0934e+002  6.8390e+000 65348 70493,70545,70519
 5.6000e+000 70597 -6.1842e+001 -2.2015e+002  8.0302e+000 65348 70493,70571,70545
 5.6000e+000 70721 -1.2347e+002 -2.6515e+002 -1.5924e+001 65150 70643,70695,70669
 5.6000e+000 71020 -7.6969e+001 -1.6436e+002  1.4180e+001 64952 71043,70850,70824
 5.6000e+000 70997 -6.6113e+001 -1.5728e+002 -2.0971e+000 64952 71043,70824,70772
 5.6000e+000 70974 -6.8469e+001 -2.0166e+002  5.0576e+000 64952 71115,70746,70876
 5.6000e+000 70951 -5.7898e+001 -2.0465e+002 -1.2952e+000 64952 70746,70902,70876
 5.6000e+000 70928 -7.4580e+001 -1.3972e+002 -1.3855e+001 64952 70772,70824,70798
 5.6000e+000 71069 -3.8365e+001 -1.3980e+002  3.5550e+001 64952 70876,70850,71043
 5.6000e+000 71092 -5.7158e+001 -1.8726e+002  9.9851e+000 64952 71115,70876,71043
 5.6000e+000 71141 -9.1878e+001 -1.8375e+002 -1.0372e+001 64952 70772,70746,71115
 5.6000e+000 71164 -7.8613e+001 -1.6303e+002 -4.4228e+000 64952 70772,71115,71043
 5.6000e+000 71365 -4.0546e+001 -2.3024e+002 -7.2362e+000 64662 71215,71293,71267
 5.6000e+000 71342 -3.0264e+001 -1.6610e+002  6.1542e+000 64662 71189,71293,71215
 5.6000e+000 71319 -1.6121e+000 -1.3977e+002  1.8596e-001 64662 71215,71267,71241
 5.6000e+000 71615 -5.7062e+001 -1.8841e+002 -1.8730e+000 64350 71710,71638,71468
 5.6000e+000 71592 -6.3217e+001 -1.8420e+002 -6.3831e+000 64350 71638,71416,71390
 5.6000e+000 71569 -6.1424e+001 -1.7532e+002  9.2280e+000 64350 71710,71468,71442
 5.6000e+000 71546  2.4491e+001 -1.7923e+002 -2.7357e+001 64350 71390,71520,71494
 5.6000e+000 71664 -5.2459e+001 -1.8689e+002 -5.0677e-001 64350 71494,71468,71638
 5.6000e+000 71687 -5.2554e+001 -1.9121e+002 -1.2561e-001 64350 71494,71638,71390
 5.6000e+000 71736 -5.0107e+001 -1.6174e+002  9.3911e-002 64350 71416,71638,71710
 5.6000e+000 71759 -5.1384e+001 -1.4936e+002  1.4161e+001 64350 71416,71710,71442
 5.6000e+000 72318 -5.9086e+001 -2.9781e+002 -1.2626e+001 63837 71972,72024,71998
 5.6000e+000 72295 -8.4429e+001 -1.9319e+002 -8.1568e-001 63837 72341,71972,71946
 5.6000e+000 72272 -7.6515e+001 -1.5486e+002  7.4653e+000 63837 72413,72341,71946
 5.6000e+000 72249 -7.2717e+001 -1.4002e+002  2.8146e+000 63837 72413,71946,72128
 5.6000e+000 72226 -1.0765e+002 -1.6925e+002  2.9074e-001 63837 72024,72076,72050
 5.6000e+000 72203 -9.4619e+001 -1.5665e+002 -6.0289e+000 63837 72024,72102,72076
 5.6000e+000 72180 -5.3726e+001 -1.3374e+002  1.1055e+001 63837 71946,72154,72128
 5.6000e+000 72367 -1.0101e+002 -2.0694e+002 -3.6265e+001 63837 72024,71972,72341
 5.6000e+000 72390 -7.9197e+001 -1.6875e+002 -1.4137e+001 63837 72024,72341,72102
 5.6000e+000 72439 -6.2906e+001 -1.7887e+002  2.6079e+000 63837 72102,72341,72413
 5.6000e+000 72462 -5.9404e+001 -1.6349e+002 -2.9794e-001 63837 72102,72413,72128
 5.6000e+000 72791 -9.6152e+001 -1.8166e+002 -1.9240e+001 63383 72592,72696,72670
 5.6000e+000 72768 -9.7818e+001 -1.7010e+002 -3.2487e+001 63383 72566,72696,72592
 5.6000e+000 72745 -9.2023e+001 -1.5817e+002 -1.1026e+000 63383 72592,72670,72618
 5.6000e+000 72722 -8.8587e+001 -1.4627e+002 -3.5152e+000 63383 72618,72670,72644
 5.6000e+000 73297 -1.1078e+002 -1.5790e+002 -1.4639e+000 63185 73000,73156,73130
 5.6000e+000 73274 -1.1161e+002 -1.6494e+002  1.9685e+001 63185 72974,73156,73000
 5.6000e+000 73251 -8.3157e+001 -1.8433e+002 -3.0443e+000 63185 73000,73052,73026
 5.6000e+000 73228 -9.1375e+001 -1.6320e+002 -8.7584e+000 63185 73000,73130,73052
 5.6000e+000 73205 -9.1382e+001 -1.8568e+002 -2.8439e+001 63185 73052,73130,73104
 5.6000e+000 73182 -8.5540e+001 -2.0299e+002 -2.9659e+001 63185 73052,73104,73078
 5.6000e+000 73545 -5.1199e+001 -1.7530e+002  4.5824e+000 62781 73568,73398,73372
 5.6000e+000 73522 -2.7290e+001 -1.6101e+002  2.1227e+001 62781 73568,73372,73346
 5.6000e+000 73499 -6.9812e+001 -2.0028e+002 -2.2812e+001 62781 73640,73320,73424
 5.6000e+000 73476 -6.9189e+001 -1.2709e+002 -3.9975e+001 62781 73320,73450,73424
 5.6000e+000 73594 -5.7903e+001 -1.6616e+002  4.2817e+000 62781 73424,73398,73568
 5.6000e+000 73617 -6.1609e+001 -1.9024e+002 -1.3381e+000 62781 73640,73424,73568
 5.6000e+000 73666 -5.8059e+001 -1.7564e+002 -8.7527e+000 62781 73346,73320,73640
 5.6000e+000 73689 -5.2283e+001 -1.5700e+002  1.0824e+001 62781 73346,73640,73568
 5.6000e+000 74035 -6.8696e+001 -1.8278e+002 -3.6447e+000 62363 74058,73868,73842
 5.6000e+000 74012 -6.2484e+001 -1.6787e+002 -1.4626e+001 62363 74130,74058,73842
 5.6000e+000 73989 -5.7385e+001 -1.6606e+002 -1.4901e+001 62363 74130,73842,73816
 5.6000e+000 73966 -9.0285e+001 -1.9062e+002  2.3920e+000 62363 74202,73764,73894
 5.6000e+000 73943 -1.1690e+002 -1.7372e+002  2.8220e+000 62363 73712,73894,73764
 5.6000e+000 73920 -1.2422e+002 -1.8101e+002 -9.8943e-001 62363 73712,73764,73738
 5.6000e+000 74084 -6.7159e+001 -1.8006e+002 -2.9169e+000 62363 73894,73868,74058
 5.6000e+000 74107 -8.3153e+001 -1.8221e+002  7.7826e+000 62363 74202,73894,74058
 5.6000e+000 74156 -6.8522e+001 -1.6963e+002  3.9905e+000 62363 73790,74058,74130
 5.6000e+000 74179 -4.3436e+001 -1.5933e+002  5.6223e+000 62363 73790,74130,73816
 5.6000e+000 74228 -9.7957e+001 -1.9402e+002 -9.7928e+000 62363 73790,73764,74202
 5.6000e+000 74251 -9.2446e+001 -1.8494e+002 -4.4969e+000 62363 73790,74202,74058
 5.6000e+000 74403 -1.0045e+001 -1.9595e+002  1.2328e+001 62115 74426,74302,74276
 5.6000e+000 74380  2.4362e+001 -1.8883e+002  2.6401e+001 62115 74426,74276,74354
 5.6000e+000 74452 -4.2010e+001 -1.7868e+002  1.2154e+001 62115 74328,74302,74426
 5.6000e+000 74475 -1.0108e+001 -1.7282e+002  2.7149e+001 62115 74328,74426,74354
 5.6000e+000 74578 -3.1700e+000 -1.0850e+002 -1.0991e+000 61825 74500,74552,74526
 5.6000e+000 74982 -9.4564e+001 -1.6622e+002  7.3392e-001 61513 75005,74734,74708
 5.6000e+000 74959 -9.3214e+001 -1.5973e+002 -1.2669e+000 61513 75005,74708,74864
 5.6000e+000 74936 -1.1945e+002 -1.7238e+002  1.0127e+001 61513 75077,74812,74734
 5.6000e+000 74913 -1.0021e+002 -1.6545e+002 -1.4724e+001 61513 74734,74786,74760
 5.6000e+000 74890 -1.0082e+002 -1.5401e+002 -1.8091e+000 61513 74734,74812,74786
 5.6000e+000 75031 -8.9864e+001 -1.7139e+002  1.1956e+000 61513 75077,74734,75005
 5.6000e+000 75054 -7.1476e+001 -1.6477e+002  2.4560e+001 61513 74838,75005,74864
 5.6000e+000 75103 -1.3574e+002 -1.7860e+002  3.7222e+001 61513 74838,74812,75077
 5.6000e+000 75126 -1.1660e+002 -1.8489e+002  2.8307e+001 61513 74838,75077,75005
 5.6000e+000 75553 -4.9677e+001 -1.5318e+002 -5.4063e+000 61060 75576,75360,75308
 5.6000e+000 75530 -4.9163e+001 -1.6353e+002 -5.3932e+000 61060 75576,75308,75230
 5.6000e+000 75507 -4.5191e+001 -1.4867e+002 -1.9621e+000 61060 75308,75360,75334
 5.6000e+000 75484 -6.5036e+001 -1.9207e+002  1.0163e+001 61060 75230,75308,75256
 5.6000e+000 75461 -5.1197e+001 -1.7883e+002  3.8213e+000 61060 75256,75308,75282
 5.6000e+000 75438 -5.7131e+001 -1.4938e+002  1.7322e+001 61060 75360,75412,75386
 5.6000e+000 75602 -4.1874e+001 -1.6185e+002  7.1982e-001 61060 75412,75360,75576
 5.6000e+000 75625 -4.6661e+001 -1.8014e+002 -1.2643e+000 61060 75412,75576,75230
 5.6000e+000 76052 -7.3074e+001 -1.5962e+002  2.3008e+000 60442 75755,75859,75833
 5.6000e+000 76029 -8.2666e+001 -1.5077e+002 -1.1178e+001 60442 75729,75859,75755
 5.6000e+000 76006 -7.5713e+001 -1.4848e+002  9.2915e+000 60442 75755,75833,75807
 5.6000e+000 75983 -7.5152e+001 -1.7505e+002  4.3729e+000 60442 75755,75807,75781
 5.6000e+000 75960 -4.6730e+000 -2.7716e+002  9.5784e+000 60442 75729,75911,75859
 5.6000e+000 75937 -1.4274e+002 -6.7899e+002  4.3445e+001 60442 75859,75911,75885
 5.6000e+000 76430 -7.7263e+001 -1.9987e+002 -4.5933e+000 59788 76453,76286,76234
 5.6000e+000 76407 -8.4190e+001 -2.2749e+002  5.0039e+000 59788 76453,76234,76182
 5.6000e+000 76384 -8.4435e+001 -1.5270e+002  2.6885e+001 59788 76525,76156,76312
 5.6000e+000 76361 -4.9522e+001 -2.6136e+002 -1.0330e+000 59788 76182,76234,76208
 5.6000e+000 76338 -6.5220e+001 -1.8875e+002  6.6939e-001 59788 76234,76286,76260
 5.6000e+000 76479 -9.1052e+001 -2.1485e+002  4.2322e+000 59788 76312,76286,76453
 5.6000e+000 76502 -7.7802e+001 -2.0341e+002  1.2259e+001 59788 76525,76312,76453
 5.6000e+000 76551 -1.0461e+002 -2.1653e+002  2.8012e+001 59788 76182,76156,76525
 5.6000e+000 76574 -9.2814e+001 -2.3205e+002  1.7718e+001 59788 76182,76525,76453
 5.6000e+000 77031 -5.3289e+001 -1.2291e+002 -1.6524e+001 59448 76835,76887,76861
 5.6000e+000 77008 -2.2496e+001 -1.0029e+002  5.2083e+000 59448 76835,76913,76887
 5.6000e+000 76985 -2.9044e+001 -8.4490e+001  1.6318e+001 59448 76809,76913,76835
 5.6000e+000 76962 -5.8543e+001 -1.1236e+002 -1.0308e+000 59448 76757,76913,76809
 5.6000e+000 76939 -4.8748e+001 -1.0001e+002 -5.2747e+000 59448 76757,76809,76783
 5.6000e+000 77537 -7.6315e+001 -1.6734e+002  7.8225e+000 58994 77560,77344,77292
 5.6000e+000 77514 -1.0673e+002 -1.6400e+002  2.3550e+000 58994 77560,77292,77240
 5.6000e+000 77491 -6.1845e+001 -1.5286e+002 -3.6318e+000 58994 77632,77214,77370
 5.6000e+000 77468 -1.2555e+002 -1.9067e+002  3.2067e+001 58994 77292,77344,77318
 5.6000e+000 77445 -6.2889e+001 -1.9595e+002  7.2222e+000 58994 77214,77396,77370
 5.6000e+000 77422 -1.0977e+002 -1.7665e+002 -4.0708e+000 58994 77240,77292,77266
 5.6000e+000 77586 -8.0740e+001 -1.6831e+002  8.7912e+000 58994 77370,77344,77560
 5.6000e+000 77609 -7.9681e+001 -1.6351e+002  1.0960e+001 58994 77632,77370,77560
 5.6000e+000 77658 -5.2177e+001 -1.4176e+002 -2.0327e+001 58994 77240,77214,77632
 5.6000e+000 77681 -6.5605e+001 -1.4048e+002 -7.1942e+000 58994 77240,77632,77560
 5.6000e+000 78138 -6.7030e+001 -1.1821e+002  1.6277e+001 58440 77864,77994,77890
 5.6000e+000 78115 -4.5926e+001 -7.2747e+001 -9.7672e+000 58440 77864,78020,77994
 5.6000e+000 78092 -7.6559e+001 -1.3917e+002 -1.2550e+001 58440 77942,77994,77968
 5.6000e+000 78069 -6.1191e+001 -1.3194e+002  2.4449e+000 58440 77890,77994,77942
 5.6000e+000 78046 -5.5371e+001 -1.3378e+002 -1.9703e+000 58440 77890,77942,77916
 5.6000e+000 78467 -1.4715e+001 -1.5264e+002  3.8159e+000 57928 78562,78490,78346
 5.6000e+000 78444 -5.8229e+001 -1.5342e+002 -3.0838e+000 57928 78490,78294,78268
 5.6000e+000 78421 -5.2703e+000 -1.6051e+002  1.1607e+001 57928 78562,78346,78320
 5.6000e+000 78398 -2.4330e+001 -1.4920e+002  9.1445e-001 57928 78242,78372,78268
 5.6000e+000 78516 -5.1790e+001 -1.8898e+002 -1.1479e+001 57928 78372,78346,78490
 5.6000e+000 78539 -4.2030e+001 -1.4687e+002 -2.6676e+000 57928 78372,78490,78268
 5.6000e+000 78588 -5.8625e+001 -1.5225e+002 -2.6590e-001 57928 78294,78490,78562
 5.6000e+000 78611 -3.0658e+001 -1.3906e+002  1.4728e+001 57928 78294,78562,78320
 5.6000e+000 79068 -1.1461e+002 -2.4380e+002 -6.0931e+001 57467 78794,78924,78820
 5.6000e+000 79045 -8.8784e+001 -2.3167e+002 -5.6519e+001 57467 78794,78950,78924
 5.6000e+000 79022 -4.6265e+001 -2.1908e+002  2.3471e+001 57467 78820,78898,78872
 5.6000e+000 78999 -8.3092e+001 -3.0308e+002 -3.0847e+001 57467 78820,78924,78898
 5.6000e+000 78976 -3.5198e+001 -2.2273e+002  3.5111e+001 57467 78820,78872,78846
 5.6000e+000 79446 -9.6272e+001 -1.8021e+002 -1.2962e+000 57120 79172,79302,79250
 5.6000e+000 79423 -8.7245e+001 -1.7606e+002 -7.5591e+000 57120 79172,79328,79302
 5.6000e+000 79400 -8.7800e+001 -1.5739e+002 -7.4065e+000 57120 79172,79250,79198
 5.6000e+000 79377 -6.7939e+001 -2.2605e+002  7.2268e+000 57120 79250,79302,79276
 5.6000e+000 79354 -1.0549e+002 -1.6981e+002 -1.3311e+001 57120 79198,79250,79224
 5.6000e+000 79952 -1.2936e+002 -2.0515e+002  1.0697e+000 56773 79629,79785,79655
 5.6000e+000 79929 -3.6439e+001 -1.7660e+002  9.5279e+000 56773 79629,79811,79785
 5.6000e+000 79906 -1.0047e+002 -2.2156e+002  1.5335e+001 56773 79655,79733,79681
 5.6000e+000 79883 -9.7813e+001 -1.9682e+002  4.2845e+000 56773 79655,79785,79733
 5.6000e+000 79860 -9.3415e+001 -2.6100e+002 -2.9635e+001 56773 79733,79785,79759
 5.6000e+000 79837 -5.5052e+001 -2.0056e+002  3.9283e+001 56773 79681,79733,79707
 5.6000e+000 80281 -4.7388e+001 -1.4789e+002 -1.2148e+001 56319 80108,80160,80134
 5.6000e+000 80258 -5.0524e+001 -1.6171e+002 -1.4934e+001 56319 80056,80160,80108
 5.6000e+000 80235 -2.3263e+001 -1.4350e+002  8.7422e+000 56319 80056,80186,80160
 5.6000e+000 80212 -6.6207e+001 -2.0545e+002 -1.0541e+001 56319 80056,80108,80082
 5.6000e+000 80738 -2.5242e+001 -1.8265e+002  9.8208e+000 55957 80516,80620,80594
 5.6000e+000 80715 -6.5862e+001 -1.6620e+002  7.4087e+000 55957 80464,80620,80516
 5.6000e+000 80692 -5.5197e+001 -2.0044e+002  1.0364e+001 55957 80761,80568,80542
 5.6000e+000 80669 -4.6338e+001 -1.9695e+002  1.2265e+001 55957 80761,80542,80516
 5.6000e+000 80646 -6.4849e+001 -1.6337e+002  2.1299e+001 55957 80464,80516,80490
 5.6000e+000 80787 -6.4294e+001 -1.9883e+002  7.2895e+000 55957 80594,80568,80761
 5.6000e+000 80810 -5.5949e+001 -1.9556e+002  9.2749e+000 55957 80594,80761,80516
 5.6000e+000 81210 -6.0009e+001 -1.9050e+002 -1.6041e+001 55317 80936,80988,80962
 5.6000e+000 81187 -5.1165e+001 -2.0273e+002  8.8413e-001 55317 80936,81066,80988
 5.6000e+000 81164 -4.4088e+001 -2.1728e+002  5.3658e+000 55317 80936,81092,81066
 5.6000e+000 81141 -7.3352e+001 -2.1756e+002 -1.8091e+001 55317 80988,81066,81014
 5.6000e+000 81118 -1.7876e+001 -1.2679e+002  1.3507e+001 55317 81014,81066,81040
 5.6000e+000 81539 -8.2463e+001 -1.8270e+002  3.3536e+000 54913 81340,81418,81392
 5.6000e+000 81516 -3.4397e+001 -1.4904e+002 -1.2197e+001 54913 81340,81444,81418
 5.6000e+000 81493 -5.1114e+001 -1.5962e+002 -2.3353e+001 54913 81314,81444,81340
 5.6000e+000 81470 -9.4293e+001 -1.9550e+002 -1.5623e+000 54913 81340,81392,81366
 5.6000e+000 81787 -4.8307e+001 -1.9503e+002 -1.8905e+000 54601 81588,81692,81640
 5.6000e+000 81764 -7.1208e+001 -1.9701e+002 -6.7389e+000 54601 81562,81692,81588
 5.6000e+000 81741 -4.1327e+001 -1.9918e+002  2.4607e+001 54601 81588,81640,81614
 5.6000e+000 81718 -4.9621e+001 -2.3148e+002 -2.0798e+001 54601 81640,81692,81666
 5.6000e+000 82344 -7.0700e+001 -1.9273e+002 -8.9242e+000 54090 81998,82102,82076
 5.6000e+000 82321 -9.5233e+001 -2.0341e+002 -5.7062e+000 54090 81998,82154,82102
 5.6000e+000 82298 -8.7644e+001 -1.9897e+002 -3.5322e+000 54090 81972,82154,81998
 5.6000e+000 82275 -9.9522e+001 -1.8019e+002 -1.0438e+001 54090 81998,82076,82024
 5.6000e+000 82252 -1.0627e+002 -2.1180e+002  9.7032e+000 54090 81972,82180,82154
 5.6000e+000 82229 -1.3477e+002 -2.5051e+002  1.5545e+001 54090 82102,82154,82128
 5.6000e+000 82206 -1.8088e+001 -1.3453e+002 -3.0064e+001 54090 82024,82076,82050
 5.6000e+000 82722 -1.2524e+002 -2.2672e+002 -7.4158e+000 53579 82500,82578,82552
 5.6000e+000 82699 -9.5038e+001 -2.0686e+002  4.8147e+000 53579 82448,82578,82500
 5.6000e+000 82676 -1.0437e+002 -2.3411e+002  6.2439e+000 53579 82448,82500,82474
 5.6000e+000 82653 -1.2204e+002 -2.2102e+002  1.5842e+001 53579 82448,82604,82578
 5.6000e+000 82630 -6.7152e+001 -2.1125e+002 -8.4701e+000 53579 82500,82552,82526
 5.6000e+000 83356 -6.3922e+001 -1.6516e+002 -1.4891e+001 53189 83379,83088,83036
 5.6000e+000 83333 -6.1584e+001 -1.8649e+002 -1.3150e+001 53189 83379,83036,82984
 5.6000e+000 83310 -2.7659e+001 -1.7420e+002  2.7356e+001 53189 82984,83192,83166
 5.6000e+000 83287 -1.5887e+000 -1.3657e+002 -8.0982e+000 53189 83036,83088,83062
 5.6000e+000 83264 -4.6450e+001 -2.0680e+002 -2.8326e+001 53189 82984,83036,83010
 5.6000e+000 83241 -4.6526e+001 -2.0931e+002  6.5480e+000 53189 83114,83166,83140
 5.6000e+000 83218 -8.7878e+001 -2.1857e+002  4.4149e+000 53189 83088,83166,83114
 5.6000e+000 83405 -6.4424e+001 -1.7951e+002 -6.1265e+000 53189 83166,83088,83379
 5.6000e+000 83428 -5.8843e+001 -1.9831e+002 -5.7461e+000 53189 83166,83379,82984
 5.6000e+000 83725 -7.9878e+001 -2.2769e+002 -2.2322e+001 52585 83748,83529,83503
 5.6000e+000 83702 -5.9154e+001 -2.2094e+002 -1.4905e+001 52585 83820,83748,83503
 5.6000e+000 83679 -3.9300e+001 -2.1414e+002 -1.1944e+001 52585 83820,83503,83477
 5.6000e+000 83656 -2.8224e+001 -1.9400e+002  2.2607e+001 52585 83477,83607,83581
 5.6000e+000 83633  1.3729e+001 -1.7550e+002  2.5684e+001 52585 83451,83607,83477
 5.6000e+000 83774 -6.9462e+001 -2.0158e+002 -1.9514e+001 52585 83555,83529,83748
 5.6000e+000 83797 -9.2226e+001 -2.1731e+002 -1.2658e+001 52585 83555,83748,83581
 5.6000e+000 83846 -7.7901e+001 -2.0662e+002 -4.5499e+000 52585 83581,83748,83820
 5.6000e+000 83869 -6.4040e+001 -2.0379e+002 -3.8180e+000 52585 83581,83820,83477
 5.6000e+000 84200 -5.9379e+001 -2.0457e+002 -7.9268e+000 52024 84001,84105,84079
 5.6000e+000 84177 -3.1342e+001 -1.9908e+002 -1.4594e+001 52024 83975,84105,84001
 5.6000e+000 84154 -5.1277e+001 -2.0550e+002 -5.9946e+000 52024 84001,84079,84053
 5.6000e+000 84131 -2.6108e+001 -1.3986e+002  2.3437e+001 52024 84001,84053,84027
 5.6000e+000 84399 -5.2240e+001 -2.0279e+002 -2.1061e+000 51470 84422,84275,84249
 5.6000e+000 84376 -5.0088e+001 -1.9649e+002 -6.5275e-001 51470 84422,84249,84223
 5.6000e+000 84353 -5.8119e+001 -2.1658e+002 -3.0615e+001 51470 84275,84327,84301
 5.6000e+000 84448 -5.4607e+001 -1.9710e+002 -2.5582e+000 51470 84327,84275,84422
 5.6000e+000 84471 -5.3355e+001 -1.9205e+002 -1.1562e+000 51470 84327,84422,84223
 5.6000e+000 84753 -5.8777e+001 -1.6762e+002 -9.0119e-001 51073 84603,84655,84629
 5.6000e+000 84730 -1.1933e+002 -1.9524e+002 -8.3132e+000 51073 84776,84655,84603
 5.6000e+000 84707 -2.9419e+001 -1.7073e+002 -4.6315e+001 51073 84577,84681,84655
 5.6000e+000 84802 -7.6377e+001 -1.7061e+002 -2.2547e+001 51073 84577,84655,84776
 5.6000e+000 85178 -1.1032e+002 -2.4557e+002  2.2404e+001 50519 85201,85008,84982
 5.6000e+000 85155 -1.0427e+002 -2.2832e+002  1.7353e+001 50519 85273,85201,84982
 5.6000e+000 85132 -9.8805e+001 -2.2793e+002  1.3910e+001 50519 85273,84982,84930
 5.6000e+000 85109 -9.6008e+001 -2.2045e+002  1.1936e+001 50519 84930,84982,84956
 5.6000e+000 85086 -9.4519e+001 -2.3510e+002  1.1353e+001 50519 85008,85060,85034
 5.6000e+000 85227 -9.3401e+001 -2.3454e+002  1.0484e+001 50519 85060,85008,85201
 5.6000e+000 85250 -1.0379e+002 -2.3553e+002  7.6571e+000 50519 85060,85201,84904
 5.6000e+000 85299 -9.8969e+001 -2.3181e+002  6.0131e+000 50519 84904,85201,85273
 5.6000e+000 85322 -7.8314e+001 -2.0401e+002 -3.1393e+000 50519 84904,85273,84930
 5.6000e+000 85958 -6.9704e+001 -2.0508e+002 -6.1592e+000 50093 85981,85768,85716
 5.6000e+000 85935 -6.2298e+001 -1.8721e+002 -6.0568e+000 50093 85981,85716,85612
 5.6000e+000 85912 -8.5848e+001 -1.9347e+002  4.4871e+000 50093 85612,85716,85664
 5.6000e+000 85889 -5.4665e+001 -2.0046e+002 -1.8700e+000 50093 85716,85768,85742
 5.6000e+000 85866 -7.1343e+001 -1.5077e+002 -3.8918e+001 50093 85664,85716,85690
 5.6000e+000 85843 -2.5051e+001 -1.4233e+002 -6.2213e+000 50093 85586,85794,85612
 5.6000e+000 85820 -5.7781e+001 -2.6244e+002  2.3798e+001 50093 85612,85664,85638
 5.6000e+000 86007 -8.5193e+001 -2.2084e+002 -3.1933e+001 50093 85794,85768,85981
 5.6000e+000 86030 -6.1952e+001 -1.6838e+002 -2.5331e+001 50093 85794,85981,85612
 5.6000e+000 86131 -6.5986e+001 -1.9621e+002  2.6479e+001 49895 86053,86105,86079
 5.6000e+000 86639 -5.3491e+001 -1.4397e+002 -2.8039e+001 49391 86662,86394,86368
 5.6000e+000 86616 -6.3035e+001 -1.7579e+002 -2.5304e+001 49391 86662,86368,86342
 5.6000e+000 86593 -3.2380e+001 -1.7473e+002 -7.1489e+000 49391 86342,86498,86472
 5.6000e+000 86570 -2.1989e+001 -1.8884e+002 -8.2949e+000 49391 86316,86498,86342
 5.6000e+000 86547 -9.8764e+001 -2.6675e+002 -1.0379e+001 49391 86394,86472,86446
 5.6000e+000 86524 -1.1683e+001 -2.5349e+002  2.8919e+000 49391 86394,86446,86420
 5.6000e+000 86688 -5.9081e+001 -1.7362e+002 -1.4286e+001 49391 86472,86394,86662
 5.6000e+000 86711 -5.3664e+001 -1.8732e+002 -1.3973e+001 49391 86472,86662,86342
 5.6000e+000 87089 -7.5293e+001 -2.0502e+002  5.5287e+000 48987 86815,86919,86867
 5.6000e+000 87066 -7.5083e+001 -2.1144e+002  8.7432e+000 48987 86815,86971,86919
 5.6000e+000 87043 -2.9399e+001 -2.2535e+002 -1.9406e+001 48987 86867,86919,86893
 5.6000e+000 87020 -8.4992e+001 -2.3185e+002  1.9106e+001 48987 86815,86867,86841
 5.6000e+000 86997 -8.3337e+001 -1.8153e+002  2.8750e+001 48987 86919,86971,86945
 5.6000e+000 87467 -1.4001e+002 -2.0587e+002  1.1027e+001 48540 87490,87245,87219
 5.6000e+000 87444 -1.0001e+002 -1.9304e+002  1.6990e+000 48540 87562,87490,87219
 5.6000e+000 87421 -7.6247e+001 -1.8345e+002  8.7911e+000 48540 87562,87219,87349
 5.6000e+000 87398 -1.0439e+002 -1.5939e+002 -8.4536e+000 48540 87245,87297,87271
 5.6000e+000 87375 -6.4430e+001 -1.9271e+002  6.4302e+000 48540 87193,87349,87219
 5.6000e+000 87516 -9.5201e+001 -1.9429e+002  4.7214e+000 48540 87297,87245,87490
 5.6000e+000 87539 -9.6501e+001 -1.9744e+002  4.8612e+000 48540 87297,87490,87323
 5.6000e+000 87588 -7.7110e+001 -1.8283e+002  1.7267e+001 48540 87323,87490,87562
 5.6000e+000 87611 -6.5581e+001 -1.8555e+002  2.1985e+001 48540 87323,87562,87349
 5.6000e+000 87810 -9.0474e+001 -3.2406e+002 -2.3653e+001 48136 87660,87712,87686
 5.6000e+000 87787 -5.2508e+001 -1.9332e+002 -1.0841e+001 48136 87660,87738,87712
 5.6000e+000 87764 -1.2294e+002 -1.9961e+002 -3.3744e+001 48136 87634,87738,87660
 5.6000e+000 88205 -8.8998e+001 -2.1717e+002 -2.0251e+001 47210 88300,88228,87937
 5.6000e+000 88182 -7.7575e+001 -2.1040e+002 -6.3321e+000 47210 88228,87833,88041
 5.6000e+000 88159 -9.0375e+001 -2.3284e+002 -3.1620e+001 47210 88300,87937,87911
 5.6000e+000 88136 -8.5629e+001 -2.0990e+002 -2.5991e+001 47210 87833,87911,87859
 5.6000e+000 88113 -1.4943e+002 -1.9166e+002 -1.7971e+001 47210 87937,87989,87963
 5.6000e+000 88090 -7.5319e+001 -1.7310e+002  3.6583e+001 47210 87989,88041,88015
 5.6000e+000 88067 -9.9432e+001 -2.4444e+002 -3.3430e+001 47210 87859,87911,87885
 5.6000e+000 88254 -7.8979e+001 -1.7803e+002 -2.0871e+001 47210 87989,87937,88228
 5.6000e+000 88277 -9.4461e+001 -2.0686e+002 -8.2842e+000 47210 87989,88228,88041
 5.6000e+000 88326 -7.3676e+001 -2.0221e+002 -7.9956e+000 47210 87833,88228,88300
 5.6000e+000 88349 -7.7503e+001 -2.1264e+002 -2.0205e+001 47210 87833,88300,87911
 5.6000e+000 88780 -1.2945e+002 -2.3006e+002 -4.3961e+001 46642 88803,88509,88483
 5.6000e+000 88757 -9.3202e+001 -2.0716e+002 -2.3389e+001 46642 88803,88483,88639
 5.6000e+000 88734 -1.0283e+002 -1.6964e+002 -2.7576e+001 46642 88875,88561,88509
 5.6000e+000 88711 -1.0370e+002 -1.5635e+002 -4.7008e+000 46642 88509,88561,88535
 5.6000e+000 88688 -5.8368e+001 -2.2819e+002  9.9967e-001 46642 88457,88639,88483
 5.6000e+000 88665 -1.1972e+002 -2.7885e+002 -1.2828e+001 46642 88561,88613,88587
 5.6000e+000 88829 -1.0375e+002 -1.8534e+002 -3.1055e+001 46642 88875,88509,88803
 5.6000e+000 88852 -1.0183e+002 -2.2236e+002 -1.9853e+001 46642 88613,88803,88639
 5.6000e+000 88901 -8.4450e+001 -1.9126e+002 -1.4463e+001 46642 88613,88561,88875
 5.6000e+000 88924 -9.2307e+001 -2.1657e+002 -1.7427e+001 46642 88613,88875,88803
 5.6000e+000 89253 -4.0228e+001 -2.0662e+002  3.8561e+000 46444 89080,89158,89132
 5.6000e+000 89230 -4.5135e+001 -2.1709e+002  1.3998e+000 46444 89028,89158,89080
 5.6000e+000 89207 -1.8434e+001 -1.9445e+002 -8.2562e+000 46444 89028,89080,89054
 5.6000e+000 89184 -1.8046e+001 -2.2398e+002 -1.8156e+001 46444 89080,89132,89106
 5.6000e+000 89631 -6.1921e+001 -1.4342e+002  4.2365e+000 46040 89383,89461,89435
 5.6000e+000 89608 -6.5416e+001 -1.5876e+002 -8.5355e+000 46040 89383,89487,89461
 5.6000e+000 89585 -6.7214e+001 -1.8392e+002 -4.1471e+000 46040 89383,89435,89409
 5.6000e+000 89562 -5.2333e+001 -1.3684e+002 -1.7873e+001 46040 89383,89513,89487
 5.6000e+000 89539 -2.1136e+001 -1.2117e+002 -2.5630e+001 46040 89357,89513,89383
 5.6000e+000 90009 -6.6039e+001 -1.8309e+002 -4.0312e-001 45636 89813,89891,89839
 5.6000e+000 89986 -6.7950e+001 -1.7062e+002  1.0576e+001 45636 89787,89891,89813
 5.6000e+000 89963 -6.0430e+001 -1.7247e+002 -4.0872e+000 45636 89839,89891,89865
 5.6000e+000 89940 -7.7898e+001 -1.9017e+002  6.5273e+000 45636 89735,89891,89787
 5.6000e+000 89917 -6.2184e+001 -1.9190e+002 -7.2513e+000 45636 89735,89787,89761
 5.6000e+000 90208 -4.1442e+001 -1.4129e+002 -2.7408e+001 45175 90231,90058,90032
 5.6000e+000 90185 -2.4461e+001 -1.2894e+002 -4.1453e+001 45175 90231,90032,90136
 5.6000e+000 90162 -4.9579e+001 -1.1236e+002 -9.2102e-001 45175 90058,90110,90084
 5.6000e+000 90257 -6.0179e+001 -1.5886e+002 -6.1079e+000 45175 90110,90058,90231
 5.6000e+000 90280 -2.7811e+001 -1.3732e+002 -2.1804e+001 45175 90110,90231,90136
 5.6000e+000 90528 -4.5472e+001 -1.4379e+002 -1.8844e+001 44513 90695,90551,90407
 5.6000e+000 90505 -4.8986e+001 -1.3042e+002 -1.0635e+001 44513 90551,90355,90329
 5.6000e+000 90482 -5.7382e+001 -1.4065e+002 -1.7525e+001 44513 90623,90303,90433
 5.6000e+000 90459 -3.6566e+001 -1.3374e+002 -1.3205e+001 44513 90695,90407,90381
 5.6000e+000 90577 -6.5422e+001 -1.5009e+002 -3.2432e+001 44513 90433,90407,90551
 5.6000e+000 90600 -5.6185e+001 -1.3747e+002 -1.6823e+001 44513 90623,90433,90551
 5.6000e+000 90649 -5.5889e+001 -1.3676e+002 -1.6942e+001 44513 90329,90303,90623
 5.6000e+000 90672 -5.6653e+001 -1.3610e+002 -1.6805e+001 44513 90329,90623,90551
 5.6000e+000 90721 -5.7174e+001 -1.3014e+002 -2.1585e+001 44513 90355,90551,90695
 5.6000e+000 90744 -5.4999e+001 -1.2481e+002 -1.9351e+001 44513 90355,90695,90381
 5.6000e+000 91077  3.2624e+000 -1.4851e+002 -9.0012e+000 44059 91100,90930,90904
 5.6000e+000 91054 -5.8095e+001 -1.6079e+002  9.4022e+000 44059 91100,90904,90982
 5.6000e+000 91031 -1.0387e+002 -1.8543e+002 -1.1875e+001 44059 90878,90982,90904
 5.6000e+000 91008 -3.5126e+001 -1.4174e+002  8.0315e+000 44059 90852,90982,90878
 5.6000e+000 91126 -9.2904e+001 -1.7422e+002 -9.4789e+000 44059 91172,91100,90956
 5.6000e+000 91149 -5.6622e+001 -1.6091e+002 -6.8620e+000 44059 90956,91100,90982
 5.6000e+000 91198  2.6718e+000 -7.6607e+001 -4.8155e+001 44059 90930,91100,91172
 5.6000e+000 91677 -7.2427e+001 -1.1484e+002  1.0740e+001 43549 91455,91533,91481
 5.6000e+000 91654 -2.7189e+001 -1.1436e+002  1.5668e+001 43549 91429,91533,91455
 5.6000e+000 91631 -6.9910e+001 -1.1488e+002  4.9565e+000 43549 91481,91533,91507
 5.6000e+000 91608 -1.4073e+001 -1.0903e+002  6.5772e+000 43549 91429,91559,91533
 5.6000e+000 91585  4.1006e+000 -2.6759e+001 -1.3430e+000 43549 91403,91559,91429
 5.6000e+000 92006 -7.7381e+001 -1.8651e+002  1.5444e+000 43059 91781,91885,91807
 5.6000e+000 91983 -8.0497e+001 -1.7595e+002  2.9700e+001 43059 91781,91911,91885
 5.6000e+000 91960 -7.5771e+001 -1.8494e+002  7.9984e-001 43059 91807,91885,91833
 5.6000e+000 91937 -5.0005e+001 -1.7467e+002 -1.2864e+000 43059 91833,91885,91859
 5.6000e+000 92561 -5.5424e+001 -1.2406e+002 -1.4246e+001 42598 92584,92215,92189
 5.6000e+000 92538 -6.1339e+001 -1.3957e+002 -1.2686e+001 42598 92656,92584,92189
 5.6000e+000 92515 -5.4732e+001 -1.5770e+002 -3.4991e+000 42598 92656,92189,92397
 5.6000e+000 92492 -7.5592e+001 -1.1050e+002 -1.7047e+001 42598 92241,92319,92293
 5.6000e+000 92469 -6.7988e+001 -1.3215e+002  8.2954e+000 42598 92319,92397,92371
 5.6000e+000 92446 -2.3324e+001 -1.5963e+002  7.0465e+001 42598 92319,92371,92345
 5.6000e+000 92423 -7.2662e+001 -1.1373e+002 -2.4983e+001 42598 92241,92293,92267
 5.6000e+000 92610 -6.0646e+001 -1.2611e+002 -1.4271e+001 42598 92241,92215,92584
 5.6000e+000 92633 -5.5134e+001 -1.1356e+002 -1.6649e+001 42598 92241,92584,92319
 5.6000e+000 92682 -5.5522e+001 -1.1521e+002 -8.8646e+000 42598 92319,92584,92656
 5.6000e+000 92705 -4.4844e+001 -1.2776e+002 -2.0214e+000 42598 92319,92656,92397
 5.6000e+000 92953 -7.8456e+001 -1.9988e+002  1.1000e+001 42094 92976,92806,92780
 5.6000e+000 92930 -8.6843e+001 -1.8888e+002  4.8932e-001 42094 92976,92780,92754
 5.6000e+000 92907 -2.3202e+001 -1.9349e+002 -5.8707e-001 42094 93048,92832,92806
 5.6000e+000 92884 -1.0836e+002 -1.9048e+002 -1.1484e+001 42094 92728,92858,92754
 5.6000e+000 93002 -5.2562e+001 -1.8569e+002  5.5185e+000 42094 93048,92806,92976
 5.6000e+000 93025 -8.0331e+001 -1.8533e+002 -2.5531e+000 42094 92858,92976,92754
 5.6000e+000 93074 -6.4216e+001 -2.0836e+002 -1.2546e+000 42094 92858,92832,93048
 5.6000e+000 93097 -8.8088e+001 -1.9714e+002  2.2889e+000 42094 92858,93048,92976
 5.6000e+000 93605 -7.9265e+001 -2.2723e+002 -8.8334e+000 41846 93628,93412,93386
 5.6000e+000 93582 -6.1943e+001 -1.7101e+002 -2.4856e+000 41846 93628,93386,93308
 5.6000e+000 93559 -8.9852e+001 -1.7698e+002 -3.7771e+001 41846 93700,93464,93438
 5.6000e+000 93536 -8.8491e+001 -2.3900e+002  1.9714e+000 41846 93308,93386,93334
 5.6000e+000 93513 -1.1090e+002 -1.6577e+002 -3.2438e+001 41846 93334,93386,93360
 5.6000e+000 93490 -8.3339e+001 -1.5678e+002 -3.8866e+001 41846 93282,93464,93308
 5.6000e+000 93654 -7.0315e+001 -1.8188e+002 -1.7081e+001 41846 93438,93412,93628
 5.6000e+000 93677 -9.2155e+001 -1.8182e+002 -1.6817e+001 41846 93700,93438,93628
 5.6000e+000 93726 -7.9615e+001 -1.5132e+002 -3.6965e+001 41846 93308,93464,93700
 5.6000e+000 93749 -7.8358e+001 -1.4794e+002 -1.6321e+001 41846 93308,93700,93628
 5.6000e+000 94255 -6.9355e+001 -1.9081e+002  1.2313e+001 41385 93958,94114,94088
 5.6000e+000 94232 -5.9388e+001 -2.0482e+002  5.4083e+000 41385 93932,94114,93958
 5.6000e+000 94209 -1.1212e+002 -2.1971e+002  3.5671e+001 41385 93958,94088,94062
 5.6000e+000 94186 -1.1736e+002 -1.5976e+002  2.6660e+001 41385 93958,94062,93984
 5.6000e+000 94163 -9.8993e+001 -1.5705e+002  2.2571e+001 41385 93984,94062,94036
 5.6000e+000 94140 -6.8614e+001 -2.0986e+002  3.2432e+001 41385 93984,94036,94010
 5.6000e+000 94476 -2.5966e+001 -2.5786e+002  1.3846e+001 40881 94326,94378,94352
 5.6000e+000 94453 -4.4279e+001 -2.1056e+002  1.6946e+001 40881 94300,94378,94326
 5.6000e+000 94430 -5.7565e+001 -1.9551e+002  2.0775e+000 40881 94300,94404,94378
 5.6000e+000 94626 -5.0151e+001 -1.4289e+002 -2.6009e+000 40591 94649,94551,94525
 5.6000e+000 94603 -2.8478e+001 -8.4936e+001  3.0689e+000 40591 94781,94577,94551
 5.6000e+000 94675 -1.5483e+001 -1.0155e+002 -1.8324e+001 40591 94781,94551,94649
 5.6000e+000 94807  4.5910e+000 -5.3954e+001  2.1055e+001 40591 94499,94577,94781
 5.6000e+000 94830  8.8016e+000 -8.6421e+001 -1.6615e+000 40591 94499,94781,94649
 5.6000e+000 95336 -1.4018e+002 -1.7776e+002 -2.9782e+001 40187 95013,95169,95039
 5.6000e+000 95313 -3.5461e+001 -1.6015e+002  2.5517e+000 40187 95013,95195,95169
 5.6000e+000 95290 -2.5182e+001 -1.7288e+002 -2.1285e+001 40187 95039,95143,95065
 5.6000e+000 95267 -1.0054e+002 -2.0307e+002 -3.0423e+001 40187 95039,95169,95143
 5.6000e+000 95244 -3.4580e+001 -1.3206e+002 -1.1844e+001 40187 95091,95143,95117
 5.6000e+000 95221 -1.0441e+001 -8.2603e+001 -4.3569e+000 40187 95065,95143,95091
 5.6000e+000 95665 -4.6176e+001 -1.2650e+002  6.2784e+001 39626 95466,95570,95544
 5.6000e+000 95642 -9.1948e+001 -9.9764e+001  4.0666e+001 39626 95440,95570,95466
 5.6000e+000 95619 -1.4714e+002 -1.7395e+002  4.1453e+001 39626 95466,95544,95492
 5.6000e+000 95596 -2.4741e+001 -1.3297e+002  6.2501e+001 39626 95492,95544,95518
 5.6000e+000 95913 -7.5361e+001 -1.6048e+002 -2.2765e+001 39136 96080,95936,95766
 5.6000e+000 95890 -5.1869e+001 -1.7268e+002 -1.4530e+001 39136 95936,95714,95688
 5.6000e+000 95867 -1.2949e+002 -1.7288e+002  7.5871e+000 39136 96008,95792,95766
 5.6000e+000 95844 -6.2660e+001 -1.5597e+002 -1.6879e+001 39136 96080,95766,95740
 5.6000e+000 95962 -1.0290e+002 -1.7848e+002 -1.4432e+001 39136 96008,95766,95936
 5.6000e+000 95985 -6.7445e+001 -2.1082e+002 -3.6029e+000 39136 95818,95936,95688
 5.6000e+000 96034 -6.5449e+001 -1.4513e+002  1.0824e+001 39136 95818,95792,96008
 5.6000e+000 96057 -5.8451e+001 -1.5877e+002 -1.0802e+001 39136 95818,96008,95936
 5.6000e+000 96106 -6.8836e+001 -1.5835e+002 -5.8231e+000 39136 95714,95936,96080
 5.6000e+000 96129 -4.9070e+001 -1.5311e+002 -1.1840e+000 39136 95714,96080,95740
 5.6000e+000 96350 -5.2439e+001 -1.3409e+002 -8.0782e+000 38824 96200,96278,96252
 5.6000e+000 96327 -4.3420e+001 -1.2962e+002 -6.6232e+000 38824 96174,96278,96200
 5.6000e+000 96304 -7.2618e+000 -1.1719e+002 -2.4490e+001 38824 96200,96252,96226
 5.6000e+000 96830 -7.5606e+001 -1.3959e+002 -1.1278e+001 38320 97069,96536,96484
 5.6000e+000 96807 -7.4331e+001 -1.4136e+002 -1.1187e+001 38320 97069,96484,96853
 5.6000e+000 96784 -8.4171e+001 -1.5218e+002  1.2749e+000 38320 96853,96484,96458
 5.6000e+000 96761 -4.6604e+001 -1.2126e+002 -1.5762e+001 38320 96925,96640,96614
 5.6000e+000 96738 -7.2570e+001 -1.2587e+002 -7.2750e+000 38320 96997,96666,96640
 5.6000e+000 96715 -6.2212e+001 -1.6543e+002 -5.3021e+000 38320 97141,96588,96562
 5.6000e+000 96692 -9.5674e+001 -1.6248e+002 -2.4083e+000 38320 96484,96536,96510
 5.6000e+000 96879 -7.5155e+001 -1.5036e+002 -7.0403e+000 38320 97141,96562,96853
 5.6000e+000 96902 -6.9455e+001 -1.4573e+002 -6.2871e+000 38320 96925,96614,96853
 5.6000e+000 96951 -7.1109e+001 -1.2467e+002 -8.1095e+000 38320 96997,96640,96925
 5.6000e+000 96974 -6.7589e+001 -1.2312e+002 -5.5080e+000 38320 96458,96925,96853
 5.6000e+000 97023 -7.9253e+001 -1.2731e+002 -3.7414e+000 38320 96458,96666,96997
 5.6000e+000 97046 -7.3962e+001 -1.2464e+002 -4.6756e+000 38320 96458,96997,96925
 5.6000e+000 97095 -7.7459e+001 -1.3471e+002 -4.0778e+000 38320 96562,96536,97069
 5.6000e+000 97118 -7.1497e+001 -1.4018e+002 -9.9965e+000 38320 96562,97069,96853
 5.6000e+000 97167 -3.9790e+001 -1.5140e+002 -1.1677e+001 38320 96614,96588,97141
 5.6000e+000 97190 -6.1084e+001 -1.4233e+002 -1.1559e+001 38320 96614,97141,96853
 5.6000e+000 97519 -5.8185e+001 -1.8438e+002  5.0526e+001 37766 97542,97398,97372
 5.6000e+000 97496 -6.9167e+001 -1.4336e+002  3.6090e+001 37766 97542,97372,97346
 5.6000e+000 97473 -6.9118e+001 -1.5183e+002  2.5682e+000 37766 97294,97424,97346
 5.6000e+000 97450 -7.7838e+001 -1.7688e+002  2.2500e-001 37766 97294,97346,97320
 5.6000e+000 97568 -3.0228e+001 -1.9470e+002  1.6410e+001 37766 97424,97398,97542
 5.6000e+000 97591 -4.7866e+001 -1.4725e+002  4.6011e+000 37766 97424,97542,97346
 5.6000e+000 98048 -7.5345e+001 -1.1077e+002 -3.6290e+001 37262 98071,97878,97852
 5.6000e+000 98025 -6.3625e+001 -1.3307e+002 -1.4487e+001 37262 98071,97852,97800
 5.6000e+000 98002 -7.0053e+001 -1.6110e+002 -1.6646e+001 37262 97800,97852,97826
 5.6000e+000 97979 -7.1163e+001 -1.4334e+002  2.6498e+000 37262 97800,97930,97904
 5.6000e+000 97956 -4.8445e+001 -1.6714e+002  9.6832e+000 37262 97774,97930,97800
 5.6000e+000 98097 -1.0762e+002 -1.2653e+002 -2.5668e+001 37262 97904,97878,98071
 5.6000e+000 98120 -8.1303e+001 -1.5107e+002 -5.8723e+000 37262 97904,98071,97800
 5.6000e+000 98449 -4.4359e+001 -1.1433e+002 -1.3278e+001 36950 98472,98302,98250
 5.6000e+000 98426 -2.7983e+001 -1.0964e+002 -1.6170e+001 36950 98472,98250,98354
 5.6000e+000 98403 -6.7410e+001 -1.2799e+002  1.4521e+001 36950 98250,98302,98276
 5.6000e+000 98380 -1.7719e+001 -8.6390e+001  9.6801e+000 36950 98224,98354,98250
 5.6000e+000 98498 -3.2228e+001 -1.2699e+002 -3.6974e+000 36950 98328,98302,98472
 5.6000e+000 98521 -1.3237e+001 -1.1997e+002 -9.3302e+000 36950 98328,98472,98354
 5.6000e+000 99125 -7.9655e+001 -7.9779e+001  5.7859e+000 36296 98704,98756,98730
 5.6000e+000 99102 -8.6130e+001 -8.9954e+001  8.6997e+000 36296 98704,98938,98756
 5.6000e+000 99079 -6.1580e+001 -1.1482e+002 -2.4830e+000 36296 99148,98938,98912
 5.6000e+000 99056 -6.5048e+001 -1.1876e+002  2.7018e+001 36296 99292,99220,98782
 5.6000e+000 99033 -5.4094e+001 -1.3345e+002  3.3972e+000 36296 99148,98912,98834
 5.6000e+000 99010 -6.2793e+001 -1.0224e+002  3.0495e+001 36296 99292,98782,98756
 5.6000e+000 98987 -5.2229e+001 -2.3385e+002 -4.2568e+001 36296 98834,98912,98886
 5.6000e+000 98964 -8.6221e+001 -3.3504e+002 -5.4435e+001 36296 98834,98886,98860
 5.6000e+000 99174 -7.6054e+001 -1.4225e+002  4.7688e+000 36296 99220,98938,99148
 5.6000e+000 99197 -5.2414e+001 -1.6169e+002  1.7175e+001 36296 98808,99148,98834
 5.6000e+000 99246 -6.4630e+001 -1.1734e+002  6.5695e+001 36296 98808,98782,99220
 5.6000e+000 99269 -2.7512e+001 -1.0472e+002  2.1372e+001 36296 98808,99220,99148
 5.6000e+000 99318 -7.1725e+001 -1.0362e+002  1.6020e+001 36296 98938,99220,99292
 5.6000e+000 99341 -7.3104e+001 -1.0598e+002  1.9150e+001 36296 98938,99292,98756
 5.6000e+000 99719 -8.9795e+001 -1.8393e+002  8.3077e-001 35742 99742,99471,99601
 5.6000e+000 99696 -9.0926e+001 -1.4633e+002  1.7698e+001 35742 99445,99601,99471
 5.6000e+000 99673 -8.5799e+001 -1.7478e+002 -6.3837e+000 35742 99742,99601,99575
 5.6000e+000 99650 -7.5528e+001 -2.1652e+002 -5.0642e+000 35742 99814,99549,99523
 5.6000e+000 99627 -6.1531e+001 -1.6965e+002  7.7547e-002 35742 99471,99523,99497
 5.6000e+000 99768 -7.2363e+001 -1.8008e+002  4.6211e+000 35742 99523,99471,99742
 5.6000e+000 99791 -8.4969e+001 -2.0009e+002 -4.1439e+000 35742 99814,99523,99742
 5.6000e+000 99840 -7.4678e+001 -1.9598e+002 -1.1314e+001 35742 99575,99549,99814
 5.6000e+000 99863 -8.0469e+001 -1.7448e+002 -9.8014e+000 35742 99575,99814,99742
 5.6000e+000 100111 -6.9934e+001 -1.5061e+002  1.1823e+001 35302 100134,99990,99938
 5.6000e+000 100088 -5.8781e+001 -1.3702e+002  4.8698e+000 35302 100134,99938,99912
 5.6000e+000 100065 -5.9093e+001 -1.3645e+002 -2.7048e+000 35302 100206,99886,100016
 5.6000e+000 100042 -8.7535e+001 -1.4455e+002  7.9281e+000 35302 99938,99990,99964
 5.6000e+000 100160 -5.5971e+001 -1.4540e+002  2.9232e+000 35302 100016,99990,100134
 5.6000e+000 100183 -5.6404e+001 -1.3884e+002 -2.6637e+000 35302 100206,100016,100134
 5.6000e+000 100232 -6.1198e+001 -1.3928e+002 -8.6040e-001 35302 99912,99886,100206
 5.6000e+000 100255 -5.8756e+001 -1.4234e+002 -9.3891e-001 35302 99912,100206,100134
 5.6000e+000 100586 -8.4749e+001 -9.3768e+001  2.7831e+001 35012 100609,100387,100361
 5.6000e+000 100563 -1.0391e+002 -6.5370e+001 -2.0171e+001 35012 100609,100361,100465
 5.6000e+000 100540 -4.5936e+001 -4.4739e+001 -4.6098e+001 35012 100361,100491,100465
 5.6000e+000 100517 -1.2776e+001 -5.0410e+001 -4.6569e+001 35012 100413,100465,100439
 5.6000e+000 100635 -3.6333e+001 -7.2388e+001  9.9879e+000 35012 100413,100387,100609
 5.6000e+000 100658 -5.3557e+001 -3.6166e+001 -3.9249e+001 35012 100413,100609,100465
 5.6000e+000 100987 -6.7798e+001 -1.5511e+002  1.3855e+001 34700 100788,100866,100814
 5.6000e+000 100964 -5.6798e+001 -1.2064e+002  2.3505e+001 34700 101010,100866,100788
 5.6000e+000 100941 -3.4696e+001 -7.9463e+001  2.3141e+001 34700 100762,100892,100866
 5.6000e+000 100918 -6.2258e+001 -1.4131e+002  1.1277e+001 34700 100814,100866,100840
 5.6000e+000 101036 -3.6739e+001 -1.0370e+002  4.0398e+001 34700 100762,100866,101010
 5.6000e+000 101493 -9.3266e+001 -1.7302e+002 -1.3535e+001 34132 101516,101349,101297
 5.6000e+000 101470 -1.1045e+002 -2.0624e+002 -2.2405e+001 34132 101588,101516,101297
 5.6000e+000 101447 -1.1078e+002 -2.1665e+002 -3.3620e+001 34132 101588,101297,101245
 5.6000e+000 101424 -6.9369e+001 -2.5144e+002 -3.1704e+001 34132 101245,101297,101271
 5.6000e+000 101401 -1.0272e+002 -1.7316e+002 -1.7757e+001 34132 101297,101349,101323
 5.6000e+000 101542 -9.6438e+001 -1.9900e+002 -1.0549e+001 34132 101375,101349,101516
 5.6000e+000 101565 -8.7121e+001 -1.9856e+002 -1.1292e+001 34132 101375,101516,101219
 5.6000e+000 101614 -8.9141e+001 -2.0703e+002 -1.1329e+001 34132 101219,101516,101588
 5.6000e+000 101637 -9.9977e+001 -2.1736e+002 -2.1997e+001 34132 101219,101588,101245
 5.6000e+000 101858 -3.0026e+001 -1.3769e+002  1.4512e+001 33720 101708,101786,101760
 5.6000e+000 101835 -1.7276e+001 -1.4887e+002  2.2658e+001 33720 101682,101786,101708
 5.6000e+000 101812 -4.6794e+001 -1.4624e+002  1.0680e+001 33720 101708,101760,101734
 5.6000e+000 102128 -2.3761e+001 -1.8025e+002 -4.8724e+000 33130 101903,102007,101929
 5.6000e+000 102105 -2.8123e+001 -2.0858e+002  6.8566e+000 33130 101903,102033,102007
 5.6000e+000 102082 -1.4707e+001 -2.1457e+002 -4.0696e+001 33130 101929,102007,101955
 5.6000e+000 102059 -3.4956e+001 -1.5269e+002  3.8251e+000 33130 101955,102007,101981
 5.6000e+000 102461 -5.4987e+001 -1.3362e+002 -1.3393e+001 32840 102236,102340,102262
 5.6000e+000 102438 -4.8586e+001 -9.7099e+001  2.9120e+000 32840 102236,102366,102340
 5.6000e+000 102415 -3.1091e+001 -1.2766e+002 -1.1138e+001 32840 102262,102340,102288
 5.6000e+000 102392 -6.4367e+001 -1.3485e+002 -2.9738e+001 32840 102288,102340,102314
 5.6000e+000 102997 -6.1294e+001 -1.0404e+002  2.9039e+001 32493 102749,102879,102853
 5.6000e+000 102974 -5.0786e+001 -8.3664e+001  2.1180e+001 32493 102723,102879,102749
 5.6000e+000 102951 -7.0335e+001 -1.2604e+002  2.0062e+001 32493 102749,102801,102775
 5.6000e+000 102928 -7.6259e+001 -1.2489e+002  1.9061e+001 32493 102749,102853,102801
 5.6000e+000 102905 -7.3106e+001 -1.2024e+002  1.6283e+001 32493 102801,102853,102827
 5.6000e+000 103454 -5.8012e+001 -1.0766e+002 -1.2021e+001 32089 103206,103336,103310
 5.6000e+000 103431 -4.5406e+001 -1.1750e+002 -1.4799e+000 32089 103180,103336,103206
 5.6000e+000 103408 -6.9133e+001 -1.2908e+002 -2.3341e+001 32089 103206,103284,103258
 5.6000e+000 103385 -9.5748e+001 -1.3255e+002 -2.7619e+001 32089 103206,103310,103284
 5.6000e+000 103362 -5.2864e+001 -8.8066e+001 -1.6087e+001 32089 103206,103258,103232
 5.6000e+000 103783 -1.1050e+002 -1.4486e+002 -1.6943e+001 31742 103558,103662,103584
 5.6000e+000 103760 -9.0689e+001 -1.1727e+002 -4.1794e+001 31742 103558,103688,103662
 5.6000e+000 103737 -7.4292e+001 -1.1647e+002 -3.0864e+001 31742 103584,103662,103636
 5.6000e+000 103714 -7.1062e+001 -1.3205e+002 -3.3547e+001 31742 103584,103636,103610
 5.6000e+000 104112 -1.9843e+001 -1.1429e+002  1.7236e+001 31402 103939,103991,103965
 5.6000e+000 104089 -3.4861e+001 -9.7850e+001  8.1254e+000 31402 103913,103991,103939
 5.6000e+000 104066 -4.7518e+001 -1.1206e+002  1.1580e-001 31402 103913,104017,103991
 5.6000e+000 104043 -6.0255e+001 -1.0261e+002 -8.6446e+000 31402 103887,104017,103913
 5.6000e+000 104569 -1.0366e+002 -1.8620e+002  5.8382e+000 30998 104321,104425,104373
 5.6000e+000 104546 -1.1559e+002 -1.9057e+002  5.3415e+000 30998 104321,104451,104425
 5.6000e+000 104523 -7.7640e+001 -1.5204e+002  2.4270e+001 30998 104373,104425,104399
 5.6000e+000 104500 -9.2779e+001 -2.1689e+002 -7.5480e+000 30998 104295,104451,104321
 5.6000e+000 104477 -1.3930e+002 -2.1889e+002  4.1228e+001 30998 104321,104373,104347
 5.6000e+000 104947 -9.5580e+001 -1.6327e+002 -1.9064e+001 30608 104751,104803,104777
 5.6000e+000 104924 -6.2721e+001 -1.6828e+002 -6.8455e+000 30608 104725,104803,104751
 5.6000e+000 104901 -9.9692e+001 -1.6299e+002  1.1223e+001 30608 104699,104803,104725
 5.6000e+000 104878 -8.4988e+001 -1.5660e+002  1.0111e+001 30608 104673,104803,104699
 5.6000e+000 104855 -6.4516e+001 -1.4775e+002 -5.9679e+000 30608 104673,104829,104803
 5.6000e+000 105276 -6.8777e+001 -1.5279e+002  6.5508e+000 30204 105427,105129,105077
 5.6000e+000 105253 -4.7129e+001 -1.6764e+002  3.4342e+001 30204 105427,105077,105051
 5.6000e+000 105230 -5.7959e+001 -1.4759e+002  8.5515e+000 30204 105077,105129,105103
 5.6000e+000 105207 -4.0639e+001 -1.3772e+002  2.3476e+001 30204 105299,105181,105155
 5.6000e+000 105325 -4.2420e+001 -1.3405e+002  7.3584e+000 30204 105129,105181,105299
 5.6000e+000 105453 -8.2276e+001 -1.6232e+002  2.0397e+001 30204 105181,105129,105427
 5.6000e+000 105476 -9.6048e+001 -1.9338e+002  5.2029e+001 30204 105181,105427,105051
 5.6000e+000 105903 -5.5690e+001 -1.3133e+002 -9.6216e+000 29700 105606,105762,105736
 5.6000e+000 105880 -7.1462e+001 -1.3488e+002  3.0215e-001 29700 105580,105762,105606
 5.6000e+000 105857 -8.5079e+001 -1.6485e+002 -9.7077e+000 29700 105606,105710,105632
 5.6000e+000 105834 -7.0682e+001 -1.3886e+002 -4.0828e+000 29700 105606,105736,105710
 5.6000e+000 105811 -7.9853e+001 -1.5249e+002 -1.1594e+001 29700 105632,105710,105684
 5.6000e+000 105788 -7.7252e+001 -1.4606e+002 -5.6035e+000 29700 105632,105684,105658
 5.6000e+000 106102 -2.2177e+001 -1.5716e+002  6.9895e+000 29124 105978,106030,106004
 5.6000e+000 106079 -3.9769e+001 -1.5281e+002  8.0629e+000 29124 105926,106030,105978
 5.6000e+000 106056 -4.5886e+001 -1.7715e+002  2.1851e+001 29124 105926,105978,105952
 5.6000e+000 106301 -4.5208e+001 -1.6058e+002  9.5556e-001 28712 106151,106229,106203
 5.6000e+000 106278 -5.4104e+001 -1.7790e+002 -7.8454e+000 28712 106125,106229,106151
 5.6000e+000 106255 -4.6679e+001 -1.6814e+002  8.4031e+000 28712 106151,106203,106177
 5.6000e+000 106551 -5.6062e+001 -1.9999e+002  1.0358e+001 28258 106352,106404,106378
 5.6000e+000 106528 -7.7709e+001 -2.0230e+002  2.6712e+000 28258 106352,106456,106404
 5.6000e+000 106505 -7.7635e+001 -2.0648e+002  1.0271e+000 28258 106326,106456,106352
 5.6000e+000 106482 -6.9123e+001 -1.8824e+002 -2.2412e+000 28258 106404,106456,106430
 5.6000e+000 107012 -6.8258e+001 -1.7104e+002  3.3502e+001 27818 107035,106790,106764
 5.6000e+000 106989 -5.9674e+001 -1.6218e+002  1.2916e+001 27818 107035,106764,106868
 5.6000e+000 106966 -4.2643e+001 -1.9635e+002  1.8850e+001 27818 107107,106842,106816
 5.6000e+000 106943 -8.8302e+001 -1.5013e+002  6.8495e+000 27818 106738,106868,106764
 5.6000e+000 106920 -8.5150e+001 -1.3577e+002  1.8537e+001 27818 106738,106894,106868
 5.6000e+000 107061 -3.1496e+001 -1.6377e+002  3.8247e+001 27818 106816,106790,107035
 5.6000e+000 107084 -5.3414e+001 -1.8310e+002  1.9885e+001 27818 107107,106816,107035
 5.6000e+000 107133 -4.0354e+001 -1.7705e+002  9.4885e+000 27818 106868,106842,107107
 5.6000e+000 107156 -4.7409e+001 -1.5728e+002  1.2936e+001 27818 106868,107107,107035
 5.6000e+000 107613 -2.3030e+001 -1.2921e+002  2.8003e+001 27312 107339,107469,107365
 5.6000e+000 107590 -4.7063e+000 -1.1855e+002  2.3560e+001 27312 107339,107495,107469
 5.6000e+000 107567 -2.3974e+001 -1.2475e+002  1.3583e+001 27312 107391,107469,107443
 5.6000e+000 107544 -2.1613e+001 -1.3382e+002  1.2031e+001 27312 107365,107469,107391
 5.6000e+000 107521 -6.2864e+001 -1.3778e+002  6.5889e+000 27312 107391,107443,107417
 5.6000e+000 107991 -6.5800e+001 -1.9277e+002  8.0166e+000 26858 108086,108014,107795
 5.6000e+000 107968 -7.2521e+001 -1.9628e+002 -8.5825e+000 26858 108014,107717,107873
 5.6000e+000 107945 -7.4639e+001 -2.0283e+002  1.3366e+001 26858 108158,108086,107795
 5.6000e+000 107922 -5.9664e+001 -2.0493e+002  1.3485e+001 26858 108158,107795,107769
 5.6000e+000 107899 -5.6650e+001 -2.4097e+002  3.3594e+001 26858 107821,107873,107847
 5.6000e+000 108040 -7.0004e+001 -2.1904e+002  1.1338e+001 26858 107821,107795,108014
 5.6000e+000 108063 -4.4111e+001 -2.0590e+002  1.4330e+000 26858 107821,108014,107873
 5.6000e+000 108112 -8.8561e+001 -2.0208e+002  9.1617e+000 26858 107717,108014,108086
 5.6000e+000 108135 -7.4238e+001 -2.0402e+002  2.0256e+001 26858 107717,108086,107743
 5.6000e+000 108184 -5.7755e+001 -1.9686e+002  1.8942e+001 26858 107743,108086,108158
 5.6000e+000 108207 -5.0413e+001 -2.0443e+002  1.9270e+001 26858 107743,108158,107769
 5.6000e+000 108634 -8.8327e+001 -1.8175e+002  3.5929e+000 26404 108657,108415,108363
 5.6000e+000 108611 -9.9851e+001 -1.9695e+002  2.1495e+001 26404 108657,108363,108337
 5.6000e+000 108588 -8.6355e+001 -1.8758e+002  2.1325e+001 26404 108729,108311,108467
 5.6000e+000 108565 -9.4295e+001 -2.1844e+002  3.8201e+000 26404 108801,108441,108415
 5.6000e+000 108542 -1.2924e+002 -2.0681e+002  2.5273e+001 26404 108311,108493,108467
 5.6000e+000 108519 -6.1529e+001 -1.8279e+002  3.3808e+000 26404 108363,108415,108389
 5.6000e+000 108683 -1.1759e+002 -1.9483e+002  6.8538e+000 26404 108801,108415,108657
 5.6000e+000 108706 -1.1178e+002 -1.9406e+002  1.7130e+001 26404 108729,108467,108657
 5.6000e+000 108755 -7.0121e+001 -1.9765e+002  2.1202e+001 26404 108337,108311,108729
 5.6000e+000 108778 -8.3078e+001 -1.9508e+002  1.6439e+001 26404 108337,108729,108657
 5.6000e+000 108827 -1.1686e+002 -2.6560e+002 -9.8410e+000 26404 108467,108441,108801
 5.6000e+000 108850 -1.2895e+002 -2.2488e+002 -6.7057e+000 26404 108467,108801,108657
 5.6000e+000 109228 -8.9063e+001 -1.9060e+002 -7.7241e+000 26064 109006,109084,109058
 5.6000e+000 109205 -7.9354e+001 -1.7867e+002  3.9457e+000 26064 108980,109084,109006
 5.6000e+000 109182 -8.5639e+001 -1.7070e+002 -5.7911e+000 26064 108980,109110,109084
 5.6000e+000 109159 -8.5355e+001 -1.9941e+002 -7.2261e-001 26064 109006,109058,109032
 5.6000e+000 109136 -2.9584e+001 -1.5088e+002  6.4905e+000 26064 108954,109110,108980
 5.6000e+000 109427 -2.2003e+001 -1.6245e+002 -3.3689e+001 25660 109303,109355,109329
 5.6000e+000 109404 -4.4817e+001 -2.0829e+002 -8.0467e+000 25660 109277,109355,109303
 5.6000e+000 109381 -3.0165e+001 -1.9598e+002 -2.7191e+000 25660 109251,109355,109277
 5.6000e+000 109577 -2.9673e+001 -7.5393e+001  2.6067e+001 25306 109476,109528,109502
 5.6000e+000 109554  1.2801e+001 -6.2956e+001  2.0311e+001 25306 109450,109528,109476
 5.6000e+000 109778 -6.2850e+001 -1.7240e+002  4.6533e+000 24944 109628,109706,109654
 5.6000e+000 109755 -6.7821e+001 -1.7098e+002  8.9731e-001 24944 109602,109706,109628
 5.6000e+000 109732 -5.5510e+001 -1.6276e+002 -2.2622e+000 24944 109654,109706,109680
 5.6000e+000 110126 -5.5387e+001 -2.2122e+002  6.6281e+000 24440 110149,109907,109855
 5.6000e+000 110103 -5.0886e+001 -2.3365e+002  1.3889e+001 24440 110149,109855,109985
 5.6000e+000 110080 -4.3399e+001 -1.9137e+002  4.0004e+000 24440 109855,109907,109881
 5.6000e+000 110057 -4.4304e+001 -1.8067e+002  6.2785e+001 24440 109829,109985,109855
 5.6000e+000 110034 -5.0019e+001 -2.2122e+002  1.6921e+000 24440 109907,109959,109933
 5.6000e+000 110011 -1.7474e+001 -1.8340e+002  4.6774e+000 24440 109803,109985,109829
 5.6000e+000 110175 -5.2350e+001 -2.1105e+002  5.6516e+000 24440 109959,109907,110149
 5.6000e+000 110198 -4.7175e+001 -2.2119e+002  1.4153e+001 24440 109959,110149,109985
 5.6000e+000 110301 -2.6850e+000 -1.0942e+002  3.2646e+000 24028 110223,110275,110249
 5.6000e+000 110573 -2.8089e+001 -1.3144e+002  1.0731e+001 23467 110400,110452,110426
 5.6000e+000 110550 -4.7062e+001 -1.5650e+002  9.8848e-001 23467 110374,110452,110400
 5.6000e+000 110527 -5.0261e+001 -1.5782e+002  3.2423e+000 23467 110348,110452,110374
 5.6000e+000 110504 -3.6566e+001 -1.5203e+002 -5.6302e-001 23467 110348,110478,110452
 5.6000e+000 111004 -1.0259e+002 -2.2892e+002 -2.7117e+001 22963 111027,110733,110707
 5.6000e+000 110981 -1.0347e+002 -2.1672e+002  1.1930e+001 22963 111027,110707,110681
 5.6000e+000 110958 -4.8926e+001 -1.8757e+002 -2.3503e+001 22963 111099,110759,110733
 5.6000e+000 110935 -6.7539e+001 -1.8642e+002 -1.5215e+001 22963 111171,110863,110811
 5.6000e+000 110912 -2.9764e+001 -1.3606e+002 -2.7427e+001 22963 110759,110811,110785
 5.6000e+000 110889 -7.6576e+001 -2.0172e+002 -1.0965e+001 22963 110811,110863,110837
 5.6000e+000 111053 -7.5140e+001 -2.0545e+002 -1.3992e+001 22963 111099,110733,111027
 5.6000e+000 111076 -6.3469e+001 -2.0096e+002 -1.2639e+001 22963 111171,110811,111027
 5.6000e+000 111125 -4.7803e+001 -1.8377e+002 -3.7752e+001 22963 110811,110759,111099
 5.6000e+000 111148 -5.2029e+001 -1.8160e+002 -3.2004e+001 22963 110811,111099,111027
 5.6000e+000 111197 -6.7528e+001 -1.6372e+002 -1.8350e+001 22963 110681,110863,111171
 5.6000e+000 111220 -6.8495e+001 -1.8044e+002 -9.4452e+000 22963 110681,111171,111027
 5.6000e+000 111726 -1.0237e+002 -1.9778e+002  3.2801e+000 22459 111749,111507,111429
 5.6000e+000 111703 -9.1752e+001 -1.9415e+002 -4.8464e+000 22459 111749,111429,111585
 5.6000e+000 111680 -7.7051e+001 -2.1309e+002 -2.5281e+000 22459 111403,111585,111429
 5.6000e+000 111657 -9.8185e+001 -2.1766e+002  9.1262e+000 22459 111507,111559,111533
 5.6000e+000 111634 -1.3047e+002 -1.8730e+002  1.1451e+001 22459 111455,111507,111481
 5.6000e+000 111611 -1.4620e+002 -1.9040e+002  1.8155e+001 22459 111429,111507,111455
 5.6000e+000 111775 -1.0148e+002 -2.1047e+002  1.2608e+001 22459 111559,111507,111749
 5.6000e+000 111798 -9.1292e+001 -2.0081e+002  4.5283e+000 22459 111559,111749,111585
 5.6000e+000 112046 -4.5847e+001 -1.6804e+002 -2.1209e+001 21898 112069,111925,111873
 5.6000e+000 112023 -4.3745e+001 -1.6865e+002 -4.5221e+000 21898 112069,111873,111847
 5.6000e+000 112000 -5.8614e+001 -1.7326e+002 -8.9712e+000 21898 111821,111951,111847
 5.6000e+000 111977 -5.1618e+001 -1.3054e+002 -1.2834e+001 21898 111873,111925,111899
 5.6000e+000 112095 -6.9441e+001 -1.7652e+002 -2.5068e+001 21898 111951,111925,112069
 5.6000e+000 112118 -5.7563e+001 -1.7343e+002 -9.0175e+000 21898 111951,112069,111847
 5.6000e+000 112498 -7.7013e+001 -1.8317e+002 -1.5094e+001 21608 112521,112276,112224
 5.6000e+000 112475 -5.0427e+001 -1.8536e+002 -7.1051e-002 21608 112521,112224,112380
 5.6000e+000 112452 -5.3754e+001 -2.1313e+002  1.3198e+001 21608 112302,112380,112354
 5.6000e+000 112429 -9.2124e+001 -2.0757e+002 -8.5733e+000 21608 112224,112276,112250
 5.6000e+000 112406  3.3019e+001 -2.3164e+002 -1.1281e+001 21608 112302,112354,112328
 5.6000e+000 112547 -5.5299e+001 -1.6020e+002 -2.5366e+000 21608 112302,112276,112521
 5.6000e+000 112570 -3.7160e+001 -1.7918e+002  7.8509e+000 21608 112302,112521,112380
 5.6000e+000 112948 -9.0597e+001 -1.8923e+002 -3.0070e+000 20882 112971,112752,112700
 5.6000e+000 112925 -6.9356e+001 -1.8217e+002 -7.5695e+000 20882 112971,112700,112830
 5.6000e+000 112902 -1.1511e+002 -2.0446e+002  1.2442e+001 20882 112778,112830,112804
 5.6000e+000 112879 -6.4257e+001 -1.4662e+002 -1.0696e+001 20882 112674,112830,112700
 5.6000e+000 112856 -1.0934e+002 -1.9736e+002  3.5772e+000 20882 112700,112752,112726
 5.6000e+000 112997 -9.1302e+001 -1.8933e+002  8.7714e+000 20882 112778,112752,112971
 5.6000e+000 113020 -7.9186e+001 -1.8595e+002  3.7575e+000 20882 112778,112971,112830
 5.6000e+000 113526 -6.2203e+001 -1.8832e+002  1.4412e+000 20428 113255,113385,113333
 5.6000e+000 113503 -6.7324e+001 -2.0483e+002  1.6501e+000 20428 113229,113385,113255
 5.6000e+000 113480 -4.8141e+000 -1.8428e+002  2.1511e+000 20428 113255,113333,113281
 5.6000e+000 113457 -5.7387e+001 -1.9880e+002  4.2250e+000 20428 113203,113385,113229
 5.6000e+000 113434 -3.0443e+001 -1.9201e+002 -6.1055e+000 20428 113281,113333,113307
 5.6000e+000 113411 -7.7231e+001 -1.8422e+002  4.9859e+000 20428 113333,113385,113359
 5.6000e+000 113774 -1.2912e+001 -1.8294e+002  7.8875e+000 19917 113797,113601,113549
 5.6000e+000 113751 -3.1982e+001 -1.8569e+002  9.9185e+000 19917 113869,113797,113549
 5.6000e+000 113728 -3.0804e+001 -1.8774e+002  1.7740e+001 19917 113869,113549,113679
 5.6000e+000 113705 -1.9059e+001 -1.8126e+002  1.6162e+001 19917 113549,113601,113575
 5.6000e+000 113823 -3.2873e+001 -2.2205e+002 -1.9739e-001 19917 113627,113601,113797
 5.6000e+000 113846 -1.4494e+001 -1.7456e+002 -3.5032e+000 19917 113627,113797,113653
 5.6000e+000 113895 -2.8070e+001 -1.6644e+002  3.4781e+000 19917 113653,113797,113869
 5.6000e+000 113918 -3.5023e+001 -1.7175e+002  1.3526e+001 19917 113653,113869,113679
 5.6000e+000 114166 -8.4686e+001 -1.9018e+002 -3.2177e+000 19413 113993,114045,114019
 5.6000e+000 114143 -7.7321e+001 -1.7703e+002  1.5413e+000 19413 113967,114045,113993
 5.6000e+000 114120 -6.6251e+001 -1.7331e+002  9.9065e+000 19413 113967,114071,114045
 5.6000e+000 114097 -5.0892e+001 -1.9669e+002 -3.6616e+000 19413 113941,114071,113967
 5.6000e+000 114438 -7.8508e+001 -2.0737e+002  1.9035e+000 19001 114213,114265,114239
 5.6000e+000 114415 -5.6564e+001 -1.6116e+002 -4.7445e+000 19001 114213,114343,114265
 5.6000e+000 114392 -8.3860e+001 -2.2241e+002 -9.9861e+000 19001 114265,114343,114317
 5.6000e+000 114369  1.2843e+001 -1.8036e+002 -3.4670e+000 19001 114265,114317,114291
 5.6000e+000 114639 -5.9863e+001 -2.4543e+002  1.1363e+001 18554 114489,114541,114515
 5.6000e+000 114616 -5.1321e+001 -2.1349e+002  1.5748e+000 18554 114489,114567,114541
 5.6000e+000 114593 -1.1026e+002 -2.4080e+002 -1.5783e+001 18554 114463,114567,114489
 5.6000e+000 115043 -3.9371e+001 -1.8401e+002  6.9210e+000 18164 114795,114925,114821
 5.6000e+000 115020 -3.3584e+001 -1.9369e+002  1.1579e+001 18164 114769,114925,114795
 5.6000e+000 114997 -2.1404e+001 -1.9395e+002 -1.6434e+000 18164 115066,114873,114821
 5.6000e+000 114974 -1.9419e+001 -1.6564e+002 -6.3341e+000 18164 115066,114821,114925
 5.6000e+000 114951  1.5498e+001 -1.9391e+002 -1.9317e+001 18164 114821,114873,114847
 5.6000e+000 115092 -3.1922e+001 -1.7359e+002 -1.6535e+001 18164 114899,114873,115066
 5.6000e+000 115115 -1.8500e+001 -1.3029e+002 -2.2540e+001 18164 114899,115066,114925
 5.6000e+000 115265 -4.9092e+001 -2.0448e+002  1.9793e+000 17852 115164,115216,115190
 5.6000e+000 115242 -5.4048e+001 -2.1428e+002 -3.4535e-001 17852 115138,115216,115164
 5.6000e+000 115464 -1.3065e+002 -2.9309e+002  3.5363e+000 17346 115288,115366,115340
 5.6000e+000 115441 -1.9847e+002 -2.2587e+002 -1.0146e+001 17346 115288,115392,115366
 5.6000e+000 115418 -1.1640e+002 -3.2776e+002 -1.0118e+001 17346 115288,115340,115314
 5.6000e+000 115736 -4.6034e+001 -1.8290e+002  8.2432e+000 16942 115563,115641,115615
 5.6000e+000 115713 -5.2328e+001 -1.8262e+002  2.8799e+000 16942 115511,115641,115563
 5.6000e+000 115690 -1.2803e+002 -2.1441e+002  1.2690e+001 16942 115563,115615,115589
 5.6000e+000 115667 -6.1918e+001 -1.9817e+002  6.9280e+000 16942 115511,115563,115537
 5.6000e+000 116091 -9.6346e+001 -2.2236e+002 -7.9271e+000 16388 115918,115970,115944
 5.6000e+000 116068 -8.3686e+001 -1.7979e+002 -5.4494e+000 16388 115918,115996,115970
 5.6000e+000 116045 -1.1209e+002 -2.2616e+002  7.5237e+000 16388 115892,115996,115918
 5.6000e+000 116022 -7.2156e+001 -2.0555e+002  2.6214e+001 16388 115866,115996,115892
 5.6000e+000 116192 -2.4684e+001 -2.3336e+002 -3.4346e+001 15810 116114,116166,116140
 5.6000e+000 116342 -8.6145e+001 -2.7828e+002  1.5056e+001 15419 116241,116293,116267
 5.6000e+000 116319 -1.2271e+002 -3.3992e+002 -9.4020e+000 15419 116215,116293,116241
 5.6000e+000 116445 -9.4194e+001 -1.9052e+002  5.6701e-001 421 116367,116419,116393
 5.7000e+000 68477 -1.2121e+002 -1.7404e+002  1.0396e+000 68018 68327,68379,68353
 5.7000e+000 68454 -1.2823e+002 -2.3070e+002  1.7277e+001 68018 68301,68379,68327
 5.7000e+000 68431 -6.6476e+001 -2.5996e+002  4.0840e+001 68018 68301,68405,68379
 5.7000e+000 68578 -8.3679e+001 -1.6693e+002  7.2310e-001 67820 68500,68552,68526
 5.7000e+000 68728 -8.8192e+001 -1.5393e+002 -2.0774e+000 67508 68601,68653,68627
 5.7000e+000 68705 -1.3689e+002 -1.2018e+002 -2.3223e+001 67508 68601,68679,68653
 5.7000e+000 68927 -2.9479e+001 -1.4847e+002 -2.8711e+000 67310 68777,68829,68803
 5.7000e+000 68904 -3.9879e+001 -1.7090e+002  2.2726e+000 67310 68751,68829,68777
 5.7000e+000 68881 -2.8874e+001 -1.7165e+002  1.0666e+001 67310 68751,68855,68829
 5.7000e+000 69386 -7.1376e+001 -1.8334e+002 -8.3968e+000 67020 69216,69268,69242
 5.7000e+000 69363 -6.6388e+001 -1.4300e+002 -1.8310e+001 67020 69138,69268,69216
 5.7000e+000 69340 -4.8846e+001 -1.2867e+002 -1.0824e+001 67020 69112,69268,69138
 5.7000e+000 69317 -8.8447e+001 -1.5408e+002  9.5013e+000 67020 69138,69190,69164
 5.7000e+000 69294 -9.0813e+001 -1.3963e+002 -8.4001e+000 67020 69138,69216,69190
 5.7000e+000 69536 -1.2995e+002 -3.1808e+002 -2.5173e+001 66708 69435,69487,69461
 5.7000e+000 69513 -9.5340e+001 -3.5787e+002 -3.5817e+000 66708 69409,69487,69435
 5.7000e+000 69735 -8.4155e+001 -1.6798e+002  3.7089e+000 66346 69585,69637,69611
 5.7000e+000 69712 -6.9961e+001 -1.5847e+002 -1.1469e+000 66346 69559,69637,69585
 5.7000e+000 69689 -6.3802e+001 -1.5778e+002 -1.6372e+001 66346 69559,69663,69637
 5.7000e+000 69985 -1.2480e+002 -2.0418e+002  2.5366e+000 66148 69786,69890,69864
 5.7000e+000 69962 -1.2783e+002 -2.0598e+002  3.4472e+000 66148 69760,69890,69786
 5.7000e+000 69939 -9.3577e+001 -1.9286e+002 -2.8092e+001 66148 69786,69864,69838
 5.7000e+000 69916 -1.0945e+002 -2.0652e+002 -8.7052e+000 66148 69786,69838,69812
 5.7000e+000 70137 -5.8951e+001 -2.2851e+002 -1.3009e+001 65950 70036,70088,70062
 5.7000e+000 70114 -5.0658e+001 -2.5237e+002  1.0808e+001 65950 70010,70088,70036
 5.7000e+000 70470 -4.3764e+001 -1.6863e+002  1.2793e+001 65546 70245,70323,70271
 5.7000e+000 70447 -3.0495e+001 -1.4670e+002  5.9873e+000 65546 70245,70375,70323
 5.7000e+000 70424 -4.0448e+001 -1.9154e+002  6.6639e+000 65546 70323,70375,70349
 5.7000e+000 70401 -3.5546e+001 -1.5601e+002  5.6325e+000 65546 70271,70323,70297
 5.7000e+000 70620 -7.7772e+001 -1.9491e+002  6.2449e+000 65348 70493,70545,70519
 5.7000e+000 70597 -5.9095e+001 -2.0520e+002  7.1763e+000 65348 70493,70571,70545
 5.7000e+000 70721 -1.1480e+002 -2.4679e+002 -1.4254e+001 65150 70643,70695,70669
 5.7000e+000 71020 -7.2026e+001 -1.5381e+002  1.2988e+001 64952 71043,70850,70824
 5.7000e+000 70997 -6.1669e+001 -1.4629e+002 -1.8832e+000 64952 71043,70824,70772
 5.7000e+000 70974 -6.3974e+001 -1.8851e+002  4.5246e+000 64952 71115,70746,70876
 5.7000e+000 70951 -5.4298e+001 -1.9118e+002 -1.2250e+000 64952 70746,70902,70876
 5.7000e+000 70928 -6.8417e+001 -1.2929e+002 -1.3108e+001 64952 70772,70824,70798
 5.7000e+000 71069 -3.6299e+001 -1.3122e+002  3.2384e+001 64952 70876,70850,71043
 5.7000e+000 71092 -5.3663e+001 -1.7505e+002  9.0188e+000 64952 71115,70876,71043
 5.7000e+000 71141 -8.5578e+001 -1.7180e+002 -9.8354e+000 64952 70772,70746,71115
 5.7000e+000 71164 -7.3354e+001 -1.5240e+002 -4.4243e+000 64952 70772,71115,71043
 5.7000e+000 71365 -3.7351e+001 -2.1484e+002 -6.6791e+000 64662 71215,71293,71267
 5.7000e+000 71342 -2.7024e+001 -1.5585e+002  4.6452e+000 64662 71189,71293,71215
 5.7000e+000 71319 -1.5799e+000 -1.3138e+002 -4.7604e-003 64662 71215,71267,71241
 5.7000e+000 71615 -5.3461e+001 -1.7526e+002 -2.7162e+000 64350 71710,71638,71468
 5.7000e+000 71592 -6.0047e+001 -1.7220e+002 -6.4636e+000 64350 71638,71416,71390
 5.7000e+000 71569 -5.7162e+001 -1.6339e+002  7.3004e+000 64350 71710,71468,71442
 5.7000e+000 71546  2.0464e+001 -1.6854e+002 -2.5802e+001 64350 71390,71520,71494
 5.7000e+000 71664 -4.9783e+001 -1.7425e+002 -9.2386e-001 64350 71494,71468,71638
 5.7000e+000 71687 -4.9670e+001 -1.7903e+002 -3.7507e-001 64350 71494,71638,71390
 5.7000e+000 71736 -4.7713e+001 -1.5107e+002 -3.6912e-001 64350 71416,71638,71710
 5.7000e+000 71759 -4.8056e+001 -1.3956e+002  1.2397e+001 64350 71416,71710,71442
 5.7000e+000 72318 -5.5714e+001 -2.7468e+002 -1.2732e+001 63837 71972,72024,71998
 5.7000e+000 72295 -7.8550e+001 -1.7900e+002 -1.6187e+000 63837 72341,71972,71946
 5.7000e+000 72272 -7.1853e+001 -1.4410e+002  6.5964e+000 63837 72413,72341,71946
 5.7000e+000 72249 -6.8227e+001 -1.3066e+002  2.3622e+000 63837 72413,71946,72128
 5.7000e+000 72226 -1.0037e+002 -1.5822e+002  1.1811e+000 63837 72024,72076,72050
 5.7000e+000 72203 -8.8652e+001 -1.4538e+002 -5.4811e+000 63837 72024,72102,72076
 5.7000e+000 72180 -5.1071e+001 -1.2492e+002  9.4884e+000 63837 71946,72154,72128
 5.7000e+000 72367 -9.4715e+001 -1.9200e+002 -3.4116e+001 63837 72024,71972,72341
 5.7000e+000 72390 -7.4460e+001 -1.5681e+002 -1.3108e+001 63837 72024,72341,72102
 5.7000e+000 72439 -5.9131e+001 -1.6593e+002  2.2230e+000 63837 72102,72341,72413
 5.7000e+000 72462 -5.5843e+001 -1.5205e+002 -4.3426e-001 63837 72102,72413,72128
 5.7000e+000 72791 -8.9622e+001 -1.6929e+002 -1.8272e+001 63383 72592,72696,72670
 5.7000e+000 72768 -9.1424e+001 -1.5966e+002 -3.0178e+001 63383 72566,72696,72592
 5.7000e+000 72745 -8.6012e+001 -1.4734e+002 -1.2673e+000 63383 72592,72670,72618
 5.7000e+000 72722 -8.2756e+001 -1.3679e+002 -3.0205e+000 63383 72618,72670,72644
 5.7000e+000 73297 -1.0386e+002 -1.4820e+002 -1.0919e+000 63185 73000,73156,73130
 5.7000e+000 73274 -1.0409e+002 -1.5350e+002  1.8693e+001 63185 72974,73156,73000
 5.7000e+000 73251 -7.8801e+001 -1.7241e+002 -2.5148e+000 63185 73000,73052,73026
 5.7000e+000 73228 -8.6635e+001 -1.5310e+002 -7.7064e+000 63185 73000,73130,73052
 5.7000e+000 73205 -8.6141e+001 -1.7329e+002 -2.6449e+001 63185 73052,73130,73104
 5.7000e+000 73182 -8.0456e+001 -1.8761e+002 -2.7241e+001 63185 73052,73104,73078
 5.7000e+000 73545 -4.7366e+001 -1.6327e+002  4.1573e+000 62781 73568,73398,73372
 5.7000e+000 73522 -2.5397e+001 -1.5014e+002  1.9454e+001 62781 73568,73372,73346
 5.7000e+000 73499 -6.4565e+001 -1.8613e+002 -2.0875e+001 62781 73640,73320,73424
 5.7000e+000 73476 -6.3982e+001 -1.1796e+002 -3.6896e+001 62781 73320,73450,73424
 5.7000e+000 73594 -5.3352e+001 -1.5485e+002  3.8404e+000 62781 73424,73398,73568
 5.7000e+000 73617 -5.6861e+001 -1.7687e+002 -1.3227e+000 62781 73640,73424,73568
 5.7000e+000 73666 -5.3825e+001 -1.6361e+002 -7.8525e+000 62781 73346,73320,73640
 5.7000e+000 73689 -4.8446e+001 -1.4658e+002  9.9726e+000 62781 73346,73640,73568
 5.7000e+000 74035 -6.4221e+001 -1.6839e+002 -3.9136e+000 62363 74058,73868,73842
 5.7000e+000 74012 -5.7989e+001 -1.5477e+002 -1.3812e+001 62363 74130,74058,73842
 5.7000e+000 73989 -5.3257e+001 -1.5327e+002 -1.4366e+001 62363 74130,73842,73816
 5.7000e+000 73966 -8.3866e+001 -1.7540e+002  1.7399e+000 62363 74202,73764,73894
 5.7000e+000 73943 -1.0782e+002 -1.6029e+002  2.1031e+000 62363 73712,73894,73764
 5.7000e+000 73920 -1.1697e+002 -1.7160e+002 -2.2928e+000 62363 73712,73764,73738
 5.7000e+000 74084 -6.2555e+001 -1.6528e+002 -3.1123e+000 62363 73894,73868,74058
 5.7000e+000 74107 -7.7366e+001 -1.6783e+002  6.7031e+000 62363 74202,73894,74058
 5.7000e+000 74156 -6.3788e+001 -1.5688e+002  3.4022e+000 62363 73790,74058,74130
 5.7000e+000 74179 -4.0647e+001 -1.4769e+002  4.5672e+000 62363 73790,74130,73816
 5.7000e+000 74228 -9.0788e+001 -1.7847e+002 -9.2038e+000 62363 73790,73764,74202
 5.7000e+000 74251 -8.5807e+001 -1.7033e+002 -4.3243e+000 62363 73790,74202,74058
 5.7000e+000 74403 -9.4104e+000 -1.8188e+002  1.1445e+001 62115 74426,74302,74276
 5.7000e+000 74380  2.1907e+001 -1.7359e+002  2.4299e+001 62115 74426,74276,74354
 5.7000e+000 74452 -3.8981e+001 -1.6461e+002  1.0944e+001 62115 74328,74302,74426
 5.7000e+000 74475 -9.8506e+000 -1.5735e+002  2.4589e+001 62115 74328,74426,74354
 5.7000e+000 74578 -2.7735e+000 -1.0144e+002 -1.2248e+000 61825 74500,74552,74526
 5.7000e+000 74982 -8.8089e+001 -1.5339e+002  5.1638e-001 61513 75005,74734,74708
 5.7000e+000 74959 -8.6774e+001 -1.4738e+002 -1.3464e+000 61513 75005,74708,74864
 5.7000e+000 74936 -1.1089e+002 -1.5905e+002  9.1917e+000 61513 75077,74812,74734
 5.7000e+000 74913 -9.2275e+001 -1.5279e+002 -1.3031e+001 61513 74734,74786,74760
 5.7000e+000 74890 -9.2151e+001 -1.4143e+002 -1.9730e+000 61513 74734,74812,74786
 5.7000e+000 75031 -8.3679e+001 -1.5815e+002  9.6403e-001 61513 75077,74734,75005
 5.7000e+000 75054 -6.6798e+001 -1.5207e+002  2.2427e+001 61513 74838,75005,74864
 5.7000e+000 75103 -1.2584e+002 -1.6474e+002  3.4074e+001 61513 74838,74812,75077
 5.7000e+000 75126 -1.0825e+002 -1.7055e+002  2.5866e+001 61513 74838,75077,75005
 5.7000e+000 75553 -4.5842e+001 -1.4212e+002 -5.4763e+000 61060 75576,75360,75308
 5.7000e+000 75530 -4.5969e+001 -1.5080e+002 -5.6940e+000 61060 75576,75308,75230
 5.7000e+000 75507 -4.2925e+001 -1.3769e+002 -1.4632e+000 61060 75308,75360,75334
 5.7000e+000 75484 -6.0507e+001 -1.7673e+002  8.9091e+000 61060 75230,75308,75256
 5.7000e+000 75461 -4.7172e+001 -1.6350e+002  2.5241e+000 61060 75256,75308,75282
 5.7000e+000 75438 -5.3167e+001 -1.3862e+002  1.5649e+001 61060 75360,75412,75386
 5.7000e+000 75602 -3.8368e+001 -1.4953e+002 -1.5090e-001 61060 75412,75360,75576
 5.7000e+000 75625 -4.3216e+001 -1.6522e+002 -2.1869e+000 61060 75412,75576,75230
 5.7000e+000 76052 -6.8425e+001 -1.4863e+002  1.9351e+000 60442 75755,75859,75833
 5.7000e+000 76029 -7.6737e+001 -1.3975e+002 -1.1074e+001 60442 75729,75859,75755
 5.7000e+000 76006 -7.0026e+001 -1.3661e+002  8.1432e+000 60442 75755,75833,75807
 5.7000e+000 75983 -6.9955e+001 -1.6231e+002  3.2822e+000 60442 75755,75807,75781
 5.7000e+000 75960 -4.3073e+000 -2.5705e+002  8.0650e+000 60442 75729,75911,75859
 5.7000e+000 75937 -1.3192e+002 -6.3026e+002  4.0330e+001 60442 75859,75911,75885
 5.7000e+000 76430 -7.1982e+001 -1.8619e+002 -4.4007e+000 59788 76453,76286,76234
 5.7000e+000 76407 -7.8396e+001 -2.1189e+002  4.6132e+000 59788 76453,76234,76182
 5.7000e+000 76384 -7.8704e+001 -1.4251e+002  2.4883e+001 59788 76525,76156,76312
 5.7000e+000 76361 -4.6126e+001 -2.4358e+002 -9.8585e-001 59788 76182,76234,76208
 5.7000e+000 76338 -6.0797e+001 -1.7615e+002  3.2279e-001 59788 76234,76286,76260
 5.7000e+000 76479 -8.4844e+001 -2.0015e+002  3.8180e+000 59788 76312,76286,76453
 5.7000e+000 76502 -7.2487e+001 -1.8955e+002  1.1322e+001 59788 76525,76312,76453
 5.7000e+000 76551 -9.7353e+001 -2.0173e+002  2.5991e+001 59788 76182,76156,76525
 5.7000e+000 76574 -8.6475e+001 -2.1615e+002  1.6433e+001 59788 76182,76525,76453
 5.7000e+000 77031 -5.0289e+001 -1.1476e+002 -1.5805e+001 59448 76835,76887,76861
 5.7000e+000 77008 -2.1144e+001 -9.3703e+001  4.8598e+000 59448 76835,76913,76887
 5.7000e+000 76985 -2.7543e+001 -7.9390e+001  1.5369e+001 59448 76809,76913,76835
 5.7000e+000 76962 -5.4937e+001 -1.0495e+002 -8.1239e-001 59448 76757,76913,76809
 5.7000e+000 76939 -4.5634e+001 -9.3426e+001 -4.8341e+000 59448 76757,76809,76783
 5.7000e+000 77537 -7.0482e+001 -1.5378e+002  7.3294e+000 58994 77560,77344,77292
 5.7000e+000 77514 -9.8456e+001 -1.5133e+002  2.1702e+000 58994 77560,77292,77240
 5.7000e+000 77491 -5.7056e+001 -1.4186e+002 -3.9502e+000 58994 77632,77214,77370
 5.7000e+000 77468 -1.1575e+002 -1.7521e+002  2.9607e+001 58994 77292,77344,77318
 5.7000e+000 77445 -5.9176e+001 -1.8190e+002  6.3186e+000 58994 77214,77396,77370
 5.7000e+000 77422 -1.0099e+002 -1.6265e+002 -4.0978e+000 58994 77240,77292,77266
 5.7000e+000 77586 -7.4490e+001 -1.5546e+002  8.3922e+000 58994 77370,77344,77560
 5.7000e+000 77609 -7.3544e+001 -1.5180e+002  1.0041e+001 58994 77632,77370,77560
 5.7000e+000 77658 -4.7974e+001 -1.3117e+002 -1.9232e+001 58994 77240,77214,77632
 5.7000e+000 77681 -6.0194e+001 -1.2965e+002 -6.5917e+000 58994 77240,77632,77560
 5.7000e+000 78138 -6.3419e+001 -1.1031e+002  1.5095e+001 58440 77864,77994,77890
 5.7000e+000 78115 -4.3053e+001 -6.8700e+001 -8.6281e+000 58440 77864,78020,77994
 5.7000e+000 78092 -7.1804e+001 -1.2981e+002 -1.1313e+001 58440 77942,77994,77968
 5.7000e+000 78069 -5.7661e+001 -1.2285e+002  2.3635e+000 58440 77890,77994,77942
 5.7000e+000 78046 -5.0767e+001 -1.2271e+002 -2.4636e+000 58440 77890,77942,77916
 5.7000e+000 78467 -1.3481e+001 -1.4096e+002  3.5737e+000 57928 78562,78490,78346
 5.7000e+000 78444 -5.3611e+001 -1.4175e+002 -2.6926e+000 57928 78490,78294,78268
 5.7000e+000 78421 -4.8024e+000 -1.4828e+002  1.0746e+001 57928 78562,78346,78320
 5.7000e+000 78398 -2.2807e+001 -1.3723e+002  1.1829e+000 57928 78242,78372,78268
 5.7000e+000 78516 -4.7688e+001 -1.7421e+002 -1.0434e+001 57928 78372,78346,78490
 5.7000e+000 78539 -3.8910e+001 -1.3573e+002 -2.1888e+000 57928 78372,78490,78268
 5.7000e+000 78588 -5.3911e+001 -1.4060e+002 -1.9251e-001 57928 78294,78490,78562
 5.7000e+000 78611 -2.8185e+001 -1.2851e+002  1.3612e+001 57928 78294,78562,78320
 5.7000e+000 79068 -1.0701e+002 -2.2783e+002 -5.6833e+001 57467 78794,78924,78820
 5.7000e+000 79045 -8.3629e+001 -2.1670e+002 -5.2316e+001 57467 78794,78950,78924
 5.7000e+000 79022 -4.3450e+001 -2.0405e+002  2.1815e+001 57467 78820,78898,78872
 5.7000e+000 78999 -7.7785e+001 -2.8257e+002 -2.8939e+001 57467 78820,78924,78898
 5.7000e+000 78976 -3.3370e+001 -2.0779e+002  3.3033e+001 57467 78820,78872,78846
 5.7000e+000 79446 -8.9487e+001 -1.6682e+002 -1.1088e+000 57120 79172,79302,79250
 5.7000e+000 79423 -8.1204e+001 -1.6303e+002 -6.4650e+000 57120 79172,79328,79302
 5.7000e+000 79400 -8.2145e+001 -1.4663e+002 -6.4795e+000 57120 79172,79250,79198
 5.7000e+000 79377 -6.3751e+001 -2.0824e+002  6.6432e+000 57120 79250,79302,79276
 5.7000e+000 79354 -9.8662e+001 -1.5983e+002 -1.3305e+001 57120 79198,79250,79224
 5.7000e+000 79952 -1.2060e+002 -1.9172e+002  1.0941e+000 56773 79629,79785,79655
 5.7000e+000 79929 -3.3907e+001 -1.6463e+002  8.3959e+000 56773 79629,79811,79785
 5.7000e+000 79906 -9.4312e+001 -2.0701e+002  1.4567e+001 56773 79655,79733,79681
 5.7000e+000 79883 -9.1662e+001 -1.8378e+002  4.1845e+000 56773 79655,79785,79733
 5.7000e+000 79860 -8.7270e+001 -2.4352e+002 -2.7712e+001 56773 79733,79785,79759
 5.7000e+000 79837 -5.0916e+001 -1.8697e+002  3.6843e+001 56773 79681,79733,79707
 5.7000e+000 80281 -4.4806e+001 -1.3674e+002 -1.1273e+001 56319 80108,80160,80134
 5.7000e+000 80258 -4.8035e+001 -1.4933e+002 -1.3908e+001 56319 80056,80160,80108
 5.7000e+000 80235 -2.2989e+001 -1.3257e+002  7.9531e+000 56319 80056,80186,80160
 5.7000e+000 80212 -6.2380e+001 -1.9030e+002 -1.0005e+001 56319 80056,80108,80082
 5.7000e+000 80738 -2.4615e+001 -1.7037e+002  9.1159e+000 55957 80516,80620,80594
 5.7000e+000 80715 -6.1414e+001 -1.5494e+002  7.0568e+000 55957 80464,80620,80516
 5.7000e+000 80692 -5.2153e+001 -1.8647e+002  9.9026e+000 55957 80761,80568,80542
 5.7000e+000 80669 -4.3949e+001 -1.8329e+002  1.1649e+001 55957 80761,80542,80516
 5.7000e+000 80646 -6.0958e+001 -1.5347e+002  1.9023e+001 55957 80464,80516,80490
 5.7000e+000 80787 -6.0546e+001 -1.8508e+002  7.1274e+000 55957 80594,80568,80761
 5.7000e+000 80810 -5.2822e+001 -1.8209e+002  8.9526e+000 55957 80594,80761,80516
 5.7000e+000 81210 -5.6122e+001 -1.7777e+002 -1.5288e+001 55317 80936,80988,80962
 5.7000e+000 81187 -4.7643e+001 -1.8873e+002  5.7804e-001 55317 80936,81066,80988
 5.7000e+000 81164 -4.1229e+001 -2.0286e+002  4.9623e+000 55317 80936,81092,81066
 5.7000e+000 81141 -6.8534e+001 -2.0262e+002 -1.6970e+001 55317 80988,81066,81014
 5.7000e+000 81118 -1.6620e+001 -1.1770e+002  1.2583e+001 55317 81014,81066,81040
 5.7000e+000 81539 -7.7705e+001 -1.7062e+002  2.7925e+000 54913 81340,81418,81392
 5.7000e+000 81516 -3.2883e+001 -1.3913e+002 -1.1736e+001 54913 81340,81444,81418
 5.7000e+000 81493 -4.8667e+001 -1.4894e+002 -2.1683e+001 54913 81314,81444,81340
 5.7000e+000 81470 -8.9078e+001 -1.8150e+002 -1.7826e+000 54913 81340,81392,81366
 5.7000e+000 81787 -4.4901e+001 -1.8063e+002 -2.2189e+000 54601 81588,81692,81640
 5.7000e+000 81764 -6.6309e+001 -1.8287e+002 -6.8302e+000 54601 81562,81692,81588
 5.7000e+000 81741 -3.8797e+001 -1.8469e+002  2.2566e+001 54601 81588,81640,81614
 5.7000e+000 81718 -4.5777e+001 -2.1317e+002 -1.9546e+001 54601 81640,81692,81666
 5.7000e+000 82344 -6.5482e+001 -1.7797e+002 -8.2120e+000 54090 81998,82102,82076
 5.7000e+000 82321 -8.8190e+001 -1.8783e+002 -5.7551e+000 54090 81998,82154,82102
 5.7000e+000 82298 -8.1075e+001 -1.8289e+002 -3.4941e+000 54090 81972,82154,81998
 5.7000e+000 82275 -9.2525e+001 -1.6681e+002 -9.4432e+000 54090 81998,82076,82024
 5.7000e+000 82252 -9.9165e+001 -1.9510e+002  8.6855e+000 54090 81972,82180,82154
 5.7000e+000 82229 -1.2458e+002 -2.3136e+002  1.3762e+001 54090 82102,82154,82128
 5.7000e+000 82206 -1.6956e+001 -1.2477e+002 -2.7271e+001 54090 82024,82076,82050
 5.7000e+000 82722 -1.1644e+002 -2.0995e+002 -6.8314e+000 53579 82500,82578,82552
 5.7000e+000 82699 -8.8682e+001 -1.9296e+002  4.3540e+000 53579 82448,82578,82500
 5.7000e+000 82676 -9.7509e+001 -2.1662e+002  6.1556e+000 53579 82448,82500,82474
 5.7000e+000 82653 -1.1338e+002 -2.0595e+002  1.4611e+001 53579 82448,82604,82578
 5.7000e+000 82630 -6.2465e+001 -1.9556e+002 -7.7922e+000 53579 82500,82552,82526
 5.7000e+000 83356 -5.9739e+001 -1.5414e+002 -1.3803e+001 53189 83379,83088,83036
 5.7000e+000 83333 -5.7464e+001 -1.7403e+002 -1.2131e+001 53189 83379,83036,82984
 5.7000e+000 83310 -2.6064e+001 -1.6248e+002  2.5930e+001 53189 82984,83192,83166
 5.7000e+000 83287 -1.6971e+000 -1.2776e+002 -7.8786e+000 53189 83036,83088,83062
 5.7000e+000 83264 -4.3116e+001 -1.9338e+002 -2.6528e+001 53189 82984,83036,83010
 5.7000e+000 83241 -4.4228e+001 -1.9479e+002  5.8239e+000 53189 83114,83166,83140
 5.7000e+000 83218 -8.2076e+001 -2.0361e+002  4.1563e+000 53189 83088,83166,83114
 5.7000e+000 83405 -6.0322e+001 -1.6750e+002 -5.6596e+000 53189 83166,83088,83379
 5.7000e+000 83428 -5.4995e+001 -1.8501e+002 -5.2614e+000 53189 83166,83379,82984
 5.7000e+000 83725 -7.3872e+001 -2.1119e+002 -2.1179e+001 52585 83748,83529,83503
 5.7000e+000 83702 -5.4558e+001 -2.0494e+002 -1.4125e+001 52585 83820,83748,83503
 5.7000e+000 83679 -3.6273e+001 -1.9798e+002 -1.1091e+001 52585 83820,83503,83477
 5.7000e+000 83656 -2.5826e+001 -1.7849e+002  2.0996e+001 52585 83477,83607,83581
 5.7000e+000 83633  1.2814e+001 -1.6133e+002  2.4174e+001 52585 83451,83607,83477
 5.7000e+000 83774 -6.4237e+001 -1.8688e+002 -1.8276e+001 52585 83555,83529,83748
 5.7000e+000 83797 -8.5211e+001 -2.0126e+002 -1.2014e+001 52585 83555,83748,83581
 5.7000e+000 83846 -7.1829e+001 -1.9074e+002 -4.5268e+000 52585 83581,83748,83820
 5.7000e+000 83869 -5.9257e+001 -1.8763e+002 -3.5867e+000 52585 83581,83820,83477
 5.7000e+000 84200 -5.4294e+001 -1.8852e+002 -7.1595e+000 52024 84001,84105,84079
 5.7000e+000 84177 -2.9050e+001 -1.8414e+002 -1.3904e+001 52024 83975,84105,84001
 5.7000e+000 84154 -4.6819e+001 -1.8883e+002 -5.7597e+000 52024 84001,84079,84053
 5.7000e+000 84131 -2.3971e+001 -1.2900e+002  2.2066e+001 52024 84001,84053,84027
 5.7000e+000 84399 -4.9110e+001 -1.8766e+002 -2.0309e+000 51470 84422,84275,84249
 5.7000e+000 84376 -4.7042e+001 -1.8271e+002 -7.9018e-001 51470 84422,84249,84223
 5.7000e+000 84353 -5.4954e+001 -2.0186e+002 -2.8077e+001 51470 84275,84327,84301
 5.7000e+000 84448 -5.1350e+001 -1.8310e+002 -2.3152e+000 51470 84327,84275,84422
 5.7000e+000 84471 -4.9976e+001 -1.7912e+002 -1.1469e+000 51470 84327,84422,84223
 5.7000e+000 84753 -5.4585e+001 -1.5533e+002 -1.2957e+000 51073 84603,84655,84629
 5.7000e+000 84730 -1.1024e+002 -1.8057e+002 -7.9512e+000 51073 84776,84655,84603
 5.7000e+000 84707 -2.7163e+001 -1.5788e+002 -4.3446e+001 51073 84577,84681,84655
 5.7000e+000 84802 -7.0693e+001 -1.5771e+002 -2.1393e+001 51073 84577,84655,84776
 5.7000e+000 85178 -1.0260e+002 -2.2846e+002  2.0806e+001 50519 85201,85008,84982
 5.7000e+000 85155 -9.6985e+001 -2.1260e+002  1.6376e+001 50519 85273,85201,84982
 5.7000e+000 85132 -9.1836e+001 -2.1220e+002  1.3136e+001 50519 85273,84982,84930
 5.7000e+000 85109 -8.8940e+001 -2.0437e+002  1.1077e+001 50519 84930,84982,84956
 5.7000e+000 85086 -8.9064e+001 -2.1928e+002  1.0949e+001 50519 85008,85060,85034
 5.7000e+000 85227 -8.7526e+001 -2.1849e+002  9.7550e+000 50519 85060,85008,85201
 5.7000e+000 85250 -9.6608e+001 -2.1956e+002  7.2543e+000 50519 85060,85201,84904
 5.7000e+000 85299 -9.2049e+001 -2.1594e+002  5.6447e+000 50519 84904,85201,85273
 5.7000e+000 85322 -7.2562e+001 -1.8962e+002 -2.9838e+000 50519 84904,85273,84930
 5.7000e+000 85958 -6.5008e+001 -1.9096e+002 -5.8722e+000 50093 85981,85768,85716
 5.7000e+000 85935 -5.8089e+001 -1.7426e+002 -5.7857e+000 50093 85981,85716,85612
 5.7000e+000 85912 -8.0070e+001 -1.7987e+002  4.0582e+000 50093 85612,85716,85664
 5.7000e+000 85889 -5.0977e+001 -1.8657e+002 -1.8560e+000 50093 85716,85768,85742
 5.7000e+000 85866 -6.6373e+001 -1.4017e+002 -3.6240e+001 50093 85664,85716,85690
 5.7000e+000 85843 -2.3776e+001 -1.3257e+002 -5.9605e+000 50093 85586,85794,85612
 5.7000e+000 85820 -5.3881e+001 -2.4382e+002  2.2077e+001 50093 85612,85664,85638
 5.7000e+000 86007 -7.9462e+001 -2.0568e+002 -2.9923e+001 50093 85794,85768,85981
 5.7000e+000 86030 -5.7777e+001 -1.5670e+002 -2.3771e+001 50093 85794,85981,85612
 5.7000e+000 86131 -6.1674e+001 -1.8036e+002  2.4299e+001 49895 86053,86105,86079
 5.7000e+000 86639 -5.0243e+001 -1.3421e+002 -2.6047e+001 49391 86662,86394,86368
 5.7000e+000 86616 -5.9227e+001 -1.6390e+002 -2.3592e+001 49391 86662,86368,86342
 5.7000e+000 86593 -3.0362e+001 -1.6295e+002 -6.6774e+000 49391 86342,86498,86472
 5.7000e+000 86570 -2.0824e+001 -1.7630e+002 -7.8128e+000 49391 86316,86498,86342
 5.7000e+000 86547 -9.2279e+001 -2.4890e+002 -9.3320e+000 49391 86394,86472,86446
 5.7000e+000 86524 -1.1509e+001 -2.3686e+002  2.9077e+000 49391 86394,86446,86420
 5.7000e+000 86688 -5.5215e+001 -1.6190e+002 -1.3197e+001 49391 86472,86394,86662
 5.7000e+000 86711 -5.0324e+001 -1.7468e+002 -1.2956e+001 49391 86472,86662,86342
 5.7000e+000 87089 -7.0503e+001 -1.9100e+002  5.3100e+000 48987 86815,86919,86867
 5.7000e+000 87066 -6.9560e+001 -1.9622e+002  7.9514e+000 48987 86815,86971,86919
 5.7000e+000 87043 -2.8120e+001 -2.0997e+002 -1.7854e+001 48987 86867,86919,86893
 5.7000e+000 87020 -7.9857e+001 -2.1670e+002  1.7829e+001 48987 86815,86867,86841
 5.7000e+000 86997 -7.7899e+001 -1.6915e+002  2.6995e+001 48987 86919,86971,86945
 5.7000e+000 87467 -1.3032e+002 -1.9111e+002  1.0471e+001 48540 87490,87245,87219
 5.7000e+000 87444 -9.2850e+001 -1.7904e+002  1.7202e+000 48540 87562,87490,87219
 5.7000e+000 87421 -7.1094e+001 -1.7025e+002  8.0405e+000 48540 87562,87219,87349
 5.7000e+000 87398 -9.6129e+001 -1.4744e+002 -7.5690e+000 48540 87245,87297,87271
 5.7000e+000 87375 -6.0657e+001 -1.7876e+002  5.8398e+000 48540 87193,87349,87219
 5.7000e+000 87516 -8.8479e+001 -1.8013e+002  4.8217e+000 48540 87297,87245,87490
 5.7000e+000 87539 -8.9766e+001 -1.8347e+002  4.8399e+000 48540 87297,87490,87323
 5.7000e+000 87588 -7.1886e+001 -1.7011e+002  1.6063e+001 48540 87323,87490,87562
 5.7000e+000 87611 -6.1305e+001 -1.7242e+002  2.0252e+001 48540 87323,87562,87349
 5.7000e+000 87810 -8.2991e+001 -2.9880e+002 -2.1966e+001 48136 87660,87712,87686
 5.7000e+000 87787 -4.7412e+001 -1.7616e+002 -9.8923e+000 48136 87660,87738,87712
 5.7000e+000 87764 -1.1213e+002 -1.8252e+002 -3.0289e+001 48136 87634,87738,87660
 5.7000e+000 88205 -8.2477e+001 -2.0161e+002 -1.9272e+001 47210 88300,88228,87937
 5.7000e+000 88182 -7.2094e+001 -1.9509e+002 -6.3321e+000 47210 88228,87833,88041
 5.7000e+000 88159 -8.3869e+001 -2.1625e+002 -2.9656e+001 47210 88300,87937,87911
 5.7000e+000 88136 -8.0123e+001 -1.9618e+002 -2.4455e+001 47210 87833,87911,87859
 5.7000e+000 88113 -1.3877e+002 -1.7856e+002 -1.7747e+001 47210 87937,87989,87963
 5.7000e+000 88090 -6.9317e+001 -1.5884e+002  3.3727e+001 47210 87989,88041,88015
 5.7000e+000 88067 -9.2699e+001 -2.2773e+002 -3.1537e+001 47210 87859,87911,87885
 5.7000e+000 88254 -7.3236e+001 -1.6514e+002 -1.9922e+001 47210 87989,87937,88228
 5.7000e+000 88277 -8.7879e+001 -1.9198e+002 -8.2039e+000 47210 87989,88228,88041
 5.7000e+000 88326 -6.8609e+001 -1.8779e+002 -7.8189e+000 47210 87833,88228,88300
 5.7000e+000 88349 -7.2167e+001 -1.9746e+002 -1.9001e+001 47210 87833,88300,87911
 5.7000e+000 88780 -1.1927e+002 -2.1197e+002 -4.0284e+001 46642 88803,88509,88483
 5.7000e+000 88757 -8.6226e+001 -1.9107e+002 -2.1426e+001 46642 88803,88483,88639
 5.7000e+000 88734 -9.4603e+001 -1.5670e+002 -2.5322e+001 46642 88875,88561,88509
 5.7000e+000 88711 -9.6003e+001 -1.4461e+002 -4.0994e+000 46642 88509,88561,88535
 5.7000e+000 88688 -5.4987e+001 -2.1331e+002  8.7244e-001 46642 88457,88639,88483
 5.7000e+000 88665 -1.1055e+002 -2.5798e+002 -1.1085e+001 46642 88561,88613,88587
 5.7000e+000 88829 -9.5795e+001 -1.7102e+002 -2.8563e+001 46642 88875,88509,88803
 5.7000e+000 88852 -9.3981e+001 -2.0524e+002 -1.8413e+001 46642 88613,88803,88639
 5.7000e+000 88901 -7.7380e+001 -1.7659e+002 -1.3234e+001 46642 88613,88561,88875
 5.7000e+000 88924 -8.4811e+001 -1.9966e+002 -1.6067e+001 46642 88613,88875,88803
 5.7000e+000 89253 -3.7107e+001 -1.9153e+002  3.4001e+000 46444 89080,89158,89132
 5.7000e+000 89230 -4.1111e+001 -1.9999e+002  1.1986e+000 46444 89028,89158,89080
 5.7000e+000 89207 -1.6040e+001 -1.7953e+002 -7.6184e+000 46444 89028,89080,89054
 5.7000e+000 89184 -1.5701e+001 -2.0772e+002 -1.7343e+001 46444 89080,89132,89106
 5.7000e+000 89631 -5.8049e+001 -1.3335e+002  4.1409e+000 46040 89383,89461,89435
 5.7000e+000 89608 -6.1282e+001 -1.4766e+002 -7.9099e+000 46040 89383,89487,89461
 5.7000e+000 89585 -6.3514e+001 -1.7103e+002 -3.7794e+000 46040 89383,89435,89409
 5.7000e+000 89562 -4.9487e+001 -1.2738e+002 -1.6545e+001 46040 89383,89513,89487
 5.7000e+000 89539 -1.9766e+001 -1.1246e+002 -2.3908e+001 46040 89357,89513,89383
 5.7000e+000 90009 -6.1418e+001 -1.7041e+002 -4.3026e-001 45636 89813,89891,89839
 5.7000e+000 89986 -6.3326e+001 -1.5884e+002  9.9751e+000 45636 89787,89891,89813
 5.7000e+000 89963 -5.6082e+001 -1.6040e+002 -3.9092e+000 45636 89839,89891,89865
 5.7000e+000 89940 -7.2851e+001 -1.7699e+002  6.0669e+000 45636 89735,89891,89787
 5.7000e+000 89917 -5.8618e+001 -1.7902e+002 -6.5291e+000 45636 89735,89787,89761
 5.7000e+000 90208 -3.8489e+001 -1.3146e+002 -2.5596e+001 45175 90231,90058,90032
 5.7000e+000 90185 -2.2755e+001 -1.2002e+002 -3.8609e+001 45175 90231,90032,90136
 5.7000e+000 90162 -4.6243e+001 -1.0424e+002 -1.1511e+000 45175 90058,90110,90084
 5.7000e+000 90257 -5.5840e+001 -1.4773e+002 -5.8712e+000 45175 90110,90058,90231
 5.7000e+000 90280 -2.5866e+001 -1.2779e+002 -2.0411e+001 45175 90110,90231,90136
 5.7000e+000 90528 -4.2471e+001 -1.3374e+002 -1.7532e+001 44513 90695,90551,90407
 5.7000e+000 90505 -4.5798e+001 -1.2135e+002 -1.0234e+001 44513 90551,90355,90329
 5.7000e+000 90482 -5.2911e+001 -1.2946e+002 -1.6353e+001 44513 90623,90303,90433
 5.7000e+000 90459 -3.4487e+001 -1.2436e+002 -1.2209e+001 44513 90695,90407,90381
 5.7000e+000 90577 -6.0971e+001 -1.3955e+002 -3.0316e+001 44513 90433,90407,90551
 5.7000e+000 90600 -5.2213e+001 -1.2735e+002 -1.5916e+001 44513 90623,90433,90551
 5.7000e+000 90649 -5.1906e+001 -1.2688e+002 -1.6022e+001 44513 90329,90303,90623
 5.7000e+000 90672 -5.2450e+001 -1.2642e+002 -1.5929e+001 44513 90329,90623,90551
 5.7000e+000 90721 -5.3134e+001 -1.2088e+002 -2.0154e+001 44513 90355,90551,90695
 5.7000e+000 90744 -5.1283e+001 -1.1581e+002 -1.8031e+001 44513 90355,90695,90381
 5.7000e+000 91077  3.2285e+000 -1.3779e+002 -8.4691e+000 44059 91100,90930,90904
 5.7000e+000 91054 -5.4099e+001 -1.4907e+002  8.9697e+000 44059 91100,90904,90982
 5.7000e+000 91031 -9.6517e+001 -1.7185e+002 -1.0760e+001 44059 90878,90982,90904
 5.7000e+000 91008 -3.3169e+001 -1.3260e+002  6.6827e+000 44059 90852,90982,90878
 5.7000e+000 91126 -8.7726e+001 -1.6220e+002 -8.4297e+000 44059 91172,91100,90956
 5.7000e+000 91149 -5.2921e+001 -1.4966e+002 -6.0926e+000 44059 90956,91100,90982
 5.7000e+000 91198  3.1698e+000 -6.9083e+001 -4.5256e+001 44059 90930,91100,91172
 5.7000e+000 91677 -6.6798e+001 -1.0584e+002  9.7562e+000 43549 91455,91533,91481
 5.7000e+000 91654 -2.5248e+001 -1.0541e+002  1.4281e+001 43549 91429,91533,91455
 5.7000e+000 91631 -6.4439e+001 -1.0568e+002  4.5132e+000 43549 91481,91533,91507
 5.7000e+000 91608 -1.3082e+001 -1.0046e+002  5.8718e+000 43549 91429,91559,91533
 5.7000e+000 91585  4.0746e+000 -2.4187e+001 -1.1881e+000 43549 91403,91559,91429
 5.7000e+000 92006 -7.2143e+001 -1.7360e+002  1.4379e+000 43059 91781,91885,91807
 5.7000e+000 91983 -7.4892e+001 -1.6347e+002  2.7571e+001 43059 91781,91911,91885
 5.7000e+000 91960 -7.0645e+001 -1.7211e+002  7.2152e-001 43059 91807,91885,91833
 5.7000e+000 91937 -4.6451e+001 -1.6246e+002 -1.2399e+000 43059 91833,91885,91859
 5.7000e+000 92561 -5.0765e+001 -1.1470e+002 -1.3328e+001 42598 92584,92215,92189
 5.7000e+000 92538 -5.6331e+001 -1.2928e+002 -1.1857e+001 42598 92656,92584,92189
 5.7000e+000 92515 -5.0384e+001 -1.4623e+002 -3.2856e+000 42598 92656,92189,92397
 5.7000e+000 92492 -7.0485e+001 -1.0240e+002 -1.6122e+001 42598 92241,92319,92293
 5.7000e+000 92469 -6.3007e+001 -1.2156e+002  7.6588e+000 42598 92319,92397,92371
 5.7000e+000 92446 -2.1561e+001 -1.4880e+002  6.6055e+001 42598 92319,92371,92345
 5.7000e+000 92423 -6.7029e+001 -1.0499e+002 -2.3295e+001 42598 92241,92293,92267
 5.7000e+000 92610 -5.5752e+001 -1.1661e+002 -1.3261e+001 42598 92241,92215,92584
 5.7000e+000 92633 -5.0622e+001 -1.0494e+002 -1.5593e+001 42598 92241,92584,92319
 5.7000e+000 92682 -5.1176e+001 -1.0656e+002 -8.3819e+000 42598 92319,92584,92656
 5.7000e+000 92705 -4.1308e+001 -1.1823e+002 -2.0269e+000 42598 92319,92656,92397
 5.7000e+000 92953 -7.3115e+001 -1.8594e+002  1.0593e+001 42094 92976,92806,92780
 5.7000e+000 92930 -8.0924e+001 -1.7538e+002  7.1856e-001 42094 92976,92780,92754
 5.7000e+000 92907 -2.1758e+001 -1.7952e+002 -4.0212e-001 42094 93048,92832,92806
 5.7000e+000 92884 -1.0175e+002 -1.7805e+002 -1.0852e+001 42094 92728,92858,92754
 5.7000e+000 93002 -4.9026e+001 -1.7252e+002  5.3096e+000 42094 93048,92806,92976
 5.7000e+000 93025 -7.4787e+001 -1.7203e+002 -2.1470e+000 42094 92858,92976,92754
 5.7000e+000 93074 -5.9947e+001 -1.9317e+002 -8.0825e-001 42094 92858,92832,93048
 5.7000e+000 93097 -8.2026e+001 -1.8285e+002  2.4841e+000 42094 92858,93048,92976
 5.7000e+000 93605 -7.3581e+001 -2.1047e+002 -8.5506e+000 41846 93628,93412,93386
 5.7000e+000 93582 -5.7441e+001 -1.5835e+002 -2.6221e+000 41846 93628,93386,93308
 5.7000e+000 93559 -8.3300e+001 -1.6386e+002 -3.5523e+001 41846 93700,93464,93438
 5.7000e+000 93536 -8.2442e+001 -2.2203e+002  1.6749e+000 41846 93308,93386,93334
 5.7000e+000 93513 -1.0251e+002 -1.5265e+002 -3.0895e+001 41846 93334,93386,93360
 5.7000e+000 93490 -7.6397e+001 -1.4414e+002 -3.6384e+001 41846 93282,93464,93308
 5.7000e+000 93654 -6.5595e+001 -1.6843e+002 -1.6110e+001 41846 93438,93412,93628
 5.7000e+000 93677 -8.5570e+001 -1.6844e+002 -1.5897e+001 41846 93700,93438,93628
 5.7000e+000 93726 -7.3651e+001 -1.3982e+002 -3.4916e+001 41846 93308,93464,93700
 5.7000e+000 93749 -7.2585e+001 -1.3671e+002 -1.5581e+001 41846 93308,93700,93628
 5.7000e+000 94255 -6.4459e+001 -1.7740e+002  1.1546e+001 41385 93958,94114,94088
 5.7000e+000 94232 -5.5119e+001 -1.9056e+002  5.0537e+000 41385 93932,94114,93958
 5.7000e+000 94209 -1.0435e+002 -2.0432e+002  3.3251e+001 41385 93958,94088,94062
 5.7000e+000 94186 -1.0918e+002 -1.4837e+002  2.4837e+001 41385 93958,94062,93984
 5.7000e+000 94163 -9.1480e+001 -1.4585e+002  2.0789e+001 41385 93984,94062,94036
 5.7000e+000 94140 -6.2746e+001 -1.9390e+002  2.9592e+001 41385 93984,94036,94010
 5.7000e+000 94476 -2.3911e+001 -2.3998e+002  1.2905e+001 40881 94326,94378,94352
 5.7000e+000 94453 -4.1105e+001 -1.9590e+002  1.5764e+001 40881 94300,94378,94326
 5.7000e+000 94430 -5.3228e+001 -1.8174e+002  1.8570e+000 40881 94300,94404,94378
 5.7000e+000 94626 -4.5406e+001 -1.3173e+002 -2.2974e+000 40591 94649,94551,94525
 5.7000e+000 94603 -2.5763e+001 -7.7488e+001  3.0822e+000 40591 94781,94577,94551
 5.7000e+000 94675 -1.3550e+001 -9.2948e+001 -1.6953e+001 40591 94781,94551,94649
 5.7000e+000 94807  5.2356e+000 -4.8722e+001  1.9702e+001 40591 94499,94577,94781
 5.7000e+000 94830  9.3240e+000 -7.8806e+001 -1.6052e+000 40591 94499,94781,94649
 5.7000e+000 95336 -1.3195e+002 -1.6532e+002 -2.8312e+001 40187 95013,95169,95039
 5.7000e+000 95313 -3.4167e+001 -1.4892e+002  2.0159e+000 40187 95013,95195,95169
 5.7000e+000 95290 -2.4035e+001 -1.6025e+002 -2.0152e+001 40187 95039,95143,95065
 5.7000e+000 95267 -9.3756e+001 -1.8822e+002 -2.8518e+001 40187 95039,95169,95143
 5.7000e+000 95244 -2.9654e+001 -1.1913e+002 -9.9083e+000 40187 95091,95143,95117
 5.7000e+000 95221 -8.6812e+000 -7.4920e+001 -3.8102e+000 40187 95065,95143,95091
 5.7000e+000 95665 -4.1981e+001 -1.1543e+002  5.9213e+001 39626 95466,95570,95544
 5.7000e+000 95642 -8.5636e+001 -9.1578e+001  3.8112e+001 39626 95440,95570,95466
 5.7000e+000 95619 -1.3739e+002 -1.6032e+002  3.8954e+001 39626 95466,95544,95492
 5.7000e+000 95596 -2.2090e+001 -1.2150e+002  5.8916e+001 39626 95492,95544,95518
 5.7000e+000 95913 -6.9852e+001 -1.4857e+002 -2.1347e+001 39136 96080,95936,95766
 5.7000e+000 95890 -4.8230e+001 -1.5977e+002 -1.3468e+001 39136 95936,95714,95688
 5.7000e+000 95867 -1.2002e+002 -1.5970e+002  6.8538e+000 39136 96008,95792,95766
 5.7000e+000 95844 -5.8107e+001 -1.4438e+002 -1.6063e+001 39136 96080,95766,95740
 5.7000e+000 95962 -9.5367e+001 -1.6520e+002 -1.3637e+001 39136 96008,95766,95936
 5.7000e+000 95985 -6.2617e+001 -1.9538e+002 -3.2948e+000 39136 95818,95936,95688
 5.7000e+000 96034 -6.0504e+001 -1.3386e+002  1.0308e+001 39136 95818,95792,96008
 5.7000e+000 96057 -5.4010e+001 -1.4664e+002 -9.8580e+000 39136 95818,96008,95936
 5.7000e+000 96106 -6.3908e+001 -1.4689e+002 -5.6109e+000 39136 95714,95936,96080
 5.7000e+000 96129 -4.5548e+001 -1.4192e+002 -1.4895e+000 39136 95714,96080,95740
 5.7000e+000 96350 -4.8293e+001 -1.2368e+002 -7.5616e+000 38824 96200,96278,96252
 5.7000e+000 96327 -3.9691e+001 -1.1956e+002 -6.3135e+000 38824 96174,96278,96200
 5.7000e+000 96304 -5.8066e+000 -1.0728e+002 -2.3039e+001 38824 96200,96252,96226
 5.7000e+000 96830 -6.9797e+001 -1.2944e+002 -1.0585e+001 38320 97069,96536,96484
 5.7000e+000 96807 -6.8535e+001 -1.3116e+002 -1.0501e+001 38320 97069,96484,96853
 5.7000e+000 96784 -7.7820e+001 -1.4128e+002  1.0906e+000 38320 96853,96484,96458
 5.7000e+000 96761 -4.2744e+001 -1.1224e+002 -1.4995e+001 38320 96925,96640,96614
 5.7000e+000 96738 -6.7094e+001 -1.1647e+002 -7.0731e+000 38320 96997,96666,96640
 5.7000e+000 96715 -5.7265e+001 -1.5354e+002 -5.0969e+000 38320 97141,96588,96562
 5.7000e+000 96692 -8.7784e+001 -1.4945e+002 -2.6250e+000 38320 96484,96536,96510
 5.7000e+000 96879 -6.9167e+001 -1.3959e+002 -6.6873e+000 38320 97141,96562,96853
 5.7000e+000 96902 -6.4125e+001 -1.3540e+002 -6.0729e+000 38320 96925,96614,96853
 5.7000e+000 96951 -6.5733e+001 -1.1541e+002 -7.7771e+000 38320 96997,96640,96925
 5.7000e+000 96974 -6.2230e+001 -1.1393e+002 -5.2787e+000 38320 96458,96925,96853
 5.7000e+000 97023 -7.3313e+001 -1.1764e+002 -3.7715e+000 38320 96458,96666,96997
 5.7000e+000 97046 -6.8342e+001 -1.1519e+002 -4.5546e+000 38320 96458,96997,96925
 5.7000e+000 97095 -7.1647e+001 -1.2451e+002 -3.3542e+000 38320 96562,96536,97069
 5.7000e+000 97118 -6.5648e+001 -1.2992e+002 -9.2875e+000 38320 96562,97069,96853
 5.7000e+000 97167 -3.6631e+001 -1.4061e+002 -1.0968e+001 38320 96614,96588,97141
 5.7000e+000 97190 -5.6232e+001 -1.3219e+002 -1.0842e+001 38320 96614,97141,96853
 5.7000e+000 97519 -5.3252e+001 -1.7018e+002  4.6875e+001 37766 97542,97398,97372
 5.7000e+000 97496 -6.2812e+001 -1.3159e+002  3.3832e+001 37766 97542,97372,97346
 5.7000e+000 97473 -6.3101e+001 -1.4025e+002  1.9327e+000 37766 97294,97424,97346
 5.7000e+000 97450 -7.0845e+001 -1.6332e+002 -7.5203e-001 37766 97294,97346,97320
 5.7000e+000 97568 -2.8089e+001 -1.8051e+002  1.4520e+001 37766 97424,97398,97542
 5.7000e+000 97591 -4.3563e+001 -1.3566e+002  3.9654e+000 37766 97424,97542,97346
 5.7000e+000 98048 -6.9921e+001 -1.0290e+002 -3.3346e+001 37262 98071,97878,97852
 5.7000e+000 98025 -5.8977e+001 -1.2328e+002 -1.3152e+001 37262 98071,97852,97800
 5.7000e+000 98002 -6.3378e+001 -1.4651e+002 -1.5777e+001 37262 97800,97852,97826
 5.7000e+000 97979 -6.5896e+001 -1.3300e+002  1.8395e+000 37262 97800,97930,97904
 5.7000e+000 97956 -4.3756e+001 -1.5350e+002  8.8435e+000 37262 97774,97930,97800
 5.7000e+000 98097 -9.9915e+001 -1.1752e+002 -2.3601e+001 37262 97904,97878,98071
 5.7000e+000 98120 -7.5399e+001 -1.3986e+002 -5.2240e+000 37262 97904,98071,97800
 5.7000e+000 98449 -4.1378e+001 -1.0596e+002 -1.2400e+001 36950 98472,98302,98250
 5.7000e+000 98426 -2.6118e+001 -1.0168e+002 -1.5068e+001 36950 98472,98250,98354
 5.7000e+000 98403 -6.2951e+001 -1.1900e+002  1.3462e+001 36950 98250,98302,98276
 5.7000e+000 98380 -1.6716e+001 -7.9988e+001  9.1582e+000 36950 98224,98354,98250
 5.7000e+000 98498 -3.0072e+001 -1.1764e+002 -3.4909e+000 36950 98328,98302,98472
 5.7000e+000 98521 -1.2406e+001 -1.1123e+002 -8.7116e+000 36950 98328,98472,98354
 5.7000e+000 99125 -7.3027e+001 -7.2878e+001  5.1704e+000 36296 98704,98756,98730
 5.7000e+000 99102 -8.0258e+001 -8.1755e+001  8.3073e+000 36296 98704,98938,98756
 5.7000e+000 99079 -5.7092e+001 -1.0505e+002 -2.7178e+000 36296 99148,98938,98912
 5.7000e+000 99056 -6.0178e+001 -1.0947e+002  2.4702e+001 36296 99292,99220,98782
 5.7000e+000 99033 -4.9873e+001 -1.2353e+002  2.9942e+000 36296 99148,98912,98834
 5.7000e+000 99010 -5.8537e+001 -9.4570e+001  2.8250e+001 36296 99292,98782,98756
 5.7000e+000 98987 -4.8532e+001 -2.1683e+002 -3.9335e+001 36296 98834,98912,98886
 5.7000e+000 98964 -8.0176e+001 -3.1005e+002 -5.0459e+001 36296 98834,98886,98860
 5.7000e+000 99174 -7.0939e+001 -1.3140e+002  4.2302e+000 36296 99220,98938,99148
 5.7000e+000 99197 -4.8615e+001 -1.5010e+002  1.5941e+001 36296 98808,99148,98834
 5.7000e+000 99246 -6.0402e+001 -1.0957e+002  6.0511e+001 36296 98808,98782,99220
 5.7000e+000 99269 -2.5656e+001 -9.6967e+001  1.9428e+001 36296 98808,99220,99148
 5.7000e+000 99318 -6.7322e+001 -9.6197e+001  1.4871e+001 36296 98938,99220,99292
 5.7000e+000 99341 -6.8565e+001 -9.8248e+001  1.7968e+001 36296 98938,99292,98756
 5.7000e+000 99719 -8.3368e+001 -1.7061e+002  7.7093e-001 35742 99742,99471,99601
 5.7000e+000 99696 -8.4434e+001 -1.3563e+002  1.6465e+001 35742 99445,99601,99471
 5.7000e+000 99673 -7.9607e+001 -1.6200e+002 -5.9317e+000 35742 99742,99601,99575
 5.7000e+000 99650 -7.0100e+001 -2.0105e+002 -4.7798e+000 35742 99814,99549,99523
 5.7000e+000 99627 -5.7121e+001 -1.5738e+002  1.6108e-001 35742 99471,99523,99497
 5.7000e+000 99768 -6.7010e+001 -1.6699e+002  4.3133e+000 35742 99523,99471,99742
 5.7000e+000 99791 -7.8820e+001 -1.8573e+002 -3.9021e+000 35742 99814,99523,99742
 5.7000e+000 99840 -6.9486e+001 -1.8187e+002 -1.0598e+001 35742 99575,99549,99814
 5.7000e+000 99863 -7.4774e+001 -1.6179e+002 -9.1544e+000 35742 99575,99814,99742
 5.7000e+000 100111 -6.5239e+001 -1.4013e+002  1.1003e+001 35302 100134,99990,99938
 5.7000e+000 100088 -5.4756e+001 -1.2737e+002  4.4636e+000 35302 100134,99938,99912
 5.7000e+000 100065 -5.4876e+001 -1.2724e+002 -2.5303e+000 35302 100206,99886,100016
 5.7000e+000 100042 -8.1338e+001 -1.3524e+002  7.3570e+000 35302 99938,99990,99964
 5.7000e+000 100160 -5.2154e+001 -1.3525e+002  2.7087e+000 35302 100016,99990,100134
 5.7000e+000 100183 -5.2627e+001 -1.2929e+002 -2.5063e+000 35302 100206,100016,100134
 5.7000e+000 100232 -5.6554e+001 -1.2967e+002 -9.2102e-001 35302 99912,99886,100206
 5.7000e+000 100255 -5.4539e+001 -1.3231e+002 -1.0095e+000 35302 99912,100206,100134
 5.7000e+000 100586 -7.9960e+001 -8.6984e+001  2.6892e+001 35012 100609,100387,100361
 5.7000e+000 100563 -9.8093e+001 -5.9630e+001 -1.8736e+001 35012 100609,100361,100465
 5.7000e+000 100540 -4.2767e+001 -3.9480e+001 -4.3510e+001 35012 100361,100491,100465
 5.7000e+000 100517 -1.1351e+001 -4.5845e+001 -4.4523e+001 35012 100413,100465,100439
 5.7000e+000 100635 -3.4070e+001 -6.6692e+001  9.5369e+000 35012 100413,100387,100609
 5.7000e+000 100658 -5.0269e+001 -3.1690e+001 -3.7253e+001 35012 100413,100609,100465
 5.7000e+000 100987 -6.2840e+001 -1.4438e+002  1.3057e+001 34700 100788,100866,100814
 5.7000e+000 100964 -5.3322e+001 -1.1130e+002  2.2137e+001 34700 101010,100866,100788
 5.7000e+000 100941 -3.1006e+001 -7.1941e+001  2.1686e+001 34700 100762,100892,100866
 5.7000e+000 100918 -5.7220e+001 -1.3054e+002  1.0941e+001 34700 100814,100866,100840
 5.7000e+000 101036 -3.4133e+001 -9.5243e+001  3.8050e+001 34700 100762,100866,101010
 5.7000e+000 101493 -8.6353e+001 -1.6047e+002 -1.2522e+001 34132 101516,101349,101297
 5.7000e+000 101470 -1.0234e+002 -1.9129e+002 -2.0766e+001 34132 101588,101516,101297
 5.7000e+000 101447 -1.0260e+002 -2.0082e+002 -3.1150e+001 34132 101588,101297,101245
 5.7000e+000 101424 -6.5259e+001 -2.3346e+002 -2.9132e+001 34132 101245,101297,101271
 5.7000e+000 101401 -9.4796e+001 -1.6048e+002 -1.6439e+001 34132 101297,101349,101323
 5.7000e+000 101542 -8.9041e+001 -1.8460e+002 -9.8381e+000 34132 101375,101349,101516
 5.7000e+000 101565 -8.0712e+001 -1.8445e+002 -1.0649e+001 34132 101375,101516,101219
 5.7000e+000 101614 -8.2632e+001 -1.9197e+002 -1.0593e+001 34132 101219,101516,101588
 5.7000e+000 101637 -9.2641e+001 -2.0147e+002 -2.0465e+001 34132 101219,101588,101245
 5.7000e+000 101858 -2.7509e+001 -1.2742e+002  1.3339e+001 33720 101708,101786,101760
 5.7000e+000 101835 -1.5013e+001 -1.3635e+002  2.1152e+001 33720 101682,101786,101708
 5.7000e+000 101812 -4.2918e+001 -1.3519e+002  1.0006e+001 33720 101708,101760,101734
 5.7000e+000 102128 -2.2439e+001 -1.6722e+002 -4.5622e+000 33130 101903,102007,101929
 5.7000e+000 102105 -2.6345e+001 -1.9363e+002  6.3708e+000 33130 101903,102033,102007
 5.7000e+000 102082 -1.4138e+001 -1.9907e+002 -3.7730e+001 33130 101929,102007,101955
 5.7000e+000 102059 -3.2465e+001 -1.4139e+002  3.6491e+000 33130 101955,102007,101981
 5.7000e+000 102461 -5.0298e+001 -1.2272e+002 -1.2335e+001 32840 102236,102340,102262
 5.7000e+000 102438 -4.5041e+001 -9.0358e+001  2.9169e+000 32840 102236,102366,102340
 5.7000e+000 102415 -2.8816e+001 -1.1736e+002 -1.0306e+001 32840 102262,102340,102288
 5.7000e+000 102392 -5.8524e+001 -1.2354e+002 -2.7606e+001 32840 102288,102340,102314
 5.7000e+000 102997 -5.7221e+001 -9.7183e+001  2.6817e+001 32493 102749,102879,102853
 5.7000e+000 102974 -4.7462e+001 -7.7941e+001  2.0061e+001 32493 102723,102879,102749
 5.7000e+000 102951 -6.4924e+001 -1.1703e+002  1.8315e+001 32493 102749,102801,102775
 5.7000e+000 102928 -7.0803e+001 -1.1641e+002  1.7601e+001 32493 102749,102853,102801
 5.7000e+000 102905 -6.7722e+001 -1.1183e+002  1.4921e+001 32493 102801,102853,102827
 5.7000e+000 103454 -5.3450e+001 -9.8661e+001 -1.1228e+001 32089 103206,103336,103310
 5.7000e+000 103431 -4.1020e+001 -1.0763e+002 -9.5418e-001 32089 103180,103336,103206
 5.7000e+000 103408 -6.3551e+001 -1.1782e+002 -2.1855e+001 32089 103206,103284,103258
 5.7000e+000 103385 -8.7952e+001 -1.2139e+002 -2.5435e+001 32089 103206,103310,103284
 5.7000e+000 103362 -4.8239e+001 -7.9358e+001 -1.5405e+001 32089 103206,103258,103232
 5.7000e+000 103783 -1.0183e+002 -1.3312e+002 -1.5447e+001 31742 103558,103662,103584
 5.7000e+000 103760 -8.3852e+001 -1.0864e+002 -3.8723e+001 31742 103558,103688,103662
 5.7000e+000 103737 -6.8866e+001 -1.0732e+002 -2.8085e+001 31742 103584,103662,103636
 5.7000e+000 103714 -6.5716e+001 -1.2245e+002 -3.0697e+001 31742 103584,103636,103610
 5.7000e+000 104112 -1.7703e+001 -1.0334e+002  1.6120e+001 31402 103939,103991,103965
 5.7000e+000 104089 -3.1528e+001 -8.9178e+001  7.7855e+000 31402 103913,103991,103939
 5.7000e+000 104066 -4.3708e+001 -1.0261e+002  2.5637e-001 31402 103913,104017,103991
 5.7000e+000 104043 -5.5576e+001 -9.4281e+001 -7.8605e+000 31402 103887,104017,103913
 5.7000e+000 104569 -9.5953e+001 -1.7279e+002  5.7218e+000 30998 104321,104425,104373
 5.7000e+000 104546 -1.0635e+002 -1.7685e+002  5.6733e+000 30998 104321,104451,104425
 5.7000e+000 104523 -7.2172e+001 -1.4137e+002  2.2706e+001 30998 104373,104425,104399
 5.7000e+000 104500 -8.5558e+001 -2.0062e+002 -5.9694e+000 30998 104295,104451,104321
 5.7000e+000 104477 -1.2911e+002 -2.0367e+002  3.8376e+001 30998 104321,104373,104347
 5.7000e+000 104947 -8.9036e+001 -1.5236e+002 -1.8151e+001 30608 104751,104803,104777
 5.7000e+000 104924 -5.8214e+001 -1.5641e+002 -6.6713e+000 30608 104725,104803,104751
 5.7000e+000 104901 -9.2756e+001 -1.5146e+002  1.0230e+001 30608 104699,104803,104725
 5.7000e+000 104878 -7.8624e+001 -1.4534e+002  9.1726e+000 30608 104673,104803,104699
 5.7000e+000 104855 -5.9705e+001 -1.3618e+002 -5.4268e+000 30608 104673,104829,104803
 5.7000e+000 105276 -6.4528e+001 -1.4158e+002  6.0015e+000 30204 105427,105129,105077
 5.7000e+000 105253 -4.4208e+001 -1.5596e+002  3.2223e+001 30204 105427,105077,105051
 5.7000e+000 105230 -5.3880e+001 -1.3716e+002  7.5776e+000 30204 105077,105129,105103
 5.7000e+000 105207 -3.7792e+001 -1.2788e+002  2.2128e+001 30204 105299,105181,105155
 5.7000e+000 105325 -3.8666e+001 -1.2408e+002  6.9985e+000 30204 105129,105181,105299
 5.7000e+000 105453 -7.7184e+001 -1.5065e+002  1.9405e+001 30204 105181,105129,105427
 5.7000e+000 105476 -9.0330e+001 -1.8035e+002  4.9287e+001 30204 105181,105427,105051
 5.7000e+000 105903 -5.1545e+001 -1.2161e+002 -9.0521e+000 29700 105606,105762,105736
 5.7000e+000 105880 -6.6723e+001 -1.2511e+002  2.3518e-001 29700 105580,105762,105606
 5.7000e+000 105857 -7.8970e+001 -1.5276e+002 -8.8906e+000 29700 105606,105710,105632
 5.7000e+000 105834 -6.5812e+001 -1.2893e+002 -3.7682e+000 29700 105606,105736,105710
 5.7000e+000 105811 -7.4405e+001 -1.4182e+002 -1.0526e+001 29700 105632,105710,105684
 5.7000e+000 105788 -7.1955e+001 -1.3575e+002 -4.8149e+000 29700 105632,105684,105658
 5.7000e+000 106102 -2.0808e+001 -1.4655e+002  6.0912e+000 29124 105978,106030,106004
 5.7000e+000 106079 -3.7171e+001 -1.4234e+002  7.1568e+000 29124 105926,106030,105978
 5.7000e+000 106056 -4.2798e+001 -1.6482e+002  1.9940e+001 29124 105926,105978,105952
 5.7000e+000 106301 -4.1918e+001 -1.4892e+002  8.5684e-001 28712 106151,106229,106203
 5.7000e+000 106278 -5.0050e+001 -1.6501e+002 -7.3311e+000 28712 106125,106229,106151
 5.7000e+000 106255 -4.3114e+001 -1.5587e+002  7.7618e+000 28712 106151,106203,106177
 5.7000e+000 106551 -5.1938e+001 -1.8516e+002  9.6405e+000 28258 106352,106404,106378
 5.7000e+000 106528 -7.1638e+001 -1.8724e+002  2.6210e+000 28258 106352,106456,106404
 5.7000e+000 106505 -7.2030e+001 -1.9093e+002  1.1514e+000 28258 106326,106456,106352
 5.7000e+000 106482 -6.3628e+001 -1.7402e+002 -1.9036e+000 28258 106404,106456,106430
 5.7000e+000 107012 -6.3492e+001 -1.5858e+002  3.1236e+001 27818 107035,106790,106764
 5.7000e+000 106989 -5.5513e+001 -1.5038e+002  1.2028e+001 27818 107035,106764,106868
 5.7000e+000 106966 -3.9589e+001 -1.8220e+002  1.7602e+001 27818 107107,106842,106816
 5.7000e+000 106943 -8.1871e+001 -1.3894e+002  6.2803e+000 27818 106738,106868,106764
 5.7000e+000 106920 -7.9167e+001 -1.2586e+002  1.7583e+001 27818 106738,106894,106868
 5.7000e+000 107061 -2.9233e+001 -1.5182e+002  3.5681e+001 27818 106816,106790,107035
 5.7000e+000 107084 -4.9668e+001 -1.6984e+002  1.8563e+001 27818 107107,106816,107035
 5.7000e+000 107133 -3.7387e+001 -1.6420e+002  8.8741e+000 27818 106868,106842,107107
 5.7000e+000 107156 -4.4018e+001 -1.4577e+002  1.2078e+001 27818 106868,107107,107035
 5.7000e+000 107613 -2.1852e+001 -1.2056e+002  2.5972e+001 27312 107339,107469,107365
 5.7000e+000 107590 -4.6117e+000 -1.1056e+002  2.1810e+001 27312 107339,107495,107469
 5.7000e+000 107567 -2.2264e+001 -1.1621e+002  1.2335e+001 27312 107391,107469,107443
 5.7000e+000 107544 -1.9742e+001 -1.2456e+002  1.0969e+001 27312 107365,107469,107391
 5.7000e+000 107521 -5.8727e+001 -1.2859e+002  6.1643e+000 27312 107391,107443,107417
 5.7000e+000 107991 -6.0576e+001 -1.7875e+002  7.8284e+000 26858 108086,108014,107795
 5.7000e+000 107968 -6.6870e+001 -1.8265e+002 -7.5457e+000 26858 108014,107717,107873
 5.7000e+000 107945 -6.8801e+001 -1.8846e+002  1.2695e+001 26858 108158,108086,107795
 5.7000e+000 107922 -5.4863e+001 -1.9094e+002  1.3001e+001 26858 108158,107795,107769
 5.7000e+000 107899 -5.2320e+001 -2.2333e+002  3.1266e+001 26858 107821,107873,107847
 5.7000e+000 108040 -6.4432e+001 -2.0244e+002  1.0769e+001 26858 107821,107795,108014
 5.7000e+000 108063 -4.0681e+001 -1.9085e+002  1.7148e+000 26858 107821,108014,107873
 5.7000e+000 108112 -8.1414e+001 -1.8728e+002  8.8530e+000 26858 107717,108014,108086
 5.7000e+000 108135 -6.8299e+001 -1.8867e+002  1.8935e+001 26858 107717,108086,107743
 5.7000e+000 108184 -5.3154e+001 -1.8224e+002  1.7942e+001 26858 107743,108086,108158
 5.7000e+000 108207 -4.6199e+001 -1.8973e+002  1.8321e+001 26858 107743,108158,107769
 5.7000e+000 108634 -8.1531e+001 -1.6835e+002  3.3549e+000 26404 108657,108415,108363
 5.7000e+000 108611 -9.2460e+001 -1.8302e+002  1.9977e+001 26404 108657,108363,108337
 5.7000e+000 108588 -8.0020e+001 -1.7364e+002  2.0134e+001 26404 108729,108311,108467
 5.7000e+000 108565 -8.7532e+001 -2.0237e+002  3.7254e+000 26404 108801,108441,108415
 5.7000e+000 108542 -1.1943e+002 -1.9131e+002  2.3769e+001 26404 108311,108493,108467
 5.7000e+000 108519 -5.7066e+001 -1.6917e+002  3.2167e+000 26404 108363,108415,108389
 5.7000e+000 108683 -1.0891e+002 -1.8070e+002  6.5177e+000 26404 108801,108415,108657
 5.7000e+000 108706 -1.0354e+002 -1.7984e+002  1.6179e+001 26404 108729,108467,108657
 5.7000e+000 108755 -6.4881e+001 -1.8313e+002  2.0050e+001 26404 108337,108311,108729
 5.7000e+000 108778 -7.6887e+001 -1.8100e+002  1.5623e+001 26404 108337,108729,108657
 5.7000e+000 108827 -1.0829e+002 -2.4567e+002 -8.8315e+000 26404 108467,108441,108801
 5.7000e+000 108850 -1.1941e+002 -2.0831e+002 -5.9427e+000 26404 108467,108801,108657
 5.7000e+000 109228 -8.2627e+001 -1.7703e+002 -7.0795e+000 26064 109006,109084,109058
 5.7000e+000 109205 -7.3641e+001 -1.6586e+002  3.9119e+000 26064 108980,109084,109006
 5.7000e+000 109182 -7.9291e+001 -1.5825e+002 -5.2746e+000 26064 108980,109110,109084
 5.7000e+000 109159 -7.9400e+001 -1.8517e+002 -6.5193e-001 26064 109006,109058,109032
 5.7000e+000 109136 -2.7438e+001 -1.3978e+002  6.1293e+000 26064 108954,109110,108980
 5.7000e+000 109427 -2.0591e+001 -1.5158e+002 -3.1414e+001 25660 109303,109355,109329
 5.7000e+000 109404 -4.1576e+001 -1.9372e+002 -7.6684e+000 25660 109277,109355,109303
 5.7000e+000 109381 -2.8734e+001 -1.8237e+002 -2.7660e+000 25660 109251,109355,109277
 5.7000e+000 109577 -2.7599e+001 -6.9674e+001  2.4405e+001 25306 109476,109528,109502
 5.7000e+000 109554  1.1543e+001 -5.8438e+001  1.8771e+001 25306 109450,109528,109476
 5.7000e+000 109778 -5.8461e+001 -1.6000e+002  4.2557e+000 24944 109628,109706,109654
 5.7000e+000 109755 -6.3117e+001 -1.5877e+002  7.5499e-001 24944 109602,109706,109628
 5.7000e+000 109732 -5.1610e+001 -1.5102e+002 -2.2127e+000 24944 109654,109706,109680
 5.7000e+000 110126 -5.0327e+001 -2.0424e+002  6.1416e+000 24440 110149,109907,109855
 5.7000e+000 110103 -4.5789e+001 -2.1643e+002  1.3271e+001 24440 110149,109855,109985
 5.7000e+000 110080 -3.9306e+001 -1.7681e+002  3.7234e+000 24440 109855,109907,109881
 5.7000e+000 110057 -4.0085e+001 -1.6765e+002  5.8438e+001 24440 109829,109985,109855
 5.7000e+000 110034 -4.5905e+001 -2.0422e+002  1.4096e+000 24440 109907,109959,109933
 5.7000e+000 110011 -1.3753e+001 -1.6966e+002  4.0571e+000 24440 109803,109985,109829
 5.7000e+000 110175 -4.7298e+001 -1.9433e+002  5.2815e+000 24440 109959,109907,110149
 5.7000e+000 110198 -4.2034e+001 -2.0424e+002  1.3623e+001 24440 109959,110149,109985
 5.7000e+000 110301 -3.3651e+000 -1.0060e+002  3.2128e+000 24028 110223,110275,110249
 5.7000e+000 110573 -2.6012e+001 -1.2176e+002  9.8893e+000 23467 110400,110452,110426
 5.7000e+000 110550 -4.3533e+001 -1.4517e+002  9.5991e-001 23467 110374,110452,110400
 5.7000e+000 110527 -4.6775e+001 -1.4651e+002  3.0262e+000 23467 110348,110452,110374
 5.7000e+000 110504 -3.3809e+001 -1.4117e+002 -5.4681e-001 23467 110348,110478,110452
 5.7000e+000 111004 -9.4927e+001 -2.1267e+002 -2.5802e+001 22963 111027,110733,110707
 5.7000e+000 110981 -9.5927e+001 -2.0122e+002  1.1109e+001 22963 111027,110707,110681
 5.7000e+000 110958 -4.5008e+001 -1.7361e+002 -2.1872e+001 22963 111099,110759,110733
 5.7000e+000 110935 -6.2618e+001 -1.7284e+002 -1.4257e+001 22963 111171,110863,110811
 5.7000e+000 110912 -2.6996e+001 -1.2605e+002 -2.5632e+001 22963 110759,110811,110785
 5.7000e+000 110889 -7.1788e+001 -1.8828e+002 -9.9045e+000 22963 110811,110863,110837
 5.7000e+000 111053 -6.9596e+001 -1.9028e+002 -1.3058e+001 22963 111099,110733,111027
 5.7000e+000 111076 -5.8801e+001 -1.8631e+002 -1.1882e+001 22963 111171,110811,111027
 5.7000e+000 111125 -4.3991e+001 -1.7013e+002 -3.5274e+001 22963 110811,110759,111099
 5.7000e+000 111148 -4.7997e+001 -1.6817e+002 -2.9972e+001 22963 110811,111099,111027
 5.7000e+000 111197 -6.2538e+001 -1.5195e+002 -1.7093e+001 22963 110681,110863,111171
 5.7000e+000 111220 -6.3246e+001 -1.6736e+002 -8.8873e+000 22963 110681,111171,111027
 5.7000e+000 111726 -9.5157e+001 -1.8317e+002  2.8029e+000 22459 111749,111507,111429
 5.7000e+000 111703 -8.4863e+001 -1.7962e+002 -4.7555e+000 22459 111749,111429,111585
 5.7000e+000 111680 -7.0806e+001 -1.9706e+002 -2.4663e+000 22459 111403,111585,111429
 5.7000e+000 111657 -9.0989e+001 -2.0199e+002  8.4035e+000 22459 111507,111559,111533
 5.7000e+000 111634 -1.2069e+002 -1.7351e+002  1.0512e+001 22459 111455,111507,111481
 5.7000e+000 111611 -1.3707e+002 -1.7693e+002  1.7085e+001 22459 111429,111507,111455
 5.7000e+000 111775 -9.4140e+001 -1.9501e+002  1.1782e+001 22459 111559,111507,111749
 5.7000e+000 111798 -8.4371e+001 -1.8590e+002  4.2459e+000 22459 111559,111749,111585
 5.7000e+000 112046 -4.2485e+001 -1.5590e+002 -1.9635e+001 21898 112069,111925,111873
 5.7000e+000 112023 -4.0493e+001 -1.5637e+002 -4.1374e+000 21898 112069,111873,111847
 5.7000e+000 112000 -5.4289e+001 -1.6037e+002 -8.2319e+000 21898 111821,111951,111847
 5.7000e+000 111977 -4.7783e+001 -1.2092e+002 -1.1805e+001 21898 111873,111925,111899
 5.7000e+000 112095 -6.4383e+001 -1.6374e+002 -2.3293e+001 21898 111951,111925,112069
 5.7000e+000 112118 -5.3322e+001 -1.6080e+002 -8.3841e+000 21898 111951,112069,111847
 5.7000e+000 112498 -7.1316e+001 -1.6980e+002 -1.3716e+001 21608 112521,112276,112224
 5.7000e+000 112475 -4.6859e+001 -1.7175e+002  1.5768e-002 21608 112521,112224,112380
 5.7000e+000 112452 -5.0125e+001 -1.9826e+002  1.2188e+001 21608 112302,112380,112354
 5.7000e+000 112429 -8.4945e+001 -1.9179e+002 -7.8365e+000 21608 112224,112276,112250
 5.7000e+000 112406  3.0338e+001 -2.1624e+002 -1.1038e+001 21608 112302,112354,112328
 5.7000e+000 112547 -5.1360e+001 -1.4893e+002 -2.1140e+000 21608 112302,112276,112521
 5.7000e+000 112570 -3.4603e+001 -1.6623e+002  7.3580e+000 21608 112302,112521,112380
 5.7000e+000 112948 -8.4418e+001 -1.7590e+002 -2.1967e+000 20882 112971,112752,112700
 5.7000e+000 112925 -6.4388e+001 -1.6948e+002 -7.1018e+000 20882 112971,112700,112830
 5.7000e+000 112902 -1.0738e+002 -1.9136e+002  1.1861e+001 20882 112778,112830,112804
 5.7000e+000 112879 -5.9640e+001 -1.3673e+002 -9.9417e+000 20882 112674,112830,112700
 5.7000e+000 112856 -1.0198e+002 -1.8357e+002  3.9772e+000 20882 112700,112752,112726
 5.7000e+000 112997 -8.5313e+001 -1.7655e+002  8.8474e+000 20882 112778,112752,112971
 5.7000e+000 113020 -7.3817e+001 -1.7352e+002  3.5516e+000 20882 112778,112971,112830
 5.7000e+000 113526 -5.6760e+001 -1.7401e+002  1.1714e+000 20428 113255,113385,113333
 5.7000e+000 113503 -6.1166e+001 -1.8863e+002  1.4759e+000 20428 113229,113385,113255
 5.7000e+000 113480 -3.5380e+000 -1.6803e+002  2.8771e+000 20428 113255,113333,113281
 5.7000e+000 113457 -5.3042e+001 -1.8323e+002  3.8307e+000 20428 113203,113385,113229
 5.7000e+000 113434 -2.7246e+001 -1.7606e+002 -4.8691e+000 20428 113281,113333,113307
 5.7000e+000 113411 -7.1164e+001 -1.7089e+002  4.6768e+000 20428 113333,113385,113359
 5.7000e+000 113774 -1.1808e+001 -1.6994e+002  7.3230e+000 19917 113797,113601,113549
 5.7000e+000 113751 -2.9548e+001 -1.7240e+002  9.1743e+000 19917 113869,113797,113549
 5.7000e+000 113728 -2.8397e+001 -1.7429e+002  1.6497e+001 19917 113869,113549,113679
 5.7000e+000 113705 -1.7459e+001 -1.6808e+002  1.5071e+001 19917 113549,113601,113575
 5.7000e+000 113823 -3.0400e+001 -2.0658e+002 -1.9436e-001 19917 113627,113601,113797
 5.7000e+000 113846 -1.3300e+001 -1.6214e+002 -3.2010e+000 19917 113627,113797,113653
 5.7000e+000 113895 -2.5823e+001 -1.5450e+002  3.3381e+000 19917 113653,113797,113869
 5.7000e+000 113918 -3.2065e+001 -1.5935e+002  1.2725e+001 19917 113653,113869,113679
 5.7000e+000 114166 -7.8718e+001 -1.7741e+002 -2.7883e+000 19413 113993,114045,114019
 5.7000e+000 114143 -7.1416e+001 -1.6401e+002  2.0401e+000 19413 113967,114045,113993
 5.7000e+000 114120 -6.1509e+001 -1.6064e+002  9.1987e+000 19413 113967,114071,114045
 5.7000e+000 114097 -4.6414e+001 -1.8121e+002 -2.8385e+000 19413 113941,114071,113967
 5.7000e+000 114438 -7.2903e+001 -1.9249e+002  1.7575e+000 19001 114213,114265,114239
 5.7000e+000 114415 -5.2527e+001 -1.4960e+002 -4.4218e+000 19001 114213,114343,114265
 5.7000e+000 114392 -7.7838e+001 -2.0640e+002 -9.2687e+000 19001 114265,114343,114317
 5.7000e+000 114369  1.1819e+001 -1.6741e+002 -3.2173e+000 19001 114265,114317,114291
 5.7000e+000 114639 -5.5392e+001 -2.2765e+002  1.0542e+001 18554 114489,114541,114515
 5.7000e+000 114616 -4.7487e+001 -1.9802e+002  1.4655e+000 18554 114489,114567,114541
 5.7000e+000 114593 -1.0215e+002 -2.2312e+002 -1.4587e+001 18554 114463,114567,114489
 5.7000e+000 115043 -3.6372e+001 -1.7092e+002  6.4858e+000 18164 114795,114925,114821
 5.7000e+000 115020 -3.0596e+001 -1.7938e+002  1.0995e+001 18164 114769,114925,114795
 5.7000e+000 114997 -1.9908e+001 -1.8035e+002 -1.4745e+000 18164 115066,114873,114821
 5.7000e+000 114974 -1.8005e+001 -1.5415e+002 -5.7607e+000 18164 115066,114821,114925
 5.7000e+000 114951  1.4964e+001 -1.8020e+002 -1.8031e+001 18164 114821,114873,114847
 5.7000e+000 115092 -2.9706e+001 -1.6152e+002 -1.5257e+001 18164 114899,114873,115066
 5.7000e+000 115115 -1.7245e+001 -1.2145e+002 -2.0751e+001 18164 114899,115066,114925
 5.7000e+000 115265 -4.3349e+001 -1.8521e+002  2.6318e+000 17852 115164,115216,115190
 5.7000e+000 115242 -4.9409e+001 -1.9809e+002 -2.4013e-001 17852 115138,115216,115164
 5.7000e+000 115464 -1.2170e+002 -2.7217e+002  3.2650e+000 17346 115288,115366,115340
 5.7000e+000 115441 -1.8437e+002 -2.0920e+002 -9.6704e+000 17346 115288,115392,115366
 5.7000e+000 115418 -1.0773e+002 -3.0356e+002 -9.0730e+000 17346 115288,115340,115314
 5.7000e+000 115736 -4.1917e+001 -1.6896e+002  7.5322e+000 16942 115563,115641,115615
 5.7000e+000 115713 -4.7698e+001 -1.6841e+002  2.5343e+000 16942 115511,115641,115563
 5.7000e+000 115690 -1.1770e+002 -1.9775e+002  1.2398e+001 16942 115563,115615,115589
 5.7000e+000 115667 -5.7178e+001 -1.8399e+002  6.5149e+000 16942 115511,115563,115537
 5.7000e+000 116091 -8.9611e+001 -2.0698e+002 -7.2526e+000 16388 115918,115970,115944
 5.7000e+000 116068 -7.7887e+001 -1.6733e+002 -4.9888e+000 16388 115918,115996,115970
 5.7000e+000 116045 -1.0424e+002 -2.1005e+002  7.0295e+000 16388 115892,115996,115918
 5.7000e+000 116022 -6.6858e+001 -1.9047e+002  2.4518e+001 16388 115866,115996,115892
 5.7000e+000 116192 -2.2280e+001 -2.1329e+002 -3.0245e+001 15810 116114,116166,116140
 5.7000e+000 116342 -7.9840e+001 -2.5810e+002  1.3921e+001 15419 116241,116293,116267
 5.7000e+000 116319 -1.1380e+002 -3.1514e+002 -8.7200e+000 15419 116215,116293,116241
 5.7000e+000 116445 -8.7660e+001 -1.7723e+002  1.1694e+000 421 116367,116419,116393
 5.8000e+000 68477 -1.1199e+002 -1.6120e+002  8.8708e-001 68018 68327,68379,68353
 5.8000e+000 68454 -1.1806e+002 -2.1317e+002  1.5728e+001 68018 68301,68379,68327
 5.8000e+000 68431 -6.1930e+001 -2.3988e+002  3.7149e+001 68018 68301,68405,68379
 5.8000e+000 68578 -7.7492e+001 -1.5513e+002  3.8486e-001 67820 68500,68552,68526
 5.8000e+000 68728 -8.1827e+001 -1.4219e+002 -2.4996e+000 67508 68601,68653,68627
 5.8000e+000 68705 -1.2305e+002 -1.0756e+002 -2.0349e+001 67508 68601,68679,68653
 5.8000e+000 68927 -2.9141e+001 -1.3739e+002 -2.1957e+000 67310 68777,68829,68803
 5.8000e+000 68904 -3.8266e+001 -1.5837e+002  2.4061e+000 67310 68751,68829,68777
 5.8000e+000 68881 -2.8685e+001 -1.6029e+002  9.9657e+000 67310 68751,68855,68829
 5.8000e+000 69386 -6.5638e+001 -1.6910e+002 -7.2646e+000 67020 69216,69268,69242
 5.8000e+000 69363 -6.1351e+001 -1.3199e+002 -1.6707e+001 67020 69138,69268,69216
 5.8000e+000 69340 -4.5154e+001 -1.1909e+002 -1.0050e+001 67020 69112,69268,69138
 5.8000e+000 69317 -8.2103e+001 -1.4220e+002  9.1450e+000 67020 69138,69190,69164
 5.8000e+000 69294 -8.4501e+001 -1.2949e+002 -7.2976e+000 67020 69138,69216,69190
 5.8000e+000 69536 -1.1799e+002 -2.9102e+002 -2.3283e+001 66708 69435,69487,69461
 5.8000e+000 69513 -8.7188e+001 -3.2813e+002 -3.2212e+000 66708 69409,69487,69435
 5.8000e+000 69735 -7.8003e+001 -1.5606e+002  3.4336e+000 66346 69585,69637,69611
 5.8000e+000 69712 -6.4568e+001 -1.4657e+002 -1.2484e+000 66346 69559,69637,69585
 5.8000e+000 69689 -5.9108e+001 -1.4637e+002 -1.5202e+001 66346 69559,69663,69637
 5.8000e+000 69985 -1.1527e+002 -1.8794e+002  2.4477e+000 66148 69786,69890,69864
 5.8000e+000 69962 -1.2007e+002 -1.9039e+002  3.3364e+000 66148 69760,69890,69786
 5.8000e+000 69939 -8.7692e+001 -1.7871e+002 -2.4940e+001 66148 69786,69864,69838
 5.8000e+000 69916 -1.0224e+002 -1.9132e+002 -7.2064e+000 66148 69786,69838,69812
 5.8000e+000 70137 -5.4322e+001 -2.1119e+002 -1.1808e+001 65950 70036,70088,70062
 5.8000e+000 70114 -4.6372e+001 -2.3328e+002  1.0320e+001 65950 70010,70088,70036
 5.8000e+000 70470 -4.0776e+001 -1.5660e+002  1.1912e+001 65546 70245,70323,70271
 5.8000e+000 70447 -2.8492e+001 -1.3639e+002  5.5642e+000 65546 70245,70375,70323
 5.8000e+000 70424 -3.7734e+001 -1.7734e+002  6.0758e+000 65546 70323,70375,70349
 5.8000e+000 70401 -3.3620e+001 -1.4534e+002  5.4949e+000 65546 70271,70323,70297
 5.8000e+000 70620 -7.1325e+001 -1.7928e+002  6.0194e+000 65348 70493,70545,70519
 5.8000e+000 70597 -5.5010e+001 -1.8895e+002  6.6773e+000 65348 70493,70571,70545
 5.8000e+000 70721 -1.0575e+002 -2.2695e+002 -1.1736e+001 65150 70643,70695,70669
 5.8000e+000 71020 -6.7243e+001 -1.4341e+002  1.1640e+001 64952 71043,70850,70824
 5.8000e+000 70997 -5.7551e+001 -1.3539e+002 -1.4355e+000 64952 71043,70824,70772
 5.8000e+000 70974 -5.9866e+001 -1.7510e+002  4.1117e+000 64952 71115,70746,70876
 5.8000e+000 70951 -5.0741e+001 -1.7711e+002 -8.1610e-001 64952 70746,70902,70876
 5.8000e+000 70928 -6.4564e+001 -1.2026e+002 -1.1560e+001 64952 70772,70824,70798
 5.8000e+000 71069 -3.5105e+001 -1.2324e+002  2.8684e+001 64952 70876,70850,71043
 5.8000e+000 71092 -5.0767e+001 -1.6272e+002  8.0810e+000 64952 71115,70876,71043
 5.8000e+000 71141 -7.9251e+001 -1.5980e+002 -8.9826e+000 64952 70772,70746,71115
 5.8000e+000 71164 -6.8270e+001 -1.4192e+002 -4.2291e+000 64952 70772,71115,71043
 5.8000e+000 71365 -3.3248e+001 -1.9868e+002 -5.9742e+000 64662 71215,71293,71267
 5.8000e+000 71342 -2.2897e+001 -1.4678e+002  2.5608e+000 64662 71189,71293,71215
 5.8000e+000 71319 -1.1157e+000 -1.2396e+002  1.2709e-001 64662 71215,71267,71241
 5.8000e+000 71615 -5.0297e+001 -1.6165e+002 -1.8254e+000 64350 71710,71638,71468
 5.8000e+000 71592 -5.4536e+001 -1.5821e+002 -5.7872e+000 64350 71638,71416,71390
 5.8000e+000 71569 -5.4221e+001 -1.5022e+002  7.8994e+000 64350 71710,71468,71442
 5.8000e+000 71546  1.7317e+001 -1.5526e+002 -2.2786e+001 64350 71390,71520,71494
 5.8000e+000 71664 -4.5912e+001 -1.6020e+002 -4.9926e-001 64350 71494,71468,71638
 5.8000e+000 71687 -4.6003e+001 -1.6489e+002 -8.0730e-002 64350 71494,71638,71390
 5.8000e+000 71736 -4.3982e+001 -1.3836e+002 -3.4996e-001 64350 71416,71638,71710
 5.8000e+000 71759 -4.5451e+001 -1.2767e+002  1.1941e+001 64350 71416,71710,71442
 5.8000e+000 72318 -5.1985e+001 -2.5529e+002 -1.0660e+001 63837 71972,72024,71998
 5.8000e+000 72295 -7.2103e+001 -1.6509e+002 -8.9076e-001 63837 72341,71972,71946
 5.8000e+000 72272 -6.5802e+001 -1.3282e+002  6.5707e+000 63837 72413,72341,71946
 5.8000e+000 72249 -6.3065e+001 -1.2041e+002  2.7372e+000 63837 72413,71946,72128
 5.8000e+000 72226 -9.0723e+001 -1.4559e+002  1.1350e+000 63837 72024,72076,72050
 5.8000e+000 72203 -8.1497e+001 -1.3366e+002 -5.2849e+000 63837 72024,72102,72076
 5.8000e+000 72180 -4.7173e+001 -1.1511e+002  9.3616e+000 63837 71946,72154,72128
 5.8000e+000 72367 -8.7176e+001 -1.7717e+002 -3.1006e+001 63837 72024,71972,72341
 5.8000e+000 72390 -6.8222e+001 -1.4377e+002 -1.2084e+001 63837 72024,72341,72102
 5.8000e+000 72439 -5.5002e+001 -1.5285e+002  2.4448e+000 63837 72102,72341,72413
 5.8000e+000 72462 -5.2386e+001 -1.3989e+002  8.8879e-002 63837 72102,72413,72128
 5.8000e+000 72791 -8.4146e+001 -1.5692e+002 -1.6412e+001 63383 72592,72696,72670
 5.8000e+000 72768 -8.5743e+001 -1.4752e+002 -2.7711e+001 63383 72566,72696,72592
 5.8000e+000 72745 -8.0429e+001 -1.3692e+002 -1.0320e+000 63383 72592,72670,72618
 5.8000e+000 72722 -7.6816e+001 -1.2575e+002 -2.5847e+000 63383 72618,72670,72644
 5.8000e+000 73297 -9.6545e+001 -1.3705e+002 -1.1458e+000 63185 73000,73156,73130
 5.8000e+000 73274 -9.6565e+001 -1.4170e+002  1.8142e+001 63185 72974,73156,73000
 5.8000e+000 73251 -7.2569e+001 -1.5874e+002 -2.6526e+000 63185 73000,73052,73026
 5.8000e+000 73228 -7.9596e+001 -1.4142e+002 -7.3179e+000 63185 73000,73130,73052
 5.8000e+000 73205 -7.9441e+001 -1.6030e+002 -2.4171e+001 63185 73052,73130,73104
 5.8000e+000 73182 -7.3833e+001 -1.7374e+002 -2.4845e+001 63185 73052,73104,73078
 5.8000e+000 73545 -4.3609e+001 -1.5156e+002  3.6571e+000 62781 73568,73398,73372
 5.8000e+000 73522 -2.3798e+001 -1.3957e+002  1.7416e+001 62781 73568,73372,73346
 5.8000e+000 73499 -5.9275e+001 -1.7140e+002 -1.8335e+001 62781 73640,73320,73424
 5.8000e+000 73476 -5.8879e+001 -1.0879e+002 -3.3065e+001 62781 73320,73450,73424
 5.8000e+000 73594 -4.8765e+001 -1.4374e+002  3.2752e+000 62781 73424,73398,73568
 5.8000e+000 73617 -5.2006e+001 -1.6308e+002 -1.2891e+000 62781 73640,73424,73568
 5.8000e+000 73666 -4.9832e+001 -1.5164e+002 -6.5029e+000 62781 73346,73320,73640
 5.8000e+000 73689 -4.4851e+001 -1.3666e+002  9.0403e+000 62781 73346,73640,73568
 5.8000e+000 74035 -5.9026e+001 -1.5585e+002 -3.0640e+000 62363 74058,73868,73842
 5.8000e+000 74012 -5.3429e+001 -1.4244e+002 -1.2951e+001 62363 74130,74058,73842
 5.8000e+000 73989 -4.8784e+001 -1.4113e+002 -1.3760e+001 62363 74130,73842,73816
 5.8000e+000 73966 -7.7383e+001 -1.6230e+002  1.6660e+000 62363 74202,73764,73894
 5.8000e+000 73943 -1.0071e+002 -1.4971e+002  1.4794e+000 62363 73712,73894,73764
 5.8000e+000 73920 -1.0569e+002 -1.5590e+002 -8.4553e-001 62363 73712,73764,73738
 5.8000e+000 74084 -5.7875e+001 -1.5532e+002 -2.6349e+000 62363 73894,73868,74058
 5.8000e+000 74107 -7.1166e+001 -1.5532e+002  6.5483e+000 62363 74202,73894,74058
 5.8000e+000 74156 -5.9153e+001 -1.4485e+002  3.5281e+000 62363 73790,74058,74130
 5.8000e+000 74179 -3.6946e+001 -1.3631e+002  4.3318e+000 62363 73790,74130,73816
 5.8000e+000 74228 -8.4110e+001 -1.6528e+002 -8.4883e+000 62363 73790,73764,74202
 5.8000e+000 74251 -7.9442e+001 -1.5783e+002 -3.6733e+000 62363 73790,74202,74058
 5.8000e+000 74403 -9.3127e+000 -1.6662e+002  1.0691e+001 62115 74426,74302,74276
 5.8000e+000 74380  1.9525e+001 -1.6051e+002  2.2490e+001 62115 74426,74276,74354
 5.8000e+000 74452 -3.6149e+001 -1.5201e+002  1.0515e+001 62115 74328,74302,74426
 5.8000e+000 74475 -9.4408e+000 -1.4697e+002  2.3080e+001 62115 74328,74426,74354
 5.8000e+000 74578 -2.7308e+000 -9.4897e+001 -1.0875e+000 61825 74500,74552,74526
 5.8000e+000 74982 -8.0965e+001 -1.4154e+002  4.0672e-001 61513 75005,74734,74708
 5.8000e+000 74959 -8.0090e+001 -1.3640e+002 -1.1548e+000 61513 75005,74708,74864
 5.8000e+000 74936 -1.0281e+002 -1.4695e+002  8.4794e+000 61513 75077,74812,74734
 5.8000e+000 74913 -8.3501e+001 -1.3728e+002 -1.1711e+001 61513 74734,74786,74760
 5.8000e+000 74890 -8.4636e+001 -1.3028e+002 -1.9448e+000 61513 74734,74812,74786
 5.8000e+000 75031 -7.7059e+001 -1.4604e+002  7.6261e-001 61513 75077,74734,75005
 5.8000e+000 75054 -6.0978e+001 -1.4017e+002  2.1323e+001 61513 74838,75005,74864
 5.8000e+000 75103 -1.1693e+002 -1.5219e+002  3.2086e+001 61513 74838,74812,75077
 5.8000e+000 75126 -1.0031e+002 -1.5762e+002  2.4380e+001 61513 74838,75077,75005
 5.8000e+000 75553 -4.2925e+001 -1.3063e+002 -5.0942e+000 61060 75576,75360,75308
 5.8000e+000 75530 -4.2602e+001 -1.3939e+002 -5.1290e+000 61060 75576,75308,75230
 5.8000e+000 75507 -3.8423e+001 -1.2649e+002 -2.0902e+000 61060 75308,75360,75334
 5.8000e+000 75484 -5.6155e+001 -1.6379e+002  8.0788e+000 61060 75230,75308,75256
 5.8000e+000 75461 -4.3554e+001 -1.5209e+002  2.5062e+000 61060 75256,75308,75282
 5.8000e+000 75438 -5.0732e+001 -1.2879e+002  1.5150e+001 61060 75360,75412,75386
 5.8000e+000 75602 -3.6264e+001 -1.3798e+002  1.0136e-001 61060 75412,75360,75576
 5.8000e+000 75625 -4.0438e+001 -1.5347e+002 -1.6346e+000 61060 75412,75576,75230
 5.8000e+000 76052 -6.2875e+001 -1.3635e+002  1.6673e+000 60442 75755,75859,75833
 5.8000e+000 76029 -7.1072e+001 -1.2878e+002 -9.8402e+000 60442 75729,75859,75755
 5.8000e+000 76006 -6.4884e+001 -1.2619e+002  7.6290e+000 60442 75755,75833,75807
 5.8000e+000 75983 -6.5364e+001 -1.4848e+002  3.2968e+000 60442 75755,75807,75781
 5.8000e+000 75960 -5.9112e+000 -2.3881e+002  8.4373e+000 60442 75729,75911,75859
 5.8000e+000 75937 -1.2346e+002 -5.8089e+002  3.6960e+001 60442 75859,75911,75885
 5.8000e+000 76430 -6.6888e+001 -1.7262e+002 -3.9767e+000 59788 76453,76286,76234
 5.8000e+000 76407 -7.2827e+001 -1.9624e+002  4.2246e+000 59788 76453,76234,76182
 5.8000e+000 76384 -7.2589e+001 -1.3194e+002  2.3116e+001 59788 76525,76156,76312
 5.8000e+000 76361 -4.3084e+001 -2.2618e+002 -8.4485e-001 59788 76182,76234,76208
 5.8000e+000 76338 -5.6369e+001 -1.6344e+002  3.1469e-001 59788 76234,76286,76260
 5.8000e+000 76479 -7.8816e+001 -1.8541e+002  3.5309e+000 59788 76312,76286,76453
 5.8000e+000 76502 -6.7354e+001 -1.7555e+002  1.0484e+001 59788 76525,76312,76453
 5.8000e+000 76551 -9.0167e+001 -1.8683e+002  2.3843e+001 59788 76182,76156,76525
 5.8000e+000 76574 -8.0098e+001 -2.0008e+002  1.5048e+001 59788 76182,76525,76453
 5.8000e+000 77031 -4.6664e+001 -1.0682e+002 -1.4510e+001 59448 76835,76887,76861
 5.8000e+000 77008 -1.9759e+001 -8.6908e+001  4.4244e+000 59448 76835,76913,76887
 5.8000e+000 76985 -2.6060e+001 -7.3386e+001  1.4595e+001 59448 76809,76913,76835
 5.8000e+000 76962 -5.1744e+001 -9.6908e+001 -6.7945e-001 59448 76757,76913,76809
 5.8000e+000 76939 -4.3415e+001 -8.6512e+001 -4.2834e+000 59448 76757,76809,76783
 5.8000e+000 77537 -6.5050e+001 -1.4230e+002  6.7241e+000 58994 77560,77344,77292
 5.8000e+000 77514 -9.0893e+001 -1.3939e+002  2.0826e+000 58994 77560,77292,77240
 5.8000e+000 77491 -5.2625e+001 -1.3019e+002 -3.7320e+000 58994 77632,77214,77370
 5.8000e+000 77468 -1.0692e+002 -1.6212e+002  2.7276e+001 58994 77292,77344,77318
 5.8000e+000 77445 -5.3383e+001 -1.6751e+002  5.6595e+000 58994 77214,77396,77370
 5.8000e+000 77422 -9.3918e+001 -1.5123e+002 -3.4034e+000 58994 77240,77292,77266
 5.8000e+000 77586 -6.9000e+001 -1.4324e+002  7.6052e+000 58994 77370,77344,77560
 5.8000e+000 77609 -6.8054e+001 -1.3947e+002  9.3053e+000 58994 77632,77370,77560
 5.8000e+000 77658 -4.4191e+001 -1.2037e+002 -1.8034e+001 58994 77240,77214,77632
 5.8000e+000 77681 -5.5654e+001 -1.1898e+002 -6.2613e+000 58994 77240,77632,77560
 5.8000e+000 78138 -5.8512e+001 -1.0154e+002  1.3179e+001 58440 77864,77994,77890
 5.8000e+000 78115 -4.1233e+001 -6.5736e+001 -7.2772e+000 58440 77864,78020,77994
 5.8000e+000 78092 -6.6331e+001 -1.1934e+002 -1.1065e+001 58440 77942,77994,77968
 5.8000e+000 78069 -5.2660e+001 -1.1228e+002  2.0217e+000 58440 77890,77994,77942
 5.8000e+000 78046 -4.6772e+001 -1.1227e+002 -2.1204e+000 58440 77890,77942,77916
 5.8000e+000 78467 -1.2702e+001 -1.3031e+002  3.1213e+000 57928 78562,78490,78346
 5.8000e+000 78444 -4.9345e+001 -1.3095e+002 -2.6118e+000 57928 78490,78294,78268
 5.8000e+000 78421 -4.7691e+000 -1.3698e+002  9.6718e+000 57928 78562,78346,78320
 5.8000e+000 78398 -2.1542e+001 -1.2719e+002  8.4074e-001 57928 78242,78372,78268
 5.8000e+000 78516 -4.3995e+001 -1.6069e+002 -9.6790e+000 57928 78372,78346,78490
 5.8000e+000 78539 -3.5963e+001 -1.2544e+002 -2.1101e+000 57928 78372,78490,78268
 5.8000e+000 78588 -4.9609e+001 -1.2989e+002 -3.6573e-001 57928 78294,78490,78562
 5.8000e+000 78611 -2.6087e+001 -1.1877e+002  1.2253e+001 57928 78294,78562,78320
 5.8000e+000 79068 -9.9112e+001 -2.1053e+002 -5.1989e+001 57467 78794,78924,78820
 5.8000e+000 79045 -7.7354e+001 -2.0028e+002 -4.8148e+001 57467 78794,78950,78924
 5.8000e+000 79022 -4.0011e+001 -1.8887e+002  2.0298e+001 57467 78820,78898,78872
 5.8000e+000 78999 -7.2513e+001 -2.6140e+002 -2.6393e+001 57467 78820,78924,78898
 5.8000e+000 78976 -3.1470e+001 -1.9257e+002  3.0596e+001 57467 78820,78872,78846
 5.8000e+000 79446 -8.2636e+001 -1.5432e+002 -1.0164e+000 57120 79172,79302,79250
 5.8000e+000 79423 -7.4866e+001 -1.5073e+002 -6.7145e+000 57120 79172,79328,79302
 5.8000e+000 79400 -7.5590e+001 -1.3480e+002 -6.1981e+000 57120 79172,79250,79198
 5.8000e+000 79377 -5.9286e+001 -1.9358e+002  5.9386e+000 57120 79250,79302,79276
 5.8000e+000 79354 -9.1103e+001 -1.4658e+002 -1.2097e+001 57120 79198,79250,79224
 5.8000e+000 79952 -1.1153e+002 -1.7701e+002  8.6513e-001 56773 79629,79785,79655
 5.8000e+000 79929 -3.2430e+001 -1.5261e+002  7.9715e+000 56773 79629,79811,79785
 5.8000e+000 79906 -8.6773e+001 -1.9076e+002  1.3087e+001 56773 79655,79733,79681
 5.8000e+000 79883 -8.4730e+001 -1.6976e+002  3.6882e+000 56773 79655,79785,79733
 5.8000e+000 79860 -8.0664e+001 -2.2509e+002 -2.5818e+001 56773 79733,79785,79759
 5.8000e+000 79837 -4.7278e+001 -1.7246e+002  3.4194e+001 56773 79681,79733,79707
 5.8000e+000 80281 -4.1665e+001 -1.2668e+002 -1.0906e+001 56319 80108,80160,80134
 5.8000e+000 80258 -4.3656e+001 -1.3796e+002 -1.3031e+001 56319 80056,80160,80108
 5.8000e+000 80235 -2.1121e+001 -1.2290e+002  6.5965e+000 56319 80056,80186,80160
 5.8000e+000 80212 -5.7304e+001 -1.7696e+002 -9.3227e+000 56319 80056,80108,80082
 5.8000e+000 80738 -2.2981e+001 -1.5699e+002  8.3145e+000 55957 80516,80620,80594
 5.8000e+000 80715 -5.7347e+001 -1.4266e+002  6.3650e+000 55957 80464,80620,80516
 5.8000e+000 80692 -4.8231e+001 -1.7222e+002  8.9622e+000 55957 80761,80568,80542
 5.8000e+000 80669 -4.0404e+001 -1.6908e+002  1.0660e+001 55957 80761,80542,80516
 5.8000e+000 80646 -5.6192e+001 -1.3955e+002  1.8498e+001 55957 80464,80516,80490
 5.8000e+000 80787 -5.6250e+001 -1.7077e+002  6.2184e+000 55957 80594,80568,80761
 5.8000e+000 80810 -4.8877e+001 -1.6782e+002  7.9883e+000 55957 80594,80761,80516
 5.8000e+000 81210 -5.1784e+001 -1.6524e+002 -1.3752e+001 55317 80936,80988,80962
 5.8000e+000 81187 -4.4163e+001 -1.7516e+002  5.2146e-001 55317 80936,81066,80988
 5.8000e+000 81164 -3.7569e+001 -1.8805e+002  4.4709e+000 55317 80936,81092,81066
 5.8000e+000 81141 -6.3000e+001 -1.8782e+002 -1.5739e+001 55317 80988,81066,81014
 5.8000e+000 81118 -1.4651e+001 -1.0888e+002  1.1741e+001 55317 81014,81066,81040
 5.8000e+000 81539 -7.1506e+001 -1.5687e+002  2.7203e+000 54913 81340,81418,81392
 5.8000e+000 81516 -2.9993e+001 -1.2886e+002 -1.0429e+001 54913 81340,81444,81418
 5.8000e+000 81493 -4.5337e+001 -1.3837e+002 -2.0046e+001 54913 81314,81444,81340
 5.8000e+000 81470 -8.2495e+001 -1.6759e+002 -1.7217e+000 54913 81340,81392,81366
 5.8000e+000 81787 -4.2544e+001 -1.6647e+002 -1.6986e+000 54601 81588,81692,81640
 5.8000e+000 81764 -6.2424e+001 -1.6865e+002 -6.0044e+000 54601 81562,81692,81588
 5.8000e+000 81741 -3.5961e+001 -1.6968e+002  2.0683e+001 54601 81588,81640,81614
 5.8000e+000 81718 -4.3405e+001 -1.9707e+002 -1.7932e+001 54601 81640,81692,81666
 5.8000e+000 82344 -6.0486e+001 -1.6348e+002 -8.1960e+000 54090 81998,82102,82076
 5.8000e+000 82321 -8.1311e+001 -1.7258e+002 -4.9775e+000 54090 81998,82154,82102
 5.8000e+000 82298 -7.4451e+001 -1.6939e+002 -3.2499e+000 54090 81972,82154,81998
 5.8000e+000 82275 -8.4294e+001 -1.5189e+002 -9.8554e+000 54090 81998,82076,82024
 5.8000e+000 82252 -9.1185e+001 -1.8066e+002  7.9279e+000 54090 81972,82180,82154
 5.8000e+000 82229 -1.1565e+002 -2.1332e+002  1.3520e+001 54090 82102,82154,82128
 5.8000e+000 82206 -1.5595e+001 -1.1589e+002 -2.3389e+001 54090 82024,82076,82050
 5.8000e+000 82722 -1.0738e+002 -1.9373e+002 -6.0752e+000 53579 82500,82578,82552
 5.8000e+000 82699 -8.1781e+001 -1.7712e+002  4.2833e+000 53579 82448,82578,82500
 5.8000e+000 82676 -9.0801e+001 -2.0085e+002  6.2230e+000 53579 82448,82500,82474
 5.8000e+000 82653 -1.0448e+002 -1.8904e+002  1.3621e+001 53579 82448,82604,82578
 5.8000e+000 82630 -5.8235e+001 -1.8130e+002 -7.4888e+000 53579 82500,82552,82526
 5.8000e+000 83356 -5.5649e+001 -1.4314e+002 -1.2571e+001 53189 83379,83088,83036
 5.8000e+000 83333 -5.3878e+001 -1.6119e+002 -1.1190e+001 53189 83379,83036,82984
 5.8000e+000 83310 -2.4298e+001 -1.5027e+002  2.3944e+001 53189 82984,83192,83166
 5.8000e+000 83287 -1.2495e+000 -1.1859e+002 -7.3231e+000 53189 83036,83088,83062
 5.8000e+000 83264 -4.0185e+001 -1.7874e+002 -2.4747e+001 53189 82984,83036,83010
 5.8000e+000 83241 -4.0266e+001 -1.8009e+002  5.2136e+000 53189 83114,83166,83140
 5.8000e+000 83218 -7.5901e+001 -1.8872e+002  3.9099e+000 53189 83088,83166,83114
 5.8000e+000 83405 -5.5822e+001 -1.5529e+002 -5.1168e+000 53189 83166,83088,83379
 5.8000e+000 83428 -5.1354e+001 -1.7123e+002 -4.8792e+000 53189 83166,83379,82984
 5.8000e+000 83725 -6.7829e+001 -1.9410e+002 -1.9399e+001 52585 83748,83529,83503
 5.8000e+000 83702 -4.9901e+001 -1.8823e+002 -1.3121e+001 52585 83820,83748,83503
 5.8000e+000 83679 -3.2796e+001 -1.8165e+002 -1.0256e+001 52585 83820,83503,83477
 5.8000e+000 83656 -2.3859e+001 -1.6355e+002  1.9135e+001 52585 83477,83607,83581
 5.8000e+000 83633  1.0913e+001 -1.4808e+002  2.2105e+001 52585 83451,83607,83477
 5.8000e+000 83774 -5.9130e+001 -1.7207e+002 -1.6621e+001 52585 83555,83529,83748
 5.8000e+000 83797 -7.8625e+001 -1.8478e+002 -1.1095e+001 52585 83555,83748,83581
 5.8000e+000 83846 -6.6107e+001 -1.7485e+002 -4.1063e+000 52585 83581,83748,83820
 5.8000e+000 83869 -5.4379e+001 -1.7191e+002 -3.2069e+000 52585 83581,83820,83477
 5.8000e+000 84200 -5.0038e+001 -1.7349e+002 -6.5206e+000 52024 84001,84105,84079
 5.8000e+000 84177 -2.6797e+001 -1.6970e+002 -1.3075e+001 52024 83975,84105,84001
 5.8000e+000 84154 -4.3625e+001 -1.7444e+002 -4.8440e+000 52024 84001,84079,84053
 5.8000e+000 84131 -2.1611e+001 -1.1725e+002  2.0073e+001 52024 84001,84053,84027
 5.8000e+000 84399 -4.6017e+001 -1.7309e+002 -1.9086e+000 51470 84422,84275,84249
 5.8000e+000 84376 -4.3950e+001 -1.6878e+002 -7.6008e-001 51470 84422,84249,84223
 5.8000e+000 84353 -5.1007e+001 -1.8513e+002 -2.6141e+001 51470 84275,84327,84301
 5.8000e+000 84448 -4.8216e+001 -1.6899e+002 -2.1229e+000 51470 84327,84275,84422
 5.8000e+000 84471 -4.6746e+001 -1.6552e+002 -1.0620e+000 51470 84327,84422,84223
 5.8000e+000 84753 -4.9858e+001 -1.4319e+002 -6.9417e-001 51073 84603,84655,84629
 5.8000e+000 84730 -1.0109e+002 -1.6719e+002 -7.5942e+000 51073 84776,84655,84603
 5.8000e+000 84707 -2.4217e+001 -1.4407e+002 -4.0012e+001 51073 84577,84681,84655
 5.8000e+000 84802 -6.5666e+001 -1.4696e+002 -1.9145e+001 51073 84577,84655,84776
 5.8000e+000 85178 -9.4694e+001 -2.1037e+002  1.9139e+001 50519 85201,85008,84982
 5.8000e+000 85155 -8.9501e+001 -1.9571e+002  1.5046e+001 50519 85273,85201,84982
 5.8000e+000 85132 -8.5024e+001 -1.9528e+002  1.2242e+001 50519 85273,84982,84930
 5.8000e+000 85109 -8.1491e+001 -1.8825e+002  1.0191e+001 50519 84930,84982,84956
 5.8000e+000 85086 -8.1858e+001 -2.0243e+002  1.0037e+001 50519 85008,85060,85034
 5.8000e+000 85227 -8.0547e+001 -2.0116e+002  9.1959e+000 50519 85060,85008,85201
 5.8000e+000 85250 -8.9285e+001 -2.0241e+002  6.7571e+000 50519 85060,85201,84904
 5.8000e+000 85299 -8.5410e+001 -1.9896e+002  5.2025e+000 50519 84904,85201,85273
 5.8000e+000 85322 -6.8017e+001 -1.7488e+002 -2.4603e+000 50519 84904,85273,84930
 5.8000e+000 85958 -6.0209e+001 -1.7706e+002 -5.4439e+000 50093 85981,85768,85716
 5.8000e+000 85935 -5.3791e+001 -1.6152e+002 -5.4099e+000 50093 85981,85716,85612
 5.8000e+000 85912 -7.4037e+001 -1.6651e+002  3.6596e+000 50093 85612,85716,85664
 5.8000e+000 85889 -4.7166e+001 -1.7256e+002 -1.6426e+000 50093 85716,85768,85742
 5.8000e+000 85866 -6.1358e+001 -1.2952e+002 -3.3949e+001 50093 85664,85716,85690
 5.8000e+000 85843 -2.1740e+001 -1.2263e+002 -5.3721e+000 50093 85586,85794,85612
 5.8000e+000 85820 -4.9987e+001 -2.2636e+002  2.0298e+001 50093 85612,85664,85638
 5.8000e+000 86007 -7.3541e+001 -1.9068e+002 -2.7756e+001 50093 85794,85768,85981
 5.8000e+000 86030 -5.3475e+001 -1.4521e+002 -2.2099e+001 50093 85794,85981,85612
 5.8000e+000 86131 -5.7140e+001 -1.6802e+002  2.3152e+001 49895 86053,86105,86079
 5.8000e+000 86639 -4.5853e+001 -1.2376e+002 -2.4240e+001 49391 86662,86394,86368
 5.8000e+000 86616 -5.4331e+001 -1.5117e+002 -2.2199e+001 49391 86662,86368,86342
 5.8000e+000 86593 -2.7865e+001 -1.5034e+002 -6.2570e+000 49391 86342,86498,86472
 5.8000e+000 86570 -1.8357e+001 -1.6175e+002 -6.9733e+000 49391 86316,86498,86342
 5.8000e+000 86547 -8.4591e+001 -2.3062e+002 -8.5044e+000 49391 86394,86472,86446
 5.8000e+000 86524 -9.8775e+000 -2.1993e+002  2.6887e+000 49391 86394,86446,86420
 5.8000e+000 86688 -4.9955e+001 -1.4929e+002 -1.2380e+001 49391 86472,86394,86662
 5.8000e+000 86711 -4.5859e+001 -1.6116e+002 -1.2294e+001 49391 86472,86662,86342
 5.8000e+000 87089 -6.4929e+001 -1.7547e+002  4.7539e+000 48987 86815,86919,86867
 5.8000e+000 87066 -6.4122e+001 -1.8103e+002  7.5640e+000 48987 86815,86971,86919
 5.8000e+000 87043 -2.5725e+001 -1.9236e+002 -1.6166e+001 48987 86867,86919,86893
 5.8000e+000 87020 -7.3554e+001 -1.9921e+002  1.6436e+001 48987 86815,86867,86841
 5.8000e+000 86997 -7.1646e+001 -1.5597e+002  2.4980e+001 48987 86919,86971,86945
 5.8000e+000 87467 -1.2038e+002 -1.7665e+002  9.6477e+000 48540 87490,87245,87219
 5.8000e+000 87444 -8.5935e+001 -1.6561e+002  1.6195e+000 48540 87562,87490,87219
 5.8000e+000 87421 -6.5895e+001 -1.5752e+002  7.6093e+000 48540 87562,87219,87349
 5.8000e+000 87398 -8.9256e+001 -1.3679e+002 -6.9710e+000 48540 87245,87297,87271
 5.8000e+000 87375 -5.5798e+001 -1.6513e+002  5.6987e+000 48540 87193,87349,87219
 5.8000e+000 87516 -8.1831e+001 -1.6662e+002  4.3354e+000 48540 87297,87245,87490
 5.8000e+000 87539 -8.2852e+001 -1.6939e+002  4.2815e+000 48540 87297,87490,87323
 5.8000e+000 87588 -6.6568e+001 -1.5705e+002  1.4808e+001 48540 87323,87490,87562
 5.8000e+000 87611 -5.6870e+001 -1.5936e+002  1.8803e+001 48540 87323,87562,87349
 5.8000e+000 87810 -7.6773e+001 -2.7334e+002 -2.0340e+001 48136 87660,87712,87686
 5.8000e+000 87787 -4.3492e+001 -1.5800e+002 -8.7433e+000 48136 87660,87738,87712
 5.8000e+000 87764 -1.0180e+002 -1.6497e+002 -2.5662e+001 48136 87634,87738,87660
 5.8000e+000 88205 -7.7124e+001 -1.8748e+002 -1.8156e+001 47210 88300,88228,87937
 5.8000e+000 88182 -6.7392e+001 -1.8152e+002 -5.8829e+000 47210 88228,87833,88041
 5.8000e+000 88159 -7.8610e+001 -2.0158e+002 -2.7830e+001 47210 88300,87937,87911
 5.8000e+000 88136 -7.4865e+001 -1.8207e+002 -2.2464e+001 47210 87833,87911,87859
 5.8000e+000 88113 -1.2945e+002 -1.6550e+002 -1.7216e+001 47210 87937,87989,87963
 5.8000e+000 88090 -6.5262e+001 -1.4832e+002  3.1406e+001 47210 87989,88041,88015
 5.8000e+000 88067 -8.6415e+001 -2.1106e+002 -2.9072e+001 47210 87859,87911,87885
 5.8000e+000 88254 -6.8413e+001 -1.5252e+002 -1.8896e+001 47210 87989,87937,88228
 5.8000e+000 88277 -8.2194e+001 -1.7841e+002 -7.5917e+000 47210 87989,88228,88041
 5.8000e+000 88326 -6.4448e+001 -1.7442e+002 -7.1265e+000 47210 87833,88228,88300
 5.8000e+000 88349 -6.7848e+001 -1.8364e+002 -1.7591e+001 47210 87833,88300,87911
 5.8000e+000 88780 -1.0957e+002 -1.9479e+002 -3.6459e+001 46642 88803,88509,88483
 5.8000e+000 88757 -7.9540e+001 -1.7596e+002 -1.9744e+001 46642 88803,88483,88639
 5.8000e+000 88734 -8.7560e+001 -1.4439e+002 -2.3095e+001 46642 88875,88561,88509
 5.8000e+000 88711 -8.8452e+001 -1.3324e+002 -3.8021e+000 46642 88509,88561,88535
 5.8000e+000 88688 -5.0132e+001 -1.9651e+002  1.1945e+000 46642 88457,88639,88483
 5.8000e+000 88665 -1.0112e+002 -2.3545e+002 -1.0837e+001 46642 88561,88613,88587
 5.8000e+000 88829 -8.8418e+001 -1.5763e+002 -2.6045e+001 46642 88875,88509,88803
 5.8000e+000 88852 -8.6818e+001 -1.8975e+002 -1.7071e+001 46642 88613,88803,88639
 5.8000e+000 88901 -7.1954e+001 -1.6272e+002 -1.1978e+001 46642 88613,88561,88875
 5.8000e+000 88924 -7.8643e+001 -1.8406e+002 -1.4511e+001 46642 88613,88875,88803
 5.8000e+000 89253 -3.3885e+001 -1.7573e+002  3.4390e+000 46444 89080,89158,89132
 5.8000e+000 89230 -3.8142e+001 -1.8487e+002  1.4283e+000 46444 89028,89158,89080
 5.8000e+000 89207 -1.5142e+001 -1.6592e+002 -6.7152e+000 46444 89028,89080,89054
 5.8000e+000 89184 -1.3713e+001 -1.9060e+002 -1.5753e+001 46444 89080,89132,89106
 5.8000e+000 89631 -5.3376e+001 -1.2314e+002  3.7178e+000 46040 89383,89461,89435
 5.8000e+000 89608 -5.6248e+001 -1.3611e+002 -7.4717e+000 46040 89383,89487,89461
 5.8000e+000 89585 -5.8005e+001 -1.5844e+002 -3.5940e+000 46040 89383,89435,89409
 5.8000e+000 89562 -4.4971e+001 -1.1700e+002 -1.5611e+001 46040 89383,89513,89487
 5.8000e+000 89539 -1.8310e+001 -1.0368e+002 -2.2002e+001 46040 89357,89513,89383
 5.8000e+000 90009 -5.6788e+001 -1.5744e+002 -2.7216e-001 45636 89813,89891,89839
 5.8000e+000 89986 -5.8363e+001 -1.4660e+002  9.1297e+000 45636 89787,89891,89813
 5.8000e+000 89963 -5.1511e+001 -1.4819e+002 -3.5296e+000 45636 89839,89891,89865
 5.8000e+000 89940 -6.6931e+001 -1.6334e+002  5.6368e+000 45636 89735,89891,89787
 5.8000e+000 89917 -5.3412e+001 -1.6468e+002 -6.1786e+000 45636 89735,89787,89761
 5.8000e+000 90208 -3.5142e+001 -1.2106e+002 -2.4037e+001 45175 90231,90058,90032
 5.8000e+000 90185 -2.0768e+001 -1.1054e+002 -3.6106e+001 45175 90231,90032,90136
 5.8000e+000 90162 -4.1505e+001 -9.5516e+001 -1.3303e+000 45175 90058,90110,90084
 5.8000e+000 90257 -5.1083e+001 -1.3611e+002 -5.9920e+000 45175 90110,90058,90231
 5.8000e+000 90280 -2.3681e+001 -1.1779e+002 -1.9464e+001 45175 90110,90231,90136
 5.8000e+000 90528 -3.8688e+001 -1.2279e+002 -1.6274e+001 44513 90695,90551,90407
 5.8000e+000 90505 -4.2002e+001 -1.1142e+002 -9.7105e+000 44513 90551,90355,90329
 5.8000e+000 90482 -4.7976e+001 -1.1905e+002 -1.5185e+001 44513 90623,90303,90433
 5.8000e+000 90459 -3.1055e+001 -1.1422e+002 -1.1468e+001 44513 90695,90407,90381
 5.8000e+000 90577 -5.5893e+001 -1.2820e+002 -2.8117e+001 44513 90433,90407,90551
 5.8000e+000 90600 -4.7829e+001 -1.1693e+002 -1.4910e+001 44513 90623,90433,90551
 5.8000e+000 90649 -4.6915e+001 -1.1656e+002 -1.5205e+001 44513 90329,90303,90623
 5.8000e+000 90672 -4.7615e+001 -1.1593e+002 -1.5072e+001 44513 90329,90623,90551
 5.8000e+000 90721 -4.8639e+001 -1.1114e+002 -1.8615e+001 44513 90355,90551,90695
 5.8000e+000 90744 -4.6750e+001 -1.0660e+002 -1.6707e+001 44513 90355,90695,90381
 5.8000e+000 91077  3.2265e+000 -1.2728e+002 -7.6459e+000 44059 91100,90930,90904
 5.8000e+000 91054 -4.9994e+001 -1.3780e+002  8.4226e+000 44059 91100,90904,90982
 5.8000e+000 91031 -8.9232e+001 -1.5854e+002 -9.8496e+000 44059 90878,90982,90904
 5.8000e+000 91008 -3.1020e+001 -1.2218e+002  6.4436e+000 44059 90852,90982,90878
 5.8000e+000 91126 -8.1453e+001 -1.5011e+002 -7.6386e+000 44059 91172,91100,90956
 5.8000e+000 91149 -4.9055e+001 -1.3876e+002 -5.7063e+000 44059 90956,91100,90982
 5.8000e+000 91198  3.2379e+000 -6.3108e+001 -4.1990e+001 44059 90930,91100,91172
 5.8000e+000 91677 -6.1714e+001 -9.7500e+001  8.8005e+000 43549 91455,91533,91481
 5.8000e+000 91654 -2.2780e+001 -9.6573e+001  1.3199e+001 43549 91429,91533,91455
 5.8000e+000 91631 -6.0107e+001 -9.8645e+001  4.0491e+000 43549 91481,91533,91507
 5.8000e+000 91608 -1.1682e+001 -9.2072e+001  5.4164e+000 43549 91429,91559,91533
 5.8000e+000 91585  4.3281e+000 -2.1417e+001 -1.0158e+000 43549 91403,91559,91429
 5.8000e+000 92006 -6.6374e+001 -1.5994e+002  1.0954e+000 43059 91781,91885,91807
 5.8000e+000 91983 -6.9238e+001 -1.5111e+002  2.5606e+001 43059 91781,91911,91885
 5.8000e+000 91960 -6.4998e+001 -1.5852e+002  4.1415e-001 43059 91807,91885,91833
 5.8000e+000 91937 -4.2919e+001 -1.4969e+002 -1.2658e+000 43059 91833,91885,91859
 5.8000e+000 92561 -4.6444e+001 -1.0495e+002 -1.2022e+001 42598 92584,92215,92189
 5.8000e+000 92538 -5.1604e+001 -1.1815e+002 -1.0609e+001 42598 92656,92584,92189
 5.8000e+000 92515 -4.6060e+001 -1.3371e+002 -2.7397e+000 42598 92656,92189,92397
 5.8000e+000 92492 -6.4437e+001 -9.2680e+001 -1.4428e+001 42598 92241,92319,92293
 5.8000e+000 92469 -5.7558e+001 -1.1129e+002  7.3834e+000 42598 92319,92397,92371
 5.8000e+000 92446 -1.8940e+001 -1.3636e+002  6.1681e+001 42598 92319,92371,92345
 5.8000e+000 92423 -6.2097e+001 -9.5840e+001 -2.1824e+001 42598 92241,92293,92267
 5.8000e+000 92610 -5.1179e+001 -1.0691e+002 -1.2204e+001 42598 92241,92215,92584
 5.8000e+000 92633 -4.6269e+001 -9.5710e+001 -1.4190e+001 42598 92241,92584,92319
 5.8000e+000 92682 -4.6721e+001 -9.7213e+001 -7.3597e+000 42598 92319,92584,92656
 5.8000e+000 92705 -3.7629e+001 -1.0796e+002 -1.5164e+000 42598 92319,92656,92397
 5.8000e+000 92953 -6.7476e+001 -1.7148e+002  9.4679e+000 42094 92976,92806,92780
 5.8000e+000 92930 -7.4647e+001 -1.6187e+002  4.2658e-001 42094 92976,92780,92754
 5.8000e+000 92907 -2.0324e+001 -1.6585e+002 -5.5923e-001 42094 93048,92832,92806
 5.8000e+000 92884 -9.3571e+001 -1.6443e+002 -1.0284e+001 42094 92728,92858,92754
 5.8000e+000 93002 -4.5387e+001 -1.5923e+002  4.6659e+000 42094 93048,92806,92976
 5.8000e+000 93025 -6.8919e+001 -1.5873e+002 -2.3089e+000 42094 92858,92976,92754
 5.8000e+000 93074 -5.5316e+001 -1.7850e+002 -1.0833e+000 42094 92858,92832,93048
 5.8000e+000 93097 -7.5670e+001 -1.6893e+002  1.9479e+000 42094 92858,93048,92976
 5.8000e+000 93605 -6.7633e+001 -1.9478e+002 -7.9161e+000 41846 93628,93412,93386
 5.8000e+000 93582 -5.3343e+001 -1.4557e+002 -2.7811e+000 41846 93628,93386,93308
 5.8000e+000 93559 -7.6260e+001 -1.5006e+002 -3.2910e+001 41846 93700,93464,93438
 5.8000e+000 93536 -7.6910e+001 -2.0489e+002  1.4761e+000 41846 93308,93386,93334
 5.8000e+000 93513 -9.4943e+001 -1.3976e+002 -2.9084e+001 41846 93334,93386,93360
 5.8000e+000 93490 -6.9964e+001 -1.3210e+002 -3.4488e+001 41846 93282,93464,93308
 5.8000e+000 93654 -6.0044e+001 -1.5511e+002 -1.5062e+001 41846 93438,93412,93628
 5.8000e+000 93677 -7.8872e+001 -1.5454e+002 -1.4598e+001 41846 93700,93438,93628
 5.8000e+000 93726 -6.7050e+001 -1.2777e+002 -3.2991e+001 41846 93308,93464,93700
 5.8000e+000 93749 -6.6554e+001 -1.2507e+002 -1.4966e+001 41846 93308,93700,93628
 5.8000e+000 94255 -5.9757e+001 -1.6390e+002  1.0709e+001 41385 93958,94114,94088
 5.8000e+000 94232 -5.1052e+001 -1.7617e+002  4.6593e+000 41385 93932,94114,93958
 5.8000e+000 94209 -9.6214e+001 -1.8862e+002  3.0755e+001 41385 93958,94088,94062
 5.8000e+000 94186 -1.0062e+002 -1.3683e+002  2.2960e+001 41385 93958,94062,93984
 5.8000e+000 94163 -8.4281e+001 -1.3469e+002  1.9020e+001 41385 93984,94062,94036
 5.8000e+000 94140 -5.7716e+001 -1.7829e+002  2.6929e+001 41385 93984,94036,94010
 5.8000e+000 94476 -2.2258e+001 -2.2213e+002  1.1961e+001 40881 94326,94378,94352
 5.8000e+000 94453 -3.7958e+001 -1.8103e+002  1.4707e+001 40881 94300,94378,94326
 5.8000e+000 94430 -4.9636e+001 -1.6803e+002  1.8242e+000 40881 94300,94404,94378
 5.8000e+000 94626 -4.1272e+001 -1.2038e+002 -2.2507e+000 40591 94649,94551,94525
 5.8000e+000 94603 -2.3683e+001 -7.1180e+001  3.2275e+000 40591 94781,94577,94551
 5.8000e+000 94675 -1.2149e+001 -8.5398e+001 -1.5524e+001 40591 94781,94551,94649
 5.8000e+000 94807  5.3905e+000 -4.4843e+001  1.8261e+001 40591 94499,94577,94781
 5.8000e+000 94830  9.5694e+000 -7.2206e+001 -1.7500e+000 40591 94499,94781,94649
 5.8000e+000 95336 -1.2383e+002 -1.5327e+002 -2.6369e+001 40187 95013,95169,95039
 5.8000e+000 95313 -3.2927e+001 -1.3769e+002  1.3899e+000 40187 95013,95195,95169
 5.8000e+000 95290 -2.3428e+001 -1.4832e+002 -1.8788e+001 40187 95039,95143,95065
 5.8000e+000 95267 -8.7067e+001 -1.7391e+002 -2.6178e+001 40187 95039,95169,95143
 5.8000e+000 95244 -2.7096e+001 -1.0756e+002 -8.6395e+000 40187 95091,95143,95117
 5.8000e+000 95221 -7.9109e+000 -6.7250e+001 -3.0505e+000 40187 95065,95143,95091
 5.8000e+000 95665 -3.8736e+001 -1.0537e+002  5.5849e+001 39626 95466,95570,95544
 5.8000e+000 95642 -7.9348e+001 -8.3757e+001  3.6190e+001 39626 95440,95570,95466
 5.8000e+000 95619 -1.2855e+002 -1.4764e+002  3.6909e+001 39626 95466,95544,95492
 5.8000e+000 95596 -1.8699e+001 -1.1043e+002  5.6063e+001 39626 95492,95544,95518
 5.8000e+000 95913 -6.4327e+001 -1.3655e+002 -1.9702e+001 39136 96080,95936,95766
 5.8000e+000 95890 -4.4023e+001 -1.4721e+002 -1.2636e+001 39136 95936,95714,95688
 5.8000e+000 95867 -1.1071e+002 -1.4729e+002  6.4196e+000 39136 96008,95792,95766
 5.8000e+000 95844 -5.3590e+001 -1.3272e+002 -1.4958e+001 39136 96080,95766,95740
 5.8000e+000 95962 -8.7874e+001 -1.5214e+002 -1.2514e+001 39136 96008,95766,95936
 5.8000e+000 95985 -5.7540e+001 -1.8025e+002 -3.1665e+000 39136 95818,95936,95688
 5.8000e+000 96034 -5.5702e+001 -1.2344e+002  9.2824e+000 39136 95818,95792,96008
 5.8000e+000 96057 -4.9689e+001 -1.3517e+002 -9.3292e+000 39136 95818,96008,95936
 5.8000e+000 96106 -5.8889e+001 -1.3508e+002 -5.2354e+000 39136 95714,95936,96080
 5.8000e+000 96129 -4.2038e+001 -1.3046e+002 -1.5567e+000 39136 95714,96080,95740
 5.8000e+000 96350 -4.4166e+001 -1.1396e+002 -7.3992e+000 38824 96200,96278,96252
 5.8000e+000 96327 -3.6936e+001 -1.0998e+002 -5.8223e+000 38824 96174,96278,96200
 5.8000e+000 96304 -5.3596e+000 -1.0090e+002 -2.1390e+001 38824 96200,96252,96226
 5.8000e+000 96830 -6.3756e+001 -1.1848e+002 -9.8312e+000 38320 97069,96536,96484
 5.8000e+000 96807 -6.2591e+001 -1.2014e+002 -9.7390e+000 38320 97069,96484,96853
 5.8000e+000 96784 -7.0670e+001 -1.2897e+002  3.9129e-001 38320 96853,96484,96458
 5.8000e+000 96761 -3.9187e+001 -1.0233e+002 -1.4457e+001 38320 96925,96640,96614
 5.8000e+000 96738 -6.1181e+001 -1.0601e+002 -6.2426e+000 38320 96997,96666,96640
 5.8000e+000 96715 -5.2473e+001 -1.4013e+002 -4.6399e+000 38320 97141,96588,96562
 5.8000e+000 96692 -8.0089e+001 -1.3678e+002 -2.6070e+000 38320 96484,96536,96510
 5.8000e+000 96879 -6.3016e+001 -1.2801e+002 -6.0828e+000 38320 97141,96562,96853
 5.8000e+000 96902 -5.8536e+001 -1.2469e+002 -6.0948e+000 38320 96925,96614,96853
 5.8000e+000 96951 -5.9978e+001 -1.0473e+002 -7.2937e+000 38320 96997,96640,96925
 5.8000e+000 96974 -5.6643e+001 -1.0422e+002 -5.2978e+000 38320 96458,96925,96853
 5.8000e+000 97023 -6.6797e+001 -1.0804e+002 -3.3331e+000 38320 96458,96666,96997
 5.8000e+000 97046 -6.2590e+001 -1.0560e+002 -4.5356e+000 38320 96458,96997,96925
 5.8000e+000 97095 -6.5933e+001 -1.1444e+002 -2.6549e+000 38320 96562,96536,97069
 5.8000e+000 97118 -5.9752e+001 -1.1902e+002 -8.5477e+000 38320 96562,97069,96853
 5.8000e+000 97167 -3.4026e+001 -1.2895e+002 -9.7520e+000 38320 96614,96588,97141
 5.8000e+000 97190 -5.1435e+001 -1.2178e+002 -9.7311e+000 38320 96614,97141,96853
 5.8000e+000 97519 -4.8482e+001 -1.5649e+002  4.2764e+001 37766 97542,97398,97372
 5.8000e+000 97496 -5.7328e+001 -1.2141e+002  3.0809e+001 37766 97542,97372,97346
 5.8000e+000 97473 -5.7695e+001 -1.2957e+002  1.7355e+000 37766 97294,97424,97346
 5.8000e+000 97450 -6.5056e+001 -1.5036e+002  1.5796e-002 37766 97294,97346,97320
 5.8000e+000 97568 -2.5387e+001 -1.6574e+002  1.3472e+001 37766 97424,97398,97542
 5.8000e+000 97591 -3.9663e+001 -1.2500e+002  3.7569e+000 37766 97424,97542,97346
 5.8000e+000 98048 -6.3722e+001 -9.4640e+001 -3.0563e+001 37262 98071,97878,97852
 5.8000e+000 98025 -5.3388e+001 -1.1311e+002 -1.1791e+001 37262 98071,97852,97800
 5.8000e+000 98002 -5.7377e+001 -1.3552e+002 -1.4552e+001 37262 97800,97852,97826
 5.8000e+000 97979 -6.0370e+001 -1.2113e+002  1.0444e+000 37262 97800,97930,97904
 5.8000e+000 97956 -3.9737e+001 -1.4018e+002  7.5759e+000 37262 97774,97930,97800
 5.8000e+000 98097 -9.2576e+001 -1.0844e+002 -2.2609e+001 37262 97904,97878,98071
 5.8000e+000 98120 -6.8821e+001 -1.2721e+002 -5.1815e+000 37262 97904,98071,97800
 5.8000e+000 98449 -3.8320e+001 -9.7591e+001 -1.1505e+001 36950 98472,98302,98250
 5.8000e+000 98426 -2.4101e+001 -9.3545e+001 -1.4012e+001 36950 98472,98250,98354
 5.8000e+000 98403 -5.8401e+001 -1.1000e+002  1.2406e+001 36950 98250,98302,98276
 5.8000e+000 98380 -1.5631e+001 -7.3368e+001  8.6855e+000 36950 98224,98354,98250
 5.8000e+000 98498 -2.7757e+001 -1.0858e+002 -3.1733e+000 36950 98328,98302,98472
 5.8000e+000 98521 -1.1260e+001 -1.0252e+002 -8.0629e+000 36950 98328,98472,98354
 5.8000e+000 99125 -6.7047e+001 -6.6434e+001  4.0943e+000 36296 98704,98756,98730
 5.8000e+000 99102 -7.4930e+001 -7.4906e+001  7.4571e+000 36296 98704,98938,98756
 5.8000e+000 99079 -5.2785e+001 -9.6430e+001 -2.5371e+000 36296 99148,98938,98912
 5.8000e+000 99056 -5.5427e+001 -1.0072e+002  2.2796e+001 36296 99292,99220,98782
 5.8000e+000 99033 -4.6251e+001 -1.1385e+002  2.6917e+000 36296 99148,98912,98834
 5.8000e+000 99010 -5.4100e+001 -8.7096e+001  2.6220e+001 36296 99292,98782,98756
 5.8000e+000 98987 -4.4934e+001 -1.9909e+002 -3.6159e+001 36296 98834,98912,98886
 5.8000e+000 98964 -7.3839e+001 -2.8398e+002 -4.6352e+001 36296 98834,98886,98860
 5.8000e+000 99174 -6.5702e+001 -1.2109e+002  3.9510e+000 36296 99220,98938,99148
 5.8000e+000 99197 -4.4808e+001 -1.3833e+002  1.4621e+001 36296 98808,99148,98834
 5.8000e+000 99246 -5.6088e+001 -1.0187e+002  5.6008e+001 36296 98808,98782,99220
 5.8000e+000 99269 -2.3583e+001 -8.9354e+001  1.7942e+001 36296 98808,99220,99148
 5.8000e+000 99318 -6.2446e+001 -8.8712e+001  1.3828e+001 36296 98938,99220,99292
 5.8000e+000 99341 -6.3601e+001 -9.0596e+001  1.6776e+001 36296 98938,99292,98756
 5.8000e+000 99719 -7.6941e+001 -1.5721e+002  6.8195e-001 35742 99742,99471,99601
 5.8000e+000 99696 -7.7514e+001 -1.2532e+002  1.4988e+001 35742 99445,99601,99471
 5.8000e+000 99673 -7.3450e+001 -1.4921e+002 -5.3662e+000 35742 99742,99601,99575
 5.8000e+000 99650 -6.4766e+001 -1.8559e+002 -4.3269e+000 35742 99814,99549,99523
 5.8000e+000 99627 -5.3086e+001 -1.4524e+002  2.3998e-001 35742 99471,99523,99497
 5.8000e+000 99768 -6.1967e+001 -1.5392e+002  3.9713e+000 35742 99523,99471,99742
 5.8000e+000 99791 -7.2866e+001 -1.7135e+002 -3.5096e+000 35742 99814,99523,99742
 5.8000e+000 99840 -6.4191e+001 -1.6776e+002 -9.7374e+000 35742 99575,99549,99814
 5.8000e+000 99863 -6.9100e+001 -1.4909e+002 -8.3940e+000 35742 99575,99814,99742
 5.8000e+000 100111 -6.0011e+001 -1.2887e+002  9.9278e+000 35302 100134,99990,99938
 5.8000e+000 100088 -5.0517e+001 -1.1720e+002  4.0451e+000 35302 100134,99938,99912
 5.8000e+000 100065 -5.0846e+001 -1.1673e+002 -2.4701e+000 35302 100206,99886,100016
 5.8000e+000 100042 -7.4514e+001 -1.2479e+002  6.6006e+000 35302 99938,99990,99964
 5.8000e+000 100160 -4.8163e+001 -1.2445e+002  2.3014e+000 35302 100016,99990,100134
 5.8000e+000 100183 -4.8487e+001 -1.1879e+002 -2.4273e+000 35302 100206,100016,100134
 5.8000e+000 100232 -5.2746e+001 -1.1918e+002 -8.9655e-001 35302 99912,99886,100206
 5.8000e+000 100255 -5.0586e+001 -1.2180e+002 -9.5059e-001 35302 99912,100206,100134
 5.8000e+000 100586 -7.4311e+001 -7.9423e+001  2.5439e+001 35012 100609,100387,100361
 5.8000e+000 100563 -9.1513e+001 -5.3488e+001 -1.7729e+001 35012 100609,100361,100465
 5.8000e+000 100540 -3.9618e+001 -3.4740e+001 -4.1006e+001 35012 100361,100491,100465
 5.8000e+000 100517 -9.3206e+000 -4.0792e+001 -4.2352e+001 35012 100413,100465,100439
 5.8000e+000 100635 -3.0889e+001 -6.0210e+001  9.0084e+000 35012 100413,100387,100609
 5.8000e+000 100658 -4.6246e+001 -2.7014e+001 -3.5267e+001 35012 100413,100609,100465
 5.8000e+000 100987 -5.8141e+001 -1.3381e+002  1.1708e+001 34700 100788,100866,100814
 5.8000e+000 100964 -4.9162e+001 -1.0240e+002  2.0326e+001 34700 101010,100866,100788
 5.8000e+000 100941 -2.8016e+001 -6.4397e+001  1.9736e+001 34700 100762,100892,100866
 5.8000e+000 100918 -5.2797e+001 -1.2078e+002  1.0106e+001 34700 100814,100866,100840
 5.8000e+000 101036 -3.1236e+001 -8.7157e+001  3.5676e+001 34700 100762,100866,101010
 5.8000e+000 101493 -7.9725e+001 -1.4791e+002 -1.1439e+001 34132 101516,101349,101297
 5.8000e+000 101470 -9.4322e+001 -1.7602e+002 -1.8962e+001 34132 101588,101516,101297
 5.8000e+000 101447 -9.4377e+001 -1.8441e+002 -2.8589e+001 34132 101588,101297,101245
 5.8000e+000 101424 -5.9850e+001 -2.1369e+002 -2.6955e+001 34132 101245,101297,101271
 5.8000e+000 101401 -8.7283e+001 -1.4786e+002 -1.5022e+001 34132 101297,101349,101323
 5.8000e+000 101542 -8.2131e+001 -1.6989e+002 -9.0098e+000 34132 101375,101349,101516
 5.8000e+000 101565 -7.4559e+001 -1.6998e+002 -9.8849e+000 34132 101375,101516,101219
 5.8000e+000 101614 -7.6088e+001 -1.7637e+002 -9.9101e+000 34132 101219,101516,101588
 5.8000e+000 101637 -8.5246e+001 -1.8490e+002 -1.9037e+001 34132 101219,101588,101245
 5.8000e+000 101858 -2.4986e+001 -1.1753e+002  1.2659e+001 33720 101708,101786,101760
 5.8000e+000 101835 -1.3826e+001 -1.2701e+002  1.9769e+001 33720 101682,101786,101708
 5.8000e+000 101812 -3.9283e+001 -1.2483e+002  9.3766e+000 33720 101708,101760,101734
 5.8000e+000 102128 -2.0375e+001 -1.5436e+002 -4.2132e+000 33130 101903,102007,101929
 5.8000e+000 102105 -2.4287e+001 -1.7882e+002  5.9204e+000 33130 101903,102033,102007
 5.8000e+000 102082 -1.2636e+001 -1.8377e+002 -3.4826e+001 33130 101929,102007,101955
 5.8000e+000 102059 -2.9911e+001 -1.3066e+002  3.3019e+000 33130 101955,102007,101981
 5.8000e+000 102461 -4.5034e+001 -1.1083e+002 -1.0954e+001 32840 102236,102340,102262
 5.8000e+000 102438 -4.0934e+001 -8.2508e+001  3.3677e+000 32840 102236,102366,102340
 5.8000e+000 102415 -2.6052e+001 -1.0582e+002 -9.4527e+000 32840 102262,102340,102288
 5.8000e+000 102392 -5.1989e+001 -1.1078e+002 -2.5762e+001 32840 102288,102340,102314
 5.8000e+000 102997 -5.2288e+001 -8.8911e+001  2.4640e+001 32493 102749,102879,102853
 5.8000e+000 102974 -4.3191e+001 -7.0920e+001  1.8440e+001 32493 102723,102879,102749
 5.8000e+000 102951 -5.9761e+001 -1.0753e+002  1.7183e+001 32493 102749,102801,102775
 5.8000e+000 102928 -6.4853e+001 -1.0643e+002  1.6258e+001 32493 102749,102853,102801
 5.8000e+000 102905 -6.2504e+001 -1.0301e+002  1.4144e+001 32493 102801,102853,102827
 5.8000e+000 103454 -4.7631e+001 -8.9053e+001 -9.8823e+000 32089 103206,103336,103310
 5.8000e+000 103431 -3.7283e+001 -9.7289e+001 -1.1884e+000 32089 103180,103336,103206
 5.8000e+000 103408 -5.8363e+001 -1.0811e+002 -2.0797e+001 32089 103206,103284,103258
 5.8000e+000 103385 -8.0964e+001 -1.1137e+002 -2.4151e+001 32089 103206,103310,103284
 5.8000e+000 103362 -4.4563e+001 -7.3299e+001 -1.4606e+001 32089 103206,103258,103232
 5.8000e+000 103783 -9.3552e+001 -1.2210e+002 -1.4075e+001 31742 103558,103662,103584
 5.8000e+000 103760 -7.6946e+001 -9.9456e+001 -3.5545e+001 31742 103558,103688,103662
 5.8000e+000 103737 -6.2619e+001 -9.7760e+001 -2.6031e+001 31742 103584,103662,103636
 5.8000e+000 103714 -6.0082e+001 -1.1213e+002 -2.8273e+001 31742 103584,103636,103610
 5.8000e+000 104112 -1.6377e+001 -9.4264e+001  1.4365e+001 31402 103939,103991,103965
 5.8000e+000 104089 -2.8177e+001 -8.1972e+001  7.2303e+000 31402 103913,103991,103939
 5.8000e+000 104066 -4.0192e+001 -9.4550e+001  2.9747e-001 31402 103913,104017,103991
 5.8000e+000 104043 -5.1126e+001 -8.5868e+001 -7.2979e+000 31402 103887,104017,103913
 5.8000e+000 104569 -8.7869e+001 -1.5868e+002  5.8817e+000 30998 104321,104425,104373
 5.8000e+000 104546 -9.7619e+001 -1.6257e+002  5.9875e+000 30998 104321,104451,104425
 5.8000e+000 104523 -6.6327e+001 -1.2954e+002  2.1704e+001 30998 104373,104425,104399
 5.8000e+000 104500 -7.8024e+001 -1.8457e+002 -4.7907e+000 30998 104295,104451,104321
 5.8000e+000 104477 -1.1844e+002 -1.8710e+002  3.6006e+001 30998 104321,104373,104347
 5.8000e+000 104947 -8.2582e+001 -1.4096e+002 -1.6567e+001 30608 104751,104803,104777
 5.8000e+000 104924 -5.4184e+001 -1.4552e+002 -6.0304e+000 30608 104725,104803,104751
 5.8000e+000 104901 -8.5939e+001 -1.4072e+002  9.7760e+000 30608 104699,104803,104725
 5.8000e+000 104878 -7.2604e+001 -1.3463e+002  8.3289e+000 30608 104673,104803,104699
 5.8000e+000 104855 -5.5285e+001 -1.2709e+002 -5.2911e+000 30608 104673,104829,104803
 5.8000e+000 105276 -6.0114e+001 -1.3093e+002  5.4168e+000 30204 105427,105129,105077
 5.8000e+000 105253 -4.0959e+001 -1.4430e+002  3.0060e+001 30204 105427,105077,105051
 5.8000e+000 105230 -4.9862e+001 -1.2696e+002  6.7661e+000 30204 105077,105129,105103
 5.8000e+000 105207 -3.5274e+001 -1.1792e+002  2.0801e+001 30204 105299,105181,105155
 5.8000e+000 105325 -3.6064e+001 -1.1420e+002  6.1410e+000 30204 105129,105181,105299
 5.8000e+000 105453 -7.2038e+001 -1.3942e+002  1.7838e+001 30204 105181,105129,105427
 5.8000e+000 105476 -8.4303e+001 -1.6717e+002  4.5904e+001 30204 105181,105427,105051
 5.8000e+000 105903 -4.7536e+001 -1.1220e+002 -8.3041e+000 29700 105606,105762,105736
 5.8000e+000 105880 -6.1247e+001 -1.1537e+002  1.1473e-001 29700 105580,105762,105606
 5.8000e+000 105857 -7.3023e+001 -1.4109e+002 -8.1721e+000 29700 105606,105710,105632
 5.8000e+000 105834 -6.0801e+001 -1.1908e+002 -3.3849e+000 29700 105606,105736,105710
 5.8000e+000 105811 -6.8521e+001 -1.3098e+002 -9.8433e+000 29700 105632,105710,105684
 5.8000e+000 105788 -6.6487e+001 -1.2592e+002 -4.6073e+000 29700 105632,105684,105658
 5.8000e+000 106102 -1.9379e+001 -1.3550e+002  5.8244e+000 29124 105978,106030,106004
 5.8000e+000 106079 -3.4993e+001 -1.3217e+002  6.5780e+000 29124 105926,106030,105978
 5.8000e+000 106056 -4.0451e+001 -1.5346e+002  1.8227e+001 29124 105926,105978,105952
 5.8000e+000 106301 -3.8777e+001 -1.3759e+002  8.2777e-001 28712 106151,106229,106203
 5.8000e+000 106278 -4.6369e+001 -1.5239e+002 -6.6926e+000 28712 106125,106229,106151
 5.8000e+000 106255 -4.0040e+001 -1.4404e+002  7.1824e+000 28712 106151,106203,106177
 5.8000e+000 106551 -4.7919e+001 -1.7058e+002  8.9324e+000 28258 106352,106404,106378
 5.8000e+000 106528 -6.6133e+001 -1.7268e+002  2.6812e+000 28258 106352,106456,106404
 5.8000e+000 106505 -6.6127e+001 -1.7546e+002  1.5826e+000 28258 106326,106456,106352
 5.8000e+000 106482 -5.8557e+001 -1.6030e+002 -1.6805e+000 28258 106404,106456,106430
 5.8000e+000 107012 -5.8284e+001 -1.4616e+002  2.8708e+001 27818 107035,106790,106764
 5.8000e+000 106989 -5.0837e+001 -1.3830e+002  1.1181e+001 27818 107035,106764,106868
 5.8000e+000 106966 -3.6255e+001 -1.6807e+002  1.6178e+001 27818 107107,106842,106816
 5.8000e+000 106943 -7.4879e+001 -1.2732e+002  5.6867e+000 27818 106738,106868,106764
 5.8000e+000 106920 -7.2465e+001 -1.1520e+002  1.6505e+001 27818 106738,106894,106868
 5.8000e+000 107061 -2.6938e+001 -1.3989e+002  3.2688e+001 27818 106816,106790,107035
 5.8000e+000 107084 -4.5663e+001 -1.5655e+002  1.7072e+001 27818 107107,106816,107035
 5.8000e+000 107133 -3.4085e+001 -1.5132e+002  8.0647e+000 27818 106868,106842,107107
 5.8000e+000 107156 -4.0318e+001 -1.3419e+002  1.1032e+001 27818 106868,107107,107035
 5.8000e+000 107613 -2.0433e+001 -1.1111e+002  2.3881e+001 27312 107339,107469,107365
 5.8000e+000 107590 -4.8196e+000 -1.0237e+002  2.0282e+001 27312 107339,107495,107469
 5.8000e+000 107567 -2.0714e+001 -1.0667e+002  1.1700e+001 27312 107391,107469,107443
 5.8000e+000 107544 -1.7893e+001 -1.1438e+002  1.0526e+001 27312 107365,107469,107391
 5.8000e+000 107521 -5.4172e+001 -1.1797e+002  5.8869e+000 27312 107391,107443,107417
 5.8000e+000 107991 -5.5318e+001 -1.6446e+002  6.9630e+000 26858 108086,108014,107795
 5.8000e+000 107968 -6.1042e+001 -1.6677e+002 -6.9797e+000 26858 108014,107717,107873
 5.8000e+000 107945 -6.3322e+001 -1.7415e+002  1.1627e+001 26858 108158,108086,107795
 5.8000e+000 107922 -5.0450e+001 -1.7707e+002  1.2145e+001 26858 108158,107795,107769
 5.8000e+000 107899 -4.7959e+001 -2.0577e+002  2.8716e+001 26858 107821,107873,107847
 5.8000e+000 108040 -5.8868e+001 -1.8645e+002  9.7147e+000 26858 107821,107795,108014
 5.8000e+000 108063 -3.7123e+001 -1.7557e+002  1.4056e+000 26858 107821,108014,107873
 5.8000e+000 108112 -7.5024e+001 -1.7246e+002  8.2092e+000 26858 107717,108014,108086
 5.8000e+000 108135 -6.2920e+001 -1.7355e+002  1.7475e+001 26858 107717,108086,107743
 5.8000e+000 108184 -4.8985e+001 -1.6762e+002  1.6532e+001 26858 107743,108086,108158
 5.8000e+000 108207 -4.2408e+001 -1.7504e+002  1.6966e+001 26858 107743,108158,107769
 5.8000e+000 108634 -7.5657e+001 -1.5556e+002  3.5431e+000 26404 108657,108415,108363
 5.8000e+000 108611 -8.5163e+001 -1.6779e+002  1.8768e+001 26404 108657,108363,108337
 5.8000e+000 108588 -7.3715e+001 -1.6059e+002  1.8372e+001 26404 108729,108311,108467
 5.8000e+000 108565 -8.0281e+001 -1.8661e+002  3.5062e+000 26404 108801,108441,108415
 5.8000e+000 108542 -1.1022e+002 -1.7697e+002  2.1778e+001 26404 108311,108493,108467
 5.8000e+000 108519 -5.2270e+001 -1.5648e+002  3.3550e+000 26404 108363,108415,108389
 5.8000e+000 108683 -1.0022e+002 -1.6638e+002  6.1171e+000 26404 108801,108415,108657
 5.8000e+000 108706 -9.5507e+001 -1.6591e+002  1.4846e+001 26404 108729,108467,108657
 5.8000e+000 108755 -5.9913e+001 -1.6896e+002  1.8230e+001 26404 108337,108311,108729
 5.8000e+000 108778 -7.1010e+001 -1.6651e+002  1.4158e+001 26404 108337,108729,108657
 5.8000e+000 108827 -9.9689e+001 -2.2690e+002 -8.2000e+000 26404 108467,108441,108801
 5.8000e+000 108850 -1.1010e+002 -1.9210e+002 -5.4846e+000 26404 108467,108801,108657
 5.8000e+000 109228 -7.6241e+001 -1.6325e+002 -6.5534e+000 26064 109006,109084,109058
 5.8000e+000 109205 -6.7812e+001 -1.5286e+002  3.6207e+000 26064 108980,109084,109006
 5.8000e+000 109182 -7.2851e+001 -1.4572e+002 -4.9148e+000 26064 108980,109110,109084
 5.8000e+000 109159 -7.3101e+001 -1.7077e+002 -5.7554e-001 26064 109006,109058,109032
 5.8000e+000 109136 -2.5149e+001 -1.2848e+002  5.6536e+000 26064 108954,109110,108980
 5.8000e+000 109427 -1.9210e+001 -1.4050e+002 -2.9186e+001 25660 109303,109355,109329
 5.8000e+000 109404 -3.8424e+001 -1.7902e+002 -7.1343e+000 25660 109277,109355,109303
 5.8000e+000 109381 -2.7297e+001 -1.6837e+002 -2.5562e+000 25660 109251,109355,109277
 5.8000e+000 109577 -2.4753e+001 -6.2835e+001  2.2266e+001 25306 109476,109528,109502
 5.8000e+000 109554  1.1816e+001 -5.1956e+001  1.7568e+001 25306 109450,109528,109476
 5.8000e+000 109778 -5.3958e+001 -1.4776e+002  3.8785e+000 24944 109628,109706,109654
 5.8000e+000 109755 -5.8168e+001 -1.4662e+002  7.0847e-001 24944 109602,109706,109628
 5.8000e+000 109732 -4.7661e+001 -1.3953e+002 -2.0860e+000 24944 109654,109706,109680
 5.8000e+000 110126 -4.6155e+001 -1.8818e+002  5.7261e+000 24440 110149,109907,109855
 5.8000e+000 110103 -4.1768e+001 -1.9961e+002  1.2426e+001 24440 110149,109855,109985
 5.8000e+000 110080 -3.5836e+001 -1.6208e+002  3.5656e+000 24440 109855,109907,109881
 5.8000e+000 110057 -3.5887e+001 -1.5440e+002  5.4149e+001 24440 109829,109985,109855
 5.8000e+000 110034 -4.1265e+001 -1.8691e+002  1.9499e+000 24440 109907,109959,109933
 5.8000e+000 110011 -1.1091e+001 -1.5627e+002  2.8211e+000 24440 109803,109985,109829
 5.8000e+000 110175 -4.3254e+001 -1.7896e+002  5.0367e+000 24440 109959,109907,110149
 5.8000e+000 110198 -3.8110e+001 -1.8821e+002  1.2867e+001 24440 109959,110149,109985
 5.8000e+000 110301 -1.8525e+000 -8.9938e+001  3.4468e+000 24028 110223,110275,110249
 5.8000e+000 110573 -2.4061e+001 -1.1224e+002  9.1070e+000 23467 110400,110452,110426
 5.8000e+000 110550 -4.0260e+001 -1.3410e+002  9.0337e-001 23467 110374,110452,110400
 5.8000e+000 110527 -4.3193e+001 -1.3531e+002  2.8531e+000 23467 110348,110452,110374
 5.8000e+000 110504 -3.1268e+001 -1.3037e+002 -4.3920e-001 23467 110348,110478,110452
 5.8000e+000 111004 -8.7806e+001 -1.9660e+002 -2.4154e+001 22963 111027,110733,110707
 5.8000e+000 110981 -8.8691e+001 -1.8581e+002  1.0519e+001 22963 111027,110707,110681
 5.8000e+000 110958 -4.1312e+001 -1.5960e+002 -2.0377e+001 22963 111099,110759,110733
 5.8000e+000 110935 -5.8100e+001 -1.5947e+002 -1.3012e+001 22963 111171,110863,110811
 5.8000e+000 110912 -2.4316e+001 -1.1608e+002 -2.4121e+001 22963 110759,110811,110785
 5.8000e+000 110889 -6.6549e+001 -1.7304e+002 -8.7057e+000 22963 110811,110863,110837
 5.8000e+000 111053 -6.4627e+001 -1.7548e+002 -1.1946e+001 22963 111099,110733,111027
 5.8000e+000 111076 -5.4612e+001 -1.7163e+002 -1.0877e+001 22963 111171,110811,111027
 5.8000e+000 111125 -4.0334e+001 -1.5628e+002 -3.3075e+001 22963 110811,110759,111099
 5.8000e+000 111148 -4.4091e+001 -1.5436e+002 -2.7981e+001 22963 110811,111099,111027
 5.8000e+000 111197 -5.7922e+001 -1.4079e+002 -1.5477e+001 22963 110681,110863,111171
 5.8000e+000 111220 -5.8331e+001 -1.5457e+002 -8.1247e+000 22963 110681,111171,111027
 5.8000e+000 111726 -8.7927e+001 -1.6901e+002  2.3297e+000 22459 111749,111507,111429
 5.8000e+000 111703 -7.8009e+001 -1.6555e+002 -4.6026e+000 22459 111749,111429,111585
 5.8000e+000 111680 -6.4752e+001 -1.8062e+002 -2.2934e+000 22459 111403,111585,111429
 5.8000e+000 111657 -8.3854e+001 -1.8638e+002  7.7862e+000 22459 111507,111559,111533
 5.8000e+000 111634 -1.1109e+002 -1.5970e+002  9.8893e+000 22459 111455,111507,111481
 5.8000e+000 111611 -1.2773e+002 -1.6348e+002  1.5921e+001 22459 111429,111507,111455
 5.8000e+000 111775 -8.6802e+001 -1.7994e+002  1.0908e+001 22459 111559,111507,111749
 5.8000e+000 111798 -7.7499e+001 -1.7143e+002  3.9727e+000 22459 111559,111749,111585
 5.8000e+000 112046 -3.9256e+001 -1.4397e+002 -1.8116e+001 21898 112069,111925,111873
 5.8000e+000 112023 -3.7347e+001 -1.4427e+002 -3.7257e+000 21898 112069,111873,111847
 5.8000e+000 112000 -4.9762e+001 -1.4787e+002 -7.5988e+000 21898 111821,111951,111847
 5.8000e+000 111977 -4.4190e+001 -1.1145e+002 -1.0831e+001 21898 111873,111925,111899
 5.8000e+000 112095 -5.9592e+001 -1.5120e+002 -2.1636e+001 21898 111951,111925,112069
 5.8000e+000 112118 -4.9274e+001 -1.4836e+002 -7.7877e+000 21898 111951,112069,111847
 5.8000e+000 112498 -6.5223e+001 -1.5649e+002 -1.2176e+001 21608 112521,112276,112224
 5.8000e+000 112475 -4.2986e+001 -1.5816e+002  1.8302e-001 21608 112521,112224,112380
 5.8000e+000 112452 -4.6007e+001 -1.8298e+002  1.1202e+001 21608 112302,112380,112354
 5.8000e+000 112429 -7.9150e+001 -1.7691e+002 -6.1233e+000 21608 112224,112276,112250
 5.8000e+000 112406  2.8697e+001 -1.9995e+002 -1.0531e+001 21608 112302,112354,112328
 5.8000e+000 112547 -4.7055e+001 -1.3773e+002 -1.5520e+000 21608 112302,112276,112521
 5.8000e+000 112570 -3.1728e+001 -1.5322e+002  6.9432e+000 21608 112302,112521,112380
 5.8000e+000 112948 -7.7969e+001 -1.6146e+002 -2.3312e+000 20882 112971,112752,112700
 5.8000e+000 112925 -5.9756e+001 -1.5534e+002 -6.0721e+000 20882 112971,112700,112830
 5.8000e+000 112902 -9.8994e+001 -1.7574e+002  1.1589e+001 20882 112778,112830,112804
 5.8000e+000 112879 -5.5933e+001 -1.2604e+002 -8.9277e+000 20882 112674,112830,112700
 5.8000e+000 112856 -9.3841e+001 -1.6902e+002  3.3136e+000 20882 112700,112752,112726
 5.8000e+000 112997 -7.8541e+001 -1.6148e+002  7.7930e+000 20882 112778,112752,112971
 5.8000e+000 113020 -6.8184e+001 -1.5854e+002  3.6622e+000 20882 112778,112971,112830
 5.8000e+000 113526 -5.1770e+001 -1.5985e+002  1.1019e+000 20428 113255,113385,113333
 5.8000e+000 113503 -5.5877e+001 -1.7323e+002  1.3097e+000 20428 113229,113385,113255
 5.8000e+000 113480 -3.0534e+000 -1.5545e+002  2.1649e+000 20428 113255,113333,113281
 5.8000e+000 113457 -4.7747e+001 -1.6711e+002  4.0391e+000 20428 113203,113385,113229
 5.8000e+000 113434 -2.4821e+001 -1.6255e+002 -4.9146e+000 20428 113281,113333,113307
 5.8000e+000 113411 -6.5307e+001 -1.5715e+002  4.4264e+000 20428 113333,113385,113359
 5.8000e+000 113774 -1.0621e+001 -1.5655e+002  6.9188e+000 19917 113797,113601,113549
 5.8000e+000 113751 -2.6857e+001 -1.5872e+002  8.5825e+000 19917 113869,113797,113549
 5.8000e+000 113728 -2.5830e+001 -1.6044e+002  1.5215e+001 19917 113869,113549,113679
 5.8000e+000 113705 -1.5907e+001 -1.5473e+002  1.4202e+001 19917 113549,113601,113575
 5.8000e+000 113823 -2.7671e+001 -1.9028e+002  3.2752e-002 19917 113627,113601,113797
 5.8000e+000 113846 -1.1925e+001 -1.4941e+002 -2.7510e+000 19917 113627,113797,113653
 5.8000e+000 113895 -2.3500e+001 -1.4245e+002  3.2291e+000 19917 113653,113797,113869
 5.8000e+000 113918 -2.9249e+001 -1.4689e+002  1.1741e+001 19917 113653,113869,113679
 5.8000e+000 114166 -7.2823e+001 -1.6268e+002 -2.6231e+000 19413 113993,114045,114019
 5.8000e+000 114143 -6.5618e+001 -1.5189e+002  1.4049e+000 19413 113967,114045,113993
 5.8000e+000 114120 -5.7143e+001 -1.4926e+002  9.5893e+000 19413 113967,114071,114045
 5.8000e+000 114097 -4.2775e+001 -1.6867e+002 -1.7727e+000 19413 113941,114071,113967
 5.8000e+000 114438 -6.7091e+001 -1.7769e+002  1.8271e+000 19001 114213,114265,114239
 5.8000e+000 114415 -4.8086e+001 -1.3780e+002 -3.9705e+000 19001 114213,114343,114265
 5.8000e+000 114392 -7.1549e+001 -1.9051e+002 -8.3963e+000 19001 114265,114343,114317
 5.8000e+000 114369  1.1373e+001 -1.5454e+002 -2.9474e+000 19001 114265,114317,114291
 5.8000e+000 114639 -5.0909e+001 -2.1049e+002  9.8193e+000 18554 114489,114541,114515
 5.8000e+000 114616 -4.3711e+001 -1.8296e+002  1.4062e+000 18554 114489,114567,114541
 5.8000e+000 114593 -9.4274e+001 -2.0574e+002 -1.3355e+001 18554 114463,114567,114489
 5.8000e+000 115043 -3.3409e+001 -1.5811e+002  6.1210e+000 18164 114795,114925,114821
 5.8000e+000 115020 -2.8247e+001 -1.6589e+002  1.0176e+001 18164 114769,114925,114795
 5.8000e+000 114997 -1.7972e+001 -1.6634e+002 -1.2848e+000 18164 115066,114873,114821
 5.8000e+000 114974 -1.6298e+001 -1.4237e+002 -5.2562e+000 18164 115066,114821,114925
 5.8000e+000 114951  1.4950e+001 -1.6605e+002 -1.6724e+001 18164 114821,114873,114847
 5.8000e+000 115092 -2.6875e+001 -1.4914e+002 -1.3871e+001 18164 114899,114873,115066
 5.8000e+000 115115 -1.5506e+001 -1.1247e+002 -1.8962e+001 18164 114899,115066,114925
 5.8000e+000 115265 -3.9047e+001 -1.6909e+002  2.4664e+000 17852 115164,115216,115190
 5.8000e+000 115242 -4.4418e+001 -1.8101e+002 -1.0395e-001 17852 115138,115216,115164
 5.8000e+000 115464 -1.1305e+002 -2.5236e+002  3.0447e+000 17346 115288,115366,115340
 5.8000e+000 115441 -1.7031e+002 -1.9351e+002 -9.2135e+000 17346 115288,115392,115366
 5.8000e+000 115418 -9.9685e+001 -2.8131e+002 -8.3134e+000 17346 115288,115340,115314
 5.8000e+000 115736 -3.8249e+001 -1.5509e+002  6.9501e+000 16942 115563,115641,115615
 5.8000e+000 115713 -4.3600e+001 -1.5507e+002  2.4453e+000 16942 115511,115641,115563
 5.8000e+000 115690 -1.0770e+002 -1.8196e+002  1.0395e+001 16942 115563,115615,115589
 5.8000e+000 115667 -5.1798e+001 -1.6864e+002  5.8761e+000 16942 115511,115563,115537
 5.8000e+000 116091 -8.2468e+001 -1.9074e+002 -6.4989e+000 16388 115918,115970,115944
 5.8000e+000 116068 -7.1942e+001 -1.5440e+002 -4.5624e+000 16388 115918,115996,115970
 5.8000e+000 116045 -9.6584e+001 -1.9394e+002  6.6482e+000 16388 115892,115996,115918
 5.8000e+000 116022 -6.1953e+001 -1.7625e+002  2.2865e+001 16388 115866,115996,115892
 5.8000e+000 116192 -1.9847e+001 -1.9644e+002 -2.8968e+001 15810 116114,116166,116140
 5.8000e+000 116342 -7.3781e+001 -2.3873e+002  1.2845e+001 15419 116241,116293,116267
 5.8000e+000 116319 -1.0511e+002 -2.9122e+002 -7.9948e+000 15419 116215,116293,116241
 5.8000e+000 116445 -8.0613e+001 -1.6288e+002  6.2849e-002 421 116367,116419,116393
 5.9000e+000 68477 -1.0359e+002 -1.4799e+002  9.5107e-001 68018 68327,68379,68353
 5.9000e+000 68454 -1.0868e+002 -1.9468e+002  1.4236e+001 68018 68301,68379,68327
 5.9000e+000 68431 -5.8276e+001 -2.1975e+002  3.3450e+001 68018 68301,68405,68379
 5.9000e+000 68578 -7.1738e+001 -1.4120e+002  6.2826e-001 67820 68500,68552,68526
 5.9000e+000 68728 -7.5996e+001 -1.3093e+002 -1.5836e+000 67508 68601,68653,68627
 5.9000e+000 68705 -1.1523e+002 -1.0379e+002 -1.8548e+001 67508 68601,68679,68653
 5.9000e+000 68927 -2.6656e+001 -1.2625e+002 -2.3127e+000 67310 68777,68829,68803
 5.9000e+000 68904 -3.6413e+001 -1.4629e+002  2.4450e+000 67310 68751,68829,68777
 5.9000e+000 68881 -2.8050e+001 -1.4855e+002  9.1605e+000 67310 68751,68855,68829
 5.9000e+000 69386 -6.1027e+001 -1.5529e+002 -6.9780e+000 67020 69216,69268,69242
 5.9000e+000 69363 -5.6827e+001 -1.2159e+002 -1.5215e+001 67020 69138,69268,69216
 5.9000e+000 69340 -4.2381e+001 -1.1037e+002 -9.5044e+000 67020 69112,69268,69138
 5.9000e+000 69317 -7.6425e+001 -1.3032e+002  7.4164e+000 67020 69138,69190,69164
 5.9000e+000 69294 -7.8165e+001 -1.1880e+002 -6.5475e+000 67020 69138,69216,69190
 5.9000e+000 69536 -1.0831e+002 -2.6548e+002 -2.1125e+001 66708 69435,69487,69461
 5.9000e+000 69513 -7.8815e+001 -2.9851e+002 -3.1690e+000 66708 69409,69487,69435
 5.9000e+000 69735 -7.1862e+001 -1.4292e+002  3.2880e+000 66346 69585,69637,69611
 5.9000e+000 69712 -5.9772e+001 -1.3565e+002 -7.0222e-001 66346 69559,69637,69585
 5.9000e+000 69689 -5.3745e+001 -1.3365e+002 -1.4199e+001 66346 69559,69663,69637
 5.9000e+000 69985 -1.0652e+002 -1.7449e+002  1.9014e+000 66148 69786,69890,69864
 5.9000e+000 69962 -1.1115e+002 -1.7712e+002  3.1269e+000 66148 69760,69890,69786
 5.9000e+000 69939 -8.0121e+001 -1.6383e+002 -2.3609e+001 66148 69786,69864,69838
 5.9000e+000 69916 -9.4077e+001 -1.7617e+002 -6.7482e+000 66148 69786,69838,69812
 5.9000e+000 70137 -5.0035e+001 -1.9456e+002 -1.0737e+001 65950 70036,70088,70062
 5.9000e+000 70114 -4.3196e+001 -2.1545e+002  1.0002e+001 65950 70010,70088,70036
 5.9000e+000 70470 -3.7986e+001 -1.4451e+002  1.0683e+001 65546 70245,70323,70271
 5.9000e+000 70447 -2.7075e+001 -1.2688e+002  4.8810e+000 65546 70245,70375,70323
 5.9000e+000 70424 -3.4829e+001 -1.6383e+002  5.7541e+000 65546 70323,70375,70349
 5.9000e+000 70401 -3.1098e+001 -1.3406e+002  4.7615e+000 65546 70271,70323,70297
 5.9000e+000 70620 -6.6631e+001 -1.6482e+002  5.4741e+000 65348 70493,70545,70519
 5.9000e+000 70597 -5.1886e+001 -1.7496e+002  5.7512e+000 65348 70493,70571,70545
 5.9000e+000 70721 -9.7948e+001 -2.0832e+002 -9.3688e+000 65150 70643,70695,70669
 5.9000e+000 71020 -6.1826e+001 -1.3266e+002  1.0017e+001 64952 71043,70850,70824
 5.9000e+000 70997 -5.3086e+001 -1.2485e+002 -1.2841e+000 64952 71043,70824,70772
 5.9000e+000 70974 -5.5481e+001 -1.6207e+002  3.9084e+000 64952 71115,70746,70876
 5.9000e+000 70951 -4.7742e+001 -1.6410e+002 -5.8317e-001 64952 70746,70902,70876
 5.9000e+000 70928 -5.8884e+001 -1.1046e+002 -1.0822e+001 64952 70772,70824,70798
 5.9000e+000 71069 -3.3332e+001 -1.1467e+002  2.5347e+001 64952 70876,70850,71043
 5.9000e+000 71092 -4.7605e+001 -1.5056e+002  7.3494e+000 64952 71115,70876,71043
 5.9000e+000 71141 -7.2762e+001 -1.4790e+002 -8.1177e+000 64952 70772,70746,71115
 5.9000e+000 71164 -6.2947e+001 -1.3123e+002 -4.0345e+000 64952 70772,71115,71043
 5.9000e+000 71365 -2.8953e+001 -1.8289e+002 -5.3733e+000 64662 71215,71293,71267
 5.9000e+000 71342 -1.7178e+001 -1.3630e+002 -4.7551e-001 64662 71189,71293,71215
 5.9000e+000 71319 -1.1832e-001 -1.1570e+002  3.9647e-002 64662 71215,71267,71241
 5.9000e+000 71615 -4.7660e+001 -1.4868e+002 -1.8665e+000 64350 71710,71638,71468
 5.9000e+000 71592 -5.0559e+001 -1.4533e+002 -5.4965e+000 64350 71638,71416,71390
 5.9000e+000 71569 -5.1334e+001 -1.3811e+002  7.1432e+000 64350 71710,71468,71442
 5.9000e+000 71546  1.4784e+001 -1.4229e+002 -2.0949e+001 64350 71390,71520,71494
 5.9000e+000 71664 -4.3919e+001 -1.4735e+002 -1.0493e+000 64350 71494,71468,71638
 5.9000e+000 71687 -4.3537e+001 -1.5140e+002 -4.1906e-001 64350 71494,71638,71390
 5.9000e+000 71736 -4.1602e+001 -1.2712e+002 -7.1084e-001 64350 71416,71638,71710
 5.9000e+000 71759 -4.3203e+001 -1.1732e+002  1.0652e+001 64350 71416,71710,71442
 5.9000e+000 72318 -4.9029e+001 -2.3439e+002 -9.7670e+000 63837 71972,72024,71998
 5.9000e+000 72295 -6.6847e+001 -1.5253e+002 -6.7913e-001 63837 72341,71972,71946
 5.9000e+000 72272 -6.1263e+001 -1.2347e+002  6.1732e+000 63837 72413,72341,71946
 5.9000e+000 72249 -5.9097e+001 -1.1244e+002  2.7995e+000 63837 72413,71946,72128
 5.9000e+000 72226 -8.3643e+001 -1.3309e+002  8.3716e-001 63837 72024,72076,72050
 5.9000e+000 72203 -7.5508e+001 -1.2278e+002 -4.6852e+000 63837 72024,72102,72076
 5.9000e+000 72180 -4.6313e+001 -1.0806e+002  7.5432e+000 63837 71946,72154,72128
 5.9000e+000 72367 -8.0833e+001 -1.6365e+002 -2.8161e+001 63837 72024,71972,72341
 5.9000e+000 72390 -6.3295e+001 -1.3244e+002 -1.1137e+001 63837 72024,72341,72102
 5.9000e+000 72439 -5.1955e+001 -1.4129e+002  2.4626e+000 63837 72102,72341,72413
 5.9000e+000 72462 -4.9825e+001 -1.2972e+002  4.1575e-001 63837 72102,72413,72128
 5.9000e+000 72791 -7.7759e+001 -1.4454e+002 -1.5420e+001 63383 72592,72696,72670
 5.9000e+000 72768 -7.9155e+001 -1.3606e+002 -2.5530e+001 63383 72566,72696,72592
 5.9000e+000 72745 -7.4510e+001 -1.2630e+002 -1.3703e+000 63383 72592,72670,72618
 5.9000e+000 72722 -7.1662e+001 -1.1699e+002 -2.9669e+000 63383 72618,72670,72644
 5.9000e+000 73297 -8.9837e+001 -1.2657e+002 -6.2698e-001 63185 73000,73156,73130
 5.9000e+000 73274 -9.0250e+001 -1.3135e+002  1.5593e+001 63185 72974,73156,73000
 5.9000e+000 73251 -6.7452e+001 -1.4686e+002 -2.0877e+000 63185 73000,73052,73026
 5.9000e+000 73228 -7.4212e+001 -1.3073e+002 -6.4125e+000 63185 73000,73130,73052
 5.9000e+000 73205 -7.3715e+001 -1.4787e+002 -2.2459e+001 63185 73052,73130,73104
 5.9000e+000 73182 -6.8395e+001 -1.6027e+002 -2.3041e+001 63185 73052,73104,73078
 5.9000e+000 73545 -3.9957e+001 -1.3944e+002  3.3218e+000 62781 73568,73398,73372
 5.9000e+000 73522 -2.2615e+001 -1.2865e+002  1.5293e+001 62781 73568,73372,73346
 5.9000e+000 73499 -5.3942e+001 -1.5680e+002 -1.6234e+001 62781 73640,73320,73424
 5.9000e+000 73476 -5.3667e+001 -9.9813e+001 -2.9661e+001 62781 73320,73450,73424
 5.9000e+000 73594 -4.3913e+001 -1.3241e+002  2.8358e+000 62781 73424,73398,73568
 5.9000e+000 73617 -4.7324e+001 -1.4939e+002 -1.2813e+000 62781 73640,73424,73568
 5.9000e+000 73666 -4.5621e+001 -1.3939e+002 -5.6248e+000 62781 73346,73320,73640
 5.9000e+000 73689 -4.1131e+001 -1.2619e+002  8.0098e+000 62781 73346,73640,73568
 5.9000e+000 74035 -5.4596e+001 -1.4196e+002 -2.7303e+000 62363 74058,73868,73842
 5.9000e+000 74012 -4.8943e+001 -1.2986e+002 -1.1492e+001 62363 74130,74058,73842
 5.9000e+000 73989 -4.4615e+001 -1.2880e+002 -1.2492e+001 62363 74130,73842,73816
 5.9000e+000 73966 -7.1240e+001 -1.4784e+002  1.9355e+000 62363 74202,73764,73894
 5.9000e+000 73943 -9.1483e+001 -1.3551e+002  2.1336e+000 62363 73712,73894,73764
 5.9000e+000 73920 -9.8145e+001 -1.4294e+002 -1.1738e+000 62363 73712,73764,73738
 5.9000e+000 74084 -5.3155e+001 -1.4010e+002 -2.1015e+000 62363 73894,73868,74058
 5.9000e+000 74107 -6.5664e+001 -1.4155e+002  6.3002e+000 62363 74202,73894,74058
 5.9000e+000 74156 -5.4408e+001 -1.3260e+002  3.5694e+000 62363 73790,74058,74130
 5.9000e+000 74179 -3.4098e+001 -1.2507e+002  3.9982e+000 62363 73790,74130,73816
 5.9000e+000 74228 -7.7350e+001 -1.5056e+002 -7.2857e+000 62363 73790,73764,74202
 5.9000e+000 74251 -7.3150e+001 -1.4382e+002 -2.9825e+000 62363 73790,74202,74058
 5.9000e+000 74403 -8.5311e+000 -1.5080e+002  9.6467e+000 62115 74426,74302,74276
 5.9000e+000 74380  1.7236e+001 -1.4518e+002  2.0192e+001 62115 74426,74276,74354
 5.9000e+000 74452 -3.2490e+001 -1.3751e+002  9.4225e+000 62115 74328,74302,74426
 5.9000e+000 74475 -8.6333e+000 -1.3284e+002  2.0647e+001 62115 74328,74426,74354
 5.9000e+000 74578 -2.4830e+000 -8.8206e+001 -1.1492e+000 61825 74500,74552,74526
 5.9000e+000 74982 -7.3872e+001 -1.2883e+002  3.1530e-001 61513 75005,74734,74708
 5.9000e+000 74959 -7.3808e+001 -1.2460e+002 -8.9086e-001 61513 75005,74708,74864
 5.9000e+000 74936 -9.4275e+001 -1.3420e+002  7.0866e+000 61513 75077,74812,74734
 5.9000e+000 74913 -7.7963e+001 -1.2803e+002 -1.1081e+001 61513 74734,74786,74760
 5.9000e+000 74890 -7.8115e+001 -1.1944e+002 -2.1145e+000 61513 74734,74812,74786
 5.9000e+000 75031 -7.1047e+001 -1.3307e+002  4.3031e-001 61513 75077,74734,75005
 5.9000e+000 75054 -5.6456e+001 -1.2722e+002  1.9225e+001 61513 74838,75005,74864
 5.9000e+000 75103 -1.0684e+002 -1.3833e+002  2.8522e+001 61513 74838,74812,75077
 5.9000e+000 75126 -9.1892e+001 -1.4289e+002  2.1845e+001 61513 74838,75077,75005
 5.9000e+000 75553 -3.9037e+001 -1.1878e+002 -5.0246e+000 61060 75576,75360,75308
 5.9000e+000 75530 -3.8559e+001 -1.2663e+002 -4.9788e+000 61060 75576,75308,75230
 5.9000e+000 75507 -3.5661e+001 -1.1559e+002 -2.6647e+000 61060 75308,75360,75334
 5.9000e+000 75484 -5.0635e+001 -1.4826e+002  6.9713e+000 61060 75230,75308,75256
 5.9000e+000 75461 -4.0403e+001 -1.3749e+002  1.7076e+000 61060 75256,75308,75282
 5.9000e+000 75438 -4.4748e+001 -1.1511e+002  1.2215e+001 61060 75360,75412,75386
 5.9000e+000 75602 -3.3316e+001 -1.2529e+002 -4.4801e-001 61060 75412,75360,75576
 5.9000e+000 75625 -3.6781e+001 -1.3904e+002 -1.8818e+000 61060 75412,75576,75230
 5.9000e+000 76052 -5.8635e+001 -1.2480e+002  1.2587e+000 60442 75755,75859,75833
 5.9000e+000 76029 -6.5599e+001 -1.1790e+002 -9.0319e+000 60442 75729,75859,75755
 5.9000e+000 76006 -6.0753e+001 -1.1541e+002  7.0569e+000 60442 75755,75833,75807
 5.9000e+000 75983 -6.0986e+001 -1.3683e+002  2.9388e+000 60442 75755,75807,75781
 5.9000e+000 75960 -6.8766e+000 -2.1815e+002  7.6361e+000 60442 75729,75911,75859
 5.9000e+000 75937 -1.1513e+002 -5.3312e+002  3.3729e+001 60442 75859,75911,75885
 5.9000e+000 76430 -6.1683e+001 -1.5863e+002 -3.7718e+000 59788 76453,76286,76234
 5.9000e+000 76407 -6.7103e+001 -1.8036e+002  3.8793e+000 59788 76453,76234,76182
 5.9000e+000 76384 -6.7223e+001 -1.2152e+002  2.1065e+001 59788 76525,76156,76312
 5.9000e+000 76361 -3.9669e+001 -2.0781e+002 -8.1292e-001 59788 76182,76234,76208
 5.9000e+000 76338 -5.1513e+001 -1.5027e+002  7.8199e-002 59788 76234,76286,76260
 5.9000e+000 76479 -7.2660e+001 -1.7040e+002  3.1363e+000 59788 76312,76286,76453
 5.9000e+000 76502 -6.2135e+001 -1.6141e+002  9.5387e+000 59788 76525,76312,76453
 5.9000e+000 76551 -8.3146e+001 -1.7176e+002  2.1897e+001 59788 76182,76156,76525
 5.9000e+000 76574 -7.3932e+001 -1.8395e+002  1.3818e+001 59788 76182,76525,76453
 5.9000e+000 77031 -4.2891e+001 -9.8525e+001 -1.3195e+001 59448 76835,76887,76861
 5.9000e+000 77008 -1.8343e+001 -8.0080e+001  3.9920e+000 59448 76835,76913,76887
 5.9000e+000 76985 -2.4230e+001 -6.8120e+001  1.3286e+001 59448 76809,76913,76835
 5.9000e+000 76962 -4.7967e+001 -8.9506e+001 -9.1395e-001 59448 76757,76913,76809
 5.9000e+000 76939 -3.9938e+001 -7.9877e+001 -4.3714e+000 59448 76757,76809,76783
 5.9000e+000 77537 -5.8924e+001 -1.2958e+002  6.1236e+000 58994 77560,77344,77292
 5.9000e+000 77514 -8.2879e+001 -1.2645e+002  1.9019e+000 58994 77560,77292,77240
 5.9000e+000 77491 -4.7606e+001 -1.1789e+002 -3.7363e+000 58994 77632,77214,77370
 5.9000e+000 77468 -9.7040e+001 -1.4760e+002  2.4668e+001 58994 77292,77344,77318
 5.9000e+000 77445 -4.8327e+001 -1.5226e+002  4.9228e+000 58994 77214,77396,77370
 5.9000e+000 77422 -8.6027e+001 -1.3793e+002 -2.8005e+000 58994 77240,77292,77266
 5.9000e+000 77586 -6.2461e+001 -1.3008e+002  6.8314e+000 58994 77370,77344,77560
 5.9000e+000 77609 -6.1903e+001 -1.2650e+002  8.4489e+000 58994 77632,77370,77560
 5.9000e+000 77658 -3.9771e+001 -1.0874e+002 -1.6961e+001 58994 77240,77214,77632
 5.9000e+000 77681 -5.0357e+001 -1.0738e+002 -5.9479e+000 58994 77240,77632,77560
 5.9000e+000 78138 -5.3997e+001 -9.4183e+001  1.2526e+001 58440 77864,77994,77890
 5.9000e+000 78115 -3.8110e+001 -6.0314e+001 -6.8901e+000 58440 77864,78020,77994
 5.9000e+000 78092 -6.1673e+001 -1.0963e+002 -9.7519e+000 58440 77942,77994,77968
 5.9000e+000 78069 -4.9669e+001 -1.0448e+002  2.1860e+000 58440 77890,77994,77942
 5.9000e+000 78046 -4.3956e+001 -1.0618e+002 -2.1219e+000 58440 77890,77942,77916
 5.9000e+000 78467 -1.1693e+001 -1.1806e+002  2.1831e+000 57928 78562,78490,78346
 5.9000e+000 78444 -4.4350e+001 -1.1806e+002 -2.3215e+000 57928 78490,78294,78268
 5.9000e+000 78421 -4.3662e+000 -1.2441e+002  8.2653e+000 57928 78562,78346,78320
 5.9000e+000 78398 -1.8924e+001 -1.1442e+002  4.5626e-001 57928 78242,78372,78268
 5.9000e+000 78516 -3.9782e+001 -1.4584e+002 -9.4948e+000 57928 78372,78346,78490
 5.9000e+000 78539 -3.2500e+001 -1.1355e+002 -2.4595e+000 57928 78372,78490,78268
 5.9000e+000 78588 -4.4964e+001 -1.1826e+002 -6.3622e-001 57928 78294,78490,78562
 5.9000e+000 78611 -2.3806e+001 -1.0904e+002  1.0798e+001 57928 78294,78562,78320
 5.9000e+000 79068 -9.0994e+001 -1.9397e+002 -4.8872e+001 57467 78794,78924,78820
 5.9000e+000 79045 -7.0379e+001 -1.8419e+002 -4.4986e+001 57467 78794,78950,78924
 5.9000e+000 79022 -3.6615e+001 -1.7318e+002  1.8353e+001 57467 78820,78898,78872
 5.9000e+000 78999 -6.5596e+001 -2.3999e+002 -2.4791e+001 57467 78820,78924,78898
 5.9000e+000 78976 -2.8803e+001 -1.7670e+002  2.7969e+001 57467 78820,78872,78846
 5.9000e+000 79446 -7.5879e+001 -1.4088e+002 -1.2925e+000 57120 79172,79302,79250
 5.9000e+000 79423 -6.9261e+001 -1.3781e+002 -6.3894e+000 57120 79172,79328,79302
 5.9000e+000 79400 -6.9887e+001 -1.2341e+002 -5.8603e+000 57120 79172,79250,79198
 5.9000e+000 79377 -5.4592e+001 -1.7576e+002  5.0886e+000 57120 79250,79302,79276
 5.9000e+000 79354 -8.1682e+001 -1.3356e+002 -1.1304e+001 57120 79198,79250,79224
 5.9000e+000 79952 -1.0279e+002 -1.6323e+002  4.3679e-001 56773 79629,79785,79655
 5.9000e+000 79929 -2.9419e+001 -1.4059e+002  7.0291e+000 56773 79629,79811,79785
 5.9000e+000 79906 -7.9840e+001 -1.7528e+002  1.1973e+001 56773 79655,79733,79681
 5.9000e+000 79883 -7.8147e+001 -1.5596e+002  3.3164e+000 56773 79655,79785,79733
 5.9000e+000 79860 -7.4521e+001 -2.0715e+002 -2.3784e+001 56773 79733,79785,79759
 5.9000e+000 79837 -4.3266e+001 -1.5827e+002  3.2221e+001 56773 79681,79733,79707
 5.9000e+000 80281 -3.8958e+001 -1.1526e+002 -9.7883e+000 56319 80108,80160,80134
 5.9000e+000 80258 -4.0636e+001 -1.2576e+002 -1.1720e+001 56319 80056,80160,80108
 5.9000e+000 80235 -1.9567e+001 -1.1179e+002  6.2184e+000 56319 80056,80186,80160
 5.9000e+000 80212 -5.2511e+001 -1.5961e+002 -8.4855e+000 56319 80056,80108,80082
 5.9000e+000 80738 -2.1581e+001 -1.4538e+002  7.6984e+000 55957 80516,80620,80594
 5.9000e+000 80715 -5.3758e+001 -1.3268e+002  5.6961e+000 55957 80464,80620,80516
 5.9000e+000 80692 -4.5078e+001 -1.5868e+002  8.4612e+000 55957 80761,80568,80542
 5.9000e+000 80669 -3.8153e+001 -1.5618e+002  9.8743e+000 55957 80761,80542,80516
 5.9000e+000 80646 -5.2570e+001 -1.2951e+002  1.6852e+001 55957 80464,80516,80490
 5.9000e+000 80787 -5.1949e+001 -1.5756e+002  6.2065e+000 55957 80594,80568,80761
 5.9000e+000 80810 -4.5441e+001 -1.5524e+002  7.6917e+000 55957 80594,80761,80516
 5.9000e+000 81210 -4.7724e+001 -1.5169e+002 -1.2787e+001 55317 80936,80988,80962
 5.9000e+000 81187 -4.0609e+001 -1.6100e+002  5.4851e-001 55317 80936,81066,80988
 5.9000e+000 81164 -3.4429e+001 -1.7310e+002  4.2602e+000 55317 80936,81092,81066
 5.9000e+000 81141 -5.7880e+001 -1.7262e+002 -1.4394e+001 55317 80988,81066,81014
 5.9000e+000 81118 -1.3402e+001 -9.9667e+001  1.0966e+001 55317 81014,81066,81040
 5.9000e+000 81539 -6.6058e+001 -1.4307e+002  2.2362e+000 54913 81340,81418,81392
 5.9000e+000 81516 -2.8166e+001 -1.1719e+002 -9.8491e+000 54913 81340,81444,81418
 5.9000e+000 81493 -4.1301e+001 -1.2549e+002 -1.8562e+001 54913 81314,81444,81340
 5.9000e+000 81470 -7.5992e+001 -1.5264e+002 -1.7656e+000 54913 81340,81392,81366
 5.9000e+000 81787 -3.8391e+001 -1.5271e+002 -1.4646e+000 54601 81588,81692,81640
 5.9000e+000 81764 -5.8164e+001 -1.5500e+002 -5.7725e+000 54601 81562,81692,81588
 5.9000e+000 81741 -3.3831e+001 -1.5627e+002  1.8977e+001 54601 81588,81640,81614
 5.9000e+000 81718 -3.9324e+001 -1.8109e+002 -1.6328e+001 54601 81640,81692,81666
 5.9000e+000 82344 -5.4430e+001 -1.4948e+002 -7.2512e+000 54090 81998,82102,82076
 5.9000e+000 82321 -7.3672e+001 -1.5787e+002 -4.4987e+000 54090 81998,82154,82102
 5.9000e+000 82298 -6.7923e+001 -1.5484e+002 -2.9494e+000 54090 81972,82154,81998
 5.9000e+000 82275 -7.7016e+001 -1.3934e+002 -8.5494e+000 54090 81998,82076,82024
 5.9000e+000 82252 -8.2586e+001 -1.6512e+002  7.8815e+000 54090 81972,82180,82154
 5.9000e+000 82229 -1.0472e+002 -1.9499e+002  1.2155e+001 54090 82102,82154,82128
 5.9000e+000 82206 -1.4846e+001 -1.0600e+002 -2.1745e+001 54090 82024,82076,82050
 5.9000e+000 82722 -9.9305e+001 -1.7844e+002 -5.6003e+000 53579 82500,82578,82552
 5.9000e+000 82699 -7.5969e+001 -1.6337e+002  3.8414e+000 53579 82448,82578,82500
 5.9000e+000 82676 -8.3993e+001 -1.8401e+002  5.6642e+000 53579 82448,82500,82474
 5.9000e+000 82653 -9.6174e+001 -1.7404e+002  1.2400e+001 53579 82448,82604,82578
 5.9000e+000 82630 -5.3983e+001 -1.6613e+002 -6.2128e+000 53579 82500,82552,82526
 5.9000e+000 83356 -5.0756e+001 -1.3129e+002 -1.1882e+001 53189 83379,83088,83036
 5.9000e+000 83333 -4.8899e+001 -1.4814e+002 -1.0492e+001 53189 83379,83036,82984
 5.9000e+000 83310 -2.1967e+001 -1.3814e+002  2.2058e+001 53189 82984,83192,83166
 5.9000e+000 83287 -1.8799e+000 -1.0912e+002 -6.9689e+000 53189 83036,83088,83062
 5.9000e+000 83264 -3.6536e+001 -1.6502e+002 -2.2930e+001 53189 82984,83036,83010
 5.9000e+000 83241 -3.7648e+001 -1.6531e+002  4.7657e+000 53189 83114,83166,83140
 5.9000e+000 83218 -6.9949e+001 -1.7325e+002  3.6682e+000 53189 83088,83166,83114
 5.9000e+000 83405 -5.1186e+001 -1.4260e+002 -4.9752e+000 53189 83166,83088,83379
 5.9000e+000 83428 -4.6754e+001 -1.5743e+002 -4.6623e+000 53189 83166,83379,82984
 5.9000e+000 83725 -6.2046e+001 -1.7781e+002 -1.8547e+001 52585 83748,83529,83503
 5.9000e+000 83702 -4.5517e+001 -1.7249e+002 -1.2445e+001 52585 83820,83748,83503
 5.9000e+000 83679 -3.0072e+001 -1.6554e+002 -9.4165e+000 52585 83820,83503,83477
 5.9000e+000 83656 -2.1347e+001 -1.4761e+002  1.6980e+001 52585 83477,83607,83581
 5.9000e+000 83633  9.8383e+000 -1.3359e+002  2.0061e+001 52585 83451,83607,83477
 5.9000e+000 83774 -5.3967e+001 -1.5724e+002 -1.5741e+001 52585 83555,83529,83748
 5.9000e+000 83797 -7.1818e+001 -1.6888e+002 -1.0679e+001 52585 83555,83748,83581
 5.9000e+000 83846 -6.0103e+001 -1.5893e+002 -4.2464e+000 52585 83581,83748,83820
 5.9000e+000 83869 -4.9773e+001 -1.5555e+002 -3.0501e+000 52585 83581,83820,83477
 5.9000e+000 84200 -4.5294e+001 -1.5774e+002 -5.8559e+000 52024 84001,84105,84079
 5.9000e+000 84177 -2.3902e+001 -1.5425e+002 -1.1892e+001 52024 83975,84105,84001
 5.9000e+000 84154 -3.8865e+001 -1.5820e+002 -4.5159e+000 52024 84001,84079,84053
 5.9000e+000 84131 -1.8955e+001 -1.0639e+002  1.8363e+001 52024 84001,84053,84027
 5.9000e+000 84399 -4.1894e+001 -1.5778e+002 -2.1025e+000 51470 84422,84275,84249
 5.9000e+000 84376 -4.0773e+001 -1.5388e+002 -1.2578e+000 51470 84422,84249,84223
 5.9000e+000 84353 -4.5552e+001 -1.6834e+002 -2.3969e+001 51470 84275,84327,84301
 5.9000e+000 84448 -4.3222e+001 -1.5429e+002 -2.4055e+000 51470 84327,84275,84422
 5.9000e+000 84471 -4.2677e+001 -1.5117e+002 -1.5771e+000 51470 84327,84422,84223
 5.9000e+000 84753 -4.5333e+001 -1.3050e+002 -6.2169e-001 51073 84603,84655,84629
 5.9000e+000 84730 -9.2716e+001 -1.5265e+002 -6.9539e+000 51073 84776,84655,84603
 5.9000e+000 84707 -2.3305e+001 -1.3226e+002 -3.6205e+001 51073 84577,84681,84655
 5.9000e+000 84802 -6.0292e+001 -1.3413e+002 -1.7539e+001 51073 84577,84655,84776
 5.9000e+000 85178 -8.6626e+001 -1.9310e+002  1.7177e+001 50519 85201,85008,84982
 5.9000e+000 85155 -8.2059e+001 -1.8039e+002  1.3894e+001 50519 85273,85201,84982
 5.9000e+000 85132 -7.8163e+001 -1.7998e+002  1.1458e+001 50519 85273,84982,84930
 5.9000e+000 85109 -7.5327e+001 -1.7340e+002  9.6413e+000 50519 84930,84982,84956
 5.9000e+000 85086 -7.6096e+001 -1.8678e+002  8.6548e+000 50519 85008,85060,85034
 5.9000e+000 85227 -7.5279e+001 -1.8542e+002  8.3058e+000 50519 85060,85008,85201
 5.9000e+000 85250 -8.1980e+001 -1.8619e+002  6.4601e+000 50519 85060,85201,84904
 5.9000e+000 85299 -7.8403e+001 -1.8326e+002  5.1523e+000 50519 84904,85201,85273
 5.9000e+000 85322 -6.3046e+001 -1.6185e+002 -1.6042e+000 50519 84904,85273,84930
 5.9000e+000 85958 -5.5426e+001 -1.6274e+002 -5.0242e+000 50093 85981,85768,85716
 5.9000e+000 85935 -4.9449e+001 -1.4835e+002 -4.9079e+000 50093 85981,85716,85612
 5.9000e+000 85912 -6.7884e+001 -1.5302e+002  3.3497e+000 50093 85612,85716,85664
 5.9000e+000 85889 -4.3558e+001 -1.5853e+002 -1.5462e+000 50093 85716,85768,85742
 5.9000e+000 85866 -5.6538e+001 -1.1903e+002 -3.1350e+001 50093 85664,85716,85690
 5.9000e+000 85843 -1.9947e+001 -1.1243e+002 -4.9339e+000 50093 85586,85794,85612
 5.9000e+000 85820 -4.6163e+001 -2.0807e+002  1.8466e+001 50093 85612,85664,85638
 5.9000e+000 86007 -6.7911e+001 -1.7542e+002 -2.5704e+001 50093 85794,85768,85981
 5.9000e+000 86030 -4.9197e+001 -1.3325e+002 -2.0373e+001 50093 85794,85981,85612
 5.9000e+000 86131 -5.1095e+001 -1.5340e+002  2.0413e+001 49895 86053,86105,86079
 5.9000e+000 86639 -4.2338e+001 -1.1311e+002 -2.2506e+001 49391 86662,86394,86368
 5.9000e+000 86616 -5.0201e+001 -1.3902e+002 -2.0384e+001 49391 86662,86368,86342
 5.9000e+000 86593 -2.5443e+001 -1.3837e+002 -5.7102e+000 49391 86342,86498,86472
 5.9000e+000 86570 -1.6892e+001 -1.4873e+002 -6.3769e+000 49391 86316,86498,86342
 5.9000e+000 86547 -7.8458e+001 -2.1185e+002 -7.7632e+000 49391 86394,86472,86446
 5.9000e+000 86524 -9.5539e+000 -2.0247e+002  2.4231e+000 49391 86394,86446,86420
 5.9000e+000 86688 -4.6683e+001 -1.3723e+002 -1.1311e+001 49391 86472,86394,86662
 5.9000e+000 86711 -4.2477e+001 -1.4841e+002 -1.1122e+001 49391 86472,86662,86342
 5.9000e+000 87089 -6.0271e+001 -1.6079e+002  4.5946e+000 48987 86815,86919,86867
 5.9000e+000 87066 -5.9871e+001 -1.6653e+002  7.4758e+000 48987 86815,86971,86919
 5.9000e+000 87043 -2.3650e+001 -1.7606e+002 -1.4559e+001 48987 86867,86919,86893
 5.9000e+000 87020 -6.7911e+001 -1.8209e+002  1.5816e+001 48987 86815,86867,86841
 5.9000e+000 86997 -6.6373e+001 -1.4301e+002  2.3221e+001 48987 86919,86971,86945
 5.9000e+000 87467 -1.1098e+002 -1.6243e+002  8.9782e+000 48540 87490,87245,87219
 5.9000e+000 87444 -7.9010e+001 -1.5278e+002  1.6756e+000 48540 87562,87490,87219
 5.9000e+000 87421 -6.0847e+001 -1.4544e+002  7.0143e+000 48540 87562,87219,87349
 5.9000e+000 87398 -8.1822e+001 -1.2574e+002 -5.2928e+000 48540 87245,87297,87271
 5.9000e+000 87375 -5.2442e+001 -1.5238e+002  5.2177e+000 48540 87193,87349,87219
 5.9000e+000 87516 -7.5315e+001 -1.5251e+002  4.8761e+000 48540 87297,87245,87490
 5.9000e+000 87539 -7.6519e+001 -1.5620e+002  4.5840e+000 48540 87297,87490,87323
 5.9000e+000 87588 -6.1520e+001 -1.4520e+002  1.3620e+001 48540 87323,87490,87562
 5.9000e+000 87611 -5.2688e+001 -1.4719e+002  1.7167e+001 48540 87323,87562,87349
 5.9000e+000 87810 -7.1066e+001 -2.5255e+002 -1.8056e+001 48136 87660,87712,87686
 5.9000e+000 87787 -3.9752e+001 -1.4756e+002 -8.7877e+000 48136 87660,87738,87712
 5.9000e+000 87764 -9.3719e+001 -1.5334e+002 -2.5292e+001 48136 87634,87738,87660
 5.9000e+000 88205 -7.0845e+001 -1.7200e+002 -1.6718e+001 47210 88300,88228,87937
 5.9000e+000 88182 -6.1881e+001 -1.6594e+002 -5.2688e+000 47210 88228,87833,88041
 5.9000e+000 88159 -7.2328e+001 -1.8525e+002 -2.5614e+001 47210 88300,87937,87911
 5.9000e+000 88136 -6.8374e+001 -1.6554e+002 -2.0401e+001 47210 87833,87911,87859
 5.9000e+000 88113 -1.2055e+002 -1.5262e+002 -1.6210e+001 47210 87937,87989,87963
 5.9000e+000 88090 -6.0330e+001 -1.3629e+002  2.8505e+001 47210 87989,88041,88015
 5.9000e+000 88067 -7.9554e+001 -1.9363e+002 -2.6916e+001 47210 87859,87911,87885
 5.9000e+000 88254 -6.2756e+001 -1.3971e+002 -1.7368e+001 47210 87989,87937,88228
 5.9000e+000 88277 -7.5667e+001 -1.6352e+002 -6.9722e+000 47210 87989,88228,88041
 5.9000e+000 88326 -5.9235e+001 -1.5987e+002 -6.3905e+000 47210 87833,88228,88300
 5.9000e+000 88349 -6.2430e+001 -1.6851e+002 -1.6034e+001 47210 87833,88300,87911
 5.9000e+000 88780 -9.8747e+001 -1.7656e+002 -3.2891e+001 46642 88803,88509,88483
 5.9000e+000 88757 -7.1962e+001 -1.5966e+002 -1.7717e+001 46642 88803,88483,88639
 5.9000e+000 88734 -7.8964e+001 -1.3083e+002 -2.0943e+001 46642 88875,88561,88509
 5.9000e+000 88711 -8.0045e+001 -1.2076e+002 -3.3381e+000 46642 88509,88561,88535
 5.9000e+000 88688 -4.6226e+001 -1.7880e+002  7.6434e-001 46642 88457,88639,88483
 5.9000e+000 88665 -9.1656e+001 -2.1320e+002 -9.2332e+000 46642 88561,88613,88587
 5.9000e+000 88829 -7.9685e+001 -1.4288e+002 -2.3616e+001 46642 88875,88509,88803
 5.9000e+000 88852 -7.8343e+001 -1.7195e+002 -1.5436e+001 46642 88613,88803,88639
 5.9000e+000 88901 -6.4900e+001 -1.4743e+002 -1.0876e+001 46642 88613,88561,88875
 5.9000e+000 88924 -7.0933e+001 -1.6685e+002 -1.3155e+001 46642 88613,88875,88803
 5.9000e+000 89253 -3.1177e+001 -1.6201e+002  3.2480e+000 46444 89080,89158,89132
 5.9000e+000 89230 -3.4158e+001 -1.6807e+002  1.0605e+000 46444 89028,89158,89080
 5.9000e+000 89207 -1.3770e+001 -1.5128e+002 -6.1583e+000 46444 89028,89080,89054
 5.9000e+000 89184 -1.1614e+001 -1.7540e+002 -1.4434e+001 46444 89080,89132,89106
 5.9000e+000 89631 -4.9533e+001 -1.1311e+002  3.2787e+000 46040 89383,89461,89435
 5.9000e+000 89608 -5.2203e+001 -1.2502e+002 -6.8802e+000 46040 89383,89487,89461
 5.9000e+000 89585 -5.3979e+001 -1.4582e+002 -3.5304e+000 46040 89383,89435,89409
 5.9000e+000 89562 -4.1485e+001 -1.0721e+002 -1.4464e+001 46040 89383,89513,89487
 5.9000e+000 89539 -1.6714e+001 -9.4909e+001 -2.0200e+001 46040 89357,89513,89383
 5.9000e+000 90009 -5.2535e+001 -1.4472e+002 -3.0303e-001 45636 89813,89891,89839
 5.9000e+000 89986 -5.3900e+001 -1.3456e+002  8.3342e+000 45636 89787,89891,89813
 5.9000e+000 89963 -4.7822e+001 -1.3616e+002 -3.2959e+000 45636 89839,89891,89865
 5.9000e+000 89940 -6.1675e+001 -1.5017e+002  5.1889e+000 45636 89735,89891,89787
 5.9000e+000 89917 -4.9423e+001 -1.5167e+002 -5.5920e+000 45636 89735,89787,89761
 5.9000e+000 90208 -3.2485e+001 -1.1113e+002 -2.2359e+001 45175 90231,90058,90032
 5.9000e+000 90185 -1.9131e+001 -1.0138e+002 -3.3500e+001 45175 90231,90032,90136
 5.9000e+000 90162 -3.7897e+001 -8.7919e+001 -1.0091e+000 45175 90058,90110,90084
 5.9000e+000 90257 -4.7310e+001 -1.2509e+002 -5.5442e+000 45175 90110,90058,90231
 5.9000e+000 90280 -2.1830e+001 -1.0809e+002 -1.7986e+001 45175 90110,90231,90136
 5.9000e+000 90528 -3.5587e+001 -1.1295e+002 -1.5216e+001 44513 90695,90551,90407
 5.9000e+000 90505 -3.8927e+001 -1.0285e+002 -9.5113e+000 44513 90551,90355,90329
 5.9000e+000 90482 -4.4381e+001 -1.1006e+002 -1.4346e+001 44513 90623,90303,90433
 5.9000e+000 90459 -2.8877e+001 -1.0495e+002 -1.0655e+001 44513 90695,90407,90381
 5.9000e+000 90577 -5.1091e+001 -1.1783e+002 -2.5798e+001 44513 90433,90407,90551
 5.9000e+000 90600 -4.3886e+001 -1.0779e+002 -1.3953e+001 44513 90623,90433,90551
 5.9000e+000 90649 -4.3278e+001 -1.0733e+002 -1.4155e+001 44513 90329,90303,90623
 5.9000e+000 90672 -4.3929e+001 -1.0676e+002 -1.4036e+001 44513 90329,90623,90551
 5.9000e+000 90721 -4.4611e+001 -1.0192e+002 -1.7476e+001 44513 90355,90551,90695
 5.9000e+000 90744 -4.3093e+001 -9.7568e+001 -1.5656e+001 44513 90355,90695,90381
 5.9000e+000 91077  3.6859e+000 -1.1709e+002 -7.1312e+000 44059 91100,90930,90904
 5.9000e+000 91054 -4.6509e+001 -1.2679e+002  8.3227e+000 44059 91100,90904,90982
 5.9000e+000 91031 -8.2676e+001 -1.4604e+002 -8.5239e+000 44059 90878,90982,90904
 5.9000e+000 91008 -2.9066e+001 -1.1298e+002  6.0994e+000 44059 90852,90982,90878
 5.9000e+000 91126 -7.6199e+001 -1.3867e+002 -6.9391e+000 44059 91172,91100,90956
 5.9000e+000 91149 -4.5797e+001 -1.2819e+002 -5.2508e+000 44059 90956,91100,90982
 5.9000e+000 91198  4.1185e+000 -5.5316e+001 -3.9652e+001 44059 90930,91100,91172
 5.9000e+000 91677 -5.6112e+001 -8.8279e+001  8.1566e+000 43549 91455,91533,91481
 5.9000e+000 91654 -2.0650e+001 -8.7891e+001  1.2027e+001 43549 91429,91533,91455
 5.9000e+000 91631 -5.4329e+001 -8.8794e+001  3.5910e+000 43549 91481,91533,91507
 5.9000e+000 91608 -1.1052e+001 -8.4005e+001  5.1871e+000 43549 91429,91559,91533
 5.9000e+000 91585  2.5544e+000 -2.2091e+001 -8.5466e-001 43549 91403,91559,91429
 5.9000e+000 92006 -6.0966e+001 -1.4681e+002  1.0692e+000 43059 91781,91885,91807
 5.9000e+000 91983 -6.3632e+001 -1.3878e+002  2.3612e+001 43059 91781,91911,91885
 5.9000e+000 91960 -5.9983e+001 -1.4556e+002  4.4275e-001 43059 91807,91885,91833
 5.9000e+000 91937 -3.9771e+001 -1.3746e+002 -1.0636e+000 43059 91833,91885,91859
 5.9000e+000 92561 -4.2406e+001 -9.5654e+001 -1.0839e+001 42598 92584,92215,92189
 5.9000e+000 92538 -4.6931e+001 -1.0725e+002 -9.6042e+000 42598 92656,92584,92189
 5.9000e+000 92515 -4.1762e+001 -1.2131e+002 -2.4960e+000 42598 92656,92189,92397
 5.9000e+000 92492 -5.8941e+001 -8.5138e+001 -1.3628e+001 42598 92241,92319,92293
 5.9000e+000 92469 -5.2556e+001 -1.0098e+002  6.9626e+000 42598 92319,92397,92371
 5.9000e+000 92446 -1.6652e+001 -1.2349e+002  5.7137e+001 42598 92319,92371,92345
 5.9000e+000 92423 -5.6200e+001 -8.7725e+001 -2.0276e+001 42598 92241,92293,92267
 5.9000e+000 92610 -4.6636e+001 -9.7634e+001 -1.1365e+001 42598 92241,92215,92584
 5.9000e+000 92633 -4.1983e+001 -8.6998e+001 -1.3077e+001 42598 92241,92584,92319
 5.9000e+000 92682 -4.2337e+001 -8.8392e+001 -6.6101e+000 42598 92319,92584,92656
 5.9000e+000 92705 -3.4062e+001 -9.8156e+001 -1.3038e+000 42598 92319,92656,92397
 5.9000e+000 92953 -6.2182e+001 -1.5696e+002  8.4830e+000 42094 92976,92806,92780
 5.9000e+000 92930 -6.8964e+001 -1.4834e+002  6.3871e-002 42094 92976,92780,92754
 5.9000e+000 92907 -1.9374e+001 -1.5163e+002 -6.2485e-001 42094 93048,92832,92806
 5.9000e+000 92884 -8.5390e+001 -1.5034e+002 -9.3418e+000 42094 92728,92858,92754
 5.9000e+000 93002 -4.2109e+001 -1.4586e+002  4.1522e+000 42094 93048,92806,92976
 5.9000e+000 93025 -6.3373e+001 -1.4537e+002 -2.2356e+000 42094 92858,92976,92754
 5.9000e+000 93074 -5.1150e+001 -1.6298e+002 -9.3814e-001 42094 92858,92832,93048
 5.9000e+000 93097 -6.9548e+001 -1.5442e+002  1.8210e+000 42094 92858,93048,92976
 5.9000e+000 93605 -6.1751e+001 -1.7784e+002 -7.5399e+000 41846 93628,93412,93386
 5.9000e+000 93582 -4.9007e+001 -1.3292e+002 -2.9966e+000 41846 93628,93386,93308
 5.9000e+000 93559 -6.9403e+001 -1.3702e+002 -3.0677e+001 41846 93700,93464,93438
 5.9000e+000 93536 -7.1031e+001 -1.8800e+002  1.0836e+000 41846 93308,93386,93334
 5.9000e+000 93513 -8.7275e+001 -1.2584e+002 -2.8055e+001 41846 93334,93386,93360
 5.9000e+000 93490 -6.3208e+001 -1.2097e+002 -3.2636e+001 41846 93282,93464,93308
 5.9000e+000 93654 -5.5002e+001 -1.4175e+002 -1.3997e+001 41846 93438,93412,93628
 5.9000e+000 93677 -7.2103e+001 -1.4130e+002 -1.3609e+001 41846 93700,93438,93628
 5.9000e+000 93726 -6.0660e+001 -1.1620e+002 -3.1093e+001 41846 93308,93464,93700
 5.9000e+000 93749 -6.0466e+001 -1.1379e+002 -1.4299e+001 41846 93308,93700,93628
 5.9000e+000 94255 -5.5119e+001 -1.5045e+002  9.7381e+000 41385 93958,94114,94088
 5.9000e+000 94232 -4.7090e+001 -1.6175e+002  4.1615e+000 41385 93932,94114,93958
 5.9000e+000 94209 -8.8329e+001 -1.7303e+002  2.8114e+001 41385 93958,94088,94062
 5.9000e+000 94186 -9.2477e+001 -1.2537e+002  2.0970e+001 41385 93958,94062,93984
 5.9000e+000 94163 -7.6962e+001 -1.2336e+002  1.7210e+001 41385 93984,94062,94036
 5.9000e+000 94140 -5.3363e+001 -1.6323e+002  2.4527e+001 41385 93984,94036,94010
 5.9000e+000 94476 -2.0635e+001 -2.0433e+002  1.0987e+001 40881 94326,94378,94352
 5.9000e+000 94453 -3.4988e+001 -1.6641e+002  1.3553e+001 40881 94300,94378,94326
 5.9000e+000 94430 -4.5561e+001 -1.5434e+002  1.6566e+000 40881 94300,94404,94378
 5.9000e+000 94626 -3.5788e+001 -1.0917e+002 -2.7752e+000 40591 94649,94551,94525
 5.9000e+000 94603 -2.0998e+001 -6.3511e+001  2.8864e+000 40591 94781,94577,94551
 5.9000e+000 94675 -1.0097e+001 -7.6963e+001 -1.4840e+001 40591 94781,94551,94649
 5.9000e+000 94807  6.4360e+000 -3.8412e+001  1.7280e+001 40591 94499,94577,94781
 5.9000e+000 94830  1.0288e+001 -6.4494e+001 -1.6121e+000 40591 94499,94781,94649
 5.9000e+000 95336 -1.1568e+002 -1.4070e+002 -2.5163e+001 40187 95013,95169,95039
 5.9000e+000 95313 -3.1195e+001 -1.2681e+002  1.5029e+000 40187 95013,95195,95169
 5.9000e+000 95290 -2.1951e+001 -1.3546e+002 -1.8097e+001 40187 95039,95143,95065
 5.9000e+000 95267 -8.0458e+001 -1.5906e+002 -2.4599e+001 40187 95039,95169,95143
 5.9000e+000 95244 -2.3081e+001 -9.3733e+001 -7.4260e+000 40187 95091,95143,95117
 5.9000e+000 95221 -6.7646e+000 -5.8372e+001 -3.0361e+000 40187 95065,95143,95091
 5.9000e+000 95665 -3.4708e+001 -9.4953e+001  5.1929e+001 39626 95466,95570,95544
 5.9000e+000 95642 -7.2076e+001 -7.4576e+001  3.3801e+001 39626 95440,95570,95466
 5.9000e+000 95619 -1.1946e+002 -1.3467e+002  3.4905e+001 39626 95466,95544,95492
 5.9000e+000 95596 -1.6741e+001 -1.0115e+002  5.2390e+001 39626 95492,95544,95518
 5.9000e+000 95913 -5.9433e+001 -1.2510e+002 -1.8075e+001 39136 96080,95936,95766
 5.9000e+000 95890 -4.1078e+001 -1.3469e+002 -1.1669e+001 39136 95936,95714,95688
 5.9000e+000 95867 -1.0202e+002 -1.3493e+002  5.9452e+000 39136 96008,95792,95766
 5.9000e+000 95844 -4.9529e+001 -1.2160e+002 -1.3478e+001 39136 96080,95766,95740
 5.9000e+000 95962 -8.0953e+001 -1.3933e+002 -1.1510e+001 39136 96008,95766,95936
 5.9000e+000 95985 -5.3063e+001 -1.6475e+002 -3.1115e+000 39136 95818,95936,95688
 5.9000e+000 96034 -5.1333e+001 -1.1295e+002  8.5739e+000 39136 95818,95792,96008
 5.9000e+000 96057 -4.5768e+001 -1.2370e+002 -8.5848e+000 39136 95818,96008,95936
 5.9000e+000 96106 -5.4332e+001 -1.2346e+002 -4.8478e+000 39136 95714,95936,96080
 5.9000e+000 96129 -3.8899e+001 -1.1938e+002 -1.2240e+000 39136 95714,96080,95740
 5.9000e+000 96350 -4.0112e+001 -1.0319e+002 -6.9395e+000 38824 96200,96278,96252
 5.9000e+000 96327 -3.3620e+001 -9.9427e+001 -5.3289e+000 38824 96174,96278,96200
 5.9000e+000 96304 -4.6347e+000 -9.1942e+001 -1.9680e+001 38824 96200,96252,96226
 5.9000e+000 96830 -5.7814e+001 -1.0753e+002 -8.9611e+000 38320 97069,96536,96484
 5.9000e+000 96807 -5.6893e+001 -1.0888e+002 -8.8796e+000 38320 97069,96484,96853
 5.9000e+000 96784 -6.4601e+001 -1.1697e+002  1.8184e-001 38320 96853,96484,96458
 5.9000e+000 96761 -3.5407e+001 -9.3241e+001 -1.3103e+001 38320 96925,96640,96614
 5.9000e+000 96738 -5.5659e+001 -9.6792e+001 -6.1255e+000 38320 96997,96666,96640
 5.9000e+000 96715 -4.7853e+001 -1.2801e+002 -4.3647e+000 38320 97141,96588,96562
 5.9000e+000 96692 -7.3039e+001 -1.2407e+002 -2.2164e+000 38320 96484,96536,96510
 5.9000e+000 96879 -5.7693e+001 -1.1641e+002 -5.6796e+000 38320 97141,96562,96853
 5.9000e+000 96902 -5.3282e+001 -1.1269e+002 -5.6273e+000 38320 96925,96614,96853
 5.9000e+000 96951 -5.4571e+001 -9.5763e+001 -6.9158e+000 38320 96997,96640,96925
 5.9000e+000 96974 -5.1894e+001 -9.4810e+001 -5.0480e+000 38320 96458,96925,96853
 5.9000e+000 97023 -6.0791e+001 -9.8280e+001 -3.4387e+000 38320 96458,96666,96997
 5.9000e+000 97046 -5.6862e+001 -9.6153e+001 -4.3379e+000 38320 96458,96997,96925
 5.9000e+000 97095 -5.9614e+001 -1.0441e+002 -3.2108e+000 38320 96562,96536,97069
 5.9000e+000 97118 -5.4633e+001 -1.0801e+002 -7.9311e+000 38320 96562,97069,96853
 5.9000e+000 97167 -3.0856e+001 -1.1719e+002 -9.2577e+000 38320 96614,96588,97141
 5.9000e+000 97190 -4.7044e+001 -1.1015e+002 -9.1331e+000 38320 96614,97141,96853
 5.9000e+000 97519 -4.3474e+001 -1.4298e+002  3.9825e+001 37766 97542,97398,97372
 5.9000e+000 97496 -5.1566e+001 -1.1019e+002  2.8774e+001 37766 97542,97372,97346
 5.9000e+000 97473 -5.2017e+001 -1.1781e+002  1.6348e+000 37766 97294,97424,97346
 5.9000e+000 97450 -5.9027e+001 -1.3731e+002  2.1009e-001 37766 97294,97346,97320
 5.9000e+000 97568 -2.2175e+001 -1.5176e+002  1.2443e+001 37766 97424,97398,97542
 5.9000e+000 97591 -3.5260e+001 -1.1364e+002  3.4815e+000 37766 97424,97542,97346
 5.9000e+000 98048 -5.8287e+001 -8.5472e+001 -2.8577e+001 37262 98071,97878,97852
 5.9000e+000 98025 -4.8902e+001 -1.0292e+002 -1.1264e+001 37262 98071,97852,97800
 5.9000e+000 98002 -5.2798e+001 -1.2424e+002 -1.3798e+001 37262 97800,97852,97826
 5.9000e+000 97979 -5.4804e+001 -1.1091e+002  1.2588e+000 37262 97800,97930,97904
 5.9000e+000 97956 -3.6604e+001 -1.2814e+002  7.0072e+000 37262 97774,97930,97800
 5.9000e+000 98097 -8.4214e+001 -9.8046e+001 -2.0513e+001 37262 97904,97878,98071
 5.9000e+000 98120 -6.2978e+001 -1.1676e+002 -4.6808e+000 37262 97904,98071,97800
 5.9000e+000 98449 -3.5316e+001 -8.9484e+001 -1.0598e+001 36950 98472,98302,98250
 5.9000e+000 98426 -2.2271e+001 -8.5730e+001 -1.2913e+001 36950 98472,98250,98354
 5.9000e+000 98403 -5.3863e+001 -1.0108e+002  1.1411e+001 36950 98250,98302,98276
 5.9000e+000 98380 -1.4461e+001 -6.7002e+001  8.2025e+000 36950 98224,98354,98250
 5.9000e+000 98498 -2.5624e+001 -9.9654e+001 -2.9443e+000 36950 98328,98302,98472
 5.9000e+000 98521 -1.0468e+001 -9.4018e+001 -7.4474e+000 36950 98328,98472,98354
 5.9000e+000 99125 -6.0324e+001 -5.9935e+001  3.4514e+000 36296 98704,98756,98730
 5.9000e+000 99102 -6.9118e+001 -6.7210e+001  7.1002e+000 36296 98704,98938,98756
 5.9000e+000 99079 -4.8441e+001 -8.7917e+001 -2.2875e+000 36296 99148,98938,98912
 5.9000e+000 99056 -5.0566e+001 -9.1453e+001  2.0989e+001 36296 99292,99220,98782
 5.9000e+000 99033 -4.2315e+001 -1.0392e+002  2.5844e+000 36296 99148,98912,98834
 5.9000e+000 99010 -4.9582e+001 -7.9046e+001  2.4343e+001 36296 99292,98782,98756
 5.9000e+000 98987 -4.0947e+001 -1.8211e+002 -3.3291e+001 36296 98834,98912,98886
 5.9000e+000 98964 -6.7577e+001 -2.6032e+002 -4.2693e+001 36296 98834,98886,98860
 5.9000e+000 99174 -6.0420e+001 -1.1041e+002  3.6894e+000 36296 99220,98938,99148
 5.9000e+000 99197 -4.1043e+001 -1.2617e+002  1.3427e+001 36296 98808,99148,98834
 5.9000e+000 99246 -5.1212e+001 -9.2595e+001  5.1191e+001 36296 98808,98782,99220
 5.9000e+000 99269 -2.1642e+001 -8.1403e+001  1.6465e+001 36296 98808,99220,99148
 5.9000e+000 99318 -5.7667e+001 -8.0880e+001  1.2958e+001 36296 98938,99220,99292
 5.9000e+000 99341 -5.8661e+001 -8.2418e+001  1.5796e+001 36296 98938,99292,98756
 5.9000e+000 99719 -7.0497e+001 -1.4392e+002  5.7973e-001 35742 99742,99471,99601
 5.9000e+000 99696 -7.1244e+001 -1.1448e+002  1.3796e+001 35742 99445,99601,99471
 5.9000e+000 99673 -6.7280e+001 -1.3655e+002 -4.9063e+000 35742 99742,99601,99575
 5.9000e+000 99650 -5.9349e+001 -1.7042e+002 -3.9491e+000 35742 99814,99549,99523
 5.9000e+000 99627 -4.8558e+001 -1.3331e+002  2.9933e-001 35742 99471,99523,99497
 5.9000e+000 99768 -5.6691e+001 -1.4096e+002  3.7028e+000 35742 99523,99471,99742
 5.9000e+000 99791 -6.6802e+001 -1.5721e+002 -3.1771e+000 35742 99814,99523,99742
 5.9000e+000 99840 -5.8939e+001 -1.5385e+002 -8.9665e+000 35742 99575,99549,99814
 5.9000e+000 99863 -6.3409e+001 -1.3650e+002 -7.6963e+000 35742 99575,99814,99742
 5.9000e+000 100111 -5.5457e+001 -1.1827e+002  9.4390e+000 35302 100134,99990,99938
 5.9000e+000 100088 -4.6400e+001 -1.0711e+002  3.8366e+000 35302 100134,99938,99912
 5.9000e+000 100065 -4.6737e+001 -1.0664e+002 -2.3689e+000 35302 100206,99886,100016
 5.9000e+000 100042 -6.8488e+001 -1.1535e+002  6.3506e+000 35302 99938,99990,99964
 5.9000e+000 100160 -4.4186e+001 -1.1407e+002  2.1576e+000 35302 100016,99990,100134
 5.9000e+000 100183 -4.4477e+001 -1.0865e+002 -2.3347e+000 35302 100206,100016,100134
 5.9000e+000 100232 -4.8519e+001 -1.0896e+002 -8.7723e-001 35302 99912,99886,100206
 5.9000e+000 100255 -4.6451e+001 -1.1150e+002 -9.3529e-001 35302 99912,100206,100134
 5.9000e+000 100586 -6.8233e+001 -7.2401e+001  2.4420e+001 35012 100609,100387,100361
 5.9000e+000 100563 -8.4376e+001 -4.7208e+001 -1.6523e+001 35012 100609,100361,100465
 5.9000e+000 100540 -3.5933e+001 -2.9469e+001 -3.8282e+001 35012 100361,100491,100465
 5.9000e+000 100517 -7.1828e+000 -3.4252e+001 -4.0321e+001 35012 100413,100465,100439
 5.9000e+000 100635 -2.7242e+001 -5.4221e+001  8.1018e+000 35012 100413,100387,100609
 5.9000e+000 100658 -4.1474e+001 -2.1767e+001 -3.3864e+001 35012 100413,100609,100465
 5.9000e+000 100987 -5.3222e+001 -1.2269e+002  1.0861e+001 34700 100788,100866,100814
 5.9000e+000 100964 -4.5554e+001 -9.3585e+001  1.8736e+001 34700 101010,100866,100788
 5.9000e+000 100941 -2.5000e+001 -5.7044e+001  1.8073e+001 34700 100762,100892,100866
 5.9000e+000 100918 -4.8131e+001 -1.1036e+002  9.6240e+000 34700 100814,100866,100840
 5.9000e+000 101036 -2.8737e+001 -7.9143e+001  3.3426e+001 34700 100762,100866,101010
 5.9000e+000 101493 -7.3004e+001 -1.3555e+002 -1.0459e+001 34132 101516,101349,101297
 5.9000e+000 101470 -8.6329e+001 -1.6130e+002 -1.7336e+001 34132 101588,101516,101297
 5.9000e+000 101447 -8.6469e+001 -1.6908e+002 -2.6028e+001 34132 101588,101297,101245
 5.9000e+000 101424 -5.4862e+001 -1.9622e+002 -2.4464e+001 34132 101245,101297,101271
 5.9000e+000 101401 -7.9565e+001 -1.3530e+002 -1.3823e+001 34132 101297,101349,101323
 5.9000e+000 101542 -7.5209e+001 -1.5570e+002 -8.2325e+000 34132 101375,101349,101516
 5.9000e+000 101565 -6.8328e+001 -1.5575e+002 -9.0119e+000 34132 101375,101516,101219
 5.9000e+000 101614 -6.9853e+001 -1.6175e+002 -8.9731e+000 34132 101219,101516,101588
 5.9000e+000 101637 -7.8187e+001 -1.6959e+002 -1.7229e+001 34132 101219,101588,101245
 5.9000e+000 101858 -2.2238e+001 -1.0588e+002  1.1591e+001 33720 101708,101786,101760
 5.9000e+000 101835 -1.2165e+001 -1.1481e+002  1.8045e+001 33720 101682,101786,101708
 5.9000e+000 101812 -3.5531e+001 -1.1266e+002  8.5388e+000 33720 101708,101760,101734
 5.9000e+000 102128 -1.9054e+001 -1.4161e+002 -3.8817e+000 33130 101903,102007,101929
 5.9000e+000 102105 -2.2286e+001 -1.6398e+002  5.3842e+000 33130 101903,102033,102007
 5.9000e+000 102082 -1.1736e+001 -1.6844e+002 -3.1857e+001 33130 101929,102007,101955
 5.9000e+000 102059 -2.7587e+001 -1.1973e+002  3.0797e+000 33130 101955,102007,101981
 5.9000e+000 102461 -4.1242e+001 -1.0105e+002 -1.0504e+001 32840 102236,102340,102262
 5.9000e+000 102438 -3.6537e+001 -7.2625e+001  2.7150e+000 32840 102236,102366,102340
 5.9000e+000 102415 -2.3296e+001 -9.6555e+001 -8.8375e+000 32840 102262,102340,102288
 5.9000e+000 102392 -4.6908e+001 -1.0114e+002 -2.3499e+001 32840 102288,102340,102314
 5.9000e+000 102997 -4.8094e+001 -8.1863e+001  2.2547e+001 32493 102749,102879,102853
 5.9000e+000 102974 -3.9540e+001 -6.4915e+001  1.6764e+001 32493 102723,102879,102749
 5.9000e+000 102951 -5.4451e+001 -9.8188e+001  1.5613e+001 32493 102749,102801,102775
 5.9000e+000 102928 -5.9570e+001 -9.7662e+001  1.4995e+001 32493 102749,102853,102801
 5.9000e+000 102905 -5.7584e+001 -9.4961e+001  1.3036e+001 32493 102801,102853,102827
 5.9000e+000 103454 -4.2196e+001 -7.8989e+001 -9.5698e+000 32089 103206,103336,103310
 5.9000e+000 103431 -3.2633e+001 -8.7715e+001 -1.3437e+000 32089 103180,103336,103206
 5.9000e+000 103408 -5.2776e+001 -9.7515e+001 -1.8590e+001 32089 103206,103284,103258
 5.9000e+000 103385 -7.3315e+001 -9.9549e+001 -2.2470e+001 32089 103206,103310,103284
 5.9000e+000 103362 -3.9903e+001 -6.5137e+001 -1.3085e+001 32089 103206,103258,103232
 5.9000e+000 103783 -8.4562e+001 -1.1028e+002 -1.3440e+001 31742 103558,103662,103584
 5.9000e+000 103760 -6.9210e+001 -8.9429e+001 -3.3434e+001 31742 103558,103688,103662
 5.9000e+000 103737 -5.6693e+001 -8.8427e+001 -2.4155e+001 31742 103584,103662,103636
 5.9000e+000 103714 -5.5509e+001 -1.0138e+002 -2.5598e+001 31742 103584,103636,103610
 5.9000e+000 104112 -1.4828e+001 -8.6059e+001  1.3185e+001 31402 103939,103991,103965
 5.9000e+000 104089 -2.6005e+001 -7.3905e+001  6.3883e+000 31402 103913,103991,103939
 5.9000e+000 104066 -3.6610e+001 -8.5613e+001 -1.7218e-001 31402 103913,104017,103991
 5.9000e+000 104043 -4.7270e+001 -7.8186e+001 -7.4621e+000 31402 103887,104017,103913
 5.9000e+000 104569 -8.0056e+001 -1.4444e+002  5.6693e+000 30998 104321,104425,104373
 5.9000e+000 104546 -8.8991e+001 -1.4806e+002  5.8598e+000 30998 104321,104451,104425
 5.9000e+000 104523 -6.0481e+001 -1.1757e+002  2.0301e+001 30998 104373,104425,104399
 5.9000e+000 104500 -7.0130e+001 -1.6820e+002 -4.0316e+000 30998 104295,104451,104321
 5.9000e+000 104477 -1.0827e+002 -1.7087e+002  3.3355e+001 30998 104321,104373,104347
 5.9000e+000 104947 -7.5839e+001 -1.2907e+002 -1.5541e+001 30608 104751,104803,104777
 5.9000e+000 104924 -4.9281e+001 -1.3266e+002 -5.6631e+000 30608 104725,104803,104751
 5.9000e+000 104901 -7.8373e+001 -1.2853e+002  8.5587e+000 30608 104699,104803,104725
 5.9000e+000 104878 -6.6052e+001 -1.2311e+002  7.5280e+000 30608 104673,104803,104699
 5.9000e+000 104855 -5.0536e+001 -1.1584e+002 -4.5394e+000 30608 104673,104829,104803
 5.9000e+000 105276 -5.5471e+001 -1.1995e+002  4.5672e+000 30204 105427,105129,105077
 5.9000e+000 105253 -3.7519e+001 -1.3281e+002  2.7757e+001 30204 105427,105077,105051
 5.9000e+000 105230 -4.6005e+001 -1.1656e+002  5.6621e+000 30204 105077,105129,105103
 5.9000e+000 105207 -3.2501e+001 -1.0818e+002  1.9563e+001 30204 105299,105181,105155
 5.9000e+000 105325 -3.2907e+001 -1.0445e+002  5.5009e+000 30204 105129,105181,105299
 5.9000e+000 105453 -6.6636e+001 -1.2798e+002  1.6441e+001 30204 105181,105129,105427
 5.9000e+000 105476 -7.8282e+001 -1.5439e+002  4.2878e+001 30204 105181,105427,105051
 5.9000e+000 105903 -4.3513e+001 -1.0273e+002 -7.6327e+000 29700 105606,105762,105736
 5.9000e+000 105880 -5.5735e+001 -1.0546e+002  1.6795e-001 29700 105580,105762,105606
 5.9000e+000 105857 -6.6878e+001 -1.2923e+002 -7.6376e+000 29700 105606,105710,105632
 5.9000e+000 105834 -5.5544e+001 -1.0892e+002 -3.1747e+000 29700 105606,105736,105710
 5.9000e+000 105811 -6.2421e+001 -1.1993e+002 -9.3521e+000 29700 105632,105710,105684
 5.9000e+000 105788 -6.0660e+001 -1.1553e+002 -4.6788e+000 29700 105632,105684,105658
 5.9000e+000 106102 -1.7291e+001 -1.2441e+002  4.9130e+000 29124 105978,106030,106004
 5.9000e+000 106079 -3.2089e+001 -1.2079e+002  5.8122e+000 29124 105926,106030,105978
 5.9000e+000 106056 -3.7682e+001 -1.4163e+002  1.6362e+001 29124 105926,105978,105952
 5.9000e+000 106301 -3.5402e+001 -1.2621e+002  7.1184e-001 28712 106151,106229,106203
 5.9000e+000 106278 -4.2346e+001 -1.3976e+002 -6.1748e+000 28712 106125,106229,106151
 5.9000e+000 106255 -3.6591e+001 -1.3208e+002  6.4788e+000 28712 106151,106203,106177
 5.9000e+000 106551 -4.3778e+001 -1.5613e+002  8.7433e+000 28258 106352,106404,106378
 5.9000e+000 106528 -6.0491e+001 -1.5766e+002  2.4875e+000 28258 106352,106456,106404
 5.9000e+000 106505 -6.0338e+001 -1.6010e+002  1.5298e+000 28258 106326,106456,106352
 5.9000e+000 106482 -5.3313e+001 -1.4613e+002 -1.7682e+000 28258 106404,106456,106430
 5.9000e+000 107012 -5.3405e+001 -1.3381e+002  2.6309e+001 27818 107035,106790,106764
 5.9000e+000 106989 -4.6608e+001 -1.2668e+002  1.0230e+001 27818 107035,106764,106868
 5.9000e+000 106966 -3.3115e+001 -1.5421e+002  1.4893e+001 27818 107107,106842,106816
 5.9000e+000 106943 -6.8502e+001 -1.1666e+002  5.2172e+000 27818 106738,106868,106764
 5.9000e+000 106920 -6.6672e+001 -1.0638e+002  1.5243e+001 27818 106738,106894,106868
 5.9000e+000 107061 -2.4741e+001 -1.2812e+002  3.0002e+001 27818 106816,106790,107035
 5.9000e+000 107084 -4.1926e+001 -1.4350e+002  1.5714e+001 27818 107107,106816,107035
 5.9000e+000 107133 -3.0867e+001 -1.3870e+002  7.3842e+000 27818 106868,106842,107107
 5.9000e+000 107156 -3.6804e+001 -1.2284e+002  1.0102e+001 27818 106868,107107,107035
 5.9000e+000 107613 -1.8920e+001 -1.0199e+002  2.1828e+001 27312 107339,107469,107365
 5.9000e+000 107590 -4.4887e+000 -9.4028e+001  1.8566e+001 27312 107339,107495,107469
 5.9000e+000 107567 -1.9399e+001 -9.7930e+001  1.0523e+001 27312 107391,107469,107443
 5.9000e+000 107544 -1.6361e+001 -1.0490e+002  9.5498e+000 27312 107365,107469,107391
 5.9000e+000 107521 -5.0086e+001 -1.0840e+002  5.4514e+000 27312 107391,107443,107417
 5.9000e+000 107991 -5.0391e+001 -1.5085e+002  6.4285e+000 26858 108086,108014,107795
 5.9000e+000 107968 -5.5576e+001 -1.5307e+002 -6.2046e+000 26858 108014,107717,107873
 5.9000e+000 107945 -5.7609e+001 -1.5968e+002  1.0606e+001 26858 108158,108086,107795
 5.9000e+000 107922 -4.5883e+001 -1.6244e+002  1.1114e+001 26858 108158,107795,107769
 5.9000e+000 107899 -4.3678e+001 -1.8813e+002  2.6248e+001 26858 107821,107873,107847
 5.9000e+000 108040 -5.3617e+001 -1.7080e+002  8.9214e+000 26858 107821,107795,108014
 5.9000e+000 108063 -3.3917e+001 -1.6090e+002  1.3890e+000 26858 107821,108014,107873
 5.9000e+000 108112 -6.8127e+001 -1.5806e+002  7.4953e+000 26858 107717,108014,108086
 5.9000e+000 108135 -5.7186e+001 -1.5894e+002  1.5848e+001 26858 107717,108086,107743
 5.9000e+000 108184 -4.4566e+001 -1.5363e+002  1.5081e+001 26858 107743,108086,108158
 5.9000e+000 108207 -3.8553e+001 -1.6048e+002  1.5492e+001 26858 107743,108158,107769
 5.9000e+000 108634 -6.8680e+001 -1.4093e+002  3.0437e+000 26404 108657,108415,108363
 5.9000e+000 108611 -7.7909e+001 -1.5317e+002  1.7297e+001 26404 108657,108363,108337
 5.9000e+000 108588 -6.7066e+001 -1.4674e+002  1.7081e+001 26404 108729,108311,108467
 5.9000e+000 108565 -7.3522e+001 -1.7036e+002  3.5948e+000 26404 108801,108441,108415
 5.9000e+000 108542 -9.9965e+001 -1.6145e+002  1.9993e+001 26404 108311,108493,108467
 5.9000e+000 108519 -4.7406e+001 -1.4196e+002  2.7875e+000 26404 108363,108415,108389
 5.9000e+000 108683 -9.1839e+001 -1.5162e+002  5.9764e+000 26404 108801,108415,108657
 5.9000e+000 108706 -8.7067e+001 -1.5145e+002  1.3898e+001 26404 108729,108467,108657
 5.9000e+000 108755 -5.4458e+001 -1.5421e+002  1.6915e+001 26404 108337,108311,108729
 5.9000e+000 108778 -6.4634e+001 -1.5178e+002  1.3187e+001 26404 108337,108729,108657
 5.9000e+000 108827 -9.1164e+001 -2.0799e+002 -7.2400e+000 26404 108467,108441,108801
 5.9000e+000 108850 -1.0050e+002 -1.7558e+002 -4.8424e+000 26404 108467,108801,108657
 5.9000e+000 109228 -6.9800e+001 -1.4961e+002 -5.9123e+000 26064 109006,109084,109058
 5.9000e+000 109205 -6.2023e+001 -1.4010e+002  3.3735e+000 26064 108980,109084,109006
 5.9000e+000 109182 -6.6661e+001 -1.3363e+002 -4.3881e+000 26064 108980,109110,109084
 5.9000e+000 109159 -6.6681e+001 -1.5641e+002 -4.6228e-001 26064 109006,109058,109032
 5.9000e+000 109136 -2.3327e+001 -1.1759e+002  5.3251e+000 26064 108954,109110,108980
 5.9000e+000 109427 -1.7489e+001 -1.2852e+002 -2.6819e+001 25660 109303,109355,109329
 5.9000e+000 109404 -3.4814e+001 -1.6314e+002 -6.4670e+000 25660 109277,109355,109303
 5.9000e+000 109381 -2.5513e+001 -1.5421e+002 -2.6271e+000 25660 109251,109355,109277
 5.9000e+000 109577 -2.2060e+001 -5.6454e+001  1.9918e+001 25306 109476,109528,109502
 5.9000e+000 109554  1.1629e+001 -4.6071e+001  1.6124e+001 25306 109450,109528,109476
 5.9000e+000 109778 -4.9513e+001 -1.3558e+002  3.5153e+000 24944 109628,109706,109654
 5.9000e+000 109755 -5.3427e+001 -1.3430e+002  5.2962e-001 24944 109602,109706,109628
 5.9000e+000 109732 -4.3747e+001 -1.2802e+002 -1.9277e+000 24944 109654,109706,109680
 5.9000e+000 110126 -4.1217e+001 -1.7154e+002  5.1447e+000 24440 110149,109907,109855
 5.9000e+000 110103 -3.7096e+001 -1.8190e+002  1.1226e+001 24440 110149,109855,109985
 5.9000e+000 110080 -3.1777e+001 -1.4796e+002  3.0931e+000 24440 109855,109907,109881
 5.9000e+000 110057 -3.2110e+001 -1.4033e+002  4.9755e+001 24440 109829,109985,109855
 5.9000e+000 110034 -3.7670e+001 -1.7179e+002  1.3315e+000 24440 109907,109959,109933
 5.9000e+000 110011 -8.4730e+000 -1.4151e+002  3.2265e+000 24440 109803,109985,109829
 5.9000e+000 110175 -3.8557e+001 -1.6336e+002  4.6429e+000 24440 109959,109907,110149
 5.9000e+000 110198 -3.3664e+001 -1.7168e+002  1.1738e+001 24440 109959,110149,109985
 5.9000e+000 110301 -8.5745e-001 -7.9965e+001  3.4874e+000 24028 110223,110275,110249
 5.9000e+000 110573 -2.1730e+001 -1.0260e+002  8.3390e+000 23467 110400,110452,110426
 5.9000e+000 110550 -3.6632e+001 -1.2281e+002  8.1692e-001 23467 110374,110452,110400
 5.9000e+000 110527 -3.9583e+001 -1.2403e+002  2.5888e+000 23467 110348,110452,110374
 5.9000e+000 110504 -2.8544e+001 -1.1955e+002 -4.3844e-001 23467 110348,110478,110452
 5.9000e+000 111004 -8.0226e+001 -1.8047e+002 -2.2711e+001 22963 111027,110733,110707
 5.9000e+000 110981 -8.1387e+001 -1.7054e+002  9.6866e+000 22963 111027,110707,110681
 5.9000e+000 110958 -3.7451e+001 -1.4589e+002 -1.9204e+001 22963 111099,110759,110733
 5.9000e+000 110935 -5.3487e+001 -1.4611e+002 -1.2158e+001 22963 111171,110863,110811
 5.9000e+000 110912 -2.1744e+001 -1.0525e+002 -2.2869e+001 22963 110759,110811,110785
 5.9000e+000 110889 -6.1727e+001 -1.5946e+002 -8.0095e+000 22963 110811,110863,110837
 5.9000e+000 111053 -5.9419e+001 -1.6089e+002 -1.1212e+001 22963 111099,110733,111027
 5.9000e+000 111076 -5.0214e+001 -1.5719e+002 -1.0230e+001 22963 111171,110811,111027
 5.9000e+000 111125 -3.6490e+001 -1.4267e+002 -3.1154e+001 22963 110811,110759,111099
 5.9000e+000 111148 -4.0013e+001 -1.4084e+002 -2.6317e+001 22963 110811,111099,111027
 5.9000e+000 111197 -5.3181e+001 -1.2926e+002 -1.4286e+001 22963 110681,110863,111171
 5.9000e+000 111220 -5.3225e+001 -1.4166e+002 -7.6473e+000 22963 110681,111171,111027
 5.9000e+000 111726 -8.0939e+001 -1.5500e+002  1.8391e+000 22459 111749,111507,111429
 5.9000e+000 111703 -7.1343e+001 -1.5159e+002 -4.3811e+000 22459 111749,111429,111585
 5.9000e+000 111680 -5.9112e+001 -1.6570e+002 -2.2744e+000 22459 111403,111585,111429
 5.9000e+000 111657 -7.6832e+001 -1.7086e+002  7.1466e+000 22459 111507,111559,111533
 5.9000e+000 111634 -1.0147e+002 -1.4582e+002  8.8520e+000 22459 111455,111507,111481
 5.9000e+000 111611 -1.1849e+002 -1.4986e+002  1.4672e+001 22459 111429,111507,111455
 5.9000e+000 111775 -7.9649e+001 -1.6490e+002  1.0036e+001 22459 111559,111507,111749
 5.9000e+000 111798 -7.0797e+001 -1.5705e+002  3.7786e+000 22459 111559,111749,111585
 5.9000e+000 112046 -3.5836e+001 -1.3203e+002 -1.6765e+001 21898 112069,111925,111873
 5.9000e+000 112023 -3.4117e+001 -1.3240e+002 -3.5317e+000 21898 112069,111873,111847
 5.9000e+000 112000 -4.5708e+001 -1.3528e+002 -6.8398e+000 21898 111821,111951,111847
 5.9000e+000 111977 -4.0355e+001 -1.0194e+002 -1.0008e+001 21898 111873,111925,111899
 5.9000e+000 112095 -5.4514e+001 -1.3871e+002 -1.9913e+001 21898 111951,111925,112069
 5.9000e+000 112118 -4.5059e+001 -1.3617e+002 -7.1837e+000 21898 111951,112069,111847
 5.9000e+000 112498 -5.9832e+001 -1.4360e+002 -1.1285e+001 21608 112521,112276,112224
 5.9000e+000 112475 -3.9269e+001 -1.4547e+002  5.2148e-001 21608 112521,112224,112380
 5.9000e+000 112452 -4.1663e+001 -1.6645e+002  1.0444e+001 21608 112302,112380,112354
 5.9000e+000 112429 -7.1933e+001 -1.6160e+002 -6.0324e+000 21608 112224,112276,112250
 5.9000e+000 112406  2.6639e+001 -1.8295e+002 -1.0061e+001 21608 112302,112354,112328
 5.9000e+000 112547 -4.2993e+001 -1.2537e+002 -1.6530e+000 21608 112302,112276,112521
 5.9000e+000 112570 -2.9074e+001 -1.4043e+002  6.5561e+000 21608 112302,112521,112380
 5.9000e+000 112948 -7.1113e+001 -1.4723e+002 -1.7869e+000 20882 112971,112752,112700
 5.9000e+000 112925 -5.4491e+001 -1.4187e+002 -5.8068e+000 20882 112971,112700,112830
 5.9000e+000 112902 -9.0454e+001 -1.5923e+002  9.6786e+000 20882 112778,112830,112804
 5.9000e+000 112879 -5.0168e+001 -1.1387e+002 -8.0318e+000 20882 112674,112830,112700
 5.9000e+000 112856 -8.5443e+001 -1.5491e+002  3.3959e+000 20882 112700,112752,112726
 5.9000e+000 112997 -7.1828e+001 -1.4770e+002  7.3917e+000 20882 112778,112752,112971
 5.9000e+000 113020 -6.2307e+001 -1.4518e+002  3.0457e+000 20882 112778,112971,112830
 5.9000e+000 113526 -4.6951e+001 -1.4657e+002  9.5473e-001 20428 113255,113385,113333
 5.9000e+000 113503 -5.0746e+001 -1.5886e+002  1.1256e+000 20428 113229,113385,113255
 5.9000e+000 113480 -2.7444e+000 -1.4176e+002  2.2954e+000 20428 113255,113333,113281
 5.9000e+000 113457 -4.3876e+001 -1.5367e+002  3.4453e+000 20428 113203,113385,113229
 5.9000e+000 113434 -2.2144e+001 -1.4669e+002 -3.8491e+000 20428 113281,113333,113307
 5.9000e+000 113411 -5.8858e+001 -1.4322e+002  3.7526e+000 20428 113333,113385,113359
 5.9000e+000 113774 -9.5783e+000 -1.4356e+002  6.3126e+000 19917 113797,113601,113549
 5.9000e+000 113751 -2.4586e+001 -1.4548e+002  7.8204e+000 19917 113869,113797,113549
 5.9000e+000 113728 -2.3568e+001 -1.4707e+002  1.4042e+001 19917 113869,113549,113679
 5.9000e+000 113705 -1.4641e+001 -1.4215e+002  1.3138e+001 19917 113549,113601,113575
 5.9000e+000 113823 -2.5370e+001 -1.7525e+002 -3.8183e-002 19917 113627,113601,113797
 5.9000e+000 113846 -1.0641e+001 -1.3695e+002 -2.6223e+000 19917 113627,113797,113653
 5.9000e+000 113895 -2.1365e+001 -1.3035e+002  3.0123e+000 19917 113653,113797,113869
 5.9000e+000 113918 -2.6458e+001 -1.3438e+002  1.0975e+001 19917 113653,113869,113679
 5.9000e+000 114166 -6.6882e+001 -1.4909e+002 -2.8434e+000 19413 113993,114045,114019
 5.9000e+000 114143 -5.9640e+001 -1.3809e+002  1.2528e+000 19413 113967,114045,113993
 5.9000e+000 114120 -5.1693e+001 -1.3550e+002  7.9215e+000 19413 113967,114071,114045
 5.9000e+000 114097 -3.9124e+001 -1.5445e+002 -3.0754e+000 19413 113941,114071,113967
 5.9000e+000 114438 -6.1485e+001 -1.6304e+002  1.5243e+000 19001 114213,114265,114239
 5.9000e+000 114415 -4.4102e+001 -1.2643e+002 -3.7398e+000 19001 114213,114343,114265
 5.9000e+000 114392 -6.5681e+001 -1.7486e+002 -7.8685e+000 19001 114265,114343,114317
 5.9000e+000 114369  1.0561e+001 -1.4175e+002 -2.7920e+000 19001 114265,114317,114291
 5.9000e+000 114639 -4.6446e+001 -1.9305e+002  9.0591e+000 18554 114489,114541,114515
 5.9000e+000 114616 -3.9927e+001 -1.6770e+002  1.3277e+000 18554 114489,114567,114541
 5.9000e+000 114593 -8.6392e+001 -1.8859e+002 -1.2226e+001 18554 114463,114567,114489
 5.9000e+000 115043 -3.0231e+001 -1.4385e+002  5.2767e+000 18164 114795,114925,114821
 5.9000e+000 115020 -2.5633e+001 -1.5162e+002  8.9850e+000 18164 114769,114925,114795
 5.9000e+000 114997 -1.6174e+001 -1.5188e+002 -1.5505e+000 18164 115066,114873,114821
 5.9000e+000 114974 -1.4580e+001 -1.2966e+002 -5.1951e+000 18164 115066,114821,114925
 5.9000e+000 114951  1.4530e+001 -1.5124e+002 -1.5464e+001 18164 114821,114873,114847
 5.9000e+000 115092 -2.4453e+001 -1.3594e+002 -1.3214e+001 18164 114899,114873,115066
 5.9000e+000 115115 -1.3890e+001 -1.0196e+002 -1.7891e+001 18164 114899,115066,114925
 5.9000e+000 115265 -3.4735e+001 -1.5398e+002  2.4372e+000 17852 115164,115216,115190
 5.9000e+000 115242 -4.0350e+001 -1.6588e+002 -2.2607e-001 17852 115138,115216,115164
 5.9000e+000 115464 -1.0359e+002 -2.3074e+002  2.5925e+000 17346 115288,115366,115340
 5.9000e+000 115441 -1.5572e+002 -1.7632e+002 -8.8551e+000 17346 115288,115392,115366
 5.9000e+000 115418 -9.1252e+001 -2.5666e+002 -7.5639e+000 17346 115288,115340,115314
 5.9000e+000 115736 -3.4776e+001 -1.4285e+002  6.1693e+000 16942 115563,115641,115615
 5.9000e+000 115713 -3.9171e+001 -1.4143e+002  2.1207e+000 16942 115511,115641,115563
 5.9000e+000 115690 -9.8968e+001 -1.6790e+002  8.9155e+000 16942 115563,115615,115589
 5.9000e+000 115667 -4.7124e+001 -1.5468e+002  5.4391e+000 16942 115511,115563,115537
 5.9000e+000 116091 -7.5672e+001 -1.7515e+002 -5.8876e+000 16388 115918,115970,115944
 5.9000e+000 116068 -6.6178e+001 -1.4189e+002 -4.2048e+000 16388 115918,115996,115970
 5.9000e+000 116045 -8.9026e+001 -1.7827e+002  6.1711e+000 16388 115892,115996,115918
 5.9000e+000 116022 -5.6659e+001 -1.6126e+002  2.1311e+001 16388 115866,115996,115892
 5.9000e+000 116192 -1.7390e+001 -1.7872e+002 -2.6594e+001 15810 116114,116166,116140
 5.9000e+000 116342 -6.7642e+001 -2.1897e+002  1.1725e+001 15419 116241,116293,116267
 5.9000e+000 116319 -9.6443e+001 -2.6713e+002 -7.4032e+000 15419 116215,116293,116241
 5.9000e+000 116445 -7.4027e+001 -1.4938e+002  5.7307e-002 421 116367,116419,116393
 6.0000e+000 68477 -9.3697e+001 -1.3457e+002  2.4209e-001 68018 68327,68379,68353
 6.0000e+000 68454 -9.8929e+001 -1.7712e+002  1.2424e+001 68018 68301,68379,68327
 6.0000e+000 68431 -5.4408e+001 -1.9835e+002  2.9431e+001 68018 68301,68405,68379
 6.0000e+000 68578 -6.5915e+001 -1.2948e+002  5.7662e-001 67820 68500,68552,68526
 6.0000e+000 68728 -6.9176e+001 -1.1888e+002 -1.7588e+000 67508 68601,68653,68627
 6.0000e+000 68705 -1.0257e+002 -9.0960e+001 -1.6154e+001 67508 68601,68679,68653
 6.0000e+000 68927 -2.5874e+001 -1.1619e+002 -1.7579e+000 67310 68777,68829,68803
 6.0000e+000 68904 -3.4155e+001 -1.3361e+002  2.3090e+000 67310 68751,68829,68777
 6.0000e+000 68881 -2.6845e+001 -1.3644e+002  8.3505e+000 67310 68751,68855,68829
 6.0000e+000 69386 -5.6215e+001 -1.4117e+002 -6.0891e+000 67020 69216,69268,69242
 6.0000e+000 69363 -5.2876e+001 -1.1062e+002 -1.4063e+001 67020 69138,69268,69216
 6.0000e+000 69340 -3.7964e+001 -1.0053e+002 -9.3581e+000 67020 69112,69268,69138
 6.0000e+000 69317 -6.9661e+001 -1.1844e+002  6.8811e+000 67020 69138,69190,69164
 6.0000e+000 69294 -7.1732e+001 -1.0852e+002 -6.3952e+000 67020 69138,69216,69190
 6.0000e+000 69536 -9.7998e+001 -2.4021e+002 -1.8688e+001 66708 69435,69487,69461
 6.0000e+000 69513 -7.2184e+001 -2.7072e+002 -2.1677e+000 66708 69409,69487,69435
 6.0000e+000 69735 -6.3954e+001 -1.2732e+002  2.6873e+000 66346 69585,69637,69611
 6.0000e+000 69712 -5.3155e+001 -1.1923e+002 -1.1580e+000 66346 69559,69637,69585
 6.0000e+000 69689 -4.8921e+001 -1.1956e+002 -1.2521e+001 66346 69559,69663,69637
 6.0000e+000 69985 -9.6716e+001 -1.5800e+002  1.6598e+000 66148 69786,69890,69864
 6.0000e+000 69962 -1.0085e+002 -1.6056e+002  3.0672e+000 66148 69760,69890,69786
 6.0000e+000 69939 -7.3235e+001 -1.4873e+002 -2.1141e+001 66148 69786,69864,69838
 6.0000e+000 69916 -8.6059e+001 -1.6000e+002 -5.5615e+000 66148 69786,69838,69812
 6.0000e+000 70137 -4.5156e+001 -1.7690e+002 -9.6872e+000 65950 70036,70088,70062
 6.0000e+000 70114 -3.9383e+001 -1.9596e+002  9.1009e+000 65950 70010,70088,70036
 6.0000e+000 70470 -3.5289e+001 -1.3182e+002  9.7099e+000 65546 70245,70323,70271
 6.0000e+000 70447 -2.5509e+001 -1.1628e+002  4.3745e+000 65546 70245,70375,70323
 6.0000e+000 70424 -3.2166e+001 -1.4972e+002  5.4176e+000 65546 70323,70375,70349
 6.0000e+000 70401 -2.8588e+001 -1.2216e+002  4.2851e+000 65546 70271,70323,70297
 6.0000e+000 70620 -6.0136e+001 -1.4934e+002  4.9188e+000 65348 70493,70545,70519
 6.0000e+000 70597 -4.6505e+001 -1.5880e+002  5.1562e+000 65348 70493,70571,70545
 6.0000e+000 70721 -9.1672e+001 -1.8989e+002 -6.9362e+000 65150 70643,70695,70669
 6.0000e+000 71020 -5.6966e+001 -1.2103e+002  8.5634e+000 64952 71043,70850,70824
 6.0000e+000 70997 -4.8986e+001 -1.1321e+002 -1.1659e+000 64952 71043,70824,70772
 6.0000e+000 70974 -5.1260e+001 -1.4848e+002  3.7813e+000 64952 71115,70746,70876
 6.0000e+000 70951 -4.4662e+001 -1.5051e+002 -3.4855e-001 64952 70746,70902,70876
 6.0000e+000 70928 -5.4405e+001 -1.0097e+002 -9.3449e+000 64952 70772,70824,70798
 6.0000e+000 71069 -3.1758e+001 -1.0508e+002  2.2179e+001 64952 70876,70850,71043
 6.0000e+000 71092 -4.4752e+001 -1.3765e+002  6.6329e+000 64952 71115,70876,71043
 6.0000e+000 71141 -6.6444e+001 -1.3531e+002 -7.2666e+000 64952 70772,70746,71115
 6.0000e+000 71164 -5.7821e+001 -1.1955e+002 -3.9433e+000 64952 70772,71115,71043
 6.0000e+000 71365 -2.4510e+001 -1.6630e+002 -4.8099e+000 64662 71215,71293,71267
 6.0000e+000 71342 -1.0419e+001 -1.2422e+002 -4.2128e+000 64662 71189,71293,71215
 6.0000e+000 71319  1.0758e+000 -1.0624e+002 -2.0076e-001 64662 71215,71267,71241
 6.0000e+000 71615 -4.4180e+001 -1.3559e+002 -1.4134e+000 64350 71710,71638,71468
 6.0000e+000 71592 -4.6356e+001 -1.3237e+002 -4.9201e+000 64350 71638,71416,71390
 6.0000e+000 71569 -4.7673e+001 -1.2609e+002  6.7274e+000 64350 71710,71468,71442
 6.0000e+000 71546  1.2203e+001 -1.2979e+002 -1.8425e+001 64350 71390,71520,71494
 6.0000e+000 71664 -3.9952e+001 -1.3409e+002 -4.9575e-001 64350 71494,71468,71638
 6.0000e+000 71687 -4.0135e+001 -1.3808e+002 -2.0079e-001 64350 71494,71638,71390
 6.0000e+000 71736 -3.8417e+001 -1.1612e+002 -6.6368e-001 64350 71416,71638,71710
 6.0000e+000 71759 -4.0324e+001 -1.0746e+002  9.5733e+000 64350 71416,71710,71442
 6.0000e+000 72318 -4.3675e+001 -2.1170e+002 -9.1714e+000 63837 71972,72024,71998
 6.0000e+000 72295 -6.0831e+001 -1.3830e+002 -8.2278e-001 63837 72341,71972,71946
 6.0000e+000 72272 -5.5996e+001 -1.1203e+002  5.6608e+000 63837 72413,72341,71946
 6.0000e+000 72249 -5.3967e+001 -1.0190e+002  2.5612e+000 63837 72413,71946,72128
 6.0000e+000 72226 -7.6287e+001 -1.1996e+002  5.8093e-001 63837 72024,72076,72050
 6.0000e+000 72203 -6.9051e+001 -1.1176e+002 -3.6986e+000 63837 72024,72102,72076
 6.0000e+000 72180 -4.2155e+001 -9.7693e+001  6.1512e+000 63837 71946,72154,72128
 6.0000e+000 72367 -7.3722e+001 -1.4840e+002 -2.5442e+001 63837 72024,71972,72341
 6.0000e+000 72390 -5.8049e+001 -1.2082e+002 -9.7064e+000 63837 72024,72341,72102
 6.0000e+000 72439 -4.7511e+001 -1.2839e+002  2.2421e+000 63837 72102,72341,72413
 6.0000e+000 72462 -4.5523e+001 -1.1779e+002  3.5593e-001 63837 72102,72413,72128
 6.0000e+000 72791 -7.1118e+001 -1.3149e+002 -1.4226e+001 63383 72592,72696,72670
 6.0000e+000 72768 -7.2332e+001 -1.2383e+002 -2.3267e+001 63383 72566,72696,72592
 6.0000e+000 72745 -6.7795e+001 -1.1452e+002 -1.2303e+000 63383 72592,72670,72618
 6.0000e+000 72722 -6.5471e+001 -1.0626e+002 -3.0176e+000 63383 72618,72670,72644
 6.0000e+000 73297 -8.1277e+001 -1.1446e+002 -1.0030e+000 63185 73000,73156,73130
 6.0000e+000 73274 -8.1338e+001 -1.1832e+002  1.4859e+001 63185 72974,73156,73000
 6.0000e+000 73251 -6.1756e+001 -1.3325e+002 -1.9353e+000 63185 73000,73052,73026
 6.0000e+000 73228 -6.7843e+001 -1.1811e+002 -6.0244e+000 63185 73000,73130,73052
 6.0000e+000 73205 -6.7848e+001 -1.3451e+002 -2.0332e+001 63185 73052,73130,73104
 6.0000e+000 73182 -6.2629e+001 -1.4488e+002 -2.0624e+001 63185 73052,73104,73078
 6.0000e+000 73545 -3.6557e+001 -1.2757e+002  2.9166e+000 62781 73568,73398,73372
 6.0000e+000 73522 -2.1193e+001 -1.1784e+002  1.3481e+001 62781 73568,73372,73346
 6.0000e+000 73499 -4.9014e+001 -1.4240e+002 -1.4104e+001 62781 73640,73320,73424
 6.0000e+000 73476 -4.8789e+001 -9.1136e+001 -2.6207e+001 62781 73320,73450,73424
 6.0000e+000 73594 -3.9907e+001 -1.2113e+002  2.4135e+000 62781 73424,73398,73568
 6.0000e+000 73617 -4.2991e+001 -1.3586e+002 -1.1804e+000 62781 73640,73424,73568
 6.0000e+000 73666 -4.1782e+001 -1.2728e+002 -4.6844e+000 62781 73346,73320,73640
 6.0000e+000 73689 -3.7732e+001 -1.1579e+002  7.1022e+000 62781 73346,73640,73568
 6.0000e+000 74035 -5.0062e+001 -1.2942e+002 -2.6866e+000 62363 74058,73868,73842
 6.0000e+000 74012 -4.5234e+001 -1.1846e+002 -1.0708e+001 62363 74130,74058,73842
 6.0000e+000 73989 -4.1516e+001 -1.1733e+002 -1.1225e+001 62363 74130,73842,73816
 6.0000e+000 73966 -6.4679e+001 -1.3490e+002  1.3774e+000 62363 74202,73764,73894
 6.0000e+000 73943 -8.3720e+001 -1.2515e+002  1.0927e+000 62363 73712,73894,73764
 6.0000e+000 73920 -8.7963e+001 -1.3296e+002 -4.0206e-001 62363 73712,73764,73738
 6.0000e+000 74084 -4.8780e+001 -1.2889e+002 -2.2133e+000 62363 73894,73868,74058
 6.0000e+000 74107 -5.9653e+001 -1.2912e+002  5.2582e+000 62363 74202,73894,74058
 6.0000e+000 74156 -4.9844e+001 -1.2025e+002  2.7227e+000 62363 73790,74058,74130
 6.0000e+000 74179 -3.1785e+001 -1.1317e+002  3.5407e+000 62363 73790,74130,73816
 6.0000e+000 74228 -6.9996e+001 -1.3727e+002 -6.9487e+000 62363 73790,73764,74202
 6.0000e+000 74251 -6.6183e+001 -1.3108e+002 -3.1311e+000 62363 73790,74202,74058
 6.0000e+000 74403 -8.4208e+000 -1.3785e+002  8.5217e+000 62115 74426,74302,74276
 6.0000e+000 74380  1.4684e+001 -1.3365e+002  1.7956e+001 62115 74426,74276,74354
 6.0000e+000 74452 -2.9719e+001 -1.2665e+002  8.4861e+000 62115 74328,74302,74426
 6.0000e+000 74475 -8.3978e+000 -1.2337e+002  1.8549e+001 62115 74328,74426,74354
 6.0000e+000 74578 -2.0286e+000 -8.2006e+001 -1.2828e+000 61825 74500,74552,74526
 6.0000e+000 74982 -6.6787e+001 -1.1610e+002  6.2068e-002 61513 75005,74734,74708
 6.0000e+000 74959 -6.6324e+001 -1.1163e+002 -1.2580e+000 61513 75005,74708,74864
 6.0000e+000 74936 -8.5636e+001 -1.2021e+002  7.1145e+000 61513 75077,74812,74734
 6.0000e+000 74913 -6.7650e+001 -1.1044e+002 -9.7385e+000 61513 74734,74786,74760
 6.0000e+000 74890 -6.8511e+001 -1.0502e+002 -2.2015e+000 61513 74734,74812,74786
 6.0000e+000 75031 -6.3645e+001 -1.1958e+002  3.6717e-001 61513 75077,74734,75005
 6.0000e+000 75054 -5.0397e+001 -1.1508e+002  1.7614e+001 61513 74838,75005,74864
 6.0000e+000 75103 -9.7826e+001 -1.2511e+002  2.7177e+001 61513 74838,74812,75077
 6.0000e+000 75126 -8.3631e+001 -1.2994e+002  2.0465e+001 61513 74838,75077,75005
 6.0000e+000 75553 -3.6633e+001 -1.0857e+002 -4.3437e+000 61060 75576,75360,75308
 6.0000e+000 75530 -3.5744e+001 -1.1615e+002 -4.1243e+000 61060 75576,75308,75230
 6.0000e+000 75507 -3.3331e+001 -1.0540e+002 -1.9884e+000 61060 75308,75360,75334
 6.0000e+000 75484 -4.6840e+001 -1.3620e+002  6.5492e+000 61060 75230,75308,75256
 6.0000e+000 75461 -3.8250e+001 -1.2812e+002  2.6813e+000 61060 75256,75308,75282
 6.0000e+000 75438 -4.3171e+001 -1.0712e+002  1.1741e+001 61060 75360,75412,75386
 6.0000e+000 75602 -3.1885e+001 -1.1470e+002 -1.0231e-001 61060 75412,75360,75576
 6.0000e+000 75625 -3.4558e+001 -1.2767e+002 -1.1887e+000 61060 75412,75576,75230
 6.0000e+000 76052 -5.3929e+001 -1.1420e+002  1.7747e+000 60442 75755,75859,75833
 6.0000e+000 76029 -5.9600e+001 -1.0739e+002 -7.9055e+000 60442 75729,75859,75755
 6.0000e+000 76006 -5.5230e+001 -1.0543e+002  6.4628e+000 60442 75755,75833,75807
 6.0000e+000 75983 -5.6941e+001 -1.2496e+002  2.3935e+000 60442 75755,75807,75781
 6.0000e+000 75960 -8.0097e+000 -1.9901e+002  7.5506e+000 60442 75729,75911,75859
 6.0000e+000 75937 -1.0693e+002 -4.8466e+002  2.9908e+001 60442 75859,75911,75885
 6.0000e+000 76430 -5.6278e+001 -1.4463e+002 -3.5399e+000 59788 76453,76286,76234
 6.0000e+000 76407 -6.1215e+001 -1.6448e+002  3.4828e+000 59788 76453,76234,76182
 6.0000e+000 76384 -6.1645e+001 -1.1128e+002  1.8995e+001 59788 76525,76156,76312
 6.0000e+000 76361 -3.6465e+001 -1.8980e+002 -6.8260e-001 59788 76182,76234,76208
 6.0000e+000 76338 -4.7218e+001 -1.3699e+002  4.3924e-003 59788 76234,76286,76260
 6.0000e+000 76479 -6.6229e+001 -1.5541e+002  2.8091e+000 59788 76312,76286,76453
 6.0000e+000 76502 -5.6699e+001 -1.4732e+002  8.6176e+000 59788 76525,76312,76453
 6.0000e+000 76551 -7.5882e+001 -1.5673e+002  1.9909e+001 59788 76182,76156,76525
 6.0000e+000 76574 -6.7491e+001 -1.6777e+002  1.2584e+001 59788 76182,76525,76453
 6.0000e+000 77031 -3.9518e+001 -8.9922e+001 -1.2061e+001 59448 76835,76887,76861
 6.0000e+000 77008 -1.6875e+001 -7.2947e+001  3.8001e+000 59448 76835,76913,76887
 6.0000e+000 76985 -2.2020e+001 -6.1836e+001  1.2123e+001 59448 76809,76913,76835
 6.0000e+000 76962 -4.3735e+001 -8.1387e+001 -8.7286e-001 59448 76757,76913,76809
 6.0000e+000 76939 -3.7137e+001 -7.3177e+001 -3.7270e+000 59448 76757,76809,76783
 6.0000e+000 77537 -5.3351e+001 -1.1790e+002  5.4765e+000 58994 77560,77344,77292
 6.0000e+000 77514 -7.5066e+001 -1.1401e+002  1.8521e+000 58994 77560,77292,77240
 6.0000e+000 77491 -4.3226e+001 -1.0537e+002 -2.8383e+000 58994 77632,77214,77370
 6.0000e+000 77468 -8.7839e+001 -1.3425e+002  2.2778e+001 58994 77292,77344,77318
 6.0000e+000 77445 -4.2849e+001 -1.3496e+002  4.4711e+000 58994 77214,77396,77370
 6.0000e+000 77422 -7.7567e+001 -1.2337e+002 -2.1653e+000 58994 77240,77292,77266
 6.0000e+000 77586 -5.6803e+001 -1.1726e+002  5.9017e+000 58994 77370,77344,77560
 6.0000e+000 77609 -5.6225e+001 -1.1310e+002  7.7813e+000 58994 77632,77370,77560
 6.0000e+000 77658 -3.6177e+001 -9.7389e+001 -1.5043e+001 58994 77240,77214,77632
 6.0000e+000 77681 -4.5993e+001 -9.6453e+001 -5.4860e+000 58994 77240,77632,77560
 6.0000e+000 78138 -4.9007e+001 -8.5118e+001  1.1426e+001 58440 77864,77994,77890
 6.0000e+000 78115 -3.4116e+001 -5.4150e+001 -6.2923e+000 58440 77864,78020,77994
 6.0000e+000 78092 -5.5974e+001 -1.0004e+002 -9.0750e+000 58440 77942,77994,77968
 6.0000e+000 78069 -4.4749e+001 -9.4600e+001  1.8317e+000 58440 77890,77994,77942
 6.0000e+000 78046 -3.9883e+001 -9.4169e+001 -1.5167e+000 58440 77890,77942,77916
 6.0000e+000 78467 -1.1052e+001 -1.0799e+002  1.9946e+000 57928 78562,78490,78346
 6.0000e+000 78444 -4.0653e+001 -1.0785e+002 -2.1350e+000 57928 78490,78294,78268
 6.0000e+000 78421 -4.7358e+000 -1.1306e+002  7.1731e+000 57928 78562,78346,78320
 6.0000e+000 78398 -1.8493e+001 -1.0563e+002  3.1718e-001 57928 78242,78372,78268
 6.0000e+000 78516 -3.6707e+001 -1.3340e+002 -8.6837e+000 57928 78372,78346,78490
 6.0000e+000 78539 -3.0166e+001 -1.0368e+002 -1.9820e+000 57928 78372,78490,78268
 6.0000e+000 78588 -4.0792e+001 -1.0733e+002 -1.0021e+000 57928 78294,78490,78562
 6.0000e+000 78611 -2.1822e+001 -9.7836e+001  9.1333e+000 57928 78294,78562,78320
 6.0000e+000 79068 -8.3112e+001 -1.7678e+002 -4.3887e+001 57467 78794,78924,78820
 6.0000e+000 79045 -6.6130e+001 -1.6865e+002 -4.0467e+001 57467 78794,78950,78924
 6.0000e+000 79022 -3.3332e+001 -1.5818e+002  1.6829e+001 57467 78820,78898,78872
 6.0000e+000 78999 -6.0738e+001 -2.1918e+002 -2.2355e+001 57467 78820,78924,78898
 6.0000e+000 78976 -2.5976e+001 -1.6123e+002  2.5489e+001 57467 78820,78872,78846
 6.0000e+000 79446 -7.0300e+001 -1.2931e+002 -8.5550e-001 57120 79172,79302,79250
 6.0000e+000 79423 -6.3957e+001 -1.2637e+002 -5.6995e+000 57120 79172,79328,79302
 6.0000e+000 79400 -6.4503e+001 -1.1280e+002 -5.2006e+000 57120 79172,79250,79198
 6.0000e+000 79377 -4.9812e+001 -1.6147e+002  5.3507e+000 57120 79250,79302,79276
 6.0000e+000 79354 -7.6761e+001 -1.2315e+002 -1.0697e+001 57120 79198,79250,79224
 6.0000e+000 79952 -9.3664e+001 -1.4870e+002  1.0346e+000 56773 79629,79785,79655
 6.0000e+000 79929 -2.7431e+001 -1.2802e+002  6.6776e+000 56773 79629,79811,79785
 6.0000e+000 79906 -7.2483e+001 -1.6017e+002  1.0979e+001 56773 79655,79733,79681
 6.0000e+000 79883 -7.1352e+001 -1.4296e+002  3.2563e+000 56773 79655,79785,79733
 6.0000e+000 79860 -6.7679e+001 -1.8936e+002 -2.1758e+001 56773 79733,79785,79759
 6.0000e+000 79837 -3.9991e+001 -1.4506e+002  2.8868e+001 56773 79681,79733,79707
 6.0000e+000 80281 -3.6273e+001 -1.0639e+002 -8.6945e+000 56319 80108,80160,80134
 6.0000e+000 80258 -3.7715e+001 -1.1570e+002 -1.0396e+001 56319 80056,80160,80108
 6.0000e+000 80235 -1.9379e+001 -1.0327e+002  6.1959e+000 56319 80056,80186,80160
 6.0000e+000 80212 -4.8366e+001 -1.4822e+002 -7.7553e+000 56319 80056,80108,80082
 6.0000e+000 80738 -2.0267e+001 -1.3186e+002  7.0617e+000 55957 80516,80620,80594
 6.0000e+000 80715 -4.9322e+001 -1.1983e+002  5.3827e+000 55957 80464,80620,80516
 6.0000e+000 80692 -4.1066e+001 -1.4427e+002  7.3495e+000 55957 80761,80568,80542
 6.0000e+000 80669 -3.4824e+001 -1.4183e+002  8.6830e+000 55957 80761,80542,80516
 6.0000e+000 80646 -4.9205e+001 -1.1919e+002  1.5256e+001 55957 80464,80516,80490
 6.0000e+000 80787 -4.7402e+001 -1.4312e+002  5.1799e+000 55957 80594,80568,80761
 6.0000e+000 80810 -4.1528e+001 -1.4084e+002  6.5730e+000 55957 80594,80761,80516
 6.0000e+000 81210 -4.4133e+001 -1.3971e+002 -1.1419e+001 55317 80936,80988,80962
 6.0000e+000 81187 -3.7471e+001 -1.4734e+002  5.4396e-001 55317 80936,81066,80988
 6.0000e+000 81164 -3.1366e+001 -1.5809e+002  3.8000e+000 55317 80936,81092,81066
 6.0000e+000 81141 -5.3282e+001 -1.5802e+002 -1.3277e+001 55317 80988,81066,81014
 6.0000e+000 81118 -1.2135e+001 -9.0833e+001  1.0102e+001 55317 81014,81066,81040
 6.0000e+000 81539 -5.8424e+001 -1.2852e+002  1.1039e+000 54913 81340,81418,81392
 6.0000e+000 81516 -2.5313e+001 -1.0678e+002 -9.2252e+000 54913 81340,81444,81418
 6.0000e+000 81493 -3.6669e+001 -1.1399e+002 -1.6877e+001 54913 81314,81444,81340
 6.0000e+000 81470 -6.9041e+001 -1.3937e+002 -3.2393e+000 54913 81340,81392,81366
 6.0000e+000 81787 -3.5954e+001 -1.3884e+002 -1.5632e+000 54601 81588,81692,81640
 6.0000e+000 81764 -5.2959e+001 -1.4101e+002 -5.3103e+000 54601 81562,81692,81588
 6.0000e+000 81741 -3.0996e+001 -1.4170e+002  1.6923e+001 54601 81588,81640,81614
 6.0000e+000 81718 -3.6780e+001 -1.6557e+002 -1.5641e+001 54601 81640,81692,81666
 6.0000e+000 82344 -4.9366e+001 -1.3462e+002 -6.2770e+000 54090 81998,82102,82076
 6.0000e+000 82321 -6.6506e+001 -1.4207e+002 -4.2768e+000 54090 81998,82154,82102
 6.0000e+000 82298 -6.1350e+001 -1.3904e+002 -2.7978e+000 54090 81972,82154,81998
 6.0000e+000 82275 -6.9147e+001 -1.2477e+002 -7.7304e+000 54090 81998,82076,82024
 6.0000e+000 82252 -7.4710e+001 -1.4820e+002  6.4986e+000 54090 81972,82180,82154
 6.0000e+000 82229 -9.4574e+001 -1.7537e+002  1.0842e+001 54090 82102,82154,82128
 6.0000e+000 82206 -1.2133e+001 -9.3650e+001 -2.0509e+001 54090 82024,82076,82050
 6.0000e+000 82722 -9.0162e+001 -1.6193e+002 -4.8865e+000 53579 82500,82578,82552
 6.0000e+000 82699 -6.9609e+001 -1.4864e+002  3.4310e+000 53579 82448,82578,82500
 6.0000e+000 82676 -7.6903e+001 -1.6672e+002  5.2347e+000 53579 82448,82500,82474
 6.0000e+000 82653 -8.7902e+001 -1.5843e+002  1.1720e+001 53579 82448,82604,82578
 6.0000e+000 82630 -4.8838e+001 -1.5137e+002 -5.9879e+000 53579 82500,82552,82526
 6.0000e+000 83356 -4.6629e+001 -1.1977e+002 -1.0821e+001 53189 83379,83088,83036
 6.0000e+000 83333 -4.4993e+001 -1.3522e+002 -9.5762e+000 53189 83379,83036,82984
 6.0000e+000 83310 -1.9829e+001 -1.2593e+002  2.0132e+001 53189 82984,83192,83166
 6.0000e+000 83287 -2.3694e+000 -9.9785e+001 -6.5288e+000 53189 83036,83088,83062
 6.0000e+000 83264 -3.3254e+001 -1.5073e+002 -2.1279e+001 53189 82984,83036,83010
 6.0000e+000 83241 -3.4587e+001 -1.5045e+002  3.9760e+000 53189 83114,83166,83140
 6.0000e+000 83218 -6.3845e+001 -1.5796e+002  3.2445e+000 53189 83088,83166,83114
 6.0000e+000 83405 -4.6925e+001 -1.3013e+002 -4.4822e+000 53189 83166,83088,83379
 6.0000e+000 83428 -4.2944e+001 -1.4374e+002 -4.2221e+000 53189 83166,83379,82984
 6.0000e+000 83725 -5.6221e+001 -1.6073e+002 -1.6737e+001 52585 83748,83529,83503
 6.0000e+000 83702 -4.1215e+001 -1.5591e+002 -1.1177e+001 52585 83820,83748,83503
 6.0000e+000 83679 -2.7012e+001 -1.5048e+002 -8.8142e+000 52585 83820,83503,83477
 6.0000e+000 83656 -2.1059e+001 -1.3589e+002  1.4266e+001 52585 83477,83607,83581
 6.0000e+000 83633  8.8892e+000 -1.2296e+002  1.5734e+001 52585 83451,83607,83477
 6.0000e+000 83774 -4.8560e+001 -1.4150e+002 -1.4603e+001 52585 83555,83529,83748
 6.0000e+000 83797 -6.5112e+001 -1.5297e+002 -9.6032e+000 52585 83555,83748,83581
 6.0000e+000 83846 -5.4618e+001 -1.4485e+002 -3.7141e+000 52585 83581,83748,83820
 6.0000e+000 83869 -4.4868e+001 -1.4243e+002 -2.9771e+000 52585 83581,83820,83477
 6.0000e+000 84200 -4.1139e+001 -1.4295e+002 -5.5667e+000 52024 84001,84105,84079
 6.0000e+000 84177 -2.2018e+001 -1.4011e+002 -1.1334e+001 52024 83975,84105,84001
 6.0000e+000 84154 -3.5613e+001 -1.4435e+002 -3.7365e+000 52024 84001,84079,84053
 6.0000e+000 84131 -1.7435e+001 -9.7115e+001  1.6913e+001 52024 84001,84053,84027
 6.0000e+000 84399 -3.8833e+001 -1.4349e+002 -1.6059e+000 51470 84422,84275,84249
 6.0000e+000 84376 -3.7963e+001 -1.3976e+002 -8.5119e-001 51470 84422,84249,84223
 6.0000e+000 84353 -4.2735e+001 -1.5470e+002 -2.1565e+001 51470 84275,84327,84301
 6.0000e+000 84448 -3.9908e+001 -1.4026e+002 -1.9218e+000 51470 84327,84275,84422
 6.0000e+000 84471 -3.9595e+001 -1.3727e+002 -1.1641e+000 51470 84327,84422,84223
 6.0000e+000 84753 -4.1421e+001 -1.1863e+002 -5.3701e-001 51073 84603,84655,84629
 6.0000e+000 84730 -8.3690e+001 -1.3864e+002 -6.4365e+000 51073 84776,84655,84603
 6.0000e+000 84707 -2.1007e+001 -1.1930e+002 -3.3316e+001 51073 84577,84681,84655
 6.0000e+000 84802 -5.4209e+001 -1.2153e+002 -1.6570e+001 51073 84577,84655,84776
 6.0000e+000 85178 -7.8817e+001 -1.7593e+002  1.5551e+001 50519 85201,85008,84982
 6.0000e+000 85155 -7.4529e+001 -1.6402e+002  1.2501e+001 50519 85273,85201,84982
 6.0000e+000 85132 -7.1136e+001 -1.6352e+002  1.0397e+001 50519 85273,84982,84930
 6.0000e+000 85109 -6.8931e+001 -1.5776e+002  8.8657e+000 50519 84930,84982,84956
 6.0000e+000 85086 -6.9734e+001 -1.7112e+002  8.1218e+000 50519 85008,85060,85034
 6.0000e+000 85227 -6.8093e+001 -1.6872e+002  7.3135e+000 50519 85060,85008,85201
 6.0000e+000 85250 -7.4537e+001 -1.6954e+002  5.5269e+000 50519 85060,85201,84904
 6.0000e+000 85299 -7.1504e+001 -1.6687e+002  4.3234e+000 50519 84904,85201,85273
 6.0000e+000 85322 -5.7615e+001 -1.4685e+002 -1.7449e+000 50519 84904,85273,84930
 6.0000e+000 85958 -5.0461e+001 -1.4862e+002 -4.6497e+000 50093 85981,85768,85716
 6.0000e+000 85935 -4.4970e+001 -1.3539e+002 -4.5480e+000 50093 85981,85716,85612
 6.0000e+000 85912 -6.2130e+001 -1.3950e+002  3.1411e+000 50093 85612,85716,85664
 6.0000e+000 85889 -3.9309e+001 -1.4460e+002 -1.3705e+000 50093 85716,85768,85742
 6.0000e+000 85866 -5.1752e+001 -1.0856e+002 -2.8462e+001 50093 85664,85716,85690
 6.0000e+000 85843 -1.7899e+001 -1.0237e+002 -4.4713e+000 50093 85586,85794,85612
 6.0000e+000 85820 -4.2261e+001 -1.8983e+002  1.6984e+001 50093 85612,85664,85638
 6.0000e+000 86007 -6.1898e+001 -1.6024e+002 -2.3625e+001 50093 85794,85768,85981
 6.0000e+000 86030 -4.4729e+001 -1.2153e+002 -1.8740e+001 50093 85794,85981,85612
 6.0000e+000 86131 -4.5643e+001 -1.3641e+002  1.8482e+001 49895 86053,86105,86079
 6.0000e+000 86639 -3.8705e+001 -1.0276e+002 -2.0614e+001 49391 86662,86394,86368
 6.0000e+000 86616 -4.5947e+001 -1.2639e+002 -1.8768e+001 49391 86662,86368,86342
 6.0000e+000 86593 -2.2887e+001 -1.2572e+002 -5.4351e+000 49391 86342,86498,86472
 6.0000e+000 86570 -1.5212e+001 -1.3551e+002 -6.1381e+000 49391 86316,86498,86342
 6.0000e+000 86547 -7.1471e+001 -1.9295e+002 -6.8851e+000 49391 86394,86472,86446
 6.0000e+000 86524 -8.6100e+000 -1.8495e+002  2.2473e+000 49391 86394,86446,86420
 6.0000e+000 86688 -4.2444e+001 -1.2475e+002 -1.0402e+001 49391 86472,86394,86662
 6.0000e+000 86711 -3.8768e+001 -1.3496e+002 -1.0280e+001 49391 86472,86662,86342
 6.0000e+000 87089 -5.5422e+001 -1.4656e+002  4.4259e+000 48987 86815,86919,86867
 6.0000e+000 87066 -5.4574e+001 -1.5117e+002  6.7597e+000 48987 86815,86971,86919
 6.0000e+000 87043 -2.1475e+001 -1.6047e+002 -1.3125e+001 48987 86867,86919,86893
 6.0000e+000 87020 -6.2899e+001 -1.6718e+002  1.4653e+001 48987 86815,86867,86841
 6.0000e+000 86997 -6.0414e+001 -1.2983e+002  2.0978e+001 48987 86919,86971,86945
 6.0000e+000 87467 -1.0182e+002 -1.4813e+002  8.6601e+000 48540 87490,87245,87219
 6.0000e+000 87444 -7.1860e+001 -1.3898e+002  1.7908e+000 48540 87562,87490,87219
 6.0000e+000 87421 -5.5591e+001 -1.3241e+002  6.6028e+000 48540 87562,87219,87349
 6.0000e+000 87398 -7.4388e+001 -1.1353e+002 -5.1505e+000 48540 87245,87297,87271
 6.0000e+000 87375 -4.7871e+001 -1.3912e+002  4.8366e+000 48540 87193,87349,87219
 6.0000e+000 87516 -6.8472e+001 -1.3906e+002  4.5699e+000 48540 87297,87245,87490
 6.0000e+000 87539 -6.9148e+001 -1.4212e+002  3.8700e+000 48540 87297,87490,87323
 6.0000e+000 87588 -5.6159e+001 -1.3213e+002  1.2507e+001 48540 87323,87490,87562
 6.0000e+000 87611 -4.8262e+001 -1.3395e+002  1.5711e+001 48540 87323,87562,87349
 6.0000e+000 87810 -6.3026e+001 -2.2503e+002 -1.6247e+001 48136 87660,87712,87686
 6.0000e+000 87787 -3.5725e+001 -1.3268e+002 -7.7836e+000 48136 87660,87738,87712
 6.0000e+000 87764 -8.4836e+001 -1.3748e+002 -2.3375e+001 48136 87634,87738,87660
 6.0000e+000 88205 -6.5090e+001 -1.5675e+002 -1.5788e+001 47210 88300,88228,87937
 6.0000e+000 88182 -5.6753e+001 -1.5167e+002 -5.1843e+000 47210 88228,87833,88041
 6.0000e+000 88159 -6.6378e+001 -1.6893e+002 -2.4129e+001 47210 88300,87937,87911
 6.0000e+000 88136 -6.2589e+001 -1.5245e+002 -1.9083e+001 47210 87833,87911,87859
 6.0000e+000 88113 -1.1058e+002 -1.3886e+002 -1.5810e+001 47210 87937,87989,87963
 6.0000e+000 88090 -5.5113e+001 -1.2286e+002  2.6269e+001 47210 87989,88041,88015
 6.0000e+000 88067 -7.2594e+001 -1.7756e+002 -2.4880e+001 47210 87859,87911,87885
 6.0000e+000 88254 -5.7603e+001 -1.2646e+002 -1.6477e+001 47210 87989,87937,88228
 6.0000e+000 88277 -6.9680e+001 -1.4893e+002 -6.6697e+000 47210 87989,88228,88041
 6.0000e+000 88326 -5.4156e+001 -1.4550e+002 -6.2823e+000 47210 87833,88228,88300
 6.0000e+000 88349 -5.7102e+001 -1.5347e+002 -1.5307e+001 47210 87833,88300,87911
 6.0000e+000 88780 -8.9106e+001 -1.5935e+002 -2.9958e+001 46642 88803,88509,88483
 6.0000e+000 88757 -6.4961e+001 -1.4395e+002 -1.5858e+001 46642 88803,88483,88639
 6.0000e+000 88734 -7.0934e+001 -1.1785e+002 -1.9030e+001 46642 88875,88561,88509
 6.0000e+000 88711 -7.1892e+001 -1.0842e+002 -2.5570e+000 46642 88509,88561,88535
 6.0000e+000 88688 -4.1677e+001 -1.6050e+002  7.7348e-001 46642 88457,88639,88483
 6.0000e+000 88665 -8.2226e+001 -1.9304e+002 -8.9671e+000 46642 88561,88613,88587
 6.0000e+000 88829 -7.1737e+001 -1.2873e+002 -2.1469e+001 46642 88875,88509,88803
 6.0000e+000 88852 -7.0535e+001 -1.5461e+002 -1.3841e+001 46642 88613,88803,88639
 6.0000e+000 88901 -5.8073e+001 -1.3286e+002 -9.9262e+000 46642 88613,88561,88875
 6.0000e+000 88924 -6.3620e+001 -1.5034e+002 -1.2036e+001 46642 88613,88875,88803
 6.0000e+000 89253 -2.7709e+001 -1.4646e+002  3.1655e+000 46444 89080,89158,89132
 6.0000e+000 89230 -3.0907e+001 -1.5317e+002  1.3013e+000 46444 89028,89158,89080
 6.0000e+000 89207 -1.2185e+001 -1.3729e+002 -5.4692e+000 46444 89028,89080,89054
 6.0000e+000 89184 -9.3308e+000 -1.5937e+002 -1.3754e+001 46444 89080,89132,89106
 6.0000e+000 89631 -4.5139e+001 -1.0322e+002  3.0375e+000 46040 89383,89461,89435
 6.0000e+000 89608 -4.7432e+001 -1.1379e+002 -6.3107e+000 46040 89383,89487,89461
 6.0000e+000 89585 -4.9434e+001 -1.3269e+002 -3.1602e+000 46040 89383,89435,89409
 6.0000e+000 89562 -3.7702e+001 -9.7247e+001 -1.3350e+001 46040 89383,89513,89487
 6.0000e+000 89539 -1.5186e+001 -8.6114e+001 -1.8418e+001 46040 89357,89513,89383
 6.0000e+000 90009 -4.7920e+001 -1.3191e+002 -2.0279e-001 45636 89813,89891,89839
 6.0000e+000 89986 -4.9115e+001 -1.2263e+002  7.6011e+000 45636 89787,89891,89813
 6.0000e+000 89963 -4.3237e+001 -1.2413e+002 -2.9724e+000 45636 89839,89891,89865
 6.0000e+000 89940 -5.6007e+001 -1.3679e+002  4.8304e+000 45636 89735,89891,89787
 6.0000e+000 89917 -4.4369e+001 -1.3818e+002 -5.4026e+000 45636 89735,89787,89761
 6.0000e+000 90208 -2.9407e+001 -1.0112e+002 -2.0249e+001 45175 90231,90058,90032
 6.0000e+000 90185 -1.7554e+001 -9.2401e+001 -3.0297e+001 45175 90231,90032,90136
 6.0000e+000 90162 -3.4393e+001 -7.9737e+001 -1.3010e+000 45175 90058,90110,90084
 6.0000e+000 90257 -4.2637e+001 -1.1364e+002 -5.2957e+000 45175 90110,90058,90231
 6.0000e+000 90280 -1.9999e+001 -9.8459e+001 -1.6503e+001 45175 90110,90231,90136
 6.0000e+000 90528 -3.2537e+001 -1.0244e+002 -1.4077e+001 44513 90695,90551,90407
 6.0000e+000 90505 -3.5221e+001 -9.3479e+001 -8.6890e+000 44513 90551,90355,90329
 6.0000e+000 90482 -4.0297e+001 -1.0019e+002 -1.2750e+001 44513 90623,90303,90433
 6.0000e+000 90459 -2.6873e+001 -9.5110e+001 -9.8050e+000 44513 90695,90407,90381
 6.0000e+000 90577 -4.6682e+001 -1.0692e+002 -2.3591e+001 44513 90433,90407,90551
 6.0000e+000 90600 -4.0162e+001 -9.8056e+001 -1.2478e+001 44513 90623,90433,90551
 6.0000e+000 90649 -3.9223e+001 -9.7675e+001 -1.2792e+001 44513 90329,90303,90623
 6.0000e+000 90672 -3.9909e+001 -9.7032e+001 -1.2655e+001 44513 90329,90623,90551
 6.0000e+000 90721 -4.0458e+001 -9.2260e+001 -1.6205e+001 44513 90355,90551,90695
 6.0000e+000 90744 -3.9319e+001 -8.8105e+001 -1.4473e+001 44513 90355,90695,90381
 6.0000e+000 91077  3.5700e+000 -1.0652e+002 -6.5206e+000 44059 91100,90930,90904
 6.0000e+000 91054 -4.2015e+001 -1.1535e+002  7.4427e+000 44059 91100,90904,90982
 6.0000e+000 91031 -7.5049e+001 -1.3255e+002 -7.9633e+000 44059 90878,90982,90904
 6.0000e+000 91008 -2.6979e+001 -1.0264e+002  5.3835e+000 44059 90852,90982,90878
 6.0000e+000 91126 -6.8696e+001 -1.2614e+002 -6.5050e+000 44059 91172,91100,90956
 6.0000e+000 91149 -4.1465e+001 -1.1691e+002 -5.1201e+000 44059 90956,91100,90982
 6.0000e+000 91198  3.9404e+000 -5.0392e+001 -3.6147e+001 44059 90930,91100,91172
 6.0000e+000 91677 -5.0649e+001 -7.9626e+001  7.4059e+000 43549 91455,91533,91481
 6.0000e+000 91654 -1.8468e+001 -7.9285e+001  1.0916e+001 43549 91429,91533,91455
 6.0000e+000 91631 -4.8688e+001 -7.9238e+001  3.2785e+000 43549 91481,91533,91507
 6.0000e+000 91608 -9.8958e+000 -7.5830e+001  4.4654e+000 43549 91429,91559,91533
 6.0000e+000 91585  2.9055e+000 -1.7456e+001 -1.2615e+000 43549 91403,91559,91429
 6.0000e+000 92006 -5.5299e+001 -1.3363e+002  8.5109e-001 43059 91781,91885,91807
 6.0000e+000 91983 -5.7881e+001 -1.2657e+002  2.1551e+001 43059 91781,91911,91885
 6.0000e+000 91960 -5.4442e+001 -1.3237e+002  2.0719e-001 43059 91807,91885,91833
 6.0000e+000 91937 -3.6148e+001 -1.2494e+002 -8.2041e-001 43059 91833,91885,91859
 6.0000e+000 92561 -3.8151e+001 -8.6604e+001 -9.7592e+000 42598 92584,92215,92189
 6.0000e+000 92538 -4.2516e+001 -9.6856e+001 -8.4188e+000 42598 92656,92584,92189
 6.0000e+000 92515 -3.7678e+001 -1.0934e+002 -2.1019e+000 42598 92656,92189,92397
 6.0000e+000 92492 -5.4088e+001 -7.7512e+001 -1.2110e+001 42598 92241,92319,92293
 6.0000e+000 92469 -4.7229e+001 -9.1850e+001  6.5249e+000 42598 92319,92397,92371
 6.0000e+000 92446 -1.4812e+001 -1.1479e+002  5.2888e+001 42598 92319,92371,92345
 6.0000e+000 92423 -5.1545e+001 -7.9937e+001 -1.8327e+001 42598 92241,92293,92267
 6.0000e+000 92610 -4.2365e+001 -8.8639e+001 -1.0383e+001 42598 92241,92215,92584
 6.0000e+000 92633 -3.8125e+001 -7.8881e+001 -1.1465e+001 42598 92241,92584,92319
 6.0000e+000 92682 -3.8102e+001 -7.9996e+001 -5.6366e+000 42598 92319,92584,92656
 6.0000e+000 92705 -3.0633e+001 -8.8730e+001 -8.9419e-001 42598 92319,92656,92397
 6.0000e+000 92953 -5.6511e+001 -1.4292e+002  7.7972e+000 42094 92976,92806,92780
 6.0000e+000 92930 -6.2537e+001 -1.3470e+002  1.6554e-001 42094 92976,92780,92754
 6.0000e+000 92907 -1.6899e+001 -1.3803e+002 -7.2068e-001 42094 93048,92832,92806
 6.0000e+000 92884 -7.7619e+001 -1.3677e+002 -8.5546e+000 42094 92728,92858,92754
 6.0000e+000 93002 -3.7975e+001 -1.3255e+002  3.6912e+000 42094 93048,92806,92976
 6.0000e+000 93025 -5.7741e+001 -1.3208e+002 -2.1207e+000 42094 92858,92976,92754
 6.0000e+000 93074 -4.6330e+001 -1.4857e+002 -1.0467e+000 42094 92858,92832,93048
 6.0000e+000 93097 -6.3400e+001 -1.4054e+002  1.5007e+000 42094 92858,93048,92976
 6.0000e+000 93605 -5.6248e+001 -1.6117e+002 -6.9226e+000 41846 93628,93412,93386
 6.0000e+000 93582 -4.4737e+001 -1.2088e+002 -2.8018e+000 41846 93628,93386,93308
 6.0000e+000 93559 -6.3243e+001 -1.2477e+002 -2.7876e+001 41846 93700,93464,93438
 6.0000e+000 93536 -6.4553e+001 -1.7040e+002  8.7290e-001 41846 93308,93386,93334
 6.0000e+000 93513 -7.8980e+001 -1.1303e+002 -2.5985e+001 41846 93334,93386,93360
 6.0000e+000 93490 -5.8175e+001 -1.1001e+002 -2.9627e+001 41846 93282,93464,93308
 6.0000e+000 93654 -5.0193e+001 -1.2886e+002 -1.2704e+001 41846 93438,93412,93628
 6.0000e+000 93677 -6.5617e+001 -1.2862e+002 -1.2426e+001 41846 93700,93438,93628
 6.0000e+000 93726 -5.5330e+001 -1.0585e+002 -2.8182e+001 41846 93308,93464,93700
 6.0000e+000 93749 -5.5084e+001 -1.0365e+002 -1.2975e+001 41846 93308,93700,93628
 6.0000e+000 94255 -5.0345e+001 -1.3690e+002  8.9395e+000 41385 93958,94114,94088
 6.0000e+000 94232 -4.2446e+001 -1.4717e+002  3.8542e+000 41385 93932,94114,93958
 6.0000e+000 94209 -8.0468e+001 -1.5753e+002  2.5880e+001 41385 93958,94088,94062
 6.0000e+000 94186 -8.4189e+001 -1.1386e+002  1.9320e+001 41385 93958,94062,93984
 6.0000e+000 94163 -6.9903e+001 -1.1224e+002  1.5600e+001 41385 93984,94062,94036
 6.0000e+000 94140 -4.7436e+001 -1.4749e+002  2.1838e+001 41385 93984,94036,94010
 6.0000e+000 94476 -1.8800e+001 -1.8646e+002  1.0040e+001 40881 94326,94378,94352
 6.0000e+000 94453 -3.1732e+001 -1.5139e+002  1.2497e+001 40881 94300,94378,94326
 6.0000e+000 94430 -4.1622e+001 -1.4033e+002  1.5487e+000 40881 94300,94404,94378
 6.0000e+000 94626 -3.2072e+001 -9.7747e+001 -2.3084e+000 40591 94649,94551,94525
 6.0000e+000 94603 -1.8544e+001 -5.6295e+001  3.1579e+000 40591 94781,94577,94551
 6.0000e+000 94675 -8.4525e+000 -6.8749e+001 -1.3239e+001 40591 94781,94551,94649
 6.0000e+000 94807  6.8012e+000 -3.3253e+001  1.6326e+001 40591 94499,94577,94781
 6.0000e+000 94830  1.0431e+001 -5.7251e+001 -1.1675e+000 40591 94499,94781,94649
 6.0000e+000 95336 -1.0743e+002 -1.2873e+002 -2.3146e+001 40187 95013,95169,95039
 6.0000e+000 95313 -2.8464e+001 -1.1527e+002  1.1312e+000 40187 95013,95195,95169
 6.0000e+000 95290 -2.1449e+001 -1.2329e+002 -1.6772e+001 40187 95039,95143,95065
 6.0000e+000 95267 -7.3498e+001 -1.4439e+002 -2.2065e+001 40187 95039,95169,95143
 6.0000e+000 95244 -1.9591e+001 -8.1477e+001 -5.7894e+000 40187 95091,95143,95117
 6.0000e+000 95221 -5.4434e+000 -5.0458e+001 -2.1293e+000 40187 95065,95143,95091
 6.0000e+000 95665 -3.0432e+001 -8.4986e+001  4.8761e+001 39626 95466,95570,95544
 6.0000e+000 95642 -6.6241e+001 -6.5170e+001  3.1343e+001 39626 95440,95570,95466
 6.0000e+000 95619 -1.0970e+002 -1.2213e+002  3.2970e+001 39626 95466,95544,95492
 6.0000e+000 95596 -1.3657e+001 -9.0890e+001  4.9323e+001 39626 95492,95544,95518
 6.0000e+000 95913 -5.3921e+001 -1.1333e+002 -1.6459e+001 39136 96080,95936,95766
 6.0000e+000 95890 -3.7519e+001 -1.2200e+002 -1.0731e+001 39136 95936,95714,95688
 6.0000e+000 95867 -9.1924e+001 -1.2203e+002  5.2212e+000 39136 96008,95792,95766
 6.0000e+000 95844 -4.4998e+001 -1.1019e+002 -1.2293e+001 39136 96080,95766,95740
 6.0000e+000 95962 -7.2972e+001 -1.2626e+002 -1.0548e+001 39136 96008,95766,95936
 6.0000e+000 95985 -4.8155e+001 -1.4972e+002 -2.9208e+000 39136 95818,95936,95688
 6.0000e+000 96034 -4.6180e+001 -1.0217e+002  7.8311e+000 39136 95818,95792,96008
 6.0000e+000 96057 -4.1199e+001 -1.1202e+002 -7.6990e+000 39136 95818,96008,95936
 6.0000e+000 96106 -4.9300e+001 -1.1181e+002 -4.5561e+000 39136 95714,95936,96080
 6.0000e+000 96129 -3.5407e+001 -1.0815e+002 -1.2662e+000 39136 95714,96080,95740
 6.0000e+000 96350 -3.5780e+001 -9.2426e+001 -6.2449e+000 38824 96200,96278,96252
 6.0000e+000 96327 -3.0006e+001 -8.9011e+001 -4.7465e+000 38824 96174,96278,96200
 6.0000e+000 96304 -3.3664e+000 -8.2305e+001 -1.7877e+001 38824 96200,96252,96226
 6.0000e+000 96830 -5.1701e+001 -9.6587e+001 -8.4647e+000 38320 97069,96536,96484
 6.0000e+000 96807 -5.0921e+001 -9.7802e+001 -8.3824e+000 38320 97069,96484,96853
 6.0000e+000 96784 -5.7918e+001 -1.0514e+002 -1.6118e-001 38320 96853,96484,96458
 6.0000e+000 96761 -3.1935e+001 -8.3049e+001 -1.1924e+001 38320 96925,96640,96614
 6.0000e+000 96738 -4.9808e+001 -8.6081e+001 -5.3329e+000 38320 96997,96666,96640
 6.0000e+000 96715 -4.3087e+001 -1.1610e+002 -4.1953e+000 38320 97141,96588,96562
 6.0000e+000 96692 -6.4773e+001 -1.1101e+002 -2.6796e+000 38320 96484,96536,96510
 6.0000e+000 96879 -5.2003e+001 -1.0515e+002 -5.3330e+000 38320 97141,96562,96853
 6.0000e+000 96902 -4.7706e+001 -1.0086e+002 -5.1951e+000 38320 96925,96614,96853
 6.0000e+000 96951 -4.8887e+001 -8.5074e+001 -6.1727e+000 38320 96997,96640,96925
 6.0000e+000 96974 -4.6484e+001 -8.4578e+001 -4.6848e+000 38320 96458,96925,96853
 6.0000e+000 97023 -5.4125e+001 -8.7666e+001 -3.0967e+000 38320 96458,96666,96997
 6.0000e+000 97046 -5.0903e+001 -8.5767e+001 -4.0550e+000 38320 96458,96997,96925
 6.0000e+000 97095 -5.2724e+001 -9.2943e+001 -3.7886e+000 38320 96562,96536,97069
 6.0000e+000 97118 -4.9020e+001 -9.6938e+001 -7.5826e+000 38320 96562,97069,96853
 6.0000e+000 97167 -2.7977e+001 -1.0569e+002 -8.8258e+000 38320 96614,96588,97141
 6.0000e+000 97190 -4.2559e+001 -9.8769e+001 -8.5481e+000 38320 96614,97141,96853
 6.0000e+000 97519 -3.8673e+001 -1.2933e+002  3.6175e+001 37766 97542,97398,97372
 6.0000e+000 97496 -4.6113e+001 -9.9461e+001  2.6068e+001 37766 97542,97372,97346
 6.0000e+000 97473 -4.6399e+001 -1.0707e+002  1.0526e+000 37766 97294,97424,97346
 6.0000e+000 97450 -5.2774e+001 -1.2444e+002  2.1820e-002 37766 97294,97346,97320
 6.0000e+000 97568 -1.9174e+001 -1.3728e+002  1.1262e+001 37766 97424,97398,97542
 6.0000e+000 97591 -3.1179e+001 -1.0255e+002  3.0459e+000 37766 97424,97542,97346
 6.0000e+000 98048 -5.2931e+001 -7.7749e+001 -2.6092e+001 37262 98071,97878,97852
 6.0000e+000 98025 -4.4275e+001 -9.3675e+001 -1.0191e+001 37262 98071,97852,97800
 6.0000e+000 98002 -4.6704e+001 -1.1066e+002 -1.2823e+001 37262 97800,97852,97826
 6.0000e+000 97979 -4.9466e+001 -1.0113e+002  8.7195e-001 37262 97800,97930,97904
 6.0000e+000 97956 -3.2733e+001 -1.1601e+002  6.2102e+000 37262 97774,97930,97800
 6.0000e+000 98097 -7.6710e+001 -8.9289e+001 -1.8669e+001 37262 97904,97878,98071
 6.0000e+000 98120 -5.7192e+001 -1.0640e+002 -4.1322e+000 37262 97904,98071,97800
 6.0000e+000 98449 -3.2042e+001 -8.1099e+001 -9.7262e+000 36950 98472,98302,98250
 6.0000e+000 98426 -2.0121e+001 -7.7576e+001 -1.1873e+001 36950 98472,98250,98354
 6.0000e+000 98403 -4.9107e+001 -9.1975e+001  1.0400e+001 36950 98250,98302,98276
 6.0000e+000 98380 -1.2988e+001 -6.0092e+001  7.9387e+000 36950 98224,98354,98250
 6.0000e+000 98498 -2.3185e+001 -9.0529e+001 -2.7149e+000 36950 98328,98302,98472
 6.0000e+000 98521 -9.2970e+000 -8.5237e+001 -6.8625e+000 36950 98328,98472,98354
 6.0000e+000 99125 -5.3499e+001 -5.4348e+001  2.6655e+000 36296 98704,98756,98730
 6.0000e+000 99102 -6.2927e+001 -6.0869e+001  6.5183e+000 36296 98704,98938,98756
 6.0000e+000 99079 -4.4099e+001 -7.9587e+001 -2.0512e+000 36296 99148,98938,98912
 6.0000e+000 99056 -4.5793e+001 -8.2804e+001  1.9403e+001 36296 99292,99220,98782
 6.0000e+000 99033 -3.8471e+001 -9.3973e+001  2.3922e+000 36296 99148,98912,98834
 6.0000e+000 99010 -4.4837e+001 -7.1151e+001  2.2525e+001 36296 99292,98782,98756
 6.0000e+000 98987 -3.7294e+001 -1.6500e+002 -3.0183e+001 36296 98834,98912,98886
 6.0000e+000 98964 -6.1112e+001 -2.3466e+002 -3.8621e+001 36296 98834,98886,98860
 6.0000e+000 99174 -5.4952e+001 -1.0002e+002  3.3682e+000 36296 99220,98938,99148
 6.0000e+000 99197 -3.7422e+001 -1.1448e+002  1.2373e+001 36296 98808,99148,98834
 6.0000e+000 99246 -4.6836e+001 -8.4920e+001  4.6499e+001 36296 98808,98782,99220
 6.0000e+000 99269 -1.9581e+001 -7.3295e+001  1.5158e+001 36296 98808,99220,99148
 6.0000e+000 99318 -5.2300e+001 -7.2752e+001  1.1809e+001 36296 98938,99220,99292
 6.0000e+000 99341 -5.3262e+001 -7.4270e+001  1.4462e+001 36296 98938,99292,98756
 6.0000e+000 99719 -6.4119e+001 -1.3073e+002  5.8802e-001 35742 99742,99471,99601
 6.0000e+000 99696 -6.4484e+001 -1.0408e+002  1.2549e+001 35742 99445,99601,99471
 6.0000e+000 99673 -6.1171e+001 -1.2398e+002 -4.3138e+000 35742 99742,99601,99575
 6.0000e+000 99650 -5.3918e+001 -1.5495e+002 -3.4403e+000 35742 99814,99549,99523
 6.0000e+000 99627 -4.4350e+001 -1.2108e+002  2.7705e-001 35742 99471,99523,99497
 6.0000e+000 99768 -5.1726e+001 -1.2805e+002  3.3649e+000 35742 99523,99471,99742
 6.0000e+000 99791 -6.0855e+001 -1.4284e+002 -2.7540e+000 35742 99814,99523,99742
 6.0000e+000 99840 -5.3336e+001 -1.3981e+002 -8.0478e+000 35742 99575,99549,99814
 6.0000e+000 99863 -5.7566e+001 -1.2393e+002 -6.9217e+000 35742 99575,99814,99742
 6.0000e+000 100111 -5.0240e+001 -1.0718e+002  8.3813e+000 35302 100134,99990,99938
 6.0000e+000 100088 -4.2156e+001 -9.6817e+001  3.5320e+000 35302 100134,99938,99912
 6.0000e+000 100065 -4.2443e+001 -9.6964e+001 -2.1010e+000 35302 100206,99886,100016
 6.0000e+000 100042 -6.1783e+001 -1.0486e+002  5.6108e+000 35302 99938,99990,99964
 6.0000e+000 100160 -4.0289e+001 -1.0349e+002  1.8050e+000 35302 100016,99990,100134
 6.0000e+000 100183 -4.0454e+001 -9.8625e+001 -2.0493e+000 35302 100206,100016,100134
 6.0000e+000 100232 -4.4191e+001 -9.8896e+001 -9.1982e-001 35302 99912,99886,100206
 6.0000e+000 100255 -4.2314e+001 -1.0095e+002 -9.2425e-001 35302 99912,100206,100134
 6.0000e+000 100586 -6.2430e+001 -6.5756e+001  2.2655e+001 35012 100609,100387,100361
 6.0000e+000 100563 -7.7451e+001 -4.2496e+001 -1.5205e+001 35012 100609,100361,100465
 6.0000e+000 100540 -3.3424e+001 -2.6426e+001 -3.5023e+001 35012 100361,100491,100465
 6.0000e+000 100517 -5.9115e+000 -3.0259e+001 -3.7073e+001 35012 100413,100465,100439
 6.0000e+000 100635 -2.4530e+001 -4.8933e+001  7.6276e+000 35012 100413,100387,100609
 6.0000e+000 100658 -3.7781e+001 -1.8966e+001 -3.1189e+001 35012 100413,100609,100465
 6.0000e+000 100987 -4.8177e+001 -1.1093e+002  1.0038e+001 34700 100788,100866,100814
 6.0000e+000 100964 -4.0970e+001 -8.3506e+001  1.7461e+001 34700 101010,100866,100788
 6.0000e+000 100941 -2.1943e+001 -5.0688e+001  1.5886e+001 34700 100762,100892,100866
 6.0000e+000 100918 -4.3774e+001 -1.0028e+002  9.0181e+000 34700 100814,100866,100840
 6.0000e+000 101036 -2.5427e+001 -7.0808e+001  2.9827e+001 34700 100762,100866,101010
 6.0000e+000 101493 -6.6532e+001 -1.2342e+002 -9.3419e+000 34132 101516,101349,101297
 6.0000e+000 101470 -7.8604e+001 -1.4665e+002 -1.5561e+001 34132 101588,101516,101297
 6.0000e+000 101447 -7.8775e+001 -1.5367e+002 -2.3279e+001 34132 101588,101297,101245
 6.0000e+000 101424 -5.0192e+001 -1.7794e+002 -2.1944e+001 34132 101245,101297,101271
 6.0000e+000 101401 -7.2026e+001 -1.2318e+002 -1.2202e+001 34132 101297,101349,101323
 6.0000e+000 101542 -6.8142e+001 -1.4172e+002 -7.4548e+000 34132 101375,101349,101516
 6.0000e+000 101565 -6.2415e+001 -1.4207e+002 -8.2912e+000 34132 101375,101516,101219
 6.0000e+000 101614 -6.3958e+001 -1.4710e+002 -8.0715e+000 34132 101219,101516,101588
 6.0000e+000 101637 -7.1398e+001 -1.5414e+002 -1.5409e+001 34132 101219,101588,101245
 6.0000e+000 101858 -1.9841e+001 -9.5240e+001  1.0159e+001 33720 101708,101786,101760
 6.0000e+000 101835 -9.5673e+000 -1.0137e+002  1.6486e+001 33720 101682,101786,101708
 6.0000e+000 101812 -3.1601e+001 -1.0115e+002  7.6816e+000 33720 101708,101760,101734
 6.0000e+000 102128 -1.7629e+001 -1.2867e+002 -3.5488e+000 33130 101903,102007,101929
 6.0000e+000 102105 -2.0178e+001 -1.4881e+002  4.7906e+000 33130 101903,102033,102007
 6.0000e+000 102082 -1.0835e+001 -1.5311e+002 -2.9036e+001 33130 101929,102007,101955
 6.0000e+000 102059 -2.5034e+001 -1.0861e+002  2.8074e+000 33130 101955,102007,101981
 6.0000e+000 102461 -3.6136e+001 -8.9757e+001 -9.4595e+000 32840 102236,102340,102262
 6.0000e+000 102438 -3.2410e+001 -6.5507e+001  2.3730e+000 32840 102236,102366,102340
 6.0000e+000 102415 -2.0389e+001 -8.5809e+001 -8.0011e+000 32840 102262,102340,102288
 6.0000e+000 102392 -4.0897e+001 -8.9527e+001 -2.1466e+001 32840 102288,102340,102314
 6.0000e+000 102997 -4.3855e+001 -7.4725e+001  2.0421e+001 32493 102749,102879,102853
 6.0000e+000 102974 -3.6635e+001 -6.0321e+001  1.5704e+001 32493 102723,102879,102749
 6.0000e+000 102951 -4.9118e+001 -8.9446e+001  1.4087e+001 32493 102749,102801,102775
 6.0000e+000 102928 -5.4312e+001 -8.9091e+001  1.3554e+001 32493 102749,102853,102801
 6.0000e+000 102905 -5.2363e+001 -8.6311e+001  1.1751e+001 32493 102801,102853,102827
 6.0000e+000 103454 -3.7362e+001 -7.0498e+001 -8.3478e+000 32089 103206,103336,103310
 6.0000e+000 103431 -2.8255e+001 -7.7874e+001 -6.6986e-001 32089 103180,103336,103206
 6.0000e+000 103408 -4.7985e+001 -8.8612e+001 -1.7118e+001 32089 103206,103284,103258
 6.0000e+000 103385 -6.6353e+001 -9.0036e+001 -2.0942e+001 32089 103206,103310,103284
 6.0000e+000 103362 -3.6717e+001 -6.0183e+001 -1.2078e+001 32089 103206,103258,103232
 6.0000e+000 103783 -7.6442e+001 -9.9931e+001 -1.2045e+001 31742 103558,103662,103584
 6.0000e+000 103760 -6.2421e+001 -8.1268e+001 -3.0817e+001 31742 103558,103688,103662
 6.0000e+000 103737 -5.1080e+001 -7.9776e+001 -2.1986e+001 31742 103584,103662,103636
 6.0000e+000 103714 -4.9937e+001 -9.1122e+001 -2.3309e+001 31742 103584,103636,103610
 6.0000e+000 104112 -1.3403e+001 -7.7315e+001  1.1526e+001 31402 103939,103991,103965
 6.0000e+000 104089 -2.3063e+001 -6.6198e+001  5.6068e+000 31402 103913,103991,103939
 6.0000e+000 104066 -3.2318e+001 -7.6362e+001 -7.9163e-002 31402 103913,104017,103991
 6.0000e+000 104043 -4.2685e+001 -6.9433e+001 -7.1372e+000 31402 103887,104017,103913
 6.0000e+000 104569 -7.2508e+001 -1.3101e+002  5.2075e+000 30998 104321,104425,104373
 6.0000e+000 104546 -8.0256e+001 -1.3428e+002  5.5787e+000 30998 104321,104451,104425
 6.0000e+000 104523 -5.4918e+001 -1.0668e+002  1.8482e+001 30998 104373,104425,104399
 6.0000e+000 104500 -6.3115e+001 -1.5232e+002 -3.2830e+000 30998 104295,104451,104321
 6.0000e+000 104477 -9.8038e+001 -1.5430e+002  3.0639e+001 30998 104321,104373,104347
 6.0000e+000 104947 -6.9875e+001 -1.1780e+002 -1.4881e+001 30608 104751,104803,104777
 6.0000e+000 104924 -4.4771e+001 -1.2016e+002 -5.5054e+000 30608 104725,104803,104751
 6.0000e+000 104901 -7.0821e+001 -1.1602e+002  7.6963e+000 30608 104699,104803,104725
 6.0000e+000 104878 -5.9500e+001 -1.1097e+002  6.6446e+000 30608 104673,104803,104699
 6.0000e+000 104855 -4.5643e+001 -1.0394e+002 -3.9933e+000 30608 104673,104829,104803
 6.0000e+000 105276 -5.0947e+001 -1.0929e+002  3.9831e+000 30204 105427,105129,105077
 6.0000e+000 105253 -3.4372e+001 -1.2121e+002  2.5388e+001 30204 105427,105077,105051
 6.0000e+000 105230 -4.2280e+001 -1.0631e+002  4.9142e+000 30204 105077,105129,105103
 6.0000e+000 105207 -2.8488e+001 -9.7853e+001  1.6627e+001 30204 105299,105181,105155
 6.0000e+000 105325 -2.9919e+001 -9.5187e+001  4.9237e+000 30204 105129,105181,105299
 6.0000e+000 105453 -6.1241e+001 -1.1672e+002  1.5005e+001 30204 105181,105129,105427
 6.0000e+000 105476 -7.1986e+001 -1.4114e+002  3.9411e+001 30204 105181,105427,105051
 6.0000e+000 105903 -3.9680e+001 -9.3324e+001 -6.8369e+000 29700 105606,105762,105736
 6.0000e+000 105880 -5.1167e+001 -9.5984e+001  1.9382e-001 29700 105580,105762,105606
 6.0000e+000 105857 -6.0797e+001 -1.1711e+002 -6.8595e+000 29700 105606,105710,105632
 6.0000e+000 105834 -5.0607e+001 -9.9221e+001 -2.7647e+000 29700 105606,105736,105710
 6.0000e+000 105811 -5.6658e+001 -1.0904e+002 -8.4996e+000 29700 105632,105710,105684
 6.0000e+000 105788 -5.5394e+001 -1.0580e+002 -3.8599e+000 29700 105632,105684,105658
 6.0000e+000 106102 -1.5858e+001 -1.1323e+002  4.3875e+000 29124 105978,106030,106004
 6.0000e+000 106079 -2.8744e+001 -1.0912e+002  5.5471e+000 29124 105926,106030,105978
 6.0000e+000 106056 -3.4170e+001 -1.2869e+002  1.4846e+001 29124 105926,105978,105952
 6.0000e+000 106301 -3.2194e+001 -1.1467e+002  7.0450e-001 28712 106151,106229,106203
 6.0000e+000 106278 -3.8825e+001 -1.2716e+002 -5.6273e+000 28712 106125,106229,106151
 6.0000e+000 106255 -3.3168e+001 -1.2000e+002  5.9763e+000 28712 106151,106203,106177
 6.0000e+000 106551 -3.9022e+001 -1.4072e+002  8.0167e+000 28258 106352,106404,106378
 6.0000e+000 106528 -5.4466e+001 -1.4235e+002  2.5256e+000 28258 106352,106456,106404
 6.0000e+000 106505 -5.4324e+001 -1.4481e+002  1.5593e+000 28258 106326,106456,106352
 6.0000e+000 106482 -4.7870e+001 -1.3145e+002 -1.2006e+000 28258 106404,106456,106430
 6.0000e+000 107012 -4.8749e+001 -1.2169e+002  2.3918e+001 27818 107035,106790,106764
 6.0000e+000 106989 -4.2565e+001 -1.1516e+002  9.3751e+000 27818 107035,106764,106868
 6.0000e+000 106966 -3.0349e+001 -1.4028e+002  1.3572e+001 27818 107107,106842,106816
 6.0000e+000 106943 -6.2412e+001 -1.0565e+002  4.6337e+000 27818 106738,106868,106764
 6.0000e+000 106920 -6.1045e+001 -9.6955e+001  1.3813e+001 27818 106738,106894,106868
 6.0000e+000 107061 -2.2788e+001 -1.1653e+002  2.7255e+001 27818 106816,106790,107035
 6.0000e+000 107084 -3.8372e+001 -1.3053e+002  1.4322e+001 27818 107107,106816,107035
 6.0000e+000 107133 -2.8302e+001 -1.2616e+002  6.7371e+000 27818 106868,106842,107107
 6.0000e+000 107156 -3.3707e+001 -1.1171e+002  9.2141e+000 27818 106868,107107,107035
 6.0000e+000 107613 -1.6793e+001 -9.2849e+001  2.0017e+001 27312 107339,107469,107365
 6.0000e+000 107590 -4.0587e+000 -8.5630e+001  1.7032e+001 27312 107339,107495,107469
 6.0000e+000 107567 -1.7672e+001 -8.8968e+001  9.4574e+000 27312 107391,107469,107443
 6.0000e+000 107544 -1.4257e+001 -9.5469e+001  8.6536e+000 27312 107365,107469,107391
 6.0000e+000 107521 -4.6021e+001 -9.8722e+001  4.9622e+000 27312 107391,107443,107417
 6.0000e+000 107991 -4.5109e+001 -1.3671e+002  5.7730e+000 26858 108086,108014,107795
 6.0000e+000 107968 -5.0016e+001 -1.3749e+002 -5.4459e+000 26858 108014,107717,107873
 6.0000e+000 107945 -5.1887e+001 -1.4502e+002  9.6886e+000 26858 108158,108086,107795
 6.0000e+000 107922 -4.1323e+001 -1.4783e+002  1.0265e+001 26858 108158,107795,107769
 6.0000e+000 107899 -3.9690e+001 -1.7045e+002  2.3987e+001 26858 107821,107873,107847
 6.0000e+000 108040 -4.8374e+001 -1.5571e+002  7.9787e+000 26858 107821,107795,108014
 6.0000e+000 108063 -3.0851e+001 -1.4573e+002  1.1993e+000 26858 107821,108014,107873
 6.0000e+000 108112 -6.1700e+001 -1.4348e+002  6.6886e+000 26858 107717,108014,108086
 6.0000e+000 108135 -5.1614e+001 -1.4389e+002  1.4310e+001 26858 107717,108086,107743
 6.0000e+000 108184 -4.0188e+001 -1.3918e+002  1.3751e+001 26858 107743,108086,108158
 6.0000e+000 108207 -3.4696e+001 -1.4562e+002  1.4165e+001 26858 107743,108158,107769
 6.0000e+000 108634 -6.2155e+001 -1.2747e+002  2.9986e+000 26404 108657,108415,108363
 6.0000e+000 108611 -7.0153e+001 -1.3758e+002  1.6084e+001 26404 108657,108363,108337
 6.0000e+000 108588 -6.0364e+001 -1.3280e+002  1.5346e+001 26404 108729,108311,108467
 6.0000e+000 108565 -6.6297e+001 -1.5415e+002  3.1874e+000 26404 108801,108441,108415
 6.0000e+000 108542 -9.0090e+001 -1.4602e+002  1.7718e+001 26404 108311,108493,108467
 6.0000e+000 108519 -4.2861e+001 -1.2899e+002  2.5191e+000 26404 108363,108415,108389
 6.0000e+000 108683 -8.3101e+001 -1.3686e+002  5.3652e+000 26404 108801,108415,108657
 6.0000e+000 108706 -7.8624e+001 -1.3684e+002  1.2524e+001 26404 108729,108467,108657
 6.0000e+000 108755 -4.8971e+001 -1.3937e+002  1.5152e+001 26404 108337,108311,108729
 6.0000e+000 108778 -5.8241e+001 -1.3686e+002  1.1769e+001 26404 108337,108729,108657
 6.0000e+000 108827 -8.2409e+001 -1.8883e+002 -6.7707e+000 26404 108467,108441,108801
 6.0000e+000 108850 -9.0911e+001 -1.5892e+002 -4.5993e+000 26404 108467,108801,108657
 6.0000e+000 109228 -6.3465e+001 -1.3636e+002 -5.5020e+000 26064 109006,109084,109058
 6.0000e+000 109205 -5.6412e+001 -1.2755e+002  3.1803e+000 26064 108980,109084,109006
 6.0000e+000 109182 -6.0426e+001 -1.2138e+002 -4.0928e+000 26064 108980,109110,109084
 6.0000e+000 109159 -6.0886e+001 -1.4252e+002 -6.0867e-001 26064 109006,109058,109032
 6.0000e+000 109136 -2.0967e+001 -1.0654e+002  4.8192e+000 26064 108954,109110,108980
 6.0000e+000 109427 -1.5743e+001 -1.1661e+002 -2.4854e+001 25660 109303,109355,109329
 6.0000e+000 109404 -3.1748e+001 -1.4866e+002 -6.1791e+000 25660 109277,109355,109303
 6.0000e+000 109381 -2.2583e+001 -1.3971e+002 -2.3342e+000 25660 109251,109355,109277
 6.0000e+000 109577 -1.9683e+001 -5.0195e+001  1.8016e+001 25306 109476,109528,109502
 6.0000e+000 109554  1.1333e+001 -4.0409e+001  1.4857e+001 25306 109450,109528,109476
 6.0000e+000 109778 -4.4983e+001 -1.2315e+002  3.0936e+000 24944 109628,109706,109654
 6.0000e+000 109755 -4.8538e+001 -1.2235e+002  4.4308e-001 24944 109602,109706,109628
 6.0000e+000 109732 -3.9752e+001 -1.1627e+002 -1.8193e+000 24944 109654,109706,109680
 6.0000e+000 110126 -3.6929e+001 -1.5552e+002  4.5929e+000 24440 110149,109907,109855
 6.0000e+000 110103 -3.2802e+001 -1.6505e+002  1.0216e+001 24440 110149,109855,109985
 6.0000e+000 110080 -2.8646e+001 -1.3399e+002  3.0026e+000 24440 109855,109907,109881
 6.0000e+000 110057 -2.8441e+001 -1.2725e+002  4.5344e+001 24440 109829,109985,109855
 6.0000e+000 110034 -3.3893e+001 -1.5493e+002  1.7171e+000 24440 109907,109959,109933
 6.0000e+000 110011 -6.6836e+000 -1.2815e+002  3.1927e+000 24440 109803,109985,109829
 6.0000e+000 110175 -3.4332e+001 -1.4813e+002  4.3947e+000 24440 109959,109907,110149
 6.0000e+000 110198 -2.9321e+001 -1.5568e+002  1.0939e+001 24440 109959,110149,109985
 6.0000e+000 110301 -2.3742e-001 -6.9292e+001  3.8022e+000 24028 110223,110275,110249
 6.0000e+000 110573 -1.9687e+001 -9.2914e+001  7.5501e+000 23467 110400,110452,110426
 6.0000e+000 110550 -3.3164e+001 -1.1155e+002  8.3653e-001 23467 110374,110452,110400
 6.0000e+000 110527 -3.5915e+001 -1.1269e+002  2.4305e+000 23467 110348,110452,110374
 6.0000e+000 110504 -2.5742e+001 -1.0872e+002 -3.2707e-001 23467 110348,110478,110452
 6.0000e+000 111004 -7.1827e+001 -1.6364e+002 -2.1354e+001 22963 111027,110733,110707
 6.0000e+000 110981 -7.3659e+001 -1.5478e+002  8.5720e+000 22963 111027,110707,110681
 6.0000e+000 110958 -3.3444e+001 -1.3174e+002 -1.7563e+001 22963 111099,110759,110733
 6.0000e+000 110935 -4.8565e+001 -1.3254e+002 -1.1395e+001 22963 111171,110863,110811
 6.0000e+000 110912 -1.9152e+001 -9.6136e+001 -2.1236e+001 22963 110759,110811,110785
 6.0000e+000 110889 -5.6721e+001 -1.4536e+002 -7.1142e+000 22963 110811,110863,110837
 6.0000e+000 111053 -5.3741e+001 -1.4544e+002 -1.0344e+001 22963 111099,110733,111027
 6.0000e+000 111076 -4.5605e+001 -1.4241e+002 -9.6866e+000 22963 111171,110811,111027
 6.0000e+000 111125 -3.2641e+001 -1.2896e+002 -2.8676e+001 22963 110811,110759,111099
 6.0000e+000 111148 -3.5947e+001 -1.2737e+002 -2.4339e+001 22963 110811,111099,111027
 6.0000e+000 111197 -4.8175e+001 -1.1775e+002 -1.3181e+001 22963 110681,110863,111171
 6.0000e+000 111220 -4.7945e+001 -1.2865e+002 -7.3312e+000 22963 110681,111171,111027
 6.0000e+000 111726 -7.3766e+001 -1.4045e+002  1.4703e+000 22459 111749,111507,111429
 6.0000e+000 111703 -6.4657e+001 -1.3719e+002 -4.2566e+000 22459 111749,111429,111585
 6.0000e+000 111680 -5.3100e+001 -1.5046e+002 -2.2612e+000 22459 111403,111585,111429
 6.0000e+000 111657 -7.0038e+001 -1.5531e+002  6.4462e+000 22459 111507,111559,111533
 6.0000e+000 111634 -9.2362e+001 -1.3220e+002  7.8856e+000 22459 111455,111507,111481
 6.0000e+000 111611 -1.0892e+002 -1.3613e+002  1.3520e+001 22459 111429,111507,111455
 6.0000e+000 111775 -7.2451e+001 -1.4958e+002  9.2206e+000 22459 111559,111507,111749
 6.0000e+000 111798 -6.4106e+001 -1.4226e+002  3.4454e+000 22459 111559,111749,111585
 6.0000e+000 112046 -3.2601e+001 -1.2008e+002 -1.5369e+001 21898 112069,111925,111873
 6.0000e+000 112023 -3.1007e+001 -1.2037e+002 -3.2298e+000 21898 112069,111873,111847
 6.0000e+000 112000 -4.1675e+001 -1.2304e+002 -6.3114e+000 21898 111821,111951,111847
 6.0000e+000 111977 -3.6484e+001 -9.2514e+001 -9.1354e+000 21898 111873,111925,111899
 6.0000e+000 112095 -4.9724e+001 -1.2618e+002 -1.8294e+001 21898 111951,111925,112069
 6.0000e+000 112118 -4.1039e+001 -1.2382e+002 -6.6150e+000 21898 111951,112069,111847
 6.0000e+000 112498 -5.3851e+001 -1.3018e+002 -1.0138e+001 21608 112521,112276,112224
 6.0000e+000 112475 -3.5313e+001 -1.3181e+002  4.4249e-001 21608 112521,112224,112380
 6.0000e+000 112452 -3.7453e+001 -1.5114e+002  9.2778e+000 21608 112302,112380,112354
 6.0000e+000 112429 -6.5048e+001 -1.4658e+002 -5.2729e+000 21608 112224,112276,112250
 6.0000e+000 112406  2.4665e+001 -1.6675e+002 -9.7657e+000 21608 112302,112354,112328
 6.0000e+000 112547 -3.8669e+001 -1.1389e+002 -1.4167e+000 21608 112302,112276,112521
 6.0000e+000 112570 -2.6072e+001 -1.2735e+002  5.9243e+000 21608 112302,112521,112380
 6.0000e+000 112948 -6.4824e+001 -1.3384e+002 -1.8466e+000 20882 112971,112752,112700
 6.0000e+000 112925 -4.9010e+001 -1.2851e+002 -5.0445e+000 20882 112971,112700,112830
 6.0000e+000 112902 -8.2367e+001 -1.4375e+002  9.3446e+000 20882 112778,112830,112804
 6.0000e+000 112879 -4.5554e+001 -1.0308e+002 -7.4144e+000 20882 112674,112830,112700
 6.0000e+000 112856 -7.7206e+001 -1.3767e+002  2.3497e+000 20882 112700,112752,112726
 6.0000e+000 112997 -6.5334e+001 -1.3389e+002  6.9537e+000 20882 112778,112752,112971
 6.0000e+000 113020 -5.6355e+001 -1.3133e+002  3.4206e+000 20882 112778,112971,112830
 6.0000e+000 113526 -4.1930e+001 -1.3144e+002  8.6158e-001 20428 113255,113385,113333
 6.0000e+000 113503 -4.5371e+001 -1.4264e+002  1.0341e+000 20428 113229,113385,113255
 6.0000e+000 113480 -1.3601e+000 -1.2796e+002  1.6606e+000 20428 113255,113333,113281
 6.0000e+000 113457 -3.8915e+001 -1.3649e+002  3.8851e+000 20428 113203,113385,113229
 6.0000e+000 113434 -2.0761e+001 -1.3547e+002 -4.7908e+000 20428 113281,113333,113307
 6.0000e+000 113411 -5.3904e+001 -1.3074e+002  4.0266e+000 20428 113333,113385,113359
 6.0000e+000 113774 -8.8596e+000 -1.3078e+002  5.6885e+000 19917 113797,113601,113549
 6.0000e+000 113751 -2.2402e+001 -1.3240e+002  7.0068e+000 19917 113869,113797,113549
 6.0000e+000 113728 -2.1502e+001 -1.3381e+002  1.2520e+001 19917 113869,113549,113679
 6.0000e+000 113705 -1.3574e+001 -1.2958e+002  1.1995e+001 19917 113549,113601,113575
 6.0000e+000 113823 -2.3157e+001 -1.5946e+002 -6.2101e-002 19917 113627,113601,113797
 6.0000e+000 113846 -9.9086e+000 -1.2484e+002 -2.3411e+000 19917 113627,113797,113653
 6.0000e+000 113895 -1.9542e+001 -1.1893e+002  2.7123e+000 19917 113653,113797,113869
 6.0000e+000 113918 -2.4103e+001 -1.2253e+002  9.7764e+000 19917 113653,113869,113679
 6.0000e+000 114166 -6.0624e+001 -1.3557e+002 -2.3766e+000 19413 113993,114045,114019
 6.0000e+000 114143 -5.3687e+001 -1.2573e+002  1.3325e+000 19413 113967,114045,113993
 6.0000e+000 114120 -4.6841e+001 -1.2353e+002  7.2941e+000 19413 113967,114071,114045
 6.0000e+000 114097 -3.4059e+001 -1.4028e+002 -2.5389e+000 19413 113941,114071,113967
 6.0000e+000 114438 -5.5997e+001 -1.4839e+002  1.3716e+000 19001 114213,114265,114239
 6.0000e+000 114415 -4.0103e+001 -1.1510e+002 -3.4965e+000 19001 114213,114343,114265
 6.0000e+000 114392 -5.9751e+001 -1.5926e+002 -7.1736e+000 19001 114265,114343,114317
 6.0000e+000 114369  9.6553e+000 -1.2915e+002 -2.6158e+000 19001 114265,114317,114291
 6.0000e+000 114639 -4.2107e+001 -1.7548e+002  8.2190e+000 18554 114489,114541,114515
 6.0000e+000 114616 -3.6211e+001 -1.5248e+002  1.2089e+000 18554 114489,114567,114541
 6.0000e+000 114593 -7.8592e+001 -1.7179e+002 -1.1201e+001 18554 114463,114567,114489
 6.0000e+000 115043 -2.6784e+001 -1.3045e+002  5.0291e+000 18164 114795,114925,114821
 6.0000e+000 115020 -2.2066e+001 -1.3709e+002  8.6797e+000 18164 114769,114925,114795
 6.0000e+000 114997 -1.3911e+001 -1.3744e+002 -1.2946e+000 18164 115066,114873,114821
 6.0000e+000 114974 -1.2365e+001 -1.1715e+002 -4.5512e+000 18164 115066,114821,114925
 6.0000e+000 114951  1.4635e+001 -1.3718e+002 -1.4660e+001 18164 114821,114873,114847
 6.0000e+000 115092 -2.1542e+001 -1.2288e+002 -1.1966e+001 18164 114899,114873,115066
 6.0000e+000 115115 -1.1840e+001 -9.1839e+001 -1.6151e+001 18164 114899,115066,114925
 6.0000e+000 115265 -3.0172e+001 -1.3759e+002  2.5387e+000 17852 115164,115216,115190
 6.0000e+000 115242 -3.5720e+001 -1.4987e+002 -1.1497e-001 17852 115138,115216,115164
 6.0000e+000 115464 -9.4945e+001 -2.1069e+002  2.3188e+000 17346 115288,115366,115340
 6.0000e+000 115441 -1.4180e+002 -1.6124e+002 -8.1621e+000 17346 115288,115392,115366
 6.0000e+000 115418 -8.3369e+001 -2.3535e+002 -7.3493e+000 17346 115288,115340,115314
 6.0000e+000 115736 -3.0621e+001 -1.2852e+002  5.8276e+000 16942 115563,115641,115615
 6.0000e+000 115713 -3.4729e+001 -1.2747e+002  2.1125e+000 16942 115511,115641,115563
 6.0000e+000 115690 -8.9499e+001 -1.5066e+002  1.0182e+001 16942 115563,115615,115589
 6.0000e+000 115667 -4.1851e+001 -1.3939e+002  5.0782e+000 16942 115511,115563,115537
 6.0000e+000 116091 -6.9188e+001 -1.5986e+002 -5.3839e+000 16388 115918,115970,115944
 6.0000e+000 116068 -6.0501e+001 -1.2949e+002 -3.8373e+000 16388 115918,115996,115970
 6.0000e+000 116045 -8.1238e+001 -1.6247e+002  5.5773e+000 16388 115892,115996,115918
 6.0000e+000 116022 -5.1201e+001 -1.4627e+002  1.9613e+001 16388 115866,115996,115892
 6.0000e+000 116192 -1.5216e+001 -1.6405e+002 -2.3465e+001 15810 116114,116166,116140
 6.0000e+000 116342 -6.1417e+001 -1.9904e+002  1.0620e+001 15419 116241,116293,116267
 6.0000e+000 116319 -8.7619e+001 -2.4270e+002 -6.7254e+000 15419 116215,116293,116241
 6.0000e+000 116445 -6.6956e+001 -1.3519e+002 -3.5915e-002 421 116367,116419,116393
 6.1000e+000 68477 -8.5681e+001 -1.2075e+002  8.4309e-001 68018 68327,68379,68353
 6.1000e+000 68454 -8.9658e+001 -1.5812e+002  1.1459e+001 68018 68301,68379,68327
 6.1000e+000 68431 -4.9841e+001 -1.7916e+002  2.6613e+001 68018 68301,68405,68379
 6.1000e+000 68578 -5.7868e+001 -1.1437e+002  6.0077e-001 67820 68500,68552,68526
 6.1000e+000 68728 -6.1317e+001 -1.0656e+002 -1.4562e+000 67508 68601,68653,68627
 6.1000e+000 68705 -9.4315e+001 -8.3145e+001 -1.5669e+001 67508 68601,68679,68653
 6.1000e+000 68927 -2.5017e+001 -1.0598e+002 -1.3588e+000 67310 68777,68829,68803
 6.1000e+000 68904 -3.0998e+001 -1.2083e+002  1.7343e+000 67310 68751,68829,68777
 6.1000e+000 68881 -2.5164e+001 -1.2332e+002  6.6025e+000 67310 68751,68855,68829
 6.1000e+000 69386 -5.0608e+001 -1.2629e+002 -5.6502e+000 67020 69216,69268,69242
 6.1000e+000 69363 -4.7609e+001 -9.9757e+001 -1.2463e+001 67020 69138,69268,69216
 6.1000e+000 69340 -3.5382e+001 -9.0769e+001 -8.0302e+000 67020 69112,69268,69138
 6.1000e+000 69317 -6.3100e+001 -1.0687e+002  5.8910e+000 67020 69138,69190,69164
 6.1000e+000 69294 -6.4588e+001 -9.7590e+001 -5.5598e+000 67020 69138,69216,69190
 6.1000e+000 69536 -8.8072e+001 -2.1542e+002 -1.7123e+001 66708 69435,69487,69461
 6.1000e+000 69513 -6.4010e+001 -2.4261e+002 -2.3604e+000 66708 69409,69487,69435
 6.1000e+000 69735 -5.9048e+001 -1.1656e+002  2.7188e+000 66346 69585,69637,69611
 6.1000e+000 69712 -4.9077e+001 -1.1060e+002 -5.6380e-001 66346 69559,69637,69585
 6.1000e+000 69689 -4.4943e+001 -1.1045e+002 -1.1149e+001 66346 69559,69663,69637
 6.1000e+000 69985 -8.9322e+001 -1.4319e+002  1.6096e+000 66148 69786,69890,69864
 6.1000e+000 69962 -9.2604e+001 -1.4512e+002  2.5723e+000 66148 69760,69890,69786
 6.1000e+000 69939 -6.8164e+001 -1.3548e+002 -1.9205e+001 66148 69786,69864,69838
 6.1000e+000 69916 -7.9656e+001 -1.4532e+002 -5.0279e+000 66148 69786,69838,69812
 6.1000e+000 70137 -4.1062e+001 -1.6070e+002 -8.5238e+000 65950 70036,70088,70062
 6.1000e+000 70114 -3.5601e+001 -1.7791e+002  8.5022e+000 65950 70010,70088,70036
 6.1000e+000 70470 -3.1360e+001 -1.1845e+002  8.3934e+000 65546 70245,70323,70271
 6.1000e+000 70447 -2.3410e+001 -1.0614e+002  3.8948e+000 65546 70245,70375,70323
 6.1000e+000 70424 -2.9372e+001 -1.3532e+002  4.6984e+000 65546 70323,70375,70349
 6.1000e+000 70401 -2.7102e+001 -1.1116e+002  4.1782e+000 65546 70271,70323,70297
 6.1000e+000 70620 -5.4675e+001 -1.3564e+002  4.3760e+000 65348 70493,70545,70519
 6.1000e+000 70597 -4.2332e+001 -1.4393e+002  4.6527e+000 65348 70493,70571,70545
 6.1000e+000 70721 -8.6950e+001 -1.7282e+002 -5.0937e+000 65150 70643,70695,70669
 6.1000e+000 71020 -5.1433e+001 -1.0893e+002  6.8418e+000 64952 71043,70850,70824
 6.1000e+000 70997 -4.4611e+001 -1.0229e+002 -1.5071e+000 64952 71043,70824,70772
 6.1000e+000 70974 -4.6691e+001 -1.3506e+002  3.7676e+000 64952 71115,70746,70876
 6.1000e+000 70951 -4.0586e+001 -1.3706e+002 -1.6816e-001 64952 70746,70902,70876
 6.1000e+000 70928 -4.9240e+001 -9.1068e+001 -8.9778e+000 64952 70772,70824,70798
 6.1000e+000 71069 -2.9369e+001 -9.4624e+001  1.9573e+001 64952 70876,70850,71043
 6.1000e+000 71092 -4.1456e+001 -1.2480e+002  6.0716e+000 64952 71115,70876,71043
 6.1000e+000 71141 -6.0030e+001 -1.2270e+002 -6.4646e+000 64952 70772,70746,71115
 6.1000e+000 71164 -5.2478e+001 -1.0767e+002 -3.8473e+000 64952 70772,71115,71043
 6.1000e+000 71365 -2.0558e+001 -1.5035e+002 -4.4164e+000 64662 71215,71293,71267
 6.1000e+000 71342 -3.2815e+000 -1.1027e+002 -8.0999e+000 64662 71189,71293,71215
 6.1000e+000 71319  2.6699e+000 -9.5310e+001 -4.5843e-001 64662 71215,71267,71241
 6.1000e+000 71615 -4.0507e+001 -1.2242e+002 -1.0079e+000 64350 71710,71638,71468
 6.1000e+000 71592 -4.1177e+001 -1.1897e+002 -4.4877e+000 64350 71638,71416,71390
 6.1000e+000 71569 -4.3887e+001 -1.1354e+002  6.6268e+000 64350 71710,71468,71442
 6.1000e+000 71546  1.0424e+001 -1.1638e+002 -1.6589e+001 64350 71390,71520,71494
 6.1000e+000 71664 -3.6427e+001 -1.2077e+002 -8.1028e-001 64350 71494,71468,71638
 6.1000e+000 71687 -3.6413e+001 -1.2393e+002 -4.8459e-001 64350 71494,71638,71390
 6.1000e+000 71736 -3.4618e+001 -1.0420e+002 -8.0449e-001 64350 71416,71638,71710
 6.1000e+000 71759 -3.6999e+001 -9.6344e+001  8.7356e+000 64350 71416,71710,71442
 6.1000e+000 72318 -4.1643e+001 -1.9081e+002 -8.4230e+000 63837 71972,72024,71998
 6.1000e+000 72295 -5.5309e+001 -1.2491e+002 -7.0616e-001 63837 72341,71972,71946
 6.1000e+000 72272 -5.0777e+001 -1.0035e+002  5.3491e+000 63837 72413,72341,71946
 6.1000e+000 72249 -4.9425e+001 -9.0641e+001  2.4524e+000 63837 72413,71946,72128
 6.1000e+000 72226 -6.9564e+001 -1.0924e+002  1.2134e+000 63837 72024,72076,72050
 6.1000e+000 72203 -6.3084e+001 -1.0118e+002 -3.0836e+000 63837 72024,72102,72076
 6.1000e+000 72180 -3.9737e+001 -8.7481e+001  6.7400e+000 63837 71946,72154,72128
 6.1000e+000 72367 -6.7075e+001 -1.3412e+002 -2.3122e+001 63837 72024,71972,72341
 6.1000e+000 72390 -5.3000e+001 -1.0956e+002 -8.6314e+000 63837 72024,72341,72102
 6.1000e+000 72439 -4.3464e+001 -1.1617e+002  1.9273e+000 63837 72102,72341,72413
 6.1000e+000 72462 -4.1982e+001 -1.0588e+002  2.2254e-001 63837 72102,72413,72128
 6.1000e+000 72791 -6.5255e+001 -1.1970e+002 -1.2544e+001 63383 72592,72696,72670
 6.1000e+000 72768 -6.6514e+001 -1.1314e+002 -2.0763e+001 63383 72566,72696,72592
 6.1000e+000 72745 -6.2438e+001 -1.0419e+002 -6.0869e-001 63383 72592,72670,72618
 6.1000e+000 72722 -6.0031e+001 -9.5465e+001 -2.5836e+000 63383 72618,72670,72644
 6.1000e+000 73297 -7.3777e+001 -1.0409e+002 -1.2432e+000 63185 73000,73156,73130
 6.1000e+000 73274 -7.4156e+001 -1.0829e+002  1.3007e+001 63185 72974,73156,73000
 6.1000e+000 73251 -5.6347e+001 -1.2095e+002 -1.4698e+000 63185 73000,73052,73026
 6.1000e+000 73228 -6.1519e+001 -1.0677e+002 -5.3554e+000 63185 73000,73130,73052
 6.1000e+000 73205 -6.1804e+001 -1.2229e+002 -1.8289e+001 63185 73052,73130,73104
 6.1000e+000 73182 -5.7132e+001 -1.3154e+002 -1.8541e+001 63185 73052,73104,73078
 6.1000e+000 73545 -3.3278e+001 -1.1570e+002  2.4740e+000 62781 73568,73398,73372
 6.1000e+000 73522 -1.9613e+001 -1.0719e+002  1.1908e+001 62781 73568,73372,73346
 6.1000e+000 73499 -4.4493e+001 -1.2904e+002 -1.2538e+001 62781 73640,73320,73424
 6.1000e+000 73476 -4.4539e+001 -8.3771e+001 -2.3206e+001 62781 73320,73450,73424
 6.1000e+000 73594 -3.6202e+001 -1.1009e+002  2.0377e+000 62781 73424,73398,73568
 6.1000e+000 73617 -3.8978e+001 -1.2319e+002 -1.1630e+000 62781 73640,73424,73568
 6.1000e+000 73666 -3.8091e+001 -1.1566e+002 -4.0533e+000 62781 73346,73320,73640
 6.1000e+000 73689 -3.4417e+001 -1.0550e+002  6.3209e+000 62781 73346,73640,73568
 6.1000e+000 74035 -4.6003e+001 -1.1575e+002 -2.6931e+000 62363 74058,73868,73842
 6.1000e+000 74012 -4.0787e+001 -1.0641e+002 -9.2510e+000 62363 74130,74058,73842
 6.1000e+000 73989 -3.7527e+001 -1.0542e+002 -9.6885e+000 62363 74130,73842,73816
 6.1000e+000 73966 -5.8370e+001 -1.2037e+002  1.5439e+000 62363 74202,73764,73894
 6.1000e+000 73943 -7.4793e+001 -1.0983e+002  1.8457e+000 62363 73712,73894,73764
 6.1000e+000 73920 -8.0998e+001 -1.1588e+002 -1.3770e+000 62363 73712,73764,73738
 6.1000e+000 74084 -4.4115e+001 -1.1328e+002 -1.8663e+000 62363 73894,73868,74058
 6.1000e+000 74107 -5.4164e+001 -1.1540e+002  4.7227e+000 62363 74202,73894,74058
 6.1000e+000 74156 -4.4865e+001 -1.0798e+002  2.6351e+000 62363 73790,74058,74130
 6.1000e+000 74179 -2.8910e+001 -1.0170e+002  3.3831e+000 62363 73790,74130,73816
 6.1000e+000 74228 -6.2841e+001 -1.2237e+002 -5.6664e+000 62363 73790,73764,74202
 6.1000e+000 74251 -5.9598e+001 -1.1701e+002 -2.5470e+000 62363 73790,74202,74058
 6.1000e+000 74403 -7.8375e+000 -1.2316e+002  7.6000e+000 62115 74426,74302,74276
 6.1000e+000 74380  1.2209e+001 -1.1799e+002  1.5822e+001 62115 74426,74276,74354
 6.1000e+000 74452 -2.6645e+001 -1.1227e+002  7.3045e+000 62115 74328,74302,74426
 6.1000e+000 74475 -8.0638e+000 -1.0781e+002  1.6033e+001 62115 74328,74426,74354
 6.1000e+000 74578 -1.7088e+000 -7.6690e+001 -1.3408e+000 61825 74500,74552,74526
 6.1000e+000 74982 -6.0030e+001 -1.0467e+002  1.5983e-001 61513 75005,74734,74708
 6.1000e+000 74959 -6.0667e+001 -1.0169e+002 -6.0744e-001 61513 75005,74708,74864
 6.1000e+000 74936 -7.7552e+001 -1.0856e+002  5.8778e+000 61513 75077,74812,74734
 6.1000e+000 74913 -6.1836e+001 -1.0133e+002 -8.7789e+000 61513 74734,74786,74760
 6.1000e+000 74890 -6.1876e+001 -9.5000e+001 -2.3114e+000 61513 74734,74812,74786
 6.1000e+000 75031 -5.8212e+001 -1.0777e+002  1.8076e-001 61513 75077,74734,75005
 6.1000e+000 75054 -4.6360e+001 -1.0329e+002  1.5782e+001 61513 74838,75005,74864
 6.1000e+000 75103 -8.8145e+001 -1.1230e+002  2.3714e+001 61513 74838,74812,75077
 6.1000e+000 75126 -7.5722e+001 -1.1631e+002  1.8018e+001 61513 74838,75077,75005
 6.1000e+000 75553 -3.2686e+001 -9.7048e+001 -3.9698e+000 61060 75576,75360,75308
 6.1000e+000 75530 -3.2187e+001 -1.0331e+002 -3.8846e+000 61060 75576,75308,75230
 6.1000e+000 75507 -2.9676e+001 -9.3564e+001 -1.1142e+000 61060 75308,75360,75334
 6.1000e+000 75484 -4.2036e+001 -1.2129e+002  5.2666e+000 61060 75230,75308,75256
 6.1000e+000 75461 -3.4610e+001 -1.1209e+002  6.4380e-001 61060 75256,75308,75282
 6.1000e+000 75438 -3.8841e+001 -9.5873e+001  1.0498e+001 61060 75360,75412,75386
 6.1000e+000 75602 -2.8324e+001 -1.0222e+002 -3.5146e-001 61060 75412,75360,75576
 6.1000e+000 75625 -3.0912e+001 -1.1313e+002 -1.4182e+000 61060 75412,75576,75230
 6.1000e+000 76052 -4.8603e+001 -1.0162e+002  1.2800e+000 60442 75755,75859,75833
 6.1000e+000 76029 -5.3537e+001 -9.5254e+001 -7.6296e+000 60442 75729,75859,75755
 6.1000e+000 76006 -4.9936e+001 -9.3497e+001  5.7655e+000 60442 75755,75833,75807
 6.1000e+000 75983 -5.0945e+001 -1.1110e+002  2.2080e+000 60442 75755,75807,75781
 6.1000e+000 75960 -7.6386e+000 -1.7745e+002  6.2262e+000 60442 75729,75911,75859
 6.1000e+000 75937 -9.5032e+001 -4.3345e+002  2.8212e+001 60442 75859,75911,75885
 6.1000e+000 76430 -5.1313e+001 -1.3112e+002 -3.1283e+000 59788 76453,76286,76234
 6.1000e+000 76407 -5.5941e+001 -1.4917e+002  2.9573e+000 59788 76453,76234,76182
 6.1000e+000 76384 -5.5342e+001 -1.0013e+002  1.7479e+001 59788 76525,76156,76312
 6.1000e+000 76361 -3.3017e+001 -1.7164e+002 -1.0147e+000 59788 76182,76234,76208
 6.1000e+000 76338 -4.2842e+001 -1.2430e+002 -1.0634e-003 59788 76234,76286,76260
 6.1000e+000 76479 -6.0259e+001 -1.4084e+002  2.5995e+000 59788 76312,76286,76453
 6.1000e+000 76502 -5.1629e+001 -1.3335e+002  7.8236e+000 59788 76525,76312,76453
 6.1000e+000 76551 -6.8867e+001 -1.4194e+002  1.7890e+001 59788 76182,76156,76525
 6.1000e+000 76574 -6.1241e+001 -1.5199e+002  1.1226e+001 59788 76182,76525,76453
 6.1000e+000 77031 -3.5926e+001 -8.1611e+001 -1.0887e+001 59448 76835,76887,76861
 6.1000e+000 77008 -1.5680e+001 -6.6400e+001  3.2810e+000 59448 76835,76913,76887
 6.1000e+000 76985 -2.0581e+001 -5.6262e+001  1.1071e+001 59448 76809,76913,76835
 6.1000e+000 76962 -4.0282e+001 -7.4079e+001 -7.0207e-001 59448 76757,76913,76809
 6.1000e+000 76939 -3.4721e+001 -6.6913e+001 -3.1185e+000 59448 76757,76809,76783
 6.1000e+000 77537 -4.7882e+001 -1.0509e+002  4.9848e+000 58994 77560,77344,77292
 6.1000e+000 77514 -6.7885e+001 -1.0192e+002  1.5582e+000 58994 77560,77292,77240
 6.1000e+000 77491 -3.8652e+001 -9.4803e+001 -3.5393e+000 58994 77632,77214,77370
 6.1000e+000 77468 -7.7941e+001 -1.1936e+002  2.0385e+001 58994 77292,77344,77318
 6.1000e+000 77445 -4.0188e+001 -1.2096e+002  3.2086e+000 58994 77214,77396,77370
 6.1000e+000 77422 -7.0566e+001 -1.1112e+002 -1.7507e+000 58994 77240,77292,77266
 6.1000e+000 77586 -5.0759e+001 -1.0506e+002  5.4564e+000 58994 77370,77344,77560
 6.1000e+000 77609 -5.0635e+001 -1.0204e+002  6.8236e+000 58994 77632,77370,77560
 6.1000e+000 77658 -3.1983e+001 -8.6916e+001 -1.4596e+001 58994 77240,77214,77632
 6.1000e+000 77681 -4.0807e+001 -8.5665e+001 -5.2155e+000 58994 77240,77632,77560
 6.1000e+000 78138 -4.4446e+001 -7.6493e+001  1.0279e+001 58440 77864,77994,77890
 6.1000e+000 78115 -3.2084e+001 -4.8274e+001 -6.0320e+000 58440 77864,78020,77994
 6.1000e+000 78092 -5.0901e+001 -9.0248e+001 -8.3207e+000 58440 77942,77994,77968
 6.1000e+000 78069 -4.0663e+001 -8.5133e+001  1.5670e+000 58440 77890,77994,77942
 6.1000e+000 78046 -3.6406e+001 -8.6873e+001 -1.7220e+000 58440 77890,77942,77916
 6.1000e+000 78467 -9.8743e+000 -9.6248e+001  1.5385e+000 57928 78562,78490,78346
 6.1000e+000 78444 -3.6365e+001 -9.6431e+001 -1.9524e+000 57928 78490,78294,78268
 6.1000e+000 78421 -3.8637e+000 -1.0156e+002  6.5430e+000 57928 78562,78346,78320
 6.1000e+000 78398 -1.6967e+001 -9.3232e+001  4.0252e-001 57928 78242,78372,78268
 6.1000e+000 78516 -3.2696e+001 -1.1814e+002 -7.6974e+000 57928 78372,78346,78490
 6.1000e+000 78539 -2.7224e+001 -9.2818e+001 -1.8465e+000 57928 78372,78490,78268
 6.1000e+000 78588 -3.6839e+001 -9.6584e+001 -6.4834e-001 57928 78294,78490,78562
 6.1000e+000 78611 -1.9693e+001 -8.9409e+001  8.6553e+000 57928 78294,78562,78320
 6.1000e+000 79068 -7.5256e+001 -1.6019e+002 -3.9786e+001 57467 78794,78924,78820
 6.1000e+000 79045 -5.9357e+001 -1.5258e+002 -3.6567e+001 57467 78794,78950,78924
 6.1000e+000 79022 -3.0597e+001 -1.4346e+002  1.5075e+001 57467 78820,78898,78872
 6.1000e+000 78999 -5.4983e+001 -1.9844e+002 -2.0277e+001 57467 78820,78924,78898
 6.1000e+000 78976 -2.3693e+001 -1.4610e+002  2.2892e+001 57467 78820,78872,78846
 6.1000e+000 79446 -6.2242e+001 -1.1474e+002 -1.1879e+000 57120 79172,79302,79250
 6.1000e+000 79423 -5.7193e+001 -1.1243e+002 -4.1927e+000 57120 79172,79328,79302
 6.1000e+000 79400 -5.7108e+001 -1.0031e+002 -4.9962e+000 57120 79172,79250,79198
 6.1000e+000 79377 -4.5123e+001 -1.4353e+002  3.9075e+000 57120 79250,79302,79276
 6.1000e+000 79354 -6.8696e+001 -1.0884e+002 -9.1491e+000 57120 79198,79250,79224
 6.1000e+000 79952 -8.4838e+001 -1.3483e+002  7.8331e-001 56773 79629,79785,79655
 6.1000e+000 79929 -2.4932e+001 -1.1620e+002  6.0085e+000 56773 79629,79811,79785
 6.1000e+000 79906 -6.5587e+001 -1.4465e+002  9.5457e+000 56773 79655,79733,79681
 6.1000e+000 79883 -6.4698e+001 -1.2963e+002  2.8002e+000 56773 79655,79785,79733
 6.1000e+000 79860 -6.1158e+001 -1.7177e+002 -2.0142e+001 56773 79733,79785,79759
 6.1000e+000 79837 -3.6851e+001 -1.3120e+002  2.6575e+001 56773 79681,79733,79707
 6.1000e+000 80281 -3.2715e+001 -9.4209e+001 -7.9590e+000 56319 80108,80160,80134
 6.1000e+000 80258 -3.4344e+001 -1.0318e+002 -9.6605e+000 56319 80056,80160,80108
 6.1000e+000 80235 -1.7670e+001 -9.1895e+001  5.3508e+000 56319 80056,80186,80160
 6.1000e+000 80212 -4.3318e+001 -1.3040e+002 -7.4177e+000 56319 80056,80108,80082
 6.1000e+000 80738 -1.8153e+001 -1.1873e+002  6.2684e+000 55957 80516,80620,80594
 6.1000e+000 80715 -4.4655e+001 -1.0824e+002  4.6174e+000 55957 80464,80620,80516
 6.1000e+000 80692 -3.7471e+001 -1.3062e+002  6.4810e+000 55957 80761,80568,80542
 6.1000e+000 80669 -3.2013e+001 -1.2817e+002  7.7505e+000 55957 80761,80542,80516
 6.1000e+000 80646 -4.3693e+001 -1.0565e+002  1.3929e+001 55957 80464,80516,80490
 6.1000e+000 80787 -4.3159e+001 -1.2947e+002  4.4396e+000 55957 80594,80568,80761
 6.1000e+000 80810 -3.8006e+001 -1.2714e+002  5.7518e+000 55957 80594,80761,80516
 6.1000e+000 81210 -4.0137e+001 -1.2667e+002 -1.0396e+001 55317 80936,80988,80962
 6.1000e+000 81187 -3.4088e+001 -1.3324e+002  2.8391e-001 55317 80936,81066,80988
 6.1000e+000 81164 -2.8598e+001 -1.4339e+002  3.3757e+000 55317 80936,81092,81066
 6.1000e+000 81141 -4.8784e+001 -1.4303e+002 -1.2036e+001 55317 80988,81066,81014
 6.1000e+000 81118 -1.1192e+001 -8.2100e+001  9.1983e+000 55317 81014,81066,81040
 6.1000e+000 81539 -5.3067e+001 -1.1562e+002  1.0024e+000 54913 81340,81418,81392
 6.1000e+000 81516 -2.3125e+001 -9.5938e+001 -8.3451e+000 54913 81340,81444,81418
 6.1000e+000 81493 -3.3785e+001 -1.0258e+002 -1.5133e+001 54913 81314,81444,81340
 6.1000e+000 81470 -6.2552e+001 -1.2603e+002 -2.9520e+000 54913 81340,81392,81366
 6.1000e+000 81787 -3.1751e+001 -1.2403e+002 -1.3294e+000 54601 81588,81692,81640
 6.1000e+000 81764 -4.7541e+001 -1.2696e+002 -4.9973e+000 54601 81562,81692,81588
 6.1000e+000 81741 -2.7944e+001 -1.2677e+002  1.4876e+001 54601 81588,81640,81614
 6.1000e+000 81718 -3.3143e+001 -1.4953e+002 -1.3860e+001 54601 81640,81692,81666
 6.1000e+000 82344 -4.4042e+001 -1.2010e+002 -5.6125e+000 54090 81998,82102,82076
 6.1000e+000 82321 -5.9843e+001 -1.2696e+002 -3.9015e+000 54090 81998,82154,82102
 6.1000e+000 82298 -5.5567e+001 -1.2423e+002 -2.6131e+000 54090 81972,82154,81998
 6.1000e+000 82275 -6.2361e+001 -1.1133e+002 -6.8465e+000 54090 81998,82076,82024
 6.1000e+000 82252 -6.7842e+001 -1.3299e+002  6.8128e+000 54090 81972,82180,82154
 6.1000e+000 82229 -8.4456e+001 -1.5619e+002  9.3463e+000 54090 82102,82154,82128
 6.1000e+000 82206 -1.0721e+001 -8.3535e+001 -1.7966e+001 54090 82024,82076,82050
 6.1000e+000 82722 -8.1538e+001 -1.4670e+002 -4.4191e+000 53579 82500,82578,82552
 6.1000e+000 82699 -6.2994e+001 -1.3411e+002  3.1147e+000 53579 82448,82578,82500
 6.1000e+000 82676 -7.0104e+001 -1.5157e+002  4.9069e+000 53579 82448,82500,82474
 6.1000e+000 82653 -7.9176e+001 -1.4273e+002  1.0301e+001 53579 82448,82604,82578
 6.1000e+000 82630 -4.4667e+001 -1.3652e+002 -4.7688e+000 53579 82500,82552,82526
 6.1000e+000 83356 -4.2085e+001 -1.0858e+002 -9.9618e+000 53189 83379,83088,83036
 6.1000e+000 83333 -4.0687e+001 -1.2241e+002 -8.8775e+000 53189 83379,83036,82984
 6.1000e+000 83310 -1.8786e+001 -1.1429e+002  1.7974e+001 53189 82984,83192,83166
 6.1000e+000 83287 -2.1912e+000 -9.0420e+001 -5.8461e+000 53189 83036,83088,83062
 6.1000e+000 83264 -3.0164e+001 -1.3644e+002 -1.9388e+001 53189 82984,83036,83010
 6.1000e+000 83241 -3.1148e+001 -1.3605e+002  3.5379e+000 53189 83114,83166,83140
 6.1000e+000 83218 -5.8010e+001 -1.4317e+002  3.0555e+000 53189 83088,83166,83114
 6.1000e+000 83405 -4.2315e+001 -1.1785e+002 -4.2833e+000 53189 83166,83088,83379
 6.1000e+000 83428 -3.8832e+001 -1.3004e+002 -4.0768e+000 53189 83166,83379,82984
 6.1000e+000 83725 -5.0542e+001 -1.4560e+002 -1.5759e+001 52585 83748,83529,83503
 6.1000e+000 83702 -3.6918e+001 -1.4132e+002 -1.0380e+001 52585 83820,83748,83503
 6.1000e+000 83679 -2.4380e+001 -1.3575e+002 -7.9537e+000 52585 83820,83503,83477
 6.1000e+000 83656 -1.7793e+001 -1.2127e+002  1.2342e+001 52585 83477,83607,83581
 6.1000e+000 83633  8.3707e+000 -1.0955e+002  1.4827e+001 52585 83451,83607,83477
 6.1000e+000 83774 -4.3473e+001 -1.2777e+002 -1.3608e+001 52585 83555,83529,83748
 6.1000e+000 83797 -5.8325e+001 -1.3830e+002 -9.0119e+000 52585 83555,83748,83581
 6.1000e+000 83846 -4.8753e+001 -1.3039e+002 -3.7231e+000 52585 83581,83748,83820
 6.1000e+000 83869 -4.0360e+001 -1.2770e+002 -2.7794e+000 52585 83581,83820,83477
 6.1000e+000 84200 -3.6972e+001 -1.2888e+002 -5.0533e+000 52024 84001,84105,84079
 6.1000e+000 84177 -2.0370e+001 -1.2617e+002 -9.7391e+000 52024 83975,84105,84001
 6.1000e+000 84154 -3.2090e+001 -1.2915e+002 -4.0952e+000 52024 84001,84079,84053
 6.1000e+000 84131 -1.5228e+001 -8.5502e+001  1.4429e+001 52024 84001,84053,84027
 6.1000e+000 84399 -3.5039e+001 -1.2782e+002 -1.8241e+000 51470 84422,84275,84249
 6.1000e+000 84376 -3.4729e+001 -1.2506e+002 -1.3525e+000 51470 84422,84249,84223
 6.1000e+000 84353 -3.7498e+001 -1.3681e+002 -1.9878e+001 51470 84275,84327,84301
 6.1000e+000 84448 -3.5675e+001 -1.2549e+002 -2.0843e+000 51470 84327,84275,84422
 6.1000e+000 84471 -3.5810e+001 -1.2330e+002 -1.5881e+000 51470 84327,84422,84223
 6.1000e+000 84753 -3.7032e+001 -1.0622e+002 -1.2116e+000 51073 84603,84655,84629
 6.1000e+000 84730 -7.5311e+001 -1.2303e+002 -5.2362e+000 51073 84776,84655,84603
 6.1000e+000 84707 -1.8347e+001 -1.0639e+002 -2.9747e+001 51073 84577,84681,84655
 6.1000e+000 84802 -4.8372e+001 -1.0737e+002 -1.4544e+001 51073 84577,84655,84776
 6.1000e+000 85178 -7.1024e+001 -1.5850e+002  1.3690e+001 50519 85201,85008,84982
 6.1000e+000 85155 -6.7379e+001 -1.4846e+002  1.1248e+001 50519 85273,85201,84982
 6.1000e+000 85132 -6.4437e+001 -1.4802e+002  9.4258e+000 50519 85273,84982,84930
 6.1000e+000 85109 -6.1254e+001 -1.4131e+002  7.5080e+000 50519 84930,84982,84956
 6.1000e+000 85086 -6.4423e+001 -1.5573e+002  7.5329e+000 50519 85008,85060,85034
 6.1000e+000 85227 -6.2543e+001 -1.5265e+002  6.7060e+000 50519 85060,85008,85201
 6.1000e+000 85250 -6.7531e+001 -1.5318e+002  5.3362e+000 50519 85060,85201,84904
 6.1000e+000 85299 -6.4780e+001 -1.5087e+002  4.3008e+000 50519 84904,85201,85273
 6.1000e+000 85322 -5.2894e+001 -1.3383e+002 -8.9820e-001 50519 84904,85273,84930
 6.1000e+000 85958 -4.6009e+001 -1.3448e+002 -4.1948e+000 50093 85981,85768,85716
 6.1000e+000 85935 -4.1013e+001 -1.2245e+002 -4.0942e+000 50093 85981,85716,85612
 6.1000e+000 85912 -5.6014e+001 -1.2611e+002  2.6268e+000 50093 85612,85716,85664
 6.1000e+000 85889 -3.5981e+001 -1.3081e+002 -1.2374e+000 50093 85716,85768,85742
 6.1000e+000 85866 -4.6788e+001 -9.7963e+001 -2.6223e+001 50093 85664,85716,85690
 6.1000e+000 85843 -1.6421e+001 -9.2533e+001 -4.1732e+000 50093 85586,85794,85612
 6.1000e+000 85820 -3.8335e+001 -1.7211e+002  1.5044e+001 50093 85612,85664,85638
 6.1000e+000 86007 -5.6393e+001 -1.4503e+002 -2.1431e+001 50093 85794,85768,85981
 6.1000e+000 86030 -4.0782e+001 -1.0985e+002 -1.6989e+001 50093 85794,85981,85612
 6.1000e+000 86131 -4.1640e+001 -1.2237e+002  1.6764e+001 49895 86053,86105,86079
 6.1000e+000 86639 -3.4877e+001 -9.2348e+001 -1.8942e+001 49391 86662,86394,86368
 6.1000e+000 86616 -4.1602e+001 -1.1436e+002 -1.7195e+001 49391 86662,86368,86342
 6.1000e+000 86593 -2.0975e+001 -1.1406e+002 -4.7956e+000 49391 86342,86498,86472
 6.1000e+000 86570 -1.3807e+001 -1.2252e+002 -5.3033e+000 49391 86316,86498,86342
 6.1000e+000 86547 -6.4686e+001 -1.7458e+002 -6.2230e+000 49391 86394,86472,86446
 6.1000e+000 86524 -7.8031e+000 -1.6764e+002  1.9593e+000 49391 86394,86446,86420
 6.1000e+000 86688 -3.8408e+001 -1.1283e+002 -9.4273e+000 49391 86472,86394,86662
 6.1000e+000 86711 -3.4932e+001 -1.2233e+002 -9.2963e+000 49391 86472,86662,86342
 6.1000e+000 87089 -5.0216e+001 -1.3150e+002  3.5810e+000 48987 86815,86919,86867
 6.1000e+000 87066 -4.8998e+001 -1.3583e+002  5.7889e+000 48987 86815,86971,86919
 6.1000e+000 87043 -1.9340e+001 -1.4408e+002 -1.2330e+001 48987 86867,86919,86893
 6.1000e+000 87020 -5.6943e+001 -1.5009e+002  1.2900e+001 48987 86815,86867,86841
 6.1000e+000 86997 -5.4011e+001 -1.1630e+002  1.8445e+001 48987 86919,86971,86945
 6.1000e+000 87467 -9.0945e+001 -1.3246e+002  7.0433e+000 48540 87490,87245,87219
 6.1000e+000 87444 -6.4293e+001 -1.2489e+002  1.0754e+000 48540 87562,87490,87219
 6.1000e+000 87421 -4.9875e+001 -1.1908e+002  5.4180e+000 48540 87562,87219,87349
 6.1000e+000 87398 -6.6334e+001 -1.0187e+002 -4.4905e+000 48540 87245,87297,87271
 6.1000e+000 87375 -4.3171e+001 -1.2456e+002  4.0017e+000 48540 87193,87349,87219
 6.1000e+000 87516 -6.1273e+001 -1.2397e+002  3.9364e+000 48540 87297,87245,87490
 6.1000e+000 87539 -6.2060e+001 -1.2737e+002  3.2119e+000 48540 87297,87490,87323
 6.1000e+000 87588 -5.0325e+001 -1.1859e+002  1.0566e+001 48540 87323,87490,87562
 6.1000e+000 87611 -4.3343e+001 -1.2028e+002  1.3465e+001 48540 87323,87562,87349
 6.1000e+000 87810 -5.6563e+001 -2.0205e+002 -1.4566e+001 48136 87660,87712,87686
 6.1000e+000 87787 -3.1605e+001 -1.1762e+002 -6.8211e+000 48136 87660,87738,87712
 6.1000e+000 87764 -7.5754e+001 -1.2245e+002 -2.0254e+001 48136 87634,87738,87660
 6.1000e+000 88205 -5.8719e+001 -1.4120e+002 -1.4259e+001 47210 88300,88228,87937
 6.1000e+000 88182 -5.1255e+001 -1.3659e+002 -4.7975e+000 47210 88228,87833,88041
 6.1000e+000 88159 -5.9869e+001 -1.5206e+002 -2.1697e+001 47210 88300,87937,87911
 6.1000e+000 88136 -5.6515e+001 -1.3705e+002 -1.7300e+001 47210 87833,87911,87859
 6.1000e+000 88113 -9.9934e+001 -1.2567e+002 -1.4503e+001 47210 87937,87989,87963
 6.1000e+000 88090 -4.9968e+001 -1.1107e+002  2.3352e+001 47210 87989,88041,88015
 6.1000e+000 88067 -6.4382e+001 -1.5699e+002 -2.2561e+001 47210 87859,87911,87885
 6.1000e+000 88254 -5.2046e+001 -1.1415e+002 -1.4884e+001 47210 87989,87937,88228
 6.1000e+000 88277 -6.2899e+001 -1.3417e+002 -6.1466e+000 47210 87989,88228,88041
 6.1000e+000 88326 -4.8903e+001 -1.3114e+002 -5.7933e+000 47210 87833,88228,88300
 6.1000e+000 88349 -5.1543e+001 -1.3828e+002 -1.3838e+001 47210 87833,88300,87911
 6.1000e+000 88780 -7.9669e+001 -1.4234e+002 -2.6827e+001 46642 88803,88509,88483
 6.1000e+000 88757 -5.7833e+001 -1.2856e+002 -1.4434e+001 46642 88803,88483,88639
 6.1000e+000 88734 -6.3497e+001 -1.0582e+002 -1.6919e+001 46642 88875,88561,88509
 6.1000e+000 88711 -6.4265e+001 -9.7246e+001 -2.0130e+000 46642 88509,88561,88535
 6.1000e+000 88688 -3.7000e+001 -1.4311e+002  4.1890e-001 46642 88457,88639,88483
 6.1000e+000 88665 -7.3986e+001 -1.7397e+002 -8.8765e+000 46642 88561,88613,88587
 6.1000e+000 88829 -6.4164e+001 -1.1534e+002 -1.9047e+001 46642 88875,88509,88803
 6.1000e+000 88852 -6.3038e+001 -1.3780e+002 -1.2324e+001 46642 88613,88803,88639
 6.1000e+000 88901 -5.2357e+001 -1.1891e+002 -8.9836e+000 46642 88613,88561,88875
 6.1000e+000 88924 -5.7176e+001 -1.3421e+002 -1.0814e+001 46642 88613,88875,88803
 6.1000e+000 89253 -2.4638e+001 -1.3184e+002  2.4749e+000 46444 89080,89158,89132
 6.1000e+000 89230 -2.7236e+001 -1.3711e+002  5.6983e-001 46444 89028,89158,89080
 6.1000e+000 89207 -1.1273e+001 -1.2438e+002 -4.9530e+000 46444 89028,89080,89054
 6.1000e+000 89184 -8.6371e+000 -1.4354e+002 -1.2687e+001 46444 89080,89132,89106
 6.1000e+000 89631 -4.1199e+001 -9.3086e+001  2.6789e+000 46040 89383,89461,89435
 6.1000e+000 89608 -4.3229e+001 -1.0258e+002 -5.8560e+000 46040 89383,89487,89461
 6.1000e+000 89585 -4.4700e+001 -1.2006e+002 -2.8974e+000 46040 89383,89435,89409
 6.1000e+000 89562 -3.3964e+001 -8.7404e+001 -1.2319e+001 46040 89383,89513,89487
 6.1000e+000 89539 -1.4119e+001 -7.7598e+001 -1.6767e+001 46040 89357,89513,89383
 6.1000e+000 90009 -4.3367e+001 -1.1914e+002 -1.6576e-001 45636 89813,89891,89839
 6.1000e+000 89986 -4.4330e+001 -1.1066e+002  6.7550e+000 45636 89787,89891,89813
 6.1000e+000 89963 -3.9197e+001 -1.1203e+002 -2.6824e+000 45636 89839,89891,89865
 6.1000e+000 89940 -5.0639e+001 -1.2345e+002  4.2100e+000 45636 89735,89891,89787
 6.1000e+000 89917 -4.0646e+001 -1.2463e+002 -4.5742e+000 45636 89735,89787,89761
 6.1000e+000 90208 -2.6769e+001 -9.1807e+001 -1.8515e+001 45175 90231,90058,90032
 6.1000e+000 90185 -1.6172e+001 -8.3989e+001 -2.7562e+001 45175 90231,90032,90136
 6.1000e+000 90162 -3.0414e+001 -7.1116e+001 -1.1365e+000 45175 90058,90110,90084
 6.1000e+000 90257 -3.8655e+001 -1.0308e+002 -5.0970e+000 45175 90110,90058,90231
 6.1000e+000 90280 -1.8385e+001 -8.9466e+001 -1.5185e+001 45175 90110,90231,90136
 6.1000e+000 90528 -2.9183e+001 -9.2333e+001 -1.2729e+001 44513 90695,90551,90407
 6.1000e+000 90505 -3.1848e+001 -8.3864e+001 -8.2294e+000 44513 90551,90355,90329
 6.1000e+000 90482 -3.5908e+001 -8.9429e+001 -1.2034e+001 44513 90623,90303,90433
 6.1000e+000 90459 -2.4081e+001 -8.5554e+001 -8.7529e+000 44513 90695,90407,90381
 6.1000e+000 90577 -4.1967e+001 -9.6315e+001 -2.1692e+001 44513 90433,90407,90551
 6.1000e+000 90600 -3.5897e+001 -8.7768e+001 -1.1851e+001 44513 90623,90433,90551
 6.1000e+000 90649 -3.5068e+001 -8.7501e+001 -1.2130e+001 44513 90329,90303,90623
 6.1000e+000 90672 -3.5619e+001 -8.6966e+001 -1.2014e+001 44513 90329,90623,90551
 6.1000e+000 90721 -3.6397e+001 -8.2895e+001 -1.4714e+001 44513 90355,90551,90695
 6.1000e+000 90744 -3.5411e+001 -7.9004e+001 -1.3093e+001 44513 90355,90695,90381
 6.1000e+000 91077  3.5692e+000 -9.5793e+001 -5.7233e+000 44059 91100,90930,90904
 6.1000e+000 91054 -3.7991e+001 -1.0383e+002  6.9866e+000 44059 91100,90904,90982
 6.1000e+000 91031 -6.8051e+001 -1.1964e+002 -7.0359e+000 44059 90878,90982,90904
 6.1000e+000 91008 -2.4191e+001 -9.3130e+001  4.4500e+000 44059 90852,90982,90878
 6.1000e+000 91126 -6.2276e+001 -1.1378e+002 -5.6845e+000 44059 91172,91100,90956
 6.1000e+000 91149 -3.7688e+001 -1.0580e+002 -4.6999e+000 44059 90956,91100,90982
 6.1000e+000 91198  4.1046e+000 -4.3968e+001 -3.2869e+001 44059 90930,91100,91172
 6.1000e+000 91677 -4.5143e+001 -7.1027e+001  6.6025e+000 43549 91455,91533,91481
 6.1000e+000 91654 -1.6241e+001 -7.0582e+001  9.7976e+000 43549 91429,91533,91455
 6.1000e+000 91631 -4.3882e+001 -7.1823e+001  2.9661e+000 43549 91481,91533,91507
 6.1000e+000 91608 -8.6725e+000 -6.7535e+001  4.0650e+000 43549 91429,91559,91533
 6.1000e+000 91585  2.5766e+000 -1.5703e+001 -1.1342e+000 43549 91403,91559,91429
 6.1000e+000 92006 -4.9616e+001 -1.2016e+002  5.6524e-001 43059 91781,91885,91807
 6.1000e+000 91983 -5.1964e+001 -1.1381e+002  1.9292e+001 43059 91781,91911,91885
 6.1000e+000 91960 -4.9355e+001 -1.1893e+002 -1.1266e-001 43059 91807,91885,91833
 6.1000e+000 91937 -3.2697e+001 -1.1207e+002 -6.9631e-001 43059 91833,91885,91859
 6.1000e+000 92561 -3.3702e+001 -7.7064e+001 -8.4727e+000 42598 92584,92215,92189
 6.1000e+000 92538 -3.7983e+001 -8.6441e+001 -7.0501e+000 42598 92656,92584,92189
 6.1000e+000 92515 -3.3477e+001 -9.8302e+001 -1.0567e+000 42598 92656,92189,92397
 6.1000e+000 92492 -4.8267e+001 -6.8240e+001 -1.1099e+001 42598 92241,92319,92293
 6.1000e+000 92469 -4.2111e+001 -8.1418e+001  6.8621e+000 42598 92319,92397,92371
 6.1000e+000 92446 -1.2598e+001 -1.0340e+002  4.9530e+001 42598 92319,92371,92345
 6.1000e+000 92423 -4.6056e+001 -7.0306e+001 -1.6422e+001 42598 92241,92293,92267
 6.1000e+000 92610 -3.8104e+001 -7.9478e+001 -9.5824e+000 42598 92241,92215,92584
 6.1000e+000 92633 -3.3672e+001 -6.9241e+001 -1.0426e+001 42598 92241,92584,92319
 6.1000e+000 92682 -3.3910e+001 -7.0498e+001 -4.4511e+000 42598 92319,92584,92656
 6.1000e+000 92705 -2.6869e+001 -7.8785e+001  4.2266e-002 42598 92319,92656,92397
 6.1000e+000 92953 -5.1173e+001 -1.2890e+002  6.9643e+000 42094 92976,92806,92780
 6.1000e+000 92930 -5.6628e+001 -1.2123e+002 -6.9033e-003 42094 92976,92780,92754
 6.1000e+000 92907 -1.4987e+001 -1.2398e+002 -8.9091e-001 42094 93048,92832,92806
 6.1000e+000 92884 -7.0361e+001 -1.2368e+002 -7.6478e+000 42094 92728,92858,92754
 6.1000e+000 93002 -3.4204e+001 -1.1940e+002  3.1972e+000 42094 93048,92806,92976
 6.1000e+000 93025 -5.2440e+001 -1.1899e+002 -1.8004e+000 42094 92858,92976,92754
 6.1000e+000 93074 -4.1958e+001 -1.3335e+002 -8.7057e-001 42094 92858,92832,93048
 6.1000e+000 93097 -5.7390e+001 -1.2624e+002  1.4598e+000 42094 92858,93048,92976
 6.1000e+000 93605 -5.0365e+001 -1.4433e+002 -6.4900e+000 41846 93628,93412,93386
 6.1000e+000 93582 -4.0184e+001 -1.0832e+002 -2.8559e+000 41846 93628,93386,93308
 6.1000e+000 93559 -5.6389e+001 -1.1151e+002 -2.5044e+001 41846 93700,93464,93438
 6.1000e+000 93536 -5.8336e+001 -1.5337e+002  6.0086e-001 41846 93308,93386,93334
 6.1000e+000 93513 -7.1024e+001 -1.0129e+002 -2.3765e+001 41846 93334,93386,93360
 6.1000e+000 93490 -5.1480e+001 -9.8401e+001 -2.6754e+001 41846 93282,93464,93308
 6.1000e+000 93654 -4.5143e+001 -1.1542e+002 -1.1609e+001 41846 93438,93412,93628
 6.1000e+000 93677 -5.8673e+001 -1.1502e+002 -1.1280e+001 41846 93700,93438,93628
 6.1000e+000 93726 -4.9274e+001 -9.4715e+001 -2.5526e+001 41846 93308,93464,93700
 6.1000e+000 93749 -4.9225e+001 -9.2819e+001 -1.1982e+001 41846 93308,93700,93628
 6.1000e+000 94255 -4.5554e+001 -1.2336e+002  8.0185e+000 41385 93958,94114,94088
 6.1000e+000 94232 -3.8578e+001 -1.3303e+002  3.2399e+000 41385 93932,94114,93958
 6.1000e+000 94209 -7.2771e+001 -1.4195e+002  2.3230e+001 41385 93958,94088,94062
 6.1000e+000 94186 -7.5867e+001 -1.0237e+002  1.7225e+001 41385 93958,94062,93984
 6.1000e+000 94163 -6.3253e+001 -1.0118e+002  1.3676e+001 41385 93984,94062,94036
 6.1000e+000 94140 -4.3799e+001 -1.3282e+002  1.9367e+001 41385 93984,94036,94010
 6.1000e+000 94476 -1.6978e+001 -1.6877e+002  9.0474e+000 40881 94326,94378,94352
 6.1000e+000 94453 -2.8769e+001 -1.3678e+002  1.1291e+001 40881 94300,94378,94326
 6.1000e+000 94430 -3.7753e+001 -1.2667e+002  1.2957e+000 40881 94300,94404,94378
 6.1000e+000 94626 -2.7494e+001 -8.6300e+001 -2.5469e+000 40591 94649,94551,94525
 6.1000e+000 94603 -1.6387e+001 -4.9950e+001  3.2364e+000 40591 94781,94577,94551
 6.1000e+000 94675 -7.1413e+000 -6.1623e+001 -1.1884e+001 40591 94781,94551,94649
 6.1000e+000 94807  7.0302e+000 -2.8435e+001  1.5592e+001 40591 94499,94577,94781
 6.1000e+000 94830  1.0213e+001 -5.0978e+001 -5.2292e-001 40591 94499,94781,94649
 6.1000e+000 95336 -9.7806e+001 -1.1607e+002 -2.1126e+001 40187 95013,95169,95039
 6.1000e+000 95313 -2.6724e+001 -1.0413e+002  1.0099e+000 40187 95013,95195,95169
 6.1000e+000 95290 -1.9242e+001 -1.1055e+002 -1.5134e+001 40187 95039,95143,95065
 6.1000e+000 95267 -6.6423e+001 -1.2970e+002 -1.9886e+001 40187 95039,95169,95143
 6.1000e+000 95244 -1.6894e+001 -7.0015e+001 -4.8213e+000 40187 95091,95143,95117
 6.1000e+000 95221 -4.9610e+000 -4.3709e+001 -1.8244e+000 40187 95065,95143,95091
 6.1000e+000 95665 -2.7465e+001 -7.5632e+001  4.4514e+001 39626 95466,95570,95544
 6.1000e+000 95642 -5.9454e+001 -5.8584e+001  2.8940e+001 39626 95440,95570,95466
 6.1000e+000 95619 -9.8977e+001 -1.0923e+002  2.9999e+001 39626 95466,95544,95492
 6.1000e+000 95596 -1.2411e+001 -8.0964e+001  4.4823e+001 39626 95492,95544,95518
 6.1000e+000 95913 -4.8939e+001 -1.0183e+002 -1.4712e+001 39136 96080,95936,95766
 6.1000e+000 95890 -3.3464e+001 -1.0969e+002 -9.8145e+000 39136 95936,95714,95688
 6.1000e+000 95867 -8.3448e+001 -1.1003e+002  4.8990e+000 39136 96008,95792,95766
 6.1000e+000 95844 -4.0980e+001 -9.9040e+001 -1.0936e+001 39136 96080,95766,95740
 6.1000e+000 95962 -6.6229e+001 -1.1353e+002 -9.3565e+000 39136 96008,95766,95936
 6.1000e+000 95985 -4.3592e+001 -1.3479e+002 -2.6487e+000 39136 95818,95936,95688
 6.1000e+000 96034 -4.2029e+001 -9.2096e+001  6.9145e+000 39136 95818,95792,96008
 6.1000e+000 96057 -3.7480e+001 -1.0083e+002 -7.0925e+000 39136 95818,96008,95936
 6.1000e+000 96106 -4.4766e+001 -1.0034e+002 -4.1150e+000 39136 95714,95936,96080
 6.1000e+000 96129 -3.2397e+001 -9.7125e+001 -1.1156e+000 39136 95714,96080,95740
 6.1000e+000 96350 -3.1911e+001 -8.2297e+001 -5.5446e+000 38824 96200,96278,96252
 6.1000e+000 96327 -2.5981e+001 -7.9067e+001 -4.2905e+000 38824 96174,96278,96200
 6.1000e+000 96304 -1.8756e+000 -7.2188e+001 -1.6383e+001 38824 96200,96252,96226
 6.1000e+000 96830 -4.6999e+001 -8.6623e+001 -7.7727e+000 38320 97069,96536,96484
 6.1000e+000 96807 -4.6011e+001 -8.7913e+001 -7.7178e+000 38320 97069,96484,96853
 6.1000e+000 96784 -5.2040e+001 -9.4552e+001 -6.7091e-002 38320 96853,96484,96458
 6.1000e+000 96761 -2.8947e+001 -7.5349e+001 -1.0423e+001 38320 96925,96640,96614
 6.1000e+000 96738 -4.4709e+001 -7.7881e+001 -5.0268e+000 38320 96997,96666,96640
 6.1000e+000 96715 -3.8570e+001 -1.0347e+002 -3.8590e+000 38320 97141,96588,96562
 6.1000e+000 96692 -5.8842e+001 -9.8981e+001 -2.5163e+000 38320 96484,96536,96510
 6.1000e+000 96879 -4.6633e+001 -9.3950e+001 -4.9378e+000 38320 97141,96562,96853
 6.1000e+000 96902 -4.2756e+001 -9.0700e+001 -4.5805e+000 38320 96925,96614,96853
 6.1000e+000 96951 -4.3957e+001 -7.7248e+001 -5.4735e+000 38320 96997,96640,96925
 6.1000e+000 96974 -4.1823e+001 -7.6461e+001 -4.1934e+000 38320 96458,96925,96853
 6.1000e+000 97023 -4.8116e+001 -7.8678e+001 -3.2272e+000 38320 96458,96666,96997
 6.1000e+000 97046 -4.5428e+001 -7.7299e+001 -3.7305e+000 38320 96458,96997,96925
 6.1000e+000 97095 -4.7787e+001 -8.2289e+001 -3.0161e+000 38320 96562,96536,97069
 6.1000e+000 97118 -4.4140e+001 -8.7026e+001 -6.9297e+000 38320 96562,97069,96853
 6.1000e+000 97167 -2.4726e+001 -9.4572e+001 -7.8735e+000 38320 96614,96588,97141
 6.1000e+000 97190 -3.7977e+001 -8.8765e+001 -7.7617e+000 38320 96614,97141,96853
 6.1000e+000 97519 -3.4385e+001 -1.1672e+002  3.3119e+001 37766 97542,97398,97372
 6.1000e+000 97496 -4.0670e+001 -8.9346e+001  2.4229e+001 37766 97542,97372,97346
 6.1000e+000 97473 -4.1549e+001 -9.6429e+001  1.2027e+000 37766 97294,97424,97346
 6.1000e+000 97450 -4.6392e+001 -1.0985e+002  2.5628e-001 37766 97294,97346,97320
 6.1000e+000 97568 -1.7274e+001 -1.2443e+002  1.0104e+001 37766 97424,97398,97542
 6.1000e+000 97591 -2.7503e+001 -9.2451e+001  2.9587e+000 37766 97424,97542,97346
 6.1000e+000 98048 -4.7008e+001 -6.9226e+001 -2.3256e+001 37262 98071,97878,97852
 6.1000e+000 98025 -3.9161e+001 -8.3392e+001 -8.9454e+000 37262 98071,97852,97800
 6.1000e+000 98002 -4.1544e+001 -9.9206e+001 -1.1282e+001 37262 97800,97852,97826
 6.1000e+000 97979 -4.3677e+001 -8.9820e+001  1.0094e+000 37262 97800,97930,97904
 6.1000e+000 97956 -2.9212e+001 -1.0125e+002  5.7078e+000 37262 97774,97930,97800
 6.1000e+000 98097 -6.8552e+001 -7.9647e+001 -1.6720e+001 37262 97904,97878,98071
 6.1000e+000 98120 -5.0830e+001 -9.4689e+001 -3.5857e+000 37262 97904,98071,97800
 6.1000e+000 98449 -2.9113e+001 -7.2886e+001 -8.8243e+000 36950 98472,98302,98250
 6.1000e+000 98426 -1.8239e+001 -6.9686e+001 -1.0779e+001 36950 98472,98250,98354
 6.1000e+000 98403 -4.4645e+001 -8.3116e+001  9.2934e+000 36950 98250,98302,98276
 6.1000e+000 98380 -1.2143e+001 -5.3845e+001  7.3749e+000 36950 98224,98354,98250
 6.1000e+000 98498 -2.1033e+001 -8.1469e+001 -2.4327e+000 36950 98328,98302,98472
 6.1000e+000 98521 -8.3682e+000 -7.6663e+001 -6.2123e+000 36950 98328,98472,98354
 6.1000e+000 99125 -4.7504e+001 -4.7772e+001  2.1125e+000 36296 98704,98756,98730
 6.1000e+000 99102 -5.6960e+001 -5.3613e+001  5.9455e+000 36296 98704,98938,98756
 6.1000e+000 99079 -3.9491e+001 -7.0383e+001 -1.8702e+000 36296 99148,98938,98912
 6.1000e+000 99056 -4.0690e+001 -7.3114e+001  1.7390e+001 36296 99292,99220,98782
 6.1000e+000 99033 -3.4601e+001 -8.3390e+001  2.0337e+000 36296 99148,98912,98834
 6.1000e+000 99010 -4.0093e+001 -6.2871e+001  2.0389e+001 36296 99292,98782,98756
 6.1000e+000 98987 -3.3861e+001 -1.4775e+002 -2.7131e+001 36296 98834,98912,98886
 6.1000e+000 98964 -5.5042e+001 -2.0967e+002 -3.4645e+001 36296 98834,98886,98860
 6.1000e+000 99174 -4.9377e+001 -8.8783e+001  3.0427e+000 36296 99220,98938,99148
 6.1000e+000 99197 -3.3322e+001 -1.0147e+002  1.0846e+001 36296 98808,99148,98834
 6.1000e+000 99246 -4.1950e+001 -7.5769e+001  4.1694e+001 36296 98808,98782,99220
 6.1000e+000 99269 -1.7321e+001 -6.4883e+001  1.3566e+001 36296 98808,99220,99148
 6.1000e+000 99318 -4.7191e+001 -6.4519e+001  1.0762e+001 36296 98938,99220,99292
 6.1000e+000 99341 -4.8050e+001 -6.5844e+001  1.3249e+001 36296 98938,99292,98756
 6.1000e+000 99719 -5.7773e+001 -1.1756e+002  4.8279e-001 35742 99742,99471,99601
 6.1000e+000 99696 -5.8269e+001 -9.3600e+001  1.1240e+001 35742 99445,99601,99471
 6.1000e+000 99673 -5.5076e+001 -1.1138e+002 -3.8311e+000 35742 99742,99601,99575
 6.1000e+000 99650 -4.8585e+001 -1.3991e+002 -3.0617e+000 35742 99814,99549,99523
 6.1000e+000 99627 -4.0166e+001 -1.0913e+002  3.8505e-001 35742 99471,99523,99497
 6.1000e+000 99768 -4.6573e+001 -1.1519e+002  3.0677e+000 35742 99523,99471,99742
 6.1000e+000 99791 -5.4903e+001 -1.2880e+002 -2.4234e+000 35742 99814,99523,99742
 6.1000e+000 99840 -4.8145e+001 -1.2600e+002 -7.2862e+000 35742 99575,99549,99814
 6.1000e+000 99863 -5.1964e+001 -1.1142e+002 -6.2367e+000 35742 99575,99814,99742
 6.1000e+000 100111 -4.5359e+001 -9.6322e+001  7.5479e+000 35302 100134,99990,99938
 6.1000e+000 100088 -3.8290e+001 -8.7151e+001  3.3472e+000 35302 100134,99938,99912
 6.1000e+000 100065 -3.8664e+001 -8.6855e+001 -1.8236e+000 35302 100206,99886,100016
 6.1000e+000 100042 -5.5919e+001 -9.4749e+001  4.9399e+000 35302 99938,99990,99964
 6.1000e+000 100160 -3.6778e+001 -9.3168e+001  1.5214e+000 35302 100016,99990,100134
 6.1000e+000 100183 -3.6716e+001 -8.8500e+001 -1.7768e+000 35302 100206,100016,100134
 6.1000e+000 100232 -4.0294e+001 -8.8794e+001 -6.0866e-001 35302 99912,99886,100206
 6.1000e+000 100255 -3.8481e+001 -9.0858e+001 -6.2823e-001 35302 99912,100206,100134
 6.1000e+000 100586 -5.6960e+001 -5.9211e+001  2.1436e+001 35012 100609,100387,100361
 6.1000e+000 100563 -7.0727e+001 -3.7519e+001 -1.3400e+001 35012 100609,100361,100465
 6.1000e+000 100540 -3.0915e+001 -2.3725e+001 -3.1364e+001 35012 100361,100491,100465
 6.1000e+000 100517 -4.8878e+000 -2.7001e+001 -3.4254e+001 35012 100413,100465,100439
 6.1000e+000 100635 -2.2182e+001 -4.3751e+001  7.3082e+000 35012 100413,100387,100609
 6.1000e+000 100658 -3.4242e+001 -1.5718e+001 -2.8402e+001 35012 100413,100609,100465
 6.1000e+000 100987 -4.3354e+001 -1.0015e+002  8.9208e+000 34700 100788,100866,100814
 6.1000e+000 100964 -3.7061e+001 -7.5317e+001  1.5608e+001 34700 101010,100866,100788
 6.1000e+000 100941 -1.9154e+001 -4.4857e+001  1.4455e+001 34700 100762,100892,100866
 6.1000e+000 100918 -3.9067e+001 -8.9851e+001  8.1336e+000 34700 100814,100866,100840
 6.1000e+000 101036 -2.2814e+001 -6.3509e+001  2.7288e+001 34700 100762,100866,101010
 6.1000e+000 101493 -6.0094e+001 -1.1118e+002 -8.2148e+000 34132 101516,101349,101297
 6.1000e+000 101470 -7.0815e+001 -1.3191e+002 -1.3750e+001 34132 101588,101516,101297
 6.1000e+000 101447 -7.0873e+001 -1.3802e+002 -2.0721e+001 34132 101588,101297,101245
 6.1000e+000 101424 -4.5053e+001 -1.5957e+002 -1.9616e+001 34132 101245,101297,101271
 6.1000e+000 101401 -6.4842e+001 -1.1075e+002 -1.0961e+001 34132 101297,101349,101323
 6.1000e+000 101542 -6.1672e+001 -1.2746e+002 -6.4871e+000 34132 101375,101349,101516
 6.1000e+000 101565 -5.6401e+001 -1.2782e+002 -7.2755e+000 34132 101375,101516,101219
 6.1000e+000 101614 -5.7607e+001 -1.3218e+002 -7.1781e+000 34132 101219,101516,101588
 6.1000e+000 101637 -6.4266e+001 -1.3839e+002 -1.3793e+001 34132 101219,101588,101245
 6.1000e+000 101858 -1.6914e+001 -8.4411e+001  9.0969e+000 33720 101708,101786,101760
 6.1000e+000 101835 -7.6451e+000 -8.8330e+001  1.4667e+001 33720 101682,101786,101708
 6.1000e+000 101812 -2.7725e+001 -8.9692e+001  7.1541e+000 33720 101708,101760,101734
 6.1000e+000 102128 -1.5893e+001 -1.1593e+002 -3.2383e+000 33130 101903,102007,101929
 6.1000e+000 102105 -1.8425e+001 -1.3428e+002  4.3629e+000 33130 101903,102033,102007
 6.1000e+000 102082 -1.0242e+001 -1.3804e+002 -2.6111e+001 33130 101929,102007,101955
 6.1000e+000 102059 -2.2650e+001 -9.7875e+001  2.5453e+000 33130 101955,102007,101981
 6.1000e+000 102461 -3.2240e+001 -7.9563e+001 -8.9319e+000 32840 102236,102340,102262
 6.1000e+000 102438 -2.9370e+001 -5.8094e+001  2.3833e+000 32840 102236,102366,102340
 6.1000e+000 102415 -1.7646e+001 -7.6005e+001 -7.4764e+000 32840 102262,102340,102288
 6.1000e+000 102392 -3.5240e+001 -7.9053e+001 -1.9428e+001 32840 102288,102340,102314
 6.1000e+000 102997 -3.9562e+001 -6.7265e+001  1.8513e+001 32493 102749,102879,102853
 6.1000e+000 102974 -3.2868e+001 -5.3865e+001  1.4218e+001 32493 102723,102879,102749
 6.1000e+000 102951 -4.4689e+001 -8.0895e+001  1.3061e+001 32493 102749,102801,102775
 6.1000e+000 102928 -4.9059e+001 -8.0136e+001  1.2369e+001 32493 102749,102853,102801
 6.1000e+000 102905 -4.7658e+001 -7.8333e+001  1.0896e+001 32493 102801,102853,102827
 6.1000e+000 103454 -3.2523e+001 -6.2414e+001 -7.7874e+000 32089 103206,103336,103310
 6.1000e+000 103431 -2.4817e+001 -7.1116e+001 -8.6577e-001 32089 103180,103336,103206
 6.1000e+000 103408 -4.2745e+001 -7.8310e+001 -1.5051e+001 32089 103206,103284,103258
 6.1000e+000 103385 -5.9501e+001 -7.9829e+001 -1.8348e+001 32089 103206,103310,103284
 6.1000e+000 103362 -3.1748e+001 -5.0985e+001 -1.1223e+001 32089 103206,103258,103232
 6.1000e+000 103783 -6.8662e+001 -8.9106e+001 -1.0490e+001 31742 103558,103662,103584
 6.1000e+000 103760 -5.6239e+001 -7.3007e+001 -2.7695e+001 31742 103558,103688,103662
 6.1000e+000 103737 -4.5943e+001 -7.0800e+001 -1.9577e+001 31742 103584,103662,103636
 6.1000e+000 103714 -4.4852e+001 -8.1304e+001 -2.0820e+001 31742 103584,103636,103610
 6.1000e+000 104112 -1.1259e+001 -6.7724e+001  1.0894e+001 31402 103939,103991,103965
 6.1000e+000 104089 -2.0458e+001 -5.7379e+001  5.2679e+000 31402 103913,103991,103939
 6.1000e+000 104066 -2.8492e+001 -6.7376e+001 -5.2257e-001 31402 103913,104017,103991
 6.1000e+000 104043 -3.7959e+001 -6.1358e+001 -6.9348e+000 31402 103887,104017,103913
 6.1000e+000 104569 -6.5695e+001 -1.1802e+002  4.9648e+000 30998 104321,104425,104373
 6.1000e+000 104546 -7.2087e+001 -1.2083e+002  5.4477e+000 30998 104321,104451,104425
 6.1000e+000 104523 -4.9632e+001 -9.5589e+001  1.7231e+001 30998 104373,104425,104399
 6.1000e+000 104500 -5.6707e+001 -1.3713e+002 -2.5551e+000 30998 104295,104451,104321
 6.1000e+000 104477 -8.8555e+001 -1.3835e+002  2.8042e+001 30998 104321,104373,104347
 6.1000e+000 104947 -6.2666e+001 -1.0517e+002 -1.3412e+001 30608 104751,104803,104777
 6.1000e+000 104924 -3.9859e+001 -1.0743e+002 -4.9035e+000 30608 104725,104803,104751
 6.1000e+000 104901 -6.3364e+001 -1.0373e+002  6.9788e+000 30608 104699,104803,104725
 6.1000e+000 104878 -5.3088e+001 -9.9226e+001  6.1393e+000 30608 104673,104803,104699
 6.1000e+000 104855 -4.0592e+001 -9.3430e+001 -3.6214e+000 30608 104673,104829,104803
 6.1000e+000 105276 -4.6352e+001 -9.8334e+001  3.3226e+000 30204 105427,105129,105077
 6.1000e+000 105253 -3.1114e+001 -1.0929e+002  2.2987e+001 30204 105427,105077,105051
 6.1000e+000 105230 -3.7863e+001 -9.6253e+001  3.7573e+000 30204 105077,105129,105103
 6.1000e+000 105207 -2.3997e+001 -8.6618e+001  1.4817e+001 30204 105299,105181,105155
 6.1000e+000 105325 -2.5843e+001 -8.4277e+001  3.7047e+000 30204 105129,105181,105299
 6.1000e+000 105453 -5.5793e+001 -1.0516e+002  1.3423e+001 30204 105181,105129,105427
 6.1000e+000 105476 -6.5645e+001 -1.2759e+002  3.5844e+001 30204 105181,105427,105051
 6.1000e+000 105903 -3.5918e+001 -8.3888e+001 -6.2782e+000 29700 105606,105762,105736
 6.1000e+000 105880 -4.6198e+001 -8.6231e+001  1.4221e-001 29700 105580,105762,105606
 6.1000e+000 105857 -5.5003e+001 -1.0573e+002 -6.2278e+000 29700 105606,105710,105632
 6.1000e+000 105834 -4.5809e+001 -8.9389e+001 -2.5783e+000 29700 105606,105736,105710
 6.1000e+000 105811 -5.0839e+001 -9.8119e+001 -7.9203e+000 29700 105632,105710,105684
 6.1000e+000 105788 -4.9719e+001 -9.5250e+001 -3.8702e+000 29700 105632,105684,105658
 6.1000e+000 106102 -1.4464e+001 -1.0108e+002  3.9255e+000 29124 105978,106030,106004
 6.1000e+000 106079 -2.5818e+001 -9.7781e+001  4.8257e+000 29124 105926,106030,105978
 6.1000e+000 106056 -3.1298e+001 -1.1668e+002  1.2986e+001 29124 105926,105978,105952
 6.1000e+000 106301 -2.8903e+001 -1.0322e+002  6.1380e-001 28712 106151,106229,106203
 6.1000e+000 106278 -3.4976e+001 -1.1463e+002 -5.1632e+000 28712 106125,106229,106151
 6.1000e+000 106255 -2.9954e+001 -1.0807e+002  5.3427e+000 28712 106151,106203,106177
 6.1000e+000 106551 -3.5353e+001 -1.2672e+002  6.8300e+000 28258 106352,106404,106378
 6.1000e+000 106528 -4.9033e+001 -1.2850e+002  2.4160e+000 28258 106352,106456,106404
 6.1000e+000 106505 -4.9521e+001 -1.3015e+002  1.7515e+000 28258 106326,106456,106352
 6.1000e+000 106482 -4.2816e+001 -1.1825e+002 -1.1174e+000 28258 106404,106456,106430
 6.1000e+000 107012 -4.3895e+001 -1.0986e+002  2.1629e+001 27818 107035,106790,106764
 6.1000e+000 106989 -3.8077e+001 -1.0342e+002  8.4866e+000 27818 107035,106764,106868
 6.1000e+000 106966 -2.7064e+001 -1.2645e+002  1.2102e+001 27818 107107,106842,106816
 6.1000e+000 106943 -5.5642e+001 -9.4477e+001  4.0458e+000 27818 106738,106868,106764
 6.1000e+000 106920 -5.4547e+001 -8.6857e+001  1.2481e+001 27818 106738,106894,106868
 6.1000e+000 107061 -2.0437e+001 -1.0496e+002  2.4416e+001 27818 106816,106790,107035
 6.1000e+000 107084 -3.4461e+001 -1.1755e+002  1.2775e+001 27818 107107,106816,107035
 6.1000e+000 107133 -2.5014e+001 -1.1357e+002  5.8779e+000 27818 106868,106842,107107
 6.1000e+000 107156 -3.0075e+001 -1.0044e+002  8.1058e+000 27818 106868,107107,107035
 6.1000e+000 107613 -1.5578e+001 -8.3427e+001  1.8203e+001 27312 107339,107469,107365
 6.1000e+000 107590 -3.9181e+000 -7.6684e+001  1.5397e+001 27312 107339,107495,107469
 6.1000e+000 107567 -1.6020e+001 -7.9430e+001  8.6815e+000 27312 107391,107469,107443
 6.1000e+000 107544 -1.2586e+001 -8.5484e+001  7.9789e+000 27312 107365,107469,107391
 6.1000e+000 107521 -4.1214e+001 -8.8144e+001  4.7915e+000 27312 107391,107443,107417
 6.1000e+000 107991 -4.0375e+001 -1.2234e+002  5.3416e+000 26858 108086,108014,107795
 6.1000e+000 107968 -4.4757e+001 -1.2408e+002 -4.9422e+000 26858 108014,107717,107873
 6.1000e+000 107945 -4.6516e+001 -1.3019e+002  8.7915e+000 26858 108158,108086,107795
 6.1000e+000 107922 -3.7143e+001 -1.3325e+002  9.5186e+000 26858 108158,107795,107769
 6.1000e+000 107899 -3.4889e+001 -1.5193e+002  2.1415e+001 26858 107821,107873,107847
 6.1000e+000 108040 -4.3143e+001 -1.3864e+002  7.2618e+000 26858 107821,107795,108014
 6.1000e+000 108063 -2.7260e+001 -1.3052e+002  1.1782e+000 26858 107821,108014,107873
 6.1000e+000 108112 -5.4998e+001 -1.2830e+002  6.1872e+000 26858 107717,108014,108086
 6.1000e+000 108135 -4.6203e+001 -1.2826e+002  1.2755e+001 26858 107717,108086,107743
 6.1000e+000 108184 -3.6262e+001 -1.2429e+002  1.2443e+001 26858 107743,108086,108158
 6.1000e+000 108207 -3.1241e+001 -1.3047e+002  1.2886e+001 26858 107743,108158,107769
 6.1000e+000 108634 -5.6179e+001 -1.1565e+002  2.8856e+000 26404 108657,108415,108363
 6.1000e+000 108611 -6.3286e+001 -1.2458e+002  1.4593e+001 26404 108657,108363,108337
 6.1000e+000 108588 -5.4857e+001 -1.1945e+002  1.4185e+001 26404 108729,108311,108467
 6.1000e+000 108565 -5.9537e+001 -1.3911e+002  2.7447e+000 26404 108801,108441,108415
 6.1000e+000 108542 -8.1208e+001 -1.3107e+002  1.5983e+001 26404 108311,108493,108467
 6.1000e+000 108519 -3.8763e+001 -1.1628e+002  2.7674e+000 26404 108363,108415,108389
 6.1000e+000 108683 -7.4692e+001 -1.2372e+002  4.7426e+000 26404 108801,108415,108657
 6.1000e+000 108706 -7.1322e+001 -1.2339e+002  1.1541e+001 26404 108729,108467,108657
 6.1000e+000 108755 -4.4451e+001 -1.2573e+002  1.4080e+001 26404 108337,108311,108729
 6.1000e+000 108778 -5.2830e+001 -1.2378e+002  1.1006e+001 26404 108337,108729,108657
 6.1000e+000 108827 -7.4399e+001 -1.6957e+002 -6.1546e+000 26404 108467,108441,108801
 6.1000e+000 108850 -8.2383e+001 -1.4320e+002 -4.0490e+000 26404 108467,108801,108657
 6.1000e+000 109228 -5.7044e+001 -1.2245e+002 -4.8514e+000 26064 109006,109084,109058
 6.1000e+000 109205 -5.0550e+001 -1.1462e+002  2.7437e+000 26064 108980,109084,109006
 6.1000e+000 109182 -5.4231e+001 -1.0921e+002 -3.6857e+000 26064 108980,109110,109084
 6.1000e+000 109159 -5.4639e+001 -1.2785e+002 -5.3885e-001 26064 109006,109058,109032
 6.1000e+000 109136 -1.8826e+001 -9.5807e+001  4.3396e+000 26064 108954,109110,108980
 6.1000e+000 109427 -1.3511e+001 -1.0387e+002 -2.2503e+001 25660 109303,109355,109329
 6.1000e+000 109404 -2.7838e+001 -1.3251e+002 -5.5559e+000 25660 109277,109355,109303
 6.1000e+000 109381 -2.0467e+001 -1.2463e+002 -2.1857e+000 25660 109251,109355,109277
 6.1000e+000 109577 -1.7402e+001 -4.4512e+001  1.5501e+001 25306 109476,109528,109502
 6.1000e+000 109554  1.0168e+001 -3.5281e+001  1.3477e+001 25306 109450,109528,109476
 6.1000e+000 109778 -4.0371e+001 -1.1088e+002  2.6954e+000 24944 109628,109706,109654
 6.1000e+000 109755 -4.3573e+001 -1.1007e+002  2.9187e-001 24944 109602,109706,109628
 6.1000e+000 109732 -3.5595e+001 -1.0448e+002 -1.6972e+000 24944 109654,109706,109680
 6.1000e+000 110126 -3.2701e+001 -1.3971e+002  4.0264e+000 24440 110149,109907,109855
 6.1000e+000 110103 -2.8384e+001 -1.4881e+002  9.4293e+000 24440 110149,109855,109985
 6.1000e+000 110080 -2.4896e+001 -1.1932e+002  2.5538e+000 24440 109855,109907,109881
 6.1000e+000 110057 -2.4882e+001 -1.1393e+002  4.2023e+001 24440 109829,109985,109855
 6.1000e+000 110034 -2.9488e+001 -1.3856e+002  1.7338e+000 24440 109907,109959,109933
 6.1000e+000 110011 -3.9480e+000 -1.1411e+002  4.3385e+000 24440 109803,109985,109829
 6.1000e+000 110175 -3.0002e+001 -1.3257e+002  4.0870e+000 24440 109959,109907,110149
 6.1000e+000 110198 -2.4685e+001 -1.3969e+002  1.0370e+001 24440 109959,110149,109985
 6.1000e+000 110301 -1.1627e+000 -6.1358e+001  4.0300e+000 24028 110223,110275,110249
 6.1000e+000 110573 -1.7750e+001 -8.3400e+001  6.6861e+000 23467 110400,110452,110426
 6.1000e+000 110550 -2.9880e+001 -1.0033e+002  6.8328e-001 23467 110374,110452,110400
 6.1000e+000 110527 -3.2252e+001 -1.0132e+002  2.1199e+000 23467 110348,110452,110374
 6.1000e+000 110504 -2.3273e+001 -9.7873e+001 -3.0070e-001 23467 110348,110478,110452
 6.1000e+000 111004 -6.4993e+001 -1.4748e+002 -1.9351e+001 22963 111027,110733,110707
 6.1000e+000 110981 -6.6361e+001 -1.3933e+002  7.7662e+000 22963 111027,110707,110681
 6.1000e+000 110958 -2.9636e+001 -1.1817e+002 -1.6311e+001 22963 111099,110759,110733
 6.1000e+000 110935 -4.4089e+001 -1.1919e+002 -1.0454e+001 22963 111171,110863,110811
 6.1000e+000 110912 -1.5795e+001 -8.4986e+001 -1.9615e+001 22963 110759,110811,110785
 6.1000e+000 110889 -5.1412e+001 -1.3052e+002 -6.5305e+000 22963 110811,110863,110837
 6.1000e+000 111053 -4.8663e+001 -1.3110e+002 -9.4533e+000 22963 111099,110733,111027
 6.1000e+000 111076 -4.1315e+001 -1.2802e+002 -8.9484e+000 22963 111171,110811,111027
 6.1000e+000 111125 -2.8831e+001 -1.1545e+002 -2.6680e+001 22963 110811,110759,111099
 6.1000e+000 111148 -3.1914e+001 -1.1391e+002 -2.2543e+001 22963 110811,111099,111027
 6.1000e+000 111197 -4.3586e+001 -1.0618e+002 -1.1919e+001 22963 110681,110863,111171
 6.1000e+000 111220 -4.2971e+001 -1.1575e+002 -6.7604e+000 22963 110681,111171,111027
 6.1000e+000 111726 -6.6610e+001 -1.2633e+002  9.9610e-001 22459 111749,111507,111429
 6.1000e+000 111703 -5.7968e+001 -1.2322e+002 -4.3261e+000 22459 111749,111429,111585
 6.1000e+000 111680 -4.7025e+001 -1.3485e+002 -2.3361e+000 22459 111403,111585,111429
 6.1000e+000 111657 -6.3306e+001 -1.4012e+002  5.7687e+000 22459 111507,111559,111533
 6.1000e+000 111634 -8.2637e+001 -1.1827e+002  7.3634e+000 22459 111455,111507,111481
 6.1000e+000 111611 -9.9672e+001 -1.2270e+002  1.2360e+001 22459 111429,111507,111455
 6.1000e+000 111775 -6.5311e+001 -1.3483e+002  8.3245e+000 22459 111559,111507,111749
 6.1000e+000 111798 -5.7428e+001 -1.2797e+002  2.9488e+000 22459 111559,111749,111585
 6.1000e+000 112046 -2.9130e+001 -1.0792e+002 -1.3855e+001 21898 112069,111925,111873
 6.1000e+000 112023 -2.7693e+001 -1.0819e+002 -2.8849e+000 21898 112069,111873,111847
 6.1000e+000 112000 -3.7316e+001 -1.1029e+002 -5.5295e+000 21898 111821,111951,111847
 6.1000e+000 111977 -3.2773e+001 -8.2912e+001 -8.2129e+000 21898 111873,111925,111899
 6.1000e+000 112095 -4.4592e+001 -1.1343e+002 -1.6483e+001 21898 111951,111925,112069
 6.1000e+000 112118 -3.6748e+001 -1.1131e+002 -5.9300e+000 21898 111951,112069,111847
 6.1000e+000 112498 -4.7769e+001 -1.1620e+002 -8.4916e+000 21608 112521,112276,112224
 6.1000e+000 112475 -3.1492e+001 -1.1751e+002  6.4130e-001 21608 112521,112224,112380
 6.1000e+000 112452 -3.3224e+001 -1.3480e+002  8.4044e+000 21608 112302,112380,112354
 6.1000e+000 112429 -5.8393e+001 -1.3070e+002 -3.8537e+000 21608 112224,112276,112250
 6.1000e+000 112406  2.2900e+001 -1.4902e+002 -8.8693e+000 21608 112302,112354,112328
 6.1000e+000 112547 -3.4443e+001 -1.0231e+002 -7.3262e-001 21608 112302,112276,112521
 6.1000e+000 112570 -2.3262e+001 -1.1382e+002  5.5640e+000 21608 112302,112521,112380
 6.1000e+000 112948 -5.8769e+001 -1.2017e+002 -1.4515e+000 20882 112971,112752,112700
 6.1000e+000 112925 -4.4627e+001 -1.1548e+002 -4.5137e+000 20882 112971,112700,112830
 6.1000e+000 112902 -7.4357e+001 -1.2953e+002  8.4482e+000 20882 112778,112830,112804
 6.1000e+000 112879 -4.1148e+001 -9.1369e+001 -6.6067e+000 20882 112674,112830,112700
 6.1000e+000 112856 -7.0215e+001 -1.2688e+002  2.7468e+000 20882 112700,112752,112726
 6.1000e+000 112997 -5.9255e+001 -1.2030e+002  6.3784e+000 20882 112778,112752,112971
 6.1000e+000 113020 -5.1190e+001 -1.1806e+002  3.0230e+000 20882 112778,112971,112830
 6.1000e+000 113526 -3.7548e+001 -1.1846e+002  9.5873e-001 20428 113255,113385,113333
 6.1000e+000 113503 -4.0169e+001 -1.2721e+002  1.1557e+000 20428 113229,113385,113255
 6.1000e+000 113480 -7.5080e-001 -1.1383e+002  2.3672e+000 20428 113255,113333,113281
 6.1000e+000 113457 -3.4325e+001 -1.2158e+002  3.7682e+000 20428 113203,113385,113229
 6.1000e+000 113434 -1.7778e+001 -1.1970e+002 -3.2108e+000 20428 113281,113333,113307
 6.1000e+000 113411 -4.7306e+001 -1.1566e+002  3.2446e+000 20428 113333,113385,113359
 6.1000e+000 113774 -7.7188e+000 -1.1740e+002  5.1640e+000 19917 113797,113601,113549
 6.1000e+000 113751 -1.9835e+001 -1.1890e+002  6.3642e+000 19917 113869,113797,113549
 6.1000e+000 113728 -1.9017e+001 -1.2018e+002  1.1354e+001 19917 113869,113549,113679
 6.1000e+000 113705 -1.2208e+001 -1.1674e+002  1.0951e+001 19917 113549,113601,113575
 6.1000e+000 113823 -2.0498e+001 -1.4321e+002  3.5060e-002 19917 113627,113601,113797
 6.1000e+000 113846 -8.4868e+000 -1.1206e+002 -2.0945e+000 19917 113627,113797,113653
 6.1000e+000 113895 -1.7241e+001 -1.0670e+002  2.4840e+000 19917 113653,113797,113869
 6.1000e+000 113918 -2.1359e+001 -1.0996e+002  8.8781e+000 19917 113653,113869,113679
 6.1000e+000 114166 -5.4841e+001 -1.2170e+002 -2.1687e+000 19413 113993,114045,114019
 6.1000e+000 114143 -4.8272e+001 -1.1278e+002  1.2230e+000 19413 113967,114045,113993
 6.1000e+000 114120 -4.2523e+001 -1.1105e+002  7.1537e+000 19413 113967,114071,114045
 6.1000e+000 114097 -3.0565e+001 -1.2734e+002 -2.3749e+000 19413 113941,114071,113967
 6.1000e+000 114438 -5.0078e+001 -1.3342e+002  1.3355e+000 19001 114213,114265,114239
 6.1000e+000 114415 -3.5598e+001 -1.0297e+002 -3.0629e+000 19001 114213,114343,114265
 6.1000e+000 114392 -5.3490e+001 -1.4317e+002 -6.4291e+000 19001 114265,114343,114317
 6.1000e+000 114369  9.1613e+000 -1.1600e+002 -2.3270e+000 19001 114265,114317,114291
 6.1000e+000 114639 -3.7595e+001 -1.5831e+002  7.5350e+000 18554 114489,114541,114515
 6.1000e+000 114616 -3.2498e+001 -1.3736e+002  1.1849e+000 18554 114489,114567,114541
 6.1000e+000 114593 -7.0696e+001 -1.5433e+002 -9.9149e+000 18554 114463,114567,114489
 6.1000e+000 115043 -2.3657e+001 -1.1725e+002  4.5371e+000 18164 114795,114925,114821
 6.1000e+000 115020 -1.9403e+001 -1.2298e+002  7.7993e+000 18164 114769,114925,114795
 6.1000e+000 114997 -1.2007e+001 -1.2379e+002 -1.2727e+000 18164 115066,114873,114821
 6.1000e+000 114974 -1.0509e+001 -1.0513e+002 -4.2053e+000 18164 115066,114821,114925
 6.1000e+000 114951  1.4537e+001 -1.2308e+002 -1.3077e+001 18164 114821,114873,114847
 6.1000e+000 115092 -1.9125e+001 -1.1041e+002 -1.1098e+001 18164 114899,114873,115066
 6.1000e+000 115115 -1.0156e+001 -8.1864e+001 -1.4871e+001 18164 114899,115066,114925
 6.1000e+000 115265 -2.8056e+001 -1.2672e+002  1.5278e+000 17852 115164,115216,115190
 6.1000e+000 115242 -3.1837e+001 -1.3419e+002 -2.5697e-001 17852 115138,115216,115164
 6.1000e+000 115464 -8.6148e+001 -1.9101e+002  2.0780e+000 17346 115288,115366,115340
 6.1000e+000 115441 -1.2823e+002 -1.4538e+002 -7.7321e+000 17346 115288,115392,115366
 6.1000e+000 115418 -7.5368e+001 -2.1243e+002 -6.2985e+000 17346 115288,115340,115314
 6.1000e+000 115736 -2.6764e+001 -1.1434e+002  5.5332e+000 16942 115563,115641,115615
 6.1000e+000 115713 -3.0765e+001 -1.1391e+002  2.0643e+000 16942 115511,115641,115563
 6.1000e+000 115690 -7.9957e+001 -1.3429e+002  9.6143e+000 16942 115563,115615,115589
 6.1000e+000 115667 -3.6742e+001 -1.2343e+002  4.6051e+000 16942 115511,115563,115537
 6.1000e+000 116091 -6.2174e+001 -1.4366e+002 -4.7911e+000 16388 115918,115970,115944
 6.1000e+000 116068 -5.4739e+001 -1.1657e+002 -3.6108e+000 16388 115918,115996,115970
 6.1000e+000 116045 -7.3870e+001 -1.4636e+002  5.0336e+000 16388 115892,115996,115918
 6.1000e+000 116022 -4.6684e+001 -1.3232e+002  1.7759e+001 16388 115866,115996,115892
 6.1000e+000 116192 -1.3036e+001 -1.4588e+002 -2.0502e+001 15810 116114,116166,116140
 6.1000e+000 116342 -5.5407e+001 -1.7966e+002  9.5432e+000 15419 116241,116293,116267
 6.1000e+000 116319 -7.8989e+001 -2.1894e+002 -6.0630e+000 15419 116215,116293,116241
 6.1000e+000 116445 -6.0506e+001 -1.2055e+002 -2.5802e-001 421 116367,116419,116393
 6.2000e+000 68477 -7.5497e+001 -1.0660e+002  1.9920e-002 68018 68327,68379,68353
 6.2000e+000 68454 -7.9566e+001 -1.4106e+002  9.8619e+000 68018 68301,68379,68327
 6.2000e+000 68431 -4.5466e+001 -1.5894e+002  2.2853e+001 68018 68301,68405,68379
 6.2000e+000 68578 -5.4523e+001 -1.0258e+002  5.8232e-002 67820 68500,68552,68526
 6.2000e+000 68728 -5.5634e+001 -9.2732e+001 -1.7478e+000 67508 68601,68653,68627
 6.2000e+000 68705 -8.2014e+001 -7.0934e+001 -1.3052e+001 67508 68601,68679,68653
 6.2000e+000 68927 -2.2448e+001 -9.3783e+001 -1.3836e+000 67310 68777,68829,68803
 6.2000e+000 68904 -2.9057e+001 -1.0880e+002  1.9394e+000 67310 68751,68829,68777
 6.2000e+000 68881 -2.3515e+001 -1.1100e+002  6.5330e+000 67310 68751,68855,68829
 6.2000e+000 69386 -4.5322e+001 -1.1261e+002 -4.8993e+000 67020 69216,69268,69242
 6.2000e+000 69363 -4.2824e+001 -8.8698e+001 -1.1260e+001 67020 69138,69268,69216
 6.2000e+000 69340 -3.1627e+001 -8.0757e+001 -7.4304e+000 67020 69112,69268,69138
 6.2000e+000 69317 -5.6340e+001 -9.4422e+001  5.6689e+000 67020 69138,69190,69164
 6.2000e+000 69294 -5.8112e+001 -8.6674e+001 -5.0448e+000 67020 69138,69216,69190
 6.2000e+000 69536 -7.8339e+001 -1.8986e+002 -1.4526e+001 66708 69435,69487,69461
 6.2000e+000 69513 -5.6750e+001 -2.1255e+002 -2.1407e+000 66708 69409,69487,69435
 6.2000e+000 69735 -5.2175e+001 -1.0107e+002  2.1980e+000 66346 69585,69637,69611
 6.2000e+000 69712 -4.3366e+001 -9.4510e+001 -9.3142e-001 66346 69559,69637,69585
 6.2000e+000 69689 -3.9555e+001 -9.3415e+001 -9.6824e+000 66346 69559,69663,69637
 6.2000e+000 69985 -7.9854e+001 -1.2734e+002  1.8745e+000 66148 69786,69890,69864
 6.2000e+000 69962 -8.2884e+001 -1.2884e+002  2.3601e+000 66148 69760,69890,69786
 6.2000e+000 69939 -6.0752e+001 -1.2000e+002 -1.6786e+001 66148 69786,69864,69838
 6.2000e+000 69916 -7.2270e+001 -1.2995e+002 -2.6211e+000 66148 69786,69838,69812
 6.2000e+000 70137 -3.6423e+001 -1.4235e+002 -7.2325e+000 65950 70036,70088,70062
 6.2000e+000 70114 -3.2414e+001 -1.5755e+002  7.5816e+000 65950 70010,70088,70036
 6.2000e+000 70470 -2.8716e+001 -1.0578e+002  7.6595e+000 65546 70245,70323,70271
 6.2000e+000 70447 -2.1383e+001 -9.4619e+001  3.4128e+000 65546 70245,70375,70323
 6.2000e+000 70424 -2.6363e+001 -1.2070e+002  4.3781e+000 65546 70323,70375,70349
 6.2000e+000 70401 -2.4588e+001 -9.9018e+001  3.7768e+000 65546 70271,70323,70297
 6.2000e+000 70620 -4.9319e+001 -1.2064e+002  4.1490e+000 65348 70493,70545,70519
 6.2000e+000 70597 -4.0154e+001 -1.2794e+002  4.0959e+000 65348 70493,70571,70545
 6.2000e+000 70721 -8.2981e+001 -1.5648e+002 -3.6873e+000 65150 70643,70695,70669
 6.2000e+000 71020 -4.6153e+001 -9.6296e+001  5.5455e+000 64952 71043,70850,70824
 6.2000e+000 70997 -4.0510e+001 -9.1143e+001 -1.6271e+000 64952 71043,70824,70772
 6.2000e+000 70974 -4.2449e+001 -1.2110e+002  3.9829e+000 64952 71115,70746,70876
 6.2000e+000 70951 -3.7597e+001 -1.2362e+002 -5.6049e-002 64952 70746,70902,70876
 6.2000e+000 70928 -4.4801e+001 -8.2118e+001 -7.7078e+000 64952 70772,70824,70798
 6.2000e+000 71069 -2.6938e+001 -8.3416e+001  1.7649e+001 64952 70876,70850,71043
 6.2000e+000 71092 -3.8200e+001 -1.1143e+002  5.8614e+000 64952 71115,70876,71043
 6.2000e+000 71141 -5.4153e+001 -1.0954e+002 -5.4751e+000 64952 70772,70746,71115
 6.2000e+000 71164 -4.7495e+001 -9.5313e+001 -3.4032e+000 64952 70772,71115,71043
 6.2000e+000 71365 -1.6676e+001 -1.3389e+002 -4.0995e+000 64662 71215,71293,71267
 6.2000e+000 71342  3.9694e+000 -9.4626e+001 -1.1801e+001 64662 71189,71293,71215
 6.2000e+000 71319  4.4781e+000 -8.2960e+001 -8.4451e-001 64662 71215,71267,71241
 6.2000e+000 71615 -3.7630e+001 -1.0918e+002 -8.1357e-001 64350 71710,71638,71468
 6.2000e+000 71592 -3.6957e+001 -1.0596e+002 -4.0372e+000 64350 71638,71416,71390
 6.2000e+000 71569 -4.0855e+001 -1.0117e+002  6.1132e+000 64350 71710,71468,71442
 6.2000e+000 71546  7.2712e+000 -1.0408e+002 -1.4321e+001 64350 71390,71520,71494
 6.2000e+000 71664 -3.3646e+001 -1.0752e+002 -7.5730e-001 64350 71494,71468,71638
 6.2000e+000 71687 -3.3547e+001 -1.1071e+002 -3.7983e-001 64350 71494,71638,71390
 6.2000e+000 71736 -3.1953e+001 -9.2669e+001 -9.7236e-001 64350 71416,71638,71710
 6.2000e+000 71759 -3.4607e+001 -8.5748e+001  7.6455e+000 64350 71416,71710,71442
 6.2000e+000 72318 -3.8108e+001 -1.7076e+002 -6.6530e+000 63837 71972,72024,71998
 6.2000e+000 72295 -4.8935e+001 -1.1137e+002 -4.5633e-001 63837 72341,71972,71946
 6.2000e+000 72272 -4.5427e+001 -9.0668e+001  5.0617e+000 63837 72413,72341,71946
 6.2000e+000 72249 -4.4807e+001 -8.2604e+001  2.7178e+000 63837 72413,71946,72128
 6.2000e+000 72226 -6.1725e+001 -9.6988e+001  1.8106e+000 63837 72024,72076,72050
 6.2000e+000 72203 -5.6054e+001 -8.9263e+001 -2.3815e+000 63837 72024,72102,72076
 6.2000e+000 72180 -3.6569e+001 -7.9694e+001  5.2883e+000 63837 71946,72154,72128
 6.2000e+000 72367 -6.0033e+001 -1.1973e+002 -1.9958e+001 63837 72024,71972,72341
 6.2000e+000 72390 -4.7320e+001 -9.7139e+001 -7.5294e+000 63837 72024,72341,72102
 6.2000e+000 72439 -3.9951e+001 -1.0369e+002  2.1752e+000 63837 72102,72341,72413
 6.2000e+000 72462 -3.9075e+001 -9.5026e+001  8.4275e-001 63837 72102,72413,72128
 6.2000e+000 72791 -5.8770e+001 -1.0655e+002 -1.1200e+001 63383 72592,72696,72670
 6.2000e+000 72768 -5.9821e+001 -1.0057e+002 -1.8489e+001 63383 72566,72696,72592
 6.2000e+000 72745 -5.6789e+001 -9.2860e+001 -5.6034e-001 63383 72592,72670,72618
 6.2000e+000 72722 -5.4552e+001 -8.5201e+001 -2.0617e+000 63383 72618,72670,72644
 6.2000e+000 73297 -6.6644e+001 -9.2697e+001 -5.3983e-001 63185 73000,73156,73130
 6.2000e+000 73274 -6.6575e+001 -9.5112e+001  1.0755e+001 63185 72974,73156,73000
 6.2000e+000 73251 -5.1672e+001 -1.0806e+002 -6.9417e-001 63185 73000,73052,73026
 6.2000e+000 73228 -5.5781e+001 -9.5204e+001 -4.2761e+000 63185 73000,73130,73052
 6.2000e+000 73205 -5.5762e+001 -1.0870e+002 -1.6078e+001 63185 73052,73130,73104
 6.2000e+000 73182 -5.0794e+001 -1.1695e+002 -1.6100e+001 63185 73052,73104,73078
 6.2000e+000 73545 -3.0442e+001 -1.0390e+002  2.3322e+000 62781 73568,73398,73372
 6.2000e+000 73522 -1.8423e+001 -9.6314e+001  1.0604e+001 62781 73568,73372,73346
 6.2000e+000 73499 -4.0419e+001 -1.1606e+002 -1.1352e+001 62781 73640,73320,73424
 6.2000e+000 73476 -4.0298e+001 -7.6528e+001 -2.0710e+001 62781 73320,73450,73424
 6.2000e+000 73594 -3.2721e+001 -9.9002e+001  1.8931e+000 62781 73424,73398,73568
 6.2000e+000 73617 -3.5527e+001 -1.1080e+002 -1.0509e+000 62781 73640,73424,73568
 6.2000e+000 73666 -3.4636e+001 -1.0396e+002 -3.7336e+000 62781 73346,73320,73640
 6.2000e+000 73689 -3.1370e+001 -9.4774e+001  5.6594e+000 62781 73346,73640,73568
 6.2000e+000 74035 -4.0927e+001 -1.0284e+002 -2.6811e+000 62363 74058,73868,73842
 6.2000e+000 74012 -3.6646e+001 -9.4433e+001 -8.6864e+000 62363 74130,74058,73842
 6.2000e+000 73989 -3.3697e+001 -9.3590e+001 -9.1676e+000 62363 74130,73842,73816
 6.2000e+000 73966 -5.1766e+001 -1.0683e+002  1.0627e+000 62363 74202,73764,73894
 6.2000e+000 73943 -6.7675e+001 -9.9060e+001  7.3369e-001 62363 73712,73894,73764
 6.2000e+000 73920 -7.0125e+001 -1.0392e+002  5.8569e-004 62363 73712,73764,73738
 6.2000e+000 74084 -3.9713e+001 -1.0218e+002 -2.2209e+000 62363 73894,73868,74058
 6.2000e+000 74107 -4.8294e+001 -1.0262e+002  3.6318e+000 62363 74202,73894,74058
 6.2000e+000 74156 -4.0305e+001 -9.5922e+001  1.8412e+000 62363 73790,74058,74130
 6.2000e+000 74179 -2.6130e+001 -9.0438e+001  2.4031e+000 62363 73790,74130,73816
 6.2000e+000 74228 -5.5402e+001 -1.0845e+002 -5.0794e+000 62363 73790,73764,74202
 6.2000e+000 74251 -5.2685e+001 -1.0389e+002 -2.5649e+000 62363 73790,74202,74058
 6.2000e+000 74403 -7.3890e+000 -1.1065e+002  6.4291e+000 62115 74426,74302,74276
 6.2000e+000 74380  1.0406e+001 -1.0701e+002  1.3703e+001 62115 74426,74276,74354
 6.2000e+000 74452 -2.3831e+001 -1.0173e+002  6.3312e+000 62115 74328,74302,74426
 6.2000e+000 74475 -7.4079e+000 -9.8790e+001  1.4077e+001 62115 74328,74426,74354
 6.2000e+000 74578 -1.3618e+000 -7.1125e+001 -1.4827e+000 61825 74500,74552,74526
 6.2000e+000 74982 -5.2301e+001 -9.1701e+001 -2.3851e-001 61513 75005,74734,74708
 6.2000e+000 74959 -5.3083e+001 -8.7934e+001 -1.2084e+000 61513 75005,74708,74864
 6.2000e+000 74936 -6.9036e+001 -9.4859e+001  5.4609e+000 61513 75077,74812,74734
 6.2000e+000 74913 -5.3970e+001 -8.6354e+001 -6.7614e+000 61513 74734,74786,74760
 6.2000e+000 74890 -5.3625e+001 -8.1464e+001 -2.6557e+000 61513 74734,74812,74786
 6.2000e+000 75031 -5.0679e+001 -9.4372e+001 -2.0658e-001 61513 75077,74734,75005
 6.2000e+000 75054 -4.0472e+001 -9.0846e+001  1.3818e+001 61513 74838,75005,74864
 6.2000e+000 75103 -7.9218e+001 -9.8969e+001  2.2194e+001 61513 74838,74812,75077
 6.2000e+000 75126 -6.7387e+001 -1.0305e+002  1.6561e+001 61513 74838,75077,75005
 6.2000e+000 75553 -2.9846e+001 -8.6488e+001 -3.3417e+000 61060 75576,75360,75308
 6.2000e+000 75530 -2.9174e+001 -9.2057e+001 -3.1727e+000 61060 75576,75308,75230
 6.2000e+000 75507 -2.6602e+001 -8.4103e+001 -1.8862e+000 61060 75308,75360,75334
 6.2000e+000 75484 -3.7744e+001 -1.0779e+002  4.6331e+000 61060 75230,75308,75256
 6.2000e+000 75461 -3.1268e+001 -1.0138e+002  1.5317e+000 61060 75256,75308,75282
 6.2000e+000 75438 -3.4301e+001 -8.3774e+001  8.6841e+000 61060 75360,75412,75386
 6.2000e+000 75602 -2.6350e+001 -9.1069e+001 -1.8118e-001 61060 75412,75360,75576
 6.2000e+000 75625 -2.8319e+001 -1.0064e+002 -9.8278e-001 61060 75412,75576,75230
 6.2000e+000 76052 -4.3506e+001 -9.0129e+001  9.7592e-001 60442 75755,75859,75833
 6.2000e+000 76029 -4.7411e+001 -8.4404e+001 -6.8238e+000 60442 75729,75859,75755
 6.2000e+000 76006 -4.4426e+001 -8.2824e+001  4.7109e+000 60442 75755,75833,75807
 6.2000e+000 75983 -4.5287e+001 -9.8880e+001  1.4770e+000 60442 75755,75807,75781
 6.2000e+000 75960 -7.7392e+000 -1.5784e+002  5.6954e+000 60442 75729,75911,75859
 6.2000e+000 75937 -8.2622e+001 -3.7769e+002  2.4859e+001 60442 75859,75911,75885
 6.2000e+000 76430 -4.5806e+001 -1.1735e+002 -2.7075e+000 59788 76453,76286,76234
 6.2000e+000 76407 -4.9988e+001 -1.3354e+002  2.6891e+000 59788 76453,76234,76182
 6.2000e+000 76384 -4.9126e+001 -8.9827e+001  1.5786e+001 59788 76525,76156,76312
 6.2000e+000 76361 -2.9930e+001 -1.5381e+002 -7.1249e-001 59788 76182,76234,76208
 6.2000e+000 76338 -3.8407e+001 -1.1127e+002  9.4828e-002 59788 76234,76286,76260
 6.2000e+000 76479 -5.3859e+001 -1.2610e+002  2.4459e+000 59788 76312,76286,76453
 6.2000e+000 76502 -4.6116e+001 -1.1944e+002  7.1468e+000 59788 76525,76312,76453
 6.2000e+000 76551 -6.1327e+001 -1.2709e+002  1.6002e+001 59788 76182,76156,76525
 6.2000e+000 76574 -5.4581e+001 -1.3600e+002  1.0097e+001 59788 76182,76525,76453
 6.2000e+000 77031 -3.1984e+001 -7.2754e+001 -9.8873e+000 59448 76835,76887,76861
 6.2000e+000 77008 -1.3711e+001 -5.8906e+001  2.8636e+000 59448 76835,76913,76887
 6.2000e+000 76985 -1.8114e+001 -5.0118e+001  9.7618e+000 59448 76809,76913,76835
 6.2000e+000 76962 -3.5514e+001 -6.5717e+001 -6.6929e-001 59448 76757,76913,76809
 6.2000e+000 76939 -3.1074e+001 -5.9456e+001 -2.6217e+000 59448 76757,76809,76783
 6.2000e+000 77537 -4.1845e+001 -9.2508e+001  4.1742e+000 58994 77560,77344,77292
 6.2000e+000 77514 -5.9303e+001 -8.9208e+001  1.2864e+000 58994 77560,77292,77240
 6.2000e+000 77491 -3.3745e+001 -8.2227e+001 -2.6387e+000 58994 77632,77214,77370
 6.2000e+000 77468 -6.8419e+001 -1.0511e+002  1.7555e+001 58994 77292,77344,77318
 6.2000e+000 77445 -3.3755e+001 -1.0537e+002  3.1305e+000 58994 77214,77396,77370
 6.2000e+000 77422 -6.1882e+001 -9.7690e+001 -1.4541e+000 58994 77240,77292,77266
 6.2000e+000 77586 -4.4778e+001 -9.1859e+001  4.5096e+000 58994 77370,77344,77560
 6.2000e+000 77609 -4.4301e+001 -8.8496e+001  6.0277e+000 58994 77632,77370,77560
 6.2000e+000 77658 -2.8001e+001 -7.5719e+001 -1.2529e+001 58994 77240,77214,77632
 6.2000e+000 77681 -3.5963e+001 -7.4924e+001 -4.7249e+000 58994 77240,77632,77560
 6.2000e+000 78138 -4.0041e+001 -6.8900e+001  9.2952e+000 58440 77864,77994,77890
 6.2000e+000 78115 -2.8355e+001 -4.4722e+001 -4.5509e+000 58440 77864,78020,77994
 6.2000e+000 78092 -4.6038e+001 -7.9833e+001 -7.2509e+000 58440 77942,77994,77968
 6.2000e+000 78069 -3.7402e+001 -7.6740e+001  1.6110e+000 58440 77890,77994,77942
 6.2000e+000 78046 -3.1940e+001 -7.5121e+001 -1.9490e+000 58440 77890,77942,77916
 6.2000e+000 78467 -1.0469e+001 -8.6227e+001  1.6981e+000 57928 78562,78490,78346
 6.2000e+000 78444 -3.2668e+001 -8.5648e+001 -1.4769e+000 57928 78490,78294,78268
 6.2000e+000 78421 -5.6082e+000 -9.0289e+001  5.7077e+000 57928 78562,78346,78320
 6.2000e+000 78398 -1.5088e+001 -8.2924e+001  3.9604e-002 57928 78242,78372,78268
 6.2000e+000 78516 -2.9813e+001 -1.0646e+002 -6.7538e+000 57928 78372,78346,78490
 6.2000e+000 78539 -2.4162e+001 -8.2668e+001 -1.9701e+000 57928 78372,78490,78268
 6.2000e+000 78588 -3.3100e+001 -8.5923e+001 -4.6965e-001 57928 78294,78490,78562
 6.2000e+000 78611 -1.8695e+001 -7.9060e+001  7.2681e+000 57928 78294,78562,78320
 6.2000e+000 79068 -6.7434e+001 -1.4341e+002 -3.5596e+001 57467 78794,78924,78820
 6.2000e+000 79045 -5.3505e+001 -1.3660e+002 -3.2277e+001 57467 78794,78950,78924
 6.2000e+000 79022 -2.7270e+001 -1.2799e+002  1.3491e+001 57467 78820,78898,78872
 6.2000e+000 78999 -4.9462e+001 -1.7747e+002 -1.8256e+001 57467 78820,78924,78898
 6.2000e+000 78976 -2.1932e+001 -1.3088e+002  2.0786e+001 57467 78820,78872,78846
 6.2000e+000 79446 -5.6063e+001 -1.0169e+002 -1.1082e+000 57120 79172,79302,79250
 6.2000e+000 79423 -5.2103e+001 -9.9832e+001 -4.6400e+000 57120 79172,79328,79302
 6.2000e+000 79400 -5.1727e+001 -8.9949e+001 -4.2418e+000 57120 79172,79250,79198
 6.2000e+000 79377 -4.0894e+001 -1.2696e+002  3.4189e+000 57120 79250,79302,79276
 6.2000e+000 79354 -6.0767e+001 -9.8369e+001 -8.9194e+000 57120 79198,79250,79224
 6.2000e+000 79952 -7.6490e+001 -1.2126e+002  8.4197e-001 56773 79629,79785,79655
 6.2000e+000 79929 -2.2612e+001 -1.0445e+002  5.4632e+000 56773 79629,79811,79785
 6.2000e+000 79906 -5.9427e+001 -1.2992e+002  9.0885e+000 56773 79655,79733,79681
 6.2000e+000 79883 -5.8501e+001 -1.1611e+002  2.8819e+000 56773 79655,79785,79733
 6.2000e+000 79860 -5.5263e+001 -1.5382e+002 -1.7711e+001 56773 79733,79785,79759
 6.2000e+000 79837 -3.2887e+001 -1.1757e+002  2.3696e+001 56773 79681,79733,79707
 6.2000e+000 80281 -3.0268e+001 -8.4442e+001 -7.3241e+000 56319 80108,80160,80134
 6.2000e+000 80258 -3.1592e+001 -9.1586e+001 -8.6855e+000 56319 80056,80160,80108
 6.2000e+000 80235 -1.6981e+001 -8.1722e+001  4.3817e+000 56319 80056,80186,80160
 6.2000e+000 80212 -3.9324e+001 -1.1598e+002 -6.8681e+000 56319 80056,80108,80082
 6.2000e+000 80738 -1.7451e+001 -1.0702e+002  5.6230e+000 55957 80516,80620,80594
 6.2000e+000 80715 -4.0483e+001 -9.7193e+001  4.3578e+000 55957 80464,80620,80516
 6.2000e+000 80692 -3.4206e+001 -1.1663e+002  5.9418e+000 55957 80761,80568,80542
 6.2000e+000 80669 -2.8849e+001 -1.1481e+002  6.9997e+000 55957 80761,80542,80516
 6.2000e+000 80646 -4.1014e+001 -9.8108e+001  1.2579e+001 55957 80464,80516,80490
 6.2000e+000 80787 -3.9583e+001 -1.1586e+002  4.2487e+000 55957 80594,80568,80761
 6.2000e+000 80810 -3.4555e+001 -1.1419e+002  5.3657e+000 55957 80594,80761,80516
 6.2000e+000 81210 -3.5900e+001 -1.1340e+002 -8.8221e+000 55317 80936,80988,80962
 6.2000e+000 81187 -3.0769e+001 -1.1944e+002  4.2884e-001 55317 80936,81066,80988
 6.2000e+000 81164 -2.6255e+001 -1.2848e+002  3.2132e+000 55317 80936,81092,81066
 6.2000e+000 81141 -4.3568e+001 -1.2811e+002 -1.0799e+001 55317 80988,81066,81014
 6.2000e+000 81118 -9.9528e+000 -7.3280e+001  8.2760e+000 55317 81014,81066,81040
 6.2000e+000 81539 -4.7951e+001 -1.0305e+002  8.1958e-001 54913 81340,81418,81392
 6.2000e+000 81516 -2.1363e+001 -8.4704e+001 -7.7102e+000 54913 81340,81444,81418
 6.2000e+000 81493 -3.0386e+001 -9.0462e+001 -1.3868e+001 54913 81314,81444,81340
 6.2000e+000 81470 -5.5931e+001 -1.1122e+002 -2.4440e+000 54913 81340,81392,81366
 6.2000e+000 81787 -2.9140e+001 -1.1054e+002 -1.3072e+000 54601 81588,81692,81640
 6.2000e+000 81764 -4.3914e+001 -1.1291e+002 -4.6618e+000 54601 81562,81692,81588
 6.2000e+000 81741 -2.6064e+001 -1.1311e+002  1.3096e+001 54601 81588,81640,81614
 6.2000e+000 81718 -2.9865e+001 -1.3195e+002 -1.2494e+001 54601 81640,81692,81666
 6.2000e+000 82344 -3.9276e+001 -1.0654e+002 -4.9863e+000 54090 81998,82102,82076
 6.2000e+000 82321 -5.2539e+001 -1.1229e+002 -3.6976e+000 54090 81998,82154,82102
 6.2000e+000 82298 -4.7913e+001 -1.0952e+002 -2.3543e+000 54090 81972,82154,81998
 6.2000e+000 82275 -5.4139e+001 -9.8483e+001 -6.2987e+000 54090 81998,82076,82024
 6.2000e+000 82252 -5.8954e+001 -1.1684e+002  4.6441e+000 54090 81972,82180,82154
 6.2000e+000 82229 -7.4460e+001 -1.3789e+002  8.2060e+000 54090 82102,82154,82128
 6.2000e+000 82206 -9.7779e+000 -7.5358e+001 -1.4959e+001 54090 82024,82076,82050
 6.2000e+000 82722 -7.2546e+001 -1.3033e+002 -3.6316e+000 53579 82500,82578,82552
 6.2000e+000 82699 -5.6465e+001 -1.2026e+002  2.8624e+000 53579 82448,82578,82500
 6.2000e+000 82676 -6.2591e+001 -1.3482e+002  4.5105e+000 53579 82448,82500,82474
 6.2000e+000 82653 -7.0652e+001 -1.2790e+002  9.4611e+000 53579 82448,82604,82578
 6.2000e+000 82630 -4.0251e+001 -1.2170e+002 -4.1726e+000 53579 82500,82552,82526
 6.2000e+000 83356 -3.7747e+001 -9.7068e+001 -8.7798e+000 53189 83379,83088,83036
 6.2000e+000 83333 -3.6323e+001 -1.0958e+002 -7.7205e+000 53189 83379,83036,82984
 6.2000e+000 83310 -1.6792e+001 -1.0234e+002  1.6257e+001 53189 82984,83192,83166
 6.2000e+000 83287 -2.5446e+000 -8.1108e+001 -5.2559e+000 53189 83036,83088,83062
 6.2000e+000 83264 -2.6456e+001 -1.2212e+002 -1.7453e+001 53189 82984,83036,83010
 6.2000e+000 83241 -2.8338e+001 -1.2178e+002  3.2021e+000 53189 83114,83166,83140
 6.2000e+000 83218 -5.2411e+001 -1.2841e+002  2.9775e+000 53189 83088,83166,83114
 6.2000e+000 83405 -3.8186e+001 -1.0546e+002 -3.6702e+000 53189 83166,83088,83379
 6.2000e+000 83428 -3.4833e+001 -1.1645e+002 -3.4128e+000 53189 83166,83379,82984
 6.2000e+000 83725 -4.4654e+001 -1.2816e+002 -1.4143e+001 52585 83748,83529,83503
 6.2000e+000 83702 -3.2516e+001 -1.2430e+002 -9.5009e+000 52585 83820,83748,83503
 6.2000e+000 83679 -2.1349e+001 -1.1889e+002 -7.1450e+000 52585 83820,83503,83477
 6.2000e+000 83656 -1.6005e+001 -1.0574e+002  1.1244e+001 52585 83477,83607,83581
 6.2000e+000 83633  6.1086e+000 -9.5913e+001  1.3168e+001 52585 83451,83607,83477
 6.2000e+000 83774 -3.8559e+001 -1.1269e+002 -1.2111e+001 52585 83555,83529,83748
 6.2000e+000 83797 -5.1849e+001 -1.2148e+002 -8.2861e+000 52585 83555,83748,83581
 6.2000e+000 83846 -4.3117e+001 -1.1398e+002 -3.5070e+000 52585 83581,83748,83820
 6.2000e+000 83869 -3.5768e+001 -1.1127e+002 -2.4981e+000 52585 83581,83820,83477
 6.2000e+000 84200 -3.3654e+001 -1.1383e+002 -4.3921e+000 52024 84001,84105,84079
 6.2000e+000 84177 -1.7789e+001 -1.1130e+002 -8.9571e+000 52024 83975,84105,84001
 6.2000e+000 84154 -2.8373e+001 -1.1410e+002 -3.3757e+000 52024 84001,84079,84053
 6.2000e+000 84131 -1.4041e+001 -7.6844e+001  1.2993e+001 52024 84001,84053,84027
 6.2000e+000 84399 -3.2154e+001 -1.1349e+002 -1.8282e+000 51470 84422,84275,84249
 6.2000e+000 84376 -3.2280e+001 -1.1134e+002 -1.5567e+000 51470 84422,84249,84223
 6.2000e+000 84353 -3.4060e+001 -1.2230e+002 -1.7511e+001 51470 84275,84327,84301
 6.2000e+000 84448 -3.2195e+001 -1.1183e+002 -2.1068e+000 51470 84327,84275,84422
 6.2000e+000 84471 -3.2673e+001 -1.1012e+002 -1.7802e+000 51470 84327,84422,84223
 6.2000e+000 84753 -3.2526e+001 -9.2953e+001 -5.9351e-001 51073 84603,84655,84629
 6.2000e+000 84730 -6.5434e+001 -1.0781e+002 -4.4530e+000 51073 84776,84655,84603
 6.2000e+000 84707 -1.6068e+001 -9.2821e+001 -2.5903e+001 51073 84577,84681,84655
 6.2000e+000 84802 -4.1425e+001 -9.3689e+001 -1.3055e+001 51073 84577,84655,84776
 6.2000e+000 85178 -6.3663e+001 -1.4200e+002  1.2621e+001 50519 85201,85008,84982
 6.2000e+000 85155 -6.0237e+001 -1.3253e+002  1.0261e+001 50519 85273,85201,84982
 6.2000e+000 85132 -5.7814e+001 -1.3199e+002  8.7844e+000 50519 85273,84982,84930
 6.2000e+000 85109 -5.4809e+001 -1.2665e+002  7.1551e+000 50519 84930,84982,84956
 6.2000e+000 85086 -5.6837e+001 -1.3830e+002  6.8950e+000 50519 85008,85060,85034
 6.2000e+000 85227 -5.5392e+001 -1.3640e+002  6.1217e+000 50519 85060,85008,85201
 6.2000e+000 85250 -6.0451e+001 -1.3694e+002  4.7323e+000 50519 85060,85201,84904
 6.2000e+000 85299 -5.8236e+001 -1.3493e+002  3.8256e+000 50519 84904,85201,85273
 6.2000e+000 85322 -4.7776e+001 -1.1915e+002 -6.9949e-001 50519 84904,85273,84930
 6.2000e+000 85958 -4.1218e+001 -1.2042e+002 -3.8334e+000 50093 85981,85768,85716
 6.2000e+000 85935 -3.6711e+001 -1.0967e+002 -3.6453e+000 50093 85981,85716,85612
 6.2000e+000 85912 -5.0230e+001 -1.1304e+002  2.4114e+000 50093 85612,85716,85664
 6.2000e+000 85889 -3.2480e+001 -1.1702e+002 -1.2232e+000 50093 85716,85768,85742
 6.2000e+000 85866 -4.1716e+001 -8.7573e+001 -2.3645e+001 50093 85664,85716,85690
 6.2000e+000 85843 -1.4603e+001 -8.2725e+001 -3.5020e+000 50093 85586,85794,85612
 6.2000e+000 85820 -3.4744e+001 -1.5382e+002  1.3336e+001 50093 85612,85664,85638
 6.2000e+000 86007 -5.0678e+001 -1.2994e+002 -1.9266e+001 50093 85794,85768,85981
 6.2000e+000 86030 -3.6565e+001 -9.8417e+001 -1.5184e+001 50093 85794,85981,85612
 6.2000e+000 86131 -3.6359e+001 -1.0682e+002  1.4660e+001 49895 86053,86105,86079
 6.2000e+000 86639 -3.1537e+001 -8.2457e+001 -1.6635e+001 49391 86662,86394,86368
 6.2000e+000 86616 -3.7558e+001 -1.0199e+002 -1.5146e+001 49391 86662,86368,86342
 6.2000e+000 86593 -1.8509e+001 -1.0174e+002 -4.5016e+000 49391 86342,86498,86472
 6.2000e+000 86570 -1.2299e+001 -1.0957e+002 -5.0471e+000 49391 86316,86498,86342
 6.2000e+000 86547 -5.8167e+001 -1.5622e+002 -5.1595e+000 49391 86394,86472,86446
 6.2000e+000 86524 -7.5719e+000 -1.5077e+002  1.9093e+000 49391 86394,86446,86420
 6.2000e+000 86688 -3.4519e+001 -1.0064e+002 -8.1826e+000 49391 86472,86394,86662
 6.2000e+000 86711 -3.1543e+001 -1.0908e+002 -8.1004e+000 49391 86472,86662,86342
 6.2000e+000 87089 -4.5034e+001 -1.1716e+002  3.5546e+000 48987 86815,86919,86867
 6.2000e+000 87066 -4.4070e+001 -1.2113e+002  5.5702e+000 48987 86815,86971,86919
 6.2000e+000 87043 -1.7529e+001 -1.2811e+002 -1.0417e+001 48987 86867,86919,86893
 6.2000e+000 87020 -5.1164e+001 -1.3410e+002  1.2042e+001 48987 86815,86867,86841
 6.2000e+000 86997 -4.9259e+001 -1.0496e+002  1.7167e+001 48987 86919,86971,86945
 6.2000e+000 87467 -8.2363e+001 -1.1885e+002  7.0599e+000 48540 87490,87245,87219
 6.2000e+000 87444 -5.7642e+001 -1.1181e+002  1.5203e+000 48540 87562,87490,87219
 6.2000e+000 87421 -4.4964e+001 -1.0670e+002  5.4358e+000 48540 87562,87219,87349
 6.2000e+000 87398 -5.9434e+001 -9.0949e+001 -3.7274e+000 48540 87245,87297,87271
 6.2000e+000 87375 -3.9266e+001 -1.1229e+002  3.9115e+000 48540 87193,87349,87219
 6.2000e+000 87516 -5.4895e+001 -1.1115e+002  3.9871e+000 48540 87297,87245,87490
 6.2000e+000 87539 -5.5170e+001 -1.1393e+002  2.8653e+000 48540 87297,87490,87323
 6.2000e+000 87588 -4.5356e+001 -1.0613e+002  9.8420e+000 48540 87323,87490,87562
 6.2000e+000 87611 -3.9244e+001 -1.0772e+002  1.2472e+001 48540 87323,87562,87349
 6.2000e+000 87810 -4.8787e+001 -1.7426e+002 -1.3063e+001 48136 87660,87712,87686
 6.2000e+000 87787 -2.7698e+001 -1.0108e+002 -5.6607e+000 48136 87660,87738,87712
 6.2000e+000 87764 -6.4886e+001 -1.0541e+002 -1.6697e+001 48136 87634,87738,87660
 6.2000e+000 88205 -5.2337e+001 -1.2608e+002 -1.3215e+001 47210 88300,88228,87937
 6.2000e+000 88182 -4.5916e+001 -1.2203e+002 -4.5352e+000 47210 88228,87833,88041
 6.2000e+000 88159 -5.3542e+001 -1.3611e+002 -1.9759e+001 47210 88300,87937,87911
 6.2000e+000 88136 -5.0923e+001 -1.2275e+002 -1.5579e+001 47210 87833,87911,87859
 6.2000e+000 88113 -9.0408e+001 -1.1204e+002 -1.4090e+001 47210 87937,87989,87963
 6.2000e+000 88090 -4.5432e+001 -9.9639e+001  2.1215e+001 47210 87989,88041,88015
 6.2000e+000 88067 -5.8442e+001 -1.4170e+002 -2.0279e+001 47210 87859,87911,87885
 6.2000e+000 88254 -4.6417e+001 -1.0087e+002 -1.4033e+001 47210 87989,87937,88228
 6.2000e+000 88277 -5.6816e+001 -1.1975e+002 -5.7936e+000 47210 87989,88228,88041
 6.2000e+000 88326 -4.3987e+001 -1.1702e+002 -5.3448e+000 47210 87833,88228,88300
 6.2000e+000 88349 -4.6375e+001 -1.2346e+002 -1.2473e+001 47210 87833,88300,87911
 6.2000e+000 88780 -7.0278e+001 -1.2496e+002 -2.3242e+001 46642 88803,88509,88483
 6.2000e+000 88757 -5.1758e+001 -1.1311e+002 -1.2317e+001 46642 88803,88483,88639
 6.2000e+000 88734 -5.5519e+001 -9.2773e+001 -1.4768e+001 46642 88875,88561,88509
 6.2000e+000 88711 -5.6031e+001 -8.5359e+001 -1.9727e+000 46642 88509,88561,88535
 6.2000e+000 88688 -3.2725e+001 -1.2647e+002  1.2608e+000 46642 88457,88639,88483
 6.2000e+000 88665 -6.2730e+001 -1.5095e+002 -7.8508e+000 46642 88561,88613,88587
 6.2000e+000 88829 -5.6887e+001 -1.0118e+002 -1.6796e+001 46642 88875,88509,88803
 6.2000e+000 88852 -5.5896e+001 -1.2204e+002 -1.1146e+001 46642 88613,88803,88639
 6.2000e+000 88901 -4.4765e+001 -1.0461e+002 -7.5435e+000 46642 88613,88561,88875
 6.2000e+000 88924 -4.9587e+001 -1.1804e+002 -9.4354e+000 46642 88613,88875,88803
 6.2000e+000 89253 -2.1580e+001 -1.1653e+002  2.4149e+000 46444 89080,89158,89132
 6.2000e+000 89230 -2.3427e+001 -1.2001e+002  4.6063e-001 46444 89028,89158,89080
 6.2000e+000 89207 -9.8942e+000 -1.0844e+002 -4.4633e+000 46444 89028,89080,89054
 6.2000e+000 89184 -7.0852e+000 -1.2742e+002 -1.1573e+001 46444 89080,89132,89106
 6.2000e+000 89631 -3.6815e+001 -8.3160e+001  2.4641e+000 46040 89383,89461,89435
 6.2000e+000 89608 -3.8707e+001 -9.1804e+001 -5.1259e+000 46040 89383,89487,89461
 6.2000e+000 89585 -4.0562e+001 -1.0813e+002 -2.8104e+000 46040 89383,89435,89409
 6.2000e+000 89562 -3.0066e+001 -7.7939e+001 -1.1030e+001 46040 89383,89513,89487
 6.2000e+000 89539 -1.2360e+001 -6.9226e+001 -1.4893e+001 46040 89357,89513,89383
 6.2000e+000 90009 -3.9130e+001 -1.0645e+002 -1.9902e-001 45636 89813,89891,89839
 6.2000e+000 89986 -3.9991e+001 -9.8695e+001  6.0988e+000 45636 89787,89891,89813
 6.2000e+000 89963 -3.5206e+001 -9.9905e+001 -2.5264e+000 45636 89839,89891,89865
 6.2000e+000 89940 -4.5672e+001 -1.1045e+002  3.8201e+000 45636 89735,89891,89787
 6.2000e+000 89917 -3.6012e+001 -1.1134e+002 -4.6096e+000 45636 89735,89787,89761
 6.2000e+000 90208 -2.3794e+001 -8.1621e+001 -1.6605e+001 45175 90231,90058,90032
 6.2000e+000 90185 -1.4642e+001 -7.4927e+001 -2.4267e+001 45175 90231,90032,90136
 6.2000e+000 90162 -2.6425e+001 -6.2672e+001 -1.4718e+000 45175 90058,90110,90084
 6.2000e+000 90257 -3.3957e+001 -9.1188e+001 -5.0799e+000 45175 90110,90058,90231
 6.2000e+000 90280 -1.6511e+001 -7.9546e+001 -1.3629e+001 45175 90110,90231,90136
 6.2000e+000 90528 -2.5680e+001 -8.1835e+001 -1.1457e+001 44513 90695,90551,90407
 6.2000e+000 90505 -2.8316e+001 -7.4465e+001 -7.5332e+000 44513 90551,90355,90329
 6.2000e+000 90482 -3.1594e+001 -7.9987e+001 -1.0789e+001 44513 90623,90303,90433
 6.2000e+000 90459 -2.0809e+001 -7.5923e+001 -8.0652e+000 44513 90695,90407,90381
 6.2000e+000 90577 -3.7126e+001 -8.5425e+001 -1.9314e+001 44513 90433,90407,90551
 6.2000e+000 90600 -3.1838e+001 -7.8031e+001 -1.0650e+001 44513 90623,90433,90551
 6.2000e+000 90649 -3.0599e+001 -7.7801e+001 -1.1061e+001 44513 90329,90303,90623
 6.2000e+000 90672 -3.1319e+001 -7.7081e+001 -1.0903e+001 44513 90329,90623,90551
 6.2000e+000 90721 -3.2265e+001 -7.3701e+001 -1.3126e+001 44513 90355,90551,90695
 6.2000e+000 90744 -3.1176e+001 -7.0436e+001 -1.1760e+001 44513 90355,90695,90381
 6.2000e+000 91077  3.4805e+000 -8.5879e+001 -5.3110e+000 44059 91100,90930,90904
 6.2000e+000 91054 -3.3707e+001 -9.2759e+001  6.5208e+000 44059 91100,90904,90982
 6.2000e+000 91031 -6.1106e+001 -1.0695e+002 -6.2739e+000 44059 90878,90982,90904
 6.2000e+000 91008 -2.1727e+001 -8.3053e+001  4.1202e+000 44059 90852,90982,90878
 6.2000e+000 91126 -5.6132e+001 -1.0219e+002 -4.8409e+000 44059 91172,91100,90956
 6.2000e+000 91149 -3.3641e+001 -9.5045e+001 -4.0587e+000 44059 90956,91100,90982
 6.2000e+000 91198  4.5674e+000 -3.7568e+001 -2.9825e+001 44059 90930,91100,91172
 6.2000e+000 91677 -3.9904e+001 -6.3458e+001  5.3721e+000 43549 91455,91533,91481
 6.2000e+000 91654 -1.4782e+001 -6.2132e+001  8.4333e+000 43549 91429,91533,91455
 6.2000e+000 91631 -3.8700e+001 -6.3771e+001  2.3151e+000 43549 91481,91533,91507
 6.2000e+000 91608 -7.8212e+000 -5.9333e+001  3.1512e+000 43549 91429,91559,91533
 6.2000e+000 91585  3.6371e+000 -1.1099e+001 -7.5073e-001 43549 91403,91559,91429
 6.2000e+000 92006 -4.4608e+001 -1.0754e+002  5.5179e-001 43059 91781,91885,91807
 6.2000e+000 91983 -4.6517e+001 -1.0151e+002  1.7135e+001 43059 91781,91911,91885
 6.2000e+000 91960 -4.4094e+001 -1.0621e+002 -1.5640e-001 43059 91807,91885,91833
 6.2000e+000 91937 -2.9509e+001 -1.0015e+002 -4.4399e-001 43059 91833,91885,91859
 6.2000e+000 92561 -2.9957e+001 -6.7073e+001 -7.6754e+000 42598 92584,92215,92189
 6.2000e+000 92538 -3.3349e+001 -7.5145e+001 -6.6520e+000 42598 92656,92584,92189
 6.2000e+000 92515 -2.9257e+001 -8.5261e+001 -1.5350e+000 42598 92656,92189,92397
 6.2000e+000 92492 -4.3237e+001 -5.9113e+001 -9.6864e+000 42598 92241,92319,92293
 6.2000e+000 92469 -3.6537e+001 -7.0569e+001  5.4096e+000 42598 92319,92397,92371
 6.2000e+000 92446 -1.0127e+001 -9.0360e+001  4.3649e+001 42598 92319,92371,92345
 6.2000e+000 92423 -4.1322e+001 -6.1382e+001 -1.5169e+001 42598 92241,92293,92267
 6.2000e+000 92610 -3.3220e+001 -6.8828e+001 -8.4429e+000 42598 92241,92215,92584
 6.2000e+000 92633 -2.9660e+001 -6.0621e+001 -9.2616e+000 42598 92241,92584,92319
 6.2000e+000 92682 -2.9560e+001 -6.1535e+001 -4.3273e+000 42598 92319,92584,92656
 6.2000e+000 92705 -2.3449e+001 -6.8684e+001 -4.5411e-001 42598 92319,92656,92397
 6.2000e+000 92953 -4.5730e+001 -1.1477e+002  6.1496e+000 42094 92976,92806,92780
 6.2000e+000 92930 -5.0547e+001 -1.0796e+002 -1.5246e-002 42094 92976,92780,92754
 6.2000e+000 92907 -1.3817e+001 -1.1054e+002 -8.2485e-001 42094 93048,92832,92806
 6.2000e+000 92884 -6.3197e+001 -1.1089e+002 -7.2593e+000 42094 92728,92858,92754
 6.2000e+000 93002 -3.0792e+001 -1.0632e+002  2.7629e+000 42094 93048,92806,92976
 6.2000e+000 93025 -4.6751e+001 -1.0588e+002 -1.8191e+000 42094 92858,92976,92754
 6.2000e+000 93074 -3.7584e+001 -1.1892e+002 -9.4124e-001 42094 92858,92832,93048
 6.2000e+000 93097 -5.1265e+001 -1.1255e+002  1.1180e+000 42094 92858,93048,92976
 6.2000e+000 93605 -4.4660e+001 -1.2916e+002 -5.8650e+000 41846 93628,93412,93386
 6.2000e+000 93582 -3.5840e+001 -9.5878e+001 -2.7910e+000 41846 93628,93386,93308
 6.2000e+000 93559 -4.9948e+001 -9.8285e+001 -2.2400e+001 41846 93700,93464,93438
 6.2000e+000 93536 -5.1992e+001 -1.3593e+002  2.8949e-001 41846 93308,93386,93334
 6.2000e+000 93513 -6.2908e+001 -8.8328e+001 -2.1969e+001 41846 93334,93386,93360
 6.2000e+000 93490 -4.5456e+001 -8.7582e+001 -2.4522e+001 41846 93282,93464,93308
 6.2000e+000 93654 -3.9703e+001 -1.0236e+002 -1.0639e+001 41846 93438,93412,93628
 6.2000e+000 93677 -5.2236e+001 -1.0152e+002 -1.0120e+001 41846 93700,93438,93628
 6.2000e+000 93726 -4.3448e+001 -8.3279e+001 -2.3180e+001 41846 93308,93464,93700
 6.2000e+000 93749 -4.3659e+001 -8.1696e+001 -1.1104e+001 41846 93308,93700,93628
 6.2000e+000 94255 -4.1008e+001 -1.0994e+002  7.1598e+000 41385 93958,94114,94088
 6.2000e+000 94232 -3.4263e+001 -1.1851e+002  2.9095e+000 41385 93932,94114,93958
 6.2000e+000 94209 -6.5079e+001 -1.2653e+002  2.0899e+001 41385 93958,94088,94062
 6.2000e+000 94186 -6.7727e+001 -9.0966e+001  1.5477e+001 41385 93958,94062,93984
 6.2000e+000 94163 -5.5929e+001 -8.9969e+001  1.2032e+001 41385 93984,94062,94036
 6.2000e+000 94140 -3.8449e+001 -1.1839e+002  1.7137e+001 41385 93984,94036,94010
 6.2000e+000 94476 -1.5444e+001 -1.5115e+002  8.0290e+000 40881 94326,94378,94352
 6.2000e+000 94453 -2.6003e+001 -1.2214e+002  1.0095e+001 40881 94300,94378,94326
 6.2000e+000 94430 -3.3878e+001 -1.1287e+002  1.0141e+000 40881 94300,94404,94378
 6.2000e+000 94626 -2.2834e+001 -7.4399e+001 -2.5623e+000 40591 94649,94551,94525
 6.2000e+000 94603 -1.4055e+001 -4.2659e+001  3.1037e+000 40591 94781,94577,94551
 6.2000e+000 94675 -5.4121e+000 -5.2756e+001 -1.0692e+001 40591 94781,94551,94649
 6.2000e+000 94807  7.4666e+000 -2.4109e+001  1.3414e+001 40591 94499,94577,94781
 6.2000e+000 94830  1.1060e+001 -4.3097e+001 -1.4160e+000 40591 94499,94781,94649
 6.2000e+000 95336 -8.9543e+001 -1.0393e+002 -1.9406e+001 40187 95013,95169,95039
 6.2000e+000 95313 -2.3671e+001 -9.2346e+001  3.9339e-001 40187 95013,95195,95169
 6.2000e+000 95290 -1.7184e+001 -9.8854e+001 -1.3695e+001 40187 95039,95143,95065
 6.2000e+000 95267 -5.9645e+001 -1.1609e+002 -1.7994e+001 40187 95039,95169,95143
 6.2000e+000 95244 -1.4456e+001 -6.0343e+001 -4.0579e+000 40187 95091,95143,95117
 6.2000e+000 95221 -4.4172e+000 -3.7982e+001 -1.6537e+000 40187 95065,95143,95091
 6.2000e+000 95665 -2.3485e+001 -6.6112e+001  4.0066e+001 39626 95466,95570,95544
 6.2000e+000 95642 -5.2794e+001 -4.9932e+001  2.5746e+001 39626 95440,95570,95466
 6.2000e+000 95619 -8.9548e+001 -9.7224e+001  2.6426e+001 39626 95466,95544,95492
 6.2000e+000 95596 -1.1120e+001 -7.2095e+001  3.9721e+001 39626 95492,95544,95518
 6.2000e+000 95913 -4.3452e+001 -8.9743e+001 -1.3333e+001 39136 96080,95936,95766
 6.2000e+000 95890 -2.9334e+001 -9.7093e+001 -9.0210e+000 39136 95936,95714,95688
 6.2000e+000 95867 -7.4071e+001 -9.7371e+001  4.3108e+000 39136 96008,95792,95766
 6.2000e+000 95844 -3.6307e+001 -8.7226e+001 -1.0017e+001 39136 96080,95766,95740
 6.2000e+000 95962 -5.8653e+001 -1.0054e+002 -8.4671e+000 39136 96008,95766,95936
 6.2000e+000 95985 -3.8643e+001 -1.2053e+002 -2.3583e+000 39136 95818,95936,95688
 6.2000e+000 96034 -3.7034e+001 -8.1327e+001  6.1408e+000 39136 95818,95792,96008
 6.2000e+000 96057 -3.2967e+001 -8.9182e+001 -6.4238e+000 39136 95818,96008,95936
 6.2000e+000 96106 -3.9740e+001 -8.8521e+001 -3.7919e+000 39136 95714,95936,96080
 6.2000e+000 96129 -2.8602e+001 -8.5577e+001 -1.1761e+000 39136 95714,96080,95740
 6.2000e+000 96350 -2.8390e+001 -7.3690e+001 -4.9047e+000 38824 96200,96278,96252
 6.2000e+000 96327 -2.3456e+001 -7.0821e+001 -3.6754e+000 38824 96174,96278,96200
 6.2000e+000 96304 -1.8914e+000 -6.5353e+001 -1.4425e+001 38824 96200,96252,96226
 6.2000e+000 96830 -4.0919e+001 -7.6394e+001 -6.8753e+000 38320 97069,96536,96484
 6.2000e+000 96807 -4.0289e+001 -7.7413e+001 -6.8007e+000 38320 97069,96484,96853
 6.2000e+000 96784 -4.5582e+001 -8.3150e+001 -2.4884e-001 38320 96853,96484,96458
 6.2000e+000 96761 -2.4661e+001 -6.5036e+001 -9.9826e+000 38320 96925,96640,96614
 6.2000e+000 96738 -3.9236e+001 -6.7307e+001 -4.2248e+000 38320 96997,96666,96640
 6.2000e+000 96715 -3.3913e+001 -9.1195e+001 -3.3222e+000 38320 97141,96588,96562
 6.2000e+000 96692 -5.2611e+001 -8.8475e+001 -1.6844e+000 38320 96484,96536,96510
 6.2000e+000 96879 -4.0677e+001 -8.3149e+001 -4.2228e+000 38320 97141,96562,96853
 6.2000e+000 96902 -3.7513e+001 -8.0396e+001 -4.3233e+000 38320 96925,96614,96853
 6.2000e+000 96951 -3.8538e+001 -6.6462e+001 -4.9626e+000 38320 96997,96640,96925
 6.2000e+000 96974 -3.6362e+001 -6.6375e+001 -3.8401e+000 38320 96458,96925,96853
 6.2000e+000 97023 -4.2581e+001 -6.8763e+001 -2.5085e+000 38320 96458,96666,96997
 6.2000e+000 97046 -4.0158e+001 -6.7245e+001 -3.3572e+000 38320 96458,96997,96925
 6.2000e+000 97095 -4.3037e+001 -7.5214e+001 -2.0001e+000 38320 96562,96536,97069
 6.2000e+000 97118 -3.8393e+001 -7.6829e+001 -6.0075e+000 38320 96562,97069,96853
 6.2000e+000 97167 -2.2243e+001 -8.3632e+001 -6.7270e+000 38320 96614,96588,97141
 6.2000e+000 97190 -3.3369e+001 -7.8703e+001 -6.6197e+000 38320 96614,97141,96853
 6.2000e+000 97519 -2.9326e+001 -1.0277e+002  2.8707e+001 37766 97542,97398,97372
 6.2000e+000 97496 -3.4998e+001 -7.8308e+001  2.0730e+001 37766 97542,97372,97346
 6.2000e+000 97473 -3.5781e+001 -8.4347e+001  3.2139e-001 37766 97294,97424,97346
 6.2000e+000 97450 -4.0799e+001 -9.7253e+001  6.9168e-002 37766 97294,97346,97320
 6.2000e+000 97568 -1.4011e+001 -1.0961e+002  8.2070e+000 37766 97424,97398,97542
 6.2000e+000 97591 -2.3223e+001 -8.1051e+001  1.7784e+000 37766 97424,97542,97346
 6.2000e+000 98048 -4.1007e+001 -6.0818e+001 -2.0696e+001 37262 98071,97878,97852
 6.2000e+000 98025 -3.4015e+001 -7.3311e+001 -7.9905e+000 37262 98071,97852,97800
 6.2000e+000 98002 -3.6388e+001 -8.8468e+001 -1.0146e+001 37262 97800,97852,97826
 6.2000e+000 97979 -3.8511e+001 -7.8734e+001  2.9477e-002 37262 97800,97930,97904
 6.2000e+000 97956 -2.4472e+001 -8.9417e+001  4.6118e+000 37262 97774,97930,97800
 6.2000e+000 98097 -6.0576e+001 -7.0158e+001 -1.5418e+001 37262 97904,97878,98071
 6.2000e+000 98120 -4.4429e+001 -8.2692e+001 -3.6030e+000 37262 97904,98071,97800
 6.2000e+000 98449 -2.6144e+001 -6.4821e+001 -7.9933e+000 36950 98472,98302,98250
 6.2000e+000 98426 -1.6406e+001 -6.1776e+001 -9.8038e+000 36950 98472,98250,98354
 6.2000e+000 98403 -4.0197e+001 -7.4272e+001  8.2804e+000 36950 98250,98302,98276
 6.2000e+000 98380 -1.1077e+001 -4.7356e+001  6.8486e+000 36950 98224,98354,98250
 6.2000e+000 98498 -1.8893e+001 -7.2793e+001 -2.2214e+000 36950 98328,98302,98472
 6.2000e+000 98521 -7.4723e+000 -6.8208e+001 -5.6713e+000 36950 98328,98472,98354
 6.2000e+000 99125 -4.1357e+001 -4.1840e+001  1.4089e+000 36296 98704,98756,98730
 6.2000e+000 99102 -5.0784e+001 -4.6445e+001  5.1748e+000 36296 98704,98938,98756
 6.2000e+000 99079 -3.4858e+001 -6.1526e+001 -1.6364e+000 36296 99148,98938,98912
 6.2000e+000 99056 -3.6004e+001 -6.4464e+001  1.5558e+001 36296 99292,99220,98782
 6.2000e+000 99033 -3.0516e+001 -7.3588e+001  1.8717e+000 36296 99148,98912,98834
 6.2000e+000 99010 -3.5504e+001 -5.5359e+001  1.8258e+001 36296 99292,98782,98756
 6.2000e+000 98987 -2.9575e+001 -1.2983e+002 -2.4023e+001 36296 98834,98912,98886
 6.2000e+000 98964 -4.8052e+001 -1.8468e+002 -3.0543e+001 36296 98834,98886,98860
 6.2000e+000 99174 -4.3776e+001 -7.8366e+001  2.8191e+000 36296 99220,98938,99148
 6.2000e+000 99197 -2.9326e+001 -8.9883e+001  9.8097e+000 36296 98808,99148,98834
 6.2000e+000 99246 -3.7516e+001 -6.7740e+001  3.7458e+001 36296 98808,98782,99220
 6.2000e+000 99269 -1.5061e+001 -5.7137e+001  1.2156e+001 36296 98808,99220,99148
 6.2000e+000 99318 -4.1852e+001 -5.6862e+001  9.6833e+000 36296 98938,99220,99292
 6.2000e+000 99341 -4.2609e+001 -5.8015e+001  1.1920e+001 36296 98938,99292,98756
 6.2000e+000 99719 -5.1423e+001 -1.0449e+002  4.8295e-001 35742 99742,99471,99601
 6.2000e+000 99696 -5.1403e+001 -8.3383e+001  9.9593e+000 35742 99445,99601,99471
 6.2000e+000 99673 -4.8945e+001 -9.8811e+001 -3.4029e+000 35742 99742,99601,99575
 6.2000e+000 99650 -4.3106e+001 -1.2442e+002 -2.7733e+000 35742 99814,99549,99523
 6.2000e+000 99627 -3.5660e+001 -9.7058e+001  2.9866e-001 35742 99471,99523,99497
 6.2000e+000 99768 -4.1402e+001 -1.0230e+002  2.6942e+000 35742 99523,99471,99742
 6.2000e+000 99791 -4.8839e+001 -1.1445e+002 -2.2130e+000 35742 99814,99523,99742
 6.2000e+000 99840 -4.2622e+001 -1.1196e+002 -6.5666e+000 35742 99575,99549,99814
 6.2000e+000 99863 -4.6121e+001 -9.8880e+001 -5.6455e+000 35742 99575,99814,99742
 6.2000e+000 100111 -4.0774e+001 -8.5751e+001  6.9645e+000 35302 100134,99990,99938
 6.2000e+000 100088 -3.4227e+001 -7.7063e+001  3.1460e+000 35302 100134,99938,99912
 6.2000e+000 100065 -3.4466e+001 -7.7335e+001 -1.6113e+000 35302 100206,99886,100016
 6.2000e+000 100042 -4.9668e+001 -8.4844e+001  4.7128e+000 35302 99938,99990,99964
 6.2000e+000 100160 -3.2904e+001 -8.2862e+001  1.3902e+000 35302 100016,99990,100134
 6.2000e+000 100183 -3.2854e+001 -7.8685e+001 -1.5703e+000 35302 100206,100016,100134
 6.2000e+000 100232 -3.5880e+001 -7.8912e+001 -6.4486e-001 35302 99912,99886,100206
 6.2000e+000 100255 -3.4361e+001 -8.0586e+001 -6.5069e-001 35302 99912,100206,100134
 6.2000e+000 100586 -5.0725e+001 -5.1687e+001  1.9466e+001 35012 100609,100387,100361
 6.2000e+000 100563 -6.3233e+001 -3.2029e+001 -1.2057e+001 35012 100609,100361,100465
 6.2000e+000 100540 -2.7966e+001 -2.0659e+001 -2.8016e+001 35012 100361,100491,100465
 6.2000e+000 100517 -3.6733e+000 -2.2908e+001 -3.1125e+001 35012 100413,100465,100439
 6.2000e+000 100635 -1.9234e+001 -3.7679e+001  6.7105e+000 35012 100413,100387,100609
 6.2000e+000 100658 -3.0189e+001 -1.2277e+001 -2.5613e+001 35012 100413,100609,100465
 6.2000e+000 100987 -3.8577e+001 -8.9051e+001  8.0012e+000 34700 100788,100866,100814
 6.2000e+000 100964 -3.3304e+001 -6.6118e+001  1.4087e+001 34700 101010,100866,100788
 6.2000e+000 100941 -1.5991e+001 -3.8039e+001  1.2817e+001 34700 100762,100892,100866
 6.2000e+000 100918 -3.4641e+001 -7.9693e+001  7.5942e+000 34700 100814,100866,100840
 6.2000e+000 101036 -1.9977e+001 -5.5309e+001  2.4579e+001 34700 100762,100866,101010
 6.2000e+000 101493 -5.3247e+001 -9.8595e+001 -7.2591e+000 34132 101516,101349,101297
 6.2000e+000 101470 -6.2868e+001 -1.1692e+002 -1.2193e+001 34132 101588,101516,101297
 6.2000e+000 101447 -6.2962e+001 -1.2231e+002 -1.8230e+001 34132 101588,101297,101245
 6.2000e+000 101424 -4.0752e+001 -1.4110e+002 -1.7231e+001 34132 101245,101297,101271
 6.2000e+000 101401 -5.7047e+001 -9.8132e+001 -9.6101e+000 34132 101297,101349,101323
 6.2000e+000 101542 -5.4108e+001 -1.1308e+002 -5.9077e+000 34132 101375,101349,101516
 6.2000e+000 101565 -5.0126e+001 -1.1374e+002 -6.7359e+000 34132 101375,101516,101219
 6.2000e+000 101614 -5.1445e+001 -1.1723e+002 -6.4081e+000 34132 101219,101516,101588
 6.2000e+000 101637 -5.7244e+001 -1.2268e+002 -1.2144e+001 34132 101219,101588,101245
 6.2000e+000 101858 -1.4151e+001 -7.3440e+001  8.5100e+000 33720 101708,101786,101760
 6.2000e+000 101835 -6.7239e+000 -7.8628e+001  1.3154e+001 33720 101682,101786,101708
 6.2000e+000 101812 -2.4010e+001 -7.8353e+001  6.5175e+000 33720 101708,101760,101734
 6.2000e+000 102128 -1.4181e+001 -1.0315e+002 -2.9194e+000 33130 101903,102007,101929
 6.2000e+000 102105 -1.5943e+001 -1.1927e+002  3.7577e+000 33130 101903,102033,102007
 6.2000e+000 102082 -8.8134e+000 -1.2289e+002 -2.3421e+001 33130 101929,102007,101955
 6.2000e+000 102059 -1.9903e+001 -8.6862e+001  2.2537e+000 33130 101955,102007,101981
 6.2000e+000 102461 -2.8003e+001 -6.9143e+001 -7.9827e+000 32840 102236,102340,102262
 6.2000e+000 102438 -2.5634e+001 -5.0036e+001  2.4464e+000 32840 102236,102366,102340
 6.2000e+000 102415 -1.4706e+001 -6.5874e+001 -6.6850e+000 32840 102262,102340,102288
 6.2000e+000 102392 -3.0545e+001 -6.8747e+001 -1.7089e+001 32840 102288,102340,102314
 6.2000e+000 102997 -3.5284e+001 -6.0145e+001  1.6467e+001 32493 102749,102879,102853
 6.2000e+000 102974 -2.9059e+001 -4.7521e+001  1.2757e+001 32493 102723,102879,102749
 6.2000e+000 102951 -3.9459e+001 -7.1554e+001  1.1277e+001 32493 102749,102801,102775
 6.2000e+000 102928 -4.3647e+001 -7.1571e+001  1.1009e+001 32493 102749,102853,102801
 6.2000e+000 102905 -4.2246e+001 -6.9574e+001  9.7136e+000 32493 102801,102853,102827
 6.2000e+000 103454 -2.7776e+001 -5.3421e+001 -7.1371e+000 32089 103206,103336,103310
 6.2000e+000 103431 -2.1235e+001 -6.2028e+001 -1.0480e+000 32089 103180,103336,103206
 6.2000e+000 103408 -3.7279e+001 -6.8244e+001 -1.3646e+001 32089 103206,103284,103258
 6.2000e+000 103385 -5.2865e+001 -6.9531e+001 -1.6828e+001 32089 103206,103310,103284
 6.2000e+000 103362 -2.8003e+001 -4.5185e+001 -1.0394e+001 32089 103206,103258,103232
 6.2000e+000 103783 -6.0221e+001 -7.7387e+001 -9.2199e+000 31742 103558,103662,103584
 6.2000e+000 103760 -4.9700e+001 -6.4126e+001 -2.4278e+001 31742 103558,103688,103662
 6.2000e+000 103737 -4.0173e+001 -6.0729e+001 -1.7604e+001 31742 103584,103662,103636
 6.2000e+000 103714 -3.9827e+001 -7.1775e+001 -1.8488e+001 31742 103584,103636,103610
 6.2000e+000 104112 -1.0522e+001 -5.9251e+001  9.1376e+000 31402 103939,103991,103965
 6.2000e+000 104089 -1.7032e+001 -4.9635e+001  4.9935e+000 31402 103913,103991,103939
 6.2000e+000 104066 -2.5024e+001 -5.9242e+001 -5.1870e-001 31402 103913,104017,103991
 6.2000e+000 104043 -3.3877e+001 -5.4006e+001 -6.4738e+000 31402 103887,104017,103913
 6.2000e+000 104569 -5.7610e+001 -1.0377e+002  4.3125e+000 30998 104321,104425,104373
 6.2000e+000 104546 -6.3031e+001 -1.0636e+002  5.0791e+000 30998 104321,104451,104425
 6.2000e+000 104523 -4.2905e+001 -8.3339e+001  1.5476e+001 30998 104373,104425,104399
 6.2000e+000 104500 -4.8491e+001 -1.2056e+002 -1.9152e+000 30998 104295,104451,104321
 6.2000e+000 104477 -7.8302e+001 -1.2231e+002  2.5113e+001 30998 104321,104373,104347
 6.2000e+000 104947 -5.6285e+001 -9.3443e+001 -1.2890e+001 30608 104751,104803,104777
 6.2000e+000 104924 -3.5376e+001 -9.5235e+001 -5.0829e+000 30608 104725,104803,104751
 6.2000e+000 104901 -5.5935e+001 -9.1398e+001  5.9395e+000 30608 104699,104803,104725
 6.2000e+000 104878 -4.6733e+001 -8.7328e+001  5.1326e+000 30608 104673,104803,104699
 6.2000e+000 104855 -3.5808e+001 -8.2091e+001 -3.3636e+000 30608 104673,104829,104803
 6.2000e+000 105276 -4.1477e+001 -8.6579e+001  2.5712e+000 30204 105427,105129,105077
 6.2000e+000 105253 -2.7721e+001 -9.6855e+001  2.0443e+001 30204 105427,105077,105051
 6.2000e+000 105230 -3.3814e+001 -8.4220e+001  3.2346e+000 30204 105077,105129,105103
 6.2000e+000 105207 -2.0579e+001 -7.5738e+001  1.3051e+001 30204 105299,105181,105155
 6.2000e+000 105325 -2.2448e+001 -7.3724e+001  3.1221e+000 30204 105129,105181,105299
 6.2000e+000 105453 -5.0004e+001 -9.2854e+001  1.2044e+001 30204 105181,105129,105427
 6.2000e+000 105476 -5.9090e+001 -1.1358e+002  3.2453e+001 30204 105181,105427,105051
 6.2000e+000 105903 -3.1538e+001 -7.4253e+001 -5.6228e+000 29700 105606,105762,105736
 6.2000e+000 105880 -4.0715e+001 -7.6347e+001  1.0654e-001 29700 105580,105762,105606
 6.2000e+000 105857 -4.8791e+001 -9.3703e+001 -5.5742e+000 29700 105606,105710,105632
 6.2000e+000 105834 -4.0574e+001 -7.9485e+001 -2.2255e+000 29700 105606,105736,105710
 6.2000e+000 105811 -4.5291e+001 -8.7388e+001 -7.0042e+000 29700 105632,105710,105684
 6.2000e+000 105788 -4.4481e+001 -8.5245e+001 -3.0063e+000 29700 105632,105684,105658
 6.2000e+000 106102 -1.3308e+001 -9.0273e+001  3.0550e+000 29124 105978,106030,106004
 6.2000e+000 106079 -2.2882e+001 -8.6900e+001  4.0487e+000 29124 105926,106030,105978
 6.2000e+000 106056 -2.7835e+001 -1.0362e+002  1.0902e+001 29124 105926,105978,105952
 6.2000e+000 106301 -2.5632e+001 -9.1705e+001  5.2586e-001 28712 106151,106229,106203
 6.2000e+000 106278 -3.0869e+001 -1.0174e+002 -4.5639e+000 28712 106125,106229,106151
 6.2000e+000 106255 -2.6503e+001 -9.5830e+001  4.5641e+000 28712 106151,106203,106177
 6.2000e+000 106551 -3.0601e+001 -1.1164e+002  6.5349e+000 28258 106352,106404,106378
 6.2000e+000 106528 -4.2899e+001 -1.1285e+002  2.0530e+000 28258 106352,106456,106404
 6.2000e+000 106505 -4.3213e+001 -1.1364e+002  1.7307e+000 28258 106326,106456,106352
 6.2000e+000 106482 -3.7194e+001 -1.0346e+002 -1.2035e+000 28258 106404,106456,106430
 6.2000e+000 107012 -3.9207e+001 -9.7087e+001  1.9077e+001 27818 107035,106790,106764
 6.2000e+000 106989 -3.4246e+001 -9.1829e+001  7.4466e+000 27818 107035,106764,106868
 6.2000e+000 106966 -2.4320e+001 -1.1250e+002  1.0869e+001 27818 107107,106842,106816
 6.2000e+000 106943 -4.9366e+001 -8.3489e+001  3.3275e+000 27818 106738,106868,106764
 6.2000e+000 106920 -4.8319e+001 -7.6272e+001  1.1269e+001 27818 106738,106894,106868
 6.2000e+000 107061 -1.8441e+001 -9.3018e+001  2.1806e+001 27818 106816,106790,107035
 6.2000e+000 107084 -3.0983e+001 -1.0446e+002  1.1482e+001 27818 107107,106816,107035
 6.2000e+000 107133 -2.2434e+001 -1.0089e+002  5.2583e+000 27818 106868,106842,107107
 6.2000e+000 107156 -2.7001e+001 -8.9035e+001  7.2697e+000 27818 106868,107107,107035
 6.2000e+000 107613 -1.3506e+001 -7.3847e+001  1.6274e+001 27312 107339,107469,107365
 6.2000e+000 107590 -3.6099e+000 -6.8386e+001  1.4035e+001 27312 107339,107495,107469
 6.2000e+000 107567 -1.4211e+001 -7.0233e+001  7.3492e+000 27312 107391,107469,107443
 6.2000e+000 107544 -1.0318e+001 -7.5544e+001  6.8908e+000 27312 107365,107469,107391
 6.2000e+000 107521 -3.7031e+001 -7.8540e+001  4.8031e+000 27312 107391,107443,107417
 6.2000e+000 107991 -3.5500e+001 -1.0898e+002  4.8299e+000 26858 108086,108014,107795
 6.2000e+000 107968 -3.9011e+001 -1.0987e+002 -3.8551e+000 26858 108014,107717,107873
 6.2000e+000 107945 -4.0955e+001 -1.1625e+002  7.8009e+000 26858 108158,108086,107795
 6.2000e+000 107922 -3.2773e+001 -1.1938e+002  8.6052e+000 26858 108158,107795,107769
 6.2000e+000 107899 -3.0900e+001 -1.3532e+002  1.9152e+001 26858 107821,107873,107847
 6.2000e+000 108040 -3.7677e+001 -1.2289e+002  6.6293e+000 26858 107821,107795,108014
 6.2000e+000 108063 -2.3956e+001 -1.1595e+002  1.3782e+000 26858 107821,108014,107873
 6.2000e+000 108112 -4.8053e+001 -1.1404e+002  5.7658e+000 26858 107717,108014,108086
 6.2000e+000 108135 -4.0627e+001 -1.1392e+002  1.1294e+001 26858 107717,108086,107743
 6.2000e+000 108184 -3.2073e+001 -1.1052e+002  1.1037e+001 26858 107743,108086,108158
 6.2000e+000 108207 -2.7578e+001 -1.1628e+002  1.1484e+001 26858 107743,108158,107769
 6.2000e+000 108634 -4.9313e+001 -1.0111e+002  2.2798e+000 26404 108657,108415,108363
 6.2000e+000 108611 -5.6251e+001 -1.1032e+002  1.2992e+001 26404 108657,108363,108337
 6.2000e+000 108588 -4.8529e+001 -1.0605e+002  1.2843e+001 26404 108729,108311,108467
 6.2000e+000 108565 -5.2385e+001 -1.2318e+002  2.8224e+000 26404 108801,108441,108415
 6.2000e+000 108542 -7.1916e+001 -1.1640e+002  1.4530e+001 26404 108311,108493,108467
 6.2000e+000 108519 -3.3821e+001 -1.0142e+002  2.2825e+000 26404 108363,108415,108389
 6.2000e+000 108683 -6.6207e+001 -1.0912e+002  4.6449e+000 26404 108801,108415,108657
 6.2000e+000 108706 -6.3101e+001 -1.0931e+002  1.0574e+001 26404 108729,108467,108657
 6.2000e+000 108755 -3.9392e+001 -1.1136e+002  1.2704e+001 26404 108337,108311,108729
 6.2000e+000 108778 -4.6790e+001 -1.0939e+002  1.0000e+001 26404 108337,108729,108657
 6.2000e+000 108827 -6.5796e+001 -1.5117e+002 -5.3059e+000 26404 108467,108441,108801
 6.2000e+000 108850 -7.2984e+001 -1.2700e+002 -3.4245e+000 26404 108467,108801,108657
 6.2000e+000 109228 -5.0693e+001 -1.0888e+002 -4.3142e+000 26064 109006,109084,109058
 6.2000e+000 109205 -4.5046e+001 -1.0185e+002  2.6047e+000 26064 108980,109084,109006
 6.2000e+000 109182 -4.8231e+001 -9.6860e+001 -3.2514e+000 26064 108980,109110,109084
 6.2000e+000 109159 -4.8721e+001 -1.1381e+002 -4.1589e-001 26064 109006,109058,109032
 6.2000e+000 109136 -1.6647e+001 -8.5172e+001  3.8329e+000 26064 108954,109110,108980
 6.2000e+000 109427 -1.2201e+001 -9.3033e+001 -2.0392e+001 25660 109303,109355,109329
 6.2000e+000 109404 -2.4577e+001 -1.1768e+002 -5.3447e+000 25660 109277,109355,109303
 6.2000e+000 109381 -1.8876e+001 -1.1054e+002 -2.3105e+000 25660 109251,109355,109277
 6.2000e+000 109577 -1.4652e+001 -3.8065e+001  1.3152e+001 25306 109476,109528,109502
 6.2000e+000 109554  9.5518e+000 -2.9607e+001  1.1897e+001 25306 109450,109528,109476
 6.2000e+000 109778 -3.5844e+001 -9.8442e+001  2.2555e+000 24944 109628,109706,109654
 6.2000e+000 109755 -3.8726e+001 -9.7745e+001  9.8581e-002 24944 109602,109706,109628
 6.2000e+000 109732 -3.1667e+001 -9.2874e+001 -1.6127e+000 24944 109654,109706,109680
 6.2000e+000 110126 -2.8164e+001 -1.2401e+002  3.2830e+000 24440 110149,109907,109855
 6.2000e+000 110103 -2.3840e+001 -1.3238e+002  8.2769e+000 24440 110149,109855,109985
 6.2000e+000 110080 -2.1509e+001 -1.0593e+002  2.2003e+000 24440 109855,109907,109881
 6.2000e+000 110057 -2.1524e+001 -1.0091e+002  3.7962e+001 24440 109829,109985,109855
 6.2000e+000 110034 -2.5229e+001 -1.2351e+002  1.3257e+000 24440 109907,109959,109933
 6.2000e+000 110011 -1.2539e+000 -1.0037e+002  4.4220e+000 24440 109803,109985,109829
 6.2000e+000 110175 -2.5541e+001 -1.1766e+002  3.6270e+000 24440 109959,109907,110149
 6.2000e+000 110198 -2.0107e+001 -1.2408e+002  9.4133e+000 24440 109959,110149,109985
 6.2000e+000 110301 -6.2001e-001 -5.2063e+001  3.9061e+000 24028 110223,110275,110249
 6.2000e+000 110573 -1.5665e+001 -7.3733e+001  5.9750e+000 23467 110400,110452,110426
 6.2000e+000 110550 -2.6449e+001 -8.9029e+001  6.9795e-001 23467 110374,110452,110400
 6.2000e+000 110527 -2.8876e+001 -9.0041e+001  1.9754e+000 23467 110348,110452,110374
 6.2000e+000 110504 -2.0550e+001 -8.6919e+001 -2.5376e-001 23467 110348,110478,110452
 6.2000e+000 111004 -5.6974e+001 -1.3013e+002 -1.7423e+001 22963 111027,110733,110707
 6.2000e+000 110981 -5.8694e+001 -1.2307e+002  6.7899e+000 22963 111027,110707,110681
 6.2000e+000 110958 -2.5550e+001 -1.0373e+002 -1.4685e+001 22963 111099,110759,110733
 6.2000e+000 110935 -3.9154e+001 -1.0514e+002 -9.6068e+000 22963 111171,110863,110811
 6.2000e+000 110912 -1.3375e+001 -7.4760e+001 -1.8077e+001 22963 110759,110811,110785
 6.2000e+000 110889 -4.6657e+001 -1.1661e+002 -5.5201e+000 22963 110811,110863,110837
 6.2000e+000 111053 -4.3055e+001 -1.1555e+002 -8.4545e+000 22963 111099,110733,111027
 6.2000e+000 111076 -3.6681e+001 -1.1283e+002 -8.3082e+000 22963 111171,110811,111027
 6.2000e+000 111125 -2.4846e+001 -1.0132e+002 -2.4270e+001 22963 110811,110759,111099
 6.2000e+000 111148 -2.7697e+001 -9.9941e+001 -2.0526e+001 22963 110811,111099,111027
 6.2000e+000 111197 -3.8572e+001 -9.4078e+001 -1.0752e+001 22963 110681,110863,111171
 6.2000e+000 111220 -3.7713e+001 -1.0223e+002 -6.3383e+000 22963 110681,111171,111027
 6.2000e+000 111726 -5.9600e+001 -1.1183e+002  6.5238e-001 22459 111749,111507,111429
 6.2000e+000 111703 -5.1396e+001 -1.0885e+002 -4.1279e+000 22459 111749,111429,111585
 6.2000e+000 111680 -4.1023e+001 -1.1919e+002 -2.1680e+000 22459 111403,111585,111429
 6.2000e+000 111657 -5.6112e+001 -1.2430e+002  5.2354e+000 22459 111507,111559,111533
 6.2000e+000 111634 -7.3050e+001 -1.0424e+002  6.7183e+000 22459 111455,111507,111481
 6.2000e+000 111611 -9.0331e+001 -1.0898e+002  1.1252e+001 22459 111429,111507,111455
 6.2000e+000 111775 -5.8254e+001 -1.1952e+002  7.5519e+000 22459 111559,111507,111749
 6.2000e+000 111798 -5.0855e+001 -1.1323e+002  2.7015e+000 22459 111559,111749,111585
 6.2000e+000 112046 -2.5944e+001 -9.5850e+001 -1.2341e+001 21898 112069,111925,111873
 6.2000e+000 112023 -2.4617e+001 -9.5997e+001 -2.5377e+000 21898 112069,111873,111847
 6.2000e+000 112000 -3.3145e+001 -9.7732e+001 -4.9370e+000 21898 111821,111951,111847
 6.2000e+000 111977 -2.9142e+001 -7.3473e+001 -7.2772e+000 21898 111873,111925,111899
 6.2000e+000 112095 -3.9759e+001 -1.0075e+002 -1.4779e+001 21898 111951,111925,112069
 6.2000e+000 112118 -3.2716e+001 -9.8765e+001 -5.3462e+000 21898 111951,112069,111847
 6.2000e+000 112498 -4.2308e+001 -1.0337e+002 -7.6255e+000 21608 112521,112276,112224
 6.2000e+000 112475 -2.7623e+001 -1.0465e+002  7.1986e-001 21608 112521,112224,112380
 6.2000e+000 112452 -2.9291e+001 -1.2025e+002  7.6019e+000 21608 112302,112380,112354
 6.2000e+000 112429 -5.1935e+001 -1.1567e+002 -3.4049e+000 21608 112224,112276,112250
 6.2000e+000 112406  2.0586e+001 -1.3337e+002 -8.0588e+000 21608 112302,112354,112328
 6.2000e+000 112547 -3.0279e+001 -9.0558e+001 -6.9257e-001 21608 112302,112276,112521
 6.2000e+000 112570 -2.0268e+001 -1.0116e+002  5.0886e+000 21608 112302,112521,112380
 6.2000e+000 112948 -5.2099e+001 -1.0611e+002 -1.6029e+000 20882 112971,112752,112700
 6.2000e+000 112925 -3.9434e+001 -1.0192e+002 -4.3921e+000 20882 112971,112700,112830
 6.2000e+000 112902 -6.5489e+001 -1.1485e+002  7.2997e+000 20882 112778,112830,112804
 6.2000e+000 112879 -3.6394e+001 -8.1673e+001 -6.0579e+000 20882 112674,112830,112700
 6.2000e+000 112856 -6.1404e+001 -1.1096e+002  1.7501e+000 20882 112700,112752,112726
 6.2000e+000 112997 -5.2569e+001 -1.0630e+002  5.4279e+000 20882 112778,112752,112971
 6.2000e+000 113020 -4.5360e+001 -1.0432e+002  2.3814e+000 20882 112778,112971,112830
 6.2000e+000 113526 -3.2871e+001 -1.0574e+002  4.6117e-001 20428 113255,113385,113333
 6.2000e+000 113503 -3.5055e+001 -1.1314e+002  6.5768e-001 20428 113229,113385,113255
 6.2000e+000 113480  2.4902e-001 -1.0209e+002  1.4904e+000 20428 113255,113333,113281
 6.2000e+000 113457 -3.0532e+001 -1.0723e+002  3.4979e+000 20428 113203,113385,113229
 6.2000e+000 113434 -1.5919e+001 -1.0786e+002 -3.8297e+000 20428 113281,113333,113307
 6.2000e+000 113411 -4.1616e+001 -1.0284e+002  2.4589e+000 20428 113333,113385,113359
 6.2000e+000 113774 -7.0998e+000 -1.0463e+002  4.6337e+000 19917 113797,113601,113549
 6.2000e+000 113751 -1.7858e+001 -1.0578e+002  5.6301e+000 19917 113869,113797,113549
 6.2000e+000 113728 -1.7125e+001 -1.0689e+002  1.0006e+001 19917 113869,113549,113679
 6.2000e+000 113705 -1.1370e+001 -1.0454e+002  9.9011e+000 19917 113549,113601,113575
 6.2000e+000 113823 -1.8516e+001 -1.2792e+002  6.5733e-002 19917 113627,113601,113797
 6.2000e+000 113846 -7.8035e+000 -9.9918e+001 -1.7743e+000 19917 113627,113797,113653
 6.2000e+000 113895 -1.5571e+001 -9.5152e+001  2.2975e+000 19917 113653,113797,113869
 6.2000e+000 113918 -1.9085e+001 -9.7966e+001  7.8948e+000 19917 113653,113869,113679
 6.2000e+000 114166 -4.8417e+001 -1.0710e+002 -2.3384e+000 19413 113993,114045,114019
 6.2000e+000 114143 -4.2320e+001 -9.9410e+001  6.3107e-001 19413 113967,114045,113993
 6.2000e+000 114120 -3.7689e+001 -9.8084e+001  5.9859e+000 19413 113967,114071,114045
 6.2000e+000 114097 -2.7344e+001 -1.1200e+002 -2.1537e+000 19413 113941,114071,113967
 6.2000e+000 114438 -4.4612e+001 -1.1866e+002  1.1821e+000 19001 114213,114265,114239
 6.2000e+000 114415 -3.1779e+001 -9.1790e+001 -2.7527e+000 19001 114213,114343,114265
 6.2000e+000 114392 -4.7535e+001 -1.2722e+002 -5.6771e+000 19001 114265,114343,114317
 6.2000e+000 114369  7.9721e+000 -1.0318e+002 -2.0901e+000 19001 114265,114317,114291
 6.2000e+000 114639 -3.3297e+001 -1.4040e+002  6.6746e+000 18554 114489,114541,114515
 6.2000e+000 114616 -2.8770e+001 -1.2183e+002  1.0463e+000 18554 114489,114567,114541
 6.2000e+000 114593 -6.2703e+001 -1.3681e+002 -8.7928e+000 18554 114463,114567,114489
 6.2000e+000 115043 -2.0668e+001 -1.0343e+002  3.8161e+000 18164 114795,114925,114821
 6.2000e+000 115020 -1.7173e+001 -1.0920e+002  6.6185e+000 18164 114769,114925,114795
 6.2000e+000 114997 -1.0401e+001 -1.0929e+002 -1.2951e+000 18164 115066,114873,114821
 6.2000e+000 114974 -9.2013e+000 -9.3163e+001 -3.9014e+000 18164 115066,114821,114925
 6.2000e+000 114951  1.3860e+001 -1.0850e+002 -1.1916e+001 18164 114821,114873,114847
 6.2000e+000 115092 -1.6440e+001 -9.7749e+001 -9.7517e+000 18164 114899,114873,115066
 6.2000e+000 115115 -8.7407e+000 -7.3076e+001 -1.3105e+001 18164 114899,115066,114925
 6.2000e+000 115265 -2.3953e+001 -1.1384e+002  1.0644e+000 17852 115164,115216,115190
 6.2000e+000 115242 -2.7285e+001 -1.1926e+002 -4.6659e-001 17852 115138,115216,115164
 6.2000e+000 115464 -7.7111e+001 -1.6952e+002  1.7559e+000 17346 115288,115366,115340
 6.2000e+000 115441 -1.1341e+002 -1.2866e+002 -7.1937e+000 17346 115288,115392,115366
 6.2000e+000 115418 -6.7001e+001 -1.8847e+002 -5.6372e+000 17346 115288,115340,115314
 6.2000e+000 115736 -2.2503e+001 -1.0185e+002  4.6269e+000 16942 115563,115641,115615
 6.2000e+000 115713 -2.5943e+001 -1.0101e+002  1.5270e+000 16942 115511,115641,115563
 6.2000e+000 115690 -7.0943e+001 -1.1998e+002  8.4621e+000 16942 115563,115615,115589
 6.2000e+000 115667 -3.1667e+001 -1.1037e+002  3.9338e+000 16942 115511,115563,115537
 6.2000e+000 116091 -5.5719e+001 -1.2835e+002 -4.1526e+000 16388 115918,115970,115944
 6.2000e+000 116068 -4.9167e+001 -1.0423e+002 -3.1443e+000 16388 115918,115996,115970
 6.2000e+000 116045 -6.6165e+001 -1.3044e+002  4.5196e+000 16388 115892,115996,115918
 6.2000e+000 116022 -4.1446e+001 -1.1709e+002  1.6070e+001 16388 115866,115996,115892
 6.2000e+000 116192 -9.8050e+000 -1.3139e+002 -1.9376e+001 15810 116114,116166,116140
 6.2000e+000 116342 -4.9092e+001 -1.5930e+002  8.4389e+000 15419 116241,116293,116267
 6.2000e+000 116319 -7.0022e+001 -1.9402e+002 -5.3606e+000 15419 116215,116293,116241
 6.2000e+000 116445 -5.3688e+001 -1.0647e+002 -8.4889e-001 421 116367,116419,116393
 6.3000e+000 68477 -6.7704e+001 -9.3143e+001  6.9982e-001 68018 68327,68379,68353
 6.3000e+000 68454 -7.1421e+001 -1.2146e+002  8.8363e+000 68018 68301,68379,68327
 6.3000e+000 68431 -4.1061e+001 -1.3796e+002  2.0390e+001 68018 68301,68405,68379
 6.3000e+000 68578 -4.8452e+001 -9.0168e+001  3.1870e-001 67820 68500,68552,68526
 6.3000e+000 68728 -4.9915e+001 -8.1724e+001 -7.2834e-001 67508 68601,68653,68627
 6.3000e+000 68705 -7.6877e+001 -6.6655e+001 -1.2284e+001 67508 68601,68679,68653
 6.3000e+000 68927 -2.2056e+001 -8.3532e+001 -8.1708e-001 67310 68777,68829,68803
 6.3000e+000 68904 -2.6969e+001 -9.5966e+001  1.7412e+000 67310 68751,68829,68777
 6.3000e+000 68881 -2.2929e+001 -9.8920e+001  5.3585e+000 67310 68751,68855,68829
 6.3000e+000 69386 -4.0273e+001 -9.8785e+001 -4.0705e+000 67020 69216,69268,69242
 6.3000e+000 69363 -3.8164e+001 -7.7760e+001 -9.7497e+000 67020 69138,69268,69216
 6.3000e+000 69340 -2.7388e+001 -7.1801e+001 -7.4108e+000 67020 69112,69268,69138
 6.3000e+000 69317 -4.9651e+001 -8.2743e+001  3.3390e+000 67020 69138,69190,69164
 6.3000e+000 69294 -5.0331e+001 -7.5205e+001 -4.8186e+000 67020 69138,69216,69190
 6.3000e+000 69536 -6.6941e+001 -1.6349e+002 -1.2725e+001 66708 69435,69487,69461
 6.3000e+000 69513 -4.9863e+001 -1.8423e+002 -1.5272e+000 66708 69409,69487,69435
 6.3000e+000 69735 -4.6764e+001 -8.8570e+001  1.8738e+000 66346 69585,69637,69611
 6.3000e+000 69712 -3.9670e+001 -8.3951e+001 -5.2918e-001 66346 69559,69637,69585
 6.3000e+000 69689 -3.5534e+001 -8.1667e+001 -8.8456e+000 66346 69559,69663,69637
 6.3000e+000 69985 -7.1139e+001 -1.1138e+002  1.4941e+000 66148 69786,69890,69864
 6.3000e+000 69962 -7.4505e+001 -1.1320e+002  2.2483e+000 66148 69760,69890,69786
 6.3000e+000 69939 -5.5354e+001 -1.0622e+002 -1.4308e+001 66148 69786,69864,69838
 6.3000e+000 69916 -6.5454e+001 -1.1481e+002 -1.7527e+000 66148 69786,69838,69812
 6.3000e+000 70137 -3.1656e+001 -1.2531e+002 -5.9272e+000 65950 70036,70088,70062
 6.3000e+000 70114 -2.7942e+001 -1.3858e+002  7.0665e+000 65950 70010,70088,70036
 6.3000e+000 70470 -2.5432e+001 -9.3116e+001  6.6098e+000 65546 70245,70323,70271
 6.3000e+000 70447 -1.9456e+001 -8.4301e+001  3.0052e+000 65546 70245,70375,70323
 6.3000e+000 70424 -2.3596e+001 -1.0619e+002  3.8429e+000 65546 70323,70375,70349
 6.3000e+000 70401 -2.2377e+001 -8.7185e+001  3.1208e+000 65546 70271,70323,70297
 6.3000e+000 70620 -4.3665e+001 -1.0575e+002  3.8510e+000 65348 70493,70545,70519
 6.3000e+000 70597 -3.5265e+001 -1.1324e+002  3.6228e+000 65348 70493,70571,70545
 6.3000e+000 70721 -7.9526e+001 -1.4144e+002 -2.8134e+000 65150 70643,70695,70669
 6.3000e+000 71020 -4.0745e+001 -8.3634e+001  4.2919e+000 64952 71043,70850,70824
 6.3000e+000 70997 -3.6283e+001 -8.0526e+001 -2.1606e+000 64952 71043,70824,70772
 6.3000e+000 70974 -3.7838e+001 -1.0774e+002  4.2082e+000 64952 71115,70746,70876
 6.3000e+000 70951 -3.3669e+001 -1.1051e+002  1.4168e-001 64952 70746,70902,70876
 6.3000e+000 70928 -3.8672e+001 -7.2613e+001 -7.3318e+000 64952 70772,70824,70798
 6.3000e+000 71069 -2.3750e+001 -7.1676e+001  1.6361e+001 64952 70876,70850,71043
 6.3000e+000 71092 -3.4532e+001 -9.8412e+001  5.6819e+000 64952 71115,70876,71043
 6.3000e+000 71141 -4.8205e+001 -9.6754e+001 -4.6676e+000 64952 70772,70746,71115
 6.3000e+000 71164 -4.2318e+001 -8.2975e+001 -3.1226e+000 64952 70772,71115,71043
 6.3000e+000 71365 -1.3523e+001 -1.1808e+002 -3.8619e+000 64662 71215,71293,71267
 6.3000e+000 71342  1.0098e+001 -7.8789e+001 -1.4815e+001 64662 71189,71293,71215
 6.3000e+000 71319  5.9776e+000 -7.0289e+001 -1.2346e+000 64662 71215,71267,71241
 6.3000e+000 71615 -3.4221e+001 -9.5505e+001 -9.5814e-001 64350 71710,71638,71468
 6.3000e+000 71592 -3.3061e+001 -9.3118e+001 -3.8348e+000 64350 71638,71416,71390
 6.3000e+000 71569 -3.7074e+001 -8.8603e+001  5.0333e+000 64350 71710,71468,71442
 6.3000e+000 71546  2.5317e+000 -9.2816e+001 -1.1672e+001 64350 71390,71520,71494
 6.3000e+000 71664 -3.0015e+001 -9.3914e+001 -3.7561e-001 64350 71494,71468,71638
 6.3000e+000 71687 -3.0405e+001 -9.8008e+001 -1.9328e-001 64350 71494,71638,71390
 6.3000e+000 71736 -2.9166e+001 -8.1300e+001 -1.2644e+000 64350 71416,71638,71710
 6.3000e+000 71759 -3.1697e+001 -7.5422e+001  6.1659e+000 64350 71416,71710,71442
 6.3000e+000 72318 -3.5939e+001 -1.4842e+002 -6.0398e+000 63837 71972,72024,71998
 6.3000e+000 72295 -4.2858e+001 -9.7042e+001 -5.6990e-001 63837 72341,71972,71946
 6.3000e+000 72272 -3.9705e+001 -7.8598e+001  4.3208e+000 63837 72413,72341,71946
 6.3000e+000 72249 -3.9557e+001 -7.1326e+001  2.2597e+000 63837 72413,71946,72128
 6.3000e+000 72226 -5.3473e+001 -8.4611e+001  1.4841e+000 63837 72024,72076,72050
 6.3000e+000 72203 -4.9952e+001 -7.7727e+001 -2.4615e+000 63837 72024,72102,72076
 6.3000e+000 72180 -3.3626e+001 -6.9437e+001  5.0180e+000 63837 71946,72154,72128
 6.3000e+000 72367 -5.2591e+001 -1.0438e+002 -1.7726e+001 63837 72024,71972,72341
 6.3000e+000 72390 -4.1383e+001 -8.4376e+001 -6.9078e+000 63837 72024,72341,72102
 6.3000e+000 72439 -3.5408e+001 -9.0322e+001  1.6380e+000 63837 72102,72341,72413
 6.3000e+000 72462 -3.4904e+001 -8.2414e+001  5.0467e-001 63837 72102,72413,72128
 6.3000e+000 72791 -5.2247e+001 -9.3511e+001 -9.9265e+000 63383 72592,72696,72670
 6.3000e+000 72768 -5.3329e+001 -8.9062e+001 -1.5985e+001 63383 72566,72696,72592
 6.3000e+000 72745 -5.0222e+001 -8.1785e+001 -8.8975e-001 63383 72592,72670,72618
 6.3000e+000 72722 -4.7927e+001 -7.4159e+001 -2.2592e+000 63383 72618,72670,72644
 6.3000e+000 73297 -5.9139e+001 -8.1842e+001 -1.2126e+000 63185 73000,73156,73130
 6.3000e+000 73274 -5.8707e+001 -8.3316e+001  9.7142e+000 63185 72974,73156,73000
 6.3000e+000 73251 -4.6083e+001 -9.4583e+001 -1.2880e+000 63185 73000,73052,73026
 6.3000e+000 73228 -5.0084e+001 -8.3807e+001 -4.2369e+000 63185 73000,73130,73052
 6.3000e+000 73205 -5.0409e+001 -9.6213e+001 -1.4350e+001 63185 73052,73130,73104
 6.3000e+000 73182 -4.5375e+001 -1.0241e+002 -1.4038e+001 63185 73052,73104,73078
 6.3000e+000 73545 -2.7753e+001 -9.2448e+001  1.9866e+000 62781 73568,73398,73372
 6.3000e+000 73522 -1.6688e+001 -8.6072e+001  9.7550e+000 62781 73568,73372,73346
 6.3000e+000 73499 -3.6932e+001 -1.0443e+002 -1.0460e+001 62781 73640,73320,73424
 6.3000e+000 73476 -3.6967e+001 -7.0065e+001 -1.8581e+001 62781 73320,73450,73424
 6.3000e+000 73594 -3.0254e+001 -8.8475e+001  1.7687e+000 62781 73424,73398,73568
 6.3000e+000 73617 -3.2457e+001 -9.9577e+001 -9.1482e-001 62781 73640,73424,73568
 6.3000e+000 73666 -3.1578e+001 -9.3210e+001 -3.4479e+000 62781 73346,73320,73640
 6.3000e+000 73689 -2.8579e+001 -8.4706e+001  5.2551e+000 62781 73346,73640,73568
 6.3000e+000 74035 -3.6412e+001 -8.9769e+001 -2.1499e+000 62363 74058,73868,73842
 6.3000e+000 74012 -3.2184e+001 -8.1643e+001 -7.9362e+000 62363 74130,74058,73842
 6.3000e+000 73989 -2.9435e+001 -8.1007e+001 -8.6224e+000 62363 74130,73842,73816
 6.3000e+000 73966 -4.5959e+001 -9.3799e+001  1.1994e+000 62363 74202,73764,73894
 6.3000e+000 73943 -6.0016e+001 -8.6505e+001  1.0193e+000 62363 73712,73894,73764
 6.3000e+000 73920 -6.5064e+001 -9.3809e+001 -1.1380e+000 62363 73712,73764,73738
 6.3000e+000 74084 -3.5000e+001 -8.9540e+001 -1.6557e+000 62363 73894,73868,74058
 6.3000e+000 74107 -4.2670e+001 -8.9750e+001  3.6036e+000 62363 74202,73894,74058
 6.3000e+000 74156 -3.5725e+001 -8.3450e+001  1.7013e+000 62363 73790,74058,74130
 6.3000e+000 74179 -2.2762e+001 -7.8691e+001  1.9302e+000 62363 73790,74130,73816
 6.3000e+000 74228 -4.9324e+001 -9.5307e+001 -4.6170e+000 62363 73790,73764,74202
 6.3000e+000 74251 -4.6734e+001 -9.0911e+001 -2.2687e+000 62363 73790,74202,74058
 6.3000e+000 74403 -7.0821e+000 -9.6048e+001  6.0475e+000 62115 74426,74302,74276
 6.3000e+000 74380  7.2423e+000 -9.1912e+001  1.1933e+001 62115 74426,74276,74354
 6.3000e+000 74452 -2.0600e+001 -8.7841e+001  5.7333e+000 62115 74328,74302,74426
 6.3000e+000 74475 -7.3159e+000 -8.4185e+001  1.1967e+001 62115 74328,74426,74354
 6.3000e+000 74578 -1.4968e+000 -6.5517e+001 -1.6256e+000 61825 74500,74552,74526
 6.3000e+000 74982 -4.6296e+001 -8.0905e+001 -2.5683e-001 61513 75005,74734,74708
 6.3000e+000 74959 -4.7194e+001 -7.7465e+001 -1.1204e+000 61513 75005,74708,74864
 6.3000e+000 74936 -6.1234e+001 -8.3383e+001  4.9254e+000 61513 75077,74812,74734
 6.3000e+000 74913 -4.7465e+001 -7.6022e+001 -6.5629e+000 61513 74734,74786,74760
 6.3000e+000 74890 -4.7043e+001 -7.1042e+001 -2.5533e+000 61513 74734,74812,74786
 6.3000e+000 75031 -4.4985e+001 -8.3094e+001 -2.3516e-001 61513 75077,74734,75005
 6.3000e+000 75054 -3.6343e+001 -8.0316e+001  1.1948e+001 61513 74838,75005,74864
 6.3000e+000 75103 -7.0311e+001 -8.7268e+001  1.9662e+001 61513 74838,74812,75077
 6.3000e+000 75126 -5.9835e+001 -9.1055e+001  1.4549e+001 61513 74838,75077,75005
 6.3000e+000 75553 -2.6399e+001 -7.5297e+001 -3.3466e+000 61060 75576,75360,75308
 6.3000e+000 75530 -2.5913e+001 -7.9991e+001 -3.2371e+000 61060 75576,75308,75230
 6.3000e+000 75507 -2.4200e+001 -7.3226e+001 -1.8182e+000 61060 75308,75360,75334
 6.3000e+000 75484 -3.3255e+001 -9.3239e+001  3.8372e+000 61060 75230,75308,75256
 6.3000e+000 75461 -2.7853e+001 -8.7976e+001  1.2948e+000 61060 75256,75308,75282
 6.3000e+000 75438 -3.1078e+001 -7.2213e+001  7.9094e+000 61060 75360,75412,75386
 6.3000e+000 75602 -2.3333e+001 -7.9142e+001 -6.7946e-001 61060 75412,75360,75576
 6.3000e+000 75625 -2.5097e+001 -8.7233e+001 -1.4019e+000 61060 75412,75576,75230
 6.3000e+000 76052 -3.8497e+001 -7.8923e+001  6.9225e-001 60442 75755,75859,75833
 6.3000e+000 76029 -4.2380e+001 -7.3981e+001 -6.2290e+000 60442 75729,75859,75755
 6.3000e+000 76006 -3.9053e+001 -7.2196e+001  3.8219e+000 60442 75755,75833,75807
 6.3000e+000 75983 -4.1252e+001 -8.5519e+001  8.2619e-001 60442 75755,75807,75781
 6.3000e+000 75960 -8.5486e+000 -1.3782e+002  4.6844e+000 60442 75729,75911,75859
 6.3000e+000 75937 -7.5281e+001 -3.3255e+002  2.0945e+001 60442 75859,75911,75885
 6.3000e+000 76430 -4.0953e+001 -1.0419e+002 -1.9342e+000 59788 76453,76286,76234
 6.3000e+000 76407 -4.4768e+001 -1.1837e+002  2.4551e+000 59788 76453,76234,76182
 6.3000e+000 76384 -4.3651e+001 -7.9698e+001  1.4108e+001 59788 76525,76156,76312
 6.3000e+000 76361 -2.6838e+001 -1.3634e+002 -6.0311e-001 59788 76182,76234,76208
 6.3000e+000 76338 -3.4044e+001 -9.8558e+001  6.5468e-001 59788 76234,76286,76260
 6.3000e+000 76479 -4.7598e+001 -1.1173e+002  2.5786e+000 59788 76312,76286,76453
 6.3000e+000 76502 -4.1093e+001 -1.0585e+002  6.4628e+000 59788 76525,76312,76453
 6.3000e+000 76551 -5.4471e+001 -1.1254e+002  1.4227e+001 59788 76182,76156,76525
 6.3000e+000 76574 -4.8485e+001 -1.2039e+002  9.0160e+000 59788 76182,76525,76453
 6.3000e+000 77031 -2.8610e+001 -6.4792e+001 -8.7947e+000 59448 76835,76887,76861
 6.3000e+000 77008 -1.2602e+001 -5.2255e+001  2.2531e+000 59448 76835,76913,76887
 6.3000e+000 76985 -1.6545e+001 -4.3969e+001  8.5589e+000 59448 76809,76913,76835
 6.3000e+000 76962 -3.2317e+001 -5.8508e+001 -8.0427e-001 59448 76757,76913,76809
 6.3000e+000 76939 -2.8477e+001 -5.3086e+001 -2.4933e+000 59448 76757,76809,76783
 6.3000e+000 77537 -3.6832e+001 -8.0686e+001  3.6968e+000 58994 77560,77344,77292
 6.3000e+000 77514 -5.2895e+001 -7.7154e+001  1.1328e+000 58994 77560,77292,77240
 6.3000e+000 77491 -2.9644e+001 -7.0754e+001 -2.4018e+000 58994 77632,77214,77370
 6.3000e+000 77468 -5.9637e+001 -9.1484e+001  1.5040e+001 58994 77292,77344,77318
 6.3000e+000 77445 -2.9016e+001 -8.9990e+001  2.2979e+000 58994 77214,77396,77370
 6.3000e+000 77422 -5.5798e+001 -8.5532e+001 -5.5270e-001 58994 77240,77292,77266
 6.3000e+000 77586 -3.9132e+001 -7.9799e+001  3.8701e+000 58994 77370,77344,77560
 6.3000e+000 77609 -3.9151e+001 -7.6394e+001  5.4110e+000 58994 77632,77370,77560
 6.3000e+000 77658 -2.4466e+001 -6.4927e+001 -1.1342e+001 58994 77240,77214,77632
 6.3000e+000 77681 -3.1639e+001 -6.4202e+001 -4.3068e+000 58994 77240,77632,77560
 6.3000e+000 78138 -3.5178e+001 -6.0172e+001  7.9740e+000 58440 77864,77994,77890
 6.3000e+000 78115 -2.5333e+001 -3.8407e+001 -4.5828e+000 58440 77864,78020,77994
 6.3000e+000 78092 -4.0944e+001 -6.9992e+001 -6.7554e+000 58440 77942,77994,77968
 6.3000e+000 78069 -3.2897e+001 -6.6870e+001  1.4021e+000 58440 77890,77994,77942
 6.3000e+000 78046 -2.8212e+001 -6.5246e+001 -1.6120e+000 58440 77890,77942,77916
 6.3000e+000 78467 -8.9277e+000 -7.4529e+001  1.0607e+000 57928 78562,78490,78346
 6.3000e+000 78444 -2.8469e+001 -7.3837e+001 -1.3446e+000 57928 78490,78294,78268
 6.3000e+000 78421 -4.5619e+000 -7.8249e+001  4.6741e+000 57928 78562,78346,78320
 6.3000e+000 78398 -1.3290e+001 -7.1119e+001  4.0659e-002 57928 78242,78372,78268
 6.3000e+000 78516 -2.6059e+001 -9.2279e+001 -6.3595e+000 57928 78372,78346,78490
 6.3000e+000 78539 -2.1333e+001 -7.1383e+001 -1.8277e+000 57928 78372,78490,78268
 6.3000e+000 78588 -2.8893e+001 -7.4416e+001 -7.6526e-001 57928 78294,78490,78562
 6.3000e+000 78611 -1.6163e+001 -6.8617e+001  6.1027e+000 57928 78294,78562,78320
 6.3000e+000 79068 -5.9398e+001 -1.2612e+002 -3.1254e+001 57467 78794,78924,78820
 6.3000e+000 79045 -4.7967e+001 -1.2051e+002 -2.8501e+001 57467 78794,78950,78924
 6.3000e+000 79022 -2.4006e+001 -1.1279e+002  1.1956e+001 57467 78820,78898,78872
 6.3000e+000 78999 -4.3973e+001 -1.5670e+002 -1.6145e+001 57467 78820,78924,78898
 6.3000e+000 78976 -1.8933e+001 -1.1499e+002  1.8072e+001 57467 78820,78872,78846
 6.3000e+000 79446 -4.9835e+001 -8.9899e+001 -5.6766e-001 57120 79172,79302,79250
 6.3000e+000 79423 -4.5281e+001 -8.7794e+001 -3.8420e+000 57120 79172,79328,79302
 6.3000e+000 79400 -4.6081e+001 -7.9304e+001 -3.3602e+000 57120 79172,79250,79198
 6.3000e+000 79377 -3.6504e+001 -1.1273e+002  3.3810e+000 57120 79250,79302,79276
 6.3000e+000 79354 -5.5969e+001 -8.7176e+001 -7.3824e+000 57120 79198,79250,79224
 6.3000e+000 79952 -6.7248e+001 -1.0636e+002  3.0088e-001 56773 79629,79785,79655
 6.3000e+000 79929 -2.0835e+001 -9.1981e+001  4.4317e+000 56773 79629,79811,79785
 6.3000e+000 79906 -5.2245e+001 -1.1429e+002  8.0580e+000 56773 79655,79733,79681
 6.3000e+000 79883 -5.1058e+001 -1.0143e+002  2.2764e+000 56773 79655,79785,79733
 6.3000e+000 79860 -4.8774e+001 -1.3558e+002 -1.5576e+001 56773 79733,79785,79759
 6.3000e+000 79837 -2.9288e+001 -1.0358e+002  2.1039e+001 56773 79681,79733,79707
 6.3000e+000 80281 -2.7526e+001 -7.4212e+001 -6.7505e+000 56319 80108,80160,80134
 6.3000e+000 80258 -2.7660e+001 -7.9543e+001 -7.5443e+000 56319 80056,80160,80108
 6.3000e+000 80235 -1.5357e+001 -7.1213e+001  3.5554e+000 56319 80056,80186,80160
 6.3000e+000 80212 -3.4440e+001 -1.0222e+002 -6.1082e+000 56319 80056,80108,80082
 6.3000e+000 80738 -1.5674e+001 -9.4443e+001  4.5039e+000 55957 80516,80620,80594
 6.3000e+000 80715 -3.6105e+001 -8.5205e+001  3.5061e+000 55957 80464,80620,80516
 6.3000e+000 80692 -3.0359e+001 -1.0271e+002  5.1526e+000 55957 80761,80568,80542
 6.3000e+000 80669 -2.5615e+001 -1.0112e+002  6.0838e+000 55957 80761,80542,80516
 6.3000e+000 80646 -3.5324e+001 -8.3069e+001  1.1404e+001 55957 80464,80516,80490
 6.3000e+000 80787 -3.5092e+001 -1.0203e+002  3.6610e+000 55957 80594,80568,80761
 6.3000e+000 80810 -3.0641e+001 -1.0057e+002  4.6449e+000 55957 80594,80761,80516
 6.3000e+000 81210 -3.2465e+001 -1.0079e+002 -7.4227e+000 55317 80936,80988,80962
 6.3000e+000 81187 -2.8066e+001 -1.0557e+002  2.9595e-001 55317 80936,81066,80988
 6.3000e+000 81164 -2.3988e+001 -1.1360e+002  2.7635e+000 55317 80936,81092,81066
 6.3000e+000 81141 -3.9815e+001 -1.1341e+002 -9.5657e+000 55317 80988,81066,81014
 6.3000e+000 81118 -9.8696e+000 -6.4935e+001  7.3247e+000 55317 81014,81066,81040
 6.3000e+000 81539 -4.1834e+001 -8.9301e+001  5.5698e-001 54913 81340,81418,81392
 6.3000e+000 81516 -1.8470e+001 -7.4397e+001 -6.6161e+000 54913 81340,81444,81418
 6.3000e+000 81493 -2.7268e+001 -7.9869e+001 -1.2177e+001 54913 81314,81444,81340
 6.3000e+000 81470 -5.0228e+001 -9.8975e+001 -2.9901e+000 54913 81340,81392,81366
 6.3000e+000 81787 -2.6154e+001 -9.7154e+001 -1.0715e+000 54601 81588,81692,81640
 6.3000e+000 81764 -3.9054e+001 -9.8669e+001 -3.8881e+000 54601 81562,81692,81588
 6.3000e+000 81741 -2.4798e+001 -1.0002e+002  1.1727e+001 54601 81588,81640,81614
 6.3000e+000 81718 -2.6349e+001 -1.1532e+002 -1.1189e+001 54601 81640,81692,81666
 6.3000e+000 82344 -3.4091e+001 -9.2014e+001 -4.0882e+000 54090 81998,82102,82076
 6.3000e+000 82321 -4.6132e+001 -9.7231e+001 -2.9787e+000 54090 81998,82154,82102
 6.3000e+000 82298 -4.2762e+001 -9.5384e+001 -2.0496e+000 54090 81972,82154,81998
 6.3000e+000 82275 -4.7039e+001 -8.4459e+001 -5.4080e+000 54090 81998,82076,82024
 6.3000e+000 82252 -5.2034e+001 -1.0191e+002  4.7897e+000 54090 81972,82180,82154
 6.3000e+000 82229 -6.5311e+001 -1.2048e+002  7.2323e+000 54090 82102,82154,82128
 6.3000e+000 82206 -6.3621e+000 -6.3736e+001 -1.2779e+001 54090 82024,82076,82050
 6.3000e+000 82722 -6.3847e+001 -1.1434e+002 -3.0056e+000 53579 82500,82578,82552
 6.3000e+000 82699 -4.9915e+001 -1.0556e+002  2.6241e+000 53579 82448,82578,82500
 6.3000e+000 82676 -5.5675e+001 -1.1823e+002  4.3911e+000 53579 82448,82500,82474
 6.3000e+000 82653 -6.2323e+001 -1.1226e+002  8.4833e+000 53579 82448,82604,82578
 6.3000e+000 82630 -3.6400e+001 -1.0701e+002 -3.4637e+000 53579 82500,82552,82526
 6.3000e+000 83356 -3.3245e+001 -8.5700e+001 -7.6738e+000 53189 83379,83088,83036
 6.3000e+000 83333 -3.2278e+001 -9.6433e+001 -6.8859e+000 53189 83379,83036,82984
 6.3000e+000 83310 -1.4453e+001 -8.9829e+001  1.4147e+001 53189 82984,83192,83166
 6.3000e+000 83287 -2.3554e+000 -7.1450e+001 -4.1707e+000 53189 83036,83088,83062
 6.3000e+000 83264 -2.3754e+001 -1.0765e+002 -1.5367e+001 53189 82984,83036,83010
 6.3000e+000 83241 -2.4662e+001 -1.0801e+002  3.2989e+000 53189 83114,83166,83140
 6.3000e+000 83218 -4.6358e+001 -1.1381e+002  2.9554e+000 53189 83088,83166,83114
 6.3000e+000 83405 -3.3285e+001 -9.2929e+001 -3.2300e+000 53189 83166,83088,83379
 6.3000e+000 83428 -3.0727e+001 -1.0240e+002 -3.1185e+000 53189 83166,83379,82984
 6.3000e+000 83725 -3.8625e+001 -1.1153e+002 -1.2710e+001 52585 83748,83529,83503
 6.3000e+000 83702 -2.8007e+001 -1.0825e+002 -8.2843e+000 52585 83820,83748,83503
 6.3000e+000 83679 -1.8266e+001 -1.0348e+002 -6.2061e+000 52585 83820,83503,83477
 6.3000e+000 83656 -1.4573e+001 -9.2052e+001  8.2953e+000 52585 83477,83607,83581
 6.3000e+000 83633  3.3834e+000 -8.3553e+001  1.1363e+001 52585 83451,83607,83477
 6.3000e+000 83774 -3.2821e+001 -9.7006e+001 -1.1172e+001 52585 83555,83529,83748
 6.3000e+000 83797 -4.5060e+001 -1.0569e+002 -7.3847e+000 52585 83555,83748,83581
 6.3000e+000 83846 -3.7224e+001 -9.9162e+001 -3.0639e+000 52585 83581,83748,83820
 6.3000e+000 83869 -3.0824e+001 -9.6752e+001 -2.1624e+000 52585 83581,83820,83477
 6.3000e+000 84200 -2.8364e+001 -9.8225e+001 -3.8100e+000 52024 84001,84105,84079
 6.3000e+000 84177 -1.5868e+001 -9.6311e+001 -7.5135e+000 52024 83975,84105,84001
 6.3000e+000 84154 -2.4975e+001 -9.8455e+001 -3.1180e+000 52024 84001,84079,84053
 6.3000e+000 84131 -1.2602e+001 -6.6281e+001  1.1144e+001 52024 84001,84053,84027
 6.3000e+000 84399 -2.8314e+001 -9.8634e+001 -1.3140e+000 51470 84422,84275,84249
 6.3000e+000 84376 -2.8532e+001 -9.7007e+001 -1.1410e+000 51470 84422,84249,84223
 6.3000e+000 84353 -2.9570e+001 -1.0594e+002 -1.5229e+001 51470 84275,84327,84301
 6.3000e+000 84448 -2.8227e+001 -9.7386e+001 -1.5486e+000 51470 84327,84275,84422
 6.3000e+000 84471 -2.8718e+001 -9.6097e+001 -1.3241e+000 51470 84327,84422,84223
 6.3000e+000 84753 -2.8705e+001 -8.1775e+001 -1.0911e+000 51073 84603,84655,84629
 6.3000e+000 84730 -5.7437e+001 -9.4292e+001 -4.0015e+000 51073 84776,84655,84603
 6.3000e+000 84707 -1.4933e+001 -8.1125e+001 -2.2158e+001 51073 84577,84681,84655
 6.3000e+000 84802 -3.7059e+001 -8.2478e+001 -1.0970e+001 51073 84577,84655,84776
 6.3000e+000 85178 -5.5921e+001 -1.2444e+002  1.1088e+001 50519 85201,85008,84982
 6.3000e+000 85155 -5.2881e+001 -1.1615e+002  9.1930e+000 50519 85273,85201,84982
 6.3000e+000 85132 -5.0862e+001 -1.1563e+002  7.9717e+000 50519 85273,84982,84930
 6.3000e+000 85109 -4.8327e+001 -1.1162e+002  6.6869e+000 50519 84930,84982,84956
 6.3000e+000 85086 -5.0811e+001 -1.2178e+002  6.6514e+000 50519 85008,85060,85034
 6.3000e+000 85227 -4.8891e+001 -1.1966e+002  5.5024e+000 50519 85060,85008,85201
 6.3000e+000 85250 -5.3124e+001 -1.2034e+002  4.3069e+000 50519 85060,85201,84904
 6.3000e+000 85299 -5.1331e+001 -1.1841e+002  3.4192e+000 50519 84904,85201,85273
 6.3000e+000 85322 -4.2240e+001 -1.0429e+002 -4.8878e-001 50519 84904,85273,84930
 6.3000e+000 85958 -3.6891e+001 -1.0611e+002 -3.4247e+000 50093 85981,85768,85716
 6.3000e+000 85935 -3.2854e+001 -9.6722e+001 -3.0152e+000 50093 85981,85716,85612
 6.3000e+000 85912 -4.4443e+001 -9.9560e+001  2.1777e+000 50093 85612,85716,85664
 6.3000e+000 85889 -2.8818e+001 -1.0275e+002 -9.7644e-001 50093 85716,85768,85742
 6.3000e+000 85866 -3.6772e+001 -7.6922e+001 -2.0954e+001 50093 85664,85716,85690
 6.3000e+000 85843 -1.2926e+001 -7.2926e+001 -3.1050e+000 50093 85586,85794,85612
 6.3000e+000 85820 -3.0400e+001 -1.3590e+002  1.2055e+001 50093 85612,85664,85638
 6.3000e+000 86007 -4.5587e+001 -1.1466e+002 -1.7038e+001 50093 85794,85768,85981
 6.3000e+000 86030 -3.2825e+001 -8.6839e+001 -1.3185e+001 50093 85794,85981,85612
 6.3000e+000 86131 -3.1657e+001 -9.2508e+001  1.2771e+001 49895 86053,86105,86079
 6.3000e+000 86639 -2.7591e+001 -7.2038e+001 -1.4836e+001 49391 86662,86394,86368
 6.3000e+000 86616 -3.2981e+001 -8.9714e+001 -1.3413e+001 49391 86662,86368,86342
 6.3000e+000 86593 -1.6059e+001 -8.9633e+001 -3.9744e+000 49391 86342,86498,86472
 6.3000e+000 86570 -1.0437e+001 -9.5609e+001 -4.2266e+000 49391 86316,86498,86342
 6.3000e+000 86547 -5.1725e+001 -1.3835e+002 -4.2374e+000 49391 86394,86472,86446
 6.3000e+000 86524 -6.4980e+000 -1.3371e+002  2.0140e+000 49391 86394,86446,86420
 6.3000e+000 86688 -3.0529e+001 -8.8500e+001 -7.1905e+000 49391 86472,86394,86662
 6.3000e+000 86711 -2.7714e+001 -9.6130e+001 -7.0783e+000 49391 86472,86662,86342
 6.3000e+000 87089 -3.9670e+001 -1.0313e+002  3.3185e+000 48987 86815,86919,86867
 6.3000e+000 87066 -3.9113e+001 -1.0673e+002  5.1382e+000 48987 86815,86971,86919
 6.3000e+000 87043 -1.6204e+001 -1.1207e+002 -8.2887e+000 48987 86867,86919,86893
 6.3000e+000 87020 -4.4965e+001 -1.1775e+002  1.0653e+001 48987 86815,86867,86841
 6.3000e+000 86997 -4.3447e+001 -9.2309e+001  1.5167e+001 48987 86919,86971,86945
 6.3000e+000 87467 -7.2776e+001 -1.0433e+002  6.6175e+000 48540 87490,87245,87219
 6.3000e+000 87444 -5.1103e+001 -9.8059e+001  1.7392e+000 48540 87562,87490,87219
 6.3000e+000 87421 -4.0300e+001 -9.3686e+001  4.8235e+000 48540 87562,87219,87349
 6.3000e+000 87398 -5.1559e+001 -7.9512e+001 -2.7058e+000 48540 87245,87297,87271
 6.3000e+000 87375 -3.4713e+001 -9.8974e+001  3.3964e+000 48540 87193,87349,87219
 6.3000e+000 87516 -4.8765e+001 -9.7406e+001  4.1838e+000 48540 87297,87245,87490
 6.3000e+000 87539 -4.9164e+001 -1.0027e+002  3.1980e+000 48540 87297,87490,87323
 6.3000e+000 87588 -4.0667e+001 -9.3691e+001  8.9083e+000 48540 87323,87490,87562
 6.3000e+000 87611 -3.5394e+001 -9.4774e+001  1.0948e+001 48540 87323,87562,87349
 6.3000e+000 87810 -4.3691e+001 -1.5379e+002 -1.1186e+001 48136 87660,87712,87686
 6.3000e+000 87787 -2.4546e+001 -8.9409e+001 -5.4185e+000 48136 87660,87738,87712
 6.3000e+000 87764 -5.9106e+001 -9.3492e+001 -1.5619e+001 48136 87634,87738,87660
 6.3000e+000 88205 -4.5758e+001 -1.0981e+002 -1.2142e+001 47210 88300,88228,87937
 6.3000e+000 88182 -3.9845e+001 -1.0622e+002 -4.3855e+000 47210 88228,87833,88041
 6.3000e+000 88159 -4.6717e+001 -1.1868e+002 -1.8168e+001 47210 88300,87937,87911
 6.3000e+000 88136 -4.3600e+001 -1.0663e+002 -1.4229e+001 47210 87833,87911,87859
 6.3000e+000 88113 -7.8708e+001 -9.7148e+001 -1.3029e+001 47210 87937,87989,87963
 6.3000e+000 88090 -3.9538e+001 -8.5729e+001  1.8204e+001 47210 87989,88041,88015
 6.3000e+000 88067 -5.0168e+001 -1.2323e+002 -1.8528e+001 47210 87859,87911,87885
 6.3000e+000 88254 -4.0411e+001 -8.7229e+001 -1.2841e+001 47210 87989,87937,88228
 6.3000e+000 88277 -4.9803e+001 -1.0403e+002 -5.5085e+000 47210 87989,88228,88041
 6.3000e+000 88326 -3.7870e+001 -1.0164e+002 -5.2219e+000 47210 87833,88228,88300
 6.3000e+000 88349 -4.0021e+001 -1.0745e+002 -1.1749e+001 47210 87833,88300,87911
 6.3000e+000 88780 -5.9883e+001 -1.0781e+002 -1.9940e+001 46642 88803,88509,88483
 6.3000e+000 88757 -4.4256e+001 -9.7824e+001 -1.0755e+001 46642 88803,88483,88639
 6.3000e+000 88734 -4.7906e+001 -8.0302e+001 -1.2889e+001 46642 88875,88561,88509
 6.3000e+000 88711 -4.9042e+001 -7.3849e+001 -1.2981e+000 46642 88509,88561,88535
 6.3000e+000 88688 -2.8341e+001 -1.0782e+002  4.5738e-001 46642 88457,88639,88483
 6.3000e+000 88665 -5.5913e+001 -1.3219e+002 -6.1833e+000 46642 88561,88613,88587
 6.3000e+000 88829 -4.8557e+001 -8.7599e+001 -1.4546e+001 46642 88875,88509,88803
 6.3000e+000 88852 -4.7844e+001 -1.0532e+002 -9.6636e+000 46642 88613,88803,88639
 6.3000e+000 88901 -3.9156e+001 -9.0366e+001 -6.7773e+000 46642 88613,88561,88875
 6.3000e+000 88924 -4.2950e+001 -1.0207e+002 -8.2303e+000 46642 88613,88875,88803
 6.3000e+000 89253 -1.8483e+001 -1.0105e+002  1.5962e+000 46444 89080,89158,89132
 6.3000e+000 89230 -1.9657e+001 -1.0318e+002  1.6032e-001 46444 89028,89158,89080
 6.3000e+000 89207 -8.7018e+000 -9.4935e+001 -3.4775e+000 46444 89028,89080,89054
 6.3000e+000 89184 -4.8221e+000 -1.1019e+002 -1.0572e+001 46444 89080,89132,89106
 6.3000e+000 89631 -3.2421e+001 -7.3014e+001  2.2821e+000 46040 89383,89461,89435
 6.3000e+000 89608 -3.3929e+001 -8.0281e+001 -4.4633e+000 46040 89383,89487,89461
 6.3000e+000 89585 -3.5949e+001 -9.4498e+001 -2.3234e+000 46040 89383,89435,89409
 6.3000e+000 89562 -2.6424e+001 -6.7999e+001 -9.6893e+000 46040 89383,89513,89487
 6.3000e+000 89539 -1.0996e+001 -6.0401e+001 -1.3074e+001 46040 89357,89513,89383
 6.3000e+000 90009 -3.4340e+001 -9.3435e+001 -1.2133e-001 45636 89813,89891,89839
 6.3000e+000 89986 -3.5088e+001 -8.6556e+001  5.4399e+000 45636 89787,89891,89813
 6.3000e+000 89963 -3.1085e+001 -8.7807e+001 -2.1077e+000 45636 89839,89891,89865
 6.3000e+000 89940 -3.9999e+001 -9.6808e+001  3.4755e+000 45636 89735,89891,89787
 6.3000e+000 89917 -3.1340e+001 -9.7356e+001 -4.0167e+000 45636 89735,89787,89761
 6.3000e+000 90208 -2.0902e+001 -7.1738e+001 -1.4816e+001 45175 90231,90058,90032
 6.3000e+000 90185 -1.2726e+001 -6.5700e+001 -2.1813e+001 45175 90231,90032,90136
 6.3000e+000 90162 -2.3250e+001 -5.4680e+001 -1.2127e+000 45175 90058,90110,90084
 6.3000e+000 90257 -3.0072e+001 -8.0458e+001 -4.4806e+000 45175 90110,90058,90231
 6.3000e+000 90280 -1.4454e+001 -6.9959e+001 -1.2278e+001 45175 90110,90231,90136
 6.3000e+000 90528 -2.2595e+001 -7.2096e+001 -1.0264e+001 44513 90695,90551,90407
 6.3000e+000 90505 -2.5184e+001 -6.6529e+001 -7.0082e+000 44513 90551,90355,90329
 6.3000e+000 90482 -2.7792e+001 -7.0078e+001 -9.1365e+000 44513 90623,90303,90433
 6.3000e+000 90459 -1.8750e+001 -6.6762e+001 -7.1011e+000 44513 90695,90407,90381
 6.3000e+000 90577 -3.2622e+001 -7.5304e+001 -1.6753e+001 44513 90433,90407,90551
 6.3000e+000 90600 -2.8067e+001 -6.9040e+001 -9.1075e+000 44513 90623,90433,90551
 6.3000e+000 90649 -2.7225e+001 -6.8888e+001 -9.3772e+000 44513 90329,90303,90623
 6.3000e+000 90672 -2.7653e+001 -6.8481e+001 -9.2905e+000 44513 90329,90623,90551
 6.3000e+000 90721 -2.8137e+001 -6.4598e+001 -1.1859e+001 44513 90355,90551,90695
 6.3000e+000 90744 -2.7455e+001 -6.1485e+001 -1.0563e+001 44513 90355,90695,90381
 6.3000e+000 91077  3.6172e+000 -7.4630e+001 -4.7752e+000 44059 91100,90930,90904
 6.3000e+000 91054 -3.0160e+001 -8.0958e+001  5.8081e+000 44059 91100,90904,90982
 6.3000e+000 91031 -5.3806e+001 -9.2891e+001 -5.2525e+000 44059 90878,90982,90904
 6.3000e+000 91008 -1.9662e+001 -7.3083e+001  2.9573e+000 44059 90852,90982,90878
 6.3000e+000 91126 -4.9891e+001 -8.9268e+001 -4.6736e+000 44059 91172,91100,90956
 6.3000e+000 91149 -3.0007e+001 -8.2867e+001 -3.9116e+000 44059 90956,91100,90982
 6.3000e+000 91198  4.3504e+000 -3.1626e+001 -2.6983e+001 44059 90930,91100,91172
 6.3000e+000 91677 -3.4516e+001 -5.4071e+001  5.0702e+000 43549 91455,91533,91481
 6.3000e+000 91654 -1.1912e+001 -5.3979e+001  7.4943e+000 43549 91429,91533,91455
 6.3000e+000 91631 -3.3363e+001 -5.4149e+001  2.3511e+000 43549 91481,91533,91507
 6.3000e+000 91608 -6.8395e+000 -5.1963e+001  3.0379e+000 43549 91429,91559,91533
 6.3000e+000 91585  2.1023e+000 -1.1594e+001 -8.4339e-001 43549 91403,91559,91429
 6.3000e+000 92006 -3.9193e+001 -9.4134e+001  6.2157e-001 43059 91781,91885,91807
 6.3000e+000 91983 -4.1047e+001 -8.9096e+001  1.5447e+001 43059 91781,91911,91885
 6.3000e+000 91960 -3.9050e+001 -9.3228e+001  1.1840e-001 43059 91807,91885,91833
 6.3000e+000 91937 -2.5582e+001 -8.7713e+001 -4.6017e-001 43059 91833,91885,91859
 6.3000e+000 92561 -2.5316e+001 -5.8456e+001 -6.3089e+000 42598 92584,92215,92189
 6.3000e+000 92538 -2.8440e+001 -6.4896e+001 -5.2070e+000 42598 92656,92584,92189
 6.3000e+000 92515 -2.4972e+001 -7.3301e+001 -9.5698e-001 42598 92656,92189,92397
 6.3000e+000 92492 -3.7383e+001 -5.1289e+001 -8.0478e+000 42598 92241,92319,92293
 6.3000e+000 92469 -3.1076e+001 -6.1041e+001  4.9028e+000 42598 92319,92397,92371
 6.3000e+000 92446 -7.8185e+000 -7.9508e+001  3.9006e+001 42598 92319,92371,92345
 6.3000e+000 92423 -3.4949e+001 -5.3281e+001 -1.3408e+001 42598 92241,92293,92267
 6.3000e+000 92610 -2.8639e+001 -6.0420e+001 -7.3719e+000 42598 92241,92215,92584
 6.3000e+000 92633 -2.5306e+001 -5.2680e+001 -7.6904e+000 42598 92241,92584,92319
 6.3000e+000 92682 -2.5215e+001 -5.3506e+001 -3.2420e+000 42598 92319,92584,92656
 6.3000e+000 92705 -2.0083e+001 -5.9445e+001 -2.6173e-002 42598 92319,92656,92397
 6.3000e+000 92953 -4.0492e+001 -1.0043e+002  5.4361e+000 42094 92976,92806,92780
 6.3000e+000 92930 -4.4935e+001 -9.4880e+001 -4.4624e-002 42094 92976,92780,92754
 6.3000e+000 92907 -1.3123e+001 -9.7004e+001 -4.2764e-001 42094 93048,92832,92806
 6.3000e+000 92884 -5.5321e+001 -9.7385e+001 -6.3213e+000 42094 92728,92858,92754
 6.3000e+000 93002 -2.7656e+001 -9.3286e+001  2.6287e+000 42094 93048,92806,92976
 6.3000e+000 93025 -4.1100e+001 -9.2851e+001 -1.5979e+000 42094 92858,92976,92754
 6.3000e+000 93074 -3.3436e+001 -1.0428e+002 -6.4137e-001 42094 92858,92832,93048
 6.3000e+000 93097 -4.5187e+001 -9.8782e+001  1.1263e+000 42094 92858,93048,92976
 6.3000e+000 93605 -3.9147e+001 -1.1312e+002 -5.0159e+000 41846 93628,93412,93386
 6.3000e+000 93582 -3.1634e+001 -8.4137e+001 -2.4187e+000 41846 93628,93386,93308
 6.3000e+000 93559 -4.3566e+001 -8.6350e+001 -2.0051e+001 41846 93700,93464,93438
 6.3000e+000 93536 -4.6163e+001 -1.1966e+002  5.0212e-001 41846 93308,93386,93334
 6.3000e+000 93513 -5.5480e+001 -7.7564e+001 -1.9172e+001 41846 93334,93386,93360
 6.3000e+000 93490 -3.8790e+001 -7.5758e+001 -2.2038e+001 41846 93282,93464,93308
 6.3000e+000 93654 -3.5188e+001 -8.9964e+001 -9.0518e+000 41846 93438,93412,93628
 6.3000e+000 93677 -4.5914e+001 -8.9437e+001 -8.6954e+000 41846 93700,93438,93628
 6.3000e+000 93726 -3.7477e+001 -7.2593e+001 -2.1080e+001 41846 93308,93464,93700
 6.3000e+000 93749 -3.7908e+001 -7.1229e+001 -9.9192e+000 41846 93308,93700,93628
 6.3000e+000 94255 -3.6415e+001 -9.6764e+001  6.3903e+000 41385 93958,94114,94088
 6.3000e+000 94232 -3.0064e+001 -1.0419e+002  2.6941e+000 41385 93932,94114,93958
 6.3000e+000 94209 -5.7039e+001 -1.1109e+002  1.8370e+001 41385 93958,94088,94062
 6.3000e+000 94186 -5.9204e+001 -7.9267e+001  1.3476e+001 41385 93958,94062,93984
 6.3000e+000 94163 -4.8425e+001 -7.8227e+001  1.0472e+001 41385 93984,94062,94036
 6.3000e+000 94140 -3.3261e+001 -1.0166e+002  1.4566e+001 41385 93984,94036,94010
 6.3000e+000 94476 -1.3281e+001 -1.3315e+002  7.1815e+000 40881 94326,94378,94352
 6.3000e+000 94453 -2.2799e+001 -1.0737e+002  8.9849e+000 40881 94300,94378,94326
 6.3000e+000 94430 -2.9969e+001 -9.9183e+001  9.1787e-001 40881 94300,94404,94378
 6.3000e+000 94626 -1.9643e+001 -6.4175e+001 -2.0040e+000 40591 94649,94551,94525
 6.3000e+000 94603 -1.1645e+001 -3.5793e+001  2.9805e+000 40591 94781,94577,94551
 6.3000e+000 94675 -3.9360e+000 -4.4774e+001 -9.3046e+000 40591 94781,94551,94649
 6.3000e+000 94807  7.5387e+000 -1.9471e+001  1.1987e+001 40591 94499,94577,94781
 6.3000e+000 94830  1.0834e+001 -3.6189e+001 -1.2446e+000 40591 94499,94781,94649
 6.3000e+000 95336 -7.8771e+001 -8.9680e+001 -1.7468e+001 40187 95013,95169,95039
 6.3000e+000 95313 -2.1509e+001 -7.9756e+001 -1.4084e-002 40187 95013,95195,95169
 6.3000e+000 95290 -1.3998e+001 -8.5293e+001 -1.1680e+001 40187 95039,95143,95065
 6.3000e+000 95267 -5.1962e+001 -1.0059e+002 -1.6182e+001 40187 95039,95169,95143
 6.3000e+000 95244 -1.1653e+001 -5.1102e+001 -3.1865e+000 40187 95091,95143,95117
 6.3000e+000 95221 -3.2250e+000 -3.2112e+001 -1.2820e+000 40187 95065,95143,95091
 6.3000e+000 95665 -2.0037e+001 -5.6217e+001  3.5816e+001 39626 95466,95570,95544
 6.3000e+000 95642 -4.5653e+001 -4.1828e+001  2.3264e+001 39626 95440,95570,95466
 6.3000e+000 95619 -7.8222e+001 -8.3595e+001  2.4003e+001 39626 95466,95544,95492
 6.3000e+000 95596 -1.0445e+001 -6.2472e+001  3.5316e+001 39626 95492,95544,95518
 6.3000e+000 95913 -3.8238e+001 -7.8406e+001 -1.1555e+001 39136 96080,95936,95766
 6.3000e+000 95890 -2.6338e+001 -8.5004e+001 -7.7511e+000 39136 95936,95714,95688
 6.3000e+000 95867 -6.5160e+001 -8.5158e+001  3.9911e+000 39136 96008,95792,95766
 6.3000e+000 95844 -3.2205e+001 -7.6245e+001 -8.9927e+000 39136 96080,95766,95740
 6.3000e+000 95962 -5.1608e+001 -8.7978e+001 -7.2522e+000 39136 96008,95766,95936
 6.3000e+000 95985 -3.4079e+001 -1.0501e+002 -2.1020e+000 39136 95818,95936,95688
 6.3000e+000 96034 -3.2570e+001 -7.1038e+001  5.6255e+000 39136 95818,95792,96008
 6.3000e+000 96057 -2.9000e+001 -7.7969e+001 -5.4352e+000 39136 95818,96008,95936
 6.3000e+000 96106 -3.5236e+001 -7.7815e+001 -3.3547e+000 39136 95714,95936,96080
 6.3000e+000 96129 -2.5691e+001 -7.5133e+001 -1.3991e+000 39136 95714,96080,95740
 6.3000e+000 96350 -2.4207e+001 -6.2371e+001 -4.6711e+000 38824 96200,96278,96252
 6.3000e+000 96327 -1.9405e+001 -5.9553e+001 -3.4472e+000 38824 96174,96278,96200
 6.3000e+000 96304 -1.6425e-001 -5.5110e+001 -1.3288e+001 38824 96200,96252,96226
 6.3000e+000 96830 -3.5183e+001 -6.6056e+001 -6.0382e+000 38320 97069,96536,96484
 6.3000e+000 96807 -3.4511e+001 -6.6979e+001 -5.9911e+000 38320 97069,96484,96853
 6.3000e+000 96784 -3.9338e+001 -7.1957e+001 -4.7677e-001 38320 96853,96484,96458
 6.3000e+000 96761 -2.0845e+001 -5.6783e+001 -8.6053e+000 38320 96925,96640,96614
 6.3000e+000 96738 -3.3561e+001 -5.8875e+001 -4.0151e+000 38320 96997,96666,96640
 6.3000e+000 96715 -2.9321e+001 -7.9433e+001 -3.0186e+000 38320 97141,96588,96562
 6.3000e+000 96692 -4.3673e+001 -7.4251e+001 -2.2580e+000 38320 96484,96536,96510
 6.3000e+000 96879 -3.5220e+001 -7.2198e+001 -3.7789e+000 38320 97141,96562,96853
 6.3000e+000 96902 -3.2129e+001 -6.9241e+001 -3.8495e+000 38320 96925,96614,96853
 6.3000e+000 96951 -3.2973e+001 -5.8255e+001 -4.5204e+000 38320 96997,96640,96925
 6.3000e+000 96974 -3.1467e+001 -5.7752e+001 -3.5763e+000 38320 96458,96925,96853
 6.3000e+000 97023 -3.6324e+001 -5.9784e+001 -2.5753e+000 38320 96458,96666,96997
 6.3000e+000 97046 -3.4235e+001 -5.8585e+001 -3.1481e+000 38320 96458,96997,96925
 6.3000e+000 97095 -3.5804e+001 -6.2876e+001 -2.4795e+000 38320 96562,96536,97069
 6.3000e+000 97118 -3.3055e+001 -6.6257e+001 -5.3772e+000 38320 96562,97069,96853
 6.3000e+000 97167 -1.9360e+001 -7.2549e+001 -6.0756e+000 38320 96614,96588,97141
 6.3000e+000 97190 -2.9008e+001 -6.7977e+001 -5.8978e+000 38320 96614,97141,96853
 6.3000e+000 97519 -2.5109e+001 -8.9022e+001  2.5416e+001 37766 97542,97398,97372
 6.3000e+000 97496 -2.9664e+001 -6.7402e+001  1.8684e+001 37766 97542,97372,97346
 6.3000e+000 97473 -3.0999e+001 -7.3749e+001  1.5017e-001 37766 97294,97424,97346
 6.3000e+000 97450 -3.4909e+001 -8.3854e+001 -8.3462e-002 37766 97294,97346,97320
 6.3000e+000 97568 -1.2182e+001 -9.5428e+001  7.1319e+000 37766 97424,97398,97542
 6.3000e+000 97591 -1.9661e+001 -7.0053e+001  1.7779e+000 37766 97424,97542,97346
 6.3000e+000 98048 -3.5092e+001 -5.1979e+001 -1.8330e+001 37262 98071,97878,97852
 6.3000e+000 98025 -2.9000e+001 -6.3017e+001 -7.1967e+000 37262 98071,97852,97800
 6.3000e+000 98002 -3.0610e+001 -7.5331e+001 -9.2338e+000 37262 97800,97852,97826
 6.3000e+000 97979 -3.2256e+001 -6.8048e+001 -9.4867e-002 37262 97800,97930,97904
 6.3000e+000 97956 -2.1523e+001 -7.6238e+001  3.4134e+000 37262 97774,97930,97800
 6.3000e+000 98097 -5.1887e+001 -6.0088e+001 -1.3323e+001 37262 97904,97878,98071
 6.3000e+000 98120 -3.8057e+001 -7.1691e+001 -3.0895e+000 37262 97904,98071,97800
 6.3000e+000 98449 -2.2947e+001 -5.6514e+001 -6.9763e+000 36950 98472,98302,98250
 6.3000e+000 98426 -1.4300e+001 -5.3684e+001 -8.6260e+000 36950 98472,98250,98354
 6.3000e+000 98403 -3.5515e+001 -6.5130e+001  7.4814e+000 36950 98250,98302,98276
 6.3000e+000 98380 -9.7595e+000 -4.0751e+001  6.4468e+000 36950 98224,98354,98250
 6.3000e+000 98498 -1.6512e+001 -6.3780e+001 -1.8304e+000 36950 98328,98302,98472
 6.3000e+000 98521 -6.3234e+000 -5.9517e+001 -4.9371e+000 36950 98328,98472,98354
 6.3000e+000 99125 -3.6314e+001 -3.6698e+001  8.1804e-001 36296 98704,98756,98730
 6.3000e+000 99102 -4.5070e+001 -4.0419e+001  4.2932e+000 36296 98704,98938,98756
 6.3000e+000 99079 -3.0665e+001 -5.3570e+001 -1.7018e+000 36296 99148,98938,98912
 6.3000e+000 99056 -3.1505e+001 -5.5956e+001  1.3465e+001 36296 99292,99220,98782
 6.3000e+000 99033 -2.6689e+001 -6.4049e+001  1.4587e+000 36296 99148,98912,98834
 6.3000e+000 99010 -3.1173e+001 -4.7939e+001  1.5957e+001 36296 99292,98782,98756
 6.3000e+000 98987 -2.6275e+001 -1.1330e+002 -2.0764e+001 36296 98834,98912,98886
 6.3000e+000 98964 -4.1868e+001 -1.6004e+002 -2.6248e+001 36296 98834,98886,98860
 6.3000e+000 99174 -3.8604e+001 -6.8195e+001  2.2260e+000 36296 99220,98938,99148
 6.3000e+000 99197 -2.5815e+001 -7.8288e+001  8.3861e+000 36296 98808,99148,98834
 6.3000e+000 99246 -3.3217e+001 -5.9735e+001  3.2457e+001 36296 98808,98782,99220
 6.3000e+000 99269 -1.3308e+001 -4.9546e+001  1.0425e+001 36296 98808,99220,99148
 6.3000e+000 99318 -3.6961e+001 -4.9339e+001  8.3011e+000 36296 98938,99220,99292
 6.3000e+000 99341 -3.7639e+001 -5.0364e+001  1.0345e+001 36296 98938,99292,98756
 6.3000e+000 99719 -4.5341e+001 -9.1304e+001  4.6040e-001 35742 99742,99471,99601
 6.3000e+000 99696 -4.5317e+001 -7.2955e+001  8.6995e+000 35742 99445,99601,99471
 6.3000e+000 99673 -4.3207e+001 -8.6409e+001 -2.8496e+000 35742 99742,99601,99575
 6.3000e+000 99650 -3.8097e+001 -1.0920e+002 -2.2382e+000 35742 99814,99549,99523
 6.3000e+000 99627 -3.1523e+001 -8.4913e+001  3.7676e-001 35742 99471,99523,99497
 6.3000e+000 99768 -3.6629e+001 -8.9485e+001  2.5028e+000 35742 99523,99471,99742
 6.3000e+000 99791 -4.3195e+001 -1.0033e+002 -1.7379e+000 35742 99814,99523,99742
 6.3000e+000 99840 -3.7667e+001 -9.8120e+001 -5.6131e+000 35742 99575,99549,99814
 6.3000e+000 99863 -4.0776e+001 -8.6474e+001 -4.7920e+000 35742 99575,99814,99742
 6.3000e+000 100111 -3.5838e+001 -7.5196e+001  6.1810e+000 35302 100134,99990,99938
 6.3000e+000 100088 -3.0023e+001 -6.7600e+001  2.7434e+000 35302 100134,99938,99912
 6.3000e+000 100065 -3.0359e+001 -6.7346e+001 -1.5200e+000 35302 100206,99886,100016
 6.3000e+000 100042 -4.3534e+001 -7.4814e+001  4.1795e+000 35302 99938,99990,99964
 6.3000e+000 100160 -2.8827e+001 -7.2622e+001  1.2088e+000 35302 100016,99990,100134
 6.3000e+000 100183 -2.8748e+001 -6.8735e+001 -1.4875e+000 35302 100206,100016,100134
 6.3000e+000 100232 -3.1733e+001 -6.8948e+001 -5.2237e-001 35302 99912,99886,100206
 6.3000e+000 100255 -3.0229e+001 -7.0680e+001 -5.4246e-001 35302 99912,100206,100134
 6.3000e+000 100586 -4.4457e+001 -4.4896e+001  1.7620e+001 35012 100609,100387,100361
 6.3000e+000 100563 -5.5556e+001 -2.7001e+001 -1.0539e+001 35012 100609,100361,100465
 6.3000e+000 100540 -2.5481e+001 -1.7739e+001 -2.4185e+001 35012 100361,100491,100465
 6.3000e+000 100517 -2.2342e+000 -1.8858e+001 -2.8089e+001 35012 100413,100465,100439
 6.3000e+000 100635 -1.6445e+001 -3.2406e+001  5.8158e+000 35012 100413,100387,100609
 6.3000e+000 100658 -2.6056e+001 -9.1570e+000 -2.3047e+001 35012 100413,100609,100465
 6.3000e+000 100987 -3.4036e+001 -7.7699e+001  6.8131e+000 34700 100788,100866,100814
 6.3000e+000 100964 -2.9111e+001 -5.7015e+001  1.2337e+001 34700 101010,100866,100788
 6.3000e+000 100941 -1.4143e+001 -3.3141e+001  1.1295e+001 34700 100762,100892,100866
 6.3000e+000 100918 -3.0680e+001 -6.9697e+001  6.3954e+000 34700 100814,100866,100840
 6.3000e+000 101036 -1.7470e+001 -4.7730e+001  2.1226e+001 34700 100762,100866,101010
 6.3000e+000 101493 -4.6927e+001 -8.6513e+001 -6.1490e+000 34132 101516,101349,101297
 6.3000e+000 101470 -5.5143e+001 -1.0245e+002 -1.0397e+001 34132 101588,101516,101297
 6.3000e+000 101447 -5.5154e+001 -1.0694e+002 -1.5613e+001 34132 101588,101297,101245
 6.3000e+000 101424 -3.6487e+001 -1.2327e+002 -1.4652e+001 34132 101245,101297,101271
 6.3000e+000 101401 -5.0043e+001 -8.6048e+001 -8.1861e+000 34132 101297,101349,101323
 6.3000e+000 101542 -4.7685e+001 -9.9106e+001 -4.9719e+000 34132 101375,101349,101516
 6.3000e+000 101565 -4.4225e+001 -9.9923e+001 -5.8386e+000 34132 101375,101516,101219
 6.3000e+000 101614 -4.5290e+001 -1.0261e+002 -5.5518e+000 34132 101219,101516,101588
 6.3000e+000 101637 -5.0258e+001 -1.0722e+002 -1.0498e+001 34132 101219,101588,101245
 6.3000e+000 101858 -1.1743e+001 -6.3271e+001  7.1996e+000 33720 101708,101786,101760
 6.3000e+000 101835 -4.1354e+000 -6.5430e+001  1.1683e+001 33720 101682,101786,101708
 6.3000e+000 101812 -1.9788e+001 -6.7163e+001  5.8380e+000 33720 101708,101760,101734
 6.3000e+000 102128 -1.3025e+001 -9.0324e+001 -2.5565e+000 33130 101903,102007,101929
 6.3000e+000 102105 -1.4441e+001 -1.0443e+002  3.2829e+000 33130 101903,102033,102007
 6.3000e+000 102082 -8.1748e+000 -1.0742e+002 -2.0354e+001 33130 101929,102007,101955
 6.3000e+000 102059 -1.7805e+001 -7.5986e+001  2.0238e+000 33130 101955,102007,101981
 6.3000e+000 102461 -2.3046e+001 -5.8482e+001 -7.0393e+000 32840 102236,102340,102262
 6.3000e+000 102438 -2.1194e+001 -4.2399e+001  2.0135e+000 32840 102236,102366,102340
 6.3000e+000 102415 -1.1957e+001 -5.5840e+001 -5.8714e+000 32840 102262,102340,102288
 6.3000e+000 102392 -2.4856e+001 -5.7891e+001 -1.5150e+001 32840 102288,102340,102314
 6.3000e+000 102997 -3.1358e+001 -5.3322e+001  1.4262e+001 32493 102749,102879,102853
 6.3000e+000 102974 -2.6629e+001 -4.3664e+001  1.1556e+001 32493 102723,102879,102749
 6.3000e+000 102951 -3.4231e+001 -6.2508e+001  9.7549e+000 32493 102749,102801,102775
 6.3000e+000 102928 -3.8559e+001 -6.2919e+001  9.6874e+000 32493 102749,102853,102801
 6.3000e+000 102905 -3.7504e+001 -6.1590e+001  8.5529e+000 32493 102801,102853,102827
 6.3000e+000 103454 -2.2378e+001 -4.4020e+001 -6.3132e+000 32089 103206,103336,103310
 6.3000e+000 103431 -1.6168e+001 -5.0029e+001 -8.9892e-001 32089 103180,103336,103206
 6.3000e+000 103408 -3.2093e+001 -5.8407e+001 -1.1994e+001 32089 103206,103284,103258
 6.3000e+000 103385 -4.4349e+001 -5.8484e+001 -1.5334e+001 32089 103206,103310,103284
 6.3000e+000 103362 -2.3743e+001 -3.7712e+001 -9.2246e+000 32089 103206,103258,103232
 6.3000e+000 103783 -5.1812e+001 -6.6448e+001 -8.4114e+000 31742 103558,103662,103584
 6.3000e+000 103760 -4.2701e+001 -5.5171e+001 -2.1734e+001 31742 103558,103688,103662
 6.3000e+000 103737 -3.4194e+001 -5.1694e+001 -1.5862e+001 31742 103584,103662,103636
 6.3000e+000 103714 -3.4428e+001 -5.9115e+001 -1.6213e+001 31742 103584,103636,103610
 6.3000e+000 104112 -8.5081e+000 -5.0292e+001  7.7114e+000 31402 103939,103991,103965
 6.3000e+000 104089 -1.5103e+001 -4.2231e+001  3.6265e+000 31402 103913,103991,103939
 6.3000e+000 104066 -2.1385e+001 -4.9869e+001 -7.6776e-001 31402 103913,104017,103991
 6.3000e+000 104043 -2.9846e+001 -4.5606e+001 -6.3764e+000 31402 103887,104017,103913
 6.3000e+000 104569 -5.0508e+001 -9.0226e+001  4.6654e+000 30998 104321,104425,104373
 6.3000e+000 104546 -5.4545e+001 -9.1889e+001  4.7955e+000 30998 104321,104451,104425
 6.3000e+000 104523 -3.7330e+001 -7.1798e+001  1.4746e+001 30998 104373,104425,104399
 6.3000e+000 104500 -4.2243e+001 -1.0492e+002 -1.5997e+000 30998 104295,104451,104321
 6.3000e+000 104477 -6.8531e+001 -1.0541e+002  2.3350e+001 30998 104321,104373,104347
 6.3000e+000 104947 -4.9892e+001 -8.1909e+001 -1.1428e+001 30608 104751,104803,104777
 6.3000e+000 104924 -3.0846e+001 -8.2871e+001 -4.2913e+000 30608 104725,104803,104751
 6.3000e+000 104901 -4.8865e+001 -7.9827e+001  5.0515e+000 30608 104699,104803,104725
 6.3000e+000 104878 -4.1016e+001 -7.6200e+001  4.1415e+000 30608 104673,104803,104699
 6.3000e+000 104855 -3.1396e+001 -7.1527e+001 -3.3316e+000 30608 104673,104829,104803
 6.3000e+000 105276 -3.6534e+001 -7.5638e+001  2.1540e+000 30204 105427,105129,105077
 6.3000e+000 105253 -2.4149e+001 -8.4532e+001  1.8105e+001 30204 105427,105077,105051
 6.3000e+000 105230 -2.9547e+001 -7.4070e+001  2.4272e+000 30204 105077,105129,105103
 6.3000e+000 105207 -1.5942e+001 -6.4300e+001  1.0447e+001 30204 105299,105181,105155
 6.3000e+000 105325 -1.9120e+001 -6.3254e+001  2.0489e+000 30204 105129,105181,105299
 6.3000e+000 105453 -4.4179e+001 -8.1175e+001  1.0301e+001 30204 105181,105129,105427
 6.3000e+000 105476 -5.2135e+001 -9.9359e+001  2.8486e+001 30204 105181,105427,105051
 6.3000e+000 105903 -2.7696e+001 -6.4878e+001 -4.8293e+000 29700 105606,105762,105736
 6.3000e+000 105880 -3.5502e+001 -6.6665e+001  3.1059e-002 29700 105580,105762,105606
 6.3000e+000 105857 -4.2626e+001 -8.1697e+001 -4.8760e+000 29700 105606,105710,105632
 6.3000e+000 105834 -3.5446e+001 -6.9470e+001 -1.9060e+000 29700 105606,105736,105710
 6.3000e+000 105811 -3.9634e+001 -7.6603e+001 -6.1240e+000 29700 105632,105710,105684
 6.3000e+000 105788 -3.8953e+001 -7.4798e+001 -2.7697e+000 29700 105632,105684,105658
 6.3000e+000 106102 -1.1776e+001 -7.9542e+001  2.6274e+000 29124 105978,106030,106004
 6.3000e+000 106079 -2.0113e+001 -7.5946e+001  3.7537e+000 29124 105926,106030,105978
 6.3000e+000 106056 -2.4806e+001 -9.1137e+001  9.3268e+000 29124 105926,105978,105952
 6.3000e+000 106301 -2.2700e+001 -8.0172e+001  5.4111e-001 28712 106151,106229,106203
 6.3000e+000 106278 -2.7468e+001 -8.9049e+001 -3.9527e+000 28712 106125,106229,106151
 6.3000e+000 106255 -2.3376e+001 -8.3782e+001  4.1060e+000 28712 106151,106203,106177
 6.3000e+000 106551 -2.7021e+001 -9.8536e+001  6.6266e+000 28258 106352,106404,106378
 6.3000e+000 106528 -3.7554e+001 -9.9281e+001  2.4119e+000 28258 106352,106456,106404
 6.3000e+000 106505 -3.7943e+001 -9.9239e+001  2.4191e+000 28258 106326,106456,106352
 6.3000e+000 106482 -3.2479e+001 -9.0880e+001 -4.5301e-001 28258 106404,106456,106430
 6.3000e+000 107012 -3.4587e+001 -8.4887e+001  1.6842e+001 27818 107035,106790,106764
 6.3000e+000 106989 -3.0257e+001 -8.0305e+001  6.6826e+000 27818 107035,106764,106868
 6.3000e+000 106966 -2.1442e+001 -9.8746e+001  9.7383e+000 27818 107107,106842,106816
 6.3000e+000 106943 -4.3180e+001 -7.2602e+001  2.8956e+000 27818 106738,106868,106764
 6.3000e+000 106920 -4.2768e+001 -6.7299e+001  1.0133e+001 27818 106738,106894,106868
 6.3000e+000 107061 -1.6520e+001 -8.1383e+001  1.9253e+001 27818 106816,106790,107035
 6.3000e+000 107084 -2.7498e+001 -9.1528e+001  1.0276e+001 27818 107107,106816,107035
 6.3000e+000 107133 -1.9499e+001 -8.8379e+001  4.7364e+000 27818 106868,106842,107107
 6.3000e+000 107156 -2.3756e+001 -7.7813e+001  6.4966e+000 27818 106868,107107,107035
 6.3000e+000 107613 -1.2098e+001 -6.4239e+001  1.3964e+001 27312 107339,107469,107365
 6.3000e+000 107590 -3.2008e+000 -5.9367e+001  1.1971e+001 27312 107339,107495,107469
 6.3000e+000 107567 -1.2812e+001 -6.1557e+001  6.4121e+000 27312 107391,107469,107443
 6.3000e+000 107544 -8.9928e+000 -6.5427e+001  6.2553e+000 27312 107365,107469,107391
 6.3000e+000 107521 -3.3152e+001 -6.8985e+001  4.1982e+000 27312 107391,107443,107417
 6.3000e+000 107991 -2.9405e+001 -9.3447e+001  4.4081e+000 26858 108086,108014,107795
 6.3000e+000 107968 -3.3199e+001 -9.4141e+001 -3.3165e+000 26858 108014,107717,107873
 6.3000e+000 107945 -3.4671e+001 -1.0099e+002  7.1122e+000 26858 108158,108086,107795
 6.3000e+000 107922 -2.7689e+001 -1.0519e+002  8.3748e+000 26858 108158,107795,107769
 6.3000e+000 107899 -2.6741e+001 -1.1702e+002  1.6523e+001 26858 107821,107873,107847
 6.3000e+000 108040 -3.2052e+001 -1.0659e+002  5.5963e+000 26858 107821,107795,108014
 6.3000e+000 108063 -2.0466e+001 -9.9634e+001  1.0878e+000 26858 107821,108014,107873
 6.3000e+000 108112 -4.1104e+001 -9.8266e+001  4.8778e+000 26858 107717,108014,108086
 6.3000e+000 108135 -3.4493e+001 -9.6425e+001  9.4579e+000 26858 107717,108086,107743
 6.3000e+000 108184 -2.7355e+001 -9.4157e+001  1.0024e+001 26858 107743,108086,108158
 6.3000e+000 108207 -2.3144e+001 -1.0032e+002  1.0613e+001 26858 107743,108158,107769
 6.3000e+000 108634 -4.2972e+001 -8.7170e+001  1.9383e+000 26404 108657,108415,108363
 6.3000e+000 108611 -4.9241e+001 -9.5461e+001  1.1663e+001 26404 108657,108363,108337
 6.3000e+000 108588 -4.2312e+001 -9.2812e+001  1.1238e+001 26404 108729,108311,108467
 6.3000e+000 108565 -4.5353e+001 -1.0765e+002  2.7745e+000 26404 108801,108441,108415
 6.3000e+000 108542 -6.2119e+001 -1.0148e+002  1.2348e+001 26404 108311,108493,108467
 6.3000e+000 108519 -2.8958e+001 -8.7663e+001  1.8529e+000 26404 108363,108415,108389
 6.3000e+000 108683 -5.7965e+001 -9.4650e+001  4.4159e+000 26404 108801,108415,108657
 6.3000e+000 108706 -5.5066e+001 -9.5305e+001  9.3693e+000 26404 108729,108467,108657
 6.3000e+000 108755 -3.4496e+001 -9.7041e+001  1.1046e+001 26404 108337,108311,108729
 6.3000e+000 108778 -4.0951e+001 -9.4927e+001  8.7026e+000 26404 108337,108729,108657
 6.3000e+000 108827 -5.7526e+001 -1.3368e+002 -4.7217e+000 26404 108467,108441,108801
 6.3000e+000 108850 -6.3935e+001 -1.1124e+002 -3.0762e+000 26404 108467,108801,108657
 6.3000e+000 109228 -4.4522e+001 -9.5401e+001 -3.6121e+000 26064 109006,109084,109058
 6.3000e+000 109205 -3.9473e+001 -8.9162e+001  2.5078e+000 26064 108980,109084,109006
 6.3000e+000 109182 -4.2086e+001 -8.4682e+001 -2.6758e+000 26064 108980,109110,109084
 6.3000e+000 109159 -4.2610e+001 -9.9672e+001 -1.9774e-001 26064 109006,109058,109032
 6.3000e+000 109136 -1.4776e+001 -7.4400e+001  3.5029e+000 26064 108954,109110,108980
 6.3000e+000 109427 -1.0477e+001 -8.1603e+001 -1.7699e+001 25660 109303,109355,109329
 6.3000e+000 109404 -2.1379e+001 -1.0323e+002 -4.1188e+000 25660 109277,109355,109303
 6.3000e+000 109381 -1.6636e+001 -9.6703e+001 -1.3528e+000 25660 109251,109355,109277
 6.3000e+000 109577 -1.2366e+001 -3.2346e+001  1.1289e+001 25306 109476,109528,109502
 6.3000e+000 109554  9.2978e+000 -2.4412e+001  1.0699e+001 25306 109450,109528,109476
 6.3000e+000 109778 -3.1820e+001 -8.6592e+001  2.0916e+000 24944 109628,109706,109654
 6.3000e+000 109755 -3.4238e+001 -8.5738e+001  2.3499e-001 24944 109602,109706,109628
 6.3000e+000 109732 -2.8056e+001 -8.1535e+001 -1.3621e+000 24944 109654,109706,109680
 6.3000e+000 110126 -2.3992e+001 -1.0678e+002  2.8910e+000 24440 110149,109907,109855
 6.3000e+000 110103 -1.9398e+001 -1.1537e+002  8.0311e+000 24440 110149,109855,109985
 6.3000e+000 110080 -1.7958e+001 -8.9679e+001  2.0878e+000 24440 109855,109907,109881
 6.3000e+000 110057 -1.7525e+001 -8.7734e+001  3.4169e+001 24440 109829,109985,109855
 6.3000e+000 110034 -2.0470e+001 -1.0429e+002  1.7952e+000 24440 109907,109959,109933
 6.3000e+000 110011  8.0685e-001 -8.6867e+001  5.3886e+000 24440 109803,109985,109829
 6.3000e+000 110175 -2.1213e+001 -1.0028e+002  3.3597e+000 24440 109959,109907,110149
 6.3000e+000 110198 -1.5407e+001 -1.0681e+002  9.3107e+000 24440 109959,110149,109985
 6.3000e+000 110301 -6.1654e-001 -4.2757e+001  4.2294e+000 24028 110223,110275,110249
 6.3000e+000 110573 -1.3874e+001 -6.4811e+001  5.2820e+000 23467 110400,110452,110426
 6.3000e+000 110550 -2.3289e+001 -7.8203e+001  6.8387e-001 23467 110374,110452,110400
 6.3000e+000 110527 -2.5582e+001 -7.9159e+001  1.8441e+000 23467 110348,110452,110374
 6.3000e+000 110504 -1.8304e+001 -7.6317e+001 -1.2842e-001 23467 110348,110478,110452
 6.3000e+000 111004 -4.9828e+001 -1.1438e+002 -1.5523e+001 22963 111027,110733,110707
 6.3000e+000 110981 -5.1366e+001 -1.0802e+002  6.2156e+000 22963 111027,110707,110681
 6.3000e+000 110958 -2.2043e+001 -9.0653e+001 -1.3087e+001 22963 111099,110759,110733
 6.3000e+000 110935 -3.4693e+001 -9.1994e+001 -8.4608e+000 22963 111171,110863,110811
 6.3000e+000 110912 -1.1153e+001 -6.5683e+001 -1.6339e+001 22963 110759,110811,110785
 6.3000e+000 110889 -4.2080e+001 -1.0293e+002 -4.2781e+000 22963 110811,110863,110837
 6.3000e+000 111053 -3.7868e+001 -1.0138e+002 -7.4152e+000 22963 111099,110733,111027
 6.3000e+000 111076 -3.2378e+001 -9.8878e+001 -7.3165e+000 22963 111171,110811,111027
 6.3000e+000 111125 -2.1368e+001 -8.8391e+001 -2.1761e+001 22963 110811,110759,111099
 6.3000e+000 111148 -2.3913e+001 -8.7113e+001 -1.8345e+001 22963 110811,111099,111027
 6.3000e+000 111197 -3.3956e+001 -8.2413e+001 -9.3015e+000 22963 110681,110863,111171
 6.3000e+000 111220 -3.2712e+001 -8.9467e+001 -5.4516e+000 22963 110681,111171,111027
 6.3000e+000 111726 -5.2619e+001 -9.7587e+001  5.0260e-001 22459 111749,111507,111429
 6.3000e+000 111703 -4.4847e+001 -9.4736e+001 -3.7942e+000 22459 111749,111429,111585
 6.3000e+000 111680 -3.5448e+001 -1.0428e+002 -2.0378e+000 22459 111403,111585,111429
 6.3000e+000 111657 -4.9657e+001 -1.0932e+002  4.6805e+000 22459 111507,111559,111533
 6.3000e+000 111634 -6.4206e+001 -9.1131e+001  5.5676e+000 22459 111455,111507,111481
 6.3000e+000 111611 -8.1228e+001 -9.5623e+001  1.0417e+001 22459 111429,111507,111455
 6.3000e+000 111775 -5.1233e+001 -1.0452e+002  6.9921e+000 22459 111559,111507,111749
 6.3000e+000 111798 -4.4296e+001 -9.8744e+001  2.6116e+000 22459 111559,111749,111585
 6.3000e+000 112046 -2.2796e+001 -8.4234e+001 -1.0653e+001 21898 112069,111925,111873
 6.3000e+000 112023 -2.1601e+001 -8.4295e+001 -2.0401e+000 21898 112069,111873,111847
 6.3000e+000 112000 -2.8833e+001 -8.5549e+001 -4.0952e+000 21898 111821,111951,111847
 6.3000e+000 111977 -2.5660e+001 -6.4659e+001 -6.2293e+000 21898 111873,111925,111899
 6.3000e+000 112095 -3.4938e+001 -8.8515e+001 -1.2857e+001 21898 111951,111925,112069
 6.3000e+000 112118 -2.8728e+001 -8.6718e+001 -4.5672e+000 21898 111951,112069,111847
 6.3000e+000 112498 -3.6982e+001 -9.1361e+001 -6.5655e+000 21608 112521,112276,112224
 6.3000e+000 112475 -2.3798e+001 -9.2726e+001  1.1938e+000 21608 112521,112224,112380
 6.3000e+000 112452 -2.4848e+001 -1.0499e+002  7.1655e+000 21608 112302,112380,112354
 6.3000e+000 112429 -4.5724e+001 -1.0188e+002 -2.7193e+000 21608 112224,112276,112250
 6.3000e+000 112406  1.8895e+001 -1.1716e+002 -6.9925e+000 21608 112302,112354,112328
 6.3000e+000 112547 -2.6111e+001 -7.9128e+001 -4.6410e-001 21608 112302,112276,112521
 6.3000e+000 112570 -1.7304e+001 -8.9164e+001  4.9777e+000 21608 112302,112521,112380
 6.3000e+000 112948 -4.5871e+001 -9.2417e+001 -6.7346e-001 20882 112971,112752,112700
 6.3000e+000 112925 -3.4878e+001 -8.8915e+001 -3.4467e+000 20882 112971,112700,112830
 6.3000e+000 112902 -5.8062e+001 -9.9444e+001  6.3425e+000 20882 112778,112830,112804
 6.3000e+000 112879 -3.2263e+001 -7.0251e+001 -5.1206e+000 20882 112674,112830,112700
 6.3000e+000 112856 -5.4641e+001 -9.8750e+001  2.6640e+000 20882 112700,112752,112726
 6.3000e+000 112997 -4.6431e+001 -9.2943e+001  5.3958e+000 20882 112778,112752,112971
 6.3000e+000 113020 -4.0134e+001 -9.1313e+001  2.4223e+000 20882 112778,112971,112830
 6.3000e+000 113526 -2.7634e+001 -9.0696e+001  4.7176e-001 20428 113255,113385,113333
 6.3000e+000 113503 -2.9506e+001 -9.6987e+001  6.2599e-001 20428 113229,113385,113255
 6.3000e+000 113480 -1.6432e-001 -8.5926e+001  2.1397e+000 20428 113255,113333,113281
 6.3000e+000 113457 -2.5908e+001 -9.1362e+001  3.3740e+000 20428 113203,113385,113229
 6.3000e+000 113434 -1.2099e+001 -8.8992e+001 -1.6482e+000 20428 113281,113333,113307
 6.3000e+000 113411 -3.5288e+001 -8.8522e+001  2.2678e+000 20428 113333,113385,113359
 6.3000e+000 113774 -6.0905e+000 -9.1733e+001  4.2967e+000 19917 113797,113601,113549
 6.3000e+000 113751 -1.5603e+001 -9.2646e+001  5.1410e+000 19917 113869,113797,113549
 6.3000e+000 113728 -1.4946e+001 -9.3621e+001  8.9891e+000 19917 113869,113549,113679
 6.3000e+000 113705 -9.8600e+000 -9.1429e+001  9.0439e+000 19917 113549,113601,113575
 6.3000e+000 113823 -1.6222e+001 -1.1255e+002  2.5163e-001 19917 113627,113601,113797
 6.3000e+000 113846 -6.7138e+000 -8.7584e+001 -1.3520e+000 19917 113627,113797,113653
 6.3000e+000 113895 -1.3583e+001 -8.3351e+001  2.2604e+000 19917 113653,113797,113869
 6.3000e+000 113918 -1.6603e+001 -8.5795e+001  7.1762e+000 19917 113653,113869,113679
 6.3000e+000 114166 -4.2165e+001 -9.3913e+001 -1.7830e+000 19413 113993,114045,114019
 6.3000e+000 114143 -3.6356e+001 -8.7182e+001  8.6597e-001 19413 113967,114045,113993
 6.3000e+000 114120 -3.2359e+001 -8.5983e+001  5.0330e+000 19413 113967,114071,114045
 6.3000e+000 114097 -2.3144e+001 -9.8692e+001 -2.3845e+000 19413 113941,114071,113967
 6.3000e+000 114438 -3.9021e+001 -1.0428e+002  1.1096e+000 19001 114213,114265,114239
 6.3000e+000 114415 -2.7800e+001 -8.0642e+001 -2.2857e+000 19001 114213,114343,114265
 6.3000e+000 114392 -4.1632e+001 -1.1170e+002 -4.9098e+000 19001 114265,114343,114317
 6.3000e+000 114369  6.9635e+000 -9.0627e+001 -1.7196e+000 19001 114265,114317,114291
 6.3000e+000 114639 -2.9235e+001 -1.2352e+002  5.8884e+000 18554 114489,114541,114515
 6.3000e+000 114616 -2.5282e+001 -1.0715e+002  9.3312e-001 18554 114489,114567,114541
 6.3000e+000 114593 -5.5034e+001 -1.2000e+002 -7.6356e+000 18554 114463,114567,114489
 6.3000e+000 115043 -1.7347e+001 -9.0482e+001  3.5441e+000 18164 114795,114925,114821
 6.3000e+000 115020 -1.3719e+001 -9.4782e+001  6.2574e+000 18164 114769,114925,114795
 6.3000e+000 114997 -8.2374e+000 -9.5077e+001 -1.0131e+000 18164 115066,114873,114821
 6.3000e+000 114974 -7.1265e+000 -8.1003e+001 -3.2366e+000 18164 115066,114821,114925
 6.3000e+000 114951  1.3410e+001 -9.4515e+001 -1.0662e+001 18164 114821,114873,114847
 6.3000e+000 115092 -1.3541e+001 -8.5008e+001 -8.3992e+000 18164 114899,114873,115066
 6.3000e+000 115115 -6.7854e+000 -6.3479e+001 -1.1266e+001 18164 114899,115066,114925
 6.3000e+000 115265 -1.8538e+001 -9.3176e+001  1.6324e+000 17852 115164,115216,115190
 6.3000e+000 115242 -2.2675e+001 -1.0121e+002 -3.1254e-001 17852 115138,115216,115164
 6.3000e+000 115464 -6.8993e+001 -1.5050e+002  1.5162e+000 17346 115288,115366,115340
 6.3000e+000 115441 -1.0024e+002 -1.1408e+002 -6.5970e+000 17346 115288,115392,115366
 6.3000e+000 115418 -5.9355e+001 -1.6762e+002 -5.1463e+000 17346 115288,115340,115314
 6.3000e+000 115736 -1.9226e+001 -8.6994e+001  3.8698e+000 16942 115563,115641,115615
 6.3000e+000 115713 -2.2209e+001 -8.6442e+001  1.2267e+000 16942 115511,115641,115563
 6.3000e+000 115690 -5.9882e+001 -1.0304e+002  5.3377e+000 16942 115563,115615,115589
 6.3000e+000 115667 -2.7419e+001 -9.5095e+001  3.4032e+000 16942 115511,115563,115537
 6.3000e+000 116091 -4.8999e+001 -1.1277e+002 -3.3796e+000 16388 115918,115970,115944
 6.3000e+000 116068 -4.3609e+001 -9.2120e+001 -2.6567e+000 16388 115918,115996,115970
 6.3000e+000 116045 -5.8586e+001 -1.1476e+002  4.0671e+000 16388 115892,115996,115918
 6.3000e+000 116022 -3.6368e+001 -1.0287e+002  1.4452e+001 16388 115866,115996,115892
 6.3000e+000 116192 -8.8758e+000 -1.0802e+002 -1.6168e+001 15810 116114,116166,116140
 6.3000e+000 116342 -4.3212e+001 -1.4020e+002  7.4240e+000 15419 116241,116293,116267
 6.3000e+000 116319 -6.1489e+001 -1.7052e+002 -4.6246e+000 15419 116215,116293,116241
 6.3000e+000 116445 -4.7132e+001 -9.3928e+001 -6.1319e-001 421 116367,116419,116393
 6.4000e+000 68477 -5.7744e+001 -7.8697e+001  2.7255e-001 68018 68327,68379,68353
 6.4000e+000 68454 -6.1928e+001 -1.0405e+002  7.6712e+000 68018 68301,68379,68327
 6.4000e+000 68431 -3.7593e+001 -1.1751e+002  1.6936e+001 68018 68301,68405,68379
 6.4000e+000 68578 -4.1838e+001 -7.7186e+001 -1.5092e-001 67820 68500,68552,68526
 6.4000e+000 68728 -4.2862e+001 -7.0386e+001 -1.2612e+000 67508 68601,68653,68627
 6.4000e+000 68705 -6.3522e+001 -5.6673e+001 -1.0056e+001 67508 68601,68679,68653
 6.4000e+000 68927 -1.9001e+001 -7.2745e+001 -9.6618e-001 67310 68777,68829,68803
 6.4000e+000 68904 -2.3810e+001 -8.3355e+001  1.4314e+000 67310 68751,68829,68777
 6.4000e+000 68881 -2.0112e+001 -8.5755e+001  4.6822e+000 67310 68751,68855,68829
 6.4000e+000 69386 -3.4713e+001 -8.3862e+001 -3.2895e+000 67020 69216,69268,69242
 6.4000e+000 69363 -3.3302e+001 -6.6493e+001 -8.3416e+000 67020 69138,69268,69216
 6.4000e+000 69340 -2.4246e+001 -6.1540e+001 -6.4185e+000 67020 69112,69268,69138
 6.4000e+000 69317 -4.3027e+001 -6.9514e+001  2.6873e+000 67020 69138,69190,69164
 6.4000e+000 69294 -4.3945e+001 -6.4195e+001 -4.0285e+000 67020 69138,69216,69190
 6.4000e+000 69536 -5.5595e+001 -1.3594e+002 -1.0547e+001 66708 69435,69487,69461
 6.4000e+000 69513 -4.1151e+001 -1.5477e+002 -4.3701e-001 66708 69409,69487,69435
 6.4000e+000 69735 -3.9730e+001 -7.4984e+001  1.7373e+000 66346 69585,69637,69611
 6.4000e+000 69712 -3.2782e+001 -6.9836e+001 -7.2696e-001 66346 69559,69637,69585
 6.4000e+000 69689 -3.0979e+001 -7.1883e+001 -7.6471e+000 66346 69559,69663,69637
 6.4000e+000 69985 -6.3051e+001 -9.7232e+001  1.2900e+000 66148 69786,69890,69864
 6.4000e+000 69962 -6.5133e+001 -9.8578e+001  2.0713e+000 66148 69760,69890,69786
 6.4000e+000 69939 -4.9080e+001 -9.1630e+001 -1.2303e+001 66148 69786,69864,69838
 6.4000e+000 69916 -5.8073e+001 -9.9245e+001 -1.0768e+000 66148 69786,69838,69812
 6.4000e+000 70137 -2.8105e+001 -1.0908e+002 -5.0103e+000 65950 70036,70088,70062
 6.4000e+000 70114 -2.4232e+001 -1.2011e+002  6.0070e+000 65950 70010,70088,70036
 6.4000e+000 70470 -2.2547e+001 -8.1035e+001  5.5050e+000 65546 70245,70323,70271
 6.4000e+000 70447 -1.7490e+001 -7.3485e+001  2.5005e+000 65546 70245,70375,70323
 6.4000e+000 70424 -2.0862e+001 -9.2654e+001  3.4128e+000 65546 70323,70375,70349
 6.4000e+000 70401 -2.0439e+001 -7.6107e+001  2.5424e+000 65546 70271,70323,70297
 6.4000e+000 70620 -3.8548e+001 -9.0756e+001  3.2708e+000 65348 70493,70545,70519
 6.4000e+000 70597 -3.2254e+001 -9.7952e+001  2.7411e+000 65348 70493,70571,70545
 6.4000e+000 70721 -6.9178e+001 -1.2281e+002 -2.3961e+000 65150 70643,70695,70669
 6.4000e+000 71020 -3.5471e+001 -7.3005e+001  3.4780e+000 64952 71043,70850,70824
 6.4000e+000 70997 -3.1615e+001 -7.0115e+001 -1.9256e+000 64952 71043,70824,70772
 6.4000e+000 70974 -3.3158e+001 -9.4263e+001  3.6512e+000 64952 71115,70746,70876
 6.4000e+000 70951 -3.0393e+001 -9.6831e+001  2.3798e-001 64952 70746,70902,70876
 6.4000e+000 70928 -3.5314e+001 -6.3668e+001 -6.3520e+000 64952 70772,70824,70798
 6.4000e+000 71069 -2.0899e+001 -6.2689e+001  1.3972e+001 64952 70876,70850,71043
 6.4000e+000 71092 -3.0344e+001 -8.6065e+001  4.9074e+000 64952 71115,70876,71043
 6.4000e+000 71141 -4.2112e+001 -8.4568e+001 -4.1552e+000 64952 70772,70746,71115
 6.4000e+000 71164 -3.6996e+001 -7.2433e+001 -2.8507e+000 64952 70772,71115,71043
 6.4000e+000 71365 -1.1917e+001 -1.0290e+002 -3.3535e+000 64662 71215,71293,71267
 6.4000e+000 71342  8.6093e+000 -6.8786e+001 -1.2894e+001 64662 71189,71293,71215
 6.4000e+000 71319  5.0865e+000 -6.1360e+001 -1.0037e+000 64662 71215,71267,71241
 6.4000e+000 71615 -3.0856e+001 -8.2011e+001 -5.4747e-001 64350 71710,71638,71468
 6.4000e+000 71592 -2.8160e+001 -7.9601e+001 -3.0451e+000 64350 71638,71416,71390
 6.4000e+000 71569 -3.3412e+001 -7.6184e+001  4.5442e+000 64350 71710,71468,71442
 6.4000e+000 71546 -3.6722e-001 -7.8984e+001 -9.0753e+000 64350 71390,71520,71494
 6.4000e+000 71664 -2.7361e+001 -8.0516e+001 -6.3968e-001 64350 71494,71468,71638
 6.4000e+000 71687 -2.7249e+001 -8.3582e+001 -2.6752e-001 64350 71494,71638,71390
 6.4000e+000 71736 -2.6122e+001 -7.0010e+001 -1.2728e+000 64350 71416,71638,71710
 6.4000e+000 71759 -2.8865e+001 -6.5274e+001  4.9840e+000 64350 71416,71710,71442
 6.4000e+000 72318 -2.9803e+001 -1.2706e+002 -5.2072e+000 63837 71972,72024,71998
 6.4000e+000 72295 -3.6838e+001 -8.3225e+001 -7.5479e-001 63837 72341,71972,71946
 6.4000e+000 72272 -3.4711e+001 -6.8031e+001  3.8981e+000 63837 72413,72341,71946
 6.4000e+000 72249 -3.5085e+001 -6.1915e+001  2.2272e+000 63837 72413,71946,72128
 6.4000e+000 72226 -4.7523e+001 -7.4135e+001  2.0369e+000 63837 72024,72076,72050
 6.4000e+000 72203 -4.3400e+001 -6.7324e+001 -1.7781e+000 63837 72024,72102,72076
 6.4000e+000 72180 -3.1473e+001 -6.0916e+001  4.5477e+000 63837 71946,72154,72128
 6.4000e+000 72367 -4.5967e+001 -8.9740e+001 -1.4888e+001 63837 72024,71972,72341
 6.4000e+000 72390 -3.6456e+001 -7.2893e+001 -5.4791e+000 63837 72024,72341,72102
 6.4000e+000 72439 -3.1748e+001 -7.7864e+001  1.5651e+000 63837 72102,72341,72413
 6.4000e+000 72462 -3.1677e+001 -7.1103e+001  6.9635e-001 63837 72102,72413,72128
 6.4000e+000 72791 -4.6299e+001 -8.1472e+001 -8.4679e+000 63383 72592,72696,72670
 6.4000e+000 72768 -4.7523e+001 -7.8401e+001 -1.3652e+001 63383 72566,72696,72592
 6.4000e+000 72745 -4.4505e+001 -7.1481e+001 -7.8634e-001 63383 72592,72670,72618
 6.4000e+000 72722 -4.3130e+001 -6.5433e+001 -2.6906e+000 63383 72618,72670,72644
 6.4000e+000 73297 -5.1505e+001 -7.1001e+001 -6.1239e-001 63185 73000,73156,73130
 6.4000e+000 73274 -5.2046e+001 -7.4384e+001  8.8234e+000 63185 72974,73156,73000
 6.4000e+000 73251 -4.0615e+001 -8.2581e+001 -5.9647e-001 63185 73000,73052,73026
 6.4000e+000 73228 -4.3817e+001 -7.2844e+001 -3.3031e+000 63185 73000,73130,73052
 6.4000e+000 73205 -4.3994e+001 -8.3509e+001 -1.2212e+001 63185 73052,73130,73104
 6.4000e+000 73182 -4.0044e+001 -8.9064e+001 -1.2068e+001 63185 73052,73104,73078
 6.4000e+000 73545 -2.4404e+001 -8.0283e+001  1.6332e+000 62781 73568,73398,73372
 6.4000e+000 73522 -1.5032e+001 -7.4916e+001  8.2212e+000 62781 73568,73372,73346
 6.4000e+000 73499 -3.2255e+001 -9.0829e+001 -9.1734e+000 62781 73640,73320,73424
 6.4000e+000 73476 -3.2322e+001 -6.1686e+001 -1.6066e+001 62781 73320,73450,73424
 6.4000e+000 73594 -2.6403e+001 -7.7031e+001  1.4447e+000 62781 73424,73398,73568
 6.4000e+000 73617 -2.8433e+001 -8.6643e+001 -9.0235e-001 62781 73640,73424,73568
 6.4000e+000 73666 -2.7621e+001 -8.1102e+001 -3.1365e+000 62781 73346,73320,73640
 6.4000e+000 73689 -2.5054e+001 -7.3739e+001  4.4032e+000 62781 73346,73640,73568
 6.4000e+000 74035 -3.1908e+001 -7.6504e+001 -1.7441e+000 62363 74058,73868,73842
 6.4000e+000 74012 -2.8052e+001 -6.9588e+001 -6.6056e+000 62363 74130,74058,73842
 6.4000e+000 73989 -2.5562e+001 -6.9297e+001 -7.6814e+000 62363 74130,73842,73816
 6.4000e+000 73966 -3.9357e+001 -7.9721e+001  9.0175e-001 62363 74202,73764,73894
 6.4000e+000 73943 -5.0558e+001 -7.3869e+001  7.7229e-001 62363 73712,73894,73764
 6.4000e+000 73920 -5.2890e+001 -7.5853e+001 -3.9230e-001 62363 73712,73764,73738
 6.4000e+000 74084 -3.0633e+001 -7.6868e+001 -1.3415e+000 62363 73894,73868,74058
 6.4000e+000 74107 -3.6703e+001 -7.6564e+001  2.8974e+000 62363 74202,73894,74058
 6.4000e+000 74156 -3.1373e+001 -7.1921e+001  1.4828e+000 62363 73790,74058,74130
 6.4000e+000 74179 -2.0431e+001 -6.8420e+001  1.1031e+000 62363 73790,74130,73816
 6.4000e+000 74228 -4.2188e+001 -8.0988e+001 -3.6008e+000 62363 73790,73764,74202
 6.4000e+000 74251 -4.0142e+001 -7.7592e+001 -1.6445e+000 62363 73790,74202,74058
 6.4000e+000 74403 -6.4913e+000 -8.1219e+001  5.0562e+000 62115 74426,74302,74276
 6.4000e+000 74380  4.9344e+000 -7.8499e+001  9.7358e+000 62115 74426,74276,74354
 6.4000e+000 74452 -1.7134e+001 -7.5107e+001  4.9011e+000 62115 74328,74302,74426
 6.4000e+000 74475 -6.5836e+000 -7.2820e+001  9.8730e+000 62115 74328,74426,74354
 6.4000e+000 74578 -8.4973e-001 -5.8072e+001 -1.2715e+000 61825 74500,74552,74526
 6.4000e+000 74982 -3.9978e+001 -6.8733e+001 -4.0058e-001 61513 75005,74734,74708
 6.4000e+000 74959 -4.1605e+001 -6.6134e+001 -9.3749e-001 61513 75005,74708,74864
 6.4000e+000 74936 -5.3760e+001 -7.0606e+001  4.0297e+000 61513 75077,74812,74734
 6.4000e+000 74913 -4.0053e+001 -6.1807e+001 -4.8090e+000 61513 74734,74786,74760
 6.4000e+000 74890 -3.9676e+001 -5.8957e+001 -2.8096e+000 61513 74734,74812,74786
 6.4000e+000 75031 -3.9518e+001 -7.0380e+001 -5.2021e-001 61513 75077,74734,75005
 6.4000e+000 75054 -3.2379e+001 -6.8216e+001  1.0048e+001 61513 74838,75005,74864
 6.4000e+000 75103 -6.1763e+001 -7.4155e+001  1.6920e+001 61513 74838,74812,75077
 6.4000e+000 75126 -5.2581e+001 -7.7505e+001  1.2420e+001 61513 74838,75077,75005
 6.4000e+000 75553 -2.3185e+001 -6.2242e+001 -2.9298e+000 61060 75576,75360,75308
 6.4000e+000 75530 -2.2423e+001 -6.7051e+001 -2.7095e+000 61060 75576,75308,75230
 6.4000e+000 75507 -2.0908e+001 -6.0816e+001 -2.1976e+000 61060 75308,75360,75334
 6.4000e+000 75484 -2.8586e+001 -7.8705e+001  2.3104e+000 61060 75230,75308,75256
 6.4000e+000 75461 -2.5003e+001 -7.3492e+001 -3.7950e-001 61060 75256,75308,75282
 6.4000e+000 75438 -2.6947e+001 -6.1249e+001  6.7151e+000 61060 75360,75412,75386
 6.4000e+000 75602 -2.0486e+001 -6.6213e+001 -2.2841e-001 61060 75412,75360,75576
 6.4000e+000 75625 -2.1927e+001 -7.4390e+001 -8.0593e-001 61060 75412,75576,75230
 6.4000e+000 76052 -3.3561e+001 -6.7210e+001  6.9328e-001 60442 75755,75859,75833
 6.4000e+000 76029 -3.5698e+001 -6.2930e+001 -4.8305e+000 60442 75729,75859,75755
 6.4000e+000 76006 -3.4209e+001 -6.2157e+001  3.2943e+000 60442 75755,75833,75807
 6.4000e+000 75983 -3.5981e+001 -7.2039e+001  1.0431e+000 60442 75755,75807,75781
 6.4000e+000 75960 -9.4077e+000 -1.1856e+002  5.1219e+000 60442 75729,75911,75859
 6.4000e+000 75937 -6.5649e+001 -2.8347e+002  1.9376e+001 60442 75859,75911,75885
 6.4000e+000 76430 -3.5616e+001 -9.0524e+001 -1.7730e+000 59788 76453,76286,76234
 6.4000e+000 76407 -3.8842e+001 -1.0281e+002  2.2102e+000 59788 76453,76234,76182
 6.4000e+000 76384 -3.8274e+001 -6.9909e+001  1.2086e+001 59788 76525,76156,76312
 6.4000e+000 76361 -2.3605e+001 -1.1901e+002 -2.7765e-001 59788 76182,76234,76208
 6.4000e+000 76338 -2.9781e+001 -8.5740e+001  4.2918e-001 59788 76234,76286,76260
 6.4000e+000 76479 -4.1551e+001 -9.7126e+001  2.1519e+000 59788 76312,76286,76453
 6.4000e+000 76502 -3.5845e+001 -9.2168e+001  5.6047e+000 59788 76525,76312,76453
 6.4000e+000 76551 -4.7390e+001 -9.7931e+001  1.2301e+001 59788 76182,76156,76525
 6.4000e+000 76574 -4.2243e+001 -1.0463e+002  7.8515e+000 59788 76182,76525,76453
 6.4000e+000 77031 -2.5192e+001 -5.6551e+001 -7.7096e+000 59448 76835,76887,76861
 6.4000e+000 77008 -1.1118e+001 -4.5891e+001  2.1049e+000 59448 76835,76913,76887
 6.4000e+000 76985 -1.4963e+001 -3.8819e+001  7.9450e+000 59448 76809,76913,76835
 6.4000e+000 76962 -2.9350e+001 -5.1163e+001 -8.0671e-001 59448 76757,76913,76809
 6.4000e+000 76939 -2.5329e+001 -4.6188e+001 -2.5456e+000 59448 76757,76809,76783
 6.4000e+000 77537 -3.1407e+001 -6.8232e+001  3.4832e+000 58994 77560,77344,77292
 6.4000e+000 77514 -4.5303e+001 -6.5665e+001  1.1651e+000 58994 77560,77292,77240
 6.4000e+000 77491 -2.4955e+001 -6.0685e+001 -2.8463e+000 58994 77632,77214,77370
 6.4000e+000 77468 -5.0703e+001 -7.7343e+001  1.2805e+001 58994 77292,77344,77318
 6.4000e+000 77445 -2.5786e+001 -7.8085e+001  1.6169e+000 58994 77214,77396,77370
 6.4000e+000 77422 -4.8042e+001 -7.2841e+001  4.4115e-001 58994 77240,77292,77266
 6.4000e+000 77586 -3.3715e+001 -6.7973e+001  3.8045e+000 58994 77370,77344,77560
 6.4000e+000 77609 -3.3529e+001 -6.5879e+001  4.7501e+000 58994 77632,77370,77560
 6.4000e+000 77658 -2.0125e+001 -5.4920e+001 -1.0722e+001 58994 77240,77214,77632
 6.4000e+000 77681 -2.6377e+001 -5.3894e+001 -3.8293e+000 58994 77240,77632,77560
 6.4000e+000 78138 -3.0923e+001 -5.1609e+001  6.4939e+000 58440 77864,77994,77890
 6.4000e+000 78115 -2.3674e+001 -3.5099e+001 -3.0768e+000 58440 77864,78020,77994
 6.4000e+000 78092 -3.5238e+001 -6.0082e+001 -6.0035e+000 58440 77942,77994,77968
 6.4000e+000 78069 -2.8222e+001 -5.7007e+001  9.6373e-001 58440 77890,77994,77942
 6.4000e+000 78046 -2.4548e+001 -5.6479e+001 -1.5269e+000 58440 77890,77942,77916
 6.4000e+000 78467 -7.5369e+000 -6.3354e+001  5.5126e-001 57928 78562,78490,78346
 6.4000e+000 78444 -2.4198e+001 -6.3533e+001 -1.5340e+000 57928 78490,78294,78268
 6.4000e+000 78421 -3.8141e+000 -6.6482e+001  3.6238e+000 57928 78562,78346,78320
 6.4000e+000 78398 -1.2423e+001 -5.9781e+001  4.5093e-001 57928 78242,78372,78268
 6.4000e+000 78516 -2.1949e+001 -7.6847e+001 -5.1570e+000 57928 78372,78346,78490
 6.4000e+000 78539 -1.8795e+001 -6.1254e+001 -1.2506e+000 57928 78372,78490,78268
 6.4000e+000 78588 -2.4307e+001 -6.3344e+001 -9.3328e-001 57928 78294,78490,78562
 6.4000e+000 78611 -1.3596e+001 -5.8548e+001  4.8557e+000 57928 78294,78562,78320
 6.4000e+000 79068 -5.1725e+001 -1.0930e+002 -2.7298e+001 57467 78794,78924,78820
 6.4000e+000 79045 -4.2277e+001 -1.0465e+002 -2.4977e+001 57467 78794,78950,78924
 6.4000e+000 79022 -2.1053e+001 -9.8397e+001  1.0611e+001 57467 78820,78898,78872
 6.4000e+000 78999 -3.8151e+001 -1.3666e+002 -1.3914e+001 57467 78820,78924,78898
 6.4000e+000 78976 -1.6827e+001 -1.0032e+002  1.5852e+001 57467 78820,78872,78846
 6.4000e+000 79446 -4.2262e+001 -7.5730e+001 -1.0767e+000 57120 79172,79302,79250
 6.4000e+000 79423 -3.8948e+001 -7.4150e+001 -4.4401e+000 57120 79172,79328,79302
 6.4000e+000 79400 -3.9376e+001 -6.6670e+001 -3.3946e+000 57120 79172,79250,79198
 6.4000e+000 79377 -3.0724e+001 -9.5011e+001  2.3620e+000 57120 79250,79302,79276
 6.4000e+000 79354 -4.5948e+001 -7.3986e+001 -7.7548e+000 57120 79198,79250,79224
 6.4000e+000 79952 -5.8431e+001 -9.2181e+001  6.1831e-001 56773 79629,79785,79655
 6.4000e+000 79929 -1.8629e+001 -7.9691e+001  3.9564e+000 56773 79629,79811,79785
 6.4000e+000 79906 -4.5475e+001 -9.9514e+001  6.7953e+000 56773 79655,79733,79681
 6.4000e+000 79883 -4.4577e+001 -8.8747e+001  1.9490e+000 56773 79655,79785,79733
 6.4000e+000 79860 -4.2450e+001 -1.1848e+002 -1.3748e+001 56773 79733,79785,79759
 6.4000e+000 79837 -2.5369e+001 -9.0098e+001  1.8601e+001 56773 79681,79733,79707
 6.4000e+000 80281 -2.3725e+001 -6.2788e+001 -5.6204e+000 56319 80108,80160,80134
 6.4000e+000 80258 -2.4551e+001 -6.8338e+001 -6.6255e+000 56319 80056,80160,80108
 6.4000e+000 80235 -1.4536e+001 -6.1384e+001  3.0215e+000 56319 80056,80186,80160
 6.4000e+000 80212 -2.9744e+001 -8.6384e+001 -5.6115e+000 56319 80056,80108,80082
 6.4000e+000 80738 -1.4489e+001 -8.2014e+001  4.5071e+000 55957 80516,80620,80594
 6.4000e+000 80715 -3.2042e+001 -7.4171e+001  3.6244e+000 55957 80464,80620,80516
 6.4000e+000 80692 -2.7403e+001 -8.9554e+001  4.4599e+000 55957 80761,80568,80542
 6.4000e+000 80669 -2.3321e+001 -8.8128e+001  5.2793e+000 55957 80761,80542,80516
 6.4000e+000 80646 -3.2824e+001 -7.5688e+001  1.1226e+001 55957 80464,80516,80490
 6.4000e+000 80787 -3.1445e+001 -8.8941e+001  3.1612e+000 55957 80594,80568,80761
 6.4000e+000 80810 -2.7613e+001 -8.7626e+001  4.0243e+000 55957 80594,80761,80516
 6.4000e+000 81210 -2.8385e+001 -8.8004e+001 -6.2680e+000 55317 80936,80988,80962
 6.4000e+000 81187 -2.4536e+001 -9.1826e+001  2.9300e-001 55317 80936,81066,80988
 6.4000e+000 81164 -2.0937e+001 -9.8834e+001  2.4457e+000 55317 80936,81092,81066
 6.4000e+000 81141 -3.4953e+001 -9.8748e+001 -8.3539e+000 55317 80988,81066,81014
 6.4000e+000 81118 -8.2014e+000 -5.6054e+001  6.5733e+000 55317 81014,81066,81040
 6.4000e+000 81539 -3.5484e+001 -7.5575e+001  9.5896e-002 54913 81340,81418,81392
 6.4000e+000 81516 -1.5609e+001 -6.3314e+001 -5.8956e+000 54913 81340,81444,81418
 6.4000e+000 81493 -2.2452e+001 -6.7826e+001 -1.1015e+001 54913 81314,81444,81340
 6.4000e+000 81470 -4.2826e+001 -8.1746e+001 -2.7633e+000 54913 81340,81392,81366
 6.4000e+000 81787 -2.2571e+001 -8.2302e+001 -8.6160e-001 54601 81588,81692,81640
 6.4000e+000 81764 -3.3263e+001 -8.4927e+001 -3.4777e+000 54601 81562,81692,81588
 6.4000e+000 81741 -2.0522e+001 -8.4069e+001  8.9286e+000 54601 81588,81640,81614
 6.4000e+000 81718 -2.3057e+001 -9.8948e+001 -9.6760e+000 54601 81640,81692,81666
 6.4000e+000 82344 -2.9264e+001 -7.7362e+001 -3.2837e+000 54090 81998,82102,82076
 6.4000e+000 82321 -3.9239e+001 -8.1675e+001 -2.5205e+000 54090 81998,82154,82102
 6.4000e+000 82298 -3.4940e+001 -7.9741e+001 -1.4564e+000 54090 81972,82154,81998
 6.4000e+000 82275 -4.0160e+001 -7.1726e+001 -4.1657e+000 54090 81998,82076,82024
 6.4000e+000 82252 -4.3199e+001 -8.5199e+001  3.6763e+000 54090 81972,82180,82154
 6.4000e+000 82229 -5.5323e+001 -1.0133e+002  6.0043e+000 54090 82102,82154,82128
 6.4000e+000 82206 -7.2670e+000 -5.5051e+001 -1.0055e+001 54090 82024,82076,82050
 6.4000e+000 82722 -5.4886e+001 -9.8519e+001 -2.4200e+000 53579 82500,82578,82552
 6.4000e+000 82699 -4.3697e+001 -9.0496e+001  2.1463e+000 53579 82448,82578,82500
 6.4000e+000 82676 -4.8593e+001 -1.0204e+002  3.4839e+000 53579 82448,82500,82474
 6.4000e+000 82653 -5.3785e+001 -9.6017e+001  7.2251e+000 53579 82448,82604,82578
 6.4000e+000 82630 -3.0608e+001 -9.1328e+001 -2.2466e+000 53579 82500,82552,82526
 6.4000e+000 83356 -2.9697e+001 -7.4836e+001 -6.4784e+000 53189 83379,83088,83036
 6.4000e+000 83333 -2.8847e+001 -8.4242e+001 -5.7853e+000 53189 83379,83036,82984
 6.4000e+000 83310 -1.2714e+001 -7.8236e+001  1.2577e+001 53189 82984,83192,83166
 6.4000e+000 83287 -2.8025e+000 -6.2477e+001 -3.5085e+000 53189 83036,83088,83062
 6.4000e+000 83264 -2.0705e+001 -9.3778e+001 -1.3654e+001 53189 82984,83036,83010
 6.4000e+000 83241 -2.1750e+001 -9.3559e+001  2.6724e+000 53189 83114,83166,83140
 6.4000e+000 83218 -4.0822e+001 -9.8952e+001  2.6080e+000 53189 83088,83166,83114
 6.4000e+000 83405 -2.9746e+001 -8.1154e+001 -2.5954e+000 53189 83166,83088,83379
 6.4000e+000 83428 -2.7499e+001 -8.9451e+001 -2.4953e+000 53189 83166,83379,82984
 6.4000e+000 83725 -3.2573e+001 -9.4468e+001 -1.1293e+001 52585 83748,83529,83503
 6.4000e+000 83702 -2.3436e+001 -9.1529e+001 -7.9475e+000 52585 83820,83748,83503
 6.4000e+000 83679 -1.5231e+001 -8.6796e+001 -5.8837e+000 52585 83820,83503,83477
 6.4000e+000 83656 -1.2312e+001 -7.6643e+001  8.1418e+000 52585 83477,83607,83581
 6.4000e+000 83633  2.7154e+000 -6.9519e+001  1.0771e+001 52585 83451,83607,83477
 6.4000e+000 83774 -2.8408e+001 -8.3581e+001 -9.3002e+000 52585 83555,83529,83748
 6.4000e+000 83797 -3.7898e+001 -8.9147e+001 -6.8895e+000 52585 83555,83748,83581
 6.4000e+000 83846 -3.1344e+001 -8.2833e+001 -3.4149e+000 52585 83581,83748,83820
 6.4000e+000 83869 -2.6180e+001 -8.0312e+001 -2.3928e+000 52585 83581,83820,83477
 6.4000e+000 84200 -2.4480e+001 -8.4162e+001 -3.7889e+000 52024 84001,84105,84079
 6.4000e+000 84177 -1.3846e+001 -8.2301e+001 -6.6330e+000 52024 83975,84105,84001
 6.4000e+000 84154 -2.1484e+001 -8.5009e+001 -2.7415e+000 52024 84001,84079,84053
 6.4000e+000 84131 -1.0149e+001 -5.6003e+001  8.2421e+000 52024 84001,84053,84027
 6.4000e+000 84399 -2.4462e+001 -8.2411e+001 -1.7754e+000 51470 84422,84275,84249
 6.4000e+000 84376 -2.4944e+001 -8.2387e+001 -1.8992e+000 51470 84422,84249,84223
 6.4000e+000 84353 -2.5441e+001 -9.0143e+001 -1.2908e+001 51470 84275,84327,84301
 6.4000e+000 84448 -2.4052e+001 -8.2531e+001 -1.8456e+000 51470 84327,84275,84422
 6.4000e+000 84471 -2.4569e+001 -8.2528e+001 -1.9292e+000 51470 84327,84422,84223
 6.4000e+000 84753 -2.4013e+001 -6.9221e+001 -1.3422e+000 51073 84603,84655,84629
 6.4000e+000 84730 -4.8762e+001 -7.9802e+001 -3.6431e+000 51073 84776,84655,84603
 6.4000e+000 84707 -1.1890e+001 -6.6903e+001 -1.9305e+001 51073 84577,84681,84655
 6.4000e+000 84802 -3.1131e+001 -6.9592e+001 -9.6454e+000 51073 84577,84655,84776
 6.4000e+000 85178 -4.7863e+001 -1.0718e+002  9.1949e+000 50519 85201,85008,84982
 6.4000e+000 85155 -4.5457e+001 -1.0075e+002  7.9042e+000 50519 85273,85201,84982
 6.4000e+000 85132 -4.3953e+001 -1.0026e+002  7.0077e+000 50519 85273,84982,84930
 6.4000e+000 85109 -4.2098e+001 -9.6304e+001  5.8818e+000 50519 84930,84982,84956
 6.4000e+000 85086 -4.5227e+001 -1.0686e+002  5.8237e+000 50519 85008,85060,85034
 6.4000e+000 85227 -4.3021e+001 -1.0368e+002  4.7216e+000 50519 85060,85008,85201
 6.4000e+000 85250 -4.5784e+001 -1.0401e+002  3.9572e+000 50519 85060,85201,84904
 6.4000e+000 85299 -4.4349e+001 -1.0259e+002  3.3087e+000 50519 84904,85201,85273
 6.4000e+000 85322 -3.7297e+001 -9.1323e+001  2.9739e-001 50519 84904,85273,84930
 6.4000e+000 85958 -3.2275e+001 -9.2449e+001 -2.9818e+000 50093 85981,85768,85716
 6.4000e+000 85935 -2.8744e+001 -8.4170e+001 -2.6883e+000 50093 85981,85716,85612
 6.4000e+000 85912 -3.8619e+001 -8.6314e+001  1.7396e+000 50093 85612,85716,85664
 6.4000e+000 85889 -2.5654e+001 -8.9431e+001 -9.3033e-001 50093 85716,85768,85742
 6.4000e+000 85866 -3.2172e+001 -6.6991e+001 -1.8060e+001 50093 85664,85716,85690
 6.4000e+000 85843 -1.1364e+001 -6.3278e+001 -2.6864e+000 50093 85586,85794,85612
 6.4000e+000 85820 -2.6471e+001 -1.1733e+002  1.0269e+001 50093 85612,85664,85638
 6.4000e+000 86007 -3.9807e+001 -9.9909e+001 -1.4927e+001 50093 85794,85768,85981
 6.4000e+000 86030 -2.8689e+001 -7.5485e+001 -1.1616e+001 50093 85794,85981,85612
 6.4000e+000 86131 -2.8329e+001 -7.7020e+001  1.0289e+001 49895 86053,86105,86079
 6.4000e+000 86639 -2.3859e+001 -6.1688e+001 -1.3210e+001 49391 86662,86394,86368
 6.4000e+000 86616 -2.8670e+001 -7.7562e+001 -1.1894e+001 49391 86662,86368,86342
 6.4000e+000 86593 -1.3871e+001 -7.7593e+001 -3.4171e+000 49391 86342,86498,86472
 6.4000e+000 86570 -9.0150e+000 -8.3199e+001 -3.7294e+000 49391 86316,86498,86342
 6.4000e+000 86547 -4.5035e+001 -1.1995e+002 -3.2948e+000 49391 86394,86472,86446
 6.4000e+000 86524 -6.1768e+000 -1.1653e+002  1.9113e+000 49391 86394,86446,86420
 6.4000e+000 86688 -2.6564e+001 -7.6456e+001 -6.3524e+000 49391 86472,86394,86662
 6.4000e+000 86711 -2.3967e+001 -8.3298e+001 -6.2287e+000 49391 86472,86662,86342
 6.4000e+000 87089 -3.5270e+001 -8.8152e+001  2.8568e+000 48987 86815,86919,86867
 6.4000e+000 87066 -3.3737e+001 -9.0360e+001  4.0214e+000 48987 86815,86971,86919
 6.4000e+000 87043 -1.4016e+001 -9.5362e+001 -6.9749e+000 48987 86867,86919,86893
 6.4000e+000 87020 -3.8333e+001 -9.7384e+001  9.6502e+000 48987 86815,86867,86841
 6.4000e+000 86997 -3.7110e+001 -7.7919e+001  1.2277e+001 48987 86919,86971,86945
 6.4000e+000 87467 -6.2917e+001 -9.0291e+001  5.8435e+000 48540 87490,87245,87219
 6.4000e+000 87444 -4.3982e+001 -8.4708e+001  1.5550e+000 48540 87562,87490,87219
 6.4000e+000 87421 -3.4587e+001 -8.0900e+001  4.1756e+000 48540 87562,87219,87349
 6.4000e+000 87398 -4.5347e+001 -6.8599e+001 -2.2924e+000 48540 87245,87297,87271
 6.4000e+000 87375 -3.0196e+001 -8.6131e+001  2.6837e+000 48540 87193,87349,87219
 6.4000e+000 87516 -4.2009e+001 -8.4272e+001  3.7176e+000 48540 87297,87245,87490
 6.4000e+000 87539 -4.2358e+001 -8.6760e+001  2.8638e+000 48540 87297,87490,87323
 6.4000e+000 87588 -3.4947e+001 -8.1055e+001  7.7890e+000 48540 87323,87490,87562
 6.4000e+000 87611 -3.0338e+001 -8.1928e+001  9.5138e+000 48540 87323,87562,87349
 6.4000e+000 87810 -3.6508e+001 -1.2859e+002 -9.5133e+000 48136 87660,87712,87686
 6.4000e+000 87787 -2.0001e+001 -7.2722e+001 -4.3704e+000 48136 87660,87738,87712
 6.4000e+000 87764 -4.8819e+001 -7.7237e+001 -1.1570e+001 48136 87634,87738,87660
 6.4000e+000 88205 -3.9502e+001 -9.4243e+001 -1.0210e+001 47210 88300,88228,87937
 6.4000e+000 88182 -3.4767e+001 -9.1523e+001 -3.5057e+000 47210 88228,87833,88041
 6.4000e+000 88159 -4.0495e+001 -1.0200e+002 -1.5130e+001 47210 88300,87937,87911
 6.4000e+000 88136 -3.7321e+001 -9.1672e+001 -1.1090e+001 47210 87833,87911,87859
 6.4000e+000 88113 -6.9308e+001 -8.2967e+001 -1.1324e+001 47210 87937,87989,87963
 6.4000e+000 88090 -3.4598e+001 -7.2731e+001  1.5790e+001 47210 87989,88041,88015
 6.4000e+000 88067 -4.3822e+001 -1.0773e+002 -1.4131e+001 47210 87859,87911,87885
 6.4000e+000 88254 -3.5086e+001 -7.4049e+001 -1.1121e+001 47210 87989,87937,88228
 6.4000e+000 88277 -4.3755e+001 -8.9302e+001 -4.4632e+000 47210 87989,88228,88041
 6.4000e+000 88326 -3.3227e+001 -8.7323e+001 -4.1489e+000 47210 87833,88228,88300
 6.4000e+000 88349 -3.5076e+001 -9.2285e+001 -9.5234e+000 47210 87833,88300,87911
 6.4000e+000 88780 -5.0275e+001 -9.0464e+001 -1.6512e+001 46642 88803,88509,88483
 6.4000e+000 88757 -3.7040e+001 -8.2026e+001 -8.7843e+000 46642 88803,88483,88639
 6.4000e+000 88734 -3.9930e+001 -6.6833e+001 -1.0574e+001 46642 88875,88561,88509
 6.4000e+000 88711 -4.1038e+001 -6.1615e+001 -1.0739e+000 46642 88509,88561,88535
 6.4000e+000 88688 -2.4860e+001 -9.3893e+001  3.2907e-001 46642 88457,88639,88483
 6.4000e+000 88665 -4.6639e+001 -1.1106e+002 -4.2336e+000 46642 88561,88613,88587
 6.4000e+000 88829 -4.0679e+001 -7.3165e+001 -1.2046e+001 46642 88875,88509,88803
 6.4000e+000 88852 -4.0041e+001 -8.8906e+001 -8.0667e+000 46642 88613,88803,88639
 6.4000e+000 88901 -3.2073e+001 -7.5538e+001 -5.2665e+000 46642 88613,88561,88875
 6.4000e+000 88924 -3.5494e+001 -8.5659e+001 -6.5906e+000 46642 88613,88875,88803
 6.4000e+000 89253 -1.5810e+001 -8.6767e+001  1.8953e+000 46444 89080,89158,89132
 6.4000e+000 89230 -1.6643e+001 -8.8013e+001  2.8429e-001 46444 89028,89158,89080
 6.4000e+000 89207 -8.5356e+000 -8.2470e+001 -2.2360e+000 46444 89028,89080,89054
 6.4000e+000 89184 -3.3778e+000 -9.4508e+001 -8.6606e+000 46444 89080,89132,89106
 6.4000e+000 89631 -2.8452e+001 -6.3218e+001  1.9514e+000 46040 89383,89461,89435
 6.4000e+000 89608 -2.9788e+001 -6.9509e+001 -3.7635e+000 46040 89383,89487,89461
 6.4000e+000 89585 -3.1944e+001 -8.1774e+001 -2.1242e+000 46040 89383,89435,89409
 6.4000e+000 89562 -2.3045e+001 -5.8670e+001 -8.3763e+000 46040 89383,89513,89487
 6.4000e+000 89539 -9.7528e+000 -5.2071e+001 -1.1443e+001 46040 89357,89513,89383
 6.4000e+000 90009 -3.0266e+001 -8.1267e+001 -6.9320e-002 45636 89813,89891,89839
 6.4000e+000 89986 -3.0780e+001 -7.5126e+001  4.6460e+000 45636 89787,89891,89813
 6.4000e+000 89963 -2.7124e+001 -7.6141e+001 -1.9003e+000 45636 89839,89891,89865
 6.4000e+000 89940 -3.4841e+001 -8.3899e+001  3.0386e+000 45636 89735,89891,89787
 6.4000e+000 89917 -2.7652e+001 -8.4614e+001 -3.2483e+000 45636 89735,89787,89761
 6.4000e+000 90208 -1.8074e+001 -6.1820e+001 -1.2785e+001 45175 90231,90058,90032
 6.4000e+000 90185 -1.1111e+001 -5.6599e+001 -1.8949e+001 45175 90231,90032,90136
 6.4000e+000 90162 -1.9627e+001 -4.6550e+001 -8.6352e-001 45175 90058,90110,90084
 6.4000e+000 90257 -2.6010e+001 -6.9450e+001 -3.9007e+000 45175 90110,90058,90231
 6.4000e+000 90280 -1.2644e+001 -6.0366e+001 -1.0758e+001 45175 90110,90231,90136
 6.4000e+000 90528 -1.9528e+001 -6.1534e+001 -8.7736e+000 44513 90695,90551,90407
 6.4000e+000 90505 -2.1857e+001 -5.6500e+001 -6.1639e+000 44513 90551,90355,90329
 6.4000e+000 90482 -2.4019e+001 -6.0715e+001 -8.0601e+000 44513 90623,90303,90433
 6.4000e+000 90459 -1.6339e+001 -5.6778e+001 -5.9083e+000 44513 90695,90407,90381
 6.4000e+000 90577 -2.8137e+001 -6.4268e+001 -1.4460e+001 44513 90433,90407,90551
 6.4000e+000 90600 -2.4287e+001 -5.8997e+001 -7.9547e+000 44513 90623,90433,90551
 6.4000e+000 90649 -2.3115e+001 -5.8762e+001 -8.3610e+000 44513 90329,90303,90623
 6.4000e+000 90672 -2.3727e+001 -5.8111e+001 -8.2146e+000 44513 90329,90623,90551
 6.4000e+000 90721 -2.4306e+001 -5.4843e+001 -1.0215e+001 44513 90355,90551,90695
 6.4000e+000 90744 -2.3818e+001 -5.1978e+001 -9.0244e+000 44513 90355,90695,90381
 6.4000e+000 91077  3.6547e+000 -6.3642e+001 -3.6863e+000 44059 91100,90930,90904
 6.4000e+000 91054 -2.5557e+001 -6.9339e+001  5.0879e+000 44059 91100,90904,90982
 6.4000e+000 91031 -4.6205e+001 -8.0283e+001 -4.5569e+000 44059 90878,90982,90904
 6.4000e+000 91008 -1.7698e+001 -6.3123e+001  2.8463e+000 44059 90852,90982,90878
 6.4000e+000 91126 -4.4516e+001 -7.7275e+001 -3.1024e+000 44059 91172,91100,90956
 6.4000e+000 91149 -2.6044e+001 -7.2433e+001 -3.2404e+000 44059 90956,91100,90982
 6.4000e+000 91198  4.6264e+000 -2.4797e+001 -2.3356e+001 44059 90930,91100,91172
 6.4000e+000 91677 -2.8873e+001 -4.5434e+001  4.0918e+000 43549 91455,91533,91481
 6.4000e+000 91654 -1.0359e+001 -4.5221e+001  6.1195e+000 43549 91429,91533,91455
 6.4000e+000 91631 -2.7750e+001 -4.5251e+001  1.6881e+000 43549 91481,91533,91507
 6.4000e+000 91608 -5.6062e+000 -4.3325e+001  2.2314e+000 43549 91429,91559,91533
 6.4000e+000 91585  2.9658e+000 -7.7611e+000 -5.2903e-001 43549 91403,91559,91429
 6.4000e+000 92006 -3.3756e+001 -8.1529e+001  6.7000e-001 43059 91781,91885,91807
 6.4000e+000 91983 -3.5230e+001 -7.7048e+001  1.3205e+001 43059 91781,91911,91885
 6.4000e+000 91960 -3.3322e+001 -7.9995e+001 -1.6350e-001 43059 91807,91885,91833
 6.4000e+000 91937 -2.2223e+001 -7.5290e+001 -5.5586e-002 43059 91833,91885,91859
 6.4000e+000 92561 -2.0775e+001 -4.8904e+001 -5.7194e+000 42598 92584,92215,92189
 6.4000e+000 92538 -2.3621e+001 -5.4173e+001 -4.6192e+000 42598 92656,92584,92189
 6.4000e+000 92515 -2.0680e+001 -6.0883e+001 -1.2240e+000 42598 92656,92189,92397
 6.4000e+000 92492 -3.3276e+001 -4.3710e+001 -6.8844e+000 42598 92241,92319,92293
 6.4000e+000 92469 -2.6994e+001 -5.2828e+001  4.2583e+000 42598 92319,92397,92371
 6.4000e+000 92446 -6.3255e+000 -6.8166e+001  3.4127e+001 42598 92319,92371,92345
 6.4000e+000 92423 -2.9480e+001 -4.4518e+001 -1.1072e+001 42598 92241,92293,92267
 6.4000e+000 92610 -2.3758e+001 -5.0530e+001 -6.4555e+000 42598 92241,92215,92584
 6.4000e+000 92633 -2.1214e+001 -4.4577e+001 -6.3495e+000 42598 92241,92584,92319
 6.4000e+000 92682 -2.0807e+001 -4.5064e+001 -2.9677e+000 42598 92319,92584,92656
 6.4000e+000 92705 -1.6644e+001 -4.9864e+001 -3.7190e-001 42598 92319,92656,92397
 6.4000e+000 92953 -3.4877e+001 -8.6718e+001  4.5580e+000 42094 92976,92806,92780
 6.4000e+000 92930 -3.8561e+001 -8.1507e+001 -1.5222e-001 42094 92976,92780,92754
 6.4000e+000 92907 -1.0266e+001 -8.3191e+001 -8.1049e-001 42094 93048,92832,92806
 6.4000e+000 92884 -4.7546e+001 -8.4262e+001 -5.1468e+000 42094 92728,92858,92754
 6.4000e+000 93002 -2.3323e+001 -8.0253e+001  1.9992e+000 42094 93048,92806,92976
 6.4000e+000 93025 -3.5895e+001 -8.0097e+001 -1.2315e+000 42094 92858,92976,92754
 6.4000e+000 93074 -2.8681e+001 -8.9485e+001 -6.7581e-001 42094 92858,92832,93048
 6.4000e+000 93097 -3.9103e+001 -8.4737e+001  9.1523e-001 42094 92858,93048,92976
 6.4000e+000 93605 -3.3697e+001 -9.7623e+001 -4.3089e+000 41846 93628,93412,93386
 6.4000e+000 93582 -2.7430e+001 -7.2013e+001 -2.1934e+000 41846 93628,93386,93308
 6.4000e+000 93559 -3.7247e+001 -7.3372e+001 -1.7050e+001 41846 93700,93464,93438
 6.4000e+000 93536 -4.0279e+001 -1.0306e+002  4.9874e-001 41846 93308,93386,93334
 6.4000e+000 93513 -4.8254e+001 -6.6325e+001 -1.6664e+001 41846 93334,93386,93360
 6.4000e+000 93490 -3.3265e+001 -6.4687e+001 -1.9303e+001 41846 93282,93464,93308
 6.4000e+000 93654 -3.0419e+001 -7.7078e+001 -7.8230e+000 41846 93438,93412,93628
 6.4000e+000 93677 -3.9564e+001 -7.6150e+001 -7.3027e+000 41846 93700,93438,93628
 6.4000e+000 93726 -3.1876e+001 -6.1642e+001 -1.8362e+001 41846 93308,93464,93700
 6.4000e+000 93749 -3.2554e+001 -6.0602e+001 -8.7899e+000 41846 93308,93700,93628
 6.4000e+000 94255 -3.1408e+001 -8.3285e+001  5.5558e+000 41385 93958,94114,94088
 6.4000e+000 94232 -2.5982e+001 -8.9949e+001  2.2450e+000 41385 93932,94114,93958
 6.4000e+000 94209 -4.9509e+001 -9.5822e+001  1.5986e+001 41385 93958,94088,94062
 6.4000e+000 94186 -5.1079e+001 -6.8069e+001  1.1648e+001 41385 93958,94062,93984
 6.4000e+000 94163 -4.2334e+001 -6.7778e+001  8.6023e+000 41385 93984,94062,94036
 6.4000e+000 94140 -2.8599e+001 -8.7815e+001  1.1992e+001 41385 93984,94036,94010
 6.4000e+000 94476 -1.1757e+001 -1.1586e+002  6.1105e+000 40881 94326,94378,94352
 6.4000e+000 94453 -1.9575e+001 -9.2858e+001  7.8839e+000 40881 94300,94378,94326
 6.4000e+000 94430 -2.5855e+001 -8.5602e+001  7.5408e-001 40881 94300,94404,94378
 6.4000e+000 94626 -1.5082e+001 -5.4211e+001 -2.3869e+000 40591 94649,94551,94525
 6.4000e+000 94603 -9.5763e+000 -2.9241e+001  2.3635e+000 40591 94781,94577,94551
 6.4000e+000 94675 -2.7394e+000 -3.7291e+001 -8.5637e+000 40591 94781,94551,94649
 6.4000e+000 94807  7.3754e+000 -1.4606e+001  1.0501e+001 40591 94499,94577,94781
 6.4000e+000 94830  1.0208e+001 -2.9692e+001 -1.2445e+000 40591 94499,94781,94649
 6.4000e+000 95336 -6.9621e+001 -7.8356e+001 -1.5300e+001 40187 95013,95169,95039
 6.4000e+000 95313 -1.9216e+001 -6.9399e+001 -2.3812e-001 40187 95013,95195,95169
 6.4000e+000 95290 -1.1510e+001 -7.2659e+001 -9.8150e+000 40187 95039,95143,95065
 6.4000e+000 95267 -4.5762e+001 -8.6498e+001 -1.3743e+001 40187 95039,95169,95143
 6.4000e+000 95244 -1.0711e+001 -4.2340e+001 -2.9244e+000 40187 95091,95143,95117
 6.4000e+000 95221 -2.8972e+000 -2.5718e+001 -8.8830e-001 40187 95065,95143,95091
 6.4000e+000 95665 -1.6958e+001 -4.6285e+001  3.0773e+001 39626 95466,95570,95544
 6.4000e+000 95642 -3.8783e+001 -3.4611e+001  2.0077e+001 39626 95440,95570,95466
 6.4000e+000 95619 -6.8238e+001 -7.0153e+001  2.1551e+001 39626 95466,95544,95492
 6.4000e+000 95596 -1.0057e+001 -5.3368e+001  3.0803e+001 39626 95492,95544,95518
 6.4000e+000 95913 -3.2714e+001 -6.6884e+001 -9.8292e+000 39136 96080,95936,95766
 6.4000e+000 95890 -2.2251e+001 -7.2676e+001 -6.7703e+000 39136 95936,95714,95688
 6.4000e+000 95867 -5.5852e+001 -7.3092e+001  3.4723e+000 39136 96008,95792,95766
 6.4000e+000 95844 -2.7606e+001 -6.5060e+001 -7.6379e+000 39136 96080,95766,95740
 6.4000e+000 95962 -4.4236e+001 -7.5202e+001 -6.1004e+000 39136 96008,95766,95936
 6.4000e+000 95985 -2.9074e+001 -8.9637e+001 -1.9315e+000 39136 95818,95936,95688
 6.4000e+000 96034 -2.8036e+001 -6.1086e+001  4.4890e+000 39136 95818,95792,96008
 6.4000e+000 96057 -2.4970e+001 -6.6864e+001 -4.8960e+000 39136 95818,96008,95936
 6.4000e+000 96106 -3.0144e+001 -6.6327e+001 -2.8842e+000 39136 95714,95936,96080
 6.4000e+000 96129 -2.2066e+001 -6.4071e+001 -1.2046e+000 39136 95714,96080,95740
 6.4000e+000 96350 -2.0035e+001 -5.2483e+001 -4.2263e+000 38824 96200,96278,96252
 6.4000e+000 96327 -1.6567e+001 -4.9924e+001 -2.8061e+000 38824 96174,96278,96200
 6.4000e+000 96304  1.2858e-001 -4.8117e+001 -1.1322e+001 38824 96200,96252,96226
 6.4000e+000 96830 -2.8828e+001 -5.4361e+001 -5.2007e+000 38320 97069,96536,96484
 6.4000e+000 96807 -2.8275e+001 -5.5115e+001 -5.1628e+000 38320 97069,96484,96853
 6.4000e+000 96784 -3.2081e+001 -5.8998e+001 -8.9110e-001 38320 96853,96484,96458
 6.4000e+000 96761 -1.6912e+001 -4.6952e+001 -7.3358e+000 38320 96925,96640,96614
 6.4000e+000 96738 -2.7328e+001 -4.8716e+001 -3.8169e+000 38320 96997,96666,96640
 6.4000e+000 96715 -2.3700e+001 -6.6029e+001 -2.7528e+000 38320 97141,96588,96562
 6.4000e+000 96692 -3.6963e+001 -6.3525e+001 -1.6077e+000 38320 96484,96536,96510
 6.4000e+000 96879 -2.8756e+001 -5.9656e+001 -3.3854e+000 38320 97141,96562,96853
 6.4000e+000 96902 -2.6162e+001 -5.6790e+001 -3.5156e+000 38320 96925,96614,96853
 6.4000e+000 96951 -2.6897e+001 -4.8294e+001 -4.1458e+000 38320 96997,96640,96925
 6.4000e+000 96974 -2.5820e+001 -4.7773e+001 -3.3792e+000 38320 96458,96925,96853
 6.4000e+000 97023 -2.9501e+001 -4.9317e+001 -2.6755e+000 38320 96458,96666,96997
 6.4000e+000 97046 -2.7858e+001 -4.8426e+001 -3.0487e+000 38320 96458,96997,96925
 6.4000e+000 97095 -3.0130e+001 -5.2884e+001 -1.6454e+000 38320 96562,96536,97069
 6.4000e+000 97118 -2.6872e+001 -5.4592e+001 -4.5743e+000 38320 96562,97069,96853
 6.4000e+000 97167 -1.5270e+001 -5.9847e+001 -5.4651e+000 38320 96614,96588,97141
 6.4000e+000 97190 -2.3501e+001 -5.5713e+001 -5.2471e+000 38320 96614,97141,96853
 6.4000e+000 97519 -2.1078e+001 -7.5853e+001  2.1643e+001 37766 97542,97398,97372
 6.4000e+000 97496 -2.4889e+001 -5.7594e+001  1.5985e+001 37766 97542,97372,97346
 6.4000e+000 97473 -2.5877e+001 -6.3207e+001  2.3986e-001 37766 97294,97424,97346
 6.4000e+000 97450 -2.9058e+001 -7.1228e+001  1.9553e-001 37766 97294,97346,97320
 6.4000e+000 97568 -1.0211e+001 -8.1281e+001  6.2249e+000 37766 97424,97398,97542
 6.4000e+000 97591 -1.6471e+001 -5.9836e+001  1.7229e+000 37766 97424,97542,97346
 6.4000e+000 98048 -3.0016e+001 -4.4620e+001 -1.5900e+001 37262 98071,97878,97852
 6.4000e+000 98025 -2.4738e+001 -5.4244e+001 -6.2289e+000 37262 98071,97852,97800
 6.4000e+000 98002 -2.5125e+001 -6.3571e+001 -8.5235e+000 37262 97800,97852,97826
 6.4000e+000 97979 -2.8016e+001 -5.8711e+001 -7.9371e-002 37262 97800,97930,97904
 6.4000e+000 97956 -1.7981e+001 -6.4510e+001  3.3018e+000 37262 97774,97930,97800
 6.4000e+000 98097 -4.4666e+001 -5.1680e+001 -1.1607e+001 37262 97904,97878,98071
 6.4000e+000 98120 -3.2618e+001 -6.1705e+001 -2.7031e+000 37262 97904,98071,97800
 6.4000e+000 98449 -2.0237e+001 -4.8518e+001 -6.1044e+000 36950 98472,98302,98250
 6.4000e+000 98426 -1.2646e+001 -4.6016e+001 -7.5593e+000 36950 98472,98250,98354
 6.4000e+000 98403 -3.1281e+001 -5.6371e+001  6.4297e+000 36950 98250,98302,98276
 6.4000e+000 98380 -8.8453e+000 -3.4572e+001  5.9014e+000 36950 98224,98354,98250
 6.4000e+000 98498 -1.4567e+001 -5.4953e+001 -1.5668e+000 36950 98328,98302,98472
 6.4000e+000 98521 -5.6039e+000 -5.1175e+001 -4.3045e+000 36950 98328,98472,98354
 6.4000e+000 99125 -3.1222e+001 -3.1572e+001  2.7979e-001 36296 98704,98756,98730
 6.4000e+000 99102 -3.9210e+001 -3.4268e+001  3.4211e+000 36296 98704,98938,98756
 6.4000e+000 99079 -2.6556e+001 -4.5580e+001 -1.5757e+000 36296 99148,98938,98912
 6.4000e+000 99056 -2.6978e+001 -4.7476e+001  1.1600e+001 36296 99292,99220,98782
 6.4000e+000 99033 -2.2998e+001 -5.4424e+001  1.2044e+000 36296 99148,98912,98834
 6.4000e+000 99010 -2.6669e+001 -4.0368e+001  1.3797e+001 36296 99292,98782,98756
 6.4000e+000 98987 -2.2761e+001 -9.6770e+001 -1.7790e+001 36296 98834,98912,98886
 6.4000e+000 98964 -3.5870e+001 -1.3662e+002 -2.2374e+001 36296 98834,98886,98860
 6.4000e+000 99174 -3.3228e+001 -5.8024e+001  1.7401e+000 36296 99220,98938,99148
 6.4000e+000 99197 -2.2566e+001 -6.6965e+001  7.2917e+000 36296 98808,99148,98834
 6.4000e+000 99246 -2.8113e+001 -4.9942e+001  2.7117e+001 36296 98808,98782,99220
 6.4000e+000 99269 -1.1754e+001 -4.1840e+001  8.8783e+000 36296 98808,99220,99148
 6.4000e+000 99318 -3.1822e+001 -4.1646e+001  7.0467e+000 36296 98938,99220,99292
 6.4000e+000 99341 -3.2407e+001 -4.2520e+001  8.8454e+000 36296 98938,99292,98756
 6.4000e+000 99719 -3.9247e+001 -7.8508e+001  4.7536e-001 35742 99742,99471,99601
 6.4000e+000 99696 -3.9403e+001 -6.3017e+001  7.4349e+000 35742 99445,99601,99471
 6.4000e+000 99673 -3.7300e+001 -7.4036e+001 -2.3621e+000 35742 99742,99601,99575
 6.4000e+000 99650 -3.2948e+001 -9.3899e+001 -1.9591e+000 35742 99814,99549,99523
 6.4000e+000 99627 -2.7236e+001 -7.2872e+001  2.9154e-001 35742 99471,99523,99497
 6.4000e+000 99768 -3.1671e+001 -7.6844e+001  2.1384e+000 35742 99523,99471,99742
 6.4000e+000 99791 -3.7335e+001 -8.6197e+001 -1.5171e+000 35742 99814,99523,99742
 6.4000e+000 99840 -3.2603e+001 -8.4289e+001 -4.8832e+000 35742 99575,99549,99814
 6.4000e+000 99863 -3.5261e+001 -7.4181e+001 -4.1608e+000 35742 99575,99814,99742
 6.4000e+000 100111 -3.1001e+001 -6.4445e+001  5.3958e+000 35302 100134,99990,99938
 6.4000e+000 100088 -2.6073e+001 -5.7812e+001  2.5566e+000 35302 100134,99938,99912
 6.4000e+000 100065 -2.6446e+001 -5.7455e+001 -1.2531e+000 35302 100206,99886,100016
 6.4000e+000 100042 -3.7683e+001 -6.4832e+001  3.5612e+000 35302 99938,99990,99964
 6.4000e+000 100160 -2.5168e+001 -6.2329e+001  9.6812e-001 35302 100016,99990,100134
 6.4000e+000 100183 -2.4930e+001 -5.8741e+001 -1.2183e+000 35302 100206,100016,100134
 6.4000e+000 100232 -2.7726e+001 -5.8943e+001 -3.2765e-001 35302 99912,99886,100206
 6.4000e+000 100255 -2.6309e+001 -6.0546e+001 -3.4132e-001 35302 99912,100206,100134
 6.4000e+000 100586 -3.8288e+001 -3.8189e+001  1.5703e+001 35012 100609,100387,100361
 6.4000e+000 100563 -4.8016e+001 -2.2563e+001 -8.8641e+000 35012 100609,100361,100465
 6.4000e+000 100540 -2.3124e+001 -1.5738e+001 -2.0199e+001 35012 100361,100491,100465
 6.4000e+000 100517 -7.6880e-001 -1.6031e+001 -2.4518e+001 35012 100413,100465,100439
 6.4000e+000 100635 -1.3849e+001 -2.7283e+001  5.3869e+000 35012 100413,100387,100609
 6.4000e+000 100658 -2.2263e+001 -6.9586e+000 -1.9800e+001 35012 100413,100609,100465
 6.4000e+000 100987 -2.9178e+001 -6.6427e+001  5.7272e+000 34700 100788,100866,100814
 6.4000e+000 100964 -2.4691e+001 -4.7139e+001  1.0865e+001 34700 101010,100866,100788
 6.4000e+000 100941 -1.1691e+001 -2.7232e+001  9.4726e+000 34700 100762,100892,100866
 6.4000e+000 100918 -2.6433e+001 -5.9772e+001  5.0508e+000 34700 100814,100866,100840
 6.4000e+000 101036 -1.4472e+001 -3.9453e+001  1.7784e+001 34700 100762,100866,101010
 6.4000e+000 101493 -4.0160e+001 -7.3999e+001 -5.2540e+000 34132 101516,101349,101297
 6.4000e+000 101470 -4.7183e+001 -8.7573e+001 -8.8792e+000 34132 101588,101516,101297
 6.4000e+000 101447 -4.7056e+001 -9.1132e+001 -1.3394e+001 34132 101588,101297,101245
 6.4000e+000 101424 -3.1508e+001 -1.0523e+002 -1.2481e+001 34132 101245,101297,101271
 6.4000e+000 101401 -4.2927e+001 -7.3711e+001 -6.9049e+000 34132 101297,101349,101323
 6.4000e+000 101542 -4.0637e+001 -8.4766e+001 -4.3070e+000 34132 101375,101349,101516
 6.4000e+000 101565 -3.7878e+001 -8.5740e+001 -5.1921e+000 34132 101375,101516,101219
 6.4000e+000 101614 -3.8676e+001 -8.7520e+001 -4.9371e+000 34132 101219,101516,101588
 6.4000e+000 101637 -4.2881e+001 -9.1292e+001 -9.1982e+000 34132 101219,101588,101245
 6.4000e+000 101858 -9.3921e+000 -5.2535e+001  6.3139e+000 33720 101708,101786,101760
 6.4000e+000 101835 -3.6131e+000 -5.6085e+001  9.8883e+000 33720 101682,101786,101708
 6.4000e+000 101812 -1.6403e+001 -5.6035e+001  4.8828e+000 33720 101708,101760,101734
 6.4000e+000 102128 -1.1389e+001 -7.7616e+001 -2.2035e+000 33130 101903,102007,101929
 6.4000e+000 102105 -1.2546e+001 -8.9787e+001  2.8357e+000 33130 101903,102033,102007
 6.4000e+000 102082 -7.3147e+000 -9.2334e+001 -1.7473e+001 33130 101929,102007,101955
 6.4000e+000 102059 -1.5374e+001 -6.5195e+001  1.7898e+000 33130 101955,102007,101981
 6.4000e+000 102461 -1.9179e+001 -4.8543e+001 -6.1719e+000 32840 102236,102340,102262
 6.4000e+000 102438 -1.7320e+001 -3.3431e+001  2.1017e+000 32840 102236,102366,102340
 6.4000e+000 102415 -9.5132e+000 -4.6207e+001 -5.1879e+000 32840 102262,102340,102288
 6.4000e+000 102392 -1.9766e+001 -4.7654e+001 -1.3081e+001 32840 102288,102340,102314
 6.4000e+000 102997 -2.5946e+001 -4.4540e+001  1.2083e+001 32493 102749,102879,102853
 6.4000e+000 102974 -2.2206e+001 -3.6925e+001  9.8954e+000 32493 102723,102879,102749
 6.4000e+000 102951 -2.8971e+001 -5.2752e+001  8.7755e+000 32493 102749,102801,102775
 6.4000e+000 102928 -3.2347e+001 -5.2401e+001  8.3653e+000 32493 102749,102853,102801
 6.4000e+000 102905 -3.2278e+001 -5.2998e+001  7.6721e+000 32493 102801,102853,102827
 6.4000e+000 103454 -1.7324e+001 -3.5081e+001 -5.9406e+000 32089 103206,103336,103310
 6.4000e+000 103431 -1.1621e+001 -4.0722e+001 -9.4452e-001 32089 103180,103336,103206
 6.4000e+000 103408 -2.6253e+001 -4.6564e+001 -1.0379e+001 32089 103206,103284,103258
 6.4000e+000 103385 -3.6650e+001 -4.7093e+001 -1.2803e+001 32089 103206,103310,103284
 6.4000e+000 103362 -1.9528e+001 -3.0045e+001 -8.5337e+000 32089 103206,103258,103232
 6.4000e+000 103783 -4.4057e+001 -5.5672e+001 -6.7999e+000 31742 103558,103662,103584
 6.4000e+000 103760 -3.6688e+001 -4.6825e+001 -1.7936e+001 31742 103558,103688,103662
 6.4000e+000 103737 -2.9494e+001 -4.3196e+001 -1.3163e+001 31742 103584,103662,103636
 6.4000e+000 103714 -2.9131e+001 -5.1624e+001 -1.3892e+001 31742 103584,103636,103610
 6.4000e+000 104112 -7.0768e+000 -4.1138e+001  6.4284e+000 31402 103939,103991,103965
 6.4000e+000 104089 -1.1192e+001 -3.3281e+001  3.6798e+000 31402 103913,103991,103939
 6.4000e+000 104066 -1.6741e+001 -4.1089e+001 -9.7332e-001 31402 103913,104017,103991
 6.4000e+000 104043 -2.3656e+001 -3.6920e+001 -5.6370e+000 31402 103887,104017,103913
 6.4000e+000 104569 -4.2678e+001 -7.6910e+001  3.8569e+000 30998 104321,104425,104373
 6.4000e+000 104546 -4.6244e+001 -7.8541e+001  4.2367e+000 30998 104321,104451,104425
 6.4000e+000 104523 -3.1172e+001 -6.0902e+001  1.2610e+001 30998 104373,104425,104399
 6.4000e+000 104500 -3.4760e+001 -8.9552e+001 -1.1904e+000 30998 104295,104451,104321
 6.4000e+000 104477 -5.8889e+001 -9.1249e+001  2.0261e+001 30998 104321,104373,104347
 6.4000e+000 104947 -4.4087e+001 -7.1237e+001 -1.0116e+001 30608 104751,104803,104777
 6.4000e+000 104924 -2.7092e+001 -7.2078e+001 -3.7502e+000 30608 104725,104803,104751
 6.4000e+000 104901 -4.2157e+001 -6.9233e+001  4.3750e+000 30608 104699,104803,104725
 6.4000e+000 104878 -3.5233e+001 -6.5922e+001  3.4133e+000 30608 104673,104803,104699
 6.4000e+000 104855 -2.6870e+001 -6.0462e+001 -2.6863e+000 30608 104673,104829,104803
 6.4000e+000 105276 -3.1679e+001 -6.4476e+001  1.1758e+000 30204 105427,105129,105077
 6.4000e+000 105253 -2.0874e+001 -7.2779e+001  1.5269e+001 30204 105427,105077,105051
 6.4000e+000 105230 -2.5445e+001 -6.3006e+001  1.4587e+000 30204 105077,105129,105103
 6.4000e+000 105207 -1.2370e+001 -5.3992e+001  7.9396e+000 30204 105299,105181,105155
 6.4000e+000 105325 -1.6190e+001 -5.3762e+001  1.5031e+000 30204 105129,105181,105299
 6.4000e+000 105453 -3.8363e+001 -6.9458e+001  8.7660e+000 30204 105181,105129,105427
 6.4000e+000 105476 -4.5586e+001 -8.6007e+001  2.4878e+001 30204 105181,105427,105051
 6.4000e+000 105903 -2.3706e+001 -5.5434e+001 -4.2542e+000 29700 105606,105762,105736
 6.4000e+000 105880 -3.0399e+001 -5.6985e+001 -1.3949e-001 29700 105580,105762,105606
 6.4000e+000 105857 -3.6587e+001 -6.9848e+001 -4.2412e+000 29700 105606,105710,105632
 6.4000e+000 105834 -3.0481e+001 -5.9573e+001 -1.6882e+000 29700 105606,105736,105710
 6.4000e+000 105811 -3.4110e+001 -6.5619e+001 -5.2736e+000 29700 105632,105710,105684
 6.4000e+000 105788 -3.3480e+001 -6.3984e+001 -2.7410e+000 29700 105632,105684,105658
 6.4000e+000 106102 -9.5638e+000 -6.7374e+001  2.2525e+000 29124 105978,106030,106004
 6.4000e+000 106079 -1.6841e+001 -6.5077e+001  2.9079e+000 29124 105926,106030,105978
 6.4000e+000 106056 -2.0667e+001 -7.7521e+001  7.5202e+000 29124 105926,105978,105952
 6.4000e+000 106301 -1.9659e+001 -6.8688e+001  5.1704e-001 28712 106151,106229,106203
 6.4000e+000 106278 -2.3714e+001 -7.6362e+001 -3.3728e+000 28712 106125,106229,106151
 6.4000e+000 106255 -2.0101e+001 -7.1766e+001  3.6045e+000 28712 106151,106203,106177
 6.4000e+000 106551 -2.2216e+001 -8.3032e+001  5.6187e+000 28258 106352,106404,106378
 6.4000e+000 106528 -3.1400e+001 -8.3916e+001  2.2613e+000 28258 106352,106456,106404
 6.4000e+000 106505 -3.2204e+001 -8.4147e+001  2.1485e+000 28258 106326,106456,106352
 6.4000e+000 106482 -2.7110e+001 -7.6985e+001 -2.7054e-001 28258 106404,106456,106430
 6.4000e+000 107012 -2.9548e+001 -7.2298e+001  1.4449e+001 27818 107035,106790,106764
 6.4000e+000 106989 -2.5672e+001 -6.7912e+001  5.8709e+000 27818 107035,106764,106868
 6.4000e+000 106966 -1.8120e+001 -8.4503e+001  8.3446e+000 27818 107107,106842,106816
 6.4000e+000 106943 -3.6624e+001 -6.1362e+001  2.6504e+000 27818 106738,106868,106764
 6.4000e+000 106920 -3.6714e+001 -5.7813e+001  8.9288e+000 27818 106738,106894,106868
 6.4000e+000 107061 -1.4119e+001 -6.9201e+001  1.6406e+001 27818 106816,106790,107035
 6.4000e+000 107084 -2.3515e+001 -7.8095e+001  8.8198e+000 27818 107107,106816,107035
 6.4000e+000 107133 -1.6321e+001 -7.5296e+001  3.9056e+000 27818 106868,106842,107107
 6.4000e+000 107156 -2.0139e+001 -6.5930e+001  5.4590e+000 27818 106868,107107,107035
 6.4000e+000 107613 -1.0833e+001 -5.5499e+001  1.1966e+001 27312 107339,107469,107365
 6.4000e+000 107590 -3.3148e+000 -5.1479e+001  1.0335e+001 27312 107339,107495,107469
 6.4000e+000 107567 -1.1646e+001 -5.2416e+001  5.7889e+000 27312 107391,107469,107443
 6.4000e+000 107544 -7.5235e+000 -5.6126e+001  5.7216e+000 27312 107365,107469,107391
 6.4000e+000 107521 -2.8915e+001 -5.8709e+001  3.8748e+000 27312 107391,107443,107417
 6.4000e+000 107991 -2.4329e+001 -8.0049e+001  3.7258e+000 26858 108086,108014,107795
 6.4000e+000 107968 -2.7698e+001 -7.9673e+001 -2.5740e+000 26858 108014,107717,107873
 6.4000e+000 107945 -2.8917e+001 -8.6812e+001  6.0218e+000 26858 108158,108086,107795
 6.4000e+000 107922 -2.3022e+001 -9.0936e+001  7.3018e+000 26858 108158,107795,107769
 6.4000e+000 107899 -2.2795e+001 -9.9943e+001  1.4172e+001 26858 107821,107873,107847
 6.4000e+000 108040 -2.6959e+001 -9.2269e+001  4.6812e+000 26858 107821,107795,108014
 6.4000e+000 108063 -1.7481e+001 -8.5179e+001  8.9808e-001 26858 107821,108014,107873
 6.4000e+000 108112 -3.4433e+001 -8.4270e+001  3.9018e+000 26858 107717,108014,108086
 6.4000e+000 108135 -2.8781e+001 -8.1996e+001  7.6785e+000 26858 107717,108086,107743
 6.4000e+000 108184 -2.2875e+001 -8.0392e+001  8.5168e+000 26858 107743,108086,108158
 6.4000e+000 108207 -1.9185e+001 -8.6082e+001  9.0951e+000 26858 107743,108158,107769
 6.4000e+000 108634 -3.6668e+001 -7.4039e+001  1.5294e+000 26404 108657,108415,108363
 6.4000e+000 108611 -4.1965e+001 -8.0896e+001  9.9720e+000 26404 108657,108363,108337
 6.4000e+000 108588 -3.5887e+001 -7.9982e+001  9.3625e+000 26404 108729,108311,108467
 6.4000e+000 108565 -3.8113e+001 -9.1943e+001  2.3105e+000 26404 108801,108441,108415
 6.4000e+000 108542 -5.3339e+001 -8.7726e+001  1.0674e+001 26404 108311,108493,108467
 6.4000e+000 108519 -2.4864e+001 -7.3210e+001  1.9907e+000 26404 108363,108415,108389
 6.4000e+000 108683 -4.9255e+001 -8.0471e+001  3.7674e+000 26404 108801,108415,108657
 6.4000e+000 108706 -4.6999e+001 -8.1633e+001  7.9045e+000 26404 108729,108467,108657
 6.4000e+000 108755 -2.9341e+001 -8.3151e+001  9.1116e+000 26404 108337,108311,108729
 6.4000e+000 108778 -3.4924e+001 -8.0730e+001  7.1104e+000 26404 108337,108729,108657
 6.4000e+000 108827 -4.8855e+001 -1.1488e+002 -4.3021e+000 26404 108467,108441,108801
 6.4000e+000 108850 -5.4529e+001 -9.5096e+001 -2.8388e+000 26404 108467,108801,108657
 6.4000e+000 109228 -3.8097e+001 -8.1591e+001 -3.0775e+000 26064 109006,109084,109058
 6.4000e+000 109205 -3.3897e+001 -7.6328e+001  2.1171e+000 26064 108980,109084,109006
 6.4000e+000 109182 -3.5836e+001 -7.2615e+001 -2.1072e+000 26064 108980,109110,109084
 6.4000e+000 109159 -3.6486e+001 -8.5142e+001 -2.3585e-001 26064 109006,109058,109032
 6.4000e+000 109136 -1.2746e+001 -6.3316e+001  3.2938e+000 26064 108954,109110,108980
 6.4000e+000 109427 -8.5892e+000 -6.9737e+001 -1.5296e+001 25660 109303,109355,109329
 6.4000e+000 109404 -1.7852e+001 -8.8114e+001 -3.7006e+000 25660 109277,109355,109303
 6.4000e+000 109381 -1.4003e+001 -8.2548e+001 -1.3467e+000 25660 109251,109355,109277
 6.4000e+000 109577 -1.0074e+001 -2.6305e+001  9.3269e+000 25306 109476,109528,109502
 6.4000e+000 109554  8.7581e+000 -1.9144e+001  9.2023e+000 25306 109450,109528,109476
 6.4000e+000 109778 -2.7249e+001 -7.4162e+001  1.7178e+000 24944 109628,109706,109654
 6.4000e+000 109755 -2.9341e+001 -7.3531e+001  1.3015e-001 24944 109602,109706,109628
 6.4000e+000 109732 -2.3950e+001 -6.9660e+001 -1.2547e+000 24944 109654,109706,109680
 6.4000e+000 110126 -1.9369e+001 -9.1271e+001  2.2166e+000 24440 110149,109907,109855
 6.4000e+000 110103 -1.5075e+001 -9.8700e+001  6.6857e+000 24440 110149,109855,109985
 6.4000e+000 110080 -1.4581e+001 -7.7268e+001  1.6876e+000 24440 109855,109907,109881
 6.4000e+000 110057 -1.4085e+001 -7.4656e+001  2.9652e+001 24440 109829,109985,109855
 6.4000e+000 110034 -1.6378e+001 -9.0612e+001  9.4258e-001 24440 109907,109959,109933
 6.4000e+000 110011  4.1354e+000 -7.2945e+001  4.5255e+000 24440 109803,109985,109829
 6.4000e+000 110175 -1.6833e+001 -8.5755e+001  2.8486e+000 24440 109959,109907,110149
 6.4000e+000 110198 -1.1339e+001 -9.1310e+001  8.0107e+000 24440 109959,110149,109985
 6.4000e+000 110301  7.7435e-001 -3.2966e+001  4.0012e+000 24028 110223,110275,110249
 6.4000e+000 110573 -1.1720e+001 -5.5221e+001  4.5438e+000 23467 110400,110452,110426
 6.4000e+000 110550 -1.9812e+001 -6.7073e+001  6.7671e-001 23467 110374,110452,110400
 6.4000e+000 110527 -2.1944e+001 -6.7964e+001  1.6686e+000 23467 110348,110452,110374
 6.4000e+000 110504 -1.5601e+001 -6.5625e+001 -2.1308e-002 23467 110348,110478,110452
 6.4000e+000 111004 -4.2649e+001 -9.8019e+001 -1.3189e+001 22963 111027,110733,110707
 6.4000e+000 110981 -4.4388e+001 -9.2774e+001  5.3600e+000 22963 111027,110707,110681
 6.4000e+000 110958 -1.8335e+001 -7.7176e+001 -1.1925e+001 22963 111099,110759,110733
 6.4000e+000 110935 -3.0382e+001 -7.8865e+001 -7.5489e+000 22963 111171,110863,110811
 6.4000e+000 110912 -7.8090e+000 -5.5403e+001 -1.4894e+001 22963 110759,110811,110785
 6.4000e+000 110889 -3.7252e+001 -8.8629e+001 -3.4737e+000 22963 110811,110863,110837
 6.4000e+000 111053 -3.3016e+001 -8.7313e+001 -6.4588e+000 22963 111099,110733,111027
 6.4000e+000 111076 -2.8342e+001 -8.4578e+001 -6.6207e+000 22963 111171,110811,111027
 6.4000e+000 111125 -1.7689e+001 -7.5040e+001 -1.9906e+001 22963 110811,110759,111099
 6.4000e+000 111148 -1.9965e+001 -7.3701e+001 -1.6554e+001 22963 110811,111099,111027
 6.4000e+000 111197 -2.9563e+001 -7.1255e+001 -8.0653e+000 22963 110681,110863,111171
 6.4000e+000 111220 -2.8033e+001 -7.6854e+001 -4.9750e+000 22963 110681,111171,111027
 6.4000e+000 111726 -4.5532e+001 -8.3505e+001 -1.6830e-001 22459 111749,111507,111429
 6.4000e+000 111703 -3.8125e+001 -8.0726e+001 -3.7109e+000 22459 111749,111429,111585
 6.4000e+000 111680 -2.9674e+001 -8.8966e+001 -2.0948e+000 22459 111403,111585,111429
 6.4000e+000 111657 -4.2355e+001 -9.3047e+001  4.0922e+000 22459 111507,111559,111533
 6.4000e+000 111634 -5.4385e+001 -7.7236e+001  4.7354e+000 22459 111455,111507,111481
 6.4000e+000 111611 -7.1716e+001 -8.2161e+001  8.9387e+000 22459 111429,111507,111455
 6.4000e+000 111775 -4.3973e+001 -8.9323e+001  5.8976e+000 22459 111559,111507,111749
 6.4000e+000 111798 -3.7529e+001 -8.4246e+001  2.2340e+000 22459 111559,111749,111585
 6.4000e+000 112046 -1.9552e+001 -7.2151e+001 -9.0746e+000 21898 112069,111925,111873
 6.4000e+000 112023 -1.8455e+001 -7.2049e+001 -1.6442e+000 21898 112069,111873,111847
 6.4000e+000 112000 -2.4700e+001 -7.2935e+001 -3.4793e+000 21898 111821,111951,111847
 6.4000e+000 111977 -2.1955e+001 -5.5205e+001 -5.2292e+000 21898 111873,111925,111899
 6.4000e+000 112095 -3.0035e+001 -7.5798e+001 -1.1114e+001 21898 111951,111925,112069
 6.4000e+000 112118 -2.4623e+001 -7.4117e+001 -3.9566e+000 21898 111951,112069,111847
 6.4000e+000 112498 -3.0983e+001 -7.7388e+001 -5.3563e+000 21608 112521,112276,112224
 6.4000e+000 112475 -1.9946e+001 -7.8635e+001  1.2657e+000 21608 112521,112224,112380
 6.4000e+000 112452 -2.1280e+001 -8.9675e+001  6.1988e+000 21608 112302,112380,112354
 6.4000e+000 112429 -3.9026e+001 -8.6773e+001 -1.8116e+000 21608 112224,112276,112250
 6.4000e+000 112406  1.6097e+001 -9.9987e+001 -5.8350e+000 21608 112302,112354,112328
 6.4000e+000 112547 -2.1889e+001 -6.6872e+001 -3.2265e-001 21608 112302,112276,112521
 6.4000e+000 112570 -1.4600e+001 -7.5519e+001  4.3511e+000 21608 112302,112521,112380
 6.4000e+000 112948 -3.9701e+001 -7.9143e+001 -1.2170e+000 20882 112971,112752,112700
 6.4000e+000 112925 -2.9734e+001 -7.5711e+001 -3.0574e+000 20882 112971,112700,112830
 6.4000e+000 112902 -4.9509e+001 -8.4010e+001  5.5782e+000 20882 112778,112830,112804
 6.4000e+000 112879 -2.7572e+001 -6.0314e+001 -4.4311e+000 20882 112674,112830,112700
 6.4000e+000 112856 -4.5504e+001 -8.1080e+001  7.6565e-001 20882 112700,112752,112726
 6.4000e+000 112997 -3.9891e+001 -7.8872e+001  4.3625e+000 20882 112778,112752,112971
 6.4000e+000 113020 -3.4273e+001 -7.7222e+001  2.2933e+000 20882 112778,112971,112830
 6.4000e+000 113526 -2.2418e+001 -7.6989e+001 -8.7874e-002 20428 113255,113385,113333
 6.4000e+000 113503 -2.4138e+001 -8.2337e+001 -7.8867e-002 20428 113229,113385,113255
 6.4000e+000 113480  1.5562e+000 -7.4747e+001  4.7231e-001 20428 113255,113333,113281
 6.4000e+000 113457 -2.0707e+001 -7.6444e+001  2.8207e+000 20428 113203,113385,113229
 6.4000e+000 113434 -1.0686e+001 -7.8818e+001 -3.5213e+000 20428 113281,113333,113307
 6.4000e+000 113411 -2.9991e+001 -7.6818e+001  1.9510e+000 20428 113333,113385,113359
 6.4000e+000 113774 -5.1133e+000 -7.8552e+001  3.8489e+000 19917 113797,113601,113549
 6.4000e+000 113751 -1.3235e+001 -7.9114e+001  4.4903e+000 19917 113869,113797,113549
 6.4000e+000 113728 -1.2716e+001 -7.9907e+001  7.6014e+000 19917 113869,113549,113679
 6.4000e+000 113705 -8.4852e+000 -7.8422e+001  8.0316e+000 19917 113549,113601,113575
 6.4000e+000 113823 -1.3849e+001 -9.6700e+001  3.7320e-001 19917 113627,113601,113797
 6.4000e+000 113846 -5.6897e+000 -7.5084e+001 -9.5171e-001 19917 113627,113797,113653
 6.4000e+000 113895 -1.1599e+001 -7.1516e+001  2.1088e+000 19917 113653,113797,113869
 6.4000e+000 113918 -1.4118e+001 -7.3529e+001  6.0937e+000 19917 113653,113869,113679
 6.4000e+000 114166 -3.6329e+001 -7.9887e+001 -1.5653e+000 19413 113993,114045,114019
 6.4000e+000 114143 -3.0714e+001 -7.3909e+001  8.3513e-001 19413 113967,114045,113993
 6.4000e+000 114120 -2.7810e+001 -7.3062e+001  4.0501e+000 19413 113967,114071,114045
 6.4000e+000 114097 -1.9044e+001 -8.3572e+001 -2.1566e+000 19413 113941,114071,113967
 6.4000e+000 114438 -3.3430e+001 -8.9589e+001  1.0258e+000 19001 114213,114265,114239
 6.4000e+000 114415 -2.3548e+001 -6.8691e+001 -1.9411e+000 19001 114213,114343,114265
 6.4000e+000 114392 -3.5588e+001 -9.5748e+001 -4.2019e+000 19001 114265,114343,114317
 6.4000e+000 114369  5.9135e+000 -7.7761e+001 -1.4997e+000 19001 114265,114317,114291
 6.4000e+000 114639 -2.4976e+001 -1.0566e+002  5.0330e+000 18554 114489,114541,114515
 6.4000e+000 114616 -2.1582e+001 -9.1658e+001  7.9349e-001 18554 114489,114567,114541
 6.4000e+000 114593 -4.7140e+001 -1.0265e+002 -6.5585e+000 18554 114463,114567,114489
 6.4000e+000 115043 -1.4492e+001 -7.7280e+001  3.0131e+000 18164 114795,114925,114821
 6.4000e+000 115020 -1.1114e+001 -8.0430e+001  5.4401e+000 18164 114769,114925,114795
 6.4000e+000 114997 -6.8022e+000 -8.1980e+001 -9.7432e-001 18164 115066,114873,114821
 6.4000e+000 114974 -5.7448e+000 -6.9490e+001 -2.8900e+000 18164 115066,114821,114925
 6.4000e+000 114951  1.2506e+001 -8.1432e+001 -9.5173e+000 18164 114821,114873,114847
 6.4000e+000 115092 -1.1600e+001 -7.3035e+001 -7.5495e+000 18164 114899,114873,115066
 6.4000e+000 115115 -5.5612e+000 -5.3927e+001 -1.0022e+001 18164 114899,115066,114925
 6.4000e+000 115265 -1.6284e+001 -8.4693e+001  4.2271e-001 17852 115164,115216,115190
 6.4000e+000 115242 -1.8201e+001 -8.6935e+001 -4.4000e-001 17852 115138,115216,115164
 6.4000e+000 115464 -6.0028e+001 -1.2893e+002  1.3917e+000 17346 115288,115366,115340
 6.4000e+000 115441 -8.5712e+001 -9.7012e+001 -5.9096e+000 17346 115288,115392,115366
 6.4000e+000 115418 -5.1062e+001 -1.4298e+002 -4.0480e+000 17346 115288,115340,115314
 6.4000e+000 115736 -1.5219e+001 -7.5289e+001  3.0793e+000 16942 115563,115641,115615
 6.4000e+000 115713 -1.7477e+001 -7.4116e+001  8.9216e-001 16942 115511,115641,115563
 6.4000e+000 115690 -5.1449e+001 -8.9127e+001  5.4306e+000 16942 115563,115615,115589
 6.4000e+000 115667 -2.1757e+001 -8.1364e+001  2.6647e+000 16942 115511,115563,115537
 6.4000e+000 116091 -4.2034e+001 -9.6762e+001 -2.6835e+000 16388 115918,115970,115944
 6.4000e+000 116068 -3.7662e+001 -7.9142e+001 -2.2110e+000 16388 115918,115996,115970
 6.4000e+000 116045 -5.0923e+001 -9.8778e+001  3.7159e+000 16388 115892,115996,115918
 6.4000e+000 116022 -3.1307e+001 -8.7698e+001  1.2865e+001 16388 115866,115996,115892
 6.4000e+000 116192 -5.0950e+000 -9.6473e+001 -1.5164e+001 15810 116114,116166,116140
 6.4000e+000 116342 -3.6945e+001 -1.1993e+002  6.3449e+000 15419 116241,116293,116267
 6.4000e+000 116319 -5.2601e+001 -1.4580e+002 -3.9390e+000 15419 116215,116293,116241
 6.4000e+000 116445 -3.9675e+001 -7.7299e+001 -9.2114e-001 421 116367,116419,116393
 6.5000e+000 68477 -4.9244e+001 -6.5833e+001  3.9949e-001 68018 68327,68379,68353
 6.5000e+000 68454 -5.2693e+001 -8.6070e+001  6.3205e+000 68018 68301,68379,68327
 6.5000e+000 68431 -3.3884e+001 -9.8212e+001  1.3436e+001 68018 68301,68405,68379
 6.5000e+000 68578 -3.5245e+001 -6.3079e+001  2.4114e-002 67820 68500,68552,68526
 6.5000e+000 68728 -3.5270e+001 -5.7037e+001 -1.1749e+000 67508 68601,68653,68627
 6.5000e+000 68705 -5.2385e+001 -4.3798e+001 -8.4177e+000 67508 68601,68679,68653
 6.5000e+000 68927 -1.8555e+001 -6.2039e+001 -4.6019e-001 67310 68777,68829,68803
 6.5000e+000 68904 -2.2227e+001 -7.1465e+001  1.4624e+000 67310 68751,68829,68777
 6.5000e+000 68881 -1.9678e+001 -7.5068e+001  4.0916e+000 67310 68751,68855,68829
 6.5000e+000 69386 -3.0102e+001 -7.0421e+001 -2.5695e+000 67020 69216,69268,69242
 6.5000e+000 69363 -2.8781e+001 -5.5667e+001 -6.7258e+000 67020 69138,69268,69216
 6.5000e+000 69340 -2.0797e+001 -5.2550e+001 -6.0308e+000 67020 69112,69268,69138
 6.5000e+000 69317 -3.7851e+001 -5.9028e+001  2.4561e+000 67020 69138,69190,69164
 6.5000e+000 69294 -3.8485e+001 -5.4694e+001 -2.7702e+000 67020 69138,69216,69190
 6.5000e+000 69536 -4.6030e+001 -1.1148e+002 -8.2204e+000 66708 69435,69487,69461
 6.5000e+000 69513 -3.3262e+001 -1.2596e+002 -3.7536e-001 66708 69409,69487,69435
 6.5000e+000 69735 -3.3994e+001 -6.2951e+001  1.4299e+000 66346 69585,69637,69611
 6.5000e+000 69712 -2.8107e+001 -5.8321e+001 -7.0569e-001 66346 69559,69637,69585
 6.5000e+000 69689 -2.5855e+001 -5.7807e+001 -6.0427e+000 66346 69559,69663,69637
 6.5000e+000 69985 -5.4883e+001 -8.2262e+001  1.1659e+000 66148 69786,69890,69864
 6.5000e+000 69962 -5.6300e+001 -8.3208e+001  1.7382e+000 66148 69760,69890,69786
 6.5000e+000 69939 -4.4338e+001 -7.8212e+001 -9.1910e+000 66148 69786,69864,69838
 6.5000e+000 69916 -5.1472e+001 -8.3928e+001 -6.3192e-003 66148 69786,69838,69812
 6.5000e+000 70137 -2.3724e+001 -9.2321e+001 -4.1286e+000 65950 70036,70088,70062
 6.5000e+000 70114 -2.0617e+001 -1.0167e+002  5.1552e+000 65950 70010,70088,70036
 6.5000e+000 70470 -1.9645e+001 -6.8623e+001  4.6152e+000 65546 70245,70323,70271
 6.5000e+000 70447 -1.5717e+001 -6.3340e+001  1.9876e+000 65546 70245,70375,70323
 6.5000e+000 70424 -1.8160e+001 -7.9559e+001  3.0481e+000 65546 70323,70375,70349
 6.5000e+000 70401 -1.8440e+001 -6.5028e+001  2.4030e+000 65546 70271,70323,70297
 6.5000e+000 70620 -3.4562e+001 -7.5741e+001  2.8803e+000 65348 70493,70545,70519
 6.5000e+000 70597 -2.8147e+001 -8.1719e+001  2.6468e+000 65348 70493,70571,70545
 6.5000e+000 70721 -5.9502e+001 -1.0500e+002 -2.0010e+000 65150 70643,70695,70669
 6.5000e+000 71020 -3.1241e+001 -6.2811e+001  3.1563e+000 64952 71043,70850,70824
 6.5000e+000 70997 -2.7792e+001 -6.0011e+001 -1.4985e+000 64952 71043,70824,70772
 6.5000e+000 70974 -2.8919e+001 -8.0450e+001  3.0623e+000 64952 71115,70746,70876
 6.5000e+000 70951 -2.7103e+001 -8.2224e+001  7.3530e-001 64952 70746,70902,70876
 6.5000e+000 70928 -3.0713e+001 -5.5197e+001 -4.8275e+000 64952 70772,70824,70798
 6.5000e+000 71069 -1.8854e+001 -5.4196e+001  1.1694e+001 64952 70876,70850,71043
 6.5000e+000 71092 -2.6681e+001 -7.3582e+001  4.0642e+000 64952 71115,70876,71043
 6.5000e+000 71141 -3.6334e+001 -7.2379e+001 -3.4301e+000 64952 70772,70746,71115
 6.5000e+000 71164 -3.2126e+001 -6.2203e+001 -2.4048e+000 64952 70772,71115,71043
 6.5000e+000 71365 -1.0406e+001 -8.7646e+001 -2.8510e+000 64662 71215,71293,71267
 6.5000e+000 71342  7.1169e+000 -5.8717e+001 -1.1080e+001 64662 71189,71293,71215
 6.5000e+000 71319  4.0308e+000 -5.2330e+001 -8.7665e-001 64662 71215,71267,71241
 6.5000e+000 71615 -2.7628e+001 -6.7982e+001 -1.5908e-001 64350 71710,71638,71468
 6.5000e+000 71592 -2.3971e+001 -6.5876e+001 -2.5478e+000 64350 71638,71416,71390
 6.5000e+000 71569 -3.0002e+001 -6.2965e+001  4.2647e+000 64350 71710,71468,71442
 6.5000e+000 71546 -1.7944e+000 -6.5793e+001 -6.9956e+000 64350 71390,71520,71494
 6.5000e+000 71664 -2.3814e+001 -6.6379e+001 -1.6707e-001 64350 71494,71468,71638
 6.5000e+000 71687 -2.4065e+001 -6.9775e+001  2.5950e-002 64350 71494,71638,71390
 6.5000e+000 71736 -2.3069e+001 -5.7626e+001 -1.2612e+000 64350 71416,71638,71710
 6.5000e+000 71759 -2.6073e+001 -5.3782e+001  4.1173e+000 64350 71416,71710,71442
 6.5000e+000 72318 -2.5987e+001 -1.0528e+002 -4.5724e+000 63837 71972,72024,71998
 6.5000e+000 72295 -3.1796e+001 -6.9952e+001 -2.2834e-001 63837 72341,71972,71946
 6.5000e+000 72272 -2.9589e+001 -5.6792e+001  3.3259e+000 63837 72413,72341,71946
 6.5000e+000 72249 -3.0517e+001 -5.1406e+001  1.9292e+000 63837 72413,71946,72128
 6.5000e+000 72226 -4.1365e+001 -6.2539e+001  2.1457e+000 63837 72024,72076,72050
 6.5000e+000 72203 -3.7227e+001 -5.5703e+001 -1.6835e+000 63837 72024,72102,72076
 6.5000e+000 72180 -2.6653e+001 -5.0150e+001  3.5440e+000 63837 71946,72154,72128
 6.5000e+000 72367 -3.9013e+001 -7.5270e+001 -1.2330e+001 63837 72024,71972,72341
 6.5000e+000 72390 -3.1001e+001 -6.0711e+001 -5.0080e+000 63837 72024,72341,72102
 6.5000e+000 72439 -2.7859e+001 -6.5409e+001  1.1700e+000 63837 72102,72341,72413
 6.5000e+000 72462 -2.8214e+001 -5.9316e+001  5.0358e-001 63837 72102,72413,72128
 6.5000e+000 72791 -4.0215e+001 -6.9152e+001 -7.4629e+000 63383 72592,72696,72670
 6.5000e+000 72768 -4.0848e+001 -6.6145e+001 -1.1358e+001 63383 72566,72696,72592
 6.5000e+000 72745 -3.8537e+001 -6.0294e+001 -6.7659e-001 63383 72592,72670,72618
 6.5000e+000 72722 -3.7146e+001 -5.4851e+001 -2.1041e+000 63383 72618,72670,72644
 6.5000e+000 73297 -4.4182e+001 -5.9947e+001 -7.7645e-001 63185 73000,73156,73130
 6.5000e+000 73274 -4.4387e+001 -6.2089e+001  6.8007e+000 63185 72974,73156,73000
 6.5000e+000 73251 -3.5292e+001 -6.8802e+001 -5.3755e-001 63185 73000,73052,73026
 6.5000e+000 73228 -3.8061e+001 -6.1066e+001 -2.6678e+000 63185 73000,73130,73052
 6.5000e+000 73205 -3.8220e+001 -7.0285e+001 -1.0347e+001 63185 73052,73130,73104
 6.5000e+000 73182 -3.5061e+001 -7.6200e+001 -1.0453e+001 63185 73052,73104,73078
 6.5000e+000 73545 -2.1288e+001 -6.8700e+001  1.3433e+000 62781 73568,73398,73372
 6.5000e+000 73522 -1.3432e+001 -6.4419e+001  6.9209e+000 62781 73568,73372,73346
 6.5000e+000 73499 -2.8128e+001 -7.7960e+001 -7.7110e+000 62781 73640,73320,73424
 6.5000e+000 73476 -2.7936e+001 -5.3405e+001 -1.3569e+001 62781 73320,73450,73424
 6.5000e+000 73594 -2.2864e+001 -6.6191e+001  1.2050e+000 62781 73424,73398,73568
 6.5000e+000 73617 -2.4685e+001 -7.4356e+001 -8.0754e-001 62781 73640,73424,73568
 6.5000e+000 73666 -2.4226e+001 -6.9788e+001 -2.4714e+000 62781 73346,73320,73640
 6.5000e+000 73689 -2.1942e+001 -6.3584e+001  3.8240e+000 62781 73346,73640,73568
 6.5000e+000 74035 -2.6912e+001 -6.2680e+001 -1.6781e+000 62363 74058,73868,73842
 6.5000e+000 74012 -2.3284e+001 -5.6562e+001 -5.9263e+000 62363 74130,74058,73842
 6.5000e+000 73989 -2.1075e+001 -5.6317e+001 -6.8992e+000 62363 74130,73842,73816
 6.5000e+000 73966 -3.2770e+001 -6.5353e+001  6.3580e-001 62363 74202,73764,73894
 6.5000e+000 73943 -4.2737e+001 -6.0897e+001  3.3111e-001 62363 73712,73894,73764
 6.5000e+000 73920 -4.4887e+001 -6.2939e+001 -6.8912e-001 62363 73712,73764,73738
 6.5000e+000 74084 -2.5562e+001 -6.3663e+001 -1.2980e+000 62363 73894,73868,74058
 6.5000e+000 74107 -3.0572e+001 -6.2772e+001  2.3051e+000 62363 74202,73894,74058
 6.5000e+000 74156 -2.6218e+001 -5.8632e+001  1.1948e+000 62363 73790,74058,74130
 6.5000e+000 74179 -1.6573e+001 -5.5571e+001  8.3461e-001 62363 73790,74130,73816
 6.5000e+000 74228 -3.5101e+001 -6.6396e+001 -3.0573e+000 62363 73790,73764,74202
 6.5000e+000 74251 -3.3419e+001 -6.3628e+001 -1.4193e+000 62363 73790,74202,74058
 6.5000e+000 74403 -6.3742e+000 -6.7259e+001  4.1824e+000 62115 74426,74302,74276
 6.5000e+000 74380  2.2794e+000 -6.4790e+001  7.7359e+000 62115 74426,74276,74354
 6.5000e+000 74452 -1.4528e+001 -6.2293e+001  3.9879e+000 62115 74328,74302,74426
 6.5000e+000 74475 -6.5182e+000 -6.0125e+001  7.7520e+000 62115 74328,74426,74354
 6.5000e+000 74578 -8.2403e-001 -5.0752e+001 -1.0341e+000 61825 74500,74552,74526
 6.5000e+000 74982 -3.2683e+001 -5.6424e+001 -2.1219e-001 61513 75005,74734,74708
 6.5000e+000 74959 -3.3993e+001 -5.4615e+001 -5.6448e-001 61513 75005,74708,74864
 6.5000e+000 74936 -4.4350e+001 -5.7081e+001  4.0341e+000 61513 75077,74812,74734
 6.5000e+000 74913 -3.2604e+001 -5.0120e+001 -4.5395e+000 61513 74734,74786,74760
 6.5000e+000 74890 -3.1911e+001 -4.6377e+001 -2.4112e+000 61513 74734,74812,74786
 6.5000e+000 75031 -3.2172e+001 -5.7225e+001 -1.9630e-001 61513 75077,74734,75005
 6.5000e+000 75054 -2.6194e+001 -5.6125e+001  8.6306e+000 61513 74838,75005,74864
 6.5000e+000 75103 -5.1368e+001 -6.0835e+001  1.4826e+001 61513 74838,74812,75077
 6.5000e+000 75126 -4.3473e+001 -6.4078e+001  1.0681e+001 61513 74838,75077,75005
 6.5000e+000 75553 -1.9772e+001 -5.1358e+001 -2.5824e+000 61060 75576,75360,75308
 6.5000e+000 75530 -1.8776e+001 -5.5343e+001 -2.2499e+000 61060 75576,75308,75230
 6.5000e+000 75507 -1.8088e+001 -5.0304e+001 -2.0373e+000 61060 75308,75360,75334
 6.5000e+000 75484 -2.3892e+001 -6.4909e+001  2.1007e+000 61060 75230,75308,75256
 6.5000e+000 75461 -2.1527e+001 -6.2625e+001  9.9094e-001 61060 75256,75308,75282
 6.5000e+000 75438 -2.3145e+001 -5.0264e+001  5.0482e+000 61060 75360,75412,75386
 6.5000e+000 75602 -1.8096e+001 -5.4530e+001 -4.7823e-001 61060 75412,75360,75576
 6.5000e+000 75625 -1.8747e+001 -6.1072e+001 -7.1575e-001 61060 75412,75576,75230
 6.5000e+000 76052 -2.8802e+001 -5.6054e+001  2.8715e-001 60442 75755,75859,75833
 6.5000e+000 76029 -2.9773e+001 -5.2233e+001 -4.2830e+000 60442 75729,75859,75755
 6.5000e+000 76006 -2.9551e+001 -5.1850e+001  2.6830e+000 60442 75755,75833,75807
 6.5000e+000 75983 -3.1557e+001 -5.9444e+001  8.1819e-001 60442 75755,75807,75781
 6.5000e+000 75960 -9.7453e+000 -9.6756e+001  3.7955e+000 60442 75729,75911,75859
 6.5000e+000 75937 -5.4721e+001 -2.2946e+002  1.5793e+001 60442 75859,75911,75885
 6.5000e+000 76430 -3.0575e+001 -7.7108e+001 -1.4237e+000 59788 76453,76286,76234
 6.5000e+000 76407 -3.3453e+001 -8.7694e+001  1.7941e+000 59788 76453,76234,76182
 6.5000e+000 76384 -3.2348e+001 -5.9365e+001  1.0490e+001 59788 76525,76156,76312
 6.5000e+000 76361 -2.0290e+001 -1.0109e+002 -4.2585e-001 59788 76182,76234,76208
 6.5000e+000 76338 -2.5596e+001 -7.2875e+001  5.4179e-001 59788 76234,76286,76260
 6.5000e+000 76479 -3.5565e+001 -8.2763e+001  1.9596e+000 59788 76312,76286,76453
 6.5000e+000 76502 -3.0741e+001 -7.8506e+001  4.8641e+000 59788 76525,76312,76453
 6.5000e+000 76551 -4.0411e+001 -8.3442e+001  1.0442e+001 59788 76182,76156,76525
 6.5000e+000 76574 -3.6077e+001 -8.9133e+001  6.6663e+000 59788 76182,76525,76453
 6.5000e+000 77031 -2.1255e+001 -4.8264e+001 -6.3559e+000 59448 76835,76887,76861
 6.5000e+000 77008 -9.5423e+000 -3.9038e+001  1.7064e+000 59448 76835,76913,76887
 6.5000e+000 76985 -1.2626e+001 -3.2824e+001  6.5568e+000 59448 76809,76913,76835
 6.5000e+000 76962 -2.4843e+001 -4.3677e+001 -7.9022e-001 59448 76757,76913,76809
 6.5000e+000 76939 -2.2165e+001 -4.0153e+001 -1.9575e+000 59448 76757,76809,76783
 6.5000e+000 77537 -2.5617e+001 -5.5689e+001  2.2623e+000 58994 77560,77344,77292
 6.5000e+000 77514 -3.8034e+001 -5.2352e+001  3.9384e-001 58994 77560,77292,77240
 6.5000e+000 77491 -2.0313e+001 -4.7011e+001 -2.0836e+000 58994 77632,77214,77370
 6.5000e+000 77468 -4.0837e+001 -6.3018e+001  1.1196e+001 58994 77292,77344,77318
 6.5000e+000 77445 -1.9659e+001 -5.9794e+001  1.0018e+000 58994 77214,77396,77370
 6.5000e+000 77422 -4.0896e+001 -5.9057e+001  5.7952e-001 58994 77240,77292,77266
 6.5000e+000 77586 -2.7169e+001 -5.4334e+001  2.2000e+000 58994 77370,77344,77560
 6.5000e+000 77609 -2.7526e+001 -5.1231e+001  3.6062e+000 58994 77632,77370,77560
 6.5000e+000 77658 -1.6443e+001 -4.2798e+001 -8.9245e+000 58994 77240,77214,77632
 6.5000e+000 77681 -2.1983e+001 -4.2400e+001 -3.8225e+000 58994 77240,77632,77560
 6.5000e+000 78138 -2.6074e+001 -4.4010e+001  5.3610e+000 58440 77864,77994,77890
 6.5000e+000 78115 -2.0755e+001 -2.8415e+001 -3.8836e+000 58440 77864,78020,77994
 6.5000e+000 78092 -3.0933e+001 -5.0349e+001 -4.5868e+000 58440 77942,77994,77968
 6.5000e+000 78069 -2.5371e+001 -4.8498e+001  1.1887e+000 58440 77890,77994,77942
 6.5000e+000 78046 -2.1733e+001 -4.8454e+001 -1.3576e+000 58440 77890,77942,77916
 6.5000e+000 78467 -6.9055e+000 -5.1954e+001 -3.0327e-001 57928 78562,78490,78346
 6.5000e+000 78444 -2.0173e+001 -5.1474e+001 -1.2017e+000 57928 78490,78294,78268
 6.5000e+000 78421 -3.6065e+000 -5.5074e+001  2.4758e+000 57928 78562,78346,78320
 6.5000e+000 78398 -1.0692e+001 -4.9473e+001 -2.2570e-001 57928 78242,78372,78268
 6.5000e+000 78516 -1.8671e+001 -6.3273e+001 -5.0751e+000 57928 78372,78346,78490
 6.5000e+000 78539 -1.6164e+001 -5.0170e+001 -1.5888e+000 57928 78372,78490,78268
 6.5000e+000 78588 -2.0739e+001 -5.2738e+001 -1.0798e+000 57928 78294,78490,78562
 6.5000e+000 78611 -1.1967e+001 -4.9939e+001  3.7772e+000 57928 78294,78562,78320
 6.5000e+000 79068 -4.4507e+001 -9.2875e+001 -2.2981e+001 57467 78794,78924,78820
 6.5000e+000 79045 -3.5615e+001 -8.8612e+001 -2.1171e+001 57467 78794,78950,78924
 6.5000e+000 79022 -1.8221e+001 -8.3964e+001  8.7733e+000 57467 78820,78898,78872
 6.5000e+000 78999 -3.3555e+001 -1.1651e+002 -1.1926e+001 57467 78820,78924,78898
 6.5000e+000 78976 -1.4497e+001 -8.5241e+001  1.2768e+001 57467 78820,78872,78846
 6.5000e+000 79446 -3.5549e+001 -6.3835e+001 -9.2323e-001 57120 79172,79302,79250
 6.5000e+000 79423 -3.3676e+001 -6.2914e+001 -3.4053e+000 57120 79172,79328,79302
 6.5000e+000 79400 -3.3020e+001 -5.5713e+001 -2.9881e+000 57120 79172,79250,79198
 6.5000e+000 79377 -2.7020e+001 -7.8366e+001  1.6086e+000 57120 79250,79302,79276
 6.5000e+000 79354 -3.9838e+001 -6.0367e+001 -5.0942e+000 57120 79198,79250,79224
 6.5000e+000 79952 -4.9892e+001 -7.7658e+001  2.9401e-002 56773 79629,79785,79655
 6.5000e+000 79929 -1.5613e+001 -6.7050e+001  3.1137e+000 56773 79629,79811,79785
 6.5000e+000 79906 -3.8025e+001 -8.3667e+001  5.5928e+000 56773 79655,79733,79681
 6.5000e+000 79883 -3.7055e+001 -7.4267e+001  1.3609e+000 56773 79655,79785,79733
 6.5000e+000 79860 -3.5803e+001 -1.0047e+002 -1.1709e+001 56773 79733,79785,79759
 6.5000e+000 79837 -2.1365e+001 -7.5851e+001  1.5560e+001 56773 79681,79733,79707
 6.5000e+000 80281 -2.1132e+001 -5.1748e+001 -4.5341e+000 56319 80108,80160,80134
 6.5000e+000 80258 -2.1277e+001 -5.6491e+001 -5.2465e+000 56319 80056,80160,80108
 6.5000e+000 80235 -1.2889e+001 -5.0857e+001  2.1650e+000 56319 80056,80186,80160
 6.5000e+000 80212 -2.4964e+001 -7.1680e+001 -4.8175e+000 56319 80056,80108,80082
 6.5000e+000 80738 -1.2624e+001 -6.8880e+001  3.4576e+000 55957 80516,80620,80594
 6.5000e+000 80715 -2.7716e+001 -6.1892e+001  2.7565e+000 55957 80464,80620,80516
 6.5000e+000 80692 -2.3284e+001 -7.5460e+001  3.7271e+000 55957 80761,80568,80542
 6.5000e+000 80669 -2.0344e+001 -7.4073e+001  4.4335e+000 55957 80761,80542,80516
 6.5000e+000 80646 -2.8090e+001 -6.2518e+001  8.2524e+000 55957 80464,80516,80490
 6.5000e+000 80787 -2.6417e+001 -7.4812e+001  2.5882e+000 55957 80594,80568,80761
 6.5000e+000 80810 -2.3639e+001 -7.3486e+001  3.3156e+000 55957 80594,80761,80516
 6.5000e+000 81210 -2.4291e+001 -7.4788e+001 -4.9243e+000 55317 80936,80988,80962
 6.5000e+000 81187 -2.1357e+001 -7.8281e+001  3.0864e-001 55317 80936,81066,80988
 6.5000e+000 81164 -1.8084e+001 -8.4335e+001  2.1575e+000 55317 80936,81092,81066
 6.5000e+000 81141 -2.9814e+001 -8.4015e+001 -7.0834e+000 55317 80988,81066,81014
 6.5000e+000 81118 -7.1307e+000 -4.7381e+001  5.6836e+000 55317 81014,81066,81040
 6.5000e+000 81539 -3.0261e+001 -6.3000e+001 -1.3340e-001 54913 81340,81418,81392
 6.5000e+000 81516 -1.4024e+001 -5.3652e+001 -4.8503e+000 54913 81340,81444,81418
 6.5000e+000 81493 -1.9844e+001 -5.7427e+001 -9.0038e+000 54913 81314,81444,81340
 6.5000e+000 81470 -3.6292e+001 -6.8381e+001 -2.5131e+000 54913 81340,81392,81366
 6.5000e+000 81787 -1.9459e+001 -6.8837e+001 -9.7239e-001 54601 81588,81692,81640
 6.5000e+000 81764 -2.8481e+001 -7.0049e+001 -2.9742e+000 54601 81562,81692,81588
 6.5000e+000 81741 -1.8781e+001 -7.0821e+001  7.4746e+000 54601 81588,81640,81614
 6.5000e+000 81718 -1.9927e+001 -8.2611e+001 -8.1698e+000 54601 81640,81692,81666
 6.5000e+000 82344 -2.3370e+001 -6.2932e+001 -2.2030e+000 54090 81998,82102,82076
 6.5000e+000 82321 -3.2468e+001 -6.6821e+001 -2.3078e+000 54090 81998,82154,82102
 6.5000e+000 82298 -2.9256e+001 -6.5045e+001 -1.4181e+000 54090 81972,82154,81998
 6.5000e+000 82275 -3.3184e+001 -5.9031e+001 -2.6205e+000 54090 81998,82076,82024
 6.5000e+000 82252 -3.5571e+001 -6.9491e+001  3.1686e+000 54090 81972,82180,82154
 6.5000e+000 82229 -4.5494e+001 -8.2913e+001  4.5549e+000 54090 82102,82154,82128
 6.5000e+000 82206 -6.7998e+000 -4.4345e+001 -8.9686e+000 54090 82024,82076,82050
 6.5000e+000 82722 -4.6091e+001 -8.2426e+001 -2.2132e+000 53579 82500,82578,82552
 6.5000e+000 82699 -3.6563e+001 -7.5908e+001  1.6613e+000 53579 82448,82578,82500
 6.5000e+000 82676 -4.1467e+001 -8.5928e+001  3.3273e+000 53579 82448,82500,82474
 6.5000e+000 82653 -4.5266e+001 -8.0672e+001  6.0527e+000 53579 82448,82604,82578
 6.5000e+000 82630 -2.5440e+001 -7.7499e+001 -3.0305e+000 53579 82500,82552,82526
 6.5000e+000 83356 -2.5347e+001 -6.3427e+001 -5.5887e+000 53189 83379,83088,83036
 6.5000e+000 83333 -2.4737e+001 -7.1407e+001 -5.0531e+000 53189 83379,83036,82984
 6.5000e+000 83310 -1.1236e+001 -6.6569e+001  1.0181e+001 53189 82984,83192,83166
 6.5000e+000 83287 -2.7963e+000 -5.2999e+001 -2.9902e+000 53189 83036,83088,83062
 6.5000e+000 83264 -1.7698e+001 -7.9098e+001 -1.1748e+001 53189 82984,83036,83010
 6.5000e+000 83241 -1.7915e+001 -7.9333e+001  2.3545e+000 53189 83114,83166,83140
 6.5000e+000 83218 -3.4881e+001 -8.4102e+001  2.2755e+000 53189 83088,83166,83114
 6.5000e+000 83405 -2.5279e+001 -6.8793e+001 -2.2777e+000 53189 83166,83088,83379
 6.5000e+000 83428 -2.3512e+001 -7.5847e+001 -2.2399e+000 53189 83166,83379,82984
 6.5000e+000 83725 -2.7458e+001 -7.9347e+001 -9.8684e+000 52585 83748,83529,83503
 6.5000e+000 83702 -1.9774e+001 -7.6918e+001 -6.9012e+000 52585 83820,83748,83503
 6.5000e+000 83679 -1.2793e+001 -7.2741e+001 -5.0786e+000 52585 83820,83503,83477
 6.5000e+000 83656 -1.1472e+001 -6.4267e+001  6.1360e+000 52585 83477,83607,83581
 6.5000e+000 83633  1.4151e+000 -5.8461e+001  7.5521e+000 52585 83451,83607,83477
 6.5000e+000 83774 -2.3772e+001 -6.9794e+001 -8.2606e+000 52585 83555,83529,83748
 6.5000e+000 83797 -3.2047e+001 -7.4734e+001 -6.1192e+000 52585 83555,83748,83581
 6.5000e+000 83846 -2.6353e+001 -6.9227e+001 -3.1044e+000 52585 83581,83748,83820
 6.5000e+000 83869 -2.1972e+001 -6.6962e+001 -2.1723e+000 52585 83581,83820,83477
 6.5000e+000 84200 -2.1428e+001 -6.9023e+001 -2.9867e+000 52024 84001,84105,84079
 6.5000e+000 84177 -1.1753e+001 -6.7166e+001 -5.3571e+000 52024 83975,84105,84001
 6.5000e+000 84154 -1.7198e+001 -6.9590e+001 -1.9353e+000 52024 84001,84079,84053
 6.5000e+000 84131 -9.4987e+000 -4.9473e+001  7.3030e+000 52024 84001,84053,84027
 6.5000e+000 84399 -2.1240e+001 -6.8285e+001 -1.7708e+000 51470 84422,84275,84249
 6.5000e+000 84376 -2.1689e+001 -6.8437e+001 -1.9111e+000 51470 84422,84249,84223
 6.5000e+000 84353 -2.2077e+001 -7.5320e+001 -1.1627e+001 51470 84275,84327,84301
 6.5000e+000 84448 -2.0847e+001 -6.8575e+001 -1.8072e+000 51470 84327,84275,84422
 6.5000e+000 84471 -2.1299e+001 -6.8709e+001 -1.9126e+000 51470 84327,84422,84223
 6.5000e+000 84753 -1.9829e+001 -5.6152e+001 -2.9122e-001 51073 84603,84655,84629
 6.5000e+000 84730 -3.9327e+001 -6.4920e+001 -2.5358e+000 51073 84776,84655,84603
 6.5000e+000 84707 -1.1198e+001 -5.6016e+001 -1.5105e+001 51073 84577,84681,84655
 6.5000e+000 84802 -2.4940e+001 -5.6232e+001 -8.1140e+000 51073 84577,84655,84776
 6.5000e+000 85178 -4.0398e+001 -8.9997e+001  7.8298e+000 50519 85201,85008,84982
 6.5000e+000 85155 -3.8245e+001 -8.4346e+001  6.8620e+000 50519 85273,85201,84982
 6.5000e+000 85132 -3.6684e+001 -8.3966e+001  5.9145e+000 50519 85273,84982,84930
 6.5000e+000 85109 -3.4558e+001 -8.0430e+001  4.8054e+000 50519 84930,84982,84956
 6.5000e+000 85086 -3.8502e+001 -8.9988e+001  5.0610e+000 50519 85008,85060,85034
 6.5000e+000 85227 -3.6325e+001 -8.7011e+001  3.9268e+000 50519 85060,85008,85201
 6.5000e+000 85250 -3.8483e+001 -8.7746e+001  3.2610e+000 50519 85060,85201,84904
 6.5000e+000 85299 -3.7015e+001 -8.6040e+001  2.4710e+000 50519 84904,85201,85273
 6.5000e+000 85322 -3.0047e+001 -7.5305e+001 -5.3023e-001 50519 84904,85273,84930
 6.5000e+000 85958 -2.7570e+001 -7.8371e+001 -2.6308e+000 50093 85981,85768,85716
 6.5000e+000 85935 -2.4501e+001 -7.1353e+001 -2.1968e+000 50093 85981,85716,85612
 6.5000e+000 85912 -3.2605e+001 -7.2746e+001  1.4408e+000 50093 85612,85716,85664
 6.5000e+000 85889 -2.1770e+001 -7.5312e+001 -7.6426e-001 50093 85716,85768,85742
 6.5000e+000 85866 -2.7371e+001 -5.6400e+001 -1.5411e+001 50093 85664,85716,85690
 6.5000e+000 85843 -9.2168e+000 -5.3343e+001 -2.2593e+000 50093 85586,85794,85612
 6.5000e+000 85820 -2.2837e+001 -9.9118e+001  8.4052e+000 50093 85612,85664,85638
 6.5000e+000 86007 -3.4338e+001 -8.4897e+001 -1.2870e+001 50093 85794,85768,85981
 6.5000e+000 86030 -2.4570e+001 -6.3958e+001 -9.8375e+000 50093 85794,85981,85612
 6.5000e+000 86131 -2.1983e+001 -5.8661e+001  8.0449e+000 49895 86053,86105,86079
 6.5000e+000 86639 -2.0152e+001 -5.1441e+001 -1.0878e+001 49391 86662,86394,86368
 6.5000e+000 86616 -2.4215e+001 -6.4894e+001 -9.7422e+000 49391 86662,86368,86342
 6.5000e+000 86593 -1.1945e+001 -6.5194e+001 -2.8854e+000 49391 86342,86498,86472
 6.5000e+000 86570 -7.6927e+000 -7.0041e+001 -3.1450e+000 49391 86316,86498,86342
 6.5000e+000 86547 -3.8382e+001 -1.0133e+002 -2.4159e+000 49391 86394,86472,86446
 6.5000e+000 86524 -5.5754e+000 -9.9029e+001  1.8089e+000 49391 86394,86446,86420
 6.5000e+000 86688 -2.2508e+001 -6.3947e+001 -5.0717e+000 49391 86472,86394,86662
 6.5000e+000 86711 -2.0277e+001 -6.9747e+001 -4.9583e+000 49391 86472,86662,86342
 6.5000e+000 87089 -2.9737e+001 -7.4178e+001  2.2724e+000 48987 86815,86919,86867
 6.5000e+000 87066 -2.8617e+001 -7.6700e+001  3.5753e+000 48987 86815,86971,86919
 6.5000e+000 87043 -1.1801e+001 -8.0151e+001 -5.9372e+000 48987 86867,86919,86893
 6.5000e+000 87020 -3.2975e+001 -8.3487e+001  7.9661e+000 48987 86815,86867,86841
 6.5000e+000 86997 -3.1480e+001 -6.6143e+001  1.0580e+001 48987 86919,86971,86945
 6.5000e+000 87467 -5.3221e+001 -7.5439e+001  4.8484e+000 48540 87490,87245,87219
 6.5000e+000 87444 -3.7038e+001 -7.1038e+001  1.2763e+000 48540 87562,87490,87219
 6.5000e+000 87421 -2.9189e+001 -6.7858e+001  3.4711e+000 48540 87562,87219,87349
 6.5000e+000 87398 -3.7772e+001 -5.6995e+001 -1.4548e+000 48540 87245,87297,87271
 6.5000e+000 87375 -2.5647e+001 -7.1953e+001  2.3113e+000 48540 87193,87349,87219
 6.5000e+000 87516 -3.5344e+001 -6.9910e+001  3.5175e+000 48540 87297,87245,87490
 6.5000e+000 87539 -3.5807e+001 -7.2668e+001  2.6818e+000 48540 87297,87490,87323
 6.5000e+000 87588 -2.9498e+001 -6.8025e+001  6.4883e+000 48540 87323,87490,87562
 6.5000e+000 87611 -2.5651e+001 -6.8763e+001  7.9361e+000 48540 87323,87562,87349
 6.5000e+000 87810 -2.9785e+001 -1.0377e+002 -7.7748e+000 48136 87660,87712,87686
 6.5000e+000 87787 -1.6750e+001 -5.9612e+001 -3.6965e+000 48136 87660,87738,87712
 6.5000e+000 87764 -4.0147e+001 -6.2176e+001 -1.0893e+001 48136 87634,87738,87660
 6.5000e+000 88205 -3.3657e+001 -7.9278e+001 -9.4480e+000 47210 88300,88228,87937
 6.5000e+000 88182 -2.9262e+001 -7.6539e+001 -3.5378e+000 47210 88228,87833,88041
 6.5000e+000 88159 -3.4522e+001 -8.6206e+001 -1.3889e+001 47210 88300,87937,87911
 6.5000e+000 88136 -3.1175e+001 -7.6896e+001 -9.9803e+000 47210 87833,87911,87859
 6.5000e+000 88113 -5.8830e+001 -7.0506e+001 -1.0682e+001 47210 87937,87989,87963
 6.5000e+000 88090 -2.8878e+001 -6.1132e+001  1.2771e+001 47210 87989,88041,88015
 6.5000e+000 88067 -3.6483e+001 -9.0043e+001 -1.2614e+001 47210 87859,87911,87885
 6.5000e+000 88254 -2.9620e+001 -6.2162e+001 -9.9919e+000 47210 87989,87937,88228
 6.5000e+000 88277 -3.6564e+001 -7.5015e+001 -4.3818e+000 47210 87989,88228,88041
 6.5000e+000 88326 -2.8022e+001 -7.3101e+001 -4.0551e+000 47210 87833,88228,88300
 6.5000e+000 88349 -2.9683e+001 -7.7562e+001 -8.9032e+000 47210 87833,88300,87911
 6.5000e+000 88780 -4.0760e+001 -7.2875e+001 -1.4195e+001 46642 88803,88509,88483
 6.5000e+000 88757 -3.0387e+001 -6.6013e+001 -7.4888e+000 46642 88803,88483,88639
 6.5000e+000 88734 -3.1925e+001 -5.4492e+001 -9.1977e+000 46642 88875,88561,88509
 6.5000e+000 88711 -3.2342e+001 -4.9696e+001 -8.5886e-001 46642 88509,88561,88535
 6.5000e+000 88688 -1.9640e+001 -7.3779e+001  2.1934e-001 46642 88457,88639,88483
 6.5000e+000 88665 -3.5385e+001 -8.7326e+001 -5.9755e+000 46642 88561,88613,88587
 6.5000e+000 88829 -3.3020e+001 -5.9238e+001 -1.0403e+001 46642 88875,88509,88803
 6.5000e+000 88852 -3.2400e+001 -7.0318e+001 -6.9085e+000 46642 88613,88803,88639
 6.5000e+000 88901 -2.5586e+001 -6.1075e+001 -5.1573e+000 46642 88613,88561,88875
 6.5000e+000 88924 -2.8513e+001 -6.8573e+001 -6.3280e+000 46642 88613,88875,88803
 6.5000e+000 89253 -1.2190e+001 -7.1652e+001  1.0438e+000 46444 89080,89158,89132
 6.5000e+000 89230 -1.3469e+001 -7.3976e+001 -4.9656e-001 46444 89028,89158,89080
 6.5000e+000 89207 -8.0124e+000 -6.8058e+001 -2.8696e+000 46444 89028,89080,89054
 6.5000e+000 89184 -2.5240e+000 -7.8569e+001 -7.9753e+000 46444 89080,89132,89106
 6.5000e+000 89631 -2.4055e+001 -5.3162e+001  1.8354e+000 46040 89383,89461,89435
 6.5000e+000 89608 -2.4984e+001 -5.8102e+001 -3.1810e+000 46040 89383,89487,89461
 6.5000e+000 89585 -2.6850e+001 -6.9676e+001 -1.7228e+000 46040 89383,89435,89409
 6.5000e+000 89562 -1.9518e+001 -4.8945e+001 -7.0737e+000 46040 89383,89513,89487
 6.5000e+000 89539 -8.4302e+000 -4.3463e+001 -9.5667e+000 46040 89357,89513,89383
 6.5000e+000 90009 -2.6276e+001 -6.8550e+001 -5.5547e-002 45636 89813,89891,89839
 6.5000e+000 89986 -2.6662e+001 -6.3191e+001  3.9591e+000 45636 89787,89891,89813
 6.5000e+000 89963 -2.3581e+001 -6.4198e+001 -1.6134e+000 45636 89839,89891,89865
 6.5000e+000 89940 -2.9899e+001 -7.0738e+001  2.7090e+000 45636 89735,89891,89787
 6.5000e+000 89917 -2.3270e+001 -7.0505e+001 -2.8634e+000 45636 89735,89787,89761
 6.5000e+000 90208 -1.5439e+001 -5.1633e+001 -1.0991e+001 45175 90231,90058,90032
 6.5000e+000 90185 -9.7423e+000 -4.7327e+001 -1.6126e+001 45175 90231,90032,90136
 6.5000e+000 90162 -1.6671e+001 -3.8229e+001 -1.1948e+000 45175 90058,90110,90084
 6.5000e+000 90257 -2.1968e+001 -5.7978e+001 -3.7295e+000 45175 90110,90058,90231
 6.5000e+000 90280 -1.1035e+001 -5.0496e+001 -9.4357e+000 45175 90110,90231,90136
 6.5000e+000 90528 -1.6594e+001 -5.1534e+001 -7.2375e+000 44513 90695,90551,90407
 6.5000e+000 90505 -1.8608e+001 -4.6975e+001 -5.3956e+000 44513 90551,90355,90329
 6.5000e+000 90482 -1.9905e+001 -5.0563e+001 -7.0975e+000 44513 90623,90303,90433
 6.5000e+000 90459 -1.3905e+001 -4.7605e+001 -4.8792e+000 44513 90695,90407,90381
 6.5000e+000 90577 -2.3577e+001 -5.3696e+001 -1.2185e+001 44513 90433,90407,90551
 6.5000e+000 90600 -2.0330e+001 -4.9035e+001 -7.0600e+000 44513 90623,90433,90551
 6.5000e+000 90649 -1.9080e+001 -4.8833e+001 -7.4557e+000 44513 90329,90303,90623
 6.5000e+000 90672 -1.9724e+001 -4.8227e+001 -7.3270e+000 44513 90329,90623,90551
 6.5000e+000 90721 -2.0535e+001 -4.5952e+001 -8.4446e+000 44513 90355,90551,90695
 6.5000e+000 90744 -2.0101e+001 -4.3609e+001 -7.4700e+000 44513 90355,90695,90381
 6.5000e+000 91077  2.9514e+000 -5.3445e+001 -3.5128e+000 44059 91100,90930,90904
 6.5000e+000 91054 -2.1776e+001 -5.7911e+001  4.4402e+000 44059 91100,90904,90982
 6.5000e+000 91031 -3.8783e+001 -6.6922e+001 -3.5090e+000 44059 90878,90982,90904
 6.5000e+000 91008 -1.4361e+001 -5.3377e+001  1.8146e+000 44059 90852,90982,90878
 6.5000e+000 91126 -3.8948e+001 -6.5262e+001 -2.4059e+000 44059 91172,91100,90956
 6.5000e+000 91149 -2.2358e+001 -6.0927e+001 -2.5371e+000 44059 90956,91100,90982
 6.5000e+000 91198  4.4694e+000 -1.8409e+001 -2.0379e+001 44059 90930,91100,91172
 6.5000e+000 91677 -2.3536e+001 -3.7411e+001  3.0992e+000 43549 91455,91533,91481
 6.5000e+000 91654 -8.3861e+000 -3.6674e+001  4.9289e+000 43549 91429,91533,91455
 6.5000e+000 91631 -2.2840e+001 -3.7748e+001  1.1827e+000 43549 91481,91533,91507
 6.5000e+000 91608 -4.8343e+000 -3.5276e+001  1.5527e+000 43549 91429,91559,91533
 6.5000e+000 91585  2.8863e+000 -4.2911e+000 -6.1304e-001 43549 91403,91559,91429
 6.5000e+000 92006 -2.8731e+001 -6.8074e+001  4.1436e-001 43059 91781,91885,91807
 6.5000e+000 91983 -3.0267e+001 -6.4848e+001  1.1212e+001 43059 91781,91911,91885
 6.5000e+000 91960 -2.8195e+001 -6.6827e+001 -2.4686e-001 43059 91807,91885,91833
 6.5000e+000 91937 -1.9148e+001 -6.2946e+001  8.9099e-003 43059 91833,91885,91859
 6.5000e+000 92561 -1.6382e+001 -3.9456e+001 -4.7607e+000 42598 92584,92215,92189
 6.5000e+000 92538 -1.9048e+001 -4.4119e+001 -3.6866e+000 42598 92656,92584,92189
 6.5000e+000 92515 -1.6896e+001 -4.9789e+001 -8.3280e-001 42598 92656,92189,92397
 6.5000e+000 92492 -2.7608e+001 -3.5007e+001 -5.4047e+000 42598 92241,92319,92293
 6.5000e+000 92469 -2.1784e+001 -4.2760e+001  3.3235e+000 42598 92319,92397,92371
 6.5000e+000 92446 -4.5793e+000 -5.7289e+001  2.8919e+001 42598 92319,92371,92345
 6.5000e+000 92423 -2.4994e+001 -3.6149e+001 -9.3400e+000 42598 92241,92293,92267
 6.5000e+000 92610 -1.9233e+001 -4.0781e+001 -5.1002e+000 42598 92241,92215,92584
 6.5000e+000 92633 -1.7191e+001 -3.6006e+001 -5.0311e+000 42598 92241,92584,92319
 6.5000e+000 92682 -1.7068e+001 -3.6462e+001 -2.4271e+000 42598 92319,92584,92656
 6.5000e+000 92705 -1.3711e+001 -4.0425e+001 -2.8979e-001 42598 92319,92656,92397
 6.5000e+000 92953 -2.9477e+001 -7.2592e+001  4.0959e+000 42094 92976,92806,92780
 6.5000e+000 92930 -3.2670e+001 -6.8308e+001  7.7512e-002 42094 92976,92780,92754
 6.5000e+000 92907 -9.6847e+000 -6.9717e+001 -3.1878e-001 42094 93048,92832,92806
 6.5000e+000 92884 -3.9943e+001 -7.0164e+001 -4.3126e+000 42094 92728,92858,92754
 6.5000e+000 93002 -2.0192e+001 -6.7269e+001  1.9308e+000 42094 93048,92806,92976
 6.5000e+000 93025 -2.9973e+001 -6.6886e+001 -9.9533e-001 42094 92858,92976,92754
 6.5000e+000 93074 -2.4464e+001 -7.4804e+001 -2.4698e-001 42094 92858,92832,93048
 6.5000e+000 93097 -3.2867e+001 -7.0924e+001  1.0294e+000 42094 92858,93048,92976
 6.5000e+000 93605 -2.7963e+001 -8.0953e+001 -3.8474e+000 41846 93628,93412,93386
 6.5000e+000 93582 -2.2881e+001 -5.9018e+001 -2.1736e+000 41846 93628,93386,93308
 6.5000e+000 93559 -3.0795e+001 -5.9961e+001 -1.4679e+001 41846 93700,93464,93438
 6.5000e+000 93536 -3.4361e+001 -8.5881e+001  4.9523e-001 41846 93308,93386,93334
 6.5000e+000 93513 -4.0401e+001 -5.3535e+001 -1.4596e+001 41846 93334,93386,93360
 6.5000e+000 93490 -2.6505e+001 -5.3261e+001 -1.6934e+001 41846 93282,93464,93308
 6.5000e+000 93654 -2.5253e+001 -6.3351e+001 -6.8306e+000 41846 93438,93412,93628
 6.5000e+000 93677 -3.3002e+001 -6.2433e+001 -6.3303e+000 41846 93700,93438,93628
 6.5000e+000 93726 -2.6070e+001 -4.9882e+001 -1.6071e+001 41846 93308,93464,93700
 6.5000e+000 93749 -2.6876e+001 -4.9086e+001 -7.8791e+000 41846 93308,93700,93628
 6.5000e+000 94255 -2.7185e+001 -6.9897e+001  4.6583e+000 41385 93958,94114,94088
 6.5000e+000 94232 -2.2190e+001 -7.5406e+001  1.9065e+000 41385 93932,94114,93958
 6.5000e+000 94209 -4.1784e+001 -8.0275e+001  1.3592e+001 41385 93958,94088,94062
 6.5000e+000 94186 -4.3095e+001 -5.6826e+001  9.9263e+000 41385 93958,94062,93984
 6.5000e+000 94163 -3.4977e+001 -5.6432e+001  7.2351e+000 41385 93984,94062,94036
 6.5000e+000 94140 -2.4181e+001 -7.4028e+001  1.0383e+001 41385 93984,94036,94010
 6.5000e+000 94476 -1.0264e+001 -9.7861e+001  5.1773e+000 40881 94326,94378,94352
 6.5000e+000 94453 -1.6831e+001 -7.8220e+001  6.7181e+000 40881 94300,94378,94326
 6.5000e+000 94430 -2.2371e+001 -7.2116e+001  6.6378e-001 40881 94300,94404,94378
 6.5000e+000 94626 -1.1260e+001 -4.3603e+001 -1.8368e+000 40591 94649,94551,94525
 6.5000e+000 94603 -6.9319e+000 -2.2889e+001  2.2808e+000 40591 94781,94577,94551
 6.5000e+000 94675 -1.1075e+000 -2.9572e+001 -6.9480e+000 40591 94781,94551,94649
 6.5000e+000 94807  7.4299e+000 -1.0799e+001  8.9101e+000 40591 94499,94577,94781
 6.5000e+000 94830  9.9949e+000 -2.3165e+001 -1.0442e+000 40591 94499,94781,94649
 6.5000e+000 95336 -6.0276e+001 -6.5671e+001 -1.3027e+001 40187 95013,95169,95039
 6.5000e+000 95313 -1.7145e+001 -5.7719e+001 -5.3275e-001 40187 95013,95195,95169
 6.5000e+000 95290 -9.0124e+000 -6.0119e+001 -8.2482e+000 40187 95039,95143,95065
 6.5000e+000 95267 -3.8459e+001 -7.2079e+001 -1.1326e+001 40187 95039,95169,95143
 6.5000e+000 95244 -7.3021e+000 -3.2707e+001 -1.7599e+000 40187 95091,95143,95117
 6.5000e+000 95221 -2.1776e+000 -2.0676e+001 -8.6498e-001 40187 95065,95143,95091
 6.5000e+000 95665 -1.3699e+001 -3.7424e+001  2.6902e+001 39626 95466,95570,95544
 6.5000e+000 95642 -3.3116e+001 -2.7056e+001  1.7361e+001 39626 95440,95570,95466
 6.5000e+000 95619 -5.8321e+001 -5.8386e+001  1.8124e+001 39626 95466,95544,95492
 6.5000e+000 95596 -9.0951e+000 -4.4258e+001  2.5954e+001 39626 95492,95544,95518
 6.5000e+000 95913 -2.7490e+001 -5.5569e+001 -8.2076e+000 39136 96080,95936,95766
 6.5000e+000 95890 -1.8721e+001 -6.0459e+001 -5.6184e+000 39136 95936,95714,95688
 6.5000e+000 95867 -4.6860e+001 -6.0606e+001  3.0479e+000 39136 96008,95792,95766
 6.5000e+000 95844 -2.3237e+001 -5.4034e+001 -6.4916e+000 39136 96080,95766,95740
 6.5000e+000 95962 -3.7047e+001 -6.2573e+001 -5.0828e+000 39136 96008,95766,95936
 6.5000e+000 95985 -2.4438e+001 -7.4996e+001 -1.4963e+000 39136 95818,95936,95688
 6.5000e+000 96034 -2.3322e+001 -5.0422e+001  4.1078e+000 39136 95818,95792,96008
 6.5000e+000 96057 -2.0742e+001 -5.5417e+001 -3.8867e+000 39136 95818,96008,95936
 6.5000e+000 96106 -2.5411e+001 -5.5260e+001 -2.4211e+000 39136 95714,95936,96080
 6.5000e+000 96129 -1.8655e+001 -5.3308e+001 -1.1339e+000 39136 95714,96080,95740
 6.5000e+000 96350 -1.6484e+001 -4.3024e+001 -3.2170e+000 38824 96200,96278,96252
 6.5000e+000 96327 -1.2750e+001 -4.0946e+001 -2.3824e+000 38824 96174,96278,96200
 6.5000e+000 96304  1.2538e+000 -3.7334e+001 -9.6051e+000 38824 96200,96252,96226
 6.5000e+000 96830 -2.3150e+001 -4.4328e+001 -4.5091e+000 38320 97069,96536,96484
 6.5000e+000 96807 -2.2522e+001 -4.5276e+001 -4.4480e+000 38320 97069,96484,96853
 6.5000e+000 96784 -2.5942e+001 -4.8755e+001 -6.2628e-001 38320 96853,96484,96458
 6.5000e+000 96761 -1.3012e+001 -3.7491e+001 -6.6888e+000 38320 96925,96640,96614
 6.5000e+000 96738 -2.2002e+001 -3.8826e+001 -2.8526e+000 38320 96997,96666,96640
 6.5000e+000 96715 -1.8929e+001 -5.3817e+001 -2.5011e+000 38320 97141,96588,96562
 6.5000e+000 96692 -3.0186e+001 -5.1965e+001 -1.3958e+000 38320 96484,96536,96510
 6.5000e+000 96879 -2.2644e+001 -4.9174e+001 -2.9736e+000 38320 97141,96562,96853
 6.5000e+000 96902 -2.0952e+001 -4.7338e+001 -3.1189e+000 38320 96925,96614,96853
 6.5000e+000 96951 -2.1635e+001 -3.8252e+001 -3.4017e+000 38320 96997,96640,96925
 6.5000e+000 96974 -2.0256e+001 -3.8361e+001 -2.8273e+000 38320 96458,96925,96853
 6.5000e+000 97023 -2.3919e+001 -3.9872e+001 -1.8843e+000 38320 96458,96666,96997
 6.5000e+000 97046 -2.2620e+001 -3.8935e+001 -2.5146e+000 38320 96458,96997,96925
 6.5000e+000 97095 -2.4696e+001 -4.2739e+001 -4.0794e-001 38320 96562,96536,97069
 6.5000e+000 97118 -2.0952e+001 -4.4756e+001 -3.7900e+000 38320 96562,97069,96853
 6.5000e+000 97167 -1.2648e+001 -4.9393e+001 -4.4560e+000 38320 96614,96588,97141
 6.5000e+000 97190 -1.8734e+001 -4.6432e+001 -4.3236e+000 38320 96614,97141,96853
 6.5000e+000 97519 -1.6662e+001 -6.3059e+001  1.8327e+001 37766 97542,97398,97372
 6.5000e+000 97496 -1.9594e+001 -4.7147e+001  1.3668e+001 37766 97542,97372,97346
 6.5000e+000 97473 -2.0371e+001 -5.2031e+001 -4.7168e-002 37766 97294,97424,97346
 6.5000e+000 97450 -2.2836e+001 -5.8023e+001  7.9835e-002 37766 97294,97346,97320
 6.5000e+000 97568 -7.7257e+000 -6.8058e+001  4.8074e+000 37766 97424,97398,97542
 6.5000e+000 97591 -1.2626e+001 -4.9281e+001  1.1628e+000 37766 97424,97542,97346
 6.5000e+000 98048 -2.4454e+001 -3.6060e+001 -1.3222e+001 37262 98071,97878,97852
 6.5000e+000 98025 -1.9972e+001 -4.3940e+001 -5.1206e+000 37262 98071,97852,97800
 6.5000e+000 98002 -2.0338e+001 -5.2736e+001 -7.2811e+000 37262 97800,97852,97826
 6.5000e+000 97979 -2.2066e+001 -4.7208e+001 -6.9555e-001 37262 97800,97930,97904
 6.5000e+000 97956 -1.4215e+001 -5.3092e+001  1.8814e+000 37262 97774,97930,97800
 6.5000e+000 98097 -3.7019e+001 -4.2034e+001 -9.9592e+000 37262 97904,97878,98071
 6.5000e+000 98120 -2.6630e+001 -4.9799e+001 -2.3941e+000 37262 97904,98071,97800
 6.5000e+000 98449 -1.7193e+001 -4.0388e+001 -5.1459e+000 36950 98472,98302,98250
 6.5000e+000 98426 -1.0815e+001 -3.8111e+001 -6.4261e+000 36950 98472,98250,98354
 6.5000e+000 98403 -2.6661e+001 -4.7391e+001  5.4359e+000 36950 98250,98302,98276
 6.5000e+000 98380 -7.7551e+000 -2.8101e+001  5.4940e+000 36950 98224,98354,98250
 6.5000e+000 98498 -1.2431e+001 -4.6046e+001 -1.3012e+000 36950 98328,98302,98472
 6.5000e+000 98521 -4.8331e+000 -4.2606e+001 -3.6613e+000 36950 98328,98472,98354
 6.5000e+000 99125 -2.5169e+001 -2.5213e+001 -2.4874e-001 36296 98704,98756,98730
 6.5000e+000 99102 -3.2843e+001 -2.7191e+001  2.7433e+000 36296 98704,98938,98756
 6.5000e+000 99079 -2.2014e+001 -3.6814e+001 -1.6865e+000 36296 99148,98938,98912
 6.5000e+000 99056 -2.2265e+001 -3.8619e+001  9.6296e+000 36296 99292,99220,98782
 6.5000e+000 99033 -1.8727e+001 -4.4619e+001  8.4841e-001 36296 99148,98912,98834
 6.5000e+000 99010 -2.2076e+001 -3.2528e+001  1.1592e+001 36296 99292,98782,98756
 6.5000e+000 98987 -1.8949e+001 -7.9909e+001 -1.4498e+001 36296 98834,98912,98886
 6.5000e+000 98964 -2.9064e+001 -1.1074e+002 -1.8028e+001 36296 98834,98886,98860
 6.5000e+000 99174 -2.7806e+001 -4.7567e+001  1.1865e+000 36296 99220,98938,99148
 6.5000e+000 99197 -1.8724e+001 -5.5578e+001  6.1530e+000 36296 98808,99148,98834
 6.5000e+000 99246 -2.3604e+001 -4.1588e+001  2.2548e+001 36296 98808,98782,99220
 6.5000e+000 99269 -9.5131e+000 -3.3791e+001  7.2623e+000 36296 98808,99220,99148
 6.5000e+000 99318 -2.6647e+001 -3.3674e+001  5.7291e+000 36296 98938,99220,99292
 6.5000e+000 99341 -2.7162e+001 -3.4443e+001  7.3198e+000 36296 98938,99292,98756
 6.5000e+000 99719 -3.2758e+001 -6.5350e+001  4.4455e-001 35742 99742,99471,99601
 6.5000e+000 99696 -3.2300e+001 -5.2247e+001  6.3274e+000 35742 99445,99601,99471
 6.5000e+000 99673 -3.1088e+001 -6.1513e+001 -1.8562e+000 35742 99742,99601,99575
 6.5000e+000 99650 -2.7476e+001 -7.8529e+001 -1.5415e+000 35742 99814,99549,99523
 6.5000e+000 99627 -2.3104e+001 -6.1085e+001  4.5840e-001 35742 99471,99523,99497
 6.5000e+000 99768 -2.6454e+001 -6.3981e+001  1.8486e+000 35742 99523,99471,99742
 6.5000e+000 99791 -3.1231e+001 -7.1956e+001 -1.1665e+000 35742 99814,99523,99742
 6.5000e+000 99840 -2.7175e+001 -7.0327e+001 -4.0388e+000 35742 99575,99549,99814
 6.5000e+000 99863 -2.9453e+001 -6.1697e+001 -3.4251e+000 35742 99575,99814,99742
 6.5000e+000 100111 -2.6265e+001 -5.3719e+001  4.6989e+000 35302 100134,99990,99938
 6.5000e+000 100088 -2.2140e+001 -4.7747e+001  2.4786e+000 35302 100134,99938,99912
 6.5000e+000 100065 -2.2393e+001 -4.8153e+001 -8.1075e-001 35302 100206,99886,100016
 6.5000e+000 100042 -3.1291e+001 -5.4232e+001  3.2901e+000 35302 99938,99990,99964
 6.5000e+000 100160 -2.1602e+001 -5.2053e+001  8.5346e-001 35302 100016,99990,100134
 6.5000e+000 100183 -2.1297e+001 -4.9054e+001 -7.7981e-001 35302 100206,100016,100134
 6.5000e+000 100232 -2.3435e+001 -4.9186e+001 -2.0583e-001 35302 99912,99886,100206
 6.5000e+000 100255 -2.2378e+001 -5.0277e+001 -1.9627e-001 35302 99912,100206,100134
 6.5000e+000 100586 -3.2593e+001 -3.1272e+001  1.4420e+001 35012 100609,100387,100361
 6.5000e+000 100563 -4.0948e+001 -1.6999e+001 -7.1390e+000 35012 100609,100361,100465
 6.5000e+000 100540 -2.0653e+001 -1.2172e+001 -1.6412e+001 35012 100361,100491,100465
 6.5000e+000 100517  4.4779e-001 -1.1603e+001 -2.1799e+001 35012 100413,100465,100439
 6.5000e+000 100635 -1.1332e+001 -2.1746e+001  4.7253e+000 35012 100413,100387,100609
 6.5000e+000 100658 -1.8386e+001 -3.0158e+000 -1.7353e+001 35012 100413,100609,100465
 6.5000e+000 100987 -2.4481e+001 -5.5045e+001  4.7298e+000 34700 100788,100866,100814
 6.5000e+000 100964 -2.0901e+001 -3.8667e+001  9.0560e+000 34700 101010,100866,100788
 6.5000e+000 100941 -9.1276e+000 -2.1120e+001  7.8282e+000 34700 100762,100892,100866
 6.5000e+000 100918 -2.1916e+001 -4.8871e+001  4.2414e+000 34700 100814,100866,100840
 6.5000e+000 101036 -1.2018e+001 -3.1967e+001  1.5121e+001 34700 100762,100866,101010
 6.5000e+000 101493 -3.3423e+001 -6.1345e+001 -4.2537e+000 34132 101516,101349,101297
 6.5000e+000 101470 -3.9085e+001 -7.2621e+001 -7.2160e+000 34132 101588,101516,101297
 6.5000e+000 101447 -3.9009e+001 -7.5508e+001 -1.0806e+001 34132 101588,101297,101245
 6.5000e+000 101424 -2.6142e+001 -8.6900e+001 -1.0122e+001 34132 101245,101297,101271
 6.5000e+000 101401 -3.5340e+001 -6.1020e+001 -5.5567e+000 34132 101297,101349,101323
 6.5000e+000 101542 -3.3753e+001 -7.0305e+001 -3.4888e+000 34132 101375,101349,101516
 6.5000e+000 101565 -3.1577e+001 -7.1349e+001 -4.3529e+000 34132 101375,101516,101219
 6.5000e+000 101614 -3.2315e+001 -7.2602e+001 -4.0490e+000 34132 101219,101516,101588
 6.5000e+000 101637 -3.5679e+001 -7.5645e+001 -7.4416e+000 34132 101219,101588,101245
 6.5000e+000 101858 -6.8660e+000 -4.2256e+001  5.1109e+000 33720 101708,101786,101760
 6.5000e+000 101835 -1.4065e+000 -4.3669e+001  8.3192e+000 33720 101682,101786,101708
 6.5000e+000 101812 -1.1866e+001 -4.4706e+001  4.1928e+000 33720 101708,101760,101734
 6.5000e+000 102128 -9.7717e+000 -6.4816e+001 -1.8642e+000 33130 101903,102007,101929
 6.5000e+000 102105 -1.0593e+001 -7.4817e+001  2.2758e+000 33130 101903,102033,102007
 6.5000e+000 102082 -6.1991e+000 -7.7070e+001 -1.4616e+001 33130 101929,102007,101955
 6.5000e+000 102059 -1.2842e+001 -5.4391e+001  1.4522e+000 33130 101955,102007,101981
 6.5000e+000 102461 -1.4609e+001 -3.7924e+001 -5.1813e+000 32840 102236,102340,102262
 6.5000e+000 102438 -1.4713e+001 -2.8823e+001  2.1901e+000 32840 102236,102366,102340
 6.5000e+000 102415 -6.4703e+000 -3.5783e+001 -4.5341e+000 32840 102262,102340,102288
 6.5000e+000 102392 -1.3025e+001 -3.6298e+001 -1.0733e+001 32840 102288,102340,102314
 6.5000e+000 102997 -2.2096e+001 -3.7934e+001  9.9533e+000 32493 102749,102879,102853
 6.5000e+000 102974 -1.9053e+001 -3.1499e+001  8.5858e+000 32493 102723,102879,102749
 6.5000e+000 102951 -2.4496e+001 -4.4434e+001  7.6856e+000 32493 102749,102801,102775
 6.5000e+000 102928 -2.7301e+001 -4.3840e+001  7.1833e+000 32493 102749,102853,102801
 6.5000e+000 102905 -2.7343e+001 -4.4426e+001  6.7459e+000 32493 102801,102853,102827
 6.5000e+000 103454 -1.2775e+001 -2.7466e+001 -5.3157e+000 32089 103206,103336,103310
 6.5000e+000 103431 -8.3177e+000 -3.3020e+001 -1.2061e+000 32089 103180,103336,103206
 6.5000e+000 103408 -2.1862e+001 -3.7965e+001 -8.7854e+000 32089 103206,103284,103258
 6.5000e+000 103385 -2.8863e+001 -3.7535e+001 -1.1127e+001 32089 103206,103310,103284
 6.5000e+000 103362 -1.6491e+001 -2.4732e+001 -7.2127e+000 32089 103206,103258,103232
 6.5000e+000 103783 -3.5754e+001 -4.4300e+001 -5.8876e+000 31742 103558,103662,103584
 6.5000e+000 103760 -3.0213e+001 -3.8366e+001 -1.5183e+001 31742 103558,103688,103662
 6.5000e+000 103737 -2.4136e+001 -3.4620e+001 -1.0766e+001 31742 103584,103662,103636
 6.5000e+000 103714 -2.3959e+001 -4.1498e+001 -1.1298e+001 31742 103584,103636,103610
 6.5000e+000 104112 -5.2504e+000 -3.2193e+001  5.3816e+000 31402 103939,103991,103965
 6.5000e+000 104089 -9.6548e+000 -2.7496e+001  2.6915e+000 31402 103913,103991,103939
 6.5000e+000 104066 -1.3267e+001 -3.3644e+001 -1.1109e+000 31402 103913,104017,103991
 6.5000e+000 104043 -1.8330e+001 -2.8686e+001 -4.7445e+000 31402 103887,104017,103913
 6.5000e+000 104569 -3.5508e+001 -6.3021e+001  3.9372e+000 30998 104321,104425,104373
 6.5000e+000 104546 -3.7530e+001 -6.3780e+001  3.8822e+000 30998 104321,104451,104425
 6.5000e+000 104523 -2.5422e+001 -4.9071e+001  1.1557e+001 30998 104373,104425,104399
 6.5000e+000 104500 -2.8016e+001 -7.2952e+001 -6.3315e-001 30998 104295,104451,104321
 6.5000e+000 104477 -4.8956e+001 -7.4688e+001  1.7671e+001 30998 104321,104373,104347
 6.5000e+000 104947 -3.7196e+001 -5.8548e+001 -8.6107e+000 30608 104751,104803,104777
 6.5000e+000 104924 -2.2536e+001 -5.9440e+001 -3.1287e+000 30608 104725,104803,104751
 6.5000e+000 104901 -3.4991e+001 -5.7138e+001  3.5442e+000 30608 104699,104803,104725
 6.5000e+000 104878 -2.8913e+001 -5.4094e+001  2.5052e+000 30608 104673,104803,104699
 6.5000e+000 104855 -2.2269e+001 -5.0168e+001 -2.4678e+000 30608 104673,104829,104803
 6.5000e+000 105276 -2.6912e+001 -5.3121e+001  6.7065e-001 30204 105427,105129,105077
 6.5000e+000 105253 -1.7417e+001 -6.0064e+001  1.2924e+001 30204 105427,105077,105051
 6.5000e+000 105230 -2.1125e+001 -5.2065e+001  7.5686e-001 30204 105077,105129,105103
 6.5000e+000 105207 -8.4874e+000 -4.2764e+001  6.0448e+000 30204 105299,105181,105155
 6.5000e+000 105325 -1.2685e+001 -4.2903e+001  3.7820e-001 30204 105129,105181,105299
 6.5000e+000 105453 -3.2765e+001 -5.7408e+001  7.0323e+000 30204 105181,105129,105427
 6.5000e+000 105476 -3.8900e+001 -7.1487e+001  2.1011e+001 30204 105181,105427,105051
 6.5000e+000 105903 -1.9960e+001 -4.5943e+001 -3.4886e+000 29700 105606,105762,105736
 6.5000e+000 105880 -2.5252e+001 -4.7171e+001 -2.3866e-001 29700 105580,105762,105606
 6.5000e+000 105857 -3.0724e+001 -5.8193e+001 -3.4137e+000 29700 105606,105710,105632
 6.5000e+000 105834 -2.5661e+001 -4.9589e+001 -1.3155e+000 29700 105606,105736,105710
 6.5000e+000 105811 -2.8044e+001 -5.4663e+001 -4.6187e+000 29700 105632,105710,105684
 6.5000e+000 105788 -2.7646e+001 -5.3578e+001 -2.2411e+000 29700 105632,105684,105658
 6.5000e+000 106102 -7.9937e+000 -5.6118e+001  1.7328e+000 29124 105978,106030,106004
 6.5000e+000 106079 -1.3934e+001 -5.3605e+001  2.5194e+000 29124 105926,106030,105978
 6.5000e+000 106056 -1.7582e+001 -6.4751e+001  5.9126e+000 29124 105926,105978,105952
 6.5000e+000 106301 -1.6441e+001 -5.7557e+001  4.5094e-001 28712 106151,106229,106203
 6.5000e+000 106278 -2.0002e+001 -6.3900e+001 -2.7478e+000 28712 106125,106229,106151
 6.5000e+000 106255 -1.7016e+001 -6.0088e+001  2.9135e+000 28712 106151,106203,106177
 6.5000e+000 106551 -1.8375e+001 -6.8815e+001  4.8845e+000 28258 106352,106404,106378
 6.5000e+000 106528 -2.5668e+001 -6.9626e+001  2.3662e+000 28258 106352,106456,106404
 6.5000e+000 106505 -2.6706e+001 -6.8829e+001  2.6543e+000 28258 106326,106456,106352
 6.5000e+000 106482 -2.1610e+001 -6.2938e+001  5.1503e-002 28258 106404,106456,106430
 6.5000e+000 107012 -2.4745e+001 -6.0685e+001  1.2052e+001 27818 107035,106790,106764
 6.5000e+000 106989 -2.1503e+001 -5.6989e+001  4.9276e+000 27818 107035,106764,106868
 6.5000e+000 106966 -1.5175e+001 -7.0794e+001  6.9874e+000 27818 107107,106842,106816
 6.5000e+000 106943 -3.0563e+001 -5.0964e+001  1.9835e+000 27818 106738,106868,106764
 6.5000e+000 106920 -3.0571e+001 -4.7766e+001  7.3386e+000 27818 106738,106894,106868
 6.5000e+000 107061 -1.2098e+001 -5.8083e+001  1.3595e+001 27818 106816,106790,107035
 6.5000e+000 107084 -1.9814e+001 -6.5398e+001  7.3714e+000 27818 107107,106816,107035
 6.5000e+000 107133 -1.3338e+001 -6.3096e+001  3.2879e+000 27818 106868,106842,107107
 6.5000e+000 107156 -1.6754e+001 -5.5306e+001  4.5394e+000 27818 106868,107107,107035
 6.5000e+000 107613 -9.1810e+000 -4.6260e+001  9.8491e+000 27312 107339,107469,107365
 6.5000e+000 107590 -2.9986e+000 -4.3011e+001  8.5378e+000 27312 107339,107495,107469
 6.5000e+000 107567 -9.8870e+000 -4.3341e+001  5.0859e+000 27312 107391,107469,107443
 6.5000e+000 107544 -5.8383e+000 -4.6372e+001  5.1537e+000 27312 107365,107469,107391
 6.5000e+000 107521 -2.4263e+001 -4.8324e+001  2.8863e+000 27312 107391,107443,107417
 6.5000e+000 107991 -1.9659e+001 -6.6777e+001  3.4425e+000 26858 108086,108014,107795
 6.5000e+000 107968 -2.1767e+001 -6.6205e+001 -1.1506e+000 26858 108014,107717,107873
 6.5000e+000 107945 -2.3443e+001 -7.2527e+001  5.2821e+000 26858 108158,108086,107795
 6.5000e+000 107922 -1.8894e+001 -7.6125e+001  6.4247e+000 26858 108158,107795,107769
 6.5000e+000 107899 -1.7798e+001 -8.1486e+001  1.1968e+001 26858 107821,107873,107847
 6.5000e+000 108040 -2.1006e+001 -7.4273e+001  4.2631e+000 26858 107821,107795,108014
 6.5000e+000 108063 -1.3884e+001 -7.0516e+001  1.5251e+000 26858 107821,108014,107873
 6.5000e+000 108112 -2.7279e+001 -6.9792e+001  4.2364e+000 26858 107717,108014,108086
 6.5000e+000 108135 -2.3268e+001 -6.8542e+001  6.9901e+000 26858 107717,108086,107743
 6.5000e+000 108184 -1.8811e+001 -6.7063e+001  7.2581e+000 26858 107743,108086,108158
 6.5000e+000 108207 -1.5880e+001 -7.1808e+001  7.7668e+000 26858 107743,108158,107769
 6.5000e+000 108634 -3.0072e+001 -6.0765e+001  1.3259e+000 26404 108657,108415,108363
 6.5000e+000 108611 -3.4858e+001 -6.7270e+001  8.5002e+000 26404 108657,108363,108337
 6.5000e+000 108588 -3.0286e+001 -6.5106e+001  8.4458e+000 26404 108729,108311,108467
 6.5000e+000 108565 -3.1198e+001 -7.5892e+001  2.1161e+000 26404 108801,108441,108415
 6.5000e+000 108542 -4.3824e+001 -7.0961e+001  8.9560e+000 26404 108311,108493,108467
 6.5000e+000 108519 -2.0362e+001 -6.1248e+001  1.2120e+000 26404 108363,108415,108389
 6.5000e+000 108683 -4.0652e+001 -6.6340e+001  3.3796e+000 26404 108801,108415,108657
 6.5000e+000 108706 -3.9169e+001 -6.6940e+001  7.1083e+000 26404 108729,108467,108657
 6.5000e+000 108755 -2.4808e+001 -6.8133e+001  8.3311e+000 26404 108337,108311,108729
 6.5000e+000 108778 -2.9320e+001 -6.6778e+001  6.6854e+000 26404 108337,108729,108657
 6.5000e+000 108827 -4.0518e+001 -9.4677e+001 -3.4104e+000 26404 108467,108441,108801
 6.5000e+000 108850 -4.5574e+001 -7.8393e+001 -2.0563e+000 26404 108467,108801,108657
 6.5000e+000 109228 -3.1887e+001 -6.8167e+001 -2.4779e+000 26064 109006,109084,109058
 6.5000e+000 109205 -2.8154e+001 -6.3569e+001  2.0254e+000 26064 108980,109084,109006
 6.5000e+000 109182 -2.9696e+001 -6.0128e+001 -1.8091e+000 26064 108980,109110,109084
 6.5000e+000 109159 -3.0655e+001 -7.1311e+001  2.5011e-003 26064 109006,109058,109032
 6.5000e+000 109136 -1.0349e+001 -5.2201e+001  2.7569e+000 26064 108954,109110,108980
 6.5000e+000 109427 -6.7784e+000 -5.7579e+001 -1.2877e+001 25660 109303,109355,109329
 6.5000e+000 109404 -1.4554e+001 -7.2942e+001 -2.8813e+000 25660 109277,109355,109303
 6.5000e+000 109381 -1.1901e+001 -6.7885e+001 -7.5983e-001 25660 109251,109355,109277
 6.5000e+000 109577 -7.3369e+000 -1.9736e+001  6.8801e+000 25306 109476,109528,109502
 6.5000e+000 109554  8.3126e+000 -1.3037e+001  7.8728e+000 25306 109450,109528,109476
 6.5000e+000 109778 -2.2715e+001 -6.1938e+001  1.2772e+000 24944 109628,109706,109654
 6.5000e+000 109755 -2.4414e+001 -6.1223e+001 -4.7685e-002 24944 109602,109706,109628
 6.5000e+000 109732 -2.0019e+001 -5.8192e+001 -1.0977e+000 24944 109654,109706,109680
 6.5000e+000 110126 -1.4685e+001 -7.4768e+001  1.6925e+000 24440 110149,109907,109855
 6.5000e+000 110103 -1.0519e+001 -8.1345e+001  5.6777e+000 24440 110149,109855,109985
 6.5000e+000 110080 -1.0767e+001 -6.3079e+001  1.3164e+000 24440 109855,109907,109881
 6.5000e+000 110057 -9.9796e+000 -6.1042e+001  2.5185e+001 24440 109829,109985,109855
 6.5000e+000 110034 -1.2680e+001 -7.3524e+001  1.1782e+000 24440 109907,109959,109933
 6.5000e+000 110011  6.5777e+000 -5.9105e+001  3.8910e+000 24440 109803,109985,109829
 6.5000e+000 110175 -1.2282e+001 -7.0074e+001  2.5512e+000 24440 109959,109907,110149
 6.5000e+000 110198 -6.8554e+000 -7.4865e+001  7.1342e+000 24440 109959,110149,109985
 6.5000e+000 110301  1.0592e+000 -2.2746e+001  4.3812e+000 24028 110223,110275,110249
 6.5000e+000 110573 -9.8820e+000 -4.5924e+001  3.7265e+000 23467 110400,110452,110426
 6.5000e+000 110550 -1.6524e+001 -5.5778e+001  5.8344e-001 23467 110374,110452,110400
 6.5000e+000 110527 -1.8359e+001 -5.6547e+001  1.3648e+000 23467 110348,110452,110374
 6.5000e+000 110504 -1.3198e+001 -5.4785e+001  1.9973e-002 23467 110348,110478,110452
 6.5000e+000 111004 -3.5465e+001 -8.2382e+001 -1.1835e+001 22963 111027,110733,110707
 6.5000e+000 110981 -3.7210e+001 -7.7836e+001  4.5436e+000 22963 111027,110707,110681
 6.5000e+000 110958 -1.4637e+001 -6.3920e+001 -1.0576e+001 22963 111099,110759,110733
 6.5000e+000 110935 -2.6025e+001 -6.5658e+001 -6.7941e+000 22963 111171,110863,110811
 6.5000e+000 110912 -5.2908e+000 -4.5463e+001 -1.3396e+001 22963 110759,110811,110785
 6.5000e+000 110889 -3.2294e+001 -7.4118e+001 -2.8732e+000 22963 110811,110863,110837
 6.5000e+000 111053 -2.7796e+001 -7.2972e+001 -5.7127e+000 22963 111099,110733,111027
 6.5000e+000 111076 -2.4088e+001 -7.0621e+001 -6.0178e+000 22963 111171,110811,111027
 6.5000e+000 111125 -1.4045e+001 -6.1976e+001 -1.7749e+001 22963 110811,110759,111099
 6.5000e+000 111148 -1.6095e+001 -6.0802e+001 -1.4779e+001 22963 110811,111099,111027
 6.5000e+000 111197 -2.5018e+001 -5.9502e+001 -6.9882e+000 22963 110681,110863,111171
 6.5000e+000 111220 -2.2994e+001 -6.4014e+001 -4.4476e+000 22963 110681,111171,111027
 6.5000e+000 111726 -3.8391e+001 -6.8982e+001 -5.2362e-001 22459 111749,111507,111429
 6.5000e+000 111703 -3.1621e+001 -6.6443e+001 -3.7831e+000 22459 111749,111429,111585
 6.5000e+000 111680 -2.3534e+001 -7.3600e+001 -2.1588e+000 22459 111403,111585,111429
 6.5000e+000 111657 -3.5763e+001 -7.7811e+001  3.3539e+000 22459 111507,111559,111533
 6.5000e+000 111634 -4.5594e+001 -6.3972e+001  3.8956e+000 22459 111455,111507,111481
 6.5000e+000 111611 -6.2560e+001 -6.8816e+001  7.9547e+000 22459 111429,111507,111455
 6.5000e+000 111775 -3.6973e+001 -7.4338e+001  5.0301e+000 22459 111559,111507,111749
 6.5000e+000 111798 -3.1079e+001 -6.9681e+001  1.6625e+000 22459 111559,111749,111585
 6.5000e+000 112046 -1.6274e+001 -6.0150e+001 -7.5774e+000 21898 112069,111925,111873
 6.5000e+000 112023 -1.5330e+001 -6.0027e+001 -1.2847e+000 21898 112069,111873,111847
 6.5000e+000 112000 -2.0541e+001 -6.0420e+001 -2.7225e+000 21898 111821,111951,111847
 6.5000e+000 111977 -1.8310e+001 -4.6088e+001 -4.3895e+000 21898 111873,111925,111899
 6.5000e+000 112095 -2.5147e+001 -6.3226e+001 -9.3328e+000 21898 111951,111925,112069
 6.5000e+000 112118 -2.0552e+001 -6.1772e+001 -3.2704e+000 21898 111951,112069,111847
 6.5000e+000 112498 -2.5153e+001 -6.3973e+001 -3.8083e+000 21608 112521,112276,112224
 6.5000e+000 112475 -1.6149e+001 -6.4844e+001  1.4085e+000 21608 112521,112224,112380
 6.5000e+000 112452 -1.6891e+001 -7.3755e+001  5.3870e+000 21608 112302,112380,112354
 6.5000e+000 112429 -3.1841e+001 -6.8960e+001 -8.0020e-001 21608 112224,112276,112250
 6.5000e+000 112406  1.4958e+001 -8.3383e+001 -5.4115e+000 21608 112302,112354,112328
 6.5000e+000 112547 -1.7742e+001 -5.5826e+001  3.9998e-001 21608 112302,112276,112521
 6.5000e+000 112570 -1.1664e+001 -6.2523e+001  4.0391e+000 21608 112302,112521,112380
 6.5000e+000 112948 -3.3685e+001 -6.4933e+001 -5.5546e-001 20882 112971,112752,112700
 6.5000e+000 112925 -2.5220e+001 -6.2245e+001 -2.7192e+000 20882 112971,112700,112830
 6.5000e+000 112902 -4.1146e+001 -7.0403e+001  4.7339e+000 20882 112778,112830,112804
 6.5000e+000 112879 -2.2495e+001 -4.8702e+001 -3.3149e+000 20882 112674,112830,112700
 6.5000e+000 112856 -3.7964e+001 -6.6341e+001  9.0459e-001 20882 112700,112752,112726
 6.5000e+000 112997 -3.4106e+001 -6.5317e+001  4.1158e+000 20882 112778,112752,112971
 6.5000e+000 113020 -2.9258e+001 -6.4073e+001  1.7972e+000 20882 112778,112971,112830
 6.5000e+000 113526 -1.7905e+001 -6.2814e+001 -1.5146e-001 20428 113255,113385,113333
 6.5000e+000 113503 -1.8869e+001 -6.6516e+001  6.8806e-002 20428 113229,113385,113255
 6.5000e+000 113480  3.0331e+000 -5.9840e+001  8.1185e-001 20428 113255,113333,113281
 6.5000e+000 113457 -1.6864e+001 -6.0657e+001  3.0370e+000 20428 113203,113385,113229
 6.5000e+000 113434 -7.7231e+000 -6.3838e+001 -2.7477e+000 20428 113281,113333,113307
 6.5000e+000 113411 -2.3295e+001 -6.1282e+001  1.1138e+000 20428 113333,113385,113359
 6.5000e+000 113774 -4.1562e+000 -6.5513e+001  3.2267e+000 19917 113797,113601,113549
 6.5000e+000 113751 -1.0865e+001 -6.6000e+001  3.7647e+000 19917 113869,113797,113549
 6.5000e+000 113728 -1.0402e+001 -6.6665e+001  6.4088e+000 19917 113869,113549,113679
 6.5000e+000 113705 -7.0968e+000 -6.5628e+001  6.7721e+000 19917 113549,113601,113575
 6.5000e+000 113823 -1.1358e+001 -8.0735e+001  3.7689e-001 19917 113627,113601,113797
 6.5000e+000 113846 -4.4652e+000 -6.2614e+001 -7.8068e-001 19917 113627,113797,113653
 6.5000e+000 113895 -9.4447e+000 -5.9577e+001  1.8171e+000 19917 113653,113797,113869
 6.5000e+000 113918 -1.1476e+001 -6.1241e+001  5.1972e+000 19917 113653,113869,113679
 6.5000e+000 114166 -2.9864e+001 -6.6597e+001 -1.1291e+000 19413 113993,114045,114019
 6.5000e+000 114143 -2.4884e+001 -6.1130e+001  1.0498e+000 19413 113967,114045,113993
 6.5000e+000 114120 -2.3333e+001 -6.0853e+001  4.2056e+000 19413 113967,114071,114045
 6.5000e+000 114097 -1.4773e+001 -7.0244e+001 -1.3838e+000 19413 113941,114071,113967
 6.5000e+000 114438 -2.7770e+001 -7.4782e+001  9.4931e-001 19001 114213,114265,114239
 6.5000e+000 114415 -1.9609e+001 -5.7594e+001 -1.5222e+000 19001 114213,114343,114265
 6.5000e+000 114392 -2.9566e+001 -7.9966e+001 -3.3962e+000 19001 114265,114343,114317
 6.5000e+000 114369  5.3159e+000 -6.4930e+001 -1.2656e+000 19001 114265,114317,114291
 6.5000e+000 114639 -2.0533e+001 -8.8527e+001  4.3265e+000 18554 114489,114541,114515
 6.5000e+000 114616 -1.7901e+001 -7.6612e+001  7.5297e-001 18554 114489,114567,114541
 6.5000e+000 114593 -3.9358e+001 -8.5604e+001 -5.3713e+000 18554 114463,114567,114489
 6.5000e+000 115043 -1.1179e+001 -6.4491e+001  2.5975e+000 18164 114795,114925,114821
 6.5000e+000 115020 -8.1138e+000 -6.6433e+001  4.6937e+000 18164 114769,114925,114795
 6.5000e+000 114997 -4.7366e+000 -6.8329e+001 -9.0427e-001 18164 115066,114873,114821
 6.5000e+000 114974 -3.7017e+000 -5.7735e+001 -2.4195e+000 18164 115066,114821,114925
 6.5000e+000 114951  1.2943e+001 -6.7697e+001 -8.5551e+000 18164 114821,114873,114847
 6.5000e+000 115092 -8.9117e+000 -6.0735e+001 -6.5021e+000 18164 114899,114873,115066
 6.5000e+000 115115 -3.7158e+000 -4.4543e+001 -8.4671e+000 18164 114899,115066,114925
 6.5000e+000 115265 -9.8864e+000 -6.2701e+001  1.7161e+000 17852 115164,115216,115190
 6.5000e+000 115242 -1.4204e+001 -7.1138e+001 -3.1502e-001 17852 115138,115216,115164
 6.5000e+000 115464 -5.1370e+001 -1.0954e+002  1.0433e+000 17346 115288,115366,115340
 6.5000e+000 115441 -7.2326e+001 -8.1787e+001 -5.4586e+000 17346 115288,115392,115366
 6.5000e+000 115418 -4.3128e+001 -1.2148e+002 -3.5606e+000 17346 115288,115340,115314
 6.5000e+000 115736 -1.1369e+001 -6.1021e+001  2.6167e+000 16942 115563,115641,115615
 6.5000e+000 115713 -1.3213e+001 -5.9815e+001  7.6897e-001 16942 115511,115641,115563
 6.5000e+000 115690 -4.1361e+001 -7.2136e+001  5.3608e+000 16942 115563,115615,115589
 6.5000e+000 115667 -1.7402e+001 -6.7121e+001  2.4810e+000 16942 115511,115563,115537
 6.5000e+000 116091 -3.5413e+001 -8.1191e+001 -2.1413e+000 16388 115918,115970,115944
 6.5000e+000 116068 -3.2207e+001 -6.6926e+001 -1.9705e+000 16388 115918,115996,115970
 6.5000e+000 116045 -4.3301e+001 -8.2477e+001  2.9318e+000 16388 115892,115996,115918
 6.5000e+000 116022 -2.6393e+001 -7.3288e+001  1.0830e+001 16388 115866,115996,115892
 6.5000e+000 116192 -2.1673e+000 -7.8465e+001 -1.2080e+001 15810 116114,116166,116140
 6.5000e+000 116342 -3.0940e+001 -1.0058e+002  5.2722e+000 15419 116241,116293,116267
 6.5000e+000 116319 -4.3990e+001 -1.2209e+002 -3.2814e+000 15419 116215,116293,116241
 6.5000e+000 116445 -3.2980e+001 -6.3083e+001 -6.6575e-001 421 116367,116419,116393
 6.6000e+000 68477 -4.0603e+001 -5.1625e+001  7.6945e-001 68018 68327,68379,68353
 6.6000e+000 68454 -4.3942e+001 -6.8089e+001  5.6581e+000 68018 68301,68379,68327
 6.6000e+000 68431 -3.0043e+001 -7.9975e+001  1.0838e+001 68018 68301,68405,68379
 6.6000e+000 68578 -2.9974e+001 -5.0097e+001  5.0273e-001 67820 68500,68552,68526
 6.6000e+000 68728 -2.9343e+001 -4.4748e+001 -3.7216e-001 67508 68601,68653,68627
 6.6000e+000 68705 -4.1746e+001 -3.4729e+001 -5.5597e+000 67508 68601,68679,68653
 6.6000e+000 68927 -1.7149e+001 -5.0944e+001 -1.3885e-001 67310 68777,68829,68803
 6.6000e+000 68904 -2.0063e+001 -5.8672e+001  1.4048e+000 67310 68751,68829,68777
 6.6000e+000 68881 -1.8388e+001 -6.2246e+001  3.3733e+000 67310 68751,68855,68829
 6.6000e+000 69386 -2.5175e+001 -5.6295e+001 -2.1008e+000 67020 69216,69268,69242
 6.6000e+000 69363 -2.4402e+001 -4.4948e+001 -5.5611e+000 67020 69138,69268,69216
 6.6000e+000 69340 -1.7624e+001 -4.2596e+001 -5.2050e+000 67020 69112,69268,69138
 6.6000e+000 69317 -3.1141e+001 -4.7402e+001  1.5666e+000 67020 69138,69190,69164
 6.6000e+000 69294 -3.1412e+001 -4.3238e+001 -2.7226e+000 67020 69138,69216,69190
 6.6000e+000 69536 -3.5280e+001 -8.5573e+001 -6.7622e+000 66708 69435,69487,69461
 6.6000e+000 69513 -2.5949e+001 -9.7973e+001 -1.2512e-001 66708 69409,69487,69435
 6.6000e+000 69735 -2.7605e+001 -4.8047e+001  1.1078e+000 66346 69585,69637,69611
 6.6000e+000 69712 -2.3358e+001 -4.5193e+001 -3.4705e-001 66346 69559,69637,69585
 6.6000e+000 69689 -2.1038e+001 -4.3519e+001 -4.6147e+000 66346 69559,69663,69637
 6.6000e+000 69985 -4.5382e+001 -6.6241e+001  7.6136e-001 66148 69786,69890,69864
 6.6000e+000 69962 -4.7513e+001 -6.7651e+001  1.6063e+000 66148 69760,69890,69786
 6.6000e+000 69939 -3.7621e+001 -6.3555e+001 -7.0056e+000 66148 69786,69864,69838
 6.6000e+000 69916 -4.3211e+001 -6.8433e+001 -7.4982e-002 66148 69786,69838,69812
 6.6000e+000 70137 -1.9355e+001 -7.5466e+001 -3.3839e+000 65950 70036,70088,70062
 6.6000e+000 70114 -1.7530e+001 -8.4061e+001  4.8643e+000 65950 70010,70088,70036
 6.6000e+000 70470 -1.6534e+001 -5.6793e+001  3.7755e+000 65546 70245,70323,70271
 6.6000e+000 70447 -1.3396e+001 -5.2957e+001  1.4797e+000 65546 70245,70375,70323
 6.6000e+000 70424 -1.5197e+001 -6.5403e+001  2.3452e+000 65546 70323,70375,70349
 6.6000e+000 70401 -1.5774e+001 -5.3910e+001  1.9707e+000 65546 70271,70323,70297
 6.6000e+000 70620 -2.9124e+001 -6.1815e+001  2.1239e+000 65348 70493,70545,70519
 6.6000e+000 70597 -2.4168e+001 -6.6374e+001  1.9561e+000 65348 70493,70571,70545
 6.6000e+000 70721 -4.9119e+001 -8.5800e+001 -1.4737e+000 65150 70643,70695,70669
 6.6000e+000 71020 -2.6579e+001 -5.2148e+001  2.5117e+000 64952 71043,70850,70824
 6.6000e+000 70997 -2.3635e+001 -4.9734e+001 -1.4356e+000 64952 71043,70824,70772
 6.6000e+000 70974 -2.4271e+001 -6.6670e+001  2.4640e+000 64952 71115,70746,70876
 6.6000e+000 70951 -2.3143e+001 -6.8192e+001  6.0762e-001 64952 70746,70902,70876
 6.6000e+000 70928 -2.5179e+001 -4.5556e+001 -4.2082e+000 64952 70772,70824,70798
 6.6000e+000 71069 -1.6412e+001 -4.5161e+001  9.3070e+000 64952 70876,70850,71043
 6.6000e+000 71092 -2.2800e+001 -6.0977e+001  3.1302e+000 64952 71115,70876,71043
 6.6000e+000 71141 -2.9918e+001 -6.0004e+001 -2.8274e+000 64952 70772,70746,71115
 6.6000e+000 71164 -2.6686e+001 -5.1528e+001 -2.1984e+000 64952 70772,71115,71043
 6.6000e+000 71365 -9.3030e+000 -7.2167e+001 -2.3259e+000 64662 71215,71293,71267
 6.6000e+000 71342  5.3032e+000 -4.8707e+001 -9.4485e+000 64662 71189,71293,71215
 6.6000e+000 71319  2.4190e+000 -4.3373e+001 -7.7496e-001 64662 71215,71267,71241
 6.6000e+000 71615 -2.4683e+001 -5.5915e+001  4.2139e-001 64350 71710,71638,71468
 6.6000e+000 71592 -2.0139e+001 -5.3616e+001 -1.8606e+000 64350 71638,71416,71390
 6.6000e+000 71569 -2.6888e+001 -5.1720e+001  4.1700e+000 64350 71710,71468,71442
 6.6000e+000 71546 -5.9562e+000 -5.3991e+001 -4.8738e+000 64350 71390,71520,71494
 6.6000e+000 71664 -2.1029e+001 -5.4235e+001 -6.6657e-002 64350 71494,71468,71638
 6.6000e+000 71687 -2.1318e+001 -5.6701e+001  1.1121e-002 64350 71494,71638,71390
 6.6000e+000 71736 -2.0276e+001 -4.7267e+001 -1.1024e+000 64350 71416,71638,71710
 6.6000e+000 71759 -2.3605e+001 -4.4354e+001  3.3794e+000 64350 71416,71710,71442
 6.6000e+000 72318 -2.3797e+001 -8.4443e+001 -3.0425e+000 63837 71972,72024,71998
 6.6000e+000 72295 -2.7958e+001 -5.6870e+001  4.0841e-001 63837 72341,71972,71946
 6.6000e+000 72272 -2.6114e+001 -4.6506e+001  3.0702e+000 63837 72413,72341,71946
 6.6000e+000 72249 -2.6777e+001 -4.2423e+001  2.0060e+000 63837 72413,71946,72128
 6.6000e+000 72226 -3.4410e+001 -5.0900e+001  1.6449e+000 63837 72024,72076,72050
 6.6000e+000 72203 -3.0940e+001 -4.5751e+001 -1.1845e+000 63837 72024,72102,72076
 6.6000e+000 72180 -2.2908e+001 -4.0868e+001  2.2423e+000 63837 71946,72154,72128
 6.6000e+000 72367 -3.3432e+001 -6.0975e+001 -9.1544e+000 63837 72024,71972,72341
 6.6000e+000 72390 -2.7086e+001 -4.9340e+001 -3.5141e+000 63837 72024,72341,72102
 6.6000e+000 72439 -2.4631e+001 -5.3121e+001  1.4353e+000 63837 72102,72341,72413
 6.6000e+000 72462 -2.4884e+001 -4.8524e+001  9.2739e-001 63837 72102,72413,72128
 6.6000e+000 72791 -3.4441e+001 -5.6555e+001 -6.0219e+000 63383 72592,72696,72670
 6.6000e+000 72768 -3.4895e+001 -5.4058e+001 -9.1092e+000 63383 72566,72696,72592
 6.6000e+000 72745 -3.2450e+001 -4.9575e+001 -8.3087e-001 63383 72592,72670,72618
 6.6000e+000 72722 -3.1482e+001 -4.5396e+001 -2.1047e+000 63383 72618,72670,72644
 6.6000e+000 73297 -3.6108e+001 -4.8395e+001  7.5507e-002 63185 73000,73156,73130
 6.6000e+000 73274 -3.6627e+001 -5.0798e+001  5.7217e+000 63185 72974,73156,73000
 6.6000e+000 73251 -3.0052e+001 -5.6384e+001 -3.6597e-001 63185 73000,73052,73026
 6.6000e+000 73228 -3.1870e+001 -5.0337e+001 -2.0662e+000 63185 73000,73130,73052
 6.6000e+000 73205 -3.1892e+001 -5.7193e+001 -7.9797e+000 63185 73052,73130,73104
 6.6000e+000 73182 -2.8792e+001 -6.1600e+001 -7.8672e+000 63185 73052,73104,73078
 6.6000e+000 73545 -1.7930e+001 -5.6580e+001  1.0165e+000 62781 73568,73398,73372
 6.6000e+000 73522 -1.1676e+001 -5.3315e+001  5.4941e+000 62781 73568,73372,73346
 6.6000e+000 73499 -2.3631e+001 -6.4407e+001 -6.3184e+000 62781 73640,73320,73424
 6.6000e+000 73476 -2.3379e+001 -4.5062e+001 -1.0959e+001 62781 73320,73450,73424
 6.6000e+000 73594 -1.8937e+001 -5.4773e+001  8.8971e-001 62781 73424,73398,73568
 6.6000e+000 73617 -2.0639e+001 -6.1421e+001 -7.9182e-001 62781 73640,73424,73568
 6.6000e+000 73666 -2.0468e+001 -5.7805e+001 -1.9078e+000 62781 73346,73320,73640
 6.6000e+000 73689 -1.8524e+001 -5.2791e+001  3.1324e+000 62781 73346,73640,73568
 6.6000e+000 74035 -2.2687e+001 -5.0057e+001 -1.7343e+000 62363 74058,73868,73842
 6.6000e+000 74012 -1.9363e+001 -4.5475e+001 -4.7638e+000 62363 74130,74058,73842
 6.6000e+000 73989 -1.7647e+001 -4.5339e+001 -5.6030e+000 62363 74130,73842,73816
 6.6000e+000 73966 -2.6761e+001 -5.2005e+001  3.8801e-001 62363 74202,73764,73894
 6.6000e+000 73943 -3.4100e+001 -4.8479e+001  2.3121e-001 62363 73712,73894,73764
 6.6000e+000 73920 -3.5320e+001 -4.9408e+001 -3.1976e-001 62363 73712,73764,73738
 6.6000e+000 74084 -2.1314e+001 -5.0218e+001 -1.2834e+000 62363 73894,73868,74058
 6.6000e+000 74107 -2.5277e+001 -5.0157e+001  1.4611e+000 62363 74202,73894,74058
 6.6000e+000 74156 -2.1669e+001 -4.7188e+001  7.0073e-001 62363 73790,74058,74130
 6.6000e+000 74179 -1.4268e+001 -4.4934e+001  3.2146e-001 62363 73790,74130,73816
 6.6000e+000 74228 -2.8197e+001 -5.2652e+001 -2.2550e+000 62363 73790,73764,74202
 6.6000e+000 74251 -2.7023e+001 -5.0645e+001 -1.2095e+000 62363 73790,74202,74058
 6.6000e+000 74403 -5.4235e+000 -5.4919e+001  3.4249e+000 62115 74426,74302,74276
 6.6000e+000 74380  3.3536e-001 -5.1330e+001  5.8359e+000 62115 74426,74276,74354
 6.6000e+000 74452 -1.1246e+001 -5.0032e+001  2.9304e+000 62115 74328,74302,74426
 6.6000e+000 74475 -5.7982e+000 -4.6505e+001  5.4314e+000 62115 74328,74426,74354
 6.6000e+000 74578 -1.5257e+000 -4.3828e+001 -8.1226e-001 61825 74500,74552,74526
 6.6000e+000 74982 -2.5820e+001 -4.4084e+001 -4.2537e-001 61513 75005,74734,74708
 6.6000e+000 74959 -2.7767e+001 -4.2370e+001 -6.7284e-001 61513 75005,74708,74864
 6.6000e+000 74936 -3.6321e+001 -4.4668e+001  2.9099e+000 61513 75077,74812,74734
 6.6000e+000 74913 -2.6432e+001 -3.8203e+001 -3.2387e+000 61513 74734,74786,74760
 6.6000e+000 74890 -2.5591e+001 -3.5541e+001 -2.5458e+000 61513 74734,74812,74786
 6.6000e+000 75031 -2.6091e+001 -4.4734e+001 -5.8944e-001 61513 75077,74734,75005
 6.6000e+000 75054 -2.1647e+001 -4.3793e+001  6.6379e+000 61513 74838,75005,74864
 6.6000e+000 75103 -4.2220e+001 -4.7690e+001  1.2086e+001 61513 74838,74812,75077
 6.6000e+000 75126 -3.5626e+001 -5.0369e+001  8.6489e+000 61513 74838,75077,75005
 6.6000e+000 75553 -1.6654e+001 -4.0707e+001 -2.3597e+000 61060 75576,75360,75308
 6.6000e+000 75530 -1.5638e+001 -4.3949e+001 -2.0051e+000 61060 75576,75308,75230
 6.6000e+000 75507 -1.4494e+001 -3.9688e+001 -2.0600e+000 61060 75308,75360,75334
 6.6000e+000 75484 -1.9190e+001 -5.0805e+001  6.4400e-001 61060 75230,75308,75256
 6.6000e+000 75461 -1.8003e+001 -4.8552e+001 -5.6272e-001 61060 75256,75308,75282
 6.6000e+000 75438 -1.9019e+001 -3.9139e+001  3.1599e+000 61060 75360,75412,75386
 6.6000e+000 75602 -1.5716e+001 -4.3154e+001 -7.7714e-001 61060 75412,75360,75576
 6.6000e+000 75625 -1.5887e+001 -4.8269e+001 -8.1219e-001 61060 75412,75576,75230
 6.6000e+000 76052 -2.4135e+001 -4.4582e+001  1.6851e-001 60442 75755,75859,75833
 6.6000e+000 76029 -2.3479e+001 -4.1074e+001 -3.4345e+000 60442 75729,75859,75755
 6.6000e+000 76006 -2.4093e+001 -4.0394e+001  1.7008e+000 60442 75755,75833,75807
 6.6000e+000 75983 -2.6931e+001 -4.7883e+001 -3.1864e-001 60442 75755,75807,75781
 6.6000e+000 75960 -1.0652e+001 -7.7333e+001  3.6470e+000 60442 75729,75911,75859
 6.6000e+000 75937 -4.4519e+001 -1.7729e+002  1.2861e+001 60442 75859,75911,75885
 6.6000e+000 76430 -2.5216e+001 -6.3334e+001 -1.1192e+000 59788 76453,76286,76234
 6.6000e+000 76407 -2.7498e+001 -7.1728e+001  1.4364e+000 59788 76453,76234,76182
 6.6000e+000 76384 -2.6987e+001 -4.8900e+001  8.2617e+000 59788 76525,76156,76312
 6.6000e+000 76361 -1.7370e+001 -8.3058e+001 -1.4984e-001 59788 76182,76234,76208
 6.6000e+000 76338 -2.1320e+001 -6.0014e+001  4.2321e-001 59788 76234,76286,76260
 6.6000e+000 76479 -2.9027e+001 -6.7777e+001  1.5640e+000 59788 76312,76286,76453
 6.6000e+000 76502 -2.5271e+001 -6.4283e+001  3.7850e+000 59788 76525,76312,76453
 6.6000e+000 76551 -3.3280e+001 -6.8307e+001  8.4286e+000 59788 76182,76156,76525
 6.6000e+000 76574 -2.9723e+001 -7.2933e+001  5.3559e+000 59788 76182,76525,76453
 6.6000e+000 77031 -1.7842e+001 -3.9981e+001 -5.3274e+000 59448 76835,76887,76861
 6.6000e+000 77008 -8.3604e+000 -3.2489e+001  1.1904e+000 59448 76835,76913,76887
 6.6000e+000 76985 -1.1436e+001 -2.7556e+001  5.6382e+000 59448 76809,76913,76835
 6.6000e+000 76962 -2.1595e+001 -3.6221e+001 -5.5406e-001 59448 76757,76913,76809
 6.6000e+000 76939 -1.9341e+001 -3.3222e+001 -1.5381e+000 59448 76757,76809,76783
 6.6000e+000 77537 -1.9967e+001 -4.2457e+001  1.6865e+000 58994 77560,77344,77292
 6.6000e+000 77514 -3.0055e+001 -4.0115e+001  9.3539e-002 58994 77560,77292,77240
 6.6000e+000 77491 -1.5403e+001 -3.6026e+001 -2.3547e+000 58994 77632,77214,77370
 6.6000e+000 77468 -3.2648e+001 -4.8567e+001  9.1541e+000 58994 77292,77344,77318
 6.6000e+000 77445 -1.5840e+001 -4.5734e+001  1.2409e-001 58994 77214,77396,77370
 6.6000e+000 77422 -3.2733e+001 -4.6039e+001  6.8421e-001 58994 77240,77292,77266
 6.6000e+000 77586 -2.1668e+001 -4.1730e+001  1.7960e+000 58994 77370,77344,77560
 6.6000e+000 77609 -2.1563e+001 -3.9671e+001  2.7251e+000 58994 77632,77370,77560
 6.6000e+000 77658 -1.1992e+001 -3.2121e+001 -8.1133e+000 58994 77240,77214,77632
 6.6000e+000 77681 -1.6636e+001 -3.1631e+001 -3.5359e+000 58994 77240,77632,77560
 6.6000e+000 78138 -2.2215e+001 -3.4267e+001  3.9807e+000 58440 77864,77994,77890
 6.6000e+000 78115 -1.7017e+001 -2.3746e+001 -2.0641e+000 58440 77864,78020,77994
 6.6000e+000 78092 -2.5148e+001 -3.9711e+001 -4.3987e+000 58440 77942,77994,77968
 6.6000e+000 78069 -2.0416e+001 -3.7786e+001  3.6797e-001 58440 77890,77994,77942
 6.6000e+000 78046 -1.7715e+001 -3.7802e+001 -1.5324e+000 58440 77890,77942,77916
 6.6000e+000 78467 -6.6582e+000 -4.1346e+001 -2.2701e-001 57928 78562,78490,78346
 6.6000e+000 78444 -1.5990e+001 -4.0272e+001 -5.7993e-001 57928 78490,78294,78268
 6.6000e+000 78421 -4.2999e+000 -4.3578e+001  1.7600e+000 57928 78562,78346,78320
 6.6000e+000 78398 -9.3927e+000 -3.7795e+001 -1.7234e-001 57928 78242,78372,78268
 6.6000e+000 78516 -1.5241e+001 -5.0425e+001 -4.0114e+000 57928 78372,78346,78490
 6.6000e+000 78539 -1.3041e+001 -3.9605e+001 -1.3158e+000 57928 78372,78490,78268
 6.6000e+000 78588 -1.6568e+001 -4.1841e+001 -8.2153e-001 57928 78294,78490,78562
 6.6000e+000 78611 -1.0267e+001 -3.9782e+001  2.6657e+000 57928 78294,78562,78320
 6.6000e+000 79068 -3.6362e+001 -7.5954e+001 -1.8811e+001 57467 78794,78924,78820
 6.6000e+000 79045 -2.9772e+001 -7.2684e+001 -1.7090e+001 57467 78794,78950,78924
 6.6000e+000 79022 -1.5080e+001 -6.8170e+001  6.9941e+000 57467 78820,78898,78872
 6.6000e+000 78999 -2.7880e+001 -9.5109e+001 -1.0107e+001 57467 78820,78924,78898
 6.6000e+000 78976 -1.2754e+001 -6.9638e+001  1.0480e+001 57467 78820,78872,78846
 6.6000e+000 79446 -2.9447e+001 -5.0618e+001 -1.0813e+000 57120 79172,79302,79250
 6.6000e+000 79423 -2.8400e+001 -5.0070e+001 -3.1776e+000 57120 79172,79328,79302
 6.6000e+000 79400 -2.7731e+001 -4.5260e+001 -2.4534e+000 57120 79172,79250,79198
 6.6000e+000 79377 -2.2531e+001 -6.3518e+001  9.2073e-001 57120 79250,79302,79276
 6.6000e+000 79354 -3.2886e+001 -5.0642e+001 -5.5582e+000 57120 79198,79250,79224
 6.6000e+000 79952 -4.0847e+001 -6.3658e+001  3.0319e-001 56773 79629,79785,79655
 6.6000e+000 79929 -1.3447e+001 -5.5250e+001  2.8688e+000 56773 79629,79811,79785
 6.6000e+000 79906 -3.1757e+001 -6.8646e+001  4.9857e+000 56773 79655,79733,79681
 6.6000e+000 79883 -3.1247e+001 -6.0803e+001  1.4481e+000 56773 79655,79785,79733
 6.6000e+000 79860 -2.9462e+001 -8.1465e+001 -9.8156e+000 56773 79733,79785,79759
 6.6000e+000 79837 -1.7609e+001 -6.2051e+001  1.2795e+001 56773 79681,79733,79707
 6.6000e+000 80281 -1.8494e+001 -4.2162e+001 -4.4337e+000 56319 80108,80160,80134
 6.6000e+000 80258 -1.7944e+001 -4.5221e+001 -4.7256e+000 56319 80056,80160,80108
 6.6000e+000 80235 -1.1758e+001 -4.0837e+001  1.5481e+000 56319 80056,80186,80160
 6.6000e+000 80212 -2.1700e+001 -5.8145e+001 -3.9823e+000 56319 80056,80108,80082
 6.6000e+000 80738 -1.1057e+001 -5.6517e+001  2.6412e+000 55957 80516,80620,80594
 6.6000e+000 80715 -2.3344e+001 -5.1225e+001  1.9726e+000 55957 80464,80620,80516
 6.6000e+000 80692 -1.9789e+001 -6.1123e+001  3.0726e+000 55957 80761,80568,80542
 6.6000e+000 80669 -1.7405e+001 -6.0370e+001  3.5256e+000 55957 80761,80542,80516
 6.6000e+000 80646 -2.4231e+001 -5.3058e+001  7.1246e+000 55957 80464,80516,80490
 6.6000e+000 80787 -2.2181e+001 -6.0802e+001  2.3351e+000 55957 80594,80568,80761
 6.6000e+000 80810 -1.9948e+001 -6.0119e+001  2.8160e+000 55957 80594,80761,80516
 6.6000e+000 81210 -2.0431e+001 -6.1713e+001 -3.9349e+000 55317 80936,80988,80962
 6.6000e+000 81187 -1.7941e+001 -6.4314e+001  3.0696e-001 55317 80936,81066,80988
 6.6000e+000 81164 -1.5146e+001 -6.9299e+001  1.8228e+000 55317 80936,81092,81066
 6.6000e+000 81141 -2.5354e+001 -6.9270e+001 -5.9262e+000 55317 80988,81066,81014
 6.6000e+000 81118 -5.7902e+000 -3.8327e+001  4.9127e+000 55317 81014,81066,81040
 6.6000e+000 81539 -2.4459e+001 -4.9352e+001 -1.6566e-001 54913 81340,81418,81392
 6.6000e+000 81516 -1.2075e+001 -4.2824e+001 -3.6034e+000 54913 81340,81444,81418
 6.6000e+000 81493 -1.6998e+001 -4.6017e+001 -7.1100e+000 54913 81314,81444,81340
 6.6000e+000 81470 -3.1338e+001 -5.6789e+001 -3.0186e+000 54913 81340,81392,81366
 6.6000e+000 81787 -1.7025e+001 -5.5809e+001 -5.7741e-001 54601 81588,81692,81640
 6.6000e+000 81764 -2.4450e+001 -5.6674e+001 -2.1981e+000 54601 81562,81692,81588
 6.6000e+000 81741 -1.6343e+001 -5.7268e+001  5.9181e+000 54601 81588,81640,81614
 6.6000e+000 81718 -1.7011e+001 -6.6459e+001 -6.7041e+000 54601 81640,81692,81666
 6.6000e+000 82344 -1.8038e+001 -4.7313e+001 -2.4997e+000 54090 81998,82102,82076
 6.6000e+000 82321 -2.5588e+001 -5.0595e+001 -1.6060e+000 54090 81998,82154,82102
 6.6000e+000 82298 -2.2911e+001 -5.0021e+001 -1.1246e+000 54090 81972,82154,81998
 6.6000e+000 82275 -2.4689e+001 -4.5076e+001 -2.6563e+000 54090 81998,82076,82024
 6.6000e+000 82252 -2.8136e+001 -5.3711e+001  2.6652e+000 54090 81972,82180,82154
 6.6000e+000 82229 -3.5914e+001 -6.4130e+001  3.6476e+000 54090 82102,82154,82128
 6.6000e+000 82206 -3.9628e+000 -3.4290e+001 -6.7629e+000 54090 82024,82076,82050
 6.6000e+000 82722 -3.7426e+001 -6.6922e+001 -1.1373e+000 53579 82500,82578,82552
 6.6000e+000 82699 -3.0480e+001 -6.1386e+001  1.7231e+000 53579 82448,82578,82500
 6.6000e+000 82676 -3.4500e+001 -6.9962e+001  3.0117e+000 53579 82448,82500,82474
 6.6000e+000 82653 -3.6900e+001 -6.4836e+001  4.7005e+000 53579 82448,82604,82578
 6.6000e+000 82630 -2.1103e+001 -6.2079e+001 -1.0085e+000 53579 82500,82552,82526
 6.6000e+000 83356 -2.0972e+001 -5.1862e+001 -4.7545e+000 53189 83379,83088,83036
 6.6000e+000 83333 -2.0263e+001 -5.8545e+001 -4.2098e+000 53189 83379,83036,82984
 6.6000e+000 83310 -9.1634e+000 -5.4528e+001  8.3691e+000 53189 82984,83192,83166
 6.6000e+000 83287 -3.3552e+000 -4.3571e+001 -2.4820e+000 53189 83036,83088,83062
 6.6000e+000 83264 -1.4541e+001 -6.5246e+001 -9.7369e+000 53189 82984,83036,83010
 6.6000e+000 83241 -1.4808e+001 -6.5000e+001  1.9154e+000 53189 83114,83166,83140
 6.6000e+000 83218 -2.9263e+001 -6.9139e+001  1.9110e+000 53189 83088,83166,83114
 6.6000e+000 83405 -2.1130e+001 -5.6354e+001 -2.0085e+000 53189 83166,83088,83379
 6.6000e+000 83428 -1.9400e+001 -6.2231e+001 -1.8904e+000 53189 83166,83379,82984
 6.6000e+000 83725 -2.1556e+001 -6.2397e+001 -8.5129e+000 52585 83748,83529,83503
 6.6000e+000 83702 -1.5409e+001 -6.0587e+001 -5.6570e+000 52585 83820,83748,83503
 6.6000e+000 83679 -1.0047e+001 -5.6853e+001 -4.0262e+000 52585 83820,83503,83477
 6.6000e+000 83656 -9.1620e+000 -4.9678e+001  3.8870e+000 52585 83477,83607,83581
 6.6000e+000 83633  8.2528e-001 -4.5438e+001  4.2819e+000 52585 83451,83607,83477
 6.6000e+000 83774 -1.8073e+001 -5.3606e+001 -7.4383e+000 52585 83555,83529,83748
 6.6000e+000 83797 -2.5326e+001 -5.8617e+001 -5.2540e+000 52585 83555,83748,83581
 6.6000e+000 83846 -2.0499e+001 -5.4027e+001 -2.6851e+000 52585 83581,83748,83820
 6.6000e+000 83869 -1.7266e+001 -5.1902e+001 -1.7648e+000 52585 83581,83820,83477
 6.6000e+000 84200 -1.6061e+001 -5.4252e+001 -2.4950e+000 52024 84001,84105,84079
 6.6000e+000 84177 -9.7771e+000 -5.3317e+001 -4.4003e+000 52024 83975,84105,84001
 6.6000e+000 84154 -1.4184e+001 -5.4711e+001 -1.8888e+000 52024 84001,84079,84053
 6.6000e+000 84131 -7.3338e+000 -3.7015e+001  5.4546e+000 52024 84001,84053,84027
 6.6000e+000 84399 -1.7900e+001 -5.3038e+001 -1.2310e+000 51470 84422,84275,84249
 6.6000e+000 84376 -1.8935e+001 -5.4214e+001 -1.6700e+000 51470 84422,84249,84223
 6.6000e+000 84353 -1.7990e+001 -5.9673e+001 -8.4450e+000 51470 84275,84327,84301
 6.6000e+000 84448 -1.6881e+001 -5.4249e+001 -1.2488e+000 51470 84327,84275,84422
 6.6000e+000 84471 -1.7788e+001 -5.5217e+001 -1.6263e+000 51470 84327,84422,84223
 6.6000e+000 84753 -1.5375e+001 -4.3938e+001 -9.5341e-001 51073 84603,84655,84629
 6.6000e+000 84730 -3.0553e+001 -5.1225e+001 -3.1623e+000 51073 84776,84655,84603
 6.6000e+000 84707 -7.9838e+000 -4.3422e+001 -1.2234e+001 51073 84577,84681,84655
 6.6000e+000 84802 -2.0213e+001 -4.5533e+001 -6.1061e+000 51073 84577,84655,84776
 6.6000e+000 85178 -3.2911e+001 -7.3564e+001  6.6212e+000 50519 85201,85008,84982
 6.6000e+000 85155 -3.1151e+001 -6.8899e+001  5.7516e+000 50519 85273,85201,84982
 6.6000e+000 85132 -3.0412e+001 -6.8473e+001  5.3359e+000 50519 85273,84982,84930
 6.6000e+000 85109 -2.8645e+001 -6.6067e+001  4.5109e+000 50519 84930,84982,84956
 6.6000e+000 85086 -3.1598e+001 -7.4235e+001  4.0457e+000 50519 85008,85060,85034
 6.6000e+000 85227 -2.9833e+001 -7.1191e+001  3.3138e+000 50519 85060,85008,85201
 6.6000e+000 85250 -3.1621e+001 -7.0989e+001  2.8777e+000 50519 85060,85201,84904
 6.6000e+000 85299 -3.0824e+001 -7.0346e+001  2.5912e+000 50519 84904,85201,85273
 6.6000e+000 85322 -2.6526e+001 -6.2649e+001  8.0766e-001 50519 84904,85273,84930
 6.6000e+000 85958 -2.3019e+001 -6.4411e+001 -2.1832e+000 50093 85981,85768,85716
 6.6000e+000 85935 -2.0406e+001 -5.8553e+001 -1.6971e+000 50093 85981,85716,85612
 6.6000e+000 85912 -2.6704e+001 -5.9542e+001  1.1305e+000 50093 85612,85716,85664
 6.6000e+000 85889 -1.8279e+001 -6.1558e+001 -5.9902e-001 50093 85716,85768,85742
 6.6000e+000 85866 -2.2390e+001 -4.6040e+001 -1.2803e+001 50093 85664,85716,85690
 6.6000e+000 85843 -7.3538e+000 -4.3308e+001 -1.6786e+000 50093 85586,85794,85612
 6.6000e+000 85820 -1.8674e+001 -8.1192e+001  6.8627e+000 50093 85612,85664,85638
 6.6000e+000 86007 -2.8924e+001 -6.9985e+001 -1.0784e+001 50093 85794,85768,85981
 6.6000e+000 86030 -2.0554e+001 -5.2381e+001 -8.1053e+000 50093 85794,85981,85612
 6.6000e+000 86131 -1.7612e+001 -4.6250e+001  6.3565e+000 49895 86053,86105,86079
 6.6000e+000 86639 -1.6358e+001 -4.0576e+001 -9.1792e+000 49391 86662,86394,86368
 6.6000e+000 86616 -1.9821e+001 -5.2530e+001 -7.9814e+000 49391 86662,86368,86342
 6.6000e+000 86593 -9.6249e+000 -5.3158e+001 -2.4344e+000 49391 86342,86498,86472
 6.6000e+000 86570 -6.1497e+000 -5.6441e+001 -2.4985e+000 49391 86316,86498,86342
 6.6000e+000 86547 -3.1793e+001 -8.2044e+001 -1.6138e+000 49391 86394,86472,86446
 6.6000e+000 86524 -4.9702e+000 -8.1138e+001  1.5511e+000 49391 86394,86446,86420
 6.6000e+000 86688 -1.8896e+001 -5.1633e+001 -4.0555e+000 49391 86472,86394,86662
 6.6000e+000 86711 -1.6592e+001 -5.6765e+001 -3.8529e+000 49391 86472,86662,86342
 6.6000e+000 87089 -2.4753e+001 -5.9150e+001  2.0528e+000 48987 86815,86919,86867
 6.6000e+000 87066 -2.3700e+001 -6.1706e+001  3.3694e+000 48987 86815,86971,86919
 6.6000e+000 87043 -9.4298e+000 -6.4103e+001 -4.8429e+000 48987 86867,86919,86893
 6.6000e+000 87020 -2.8439e+001 -6.9215e+001  6.8014e+000 48987 86815,86867,86841
 6.6000e+000 86997 -2.6312e+001 -5.3224e+001  9.3312e+000 48987 86919,86971,86945
 6.6000e+000 87467 -4.3017e+001 -6.1187e+001  3.9673e+000 48540 87490,87245,87219
 6.6000e+000 87444 -3.0478e+001 -5.8612e+001  1.4072e+000 48540 87562,87490,87219
 6.6000e+000 87421 -2.4306e+001 -5.6139e+001  3.4796e+000 48540 87562,87219,87349
 6.6000e+000 87398 -3.1343e+001 -4.6984e+001 -1.5531e-001 48540 87245,87297,87271
 6.6000e+000 87375 -2.1282e+001 -5.9505e+001  2.5347e+000 48540 87193,87349,87219
 6.6000e+000 87516 -2.9145e+001 -5.6461e+001  3.4870e+000 48540 87297,87245,87490
 6.6000e+000 87539 -2.9586e+001 -5.9177e+001  2.6439e+000 48540 87297,87490,87323
 6.6000e+000 87588 -2.4502e+001 -5.5605e+001  5.4062e+000 48540 87323,87490,87562
 6.6000e+000 87611 -2.1565e+001 -5.6559e+001  6.8228e+000 48540 87323,87562,87349
 6.6000e+000 87810 -2.2845e+001 -7.9251e+001 -6.2402e+000 48136 87660,87712,87686
 6.6000e+000 87787 -1.3033e+001 -4.4769e+001 -2.5876e+000 48136 87660,87738,87712
 6.6000e+000 87764 -3.0497e+001 -4.7328e+001 -7.2130e+000 48136 87634,87738,87660
 6.6000e+000 88205 -2.7168e+001 -6.3366e+001 -7.9754e+000 47210 88300,88228,87937
 6.6000e+000 88182 -2.3896e+001 -6.1938e+001 -3.2394e+000 47210 88228,87833,88041
 6.6000e+000 88159 -2.7866e+001 -6.8869e+001 -1.1478e+001 47210 88300,87937,87911
 6.6000e+000 88136 -2.5265e+001 -6.1444e+001 -8.3846e+000 47210 87833,87911,87859
 6.6000e+000 88113 -4.8260e+001 -5.6499e+001 -9.9388e+000 47210 87937,87989,87963
 6.6000e+000 88090 -2.4774e+001 -5.0219e+001  1.0279e+001 47210 87989,88041,88015
 6.6000e+000 88067 -2.8946e+001 -7.0706e+001 -1.0773e+001 47210 87859,87911,87885
 6.6000e+000 88254 -2.4103e+001 -4.8720e+001 -8.7448e+000 47210 87989,87937,88228
 6.6000e+000 88277 -3.0371e+001 -5.9958e+001 -3.8394e+000 47210 87989,88228,88041
 6.6000e+000 88326 -2.2776e+001 -5.8498e+001 -3.7022e+000 47210 87833,88228,88300
 6.6000e+000 88349 -2.4096e+001 -6.2041e+001 -7.5318e+000 47210 87833,88300,87911
 6.6000e+000 88780 -3.1182e+001 -5.5837e+001 -1.0614e+001 46642 88803,88509,88483
 6.6000e+000 88757 -2.3370e+001 -5.0788e+001 -5.8749e+000 46642 88803,88483,88639
 6.6000e+000 88734 -2.4654e+001 -4.2749e+001 -6.8886e+000 46642 88875,88561,88509
 6.6000e+000 88711 -2.5083e+001 -3.9153e+001 -5.5760e-001 46642 88509,88561,88535
 6.6000e+000 88688 -1.4224e+001 -5.5236e+001  4.1645e-001 46642 88457,88639,88483
 6.6000e+000 88665 -2.7297e+001 -6.7027e+001 -4.5368e+000 46642 88561,88613,88587
 6.6000e+000 88829 -2.5553e+001 -4.6080e+001 -7.7590e+000 46642 88875,88509,88803
 6.6000e+000 88852 -2.4990e+001 -5.4114e+001 -5.3646e+000 46642 88613,88803,88639
 6.6000e+000 88901 -1.9939e+001 -4.7447e+001 -3.9911e+000 46642 88613,88561,88875
 6.6000e+000 88924 -2.2100e+001 -5.2711e+001 -4.8641e+000 46642 88613,88875,88803
 6.6000e+000 89253 -9.4314e+000 -5.6421e+001  6.2244e-001 46444 89080,89158,89132
 6.6000e+000 89230 -1.0125e+001 -5.7584e+001 -4.3321e-001 46444 89028,89158,89080
 6.6000e+000 89207 -5.5208e+000 -5.3236e+001 -2.2356e+000 46444 89028,89080,89054
 6.6000e+000 89184 -8.7590e-001 -6.2058e+001 -6.9206e+000 46444 89080,89132,89106
 6.6000e+000 89631 -1.9972e+001 -4.3269e+001  1.5566e+000 46040 89383,89461,89435
 6.6000e+000 89608 -2.0701e+001 -4.7192e+001 -2.4730e+000 46040 89383,89487,89461
 6.6000e+000 89585 -2.2358e+001 -5.6896e+001 -1.3966e+000 46040 89383,89435,89409
 6.6000e+000 89562 -1.5884e+001 -3.9374e+001 -5.7983e+000 46040 89383,89513,89487
 6.6000e+000 89539 -7.0558e+000 -3.4957e+001 -7.9314e+000 46040 89357,89513,89383
 6.6000e+000 90009 -2.1421e+001 -5.5769e+001 -9.0532e-002 45636 89813,89891,89839
 6.6000e+000 89986 -2.1759e+001 -5.1239e+001  3.3210e+000 45636 89787,89891,89813
 6.6000e+000 89963 -1.9440e+001 -5.2432e+001 -1.2746e+000 45636 89839,89891,89865
 6.6000e+000 89940 -2.4624e+001 -5.7533e+001  2.1930e+000 45636 89735,89891,89787
 6.6000e+000 89917 -1.9346e+001 -5.7655e+001 -2.3230e+000 45636 89735,89787,89761
 6.6000e+000 90208 -1.2664e+001 -4.2275e+001 -8.8536e+000 45175 90231,90058,90032
 6.6000e+000 90185 -8.1188e+000 -3.8846e+001 -1.2927e+001 45175 90231,90032,90136
 6.6000e+000 90162 -1.3235e+001 -3.0938e+001 -8.2304e-001 45175 90058,90110,90084
 6.6000e+000 90257 -1.7878e+001 -4.7309e+001 -3.0305e+000 45175 90110,90058,90231
 6.6000e+000 90280 -9.1393e+000 -4.1347e+001 -7.5588e+000 45175 90110,90231,90136
 6.6000e+000 90528 -1.3299e+001 -4.1489e+001 -5.9149e+000 44513 90695,90551,90407
 6.6000e+000 90505 -1.5042e+001 -3.8051e+001 -4.6640e+000 44513 90551,90355,90329
 6.6000e+000 90482 -1.5971e+001 -4.0003e+001 -5.9145e+000 44513 90623,90303,90433
 6.6000e+000 90459 -1.1424e+001 -3.8216e+001 -3.8816e+000 44513 90695,90407,90381
 6.6000e+000 90577 -1.8724e+001 -4.3156e+001 -9.8221e+000 44513 90433,90407,90551
 6.6000e+000 90600 -1.6118e+001 -3.9312e+001 -5.8853e+000 44513 90623,90433,90551
 6.6000e+000 90649 -1.5591e+001 -3.9197e+001 -6.0586e+000 44513 90329,90303,90623
 6.6000e+000 90672 -1.5858e+001 -3.8936e+001 -6.0024e+000 44513 90329,90623,90551
 6.6000e+000 90721 -1.6314e+001 -3.6794e+001 -6.9626e+000 44513 90355,90551,90695
 6.6000e+000 90744 -1.6137e+001 -3.4713e+001 -6.1005e+000 44513 90355,90695,90381
 6.6000e+000 91077  3.4230e+000 -4.2315e+001 -2.8091e+000 44059 91100,90930,90904
 6.6000e+000 91054 -1.7785e+001 -4.6138e+001  4.0022e+000 44059 91100,90904,90982
 6.6000e+000 91031 -3.1549e+001 -5.3950e+001 -2.4171e+000 44059 90878,90982,90904
 6.6000e+000 91008 -1.2390e+001 -4.3578e+001  1.5370e+000 44059 90852,90982,90878
 6.6000e+000 91126 -3.4755e+001 -5.3375e+001 -1.1086e+000 44059 91172,91100,90956
 6.6000e+000 91149 -1.8746e+001 -4.9739e+001 -1.6504e+000 44059 90956,91100,90982
 6.6000e+000 91198  5.2400e+000 -1.0290e+001 -1.7653e+001 44059 90930,91100,91172
 6.6000e+000 91677 -1.7762e+001 -2.8840e+001  2.2543e+000 43549 91455,91533,91481
 6.6000e+000 91654 -6.0530e+000 -2.7747e+001  3.8265e+000 43549 91429,91533,91455
 6.6000e+000 91631 -1.7648e+001 -3.0183e+001  7.2609e-001 43549 91481,91533,91507
 6.6000e+000 91608 -3.3130e+000 -2.6670e+001  1.2545e+000 43549 91429,91559,91533
 6.6000e+000 91585  2.3948e+000 -3.1417e+000 -5.3417e-001 43549 91403,91559,91429
 6.6000e+000 92006 -2.3572e+001 -5.5258e+001  4.7194e-001 43059 91781,91885,91807
 6.6000e+000 91983 -2.4881e+001 -5.2678e+001  9.4099e+000 43059 91781,91911,91885
 6.6000e+000 91960 -2.3189e+001 -5.4376e+001  4.7825e-003 43059 91807,91885,91833
 6.6000e+000 91937 -1.5684e+001 -5.1146e+001  2.5662e-001 43059 91833,91885,91859
 6.6000e+000 92561 -1.2076e+001 -2.9771e+001 -4.0282e+000 42598 92584,92215,92189
 6.6000e+000 92538 -1.4886e+001 -3.3277e+001 -2.6688e+000 42598 92656,92584,92189
 6.6000e+000 92515 -1.2977e+001 -3.7834e+001 -3.7117e-001 42598 92656,92189,92397
 6.6000e+000 92492 -2.3276e+001 -2.6785e+001 -4.5659e+000 42598 92241,92319,92293
 6.6000e+000 92469 -1.6795e+001 -3.2664e+001  3.0810e+000 42598 92319,92397,92371
 6.6000e+000 92446 -2.4441e+000 -4.5127e+001  2.4576e+001 42598 92319,92371,92345
 6.6000e+000 92423 -1.9709e+001 -2.6967e+001 -7.4389e+000 42598 92241,92293,92267
 6.6000e+000 92610 -1.5347e+001 -3.1466e+001 -4.6957e+000 42598 92241,92215,92584
 6.6000e+000 92633 -1.3397e+001 -2.6813e+001 -3.8970e+000 42598 92241,92584,92319
 6.6000e+000 92682 -1.3060e+001 -2.7125e+001 -1.5770e+000 42598 92319,92584,92656
 6.6000e+000 92705 -1.0290e+001 -3.0371e+001  1.7243e-001 42598 92319,92656,92397
 6.6000e+000 92953 -2.4126e+001 -5.8520e+001  3.3906e+000 42094 92976,92806,92780
 6.6000e+000 92930 -2.6778e+001 -5.5016e+001  6.8082e-002 42094 92976,92780,92754
 6.6000e+000 92907 -8.2963e+000 -5.6323e+001 -1.8676e-001 42094 93048,92832,92806
 6.6000e+000 92884 -3.2591e+001 -5.7186e+001 -3.9264e+000 42094 92728,92858,92754
 6.6000e+000 93002 -1.6703e+001 -5.4177e+001  1.5854e+000 42094 93048,92806,92976
 6.6000e+000 93025 -2.4232e+001 -5.3643e+001 -1.0603e+000 42094 92858,92976,92754
 6.6000e+000 93074 -2.0056e+001 -6.0508e+001 -2.7971e-001 42094 92858,92832,93048
 6.6000e+000 93097 -2.6837e+001 -5.7315e+001  7.4100e-001 42094 92858,93048,92976
 6.6000e+000 93605 -2.2405e+001 -6.4585e+001 -3.1176e+000 41846 93628,93412,93386
 6.6000e+000 93582 -1.8595e+001 -4.7217e+001 -1.8941e+000 41846 93628,93386,93308
 6.6000e+000 93559 -2.4430e+001 -4.7741e+001 -1.1601e+001 41846 93700,93464,93438
 6.6000e+000 93536 -2.8369e+001 -6.8861e+001  7.4892e-001 41846 93308,93386,93334
 6.6000e+000 93513 -3.3299e+001 -4.2897e+001 -1.1359e+001 41846 93334,93386,93360
 6.6000e+000 93490 -2.1078e+001 -4.2357e+001 -1.3718e+001 41846 93282,93464,93308
 6.6000e+000 93654 -2.0510e+001 -5.0679e+001 -5.4049e+000 41846 93438,93412,93628
 6.6000e+000 93677 -2.6402e+001 -4.9803e+001 -4.9435e+000 41846 93700,93438,93628
 6.6000e+000 93726 -2.0539e+001 -3.9706e+001 -1.3011e+001 41846 93308,93464,93700
 6.6000e+000 93749 -2.1399e+001 -3.9165e+001 -6.4844e+000 41846 93308,93700,93628
 6.6000e+000 94255 -2.2425e+001 -5.6856e+001  3.9629e+000 41385 93958,94114,94088
 6.6000e+000 94232 -1.8082e+001 -6.1437e+001  1.6684e+000 41385 93932,94114,93958
 6.6000e+000 94209 -3.4462e+001 -6.5437e+001  1.1371e+001 41385 93958,94088,94062
 6.6000e+000 94186 -3.4968e+001 -4.5820e+001  8.1704e+000 41385 93958,94062,93984
 6.6000e+000 94163 -2.8419e+001 -4.5717e+001  5.7637e+000 41385 93984,94062,94036
 6.6000e+000 94140 -1.9595e+001 -5.9752e+001  8.2396e+000 41385 93984,94036,94010
 6.6000e+000 94476 -8.2883e+000 -7.9920e+001  4.2404e+000 40881 94326,94378,94352
 6.6000e+000 94453 -1.3680e+001 -6.3543e+001  5.5455e+000 40881 94300,94378,94326
 6.6000e+000 94430 -1.8188e+001 -5.8415e+001  4.9303e-001 40881 94300,94404,94378
 6.6000e+000 94626 -6.9108e+000 -3.1533e+001 -1.8514e+000 40591 94649,94551,94525
 6.6000e+000 94603 -4.2824e+000 -1.5689e+001  2.1958e+000 40591 94781,94577,94551
 6.6000e+000 94675  6.3522e-001 -2.1328e+001 -5.5913e+000 40591 94781,94551,94649
 6.6000e+000 94807  7.9393e+000 -5.4599e+000  7.7858e+000 40591 94499,94577,94781
 6.6000e+000 94830  1.0120e+001 -1.5878e+001 -6.2479e-001 40591 94499,94781,94649
 6.6000e+000 95336 -5.0344e+001 -5.2810e+001 -1.1361e+001 40187 95013,95169,95039
 6.6000e+000 95313 -1.5029e+001 -4.6527e+001 -7.7984e-001 40187 95013,95195,95169
 6.6000e+000 95290 -6.0831e+000 -4.7121e+001 -6.4004e+000 40187 95039,95143,95065
 6.6000e+000 95267 -3.1761e+001 -5.7448e+001 -9.6935e+000 40187 95039,95169,95143
 6.6000e+000 95244 -6.0203e+000 -2.6329e+001 -1.5553e+000 40187 95091,95143,95117
 6.6000e+000 95221 -1.6328e+000 -1.6019e+001 -8.3591e-001 40187 95065,95143,95091
 6.6000e+000 95665 -1.0268e+001 -2.8356e+001  2.2403e+001 39626 95466,95570,95544
 6.6000e+000 95642 -2.6038e+001 -1.9757e+001  1.4634e+001 39626 95440,95570,95466
 6.6000e+000 95619 -4.6696e+001 -4.5470e+001  1.5277e+001 39626 95466,95544,95492
 6.6000e+000 95596 -9.2150e+000 -3.5296e+001  2.1050e+001 39626 95492,95544,95518
 6.6000e+000 95913 -2.2430e+001 -4.4308e+001 -6.7331e+000 39136 96080,95936,95766
 6.6000e+000 95890 -1.5251e+001 -4.8252e+001 -4.5662e+000 39136 95936,95714,95688
 6.6000e+000 95867 -3.7612e+001 -4.8191e+001  2.1694e+000 39136 96008,95792,95766
 6.6000e+000 95844 -1.9010e+001 -4.3071e+001 -5.3757e+000 39136 96080,95766,95740
 6.6000e+000 95962 -2.9908e+001 -4.9905e+001 -4.2525e+000 39136 96008,95766,95936
 6.6000e+000 95985 -2.0094e+001 -6.0485e+001 -1.0916e+000 39136 95818,95936,95688
 6.6000e+000 96034 -1.9050e+001 -4.0133e+001  3.2324e+000 39136 95818,95792,96008
 6.6000e+000 96057 -1.7026e+001 -4.4137e+001 -3.1025e+000 39136 95818,96008,95936
 6.6000e+000 96106 -2.0768e+001 -4.4138e+001 -2.0207e+000 39136 95714,95936,96080
 6.6000e+000 96129 -1.5296e+001 -4.2538e+001 -1.0127e+000 39136 95714,96080,95740
 6.6000e+000 96350 -1.2449e+001 -3.2982e+001 -2.6577e+000 38824 96200,96278,96252
 6.6000e+000 96327 -9.1801e+000 -3.0890e+001 -1.6482e+000 38824 96174,96278,96200
 6.6000e+000 96304  2.3517e+000 -2.9391e+001 -7.9006e+000 38824 96200,96252,96226
 6.6000e+000 96830 -1.7320e+001 -3.3186e+001 -4.2559e+000 38320 97069,96536,96484
 6.6000e+000 96807 -1.6877e+001 -3.3757e+001 -4.2314e+000 38320 97069,96484,96853
 6.6000e+000 96784 -1.9598e+001 -3.6585e+001 -1.0837e+000 38320 96853,96484,96458
 6.6000e+000 96761 -9.8121e+000 -2.7983e+001 -4.9561e+000 38320 96925,96640,96614
 6.6000e+000 96738 -1.6241e+001 -2.9263e+001 -2.4639e+000 38320 96997,96666,96640
 6.6000e+000 96715 -1.4079e+001 -4.1713e+001 -2.9077e+000 38320 97141,96588,96562
 6.6000e+000 96692 -2.1856e+001 -3.7803e+001 -2.2448e+000 38320 96484,96536,96510
 6.6000e+000 96879 -1.7335e+001 -3.6997e+001 -3.2427e+000 38320 97141,96562,96853
 6.6000e+000 96902 -1.5605e+001 -3.3906e+001 -2.6138e+000 38320 96925,96614,96853
 6.6000e+000 96951 -1.5854e+001 -2.8735e+001 -2.9460e+000 38320 96997,96640,96925
 6.6000e+000 96974 -1.5469e+001 -2.8627e+001 -2.5623e+000 38320 96458,96925,96853
 6.6000e+000 97023 -1.7917e+001 -3.0309e+001 -1.6272e+000 38320 96458,96666,96997
 6.6000e+000 97046 -1.6748e+001 -2.9467e+001 -2.1908e+000 38320 96458,96997,96925
 6.6000e+000 97095 -1.7983e+001 -3.1598e+001 -1.8280e+000 38320 96562,96536,97069
 6.6000e+000 97118 -1.5909e+001 -3.3332e+001 -3.8239e+000 38320 96562,97069,96853
 6.6000e+000 97167 -9.2080e+000 -3.6871e+001 -4.9232e+000 38320 96614,96588,97141
 6.6000e+000 97190 -1.4353e+001 -3.3439e+001 -4.5441e+000 38320 96614,97141,96853
 6.6000e+000 97519 -1.2734e+001 -4.9420e+001  1.4333e+001 37766 97542,97398,97372
 6.6000e+000 97496 -1.5456e+001 -3.6891e+001  1.0384e+001 37766 97542,97372,97346
 6.6000e+000 97473 -1.6331e+001 -4.1294e+001 -6.2920e-001 37766 97294,97424,97346
 6.6000e+000 97450 -1.7566e+001 -4.4619e+001 -8.0409e-001 37766 97294,97346,97320
 6.6000e+000 97568 -5.1449e+000 -5.3053e+001  3.8286e+000 37766 97424,97398,97542
 6.6000e+000 97591 -9.5860e+000 -3.8358e+001  6.5858e-001 37766 97424,97542,97346
 6.6000e+000 98048 -1.8579e+001 -2.8676e+001 -1.1452e+001 37262 98071,97878,97852
 6.6000e+000 98025 -1.4855e+001 -3.5222e+001 -4.7249e+000 37262 98071,97852,97800
 6.6000e+000 98002 -1.3574e+001 -3.8406e+001 -6.7863e+000 37262 97800,97852,97826
 6.6000e+000 97979 -1.6842e+001 -3.8060e+001 -2.9555e-001 37262 97800,97930,97904
 6.6000e+000 97956 -1.1132e+001 -3.9591e+001  1.7251e+000 37262 97774,97930,97800
 6.6000e+000 98097 -2.8778e+001 -3.3581e+001 -8.5258e+000 37262 97904,97878,98071
 6.6000e+000 98120 -2.0321e+001 -4.0339e+001 -2.3128e+000 37262 97904,98071,97800
 6.6000e+000 98449 -1.4033e+001 -3.2367e+001 -4.2271e+000 36950 98472,98302,98250
 6.6000e+000 98426 -8.8119e+000 -3.0476e+001 -5.2846e+000 36950 98472,98250,98354
 6.6000e+000 98403 -2.1881e+001 -3.8425e+001  4.3917e+000 36950 98250,98302,98276
 6.6000e+000 98380 -6.2138e+000 -2.2129e+001  4.6457e+000 36950 98224,98354,98250
 6.6000e+000 98498 -1.0140e+001 -3.7041e+001 -1.0788e+000 36950 98328,98302,98472
 6.6000e+000 98521 -3.9105e+000 -3.4184e+001 -3.0204e+000 36950 98328,98472,98354
 6.6000e+000 99125 -2.1505e+001 -2.1672e+001 -3.7985e-001 36296 98704,98756,98730
 6.6000e+000 99102 -2.7602e+001 -2.3155e+001  1.9993e+000 36296 98704,98938,98756
 6.6000e+000 99079 -1.7829e+001 -2.9818e+001 -1.5241e+000 36296 99148,98938,98912
 6.6000e+000 99056 -1.7419e+001 -3.0479e+001  8.0091e+000 36296 99292,99220,98782
 6.6000e+000 99033 -1.5043e+001 -3.5389e+001  5.3220e-001 36296 99148,98912,98834
 6.6000e+000 99010 -1.7334e+001 -2.5089e+001  9.8333e+000 36296 99292,98782,98756
 6.6000e+000 98987 -1.4901e+001 -6.3162e+001 -1.1953e+001 36296 98834,98912,98886
 6.6000e+000 98964 -2.3103e+001 -8.8462e+001 -1.4797e+001 36296 98834,98886,98860
 6.6000e+000 99174 -2.2499e+001 -3.8010e+001  7.4249e-001 36296 99220,98938,99148
 6.6000e+000 99197 -1.5108e+001 -4.4216e+001  4.8005e+000 36296 98808,99148,98834
 6.6000e+000 99246 -1.8644e+001 -3.3221e+001  1.7737e+001 36296 98808,98782,99220
 6.6000e+000 99269 -7.4235e+000 -2.6333e+001  5.9132e+000 36296 98808,99220,99148
 6.6000e+000 99318 -2.1523e+001 -2.6227e+001  4.6092e+000 36296 98938,99220,99292
 6.6000e+000 99341 -2.1954e+001 -2.6834e+001  6.0784e+000 36296 98938,99292,98756
 6.6000e+000 99719 -2.6400e+001 -5.2423e+001  3.3183e-001 35742 99742,99471,99601
 6.6000e+000 99696 -2.6044e+001 -4.2031e+001  4.9995e+000 35742 99445,99601,99471
 6.6000e+000 99673 -2.5017e+001 -4.9240e+001 -1.3525e+000 35742 99742,99601,99575
 6.6000e+000 99650 -2.2232e+001 -6.3513e+001 -1.1638e+000 35742 99814,99549,99523
 6.6000e+000 99627 -1.8824e+001 -4.9187e+001  5.0565e-001 35742 99471,99523,99497
 6.6000e+000 99768 -2.1317e+001 -5.1375e+001  1.5419e+000 35742 99523,99471,99742
 6.6000e+000 99791 -2.5245e+001 -5.8069e+001 -8.3197e-001 35742 99814,99523,99742
 6.6000e+000 99840 -2.2174e+001 -5.6689e+001 -3.2216e+000 35742 99575,99549,99814
 6.6000e+000 99863 -2.3935e+001 -4.9515e+001 -2.6774e+000 35742 99575,99814,99742
 6.6000e+000 100111 -2.1259e+001 -4.3135e+001  3.9227e+000 35302 100134,99990,99938
 6.6000e+000 100088 -1.7657e+001 -3.7866e+001  2.0037e+000 35302 100134,99938,99912
 6.6000e+000 100065 -1.7699e+001 -3.8522e+001 -8.3033e-001 35302 100206,99886,100016
 6.6000e+000 100042 -2.5246e+001 -4.4080e+001  2.7329e+000 35302 99938,99990,99964
 6.6000e+000 100160 -1.7265e+001 -4.1716e+001  5.3543e-001 35302 100016,99990,100134
 6.6000e+000 100183 -1.6972e+001 -3.9137e+001 -8.1369e-001 35302 100206,100016,100134
 6.6000e+000 100232 -1.8350e+001 -3.9271e+001 -3.6529e-001 35302 99912,99886,100206
 6.6000e+000 100255 -1.7671e+001 -4.0045e+001 -3.7308e-001 35302 99912,100206,100134
 6.6000e+000 100586 -2.6572e+001 -2.5382e+001  1.1045e+001 35012 100609,100387,100361
 6.6000e+000 100563 -3.2766e+001 -1.5297e+001 -4.5495e+000 35012 100609,100361,100465
 6.6000e+000 100540 -1.3934e+001 -1.0095e+001 -1.3173e+001 35012 100361,100491,100465
 6.6000e+000 100517 -1.4665e+000 -1.2591e+001 -1.5418e+001 35012 100413,100465,100439
 6.6000e+000 100635 -1.1115e+001 -1.8462e+001  4.3517e+000 35012 100413,100387,100609
 6.6000e+000 100658 -1.6422e+001 -5.2924e+000 -1.1641e+001 35012 100413,100609,100465
 6.6000e+000 100987 -2.0244e+001 -4.3438e+001  3.3768e+000 34700 100788,100866,100814
 6.6000e+000 100964 -1.6279e+001 -3.1259e+001  6.8261e+000 34700 101010,100866,100788
 6.6000e+000 100941 -7.6865e+000 -1.7870e+001  6.7373e+000 34700 100762,100892,100866
 6.6000e+000 100918 -1.8930e+001 -4.0052e+001  2.4604e+000 34700 100814,100866,100840
 6.6000e+000 101036 -9.6464e+000 -2.5864e+001  1.2136e+001 34700 100762,100866,101010
 6.6000e+000 101493 -2.7086e+001 -4.9434e+001 -3.3057e+000 34132 101516,101349,101297
 6.6000e+000 101470 -3.1559e+001 -5.8368e+001 -5.6490e+000 34132 101588,101516,101297
 6.6000e+000 101447 -3.1584e+001 -6.0698e+001 -8.3025e+000 34132 101588,101297,101245
 6.6000e+000 101424 -2.1318e+001 -6.8934e+001 -7.9679e+000 34132 101245,101297,101271
 6.6000e+000 101401 -2.8936e+001 -4.9358e+001 -4.2624e+000 34132 101297,101349,101323
 6.6000e+000 101542 -2.7048e+001 -5.6654e+001 -2.7935e+000 34132 101375,101349,101516
 6.6000e+000 101565 -2.5746e+001 -5.7726e+001 -3.5786e+000 34132 101375,101516,101219
 6.6000e+000 101614 -2.6557e+001 -5.8488e+001 -3.1382e+000 34132 101219,101516,101588
 6.6000e+000 101637 -2.9101e+001 -6.0861e+001 -5.6585e+000 34132 101219,101588,101245
 6.6000e+000 101858 -4.7403e+000 -3.2468e+001  3.8979e+000 33720 101708,101786,101760
 6.6000e+000 101835  2.9463e-001 -3.1577e+001  6.6655e+000 33720 101682,101786,101708
 6.6000e+000 101812 -8.8854e+000 -3.4345e+001  3.4821e+000 33720 101708,101760,101734
 6.6000e+000 102128 -8.3603e+000 -5.2297e+001 -1.4579e+000 33130 101903,102007,101929
 6.6000e+000 102105 -8.5782e+000 -6.0168e+001  1.7937e+000 33130 101903,102033,102007
 6.6000e+000 102082 -5.5373e+000 -6.2413e+001 -1.1933e+001 33130 101929,102007,101955
 6.6000e+000 102059 -1.0647e+001 -4.3737e+001  1.2339e+000 33130 101955,102007,101981
 6.6000e+000 102461 -1.0338e+001 -2.7396e+001 -4.2314e+000 32840 102236,102340,102262
 6.6000e+000 102438 -1.0628e+001 -2.0392e+001  1.8474e+000 32840 102236,102366,102340
 6.6000e+000 102415 -4.0936e+000 -2.5700e+001 -3.7907e+000 32840 102262,102340,102288
 6.6000e+000 102392 -7.8058e+000 -2.5466e+001 -8.7782e+000 32840 102288,102340,102314
 6.6000e+000 102997 -1.7811e+001 -3.1048e+001  7.9118e+000 32493 102749,102879,102853
 6.6000e+000 102974 -1.5227e+001 -2.5418e+001  7.0387e+000 32493 102723,102879,102749
 6.6000e+000 102951 -1.9276e+001 -3.5221e+001  6.0505e+000 32493 102749,102801,102775
 6.6000e+000 102928 -2.1990e+001 -3.5329e+001  5.9276e+000 32493 102749,102853,102801
 6.6000e+000 102905 -2.2116e+001 -3.5893e+001  5.6954e+000 32493 102801,102853,102827
 6.6000e+000 103454 -7.3320e+000 -1.7170e+001 -3.9144e+000 32089 103206,103336,103310
 6.6000e+000 103431 -4.0883e+000 -2.2471e+001 -7.0134e-001 32089 103180,103336,103206
 6.6000e+000 103408 -1.7014e+001 -2.8120e+001 -7.2146e+000 32089 103206,103284,103258
 6.6000e+000 103385 -2.3505e+001 -2.7298e+001 -9.7646e+000 32089 103206,103310,103284
 6.6000e+000 103362 -1.3133e+001 -1.8526e+001 -5.9970e+000 32089 103206,103258,103232
 6.6000e+000 103783 -2.8947e+001 -3.2931e+001 -4.3312e+000 31742 103558,103662,103584
 6.6000e+000 103760 -2.7086e+001 -3.2595e+001 -9.5616e+000 31742 103558,103688,103662
 6.6000e+000 103737 -1.8438e+001 -2.4270e+001 -8.6749e+000 31742 103584,103662,103636
 6.6000e+000 103714 -1.8683e+001 -3.1547e+001 -9.0099e+000 31742 103584,103636,103610
 6.6000e+000 104112 -4.6181e+000 -2.1712e+001  3.8688e+000 31402 103939,103991,103965
 6.6000e+000 104089 -6.0210e+000 -1.9003e+001  2.9249e+000 31402 103913,103991,103939
 6.6000e+000 104066 -8.9465e+000 -2.4889e+001 -8.1371e-001 31402 103913,104017,103991
 6.6000e+000 104043 -1.4315e+001 -1.9939e+001 -4.6324e+000 31402 103887,104017,103913
 6.6000e+000 104569 -2.7717e+001 -4.7117e+001  3.1751e+000 30998 104321,104425,104373
 6.6000e+000 104546 -2.7747e+001 -4.6202e+001  1.6529e+000 30998 104321,104451,104425
 6.6000e+000 104523 -1.8282e+001 -3.7183e+001  8.2934e+000 30998 104373,104425,104399
 6.6000e+000 104500 -1.9610e+001 -5.4043e+001 -2.2067e+000 30998 104295,104451,104321
 6.6000e+000 104477 -4.0605e+001 -5.9315e+001  1.5724e+001 30998 104321,104373,104347
 6.6000e+000 104947 -3.1468e+001 -4.7267e+001 -7.7434e+000 30608 104751,104803,104777
 6.6000e+000 104924 -1.8222e+001 -4.7068e+001 -2.7494e+000 30608 104725,104803,104751
 6.6000e+000 104901 -2.8194e+001 -4.5228e+001  2.5969e+000 30608 104699,104803,104725
 6.6000e+000 104878 -2.3921e+001 -4.3202e+001  2.0281e+000 30608 104673,104803,104699
 6.6000e+000 104855 -1.8495e+001 -4.0627e+001 -2.2232e+000 30608 104673,104829,104803
 6.6000e+000 105276 -2.0185e+001 -4.1563e+001  1.1411e+000 30204 105427,105129,105077
 6.6000e+000 105253 -1.3232e+001 -4.5417e+001  9.6681e+000 30204 105427,105077,105051
 6.6000e+000 105230 -1.6327e+001 -4.0603e+001  1.3439e+000 30204 105077,105129,105103
 6.6000e+000 105207 -6.5426e+000 -3.5681e+001  5.3926e+000 30204 105299,105181,105155
 6.6000e+000 105325 -1.0047e+001 -3.5684e+001  3.1729e-001 30204 105129,105181,105299
 6.6000e+000 105453 -2.4416e+001 -4.4356e+001  4.6466e+000 30204 105181,105129,105427
 6.6000e+000 105476 -2.8203e+001 -5.3075e+001  1.4274e+001 30204 105181,105427,105051
 6.6000e+000 105903 -1.6052e+001 -3.6710e+001 -2.9645e+000 29700 105606,105762,105736
 6.6000e+000 105880 -2.0769e+001 -3.7833e+001 -1.5715e-001 29700 105580,105762,105606
 6.6000e+000 105857 -2.4802e+001 -4.6550e+001 -2.7849e+000 29700 105606,105710,105632
 6.6000e+000 105834 -2.0850e+001 -3.9952e+001 -1.1209e+000 29700 105606,105736,105710
 6.6000e+000 105811 -2.2939e+001 -4.4316e+001 -3.6417e+000 29700 105632,105710,105684
 6.6000e+000 105788 -2.2477e+001 -4.3125e+001 -1.9473e+000 29700 105632,105684,105658
 6.6000e+000 106102 -6.7214e+000 -4.4615e+001  1.2140e+000 29124 105978,106030,106004
 6.6000e+000 106079 -1.1129e+001 -4.2640e+001  1.8427e+000 29124 105926,106030,105978
 6.6000e+000 106056 -1.3415e+001 -5.0201e+001  4.7534e+000 29124 105926,105978,105952
 6.6000e+000 106301 -1.3350e+001 -4.6163e+001  3.7238e-001 28712 106151,106229,106203
 6.6000e+000 106278 -1.6206e+001 -5.1349e+001 -2.2465e+000 28712 106125,106229,106151
 6.6000e+000 106255 -1.3588e+001 -4.8148e+001  2.3795e+000 28712 106151,106203,106177
 6.6000e+000 106551 -1.4096e+001 -5.4436e+001  4.5148e+000 28258 106352,106404,106378
 6.6000e+000 106528 -1.9830e+001 -5.4497e+001  1.7764e+000 28258 106352,106456,106404
 6.6000e+000 106505 -2.0306e+001 -5.3543e+001  2.1436e+000 28258 106326,106456,106352
 6.6000e+000 106482 -1.6659e+001 -4.9618e+001 -2.5029e-001 28258 106404,106456,106430
 6.6000e+000 107012 -2.0110e+001 -4.8543e+001  9.8298e+000 27818 107035,106790,106764
 6.6000e+000 106989 -1.7354e+001 -4.5203e+001  4.1292e+000 27818 107035,106764,106868
 6.6000e+000 106966 -1.2156e+001 -5.7060e+001  5.7074e+000 27818 107107,106842,106816
 6.6000e+000 106943 -2.4097e+001 -3.9867e+001  1.5443e+000 27818 106738,106868,106764
 6.6000e+000 106920 -2.4418e+001 -3.7848e+001  6.1588e+000 27818 106738,106894,106868
 6.6000e+000 107061 -9.9679e+000 -4.6352e+001  1.0966e+001 27818 106816,106790,107035
 6.6000e+000 107084 -1.6191e+001 -5.2430e+001  6.0281e+000 27818 107107,106816,107035
 6.6000e+000 107133 -1.0349e+001 -5.0520e+001  2.5745e+000 27818 106868,106842,107107
 6.6000e+000 107156 -1.3416e+001 -4.3918e+001  3.6067e+000 27818 106868,107107,107035
 6.6000e+000 107613 -7.5701e+000 -3.6848e+001  8.0041e+000 27312 107339,107469,107365
 6.6000e+000 107590 -2.4874e+000 -3.4150e+001  6.9119e+000 27312 107339,107495,107469
 6.6000e+000 107567 -8.1746e+000 -3.4028e+001  3.7944e+000 27312 107391,107469,107443
 6.6000e+000 107544 -3.6941e+000 -3.6492e+001  4.0639e+000 27312 107365,107469,107391
 6.6000e+000 107521 -1.9985e+001 -3.8485e+001  2.8377e+000 27312 107391,107443,107417
 6.6000e+000 107991 -1.4975e+001 -5.3032e+001  2.7006e+000 26858 108086,108014,107795
 6.6000e+000 107968 -1.6947e+001 -5.2129e+001 -8.1793e-001 26858 108014,107717,107873
 6.6000e+000 107945 -1.8499e+001 -5.9063e+001  4.2011e+000 26858 108158,108086,107795
 6.6000e+000 107922 -1.4800e+001 -6.3631e+001  5.7461e+000 26858 108158,107795,107769
 6.6000e+000 107899 -1.4123e+001 -6.4330e+001  9.5441e+000 26858 107821,107873,107847
 6.6000e+000 108040 -1.6347e+001 -5.9176e+001  3.1392e+000 26858 107821,107795,108014
 6.6000e+000 108063 -1.1161e+001 -5.5934e+001  1.1099e+000 26858 107821,108014,107873
 6.6000e+000 108112 -2.1419e+001 -5.5601e+001  3.2924e+000 26858 107717,108014,108086
 6.6000e+000 108135 -1.8381e+001 -5.3208e+001  5.0931e+000 26858 107717,108086,107743
 6.6000e+000 108184 -1.5120e+001 -5.2598e+001  5.9321e+000 26858 107743,108086,108158
 6.6000e+000 108207 -1.2309e+001 -5.7786e+001  6.5601e+000 26858 107743,108158,107769
 6.6000e+000 108634 -2.3606e+001 -4.6639e+001  8.4357e-001 26404 108657,108415,108363
 6.6000e+000 108611 -2.7677e+001 -5.2298e+001  6.7633e+000 26404 108657,108363,108337
 6.6000e+000 108588 -2.4128e+001 -5.1974e+001  6.6946e+000 26404 108729,108311,108467
 6.6000e+000 108565 -2.2956e+001 -5.9832e+001  1.8567e+000 26404 108801,108441,108415
 6.6000e+000 108542 -3.5621e+001 -5.7099e+001  7.6104e+000 26404 108311,108493,108467
 6.6000e+000 108519 -1.5536e+001 -4.6474e+001  9.9376e-001 26404 108363,108415,108389
 6.6000e+000 108683 -3.1453e+001 -5.1404e+001  3.0159e+000 26404 108801,108415,108657
 6.6000e+000 108706 -3.1153e+001 -5.2857e+001  5.8223e+000 26404 108729,108467,108657
 6.6000e+000 108755 -2.0045e+001 -5.3780e+001  6.5000e+000 26404 108337,108311,108729
 6.6000e+000 108778 -2.3567e+001 -5.2076e+001  5.2432e+000 26404 108337,108729,108657
 6.6000e+000 108827 -3.1493e+001 -7.6074e+001 -3.0225e+000 26404 108467,108441,108801
 6.6000e+000 108850 -3.6252e+001 -6.1888e+001 -1.7044e+000 26404 108467,108801,108657
 6.6000e+000 109228 -2.5617e+001 -5.4601e+001 -1.9161e+000 26064 109006,109084,109058
 6.6000e+000 109205 -2.2511e+001 -5.0898e+001  1.6579e+000 26064 108980,109084,109006
 6.6000e+000 109182 -2.3704e+001 -4.8256e+001 -1.2881e+000 26064 108980,109110,109084
 6.6000e+000 109159 -2.4320e+001 -5.7129e+001  1.3335e-001 26064 109006,109058,109032
 6.6000e+000 109136 -8.6181e+000 -4.1839e+001  2.3421e+000 26064 108954,109110,108980
 6.6000e+000 109427 -5.1154e+000 -4.5608e+001 -1.0544e+001 25660 109303,109355,109329
 6.6000e+000 109404 -1.1263e+001 -5.7679e+001 -2.3239e+000 25660 109277,109355,109303
 6.6000e+000 109381 -9.2933e+000 -5.3805e+001 -6.9888e-001 25660 109251,109355,109277
 6.6000e+000 109577 -4.6965e+000 -1.3394e+001  4.5702e+000 25306 109476,109528,109502
 6.6000e+000 109554  8.3873e+000 -7.0655e+000  6.4691e+000 25306 109450,109528,109476
 6.6000e+000 109778 -1.8438e+001 -4.9933e+001  9.8836e-001 24944 109628,109706,109654
 6.6000e+000 109755 -1.9822e+001 -4.9299e+001 -1.0027e-001 24944 109602,109706,109628
 6.6000e+000 109732 -1.6192e+001 -4.6763e+001 -9.4960e-001 24944 109654,109706,109680
 6.6000e+000 110126 -1.0869e+001 -5.8920e+001  1.0449e+000 24440 110149,109907,109855
 6.6000e+000 110103 -6.5863e+000 -6.5061e+001  4.7984e+000 24440 110149,109855,109985
 6.6000e+000 110080 -7.7937e+000 -4.8176e+001  1.1427e+000 24440 109855,109907,109881
 6.6000e+000 110057 -6.4390e+000 -4.8183e+001  2.1121e+001 24440 109829,109985,109855
 6.6000e+000 110034 -8.1705e+000 -5.6541e+001  1.4110e+000 24440 109907,109959,109933
 6.6000e+000 110011  9.1725e+000 -4.5973e+001  2.6240e+000 24440 109803,109985,109829
 6.6000e+000 110175 -8.4408e+000 -5.4655e+001  2.1444e+000 24440 109959,109907,110149
 6.6000e+000 110198 -2.7872e+000 -5.9004e+001  6.4449e+000 24440 109959,110149,109985
 6.6000e+000 110301  1.5272e+000 -1.3569e+001  4.3782e+000 24028 110223,110275,110249
 6.6000e+000 110573 -7.7130e+000 -3.6616e+001  3.0134e+000 23467 110400,110452,110426
 6.6000e+000 110550 -1.3076e+001 -4.4824e+001  5.3727e-001 23467 110374,110452,110400
 6.6000e+000 110527 -1.4873e+001 -4.5579e+001  1.1941e+000 23467 110348,110452,110374
 6.6000e+000 110504 -1.0427e+001 -4.4057e+001  3.4500e-002 23467 110348,110478,110452
 6.6000e+000 111004 -2.7073e+001 -6.5075e+001 -9.8606e+000 22963 111027,110733,110707
 6.6000e+000 110981 -2.9563e+001 -6.1818e+001  3.4769e+000 22963 111027,110707,110681
 6.6000e+000 110958 -1.0655e+001 -4.9784e+001 -8.6484e+000 22963 111099,110759,110733
 6.6000e+000 110935 -2.1714e+001 -5.1986e+001 -6.1020e+000 22963 111171,110863,110811
 6.6000e+000 110912 -3.0436e+000 -3.5326e+001 -1.1607e+001 22963 110759,110811,110785
 6.6000e+000 110889 -2.7709e+001 -5.9980e+001 -2.3085e+000 22963 110811,110863,110837
 6.6000e+000 111053 -2.2334e+001 -5.7560e+001 -4.6117e+000 22963 111099,110733,111027
 6.6000e+000 111076 -1.9956e+001 -5.5911e+001 -5.5287e+000 22963 111171,110811,111027
 6.6000e+000 111125 -1.0205e+001 -4.8232e+001 -1.5108e+001 22963 110811,110759,111099
 6.6000e+000 111148 -1.2138e+001 -4.7392e+001 -1.2712e+001 22963 110811,111099,111027
 6.6000e+000 111197 -2.0483e+001 -4.7894e+001 -5.8677e+000 22963 110681,110863,111171
 6.6000e+000 111220 -1.7834e+001 -5.0906e+001 -4.0872e+000 22963 110681,111171,111027
 6.6000e+000 111726 -3.1402e+001 -5.4497e+001 -6.9717e-001 22459 111749,111507,111429
 6.6000e+000 111703 -2.5254e+001 -5.2197e+001 -3.7251e+000 22459 111749,111429,111585
 6.6000e+000 111680 -1.8137e+001 -5.9118e+001 -2.3646e+000 22459 111403,111585,111429
 6.6000e+000 111657 -2.9039e+001 -6.2815e+001  2.7388e+000 22459 111507,111559,111533
 6.6000e+000 111634 -3.6468e+001 -5.0643e+001  3.2575e+000 22459 111455,111507,111481
 6.6000e+000 111611 -5.3319e+001 -5.5555e+001  7.0703e+000 22459 111429,111507,111455
 6.6000e+000 111775 -3.0140e+001 -5.9454e+001  4.3594e+000 22459 111559,111507,111749
 6.6000e+000 111798 -2.4767e+001 -5.5172e+001  1.2388e+000 22459 111559,111749,111585
 6.6000e+000 112046 -1.3099e+001 -4.8395e+001 -6.1755e+000 21898 112069,111925,111873
 6.6000e+000 112023 -1.2330e+001 -4.8296e+001 -1.0503e+000 21898 112069,111873,111847
 6.6000e+000 112000 -1.6352e+001 -4.8184e+001 -2.0342e+000 21898 111821,111951,111847
 6.6000e+000 111977 -1.4573e+001 -3.6925e+001 -3.5434e+000 21898 111873,111925,111899
 6.6000e+000 112095 -2.0321e+001 -5.0901e+001 -7.5977e+000 21898 111951,111925,112069
 6.6000e+000 112118 -1.6578e+001 -4.9717e+001 -2.6604e+000 21898 111951,112069,111847
 6.6000e+000 112498 -1.9467e+001 -5.1222e+001 -3.1076e+000 21608 112521,112276,112224
 6.6000e+000 112475 -1.2195e+001 -5.2170e+001  1.4068e+000 21608 112521,112224,112380
 6.6000e+000 112452 -1.2655e+001 -5.8494e+001  4.3467e+000 21608 112302,112380,112354
 6.6000e+000 112429 -2.5267e+001 -5.5027e+001 -4.8771e-001 21608 112224,112276,112250
 6.6000e+000 112406  1.2161e+001 -6.6981e+001 -4.7055e+000 21608 112302,112354,112328
 6.6000e+000 112547 -1.3452e+001 -4.4026e+001  1.6112e-001 21608 112302,112276,112521
 6.6000e+000 112570 -8.7381e+000 -5.0009e+001  3.3781e+000 21608 112302,112521,112380
 6.6000e+000 112948 -2.7686e+001 -5.2790e+001 -1.8127e-001 20882 112971,112752,112700
 6.6000e+000 112925 -2.0773e+001 -5.0469e+001 -1.6173e+000 20882 112971,112700,112830
 6.6000e+000 112902 -3.3706e+001 -5.5449e+001  3.9798e+000 20882 112778,112830,112804
 6.6000e+000 112879 -1.9644e+001 -3.9168e+001 -2.9626e+000 20882 112674,112830,112700
 6.6000e+000 112856 -3.0509e+001 -5.3586e+001  7.6880e-001 20882 112700,112752,112726
 6.6000e+000 112997 -2.7883e+001 -5.2759e+001  3.6708e+000 20882 112778,112752,112971
 6.6000e+000 113020 -2.3969e+001 -5.1658e+001  2.0868e+000 20882 112778,112971,112830
 6.6000e+000 113526 -1.3307e+001 -4.9335e+001  2.1651e-001 20428 113255,113385,113333
 6.6000e+000 113503 -1.4019e+001 -5.1414e+001  1.7990e-001 20428 113229,113385,113255
 6.6000e+000 113480  2.9172e+000 -4.7697e+001  6.5562e-001 20428 113255,113333,113281
 6.6000e+000 113457 -1.2099e+001 -4.6140e+001  2.8469e+000 20428 113203,113385,113229
 6.6000e+000 113434 -5.5638e+000 -5.0372e+001 -2.0947e+000 20428 113281,113333,113307
 6.6000e+000 113411 -1.8226e+001 -4.8743e+001  1.4771e+000 20428 113333,113385,113359
 6.6000e+000 113774 -3.2652e+000 -5.2748e+001  2.7199e+000 19917 113797,113601,113549
 6.6000e+000 113751 -8.8035e+000 -5.2985e+001  3.1037e+000 19917 113869,113797,113549
 6.6000e+000 113728 -8.3913e+000 -5.3521e+001  5.2855e+000 19917 113869,113549,113679
 6.6000e+000 113705 -5.8351e+000 -5.3095e+001  5.7083e+000 19917 113549,113601,113575
 6.6000e+000 113823 -9.2753e+000 -6.5788e+001  3.6237e-001 19917 113627,113601,113797
 6.6000e+000 113846 -3.4943e+000 -5.0396e+001 -5.5576e-001 19917 113627,113797,113653
 6.6000e+000 113895 -7.6024e+000 -4.7815e+001  1.6362e+000 19917 113653,113797,113869
 6.6000e+000 113918 -9.0854e+000 -4.9102e+001  4.4066e+000 19917 113653,113869,113679
 6.6000e+000 114166 -2.3821e+001 -5.2368e+001 -9.8796e-001 19413 113993,114045,114019
 6.6000e+000 114143 -1.8783e+001 -4.7988e+001  8.6714e-001 19413 113967,114045,113993
 6.6000e+000 114120 -1.8334e+001 -4.8006e+001  2.5630e+000 19413 113967,114071,114045
 6.6000e+000 114097 -1.0649e+001 -5.4112e+001 -1.2050e+000 19413 113941,114071,113967
 6.6000e+000 114438 -2.2278e+001 -6.0322e+001  6.7828e-001 19001 114213,114265,114239
 6.6000e+000 114415 -1.5721e+001 -4.6333e+001 -1.2520e+000 19001 114213,114343,114265
 6.6000e+000 114392 -2.3850e+001 -6.4558e+001 -2.8359e+000 19001 114265,114343,114317
 6.6000e+000 114369  4.0779e+000 -5.2501e+001 -1.0980e+000 19001 114265,114317,114291
 6.6000e+000 114639 -1.6281e+001 -7.1082e+001  3.5261e+000 18554 114489,114541,114515
 6.6000e+000 114616 -1.4263e+001 -6.1422e+001  6.4509e-001 18554 114489,114567,114541
 6.6000e+000 114593 -3.1532e+001 -6.9090e+001 -4.3675e+000 18554 114463,114567,114489
 6.6000e+000 115043 -7.9401e+000 -5.0446e+001  2.2374e+000 18164 114795,114925,114821
 6.6000e+000 115020 -5.3237e+000 -5.2313e+001  4.0510e+000 18164 114769,114925,114795
 6.6000e+000 114997 -2.7134e+000 -5.3378e+001 -6.5649e-001 18164 115066,114873,114821
 6.6000e+000 114974 -1.8667e+000 -4.4963e+001 -1.8399e+000 18164 115066,114821,114925
 6.6000e+000 114951  1.2541e+001 -5.2766e+001 -7.1677e+000 18164 114821,114873,114847
 6.6000e+000 115092 -6.0651e+000 -4.7355e+001 -5.1030e+000 18164 114899,114873,115066
 6.6000e+000 115115 -1.9231e+000 -3.4495e+001 -6.6396e+000 18164 114899,115066,114925
 6.6000e+000 115265 -5.9289e+000 -4.6086e+001  1.6633e+000 17852 115164,115216,115190
 6.6000e+000 115242 -9.8998e+000 -5.4159e+001 -2.2137e-001 17852 115138,115216,115164
 6.6000e+000 115464 -4.2579e+001 -8.8700e+001  7.6561e-001 17346 115288,115366,115340
 6.6000e+000 115441 -5.7884e+001 -6.5532e+001 -4.9004e+000 17346 115288,115392,115366
 6.6000e+000 115418 -3.4529e+001 -9.7918e+001 -2.7442e+000 17346 115288,115340,115314
 6.6000e+000 115736 -7.7346e+000 -4.6745e+001  2.5536e+000 16942 115563,115641,115615
 6.6000e+000 115713 -9.8432e+000 -4.7144e+001  8.8282e-001 16942 115511,115641,115563
 6.6000e+000 115690 -3.1959e+001 -5.5965e+001  4.3087e+000 16942 115563,115615,115589
 6.6000e+000 115667 -1.2441e+001 -5.1102e+001  2.0050e+000 16942 115511,115563,115537
 6.6000e+000 116091 -2.8854e+001 -6.5951e+001 -1.4936e+000 16388 115918,115970,115944
 6.6000e+000 116068 -2.6592e+001 -5.4645e+001 -1.5354e+000 16388 115918,115996,115970
 6.6000e+000 116045 -3.5937e+001 -6.7268e+001  2.5639e+000 16388 115892,115996,115918
 6.6000e+000 116022 -2.1620e+001 -5.9048e+001  9.2365e+000 16388 115866,115996,115892
 6.6000e+000 116192 -9.5992e-001 -6.2356e+001 -1.0015e+001 15810 116114,116166,116140
 6.6000e+000 116342 -2.4822e+001 -8.0749e+001  4.1848e+000 15419 116241,116293,116267
 6.6000e+000 116319 -3.5408e+001 -9.8008e+001 -2.6824e+000 15419 116215,116293,116241
 6.6000e+000 116445 -2.6697e+001 -5.1031e+001 -8.2725e-001 421 116367,116419,116393
 6.7000e+000 68477 -3.0619e+001 -3.7803e+001  1.1269e-001 68018 68327,68379,68353
 6.7000e+000 68454 -3.3457e+001 -4.9283e+001  3.5888e+000 68018 68301,68379,68327
 6.7000e+000 68431 -2.3343e+001 -5.7676e+001  7.3705e+000 68018 68301,68405,68379
 6.7000e+000 68578 -2.2514e+001 -3.7652e+001 -3.4209e-001 67820 68500,68552,68526
 6.7000e+000 68728 -2.1749e+001 -3.3059e+001 -8.8904e-001 67508 68601,68653,68627
 6.7000e+000 68705 -3.2611e+001 -2.6439e+001 -5.4029e+000 67508 68601,68679,68653
 6.7000e+000 68927 -1.5247e+001 -4.0088e+001 -6.3684e-002 67310 68777,68829,68803
 6.7000e+000 68904 -1.6850e+001 -4.6272e+001  9.1943e-001 67310 68751,68829,68777
 6.7000e+000 68881 -1.5864e+001 -4.9299e+001  2.2634e+000 67310 68751,68855,68829
 6.7000e+000 69386 -1.9270e+001 -4.0738e+001 -1.2430e+000 67020 69216,69268,69242
 6.7000e+000 69363 -1.8984e+001 -3.2413e+001 -4.0863e+000 67020 69138,69268,69216
 6.7000e+000 69340 -1.3000e+001 -3.1740e+001 -4.8986e+000 67020 69112,69268,69138
 6.7000e+000 69317 -2.4456e+001 -3.4707e+001  1.0013e+000 67020 69138,69190,69164
 6.7000e+000 69294 -2.4674e+001 -3.2136e+001 -1.7596e+000 67020 69138,69216,69190
 6.7000e+000 69536 -2.6307e+001 -6.1436e+001 -4.8676e+000 66708 69435,69487,69461
 6.7000e+000 69513 -1.8619e+001 -6.9391e+001 -5.4650e-001 66708 69409,69487,69435
 6.7000e+000 69735 -2.0690e+001 -3.5566e+001  6.8072e-001 66346 69585,69637,69611
 6.7000e+000 69712 -1.7850e+001 -3.3278e+001 -3.5959e-001 66346 69559,69637,69585
 6.7000e+000 69689 -1.7339e+001 -3.4283e+001 -2.8131e+000 66346 69559,69663,69637
 6.7000e+000 69985 -3.5902e+001 -5.0869e+001  3.5342e-001 66148 69786,69890,69864
 6.7000e+000 69962 -3.8347e+001 -5.2233e+001  9.6355e-001 66148 69760,69890,69786
 6.7000e+000 69939 -3.0517e+001 -4.8561e+001 -4.8864e+000 66148 69786,69864,69838
 6.7000e+000 69916 -3.4473e+001 -5.2202e+001 -8.5040e-002 66148 69786,69838,69812
 6.7000e+000 70137 -1.5276e+001 -5.8679e+001 -2.7584e+000 65950 70036,70088,70062
 6.7000e+000 70114 -1.3349e+001 -6.5368e+001  3.8005e+000 65950 70010,70088,70036
 6.7000e+000 70470 -1.3057e+001 -4.3951e+001  2.5022e+000 65546 70245,70323,70271
 6.7000e+000 70447 -1.1240e+001 -4.2135e+001  9.6725e-001 65546 70245,70375,70323
 6.7000e+000 70424 -1.2314e+001 -5.1638e+001  1.8400e+000 65546 70323,70375,70349
 6.7000e+000 70401 -1.3911e+001 -4.2534e+001  1.4318e+000 65546 70271,70323,70297
 6.7000e+000 70620 -2.3342e+001 -4.6840e+001  1.4554e+000 65348 70493,70545,70519
 6.7000e+000 70597 -1.9554e+001 -5.0552e+001  1.2753e+000 65348 70493,70571,70545
 6.7000e+000 70721 -3.9020e+001 -6.7297e+001 -1.1146e+000 65150 70643,70695,70669
 6.7000e+000 71020 -2.1048e+001 -4.1195e+001  1.6733e+000 64952 71043,70850,70824
 6.7000e+000 70997 -1.8789e+001 -3.9074e+001 -1.1379e+000 64952 71043,70824,70772
 6.7000e+000 70974 -1.9450e+001 -5.2727e+001  1.8921e+000 64952 71115,70746,70876
 6.7000e+000 70951 -1.9864e+001 -5.4311e+001  4.7492e-001 64952 70746,70902,70876
 6.7000e+000 70928 -2.0258e+001 -3.5822e+001 -3.3312e+000 64952 70772,70824,70798
 6.7000e+000 71069 -1.3410e+001 -3.5896e+001  6.8986e+000 64952 70876,70850,71043
 6.7000e+000 71092 -1.8399e+001 -4.8202e+001  2.3715e+000 64952 71115,70876,71043
 6.7000e+000 71141 -2.3818e+001 -4.7459e+001 -2.2753e+000 64952 70772,70746,71115
 6.7000e+000 71164 -2.1327e+001 -4.0709e+001 -1.8428e+000 64952 70772,71115,71043
 6.7000e+000 71365 -7.5919e+000 -5.6514e+001 -1.8191e+000 64662 71215,71293,71267
 6.7000e+000 71342  3.8713e+000 -3.8183e+001 -7.4563e+000 64662 71189,71293,71215
 6.7000e+000 71319  1.6806e+000 -3.3942e+001 -5.0195e-001 64662 71215,71267,71241
 6.7000e+000 71615 -2.0163e+001 -4.1772e+001  6.0101e-001 64350 71710,71638,71468
 6.7000e+000 71592 -1.7159e+001 -3.9939e+001 -1.4520e+000 64350 71638,71416,71390
 6.7000e+000 71569 -2.1875e+001 -3.8563e+001  3.4770e+000 64350 71710,71468,71442
 6.7000e+000 71546 -7.1156e+000 -4.0864e+001 -3.7157e+000 64350 71390,71520,71494
 6.7000e+000 71664 -1.6547e+001 -4.0219e+001  4.8143e-001 64350 71494,71468,71638
 6.7000e+000 71687 -1.7564e+001 -4.2374e+001  1.0291e-001 64350 71494,71638,71390
 6.7000e+000 71736 -1.6637e+001 -3.5088e+001 -6.9744e-001 64350 71416,71638,71710
 6.7000e+000 71759 -1.9330e+001 -3.2914e+001  2.7306e+000 64350 71416,71710,71442
 6.7000e+000 72318 -1.8960e+001 -6.3150e+001 -1.8535e+000 63837 71972,72024,71998
 6.7000e+000 72295 -2.1839e+001 -4.2367e+001  3.8755e-001 63837 72341,71972,71946
 6.7000e+000 72272 -2.0638e+001 -3.5583e+001  2.1423e+000 63837 72413,72341,71946
 6.7000e+000 72249 -2.0959e+001 -3.3192e+001  1.5106e+000 63837 72413,71946,72128
 6.7000e+000 72226 -2.6455e+001 -3.7577e+001  8.6777e-001 63837 72024,72076,72050
 6.7000e+000 72203 -2.4939e+001 -3.4022e+001 -1.2005e+000 63837 72024,72102,72076
 6.7000e+000 72180 -1.9048e+001 -3.2657e+001  2.6260e+000 63837 71946,72154,72128
 6.7000e+000 72367 -2.5941e+001 -4.5388e+001 -6.4970e+000 63837 72024,71972,72341
 6.7000e+000 72390 -2.1111e+001 -3.6207e+001 -2.7416e+000 63837 72024,72341,72102
 6.7000e+000 72439 -1.9526e+001 -3.9379e+001  1.2374e+000 63837 72102,72341,72413
 6.7000e+000 72462 -1.9632e+001 -3.6705e+001  9.3019e-001 63837 72102,72413,72128
 6.7000e+000 72791 -2.7863e+001 -4.3990e+001 -4.7724e+000 63383 72592,72696,72670
 6.7000e+000 72768 -2.8278e+001 -4.1886e+001 -7.4441e+000 63383 72566,72696,72592
 6.7000e+000 72745 -2.6569e+001 -3.8584e+001 -6.9607e-001 63383 72592,72670,72618
 6.7000e+000 72722 -2.5712e+001 -3.4567e+001 -2.0542e+000 63383 72618,72670,72644
 6.7000e+000 73297 -2.8939e+001 -3.7321e+001  5.4782e-001 63185 73000,73156,73130
 6.7000e+000 73274 -2.9102e+001 -3.8638e+001  5.1431e+000 63185 72974,73156,73000
 6.7000e+000 73251 -2.4068e+001 -4.4081e+001 -3.8678e-001 63185 73000,73052,73026
 6.7000e+000 73228 -2.5988e+001 -3.9587e+001 -1.5953e+000 63185 73000,73130,73052
 6.7000e+000 73205 -2.5680e+001 -4.4168e+001 -6.2324e+000 63185 73052,73130,73104
 6.7000e+000 73182 -2.3427e+001 -4.7092e+001 -6.1000e+000 63185 73052,73104,73078
 6.7000e+000 73545 -1.4781e+001 -4.4721e+001  7.5601e-001 62781 73568,73398,73372
 6.7000e+000 73522 -1.0132e+001 -4.2381e+001  4.1073e+000 62781 73568,73372,73346
 6.7000e+000 73499 -1.9135e+001 -5.0954e+001 -4.9108e+000 62781 73640,73320,73424
 6.7000e+000 73476 -1.8818e+001 -3.6620e+001 -8.3770e+000 62781 73320,73450,73424
 6.7000e+000 73594 -1.5419e+001 -4.3515e+001  6.6429e-001 62781 73424,73398,73568
 6.7000e+000 73617 -1.6838e+001 -4.8655e+001 -6.5597e-001 62781 73640,73424,73568
 6.7000e+000 73666 -1.6702e+001 -4.5869e+001 -1.5122e+000 62781 73346,73320,73640
 6.7000e+000 73689 -1.5210e+001 -4.2008e+001  2.3677e+000 62781 73346,73640,73568
 6.7000e+000 74035 -1.8002e+001 -3.6726e+001 -1.1186e+000 62363 74058,73868,73842
 6.7000e+000 74012 -1.5222e+001 -3.3257e+001 -3.3476e+000 62363 74130,74058,73842
 6.7000e+000 73989 -1.4001e+001 -3.3203e+001 -4.0088e+000 62363 74130,73842,73816
 6.7000e+000 73966 -2.0080e+001 -3.8078e+001  5.8041e-001 62363 74202,73764,73894
 6.7000e+000 73943 -2.6233e+001 -3.5808e+001  2.7612e-001 62363 73712,73894,73764
 6.7000e+000 73920 -2.7183e+001 -3.8579e+001  2.5471e-001 62363 73712,73764,73738
 6.7000e+000 74084 -1.6615e+001 -3.7255e+001 -6.9115e-001 62363 73894,73868,74058
 6.7000e+000 74107 -1.9175e+001 -3.6792e+001  1.1512e+000 62363 74202,73894,74058
 6.7000e+000 74156 -1.6913e+001 -3.4570e+001  5.6730e-001 62363 73790,74058,74130
 6.7000e+000 74179 -1.1633e+001 -3.3026e+001  2.2832e-001 62363 73790,74130,73816
 6.7000e+000 74228 -2.0944e+001 -3.8470e+001 -1.1918e+000 62363 73790,73764,74202
 6.7000e+000 74251 -2.0172e+001 -3.7045e+001 -6.4572e-001 62363 73790,74202,74058
 6.7000e+000 74403 -5.0907e+000 -3.8562e+001  2.2870e+000 62115 74426,74302,74276
 6.7000e+000 74380 -1.8785e+000 -3.7192e+001  3.6157e+000 62115 74426,74276,74354
 6.7000e+000 74452 -8.2204e+000 -3.6347e+001  2.1299e+000 62115 74328,74302,74426
 6.7000e+000 74475 -5.2265e+000 -3.5062e+001  3.5247e+000 62115 74328,74426,74354
 6.7000e+000 74578 -4.2136e-001 -3.6247e+001 -3.8509e-001 61825 74500,74552,74526
 6.7000e+000 74982 -1.9944e+001 -3.2403e+001 -5.1910e-001 61513 75005,74734,74708
 6.7000e+000 74959 -2.1571e+001 -3.1547e+001 -5.6354e-001 61513 75005,74708,74864
 6.7000e+000 74936 -2.8389e+001 -3.1593e+001  2.7572e+000 61513 75077,74812,74734
 6.7000e+000 74913 -1.9068e+001 -2.5423e+001 -2.6879e+000 61513 74734,74786,74760
 6.7000e+000 74890 -1.8001e+001 -2.2750e+001 -2.5307e+000 61513 74734,74812,74786
 6.7000e+000 75031 -2.0140e+001 -3.2106e+001 -5.2705e-001 61513 75077,74734,75005
 6.7000e+000 75054 -1.6969e+001 -3.2494e+001  4.8901e+000 61513 74838,75005,74864
 6.7000e+000 75103 -3.3371e+001 -3.5060e+001  9.7801e+000 61513 74838,74812,75077
 6.7000e+000 75126 -2.7969e+001 -3.7722e+001  6.6081e+000 61513 74838,75077,75005
 6.7000e+000 75553 -1.3494e+001 -2.9534e+001 -1.9066e+000 61060 75576,75360,75308
 6.7000e+000 75530 -1.2214e+001 -3.2392e+001 -1.4361e+000 61060 75576,75308,75230
 6.7000e+000 75507 -1.2179e+001 -2.9409e+001 -2.3043e+000 61060 75308,75360,75334
 6.7000e+000 75484 -1.4252e+001 -3.6447e+001 -1.2741e-001 61060 75230,75308,75256
 6.7000e+000 75461 -1.5246e+001 -3.5144e+001 -9.9581e-001 61060 75256,75308,75282
 6.7000e+000 75438 -1.6122e+001 -2.9320e+001  2.6967e+000 61060 75360,75412,75386
 6.7000e+000 75602 -1.3148e+001 -3.1749e+001 -5.3041e-001 61060 75412,75360,75576
 6.7000e+000 75625 -1.2815e+001 -3.6152e+001 -3.4586e-001 61060 75412,75576,75230
 6.7000e+000 76052 -1.8856e+001 -3.2472e+001  1.7103e-001 60442 75755,75859,75833
 6.7000e+000 76029 -1.9546e+001 -3.0692e+001 -2.0505e+000 60442 75729,75859,75755
 6.7000e+000 76006 -1.9241e+001 -3.0361e+001  1.3857e+000 60442 75755,75833,75807
 6.7000e+000 75983 -2.1470e+001 -3.4522e+001  1.2844e-001 60442 75755,75807,75781
 6.7000e+000 75960 -1.0158e+001 -5.7464e+001  3.1711e+000 60442 75729,75911,75859
 6.7000e+000 75937 -3.5581e+001 -1.3214e+002  1.0039e+001 60442 75859,75911,75885
 6.7000e+000 76430 -2.0381e+001 -4.9883e+001 -9.1683e-001 59788 76453,76286,76234
 6.7000e+000 76407 -2.2161e+001 -5.6575e+001  1.2079e+000 59788 76453,76234,76182
 6.7000e+000 76384 -2.1932e+001 -3.9240e+001  6.4824e+000 59788 76525,76156,76312
 6.7000e+000 76361 -1.3621e+001 -6.5385e+001 -2.1650e-001 59788 76182,76234,76208
 6.7000e+000 76338 -1.7055e+001 -4.7036e+001  4.0764e-001 59788 76234,76286,76260
 6.7000e+000 76479 -2.3513e+001 -5.3496e+001  1.2571e+000 59788 76312,76286,76453
 6.7000e+000 76502 -2.0523e+001 -5.0959e+001  3.0812e+000 59788 76525,76312,76453
 6.7000e+000 76551 -2.6675e+001 -5.3986e+001  6.6464e+000 59788 76182,76156,76525
 6.7000e+000 76574 -2.3922e+001 -5.7527e+001  4.2913e+000 59788 76182,76525,76453
 6.7000e+000 77031 -1.4577e+001 -3.2289e+001 -3.9371e+000 59448 76835,76887,76861
 6.7000e+000 77008 -7.1463e+000 -2.5763e+001  9.7831e-001 59448 76835,76913,76887
 6.7000e+000 76985 -9.4800e+000 -2.1327e+001  4.5663e+000 59448 76809,76913,76835
 6.7000e+000 76962 -1.8031e+001 -2.8737e+001 -6.1995e-001 59448 76757,76913,76809
 6.7000e+000 76939 -1.6494e+001 -2.6307e+001 -1.3078e+000 59448 76757,76809,76783
 6.7000e+000 77537 -1.4643e+001 -3.1005e+001  8.6913e-001 58994 77560,77344,77292
 6.7000e+000 77514 -2.3167e+001 -2.8855e+001 -4.4514e-001 58994 77560,77292,77240
 6.7000e+000 77491 -1.1097e+001 -2.5424e+001 -2.2270e+000 58994 77632,77214,77370
 6.7000e+000 77468 -2.3233e+001 -3.5201e+001  6.4962e+000 58994 77292,77344,77318
 6.7000e+000 77445 -1.1388e+001 -3.1796e+001 -6.0736e-001 58994 77214,77396,77370
 6.7000e+000 77422 -2.5589e+001 -3.3357e+001  1.1017e+000 58994 77240,77292,77266
 6.7000e+000 77586 -1.5685e+001 -3.0248e+001  8.6210e-001 58994 77370,77344,77560
 6.7000e+000 77609 -1.5995e+001 -2.8305e+001  1.7428e+000 58994 77632,77370,77560
 6.7000e+000 77658 -8.3837e+000 -2.2389e+001 -6.8918e+000 58994 77240,77214,77632
 6.7000e+000 77681 -1.2110e+001 -2.2045e+001 -3.3213e+000 58994 77240,77632,77560
 6.7000e+000 78138 -1.7127e+001 -2.7068e+001  2.9031e+000 58440 77864,77994,77890
 6.7000e+000 78115 -1.4773e+001 -2.0459e+001 -1.0333e+000 58440 77864,78020,77994
 6.7000e+000 78092 -2.0735e+001 -3.1621e+001 -3.1651e+000 58440 77942,77994,77968
 6.7000e+000 78069 -1.6667e+001 -2.9412e+001  7.0048e-001 58440 77890,77994,77942
 6.7000e+000 78046 -1.4215e+001 -3.0419e+001 -1.1925e+000 58440 77890,77942,77916
 6.7000e+000 78467 -5.4261e+000 -3.0019e+001 -1.1081e+000 57928 78562,78490,78346
 6.7000e+000 78444 -1.1511e+001 -2.9176e+001 -5.9203e-001 57928 78490,78294,78268
 6.7000e+000 78421 -3.5271e+000 -3.2230e+001  5.5878e-001 57928 78562,78346,78320
 6.7000e+000 78398 -7.8052e+000 -2.7769e+001 -5.0839e-001 57928 78242,78372,78268
 6.7000e+000 78516 -1.1177e+001 -3.5483e+001 -3.4124e+000 57928 78372,78346,78490
 6.7000e+000 78539 -1.0265e+001 -2.9156e+001 -1.3089e+000 57928 78372,78490,78268
 6.7000e+000 78588 -1.2292e+001 -3.1333e+001 -9.6928e-001 57928 78294,78490,78562
 6.7000e+000 78611 -8.0196e+000 -3.1332e+001  1.5381e+000 57928 78294,78562,78320
 6.7000e+000 79068 -2.9569e+001 -5.9355e+001 -1.4056e+001 57467 78794,78924,78820
 6.7000e+000 79045 -2.4221e+001 -5.6912e+001 -1.3388e+001 57467 78794,78950,78924
 6.7000e+000 79022 -1.2174e+001 -5.3941e+001  5.3816e+000 57467 78820,78898,78872
 6.7000e+000 78999 -2.3798e+001 -7.5041e+001 -7.7117e+000 57467 78820,78924,78898
 6.7000e+000 78976 -1.0821e+001 -5.5243e+001  8.0710e+000 57467 78820,78872,78846
 6.7000e+000 79446 -2.1809e+001 -3.6852e+001 -1.2105e+000 57120 79172,79302,79250
 6.7000e+000 79423 -2.1705e+001 -3.6747e+001 -2.5180e+000 57120 79172,79328,79302
 6.7000e+000 79400 -2.1158e+001 -3.2793e+001 -2.1117e+000 57120 79172,79250,79198
 6.7000e+000 79377 -1.6968e+001 -4.4789e+001  2.4338e-001 57120 79250,79302,79276
 6.7000e+000 79354 -2.3788e+001 -3.5333e+001 -3.4782e+000 57120 79198,79250,79224
 6.7000e+000 79952 -3.1820e+001 -4.8648e+001  5.8387e-001 56773 79629,79785,79655
 6.7000e+000 79929 -1.1205e+001 -4.1689e+001  1.6611e+000 56773 79629,79811,79785
 6.7000e+000 79906 -2.4934e+001 -5.3528e+001  3.4583e+000 56773 79655,79733,79681
 6.7000e+000 79883 -2.4220e+001 -4.7761e+001  8.5873e-001 56773 79655,79785,79733
 6.7000e+000 79860 -2.2906e+001 -6.3417e+001 -7.6225e+000 56773 79733,79785,79759
 6.7000e+000 79837 -1.4011e+001 -4.8394e+001  1.0075e+001 56773 79681,79733,79707
 6.7000e+000 80281 -1.6226e+001 -3.0535e+001 -3.2673e+000 56319 80108,80160,80134
 6.7000e+000 80258 -1.5341e+001 -3.3450e+001 -3.4509e+000 56319 80056,80160,80108
 6.7000e+000 80235 -1.0728e+001 -3.0305e+001  7.9157e-001 56319 80056,80186,80160
 6.7000e+000 80212 -1.6437e+001 -4.0979e+001 -3.6999e+000 56319 80056,80108,80082
 6.7000e+000 80738 -9.9686e+000 -4.2846e+001  2.4511e+000 55957 80516,80620,80594
 6.7000e+000 80715 -1.9558e+001 -3.9448e+001  1.7495e+000 55957 80464,80620,80516
 6.7000e+000 80692 -1.6192e+001 -4.7778e+001  2.4731e+000 55957 80761,80568,80542
 6.7000e+000 80669 -1.5081e+001 -4.6461e+001  2.9958e+000 55957 80761,80542,80516
 6.7000e+000 80646 -1.9679e+001 -3.9535e+001  5.4362e+000 55957 80464,80516,80490
 6.7000e+000 80787 -1.7777e+001 -4.7087e+001  1.6189e+000 55957 80594,80568,80761
 6.7000e+000 80810 -1.6688e+001 -4.5749e+001  2.1264e+000 55957 80594,80761,80516
 6.7000e+000 81210 -1.6821e+001 -4.8965e+001 -2.8797e+000 55317 80936,80988,80962
 6.7000e+000 81187 -1.4859e+001 -5.0696e+001  2.7263e-001 55317 80936,81066,80988
 6.7000e+000 81164 -1.2649e+001 -5.4652e+001  1.4771e+000 55317 80936,81092,81066
 6.7000e+000 81141 -2.0786e+001 -5.4695e+001 -4.8275e+000 55317 80988,81066,81014
 6.7000e+000 81118 -4.4541e+000 -2.9401e+001  4.0793e+000 55317 81014,81066,81040
 6.7000e+000 81539 -1.8784e+001 -3.5819e+001 -5.0655e-001 54913 81340,81418,81392
 6.7000e+000 81516 -9.6682e+000 -3.1615e+001 -2.8775e+000 54913 81340,81444,81418
 6.7000e+000 81493 -1.3225e+001 -3.4116e+001 -6.0072e+000 54913 81314,81444,81340
 6.7000e+000 81470 -2.2930e+001 -3.9883e+001 -2.1776e+000 54913 81340,81392,81366
 6.7000e+000 81787 -1.3381e+001 -4.2472e+001 -6.5253e-001 54601 81588,81692,81640
 6.7000e+000 81764 -1.9805e+001 -4.3497e+001 -2.1117e+000 54601 81562,81692,81588
 6.7000e+000 81741 -1.3209e+001 -4.3582e+001  3.7335e+000 54601 81588,81640,81614
 6.7000e+000 81718 -1.3871e+001 -5.1805e+001 -5.2761e+000 54601 81640,81692,81666
 6.7000e+000 82344 -1.3904e+001 -3.4490e+001 -1.0555e+000 54090 81998,82102,82076
 6.7000e+000 82321 -1.9163e+001 -3.6716e+001 -1.4867e+000 54090 81998,82154,82102
 6.7000e+000 82298 -1.6488e+001 -3.4961e+001 -6.6650e-001 54090 81972,82154,81998
 6.7000e+000 82275 -1.8331e+001 -3.2068e+001 -1.4671e+000 54090 81998,82076,82024
 6.7000e+000 82252 -1.9967e+001 -3.7427e+001  1.8122e+000 54090 81972,82180,82154
 6.7000e+000 82229 -2.6284e+001 -4.6844e+001  1.9471e+000 54090 82102,82154,82128
 6.7000e+000 82206 -3.6422e+000 -2.5127e+001 -3.5667e+000 54090 82024,82076,82050
 6.7000e+000 82722 -2.8923e+001 -5.0052e+001 -6.9820e-001 53579 82500,82578,82552
 6.7000e+000 82699 -2.4708e+001 -4.7541e+001  9.9899e-001 53579 82448,82578,82500
 6.7000e+000 82676 -2.8348e+001 -5.3175e+001  2.6168e+000 53579 82448,82500,82474
 6.7000e+000 82653 -2.8660e+001 -4.9871e+001  3.6716e+000 53579 82448,82604,82578
 6.7000e+000 82630 -1.7079e+001 -4.6187e+001 -3.1300e-001 53579 82500,82552,82526
 6.7000e+000 83356 -1.7082e+001 -4.0876e+001 -3.7058e+000 53189 83379,83088,83036
 6.7000e+000 83333 -1.6597e+001 -4.6140e+001 -3.3110e+000 53189 83379,83036,82984
 6.7000e+000 83310 -7.6018e+000 -4.2893e+001  6.6495e+000 53189 82984,83192,83166
 6.7000e+000 83287 -3.8604e+000 -3.4523e+001 -1.7825e+000 53189 83036,83088,83062
 6.7000e+000 83264 -1.1655e+001 -5.1036e+001 -7.9106e+000 53189 82984,83036,83010
 6.7000e+000 83241 -1.2499e+001 -5.1360e+001  1.5227e+000 53189 83114,83166,83140
 6.7000e+000 83218 -2.3625e+001 -5.4609e+001  1.5736e+000 53189 83088,83166,83114
 6.7000e+000 83405 -1.7168e+001 -4.4429e+001 -1.5286e+000 53189 83166,83088,83379
 6.7000e+000 83428 -1.5895e+001 -4.9068e+001 -1.4663e+000 53189 83166,83379,82984
 6.7000e+000 83725 -1.5508e+001 -4.5260e+001 -7.0588e+000 52585 83748,83529,83503
 6.7000e+000 83702 -1.0930e+001 -4.3872e+001 -5.0826e+000 52585 83820,83748,83503
 6.7000e+000 83679 -6.9009e+000 -4.0423e+001 -3.5739e+000 52585 83820,83503,83477
 6.7000e+000 83656 -5.7143e+000 -3.4059e+001  2.6890e+000 52585 83477,83607,83581
 6.7000e+000 83633  1.0019e+000 -3.1034e+001  3.5078e+000 52585 83451,83607,83477
 6.7000e+000 83774 -1.3236e+001 -3.9309e+001 -5.9471e+000 52585 83555,83529,83748
 6.7000e+000 83797 -1.8558e+001 -4.2150e+001 -4.7210e+000 52585 83555,83748,83581
 6.7000e+000 83846 -1.4768e+001 -3.8013e+001 -2.7903e+000 52585 83581,83748,83820
 6.7000e+000 83869 -1.2510e+001 -3.5955e+001 -1.8539e+000 52585 83581,83820,83477
 6.7000e+000 84200 -1.2674e+001 -3.9280e+001 -2.0454e+000 52024 84001,84105,84079
 6.7000e+000 84177 -8.1455e+000 -3.8419e+001 -3.1673e+000 52024 83975,84105,84001
 6.7000e+000 84154 -1.1023e+001 -3.9992e+001 -1.3039e+000 52024 84001,84079,84053
 6.7000e+000 84131 -6.9199e+000 -2.9271e+001  3.5697e+000 52024 84001,84053,84027
 6.7000e+000 84399 -1.3729e+001 -3.8379e+001 -1.4543e+000 51470 84422,84275,84249
 6.7000e+000 84376 -1.4987e+001 -4.0181e+001 -2.0405e+000 51470 84422,84249,84223
 6.7000e+000 84353 -1.3615e+001 -4.4711e+001 -6.3394e+000 51470 84275,84327,84301
 6.7000e+000 84448 -1.2524e+001 -4.0224e+001 -1.4043e+000 51470 84327,84275,84422
 6.7000e+000 84471 -1.3567e+001 -4.1694e+001 -1.9228e+000 51470 84327,84422,84223
 6.7000e+000 84753 -1.2093e+001 -3.2374e+001 -7.7317e-001 51073 84603,84655,84629
 6.7000e+000 84730 -2.2204e+001 -3.7091e+001 -2.1019e+000 51073 84776,84655,84603
 6.7000e+000 84707 -6.0638e+000 -3.1351e+001 -8.8453e+000 51073 84577,84681,84655
 6.7000e+000 84802 -1.4115e+001 -3.2435e+001 -4.7918e+000 51073 84577,84655,84776
 6.7000e+000 85178 -2.5034e+001 -5.6152e+001  4.8383e+000 50519 85201,85008,84982
 6.7000e+000 85155 -2.3825e+001 -5.3081e+001  4.4683e+000 50519 85273,85201,84982
 6.7000e+000 85132 -2.3271e+001 -5.2758e+001  4.1568e+000 50519 85273,84982,84930
 6.7000e+000 85109 -2.2041e+001 -5.1014e+001  3.5697e+000 50519 84930,84982,84956
 6.7000e+000 85086 -2.5426e+001 -5.8068e+001  3.2317e+000 50519 85008,85060,85034
 6.7000e+000 85227 -2.3644e+001 -5.4819e+001  2.5451e+000 50519 85060,85008,85201
 6.7000e+000 85250 -2.4257e+001 -5.4599e+001  2.4168e+000 50519 85060,85201,84904
 6.7000e+000 85299 -2.3599e+001 -5.4121e+001  2.2064e+000 50519 84904,85201,85273
 6.7000e+000 85322 -2.0498e+001 -4.8595e+001  9.1685e-001 50519 84904,85273,84930
 6.7000e+000 85958 -1.8594e+001 -5.0715e+001 -1.8445e+000 50093 85981,85768,85716
 6.7000e+000 85935 -1.6461e+001 -4.6046e+001 -1.3331e+000 50093 85981,85716,85612
 6.7000e+000 85912 -2.0954e+001 -4.6497e+001  6.8670e-001 50093 85612,85716,85664
 6.7000e+000 85889 -1.4588e+001 -4.7841e+001 -4.2833e-001 50093 85716,85768,85742
 6.7000e+000 85866 -1.7597e+001 -3.5703e+001 -1.0498e+001 50093 85664,85716,85690
 6.7000e+000 85843 -5.4688e+000 -3.3464e+001 -1.0959e+000 50093 85586,85794,85612
 6.7000e+000 85820 -1.4945e+001 -6.3011e+001  5.0059e+000 50093 85612,85664,85638
 6.7000e+000 86007 -2.3521e+001 -5.5272e+001 -8.7599e+000 50093 85794,85768,85981
 6.7000e+000 86030 -1.6634e+001 -4.1108e+001 -6.4803e+000 50093 85794,85981,85612
 6.7000e+000 86131 -1.2801e+001 -3.1501e+001  3.8014e+000 49895 86053,86105,86079
 6.7000e+000 86639 -1.2649e+001 -3.0189e+001 -7.4669e+000 49391 86662,86394,86368
 6.7000e+000 86616 -1.5520e+001 -4.0203e+001 -6.4254e+000 49391 86662,86368,86342
 6.7000e+000 86593 -7.2170e+000 -4.0969e+001 -2.0063e+000 49391 86342,86498,86472
 6.7000e+000 86570 -5.0489e+000 -4.3414e+001 -2.1291e+000 49391 86316,86498,86342
 6.7000e+000 86547 -2.5325e+001 -6.4254e+001 -9.6998e-001 49391 86394,86472,86446
 6.7000e+000 86524 -4.3654e+000 -6.4263e+001  1.2926e+000 49391 86394,86446,86420
 6.7000e+000 86688 -1.4830e+001 -3.9484e+001 -3.1611e+000 49391 86472,86394,86662
 6.7000e+000 86711 -1.2819e+001 -4.3754e+001 -2.9632e+000 49391 86472,86662,86342
 6.7000e+000 87089 -1.9724e+001 -4.5134e+001  1.4979e+000 48987 86815,86919,86867
 6.7000e+000 87066 -1.8374e+001 -4.6529e+001  2.2491e+000 48987 86815,86971,86919
 6.7000e+000 87043 -8.5019e+000 -4.8074e+001 -3.0241e+000 48987 86867,86919,86893
 6.7000e+000 87020 -2.1522e+001 -5.0512e+001  5.3746e+000 48987 86815,86867,86841
 6.7000e+000 86997 -2.0012e+001 -3.9906e+001  6.4712e+000 48987 86919,86971,86945
 6.7000e+000 87467 -3.3596e+001 -4.6612e+001  3.2230e+000 48540 87490,87245,87219
 6.7000e+000 87444 -2.3640e+001 -4.3847e+001  1.0125e+000 48540 87562,87490,87219
 6.7000e+000 87421 -1.8827e+001 -4.1879e+001  2.1317e+000 48540 87562,87219,87349
 6.7000e+000 87398 -2.4387e+001 -3.6744e+001  2.7968e-001 48540 87245,87297,87271
 6.7000e+000 87375 -1.6964e+001 -4.4450e+001  1.3795e+000 48540 87193,87349,87219
 6.7000e+000 87516 -2.2689e+001 -4.3020e+001  2.6910e+000 48540 87297,87245,87490
 6.7000e+000 87539 -2.3289e+001 -4.5252e+001  2.3359e+000 48540 87297,87490,87323
 6.7000e+000 87588 -1.9061e+001 -4.2480e+001  4.2790e+000 48540 87323,87490,87562
 6.7000e+000 87611 -1.6648e+001 -4.2691e+001  4.9882e+000 48540 87323,87562,87349
 6.7000e+000 87810 -1.6804e+001 -5.6388e+001 -4.0291e+000 48136 87660,87712,87686
 6.7000e+000 87787 -8.5801e+000 -3.0366e+001 -2.3110e+000 48136 87660,87738,87712
 6.7000e+000 87764 -2.1159e+001 -3.2650e+001 -5.1427e+000 48136 87634,87738,87660
 6.7000e+000 88205 -2.1756e+001 -4.8621e+001 -6.1266e+000 47210 88300,88228,87937
 6.7000e+000 88182 -1.9077e+001 -4.8319e+001 -2.6138e+000 47210 88228,87833,88041
 6.7000e+000 88159 -2.2147e+001 -5.2581e+001 -8.8952e+000 47210 88300,87937,87911
 6.7000e+000 88136 -1.8817e+001 -4.5115e+001 -6.1823e+000 47210 87833,87911,87859
 6.7000e+000 88113 -3.8275e+001 -4.4060e+001 -8.2332e+000 47210 87937,87989,87963
 6.7000e+000 88090 -1.8938e+001 -3.7004e+001  8.0937e+000 47210 87989,88041,88015
 6.7000e+000 88067 -2.2967e+001 -5.5109e+001 -7.3225e+000 47210 87859,87911,87885
 6.7000e+000 88254 -1.9412e+001 -3.7219e+001 -6.7594e+000 47210 87989,87937,88228
 6.7000e+000 88277 -2.3930e+001 -4.6088e+001 -2.8874e+000 47210 87989,88228,88041
 6.7000e+000 88326 -1.8103e+001 -4.4902e+001 -3.0100e+000 47210 87833,88228,88300
 6.7000e+000 88349 -1.9064e+001 -4.7503e+001 -6.0020e+000 47210 87833,88300,87911
 6.7000e+000 88780 -2.2666e+001 -3.9035e+001 -7.6735e+000 46642 88803,88509,88483
 6.7000e+000 88757 -1.6481e+001 -3.5138e+001 -4.1854e+000 46642 88803,88483,88639
 6.7000e+000 88734 -1.7207e+001 -2.9507e+001 -4.7041e+000 46642 88875,88561,88509
 6.7000e+000 88711 -1.7571e+001 -2.6873e+001 -3.2167e-002 46642 88509,88561,88535
 6.7000e+000 88688 -1.0507e+001 -3.9782e+001  1.4818e-001 46642 88457,88639,88483
 6.7000e+000 88665 -1.8929e+001 -4.8796e+001 -3.1573e+000 46642 88561,88613,88587
 6.7000e+000 88829 -1.8433e+001 -3.1857e+001 -5.4311e+000 46642 88875,88509,88803
 6.7000e+000 88852 -1.7796e+001 -3.8132e+001 -3.8665e+000 46642 88613,88803,88639
 6.7000e+000 88901 -1.3140e+001 -3.3035e+001 -2.4898e+000 46642 88613,88561,88875
 6.7000e+000 88924 -1.5101e+001 -3.6699e+001 -3.3172e+000 46642 88613,88875,88803
 6.7000e+000 89253 -7.2204e+000 -4.2227e+001  2.3965e-001 46444 89080,89158,89132
 6.7000e+000 89230 -6.8716e+000 -4.1067e+001 -5.1781e-001 46444 89028,89158,89080
 6.7000e+000 89207 -4.8844e+000 -3.9717e+001 -1.1334e+000 46444 89028,89080,89054
 6.7000e+000 89184  1.1406e+000 -4.5725e+001 -5.3059e+000 46444 89080,89132,89106
 6.7000e+000 89631 -1.6246e+001 -3.3539e+001  1.3636e+000 46040 89383,89461,89435
 6.7000e+000 89608 -1.6598e+001 -3.6171e+001 -1.9326e+000 46040 89383,89487,89461
 6.7000e+000 89585 -1.7767e+001 -4.5686e+001 -1.1339e+000 46040 89383,89435,89409
 6.7000e+000 89562 -1.2483e+001 -2.9546e+001 -4.7503e+000 46040 89383,89513,89487
 6.7000e+000 89539 -5.4919e+000 -2.6110e+001 -6.2629e+000 46040 89357,89513,89383
 6.7000e+000 90009 -1.7068e+001 -4.3212e+001 -2.0379e-002 45636 89813,89891,89839
 6.7000e+000 89986 -1.7227e+001 -3.9569e+001  2.5419e+000 45636 89787,89891,89813
 6.7000e+000 89963 -1.5532e+001 -4.0506e+001 -9.7178e-001 45636 89839,89891,89865
 6.7000e+000 89940 -1.9240e+001 -4.4335e+001  1.7689e+000 45636 89735,89891,89787
 6.7000e+000 89917 -1.5385e+001 -4.4698e+001 -1.6011e+000 45636 89735,89787,89761
 6.7000e+000 90208 -9.7411e+000 -3.2144e+001 -7.2830e+000 45175 90231,90058,90032
 6.7000e+000 90185 -6.3380e+000 -2.9524e+001 -1.0472e+001 45175 90231,90032,90136
 6.7000e+000 90162 -9.3292e+000 -2.2807e+001 -8.9856e-001 45175 90058,90110,90084
 6.7000e+000 90257 -1.3691e+001 -3.6045e+001 -2.9363e+000 45175 90110,90058,90231
 6.7000e+000 90280 -7.1498e+000 -3.1505e+001 -6.4716e+000 45175 90110,90231,90136
 6.7000e+000 90528 -1.0286e+001 -3.1303e+001 -4.6205e+000 44513 90695,90551,90407
 6.7000e+000 90505 -1.1690e+001 -2.8812e+001 -4.0384e+000 44513 90551,90355,90329
 6.7000e+000 90482 -1.1894e+001 -3.1697e+001 -4.5466e+000 44513 90623,90303,90433
 6.7000e+000 90459 -9.3584e+000 -2.8625e+001 -2.8433e+000 44513 90695,90407,90381
 6.7000e+000 90577 -1.4313e+001 -3.2542e+001 -7.5106e+000 44513 90433,90407,90551
 6.7000e+000 90600 -1.2533e+001 -3.0068e+001 -4.5624e+000 44513 90623,90433,90551
 6.7000e+000 90649 -1.0996e+001 -2.9886e+001 -5.0545e+000 44513 90329,90303,90623
 6.7000e+000 90672 -1.1721e+001 -2.9179e+001 -4.9018e+000 44513 90329,90623,90551
 6.7000e+000 90721 -1.2293e+001 -2.7320e+001 -5.5701e+000 44513 90355,90551,90695
 6.7000e+000 90744 -1.2467e+001 -2.5419e+001 -4.7885e+000 44513 90355,90695,90381
 6.7000e+000 91077  3.0078e+000 -3.1779e+001 -2.0922e+000 44059 91100,90930,90904
 6.7000e+000 91054 -1.3972e+001 -3.4780e+001  3.4310e+000 44059 91100,90904,90982
 6.7000e+000 91031 -2.4604e+001 -4.0642e+001 -1.5373e+000 44059 90878,90982,90904
 6.7000e+000 91008 -1.0815e+001 -3.3585e+001  9.5101e-001 44059 90852,90982,90878
 6.7000e+000 91126 -2.8183e+001 -4.0861e+001 -4.5100e-001 44059 91172,91100,90956
 6.7000e+000 91149 -1.4927e+001 -3.8111e+001 -1.0968e+000 44059 90956,91100,90982
 6.7000e+000 91198  4.7859e+000 -5.0580e+000 -1.4136e+001 44059 90930,91100,91172
 6.7000e+000 91677 -1.2461e+001 -2.0200e+001  1.4179e+000 43549 91455,91533,91481
 6.7000e+000 91654 -3.8791e+000 -1.8825e+001  2.7433e+000 43549 91429,91533,91455
 6.7000e+000 91631 -1.1631e+001 -1.9537e+001  1.3255e-001 43549 91481,91533,91507
 6.7000e+000 91608 -2.5889e+000 -1.8339e+001  1.0539e+000 43549 91429,91559,91533
 6.7000e+000 91585  7.5420e-001 -3.0829e+000 -4.4021e-001 43549 91403,91559,91429
 6.7000e+000 92006 -1.8057e+001 -4.2191e+001  1.5315e-001 43059 91781,91885,91807
 6.7000e+000 91983 -1.9235e+001 -4.0435e+001  7.3043e+000 43059 91781,91911,91885
 6.7000e+000 91960 -1.7953e+001 -4.1365e+001 -3.0692e-001 43059 91807,91885,91833
 6.7000e+000 91937 -1.2733e+001 -3.8987e+001  3.5272e-001 43059 91833,91885,91859
 6.7000e+000 92561 -8.3562e+000 -2.0892e+001 -3.0032e+000 42598 92584,92215,92189
 6.7000e+000 92538 -1.0560e+001 -2.3493e+001 -1.9126e+000 42598 92656,92584,92189
 6.7000e+000 92515 -8.9312e+000 -2.6921e+001 -1.7925e-001 42598 92656,92189,92397
 6.7000e+000 92492 -1.8291e+001 -1.8591e+001 -3.3797e+000 42598 92241,92319,92293
 6.7000e+000 92469 -1.1510e+001 -2.3209e+001  2.4517e+000 42598 92319,92397,92371
 6.7000e+000 92446  2.6550e-001 -3.2724e+001  1.9809e+001 42598 92319,92371,92345
 6.7000e+000 92423 -1.4086e+001 -1.8293e+001 -5.8393e+000 42598 92241,92293,92267
 6.7000e+000 92610 -1.0926e+001 -2.2241e+001 -3.5567e+000 42598 92241,92215,92584
 6.7000e+000 92633 -9.4141e+000 -1.8616e+001 -2.7809e+000 42598 92241,92584,92319
 6.7000e+000 92682 -8.9566e+000 -1.8770e+001 -1.0063e+000 42598 92319,92584,92656
 6.7000e+000 92705 -6.7588e+000 -2.1245e+001  3.2955e-001 42598 92319,92656,92397
 6.7000e+000 92953 -1.8786e+001 -4.4295e+001  2.2968e+000 42094 92976,92806,92780
 6.7000e+000 92930 -2.0810e+001 -4.1802e+001 -1.8748e-001 42094 92976,92780,92754
 6.7000e+000 92907 -6.8126e+000 -4.2560e+001 -3.2205e-001 42094 93048,92832,92806
 6.7000e+000 92884 -2.4843e+001 -4.4079e+001 -2.8237e+000 42094 92728,92858,92754
 6.7000e+000 93002 -1.3137e+001 -4.1126e+001  1.0393e+000 42094 93048,92806,92976
 6.7000e+000 93025 -1.9032e+001 -4.0902e+001 -7.5604e-001 42094 92858,92976,92754
 6.7000e+000 93074 -1.5755e+001 -4.5624e+001 -2.6199e-001 42094 92858,92832,93048
 6.7000e+000 93097 -2.0796e+001 -4.3312e+001  5.0832e-001 42094 92858,93048,92976
 6.7000e+000 93605 -1.6730e+001 -4.9063e+001 -2.3334e+000 41846 93628,93412,93386
 6.7000e+000 93582 -1.4464e+001 -3.5141e+001 -1.7371e+000 41846 93628,93386,93308
 6.7000e+000 93559 -1.7831e+001 -3.5064e+001 -9.1712e+000 41846 93700,93464,93438
 6.7000e+000 93536 -2.2944e+001 -5.2709e+001  9.2280e-001 41846 93308,93386,93334
 6.7000e+000 93513 -2.5779e+001 -3.1205e+001 -9.0817e+000 41846 93334,93386,93360
 6.7000e+000 93490 -1.4218e+001 -3.1342e+001 -1.1666e+001 41846 93282,93464,93308
 6.7000e+000 93654 -1.5467e+001 -3.8001e+001 -4.0849e+000 41846 93438,93412,93628
 6.7000e+000 93677 -2.0003e+001 -3.7012e+001 -3.5876e+000 41846 93700,93438,93628
 6.7000e+000 93726 -1.4357e+001 -2.8489e+001 -1.1023e+001 41846 93308,93464,93700
 6.7000e+000 93749 -1.5606e+001 -2.8260e+001 -5.5661e+000 41846 93308,93700,93628
 6.7000e+000 94255 -1.7486e+001 -4.3538e+001  3.0654e+000 41385 93958,94114,94088
 6.7000e+000 94232 -1.4295e+001 -4.7051e+001  1.3096e+000 41385 93932,94114,93958
 6.7000e+000 94209 -2.7295e+001 -5.0527e+001  9.0864e+000 41385 93958,94088,94062
 6.7000e+000 94186 -2.6760e+001 -3.4900e+001  6.3219e+000 41385 93958,94062,93984
 6.7000e+000 94163 -2.1616e+001 -3.4920e+001  4.3214e+000 41385 93984,94062,94036
 6.7000e+000 94140 -1.5124e+001 -4.5696e+001  6.2573e+000 41385 93984,94036,94010
 6.7000e+000 94476 -6.9798e+000 -6.1772e+001  3.0594e+000 40881 94326,94378,94352
 6.7000e+000 94453 -1.0712e+001 -4.8932e+001  4.2025e+000 40881 94300,94378,94326
 6.7000e+000 94430 -1.4458e+001 -4.5080e+001  3.2821e-001 40881 94300,94404,94378
 6.7000e+000 94626 -3.1376e+000 -1.9989e+001 -1.4477e+000 40591 94649,94551,94525
 6.7000e+000 94603 -1.7621e+000 -8.4429e+000  2.2111e+000 40591 94781,94577,94551
 6.7000e+000 94675  2.2524e+000 -1.2878e+001 -4.0723e+000 40591 94781,94551,94649
 6.7000e+000 94807  8.1052e+000 -5.9067e-001  6.3790e+000 40591 94499,94577,94781
 6.7000e+000 94830  1.0080e+001 -8.5203e+000 -4.4952e-001 40591 94499,94781,94649
 6.7000e+000 95336 -4.1040e+001 -4.0291e+001 -9.2840e+000 40187 95013,95169,95039
 6.7000e+000 95313 -1.3762e+001 -3.5683e+001 -7.3365e-001 40187 95013,95195,95169
 6.7000e+000 95290 -3.6841e+000 -3.4287e+001 -4.6452e+000 40187 95039,95143,95065
 6.7000e+000 95267 -2.4922e+001 -4.2820e+001 -7.4540e+000 40187 95039,95169,95143
 6.7000e+000 95244 -2.9432e+000 -1.7469e+001 -4.9344e-001 40187 95091,95143,95117
 6.7000e+000 95221 -4.0228e-001 -1.0664e+001 -4.5295e-001 40187 95065,95143,95091
 6.7000e+000 95665 -7.3880e+000 -1.9615e+001  1.8188e+001 39626 95466,95570,95544
 6.7000e+000 95642 -2.1191e+001 -1.2115e+001  1.1371e+001 39626 95440,95570,95466
 6.7000e+000 95619 -3.6129e+001 -3.3088e+001  1.2736e+001 39626 95466,95544,95492
 6.7000e+000 95596 -8.0311e+000 -2.6274e+001  1.6786e+001 39626 95492,95544,95518
 6.7000e+000 95913 -1.7063e+001 -3.2969e+001 -4.9868e+000 39136 96080,95936,95766
 6.7000e+000 95890 -1.1680e+001 -3.6080e+001 -3.5164e+000 39136 95936,95714,95688
 6.7000e+000 95867 -2.8961e+001 -3.6216e+001  1.9630e+000 39136 96008,95792,95766
 6.7000e+000 95844 -1.4695e+001 -3.2092e+001 -4.1762e+000 39136 96080,95766,95740
 6.7000e+000 95962 -2.2907e+001 -3.7364e+001 -3.0419e+000 39136 96008,95766,95936
 6.7000e+000 95985 -1.5207e+001 -4.4828e+001 -1.0194e+000 39136 95818,95936,95688
 6.7000e+000 96034 -1.4481e+001 -2.9961e+001  2.5389e+000 39136 95818,95792,96008
 6.7000e+000 96057 -1.2887e+001 -3.3005e+001 -2.3778e+000 39136 95818,96008,95936
 6.7000e+000 96106 -1.5988e+001 -3.3095e+001 -1.6498e+000 39136 95714,95936,96080
 6.7000e+000 96129 -1.2126e+001 -3.1881e+001 -1.0893e+000 39136 95714,96080,95740
 6.7000e+000 96350 -8.0534e+000 -2.2220e+001 -1.9090e+000 38824 96200,96278,96252
 6.7000e+000 96327 -5.0196e+000 -2.0449e+001 -1.1467e+000 38824 96174,96278,96200
 6.7000e+000 96304  4.0739e+000 -1.8901e+001 -6.2360e+000 38824 96200,96252,96226
 6.7000e+000 96830 -1.1253e+001 -2.2866e+001 -3.1830e+000 38320 97069,96536,96484
 6.7000e+000 96807 -1.1127e+001 -2.3210e+001 -3.1390e+000 38320 97069,96484,96853
 6.7000e+000 96784 -1.2809e+001 -2.5065e+001 -9.9895e-001 38320 96853,96484,96458
 6.7000e+000 96761 -5.8016e+000 -1.9126e+001 -3.5595e+000 38320 96925,96640,96614
 6.7000e+000 96738 -1.0674e+001 -2.0162e+001 -2.0144e+000 38320 96997,96666,96640
 6.7000e+000 96715 -9.0809e+000 -2.9876e+001 -1.9923e+000 38320 97141,96588,96562
 6.7000e+000 96692 -1.5749e+001 -2.6575e+001 -1.1710e+000 38320 96484,96536,96510
 6.7000e+000 96879 -1.1741e+001 -2.5923e+001 -2.2550e+000 38320 97141,96562,96853
 6.7000e+000 96902 -1.0239e+001 -2.3167e+001 -1.8685e+000 38320 96925,96614,96853
 6.7000e+000 96951 -1.0402e+001 -1.9867e+001 -2.2554e+000 38320 96997,96640,96925
 6.7000e+000 96974 -1.0136e+001 -1.9482e+001 -1.8295e+000 38320 96458,96925,96853
 6.7000e+000 97023 -1.2037e+001 -2.0625e+001 -1.3042e+000 38320 96458,96666,96997
 6.7000e+000 97046 -1.1027e+001 -2.0043e+001 -1.5802e+000 38320 96458,96997,96925
 6.7000e+000 97095 -1.1576e+001 -2.2140e+001 -2.0520e+000 38320 96562,96536,97069
 6.7000e+000 97118 -1.0658e+001 -2.3013e+001 -2.9413e+000 38320 96562,97069,96853
 6.7000e+000 97167 -5.2253e+000 -2.5791e+001 -3.6760e+000 38320 96614,96588,97141
 6.7000e+000 97190 -9.3995e+000 -2.2861e+001 -3.3268e+000 38320 96614,97141,96853
 6.7000e+000 97519 -8.1311e+000 -3.5912e+001  1.0715e+001 37766 97542,97398,97372
 6.7000e+000 97496 -1.1036e+001 -2.7107e+001  7.2562e+000 37766 97542,97372,97346
 6.7000e+000 97473 -1.1488e+001 -3.1078e+001 -8.0771e-001 37766 97294,97424,97346
 6.7000e+000 97450 -1.1362e+001 -3.0999e+001 -9.8502e-001 37766 97294,97346,97320
 6.7000e+000 97568 -1.4845e+000 -3.7767e+001  3.6374e+000 37766 97424,97398,97542
 6.7000e+000 97591 -6.0086e+000 -2.7658e+001  6.8723e-001 37766 97424,97542,97346
 6.7000e+000 98048 -1.3141e+001 -2.0946e+001 -8.6530e+000 37262 98071,97878,97852
 6.7000e+000 98025 -1.0373e+001 -2.5847e+001 -3.6374e+000 37262 98071,97852,97800
 6.7000e+000 98002 -9.5027e+000 -2.8074e+001 -5.0552e+000 37262 97800,97852,97826
 6.7000e+000 97979 -1.1701e+001 -2.7691e+001 -2.7213e-001 37262 97800,97930,97904
 6.7000e+000 97956 -8.6733e+000 -2.7346e+001  8.6125e-001 37262 97774,97930,97800
 6.7000e+000 98097 -2.0875e+001 -2.4636e+001 -6.5852e+000 37262 97904,97878,98071
 6.7000e+000 98120 -1.4485e+001 -2.9529e+001 -1.9183e+000 37262 97904,98071,97800
 6.7000e+000 98449 -1.1196e+001 -2.4624e+001 -3.2577e+000 36950 98472,98302,98250
 6.7000e+000 98426 -7.0282e+000 -2.2907e+001 -4.1703e+000 36950 98472,98250,98354
 6.7000e+000 98403 -1.7184e+001 -2.9410e+001  3.2180e+000 36950 98250,98302,98276
 6.7000e+000 98380 -4.4432e+000 -1.6457e+001  3.2212e+000 36950 98224,98354,98250
 6.7000e+000 98498 -8.0593e+000 -2.8694e+001 -6.7994e-001 36950 98328,98302,98472
 6.7000e+000 98521 -2.9930e+000 -2.6087e+001 -2.3058e+000 36950 98328,98472,98354
 6.7000e+000 99125 -1.6140e+001 -1.5953e+001 -8.0258e-001 36296 98704,98756,98730
 6.7000e+000 99102 -2.1775e+001 -1.6383e+001  1.3559e+000 36296 98704,98938,98756
 6.7000e+000 99079 -1.3336e+001 -2.1217e+001 -1.4029e+000 36296 99148,98938,98912
 6.7000e+000 99056 -1.2414e+001 -2.1779e+001  6.0501e+000 36296 99292,99220,98782
 6.7000e+000 99033 -1.1115e+001 -2.5633e+001  2.3328e-001 36296 99148,98912,98834
 6.7000e+000 99010 -1.2682e+001 -1.7654e+001  7.7946e+000 36296 99292,98782,98756
 6.7000e+000 98987 -1.1392e+001 -4.6187e+001 -8.5566e+000 36296 98834,98912,98886
 6.7000e+000 98964 -1.6668e+001 -6.3680e+001 -1.0312e+001 36296 98834,98886,98860
 6.7000e+000 99174 -1.7057e+001 -2.7625e+001  3.9081e-001 36296 99220,98938,99148
 6.7000e+000 99197 -1.1202e+001 -3.2437e+001  3.5210e+000 36296 98808,99148,98834
 6.7000e+000 99246 -1.4017e+001 -2.5431e+001  1.2816e+001 36296 98808,98782,99220
 6.7000e+000 99269 -5.2882e+000 -1.8645e+001  4.3595e+000 36296 98808,99220,99148
 6.7000e+000 99318 -1.6520e+001 -1.8827e+001  3.5072e+000 36296 98938,99220,99292
 6.7000e+000 99341 -1.6865e+001 -1.9262e+001  4.8590e+000 36296 98938,99292,98756
 6.7000e+000 99719 -2.0071e+001 -3.9183e+001  2.4831e-001 35742 99742,99471,99601
 6.7000e+000 99696 -1.9548e+001 -3.1625e+001  3.6425e+000 35742 99445,99601,99471
 6.7000e+000 99673 -1.9027e+001 -3.6778e+001 -9.2951e-001 35742 99742,99601,99575
 6.7000e+000 99650 -1.6714e+001 -4.8864e+001 -6.3792e-001 35742 99814,99549,99523
 6.7000e+000 99627 -1.4072e+001 -3.7475e+001  5.1522e-001 35742 99471,99523,99497
 6.7000e+000 99768 -1.6191e+001 -3.8518e+001  1.3587e+000 35742 99523,99471,99742
 6.7000e+000 99791 -1.9380e+001 -4.4208e+001 -3.7368e-001 35742 99814,99523,99742
 6.7000e+000 99840 -1.6472e+001 -4.3074e+001 -2.4049e+000 35742 99575,99549,99814
 6.7000e+000 99863 -1.8096e+001 -3.6964e+001 -1.9745e+000 35742 99575,99814,99742
 6.7000e+000 100111 -1.6942e+001 -3.2562e+001  3.3094e+000 35302 100134,99990,99938
 6.7000e+000 100088 -1.4013e+001 -2.7836e+001  1.9148e+000 35302 100134,99938,99912
 6.7000e+000 100065 -1.4111e+001 -2.8806e+001 -5.3933e-001 35302 100206,99886,100016
 6.7000e+000 100042 -1.9470e+001 -3.4026e+001  2.4388e+000 35302 99938,99990,99964
 6.7000e+000 100160 -1.3876e+001 -3.1501e+001  3.9271e-001 35302 100016,99990,100134
 6.7000e+000 100183 -1.3471e+001 -2.9256e+001 -5.0599e-001 35302 100206,100016,100134
 6.7000e+000 100232 -1.4737e+001 -2.9312e+001 -2.7088e-001 35302 99912,99886,100206
 6.7000e+000 100255 -1.4096e+001 -2.9834e+001 -2.3846e-001 35302 99912,100206,100134
 6.7000e+000 100586 -2.0367e+001 -1.8264e+001  9.6171e+000 35012 100609,100387,100361
 6.7000e+000 100563 -2.5315e+001 -9.7696e+000 -3.0605e+000 35012 100609,100361,100465
 6.7000e+000 100540 -1.0894e+001 -7.5611e+000 -9.7155e+000 35012 100361,100491,100465
 6.7000e+000 100517 -3.0342e-001 -8.2482e+000 -1.2666e+001 35012 100413,100465,100439
 6.7000e+000 100635 -7.8810e+000 -1.2649e+001  3.7980e+000 35012 100413,100387,100609
 6.7000e+000 100658 -1.2021e+001 -1.4501e+000 -9.1892e+000 35012 100413,100609,100465
 6.7000e+000 100987 -1.5593e+001 -3.2117e+001  2.4147e+000 34700 100788,100866,100814
 6.7000e+000 100964 -1.2350e+001 -2.2031e+001  5.2664e+000 34700 101010,100866,100788
 6.7000e+000 100941 -4.8589e+000 -1.1843e+001  5.5661e+000 34700 100762,100892,100866
 6.7000e+000 100918 -1.4801e+001 -3.0033e+001  1.7355e+000 34700 100814,100866,100840
 6.7000e+000 101036 -7.0429e+000 -1.7763e+001  9.4296e+000 34700 100762,100866,101010
 6.7000e+000 101493 -2.1195e+001 -3.7080e+001 -2.2818e+000 34132 101516,101349,101297
 6.7000e+000 101470 -2.4089e+001 -4.4003e+001 -3.9331e+000 34132 101588,101516,101297
 6.7000e+000 101447 -2.4048e+001 -4.5403e+001 -5.6835e+000 34132 101588,101297,101245
 6.7000e+000 101424 -1.6360e+001 -5.0415e+001 -5.7148e+000 34132 101245,101297,101271
 6.7000e+000 101401 -2.2365e+001 -3.7044e+001 -2.8720e+000 34132 101297,101349,101323
 6.7000e+000 101542 -2.1221e+001 -4.2722e+001 -1.8625e+000 34132 101375,101349,101516
 6.7000e+000 101565 -2.0227e+001 -4.4181e+001 -2.8464e+000 34132 101375,101516,101219
 6.7000e+000 101614 -2.0835e+001 -4.4012e+001 -2.3878e+000 34132 101219,101516,101588
 6.7000e+000 101637 -2.2476e+001 -4.5492e+001 -4.0433e+000 34132 101219,101588,101245
 6.7000e+000 101858 -1.1045e+000 -1.9049e+001  3.1015e+000 33720 101708,101786,101760
 6.7000e+000 101835  3.0791e+000 -1.6780e+001  5.2676e+000 33720 101682,101786,101708
 6.7000e+000 101812 -4.4906e+000 -2.0456e+001  3.0451e+000 33720 101708,101760,101734
 6.7000e+000 102128 -6.3006e+000 -3.9511e+001 -1.1493e+000 33130 101903,102007,101929
 6.7000e+000 102105 -6.5647e+000 -4.5572e+001  1.3573e+000 33130 101903,102033,102007
 6.7000e+000 102082 -4.1247e+000 -4.7365e+001 -9.2676e+000 33130 101929,102007,101955
 6.7000e+000 102059 -8.1423e+000 -3.2959e+001  8.9128e-001 33130 101955,102007,101981
 6.7000e+000 102461 -4.2419e+000 -1.7251e+001 -3.3794e+000 32840 102236,102340,102262
 6.7000e+000 102438 -2.4135e+000 -8.9858e+000 -4.4593e-001 32840 102236,102366,102340
 6.7000e+000 102415 -1.4000e-001 -1.7227e+001 -1.9617e+000 32840 102262,102340,102288
 6.7000e+000 102392 -6.0635e+000 -1.8264e+001 -5.9605e+000 32840 102288,102340,102314
 6.7000e+000 102997 -1.3415e+001 -2.3783e+001  5.5808e+000 32493 102749,102879,102853
 6.7000e+000 102974 -1.1388e+001 -1.9071e+001  5.4147e+000 32493 102723,102879,102749
 6.7000e+000 102951 -1.4236e+001 -2.4456e+001  4.2256e+000 32493 102749,102801,102775
 6.7000e+000 102928 -1.7006e+001 -2.5784e+001  4.7487e+000 32493 102749,102853,102801
 6.7000e+000 102905 -1.7923e+001 -2.7847e+001  4.9125e+000 32493 102801,102853,102827
 6.7000e+000 103454 -5.8416e+000 -1.2764e+001 -3.0112e+000 32089 103206,103336,103310
 6.7000e+000 103431 -3.8552e+000 -1.5984e+001 -1.0414e+000 32089 103180,103336,103206
 6.7000e+000 103408 -8.1176e+000 -1.7445e+001 -4.9482e+000 32089 103206,103284,103258
 6.7000e+000 103385 -1.4054e+001 -1.7996e+001 -6.1155e+000 32089 103206,103310,103284
 6.7000e+000 103362 -4.0697e+000 -8.8114e+000 -7.1624e+000 32089 103206,103258,103232
 6.7000e+000 103783 -2.1231e+001 -2.4102e+001 -2.6705e+000 31742 103558,103662,103584
 6.7000e+000 103760 -2.0259e+001 -2.4727e+001 -6.4306e+000 31742 103558,103688,103662
 6.7000e+000 103737 -1.2593e+001 -1.6176e+001 -6.8248e+000 31742 103584,103662,103636
 6.7000e+000 103714 -1.3605e+001 -2.0756e+001 -6.5858e+000 31742 103584,103636,103610
 6.7000e+000 104112 -1.9813e+000 -1.5507e+001  2.3944e+000 31402 103939,103991,103965
 6.7000e+000 104089 -4.0976e+000 -1.4433e+001  1.1804e+000 31402 103913,103991,103939
 6.7000e+000 104066 -5.2847e+000 -1.7831e+001 -1.0710e+000 31402 103913,104017,103991
 6.7000e+000 104043 -8.8441e+000 -1.4953e+001 -3.5571e+000 31402 103887,104017,103913
 6.7000e+000 104569 -2.1007e+001 -3.4373e+001  2.9053e+000 30998 104321,104425,104373
 6.7000e+000 104546 -2.0045e+001 -3.3189e+001  1.5807e+000 30998 104321,104451,104425
 6.7000e+000 104523 -1.2946e+001 -2.5610e+001  7.4573e+000 30998 104373,104425,104399
 6.7000e+000 104500 -1.4128e+001 -3.9755e+001 -1.6287e+000 30998 104295,104451,104321
 6.7000e+000 104477 -3.0980e+001 -4.2848e+001  1.3190e+001 30998 104321,104373,104347
 6.7000e+000 104947 -2.5311e+001 -3.4296e+001 -6.9915e+000 30608 104751,104803,104777
 6.7000e+000 104924 -1.3884e+001 -3.4731e+001 -2.7121e+000 30608 104725,104803,104751
 6.7000e+000 104901 -2.1000e+001 -3.3085e+001  1.4483e+000 30608 104699,104803,104725
 6.7000e+000 104878 -1.7982e+001 -3.1511e+001  8.4339e-001 30608 104673,104803,104699
 6.7000e+000 104855 -1.4476e+001 -3.0842e+001 -2.2007e+000 30608 104673,104829,104803
 6.7000e+000 105276 -1.5357e+001 -3.0125e+001  5.8243e-001 30204 105427,105129,105077
 6.7000e+000 105253 -9.3402e+000 -3.2589e+001  7.6506e+000 30204 105427,105077,105051
 6.7000e+000 105230 -1.2251e+001 -2.9847e+001  4.6444e-001 30204 105077,105129,105103
 6.7000e+000 105207 -3.6907e+000 -2.6124e+001  3.6957e+000 30204 105299,105181,105155
 6.7000e+000 105325 -7.3670e+000 -2.6508e+001 -2.9043e-001 30204 105129,105181,105299
 6.7000e+000 105453 -1.8985e+001 -3.2326e+001  2.9079e+000 30204 105181,105129,105427
 6.7000e+000 105476 -2.1773e+001 -3.8754e+001  1.0814e+001 30204 105181,105427,105051
 6.7000e+000 105903 -1.2136e+001 -2.7190e+001 -2.2287e+000 29700 105606,105762,105736
 6.7000e+000 105880 -1.5262e+001 -2.7859e+001 -1.1894e-001 29700 105580,105762,105606
 6.7000e+000 105857 -1.8802e+001 -3.4877e+001 -2.3756e+000 29700 105606,105710,105632
 6.7000e+000 105834 -1.5566e+001 -3.0185e+001 -8.5341e-001 29700 105606,105736,105710
 6.7000e+000 105811 -1.7160e+001 -3.3481e+001 -3.1790e+000 29700 105632,105710,105684
 6.7000e+000 105788 -1.6598e+001 -3.2112e+001 -2.4065e+000 29700 105632,105684,105658
 6.7000e+000 106102 -6.1654e+000 -3.3854e+001  5.3484e-001 29124 105978,106030,106004
 6.7000e+000 106079 -8.4078e+000 -3.1355e+001  1.4413e+000 29124 105926,106030,105978
 6.7000e+000 106056 -1.0091e+001 -3.6861e+001  3.4978e+000 29124 105926,105978,105952
 6.7000e+000 106301 -1.0174e+001 -3.4861e+001  2.9721e-001 28712 106151,106229,106203
 6.7000e+000 106278 -1.2438e+001 -3.8724e+001 -1.6434e+000 28712 106125,106229,106151
 6.7000e+000 106255 -1.0472e+001 -3.6375e+001  1.7858e+000 28712 106151,106203,106177
 6.7000e+000 106551 -9.6981e+000 -3.9674e+001  3.6555e+000 28258 106352,106404,106378
 6.7000e+000 106528 -1.4080e+001 -3.9943e+001  1.8604e+000 28258 106352,106456,106404
 6.7000e+000 106505 -1.5305e+001 -3.8785e+001  2.2870e+000 28258 106326,106456,106352
 6.7000e+000 106482 -1.1776e+001 -3.6462e+001  3.4350e-001 28258 106404,106456,106430
 6.7000e+000 107012 -1.6333e+001 -3.6624e+001  8.0173e+000 27818 107035,106790,106764
 6.7000e+000 106989 -1.3775e+001 -3.3224e+001  3.2725e+000 27818 107035,106764,106868
 6.7000e+000 106966 -9.4728e+000 -4.2985e+001  4.3545e+000 27818 107107,106842,106816
 6.7000e+000 106943 -1.7550e+001 -2.7642e+001  6.2592e-001 27818 106738,106868,106764
 6.7000e+000 106920 -1.8551e+001 -2.7618e+001  4.5904e+000 27818 106738,106894,106868
 6.7000e+000 107061 -8.3296e+000 -3.4433e+001  8.4603e+000 27818 106816,106790,107035
 6.7000e+000 107084 -1.3156e+001 -3.9043e+001  4.5837e+000 27818 107107,106816,107035
 6.7000e+000 107133 -7.0853e+000 -3.7575e+001  1.7953e+000 27818 106868,106842,107107
 6.7000e+000 107156 -1.0229e+001 -3.2221e+001  2.5219e+000 27818 106868,107107,107035
 6.7000e+000 107613 -6.0533e+000 -2.7480e+001  5.8102e+000 27312 107339,107469,107365
 6.7000e+000 107590 -2.3794e+000 -2.5971e+001  5.2594e+000 27312 107339,107495,107469
 6.7000e+000 107567 -6.9355e+000 -2.4986e+001  2.9088e+000 27312 107391,107469,107443
 6.7000e+000 107544 -2.1720e+000 -2.6626e+001  3.4100e+000 27312 107365,107469,107391
 6.7000e+000 107521 -1.6342e+001 -2.8649e+001  2.4059e+000 27312 107391,107443,107417
 6.7000e+000 107991 -9.3801e+000 -3.8354e+001  2.2115e+000 26858 108086,108014,107795
 6.7000e+000 107968 -1.0708e+001 -3.7378e+001  1.3248e-001 26858 108014,107717,107873
 6.7000e+000 107945 -1.2110e+001 -4.3665e+001  3.1730e+000 26858 108158,108086,107795
 6.7000e+000 107922 -8.1822e+000 -4.7656e+001  4.4889e+000 26858 108158,107795,107769
 6.7000e+000 107899 -9.3463e+000 -4.5809e+001  6.9250e+000 26858 107821,107873,107847
 6.7000e+000 108040 -1.0204e+001 -4.1491e+001  2.3304e+000 26858 107821,107795,108014
 6.7000e+000 108063 -7.3278e+000 -4.0100e+001  1.2304e+000 26858 107821,108014,107873
 6.7000e+000 108112 -1.3831e+001 -4.0062e+001  2.8859e+000 26858 107717,108014,108086
 6.7000e+000 108135 -1.1487e+001 -3.8495e+001  4.3307e+000 26858 107717,108086,107743
 6.7000e+000 108184 -8.3006e+000 -3.7762e+001  4.9629e+000 26858 107743,108086,108158
 6.7000e+000 108207 -5.5200e+000 -4.2544e+001  5.5059e+000 26858 107743,108158,107769
 6.7000e+000 108634 -1.7401e+001 -3.3646e+001  4.4245e-001 26404 108657,108415,108363
 6.7000e+000 108611 -2.0642e+001 -3.7941e+001  5.4674e+000 26404 108657,108363,108337
 6.7000e+000 108588 -1.8155e+001 -3.8609e+001  5.1685e+000 26404 108729,108311,108467
 6.7000e+000 108565 -1.6467e+001 -4.4664e+001  1.4066e+000 26404 108801,108441,108415
 6.7000e+000 108542 -2.6142e+001 -4.2129e+001  5.6488e+000 26404 108311,108493,108467
 6.7000e+000 108519 -1.0698e+001 -3.2807e+001  8.6997e-001 26404 108363,108415,108389
 6.7000e+000 108683 -2.3524e+001 -3.7581e+001  2.3606e+000 26404 108801,108415,108657
 6.7000e+000 108706 -2.3434e+001 -3.9030e+001  4.5914e+000 26404 108729,108467,108657
 6.7000e+000 108755 -1.5220e+001 -3.9657e+001  4.9682e+000 26404 108337,108311,108729
 6.7000e+000 108778 -1.7859e+001 -3.8124e+001  4.0373e+000 26404 108337,108729,108657
 6.7000e+000 108827 -2.3614e+001 -5.8198e+001 -2.6666e+000 26404 108467,108441,108801
 6.7000e+000 108850 -2.7563e+001 -4.6321e+001 -1.5746e+000 26404 108467,108801,108657
 6.7000e+000 109228 -1.9402e+001 -4.1316e+001 -1.4321e+000 26064 109006,109084,109058
 6.7000e+000 109205 -1.7125e+001 -3.8358e+001  1.5307e+000 26064 108980,109084,109006
 6.7000e+000 109182 -1.7692e+001 -3.6247e+001 -7.0107e-001 26064 108980,109110,109084
 6.7000e+000 109159 -1.8591e+001 -4.3249e+001  1.0223e-001 26064 109006,109058,109032
 6.7000e+000 109136 -6.6280e+000 -3.1446e+001  1.9907e+000 26064 108954,109110,108980
 6.7000e+000 109427 -3.8877e+000 -3.4891e+001 -8.9589e+000 25660 109303,109355,109329
 6.7000e+000 109404 -8.4503e+000 -4.3590e+001 -1.9114e+000 25660 109277,109355,109303
 6.7000e+000 109381 -7.0071e+000 -3.9310e+001 -1.3108e-001 25660 109251,109355,109277
 6.7000e+000 109577 -3.8202e+000 -9.3779e+000  3.4217e+000 25306 109476,109528,109502
 6.7000e+000 109554  8.1767e+000 -2.9417e+000  6.0930e+000 25306 109450,109528,109476
 6.7000e+000 109778 -1.4151e+001 -3.8253e+001  6.5733e-001 24944 109628,109706,109654
 6.7000e+000 109755 -1.5152e+001 -3.7124e+001 -2.4666e-001 24944 109602,109706,109628
 6.7000e+000 109732 -1.2327e+001 -3.5351e+001 -6.5370e-001 24944 109654,109706,109680
 6.7000e+000 110126 -5.8727e+000 -4.2431e+001  8.1168e-001 24440 110149,109907,109855
 6.7000e+000 110103 -2.6444e+000 -4.6426e+001  3.2871e+000 24440 110149,109855,109985
 6.7000e+000 110080 -3.6202e+000 -3.5233e+001  7.1358e-001 24440 109855,109907,109881
 6.7000e+000 110057 -2.4355e+000 -3.3381e+001  1.5897e+001 24440 109829,109985,109855
 6.7000e+000 110034 -5.0410e+000 -4.1597e+001  1.2199e+000 24440 109907,109959,109933
 6.7000e+000 110011  1.1128e+001 -3.1526e+001 -5.6626e-001 24440 109803,109985,109829
 6.7000e+000 110175 -4.1223e+000 -3.9951e+001  1.8933e+000 24440 109959,109907,110149
 6.7000e+000 110198  2.4496e-001 -4.2620e+001  4.7022e+000 24440 109959,110149,109985
 6.7000e+000 110301  1.9997e+000 -3.3612e+000  5.5463e+000 24028 110223,110275,110249
 6.7000e+000 110573 -5.9065e+000 -2.7744e+001  2.2836e+000 23467 110400,110452,110426
 6.7000e+000 110550 -9.9241e+000 -3.3929e+001  4.3647e-001 23467 110374,110452,110400
 6.7000e+000 110527 -1.1395e+001 -3.4548e+001  9.5351e-001 23467 110348,110452,110374
 6.7000e+000 110504 -8.0511e+000 -3.3344e+001  6.8837e-002 23467 110348,110478,110452
 6.7000e+000 111004 -2.0051e+001 -4.8788e+001 -8.2347e+000 22963 111027,110733,110707
 6.7000e+000 110981 -2.2217e+001 -4.6228e+001  2.5045e+000 22963 111027,110707,110681
 6.7000e+000 110958 -6.7015e+000 -3.5762e+001 -7.5768e+000 22963 111099,110759,110733
 6.7000e+000 110935 -1.7467e+001 -3.8397e+001 -5.3841e+000 22963 111171,110863,110811
 6.7000e+000 110912  4.1725e-001 -2.5172e+001 -1.0445e+001 22963 110759,110811,110785
 6.7000e+000 110889 -2.3559e+001 -4.5936e+001 -1.2641e+000 22963 110811,110863,110837
 6.7000e+000 111053 -1.7319e+001 -4.2880e+001 -3.8529e+000 22963 111099,110733,111027
 6.7000e+000 111076 -1.5892e+001 -4.1260e+001 -5.0176e+000 22963 111171,110811,111027
 6.7000e+000 111125 -6.2688e+000 -3.4303e+001 -1.3424e+001 22963 110811,110759,111099
 6.7000e+000 111148 -8.0120e+000 -3.3503e+001 -1.1200e+001 22963 110811,111099,111027
 6.7000e+000 111197 -1.6026e+001 -3.6393e+001 -4.7295e+000 22963 110681,110863,111171
 6.7000e+000 111220 -1.2772e+001 -3.7887e+001 -3.7182e+000 22963 110681,111171,111027
 6.7000e+000 111726 -2.4966e+001 -4.0025e+001 -1.2907e+000 22459 111749,111507,111429
 6.7000e+000 111703 -1.8975e+001 -3.7723e+001 -3.6827e+000 22459 111749,111429,111585
 6.7000e+000 111680 -1.2079e+001 -4.4112e+001 -2.3299e+000 22459 111403,111585,111429
 6.7000e+000 111657 -2.2300e+001 -4.6704e+001  2.2432e+000 22459 111507,111559,111533
 6.7000e+000 111634 -2.8372e+001 -3.7008e+001  2.7842e+000 22459 111455,111507,111481
 6.7000e+000 111611 -4.5604e+001 -4.2307e+001  6.1077e+000 22459 111429,111507,111455
 6.7000e+000 111775 -2.3500e+001 -4.4068e+001  3.5227e+000 22459 111559,111507,111749
 6.7000e+000 111798 -1.8435e+001 -4.0333e+001  9.9874e-001 22459 111559,111749,111585
 6.7000e+000 112046 -9.8815e+000 -3.6604e+001 -4.6065e+000 21898 112069,111925,111873
 6.7000e+000 112023 -9.2708e+000 -3.6484e+001 -6.6193e-001 21898 112069,111873,111847
 6.7000e+000 112000 -1.2243e+001 -3.5981e+001 -1.2951e+000 21898 111821,111951,111847
 6.7000e+000 111977 -1.1086e+001 -2.7911e+001 -2.6221e+000 21898 111873,111925,111899
 6.7000e+000 112095 -1.5443e+001 -3.8518e+001 -5.7474e+000 21898 111951,111925,112069
 6.7000e+000 112118 -1.2549e+001 -3.7571e+001 -1.9462e+000 21898 111951,112069,111847
 6.7000e+000 112498 -1.3521e+001 -3.7978e+001 -2.1847e+000 21608 112521,112276,112224
 6.7000e+000 112475 -8.1944e+000 -3.8736e+001  1.1982e+000 21608 112521,112224,112380
 6.7000e+000 112452 -8.5984e+000 -4.3543e+001  3.1492e+000 21608 112302,112380,112354
 6.7000e+000 112429 -1.8949e+001 -4.0882e+001  2.8145e-001 21608 112224,112276,112250
 6.7000e+000 112406  1.0321e+001 -5.0457e+001 -4.0348e+000 21608 112302,112354,112328
 6.7000e+000 112547 -9.1360e+000 -3.2577e+001  1.5973e-001 21608 112302,112276,112521
 6.7000e+000 112570 -5.7340e+000 -3.7106e+001  2.5868e+000 21608 112302,112521,112380
 6.7000e+000 112948 -2.0639e+001 -3.6897e+001 -2.3423e-003 20882 112971,112752,112700
 6.7000e+000 112925 -1.5383e+001 -3.5399e+001 -1.7987e+000 20882 112971,112700,112830
 6.7000e+000 112902 -2.4747e+001 -4.0126e+001  2.5193e+000 20882 112778,112830,112804
 6.7000e+000 112879 -1.3244e+001 -2.6736e+001 -1.8824e+000 20882 112674,112830,112700
 6.7000e+000 112856 -2.2025e+001 -3.8802e+001  6.1637e-001 20882 112700,112752,112726
 6.7000e+000 112997 -2.1065e+001 -3.7531e+001  2.8534e+000 20882 112778,112752,112971
 6.7000e+000 113020 -1.8007e+001 -3.6882e+001  9.8667e-001 20882 112778,112971,112830
 6.7000e+000 113526 -7.9715e+000 -3.6588e+001  2.1918e-003 20428 113255,113385,113333
 6.7000e+000 113503 -7.7470e+000 -3.6035e+001  4.7426e-002 20428 113229,113385,113255
 6.7000e+000 113480  4.7281e+000 -3.4178e+001  8.7059e-001 20428 113255,113333,113281
 6.7000e+000 113457 -6.6229e+000 -3.1311e+001  2.4751e+000 20428 113203,113385,113229
 6.7000e+000 113434 -2.9117e+000 -3.6542e+001 -1.6016e+000 20428 113281,113333,113307
 6.7000e+000 113411 -1.1174e+001 -3.3551e+001  4.7437e-001 20428 113333,113385,113359
 6.7000e+000 113774 -2.6950e+000 -3.9679e+001  2.1596e+000 19917 113797,113601,113549
 6.7000e+000 113751 -6.6011e+000 -3.9542e+001  2.3192e+000 19917 113869,113797,113549
 6.7000e+000 113728 -6.3015e+000 -3.9905e+001  3.8212e+000 19917 113869,113549,113679
 6.7000e+000 113705 -5.4336e+000 -4.1119e+001  4.8669e+000 19917 113549,113601,113575
 6.7000e+000 113823 -7.0626e+000 -5.0193e+001  5.0954e-001 19917 113627,113601,113797
 6.7000e+000 113846 -2.4370e+000 -3.8060e+001 -2.7475e-001 19917 113627,113797,113653
 6.7000e+000 113895 -5.7538e+000 -3.6093e+001  1.4198e+000 19917 113653,113797,113869
 6.7000e+000 113918 -6.6286e+000 -3.6914e+001  3.3114e+000 19917 113653,113869,113679
 6.7000e+000 114166 -1.8149e+001 -3.8599e+001 -1.1336e+000 19413 113993,114045,114019
 6.7000e+000 114143 -1.3471e+001 -3.5608e+001  2.6246e-001 19413 113967,114045,113993
 6.7000e+000 114120 -1.3541e+001 -3.5849e+001  1.9683e+000 19413 113967,114071,114045
 6.7000e+000 114097 -8.2438e+000 -4.1779e+001 -1.5410e+000 19413 113941,114071,113967
 6.7000e+000 114438 -1.6702e+001 -4.5860e+001  6.4965e-001 19001 114213,114265,114239
 6.7000e+000 114415 -1.1635e+001 -3.4936e+001 -8.0757e-001 19001 114213,114343,114265
 6.7000e+000 114392 -1.7877e+001 -4.8903e+001 -2.0589e+000 19001 114265,114343,114317
 6.7000e+000 114369  3.3921e+000 -3.9757e+001 -7.9474e-001 19001 114265,114317,114291
 6.7000e+000 114639 -1.2120e+001 -5.4169e+001  2.7778e+000 18554 114489,114541,114515
 6.7000e+000 114616 -1.0762e+001 -4.6655e+001  5.6538e-001 18554 114489,114567,114541
 6.7000e+000 114593 -2.4015e+001 -5.2192e+001 -3.2118e+000 18554 114463,114567,114489
 6.7000e+000 115043 -4.6182e+000 -3.6768e+001  1.5025e+000 18164 114795,114925,114821
 6.7000e+000 115020 -2.9419e+000 -3.8540e+001  2.7313e+000 18164 114769,114925,114795
 6.7000e+000 114997 -5.8143e-001 -3.8755e+001 -7.8652e-001 18164 115066,114873,114821
 6.7000e+000 114974  6.5732e-003 -3.2736e+001 -1.6465e+000 18164 115066,114821,114925
 6.7000e+000 114951  1.2913e+001 -3.7846e+001 -6.0684e+000 18164 114821,114873,114847
 6.7000e+000 115092 -2.9522e+000 -3.4443e+001 -3.9660e+000 18164 114899,114873,115066
 6.7000e+000 115115  2.3027e-003 -2.5239e+001 -5.0828e+000 18164 114899,115066,114925
 6.7000e+000 115265 -2.5911e+000 -3.3410e+001  1.2183e+000 17852 115164,115216,115190
 6.7000e+000 115242 -5.2951e+000 -3.9157e+001 -8.8747e-002 17852 115138,115216,115164
 6.7000e+000 115464 -3.4903e+001 -6.8980e+001  6.3579e-001 17346 115288,115366,115340
 6.7000e+000 115441 -4.5919e+001 -5.0322e+001 -4.0745e+000 17346 115288,115392,115366
 6.7000e+000 115418 -2.6832e+001 -7.6278e+001 -2.0984e+000 17346 115288,115340,115314
 6.7000e+000 115736 -3.6529e+000 -3.3448e+001  1.5802e+000 16942 115563,115641,115615
 6.7000e+000 115713 -4.7256e+000 -3.2809e+001  5.2204e-001 16942 115511,115641,115563
 6.7000e+000 115690 -2.3141e+001 -4.0578e+001  3.6857e+000 16942 115563,115615,115589
 6.7000e+000 115667 -6.9097e+000 -3.6905e+001  1.3827e+000 16942 115511,115563,115537
 6.7000e+000 116091 -2.2453e+001 -5.0366e+001 -7.2086e-001 16388 115918,115970,115944
 6.7000e+000 116068 -2.1403e+001 -4.2258e+001 -1.1135e+000 16388 115918,115996,115970
 6.7000e+000 116045 -2.8934e+001 -5.1217e+001  2.1126e+000 16388 115892,115996,115918
 6.7000e+000 116022 -1.7084e+001 -4.4191e+001  7.6274e+000 16388 115866,115996,115892
 6.7000e+000 116192  3.1098e+000 -4.5897e+001 -8.3943e+000 15810 116114,116166,116140
 6.7000e+000 116342 -1.8922e+001 -6.1623e+001  3.1718e+000 15419 116241,116293,116267
 6.7000e+000 116319 -2.6866e+001 -7.4604e+001 -1.9914e+000 15419 116215,116293,116241
 6.7000e+000 116445 -2.0065e+001 -3.6651e+001 -1.6127e+000 421 116367,116419,116393
 6.8000e+000 68477 -2.2258e+001 -2.5407e+001 -9.8572e-002 68018 68327,68379,68353
 6.8000e+000 68454 -2.4480e+001 -3.3333e+001  2.3362e+000 68018 68301,68379,68327
 6.8000e+000 68431 -2.0227e+001 -4.0342e+001  3.8360e+000 68018 68301,68405,68379
 6.8000e+000 68578 -1.6901e+001 -2.3079e+001 -1.1077e-001 67820 68500,68552,68526
 6.8000e+000 68728 -1.6784e+001 -2.1799e+001 -5.5842e-001 67508 68601,68653,68627
 6.8000e+000 68705 -2.2054e+001 -1.7727e+001 -2.6386e+000 67508 68601,68679,68653
 6.8000e+000 68927 -1.3493e+001 -2.8595e+001 -1.8397e-001 67310 68777,68829,68803
 6.8000e+000 68904 -1.5433e+001 -3.4087e+001  8.6906e-001 67310 68751,68829,68777
 6.8000e+000 68881 -1.5394e+001 -3.7681e+001  1.6160e+000 67310 68751,68855,68829
 6.8000e+000 69386 -1.3581e+001 -2.7144e+001 -4.0367e-001 67020 69216,69268,69242
 6.8000e+000 69363 -1.3853e+001 -2.1874e+001 -2.6972e+000 67020 69138,69268,69216
 6.8000e+000 69340 -1.0815e+001 -2.3024e+001 -4.3013e+000 67020 69112,69268,69138
 6.8000e+000 69317 -1.9044e+001 -2.4062e+001  8.2988e-001 67020 69138,69190,69164
 6.8000e+000 69294 -1.8700e+001 -2.1479e+001 -7.1842e-001 67020 69138,69216,69190
 6.8000e+000 69536 -1.7134e+001 -3.8070e+001 -3.1827e+000 66708 69435,69487,69461
 6.8000e+000 69513 -1.1511e+001 -4.3430e+001 -2.6626e-001 66708 69409,69487,69435
 6.8000e+000 69735 -1.3951e+001 -2.1024e+001  4.3723e-001 66346 69585,69637,69611
 6.8000e+000 69712 -1.1724e+001 -1.8616e+001 -4.8781e-001 66346 69559,69637,69585
 6.8000e+000 69689 -1.1785e+001 -2.0492e+001 -2.3913e+000 66346 69559,69663,69637
 6.8000e+000 69985 -2.7679e+001 -3.6138e+001  5.4094e-001 66148 69786,69890,69864
 6.8000e+000 69962 -2.9088e+001 -3.6762e+001  6.5947e-001 66148 69760,69890,69786
 6.8000e+000 69939 -2.3972e+001 -3.4433e+001 -3.0459e+000 66148 69786,69864,69838
 6.8000e+000 69916 -2.7006e+001 -3.7217e+001  6.7119e-001 66148 69786,69838,69812
 6.8000e+000 70137 -1.0963e+001 -4.1191e+001 -1.5864e+000 65950 70036,70088,70062
 6.8000e+000 70114 -9.8612e+000 -4.5865e+001  2.9252e+000 65950 70010,70088,70036
 6.8000e+000 70470 -1.0408e+001 -3.1868e+001  1.3692e+000 65546 70245,70323,70271
 6.8000e+000 70447 -9.8624e+000 -3.2163e+001  4.8099e-001 65546 70245,70375,70323
 6.8000e+000 70424 -9.6769e+000 -3.7887e+001  1.5912e+000 65546 70323,70375,70349
 6.8000e+000 70401 -1.2278e+001 -3.1499e+001  8.4411e-001 65546 70271,70323,70297
 6.8000e+000 70620 -1.9408e+001 -3.4035e+001  1.0293e+000 65348 70493,70545,70519
 6.8000e+000 70597 -1.6302e+001 -3.5756e+001  1.1804e+000 65348 70493,70571,70545
 6.8000e+000 70721 -2.9241e+001 -4.8770e+001 -6.1081e-001 65150 70643,70695,70669
 6.8000e+000 71020 -1.6529e+001 -3.0731e+001  1.0627e+000 64952 71043,70850,70824
 6.8000e+000 70997 -1.4762e+001 -2.8703e+001 -8.3449e-001 64952 71043,70824,70772
 6.8000e+000 70974 -1.5163e+001 -3.9122e+001  1.3366e+000 64952 71115,70746,70876
 6.8000e+000 70951 -1.6457e+001 -4.0108e+001  7.9200e-001 64952 70746,70902,70876
 6.8000e+000 70928 -1.7011e+001 -2.7627e+001 -1.7779e+000 64952 70772,70824,70798
 6.8000e+000 71069 -1.1188e+001 -2.7105e+001  4.5203e+000 64952 70876,70850,71043
 6.8000e+000 71092 -1.4715e+001 -3.5770e+001  1.5504e+000 64952 71115,70876,71043
 6.8000e+000 71141 -1.8054e+001 -3.5277e+001 -1.6604e+000 64952 70772,70746,71115
 6.8000e+000 71164 -1.6426e+001 -3.0242e+001 -1.5280e+000 64952 70772,71115,71043
 6.8000e+000 71365 -6.3083e+000 -4.0974e+001 -1.2911e+000 64662 71215,71293,71267
 6.8000e+000 71342  2.0964e+000 -2.8120e+001 -5.6689e+000 64662 71189,71293,71215
 6.8000e+000 71319  3.0271e-001 -2.4935e+001 -3.2835e-001 64662 71215,71267,71241
 6.8000e+000 71615 -1.6238e+001 -2.9251e+001  3.9865e-001 64350 71710,71638,71468
 6.8000e+000 71592 -1.4723e+001 -2.7916e+001 -7.5496e-001 64350 71638,71416,71390
 6.8000e+000 71569 -1.7252e+001 -2.7216e+001  2.2083e+000 64350 71710,71468,71442
 6.8000e+000 71546 -9.0531e+000 -2.8165e+001 -1.6823e+000 64350 71390,71520,71494
 6.8000e+000 71664 -1.4460e+001 -2.8434e+001  1.6421e-001 64350 71494,71468,71638
 6.8000e+000 71687 -1.4732e+001 -2.9179e+001  8.0644e-002 64350 71494,71638,71390
 6.8000e+000 71736 -1.4172e+001 -2.4936e+001 -2.2741e-001 64350 71416,71638,71710
 6.8000e+000 71759 -1.5605e+001 -2.3451e+001  1.9603e+000 64350 71416,71710,71442
 6.8000e+000 72318 -1.6070e+001 -4.3346e+001 -6.7230e-001 63837 71972,72024,71998
 6.8000e+000 72295 -1.7340e+001 -2.9815e+001  5.1428e-001 63837 72341,71972,71946
 6.8000e+000 72272 -1.6183e+001 -2.4941e+001  1.3881e+000 63837 72413,72341,71946
 6.8000e+000 72249 -1.6678e+001 -2.3022e+001  9.1073e-001 63837 72413,71946,72128
 6.8000e+000 72226 -1.9463e+001 -2.5799e+001  1.1359e+000 63837 72024,72076,72050
 6.8000e+000 72203 -1.8435e+001 -2.3560e+001 -1.4826e-001 63837 72024,72102,72076
 6.8000e+000 72180 -1.4459e+001 -2.2153e+001  1.0782e+000 63837 71946,72154,72128
 6.8000e+000 72367 -1.9299e+001 -3.1468e+001 -3.9130e+000 63837 72024,71972,72341
 6.8000e+000 72390 -1.6528e+001 -2.6188e+001 -1.7751e+000 63837 72024,72341,72102
 6.8000e+000 72439 -1.5755e+001 -2.8110e+001  5.6844e-001 63837 72102,72341,72413
 6.8000e+000 72462 -1.6006e+001 -2.5913e+001  3.6144e-001 63837 72102,72413,72128
 6.8000e+000 72791 -2.1726e+001 -3.1214e+001 -3.3546e+000 63383 72592,72696,72670
 6.8000e+000 72768 -2.2304e+001 -3.0964e+001 -4.7855e+000 63383 72566,72696,72592
 6.8000e+000 72745 -2.0821e+001 -2.7994e+001 -9.5915e-001 63383 72592,72670,72618
 6.8000e+000 72722 -2.0250e+001 -2.5291e+001 -1.8730e+000 63383 72618,72670,72644
 6.8000e+000 73297 -2.0935e+001 -2.5989e+001  1.1226e-001 63185 73000,73156,73130
 6.8000e+000 73274 -2.0667e+001 -2.5835e+001  2.7469e+000 63185 72974,73156,73000
 6.8000e+000 73251 -1.8684e+001 -3.1263e+001  5.5821e-001 63185 73000,73052,73026
 6.8000e+000 73228 -1.9120e+001 -2.6798e+001 -7.8799e-001 63185 73000,73130,73052
 6.8000e+000 73205 -1.9480e+001 -3.1150e+001 -3.7948e+000 63185 73052,73130,73104
 6.8000e+000 73182 -1.7947e+001 -3.4511e+001 -3.9069e+000 63185 73052,73104,73078
 6.8000e+000 73545 -1.1521e+001 -3.2739e+001  4.3906e-001 62781 73568,73398,73372
 6.8000e+000 73522 -8.5090e+000 -3.1502e+001  2.6803e+000 62781 73568,73372,73346
 6.8000e+000 73499 -1.4629e+001 -3.7554e+001 -3.4493e+000 62781 73640,73320,73424
 6.8000e+000 73476 -1.4394e+001 -2.8389e+001 -5.6758e+000 62781 73320,73450,73424
 6.8000e+000 73594 -1.1792e+001 -3.2292e+001  4.1262e-001 62781 73424,73398,73568
 6.8000e+000 73617 -1.2917e+001 -3.5923e+001 -5.4429e-001 62781 73640,73424,73568
 6.8000e+000 73666 -1.2942e+001 -3.4040e+001 -1.0097e+000 62781 73346,73320,73640
 6.8000e+000 73689 -1.1847e+001 -3.1374e+001  1.6398e+000 62781 73346,73640,73568
 6.8000e+000 74035 -1.3379e+001 -2.2747e+001 -1.4555e+000 62363 74058,73868,73842
 6.8000e+000 74012 -1.0506e+001 -2.0205e+001 -2.8805e+000 62363 74130,74058,73842
 6.8000e+000 73989 -9.5528e+000 -2.0346e+001 -3.6864e+000 62363 74130,73842,73816
 6.8000e+000 73966 -1.3907e+001 -2.3819e+001  2.1202e-001 62363 74202,73764,73894
 6.8000e+000 73943 -1.7608e+001 -2.1974e+001  1.5923e-001 62363 73712,73894,73764
 6.8000e+000 73920 -1.7759e+001 -2.4179e+001  6.1057e-001 62363 73712,73764,73738
 6.8000e+000 74084 -1.1729e+001 -2.2640e+001 -8.9050e-001 62363 73894,73868,74058
 6.8000e+000 74107 -1.3561e+001 -2.3082e+001  3.0193e-001 62363 74202,73894,74058
 6.8000e+000 74156 -1.1939e+001 -2.1714e+001 -1.4050e-001 62363 73790,74058,74130
 6.8000e+000 74179 -8.2313e+000 -2.0988e+001 -7.7419e-001 62363 73790,74130,73816
 6.8000e+000 74228 -1.4120e+001 -2.3924e+001 -8.7213e-001 62363 73790,73764,74202
 6.8000e+000 74251 -1.3729e+001 -2.3048e+001 -8.0391e-001 62363 73790,74202,74058
 6.8000e+000 74403 -4.2246e+000 -2.3844e+001  9.3136e-001 62115 74426,74302,74276
 6.8000e+000 74380 -3.5441e+000 -2.2768e+001  1.2304e+000 62115 74426,74276,74354
 6.8000e+000 74452 -5.0551e+000 -2.2730e+001  7.4969e-001 62115 74328,74302,74426
 6.8000e+000 74475 -4.3760e+000 -2.1619e+001  1.0423e+000 62115 74328,74426,74354
 6.8000e+000 74578 -3.7942e-001 -2.9287e+001 -6.7318e-002 61825 74500,74552,74526
 6.8000e+000 74982 -1.2327e+001 -1.9284e+001 -4.9626e-001 61513 75005,74734,74708
 6.8000e+000 74959 -1.3656e+001 -1.7948e+001 -7.1287e-001 61513 75005,74708,74864
 6.8000e+000 74936 -1.8075e+001 -1.8901e+001  1.5779e+000 61513 75077,74812,74734
 6.8000e+000 74913 -1.0349e+001 -1.1806e+001 -1.1694e+000 61513 74734,74786,74760
 6.8000e+000 74890 -1.0504e+001 -1.2918e+001 -1.8256e+000 61513 74734,74812,74786
 6.8000e+000 75031 -1.2643e+001 -1.9220e+001 -5.6880e-001 61513 75077,74734,75005
 6.8000e+000 75054 -1.1144e+001 -1.9529e+001  2.6753e+000 61513 74838,75005,74864
 6.8000e+000 75103 -2.1387e+001 -2.1168e+001  6.2807e+000 61513 74838,74812,75077
 6.8000e+000 75126 -1.7859e+001 -2.2913e+001  4.2043e+000 61513 74838,75077,75005
 6.8000e+000 75553 -1.0325e+001 -1.8621e+001 -1.3291e+000 61060 75576,75360,75308
 6.8000e+000 75530 -9.0685e+000 -2.0813e+001 -8.5576e-001 61060 75576,75308,75230
 6.8000e+000 75507 -9.7981e+000 -1.8286e+001 -1.1411e+000 61060 75308,75360,75334
 6.8000e+000 75484 -1.0392e+001 -2.3671e+001 -3.9291e-001 61060 75230,75308,75256
 6.8000e+000 75461 -1.0508e+001 -2.3063e+001 -7.7257e-001 61060 75256,75308,75282
 6.8000e+000 75438 -1.1983e+001 -1.8589e+001  1.0552e+000 61060 75360,75412,75386
 6.8000e+000 75602 -1.0698e+001 -2.0128e+001 -4.6135e-001 61060 75412,75360,75576
 6.8000e+000 75625 -9.9405e+000 -2.3200e+001 -9.7816e-002 61060 75412,75576,75230
 6.8000e+000 76052 -1.4417e+001 -2.2154e+001  2.6750e-001 60442 75755,75859,75833
 6.8000e+000 76029 -1.4252e+001 -2.1402e+001 -5.0109e-001 60442 75729,75859,75755
 6.8000e+000 76006 -1.4693e+001 -2.0462e+001  1.2050e+000 60442 75755,75833,75807
 6.8000e+000 75983 -1.6652e+001 -2.3889e+001  1.4392e-001 60442 75755,75807,75781
 6.8000e+000 75960 -8.6442e+000 -3.7324e+001  2.5872e+000 60442 75729,75911,75859
 6.8000e+000 75937 -2.5235e+001 -8.5073e+001  6.7359e+000 60442 75859,75911,75885
 6.8000e+000 76430 -1.5645e+001 -3.6212e+001 -3.4463e-001 59788 76453,76286,76234
 6.8000e+000 76407 -1.6923e+001 -4.0719e+001  9.1311e-001 59788 76453,76234,76182
 6.8000e+000 76384 -1.6652e+001 -2.9948e+001  4.3755e+000 59788 76525,76156,76312
 6.8000e+000 76361 -1.1246e+001 -4.7528e+001  7.8650e-002 59788 76182,76234,76208
 6.8000e+000 76338 -1.2522e+001 -3.3945e+001  6.6571e-001 59788 76234,76286,76260
 6.8000e+000 76479 -1.7539e+001 -3.8659e+001  1.1789e+000 59788 76312,76286,76453
 6.8000e+000 76502 -1.5756e+001 -3.7187e+001  2.2756e+000 59788 76525,76312,76453
 6.8000e+000 76551 -1.9587e+001 -3.9078e+001  4.4766e+000 59788 76182,76156,76525
 6.8000e+000 76574 -1.7861e+001 -4.1255e+001  3.0242e+000 59788 76182,76525,76453
 6.8000e+000 77031 -1.0678e+001 -2.4234e+001 -2.6540e+000 59448 76835,76887,76861
 6.8000e+000 77008 -5.5400e+000 -1.9291e+001  6.1833e-001 59448 76835,76913,76887
 6.8000e+000 76985 -7.9164e+000 -1.6277e+001  3.8100e+000 59448 76809,76913,76835
 6.8000e+000 76962 -1.4989e+001 -2.1077e+001 -7.8467e-001 59448 76757,76913,76809
 6.8000e+000 76939 -1.4252e+001 -2.0109e+001 -1.1066e+000 59448 76757,76809,76783
 6.8000e+000 77537 -8.8707e+000 -1.9261e+001  5.1011e-001 58994 77560,77344,77292
 6.8000e+000 77514 -1.3875e+001 -1.6968e+001 -6.0150e-002 58994 77560,77292,77240
 6.8000e+000 77491 -6.5752e+000 -1.4388e+001 -1.4167e+000 58994 77632,77214,77370
 6.8000e+000 77468 -1.4156e+001 -2.1931e+001  4.8695e+000 58994 77292,77344,77318
 6.8000e+000 77445 -6.9867e+000 -1.7377e+001 -6.2997e-001 58994 77214,77396,77370
 6.8000e+000 77422 -1.5521e+001 -1.9607e+001  1.4862e+000 58994 77240,77292,77266
 6.8000e+000 77586 -1.0289e+001 -1.8064e+001  4.6079e-001 58994 77370,77344,77560
 6.8000e+000 77609 -9.9759e+000 -1.6363e+001  1.2256e+000 58994 77632,77370,77560
 6.8000e+000 77658 -4.6856e+000 -1.2271e+001 -4.6561e+000 58994 77240,77214,77632
 6.8000e+000 77681 -7.3155e+000 -1.2105e+001 -2.2891e+000 58994 77240,77632,77560
 6.8000e+000 78138 -1.2494e+001 -1.8627e+001  1.9126e+000 58440 77864,77994,77890
 6.8000e+000 78115 -1.1904e+001 -1.4885e+001 -4.3577e-001 58440 77864,78020,77994
 6.8000e+000 78092 -1.5799e+001 -2.1484e+001 -2.1184e+000 58440 77942,77994,77968
 6.8000e+000 78069 -1.3135e+001 -2.0361e+001  5.5202e-001 58440 77890,77994,77942
 6.8000e+000 78046 -1.0884e+001 -2.1174e+001 -1.1664e+000 58440 77890,77942,77916
 6.8000e+000 78467 -4.6912e+000 -1.9385e+001 -1.2685e+000 57928 78562,78490,78346
 6.8000e+000 78444 -7.9852e+000 -1.8383e+001 -4.0976e-001 57928 78490,78294,78268
 6.8000e+000 78421 -3.5538e+000 -2.0805e+001 -2.5500e-001 57928 78562,78346,78320
 6.8000e+000 78398 -5.8176e+000 -1.6653e+001 -3.2382e-001 57928 78242,78372,78268
 6.8000e+000 78516 -8.0669e+000 -2.2780e+001 -2.6888e+000 57928 78372,78346,78490
 6.8000e+000 78539 -7.6437e+000 -1.8693e+001 -1.0937e+000 57928 78372,78490,78268
 6.8000e+000 78588 -8.5780e+000 -2.0315e+001 -1.0842e+000 57928 78294,78490,78562
 6.8000e+000 78611 -6.1660e+000 -2.0629e+001  3.6529e-001 57928 78294,78562,78320
 6.8000e+000 79068 -2.0851e+001 -4.1853e+001 -1.0507e+001 57467 78794,78924,78820
 6.8000e+000 79045 -1.7992e+001 -4.0291e+001 -9.2725e+000 57467 78794,78950,78924
 6.8000e+000 79022 -9.3130e+000 -3.8133e+001  3.8982e+000 57467 78820,78898,78872
 6.8000e+000 78999 -1.6801e+001 -5.3661e+001 -5.9265e+000 57467 78820,78924,78898
 6.8000e+000 78976 -7.9457e+000 -3.8923e+001  5.8383e+000 57467 78820,78872,78846
 6.8000e+000 79446 -1.5127e+001 -2.4491e+001 -1.0977e+000 57120 79172,79302,79250
 6.8000e+000 79423 -1.6305e+001 -2.4983e+001 -1.4539e+000 57120 79172,79328,79302
 6.8000e+000 79400 -1.5317e+001 -2.2889e+001 -1.3587e+000 57120 79172,79250,79198
 6.8000e+000 79377 -1.3392e+001 -2.9448e+001 -6.6905e-001 57120 79250,79302,79276
 6.8000e+000 79354 -1.7531e+001 -2.6105e+001 -3.3818e+000 57120 79198,79250,79224
 6.8000e+000 79952 -2.2871e+001 -3.5530e+001  4.9367e-001 56773 79629,79785,79655
 6.8000e+000 79929 -9.1083e+000 -3.1122e+001  1.5366e+000 56773 79629,79811,79785
 6.8000e+000 79906 -1.7706e+001 -3.8257e+001  2.5526e+000 56773 79655,79733,79681
 6.8000e+000 79883 -1.8167e+001 -3.4544e+001  8.6645e-001 56773 79655,79785,79733
 6.8000e+000 79860 -1.6909e+001 -4.5672e+001 -5.5506e+000 56773 79733,79785,79759
 6.8000e+000 79837 -1.0517e+001 -3.4802e+001  7.9869e+000 56773 79681,79733,79707
 6.8000e+000 80281 -1.3067e+001 -2.0300e+001 -2.4940e+000 56319 80108,80160,80134
 6.8000e+000 80258 -1.1644e+001 -2.2571e+001 -2.4457e+000 56319 80056,80160,80108
 6.8000e+000 80235 -9.4477e+000 -2.0859e+001  3.2976e-001 56319 80056,80186,80160
 6.8000e+000 80212 -1.2154e+001 -2.6617e+001 -2.6376e+000 56319 80056,80108,80082
 6.8000e+000 80738 -7.7202e+000 -3.0870e+001  1.4225e+000 55957 80516,80620,80594
 6.8000e+000 80715 -1.4308e+001 -2.7135e+001  1.2790e+000 55957 80464,80620,80516
 6.8000e+000 80692 -1.2661e+001 -3.3836e+001  1.5251e+000 55957 80761,80568,80542
 6.8000e+000 80669 -1.1756e+001 -3.3251e+001  1.7934e+000 55957 80761,80542,80516
 6.8000e+000 80646 -1.4571e+001 -2.7599e+001  3.4396e+000 55957 80464,80516,80490
 6.8000e+000 80787 -1.3683e+001 -3.3567e+001  1.1090e+000 55957 80594,80568,80761
 6.8000e+000 80810 -1.2821e+001 -3.2993e+001  1.3792e+000 55957 80594,80761,80516
 6.8000e+000 81210 -1.2975e+001 -3.5611e+001 -1.5975e+000 55317 80936,80988,80962
 6.8000e+000 81187 -1.1874e+001 -3.6926e+001  2.5280e-001 55317 80936,81066,80988
 6.8000e+000 81164 -9.8812e+000 -3.9960e+001  1.1555e+000 55317 80936,81092,81066
 6.8000e+000 81141 -1.6312e+001 -3.9890e+001 -3.4537e+000 55317 80988,81066,81014
 6.8000e+000 81118 -3.6714e+000 -2.0802e+001  3.3113e+000 55317 81014,81066,81040
 6.8000e+000 81539 -1.2944e+001 -2.3091e+001 -7.7749e-001 54913 81340,81418,81392
 6.8000e+000 81516 -7.3495e+000 -2.1664e+001 -1.9262e+000 54913 81340,81444,81418
 6.8000e+000 81493 -9.7605e+000 -2.3428e+001 -4.2507e+000 54913 81314,81444,81340
 6.8000e+000 81470 -1.6820e+001 -2.6216e+001 -2.2678e+000 54913 81340,81392,81366
 6.8000e+000 81787 -1.0413e+001 -2.8484e+001 -8.8950e-001 54601 81588,81692,81640
 6.8000e+000 81764 -1.4707e+001 -2.9203e+001 -1.8719e+000 54601 81562,81692,81588
 6.8000e+000 81741 -9.8819e+000 -2.9183e+001  2.5332e+000 54601 81588,81640,81614
 6.8000e+000 81718 -1.0526e+001 -3.3923e+001 -3.8462e+000 54601 81640,81692,81666
 6.8000e+000 82344 -8.6221e+000 -1.9238e+001 -6.1385e-001 54090 81998,82102,82076
 6.8000e+000 82321 -1.1138e+001 -2.0329e+001 -3.5007e-001 54090 81998,82154,82102
 6.8000e+000 82298 -9.4538e+000 -2.0974e+001 -3.3664e-001 54090 81972,82154,81998
 6.8000e+000 82275 -9.9093e+000 -1.6660e+001 -1.3507e+000 54090 81998,82076,82024
 6.8000e+000 82252 -1.1639e+001 -2.2496e+001  1.0742e+000 54090 81972,82180,82154
 6.8000e+000 82229 -1.5627e+001 -2.6543e+001  1.8546e+000 54090 82102,82154,82128
 6.8000e+000 82206 -2.7538e+000 -1.5534e+001  3.0096e-001 54090 82024,82076,82050
 6.8000e+000 82722 -2.1382e+001 -3.5757e+001 -9.7421e-001 53579 82500,82578,82552
 6.8000e+000 82699 -1.7874e+001 -3.2493e+001  4.9168e-001 53579 82448,82578,82500
 6.8000e+000 82676 -1.9850e+001 -3.5874e+001  1.3001e+000 53579 82448,82500,82474
 6.8000e+000 82653 -2.0634e+001 -3.4161e+001  2.5253e+000 53579 82448,82604,82578
 6.8000e+000 82630 -1.3569e+001 -3.2480e+001 -1.2468e-001 53579 82500,82552,82526
 6.8000e+000 83356 -1.2919e+001 -2.9814e+001 -2.4165e+000 53189 83379,83088,83036
 6.8000e+000 83333 -1.2714e+001 -3.3341e+001 -2.2092e+000 53189 83379,83036,82984
 6.8000e+000 83310 -5.7042e+000 -3.0662e+001  4.9061e+000 53189 82984,83192,83166
 6.8000e+000 83287 -3.8543e+000 -2.5444e+001 -1.0746e+000 53189 83036,83088,83062
 6.8000e+000 83264 -8.9306e+000 -3.7200e+001 -5.7507e+000 53189 82984,83036,83010
 6.8000e+000 83241 -8.9772e+000 -3.7045e+001  1.5234e+000 53189 83114,83166,83140
 6.8000e+000 83218 -1.7887e+001 -3.9714e+001  1.6207e+000 53189 83088,83166,83114
 6.8000e+000 83405 -1.2847e+001 -3.2186e+001 -9.4738e-001 53189 83166,83088,83379
 6.8000e+000 83428 -1.2144e+001 -3.5309e+001 -9.5705e-001 53189 83166,83379,82984
 6.8000e+000 83725 -9.6623e+000 -2.8698e+001 -5.1655e+000 52585 83748,83529,83503
 6.8000e+000 83702 -7.1106e+000 -2.7999e+001 -3.7945e+000 52585 83820,83748,83503
 6.8000e+000 83679 -4.8896e+000 -2.5339e+001 -2.6283e+000 52585 83820,83503,83477
 6.8000e+000 83656 -5.0016e+000 -2.1206e+001  8.6228e-001 52585 83477,83607,83581
 6.8000e+000 83633 -2.4309e+000 -1.9927e+001  1.6285e+000 52585 83451,83607,83477
 6.8000e+000 83774 -8.0549e+000 -2.4651e+001 -4.6913e+000 52585 83555,83529,83748
 6.8000e+000 83797 -1.1879e+001 -2.6608e+001 -3.8483e+000 52585 83555,83748,83581
 6.8000e+000 83846 -9.1946e+000 -2.3646e+001 -2.4856e+000 52585 83581,83748,83820
 6.8000e+000 83869 -8.1418e+000 -2.1965e+001 -1.6788e+000 52585 83581,83820,83477
 6.8000e+000 84200 -8.4497e+000 -2.5484e+001 -1.5856e+000 52024 84001,84105,84079
 6.8000e+000 84177 -5.8622e+000 -2.4551e+001 -1.6344e+000 52024 83975,84105,84001
 6.8000e+000 84154 -6.6698e+000 -2.5171e+001 -1.5198e+000 52024 84001,84079,84053
 6.8000e+000 84131 -3.7630e+000 -1.7637e+001  1.6225e+000 52024 84001,84053,84027
 6.8000e+000 84399 -1.0130e+001 -2.3082e+001 -1.1674e+000 51470 84422,84275,84249
 6.8000e+000 84376 -1.0823e+001 -2.5860e+001 -1.7456e+000 51470 84422,84249,84223
 6.8000e+000 84353 -1.0576e+001 -2.9983e+001 -4.4344e+000 51470 84275,84327,84301
 6.8000e+000 84448 -9.2814e+000 -2.5574e+001 -9.2381e-001 51470 84327,84275,84422
 6.8000e+000 84471 -9.5697e+000 -2.7807e+001 -1.4983e+000 51470 84327,84422,84223
 6.8000e+000 84753 -6.4944e+000 -1.8978e+001 -1.1533e+000 51073 84603,84655,84629
 6.8000e+000 84730 -1.3298e+001 -2.1372e+001 -1.2541e+000 51073 84776,84655,84603
 6.8000e+000 84707 -4.1412e+000 -1.7422e+001 -4.6366e+000 51073 84577,84681,84655
 6.8000e+000 84802 -8.9406e+000 -1.9087e+001 -2.2710e+000 51073 84577,84655,84776
 6.8000e+000 85178 -1.8218e+001 -3.9254e+001  3.4547e+000 50519 85201,85008,84982
 6.8000e+000 85155 -1.7302e+001 -3.6930e+001  3.1808e+000 50519 85273,85201,84982
 6.8000e+000 85132 -1.6972e+001 -3.6672e+001  3.0040e+000 50519 85273,84982,84930
 6.8000e+000 85109 -1.6017e+001 -3.6213e+001  2.7110e+000 50519 84930,84982,84956
 6.8000e+000 85086 -1.9048e+001 -4.1286e+001  1.9328e+000 50519 85008,85060,85034
 6.8000e+000 85227 -1.7688e+001 -3.8402e+001  1.5297e+000 50519 85060,85008,85201
 6.8000e+000 85250 -1.7787e+001 -3.7635e+001  1.6130e+000 50519 85060,85201,84904
 6.8000e+000 85299 -1.7166e+001 -3.7643e+001  1.6462e+000 50519 84904,85201,85273
 6.8000e+000 85322 -1.5131e+001 -3.3866e+001  8.0916e-001 50519 84904,85273,84930
 6.8000e+000 85958 -1.3724e+001 -3.6562e+001 -1.4398e+000 50093 85981,85768,85716
 6.8000e+000 85935 -1.2038e+001 -3.3136e+001 -7.6983e-001 50093 85981,85716,85612
 6.8000e+000 85912 -1.5116e+001 -3.3267e+001  6.1512e-001 50093 85612,85716,85664
 6.8000e+000 85889 -1.0741e+001 -3.3850e+001 -2.8969e-001 50093 85716,85768,85742
 6.8000e+000 85866 -1.3098e+001 -2.5550e+001 -7.5452e+000 50093 85664,85716,85690
 6.8000e+000 85843 -3.7281e+000 -2.3732e+001 -7.9273e-001 50093 85586,85794,85612
 6.8000e+000 85820 -1.1216e+001 -4.4966e+001  3.4907e+000 50093 85612,85664,85638
 6.8000e+000 86007 -1.7911e+001 -4.0209e+001 -6.6924e+000 50093 85794,85768,85981
 6.8000e+000 86030 -1.2318e+001 -2.9449e+001 -4.6645e+000 50093 85794,85981,85612
 6.8000e+000 86131 -7.6375e+000 -1.6674e+001  3.0345e+000 49895 86053,86105,86079
 6.8000e+000 86639 -8.6341e+000 -2.0302e+001 -5.5286e+000 49391 86662,86394,86368
 6.8000e+000 86616 -1.0745e+001 -2.8021e+001 -4.5948e+000 49391 86662,86368,86342
 6.8000e+000 86593 -5.2206e+000 -2.8908e+001 -1.4067e+000 49391 86342,86498,86472
 6.8000e+000 86570 -3.5121e+000 -3.1630e+001 -1.6741e+000 49391 86316,86498,86342
 6.8000e+000 86547 -1.8623e+001 -4.6263e+001 -1.6655e-001 49391 86394,86472,86446
 6.8000e+000 86524 -3.7556e+000 -4.6931e+001  1.2432e+000 49391 86394,86446,86420
 6.8000e+000 86688 -1.0669e+001 -2.7440e+001 -2.2303e+000 49391 86472,86394,86662
 6.8000e+000 86711 -8.9020e+000 -3.0721e+001 -2.0099e+000 49391 86472,86662,86342
 6.8000e+000 87089 -1.3636e+001 -3.0561e+001  6.9223e-001 48987 86815,86919,86867
 6.8000e+000 87066 -1.2938e+001 -3.1398e+001  1.1377e+000 48987 86815,86971,86919
 6.8000e+000 87043 -6.4446e+000 -3.2155e+001 -1.9803e+000 48987 86867,86919,86893
 6.8000e+000 87020 -1.4780e+001 -3.4212e+001  3.9401e+000 48987 86815,86867,86841
 6.8000e+000 86997 -1.4073e+001 -2.6952e+001  4.0078e+000 48987 86919,86971,86945
 6.8000e+000 87467 -2.2373e+001 -3.1632e+001  1.8214e+000 48540 87490,87245,87219
 6.8000e+000 87444 -1.6701e+001 -3.0005e+001  5.5017e-001 48540 87562,87490,87219
 6.8000e+000 87421 -1.3513e+001 -2.8698e+001  1.2590e+000 48540 87562,87219,87349
 6.8000e+000 87398 -1.7472e+001 -2.6205e+001  3.8164e-001 48540 87245,87297,87271
 6.8000e+000 87375 -1.1679e+001 -3.0983e+001  6.0424e-001 48540 87193,87349,87219
 6.8000e+000 87516 -1.6131e+001 -2.9484e+001  1.6341e+000 48540 87297,87245,87490
 6.8000e+000 87539 -1.6834e+001 -3.1066e+001  1.7790e+000 48540 87297,87490,87323
 6.8000e+000 87588 -1.3668e+001 -2.9261e+001  2.7497e+000 48540 87323,87490,87562
 6.8000e+000 87611 -1.2079e+001 -2.9377e+001  3.1994e+000 48540 87323,87562,87349
 6.8000e+000 87810 -1.1787e+001 -3.4094e+001 -2.7861e+000 48136 87660,87712,87686
 6.8000e+000 87787 -4.2186e+000 -9.7121e+000 -9.9920e-001 48136 87660,87738,87712
 6.8000e+000 87764 -9.6070e+000 -1.2547e+001 -2.5733e-002 48136 87634,87738,87660
 6.8000e+000 88205 -1.3144e+001 -3.1265e+001 -4.6280e+000 47210 88300,88228,87937
 6.8000e+000 88182 -1.1721e+001 -3.1875e+001 -2.4900e+000 47210 88228,87833,88041
 6.8000e+000 88159 -1.3491e+001 -3.3768e+001 -6.1536e+000 47210 88300,87937,87911
 6.8000e+000 88136 -1.1908e+001 -3.0330e+001 -4.4351e+000 47210 87833,87911,87859
 6.8000e+000 88113 -2.2302e+001 -2.6233e+001 -5.5179e+000 47210 87937,87989,87963
 6.8000e+000 88090 -1.2139e+001 -2.4503e+001  4.1266e+000 47210 87989,88041,88015
 6.8000e+000 88067 -1.3960e+001 -3.5376e+001 -5.4487e+000 47210 87859,87911,87885
 6.8000e+000 88254 -1.1864e+001 -2.3322e+001 -5.3454e+000 47210 87989,87937,88228
 6.8000e+000 88277 -1.5046e+001 -2.9751e+001 -2.5375e+000 47210 87989,88228,88041
 6.8000e+000 88326 -1.1244e+001 -2.9074e+001 -2.6690e+000 47210 87833,88228,88300
 6.8000e+000 88349 -1.1834e+001 -3.0654e+001 -4.3456e+000 47210 87833,88300,87911
 6.8000e+000 88780 -1.3423e+001 -2.2633e+001 -5.1613e+000 46642 88803,88509,88483
 6.8000e+000 88757 -9.3852e+000 -2.0238e+001 -3.2717e+000 46642 88803,88483,88639
 6.8000e+000 88734 -9.6984e+000 -1.6898e+001 -3.2400e+000 46642 88875,88561,88509
 6.8000e+000 88711 -1.0390e+001 -1.5511e+001 -4.4735e-001 46642 88509,88561,88535
 6.8000e+000 88688 -5.2899e+000 -2.5191e+001 -7.7063e-002 46642 88457,88639,88483
 6.8000e+000 88665 -1.0451e+001 -2.7729e+001 -1.6365e+000 46642 88561,88613,88587
 6.8000e+000 88829 -1.0847e+001 -1.8328e+001 -3.7592e+000 46642 88875,88509,88803
 6.8000e+000 88852 -1.0326e+001 -2.2591e+001 -3.1124e+000 46642 88613,88803,88639
 6.8000e+000 88901 -6.8878e+000 -1.9058e+001 -1.8608e+000 46642 88613,88561,88875
 6.8000e+000 88924 -8.3547e+000 -2.1219e+001 -2.4974e+000 46642 88613,88875,88803
 6.8000e+000 89253 -4.6053e+000 -2.7424e+001 -4.9299e-002 46444 89080,89158,89132
 6.8000e+000 89230 -3.7028e+000 -2.5028e+001 -6.5793e-001 46444 89028,89158,89080
 6.8000e+000 89207 -3.5605e+000 -2.3912e+001 -1.0168e+000 46444 89028,89080,89054
 6.8000e+000 89184  1.3767e+000 -3.0045e+001 -4.1185e+000 46444 89080,89132,89106
 6.8000e+000 89631 -1.2123e+001 -2.3752e+001  1.1806e+000 46040 89383,89461,89435
 6.8000e+000 89608 -1.2214e+001 -2.5253e+001 -1.1787e+000 46040 89383,89487,89461
 6.8000e+000 89585 -1.3392e+001 -3.2810e+001 -7.1064e-001 46040 89383,89435,89409
 6.8000e+000 89562 -8.9484e+000 -1.9931e+001 -3.4410e+000 46040 89383,89513,89487
 6.8000e+000 89539 -4.4649e+000 -1.7704e+001 -4.4828e+000 46040 89357,89513,89383
 6.8000e+000 90009 -1.2532e+001 -3.0522e+001 -5.5536e-002 45636 89813,89891,89839
 6.8000e+000 89986 -1.2894e+001 -2.8195e+001  2.0020e+000 45636 89787,89891,89813
 6.8000e+000 89963 -1.1530e+001 -2.8756e+001 -6.7620e-001 45636 89839,89891,89865
 6.8000e+000 89940 -1.3874e+001 -3.1162e+001  1.6621e+000 45636 89735,89891,89787
 6.8000e+000 89917 -1.0864e+001 -3.1548e+001 -9.9663e-001 45636 89735,89787,89761
 6.8000e+000 90208 -7.6472e+000 -2.2985e+001 -5.2311e+000 45175 90231,90058,90032
 6.8000e+000 90185 -5.3342e+000 -2.1071e+001 -7.7495e+000 45175 90231,90032,90136
 6.8000e+000 90162 -7.1005e+000 -1.5495e+001 -5.7135e-001 45175 90058,90110,90084
 6.8000e+000 90257 -1.0543e+001 -2.6037e+001 -2.1833e+000 45175 90110,90058,90231
 6.8000e+000 90280 -6.0134e+000 -2.2715e+001 -4.9591e+000 45175 90110,90231,90136
 6.8000e+000 90528 -7.1878e+000 -2.1211e+001 -3.1748e+000 44513 90695,90551,90407
 6.8000e+000 90505 -8.5671e+000 -1.9837e+001 -3.2909e+000 44513 90551,90355,90329
 6.8000e+000 90482 -7.5807e+000 -2.0568e+001 -3.1312e+000 44513 90623,90303,90433
 6.8000e+000 90459 -6.6114e+000 -1.9418e+001 -1.9752e+000 44513 90695,90407,90381
 6.8000e+000 90577 -9.9384e+000 -2.2056e+001 -5.1558e+000 44513 90433,90407,90551
 6.8000e+000 90600 -8.6555e+000 -2.0055e+001 -3.3985e+000 44513 90623,90433,90551
 6.8000e+000 90649 -7.2071e+000 -2.0144e+001 -3.8738e+000 44513 90329,90303,90623
 6.8000e+000 90672 -7.6334e+000 -1.9644e+001 -3.7580e+000 44513 90329,90623,90551
 6.8000e+000 90721 -8.4822e+000 -1.8541e+001 -3.8172e+000 44513 90355,90551,90695
 6.8000e+000 90744 -8.6154e+000 -1.7246e+001 -3.2850e+000 44513 90355,90695,90381
 6.8000e+000 91077  2.2073e+000 -1.9465e+001 -1.1348e+000 44059 91100,90930,90904
 6.8000e+000 91054 -9.8702e+000 -2.2222e+001  1.8132e+000 44059 91100,90904,90982
 6.8000e+000 91031 -1.6194e+001 -2.6551e+001 -1.1137e+000 44059 90878,90982,90904
 6.8000e+000 91008 -7.0229e+000 -2.2580e+001 -9.1560e-002 44059 90852,90982,90878
 6.8000e+000 91126 -2.4242e+001 -2.7682e+001  1.0224e+000 44059 91172,91100,90956
 6.8000e+000 91149 -1.1280e+001 -2.6069e+001 -4.2736e-001 44059 90956,91100,90982
 6.8000e+000 91198  3.6558e+000  1.0380e+000 -1.0300e+001 44059 90930,91100,91172
 6.8000e+000 91677 -6.7407e+000 -1.2099e+001  6.1440e-001 43549 91455,91533,91481
 6.8000e+000 91654 -4.0264e-001 -9.8662e+000  1.9605e+000 43549 91429,91533,91455
 6.8000e+000 91631 -6.5426e+000 -1.2167e+001  9.2582e-002 43549 91481,91533,91507
 6.8000e+000 91608  6.1869e-001 -9.4816e+000  6.5146e-001 43549 91429,91559,91533
 6.8000e+000 91585  2.4561e+000  2.0089e+000 -1.1166e+000 43549 91403,91559,91429
 6.8000e+000 92006 -1.2982e+001 -2.9607e+001  2.2572e-001 43059 91781,91885,91807
 6.8000e+000 91983 -1.3875e+001 -2.8194e+001  5.7749e+000 43059 91781,91911,91885
 6.8000e+000 91960 -1.3149e+001 -2.8997e+001 -1.3587e-001 43059 91807,91885,91833
 6.8000e+000 91937 -8.8723e+000 -2.7024e+001  4.9331e-001 43059 91833,91885,91859
 6.8000e+000 92561 -4.2463e+000 -1.2252e+001 -2.6720e+000 42598 92584,92215,92189
 6.8000e+000 92538 -6.0850e+000 -1.4393e+001 -1.7575e+000 42598 92656,92584,92189
 6.8000e+000 92515 -5.2037e+000 -1.6952e+001 -4.7817e-001 42598 92656,92189,92397
 6.8000e+000 92492 -1.2074e+001 -1.0108e+001 -2.4978e+000 42598 92241,92319,92293
 6.8000e+000 92469 -6.7579e+000 -1.3818e+001  1.0231e+000 42598 92319,92397,92371
 6.8000e+000 92446  3.6310e-002 -2.1775e+001  1.2050e+001 42598 92319,92371,92345
 6.8000e+000 92423 -8.6213e+000 -9.4700e+000 -3.7784e+000 42598 92241,92293,92267
 6.8000e+000 92610 -6.3872e+000 -1.3178e+001 -2.8172e+000 42598 92241,92215,92584
 6.8000e+000 92633 -5.4160e+000 -1.0847e+001 -2.3011e+000 42598 92241,92584,92319
 6.8000e+000 92682 -5.3069e+000 -1.1012e+001 -1.2319e+000 42598 92319,92584,92656
 6.8000e+000 92705 -3.8461e+000 -1.2788e+001 -2.7972e-001 42598 92319,92656,92397
 6.8000e+000 92953 -1.3578e+001 -3.0805e+001  1.7921e+000 42094 92976,92806,92780
 6.8000e+000 92930 -1.4830e+001 -2.8685e+001  9.6497e-002 42094 92976,92780,92754
 6.8000e+000 92907 -5.2377e+000 -2.9439e+001 -2.1179e-001 42094 93048,92832,92806
 6.8000e+000 92884 -1.6833e+001 -3.0597e+001 -1.7834e+000 42094 92728,92858,92754
 6.8000e+000 93002 -9.6655e+000 -2.8391e+001  7.3514e-001 42094 93048,92806,92976
 6.8000e+000 93025 -1.3684e+001 -2.8024e+001 -5.7333e-001 42094 92858,92976,92754
 6.8000e+000 93074 -1.1496e+001 -3.1610e+001 -1.9817e-001 42094 92858,92832,93048
 6.8000e+000 93097 -1.5034e+001 -2.9965e+001  3.3936e-001 42094 92858,93048,92976
 6.8000e+000 93605 -1.1780e+001 -3.5324e+001 -1.1352e+000 41846 93628,93412,93386
 6.8000e+000 93582 -1.0583e+001 -2.3827e+001 -9.7116e-001 41846 93628,93386,93308
 6.8000e+000 93559 -1.2098e+001 -2.2836e+001 -5.9638e+000 41846 93700,93464,93438
 6.8000e+000 93536 -1.7564e+001 -3.7762e+001  1.3791e+000 41846 93308,93386,93334
 6.8000e+000 93513 -1.9877e+001 -2.3765e+001 -5.1461e+000 41846 93334,93386,93360
 6.8000e+000 93490 -8.2749e+000 -1.9217e+001 -8.3367e+000 41846 93282,93464,93308
 6.8000e+000 93654 -1.1087e+001 -2.6065e+001 -2.5001e+000 41846 93438,93412,93628
 6.8000e+000 93677 -1.4345e+001 -2.4557e+001 -1.7825e+000 41846 93700,93438,93628
 6.8000e+000 93726 -9.1617e+000 -1.7949e+001 -8.1921e+000 41846 93308,93464,93700
 6.8000e+000 93749 -1.0732e+001 -1.8050e+001 -4.1258e+000 41846 93308,93700,93628
 6.8000e+000 94255 -1.2931e+001 -3.0709e+001  2.3849e+000 41385 93958,94114,94088
 6.8000e+000 94232 -1.0088e+001 -3.3153e+001  1.1455e+000 41385 93932,94114,93958
 6.8000e+000 94209 -2.0129e+001 -3.5862e+001  6.8488e+000 41385 93958,94088,94062
 6.8000e+000 94186 -1.8876e+001 -2.3951e+001  4.5472e+000 41385 93958,94062,93984
 6.8000e+000 94163 -1.4978e+001 -2.3888e+001  3.1175e+000 41385 93984,94062,94036
 6.8000e+000 94140 -1.0145e+001 -3.1461e+001  4.4356e+000 41385 93984,94036,94010
 6.8000e+000 94476 -5.0234e+000 -4.4047e+001  2.2208e+000 40881 94326,94378,94352
 6.8000e+000 94453 -7.8129e+000 -3.4492e+001  3.0685e+000 40881 94300,94378,94326
 6.8000e+000 94430 -1.0680e+001 -3.1656e+001  1.9224e-001 40881 94300,94404,94378
 6.8000e+000 94626 -1.2664e+000 -1.1956e+001 -1.4926e+000 40591 94649,94551,94525
 6.8000e+000 94603 -7.1525e-001 -6.0949e+000  9.4477e-001 40591 94781,94577,94551
 6.8000e+000 94675  1.7857e+000 -8.5076e+000 -2.8265e+000 40591 94781,94551,94649
 6.8000e+000 94807  5.3187e+000 -1.8178e+000  3.0507e+000 40591 94499,94577,94781
 6.8000e+000 94830  6.8091e+000 -5.8898e+000 -1.1041e+000 40591 94499,94781,94649
 6.8000e+000 95336 -2.3497e+001 -2.5215e+001 -5.3751e+000 40187 95013,95169,95039
 6.8000e+000 95313 -9.6636e+000 -2.3288e+001 -4.2306e-001 40187 95013,95195,95169
 6.8000e+000 95290 -2.9899e+000 -2.3578e+001 -3.5431e+000 40187 95039,95143,95065
 6.8000e+000 95267 -1.8011e+001 -2.9607e+001 -5.6218e+000 40187 95039,95169,95143
 6.8000e+000 95244 -2.5437e+000 -1.2122e+001 -8.0723e-001 40187 95091,95143,95117
 6.8000e+000 95221 -3.7453e-001 -7.1829e+000 -5.5615e-001 40187 95065,95143,95091
 6.8000e+000 95665 -6.8557e+000 -1.3592e+001  9.8790e+000 39626 95466,95570,95544
 6.8000e+000 95642 -1.3022e+001 -9.8030e+000  6.8156e+000 39626 95440,95570,95466
 6.8000e+000 95619 -2.2916e+001 -2.0875e+001  7.8718e+000 39626 95466,95544,95492
 6.8000e+000 95596 -4.2347e+000 -1.6640e+001  1.0479e+001 39626 95492,95544,95518
 6.8000e+000 95913 -1.2012e+001 -2.2133e+001 -3.2368e+000 39136 96080,95936,95766
 6.8000e+000 95890 -7.9592e+000 -2.4445e+001 -2.2865e+000 39136 95936,95714,95688
 6.8000e+000 95867 -2.0229e+001 -2.4475e+001  1.6202e+000 39136 96008,95792,95766
 6.8000e+000 95844 -1.0680e+001 -2.1580e+001 -3.1488e+000 39136 96080,95766,95740
 6.8000e+000 95962 -1.6042e+001 -2.5311e+001 -1.8510e+000 39136 96008,95766,95936
 6.8000e+000 95985 -1.0782e+001 -3.0699e+001 -4.4357e-001 39136 95818,95936,95688
 6.8000e+000 96034 -1.0142e+001 -2.0110e+001  2.0737e+000 39136 95818,95792,96008
 6.8000e+000 96057 -9.0418e+000 -2.2240e+001 -1.3398e+000 39136 95818,96008,95936
 6.8000e+000 96106 -1.1594e+001 -2.2801e+001 -1.1765e+000 39136 95714,95936,96080
 6.8000e+000 96129 -9.2335e+000 -2.1824e+001 -1.2474e+000 39136 95714,96080,95740
 6.8000e+000 96350 -4.6664e+000 -1.3105e+001 -1.3186e+000 38824 96200,96278,96252
 6.8000e+000 96327 -1.9598e+000 -1.1256e+001 -3.6374e-001 38824 96174,96278,96200
 6.8000e+000 96304  5.5047e+000 -1.1485e+001 -4.8592e+000 38824 96200,96252,96226
 6.8000e+000 96830 -5.7012e+000 -1.3201e+001 -2.3420e+000 38320 97069,96536,96484
 6.8000e+000 96807 -5.8134e+000 -1.3481e+001 -2.2622e+000 38320 97069,96484,96853
 6.8000e+000 96784 -6.4620e+000 -1.4258e+001 -1.3266e+000 38320 96853,96484,96458
 6.8000e+000 96761 -2.4573e+000 -1.0280e+001 -3.0597e+000 38320 96925,96640,96614
 6.8000e+000 96738 -5.4324e+000 -1.0567e+001 -1.2459e+000 38320 96997,96666,96640
 6.8000e+000 96715 -4.9366e+000 -1.7366e+001 -1.2159e+000 38320 97141,96588,96562
 6.8000e+000 96692 -8.5469e+000 -1.5945e+001 -1.0795e+000 38320 96484,96536,96510
 6.8000e+000 96879 -6.2097e+000 -1.5452e+001 -1.3415e+000 38320 97141,96562,96853
 6.8000e+000 96902 -5.1034e+000 -1.4227e+001 -1.7333e+000 38320 96925,96614,96853
 6.8000e+000 96951 -5.3476e+000 -1.0259e+001 -1.5902e+000 38320 96997,96640,96925
 6.8000e+000 96974 -4.9507e+000 -1.0679e+001 -1.6719e+000 38320 96458,96925,96853
 6.8000e+000 97023 -5.7287e+000 -1.1275e+001 -1.1367e+000 38320 96458,96666,96997
 6.8000e+000 97046 -5.6443e+000 -1.0959e+001 -1.5380e+000 38320 96458,96997,96925
 6.8000e+000 97095 -6.2955e+000 -1.3779e+001 -1.6870e+000 38320 96562,96536,97069
 6.8000e+000 97118 -5.5837e+000 -1.3547e+001 -2.1678e+000 38320 96562,97069,96853
 6.8000e+000 97167 -2.9902e+000 -1.5568e+001 -1.9704e+000 38320 96614,96588,97141
 6.8000e+000 97190 -5.0481e+000 -1.4208e+001 -1.8230e+000 38320 96614,97141,96853
 6.8000e+000 97519 -4.8937e+000 -2.1416e+001  6.4085e+000 37766 97542,97398,97372
 6.8000e+000 97496 -5.8093e+000 -1.6373e+001  4.9433e+000 37766 97542,97372,97346
 6.8000e+000 97473 -6.2977e+000 -1.9929e+001 -2.4817e-001 37766 97294,97424,97346
 6.8000e+000 97450 -6.1592e+000 -1.9189e+001  3.5166e-002 37766 97294,97346,97320
 6.8000e+000 97568 -2.0996e+000 -2.3002e+001  2.1597e+000 37766 97424,97398,97542
 6.8000e+000 97591 -3.6299e+000 -1.7046e+001  1.0075e+000 37766 97424,97542,97346
 6.8000e+000 98048 -7.7964e+000 -1.2624e+001 -5.4371e+000 37262 98071,97878,97852
 6.8000e+000 98025 -5.6440e+000 -1.5281e+001 -1.9876e+000 37262 98071,97852,97800
 6.8000e+000 98002 -3.7926e+000 -1.4741e+001 -3.5074e+000 37262 97800,97852,97826
 6.8000e+000 97979 -7.4125e+000 -1.6117e+001 -1.3915e+000 37262 97800,97930,97904
 6.8000e+000 97956 -4.6172e+000 -1.6407e+001 -3.7637e-001 37262 97774,97930,97800
 6.8000e+000 98097 -1.3999e+001 -1.5343e+001 -5.0129e+000 37262 97904,97878,98071
 6.8000e+000 98120 -8.6663e+000 -1.6667e+001 -1.4731e+000 37262 97904,98071,97800
 6.8000e+000 98449 -7.9814e+000 -1.6477e+001 -2.3658e+000 36950 98472,98302,98250
 6.8000e+000 98426 -4.9546e+000 -1.5031e+001 -3.0940e+000 36950 98472,98250,98354
 6.8000e+000 98403 -1.2605e+001 -2.0619e+001  2.3633e+000 36950 98250,98302,98276
 6.8000e+000 98380 -2.3559e+000 -1.0207e+001  2.1061e+000 36950 98224,98354,98250
 6.8000e+000 98498 -5.6930e+000 -1.9731e+001 -4.4711e-001 36950 98328,98302,98472
 6.8000e+000 98521 -1.9333e+000 -1.7531e+001 -1.6974e+000 36950 98328,98472,98354
 6.8000e+000 99125 -1.2816e+001 -1.2357e+001 -1.4887e+000 36296 98704,98756,98730
 6.8000e+000 99102 -1.6049e+001 -1.1206e+001 -3.0443e-001 36296 98704,98938,98756
 6.8000e+000 99079 -9.1709e+000 -1.3185e+001 -1.5917e+000 36296 99148,98938,98912
 6.8000e+000 99056 -8.4186e+000 -1.3432e+001  3.5521e+000 36296 99292,99220,98782
 6.8000e+000 99033 -7.2960e+000 -1.6006e+001 -2.9024e-001 36296 99148,98912,98834
 6.8000e+000 99010 -8.5344e+000 -1.0384e+001  4.7564e+000 36296 99292,98782,98756
 6.8000e+000 98987 -7.7165e+000 -2.9392e+001 -5.7331e+000 36296 98834,98912,98886
 6.8000e+000 98964 -1.0610e+001 -3.9589e+001 -6.6462e+000 36296 98834,98886,98860
 6.8000e+000 99174 -1.1694e+001 -1.7312e+001 -3.9805e-001 36296 99220,98938,99148
 6.8000e+000 99197 -7.9312e+000 -2.0880e+001  2.0446e+000 36296 98808,99148,98834
 6.8000e+000 99246 -9.6539e+000 -1.6257e+001  7.5271e+000 36296 98808,98782,99220
 6.8000e+000 99269 -3.9420e+000 -1.1150e+001  2.3407e+000 36296 98808,99220,99148
 6.8000e+000 99318 -1.1269e+001 -1.1236e+001  1.6912e+000 36296 98938,99220,99292
 6.8000e+000 99341 -1.1501e+001 -1.1521e+001  2.6295e+000 36296 98938,99292,98756
 6.8000e+000 99719 -1.4043e+001 -2.6949e+001  2.5216e-001 35742 99742,99471,99601
 6.8000e+000 99696 -1.3406e+001 -2.1972e+001  2.4866e+000 35742 99445,99601,99471
 6.8000e+000 99673 -1.3234e+001 -2.5081e+001 -4.8463e-001 35742 99742,99601,99575
 6.8000e+000 99650 -1.1661e+001 -3.4137e+001 -3.3920e-001 35742 99814,99549,99523
 6.8000e+000 99627 -9.7183e+000 -2.5871e+001  4.2976e-001 35742 99471,99523,99497
 6.8000e+000 99768 -1.1291e+001 -2.6483e+001  1.0484e+000 35742 99523,99471,99742
 6.8000e+000 99791 -1.3599e+001 -3.0690e+001 -1.3577e-001 35742 99814,99523,99742
 6.8000e+000 99840 -1.1534e+001 -2.9839e+001 -1.6456e+000 35742 99575,99549,99814
 6.8000e+000 99863 -1.2693e+001 -2.5308e+001 -1.3148e+000 35742 99575,99814,99742
 6.8000e+000 100111 -1.1901e+001 -2.2416e+001  2.6525e+000 35302 100134,99990,99938
 6.8000e+000 100088 -9.7171e+000 -1.8682e+001  1.6906e+000 35302 100134,99938,99912
 6.8000e+000 100065 -9.9032e+000 -1.9190e+001 -3.5664e-001 35302 100206,99886,100016
 6.8000e+000 100042 -1.3707e+001 -2.3800e+001  1.9860e+000 35302 99938,99990,99964
 6.8000e+000 100160 -9.7551e+000 -2.1704e+001  2.4161e-001 35302 100016,99990,100134
 6.8000e+000 100183 -9.2705e+000 -1.9699e+001 -3.3691e-001 35302 100206,100016,100134
 6.8000e+000 100232 -1.0549e+001 -1.9742e+001 -5.5193e-002 35302 99912,99886,100206
 6.8000e+000 100255 -9.9221e+000 -2.0336e+001 -3.9506e-002 35302 99912,100206,100134
 6.8000e+000 100586 -1.2478e+001 -1.1595e+001  6.1114e+000 35012 100609,100387,100361
 6.8000e+000 100563 -1.5867e+001 -6.9771e+000 -1.8251e+000 35012 100609,100361,100465
 6.8000e+000 100540 -7.6176e+000 -4.3399e+000 -5.6165e+000 35012 100361,100491,100465
 6.8000e+000 100517 -2.3309e+000 -4.0001e+000 -5.7870e+000 35012 100413,100465,100439
 6.8000e+000 100635 -4.3947e+000 -8.0050e+000  3.3730e+000 35012 100413,100387,100609
 6.8000e+000 100658 -7.4759e+000 -2.1467e+000 -4.8025e+000 35012 100413,100609,100465
 6.8000e+000 100987 -1.0989e+001 -2.0054e+001  9.5847e-001 34700 100788,100866,100814
 6.8000e+000 100964 -8.3024e+000 -1.3505e+001  2.9126e+000 34700 101010,100866,100788
 6.8000e+000 100941 -3.2363e+000 -8.0969e+000  4.1590e+000 34700 100762,100892,100866
 6.8000e+000 100918 -1.0671e+001 -1.8999e+001  3.9367e-002 34700 100814,100866,100840
 6.8000e+000 101036 -5.2567e+000 -1.0827e+001  5.7607e+000 34700 100762,100866,101010
 6.8000e+000 101493 -1.4722e+001 -2.5062e+001 -1.3731e+000 34132 101516,101349,101297
 6.8000e+000 101470 -1.6301e+001 -2.9754e+001 -2.3825e+000 34132 101588,101516,101297
 6.8000e+000 101447 -1.6199e+001 -3.0380e+001 -3.4016e+000 34132 101588,101297,101245
 6.8000e+000 101424 -1.1488e+001 -3.2607e+001 -3.6268e+000 34132 101245,101297,101271
 6.8000e+000 101401 -1.5702e+001 -2.5138e+001 -1.7333e+000 34132 101297,101349,101323
 6.8000e+000 101542 -1.4711e+001 -2.8923e+001 -1.0966e+000 34132 101375,101349,101516
 6.8000e+000 101565 -1.4058e+001 -3.0383e+001 -2.0442e+000 34132 101375,101516,101219
 6.8000e+000 101614 -1.4437e+001 -2.9641e+001 -1.6477e+000 34132 101219,101516,101588
 6.8000e+000 101637 -1.5341e+001 -3.0387e+001 -2.6010e+000 34132 101219,101588,101245
 6.8000e+000 101858  1.6345e+000 -9.1591e+000  2.3187e+000 33720 101708,101786,101760
 6.8000e+000 101835  5.0390e+000 -5.9143e+000  3.9589e+000 33720 101682,101786,101708
 6.8000e+000 101812 -1.1957e+000 -1.0219e+001  2.5317e+000 33720 101708,101760,101734
 6.8000e+000 102128 -4.9521e+000 -2.7046e+001 -7.8017e-001 33130 101903,102007,101929
 6.8000e+000 102105 -4.6201e+000 -3.0914e+001  8.1121e-001 33130 101903,102033,102007
 6.8000e+000 102082 -3.3619e+000 -3.2702e+001 -6.6264e+000 33130 101929,102007,101955
 6.8000e+000 102059 -5.7467e+000 -2.2288e+001  6.3380e-001 33130 101955,102007,101981
 6.8000e+000 102461 -7.8528e-002 -7.2849e+000 -2.4719e+000 32840 102236,102340,102262
 6.8000e+000 102438  6.4826e-001 -2.8427e+000 -3.9699e-001 32840 102236,102366,102340
 6.8000e+000 102415  2.4717e+000 -7.6529e+000 -1.1945e+000 32840 102262,102340,102288
 6.8000e+000 102392 -1.6234e+000 -8.5244e+000 -3.5313e+000 32840 102288,102340,102314
 6.8000e+000 102997 -8.7617e+000 -1.6529e+001  3.8011e+000 32493 102749,102879,102853
 6.8000e+000 102974 -7.4938e+000 -1.3393e+001  4.0217e+000 32493 102723,102879,102749
 6.8000e+000 102951 -8.9588e+000 -1.5499e+001  2.7987e+000 32493 102749,102801,102775
 6.8000e+000 102928 -1.1714e+001 -1.7297e+001  3.5732e+000 32493 102749,102853,102801
 6.8000e+000 102905 -1.2710e+001 -1.9282e+001  3.9828e+000 32493 102801,102853,102827
 6.8000e+000 103454 -2.7130e+000 -4.8358e+000 -2.1187e+000 32089 103206,103336,103310
 6.8000e+000 103431 -9.7684e-001 -6.2798e+000 -6.2925e-001 32089 103180,103336,103206
 6.8000e+000 103408 -3.4555e+000 -8.1867e+000 -2.9772e+000 32089 103206,103284,103258
 6.8000e+000 103385 -7.3483e+000 -8.0218e+000 -4.2179e+000 32089 103206,103310,103284
 6.8000e+000 103362 -1.3207e-001 -1.5690e+000 -5.9825e+000 32089 103206,103258,103232
 6.8000e+000 103783 -1.3281e+001 -1.4059e+001 -1.6498e+000 31742 103558,103662,103584
 6.8000e+000 103760 -1.3027e+001 -1.5041e+001 -3.6766e+000 31742 103558,103688,103662
 6.8000e+000 103737 -7.3320e+000 -7.4772e+000 -5.3251e+000 31742 103584,103662,103636
 6.8000e+000 103714 -9.1358e+000 -1.1634e+001 -4.6408e+000 31742 103584,103636,103610
 6.8000e+000 104112 -6.5931e-001 -7.4484e+000  8.4040e-001 31402 103939,103991,103965
 6.8000e+000 104089 -9.6158e-001 -5.9103e+000  5.6784e-001 31402 103913,103991,103939
 6.8000e+000 104066 -1.6365e+000 -7.4274e+000 -4.0947e-001 31402 103913,104017,103991
 6.8000e+000 104043 -4.4196e+000 -6.7266e+000 -2.1781e+000 31402 103887,104017,103913
 6.8000e+000 104569 -1.3269e+001 -2.0475e+001  2.2380e+000 30998 104321,104425,104373
 6.8000e+000 104546 -1.1747e+001 -1.9226e+001  1.1676e+000 30998 104321,104451,104425
 6.8000e+000 104523 -6.3572e+000 -1.4283e+001  5.2887e+000 30998 104373,104425,104399
 6.8000e+000 104500 -6.8251e+000 -2.4083e+001 -1.2168e+000 30998 104295,104451,104321
 6.8000e+000 104477 -2.1102e+001 -2.6975e+001  1.0409e+001 30998 104321,104373,104347
 6.8000e+000 104947 -1.9334e+001 -2.2283e+001 -5.9591e+000 30608 104751,104803,104777
 6.8000e+000 104924 -9.7024e+000 -2.2429e+001 -2.3447e+000 30608 104725,104803,104751
 6.8000e+000 104901 -1.4201e+001 -2.0979e+001  7.0886e-001 30608 104699,104803,104725
 6.8000e+000 104878 -1.2246e+001 -1.9805e+001  9.8411e-002 30608 104673,104803,104699
 6.8000e+000 104855 -1.0001e+001 -1.9658e+001 -1.9400e+000 30608 104673,104829,104803
 6.8000e+000 105276 -8.9044e+000 -1.8823e+001  4.5013e-001 30204 105427,105129,105077
 6.8000e+000 105253 -6.0721e+000 -2.0315e+001  3.8918e+000 30204 105427,105077,105051
 6.8000e+000 105230 -7.7797e+000 -1.8638e+001  4.5811e-001 30204 105077,105129,105103
 6.8000e+000 105207 -1.8261e+000 -1.4653e+001  2.3200e+000 30204 105299,105181,105155
 6.8000e+000 105325 -4.1278e+000 -1.4805e+001 -4.5359e-001 30204 105129,105181,105299
 6.8000e+000 105453 -1.0611e+001 -1.9940e+001  1.8151e+000 30204 105181,105129,105427
 6.8000e+000 105476 -1.2102e+001 -2.3385e+001  5.6935e+000 30204 105181,105427,105051
 6.8000e+000 105903 -8.1900e+000 -1.7872e+001 -1.7614e+000 29700 105606,105762,105736
 6.8000e+000 105880 -1.0762e+001 -1.8479e+001 -2.0851e-001 29700 105580,105762,105606
 6.8000e+000 105857 -1.2735e+001 -2.3456e+001 -1.7840e+000 29700 105606,105710,105632
 6.8000e+000 105834 -1.0601e+001 -2.0489e+001 -7.5161e-001 29700 105606,105736,105710
 6.8000e+000 105811 -1.1471e+001 -2.2423e+001 -2.4064e+000 29700 105632,105710,105684
 6.8000e+000 105788 -1.0980e+001 -2.1264e+001 -2.3217e+000 29700 105632,105684,105658
 6.8000e+000 106102 -3.9155e+000 -2.1762e+001 -3.4089e-002 29124 105978,106030,106004
 6.8000e+000 106079 -4.7790e+000 -1.9379e+001  8.7211e-001 29124 105926,106030,105978
 6.8000e+000 106056 -6.2201e+000 -2.3742e+001  2.1456e+000 29124 105926,105978,105952
 6.8000e+000 106301 -6.8901e+000 -2.3351e+001  1.8075e-001 28712 106151,106229,106203
 6.8000e+000 106278 -8.4457e+000 -2.6101e+001 -1.2047e+000 28712 106125,106229,106151
 6.8000e+000 106255 -7.0320e+000 -2.4377e+001  1.2104e+000 28712 106151,106203,106177
 6.8000e+000 106551 -5.5232e+000 -2.5648e+001  2.8987e+000 28258 106352,106404,106378
 6.8000e+000 106528 -8.7203e+000 -2.5755e+001  1.4737e+000 28258 106352,106456,106404
 6.8000e+000 106505 -9.6572e+000 -2.3998e+001  2.1467e+000 28258 106326,106456,106352
 6.8000e+000 106482 -6.5758e+000 -2.2556e+001  3.4821e-002 28258 106404,106456,106430
 6.8000e+000 107012 -1.1355e+001 -2.4196e+001  5.6012e+000 27818 107035,106790,106764
 6.8000e+000 106989 -9.4204e+000 -2.1472e+001  2.2903e+000 27818 107035,106764,106868
 6.8000e+000 106966 -6.2610e+000 -2.8798e+001  2.9898e+000 27818 107107,106842,106816
 6.8000e+000 106943 -1.0951e+001 -1.6134e+001 -2.0315e-001 27818 106738,106868,106764
 6.8000e+000 106920 -1.2313e+001 -1.7504e+001  2.8571e+000 27818 106738,106894,106868
 6.8000e+000 107061 -6.0270e+000 -2.2528e+001  5.6897e+000 27818 106816,106790,107035
 6.8000e+000 107084 -9.2620e+000 -2.5733e+001  3.1442e+000 27818 107107,106816,107035
 6.8000e+000 107133 -3.8257e+000 -2.4724e+001  1.0870e+000 27818 106868,106842,107107
 6.8000e+000 107156 -6.6070e+000 -2.0755e+001  1.5505e+000 27818 106868,107107,107035
 6.8000e+000 107613 -5.3126e+000 -1.8157e+001  3.7605e+000 27312 107339,107469,107365
 6.8000e+000 107590 -2.9127e+000 -1.7659e+001  3.6647e+000 27312 107339,107495,107469
 6.8000e+000 107567 -5.6513e+000 -1.5770e+001  1.9956e+000 27312 107391,107469,107443
 6.8000e+000 107544 -1.3838e+000 -1.6912e+001  2.5158e+000 27312 107365,107469,107391
 6.8000e+000 107521 -1.2210e+001 -1.8696e+001  2.5118e+000 27312 107391,107443,107417
 6.8000e+000 107991 -4.5813e+000 -2.4426e+001  1.4036e+000 26858 108086,108014,107795
 6.8000e+000 107968 -5.6151e+000 -2.2846e+001  5.9183e-001 26858 108014,107717,107873
 6.8000e+000 107945 -6.5000e+000 -2.8471e+001  1.9819e+000 26858 108158,108086,107795
 6.8000e+000 107922 -4.0852e+000 -3.1900e+001  3.1554e+000 26858 108158,107795,107769
 6.8000e+000 107899 -5.9060e+000 -2.8944e+001  4.4372e+000 26858 107821,107873,107847
 6.8000e+000 108040 -5.4457e+000 -2.6658e+001  1.2467e+000 26858 107821,107795,108014
 6.8000e+000 108063 -4.5805e+000 -2.5224e+001  8.4521e-001 26858 107821,108014,107873
 6.8000e+000 108112 -7.4815e+000 -2.5574e+001  1.7085e+000 26858 107717,108014,108086
 6.8000e+000 108135 -6.1141e+000 -2.3784e+001  2.3800e+000 26858 107717,108086,107743
 6.8000e+000 108184 -4.2823e+000 -2.3685e+001  3.1814e+000 26858 107743,108086,108158
 6.8000e+000 108207 -2.3702e+000 -2.7457e+001  3.6604e+000 26858 107743,108158,107769
 6.8000e+000 108634 -1.1210e+001 -2.0921e+001  1.0944e-001 26404 108657,108415,108363
 6.8000e+000 108611 -1.3577e+001 -2.4069e+001  3.7639e+000 26404 108657,108363,108337
 6.8000e+000 108588 -1.1992e+001 -2.6121e+001  3.4146e+000 26404 108729,108311,108467
 6.8000e+000 108565 -9.2592e+000 -2.9336e+001  1.0846e+000 26404 108801,108441,108415
 6.8000e+000 108542 -1.7302e+001 -2.8589e+001  4.1153e+000 26404 108311,108493,108467
 6.8000e+000 108519 -6.6818e+000 -1.9418e+001  8.0434e-001 26404 108363,108415,108389
 6.8000e+000 108683 -1.4874e+001 -2.3870e+001  1.8687e+000 26404 108801,108415,108657
 6.8000e+000 108706 -1.5499e+001 -2.5769e+001  3.2377e+000 26404 108729,108467,108657
 6.8000e+000 108755 -1.0336e+001 -2.6198e+001  3.1763e+000 26404 108337,108311,108729
 6.8000e+000 108778 -1.2034e+001 -2.4472e+001  2.6090e+000 26404 108337,108729,108657
 6.8000e+000 108827 -1.5001e+001 -3.9677e+001 -2.0870e+000 26404 108467,108441,108801
 6.8000e+000 108850 -1.8278e+001 -3.0586e+001 -1.1510e+000 26404 108467,108801,108657
 6.8000e+000 109228 -1.2967e+001 -2.7411e+001 -9.7031e-001 26064 109006,109084,109058
 6.8000e+000 109205 -1.1481e+001 -2.5223e+001  1.3269e+000 26064 108980,109084,109006
 6.8000e+000 109182 -1.1654e+001 -2.3667e+001 -2.4096e-001 26064 108980,109110,109084
 6.8000e+000 109159 -1.2341e+001 -2.8708e+001  7.3334e-002 26064 109006,109058,109032
 6.8000e+000 109136 -4.0619e+000 -2.0835e+001  1.4746e+000 26064 108954,109110,108980
 6.8000e+000 109427 -1.3706e+000 -2.2478e+001 -6.7858e+000 25660 109303,109355,109329
 6.8000e+000 109404 -4.3682e+000 -2.8015e+001 -1.4934e+000 25660 109277,109355,109303
 6.8000e+000 109381 -3.6568e+000 -2.5234e+001 -3.3969e-001 25660 109251,109355,109277
 6.8000e+000 109577 -8.9660e-001 -2.6800e+000  1.1715e+000 25306 109476,109528,109502
 6.8000e+000 109554  7.9010e+000  2.9016e+000  4.3905e+000 25306 109450,109528,109476
 6.8000e+000 109778 -9.8017e+000 -2.6136e+001  2.6983e-001 24944 109628,109706,109654
 6.8000e+000 109755 -1.0421e+001 -2.4776e+001 -4.0491e-001 24944 109602,109706,109628
 6.8000e+000 109732 -8.4298e+000 -2.3625e+001 -4.5049e-001 24944 109654,109706,109680
 6.8000e+000 110126 -1.6618e+000 -2.6177e+001  2.4894e-001 24440 110149,109907,109855
 6.8000e+000 110103  1.2373e+000 -2.8876e+001  1.9785e+000 24440 110149,109855,109985
 6.8000e+000 110080 -1.9265e-001 -2.1545e+001  1.6808e-001 24440 109855,109907,109881
 6.8000e+000 110057  8.2620e-001 -1.9657e+001  1.1081e+001 24440 109829,109985,109855
 6.8000e+000 110034 -1.9767e+000 -2.5569e+001  1.1196e+000 24440 109907,109959,109933
 6.8000e+000 110011  1.2796e+001 -1.7424e+001 -9.4253e-001 24440 109803,109985,109829
 6.8000e+000 110175 -1.3465e-001 -2.4684e+001  1.5182e+000 24440 109959,109907,110149
 6.8000e+000 110198  3.8865e+000 -2.6263e+001  3.4545e+000 24440 109959,110149,109985
 6.8000e+000 110301  2.7548e+000  5.1822e+000  5.0388e+000 24028 110223,110275,110249
 6.8000e+000 110573 -3.9294e+000 -1.8260e+001  1.5120e+000 23467 110400,110452,110426
 6.8000e+000 110550 -6.6628e+000 -2.2775e+001  3.3110e-001 23467 110374,110452,110400
 6.8000e+000 110527 -7.7894e+000 -2.3250e+001  6.6784e-001 23467 110348,110452,110374
 6.8000e+000 110504 -5.3347e+000 -2.2510e+001  4.8945e-002 23467 110348,110478,110452
 6.8000e+000 111004 -1.3212e+001 -3.2761e+001 -6.7618e+000 22963 111027,110733,110707
 6.8000e+000 110981 -1.5703e+001 -3.1180e+001  1.3519e+000 22963 111027,110707,110681
 6.8000e+000 110958 -4.5917e+000 -2.2598e+001 -6.9947e+000 22963 111099,110759,110733
 6.8000e+000 110935 -1.4021e+001 -2.5273e+001 -4.3703e+000 22963 111171,110863,110811
 6.8000e+000 110912  3.6093e+000 -1.4674e+001 -8.6848e+000 22963 110759,110811,110785
 6.8000e+000 110889 -2.0185e+001 -3.2351e+001  4.7521e-002 22963 110811,110863,110837
 6.8000e+000 111053 -1.3413e+001 -2.8949e+001 -3.4258e+000 22963 111099,110733,111027
 6.8000e+000 111076 -1.2691e+001 -2.6868e+001 -4.2458e+000 22963 111171,110811,111027
 6.8000e+000 111125 -4.0996e+000 -2.1088e+001 -1.1708e+001 22963 110811,110759,111099
 6.8000e+000 111148 -5.3457e+000 -2.0075e+001 -9.4505e+000 22963 110811,111099,111027
 6.8000e+000 111197 -1.2482e+001 -2.5306e+001 -3.3740e+000 22963 110681,110863,111171
 6.8000e+000 111220 -8.8791e+000 -2.5239e+001 -3.1713e+000 22963 110681,111171,111027
 6.8000e+000 111726 -1.8510e+001 -2.6117e+001 -1.9548e+000 22459 111749,111507,111429
 6.8000e+000 111703 -1.2789e+001 -2.3879e+001 -3.8823e+000 22459 111749,111429,111585
 6.8000e+000 111680 -6.2384e+000 -3.0054e+001 -2.6099e+000 22459 111403,111585,111429
 6.8000e+000 111657 -1.5983e+001 -3.1591e+001  1.5349e+000 22459 111507,111559,111533
 6.8000e+000 111634 -2.0711e+001 -2.2859e+001  2.3612e+000 22459 111455,111507,111481
 6.8000e+000 111611 -3.7913e+001 -2.8464e+001  5.0163e+000 22459 111429,111507,111455
 6.8000e+000 111775 -1.6973e+001 -2.9490e+001  2.5552e+000 22459 111559,111507,111749
 6.8000e+000 111798 -1.2240e+001 -2.6200e+001  4.7507e-001 22459 111559,111749,111585
 6.8000e+000 112046 -6.5220e+000 -2.4312e+001 -3.1097e+000 21898 112069,111925,111873
 6.8000e+000 112023 -6.0559e+000 -2.4132e+001 -3.6295e-001 21898 112069,111873,111847
 6.8000e+000 112000 -7.9660e+000 -2.3347e+001 -7.1448e-001 21898 111821,111951,111847
 6.8000e+000 111977 -7.2909e+000 -1.8377e+001 -1.7444e+000 21898 111873,111925,111899
 6.8000e+000 112095 -1.0401e+001 -2.5615e+001 -3.9926e+000 21898 111951,111925,112069
 6.8000e+000 112118 -8.3513e+000 -2.4875e+001 -1.3420e+000 21898 111951,112069,111847
 6.8000e+000 112498 -7.5336e+000 -2.4353e+001 -8.9106e-001 21608 112521,112276,112224
 6.8000e+000 112475 -3.9768e+000 -2.4886e+001  1.4001e+000 21608 112521,112224,112380
 6.8000e+000 112452 -3.8961e+000 -2.7673e+001  2.3501e+000 21608 112302,112380,112354
 6.8000e+000 112429 -1.1719e+001 -2.5068e+001  1.0433e+000 21608 112224,112276,112250
 6.8000e+000 112406  8.8481e+000 -3.3665e+001 -3.3539e+000 21608 112302,112354,112328
 6.8000e+000 112547 -4.6084e+000 -2.0704e+001  6.6194e-001 21608 112302,112276,112521
 6.8000e+000 112570 -2.3544e+000 -2.3787e+001  2.3116e+000 21608 112302,112521,112380
 6.8000e+000 112948 -1.4589e+001 -2.3372e+001  3.4178e-001 20882 112971,112752,112700
 6.8000e+000 112925 -1.0431e+001 -2.2329e+001 -1.4557e+000 20882 112971,112700,112830
 6.8000e+000 112902 -1.7285e+001 -2.6431e+001  1.9043e+000 20882 112778,112830,112804
 6.8000e+000 112879 -8.8714e+000 -1.7430e+001 -1.2415e+000 20882 112674,112830,112700
 6.8000e+000 112856 -1.4781e+001 -2.4361e+001  5.0065e-001 20882 112700,112752,112726
 6.8000e+000 112997 -1.5101e+001 -2.4286e+001  2.5611e+000 20882 112778,112752,112971
 6.8000e+000 113020 -1.2635e+001 -2.3871e+001  7.3425e-001 20882 112778,112971,112830
 6.8000e+000 113526 -3.5571e+000 -2.2617e+001 -2.4518e-001 20428 113255,113385,113333
 6.8000e+000 113503 -2.7452e+000 -2.0743e+001 -4.7667e-002 20428 113229,113385,113255
 6.8000e+000 113480  6.7212e+000 -1.9632e+001  9.3933e-001 20428 113255,113333,113281
 6.8000e+000 113457 -2.3373e+000 -1.6127e+001  2.3668e+000 20428 113203,113385,113229
 6.8000e+000 113434  3.4627e-001 -2.1511e+001 -1.1126e+000 20428 113281,113333,113307
 6.8000e+000 113411 -5.2411e+000 -1.9572e+001 -1.8763e-001 20428 113333,113385,113359
 6.8000e+000 113774 -1.6559e+000 -2.6657e+001  1.6182e+000 19917 113797,113601,113549
 6.8000e+000 113751 -4.2803e+000 -2.6257e+001  1.6129e+000 19917 113869,113797,113549
 6.8000e+000 113728 -4.0378e+000 -2.6470e+001  2.5805e+000 19917 113869,113549,113679
 6.8000e+000 113705 -4.0270e+000 -2.8353e+001  3.7611e+000 19917 113549,113601,113575
 6.8000e+000 113823 -4.7154e+000 -3.4970e+001  5.1999e-001 19917 113627,113601,113797
 6.8000e+000 113846 -1.1660e+000 -2.5620e+001 -7.1030e-002 19917 113627,113797,113653
 6.8000e+000 113895 -3.6582e+000 -2.4114e+001  1.2202e+000 19917 113653,113797,113869
 6.8000e+000 113918 -3.9597e+000 -2.4528e+001  2.4222e+000 19917 113653,113869,113679
 6.8000e+000 114166 -1.1537e+001 -2.4113e+001 -4.8112e-001 19413 113993,114045,114019
 6.8000e+000 114143 -7.5709e+000 -2.2402e+001  4.5229e-001 19413 113967,114045,113993
 6.8000e+000 114120 -8.7164e+000 -2.2996e+001  1.2798e+000 19413 113967,114071,114045
 6.8000e+000 114097 -3.3388e+000 -2.6578e+001 -9.7530e-001 19413 113941,114071,113967
 6.8000e+000 114438 -1.1124e+001 -3.0914e+001  5.4498e-001 19001 114213,114265,114239
 6.8000e+000 114415 -7.4397e+000 -2.3130e+001 -5.6342e-001 19001 114213,114343,114265
 6.8000e+000 114392 -1.1682e+001 -3.2690e+001 -1.3266e+000 19001 114265,114343,114317
 6.8000e+000 114369  2.7058e+000 -2.6535e+001 -5.2522e-001 19001 114265,114317,114291
 6.8000e+000 114639 -7.3310e+000 -3.6592e+001  2.1127e+000 18554 114489,114541,114515
 6.8000e+000 114616 -6.8565e+000 -3.1113e+001  5.6879e-001 18554 114489,114567,114541
 6.8000e+000 114593 -1.6056e+001 -3.5036e+001 -2.0672e+000 18554 114463,114567,114489
 6.8000e+000 115043 -8.3713e-001 -2.2657e+001  1.3644e+000 18164 114795,114925,114821
 6.8000e+000 115020  8.9692e-001 -2.3033e+001  2.4667e+000 18164 114769,114925,114795
 6.8000e+000 114997  2.1228e+000 -2.4407e+001 -3.0399e-001 18164 115066,114873,114821
 6.8000e+000 114974  2.5252e+000 -1.9898e+001 -9.7795e-001 18164 115066,114821,114925
 6.8000e+000 114951  1.1688e+001 -2.4445e+001 -4.9264e+000 18164 114821,114873,114847
 6.8000e+000 115092  3.7837e-001 -2.1196e+001 -2.6684e+000 18164 114899,114873,115066
 6.8000e+000 115115  2.5691e+000 -1.4302e+001 -3.5424e+000 18164 114899,115066,114925
 6.8000e+000 115265  1.3720e-001 -1.8556e+001  1.1504e+000 17852 115164,115216,115190
 6.8000e+000 115242 -2.1497e+000 -2.3848e+001  2.0435e-002 17852 115138,115216,115164
 6.8000e+000 115464 -2.7472e+001 -5.1357e+001 -2.8453e-002 17346 115288,115366,115340
 6.8000e+000 115441 -3.5672e+001 -3.6374e+001 -3.8871e+000 17346 115288,115392,115366
 6.8000e+000 115418 -1.9648e+001 -5.6460e+001 -1.8841e+000 17346 115288,115340,115314
 6.8000e+000 115736 -4.2165e-001 -1.9959e+001  9.0914e-001 16942 115563,115641,115615
 6.8000e+000 115713 -9.6545e-001 -1.8802e+001  1.6667e-001 16942 115511,115641,115563
 6.8000e+000 115690 -1.4235e+001 -2.4275e+001  4.1031e+000 16942 115563,115615,115589
 6.8000e+000 115667 -2.8344e+000 -2.2260e+001  9.0779e-001 16942 115511,115563,115537
 6.8000e+000 116091 -1.6052e+001 -3.5124e+001 -3.6298e-002 16388 115918,115970,115944
 6.8000e+000 116068 -1.6360e+001 -3.0503e+001 -8.3467e-001 16388 115918,115996,115970
 6.8000e+000 116045 -2.2288e+001 -3.6208e+001  1.6187e+000 16388 115892,115996,115918
 6.8000e+000 116022 -1.1754e+001 -2.9998e+001  6.5218e+000 16388 115866,115996,115892
 6.8000e+000 116192  6.1366e+000 -2.9594e+001 -5.6943e+000 15810 116114,116166,116140
 6.8000e+000 116342 -1.2700e+001 -4.1733e+001  2.0268e+000 15419 116241,116293,116267
 6.8000e+000 116319 -1.8045e+001 -5.0117e+001 -1.3170e+000 15419 116215,116293,116241
 6.8000e+000 116445 -1.3431e+001 -2.2686e+001 -1.3816e+000 421 116367,116419,116393
 6.9000e+000 68477 -1.3220e+001 -1.1352e+001  3.8879e-001 68018 68327,68379,68353
 6.9000e+000 68454 -1.4774e+001 -1.3528e+001  1.1835e+000 68018 68301,68379,68327
 6.9000e+000 68431 -1.5152e+001 -1.8892e+001  8.9499e-001 68018 68301,68405,68379
 6.9000e+000 68578 -1.1703e+001 -9.8350e+000  2.1646e-001 67820 68500,68552,68526
 6.9000e+000 68728 -8.8690e+000 -5.6322e+000  5.9242e-002 67508 68601,68653,68627
 6.9000e+000 68705 -8.4976e+000 -3.5258e+000  4.3072e-001 67508 68601,68679,68653
 6.9000e+000 68927 -1.1779e+001 -1.9055e+001  1.4223e-001 67310 68777,68829,68803
 6.9000e+000 68904 -1.2807e+001 -2.2036e+001  7.0756e-001 67310 68751,68829,68777
 6.9000e+000 68881 -1.3646e+001 -2.5126e+001  6.9683e-001 67310 68751,68855,68829
 6.9000e+000 69386 -9.8138e+000 -1.2090e+001  8.3470e-002 67020 69216,69268,69242
 6.9000e+000 69363 -1.0314e+001 -1.1212e+001 -7.9400e-001 67020 69138,69268,69216
 6.9000e+000 69340 -7.6046e+000 -1.3075e+001 -2.8982e+000 67020 69112,69268,69138
 6.9000e+000 69317 -1.2082e+001 -1.2595e+001  1.5587e-002 67020 69138,69190,69164
 6.9000e+000 69294 -1.1323e+001 -1.0273e+001 -3.9842e-001 67020 69138,69216,69190
 6.9000e+000 69536 -1.1447e+001 -1.6270e+001 -9.0487e-001 66708 69435,69487,69461
 6.9000e+000 69513 -7.0903e+000 -1.7405e+001 -1.7607e-001 66708 69409,69487,69435
 6.9000e+000 69735 -5.8799e+000 -3.9903e+000 -2.2090e-001 66346 69585,69637,69611
 6.9000e+000 69712 -6.3006e+000 -3.5690e+000 -2.0291e-001 66346 69559,69637,69585
 6.9000e+000 69689 -5.6370e+000 -2.4104e+000 -7.2570e-001 66346 69559,69663,69637
 6.9000e+000 69985 -1.9900e+001 -2.3403e+001  5.0699e-001 66148 69786,69890,69864
 6.9000e+000 69962 -2.0865e+001 -2.3848e+001  6.1095e-001 66148 69760,69890,69786
 6.9000e+000 69939 -1.7855e+001 -2.2023e+001 -1.3344e+000 66148 69786,69864,69838
 6.9000e+000 69916 -1.9436e+001 -2.3315e+001  7.7759e-001 66148 69786,69838,69812
 6.9000e+000 70137 -7.0806e+000 -2.4307e+001 -7.7342e-001 65950 70036,70088,70062
 6.9000e+000 70114 -5.5784e+000 -2.7287e+001  2.3247e+000 65950 70010,70088,70036
 6.9000e+000 70470 -7.2217e+000 -1.9449e+001  3.1805e-001 65546 70245,70323,70271
 6.9000e+000 70447 -7.5247e+000 -2.1176e+001 -1.4901e-001 65546 70245,70375,70323
 6.9000e+000 70424 -6.7893e+000 -2.4311e+001  9.0476e-001 65546 70323,70375,70349
 6.9000e+000 70401 -9.6433e+000 -1.9869e+001  2.3527e-001 65546 70271,70323,70297
 6.9000e+000 70620 -1.4661e+001 -1.9825e+001  7.8313e-001 65348 70493,70545,70519
 6.9000e+000 70597 -1.2629e+001 -2.0517e+001  9.7924e-001 65348 70493,70571,70545
 6.9000e+000 70721 -1.8950e+001 -2.9866e+001 -2.5386e-001 65150 70643,70695,70669
 6.9000e+000 71020 -1.1610e+001 -2.0051e+001  2.7690e-001 64952 71043,70850,70824
 6.9000e+000 70997 -1.0519e+001 -1.8492e+001 -6.4475e-001 64952 71043,70824,70772
 6.9000e+000 70974 -1.0691e+001 -2.5082e+001  6.8540e-001 64952 71115,70746,70876
 6.9000e+000 70951 -1.3117e+001 -2.5639e+001  9.3057e-001 64952 70746,70902,70876
 6.9000e+000 70928 -1.1251e+001 -1.8068e+001 -1.0019e+000 64952 70772,70824,70798
 6.9000e+000 71069 -8.7798e+000 -1.8165e+001  2.0241e+000 64952 70876,70850,71043
 6.9000e+000 71092 -1.0777e+001 -2.3026e+001  6.6244e-001 64952 71115,70876,71043
 6.9000e+000 71141 -1.2025e+001 -2.2768e+001 -1.0579e+000 64952 70772,70746,71115
 6.9000e+000 71164 -1.1265e+001 -1.9641e+001 -1.1834e+000 64952 70772,71115,71043
 6.9000e+000 71365 -4.7899e+000 -2.4966e+001 -7.7642e-001 64662 71215,71293,71267
 6.9000e+000 71342  4.6630e-001 -1.7367e+001 -3.7114e+000 64662 71189,71293,71215
 6.9000e+000 71319 -7.0341e-001 -1.5267e+001 -8.6576e-002 64662 71215,71267,71241
 6.9000e+000 71615 -1.2756e+001 -1.6293e+001  8.5437e-001 64350 71710,71638,71468
 6.9000e+000 71592 -1.2793e+001 -1.5582e+001  2.3018e-001 64350 71638,71416,71390
 6.9000e+000 71569 -1.3143e+001 -1.5441e+001  1.6051e+000 64350 71710,71468,71442
 6.9000e+000 71546 -1.1550e+001 -1.6736e+001 -1.2114e+000 64350 71390,71520,71494
 6.9000e+000 71664 -1.1733e+001 -1.5844e+001  7.8746e-001 64350 71494,71468,71638
 6.9000e+000 71687 -1.2240e+001 -1.5859e+001  4.9434e-001 64350 71494,71638,71390
 6.9000e+000 71736 -1.1916e+001 -1.4509e+001  6.0951e-001 64350 71416,71638,71710
 6.9000e+000 71759 -1.2462e+001 -1.3877e+001  1.5174e+000 64350 71416,71710,71442
 6.9000e+000 72318 -1.2019e+001 -2.0654e+001  3.5934e-002 63837 71972,72024,71998
 6.9000e+000 72295 -1.2163e+001 -1.6528e+001  8.0019e-001 63837 72341,71972,71946
 6.9000e+000 72272 -1.1464e+001 -1.4735e+001  7.6330e-001 63837 72413,72341,71946
 6.9000e+000 72249 -1.1951e+001 -1.4158e+001  6.6119e-001 63837 72413,71946,72128
 6.9000e+000 72226 -1.1975e+001 -1.4464e+001  4.5801e-002 63837 72024,72076,72050
 6.9000e+000 72203 -1.1781e+001 -1.3789e+001 -3.4036e-001 63837 72024,72102,72076
 6.9000e+000 72180 -1.0567e+001 -1.3754e+001  1.3419e+000 63837 71946,72154,72128
 6.9000e+000 72367 -1.2538e+001 -1.7017e+001 -9.8154e-001 63837 72024,71972,72341
 6.9000e+000 72390 -1.1381e+001 -1.4427e+001 -7.2934e-001 63837 72024,72341,72102
 6.9000e+000 72439 -1.1661e+001 -1.5656e+001  4.8411e-001 63837 72102,72341,72413
 6.9000e+000 72462 -1.1981e+001 -1.4922e+001  4.8051e-001 63837 72102,72413,72128
 6.9000e+000 72791 -1.5685e+001 -1.9437e+001 -2.1908e+000 63383 72592,72696,72670
 6.9000e+000 72768 -1.6130e+001 -1.9538e+001 -3.0432e+000 63383 72566,72696,72592
 6.9000e+000 72745 -1.5162e+001 -1.7744e+001 -9.4278e-001 63383 72592,72670,72618
 6.9000e+000 72722 -1.4978e+001 -1.6203e+001 -1.7127e+000 63383 72618,72670,72644
 6.9000e+000 73297 -1.4317e+001 -1.5751e+001  5.2462e-001 63185 73000,73156,73130
 6.9000e+000 73274 -1.4271e+001 -1.5712e+001  1.4466e+000 63185 72974,73156,73000
 6.9000e+000 73251 -1.3807e+001 -1.9005e+001  1.3642e-001 63185 73000,73052,73026
 6.9000e+000 73228 -1.3815e+001 -1.7031e+001 -4.7711e-001 63185 73000,73130,73052
 6.9000e+000 73205 -1.3700e+001 -1.8839e+001 -2.2901e+000 63185 73052,73130,73104
 6.9000e+000 73182 -1.2890e+001 -2.2183e+001 -2.5778e+000 63185 73052,73104,73078
 6.9000e+000 73545 -8.5819e+000 -2.0868e+001  9.5931e-002 62781 73568,73398,73372
 6.9000e+000 73522 -7.0068e+000 -2.0322e+001  1.2938e+000 62781 73568,73372,73346
 6.9000e+000 73499 -1.0616e+001 -2.3852e+001 -2.1036e+000 62781 73640,73320,73424
 6.9000e+000 73476 -9.9884e+000 -2.0035e+001 -3.1210e+000 62781 73320,73450,73424
 6.9000e+000 73594 -8.3122e+000 -2.0797e+001  2.5798e-002 62781 73424,73398,73568
 6.9000e+000 73617 -9.3233e+000 -2.2832e+001 -5.8557e-001 62781 73640,73424,73568
 6.9000e+000 73666 -9.6776e+000 -2.1940e+001 -4.8724e-001 62781 73346,73320,73640
 6.9000e+000 73689 -8.8995e+000 -2.0469e+001  8.9985e-001 62781 73346,73640,73568
 6.9000e+000 74035 -7.1833e+000 -8.0114e+000 -8.0017e-001 62363 74058,73868,73842
 6.9000e+000 74012 -5.9476e+000 -6.5758e+000 -1.7021e+000 62363 74130,74058,73842
 6.9000e+000 73989 -5.4488e+000 -6.9190e+000 -2.5474e+000 62363 74130,73842,73816
 6.9000e+000 73966 -6.7213e+000 -8.6723e+000 -2.4427e-001 62363 74202,73764,73894
 6.9000e+000 73943 -8.1735e+000 -9.6108e+000 -6.7851e-001 62363 73712,73894,73764
 6.9000e+000 73920 -5.5131e+000 -6.2128e+000  7.8319e-001 62363 73712,73764,73738
 6.9000e+000 74084 -6.6024e+000 -9.4845e+000 -7.1612e-001 62363 73894,73868,74058
 6.9000e+000 74107 -6.7692e+000 -8.4466e+000 -4.2961e-001 62363 74202,73894,74058
 6.9000e+000 74156 -6.7648e+000 -7.8742e+000 -7.7185e-001 62363 73790,74058,74130
 6.9000e+000 74179 -5.4604e+000 -8.1942e+000 -1.6294e+000 62363 73790,74130,73816
 6.9000e+000 74228 -6.5099e+000 -8.5847e+000 -5.3908e-001 62363 73790,73764,74202
 6.9000e+000 74251 -6.4415e+000 -8.2762e+000 -7.3847e-001 62363 73790,74202,74058
 6.9000e+000 74403 -6.6622e+000 -1.1600e+001  7.0794e-001 62115 74426,74302,74276
 6.9000e+000 74380 -6.6140e+000 -9.9890e+000  7.6444e-001 62115 74426,74276,74354
 6.9000e+000 74452 -7.0852e+000 -1.0195e+001  3.9299e-001 62115 74328,74302,74426
 6.9000e+000 74475 -6.9449e+000 -8.4737e+000  4.0957e-001 62115 74328,74426,74354
 6.9000e+000 74578 -4.6589e-001 -2.1807e+001  2.9984e-001 61825 74500,74552,74526
 6.9000e+000 74982 -5.5618e+000 -5.7304e+000 -2.1530e-001 61513 75005,74734,74708
 6.9000e+000 74959 -4.8482e+000 -3.7019e+000 -8.7771e-001 61513 75005,74708,74864
 6.9000e+000 74936 -6.1993e+000 -5.9370e+000  6.0054e-001 61513 75077,74812,74734
 6.9000e+000 74913 -3.8921e+000 -3.4783e+000 -8.3626e-001 61513 74734,74786,74760
 6.9000e+000 74890 -4.6901e+000 -4.7406e+000 -8.0886e-002 61513 74734,74812,74786
 6.9000e+000 75031 -4.7287e+000 -6.0887e+000 -5.2334e-002 61513 75077,74734,75005
 6.9000e+000 75054 -4.6579e+000 -6.2696e+000  3.2564e-001 61513 74838,75005,74864
 6.9000e+000 75103 -7.1267e+000 -6.6926e+000  1.8243e+000 61513 74838,74812,75077
 6.9000e+000 75126 -6.1627e+000 -7.2399e+000  1.1994e+000 61513 74838,75077,75005
 6.9000e+000 75553 -7.8301e+000 -9.3914e+000 -7.6363e-001 61060 75576,75360,75308
 6.9000e+000 75530 -7.3675e+000 -1.0021e+001 -5.8555e-001 61060 75576,75308,75230
 6.9000e+000 75507 -6.6649e+000 -8.9946e+000 -7.7562e-001 61060 75308,75360,75334
 6.9000e+000 75484 -7.8773e+000 -1.0814e+001  1.1437e-001 61060 75230,75308,75256
 6.9000e+000 75461 -8.3571e+000 -1.1500e+001  4.5119e-001 61060 75256,75308,75282
 6.9000e+000 75438 -7.7434e+000 -8.8964e+000 -4.6125e-001 61060 75360,75412,75386
 6.9000e+000 75602 -7.9832e+000 -9.8650e+000 -4.9519e-001 61060 75412,75360,75576
 6.9000e+000 75625 -7.6691e+000 -1.0760e+001 -3.4694e-001 61060 75412,75576,75230
 6.9000e+000 76052 -9.6067e+000 -1.0686e+001 -1.9841e-001 60442 75755,75859,75833
 6.9000e+000 76029 -9.2732e+000 -1.1068e+001  3.3975e-001 60442 75729,75859,75755
 6.9000e+000 76006 -9.7511e+000 -1.0538e+001  1.4346e-002 60442 75755,75833,75807
 6.9000e+000 75983 -1.1246e+001 -1.1309e+001 -4.4232e-001 60442 75755,75807,75781
 6.9000e+000 75960 -7.5598e+000 -1.5600e+001  1.1888e+000 60442 75729,75911,75859
 6.9000e+000 75937 -1.5055e+001 -3.6251e+001  2.9559e+000 60442 75859,75911,75885
 6.9000e+000 76430 -1.0517e+001 -2.2363e+001 -3.5029e-002 59788 76453,76286,76234
 6.9000e+000 76407 -1.1315e+001 -2.4916e+001  5.1249e-001 59788 76453,76234,76182
 6.9000e+000 76384 -1.1237e+001 -1.9077e+001  2.4113e+000 59788 76525,76156,76312
 6.9000e+000 76361 -7.6346e+000 -2.8703e+001 -1.0161e-001 59788 76182,76234,76208
 6.9000e+000 76338 -8.3449e+000 -2.0629e+001  7.5834e-001 59788 76234,76286,76260
 6.9000e+000 76479 -1.1271e+001 -2.3731e+001  8.8531e-001 59788 76312,76286,76453
 6.9000e+000 76502 -1.0505e+001 -2.2933e+001  1.3186e+000 59788 76525,76312,76453
 6.9000e+000 76551 -1.2664e+001 -2.3974e+001  2.6106e+000 59788 76182,76156,76525
 6.9000e+000 76574 -1.1748e+001 -2.5183e+001  1.8080e+000 59788 76182,76525,76453
 6.9000e+000 77031 -7.2290e+000 -1.6133e+001 -1.5199e+000 59448 76835,76887,76861
 6.9000e+000 77008 -4.1573e+000 -1.2341e+001  1.9339e-001 59448 76835,76913,76887
 6.9000e+000 76985 -5.6781e+000 -1.0319e+001  2.2643e+000 59448 76809,76913,76835
 6.9000e+000 76962 -1.0485e+001 -1.4043e+001 -7.5354e-001 59448 76757,76913,76809
 6.9000e+000 76939 -9.6204e+000 -1.2706e+001 -1.1399e+000 59448 76757,76809,76783
 6.9000e+000 77537 -3.5873e+000 -6.8452e+000 -2.7297e-001 58994 77560,77344,77292
 6.9000e+000 77514 -4.5205e+000 -6.0594e+000 -3.0903e-001 58994 77560,77292,77240
 6.9000e+000 77491 -3.2261e+000 -5.0052e+000  9.7836e-003 58994 77632,77214,77370
 6.9000e+000 77468 -5.1155e+000 -7.6838e+000  1.4990e+000 58994 77292,77344,77318
 6.9000e+000 77445 -3.2973e+000 -6.9808e+000  4.9027e-001 58994 77214,77396,77370
 6.9000e+000 77422 -4.5032e+000 -6.3128e+000 -6.7245e-001 58994 77240,77292,77266
 6.9000e+000 77586 -3.9897e+000 -6.1665e+000 -3.6753e-001 58994 77370,77344,77560
 6.9000e+000 77609 -3.7867e+000 -5.2487e+000  4.5391e-002 58994 77632,77370,77560
 6.9000e+000 77658 -3.0380e+000 -5.0572e+000 -6.7216e-001 58994 77240,77214,77632
 6.9000e+000 77681 -3.6284e+000 -5.2944e+000 -6.7964e-001 58994 77240,77632,77560
 6.9000e+000 78138 -7.8197e+000 -1.0311e+001  4.7853e-001 58440 77864,77994,77890
 6.9000e+000 78115 -9.6341e+000 -9.8753e+000 -8.5509e-002 58440 77864,78020,77994
 6.9000e+000 78092 -9.1166e+000 -1.1104e+001 -1.1820e+000 58440 77942,77994,77968
 6.9000e+000 78069 -8.0081e+000 -1.0875e+001  3.1014e-002 58440 77890,77994,77942
 6.9000e+000 78046 -6.5858e+000 -1.0076e+001 -8.3593e-001 58440 77890,77942,77916
 6.9000e+000 78467 -3.8845e+000 -8.3698e+000 -1.6068e+000 57928 78562,78490,78346
 6.9000e+000 78444 -5.2438e+000 -8.0064e+000 -7.4213e-001 57928 78490,78294,78268
 6.9000e+000 78421 -3.3082e+000 -9.1885e+000 -1.0779e+000 57928 78562,78346,78320
 6.9000e+000 78398 -5.2550e+000 -7.3340e+000 -6.0321e-001 57928 78242,78372,78268
 6.9000e+000 78516 -5.4353e+000 -9.2057e+000 -1.9878e+000 57928 78372,78346,78490
 6.9000e+000 78539 -5.8687e+000 -8.3654e+000 -9.2290e-001 57928 78372,78490,78268
 6.9000e+000 78588 -5.5058e+000 -9.0904e+000 -1.3407e+000 57928 78294,78490,78562
 6.9000e+000 78611 -4.5240e+000 -9.7137e+000 -6.9850e-001 57928 78294,78562,78320
 6.9000e+000 79068 -1.3641e+001 -2.6209e+001 -6.5421e+000 57467 78794,78924,78820
 6.9000e+000 79045 -1.2043e+001 -2.5483e+001 -6.3605e+000 57467 78794,78950,78924
 6.9000e+000 79022 -6.6929e+000 -2.3856e+001  1.7696e+000 57467 78820,78898,78872
 6.9000e+000 78999 -1.1909e+001 -3.3507e+001 -4.2306e+000 57467 78820,78924,78898
 6.9000e+000 78976 -6.2006e+000 -2.4180e+001  2.5238e+000 57467 78820,78872,78846
 6.9000e+000 79446 -8.5578e+000 -1.1552e+001 -1.4263e+000 57120 79172,79302,79250
 6.9000e+000 79423 -1.0486e+001 -1.2438e+001 -3.8652e-001 57120 79172,79328,79302
 6.9000e+000 79400 -1.0157e+001 -1.1342e+001 -1.1265e+000 57120 79172,79250,79198
 6.9000e+000 79377 -8.2302e+000 -1.2066e+001 -1.3192e+000 57120 79250,79302,79276
 6.9000e+000 79354 -9.7920e+000 -1.3672e+001 -3.0402e+000 57120 79198,79250,79224
 6.9000e+000 79952 -1.4010e+001 -2.1115e+001  2.9204e-002 56773 79629,79785,79655
 6.9000e+000 79929 -6.4626e+000 -1.8733e+001  6.5186e-001 56773 79629,79811,79785
 6.9000e+000 79906 -1.1176e+001 -2.3156e+001  1.6517e+000 56773 79655,79733,79681
 6.9000e+000 79883 -1.1102e+001 -2.0295e+001  3.5661e-001 56773 79655,79785,79733
 6.9000e+000 79860 -1.0295e+001 -2.6917e+001 -3.5315e+000 56773 79733,79785,79759
 6.9000e+000 79837 -7.0573e+000 -2.1170e+001  4.8646e+000 56773 79681,79733,79707
 6.9000e+000 80281 -9.4770e+000 -1.1015e+001 -1.1930e+000 56319 80108,80160,80134
 6.9000e+000 80258 -8.8271e+000 -1.2108e+001 -1.1792e+000 56319 80056,80160,80108
 6.9000e+000 80235 -8.0721e+000 -1.1456e+001  3.9719e-003 56319 80056,80186,80160
 6.9000e+000 80212 -9.9851e+000 -1.4620e+001 -7.8668e-001 56319 80056,80108,80082
 6.9000e+000 80738 -6.0685e+000 -1.8404e+001  5.5751e-001 55957 80516,80620,80594
 6.9000e+000 80715 -9.8855e+000 -1.5964e+001  5.4076e-001 55957 80464,80620,80516
 6.9000e+000 80692 -8.5806e+000 -1.9588e+001  7.4824e-001 55957 80761,80568,80542
 6.9000e+000 80669 -7.6096e+000 -1.9361e+001  9.0738e-001 55957 80761,80542,80516
 6.9000e+000 80646 -1.0472e+001 -1.7201e+001  2.1312e+000 55957 80464,80516,80490
 6.9000e+000 80787 -9.5202e+000 -1.9583e+001  5.5019e-001 55957 80594,80568,80761
 6.9000e+000 80810 -8.6157e+000 -1.9389e+001  7.2303e-001 55957 80594,80761,80516
 6.9000e+000 81210 -8.8197e+000 -2.2220e+001 -3.3631e-001 55317 80936,80988,80962
 6.9000e+000 81187 -8.6422e+000 -2.3350e+001  2.4139e-001 55317 80936,81066,80988
 6.9000e+000 81164 -7.1511e+000 -2.4934e+001  6.8127e-001 55317 80936,81092,81066
 6.9000e+000 81141 -1.1331e+001 -2.5267e+001 -2.4079e+000 55317 80988,81066,81014
 6.9000e+000 81118 -1.9184e+000 -1.2069e+001  2.3648e+000 55317 81014,81066,81040
 6.9000e+000 81539 -7.1098e+000 -9.1385e+000 -2.0285e+000 54913 81340,81418,81392
 6.9000e+000 81516 -5.2016e+000 -1.0587e+001 -1.9067e+000 54913 81340,81444,81418
 6.9000e+000 81493 -6.8303e+000 -1.1342e+001 -2.1069e+000 54913 81314,81444,81340
 6.9000e+000 81470 -9.6127e+000 -1.1281e+001 -3.0001e+000 54913 81340,81392,81366
 6.9000e+000 81787 -6.5547e+000 -1.4788e+001 -7.6565e-001 54601 81588,81692,81640
 6.9000e+000 81764 -8.6483e+000 -1.7057e+001 -1.6383e+000 54601 81562,81692,81588
 6.9000e+000 81741 -7.4540e+000 -1.5410e+001  1.1693e-001 54601 81588,81640,81614
 6.9000e+000 81718 -7.1532e+000 -1.9274e+001 -2.4559e+000 54601 81640,81692,81666
 6.9000e+000 82344 -2.6954e+000 -4.8704e+000  7.2988e-002 54090 81998,82102,82076
 6.9000e+000 82321 -2.9793e+000 -4.9830e+000 -5.6445e-002 54090 81998,82154,82102
 6.9000e+000 82298 -2.9404e+000 -4.9548e+000 -4.4291e-002 54090 81972,82154,81998
 6.9000e+000 82275 -3.3130e+000 -6.0405e+000  4.9056e-001 54090 81998,82076,82024
 6.9000e+000 82252 -3.1351e+000 -5.0417e+000 -2.2593e-001 54090 81972,82180,82154
 6.9000e+000 82229 -4.7532e+000 -6.8764e+000  9.4959e-001 54090 82102,82154,82128
 6.9000e+000 82206 -5.9742e-001 -4.2390e+000 -6.5377e-001 54090 82024,82076,82050
 6.9000e+000 82722 -1.1941e+001 -1.9066e+001 -3.2966e-001 53579 82500,82578,82552
 6.9000e+000 82699 -1.0866e+001 -1.8250e+001  1.1083e-001 53579 82448,82578,82500
 6.9000e+000 82676 -1.1892e+001 -1.9784e+001  5.7562e-001 53579 82448,82500,82474
 6.9000e+000 82653 -1.2148e+001 -1.9113e+001  1.4133e+000 53579 82448,82604,82578
 6.9000e+000 82630 -6.4895e+000 -1.7611e+001 -4.0887e-001 53579 82500,82552,82526
 6.9000e+000 83356 -8.5537e+000 -1.8385e+001 -1.7155e+000 53189 83379,83088,83036
 6.9000e+000 83333 -8.5244e+000 -2.0654e+001 -1.6311e+000 53189 83379,83036,82984
 6.9000e+000 83310 -4.6399e+000 -1.9363e+001  2.6152e+000 53189 82984,83192,83166
 6.9000e+000 83287 -4.2635e+000 -1.6051e+001 -6.3652e-001 53189 83036,83088,83062
 6.9000e+000 83264 -6.5450e+000 -2.3052e+001 -3.5562e+000 53189 82984,83036,83010
 6.9000e+000 83241 -5.3641e+000 -2.3060e+001  1.1421e+000 53189 83114,83166,83140
 6.9000e+000 83218 -1.1890e+001 -2.4892e+001  1.1158e+000 53189 83088,83166,83114
 6.9000e+000 83405 -8.3879e+000 -1.9912e+001 -7.5588e-001 53189 83166,83088,83379
 6.9000e+000 83428 -8.0648e+000 -2.1935e+001 -8.0613e-001 53189 83166,83379,82984
 6.9000e+000 83725 -4.5242e+000 -1.2424e+001 -3.4588e+000 52585 83748,83529,83503
 6.9000e+000 83702 -3.3337e+000 -1.2108e+001 -2.7832e+000 52585 83820,83748,83503
 6.9000e+000 83679 -2.4327e+000 -1.0387e+001 -2.0260e+000 52585 83820,83503,83477
 6.9000e+000 83656 -4.1330e+000 -8.6005e+000 -6.9436e-001 52585 83477,83607,83581
 6.9000e+000 83633 -3.3468e+000 -8.5002e+000 -1.1757e+000 52585 83451,83607,83477
 6.9000e+000 83774 -3.8704e+000 -1.0679e+001 -3.0804e+000 52585 83555,83529,83748
 6.9000e+000 83797 -5.6491e+000 -1.1304e+001 -2.8160e+000 52585 83555,83748,83581
 6.9000e+000 83846 -4.2600e+000 -9.4555e+000 -2.1613e+000 52585 83581,83748,83820
 6.9000e+000 83869 -4.0142e+000 -8.3170e+000 -1.5897e+000 52585 83581,83820,83477
 6.9000e+000 84200 -3.1534e+000 -1.0149e+001 -1.4804e+000 52024 84001,84105,84079
 6.9000e+000 84177 -3.6128e+000 -9.5976e+000 -5.0585e-001 52024 83975,84105,84001
 6.9000e+000 84154 -3.0760e+000 -1.0838e+001 -1.0036e+000 52024 84001,84079,84053
 6.9000e+000 84131 -1.0708e+000 -5.9367e+000 -2.3145e-001 52024 84001,84053,84027
 6.9000e+000 84399 -6.1517e+000 -9.0458e+000 -1.3353e+000 51470 84422,84275,84249
 6.9000e+000 84376 -7.9491e+000 -1.1401e+001 -2.1407e+000 51470 84422,84249,84223
 6.9000e+000 84353 -4.5658e+000 -1.2582e+001 -2.8504e+000 51470 84275,84327,84301
 6.9000e+000 84448 -4.3691e+000 -1.1527e+001 -1.3058e+000 51470 84327,84275,84422
 6.9000e+000 84471 -5.8813e+000 -1.3443e+001 -2.0071e+000 51470 84327,84422,84223
 6.9000e+000 84753 -1.5953e+000 -4.9978e+000 -1.4455e+000 51073 84603,84655,84629
 6.9000e+000 84730 -3.0297e+000 -4.4403e+000 -3.8140e-001 51073 84776,84655,84603
 6.9000e+000 84707 -1.3338e+000 -3.8374e+000 -1.3264e+000 51073 84577,84681,84655
 6.9000e+000 84802 -1.8574e+000 -3.6186e+000 -1.0458e+000 51073 84577,84655,84776
 6.9000e+000 85178 -1.0748e+001 -2.1391e+001  1.3252e+000 50519 85201,85008,84982
 6.9000e+000 85155 -1.0374e+001 -2.0549e+001  1.3951e+000 50519 85273,85201,84982
 6.9000e+000 85132 -1.0260e+001 -2.0345e+001  1.3482e+000 50519 85273,84982,84930
 6.9000e+000 85109 -8.7049e+000 -2.0331e+001  1.0056e+000 50519 84930,84982,84956
 6.9000e+000 85086 -1.2432e+001 -2.4504e+001  1.7515e+000 50519 85008,85060,85034
 6.9000e+000 85227 -1.0408e+001 -2.1105e+001  8.8563e-001 50519 85060,85008,85201
 6.9000e+000 85250 -1.0561e+001 -2.1642e+001  7.6923e-001 50519 85060,85201,84904
 6.9000e+000 85299 -1.0479e+001 -2.1052e+001  4.7543e-001 50519 84904,85201,85273
 6.9000e+000 85322 -9.4451e+000 -1.8799e+001  7.0220e-002 50519 84904,85273,84930
 6.9000e+000 85958 -9.1835e+000 -2.2845e+001 -9.4456e-001 50093 85981,85768,85716
 6.9000e+000 85935 -8.0376e+000 -2.0576e+001 -4.2933e-001 50093 85981,85716,85612
 6.9000e+000 85912 -9.2190e+000 -2.0092e+001  1.0685e-001 50093 85612,85716,85664
 6.9000e+000 85889 -7.1700e+000 -2.0494e+001 -8.1117e-002 50093 85716,85768,85742
 6.9000e+000 85866 -8.2491e+000 -1.5322e+001 -5.0578e+000 50093 85664,85716,85690
 6.9000e+000 85843 -1.8926e+000 -1.3922e+001 -2.1616e-001 50093 85586,85794,85612
 6.9000e+000 85820 -7.4747e+000 -2.7174e+001  1.5248e+000 50093 85612,85664,85638
 6.9000e+000 86007 -1.2103e+001 -2.5335e+001 -4.4589e+000 50093 85794,85768,85981
 6.9000e+000 86030 -8.2714e+000 -1.8131e+001 -3.0302e+000 50093 85794,85981,85612
 6.9000e+000 86131 -3.9314e+000 -4.1120e+000  8.2915e-002 49895 86053,86105,86079
 6.9000e+000 86639 -4.4175e+000 -9.1467e+000 -3.8324e+000 49391 86662,86394,86368
 6.9000e+000 86616 -5.8681e+000 -1.5614e+001 -2.6447e+000 49391 86662,86368,86342
 6.9000e+000 86593 -3.8196e+000 -1.7281e+001 -5.0643e-001 49391 86342,86498,86472
 6.9000e+000 86570 -2.6849e+000 -1.8347e+001 -5.2136e-001 49391 86316,86498,86342
 6.9000e+000 86547 -1.2277e+001 -2.7487e+001  4.3786e-001 49391 86394,86472,86446
 6.9000e+000 86524 -2.8877e+000 -2.9154e+001  9.5912e-001 49391 86394,86446,86420
 6.9000e+000 86688 -7.0653e+000 -1.5131e+001 -1.0884e+000 49391 86472,86394,86662
 6.9000e+000 86711 -4.8621e+000 -1.7789e+001 -6.7136e-001 49391 86472,86662,86342
 6.9000e+000 87089 -9.0350e+000 -1.6085e+001  3.4606e-001 48987 86815,86919,86867
 6.9000e+000 87066 -7.6534e+000 -1.6858e+001  7.8919e-001 48987 86815,86971,86919
 6.9000e+000 87043 -3.9724e+000 -1.5664e+001 -3.6405e-001 48987 86867,86919,86893
 6.9000e+000 87020 -8.5798e+000 -1.5587e+001  2.2655e+000 48987 86815,86867,86841
 6.9000e+000 86997 -7.4984e+000 -1.4047e+001  1.6663e+000 48987 86919,86971,86945
 6.9000e+000 87467 -1.3828e+001 -1.7790e+001  1.3893e+000 48540 87490,87245,87219
 6.9000e+000 87444 -9.7408e+000 -1.7024e+001  5.7409e-001 48540 87562,87490,87219
 6.9000e+000 87421 -8.1860e+000 -1.6394e+001  1.0059e+000 48540 87562,87219,87349
 6.9000e+000 87398 -9.2376e+000 -1.3834e+001  4.6883e-001 48540 87245,87297,87271
 6.9000e+000 87375 -7.8764e+000 -1.8622e+001  2.6343e-001 48540 87193,87349,87219
 6.9000e+000 87516 -9.3764e+000 -1.6149e+001  1.3920e+000 48540 87297,87245,87490
 6.9000e+000 87539 -9.4433e+000 -1.7248e+001  8.9434e-001 48540 87297,87490,87323
 6.9000e+000 87588 -8.2606e+000 -1.6387e+001  1.5890e+000 48540 87323,87490,87562
 6.9000e+000 87611 -7.4840e+000 -1.6521e+001  1.8705e+000 48540 87323,87562,87349
 6.9000e+000 87810 -4.7344e+000 -1.3025e+001 -7.6587e-001 48136 87660,87712,87686
 6.9000e+000 87787 -2.3221e+000 -5.7683e+000 -4.3950e-001 48136 87660,87738,87712
 6.9000e+000 87764 -4.8630e+000 -6.8614e+000 -3.2502e-001 48136 87634,87738,87660
 6.9000e+000 88205 -7.6821e+000 -1.6009e+001 -2.9668e+000 47210 88300,88228,87937
 6.9000e+000 88182 -6.8897e+000 -1.7104e+001 -1.7162e+000 47210 88228,87833,88041
 6.9000e+000 88159 -7.9121e+000 -1.7503e+001 -3.8268e+000 47210 88300,87937,87911
 6.9000e+000 88136 -6.4679e+000 -1.5713e+001 -2.3888e+000 47210 87833,87911,87859
 6.9000e+000 88113 -1.2920e+001 -1.3677e+001 -4.4676e+000 47210 87937,87989,87963
 6.9000e+000 88090 -7.0802e+000 -1.1693e+001  1.2706e+000 47210 87989,88041,88015
 6.9000e+000 88067 -6.3710e+000 -1.5998e+001 -4.3575e+000 47210 87859,87911,87885
 6.9000e+000 88254 -7.0051e+000 -1.0862e+001 -3.5501e+000 47210 87989,87937,88228
 6.9000e+000 88277 -8.8985e+000 -1.5286e+001 -1.6183e+000 47210 87989,88228,88041
 6.9000e+000 88326 -6.6439e+000 -1.4735e+001 -1.7955e+000 47210 87833,88228,88300
 6.9000e+000 88349 -6.9908e+000 -1.5659e+001 -2.7481e+000 47210 87833,88300,87911
 6.9000e+000 88780 -3.9489e+000 -6.4464e+000 -2.6129e+000 46642 88803,88509,88483
 6.9000e+000 88757 -1.5341e+000 -4.9422e+000 -1.2974e+000 46642 88803,88483,88639
 6.9000e+000 88734 -1.7299e+000 -4.8893e+000 -1.1094e+000 46642 88875,88561,88509
 6.9000e+000 88711 -3.7496e+000 -4.9364e+000  1.5140e-001 46642 88509,88561,88535
 6.9000e+000 88688 -1.8218e-001 -5.8372e+000 -3.2606e-001 46642 88457,88639,88483
 6.9000e+000 88665 -1.7873e+000 -7.0626e+000 -7.8789e-001 46642 88561,88613,88587
 6.9000e+000 88829 -2.4787e+000 -4.9138e+000 -1.2579e+000 46642 88875,88509,88803
 6.9000e+000 88852 -1.9900e+000 -4.1964e+000 -6.1581e-001 46642 88613,88803,88639
 6.9000e+000 88901 -8.5596e-001 -5.0379e+000 -9.6390e-001 46642 88613,88561,88875
 6.9000e+000 88924 -1.4022e+000 -4.9854e+000 -1.2270e+000 46642 88613,88875,88803
 6.9000e+000 89253 -1.1874e+000 -1.1474e+001 -4.1598e-001 46444 89080,89158,89132
 6.9000e+000 89230 -5.4912e-001 -9.7997e+000 -7.9785e-001 46444 89028,89158,89080
 6.9000e+000 89207 -1.4275e+000 -1.0361e+001 -5.3702e-001 46444 89028,89080,89054
 6.9000e+000 89184  1.1585e+000 -1.3445e+001 -2.8584e+000 46444 89080,89132,89106
 6.9000e+000 89631 -7.5963e+000 -1.4020e+001  8.6207e-001 46040 89383,89461,89435
 6.9000e+000 89608 -7.3543e+000 -1.4321e+001 -7.4179e-001 46040 89383,89487,89461
 6.9000e+000 89585 -8.3205e+000 -2.0947e+001 -5.2917e-001 46040 89383,89435,89409
 6.9000e+000 89562 -5.2936e+000 -1.0977e+001 -2.1633e+000 46040 89383,89513,89487
 6.9000e+000 89539 -2.8866e+000 -9.7305e+000 -2.8716e+000 46040 89357,89513,89383
 6.9000e+000 90009 -8.0466e+000 -1.8126e+001  1.1672e-001 45636 89813,89891,89839
 6.9000e+000 89986 -7.9858e+000 -1.6346e+001  1.1444e+000 45636 89787,89891,89813
 6.9000e+000 89963 -7.1549e+000 -1.7006e+001 -3.0855e-001 45636 89839,89891,89865
 6.9000e+000 89940 -8.5329e+000 -1.8126e+001  9.6166e-001 45636 89735,89891,89787
 6.9000e+000 89917 -6.6766e+000 -1.8419e+001 -6.9448e-001 45636 89735,89787,89761
 6.9000e+000 90208 -4.8274e+000 -1.3408e+001 -3.1205e+000 45175 90231,90058,90032
 6.9000e+000 90185 -3.9424e+000 -1.2433e+001 -4.7232e+000 45175 90231,90032,90136
 6.9000e+000 90162 -3.0247e+000 -7.8805e+000 -2.9224e-001 45175 90058,90110,90084
 6.9000e+000 90257 -6.3145e+000 -1.5299e+001 -1.7885e+000 45175 90110,90058,90231
 6.9000e+000 90280 -4.4307e+000 -1.3597e+001 -3.5298e+000 45175 90110,90231,90136
 6.9000e+000 90528 -4.2892e+000 -1.1781e+001 -1.6271e+000 44513 90695,90551,90407
 6.9000e+000 90505 -5.2232e+000 -1.1056e+001 -1.7362e+000 44513 90551,90355,90329
 6.9000e+000 90482 -5.1696e+000 -1.2845e+001 -1.7708e+000 44513 90623,90303,90433
 6.9000e+000 90459 -4.0285e+000 -1.0608e+001 -8.1941e-001 44513 90695,90407,90381
 6.9000e+000 90577 -5.6820e+000 -1.2224e+001 -2.5377e+000 44513 90433,90407,90551
 6.9000e+000 90600 -5.1894e+000 -1.1586e+001 -1.6421e+000 44513 90623,90433,90551
 6.9000e+000 90649 -4.5192e+000 -1.1365e+001 -1.8620e+000 44513 90329,90303,90623
 6.9000e+000 90672 -4.9506e+000 -1.0960e+001 -1.7765e+000 44513 90329,90623,90551
 6.9000e+000 90721 -5.0664e+000 -9.9193e+000 -2.0885e+000 44513 90355,90551,90695
 6.9000e+000 90744 -5.2381e+000 -9.0608e+000 -1.7364e+000 44513 90355,90695,90381
 6.9000e+000 91077  5.5420e-001 -1.1068e+001  3.5531e-004 44059 91100,90930,90904
 6.9000e+000 91054 -5.8537e+000 -1.2607e+001  1.4431e+000 44059 91100,90904,90982
 6.9000e+000 91031 -8.9848e+000 -1.3391e+001 -5.4907e-002 44059 90878,90982,90904
 6.9000e+000 91008 -5.0612e+000 -1.2000e+001  1.1518e-001 44059 90852,90982,90878
 6.9000e+000 91126 -1.1125e+001 -1.4790e+001  3.1541e-001 44059 91172,91100,90956
 6.9000e+000 91149 -6.4645e+000 -1.4494e+001 -4.2507e-001 44059 90956,91100,90982
 6.9000e+000 91198  8.6438e-001 -1.7642e+000 -4.6618e+000 44059 90930,91100,91172
 6.9000e+000 91677 -5.0086e-001 -1.7518e+000 -8.2457e-003 43549 91455,91533,91481
 6.9000e+000 91654  2.7254e+000 -6.6515e-002  8.4277e-001 43549 91429,91533,91455
 6.9000e+000 91631 -1.0936e+000 -2.3633e+000  7.7708e-001 43549 91481,91533,91507
 6.9000e+000 91608  2.7167e+000 -1.0017e-001  1.7569e-001 43549 91429,91559,91533
 6.9000e+000 91585  3.1877e+000  5.5198e+000 -1.0856e+000 43549 91403,91559,91429
 6.9000e+000 92006 -7.5476e+000 -1.6792e+001  9.9754e-002 43059 91781,91885,91807
 6.9000e+000 91983 -8.2183e+000 -1.6323e+001  3.3321e+000 43059 91781,91911,91885
 6.9000e+000 91960 -8.1507e+000 -1.6317e+001 -2.2382e-001 43059 91807,91885,91833
 6.9000e+000 91937 -5.6642e+000 -1.5090e+001  4.4011e-001 43059 91833,91885,91859
 6.9000e+000 92561  7.2862e-001 -2.6656e+000 -1.5748e+000 42598 92584,92215,92189
 6.9000e+000 92538 -7.2703e-001 -3.6024e+000 -7.2801e-001 42598 92656,92584,92189
 6.9000e+000 92515 -8.2087e-001 -4.2811e+000 -4.0360e-001 42598 92656,92189,92397
 6.9000e+000 92492 -6.1569e+000 -2.2966e+000 -8.3742e-001 42598 92241,92319,92293
 6.9000e+000 92469 -2.1645e+000 -3.8212e+000  1.5712e-001 42598 92319,92397,92371
 6.9000e+000 92446  1.7099e+000 -8.6204e+000  6.5565e+000 42598 92319,92371,92345
 6.9000e+000 92423 -3.0181e+000 -1.6010e+000 -1.7804e+000 42598 92241,92293,92267
 6.9000e+000 92610 -9.9983e-001 -3.1750e+000 -1.3113e+000 42598 92241,92215,92584
 6.9000e+000 92633 -8.5590e-001 -2.7568e+000 -6.3849e-001 42598 92241,92584,92319
 6.9000e+000 92682 -8.8238e-001 -2.7532e+000 -7.1313e-001 42598 92319,92584,92656
 6.9000e+000 92705 -6.6567e-001 -3.1389e+000 -5.1162e-001 42598 92319,92656,92397
 6.9000e+000 92953 -8.2065e+000 -1.6815e+001  8.1705e-001 42094 92976,92806,92780
 6.9000e+000 92930 -8.6977e+000 -1.5931e+001  1.3769e-001 42094 92976,92780,92754
 6.9000e+000 92907 -3.5960e+000 -1.6336e+001 -1.0395e-001 42094 93048,92832,92806
 6.9000e+000 92884 -1.0618e+001 -1.8212e+001 -8.4027e-001 42094 92728,92858,92754
 6.9000e+000 93002 -6.0633e+000 -1.5703e+001  4.1678e-001 42094 93048,92806,92976
 6.9000e+000 93025 -8.6497e+000 -1.5873e+001 -6.6571e-003 42094 92858,92976,92754
 6.9000e+000 93074 -7.0674e+000 -1.7586e+001 -1.4530e-001 42094 92858,92832,93048
 6.9000e+000 93097 -9.0570e+000 -1.6650e+001  1.5595e-001 42094 92858,93048,92976
 6.9000e+000 93605 -6.4854e+000 -1.8216e+001 -1.0250e+000 41846 93628,93412,93386
 6.9000e+000 93582 -5.3137e+000 -1.2551e+001 -6.5885e-001 41846 93628,93386,93308
 6.9000e+000 93559 -6.6122e+000 -1.1767e+001 -2.8864e+000 41846 93700,93464,93438
 6.9000e+000 93536 -8.2025e+000 -1.8766e+001  1.7645e-001 41846 93308,93386,93334
 6.9000e+000 93513 -9.3042e+000 -1.0887e+001 -3.4892e+000 41846 93334,93386,93360
 6.9000e+000 93490 -4.8004e+000 -1.1214e+001 -4.2286e+000 41846 93282,93464,93308
 6.9000e+000 93654 -6.8001e+000 -1.3474e+001 -1.5363e+000 41846 93438,93412,93628
 6.9000e+000 93677 -7.6388e+000 -1.2531e+001 -1.1001e+000 41846 93700,93438,93628
 6.9000e+000 93726 -5.3119e+000 -9.6915e+000 -3.9617e+000 41846 93308,93464,93700
 6.9000e+000 93749 -6.0529e+000 -9.7651e+000 -2.2264e+000 41846 93308,93700,93628
 6.9000e+000 94255 -7.8519e+000 -1.7556e+001  1.4942e+000 41385 93958,94114,94088
 6.9000e+000 94232 -6.2166e+000 -1.8956e+001  7.8394e-001 41385 93932,94114,93958
 6.9000e+000 94209 -1.2968e+001 -2.1122e+001  4.4729e+000 41385 93958,94088,94062
 6.9000e+000 94186 -1.0670e+001 -1.2554e+001  2.4942e+000 41385 93958,94062,93984
 6.9000e+000 94163 -8.2693e+000 -1.2801e+001  1.3000e+000 41385 93984,94062,94036
 6.9000e+000 94140 -6.0453e+000 -1.7757e+001  2.2877e+000 41385 93984,94036,94010
 6.9000e+000 94476 -3.6250e+000 -2.5921e+001  1.1076e+000 40881 94326,94378,94352
 6.9000e+000 94453 -4.4483e+000 -1.9765e+001  1.8892e+000 40881 94300,94378,94326
 6.9000e+000 94430 -6.6554e+000 -1.8247e+001  2.0214e-001 40881 94300,94404,94378
 6.9000e+000 94626  2.3787e+000 -1.8814e+000 -1.2783e+000 40591 94649,94551,94525
 6.9000e+000 94603 -4.6300e-001 -1.9936e-001  1.2376e+000 40591 94781,94577,94551
 6.9000e+000 94675  1.4622e+000 -1.2080e+000 -1.3270e+000 40591 94781,94551,94649
 6.9000e+000 94807  3.8086e+000  1.2309e+000  1.3780e+000 40591 94499,94577,94781
 6.9000e+000 94830  5.7095e+000  4.9020e-001 -1.6119e+000 40591 94499,94781,94649
 6.9000e+000 95336 -1.4707e+001 -1.3146e+001 -2.5048e+000 40187 95013,95169,95039
 6.9000e+000 95313 -6.5060e+000 -1.1482e+001 -3.3592e-001 40187 95013,95195,95169
 6.9000e+000 95290 -9.9534e-001 -1.1794e+001 -1.4491e+000 40187 95039,95143,95065
 6.9000e+000 95267 -1.0133e+001 -1.5520e+001 -2.3887e+000 40187 95039,95169,95143
 6.9000e+000 95244 -1.9544e+000 -5.9415e+000 -2.6004e-001 40187 95091,95143,95117
 6.9000e+000 95221 -7.8015e-001 -3.4149e+000 -2.1542e-001 40187 95065,95143,95091
 6.9000e+000 95665 -3.0738e+000 -4.7971e+000  6.4272e+000 39626 95466,95570,95544
 6.9000e+000 95642 -6.6278e+000 -1.7057e+000  4.6343e+000 39626 95440,95570,95466
 6.9000e+000 95619 -1.3195e+001 -9.4299e+000  4.9971e+000 39626 95466,95544,95492
 6.9000e+000 95596 -3.2848e+000 -8.6933e+000  5.8421e+000 39626 95492,95544,95518
 6.9000e+000 95913 -7.1185e+000 -1.0869e+001 -1.8365e+000 39136 96080,95936,95766
 6.9000e+000 95890 -3.9719e+000 -1.2585e+001 -1.6815e+000 39136 95936,95714,95688
 6.9000e+000 95867 -1.1644e+001 -1.2841e+001  9.7175e-001 39136 96008,95792,95766
 6.9000e+000 95844 -6.4796e+000 -1.0594e+001 -1.8592e+000 39136 96080,95766,95740
 6.9000e+000 95962 -9.2211e+000 -1.3009e+001 -9.6870e-001 39136 96008,95766,95936
 6.9000e+000 95985 -6.3015e+000 -1.6956e+001 -3.2529e-001 39136 95818,95936,95688
 6.9000e+000 96034 -5.9602e+000 -1.0428e+001  8.4317e-001 39136 95818,95792,96008
 6.9000e+000 96057 -5.3140e+000 -1.1488e+001 -1.0309e+000 39136 95818,96008,95936
 6.9000e+000 96106 -6.9708e+000 -1.1339e+001 -8.2331e-001 39136 95714,95936,96080
 6.9000e+000 96129 -5.8077e+000 -1.0819e+001 -9.2716e-001 39136 95714,96080,95740
 6.9000e+000 96350  1.4571e-001 -1.6557e+000 -1.0103e+000 38824 96200,96278,96252
 6.9000e+000 96327  2.2094e+000 -1.7205e-002 -4.7676e-002 38824 96174,96278,96200
 6.9000e+000 96304  6.2582e+000 -2.0348e+000 -3.0357e+000 38824 96200,96252,96226
 6.9000e+000 96830  7.0216e-001 -2.3296e+000 -9.4616e-001 38320 97069,96536,96484
 6.9000e+000 96807  9.4852e-001 -2.5389e+000 -9.5294e-001 38320 97069,96484,96853
 6.9000e+000 96784  7.0956e-001 -2.2284e+000 -1.6846e+000 38320 96853,96484,96458
 6.9000e+000 96761  7.0996e-001 -1.6073e+000 -2.4710e+000 38320 96925,96640,96614
 6.9000e+000 96738 -2.7592e-001 -1.5798e+000 -1.8157e+000 38320 96997,96666,96640
 6.9000e+000 96715  3.3193e-001 -3.9119e+000 -7.9685e-001 38320 97141,96588,96562
 6.9000e+000 96692  3.3316e-001 -2.7800e+000 -7.9001e-001 38320 96484,96536,96510
 6.9000e+000 96879  3.6326e-001 -3.7183e+000 -7.6868e-001 38320 97141,96562,96853
 6.9000e+000 96902  3.7454e-002 -3.6238e+000 -1.9252e+000 38320 96925,96614,96853
 6.9000e+000 96951 -9.7283e-002 -1.4626e+000 -1.8777e+000 38320 96997,96640,96925
 6.9000e+000 96974  7.9529e-001 -1.6596e+000 -1.5970e+000 38320 96458,96925,96853
 6.9000e+000 97023 -7.6985e-001 -1.7023e+000 -1.5542e+000 38320 96458,96666,96997
 6.9000e+000 97046 -3.1127e-001 -1.4735e+000 -1.6247e+000 38320 96458,96997,96925
 6.9000e+000 97095  1.9224e+000  5.4585e-001 -1.1028e+000 38320 96562,96536,97069
 6.9000e+000 97118  9.8333e-001 -2.1728e+000 -9.3164e-001 38320 96562,97069,96853
 6.9000e+000 97167  1.3405e-001 -3.7333e+000 -8.4386e-001 38320 96614,96588,97141
 6.9000e+000 97190  1.9941e-001 -3.5149e+000 -7.7274e-001 38320 96614,97141,96853
 6.9000e+000 97519 -3.8003e-001 -9.2629e+000  4.0862e+000 37766 97542,97398,97372
 6.9000e+000 97496 -5.8563e-001 -5.4001e+000  3.3059e+000 37766 97542,97372,97346
 6.9000e+000 97473 -7.2135e-001 -7.9525e+000 -6.3544e-001 37766 97294,97424,97346
 6.9000e+000 97450 -2.4293e-001 -5.9242e+000 -3.2578e-002 37766 97294,97346,97320
 6.9000e+000 97568  1.0245e+000 -1.0882e+001  6.5034e-001 37766 97424,97398,97542
 6.9000e+000 97591  5.6244e-001 -6.1960e+000  1.2890e-001 37766 97424,97542,97346
 6.9000e+000 98048 -2.3811e+000 -3.5851e+000 -2.7639e+000 37262 98071,97878,97852
 6.9000e+000 98025 -1.3010e+000 -4.8717e+000 -1.0500e+000 37262 98071,97852,97800
 6.9000e+000 98002  2.2698e-001 -4.9799e+000 -2.4595e+000 37262 97800,97852,97826
 6.9000e+000 97979 -2.5112e+000 -5.9229e+000 -2.4576e+000 37262 97800,97930,97904
 6.9000e+000 97956  9.1499e-001 -4.2932e+000 -1.1106e+000 37262 97774,97930,97800
 6.9000e+000 98097 -5.5760e+000 -4.9569e+000 -2.6947e+000 37262 97904,97878,98071
 6.9000e+000 98120 -2.8177e+000 -5.3901e+000 -8.9407e-001 37262 97904,98071,97800
 6.9000e+000 98449 -5.1371e+000 -8.5849e+000 -1.4183e+000 36950 98472,98302,98250
 6.9000e+000 98426 -3.2220e+000 -7.4620e+000 -1.9473e+000 36950 98472,98250,98354
 6.9000e+000 98403 -8.2352e+000 -1.1691e+001  1.5491e+000 36950 98250,98302,98276
 6.9000e+000 98380 -4.0736e-001 -4.2709e+000  9.4250e-001 36950 98224,98354,98250
 6.9000e+000 98498 -3.6941e+000 -1.0953e+001 -1.6571e-001 36950 98328,98302,98472
 6.9000e+000 98521 -1.2353e+000 -9.2450e+000 -1.0279e+000 36950 98328,98472,98354
 6.9000e+000 99125 -4.9561e+000 -4.6915e+000 -2.0195e+000 36296 98704,98756,98730
 6.9000e+000 99102 -9.3078e+000 -3.4168e+000 -4.1707e-001 36296 98704,98938,98756
 6.9000e+000 99079 -4.5529e+000 -4.4028e+000 -1.0869e+000 36296 99148,98938,98912
 6.9000e+000 99056 -3.0626e+000 -4.2690e+000  2.8712e+000 36296 99292,99220,98782
 6.9000e+000 99033 -3.7842e+000 -5.8031e+000 -5.3314e-001 36296 99148,98912,98834
 6.9000e+000 99010 -3.0366e+000 -1.3973e+000  3.8663e+000 36296 99292,98782,98756
 6.9000e+000 98987 -4.5643e+000 -1.2819e+001 -2.7087e+000 36296 98834,98912,98886
 6.9000e+000 98964 -4.1075e+000 -1.3598e+001 -2.3899e+000 36296 98834,98886,98860
 6.9000e+000 99174 -5.8731e+000 -7.0659e+000 -4.1125e-001 36296 99220,98938,99148
 6.9000e+000 99197 -3.5546e+000 -9.2358e+000  1.1325e+000 36296 98808,99148,98834
 6.9000e+000 99246 -4.6935e+000 -8.0408e+000  4.7143e+000 36296 98808,98782,99220
 6.9000e+000 99269 -3.4592e-001 -2.1194e+000  1.8203e+000 36296 98808,99220,99148
 6.9000e+000 99318 -5.2760e+000 -1.9897e+000  1.0497e+000 36296 98938,99220,99292
 6.9000e+000 99341 -5.5152e+000 -2.3314e+000  1.8503e+000 36296 98938,99292,98756
 6.9000e+000 99719 -8.0413e+000 -1.4340e+001  3.4945e-001 35742 99742,99471,99601
 6.9000e+000 99696 -7.4335e+000 -1.2057e+001  1.3746e+000 35742 99445,99601,99471
 6.9000e+000 99673 -7.5177e+000 -1.3135e+001 -2.9780e-001 35742 99742,99601,99575
 6.9000e+000 99650 -6.4492e+000 -1.8529e+001 -2.2863e-001 35742 99814,99549,99523
 6.9000e+000 99627 -4.8117e+000 -1.3693e+001  2.9654e-001 35742 99471,99523,99497
 6.9000e+000 99768 -6.1143e+000 -1.3935e+001  7.9709e-001 35742 99523,99471,99742
 6.9000e+000 99791 -7.5997e+000 -1.6462e+001 -1.0388e-001 35742 99814,99523,99742
 6.9000e+000 99840 -6.4136e+000 -1.5957e+001 -1.0064e+000 35742 99575,99549,99814
 6.9000e+000 99863 -7.0913e+000 -1.3234e+001 -8.0302e-001 35742 99575,99814,99742
 6.9000e+000 100111 -6.8929e+000 -1.1700e+001  1.4861e+000 35302 100134,99990,99938
 6.9000e+000 100088 -5.7618e+000 -9.1281e+000  1.2269e+000 35302 100134,99938,99912
 6.9000e+000 100065 -6.0143e+000 -9.8337e+000 -1.8168e-001 35302 100206,99886,100016
 6.9000e+000 100042 -7.8038e+000 -1.2891e+001  1.0848e+000 35302 99938,99990,99964
 6.9000e+000 100160 -5.9764e+000 -1.1442e+001 -8.5007e-002 35302 100016,99990,100134
 6.9000e+000 100183 -5.4734e+000 -1.0116e+001 -1.3366e-001 35302 100206,100016,100134
 6.9000e+000 100232 -6.7131e+000 -1.0135e+001 -1.0114e-001 35302 99912,99886,100206
 6.9000e+000 100255 -6.1130e+000 -1.0397e+001 -2.7253e-002 35302 99912,100206,100134
 6.9000e+000 100586 -6.9344e+000 -4.5816e+000  4.5398e+000 35012 100609,100387,100361
 6.9000e+000 100563 -8.7433e+000 -1.6310e+000  2.7232e-002 35012 100609,100361,100465
 6.9000e+000 100540 -4.7582e+000  2.8678e-001 -1.7942e+000 35012 100361,100491,100465
 6.9000e+000 100517 -2.8957e-001 -7.6810e-001 -3.1082e+000 35012 100413,100465,100439
 6.9000e+000 100635 -2.4524e+000 -2.5686e+000  2.5739e+000 35012 100413,100387,100609
 6.9000e+000 100658 -3.9948e+000  1.2956e+000 -2.0573e+000 35012 100413,100609,100465
 6.9000e+000 100987 -6.2135e+000 -9.5281e+000 -8.7004e-002 34700 100788,100866,100814
 6.9000e+000 100964 -3.8909e+000 -4.8155e+000  1.3878e+000 34700 101010,100866,100788
 6.9000e+000 100941 -2.8564e-001 -1.4840e+000  1.8064e+000 34700 100762,100892,100866
 6.9000e+000 100918 -6.8900e+000 -1.0726e+001 -1.2309e+000 34700 100814,100866,100840
 6.9000e+000 101036 -1.8341e+000 -3.2644e+000  2.8115e+000 34700 100762,100866,101010
 6.9000e+000 101493 -8.7888e+000 -1.3292e+001 -3.7634e-001 34132 101516,101349,101297
 6.9000e+000 101470 -8.8603e+000 -1.5414e+001 -6.4859e-001 34132 101588,101516,101297
 6.9000e+000 101447 -8.5507e+000 -1.4923e+001 -9.4574e-001 34132 101588,101297,101245
 6.9000e+000 101424 -6.6879e+000 -1.4471e+001 -1.3574e+000 34132 101245,101297,101271
 6.9000e+000 101401 -9.1313e+000 -1.3569e+001 -1.8656e-001 34132 101297,101349,101323
 6.9000e+000 101542 -8.8734e+000 -1.5055e+001 -2.1956e-001 34132 101375,101349,101516
 6.9000e+000 101565 -8.5200e+000 -1.6590e+001 -1.1794e+000 34132 101375,101516,101219
 6.9000e+000 101614 -8.4088e+000 -1.4988e+001 -9.7965e-001 34132 101219,101516,101588
 6.9000e+000 101637 -8.4793e+000 -1.4773e+001 -1.2177e+000 34132 101219,101588,101245
 6.9000e+000 101858  3.4733e+000  7.5446e-001  9.9036e-001 33720 101708,101786,101760
 6.9000e+000 101835  6.2944e+000  3.8780e+000  2.3116e+000 33720 101682,101786,101708
 6.9000e+000 101812  3.6110e+000  9.7719e-001  1.3575e+000 33720 101708,101760,101734
 6.9000e+000 102128 -3.3435e+000 -1.4567e+001 -4.2142e-001 33130 101903,102007,101929
 6.9000e+000 102105 -2.7950e+000 -1.6541e+001  3.8455e-001 33130 101903,102033,102007
 6.9000e+000 102082 -2.3737e+000 -1.7988e+001 -3.9555e+000 33130 101929,102007,101955
 6.9000e+000 102059 -3.2673e+000 -1.1601e+001  4.0886e-001 33130 101955,102007,101981
 6.9000e+000 102461  4.9505e+000  3.5593e+000 -1.1642e+000 32840 102236,102340,102262
 6.9000e+000 102438  4.4562e+000  3.4923e+000 -2.5449e-001 32840 102236,102366,102340
 6.9000e+000 102415  5.2160e+000  3.0117e+000 -5.0455e-001 32840 102262,102340,102288
 6.9000e+000 102392  5.4578e+000  3.2733e+000 -9.6786e-001 32840 102288,102340,102314
 6.9000e+000 102997 -4.7364e+000 -9.5153e+000  1.8628e+000 32493 102749,102879,102853
 6.9000e+000 102974 -4.1278e+000 -7.7037e+000  2.4992e+000 32493 102723,102879,102749
 6.9000e+000 102951 -4.3860e+000 -7.5099e+000  1.9668e+000 32493 102749,102801,102775
 6.9000e+000 102928 -6.5931e+000 -8.6442e+000  2.4241e+000 32493 102749,102853,102801
 6.9000e+000 102905 -7.9661e+000 -1.1309e+001  3.0538e+000 32493 102801,102853,102827
 6.9000e+000 103454  1.7227e+000  2.5568e+000 -1.8932e+000 32089 103206,103336,103310
 6.9000e+000 103431  3.1764e+000  2.3384e+000 -8.1212e-001 32089 103180,103336,103206
 6.9000e+000 103408  2.4178e+000  2.9605e+000 -1.6951e+000 32089 103206,103284,103258
 6.9000e+000 103385  1.0886e+000  2.4752e+000 -1.6434e+000 32089 103206,103310,103284
 6.9000e+000 103362  3.8844e+000  5.1719e+000 -4.8037e+000 32089 103206,103258,103232
 6.9000e+000 103783 -5.3556e+000 -2.5846e+000 -9.6660e-001 31742 103558,103662,103584
 6.9000e+000 103760 -6.7062e+000 -5.9877e+000 -1.1861e+000 31742 103558,103688,103662
 6.9000e+000 103737 -1.9092e+000  7.0604e-001 -2.7179e+000 31742 103584,103662,103636
 6.9000e+000 103714 -3.7971e+000 -2.6594e+000 -1.9388e+000 31742 103584,103636,103610
 6.9000e+000 104112  4.9290e-001  1.8413e+000 -3.8917e-001 31402 103939,103991,103965
 6.9000e+000 104089  5.6900e-001  1.0505e+000 -2.9642e-001 31402 103913,103991,103939
 6.9000e+000 104066  1.7467e+000  1.1341e-001 -1.1944e+000 31402 103913,104017,103991
 6.9000e+000 104043  1.4642e+000  2.0299e+000 -1.5845e+000 31402 103887,104017,103913
 6.9000e+000 104569 -5.8026e+000 -6.4708e+000  2.2258e+000 30998 104321,104425,104373
 6.9000e+000 104546 -3.6568e+000 -4.9006e+000  1.0301e+000 30998 104321,104451,104425
 6.9000e+000 104523 -5.2354e-001 -3.1881e+000  3.6210e+000 30998 104373,104425,104399
 6.9000e+000 104500 -1.8128e+000 -7.7897e+000 -3.5946e-001 30998 104295,104451,104321
 6.9000e+000 104477 -1.1508e+001 -1.2433e+001  7.4411e+000 30998 104321,104373,104347
 6.9000e+000 104947 -9.7677e+000 -8.7470e+000 -4.6806e+000 30608 104751,104803,104777
 6.9000e+000 104924 -4.1771e+000 -1.0400e+001 -2.6549e+000 30608 104725,104803,104751
 6.9000e+000 104901 -7.0788e+000 -9.1031e+000 -3.1186e-001 30608 104699,104803,104725
 6.9000e+000 104878 -7.5514e+000 -8.9552e+000 -7.7404e-001 30608 104673,104803,104699
 6.9000e+000 104855 -6.6285e+000 -9.5877e+000 -1.8214e+000 30608 104673,104829,104803
 6.9000e+000 105276 -4.2028e+000 -7.7952e+000  2.7104e-001 30204 105427,105129,105077
 6.9000e+000 105253 -2.7791e+000 -7.5429e+000  1.6524e+000 30204 105427,105077,105051
 6.9000e+000 105230 -3.5596e+000 -8.3674e+000 -1.0988e-001 30204 105077,105129,105103
 6.9000e+000 105207  1.7971e+000 -3.8100e+000 -8.0778e-002 30204 105299,105181,105155
 6.9000e+000 105325 -6.5839e-001 -4.4431e+000 -1.4306e+000 30204 105129,105181,105299
 6.9000e+000 105453 -5.0160e+000 -8.1014e+000  1.4845e-001 30204 105181,105129,105427
 6.9000e+000 105476 -5.2169e+000 -8.5572e+000  1.6192e+000 30204 105181,105427,105051
 6.9000e+000 105903 -4.1621e+000 -8.2831e+000 -1.1890e+000 29700 105606,105762,105736
 6.9000e+000 105880 -5.3118e+000 -8.5147e+000 -3.5964e-001 29700 105580,105762,105606
 6.9000e+000 105857 -6.7045e+000 -1.1526e+001 -1.0066e+000 29700 105606,105710,105632
 6.9000e+000 105834 -5.7560e+000 -1.0511e+001 -4.7933e-001 29700 105606,105736,105710
 6.9000e+000 105811 -5.5172e+000 -1.1383e+001 -1.6611e+000 29700 105632,105710,105684
 6.9000e+000 105788 -5.1391e+000 -1.0529e+001 -2.2149e+000 29700 105632,105684,105658
 6.9000e+000 106102 -2.2942e+000 -1.0280e+001  3.7741e-003 29124 105978,106030,106004
 6.9000e+000 106079 -1.5974e+000 -9.0126e+000  5.2199e-001 29124 105926,106030,105978
 6.9000e+000 106056 -2.3482e+000 -1.0812e+001  5.3527e-001 29124 105926,105978,105952
 6.9000e+000 106301 -3.9687e+000 -1.2093e+001  1.2559e-001 28712 106151,106229,106203
 6.9000e+000 106278 -4.6750e+000 -1.3611e+001 -6.5033e-001 28712 106125,106229,106151
 6.9000e+000 106255 -3.8234e+000 -1.2551e+001  6.5982e-001 28712 106151,106203,106177
 6.9000e+000 106551 -1.4524e+000 -1.2011e+001  2.8267e+000 28258 106352,106404,106378
 6.9000e+000 106528 -3.0025e+000 -1.1429e+001  1.3047e+000 28258 106352,106456,106404
 6.9000e+000 106505 -4.1319e+000 -9.1731e+000  2.1708e+000 28258 106326,106456,106352
 6.9000e+000 106482 -1.7805e+000 -9.7454e+000  3.9370e-001 28258 106404,106456,106430
 6.9000e+000 107012 -6.3183e+000 -1.1527e+001  2.8957e+000 27818 107035,106790,106764
 6.9000e+000 106989 -5.4087e+000 -1.0217e+001  1.3899e+000 27818 107035,106764,106868
 6.9000e+000 106966 -3.3605e+000 -1.5211e+001  1.9372e+000 27818 107107,106842,106816
 6.9000e+000 106943 -5.1925e+000 -5.9579e+000 -5.7366e-001 27818 106738,106868,106764
 6.9000e+000 106920 -6.6455e+000 -8.1772e+000  1.4306e+000 27818 106738,106894,106868
 6.9000e+000 107061 -4.0659e+000 -1.0915e+001  3.0254e+000 27818 106816,106790,107035
 6.9000e+000 107084 -5.6504e+000 -1.3024e+001  2.0211e+000 27818 107107,106816,107035
 6.9000e+000 107133 -1.1489e+000 -1.2391e+001  6.3999e-001 27818 106868,106842,107107
 6.9000e+000 107156 -3.4411e+000 -9.7094e+000  8.8408e-001 27818 106868,107107,107035
 6.9000e+000 107613 -1.3781e+000 -8.2803e+000  2.0584e+000 27312 107339,107469,107365
 6.9000e+000 107590 -1.9048e+000 -7.7857e+000  1.7540e+000 27312 107339,107495,107469
 6.9000e+000 107567 -4.1449e+000 -6.6693e+000  1.1575e+000 27312 107391,107469,107443
 6.9000e+000 107544 -1.9785e+000 -8.8478e+000  1.0705e+000 27312 107365,107469,107391
 6.9000e+000 107521 -7.8687e+000 -8.5554e+000  1.9660e+000 27312 107391,107443,107417
 6.9000e+000 107991  6.4338e-001 -9.2909e+000  1.7392e+000 26858 108086,108014,107795
 6.9000e+000 107968 -5.1984e-002 -6.6650e+000  1.7924e+000 26858 108014,107717,107873
 6.9000e+000 107945 -8.0992e-002 -1.0612e+001  2.0235e+000 26858 108158,108086,107795
 6.9000e+000 107922  9.8688e-001 -1.1707e+001  2.3820e+000 26858 108158,107795,107769
 6.9000e+000 107899 -1.6121e+000 -1.2107e+001  2.2636e+000 26858 107821,107873,107847
 6.9000e+000 108040 -4.9269e-001 -1.2683e+001  1.6544e+000 26858 107821,107795,108014
 6.9000e+000 108063 -5.5279e-001 -9.5006e+000  1.4584e+000 26858 107821,108014,107873
 6.9000e+000 108112 -1.0113e+000 -1.0071e+001  1.4185e+000 26858 107717,108014,108086
 6.9000e+000 108135  5.9672e-003 -8.9939e+000  1.9689e+000 26858 107717,108086,107743
 6.9000e+000 108184  9.9199e-001 -9.0271e+000  2.5177e+000 26858 107743,108086,108158
 6.9000e+000 108207  1.7327e+000 -1.0350e+001  2.6730e+000 26858 107743,108158,107769
 6.9000e+000 108634 -4.8467e+000 -7.4500e+000  3.2274e-002 26404 108657,108415,108363
 6.9000e+000 108611 -6.7608e+000 -1.0584e+001  2.1187e+000 26404 108657,108363,108337
 6.9000e+000 108588 -5.6079e+000 -1.1026e+001  1.9951e+000 26404 108729,108311,108467
 6.9000e+000 108565 -2.8376e+000 -1.3931e+001  1.0843e+000 26404 108801,108441,108415
 6.9000e+000 108542 -8.1596e+000 -1.2230e+001  2.3453e+000 26404 108311,108493,108467
 6.9000e+000 108519 -1.3817e+000 -6.5710e+000  4.5374e-001 26404 108363,108415,108389
 6.9000e+000 108683 -7.0365e+000 -9.7738e+000  1.6617e+000 26404 108801,108415,108657
 6.9000e+000 108706 -7.3420e+000 -1.1016e+001  1.8523e+000 26404 108729,108467,108657
 6.9000e+000 108755 -4.6742e+000 -1.1235e+001  1.9022e+000 26404 108337,108311,108729
 6.9000e+000 108778 -5.5232e+000 -1.0560e+001  1.6095e+000 26404 108337,108729,108657
 6.9000e+000 108827 -7.0356e+000 -2.1859e+001 -1.3041e+000 26404 108467,108441,108801
 6.9000e+000 108850 -9.4036e+000 -1.4889e+001 -6.4158e-001 26404 108467,108801,108657
 6.9000e+000 109228 -6.8936e+000 -1.4246e+001 -3.6128e-001 26064 109006,109084,109058
 6.9000e+000 109205 -5.9581e+000 -1.2789e+001  1.1973e+000 26064 108980,109084,109006
 6.9000e+000 109182 -5.6342e+000 -1.1592e+001  1.3666e-001 26064 108980,109110,109084
 6.9000e+000 109159 -6.5352e+000 -1.5118e+001  3.2847e-001 26064 109006,109058,109032
 6.9000e+000 109136 -2.2470e+000 -1.0077e+001  9.7688e-001 26064 108954,109110,108980
 6.9000e+000 109427  1.0507e+000 -1.0871e+001 -5.4559e+000 25660 109303,109355,109329
 6.9000e+000 109404 -7.6302e-001 -1.3925e+001 -1.1734e+000 25660 109277,109355,109303
 6.9000e+000 109381 -8.1294e-001 -1.0744e+001  1.2802e-001 25660 109251,109355,109277
 6.9000e+000 109577  1.7545e+000  3.4959e+000 -1.1637e+000 25306 109476,109528,109502
 6.9000e+000 109554  6.5169e+000  7.8574e+000  2.5353e+000 25306 109450,109528,109476
 6.9000e+000 109778 -5.5985e+000 -1.4240e+001 -9.8270e-002 24944 109628,109706,109654
 6.9000e+000 109755 -5.6423e+000 -1.2709e+001 -3.9586e-001 24944 109602,109706,109628
 6.9000e+000 109732 -4.6723e+000 -1.2229e+001 -3.3017e-001 24944 109654,109706,109680
 6.9000e+000 110126  2.7817e+000 -9.2381e+000 -2.9635e-001 24440 110149,109907,109855
 6.9000e+000 110103  5.3810e+000 -1.1420e+001  1.1226e+000 24440 110149,109855,109985
 6.9000e+000 110080  3.4216e+000 -4.9750e+000  2.2997e-001 24440 109855,109907,109881
 6.9000e+000 110057  4.5173e+000 -6.2094e+000  6.4755e+000 24440 109829,109985,109855
 6.9000e+000 110034  3.6436e+000 -7.7316e+000  1.1479e+000 24440 109907,109959,109933
 6.9000e+000 110011  1.4611e+001 -3.6901e+000 -9.4331e-001 24440 109803,109985,109829
 6.9000e+000 110175  4.1104e+000 -8.2391e+000  9.5393e-001 24440 109959,109907,110149
 6.9000e+000 110198  7.7687e+000 -9.4158e+000  2.5243e+000 24440 109959,110149,109985
 6.9000e+000 110301  1.8855e+000  1.3024e+001  4.6653e+000 24028 110223,110275,110249
 6.9000e+000 110573 -1.8432e+000 -8.9699e+000  7.3034e-001 23467 110400,110452,110426
 6.9000e+000 110550 -3.2027e+000 -1.1688e+001  2.5991e-001 23467 110374,110452,110400
 6.9000e+000 110527 -4.2302e+000 -1.2125e+001  4.2552e-001 23467 110348,110452,110374
 6.9000e+000 110504 -2.7703e+000 -1.1834e+001  8.9012e-002 23467 110348,110478,110452
 6.9000e+000 111004 -7.0288e+000 -1.6863e+001 -3.6698e+000 22963 111027,110733,110707
 6.9000e+000 110981 -8.7458e+000 -1.6033e+001  1.0919e+000 22963 111027,110707,110681
 6.9000e+000 110958 -3.4972e-001 -9.1792e+000 -5.0175e+000 22963 111099,110759,110733
 6.9000e+000 110935 -9.3921e+000 -1.2579e+001 -2.9897e+000 22963 111171,110863,110811
 6.9000e+000 110912  6.5196e+000 -4.3311e+000 -7.0572e+000 22963 110759,110811,110785
 6.9000e+000 110889 -1.4201e+001 -1.6217e+001  1.3063e+000 22963 110811,110863,110837
 6.9000e+000 111053 -8.4929e+000 -1.5039e+001 -1.7251e+000 22963 111099,110733,111027
 6.9000e+000 111076 -8.4741e+000 -1.2841e+001 -3.0926e+000 22963 111171,110811,111027
 6.9000e+000 111125  1.3052e-001 -7.7259e+000 -9.3714e+000 22963 110811,110759,111099
 6.9000e+000 111148 -1.0201e+000 -6.7944e+000 -7.2937e+000 22963 110811,111099,111027
 6.9000e+000 111197 -7.8371e+000 -1.4836e+001 -1.6791e+000 22963 110681,110863,111171
 6.9000e+000 111220 -4.1152e+000 -1.3174e+001 -2.3174e+000 22963 110681,111171,111027
 6.9000e+000 111726 -1.1279e+001 -1.1782e+001 -1.9795e+000 22459 111749,111507,111429
 6.9000e+000 111703 -6.2962e+000 -9.7976e+000 -3.3334e+000 22459 111749,111429,111585
 6.9000e+000 111680 -9.8435e-001 -1.5202e+001 -2.3452e+000 22459 111403,111585,111429
 6.9000e+000 111657 -8.7803e+000 -1.5741e+001  1.1501e+000 22459 111507,111559,111533
 6.9000e+000 111634 -1.2765e+001 -9.5034e+000  2.5874e+000 22459 111455,111507,111481
 6.9000e+000 111611 -2.8171e+001 -1.4895e+001  4.1595e+000 22459 111429,111507,111455
 6.9000e+000 111775 -9.8018e+000 -1.4256e+001  1.8794e+000 22459 111559,111507,111749
 6.9000e+000 111798 -5.7770e+000 -1.1644e+001  3.6814e-001 22459 111559,111749,111585
 6.9000e+000 112046 -3.3484e+000 -1.2626e+001 -1.6899e+000 21898 112069,111925,111873
 6.9000e+000 112023 -3.0601e+000 -1.2488e+001 -6.7032e-002 21898 112069,111873,111847
 6.9000e+000 112000 -3.8373e+000 -1.1000e+001  1.2348e-001 21898 111821,111951,111847
 6.9000e+000 111977 -3.6858e+000 -9.4815e+000 -9.5329e-001 21898 111873,111925,111899
 6.9000e+000 112095 -5.6467e+000 -1.3390e+001 -2.2364e+000 21898 111951,111925,112069
 6.9000e+000 112118 -4.4245e+000 -1.2925e+001 -6.6917e-001 21898 111951,112069,111847
 6.9000e+000 112498 -2.4062e+000 -1.2155e+001  3.7265e-001 21608 112521,112276,112224
 6.9000e+000 112475 -3.0298e-001 -1.2299e+001  1.5141e+000 21608 112521,112224,112380
 6.9000e+000 112452  1.7378e-001 -1.3701e+001  2.0573e+000 21608 112302,112380,112354
 6.9000e+000 112429 -5.4053e+000 -1.0145e+001  1.8125e+000 21608 112224,112276,112250
 6.9000e+000 112406  8.9620e+000 -1.6980e+001 -1.3122e+000 21608 112302,112354,112328
 6.9000e+000 112547 -6.8380e-001 -1.0490e+001  1.4085e+000 21608 112302,112276,112521
 6.9000e+000 112570  7.9925e-001 -1.1899e+001  2.1839e+000 21608 112302,112521,112380
 6.9000e+000 112948 -7.3779e+000 -8.5626e+000  8.6994e-001 20882 112971,112752,112700
 6.9000e+000 112925 -4.5422e+000 -7.6226e+000  2.4826e-001 20882 112971,112700,112830
 6.9000e+000 112902 -7.8311e+000 -8.5177e+000  1.9557e+000 20882 112778,112830,112804
 6.9000e+000 112879 -3.7408e+000 -4.1446e+000  1.7510e-001 20882 112674,112830,112700
 6.9000e+000 112856 -6.6646e+000 -8.1649e+000  6.1068e-001 20882 112700,112752,112726
 6.9000e+000 112997 -7.5211e+000 -8.6982e+000  2.4431e+000 20882 112778,112752,112971
 6.9000e+000 113020 -5.9102e+000 -8.2529e+000  1.7709e+000 20882 112778,112971,112830
 6.9000e+000 113526  1.6174e+000 -5.8910e+000  1.4657e-001 20428 113255,113385,113333
 6.9000e+000 113503  1.9316e+000 -6.2801e+000  5.6493e-001 20428 113229,113385,113255
 6.9000e+000 113480  6.0556e+000 -5.6933e+000  1.5493e-001 20428 113255,113333,113281
 6.9000e+000 113457  1.1079e+000 -4.0025e+000  1.8281e+000 20428 113203,113385,113229
 6.9000e+000 113434  3.8703e+000 -7.3708e+000 -6.6959e-001 20428 113281,113333,113307
 6.9000e+000 113411  4.5142e-001 -4.2883e+000  2.5200e-001 20428 113333,113385,113359
 6.9000e+000 113774 -6.5681e-001 -1.3778e+001  1.2766e+000 19917 113797,113601,113549
 6.9000e+000 113751 -1.9603e+000 -1.3087e+001  1.0938e+000 19917 113869,113797,113549
 6.9000e+000 113728 -1.8229e+000 -1.3155e+001  1.4779e+000 19917 113869,113549,113679
 6.9000e+000 113705 -2.9517e+000 -1.6135e+001  3.0319e+000 19917 113549,113601,113575
 6.9000e+000 113823 -2.3708e+000 -1.9676e+001  7.3698e-001 19917 113627,113601,113797
 6.9000e+000 113846  3.4085e-002 -1.3342e+001  3.3615e-001 19917 113627,113797,113653
 6.9000e+000 113895 -1.6695e+000 -1.2427e+001  1.1458e+000 19917 113653,113797,113869
 6.9000e+000 113918 -1.5037e+000 -1.2465e+001  1.5949e+000 19917 113653,113869,113679
 6.9000e+000 114166 -5.2603e+000 -1.1544e+001 -3.7073e-001 19413 113993,114045,114019
 6.9000e+000 114143 -1.9325e+000 -9.7976e+000  5.0652e-001 19413 113967,114045,113993
 6.9000e+000 114120 -3.5879e+000 -1.0609e+001  1.3335e+000 19413 113967,114071,114045
 6.9000e+000 114097 -9.1842e-001 -1.3413e+001 -3.1554e-001 19413 113941,114071,113967
 6.9000e+000 114438 -5.6881e+000 -1.7013e+001  4.7931e-001 19001 114213,114265,114239
 6.9000e+000 114415 -3.5532e+000 -1.2218e+001 -7.5764e-002 19001 114213,114343,114265
 6.9000e+000 114392 -6.0474e+000 -1.7767e+001 -6.2177e-001 19001 114265,114343,114317
 6.9000e+000 114369  1.9005e+000 -1.4513e+001 -4.2944e-001 19001 114265,114317,114291
 6.9000e+000 114639 -3.3104e+000 -1.9649e+001  1.3579e+000 18554 114489,114541,114515
 6.9000e+000 114616 -3.4934e+000 -1.6332e+001  4.8650e-001 18554 114489,114567,114541
 6.9000e+000 114593 -8.6276e+000 -1.8741e+001 -1.0261e+000 18554 114463,114567,114489
 6.9000e+000 115043  2.2137e+000 -1.0424e+001  6.2957e-001 18164 114795,114925,114821
 6.9000e+000 115020  3.5905e+000 -9.7467e+000  1.3917e+000 18164 114769,114925,114795
 6.9000e+000 114997  3.8081e+000 -1.0925e+001 -5.2141e-001 18164 115066,114873,114821
 6.9000e+000 114974  4.2177e+000 -8.5974e+000 -7.1047e-001 18164 115066,114821,114925
 6.9000e+000 114951  1.1680e+001 -1.0879e+001 -4.2225e+000 18164 114821,114873,114847
 6.9000e+000 115092  2.7314e+000 -9.2358e+000 -1.7886e+000 18164 114899,114873,115066
 6.9000e+000 115115  3.9703e+000 -5.6973e+000 -2.0444e+000 18164 114899,115066,114925
 6.9000e+000 115265  4.4008e+000 -3.2240e+000  5.9644e-001 17852 115164,115216,115190
 6.9000e+000 115242  3.2207e+000 -5.8238e+000 -2.1358e-003 17852 115138,115216,115164
 6.9000e+000 115464 -1.8545e+001 -3.0542e+001 -4.0048e-001 17346 115288,115366,115340
 6.9000e+000 115441 -2.3190e+001 -2.0677e+001 -3.0346e+000 17346 115288,115392,115366
 6.9000e+000 115418 -1.1670e+001 -3.3578e+001 -1.4461e+000 17346 115288,115340,115314
 6.9000e+000 115736  3.4381e+000 -5.2466e+000  8.7982e-001 16942 115563,115641,115615
 6.9000e+000 115713  2.3447e+000 -6.7608e+000  3.3996e-001 16942 115511,115641,115563
 6.9000e+000 115690 -1.8814e+000 -7.3710e+000  1.3100e+000 16942 115563,115615,115589
 6.9000e+000 115667  2.4947e+000 -5.9065e+000  3.3954e-001 16942 115511,115563,115537
 6.9000e+000 116091 -9.2256e+000 -1.9793e+001  8.1766e-001 16388 115918,115970,115944
 6.9000e+000 116068 -1.0633e+001 -1.8590e+001 -2.3192e-001 16388 115918,115996,115970
 6.9000e+000 116045 -1.4405e+001 -2.0562e+001  1.2234e+000 16388 115892,115996,115918
 6.9000e+000 116022 -6.0449e+000 -1.4843e+001  5.0866e+000 16388 115866,115996,115892
 6.9000e+000 116192  4.4970e+000 -9.4258e+000 -1.9334e+000 15810 116114,116166,116140
 6.9000e+000 116342 -6.8994e+000 -2.2645e+001  1.0658e+000 15419 116241,116293,116267
 6.9000e+000 116319 -9.7789e+000 -2.7111e+001 -7.1393e-001 15419 116215,116293,116241
 6.9000e+000 116445 -6.2527e+000 -8.6511e+000 -1.1113e+000 421 116367,116419,116393
 7.0000e+000 68477 -2.5468e+000  2.6290e+000 -3.2861e-001 68018 68327,68379,68353
 7.0000e+000 68454 -3.2339e+000  5.5504e+000 -1.0244e+000 68018 68301,68379,68327
 7.0000e+000 68431 -6.6090e+000  5.1006e+000 -2.3572e+000 68018 68301,68405,68379
 7.0000e+000 68578 -6.4022e+000  5.3210e+000 -7.7552e-001 67820 68500,68552,68526
 7.0000e+000 68728 -3.5747e+000  6.2615e+000 -2.0297e-001 67508 68601,68653,68627
 7.0000e+000 68705  8.2931e-001  3.7803e-002  1.9043e+000 67508 68601,68679,68653
 7.0000e+000 68927 -8.1420e+000 -6.5777e+000  4.5252e-002 67310 68777,68829,68803
 7.0000e+000 68904 -9.2482e+000 -8.5358e+000  5.6766e-001 67310 68751,68829,68777
 7.0000e+000 68881 -1.0053e+001 -1.0780e+001  4.1451e-001 67310 68751,68855,68829
 7.0000e+000 69386 -7.4478e+000  2.1367e+000 -1.4508e-001 67020 69216,69268,69242
 7.0000e+000 69363 -7.3907e+000  4.1777e-003  7.2428e-001 67020 69138,69268,69216
 7.0000e+000 69340 -1.1718e+001 -1.4905e+000  5.3009e-001 67020 69112,69268,69138
 7.0000e+000 69317 -6.5974e+000 -5.1225e-001 -8.5802e-001 67020 69138,69190,69164
 7.0000e+000 69294 -6.0722e+000 -4.0984e-001  1.9129e-001 67020 69138,69216,69190
 7.0000e+000 69536 -9.9608e+000 -4.7374e-002  1.3008e+000 66708 69435,69487,69461
 7.0000e+000 69513 -1.4369e+001  2.2776e+000 -1.2695e-001 66708 69409,69487,69435
 7.0000e+000 69735 -2.8802e+000  8.9602e+000 -4.0349e-001 66346 69585,69637,69611
 7.0000e+000 69712 -3.5792e+000  9.8951e+000 -4.1445e-001 66346 69559,69637,69585
 7.0000e+000 69689 -4.7712e+000  8.9151e+000  1.5884e+000 66346 69559,69663,69637
 7.0000e+000 69985 -1.0680e+001 -7.4753e+000  1.5051e-001 66148 69786,69890,69864
 7.0000e+000 69962 -1.0538e+001 -7.5617e+000  3.4321e-001 66148 69760,69890,69786
 7.0000e+000 69939 -1.1951e+001 -6.4932e+000  1.8989e+000 66148 69786,69864,69838
 7.0000e+000 69916 -1.1645e+001 -6.5530e+000  1.3926e+000 66148 69786,69838,69812
 7.0000e+000 70137 -7.9773e+000 -1.0759e+001  3.8557e-001 65950 70036,70088,70062
 7.0000e+000 70114 -7.4324e+000 -1.1151e+001  8.8360e-001 65950 70010,70088,70036
 7.0000e+000 70470 -6.2307e+000 -8.6420e+000  8.0784e-002 65546 70245,70323,70271
 7.0000e+000 70447 -6.2776e+000 -9.4134e+000 -2.4754e-001 65546 70245,70375,70323
 7.0000e+000 70424 -6.2907e+000 -1.0590e+001 -5.4127e-002 65546 70323,70375,70349
 7.0000e+000 70401 -7.1322e+000 -8.7555e+000  2.0593e-002 65546 70271,70323,70297
 7.0000e+000 70620 -1.0220e+001 -4.7798e+000 -6.5178e-003 65348 70493,70545,70519
 7.0000e+000 70597 -8.2579e+000 -4.3354e+000  4.3410e-001 65348 70493,70571,70545
 7.0000e+000 70721 -9.9977e+000 -1.3360e+001 -1.3673e-001 65150 70643,70695,70669
 7.0000e+000 71020 -6.5126e+000 -9.7874e+000 -2.2581e-001 64952 71043,70850,70824
 7.0000e+000 70997 -6.4563e+000 -9.4924e+000 -9.9303e-002 64952 71043,70824,70772
 7.0000e+000 70974 -6.8548e+000 -1.1225e+001  2.3185e-001 64952 71115,70746,70876
 7.0000e+000 70951 -8.4020e+000 -1.1814e+001  1.5984e-001 64952 70746,70902,70876
 7.0000e+000 70928 -6.7168e+000 -9.4114e+000 -1.8691e-001 64952 70772,70824,70798
 7.0000e+000 71069 -6.1738e+000 -9.3873e+000  4.0669e-001 64952 70876,70850,71043
 7.0000e+000 71092 -6.7184e+000 -1.0674e+001  2.9324e-001 64952 71115,70876,71043
 7.0000e+000 71141 -7.3980e+000 -1.0595e+001 -2.6968e-001 64952 70772,70746,71115
 7.0000e+000 71164 -7.0895e+000 -9.7748e+000 -2.1333e-001 64952 70772,71115,71043
 7.0000e+000 71365 -4.5225e+000 -1.1548e+001 -3.2550e-001 64662 71215,71293,71267
 7.0000e+000 71342 -3.0849e+000 -9.0641e+000 -1.0292e+000 64662 71189,71293,71215
 7.0000e+000 71319 -3.1618e+000 -7.6258e+000 -3.9944e-001 64662 71215,71267,71241
 7.0000e+000 71615 -9.3537e+000 -2.4611e+000  1.0764e+000 64350 71710,71638,71468
 7.0000e+000 71592 -9.0393e+000 -2.0489e+000  6.2375e-001 64350 71638,71416,71390
 7.0000e+000 71569 -9.3650e+000 -2.9445e+000  7.0244e-001 64350 71710,71468,71442
 7.0000e+000 71546 -9.7179e+000 -2.8589e+000 -1.2376e+000 64350 71390,71520,71494
 7.0000e+000 71664 -7.9918e+000 -1.8830e+000  1.0541e+000 64350 71494,71468,71638
 7.0000e+000 71687 -9.2205e+000 -1.6239e+000  3.1298e-001 64350 71494,71638,71390
 7.0000e+000 71736 -9.0505e+000 -3.4179e+000  4.4824e-001 64350 71416,71638,71710
 7.0000e+000 71759 -9.7232e+000 -4.1469e+000 -9.3710e-002 64350 71416,71710,71442
 7.0000e+000 72318 -1.0532e+001 -1.3680e+000  2.1014e+000 63837 71972,72024,71998
 7.0000e+000 72295 -7.7073e+000 -3.4626e+000  7.6824e-001 63837 72341,71972,71946
 7.0000e+000 72272 -7.3467e+000 -4.4102e+000 -1.7292e-001 63837 72413,72341,71946
 7.0000e+000 72249 -8.0270e+000 -4.6237e+000 -2.9288e-002 63837 72413,71946,72128
 7.0000e+000 72226 -6.2610e+000 -4.1855e+000  7.6129e-001 63837 72024,72076,72050
 7.0000e+000 72203 -6.1437e+000 -3.7785e+000  5.3802e-001 63837 72024,72102,72076
 7.0000e+000 72180 -7.0732e+000 -4.3050e+000  1.9959e-001 63837 71946,72154,72128
 7.0000e+000 72367 -6.0751e+000 -2.5365e+000  2.0228e+000 63837 72024,71972,72341
 7.0000e+000 72390 -7.1735e+000 -4.1684e+000  4.0653e-001 63837 72024,72341,72102
 7.0000e+000 72439 -8.4055e+000 -4.0246e+000 -2.0216e-001 63837 72102,72341,72413
 7.0000e+000 72462 -8.8931e+000 -4.0992e+000 -5.7129e-002 63837 72102,72413,72128
 7.0000e+000 72791 -9.5848e+000 -7.9552e+000 -7.8139e-001 63383 72592,72696,72670
 7.0000e+000 72768 -8.9209e+000 -7.2493e+000  1.3891e-002 63383 72566,72696,72592
 7.0000e+000 72745 -8.6047e+000 -7.8958e+000 -9.6063e-001 63383 72592,72670,72618
 7.0000e+000 72722 -8.2201e+000 -6.8620e+000 -9.8261e-001 63383 72618,72670,72644
 7.0000e+000 73297 -6.6410e+000 -5.5355e+000 -1.5386e-001 63185 73000,73156,73130
 7.0000e+000 73274 -6.3960e+000 -4.9446e+000  4.0574e-001 63185 72974,73156,73000
 7.0000e+000 73251 -7.4696e+000 -6.5257e+000  6.0712e-001 63185 73000,73052,73026
 7.0000e+000 73228 -6.6082e+000 -5.1700e+000  1.0080e-001 63185 73000,73130,73052
 7.0000e+000 73205 -6.9274e+000 -5.9378e+000  1.1658e-001 63185 73052,73130,73104
 7.0000e+000 73182 -7.2492e+000 -8.8605e+000 -3.8585e-001 63185 73052,73104,73078
 7.0000e+000 73545 -5.8182e+000 -9.5516e+000 -5.7413e-002 62781 73568,73398,73372
 7.0000e+000 73522 -5.5819e+000 -1.0176e+001  3.0107e-001 62781 73568,73372,73346
 7.0000e+000 73499 -6.6715e+000 -1.1558e+001 -6.4711e-001 62781 73640,73320,73424
 7.0000e+000 73476 -5.2496e+000 -1.0885e+001 -1.0427e+000 62781 73320,73450,73424
 7.0000e+000 73594 -5.5922e+000 -1.0305e+001  3.6702e-002 62781 73424,73398,73568
 7.0000e+000 73617 -6.0135e+000 -1.1147e+001 -2.1683e-001 62781 73640,73424,73568
 7.0000e+000 73666 -6.3610e+000 -1.0956e+001  6.7972e-002 62781 73346,73320,73640
 7.0000e+000 73689 -5.9936e+000 -1.0485e+001  4.6250e-001 62781 73346,73640,73568
 7.0000e+000 74035 -4.4807e+000  5.2203e+000  2.3274e-001 62363 74058,73868,73842
 7.0000e+000 74012 -5.8018e+000  3.4806e+000  1.3677e+000 62363 74130,74058,73842
 7.0000e+000 73989 -6.3412e+000  3.6426e+000  1.9665e+000 62363 74130,73842,73816
 7.0000e+000 73966 -2.8266e+000  7.1205e+000 -6.6250e-001 62363 74202,73764,73894
 7.0000e+000 73943 -5.3152e-001  5.0122e+000 -8.4615e-001 62363 73712,73894,73764
 7.0000e+000 73920  1.2535e+000  4.7197e+000  6.5360e-001 62363 73712,73764,73738
 7.0000e+000 74084 -5.4433e+000  3.4816e+000 -2.2272e-001 62363 73894,73868,74058
 7.0000e+000 74107 -3.6153e+000  5.8537e+000 -1.0926e+000 62363 74202,73894,74058
 7.0000e+000 74156 -4.8931e+000  4.6625e+000 -4.1300e-002 62363 73790,74058,74130
 7.0000e+000 74179 -6.7900e+000  4.4857e+000  5.0658e-001 62363 73790,74130,73816
 7.0000e+000 74228 -2.1428e+000  7.4399e+000  1.0868e+000 62363 73790,73764,74202
 7.0000e+000 74251 -2.8668e+000  6.0070e+000  6.8586e-001 62363 73790,74202,74058
 7.0000e+000 74403 -8.2304e+000  4.1349e+000 -5.1254e-001 62115 74426,74302,74276
 7.0000e+000 74380 -9.4981e+000  3.5890e+000 -1.0391e+000 62115 74426,74276,74354
 7.0000e+000 74452 -6.9576e+000  3.3181e+000 -4.7216e-001 62115 74328,74302,74426
 7.0000e+000 74475 -8.1472e+000  2.7960e+000 -1.0251e+000 62115 74328,74426,74354
 7.0000e+000 74578 -5.0137e+000 -1.3090e+001 -1.9818e-001 61825 74500,74552,74526
 7.0000e+000 74982 -1.9650e+000  7.9627e+000  4.8271e-001 61513 75005,74734,74708
 7.0000e+000 74959 -6.5615e-001  7.5783e+000  4.2940e-001 61513 75005,74708,74864
 7.0000e+000 74936  1.5318e+000  8.7419e+000  1.9653e-001 61513 75077,74812,74734
 7.0000e+000 74913 -2.9968e+000  6.8956e+000  1.6007e+000 61513 74734,74786,74760
 7.0000e+000 74890 -3.3985e+000  5.7606e+000  1.5222e+000 61513 74734,74812,74786
 7.0000e+000 75031 -1.0704e+000  8.4658e+000  7.8599e-001 61513 75077,74734,75005
 7.0000e+000 75054 -2.1086e+000  7.5864e+000 -1.1860e+000 61513 74838,75005,74864
 7.0000e+000 75103  2.8338e+000  8.7998e+000 -2.3109e+000 61513 74838,74812,75077
 7.0000e+000 75126  1.2014e+000  9.1604e+000 -1.7011e+000 61513 74838,75077,75005
 7.0000e+000 75553 -3.9509e+000  2.8515e+000 -3.3364e-001 61060 75576,75360,75308
 7.0000e+000 75530 -4.4745e+000  3.3614e+000 -5.3838e-001 61060 75576,75308,75230
 7.0000e+000 75507 -2.6497e+000  1.7499e+000 -2.1789e+000 61060 75308,75360,75334
 7.0000e+000 75484 -3.0118e+000  6.9100e+000 -3.9679e-001 61060 75230,75308,75256
 7.0000e+000 75461 -4.0808e+000  4.5029e+000  8.8360e-001 61060 75256,75308,75282
 7.0000e+000 75438 -2.7978e+000  4.1799e+000 -9.1983e-001 61060 75360,75412,75386
 7.0000e+000 75602 -3.5741e+000  3.1844e+000 -4.9279e-001 61060 75412,75360,75576
 7.0000e+000 75625 -4.0589e+000  3.8037e+000 -7.1382e-001 61060 75412,75576,75230
 7.0000e+000 76052 -6.6662e+000  3.8775e-001 -4.2644e-001 60442 75755,75859,75833
 7.0000e+000 76029 -5.3374e+000 -1.4984e-001  6.6103e-001 60442 75729,75859,75755
 7.0000e+000 76006 -6.1548e+000  1.3008e+000 -6.3768e-001 60442 75755,75833,75807
 7.0000e+000 75983 -7.8829e+000  2.7880e+000 -7.1183e-001 60442 75755,75807,75781
 7.0000e+000 75960 -6.0222e+000  4.3477e+000 -3.6042e-001 60442 75729,75911,75859
 7.0000e+000 75937 -5.8491e+000  1.0397e+001 -2.9770e+000 60442 75859,75911,75885
 7.0000e+000 76430 -5.7736e+000 -9.7430e+000  3.3858e-001 59788 76453,76286,76234
 7.0000e+000 76407 -6.0283e+000 -1.0332e+001  3.0700e-001 59788 76453,76234,76182
 7.0000e+000 76384 -6.3276e+000 -1.0343e+001  4.7527e-001 59788 76525,76156,76312
 7.0000e+000 76361 -5.5265e+000 -1.2329e+001  3.9764e-001 59788 76182,76234,76208
 7.0000e+000 76338 -4.4557e+000 -8.6072e+000  8.6800e-001 59788 76234,76286,76260
 7.0000e+000 76479 -5.6006e+000 -1.0122e+001  6.7889e-001 59788 76312,76286,76453
 7.0000e+000 76502 -5.7941e+000 -1.0259e+001  5.5452e-001 59788 76525,76312,76453
 7.0000e+000 76551 -6.0167e+000 -1.0270e+001  7.5847e-001 59788 76182,76156,76525
 7.0000e+000 76574 -5.9871e+000 -1.0340e+001  7.1324e-001 59788 76182,76525,76453
 7.0000e+000 77031 -5.4822e+000 -8.4976e+000 -5.2813e-002 59448 76835,76887,76861
 7.0000e+000 77008 -4.9158e+000 -6.4016e+000 -1.4217e-001 59448 76835,76913,76887
 7.0000e+000 76985 -5.4229e+000 -5.0795e+000  7.4803e-001 59448 76809,76913,76835
 7.0000e+000 76962 -7.2133e+000 -7.0063e+000 -2.5240e-001 59448 76757,76913,76809
 7.0000e+000 76939 -6.5725e+000 -6.2480e+000 -5.2899e-001 59448 76757,76809,76783
 7.0000e+000 77537 -1.1578e+000  8.7714e+000 -9.0672e-001 58994 77560,77344,77292
 7.0000e+000 77514  1.3226e+000  8.4824e+000 -4.5832e-001 58994 77560,77292,77240
 7.0000e+000 77491 -3.2435e+000  7.1638e+000  8.5582e-001 58994 77632,77214,77370
 7.0000e+000 77468  9.1413e-001  9.6776e+000 -1.4858e+000 58994 77292,77344,77318
 7.0000e+000 77445 -3.0709e+000  1.2526e+001 -5.5307e-001 58994 77214,77396,77370
 7.0000e+000 77422  2.9483e+000  1.1813e+001 -1.1537e+000 58994 77240,77292,77266
 7.0000e+000 77586  8.4019e-001  8.9014e+000 -1.2670e+000 58994 77370,77344,77560
 7.0000e+000 77609 -7.6078e-001  8.6618e+000 -1.3576e+000 58994 77632,77370,77560
 7.0000e+000 77658 -4.6409e+000  5.4972e+000  3.0918e+000 58994 77240,77214,77632
 7.0000e+000 77681 -2.8230e+000  5.1964e+000  1.0812e+000 58994 77240,77632,77560
 7.0000e+000 78138 -5.1826e+000 -4.4620e+000 -1.9487e-001 58440 77864,77994,77890
 7.0000e+000 78115 -9.2309e+000 -3.8369e+000 -1.1746e+000 58440 77864,78020,77994
 7.0000e+000 78092 -6.0617e+000 -3.3282e+000  5.9610e-001 58440 77942,77994,77968
 7.0000e+000 78069 -6.5058e+000 -4.1660e+000  4.2788e-001 58440 77890,77994,77942
 7.0000e+000 78046 -6.3830e+000 -2.7581e+000  5.7068e-001 58440 77890,77942,77916
 7.0000e+000 78467 -3.3570e+000  4.2178e+000 -9.1259e-001 57928 78562,78490,78346
 7.0000e+000 78444 -1.8697e+000  4.4178e+000 -4.9454e-001 57928 78490,78294,78268
 7.0000e+000 78421 -3.5157e+000  4.1898e+000 -1.0183e+000 57928 78562,78346,78320
 7.0000e+000 78398 -3.6130e+000  3.8056e+000 -1.0264e+000 57928 78242,78372,78268
 7.0000e+000 78516 -2.1643e+000  5.3182e+000 -4.4029e-001 57928 78372,78346,78490
 7.0000e+000 78539 -2.4452e+000  4.0489e+000 -7.2012e-001 57928 78372,78490,78268
 7.0000e+000 78588 -2.0780e+000  3.8456e+000 -5.8741e-001 57928 78294,78490,78562
 7.0000e+000 78611 -2.9104e+000  2.9135e+000 -9.7766e-001 57928 78294,78562,78320
 7.0000e+000 79068 -6.5603e+000 -9.2597e+000 -1.7352e+000 57467 78794,78924,78820
 7.0000e+000 79045 -7.0822e+000 -9.4672e+000 -1.7017e+000 57467 78794,78950,78924
 7.0000e+000 79022 -4.4888e+000 -8.7087e+000  1.4481e-001 57467 78820,78898,78872
 7.0000e+000 78999 -7.0346e+000 -1.1849e+001 -1.6557e+000 57467 78820,78924,78898
 7.0000e+000 78976 -5.5634e+000 -9.1732e+000  2.1672e-001 57467 78820,78872,78846
 7.0000e+000 79446 -2.7318e+000  4.0380e+000 -9.6997e-001 57120 79172,79302,79250
 7.0000e+000 79423 -4.7290e+000  3.1199e+000  1.2233e-001 57120 79172,79328,79302
 7.0000e+000 79400 -4.9654e+000  8.1396e-001  1.0889e-001 57120 79172,79250,79198
 7.0000e+000 79377 -5.3741e+000  6.2426e+000 -1.8496e+000 57120 79250,79302,79276
 7.0000e+000 79354 -7.1364e+000  1.6467e+000  1.4188e+000 57120 79198,79250,79224
 7.0000e+000 79952 -6.1084e+000 -7.5534e+000  1.9359e-001 56773 79629,79785,79655
 7.0000e+000 79929 -4.8995e+000 -7.0890e+000  1.8035e-001 56773 79629,79811,79785
 7.0000e+000 79906 -5.4171e+000 -7.8100e+000  5.7646e-002 56773 79655,79733,79681
 7.0000e+000 79883 -6.0528e+000 -7.8361e+000  6.2182e-002 56773 79655,79785,79733
 7.0000e+000 79860 -5.4590e+000 -8.7611e+000 -1.0683e+000 56773 79733,79785,79759
 7.0000e+000 79837 -4.5535e+000 -7.3659e+000  1.1948e+000 56773 79681,79733,79707
 7.0000e+000 80281 -5.9433e+000  1.4771e-001  1.4140e-001 56319 80108,80160,80134
 7.0000e+000 80258 -5.3963e+000  5.4375e-001  3.3972e-001 56319 80056,80160,80108
 7.0000e+000 80235 -6.7143e+000 -2.9047e-001 -6.4021e-001 56319 80056,80186,80160
 7.0000e+000 80212 -6.9233e+000  1.2551e+000  1.3471e+000 56319 80056,80108,80082
 7.0000e+000 80738 -4.3908e+000 -5.5230e+000 -6.4244e-002 55957 80516,80620,80594
 7.0000e+000 80715 -5.9738e+000 -5.6312e+000 -3.4270e-001 55957 80464,80620,80516
 7.0000e+000 80692 -5.1001e+000 -6.4312e+000  2.4282e-001 55957 80761,80568,80542
 7.0000e+000 80669 -6.2160e+000 -6.1561e+000  2.3214e-001 55957 80761,80542,80516
 7.0000e+000 80646 -6.5962e+000 -6.9969e+000 -1.8350e-001 55957 80464,80516,80490
 7.0000e+000 80787 -4.3464e+000 -6.1753e+000  2.0359e-001 55957 80594,80568,80761
 7.0000e+000 80810 -5.3603e+000 -5.8327e+000  1.6174e-001 55957 80594,80761,80516
 7.0000e+000 81210 -5.4104e+000 -9.5867e+000  5.1529e-001 55317 80936,80988,80962
 7.0000e+000 81187 -5.5959e+000 -1.0037e+001  3.0381e-001 55317 80936,81066,80988
 7.0000e+000 81164 -4.8245e+000 -1.0653e+001  4.6184e-001 55317 80936,81092,81066
 7.0000e+000 81141 -7.4792e+000 -1.1253e+001 -1.1229e+000 55317 80988,81066,81014
 7.0000e+000 81118 -1.9934e+000 -4.2872e+000  1.4697e+000 55317 81014,81066,81040
 7.0000e+000 81539 -1.6855e+000  3.5219e+000 -1.9047e+000 54913 81340,81418,81392
 7.0000e+000 81516 -4.1903e+000  2.7657e-001 -6.9802e-001 54913 81340,81444,81418
 7.0000e+000 81493 -6.2041e+000 -2.6338e-001  2.7772e-001 54913 81314,81444,81340
 7.0000e+000 81470 -3.1246e+000  5.9466e+000 -2.0729e+000 54913 81340,81392,81366
 7.0000e+000 81787 -3.4792e+000  2.8408e-001 -6.2188e-001 54601 81588,81692,81640
 7.0000e+000 81764 -3.4132e+000 -1.8089e+000 -1.0378e+000 54601 81562,81692,81588
 7.0000e+000 81741 -4.8431e+000 -1.2911e-001 -1.2509e+000 54601 81588,81640,81614
 7.0000e+000 81718 -3.5805e+000 -2.1975e-001 -7.7277e-001 54601 81640,81692,81666
 7.0000e+000 82344 -4.3116e-001  8.9016e+000  1.2013e+000 54090 81998,82102,82076
 7.0000e+000 82321  2.4602e+000  1.0187e+001  3.8782e-001 54090 81998,82154,82102
 7.0000e+000 82298 -2.1307e-001  8.9644e+000 -2.8034e-001 54090 81972,82154,81998
 7.0000e+000 82275  2.1870e+000  6.9027e+000  1.6050e+000 54090 81998,82076,82024
 7.0000e+000 82252  2.4912e+000  1.2595e+001 -6.9924e+000 54090 81972,82180,82154
 7.0000e+000 82229  4.0934e+000  1.1606e+001 -6.1552e-001 54090 82102,82154,82128
 7.0000e+000 82206 -1.7170e+000  4.4518e+000  2.7106e+000 54090 82024,82076,82050
 7.0000e+000 82722 -3.2819e+000 -3.1044e+000  4.3861e-001 53579 82500,82578,82552
 7.0000e+000 82699 -4.2189e+000 -3.9684e+000  4.6510e-002 53579 82448,82578,82500
 7.0000e+000 82676 -4.2653e+000 -2.8001e+000  3.2514e-001 53579 82448,82500,82474
 7.0000e+000 82653 -3.9474e+000 -3.8715e+000  1.1669e-001 53579 82448,82604,82578
 7.0000e+000 82630 -3.0572e+000 -2.6001e+000  8.0747e-001 53579 82500,82552,82526
 7.0000e+000 83356 -4.9639e+000 -7.4586e+000 -3.0185e-001 53189 83379,83088,83036
 7.0000e+000 83333 -4.8579e+000 -8.1909e+000 -2.2821e-001 53189 83379,83036,82984
 7.0000e+000 83310 -2.8061e+000 -7.4627e+000  9.4981e-001 53189 82984,83192,83166
 7.0000e+000 83287 -4.2924e+000 -6.6463e+000  6.1245e-001 53189 83036,83088,83062
 7.0000e+000 83264 -3.8056e+000 -8.4198e+000 -1.0500e+000 53189 82984,83036,83010
 7.0000e+000 83241 -2.6270e+000 -9.5227e+000  1.1150e+000 53189 83114,83166,83140
 7.0000e+000 83218 -7.0424e+000 -1.0762e+001  1.1010e+000 53189 83088,83166,83114
 7.0000e+000 83405 -5.0284e+000 -7.9636e+000  1.3536e-003 53189 83166,83088,83379
 7.0000e+000 83428 -4.8025e+000 -8.6030e+000  2.6784e-002 53189 83166,83379,82984
 7.0000e+000 83725  7.7013e-002  4.7421e+000 -1.2532e+000 52585 83748,83529,83503
 7.0000e+000 83702 -1.5410e+000  4.0860e+000 -1.3462e+000 52585 83820,83748,83503
 7.0000e+000 83679 -3.2149e+000  4.5646e+000 -1.1288e+000 52585 83820,83503,83477
 7.0000e+000 83656 -3.7648e+000  3.8823e+000 -1.9980e+000 52585 83477,83607,83581
 7.0000e+000 83633 -2.8263e+000  3.8910e+000 -2.9207e+000 52585 83451,83607,83477
 7.0000e+000 83774 -1.1936e-001  4.0032e+000 -1.7839e+000 52585 83555,83529,83748
 7.0000e+000 83797  3.5195e-001  4.3832e+000 -1.9496e+000 52585 83555,83748,83581
 7.0000e+000 83846  5.5254e-002  4.3793e+000 -2.1513e+000 52585 83581,83748,83820
 7.0000e+000 83869 -1.3695e+000  4.9064e+000 -1.8061e+000 52585 83581,83820,83477
 7.0000e+000 84200  1.6421e+000  5.2680e+000 -1.1614e+000 52024 84001,84105,84079
 7.0000e+000 84177 -1.1154e+000  5.8383e+000  9.9617e-001 52024 83975,84105,84001
 7.0000e+000 84154  1.2078e+000  4.8398e+000 -9.4097e-001 52024 84001,84079,84053
 7.0000e+000 84131  6.3350e-001  3.1276e+000 -2.8139e+000 52024 84001,84053,84027
 7.0000e+000 84399 -2.3158e+000  2.8089e+000 -7.9723e-001 51470 84422,84275,84249
 7.0000e+000 84376 -2.8607e+000  2.0751e+000 -1.0456e+000 51470 84422,84249,84223
 7.0000e+000 84353 -1.6967e+000  2.4278e+000 -4.9525e-001 51470 84275,84327,84301
 7.0000e+000 84448 -1.8404e+000  1.9780e+000 -7.5791e-001 51470 84327,84275,84422
 7.0000e+000 84471 -2.3032e+000  1.3775e+000 -9.7530e-001 51470 84327,84422,84223
 7.0000e+000 84753  1.7776e+000  9.1679e+000 -7.6054e-001 51073 84603,84655,84629
 7.0000e+000 84730  5.4159e+000  1.0848e+001 -2.8206e-001 51073 84776,84655,84603
 7.0000e+000 84707  5.4397e-001  6.7064e+000  9.9804e-001 51073 84577,84681,84655
 7.0000e+000 84802  1.9550e-001  7.9577e+000  1.2428e+000 51073 84577,84655,84776
 7.0000e+000 85178 -3.0209e+000 -4.5848e+000  1.2731e-001 50519 85201,85008,84982
 7.0000e+000 85155 -2.9894e+000 -4.7269e+000  5.0239e-001 50519 85273,85201,84982
 7.0000e+000 85132 -3.1295e+000 -4.5686e+000  6.1227e-001 50519 85273,84982,84930
 7.0000e+000 85109 -2.5599e+000 -4.6247e+000  4.9711e-001 50519 84930,84982,84956
 7.0000e+000 85086 -4.9890e+000 -5.8826e+000  2.4722e-001 50519 85008,85060,85034
 7.0000e+000 85227 -4.4298e+000 -5.1190e+000 -3.9651e-002 50519 85060,85008,85201
 7.0000e+000 85250 -3.2696e+000 -4.5563e+000  3.4236e-001 50519 85060,85201,84904
 7.0000e+000 85299 -3.1959e+000 -4.8222e+000  4.7963e-001 50519 84904,85201,85273
 7.0000e+000 85322 -3.4518e+000 -4.6885e+000  6.2093e-001 50519 84904,85273,84930
 7.0000e+000 85958 -4.8765e+000 -9.3821e+000 -5.1917e-001 50093 85981,85768,85716
 7.0000e+000 85935 -4.1580e+000 -8.4547e+000  3.0117e-001 50093 85981,85716,85612
 7.0000e+000 85912 -3.6439e+000 -7.6272e+000  7.6242e-002 50093 85612,85716,85664
 7.0000e+000 85889 -4.0490e+000 -7.5357e+000 -1.7172e-002 50093 85716,85768,85742
 7.0000e+000 85866 -3.6649e+000 -6.0400e+000 -1.7874e+000 50093 85664,85716,85690
 7.0000e+000 85843 -7.8764e-001 -5.0296e+000  3.2970e-001 50093 85586,85794,85612
 7.0000e+000 85820 -3.3259e+000 -9.6764e+000  3.9380e-001 50093 85612,85664,85638
 7.0000e+000 86007 -7.2406e+000 -1.1022e+001 -2.3257e+000 50093 85794,85768,85981
 7.0000e+000 86030 -4.5593e+000 -7.3207e+000 -1.0071e+000 50093 85794,85981,85612
 7.0000e+000 86131 -2.2700e+000  1.0460e+001 -3.3059e+000 49895 86053,86105,86079
 7.0000e+000 86639 -2.1281e+000 -8.7280e-001 -1.3506e+000 49391 86662,86394,86368
 7.0000e+000 86616 -2.5329e+000 -4.3819e+000 -2.1885e-001 49391 86662,86368,86342
 7.0000e+000 86593 -3.2735e+000 -6.4112e+000 -6.1224e-001 49391 86342,86498,86472
 7.0000e+000 86570 -1.3442e+000 -5.8040e+000 -1.1936e-001 49391 86316,86498,86342
 7.0000e+000 86547 -7.4152e+000 -1.0601e+001  1.4831e+000 49391 86394,86472,86446
 7.0000e+000 86524 -2.9324e+000 -1.2686e+001  1.3500e+000 49391 86394,86446,86420
 7.0000e+000 86688 -4.6846e+000 -4.0526e+000  8.0934e-002 49391 86472,86394,86662
 7.0000e+000 86711 -2.6326e+000 -5.4071e+000  5.8081e-001 49391 86472,86662,86342
 7.0000e+000 87089 -3.3324e+000 -1.4816e+000 -1.7321e-002 48987 86815,86919,86867
 7.0000e+000 87066 -2.6230e+000 -1.5700e+000  5.6082e-002 48987 86815,86971,86919
 7.0000e+000 87043 -2.2415e+000  3.6165e-001  1.1622e+000 48987 86867,86919,86893
 7.0000e+000 87020 -2.5270e+000  3.9761e-001  6.3468e-002 48987 86815,86867,86841
 7.0000e+000 86997 -2.6480e+000 -2.0677e+000 -1.0316e-001 48987 86919,86971,86945
 7.0000e+000 87467 -3.8170e+000 -3.8158e+000  9.3309e-001 48540 87490,87245,87219
 7.0000e+000 87444 -2.5013e+000 -3.3774e+000  6.2295e-001 48540 87562,87490,87219
 7.0000e+000 87421 -3.0081e+000 -3.5622e+000  2.2265e-001 48540 87562,87219,87349
 7.0000e+000 87398 -1.9136e+000 -2.7128e+000  6.4699e-001 48540 87245,87297,87271
 7.0000e+000 87375 -3.7746e+000 -4.4578e+000 -1.3670e-001 48540 87193,87349,87219
 7.0000e+000 87516 -2.5338e+000 -3.3473e+000  9.2651e-001 48540 87297,87245,87490
 7.0000e+000 87539 -2.3331e+000 -3.8416e+000  3.7592e-001 48540 87297,87490,87323
 7.0000e+000 87588 -3.0360e+000 -4.1258e+000  3.6779e-001 48540 87323,87490,87562
 7.0000e+000 87611 -3.2257e+000 -3.8057e+000  7.0489e-002 48540 87323,87562,87349
 7.0000e+000 87810  2.0396e+000  1.5961e+001  9.4873e-001 48136 87660,87712,87686
 7.0000e+000 87787 -2.5293e-003  9.5568e+000  5.4306e-001 48136 87660,87738,87712
 7.0000e+000 87764  4.7127e+000  8.5938e+000  3.6830e+000 48136 87634,87738,87660
 7.0000e+000 88205 -1.1312e+000 -4.1848e-001 -1.5180e+000 47210 88300,88228,87937
 7.0000e+000 88182 -1.1780e+000  3.2649e-002 -1.0242e+000 47210 88228,87833,88041
 7.0000e+000 88159 -1.4347e+000 -1.1451e+000 -1.5064e+000 47210 88300,87937,87911
 7.0000e+000 88136  1.2191e-001  1.5257e+000 -8.5017e-002 47210 87833,87911,87859
 7.0000e+000 88113 -2.9949e+000 -1.6588e+000 -3.1747e+000 47210 87937,87989,87963
 7.0000e+000 88090 -1.0157e+000  1.2692e+000 -1.2702e+000 47210 87989,88041,88015
 7.0000e+000 88067 -8.3253e-001 -9.7280e-001 -1.1873e+000 47210 87859,87911,87885
 7.0000e+000 88254 -9.1912e-001  1.0205e+000 -1.6625e+000 47210 87989,87937,88228
 7.0000e+000 88277 -1.6071e+000 -1.6626e-001 -1.1429e+000 47210 87989,88228,88041
 7.0000e+000 88326 -1.4780e+000 -7.0128e-002 -8.8859e-001 47210 87833,88228,88300
 7.0000e+000 88349 -1.5842e+000 -3.2540e-001 -9.4718e-001 47210 87833,88300,87911
 7.0000e+000 88780  7.5662e+000  1.1963e+001  1.7161e+000 46642 88803,88509,88483
 7.0000e+000 88757  4.0850e+000  1.0129e+001  6.8571e-001 46642 88803,88483,88639
 7.0000e+000 88734  5.9267e+000  7.6222e+000  3.5345e-001 46642 88875,88561,88509
 7.0000e+000 88711  5.7865e+000  7.6739e+000  5.3378e-001 46642 88509,88561,88535
 7.0000e+000 88688  3.0908e+000  1.1219e+001 -6.1198e-002 46642 88457,88639,88483
 7.0000e+000 88665  5.5861e+000  1.1056e+001 -2.5754e-001 46642 88561,88613,88587
 7.0000e+000 88829  5.5817e+000  8.8102e+000  5.3556e-001 46642 88875,88509,88803
 7.0000e+000 88852  5.3720e+000  1.1704e+001 -6.8937e-002 46642 88613,88803,88639
 7.0000e+000 88901  5.0475e+000  9.1561e+000 -5.4254e-001 46642 88613,88561,88875
 7.0000e+000 88924  5.3327e+000  1.1100e+001 -4.6514e-001 46642 88613,88875,88803
 7.0000e+000 89253  7.4418e-001  4.2231e+000 -1.0034e+000 46444 89080,89158,89132
 7.0000e+000 89230  1.5954e+000  6.1423e+000 -8.1689e-001 46444 89028,89158,89080
 7.0000e+000 89207  2.1901e-001  5.5484e+000 -4.9612e-001 46444 89028,89080,89054
 7.0000e+000 89184  1.6920e+000  5.0469e+000 -5.0605e-001 46444 89080,89132,89106
 7.0000e+000 89631 -4.0125e+000 -5.5728e+000  4.9320e-001 46040 89383,89461,89435
 7.0000e+000 89608 -3.5436e+000 -4.5420e+000  3.5292e-001 46040 89383,89487,89461
 7.0000e+000 89585 -3.8404e+000 -8.4062e+000  3.0253e-002 46040 89383,89435,89409
 7.0000e+000 89562 -2.1350e+000 -2.6421e+000 -4.5831e-001 46040 89383,89513,89487
 7.0000e+000 89539 -1.7947e+000 -2.2194e+000 -1.2711e+000 46040 89357,89513,89383
 7.0000e+000 90009 -3.7780e+000 -6.1666e+000 -5.7979e-003 45636 89813,89891,89839
 7.0000e+000 89986 -3.8817e+000 -5.4990e+000  5.8422e-001 45636 89787,89891,89813
 7.0000e+000 89963 -3.4985e+000 -6.0247e+000 -8.0177e-002 45636 89839,89891,89865
 7.0000e+000 89940 -3.8686e+000 -6.0073e+000  6.1968e-001 45636 89735,89891,89787
 7.0000e+000 89917 -3.1908e+000 -6.5989e+000 -1.1209e-001 45636 89735,89787,89761
 7.0000e+000 90208 -1.9410e+000 -3.6673e+000 -5.1492e-001 45175 90231,90058,90032
 7.0000e+000 90185 -2.5582e+000 -3.6467e+000 -1.2426e+000 45175 90231,90032,90136
 7.0000e+000 90162 -9.3082e-001 -2.8593e+000 -5.8419e-001 45175 90058,90110,90084
 7.0000e+000 90257 -1.9345e+000 -4.3695e+000 -1.0355e+000 45175 90110,90058,90231
 7.0000e+000 90280 -2.8578e+000 -4.3343e+000 -1.7777e+000 45175 90110,90231,90136
 7.0000e+000 90528 -1.6442e+000 -2.6125e+000 -7.8354e-002 44513 90695,90551,90407
 7.0000e+000 90505 -1.7144e+000 -2.1689e+000 -3.5102e-001 44513 90551,90355,90329
 7.0000e+000 90482 -1.2688e+000 -2.7657e+000 -2.8262e-001 44513 90623,90303,90433
 7.0000e+000 90459 -1.8123e+000 -2.3557e+000  1.4149e-001 44513 90695,90407,90381
 7.0000e+000 90577 -1.8267e+000 -2.6291e+000 -4.4895e-001 44513 90433,90407,90551
 7.0000e+000 90600 -1.6772e+000 -2.3274e+000 -3.5930e-001 44513 90623,90433,90551
 7.0000e+000 90649 -9.9383e-001 -2.3167e+000 -6.0376e-001 44513 90329,90303,90623
 7.0000e+000 90672 -1.2027e+000 -2.0341e+000 -5.3574e-001 44513 90329,90623,90551
 7.0000e+000 90721 -1.6074e+000 -2.1506e+000 -2.1848e-001 44513 90355,90551,90695
 7.0000e+000 90744 -1.7517e+000 -1.8817e+000 -1.0930e-001 44513 90355,90695,90381
 7.0000e+000 91077  2.0069e-001 -1.1666e+000  1.8652e-001 44059 91100,90930,90904
 7.0000e+000 91054 -9.9371e-001 -1.5744e+000  2.6366e-001 44059 91100,90904,90982
 7.0000e+000 91031 -1.2827e+000 -1.0707e+000  1.0526e-001 44059 90878,90982,90904
 7.0000e+000 91008 -2.9434e+000 -2.2327e+000 -4.6186e-001 44059 90852,90982,90878
 7.0000e+000 91126 -1.9630e+000 -2.1280e+000  2.3260e-001 44059 91172,91100,90956
 7.0000e+000 91149 -1.4322e+000 -2.7540e+000 -3.5775e-001 44059 90956,91100,90982
 7.0000e+000 91198  3.3750e-001  1.0237e+000 -8.2829e-001 44059 90930,91100,91172
 7.0000e+000 91677  4.7335e+000  6.3867e+000 -7.3213e-001 43549 91455,91533,91481
 7.0000e+000 91654  2.7463e+000  5.8077e+000 -1.1171e+000 43549 91429,91533,91455
 7.0000e+000 91631  5.4097e+000  6.9902e+000 -1.7199e+000 43549 91481,91533,91507
 7.0000e+000 91608  1.4649e+000  5.2641e+000 -8.2943e-001 43549 91429,91559,91533
 7.0000e+000 91585  1.2492e+000  2.7317e+000 -2.3365e-001 43549 91403,91559,91429
 7.0000e+000 92006 -2.5693e+000 -4.3229e+000 -7.3963e-002 43059 91781,91885,91807
 7.0000e+000 91983 -2.8154e+000 -4.1245e+000  1.1472e+000 43059 91781,91911,91885
 7.0000e+000 91960 -2.7861e+000 -4.1810e+000 -1.7400e-001 43059 91807,91885,91833
 7.0000e+000 91937 -2.6491e+000 -3.9509e+000  4.6262e-001 43059 91833,91885,91859
 7.0000e+000 92561  4.8044e+000  5.8639e+000 -6.3173e-001 42598 92584,92215,92189
 7.0000e+000 92538  3.5379e+000  5.7789e+000  2.2258e-001 42598 92656,92584,92189
 7.0000e+000 92515  2.5044e+000  5.9784e+000  8.3563e-002 42598 92656,92189,92397
 7.0000e+000 92492 -1.6083e+000  5.8811e+000 -8.5011e-002 42598 92241,92319,92293
 7.0000e+000 92469  1.8105e+000  5.9962e+000 -5.1622e-001 42598 92319,92397,92371
 7.0000e+000 92446  2.9548e+000  3.6510e+000  1.7625e+000 42598 92319,92371,92345
 7.0000e+000 92423 -5.1703e-001  6.5979e+000  5.2309e-001 42598 92241,92293,92267
 7.0000e+000 92610  2.9698e+000  5.2564e+000 -4.5921e-001 42598 92241,92215,92584
 7.0000e+000 92633  3.0505e+000  5.5141e+000  1.0284e-001 42598 92241,92584,92319
 7.0000e+000 92682  2.2749e+000  5.2526e+000 -2.4106e-001 42598 92319,92584,92656
 7.0000e+000 92705  1.6831e+000  5.6396e+000 -4.6127e-001 42598 92319,92656,92397
 7.0000e+000 92953 -2.8038e+000 -3.6011e+000  3.5805e-001 42094 92976,92806,92780
 7.0000e+000 92930 -2.8123e+000 -3.2582e+000  2.5593e-001 42094 92976,92780,92754
 7.0000e+000 92907 -2.1008e+000 -3.1670e+000  9.2675e-002 42094 93048,92832,92806
 7.0000e+000 92884 -2.2264e+000 -4.1041e+000  4.8720e-001 42094 92728,92858,92754
 7.0000e+000 93002 -2.4622e+000 -3.3215e+000  2.0687e-001 42094 93048,92806,92976
 7.0000e+000 93025 -2.9846e+000 -3.3530e+000  3.3701e-001 42094 92858,92976,92754
 7.0000e+000 93074 -2.7078e+000 -3.1926e+000  2.9737e-001 42094 92858,92832,93048
 7.0000e+000 93097 -2.9142e+000 -3.1649e+000  3.4061e-001 42094 92858,93048,92976
 7.0000e+000 93605 -1.2227e+000 -1.9568e+000 -8.3374e-001 41846 93628,93412,93386
 7.0000e+000 93582 -5.1354e-001 -1.2892e+000 -5.1338e-001 41846 93628,93386,93308
 7.0000e+000 93559 -1.1699e+000 -9.8401e-001 -7.4670e-001 41846 93700,93464,93438
 7.0000e+000 93536 -2.3385e-001 -6.1497e-001 -5.7171e-001 41846 93308,93386,93334
 7.0000e+000 93513 -2.0845e-001  4.7425e-001 -1.0774e+000 41846 93334,93386,93360
 7.0000e+000 93490 -7.6285e-001 -1.8365e+000 -1.0721e+000 41846 93282,93464,93308
 7.0000e+000 93654 -1.9542e+000 -1.2489e+000 -7.1932e-001 41846 93438,93412,93628
 7.0000e+000 93677 -1.2973e+000 -1.0563e+000 -6.3958e-001 41846 93700,93438,93628
 7.0000e+000 93726 -1.0487e+000 -8.3568e-001 -8.9172e-001 41846 93308,93464,93700
 7.0000e+000 93749 -1.1599e+000 -8.6709e-001 -7.8961e-001 41846 93308,93700,93628
 7.0000e+000 94255 -3.2261e+000 -4.6490e+000  4.5133e-001 41385 93958,94114,94088
 7.0000e+000 94232 -2.0254e+000 -4.9564e+000  2.7198e-001 41385 93932,94114,93958
 7.0000e+000 94209 -4.1931e+000 -5.5031e+000  1.3698e+000 41385 93958,94088,94062
 7.0000e+000 94186 -3.0057e+000 -3.2789e+000  7.1918e-001 41385 93958,94062,93984
 7.0000e+000 94163 -2.5470e+000 -3.6275e+000  1.6094e-001 41385 93984,94062,94036
 7.0000e+000 94140 -2.6953e+000 -5.6870e+000  7.1255e-001 41385 93984,94036,94010
 7.0000e+000 94476 -2.3206e+000 -7.0178e+000 -4.7547e-002 40881 94326,94378,94352
 7.0000e+000 94453 -1.9022e+000 -5.3600e+000  3.1717e-001 40881 94300,94378,94326
 7.0000e+000 94430 -2.7834e+000 -5.1772e+000 -2.2152e-002 40881 94300,94404,94378
 7.0000e+000 94626  5.6346e+000  4.7008e+000 -1.6271e+000 40591 94649,94551,94525
 7.0000e+000 94603  1.6261e+000  5.5826e+000 -1.1236e-001 40591 94781,94577,94551
 7.0000e+000 94675  2.4292e+000  4.9806e+000 -1.2529e+000 40591 94781,94551,94649
 7.0000e+000 94807  3.4814e+000  6.5854e+000  2.7566e-001 40591 94499,94577,94781
 7.0000e+000 94830  4.1161e+000  5.7589e+000 -1.0129e+000 40591 94499,94781,94649
 7.0000e+000 95336 -6.1528e+000 -1.9714e+000 -2.0940e+000 40187 95013,95169,95039
 7.0000e+000 95313 -2.6536e+000 -1.0544e+000 -1.4733e+000 40187 95013,95195,95169
 7.0000e+000 95290  9.0756e-001  1.2470e+000  4.0337e-001 40187 95039,95143,95065
 7.0000e+000 95267 -2.2557e+000  1.3633e-001 -9.7187e-001 40187 95039,95169,95143
 7.0000e+000 95244 -2.7479e-001  3.7752e+000  5.5455e-001 40187 95091,95143,95117
 7.0000e+000 95221 -5.1888e-001  2.9662e+000  2.7318e-001 40187 95065,95143,95091
 7.0000e+000 95665  2.1994e+000  4.3559e+000  1.2751e+000 39626 95466,95570,95544
 7.0000e+000 95642  9.9283e-001  4.6280e+000  6.9665e-001 39626 95440,95570,95466
 7.0000e+000 95619 -2.4178e+000  2.6102e+000  2.1002e+000 39626 95466,95544,95492
 7.0000e+000 95596 -1.8208e+000  1.0424e+000  1.5725e+000 39626 95492,95544,95518
 7.0000e+000 95913 -2.0313e+000 -6.3327e-001 -3.2582e-002 39136 96080,95936,95766
 7.0000e+000 95890 -6.4167e-001 -8.4895e-001 -6.7951e-001 39136 95936,95714,95688
 7.0000e+000 95867 -2.0714e+000 -1.1730e+000  2.9335e-001 39136 96008,95792,95766
 7.0000e+000 95844 -2.3345e+000 -7.3930e-001 -1.7379e-001 39136 96080,95766,95740
 7.0000e+000 95962 -1.7013e+000 -9.9820e-001  4.1767e-002 39136 96008,95766,95936
 7.0000e+000 95985 -1.7358e+000 -2.3578e+000 -1.5585e-001 39136 95818,95936,95688
 7.0000e+000 96034 -1.3804e+000 -9.0287e-001  8.6249e-002 39136 95818,95792,96008
 7.0000e+000 96057 -1.2596e+000 -9.2296e-001 -1.3917e-001 39136 95818,96008,95936
 7.0000e+000 96106 -2.2049e+000 -6.7925e-001 -4.8716e-001 39136 95714,95936,96080
 7.0000e+000 96129 -2.7042e+000 -8.1532e-001 -5.9661e-001 39136 95714,96080,95740
 7.0000e+000 96350  4.7175e+000  7.0939e+000 -5.8765e-001 38824 96200,96278,96252
 7.0000e+000 96327  4.6473e+000  7.2324e+000 -4.2459e-001 38824 96174,96278,96200
 7.0000e+000 96304  8.0111e+000  7.8306e+000 -1.7542e+000 38824 96200,96252,96226
 7.0000e+000 96830  7.1735e+000  8.5640e+000 -6.7423e-001 38320 97069,96536,96484
 7.0000e+000 96807  7.0724e+000  8.5870e+000 -6.5636e-001 38320 97069,96484,96853
 7.0000e+000 96784  6.2825e+000  8.5067e+000 -1.0793e+000 38320 96853,96484,96458
 7.0000e+000 96761  6.5041e+000  7.6846e+000 -1.1477e+000 38320 96925,96640,96614
 7.0000e+000 96738  6.4528e+000  7.3388e+000 -1.0914e+000 38320 96997,96666,96640
 7.0000e+000 96715  6.0798e+000  9.2597e+000 -1.1790e+000 38320 97141,96588,96562
 7.0000e+000 96692  8.0826e+000  1.0046e+001 -1.0730e+000 38320 96484,96536,96510
 7.0000e+000 96879  6.6287e+000  8.6057e+000 -1.1096e+000 38320 97141,96562,96853
 7.0000e+000 96902  6.3373e+000  8.2707e+000 -1.2392e+000 38320 96925,96614,96853
 7.0000e+000 96951  6.5479e+000  7.5666e+000 -1.3307e+000 38320 96997,96640,96925
 7.0000e+000 96974  6.2202e+000  7.5919e+000 -1.2912e+000 38320 96458,96925,96853
 7.0000e+000 97023  5.9403e+000  6.8481e+000 -8.4766e-001 38320 96458,96666,96997
 7.0000e+000 97046  6.2296e+000  7.1568e+000 -1.1261e+000 38320 96458,96997,96925
 7.0000e+000 97095  8.2204e+000  9.7588e+000 -1.7739e+000 38320 96562,96536,97069
 7.0000e+000 97118  6.7186e+000  8.6551e+000 -8.0073e-001 38320 96562,97069,96853
 7.0000e+000 97167  5.1814e+000  8.5944e+000 -8.8298e-001 38320 96614,96588,97141
 7.0000e+000 97190  6.0503e+000  8.1582e+000 -9.0401e-001 38320 96614,97141,96853
 7.0000e+000 97519  2.7548e+000  2.7140e+000 -5.9313e-002 37766 97542,97398,97372
 7.0000e+000 97496  2.4915e+000  3.5478e+000 -3.8050e-001 37766 97542,97372,97346
 7.0000e+000 97473  2.9785e+000  3.2077e+000 -1.0824e+000 37766 97294,97424,97346
 7.0000e+000 97450  5.1990e+000  8.0080e+000 -1.6443e+000 37766 97294,97346,97320
 7.0000e+000 97568  3.3477e+000  2.5515e+000 -6.7767e-001 37766 97424,97398,97542
 7.0000e+000 97591  2.9307e+000  3.4993e+000 -9.5575e-001 37766 97424,97542,97346
 7.0000e+000 98048  2.8673e+000  3.6750e+000 -1.5590e-001 37262 98071,97878,97852
 7.0000e+000 98025  3.0460e+000  4.0960e+000 -1.2224e-001 37262 98071,97852,97800
 7.0000e+000 98002  5.3836e+000  8.6076e+000 -9.5857e-001 37262 97800,97852,97826
 7.0000e+000 97979  1.9939e+000  4.3236e+000 -1.3331e+000 37262 97800,97930,97904
 7.0000e+000 97956  2.1693e+000  7.3301e+000 -1.1121e+000 37262 97774,97930,97800
 7.0000e+000 98097  2.0878e+000  3.4934e+000 -9.2660e-001 37262 97904,97878,98071
 7.0000e+000 98120  2.8431e+000  4.9658e+000 -6.3758e-001 37262 97904,98071,97800
 7.0000e+000 98449 -2.0903e+000 -2.1790e+000 -2.7758e-001 36950 98472,98302,98250
 7.0000e+000 98426 -1.6104e+000 -2.0343e+000 -3.6547e-001 36950 98472,98250,98354
 7.0000e+000 98403 -2.5961e+000 -2.9523e+000  4.4084e-002 36950 98250,98302,98276
 7.0000e+000 98380  2.3153e-002 -1.0369e+000  1.5853e-001 36950 98224,98354,98250
 7.0000e+000 98498 -1.7238e+000 -2.5724e+000  1.1964e-002 36950 98328,98302,98472
 7.0000e+000 98521 -1.1592e+000 -2.3520e+000 -1.5782e-001 36950 98328,98472,98354
 7.0000e+000 99125  1.7508e+000  9.1009e-001 -8.1632e-001 36296 98704,98756,98730
 7.0000e+000 99102  6.7390e-001  1.4276e+000 -4.1497e-001 36296 98704,98938,98756
 7.0000e+000 99079 -1.1768e+000  2.7243e+000 -8.1324e-001 36296 99148,98938,98912
 7.0000e+000 99056 -1.9094e+000  1.6903e+000 -1.4169e+000 36296 99292,99220,98782
 7.0000e+000 99033 -1.1809e+000  1.8466e+000 -7.4018e-001 36296 99148,98912,98834
 7.0000e+000 99010 -1.7148e+000  1.2626e+000 -1.7717e+000 36296 99292,98782,98756
 7.0000e+000 98987 -1.7390e+000  2.9857e+000  4.4856e-001 36296 98834,98912,98886
 7.0000e+000 98964  1.2891e+000  8.1294e+000  1.7800e+000 36296 98834,98886,98860
 7.0000e+000 99174 -1.1070e+000  2.2119e+000 -7.8247e-001 36296 99220,98938,99148
 7.0000e+000 99197 -1.4343e+000  1.7035e+000 -6.8025e-001 36296 98808,99148,98834
 7.0000e+000 99246 -2.1930e+000  1.0493e+000 -9.2161e-001 36296 98808,98782,99220
 7.0000e+000 99269 -1.8835e+000  1.3474e+000 -1.1811e+000 36296 98808,99220,99148
 7.0000e+000 99318 -9.6936e-001  1.5878e+000 -1.2127e+000 36296 98938,99220,99292
 7.0000e+000 99341 -9.4644e-001  1.5725e+000 -1.4643e+000 36296 98938,99292,98756
 7.0000e+000 99719 -1.4408e+000 -1.4366e+000  1.5227e-001 35742 99742,99471,99601
 7.0000e+000 99696 -6.3137e-001 -1.7534e+000  6.9087e-003 35742 99445,99601,99471
 7.0000e+000 99673 -1.4039e+000 -1.3493e+000  2.0426e-001 35742 99742,99601,99575
 7.0000e+000 99650 -1.4053e+000 -2.6773e+000  2.1002e-001 35742 99814,99549,99523
 7.0000e+000 99627 -6.5079e-001 -1.9640e+000  3.7684e-001 35742 99471,99523,99497
 7.0000e+000 99768 -9.7071e-001 -1.4924e+000  4.7579e-001 35742 99523,99471,99742
 7.0000e+000 99791 -1.3923e+000 -2.2912e+000  2.8307e-001 35742 99814,99523,99742
 7.0000e+000 99840 -1.8569e+000 -2.0476e+000  6.8502e-002 35742 99575,99549,99814
 7.0000e+000 99863 -1.6824e+000 -1.4653e+000  1.9581e-001 35742 99575,99814,99742
 7.0000e+000 100111 -2.2307e+000 -1.9969e+000  6.1313e-001 35302 100134,99990,99938
 7.0000e+000 100088 -1.8889e+000 -1.1708e+000  5.5323e-001 35302 100134,99938,99912
 7.0000e+000 100065 -1.9291e+000 -1.5476e+000  1.5497e-001 35302 100206,99886,100016
 7.0000e+000 100042 -1.7048e+000 -2.3472e+000  7.0998e-001 35302 99938,99990,99964
 7.0000e+000 100160 -2.1001e+000 -1.9843e+000  1.0624e-001 35302 100016,99990,100134
 7.0000e+000 100183 -1.9029e+000 -1.5597e+000  1.5719e-001 35302 100206,100016,100134
 7.0000e+000 100232 -1.9248e+000 -1.5346e+000  1.4545e-001 35302 99912,99886,100206
 7.0000e+000 100255 -1.8978e+000 -1.5436e+000  1.4891e-001 35302 99912,100206,100134
 7.0000e+000 100586 -5.2754e-001  1.7302e+000  7.6137e-001 35012 100609,100387,100361
 7.0000e+000 100563 -6.9786e-001  8.8759e-001  1.0012e+000 35012 100609,100361,100465
 7.0000e+000 100540 -3.6653e-001  2.7259e+000  8.8728e-001 35012 100361,100491,100465
 7.0000e+000 100517 -4.1493e-001 -8.5553e-001  1.3314e+000 35012 100413,100465,100439
 7.0000e+000 100635 -4.9096e-001  1.7019e+000  1.6987e+000 35012 100413,100387,100609
 7.0000e+000 100658 -8.7334e-001  3.7442e-001  1.9053e+000 35012 100413,100609,100465
 7.0000e+000 100987  9.0583e-001  2.4000e+000 -8.8910e-001 34700 100788,100866,100814
 7.0000e+000 100964  2.3260e+000  2.0732e+000 -7.1758e-001 34700 101010,100866,100788
 7.0000e+000 100941  1.3549e+000  1.6601e+000 -9.6387e-001 34700 100762,100892,100866
 7.0000e+000 100918  1.4498e+000  3.6501e+000 -8.1488e-001 34700 100814,100866,100840
 7.0000e+000 101036  1.4113e+000  1.6053e+000 -9.0649e-001 34700 100762,100866,101010
 7.0000e+000 101493 -1.6616e+000 -6.6866e-001  2.3576e-001 34132 101516,101349,101297
 7.0000e+000 101470 -3.6153e-001 -6.8953e-001  6.0629e-001 34132 101588,101516,101297
 7.0000e+000 101447 -1.5786e-001  1.7252e-001  1.0417e+000 34132 101588,101297,101245
 7.0000e+000 101424 -1.7677e+000  2.0871e+000  8.3883e-001 34132 101245,101297,101271
 7.0000e+000 101401 -2.0476e+000 -9.9355e-001  4.6598e-001 34132 101297,101349,101323
 7.0000e+000 101542 -2.3639e+000 -6.2103e-001  4.7234e-001 34132 101375,101349,101516
 7.0000e+000 101565 -1.5906e+000 -1.4913e+000 -1.3528e-001 34132 101375,101516,101219
 7.0000e+000 101614 -1.2487e+000 -3.9550e-001 -1.8638e-001 34132 101219,101516,101588
 7.0000e+000 101637 -6.9125e-001  3.0553e-001  2.5601e-001 34132 101219,101588,101245
 7.0000e+000 101858  5.0707e+000  9.1756e+000 -4.5543e-002 33720 101708,101786,101760
 7.0000e+000 101835  7.7721e+000  1.1916e+001  1.2419e+000 33720 101682,101786,101708
 7.0000e+000 101812  6.4128e+000  9.8870e+000  3.1236e-001 33720 101708,101760,101734
 7.0000e+000 102128 -1.3801e+000 -1.9197e+000 -4.0844e-002 33130 101903,102007,101929
 7.0000e+000 102105 -1.3901e+000 -2.0072e+000 -4.6328e-003 33130 101903,102033,102007
 7.0000e+000 102082 -1.1484e+000 -2.5007e+000 -6.5902e-001 33130 101929,102007,101955
 7.0000e+000 102059 -1.4253e+000 -1.6363e+000 -4.7320e-002 33130 101955,102007,101981
 7.0000e+000 102461  8.8636e+000  1.2330e+001  1.2701e-001 32840 102236,102340,102262
 7.0000e+000 102438  8.4658e+000  9.7629e+000 -1.1188e+000 32840 102236,102366,102340
 7.0000e+000 102415  6.9641e+000  1.1445e+001  3.7470e-001 32840 102262,102340,102288
 7.0000e+000 102392  1.0414e+001  1.2290e+001  2.0102e+000 32840 102288,102340,102314
 7.0000e+000 102997 -6.1019e-001 -2.1471e+000 -6.6359e-001 32493 102749,102879,102853
 7.0000e+000 102974 -7.3036e-001 -1.8662e+000  3.1454e-001 32493 102723,102879,102749
 7.0000e+000 102951 -3.3219e-001 -1.0002e+000  5.0392e-001 32493 102749,102801,102775
 7.0000e+000 102928 -1.2682e+000 -5.5399e-001  2.0390e-001 32493 102749,102853,102801
 7.0000e+000 102905 -1.3812e+000 -6.8219e-001  3.3778e-001 32493 102801,102853,102827
 7.0000e+000 103454  6.6420e+000  1.0651e+001 -7.9203e-001 32089 103206,103336,103310
 7.0000e+000 103431  6.2153e+000  7.8466e+000 -5.8873e-001 32089 103180,103336,103206
 7.0000e+000 103408  8.2703e+000  1.3076e+001  4.2279e-001 32089 103206,103284,103258
 7.0000e+000 103385  8.2950e+000  1.2459e+001  9.6941e-001 32089 103206,103310,103284
 7.0000e+000 103362  9.2473e+000  1.3583e+001 -4.0637e+000 32089 103206,103258,103232
 7.0000e+000 103783  2.5301e+000  7.8647e+000  1.1028e+000 31742 103558,103662,103584
 7.0000e+000 103760 -4.0868e-001  3.0024e+000  3.8706e+000 31742 103558,103688,103662
 7.0000e+000 103737  2.8946e+000  8.7416e+000  5.3319e-001 31742 103584,103662,103636
 7.0000e+000 103714  2.6430e+000  7.5560e+000  5.8656e-001 31742 103584,103636,103610
 7.0000e+000 104112  1.5777e+000  9.6962e+000 -1.7133e+000 31402 103939,103991,103965
 7.0000e+000 104089  4.0321e+000  8.1964e+000 -2.8904e-001 31402 103913,103991,103939
 7.0000e+000 104066  5.8940e+000  7.8471e+000 -8.8575e-001 31402 103913,104017,103991
 7.0000e+000 104043  7.1571e+000  9.3675e+000 -2.9128e-001 31402 103887,104017,103913
 7.0000e+000 104569  1.8517e+000  7.0152e+000  1.7339e+000 30998 104321,104425,104373
 7.0000e+000 104546  4.6715e+000  9.2437e+000 -1.0796e-001 30998 104321,104451,104425
 7.0000e+000 104523  4.5736e+000  8.1369e+000  2.0852e+000 30998 104373,104425,104399
 7.0000e+000 104500  5.3062e+000  8.1360e+000 -6.3480e-001 30998 104295,104451,104321
 7.0000e+000 104477  1.9294e-001  5.4491e+000  3.3481e+000 30998 104321,104373,104347
 7.0000e+000 104947 -2.4043e+000  2.7104e+000 -2.8530e+000 30608 104751,104803,104777
 7.0000e+000 104924  9.8697e-001  1.4598e+000 -1.6365e+000 30608 104725,104803,104751
 7.0000e+000 104901  6.4915e-001  1.8589e+000 -1.1071e+000 30608 104699,104803,104725
 7.0000e+000 104878 -1.0389e+000  1.4498e+000 -1.4337e+000 30608 104673,104803,104699
 7.0000e+000 104855 -8.2649e-001  4.4345e+000 -7.6137e-001 30608 104673,104829,104803
 7.0000e+000 105276  9.5220e-001  2.4004e+000 -1.7663e-002 30204 105427,105129,105077
 7.0000e+000 105253  1.7268e-001  4.0296e+000 -1.3834e+000 30204 105427,105077,105051
 7.0000e+000 105230 -1.6881e-001  2.3820e+000  7.9522e-002 30204 105077,105129,105103
 7.0000e+000 105207  2.3798e+000  4.0357e+000 -1.3941e+000 30204 105299,105181,105155
 7.0000e+000 105325  2.8632e-001  3.1326e+000 -1.3150e+000 30204 105129,105181,105299
 7.0000e+000 105453  1.4737e+000  3.0455e+000 -1.4657e+000 30204 105181,105129,105427
 7.0000e+000 105476  2.5415e+000  5.5395e+000 -3.1089e+000 30204 105181,105427,105051
 7.0000e+000 105903 -5.7486e-001  4.2174e-001 -1.6371e-001 29700 105606,105762,105736
 7.0000e+000 105880 -9.8353e-001  2.0507e-001 -3.0513e-001 29700 105580,105762,105606
 7.0000e+000 105857 -5.7763e-001  1.3486e-001 -1.0829e-002 29700 105606,105710,105632
 7.0000e+000 105834 -7.5850e-001 -4.0252e-001 -3.3989e-002 29700 105606,105736,105710
 7.0000e+000 105811 -5.8144e-001 -5.3329e-001 -6.6808e-002 29700 105632,105710,105684
 7.0000e+000 105788 -3.8640e-001 -1.3513e-001 -1.0703e+000 29700 105632,105684,105658
 7.0000e+000 106102  1.7134e+000  8.9875e-001 -1.3091e+000 29124 105978,106030,106004
 7.0000e+000 106079  2.0984e+000  1.7574e+000 -9.6157e-001 29124 105926,106030,105978
 7.0000e+000 106056  2.4234e+000  3.0646e+000 -1.6881e+000 29124 105926,105978,105952
 7.0000e+000 106301 -1.0427e+000 -1.0762e+000  8.9678e-002 28712 106151,106229,106203
 7.0000e+000 106278 -1.1232e+000 -9.4531e-001  1.6752e-001 28712 106125,106229,106151
 7.0000e+000 106255 -8.2846e-001 -1.1133e+000  2.0468e-001 28712 106151,106203,106177
 7.0000e+000 106551  3.3766e+000  1.7286e+000  2.1295e+000 28258 106352,106404,106378
 7.0000e+000 106528  3.1459e+000  2.7055e+000  7.3512e-001 28258 106352,106456,106404
 7.0000e+000 106505  1.4036e+000  6.7312e+000  2.2867e+000 28258 106326,106456,106352
 7.0000e+000 106482  4.1200e+000  4.0526e+000  9.4123e-003 28258 106404,106456,106430
 7.0000e+000 107012 -9.1989e-002  2.7280e+000 -1.5755e+000 27818 107035,106790,106764
 7.0000e+000 106989 -1.2843e+000  6.8060e-001 -1.9200e-001 27818 107035,106764,106868
 7.0000e+000 106966 -7.2272e-001 -1.3249e+000  6.1607e-001 27818 107107,106842,106816
 7.0000e+000 106943  5.6883e-002  1.6163e+000 -5.9992e-001 27818 106738,106868,106764
 7.0000e+000 106920 -2.9320e-001  8.0617e-001 -5.9122e-001 27818 106738,106894,106868
 7.0000e+000 107061 -2.3484e+000  9.5945e-001 -5.6923e-001 27818 106816,106790,107035
 7.0000e+000 107084 -1.8204e+000 -3.0574e-001  6.4998e-001 27818 107107,106816,107035
 7.0000e+000 107133  4.6932e-001 -8.5726e-002  5.4379e-002 27818 106868,106842,107107
 7.0000e+000 107156 -6.9455e-001  1.0958e+000  1.3634e-001 27818 106868,107107,107035
 7.0000e+000 107613 -1.0621e+000  8.1982e-001 -1.0524e+000 27312 107339,107469,107365
 7.0000e+000 107590 -3.1998e+000  6.1558e-001 -1.0940e+000 27312 107339,107495,107469
 7.0000e+000 107567 -3.0587e+000  1.0896e+000 -4.7617e-001 27312 107391,107469,107443
 7.0000e+000 107544 -9.9971e-001  1.1541e+000 -8.9717e-002 27312 107365,107469,107391
 7.0000e+000 107521 -4.2365e+000 -4.3458e-001  1.9392e+000 27312 107391,107443,107417
 7.0000e+000 107991  6.1121e+000  4.6710e+000  6.2164e-001 26858 108086,108014,107795
 7.0000e+000 107968  5.7904e+000  6.9532e+000  2.0091e+000 26858 108014,107717,107873
 7.0000e+000 107945  6.0150e+000  4.4377e+000  6.4356e-001 26858 108158,108086,107795
 7.0000e+000 107922  5.9297e+000  4.1605e+000  7.4674e-001 26858 108158,107795,107769
 7.0000e+000 107899  3.1661e+000  6.3994e+000 -6.5831e-001 26858 107821,107873,107847
 7.0000e+000 108040  5.5672e+000  5.2586e+000 -5.1270e-003 26858 107821,107795,108014
 7.0000e+000 108063  2.9343e+000  5.5845e+000  8.8647e-001 26858 107821,108014,107873
 7.0000e+000 108112  6.0308e+000  4.6332e+000  6.0855e-001 26858 107717,108014,108086
 7.0000e+000 108135  6.0063e+000  4.9037e+000  5.3960e-001 26858 107717,108086,107743
 7.0000e+000 108184  5.9054e+000  4.7825e+000  6.5112e-001 26858 107743,108086,108158
 7.0000e+000 108207  5.9318e+000  4.5955e+000  6.8706e-001 26858 107743,108158,107769
 7.0000e+000 108634  3.8635e-002  3.3034e+000  3.4975e-001 26404 108657,108415,108363
 7.0000e+000 108611  1.6829e-001  3.6483e+000  4.0253e-001 26404 108657,108363,108337
 7.0000e+000 108588  1.8070e-001  1.6466e+000 -3.2184e-001 26404 108729,108311,108467
 7.0000e+000 108565  3.4012e+000  1.3190e+000  4.6105e-001 26404 108801,108441,108415
 7.0000e+000 108542  5.6059e-001  1.8482e+000 -5.4458e-001 26404 108311,108493,108467
 7.0000e+000 108519  3.3923e+000  3.7338e+000  5.7985e-001 26404 108363,108415,108389
 7.0000e+000 108683  1.2785e+000  3.3193e+000  7.6696e-001 26404 108801,108415,108657
 7.0000e+000 108706  3.4773e-001  2.2588e+000 -1.0886e-001 26404 108729,108467,108657
 7.0000e+000 108755 -1.8969e-001  2.3235e+000 -4.2999e-001 26404 108337,108311,108729
 7.0000e+000 108778 -6.3231e-002  2.9323e+000 -3.5638e-001 26404 108337,108729,108657
 7.0000e+000 108827  1.1310e+000 -2.2311e+000 -6.8864e-001 26404 108467,108441,108801
 7.0000e+000 108850 -2.2422e-001  9.8089e-001 -2.7951e-001 26404 108467,108801,108657
 7.0000e+000 109228 -7.3671e-001 -1.0126e+000  1.2631e-001 26064 109006,109084,109058
 7.0000e+000 109205 -9.8359e-001 -9.6960e-001  3.1945e-001 26064 108980,109084,109006
 7.0000e+000 109182 -5.1459e-001 -6.6339e-001  1.7135e-001 26064 108980,109110,109084
 7.0000e+000 109159 -6.5294e-001 -1.2356e+000  2.9926e-001 26064 109006,109058,109032
 7.0000e+000 109136 -1.5004e+000 -5.6934e-001  8.5850e-002 26064 108954,109110,108980
 7.0000e+000 109427  4.4353e+000  1.9037e+000 -2.8374e+000 25660 109303,109355,109329
 7.0000e+000 109404  3.7289e+000  8.0256e-001 -8.4057e-001 25660 109277,109355,109303
 7.0000e+000 109381  2.2001e+000  2.4945e+000 -1.7728e-001 25660 109251,109355,109277
 7.0000e+000 109577  3.9817e+000  8.9827e+000 -3.2472e+000 25306 109476,109528,109502
 7.0000e+000 109554  4.9357e+000  1.2006e+001  6.2852e-001 25306 109450,109528,109476
 7.0000e+000 109778 -7.3467e-001 -1.5668e+000 -4.2572e-003 24944 109628,109706,109654
 7.0000e+000 109755 -7.3937e-001 -1.0670e+000 -9.5013e-002 24944 109602,109706,109628
 7.0000e+000 109732 -5.8823e-001 -9.2147e-001  2.2045e-001 24944 109654,109706,109680
 7.0000e+000 110126  7.6857e+000  6.7929e+000 -8.0646e-001 24440 110149,109907,109855
 7.0000e+000 110103  9.5271e+000  6.0014e+000 -2.2001e-001 24440 110149,109855,109985
 7.0000e+000 110080  7.3445e+000  8.4575e+000 -1.0411e-001 24440 109855,109907,109881
 7.0000e+000 110057  8.6008e+000  7.2112e+000  1.2617e+000 24440 109829,109985,109855
 7.0000e+000 110034  7.7973e+000  8.4781e+000  9.5325e-001 24440 109907,109959,109933
 7.0000e+000 110011  1.8294e+001  1.0470e+001 -2.2812e+000 24440 109803,109985,109829
 7.0000e+000 110175  8.5593e+000  6.8304e+000  3.1604e-001 24440 109959,109907,110149
 7.0000e+000 110198  1.1231e+001  6.6924e+000  9.2999e-001 24440 109959,110149,109985
 7.0000e+000 110301  1.9954e+000  2.0651e+001  3.9818e+000 24028 110223,110275,110249
 7.0000e+000 110573 -2.3625e-001 -9.2227e-001  8.5410e-002 23467 110400,110452,110426
 7.0000e+000 110550 -3.4421e-001 -1.1244e+000  3.9400e-002 23467 110374,110452,110400
 7.0000e+000 110527 -6.0955e-001 -1.2356e+000  1.4790e-001 23467 110348,110452,110374
 7.0000e+000 110504 -5.2791e-001 -9.5282e-001  7.2653e-002 23467 110348,110478,110452
 7.0000e+000 111004  2.3041e+000 -8.5537e-002 -2.0868e+000 22963 111027,110733,110707
 7.0000e+000 110981  3.3179e-002 -4.0461e-001 -1.8309e-001 22963 111027,110707,110681
 7.0000e+000 110958  4.1048e+000  4.3519e+000 -3.9363e+000 22963 111099,110759,110733
 7.0000e+000 110935 -4.4039e+000  1.1393e+000 -2.3816e+000 22963 111171,110863,110811
 7.0000e+000 110912  8.0939e+000  7.2979e+000 -5.9921e+000 22963 110759,110811,110785
 7.0000e+000 110889 -8.6212e+000 -1.4143e+000  1.6747e+000 22963 110811,110863,110837
 7.0000e+000 111053 -2.2201e+000 -3.8461e-001 -1.1772e+000 22963 111099,110733,111027
 7.0000e+000 111076 -3.5077e+000  1.6236e+000 -2.6485e+000 22963 111171,110811,111027
 7.0000e+000 111125  4.5498e+000  5.6415e+000 -7.2545e+000 22963 110811,110759,111099
 7.0000e+000 111148  3.7389e+000  6.5107e+000 -5.4691e+000 22963 110811,111099,111027
 7.0000e+000 111197 -2.5211e+000 -2.8513e+000 -6.2450e-001 22963 110681,110863,111171
 7.0000e+000 111220  2.0543e+000  9.3194e-002 -1.8888e+000 22963 110681,111171,111027
 7.0000e+000 111726 -4.0906e+000  3.2679e+000 -2.2202e+000 22459 111749,111507,111429
 7.0000e+000 111703  1.5411e-001  4.9656e+000 -3.3145e+000 22459 111749,111429,111585
 7.0000e+000 111680  3.1255e+000  1.8562e+000 -2.7707e+000 22459 111403,111585,111429
 7.0000e+000 111657 -1.8523e+000  5.7667e-002  4.6519e-001 22459 111507,111559,111533
 7.0000e+000 111634 -5.1841e+000  2.9839e+000  1.1991e+000 22459 111455,111507,111481
 7.0000e+000 111611 -1.8334e+001 -1.3409e+000  3.0853e+000 22459 111429,111507,111455
 7.0000e+000 111775 -2.7926e+000  1.2667e+000  1.0618e+000 22459 111559,111507,111749
 7.0000e+000 111798  6.1598e-001  3.4450e+000 -1.7111e-001 22459 111559,111749,111585
 7.0000e+000 112046 -1.9867e-001 -1.1178e+000 -1.4429e-001 21898 112069,111925,111873
 7.0000e+000 112023 -1.8814e-001 -1.1764e+000  1.1384e-001 21898 112069,111873,111847
 7.0000e+000 112000 -1.9883e-001 -5.8280e-001  3.6760e-001 21898 111821,111951,111847
 7.0000e+000 111977 -3.0067e-001 -8.5653e-001 -9.0527e-002 21898 111873,111925,111899
 7.0000e+000 112095 -5.5472e-001 -1.2620e+000 -1.5657e-001 21898 111951,111925,112069
 7.0000e+000 112118 -3.8781e-001 -1.2550e+000  8.9804e-002 21898 111951,112069,111847
 7.0000e+000 112498  3.3477e+000  2.3698e+000  2.2712e-001 21608 112521,112276,112224
 7.0000e+000 112475  4.1765e+000  2.7229e+000  1.6709e-001 21608 112521,112224,112380
 7.0000e+000 112452  4.6818e+000  1.5935e+000  6.8723e-001 21608 112302,112380,112354
 7.0000e+000 112429  2.3919e+000  3.4697e+000  6.9081e-001 21608 112224,112276,112250
 7.0000e+000 112406  7.5269e+000 -1.1050e-001 -8.1105e-001 21608 112302,112354,112328
 7.0000e+000 112547  3.9604e+000  1.7710e+000  8.9447e-001 21608 112302,112276,112521
 7.0000e+000 112570  4.9000e+000  2.2062e+000  7.2118e-001 21608 112302,112521,112380
 7.0000e+000 112948  3.1611e-001  5.3555e+000  8.6595e-001 20882 112971,112752,112700
 7.0000e+000 112925 -3.1510e-001  5.3646e+000  1.5785e+000 20882 112971,112700,112830
 7.0000e+000 112902  9.6459e-001  6.9579e+000  8.1221e-001 20882 112778,112830,112804
 7.0000e+000 112879 -3.6443e-001  5.4647e+000  1.5280e+000 20882 112674,112830,112700
 7.0000e+000 112856  5.8425e-001  5.0364e+000  8.1580e-001 20882 112700,112752,112726
 7.0000e+000 112997  5.2709e-001  5.8090e+000  5.7648e-001 20882 112778,112752,112971
 7.0000e+000 113020  9.7563e-002  5.8633e+000  1.2737e+000 20882 112778,112971,112830
 7.0000e+000 113526  6.3183e+000  6.8237e+000  1.3870e-001 20428 113255,113385,113333
 7.0000e+000 113503  7.2022e+000  8.3023e+000  5.2540e-001 20428 113229,113385,113255
 7.0000e+000 113480  7.9008e+000  6.5530e+000 -1.3291e-002 20428 113255,113333,113281
 7.0000e+000 113457  6.7856e+000  9.4182e+000  1.1544e+000 20428 113203,113385,113229
 7.0000e+000 113434  8.0555e+000  6.3774e+000  1.2459e-002 20428 113281,113333,113307
 7.0000e+000 113411  7.0303e+000  7.0431e+000 -8.4782e-002 20428 113333,113385,113359
 7.0000e+000 113774 -2.0429e-002 -1.0606e+000  7.9342e-001 19917 113797,113601,113549
 7.0000e+000 113751 -2.2696e-001 -3.0104e-001  5.2686e-001 19917 113869,113797,113549
 7.0000e+000 113728 -2.7491e-001 -2.3633e-001  2.6202e-001 19917 113869,113549,113679
 7.0000e+000 113705 -1.6741e+000 -3.4661e+000  1.7425e+000 19917 113549,113601,113575
 7.0000e+000 113823 -5.7266e-001 -4.0812e+000  6.8776e-001 19917 113627,113601,113797
 7.0000e+000 113846  5.7743e-001 -1.1593e+000  4.6711e-001 19917 113627,113797,113653
 7.0000e+000 113895 -3.7946e-001 -9.6418e-001  7.1841e-001 19917 113653,113797,113869
 7.0000e+000 113918 -1.7975e-001 -7.9947e-001  3.7810e-001 19917 113653,113869,113679
 7.0000e+000 114166  2.6168e+000  4.6392e+000  3.7710e-001 19413 113993,114045,114019
 7.0000e+000 114143  1.5855e+000  3.8394e+000  2.6927e-002 19413 113967,114045,113993
 7.0000e+000 114120  2.8811e+000  4.3354e+000  4.6826e-001 19413 113967,114071,114045
 7.0000e+000 114097 -5.5663e-001  2.8744e+000 -4.1242e-002 19413 113941,114071,113967
 7.0000e+000 114438 -3.2691e-001 -2.3478e+000  2.7644e-001 19001 114213,114265,114239
 7.0000e+000 114415  6.2364e-002 -1.2534e+000  2.4254e-001 19001 114213,114343,114265
 7.0000e+000 114392 -3.5504e-001 -2.1202e+000  6.6353e-002 19001 114265,114343,114317
 7.0000e+000 114369  8.1772e-001 -1.7598e+000 -1.0620e-001 19001 114265,114317,114291
 7.0000e+000 114639  7.8817e-001 -2.6415e+000  5.6088e-001 18554 114489,114541,114515
 7.0000e+000 114616  1.0936e-001 -1.5222e+000  3.5019e-001 18554 114489,114567,114541
 7.0000e+000 114593 -8.7203e-001 -1.7809e+000  1.0392e-001 18554 114463,114567,114489
 7.0000e+000 115043  6.0304e+000  4.5781e+000  3.6656e-001 18164 114795,114925,114821
 7.0000e+000 115020  5.6661e+000  5.7294e+000  1.1425e-002 18164 114769,114925,114795
 7.0000e+000 114997  6.6559e+000  3.4150e+000 -3.4291e-001 18164 115066,114873,114821
 7.0000e+000 114974  6.8169e+000  4.4014e+000 -4.3310e-001 18164 115066,114821,114925
 7.0000e+000 114951  1.3793e+001  3.8238e+000 -3.2221e+000 18164 114821,114873,114847
 7.0000e+000 115092  6.2130e+000  4.1256e+000 -8.7407e-001 18164 114899,114873,115066
 7.0000e+000 115115  6.7284e+000  5.6215e+000 -9.9515e-001 18164 114899,115066,114925
 7.0000e+000 115265  7.7364e+000  8.4486e+000  1.4891e-001 17852 115164,115216,115190
 7.0000e+000 115242  7.0020e+000  7.8315e+000 -1.9951e-001 17852 115138,115216,115164
 7.0000e+000 115464 -1.1277e+001 -1.1778e+001 -7.0348e-001 17346 115288,115366,115340
 7.0000e+000 115441 -1.2691e+001 -5.0823e+000 -2.6801e+000 17346 115288,115392,115366
 7.0000e+000 115418 -3.7879e+000 -1.1232e+001 -2.9004e-001 17346 115288,115340,115314
 7.0000e+000 115736  7.8203e+000  8.4545e+000  9.3070e-001 16942 115563,115641,115615
 7.0000e+000 115713  7.0665e+000  7.2024e+000  6.1093e-001 16942 115511,115641,115563
 7.0000e+000 115690  8.5955e+000  8.7038e+000  1.1202e+000 16942 115563,115615,115589
 7.0000e+000 115667  7.8621e+000  9.8328e+000  4.1588e-001 16942 115511,115563,115537
 7.0000e+000 116091 -2.4032e+000 -3.9341e+000  1.2294e+000 16388 115918,115970,115944
 7.0000e+000 116068 -4.6539e+000 -5.7196e+000  3.5531e-002 16388 115918,115996,115970
 7.0000e+000 116045 -6.5406e+000 -4.8470e+000  6.4491e-001 16388 115892,115996,115918
 7.0000e+000 116022 -1.2022e+000 -7.4399e-001  3.0953e+000 16388 115866,115996,115892
 7.0000e+000 116192  6.8218e+000  5.5967e+000  5.8067e-001 15810 116114,116166,116140
 7.0000e+000 116342 -9.1939e-001 -3.2723e+000 -2.8258e-005 15419 116241,116293,116267
 7.0000e+000 116319 -1.2240e+000 -3.4111e+000 -5.9989e-002 15419 116215,116293,116241
 7.0000e+000 116445  1.0591e+000  4.5971e+000  4.7868e-002 421 116367,116419,116393
